    1C
    1UUSER                                                              
    1UDATE              27.october.2022                                 
    1UTIME              00:25:30                                        
    1UHOST                                                              
    1UPGM               CalculiX                                        
    1UVERSION           Version 2.17                             
    1UCOMPILETIME       Thu Jul 23 21:43:50 CEST 2020                    
    1UDIR                                                               
    1UDBN                                                               
    1UMAT    1SOLIDMATERIAL                                             
    2C                          4305                                     1
 -1         1 2.32446E+01 3.08354E+01 0.00000E+00
 -1         2 3.02446E+01 2.38354E+01 0.00000E+00
 -1         3 1.50000E+02 0.00000E+00 0.00000E+00
 -1         4 1.50000E+02 5.00000E+01 0.00000E+00
 -1         5 0.00000E+00 0.00000E+00 0.00000E+00
 -1         6 0.00000E+00 5.00000E+01 0.00000E+00
 -1         7 0.00000E+00 4.70500E+01 0.00000E+00
 -1         8 0.00000E+00 4.41000E+01 0.00000E+00
 -1         9 0.00000E+00 4.11500E+01 0.00000E+00
 -1        10 0.00000E+00 3.82000E+01 0.00000E+00
 -1        11 0.00000E+00 3.52500E+01 0.00000E+00
 -1        12 0.00000E+00 3.23000E+01 0.00000E+00
 -1        13 0.00000E+00 2.93500E+01 0.00000E+00
 -1        14 0.00000E+00 2.64500E+01 0.00000E+00
 -1        15 0.00000E+00 2.35000E+01 0.00000E+00
 -1        16 0.00000E+00 2.06000E+01 0.00000E+00
 -1        17 0.00000E+00 1.76500E+01 0.00000E+00
 -1        18 0.00000E+00 1.47000E+01 0.00000E+00
 -1        19 0.00000E+00 1.17500E+01 0.00000E+00
 -1        20 0.00000E+00 8.80000E+00 0.00000E+00
 -1        21 0.00000E+00 5.85000E+00 0.00000E+00
 -1        22 0.00000E+00 2.90000E+00 0.00000E+00
 -1        23 3.15000E+00 5.00000E+01 0.00000E+00
 -1        24 6.15000E+00 5.00000E+01 0.00000E+00
 -1        25 9.15000E+00 5.00000E+01 0.00000E+00
 -1        26 1.21500E+01 5.00000E+01 0.00000E+00
 -1        27 1.51500E+01 5.00000E+01 0.00000E+00
 -1        28 1.81500E+01 5.00000E+01 0.00000E+00
 -1        29 2.11500E+01 5.00000E+01 0.00000E+00
 -1        30 2.41500E+01 5.00000E+01 0.00000E+00
 -1        31 2.71500E+01 5.00000E+01 0.00000E+00
 -1        32 3.01500E+01 5.00000E+01 0.00000E+00
 -1        33 3.31500E+01 5.00000E+01 0.00000E+00
 -1        34 3.61500E+01 5.00000E+01 0.00000E+00
 -1        35 3.91500E+01 5.00000E+01 0.00000E+00
 -1        36 4.21500E+01 5.00000E+01 0.00000E+00
 -1        37 4.51500E+01 5.00000E+01 0.00000E+00
 -1        38 4.81500E+01 5.00000E+01 0.00000E+00
 -1        39 5.11500E+01 5.00000E+01 0.00000E+00
 -1        40 5.41500E+01 5.00000E+01 0.00000E+00
 -1        41 5.71500E+01 5.00000E+01 0.00000E+00
 -1        42 6.01500E+01 5.00000E+01 0.00000E+00
 -1        43 6.31500E+01 5.00000E+01 0.00000E+00
 -1        44 6.61500E+01 5.00000E+01 0.00000E+00
 -1        45 6.91500E+01 5.00000E+01 0.00000E+00
 -1        46 7.21500E+01 5.00000E+01 0.00000E+00
 -1        47 7.51500E+01 5.00000E+01 0.00000E+00
 -1        48 7.81500E+01 5.00000E+01 0.00000E+00
 -1        49 8.11500E+01 5.00000E+01 0.00000E+00
 -1        50 8.41500E+01 5.00000E+01 0.00000E+00
 -1        51 8.71500E+01 5.00000E+01 0.00000E+00
 -1        52 9.01500E+01 5.00000E+01 0.00000E+00
 -1        53 9.31500E+01 5.00000E+01 0.00000E+00
 -1        54 9.61500E+01 5.00000E+01 0.00000E+00
 -1        55 9.91500E+01 5.00000E+01 0.00000E+00
 -1        56 1.02150E+02 5.00000E+01 0.00000E+00
 -1        57 1.05150E+02 5.00000E+01 0.00000E+00
 -1        58 1.08150E+02 5.00000E+01 0.00000E+00
 -1        59 1.11150E+02 5.00000E+01 0.00000E+00
 -1        60 1.14150E+02 5.00000E+01 0.00000E+00
 -1        61 1.17150E+02 5.00000E+01 0.00000E+00
 -1        62 1.20150E+02 5.00000E+01 0.00000E+00
 -1        63 1.23150E+02 5.00000E+01 0.00000E+00
 -1        64 1.26150E+02 5.00000E+01 0.00000E+00
 -1        65 1.29150E+02 5.00000E+01 0.00000E+00
 -1        66 1.32150E+02 5.00000E+01 0.00000E+00
 -1        67 1.35150E+02 5.00000E+01 0.00000E+00
 -1        68 1.38150E+02 5.00000E+01 0.00000E+00
 -1        69 1.41150E+02 5.00000E+01 0.00000E+00
 -1        70 1.44150E+02 5.00000E+01 0.00000E+00
 -1        71 1.47150E+02 5.00000E+01 0.00000E+00
 -1        72 3.15000E+00 0.00000E+00 0.00000E+00
 -1        73 6.15000E+00 0.00000E+00 0.00000E+00
 -1        74 9.15000E+00 0.00000E+00 0.00000E+00
 -1        75 1.21500E+01 0.00000E+00 0.00000E+00
 -1        76 1.51500E+01 0.00000E+00 0.00000E+00
 -1        77 1.81500E+01 0.00000E+00 0.00000E+00
 -1        78 2.11500E+01 0.00000E+00 0.00000E+00
 -1        79 2.41500E+01 0.00000E+00 0.00000E+00
 -1        80 2.71500E+01 0.00000E+00 0.00000E+00
 -1        81 3.01500E+01 0.00000E+00 0.00000E+00
 -1        82 3.31500E+01 0.00000E+00 0.00000E+00
 -1        83 3.61500E+01 0.00000E+00 0.00000E+00
 -1        84 3.91500E+01 0.00000E+00 0.00000E+00
 -1        85 4.21500E+01 0.00000E+00 0.00000E+00
 -1        86 4.51500E+01 0.00000E+00 0.00000E+00
 -1        87 4.81500E+01 0.00000E+00 0.00000E+00
 -1        88 5.11500E+01 0.00000E+00 0.00000E+00
 -1        89 5.41500E+01 0.00000E+00 0.00000E+00
 -1        90 5.71500E+01 0.00000E+00 0.00000E+00
 -1        91 6.01500E+01 0.00000E+00 0.00000E+00
 -1        92 6.31500E+01 0.00000E+00 0.00000E+00
 -1        93 6.61500E+01 0.00000E+00 0.00000E+00
 -1        94 6.91500E+01 0.00000E+00 0.00000E+00
 -1        95 7.21500E+01 0.00000E+00 0.00000E+00
 -1        96 7.51500E+01 0.00000E+00 0.00000E+00
 -1        97 7.81500E+01 0.00000E+00 0.00000E+00
 -1        98 8.11500E+01 0.00000E+00 0.00000E+00
 -1        99 8.41500E+01 0.00000E+00 0.00000E+00
 -1       100 8.71500E+01 0.00000E+00 0.00000E+00
 -1       101 9.01500E+01 0.00000E+00 0.00000E+00
 -1       102 9.31500E+01 0.00000E+00 0.00000E+00
 -1       103 9.61500E+01 0.00000E+00 0.00000E+00
 -1       104 9.91500E+01 0.00000E+00 0.00000E+00
 -1       105 1.02150E+02 0.00000E+00 0.00000E+00
 -1       106 1.05150E+02 0.00000E+00 0.00000E+00
 -1       107 1.08150E+02 0.00000E+00 0.00000E+00
 -1       108 1.11150E+02 0.00000E+00 0.00000E+00
 -1       109 1.14150E+02 0.00000E+00 0.00000E+00
 -1       110 1.17150E+02 0.00000E+00 0.00000E+00
 -1       111 1.20150E+02 0.00000E+00 0.00000E+00
 -1       112 1.23150E+02 0.00000E+00 0.00000E+00
 -1       113 1.26150E+02 0.00000E+00 0.00000E+00
 -1       114 1.29150E+02 0.00000E+00 0.00000E+00
 -1       115 1.32150E+02 0.00000E+00 0.00000E+00
 -1       116 1.35150E+02 0.00000E+00 0.00000E+00
 -1       117 1.38150E+02 0.00000E+00 0.00000E+00
 -1       118 1.41150E+02 0.00000E+00 0.00000E+00
 -1       119 1.44150E+02 0.00000E+00 0.00000E+00
 -1       120 1.47150E+02 0.00000E+00 0.00000E+00
 -1       121 1.50000E+02 2.95000E+00 0.00000E+00
 -1       122 1.50000E+02 5.90000E+00 0.00000E+00
 -1       123 1.50000E+02 8.85000E+00 0.00000E+00
 -1       124 1.50000E+02 1.18000E+01 0.00000E+00
 -1       125 1.50000E+02 1.47500E+01 0.00000E+00
 -1       126 1.50000E+02 1.76500E+01 0.00000E+00
 -1       127 1.50000E+02 2.06000E+01 0.00000E+00
 -1       128 1.50000E+02 2.35500E+01 0.00000E+00
 -1       129 1.50000E+02 2.65000E+01 0.00000E+00
 -1       130 1.50000E+02 2.94500E+01 0.00000E+00
 -1       131 1.50000E+02 3.24000E+01 0.00000E+00
 -1       132 1.50000E+02 3.53000E+01 0.00000E+00
 -1       133 1.50000E+02 3.82500E+01 0.00000E+00
 -1       134 1.50000E+02 4.12000E+01 0.00000E+00
 -1       135 1.50000E+02 4.41500E+01 0.00000E+00
 -1       136 1.50000E+02 4.71000E+01 0.00000E+00
 -1       137 3.00759E+01 2.23077E+01 0.00000E+00
 -1       138 2.95872E+01 2.08736E+01 0.00000E+00
 -1       139 2.88151E+01 1.95964E+01 0.00000E+00
 -1       140 2.78425E+01 1.85572E+01 0.00000E+00
 -1       141 2.66509E+01 1.77201E+01 0.00000E+00
 -1       142 2.52821E+01 1.71385E+01 0.00000E+00
 -1       143 2.37796E+01 1.68559E+01 0.00000E+00
 -1       144 2.22665E+01 1.69041E+01 0.00000E+00
 -1       145 2.08024E+01 1.72753E+01 0.00000E+00
 -1       146 1.94354E+01 1.79626E+01 0.00000E+00
 -1       147 1.83023E+01 1.88783E+01 0.00000E+00
 -1       148 1.73173E+01 2.01116E+01 0.00000E+00
 -1       149 1.66933E+01 2.13697E+01 0.00000E+00
 -1       150 1.63185E+01 2.28212E+01 0.00000E+00
 -1       151 1.62638E+01 2.43533E+01 0.00000E+00
 -1       152 1.65228E+01 2.57890E+01 0.00000E+00
 -1       153 1.70517E+01 2.70985E+01 0.00000E+00
 -1       154 1.78358E+01 2.82789E+01 0.00000E+00
 -1       155 1.88605E+01 2.92925E+01 0.00000E+00
 -1       156 2.02030E+01 3.01401E+01 0.00000E+00
 -1       157 2.17460E+01 3.06731E+01 0.00000E+00
 -1       158 2.47677E+01 3.06677E+01 0.00000E+00
 -1       159 2.63279E+01 3.01198E+01 0.00000E+00
 -1       160 2.76082E+01 2.93089E+01 0.00000E+00
 -1       161 2.86981E+01 2.82241E+01 0.00000E+00
 -1       162 2.95268E+01 2.69232E+01 0.00000E+00
 -1       163 3.00630E+01 2.54195E+01 0.00000E+00
 -1       164 2.59800E+00 4.55750E+01 0.00000E+00
 -1       165 2.59800E+00 4.26250E+01 0.00000E+00
 -1       166 2.59800E+00 3.96750E+01 0.00000E+00
 -1       167 2.59800E+00 3.67250E+01 0.00000E+00
 -1       168 2.59800E+00 3.37750E+01 0.00000E+00
 -1       169 2.59800E+00 3.08250E+01 0.00000E+00
 -1       170 2.59800E+00 2.79250E+01 0.00000E+00
 -1       171 2.59800E+00 2.49750E+01 0.00000E+00
 -1       172 2.59800E+00 2.20750E+01 0.00000E+00
 -1       173 2.59800E+00 1.91250E+01 0.00000E+00
 -1       174 2.59800E+00 1.61750E+01 0.00000E+00
 -1       175 2.59800E+00 1.32250E+01 0.00000E+00
 -1       176 2.59800E+00 1.02750E+01 0.00000E+00
 -1       177 2.59800E+00 7.32500E+00 0.00000E+00
 -1       178 2.59800E+00 4.37500E+00 0.00000E+00
 -1       179 2.87400E+00 2.18750E+00 0.00000E+00
 -1       180 4.65000E+00 4.74020E+01 0.00000E+00
 -1       181 7.65000E+00 4.74020E+01 0.00000E+00
 -1       182 1.06500E+01 4.74020E+01 0.00000E+00
 -1       183 1.36500E+01 4.74020E+01 0.00000E+00
 -1       184 1.66500E+01 4.74020E+01 0.00000E+00
 -1       185 1.96500E+01 4.74020E+01 0.00000E+00
 -1       186 2.26500E+01 4.74020E+01 0.00000E+00
 -1       187 2.56500E+01 4.74020E+01 0.00000E+00
 -1       188 2.86500E+01 4.74020E+01 0.00000E+00
 -1       189 3.16500E+01 4.74020E+01 0.00000E+00
 -1       190 3.46500E+01 4.74020E+01 0.00000E+00
 -1       191 3.76500E+01 4.74020E+01 0.00000E+00
 -1       192 4.06500E+01 4.74020E+01 0.00000E+00
 -1       193 4.36500E+01 4.74020E+01 0.00000E+00
 -1       194 4.66500E+01 4.74020E+01 0.00000E+00
 -1       195 4.96500E+01 4.74020E+01 0.00000E+00
 -1       196 5.26500E+01 4.74020E+01 0.00000E+00
 -1       197 5.56500E+01 4.74020E+01 0.00000E+00
 -1       198 5.86500E+01 4.74020E+01 0.00000E+00
 -1       199 6.16500E+01 4.74020E+01 0.00000E+00
 -1       200 6.46500E+01 4.74020E+01 0.00000E+00
 -1       201 6.76500E+01 4.74020E+01 0.00000E+00
 -1       202 7.06500E+01 4.74020E+01 0.00000E+00
 -1       203 7.36500E+01 4.74020E+01 0.00000E+00
 -1       204 7.66500E+01 4.74020E+01 0.00000E+00
 -1       205 7.96500E+01 4.74020E+01 0.00000E+00
 -1       206 8.26500E+01 4.74020E+01 0.00000E+00
 -1       207 8.56500E+01 4.74020E+01 0.00000E+00
 -1       208 8.86500E+01 4.74020E+01 0.00000E+00
 -1       209 9.16500E+01 4.74020E+01 0.00000E+00
 -1       210 9.46500E+01 4.74020E+01 0.00000E+00
 -1       211 9.76500E+01 4.74020E+01 0.00000E+00
 -1       212 1.00650E+02 4.74020E+01 0.00000E+00
 -1       213 1.03650E+02 4.74020E+01 0.00000E+00
 -1       214 1.06650E+02 4.74020E+01 0.00000E+00
 -1       215 1.09650E+02 4.74020E+01 0.00000E+00
 -1       216 1.12650E+02 4.74020E+01 0.00000E+00
 -1       217 1.15650E+02 4.74020E+01 0.00000E+00
 -1       218 1.18650E+02 4.74020E+01 0.00000E+00
 -1       219 1.21650E+02 4.74020E+01 0.00000E+00
 -1       220 1.24650E+02 4.74020E+01 0.00000E+00
 -1       221 1.27650E+02 4.74020E+01 0.00000E+00
 -1       222 1.30650E+02 4.74020E+01 0.00000E+00
 -1       223 1.33650E+02 4.74020E+01 0.00000E+00
 -1       224 1.36650E+02 4.74020E+01 0.00000E+00
 -1       225 1.39650E+02 4.74020E+01 0.00000E+00
 -1       226 1.42650E+02 4.74020E+01 0.00000E+00
 -1       227 1.45650E+02 4.74020E+01 0.00000E+00
 -1       228 5.87400E+00 2.18750E+00 0.00000E+00
 -1       229 8.87400E+00 2.18750E+00 0.00000E+00
 -1       230 1.18740E+01 2.18750E+00 0.00000E+00
 -1       231 1.48740E+01 2.18750E+00 0.00000E+00
 -1       232 1.78740E+01 2.18750E+00 0.00000E+00
 -1       233 2.08740E+01 2.18750E+00 0.00000E+00
 -1       234 2.38740E+01 2.18750E+00 0.00000E+00
 -1       235 2.68740E+01 2.18750E+00 0.00000E+00
 -1       236 2.98740E+01 2.18750E+00 0.00000E+00
 -1       237 3.28740E+01 2.18750E+00 0.00000E+00
 -1       238 3.58740E+01 2.18750E+00 0.00000E+00
 -1       239 3.88740E+01 2.18750E+00 0.00000E+00
 -1       240 4.18740E+01 2.18750E+00 0.00000E+00
 -1       241 4.48740E+01 2.18750E+00 0.00000E+00
 -1       242 4.78740E+01 2.18750E+00 0.00000E+00
 -1       243 5.08740E+01 2.18750E+00 0.00000E+00
 -1       244 5.38740E+01 2.18750E+00 0.00000E+00
 -1       245 5.68740E+01 2.18750E+00 0.00000E+00
 -1       246 5.98740E+01 2.18750E+00 0.00000E+00
 -1       247 6.28740E+01 2.18750E+00 0.00000E+00
 -1       248 6.58740E+01 2.18750E+00 0.00000E+00
 -1       249 6.88740E+01 2.18750E+00 0.00000E+00
 -1       250 7.18740E+01 2.18750E+00 0.00000E+00
 -1       251 7.48740E+01 2.18750E+00 0.00000E+00
 -1       252 7.78740E+01 2.18750E+00 0.00000E+00
 -1       253 8.08740E+01 2.18750E+00 0.00000E+00
 -1       254 8.38740E+01 2.18750E+00 0.00000E+00
 -1       255 8.68740E+01 2.18750E+00 0.00000E+00
 -1       256 8.98740E+01 2.18750E+00 0.00000E+00
 -1       257 9.28740E+01 2.18750E+00 0.00000E+00
 -1       258 9.58740E+01 2.18750E+00 0.00000E+00
 -1       259 9.88740E+01 2.18750E+00 0.00000E+00
 -1       260 1.01874E+02 2.18750E+00 0.00000E+00
 -1       261 1.04874E+02 2.18750E+00 0.00000E+00
 -1       262 1.07874E+02 2.18750E+00 0.00000E+00
 -1       263 1.10874E+02 2.18750E+00 0.00000E+00
 -1       264 1.13874E+02 2.18750E+00 0.00000E+00
 -1       265 1.16874E+02 2.18750E+00 0.00000E+00
 -1       266 1.19874E+02 2.18750E+00 0.00000E+00
 -1       267 1.22874E+02 2.18750E+00 0.00000E+00
 -1       268 1.25874E+02 2.18750E+00 0.00000E+00
 -1       269 1.28874E+02 2.18750E+00 0.00000E+00
 -1       270 1.31874E+02 2.18750E+00 0.00000E+00
 -1       271 1.34874E+02 2.18750E+00 0.00000E+00
 -1       272 1.37874E+02 2.18750E+00 0.00000E+00
 -1       273 1.40874E+02 2.18750E+00 0.00000E+00
 -1       274 1.43874E+02 2.18750E+00 0.00000E+00
 -1       275 1.46874E+02 2.18750E+00 0.00000E+00
 -1       276 1.47402E+02 4.42500E+00 0.00000E+00
 -1       277 1.47402E+02 7.37500E+00 0.00000E+00
 -1       278 1.47402E+02 1.03250E+01 0.00000E+00
 -1       279 1.47402E+02 1.32750E+01 0.00000E+00
 -1       280 1.47402E+02 1.61750E+01 0.00000E+00
 -1       281 1.47402E+02 1.91250E+01 0.00000E+00
 -1       282 1.47402E+02 2.20750E+01 0.00000E+00
 -1       283 1.47402E+02 2.50250E+01 0.00000E+00
 -1       284 1.47402E+02 2.79750E+01 0.00000E+00
 -1       285 1.47402E+02 3.09250E+01 0.00000E+00
 -1       286 1.47402E+02 3.38250E+01 0.00000E+00
 -1       287 1.47402E+02 3.67750E+01 0.00000E+00
 -1       288 1.47402E+02 3.97250E+01 0.00000E+00
 -1       289 1.47402E+02 4.26750E+01 0.00000E+00
 -1       290 1.46526E+02 4.50385E+01 0.00000E+00
 -1       291 3.16984E+01 2.29017E+01 0.00000E+00
 -1       292 3.10584E+01 2.11725E+01 0.00000E+00
 -1       293 3.03104E+01 1.95645E+01 0.00000E+00
 -1       294 2.92752E+01 1.81911E+01 0.00000E+00
 -1       295 2.79918E+01 1.70780E+01 0.00000E+00
 -1       296 2.64733E+01 1.62363E+01 0.00000E+00
 -1       297 2.47549E+01 1.58057E+01 0.00000E+00
 -1       298 2.29844E+01 1.56682E+01 0.00000E+00
 -1       299 2.12159E+01 1.58333E+01 0.00000E+00
 -1       300 1.95366E+01 1.64609E+01 0.00000E+00
 -1       301 1.80542E+01 1.74123E+01 0.00000E+00
 -1       302 1.67315E+01 1.86338E+01 0.00000E+00
 -1       303 1.59192E+01 2.02019E+01 0.00000E+00
 -1       304 1.53320E+01 2.17923E+01 0.00000E+00
 -1       305 1.49121E+01 2.35380E+01 0.00000E+00
 -1       306 1.52001E+01 2.52863E+01 0.00000E+00
 -1       307 1.56631E+01 2.68978E+01 0.00000E+00
 -1       308 1.64338E+01 2.83595E+01 0.00000E+00
 -1       309 1.74955E+01 2.96476E+01 0.00000E+00
 -1       310 1.88845E+01 3.07414E+01 0.00000E+00
 -1       311 2.05238E+01 3.17109E+01 0.00000E+00
 -1       312 2.23557E+01 3.20429E+01 0.00000E+00
 -1       313 2.41389E+01 3.19567E+01 0.00000E+00
 -1       314 2.60051E+01 3.16958E+01 0.00000E+00
 -1       315 2.76168E+01 3.07386E+01 0.00000E+00
 -1       316 2.90676E+01 2.96851E+01 0.00000E+00
 -1       317 3.01350E+01 2.82250E+01 0.00000E+00
 -1       318 3.10947E+01 2.66349E+01 0.00000E+00
 -1       319 3.15248E+01 2.47846E+01 0.00000E+00
 -1       320 5.19600E+00 4.11500E+01 0.00000E+00
 -1       321 5.19600E+00 4.41000E+01 0.00000E+00
 -1       322 5.19600E+00 3.52500E+01 0.00000E+00
 -1       323 5.19600E+00 3.23000E+01 0.00000E+00
 -1       324 5.19600E+00 2.94000E+01 0.00000E+00
 -1       325 5.19600E+00 2.64500E+01 0.00000E+00
 -1       326 5.19600E+00 2.35500E+01 0.00000E+00
 -1       327 5.19600E+00 2.06000E+01 0.00000E+00
 -1       328 5.19600E+00 1.76500E+01 0.00000E+00
 -1       329 5.19600E+00 1.47000E+01 0.00000E+00
 -1       330 5.19600E+00 1.17500E+01 0.00000E+00
 -1       331 5.19600E+00 8.80000E+00 0.00000E+00
 -1       332 5.19600E+00 5.85000E+00 0.00000E+00
 -1       333 5.53500E+00 4.01875E+00 0.00000E+00
 -1       334 8.53500E+00 4.01875E+00 0.00000E+00
 -1       335 9.15000E+00 4.48040E+01 0.00000E+00
 -1       336 1.21500E+01 4.48040E+01 0.00000E+00
 -1       337 1.51500E+01 4.48040E+01 0.00000E+00
 -1       338 1.81500E+01 4.48040E+01 0.00000E+00
 -1       339 2.11500E+01 4.48040E+01 0.00000E+00
 -1       340 2.41500E+01 4.48040E+01 0.00000E+00
 -1       341 2.71500E+01 4.48040E+01 0.00000E+00
 -1       342 3.01500E+01 4.48040E+01 0.00000E+00
 -1       343 3.31500E+01 4.48040E+01 0.00000E+00
 -1       344 3.61500E+01 4.48040E+01 0.00000E+00
 -1       345 3.91500E+01 4.48040E+01 0.00000E+00
 -1       346 4.21500E+01 4.48040E+01 0.00000E+00
 -1       347 4.51500E+01 4.48040E+01 0.00000E+00
 -1       348 4.81500E+01 4.48040E+01 0.00000E+00
 -1       349 5.11500E+01 4.48040E+01 0.00000E+00
 -1       350 5.41500E+01 4.48040E+01 0.00000E+00
 -1       351 5.71500E+01 4.48040E+01 0.00000E+00
 -1       352 6.01500E+01 4.48040E+01 0.00000E+00
 -1       353 6.31500E+01 4.48040E+01 0.00000E+00
 -1       354 6.61500E+01 4.48040E+01 0.00000E+00
 -1       355 6.91500E+01 4.48040E+01 0.00000E+00
 -1       356 7.21500E+01 4.48040E+01 0.00000E+00
 -1       357 7.51500E+01 4.48040E+01 0.00000E+00
 -1       358 7.81500E+01 4.48040E+01 0.00000E+00
 -1       359 8.11500E+01 4.48040E+01 0.00000E+00
 -1       360 8.41500E+01 4.48040E+01 0.00000E+00
 -1       361 8.71500E+01 4.48040E+01 0.00000E+00
 -1       362 9.01500E+01 4.48040E+01 0.00000E+00
 -1       363 9.31500E+01 4.48040E+01 0.00000E+00
 -1       364 9.61500E+01 4.48040E+01 0.00000E+00
 -1       365 9.91500E+01 4.48040E+01 0.00000E+00
 -1       366 1.02150E+02 4.48040E+01 0.00000E+00
 -1       367 1.05150E+02 4.48040E+01 0.00000E+00
 -1       368 1.08150E+02 4.48040E+01 0.00000E+00
 -1       369 1.11150E+02 4.48040E+01 0.00000E+00
 -1       370 1.14150E+02 4.48040E+01 0.00000E+00
 -1       371 1.17150E+02 4.48040E+01 0.00000E+00
 -1       372 1.20150E+02 4.48040E+01 0.00000E+00
 -1       373 1.23150E+02 4.48040E+01 0.00000E+00
 -1       374 1.26150E+02 4.48040E+01 0.00000E+00
 -1       375 1.29150E+02 4.48040E+01 0.00000E+00
 -1       376 1.32150E+02 4.48040E+01 0.00000E+00
 -1       377 1.35150E+02 4.48040E+01 0.00000E+00
 -1       378 1.38150E+02 4.48040E+01 0.00000E+00
 -1       379 1.41150E+02 4.48040E+01 0.00000E+00
 -1       380 1.43838E+02 4.49212E+01 0.00000E+00
 -1       381 1.15350E+01 4.01875E+00 0.00000E+00
 -1       382 1.45350E+01 4.01875E+00 0.00000E+00
 -1       383 1.75350E+01 4.01875E+00 0.00000E+00
 -1       384 2.05350E+01 4.01875E+00 0.00000E+00
 -1       385 2.35350E+01 4.01875E+00 0.00000E+00
 -1       386 2.65350E+01 4.01875E+00 0.00000E+00
 -1       387 2.95350E+01 4.01875E+00 0.00000E+00
 -1       388 3.25350E+01 4.01875E+00 0.00000E+00
 -1       389 3.55350E+01 4.01875E+00 0.00000E+00
 -1       390 3.85350E+01 4.01875E+00 0.00000E+00
 -1       391 4.15350E+01 4.01875E+00 0.00000E+00
 -1       392 4.45350E+01 4.01875E+00 0.00000E+00
 -1       393 4.75350E+01 4.01875E+00 0.00000E+00
 -1       394 5.05350E+01 4.01875E+00 0.00000E+00
 -1       395 5.35350E+01 4.01875E+00 0.00000E+00
 -1       396 5.65350E+01 4.01875E+00 0.00000E+00
 -1       397 5.95350E+01 4.01875E+00 0.00000E+00
 -1       398 6.25350E+01 4.01875E+00 0.00000E+00
 -1       399 6.55350E+01 4.01875E+00 0.00000E+00
 -1       400 6.85350E+01 4.01875E+00 0.00000E+00
 -1       401 7.15350E+01 4.01875E+00 0.00000E+00
 -1       402 7.45350E+01 4.01875E+00 0.00000E+00
 -1       403 7.75350E+01 4.01875E+00 0.00000E+00
 -1       404 8.05350E+01 4.01875E+00 0.00000E+00
 -1       405 8.35350E+01 4.01875E+00 0.00000E+00
 -1       406 8.65350E+01 4.01875E+00 0.00000E+00
 -1       407 8.95350E+01 4.01875E+00 0.00000E+00
 -1       408 9.25350E+01 4.01875E+00 0.00000E+00
 -1       409 9.55350E+01 4.01875E+00 0.00000E+00
 -1       410 9.85350E+01 4.01875E+00 0.00000E+00
 -1       411 1.01535E+02 4.01875E+00 0.00000E+00
 -1       412 1.04535E+02 4.01875E+00 0.00000E+00
 -1       413 1.07535E+02 4.01875E+00 0.00000E+00
 -1       414 1.10535E+02 4.01875E+00 0.00000E+00
 -1       415 1.13535E+02 4.01875E+00 0.00000E+00
 -1       416 1.16535E+02 4.01875E+00 0.00000E+00
 -1       417 1.19535E+02 4.01875E+00 0.00000E+00
 -1       418 1.22535E+02 4.01875E+00 0.00000E+00
 -1       419 1.25535E+02 4.01875E+00 0.00000E+00
 -1       420 1.28535E+02 4.01875E+00 0.00000E+00
 -1       421 1.31535E+02 4.01875E+00 0.00000E+00
 -1       422 1.34535E+02 4.01875E+00 0.00000E+00
 -1       423 1.37535E+02 4.01875E+00 0.00000E+00
 -1       424 1.40535E+02 4.01875E+00 0.00000E+00
 -1       425 1.43535E+02 4.01875E+00 0.00000E+00
 -1       426 1.45469E+02 4.22188E+00 0.00000E+00
 -1       427 1.44804E+02 1.18000E+01 0.00000E+00
 -1       428 1.44804E+02 8.85000E+00 0.00000E+00
 -1       429 1.45136E+02 6.53594E+00 0.00000E+00
 -1       430 1.44804E+02 1.47000E+01 0.00000E+00
 -1       431 1.44804E+02 1.76500E+01 0.00000E+00
 -1       432 1.44804E+02 2.06000E+01 0.00000E+00
 -1       433 1.44804E+02 2.35500E+01 0.00000E+00
 -1       434 1.44804E+02 2.65000E+01 0.00000E+00
 -1       435 1.44804E+02 2.94500E+01 0.00000E+00
 -1       436 1.44804E+02 3.23500E+01 0.00000E+00
 -1       437 1.44804E+02 3.53000E+01 0.00000E+00
 -1       438 1.44804E+02 3.82500E+01 0.00000E+00
 -1       439 1.44804E+02 4.12000E+01 0.00000E+00
 -1       440 3.21636E+01 1.96805E+01 0.00000E+00
 -1       441 3.31526E+01 2.39852E+01 0.00000E+00
 -1       442 3.28036E+01 2.14096E+01 0.00000E+00
 -1       443 3.08948E+01 1.80471E+01 0.00000E+00
 -1       444 2.95376E+01 1.65920E+01 0.00000E+00
 -1       445 5.19600E+00 3.82000E+01 0.00000E+00
 -1       446 2.59699E+01 1.46012E+01 0.00000E+00
 -1       447 2.39960E+01 1.41105E+01 0.00000E+00
 -1       448 2.19564E+01 1.42099E+01 0.00000E+00
 -1       449 1.98345E+01 1.46975E+01 0.00000E+00
 -1       450 1.79596E+01 1.56342E+01 0.00000E+00
 -1       451 1.64566E+01 1.70093E+01 0.00000E+00
 -1       452 1.49512E+01 1.87060E+01 0.00000E+00
 -1       453 1.43310E+01 2.05192E+01 0.00000E+00
 -1       454 1.36174E+01 2.23032E+01 0.00000E+00
 -1       455 1.37772E+01 2.46229E+01 0.00000E+00
 -1       456 1.41053E+01 2.64731E+01 0.00000E+00
 -1       457 1.49019E+01 2.82332E+01 0.00000E+00
 -1       458 1.58998E+01 2.98813E+01 0.00000E+00
 -1       459 1.72325E+01 3.14103E+01 0.00000E+00
 -1       460 1.89164E+01 3.25582E+01 0.00000E+00
 -1       461 2.11339E+01 3.35645E+01 0.00000E+00
 -1       462 2.33301E+01 3.37129E+01 0.00000E+00
 -1       463 2.51964E+01 3.34520E+01 0.00000E+00
 -1       464 2.74728E+01 3.23316E+01 0.00000E+00
 -1       465 2.93007E+01 3.15319E+01 0.00000E+00
 -1       466 3.08506E+01 2.98684E+01 0.00000E+00
 -1       467 3.18103E+01 2.82782E+01 0.00000E+00
 -1       468 3.26539E+01 2.60222E+01 0.00000E+00
 -1       469 2.78610E+01 1.55235E+01 0.00000E+00
 -1       470 3.42578E+01 2.24932E+01 0.00000E+00
 -1       471 2.66641E+01 3.40879E+01 0.00000E+00
 -1       472 1.00350E+01 6.61675E+00 0.00000E+00
 -1       473 7.79400E+00 3.08500E+01 0.00000E+00
 -1       474 7.79400E+00 3.38000E+01 0.00000E+00
 -1       475 7.24625E+00 2.50000E+01 0.00000E+00
 -1       476 7.24625E+00 2.20500E+01 0.00000E+00
 -1       477 7.41381E+00 1.91250E+01 0.00000E+00
 -1       478 7.41381E+00 1.61750E+01 0.00000E+00
 -1       479 7.41381E+00 1.32250E+01 0.00000E+00
 -1       480 7.41381E+00 1.02750E+01 0.00000E+00
 -1       481 1.30350E+01 6.61675E+00 0.00000E+00
 -1       482 1.06500E+01 4.22060E+01 0.00000E+00
 -1       483 2.76673E+01 1.35208E+01 0.00000E+00
 -1       484 1.36500E+01 4.22060E+01 0.00000E+00
 -1       485 1.66500E+01 4.22060E+01 0.00000E+00
 -1       486 1.96500E+01 4.22060E+01 0.00000E+00
 -1       487 2.26500E+01 4.22060E+01 0.00000E+00
 -1       488 2.56500E+01 4.22060E+01 0.00000E+00
 -1       489 2.86500E+01 4.22060E+01 0.00000E+00
 -1       490 3.16500E+01 4.22060E+01 0.00000E+00
 -1       491 3.46500E+01 4.22060E+01 0.00000E+00
 -1       492 3.76500E+01 4.22060E+01 0.00000E+00
 -1       493 4.06500E+01 4.22060E+01 0.00000E+00
 -1       494 4.36500E+01 4.22060E+01 0.00000E+00
 -1       495 4.66500E+01 4.22060E+01 0.00000E+00
 -1       496 4.96500E+01 4.22060E+01 0.00000E+00
 -1       497 5.26500E+01 4.22060E+01 0.00000E+00
 -1       498 5.56500E+01 4.22060E+01 0.00000E+00
 -1       499 5.86500E+01 4.22060E+01 0.00000E+00
 -1       500 6.16500E+01 4.22060E+01 0.00000E+00
 -1       501 6.46500E+01 4.22060E+01 0.00000E+00
 -1       502 6.76500E+01 4.22060E+01 0.00000E+00
 -1       503 7.06500E+01 4.22060E+01 0.00000E+00
 -1       504 7.36500E+01 4.22060E+01 0.00000E+00
 -1       505 7.66500E+01 4.22060E+01 0.00000E+00
 -1       506 7.96500E+01 4.22060E+01 0.00000E+00
 -1       507 8.26500E+01 4.22060E+01 0.00000E+00
 -1       508 8.56500E+01 4.22060E+01 0.00000E+00
 -1       509 8.86500E+01 4.22060E+01 0.00000E+00
 -1       510 9.16500E+01 4.22060E+01 0.00000E+00
 -1       511 9.46500E+01 4.22060E+01 0.00000E+00
 -1       512 9.76500E+01 4.22060E+01 0.00000E+00
 -1       513 1.00650E+02 4.22060E+01 0.00000E+00
 -1       514 1.03650E+02 4.22060E+01 0.00000E+00
 -1       515 1.06650E+02 4.22060E+01 0.00000E+00
 -1       516 1.09650E+02 4.22060E+01 0.00000E+00
 -1       517 1.12650E+02 4.22060E+01 0.00000E+00
 -1       518 1.15650E+02 4.22060E+01 0.00000E+00
 -1       519 1.18650E+02 4.22060E+01 0.00000E+00
 -1       520 1.21650E+02 4.22060E+01 0.00000E+00
 -1       521 1.24650E+02 4.22060E+01 0.00000E+00
 -1       522 1.27650E+02 4.22060E+01 0.00000E+00
 -1       523 1.30650E+02 4.22060E+01 0.00000E+00
 -1       524 1.33650E+02 4.22060E+01 0.00000E+00
 -1       525 1.36650E+02 4.22060E+01 0.00000E+00
 -1       526 1.39650E+02 4.22060E+01 0.00000E+00
 -1       527 3.42492E+01 1.98915E+01 0.00000E+00
 -1       528 1.90350E+01 6.61675E+00 0.00000E+00
 -1       529 2.20350E+01 6.61675E+00 0.00000E+00
 -1       530 2.50350E+01 6.61675E+00 0.00000E+00
 -1       531 2.80350E+01 6.61675E+00 0.00000E+00
 -1       532 3.10350E+01 6.61675E+00 0.00000E+00
 -1       533 3.40350E+01 6.61675E+00 0.00000E+00
 -1       534 3.70350E+01 6.61675E+00 0.00000E+00
 -1       535 4.00350E+01 6.61675E+00 0.00000E+00
 -1       536 4.30350E+01 6.61675E+00 0.00000E+00
 -1       537 4.60350E+01 6.61675E+00 0.00000E+00
 -1       538 4.90350E+01 6.61675E+00 0.00000E+00
 -1       539 5.20350E+01 6.61675E+00 0.00000E+00
 -1       540 5.50350E+01 6.61675E+00 0.00000E+00
 -1       541 5.80350E+01 6.61675E+00 0.00000E+00
 -1       542 6.10350E+01 6.61675E+00 0.00000E+00
 -1       543 6.40350E+01 6.61675E+00 0.00000E+00
 -1       544 6.70350E+01 6.61675E+00 0.00000E+00
 -1       545 7.00350E+01 6.61675E+00 0.00000E+00
 -1       546 7.30350E+01 6.61675E+00 0.00000E+00
 -1       547 7.60350E+01 6.61675E+00 0.00000E+00
 -1       548 7.90350E+01 6.61675E+00 0.00000E+00
 -1       549 8.20350E+01 6.61675E+00 0.00000E+00
 -1       550 8.50350E+01 6.61675E+00 0.00000E+00
 -1       551 8.80350E+01 6.61675E+00 0.00000E+00
 -1       552 9.10350E+01 6.61675E+00 0.00000E+00
 -1       553 9.40350E+01 6.61675E+00 0.00000E+00
 -1       554 9.70350E+01 6.61675E+00 0.00000E+00
 -1       555 1.00035E+02 6.61675E+00 0.00000E+00
 -1       556 1.03035E+02 6.61675E+00 0.00000E+00
 -1       557 1.06035E+02 6.61675E+00 0.00000E+00
 -1       558 1.09035E+02 6.61675E+00 0.00000E+00
 -1       559 1.12035E+02 6.61675E+00 0.00000E+00
 -1       560 1.15035E+02 6.61675E+00 0.00000E+00
 -1       561 1.18035E+02 6.61675E+00 0.00000E+00
 -1       562 1.21035E+02 6.61675E+00 0.00000E+00
 -1       563 1.24035E+02 6.61675E+00 0.00000E+00
 -1       564 1.27035E+02 6.61675E+00 0.00000E+00
 -1       565 1.30035E+02 6.61675E+00 0.00000E+00
 -1       566 1.33035E+02 6.61675E+00 0.00000E+00
 -1       567 1.36035E+02 6.61675E+00 0.00000E+00
 -1       568 1.39035E+02 6.61675E+00 0.00000E+00
 -1       569 1.42035E+02 6.61675E+00 0.00000E+00
 -1       570 1.42206E+02 1.61750E+01 0.00000E+00
 -1       571 1.42206E+02 1.91250E+01 0.00000E+00
 -1       572 1.42206E+02 1.03250E+01 0.00000E+00
 -1       573 1.42206E+02 1.32500E+01 0.00000E+00
 -1       574 1.42206E+02 2.20750E+01 0.00000E+00
 -1       575 1.42206E+02 2.50250E+01 0.00000E+00
 -1       576 1.42206E+02 2.79750E+01 0.00000E+00
 -1       577 1.42206E+02 3.08750E+01 0.00000E+00
 -1       578 1.42206E+02 3.38250E+01 0.00000E+00
 -1       579 1.42206E+02 3.67750E+01 0.00000E+00
 -1       580 1.42206E+02 3.97250E+01 0.00000E+00
 -1       581 3.44064E+01 2.53717E+01 0.00000E+00
 -1       582 1.60350E+01 6.61675E+00 0.00000E+00
 -1       583 3.28836E+01 1.78117E+01 0.00000E+00
 -1       584 3.36816E+01 2.76922E+01 0.00000E+00
 -1       585 7.92300E+00 4.16780E+01 0.00000E+00
 -1       586 3.13305E+01 3.18693E+01 0.00000E+00
 -1       587 2.21051E+01 3.55171E+01 0.00000E+00
 -1       588 7.79400E+00 2.79000E+01 0.00000E+00
 -1       589 2.28927E+01 1.24471E+01 0.00000E+00
 -1       590 2.90071E+01 3.33495E+01 0.00000E+00
 -1       591 2.53967E+01 1.26914E+01 0.00000E+00
 -1       592 2.05301E+01 1.28638E+01 0.00000E+00
 -1       593 1.81679E+01 1.37065E+01 0.00000E+00
 -1       594 1.60503E+01 1.50563E+01 0.00000E+00
 -1       595 1.45450E+01 1.67531E+01 0.00000E+00
 -1       596 1.31769E+01 1.91118E+01 0.00000E+00
 -1       597 1.24633E+01 2.08958E+01 0.00000E+00
 -1       598 1.19862E+01 2.35809E+01 0.00000E+00
 -1       599 1.25000E+01 2.58036E+01 0.00000E+00
 -1       600 1.29411E+01 2.80604E+01 0.00000E+00
 -1       601 1.39389E+01 2.97084E+01 0.00000E+00
 -1       602 1.52732E+01 3.17727E+01 0.00000E+00
 -1       603 1.71084E+01 3.34014E+01 0.00000E+00
 -1       604 1.91779E+01 3.49284E+01 0.00000E+00
 -1       605 2.45007E+01 3.52810E+01 0.00000E+00
 -1       606 3.27271E+01 2.99162E+01 0.00000E+00
 -1       607 3.15265E+01 1.63566E+01 0.00000E+00
 -1       608 7.61550E+00 6.23338E+00 0.00000E+00
 -1       609 2.97111E+01 1.44701E+01 0.00000E+00
 -1       610 7.79400E+00 3.67500E+01 0.00000E+00
 -1       611 1.41678E+02 4.22645E+01 0.00000E+00
 -1       612 3.55116E+01 2.38797E+01 0.00000E+00
 -1       613 1.27707E+01 1.71588E+01 0.00000E+00
 -1       614 9.63163E+00 2.35250E+01 0.00000E+00
 -1       615 1.00118E+01 1.47000E+01 0.00000E+00
 -1       616 1.00118E+01 1.76500E+01 0.00000E+00
 -1       617 1.15350E+01 9.21475E+00 0.00000E+00
 -1       618 1.08728E+01 2.72931E+01 0.00000E+00
 -1       619 9.82172E+00 2.05875E+01 0.00000E+00
 -1       620 3.20961E+01 1.39917E+01 0.00000E+00
 -1       621 1.51500E+01 3.96080E+01 0.00000E+00
 -1       622 1.81500E+01 3.96080E+01 0.00000E+00
 -1       623 2.11500E+01 3.96080E+01 0.00000E+00
 -1       624 2.41500E+01 3.96080E+01 0.00000E+00
 -1       625 2.71500E+01 3.96080E+01 0.00000E+00
 -1       626 3.01500E+01 3.96080E+01 0.00000E+00
 -1       627 3.31500E+01 3.96080E+01 0.00000E+00
 -1       628 3.61500E+01 3.96080E+01 0.00000E+00
 -1       629 3.91500E+01 3.96080E+01 0.00000E+00
 -1       630 4.21500E+01 3.96080E+01 0.00000E+00
 -1       631 4.51500E+01 3.96080E+01 0.00000E+00
 -1       632 4.81500E+01 3.96080E+01 0.00000E+00
 -1       633 5.11500E+01 3.96080E+01 0.00000E+00
 -1       634 5.41500E+01 3.96080E+01 0.00000E+00
 -1       635 5.71500E+01 3.96080E+01 0.00000E+00
 -1       636 6.01500E+01 3.96080E+01 0.00000E+00
 -1       637 6.31500E+01 3.96080E+01 0.00000E+00
 -1       638 6.61500E+01 3.96080E+01 0.00000E+00
 -1       639 6.91500E+01 3.96080E+01 0.00000E+00
 -1       640 7.21500E+01 3.96080E+01 0.00000E+00
 -1       641 7.51500E+01 3.96080E+01 0.00000E+00
 -1       642 7.81500E+01 3.96080E+01 0.00000E+00
 -1       643 8.11500E+01 3.96080E+01 0.00000E+00
 -1       644 8.41500E+01 3.96080E+01 0.00000E+00
 -1       645 8.71500E+01 3.96080E+01 0.00000E+00
 -1       646 9.01500E+01 3.96080E+01 0.00000E+00
 -1       647 9.31500E+01 3.96080E+01 0.00000E+00
 -1       648 9.61500E+01 3.96080E+01 0.00000E+00
 -1       649 9.91500E+01 3.96080E+01 0.00000E+00
 -1       650 1.02150E+02 3.96080E+01 0.00000E+00
 -1       651 1.05150E+02 3.96080E+01 0.00000E+00
 -1       652 1.08150E+02 3.96080E+01 0.00000E+00
 -1       653 1.11150E+02 3.96080E+01 0.00000E+00
 -1       654 1.14150E+02 3.96080E+01 0.00000E+00
 -1       655 1.17150E+02 3.96080E+01 0.00000E+00
 -1       656 1.20150E+02 3.96080E+01 0.00000E+00
 -1       657 1.23150E+02 3.96080E+01 0.00000E+00
 -1       658 1.26150E+02 3.96080E+01 0.00000E+00
 -1       659 1.29150E+02 3.96080E+01 0.00000E+00
 -1       660 1.32150E+02 3.96080E+01 0.00000E+00
 -1       661 1.35150E+02 3.96080E+01 0.00000E+00
 -1       662 1.38150E+02 3.96080E+01 0.00000E+00
 -1       663 1.70254E+01 3.56798E+01 0.00000E+00
 -1       664 2.02372E+01 3.72327E+01 0.00000E+00
 -1       665 2.05350E+01 9.16970E+00 0.00000E+00
 -1       666 2.95350E+01 9.21475E+00 0.00000E+00
 -1       667 3.25350E+01 9.21475E+00 0.00000E+00
 -1       668 3.55350E+01 9.21475E+00 0.00000E+00
 -1       669 3.85350E+01 9.21475E+00 0.00000E+00
 -1       670 4.15350E+01 9.21475E+00 0.00000E+00
 -1       671 4.45350E+01 9.21475E+00 0.00000E+00
 -1       672 4.75350E+01 9.21475E+00 0.00000E+00
 -1       673 5.05350E+01 9.21475E+00 0.00000E+00
 -1       674 5.35350E+01 9.21475E+00 0.00000E+00
 -1       675 5.65350E+01 9.21475E+00 0.00000E+00
 -1       676 5.95350E+01 9.21475E+00 0.00000E+00
 -1       677 6.25350E+01 9.21475E+00 0.00000E+00
 -1       678 6.55350E+01 9.21475E+00 0.00000E+00
 -1       679 6.85350E+01 9.21475E+00 0.00000E+00
 -1       680 7.15350E+01 9.21475E+00 0.00000E+00
 -1       681 7.45350E+01 9.21475E+00 0.00000E+00
 -1       682 7.75350E+01 9.21475E+00 0.00000E+00
 -1       683 8.05350E+01 9.21475E+00 0.00000E+00
 -1       684 8.35350E+01 9.21475E+00 0.00000E+00
 -1       685 8.65350E+01 9.21475E+00 0.00000E+00
 -1       686 8.95350E+01 9.21475E+00 0.00000E+00
 -1       687 9.25350E+01 9.21475E+00 0.00000E+00
 -1       688 9.55350E+01 9.21475E+00 0.00000E+00
 -1       689 9.85350E+01 9.21475E+00 0.00000E+00
 -1       690 1.01535E+02 9.21475E+00 0.00000E+00
 -1       691 1.04535E+02 9.21475E+00 0.00000E+00
 -1       692 1.07535E+02 9.21475E+00 0.00000E+00
 -1       693 1.10535E+02 9.21475E+00 0.00000E+00
 -1       694 1.13535E+02 9.21475E+00 0.00000E+00
 -1       695 1.16535E+02 9.21475E+00 0.00000E+00
 -1       696 1.19535E+02 9.21475E+00 0.00000E+00
 -1       697 1.22535E+02 9.21475E+00 0.00000E+00
 -1       698 1.25535E+02 9.21475E+00 0.00000E+00
 -1       699 1.28535E+02 9.21475E+00 0.00000E+00
 -1       700 1.31535E+02 9.21475E+00 0.00000E+00
 -1       701 1.34535E+02 9.21475E+00 0.00000E+00
 -1       702 1.37535E+02 9.21475E+00 0.00000E+00
 -1       703 1.39870E+02 9.76987E+00 0.00000E+00
 -1       704 1.39608E+02 2.35500E+01 0.00000E+00
 -1       705 1.40178E+02 3.96665E+01 0.00000E+00
 -1       706 1.39608E+02 1.76500E+01 0.00000E+00
 -1       707 1.39608E+02 2.65000E+01 0.00000E+00
 -1       708 1.39608E+02 2.06000E+01 0.00000E+00
 -1       709 3.52803E+01 1.77263E+01 0.00000E+00
 -1       710 1.39608E+02 2.94000E+01 0.00000E+00
 -1       711 1.39608E+02 3.23500E+01 0.00000E+00
 -1       712 1.39608E+02 3.53000E+01 0.00000E+00
 -1       713 1.75350E+01 9.16970E+00 0.00000E+00
 -1       714 2.96941E+01 1.18320E+01 0.00000E+00
 -1       715 3.35602E+01 3.19879E+01 0.00000E+00
 -1       716 9.78035E+00 3.93914E+01 0.00000E+00
 -1       717 1.00118E+01 2.93750E+01 0.00000E+00
 -1       718 1.60972E+01 1.27938E+01 0.00000E+00
 -1       719 2.65350E+01 9.21475E+00 0.00000E+00
 -1       720 2.35350E+01 9.19223E+00 0.00000E+00
 -1       721 1.24652E+01 3.94997E+01 0.00000E+00
 -1       722 1.00118E+01 1.17500E+01 0.00000E+00
 -1       723 1.45350E+01 9.21475E+00 0.00000E+00
 -1       724 1.00118E+01 3.23250E+01 0.00000E+00
 -1       725 3.14505E+01 3.46212E+01 0.00000E+00
 -1       726 2.14281E+01 1.10489E+01 0.00000E+00
 -1       727 1.07353E+01 2.50408E+01 0.00000E+00
 -1       728 2.43112E+01 1.08623E+01 0.00000E+00
 -1       729 1.87727E+01 1.16698E+01 0.00000E+00
 -1       730 1.37640E+01 1.45441E+01 0.00000E+00
 -1       731 2.83007E+01 3.51947E+01 0.00000E+00
 -1       732 1.13054E+01 1.93979E+01 0.00000E+00
 -1       733 1.49411E+01 3.39952E+01 0.00000E+00
 -1       734 2.34876E+01 3.72727E+01 0.00000E+00
 -1       735 1.15429E+01 3.00331E+01 0.00000E+00
 -1       736 1.28772E+01 3.20974E+01 0.00000E+00
 -1       737 2.61374E+01 3.63879E+01 0.00000E+00
 -1       738 3.60010E+01 2.71432E+01 0.00000E+00
 -1       739 3.50465E+01 2.93673E+01 0.00000E+00
 -1       740 3.63037E+01 2.11856E+01 0.00000E+00
 -1       741 3.36882E+01 1.58590E+01 0.00000E+00
 -1       742 1.00118E+01 3.52750E+01 0.00000E+00
 -1       743 1.39608E+02 1.47250E+01 0.00000E+00
 -1       744 1.39739E+02 1.22474E+01 0.00000E+00
 -1       745 3.71062E+01 2.56512E+01 0.00000E+00
 -1       746 1.38879E+02 3.74540E+01 0.00000E+00
 -1       747 2.71780E+01 1.13377E+01 0.00000E+00
 -1       748 3.73348E+01 1.90204E+01 0.00000E+00
 -1       749 9.53475E+00 2.60695E+01 0.00000E+00
 -1       750 1.12385E+01 3.73873E+01 0.00000E+00
 -1       751 3.72539E+01 2.89978E+01 0.00000E+00
 -1       752 2.86500E+01 3.73902E+01 0.00000E+00
 -1       753 3.16500E+01 3.72226E+01 0.00000E+00
 -1       754 3.46500E+01 3.72226E+01 0.00000E+00
 -1       755 3.76500E+01 3.72226E+01 0.00000E+00
 -1       756 4.06500E+01 3.72226E+01 0.00000E+00
 -1       757 4.36500E+01 3.72226E+01 0.00000E+00
 -1       758 4.66500E+01 3.72226E+01 0.00000E+00
 -1       759 4.96500E+01 3.72226E+01 0.00000E+00
 -1       760 5.26500E+01 3.72226E+01 0.00000E+00
 -1       761 5.56500E+01 3.72226E+01 0.00000E+00
 -1       762 5.86500E+01 3.72226E+01 0.00000E+00
 -1       763 6.16500E+01 3.72226E+01 0.00000E+00
 -1       764 6.46500E+01 3.72226E+01 0.00000E+00
 -1       765 6.76500E+01 3.72226E+01 0.00000E+00
 -1       766 7.06500E+01 3.72226E+01 0.00000E+00
 -1       767 7.36500E+01 3.72226E+01 0.00000E+00
 -1       768 7.66500E+01 3.72226E+01 0.00000E+00
 -1       769 7.96500E+01 3.72226E+01 0.00000E+00
 -1       770 8.26500E+01 3.72226E+01 0.00000E+00
 -1       771 8.56500E+01 3.72226E+01 0.00000E+00
 -1       772 8.86500E+01 3.72226E+01 0.00000E+00
 -1       773 9.16500E+01 3.72226E+01 0.00000E+00
 -1       774 9.46500E+01 3.72226E+01 0.00000E+00
 -1       775 9.76500E+01 3.72226E+01 0.00000E+00
 -1       776 1.00650E+02 3.72226E+01 0.00000E+00
 -1       777 1.03650E+02 3.72226E+01 0.00000E+00
 -1       778 1.06650E+02 3.72226E+01 0.00000E+00
 -1       779 1.09650E+02 3.72226E+01 0.00000E+00
 -1       780 1.12650E+02 3.72226E+01 0.00000E+00
 -1       781 1.15650E+02 3.72226E+01 0.00000E+00
 -1       782 1.18650E+02 3.72226E+01 0.00000E+00
 -1       783 1.21650E+02 3.72226E+01 0.00000E+00
 -1       784 1.24650E+02 3.72226E+01 0.00000E+00
 -1       785 1.27650E+02 3.72226E+01 0.00000E+00
 -1       786 1.30650E+02 3.72226E+01 0.00000E+00
 -1       787 1.33650E+02 3.72226E+01 0.00000E+00
 -1       788 1.36264E+02 3.73383E+01 0.00000E+00
 -1       789 1.25215E+01 3.45556E+01 0.00000E+00
 -1       790 4.00350E+01 1.18127E+01 0.00000E+00
 -1       791 4.30350E+01 1.18127E+01 0.00000E+00
 -1       792 4.60350E+01 1.18127E+01 0.00000E+00
 -1       793 4.90350E+01 1.18127E+01 0.00000E+00
 -1       794 5.20350E+01 1.18127E+01 0.00000E+00
 -1       795 5.50350E+01 1.18127E+01 0.00000E+00
 -1       796 5.80350E+01 1.18127E+01 0.00000E+00
 -1       797 6.10350E+01 1.18127E+01 0.00000E+00
 -1       798 6.40350E+01 1.18127E+01 0.00000E+00
 -1       799 6.70350E+01 1.18127E+01 0.00000E+00
 -1       800 7.00350E+01 1.18127E+01 0.00000E+00
 -1       801 7.30350E+01 1.18127E+01 0.00000E+00
 -1       802 7.60350E+01 1.18127E+01 0.00000E+00
 -1       803 7.90350E+01 1.18127E+01 0.00000E+00
 -1       804 8.20350E+01 1.18127E+01 0.00000E+00
 -1       805 8.50350E+01 1.18127E+01 0.00000E+00
 -1       806 8.80350E+01 1.18127E+01 0.00000E+00
 -1       807 9.10350E+01 1.18127E+01 0.00000E+00
 -1       808 9.40350E+01 1.18127E+01 0.00000E+00
 -1       809 9.70350E+01 1.18127E+01 0.00000E+00
 -1       810 1.00035E+02 1.18127E+01 0.00000E+00
 -1       811 1.03035E+02 1.18127E+01 0.00000E+00
 -1       812 1.06035E+02 1.18127E+01 0.00000E+00
 -1       813 1.09035E+02 1.18127E+01 0.00000E+00
 -1       814 1.12035E+02 1.18127E+01 0.00000E+00
 -1       815 1.15035E+02 1.18127E+01 0.00000E+00
 -1       816 1.18035E+02 1.18127E+01 0.00000E+00
 -1       817 1.21035E+02 1.18127E+01 0.00000E+00
 -1       818 1.24035E+02 1.18127E+01 0.00000E+00
 -1       819 1.27035E+02 1.18127E+01 0.00000E+00
 -1       820 1.30035E+02 1.18127E+01 0.00000E+00
 -1       821 1.33035E+02 1.18127E+01 0.00000E+00
 -1       822 1.36035E+02 1.18127E+01 0.00000E+00
 -1       823 1.37887E+02 1.20301E+01 0.00000E+00
 -1       824 1.37010E+02 2.50250E+01 0.00000E+00
 -1       825 1.37010E+02 3.38250E+01 0.00000E+00
 -1       826 1.37010E+02 2.79250E+01 0.00000E+00
 -1       827 3.02128E+01 3.67602E+01 0.00000E+00
 -1       828 1.05274E+01 2.11958E+01 0.00000E+00
 -1       829 1.26098E+01 1.32250E+01 0.00000E+00
 -1       830 3.78984E+01 2.29571E+01 0.00000E+00
 -1       831 1.46944E+01 3.64320E+01 0.00000E+00
 -1       832 3.42362E+01 3.46912E+01 0.00000E+00
 -1       833 1.37010E+02 3.08750E+01 0.00000E+00
 -1       834 3.70350E+01 1.18127E+01 0.00000E+00
 -1       835 3.40350E+01 1.18127E+01 0.00000E+00
 -1       836 3.62325E+01 3.17717E+01 0.00000E+00
 -1       837 1.37010E+02 1.61875E+01 0.00000E+00
 -1       838 3.83590E+01 2.75057E+01 0.00000E+00
 -1       839 3.47074E+01 1.33777E+01 0.00000E+00
 -1       840 1.37010E+02 1.91375E+01 0.00000E+00
 -1       841 1.37010E+02 2.20812E+01 0.00000E+00
 -1       842 3.89294E+01 2.07919E+01 0.00000E+00
 -1       843 1.36637E+02 3.55817E+01 0.00000E+00
 -1       844 1.11941E+01 1.50638E+01 0.00000E+00
 -1       845 3.76921E+01 1.61751E+01 0.00000E+00
 -1       846 3.61997E+01 1.47764E+01 0.00000E+00
 -1       847 3.91500E+01 3.46246E+01 0.00000E+00
 -1       848 4.21500E+01 3.46246E+01 0.00000E+00
 -1       849 4.51500E+01 3.46246E+01 0.00000E+00
 -1       850 4.81500E+01 3.46246E+01 0.00000E+00
 -1       851 5.11500E+01 3.46246E+01 0.00000E+00
 -1       852 5.41500E+01 3.46246E+01 0.00000E+00
 -1       853 5.71500E+01 3.46246E+01 0.00000E+00
 -1       854 6.01500E+01 3.46246E+01 0.00000E+00
 -1       855 6.31500E+01 3.46246E+01 0.00000E+00
 -1       856 6.61500E+01 3.46246E+01 0.00000E+00
 -1       857 6.91500E+01 3.46246E+01 0.00000E+00
 -1       858 7.21500E+01 3.46246E+01 0.00000E+00
 -1       859 7.51500E+01 3.46246E+01 0.00000E+00
 -1       860 7.81500E+01 3.46246E+01 0.00000E+00
 -1       861 8.11500E+01 3.46246E+01 0.00000E+00
 -1       862 8.41500E+01 3.46246E+01 0.00000E+00
 -1       863 8.71500E+01 3.46246E+01 0.00000E+00
 -1       864 9.01500E+01 3.46246E+01 0.00000E+00
 -1       865 9.31500E+01 3.46246E+01 0.00000E+00
 -1       866 9.61500E+01 3.46246E+01 0.00000E+00
 -1       867 9.91500E+01 3.46246E+01 0.00000E+00
 -1       868 1.02150E+02 3.46246E+01 0.00000E+00
 -1       869 1.05150E+02 3.46246E+01 0.00000E+00
 -1       870 1.08150E+02 3.46246E+01 0.00000E+00
 -1       871 1.11150E+02 3.46246E+01 0.00000E+00
 -1       872 1.14150E+02 3.46246E+01 0.00000E+00
 -1       873 1.17150E+02 3.46246E+01 0.00000E+00
 -1       874 1.20150E+02 3.46246E+01 0.00000E+00
 -1       875 1.23150E+02 3.46246E+01 0.00000E+00
 -1       876 1.26150E+02 3.46246E+01 0.00000E+00
 -1       877 1.29150E+02 3.46246E+01 0.00000E+00
 -1       878 1.32150E+02 3.46246E+01 0.00000E+00
 -1       879 4.15350E+01 1.44108E+01 0.00000E+00
 -1       880 5.05350E+01 1.44108E+01 0.00000E+00
 -1       881 5.35350E+01 1.44108E+01 0.00000E+00
 -1       882 5.65350E+01 1.44108E+01 0.00000E+00
 -1       883 5.95350E+01 1.44108E+01 0.00000E+00
 -1       884 6.25350E+01 1.44108E+01 0.00000E+00
 -1       885 6.55350E+01 1.44108E+01 0.00000E+00
 -1       886 6.85350E+01 1.44108E+01 0.00000E+00
 -1       887 7.15350E+01 1.44108E+01 0.00000E+00
 -1       888 7.45350E+01 1.44108E+01 0.00000E+00
 -1       889 7.75350E+01 1.44108E+01 0.00000E+00
 -1       890 8.05350E+01 1.44108E+01 0.00000E+00
 -1       891 8.35350E+01 1.44108E+01 0.00000E+00
 -1       892 8.65350E+01 1.44108E+01 0.00000E+00
 -1       893 8.95350E+01 1.44108E+01 0.00000E+00
 -1       894 9.25350E+01 1.44108E+01 0.00000E+00
 -1       895 9.55350E+01 1.44108E+01 0.00000E+00
 -1       896 9.85350E+01 1.44108E+01 0.00000E+00
 -1       897 1.01535E+02 1.44108E+01 0.00000E+00
 -1       898 1.04535E+02 1.44108E+01 0.00000E+00
 -1       899 1.07535E+02 1.44108E+01 0.00000E+00
 -1       900 1.10535E+02 1.44108E+01 0.00000E+00
 -1       901 1.13535E+02 1.44108E+01 0.00000E+00
 -1       902 1.16535E+02 1.44108E+01 0.00000E+00
 -1       903 1.19535E+02 1.44108E+01 0.00000E+00
 -1       904 1.22535E+02 1.44108E+01 0.00000E+00
 -1       905 1.25535E+02 1.44108E+01 0.00000E+00
 -1       906 1.28535E+02 1.44108E+01 0.00000E+00
 -1       907 1.31535E+02 1.44108E+01 0.00000E+00
 -1       908 1.34535E+02 1.44108E+01 0.00000E+00
 -1       909 1.37449E+02 1.41088E+01 0.00000E+00
 -1       910 1.34412E+02 2.64750E+01 0.00000E+00
 -1       911 3.93085E+01 2.48352E+01 0.00000E+00
 -1       912 4.75350E+01 1.44108E+01 0.00000E+00
 -1       913 4.45350E+01 1.44108E+01 0.00000E+00
 -1       914 3.89817E+01 3.12089E+01 0.00000E+00
 -1       915 3.98803E+01 1.78950E+01 0.00000E+00
 -1       916 3.69854E+01 3.41284E+01 0.00000E+00
 -1       917 4.00868E+01 2.97169E+01 0.00000E+00
 -1       918 1.34412E+02 2.35313E+01 0.00000E+00
 -1       919 1.34394E+02 3.51031E+01 0.00000E+00
 -1       920 1.34535E+02 1.73608E+01 0.00000E+00
 -1       921 1.34412E+02 2.94250E+01 0.00000E+00
 -1       922 4.03396E+01 2.26700E+01 0.00000E+00
 -1       923 1.34580E+02 3.27498E+01 0.00000E+00
 -1       924 4.10363E+01 2.70464E+01 0.00000E+00
 -1       925 4.36500E+01 3.20266E+01 0.00000E+00
 -1       926 4.66500E+01 3.20266E+01 0.00000E+00
 -1       927 4.96500E+01 3.20266E+01 0.00000E+00
 -1       928 5.26500E+01 3.20266E+01 0.00000E+00
 -1       929 5.56500E+01 3.20266E+01 0.00000E+00
 -1       930 5.86500E+01 3.20266E+01 0.00000E+00
 -1       931 6.16500E+01 3.20266E+01 0.00000E+00
 -1       932 6.46500E+01 3.20266E+01 0.00000E+00
 -1       933 6.76500E+01 3.20266E+01 0.00000E+00
 -1       934 7.06500E+01 3.20266E+01 0.00000E+00
 -1       935 7.36500E+01 3.20266E+01 0.00000E+00
 -1       936 7.66500E+01 3.20266E+01 0.00000E+00
 -1       937 7.96500E+01 3.20266E+01 0.00000E+00
 -1       938 8.26500E+01 3.20266E+01 0.00000E+00
 -1       939 8.56500E+01 3.20266E+01 0.00000E+00
 -1       940 8.86500E+01 3.20266E+01 0.00000E+00
 -1       941 9.16500E+01 3.20266E+01 0.00000E+00
 -1       942 9.46500E+01 3.20266E+01 0.00000E+00
 -1       943 9.76500E+01 3.20266E+01 0.00000E+00
 -1       944 1.00650E+02 3.20266E+01 0.00000E+00
 -1       945 1.03650E+02 3.20266E+01 0.00000E+00
 -1       946 1.06650E+02 3.20266E+01 0.00000E+00
 -1       947 1.09650E+02 3.20266E+01 0.00000E+00
 -1       948 1.12650E+02 3.20266E+01 0.00000E+00
 -1       949 1.15650E+02 3.20266E+01 0.00000E+00
 -1       950 1.18650E+02 3.20266E+01 0.00000E+00
 -1       951 1.21650E+02 3.20266E+01 0.00000E+00
 -1       952 1.24650E+02 3.20266E+01 0.00000E+00
 -1       953 1.27650E+02 3.20266E+01 0.00000E+00
 -1       954 1.30650E+02 3.20266E+01 0.00000E+00
 -1       955 5.50350E+01 1.70088E+01 0.00000E+00
 -1       956 5.20350E+01 1.70088E+01 0.00000E+00
 -1       957 6.10350E+01 1.70088E+01 0.00000E+00
 -1       958 6.40350E+01 1.70088E+01 0.00000E+00
 -1       959 6.70350E+01 1.70088E+01 0.00000E+00
 -1       960 7.00350E+01 1.70088E+01 0.00000E+00
 -1       961 7.30350E+01 1.70088E+01 0.00000E+00
 -1       962 7.60350E+01 1.70088E+01 0.00000E+00
 -1       963 7.90350E+01 1.70088E+01 0.00000E+00
 -1       964 8.20350E+01 1.70088E+01 0.00000E+00
 -1       965 8.50350E+01 1.70088E+01 0.00000E+00
 -1       966 8.80350E+01 1.70088E+01 0.00000E+00
 -1       967 9.10350E+01 1.70088E+01 0.00000E+00
 -1       968 9.40350E+01 1.70088E+01 0.00000E+00
 -1       969 9.70350E+01 1.70088E+01 0.00000E+00
 -1       970 1.00035E+02 1.70088E+01 0.00000E+00
 -1       971 1.03035E+02 1.70088E+01 0.00000E+00
 -1       972 1.06035E+02 1.70088E+01 0.00000E+00
 -1       973 1.09035E+02 1.70088E+01 0.00000E+00
 -1       974 1.12035E+02 1.70088E+01 0.00000E+00
 -1       975 1.15035E+02 1.70088E+01 0.00000E+00
 -1       976 1.18035E+02 1.70088E+01 0.00000E+00
 -1       977 1.21035E+02 1.70088E+01 0.00000E+00
 -1       978 1.24035E+02 1.70088E+01 0.00000E+00
 -1       979 1.27035E+02 1.70088E+01 0.00000E+00
 -1       980 1.30035E+02 1.70088E+01 0.00000E+00
 -1       981 1.32285E+02 1.71847E+01 0.00000E+00
 -1       982 4.18305E+01 2.01396E+01 0.00000E+00
 -1       983 4.90350E+01 1.70088E+01 0.00000E+00
 -1       984 5.80350E+01 1.70088E+01 0.00000E+00
 -1       985 4.13158E+01 3.16178E+01 0.00000E+00
 -1       986 4.31828E+01 1.72752E+01 0.00000E+00
 -1       987 1.34412E+02 2.05875E+01 0.00000E+00
 -1       988 4.20674E+01 2.48812E+01 0.00000E+00
 -1       989 4.61089E+01 1.71420E+01 0.00000E+00
 -1       990 1.31814E+02 2.79500E+01 0.00000E+00
 -1       991 1.31814E+02 2.50063E+01 0.00000E+00
 -1       992 4.35583E+01 2.23507E+01 0.00000E+00
 -1       993 4.81500E+01 2.94286E+01 0.00000E+00
 -1       994 5.11500E+01 2.94286E+01 0.00000E+00
 -1       995 5.41500E+01 2.94286E+01 0.00000E+00
 -1       996 5.71500E+01 2.94286E+01 0.00000E+00
 -1       997 6.01500E+01 2.94286E+01 0.00000E+00
 -1       998 6.31500E+01 2.94286E+01 0.00000E+00
 -1       999 6.61500E+01 2.94286E+01 0.00000E+00
 -1      1000 6.91500E+01 2.94286E+01 0.00000E+00
 -1      1001 7.21500E+01 2.94286E+01 0.00000E+00
 -1      1002 7.51500E+01 2.94286E+01 0.00000E+00
 -1      1003 7.81500E+01 2.94286E+01 0.00000E+00
 -1      1004 8.11500E+01 2.94286E+01 0.00000E+00
 -1      1005 8.41500E+01 2.94286E+01 0.00000E+00
 -1      1006 8.71500E+01 2.94286E+01 0.00000E+00
 -1      1007 9.01500E+01 2.94286E+01 0.00000E+00
 -1      1008 9.31500E+01 2.94286E+01 0.00000E+00
 -1      1009 9.61500E+01 2.94286E+01 0.00000E+00
 -1      1010 9.91500E+01 2.94286E+01 0.00000E+00
 -1      1011 1.02150E+02 2.94286E+01 0.00000E+00
 -1      1012 1.05150E+02 2.94286E+01 0.00000E+00
 -1      1013 1.08150E+02 2.94286E+01 0.00000E+00
 -1      1014 1.11150E+02 2.94286E+01 0.00000E+00
 -1      1015 1.14150E+02 2.94286E+01 0.00000E+00
 -1      1016 1.17150E+02 2.94286E+01 0.00000E+00
 -1      1017 1.20150E+02 2.94286E+01 0.00000E+00
 -1      1018 1.23150E+02 2.94286E+01 0.00000E+00
 -1      1019 1.26150E+02 2.94286E+01 0.00000E+00
 -1      1020 1.28982E+02 2.86893E+01 0.00000E+00
 -1      1021 5.35350E+01 1.96068E+01 0.00000E+00
 -1      1022 6.55350E+01 1.96068E+01 0.00000E+00
 -1      1023 6.25350E+01 1.96068E+01 0.00000E+00
 -1      1024 7.15350E+01 1.96068E+01 0.00000E+00
 -1      1025 7.45350E+01 1.96068E+01 0.00000E+00
 -1      1026 7.75350E+01 1.96068E+01 0.00000E+00
 -1      1027 8.05350E+01 1.96068E+01 0.00000E+00
 -1      1028 8.35350E+01 1.96068E+01 0.00000E+00
 -1      1029 8.65350E+01 1.96068E+01 0.00000E+00
 -1      1030 8.95350E+01 1.96068E+01 0.00000E+00
 -1      1031 9.25350E+01 1.96068E+01 0.00000E+00
 -1      1032 9.55350E+01 1.96068E+01 0.00000E+00
 -1      1033 9.85350E+01 1.96068E+01 0.00000E+00
 -1      1034 1.01535E+02 1.96068E+01 0.00000E+00
 -1      1035 1.04535E+02 1.96068E+01 0.00000E+00
 -1      1036 1.07535E+02 1.96068E+01 0.00000E+00
 -1      1037 1.10535E+02 1.96068E+01 0.00000E+00
 -1      1038 1.13535E+02 1.96068E+01 0.00000E+00
 -1      1039 1.16535E+02 1.96068E+01 0.00000E+00
 -1      1040 1.19535E+02 1.96068E+01 0.00000E+00
 -1      1041 1.22535E+02 1.96068E+01 0.00000E+00
 -1      1042 1.25535E+02 1.96068E+01 0.00000E+00
 -1      1043 1.28535E+02 1.96068E+01 0.00000E+00
 -1      1044 1.31814E+02 2.20625E+01 0.00000E+00
 -1      1045 5.05350E+01 1.96068E+01 0.00000E+00
 -1      1046 4.51500E+01 2.94286E+01 0.00000E+00
 -1      1047 6.85350E+01 1.96068E+01 0.00000E+00
 -1      1048 4.26184E+01 2.95727E+01 0.00000E+00
 -1      1049 5.95350E+01 1.96068E+01 0.00000E+00
 -1      1050 1.32049E+02 1.96236E+01 0.00000E+00
 -1      1051 5.65350E+01 1.96068E+01 0.00000E+00
 -1      1052 1.28982E+02 2.57456E+01 0.00000E+00
 -1      1053 4.36087E+01 2.71549E+01 0.00000E+00
 -1      1054 4.48336E+01 1.97463E+01 0.00000E+00
 -1      1055 4.76843E+01 1.96765E+01 0.00000E+00
 -1      1056 7.90350E+01 2.22048E+01 0.00000E+00
 -1      1057 4.66087E+01 2.71549E+01 0.00000E+00
 -1      1058 6.40350E+01 2.22048E+01 0.00000E+00
 -1      1059 5.26500E+01 2.68306E+01 0.00000E+00
 -1      1060 5.56500E+01 2.68306E+01 0.00000E+00
 -1      1061 5.86500E+01 2.68306E+01 0.00000E+00
 -1      1062 6.16500E+01 2.68306E+01 0.00000E+00
 -1      1063 6.46500E+01 2.68306E+01 0.00000E+00
 -1      1064 6.76500E+01 2.68306E+01 0.00000E+00
 -1      1065 7.06500E+01 2.68306E+01 0.00000E+00
 -1      1066 7.36500E+01 2.68306E+01 0.00000E+00
 -1      1067 7.66500E+01 2.68306E+01 0.00000E+00
 -1      1068 7.96500E+01 2.68306E+01 0.00000E+00
 -1      1069 8.26500E+01 2.68306E+01 0.00000E+00
 -1      1070 8.56500E+01 2.68306E+01 0.00000E+00
 -1      1071 8.86500E+01 2.68306E+01 0.00000E+00
 -1      1072 9.16500E+01 2.68306E+01 0.00000E+00
 -1      1073 9.46500E+01 2.68306E+01 0.00000E+00
 -1      1074 9.76500E+01 2.68306E+01 0.00000E+00
 -1      1075 1.00650E+02 2.68306E+01 0.00000E+00
 -1      1076 1.03650E+02 2.68306E+01 0.00000E+00
 -1      1077 1.06650E+02 2.68306E+01 0.00000E+00
 -1      1078 1.09650E+02 2.68306E+01 0.00000E+00
 -1      1079 1.12650E+02 2.68306E+01 0.00000E+00
 -1      1080 1.15650E+02 2.68306E+01 0.00000E+00
 -1      1081 1.18650E+02 2.68306E+01 0.00000E+00
 -1      1082 1.21650E+02 2.68306E+01 0.00000E+00
 -1      1083 1.24650E+02 2.68306E+01 0.00000E+00
 -1      1084 1.26816E+02 2.62881E+01 0.00000E+00
 -1      1085 4.96500E+01 2.68306E+01 0.00000E+00
 -1      1086 7.60350E+01 2.22048E+01 0.00000E+00
 -1      1087 7.30350E+01 2.22048E+01 0.00000E+00
 -1      1088 8.20350E+01 2.22048E+01 0.00000E+00
 -1      1089 8.50350E+01 2.22048E+01 0.00000E+00
 -1      1090 8.80350E+01 2.22048E+01 0.00000E+00
 -1      1091 9.10350E+01 2.22048E+01 0.00000E+00
 -1      1092 9.40350E+01 2.22048E+01 0.00000E+00
 -1      1093 9.70350E+01 2.22048E+01 0.00000E+00
 -1      1094 1.00035E+02 2.22048E+01 0.00000E+00
 -1      1095 1.03035E+02 2.22048E+01 0.00000E+00
 -1      1096 1.06035E+02 2.22048E+01 0.00000E+00
 -1      1097 1.09035E+02 2.22048E+01 0.00000E+00
 -1      1098 1.12035E+02 2.22048E+01 0.00000E+00
 -1      1099 1.15035E+02 2.22048E+01 0.00000E+00
 -1      1100 1.18035E+02 2.22048E+01 0.00000E+00
 -1      1101 1.21035E+02 2.22048E+01 0.00000E+00
 -1      1102 1.24035E+02 2.22048E+01 0.00000E+00
 -1      1103 1.27035E+02 2.22048E+01 0.00000E+00
 -1      1104 5.20350E+01 2.22048E+01 0.00000E+00
 -1      1105 5.50350E+01 2.22048E+01 0.00000E+00
 -1      1106 6.10350E+01 2.22048E+01 0.00000E+00
 -1      1107 1.29424E+02 2.36055E+01 0.00000E+00
 -1      1108 4.50996E+01 2.46244E+01 0.00000E+00
 -1      1109 6.70350E+01 2.22048E+01 0.00000E+00
 -1      1110 7.00350E+01 2.22048E+01 0.00000E+00
 -1      1111 5.80350E+01 2.22048E+01 0.00000E+00
 -1      1112 4.91843E+01 2.22745E+01 0.00000E+00
 -1      1113 4.63920E+01 2.21505E+01 0.00000E+00
 -1      1114 5.11500E+01 2.42326E+01 0.00000E+00
 -1      1115 5.71500E+01 2.42326E+01 0.00000E+00
 -1      1116 4.78539E+01 2.44094E+01 0.00000E+00
 -1      1117 5.41500E+01 2.42326E+01 0.00000E+00
 -1      1118 0.00000E+00 4.85250E+01 0.00000E+00
 -1      1119 0.00000E+00 4.55750E+01 0.00000E+00
 -1      1120 0.00000E+00 4.26250E+01 0.00000E+00
 -1      1121 0.00000E+00 3.96750E+01 0.00000E+00
 -1      1122 0.00000E+00 3.67250E+01 0.00000E+00
 -1      1123 0.00000E+00 3.37750E+01 0.00000E+00
 -1      1124 0.00000E+00 3.08250E+01 0.00000E+00
 -1      1125 0.00000E+00 2.79000E+01 0.00000E+00
 -1      1126 0.00000E+00 2.49750E+01 0.00000E+00
 -1      1127 0.00000E+00 2.20500E+01 0.00000E+00
 -1      1128 0.00000E+00 1.91250E+01 0.00000E+00
 -1      1129 0.00000E+00 1.61750E+01 0.00000E+00
 -1      1130 0.00000E+00 1.32250E+01 0.00000E+00
 -1      1131 0.00000E+00 1.02750E+01 0.00000E+00
 -1      1132 0.00000E+00 7.32500E+00 0.00000E+00
 -1      1133 0.00000E+00 4.37500E+00 0.00000E+00
 -1      1134 0.00000E+00 1.45000E+00 0.00000E+00
 -1      1135 1.57500E+00 5.00000E+01 0.00000E+00
 -1      1136 4.65000E+00 5.00000E+01 0.00000E+00
 -1      1137 7.65000E+00 5.00000E+01 0.00000E+00
 -1      1138 1.06500E+01 5.00000E+01 0.00000E+00
 -1      1139 1.36500E+01 5.00000E+01 0.00000E+00
 -1      1140 1.66500E+01 5.00000E+01 0.00000E+00
 -1      1141 1.96500E+01 5.00000E+01 0.00000E+00
 -1      1142 2.26500E+01 5.00000E+01 0.00000E+00
 -1      1143 2.56500E+01 5.00000E+01 0.00000E+00
 -1      1144 2.86500E+01 5.00000E+01 0.00000E+00
 -1      1145 3.16500E+01 5.00000E+01 0.00000E+00
 -1      1146 3.46500E+01 5.00000E+01 0.00000E+00
 -1      1147 3.76500E+01 5.00000E+01 0.00000E+00
 -1      1148 4.06500E+01 5.00000E+01 0.00000E+00
 -1      1149 4.36500E+01 5.00000E+01 0.00000E+00
 -1      1150 4.66500E+01 5.00000E+01 0.00000E+00
 -1      1151 4.96500E+01 5.00000E+01 0.00000E+00
 -1      1152 5.26500E+01 5.00000E+01 0.00000E+00
 -1      1153 5.56500E+01 5.00000E+01 0.00000E+00
 -1      1154 5.86500E+01 5.00000E+01 0.00000E+00
 -1      1155 6.16500E+01 5.00000E+01 0.00000E+00
 -1      1156 6.46500E+01 5.00000E+01 0.00000E+00
 -1      1157 6.76500E+01 5.00000E+01 0.00000E+00
 -1      1158 7.06500E+01 5.00000E+01 0.00000E+00
 -1      1159 7.36500E+01 5.00000E+01 0.00000E+00
 -1      1160 7.66500E+01 5.00000E+01 0.00000E+00
 -1      1161 7.96500E+01 5.00000E+01 0.00000E+00
 -1      1162 8.26500E+01 5.00000E+01 0.00000E+00
 -1      1163 8.56500E+01 5.00000E+01 0.00000E+00
 -1      1164 8.86500E+01 5.00000E+01 0.00000E+00
 -1      1165 9.16500E+01 5.00000E+01 0.00000E+00
 -1      1166 9.46500E+01 5.00000E+01 0.00000E+00
 -1      1167 9.76500E+01 5.00000E+01 0.00000E+00
 -1      1168 1.00650E+02 5.00000E+01 0.00000E+00
 -1      1169 1.03650E+02 5.00000E+01 0.00000E+00
 -1      1170 1.06650E+02 5.00000E+01 0.00000E+00
 -1      1171 1.09650E+02 5.00000E+01 0.00000E+00
 -1      1172 1.12650E+02 5.00000E+01 0.00000E+00
 -1      1173 1.15650E+02 5.00000E+01 0.00000E+00
 -1      1174 1.18650E+02 5.00000E+01 0.00000E+00
 -1      1175 1.21650E+02 5.00000E+01 0.00000E+00
 -1      1176 1.24650E+02 5.00000E+01 0.00000E+00
 -1      1177 1.27650E+02 5.00000E+01 0.00000E+00
 -1      1178 1.30650E+02 5.00000E+01 0.00000E+00
 -1      1179 1.33650E+02 5.00000E+01 0.00000E+00
 -1      1180 1.36650E+02 5.00000E+01 0.00000E+00
 -1      1181 1.39650E+02 5.00000E+01 0.00000E+00
 -1      1182 1.42650E+02 5.00000E+01 0.00000E+00
 -1      1183 1.45650E+02 5.00000E+01 0.00000E+00
 -1      1184 1.48575E+02 5.00000E+01 0.00000E+00
 -1      1185 1.57500E+00 0.00000E+00 0.00000E+00
 -1      1186 4.65000E+00 0.00000E+00 0.00000E+00
 -1      1187 7.65000E+00 0.00000E+00 0.00000E+00
 -1      1188 1.06500E+01 0.00000E+00 0.00000E+00
 -1      1189 1.36500E+01 0.00000E+00 0.00000E+00
 -1      1190 1.66500E+01 0.00000E+00 0.00000E+00
 -1      1191 1.96500E+01 0.00000E+00 0.00000E+00
 -1      1192 2.26500E+01 0.00000E+00 0.00000E+00
 -1      1193 2.56500E+01 0.00000E+00 0.00000E+00
 -1      1194 2.86500E+01 0.00000E+00 0.00000E+00
 -1      1195 3.16500E+01 0.00000E+00 0.00000E+00
 -1      1196 3.46500E+01 0.00000E+00 0.00000E+00
 -1      1197 3.76500E+01 0.00000E+00 0.00000E+00
 -1      1198 4.06500E+01 0.00000E+00 0.00000E+00
 -1      1199 4.36500E+01 0.00000E+00 0.00000E+00
 -1      1200 4.66500E+01 0.00000E+00 0.00000E+00
 -1      1201 4.96500E+01 0.00000E+00 0.00000E+00
 -1      1202 5.26500E+01 0.00000E+00 0.00000E+00
 -1      1203 5.56500E+01 0.00000E+00 0.00000E+00
 -1      1204 5.86500E+01 0.00000E+00 0.00000E+00
 -1      1205 6.16500E+01 0.00000E+00 0.00000E+00
 -1      1206 6.46500E+01 0.00000E+00 0.00000E+00
 -1      1207 6.76500E+01 0.00000E+00 0.00000E+00
 -1      1208 7.06500E+01 0.00000E+00 0.00000E+00
 -1      1209 7.36500E+01 0.00000E+00 0.00000E+00
 -1      1210 7.66500E+01 0.00000E+00 0.00000E+00
 -1      1211 7.96500E+01 0.00000E+00 0.00000E+00
 -1      1212 8.26500E+01 0.00000E+00 0.00000E+00
 -1      1213 8.56500E+01 0.00000E+00 0.00000E+00
 -1      1214 8.86500E+01 0.00000E+00 0.00000E+00
 -1      1215 9.16500E+01 0.00000E+00 0.00000E+00
 -1      1216 9.46500E+01 0.00000E+00 0.00000E+00
 -1      1217 9.76500E+01 0.00000E+00 0.00000E+00
 -1      1218 1.00650E+02 0.00000E+00 0.00000E+00
 -1      1219 1.03650E+02 0.00000E+00 0.00000E+00
 -1      1220 1.06650E+02 0.00000E+00 0.00000E+00
 -1      1221 1.09650E+02 0.00000E+00 0.00000E+00
 -1      1222 1.12650E+02 0.00000E+00 0.00000E+00
 -1      1223 1.15650E+02 0.00000E+00 0.00000E+00
 -1      1224 1.18650E+02 0.00000E+00 0.00000E+00
 -1      1225 1.21650E+02 0.00000E+00 0.00000E+00
 -1      1226 1.24650E+02 0.00000E+00 0.00000E+00
 -1      1227 1.27650E+02 0.00000E+00 0.00000E+00
 -1      1228 1.30650E+02 0.00000E+00 0.00000E+00
 -1      1229 1.33650E+02 0.00000E+00 0.00000E+00
 -1      1230 1.36650E+02 0.00000E+00 0.00000E+00
 -1      1231 1.39650E+02 0.00000E+00 0.00000E+00
 -1      1232 1.42650E+02 0.00000E+00 0.00000E+00
 -1      1233 1.45650E+02 0.00000E+00 0.00000E+00
 -1      1234 1.48575E+02 0.00000E+00 0.00000E+00
 -1      1235 1.50000E+02 1.47500E+00 0.00000E+00
 -1      1236 1.50000E+02 4.42500E+00 0.00000E+00
 -1      1237 1.50000E+02 7.37500E+00 0.00000E+00
 -1      1238 1.50000E+02 1.03250E+01 0.00000E+00
 -1      1239 1.50000E+02 1.32750E+01 0.00000E+00
 -1      1240 1.50000E+02 1.62000E+01 0.00000E+00
 -1      1241 1.50000E+02 1.91250E+01 0.00000E+00
 -1      1242 1.50000E+02 2.20750E+01 0.00000E+00
 -1      1243 1.50000E+02 2.50250E+01 0.00000E+00
 -1      1244 1.50000E+02 2.79750E+01 0.00000E+00
 -1      1245 1.50000E+02 3.09250E+01 0.00000E+00
 -1      1246 1.50000E+02 3.38500E+01 0.00000E+00
 -1      1247 1.50000E+02 3.67750E+01 0.00000E+00
 -1      1248 1.50000E+02 3.97250E+01 0.00000E+00
 -1      1249 1.50000E+02 4.26750E+01 0.00000E+00
 -1      1250 1.50000E+02 4.56250E+01 0.00000E+00
 -1      1251 1.50000E+02 4.85500E+01 0.00000E+00
 -1      1252 3.02023E+01 2.30669E+01 0.00000E+00
 -1      1253 2.98704E+01 2.15774E+01 0.00000E+00
 -1      1254 2.92353E+01 2.02144E+01 0.00000E+00
 -1      1255 2.83553E+01 1.90520E+01 0.00000E+00
 -1      1256 2.72685E+01 1.81076E+01 0.00000E+00
 -1      1257 2.59820E+01 1.73928E+01 0.00000E+00
 -1      1258 2.45386E+01 1.69561E+01 0.00000E+00
 -1      1259 2.30217E+01 1.68390E+01 0.00000E+00
 -1      1260 2.15244E+01 1.70501E+01 0.00000E+00
 -1      1261 2.01001E+01 1.75815E+01 0.00000E+00
 -1      1262 1.88450E+01 1.83909E+01 0.00000E+00
 -1      1263 1.77749E+01 1.94671E+01 0.00000E+00
 -1      1264 1.69737E+01 2.07250E+01 0.00000E+00
 -1      1265 1.64669E+01 2.20854E+01 0.00000E+00
 -1      1266 1.62491E+01 2.35857E+01 0.00000E+00
 -1      1267 1.63558E+01 2.50779E+01 0.00000E+00
 -1      1268 1.67541E+01 2.64571E+01 0.00000E+00
 -1      1269 1.74138E+01 2.77086E+01 0.00000E+00
 -1      1270 1.83220E+01 2.88121E+01 0.00000E+00
 -1      1271 1.95076E+01 2.97544E+01 0.00000E+00
 -1      1272 2.09589E+01 3.04517E+01 0.00000E+00
 -1      1273 2.24909E+01 3.07947E+01 0.00000E+00
 -1      1274 2.40108E+01 3.07934E+01 0.00000E+00
 -1      1275 2.55641E+01 3.04400E+01 0.00000E+00
 -1      1276 2.69901E+01 2.97491E+01 0.00000E+00
 -1      1277 2.81830E+01 2.87965E+01 0.00000E+00
 -1      1278 2.91484E+01 2.75965E+01 0.00000E+00
 -1      1279 2.98379E+01 2.61867E+01 0.00000E+00
 -1      1280 3.01991E+01 2.46327E+01 0.00000E+00
 -1      1281 1.57500E+00 4.85250E+01 0.00000E+00
 -1      1282 1.29900E+00 4.48375E+01 0.00000E+00
 -1      1283 1.29900E+00 4.63125E+01 0.00000E+00
 -1      1284 1.29900E+00 4.18875E+01 0.00000E+00
 -1      1285 1.29900E+00 4.33625E+01 0.00000E+00
 -1      1286 2.59800E+00 4.41000E+01 0.00000E+00
 -1      1287 1.29900E+00 3.89375E+01 0.00000E+00
 -1      1288 1.29900E+00 4.04125E+01 0.00000E+00
 -1      1289 2.59800E+00 4.11500E+01 0.00000E+00
 -1      1290 1.29900E+00 3.59875E+01 0.00000E+00
 -1      1291 1.29900E+00 3.74625E+01 0.00000E+00
 -1      1292 2.59800E+00 3.82000E+01 0.00000E+00
 -1      1293 1.29900E+00 3.30375E+01 0.00000E+00
 -1      1294 1.29900E+00 3.45125E+01 0.00000E+00
 -1      1295 2.59800E+00 3.52500E+01 0.00000E+00
 -1      1296 1.29900E+00 3.00875E+01 0.00000E+00
 -1      1297 1.29900E+00 3.15625E+01 0.00000E+00
 -1      1298 2.59800E+00 3.23000E+01 0.00000E+00
 -1      1299 1.29900E+00 2.71875E+01 0.00000E+00
 -1      1300 1.29900E+00 2.86375E+01 0.00000E+00
 -1      1301 2.59800E+00 2.93750E+01 0.00000E+00
 -1      1302 1.29900E+00 2.42375E+01 0.00000E+00
 -1      1303 1.29900E+00 2.57125E+01 0.00000E+00
 -1      1304 2.59800E+00 2.64500E+01 0.00000E+00
 -1      1305 1.29900E+00 2.13375E+01 0.00000E+00
 -1      1306 1.29900E+00 2.27875E+01 0.00000E+00
 -1      1307 2.59800E+00 2.35250E+01 0.00000E+00
 -1      1308 1.29900E+00 1.83875E+01 0.00000E+00
 -1      1309 1.29900E+00 1.98625E+01 0.00000E+00
 -1      1310 2.59800E+00 2.06000E+01 0.00000E+00
 -1      1311 1.29900E+00 1.54375E+01 0.00000E+00
 -1      1312 1.29900E+00 1.69125E+01 0.00000E+00
 -1      1313 2.59800E+00 1.76500E+01 0.00000E+00
 -1      1314 1.29900E+00 1.24875E+01 0.00000E+00
 -1      1315 1.29900E+00 1.39625E+01 0.00000E+00
 -1      1316 2.59800E+00 1.47000E+01 0.00000E+00
 -1      1317 1.29900E+00 9.53750E+00 0.00000E+00
 -1      1318 1.29900E+00 1.10125E+01 0.00000E+00
 -1      1319 2.59800E+00 1.17500E+01 0.00000E+00
 -1      1320 1.29900E+00 6.58750E+00 0.00000E+00
 -1      1321 1.29900E+00 8.06250E+00 0.00000E+00
 -1      1322 2.59800E+00 8.80000E+00 0.00000E+00
 -1      1323 1.29900E+00 3.63750E+00 0.00000E+00
 -1      1324 1.29900E+00 5.11250E+00 0.00000E+00
 -1      1325 2.59800E+00 5.85000E+00 0.00000E+00
 -1      1326 1.43700E+00 1.09375E+00 0.00000E+00
 -1      1327 1.43700E+00 2.54375E+00 0.00000E+00
 -1      1328 2.73600E+00 3.28125E+00 0.00000E+00
 -1      1329 3.01200E+00 1.09375E+00 0.00000E+00
 -1      1330 3.90000E+00 4.87010E+01 0.00000E+00
 -1      1331 5.40000E+00 4.87010E+01 0.00000E+00
 -1      1332 6.90000E+00 4.87010E+01 0.00000E+00
 -1      1333 8.40000E+00 4.87010E+01 0.00000E+00
 -1      1334 6.15000E+00 4.74020E+01 0.00000E+00
 -1      1335 9.90000E+00 4.87010E+01 0.00000E+00
 -1      1336 1.14000E+01 4.87010E+01 0.00000E+00
 -1      1337 9.15000E+00 4.74020E+01 0.00000E+00
 -1      1338 1.29000E+01 4.87010E+01 0.00000E+00
 -1      1339 1.44000E+01 4.87010E+01 0.00000E+00
 -1      1340 1.21500E+01 4.74020E+01 0.00000E+00
 -1      1341 1.59000E+01 4.87010E+01 0.00000E+00
 -1      1342 1.74000E+01 4.87010E+01 0.00000E+00
 -1      1343 1.51500E+01 4.74020E+01 0.00000E+00
 -1      1344 1.89000E+01 4.87010E+01 0.00000E+00
 -1      1345 2.04000E+01 4.87010E+01 0.00000E+00
 -1      1346 1.81500E+01 4.74020E+01 0.00000E+00
 -1      1347 2.19000E+01 4.87010E+01 0.00000E+00
 -1      1348 2.34000E+01 4.87010E+01 0.00000E+00
 -1      1349 2.11500E+01 4.74020E+01 0.00000E+00
 -1      1350 2.49000E+01 4.87010E+01 0.00000E+00
 -1      1351 2.64000E+01 4.87010E+01 0.00000E+00
 -1      1352 2.41500E+01 4.74020E+01 0.00000E+00
 -1      1353 2.79000E+01 4.87010E+01 0.00000E+00
 -1      1354 2.94000E+01 4.87010E+01 0.00000E+00
 -1      1355 2.71500E+01 4.74020E+01 0.00000E+00
 -1      1356 3.09000E+01 4.87010E+01 0.00000E+00
 -1      1357 3.24000E+01 4.87010E+01 0.00000E+00
 -1      1358 3.01500E+01 4.74020E+01 0.00000E+00
 -1      1359 3.39000E+01 4.87010E+01 0.00000E+00
 -1      1360 3.54000E+01 4.87010E+01 0.00000E+00
 -1      1361 3.31500E+01 4.74020E+01 0.00000E+00
 -1      1362 3.69000E+01 4.87010E+01 0.00000E+00
 -1      1363 3.84000E+01 4.87010E+01 0.00000E+00
 -1      1364 3.61500E+01 4.74020E+01 0.00000E+00
 -1      1365 3.99000E+01 4.87010E+01 0.00000E+00
 -1      1366 4.14000E+01 4.87010E+01 0.00000E+00
 -1      1367 3.91500E+01 4.74020E+01 0.00000E+00
 -1      1368 4.29000E+01 4.87010E+01 0.00000E+00
 -1      1369 4.44000E+01 4.87010E+01 0.00000E+00
 -1      1370 4.21500E+01 4.74020E+01 0.00000E+00
 -1      1371 4.59000E+01 4.87010E+01 0.00000E+00
 -1      1372 4.74000E+01 4.87010E+01 0.00000E+00
 -1      1373 4.51500E+01 4.74020E+01 0.00000E+00
 -1      1374 4.89000E+01 4.87010E+01 0.00000E+00
 -1      1375 5.04000E+01 4.87010E+01 0.00000E+00
 -1      1376 4.81500E+01 4.74020E+01 0.00000E+00
 -1      1377 5.19000E+01 4.87010E+01 0.00000E+00
 -1      1378 5.34000E+01 4.87010E+01 0.00000E+00
 -1      1379 5.11500E+01 4.74020E+01 0.00000E+00
 -1      1380 5.49000E+01 4.87010E+01 0.00000E+00
 -1      1381 5.64000E+01 4.87010E+01 0.00000E+00
 -1      1382 5.41500E+01 4.74020E+01 0.00000E+00
 -1      1383 5.79000E+01 4.87010E+01 0.00000E+00
 -1      1384 5.94000E+01 4.87010E+01 0.00000E+00
 -1      1385 5.71500E+01 4.74020E+01 0.00000E+00
 -1      1386 6.09000E+01 4.87010E+01 0.00000E+00
 -1      1387 6.24000E+01 4.87010E+01 0.00000E+00
 -1      1388 6.01500E+01 4.74020E+01 0.00000E+00
 -1      1389 6.39000E+01 4.87010E+01 0.00000E+00
 -1      1390 6.54000E+01 4.87010E+01 0.00000E+00
 -1      1391 6.31500E+01 4.74020E+01 0.00000E+00
 -1      1392 6.69000E+01 4.87010E+01 0.00000E+00
 -1      1393 6.84000E+01 4.87010E+01 0.00000E+00
 -1      1394 6.61500E+01 4.74020E+01 0.00000E+00
 -1      1395 6.99000E+01 4.87010E+01 0.00000E+00
 -1      1396 7.14000E+01 4.87010E+01 0.00000E+00
 -1      1397 6.91500E+01 4.74020E+01 0.00000E+00
 -1      1398 7.29000E+01 4.87010E+01 0.00000E+00
 -1      1399 7.44000E+01 4.87010E+01 0.00000E+00
 -1      1400 7.21500E+01 4.74020E+01 0.00000E+00
 -1      1401 7.59000E+01 4.87010E+01 0.00000E+00
 -1      1402 7.74000E+01 4.87010E+01 0.00000E+00
 -1      1403 7.51500E+01 4.74020E+01 0.00000E+00
 -1      1404 7.89000E+01 4.87010E+01 0.00000E+00
 -1      1405 8.04000E+01 4.87010E+01 0.00000E+00
 -1      1406 7.81500E+01 4.74020E+01 0.00000E+00
 -1      1407 8.19000E+01 4.87010E+01 0.00000E+00
 -1      1408 8.34000E+01 4.87010E+01 0.00000E+00
 -1      1409 8.11500E+01 4.74020E+01 0.00000E+00
 -1      1410 8.49000E+01 4.87010E+01 0.00000E+00
 -1      1411 8.64000E+01 4.87010E+01 0.00000E+00
 -1      1412 8.41500E+01 4.74020E+01 0.00000E+00
 -1      1413 8.79000E+01 4.87010E+01 0.00000E+00
 -1      1414 8.94000E+01 4.87010E+01 0.00000E+00
 -1      1415 8.71500E+01 4.74020E+01 0.00000E+00
 -1      1416 9.09000E+01 4.87010E+01 0.00000E+00
 -1      1417 9.24000E+01 4.87010E+01 0.00000E+00
 -1      1418 9.01500E+01 4.74020E+01 0.00000E+00
 -1      1419 9.39000E+01 4.87010E+01 0.00000E+00
 -1      1420 9.54000E+01 4.87010E+01 0.00000E+00
 -1      1421 9.31500E+01 4.74020E+01 0.00000E+00
 -1      1422 9.69000E+01 4.87010E+01 0.00000E+00
 -1      1423 9.84000E+01 4.87010E+01 0.00000E+00
 -1      1424 9.61500E+01 4.74020E+01 0.00000E+00
 -1      1425 9.99000E+01 4.87010E+01 0.00000E+00
 -1      1426 1.01400E+02 4.87010E+01 0.00000E+00
 -1      1427 9.91500E+01 4.74020E+01 0.00000E+00
 -1      1428 1.02900E+02 4.87010E+01 0.00000E+00
 -1      1429 1.04400E+02 4.87010E+01 0.00000E+00
 -1      1430 1.02150E+02 4.74020E+01 0.00000E+00
 -1      1431 1.05900E+02 4.87010E+01 0.00000E+00
 -1      1432 1.07400E+02 4.87010E+01 0.00000E+00
 -1      1433 1.05150E+02 4.74020E+01 0.00000E+00
 -1      1434 1.08900E+02 4.87010E+01 0.00000E+00
 -1      1435 1.10400E+02 4.87010E+01 0.00000E+00
 -1      1436 1.08150E+02 4.74020E+01 0.00000E+00
 -1      1437 1.11900E+02 4.87010E+01 0.00000E+00
 -1      1438 1.13400E+02 4.87010E+01 0.00000E+00
 -1      1439 1.11150E+02 4.74020E+01 0.00000E+00
 -1      1440 1.14900E+02 4.87010E+01 0.00000E+00
 -1      1441 1.16400E+02 4.87010E+01 0.00000E+00
 -1      1442 1.14150E+02 4.74020E+01 0.00000E+00
 -1      1443 1.17900E+02 4.87010E+01 0.00000E+00
 -1      1444 1.19400E+02 4.87010E+01 0.00000E+00
 -1      1445 1.17150E+02 4.74020E+01 0.00000E+00
 -1      1446 1.20900E+02 4.87010E+01 0.00000E+00
 -1      1447 1.22400E+02 4.87010E+01 0.00000E+00
 -1      1448 1.20150E+02 4.74020E+01 0.00000E+00
 -1      1449 1.23900E+02 4.87010E+01 0.00000E+00
 -1      1450 1.25400E+02 4.87010E+01 0.00000E+00
 -1      1451 1.23150E+02 4.74020E+01 0.00000E+00
 -1      1452 1.26900E+02 4.87010E+01 0.00000E+00
 -1      1453 1.28400E+02 4.87010E+01 0.00000E+00
 -1      1454 1.26150E+02 4.74020E+01 0.00000E+00
 -1      1455 1.29900E+02 4.87010E+01 0.00000E+00
 -1      1456 1.31400E+02 4.87010E+01 0.00000E+00
 -1      1457 1.29150E+02 4.74020E+01 0.00000E+00
 -1      1458 1.32900E+02 4.87010E+01 0.00000E+00
 -1      1459 1.34400E+02 4.87010E+01 0.00000E+00
 -1      1460 1.32150E+02 4.74020E+01 0.00000E+00
 -1      1461 1.35900E+02 4.87010E+01 0.00000E+00
 -1      1462 1.37400E+02 4.87010E+01 0.00000E+00
 -1      1463 1.35150E+02 4.74020E+01 0.00000E+00
 -1      1464 1.38900E+02 4.87010E+01 0.00000E+00
 -1      1465 1.40400E+02 4.87010E+01 0.00000E+00
 -1      1466 1.38150E+02 4.74020E+01 0.00000E+00
 -1      1467 1.41900E+02 4.87010E+01 0.00000E+00
 -1      1468 1.43400E+02 4.87010E+01 0.00000E+00
 -1      1469 1.41150E+02 4.74020E+01 0.00000E+00
 -1      1470 1.44900E+02 4.87010E+01 0.00000E+00
 -1      1471 1.46400E+02 4.87010E+01 0.00000E+00
 -1      1472 1.44150E+02 4.74020E+01 0.00000E+00
 -1      1473 1.48575E+02 4.85500E+01 0.00000E+00
 -1      1474 1.47825E+02 4.72510E+01 0.00000E+00
 -1      1475 6.01200E+00 1.09375E+00 0.00000E+00
 -1      1476 4.51200E+00 1.09375E+00 0.00000E+00
 -1      1477 4.37400E+00 2.18750E+00 0.00000E+00
 -1      1478 9.01200E+00 1.09375E+00 0.00000E+00
 -1      1479 7.51200E+00 1.09375E+00 0.00000E+00
 -1      1480 7.37400E+00 2.18750E+00 0.00000E+00
 -1      1481 1.20120E+01 1.09375E+00 0.00000E+00
 -1      1482 1.05120E+01 1.09375E+00 0.00000E+00
 -1      1483 1.03740E+01 2.18750E+00 0.00000E+00
 -1      1484 1.50120E+01 1.09375E+00 0.00000E+00
 -1      1485 1.35120E+01 1.09375E+00 0.00000E+00
 -1      1486 1.33740E+01 2.18750E+00 0.00000E+00
 -1      1487 1.80120E+01 1.09375E+00 0.00000E+00
 -1      1488 1.65120E+01 1.09375E+00 0.00000E+00
 -1      1489 1.63740E+01 2.18750E+00 0.00000E+00
 -1      1490 2.10120E+01 1.09375E+00 0.00000E+00
 -1      1491 1.95120E+01 1.09375E+00 0.00000E+00
 -1      1492 1.93740E+01 2.18750E+00 0.00000E+00
 -1      1493 2.40120E+01 1.09375E+00 0.00000E+00
 -1      1494 2.25120E+01 1.09375E+00 0.00000E+00
 -1      1495 2.23740E+01 2.18750E+00 0.00000E+00
 -1      1496 2.70120E+01 1.09375E+00 0.00000E+00
 -1      1497 2.55120E+01 1.09375E+00 0.00000E+00
 -1      1498 2.53740E+01 2.18750E+00 0.00000E+00
 -1      1499 3.00120E+01 1.09375E+00 0.00000E+00
 -1      1500 2.85120E+01 1.09375E+00 0.00000E+00
 -1      1501 2.83740E+01 2.18750E+00 0.00000E+00
 -1      1502 3.30120E+01 1.09375E+00 0.00000E+00
 -1      1503 3.15120E+01 1.09375E+00 0.00000E+00
 -1      1504 3.13740E+01 2.18750E+00 0.00000E+00
 -1      1505 3.60120E+01 1.09375E+00 0.00000E+00
 -1      1506 3.45120E+01 1.09375E+00 0.00000E+00
 -1      1507 3.43740E+01 2.18750E+00 0.00000E+00
 -1      1508 3.90120E+01 1.09375E+00 0.00000E+00
 -1      1509 3.75120E+01 1.09375E+00 0.00000E+00
 -1      1510 3.73740E+01 2.18750E+00 0.00000E+00
 -1      1511 4.20120E+01 1.09375E+00 0.00000E+00
 -1      1512 4.05120E+01 1.09375E+00 0.00000E+00
 -1      1513 4.03740E+01 2.18750E+00 0.00000E+00
 -1      1514 4.50120E+01 1.09375E+00 0.00000E+00
 -1      1515 4.35120E+01 1.09375E+00 0.00000E+00
 -1      1516 4.33740E+01 2.18750E+00 0.00000E+00
 -1      1517 4.80120E+01 1.09375E+00 0.00000E+00
 -1      1518 4.65120E+01 1.09375E+00 0.00000E+00
 -1      1519 4.63740E+01 2.18750E+00 0.00000E+00
 -1      1520 5.10120E+01 1.09375E+00 0.00000E+00
 -1      1521 4.95120E+01 1.09375E+00 0.00000E+00
 -1      1522 4.93740E+01 2.18750E+00 0.00000E+00
 -1      1523 5.40120E+01 1.09375E+00 0.00000E+00
 -1      1524 5.25120E+01 1.09375E+00 0.00000E+00
 -1      1525 5.23740E+01 2.18750E+00 0.00000E+00
 -1      1526 5.70120E+01 1.09375E+00 0.00000E+00
 -1      1527 5.55120E+01 1.09375E+00 0.00000E+00
 -1      1528 5.53740E+01 2.18750E+00 0.00000E+00
 -1      1529 6.00120E+01 1.09375E+00 0.00000E+00
 -1      1530 5.85120E+01 1.09375E+00 0.00000E+00
 -1      1531 5.83740E+01 2.18750E+00 0.00000E+00
 -1      1532 6.30120E+01 1.09375E+00 0.00000E+00
 -1      1533 6.15120E+01 1.09375E+00 0.00000E+00
 -1      1534 6.13740E+01 2.18750E+00 0.00000E+00
 -1      1535 6.60120E+01 1.09375E+00 0.00000E+00
 -1      1536 6.45120E+01 1.09375E+00 0.00000E+00
 -1      1537 6.43740E+01 2.18750E+00 0.00000E+00
 -1      1538 6.90120E+01 1.09375E+00 0.00000E+00
 -1      1539 6.75120E+01 1.09375E+00 0.00000E+00
 -1      1540 6.73740E+01 2.18750E+00 0.00000E+00
 -1      1541 7.20120E+01 1.09375E+00 0.00000E+00
 -1      1542 7.05120E+01 1.09375E+00 0.00000E+00
 -1      1543 7.03740E+01 2.18750E+00 0.00000E+00
 -1      1544 7.50120E+01 1.09375E+00 0.00000E+00
 -1      1545 7.35120E+01 1.09375E+00 0.00000E+00
 -1      1546 7.33740E+01 2.18750E+00 0.00000E+00
 -1      1547 7.80120E+01 1.09375E+00 0.00000E+00
 -1      1548 7.65120E+01 1.09375E+00 0.00000E+00
 -1      1549 7.63740E+01 2.18750E+00 0.00000E+00
 -1      1550 8.10120E+01 1.09375E+00 0.00000E+00
 -1      1551 7.95120E+01 1.09375E+00 0.00000E+00
 -1      1552 7.93740E+01 2.18750E+00 0.00000E+00
 -1      1553 8.40120E+01 1.09375E+00 0.00000E+00
 -1      1554 8.25120E+01 1.09375E+00 0.00000E+00
 -1      1555 8.23740E+01 2.18750E+00 0.00000E+00
 -1      1556 8.70120E+01 1.09375E+00 0.00000E+00
 -1      1557 8.55120E+01 1.09375E+00 0.00000E+00
 -1      1558 8.53740E+01 2.18750E+00 0.00000E+00
 -1      1559 9.00120E+01 1.09375E+00 0.00000E+00
 -1      1560 8.85120E+01 1.09375E+00 0.00000E+00
 -1      1561 8.83740E+01 2.18750E+00 0.00000E+00
 -1      1562 9.30120E+01 1.09375E+00 0.00000E+00
 -1      1563 9.15120E+01 1.09375E+00 0.00000E+00
 -1      1564 9.13740E+01 2.18750E+00 0.00000E+00
 -1      1565 9.60120E+01 1.09375E+00 0.00000E+00
 -1      1566 9.45120E+01 1.09375E+00 0.00000E+00
 -1      1567 9.43740E+01 2.18750E+00 0.00000E+00
 -1      1568 9.90120E+01 1.09375E+00 0.00000E+00
 -1      1569 9.75120E+01 1.09375E+00 0.00000E+00
 -1      1570 9.73740E+01 2.18750E+00 0.00000E+00
 -1      1571 1.02012E+02 1.09375E+00 0.00000E+00
 -1      1572 1.00512E+02 1.09375E+00 0.00000E+00
 -1      1573 1.00374E+02 2.18750E+00 0.00000E+00
 -1      1574 1.05012E+02 1.09375E+00 0.00000E+00
 -1      1575 1.03512E+02 1.09375E+00 0.00000E+00
 -1      1576 1.03374E+02 2.18750E+00 0.00000E+00
 -1      1577 1.08012E+02 1.09375E+00 0.00000E+00
 -1      1578 1.06512E+02 1.09375E+00 0.00000E+00
 -1      1579 1.06374E+02 2.18750E+00 0.00000E+00
 -1      1580 1.11012E+02 1.09375E+00 0.00000E+00
 -1      1581 1.09512E+02 1.09375E+00 0.00000E+00
 -1      1582 1.09374E+02 2.18750E+00 0.00000E+00
 -1      1583 1.14012E+02 1.09375E+00 0.00000E+00
 -1      1584 1.12512E+02 1.09375E+00 0.00000E+00
 -1      1585 1.12374E+02 2.18750E+00 0.00000E+00
 -1      1586 1.17012E+02 1.09375E+00 0.00000E+00
 -1      1587 1.15512E+02 1.09375E+00 0.00000E+00
 -1      1588 1.15374E+02 2.18750E+00 0.00000E+00
 -1      1589 1.20012E+02 1.09375E+00 0.00000E+00
 -1      1590 1.18512E+02 1.09375E+00 0.00000E+00
 -1      1591 1.18374E+02 2.18750E+00 0.00000E+00
 -1      1592 1.23012E+02 1.09375E+00 0.00000E+00
 -1      1593 1.21512E+02 1.09375E+00 0.00000E+00
 -1      1594 1.21374E+02 2.18750E+00 0.00000E+00
 -1      1595 1.26012E+02 1.09375E+00 0.00000E+00
 -1      1596 1.24512E+02 1.09375E+00 0.00000E+00
 -1      1597 1.24374E+02 2.18750E+00 0.00000E+00
 -1      1598 1.29012E+02 1.09375E+00 0.00000E+00
 -1      1599 1.27512E+02 1.09375E+00 0.00000E+00
 -1      1600 1.27374E+02 2.18750E+00 0.00000E+00
 -1      1601 1.32012E+02 1.09375E+00 0.00000E+00
 -1      1602 1.30512E+02 1.09375E+00 0.00000E+00
 -1      1603 1.30374E+02 2.18750E+00 0.00000E+00
 -1      1604 1.35012E+02 1.09375E+00 0.00000E+00
 -1      1605 1.33512E+02 1.09375E+00 0.00000E+00
 -1      1606 1.33374E+02 2.18750E+00 0.00000E+00
 -1      1607 1.38012E+02 1.09375E+00 0.00000E+00
 -1      1608 1.36512E+02 1.09375E+00 0.00000E+00
 -1      1609 1.36374E+02 2.18750E+00 0.00000E+00
 -1      1610 1.41012E+02 1.09375E+00 0.00000E+00
 -1      1611 1.39512E+02 1.09375E+00 0.00000E+00
 -1      1612 1.39374E+02 2.18750E+00 0.00000E+00
 -1      1613 1.44012E+02 1.09375E+00 0.00000E+00
 -1      1614 1.42512E+02 1.09375E+00 0.00000E+00
 -1      1615 1.42374E+02 2.18750E+00 0.00000E+00
 -1      1616 1.47012E+02 1.09375E+00 0.00000E+00
 -1      1617 1.45512E+02 1.09375E+00 0.00000E+00
 -1      1618 1.45374E+02 2.18750E+00 0.00000E+00
 -1      1619 1.48575E+02 1.47500E+00 0.00000E+00
 -1      1620 1.48701E+02 5.16250E+00 0.00000E+00
 -1      1621 1.48701E+02 3.68750E+00 0.00000E+00
 -1      1622 1.48701E+02 8.11250E+00 0.00000E+00
 -1      1623 1.48701E+02 6.63750E+00 0.00000E+00
 -1      1624 1.47402E+02 5.90000E+00 0.00000E+00
 -1      1625 1.48701E+02 1.10625E+01 0.00000E+00
 -1      1626 1.48701E+02 9.58750E+00 0.00000E+00
 -1      1627 1.47402E+02 8.85000E+00 0.00000E+00
 -1      1628 1.48701E+02 1.40125E+01 0.00000E+00
 -1      1629 1.48701E+02 1.25375E+01 0.00000E+00
 -1      1630 1.47402E+02 1.18000E+01 0.00000E+00
 -1      1631 1.48701E+02 1.69125E+01 0.00000E+00
 -1      1632 1.48701E+02 1.54625E+01 0.00000E+00
 -1      1633 1.47402E+02 1.47250E+01 0.00000E+00
 -1      1634 1.48701E+02 1.98625E+01 0.00000E+00
 -1      1635 1.48701E+02 1.83875E+01 0.00000E+00
 -1      1636 1.47402E+02 1.76500E+01 0.00000E+00
 -1      1637 1.48701E+02 2.28125E+01 0.00000E+00
 -1      1638 1.48701E+02 2.13375E+01 0.00000E+00
 -1      1639 1.47402E+02 2.06000E+01 0.00000E+00
 -1      1640 1.48701E+02 2.57625E+01 0.00000E+00
 -1      1641 1.48701E+02 2.42875E+01 0.00000E+00
 -1      1642 1.47402E+02 2.35500E+01 0.00000E+00
 -1      1643 1.48701E+02 2.87125E+01 0.00000E+00
 -1      1644 1.48701E+02 2.72375E+01 0.00000E+00
 -1      1645 1.47402E+02 2.65000E+01 0.00000E+00
 -1      1646 1.48701E+02 3.16625E+01 0.00000E+00
 -1      1647 1.48701E+02 3.01875E+01 0.00000E+00
 -1      1648 1.47402E+02 2.94500E+01 0.00000E+00
 -1      1649 1.48701E+02 3.45625E+01 0.00000E+00
 -1      1650 1.48701E+02 3.31125E+01 0.00000E+00
 -1      1651 1.47402E+02 3.23750E+01 0.00000E+00
 -1      1652 1.48701E+02 3.75125E+01 0.00000E+00
 -1      1653 1.48701E+02 3.60375E+01 0.00000E+00
 -1      1654 1.47402E+02 3.53000E+01 0.00000E+00
 -1      1655 1.48701E+02 4.04625E+01 0.00000E+00
 -1      1656 1.48701E+02 3.89875E+01 0.00000E+00
 -1      1657 1.47402E+02 3.82500E+01 0.00000E+00
 -1      1658 1.48701E+02 4.34125E+01 0.00000E+00
 -1      1659 1.48701E+02 4.19375E+01 0.00000E+00
 -1      1660 1.47402E+02 4.12000E+01 0.00000E+00
 -1      1661 1.48263E+02 4.60692E+01 0.00000E+00
 -1      1662 1.48263E+02 4.45942E+01 0.00000E+00
 -1      1663 1.46964E+02 4.38568E+01 0.00000E+00
 -1      1664 1.46088E+02 4.62202E+01 0.00000E+00
 -1      1665 3.08872E+01 2.26047E+01 0.00000E+00
 -1      1666 3.09715E+01 2.33685E+01 0.00000E+00
 -1      1667 3.03228E+01 2.10231E+01 0.00000E+00
 -1      1668 3.05672E+01 2.17401E+01 0.00000E+00
 -1      1669 2.95628E+01 1.95804E+01 0.00000E+00
 -1      1670 2.99488E+01 2.02191E+01 0.00000E+00
 -1      1671 2.85588E+01 1.83741E+01 0.00000E+00
 -1      1672 2.90451E+01 1.88937E+01 0.00000E+00
 -1      1673 2.73213E+01 1.73991E+01 0.00000E+00
 -1      1674 2.79171E+01 1.78176E+01 0.00000E+00
 -1      1675 2.58777E+01 1.66874E+01 0.00000E+00
 -1      1676 2.65621E+01 1.69782E+01 0.00000E+00
 -1      1677 2.42673E+01 1.63308E+01 0.00000E+00
 -1      1678 2.50185E+01 1.64721E+01 0.00000E+00
 -1      1679 2.26255E+01 1.62862E+01 0.00000E+00
 -1      1680 2.33820E+01 1.62621E+01 0.00000E+00
 -1      1681 2.10092E+01 1.65543E+01 0.00000E+00
 -1      1682 2.17412E+01 1.63687E+01 0.00000E+00
 -1      1683 1.94860E+01 1.72118E+01 0.00000E+00
 -1      1684 2.01695E+01 1.68681E+01 0.00000E+00
 -1      1685 1.81782E+01 1.81453E+01 0.00000E+00
 -1      1686 1.87448E+01 1.76875E+01 0.00000E+00
 -1      1687 1.70244E+01 1.93727E+01 0.00000E+00
 -1      1688 1.75169E+01 1.87560E+01 0.00000E+00
 -1      1689 1.63062E+01 2.07858E+01 0.00000E+00
 -1      1690 1.66182E+01 2.01568E+01 0.00000E+00
 -1      1691 1.58252E+01 2.23068E+01 0.00000E+00
 -1      1692 1.60126E+01 2.15810E+01 0.00000E+00
 -1      1693 1.55879E+01 2.39456E+01 0.00000E+00
 -1      1694 1.56153E+01 2.31796E+01 0.00000E+00
 -1      1695 1.58615E+01 2.55377E+01 0.00000E+00
 -1      1696 1.57320E+01 2.48198E+01 0.00000E+00
 -1      1697 1.63574E+01 2.69982E+01 0.00000E+00
 -1      1698 1.60929E+01 2.63434E+01 0.00000E+00
 -1      1699 1.71348E+01 2.83192E+01 0.00000E+00
 -1      1700 1.67428E+01 2.77290E+01 0.00000E+00
 -1      1701 1.81780E+01 2.94700E+01 0.00000E+00
 -1      1702 1.76656E+01 2.89633E+01 0.00000E+00
 -1      1703 1.95437E+01 3.04407E+01 0.00000E+00
 -1      1704 1.88725E+01 3.00169E+01 0.00000E+00
 -1      1705 2.11349E+01 3.11920E+01 0.00000E+00
 -1      1706 2.03634E+01 3.09255E+01 0.00000E+00
 -1      1707 2.28002E+01 3.14392E+01 0.00000E+00
 -1      1708 2.20508E+01 3.13580E+01 0.00000E+00
 -1      1709 2.44533E+01 3.13122E+01 0.00000E+00
 -1      1710 2.36918E+01 3.13961E+01 0.00000E+00
 -1      1711 2.61665E+01 3.09078E+01 0.00000E+00
 -1      1712 2.53864E+01 3.11817E+01 0.00000E+00
 -1      1713 2.76125E+01 3.00237E+01 0.00000E+00
 -1      1714 2.69724E+01 3.04292E+01 0.00000E+00
 -1      1715 2.88828E+01 2.89546E+01 0.00000E+00
 -1      1716 2.83379E+01 2.94970E+01 0.00000E+00
 -1      1717 2.98309E+01 2.75741E+01 0.00000E+00
 -1      1718 2.94165E+01 2.82246E+01 0.00000E+00
 -1      1719 3.05789E+01 2.60272E+01 0.00000E+00
 -1      1720 3.03108E+01 2.67790E+01 0.00000E+00
 -1      1721 3.08847E+01 2.43100E+01 0.00000E+00
 -1      1722 3.07939E+01 2.51021E+01 0.00000E+00
 -1      1723 2.86335E+01 1.76345E+01 0.00000E+00
 -1      1724 2.97928E+01 1.88778E+01 0.00000E+00
 -1      1725 1.48437E+02 2.56875E+00 0.00000E+00
 -1      1726 1.47138E+02 3.30625E+00 0.00000E+00
 -1      1727 3.13784E+01 2.20371E+01 0.00000E+00
 -1      1728 3.06844E+01 2.03685E+01 0.00000E+00
 -1      1729 3.16116E+01 2.38431E+01 0.00000E+00
 -1      1730 2.72326E+01 1.66572E+01 0.00000E+00
 -1      1731 2.56141E+01 1.60210E+01 0.00000E+00
 -1      1732 2.38697E+01 1.57370E+01 0.00000E+00
 -1      1733 2.21002E+01 1.57507E+01 0.00000E+00
 -1      1734 2.03763E+01 1.61471E+01 0.00000E+00
 -1      1735 1.87954E+01 1.69366E+01 0.00000E+00
 -1      1736 1.73928E+01 1.80231E+01 0.00000E+00
 -1      1737 1.63253E+01 1.94179E+01 0.00000E+00
 -1      1738 1.56256E+01 2.09971E+01 0.00000E+00
 -1      1739 1.51220E+01 2.26652E+01 0.00000E+00
 -1      1740 1.50561E+01 2.44122E+01 0.00000E+00
 -1      1741 1.54316E+01 2.60921E+01 0.00000E+00
 -1      1742 1.60485E+01 2.76287E+01 0.00000E+00
 -1      1743 1.69647E+01 2.90036E+01 0.00000E+00
 -1      1744 1.81900E+01 3.01945E+01 0.00000E+00
 -1      1745 1.97042E+01 3.12262E+01 0.00000E+00
 -1      1746 2.14398E+01 3.18769E+01 0.00000E+00
 -1      1747 2.32473E+01 3.19998E+01 0.00000E+00
 -1      1748 2.50720E+01 3.18262E+01 0.00000E+00
 -1      1749 2.68109E+01 3.12172E+01 0.00000E+00
 -1      1750 2.83422E+01 3.02119E+01 0.00000E+00
 -1      1751 2.96013E+01 2.89551E+01 0.00000E+00
 -1      1752 3.06148E+01 2.74300E+01 0.00000E+00
 -1      1753 3.13098E+01 2.57097E+01 0.00000E+00
 -1      1754 2.87400E+00 4.77875E+01 0.00000E+00
 -1      1755 3.89700E+00 4.04125E+01 0.00000E+00
 -1      1756 3.89700E+00 4.18875E+01 0.00000E+00
 -1      1757 3.89700E+00 4.33625E+01 0.00000E+00
 -1      1758 3.89700E+00 4.48375E+01 0.00000E+00
 -1      1759 5.19600E+00 4.26250E+01 0.00000E+00
 -1      1760 3.89700E+00 3.45125E+01 0.00000E+00
 -1      1761 3.89700E+00 3.59875E+01 0.00000E+00
 -1      1762 3.89700E+00 3.15625E+01 0.00000E+00
 -1      1763 3.89700E+00 3.30375E+01 0.00000E+00
 -1      1764 5.19600E+00 3.37750E+01 0.00000E+00
 -1      1765 3.89700E+00 2.86625E+01 0.00000E+00
 -1      1766 3.89700E+00 3.01125E+01 0.00000E+00
 -1      1767 5.19600E+00 3.08500E+01 0.00000E+00
 -1      1768 3.89700E+00 2.57125E+01 0.00000E+00
 -1      1769 3.89700E+00 2.71875E+01 0.00000E+00
 -1      1770 5.19600E+00 2.79250E+01 0.00000E+00
 -1      1771 3.89700E+00 2.28125E+01 0.00000E+00
 -1      1772 3.89700E+00 2.42625E+01 0.00000E+00
 -1      1773 5.19600E+00 2.50000E+01 0.00000E+00
 -1      1774 3.89700E+00 1.98625E+01 0.00000E+00
 -1      1775 3.89700E+00 2.13375E+01 0.00000E+00
 -1      1776 5.19600E+00 2.20750E+01 0.00000E+00
 -1      1777 3.89700E+00 1.69125E+01 0.00000E+00
 -1      1778 3.89700E+00 1.83875E+01 0.00000E+00
 -1      1779 5.19600E+00 1.91250E+01 0.00000E+00
 -1      1780 3.89700E+00 1.39625E+01 0.00000E+00
 -1      1781 3.89700E+00 1.54375E+01 0.00000E+00
 -1      1782 5.19600E+00 1.61750E+01 0.00000E+00
 -1      1783 3.89700E+00 1.10125E+01 0.00000E+00
 -1      1784 3.89700E+00 1.24875E+01 0.00000E+00
 -1      1785 5.19600E+00 1.32250E+01 0.00000E+00
 -1      1786 3.89700E+00 8.06250E+00 0.00000E+00
 -1      1787 3.89700E+00 9.53750E+00 0.00000E+00
 -1      1788 5.19600E+00 1.02750E+01 0.00000E+00
 -1      1789 3.89700E+00 5.11250E+00 0.00000E+00
 -1      1790 3.89700E+00 6.58750E+00 0.00000E+00
 -1      1791 5.19600E+00 7.32500E+00 0.00000E+00
 -1      1792 4.20450E+00 3.10313E+00 0.00000E+00
 -1      1793 4.06650E+00 4.19688E+00 0.00000E+00
 -1      1794 5.36550E+00 4.93437E+00 0.00000E+00
 -1      1795 5.70450E+00 3.10313E+00 0.00000E+00
 -1      1796 3.62400E+00 4.64885E+01 0.00000E+00
 -1      1797 8.70450E+00 3.10313E+00 0.00000E+00
 -1      1798 7.20450E+00 3.10313E+00 0.00000E+00
 -1      1799 7.03500E+00 4.01875E+00 0.00000E+00
 -1      1800 4.92300E+00 4.57510E+01 0.00000E+00
 -1      1801 8.40000E+00 4.61030E+01 0.00000E+00
 -1      1802 9.90000E+00 4.61030E+01 0.00000E+00
 -1      1803 1.14000E+01 4.61030E+01 0.00000E+00
 -1      1804 1.29000E+01 4.61030E+01 0.00000E+00
 -1      1805 1.06500E+01 4.48040E+01 0.00000E+00
 -1      1806 1.44000E+01 4.61030E+01 0.00000E+00
 -1      1807 1.59000E+01 4.61030E+01 0.00000E+00
 -1      1808 1.36500E+01 4.48040E+01 0.00000E+00
 -1      1809 1.74000E+01 4.61030E+01 0.00000E+00
 -1      1810 1.89000E+01 4.61030E+01 0.00000E+00
 -1      1811 1.66500E+01 4.48040E+01 0.00000E+00
 -1      1812 2.04000E+01 4.61030E+01 0.00000E+00
 -1      1813 2.19000E+01 4.61030E+01 0.00000E+00
 -1      1814 1.96500E+01 4.48040E+01 0.00000E+00
 -1      1815 2.34000E+01 4.61030E+01 0.00000E+00
 -1      1816 2.49000E+01 4.61030E+01 0.00000E+00
 -1      1817 2.26500E+01 4.48040E+01 0.00000E+00
 -1      1818 2.64000E+01 4.61030E+01 0.00000E+00
 -1      1819 2.79000E+01 4.61030E+01 0.00000E+00
 -1      1820 2.56500E+01 4.48040E+01 0.00000E+00
 -1      1821 2.94000E+01 4.61030E+01 0.00000E+00
 -1      1822 3.09000E+01 4.61030E+01 0.00000E+00
 -1      1823 2.86500E+01 4.48040E+01 0.00000E+00
 -1      1824 3.24000E+01 4.61030E+01 0.00000E+00
 -1      1825 3.39000E+01 4.61030E+01 0.00000E+00
 -1      1826 3.16500E+01 4.48040E+01 0.00000E+00
 -1      1827 3.54000E+01 4.61030E+01 0.00000E+00
 -1      1828 3.69000E+01 4.61030E+01 0.00000E+00
 -1      1829 3.46500E+01 4.48040E+01 0.00000E+00
 -1      1830 3.84000E+01 4.61030E+01 0.00000E+00
 -1      1831 3.99000E+01 4.61030E+01 0.00000E+00
 -1      1832 3.76500E+01 4.48040E+01 0.00000E+00
 -1      1833 4.14000E+01 4.61030E+01 0.00000E+00
 -1      1834 4.29000E+01 4.61030E+01 0.00000E+00
 -1      1835 4.06500E+01 4.48040E+01 0.00000E+00
 -1      1836 4.44000E+01 4.61030E+01 0.00000E+00
 -1      1837 4.59000E+01 4.61030E+01 0.00000E+00
 -1      1838 4.36500E+01 4.48040E+01 0.00000E+00
 -1      1839 4.74000E+01 4.61030E+01 0.00000E+00
 -1      1840 4.89000E+01 4.61030E+01 0.00000E+00
 -1      1841 4.66500E+01 4.48040E+01 0.00000E+00
 -1      1842 5.04000E+01 4.61030E+01 0.00000E+00
 -1      1843 5.19000E+01 4.61030E+01 0.00000E+00
 -1      1844 4.96500E+01 4.48040E+01 0.00000E+00
 -1      1845 5.34000E+01 4.61030E+01 0.00000E+00
 -1      1846 5.49000E+01 4.61030E+01 0.00000E+00
 -1      1847 5.26500E+01 4.48040E+01 0.00000E+00
 -1      1848 5.64000E+01 4.61030E+01 0.00000E+00
 -1      1849 5.79000E+01 4.61030E+01 0.00000E+00
 -1      1850 5.56500E+01 4.48040E+01 0.00000E+00
 -1      1851 5.94000E+01 4.61030E+01 0.00000E+00
 -1      1852 6.09000E+01 4.61030E+01 0.00000E+00
 -1      1853 5.86500E+01 4.48040E+01 0.00000E+00
 -1      1854 6.24000E+01 4.61030E+01 0.00000E+00
 -1      1855 6.39000E+01 4.61030E+01 0.00000E+00
 -1      1856 6.16500E+01 4.48040E+01 0.00000E+00
 -1      1857 6.54000E+01 4.61030E+01 0.00000E+00
 -1      1858 6.69000E+01 4.61030E+01 0.00000E+00
 -1      1859 6.46500E+01 4.48040E+01 0.00000E+00
 -1      1860 6.84000E+01 4.61030E+01 0.00000E+00
 -1      1861 6.99000E+01 4.61030E+01 0.00000E+00
 -1      1862 6.76500E+01 4.48040E+01 0.00000E+00
 -1      1863 7.14000E+01 4.61030E+01 0.00000E+00
 -1      1864 7.29000E+01 4.61030E+01 0.00000E+00
 -1      1865 7.06500E+01 4.48040E+01 0.00000E+00
 -1      1866 7.44000E+01 4.61030E+01 0.00000E+00
 -1      1867 7.59000E+01 4.61030E+01 0.00000E+00
 -1      1868 7.36500E+01 4.48040E+01 0.00000E+00
 -1      1869 7.74000E+01 4.61030E+01 0.00000E+00
 -1      1870 7.89000E+01 4.61030E+01 0.00000E+00
 -1      1871 7.66500E+01 4.48040E+01 0.00000E+00
 -1      1872 8.04000E+01 4.61030E+01 0.00000E+00
 -1      1873 8.19000E+01 4.61030E+01 0.00000E+00
 -1      1874 7.96500E+01 4.48040E+01 0.00000E+00
 -1      1875 8.34000E+01 4.61030E+01 0.00000E+00
 -1      1876 8.49000E+01 4.61030E+01 0.00000E+00
 -1      1877 8.26500E+01 4.48040E+01 0.00000E+00
 -1      1878 8.64000E+01 4.61030E+01 0.00000E+00
 -1      1879 8.79000E+01 4.61030E+01 0.00000E+00
 -1      1880 8.56500E+01 4.48040E+01 0.00000E+00
 -1      1881 8.94000E+01 4.61030E+01 0.00000E+00
 -1      1882 9.09000E+01 4.61030E+01 0.00000E+00
 -1      1883 8.86500E+01 4.48040E+01 0.00000E+00
 -1      1884 9.24000E+01 4.61030E+01 0.00000E+00
 -1      1885 9.39000E+01 4.61030E+01 0.00000E+00
 -1      1886 9.16500E+01 4.48040E+01 0.00000E+00
 -1      1887 9.54000E+01 4.61030E+01 0.00000E+00
 -1      1888 9.69000E+01 4.61030E+01 0.00000E+00
 -1      1889 9.46500E+01 4.48040E+01 0.00000E+00
 -1      1890 9.84000E+01 4.61030E+01 0.00000E+00
 -1      1891 9.99000E+01 4.61030E+01 0.00000E+00
 -1      1892 9.76500E+01 4.48040E+01 0.00000E+00
 -1      1893 1.01400E+02 4.61030E+01 0.00000E+00
 -1      1894 1.02900E+02 4.61030E+01 0.00000E+00
 -1      1895 1.00650E+02 4.48040E+01 0.00000E+00
 -1      1896 1.04400E+02 4.61030E+01 0.00000E+00
 -1      1897 1.05900E+02 4.61030E+01 0.00000E+00
 -1      1898 1.03650E+02 4.48040E+01 0.00000E+00
 -1      1899 1.07400E+02 4.61030E+01 0.00000E+00
 -1      1900 1.08900E+02 4.61030E+01 0.00000E+00
 -1      1901 1.06650E+02 4.48040E+01 0.00000E+00
 -1      1902 1.10400E+02 4.61030E+01 0.00000E+00
 -1      1903 1.11900E+02 4.61030E+01 0.00000E+00
 -1      1904 1.09650E+02 4.48040E+01 0.00000E+00
 -1      1905 1.13400E+02 4.61030E+01 0.00000E+00
 -1      1906 1.14900E+02 4.61030E+01 0.00000E+00
 -1      1907 1.12650E+02 4.48040E+01 0.00000E+00
 -1      1908 1.16400E+02 4.61030E+01 0.00000E+00
 -1      1909 1.17900E+02 4.61030E+01 0.00000E+00
 -1      1910 1.15650E+02 4.48040E+01 0.00000E+00
 -1      1911 1.19400E+02 4.61030E+01 0.00000E+00
 -1      1912 1.20900E+02 4.61030E+01 0.00000E+00
 -1      1913 1.18650E+02 4.48040E+01 0.00000E+00
 -1      1914 1.22400E+02 4.61030E+01 0.00000E+00
 -1      1915 1.23900E+02 4.61030E+01 0.00000E+00
 -1      1916 1.21650E+02 4.48040E+01 0.00000E+00
 -1      1917 1.25400E+02 4.61030E+01 0.00000E+00
 -1      1918 1.26900E+02 4.61030E+01 0.00000E+00
 -1      1919 1.24650E+02 4.48040E+01 0.00000E+00
 -1      1920 1.28400E+02 4.61030E+01 0.00000E+00
 -1      1921 1.29900E+02 4.61030E+01 0.00000E+00
 -1      1922 1.27650E+02 4.48040E+01 0.00000E+00
 -1      1923 1.31400E+02 4.61030E+01 0.00000E+00
 -1      1924 1.32900E+02 4.61030E+01 0.00000E+00
 -1      1925 1.30650E+02 4.48040E+01 0.00000E+00
 -1      1926 1.34400E+02 4.61030E+01 0.00000E+00
 -1      1927 1.35900E+02 4.61030E+01 0.00000E+00
 -1      1928 1.33650E+02 4.48040E+01 0.00000E+00
 -1      1929 1.37400E+02 4.61030E+01 0.00000E+00
 -1      1930 1.38900E+02 4.61030E+01 0.00000E+00
 -1      1931 1.36650E+02 4.48040E+01 0.00000E+00
 -1      1932 1.40400E+02 4.61030E+01 0.00000E+00
 -1      1933 1.41900E+02 4.61030E+01 0.00000E+00
 -1      1934 1.39650E+02 4.48040E+01 0.00000E+00
 -1      1935 1.43244E+02 4.61616E+01 0.00000E+00
 -1      1936 1.44744E+02 4.61616E+01 0.00000E+00
 -1      1937 1.45182E+02 4.49799E+01 0.00000E+00
 -1      1938 1.42494E+02 4.48626E+01 0.00000E+00
 -1      1939 1.17045E+01 3.10313E+00 0.00000E+00
 -1      1940 1.02045E+01 3.10313E+00 0.00000E+00
 -1      1941 1.00350E+01 4.01875E+00 0.00000E+00
 -1      1942 1.47045E+01 3.10313E+00 0.00000E+00
 -1      1943 1.32045E+01 3.10313E+00 0.00000E+00
 -1      1944 1.30350E+01 4.01875E+00 0.00000E+00
 -1      1945 1.77045E+01 3.10313E+00 0.00000E+00
 -1      1946 1.62045E+01 3.10313E+00 0.00000E+00
 -1      1947 1.60350E+01 4.01875E+00 0.00000E+00
 -1      1948 2.07045E+01 3.10313E+00 0.00000E+00
 -1      1949 1.92045E+01 3.10313E+00 0.00000E+00
 -1      1950 1.90350E+01 4.01875E+00 0.00000E+00
 -1      1951 2.37045E+01 3.10313E+00 0.00000E+00
 -1      1952 2.22045E+01 3.10313E+00 0.00000E+00
 -1      1953 2.20350E+01 4.01875E+00 0.00000E+00
 -1      1954 2.67045E+01 3.10313E+00 0.00000E+00
 -1      1955 2.52045E+01 3.10313E+00 0.00000E+00
 -1      1956 2.50350E+01 4.01875E+00 0.00000E+00
 -1      1957 2.97045E+01 3.10313E+00 0.00000E+00
 -1      1958 2.82045E+01 3.10313E+00 0.00000E+00
 -1      1959 2.80350E+01 4.01875E+00 0.00000E+00
 -1      1960 3.27045E+01 3.10313E+00 0.00000E+00
 -1      1961 3.12045E+01 3.10313E+00 0.00000E+00
 -1      1962 3.10350E+01 4.01875E+00 0.00000E+00
 -1      1963 3.57045E+01 3.10313E+00 0.00000E+00
 -1      1964 3.42045E+01 3.10313E+00 0.00000E+00
 -1      1965 3.40350E+01 4.01875E+00 0.00000E+00
 -1      1966 3.87045E+01 3.10313E+00 0.00000E+00
 -1      1967 3.72045E+01 3.10313E+00 0.00000E+00
 -1      1968 3.70350E+01 4.01875E+00 0.00000E+00
 -1      1969 4.17045E+01 3.10313E+00 0.00000E+00
 -1      1970 4.02045E+01 3.10313E+00 0.00000E+00
 -1      1971 4.00350E+01 4.01875E+00 0.00000E+00
 -1      1972 4.47045E+01 3.10313E+00 0.00000E+00
 -1      1973 4.32045E+01 3.10313E+00 0.00000E+00
 -1      1974 4.30350E+01 4.01875E+00 0.00000E+00
 -1      1975 4.77045E+01 3.10313E+00 0.00000E+00
 -1      1976 4.62045E+01 3.10313E+00 0.00000E+00
 -1      1977 4.60350E+01 4.01875E+00 0.00000E+00
 -1      1978 5.07045E+01 3.10313E+00 0.00000E+00
 -1      1979 4.92045E+01 3.10313E+00 0.00000E+00
 -1      1980 4.90350E+01 4.01875E+00 0.00000E+00
 -1      1981 5.37045E+01 3.10313E+00 0.00000E+00
 -1      1982 5.22045E+01 3.10313E+00 0.00000E+00
 -1      1983 5.20350E+01 4.01875E+00 0.00000E+00
 -1      1984 5.67045E+01 3.10313E+00 0.00000E+00
 -1      1985 5.52045E+01 3.10313E+00 0.00000E+00
 -1      1986 5.50350E+01 4.01875E+00 0.00000E+00
 -1      1987 5.97045E+01 3.10313E+00 0.00000E+00
 -1      1988 5.82045E+01 3.10313E+00 0.00000E+00
 -1      1989 5.80350E+01 4.01875E+00 0.00000E+00
 -1      1990 6.27045E+01 3.10313E+00 0.00000E+00
 -1      1991 6.12045E+01 3.10313E+00 0.00000E+00
 -1      1992 6.10350E+01 4.01875E+00 0.00000E+00
 -1      1993 6.57045E+01 3.10313E+00 0.00000E+00
 -1      1994 6.42045E+01 3.10313E+00 0.00000E+00
 -1      1995 6.40350E+01 4.01875E+00 0.00000E+00
 -1      1996 6.87045E+01 3.10313E+00 0.00000E+00
 -1      1997 6.72045E+01 3.10313E+00 0.00000E+00
 -1      1998 6.70350E+01 4.01875E+00 0.00000E+00
 -1      1999 7.17045E+01 3.10313E+00 0.00000E+00
 -1      2000 7.02045E+01 3.10313E+00 0.00000E+00
 -1      2001 7.00350E+01 4.01875E+00 0.00000E+00
 -1      2002 7.47045E+01 3.10313E+00 0.00000E+00
 -1      2003 7.32045E+01 3.10313E+00 0.00000E+00
 -1      2004 7.30350E+01 4.01875E+00 0.00000E+00
 -1      2005 7.77045E+01 3.10313E+00 0.00000E+00
 -1      2006 7.62045E+01 3.10313E+00 0.00000E+00
 -1      2007 7.60350E+01 4.01875E+00 0.00000E+00
 -1      2008 8.07045E+01 3.10313E+00 0.00000E+00
 -1      2009 7.92045E+01 3.10313E+00 0.00000E+00
 -1      2010 7.90350E+01 4.01875E+00 0.00000E+00
 -1      2011 8.37045E+01 3.10313E+00 0.00000E+00
 -1      2012 8.22045E+01 3.10313E+00 0.00000E+00
 -1      2013 8.20350E+01 4.01875E+00 0.00000E+00
 -1      2014 8.67045E+01 3.10313E+00 0.00000E+00
 -1      2015 8.52045E+01 3.10313E+00 0.00000E+00
 -1      2016 8.50350E+01 4.01875E+00 0.00000E+00
 -1      2017 8.97045E+01 3.10313E+00 0.00000E+00
 -1      2018 8.82045E+01 3.10313E+00 0.00000E+00
 -1      2019 8.80350E+01 4.01875E+00 0.00000E+00
 -1      2020 9.27045E+01 3.10313E+00 0.00000E+00
 -1      2021 9.12045E+01 3.10313E+00 0.00000E+00
 -1      2022 9.10350E+01 4.01875E+00 0.00000E+00
 -1      2023 9.57045E+01 3.10313E+00 0.00000E+00
 -1      2024 9.42045E+01 3.10313E+00 0.00000E+00
 -1      2025 9.40350E+01 4.01875E+00 0.00000E+00
 -1      2026 9.87045E+01 3.10313E+00 0.00000E+00
 -1      2027 9.72045E+01 3.10313E+00 0.00000E+00
 -1      2028 9.70350E+01 4.01875E+00 0.00000E+00
 -1      2029 1.01704E+02 3.10313E+00 0.00000E+00
 -1      2030 1.00204E+02 3.10313E+00 0.00000E+00
 -1      2031 1.00035E+02 4.01875E+00 0.00000E+00
 -1      2032 1.04704E+02 3.10313E+00 0.00000E+00
 -1      2033 1.03204E+02 3.10313E+00 0.00000E+00
 -1      2034 1.03035E+02 4.01875E+00 0.00000E+00
 -1      2035 1.07704E+02 3.10313E+00 0.00000E+00
 -1      2036 1.06204E+02 3.10313E+00 0.00000E+00
 -1      2037 1.06035E+02 4.01875E+00 0.00000E+00
 -1      2038 1.10704E+02 3.10313E+00 0.00000E+00
 -1      2039 1.09204E+02 3.10313E+00 0.00000E+00
 -1      2040 1.09035E+02 4.01875E+00 0.00000E+00
 -1      2041 1.13704E+02 3.10313E+00 0.00000E+00
 -1      2042 1.12204E+02 3.10313E+00 0.00000E+00
 -1      2043 1.12035E+02 4.01875E+00 0.00000E+00
 -1      2044 1.16704E+02 3.10313E+00 0.00000E+00
 -1      2045 1.15204E+02 3.10313E+00 0.00000E+00
 -1      2046 1.15035E+02 4.01875E+00 0.00000E+00
 -1      2047 1.19704E+02 3.10313E+00 0.00000E+00
 -1      2048 1.18204E+02 3.10313E+00 0.00000E+00
 -1      2049 1.18035E+02 4.01875E+00 0.00000E+00
 -1      2050 1.22704E+02 3.10313E+00 0.00000E+00
 -1      2051 1.21204E+02 3.10313E+00 0.00000E+00
 -1      2052 1.21035E+02 4.01875E+00 0.00000E+00
 -1      2053 1.25704E+02 3.10313E+00 0.00000E+00
 -1      2054 1.24204E+02 3.10313E+00 0.00000E+00
 -1      2055 1.24035E+02 4.01875E+00 0.00000E+00
 -1      2056 1.28704E+02 3.10313E+00 0.00000E+00
 -1      2057 1.27204E+02 3.10313E+00 0.00000E+00
 -1      2058 1.27035E+02 4.01875E+00 0.00000E+00
 -1      2059 1.31704E+02 3.10313E+00 0.00000E+00
 -1      2060 1.30204E+02 3.10313E+00 0.00000E+00
 -1      2061 1.30035E+02 4.01875E+00 0.00000E+00
 -1      2062 1.34704E+02 3.10313E+00 0.00000E+00
 -1      2063 1.33204E+02 3.10313E+00 0.00000E+00
 -1      2064 1.33035E+02 4.01875E+00 0.00000E+00
 -1      2065 1.37704E+02 3.10313E+00 0.00000E+00
 -1      2066 1.36204E+02 3.10313E+00 0.00000E+00
 -1      2067 1.36035E+02 4.01875E+00 0.00000E+00
 -1      2068 1.40704E+02 3.10313E+00 0.00000E+00
 -1      2069 1.39204E+02 3.10313E+00 0.00000E+00
 -1      2070 1.39035E+02 4.01875E+00 0.00000E+00
 -1      2071 1.43704E+02 3.10313E+00 0.00000E+00
 -1      2072 1.42204E+02 3.10313E+00 0.00000E+00
 -1      2073 1.42035E+02 4.01875E+00 0.00000E+00
 -1      2074 1.46171E+02 3.20469E+00 0.00000E+00
 -1      2075 1.44671E+02 3.20469E+00 0.00000E+00
 -1      2076 1.44502E+02 4.12031E+00 0.00000E+00
 -1      2077 1.46435E+02 4.32344E+00 0.00000E+00
 -1      2078 1.46103E+02 1.25375E+01 0.00000E+00
 -1      2079 1.46103E+02 1.10625E+01 0.00000E+00
 -1      2080 1.46103E+02 9.58750E+00 0.00000E+00
 -1      2081 1.46103E+02 8.11250E+00 0.00000E+00
 -1      2082 1.44804E+02 1.03250E+01 0.00000E+00
 -1      2083 1.46269E+02 6.95547E+00 0.00000E+00
 -1      2084 1.46269E+02 5.48047E+00 0.00000E+00
 -1      2085 1.45302E+02 5.37891E+00 0.00000E+00
 -1      2086 1.44970E+02 7.69297E+00 0.00000E+00
 -1      2087 1.46103E+02 1.54375E+01 0.00000E+00
 -1      2088 1.46103E+02 1.39875E+01 0.00000E+00
 -1      2089 1.44804E+02 1.32500E+01 0.00000E+00
 -1      2090 1.46103E+02 1.83875E+01 0.00000E+00
 -1      2091 1.46103E+02 1.69125E+01 0.00000E+00
 -1      2092 1.44804E+02 1.61750E+01 0.00000E+00
 -1      2093 1.46103E+02 2.13375E+01 0.00000E+00
 -1      2094 1.46103E+02 1.98625E+01 0.00000E+00
 -1      2095 1.44804E+02 1.91250E+01 0.00000E+00
 -1      2096 1.46103E+02 2.42875E+01 0.00000E+00
 -1      2097 1.46103E+02 2.28125E+01 0.00000E+00
 -1      2098 1.44804E+02 2.20750E+01 0.00000E+00
 -1      2099 1.46103E+02 2.72375E+01 0.00000E+00
 -1      2100 1.46103E+02 2.57625E+01 0.00000E+00
 -1      2101 1.44804E+02 2.50250E+01 0.00000E+00
 -1      2102 1.46103E+02 3.01875E+01 0.00000E+00
 -1      2103 1.46103E+02 2.87125E+01 0.00000E+00
 -1      2104 1.44804E+02 2.79750E+01 0.00000E+00
 -1      2105 1.46103E+02 3.30875E+01 0.00000E+00
 -1      2106 1.46103E+02 3.16375E+01 0.00000E+00
 -1      2107 1.44804E+02 3.09000E+01 0.00000E+00
 -1      2108 1.46103E+02 3.60375E+01 0.00000E+00
 -1      2109 1.46103E+02 3.45625E+01 0.00000E+00
 -1      2110 1.44804E+02 3.38250E+01 0.00000E+00
 -1      2111 1.46103E+02 3.89875E+01 0.00000E+00
 -1      2112 1.46103E+02 3.75125E+01 0.00000E+00
 -1      2113 1.44804E+02 3.67750E+01 0.00000E+00
 -1      2114 1.46103E+02 4.19375E+01 0.00000E+00
 -1      2115 1.46103E+02 4.04625E+01 0.00000E+00
 -1      2116 1.44804E+02 3.97250E+01 0.00000E+00
 -1      2117 3.12370E+01 1.96225E+01 0.00000E+00
 -1      2118 3.16110E+01 2.04265E+01 0.00000E+00
 -1      2119 3.24255E+01 2.34434E+01 0.00000E+00
 -1      2120 3.23387E+01 2.43849E+01 0.00000E+00
 -1      2121 3.19310E+01 2.12911E+01 0.00000E+00
 -1      2122 3.22510E+01 2.21556E+01 0.00000E+00
 -1      2123 3.24836E+01 2.05451E+01 0.00000E+00
 -1      2124 3.00850E+01 1.81191E+01 0.00000E+00
 -1      2125 3.06026E+01 1.88058E+01 0.00000E+00
 -1      2126 2.87647E+01 1.68350E+01 0.00000E+00
 -1      2127 2.94064E+01 1.73915E+01 0.00000E+00
 -1      2128 3.89700E+00 3.74625E+01 0.00000E+00
 -1      2129 3.89700E+00 3.89375E+01 0.00000E+00
 -1      2130 5.19600E+00 3.96750E+01 0.00000E+00
 -1      2131 5.19600E+00 3.67250E+01 0.00000E+00
 -1      2132 2.53624E+01 1.52034E+01 0.00000E+00
 -1      2133 2.62216E+01 1.54187E+01 0.00000E+00
 -1      2134 2.34902E+01 1.48894E+01 0.00000E+00
 -1      2135 2.43755E+01 1.49581E+01 0.00000E+00
 -1      2136 2.15862E+01 1.50216E+01 0.00000E+00
 -1      2137 2.24704E+01 1.49390E+01 0.00000E+00
 -1      2138 1.96855E+01 1.55792E+01 0.00000E+00
 -1      2139 2.05252E+01 1.52654E+01 0.00000E+00
 -1      2140 1.80069E+01 1.65233E+01 0.00000E+00
 -1      2141 1.87481E+01 1.60476E+01 0.00000E+00
 -1      2142 1.65940E+01 1.78215E+01 0.00000E+00
 -1      2143 1.72554E+01 1.72108E+01 0.00000E+00
 -1      2144 1.54352E+01 1.94540E+01 0.00000E+00
 -1      2145 1.58414E+01 1.86699E+01 0.00000E+00
 -1      2146 1.48315E+01 2.11558E+01 0.00000E+00
 -1      2147 1.51251E+01 2.03606E+01 0.00000E+00
 -1      2148 1.42647E+01 2.29206E+01 0.00000E+00
 -1      2149 1.44747E+01 2.20478E+01 0.00000E+00
 -1      2150 1.44887E+01 2.49546E+01 0.00000E+00
 -1      2151 1.43446E+01 2.40805E+01 0.00000E+00
 -1      2152 1.48842E+01 2.66855E+01 0.00000E+00
 -1      2153 1.46527E+01 2.58797E+01 0.00000E+00
 -1      2154 1.56679E+01 2.82964E+01 0.00000E+00
 -1      2155 1.52825E+01 2.75655E+01 0.00000E+00
 -1      2156 1.66977E+01 2.97644E+01 0.00000E+00
 -1      2157 1.61668E+01 2.91204E+01 0.00000E+00
 -1      2158 1.80585E+01 3.10759E+01 0.00000E+00
 -1      2159 1.73640E+01 3.05290E+01 0.00000E+00
 -1      2160 1.97201E+01 3.21346E+01 0.00000E+00
 -1      2161 1.89004E+01 3.16498E+01 0.00000E+00
 -1      2162 2.17448E+01 3.28037E+01 0.00000E+00
 -1      2163 2.08289E+01 3.26377E+01 0.00000E+00
 -1      2164 2.37345E+01 3.28348E+01 0.00000E+00
 -1      2165 2.28429E+01 3.28779E+01 0.00000E+00
 -1      2166 2.56007E+01 3.25739E+01 0.00000E+00
 -1      2167 2.46676E+01 3.27043E+01 0.00000E+00
 -1      2168 2.42633E+01 3.35825E+01 0.00000E+00
 -1      2169 2.75448E+01 3.15351E+01 0.00000E+00
 -1      2170 2.67389E+01 3.20137E+01 0.00000E+00
 -1      2171 2.91842E+01 3.06085E+01 0.00000E+00
 -1      2172 2.84588E+01 3.11352E+01 0.00000E+00
 -1      2173 3.04928E+01 2.90467E+01 0.00000E+00
 -1      2174 2.99591E+01 2.97768E+01 0.00000E+00
 -1      2175 3.14525E+01 2.74565E+01 0.00000E+00
 -1      2176 3.09727E+01 2.82516E+01 0.00000E+00
 -1      2177 3.13305E+01 2.90733E+01 0.00000E+00
 -1      2178 3.20894E+01 2.54034E+01 0.00000E+00
 -1      2179 3.18743E+01 2.63285E+01 0.00000E+00
 -1      2180 2.71672E+01 1.58799E+01 0.00000E+00
 -1      2181 2.79264E+01 1.63008E+01 0.00000E+00
 -1      2182 2.86993E+01 1.60578E+01 0.00000E+00
 -1      2183 6.42300E+00 4.57510E+01 0.00000E+00
 -1      2184 2.69155E+01 1.50623E+01 0.00000E+00
 -1      2185 7.17300E+00 4.44520E+01 0.00000E+00
 -1      2186 3.29781E+01 2.26974E+01 0.00000E+00
 -1      2187 3.37052E+01 2.32392E+01 0.00000E+00
 -1      2188 3.35307E+01 2.19514E+01 0.00000E+00
 -1      2189 3.15292E+01 1.88638E+01 0.00000E+00
 -1      2190 1.45665E+02 4.31193E+01 0.00000E+00
 -1      2191 3.29033E+01 2.50037E+01 0.00000E+00
 -1      2192 3.02162E+01 1.73196E+01 0.00000E+00
 -1      2193 3.22321E+01 2.71502E+01 0.00000E+00
 -1      2194 3.00757E+01 3.07001E+01 0.00000E+00
 -1      2195 2.63346E+01 3.28918E+01 0.00000E+00
 -1      2196 2.59302E+01 3.37699E+01 0.00000E+00
 -1      2197 2.70684E+01 3.32098E+01 0.00000E+00
 -1      2198 2.22320E+01 3.36387E+01 0.00000E+00
 -1      2199 2.00252E+01 3.30614E+01 0.00000E+00
 -1      2200 1.80745E+01 3.19843E+01 0.00000E+00
 -1      2201 1.65662E+01 3.06458E+01 0.00000E+00
 -1      2202 1.54008E+01 2.90573E+01 0.00000E+00
 -1      2203 1.45036E+01 2.73532E+01 0.00000E+00
 -1      2204 1.39412E+01 2.55480E+01 0.00000E+00
 -1      2205 1.36973E+01 2.34631E+01 0.00000E+00
 -1      2206 1.39742E+01 2.14112E+01 0.00000E+00
 -1      2207 1.46411E+01 1.96126E+01 0.00000E+00
 -1      2208 1.57039E+01 1.78577E+01 0.00000E+00
 -1      2209 1.72081E+01 1.63217E+01 0.00000E+00
 -1      2210 1.88970E+01 1.51658E+01 0.00000E+00
 -1      2211 2.08954E+01 1.44537E+01 0.00000E+00
 -1      2212 2.49830E+01 1.43558E+01 0.00000E+00
 -1      2213 2.29762E+01 1.41602E+01 0.00000E+00
 -1      2214 2.83868E+01 3.19318E+01 0.00000E+00
 -1      2215 1.07850E+01 5.31775E+00 0.00000E+00
 -1      2216 9.28500E+00 5.31775E+00 0.00000E+00
 -1      2217 6.49500E+00 3.01250E+01 0.00000E+00
 -1      2218 6.49500E+00 3.15750E+01 0.00000E+00
 -1      2219 6.49500E+00 3.30500E+01 0.00000E+00
 -1      2220 6.49500E+00 3.45250E+01 0.00000E+00
 -1      2221 7.79400E+00 3.23250E+01 0.00000E+00
 -1      2222 6.22112E+00 2.42750E+01 0.00000E+00
 -1      2223 6.22112E+00 2.57250E+01 0.00000E+00
 -1      2224 6.22112E+00 2.13250E+01 0.00000E+00
 -1      2225 6.22112E+00 2.28000E+01 0.00000E+00
 -1      2226 7.24625E+00 2.35250E+01 0.00000E+00
 -1      2227 6.30491E+00 1.83875E+01 0.00000E+00
 -1      2228 6.30491E+00 1.98625E+01 0.00000E+00
 -1      2229 6.30491E+00 1.54375E+01 0.00000E+00
 -1      2230 6.30491E+00 1.69125E+01 0.00000E+00
 -1      2231 7.41381E+00 1.76500E+01 0.00000E+00
 -1      2232 6.30491E+00 1.24875E+01 0.00000E+00
 -1      2233 6.30491E+00 1.39625E+01 0.00000E+00
 -1      2234 7.41381E+00 1.47000E+01 0.00000E+00
 -1      2235 6.30491E+00 9.53750E+00 0.00000E+00
 -1      2236 6.30491E+00 1.10125E+01 0.00000E+00
 -1      2237 7.41381E+00 1.17500E+01 0.00000E+00
 -1      2238 1.37850E+01 5.31775E+00 0.00000E+00
 -1      2239 1.22850E+01 5.31775E+00 0.00000E+00
 -1      2240 1.15350E+01 6.61675E+00 0.00000E+00
 -1      2241 9.90000E+00 4.35050E+01 0.00000E+00
 -1      2242 1.14000E+01 4.35050E+01 0.00000E+00
 -1      2243 2.68186E+01 1.40610E+01 0.00000E+00
 -1      2244 2.77642E+01 1.45222E+01 0.00000E+00
 -1      2245 1.29000E+01 4.35050E+01 0.00000E+00
 -1      2246 1.44000E+01 4.35050E+01 0.00000E+00
 -1      2247 1.21500E+01 4.22060E+01 0.00000E+00
 -1      2248 1.59000E+01 4.35050E+01 0.00000E+00
 -1      2249 1.74000E+01 4.35050E+01 0.00000E+00
 -1      2250 1.51500E+01 4.22060E+01 0.00000E+00
 -1      2251 1.89000E+01 4.35050E+01 0.00000E+00
 -1      2252 2.04000E+01 4.35050E+01 0.00000E+00
 -1      2253 1.81500E+01 4.22060E+01 0.00000E+00
 -1      2254 2.19000E+01 4.35050E+01 0.00000E+00
 -1      2255 2.34000E+01 4.35050E+01 0.00000E+00
 -1      2256 2.11500E+01 4.22060E+01 0.00000E+00
 -1      2257 2.49000E+01 4.35050E+01 0.00000E+00
 -1      2258 2.64000E+01 4.35050E+01 0.00000E+00
 -1      2259 2.41500E+01 4.22060E+01 0.00000E+00
 -1      2260 2.79000E+01 4.35050E+01 0.00000E+00
 -1      2261 2.94000E+01 4.35050E+01 0.00000E+00
 -1      2262 2.71500E+01 4.22060E+01 0.00000E+00
 -1      2263 3.09000E+01 4.35050E+01 0.00000E+00
 -1      2264 3.24000E+01 4.35050E+01 0.00000E+00
 -1      2265 3.01500E+01 4.22060E+01 0.00000E+00
 -1      2266 3.39000E+01 4.35050E+01 0.00000E+00
 -1      2267 3.54000E+01 4.35050E+01 0.00000E+00
 -1      2268 3.31500E+01 4.22060E+01 0.00000E+00
 -1      2269 3.69000E+01 4.35050E+01 0.00000E+00
 -1      2270 3.84000E+01 4.35050E+01 0.00000E+00
 -1      2271 3.61500E+01 4.22060E+01 0.00000E+00
 -1      2272 3.99000E+01 4.35050E+01 0.00000E+00
 -1      2273 4.14000E+01 4.35050E+01 0.00000E+00
 -1      2274 3.91500E+01 4.22060E+01 0.00000E+00
 -1      2275 4.29000E+01 4.35050E+01 0.00000E+00
 -1      2276 4.44000E+01 4.35050E+01 0.00000E+00
 -1      2277 4.21500E+01 4.22060E+01 0.00000E+00
 -1      2278 4.59000E+01 4.35050E+01 0.00000E+00
 -1      2279 4.74000E+01 4.35050E+01 0.00000E+00
 -1      2280 4.51500E+01 4.22060E+01 0.00000E+00
 -1      2281 4.89000E+01 4.35050E+01 0.00000E+00
 -1      2282 5.04000E+01 4.35050E+01 0.00000E+00
 -1      2283 4.81500E+01 4.22060E+01 0.00000E+00
 -1      2284 5.19000E+01 4.35050E+01 0.00000E+00
 -1      2285 5.34000E+01 4.35050E+01 0.00000E+00
 -1      2286 5.11500E+01 4.22060E+01 0.00000E+00
 -1      2287 5.49000E+01 4.35050E+01 0.00000E+00
 -1      2288 5.64000E+01 4.35050E+01 0.00000E+00
 -1      2289 5.41500E+01 4.22060E+01 0.00000E+00
 -1      2290 5.79000E+01 4.35050E+01 0.00000E+00
 -1      2291 5.94000E+01 4.35050E+01 0.00000E+00
 -1      2292 5.71500E+01 4.22060E+01 0.00000E+00
 -1      2293 6.09000E+01 4.35050E+01 0.00000E+00
 -1      2294 6.24000E+01 4.35050E+01 0.00000E+00
 -1      2295 6.01500E+01 4.22060E+01 0.00000E+00
 -1      2296 6.39000E+01 4.35050E+01 0.00000E+00
 -1      2297 6.54000E+01 4.35050E+01 0.00000E+00
 -1      2298 6.31500E+01 4.22060E+01 0.00000E+00
 -1      2299 6.69000E+01 4.35050E+01 0.00000E+00
 -1      2300 6.84000E+01 4.35050E+01 0.00000E+00
 -1      2301 6.61500E+01 4.22060E+01 0.00000E+00
 -1      2302 6.99000E+01 4.35050E+01 0.00000E+00
 -1      2303 7.14000E+01 4.35050E+01 0.00000E+00
 -1      2304 6.91500E+01 4.22060E+01 0.00000E+00
 -1      2305 7.29000E+01 4.35050E+01 0.00000E+00
 -1      2306 7.44000E+01 4.35050E+01 0.00000E+00
 -1      2307 7.21500E+01 4.22060E+01 0.00000E+00
 -1      2308 7.59000E+01 4.35050E+01 0.00000E+00
 -1      2309 7.74000E+01 4.35050E+01 0.00000E+00
 -1      2310 7.51500E+01 4.22060E+01 0.00000E+00
 -1      2311 7.89000E+01 4.35050E+01 0.00000E+00
 -1      2312 8.04000E+01 4.35050E+01 0.00000E+00
 -1      2313 7.81500E+01 4.22060E+01 0.00000E+00
 -1      2314 8.19000E+01 4.35050E+01 0.00000E+00
 -1      2315 8.34000E+01 4.35050E+01 0.00000E+00
 -1      2316 8.11500E+01 4.22060E+01 0.00000E+00
 -1      2317 8.49000E+01 4.35050E+01 0.00000E+00
 -1      2318 8.64000E+01 4.35050E+01 0.00000E+00
 -1      2319 8.41500E+01 4.22060E+01 0.00000E+00
 -1      2320 8.79000E+01 4.35050E+01 0.00000E+00
 -1      2321 8.94000E+01 4.35050E+01 0.00000E+00
 -1      2322 8.71500E+01 4.22060E+01 0.00000E+00
 -1      2323 9.09000E+01 4.35050E+01 0.00000E+00
 -1      2324 9.24000E+01 4.35050E+01 0.00000E+00
 -1      2325 9.01500E+01 4.22060E+01 0.00000E+00
 -1      2326 9.39000E+01 4.35050E+01 0.00000E+00
 -1      2327 9.54000E+01 4.35050E+01 0.00000E+00
 -1      2328 9.31500E+01 4.22060E+01 0.00000E+00
 -1      2329 9.69000E+01 4.35050E+01 0.00000E+00
 -1      2330 9.84000E+01 4.35050E+01 0.00000E+00
 -1      2331 9.61500E+01 4.22060E+01 0.00000E+00
 -1      2332 9.99000E+01 4.35050E+01 0.00000E+00
 -1      2333 1.01400E+02 4.35050E+01 0.00000E+00
 -1      2334 9.91500E+01 4.22060E+01 0.00000E+00
 -1      2335 1.02900E+02 4.35050E+01 0.00000E+00
 -1      2336 1.04400E+02 4.35050E+01 0.00000E+00
 -1      2337 1.02150E+02 4.22060E+01 0.00000E+00
 -1      2338 1.05900E+02 4.35050E+01 0.00000E+00
 -1      2339 1.07400E+02 4.35050E+01 0.00000E+00
 -1      2340 1.05150E+02 4.22060E+01 0.00000E+00
 -1      2341 1.08900E+02 4.35050E+01 0.00000E+00
 -1      2342 1.10400E+02 4.35050E+01 0.00000E+00
 -1      2343 1.08150E+02 4.22060E+01 0.00000E+00
 -1      2344 1.11900E+02 4.35050E+01 0.00000E+00
 -1      2345 1.13400E+02 4.35050E+01 0.00000E+00
 -1      2346 1.11150E+02 4.22060E+01 0.00000E+00
 -1      2347 1.14900E+02 4.35050E+01 0.00000E+00
 -1      2348 1.16400E+02 4.35050E+01 0.00000E+00
 -1      2349 1.14150E+02 4.22060E+01 0.00000E+00
 -1      2350 1.17900E+02 4.35050E+01 0.00000E+00
 -1      2351 1.19400E+02 4.35050E+01 0.00000E+00
 -1      2352 1.17150E+02 4.22060E+01 0.00000E+00
 -1      2353 1.20900E+02 4.35050E+01 0.00000E+00
 -1      2354 1.22400E+02 4.35050E+01 0.00000E+00
 -1      2355 1.20150E+02 4.22060E+01 0.00000E+00
 -1      2356 1.23900E+02 4.35050E+01 0.00000E+00
 -1      2357 1.25400E+02 4.35050E+01 0.00000E+00
 -1      2358 1.23150E+02 4.22060E+01 0.00000E+00
 -1      2359 1.26900E+02 4.35050E+01 0.00000E+00
 -1      2360 1.28400E+02 4.35050E+01 0.00000E+00
 -1      2361 1.26150E+02 4.22060E+01 0.00000E+00
 -1      2362 1.29900E+02 4.35050E+01 0.00000E+00
 -1      2363 1.31400E+02 4.35050E+01 0.00000E+00
 -1      2364 1.29150E+02 4.22060E+01 0.00000E+00
 -1      2365 1.32900E+02 4.35050E+01 0.00000E+00
 -1      2366 1.34400E+02 4.35050E+01 0.00000E+00
 -1      2367 1.32150E+02 4.22060E+01 0.00000E+00
 -1      2368 1.35900E+02 4.35050E+01 0.00000E+00
 -1      2369 1.37400E+02 4.35050E+01 0.00000E+00
 -1      2370 1.35150E+02 4.22060E+01 0.00000E+00
 -1      2371 1.38900E+02 4.35050E+01 0.00000E+00
 -1      2372 1.40400E+02 4.35050E+01 0.00000E+00
 -1      2373 1.38150E+02 4.22060E+01 0.00000E+00
 -1      2374 3.32064E+01 1.97860E+01 0.00000E+00
 -1      2375 3.35264E+01 2.06506E+01 0.00000E+00
 -1      2376 1.97850E+01 5.31775E+00 0.00000E+00
 -1      2377 1.82850E+01 5.31775E+00 0.00000E+00
 -1      2378 2.27850E+01 5.31775E+00 0.00000E+00
 -1      2379 2.12850E+01 5.31775E+00 0.00000E+00
 -1      2380 2.05350E+01 6.61675E+00 0.00000E+00
 -1      2381 2.57850E+01 5.31775E+00 0.00000E+00
 -1      2382 2.42850E+01 5.31775E+00 0.00000E+00
 -1      2383 2.35350E+01 6.61675E+00 0.00000E+00
 -1      2384 2.87850E+01 5.31775E+00 0.00000E+00
 -1      2385 2.72850E+01 5.31775E+00 0.00000E+00
 -1      2386 2.65350E+01 6.61675E+00 0.00000E+00
 -1      2387 3.17850E+01 5.31775E+00 0.00000E+00
 -1      2388 3.02850E+01 5.31775E+00 0.00000E+00
 -1      2389 2.95350E+01 6.61675E+00 0.00000E+00
 -1      2390 3.47850E+01 5.31775E+00 0.00000E+00
 -1      2391 3.32850E+01 5.31775E+00 0.00000E+00
 -1      2392 3.25350E+01 6.61675E+00 0.00000E+00
 -1      2393 3.77850E+01 5.31775E+00 0.00000E+00
 -1      2394 3.62850E+01 5.31775E+00 0.00000E+00
 -1      2395 3.55350E+01 6.61675E+00 0.00000E+00
 -1      2396 4.07850E+01 5.31775E+00 0.00000E+00
 -1      2397 3.92850E+01 5.31775E+00 0.00000E+00
 -1      2398 3.85350E+01 6.61675E+00 0.00000E+00
 -1      2399 4.37850E+01 5.31775E+00 0.00000E+00
 -1      2400 4.22850E+01 5.31775E+00 0.00000E+00
 -1      2401 4.15350E+01 6.61675E+00 0.00000E+00
 -1      2402 4.67850E+01 5.31775E+00 0.00000E+00
 -1      2403 4.52850E+01 5.31775E+00 0.00000E+00
 -1      2404 4.45350E+01 6.61675E+00 0.00000E+00
 -1      2405 4.97850E+01 5.31775E+00 0.00000E+00
 -1      2406 4.82850E+01 5.31775E+00 0.00000E+00
 -1      2407 4.75350E+01 6.61675E+00 0.00000E+00
 -1      2408 5.27850E+01 5.31775E+00 0.00000E+00
 -1      2409 5.12850E+01 5.31775E+00 0.00000E+00
 -1      2410 5.05350E+01 6.61675E+00 0.00000E+00
 -1      2411 5.57850E+01 5.31775E+00 0.00000E+00
 -1      2412 5.42850E+01 5.31775E+00 0.00000E+00
 -1      2413 5.35350E+01 6.61675E+00 0.00000E+00
 -1      2414 5.87850E+01 5.31775E+00 0.00000E+00
 -1      2415 5.72850E+01 5.31775E+00 0.00000E+00
 -1      2416 5.65350E+01 6.61675E+00 0.00000E+00
 -1      2417 6.17850E+01 5.31775E+00 0.00000E+00
 -1      2418 6.02850E+01 5.31775E+00 0.00000E+00
 -1      2419 5.95350E+01 6.61675E+00 0.00000E+00
 -1      2420 6.47850E+01 5.31775E+00 0.00000E+00
 -1      2421 6.32850E+01 5.31775E+00 0.00000E+00
 -1      2422 6.25350E+01 6.61675E+00 0.00000E+00
 -1      2423 6.77850E+01 5.31775E+00 0.00000E+00
 -1      2424 6.62850E+01 5.31775E+00 0.00000E+00
 -1      2425 6.55350E+01 6.61675E+00 0.00000E+00
 -1      2426 7.07850E+01 5.31775E+00 0.00000E+00
 -1      2427 6.92850E+01 5.31775E+00 0.00000E+00
 -1      2428 6.85350E+01 6.61675E+00 0.00000E+00
 -1      2429 7.37850E+01 5.31775E+00 0.00000E+00
 -1      2430 7.22850E+01 5.31775E+00 0.00000E+00
 -1      2431 7.15350E+01 6.61675E+00 0.00000E+00
 -1      2432 7.67850E+01 5.31775E+00 0.00000E+00
 -1      2433 7.52850E+01 5.31775E+00 0.00000E+00
 -1      2434 7.45350E+01 6.61675E+00 0.00000E+00
 -1      2435 7.97850E+01 5.31775E+00 0.00000E+00
 -1      2436 7.82850E+01 5.31775E+00 0.00000E+00
 -1      2437 7.75350E+01 6.61675E+00 0.00000E+00
 -1      2438 8.27850E+01 5.31775E+00 0.00000E+00
 -1      2439 8.12850E+01 5.31775E+00 0.00000E+00
 -1      2440 8.05350E+01 6.61675E+00 0.00000E+00
 -1      2441 8.57850E+01 5.31775E+00 0.00000E+00
 -1      2442 8.42850E+01 5.31775E+00 0.00000E+00
 -1      2443 8.35350E+01 6.61675E+00 0.00000E+00
 -1      2444 8.87850E+01 5.31775E+00 0.00000E+00
 -1      2445 8.72850E+01 5.31775E+00 0.00000E+00
 -1      2446 8.65350E+01 6.61675E+00 0.00000E+00
 -1      2447 9.17850E+01 5.31775E+00 0.00000E+00
 -1      2448 9.02850E+01 5.31775E+00 0.00000E+00
 -1      2449 8.95350E+01 6.61675E+00 0.00000E+00
 -1      2450 9.47850E+01 5.31775E+00 0.00000E+00
 -1      2451 9.32850E+01 5.31775E+00 0.00000E+00
 -1      2452 9.25350E+01 6.61675E+00 0.00000E+00
 -1      2453 9.77850E+01 5.31775E+00 0.00000E+00
 -1      2454 9.62850E+01 5.31775E+00 0.00000E+00
 -1      2455 9.55350E+01 6.61675E+00 0.00000E+00
 -1      2456 1.00785E+02 5.31775E+00 0.00000E+00
 -1      2457 9.92850E+01 5.31775E+00 0.00000E+00
 -1      2458 9.85350E+01 6.61675E+00 0.00000E+00
 -1      2459 1.03785E+02 5.31775E+00 0.00000E+00
 -1      2460 1.02285E+02 5.31775E+00 0.00000E+00
 -1      2461 1.01535E+02 6.61675E+00 0.00000E+00
 -1      2462 1.06785E+02 5.31775E+00 0.00000E+00
 -1      2463 1.05285E+02 5.31775E+00 0.00000E+00
 -1      2464 1.04535E+02 6.61675E+00 0.00000E+00
 -1      2465 1.09785E+02 5.31775E+00 0.00000E+00
 -1      2466 1.08285E+02 5.31775E+00 0.00000E+00
 -1      2467 1.07535E+02 6.61675E+00 0.00000E+00
 -1      2468 1.12785E+02 5.31775E+00 0.00000E+00
 -1      2469 1.11285E+02 5.31775E+00 0.00000E+00
 -1      2470 1.10535E+02 6.61675E+00 0.00000E+00
 -1      2471 1.15785E+02 5.31775E+00 0.00000E+00
 -1      2472 1.14285E+02 5.31775E+00 0.00000E+00
 -1      2473 1.13535E+02 6.61675E+00 0.00000E+00
 -1      2474 1.18785E+02 5.31775E+00 0.00000E+00
 -1      2475 1.17285E+02 5.31775E+00 0.00000E+00
 -1      2476 1.16535E+02 6.61675E+00 0.00000E+00
 -1      2477 1.21785E+02 5.31775E+00 0.00000E+00
 -1      2478 1.20285E+02 5.31775E+00 0.00000E+00
 -1      2479 1.19535E+02 6.61675E+00 0.00000E+00
 -1      2480 1.24785E+02 5.31775E+00 0.00000E+00
 -1      2481 1.23285E+02 5.31775E+00 0.00000E+00
 -1      2482 1.22535E+02 6.61675E+00 0.00000E+00
 -1      2483 1.27785E+02 5.31775E+00 0.00000E+00
 -1      2484 1.26285E+02 5.31775E+00 0.00000E+00
 -1      2485 1.25535E+02 6.61675E+00 0.00000E+00
 -1      2486 1.30785E+02 5.31775E+00 0.00000E+00
 -1      2487 1.29285E+02 5.31775E+00 0.00000E+00
 -1      2488 1.28535E+02 6.61675E+00 0.00000E+00
 -1      2489 1.33785E+02 5.31775E+00 0.00000E+00
 -1      2490 1.32285E+02 5.31775E+00 0.00000E+00
 -1      2491 1.31535E+02 6.61675E+00 0.00000E+00
 -1      2492 1.36785E+02 5.31775E+00 0.00000E+00
 -1      2493 1.35285E+02 5.31775E+00 0.00000E+00
 -1      2494 1.34535E+02 6.61675E+00 0.00000E+00
 -1      2495 1.39785E+02 5.31775E+00 0.00000E+00
 -1      2496 1.38285E+02 5.31775E+00 0.00000E+00
 -1      2497 1.37535E+02 6.61675E+00 0.00000E+00
 -1      2498 1.42785E+02 5.31775E+00 0.00000E+00
 -1      2499 1.41285E+02 5.31775E+00 0.00000E+00
 -1      2500 1.40535E+02 6.61675E+00 0.00000E+00
 -1      2501 1.44336E+02 5.27734E+00 0.00000E+00
 -1      2502 1.43505E+02 1.69125E+01 0.00000E+00
 -1      2503 1.43505E+02 1.54375E+01 0.00000E+00
 -1      2504 1.43505E+02 1.98625E+01 0.00000E+00
 -1      2505 1.43505E+02 1.83875E+01 0.00000E+00
 -1      2506 1.42206E+02 1.76500E+01 0.00000E+00
 -1      2507 1.43505E+02 1.10625E+01 0.00000E+00
 -1      2508 1.43505E+02 9.58750E+00 0.00000E+00
 -1      2509 1.43505E+02 1.39750E+01 0.00000E+00
 -1      2510 1.43505E+02 1.25250E+01 0.00000E+00
 -1      2511 1.42206E+02 1.17875E+01 0.00000E+00
 -1      2512 1.42206E+02 1.47125E+01 0.00000E+00
 -1      2513 1.43505E+02 2.28125E+01 0.00000E+00
 -1      2514 1.43505E+02 2.13375E+01 0.00000E+00
 -1      2515 1.42206E+02 2.06000E+01 0.00000E+00
 -1      2516 1.43505E+02 2.57625E+01 0.00000E+00
 -1      2517 1.43505E+02 2.42875E+01 0.00000E+00
 -1      2518 1.42206E+02 2.35500E+01 0.00000E+00
 -1      2519 1.43505E+02 2.87125E+01 0.00000E+00
 -1      2520 1.43505E+02 2.72375E+01 0.00000E+00
 -1      2521 1.42206E+02 2.65000E+01 0.00000E+00
 -1      2522 1.43505E+02 3.16125E+01 0.00000E+00
 -1      2523 1.43505E+02 3.01625E+01 0.00000E+00
 -1      2524 1.42206E+02 2.94250E+01 0.00000E+00
 -1      2525 1.43505E+02 3.45625E+01 0.00000E+00
 -1      2526 1.43505E+02 3.30875E+01 0.00000E+00
 -1      2527 1.42206E+02 3.23500E+01 0.00000E+00
 -1      2528 1.43505E+02 3.75125E+01 0.00000E+00
 -1      2529 1.43505E+02 3.60375E+01 0.00000E+00
 -1      2530 1.42206E+02 3.53000E+01 0.00000E+00
 -1      2531 1.43505E+02 4.04625E+01 0.00000E+00
 -1      2532 1.43505E+02 3.89875E+01 0.00000E+00
 -1      2533 1.42206E+02 3.82500E+01 0.00000E+00
 -1      2534 1.44321E+02 4.30606E+01 0.00000E+00
 -1      2535 3.37795E+01 2.46785E+01 0.00000E+00
 -1      2536 3.35302E+01 2.56970E+01 0.00000E+00
 -1      2537 1.67850E+01 5.31775E+00 0.00000E+00
 -1      2538 1.52850E+01 5.31775E+00 0.00000E+00
 -1      2539 1.75350E+01 6.61675E+00 0.00000E+00
 -1      2540 3.18892E+01 1.79294E+01 0.00000E+00
 -1      2541 3.25236E+01 1.87461E+01 0.00000E+00
 -1      2542 3.31678E+01 2.68572E+01 0.00000E+00
 -1      2543 3.27460E+01 2.79852E+01 0.00000E+00
 -1      2544 6.55950E+00 4.28890E+01 0.00000E+00
 -1      2545 8.53650E+00 4.32410E+01 0.00000E+00
 -1      2546 9.28650E+00 4.19420E+01 0.00000E+00
 -1      2547 6.55950E+00 4.14140E+01 0.00000E+00
 -1      2548 3.10906E+01 3.08688E+01 0.00000E+00
 -1      2549 3.03156E+01 3.17006E+01 0.00000E+00
 -1      2550 2.27176E+01 3.46150E+01 0.00000E+00
 -1      2551 2.16195E+01 3.45408E+01 0.00000E+00
 -1      2552 6.49500E+00 2.71750E+01 0.00000E+00
 -1      2553 6.49500E+00 2.86500E+01 0.00000E+00
 -1      2554 7.79400E+00 2.93750E+01 0.00000E+00
 -1      2555 2.24246E+01 1.33285E+01 0.00000E+00
 -1      2556 2.34444E+01 1.32788E+01 0.00000E+00
 -1      2557 2.91539E+01 3.24407E+01 0.00000E+00
 -1      2558 2.82399E+01 3.28406E+01 0.00000E+00
 -1      2559 2.46963E+01 1.34010E+01 0.00000E+00
 -1      2560 2.56833E+01 1.36463E+01 0.00000E+00
 -1      2561 2.01823E+01 1.37806E+01 0.00000E+00
 -1      2562 2.12432E+01 1.35368E+01 0.00000E+00
 -1      2563 1.80637E+01 1.46704E+01 0.00000E+00
 -1      2564 1.90012E+01 1.42020E+01 0.00000E+00
 -1      2565 1.62535E+01 1.60328E+01 0.00000E+00
 -1      2566 1.70049E+01 1.53453E+01 0.00000E+00
 -1      2567 1.47481E+01 1.77296E+01 0.00000E+00
 -1      2568 1.55008E+01 1.68812E+01 0.00000E+00
 -1      2569 1.52977E+01 1.59047E+01 0.00000E+00
 -1      2570 1.37540E+01 1.98155E+01 0.00000E+00
 -1      2571 1.40641E+01 1.89089E+01 0.00000E+00
 -1      2572 1.30403E+01 2.15995E+01 0.00000E+00
 -1      2573 1.33971E+01 2.07075E+01 0.00000E+00
 -1      2574 1.28201E+01 2.00038E+01 0.00000E+00
 -1      2575 1.28817E+01 2.41019E+01 0.00000E+00
 -1      2576 1.28018E+01 2.29421E+01 0.00000E+00
 -1      2577 1.33026E+01 2.61384E+01 0.00000E+00
 -1      2578 1.31386E+01 2.52133E+01 0.00000E+00
 -1      2579 1.39215E+01 2.81468E+01 0.00000E+00
 -1      2580 1.35232E+01 2.72667E+01 0.00000E+00
 -1      2581 1.49194E+01 2.97948E+01 0.00000E+00
 -1      2582 1.44204E+01 2.89708E+01 0.00000E+00
 -1      2583 1.34400E+01 2.88844E+01 0.00000E+00
 -1      2584 1.62529E+01 3.15915E+01 0.00000E+00
 -1      2585 1.55865E+01 3.08270E+01 0.00000E+00
 -1      2586 1.80124E+01 3.29798E+01 0.00000E+00
 -1      2587 1.71705E+01 3.24059E+01 0.00000E+00
 -1      2588 2.01559E+01 3.42464E+01 0.00000E+00
 -1      2589 1.90472E+01 3.37433E+01 0.00000E+00
 -1      2590 2.48485E+01 3.43665E+01 0.00000E+00
 -1      2591 2.39154E+01 3.44970E+01 0.00000E+00
 -1      2592 3.22687E+01 2.90972E+01 0.00000E+00
 -1      2593 3.17889E+01 2.98923E+01 0.00000E+00
 -1      2594 3.05321E+01 1.64743E+01 0.00000E+00
 -1      2595 3.12106E+01 1.72018E+01 0.00000E+00
 -1      2596 3.22051E+01 1.70841E+01 0.00000E+00
 -1      2597 8.07525E+00 5.12606E+00 0.00000E+00
 -1      2598 6.57525E+00 5.12606E+00 0.00000E+00
 -1      2599 6.40575E+00 6.04169E+00 0.00000E+00
 -1      2600 8.82525E+00 6.42506E+00 0.00000E+00
 -1      2601 2.87860E+01 1.49968E+01 0.00000E+00
 -1      2602 2.96244E+01 1.55311E+01 0.00000E+00
 -1      2603 7.52012E+00 2.64500E+01 0.00000E+00
 -1      2604 7.79400E+00 3.52750E+01 0.00000E+00
 -1      2605 6.49500E+00 3.60000E+01 0.00000E+00
 -1      2606 6.49500E+00 3.74750E+01 0.00000E+00
 -1      2607 7.33003E+00 2.05875E+01 0.00000E+00
 -1      2608 1.45350E+01 6.61675E+00 0.00000E+00
 -1      2609 6.40575E+00 7.51669E+00 0.00000E+00
 -1      2610 2.86892E+01 1.39955E+01 0.00000E+00
 -1      2611 3.06188E+01 1.54133E+01 0.00000E+00
 -1      2612 3.32044E+01 2.88042E+01 0.00000E+00
 -1      2613 3.20288E+01 3.08928E+01 0.00000E+00
 -1      2614 2.55824E+01 3.46845E+01 0.00000E+00
 -1      2615 3.42535E+01 2.11924E+01 0.00000E+00
 -1      2616 3.40440E+01 2.65320E+01 0.00000E+00
 -1      2617 3.35664E+01 1.88516E+01 0.00000E+00
 -1      2618 1.43586E+02 6.57634E+00 0.00000E+00
 -1      2619 1.43419E+02 7.73338E+00 0.00000E+00
 -1      2620 2.06415E+01 3.52227E+01 0.00000E+00
 -1      2621 1.42758E+02 4.35929E+01 0.00000E+00
 -1      2622 1.43241E+02 4.17323E+01 0.00000E+00
 -1      2623 1.41942E+02 4.09948E+01 0.00000E+00
 -1      2624 1.41414E+02 4.35342E+01 0.00000E+00
 -1      2625 1.81432E+01 3.41649E+01 0.00000E+00
 -1      2626 1.46061E+01 3.07405E+01 0.00000E+00
 -1      2627 3.43321E+01 2.39325E+01 0.00000E+00
 -1      2628 3.49590E+01 2.46257E+01 0.00000E+00
 -1      2629 3.48847E+01 2.31864E+01 0.00000E+00
 -1      2630 7.51466E+00 8.25419E+00 0.00000E+00
 -1      2631 1.27205E+01 2.69320E+01 0.00000E+00
 -1      2632 2.33029E+01 3.53991E+01 0.00000E+00
 -1      2633 1.22247E+01 2.22384E+01 0.00000E+00
 -1      2634 2.78356E+01 3.37187E+01 0.00000E+00
 -1      2635 1.38609E+01 1.79324E+01 0.00000E+00
 -1      2636 1.36578E+01 1.69559E+01 0.00000E+00
 -1      2637 1.29738E+01 1.81353E+01 0.00000E+00
 -1      2638 1.71091E+01 1.43814E+01 0.00000E+00
 -1      2639 1.93490E+01 1.32852E+01 0.00000E+00
 -1      2640 2.41447E+01 1.25693E+01 0.00000E+00
 -1      2641 3.01688E+01 3.26094E+01 0.00000E+00
 -1      2642 6.55950E+00 3.99390E+01 0.00000E+00
 -1      2643 2.65320E+01 1.31061E+01 0.00000E+00
 -1      2644 2.17114E+01 1.26555E+01 0.00000E+00
 -1      2645 1.22431E+01 2.46923E+01 0.00000E+00
 -1      2646 1.61908E+01 3.25871E+01 0.00000E+00
 -1      2647 1.42120E+02 8.47087E+00 0.00000E+00
 -1      2648 1.40664E+02 4.22352E+01 0.00000E+00
 -1      2649 8.43894E+00 2.27875E+01 0.00000E+00
 -1      2650 8.43894E+00 2.42625E+01 0.00000E+00
 -1      2651 8.71281E+00 1.39625E+01 0.00000E+00
 -1      2652 8.71281E+00 1.54375E+01 0.00000E+00
 -1      2653 8.71281E+00 1.69125E+01 0.00000E+00
 -1      2654 8.71281E+00 1.83875E+01 0.00000E+00
 -1      2655 1.00118E+01 1.61750E+01 0.00000E+00
 -1      2656 1.22850E+01 7.91575E+00 0.00000E+00
 -1      2657 1.07850E+01 7.91575E+00 0.00000E+00
 -1      2658 1.19069E+01 2.76767E+01 0.00000E+00
 -1      2659 1.16864E+01 2.65484E+01 0.00000E+00
 -1      2660 8.61777E+00 1.98563E+01 0.00000E+00
 -1      2661 8.53399E+00 2.13188E+01 0.00000E+00
 -1      2662 9.72668E+00 2.20562E+01 0.00000E+00
 -1      2663 9.91677E+00 1.91187E+01 0.00000E+00
 -1      2664 3.09036E+01 1.42309E+01 0.00000E+00
 -1      2665 3.18113E+01 1.51741E+01 0.00000E+00
 -1      2666 1.44000E+01 4.09070E+01 0.00000E+00
 -1      2667 1.59000E+01 4.09070E+01 0.00000E+00
 -1      2668 1.74000E+01 4.09070E+01 0.00000E+00
 -1      2669 1.89000E+01 4.09070E+01 0.00000E+00
 -1      2670 1.66500E+01 3.96080E+01 0.00000E+00
 -1      2671 2.04000E+01 4.09070E+01 0.00000E+00
 -1      2672 2.19000E+01 4.09070E+01 0.00000E+00
 -1      2673 1.96500E+01 3.96080E+01 0.00000E+00
 -1      2674 2.34000E+01 4.09070E+01 0.00000E+00
 -1      2675 2.49000E+01 4.09070E+01 0.00000E+00
 -1      2676 2.26500E+01 3.96080E+01 0.00000E+00
 -1      2677 2.64000E+01 4.09070E+01 0.00000E+00
 -1      2678 2.79000E+01 4.09070E+01 0.00000E+00
 -1      2679 2.56500E+01 3.96080E+01 0.00000E+00
 -1      2680 2.94000E+01 4.09070E+01 0.00000E+00
 -1      2681 3.09000E+01 4.09070E+01 0.00000E+00
 -1      2682 2.86500E+01 3.96080E+01 0.00000E+00
 -1      2683 3.24000E+01 4.09070E+01 0.00000E+00
 -1      2684 3.39000E+01 4.09070E+01 0.00000E+00
 -1      2685 3.16500E+01 3.96080E+01 0.00000E+00
 -1      2686 3.54000E+01 4.09070E+01 0.00000E+00
 -1      2687 3.69000E+01 4.09070E+01 0.00000E+00
 -1      2688 3.46500E+01 3.96080E+01 0.00000E+00
 -1      2689 3.84000E+01 4.09070E+01 0.00000E+00
 -1      2690 3.99000E+01 4.09070E+01 0.00000E+00
 -1      2691 3.76500E+01 3.96080E+01 0.00000E+00
 -1      2692 4.14000E+01 4.09070E+01 0.00000E+00
 -1      2693 4.29000E+01 4.09070E+01 0.00000E+00
 -1      2694 4.06500E+01 3.96080E+01 0.00000E+00
 -1      2695 4.44000E+01 4.09070E+01 0.00000E+00
 -1      2696 4.59000E+01 4.09070E+01 0.00000E+00
 -1      2697 4.36500E+01 3.96080E+01 0.00000E+00
 -1      2698 4.74000E+01 4.09070E+01 0.00000E+00
 -1      2699 4.89000E+01 4.09070E+01 0.00000E+00
 -1      2700 4.66500E+01 3.96080E+01 0.00000E+00
 -1      2701 5.04000E+01 4.09070E+01 0.00000E+00
 -1      2702 5.19000E+01 4.09070E+01 0.00000E+00
 -1      2703 4.96500E+01 3.96080E+01 0.00000E+00
 -1      2704 5.34000E+01 4.09070E+01 0.00000E+00
 -1      2705 5.49000E+01 4.09070E+01 0.00000E+00
 -1      2706 5.26500E+01 3.96080E+01 0.00000E+00
 -1      2707 5.64000E+01 4.09070E+01 0.00000E+00
 -1      2708 5.79000E+01 4.09070E+01 0.00000E+00
 -1      2709 5.56500E+01 3.96080E+01 0.00000E+00
 -1      2710 5.94000E+01 4.09070E+01 0.00000E+00
 -1      2711 6.09000E+01 4.09070E+01 0.00000E+00
 -1      2712 5.86500E+01 3.96080E+01 0.00000E+00
 -1      2713 6.24000E+01 4.09070E+01 0.00000E+00
 -1      2714 6.39000E+01 4.09070E+01 0.00000E+00
 -1      2715 6.16500E+01 3.96080E+01 0.00000E+00
 -1      2716 6.54000E+01 4.09070E+01 0.00000E+00
 -1      2717 6.69000E+01 4.09070E+01 0.00000E+00
 -1      2718 6.46500E+01 3.96080E+01 0.00000E+00
 -1      2719 6.84000E+01 4.09070E+01 0.00000E+00
 -1      2720 6.99000E+01 4.09070E+01 0.00000E+00
 -1      2721 6.76500E+01 3.96080E+01 0.00000E+00
 -1      2722 7.14000E+01 4.09070E+01 0.00000E+00
 -1      2723 7.29000E+01 4.09070E+01 0.00000E+00
 -1      2724 7.06500E+01 3.96080E+01 0.00000E+00
 -1      2725 7.44000E+01 4.09070E+01 0.00000E+00
 -1      2726 7.59000E+01 4.09070E+01 0.00000E+00
 -1      2727 7.36500E+01 3.96080E+01 0.00000E+00
 -1      2728 7.74000E+01 4.09070E+01 0.00000E+00
 -1      2729 7.89000E+01 4.09070E+01 0.00000E+00
 -1      2730 7.66500E+01 3.96080E+01 0.00000E+00
 -1      2731 8.04000E+01 4.09070E+01 0.00000E+00
 -1      2732 8.19000E+01 4.09070E+01 0.00000E+00
 -1      2733 7.96500E+01 3.96080E+01 0.00000E+00
 -1      2734 8.34000E+01 4.09070E+01 0.00000E+00
 -1      2735 8.49000E+01 4.09070E+01 0.00000E+00
 -1      2736 8.26500E+01 3.96080E+01 0.00000E+00
 -1      2737 8.64000E+01 4.09070E+01 0.00000E+00
 -1      2738 8.79000E+01 4.09070E+01 0.00000E+00
 -1      2739 8.56500E+01 3.96080E+01 0.00000E+00
 -1      2740 8.94000E+01 4.09070E+01 0.00000E+00
 -1      2741 9.09000E+01 4.09070E+01 0.00000E+00
 -1      2742 8.86500E+01 3.96080E+01 0.00000E+00
 -1      2743 9.24000E+01 4.09070E+01 0.00000E+00
 -1      2744 9.39000E+01 4.09070E+01 0.00000E+00
 -1      2745 9.16500E+01 3.96080E+01 0.00000E+00
 -1      2746 9.54000E+01 4.09070E+01 0.00000E+00
 -1      2747 9.69000E+01 4.09070E+01 0.00000E+00
 -1      2748 9.46500E+01 3.96080E+01 0.00000E+00
 -1      2749 9.84000E+01 4.09070E+01 0.00000E+00
 -1      2750 9.99000E+01 4.09070E+01 0.00000E+00
 -1      2751 9.76500E+01 3.96080E+01 0.00000E+00
 -1      2752 1.01400E+02 4.09070E+01 0.00000E+00
 -1      2753 1.02900E+02 4.09070E+01 0.00000E+00
 -1      2754 1.00650E+02 3.96080E+01 0.00000E+00
 -1      2755 1.04400E+02 4.09070E+01 0.00000E+00
 -1      2756 1.05900E+02 4.09070E+01 0.00000E+00
 -1      2757 1.03650E+02 3.96080E+01 0.00000E+00
 -1      2758 1.07400E+02 4.09070E+01 0.00000E+00
 -1      2759 1.08900E+02 4.09070E+01 0.00000E+00
 -1      2760 1.06650E+02 3.96080E+01 0.00000E+00
 -1      2761 1.10400E+02 4.09070E+01 0.00000E+00
 -1      2762 1.11900E+02 4.09070E+01 0.00000E+00
 -1      2763 1.09650E+02 3.96080E+01 0.00000E+00
 -1      2764 1.13400E+02 4.09070E+01 0.00000E+00
 -1      2765 1.14900E+02 4.09070E+01 0.00000E+00
 -1      2766 1.12650E+02 3.96080E+01 0.00000E+00
 -1      2767 1.16400E+02 4.09070E+01 0.00000E+00
 -1      2768 1.17900E+02 4.09070E+01 0.00000E+00
 -1      2769 1.15650E+02 3.96080E+01 0.00000E+00
 -1      2770 1.19400E+02 4.09070E+01 0.00000E+00
 -1      2771 1.20900E+02 4.09070E+01 0.00000E+00
 -1      2772 1.18650E+02 3.96080E+01 0.00000E+00
 -1      2773 1.22400E+02 4.09070E+01 0.00000E+00
 -1      2774 1.23900E+02 4.09070E+01 0.00000E+00
 -1      2775 1.21650E+02 3.96080E+01 0.00000E+00
 -1      2776 1.25400E+02 4.09070E+01 0.00000E+00
 -1      2777 1.26900E+02 4.09070E+01 0.00000E+00
 -1      2778 1.24650E+02 3.96080E+01 0.00000E+00
 -1      2779 1.28400E+02 4.09070E+01 0.00000E+00
 -1      2780 1.29900E+02 4.09070E+01 0.00000E+00
 -1      2781 1.27650E+02 3.96080E+01 0.00000E+00
 -1      2782 1.31400E+02 4.09070E+01 0.00000E+00
 -1      2783 1.32900E+02 4.09070E+01 0.00000E+00
 -1      2784 1.30650E+02 3.96080E+01 0.00000E+00
 -1      2785 1.34400E+02 4.09070E+01 0.00000E+00
 -1      2786 1.35900E+02 4.09070E+01 0.00000E+00
 -1      2787 1.33650E+02 3.96080E+01 0.00000E+00
 -1      2788 1.37400E+02 4.09070E+01 0.00000E+00
 -1      2789 1.38900E+02 4.09070E+01 0.00000E+00
 -1      2790 1.36650E+02 3.96080E+01 0.00000E+00
 -1      2791 1.81016E+01 3.53041E+01 0.00000E+00
 -1      2792 1.70669E+01 3.45406E+01 0.00000E+00
 -1      2793 2.11712E+01 3.63749E+01 0.00000E+00
 -1      2794 1.97076E+01 3.60806E+01 0.00000E+00
 -1      2795 2.12850E+01 7.89323E+00 0.00000E+00
 -1      2796 1.97850E+01 7.89323E+00 0.00000E+00
 -1      2797 3.02850E+01 7.91575E+00 0.00000E+00
 -1      2798 2.87850E+01 7.91575E+00 0.00000E+00
 -1      2799 3.32850E+01 7.91575E+00 0.00000E+00
 -1      2800 3.17850E+01 7.91575E+00 0.00000E+00
 -1      2801 3.10350E+01 9.21475E+00 0.00000E+00
 -1      2802 3.62850E+01 7.91575E+00 0.00000E+00
 -1      2803 3.47850E+01 7.91575E+00 0.00000E+00
 -1      2804 3.40350E+01 9.21475E+00 0.00000E+00
 -1      2805 3.92850E+01 7.91575E+00 0.00000E+00
 -1      2806 3.77850E+01 7.91575E+00 0.00000E+00
 -1      2807 3.70350E+01 9.21475E+00 0.00000E+00
 -1      2808 4.22850E+01 7.91575E+00 0.00000E+00
 -1      2809 4.07850E+01 7.91575E+00 0.00000E+00
 -1      2810 4.00350E+01 9.21475E+00 0.00000E+00
 -1      2811 4.52850E+01 7.91575E+00 0.00000E+00
 -1      2812 4.37850E+01 7.91575E+00 0.00000E+00
 -1      2813 4.30350E+01 9.21475E+00 0.00000E+00
 -1      2814 4.82850E+01 7.91575E+00 0.00000E+00
 -1      2815 4.67850E+01 7.91575E+00 0.00000E+00
 -1      2816 4.60350E+01 9.21475E+00 0.00000E+00
 -1      2817 5.12850E+01 7.91575E+00 0.00000E+00
 -1      2818 4.97850E+01 7.91575E+00 0.00000E+00
 -1      2819 4.90350E+01 9.21475E+00 0.00000E+00
 -1      2820 5.42850E+01 7.91575E+00 0.00000E+00
 -1      2821 5.27850E+01 7.91575E+00 0.00000E+00
 -1      2822 5.20350E+01 9.21475E+00 0.00000E+00
 -1      2823 5.72850E+01 7.91575E+00 0.00000E+00
 -1      2824 5.57850E+01 7.91575E+00 0.00000E+00
 -1      2825 5.50350E+01 9.21475E+00 0.00000E+00
 -1      2826 6.02850E+01 7.91575E+00 0.00000E+00
 -1      2827 5.87850E+01 7.91575E+00 0.00000E+00
 -1      2828 5.80350E+01 9.21475E+00 0.00000E+00
 -1      2829 6.32850E+01 7.91575E+00 0.00000E+00
 -1      2830 6.17850E+01 7.91575E+00 0.00000E+00
 -1      2831 6.10350E+01 9.21475E+00 0.00000E+00
 -1      2832 6.62850E+01 7.91575E+00 0.00000E+00
 -1      2833 6.47850E+01 7.91575E+00 0.00000E+00
 -1      2834 6.40350E+01 9.21475E+00 0.00000E+00
 -1      2835 6.92850E+01 7.91575E+00 0.00000E+00
 -1      2836 6.77850E+01 7.91575E+00 0.00000E+00
 -1      2837 6.70350E+01 9.21475E+00 0.00000E+00
 -1      2838 7.22850E+01 7.91575E+00 0.00000E+00
 -1      2839 7.07850E+01 7.91575E+00 0.00000E+00
 -1      2840 7.00350E+01 9.21475E+00 0.00000E+00
 -1      2841 7.52850E+01 7.91575E+00 0.00000E+00
 -1      2842 7.37850E+01 7.91575E+00 0.00000E+00
 -1      2843 7.30350E+01 9.21475E+00 0.00000E+00
 -1      2844 7.82850E+01 7.91575E+00 0.00000E+00
 -1      2845 7.67850E+01 7.91575E+00 0.00000E+00
 -1      2846 7.60350E+01 9.21475E+00 0.00000E+00
 -1      2847 8.12850E+01 7.91575E+00 0.00000E+00
 -1      2848 7.97850E+01 7.91575E+00 0.00000E+00
 -1      2849 7.90350E+01 9.21475E+00 0.00000E+00
 -1      2850 8.42850E+01 7.91575E+00 0.00000E+00
 -1      2851 8.27850E+01 7.91575E+00 0.00000E+00
 -1      2852 8.20350E+01 9.21475E+00 0.00000E+00
 -1      2853 8.72850E+01 7.91575E+00 0.00000E+00
 -1      2854 8.57850E+01 7.91575E+00 0.00000E+00
 -1      2855 8.50350E+01 9.21475E+00 0.00000E+00
 -1      2856 9.02850E+01 7.91575E+00 0.00000E+00
 -1      2857 8.87850E+01 7.91575E+00 0.00000E+00
 -1      2858 8.80350E+01 9.21475E+00 0.00000E+00
 -1      2859 9.32850E+01 7.91575E+00 0.00000E+00
 -1      2860 9.17850E+01 7.91575E+00 0.00000E+00
 -1      2861 9.10350E+01 9.21475E+00 0.00000E+00
 -1      2862 9.62850E+01 7.91575E+00 0.00000E+00
 -1      2863 9.47850E+01 7.91575E+00 0.00000E+00
 -1      2864 9.40350E+01 9.21475E+00 0.00000E+00
 -1      2865 9.92850E+01 7.91575E+00 0.00000E+00
 -1      2866 9.77850E+01 7.91575E+00 0.00000E+00
 -1      2867 9.70350E+01 9.21475E+00 0.00000E+00
 -1      2868 1.02285E+02 7.91575E+00 0.00000E+00
 -1      2869 1.00785E+02 7.91575E+00 0.00000E+00
 -1      2870 1.00035E+02 9.21475E+00 0.00000E+00
 -1      2871 1.05285E+02 7.91575E+00 0.00000E+00
 -1      2872 1.03785E+02 7.91575E+00 0.00000E+00
 -1      2873 1.03035E+02 9.21475E+00 0.00000E+00
 -1      2874 1.08285E+02 7.91575E+00 0.00000E+00
 -1      2875 1.06785E+02 7.91575E+00 0.00000E+00
 -1      2876 1.06035E+02 9.21475E+00 0.00000E+00
 -1      2877 1.11285E+02 7.91575E+00 0.00000E+00
 -1      2878 1.09785E+02 7.91575E+00 0.00000E+00
 -1      2879 1.09035E+02 9.21475E+00 0.00000E+00
 -1      2880 1.14285E+02 7.91575E+00 0.00000E+00
 -1      2881 1.12785E+02 7.91575E+00 0.00000E+00
 -1      2882 1.12035E+02 9.21475E+00 0.00000E+00
 -1      2883 1.17285E+02 7.91575E+00 0.00000E+00
 -1      2884 1.15785E+02 7.91575E+00 0.00000E+00
 -1      2885 1.15035E+02 9.21475E+00 0.00000E+00
 -1      2886 1.20285E+02 7.91575E+00 0.00000E+00
 -1      2887 1.18785E+02 7.91575E+00 0.00000E+00
 -1      2888 1.18035E+02 9.21475E+00 0.00000E+00
 -1      2889 1.23285E+02 7.91575E+00 0.00000E+00
 -1      2890 1.21785E+02 7.91575E+00 0.00000E+00
 -1      2891 1.21035E+02 9.21475E+00 0.00000E+00
 -1      2892 1.26285E+02 7.91575E+00 0.00000E+00
 -1      2893 1.24785E+02 7.91575E+00 0.00000E+00
 -1      2894 1.24035E+02 9.21475E+00 0.00000E+00
 -1      2895 1.29285E+02 7.91575E+00 0.00000E+00
 -1      2896 1.27785E+02 7.91575E+00 0.00000E+00
 -1      2897 1.27035E+02 9.21475E+00 0.00000E+00
 -1      2898 1.32285E+02 7.91575E+00 0.00000E+00
 -1      2899 1.30785E+02 7.91575E+00 0.00000E+00
 -1      2900 1.30035E+02 9.21475E+00 0.00000E+00
 -1      2901 1.35285E+02 7.91575E+00 0.00000E+00
 -1      2902 1.33785E+02 7.91575E+00 0.00000E+00
 -1      2903 1.33035E+02 9.21475E+00 0.00000E+00
 -1      2904 1.38285E+02 7.91575E+00 0.00000E+00
 -1      2905 1.36785E+02 7.91575E+00 0.00000E+00
 -1      2906 1.36035E+02 9.21475E+00 0.00000E+00
 -1      2907 1.40953E+02 8.19331E+00 0.00000E+00
 -1      2908 1.39453E+02 8.19331E+00 0.00000E+00
 -1      2909 1.38703E+02 9.49231E+00 0.00000E+00
 -1      2910 1.41038E+02 1.00474E+01 0.00000E+00
 -1      2911 1.40907E+02 2.42875E+01 0.00000E+00
 -1      2912 1.40907E+02 2.28125E+01 0.00000E+00
 -1      2913 1.39914E+02 4.09362E+01 0.00000E+00
 -1      2914 1.40928E+02 4.09655E+01 0.00000E+00
 -1      2915 1.39164E+02 3.96372E+01 0.00000E+00
 -1      2916 1.40907E+02 1.83875E+01 0.00000E+00
 -1      2917 1.40907E+02 1.69125E+01 0.00000E+00
 -1      2918 1.40907E+02 2.72375E+01 0.00000E+00
 -1      2919 1.40907E+02 2.57625E+01 0.00000E+00
 -1      2920 1.39608E+02 2.50250E+01 0.00000E+00
 -1      2921 1.40907E+02 2.13375E+01 0.00000E+00
 -1      2922 1.40907E+02 1.98625E+01 0.00000E+00
 -1      2923 1.39608E+02 1.91250E+01 0.00000E+00
 -1      2924 1.39608E+02 2.20750E+01 0.00000E+00
 -1      2925 3.40820E+01 1.77690E+01 0.00000E+00
 -1      2926 3.47647E+01 1.88089E+01 0.00000E+00
 -1      2927 1.40907E+02 3.01375E+01 0.00000E+00
 -1      2928 1.40907E+02 2.86875E+01 0.00000E+00
 -1      2929 1.39608E+02 2.79500E+01 0.00000E+00
 -1      2930 1.40907E+02 3.30875E+01 0.00000E+00
 -1      2931 1.40907E+02 3.16125E+01 0.00000E+00
 -1      2932 1.39608E+02 3.08750E+01 0.00000E+00
 -1      2933 1.40907E+02 3.60375E+01 0.00000E+00
 -1      2934 1.40907E+02 3.45625E+01 0.00000E+00
 -1      2935 1.39608E+02 3.38250E+01 0.00000E+00
 -1      2936 1.82850E+01 7.89323E+00 0.00000E+00
 -1      2937 1.67850E+01 7.89323E+00 0.00000E+00
 -1      2938 1.90350E+01 9.16970E+00 0.00000E+00
 -1      2939 2.86807E+01 1.26764E+01 0.00000E+00
 -1      2940 2.97026E+01 1.31511E+01 0.00000E+00
 -1      2941 3.31437E+01 3.09521E+01 0.00000E+00
 -1      2942 3.24454E+01 3.19286E+01 0.00000E+00
 -1      2943 8.85168E+00 4.05347E+01 0.00000E+00
 -1      2944 1.02152E+01 4.07987E+01 0.00000E+00
 -1      2945 1.41192E+02 3.96958E+01 0.00000E+00
 -1      2946 8.90291E+00 2.86375E+01 0.00000E+00
 -1      2947 8.90291E+00 3.01125E+01 0.00000E+00
 -1      2948 1.60737E+01 1.39251E+01 0.00000E+00
 -1      2949 1.71325E+01 1.32502E+01 0.00000E+00
 -1      2950 2.72850E+01 7.91575E+00 0.00000E+00
 -1      2951 2.57850E+01 7.91575E+00 0.00000E+00
 -1      2952 2.80350E+01 9.21475E+00 0.00000E+00
 -1      2953 2.42850E+01 7.90449E+00 0.00000E+00
 -1      2954 2.27850E+01 7.90449E+00 0.00000E+00
 -1      2955 2.20350E+01 9.18096E+00 0.00000E+00
 -1      2956 2.50350E+01 9.20349E+00 0.00000E+00
 -1      2957 1.15576E+01 4.08528E+01 0.00000E+00
 -1      2958 1.30576E+01 4.08528E+01 0.00000E+00
 -1      2959 1.38076E+01 3.95538E+01 0.00000E+00
 -1      2960 1.11228E+01 3.94455E+01 0.00000E+00
 -1      2961 8.71281E+00 1.10125E+01 0.00000E+00
 -1      2962 8.71281E+00 1.24875E+01 0.00000E+00
 -1      2963 1.00118E+01 1.32250E+01 0.00000E+00
 -1      2964 1.52850E+01 7.91575E+00 0.00000E+00
 -1      2965 1.37850E+01 7.91575E+00 0.00000E+00
 -1      2966 1.30350E+01 9.21475E+00 0.00000E+00
 -1      2967 7.48818E+00 3.87957E+01 0.00000E+00
 -1      2968 8.90291E+00 3.15875E+01 0.00000E+00
 -1      2969 8.90291E+00 3.30625E+01 0.00000E+00
 -1      2970 1.00118E+01 3.08500E+01 0.00000E+00
 -1      2971 3.13905E+01 3.32452E+01 0.00000E+00
 -1      2972 3.02288E+01 3.39854E+01 0.00000E+00
 -1      2973 2.09791E+01 1.19564E+01 0.00000E+00
 -1      2974 2.21604E+01 1.17480E+01 0.00000E+00
 -1      2975 1.16176E+01 2.54222E+01 0.00000E+00
 -1      2976 1.13608E+01 2.43108E+01 0.00000E+00
 -1      2977 2.36020E+01 1.16547E+01 0.00000E+00
 -1      2978 2.48539E+01 1.17768E+01 0.00000E+00
 -1      2979 1.84703E+01 1.26881E+01 0.00000E+00
 -1      2980 1.96514E+01 1.22668E+01 0.00000E+00
 -1      2981 1.41545E+01 1.56486E+01 0.00000E+00
 -1      2982 1.49072E+01 1.48002E+01 0.00000E+00
 -1      2983 2.86539E+01 3.42721E+01 0.00000E+00
 -1      2984 2.74824E+01 3.46413E+01 0.00000E+00
 -1      2985 1.18844E+01 2.01469E+01 0.00000E+00
 -1      2986 1.22412E+01 1.92548E+01 0.00000E+00
 -1      2987 1.60248E+01 3.36983E+01 0.00000E+00
 -1      2988 1.51072E+01 3.28839E+01 0.00000E+00
 -1      2989 2.39942E+01 3.62769E+01 0.00000E+00
 -1      2990 2.27963E+01 3.63949E+01 0.00000E+00
 -1      2991 1.27409E+01 2.98707E+01 0.00000E+00
 -1      2992 1.22420E+01 2.90467E+01 0.00000E+00
 -1      2993 1.40752E+01 3.19351E+01 0.00000E+00
 -1      2994 1.34081E+01 3.09029E+01 0.00000E+00
 -1      2995 1.22100E+01 3.10653E+01 0.00000E+00
 -1      2996 2.64007E+01 3.52379E+01 0.00000E+00
 -1      2997 2.53190E+01 3.58345E+01 0.00000E+00
 -1      2998 2.72190E+01 3.57913E+01 0.00000E+00
 -1      2999 3.52037E+01 2.62575E+01 0.00000E+00
 -1      3000 3.48413E+01 2.74177E+01 0.00000E+00
 -1      3001 3.43641E+01 2.85297E+01 0.00000E+00
 -1      3002 3.38868E+01 2.96418E+01 0.00000E+00
 -1      3003 3.55238E+01 2.82552E+01 0.00000E+00
 -1      3004 3.52765E+01 2.05386E+01 0.00000E+00
 -1      3005 3.52807E+01 2.18394E+01 0.00000E+00
 -1      3006 3.26073E+01 1.61078E+01 0.00000E+00
 -1      3007 3.32859E+01 1.68353E+01 0.00000E+00
 -1      3008 3.44842E+01 1.67927E+01 0.00000E+00
 -1      3009 3.28922E+01 1.49254E+01 0.00000E+00
 -1      3010 8.72441E+00 8.44588E+00 0.00000E+00
 -1      3011 8.90291E+00 3.45375E+01 0.00000E+00
 -1      3012 8.90291E+00 3.60125E+01 0.00000E+00
 -1      3013 1.00118E+01 3.38000E+01 0.00000E+00
 -1      3014 9.47441E+00 9.74487E+00 0.00000E+00
 -1      3015 8.78718E+00 3.80707E+01 0.00000E+00
 -1      3016 1.08041E+01 2.61670E+01 0.00000E+00
 -1      3017 1.07734E+01 1.04824E+01 0.00000E+00
 -1      3018 1.59833E+01 3.48375E+01 0.00000E+00
 -1      3019 1.39608E+02 1.61875E+01 0.00000E+00
 -1      3020 1.40907E+02 1.54500E+01 0.00000E+00
 -1      3021 1.40907E+02 1.39875E+01 0.00000E+00
 -1      3022 1.86313E+01 3.64563E+01 0.00000E+00
 -1      3023 1.39092E+01 3.30463E+01 0.00000E+00
 -1      3024 3.08951E+01 1.29119E+01 0.00000E+00
 -1      3025 2.48125E+01 3.68303E+01 0.00000E+00
 -1      3026 2.98756E+01 3.49080E+01 0.00000E+00
 -1      3027 1.40973E+02 1.27487E+01 0.00000E+00
 -1      3028 1.40973E+02 1.12862E+01 0.00000E+00
 -1      3029 1.39805E+02 1.10087E+01 0.00000E+00
 -1      3030 1.39674E+02 1.34862E+01 0.00000E+00
 -1      3031 1.60350E+01 9.19223E+00 0.00000E+00
 -1      3032 1.41192E+02 3.82207E+01 0.00000E+00
 -1      3033 3.59076E+01 2.25326E+01 0.00000E+00
 -1      3034 1.32673E+01 1.58514E+01 0.00000E+00
 -1      3035 1.74349E+01 1.22318E+01 0.00000E+00
 -1      3036 3.25054E+01 3.33045E+01 0.00000E+00
 -1      3037 3.63089E+01 2.47654E+01 0.00000E+00
 -1      3038 3.57563E+01 2.55115E+01 0.00000E+00
 -1      3039 3.65536E+01 2.63972E+01 0.00000E+00
 -1      3040 1.49306E+01 1.36689E+01 0.00000E+00
 -1      3041 9.33340E+00 2.75966E+01 0.00000E+00
 -1      3042 1.04423E+01 2.83341E+01 0.00000E+00
 -1      3043 1.20380E+01 1.82784E+01 0.00000E+00
 -1      3044 3.43034E+01 3.06776E+01 0.00000E+00
 -1      3045 2.18624E+01 3.72527E+01 0.00000E+00
 -1      3046 2.28697E+01 1.09556E+01 0.00000E+00
 -1      3047 1.39529E+02 3.85602E+01 0.00000E+00
 -1      3048 1.40542E+02 3.71145E+01 0.00000E+00
 -1      3049 1.39243E+02 3.63770E+01 0.00000E+00
 -1      3050 1.38514E+02 3.85310E+01 0.00000E+00
 -1      3051 2.01004E+01 1.13593E+01 0.00000E+00
 -1      3052 2.62873E+01 1.20145E+01 0.00000E+00
 -1      3053 2.74226E+01 1.24293E+01 0.00000E+00
 -1      3054 1.01835E+01 2.42829E+01 0.00000E+00
 -1      3055 1.08089E+01 2.35530E+01 0.00000E+00
 -1      3056 2.57446E+01 1.11000E+01 0.00000E+00
 -1      3057 2.84360E+01 1.15849E+01 0.00000E+00
 -1      3058 1.12078E+01 2.86631E+01 0.00000E+00
 -1      3059 3.63075E+01 1.83734E+01 0.00000E+00
 -1      3060 3.57920E+01 1.94560E+01 0.00000E+00
 -1      3061 3.68193E+01 2.01030E+01 0.00000E+00
 -1      3062 8.39050E+00 2.55347E+01 0.00000E+00
 -1      3063 8.66438E+00 2.69847E+01 0.00000E+00
 -1      3064 9.51625E+00 3.70687E+01 0.00000E+00
 -1      3065 1.05094E+01 3.83894E+01 0.00000E+00
 -1      3066 1.18518E+01 3.84435E+01 0.00000E+00
 -1      3067 1.06252E+01 3.63312E+01 0.00000E+00
 -1      3068 9.58319E+00 2.47972E+01 0.00000E+00
 -1      3069 3.66274E+01 2.80705E+01 0.00000E+00
 -1      3070 3.61502E+01 2.91825E+01 0.00000E+00
 -1      3071 1.91936E+01 3.84204E+01 0.00000E+00
 -1      3072 2.06936E+01 3.84204E+01 0.00000E+00
 -1      3073 2.23188E+01 3.84403E+01 0.00000E+00
 -1      3074 2.38188E+01 3.84403E+01 0.00000E+00
 -1      3075 2.79000E+01 3.84991E+01 0.00000E+00
 -1      3076 2.94000E+01 3.84991E+01 0.00000E+00
 -1      3077 3.09000E+01 3.84153E+01 0.00000E+00
 -1      3078 3.24000E+01 3.84153E+01 0.00000E+00
 -1      3079 3.39000E+01 3.84153E+01 0.00000E+00
 -1      3080 3.54000E+01 3.84153E+01 0.00000E+00
 -1      3081 3.31500E+01 3.72226E+01 0.00000E+00
 -1      3082 3.69000E+01 3.84153E+01 0.00000E+00
 -1      3083 3.84000E+01 3.84153E+01 0.00000E+00
 -1      3084 3.61500E+01 3.72226E+01 0.00000E+00
 -1      3085 3.99000E+01 3.84153E+01 0.00000E+00
 -1      3086 4.14000E+01 3.84153E+01 0.00000E+00
 -1      3087 3.91500E+01 3.72226E+01 0.00000E+00
 -1      3088 4.29000E+01 3.84153E+01 0.00000E+00
 -1      3089 4.44000E+01 3.84153E+01 0.00000E+00
 -1      3090 4.21500E+01 3.72226E+01 0.00000E+00
 -1      3091 4.59000E+01 3.84153E+01 0.00000E+00
 -1      3092 4.74000E+01 3.84153E+01 0.00000E+00
 -1      3093 4.51500E+01 3.72226E+01 0.00000E+00
 -1      3094 4.89000E+01 3.84153E+01 0.00000E+00
 -1      3095 5.04000E+01 3.84153E+01 0.00000E+00
 -1      3096 4.81500E+01 3.72226E+01 0.00000E+00
 -1      3097 5.19000E+01 3.84153E+01 0.00000E+00
 -1      3098 5.34000E+01 3.84153E+01 0.00000E+00
 -1      3099 5.11500E+01 3.72226E+01 0.00000E+00
 -1      3100 5.49000E+01 3.84153E+01 0.00000E+00
 -1      3101 5.64000E+01 3.84153E+01 0.00000E+00
 -1      3102 5.41500E+01 3.72226E+01 0.00000E+00
 -1      3103 5.79000E+01 3.84153E+01 0.00000E+00
 -1      3104 5.94000E+01 3.84153E+01 0.00000E+00
 -1      3105 5.71500E+01 3.72226E+01 0.00000E+00
 -1      3106 6.09000E+01 3.84153E+01 0.00000E+00
 -1      3107 6.24000E+01 3.84153E+01 0.00000E+00
 -1      3108 6.01500E+01 3.72226E+01 0.00000E+00
 -1      3109 6.39000E+01 3.84153E+01 0.00000E+00
 -1      3110 6.54000E+01 3.84153E+01 0.00000E+00
 -1      3111 6.31500E+01 3.72226E+01 0.00000E+00
 -1      3112 6.69000E+01 3.84153E+01 0.00000E+00
 -1      3113 6.84000E+01 3.84153E+01 0.00000E+00
 -1      3114 6.61500E+01 3.72226E+01 0.00000E+00
 -1      3115 6.99000E+01 3.84153E+01 0.00000E+00
 -1      3116 7.14000E+01 3.84153E+01 0.00000E+00
 -1      3117 6.91500E+01 3.72226E+01 0.00000E+00
 -1      3118 7.29000E+01 3.84153E+01 0.00000E+00
 -1      3119 7.44000E+01 3.84153E+01 0.00000E+00
 -1      3120 7.21500E+01 3.72226E+01 0.00000E+00
 -1      3121 7.59000E+01 3.84153E+01 0.00000E+00
 -1      3122 7.74000E+01 3.84153E+01 0.00000E+00
 -1      3123 7.51500E+01 3.72226E+01 0.00000E+00
 -1      3124 7.89000E+01 3.84153E+01 0.00000E+00
 -1      3125 8.04000E+01 3.84153E+01 0.00000E+00
 -1      3126 7.81500E+01 3.72226E+01 0.00000E+00
 -1      3127 8.19000E+01 3.84153E+01 0.00000E+00
 -1      3128 8.34000E+01 3.84153E+01 0.00000E+00
 -1      3129 8.11500E+01 3.72226E+01 0.00000E+00
 -1      3130 8.49000E+01 3.84153E+01 0.00000E+00
 -1      3131 8.64000E+01 3.84153E+01 0.00000E+00
 -1      3132 8.41500E+01 3.72226E+01 0.00000E+00
 -1      3133 8.79000E+01 3.84153E+01 0.00000E+00
 -1      3134 8.94000E+01 3.84153E+01 0.00000E+00
 -1      3135 8.71500E+01 3.72226E+01 0.00000E+00
 -1      3136 9.09000E+01 3.84153E+01 0.00000E+00
 -1      3137 9.24000E+01 3.84153E+01 0.00000E+00
 -1      3138 9.01500E+01 3.72226E+01 0.00000E+00
 -1      3139 9.39000E+01 3.84153E+01 0.00000E+00
 -1      3140 9.54000E+01 3.84153E+01 0.00000E+00
 -1      3141 9.31500E+01 3.72226E+01 0.00000E+00
 -1      3142 9.69000E+01 3.84153E+01 0.00000E+00
 -1      3143 9.84000E+01 3.84153E+01 0.00000E+00
 -1      3144 9.61500E+01 3.72226E+01 0.00000E+00
 -1      3145 9.99000E+01 3.84153E+01 0.00000E+00
 -1      3146 1.01400E+02 3.84153E+01 0.00000E+00
 -1      3147 9.91500E+01 3.72226E+01 0.00000E+00
 -1      3148 1.02900E+02 3.84153E+01 0.00000E+00
 -1      3149 1.04400E+02 3.84153E+01 0.00000E+00
 -1      3150 1.02150E+02 3.72226E+01 0.00000E+00
 -1      3151 1.05900E+02 3.84153E+01 0.00000E+00
 -1      3152 1.07400E+02 3.84153E+01 0.00000E+00
 -1      3153 1.05150E+02 3.72226E+01 0.00000E+00
 -1      3154 1.08900E+02 3.84153E+01 0.00000E+00
 -1      3155 1.10400E+02 3.84153E+01 0.00000E+00
 -1      3156 1.08150E+02 3.72226E+01 0.00000E+00
 -1      3157 1.11900E+02 3.84153E+01 0.00000E+00
 -1      3158 1.13400E+02 3.84153E+01 0.00000E+00
 -1      3159 1.11150E+02 3.72226E+01 0.00000E+00
 -1      3160 1.14900E+02 3.84153E+01 0.00000E+00
 -1      3161 1.16400E+02 3.84153E+01 0.00000E+00
 -1      3162 1.14150E+02 3.72226E+01 0.00000E+00
 -1      3163 1.17900E+02 3.84153E+01 0.00000E+00
 -1      3164 1.19400E+02 3.84153E+01 0.00000E+00
 -1      3165 1.17150E+02 3.72226E+01 0.00000E+00
 -1      3166 1.20900E+02 3.84153E+01 0.00000E+00
 -1      3167 1.22400E+02 3.84153E+01 0.00000E+00
 -1      3168 1.20150E+02 3.72226E+01 0.00000E+00
 -1      3169 1.23900E+02 3.84153E+01 0.00000E+00
 -1      3170 1.25400E+02 3.84153E+01 0.00000E+00
 -1      3171 1.23150E+02 3.72226E+01 0.00000E+00
 -1      3172 1.26900E+02 3.84153E+01 0.00000E+00
 -1      3173 1.28400E+02 3.84153E+01 0.00000E+00
 -1      3174 1.26150E+02 3.72226E+01 0.00000E+00
 -1      3175 1.29900E+02 3.84153E+01 0.00000E+00
 -1      3176 1.31400E+02 3.84153E+01 0.00000E+00
 -1      3177 1.29150E+02 3.72226E+01 0.00000E+00
 -1      3178 1.32900E+02 3.84153E+01 0.00000E+00
 -1      3179 1.34400E+02 3.84153E+01 0.00000E+00
 -1      3180 1.32150E+02 3.72226E+01 0.00000E+00
 -1      3181 1.35707E+02 3.84732E+01 0.00000E+00
 -1      3182 1.37207E+02 3.84732E+01 0.00000E+00
 -1      3183 1.37572E+02 3.73962E+01 0.00000E+00
 -1      3184 1.34957E+02 3.72805E+01 0.00000E+00
 -1      3185 1.37313E+01 3.42754E+01 0.00000E+00
 -1      3186 1.26993E+01 3.33265E+01 0.00000E+00
 -1      3187 3.11145E+01 1.05234E+01 0.00000E+00
 -1      3188 2.96145E+01 1.05234E+01 0.00000E+00
 -1      3189 4.07850E+01 1.05138E+01 0.00000E+00
 -1      3190 3.92850E+01 1.05138E+01 0.00000E+00
 -1      3191 4.37850E+01 1.05138E+01 0.00000E+00
 -1      3192 4.22850E+01 1.05138E+01 0.00000E+00
 -1      3193 4.15350E+01 1.18127E+01 0.00000E+00
 -1      3194 4.67850E+01 1.05138E+01 0.00000E+00
 -1      3195 4.52850E+01 1.05138E+01 0.00000E+00
 -1      3196 4.45350E+01 1.18127E+01 0.00000E+00
 -1      3197 4.97850E+01 1.05138E+01 0.00000E+00
 -1      3198 4.82850E+01 1.05138E+01 0.00000E+00
 -1      3199 4.75350E+01 1.18127E+01 0.00000E+00
 -1      3200 5.27850E+01 1.05138E+01 0.00000E+00
 -1      3201 5.12850E+01 1.05138E+01 0.00000E+00
 -1      3202 5.05350E+01 1.18127E+01 0.00000E+00
 -1      3203 5.57850E+01 1.05138E+01 0.00000E+00
 -1      3204 5.42850E+01 1.05138E+01 0.00000E+00
 -1      3205 5.35350E+01 1.18127E+01 0.00000E+00
 -1      3206 5.87850E+01 1.05138E+01 0.00000E+00
 -1      3207 5.72850E+01 1.05138E+01 0.00000E+00
 -1      3208 5.65350E+01 1.18127E+01 0.00000E+00
 -1      3209 6.17850E+01 1.05138E+01 0.00000E+00
 -1      3210 6.02850E+01 1.05138E+01 0.00000E+00
 -1      3211 5.95350E+01 1.18127E+01 0.00000E+00
 -1      3212 6.47850E+01 1.05138E+01 0.00000E+00
 -1      3213 6.32850E+01 1.05138E+01 0.00000E+00
 -1      3214 6.25350E+01 1.18127E+01 0.00000E+00
 -1      3215 6.77850E+01 1.05138E+01 0.00000E+00
 -1      3216 6.62850E+01 1.05138E+01 0.00000E+00
 -1      3217 6.55350E+01 1.18127E+01 0.00000E+00
 -1      3218 7.07850E+01 1.05138E+01 0.00000E+00
 -1      3219 6.92850E+01 1.05138E+01 0.00000E+00
 -1      3220 6.85350E+01 1.18127E+01 0.00000E+00
 -1      3221 7.37850E+01 1.05138E+01 0.00000E+00
 -1      3222 7.22850E+01 1.05138E+01 0.00000E+00
 -1      3223 7.15350E+01 1.18127E+01 0.00000E+00
 -1      3224 7.67850E+01 1.05138E+01 0.00000E+00
 -1      3225 7.52850E+01 1.05138E+01 0.00000E+00
 -1      3226 7.45350E+01 1.18127E+01 0.00000E+00
 -1      3227 7.97850E+01 1.05138E+01 0.00000E+00
 -1      3228 7.82850E+01 1.05138E+01 0.00000E+00
 -1      3229 7.75350E+01 1.18127E+01 0.00000E+00
 -1      3230 8.27850E+01 1.05138E+01 0.00000E+00
 -1      3231 8.12850E+01 1.05138E+01 0.00000E+00
 -1      3232 8.05350E+01 1.18127E+01 0.00000E+00
 -1      3233 8.57850E+01 1.05138E+01 0.00000E+00
 -1      3234 8.42850E+01 1.05138E+01 0.00000E+00
 -1      3235 8.35350E+01 1.18127E+01 0.00000E+00
 -1      3236 8.87850E+01 1.05138E+01 0.00000E+00
 -1      3237 8.72850E+01 1.05138E+01 0.00000E+00
 -1      3238 8.65350E+01 1.18127E+01 0.00000E+00
 -1      3239 9.17850E+01 1.05138E+01 0.00000E+00
 -1      3240 9.02850E+01 1.05138E+01 0.00000E+00
 -1      3241 8.95350E+01 1.18127E+01 0.00000E+00
 -1      3242 9.47850E+01 1.05138E+01 0.00000E+00
 -1      3243 9.32850E+01 1.05138E+01 0.00000E+00
 -1      3244 9.25350E+01 1.18127E+01 0.00000E+00
 -1      3245 9.77850E+01 1.05138E+01 0.00000E+00
 -1      3246 9.62850E+01 1.05138E+01 0.00000E+00
 -1      3247 9.55350E+01 1.18127E+01 0.00000E+00
 -1      3248 1.00785E+02 1.05138E+01 0.00000E+00
 -1      3249 9.92850E+01 1.05138E+01 0.00000E+00
 -1      3250 9.85350E+01 1.18127E+01 0.00000E+00
 -1      3251 1.03785E+02 1.05138E+01 0.00000E+00
 -1      3252 1.02285E+02 1.05138E+01 0.00000E+00
 -1      3253 1.01535E+02 1.18127E+01 0.00000E+00
 -1      3254 1.06785E+02 1.05138E+01 0.00000E+00
 -1      3255 1.05285E+02 1.05138E+01 0.00000E+00
 -1      3256 1.04535E+02 1.18127E+01 0.00000E+00
 -1      3257 1.09785E+02 1.05138E+01 0.00000E+00
 -1      3258 1.08285E+02 1.05138E+01 0.00000E+00
 -1      3259 1.07535E+02 1.18127E+01 0.00000E+00
 -1      3260 1.12785E+02 1.05138E+01 0.00000E+00
 -1      3261 1.11285E+02 1.05138E+01 0.00000E+00
 -1      3262 1.10535E+02 1.18127E+01 0.00000E+00
 -1      3263 1.15785E+02 1.05138E+01 0.00000E+00
 -1      3264 1.14285E+02 1.05138E+01 0.00000E+00
 -1      3265 1.13535E+02 1.18127E+01 0.00000E+00
 -1      3266 1.18785E+02 1.05138E+01 0.00000E+00
 -1      3267 1.17285E+02 1.05138E+01 0.00000E+00
 -1      3268 1.16535E+02 1.18127E+01 0.00000E+00
 -1      3269 1.21785E+02 1.05138E+01 0.00000E+00
 -1      3270 1.20285E+02 1.05138E+01 0.00000E+00
 -1      3271 1.19535E+02 1.18127E+01 0.00000E+00
 -1      3272 1.24785E+02 1.05138E+01 0.00000E+00
 -1      3273 1.23285E+02 1.05138E+01 0.00000E+00
 -1      3274 1.22535E+02 1.18127E+01 0.00000E+00
 -1      3275 1.27785E+02 1.05138E+01 0.00000E+00
 -1      3276 1.26285E+02 1.05138E+01 0.00000E+00
 -1      3277 1.25535E+02 1.18127E+01 0.00000E+00
 -1      3278 1.30785E+02 1.05138E+01 0.00000E+00
 -1      3279 1.29285E+02 1.05138E+01 0.00000E+00
 -1      3280 1.28535E+02 1.18127E+01 0.00000E+00
 -1      3281 1.33785E+02 1.05138E+01 0.00000E+00
 -1      3282 1.32285E+02 1.05138E+01 0.00000E+00
 -1      3283 1.31535E+02 1.18127E+01 0.00000E+00
 -1      3284 1.36785E+02 1.05138E+01 0.00000E+00
 -1      3285 1.35285E+02 1.05138E+01 0.00000E+00
 -1      3286 1.34535E+02 1.18127E+01 0.00000E+00
 -1      3287 1.38879E+02 1.09000E+01 0.00000E+00
 -1      3288 1.37711E+02 1.06224E+01 0.00000E+00
 -1      3289 1.36961E+02 1.19214E+01 0.00000E+00
 -1      3290 1.38813E+02 1.21388E+01 0.00000E+00
 -1      3291 1.38309E+02 2.57625E+01 0.00000E+00
 -1      3292 1.38309E+02 2.42875E+01 0.00000E+00
 -1      3293 1.38309E+02 3.45625E+01 0.00000E+00
 -1      3294 1.38309E+02 3.30875E+01 0.00000E+00
 -1      3295 1.38309E+02 2.86625E+01 0.00000E+00
 -1      3296 1.38309E+02 2.72125E+01 0.00000E+00
 -1      3297 1.37010E+02 2.64750E+01 0.00000E+00
 -1      3298 3.08317E+01 3.56907E+01 0.00000E+00
 -1      3299 2.92568E+01 3.59774E+01 0.00000E+00
 -1      3300 2.51437E+01 3.79979E+01 0.00000E+00
 -1      3301 1.01350E+01 2.55551E+01 0.00000E+00
 -1      3302 1.14953E+01 2.10458E+01 0.00000E+00
 -1      3303 1.09164E+01 2.02968E+01 0.00000E+00
 -1      3304 1.07773E+01 2.97040E+01 0.00000E+00
 -1      3305 1.13108E+01 1.24875E+01 0.00000E+00
 -1      3306 1.13108E+01 1.39625E+01 0.00000E+00
 -1      3307 2.83565E+01 1.02762E+01 0.00000E+00
 -1      3308 2.68565E+01 1.02762E+01 0.00000E+00
 -1      3309 3.71010E+01 2.20713E+01 0.00000E+00
 -1      3310 3.67050E+01 2.34184E+01 0.00000E+00
 -1      3311 3.75023E+01 2.43041E+01 0.00000E+00
 -1      3312 1.02038E+01 2.66813E+01 0.00000E+00
 -1      3313 1.58599E+01 3.60559E+01 0.00000E+00
 -1      3314 1.48178E+01 3.52136E+01 0.00000E+00
 -1      3315 3.38982E+01 3.33395E+01 0.00000E+00
 -1      3316 3.28434E+01 3.46562E+01 0.00000E+00
 -1      3317 1.38309E+02 3.16125E+01 0.00000E+00
 -1      3318 1.38309E+02 3.01375E+01 0.00000E+00
 -1      3319 1.37010E+02 2.94000E+01 0.00000E+00
 -1      3320 1.37010E+02 3.23500E+01 0.00000E+00
 -1      3321 3.77850E+01 1.05138E+01 0.00000E+00
 -1      3322 3.62850E+01 1.05138E+01 0.00000E+00
 -1      3323 3.85350E+01 1.18127E+01 0.00000E+00
 -1      3324 3.47850E+01 1.05138E+01 0.00000E+00
 -1      3325 3.32850E+01 1.05138E+01 0.00000E+00
 -1      3326 3.55350E+01 1.18127E+01 0.00000E+00
 -1      3327 1.75877E+01 3.76439E+01 0.00000E+00
 -1      3328 1.20724E+01 1.12199E+01 0.00000E+00
 -1      3329 1.60877E+01 3.76439E+01 0.00000E+00
 -1      3330 1.07773E+01 3.11790E+01 0.00000E+00
 -1      3331 2.54231E+01 1.00385E+01 0.00000E+00
 -1      3332 3.56395E+01 3.05695E+01 0.00000E+00
 -1      3333 3.48964E+01 3.18798E+01 0.00000E+00
 -1      3334 3.23156E+01 1.16032E+01 0.00000E+00
 -1      3335 2.24816E+01 1.01206E+01 0.00000E+00
 -1      3336 2.39231E+01 1.00272E+01 0.00000E+00
 -1      3337 1.14445E+01 3.22112E+01 0.00000E+00
 -1      3338 1.12568E+01 2.23883E+01 0.00000E+00
 -1      3339 2.66437E+01 3.79979E+01 0.00000E+00
 -1      3340 1.12666E+01 3.34403E+01 0.00000E+00
 -1      3341 1.38309E+02 1.69188E+01 0.00000E+00
 -1      3342 1.38309E+02 1.54563E+01 0.00000E+00
 -1      3343 3.71800E+01 2.73245E+01 0.00000E+00
 -1      3344 3.78064E+01 2.82517E+01 0.00000E+00
 -1      3345 3.77326E+01 2.65784E+01 0.00000E+00
 -1      3346 3.34017E+01 1.36847E+01 0.00000E+00
 -1      3347 3.41978E+01 1.46184E+01 0.00000E+00
 -1      3348 2.73937E+01 3.68890E+01 0.00000E+00
 -1      3349 1.35724E+01 1.12199E+01 0.00000E+00
 -1      3350 1.00795E+01 2.23604E+01 0.00000E+00
 -1      3351 2.09816E+01 1.01093E+01 0.00000E+00
 -1      3352 2.94314E+01 3.70752E+01 0.00000E+00
 -1      3353 2.84753E+01 3.62924E+01 0.00000E+00
 -1      3354 1.38309E+02 1.98687E+01 0.00000E+00
 -1      3355 1.38309E+02 1.83937E+01 0.00000E+00
 -1      3356 1.37010E+02 1.76625E+01 0.00000E+00
 -1      3357 1.96539E+01 1.04197E+01 0.00000E+00
 -1      3358 1.81539E+01 1.04197E+01 0.00000E+00
 -1      3359 1.68161E+01 1.09818E+01 0.00000E+00
 -1      3360 1.53161E+01 1.10043E+01 0.00000E+00
 -1      3361 1.38309E+02 2.28156E+01 0.00000E+00
 -1      3362 1.38309E+02 2.13406E+01 0.00000E+00
 -1      3363 1.37010E+02 2.06094E+01 0.00000E+00
 -1      3364 1.37010E+02 2.35531E+01 0.00000E+00
 -1      3365 3.15503E+01 3.59219E+01 0.00000E+00
 -1      3366 3.09314E+01 3.69914E+01 0.00000E+00
 -1      3367 1.49222E+01 3.80200E+01 0.00000E+00
 -1      3368 3.76166E+01 2.09887E+01 0.00000E+00
 -1      3369 3.84139E+01 2.18745E+01 0.00000E+00
 -1      3370 3.81321E+01 1.99061E+01 0.00000E+00
 -1      3371 3.52344E+01 3.32315E+01 0.00000E+00
 -1      3372 3.29431E+01 3.59569E+01 0.00000E+00
 -1      3373 1.06586E+01 1.85240E+01 0.00000E+00
 -1      3374 1.13912E+01 1.74044E+01 0.00000E+00
 -1      3375 1.35798E+01 3.79659E+01 0.00000E+00
 -1      3376 1.12666E+01 3.49153E+01 0.00000E+00
 -1      3377 1.36080E+01 3.54938E+01 0.00000E+00
 -1      3378 1.37758E+02 3.65178E+01 0.00000E+00
 -1      3379 1.38123E+02 3.54408E+01 0.00000E+00
 -1      3380 1.36824E+02 3.47033E+01 0.00000E+00
 -1      3381 1.36451E+02 3.64600E+01 0.00000E+00
 -1      3382 1.43535E+01 1.30094E+01 0.00000E+00
 -1      3383 3.67432E+01 3.03847E+01 0.00000E+00
 -1      3384 1.19824E+01 1.61113E+01 0.00000E+00
 -1      3385 1.24790E+01 1.48039E+01 0.00000E+00
 -1      3386 3.64862E+01 1.69507E+01 0.00000E+00
 -1      3387 3.75135E+01 1.75977E+01 0.00000E+00
 -1      3388 1.31869E+01 1.38845E+01 0.00000E+00
 -1      3389 3.49440E+01 1.53177E+01 0.00000E+00
 -1      3390 3.57400E+01 1.62514E+01 0.00000E+00
 -1      3391 3.69459E+01 1.54757E+01 0.00000E+00
 -1      3392 3.54535E+01 1.40771E+01 0.00000E+00
 -1      3393 1.01746E+01 2.08916E+01 0.00000E+00
 -1      3394 1.05636E+01 1.99927E+01 0.00000E+00
 -1      3395 1.06029E+01 1.63569E+01 0.00000E+00
 -1      3396 3.30656E+01 1.29022E+01 0.00000E+00
 -1      3397 3.43712E+01 1.25952E+01 0.00000E+00
 -1      3398 3.01814E+01 3.81841E+01 0.00000E+00
 -1      3399 3.84000E+01 3.59236E+01 0.00000E+00
 -1      3400 3.99000E+01 3.59236E+01 0.00000E+00
 -1      3401 4.14000E+01 3.59236E+01 0.00000E+00
 -1      3402 4.29000E+01 3.59236E+01 0.00000E+00
 -1      3403 4.06500E+01 3.46246E+01 0.00000E+00
 -1      3404 4.44000E+01 3.59236E+01 0.00000E+00
 -1      3405 4.59000E+01 3.59236E+01 0.00000E+00
 -1      3406 4.36500E+01 3.46246E+01 0.00000E+00
 -1      3407 4.74000E+01 3.59236E+01 0.00000E+00
 -1      3408 4.89000E+01 3.59236E+01 0.00000E+00
 -1      3409 4.66500E+01 3.46246E+01 0.00000E+00
 -1      3410 5.04000E+01 3.59236E+01 0.00000E+00
 -1      3411 5.19000E+01 3.59236E+01 0.00000E+00
 -1      3412 4.96500E+01 3.46246E+01 0.00000E+00
 -1      3413 5.34000E+01 3.59236E+01 0.00000E+00
 -1      3414 5.49000E+01 3.59236E+01 0.00000E+00
 -1      3415 5.26500E+01 3.46246E+01 0.00000E+00
 -1      3416 5.64000E+01 3.59236E+01 0.00000E+00
 -1      3417 5.79000E+01 3.59236E+01 0.00000E+00
 -1      3418 5.56500E+01 3.46246E+01 0.00000E+00
 -1      3419 5.94000E+01 3.59236E+01 0.00000E+00
 -1      3420 6.09000E+01 3.59236E+01 0.00000E+00
 -1      3421 5.86500E+01 3.46246E+01 0.00000E+00
 -1      3422 6.24000E+01 3.59236E+01 0.00000E+00
 -1      3423 6.39000E+01 3.59236E+01 0.00000E+00
 -1      3424 6.16500E+01 3.46246E+01 0.00000E+00
 -1      3425 6.54000E+01 3.59236E+01 0.00000E+00
 -1      3426 6.69000E+01 3.59236E+01 0.00000E+00
 -1      3427 6.46500E+01 3.46246E+01 0.00000E+00
 -1      3428 6.84000E+01 3.59236E+01 0.00000E+00
 -1      3429 6.99000E+01 3.59236E+01 0.00000E+00
 -1      3430 6.76500E+01 3.46246E+01 0.00000E+00
 -1      3431 7.14000E+01 3.59236E+01 0.00000E+00
 -1      3432 7.29000E+01 3.59236E+01 0.00000E+00
 -1      3433 7.06500E+01 3.46246E+01 0.00000E+00
 -1      3434 7.44000E+01 3.59236E+01 0.00000E+00
 -1      3435 7.59000E+01 3.59236E+01 0.00000E+00
 -1      3436 7.36500E+01 3.46246E+01 0.00000E+00
 -1      3437 7.74000E+01 3.59236E+01 0.00000E+00
 -1      3438 7.89000E+01 3.59236E+01 0.00000E+00
 -1      3439 7.66500E+01 3.46246E+01 0.00000E+00
 -1      3440 8.04000E+01 3.59236E+01 0.00000E+00
 -1      3441 8.19000E+01 3.59236E+01 0.00000E+00
 -1      3442 7.96500E+01 3.46246E+01 0.00000E+00
 -1      3443 8.34000E+01 3.59236E+01 0.00000E+00
 -1      3444 8.49000E+01 3.59236E+01 0.00000E+00
 -1      3445 8.26500E+01 3.46246E+01 0.00000E+00
 -1      3446 8.64000E+01 3.59236E+01 0.00000E+00
 -1      3447 8.79000E+01 3.59236E+01 0.00000E+00
 -1      3448 8.56500E+01 3.46246E+01 0.00000E+00
 -1      3449 8.94000E+01 3.59236E+01 0.00000E+00
 -1      3450 9.09000E+01 3.59236E+01 0.00000E+00
 -1      3451 8.86500E+01 3.46246E+01 0.00000E+00
 -1      3452 9.24000E+01 3.59236E+01 0.00000E+00
 -1      3453 9.39000E+01 3.59236E+01 0.00000E+00
 -1      3454 9.16500E+01 3.46246E+01 0.00000E+00
 -1      3455 9.54000E+01 3.59236E+01 0.00000E+00
 -1      3456 9.69000E+01 3.59236E+01 0.00000E+00
 -1      3457 9.46500E+01 3.46246E+01 0.00000E+00
 -1      3458 9.84000E+01 3.59236E+01 0.00000E+00
 -1      3459 9.99000E+01 3.59236E+01 0.00000E+00
 -1      3460 9.76500E+01 3.46246E+01 0.00000E+00
 -1      3461 1.01400E+02 3.59236E+01 0.00000E+00
 -1      3462 1.02900E+02 3.59236E+01 0.00000E+00
 -1      3463 1.00650E+02 3.46246E+01 0.00000E+00
 -1      3464 1.04400E+02 3.59236E+01 0.00000E+00
 -1      3465 1.05900E+02 3.59236E+01 0.00000E+00
 -1      3466 1.03650E+02 3.46246E+01 0.00000E+00
 -1      3467 1.07400E+02 3.59236E+01 0.00000E+00
 -1      3468 1.08900E+02 3.59236E+01 0.00000E+00
 -1      3469 1.06650E+02 3.46246E+01 0.00000E+00
 -1      3470 1.10400E+02 3.59236E+01 0.00000E+00
 -1      3471 1.11900E+02 3.59236E+01 0.00000E+00
 -1      3472 1.09650E+02 3.46246E+01 0.00000E+00
 -1      3473 1.13400E+02 3.59236E+01 0.00000E+00
 -1      3474 1.14900E+02 3.59236E+01 0.00000E+00
 -1      3475 1.12650E+02 3.46246E+01 0.00000E+00
 -1      3476 1.16400E+02 3.59236E+01 0.00000E+00
 -1      3477 1.17900E+02 3.59236E+01 0.00000E+00
 -1      3478 1.15650E+02 3.46246E+01 0.00000E+00
 -1      3479 1.19400E+02 3.59236E+01 0.00000E+00
 -1      3480 1.20900E+02 3.59236E+01 0.00000E+00
 -1      3481 1.18650E+02 3.46246E+01 0.00000E+00
 -1      3482 1.22400E+02 3.59236E+01 0.00000E+00
 -1      3483 1.23900E+02 3.59236E+01 0.00000E+00
 -1      3484 1.21650E+02 3.46246E+01 0.00000E+00
 -1      3485 1.25400E+02 3.59236E+01 0.00000E+00
 -1      3486 1.26900E+02 3.59236E+01 0.00000E+00
 -1      3487 1.24650E+02 3.46246E+01 0.00000E+00
 -1      3488 1.28400E+02 3.59236E+01 0.00000E+00
 -1      3489 1.29900E+02 3.59236E+01 0.00000E+00
 -1      3490 1.27650E+02 3.46246E+01 0.00000E+00
 -1      3491 1.31400E+02 3.59236E+01 0.00000E+00
 -1      3492 1.32900E+02 3.59236E+01 0.00000E+00
 -1      3493 1.30650E+02 3.46246E+01 0.00000E+00
 -1      3494 4.22850E+01 1.31117E+01 0.00000E+00
 -1      3495 4.07850E+01 1.31117E+01 0.00000E+00
 -1      3496 5.12850E+01 1.31117E+01 0.00000E+00
 -1      3497 4.97850E+01 1.31117E+01 0.00000E+00
 -1      3498 5.42850E+01 1.31117E+01 0.00000E+00
 -1      3499 5.27850E+01 1.31117E+01 0.00000E+00
 -1      3500 5.20350E+01 1.44108E+01 0.00000E+00
 -1      3501 5.72850E+01 1.31117E+01 0.00000E+00
 -1      3502 5.57850E+01 1.31117E+01 0.00000E+00
 -1      3503 5.50350E+01 1.44108E+01 0.00000E+00
 -1      3504 6.02850E+01 1.31117E+01 0.00000E+00
 -1      3505 5.87850E+01 1.31117E+01 0.00000E+00
 -1      3506 5.80350E+01 1.44108E+01 0.00000E+00
 -1      3507 6.32850E+01 1.31117E+01 0.00000E+00
 -1      3508 6.17850E+01 1.31117E+01 0.00000E+00
 -1      3509 6.10350E+01 1.44108E+01 0.00000E+00
 -1      3510 6.62850E+01 1.31117E+01 0.00000E+00
 -1      3511 6.47850E+01 1.31117E+01 0.00000E+00
 -1      3512 6.40350E+01 1.44108E+01 0.00000E+00
 -1      3513 6.92850E+01 1.31117E+01 0.00000E+00
 -1      3514 6.77850E+01 1.31117E+01 0.00000E+00
 -1      3515 6.70350E+01 1.44108E+01 0.00000E+00
 -1      3516 7.22850E+01 1.31117E+01 0.00000E+00
 -1      3517 7.07850E+01 1.31117E+01 0.00000E+00
 -1      3518 7.00350E+01 1.44108E+01 0.00000E+00
 -1      3519 7.52850E+01 1.31117E+01 0.00000E+00
 -1      3520 7.37850E+01 1.31117E+01 0.00000E+00
 -1      3521 7.30350E+01 1.44108E+01 0.00000E+00
 -1      3522 7.82850E+01 1.31117E+01 0.00000E+00
 -1      3523 7.67850E+01 1.31117E+01 0.00000E+00
 -1      3524 7.60350E+01 1.44108E+01 0.00000E+00
 -1      3525 8.12850E+01 1.31117E+01 0.00000E+00
 -1      3526 7.97850E+01 1.31117E+01 0.00000E+00
 -1      3527 7.90350E+01 1.44108E+01 0.00000E+00
 -1      3528 8.42850E+01 1.31117E+01 0.00000E+00
 -1      3529 8.27850E+01 1.31117E+01 0.00000E+00
 -1      3530 8.20350E+01 1.44108E+01 0.00000E+00
 -1      3531 8.72850E+01 1.31117E+01 0.00000E+00
 -1      3532 8.57850E+01 1.31117E+01 0.00000E+00
 -1      3533 8.50350E+01 1.44108E+01 0.00000E+00
 -1      3534 9.02850E+01 1.31117E+01 0.00000E+00
 -1      3535 8.87850E+01 1.31117E+01 0.00000E+00
 -1      3536 8.80350E+01 1.44108E+01 0.00000E+00
 -1      3537 9.32850E+01 1.31117E+01 0.00000E+00
 -1      3538 9.17850E+01 1.31117E+01 0.00000E+00
 -1      3539 9.10350E+01 1.44108E+01 0.00000E+00
 -1      3540 9.62850E+01 1.31117E+01 0.00000E+00
 -1      3541 9.47850E+01 1.31117E+01 0.00000E+00
 -1      3542 9.40350E+01 1.44108E+01 0.00000E+00
 -1      3543 9.92850E+01 1.31117E+01 0.00000E+00
 -1      3544 9.77850E+01 1.31117E+01 0.00000E+00
 -1      3545 9.70350E+01 1.44108E+01 0.00000E+00
 -1      3546 1.02285E+02 1.31117E+01 0.00000E+00
 -1      3547 1.00785E+02 1.31117E+01 0.00000E+00
 -1      3548 1.00035E+02 1.44108E+01 0.00000E+00
 -1      3549 1.05285E+02 1.31117E+01 0.00000E+00
 -1      3550 1.03785E+02 1.31117E+01 0.00000E+00
 -1      3551 1.03035E+02 1.44108E+01 0.00000E+00
 -1      3552 1.08285E+02 1.31117E+01 0.00000E+00
 -1      3553 1.06785E+02 1.31117E+01 0.00000E+00
 -1      3554 1.06035E+02 1.44108E+01 0.00000E+00
 -1      3555 1.11285E+02 1.31117E+01 0.00000E+00
 -1      3556 1.09785E+02 1.31117E+01 0.00000E+00
 -1      3557 1.09035E+02 1.44108E+01 0.00000E+00
 -1      3558 1.14285E+02 1.31117E+01 0.00000E+00
 -1      3559 1.12785E+02 1.31117E+01 0.00000E+00
 -1      3560 1.12035E+02 1.44108E+01 0.00000E+00
 -1      3561 1.17285E+02 1.31117E+01 0.00000E+00
 -1      3562 1.15785E+02 1.31117E+01 0.00000E+00
 -1      3563 1.15035E+02 1.44108E+01 0.00000E+00
 -1      3564 1.20285E+02 1.31117E+01 0.00000E+00
 -1      3565 1.18785E+02 1.31117E+01 0.00000E+00
 -1      3566 1.18035E+02 1.44108E+01 0.00000E+00
 -1      3567 1.23285E+02 1.31117E+01 0.00000E+00
 -1      3568 1.21785E+02 1.31117E+01 0.00000E+00
 -1      3569 1.21035E+02 1.44108E+01 0.00000E+00
 -1      3570 1.26285E+02 1.31117E+01 0.00000E+00
 -1      3571 1.24785E+02 1.31117E+01 0.00000E+00
 -1      3572 1.24035E+02 1.44108E+01 0.00000E+00
 -1      3573 1.29285E+02 1.31117E+01 0.00000E+00
 -1      3574 1.27785E+02 1.31117E+01 0.00000E+00
 -1      3575 1.27035E+02 1.44108E+01 0.00000E+00
 -1      3576 1.32285E+02 1.31117E+01 0.00000E+00
 -1      3577 1.30785E+02 1.31117E+01 0.00000E+00
 -1      3578 1.30035E+02 1.44108E+01 0.00000E+00
 -1      3579 1.35285E+02 1.31117E+01 0.00000E+00
 -1      3580 1.33785E+02 1.31117E+01 0.00000E+00
 -1      3581 1.33035E+02 1.44108E+01 0.00000E+00
 -1      3582 1.38528E+02 1.44169E+01 0.00000E+00
 -1      3583 1.38594E+02 1.31781E+01 0.00000E+00
 -1      3584 1.37668E+02 1.30694E+01 0.00000E+00
 -1      3585 1.37229E+02 1.51481E+01 0.00000E+00
 -1      3586 1.35711E+02 2.72000E+01 0.00000E+00
 -1      3587 1.35711E+02 2.57500E+01 0.00000E+00
 -1      3588 1.18800E+01 3.59715E+01 0.00000E+00
 -1      3589 3.86034E+01 2.38961E+01 0.00000E+00
 -1      3590 3.82073E+01 2.52432E+01 0.00000E+00
 -1      3591 3.44431E+01 3.59569E+01 0.00000E+00
 -1      3592 1.29665E+01 3.69097E+01 0.00000E+00
 -1      3593 4.82850E+01 1.31117E+01 0.00000E+00
 -1      3594 4.67850E+01 1.31117E+01 0.00000E+00
 -1      3595 4.90350E+01 1.44108E+01 0.00000E+00
 -1      3596 4.52850E+01 1.31117E+01 0.00000E+00
 -1      3597 4.37850E+01 1.31117E+01 0.00000E+00
 -1      3598 4.30350E+01 1.44108E+01 0.00000E+00
 -1      3599 4.60350E+01 1.44108E+01 0.00000E+00
 -1      3600 3.58712E+01 1.25952E+01 0.00000E+00
 -1      3601 3.81178E+01 3.01033E+01 0.00000E+00
 -1      3602 3.76071E+01 3.14903E+01 0.00000E+00
 -1      3603 3.87862E+01 1.70350E+01 0.00000E+00
 -1      3604 3.86075E+01 1.84577E+01 0.00000E+00
 -1      3605 1.19019E+01 1.41444E+01 0.00000E+00
 -1      3606 3.66090E+01 3.29501E+01 0.00000E+00
 -1      3607 3.56108E+01 3.44098E+01 0.00000E+00
 -1      3608 3.79835E+01 3.26687E+01 0.00000E+00
 -1      3609 1.06029E+01 1.48819E+01 0.00000E+00
 -1      3610 3.66174E+01 1.32946E+01 0.00000E+00
 -1      3611 3.58177E+01 3.56755E+01 0.00000E+00
 -1      3612 3.92229E+01 2.86113E+01 0.00000E+00
 -1      3613 3.86703E+01 2.93573E+01 0.00000E+00
 -1      3614 3.95342E+01 3.04629E+01 0.00000E+00
 -1      3615 3.73177E+01 3.56755E+01 0.00000E+00
 -1      3616 3.80677E+01 3.43765E+01 0.00000E+00
 -1      3617 1.34412E+02 2.50031E+01 0.00000E+00
 -1      3618 1.35711E+02 2.42781E+01 0.00000E+00
 -1      3619 1.35711E+02 2.28062E+01 0.00000E+00
 -1      3620 1.34022E+02 3.61629E+01 0.00000E+00
 -1      3621 1.35329E+02 3.62207E+01 0.00000E+00
 -1      3622 1.35515E+02 3.53424E+01 0.00000E+00
 -1      3623 1.33272E+02 3.48639E+01 0.00000E+00
 -1      3624 3.88337E+01 2.61705E+01 0.00000E+00
 -1      3625 3.96136E+01 1.52929E+01 0.00000E+00
 -1      3626 3.88636E+01 1.39939E+01 0.00000E+00
 -1      3627 1.35773E+02 1.52991E+01 0.00000E+00
 -1      3628 1.35992E+02 1.42598E+01 0.00000E+00
 -1      3629 1.36742E+02 1.29608E+01 0.00000E+00
 -1      3630 1.35773E+02 1.82491E+01 0.00000E+00
 -1      3631 1.35773E+02 1.67741E+01 0.00000E+00
 -1      3632 1.34535E+02 1.58857E+01 0.00000E+00
 -1      3633 1.35711E+02 2.86750E+01 0.00000E+00
 -1      3634 1.34412E+02 2.79500E+01 0.00000E+00
 -1      3635 1.35711E+02 3.01500E+01 0.00000E+00
 -1      3636 3.91190E+01 2.28135E+01 0.00000E+00
 -1      3637 3.98240E+01 2.37526E+01 0.00000E+00
 -1      3638 3.96345E+01 2.17310E+01 0.00000E+00
 -1      3639 3.94049E+01 1.93434E+01 0.00000E+00
 -1      3640 3.73636E+01 1.39939E+01 0.00000E+00
 -1      3641 4.07076E+01 1.61529E+01 0.00000E+00
 -1      3642 1.35702E+02 3.44641E+01 0.00000E+00
 -1      3643 1.34487E+02 3.39265E+01 0.00000E+00
 -1      3644 1.35795E+02 3.32874E+01 0.00000E+00
 -1      3645 1.35795E+02 3.18124E+01 0.00000E+00
 -1      3646 1.33365E+02 3.36872E+01 0.00000E+00
 -1      3647 4.01724E+01 2.59408E+01 0.00000E+00
 -1      3648 3.96977E+01 2.72760E+01 0.00000E+00
 -1      3649 4.05616E+01 2.83816E+01 0.00000E+00
 -1      3650 4.29000E+01 3.33256E+01 0.00000E+00
 -1      3651 4.44000E+01 3.33256E+01 0.00000E+00
 -1      3652 4.59000E+01 3.33256E+01 0.00000E+00
 -1      3653 4.74000E+01 3.33256E+01 0.00000E+00
 -1      3654 4.51500E+01 3.20266E+01 0.00000E+00
 -1      3655 4.89000E+01 3.33256E+01 0.00000E+00
 -1      3656 5.04000E+01 3.33256E+01 0.00000E+00
 -1      3657 4.81500E+01 3.20266E+01 0.00000E+00
 -1      3658 5.19000E+01 3.33256E+01 0.00000E+00
 -1      3659 5.34000E+01 3.33256E+01 0.00000E+00
 -1      3660 5.11500E+01 3.20266E+01 0.00000E+00
 -1      3661 5.49000E+01 3.33256E+01 0.00000E+00
 -1      3662 5.64000E+01 3.33256E+01 0.00000E+00
 -1      3663 5.41500E+01 3.20266E+01 0.00000E+00
 -1      3664 5.79000E+01 3.33256E+01 0.00000E+00
 -1      3665 5.94000E+01 3.33256E+01 0.00000E+00
 -1      3666 5.71500E+01 3.20266E+01 0.00000E+00
 -1      3667 6.09000E+01 3.33256E+01 0.00000E+00
 -1      3668 6.24000E+01 3.33256E+01 0.00000E+00
 -1      3669 6.01500E+01 3.20266E+01 0.00000E+00
 -1      3670 6.39000E+01 3.33256E+01 0.00000E+00
 -1      3671 6.54000E+01 3.33256E+01 0.00000E+00
 -1      3672 6.31500E+01 3.20266E+01 0.00000E+00
 -1      3673 6.69000E+01 3.33256E+01 0.00000E+00
 -1      3674 6.84000E+01 3.33256E+01 0.00000E+00
 -1      3675 6.61500E+01 3.20266E+01 0.00000E+00
 -1      3676 6.99000E+01 3.33256E+01 0.00000E+00
 -1      3677 7.14000E+01 3.33256E+01 0.00000E+00
 -1      3678 6.91500E+01 3.20266E+01 0.00000E+00
 -1      3679 7.29000E+01 3.33256E+01 0.00000E+00
 -1      3680 7.44000E+01 3.33256E+01 0.00000E+00
 -1      3681 7.21500E+01 3.20266E+01 0.00000E+00
 -1      3682 7.59000E+01 3.33256E+01 0.00000E+00
 -1      3683 7.74000E+01 3.33256E+01 0.00000E+00
 -1      3684 7.51500E+01 3.20266E+01 0.00000E+00
 -1      3685 7.89000E+01 3.33256E+01 0.00000E+00
 -1      3686 8.04000E+01 3.33256E+01 0.00000E+00
 -1      3687 7.81500E+01 3.20266E+01 0.00000E+00
 -1      3688 8.19000E+01 3.33256E+01 0.00000E+00
 -1      3689 8.34000E+01 3.33256E+01 0.00000E+00
 -1      3690 8.11500E+01 3.20266E+01 0.00000E+00
 -1      3691 8.49000E+01 3.33256E+01 0.00000E+00
 -1      3692 8.64000E+01 3.33256E+01 0.00000E+00
 -1      3693 8.41500E+01 3.20266E+01 0.00000E+00
 -1      3694 8.79000E+01 3.33256E+01 0.00000E+00
 -1      3695 8.94000E+01 3.33256E+01 0.00000E+00
 -1      3696 8.71500E+01 3.20266E+01 0.00000E+00
 -1      3697 9.09000E+01 3.33256E+01 0.00000E+00
 -1      3698 9.24000E+01 3.33256E+01 0.00000E+00
 -1      3699 9.01500E+01 3.20266E+01 0.00000E+00
 -1      3700 9.39000E+01 3.33256E+01 0.00000E+00
 -1      3701 9.54000E+01 3.33256E+01 0.00000E+00
 -1      3702 9.31500E+01 3.20266E+01 0.00000E+00
 -1      3703 9.69000E+01 3.33256E+01 0.00000E+00
 -1      3704 9.84000E+01 3.33256E+01 0.00000E+00
 -1      3705 9.61500E+01 3.20266E+01 0.00000E+00
 -1      3706 9.99000E+01 3.33256E+01 0.00000E+00
 -1      3707 1.01400E+02 3.33256E+01 0.00000E+00
 -1      3708 9.91500E+01 3.20266E+01 0.00000E+00
 -1      3709 1.02900E+02 3.33256E+01 0.00000E+00
 -1      3710 1.04400E+02 3.33256E+01 0.00000E+00
 -1      3711 1.02150E+02 3.20266E+01 0.00000E+00
 -1      3712 1.05900E+02 3.33256E+01 0.00000E+00
 -1      3713 1.07400E+02 3.33256E+01 0.00000E+00
 -1      3714 1.05150E+02 3.20266E+01 0.00000E+00
 -1      3715 1.08900E+02 3.33256E+01 0.00000E+00
 -1      3716 1.10400E+02 3.33256E+01 0.00000E+00
 -1      3717 1.08150E+02 3.20266E+01 0.00000E+00
 -1      3718 1.11900E+02 3.33256E+01 0.00000E+00
 -1      3719 1.13400E+02 3.33256E+01 0.00000E+00
 -1      3720 1.11150E+02 3.20266E+01 0.00000E+00
 -1      3721 1.14900E+02 3.33256E+01 0.00000E+00
 -1      3722 1.16400E+02 3.33256E+01 0.00000E+00
 -1      3723 1.14150E+02 3.20266E+01 0.00000E+00
 -1      3724 1.17900E+02 3.33256E+01 0.00000E+00
 -1      3725 1.19400E+02 3.33256E+01 0.00000E+00
 -1      3726 1.17150E+02 3.20266E+01 0.00000E+00
 -1      3727 1.20900E+02 3.33256E+01 0.00000E+00
 -1      3728 1.22400E+02 3.33256E+01 0.00000E+00
 -1      3729 1.20150E+02 3.20266E+01 0.00000E+00
 -1      3730 1.23900E+02 3.33256E+01 0.00000E+00
 -1      3731 1.25400E+02 3.33256E+01 0.00000E+00
 -1      3732 1.23150E+02 3.20266E+01 0.00000E+00
 -1      3733 1.26900E+02 3.33256E+01 0.00000E+00
 -1      3734 1.28400E+02 3.33256E+01 0.00000E+00
 -1      3735 1.26150E+02 3.20266E+01 0.00000E+00
 -1      3736 1.29900E+02 3.33256E+01 0.00000E+00
 -1      3737 1.31400E+02 3.33256E+01 0.00000E+00
 -1      3738 1.29150E+02 3.20266E+01 0.00000E+00
 -1      3739 5.57850E+01 1.57098E+01 0.00000E+00
 -1      3740 5.42850E+01 1.57098E+01 0.00000E+00
 -1      3741 5.27850E+01 1.57098E+01 0.00000E+00
 -1      3742 5.12850E+01 1.57098E+01 0.00000E+00
 -1      3743 5.35350E+01 1.70088E+01 0.00000E+00
 -1      3744 6.17850E+01 1.57098E+01 0.00000E+00
 -1      3745 6.02850E+01 1.57098E+01 0.00000E+00
 -1      3746 6.47850E+01 1.57098E+01 0.00000E+00
 -1      3747 6.32850E+01 1.57098E+01 0.00000E+00
 -1      3748 6.25350E+01 1.70088E+01 0.00000E+00
 -1      3749 6.77850E+01 1.57098E+01 0.00000E+00
 -1      3750 6.62850E+01 1.57098E+01 0.00000E+00
 -1      3751 6.55350E+01 1.70088E+01 0.00000E+00
 -1      3752 7.07850E+01 1.57098E+01 0.00000E+00
 -1      3753 6.92850E+01 1.57098E+01 0.00000E+00
 -1      3754 6.85350E+01 1.70088E+01 0.00000E+00
 -1      3755 7.37850E+01 1.57098E+01 0.00000E+00
 -1      3756 7.22850E+01 1.57098E+01 0.00000E+00
 -1      3757 7.15350E+01 1.70088E+01 0.00000E+00
 -1      3758 7.67850E+01 1.57098E+01 0.00000E+00
 -1      3759 7.52850E+01 1.57098E+01 0.00000E+00
 -1      3760 7.45350E+01 1.70088E+01 0.00000E+00
 -1      3761 7.97850E+01 1.57098E+01 0.00000E+00
 -1      3762 7.82850E+01 1.57098E+01 0.00000E+00
 -1      3763 7.75350E+01 1.70088E+01 0.00000E+00
 -1      3764 8.27850E+01 1.57098E+01 0.00000E+00
 -1      3765 8.12850E+01 1.57098E+01 0.00000E+00
 -1      3766 8.05350E+01 1.70088E+01 0.00000E+00
 -1      3767 8.57850E+01 1.57098E+01 0.00000E+00
 -1      3768 8.42850E+01 1.57098E+01 0.00000E+00
 -1      3769 8.35350E+01 1.70088E+01 0.00000E+00
 -1      3770 8.87850E+01 1.57098E+01 0.00000E+00
 -1      3771 8.72850E+01 1.57098E+01 0.00000E+00
 -1      3772 8.65350E+01 1.70088E+01 0.00000E+00
 -1      3773 9.17850E+01 1.57098E+01 0.00000E+00
 -1      3774 9.02850E+01 1.57098E+01 0.00000E+00
 -1      3775 8.95350E+01 1.70088E+01 0.00000E+00
 -1      3776 9.47850E+01 1.57098E+01 0.00000E+00
 -1      3777 9.32850E+01 1.57098E+01 0.00000E+00
 -1      3778 9.25350E+01 1.70088E+01 0.00000E+00
 -1      3779 9.77850E+01 1.57098E+01 0.00000E+00
 -1      3780 9.62850E+01 1.57098E+01 0.00000E+00
 -1      3781 9.55350E+01 1.70088E+01 0.00000E+00
 -1      3782 1.00785E+02 1.57098E+01 0.00000E+00
 -1      3783 9.92850E+01 1.57098E+01 0.00000E+00
 -1      3784 9.85350E+01 1.70088E+01 0.00000E+00
 -1      3785 1.03785E+02 1.57098E+01 0.00000E+00
 -1      3786 1.02285E+02 1.57098E+01 0.00000E+00
 -1      3787 1.01535E+02 1.70088E+01 0.00000E+00
 -1      3788 1.06785E+02 1.57098E+01 0.00000E+00
 -1      3789 1.05285E+02 1.57098E+01 0.00000E+00
 -1      3790 1.04535E+02 1.70088E+01 0.00000E+00
 -1      3791 1.09785E+02 1.57098E+01 0.00000E+00
 -1      3792 1.08285E+02 1.57098E+01 0.00000E+00
 -1      3793 1.07535E+02 1.70088E+01 0.00000E+00
 -1      3794 1.12785E+02 1.57098E+01 0.00000E+00
 -1      3795 1.11285E+02 1.57098E+01 0.00000E+00
 -1      3796 1.10535E+02 1.70088E+01 0.00000E+00
 -1      3797 1.15785E+02 1.57098E+01 0.00000E+00
 -1      3798 1.14285E+02 1.57098E+01 0.00000E+00
 -1      3799 1.13535E+02 1.70088E+01 0.00000E+00
 -1      3800 1.18785E+02 1.57098E+01 0.00000E+00
 -1      3801 1.17285E+02 1.57098E+01 0.00000E+00
 -1      3802 1.16535E+02 1.70088E+01 0.00000E+00
 -1      3803 1.21785E+02 1.57098E+01 0.00000E+00
 -1      3804 1.20285E+02 1.57098E+01 0.00000E+00
 -1      3805 1.19535E+02 1.70088E+01 0.00000E+00
 -1      3806 1.24785E+02 1.57098E+01 0.00000E+00
 -1      3807 1.23285E+02 1.57098E+01 0.00000E+00
 -1      3808 1.22535E+02 1.70088E+01 0.00000E+00
 -1      3809 1.27785E+02 1.57098E+01 0.00000E+00
 -1      3810 1.26285E+02 1.57098E+01 0.00000E+00
 -1      3811 1.25535E+02 1.70088E+01 0.00000E+00
 -1      3812 1.30785E+02 1.57098E+01 0.00000E+00
 -1      3813 1.29285E+02 1.57098E+01 0.00000E+00
 -1      3814 1.28535E+02 1.70088E+01 0.00000E+00
 -1      3815 1.33410E+02 1.57978E+01 0.00000E+00
 -1      3816 1.31910E+02 1.57978E+01 0.00000E+00
 -1      3817 1.31160E+02 1.70968E+01 0.00000E+00
 -1      3818 1.33410E+02 1.72728E+01 0.00000E+00
 -1      3819 4.08554E+01 1.90173E+01 0.00000E+00
 -1      3820 4.03800E+01 2.04657E+01 0.00000E+00
 -1      3821 4.97850E+01 1.57098E+01 0.00000E+00
 -1      3822 4.82850E+01 1.57098E+01 0.00000E+00
 -1      3823 5.05350E+01 1.70088E+01 0.00000E+00
 -1      3824 3.90658E+01 3.29168E+01 0.00000E+00
 -1      3825 5.87850E+01 1.57098E+01 0.00000E+00
 -1      3826 5.72850E+01 1.57098E+01 0.00000E+00
 -1      3827 5.95350E+01 1.70088E+01 0.00000E+00
 -1      3828 4.02329E+01 3.31212E+01 0.00000E+00
 -1      3829 4.17329E+01 3.31212E+01 0.00000E+00
 -1      3830 4.24829E+01 3.18222E+01 0.00000E+00
 -1      3831 4.01488E+01 3.14133E+01 0.00000E+00
 -1      3832 4.23589E+01 1.58430E+01 0.00000E+00
 -1      3833 4.15315E+01 1.75851E+01 0.00000E+00
 -1      3834 4.25066E+01 1.87074E+01 0.00000E+00
 -1      3835 4.38589E+01 1.58430E+01 0.00000E+00
 -1      3836 1.35711E+02 2.13344E+01 0.00000E+00
 -1      3837 1.35711E+02 1.98625E+01 0.00000E+00
 -1      3838 1.34412E+02 2.20594E+01 0.00000E+00
 -1      3839 4.10850E+01 2.14048E+01 0.00000E+00
 -1      3840 1.34496E+02 3.10874E+01 0.00000E+00
 -1      3841 1.32615E+02 3.23882E+01 0.00000E+00
 -1      3842 5.65350E+01 1.70088E+01 0.00000E+00
 -1      3843 1.34473E+02 1.89741E+01 0.00000E+00
 -1      3844 4.06879E+01 2.48582E+01 0.00000E+00
 -1      3845 4.15519E+01 2.59638E+01 0.00000E+00
 -1      3846 4.12035E+01 2.37756E+01 0.00000E+00
 -1      3847 4.68219E+01 1.57764E+01 0.00000E+00
 -1      3848 4.53219E+01 1.57764E+01 0.00000E+00
 -1      3849 4.46458E+01 1.72086E+01 0.00000E+00
 -1      3850 4.75719E+01 1.70754E+01 0.00000E+00
 -1      3851 1.33113E+02 2.86875E+01 0.00000E+00
 -1      3852 1.33113E+02 2.72125E+01 0.00000E+00
 -1      3853 4.07013E+01 3.06673E+01 0.00000E+00
 -1      3854 1.33113E+02 2.57406E+01 0.00000E+00
 -1      3855 1.33113E+02 2.42687E+01 0.00000E+00
 -1      3856 1.31814E+02 2.64781E+01 0.00000E+00
 -1      3857 4.26944E+01 2.12452E+01 0.00000E+00
 -1      3858 4.19490E+01 2.25104E+01 0.00000E+00
 -1      3859 4.28129E+01 2.36159E+01 0.00000E+00
 -1      3860 1.32531E+02 3.07258E+01 0.00000E+00
 -1      3861 1.31232E+02 2.99883E+01 0.00000E+00
 -1      3862 4.74000E+01 3.07276E+01 0.00000E+00
 -1      3863 4.89000E+01 3.07276E+01 0.00000E+00
 -1      3864 5.04000E+01 3.07276E+01 0.00000E+00
 -1      3865 5.19000E+01 3.07276E+01 0.00000E+00
 -1      3866 4.96500E+01 2.94286E+01 0.00000E+00
 -1      3867 5.34000E+01 3.07276E+01 0.00000E+00
 -1      3868 5.49000E+01 3.07276E+01 0.00000E+00
 -1      3869 5.26500E+01 2.94286E+01 0.00000E+00
 -1      3870 5.64000E+01 3.07276E+01 0.00000E+00
 -1      3871 5.79000E+01 3.07276E+01 0.00000E+00
 -1      3872 5.56500E+01 2.94286E+01 0.00000E+00
 -1      3873 5.94000E+01 3.07276E+01 0.00000E+00
 -1      3874 6.09000E+01 3.07276E+01 0.00000E+00
 -1      3875 5.86500E+01 2.94286E+01 0.00000E+00
 -1      3876 6.24000E+01 3.07276E+01 0.00000E+00
 -1      3877 6.39000E+01 3.07276E+01 0.00000E+00
 -1      3878 6.16500E+01 2.94286E+01 0.00000E+00
 -1      3879 6.54000E+01 3.07276E+01 0.00000E+00
 -1      3880 6.69000E+01 3.07276E+01 0.00000E+00
 -1      3881 6.46500E+01 2.94286E+01 0.00000E+00
 -1      3882 6.84000E+01 3.07276E+01 0.00000E+00
 -1      3883 6.99000E+01 3.07276E+01 0.00000E+00
 -1      3884 6.76500E+01 2.94286E+01 0.00000E+00
 -1      3885 7.14000E+01 3.07276E+01 0.00000E+00
 -1      3886 7.29000E+01 3.07276E+01 0.00000E+00
 -1      3887 7.06500E+01 2.94286E+01 0.00000E+00
 -1      3888 7.44000E+01 3.07276E+01 0.00000E+00
 -1      3889 7.59000E+01 3.07276E+01 0.00000E+00
 -1      3890 7.36500E+01 2.94286E+01 0.00000E+00
 -1      3891 7.74000E+01 3.07276E+01 0.00000E+00
 -1      3892 7.89000E+01 3.07276E+01 0.00000E+00
 -1      3893 7.66500E+01 2.94286E+01 0.00000E+00
 -1      3894 8.04000E+01 3.07276E+01 0.00000E+00
 -1      3895 8.19000E+01 3.07276E+01 0.00000E+00
 -1      3896 7.96500E+01 2.94286E+01 0.00000E+00
 -1      3897 8.34000E+01 3.07276E+01 0.00000E+00
 -1      3898 8.49000E+01 3.07276E+01 0.00000E+00
 -1      3899 8.26500E+01 2.94286E+01 0.00000E+00
 -1      3900 8.64000E+01 3.07276E+01 0.00000E+00
 -1      3901 8.79000E+01 3.07276E+01 0.00000E+00
 -1      3902 8.56500E+01 2.94286E+01 0.00000E+00
 -1      3903 8.94000E+01 3.07276E+01 0.00000E+00
 -1      3904 9.09000E+01 3.07276E+01 0.00000E+00
 -1      3905 8.86500E+01 2.94286E+01 0.00000E+00
 -1      3906 9.24000E+01 3.07276E+01 0.00000E+00
 -1      3907 9.39000E+01 3.07276E+01 0.00000E+00
 -1      3908 9.16500E+01 2.94286E+01 0.00000E+00
 -1      3909 9.54000E+01 3.07276E+01 0.00000E+00
 -1      3910 9.69000E+01 3.07276E+01 0.00000E+00
 -1      3911 9.46500E+01 2.94286E+01 0.00000E+00
 -1      3912 9.84000E+01 3.07276E+01 0.00000E+00
 -1      3913 9.99000E+01 3.07276E+01 0.00000E+00
 -1      3914 9.76500E+01 2.94286E+01 0.00000E+00
 -1      3915 1.01400E+02 3.07276E+01 0.00000E+00
 -1      3916 1.02900E+02 3.07276E+01 0.00000E+00
 -1      3917 1.00650E+02 2.94286E+01 0.00000E+00
 -1      3918 1.04400E+02 3.07276E+01 0.00000E+00
 -1      3919 1.05900E+02 3.07276E+01 0.00000E+00
 -1      3920 1.03650E+02 2.94286E+01 0.00000E+00
 -1      3921 1.07400E+02 3.07276E+01 0.00000E+00
 -1      3922 1.08900E+02 3.07276E+01 0.00000E+00
 -1      3923 1.06650E+02 2.94286E+01 0.00000E+00
 -1      3924 1.10400E+02 3.07276E+01 0.00000E+00
 -1      3925 1.11900E+02 3.07276E+01 0.00000E+00
 -1      3926 1.09650E+02 2.94286E+01 0.00000E+00
 -1      3927 1.13400E+02 3.07276E+01 0.00000E+00
 -1      3928 1.14900E+02 3.07276E+01 0.00000E+00
 -1      3929 1.12650E+02 2.94286E+01 0.00000E+00
 -1      3930 1.16400E+02 3.07276E+01 0.00000E+00
 -1      3931 1.17900E+02 3.07276E+01 0.00000E+00
 -1      3932 1.15650E+02 2.94286E+01 0.00000E+00
 -1      3933 1.19400E+02 3.07276E+01 0.00000E+00
 -1      3934 1.20900E+02 3.07276E+01 0.00000E+00
 -1      3935 1.18650E+02 2.94286E+01 0.00000E+00
 -1      3936 1.22400E+02 3.07276E+01 0.00000E+00
 -1      3937 1.23900E+02 3.07276E+01 0.00000E+00
 -1      3938 1.21650E+02 2.94286E+01 0.00000E+00
 -1      3939 1.25400E+02 3.07276E+01 0.00000E+00
 -1      3940 1.26900E+02 3.07276E+01 0.00000E+00
 -1      3941 1.24650E+02 2.94286E+01 0.00000E+00
 -1      3942 1.28316E+02 3.03580E+01 0.00000E+00
 -1      3943 1.29816E+02 3.03580E+01 0.00000E+00
 -1      3944 1.30398E+02 2.83197E+01 0.00000E+00
 -1      3945 1.27566E+02 2.90590E+01 0.00000E+00
 -1      3946 5.42850E+01 1.83078E+01 0.00000E+00
 -1      3947 5.27850E+01 1.83078E+01 0.00000E+00
 -1      3948 6.62850E+01 1.83078E+01 0.00000E+00
 -1      3949 6.47850E+01 1.83078E+01 0.00000E+00
 -1      3950 6.32850E+01 1.83078E+01 0.00000E+00
 -1      3951 6.17850E+01 1.83078E+01 0.00000E+00
 -1      3952 6.40350E+01 1.96068E+01 0.00000E+00
 -1      3953 7.22850E+01 1.83078E+01 0.00000E+00
 -1      3954 7.07850E+01 1.83078E+01 0.00000E+00
 -1      3955 7.52850E+01 1.83078E+01 0.00000E+00
 -1      3956 7.37850E+01 1.83078E+01 0.00000E+00
 -1      3957 7.30350E+01 1.96068E+01 0.00000E+00
 -1      3958 7.82850E+01 1.83078E+01 0.00000E+00
 -1      3959 7.67850E+01 1.83078E+01 0.00000E+00
 -1      3960 7.60350E+01 1.96068E+01 0.00000E+00
 -1      3961 8.12850E+01 1.83078E+01 0.00000E+00
 -1      3962 7.97850E+01 1.83078E+01 0.00000E+00
 -1      3963 7.90350E+01 1.96068E+01 0.00000E+00
 -1      3964 8.42850E+01 1.83078E+01 0.00000E+00
 -1      3965 8.27850E+01 1.83078E+01 0.00000E+00
 -1      3966 8.20350E+01 1.96068E+01 0.00000E+00
 -1      3967 8.72850E+01 1.83078E+01 0.00000E+00
 -1      3968 8.57850E+01 1.83078E+01 0.00000E+00
 -1      3969 8.50350E+01 1.96068E+01 0.00000E+00
 -1      3970 9.02850E+01 1.83078E+01 0.00000E+00
 -1      3971 8.87850E+01 1.83078E+01 0.00000E+00
 -1      3972 8.80350E+01 1.96068E+01 0.00000E+00
 -1      3973 9.32850E+01 1.83078E+01 0.00000E+00
 -1      3974 9.17850E+01 1.83078E+01 0.00000E+00
 -1      3975 9.10350E+01 1.96068E+01 0.00000E+00
 -1      3976 9.62850E+01 1.83078E+01 0.00000E+00
 -1      3977 9.47850E+01 1.83078E+01 0.00000E+00
 -1      3978 9.40350E+01 1.96068E+01 0.00000E+00
 -1      3979 9.92850E+01 1.83078E+01 0.00000E+00
 -1      3980 9.77850E+01 1.83078E+01 0.00000E+00
 -1      3981 9.70350E+01 1.96068E+01 0.00000E+00
 -1      3982 1.02285E+02 1.83078E+01 0.00000E+00
 -1      3983 1.00785E+02 1.83078E+01 0.00000E+00
 -1      3984 1.00035E+02 1.96068E+01 0.00000E+00
 -1      3985 1.05285E+02 1.83078E+01 0.00000E+00
 -1      3986 1.03785E+02 1.83078E+01 0.00000E+00
 -1      3987 1.03035E+02 1.96068E+01 0.00000E+00
 -1      3988 1.08285E+02 1.83078E+01 0.00000E+00
 -1      3989 1.06785E+02 1.83078E+01 0.00000E+00
 -1      3990 1.06035E+02 1.96068E+01 0.00000E+00
 -1      3991 1.11285E+02 1.83078E+01 0.00000E+00
 -1      3992 1.09785E+02 1.83078E+01 0.00000E+00
 -1      3993 1.09035E+02 1.96068E+01 0.00000E+00
 -1      3994 1.14285E+02 1.83078E+01 0.00000E+00
 -1      3995 1.12785E+02 1.83078E+01 0.00000E+00
 -1      3996 1.12035E+02 1.96068E+01 0.00000E+00
 -1      3997 1.17285E+02 1.83078E+01 0.00000E+00
 -1      3998 1.15785E+02 1.83078E+01 0.00000E+00
 -1      3999 1.15035E+02 1.96068E+01 0.00000E+00
 -1      4000 1.20285E+02 1.83078E+01 0.00000E+00
 -1      4001 1.18785E+02 1.83078E+01 0.00000E+00
 -1      4002 1.18035E+02 1.96068E+01 0.00000E+00
 -1      4003 1.23285E+02 1.83078E+01 0.00000E+00
 -1      4004 1.21785E+02 1.83078E+01 0.00000E+00
 -1      4005 1.21035E+02 1.96068E+01 0.00000E+00
 -1      4006 1.26285E+02 1.83078E+01 0.00000E+00
 -1      4007 1.24785E+02 1.83078E+01 0.00000E+00
 -1      4008 1.24035E+02 1.96068E+01 0.00000E+00
 -1      4009 1.29285E+02 1.83078E+01 0.00000E+00
 -1      4010 1.27785E+02 1.83078E+01 0.00000E+00
 -1      4011 1.27035E+02 1.96068E+01 0.00000E+00
 -1      4012 1.33113E+02 2.27969E+01 0.00000E+00
 -1      4013 1.33113E+02 2.13250E+01 0.00000E+00
 -1      4014 1.31814E+02 2.35344E+01 0.00000E+00
 -1      4015 5.12850E+01 1.83078E+01 0.00000E+00
 -1      4016 4.97850E+01 1.83078E+01 0.00000E+00
 -1      4017 5.20350E+01 1.96068E+01 0.00000E+00
 -1      4018 4.44000E+01 3.07276E+01 0.00000E+00
 -1      4019 4.59000E+01 3.07276E+01 0.00000E+00
 -1      4020 4.66500E+01 2.94286E+01 0.00000E+00
 -1      4021 6.92850E+01 1.83078E+01 0.00000E+00
 -1      4022 6.77850E+01 1.83078E+01 0.00000E+00
 -1      4023 6.70350E+01 1.96068E+01 0.00000E+00
 -1      4024 4.19671E+01 3.05952E+01 0.00000E+00
 -1      4025 4.31342E+01 3.07997E+01 0.00000E+00
 -1      4026 4.38842E+01 2.95007E+01 0.00000E+00
 -1      4027 4.13526E+01 2.96448E+01 0.00000E+00
 -1      4028 6.02850E+01 1.83078E+01 0.00000E+00
 -1      4029 5.87850E+01 1.83078E+01 0.00000E+00
 -1      4030 6.10350E+01 1.96068E+01 0.00000E+00
 -1      4031 1.33231E+02 2.01056E+01 0.00000E+00
 -1      4032 1.33292E+02 1.84922E+01 0.00000E+00
 -1      4033 1.32167E+02 1.84042E+01 0.00000E+00
 -1      4034 1.31932E+02 2.08431E+01 0.00000E+00
 -1      4035 4.18274E+01 2.83095E+01 0.00000E+00
 -1      4036 5.72850E+01 1.83078E+01 0.00000E+00
 -1      4037 5.57850E+01 1.83078E+01 0.00000E+00
 -1      4038 5.50350E+01 1.96068E+01 0.00000E+00
 -1      4039 1.28982E+02 2.72174E+01 0.00000E+00
 -1      4040 1.30398E+02 2.68478E+01 0.00000E+00
 -1      4041 1.30398E+02 2.53759E+01 0.00000E+00
 -1      4042 7.00350E+01 1.96068E+01 0.00000E+00
 -1      4043 4.23225E+01 2.71006E+01 0.00000E+00
 -1      4044 4.31136E+01 2.83638E+01 0.00000E+00
 -1      4045 4.43793E+01 2.82917E+01 0.00000E+00
 -1      4046 4.28381E+01 2.60180E+01 0.00000E+00
 -1      4047 1.31042E+02 1.83162E+01 0.00000E+00
 -1      4048 1.30292E+02 1.96152E+01 0.00000E+00
 -1      4049 4.40082E+01 1.85108E+01 0.00000E+00
 -1      4050 4.33321E+01 1.99430E+01 0.00000E+00
 -1      4051 4.41960E+01 2.10485E+01 0.00000E+00
 -1      4052 4.54712E+01 1.84442E+01 0.00000E+00
 -1      4053 4.83596E+01 1.83426E+01 0.00000E+00
 -1      4054 4.68966E+01 1.84093E+01 0.00000E+00
 -1      4055 4.62590E+01 1.97114E+01 0.00000E+00
 -1      4056 4.91096E+01 1.96416E+01 0.00000E+00
 -1      4057 5.80350E+01 1.96068E+01 0.00000E+00
 -1      4058 7.97850E+01 2.09058E+01 0.00000E+00
 -1      4059 7.82850E+01 2.09058E+01 0.00000E+00
 -1      4060 4.58793E+01 2.82917E+01 0.00000E+00
 -1      4061 4.73793E+01 2.82917E+01 0.00000E+00
 -1      4062 4.51087E+01 2.71549E+01 0.00000E+00
 -1      4063 6.47850E+01 2.09058E+01 0.00000E+00
 -1      4064 6.32850E+01 2.09058E+01 0.00000E+00
 -1      4065 5.19000E+01 2.81296E+01 0.00000E+00
 -1      4066 5.34000E+01 2.81296E+01 0.00000E+00
 -1      4067 5.49000E+01 2.81296E+01 0.00000E+00
 -1      4068 5.64000E+01 2.81296E+01 0.00000E+00
 -1      4069 5.41500E+01 2.68306E+01 0.00000E+00
 -1      4070 5.79000E+01 2.81296E+01 0.00000E+00
 -1      4071 5.94000E+01 2.81296E+01 0.00000E+00
 -1      4072 5.71500E+01 2.68306E+01 0.00000E+00
 -1      4073 6.09000E+01 2.81296E+01 0.00000E+00
 -1      4074 6.24000E+01 2.81296E+01 0.00000E+00
 -1      4075 6.01500E+01 2.68306E+01 0.00000E+00
 -1      4076 6.39000E+01 2.81296E+01 0.00000E+00
 -1      4077 6.54000E+01 2.81296E+01 0.00000E+00
 -1      4078 6.31500E+01 2.68306E+01 0.00000E+00
 -1      4079 6.69000E+01 2.81296E+01 0.00000E+00
 -1      4080 6.84000E+01 2.81296E+01 0.00000E+00
 -1      4081 6.61500E+01 2.68306E+01 0.00000E+00
 -1      4082 6.99000E+01 2.81296E+01 0.00000E+00
 -1      4083 7.14000E+01 2.81296E+01 0.00000E+00
 -1      4084 6.91500E+01 2.68306E+01 0.00000E+00
 -1      4085 7.29000E+01 2.81296E+01 0.00000E+00
 -1      4086 7.44000E+01 2.81296E+01 0.00000E+00
 -1      4087 7.21500E+01 2.68306E+01 0.00000E+00
 -1      4088 7.59000E+01 2.81296E+01 0.00000E+00
 -1      4089 7.74000E+01 2.81296E+01 0.00000E+00
 -1      4090 7.51500E+01 2.68306E+01 0.00000E+00
 -1      4091 7.89000E+01 2.81296E+01 0.00000E+00
 -1      4092 8.04000E+01 2.81296E+01 0.00000E+00
 -1      4093 7.81500E+01 2.68306E+01 0.00000E+00
 -1      4094 8.19000E+01 2.81296E+01 0.00000E+00
 -1      4095 8.34000E+01 2.81296E+01 0.00000E+00
 -1      4096 8.11500E+01 2.68306E+01 0.00000E+00
 -1      4097 8.49000E+01 2.81296E+01 0.00000E+00
 -1      4098 8.64000E+01 2.81296E+01 0.00000E+00
 -1      4099 8.41500E+01 2.68306E+01 0.00000E+00
 -1      4100 8.79000E+01 2.81296E+01 0.00000E+00
 -1      4101 8.94000E+01 2.81296E+01 0.00000E+00
 -1      4102 8.71500E+01 2.68306E+01 0.00000E+00
 -1      4103 9.09000E+01 2.81296E+01 0.00000E+00
 -1      4104 9.24000E+01 2.81296E+01 0.00000E+00
 -1      4105 9.01500E+01 2.68306E+01 0.00000E+00
 -1      4106 9.39000E+01 2.81296E+01 0.00000E+00
 -1      4107 9.54000E+01 2.81296E+01 0.00000E+00
 -1      4108 9.31500E+01 2.68306E+01 0.00000E+00
 -1      4109 9.69000E+01 2.81296E+01 0.00000E+00
 -1      4110 9.84000E+01 2.81296E+01 0.00000E+00
 -1      4111 9.61500E+01 2.68306E+01 0.00000E+00
 -1      4112 9.99000E+01 2.81296E+01 0.00000E+00
 -1      4113 1.01400E+02 2.81296E+01 0.00000E+00
 -1      4114 9.91500E+01 2.68306E+01 0.00000E+00
 -1      4115 1.02900E+02 2.81296E+01 0.00000E+00
 -1      4116 1.04400E+02 2.81296E+01 0.00000E+00
 -1      4117 1.02150E+02 2.68306E+01 0.00000E+00
 -1      4118 1.05900E+02 2.81296E+01 0.00000E+00
 -1      4119 1.07400E+02 2.81296E+01 0.00000E+00
 -1      4120 1.05150E+02 2.68306E+01 0.00000E+00
 -1      4121 1.08900E+02 2.81296E+01 0.00000E+00
 -1      4122 1.10400E+02 2.81296E+01 0.00000E+00
 -1      4123 1.08150E+02 2.68306E+01 0.00000E+00
 -1      4124 1.11900E+02 2.81296E+01 0.00000E+00
 -1      4125 1.13400E+02 2.81296E+01 0.00000E+00
 -1      4126 1.11150E+02 2.68306E+01 0.00000E+00
 -1      4127 1.14900E+02 2.81296E+01 0.00000E+00
 -1      4128 1.16400E+02 2.81296E+01 0.00000E+00
 -1      4129 1.14150E+02 2.68306E+01 0.00000E+00
 -1      4130 1.17900E+02 2.81296E+01 0.00000E+00
 -1      4131 1.19400E+02 2.81296E+01 0.00000E+00
 -1      4132 1.17150E+02 2.68306E+01 0.00000E+00
 -1      4133 1.20900E+02 2.81296E+01 0.00000E+00
 -1      4134 1.22400E+02 2.81296E+01 0.00000E+00
 -1      4135 1.20150E+02 2.68306E+01 0.00000E+00
 -1      4136 1.23900E+02 2.81296E+01 0.00000E+00
 -1      4137 1.25400E+02 2.81296E+01 0.00000E+00
 -1      4138 1.23150E+02 2.68306E+01 0.00000E+00
 -1      4139 1.26483E+02 2.78583E+01 0.00000E+00
 -1      4140 1.27899E+02 2.74887E+01 0.00000E+00
 -1      4141 1.27899E+02 2.60168E+01 0.00000E+00
 -1      4142 1.25733E+02 2.65593E+01 0.00000E+00
 -1      4143 4.89000E+01 2.81296E+01 0.00000E+00
 -1      4144 5.04000E+01 2.81296E+01 0.00000E+00
 -1      4145 5.11500E+01 2.68306E+01 0.00000E+00
 -1      4146 1.30174E+02 2.08346E+01 0.00000E+00
 -1      4147 7.67850E+01 2.09058E+01 0.00000E+00
 -1      4148 7.52850E+01 2.09058E+01 0.00000E+00
 -1      4149 7.75350E+01 2.22048E+01 0.00000E+00
 -1      4150 7.37850E+01 2.09058E+01 0.00000E+00
 -1      4151 7.22850E+01 2.09058E+01 0.00000E+00
 -1      4152 7.45350E+01 2.22048E+01 0.00000E+00
 -1      4153 8.27850E+01 2.09058E+01 0.00000E+00
 -1      4154 8.12850E+01 2.09058E+01 0.00000E+00
 -1      4155 8.05350E+01 2.22048E+01 0.00000E+00
 -1      4156 8.57850E+01 2.09058E+01 0.00000E+00
 -1      4157 8.42850E+01 2.09058E+01 0.00000E+00
 -1      4158 8.35350E+01 2.22048E+01 0.00000E+00
 -1      4159 8.87850E+01 2.09058E+01 0.00000E+00
 -1      4160 8.72850E+01 2.09058E+01 0.00000E+00
 -1      4161 8.65350E+01 2.22048E+01 0.00000E+00
 -1      4162 9.17850E+01 2.09058E+01 0.00000E+00
 -1      4163 9.02850E+01 2.09058E+01 0.00000E+00
 -1      4164 8.95350E+01 2.22048E+01 0.00000E+00
 -1      4165 9.47850E+01 2.09058E+01 0.00000E+00
 -1      4166 9.32850E+01 2.09058E+01 0.00000E+00
 -1      4167 9.25350E+01 2.22048E+01 0.00000E+00
 -1      4168 9.77850E+01 2.09058E+01 0.00000E+00
 -1      4169 9.62850E+01 2.09058E+01 0.00000E+00
 -1      4170 9.55350E+01 2.22048E+01 0.00000E+00
 -1      4171 1.00785E+02 2.09058E+01 0.00000E+00
 -1      4172 9.92850E+01 2.09058E+01 0.00000E+00
 -1      4173 9.85350E+01 2.22048E+01 0.00000E+00
 -1      4174 1.03785E+02 2.09058E+01 0.00000E+00
 -1      4175 1.02285E+02 2.09058E+01 0.00000E+00
 -1      4176 1.01535E+02 2.22048E+01 0.00000E+00
 -1      4177 1.06785E+02 2.09058E+01 0.00000E+00
 -1      4178 1.05285E+02 2.09058E+01 0.00000E+00
 -1      4179 1.04535E+02 2.22048E+01 0.00000E+00
 -1      4180 1.09785E+02 2.09058E+01 0.00000E+00
 -1      4181 1.08285E+02 2.09058E+01 0.00000E+00
 -1      4182 1.07535E+02 2.22048E+01 0.00000E+00
 -1      4183 1.12785E+02 2.09058E+01 0.00000E+00
 -1      4184 1.11285E+02 2.09058E+01 0.00000E+00
 -1      4185 1.10535E+02 2.22048E+01 0.00000E+00
 -1      4186 1.15785E+02 2.09058E+01 0.00000E+00
 -1      4187 1.14285E+02 2.09058E+01 0.00000E+00
 -1      4188 1.13535E+02 2.22048E+01 0.00000E+00
 -1      4189 1.18785E+02 2.09058E+01 0.00000E+00
 -1      4190 1.17285E+02 2.09058E+01 0.00000E+00
 -1      4191 1.16535E+02 2.22048E+01 0.00000E+00
 -1      4192 1.21785E+02 2.09058E+01 0.00000E+00
 -1      4193 1.20285E+02 2.09058E+01 0.00000E+00
 -1      4194 1.19535E+02 2.22048E+01 0.00000E+00
 -1      4195 1.24785E+02 2.09058E+01 0.00000E+00
 -1      4196 1.23285E+02 2.09058E+01 0.00000E+00
 -1      4197 1.22535E+02 2.22048E+01 0.00000E+00
 -1      4198 1.27785E+02 2.09058E+01 0.00000E+00
 -1      4199 1.26285E+02 2.09058E+01 0.00000E+00
 -1      4200 1.25535E+02 2.22048E+01 0.00000E+00
 -1      4201 5.27850E+01 2.09058E+01 0.00000E+00
 -1      4202 5.12850E+01 2.09058E+01 0.00000E+00
 -1      4203 5.57850E+01 2.09058E+01 0.00000E+00
 -1      4204 5.42850E+01 2.09058E+01 0.00000E+00
 -1      4205 5.35350E+01 2.22048E+01 0.00000E+00
 -1      4206 6.17850E+01 2.09058E+01 0.00000E+00
 -1      4207 6.02850E+01 2.09058E+01 0.00000E+00
 -1      4208 6.25350E+01 2.22048E+01 0.00000E+00
 -1      4209 1.30619E+02 2.28340E+01 0.00000E+00
 -1      4210 1.28980E+02 2.16061E+01 0.00000E+00
 -1      4211 1.28230E+02 2.29051E+01 0.00000E+00
 -1      4212 1.30619E+02 2.43059E+01 0.00000E+00
 -1      4213 4.43290E+01 2.34876E+01 0.00000E+00
 -1      4214 4.35835E+01 2.47528E+01 0.00000E+00
 -1      4215 4.43542E+01 2.58897E+01 0.00000E+00
 -1      4216 6.77850E+01 2.09058E+01 0.00000E+00
 -1      4217 6.62850E+01 2.09058E+01 0.00000E+00
 -1      4218 6.55350E+01 2.22048E+01 0.00000E+00
 -1      4219 7.07850E+01 2.09058E+01 0.00000E+00
 -1      4220 6.92850E+01 2.09058E+01 0.00000E+00
 -1      4221 6.85350E+01 2.22048E+01 0.00000E+00
 -1      4222 7.15350E+01 2.22048E+01 0.00000E+00
 -1      4223 5.87850E+01 2.09058E+01 0.00000E+00
 -1      4224 5.72850E+01 2.09058E+01 0.00000E+00
 -1      4225 5.95350E+01 2.22048E+01 0.00000E+00
 -1      4226 4.81293E+01 2.69927E+01 0.00000E+00
 -1      4227 5.65350E+01 2.22048E+01 0.00000E+00
 -1      4228 1.29203E+02 2.46755E+01 0.00000E+00
 -1      4229 5.06096E+01 2.22396E+01 0.00000E+00
 -1      4230 4.98596E+01 2.09406E+01 0.00000E+00
 -1      4231 4.84343E+01 2.09755E+01 0.00000E+00
 -1      4232 4.56128E+01 2.09484E+01 0.00000E+00
 -1      4233 4.49751E+01 2.22506E+01 0.00000E+00
 -1      4234 4.57458E+01 2.33875E+01 0.00000E+00
 -1      4235 4.70381E+01 2.09135E+01 0.00000E+00
 -1      4236 5.04000E+01 2.55316E+01 0.00000E+00
 -1      4237 5.19000E+01 2.55316E+01 0.00000E+00
 -1      4238 5.64000E+01 2.55316E+01 0.00000E+00
 -1      4239 5.79000E+01 2.55316E+01 0.00000E+00
 -1      4240 5.98425E+01 2.45177E+01 0.00000E+00
 -1      4241 6.13425E+01 2.45177E+01 0.00000E+00
 -1      4242 6.28425E+01 2.45177E+01 0.00000E+00
 -1      4243 6.43425E+01 2.45177E+01 0.00000E+00
 -1      4244 6.58425E+01 2.45177E+01 0.00000E+00
 -1      4245 6.73425E+01 2.45177E+01 0.00000E+00
 -1      4246 6.88425E+01 2.45177E+01 0.00000E+00
 -1      4247 7.03425E+01 2.45177E+01 0.00000E+00
 -1      4248 7.18425E+01 2.45177E+01 0.00000E+00
 -1      4249 7.33425E+01 2.45177E+01 0.00000E+00
 -1      4250 7.48425E+01 2.45177E+01 0.00000E+00
 -1      4251 7.63425E+01 2.45177E+01 0.00000E+00
 -1      4252 7.78425E+01 2.45177E+01 0.00000E+00
 -1      4253 7.93425E+01 2.45177E+01 0.00000E+00
 -1      4254 8.08425E+01 2.45177E+01 0.00000E+00
 -1      4255 8.23425E+01 2.45177E+01 0.00000E+00
 -1      4256 8.38425E+01 2.45177E+01 0.00000E+00
 -1      4257 8.53425E+01 2.45177E+01 0.00000E+00
 -1      4258 8.68425E+01 2.45177E+01 0.00000E+00
 -1      4259 8.83425E+01 2.45177E+01 0.00000E+00
 -1      4260 8.98425E+01 2.45177E+01 0.00000E+00
 -1      4261 9.13425E+01 2.45177E+01 0.00000E+00
 -1      4262 9.28425E+01 2.45177E+01 0.00000E+00
 -1      4263 9.43425E+01 2.45177E+01 0.00000E+00
 -1      4264 9.58425E+01 2.45177E+01 0.00000E+00
 -1      4265 9.73425E+01 2.45177E+01 0.00000E+00
 -1      4266 9.88425E+01 2.45177E+01 0.00000E+00
 -1      4267 1.00342E+02 2.45177E+01 0.00000E+00
 -1      4268 1.01842E+02 2.45177E+01 0.00000E+00
 -1      4269 1.03342E+02 2.45177E+01 0.00000E+00
 -1      4270 1.04842E+02 2.45177E+01 0.00000E+00
 -1      4271 1.06342E+02 2.45177E+01 0.00000E+00
 -1      4272 1.07842E+02 2.45177E+01 0.00000E+00
 -1      4273 1.09342E+02 2.45177E+01 0.00000E+00
 -1      4274 1.10842E+02 2.45177E+01 0.00000E+00
 -1      4275 1.12342E+02 2.45177E+01 0.00000E+00
 -1      4276 1.13842E+02 2.45177E+01 0.00000E+00
 -1      4277 1.15342E+02 2.45177E+01 0.00000E+00
 -1      4278 1.16842E+02 2.45177E+01 0.00000E+00
 -1      4279 1.18342E+02 2.45177E+01 0.00000E+00
 -1      4280 1.19842E+02 2.45177E+01 0.00000E+00
 -1      4281 1.21342E+02 2.45177E+01 0.00000E+00
 -1      4282 1.22842E+02 2.45177E+01 0.00000E+00
 -1      4283 1.24342E+02 2.45177E+01 0.00000E+00
 -1      4284 1.25842E+02 2.45177E+01 0.00000E+00
 -1      4285 4.72313E+01 2.57821E+01 0.00000E+00
 -1      4286 4.87519E+01 2.56200E+01 0.00000E+00
 -1      4287 4.58542E+01 2.58897E+01 0.00000E+00
 -1      4288 5.34000E+01 2.55316E+01 0.00000E+00
 -1      4289 5.49000E+01 2.55316E+01 0.00000E+00
 -1      4290 5.56500E+01 2.42326E+01 0.00000E+00
 -1      4291 5.26500E+01 2.42326E+01 0.00000E+00
 -1      4292 4.64768E+01 2.45169E+01 0.00000E+00
 -1      4293 5.75925E+01 2.32187E+01 0.00000E+00
 -1      4294 5.60925E+01 2.32187E+01 0.00000E+00
 -1      4295 1.27037E+02 2.52181E+01 0.00000E+00
 -1      4296 4.95019E+01 2.43210E+01 0.00000E+00
 -1      4297 5.83425E+01 2.45177E+01 0.00000E+00
 -1      4298 5.15925E+01 2.32187E+01 0.00000E+00
 -1      4299 5.01671E+01 2.32536E+01 0.00000E+00
 -1      4300 5.45925E+01 2.32187E+01 0.00000E+00
 -1      4301 4.77881E+01 2.22125E+01 0.00000E+00
 -1      4302 5.30925E+01 2.32187E+01 0.00000E+00
 -1      4303 4.71229E+01 2.32799E+01 0.00000E+00
 -1      4304 4.85191E+01 2.33420E+01 0.00000E+00
 -1      4305 1.28120E+02 2.49468E+01 0.00000E+00
 -3
    3C                          2071                                     1
 -1       164    8    0    1
 -2         6         7        23      1118      1281      1135
 -1       165    8    0    1
 -2         7         8       164      1119      1282      1283
 -1       166    8    0    1
 -2         8         9       165      1120      1284      1285
 -1       167    8    0    1
 -2         8       165       164      1285      1286      1282
 -1       168    8    0    1
 -2         9        10       166      1121      1287      1288
 -1       169    8    0    1
 -2         9       166       165      1288      1289      1284
 -1       170    8    0    1
 -2        10        11       167      1122      1290      1291
 -1       171    8    0    1
 -2        10       167       166      1291      1292      1287
 -1       172    8    0    1
 -2        11        12       168      1123      1293      1294
 -1       173    8    0    1
 -2        11       168       167      1294      1295      1290
 -1       174    8    0    1
 -2        12        13       169      1124      1296      1297
 -1       175    8    0    1
 -2        12       169       168      1297      1298      1293
 -1       176    8    0    1
 -2        13        14       170      1125      1299      1300
 -1       177    8    0    1
 -2        13       170       169      1300      1301      1296
 -1       178    8    0    1
 -2        14        15       171      1126      1302      1303
 -1       179    8    0    1
 -2        14       171       170      1303      1304      1299
 -1       180    8    0    1
 -2        15        16       172      1127      1305      1306
 -1       181    8    0    1
 -2        15       172       171      1306      1307      1302
 -1       182    8    0    1
 -2        16        17       173      1128      1308      1309
 -1       183    8    0    1
 -2        16       173       172      1309      1310      1305
 -1       184    8    0    1
 -2        17        18       174      1129      1311      1312
 -1       185    8    0    1
 -2        17       174       173      1312      1313      1308
 -1       186    8    0    1
 -2        18        19       175      1130      1314      1315
 -1       187    8    0    1
 -2        18       175       174      1315      1316      1311
 -1       188    8    0    1
 -2        19        20       176      1131      1317      1318
 -1       189    8    0    1
 -2        19       176       175      1318      1319      1314
 -1       190    8    0    1
 -2        20        21       177      1132      1320      1321
 -1       191    8    0    1
 -2        20       177       176      1321      1322      1317
 -1       192    8    0    1
 -2        21        22       178      1133      1323      1324
 -1       193    8    0    1
 -2        21       178       177      1324      1325      1320
 -1       194    8    0    1
 -2        22         5       179      1134      1326      1327
 -1       195    8    0    1
 -2       178        22       179      1323      1327      1328
 -1       196    8    0    1
 -2         5        72       179      1185      1329      1326
 -1       197    8    0    1
 -2        24        23       180      1136      1330      1331
 -1       198    8    0    1
 -2        25        24       181      1137      1332      1333
 -1       199    8    0    1
 -2        24       180       181      1331      1334      1332
 -1       200    8    0    1
 -2        26        25       182      1138      1335      1336
 -1       201    8    0    1
 -2        25       181       182      1333      1337      1335
 -1       202    8    0    1
 -2        27        26       183      1139      1338      1339
 -1       203    8    0    1
 -2        26       182       183      1336      1340      1338
 -1       204    8    0    1
 -2        28        27       184      1140      1341      1342
 -1       205    8    0    1
 -2        27       183       184      1339      1343      1341
 -1       206    8    0    1
 -2        29        28       185      1141      1344      1345
 -1       207    8    0    1
 -2        28       184       185      1342      1346      1344
 -1       208    8    0    1
 -2        30        29       186      1142      1347      1348
 -1       209    8    0    1
 -2        29       185       186      1345      1349      1347
 -1       210    8    0    1
 -2        31        30       187      1143      1350      1351
 -1       211    8    0    1
 -2        30       186       187      1348      1352      1350
 -1       212    8    0    1
 -2        32        31       188      1144      1353      1354
 -1       213    8    0    1
 -2        31       187       188      1351      1355      1353
 -1       214    8    0    1
 -2        33        32       189      1145      1356      1357
 -1       215    8    0    1
 -2        32       188       189      1354      1358      1356
 -1       216    8    0    1
 -2        34        33       190      1146      1359      1360
 -1       217    8    0    1
 -2        33       189       190      1357      1361      1359
 -1       218    8    0    1
 -2        35        34       191      1147      1362      1363
 -1       219    8    0    1
 -2        34       190       191      1360      1364      1362
 -1       220    8    0    1
 -2        36        35       192      1148      1365      1366
 -1       221    8    0    1
 -2        35       191       192      1363      1367      1365
 -1       222    8    0    1
 -2        37        36       193      1149      1368      1369
 -1       223    8    0    1
 -2        36       192       193      1366      1370      1368
 -1       224    8    0    1
 -2        38        37       194      1150      1371      1372
 -1       225    8    0    1
 -2        37       193       194      1369      1373      1371
 -1       226    8    0    1
 -2        39        38       195      1151      1374      1375
 -1       227    8    0    1
 -2        38       194       195      1372      1376      1374
 -1       228    8    0    1
 -2        40        39       196      1152      1377      1378
 -1       229    8    0    1
 -2        39       195       196      1375      1379      1377
 -1       230    8    0    1
 -2        41        40       197      1153      1380      1381
 -1       231    8    0    1
 -2        40       196       197      1378      1382      1380
 -1       232    8    0    1
 -2        42        41       198      1154      1383      1384
 -1       233    8    0    1
 -2        41       197       198      1381      1385      1383
 -1       234    8    0    1
 -2        43        42       199      1155      1386      1387
 -1       235    8    0    1
 -2        42       198       199      1384      1388      1386
 -1       236    8    0    1
 -2        44        43       200      1156      1389      1390
 -1       237    8    0    1
 -2        43       199       200      1387      1391      1389
 -1       238    8    0    1
 -2        45        44       201      1157      1392      1393
 -1       239    8    0    1
 -2        44       200       201      1390      1394      1392
 -1       240    8    0    1
 -2        46        45       202      1158      1395      1396
 -1       241    8    0    1
 -2        45       201       202      1393      1397      1395
 -1       242    8    0    1
 -2        47        46       203      1159      1398      1399
 -1       243    8    0    1
 -2        46       202       203      1396      1400      1398
 -1       244    8    0    1
 -2        48        47       204      1160      1401      1402
 -1       245    8    0    1
 -2        47       203       204      1399      1403      1401
 -1       246    8    0    1
 -2        49        48       205      1161      1404      1405
 -1       247    8    0    1
 -2        48       204       205      1402      1406      1404
 -1       248    8    0    1
 -2        50        49       206      1162      1407      1408
 -1       249    8    0    1
 -2        49       205       206      1405      1409      1407
 -1       250    8    0    1
 -2        51        50       207      1163      1410      1411
 -1       251    8    0    1
 -2        50       206       207      1408      1412      1410
 -1       252    8    0    1
 -2        52        51       208      1164      1413      1414
 -1       253    8    0    1
 -2        51       207       208      1411      1415      1413
 -1       254    8    0    1
 -2        53        52       209      1165      1416      1417
 -1       255    8    0    1
 -2        52       208       209      1414      1418      1416
 -1       256    8    0    1
 -2        54        53       210      1166      1419      1420
 -1       257    8    0    1
 -2        53       209       210      1417      1421      1419
 -1       258    8    0    1
 -2        55        54       211      1167      1422      1423
 -1       259    8    0    1
 -2        54       210       211      1420      1424      1422
 -1       260    8    0    1
 -2        56        55       212      1168      1425      1426
 -1       261    8    0    1
 -2        55       211       212      1423      1427      1425
 -1       262    8    0    1
 -2        57        56       213      1169      1428      1429
 -1       263    8    0    1
 -2        56       212       213      1426      1430      1428
 -1       264    8    0    1
 -2        58        57       214      1170      1431      1432
 -1       265    8    0    1
 -2        57       213       214      1429      1433      1431
 -1       266    8    0    1
 -2        59        58       215      1171      1434      1435
 -1       267    8    0    1
 -2        58       214       215      1432      1436      1434
 -1       268    8    0    1
 -2        60        59       216      1172      1437      1438
 -1       269    8    0    1
 -2        59       215       216      1435      1439      1437
 -1       270    8    0    1
 -2        61        60       217      1173      1440      1441
 -1       271    8    0    1
 -2        60       216       217      1438      1442      1440
 -1       272    8    0    1
 -2        62        61       218      1174      1443      1444
 -1       273    8    0    1
 -2        61       217       218      1441      1445      1443
 -1       274    8    0    1
 -2        63        62       219      1175      1446      1447
 -1       275    8    0    1
 -2        62       218       219      1444      1448      1446
 -1       276    8    0    1
 -2        64        63       220      1176      1449      1450
 -1       277    8    0    1
 -2        63       219       220      1447      1451      1449
 -1       278    8    0    1
 -2        65        64       221      1177      1452      1453
 -1       279    8    0    1
 -2        64       220       221      1450      1454      1452
 -1       280    8    0    1
 -2        66        65       222      1178      1455      1456
 -1       281    8    0    1
 -2        65       221       222      1453      1457      1455
 -1       282    8    0    1
 -2        67        66       223      1179      1458      1459
 -1       283    8    0    1
 -2        66       222       223      1456      1460      1458
 -1       284    8    0    1
 -2        68        67       224      1180      1461      1462
 -1       285    8    0    1
 -2        67       223       224      1459      1463      1461
 -1       286    8    0    1
 -2        69        68       225      1181      1464      1465
 -1       287    8    0    1
 -2        68       224       225      1462      1466      1464
 -1       288    8    0    1
 -2        70        69       226      1182      1467      1468
 -1       289    8    0    1
 -2        69       225       226      1465      1469      1467
 -1       290    8    0    1
 -2        71        70       227      1183      1470      1471
 -1       291    8    0    1
 -2        70       226       227      1468      1472      1470
 -1       292    8    0    1
 -2         4        71       136      1184      1473      1251
 -1       293    8    0    1
 -2       136        71       227      1473      1471      1474
 -1       294    8    0    1
 -2        72        73       228      1186      1475      1476
 -1       295    8    0    1
 -2        72       228       179      1476      1477      1329
 -1       296    8    0    1
 -2        73        74       229      1187      1478      1479
 -1       297    8    0    1
 -2        73       229       228      1479      1480      1475
 -1       298    8    0    1
 -2        74        75       230      1188      1481      1482
 -1       299    8    0    1
 -2        74       230       229      1482      1483      1478
 -1       300    8    0    1
 -2        75        76       231      1189      1484      1485
 -1       301    8    0    1
 -2        75       231       230      1485      1486      1481
 -1       302    8    0    1
 -2        76        77       232      1190      1487      1488
 -1       303    8    0    1
 -2        76       232       231      1488      1489      1484
 -1       304    8    0    1
 -2        77        78       233      1191      1490      1491
 -1       305    8    0    1
 -2        77       233       232      1491      1492      1487
 -1       306    8    0    1
 -2        78        79       234      1192      1493      1494
 -1       307    8    0    1
 -2        78       234       233      1494      1495      1490
 -1       308    8    0    1
 -2        79        80       235      1193      1496      1497
 -1       309    8    0    1
 -2        79       235       234      1497      1498      1493
 -1       310    8    0    1
 -2        80        81       236      1194      1499      1500
 -1       311    8    0    1
 -2        80       236       235      1500      1501      1496
 -1       312    8    0    1
 -2        81        82       237      1195      1502      1503
 -1       313    8    0    1
 -2        81       237       236      1503      1504      1499
 -1       314    8    0    1
 -2        82        83       238      1196      1505      1506
 -1       315    8    0    1
 -2        82       238       237      1506      1507      1502
 -1       316    8    0    1
 -2        83        84       239      1197      1508      1509
 -1       317    8    0    1
 -2        83       239       238      1509      1510      1505
 -1       318    8    0    1
 -2        84        85       240      1198      1511      1512
 -1       319    8    0    1
 -2        84       240       239      1512      1513      1508
 -1       320    8    0    1
 -2        85        86       241      1199      1514      1515
 -1       321    8    0    1
 -2        85       241       240      1515      1516      1511
 -1       322    8    0    1
 -2        86        87       242      1200      1517      1518
 -1       323    8    0    1
 -2        86       242       241      1518      1519      1514
 -1       324    8    0    1
 -2        87        88       243      1201      1520      1521
 -1       325    8    0    1
 -2        87       243       242      1521      1522      1517
 -1       326    8    0    1
 -2        88        89       244      1202      1523      1524
 -1       327    8    0    1
 -2        88       244       243      1524      1525      1520
 -1       328    8    0    1
 -2        89        90       245      1203      1526      1527
 -1       329    8    0    1
 -2        89       245       244      1527      1528      1523
 -1       330    8    0    1
 -2        90        91       246      1204      1529      1530
 -1       331    8    0    1
 -2        90       246       245      1530      1531      1526
 -1       332    8    0    1
 -2        91        92       247      1205      1532      1533
 -1       333    8    0    1
 -2        91       247       246      1533      1534      1529
 -1       334    8    0    1
 -2        92        93       248      1206      1535      1536
 -1       335    8    0    1
 -2        92       248       247      1536      1537      1532
 -1       336    8    0    1
 -2        93        94       249      1207      1538      1539
 -1       337    8    0    1
 -2        93       249       248      1539      1540      1535
 -1       338    8    0    1
 -2        94        95       250      1208      1541      1542
 -1       339    8    0    1
 -2        94       250       249      1542      1543      1538
 -1       340    8    0    1
 -2        95        96       251      1209      1544      1545
 -1       341    8    0    1
 -2        95       251       250      1545      1546      1541
 -1       342    8    0    1
 -2        96        97       252      1210      1547      1548
 -1       343    8    0    1
 -2        96       252       251      1548      1549      1544
 -1       344    8    0    1
 -2        97        98       253      1211      1550      1551
 -1       345    8    0    1
 -2        97       253       252      1551      1552      1547
 -1       346    8    0    1
 -2        98        99       254      1212      1553      1554
 -1       347    8    0    1
 -2        98       254       253      1554      1555      1550
 -1       348    8    0    1
 -2        99       100       255      1213      1556      1557
 -1       349    8    0    1
 -2        99       255       254      1557      1558      1553
 -1       350    8    0    1
 -2       100       101       256      1214      1559      1560
 -1       351    8    0    1
 -2       100       256       255      1560      1561      1556
 -1       352    8    0    1
 -2       101       102       257      1215      1562      1563
 -1       353    8    0    1
 -2       101       257       256      1563      1564      1559
 -1       354    8    0    1
 -2       102       103       258      1216      1565      1566
 -1       355    8    0    1
 -2       102       258       257      1566      1567      1562
 -1       356    8    0    1
 -2       103       104       259      1217      1568      1569
 -1       357    8    0    1
 -2       103       259       258      1569      1570      1565
 -1       358    8    0    1
 -2       104       105       260      1218      1571      1572
 -1       359    8    0    1
 -2       104       260       259      1572      1573      1568
 -1       360    8    0    1
 -2       105       106       261      1219      1574      1575
 -1       361    8    0    1
 -2       105       261       260      1575      1576      1571
 -1       362    8    0    1
 -2       106       107       262      1220      1577      1578
 -1       363    8    0    1
 -2       106       262       261      1578      1579      1574
 -1       364    8    0    1
 -2       107       108       263      1221      1580      1581
 -1       365    8    0    1
 -2       107       263       262      1581      1582      1577
 -1       366    8    0    1
 -2       108       109       264      1222      1583      1584
 -1       367    8    0    1
 -2       108       264       263      1584      1585      1580
 -1       368    8    0    1
 -2       109       110       265      1223      1586      1587
 -1       369    8    0    1
 -2       109       265       264      1587      1588      1583
 -1       370    8    0    1
 -2       110       111       266      1224      1589      1590
 -1       371    8    0    1
 -2       110       266       265      1590      1591      1586
 -1       372    8    0    1
 -2       111       112       267      1225      1592      1593
 -1       373    8    0    1
 -2       111       267       266      1593      1594      1589
 -1       374    8    0    1
 -2       112       113       268      1226      1595      1596
 -1       375    8    0    1
 -2       112       268       267      1596      1597      1592
 -1       376    8    0    1
 -2       113       114       269      1227      1598      1599
 -1       377    8    0    1
 -2       113       269       268      1599      1600      1595
 -1       378    8    0    1
 -2       114       115       270      1228      1601      1602
 -1       379    8    0    1
 -2       114       270       269      1602      1603      1598
 -1       380    8    0    1
 -2       115       116       271      1229      1604      1605
 -1       381    8    0    1
 -2       115       271       270      1605      1606      1601
 -1       382    8    0    1
 -2       116       117       272      1230      1607      1608
 -1       383    8    0    1
 -2       116       272       271      1608      1609      1604
 -1       384    8    0    1
 -2       117       118       273      1231      1610      1611
 -1       385    8    0    1
 -2       117       273       272      1611      1612      1607
 -1       386    8    0    1
 -2       118       119       274      1232      1613      1614
 -1       387    8    0    1
 -2       118       274       273      1614      1615      1610
 -1       388    8    0    1
 -2       119       120       275      1233      1616      1617
 -1       389    8    0    1
 -2       119       275       274      1617      1618      1613
 -1       390    8    0    1
 -2       120         3       121      1234      1235      1619
 -1       391    8    0    1
 -2       121       122       276      1236      1620      1621
 -1       392    8    0    1
 -2       122       123       277      1237      1622      1623
 -1       393    8    0    1
 -2       122       277       276      1623      1624      1620
 -1       394    8    0    1
 -2       123       124       278      1238      1625      1626
 -1       395    8    0    1
 -2       123       278       277      1626      1627      1622
 -1       396    8    0    1
 -2       124       125       279      1239      1628      1629
 -1       397    8    0    1
 -2       124       279       278      1629      1630      1625
 -1       398    8    0    1
 -2       125       126       280      1240      1631      1632
 -1       399    8    0    1
 -2       125       280       279      1632      1633      1628
 -1       400    8    0    1
 -2       126       127       281      1241      1634      1635
 -1       401    8    0    1
 -2       126       281       280      1635      1636      1631
 -1       402    8    0    1
 -2       127       128       282      1242      1637      1638
 -1       403    8    0    1
 -2       127       282       281      1638      1639      1634
 -1       404    8    0    1
 -2       128       129       283      1243      1640      1641
 -1       405    8    0    1
 -2       128       283       282      1641      1642      1637
 -1       406    8    0    1
 -2       129       130       284      1244      1643      1644
 -1       407    8    0    1
 -2       129       284       283      1644      1645      1640
 -1       408    8    0    1
 -2       130       131       285      1245      1646      1647
 -1       409    8    0    1
 -2       130       285       284      1647      1648      1643
 -1       410    8    0    1
 -2       131       132       286      1246      1649      1650
 -1       411    8    0    1
 -2       131       286       285      1650      1651      1646
 -1       412    8    0    1
 -2       132       133       287      1247      1652      1653
 -1       413    8    0    1
 -2       132       287       286      1653      1654      1649
 -1       414    8    0    1
 -2       133       134       288      1248      1655      1656
 -1       415    8    0    1
 -2       133       288       287      1656      1657      1652
 -1       416    8    0    1
 -2       134       135       289      1249      1658      1659
 -1       417    8    0    1
 -2       134       289       288      1659      1660      1655
 -1       418    8    0    1
 -2       135       136       290      1250      1661      1662
 -1       419    8    0    1
 -2       289       135       290      1658      1662      1663
 -1       420    8    0    1
 -2       136       227       290      1474      1664      1661
 -1       421    8    0    1
 -2         2       137       291      1252      1665      1666
 -1       422    8    0    1
 -2       137       138       292      1253      1667      1668
 -1       423    8    0    1
 -2       138       139       293      1254      1669      1670
 -1       424    8    0    1
 -2       139       140       294      1255      1671      1672
 -1       425    8    0    1
 -2       140       141       295      1256      1673      1674
 -1       426    8    0    1
 -2       141       142       296      1257      1675      1676
 -1       427    8    0    1
 -2       142       143       297      1258      1677      1678
 -1       428    8    0    1
 -2       143       144       298      1259      1679      1680
 -1       429    8    0    1
 -2       144       145       299      1260      1681      1682
 -1       430    8    0    1
 -2       145       146       300      1261      1683      1684
 -1       431    8    0    1
 -2       146       147       301      1262      1685      1686
 -1       432    8    0    1
 -2       147       148       302      1263      1687      1688
 -1       433    8    0    1
 -2       148       149       303      1264      1689      1690
 -1       434    8    0    1
 -2       149       150       304      1265      1691      1692
 -1       435    8    0    1
 -2       150       151       305      1266      1693      1694
 -1       436    8    0    1
 -2       151       152       306      1267      1695      1696
 -1       437    8    0    1
 -2       152       153       307      1268      1697      1698
 -1       438    8    0    1
 -2       153       154       308      1269      1699      1700
 -1       439    8    0    1
 -2       154       155       309      1270      1701      1702
 -1       440    8    0    1
 -2       155       156       310      1271      1703      1704
 -1       441    8    0    1
 -2       156       157       311      1272      1705      1706
 -1       442    8    0    1
 -2       157         1       312      1273      1707      1708
 -1       443    8    0    1
 -2         1       158       313      1274      1709      1710
 -1       444    8    0    1
 -2       158       159       314      1275      1711      1712
 -1       445    8    0    1
 -2       159       160       315      1276      1713      1714
 -1       446    8    0    1
 -2       160       161       316      1277      1715      1716
 -1       447    8    0    1
 -2       161       162       317      1278      1717      1718
 -1       448    8    0    1
 -2       162       163       318      1279      1719      1720
 -1       449    8    0    1
 -2       163         2       319      1280      1721      1722
 -1       450    8    0    1
 -2       294       140       295      1671      1674      1723
 -1       451    8    0    1
 -2       293       139       294      1669      1672      1724
 -1       452    8    0    1
 -2       120       121       275      1619      1725      1616
 -1       453    8    0    1
 -2       121       276       275      1621      1726      1725
 -1       454    8    0    1
 -2       291       137       292      1665      1668      1727
 -1       455    8    0    1
 -2       292       138       293      1667      1670      1728
 -1       456    8    0    1
 -2         2       291       319      1666      1729      1721
 -1       457    8    0    1
 -2       141       296       295      1676      1730      1673
 -1       458    8    0    1
 -2       142       297       296      1678      1731      1675
 -1       459    8    0    1
 -2       143       298       297      1680      1732      1677
 -1       460    8    0    1
 -2       144       299       298      1682      1733      1679
 -1       461    8    0    1
 -2       145       300       299      1684      1734      1681
 -1       462    8    0    1
 -2       146       301       300      1686      1735      1683
 -1       463    8    0    1
 -2       147       302       301      1688      1736      1685
 -1       464    8    0    1
 -2       148       303       302      1690      1737      1687
 -1       465    8    0    1
 -2       149       304       303      1692      1738      1689
 -1       466    8    0    1
 -2       150       305       304      1694      1739      1691
 -1       467    8    0    1
 -2       151       306       305      1696      1740      1693
 -1       468    8    0    1
 -2       152       307       306      1698      1741      1695
 -1       469    8    0    1
 -2       153       308       307      1700      1742      1697
 -1       470    8    0    1
 -2       154       309       308      1702      1743      1699
 -1       471    8    0    1
 -2       155       310       309      1704      1744      1701
 -1       472    8    0    1
 -2       156       311       310      1706      1745      1703
 -1       473    8    0    1
 -2       157       312       311      1708      1746      1705
 -1       474    8    0    1
 -2         1       313       312      1710      1747      1707
 -1       475    8    0    1
 -2       158       314       313      1712      1748      1709
 -1       476    8    0    1
 -2       159       315       314      1714      1749      1711
 -1       477    8    0    1
 -2       160       316       315      1716      1750      1713
 -1       478    8    0    1
 -2       161       317       316      1718      1751      1715
 -1       479    8    0    1
 -2       162       318       317      1720      1752      1717
 -1       480    8    0    1
 -2       163       319       318      1722      1753      1719
 -1       481    8    0    1
 -2        23         7       164      1281      1283      1754
 -1       482    8    0    1
 -2       165       166       320      1289      1755      1756
 -1       483    8    0    1
 -2       164       165       321      1286      1757      1758
 -1       484    8    0    1
 -2       165       320       321      1756      1759      1757
 -1       485    8    0    1
 -2       167       168       322      1295      1760      1761
 -1       486    8    0    1
 -2       168       169       323      1298      1762      1763
 -1       487    8    0    1
 -2       168       323       322      1763      1764      1760
 -1       488    8    0    1
 -2       169       170       324      1301      1765      1766
 -1       489    8    0    1
 -2       169       324       323      1766      1767      1762
 -1       490    8    0    1
 -2       170       171       325      1304      1768      1769
 -1       491    8    0    1
 -2       170       325       324      1769      1770      1765
 -1       492    8    0    1
 -2       171       172       326      1307      1771      1772
 -1       493    8    0    1
 -2       171       326       325      1772      1773      1768
 -1       494    8    0    1
 -2       172       173       327      1310      1774      1775
 -1       495    8    0    1
 -2       172       327       326      1775      1776      1771
 -1       496    8    0    1
 -2       173       174       328      1313      1777      1778
 -1       497    8    0    1
 -2       173       328       327      1778      1779      1774
 -1       498    8    0    1
 -2       174       175       329      1316      1780      1781
 -1       499    8    0    1
 -2       174       329       328      1781      1782      1777
 -1       500    8    0    1
 -2       175       176       330      1319      1783      1784
 -1       501    8    0    1
 -2       175       330       329      1784      1785      1780
 -1       502    8    0    1
 -2       176       177       331      1322      1786      1787
 -1       503    8    0    1
 -2       176       331       330      1787      1788      1783
 -1       504    8    0    1
 -2       177       178       332      1325      1789      1790
 -1       505    8    0    1
 -2       177       332       331      1790      1791      1786
 -1       506    8    0    1
 -2       178       179       333      1328      1792      1793
 -1       507    8    0    1
 -2       332       178       333      1789      1793      1794
 -1       508    8    0    1
 -2       179       228       333      1477      1795      1792
 -1       509    8    0    1
 -2       180        23       164      1330      1754      1796
 -1       510    8    0    1
 -2       228       229       334      1480      1797      1798
 -1       511    8    0    1
 -2       228       334       333      1798      1799      1795
 -1       512    8    0    1
 -2       180       164       321      1796      1758      1800
 -1       513    8    0    1
 -2       182       181       335      1337      1801      1802
 -1       514    8    0    1
 -2       183       182       336      1340      1803      1804
 -1       515    8    0    1
 -2       182       335       336      1802      1805      1803
 -1       516    8    0    1
 -2       184       183       337      1343      1806      1807
 -1       517    8    0    1
 -2       183       336       337      1804      1808      1806
 -1       518    8    0    1
 -2       185       184       338      1346      1809      1810
 -1       519    8    0    1
 -2       184       337       338      1807      1811      1809
 -1       520    8    0    1
 -2       186       185       339      1349      1812      1813
 -1       521    8    0    1
 -2       185       338       339      1810      1814      1812
 -1       522    8    0    1
 -2       187       186       340      1352      1815      1816
 -1       523    8    0    1
 -2       186       339       340      1813      1817      1815
 -1       524    8    0    1
 -2       188       187       341      1355      1818      1819
 -1       525    8    0    1
 -2       187       340       341      1816      1820      1818
 -1       526    8    0    1
 -2       189       188       342      1358      1821      1822
 -1       527    8    0    1
 -2       188       341       342      1819      1823      1821
 -1       528    8    0    1
 -2       190       189       343      1361      1824      1825
 -1       529    8    0    1
 -2       189       342       343      1822      1826      1824
 -1       530    8    0    1
 -2       191       190       344      1364      1827      1828
 -1       531    8    0    1
 -2       190       343       344      1825      1829      1827
 -1       532    8    0    1
 -2       192       191       345      1367      1830      1831
 -1       533    8    0    1
 -2       191       344       345      1828      1832      1830
 -1       534    8    0    1
 -2       193       192       346      1370      1833      1834
 -1       535    8    0    1
 -2       192       345       346      1831      1835      1833
 -1       536    8    0    1
 -2       194       193       347      1373      1836      1837
 -1       537    8    0    1
 -2       193       346       347      1834      1838      1836
 -1       538    8    0    1
 -2       195       194       348      1376      1839      1840
 -1       539    8    0    1
 -2       194       347       348      1837      1841      1839
 -1       540    8    0    1
 -2       196       195       349      1379      1842      1843
 -1       541    8    0    1
 -2       195       348       349      1840      1844      1842
 -1       542    8    0    1
 -2       197       196       350      1382      1845      1846
 -1       543    8    0    1
 -2       196       349       350      1843      1847      1845
 -1       544    8    0    1
 -2       198       197       351      1385      1848      1849
 -1       545    8    0    1
 -2       197       350       351      1846      1850      1848
 -1       546    8    0    1
 -2       199       198       352      1388      1851      1852
 -1       547    8    0    1
 -2       198       351       352      1849      1853      1851
 -1       548    8    0    1
 -2       200       199       353      1391      1854      1855
 -1       549    8    0    1
 -2       199       352       353      1852      1856      1854
 -1       550    8    0    1
 -2       201       200       354      1394      1857      1858
 -1       551    8    0    1
 -2       200       353       354      1855      1859      1857
 -1       552    8    0    1
 -2       202       201       355      1397      1860      1861
 -1       553    8    0    1
 -2       201       354       355      1858      1862      1860
 -1       554    8    0    1
 -2       203       202       356      1400      1863      1864
 -1       555    8    0    1
 -2       202       355       356      1861      1865      1863
 -1       556    8    0    1
 -2       204       203       357      1403      1866      1867
 -1       557    8    0    1
 -2       203       356       357      1864      1868      1866
 -1       558    8    0    1
 -2       205       204       358      1406      1869      1870
 -1       559    8    0    1
 -2       204       357       358      1867      1871      1869
 -1       560    8    0    1
 -2       206       205       359      1409      1872      1873
 -1       561    8    0    1
 -2       205       358       359      1870      1874      1872
 -1       562    8    0    1
 -2       207       206       360      1412      1875      1876
 -1       563    8    0    1
 -2       206       359       360      1873      1877      1875
 -1       564    8    0    1
 -2       208       207       361      1415      1878      1879
 -1       565    8    0    1
 -2       207       360       361      1876      1880      1878
 -1       566    8    0    1
 -2       209       208       362      1418      1881      1882
 -1       567    8    0    1
 -2       208       361       362      1879      1883      1881
 -1       568    8    0    1
 -2       210       209       363      1421      1884      1885
 -1       569    8    0    1
 -2       209       362       363      1882      1886      1884
 -1       570    8    0    1
 -2       211       210       364      1424      1887      1888
 -1       571    8    0    1
 -2       210       363       364      1885      1889      1887
 -1       572    8    0    1
 -2       212       211       365      1427      1890      1891
 -1       573    8    0    1
 -2       211       364       365      1888      1892      1890
 -1       574    8    0    1
 -2       213       212       366      1430      1893      1894
 -1       575    8    0    1
 -2       212       365       366      1891      1895      1893
 -1       576    8    0    1
 -2       214       213       367      1433      1896      1897
 -1       577    8    0    1
 -2       213       366       367      1894      1898      1896
 -1       578    8    0    1
 -2       215       214       368      1436      1899      1900
 -1       579    8    0    1
 -2       214       367       368      1897      1901      1899
 -1       580    8    0    1
 -2       216       215       369      1439      1902      1903
 -1       581    8    0    1
 -2       215       368       369      1900      1904      1902
 -1       582    8    0    1
 -2       217       216       370      1442      1905      1906
 -1       583    8    0    1
 -2       216       369       370      1903      1907      1905
 -1       584    8    0    1
 -2       218       217       371      1445      1908      1909
 -1       585    8    0    1
 -2       217       370       371      1906      1910      1908
 -1       586    8    0    1
 -2       219       218       372      1448      1911      1912
 -1       587    8    0    1
 -2       218       371       372      1909      1913      1911
 -1       588    8    0    1
 -2       220       219       373      1451      1914      1915
 -1       589    8    0    1
 -2       219       372       373      1912      1916      1914
 -1       590    8    0    1
 -2       221       220       374      1454      1917      1918
 -1       591    8    0    1
 -2       220       373       374      1915      1919      1917
 -1       592    8    0    1
 -2       222       221       375      1457      1920      1921
 -1       593    8    0    1
 -2       221       374       375      1918      1922      1920
 -1       594    8    0    1
 -2       223       222       376      1460      1923      1924
 -1       595    8    0    1
 -2       222       375       376      1921      1925      1923
 -1       596    8    0    1
 -2       224       223       377      1463      1926      1927
 -1       597    8    0    1
 -2       223       376       377      1924      1928      1926
 -1       598    8    0    1
 -2       225       224       378      1466      1929      1930
 -1       599    8    0    1
 -2       224       377       378      1927      1931      1929
 -1       600    8    0    1
 -2       226       225       379      1469      1932      1933
 -1       601    8    0    1
 -2       225       378       379      1930      1934      1932
 -1       602    8    0    1
 -2       227       226       380      1472      1935      1936
 -1       603    8    0    1
 -2       290       227       380      1664      1936      1937
 -1       604    8    0    1
 -2       226       379       380      1933      1938      1935
 -1       605    8    0    1
 -2       229       230       381      1483      1939      1940
 -1       606    8    0    1
 -2       229       381       334      1940      1941      1797
 -1       607    8    0    1
 -2       230       231       382      1486      1942      1943
 -1       608    8    0    1
 -2       230       382       381      1943      1944      1939
 -1       609    8    0    1
 -2       231       232       383      1489      1945      1946
 -1       610    8    0    1
 -2       231       383       382      1946      1947      1942
 -1       611    8    0    1
 -2       232       233       384      1492      1948      1949
 -1       612    8    0    1
 -2       232       384       383      1949      1950      1945
 -1       613    8    0    1
 -2       233       234       385      1495      1951      1952
 -1       614    8    0    1
 -2       233       385       384      1952      1953      1948
 -1       615    8    0    1
 -2       234       235       386      1498      1954      1955
 -1       616    8    0    1
 -2       234       386       385      1955      1956      1951
 -1       617    8    0    1
 -2       235       236       387      1501      1957      1958
 -1       618    8    0    1
 -2       235       387       386      1958      1959      1954
 -1       619    8    0    1
 -2       236       237       388      1504      1960      1961
 -1       620    8    0    1
 -2       236       388       387      1961      1962      1957
 -1       621    8    0    1
 -2       237       238       389      1507      1963      1964
 -1       622    8    0    1
 -2       237       389       388      1964      1965      1960
 -1       623    8    0    1
 -2       238       239       390      1510      1966      1967
 -1       624    8    0    1
 -2       238       390       389      1967      1968      1963
 -1       625    8    0    1
 -2       239       240       391      1513      1969      1970
 -1       626    8    0    1
 -2       239       391       390      1970      1971      1966
 -1       627    8    0    1
 -2       240       241       392      1516      1972      1973
 -1       628    8    0    1
 -2       240       392       391      1973      1974      1969
 -1       629    8    0    1
 -2       241       242       393      1519      1975      1976
 -1       630    8    0    1
 -2       241       393       392      1976      1977      1972
 -1       631    8    0    1
 -2       242       243       394      1522      1978      1979
 -1       632    8    0    1
 -2       242       394       393      1979      1980      1975
 -1       633    8    0    1
 -2       243       244       395      1525      1981      1982
 -1       634    8    0    1
 -2       243       395       394      1982      1983      1978
 -1       635    8    0    1
 -2       244       245       396      1528      1984      1985
 -1       636    8    0    1
 -2       244       396       395      1985      1986      1981
 -1       637    8    0    1
 -2       245       246       397      1531      1987      1988
 -1       638    8    0    1
 -2       245       397       396      1988      1989      1984
 -1       639    8    0    1
 -2       246       247       398      1534      1990      1991
 -1       640    8    0    1
 -2       246       398       397      1991      1992      1987
 -1       641    8    0    1
 -2       247       248       399      1537      1993      1994
 -1       642    8    0    1
 -2       247       399       398      1994      1995      1990
 -1       643    8    0    1
 -2       248       249       400      1540      1996      1997
 -1       644    8    0    1
 -2       248       400       399      1997      1998      1993
 -1       645    8    0    1
 -2       249       250       401      1543      1999      2000
 -1       646    8    0    1
 -2       249       401       400      2000      2001      1996
 -1       647    8    0    1
 -2       250       251       402      1546      2002      2003
 -1       648    8    0    1
 -2       250       402       401      2003      2004      1999
 -1       649    8    0    1
 -2       251       252       403      1549      2005      2006
 -1       650    8    0    1
 -2       251       403       402      2006      2007      2002
 -1       651    8    0    1
 -2       252       253       404      1552      2008      2009
 -1       652    8    0    1
 -2       252       404       403      2009      2010      2005
 -1       653    8    0    1
 -2       253       254       405      1555      2011      2012
 -1       654    8    0    1
 -2       253       405       404      2012      2013      2008
 -1       655    8    0    1
 -2       254       255       406      1558      2014      2015
 -1       656    8    0    1
 -2       254       406       405      2015      2016      2011
 -1       657    8    0    1
 -2       255       256       407      1561      2017      2018
 -1       658    8    0    1
 -2       255       407       406      2018      2019      2014
 -1       659    8    0    1
 -2       256       257       408      1564      2020      2021
 -1       660    8    0    1
 -2       256       408       407      2021      2022      2017
 -1       661    8    0    1
 -2       257       258       409      1567      2023      2024
 -1       662    8    0    1
 -2       257       409       408      2024      2025      2020
 -1       663    8    0    1
 -2       258       259       410      1570      2026      2027
 -1       664    8    0    1
 -2       258       410       409      2027      2028      2023
 -1       665    8    0    1
 -2       259       260       411      1573      2029      2030
 -1       666    8    0    1
 -2       259       411       410      2030      2031      2026
 -1       667    8    0    1
 -2       260       261       412      1576      2032      2033
 -1       668    8    0    1
 -2       260       412       411      2033      2034      2029
 -1       669    8    0    1
 -2       261       262       413      1579      2035      2036
 -1       670    8    0    1
 -2       261       413       412      2036      2037      2032
 -1       671    8    0    1
 -2       262       263       414      1582      2038      2039
 -1       672    8    0    1
 -2       262       414       413      2039      2040      2035
 -1       673    8    0    1
 -2       263       264       415      1585      2041      2042
 -1       674    8    0    1
 -2       263       415       414      2042      2043      2038
 -1       675    8    0    1
 -2       264       265       416      1588      2044      2045
 -1       676    8    0    1
 -2       264       416       415      2045      2046      2041
 -1       677    8    0    1
 -2       265       266       417      1591      2047      2048
 -1       678    8    0    1
 -2       265       417       416      2048      2049      2044
 -1       679    8    0    1
 -2       266       267       418      1594      2050      2051
 -1       680    8    0    1
 -2       266       418       417      2051      2052      2047
 -1       681    8    0    1
 -2       267       268       419      1597      2053      2054
 -1       682    8    0    1
 -2       267       419       418      2054      2055      2050
 -1       683    8    0    1
 -2       268       269       420      1600      2056      2057
 -1       684    8    0    1
 -2       268       420       419      2057      2058      2053
 -1       685    8    0    1
 -2       269       270       421      1603      2059      2060
 -1       686    8    0    1
 -2       269       421       420      2060      2061      2056
 -1       687    8    0    1
 -2       270       271       422      1606      2062      2063
 -1       688    8    0    1
 -2       270       422       421      2063      2064      2059
 -1       689    8    0    1
 -2       271       272       423      1609      2065      2066
 -1       690    8    0    1
 -2       271       423       422      2066      2067      2062
 -1       691    8    0    1
 -2       272       273       424      1612      2068      2069
 -1       692    8    0    1
 -2       272       424       423      2069      2070      2065
 -1       693    8    0    1
 -2       273       274       425      1615      2071      2072
 -1       694    8    0    1
 -2       273       425       424      2072      2073      2068
 -1       695    8    0    1
 -2       274       275       426      1618      2074      2075
 -1       696    8    0    1
 -2       425       274       426      2071      2075      2076
 -1       697    8    0    1
 -2       275       276       426      1726      2077      2074
 -1       698    8    0    1
 -2       278       279       427      1630      2078      2079
 -1       699    8    0    1
 -2       277       278       428      1627      2080      2081
 -1       700    8    0    1
 -2       278       427       428      2079      2082      2080
 -1       701    8    0    1
 -2       276       277       429      1624      2083      2084
 -1       702    8    0    1
 -2       426       276       429      2077      2084      2085
 -1       703    8    0    1
 -2       277       428       429      2081      2086      2083
 -1       704    8    0    1
 -2       279       280       430      1633      2087      2088
 -1       705    8    0    1
 -2       279       430       427      2088      2089      2078
 -1       706    8    0    1
 -2       280       281       431      1636      2090      2091
 -1       707    8    0    1
 -2       280       431       430      2091      2092      2087
 -1       708    8    0    1
 -2       281       282       432      1639      2093      2094
 -1       709    8    0    1
 -2       281       432       431      2094      2095      2090
 -1       710    8    0    1
 -2       282       283       433      1642      2096      2097
 -1       711    8    0    1
 -2       282       433       432      2097      2098      2093
 -1       712    8    0    1
 -2       283       284       434      1645      2099      2100
 -1       713    8    0    1
 -2       283       434       433      2100      2101      2096
 -1       714    8    0    1
 -2       284       285       435      1648      2102      2103
 -1       715    8    0    1
 -2       284       435       434      2103      2104      2099
 -1       716    8    0    1
 -2       285       286       436      1651      2105      2106
 -1       717    8    0    1
 -2       285       436       435      2106      2107      2102
 -1       718    8    0    1
 -2       286       287       437      1654      2108      2109
 -1       719    8    0    1
 -2       286       437       436      2109      2110      2105
 -1       720    8    0    1
 -2       287       288       438      1657      2111      2112
 -1       721    8    0    1
 -2       287       438       437      2112      2113      2108
 -1       722    8    0    1
 -2       288       289       439      1660      2114      2115
 -1       723    8    0    1
 -2       288       439       438      2115      2116      2111
 -1       724    8    0    1
 -2       292       293       440      1728      2117      2118
 -1       725    8    0    1
 -2       319       291       441      1729      2119      2120
 -1       726    8    0    1
 -2       291       292       442      1727      2121      2122
 -1       727    8    0    1
 -2       292       440       442      2118      2123      2121
 -1       728    8    0    1
 -2       293       294       443      1724      2124      2125
 -1       729    8    0    1
 -2       294       295       444      1723      2126      2127
 -1       730    8    0    1
 -2       166       167       445      1292      2128      2129
 -1       731    8    0    1
 -2       320       166       445      1755      2129      2130
 -1       732    8    0    1
 -2       167       322       445      1761      2131      2128
 -1       733    8    0    1
 -2       296       297       446      1731      2132      2133
 -1       734    8    0    1
 -2       297       298       447      1732      2134      2135
 -1       735    8    0    1
 -2       298       299       448      1733      2136      2137
 -1       736    8    0    1
 -2       299       300       449      1734      2138      2139
 -1       737    8    0    1
 -2       300       301       450      1735      2140      2141
 -1       738    8    0    1
 -2       301       302       451      1736      2142      2143
 -1       739    8    0    1
 -2       302       303       452      1737      2144      2145
 -1       740    8    0    1
 -2       303       304       453      1738      2146      2147
 -1       741    8    0    1
 -2       304       305       454      1739      2148      2149
 -1       742    8    0    1
 -2       305       306       455      1740      2150      2151
 -1       743    8    0    1
 -2       306       307       456      1741      2152      2153
 -1       744    8    0    1
 -2       307       308       457      1742      2154      2155
 -1       745    8    0    1
 -2       308       309       458      1743      2156      2157
 -1       746    8    0    1
 -2       309       310       459      1744      2158      2159
 -1       747    8    0    1
 -2       310       311       460      1745      2160      2161
 -1       748    8    0    1
 -2       311       312       461      1746      2162      2163
 -1       749    8    0    1
 -2       312       313       462      1747      2164      2165
 -1       750    8    0    1
 -2       313       314       463      1748      2166      2167
 -1       751    8    0    1
 -2       313       463       462      2167      2168      2164
 -1       752    8    0    1
 -2       314       315       464      1749      2169      2170
 -1       753    8    0    1
 -2       315       316       465      1750      2171      2172
 -1       754    8    0    1
 -2       316       317       466      1751      2173      2174
 -1       755    8    0    1
 -2       317       318       467      1752      2175      2176
 -1       756    8    0    1
 -2       317       467       466      2176      2177      2173
 -1       757    8    0    1
 -2       318       319       468      1753      2178      2179
 -1       758    8    0    1
 -2       295       296       469      1730      2180      2181
 -1       759    8    0    1
 -2       444       295       469      2126      2181      2182
 -1       760    8    0    1
 -2       180       321       181      1800      2183      1334
 -1       761    8    0    1
 -2       296       446       469      2133      2184      2180
 -1       762    8    0    1
 -2       335       181       321      1801      2183      2185
 -1       763    8    0    1
 -2       441       291       470      2119      2186      2187
 -1       764    8    0    1
 -2       291       442       470      2122      2188      2186
 -1       765    8    0    1
 -2       293       443       440      2125      2189      2117
 -1       766    8    0    1
 -2       439       289       290      2114      1663      2190
 -1       767    8    0    1
 -2       319       441       468      2120      2191      2178
 -1       768    8    0    1
 -2       443       294       444      2124      2127      2192
 -1       769    8    0    1
 -2       467       318       468      2175      2179      2193
 -1       770    8    0    1
 -2       465       316       466      2171      2174      2194
 -1       771    8    0    1
 -2       463       314       471      2166      2195      2196
 -1       772    8    0    1
 -2       314       464       471      2170      2197      2195
 -1       773    8    0    1
 -2       461       312       462      2162      2165      2198
 -1       774    8    0    1
 -2       460       311       461      2160      2163      2199
 -1       775    8    0    1
 -2       459       310       460      2158      2161      2200
 -1       776    8    0    1
 -2       458       309       459      2156      2159      2201
 -1       777    8    0    1
 -2       457       308       458      2154      2157      2202
 -1       778    8    0    1
 -2       456       307       457      2152      2155      2203
 -1       779    8    0    1
 -2       455       306       456      2150      2153      2204
 -1       780    8    0    1
 -2       454       305       455      2148      2151      2205
 -1       781    8    0    1
 -2       453       304       454      2146      2149      2206
 -1       782    8    0    1
 -2       452       303       453      2144      2147      2207
 -1       783    8    0    1
 -2       451       302       452      2142      2145      2208
 -1       784    8    0    1
 -2       450       301       451      2140      2143      2209
 -1       785    8    0    1
 -2       449       300       450      2138      2141      2210
 -1       786    8    0    1
 -2       448       299       449      2136      2139      2211
 -1       787    8    0    1
 -2       446       297       447      2132      2135      2212
 -1       788    8    0    1
 -2       447       298       448      2134      2137      2213
 -1       789    8    0    1
 -2       464       315       465      2169      2172      2214
 -1       790    8    0    1
 -2       334       381       472      1941      2215      2216
 -1       791    8    0    1
 -2       323       324       473      1767      2217      2218
 -1       792    8    0    1
 -2       322       323       474      1764      2219      2220
 -1       793    8    0    1
 -2       323       473       474      2218      2221      2219
 -1       794    8    0    1
 -2       325       326       475      1773      2222      2223
 -1       795    8    0    1
 -2       326       327       476      1776      2224      2225
 -1       796    8    0    1
 -2       326       476       475      2225      2226      2222
 -1       797    8    0    1
 -2       327       328       477      1779      2227      2228
 -1       798    8    0    1
 -2       328       329       478      1782      2229      2230
 -1       799    8    0    1
 -2       328       478       477      2230      2231      2227
 -1       800    8    0    1
 -2       329       330       479      1785      2232      2233
 -1       801    8    0    1
 -2       329       479       478      2233      2234      2229
 -1       802    8    0    1
 -2       330       331       480      1788      2235      2236
 -1       803    8    0    1
 -2       330       480       479      2236      2237      2232
 -1       804    8    0    1
 -2       381       382       481      1944      2238      2239
 -1       805    8    0    1
 -2       381       481       472      2239      2240      2215
 -1       806    8    0    1
 -2       336       335       482      1805      2241      2242
 -1       807    8    0    1
 -2       469       446       483      2184      2243      2244
 -1       808    8    0    1
 -2       337       336       484      1808      2245      2246
 -1       809    8    0    1
 -2       336       482       484      2242      2247      2245
 -1       810    8    0    1
 -2       338       337       485      1811      2248      2249
 -1       811    8    0    1
 -2       337       484       485      2246      2250      2248
 -1       812    8    0    1
 -2       339       338       486      1814      2251      2252
 -1       813    8    0    1
 -2       338       485       486      2249      2253      2251
 -1       814    8    0    1
 -2       340       339       487      1817      2254      2255
 -1       815    8    0    1
 -2       339       486       487      2252      2256      2254
 -1       816    8    0    1
 -2       341       340       488      1820      2257      2258
 -1       817    8    0    1
 -2       340       487       488      2255      2259      2257
 -1       818    8    0    1
 -2       342       341       489      1823      2260      2261
 -1       819    8    0    1
 -2       341       488       489      2258      2262      2260
 -1       820    8    0    1
 -2       343       342       490      1826      2263      2264
 -1       821    8    0    1
 -2       342       489       490      2261      2265      2263
 -1       822    8    0    1
 -2       344       343       491      1829      2266      2267
 -1       823    8    0    1
 -2       343       490       491      2264      2268      2266
 -1       824    8    0    1
 -2       345       344       492      1832      2269      2270
 -1       825    8    0    1
 -2       344       491       492      2267      2271      2269
 -1       826    8    0    1
 -2       346       345       493      1835      2272      2273
 -1       827    8    0    1
 -2       345       492       493      2270      2274      2272
 -1       828    8    0    1
 -2       347       346       494      1838      2275      2276
 -1       829    8    0    1
 -2       346       493       494      2273      2277      2275
 -1       830    8    0    1
 -2       348       347       495      1841      2278      2279
 -1       831    8    0    1
 -2       347       494       495      2276      2280      2278
 -1       832    8    0    1
 -2       349       348       496      1844      2281      2282
 -1       833    8    0    1
 -2       348       495       496      2279      2283      2281
 -1       834    8    0    1
 -2       350       349       497      1847      2284      2285
 -1       835    8    0    1
 -2       349       496       497      2282      2286      2284
 -1       836    8    0    1
 -2       351       350       498      1850      2287      2288
 -1       837    8    0    1
 -2       350       497       498      2285      2289      2287
 -1       838    8    0    1
 -2       352       351       499      1853      2290      2291
 -1       839    8    0    1
 -2       351       498       499      2288      2292      2290
 -1       840    8    0    1
 -2       353       352       500      1856      2293      2294
 -1       841    8    0    1
 -2       352       499       500      2291      2295      2293
 -1       842    8    0    1
 -2       354       353       501      1859      2296      2297
 -1       843    8    0    1
 -2       353       500       501      2294      2298      2296
 -1       844    8    0    1
 -2       355       354       502      1862      2299      2300
 -1       845    8    0    1
 -2       354       501       502      2297      2301      2299
 -1       846    8    0    1
 -2       356       355       503      1865      2302      2303
 -1       847    8    0    1
 -2       355       502       503      2300      2304      2302
 -1       848    8    0    1
 -2       357       356       504      1868      2305      2306
 -1       849    8    0    1
 -2       356       503       504      2303      2307      2305
 -1       850    8    0    1
 -2       358       357       505      1871      2308      2309
 -1       851    8    0    1
 -2       357       504       505      2306      2310      2308
 -1       852    8    0    1
 -2       359       358       506      1874      2311      2312
 -1       853    8    0    1
 -2       358       505       506      2309      2313      2311
 -1       854    8    0    1
 -2       360       359       507      1877      2314      2315
 -1       855    8    0    1
 -2       359       506       507      2312      2316      2314
 -1       856    8    0    1
 -2       361       360       508      1880      2317      2318
 -1       857    8    0    1
 -2       360       507       508      2315      2319      2317
 -1       858    8    0    1
 -2       362       361       509      1883      2320      2321
 -1       859    8    0    1
 -2       361       508       509      2318      2322      2320
 -1       860    8    0    1
 -2       363       362       510      1886      2323      2324
 -1       861    8    0    1
 -2       362       509       510      2321      2325      2323
 -1       862    8    0    1
 -2       364       363       511      1889      2326      2327
 -1       863    8    0    1
 -2       363       510       511      2324      2328      2326
 -1       864    8    0    1
 -2       365       364       512      1892      2329      2330
 -1       865    8    0    1
 -2       364       511       512      2327      2331      2329
 -1       866    8    0    1
 -2       366       365       513      1895      2332      2333
 -1       867    8    0    1
 -2       365       512       513      2330      2334      2332
 -1       868    8    0    1
 -2       367       366       514      1898      2335      2336
 -1       869    8    0    1
 -2       366       513       514      2333      2337      2335
 -1       870    8    0    1
 -2       368       367       515      1901      2338      2339
 -1       871    8    0    1
 -2       367       514       515      2336      2340      2338
 -1       872    8    0    1
 -2       369       368       516      1904      2341      2342
 -1       873    8    0    1
 -2       368       515       516      2339      2343      2341
 -1       874    8    0    1
 -2       370       369       517      1907      2344      2345
 -1       875    8    0    1
 -2       369       516       517      2342      2346      2344
 -1       876    8    0    1
 -2       371       370       518      1910      2347      2348
 -1       877    8    0    1
 -2       370       517       518      2345      2349      2347
 -1       878    8    0    1
 -2       372       371       519      1913      2350      2351
 -1       879    8    0    1
 -2       371       518       519      2348      2352      2350
 -1       880    8    0    1
 -2       373       372       520      1916      2353      2354
 -1       881    8    0    1
 -2       372       519       520      2351      2355      2353
 -1       882    8    0    1
 -2       374       373       521      1919      2356      2357
 -1       883    8    0    1
 -2       373       520       521      2354      2358      2356
 -1       884    8    0    1
 -2       375       374       522      1922      2359      2360
 -1       885    8    0    1
 -2       374       521       522      2357      2361      2359
 -1       886    8    0    1
 -2       376       375       523      1925      2362      2363
 -1       887    8    0    1
 -2       375       522       523      2360      2364      2362
 -1       888    8    0    1
 -2       377       376       524      1928      2365      2366
 -1       889    8    0    1
 -2       376       523       524      2363      2367      2365
 -1       890    8    0    1
 -2       378       377       525      1931      2368      2369
 -1       891    8    0    1
 -2       377       524       525      2366      2370      2368
 -1       892    8    0    1
 -2       379       378       526      1934      2371      2372
 -1       893    8    0    1
 -2       378       525       526      2369      2373      2371
 -1       894    8    0    1
 -2       442       440       527      2123      2374      2375
 -1       895    8    0    1
 -2       383       384       528      1950      2376      2377
 -1       896    8    0    1
 -2       384       385       529      1953      2378      2379
 -1       897    8    0    1
 -2       384       529       528      2379      2380      2376
 -1       898    8    0    1
 -2       385       386       530      1956      2381      2382
 -1       899    8    0    1
 -2       385       530       529      2382      2383      2378
 -1       900    8    0    1
 -2       386       387       531      1959      2384      2385
 -1       901    8    0    1
 -2       386       531       530      2385      2386      2381
 -1       902    8    0    1
 -2       387       388       532      1962      2387      2388
 -1       903    8    0    1
 -2       387       532       531      2388      2389      2384
 -1       904    8    0    1
 -2       388       389       533      1965      2390      2391
 -1       905    8    0    1
 -2       388       533       532      2391      2392      2387
 -1       906    8    0    1
 -2       389       390       534      1968      2393      2394
 -1       907    8    0    1
 -2       389       534       533      2394      2395      2390
 -1       908    8    0    1
 -2       390       391       535      1971      2396      2397
 -1       909    8    0    1
 -2       390       535       534      2397      2398      2393
 -1       910    8    0    1
 -2       391       392       536      1974      2399      2400
 -1       911    8    0    1
 -2       391       536       535      2400      2401      2396
 -1       912    8    0    1
 -2       392       393       537      1977      2402      2403
 -1       913    8    0    1
 -2       392       537       536      2403      2404      2399
 -1       914    8    0    1
 -2       393       394       538      1980      2405      2406
 -1       915    8    0    1
 -2       393       538       537      2406      2407      2402
 -1       916    8    0    1
 -2       394       395       539      1983      2408      2409
 -1       917    8    0    1
 -2       394       539       538      2409      2410      2405
 -1       918    8    0    1
 -2       395       396       540      1986      2411      2412
 -1       919    8    0    1
 -2       395       540       539      2412      2413      2408
 -1       920    8    0    1
 -2       396       397       541      1989      2414      2415
 -1       921    8    0    1
 -2       396       541       540      2415      2416      2411
 -1       922    8    0    1
 -2       397       398       542      1992      2417      2418
 -1       923    8    0    1
 -2       397       542       541      2418      2419      2414
 -1       924    8    0    1
 -2       398       399       543      1995      2420      2421
 -1       925    8    0    1
 -2       398       543       542      2421      2422      2417
 -1       926    8    0    1
 -2       399       400       544      1998      2423      2424
 -1       927    8    0    1
 -2       399       544       543      2424      2425      2420
 -1       928    8    0    1
 -2       400       401       545      2001      2426      2427
 -1       929    8    0    1
 -2       400       545       544      2427      2428      2423
 -1       930    8    0    1
 -2       401       402       546      2004      2429      2430
 -1       931    8    0    1
 -2       401       546       545      2430      2431      2426
 -1       932    8    0    1
 -2       402       403       547      2007      2432      2433
 -1       933    8    0    1
 -2       402       547       546      2433      2434      2429
 -1       934    8    0    1
 -2       403       404       548      2010      2435      2436
 -1       935    8    0    1
 -2       403       548       547      2436      2437      2432
 -1       936    8    0    1
 -2       404       405       549      2013      2438      2439
 -1       937    8    0    1
 -2       404       549       548      2439      2440      2435
 -1       938    8    0    1
 -2       405       406       550      2016      2441      2442
 -1       939    8    0    1
 -2       405       550       549      2442      2443      2438
 -1       940    8    0    1
 -2       406       407       551      2019      2444      2445
 -1       941    8    0    1
 -2       406       551       550      2445      2446      2441
 -1       942    8    0    1
 -2       407       408       552      2022      2447      2448
 -1       943    8    0    1
 -2       407       552       551      2448      2449      2444
 -1       944    8    0    1
 -2       408       409       553      2025      2450      2451
 -1       945    8    0    1
 -2       408       553       552      2451      2452      2447
 -1       946    8    0    1
 -2       409       410       554      2028      2453      2454
 -1       947    8    0    1
 -2       409       554       553      2454      2455      2450
 -1       948    8    0    1
 -2       410       411       555      2031      2456      2457
 -1       949    8    0    1
 -2       410       555       554      2457      2458      2453
 -1       950    8    0    1
 -2       411       412       556      2034      2459      2460
 -1       951    8    0    1
 -2       411       556       555      2460      2461      2456
 -1       952    8    0    1
 -2       412       413       557      2037      2462      2463
 -1       953    8    0    1
 -2       412       557       556      2463      2464      2459
 -1       954    8    0    1
 -2       413       414       558      2040      2465      2466
 -1       955    8    0    1
 -2       413       558       557      2466      2467      2462
 -1       956    8    0    1
 -2       414       415       559      2043      2468      2469
 -1       957    8    0    1
 -2       414       559       558      2469      2470      2465
 -1       958    8    0    1
 -2       415       416       560      2046      2471      2472
 -1       959    8    0    1
 -2       415       560       559      2472      2473      2468
 -1       960    8    0    1
 -2       416       417       561      2049      2474      2475
 -1       961    8    0    1
 -2       416       561       560      2475      2476      2471
 -1       962    8    0    1
 -2       417       418       562      2052      2477      2478
 -1       963    8    0    1
 -2       417       562       561      2478      2479      2474
 -1       964    8    0    1
 -2       418       419       563      2055      2480      2481
 -1       965    8    0    1
 -2       418       563       562      2481      2482      2477
 -1       966    8    0    1
 -2       419       420       564      2058      2483      2484
 -1       967    8    0    1
 -2       419       564       563      2484      2485      2480
 -1       968    8    0    1
 -2       420       421       565      2061      2486      2487
 -1       969    8    0    1
 -2       420       565       564      2487      2488      2483
 -1       970    8    0    1
 -2       421       422       566      2064      2489      2490
 -1       971    8    0    1
 -2       421       566       565      2490      2491      2486
 -1       972    8    0    1
 -2       422       423       567      2067      2492      2493
 -1       973    8    0    1
 -2       422       567       566      2493      2494      2489
 -1       974    8    0    1
 -2       423       424       568      2070      2495      2496
 -1       975    8    0    1
 -2       423       568       567      2496      2497      2492
 -1       976    8    0    1
 -2       424       425       569      2073      2498      2499
 -1       977    8    0    1
 -2       424       569       568      2499      2500      2495
 -1       978    8    0    1
 -2       425       426       429      2076      2085      2501
 -1       979    8    0    1
 -2       430       431       570      2092      2502      2503
 -1       980    8    0    1
 -2       431       432       571      2095      2504      2505
 -1       981    8    0    1
 -2       431       571       570      2505      2506      2502
 -1       982    8    0    1
 -2       428       427       572      2082      2507      2508
 -1       983    8    0    1
 -2       427       430       573      2089      2509      2510
 -1       984    8    0    1
 -2       572       427       573      2507      2510      2511
 -1       985    8    0    1
 -2       430       570       573      2503      2512      2509
 -1       986    8    0    1
 -2       432       433       574      2098      2513      2514
 -1       987    8    0    1
 -2       432       574       571      2514      2515      2504
 -1       988    8    0    1
 -2       433       434       575      2101      2516      2517
 -1       989    8    0    1
 -2       433       575       574      2517      2518      2513
 -1       990    8    0    1
 -2       434       435       576      2104      2519      2520
 -1       991    8    0    1
 -2       434       576       575      2520      2521      2516
 -1       992    8    0    1
 -2       435       436       577      2107      2522      2523
 -1       993    8    0    1
 -2       435       577       576      2523      2524      2519
 -1       994    8    0    1
 -2       436       437       578      2110      2525      2526
 -1       995    8    0    1
 -2       436       578       577      2526      2527      2522
 -1       996    8    0    1
 -2       437       438       579      2113      2528      2529
 -1       997    8    0    1
 -2       437       579       578      2529      2530      2525
 -1       998    8    0    1
 -2       438       439       580      2116      2531      2532
 -1       999    8    0    1
 -2       438       580       579      2532      2533      2528
 -1      1000    8    0    1
 -2       439       290       380      2190      1937      2534
 -1      1001    8    0    1
 -2       468       441       581      2191      2535      2536
 -1      1002    8    0    1
 -2       382       383       582      1947      2537      2538
 -1      1003    8    0    1
 -2       383       528       582      2377      2539      2537
 -1      1004    8    0    1
 -2       440       443       583      2189      2540      2541
 -1      1005    8    0    1
 -2       467       468       584      2193      2542      2543
 -1      1006    8    0    1
 -2       335       321       585      2185      2544      2545
 -1      1007    8    0    1
 -2       482       335       585      2241      2545      2546
 -1      1008    8    0    1
 -2       321       320       585      1759      2547      2544
 -1      1009    8    0    1
 -2       465       466       586      2194      2548      2549
 -1      1010    8    0    1
 -2       461       462       587      2198      2550      2551
 -1      1011    8    0    1
 -2       324       325       588      1770      2552      2553
 -1      1012    8    0    1
 -2       324       588       473      2553      2554      2217
 -1      1013    8    0    1
 -2       447       448       589      2213      2555      2556
 -1      1014    8    0    1
 -2       464       465       590      2214      2557      2558
 -1      1015    8    0    1
 -2       446       447       591      2212      2559      2560
 -1      1016    8    0    1
 -2       448       449       592      2211      2561      2562
 -1      1017    8    0    1
 -2       449       450       593      2210      2563      2564
 -1      1018    8    0    1
 -2       450       451       594      2209      2565      2566
 -1      1019    8    0    1
 -2       451       452       595      2208      2567      2568
 -1      1020    8    0    1
 -2       451       595       594      2568      2569      2565
 -1      1021    8    0    1
 -2       452       453       596      2207      2570      2571
 -1      1022    8    0    1
 -2       453       454       597      2206      2572      2573
 -1      1023    8    0    1
 -2       453       597       596      2573      2574      2570
 -1      1024    8    0    1
 -2       454       455       598      2205      2575      2576
 -1      1025    8    0    1
 -2       455       456       599      2204      2577      2578
 -1      1026    8    0    1
 -2       456       457       600      2203      2579      2580
 -1      1027    8    0    1
 -2       457       458       601      2202      2581      2582
 -1      1028    8    0    1
 -2       457       601       600      2582      2583      2579
 -1      1029    8    0    1
 -2       458       459       602      2201      2584      2585
 -1      1030    8    0    1
 -2       459       460       603      2200      2586      2587
 -1      1031    8    0    1
 -2       460       461       604      2199      2588      2589
 -1      1032    8    0    1
 -2       462       463       605      2168      2590      2591
 -1      1033    8    0    1
 -2       466       467       606      2177      2592      2593
 -1      1034    8    0    1
 -2       443       444       607      2192      2594      2595
 -1      1035    8    0    1
 -2       443       607       583      2595      2596      2540
 -1      1036    8    0    1
 -2       333       334       608      1799      2597      2598
 -1      1037    8    0    1
 -2       332       333       608      1794      2598      2599
 -1      1038    8    0    1
 -2       334       472       608      2216      2600      2597
 -1      1039    8    0    1
 -2       444       469       609      2182      2601      2602
 -1      1040    8    0    1
 -2       325       475       588      2223      2603      2552
 -1      1041    8    0    1
 -2       322       474       610      2220      2604      2605
 -1      1042    8    0    1
 -2       322       610       445      2605      2606      2131
 -1      1043    8    0    1
 -2       327       477       476      2228      2607      2224
 -1      1044    8    0    1
 -2       481       382       582      2238      2538      2608
 -1      1045    8    0    1
 -2       331       332       608      1791      2599      2609
 -1      1046    8    0    1
 -2       609       469       483      2601      2244      2610
 -1      1047    8    0    1
 -2       607       444       609      2594      2602      2611
 -1      1048    8    0    1
 -2       606       467       584      2592      2543      2612
 -1      1049    8    0    1
 -2       586       466       606      2548      2593      2613
 -1      1050    8    0    1
 -2       605       463       471      2590      2196      2614
 -1      1051    8    0    1
 -2       470       442       527      2188      2375      2615
 -1      1052    8    0    1
 -2       468       581       584      2536      2616      2542
 -1      1053    8    0    1
 -2       527       440       583      2374      2541      2617
 -1      1054    8    0    1
 -2       425       429       569      2501      2618      2498
 -1      1055    8    0    1
 -2       429       428       569      2086      2619      2618
 -1      1056    8    0    1
 -2       604       461       587      2588      2551      2620
 -1      1057    8    0    1
 -2       439       380       611      2534      2621      2622
 -1      1058    8    0    1
 -2       580       439       611      2531      2622      2623
 -1      1059    8    0    1
 -2       380       379       611      1938      2624      2621
 -1      1060    8    0    1
 -2       603       460       604      2586      2589      2625
 -1      1061    8    0    1
 -2       601       458       602      2581      2585      2626
 -1      1062    8    0    1
 -2       581       441       612      2535      2627      2628
 -1      1063    8    0    1
 -2       441       470       612      2187      2629      2627
 -1      1064    8    0    1
 -2       331       608       480      2609      2630      2235
 -1      1065    8    0    1
 -2       599       456       600      2577      2580      2631
 -1      1066    8    0    1
 -2       587       462       605      2550      2591      2632
 -1      1067    8    0    1
 -2       597       454       598      2572      2576      2633
 -1      1068    8    0    1
 -2       471       464       590      2197      2558      2634
 -1      1069    8    0    1
 -2       595       452       613      2567      2635      2636
 -1      1070    8    0    1
 -2       452       596       613      2571      2637      2635
 -1      1071    8    0    1
 -2       593       450       594      2563      2566      2638
 -1      1072    8    0    1
 -2       592       449       593      2561      2564      2639
 -1      1073    8    0    1
 -2       591       447       589      2559      2556      2640
 -1      1074    8    0    1
 -2       590       465       586      2557      2549      2641
 -1      1075    8    0    1
 -2       585       320       445      2547      2130      2642
 -1      1076    8    0    1
 -2       483       446       591      2243      2560      2643
 -1      1077    8    0    1
 -2       589       448       592      2555      2562      2644
 -1      1078    8    0    1
 -2       598       455       599      2575      2578      2645
 -1      1079    8    0    1
 -2       602       459       603      2584      2587      2646
 -1      1080    8    0    1
 -2       569       428       572      2619      2508      2647
 -1      1081    8    0    1
 -2       611       379       526      2624      2372      2648
 -1      1082    8    0    1
 -2       475       476       614      2226      2649      2650
 -1      1083    8    0    1
 -2       478       479       615      2234      2651      2652
 -1      1084    8    0    1
 -2       477       478       616      2231      2653      2654
 -1      1085    8    0    1
 -2       478       615       616      2652      2655      2653
 -1      1086    8    0    1
 -2       472       481       617      2240      2656      2657
 -1      1087    8    0    1
 -2       599       600       618      2631      2658      2659
 -1      1088    8    0    1
 -2       476       477       619      2607      2660      2661
 -1      1089    8    0    1
 -2       614       476       619      2649      2661      2662
 -1      1090    8    0    1
 -2       477       616       619      2654      2663      2660
 -1      1091    8    0    1
 -2       607       609       620      2611      2664      2665
 -1      1092    8    0    1
 -2       485       484       621      2250      2666      2667
 -1      1093    8    0    1
 -2       486       485       622      2253      2668      2669
 -1      1094    8    0    1
 -2       485       621       622      2667      2670      2668
 -1      1095    8    0    1
 -2       487       486       623      2256      2671      2672
 -1      1096    8    0    1
 -2       486       622       623      2669      2673      2671
 -1      1097    8    0    1
 -2       488       487       624      2259      2674      2675
 -1      1098    8    0    1
 -2       487       623       624      2672      2676      2674
 -1      1099    8    0    1
 -2       489       488       625      2262      2677      2678
 -1      1100    8    0    1
 -2       488       624       625      2675      2679      2677
 -1      1101    8    0    1
 -2       490       489       626      2265      2680      2681
 -1      1102    8    0    1
 -2       489       625       626      2678      2682      2680
 -1      1103    8    0    1
 -2       491       490       627      2268      2683      2684
 -1      1104    8    0    1
 -2       490       626       627      2681      2685      2683
 -1      1105    8    0    1
 -2       492       491       628      2271      2686      2687
 -1      1106    8    0    1
 -2       491       627       628      2684      2688      2686
 -1      1107    8    0    1
 -2       493       492       629      2274      2689      2690
 -1      1108    8    0    1
 -2       492       628       629      2687      2691      2689
 -1      1109    8    0    1
 -2       494       493       630      2277      2692      2693
 -1      1110    8    0    1
 -2       493       629       630      2690      2694      2692
 -1      1111    8    0    1
 -2       495       494       631      2280      2695      2696
 -1      1112    8    0    1
 -2       494       630       631      2693      2697      2695
 -1      1113    8    0    1
 -2       496       495       632      2283      2698      2699
 -1      1114    8    0    1
 -2       495       631       632      2696      2700      2698
 -1      1115    8    0    1
 -2       497       496       633      2286      2701      2702
 -1      1116    8    0    1
 -2       496       632       633      2699      2703      2701
 -1      1117    8    0    1
 -2       498       497       634      2289      2704      2705
 -1      1118    8    0    1
 -2       497       633       634      2702      2706      2704
 -1      1119    8    0    1
 -2       499       498       635      2292      2707      2708
 -1      1120    8    0    1
 -2       498       634       635      2705      2709      2707
 -1      1121    8    0    1
 -2       500       499       636      2295      2710      2711
 -1      1122    8    0    1
 -2       499       635       636      2708      2712      2710
 -1      1123    8    0    1
 -2       501       500       637      2298      2713      2714
 -1      1124    8    0    1
 -2       500       636       637      2711      2715      2713
 -1      1125    8    0    1
 -2       502       501       638      2301      2716      2717
 -1      1126    8    0    1
 -2       501       637       638      2714      2718      2716
 -1      1127    8    0    1
 -2       503       502       639      2304      2719      2720
 -1      1128    8    0    1
 -2       502       638       639      2717      2721      2719
 -1      1129    8    0    1
 -2       504       503       640      2307      2722      2723
 -1      1130    8    0    1
 -2       503       639       640      2720      2724      2722
 -1      1131    8    0    1
 -2       505       504       641      2310      2725      2726
 -1      1132    8    0    1
 -2       504       640       641      2723      2727      2725
 -1      1133    8    0    1
 -2       506       505       642      2313      2728      2729
 -1      1134    8    0    1
 -2       505       641       642      2726      2730      2728
 -1      1135    8    0    1
 -2       507       506       643      2316      2731      2732
 -1      1136    8    0    1
 -2       506       642       643      2729      2733      2731
 -1      1137    8    0    1
 -2       508       507       644      2319      2734      2735
 -1      1138    8    0    1
 -2       507       643       644      2732      2736      2734
 -1      1139    8    0    1
 -2       509       508       645      2322      2737      2738
 -1      1140    8    0    1
 -2       508       644       645      2735      2739      2737
 -1      1141    8    0    1
 -2       510       509       646      2325      2740      2741
 -1      1142    8    0    1
 -2       509       645       646      2738      2742      2740
 -1      1143    8    0    1
 -2       511       510       647      2328      2743      2744
 -1      1144    8    0    1
 -2       510       646       647      2741      2745      2743
 -1      1145    8    0    1
 -2       512       511       648      2331      2746      2747
 -1      1146    8    0    1
 -2       511       647       648      2744      2748      2746
 -1      1147    8    0    1
 -2       513       512       649      2334      2749      2750
 -1      1148    8    0    1
 -2       512       648       649      2747      2751      2749
 -1      1149    8    0    1
 -2       514       513       650      2337      2752      2753
 -1      1150    8    0    1
 -2       513       649       650      2750      2754      2752
 -1      1151    8    0    1
 -2       515       514       651      2340      2755      2756
 -1      1152    8    0    1
 -2       514       650       651      2753      2757      2755
 -1      1153    8    0    1
 -2       516       515       652      2343      2758      2759
 -1      1154    8    0    1
 -2       515       651       652      2756      2760      2758
 -1      1155    8    0    1
 -2       517       516       653      2346      2761      2762
 -1      1156    8    0    1
 -2       516       652       653      2759      2763      2761
 -1      1157    8    0    1
 -2       518       517       654      2349      2764      2765
 -1      1158    8    0    1
 -2       517       653       654      2762      2766      2764
 -1      1159    8    0    1
 -2       519       518       655      2352      2767      2768
 -1      1160    8    0    1
 -2       518       654       655      2765      2769      2767
 -1      1161    8    0    1
 -2       520       519       656      2355      2770      2771
 -1      1162    8    0    1
 -2       519       655       656      2768      2772      2770
 -1      1163    8    0    1
 -2       521       520       657      2358      2773      2774
 -1      1164    8    0    1
 -2       520       656       657      2771      2775      2773
 -1      1165    8    0    1
 -2       522       521       658      2361      2776      2777
 -1      1166    8    0    1
 -2       521       657       658      2774      2778      2776
 -1      1167    8    0    1
 -2       523       522       659      2364      2779      2780
 -1      1168    8    0    1
 -2       522       658       659      2777      2781      2779
 -1      1169    8    0    1
 -2       524       523       660      2367      2782      2783
 -1      1170    8    0    1
 -2       523       659       660      2780      2784      2782
 -1      1171    8    0    1
 -2       525       524       661      2370      2785      2786
 -1      1172    8    0    1
 -2       524       660       661      2783      2787      2785
 -1      1173    8    0    1
 -2       526       525       662      2373      2788      2789
 -1      1174    8    0    1
 -2       525       661       662      2786      2790      2788
 -1      1175    8    0    1
 -2       603       604       663      2625      2791      2792
 -1      1176    8    0    1
 -2       604       587       664      2620      2793      2794
 -1      1177    8    0    1
 -2       528       529       665      2380      2795      2796
 -1      1178    8    0    1
 -2       531       532       666      2389      2797      2798
 -1      1179    8    0    1
 -2       532       533       667      2392      2799      2800
 -1      1180    8    0    1
 -2       532       667       666      2800      2801      2797
 -1      1181    8    0    1
 -2       533       534       668      2395      2802      2803
 -1      1182    8    0    1
 -2       533       668       667      2803      2804      2799
 -1      1183    8    0    1
 -2       534       535       669      2398      2805      2806
 -1      1184    8    0    1
 -2       534       669       668      2806      2807      2802
 -1      1185    8    0    1
 -2       535       536       670      2401      2808      2809
 -1      1186    8    0    1
 -2       535       670       669      2809      2810      2805
 -1      1187    8    0    1
 -2       536       537       671      2404      2811      2812
 -1      1188    8    0    1
 -2       536       671       670      2812      2813      2808
 -1      1189    8    0    1
 -2       537       538       672      2407      2814      2815
 -1      1190    8    0    1
 -2       537       672       671      2815      2816      2811
 -1      1191    8    0    1
 -2       538       539       673      2410      2817      2818
 -1      1192    8    0    1
 -2       538       673       672      2818      2819      2814
 -1      1193    8    0    1
 -2       539       540       674      2413      2820      2821
 -1      1194    8    0    1
 -2       539       674       673      2821      2822      2817
 -1      1195    8    0    1
 -2       540       541       675      2416      2823      2824
 -1      1196    8    0    1
 -2       540       675       674      2824      2825      2820
 -1      1197    8    0    1
 -2       541       542       676      2419      2826      2827
 -1      1198    8    0    1
 -2       541       676       675      2827      2828      2823
 -1      1199    8    0    1
 -2       542       543       677      2422      2829      2830
 -1      1200    8    0    1
 -2       542       677       676      2830      2831      2826
 -1      1201    8    0    1
 -2       543       544       678      2425      2832      2833
 -1      1202    8    0    1
 -2       543       678       677      2833      2834      2829
 -1      1203    8    0    1
 -2       544       545       679      2428      2835      2836
 -1      1204    8    0    1
 -2       544       679       678      2836      2837      2832
 -1      1205    8    0    1
 -2       545       546       680      2431      2838      2839
 -1      1206    8    0    1
 -2       545       680       679      2839      2840      2835
 -1      1207    8    0    1
 -2       546       547       681      2434      2841      2842
 -1      1208    8    0    1
 -2       546       681       680      2842      2843      2838
 -1      1209    8    0    1
 -2       547       548       682      2437      2844      2845
 -1      1210    8    0    1
 -2       547       682       681      2845      2846      2841
 -1      1211    8    0    1
 -2       548       549       683      2440      2847      2848
 -1      1212    8    0    1
 -2       548       683       682      2848      2849      2844
 -1      1213    8    0    1
 -2       549       550       684      2443      2850      2851
 -1      1214    8    0    1
 -2       549       684       683      2851      2852      2847
 -1      1215    8    0    1
 -2       550       551       685      2446      2853      2854
 -1      1216    8    0    1
 -2       550       685       684      2854      2855      2850
 -1      1217    8    0    1
 -2       551       552       686      2449      2856      2857
 -1      1218    8    0    1
 -2       551       686       685      2857      2858      2853
 -1      1219    8    0    1
 -2       552       553       687      2452      2859      2860
 -1      1220    8    0    1
 -2       552       687       686      2860      2861      2856
 -1      1221    8    0    1
 -2       553       554       688      2455      2862      2863
 -1      1222    8    0    1
 -2       553       688       687      2863      2864      2859
 -1      1223    8    0    1
 -2       554       555       689      2458      2865      2866
 -1      1224    8    0    1
 -2       554       689       688      2866      2867      2862
 -1      1225    8    0    1
 -2       555       556       690      2461      2868      2869
 -1      1226    8    0    1
 -2       555       690       689      2869      2870      2865
 -1      1227    8    0    1
 -2       556       557       691      2464      2871      2872
 -1      1228    8    0    1
 -2       556       691       690      2872      2873      2868
 -1      1229    8    0    1
 -2       557       558       692      2467      2874      2875
 -1      1230    8    0    1
 -2       557       692       691      2875      2876      2871
 -1      1231    8    0    1
 -2       558       559       693      2470      2877      2878
 -1      1232    8    0    1
 -2       558       693       692      2878      2879      2874
 -1      1233    8    0    1
 -2       559       560       694      2473      2880      2881
 -1      1234    8    0    1
 -2       559       694       693      2881      2882      2877
 -1      1235    8    0    1
 -2       560       561       695      2476      2883      2884
 -1      1236    8    0    1
 -2       560       695       694      2884      2885      2880
 -1      1237    8    0    1
 -2       561       562       696      2479      2886      2887
 -1      1238    8    0    1
 -2       561       696       695      2887      2888      2883
 -1      1239    8    0    1
 -2       562       563       697      2482      2889      2890
 -1      1240    8    0    1
 -2       562       697       696      2890      2891      2886
 -1      1241    8    0    1
 -2       563       564       698      2485      2892      2893
 -1      1242    8    0    1
 -2       563       698       697      2893      2894      2889
 -1      1243    8    0    1
 -2       564       565       699      2488      2895      2896
 -1      1244    8    0    1
 -2       564       699       698      2896      2897      2892
 -1      1245    8    0    1
 -2       565       566       700      2491      2898      2899
 -1      1246    8    0    1
 -2       565       700       699      2899      2900      2895
 -1      1247    8    0    1
 -2       566       567       701      2494      2901      2902
 -1      1248    8    0    1
 -2       566       701       700      2902      2903      2898
 -1      1249    8    0    1
 -2       567       568       702      2497      2904      2905
 -1      1250    8    0    1
 -2       567       702       701      2905      2906      2901
 -1      1251    8    0    1
 -2       568       569       703      2500      2907      2908
 -1      1252    8    0    1
 -2       702       568       703      2904      2908      2909
 -1      1253    8    0    1
 -2       569       572       703      2647      2910      2907
 -1      1254    8    0    1
 -2       574       575       704      2518      2911      2912
 -1      1255    8    0    1
 -2       611       526       705      2648      2913      2914
 -1      1256    8    0    1
 -2       526       662       705      2789      2915      2913
 -1      1257    8    0    1
 -2       570       571       706      2506      2916      2917
 -1      1258    8    0    1
 -2       575       576       707      2521      2918      2919
 -1      1259    8    0    1
 -2       575       707       704      2919      2920      2911
 -1      1260    8    0    1
 -2       571       574       708      2515      2921      2922
 -1      1261    8    0    1
 -2       706       571       708      2916      2922      2923
 -1      1262    8    0    1
 -2       574       704       708      2912      2924      2921
 -1      1263    8    0    1
 -2       527       583       709      2617      2925      2926
 -1      1264    8    0    1
 -2       576       577       710      2524      2927      2928
 -1      1265    8    0    1
 -2       576       710       707      2928      2929      2918
 -1      1266    8    0    1
 -2       577       578       711      2527      2930      2931
 -1      1267    8    0    1
 -2       577       711       710      2931      2932      2927
 -1      1268    8    0    1
 -2       578       579       712      2530      2933      2934
 -1      1269    8    0    1
 -2       578       712       711      2934      2935      2930
 -1      1270    8    0    1
 -2       582       528       713      2539      2936      2937
 -1      1271    8    0    1
 -2       528       665       713      2796      2938      2936
 -1      1272    8    0    1
 -2       609       483       714      2610      2939      2940
 -1      1273    8    0    1
 -2       586       606       715      2613      2941      2942
 -1      1274    8    0    1
 -2       482       585       716      2546      2943      2944
 -1      1275    8    0    1
 -2       580       611       705      2623      2914      2945
 -1      1276    8    0    1
 -2       473       588       717      2554      2946      2947
 -1      1277    8    0    1
 -2       593       594       718      2638      2948      2949
 -1      1278    8    0    1
 -2       530       531       719      2386      2950      2951
 -1      1279    8    0    1
 -2       531       666       719      2798      2952      2950
 -1      1280    8    0    1
 -2       529       530       720      2383      2953      2954
 -1      1281    8    0    1
 -2       665       529       720      2795      2954      2955
 -1      1282    8    0    1
 -2       530       719       720      2951      2956      2953
 -1      1283    8    0    1
 -2       484       482       721      2247      2957      2958
 -1      1284    8    0    1
 -2       621       484       721      2666      2958      2959
 -1      1285    8    0    1
 -2       482       716       721      2944      2960      2957
 -1      1286    8    0    1
 -2       479       480       722      2237      2961      2962
 -1      1287    8    0    1
 -2       479       722       615      2962      2963      2651
 -1      1288    8    0    1
 -2       481       582       723      2608      2964      2965
 -1      1289    8    0    1
 -2       481       723       617      2965      2966      2656
 -1      1290    8    0    1
 -2       585       445       716      2642      2967      2943
 -1      1291    8    0    1
 -2       474       473       724      2221      2968      2969
 -1      1292    8    0    1
 -2       473       717       724      2947      2970      2968
 -1      1293    8    0    1
 -2       590       586       725      2641      2971      2972
 -1      1294    8    0    1
 -2       589       592       726      2644      2973      2974
 -1      1295    8    0    1
 -2       598       599       727      2645      2975      2976
 -1      1296    8    0    1
 -2       591       589       728      2640      2977      2978
 -1      1297    8    0    1
 -2       592       593       729      2639      2979      2980
 -1      1298    8    0    1
 -2       594       595       730      2569      2981      2982
 -1      1299    8    0    1
 -2       471       590       731      2634      2983      2984
 -1      1300    8    0    1
 -2       596       597       732      2574      2985      2986
 -1      1301    8    0    1
 -2       602       603       733      2646      2987      2988
 -1      1302    8    0    1
 -2       587       605       734      2632      2989      2990
 -1      1303    8    0    1
 -2       600       601       735      2583      2991      2992
 -1      1304    8    0    1
 -2       601       602       736      2626      2993      2994
 -1      1305    8    0    1
 -2       601       736       735      2994      2995      2991
 -1      1306    8    0    1
 -2       605       471       737      2614      2996      2997
 -1      1307    8    0    1
 -2       471       731       737      2984      2998      2996
 -1      1308    8    0    1
 -2       584       581       738      2616      2999      3000
 -1      1309    8    0    1
 -2       606       584       739      2612      3001      3002
 -1      1310    8    0    1
 -2       584       738       739      3000      3003      3001
 -1      1311    8    0    1
 -2       470       527       740      2615      3004      3005
 -1      1312    8    0    1
 -2       583       607       741      2596      3006      3007
 -1      1313    8    0    1
 -2       709       583       741      2925      3007      3008
 -1      1314    8    0    1
 -2       607       620       741      2665      3009      3006
 -1      1315    8    0    1
 -2       608       472       480      2600      3010      2630
 -1      1316    8    0    1
 -2       610       474       742      2604      3011      3012
 -1      1317    8    0    1
 -2       474       724       742      2969      3013      3011
 -1      1318    8    0    1
 -2       480       472       617      3010      2657      3014
 -1      1319    8    0    1
 -2       716       445       610      2967      2606      3015
 -1      1320    8    0    1
 -2       599       618       727      2659      3016      2975
 -1      1321    8    0    1
 -2       722       480       617      2961      3014      3017
 -1      1322    8    0    1
 -2       603       663       733      2792      3018      2987
 -1      1323    8    0    1
 -2       570       706       743      2917      3019      3020
 -1      1324    8    0    1
 -2       570       743       573      3020      3021      2512
 -1      1325    8    0    1
 -2       663       604       664      2791      2794      3022
 -1      1326    8    0    1
 -2       736       602       733      2993      2988      3023
 -1      1327    8    0    1
 -2       609       714       620      2940      3024      2664
 -1      1328    8    0    1
 -2       605       737       734      2997      3025      2989
 -1      1329    8    0    1
 -2       590       725       731      2972      3026      2983
 -1      1330    8    0    1
 -2       572       573       744      2511      3027      3028
 -1      1331    8    0    1
 -2       703       572       744      2910      3028      3029
 -1      1332    8    0    1
 -2       573       743       744      3021      3030      3027
 -1      1333    8    0    1
 -2       582       713       723      2937      3031      2964
 -1      1334    8    0    1
 -2       579       580       705      2533      2945      3032
 -1      1335    8    0    1
 -2       612       470       740      2629      3005      3033
 -1      1336    8    0    1
 -2       730       595       613      2981      2636      3034
 -1      1337    8    0    1
 -2       729       593       718      2979      2949      3035
 -1      1338    8    0    1
 -2       586       715       725      2942      3036      2971
 -1      1339    8    0    1
 -2       581       612       745      2628      3037      3038
 -1      1340    8    0    1
 -2       581       745       738      3038      3039      2999
 -1      1341    8    0    1
 -2       718       594       730      2948      2982      3040
 -1      1342    8    0    1
 -2       717       588       618      2946      3041      3042
 -1      1343    8    0    1
 -2       613       596       732      2637      2986      3043
 -1      1344    8    0    1
 -2       715       606       739      2941      3002      3044
 -1      1345    8    0    1
 -2       664       587       734      2793      2990      3045
 -1      1346    8    0    1
 -2       728       589       726      2977      2974      3046
 -1      1347    8    0    1
 -2       579       705       746      3032      3047      3048
 -1      1348    8    0    1
 -2       712       579       746      2933      3048      3049
 -1      1349    8    0    1
 -2       705       662       746      2915      3050      3047
 -1      1350    8    0    1
 -2       726       592       729      2973      2980      3051
 -1      1351    8    0    1
 -2       483       591       747      2643      3052      3053
 -1      1352    8    0    1
 -2       598       727       614      2976      3054      3055
 -1      1353    8    0    1
 -2       591       728       747      2978      3056      3052
 -1      1354    8    0    1
 -2       483       747       714      3053      3057      2939
 -1      1355    8    0    1
 -2       618       600       735      2658      2992      3058
 -1      1356    8    0    1
 -2       527       709       748      2926      3059      3060
 -1      1357    8    0    1
 -2       527       748       740      3060      3061      3004
 -1      1358    8    0    1
 -2       588       475       749      2603      3062      3063
 -1      1359    8    0    1
 -2       716       610       750      3015      3064      3065
 -1      1360    8    0    1
 -2       721       716       750      2960      3065      3066
 -1      1361    8    0    1
 -2       610       742       750      3012      3067      3064
 -1      1362    8    0    1
 -2       475       614       749      2650      3068      3062
 -1      1363    8    0    1
 -2       739       738       751      3003      3069      3070
 -1      1364    8    0    1
 -2       623       622       664      2673      3071      3072
 -1      1365    8    0    1
 -2       624       623       734      2676      3073      3074
 -1      1366    8    0    1
 -2       626       625       752      2682      3075      3076
 -1      1367    8    0    1
 -2       627       626       753      2685      3077      3078
 -1      1368    8    0    1
 -2       628       627       754      2688      3079      3080
 -1      1369    8    0    1
 -2       627       753       754      3078      3081      3079
 -1      1370    8    0    1
 -2       629       628       755      2691      3082      3083
 -1      1371    8    0    1
 -2       628       754       755      3080      3084      3082
 -1      1372    8    0    1
 -2       630       629       756      2694      3085      3086
 -1      1373    8    0    1
 -2       629       755       756      3083      3087      3085
 -1      1374    8    0    1
 -2       631       630       757      2697      3088      3089
 -1      1375    8    0    1
 -2       630       756       757      3086      3090      3088
 -1      1376    8    0    1
 -2       632       631       758      2700      3091      3092
 -1      1377    8    0    1
 -2       631       757       758      3089      3093      3091
 -1      1378    8    0    1
 -2       633       632       759      2703      3094      3095
 -1      1379    8    0    1
 -2       632       758       759      3092      3096      3094
 -1      1380    8    0    1
 -2       634       633       760      2706      3097      3098
 -1      1381    8    0    1
 -2       633       759       760      3095      3099      3097
 -1      1382    8    0    1
 -2       635       634       761      2709      3100      3101
 -1      1383    8    0    1
 -2       634       760       761      3098      3102      3100
 -1      1384    8    0    1
 -2       636       635       762      2712      3103      3104
 -1      1385    8    0    1
 -2       635       761       762      3101      3105      3103
 -1      1386    8    0    1
 -2       637       636       763      2715      3106      3107
 -1      1387    8    0    1
 -2       636       762       763      3104      3108      3106
 -1      1388    8    0    1
 -2       638       637       764      2718      3109      3110
 -1      1389    8    0    1
 -2       637       763       764      3107      3111      3109
 -1      1390    8    0    1
 -2       639       638       765      2721      3112      3113
 -1      1391    8    0    1
 -2       638       764       765      3110      3114      3112
 -1      1392    8    0    1
 -2       640       639       766      2724      3115      3116
 -1      1393    8    0    1
 -2       639       765       766      3113      3117      3115
 -1      1394    8    0    1
 -2       641       640       767      2727      3118      3119
 -1      1395    8    0    1
 -2       640       766       767      3116      3120      3118
 -1      1396    8    0    1
 -2       642       641       768      2730      3121      3122
 -1      1397    8    0    1
 -2       641       767       768      3119      3123      3121
 -1      1398    8    0    1
 -2       643       642       769      2733      3124      3125
 -1      1399    8    0    1
 -2       642       768       769      3122      3126      3124
 -1      1400    8    0    1
 -2       644       643       770      2736      3127      3128
 -1      1401    8    0    1
 -2       643       769       770      3125      3129      3127
 -1      1402    8    0    1
 -2       645       644       771      2739      3130      3131
 -1      1403    8    0    1
 -2       644       770       771      3128      3132      3130
 -1      1404    8    0    1
 -2       646       645       772      2742      3133      3134
 -1      1405    8    0    1
 -2       645       771       772      3131      3135      3133
 -1      1406    8    0    1
 -2       647       646       773      2745      3136      3137
 -1      1407    8    0    1
 -2       646       772       773      3134      3138      3136
 -1      1408    8    0    1
 -2       648       647       774      2748      3139      3140
 -1      1409    8    0    1
 -2       647       773       774      3137      3141      3139
 -1      1410    8    0    1
 -2       649       648       775      2751      3142      3143
 -1      1411    8    0    1
 -2       648       774       775      3140      3144      3142
 -1      1412    8    0    1
 -2       650       649       776      2754      3145      3146
 -1      1413    8    0    1
 -2       649       775       776      3143      3147      3145
 -1      1414    8    0    1
 -2       651       650       777      2757      3148      3149
 -1      1415    8    0    1
 -2       650       776       777      3146      3150      3148
 -1      1416    8    0    1
 -2       652       651       778      2760      3151      3152
 -1      1417    8    0    1
 -2       651       777       778      3149      3153      3151
 -1      1418    8    0    1
 -2       653       652       779      2763      3154      3155
 -1      1419    8    0    1
 -2       652       778       779      3152      3156      3154
 -1      1420    8    0    1
 -2       654       653       780      2766      3157      3158
 -1      1421    8    0    1
 -2       653       779       780      3155      3159      3157
 -1      1422    8    0    1
 -2       655       654       781      2769      3160      3161
 -1      1423    8    0    1
 -2       654       780       781      3158      3162      3160
 -1      1424    8    0    1
 -2       656       655       782      2772      3163      3164
 -1      1425    8    0    1
 -2       655       781       782      3161      3165      3163
 -1      1426    8    0    1
 -2       657       656       783      2775      3166      3167
 -1      1427    8    0    1
 -2       656       782       783      3164      3168      3166
 -1      1428    8    0    1
 -2       658       657       784      2778      3169      3170
 -1      1429    8    0    1
 -2       657       783       784      3167      3171      3169
 -1      1430    8    0    1
 -2       659       658       785      2781      3172      3173
 -1      1431    8    0    1
 -2       658       784       785      3170      3174      3172
 -1      1432    8    0    1
 -2       660       659       786      2784      3175      3176
 -1      1433    8    0    1
 -2       659       785       786      3173      3177      3175
 -1      1434    8    0    1
 -2       661       660       787      2787      3178      3179
 -1      1435    8    0    1
 -2       660       786       787      3176      3180      3178
 -1      1436    8    0    1
 -2       662       661       788      2790      3181      3182
 -1      1437    8    0    1
 -2       746       662       788      3050      3182      3183
 -1      1438    8    0    1
 -2       661       787       788      3179      3184      3181
 -1      1439    8    0    1
 -2       736       733       789      3023      3185      3186
 -1      1440    8    0    1
 -2       666       667       714      2801      3187      3188
 -1      1441    8    0    1
 -2       669       670       790      2810      3189      3190
 -1      1442    8    0    1
 -2       670       671       791      2813      3191      3192
 -1      1443    8    0    1
 -2       670       791       790      3192      3193      3189
 -1      1444    8    0    1
 -2       671       672       792      2816      3194      3195
 -1      1445    8    0    1
 -2       671       792       791      3195      3196      3191
 -1      1446    8    0    1
 -2       672       673       793      2819      3197      3198
 -1      1447    8    0    1
 -2       672       793       792      3198      3199      3194
 -1      1448    8    0    1
 -2       673       674       794      2822      3200      3201
 -1      1449    8    0    1
 -2       673       794       793      3201      3202      3197
 -1      1450    8    0    1
 -2       674       675       795      2825      3203      3204
 -1      1451    8    0    1
 -2       674       795       794      3204      3205      3200
 -1      1452    8    0    1
 -2       675       676       796      2828      3206      3207
 -1      1453    8    0    1
 -2       675       796       795      3207      3208      3203
 -1      1454    8    0    1
 -2       676       677       797      2831      3209      3210
 -1      1455    8    0    1
 -2       676       797       796      3210      3211      3206
 -1      1456    8    0    1
 -2       677       678       798      2834      3212      3213
 -1      1457    8    0    1
 -2       677       798       797      3213      3214      3209
 -1      1458    8    0    1
 -2       678       679       799      2837      3215      3216
 -1      1459    8    0    1
 -2       678       799       798      3216      3217      3212
 -1      1460    8    0    1
 -2       679       680       800      2840      3218      3219
 -1      1461    8    0    1
 -2       679       800       799      3219      3220      3215
 -1      1462    8    0    1
 -2       680       681       801      2843      3221      3222
 -1      1463    8    0    1
 -2       680       801       800      3222      3223      3218
 -1      1464    8    0    1
 -2       681       682       802      2846      3224      3225
 -1      1465    8    0    1
 -2       681       802       801      3225      3226      3221
 -1      1466    8    0    1
 -2       682       683       803      2849      3227      3228
 -1      1467    8    0    1
 -2       682       803       802      3228      3229      3224
 -1      1468    8    0    1
 -2       683       684       804      2852      3230      3231
 -1      1469    8    0    1
 -2       683       804       803      3231      3232      3227
 -1      1470    8    0    1
 -2       684       685       805      2855      3233      3234
 -1      1471    8    0    1
 -2       684       805       804      3234      3235      3230
 -1      1472    8    0    1
 -2       685       686       806      2858      3236      3237
 -1      1473    8    0    1
 -2       685       806       805      3237      3238      3233
 -1      1474    8    0    1
 -2       686       687       807      2861      3239      3240
 -1      1475    8    0    1
 -2       686       807       806      3240      3241      3236
 -1      1476    8    0    1
 -2       687       688       808      2864      3242      3243
 -1      1477    8    0    1
 -2       687       808       807      3243      3244      3239
 -1      1478    8    0    1
 -2       688       689       809      2867      3245      3246
 -1      1479    8    0    1
 -2       688       809       808      3246      3247      3242
 -1      1480    8    0    1
 -2       689       690       810      2870      3248      3249
 -1      1481    8    0    1
 -2       689       810       809      3249      3250      3245
 -1      1482    8    0    1
 -2       690       691       811      2873      3251      3252
 -1      1483    8    0    1
 -2       690       811       810      3252      3253      3248
 -1      1484    8    0    1
 -2       691       692       812      2876      3254      3255
 -1      1485    8    0    1
 -2       691       812       811      3255      3256      3251
 -1      1486    8    0    1
 -2       692       693       813      2879      3257      3258
 -1      1487    8    0    1
 -2       692       813       812      3258      3259      3254
 -1      1488    8    0    1
 -2       693       694       814      2882      3260      3261
 -1      1489    8    0    1
 -2       693       814       813      3261      3262      3257
 -1      1490    8    0    1
 -2       694       695       815      2885      3263      3264
 -1      1491    8    0    1
 -2       694       815       814      3264      3265      3260
 -1      1492    8    0    1
 -2       695       696       816      2888      3266      3267
 -1      1493    8    0    1
 -2       695       816       815      3267      3268      3263
 -1      1494    8    0    1
 -2       696       697       817      2891      3269      3270
 -1      1495    8    0    1
 -2       696       817       816      3270      3271      3266
 -1      1496    8    0    1
 -2       697       698       818      2894      3272      3273
 -1      1497    8    0    1
 -2       697       818       817      3273      3274      3269
 -1      1498    8    0    1
 -2       698       699       819      2897      3275      3276
 -1      1499    8    0    1
 -2       698       819       818      3276      3277      3272
 -1      1500    8    0    1
 -2       699       700       820      2900      3278      3279
 -1      1501    8    0    1
 -2       699       820       819      3279      3280      3275
 -1      1502    8    0    1
 -2       700       701       821      2903      3281      3282
 -1      1503    8    0    1
 -2       700       821       820      3282      3283      3278
 -1      1504    8    0    1
 -2       701       702       822      2906      3284      3285
 -1      1505    8    0    1
 -2       701       822       821      3285      3286      3281
 -1      1506    8    0    1
 -2       702       703       823      2909      3287      3288
 -1      1507    8    0    1
 -2       822       702       823      3284      3288      3289
 -1      1508    8    0    1
 -2       703       744       823      3029      3290      3287
 -1      1509    8    0    1
 -2       704       707       824      2920      3291      3292
 -1      1510    8    0    1
 -2       711       712       825      2935      3293      3294
 -1      1511    8    0    1
 -2       707       710       826      2929      3295      3296
 -1      1512    8    0    1
 -2       707       826       824      3296      3297      3291
 -1      1513    8    0    1
 -2       731       725       827      3026      3298      3299
 -1      1514    8    0    1
 -2       734       737       624      3025      3300      3074
 -1      1515    8    0    1
 -2       614       727       749      3054      3301      3068
 -1      1516    8    0    1
 -2       732       597       828      2985      3302      3303
 -1      1517    8    0    1
 -2       618       735       717      3058      3304      3042
 -1      1518    8    0    1
 -2       615       722       829      2963      3305      3306
 -1      1519    8    0    1
 -2       719       666       747      2952      3307      3308
 -1      1520    8    0    1
 -2       612       740       830      3033      3309      3310
 -1      1521    8    0    1
 -2       612       830       745      3310      3311      3037
 -1      1522    8    0    1
 -2       618       588       749      3041      3063      3312
 -1      1523    8    0    1
 -2       733       663       831      3018      3313      3314
 -1      1524    8    0    1
 -2       725       715       832      3036      3315      3316
 -1      1525    8    0    1
 -2       710       711       833      2932      3317      3318
 -1      1526    8    0    1
 -2       826       710       833      3295      3318      3319
 -1      1527    8    0    1
 -2       711       825       833      3294      3320      3317
 -1      1528    8    0    1
 -2       668       669       834      2807      3321      3322
 -1      1529    8    0    1
 -2       669       790       834      3190      3323      3321
 -1      1530    8    0    1
 -2       667       668       835      2804      3324      3325
 -1      1531    8    0    1
 -2       668       834       835      3322      3326      3324
 -1      1532    8    0    1
 -2       664       622       663      3071      3327      3022
 -1      1533    8    0    1
 -2       727       618       749      3016      3312      3301
 -1      1534    8    0    1
 -2       722       617       829      3017      3328      3305
 -1      1535    8    0    1
 -2       622       621       663      2670      3329      3327
 -1      1536    8    0    1
 -2       714       747       666      3057      3307      3188
 -1      1537    8    0    1
 -2       724       717       735      2970      3304      3330
 -1      1538    8    0    1
 -2       747       728       719      3056      3331      3308
 -1      1539    8    0    1
 -2       715       739       836      3044      3332      3333
 -1      1540    8    0    1
 -2       620       714       667      3024      3187      3334
 -1      1541    8    0    1
 -2       728       726       720      3046      3335      3336
 -1      1542    8    0    1
 -2       735       736       724      2995      3337      3330
 -1      1543    8    0    1
 -2       597       598       828      2633      3338      3302
 -1      1544    8    0    1
 -2       664       734       623      3045      3073      3072
 -1      1545    8    0    1
 -2       624       737       625      3300      3339      2679
 -1      1546    8    0    1
 -2       719       728       720      3331      3336      2956
 -1      1547    8    0    1
 -2       724       736       789      3337      3186      3340
 -1      1548    8    0    1
 -2       743       706       837      3019      3341      3342
 -1      1549    8    0    1
 -2       751       738       838      3069      3343      3344
 -1      1550    8    0    1
 -2       738       745       838      3039      3345      3343
 -1      1551    8    0    1
 -2       741       620       839      3009      3346      3347
 -1      1552    8    0    1
 -2       625       737       752      3339      3348      3075
 -1      1553    8    0    1
 -2       829       617       723      3328      2966      3349
 -1      1554    8    0    1
 -2       828       598       614      3338      3055      3350
 -1      1555    8    0    1
 -2       665       720       726      2955      3335      3351
 -1      1556    8    0    1
 -2       731       827       752      3299      3352      3353
 -1      1557    8    0    1
 -2       706       708       840      2923      3354      3355
 -1      1558    8    0    1
 -2       706       840       837      3355      3356      3341
 -1      1559    8    0    1
 -2       726       729       665      3051      3357      3351
 -1      1560    8    0    1
 -2       665       729       713      3357      3358      2938
 -1      1561    8    0    1
 -2       713       729       718      3358      3035      3359
 -1      1562    8    0    1
 -2       713       718       723      3359      3360      3031
 -1      1563    8    0    1
 -2       752       737       731      3348      2998      3353
 -1      1564    8    0    1
 -2       708       704       841      2924      3361      3362
 -1      1565    8    0    1
 -2       840       708       841      3354      3362      3363
 -1      1566    8    0    1
 -2       704       824       841      3292      3364      3361
 -1      1567    8    0    1
 -2       827       725       753      3298      3365      3366
 -1      1568    8    0    1
 -2       663       621       831      3329      3367      3313
 -1      1569    8    0    1
 -2       830       740       842      3309      3368      3369
 -1      1570    8    0    1
 -2       740       748       842      3061      3370      3368
 -1      1571    8    0    1
 -2       715       836       832      3333      3371      3315
 -1      1572    8    0    1
 -2       725       832       753      3316      3372      3365
 -1      1573    8    0    1
 -2       613       732       616      3043      3373      3374
 -1      1574    8    0    1
 -2       621       721       831      2959      3375      3367
 -1      1575    8    0    1
 -2       724       789       742      3340      3376      3013
 -1      1576    8    0    1
 -2       789       733       831      3185      3314      3377
 -1      1577    8    0    1
 -2       712       746       843      3049      3378      3379
 -1      1578    8    0    1
 -2       825       712       843      3293      3379      3380
 -1      1579    8    0    1
 -2       746       788       843      3183      3381      3378
 -1      1580    8    0    1
 -2       723       718       829      3360      3382      3349
 -1      1581    8    0    1
 -2       836       739       751      3332      3070      3383
 -1      1582    8    0    1
 -2       730       613       844      3034      3384      3385
 -1      1583    8    0    1
 -2       748       709       845      3059      3386      3387
 -1      1584    8    0    1
 -2       718       730       829      3040      3388      3382
 -1      1585    8    0    1
 -2       709       741       846      3008      3389      3390
 -1      1586    8    0    1
 -2       845       709       846      3386      3390      3391
 -1      1587    8    0    1
 -2       741       839       846      3347      3392      3389
 -1      1588    8    0    1
 -2       732       828       619      3303      3393      3394
 -1      1589    8    0    1
 -2       616       732       619      3373      3394      2663
 -1      1590    8    0    1
 -2       613       616       844      3374      3395      3384
 -1      1591    8    0    1
 -2       839       620       835      3346      3396      3397
 -1      1592    8    0    1
 -2       626       752       827      3076      3352      3398
 -1      1593    8    0    1
 -2       756       755       847      3087      3399      3400
 -1      1594    8    0    1
 -2       757       756       848      3090      3401      3402
 -1      1595    8    0    1
 -2       756       847       848      3400      3403      3401
 -1      1596    8    0    1
 -2       758       757       849      3093      3404      3405
 -1      1597    8    0    1
 -2       757       848       849      3402      3406      3404
 -1      1598    8    0    1
 -2       759       758       850      3096      3407      3408
 -1      1599    8    0    1
 -2       758       849       850      3405      3409      3407
 -1      1600    8    0    1
 -2       760       759       851      3099      3410      3411
 -1      1601    8    0    1
 -2       759       850       851      3408      3412      3410
 -1      1602    8    0    1
 -2       761       760       852      3102      3413      3414
 -1      1603    8    0    1
 -2       760       851       852      3411      3415      3413
 -1      1604    8    0    1
 -2       762       761       853      3105      3416      3417
 -1      1605    8    0    1
 -2       761       852       853      3414      3418      3416
 -1      1606    8    0    1
 -2       763       762       854      3108      3419      3420
 -1      1607    8    0    1
 -2       762       853       854      3417      3421      3419
 -1      1608    8    0    1
 -2       764       763       855      3111      3422      3423
 -1      1609    8    0    1
 -2       763       854       855      3420      3424      3422
 -1      1610    8    0    1
 -2       765       764       856      3114      3425      3426
 -1      1611    8    0    1
 -2       764       855       856      3423      3427      3425
 -1      1612    8    0    1
 -2       766       765       857      3117      3428      3429
 -1      1613    8    0    1
 -2       765       856       857      3426      3430      3428
 -1      1614    8    0    1
 -2       767       766       858      3120      3431      3432
 -1      1615    8    0    1
 -2       766       857       858      3429      3433      3431
 -1      1616    8    0    1
 -2       768       767       859      3123      3434      3435
 -1      1617    8    0    1
 -2       767       858       859      3432      3436      3434
 -1      1618    8    0    1
 -2       769       768       860      3126      3437      3438
 -1      1619    8    0    1
 -2       768       859       860      3435      3439      3437
 -1      1620    8    0    1
 -2       770       769       861      3129      3440      3441
 -1      1621    8    0    1
 -2       769       860       861      3438      3442      3440
 -1      1622    8    0    1
 -2       771       770       862      3132      3443      3444
 -1      1623    8    0    1
 -2       770       861       862      3441      3445      3443
 -1      1624    8    0    1
 -2       772       771       863      3135      3446      3447
 -1      1625    8    0    1
 -2       771       862       863      3444      3448      3446
 -1      1626    8    0    1
 -2       773       772       864      3138      3449      3450
 -1      1627    8    0    1
 -2       772       863       864      3447      3451      3449
 -1      1628    8    0    1
 -2       774       773       865      3141      3452      3453
 -1      1629    8    0    1
 -2       773       864       865      3450      3454      3452
 -1      1630    8    0    1
 -2       775       774       866      3144      3455      3456
 -1      1631    8    0    1
 -2       774       865       866      3453      3457      3455
 -1      1632    8    0    1
 -2       776       775       867      3147      3458      3459
 -1      1633    8    0    1
 -2       775       866       867      3456      3460      3458
 -1      1634    8    0    1
 -2       777       776       868      3150      3461      3462
 -1      1635    8    0    1
 -2       776       867       868      3459      3463      3461
 -1      1636    8    0    1
 -2       778       777       869      3153      3464      3465
 -1      1637    8    0    1
 -2       777       868       869      3462      3466      3464
 -1      1638    8    0    1
 -2       779       778       870      3156      3467      3468
 -1      1639    8    0    1
 -2       778       869       870      3465      3469      3467
 -1      1640    8    0    1
 -2       780       779       871      3159      3470      3471
 -1      1641    8    0    1
 -2       779       870       871      3468      3472      3470
 -1      1642    8    0    1
 -2       781       780       872      3162      3473      3474
 -1      1643    8    0    1
 -2       780       871       872      3471      3475      3473
 -1      1644    8    0    1
 -2       782       781       873      3165      3476      3477
 -1      1645    8    0    1
 -2       781       872       873      3474      3478      3476
 -1      1646    8    0    1
 -2       783       782       874      3168      3479      3480
 -1      1647    8    0    1
 -2       782       873       874      3477      3481      3479
 -1      1648    8    0    1
 -2       784       783       875      3171      3482      3483
 -1      1649    8    0    1
 -2       783       874       875      3480      3484      3482
 -1      1650    8    0    1
 -2       785       784       876      3174      3485      3486
 -1      1651    8    0    1
 -2       784       875       876      3483      3487      3485
 -1      1652    8    0    1
 -2       786       785       877      3177      3488      3489
 -1      1653    8    0    1
 -2       785       876       877      3486      3490      3488
 -1      1654    8    0    1
 -2       787       786       878      3180      3491      3492
 -1      1655    8    0    1
 -2       786       877       878      3489      3493      3491
 -1      1656    8    0    1
 -2       626       827       753      3398      3366      3077
 -1      1657    8    0    1
 -2       835       620       667      3396      3334      3325
 -1      1658    8    0    1
 -2       790       791       879      3193      3494      3495
 -1      1659    8    0    1
 -2       793       794       880      3202      3496      3497
 -1      1660    8    0    1
 -2       794       795       881      3205      3498      3499
 -1      1661    8    0    1
 -2       794       881       880      3499      3500      3496
 -1      1662    8    0    1
 -2       795       796       882      3208      3501      3502
 -1      1663    8    0    1
 -2       795       882       881      3502      3503      3498
 -1      1664    8    0    1
 -2       796       797       883      3211      3504      3505
 -1      1665    8    0    1
 -2       796       883       882      3505      3506      3501
 -1      1666    8    0    1
 -2       797       798       884      3214      3507      3508
 -1      1667    8    0    1
 -2       797       884       883      3508      3509      3504
 -1      1668    8    0    1
 -2       798       799       885      3217      3510      3511
 -1      1669    8    0    1
 -2       798       885       884      3511      3512      3507
 -1      1670    8    0    1
 -2       799       800       886      3220      3513      3514
 -1      1671    8    0    1
 -2       799       886       885      3514      3515      3510
 -1      1672    8    0    1
 -2       800       801       887      3223      3516      3517
 -1      1673    8    0    1
 -2       800       887       886      3517      3518      3513
 -1      1674    8    0    1
 -2       801       802       888      3226      3519      3520
 -1      1675    8    0    1
 -2       801       888       887      3520      3521      3516
 -1      1676    8    0    1
 -2       802       803       889      3229      3522      3523
 -1      1677    8    0    1
 -2       802       889       888      3523      3524      3519
 -1      1678    8    0    1
 -2       803       804       890      3232      3525      3526
 -1      1679    8    0    1
 -2       803       890       889      3526      3527      3522
 -1      1680    8    0    1
 -2       804       805       891      3235      3528      3529
 -1      1681    8    0    1
 -2       804       891       890      3529      3530      3525
 -1      1682    8    0    1
 -2       805       806       892      3238      3531      3532
 -1      1683    8    0    1
 -2       805       892       891      3532      3533      3528
 -1      1684    8    0    1
 -2       806       807       893      3241      3534      3535
 -1      1685    8    0    1
 -2       806       893       892      3535      3536      3531
 -1      1686    8    0    1
 -2       807       808       894      3244      3537      3538
 -1      1687    8    0    1
 -2       807       894       893      3538      3539      3534
 -1      1688    8    0    1
 -2       808       809       895      3247      3540      3541
 -1      1689    8    0    1
 -2       808       895       894      3541      3542      3537
 -1      1690    8    0    1
 -2       809       810       896      3250      3543      3544
 -1      1691    8    0    1
 -2       809       896       895      3544      3545      3540
 -1      1692    8    0    1
 -2       810       811       897      3253      3546      3547
 -1      1693    8    0    1
 -2       810       897       896      3547      3548      3543
 -1      1694    8    0    1
 -2       811       812       898      3256      3549      3550
 -1      1695    8    0    1
 -2       811       898       897      3550      3551      3546
 -1      1696    8    0    1
 -2       812       813       899      3259      3552      3553
 -1      1697    8    0    1
 -2       812       899       898      3553      3554      3549
 -1      1698    8    0    1
 -2       813       814       900      3262      3555      3556
 -1      1699    8    0    1
 -2       813       900       899      3556      3557      3552
 -1      1700    8    0    1
 -2       814       815       901      3265      3558      3559
 -1      1701    8    0    1
 -2       814       901       900      3559      3560      3555
 -1      1702    8    0    1
 -2       815       816       902      3268      3561      3562
 -1      1703    8    0    1
 -2       815       902       901      3562      3563      3558
 -1      1704    8    0    1
 -2       816       817       903      3271      3564      3565
 -1      1705    8    0    1
 -2       816       903       902      3565      3566      3561
 -1      1706    8    0    1
 -2       817       818       904      3274      3567      3568
 -1      1707    8    0    1
 -2       817       904       903      3568      3569      3564
 -1      1708    8    0    1
 -2       818       819       905      3277      3570      3571
 -1      1709    8    0    1
 -2       818       905       904      3571      3572      3567
 -1      1710    8    0    1
 -2       819       820       906      3280      3573      3574
 -1      1711    8    0    1
 -2       819       906       905      3574      3575      3570
 -1      1712    8    0    1
 -2       820       821       907      3283      3576      3577
 -1      1713    8    0    1
 -2       820       907       906      3577      3578      3573
 -1      1714    8    0    1
 -2       821       822       908      3286      3579      3580
 -1      1715    8    0    1
 -2       821       908       907      3580      3581      3576
 -1      1716    8    0    1
 -2       744       743       909      3030      3582      3583
 -1      1717    8    0    1
 -2       823       744       909      3290      3583      3584
 -1      1718    8    0    1
 -2       743       837       909      3342      3585      3582
 -1      1719    8    0    1
 -2       824       826       910      3297      3586      3587
 -1      1720    8    0    1
 -2       742       789       750      3376      3588      3067
 -1      1721    8    0    1
 -2       745       830       911      3311      3589      3590
 -1      1722    8    0    1
 -2       753       832       754      3372      3591      3081
 -1      1723    8    0    1
 -2       831       721       750      3375      3066      3592
 -1      1724    8    0    1
 -2       792       793       912      3199      3593      3594
 -1      1725    8    0    1
 -2       793       880       912      3497      3595      3593
 -1      1726    8    0    1
 -2       791       792       913      3196      3596      3597
 -1      1727    8    0    1
 -2       879       791       913      3494      3597      3598
 -1      1728    8    0    1
 -2       792       912       913      3594      3599      3596
 -1      1729    8    0    1
 -2       835       834       839      3326      3600      3397
 -1      1730    8    0    1
 -2       836       751       914      3383      3601      3602
 -1      1731    8    0    1
 -2       748       845       915      3387      3603      3604
 -1      1732    8    0    1
 -2       829       730       844      3388      3385      3605
 -1      1733    8    0    1
 -2       832       836       916      3371      3606      3607
 -1      1734    8    0    1
 -2       836       914       916      3602      3608      3606
 -1      1735    8    0    1
 -2       616       615       844      2655      3609      3395
 -1      1736    8    0    1
 -2       789       831       750      3377      3592      3588
 -1      1737    8    0    1
 -2       839       834       846      3600      3610      3392
 -1      1738    8    0    1
 -2       754       832       916      3591      3607      3611
 -1      1739    8    0    1
 -2       751       838       917      3344      3612      3613
 -1      1740    8    0    1
 -2       751       917       914      3613      3614      3601
 -1      1741    8    0    1
 -2       847       755       916      3399      3615      3616
 -1      1742    8    0    1
 -2       824       910       918      3587      3617      3618
 -1      1743    8    0    1
 -2       824       918       841      3618      3619      3364
 -1      1744    8    0    1
 -2       755       754       916      3084      3611      3615
 -1      1745    8    0    1
 -2       788       787       919      3184      3620      3621
 -1      1746    8    0    1
 -2       843       788       919      3381      3621      3622
 -1      1747    8    0    1
 -2       787       878       919      3492      3623      3620
 -1      1748    8    0    1
 -2       838       745       911      3345      3590      3624
 -1      1749    8    0    1
 -2       790       879       845      3495      3625      3626
 -1      1750    8    0    1
 -2       909       837       908      3585      3627      3628
 -1      1751    8    0    1
 -2       822       823       909      3289      3584      3629
 -1      1752    8    0    1
 -2       837       840       920      3356      3630      3631
 -1      1753    8    0    1
 -2       837       920       908      3631      3632      3627
 -1      1754    8    0    1
 -2       910       826       921      3586      3633      3634
 -1      1755    8    0    1
 -2       826       833       921      3319      3635      3633
 -1      1756    8    0    1
 -2       828       614       619      3350      2662      3393
 -1      1757    8    0    1
 -2       911       830       922      3589      3636      3637
 -1      1758    8    0    1
 -2       830       842       922      3369      3638      3636
 -1      1759    8    0    1
 -2       842       748       915      3370      3604      3639
 -1      1760    8    0    1
 -2       834       790       845      3323      3626      3640
 -1      1761    8    0    1
 -2       844       615       829      3609      3306      3605
 -1      1762    8    0    1
 -2       845       879       915      3625      3641      3603
 -1      1763    8    0    1
 -2       822       909       908      3629      3628      3579
 -1      1764    8    0    1
 -2       825       843       919      3380      3622      3642
 -1      1765    8    0    1
 -2       825       919       923      3642      3643      3644
 -1      1766    8    0    1
 -2       833       825       923      3320      3644      3645
 -1      1767    8    0    1
 -2       919       878       923      3623      3646      3643
 -1      1768    8    0    1
 -2       838       911       924      3624      3647      3648
 -1      1769    8    0    1
 -2       838       924       917      3648      3649      3612
 -1      1770    8    0    1
 -2       849       848       925      3406      3650      3651
 -1      1771    8    0    1
 -2       850       849       926      3409      3652      3653
 -1      1772    8    0    1
 -2       849       925       926      3651      3654      3652
 -1      1773    8    0    1
 -2       851       850       927      3412      3655      3656
 -1      1774    8    0    1
 -2       850       926       927      3653      3657      3655
 -1      1775    8    0    1
 -2       852       851       928      3415      3658      3659
 -1      1776    8    0    1
 -2       851       927       928      3656      3660      3658
 -1      1777    8    0    1
 -2       853       852       929      3418      3661      3662
 -1      1778    8    0    1
 -2       852       928       929      3659      3663      3661
 -1      1779    8    0    1
 -2       854       853       930      3421      3664      3665
 -1      1780    8    0    1
 -2       853       929       930      3662      3666      3664
 -1      1781    8    0    1
 -2       855       854       931      3424      3667      3668
 -1      1782    8    0    1
 -2       854       930       931      3665      3669      3667
 -1      1783    8    0    1
 -2       856       855       932      3427      3670      3671
 -1      1784    8    0    1
 -2       855       931       932      3668      3672      3670
 -1      1785    8    0    1
 -2       857       856       933      3430      3673      3674
 -1      1786    8    0    1
 -2       856       932       933      3671      3675      3673
 -1      1787    8    0    1
 -2       858       857       934      3433      3676      3677
 -1      1788    8    0    1
 -2       857       933       934      3674      3678      3676
 -1      1789    8    0    1
 -2       859       858       935      3436      3679      3680
 -1      1790    8    0    1
 -2       858       934       935      3677      3681      3679
 -1      1791    8    0    1
 -2       860       859       936      3439      3682      3683
 -1      1792    8    0    1
 -2       859       935       936      3680      3684      3682
 -1      1793    8    0    1
 -2       861       860       937      3442      3685      3686
 -1      1794    8    0    1
 -2       860       936       937      3683      3687      3685
 -1      1795    8    0    1
 -2       862       861       938      3445      3688      3689
 -1      1796    8    0    1
 -2       861       937       938      3686      3690      3688
 -1      1797    8    0    1
 -2       863       862       939      3448      3691      3692
 -1      1798    8    0    1
 -2       862       938       939      3689      3693      3691
 -1      1799    8    0    1
 -2       864       863       940      3451      3694      3695
 -1      1800    8    0    1
 -2       863       939       940      3692      3696      3694
 -1      1801    8    0    1
 -2       865       864       941      3454      3697      3698
 -1      1802    8    0    1
 -2       864       940       941      3695      3699      3697
 -1      1803    8    0    1
 -2       866       865       942      3457      3700      3701
 -1      1804    8    0    1
 -2       865       941       942      3698      3702      3700
 -1      1805    8    0    1
 -2       867       866       943      3460      3703      3704
 -1      1806    8    0    1
 -2       866       942       943      3701      3705      3703
 -1      1807    8    0    1
 -2       868       867       944      3463      3706      3707
 -1      1808    8    0    1
 -2       867       943       944      3704      3708      3706
 -1      1809    8    0    1
 -2       869       868       945      3466      3709      3710
 -1      1810    8    0    1
 -2       868       944       945      3707      3711      3709
 -1      1811    8    0    1
 -2       870       869       946      3469      3712      3713
 -1      1812    8    0    1
 -2       869       945       946      3710      3714      3712
 -1      1813    8    0    1
 -2       871       870       947      3472      3715      3716
 -1      1814    8    0    1
 -2       870       946       947      3713      3717      3715
 -1      1815    8    0    1
 -2       872       871       948      3475      3718      3719
 -1      1816    8    0    1
 -2       871       947       948      3716      3720      3718
 -1      1817    8    0    1
 -2       873       872       949      3478      3721      3722
 -1      1818    8    0    1
 -2       872       948       949      3719      3723      3721
 -1      1819    8    0    1
 -2       874       873       950      3481      3724      3725
 -1      1820    8    0    1
 -2       873       949       950      3722      3726      3724
 -1      1821    8    0    1
 -2       875       874       951      3484      3727      3728
 -1      1822    8    0    1
 -2       874       950       951      3725      3729      3727
 -1      1823    8    0    1
 -2       876       875       952      3487      3730      3731
 -1      1824    8    0    1
 -2       875       951       952      3728      3732      3730
 -1      1825    8    0    1
 -2       877       876       953      3490      3733      3734
 -1      1826    8    0    1
 -2       876       952       953      3731      3735      3733
 -1      1827    8    0    1
 -2       878       877       954      3493      3736      3737
 -1      1828    8    0    1
 -2       877       953       954      3734      3738      3736
 -1      1829    8    0    1
 -2       881       882       955      3503      3739      3740
 -1      1830    8    0    1
 -2       880       881       956      3500      3741      3742
 -1      1831    8    0    1
 -2       881       955       956      3740      3743      3741
 -1      1832    8    0    1
 -2       883       884       957      3509      3744      3745
 -1      1833    8    0    1
 -2       884       885       958      3512      3746      3747
 -1      1834    8    0    1
 -2       884       958       957      3747      3748      3744
 -1      1835    8    0    1
 -2       885       886       959      3515      3749      3750
 -1      1836    8    0    1
 -2       885       959       958      3750      3751      3746
 -1      1837    8    0    1
 -2       886       887       960      3518      3752      3753
 -1      1838    8    0    1
 -2       886       960       959      3753      3754      3749
 -1      1839    8    0    1
 -2       887       888       961      3521      3755      3756
 -1      1840    8    0    1
 -2       887       961       960      3756      3757      3752
 -1      1841    8    0    1
 -2       888       889       962      3524      3758      3759
 -1      1842    8    0    1
 -2       888       962       961      3759      3760      3755
 -1      1843    8    0    1
 -2       889       890       963      3527      3761      3762
 -1      1844    8    0    1
 -2       889       963       962      3762      3763      3758
 -1      1845    8    0    1
 -2       890       891       964      3530      3764      3765
 -1      1846    8    0    1
 -2       890       964       963      3765      3766      3761
 -1      1847    8    0    1
 -2       891       892       965      3533      3767      3768
 -1      1848    8    0    1
 -2       891       965       964      3768      3769      3764
 -1      1849    8    0    1
 -2       892       893       966      3536      3770      3771
 -1      1850    8    0    1
 -2       892       966       965      3771      3772      3767
 -1      1851    8    0    1
 -2       893       894       967      3539      3773      3774
 -1      1852    8    0    1
 -2       893       967       966      3774      3775      3770
 -1      1853    8    0    1
 -2       894       895       968      3542      3776      3777
 -1      1854    8    0    1
 -2       894       968       967      3777      3778      3773
 -1      1855    8    0    1
 -2       895       896       969      3545      3779      3780
 -1      1856    8    0    1
 -2       895       969       968      3780      3781      3776
 -1      1857    8    0    1
 -2       896       897       970      3548      3782      3783
 -1      1858    8    0    1
 -2       896       970       969      3783      3784      3779
 -1      1859    8    0    1
 -2       897       898       971      3551      3785      3786
 -1      1860    8    0    1
 -2       897       971       970      3786      3787      3782
 -1      1861    8    0    1
 -2       898       899       972      3554      3788      3789
 -1      1862    8    0    1
 -2       898       972       971      3789      3790      3785
 -1      1863    8    0    1
 -2       899       900       973      3557      3791      3792
 -1      1864    8    0    1
 -2       899       973       972      3792      3793      3788
 -1      1865    8    0    1
 -2       900       901       974      3560      3794      3795
 -1      1866    8    0    1
 -2       900       974       973      3795      3796      3791
 -1      1867    8    0    1
 -2       901       902       975      3563      3797      3798
 -1      1868    8    0    1
 -2       901       975       974      3798      3799      3794
 -1      1869    8    0    1
 -2       902       903       976      3566      3800      3801
 -1      1870    8    0    1
 -2       902       976       975      3801      3802      3797
 -1      1871    8    0    1
 -2       903       904       977      3569      3803      3804
 -1      1872    8    0    1
 -2       903       977       976      3804      3805      3800
 -1      1873    8    0    1
 -2       904       905       978      3572      3806      3807
 -1      1874    8    0    1
 -2       904       978       977      3807      3808      3803
 -1      1875    8    0    1
 -2       905       906       979      3575      3809      3810
 -1      1876    8    0    1
 -2       905       979       978      3810      3811      3806
 -1      1877    8    0    1
 -2       906       907       980      3578      3812      3813
 -1      1878    8    0    1
 -2       906       980       979      3813      3814      3809
 -1      1879    8    0    1
 -2       907       908       981      3581      3815      3816
 -1      1880    8    0    1
 -2       980       907       981      3812      3816      3817
 -1      1881    8    0    1
 -2       908       920       981      3632      3818      3815
 -1      1882    8    0    1
 -2       842       915       982      3639      3819      3820
 -1      1883    8    0    1
 -2       912       880       983      3595      3821      3822
 -1      1884    8    0    1
 -2       880       956       983      3742      3823      3821
 -1      1885    8    0    1
 -2       847       916       914      3616      3608      3824
 -1      1886    8    0    1
 -2       882       883       984      3506      3825      3826
 -1      1887    8    0    1
 -2       883       957       984      3745      3827      3825
 -1      1888    8    0    1
 -2       848       847       985      3403      3828      3829
 -1      1889    8    0    1
 -2       925       848       985      3650      3829      3830
 -1      1890    8    0    1
 -2       847       914       985      3824      3831      3828
 -1      1891    8    0    1
 -2       834       845       846      3640      3391      3610
 -1      1892    8    0    1
 -2       915       879       986      3641      3832      3833
 -1      1893    8    0    1
 -2       982       915       986      3819      3833      3834
 -1      1894    8    0    1
 -2       879       913       986      3598      3835      3832
 -1      1895    8    0    1
 -2       840       841       987      3363      3836      3837
 -1      1896    8    0    1
 -2       841       918       987      3619      3838      3836
 -1      1897    8    0    1
 -2       922       842       982      3638      3820      3839
 -1      1898    8    0    1
 -2       833       923       921      3645      3840      3635
 -1      1899    8    0    1
 -2       878       954       923      3737      3841      3646
 -1      1900    8    0    1
 -2       955       882       984      3739      3826      3842
 -1      1901    8    0    1
 -2       840       987       920      3837      3843      3630
 -1      1902    8    0    1
 -2       924       911       988      3647      3844      3845
 -1      1903    8    0    1
 -2       911       922       988      3637      3846      3844
 -1      1904    8    0    1
 -2       913       912       989      3599      3847      3848
 -1      1905    8    0    1
 -2       986       913       989      3835      3848      3849
 -1      1906    8    0    1
 -2       912       983       989      3822      3850      3847
 -1      1907    8    0    1
 -2       910       921       990      3634      3851      3852
 -1      1908    8    0    1
 -2       985       914       917      3831      3614      3853
 -1      1909    8    0    1
 -2       918       910       991      3617      3854      3855
 -1      1910    8    0    1
 -2       910       990       991      3852      3856      3854
 -1      1911    8    0    1
 -2       922       982       992      3839      3857      3858
 -1      1912    8    0    1
 -2       922       992       988      3858      3859      3846
 -1      1913    8    0    1
 -2       990       921       954      3851      3860      3861
 -1      1914    8    0    1
 -2       927       926       993      3657      3862      3863
 -1      1915    8    0    1
 -2       928       927       994      3660      3864      3865
 -1      1916    8    0    1
 -2       927       993       994      3863      3866      3864
 -1      1917    8    0    1
 -2       929       928       995      3663      3867      3868
 -1      1918    8    0    1
 -2       928       994       995      3865      3869      3867
 -1      1919    8    0    1
 -2       930       929       996      3666      3870      3871
 -1      1920    8    0    1
 -2       929       995       996      3868      3872      3870
 -1      1921    8    0    1
 -2       931       930       997      3669      3873      3874
 -1      1922    8    0    1
 -2       930       996       997      3871      3875      3873
 -1      1923    8    0    1
 -2       932       931       998      3672      3876      3877
 -1      1924    8    0    1
 -2       931       997       998      3874      3878      3876
 -1      1925    8    0    1
 -2       933       932       999      3675      3879      3880
 -1      1926    8    0    1
 -2       932       998       999      3877      3881      3879
 -1      1927    8    0    1
 -2       934       933      1000      3678      3882      3883
 -1      1928    8    0    1
 -2       933       999      1000      3880      3884      3882
 -1      1929    8    0    1
 -2       935       934      1001      3681      3885      3886
 -1      1930    8    0    1
 -2       934      1000      1001      3883      3887      3885
 -1      1931    8    0    1
 -2       936       935      1002      3684      3888      3889
 -1      1932    8    0    1
 -2       935      1001      1002      3886      3890      3888
 -1      1933    8    0    1
 -2       937       936      1003      3687      3891      3892
 -1      1934    8    0    1
 -2       936      1002      1003      3889      3893      3891
 -1      1935    8    0    1
 -2       938       937      1004      3690      3894      3895
 -1      1936    8    0    1
 -2       937      1003      1004      3892      3896      3894
 -1      1937    8    0    1
 -2       939       938      1005      3693      3897      3898
 -1      1938    8    0    1
 -2       938      1004      1005      3895      3899      3897
 -1      1939    8    0    1
 -2       940       939      1006      3696      3900      3901
 -1      1940    8    0    1
 -2       939      1005      1006      3898      3902      3900
 -1      1941    8    0    1
 -2       941       940      1007      3699      3903      3904
 -1      1942    8    0    1
 -2       940      1006      1007      3901      3905      3903
 -1      1943    8    0    1
 -2       942       941      1008      3702      3906      3907
 -1      1944    8    0    1
 -2       941      1007      1008      3904      3908      3906
 -1      1945    8    0    1
 -2       943       942      1009      3705      3909      3910
 -1      1946    8    0    1
 -2       942      1008      1009      3907      3911      3909
 -1      1947    8    0    1
 -2       944       943      1010      3708      3912      3913
 -1      1948    8    0    1
 -2       943      1009      1010      3910      3914      3912
 -1      1949    8    0    1
 -2       945       944      1011      3711      3915      3916
 -1      1950    8    0    1
 -2       944      1010      1011      3913      3917      3915
 -1      1951    8    0    1
 -2       946       945      1012      3714      3918      3919
 -1      1952    8    0    1
 -2       945      1011      1012      3916      3920      3918
 -1      1953    8    0    1
 -2       947       946      1013      3717      3921      3922
 -1      1954    8    0    1
 -2       946      1012      1013      3919      3923      3921
 -1      1955    8    0    1
 -2       948       947      1014      3720      3924      3925
 -1      1956    8    0    1
 -2       947      1013      1014      3922      3926      3924
 -1      1957    8    0    1
 -2       949       948      1015      3723      3927      3928
 -1      1958    8    0    1
 -2       948      1014      1015      3925      3929      3927
 -1      1959    8    0    1
 -2       950       949      1016      3726      3930      3931
 -1      1960    8    0    1
 -2       949      1015      1016      3928      3932      3930
 -1      1961    8    0    1
 -2       951       950      1017      3729      3933      3934
 -1      1962    8    0    1
 -2       950      1016      1017      3931      3935      3933
 -1      1963    8    0    1
 -2       952       951      1018      3732      3936      3937
 -1      1964    8    0    1
 -2       951      1017      1018      3934      3938      3936
 -1      1965    8    0    1
 -2       953       952      1019      3735      3939      3940
 -1      1966    8    0    1
 -2       952      1018      1019      3937      3941      3939
 -1      1967    8    0    1
 -2       954       953      1020      3738      3942      3943
 -1      1968    8    0    1
 -2       990       954      1020      3861      3943      3944
 -1      1969    8    0    1
 -2       953      1019      1020      3940      3945      3942
 -1      1970    8    0    1
 -2       956       955      1021      3743      3946      3947
 -1      1971    8    0    1
 -2       958       959      1022      3751      3948      3949
 -1      1972    8    0    1
 -2       957       958      1023      3748      3950      3951
 -1      1973    8    0    1
 -2       958      1022      1023      3949      3952      3950
 -1      1974    8    0    1
 -2       960       961      1024      3757      3953      3954
 -1      1975    8    0    1
 -2       961       962      1025      3760      3955      3956
 -1      1976    8    0    1
 -2       961      1025      1024      3956      3957      3953
 -1      1977    8    0    1
 -2       962       963      1026      3763      3958      3959
 -1      1978    8    0    1
 -2       962      1026      1025      3959      3960      3955
 -1      1979    8    0    1
 -2       963       964      1027      3766      3961      3962
 -1      1980    8    0    1
 -2       963      1027      1026      3962      3963      3958
 -1      1981    8    0    1
 -2       964       965      1028      3769      3964      3965
 -1      1982    8    0    1
 -2       964      1028      1027      3965      3966      3961
 -1      1983    8    0    1
 -2       965       966      1029      3772      3967      3968
 -1      1984    8    0    1
 -2       965      1029      1028      3968      3969      3964
 -1      1985    8    0    1
 -2       966       967      1030      3775      3970      3971
 -1      1986    8    0    1
 -2       966      1030      1029      3971      3972      3967
 -1      1987    8    0    1
 -2       967       968      1031      3778      3973      3974
 -1      1988    8    0    1
 -2       967      1031      1030      3974      3975      3970
 -1      1989    8    0    1
 -2       968       969      1032      3781      3976      3977
 -1      1990    8    0    1
 -2       968      1032      1031      3977      3978      3973
 -1      1991    8    0    1
 -2       969       970      1033      3784      3979      3980
 -1      1992    8    0    1
 -2       969      1033      1032      3980      3981      3976
 -1      1993    8    0    1
 -2       970       971      1034      3787      3982      3983
 -1      1994    8    0    1
 -2       970      1034      1033      3983      3984      3979
 -1      1995    8    0    1
 -2       971       972      1035      3790      3985      3986
 -1      1996    8    0    1
 -2       971      1035      1034      3986      3987      3982
 -1      1997    8    0    1
 -2       972       973      1036      3793      3988      3989
 -1      1998    8    0    1
 -2       972      1036      1035      3989      3990      3985
 -1      1999    8    0    1
 -2       973       974      1037      3796      3991      3992
 -1      2000    8    0    1
 -2       973      1037      1036      3992      3993      3988
 -1      2001    8    0    1
 -2       974       975      1038      3799      3994      3995
 -1      2002    8    0    1
 -2       974      1038      1037      3995      3996      3991
 -1      2003    8    0    1
 -2       975       976      1039      3802      3997      3998
 -1      2004    8    0    1
 -2       975      1039      1038      3998      3999      3994
 -1      2005    8    0    1
 -2       976       977      1040      3805      4000      4001
 -1      2006    8    0    1
 -2       976      1040      1039      4001      4002      3997
 -1      2007    8    0    1
 -2       977       978      1041      3808      4003      4004
 -1      2008    8    0    1
 -2       977      1041      1040      4004      4005      4000
 -1      2009    8    0    1
 -2       978       979      1042      3811      4006      4007
 -1      2010    8    0    1
 -2       978      1042      1041      4007      4008      4003
 -1      2011    8    0    1
 -2       979       980      1043      3814      4009      4010
 -1      2012    8    0    1
 -2       979      1043      1042      4010      4011      4006
 -1      2013    8    0    1
 -2       987       918      1044      3838      4012      4013
 -1      2014    8    0    1
 -2       918       991      1044      3855      4014      4012
 -1      2015    8    0    1
 -2       983       956      1045      3823      4015      4016
 -1      2016    8    0    1
 -2       956      1021      1045      3947      4017      4015
 -1      2017    8    0    1
 -2       921       923       954      3840      3841      3860
 -1      2018    8    0    1
 -2       926       925      1046      3654      4018      4019
 -1      2019    8    0    1
 -2       926      1046       993      4019      4020      3862
 -1      2020    8    0    1
 -2       959       960      1047      3754      4021      4022
 -1      2021    8    0    1
 -2       959      1047      1022      4022      4023      3948
 -1      2022    8    0    1
 -2       925       985      1048      3830      4024      4025
 -1      2023    8    0    1
 -2      1046       925      1048      4018      4025      4026
 -1      2024    8    0    1
 -2       985       917      1048      3853      4027      4024
 -1      2025    8    0    1
 -2       984       957      1049      3827      4028      4029
 -1      2026    8    0    1
 -2       957      1023      1049      3951      4030      4028
 -1      2027    8    0    1
 -2       920       987      1050      3843      4031      4032
 -1      2028    8    0    1
 -2       981       920      1050      3818      4032      4033
 -1      2029    8    0    1
 -2       987      1044      1050      4013      4034      4031
 -1      2030    8    0    1
 -2       917       924      1048      3649      4035      4027
 -1      2031    8    0    1
 -2       955       984      1051      3842      4036      4037
 -1      2032    8    0    1
 -2       955      1051      1021      4037      4038      3946
 -1      2033    8    0    1
 -2       990      1020      1052      3944      4039      4040
 -1      2034    8    0    1
 -2       990      1052       991      4040      4041      3856
 -1      2035    8    0    1
 -2       960      1024      1047      3954      4042      4021
 -1      2036    8    0    1
 -2      1048       924      1053      4035      4043      4044
 -1      2037    8    0    1
 -2      1046      1048      1053      4026      4044      4045
 -1      2038    8    0    1
 -2       924       988      1053      3845      4046      4043
 -1      2039    8    0    1
 -2       980       981      1050      3817      4033      4047
 -1      2040    8    0    1
 -2       980      1050      1043      4047      4048      4009
 -1      2041    8    0    1
 -2       982       986      1054      3834      4049      4050
 -1      2042    8    0    1
 -2       992       982      1054      3857      4050      4051
 -1      2043    8    0    1
 -2       986       989      1054      3849      4052      4049
 -1      2044    8    0    1
 -2       989       983      1055      3850      4053      4054
 -1      2045    8    0    1
 -2      1054       989      1055      4052      4054      4055
 -1      2046    8    0    1
 -2       983      1045      1055      4016      4056      4053
 -1      2047    8    0    1
 -2       984      1049      1051      4029      4057      4036
 -1      2048    8    0    1
 -2      1026      1027      1056      3963      4058      4059
 -1      2049    8    0    1
 -2       993      1046      1057      4020      4060      4061
 -1      2050    8    0    1
 -2      1046      1053      1057      4045      4062      4060
 -1      2051    8    0    1
 -2      1023      1022      1058      3952      4063      4064
 -1      2052    8    0    1
 -2       995       994      1059      3869      4065      4066
 -1      2053    8    0    1
 -2       996       995      1060      3872      4067      4068
 -1      2054    8    0    1
 -2       995      1059      1060      4066      4069      4067
 -1      2055    8    0    1
 -2       997       996      1061      3875      4070      4071
 -1      2056    8    0    1
 -2       996      1060      1061      4068      4072      4070
 -1      2057    8    0    1
 -2       998       997      1062      3878      4073      4074
 -1      2058    8    0    1
 -2       997      1061      1062      4071      4075      4073
 -1      2059    8    0    1
 -2       999       998      1063      3881      4076      4077
 -1      2060    8    0    1
 -2       998      1062      1063      4074      4078      4076
 -1      2061    8    0    1
 -2      1000       999      1064      3884      4079      4080
 -1      2062    8    0    1
 -2       999      1063      1064      4077      4081      4079
 -1      2063    8    0    1
 -2      1001      1000      1065      3887      4082      4083
 -1      2064    8    0    1
 -2      1000      1064      1065      4080      4084      4082
 -1      2065    8    0    1
 -2      1002      1001      1066      3890      4085      4086
 -1      2066    8    0    1
 -2      1001      1065      1066      4083      4087      4085
 -1      2067    8    0    1
 -2      1003      1002      1067      3893      4088      4089
 -1      2068    8    0    1
 -2      1002      1066      1067      4086      4090      4088
 -1      2069    8    0    1
 -2      1004      1003      1068      3896      4091      4092
 -1      2070    8    0    1
 -2      1003      1067      1068      4089      4093      4091
 -1      2071    8    0    1
 -2      1005      1004      1069      3899      4094      4095
 -1      2072    8    0    1
 -2      1004      1068      1069      4092      4096      4094
 -1      2073    8    0    1
 -2      1006      1005      1070      3902      4097      4098
 -1      2074    8    0    1
 -2      1005      1069      1070      4095      4099      4097
 -1      2075    8    0    1
 -2      1007      1006      1071      3905      4100      4101
 -1      2076    8    0    1
 -2      1006      1070      1071      4098      4102      4100
 -1      2077    8    0    1
 -2      1008      1007      1072      3908      4103      4104
 -1      2078    8    0    1
 -2      1007      1071      1072      4101      4105      4103
 -1      2079    8    0    1
 -2      1009      1008      1073      3911      4106      4107
 -1      2080    8    0    1
 -2      1008      1072      1073      4104      4108      4106
 -1      2081    8    0    1
 -2      1010      1009      1074      3914      4109      4110
 -1      2082    8    0    1
 -2      1009      1073      1074      4107      4111      4109
 -1      2083    8    0    1
 -2      1011      1010      1075      3917      4112      4113
 -1      2084    8    0    1
 -2      1010      1074      1075      4110      4114      4112
 -1      2085    8    0    1
 -2      1012      1011      1076      3920      4115      4116
 -1      2086    8    0    1
 -2      1011      1075      1076      4113      4117      4115
 -1      2087    8    0    1
 -2      1013      1012      1077      3923      4118      4119
 -1      2088    8    0    1
 -2      1012      1076      1077      4116      4120      4118
 -1      2089    8    0    1
 -2      1014      1013      1078      3926      4121      4122
 -1      2090    8    0    1
 -2      1013      1077      1078      4119      4123      4121
 -1      2091    8    0    1
 -2      1015      1014      1079      3929      4124      4125
 -1      2092    8    0    1
 -2      1014      1078      1079      4122      4126      4124
 -1      2093    8    0    1
 -2      1016      1015      1080      3932      4127      4128
 -1      2094    8    0    1
 -2      1015      1079      1080      4125      4129      4127
 -1      2095    8    0    1
 -2      1017      1016      1081      3935      4130      4131
 -1      2096    8    0    1
 -2      1016      1080      1081      4128      4132      4130
 -1      2097    8    0    1
 -2      1018      1017      1082      3938      4133      4134
 -1      2098    8    0    1
 -2      1017      1081      1082      4131      4135      4133
 -1      2099    8    0    1
 -2      1019      1018      1083      3941      4136      4137
 -1      2100    8    0    1
 -2      1018      1082      1083      4134      4138      4136
 -1      2101    8    0    1
 -2      1020      1019      1084      3945      4139      4140
 -1      2102    8    0    1
 -2      1052      1020      1084      4039      4140      4141
 -1      2103    8    0    1
 -2      1019      1083      1084      4137      4142      4139
 -1      2104    8    0    1
 -2       994       993      1085      3866      4143      4144
 -1      2105    8    0    1
 -2       994      1085      1059      4144      4145      4065
 -1      2106    8    0    1
 -2      1043      1050      1044      4048      4034      4146
 -1      2107    8    0    1
 -2      1025      1026      1086      3960      4147      4148
 -1      2108    8    0    1
 -2      1026      1056      1086      4059      4149      4147
 -1      2109    8    0    1
 -2      1024      1025      1087      3957      4150      4151
 -1      2110    8    0    1
 -2      1025      1086      1087      4148      4152      4150
 -1      2111    8    0    1
 -2      1027      1028      1088      3966      4153      4154
 -1      2112    8    0    1
 -2      1027      1088      1056      4154      4155      4058
 -1      2113    8    0    1
 -2      1028      1029      1089      3969      4156      4157
 -1      2114    8    0    1
 -2      1028      1089      1088      4157      4158      4153
 -1      2115    8    0    1
 -2      1029      1030      1090      3972      4159      4160
 -1      2116    8    0    1
 -2      1029      1090      1089      4160      4161      4156
 -1      2117    8    0    1
 -2      1030      1031      1091      3975      4162      4163
 -1      2118    8    0    1
 -2      1030      1091      1090      4163      4164      4159
 -1      2119    8    0    1
 -2      1031      1032      1092      3978      4165      4166
 -1      2120    8    0    1
 -2      1031      1092      1091      4166      4167      4162
 -1      2121    8    0    1
 -2      1032      1033      1093      3981      4168      4169
 -1      2122    8    0    1
 -2      1032      1093      1092      4169      4170      4165
 -1      2123    8    0    1
 -2      1033      1034      1094      3984      4171      4172
 -1      2124    8    0    1
 -2      1033      1094      1093      4172      4173      4168
 -1      2125    8    0    1
 -2      1034      1035      1095      3987      4174      4175
 -1      2126    8    0    1
 -2      1034      1095      1094      4175      4176      4171
 -1      2127    8    0    1
 -2      1035      1036      1096      3990      4177      4178
 -1      2128    8    0    1
 -2      1035      1096      1095      4178      4179      4174
 -1      2129    8    0    1
 -2      1036      1037      1097      3993      4180      4181
 -1      2130    8    0    1
 -2      1036      1097      1096      4181      4182      4177
 -1      2131    8    0    1
 -2      1037      1038      1098      3996      4183      4184
 -1      2132    8    0    1
 -2      1037      1098      1097      4184      4185      4180
 -1      2133    8    0    1
 -2      1038      1039      1099      3999      4186      4187
 -1      2134    8    0    1
 -2      1038      1099      1098      4187      4188      4183
 -1      2135    8    0    1
 -2      1039      1040      1100      4002      4189      4190
 -1      2136    8    0    1
 -2      1039      1100      1099      4190      4191      4186
 -1      2137    8    0    1
 -2      1040      1041      1101      4005      4192      4193
 -1      2138    8    0    1
 -2      1040      1101      1100      4193      4194      4189
 -1      2139    8    0    1
 -2      1041      1042      1102      4008      4195      4196
 -1      2140    8    0    1
 -2      1041      1102      1101      4196      4197      4192
 -1      2141    8    0    1
 -2      1042      1043      1103      4011      4198      4199
 -1      2142    8    0    1
 -2      1042      1103      1102      4199      4200      4195
 -1      2143    8    0    1
 -2      1045      1021      1104      4017      4201      4202
 -1      2144    8    0    1
 -2      1021      1051      1105      4038      4203      4204
 -1      2145    8    0    1
 -2      1021      1105      1104      4204      4205      4201
 -1      2146    8    0    1
 -2      1049      1023      1106      4030      4206      4207
 -1      2147    8    0    1
 -2      1023      1058      1106      4064      4208      4206
 -1      2148    8    0    1
 -2      1043      1044      1107      4146      4209      4210
 -1      2149    8    0    1
 -2      1103      1043      1107      4198      4210      4211
 -1      2150    8    0    1
 -2      1044       991      1107      4014      4212      4209
 -1      2151    8    0    1
 -2       988       992      1108      3859      4213      4214
 -1      2152    8    0    1
 -2       988      1108      1053      4214      4215      4046
 -1      2153    8    0    1
 -2      1022      1047      1109      4023      4216      4217
 -1      2154    8    0    1
 -2      1022      1109      1058      4217      4218      4063
 -1      2155    8    0    1
 -2      1047      1024      1110      4042      4219      4220
 -1      2156    8    0    1
 -2      1109      1047      1110      4216      4220      4221
 -1      2157    8    0    1
 -2      1024      1087      1110      4151      4222      4219
 -1      2158    8    0    1
 -2      1051      1049      1111      4057      4223      4224
 -1      2159    8    0    1
 -2      1049      1106      1111      4207      4225      4223
 -1      2160    8    0    1
 -2       993      1057      1085      4061      4226      4143
 -1      2161    8    0    1
 -2      1105      1051      1111      4203      4224      4227
 -1      2162    8    0    1
 -2       991      1052      1107      4041      4228      4212
 -1      2163    8    0    1
 -2      1045      1104      1112      4202      4229      4230
 -1      2164    8    0    1
 -2      1045      1112      1055      4230      4231      4056
 -1      2165    8    0    1
 -2       992      1054      1113      4051      4232      4233
 -1      2166    8    0    1
 -2      1108       992      1113      4213      4233      4234
 -1      2167    8    0    1
 -2      1054      1055      1113      4055      4235      4232
 -1      2168    8    0    1
 -2      1059      1085      1114      4145      4236      4237
 -1      2169    8    0    1
 -2      1061      1060      1115      4072      4238      4239
 -1      2170    8    0    1
 -2      1062      1061      1106      4075      4240      4241
 -1      2171    8    0    1
 -2      1063      1062      1058      4078      4242      4243
 -1      2172    8    0    1
 -2      1064      1063      1109      4081      4244      4245
 -1      2173    8    0    1
 -2      1065      1064      1110      4084      4246      4247
 -1      2174    8    0    1
 -2      1066      1065      1087      4087      4248      4249
 -1      2175    8    0    1
 -2      1067      1066      1086      4090      4250      4251
 -1      2176    8    0    1
 -2      1068      1067      1056      4093      4252      4253
 -1      2177    8    0    1
 -2      1069      1068      1088      4096      4254      4255
 -1      2178    8    0    1
 -2      1070      1069      1089      4099      4256      4257
 -1      2179    8    0    1
 -2      1071      1070      1090      4102      4258      4259
 -1      2180    8    0    1
 -2      1072      1071      1091      4105      4260      4261
 -1      2181    8    0    1
 -2      1073      1072      1092      4108      4262      4263
 -1      2182    8    0    1
 -2      1074      1073      1093      4111      4264      4265
 -1      2183    8    0    1
 -2      1075      1074      1094      4114      4266      4267
 -1      2184    8    0    1
 -2      1076      1075      1095      4117      4268      4269
 -1      2185    8    0    1
 -2      1077      1076      1096      4120      4270      4271
 -1      2186    8    0    1
 -2      1078      1077      1097      4123      4272      4273
 -1      2187    8    0    1
 -2      1079      1078      1098      4126      4274      4275
 -1      2188    8    0    1
 -2      1080      1079      1099      4129      4276      4277
 -1      2189    8    0    1
 -2      1081      1080      1100      4132      4278      4279
 -1      2190    8    0    1
 -2      1082      1081      1101      4135      4280      4281
 -1      2191    8    0    1
 -2      1083      1082      1102      4138      4282      4283
 -1      2192    8    0    1
 -2      1086      1066      1087      4250      4249      4152
 -1      2193    8    0    1
 -2      1088      1068      1056      4254      4253      4155
 -1      2194    8    0    1
 -2      1101      1081      1100      4280      4279      4194
 -1      2195    8    0    1
 -2      1058      1109      1063      4218      4244      4243
 -1      2196    8    0    1
 -2      1086      1056      1067      4149      4252      4251
 -1      2197    8    0    1
 -2      1089      1090      1070      4161      4258      4257
 -1      2198    8    0    1
 -2      1090      1091      1071      4164      4260      4259
 -1      2199    8    0    1
 -2      1091      1092      1072      4167      4262      4261
 -1      2200    8    0    1
 -2      1092      1093      1073      4170      4264      4263
 -1      2201    8    0    1
 -2      1093      1094      1074      4173      4266      4265
 -1      2202    8    0    1
 -2      1094      1095      1075      4176      4268      4267
 -1      2203    8    0    1
 -2      1095      1096      1076      4179      4270      4269
 -1      2204    8    0    1
 -2      1096      1097      1077      4182      4272      4271
 -1      2205    8    0    1
 -2      1097      1098      1078      4185      4274      4273
 -1      2206    8    0    1
 -2      1098      1099      1079      4188      4276      4275
 -1      2207    8    0    1
 -2      1099      1100      1080      4191      4278      4277
 -1      2208    8    0    1
 -2      1101      1102      1082      4197      4282      4281
 -1      2209    8    0    1
 -2      1102      1103      1083      4200      4284      4283
 -1      2210    8    0    1
 -2      1085      1057      1116      4226      4285      4286
 -1      2211    8    0    1
 -2      1089      1069      1088      4256      4255      4158
 -1      2212    8    0    1
 -2      1053      1108      1057      4215      4287      4062
 -1      2213    8    0    1
 -2      1106      1058      1062      4208      4242      4241
 -1      2214    8    0    1
 -2      1060      1059      1117      4069      4288      4289
 -1      2215    8    0    1
 -2      1115      1060      1117      4238      4289      4290
 -1      2216    8    0    1
 -2      1059      1114      1117      4237      4291      4288
 -1      2217    8    0    1
 -2      1087      1065      1110      4248      4247      4222
 -1      2218    8    0    1
 -2      1057      1108      1116      4287      4292      4285
 -1      2219    8    0    1
 -2      1105      1111      1115      4227      4293      4294
 -1      2220    8    0    1
 -2      1109      1110      1064      4221      4246      4245
 -1      2221    8    0    1
 -2      1083      1103      1107      4284      4211      4295
 -1      2222    8    0    1
 -2      1085      1116      1114      4286      4296      4236
 -1      2223    8    0    1
 -2      1106      1061      1111      4240      4297      4225
 -1      2224    8    0    1
 -2      1112      1104      1114      4229      4298      4299
 -1      2225    8    0    1
 -2      1105      1115      1117      4294      4290      4300
 -1      2226    8    0    1
 -2      1113      1055      1112      4235      4231      4301
 -1      2227    8    0    1
 -2      1114      1104      1117      4298      4302      4291
 -1      2228    8    0    1
 -2      1105      1117      1104      4300      4302      4205
 -1      2229    8    0    1
 -2      1116      1108      1113      4292      4234      4303
 -1      2230    8    0    1
 -2      1113      1112      1116      4301      4304      4303
 -1      2231    8    0    1
 -2      1114      1116      1112      4296      4304      4299
 -1      2232    8    0    1
 -2      1107      1052      1084      4228      4141      4305
 -1      2233    8    0    1
 -2      1111      1061      1115      4297      4239      4293
 -1      2234    8    0    1
 -2      1083      1107      1084      4295      4305      4142
 -3
    1PSTEP                         1           1           1          
  100CL  101 1.000000000        4305                     0    1           1
 -4  DISP        4    1
 -5  D1          1    2    1    0
 -5  D2          1    2    2    0
 -5  D3          1    2    3    0
 -5  ALL         1    2    0    0    1ALL
 -1         1 2.59667E-03-6.44294E-04-4.56132E-15
 -1         2 4.78314E-03 1.09029E-04-7.78718E-15
 -1         3 1.53103E-02 1.40348E-03-1.35617E-13
 -1         4 1.50396E-02-2.53250E-05-1.37719E-13
 -1         5 0.00000E+00 0.00000E+00 0.00000E+00
 -1         6 0.00000E+00 0.00000E+00 0.00000E+00
 -1         7 0.00000E+00 0.00000E+00 0.00000E+00
 -1         8 0.00000E+00 0.00000E+00 0.00000E+00
 -1         9 0.00000E+00 0.00000E+00 0.00000E+00
 -1        10 0.00000E+00 0.00000E+00 0.00000E+00
 -1        11 0.00000E+00 0.00000E+00 0.00000E+00
 -1        12 0.00000E+00 0.00000E+00 0.00000E+00
 -1        13 0.00000E+00 0.00000E+00 0.00000E+00
 -1        14 0.00000E+00 0.00000E+00 0.00000E+00
 -1        15 0.00000E+00 0.00000E+00 0.00000E+00
 -1        16 0.00000E+00 0.00000E+00 0.00000E+00
 -1        17 0.00000E+00 0.00000E+00 0.00000E+00
 -1        18 0.00000E+00 0.00000E+00 0.00000E+00
 -1        19 0.00000E+00 0.00000E+00 0.00000E+00
 -1        20 0.00000E+00 0.00000E+00 0.00000E+00
 -1        21 0.00000E+00 0.00000E+00 0.00000E+00
 -1        22 0.00000E+00 0.00000E+00 0.00000E+00
 -1        23 5.07633E-04-3.03258E-04 2.94496E-17
 -1        24 8.83619E-04-4.79665E-04-1.22806E-16
 -1        25 1.23332E-03-6.30020E-04-4.52942E-16
 -1        26 1.56502E-03-7.68080E-04-9.59502E-16
 -1        27 1.87522E-03-8.94046E-04-1.64059E-15
 -1        28 2.16161E-03-9.97846E-04-2.49881E-15
 -1        29 2.42744E-03-1.06548E-03-3.53403E-15
 -1        30 2.68275E-03-1.08613E-03-4.74472E-15
 -1        31 2.94154E-03-1.05831E-03-6.12681E-15
 -1        32 3.21609E-03-9.91421E-04-7.67433E-15
 -1        33 3.51242E-03-9.01918E-04-9.37786E-15
 -1        34 3.82929E-03-8.06866E-04-1.12257E-14
 -1        35 4.16057E-03-7.19050E-04-1.32140E-14
 -1        36 4.49866E-03-6.45324E-04-1.53326E-14
 -1        37 4.83702E-03-5.87506E-04-1.75737E-14
 -1        38 5.17117E-03-5.44254E-04-1.99307E-14
 -1        39 5.49875E-03-5.12787E-04-2.23966E-14
 -1        40 5.81898E-03-4.90033E-04-2.49695E-14
 -1        41 6.13209E-03-4.73233E-04-2.76471E-14
 -1        42 6.43885E-03-4.60168E-04-3.04196E-14
 -1        43 6.74027E-03-4.49185E-04-3.32913E-14
 -1        44 7.03736E-03-4.39121E-04-3.62542E-14
 -1        45 7.33106E-03-4.29206E-04-3.93094E-14
 -1        46 7.62216E-03-4.18967E-04-4.24591E-14
 -1        47 7.91134E-03-4.08138E-04-4.56959E-14
 -1        48 8.19913E-03-3.96602E-04-4.90057E-14
 -1        49 8.48595E-03-3.84333E-04-5.23910E-14
 -1        50 8.77211E-03-3.71364E-04-5.58542E-14
 -1        51 9.05784E-03-3.57763E-04-5.93807E-14
 -1        52 9.34330E-03-3.43609E-04-6.29609E-14
 -1        53 9.62863E-03-3.28987E-04-6.65776E-14
 -1        54 9.91390E-03-3.13979E-04-7.02350E-14
 -1        55 1.01992E-02-2.98659E-04-7.39179E-14
 -1        56 1.04844E-02-2.83091E-04-7.76199E-14
 -1        57 1.07698E-02-2.67330E-04-8.13473E-14
 -1        58 1.10551E-02-2.51422E-04-8.50874E-14
 -1        59 1.13406E-02-2.35405E-04-8.88286E-14
 -1        60 1.16261E-02-2.19306E-04-9.25632E-14
 -1        61 1.19116E-02-2.03150E-04-9.62938E-14
 -1        62 1.21971E-02-1.86953E-04-1.00025E-13
 -1        63 1.24827E-02-1.70729E-04-1.03772E-13
 -1        64 1.27684E-02-1.54489E-04-1.07525E-13
 -1        65 1.30540E-02-1.38239E-04-1.11290E-13
 -1        66 1.33397E-02-1.21984E-04-1.15081E-13
 -1        67 1.36254E-02-1.05729E-04-1.18896E-13
 -1        68 1.39111E-02-8.94765E-05-1.22712E-13
 -1        69 1.41968E-02-7.32280E-05-1.26511E-13
 -1        70 1.44825E-02-5.69850E-05-1.30294E-13
 -1        71 1.47682E-02-4.07476E-05-1.34091E-13
 -1        72 5.26339E-04 3.02879E-04 5.84114E-17
 -1        73 9.21875E-04 4.83161E-04-4.12065E-17
 -1        74 1.29820E-03 6.43866E-04-2.96055E-16
 -1        75 1.65652E-03 8.04210E-04-7.10532E-16
 -1        76 1.98991E-03 9.61944E-04-1.29040E-15
 -1        77 2.29260E-03 1.10187E-03-2.03724E-15
 -1        78 2.56669E-03 1.20218E-03-2.95131E-15
 -1        79 2.82518E-03 1.24501E-03-4.03507E-15
 -1        80 3.08784E-03 1.22691E-03-5.29157E-15
 -1        81 3.37184E-03 1.16153E-03-6.71729E-15
 -1        82 3.68418E-03 1.07268E-03-8.30591E-15
 -1        83 4.02108E-03 9.83540E-04-1.00451E-14
 -1        84 4.37267E-03 9.09533E-04-1.19209E-14
 -1        85 4.72852E-03 8.57133E-04-1.39308E-14
 -1        86 5.08080E-03 8.26293E-04-1.60712E-14
 -1        87 5.42501E-03 8.13605E-04-1.83325E-14
 -1        88 5.75939E-03 8.14645E-04-2.07011E-14
 -1        89 6.08399E-03 8.25256E-04-2.31840E-14
 -1        90 6.39976E-03 8.42059E-04-2.57741E-14
 -1        91 6.70808E-03 8.62531E-04-2.84689E-14
 -1        92 7.01036E-03 8.84899E-04-3.12663E-14
 -1        93 7.30789E-03 9.07980E-04-3.41626E-14
 -1        94 7.60178E-03 9.31027E-04-3.71507E-14
 -1        95 7.89297E-03 9.53603E-04-4.02212E-14
 -1        96 8.18216E-03 9.75481E-04-4.33697E-14
 -1        97 8.46994E-03 9.96573E-04-4.66045E-14
 -1        98 8.75674E-03 1.01688E-03-4.99275E-14
 -1        99 9.04287E-03 1.03645E-03-5.33210E-14
 -1       100 9.32857E-03 1.05537E-03-5.67709E-14
 -1       101 9.61403E-03 1.07371E-03-6.02718E-14
 -1       102 9.89934E-03 1.09159E-03-6.38151E-14
 -1       103 1.01846E-02 1.10907E-03-6.74140E-14
 -1       104 1.04699E-02 1.12623E-03-7.10571E-14
 -1       105 1.07551E-02 1.14315E-03-7.47387E-14
 -1       106 1.10405E-02 1.15987E-03-7.84495E-14
 -1       107 1.13258E-02 1.17644E-03-8.21872E-14
 -1       108 1.16113E-02 1.19291E-03-8.59401E-14
 -1       109 1.18967E-02 1.20929E-03-8.97092E-14
 -1       110 1.21823E-02 1.22562E-03-9.34960E-14
 -1       111 1.24678E-02 1.24190E-03-9.73009E-14
 -1       112 1.27534E-02 1.25816E-03-1.01114E-13
 -1       113 1.30391E-02 1.27440E-03-1.04938E-13
 -1       114 1.33247E-02 1.29064E-03-1.08783E-13
 -1       115 1.36104E-02 1.30686E-03-1.12639E-13
 -1       116 1.38961E-02 1.32309E-03-1.16512E-13
 -1       117 1.41818E-02 1.33932E-03-1.20397E-13
 -1       118 1.44675E-02 1.35556E-03-1.24284E-13
 -1       119 1.47532E-02 1.37180E-03-1.28148E-13
 -1       120 1.50389E-02 1.38804E-03-1.31987E-13
 -1       121 1.52944E-02 1.31919E-03-1.35736E-13
 -1       122 1.52784E-02 1.23491E-03-1.35897E-13
 -1       123 1.52624E-02 1.15062E-03-1.36048E-13
 -1       124 1.52464E-02 1.06632E-03-1.36173E-13
 -1       125 1.52304E-02 9.82024E-04-1.36263E-13
 -1       126 1.52147E-02 8.99147E-04-1.36346E-13
 -1       127 1.51987E-02 8.14835E-04-1.36448E-13
 -1       128 1.51827E-02 7.30520E-04-1.36548E-13
 -1       129 1.51668E-02 6.46203E-04-1.36655E-13
 -1       130 1.51508E-02 5.61887E-04-1.36758E-13
 -1       131 1.51348E-02 4.77576E-04-1.36894E-13
 -1       132 1.51192E-02 3.94698E-04-1.37043E-13
 -1       133 1.51032E-02 3.10398E-04-1.37188E-13
 -1       134 1.50873E-02 2.26105E-04-1.37316E-13
 -1       135 1.50713E-02 1.41817E-04-1.37451E-13
 -1       136 1.50553E-02 5.75315E-05-1.37591E-13
 -1       137 4.73745E-03 2.70805E-04-7.66486E-15
 -1       138 4.59298E-03 4.25661E-04-7.37894E-15
 -1       139 4.35927E-03 5.63422E-04-6.95686E-15
 -1       140 4.06115E-03 6.75489E-04-6.45110E-15
 -1       141 3.69247E-03 7.63934E-04-5.86147E-15
 -1       142 3.26652E-03 8.20439E-04-5.22191E-15
 -1       143 2.79698E-03 8.37263E-04-4.56169E-15
 -1       144 2.32551E-03 8.11038E-04-3.93945E-15
 -1       145 1.87447E-03 7.45263E-04-3.37538E-15
 -1       146 1.45998E-03 6.46069E-04-2.88165E-15
 -1       147 1.12430E-03 5.30863E-04-2.49708E-15
 -1       148 8.40327E-04 3.94560E-04-2.18191E-15
 -1       149 6.65310E-04 2.69903E-04-1.99369E-15
 -1       150 5.62547E-04 1.37890E-04-1.88994E-15
 -1       151 5.47782E-04 7.22558E-06-1.88821E-15
 -1       152 6.18321E-04-1.16140E-04-1.98502E-15
 -1       153 7.64108E-04-2.32673E-04-2.17004E-15
 -1       154 9.84456E-04-3.45249E-04-2.44605E-15
 -1       155 1.27916E-03-4.50767E-04-2.81674E-15
 -1       156 1.67542E-03-5.48035E-04-3.32277E-15
 -1       157 2.13890E-03-6.16865E-04-3.93529E-15
 -1       158 3.06771E-03-6.32867E-04-5.22917E-15
 -1       159 3.55066E-03-5.75094E-04-5.94197E-15
 -1       160 3.94990E-03-4.86094E-04-6.54737E-15
 -1       161 4.28988E-03-3.66449E-04-7.07467E-15
 -1       162 4.55001E-03-2.23787E-04-7.47518E-15
 -1       163 4.72091E-03-6.15119E-05-7.72407E-15
 -1       164 2.91053E-04-1.33122E-04-3.89500E-17
 -1       165 2.63452E-04-8.81664E-05-5.88518E-17
 -1       166 2.44382E-04-5.17064E-05-6.87520E-17
 -1       167 2.24027E-04-1.95336E-05-7.32446E-17
 -1       168 1.99479E-04 6.39557E-06-7.49624E-17
 -1       169 1.71970E-04 2.16829E-05-7.52775E-17
 -1       170 1.47539E-04 2.32367E-05-7.50403E-17
 -1       171 1.33403E-04 1.29069E-05-7.43390E-17
 -1       172 1.35747E-04-1.35222E-06-7.30278E-17
 -1       173 1.54143E-04-9.83320E-06-7.08933E-17
 -1       174 1.82185E-04-5.29514E-06-6.75526E-17
 -1       175 2.12210E-04 1.31372E-05-6.24670E-17
 -1       176 2.39926E-04 4.22618E-05-5.44066E-17
 -1       177 2.66260E-04 7.93706E-05-4.08541E-17
 -1       178 2.98638E-04 1.27709E-04-1.72456E-17
 -1       179 3.80686E-04 2.03731E-04 7.49455E-18
 -1       180 5.78358E-04-3.01863E-04-1.07634E-16
 -1       181 9.48474E-04-4.65163E-04-3.75798E-16
 -1       182 1.29819E-03-6.12431E-04-8.10597E-16
 -1       183 1.63142E-03-7.50248E-04-1.41507E-15
 -1       184 1.94824E-03-8.72371E-04-2.19108E-15
 -1       185 2.24982E-03-9.64732E-04-3.14173E-15
 -1       186 2.54061E-03-1.01235E-03-4.26765E-15
 -1       187 2.82824E-03-1.00752E-03-5.56582E-15
 -1       188 3.12090E-03-9.54844E-04-7.03178E-15
 -1       189 3.42406E-03-8.69594E-04-8.65773E-15
 -1       190 3.73879E-03-7.71037E-04-1.04330E-14
 -1       191 4.06253E-03-6.75545E-04-1.23483E-14
 -1       192 4.39102E-03-5.93146E-04-1.43994E-14
 -1       193 4.72010E-03-5.27647E-04-1.65735E-14
 -1       194 5.04659E-03-4.78556E-04-1.88661E-14
 -1       195 5.36855E-03-4.43183E-04-2.12689E-14
 -1       196 5.68512E-03-4.18171E-04-2.37794E-14
 -1       197 5.99618E-03-4.00355E-04-2.63961E-14
 -1       198 6.30210E-03-3.87126E-04-2.91116E-14
 -1       199 6.60350E-03-3.76510E-04-3.19219E-14
 -1       200 6.90109E-03-3.67110E-04-3.48286E-14
 -1       201 7.19557E-03-3.57990E-04-3.78283E-14
 -1       202 7.48758E-03-3.48568E-04-4.09219E-14
 -1       203 7.77769E-03-3.38515E-04-4.41018E-14
 -1       204 8.06636E-03-3.27676E-04-4.73624E-14
 -1       205 8.35396E-03-3.16011E-04-5.06990E-14
 -1       206 8.64080E-03-3.03551E-04-5.41087E-14
 -1       207 8.92710E-03-2.90366E-04-5.75883E-14
 -1       208 9.21304E-03-2.76546E-04-6.11263E-14
 -1       209 9.49874E-03-2.62188E-04-6.47129E-14
 -1       210 9.78431E-03-2.47383E-04-6.83379E-14
 -1       211 1.00698E-02-2.32217E-04-7.19984E-14
 -1       212 1.03553E-02-2.16763E-04-7.56821E-14
 -1       213 1.06407E-02-2.01086E-04-7.93906E-14
 -1       214 1.09262E-02-1.85237E-04-8.31180E-14
 -1       215 1.12117E-02-1.69260E-04-8.68565E-14
 -1       216 1.14972E-02-1.53188E-04-9.05927E-14
 -1       217 1.17828E-02-1.37048E-04-9.43257E-14
 -1       218 1.20684E-02-1.20861E-04-9.80581E-14
 -1       219 1.23540E-02-1.04642E-04-1.01799E-13
 -1       220 1.26396E-02-8.84024E-05-1.05551E-13
 -1       221 1.29253E-02-7.21510E-05-1.09312E-13
 -1       222 1.32109E-02-5.58938E-05-1.13088E-13
 -1       223 1.34966E-02-3.96351E-05-1.16882E-13
 -1       224 1.37823E-02-2.33782E-05-1.20686E-13
 -1       225 1.40680E-02-7.12529E-06-1.24492E-13
 -1       226 1.43537E-02 9.12199E-06-1.28290E-13
 -1       227 1.46394E-02 2.53629E-05-1.32082E-13
 -1       228 7.79528E-04 3.83774E-04-1.10744E-16
 -1       229 1.15881E-03 5.47958E-04-3.74151E-16
 -1       230 1.52077E-03 7.12215E-04-7.91444E-16
 -1       231 1.86469E-03 8.76113E-04-1.36977E-15
 -1       232 2.18856E-03 1.02472E-03-2.11223E-15
 -1       233 2.49383E-03 1.13448E-03-3.02280E-15
 -1       234 2.78791E-03 1.18453E-03-4.10559E-15
 -1       235 3.08246E-03 1.16919E-03-5.36043E-15
 -1       236 3.38796E-03 1.10221E-03-6.78270E-15
 -1       237 3.70891E-03 1.00931E-03-8.36505E-15
 -1       238 4.04333E-03 9.15843E-04-1.00983E-14
 -1       239 4.38552E-03 8.38590E-04-1.19708E-14
 -1       240 4.72924E-03 7.84408E-04-1.39748E-14
 -1       241 5.06964E-03 7.53068E-04-1.61062E-14
 -1       242 5.40380E-03 7.40775E-04-1.83561E-14
 -1       243 5.73048E-03 7.42723E-04-2.07177E-14
 -1       244 6.04959E-03 7.54468E-04-2.31905E-14
 -1       245 6.36173E-03 7.72438E-04-2.57701E-14
 -1       246 6.66784E-03 7.94004E-04-2.84546E-14
 -1       247 6.96892E-03 8.17336E-04-3.12419E-14
 -1       248 7.26595E-03 8.41235E-04-3.41266E-14
 -1       249 7.55980E-03 8.64954E-04-3.71053E-14
 -1       250 7.85120E-03 8.88070E-04-4.01669E-14
 -1       251 8.14077E-03 9.10372E-04-4.33096E-14
 -1       252 8.42898E-03 9.31791E-04-4.65346E-14
 -1       253 8.71622E-03 9.52344E-04-4.98416E-14
 -1       254 9.00277E-03 9.72099E-04-5.32199E-14
 -1       255 9.28886E-03 9.91147E-04-5.66582E-14
 -1       256 9.57465E-03 1.00959E-03-6.01492E-14
 -1       257 9.86024E-03 1.02753E-03-6.36850E-14
 -1       258 1.01457E-02 1.04505E-03-6.72695E-14
 -1       259 1.04312E-02 1.06224E-03-7.09034E-14
 -1       260 1.07166E-02 1.07918E-03-7.45799E-14
 -1       261 1.10020E-02 1.09591E-03-7.82889E-14
 -1       262 1.12875E-02 1.11248E-03-8.20220E-14
 -1       263 1.15730E-02 1.12895E-03-8.57685E-14
 -1       264 1.18585E-02 1.14533E-03-8.95275E-14
 -1       265 1.21441E-02 1.16165E-03-9.33041E-14
 -1       266 1.24297E-02 1.17793E-03-9.70987E-14
 -1       267 1.27153E-02 1.19419E-03-1.00904E-13
 -1       268 1.30009E-02 1.21043E-03-1.04717E-13
 -1       269 1.32866E-02 1.22665E-03-1.08550E-13
 -1       270 1.35723E-02 1.24288E-03-1.12397E-13
 -1       271 1.38579E-02 1.25910E-03-1.16255E-13
 -1       272 1.41436E-02 1.27533E-03-1.20128E-13
 -1       273 1.44293E-02 1.29156E-03-1.24005E-13
 -1       274 1.47151E-02 1.30780E-03-1.27869E-13
 -1       275 1.50008E-02 1.32405E-03-1.31715E-13
 -1       276 1.50389E-02 1.26298E-03-1.32480E-13
 -1       277 1.50230E-02 1.17869E-03-1.32612E-13
 -1       278 1.50070E-02 1.09439E-03-1.32743E-13
 -1       279 1.49910E-02 1.01010E-03-1.32860E-13
 -1       280 1.49752E-02 9.27224E-04-1.32966E-13
 -1       281 1.49593E-02 8.42918E-04-1.33072E-13
 -1       282 1.49433E-02 7.58608E-04-1.33182E-13
 -1       283 1.49273E-02 6.74296E-04-1.33297E-13
 -1       284 1.49113E-02 5.89985E-04-1.33414E-13
 -1       285 1.48954E-02 5.05675E-04-1.33536E-13
 -1       286 1.48797E-02 4.22797E-04-1.33667E-13
 -1       287 1.48637E-02 3.38495E-04-1.33806E-13
 -1       288 1.48478E-02 2.54198E-04-1.33948E-13
 -1       289 1.48318E-02 1.69906E-04-1.34083E-13
 -1       290 1.47356E-02 9.76337E-05-1.33083E-13
 -1       291 4.79623E-03 1.49901E-04-8.68118E-15
 -1       292 4.65833E-03 2.46334E-04-8.26212E-15
 -1       293 4.40656E-03 3.65279E-04-7.80626E-15
 -1       294 4.08367E-03 5.09237E-04-7.21531E-15
 -1       295 3.72534E-03 6.64157E-04-6.52670E-15
 -1       296 3.34779E-03 8.05919E-04-5.76733E-15
 -1       297 2.96878E-03 8.94500E-04-4.97480E-15
 -1       298 2.58633E-03 9.02572E-04-4.22656E-15
 -1       299 2.20879E-03 8.25661E-04-3.54561E-15
 -1       300 1.82090E-03 6.77283E-04-2.95827E-15
 -1       301 1.44274E-03 5.03208E-04-2.48641E-15
 -1       302 1.09074E-03 3.32239E-04-2.10572E-15
 -1       303 7.96041E-04 2.14341E-04-1.87818E-15
 -1       304 6.07438E-04 1.25764E-04-1.73046E-15
 -1       305 5.23716E-04 5.79725E-05-1.64774E-15
 -1       306 5.65750E-04-7.46553E-07-1.72491E-15
 -1       307 7.13856E-04-7.30427E-05-1.86725E-15
 -1       308 9.49321E-04-1.72196E-04-2.10298E-15
 -1       309 1.25367E-03-3.02182E-04-2.44040E-15
 -1       310 1.61765E-03-4.58096E-04-2.90862E-15
 -1       311 2.03152E-03-6.11314E-04-3.51130E-15
 -1       312 2.41534E-03-7.04791E-04-4.22865E-15
 -1       313 2.79096E-03-7.11262E-04-4.98380E-15
 -1       314 3.18279E-03-6.35219E-04-5.84084E-15
 -1       315 3.60191E-03-4.89547E-04-6.61581E-15
 -1       316 3.98303E-03-3.20048E-04-7.35441E-15
 -1       317 4.34342E-03-1.66435E-04-7.90222E-15
 -1       318 4.62162E-03-2.50926E-05-8.41292E-15
 -1       319 4.78522E-03 7.22131E-05-8.61778E-15
 -1       320 5.27465E-04-1.60449E-04-2.38152E-16
 -1       321 5.69227E-04-2.32798E-04-2.08302E-16
 -1       322 4.41031E-04-3.74475E-05-2.58260E-16
 -1       323 3.82039E-04 7.04284E-06-2.58630E-16
 -1       324 3.19804E-04 3.01720E-05-2.56688E-16
 -1       325 2.70068E-04 2.97841E-05-2.53578E-16
 -1       326 2.54447E-04 1.36867E-05-2.50024E-16
 -1       327 2.80620E-04-7.85870E-07-2.45599E-16
 -1       328 3.38314E-04 3.61845E-06-2.39378E-16
 -1       329 4.06866E-04 3.30694E-05-2.29844E-16
 -1       330 4.70751E-04 8.35100E-05-2.15055E-16
 -1       331 5.26627E-04 1.48080E-04-1.91379E-16
 -1       332 5.83869E-04 2.25272E-04-1.53157E-16
 -1       333 6.71434E-04 2.99825E-04-1.39618E-16
 -1       334 1.04558E-03 4.61656E-04-4.05492E-16
 -1       335 1.04813E-03-4.49173E-04-6.52558E-16
 -1       336 1.39653E-03-5.93415E-04-1.18410E-15
 -1       337 1.73502E-03-7.29934E-04-1.88175E-15
 -1       338 2.06157E-03-8.46190E-04-2.74900E-15
 -1       339 2.37645E-03-9.23649E-04-3.79015E-15
 -1       340 2.68426E-03-9.46786E-04-5.00567E-15
 -1       341 2.99257E-03-9.13024E-04-6.39078E-15
 -1       342 3.30748E-03-8.35297E-04-7.93990E-15
 -1       343 3.63038E-03-7.35267E-04-9.64319E-15
 -1       344 3.95847E-03-6.33420E-04-1.14894E-14
 -1       345 4.28757E-03-5.43201E-04-1.34713E-14
 -1       346 4.61425E-03-4.70431E-04-1.55820E-14
 -1       347 4.93655E-03-4.15497E-04-1.78114E-14
 -1       348 5.25369E-03-3.75910E-04-2.01519E-14
 -1       349 5.56567E-03-3.48172E-04-2.25994E-14
 -1       350 5.87284E-03-3.28834E-04-2.51552E-14
 -1       351 6.17575E-03-3.14979E-04-2.78150E-14
 -1       352 6.47500E-03-3.04353E-04-3.05677E-14
 -1       353 6.77117E-03-2.95330E-04-3.34176E-14
 -1       354 7.06481E-03-2.86803E-04-3.63593E-14
 -1       355 7.35642E-03-2.78068E-04-3.93973E-14
 -1       356 7.64643E-03-2.68715E-04-4.25253E-14
 -1       357 7.93518E-03-2.58538E-04-4.57354E-14
 -1       358 8.22299E-03-2.47468E-04-4.90196E-14
 -1       359 8.51009E-03-2.35524E-04-5.23785E-14
 -1       360 8.79667E-03-2.22775E-04-5.58118E-14
 -1       361 9.08288E-03-2.09314E-04-5.93116E-14
 -1       362 9.36884E-03-1.95244E-04-6.28611E-14
 -1       363 9.65463E-03-1.80667E-04-6.64536E-14
 -1       364 9.94032E-03-1.65678E-04-7.00871E-14
 -1       365 1.02259E-02-1.50358E-04-7.37498E-14
 -1       366 1.05115E-02-1.34781E-04-7.74379E-14
 -1       367 1.07971E-02-1.19005E-04-8.11501E-14
 -1       368 1.10827E-02-1.03080E-04-8.48814E-14
 -1       369 1.13683E-02-8.70438E-05-8.86193E-14
 -1       370 1.16539E-02-7.09280E-05-9.23586E-14
 -1       371 1.19395E-02-5.47560E-05-9.60933E-14
 -1       372 1.22251E-02-3.85458E-05-9.98292E-14
 -1       373 1.25108E-02-2.23106E-05-1.03577E-13
 -1       374 1.27964E-02-6.06042E-06-1.07332E-13
 -1       375 1.30821E-02 1.01977E-05-1.11103E-13
 -1       376 1.33678E-02 2.64588E-05-1.14879E-13
 -1       377 1.36535E-02 4.27190E-05-1.18673E-13
 -1       378 1.39392E-02 5.89759E-05-1.22471E-13
 -1       379 1.42249E-02 7.52275E-05-1.26269E-13
 -1       380 1.44803E-02 8.64334E-05-1.29675E-13
 -1       381 1.41064E-03 6.26533E-04-8.20141E-16
 -1       382 1.76424E-03 7.94407E-04-1.39087E-15
 -1       383 2.10357E-03 9.51325E-04-2.12346E-15
 -1       384 2.42767E-03 1.07222E-03-3.02495E-15
 -1       385 2.74105E-03 1.13211E-03-4.09906E-15
 -1       386 3.05321E-03 1.12161E-03-5.34567E-15
 -1       387 3.37309E-03 1.05416E-03-6.76075E-15
 -1       388 3.70373E-03 9.57972E-04-8.33572E-15
 -1       389 4.04221E-03 8.60941E-04-1.00615E-14
 -1       390 4.38319E-03 7.81079E-04-1.19270E-14
 -1       391 4.72197E-03 7.25400E-04-1.39218E-14
 -1       392 5.05559E-03 6.93434E-04-1.60420E-14
 -1       393 5.38273E-03 6.81103E-04-1.82803E-14
 -1       394 5.70309E-03 6.83376E-04-2.06313E-14
 -1       395 6.01703E-03 6.95644E-04-2.30930E-14
 -1       396 6.32523E-03 7.14230E-04-2.56623E-14
 -1       397 6.62849E-03 7.36426E-04-2.83350E-14
 -1       398 6.92764E-03 7.60358E-04-3.11119E-14
 -1       399 7.22342E-03 7.84800E-04-3.39845E-14
 -1       400 7.51654E-03 8.08994E-04-3.69497E-14
 -1       401 7.80757E-03 8.32511E-04-4.00020E-14
 -1       402 8.09701E-03 8.55144E-04-4.31349E-14
 -1       403 8.38524E-03 8.76832E-04-4.63493E-14
 -1       404 8.67260E-03 8.97598E-04-4.96428E-14
 -1       405 8.95931E-03 9.17519E-04-5.30070E-14
 -1       406 9.24557E-03 9.36695E-04-5.64320E-14
 -1       407 9.53153E-03 9.55233E-04-5.99127E-14
 -1       408 9.81729E-03 9.73241E-04-6.34391E-14
 -1       409 1.01029E-02 9.90815E-04-6.70139E-14
 -1       410 1.03885E-02 1.00804E-03-7.06407E-14
 -1       411 1.06740E-02 1.02500E-03-7.43117E-14
 -1       412 1.09596E-02 1.04175E-03-7.80165E-14
 -1       413 1.12451E-02 1.05833E-03-8.17451E-14
 -1       414 1.15306E-02 1.07480E-03-8.54861E-14
 -1       415 1.18162E-02 1.09119E-03-8.92399E-14
 -1       416 1.21018E-02 1.10751E-03-9.30095E-14
 -1       417 1.23874E-02 1.12379E-03-9.67975E-14
 -1       418 1.26731E-02 1.14004E-03-1.00594E-13
 -1       419 1.29587E-02 1.15628E-03-1.04395E-13
 -1       420 1.32444E-02 1.17251E-03-1.08219E-13
 -1       421 1.35301E-02 1.18873E-03-1.12057E-13
 -1       422 1.38157E-02 1.20495E-03-1.15905E-13
 -1       423 1.41014E-02 1.22118E-03-1.19768E-13
 -1       424 1.43871E-02 1.23741E-03-1.23637E-13
 -1       425 1.46729E-02 1.25364E-03-1.27500E-13
 -1       426 1.48559E-02 1.25831E-03-1.29991E-13
 -1       427 1.47515E-02 1.03818E-03-1.29452E-13
 -1       428 1.47675E-02 1.12247E-03-1.29327E-13
 -1       429 1.48117E-02 1.19039E-03-1.29658E-13
 -1       430 1.47358E-02 9.55307E-04-1.29570E-13
 -1       431 1.47198E-02 8.71003E-04-1.29687E-13
 -1       432 1.47038E-02 7.86696E-04-1.29802E-13
 -1       433 1.46879E-02 7.02386E-04-1.29920E-13
 -1       434 1.46719E-02 6.18076E-04-1.30049E-13
 -1       435 1.46559E-02 5.33767E-04-1.30177E-13
 -1       436 1.46402E-02 4.50889E-04-1.30304E-13
 -1       437 1.46243E-02 3.66585E-04-1.30437E-13
 -1       438 1.46083E-02 2.82285E-04-1.30574E-13
 -1       439 1.45924E-02 1.97990E-04-1.30718E-13
 -1       440 4.53211E-03 2.45359E-04-8.90514E-15
 -1       441 4.82930E-03 1.15181E-04-9.61602E-15
 -1       442 4.73234E-03 1.72759E-04-9.33459E-15
 -1       443 4.21350E-03 3.80862E-04-8.12419E-15
 -1       444 3.85048E-03 5.50145E-04-7.33777E-15
 -1       445 4.88274E-04-9.51044E-05-2.52687E-16
 -1       446 3.10564E-03 8.82595E-04-5.51120E-15
 -1       447 2.77187E-03 9.48282E-04-4.63383E-15
 -1       448 2.44400E-03 9.07827E-04-3.82291E-15
 -1       449 2.07847E-03 7.61315E-04-3.07488E-15
 -1       450 1.70309E-03 5.60990E-04-2.49329E-15
 -1       451 1.32733E-03 3.65942E-04-2.07483E-15
 -1       452 9.49267E-04 1.89459E-04-1.70452E-15
 -1       453 7.00222E-04 1.08264E-04-1.55730E-15
 -1       454 5.48430E-04 5.97723E-05-1.41609E-15
 -1       455 5.22664E-04 3.79203E-05-1.45625E-15
 -1       456 6.29262E-04 7.79809E-06-1.54818E-15
 -1       457 8.45735E-04-6.19248E-05-1.75564E-15
 -1       458 1.14328E-03-1.76068E-04-2.03880E-15
 -1       459 1.50071E-03-3.39203E-04-2.44313E-15
 -1       460 1.86395E-03-5.20950E-04-2.99226E-15
 -1       461 2.27041E-03-6.95357E-04-3.80007E-15
 -1       462 2.61264E-03-7.57096E-04-4.68320E-15
 -1       463 2.90842E-03-7.19384E-04-5.50730E-15
 -1       464 3.35006E-03-5.53446E-04-6.59216E-15
 -1       465 3.70842E-03-3.71256E-04-7.54395E-15
 -1       466 4.13017E-03-1.70726E-04-8.37869E-15
 -1       467 4.43959E-03-4.21959E-05-8.90323E-15
 -1       468 4.72813E-03 6.43355E-05-9.35832E-15
 -1       469 3.48103E-03 7.30367E-04-6.44027E-15
 -1       470 4.83370E-03 1.39622E-04-1.02720E-14
 -1       471 3.09757E-03-6.62087E-04-6.22679E-15
 -1       472 1.14560E-03 4.45769E-04-6.76447E-16
 -1       473 5.38794E-04 7.37301E-06-5.44293E-16
 -1       474 6.44507E-04-5.28081E-05-5.50002E-16
 -1       475 3.46911E-04 2.96109E-05-4.61145E-16
 -1       476 3.55599E-04 1.27283E-05-4.54386E-16
 -1       477 4.37172E-04 1.37581E-05-4.66522E-16
 -1       478 5.44208E-04 4.70324E-05-4.55992E-16
 -1       479 6.48589E-04 1.10795E-04-4.39129E-16
 -1       480 7.35744E-04 1.93613E-04-4.11526E-16
 -1       481 1.50930E-03 6.12558E-04-1.18384E-15
 -1       482 1.16690E-03-4.29848E-04-9.53268E-16
 -1       483 3.30150E-03 8.18348E-04-6.30260E-15
 -1       484 1.51793E-03-5.72358E-04-1.57370E-15
 -1       485 1.86434E-03-7.09410E-04-2.35853E-15
 -1       486 2.20030E-03-8.20337E-04-3.31438E-15
 -1       487 2.52531E-03-8.79181E-04-4.44513E-15
 -1       488 2.84651E-03-8.70385E-04-5.75008E-15
 -1       489 3.17311E-03-8.01465E-04-7.22279E-15
 -1       490 3.50833E-03-6.98328E-04-8.85387E-15
 -1       491 3.84792E-03-5.88667E-04-1.06332E-14
 -1       492 4.18522E-03-4.90670E-04-1.25514E-14
 -1       493 4.51561E-03-4.11788E-04-1.45982E-14
 -1       494 4.83754E-03-3.52415E-04-1.67647E-14
 -1       495 5.15156E-03-3.09705E-04-1.90435E-14
 -1       496 5.45902E-03-2.79843E-04-2.14298E-14
 -1       497 5.76134E-03-2.59162E-04-2.39243E-14
 -1       498 6.05973E-03-2.44575E-04-2.65263E-14
 -1       499 6.35513E-03-2.33687E-04-2.92252E-14
 -1       500 6.64822E-03-2.24738E-04-3.20186E-14
 -1       501 6.93952E-03-2.16511E-04-3.49075E-14
 -1       502 7.22943E-03-2.08207E-04-3.78878E-14
 -1       503 7.51826E-03-1.99345E-04-4.09618E-14
 -1       504 7.80625E-03-1.89669E-04-4.41229E-14
 -1       505 8.09359E-03-1.79077E-04-4.73602E-14
 -1       506 8.38044E-03-1.67567E-04-5.06685E-14
 -1       507 8.66693E-03-1.55197E-04-5.40513E-14
 -1       508 8.95314E-03-1.42060E-04-5.75078E-14
 -1       509 9.23916E-03-1.28259E-04-6.10229E-14
 -1       510 9.52505E-03-1.13900E-04-6.45838E-14
 -1       511 9.81084E-03-9.90848E-05-6.81851E-14
 -1       512 1.00966E-02-8.39017E-05-7.18230E-14
 -1       513 1.03823E-02-6.84288E-05-7.54913E-14
 -1       514 1.06679E-02-5.27318E-05-7.91856E-14
 -1       515 1.09536E-02-3.68645E-05-8.29052E-14
 -1       516 1.12392E-02-2.08706E-05-8.66406E-14
 -1       517 1.15249E-02-4.78431E-06-9.03837E-14
 -1       518 1.18106E-02 1.13676E-05-9.41229E-14
 -1       519 1.20962E-02 2.75649E-05-9.78614E-14
 -1       520 1.23819E-02 4.37921E-05-1.01602E-13
 -1       521 1.26676E-02 6.00382E-05-1.05355E-13
 -1       522 1.29533E-02 7.62948E-05-1.09113E-13
 -1       523 1.32390E-02 9.25562E-05-1.12882E-13
 -1       524 1.35247E-02 1.08818E-04-1.16664E-13
 -1       525 1.38104E-02 1.25078E-04-1.20454E-13
 -1       526 1.40961E-02 1.41333E-04-1.24242E-13
 -1       527 4.67808E-03 1.95517E-04-1.01892E-14
 -1       528 2.22117E-03 9.40809E-04-2.67449E-15
 -1       529 2.55851E-03 1.04423E-03-3.67471E-15
 -1       530 2.88886E-03 1.06819E-03-4.85130E-15
 -1       531 3.22381E-03 1.01538E-03-6.20153E-15
 -1       532 3.56871E-03 9.17102E-04-7.71591E-15
 -1       533 3.91902E-03 8.10441E-04-9.38491E-15
 -1       534 4.26667E-03 7.20077E-04-1.11961E-14
 -1       535 4.60623E-03 6.55564E-04-1.31376E-14
 -1       536 4.93605E-03 6.16855E-04-1.52029E-14
 -1       537 5.25684E-03 5.99681E-04-1.73869E-14
 -1       538 5.57013E-03 5.98686E-04-1.96852E-14
 -1       539 5.87746E-03 6.08948E-04-2.20950E-14
 -1       540 6.18009E-03 6.26494E-04-2.46142E-14
 -1       541 6.47898E-03 6.48354E-04-2.72371E-14
 -1       542 6.77488E-03 6.72424E-04-2.99648E-14
 -1       543 7.06839E-03 6.97295E-04-3.27908E-14
 -1       544 7.35999E-03 7.22073E-04-3.57076E-14
 -1       545 7.65007E-03 7.46234E-04-3.87140E-14
 -1       546 7.93897E-03 7.69507E-04-4.18072E-14
 -1       547 8.22695E-03 7.91790E-04-4.49792E-14
 -1       548 8.51424E-03 8.13088E-04-4.82311E-14
 -1       549 8.80101E-03 8.33468E-04-5.15540E-14
 -1       550 9.08740E-03 8.53029E-04-5.49383E-14
 -1       551 9.37351E-03 8.71885E-04-5.83858E-14
 -1       552 9.65943E-03 8.90147E-04-6.18852E-14
 -1       553 9.94523E-03 9.07923E-04-6.54310E-14
 -1       554 1.02309E-02 9.25307E-04-6.90300E-14
 -1       555 1.05166E-02 9.42382E-04-7.26794E-14
 -1       556 1.08022E-02 9.59218E-04-7.63669E-14
 -1       557 1.10879E-02 9.75870E-04-8.00801E-14
 -1       558 1.13735E-02 9.92386E-04-8.38101E-14
 -1       559 1.16591E-02 1.00880E-03-8.75531E-14
 -1       560 1.19448E-02 1.02515E-03-9.13135E-14
 -1       561 1.22304E-02 1.04144E-03-9.50886E-14
 -1       562 1.25161E-02 1.05770E-03-9.88714E-14
 -1       563 1.28017E-02 1.07394E-03-1.02655E-13
 -1       564 1.30874E-02 1.09017E-03-1.06456E-13
 -1       565 1.33731E-02 1.10639E-03-1.10275E-13
 -1       566 1.36588E-02 1.12261E-03-1.14110E-13
 -1       567 1.39445E-02 1.13884E-03-1.17957E-13
 -1       568 1.42302E-02 1.15506E-03-1.21813E-13
 -1       569 1.45159E-02 1.17130E-03-1.25672E-13
 -1       570 1.44804E-02 8.99092E-04-1.26292E-13
 -1       571 1.44644E-02 8.14786E-04-1.26414E-13
 -1       572 1.45121E-02 1.06626E-03-1.26048E-13
 -1       573 1.44962E-02 9.82680E-04-1.26170E-13
 -1       574 1.44484E-02 7.30477E-04-1.26543E-13
 -1       575 1.44324E-02 6.46166E-04-1.26675E-13
 -1       576 1.44165E-02 5.61856E-04-1.26808E-13
 -1       577 1.44008E-02 4.78976E-04-1.26942E-13
 -1       578 1.43848E-02 3.94669E-04-1.27073E-13
 -1       579 1.43689E-02 3.10367E-04-1.27209E-13
 -1       580 1.43529E-02 2.26070E-04-1.27353E-13
 -1       581 4.81939E-03 1.01396E-04-1.04442E-14
 -1       582 1.87035E-03 7.85265E-04-1.84676E-15
 -1       583 4.37435E-03 3.02172E-04-9.28653E-15
 -1       584 4.62254E-03 4.03928E-05-1.00419E-14
 -1       585 8.40619E-04-2.87552E-04-5.34319E-16
 -1       586 3.93212E-03-2.46340E-04-8.70357E-15
 -1       587 2.44769E-03-7.60059E-04-4.22190E-15
 -1       588 4.32873E-04 3.55600E-05-5.35538E-16
 -1       589 2.61294E-03 9.61144E-04-4.16698E-15
 -1       590 3.47999E-03-4.79040E-04-7.42469E-15
 -1       591 2.95427E-03 9.44230E-04-5.21854E-15
 -1       592 2.27991E-03 8.58842E-04-3.30475E-15
 -1       593 1.90359E-03 6.60612E-04-2.56118E-15
 -1       594 1.50341E-03 4.29058E-04-1.99094E-15
 -1       595 1.14954E-03 2.46096E-04-1.63565E-15
 -1       596 7.83454E-04 1.01709E-04-1.34805E-15
 -1       597 6.00797E-04 5.38110E-05-1.21396E-15
 -1       598 4.88520E-04 4.00173E-05-1.13775E-15
 -1       599 5.44651E-04 3.71187E-05-1.24372E-15
 -1       600 7.18200E-04 3.99536E-06-1.35681E-15
 -1       601 9.47245E-04-6.95252E-05-1.58876E-15
 -1       602 1.29898E-03-2.20858E-04-1.94013E-15
 -1       603 1.67635E-03-4.18133E-04-2.46596E-15
 -1       604 2.04371E-03-6.15507E-04-3.14163E-15
 -1       605 2.76253E-03-7.65476E-04-5.23033E-15
 -1       606 4.30803E-03-7.50091E-05-9.50009E-15
 -1       607 4.07047E-03 4.33774E-04-8.44527E-15
 -1       608 8.64062E-04 3.33724E-04-3.66623E-16
 -1       609 3.65258E-03 6.45533E-04-7.38098E-15
 -1       610 7.28128E-04-1.32750E-04-5.48562E-16
 -1       611 1.42889E-02 1.50647E-04-1.26810E-13
 -1       612 4.88970E-03 1.24705E-04-1.11124E-14
 -1       613 9.35864E-04 1.49488E-04-1.27599E-15
 -1       614 4.28733E-04 2.98067E-05-7.68559E-16
 -1       615 8.42003E-04 1.44863E-04-7.95089E-16
 -1       616 6.75144E-04 6.44720E-05-8.08923E-16
 -1       617 1.24631E-03 4.24372E-04-9.75270E-16
 -1       618 5.62647E-04 3.45722E-05-9.81442E-16
 -1       619 5.08429E-04 2.61018E-05-7.87949E-16
 -1       620 3.93882E-03 5.38983E-04-8.68731E-15
 -1       621 1.64985E-03-5.51231E-04-1.97664E-15
 -1       622 2.00739E-03-6.94706E-04-2.84367E-15
 -1       623 2.35436E-03-8.00764E-04-3.88559E-15
 -1       624 2.69105E-03-8.30314E-04-5.10734E-15
 -1       625 3.02988E-03-7.74989E-04-6.50424E-15
 -1       626 3.38019E-03-6.64361E-04-8.06454E-15
 -1       627 3.73631E-03-5.40829E-04-9.77903E-15
 -1       628 4.08731E-03-4.32346E-04-1.16342E-14
 -1       629 4.42564E-03-3.47917E-04-1.36210E-14
 -1       630 4.74968E-03-2.86214E-04-1.57268E-14
 -1       631 5.06152E-03-2.42600E-04-1.79438E-14
 -1       632 5.36431E-03-2.12282E-04-2.02708E-14
 -1       633 5.66092E-03-1.91239E-04-2.27052E-14
 -1       634 5.95355E-03-1.76337E-04-2.52472E-14
 -1       635 6.24368E-03-1.65216E-04-2.78922E-14
 -1       636 6.53226E-03-1.56151E-04-3.06320E-14
 -1       637 6.81988E-03-1.47929E-04-3.34673E-14
 -1       638 7.10691E-03-1.39736E-04-3.63958E-14
 -1       639 7.39355E-03-1.31063E-04-3.94139E-14
 -1       640 7.67993E-03-1.21623E-04-4.25207E-14
 -1       641 7.96612E-03-1.11288E-04-4.57107E-14
 -1       642 8.25219E-03-1.00036E-04-4.89741E-14
 -1       643 8.53816E-03-8.79111E-05-5.23075E-14
 -1       644 8.82407E-03-7.49950E-05-5.57195E-14
 -1       645 9.10991E-03-6.13883E-05-5.91950E-14
 -1       646 9.39572E-03-4.71958E-05-6.27225E-14
 -1       647 9.68150E-03-3.25183E-05-6.62952E-14
 -1       648 9.96726E-03-1.74478E-05-6.99063E-14
 -1       649 1.02530E-02-2.06513E-06-7.35506E-14
 -1       650 1.05387E-02 1.35611E-05-7.72266E-14
 -1       651 1.08245E-02 2.93737E-05-8.09325E-14
 -1       652 1.11102E-02 4.53263E-05-8.46602E-14
 -1       653 1.13959E-02 6.13819E-05-8.84013E-14
 -1       654 1.16816E-02 7.75116E-05-9.21453E-14
 -1       655 1.19673E-02 9.36931E-05-9.58854E-14
 -1       656 1.22530E-02 1.09910E-04-9.96268E-14
 -1       657 1.25387E-02 1.26149E-04-1.03373E-13
 -1       658 1.28244E-02 1.42401E-04-1.07127E-13
 -1       659 1.31101E-02 1.58661E-04-1.10888E-13
 -1       660 1.33959E-02 1.74923E-04-1.14658E-13
 -1       661 1.36816E-02 1.91184E-04-1.18439E-13
 -1       662 1.39673E-02 2.07441E-04-1.22221E-13
 -1       663 1.78500E-03-5.06677E-04-2.48287E-15
 -1       664 2.23066E-03-7.24992E-04-3.54224E-15
 -1       665 2.35820E-03 9.38913E-04-3.24110E-15
 -1       666 3.42523E-03 8.79609E-04-7.08361E-15
 -1       667 3.79556E-03 7.56456E-04-8.69877E-15
 -1       668 4.15699E-03 6.53111E-04-1.04597E-14
 -1       669 4.50338E-03 5.81140E-04-1.23519E-14
 -1       670 4.83266E-03 5.38575E-04-1.43660E-14
 -1       671 5.14805E-03 5.19091E-04-1.64973E-14
 -1       672 5.45363E-03 5.16400E-04-1.87434E-14
 -1       673 5.75277E-03 5.25317E-04-2.11023E-14
 -1       674 6.04779E-03 5.41860E-04-2.35704E-14
 -1       675 6.34017E-03 5.63068E-04-2.61454E-14
 -1       676 6.63080E-03 5.86816E-04-2.88238E-14
 -1       677 6.92020E-03 6.11635E-04-3.16022E-14
 -1       678 7.20872E-03 6.36559E-04-3.44748E-14
 -1       679 7.49657E-03 6.60992E-04-3.74352E-14
 -1       680 7.78389E-03 6.84607E-04-4.04837E-14
 -1       681 8.07081E-03 7.07257E-04-4.36144E-14
 -1       682 8.35740E-03 7.28914E-04-4.68255E-14
 -1       683 8.64375E-03 7.49627E-04-5.01074E-14
 -1       684 8.92990E-03 7.69484E-04-5.34580E-14
 -1       685 9.21592E-03 7.88595E-04-5.68671E-14
 -1       686 9.50182E-03 8.07072E-04-6.03372E-14
 -1       687 9.78765E-03 8.25024E-04-6.38575E-14
 -1       688 1.00734E-02 8.42549E-04-6.74269E-14
 -1       689 1.03592E-02 8.59736E-04-7.10508E-14
 -1       690 1.06449E-02 8.76657E-04-7.47192E-14
 -1       691 1.09306E-02 8.93375E-04-7.84204E-14
 -1       692 1.12163E-02 9.09940E-04-8.21387E-14
 -1       693 1.15020E-02 9.26392E-04-8.58735E-14
 -1       694 1.17877E-02 9.42762E-04-8.96240E-14
 -1       695 1.20734E-02 9.59075E-04-9.33881E-14
 -1       696 1.23590E-02 9.75348E-04-9.71610E-14
 -1       697 1.26447E-02 9.91596E-04-1.00934E-13
 -1       698 1.29304E-02 1.00783E-03-1.04718E-13
 -1       699 1.32161E-02 1.02405E-03-1.08516E-13
 -1       700 1.35019E-02 1.04027E-03-1.12331E-13
 -1       701 1.37876E-02 1.05649E-03-1.16162E-13
 -1       702 1.40733E-02 1.07272E-03-1.20006E-13
 -1       703 1.42927E-02 1.06949E-03-1.23024E-13
 -1       704 1.41930E-02 6.74258E-04-1.23301E-13
 -1       705 1.41601E-02 2.16757E-04-1.24785E-13
 -1       706 1.42249E-02 8.42880E-04-1.23031E-13
 -1       707 1.41770E-02 5.89945E-04-1.23443E-13
 -1       708 1.42090E-02 7.58570E-04-1.23165E-13
 -1       709 4.58231E-03 2.61355E-04-1.07551E-14
 -1       710 1.41613E-02 5.07062E-04-1.23582E-13
 -1       711 1.41454E-02 4.22752E-04-1.23717E-13
 -1       712 1.41294E-02 3.38446E-04-1.23854E-13
 -1       713 1.99297E-03 7.82232E-04-2.31943E-15
 -1       714 3.50915E-03 7.70162E-04-7.28196E-15
 -1       715 4.18552E-03-1.50269E-04-1.00399E-14
 -1       716 1.00845E-03-2.90680E-04-8.34815E-16
 -1       717 6.28715E-04 1.38994E-05-8.58092E-16
 -1       718 1.67334E-03 5.42204E-04-1.99640E-15
 -1       719 3.06201E-03 9.84391E-04-5.62794E-15
 -1       720 2.71013E-03 1.01467E-03-4.34414E-15
 -1       721 1.32548E-03-4.15204E-04-1.34236E-15
 -1       722 9.75941E-04 2.49648E-04-7.68560E-16
 -1       723 1.61747E-03 5.96927E-04-1.56942E-15
 -1       724 7.89742E-04-5.61795E-05-8.75256E-16
 -1       725 3.72327E-03-3.88181E-04-8.80522E-15
 -1       726 2.44049E-03 9.37741E-04-3.59513E-15
 -1       727 4.72102E-04 3.96836E-05-9.42631E-16
 -1       728 2.79936E-03 9.89698E-04-4.70941E-15
 -1       729 2.08224E-03 7.78178E-04-2.72640E-15
 -1       730 1.25962E-03 3.07692E-04-1.46986E-15
 -1       731 3.27242E-03-5.99231E-04-7.07768E-15
 -1       732 6.49118E-04 5.43123E-05-1.01740E-15
 -1       733 1.43117E-03-3.07862E-04-1.89922E-15
 -1       734 2.62148E-03-7.97049E-04-4.81569E-15
 -1       735 7.82297E-04-1.91697E-05-1.12333E-15
 -1       736 1.05874E-03-1.25834E-04-1.40540E-15
 -1       737 2.95386E-03-7.36616E-04-6.00688E-15
 -1       738 4.79424E-03 7.89312E-05-1.15090E-14
 -1       739 4.56486E-03 5.79822E-06-1.09358E-14
 -1       740 4.86677E-03 1.62444E-04-1.15405E-14
 -1       741 4.27400E-03 3.77364E-04-9.69875E-15
 -1       742 9.18810E-04-1.53333E-04-8.84675E-16
 -1       743 1.42408E-02 9.26471E-04-1.22902E-13
 -1       744 1.42667E-02 9.97982E-04-1.22960E-13
 -1       745 4.91943E-03 1.08130E-04-1.21995E-14
 -1       746 1.40484E-02 2.72943E-04-1.23037E-13
 -1       747 3.16518E-03 9.09365E-04-6.00424E-15
 -1       748 4.82680E-03 2.12266E-04-1.21293E-14
 -1       749 4.57532E-04 3.91754E-05-7.65655E-16
 -1       750 1.12663E-03-2.77965E-04-1.10449E-15
 -1       751 4.76240E-03 3.90495E-05-1.23639E-14
 -1       752 3.24576E-03-6.54415E-04-7.27452E-15
 -1       753 3.62656E-03-5.03090E-04-8.92367E-15
 -1       754 3.99458E-03-3.77439E-04-1.07187E-14
 -1       755 4.34302E-03-2.85494E-04-1.26464E-14
 -1       756 4.66943E-03-2.22691E-04-1.46934E-14
 -1       757 4.97877E-03-1.80153E-04-1.68517E-14
 -1       758 5.27624E-03-1.51122E-04-1.91201E-14
 -1       759 5.56643E-03-1.30881E-04-2.14968E-14
 -1       760 5.85254E-03-1.16273E-04-2.39787E-14
 -1       761 6.13665E-03-1.05110E-04-2.65678E-14
 -1       762 6.41997E-03-9.58510E-05-2.92546E-14
 -1       763 6.70319E-03-8.74066E-05-3.20374E-14
 -1       764 6.98664E-03-7.90317E-05-3.49140E-14
 -1       765 7.27046E-03-7.02422E-05-3.78818E-14
 -1       766 7.55468E-03-6.07532E-05-4.09358E-14
 -1       767 7.83925E-03-5.04251E-05-4.40759E-14
 -1       768 8.12414E-03-3.92204E-05-4.72952E-14
 -1       769 8.40927E-03-2.71683E-05-5.05861E-14
 -1       770 8.69459E-03-1.43388E-05-5.39518E-14
 -1       771 8.98006E-03-8.22576E-07-5.73862E-14
 -1       772 9.26563E-03 1.32821E-05-6.08796E-14
 -1       773 9.55128E-03 2.78786E-05-6.44196E-14
 -1       774 9.83697E-03 4.28771E-05-6.80036E-14
 -1       775 1.01227E-02 5.81978E-05-7.16258E-14
 -1       776 1.04084E-02 7.37719E-05-7.52823E-14
 -1       777 1.06942E-02 8.95416E-05-7.89713E-14
 -1       778 1.09799E-02 1.05460E-04-8.26894E-14
 -1       779 1.12657E-02 1.21488E-04-8.64245E-14
 -1       780 1.15515E-02 1.37597E-04-9.01689E-14
 -1       781 1.18372E-02 1.53762E-04-9.39115E-14
 -1       782 1.21229E-02 1.69966E-04-9.76536E-14
 -1       783 1.24087E-02 1.86197E-04-1.01397E-13
 -1       784 1.26944E-02 2.02444E-04-1.05147E-13
 -1       785 1.29801E-02 2.18699E-04-1.08903E-13
 -1       786 1.32659E-02 2.34959E-04-1.12665E-13
 -1       787 1.35516E-02 2.51219E-04-1.16436E-13
 -1       788 1.38000E-02 2.62082E-04-1.19735E-13
 -1       789 1.16863E-03-2.16401E-04-1.35428E-15
 -1       790 4.74979E-03 4.55583E-04-1.35286E-14
 -1       791 5.05749E-03 4.37429E-04-1.56128E-14
 -1       792 5.35316E-03 4.35727E-04-1.78065E-14
 -1       793 5.64195E-03 4.44801E-04-2.01133E-14
 -1       794 5.92732E-03 4.60916E-04-2.25298E-14
 -1       795 6.21129E-03 4.81452E-04-2.50563E-14
 -1       796 6.49489E-03 5.04528E-04-2.76855E-14
 -1       797 6.77865E-03 5.28804E-04-3.04159E-14
 -1       798 7.06274E-03 5.53356E-04-3.32443E-14
 -1       799 7.34720E-03 5.77581E-04-3.61608E-14
 -1       800 7.63199E-03 6.01118E-04-3.91663E-14
 -1       801 7.91706E-03 6.23784E-04-4.22539E-14
 -1       802 8.20234E-03 6.45520E-04-4.54234E-14
 -1       803 8.48777E-03 6.66346E-04-4.86686E-14
 -1       804 8.77332E-03 6.86331E-04-5.19800E-14
 -1       805 9.05894E-03 7.05570E-04-5.53590E-14
 -1       806 9.34462E-03 7.24168E-04-5.87950E-14
 -1       807 9.63033E-03 7.42229E-04-6.22865E-14
 -1       808 9.91606E-03 7.59849E-04-6.58319E-14
 -1       809 1.02018E-02 7.77115E-04-6.94274E-14
 -1       810 1.04875E-02 7.94102E-04-7.30731E-14
 -1       811 1.07733E-02 8.10873E-04-7.67568E-14
 -1       812 1.10590E-02 8.27479E-04-8.04695E-14
 -1       813 1.13448E-02 8.43964E-04-8.41954E-14
 -1       814 1.16305E-02 8.60358E-04-8.79372E-14
 -1       815 1.19162E-02 8.76689E-04-9.16927E-14
 -1       816 1.22020E-02 8.92976E-04-9.54562E-14
 -1       817 1.24877E-02 9.09233E-04-9.92234E-14
 -1       818 1.27734E-02 9.25472E-04-1.02993E-13
 -1       819 1.30592E-02 9.41699E-04-1.06774E-13
 -1       820 1.33449E-02 9.57922E-04-1.10571E-13
 -1       821 1.36306E-02 9.74143E-04-1.14384E-13
 -1       822 1.39163E-02 9.90366E-04-1.18210E-13
 -1       823 1.40915E-02 9.94173E-04-1.20585E-13
 -1       824 1.39375E-02 6.18036E-04-1.20079E-13
 -1       825 1.38899E-02 3.66525E-04-1.20507E-13
 -1       826 1.39218E-02 5.35149E-04-1.20224E-13
 -1       827 3.46151E-03-5.53433E-04-8.11432E-15
 -1       828 5.12322E-04 2.95953E-05-8.95514E-16
 -1       829 1.20681E-03 3.08537E-04-1.22959E-15
 -1       830 4.98784E-03 1.43180E-04-1.26495E-14
 -1       831 1.51316E-03-4.03053E-04-1.86140E-15
 -1       832 4.06909E-03-2.67621E-04-1.04718E-14
 -1       833 1.39059E-02 4.50835E-04-1.20368E-13
 -1       834 4.42119E-03 4.98220E-04-1.15595E-14
 -1       835 4.06726E-03 5.77621E-04-9.71433E-15
 -1       836 4.48492E-03-7.26632E-05-1.17253E-14
 -1       837 1.39854E-02 8.70620E-04-1.19656E-13
 -1       838 4.91830E-03 7.92946E-05-1.30756E-14
 -1       839 4.22582E-03 4.78000E-04-1.02006E-14
 -1       840 1.39694E-02 7.86310E-04-1.19795E-13
 -1       841 1.39535E-02 7.02174E-04-1.19936E-13
 -1       842 5.00400E-03 1.79229E-04-1.32651E-14
 -1       843 1.38450E-02 3.14302E-04-1.20122E-13
 -1       844 9.40093E-04 1.71823E-04-9.87268E-16
 -1       845 4.70175E-03 3.03840E-04-1.22299E-14
 -1       846 4.47330E-03 3.77332E-04-1.11970E-14
 -1       847 4.61938E-03-1.44552E-04-1.36725E-14
 -1       848 4.92023E-03-1.07388E-04-1.57731E-14
 -1       849 5.20731E-03-8.30555E-05-1.79830E-14
 -1       850 5.48719E-03-6.58527E-05-2.03020E-14
 -1       851 5.76386E-03-5.28199E-05-2.27268E-14
 -1       852 6.03970E-03-4.21941E-05-2.52551E-14
 -1       853 6.31600E-03-3.28435E-05-2.78885E-14
 -1       854 6.59340E-03-2.39901E-05-3.06167E-14
 -1       855 6.87211E-03-1.50906E-05-3.34408E-14
 -1       856 7.15215E-03-5.77736E-06-3.63569E-14
 -1       857 7.43340E-03 4.17620E-06-3.93624E-14
 -1       858 7.71570E-03 1.48865E-05-4.24528E-14
 -1       859 7.99887E-03 2.63886E-05-4.56235E-14
 -1       860 8.28273E-03 3.86613E-05-4.88728E-14
 -1       861 8.56715E-03 5.16472E-05-5.21954E-14
 -1       862 8.85198E-03 6.52686E-05-5.55876E-14
 -1       863 9.13712E-03 7.94396E-05-5.90428E-14
 -1       864 9.42249E-03 9.40738E-05-6.25510E-14
 -1       865 9.70801E-03 1.09090E-04-6.61050E-14
 -1       866 9.99365E-03 1.24415E-04-6.97010E-14
 -1       867 1.02793E-02 1.39985E-04-7.33352E-14
 -1       868 1.05651E-02 1.55745E-04-7.70094E-14
 -1       869 1.08509E-02 1.71651E-04-8.07135E-14
 -1       870 1.11367E-02 1.87667E-04-8.44385E-14
 -1       871 1.14224E-02 2.03763E-04-8.81790E-14
 -1       872 1.17082E-02 2.19918E-04-9.19229E-14
 -1       873 1.19940E-02 2.36112E-04-9.56672E-14
 -1       874 1.22798E-02 2.52334E-04-9.94093E-14
 -1       875 1.25655E-02 2.68574E-04-1.03155E-13
 -1       876 1.28513E-02 2.84824E-04-1.06909E-13
 -1       877 1.31370E-02 3.01080E-04-1.10666E-13
 -1       878 1.34227E-02 3.17338E-04-1.14428E-13
 -1       879 4.98907E-03 3.54197E-04-1.47276E-14
 -1       880 5.81725E-03 3.84239E-04-2.14959E-14
 -1       881 6.09087E-03 4.04233E-04-2.39709E-14
 -1       882 6.36595E-03 4.26370E-04-2.65516E-14
 -1       883 6.64281E-03 4.49630E-04-2.92329E-14
 -1       884 6.92141E-03 4.73260E-04-3.20142E-14
 -1       885 7.20158E-03 4.96726E-04-3.48873E-14
 -1       886 7.48307E-03 5.19680E-04-3.78484E-14
 -1       887 7.76563E-03 5.41923E-04-4.08945E-14
 -1       888 8.04906E-03 5.63366E-04-4.40219E-14
 -1       889 8.33314E-03 5.84000E-04-4.72294E-14
 -1       890 8.61773E-03 6.03870E-04-5.05072E-14
 -1       891 8.90270E-03 6.23047E-04-5.38545E-14
 -1       892 9.18793E-03 6.41619E-04-5.72590E-14
 -1       893 9.47336E-03 6.59677E-04-6.07232E-14
 -1       894 9.75892E-03 6.77309E-04-6.42428E-14
 -1       895 1.00446E-02 6.94595E-04-6.78139E-14
 -1       896 1.03303E-02 7.11605E-04-7.14347E-14
 -1       897 1.06160E-02 7.28399E-04-7.50960E-14
 -1       898 1.09018E-02 7.45028E-04-7.87964E-14
 -1       899 1.11876E-02 7.61533E-04-8.25163E-14
 -1       900 1.14734E-02 7.77945E-04-8.62510E-14
 -1       901 1.17591E-02 7.94290E-04-8.99983E-14
 -1       902 1.20449E-02 8.10589E-04-9.37532E-14
 -1       903 1.23307E-02 8.26856E-04-9.75155E-14
 -1       904 1.26164E-02 8.43102E-04-1.01280E-13
 -1       905 1.29021E-02 8.59335E-04-1.05047E-13
 -1       906 1.31879E-02 8.75562E-04-1.08825E-13
 -1       907 1.34736E-02 8.91786E-04-1.12617E-13
 -1       908 1.37594E-02 9.08010E-04-1.16424E-13
 -1       909 1.40385E-02 9.32398E-04-1.20118E-13
 -1       910 1.36822E-02 5.62526E-04-1.16872E-13
 -1       911 5.05477E-03 1.24422E-04-1.36579E-14
 -1       912 5.54417E-03 3.67745E-04-1.91298E-14
 -1       913 5.26956E-03 3.56684E-04-1.68738E-14
 -1       914 4.77680E-03-1.90723E-05-1.35481E-14
 -1       915 4.97115E-03 2.47786E-04-1.37815E-14
 -1       916 4.41560E-03-1.63099E-04-1.22245E-14
 -1       917 4.94363E-03 3.19445E-05-1.42918E-14
 -1       918 1.36982E-02 6.46668E-04-1.16726E-13
 -1       919 1.36339E-02 3.15820E-04-1.17272E-13
 -1       920 1.37433E-02 8.23700E-04-1.16567E-13
 -1       921 1.36663E-02 4.78206E-04-1.17019E-13
 -1       922 5.12253E-03 1.56738E-04-1.42996E-14
 -1       923 1.36643E-02 3.84088E-04-1.17392E-13
 -1       924 5.11340E-03 9.33935E-05-1.49086E-14
 -1       925 5.15482E-03-1.60876E-05-1.68575E-14
 -1       926 5.41902E-03-3.44253E-06-1.91174E-14
 -1       927 5.68291E-03 7.22271E-06-2.14843E-14
 -1       928 5.94844E-03 1.70054E-05-2.39564E-14
 -1       929 6.21641E-03 2.64628E-05-2.65320E-14
 -1       930 6.48709E-03 3.59511E-05-2.92077E-14
 -1       931 6.76042E-03 4.57217E-05-3.19778E-14
 -1       932 7.03616E-03 5.59636E-05-3.48400E-14
 -1       933 7.31403E-03 6.68003E-05-3.77946E-14
 -1       934 7.59370E-03 7.82943E-05-4.08380E-14
 -1       935 7.87485E-03 9.04597E-05-4.39609E-14
 -1       936 8.15719E-03 1.03274E-04-4.71651E-14
 -1       937 8.44048E-03 1.16689E-04-5.04455E-14
 -1       938 8.72450E-03 1.30642E-04-5.37978E-14
 -1       939 9.00906E-03 1.45062E-04-5.72137E-14
 -1       940 9.29403E-03 1.59879E-04-6.06894E-14
 -1       941 9.57930E-03 1.75026E-04-6.42133E-14
 -1       942 9.86477E-03 1.90441E-04-6.77834E-14
 -1       943 1.01504E-02 2.06071E-04-7.13979E-14
 -1       944 1.04361E-02 2.21869E-04-7.50476E-14
 -1       945 1.07218E-02 2.37797E-04-7.87379E-14
 -1       946 1.10076E-02 2.53823E-04-8.24506E-14
 -1       947 1.12934E-02 2.69922E-04-8.61839E-14
 -1       948 1.15792E-02 2.86075E-04-8.99262E-14
 -1       949 1.18650E-02 3.02266E-04-9.36704E-14
 -1       950 1.21508E-02 3.18482E-04-9.74175E-14
 -1       951 1.24366E-02 3.34716E-04-1.01161E-13
 -1       952 1.27224E-02 3.50961E-04-1.04910E-13
 -1       953 1.30081E-02 3.67211E-04-1.08663E-13
 -1       954 1.32939E-02 3.83465E-04-1.12422E-13
 -1       955 6.24196E-03 3.52993E-04-2.54221E-14
 -1       956 5.97664E-03 3.32139E-04-2.28891E-14
 -1       957 6.78349E-03 3.96876E-04-3.07877E-14
 -1       958 7.05879E-03 4.19004E-04-3.36163E-14
 -1       959 7.33648E-03 4.40826E-04-3.65328E-14
 -1       960 7.61611E-03 4.62149E-04-3.95345E-14
 -1       961 7.89730E-03 4.82867E-04-4.26230E-14
 -1       962 8.17972E-03 5.02944E-04-4.57917E-14
 -1       963 8.46308E-03 5.22395E-04-4.90344E-14
 -1       964 8.74715E-03 5.41265E-04-5.23480E-14
 -1       965 9.03177E-03 5.59617E-04-5.57271E-14
 -1       966 9.31678E-03 5.77520E-04-5.91621E-14
 -1       967 9.60206E-03 5.95047E-04-6.26558E-14
 -1       968 9.88755E-03 6.12265E-04-6.62030E-14
 -1       969 1.01732E-02 6.29232E-04-6.97999E-14
 -1       970 1.04589E-02 6.46003E-04-7.34408E-14
 -1       971 1.07446E-02 6.62621E-04-7.71190E-14
 -1       972 1.10304E-02 6.79122E-04-8.08313E-14
 -1       973 1.13162E-02 6.95537E-04-8.45630E-14
 -1       974 1.16020E-02 7.11888E-04-8.83033E-14
 -1       975 1.18878E-02 7.28193E-04-9.20491E-14
 -1       976 1.21736E-02 7.44467E-04-9.58071E-14
 -1       977 1.24594E-02 7.60720E-04-9.95697E-14
 -1       978 1.27451E-02 7.76960E-04-1.03330E-13
 -1       979 1.30309E-02 7.93191E-04-1.07092E-13
 -1       980 1.33166E-02 8.09419E-04-1.10864E-13
 -1       981 1.35300E-02 8.16559E-04-1.13712E-13
 -1       982 5.18514E-03 2.05819E-04-1.52418E-14
 -1       983 5.71535E-03 3.12753E-04-2.04663E-14
 -1       984 6.51105E-03 3.74740E-04-2.80551E-14
 -1       985 4.96409E-03-1.64271E-05-1.51708E-14
 -1       986 5.22286E-03 2.75351E-04-1.60638E-14
 -1       987 1.37141E-02 7.30809E-04-1.16574E-13
 -1       988 5.22521E-03 1.31249E-04-1.55847E-14
 -1       989 5.46660E-03 2.92783E-04-1.82146E-14
 -1       990 1.34268E-02 5.06296E-04-1.13678E-13
 -1       991 1.34427E-02 5.90442E-04-1.13526E-13
 -1       992 5.33447E-03 1.76223E-04-1.65740E-14
 -1       993 5.60739E-03 6.24025E-05-2.02536E-14
 -1       994 5.86049E-03 7.16204E-05-2.26677E-14
 -1       995 6.11905E-03 8.15064E-05-2.51874E-14
 -1       996 6.38245E-03 9.19954E-05-2.78075E-14
 -1       997 6.65007E-03 1.03050E-04-3.05252E-14
 -1       998 6.92132E-03 1.14651E-04-3.33351E-14
 -1       999 7.19566E-03 1.26807E-04-3.62374E-14
 -1      1000 7.47257E-03 1.39505E-04-3.92286E-14
 -1      1001 7.75158E-03 1.52722E-04-4.23072E-14
 -1      1002 8.03230E-03 1.66426E-04-4.54680E-14
 -1      1003 8.31436E-03 1.80572E-04-4.87037E-14
 -1      1004 8.59746E-03 1.95113E-04-5.20156E-14
 -1      1005 8.88136E-03 2.09995E-04-5.53961E-14
 -1      1006 9.16587E-03 2.25168E-04-5.88346E-14
 -1      1007 9.45081E-03 2.40582E-04-6.23283E-14
 -1      1008 9.73607E-03 2.56195E-04-6.58709E-14
 -1      1009 1.00215E-02 2.71967E-04-6.94637E-14
 -1      1010 1.03072E-02 2.87864E-04-7.30925E-14
 -1      1011 1.05929E-02 3.03859E-04-7.67618E-14
 -1      1012 1.08787E-02 3.19929E-04-8.04628E-14
 -1      1013 1.11645E-02 3.36055E-04-8.41851E-14
 -1      1014 1.14503E-02 3.52222E-04-8.79225E-14
 -1      1015 1.17361E-02 3.68418E-04-9.16661E-14
 -1      1016 1.20219E-02 3.84635E-04-9.54143E-14
 -1      1017 1.23077E-02 4.00867E-04-9.91624E-14
 -1      1018 1.25935E-02 4.17107E-04-1.02909E-13
 -1      1019 1.28793E-02 4.33353E-04-1.06660E-13
 -1      1020 1.31530E-02 4.69825E-04-1.10165E-13
 -1      1021 6.11989E-03 2.84874E-04-2.42945E-14
 -1      1022 7.19116E-03 3.64911E-04-3.52200E-14
 -1      1023 6.91739E-03 3.44772E-04-3.23471E-14
 -1      1024 7.74653E-03 4.04341E-04-4.12255E-14
 -1      1025 8.02713E-03 4.23464E-04-4.43557E-14
 -1      1026 8.30912E-03 4.42158E-04-4.75635E-14
 -1      1027 8.59218E-03 4.60438E-04-5.08425E-14
 -1      1028 8.87606E-03 4.78338E-04-5.41929E-14
 -1      1029 9.16055E-03 4.95903E-04-5.76049E-14
 -1      1030 9.44548E-03 5.13179E-04-6.10707E-14
 -1      1031 9.73072E-03 5.30215E-04-6.45924E-14
 -1      1032 1.00162E-02 5.47055E-04-6.81674E-14
 -1      1033 1.03018E-02 5.63737E-04-7.17870E-14
 -1      1034 1.05875E-02 5.80297E-04-7.54500E-14
 -1      1035 1.08733E-02 5.96762E-04-7.91439E-14
 -1      1036 1.11591E-02 6.13155E-04-8.28662E-14
 -1      1037 1.14449E-02 6.29495E-04-8.66041E-14
 -1      1038 1.17307E-02 6.45797E-04-9.03476E-14
 -1      1039 1.20165E-02 6.62072E-04-9.40917E-14
 -1      1040 1.23023E-02 6.78329E-04-9.78525E-14
 -1      1041 1.25881E-02 6.94573E-04-1.01612E-13
 -1      1042 1.28739E-02 7.10810E-04-1.05367E-13
 -1      1043 1.31597E-02 7.27043E-04-1.09126E-13
 -1      1044 1.34587E-02 6.74589E-04-1.13374E-13
 -1      1045 5.86496E-03 2.65931E-04-2.18109E-14
 -1      1046 5.36026E-03 5.38804E-05-1.79438E-14
 -1      1047 7.46772E-03 3.84804E-04-3.81793E-14
 -1      1048 5.15170E-03 4.36206E-05-1.60808E-14
 -1      1049 6.64707E-03 3.24563E-04-2.95652E-14
 -1      1050 1.34943E-02 7.45576E-04-1.13543E-13
 -1      1051 6.38094E-03 3.04507E-04-2.68807E-14
 -1      1052 1.31690E-02 5.53976E-04-1.10015E-13
 -1      1053 5.29472E-03 9.67804E-05-1.67564E-14
 -1      1054 5.40428E-03 2.29645E-04-1.73993E-14
 -1      1055 5.63023E-03 2.47333E-04-1.95572E-14
 -1      1056 8.43750E-03 3.80723E-04-4.93396E-14
 -1      1057 5.52376E-03 1.04628E-04-1.90073E-14
 -1      1058 7.04564E-03 2.92026E-04-3.39082E-14
 -1      1059 6.02057E-03 1.31849E-04-2.38519E-14
 -1      1060 6.27681E-03 1.43919E-04-2.64168E-14
 -1      1061 6.53901E-03 1.56770E-04-2.90820E-14
 -1      1062 6.80597E-03 1.70162E-04-3.18392E-14
 -1      1063 7.07701E-03 1.84071E-04-3.46913E-14
 -1      1064 7.35134E-03 1.98380E-04-3.76338E-14
 -1      1065 7.62836E-03 2.13029E-04-4.06631E-14
 -1      1066 7.90752E-03 2.27969E-04-4.37796E-14
 -1      1067 8.18840E-03 2.43155E-04-4.69752E-14
 -1      1068 8.47061E-03 2.58551E-04-5.02414E-14
 -1      1069 8.75386E-03 2.74121E-04-5.35799E-14
 -1      1070 9.03788E-03 2.89838E-04-5.69878E-14
 -1      1071 9.32249E-03 3.05673E-04-6.04515E-14
 -1      1072 9.60751E-03 3.21605E-04-6.39643E-14
 -1      1073 9.89283E-03 3.37615E-04-6.75315E-14
 -1      1074 1.01784E-02 3.53685E-04-7.11422E-14
 -1      1075 1.04640E-02 3.69803E-04-7.47909E-14
 -1      1076 1.07498E-02 3.85958E-04-7.84764E-14
 -1      1077 1.10356E-02 4.02139E-04-8.21859E-14
 -1      1078 1.13214E-02 4.18342E-04-8.59161E-14
 -1      1079 1.16072E-02 4.34558E-04-8.96554E-14
 -1      1080 1.18930E-02 4.50786E-04-9.34032E-14
 -1      1081 1.21788E-02 4.67020E-04-9.71553E-14
 -1      1082 1.24646E-02 4.83259E-04-1.00906E-13
 -1      1083 1.27504E-02 4.99502E-04-1.04657E-13
 -1      1084 1.29597E-02 5.26739E-04-1.07336E-13
 -1      1085 5.77170E-03 1.20766E-04-2.13881E-14
 -1      1086 8.15546E-03 3.63326E-04-4.60938E-14
 -1      1087 7.87481E-03 3.45730E-04-4.29218E-14
 -1      1088 8.72063E-03 3.97925E-04-5.26582E-14
 -1      1089 9.00456E-03 4.14945E-04-5.60465E-14
 -1      1090 9.28910E-03 4.31806E-04-5.94876E-14
 -1      1091 9.57407E-03 4.48530E-04-6.29852E-14
 -1      1092 9.85936E-03 4.65139E-04-6.65352E-14
 -1      1093 1.01449E-02 4.81655E-04-7.01339E-14
 -1      1094 1.04305E-02 4.98097E-04-7.37784E-14
 -1      1095 1.07162E-02 5.14482E-04-7.74584E-14
 -1      1096 1.10020E-02 5.30823E-04-8.11651E-14
 -1      1097 1.12878E-02 5.47130E-04-8.48946E-14
 -1      1098 1.15737E-02 5.63414E-04-8.86330E-14
 -1      1099 1.18595E-02 5.79680E-04-9.23766E-14
 -1      1100 1.21453E-02 5.95934E-04-9.61272E-14
 -1      1101 1.24311E-02 6.12180E-04-9.98849E-14
 -1      1102 1.27169E-02 6.28421E-04-1.03641E-13
 -1      1103 1.30027E-02 6.44659E-04-1.07393E-13
 -1      1104 5.99534E-03 2.22104E-04-2.31678E-14
 -1      1105 6.24912E-03 2.38916E-04-2.57069E-14
 -1      1106 6.77545E-03 2.74069E-04-3.10807E-14
 -1      1107 1.32227E-02 6.17549E-04-1.10455E-13
 -1      1108 5.44052E-03 1.45302E-04-1.77925E-14
 -1      1109 7.31938E-03 3.10024E-04-3.68247E-14
 -1      1110 7.59595E-03 3.27950E-04-3.98281E-14
 -1      1111 6.50967E-03 2.56325E-04-2.83445E-14
 -1      1112 5.76205E-03 2.05460E-04-2.08569E-14
 -1      1113 5.54292E-03 1.93466E-04-1.86776E-14
 -1      1114 5.91609E-03 1.77592E-04-2.25215E-14
 -1      1115 6.42430E-03 2.06991E-04-2.76449E-14
 -1      1116 5.65091E-03 1.59788E-04-1.98916E-14
 -1      1117 6.16654E-03 1.91914E-04-2.50327E-14
 -1      1118 0.00000E+00 0.00000E+00 0.00000E+00
 -1      1119 0.00000E+00 0.00000E+00 0.00000E+00
 -1      1120 0.00000E+00 0.00000E+00 0.00000E+00
 -1      1121 0.00000E+00 0.00000E+00 0.00000E+00
 -1      1122 0.00000E+00 0.00000E+00 0.00000E+00
 -1      1123 0.00000E+00 0.00000E+00 0.00000E+00
 -1      1124 0.00000E+00 0.00000E+00 0.00000E+00
 -1      1125 0.00000E+00 0.00000E+00 0.00000E+00
 -1      1126 0.00000E+00 0.00000E+00 0.00000E+00
 -1      1127 0.00000E+00 0.00000E+00 0.00000E+00
 -1      1128 0.00000E+00 0.00000E+00 0.00000E+00
 -1      1129 0.00000E+00 0.00000E+00 0.00000E+00
 -1      1130 0.00000E+00 0.00000E+00 0.00000E+00
 -1      1131 0.00000E+00 0.00000E+00 0.00000E+00
 -1      1132 0.00000E+00 0.00000E+00 0.00000E+00
 -1      1133 0.00000E+00 0.00000E+00 0.00000E+00
 -1      1134 0.00000E+00 0.00000E+00 0.00000E+00
 -1      1135 2.58813E-04-1.70483E-04 1.13299E-17
 -1      1136 6.87999E-04-3.92102E-04-7.14760E-17
 -1      1137 1.05221E-03-5.58570E-04-3.09323E-16
 -1      1138 1.39566E-03-7.03621E-04-7.29085E-16
 -1      1139 1.71836E-03-8.38142E-04-1.32441E-15
 -1      1140 2.01764E-03-9.56948E-04-2.09479E-15
 -1      1141 2.29419E-03-1.04646E-03-3.04181E-15
 -1      1142 2.55483E-03-1.09241E-03-4.16377E-15
 -1      1143 2.81181E-03-1.08753E-03-5.45920E-15
 -1      1144 3.07853E-03-1.03611E-03-6.92331E-15
 -1      1145 3.36418E-03-9.52508E-04-8.54757E-15
 -1      1146 3.67102E-03-8.55168E-04-1.03230E-14
 -1      1147 3.99520E-03-7.60118E-04-1.22397E-14
 -1      1148 4.32980E-03-6.77454E-04-1.42917E-14
 -1      1149 4.66781E-03-6.11204E-04-1.64705E-14
 -1      1150 5.00383E-03-5.61092E-04-1.87691E-14
 -1      1151 5.33451E-03-5.24584E-04-2.11797E-14
 -1      1152 5.65831E-03-4.98430E-04-2.36975E-14
 -1      1153 5.97494E-03-4.79533E-04-2.63219E-14
 -1      1154 6.28490E-03-4.65327E-04-2.90484E-14
 -1      1155 6.58905E-03-4.53860E-04-3.18719E-14
 -1      1156 6.88837E-03-4.43739E-04-3.47888E-14
 -1      1157 7.18384E-03-4.34025E-04-3.77965E-14
 -1      1158 7.47631E-03-4.24125E-04-4.08972E-14
 -1      1159 7.76652E-03-4.13696E-04-4.40912E-14
 -1      1160 8.05506E-03-4.02568E-04-4.73649E-14
 -1      1161 8.34241E-03-3.90685E-04-5.07076E-14
 -1      1162 8.62893E-03-3.78064E-04-5.41287E-14
 -1      1163 8.91490E-03-3.64764E-04-5.76254E-14
 -1      1164 9.20052E-03-3.50864E-04-6.11801E-14
 -1      1165 9.48594E-03-3.36451E-04-6.47762E-14
 -1      1166 9.77125E-03-3.21611E-04-6.84118E-14
 -1      1167 1.00565E-02-3.06424E-04-7.20807E-14
 -1      1168 1.03418E-02-2.90959E-04-7.57704E-14
 -1      1169 1.06271E-02-2.75276E-04-7.94854E-14
 -1      1170 1.09125E-02-2.59427E-04-8.32177E-14
 -1      1171 1.11979E-02-2.43452E-04-8.69577E-14
 -1      1172 1.14833E-02-2.27384E-04-9.06977E-14
 -1      1173 1.17688E-02-2.11249E-04-9.44324E-14
 -1      1174 1.20544E-02-1.95066E-04-9.81621E-14
 -1      1175 1.23400E-02-1.78851E-04-1.01900E-13
 -1      1176 1.26256E-02-1.62616E-04-1.05650E-13
 -1      1177 1.29112E-02-1.46368E-04-1.09408E-13
 -1      1178 1.31969E-02-1.30113E-04-1.13188E-13
 -1      1179 1.34825E-02-1.13857E-04-1.16992E-13
 -1      1180 1.37682E-02-9.76022E-05-1.20805E-13
 -1      1181 1.40539E-02-8.13509E-05-1.24613E-13
 -1      1182 1.43396E-02-6.51049E-05-1.28403E-13
 -1      1183 1.46254E-02-4.88649E-05-1.32191E-13
 -1      1184 1.49039E-02-3.30355E-05-1.35908E-13
 -1      1185 2.86339E-04 1.84114E-04 2.98969E-17
 -1      1186 7.17556E-04 3.93746E-04-9.87979E-18
 -1      1187 1.10467E-03 5.63310E-04-1.88272E-16
 -1      1188 1.47423E-03 7.25058E-04-5.25052E-16
 -1      1189 1.82174E-03 8.87973E-04-1.02326E-15
 -1      1190 2.14085E-03 1.04305E-03-1.68759E-15
 -1      1191 2.42964E-03 1.16950E-03-2.51943E-15
 -1      1192 2.69572E-03 1.24436E-03-3.51750E-15
 -1      1193 2.95587E-03 1.25500E-03-4.68751E-15
 -1      1194 3.22907E-03 1.20713E-03-6.02708E-15
 -1      1195 3.52750E-03 1.12217E-03-7.53385E-15
 -1      1196 3.85251E-03 1.02646E-03-9.19704E-15
 -1      1197 4.19694E-03 9.40750E-04-1.10031E-14
 -1      1198 4.55059E-03 8.75979E-04-1.29442E-14
 -1      1199 4.90442E-03 8.34572E-04-1.50178E-14
 -1      1200 5.25242E-03 8.13933E-04-1.72203E-14
 -1      1201 5.59154E-03 8.09512E-04-1.95334E-14
 -1      1202 5.92096E-03 8.16663E-04-2.19579E-14
 -1      1203 6.24114E-03 8.31467E-04-2.44956E-14
 -1      1204 6.55325E-03 8.50942E-04-2.71379E-14
 -1      1205 6.85863E-03 8.72965E-04-2.98827E-14
 -1      1206 7.15863E-03 8.96103E-04-3.27305E-14
 -1      1207 7.45443E-03 9.19436E-04-3.56695E-14
 -1      1208 7.74706E-03 9.42413E-04-3.86981E-14
 -1      1209 8.03732E-03 9.64731E-04-4.18075E-14
 -1      1210 8.32587E-03 9.86258E-04-4.49988E-14
 -1      1211 8.61320E-03 1.00697E-03-4.82764E-14
 -1      1212 8.89970E-03 1.02690E-03-5.16322E-14
 -1      1213 9.18565E-03 1.04612E-03-5.50531E-14
 -1      1214 9.47125E-03 1.06472E-03-5.85274E-14
 -1      1215 9.75665E-03 1.08281E-03-6.20483E-14
 -1      1216 1.00420E-02 1.10046E-03-6.56214E-14
 -1      1217 1.03272E-02 1.11775E-03-6.92440E-14
 -1      1218 1.06125E-02 1.13477E-03-7.29032E-14
 -1      1219 1.08978E-02 1.15157E-03-7.65972E-14
 -1      1220 1.11832E-02 1.16821E-03-8.03172E-14
 -1      1221 1.14686E-02 1.18471E-03-8.40599E-14
 -1      1222 1.17540E-02 1.20113E-03-8.78284E-14
 -1      1223 1.20395E-02 1.21748E-03-9.16060E-14
 -1      1224 1.23251E-02 1.23377E-03-9.54007E-14
 -1      1225 1.26106E-02 1.25004E-03-9.92113E-14
 -1      1226 1.28963E-02 1.26629E-03-1.03029E-13
 -1      1227 1.31819E-02 1.28252E-03-1.06862E-13
 -1      1228 1.34676E-02 1.29875E-03-1.10711E-13
 -1      1229 1.37532E-02 1.31498E-03-1.14579E-13
 -1      1230 1.40389E-02 1.33121E-03-1.18458E-13
 -1      1231 1.43246E-02 1.34744E-03-1.22337E-13
 -1      1232 1.46103E-02 1.36367E-03-1.26211E-13
 -1      1233 1.48960E-02 1.37992E-03-1.30065E-13
 -1      1234 1.51746E-02 1.39576E-03-1.33806E-13
 -1      1235 1.53023E-02 1.36133E-03-1.35671E-13
 -1      1236 1.52864E-02 1.27705E-03-1.35819E-13
 -1      1237 1.52704E-02 1.19276E-03-1.35982E-13
 -1      1238 1.52544E-02 1.10847E-03-1.36117E-13
 -1      1239 1.52384E-02 1.02417E-03-1.36224E-13
 -1      1240 1.52225E-02 9.40585E-04-1.36300E-13
 -1      1241 1.52067E-02 8.56991E-04-1.36394E-13
 -1      1242 1.51907E-02 7.72677E-04-1.36500E-13
 -1      1243 1.51747E-02 6.88361E-04-1.36604E-13
 -1      1244 1.51588E-02 6.04045E-04-1.36706E-13
 -1      1245 1.51428E-02 5.19732E-04-1.36824E-13
 -1      1246 1.51270E-02 4.36137E-04-1.36972E-13
 -1      1247 1.51112E-02 3.52549E-04-1.37119E-13
 -1      1248 1.50952E-02 2.68252E-04-1.37252E-13
 -1      1249 1.50793E-02 1.83961E-04-1.37379E-13
 -1      1250 1.50633E-02 9.96748E-05-1.37521E-13
 -1      1251 1.50475E-02 1.61040E-05-1.37664E-13
 -1      1252 4.81003E-03 1.77321E-04-7.75655E-15
 -1      1253 4.69888E-03 3.16024E-04-7.55752E-15
 -1      1254 4.48348E-03 4.55806E-04-7.21308E-15
 -1      1255 4.19216E-03 5.90203E-04-6.75772E-15
 -1      1256 3.84401E-03 7.12397E-04-6.22023E-15
 -1      1257 3.44627E-03 8.11097E-04-5.61199E-15
 -1      1258 3.01305E-03 8.68317E-04-4.96369E-15
 -1      1259 2.56532E-03 8.68473E-04-4.32027E-15
 -1      1260 2.12401E-03 8.09631E-04-3.71968E-15
 -1      1261 1.69906E-03 7.02750E-04-3.17907E-15
 -1      1262 1.31736E-03 5.69743E-04-2.72807E-15
 -1      1263 9.86009E-04 4.27103E-04-2.36323E-15
 -1      1264 7.34123E-04 2.94274E-04-2.10378E-15
 -1      1265 5.74778E-04 1.78150E-04-1.94983E-15
 -1      1266 5.07160E-04 6.87048E-05-1.89472E-15
 -1      1267 5.40464E-04-3.56239E-05-1.94636E-15
 -1      1268 6.65647E-04-1.40210E-04-2.09426E-15
 -1      1269 8.71047E-04-2.51686E-04-2.33389E-15
 -1      1270 1.14969E-03-3.71342E-04-2.66901E-15
 -1      1271 1.50652E-03-4.95542E-04-3.11913E-15
 -1      1272 1.93420E-03-6.04824E-04-3.69054E-15
 -1      1273 2.37907E-03-6.70643E-04-4.31990E-15
 -1      1274 2.82044E-03-6.80719E-04-4.96960E-15
 -1      1275 3.27983E-03-6.30107E-04-5.65794E-15
 -1      1276 3.71664E-03-5.29856E-04-6.30632E-15
 -1      1277 4.09953E-03-4.00781E-04-6.86230E-15
 -1      1278 4.42469E-03-2.57251E-04-7.31828E-15
 -1      1279 4.66751E-03-1.09629E-04-7.63512E-15
 -1      1280 4.80215E-03 3.65056E-05-7.78694E-15
 -1      1281 2.05420E-04-1.22552E-04-1.21295E-17
 -1      1282 1.34667E-04-5.45351E-05-3.72559E-17
 -1      1283 1.43065E-04-6.92653E-05-3.02357E-17
 -1      1284 1.24425E-04-3.31133E-05-4.81521E-17
 -1      1285 1.29404E-04-4.29913E-05-4.49673E-17
 -1      1286 2.69607E-04-1.03300E-04-1.07146E-16
 -1      1287 1.15826E-04-1.47902E-05-5.35054E-17
 -1      1288 1.20466E-04-2.35167E-05-5.20553E-17
 -1      1289 2.50275E-04-6.29866E-05-1.25808E-16
 -1      1290 1.05888E-04 1.48553E-06-5.58635E-17
 -1      1291 1.11241E-04-6.09387E-06-5.51317E-17
 -1      1292 2.32099E-04-2.78028E-05-1.34834E-16
 -1      1293 9.40189E-05 1.37103E-05-5.66496E-17
 -1      1294 1.00218E-04 8.38355E-06-5.64192E-17
 -1      1295 2.10243E-04 2.50307E-06-1.38453E-16
 -1      1296 8.14310E-05 1.88815E-05-5.66225E-17
 -1      1297 8.76389E-05 1.70932E-05-5.65276E-17
 -1      1298 1.83953E-04 2.37235E-05-1.39225E-16
 -1      1299 7.12498E-05 1.55460E-05-5.60668E-17
 -1      1300 7.57885E-05 1.75561E-05-5.60668E-17
 -1      1301 1.57085E-04 3.08447E-05-1.38304E-16
 -1      1302 6.66138E-05 5.51953E-06-5.53824E-17
 -1      1303 6.79887E-05 1.00415E-05-5.55315E-17
 -1      1304 1.36724E-04 2.27432E-05-1.36772E-16
 -1      1305 6.96046E-05-5.52511E-06-5.41830E-17
 -1      1306 6.71704E-05-1.34895E-06-5.45421E-17
 -1      1307 1.30466E-04 4.89928E-06-1.34712E-16
 -1      1308 7.93603E-05-1.18052E-05-5.27600E-17
 -1      1309 7.38435E-05-1.04443E-05-5.33292E-17
 -1      1310 1.41270E-04-1.18674E-05-1.32029E-16
 -1      1311 9.27338E-05-9.62713E-06-5.08220E-17
 -1      1312 8.58316E-05-1.22502E-05-5.17164E-17
 -1      1313 1.65465E-04-1.72937E-05-1.28654E-16
 -1      1314 1.06520E-04 6.61739E-07-4.74745E-17
 -1      1315 9.96560E-05-5.41074E-06-4.88975E-17
 -1      1316 1.95168E-04-6.84272E-06-1.23464E-16
 -1      1317 1.19156E-04 1.66517E-05-4.21348E-17
 -1      1318 1.12796E-04 8.24945E-06-4.44658E-17
 -1      1319 2.23839E-04 1.74518E-05-1.15061E-16
 -1      1320 1.31350E-04 3.68149E-05-3.29869E-17
 -1      1321 1.24803E-04 2.63908E-05-3.70526E-17
 -1      1322 2.49473E-04 5.13495E-05-1.01251E-16
 -1      1323 1.46839E-04 6.43640E-05-1.76996E-17
 -1      1324 1.37677E-04 4.93335E-05-2.52890E-17
 -1      1325 2.75433E-04 9.39948E-05-7.92281E-17
 -1      1326 2.00957E-04 1.20893E-04 7.18284E-18
 -1      1327 1.72862E-04 8.83677E-05-8.68717E-18
 -1      1328 3.24978E-04 1.54248E-04-5.22856E-17
 -1      1329 4.30517E-04 2.44204E-04-1.16958E-17
 -1      1330 5.22936E-04-2.96997E-04-8.29008E-17
 -1      1331 7.15447E-04-3.90360E-04-1.62996E-16
 -1      1332 9.00897E-04-4.73622E-04-2.90566E-16
 -1      1333 1.08066E-03-5.50338E-04-4.62290E-16
 -1      1334 7.56328E-04-3.85058E-04-2.67175E-16
 -1      1335 1.25500E-03-6.23939E-04-6.75661E-16
 -1      1336 1.42422E-03-6.94784E-04-9.32265E-16
 -1      1337 1.11870E-03-5.41654E-04-6.18402E-16
 -1      1338 1.58849E-03-7.63667E-04-1.23194E-15
 -1      1339 1.74777E-03-8.29300E-04-1.57547E-15
 -1      1340 1.46212E-03-6.86152E-04-1.13824E-15
 -1      1341 1.90214E-03-8.90534E-04-1.96237E-15
 -1      1342 2.05176E-03-9.45370E-04-2.39312E-15
 -1      1343 1.78830E-03-8.19844E-04-1.82882E-15
 -1      1344 2.19707E-03-9.91729E-04-2.86754E-15
 -1      1345 2.33877E-03-1.02767E-03-3.38533E-15
 -1      1346 2.09822E-03-9.31583E-04-2.69240E-15
 -1      1347 2.47779E-03-1.05147E-03-3.94720E-15
 -1      1348 2.61537E-03-1.06216E-03-4.55250E-15
 -1      1349 2.39482E-03-1.00490E-03-3.73037E-15
 -1      1350 2.75275E-03-1.05946E-03-5.20036E-15
 -1      1351 2.89127E-03-1.04390E-03-5.89078E-15
 -1      1352 2.68424E-03-1.02670E-03-4.94145E-15
 -1      1353 3.03198E-03-1.01699E-03-6.62323E-15
 -1      1354 3.17582E-03-9.80541E-04-7.39580E-15
 -1      1355 2.97459E-03-9.94983E-04-6.32280E-15
 -1      1356 3.32329E-03-9.37125E-04-8.20694E-15
 -1      1357 3.47463E-03-8.89077E-04-9.05676E-15
 -1      1358 3.27280E-03-9.20795E-04-7.86749E-15
 -1      1359 3.62972E-03-8.38944E-04-9.94391E-15
 -1      1360 3.78821E-03-7.88752E-04-1.08669E-14
 -1      1361 3.58201E-03-8.23288E-04-9.56639E-15
 -1      1362 3.94955E-03-7.40254E-04-1.18252E-14
 -1      1363 4.11310E-03-6.94744E-04-1.28168E-14
 -1      1364 3.90131E-03-7.21813E-04-1.14112E-14
 -1      1365 4.27817E-03-6.52985E-04-1.38419E-14
 -1      1366 4.44410E-03-6.15549E-04-1.48986E-14
 -1      1367 4.22726E-03-6.30199E-04-1.33937E-14
 -1      1368 4.61030E-03-5.82437E-04-1.59868E-14
 -1      1369 4.77622E-03-5.53707E-04-1.71052E-14
 -1      1370 4.55572E-03-5.55218E-04-1.55052E-14
 -1      1371 4.94146E-03-5.28947E-04-1.82514E-14
 -1      1372 5.10568E-03-5.07932E-04-1.94267E-14
 -1      1373 4.88316E-03-4.98027E-04-1.77371E-14
 -1      1374 5.26865E-03-4.90118E-04-2.06303E-14
 -1      1375 5.43020E-03-4.75170E-04-2.18608E-14
 -1      1376 5.20712E-03-4.56511E-04-2.00832E-14
 -1      1377 5.59024E-03-4.62577E-04-2.31179E-14
 -1      1378 5.74874E-03-4.51994E-04-2.44006E-14
 -1      1379 5.52622E-03-4.27255E-04-2.25397E-14
 -1      1380 5.90571E-03-4.43012E-04-2.57105E-14
 -1      1381 6.06119E-03-4.35324E-04-2.70467E-14
 -1      1382 5.83997E-03-4.06763E-04-2.51027E-14
 -1      1383 6.21526E-03-4.28636E-04-2.84065E-14
 -1      1384 6.36799E-03-4.22699E-04-2.97913E-14
 -1      1385 6.14847E-03-3.92035E-04-2.77685E-14
 -1      1386 6.51950E-03-4.17316E-04-3.11995E-14
 -1      1387 6.66987E-03-4.12297E-04-3.26319E-14
 -1      1388 6.45219E-03-3.80742E-04-3.05312E-14
 -1      1389 6.81923E-03-4.07522E-04-3.40888E-14
 -1      1390 6.96765E-03-4.02850E-04-3.55676E-14
 -1      1391 6.75177E-03-3.71203E-04-3.33913E-14
 -1      1392 7.11525E-03-3.98218E-04-3.70698E-14
 -1      1393 7.26211E-03-3.93527E-04-3.85933E-14
 -1      1394 7.04789E-03-3.62274E-04-3.63444E-14
 -1      1395 7.40833E-03-3.88750E-04-4.01411E-14
 -1      1396 7.55398E-03-3.83820E-04-4.17130E-14
 -1      1397 7.34122E-03-3.53224E-04-3.93899E-14
 -1      1398 7.69914E-03-3.78734E-04-4.33055E-14
 -1      1399 7.84388E-03-3.73452E-04-4.49200E-14
 -1      1400 7.63236E-03-3.43625E-04-4.25249E-14
 -1      1401 7.98825E-03-3.67981E-04-4.65531E-14
 -1      1402 8.13230E-03-3.62299E-04-4.82040E-14
 -1      1403 7.92181E-03-3.33258E-04-4.57453E-14
 -1      1404 8.27609E-03-3.56424E-04-4.98739E-14
 -1      1405 8.41966E-03-3.50344E-04-5.15609E-14
 -1      1406 8.21000E-03-3.22043E-04-4.90414E-14
 -1      1407 8.56304E-03-3.44078E-04-5.32695E-14
 -1      1408 8.70626E-03-3.37625E-04-5.49970E-14
 -1      1409 8.49726E-03-3.09989E-04-5.24137E-14
 -1      1410 8.84936E-03-3.31004E-04-5.67392E-14
 -1      1411 8.99235E-03-3.24218E-04-5.84981E-14
 -1      1412 8.78386E-03-2.97159E-04-5.58583E-14
 -1      1413 9.13526E-03-3.17286E-04-6.02710E-14
 -1      1414 9.27811E-03-3.10213E-04-6.20549E-14
 -1      1415 9.07001E-03-2.83639E-04-5.93660E-14
 -1      1416 9.42091E-03-3.03017E-04-6.38512E-14
 -1      1417 9.56366E-03-2.95703E-04-6.56561E-14
 -1      1418 9.35585E-03-2.69527E-04-6.29284E-14
 -1      1419 9.70640E-03-2.88288E-04-6.74708E-14
 -1      1420 9.84911E-03-2.80778E-04-6.92942E-14
 -1      1421 9.64150E-03-2.54922E-04-6.65328E-14
 -1      1422 9.99180E-03-2.73185E-04-7.11247E-14
 -1      1423 1.01345E-02-2.65517E-04-7.29621E-14
 -1      1424 9.92704E-03-2.39913E-04-7.01732E-14
 -1      1425 1.02772E-02-2.57783E-04-7.48057E-14
 -1      1426 1.04199E-02-2.49990E-04-7.66555E-14
 -1      1427 1.02125E-02-2.24582E-04-7.38427E-14
 -1      1428 1.05626E-02-2.42146E-04-7.85107E-14
 -1      1429 1.07053E-02-2.34257E-04-8.03722E-14
 -1      1430 1.04980E-02-2.08998E-04-7.75378E-14
 -1      1431 1.08480E-02-2.26329E-04-8.22364E-14
 -1      1432 1.09907E-02-2.18368E-04-8.41020E-14
 -1      1433 1.07835E-02-1.93219E-04-8.12548E-14
 -1      1434 1.11334E-02-2.10377E-04-8.59716E-14
 -1      1435 1.12762E-02-2.02361E-04-8.78414E-14
 -1      1436 1.10689E-02-1.77292E-04-8.49871E-14
 -1      1437 1.14189E-02-1.94323E-04-8.97105E-14
 -1      1438 1.15617E-02-1.86268E-04-9.15801E-14
 -1      1439 1.13545E-02-1.61257E-04-8.87245E-14
 -1      1440 1.17044E-02-1.78197E-04-9.34467E-14
 -1      1441 1.18472E-02-1.70114E-04-9.53113E-14
 -1      1442 1.16400E-02-1.45142E-04-9.24605E-14
 -1      1443 1.19900E-02-1.62020E-04-9.71782E-14
 -1      1444 1.21328E-02-1.53918E-04-9.90457E-14
 -1      1445 1.19256E-02-1.28972E-04-9.61945E-14
 -1      1446 1.22756E-02-1.45808E-04-1.00915E-13
 -1      1447 1.24184E-02-1.37693E-04-1.02789E-13
 -1      1448 1.22112E-02-1.12763E-04-9.99306E-14
 -1      1449 1.25612E-02-1.29573E-04-1.04665E-13
 -1      1450 1.27040E-02-1.21450E-04-1.06540E-13
 -1      1451 1.24968E-02-9.65302E-05-1.03678E-13
 -1      1452 1.28468E-02-1.13325E-04-1.08420E-13
 -1      1453 1.29897E-02-1.05197E-04-1.10305E-13
 -1      1454 1.27824E-02-8.02818E-05-1.07432E-13
 -1      1455 1.31325E-02-9.70691E-05-1.12195E-13
 -1      1456 1.32753E-02-8.89402E-05-1.14088E-13
 -1      1457 1.30681E-02-6.40252E-05-1.11201E-13
 -1      1458 1.34182E-02-8.08110E-05-1.15989E-13
 -1      1459 1.35610E-02-7.26822E-05-1.17891E-13
 -1      1460 1.33538E-02-4.77656E-05-1.14987E-13
 -1      1461 1.37038E-02-6.45540E-05-1.19796E-13
 -1      1462 1.38467E-02-5.64267E-05-1.21698E-13
 -1      1463 1.36395E-02-3.15065E-05-1.18788E-13
 -1      1464 1.39895E-02-4.83004E-05-1.23599E-13
 -1      1465 1.41324E-02-4.01755E-05-1.25500E-13
 -1      1466 1.39252E-02-1.52508E-05-1.22591E-13
 -1      1467 1.42752E-02-3.20521E-05-1.27398E-13
 -1      1468 1.44181E-02-2.39303E-05-1.29291E-13
 -1      1469 1.42109E-02 9.99864E-07-1.26388E-13
 -1      1470 1.45610E-02-1.58101E-05-1.31188E-13
 -1      1471 1.47038E-02-7.69141E-06-1.33090E-13
 -1      1472 1.44966E-02 1.72441E-05-1.30183E-13
 -1      1473 1.49118E-02 8.39311E-06-1.35845E-13
 -1      1474 1.48474E-02 4.14490E-05-1.34834E-13
 -1      1475 8.37703E-04 4.31486E-04-1.18151E-16
 -1      1476 6.37981E-04 3.42388E-04-4.53739E-17
 -1      1477 5.72442E-04 2.92343E-04-7.53249E-17
 -1      1478 1.21934E-03 5.95834E-04-3.80338E-16
 -1      1479 1.03118E-03 5.14409E-04-2.29973E-16
 -1      1480 9.63583E-04 4.64967E-04-2.64125E-16
 -1      1481 1.58042E-03 7.60238E-04-7.98569E-16
 -1      1482 1.40242E-03 6.77883E-04-5.69477E-16
 -1      1483 1.33626E-03 6.30119E-04-6.06123E-16
 -1      1484 1.91945E-03 9.24614E-04-1.37829E-15
 -1      1485 1.75288E-03 8.43334E-04-1.06782E-15
 -1      1486 1.69058E-03 7.97844E-04-1.10491E-15
 -1      1487 2.23423E-03 1.07317E-03-2.12395E-15
 -1      1488 2.07989E-03 1.00234E-03-1.73012E-15
 -1      1489 2.02541E-03 9.60369E-04-1.76566E-15
 -1      1490 2.52715E-03 1.18148E-03-3.03783E-15
 -1      1491 2.38298E-03 1.13371E-03-2.55952E-15
 -1      1492 2.34059E-03 1.09635E-03-2.59273E-15
 -1      1493 2.80763E-03 1.22862E-03-4.12025E-15
 -1      1494 2.66804E-03 1.21318E-03-3.55765E-15
 -1      1495 2.64053E-03 1.18034E-03-3.58935E-15
 -1      1496 3.08977E-03 1.20949E-03-5.37504E-15
 -1      1497 2.94751E-03 1.22657E-03-4.72613E-15
 -1      1498 2.93498E-03 1.19664E-03-4.75744E-15
 -1      1499 3.38604E-03 1.13876E-03-6.79624E-15
 -1      1500 3.23554E-03 1.17892E-03-6.06515E-15
 -1      1501 3.23526E-03 1.14961E-03-6.09494E-15
 -1      1502 3.70199E-03 1.04290E-03-8.37997E-15
 -1      1503 3.54150E-03 1.09223E-03-7.56861E-15
 -1      1504 3.54886E-03 1.06170E-03-7.59684E-15
 -1      1505 4.03549E-03 9.47692E-04-1.01129E-14
 -1      1506 3.86690E-03 9.94021E-04-9.22811E-15
 -1      1507 3.87678E-03 9.61515E-04-9.25333E-15
 -1      1508 4.37986E-03 8.69829E-04-1.19844E-14
 -1      1509 4.20683E-03 9.06082E-04-1.10322E-14
 -1      1510 4.21498E-03 8.71751E-04-1.10554E-14
 -1      1511 4.72755E-03 8.15821E-04-1.39900E-14
 -1      1512 4.55375E-03 8.39840E-04-1.29709E-14
 -1      1513 4.55756E-03 8.04262E-04-1.29920E-14
 -1      1514 5.07255E-03 7.85013E-04-1.61233E-14
 -1      1515 4.90071E-03 7.97768E-04-1.50408E-14
 -1      1516 4.89917E-03 7.61577E-04-1.50584E-14
 -1      1517 5.41112E-03 7.73297E-04-1.83776E-14
 -1      1518 5.24281E-03 7.77092E-04-1.72359E-14
 -1      1519 5.23609E-03 7.40803E-04-1.72486E-14
 -1      1520 5.74157E-03 7.75700E-04-2.07418E-14
 -1      1521 5.57742E-03 7.73033E-04-1.95467E-14
 -1      1522 5.56630E-03 7.36996E-04-1.95538E-14
 -1      1523 6.06367E-03 7.87723E-04-2.32197E-14
 -1      1524 5.90365E-03 7.80749E-04-2.19666E-14
 -1      1525 5.88913E-03 7.45158E-04-2.19713E-14
 -1      1526 6.37803E-03 8.05808E-04-2.58040E-14
 -1      1527 6.22176E-03 7.96185E-04-2.44989E-14
 -1      1528 6.20479E-03 7.61122E-04-2.44982E-14
 -1      1529 6.68570E-03 8.27362E-04-2.84933E-14
 -1      1530 6.53263E-03 8.16276E-04-2.71360E-14
 -1      1531 6.51400E-03 7.81746E-04-2.71305E-14
 -1      1532 6.98782E-03 8.50602E-04-3.12839E-14
 -1      1533 6.83738E-03 8.38854E-04-2.98750E-14
 -1      1534 6.81771E-03 8.04820E-04-2.98655E-14
 -1      1535 7.28550E-03 8.74361E-04-3.41726E-14
 -1      1536 7.13715E-03 8.62469E-04-3.27164E-14
 -1      1537 7.11688E-03 8.28869E-04-3.27004E-14
 -1      1538 7.57971E-03 8.97923E-04-3.71521E-14
 -1      1539 7.43297E-03 8.86198E-04-3.56513E-14
 -1      1540 7.41244E-03 8.52967E-04-3.56295E-14
 -1      1541 7.87127E-03 9.20879E-04-4.02171E-14
 -1      1542 7.72577E-03 9.09493E-04-3.86751E-14
 -1      1543 7.70516E-03 8.76564E-04-3.86489E-14
 -1      1544 8.16087E-03 9.43033E-04-4.33646E-14
 -1      1545 8.01628E-03 9.32063E-04-4.17806E-14
 -1      1546 7.99573E-03 8.99377E-04-4.17506E-14
 -1      1547 8.44904E-03 9.64319E-04-4.65944E-14
 -1      1548 8.30510E-03 9.53785E-04-4.49687E-14
 -1      1549 8.28469E-03 9.21289E-04-4.49347E-14
 -1      1550 8.73618E-03 9.84758E-04-4.99039E-14
 -1      1551 8.59271E-03 9.74642E-04-4.82398E-14
 -1      1552 8.57246E-03 9.42293E-04-4.81997E-14
 -1      1553 9.02262E-03 1.00442E-03-5.32868E-14
 -1      1554 8.87947E-03 9.94681E-04-5.15875E-14
 -1      1555 8.85940E-03 9.62443E-04-5.15401E-14
 -1      1556 9.30859E-03 1.02339E-03-5.67287E-14
 -1      1557 9.16565E-03 1.01398E-03-5.50004E-14
 -1      1558 9.14575E-03 9.81827E-04-5.49466E-14
 -1      1559 9.59426E-03 1.04177E-03-6.02223E-14
 -1      1560 9.45145E-03 1.03265E-03-5.84701E-14
 -1      1561 9.43171E-03 1.00055E-03-5.84098E-14
 -1      1562 9.87975E-03 1.05966E-03-6.37637E-14
 -1      1563 9.73702E-03 1.05077E-03-6.19873E-14
 -1      1564 9.71741E-03 1.01871E-03-6.19237E-14
 -1      1565 1.01651E-02 1.07714E-03-6.73561E-14
 -1      1566 1.00225E-02 1.06844E-03-6.55534E-14
 -1      1567 1.00030E-02 1.03642E-03-6.54839E-14
 -1      1568 1.04505E-02 1.09430E-03-7.09950E-14
 -1      1569 1.03078E-02 1.08576E-03-6.91696E-14
 -1      1570 1.02884E-02 1.05375E-03-6.90943E-14
 -1      1571 1.07359E-02 1.11122E-03-7.46677E-14
 -1      1572 1.05932E-02 1.10279E-03-7.28266E-14
 -1      1573 1.05739E-02 1.07079E-03-7.27484E-14
 -1      1574 1.10213E-02 1.12793E-03-7.83756E-14
 -1      1575 1.08786E-02 1.11959E-03-7.65180E-14
 -1      1576 1.08593E-02 1.08761E-03-7.64380E-14
 -1      1577 1.13067E-02 1.14450E-03-8.21025E-14
 -1      1578 1.11640E-02 1.13623E-03-8.02367E-14
 -1      1579 1.11448E-02 1.10425E-03-8.01551E-14
 -1      1580 1.15921E-02 1.16095E-03-8.58559E-14
 -1      1581 1.14494E-02 1.15274E-03-8.39771E-14
 -1      1582 1.14303E-02 1.12075E-03-8.38931E-14
 -1      1583 1.18777E-02 1.17733E-03-8.96245E-14
 -1      1584 1.17349E-02 1.16915E-03-8.77384E-14
 -1      1585 1.17158E-02 1.13717E-03-8.76494E-14
 -1      1586 1.21632E-02 1.19365E-03-9.34059E-14
 -1      1587 1.20204E-02 1.18549E-03-9.15141E-14
 -1      1588 1.20013E-02 1.15351E-03-9.14180E-14
 -1      1589 1.24488E-02 1.20993E-03-9.72037E-14
 -1      1590 1.23060E-02 1.20179E-03-9.53033E-14
 -1      1591 1.22869E-02 1.16981E-03-9.52058E-14
 -1      1592 1.27344E-02 1.22618E-03-1.01014E-13
 -1      1593 1.25916E-02 1.21806E-03-9.91080E-14
 -1      1594 1.25725E-02 1.18607E-03-9.90057E-14
 -1      1595 1.30200E-02 1.24242E-03-1.04834E-13
 -1      1596 1.28772E-02 1.23430E-03-1.02922E-13
 -1      1597 1.28581E-02 1.20231E-03-1.02814E-13
 -1      1598 1.33057E-02 1.25865E-03-1.08670E-13
 -1      1599 1.31628E-02 1.25053E-03-1.06750E-13
 -1      1600 1.31438E-02 1.21854E-03-1.06637E-13
 -1      1601 1.35913E-02 1.27487E-03-1.12520E-13
 -1      1602 1.34485E-02 1.26676E-03-1.10593E-13
 -1      1603 1.34294E-02 1.23477E-03-1.10475E-13
 -1      1604 1.38770E-02 1.29110E-03-1.16393E-13
 -1      1605 1.37342E-02 1.28299E-03-1.14454E-13
 -1      1606 1.37151E-02 1.25099E-03-1.14330E-13
 -1      1607 1.41627E-02 1.30733E-03-1.20262E-13
 -1      1608 1.40199E-02 1.29921E-03-1.18328E-13
 -1      1609 1.40008E-02 1.26722E-03-1.18195E-13
 -1      1610 1.44484E-02 1.32356E-03-1.24137E-13
 -1      1611 1.43056E-02 1.31544E-03-1.22202E-13
 -1      1612 1.42865E-02 1.28345E-03-1.22067E-13
 -1      1613 1.47341E-02 1.33980E-03-1.28002E-13
 -1      1614 1.45913E-02 1.33168E-03-1.26072E-13
 -1      1615 1.45722E-02 1.29968E-03-1.25935E-13
 -1      1616 1.50198E-02 1.35604E-03-1.31846E-13
 -1      1617 1.48770E-02 1.34792E-03-1.29926E-13
 -1      1618 1.48579E-02 1.31592E-03-1.29789E-13
 -1      1619 1.51666E-02 1.35361E-03-1.33858E-13
 -1      1620 1.51587E-02 1.24894E-03-1.34191E-13
 -1      1621 1.51666E-02 1.29108E-03-1.34116E-13
 -1      1622 1.51427E-02 1.16465E-03-1.34331E-13
 -1      1623 1.51507E-02 1.20680E-03-1.34263E-13
 -1      1624 1.50309E-02 1.22083E-03-1.32551E-13
 -1      1625 1.51267E-02 1.08036E-03-1.34457E-13
 -1      1626 1.51347E-02 1.12250E-03-1.34396E-13
 -1      1627 1.50150E-02 1.13654E-03-1.32682E-13
 -1      1628 1.51107E-02 9.96059E-04-1.34564E-13
 -1      1629 1.51187E-02 1.03821E-03-1.34514E-13
 -1      1630 1.49990E-02 1.05225E-03-1.32804E-13
 -1      1631 1.50950E-02 9.13184E-04-1.34656E-13
 -1      1632 1.51028E-02 9.54622E-04-1.34611E-13
 -1      1633 1.49831E-02 9.68660E-04-1.32915E-13
 -1      1634 1.50790E-02 8.28875E-04-1.34760E-13
 -1      1635 1.50870E-02 8.71030E-04-1.34707E-13
 -1      1636 1.49673E-02 8.85071E-04-1.33019E-13
 -1      1637 1.50630E-02 7.44564E-04-1.34868E-13
 -1      1638 1.50710E-02 7.86720E-04-1.34814E-13
 -1      1639 1.49513E-02 8.00763E-04-1.33126E-13
 -1      1640 1.50470E-02 6.60250E-04-1.34977E-13
 -1      1641 1.50550E-02 7.02407E-04-1.34922E-13
 -1      1642 1.49353E-02 7.16452E-04-1.33237E-13
 -1      1643 1.50311E-02 5.75938E-04-1.35085E-13
 -1      1644 1.50390E-02 6.18094E-04-1.35032E-13
 -1      1645 1.49193E-02 6.32141E-04-1.33351E-13
 -1      1646 1.50151E-02 4.91627E-04-1.35215E-13
 -1      1647 1.50231E-02 5.33782E-04-1.35147E-13
 -1      1648 1.49034E-02 5.47830E-04-1.33470E-13
 -1      1649 1.49994E-02 4.08750E-04-1.35355E-13
 -1      1650 1.50073E-02 4.50188E-04-1.35287E-13
 -1      1651 1.48875E-02 4.64237E-04-1.33600E-13
 -1      1652 1.49835E-02 3.24449E-04-1.35498E-13
 -1      1653 1.49914E-02 3.66599E-04-1.35426E-13
 -1      1654 1.48717E-02 3.80647E-04-1.33739E-13
 -1      1655 1.49675E-02 2.40153E-04-1.35632E-13
 -1      1656 1.49755E-02 2.82301E-04-1.35568E-13
 -1      1657 1.48558E-02 2.96347E-04-1.33879E-13
 -1      1658 1.49516E-02 1.55863E-04-1.35767E-13
 -1      1659 1.49595E-02 1.98007E-04-1.35698E-13
 -1      1660 1.48398E-02 2.12052E-04-1.34017E-13
 -1      1661 1.48955E-02 7.75837E-05-1.35336E-13
 -1      1662 1.49035E-02 1.19727E-04-1.35267E-13
 -1      1663 1.47837E-02 1.33770E-04-1.33584E-13
 -1      1664 1.46875E-02 6.14990E-05-1.32584E-13
 -1      1665 4.80533E-03 1.70261E-04-8.18325E-15
 -1      1666 4.83662E-03 1.33002E-04-8.24611E-15
 -1      1667 4.63784E-03 2.77964E-04-7.83681E-15
 -1      1668 4.73061E-03 2.28324E-04-7.97988E-15
 -1      1669 4.36325E-03 4.07395E-04-7.40915E-15
 -1      1670 4.50087E-03 3.44379E-04-7.62268E-15
 -1      1671 4.02890E-03 5.55857E-04-6.87429E-15
 -1      1672 4.18717E-03 4.85797E-04-7.12911E-15
 -1      1673 3.65898E-03 7.10856E-04-6.24853E-15
 -1      1674 3.83269E-03 6.39745E-04-6.54468E-15
 -1      1675 3.27245E-03 8.43148E-04-5.55933E-15
 -1      1676 3.45109E-03 7.86932E-04-5.88020E-15
 -1      1677 2.88161E-03 9.14875E-04-4.83934E-15
 -1      1678 3.06438E-03 8.90674E-04-5.16842E-15
 -1      1679 2.49044E-03 9.02370E-04-4.15640E-15
 -1      1680 2.67036E-03 9.19230E-04-4.46545E-15
 -1      1681 2.10282E-03 8.07265E-04-3.53003E-15
 -1      1682 2.28239E-03 8.61539E-04-3.80848E-15
 -1      1683 1.70538E-03 6.49917E-04-2.98234E-15
 -1      1684 1.88861E-03 7.28049E-04-3.22379E-15
 -1      1685 1.33060E-03 4.78147E-04-2.54264E-15
 -1      1686 1.49822E-03 5.56401E-04-2.73070E-15
 -1      1687 9.81108E-04 3.12080E-04-2.18385E-15
 -1      1688 1.13980E-03 3.84814E-04-2.33594E-15
 -1      1689 7.14123E-04 2.00819E-04-1.96540E-15
 -1      1690 8.20383E-04 2.49419E-04-2.05681E-15
 -1      1691 5.47309E-04 1.14861E-04-1.83325E-15
 -1      1692 6.12422E-04 1.51578E-04-1.88340E-15
 -1      1693 4.93351E-04 4.70246E-05-1.78944E-15
 -1      1694 5.02893E-04 7.44655E-05-1.78993E-15
 -1      1695 5.61606E-04-1.88969E-05-1.87763E-15
 -1      1696 5.16029E-04 1.19772E-05-1.83046E-15
 -1      1697 7.32411E-04-9.99355E-05-2.04636E-15
 -1      1698 6.42040E-04-5.98381E-05-1.95679E-15
 -1      1699 9.86973E-04-2.08714E-04-2.31046E-15
 -1      1700 8.59714E-04-1.54584E-04-2.17576E-15
 -1      1701 1.30687E-03-3.46215E-04-2.67493E-15
 -1      1702 1.15206E-03-2.79419E-04-2.49329E-15
 -1      1703 1.68943E-03-5.06311E-04-3.17338E-15
 -1      1704 1.50464E-03-4.30714E-04-2.92398E-15
 -1      1705 2.10969E-03-6.49319E-04-3.78945E-15
 -1      1706 1.92005E-03-5.87535E-04-3.48758E-15
 -1      1707 2.49743E-03-7.23579E-04-4.46754E-15
 -1      1708 2.32272E-03-6.99207E-04-4.15686E-15
 -1      1709 2.88592E-03-7.12738E-04-5.17915E-15
 -1      1710 2.70548E-03-7.27379E-04-4.84625E-15
 -1      1711 3.29738E-03-6.16452E-04-5.95707E-15
 -1      1712 3.10149E-03-6.73550E-04-5.59996E-15
 -1      1713 3.71421E-03-4.65508E-04-6.63216E-15
 -1      1714 3.53059E-03-5.38678E-04-6.33044E-15
 -1      1715 4.09766E-03-2.95224E-04-7.25254E-15
 -1      1716 3.92109E-03-3.73218E-04-6.98656E-15
 -1      1717 4.44533E-03-1.44867E-04-7.71437E-15
 -1      1718 4.29514E-03-2.13299E-04-7.51223E-15
 -1      1719 4.70158E-03-1.07928E-05-8.08431E-15
 -1      1720 4.59431E-03-6.43884E-05-7.95880E-15
 -1      1721 4.83108E-03 8.65840E-05-8.21187E-15
 -1      1722 4.79043E-03 4.51126E-05-8.18003E-15
 -1      1723 3.87256E-03 5.62584E-04-6.91436E-15
 -1      1724 4.23524E-03 3.96129E-04-7.54244E-15
 -1      1725 1.51476E-02 1.32162E-03-1.33725E-13
 -1      1726 1.50199E-02 1.29351E-03-1.32096E-13
 -1      1727 4.77009E-03 1.68106E-04-8.48334E-15
 -1      1728 4.55121E-03 2.63183E-04-8.05376E-15
 -1      1729 4.84381E-03 1.13459E-04-8.65958E-15
 -1      1730 3.49672E-03 7.37876E-04-6.20050E-15
 -1      1731 3.12917E-03 8.80030E-04-5.43069E-15
 -1      1732 2.76896E-03 9.42577E-04-4.66340E-15
 -1      1733 2.41275E-03 9.03788E-04-3.94742E-15
 -1      1734 2.04907E-03 7.69738E-04-3.30790E-15
 -1      1735 1.66692E-03 5.80162E-04-2.77026E-15
 -1      1736 1.28575E-03 3.84289E-04-2.33318E-15
 -1      1737 9.38338E-04 2.30806E-04-2.02181E-15
 -1      1738 6.72924E-04 1.34092E-04-1.82669E-15
 -1      1739 5.21091E-04 7.33581E-05-1.70810E-15
 -1      1740 4.98350E-04 3.93448E-05-1.70579E-15
 -1      1741 6.05880E-04-6.51886E-06-1.81937E-15
 -1      1742 8.19166E-04-8.13504E-05-2.01487E-15
 -1      1743 1.11277E-03-1.98932E-04-2.30983E-15
 -1      1744 1.46525E-03-3.59589E-04-2.72171E-15
 -1      1745 1.86263E-03-5.41208E-04-3.26592E-15
 -1      1746 2.24597E-03-6.90507E-04-3.93105E-15
 -1      1747 2.60190E-03-7.51522E-04-4.67080E-15
 -1      1748 2.96597E-03-7.10399E-04-5.47265E-15
 -1      1749 3.35109E-03-5.73145E-04-6.27964E-15
 -1      1750 3.75895E-03-3.86518E-04-7.02300E-15
 -1      1751 4.15033E-03-2.04360E-04-7.65602E-15
 -1      1752 4.49938E-03-5.18246E-05-8.17460E-15
 -1      1753 4.74636E-03 5.12578E-05-8.52704E-15
 -1      1754 3.52208E-04-1.93718E-04-7.10966E-17
 -1      1755 3.77808E-04-9.35954E-05-1.98612E-16
 -1      1756 3.91449E-04-1.20676E-04-1.89275E-16
 -1      1757 4.05884E-04-1.50031E-04-1.77050E-16
 -1      1758 4.24229E-04-1.81989E-04-1.58985E-16
 -1      1759 5.41435E-04-1.90780E-04-2.76756E-16
 -1      1760 3.12572E-04-7.99175E-07-2.12341E-16
 -1      1761 3.31700E-04-2.06694E-05-2.11054E-16
 -1      1762 2.68945E-04 2.79473E-05-2.12138E-16
 -1      1763 2.91177E-04 1.58875E-05-2.12531E-16
 -1      1764 4.10306E-04-4.09585E-06-3.13158E-16
 -1      1765 2.26112E-04 3.65314E-05-2.09996E-16
 -1      1766 2.46440E-04 3.49430E-05-2.11189E-16
 -1      1767 3.47098E-04 3.04045E-05-3.11207E-16
 -1      1768 1.96204E-04 2.49319E-05-2.07272E-16
 -1      1769 2.08185E-04 3.27963E-05-2.08648E-16
 -1      1770 2.87020E-04 3.93006E-05-3.07344E-16
 -1      1771 1.92507E-04 3.19687E-06-2.03877E-16
 -1      1772 1.90656E-04 1.42187E-05-2.05660E-16
 -1      1773 2.51474E-04 2.46042E-05-3.02716E-16
 -1      1774 2.17230E-04-1.32819E-05-2.00035E-16
 -1      1775 2.01888E-04-6.89924E-06-2.02170E-16
 -1      1776 2.56835E-04 1.49812E-06-2.98061E-16
 -1      1777 2.60986E-04-1.11014E-05-1.94696E-16
 -1      1778 2.37992E-04-1.49727E-05-1.97745E-16
 -1      1779 3.02034E-04-9.44037E-06-2.92626E-16
 -1      1780 3.09658E-04 1.29004E-05-1.86212E-16
 -1      1781 2.85738E-04-1.52554E-06-1.91118E-16
 -1      1782 3.68847E-04 5.50313E-06-2.84657E-16
 -1      1783 3.53981E-04 5.41433E-05-1.72646E-16
 -1      1784 3.32719E-04 3.19351E-05-1.80465E-16
 -1      1785 4.36843E-04 4.64067E-05-2.72203E-16
 -1      1786 3.93347E-04 1.07306E-04-1.50352E-16
 -1      1787 3.73904E-04 7.96212E-05-1.63213E-16
 -1      1788 4.95777E-04 1.05885E-04-2.51941E-16
 -1      1789 4.36415E-04 1.73263E-04-1.14844E-16
 -1      1790 4.13505E-04 1.38587E-04-1.34943E-16
 -1      1791 5.49006E-04 1.78284E-04-2.19158E-16
 -1      1792 5.19818E-04 2.49582E-04-9.10865E-17
 -1      1793 4.75115E-04 2.07495E-04-1.07255E-16
 -1      1794 6.18118E-04 2.55876E-04-1.90006E-16
 -1      1795 7.13834E-04 3.37144E-04-1.67306E-16
 -1      1796 4.16399E-04-2.07126E-04-1.19316E-16
 -1      1797 1.09431E-03 5.03377E-04-4.34684E-16
 -1      1798 9.05624E-04 4.20847E-04-2.82543E-16
 -1      1799 8.52448E-04 3.77469E-04-2.96787E-16
 -1      1800 5.59361E-04-2.61236E-04-2.08790E-16
 -1      1801 9.88685E-04-4.57898E-04-5.58432E-16
 -1      1802 1.16592E-03-5.32519E-04-7.80083E-16
 -1      1803 1.33962E-03-6.05652E-04-1.04261E-15
 -1      1804 1.50978E-03-6.76665E-04-1.34738E-15
 -1      1805 1.21970E-03-5.23167E-04-9.46197E-16
 -1      1806 1.67653E-03-7.45198E-04-1.69450E-15
 -1      1807 1.83960E-03-8.09284E-04-2.08464E-15
 -1      1808 1.56512E-03-6.67022E-04-1.56009E-15
 -1      1809 1.99907E-03-8.67174E-04-2.51752E-15
 -1      1810 2.15543E-03-9.16309E-04-2.99362E-15
 -1      1811 1.89892E-03-7.98305E-04-2.34230E-15
 -1      1812 2.30842E-03-9.54596E-04-3.51319E-15
 -1      1813 2.45980E-03-9.79948E-04-4.07627E-15
 -1      1814 2.21985E-03-8.99969E-04-3.29606E-15
 -1      1815 2.60905E-03-9.91271E-04-4.68279E-15
 -1      1816 2.75878E-03-9.88156E-04-5.33166E-15
 -1      1817 2.53029E-03-9.52711E-04-4.42368E-15
 -1      1818 2.90837E-03-9.71339E-04-6.02278E-15
 -1      1819 3.06009E-03-9.42356E-04-6.75569E-15
 -1      1820 2.83712E-03-9.46003E-04-5.72344E-15
 -1      1821 3.21338E-03-9.03531E-04-7.52850E-15
 -1      1822 3.36923E-03-8.57515E-04-8.34006E-15
 -1      1823 3.14814E-03-8.85540E-04-7.18921E-15
 -1      1824 3.52734E-03-8.07149E-04-9.19019E-15
 -1      1825 3.68734E-03-7.54955E-04-1.00766E-14
 -1      1826 3.46740E-03-7.90663E-04-8.81439E-15
 -1      1827 3.84924E-03-7.03274E-04-1.09991E-14
 -1      1828 4.01192E-03-6.53721E-04-1.19564E-14
 -1      1829 3.79367E-03-6.84516E-04-1.05879E-14
 -1      1830 4.17567E-03-6.07661E-04-1.29467E-14
 -1      1831 4.33921E-03-5.65776E-04-1.39700E-14
 -1      1832 4.12291E-03-5.85081E-04-1.25013E-14
 -1      1833 4.50292E-03-5.28508E-04-1.50244E-14
 -1      1834 4.66578E-03-4.95888E-04-1.61101E-14
 -1      1835 4.45107E-03-5.01990E-04-1.45462E-14
 -1      1836 4.82813E-03-4.67742E-04-1.72251E-14
 -1      1837 4.98928E-03-4.43784E-04-1.83677E-14
 -1      1838 4.77553E-03-4.37862E-04-1.67139E-14
 -1      1839 5.14948E-03-4.23539E-04-1.95388E-14
 -1      1840 5.30838E-03-4.06621E-04-2.07377E-14
 -1      1841 5.09508E-03-3.91090E-04-1.89979E-14
 -1      1842 5.46611E-03-3.92484E-04-2.19653E-14
 -1      1843 5.62256E-03-3.80756E-04-2.32180E-14
 -1      1844 5.40945E-03-3.58255E-04-2.13918E-14
 -1      1845 5.77779E-03-3.70944E-04-2.44969E-14
 -1      1846 5.93183E-03-3.62733E-04-2.58023E-14
 -1      1847 5.71889E-03-3.35611E-04-2.38939E-14
 -1      1848 6.08472E-03-3.55735E-04-2.71320E-14
 -1      1849 6.23655E-03-3.49703E-04-2.84874E-14
 -1      1850 6.02385E-03-3.19831E-04-2.64994E-14
 -1      1851 6.38734E-03-3.44356E-04-2.98674E-14
 -1      1852 6.53723E-03-3.39512E-04-3.12702E-14
 -1      1853 6.32492E-03-3.08267E-04-2.92058E-14
 -1      1854 6.68623E-03-3.34983E-04-3.26973E-14
 -1      1855 6.83448E-03-3.30638E-04-3.41487E-14
 -1      1856 6.62265E-03-2.98968E-04-3.20073E-14
 -1      1857 6.98199E-03-3.26362E-04-3.56237E-14
 -1      1858 7.12888E-03-3.22066E-04-3.71206E-14
 -1      1859 6.91760E-03-2.90580E-04-3.49048E-14
 -1      1860 7.27518E-03-3.17687E-04-3.86402E-14
 -1      1861 7.42099E-03-3.13166E-04-4.01826E-14
 -1      1862 7.21028E-03-2.82221E-04-3.78942E-14
 -1      1863 7.56633E-03-3.08477E-04-4.17482E-14
 -1      1864 7.71130E-03-3.03582E-04-4.33352E-14
 -1      1865 7.50115E-03-2.73357E-04-4.09751E-14
 -1      1866 7.85590E-03-2.98481E-04-4.49411E-14
 -1      1867 8.00021E-03-2.93150E-04-4.65675E-14
 -1      1868 7.79058E-03-2.63704E-04-4.41419E-14
 -1      1869 8.14425E-03-2.87602E-04-4.82136E-14
 -1      1870 8.28807E-03-2.81826E-04-4.98766E-14
 -1      1871 8.07891E-03-2.53144E-04-4.73884E-14
 -1      1872 8.43170E-03-2.75841E-04-5.15615E-14
 -1      1873 8.57516E-03-2.69645E-04-5.32631E-14
 -1      1874 8.36640E-03-2.41666E-04-5.07119E-14
 -1      1875 8.71849E-03-2.63258E-04-5.49808E-14
 -1      1876 8.86170E-03-2.56683E-04-5.67168E-14
 -1      1877 8.65327E-03-2.29327E-04-5.41075E-14
 -1      1878 9.00481E-03-2.49942E-04-5.84655E-14
 -1      1879 9.14784E-03-2.43039E-04-6.02303E-14
 -1      1880 8.93970E-03-2.16214E-04-5.75708E-14
 -1      1881 9.29081E-03-2.35995E-04-6.20088E-14
 -1      1882 9.43372E-03-2.28816E-04-6.37976E-14
 -1      1883 9.22581E-03-2.02433E-04-6.10928E-14
 -1      1884 9.57660E-03-2.21520E-04-6.55957E-14
 -1      1885 9.71944E-03-2.14113E-04-6.74048E-14
 -1      1886 9.51170E-03-1.88091E-04-6.46629E-14
 -1      1887 9.86225E-03-2.06612E-04-6.92248E-14
 -1      1888 1.00050E-02-1.99022E-04-7.10489E-14
 -1      1889 9.79745E-03-1.73287E-04-6.82757E-14
 -1      1890 1.01478E-02-1.91358E-04-7.28810E-14
 -1      1891 1.02906E-02-1.83623E-04-7.47207E-14
 -1      1892 1.00831E-02-1.58113E-04-7.19225E-14
 -1      1893 1.04334E-02-1.75831E-04-7.65666E-14
 -1      1894 1.05761E-02-1.67984E-04-7.84179E-14
 -1      1895 1.03687E-02-1.42647E-04-7.55964E-14
 -1      1896 1.07189E-02-1.60093E-04-8.02765E-14
 -1      1897 1.08617E-02-1.52162E-04-8.21379E-14
 -1      1898 1.06543E-02-1.26954E-04-7.92966E-14
 -1      1899 1.10044E-02-1.44197E-04-8.40024E-14
 -1      1900 1.11472E-02-1.36201E-04-8.58700E-14
 -1      1901 1.09399E-02-1.11090E-04-8.30182E-14
 -1      1902 1.12900E-02-1.28182E-04-8.77372E-14
 -1      1903 1.14328E-02-1.20140E-04-8.96064E-14
 -1      1904 1.12255E-02-9.50985E-05-8.67510E-14
 -1      1905 1.15756E-02-1.12081E-04-9.14746E-14
 -1      1906 1.17183E-02-1.04006E-04-9.33420E-14
 -1      1907 1.15111E-02-7.90135E-05-9.04876E-14
 -1      1908 1.18611E-02-9.59194E-05-9.52103E-14
 -1      1909 1.20039E-02-8.78220E-05-9.70781E-14
 -1      1910 1.17967E-02-6.28623E-05-9.42255E-14
 -1      1911 1.21468E-02-7.97162E-05-9.89474E-14
 -1      1912 1.22896E-02-7.16035E-05-1.00818E-13
 -1      1913 1.20823E-02-4.66654E-05-9.79625E-14
 -1      1914 1.24324E-02-6.34854E-05-1.02691E-13
 -1      1915 1.25752E-02-5.53632E-05-1.04565E-13
 -1      1916 1.23680E-02-3.04382E-05-1.01705E-13
 -1      1917 1.27180E-02-4.72378E-05-1.06445E-13
 -1      1918 1.28609E-02-3.91101E-05-1.08325E-13
 -1      1919 1.26536E-02-1.41922E-05-1.05456E-13
 -1      1920 1.30037E-02-3.09808E-05-1.10209E-13
 -1      1921 1.31465E-02-2.28506E-05-1.12097E-13
 -1      1922 1.29393E-02 2.06457E-06-1.09219E-13
 -1      1923 1.32894E-02-1.47200E-05-1.13990E-13
 -1      1924 1.34322E-02-6.58944E-06-1.15885E-13
 -1      1925 1.32250E-02 1.83261E-05-1.12991E-13
 -1      1926 1.35751E-02 1.54072E-06-1.17781E-13
 -1      1927 1.37179E-02 9.67013E-06-1.19681E-13
 -1      1928 1.35107E-02 3.45882E-05-1.16778E-13
 -1      1929 1.38608E-02 1.77985E-05-1.21580E-13
 -1      1930 1.40036E-02 2.59257E-05-1.23478E-13
 -1      1931 1.37964E-02 5.08478E-05-1.20570E-13
 -1      1932 1.41465E-02 3.40514E-05-1.25380E-13
 -1      1933 1.42893E-02 4.21755E-05-1.27277E-13
 -1      1934 1.40821E-02 6.71028E-05-1.24368E-13
 -1      1935 1.44170E-02 4.77783E-05-1.28980E-13
 -1      1936 1.45598E-02 5.58991E-05-1.30880E-13
 -1      1937 1.46080E-02 9.20350E-05-1.31378E-13
 -1      1938 1.43526E-02 8.08318E-05-1.27970E-13
 -1      1939 1.45998E-03 6.70609E-04-8.52644E-16
 -1      1940 1.27902E-03 5.86584E-04-6.23972E-16
 -1      1941 1.22463E-03 5.42501E-04-6.37836E-16
 -1      1942 1.80998E-03 8.40069E-04-1.42812E-15
 -1      1943 1.63714E-03 7.55784E-04-1.12033E-15
 -1      1944 1.58608E-03 7.12773E-04-1.13094E-15
 -1      1945 2.14281E-03 9.96913E-04-2.16686E-15
 -1      1946 1.97864E-03 9.21531E-04-1.77682E-15
 -1      1947 1.93415E-03 8.81705E-04-1.78316E-15
 -1      1948 2.45906E-03 1.11536E-03-3.07384E-15
 -1      1949 2.30261E-03 1.06247E-03-2.59889E-15
 -1      1950 2.26655E-03 1.02795E-03-2.60057E-15
 -1      1951 2.76451E-03 1.17115E-03-4.15195E-15
 -1      1952 2.61218E-03 1.15178E-03-3.59115E-15
 -1      1953 2.58464E-03 1.12308E-03-3.58796E-15
 -1      1954 3.06940E-03 1.15629E-03-5.40135E-15
 -1      1955 2.91596E-03 1.17186E-03-4.75526E-15
 -1      1956 2.89607E-03 1.14715E-03-4.74780E-15
 -1      1957 3.38299E-03 1.08515E-03-6.81745E-15
 -1      1958 3.22449E-03 1.12607E-03-6.08874E-15
 -1      1959 3.21139E-03 1.10239E-03-6.07774E-15
 -1      1960 3.70874E-03 9.86143E-04-8.39450E-15
 -1      1961 3.54434E-03 1.03736E-03-7.58692E-15
 -1      1962 3.53705E-03 1.01254E-03-7.57214E-15
 -1      1963 4.04431E-03 8.87223E-04-1.01210E-14
 -1      1964 3.87569E-03 9.35505E-04-9.23954E-15
 -1      1965 3.87249E-03 9.08864E-04-9.22174E-15
 -1      1966 4.38458E-03 8.06386E-04-1.19873E-14
 -1      1967 4.21436E-03 8.44091E-04-1.10376E-14
 -1      1968 4.21284E-03 8.15950E-04-1.10164E-14
 -1      1969 4.72457E-03 7.50532E-04-1.39851E-14
 -1      1970 4.55503E-03 7.75381E-04-1.29700E-14
 -1      1971 4.55282E-03 7.46307E-04-1.29447E-14
 -1      1972 5.06067E-03 7.18912E-04-1.61088E-14
 -1      1973 4.89339E-03 7.31966E-04-1.50318E-14
 -1      1974 4.88879E-03 7.02425E-04-1.50017E-14
 -1      1975 5.39084E-03 7.07163E-04-1.83510E-14
 -1      1976 5.22665E-03 7.10879E-04-1.72158E-14
 -1      1977 5.21886E-03 6.81187E-04-1.71801E-14
 -1      1978 5.71423E-03 7.10035E-04-2.07083E-14
 -1      1979 5.55343E-03 7.07060E-04-1.95156E-14
 -1      1980 5.54236E-03 6.77421E-04-1.94748E-14
 -1      1981 6.03089E-03 7.22802E-04-2.31743E-14
 -1      1982 5.87339E-03 7.15405E-04-2.19272E-14
 -1      1983 5.85938E-03 6.85946E-04-2.18813E-14
 -1      1984 6.34133E-03 7.41741E-04-2.57482E-14
 -1      1985 6.18684E-03 7.31660E-04-2.44478E-14
 -1      1986 6.17042E-03 7.02453E-04-2.43959E-14
 -1      1987 6.64634E-03 7.64150E-04-2.84277E-14
 -1      1988 6.49445E-03 7.52619E-04-2.70754E-14
 -1      1989 6.47619E-03 7.23698E-04-2.70173E-14
 -1      1990 6.94678E-03 7.88182E-04-3.12069E-14
 -1      1991 6.79706E-03 7.76032E-04-2.98045E-14
 -1      1992 6.77746E-03 7.47401E-04-2.97420E-14
 -1      1993 7.24349E-03 8.12640E-04-3.40836E-14
 -1      1994 7.09554E-03 8.00399E-04-3.26339E-14
 -1      1995 7.07502E-03 7.72042E-04-3.25654E-14
 -1      1996 7.53724E-03 8.36796E-04-3.70536E-14
 -1      1997 7.39068E-03 8.24778E-04-3.55577E-14
 -1      1998 7.36956E-03 7.96669E-04-3.54834E-14
 -1      1999 7.82868E-03 8.60243E-04-4.01076E-14
 -1      2000 7.68320E-03 8.48618E-04-3.85696E-14
 -1      2001 7.66172E-03 8.20725E-04-3.84905E-14
 -1      2002 8.11836E-03 8.82793E-04-4.32462E-14
 -1      2003 7.97370E-03 8.71633E-04-4.16666E-14
 -1      2004 7.95203E-03 8.43922E-04-4.15814E-14
 -1      2005 8.40673E-03 9.04393E-04-4.64652E-14
 -1      2006 8.26268E-03 8.93710E-04-4.48451E-14
 -1      2007 8.24093E-03 8.66150E-04-4.47542E-14
 -1      2008 8.69413E-03 9.25076E-04-4.97617E-14
 -1      2009 8.55053E-03 9.14844E-04-4.81045E-14
 -1      2010 8.52877E-03 8.87406E-04-4.80071E-14
 -1      2011 8.98085E-03 9.44921E-04-5.31301E-14
 -1      2012 8.83756E-03 9.35097E-04-5.14379E-14
 -1      2013 8.81584E-03 9.07755E-04-5.13346E-14
 -1      2014 9.26709E-03 9.64030E-04-5.65597E-14
 -1      2015 9.12402E-03 9.54561E-04-5.48379E-14
 -1      2016 9.10236E-03 9.27294E-04-5.47276E-14
 -1      2017 9.55301E-03 9.82511E-04-6.00440E-14
 -1      2018 9.41008E-03 9.73343E-04-5.82959E-14
 -1      2019 9.38850E-03 9.46133E-04-5.81802E-14
 -1      2020 9.83872E-03 1.00047E-03-6.35768E-14
 -1      2021 9.69588E-03 9.91551E-04-6.18051E-14
 -1      2022 9.67438E-03 9.64384E-04-6.16849E-14
 -1      2023 1.01243E-02 1.01801E-03-6.71569E-14
 -1      2024 9.98152E-03 1.00929E-03-6.53600E-14
 -1      2025 9.96009E-03 9.82153E-04-6.52359E-14
 -1      2026 1.04098E-02 1.03521E-03-7.07875E-14
 -1      2027 1.02671E-02 1.02665E-03-6.89658E-14
 -1      2028 1.02457E-02 9.99533E-04-6.88369E-14
 -1      2029 1.06953E-02 1.05214E-03-7.44556E-14
 -1      2030 1.05526E-02 1.04370E-03-7.26173E-14
 -1      2031 1.05313E-02 1.01661E-03-7.24849E-14
 -1      2032 1.09808E-02 1.06887E-03-7.81587E-14
 -1      2033 1.08381E-02 1.06053E-03-7.63034E-14
 -1      2034 1.08168E-02 1.03344E-03-7.61687E-14
 -1      2035 1.12663E-02 1.08544E-03-8.18824E-14
 -1      2036 1.11236E-02 1.07717E-03-8.00190E-14
 -1      2037 1.11023E-02 1.05009E-03-7.98815E-14
 -1      2038 1.15518E-02 1.10190E-03-8.56287E-14
 -1      2039 1.14091E-02 1.09368E-03-8.37538E-14
 -1      2040 1.13879E-02 1.06661E-03-8.36144E-14
 -1      2041 1.18374E-02 1.11828E-03-8.93889E-14
 -1      2042 1.16946E-02 1.11010E-03-8.75075E-14
 -1      2043 1.16734E-02 1.08302E-03-8.73647E-14
 -1      2044 1.21230E-02 1.13459E-03-9.31634E-14
 -1      2045 1.19802E-02 1.12644E-03-9.12732E-14
 -1      2046 1.19590E-02 1.09937E-03-9.11290E-14
 -1      2047 1.24086E-02 1.15087E-03-9.69516E-14
 -1      2048 1.22658E-02 1.14274E-03-9.50553E-14
 -1      2049 1.22446E-02 1.11567E-03-9.49069E-14
 -1      2050 1.26942E-02 1.16712E-03-1.00751E-13
 -1      2051 1.25514E-02 1.15900E-03-9.88498E-14
 -1      2052 1.25302E-02 1.13193E-03-9.86962E-14
 -1      2053 1.29798E-02 1.18336E-03-1.04562E-13
 -1      2054 1.28370E-02 1.17524E-03-1.02655E-13
 -1      2055 1.28159E-02 1.14817E-03-1.02495E-13
 -1      2056 1.32655E-02 1.19958E-03-1.08389E-13
 -1      2057 1.31227E-02 1.19147E-03-1.06475E-13
 -1      2058 1.31015E-02 1.16440E-03-1.06310E-13
 -1      2059 1.35512E-02 1.21581E-03-1.12228E-13
 -1      2060 1.34083E-02 1.20770E-03-1.10307E-13
 -1      2061 1.33872E-02 1.18062E-03-1.10140E-13
 -1      2062 1.38369E-02 1.23203E-03-1.16088E-13
 -1      2063 1.36940E-02 1.22392E-03-1.14157E-13
 -1      2064 1.36729E-02 1.19684E-03-1.13985E-13
 -1      2065 1.41225E-02 1.24825E-03-1.19950E-13
 -1      2066 1.39797E-02 1.24014E-03-1.18017E-13
 -1      2067 1.39586E-02 1.21306E-03-1.17841E-13
 -1      2068 1.44082E-02 1.26449E-03-1.23818E-13
 -1      2069 1.42654E-02 1.25637E-03-1.21886E-13
 -1      2070 1.42443E-02 1.22929E-03-1.21704E-13
 -1      2071 1.46940E-02 1.28072E-03-1.27681E-13
 -1      2072 1.45511E-02 1.27260E-03-1.25752E-13
 -1      2073 1.45300E-02 1.24553E-03-1.25569E-13
 -1      2074 1.49283E-02 1.29118E-03-1.30852E-13
 -1      2075 1.47855E-02 1.28305E-03-1.28927E-13
 -1      2076 1.47644E-02 1.25598E-03-1.28746E-13
 -1      2077 1.49474E-02 1.26064E-03-1.31239E-13
 -1      2078 1.48713E-02 1.02414E-03-1.31159E-13
 -1      2079 1.48792E-02 1.06628E-03-1.31099E-13
 -1      2080 1.48872E-02 1.10843E-03-1.31036E-13
 -1      2081 1.48952E-02 1.15058E-03-1.30975E-13
 -1      2082 1.47595E-02 1.08032E-03-1.29394E-13
 -1      2083 1.49173E-02 1.18454E-03-1.31139E-13
 -1      2084 1.49253E-02 1.22668E-03-1.31075E-13
 -1      2085 1.48338E-02 1.22435E-03-1.29827E-13
 -1      2086 1.47896E-02 1.15643E-03-1.29497E-13
 -1      2087 1.48555E-02 9.41264E-04-1.31272E-13
 -1      2088 1.48634E-02 9.82700E-04-1.31215E-13
 -1      2089 1.47437E-02 9.96742E-04-1.29516E-13
 -1      2090 1.48395E-02 8.56959E-04-1.31382E-13
 -1      2091 1.48475E-02 8.99112E-04-1.31327E-13
 -1      2092 1.47278E-02 9.13155E-04-1.29631E-13
 -1      2093 1.48236E-02 7.72651E-04-1.31495E-13
 -1      2094 1.48315E-02 8.14806E-04-1.31439E-13
 -1      2095 1.47118E-02 8.28849E-04-1.29746E-13
 -1      2096 1.48076E-02 6.88341E-04-1.31611E-13
 -1      2097 1.48156E-02 7.30496E-04-1.31552E-13
 -1      2098 1.46958E-02 7.44541E-04-1.29863E-13
 -1      2099 1.47916E-02 6.04031E-04-1.31732E-13
 -1      2100 1.47996E-02 6.46186E-04-1.31672E-13
 -1      2101 1.46799E-02 6.60231E-04-1.29988E-13
 -1      2102 1.47756E-02 5.19722E-04-1.31857E-13
 -1      2103 1.47836E-02 5.61876E-04-1.31794E-13
 -1      2104 1.46639E-02 5.75922E-04-1.30114E-13
 -1      2105 1.47600E-02 4.36844E-04-1.31988E-13
 -1      2106 1.47678E-02 4.78283E-04-1.31919E-13
 -1      2107 1.46481E-02 4.92328E-04-1.30242E-13
 -1      2108 1.47440E-02 3.52542E-04-1.32125E-13
 -1      2109 1.47520E-02 3.94693E-04-1.32057E-13
 -1      2110 1.46323E-02 4.08737E-04-1.30373E-13
 -1      2111 1.47281E-02 2.68243E-04-1.32265E-13
 -1      2112 1.47360E-02 3.10392E-04-1.32194E-13
 -1      2113 1.46163E-02 3.24435E-04-1.30511E-13
 -1      2114 1.47121E-02 1.83949E-04-1.32403E-13
 -1      2115 1.47201E-02 2.26096E-04-1.32334E-13
 -1      2116 1.46004E-02 2.40138E-04-1.30652E-13
 -1      2117 4.46641E-03 2.51586E-04-8.37764E-15
 -1      2118 4.60319E-03 2.04975E-04-8.60762E-15
 -1      2119 4.84966E-03 1.20212E-04-9.16272E-15
 -1      2120 4.84164E-03 1.09353E-04-9.13113E-15
 -1      2121 4.71402E-03 1.67288E-04-8.81441E-15
 -1      2122 4.79597E-03 1.43526E-04-9.02608E-15
 -1      2123 4.65593E-03 1.74573E-04-9.14150E-15
 -1      2124 4.12204E-03 4.00357E-04-7.70322E-15
 -1      2125 4.29043E-03 3.26866E-04-8.00006E-15
 -1      2126 3.74608E-03 5.84155E-04-6.97847E-15
 -1      2127 3.92204E-03 4.94538E-04-7.32403E-15
 -1      2128 3.48734E-04-4.33655E-05-2.08722E-16
 -1      2129 3.63917E-04-6.75593E-05-2.04616E-16
 -1      2130 5.05038E-04-1.20862E-04-3.00202E-16
 -1      2131 4.63675E-04-5.73428E-05-3.10570E-16
 -1      2132 3.01645E-03 9.20232E-04-5.30652E-15
 -1      2133 3.17350E-03 8.61552E-04-5.70298E-15
 -1      2134 2.69073E-03 9.66953E-04-4.49738E-15
 -1      2135 2.83806E-03 9.58723E-04-4.86931E-15
 -1      2136 2.36676E-03 8.97768E-04-3.75053E-15
 -1      2137 2.51633E-03 9.44539E-04-4.08869E-15
 -1      2138 2.00677E-03 7.25219E-04-3.07973E-15
 -1      2139 2.17264E-03 8.15150E-04-3.36829E-15
 -1      2140 1.62668E-03 5.10354E-04-2.54469E-15
 -1      2141 1.80350E-03 6.12741E-04-2.77538E-15
 -1      2142 1.24025E-03 3.09578E-04-2.13505E-15
 -1      2143 1.41950E-03 4.02311E-04-2.32159E-15
 -1      2144 8.78189E-04 1.57469E-04-1.82771E-15
 -1      2145 1.03204E-03 2.12779E-04-1.93654E-15
 -1      2146 6.33521E-04 8.71506E-05-1.67331E-15
 -1      2147 7.37403E-04 1.15298E-04-1.74474E-15
 -1      2148 5.02589E-04 5.33238E-05-1.55816E-15
 -1      2149 5.50738E-04 6.21519E-05-1.59834E-15
 -1      2150 5.12470E-04 4.07138E-05-1.61600E-15
 -1      2151 4.87904E-04 4.58153E-05-1.57789E-15
 -1      2152 6.54648E-04 9.14940E-06-1.73574E-15
 -1      2153 5.71951E-04 2.70043E-05-1.66678E-15
 -1      2154 9.02555E-04-6.92125E-05-1.96312E-15
 -1      2155 7.74852E-04-2.75453E-05-1.84810E-15
 -1      2156 1.22570E-03-1.99081E-04-2.28108E-15
 -1      2157 1.06789E-03-1.30789E-04-2.11621E-15
 -1      2158 1.59995E-03-3.80577E-04-2.72593E-15
 -1      2159 1.42416E-03-2.89108E-04-2.49662E-15
 -1      2160 1.98073E-03-5.77016E-04-3.30820E-15
 -1      2161 1.79975E-03-4.82849E-04-3.01347E-15
 -1      2162 2.35445E-03-7.34085E-04-4.07874E-15
 -1      2163 2.19987E-03-6.75384E-04-3.72266E-15
 -1      2164 2.68074E-03-7.74190E-04-4.90119E-15
 -1      2165 2.53703E-03-7.70022E-04-4.52389E-15
 -1      2166 2.99787E-03-7.03802E-04-5.73714E-15
 -1      2167 2.84026E-03-7.52012E-04-5.31110E-15
 -1      2168 2.74930E-03-7.75271E-04-5.14893E-15
 -1      2169 3.41705E-03-5.16787E-04-6.65798E-15
 -1      2170 3.23197E-03-6.08411E-04-6.27089E-15
 -1      2171 3.79371E-03-3.14107E-04-7.49268E-15
 -1      2172 3.60963E-03-4.13137E-04-7.12113E-15
 -1      2173 4.21141E-03-1.21297E-04-8.17293E-15
 -1      2174 4.02709E-03-2.02495E-04-7.89563E-15
 -1      2175 4.53811E-03 7.03743E-06-8.68235E-15
 -1      2176 4.38374E-03-5.14298E-05-8.42475E-15
 -1      2177 4.28191E-03-6.63111E-05-8.66841E-15
 -1      2178 4.78767E-03 8.59857E-05-9.00290E-15
 -1      2179 4.69669E-03 6.07336E-05-8.90041E-15
 -1      2180 3.37446E-03 7.74394E-04-6.16019E-15
 -1      2181 3.54624E-03 6.86640E-04-6.54061E-15
 -1      2182 3.62997E-03 6.29105E-04-6.93256E-15
 -1      2183 7.41628E-04-3.43255E-04-3.37986E-16
 -1      2184 3.25569E-03 8.23303E-04-6.02483E-15
 -1      2185 8.01989E-04-3.38760E-04-4.47342E-16
 -1      2186 4.83745E-03 1.28121E-04-9.49254E-15
 -1      2187 4.86309E-03 1.24351E-04-9.96573E-15
 -1      2188 4.81042E-03 1.33724E-04-9.82268E-15
 -1      2189 4.37702E-03 2.70519E-04-8.53968E-15
 -1      2190 1.46640E-02 1.47812E-04-1.31902E-13
 -1      2191 4.82276E-03 1.06171E-04-9.50489E-15
 -1      2192 4.01042E-03 4.32894E-04-7.76652E-15
 -1      2193 4.61484E-03 4.85926E-05-9.15068E-15
 -1      2194 3.89456E-03-2.42310E-04-7.99332E-15
 -1      2195 3.09006E-03-6.66526E-04-6.09566E-15
 -1      2196 2.98344E-03-7.12890E-04-5.91980E-15
 -1      2197 3.17787E-03-6.20043E-04-6.46263E-15
 -1      2198 2.45255E-03-7.64702E-04-4.29209E-15
 -1      2199 2.10069E-03-6.29651E-04-3.44337E-15
 -1      2200 1.71656E-03-4.22579E-04-2.76533E-15
 -1      2201 1.34442E-03-2.28256E-04-2.28410E-15
 -1      2202 9.95404E-04-7.94632E-05-1.93428E-15
 -1      2203 7.15649E-04 9.29688E-06-1.68301E-15
 -1      2204 5.39097E-04 4.28779E-05-1.53048E-15
 -1      2205 4.87664E-04 4.63852E-05-1.46251E-15
 -1      2206 5.90969E-04 5.65004E-05-1.51457E-15
 -1      2207 8.10548E-04 1.11167E-04-1.66323E-15
 -1      2208 1.14350E-03 2.38290E-04-1.92346E-15
 -1      2209 1.54456E-03 4.42201E-04-2.32658E-15
 -1      2210 1.92563E-03 6.65362E-04-2.83078E-15
 -1      2211 2.28636E-03 8.64643E-04-3.49823E-15
 -1      2212 2.91735E-03 9.51813E-04-5.12443E-15
 -1      2213 2.61231E-03 9.69485E-04-4.28054E-15
 -1      2214 3.49418E-03-4.57005E-04-7.10766E-15
 -1      2215 1.27354E-03 5.34704E-04-7.94287E-16
 -1      2216 1.09016E-03 4.51634E-04-5.81512E-16
 -1      2217 4.18089E-04 3.33885E-05-4.39143E-16
 -1      2218 4.61043E-04 1.72328E-05-4.41867E-16
 -1      2219 5.04224E-04-6.94364E-06-4.44089E-16
 -1      2220 5.43125E-04-3.64141E-05-4.44740E-16
 -1      2221 5.90971E-04-8.80058E-06-5.99415E-16
 -1      2222 2.91563E-04 2.28784E-05-3.97096E-16
 -1      2223 3.02191E-04 3.37913E-05-4.00240E-16
 -1      2224 3.12729E-04 3.27167E-08-3.91038E-16
 -1      2225 2.95095E-04 9.88481E-06-3.94067E-16
 -1      2226 3.32366E-04 1.99038E-05-5.05286E-16
 -1      2227 3.86334E-04-1.37880E-06-3.92454E-16
 -1      2228 3.47402E-04-4.43407E-06-3.96337E-16
 -1      2229 4.75762E-04 2.94904E-05-3.82249E-16
 -1      2230 4.30955E-04 1.01598E-05-3.88131E-16
 -1      2231 4.83704E-04 1.49899E-05-5.09168E-16
 -1      2232 5.59466E-04 8.81063E-05-3.65498E-16
 -1      2233 5.19459E-04 5.62767E-05-3.75148E-16
 -1      2234 5.95236E-04 6.49088E-05-4.96416E-16
 -1      2235 6.29253E-04 1.64155E-04-3.37729E-16
 -1      2236 5.96077E-04 1.24708E-04-3.53382E-16
 -1      2237 6.92233E-04 1.41592E-04-4.74393E-16
 -1      2238 1.63623E-03 7.07304E-04-1.33418E-15
 -1      2239 1.45605E-03 6.20343E-04-1.04476E-15
 -1      2240 1.32614E-03 5.26571E-04-9.56971E-16
 -1      2241 1.10315E-03-4.39913E-04-8.49350E-16
 -1      2242 1.27907E-03-5.12763E-04-1.11715E-15
 -1      2243 3.17776E-03 8.65358E-04-5.96043E-15
 -1      2244 3.34314E-03 7.79192E-04-6.42871E-15
 -1      2245 1.45404E-03-5.85523E-04-1.42577E-15
 -1      2246 1.62697E-03-6.56675E-04-1.77603E-15
 -1      2247 1.34207E-03-5.01833E-04-1.29302E-15
 -1      2248 1.79758E-03-7.25037E-04-2.16794E-15
 -1      2249 1.96518E-03-7.87375E-04-2.60252E-15
 -1      2250 1.69346E-03-6.46935E-04-1.99495E-15
 -1      2251 2.12923E-03-8.41623E-04-3.07987E-15
 -1      2252 2.29060E-03-8.83936E-04-3.60084E-15
 -1      2253 2.03582E-03-7.77685E-04-2.86444E-15
 -1      2254 2.44856E-03-9.12453E-04-4.16513E-15
 -1      2255 2.60582E-03-9.24759E-04-4.77301E-15
 -1      2256 2.36484E-03-8.68270E-04-3.90654E-15
 -1      2257 2.76165E-03-9.20676E-04-5.42364E-15
 -1      2258 2.91931E-03-9.01143E-04-6.11655E-15
 -1      2259 2.68446E-03-8.94415E-04-5.12364E-15
 -1      2260 3.07801E-03-8.67889E-04-6.85056E-15
 -1      2261 3.23953E-03-8.24537E-04-7.62472E-15
 -1      2262 3.00547E-03-8.51210E-04-6.51154E-15
 -1      2263 3.40315E-03-7.73833E-04-8.43833E-15
 -1      2264 3.56857E-03-7.19731E-04-9.28951E-15
 -1      2265 3.33600E-03-7.57885E-04-8.06256E-15
 -1      2266 3.73543E-03-6.64755E-04-1.01773E-14
 -1      2267 3.90236E-03-6.11421E-04-1.11008E-14
 -1      2268 3.67489E-03-6.44811E-04-9.76708E-15
 -1      2269 4.06948E-03-5.61345E-04-1.20575E-14
 -1      2270 4.23531E-03-5.15516E-04-1.30476E-14
 -1      2271 4.01515E-03-5.36706E-04-1.16144E-14
 -1      2272 4.40031E-03-4.74638E-04-1.40693E-14
 -1      2273 4.56344E-03-4.38655E-04-1.51226E-14
 -1      2274 4.35023E-03-4.46306E-04-1.35947E-14
 -1      2275 4.72526E-03-4.07631E-04-1.62055E-14
 -1      2276 4.88517E-03-3.81084E-04-1.73174E-14
 -1      2277 4.67692E-03-3.76789E-04-1.56992E-14
 -1      2278 5.04368E-03-3.58716E-04-1.84587E-14
 -1      2279 5.20050E-03-3.39960E-04-1.96261E-14
 -1      2280 4.99496E-03-3.26190E-04-1.79207E-14
 -1      2281 5.35600E-03-3.24373E-04-2.08211E-14
 -1      2282 5.51012E-03-3.11454E-04-2.20444E-14
 -1      2283 5.30555E-03-2.90702E-04-2.02538E-14
 -1      2284 5.66308E-03-3.00751E-04-2.32937E-14
 -1      2285 5.81492E-03-2.91868E-04-2.45686E-14
 -1      2286 5.61023E-03-2.66311E-04-2.26944E-14
 -1      2287 5.96577E-03-2.84414E-04-2.58689E-14
 -1      2288 6.11574E-03-2.78099E-04-2.71949E-14
 -1      2289 5.91042E-03-2.49497E-04-2.52411E-14
 -1      2290 6.26487E-03-2.72617E-04-2.85461E-14
 -1      2291 6.41329E-03-2.67762E-04-2.99216E-14
 -1      2292 6.20721E-03-2.37458E-04-2.78900E-14
 -1      2293 6.56102E-03-2.63316E-04-3.13209E-14
 -1      2294 6.70818E-03-2.59136E-04-3.27435E-14
 -1      2295 6.50139E-03-2.28097E-04-3.06362E-14
 -1      2296 6.85477E-03-2.55078E-04-3.41887E-14
 -1      2297 7.00091E-03-2.51049E-04-3.56589E-14
 -1      2298 6.79357E-03-2.19934E-04-3.34779E-14
 -1      2299 7.14659E-03-2.46960E-04-3.71534E-14
 -1      2300 7.29192E-03-2.42752E-04-3.86674E-14
 -1      2301 7.08419E-03-2.11979E-04-3.64129E-14
 -1      2302 7.43687E-03-2.38380E-04-4.02057E-14
 -1      2303 7.58155E-03-2.33808E-04-4.17665E-14
 -1      2304 7.37358E-03-2.03612E-04-3.94408E-14
 -1      2305 7.72593E-03-2.29020E-04-4.33467E-14
 -1      2306 7.87010E-03-2.23997E-04-4.49479E-14
 -1      2307 7.66202E-03-1.94487E-04-4.25550E-14
 -1      2308 8.01405E-03-2.18741E-04-4.65681E-14
 -1      2309 8.15783E-03-2.13244E-04-4.82075E-14
 -1      2310 7.94973E-03-1.84442E-04-4.57523E-14
 -1      2311 8.30144E-03-2.07520E-04-4.98669E-14
 -1      2312 8.44492E-03-2.01567E-04-5.15448E-14
 -1      2313 8.23686E-03-1.73440E-04-4.90259E-14
 -1      2314 8.58829E-03-1.95405E-04-5.32385E-14
 -1      2315 8.73155E-03-1.89037E-04-5.49502E-14
 -1      2316 8.52356E-03-1.61523E-04-5.23730E-14
 -1      2317 8.87473E-03-1.82483E-04-5.66790E-14
 -1      2318 9.01784E-03-1.75752E-04-5.84222E-14
 -1      2319 8.80994E-03-1.48774E-04-5.57904E-14
 -1      2320 9.16089E-03-1.68862E-04-6.01809E-14
 -1      2321 9.30389E-03-1.61821E-04-6.19536E-14
 -1      2322 9.09608E-03-1.35299E-04-5.92736E-14
 -1      2323 9.44684E-03-1.54648E-04-6.37358E-14
 -1      2324 9.58977E-03-1.47352E-04-6.55275E-14
 -1      2325 9.38205E-03-1.21206E-04-6.28096E-14
 -1      2326 9.73266E-03-1.39948E-04-6.73300E-14
 -1      2327 9.87553E-03-1.32444E-04-6.91437E-14
 -1      2328 9.66790E-03-1.06603E-04-6.63891E-14
 -1      2329 1.00184E-02-1.24854E-04-7.09654E-14
 -1      2330 1.01612E-02-1.17185E-04-7.27922E-14
 -1      2331 9.95367E-03-9.15871E-05-7.00077E-14
 -1      2332 1.03041E-02-1.09449E-04-7.46286E-14
 -1      2333 1.04469E-02-1.01652E-04-7.64704E-14
 -1      2334 1.02394E-02-7.62430E-05-7.36614E-14
 -1      2335 1.05897E-02-9.38034E-05-7.83193E-14
 -1      2336 1.07325E-02-8.59079E-05-8.01748E-14
 -1      2337 1.05251E-02-6.06433E-05-7.73434E-14
 -1      2338 1.08753E-02-7.79736E-05-8.20346E-14
 -1      2339 1.10181E-02-7.00044E-05-8.38980E-14
 -1      2340 1.08108E-02-4.48483E-05-8.10509E-14
 -1      2341 1.11610E-02-6.20065E-05-8.57632E-14
 -1      2342 1.13038E-02-5.39830E-05-8.76313E-14
 -1      2343 1.10964E-02-2.89067E-05-8.47763E-14
 -1      2344 1.14466E-02-4.59388E-05-8.95005E-14
 -1      2345 1.15894E-02-3.78764E-05-9.13702E-14
 -1      2346 1.13821E-02-1.28574E-05-8.85125E-14
 -1      2347 1.17322E-02-2.97994E-05-9.32371E-14
 -1      2348 1.18750E-02-2.17097E-05-9.51063E-14
 -1      2349 1.16677E-02 3.26918E-06-9.22498E-14
 -1      2350 1.20179E-02-1.36102E-05-9.69773E-14
 -1      2351 1.21607E-02-5.50213E-06-9.88480E-14
 -1      2352 1.19534E-02 1.94497E-05-9.59890E-14
 -1      2353 1.23035E-02 2.61236E-06-1.00720E-13
 -1      2354 1.24464E-02 1.07322E-05-1.02592E-13
 -1      2355 1.22391E-02 3.56667E-05-9.97328E-14
 -1      2356 1.25892E-02 1.88560E-05-1.04467E-13
 -1      2357 1.27320E-02 2.69828E-05-1.06346E-13
 -1      2358 1.25248E-02 5.19070E-05-1.03479E-13
 -1      2359 1.28749E-02 3.51118E-05-1.08227E-13
 -1      2360 1.30177E-02 4.32422E-05-1.10109E-13
 -1      2361 1.28104E-02 6.81612E-05-1.07233E-13
 -1      2362 1.31606E-02 5.13734E-05-1.11993E-13
 -1      2363 1.33034E-02 5.95050E-05-1.13884E-13
 -1      2364 1.30961E-02 8.44223E-05-1.10998E-13
 -1      2365 1.34462E-02 6.76364E-05-1.15777E-13
 -1      2366 1.35891E-02 7.57673E-05-1.17669E-13
 -1      2367 1.33818E-02 1.00686E-04-1.14772E-13
 -1      2368 1.37319E-02 8.38974E-05-1.19564E-13
 -1      2369 1.38748E-02 9.20265E-05-1.21459E-13
 -1      2370 1.36675E-02 1.16948E-04-1.18558E-13
 -1      2371 1.40177E-02 1.00154E-04-1.23357E-13
 -1      2372 1.41605E-02 1.08281E-04-1.25256E-13
 -1      2373 1.39532E-02 1.33206E-04-1.22347E-13
 -1      2374 4.61401E-03 1.83945E-04-9.56921E-15
 -1      2375 4.71689E-03 1.58081E-04-9.78803E-15
 -1      2376 2.32734E-03 1.02038E-03-2.89893E-15
 -1      2377 2.15995E-03 9.54875E-04-2.44488E-15
 -1      2378 2.65181E-03 1.10303E-03-3.93679E-15
 -1      2379 2.49026E-03 1.07108E-03-3.39636E-15
 -1      2380 2.39309E-03 1.01327E-03-3.20195E-15
 -1      2381 2.97173E-03 1.10721E-03-5.14782E-15
 -1      2382 2.81082E-03 1.11495E-03-4.52081E-15
 -1      2383 2.72301E-03 1.08039E-03-4.29032E-15
 -1      2384 3.29849E-03 1.04264E-03-6.52823E-15
 -1      2385 3.13337E-03 1.08166E-03-5.81726E-15
 -1      2386 3.05184E-03 1.06135E-03-5.55315E-15
 -1      2387 3.63608E-03 9.40902E-04-8.07061E-15
 -1      2388 3.46610E-03 9.94075E-04-7.27899E-15
 -1      2389 3.39098E-03 9.76357E-04-6.98420E-15
 -1      2390 3.98008E-03 8.35398E-04-9.76541E-15
 -1      2391 3.80797E-03 8.86934E-04-8.90013E-15
 -1      2392 3.74032E-03 8.64901E-04-8.57490E-15
 -1      2393 4.32366E-03 7.47818E-04-1.15998E-14
 -1      2394 4.15261E-03 7.88628E-04-1.06653E-14
 -1      2395 4.09147E-03 7.60640E-04-1.03137E-14
 -1      2396 4.66195E-03 6.86472E-04-1.35660E-14
 -1      2397 4.49389E-03 7.13806E-04-1.25670E-14
 -1      2398 4.43642E-03 6.80750E-04-1.21886E-14
 -1      2399 4.99297E-03 6.50818E-04-1.56565E-14
 -1      2400 4.82856E-03 6.65678E-04-1.45960E-14
 -1      2401 4.77155E-03 6.28862E-04-1.41905E-14
 -1      2402 5.31656E-03 6.36357E-04-1.78661E-14
 -1      2403 5.15575E-03 6.41273E-04-1.67474E-14
 -1      2404 5.09677E-03 6.01744E-04-1.63146E-14
 -1      2405 5.63333E-03 6.37601E-04-2.01916E-14
 -1      2406 5.47577E-03 6.35330E-04-1.90145E-14
 -1      2407 5.41354E-03 5.93896E-04-1.85559E-14
 -1      2408 5.94416E-03 6.49572E-04-2.26256E-14
 -1      2409 5.78943E-03 6.42501E-04-2.13947E-14
 -1      2410 5.72361E-03 5.99793E-04-2.09093E-14
 -1      2411 6.24991E-03 6.68313E-04-2.51682E-14
 -1      2412 6.09760E-03 6.58289E-04-2.38839E-14
 -1      2413 6.02842E-03 6.14816E-04-2.33723E-14
 -1      2414 6.55138E-03 6.90922E-04-2.78172E-14
 -1      2415 6.40111E-03 6.79272E-04-2.64794E-14
 -1      2416 6.32910E-03 6.35430E-04-2.59436E-14
 -1      2417 6.84931E-03 7.15390E-04-3.05666E-14
 -1      2418 6.70073E-03 7.03019E-04-2.91795E-14
 -1      2419 6.62648E-03 6.59095E-04-2.86181E-14
 -1      2420 7.14434E-03 7.40404E-04-3.34135E-14
 -1      2421 6.99714E-03 7.27891E-04-3.19779E-14
 -1      2422 6.92121E-03 6.84081E-04-3.13929E-14
 -1      2423 7.43704E-03 7.65151E-04-3.63548E-14
 -1      2424 7.29094E-03 7.52849E-04-3.48733E-14
 -1      2425 7.21381E-03 7.09270E-04-3.42639E-14
 -1      2426 7.72788E-03 7.89173E-04-3.93821E-14
 -1      2427 7.58265E-03 7.77275E-04-3.78589E-14
 -1      2428 7.50470E-03 7.33987E-04-3.72271E-14
 -1      2429 8.01728E-03 8.12251E-04-4.24934E-14
 -1      2430 7.87273E-03 8.00842E-04-4.09267E-14
 -1      2431 7.79425E-03 7.57863E-04-4.02752E-14
 -1      2432 8.30558E-03 8.34316E-04-4.56861E-14
 -1      2433 8.16154E-03 8.23414E-04-4.40795E-14
 -1      2434 8.08274E-03 7.80738E-04-4.34059E-14
 -1      2435 8.59304E-03 8.55396E-04-4.89552E-14
 -1      2436 8.44939E-03 8.44979E-04-4.73117E-14
 -1      2437 8.37042E-03 8.02581E-04-4.66170E-14
 -1      2438 8.87989E-03 8.75572E-04-5.22957E-14
 -1      2439 8.73653E-03 8.65594E-04-5.06174E-14
 -1      2440 8.65749E-03 8.23442E-04-4.99024E-14
 -1      2441 9.16630E-03 8.94950E-04-5.57000E-14
 -1      2442 9.02314E-03 8.85356E-04-5.39902E-14
 -1      2443 8.94410E-03 8.43415E-04-5.32560E-14
 -1      2444 9.45240E-03 9.13647E-04-5.91625E-14
 -1      2445 9.30939E-03 9.04379E-04-5.74244E-14
 -1      2446 9.23038E-03 8.62614E-04-5.66713E-14
 -1      2447 9.73829E-03 9.31777E-04-6.26761E-14
 -1      2448 9.59537E-03 9.22778E-04-6.09128E-14
 -1      2449 9.51642E-03 8.81157E-04-6.01438E-14
 -1      2450 1.00240E-02 9.49444E-04-6.62378E-14
 -1      2451 9.88118E-03 9.40663E-04-6.44509E-14
 -1      2452 9.80229E-03 8.99158E-04-6.36672E-14
 -1      2453 1.03097E-02 9.66740E-04-6.98509E-14
 -1      2454 1.01669E-02 9.58134E-04-6.80375E-14
 -1      2455 1.00881E-02 9.16719E-04-6.72404E-14
 -1      2456 1.05953E-02 9.83745E-04-7.35058E-14
 -1      2457 1.04525E-02 9.75275E-04-7.16733E-14
 -1      2458 1.03738E-02 9.33931E-04-7.08629E-14
 -1      2459 1.08809E-02 1.00053E-03-7.71983E-14
 -1      2460 1.07381E-02 9.92161E-04-7.53487E-14
 -1      2461 1.06594E-02 9.50870E-04-7.45281E-14
 -1      2462 1.11665E-02 1.01714E-03-8.09124E-14
 -1      2463 1.10237E-02 1.00885E-03-7.90524E-14
 -1      2464 1.09451E-02 9.67599E-04-7.82250E-14
 -1      2465 1.14521E-02 1.03362E-03-8.46499E-14
 -1      2466 1.13093E-02 1.02539E-03-8.27801E-14
 -1      2467 1.12307E-02 9.84171E-04-8.19456E-14
 -1      2468 1.17377E-02 1.05002E-03-8.84015E-14
 -1      2469 1.15949E-02 1.04183E-03-8.65230E-14
 -1      2470 1.15163E-02 1.00063E-03-8.56842E-14
 -1      2471 1.20233E-02 1.06634E-03-9.21668E-14
 -1      2472 1.18805E-02 1.05819E-03-9.02819E-14
 -1      2473 1.18019E-02 1.01700E-03-8.94364E-14
 -1      2474 1.23089E-02 1.08263E-03-9.59441E-14
 -1      2475 1.21661E-02 1.07449E-03-9.40544E-14
 -1      2476 1.20876E-02 1.03331E-03-9.32024E-14
 -1      2477 1.25946E-02 1.09888E-03-9.97305E-14
 -1      2478 1.24518E-02 1.09076E-03-9.78368E-14
 -1      2479 1.23732E-02 1.04959E-03-9.69803E-14
 -1      2480 1.28802E-02 1.11512E-03-1.03530E-13
 -1      2481 1.27374E-02 1.10700E-03-1.01629E-13
 -1      2482 1.26589E-02 1.06583E-03-1.00767E-13
 -1      2483 1.31659E-02 1.13134E-03-1.07343E-13
 -1      2484 1.30231E-02 1.12323E-03-1.05434E-13
 -1      2485 1.29446E-02 1.08206E-03-1.04562E-13
 -1      2486 1.34516E-02 1.14756E-03-1.11170E-13
 -1      2487 1.33087E-02 1.13945E-03-1.09255E-13
 -1      2488 1.32303E-02 1.09829E-03-1.08372E-13
 -1      2489 1.37373E-02 1.16378E-03-1.15013E-13
 -1      2490 1.35944E-02 1.15567E-03-1.13088E-13
 -1      2491 1.35160E-02 1.11451E-03-1.12199E-13
 -1      2492 1.40230E-02 1.18001E-03-1.18864E-13
 -1      2493 1.38801E-02 1.17190E-03-1.16939E-13
 -1      2494 1.38017E-02 1.13073E-03-1.16038E-13
 -1      2495 1.43087E-02 1.19624E-03-1.22722E-13
 -1      2496 1.41658E-02 1.18812E-03-1.20793E-13
 -1      2497 1.40874E-02 1.14695E-03-1.19887E-13
 -1      2498 1.45944E-02 1.21247E-03-1.26587E-13
 -1      2499 1.44515E-02 1.20435E-03-1.24657E-13
 -1      2500 1.43731E-02 1.16318E-03-1.23745E-13
 -1      2501 1.47423E-02 1.22202E-03-1.28580E-13
 -1      2502 1.46001E-02 8.85047E-04-1.27993E-13
 -1      2503 1.46081E-02 9.27199E-04-1.27934E-13
 -1      2504 1.45841E-02 8.00740E-04-1.28112E-13
 -1      2505 1.45921E-02 8.42894E-04-1.28051E-13
 -1      2506 1.44724E-02 8.56939E-04-1.26358E-13
 -1      2507 1.46318E-02 1.05222E-03-1.27753E-13
 -1      2508 1.46398E-02 1.09437E-03-1.27691E-13
 -1      2509 1.46160E-02 9.68992E-04-1.27875E-13
 -1      2510 1.46239E-02 1.01043E-03-1.27815E-13
 -1      2511 1.45042E-02 1.02447E-03-1.26114E-13
 -1      2512 1.44883E-02 9.40886E-04-1.26236E-13
 -1      2513 1.45681E-02 7.16431E-04-1.28237E-13
 -1      2514 1.45761E-02 7.58586E-04-1.28175E-13
 -1      2515 1.44564E-02 7.72632E-04-1.26484E-13
 -1      2516 1.45522E-02 6.32121E-04-1.28366E-13
 -1      2517 1.45601E-02 6.74276E-04-1.28300E-13
 -1      2518 1.44404E-02 6.88322E-04-1.26615E-13
 -1      2519 1.45362E-02 5.47812E-04-1.28496E-13
 -1      2520 1.45442E-02 5.89966E-04-1.28431E-13
 -1      2521 1.44244E-02 6.04011E-04-1.26747E-13
 -1      2522 1.45205E-02 4.64933E-04-1.28626E-13
 -1      2523 1.45283E-02 5.06372E-04-1.28561E-13
 -1      2524 1.44086E-02 5.20416E-04-1.26879E-13
 -1      2525 1.45046E-02 3.80628E-04-1.28760E-13
 -1      2526 1.45125E-02 4.22780E-04-1.28692E-13
 -1      2527 1.43928E-02 4.36822E-04-1.27013E-13
 -1      2528 1.44886E-02 2.96327E-04-1.28898E-13
 -1      2529 1.44966E-02 3.38477E-04-1.28829E-13
 -1      2530 1.43769E-02 3.52518E-04-1.27148E-13
 -1      2531 1.44727E-02 2.12031E-04-1.29038E-13
 -1      2532 1.44806E-02 2.54179E-04-1.28968E-13
 -1      2533 1.43609E-02 2.68218E-04-1.27287E-13
 -1      2534 1.45363E-02 1.42212E-04-1.30196E-13
 -1      2535 4.85298E-03 1.14065E-04-1.00500E-14
 -1      2536 4.79756E-03 1.05083E-04-9.91858E-15
 -1      2537 1.98903E-03 8.77862E-04-2.03331E-15
 -1      2538 1.81434E-03 7.94333E-04-1.66346E-15
 -1      2539 2.04987E-03 8.75075E-04-2.28776E-15
 -1      2540 4.28219E-03 3.00673E-04-8.73355E-15
 -1      2541 4.44679E-03 2.38711E-04-9.12730E-15
 -1      2542 4.69072E-03 7.88991E-05-9.72278E-15
 -1      2543 4.54101E-03 3.86026E-05-9.49359E-15
 -1      2544 7.00613E-04-2.59789E-04-4.05180E-16
 -1      2545 9.37443E-04-3.64780E-04-6.45954E-16
 -1      2546 1.00036E-03-3.55441E-04-7.78837E-16
 -1      2547 6.77701E-04-2.17000E-04-4.23096E-16
 -1      2548 3.99879E-03-1.78126E-04-8.58008E-15
 -1      2549 3.79340E-03-2.83124E-04-8.15724E-15
 -1      2550 2.52795E-03-7.88231E-04-4.51174E-15
 -1      2551 2.38368E-03-7.54465E-04-4.07159E-15
 -1      2552 3.39778E-04 4.19072E-05-4.32122E-16
 -1      2553 3.75151E-04 4.18085E-05-4.35571E-16
 -1      2554 4.77637E-04 3.61789E-05-5.90050E-16
 -1      2555 2.54574E-03 9.65234E-04-4.05624E-15
 -1      2556 2.68266E-03 9.86487E-04-4.45859E-15
 -1      2557 3.55088E-03-4.14955E-04-7.53094E-15
 -1      2558 3.37971E-03-5.13378E-04-7.05517E-15
 -1      2559 2.85652E-03 9.75908E-04-4.98448E-15
 -1      2560 2.99705E-03 9.37406E-04-5.42519E-15
 -1      2561 2.21611E-03 8.28220E-04-3.25041E-15
 -1      2562 2.37516E-03 9.08536E-04-3.61888E-15
 -1      2563 1.84666E-03 6.07177E-04-2.58323E-15
 -1      2564 2.01933E-03 7.16352E-04-2.86803E-15
 -1      2565 1.45241E-03 3.73321E-04-2.08251E-15
 -1      2566 1.63176E-03 4.77391E-04-2.28426E-15
 -1      2567 1.06510E-03 1.84217E-04-1.71259E-15
 -1      2568 1.25653E-03 2.71938E-04-1.89201E-15
 -1      2569 1.34252E-03 3.12060E-04-1.85365E-15
 -1      2570 7.37072E-04 7.39157E-05-1.48847E-15
 -1      2571 8.61938E-04 1.07624E-04-1.55853E-15
 -1      2572 5.53244E-04 3.93606E-05-1.34774E-15
 -1      2573 6.33462E-04 4.98808E-05-1.41542E-15
 -1      2574 6.72046E-04 4.97329E-05-1.31654E-15
 -1      2575 4.77808E-04 4.58067E-05-1.32640E-15
 -1      2576 4.88531E-04 3.71546E-05-1.30693E-15
 -1      2577 5.64587E-04 4.82544E-05-1.42659E-15
 -1      2578 5.08603E-04 4.86810E-05-1.38241E-15
 -1      2579 7.75898E-04 9.59760E-06-1.58942E-15
 -1      2580 6.63282E-04 3.39322E-05-1.48996E-15
 -1      2581 1.05347E-03-8.38894E-05-1.85018E-15
 -1      2582 9.05041E-04-3.02994E-05-1.71449E-15
 -1      2583 8.23258E-04-1.62575E-07-1.51078E-15
 -1      2584 1.42432E-03-2.54266E-04-2.23466E-15
 -1      2585 1.25146E-03-1.68133E-04-2.03990E-15
 -1      2586 1.80001E-03-4.64756E-04-2.77858E-15
 -1      2587 1.63098E-03-3.65507E-04-2.51130E-15
 -1      2588 2.17501E-03-6.72848E-04-3.52206E-15
 -1      2589 1.99853E-03-5.76617E-04-3.12864E-15
 -1      2590 2.81337E-03-7.69261E-04-5.42879E-15
 -1      2591 2.68864E-03-7.91118E-04-5.01590E-15
 -1      2592 4.36346E-03-2.23842E-05-9.23273E-15
 -1      2593 4.20716E-03-8.40132E-05-8.96664E-15
 -1      2594 3.93550E-03 4.61310E-04-7.92720E-15
 -1      2595 4.11404E-03 3.74136E-04-8.32388E-15
 -1      2596 4.21490E-03 3.36637E-04-8.89727E-15
 -1      2597 9.47232E-04 3.93276E-04-4.32109E-16
 -1      2598 7.62248E-04 3.13302E-04-2.85958E-16
 -1      2599 7.18339E-04 2.73909E-04-2.91881E-16
 -1      2600 1.00108E-03 3.85110E-04-5.54149E-16
 -1      2601 3.53172E-03 6.78747E-04-6.95728E-15
 -1      2602 3.70535E-03 5.81107E-04-7.40979E-15
 -1      2603 3.71941E-04 4.20157E-05-5.45869E-16
 -1      2604 6.88442E-04-8.25500E-05-6.03101E-16
 -1      2605 5.77656E-04-7.08068E-05-4.43927E-16
 -1      2606 6.07215E-04-1.07453E-04-4.40538E-16
 -1      2607 3.81002E-04 1.97276E-06-5.07718E-16
 -1      2608 1.69179E-03 7.02233E-04-1.54259E-15
 -1      2609 6.84870E-04 2.27747E-04-3.19121E-16
 -1      2610 3.44730E-03 7.35170E-04-6.88178E-15
 -1      2611 3.83553E-03 5.21643E-04-7.94747E-15
 -1      2612 4.47704E-03 1.65947E-05-9.79879E-15
 -1      2613 4.10919E-03-1.30745E-04-9.13393E-15
 -1      2614 2.90499E-03-7.45249E-04-5.77213E-15
 -1      2615 4.78864E-03 1.46478E-04-1.02591E-14
 -1      2616 4.75403E-03 9.48430E-05-1.02671E-14
 -1      2617 4.54197E-03 2.14905E-04-9.76519E-15
 -1      2618 1.46638E-02 1.18084E-03-1.27670E-13
 -1      2619 1.46417E-02 1.14688E-03-1.27503E-13
 -1      2620 2.26380E-03-7.19061E-04-3.71635E-15
 -1      2621 1.43846E-02 1.18541E-04-1.28243E-13
 -1      2622 1.44407E-02 1.74320E-04-1.28766E-13
 -1      2623 1.43209E-02 1.88358E-04-1.27084E-13
 -1      2624 1.42569E-02 1.12937E-04-1.26540E-13
 -1      2625 1.89076E-03-5.24472E-04-2.84794E-15
 -1      2626 1.13106E-03-1.13658E-04-1.80493E-15
 -1      2627 4.87898E-03 1.21577E-04-1.03815E-14
 -1      2628 4.88255E-03 1.20147E-04-1.08014E-14
 -1      2629 4.88895E-03 1.25884E-04-1.07152E-14
 -1      2630 7.96188E-04 2.55285E-04-4.40295E-16
 -1      2631 6.04311E-04 4.58281E-05-1.33614E-15
 -1      2632 2.60334E-03-7.98349E-04-4.76873E-15
 -1      2633 5.03776E-04 3.13787E-05-1.20942E-15
 -1      2634 3.25937E-03-5.82132E-04-6.86273E-15
 -1      2635 9.58602E-04 1.34025E-04-1.52673E-15
 -1      2636 1.04571E-03 1.68275E-04-1.49253E-15
 -1      2637 8.61502E-04 9.78217E-05-1.35378E-15
 -1      2638 1.72996E-03 5.37880E-04-2.31617E-15
 -1      2639 2.11791E-03 7.77461E-04-2.97447E-15
 -1      2640 2.77591E-03 9.91334E-04-4.73422E-15
 -1      2641 3.68091E-03-3.48332E-04-8.09473E-15
 -1      2642 6.55163E-04-1.75955E-04-4.35592E-16
 -1      2643 3.10192E-03 9.07142E-04-5.80265E-15
 -1      2644 2.45976E-03 9.44409E-04-3.77961E-15
 -1      2645 4.79699E-04 4.75031E-05-1.22429E-15
 -1      2646 1.51112E-03-3.03535E-04-2.24508E-15
 -1      2647 1.45140E-02 1.11878E-03-1.25865E-13
 -1      2648 1.41925E-02 1.45991E-04-1.25527E-13
 -1      2649 3.80723E-04 1.82539E-05-6.47106E-16
 -1      2650 3.74924E-04 3.04085E-05-6.51849E-16
 -1      2651 7.47368E-04 1.16426E-04-6.51877E-16
 -1      2652 6.82417E-04 7.58420E-05-6.60957E-16
 -1      2653 6.11032E-04 4.23709E-05-6.67028E-16
 -1      2654 5.40371E-04 2.00289E-05-6.72151E-16
 -1      2655 7.58978E-04 8.58498E-05-8.48497E-16
 -1      2656 1.37988E-03 5.16409E-04-1.12586E-15
 -1      2657 1.19629E-03 4.32469E-04-8.68446E-16
 -1      2658 6.24604E-04 4.44405E-05-1.20317E-15
 -1      2659 5.40507E-04 5.16174E-05-1.15034E-15
 -1      2660 4.68879E-04 8.71829E-06-6.62922E-16
 -1      2661 4.15313E-04 8.55874E-06-6.55698E-16
 -1      2662 4.39792E-04 1.83529E-05-8.20165E-16
 -1      2663 5.76712E-04 2.55341E-05-8.42086E-16
 -1      2664 3.77642E-03 5.76551E-04-8.06828E-15
 -1      2665 3.97457E-03 4.68428E-04-8.60951E-15
 -1      2666 1.58616E-03-5.63976E-04-1.82408E-15
 -1      2667 1.76360E-03-6.37410E-04-2.21645E-15
 -1      2668 1.93903E-03-7.07906E-04-2.65091E-15
 -1      2669 2.11103E-03-7.69948E-04-3.12805E-15
 -1      2670 1.83527E-03-6.30375E-04-2.43989E-15
 -1      2671 2.27851E-03-8.20787E-04-3.64967E-15
 -1      2672 2.44347E-03-8.54260E-04-4.21480E-15
 -1      2673 2.18749E-03-7.65561E-04-3.39370E-15
 -1      2674 2.60480E-03-8.68884E-04-4.82393E-15
 -1      2675 2.76738E-03-8.62668E-04-5.47712E-15
 -1      2676 2.52379E-03-8.40482E-04-4.52442E-15
 -1      2677 2.92992E-03-8.36866E-04-6.17209E-15
 -1      2678 3.09666E-03-7.96015E-04-6.90911E-15
 -1      2679 2.85459E-03-8.25189E-04-5.83249E-15
 -1      2680 3.26628E-03-7.43004E-04-7.68674E-15
 -1      2681 3.43873E-03-6.84756E-04-8.50313E-15
 -1      2682 3.19628E-03-7.31663E-04-7.31030E-15
 -1      2683 3.61313E-03-6.24083E-04-9.35662E-15
 -1      2684 3.78738E-03-5.65300E-04-1.02471E-14
 -1      2685 3.55120E-03-6.04584E-04-8.94694E-15
 -1      2686 3.96133E-03-5.10168E-04-1.11716E-14
 -1      2687 4.13269E-03-4.60161E-04-1.21306E-14
 -1      2688 3.90819E-03-4.82715E-04-1.07299E-14
 -1      2689 4.30200E-03-4.16082E-04-1.31211E-14
 -1      2690 4.46791E-03-3.77511E-04-1.41426E-14
 -1      2691 4.25556E-03-3.84028E-04-1.26484E-14
 -1      2692 4.63122E-03-3.44642E-04-1.51949E-14
 -1      2693 4.79141E-03-3.16536E-04-1.62758E-14
 -1      2694 4.58810E-03-3.10936E-04-1.46922E-14
 -1      2695 4.94923E-03-2.93061E-04-1.73858E-14
 -1      2696 5.10462E-03-2.73315E-04-1.85237E-14
 -1      2697 4.90645E-03-2.59043E-04-1.68530E-14
 -1      2698 5.25813E-03-2.57001E-04-1.96879E-14
 -1      2699 5.40989E-03-2.43417E-04-2.08800E-14
 -1      2700 5.21369E-03-2.23061E-04-1.91251E-14
 -1      2701 5.56027E-03-2.32214E-04-2.20990E-14
 -1      2702 5.70947E-03-2.22890E-04-2.33447E-14
 -1      2703 5.51315E-03-1.98341E-04-2.15062E-14
 -1      2704 5.85768E-03-2.15113E-04-2.46172E-14
 -1      2705 6.00510E-03-2.08540E-04-2.59138E-14
 -1      2706 5.80751E-03-1.81217E-04-2.39937E-14
 -1      2707 6.15181E-03-2.02888E-04-2.72364E-14
 -1      2708 6.29800E-03-1.97929E-04-2.85837E-14
 -1      2709 6.09867E-03-1.68914E-04-2.65860E-14
 -1      2710 6.44368E-03-1.93443E-04-2.99548E-14
 -1      2711 6.58899E-03-1.89282E-04-3.13510E-14
 -1      2712 6.38788E-03-1.59391E-04-2.92772E-14
 -1      2713 6.73394E-03-1.85286E-04-3.27703E-14
 -1      2714 6.87863E-03-1.81364E-04-3.42118E-14
 -1      2715 6.67590E-03-1.51190E-04-3.20645E-14
 -1      2716 7.02304E-03-1.77409E-04-3.56781E-14
 -1      2717 7.16727E-03-1.73367E-04-3.71678E-14
 -1      2718 6.96318E-03-1.43313E-04-3.49465E-14
 -1      2719 7.31128E-03-1.69172E-04-3.86789E-14
 -1      2720 7.45516E-03-1.64795E-04-4.02119E-14
 -1      2721 7.25000E-03-1.35119E-04-3.79200E-14
 -1      2722 7.59887E-03-1.60204E-04-4.17673E-14
 -1      2723 7.74249E-03-1.55385E-04-4.33427E-14
 -1      2724 7.53652E-03-1.26228E-04-4.09815E-14
 -1      2725 7.88597E-03-1.50328E-04-4.49385E-14
 -1      2726 8.02938E-03-1.45030E-04-4.65533E-14
 -1      2727 7.82283E-03-1.16450E-04-4.41278E-14
 -1      2728 8.17270E-03-1.39494E-04-4.81886E-14
 -1      2729 8.31595E-03-1.33725E-04-4.98419E-14
 -1      2730 8.10899E-03-1.05724E-04-4.73545E-14
 -1      2731 8.45913E-03-1.27734E-04-5.15128E-14
 -1      2732 8.60227E-03-1.21529E-04-5.32011E-14
 -1      2733 8.39503E-03-9.40723E-05-5.06548E-14
 -1      2734 8.74535E-03-1.15127E-04-5.49077E-14
 -1      2735 8.88840E-03-1.08536E-04-5.66301E-14
 -1      2736 8.68100E-03-8.15681E-05-5.40279E-14
 -1      2737 9.03141E-03-1.01774E-04-5.83686E-14
 -1      2738 9.17439E-03-9.48513E-05-6.01218E-14
 -1      2739 8.96689E-03-6.83093E-05-5.74688E-14
 -1      2740 9.31734E-03-8.77856E-05-6.18868E-14
 -1      2741 9.46028E-03-8.05861E-05-6.36636E-14
 -1      2742 9.25274E-03-5.44038E-05-6.09674E-14
 -1      2743 9.60320E-03-7.32691E-05-6.54517E-14
 -1      2744 9.74610E-03-6.58432E-05-6.72487E-14
 -1      2745 9.53855E-03-3.99581E-05-6.45152E-14
 -1      2746 9.88899E-03-5.83231E-05-6.90547E-14
 -1      2747 1.00319E-02-5.07160E-05-7.08705E-14
 -1      2748 9.82434E-03-2.50713E-05-6.81050E-14
 -1      2749 1.01747E-02-4.30347E-05-7.26965E-14
 -1      2750 1.03176E-02-3.52853E-05-7.45294E-14
 -1      2751 1.01101E-02-9.83123E-06-7.17330E-14
 -1      2752 1.04605E-02-2.74786E-05-7.63693E-14
 -1      2753 1.06033E-02-1.96195E-05-7.82160E-14
 -1      2754 1.03958E-02 5.68613E-06-7.53964E-14
 -1      2755 1.07462E-02-1.17169E-05-8.00681E-14
 -1      2756 1.08890E-02-3.77489E-06-8.19269E-14
 -1      2757 1.06816E-02 2.14173E-05-7.90874E-14
 -1      2758 1.10319E-02 4.19958E-06-8.37871E-14
 -1      2759 1.11747E-02 1.22031E-05-8.56529E-14
 -1      2760 1.09673E-02 3.73102E-05-8.28009E-14
 -1      2761 1.13176E-02 2.02303E-05-8.75220E-14
 -1      2762 1.14604E-02 2.82785E-05-8.93923E-14
 -1      2763 1.12530E-02 5.33231E-05-8.65309E-14
 -1      2764 1.16032E-02 3.63436E-05-9.12631E-14
 -1      2765 1.17461E-02 4.44234E-05-9.31310E-14
 -1      2766 1.15387E-02 6.94230E-05-9.02718E-14
 -1      2767 1.18889E-02 5.25148E-05-9.50011E-14
 -1      2768 1.20318E-02 6.06162E-05-9.68733E-14
 -1      2769 1.18244E-02 8.55846E-05-9.40133E-14
 -1      2770 1.21746E-02 6.87254E-05-9.87451E-14
 -1      2771 1.23175E-02 7.68411E-05-1.00618E-13
 -1      2772 1.21102E-02 1.01788E-04-9.77556E-14
 -1      2773 1.24603E-02 8.49616E-05-1.02491E-13
 -1      2774 1.26032E-02 9.30861E-05-1.04365E-13
 -1      2775 1.23959E-02 1.18020E-04-1.01500E-13
 -1      2776 1.27460E-02 1.01213E-04-1.06242E-13
 -1      2777 1.28889E-02 1.09343E-04-1.08121E-13
 -1      2778 1.26816E-02 1.34269E-04-1.05252E-13
 -1      2779 1.30317E-02 1.17473E-04-1.10002E-13
 -1      2780 1.31746E-02 1.25605E-04-1.11886E-13
 -1      2781 1.29673E-02 1.50527E-04-1.09007E-13
 -1      2782 1.33174E-02 1.33737E-04-1.13773E-13
 -1      2783 1.34603E-02 1.41868E-04-1.15664E-13
 -1      2784 1.32530E-02 1.66789E-04-1.12774E-13
 -1      2785 1.36031E-02 1.49999E-04-1.17554E-13
 -1      2786 1.37460E-02 1.58130E-04-1.19445E-13
 -1      2787 1.35387E-02 1.83052E-04-1.16550E-13
 -1      2788 1.38888E-02 1.66259E-04-1.21338E-13
 -1      2789 1.40317E-02 1.74387E-04-1.23233E-13
 -1      2790 1.38244E-02 1.99312E-04-1.20331E-13
 -1      2791 1.93163E-03-5.66457E-04-2.85705E-15
 -1      2792 1.76165E-03-4.61856E-04-2.53154E-15
 -1      2793 2.34533E-03-7.62747E-04-3.93138E-15
 -1      2794 2.16102E-03-6.87244E-04-3.39767E-15
 -1      2795 2.46479E-03 1.00907E-03-3.50951E-15
 -1      2796 2.29240E-03 9.50907E-04-3.00622E-15
 -1      2797 3.49036E-03 9.02442E-04-7.44660E-15
 -1      2798 3.31218E-03 9.59771E-04-6.68561E-15
 -1      2799 3.85138E-03 7.83496E-04-9.08632E-15
 -1      2800 3.67115E-03 8.41870E-04-8.24717E-15
 -1      2801 3.60153E-03 8.19963E-04-7.91717E-15
 -1      2802 4.20763E-03 6.84092E-04-1.08673E-14
 -1      2803 4.03120E-03 7.30374E-04-9.95977E-15
 -1      2804 3.97192E-03 6.99126E-04-9.60359E-15
 -1      2805 4.55150E-03 6.14600E-04-1.27824E-14
 -1      2806 4.38166E-03 6.45707E-04-1.18090E-14
 -1      2807 4.32937E-03 6.08663E-04-1.14282E-14
 -1      2808 4.88151E-03 5.73512E-04-1.48185E-14
 -1      2809 4.71834E-03 5.90956E-04-1.37852E-14
 -1      2810 4.66872E-03 5.51598E-04-1.33800E-14
 -1      2811 5.19981E-03 5.55298E-04-1.69767E-14
 -1      2812 5.04203E-03 5.62015E-04-1.58834E-14
 -1      2813 4.99136E-03 5.21730E-04-1.54524E-14
 -1      2814 5.50938E-03 5.53892E-04-1.92485E-14
 -1      2815 5.35554E-03 5.52879E-04-1.80981E-14
 -1      2816 5.30162E-03 5.12057E-04-1.76419E-14
 -1      2817 5.81276E-03 5.64071E-04-2.16311E-14
 -1      2818 5.66171E-03 5.57823E-04-2.04264E-14
 -1      2819 5.60363E-03 5.16491E-04-1.99440E-14
 -1      2820 6.11178E-03 5.81735E-04-2.41234E-14
 -1      2821 5.96271E-03 5.72176E-04-2.28636E-14
 -1      2822 5.90040E-03 5.30361E-04-2.23557E-14
 -1      2823 6.40765E-03 6.03843E-04-2.67211E-14
 -1      2824 6.26003E-03 5.92379E-04-2.54084E-14
 -1      2825 6.19387E-03 5.50168E-04-2.48759E-14
 -1      2826 6.70118E-03 6.28245E-04-2.94225E-14
 -1      2827 6.55465E-03 6.15856E-04-2.80594E-14
 -1      2828 6.48525E-03 5.73376E-04-2.75009E-14
 -1      2829 6.99290E-03 6.53490E-04-3.22222E-14
 -1      2830 6.84722E-03 6.40826E-04-3.08108E-14
 -1      2831 6.77520E-03 5.98212E-04-3.02288E-14
 -1      2832 7.28321E-03 6.78652E-04-3.51172E-14
 -1      2833 7.13820E-03 6.66121E-04-3.36572E-14
 -1      2834 7.06415E-03 6.23488E-04-3.30537E-14
 -1      2835 7.57240E-03 7.03184E-04-3.81002E-14
 -1      2836 7.42792E-03 6.91020E-04-3.65980E-14
 -1      2837 7.35235E-03 6.48452E-04-3.59694E-14
 -1      2838 7.86071E-03 7.26798E-04-4.11679E-14
 -1      2839 7.71664E-03 7.15117E-04-3.96244E-14
 -1      2840 7.63997E-03 6.72670E-04-3.89739E-14
 -1      2841 8.14832E-03 7.49385E-04-4.43202E-14
 -1      2842 8.00459E-03 7.38223E-04-4.27339E-14
 -1      2843 7.92712E-03 6.95928E-04-4.20634E-14
 -1      2844 8.43540E-03 7.70944E-04-4.75476E-14
 -1      2845 8.29192E-03 7.60291E-04-4.59239E-14
 -1      2846 8.21391E-03 7.18158E-04-4.52328E-14
 -1      2847 8.72207E-03 7.91543E-04-5.08489E-14
 -1      2848 8.57877E-03 7.81359E-04-4.91901E-14
 -1      2849 8.50042E-03 7.39384E-04-4.84781E-14
 -1      2850 9.00842E-03 8.11284E-04-5.42148E-14
 -1      2851 8.86527E-03 8.01515E-04-5.25238E-14
 -1      2852 8.78670E-03 7.59687E-04-5.17935E-14
 -1      2853 9.29455E-03 8.30285E-04-5.76421E-14
 -1      2854 9.15151E-03 8.20871E-04-5.59210E-14
 -1      2855 9.07281E-03 7.79173E-04-5.51727E-14
 -1      2856 9.58052E-03 8.48662E-04-6.11245E-14
 -1      2857 9.43755E-03 8.39545E-04-5.93767E-14
 -1      2858 9.35879E-03 7.97959E-04-5.86121E-14
 -1      2859 9.86637E-03 8.66527E-04-6.46596E-14
 -1      2860 9.72345E-03 8.57653E-04-6.28858E-14
 -1      2861 9.64468E-03 8.16161E-04-6.21063E-14
 -1      2862 1.01521E-02 8.83979E-04-6.82450E-14
 -1      2863 1.00093E-02 8.75300E-04-6.64464E-14
 -1      2864 9.93050E-03 8.33885E-04-6.56524E-14
 -1      2865 1.04379E-02 9.01105E-04-7.18776E-14
 -1      2866 1.02950E-02 8.92579E-04-7.00554E-14
 -1      2867 1.02163E-02 8.51226E-04-6.92487E-14
 -1      2868 1.07236E-02 9.17978E-04-7.55507E-14
 -1      2869 1.05807E-02 9.09569E-04-7.37089E-14
 -1      2870 1.05020E-02 8.68265E-04-7.28918E-14
 -1      2871 1.10092E-02 9.34657E-04-7.92526E-14
 -1      2872 1.08664E-02 9.26338E-04-7.73997E-14
 -1      2873 1.07877E-02 8.85072E-04-7.65718E-14
 -1      2874 1.12949E-02 9.51191E-04-8.29772E-14
 -1      2875 1.11521E-02 9.42940E-04-8.11124E-14
 -1      2876 1.10734E-02 9.01702E-04-8.02814E-14
 -1      2877 1.15806E-02 9.67620E-04-8.67181E-14
 -1      2878 1.14377E-02 9.59417E-04-8.48455E-14
 -1      2879 1.13591E-02 9.18201E-04-8.40079E-14
 -1      2880 1.18662E-02 9.83972E-04-9.04733E-14
 -1      2881 1.17234E-02 9.75804E-04-8.85935E-14
 -1      2882 1.16448E-02 9.34604E-04-8.77506E-14
 -1      2883 1.21519E-02 1.00027E-03-9.42392E-14
 -1      2884 1.20091E-02 9.92128E-04-9.23540E-14
 -1      2885 1.19305E-02 9.50938E-04-9.15081E-14
 -1      2886 1.24376E-02 1.01654E-03-9.80138E-14
 -1      2887 1.22947E-02 1.00841E-03-9.61261E-14
 -1      2888 1.22162E-02 9.67226E-04-9.52739E-14
 -1      2889 1.27233E-02 1.03278E-03-1.01800E-13
 -1      2890 1.25804E-02 1.02466E-03-9.99065E-14
 -1      2891 1.25019E-02 9.83482E-04-9.90490E-14
 -1      2892 1.30089E-02 1.04901E-03-1.05594E-13
 -1      2893 1.28661E-02 1.04089E-03-1.03694E-13
 -1      2894 1.27876E-02 9.99719E-04-1.02830E-13
 -1      2895 1.32946E-02 1.06523E-03-1.09403E-13
 -1      2896 1.31518E-02 1.05712E-03-1.07496E-13
 -1      2897 1.30733E-02 1.01594E-03-1.06624E-13
 -1      2898 1.35803E-02 1.08145E-03-1.13225E-13
 -1      2899 1.34375E-02 1.07334E-03-1.11312E-13
 -1      2900 1.33590E-02 1.03216E-03-1.10430E-13
 -1      2901 1.38660E-02 1.09767E-03-1.17063E-13
 -1      2902 1.37232E-02 1.08956E-03-1.15141E-13
 -1      2903 1.36447E-02 1.04838E-03-1.14250E-13
 -1      2904 1.41517E-02 1.11389E-03-1.20910E-13
 -1      2905 1.40089E-02 1.10578E-03-1.18988E-13
 -1      2906 1.39304E-02 1.06461E-03-1.18088E-13
 -1      2907 1.44043E-02 1.12039E-03-1.24353E-13
 -1      2908 1.42614E-02 1.11228E-03-1.22423E-13
 -1      2909 1.41830E-02 1.07110E-03-1.21521E-13
 -1      2910 1.44024E-02 1.06787E-03-1.24542E-13
 -1      2911 1.43127E-02 6.60212E-04-1.24993E-13
 -1      2912 1.43207E-02 7.02368E-04-1.24928E-13
 -1      2913 1.41281E-02 1.79045E-04-1.24517E-13
 -1      2914 1.42245E-02 1.83702E-04-1.25801E-13
 -1      2915 1.40637E-02 2.12099E-04-1.23507E-13
 -1      2916 1.43447E-02 8.28832E-04-1.24729E-13
 -1      2917 1.43527E-02 8.70986E-04-1.24664E-13
 -1      2918 1.42967E-02 5.75900E-04-1.25131E-13
 -1      2919 1.43047E-02 6.18056E-04-1.25061E-13
 -1      2920 1.41850E-02 6.32101E-04-1.23376E-13
 -1      2921 1.43287E-02 7.44523E-04-1.24861E-13
 -1      2922 1.43367E-02 7.86678E-04-1.24792E-13
 -1      2923 1.42169E-02 8.00725E-04-1.23104E-13
 -1      2924 1.42010E-02 7.16414E-04-1.23239E-13
 -1      2925 4.47842E-03 2.52265E-04-1.00461E-14
 -1      2926 4.63175E-03 2.05388E-04-1.05063E-14
 -1      2927 1.42810E-02 4.93019E-04-1.25263E-13
 -1      2928 1.42889E-02 5.34459E-04-1.25197E-13
 -1      2929 1.41692E-02 5.48503E-04-1.23515E-13
 -1      2930 1.42651E-02 4.08711E-04-1.25401E-13
 -1      2931 1.42731E-02 4.50864E-04-1.25332E-13
 -1      2932 1.41533E-02 4.64906E-04-1.23652E-13
 -1      2933 1.42491E-02 3.24407E-04-1.25538E-13
 -1      2934 1.42571E-02 3.66558E-04-1.25469E-13
 -1      2935 1.41374E-02 3.80599E-04-1.23792E-13
 -1      2936 2.11670E-03 8.74521E-04-2.54605E-15
 -1      2937 1.93597E-03 7.88781E-04-2.12990E-15
 -1      2938 2.18461E-03 8.78262E-04-2.80937E-15
 -1      2939 3.38241E-03 7.95779E-04-6.83911E-15
 -1      2940 3.54518E-03 7.07349E-04-7.38290E-15
 -1      2941 4.23001E-03-8.78367E-05-9.80639E-15
 -1      2942 4.04666E-03-1.72715E-04-9.40105E-15
 -1      2943 9.23703E-04-2.87060E-04-7.29736E-16
 -1      2944 1.08725E-03-3.57231E-04-9.46590E-16
 -1      2945 1.42565E-02 2.21414E-04-1.26074E-13
 -1      2946 5.16187E-04 4.15022E-05-7.35252E-16
 -1      2947 5.84472E-04 2.37122E-05-7.42841E-16
 -1      2948 1.61894E-03 4.76784E-04-2.04542E-15
 -1      2949 1.80895E-03 5.96792E-04-2.32086E-15
 -1      2950 3.13775E-03 1.00982E-03-5.96540E-15
 -1      2951 2.96627E-03 1.04336E-03-5.28630E-15
 -1      2952 3.23342E-03 9.47305E-04-6.38359E-15
 -1      2953 2.79945E-03 1.05727E-03-4.64971E-15
 -1      2954 2.63168E-03 1.04575E-03-4.05745E-15
 -1      2955 2.53778E-03 1.00584E-03-3.82217E-15
 -1      2956 2.88080E-03 1.02744E-03-5.01532E-15
 -1      2957 1.24682E-03-4.22385E-04-1.19398E-15
 -1      2958 1.42502E-03-4.95236E-04-1.50869E-15
 -1      2959 1.49100E-03-4.82940E-04-1.69419E-15
 -1      2960 1.16666E-03-3.48464E-04-1.12443E-15
 -1      2961 8.56572E-04 2.13603E-04-6.23565E-16
 -1      2962 8.05614E-04 1.63953E-04-6.39869E-16
 -1      2963 9.14422E-04 1.84614E-04-8.30377E-16
 -1      2964 1.75112E-03 6.96490E-04-1.75574E-15
 -1      2965 1.56600E-03 6.05377E-04-1.42133E-15
 -1      2966 1.43365E-03 5.05506E-04-1.30062E-15
 -1      2967 7.37946E-04-1.76772E-04-5.54149E-16
 -1      2968 6.55027E-04-5.96519E-06-7.50159E-16
 -1      2969 7.19832E-04-4.33596E-05-7.55594E-16
 -1      2970 7.08610E-04-2.06829E-06-9.15819E-16
 -1      2971 3.79363E-03-3.04524E-04-8.79947E-15
 -1      2972 3.57830E-03-4.21902E-04-8.15110E-15
 -1      2973 2.37902E-03 9.20013E-04-3.50729E-15
 -1      2974 2.52919E-03 9.74233E-04-3.93273E-15
 -1      2975 4.87782E-04 5.08648E-05-1.12702E-15
 -1      2976 4.56761E-04 4.09901E-05-1.07660E-15
 -1      2977 2.70866E-03 1.00188E-03-4.49212E-15
 -1      2978 2.86120E-03 9.91874E-04-5.01763E-15
 -1      2979 2.02255E-03 7.27823E-04-2.69942E-15
 -1      2980 2.19706E-03 8.31938E-04-3.06378E-15
 -1      2981 1.22692E-03 2.55588E-04-1.59924E-15
 -1      2982 1.39648E-03 3.47763E-04-1.76728E-15
 -1      2983 3.34174E-03-5.43807E-04-7.29871E-15
 -1      2984 3.16229E-03-6.40098E-04-6.69835E-15
 -1      2985 6.14509E-04 3.38173E-05-1.15348E-15
 -1      2986 7.06616E-04 5.12526E-05-1.21716E-15
 -1      2987 1.57270E-03-3.50507E-04-2.22545E-15
 -1      2988 1.39274E-03-2.48745E-04-1.97261E-15
 -1      2989 2.68300E-03-8.04546E-04-5.07802E-15
 -1      2990 2.54186E-03-8.03252E-04-4.57200E-15
 -1      2991 8.65423E-04-1.50578E-05-1.39178E-15
 -1      2992 7.52227E-04 1.67627E-05-1.28297E-15
 -1      2993 1.18912E-03-1.47459E-04-1.71083E-15
 -1      2994 1.02150E-03-7.25952E-05-1.54503E-15
 -1      2995 9.17840E-04-4.69088E-05-1.30665E-15
 -1      2996 2.99723E-03-7.17812E-04-6.17112E-15
 -1      2997 2.84968E-03-7.73093E-04-5.66759E-15
 -1      2998 3.08982E-03-6.87549E-04-6.58025E-15
 -1      2999 4.82229E-03 1.04274E-04-1.09997E-14
 -1      3000 4.72256E-03 8.37570E-05-1.07951E-14
 -1      3001 4.59450E-03 4.79295E-05-1.05160E-14
 -1      3002 4.44113E-03-3.04107E-06-1.02405E-14
 -1      3003 4.69779E-03 6.48919E-05-1.12508E-14
 -1      3004 4.79388E-03 1.57291E-04-1.08874E-14
 -1      3005 4.86486E-03 1.38881E-04-1.09296E-14
 -1      3006 4.15959E-03 3.78138E-04-9.10289E-15
 -1      3007 4.30972E-03 3.14907E-04-9.52928E-15
 -1      3008 4.43131E-03 2.93643E-04-1.02570E-14
 -1      3009 4.09447E-03 4.38833E-04-9.22590E-15
 -1      3010 9.32758E-04 3.06089E-04-5.85645E-16
 -1      3011 7.77376E-04-8.81443E-05-7.59226E-16
 -1      3012 8.25713E-04-1.35365E-04-7.59809E-16
 -1      3013 8.60964E-04-9.18045E-05-9.32062E-16
 -1      3014 9.84089E-04 2.94009E-04-7.09109E-16
 -1      3015 8.66042E-04-2.00646E-04-7.37583E-16
 -1      3016 4.93071E-04 5.02582E-05-1.00285E-15
 -1      3017 1.11330E-03 3.27276E-04-9.17357E-16
 -1      3018 1.62790E-03-4.03466E-04-2.23260E-15
 -1      3019 1.42329E-02 8.84676E-04-1.22974E-13
 -1      3020 1.43606E-02 9.12781E-04-1.24602E-13
 -1      3021 1.43685E-02 9.54575E-04-1.24540E-13
 -1      3022 2.02903E-03-6.35886E-04-3.04070E-15
 -1      3023 1.25391E-03-1.96128E-04-1.69129E-15
 -1      3024 3.70021E-03 6.51198E-04-8.01431E-15
 -1      3025 2.77721E-03-7.97181E-04-5.44589E-15
 -1      3026 3.47826E-03-4.92079E-04-7.96505E-15
 -1      3027 1.43815E-02 9.90330E-04-1.24573E-13
 -1      3028 1.43894E-02 1.03212E-03-1.24510E-13
 -1      3029 1.42797E-02 1.03374E-03-1.23002E-13
 -1      3030 1.42538E-02 9.62227E-04-1.22941E-13
 -1      3031 1.81251E-03 6.93605E-04-1.97269E-15
 -1      3032 1.42645E-02 2.63562E-04-1.26003E-13
 -1      3033 4.90963E-03 1.35898E-04-1.13555E-14
 -1      3034 1.10584E-03 2.03673E-04-1.41643E-15
 -1      3035 1.89773E-03 6.65899E-04-2.39615E-15
 -1      3036 3.93676E-03-2.52237E-04-9.45415E-15
 -1      3037 4.92528E-03 1.20837E-04-1.16794E-14
 -1      3038 4.88134E-03 1.15033E-04-1.13379E-14
 -1      3039 4.87675E-03 1.05352E-04-1.18802E-14
 -1      3040 1.48096E-03 4.11088E-04-1.76953E-15
 -1      3041 4.92213E-04 4.81192E-05-7.90119E-16
 -1      3042 5.88826E-04 4.10282E-05-9.64540E-16
 -1      3043 7.76541E-04 7.16811E-05-1.18415E-15
 -1      3044 4.37920E-03-4.41533E-05-1.05183E-14
 -1      3045 2.43202E-03-7.93787E-04-4.20544E-15
 -1      3046 2.62244E-03 9.99219E-04-4.18579E-15
 -1      3047 1.41042E-02 2.44849E-04-1.23917E-13
 -1      3048 1.42086E-02 2.91656E-04-1.25128E-13
 -1      3049 1.40889E-02 3.05694E-04-1.23452E-13
 -1      3050 1.40078E-02 2.40191E-04-1.22634E-13
 -1      3051 2.27687E-03 8.82255E-04-3.19777E-15
 -1      3052 3.04632E-03 9.45287E-04-5.66195E-15
 -1      3053 3.20280E-03 8.77690E-04-6.20805E-15
 -1      3054 4.29035E-04 3.76440E-05-8.94772E-16
 -1      3055 4.42764E-04 3.30650E-05-9.85540E-16
 -1      3056 2.96875E-03 9.80301E-04-5.38886E-15
 -1      3057 3.31839E-03 8.51812E-04-6.67785E-15
 -1      3058 6.55548E-04 3.27569E-05-1.09464E-15
 -1      3059 4.71686E-03 2.16385E-04-1.14677E-14
 -1      3060 4.75398E-03 1.83190E-04-1.11787E-14
 -1      3061 4.85810E-03 1.73121E-04-1.18661E-14
 -1      3062 3.88699E-04 4.11192E-05-6.50643E-16
 -1      3063 4.37136E-04 4.69006E-05-6.93354E-16
 -1      3064 9.23142E-04-1.92607E-04-8.54324E-16
 -1      3065 1.07064E-03-2.80391E-04-1.01826E-15
 -1      3066 1.23043E-03-3.42413E-04-1.27265E-15
 -1      3067 1.02621E-03-2.05888E-04-1.04361E-15
 -1      3068 4.17706E-04 3.93264E-05-8.10041E-16
 -1      3069 4.78519E-03 7.35952E-05-1.19644E-14
 -1      3070 4.67144E-03 4.13658E-05-1.16727E-14
 -1      3071 2.12644E-03-7.19208E-04-3.23943E-15
 -1      3072 2.30240E-03-7.78384E-04-3.76844E-15
 -1      3073 2.48551E-03-8.19338E-04-4.39285E-15
 -1      3074 2.65489E-03-8.29647E-04-5.01617E-15
 -1      3075 3.12209E-03-7.28844E-04-6.93196E-15
 -1      3076 3.30201E-03-6.63621E-04-7.71394E-15
 -1      3077 3.48728E-03-5.89608E-04-8.53615E-15
 -1      3078 3.67097E-03-5.21383E-04-9.39431E-15
 -1      3079 3.85464E-03-4.57855E-04-1.02871E-14
 -1      3080 4.03372E-03-4.01990E-04-1.12151E-14
 -1      3081 3.80357E-03-4.33214E-04-9.84643E-15
 -1      3082 4.20950E-03-3.54047E-04-1.21750E-14
 -1      3083 4.37968E-03-3.13228E-04-1.31668E-14
 -1      3084 4.16675E-03-3.22152E-04-1.17040E-14
 -1      3085 4.54555E-03-2.79496E-04-1.41895E-14
 -1      3086 4.70671E-03-2.51008E-04-1.52408E-14
 -1      3087 4.50660E-03-2.46089E-04-1.36892E-14
 -1      3088 4.86422E-03-2.27699E-04-1.63209E-14
 -1      3089 5.01830E-03-2.08167E-04-1.74282E-14
 -1      3090 4.82541E-03-1.95057E-04-1.57916E-14
 -1      3091 5.16974E-03-1.92198E-04-1.85635E-14
 -1      3092 5.31896E-03-1.78834E-04-1.97258E-14
 -1      3093 5.12883E-03-1.60788E-04-1.80045E-14
 -1      3094 5.46645E-03-1.67838E-04-2.09139E-14
 -1      3095 5.61260E-03-1.58592E-04-2.21300E-14
 -1      3096 5.42237E-03-1.37354E-04-2.03265E-14
 -1      3097 5.75772E-03-1.50857E-04-2.33734E-14
 -1      3098 5.90209E-03-1.44246E-04-2.46423E-14
 -1      3099 5.71016E-03-1.20871E-04-2.27555E-14
 -1      3100 6.04587E-03-1.38541E-04-2.59366E-14
 -1      3101 6.18928E-03-1.33498E-04-2.72560E-14
 -1      3102 5.99496E-03-1.08723E-04-2.52904E-14
 -1      3103 6.33237E-03-1.28932E-04-2.86004E-14
 -1      3104 6.47529E-03-1.24693E-04-2.99691E-14
 -1      3105 6.27844E-03-9.90866E-05-2.79272E-14
 -1      3106 6.61807E-03-1.20636E-04-3.13611E-14
 -1      3107 6.76079E-03-1.16670E-04-3.27766E-14
 -1      3108 6.56155E-03-9.06784E-05-3.06606E-14
 -1      3109 6.90345E-03-1.12690E-04-3.42168E-14
 -1      3110 7.04611E-03-1.08644E-04-3.56802E-14
 -1      3111 6.84479E-03-8.26044E-05-3.34900E-14
 -1      3112 7.18875E-03-1.04464E-04-3.71641E-14
 -1      3113 7.33143E-03-1.00122E-04-3.86706E-14
 -1      3114 7.12837E-03-7.42697E-05-3.64115E-14
 -1      3115 7.47410E-03-9.55772E-05-4.02001E-14
 -1      3116 7.61681E-03-9.08207E-05-4.17506E-14
 -1      3117 7.41237E-03-6.53071E-05-3.94217E-14
 -1      3118 7.75953E-03-8.58324E-05-4.33221E-14
 -1      3119 7.90228E-03-8.06135E-05-4.49127E-14
 -1      3120 7.69677E-03-5.55197E-05-4.25192E-14
 -1      3121 8.04504E-03-7.51593E-05-4.65237E-14
 -1      3122 8.18783E-03-6.94769E-05-4.81545E-14
 -1      3123 7.98151E-03-4.48323E-05-4.56982E-14
 -1      3124 8.33063E-03-6.35718E-05-4.98029E-14
 -1      3125 8.47345E-03-5.74542E-05-5.14690E-14
 -1      3126 8.26654E-03-3.32519E-05-4.89540E-14
 -1      3127 8.61628E-03-5.11354E-05-5.31525E-14
 -1      3128 8.75912E-03-4.46271E-05-5.48547E-14
 -1      3129 8.55179E-03-2.08369E-05-5.22818E-14
 -1      3130 8.90197E-03-3.79434E-05-5.65723E-14
 -1      3131 9.04483E-03-3.10960E-05-5.83050E-14
 -1      3132 8.83721E-03-7.67448E-06-5.56799E-14
 -1      3133 9.18769E-03-2.41000E-05-6.00523E-14
 -1      3134 9.33056E-03-1.69665E-05-6.18118E-14
 -1      3135 9.12275E-03 6.13550E-06-5.91409E-14
 -1      3136 9.47343E-03-9.71001E-06-6.35845E-14
 -1      3137 9.61630E-03-2.34049E-06-6.53671E-14
 -1      3138 9.40838E-03 2.04917E-05-6.26566E-14
 -1      3139 9.75917E-03 5.12858E-06-6.71615E-14
 -1      3140 9.90205E-03 1.26886E-05-6.89633E-14
 -1      3141 9.69406E-03 3.52983E-05-6.62183E-14
 -1      3142 1.00449E-02 2.03278E-05-7.07755E-14
 -1      3143 1.01878E-02 2.80388E-05-7.25982E-14
 -1      3144 9.97979E-03 5.04684E-05-6.98213E-14
 -1      3145 1.03307E-02 3.58114E-05-7.44276E-14
 -1      3146 1.04736E-02 4.36397E-05-7.62657E-14
 -1      3147 1.02655E-02 6.59266E-05-7.34611E-14
 -1      3148 1.06164E-02 5.15152E-05-7.81100E-14
 -1      3149 1.07593E-02 5.94331E-05-7.99620E-14
 -1      3150 1.05513E-02 8.16087E-05-7.71341E-14
 -1      3151 1.09022E-02 6.73864E-05-8.18192E-14
 -1      3152 1.10450E-02 7.53714E-05-8.36793E-14
 -1      3153 1.08371E-02 9.74619E-05-8.08368E-14
 -1      3154 1.11879E-02 8.33823E-05-8.55440E-14
 -1      3155 1.13308E-02 9.14165E-05-8.74125E-14
 -1      3156 1.11228E-02 1.13443E-04-8.45584E-14
 -1      3157 1.14737E-02 9.94693E-05-8.92838E-14
 -1      3158 1.16165E-02 1.07539E-04-9.11556E-14
 -1      3159 1.14086E-02 1.29518E-04-8.82957E-14
 -1      3160 1.17594E-02 1.15621E-04-9.30268E-14
 -1      3161 1.19023E-02 1.23715E-04-9.48975E-14
 -1      3162 1.16943E-02 1.45661E-04-9.20384E-14
 -1      3163 1.20451E-02 1.31818E-04-9.67680E-14
 -1      3164 1.21880E-02 1.39928E-04-9.86401E-14
 -1      3165 1.19801E-02 1.61851E-04-9.57803E-14
 -1      3166 1.23308E-02 1.48044E-04-1.00514E-13
 -1      3167 1.24737E-02 1.56165E-04-1.02387E-13
 -1      3168 1.22658E-02 1.78072E-04-9.95241E-14
 -1      3169 1.26166E-02 1.64289E-04-1.04262E-13
 -1      3170 1.27594E-02 1.72417E-04-1.06137E-13
 -1      3171 1.25515E-02 1.94313E-04-1.03271E-13
 -1      3172 1.29023E-02 1.80546E-04-1.08016E-13
 -1      3173 1.30451E-02 1.88676E-04-1.09897E-13
 -1      3174 1.28373E-02 2.10567E-04-1.07024E-13
 -1      3175 1.31880E-02 1.96807E-04-1.11780E-13
 -1      3176 1.33309E-02 2.04938E-04-1.13665E-13
 -1      3177 1.31230E-02 2.26826E-04-1.10784E-13
 -1      3178 1.34737E-02 2.13069E-04-1.15552E-13
 -1      3179 1.36166E-02 2.21200E-04-1.17438E-13
 -1      3180 1.34087E-02 2.43087E-04-1.14552E-13
 -1      3181 1.37408E-02 2.26632E-04-1.19088E-13
 -1      3182 1.38836E-02 2.34761E-04-1.20980E-13
 -1      3183 1.39242E-02 2.67512E-04-1.21391E-13
 -1      3184 1.36758E-02 2.56650E-04-1.18086E-13
 -1      3185 1.30891E-03-2.47708E-04-1.66651E-15
 -1      3186 1.12877E-03-1.56734E-04-1.43126E-15
 -1      3187 3.63882E-03 7.59282E-04-8.02921E-15
 -1      3188 3.44679E-03 8.31306E-04-7.23339E-15
 -1      3189 4.78729E-03 4.92119E-04-1.39823E-14
 -1      3190 4.62468E-03 5.10228E-04-1.29732E-14
 -1      3191 5.10028E-03 4.73769E-04-1.60889E-14
 -1      3192 4.94570E-03 4.80619E-04-1.50211E-14
 -1      3193 4.90525E-03 4.38240E-04-1.45909E-14
 -1      3194 5.40153E-03 4.72117E-04-1.83097E-14
 -1      3195 5.25204E-03 4.71332E-04-1.71857E-14
 -1      3196 5.20687E-03 4.30414E-04-1.67294E-14
 -1      3197 5.69578E-03 4.81717E-04-2.06410E-14
 -1      3198 5.54928E-03 4.75821E-04-1.94620E-14
 -1      3199 5.49865E-03 4.35663E-04-1.89809E-14
 -1      3200 5.98612E-03 4.98652E-04-2.30828E-14
 -1      3201 5.84127E-03 4.89473E-04-2.18482E-14
 -1      3202 5.78527E-03 4.49464E-04-2.13413E-14
 -1      3203 6.27441E-03 5.20090E-04-2.56302E-14
 -1      3204 6.13042E-03 5.08946E-04-2.43434E-14
 -1      3205 6.06958E-03 4.68727E-04-2.38120E-14
 -1      3206 6.56164E-03 5.44000E-04-2.82833E-14
 -1      3207 6.41809E-03 5.31829E-04-2.69439E-14
 -1      3208 6.35312E-03 4.91260E-04-2.63881E-14
 -1      3209 6.84836E-03 5.68968E-04-3.10363E-14
 -1      3210 6.70502E-03 5.56413E-04-2.96474E-14
 -1      3211 6.63665E-03 5.15493E-04-2.90663E-14
 -1      3212 7.13481E-03 5.94047E-04-3.38840E-14
 -1      3213 6.99159E-03 5.81532E-04-3.24488E-14
 -1      3214 6.92049E-03 5.40324E-04-3.18448E-14
 -1      3215 7.42110E-03 6.18644E-04-3.68230E-14
 -1      3216 7.27795E-03 6.06428E-04-3.53422E-14
 -1      3217 7.20473E-03 5.65016E-04-3.47154E-14
 -1      3218 7.70730E-03 6.42425E-04-3.98477E-14
 -1      3219 7.56420E-03 6.30647E-04-3.83246E-14
 -1      3220 7.48935E-03 5.89111E-04-3.76755E-14
 -1      3221 7.99341E-03 6.65235E-04-4.29576E-14
 -1      3222 7.85035E-03 6.53955E-04-4.13927E-14
 -1      3223 7.77430E-03 6.12359E-04-4.07223E-14
 -1      3224 8.27945E-03 6.87042E-04-4.61443E-14
 -1      3225 8.13643E-03 6.76263E-04-4.45411E-14
 -1      3226 8.05949E-03 6.34655E-04-4.38502E-14
 -1      3227 8.56544E-03 7.07890E-04-4.94057E-14
 -1      3228 8.42245E-03 6.97582E-04-4.77662E-14
 -1      3229 8.34488E-03 6.55993E-04-4.70554E-14
 -1      3230 8.85136E-03 7.27864E-04-5.27366E-14
 -1      3231 8.70840E-03 7.17981E-04-5.10641E-14
 -1      3232 8.63040E-03 6.76429E-04-5.03344E-14
 -1      3233 9.13724E-03 7.47074E-04-5.61297E-14
 -1      3234 8.99431E-03 7.37559E-04-5.44249E-14
 -1      3235 8.91601E-03 6.96054E-04-5.36795E-14
 -1      3236 9.42308E-03 7.65633E-04-5.95807E-14
 -1      3237 9.28017E-03 7.56429E-04-5.78487E-14
 -1      3238 9.20168E-03 7.14974E-04-5.70861E-14
 -1      3239 9.70889E-03 7.83651E-04-6.30881E-14
 -1      3240 9.56599E-03 7.74704E-04-6.13278E-14
 -1      3241 9.48740E-03 7.33297E-04-6.05509E-14
 -1      3242 9.99467E-03 8.01230E-04-6.66460E-14
 -1      3243 9.85178E-03 7.92490E-04-6.48593E-14
 -1      3244 9.77314E-03 7.51128E-04-6.40700E-14
 -1      3245 1.02804E-02 8.18457E-04-7.02541E-14
 -1      3246 1.01376E-02 8.09883E-04-6.84451E-14
 -1      3247 1.00589E-02 7.68559E-04-6.76404E-14
 -1      3248 1.05662E-02 8.35410E-04-7.39052E-14
 -1      3249 1.04233E-02 8.26965E-04-7.20750E-14
 -1      3250 1.03446E-02 7.85673E-04-7.12593E-14
 -1      3251 1.08519E-02 8.52152E-04-7.75945E-14
 -1      3252 1.07091E-02 8.43805E-04-7.57466E-14
 -1      3253 1.06304E-02 8.02541E-04-7.49208E-14
 -1      3254 1.11376E-02 8.68735E-04-8.13069E-14
 -1      3255 1.09948E-02 8.60461E-04-7.94477E-14
 -1      3256 1.09161E-02 8.19220E-04-7.86160E-14
 -1      3257 1.14234E-02 8.85199E-04-8.50371E-14
 -1      3258 1.12805E-02 8.76980E-04-8.31694E-14
 -1      3259 1.12019E-02 8.35756E-04-8.23324E-14
 -1      3260 1.17091E-02 9.01578E-04-8.87845E-14
 -1      3261 1.15662E-02 8.93398E-04-8.69092E-14
 -1      3262 1.14876E-02 8.52188E-04-8.60668E-14
 -1      3263 1.19948E-02 9.17896E-04-9.25405E-14
 -1      3264 1.18519E-02 9.09743E-04-9.06615E-14
 -1      3265 1.17734E-02 8.68544E-04-8.98155E-14
 -1      3266 1.22805E-02 9.34173E-04-9.63051E-14
 -1      3267 1.21377E-02 9.26039E-04-9.44231E-14
 -1      3268 1.20591E-02 8.84848E-04-9.35716E-14
 -1      3269 1.25662E-02 9.50423E-04-1.00081E-13
 -1      3270 1.24234E-02 9.42301E-04-9.81920E-14
 -1      3271 1.23448E-02 9.01116E-04-9.73380E-14
 -1      3272 1.28519E-02 9.66656E-04-1.03859E-13
 -1      3273 1.27091E-02 9.58541E-04-1.01969E-13
 -1      3274 1.26306E-02 9.17360E-04-1.01110E-13
 -1      3275 1.31377E-02 9.82880E-04-1.07652E-13
 -1      3276 1.29948E-02 9.74769E-04-1.05754E-13
 -1      3277 1.29163E-02 9.33591E-04-1.04887E-13
 -1      3278 1.34234E-02 9.99100E-04-1.11455E-13
 -1      3279 1.32805E-02 9.90990E-04-1.09551E-13
 -1      3280 1.32020E-02 9.49814E-04-1.08677E-13
 -1      3281 1.37091E-02 1.01532E-03-1.15274E-13
 -1      3282 1.35662E-02 1.00721E-03-1.13363E-13
 -1      3283 1.34877E-02 9.66035E-04-1.12479E-13
 -1      3284 1.39948E-02 1.03154E-03-1.19110E-13
 -1      3285 1.38519E-02 1.02343E-03-1.17190E-13
 -1      3286 1.37735E-02 9.82256E-04-1.16298E-13
 -1      3287 1.41921E-02 1.03183E-03-1.21809E-13
 -1      3288 1.40824E-02 1.03345E-03-1.20302E-13
 -1      3289 1.40039E-02 9.92270E-04-1.19402E-13
 -1      3290 1.41791E-02 9.96077E-04-1.21781E-13
 -1      3291 1.40573E-02 6.03990E-04-1.21765E-13
 -1      3292 1.40653E-02 6.46148E-04-1.21694E-13
 -1      3293 1.40097E-02 3.52485E-04-1.22187E-13
 -1      3294 1.40177E-02 3.94638E-04-1.22115E-13
 -1      3295 1.40416E-02 5.21105E-04-1.21905E-13
 -1      3296 1.40494E-02 5.62547E-04-1.21836E-13
 -1      3297 1.39297E-02 5.76593E-04-1.20158E-13
 -1      3298 3.56902E-03-4.72030E-04-8.50174E-15
 -1      3299 3.34867E-03-5.77321E-04-7.63787E-15
 -1      3300 2.80541E-03-8.07024E-04-5.60303E-15
 -1      3301 4.49966E-04 4.64487E-05-8.94880E-16
 -1      3302 5.40801E-04 2.42731E-05-1.08852E-15
 -1      3303 5.61244E-04 2.32537E-05-9.96165E-16
 -1      3304 6.98053E-04 1.73174E-05-1.03262E-15
 -1      3305 1.09647E-03 2.68265E-04-1.03335E-15
 -1      3306 1.02079E-03 2.05864E-04-1.04653E-15
 -1      3307 3.28356E-03 9.01437E-04-6.58753E-15
 -1      3308 3.09772E-03 9.62145E-04-5.86846E-15
 -1      3309 4.94951E-03 1.44071E-04-1.21200E-14
 -1      3310 4.95305E-03 1.31978E-04-1.19007E-14
 -1      3311 4.98196E-03 1.27700E-04-1.24531E-14
 -1      3312 4.92372E-04 5.05809E-05-9.13562E-16
 -1      3313 1.66107E-03-4.51480E-04-2.21339E-15
 -1      3314 1.49298E-03-3.49939E-04-1.93453E-15
 -1      3315 4.10783E-03-1.95656E-04-1.02970E-14
 -1      3316 3.88671E-03-3.13616E-04-9.66543E-15
 -1      3317 1.40256E-02 4.36793E-04-1.22045E-13
 -1      3318 1.40336E-02 4.78949E-04-1.21974E-13
 -1      3319 1.39139E-02 4.92991E-04-1.20300E-13
 -1      3320 1.38979E-02 4.08679E-04-1.20440E-13
 -1      3321 4.45617E-03 5.34784E-04-1.19945E-14
 -1      3322 4.28250E-03 5.68524E-04-1.10452E-14
 -1      3323 4.58627E-03 4.66124E-04-1.25659E-14
 -1      3324 4.10197E-03 6.11202E-04-1.01275E-14
 -1      3325 3.91621E-03 6.64982E-04-9.24417E-15
 -1      3326 4.24192E-03 5.25861E-04-1.06601E-14
 -1      3327 1.92159E-03-6.13209E-04-2.72055E-15
 -1      3328 1.24285E-03 3.61095E-04-1.15262E-15
 -1      3329 1.73402E-03-5.29270E-04-2.28462E-15
 -1      3330 7.93476E-04-2.11300E-05-1.04555E-15
 -1      3331 2.92641E-03 1.00769E-03-5.21313E-15
 -1      3332 4.51850E-03-1.51351E-05-1.13629E-14
 -1      3333 4.33478E-03-8.95544E-05-1.09062E-14
 -1      3334 3.83074E-03 6.48754E-04-8.74695E-15
 -1      3335 2.58350E-03 1.00254E-03-4.01633E-15
 -1      3336 2.75015E-03 1.02190E-03-4.57948E-15
 -1      3337 9.23889E-04-7.03474E-05-1.17435E-15
 -1      3338 4.75149E-04 2.75939E-05-1.05184E-15
 -1      3339 2.98033E-03-7.66100E-04-6.31011E-15
 -1      3340 9.75940E-04-1.13937E-04-1.15103E-15
 -1      3341 1.41052E-02 8.56750E-04-1.21350E-13
 -1      3342 1.41131E-02 8.98546E-04-1.21283E-13
 -1      3343 4.86406E-03 9.09228E-05-1.23127E-14
 -1      3344 4.85310E-03 7.15909E-05-1.27479E-14
 -1      3345 4.93174E-03 1.02780E-04-1.26638E-14
 -1      3346 4.07349E-03 4.92026E-04-9.47307E-15
 -1      3347 4.23268E-03 4.13394E-04-9.98965E-15
 -1      3348 3.08806E-03-7.08758E-04-6.67635E-15
 -1      3349 1.42936E-03 4.46818E-04-1.44639E-15
 -1      3350 4.43507E-04 2.09620E-05-8.72207E-16
 -1      3351 2.40589E-03 9.54156E-04-3.47178E-15
 -1      3352 3.33823E-03-6.10139E-04-7.73437E-15
 -1      3353 3.23683E-03-6.33677E-04-7.22553E-15
 -1      3354 1.40892E-02 7.72440E-04-1.21484E-13
 -1      3355 1.40972E-02 8.14595E-04-1.21415E-13
 -1      3356 1.39774E-02 8.28466E-04-1.19731E-13
 -1      3357 2.24029E-03 8.78732E-04-3.03414E-15
 -1      3358 2.05187E-03 7.86465E-04-2.57448E-15
 -1      3359 1.86174E-03 6.71555E-04-2.21038E-15
 -1      3360 1.66507E-03 5.67890E-04-1.83272E-15
 -1      3361 1.40732E-02 6.88216E-04-1.21623E-13
 -1      3362 1.40812E-02 7.30372E-04-1.21554E-13
 -1      3363 1.39615E-02 7.44242E-04-1.19870E-13
 -1      3364 1.39455E-02 6.60105E-04-1.20014E-13
 -1      3365 3.65262E-03-4.43943E-04-8.91178E-15
 -1      3366 3.53122E-03-5.28357E-04-8.56043E-15
 -1      3367 1.59619E-03-4.79009E-04-1.97432E-15
 -1      3368 4.94337E-03 1.61073E-04-1.24218E-14
 -1      3369 5.01208E-03 1.54587E-04-1.29853E-14
 -1      3370 4.93141E-03 1.83623E-04-1.27227E-14
 -1      3371 4.27276E-03-1.51047E-04-1.11301E-14
 -1      3372 3.83176E-03-3.78806E-04-9.72723E-15
 -1      3373 6.59448E-04 4.14067E-05-9.54071E-16
 -1      3374 7.96783E-04 8.09913E-05-1.07285E-15
 -1      3375 1.42903E-03-4.06588E-04-1.64795E-15
 -1      3376 1.04688E-03-1.72894E-04-1.15881E-15
 -1      3377 1.35068E-03-2.99561E-04-1.64833E-15
 -1      3378 1.39467E-02 2.93622E-04-1.21584E-13
 -1      3379 1.39872E-02 3.26375E-04-1.21992E-13
 -1      3380 1.38675E-02 3.40413E-04-1.20317E-13
 -1      3381 1.38225E-02 2.88191E-04-1.19930E-13
 -1      3382 1.44618E-03 4.08559E-04-1.63530E-15
 -1      3383 4.63193E-03 2.60975E-06-1.20771E-14
 -1      3384 9.49393E-04 1.41394E-04-1.17361E-15
 -1      3385 1.09968E-03 2.17578E-04-1.26166E-15
 -1      3386 4.63756E-03 2.66798E-04-1.15213E-14
 -1      3387 4.76847E-03 2.42789E-04-1.22157E-14
 -1      3388 1.24507E-03 2.94810E-04-1.39454E-15
 -1      3389 4.36671E-03 3.58864E-04-1.04774E-14
 -1      3390 4.51827E-03 3.02339E-04-1.10162E-14
 -1      3391 4.58968E-03 3.25900E-04-1.17461E-14
 -1      3392 4.34625E-03 4.13075E-04-1.07328E-14
 -1      3393 4.97357E-04 1.62953E-05-8.82764E-16
 -1      3394 5.62337E-04 2.19388E-05-9.40830E-16
 -1      3395 8.01098E-04 9.46820E-05-9.41087E-16
 -1      3396 3.98732E-03 5.48051E-04-9.23961E-15
 -1      3397 4.13695E-03 5.18941E-04-9.99588E-15
 -1      3398 3.40390E-03-6.14699E-04-8.13931E-15
 -1      3399 4.47830E-03-2.06235E-04-1.31916E-14
 -1      3400 4.63963E-03-1.78668E-04-1.42145E-14
 -1      3401 4.79551E-03-1.57390E-04-1.52653E-14
 -1      3402 4.94703E-03-1.39659E-04-1.63436E-14
 -1      3403 4.77173E-03-1.18016E-04-1.47419E-14
 -1      3404 5.09505E-03-1.25574E-04-1.74499E-14
 -1      3405 5.24052E-03-1.13678E-04-1.85832E-14
 -1      3406 5.06577E-03-8.97275E-05-1.68970E-14
 -1      3407 5.38397E-03-1.03931E-04-1.97428E-14
 -1      3408 5.52610E-03-9.55622E-05-2.09285E-14
 -1      3409 5.34888E-03-7.05965E-05-1.91613E-14
 -1      3410 5.66718E-03-8.84690E-05-2.21422E-14
 -1      3411 5.80770E-03-8.22446E-05-2.33829E-14
 -1      3412 5.62667E-03-5.66056E-05-2.15325E-14
 -1      3413 5.94778E-03-7.67561E-05-2.46481E-14
 -1      3414 6.08773E-03-7.17818E-05-2.59396E-14
 -1      3415 5.90250E-03-4.55569E-05-2.40081E-14
 -1      3416 6.22759E-03-6.71868E-05-2.72562E-14
 -1      3417 6.36755E-03-6.28491E-05-2.85976E-14
 -1      3418 6.17824E-03-3.61357E-05-2.65886E-14
 -1      3419 6.50760E-03-5.86487E-05-2.99634E-14
 -1      3420 6.64785E-03-5.45195E-05-3.13525E-14
 -1      3421 6.45485E-03-2.74565E-05-2.92682E-14
 -1      3422 6.78827E-03-5.03648E-05-3.27655E-14
 -1      3423 6.92894E-03-4.61515E-05-3.42023E-14
 -1      3424 6.73274E-03-1.88976E-05-3.20443E-14
 -1      3425 7.06980E-03-4.18083E-05-3.56624E-14
 -1      3426 7.21089E-03-3.73227E-05-3.71434E-14
 -1      3427 7.01202E-03-1.00272E-05-3.49131E-14
 -1      3428 7.35217E-03-3.26470E-05-3.86459E-14
 -1      3429 7.49365E-03-2.77815E-05-4.01713E-14
 -1      3430 7.29261E-03-5.65254E-07-3.78732E-14
 -1      3431 7.63530E-03-2.26981E-05-4.17183E-14
 -1      3432 7.77713E-03-1.74048E-05-4.32852E-14
 -1      3433 7.57437E-03 9.64574E-06-4.09195E-14
 -1      3434 7.91910E-03-1.18887E-05-4.48733E-14
 -1      3435 8.06120E-03-6.16172E-06-4.64796E-14
 -1      3436 7.85710E-03 2.06699E-05-4.40502E-14
 -1      3437 8.20342E-03-2.21911E-07-4.81052E-14
 -1      3438 8.34575E-03 5.91707E-06-4.97507E-14
 -1      3439 8.14063E-03 3.25047E-05-4.72602E-14
 -1      3440 8.48816E-03 1.22500E-05-5.14128E-14
 -1      3441 8.63066E-03 1.87630E-05-5.30920E-14
 -1      3442 8.42478E-03 4.51028E-05-5.05449E-14
 -1      3443 8.77322E-03 2.54464E-05-5.47894E-14
 -1      3444 8.91585E-03 3.22872E-05-5.65021E-14
 -1      3445 8.70943E-03 5.83905E-05-5.39004E-14
 -1      3446 9.05852E-03 3.92737E-05-5.82304E-14
 -1      3447 9.20124E-03 4.63939E-05-5.99726E-14
 -1      3448 8.99444E-03 7.22811E-05-5.73222E-14
 -1      3449 9.34399E-03 5.36355E-05-6.17290E-14
 -1      3450 9.48678E-03 6.09882E-05-6.34965E-14
 -1      3451 9.27971E-03 8.66849E-05-6.08038E-14
 -1      3452 9.62958E-03 6.84400E-05-6.52754E-14
 -1      3453 9.77241E-03 7.59820E-05-6.70653E-14
 -1      3454 9.56517E-03 1.01515E-04-6.43351E-14
 -1      3455 9.91525E-03 8.36034E-05-6.88641E-14
 -1      3456 1.00581E-02 9.12967E-05-7.06729E-14
 -1      3457 9.85077E-03 1.16693E-04-6.79099E-14
 -1      3458 1.02010E-02 9.90524E-05-7.24920E-14
 -1      3459 1.03438E-02 1.06864E-04-7.43208E-14
 -1      3460 1.01365E-02 1.32149E-04-7.15252E-14
 -1      3461 1.04867E-02 1.14724E-04-7.61559E-14
 -1      3462 1.06296E-02 1.22628E-04-7.79999E-14
 -1      3463 1.04222E-02 1.47822E-04-7.51788E-14
 -1      3464 1.07725E-02 1.30567E-04-7.98510E-14
 -1      3465 1.09154E-02 1.38540E-04-8.17068E-14
 -1      3466 1.07080E-02 1.63663E-04-7.88657E-14
 -1      3467 1.10583E-02 1.46539E-04-8.35687E-14
 -1      3468 1.12012E-02 1.54563E-04-8.54330E-14
 -1      3469 1.09937E-02 1.79631E-04-8.25771E-14
 -1      3470 1.13440E-02 1.62606E-04-8.73012E-14
 -1      3471 1.14869E-02 1.70667E-04-8.91718E-14
 -1      3472 1.12795E-02 1.95693E-04-8.63079E-14
 -1      3473 1.16298E-02 1.78741E-04-9.10449E-14
 -1      3474 1.17727E-02 1.86828E-04-9.29170E-14
 -1      3475 1.15653E-02 2.11823E-04-9.00479E-14
 -1      3476 1.19156E-02 1.94925E-04-9.47874E-14
 -1      3477 1.20585E-02 2.03030E-04-9.66578E-14
 -1      3478 1.18511E-02 2.28002E-04-9.37926E-14
 -1      3479 1.22013E-02 2.11141E-04-9.85305E-14
 -1      3480 1.23442E-02 2.19258E-04-1.00404E-13
 -1      3481 1.21369E-02 2.44214E-04-9.75358E-14
 -1      3482 1.24871E-02 2.27379E-04-1.02278E-13
 -1      3483 1.26300E-02 2.35503E-04-1.04152E-13
 -1      3484 1.24226E-02 2.60447E-04-1.01282E-13
 -1      3485 1.27728E-02 2.43629E-04-1.06027E-13
 -1      3486 1.29157E-02 2.51757E-04-1.07905E-13
 -1      3487 1.27084E-02 2.76694E-04-1.05032E-13
 -1      3488 1.30586E-02 2.59886E-04-1.09785E-13
 -1      3489 1.32014E-02 2.68016E-04-1.11667E-13
 -1      3490 1.29941E-02 2.92949E-04-1.08785E-13
 -1      3491 1.33443E-02 2.76146E-04-1.13551E-13
 -1      3492 1.34872E-02 2.84276E-04-1.15434E-13
 -1      3493 1.32799E-02 3.09207E-04-1.12548E-13
 -1      3494 5.02108E-03 3.90287E-04-1.52033E-14
 -1      3495 4.87166E-03 3.95090E-04-1.41592E-14
 -1      3496 5.87173E-03 4.19612E-04-2.20450E-14
 -1      3497 5.73219E-03 4.10519E-04-2.08364E-14
 -1      3498 6.15052E-03 4.40475E-04-2.45443E-14
 -1      3499 6.01107E-03 4.29669E-04-2.32817E-14
 -1      3500 5.95476E-03 3.91781E-04-2.27517E-14
 -1      3501 6.42984E-03 4.63587E-04-2.71478E-14
 -1      3502 6.29005E-03 4.51821E-04-2.58333E-14
 -1      3503 6.22874E-03 4.13543E-04-2.52793E-14
 -1      3504 6.71013E-03 4.87780E-04-2.98525E-14
 -1      3505 6.56983E-03 4.75596E-04-2.84879E-14
 -1      3506 6.50446E-03 4.36770E-04-2.79098E-14
 -1      3507 6.99150E-03 5.12221E-04-3.26539E-14
 -1      3508 6.85067E-03 5.00000E-04-3.12414E-14
 -1      3509 6.78203E-03 4.60615E-04-3.06395E-14
 -1      3510 7.27385E-03 5.36348E-04-3.55479E-14
 -1      3511 7.13254E-03 5.24342E-04-3.40896E-14
 -1      3512 7.06133E-03 4.84461E-04-3.34641E-14
 -1      3513 7.55704E-03 5.59816E-04-3.85301E-14
 -1      3514 7.41534E-03 5.48174E-04-3.70286E-14
 -1      3515 7.34212E-03 5.07888E-04-3.63811E-14
 -1      3516 7.84092E-03 5.82443E-04-4.15976E-14
 -1      3517 7.69890E-03 5.71238E-04-4.00535E-14
 -1      3518 7.62413E-03 5.30640E-04-3.93851E-14
 -1      3519 8.12534E-03 6.04163E-04-4.47431E-14
 -1      3520 7.98307E-03 5.93415E-04-4.31607E-14
 -1      3521 7.90714E-03 5.52587E-04-4.24707E-14
 -1      3522 8.41016E-03 6.24990E-04-4.79668E-14
 -1      3523 8.26770E-03 6.14684E-04-4.63461E-14
 -1      3524 8.19091E-03 5.73693E-04-4.56367E-14
 -1      3525 8.69528E-03 6.44987E-04-5.12628E-14
 -1      3526 8.55269E-03 6.35087E-04-4.96061E-14
 -1      3527 8.47527E-03 5.93986E-04-4.88786E-14
 -1      3528 8.98063E-03 6.64245E-04-5.46223E-14
 -1      3529 8.83793E-03 6.54702E-04-5.29344E-14
 -1      3530 8.76007E-03 6.13530E-04-5.21901E-14
 -1      3531 9.26613E-03 6.82864E-04-5.80436E-14
 -1      3532 9.12336E-03 6.73628E-04-5.63260E-14
 -1      3533 9.04519E-03 6.32413E-04-5.55667E-14
 -1      3534 9.55173E-03 7.00946E-04-6.15216E-14
 -1      3535 9.40892E-03 6.91966E-04-5.97758E-14
 -1      3536 9.33055E-03 6.50728E-04-5.90019E-14
 -1      3537 9.83740E-03 7.18585E-04-6.50529E-14
 -1      3538 9.69456E-03 7.09815E-04-6.32805E-14
 -1      3539 9.61606E-03 6.68568E-04-6.24922E-14
 -1      3540 1.01231E-02 7.35869E-04-6.86364E-14
 -1      3541 9.98026E-03 7.27267E-04-6.68376E-14
 -1      3542 9.90169E-03 6.86019E-04-6.60375E-14
 -1      3543 1.04089E-02 7.52872E-04-7.22650E-14
 -1      3544 1.02660E-02 7.44402E-04-7.04466E-14
 -1      3545 1.01874E-02 7.03158E-04-6.96322E-14
 -1      3546 1.06946E-02 7.69655E-04-7.59359E-14
 -1      3547 1.05518E-02 7.61288E-04-7.40960E-14
 -1      3548 1.04731E-02 7.20051E-04-7.32727E-14
 -1      3549 1.09804E-02 7.86273E-04-7.96376E-14
 -1      3550 1.08375E-02 7.77982E-04-7.77848E-14
 -1      3551 1.07589E-02 7.36754E-04-7.69512E-14
 -1      3552 1.12662E-02 8.02765E-04-8.33584E-14
 -1      3553 1.11233E-02 7.94533E-04-8.14948E-14
 -1      3554 1.10447E-02 7.53313E-04-8.06585E-14
 -1      3555 1.15519E-02 8.19167E-04-8.70951E-14
 -1      3556 1.14090E-02 8.10976E-04-8.52236E-14
 -1      3557 1.13305E-02 7.69764E-04-8.43826E-14
 -1      3558 1.18377E-02 8.35503E-04-9.08444E-14
 -1      3559 1.16948E-02 8.27342E-04-8.89693E-14
 -1      3560 1.16162E-02 7.86137E-04-8.81213E-14
 -1      3561 1.21234E-02 8.51793E-04-9.46026E-14
 -1      3562 1.19806E-02 8.43653E-04-9.27240E-14
 -1      3563 1.19020E-02 8.02455E-04-9.18740E-14
 -1      3564 1.24092E-02 8.68053E-04-9.83691E-14
 -1      3565 1.22663E-02 8.59926E-04-9.64848E-14
 -1      3566 1.21878E-02 8.18734E-04-9.56338E-14
 -1      3567 1.26949E-02 8.84294E-04-1.02136E-13
 -1      3568 1.25520E-02 8.76175E-04-1.00251E-13
 -1      3569 1.24735E-02 8.34987E-04-9.93962E-14
 -1      3570 1.29807E-02 9.00523E-04-1.05914E-13
 -1      3571 1.28378E-02 8.92409E-04-1.04024E-13
 -1      3572 1.27593E-02 8.51224E-04-1.03163E-13
 -1      3573 1.32664E-02 9.16746E-04-1.09702E-13
 -1      3574 1.31235E-02 9.08635E-04-1.07807E-13
 -1      3575 1.30450E-02 8.67453E-04-1.06938E-13
 -1      3576 1.35521E-02 9.32967E-04-1.13502E-13
 -1      3577 1.34092E-02 9.24857E-04-1.11601E-13
 -1      3578 1.33308E-02 8.83676E-04-1.10725E-13
 -1      3579 1.38378E-02 9.49190E-04-1.17320E-13
 -1      3580 1.36950E-02 9.41078E-04-1.15410E-13
 -1      3581 1.36165E-02 8.99899E-04-1.14524E-13
 -1      3582 1.41396E-02 9.29435E-04-1.21515E-13
 -1      3583 1.41526E-02 9.65190E-04-1.21546E-13
 -1      3584 1.40650E-02 9.63286E-04-1.20357E-13
 -1      3585 1.40120E-02 9.01510E-04-1.19892E-13
 -1      3586 1.38020E-02 5.48837E-04-1.18553E-13
 -1      3587 1.38099E-02 5.90281E-04-1.18481E-13
 -1      3588 1.15988E-03-2.40602E-04-1.28081E-15
 -1      3589 5.03853E-03 1.33613E-04-1.31791E-14
 -1      3590 4.99997E-03 1.20439E-04-1.29496E-14
 -1      3591 4.01837E-03-3.16948E-04-1.06379E-14
 -1      3592 1.32361E-03-3.31325E-04-1.51013E-15
 -1      3593 5.59238E-03 4.02601E-04-1.96545E-14
 -1      3594 5.45178E-03 3.96267E-04-1.85005E-14
 -1      3595 5.68192E-03 3.72601E-04-2.03317E-14
 -1      3596 5.31021E-03 3.91674E-04-1.73740E-14
 -1      3597 5.16675E-03 3.89662E-04-1.62744E-14
 -1      3598 5.13195E-03 3.48768E-04-1.58203E-14
 -1      3599 5.40872E-03 3.57503E-04-1.80215E-14
 -1      3600 4.31682E-03 4.78043E-04-1.09123E-14
 -1      3601 4.76834E-03 2.17398E-05-1.29838E-14
 -1      3602 4.63611E-03-3.05058E-05-1.26571E-14
 -1      3603 4.84663E-03 2.61603E-04-1.30304E-14
 -1      3604 4.90093E-03 2.19174E-04-1.29780E-14
 -1      3605 1.07614E-03 2.22313E-04-1.15152E-15
 -1      3606 4.44279E-03-1.06200E-04-1.20104E-14
 -1      3607 4.24078E-03-2.00537E-04-1.13724E-14
 -1      3608 4.60145E-03-7.39062E-05-1.29155E-14
 -1      3609 8.92073E-04 1.43608E-04-9.34677E-16
 -1      3610 4.43772E-03 4.28772E-04-1.14202E-14
 -1      3611 4.19778E-03-2.57968E-04-1.15021E-14
 -1      3612 4.93542E-03 6.50510E-05-1.37097E-14
 -1      3613 4.85556E-03 4.59241E-05-1.33464E-14
 -1      3614 4.86686E-03 1.66665E-05-1.39487E-14
 -1      3615 4.36966E-03-2.18067E-04-1.24734E-14
 -1      3616 4.51626E-03-1.44641E-04-1.29749E-14
 -1      3617 1.36902E-02 6.04597E-04-1.16803E-13
 -1      3618 1.38179E-02 6.32352E-04-1.18407E-13
 -1      3619 1.38258E-02 6.74422E-04-1.18333E-13
 -1      3620 1.35927E-02 2.83518E-04-1.16856E-13
 -1      3621 1.37169E-02 2.88950E-04-1.18506E-13
 -1      3622 1.37394E-02 3.15061E-04-1.18699E-13
 -1      3623 1.35283E-02 3.16578E-04-1.15853E-13
 -1      3624 5.00795E-03 1.09369E-04-1.33959E-14
 -1      3625 4.84229E-03 3.19778E-04-1.34940E-14
 -1      3626 4.71141E-03 3.71790E-04-1.29163E-14
 -1      3627 1.38724E-02 8.89316E-04-1.18046E-13
 -1      3628 1.38989E-02 9.20205E-04-1.18275E-13
 -1      3629 1.39774E-02 9.61383E-04-1.19169E-13
 -1      3630 1.38564E-02 8.05005E-04-1.18187E-13
 -1      3631 1.38644E-02 8.47161E-04-1.18118E-13
 -1      3632 1.37513E-02 8.65857E-04-1.16502E-13
 -1      3633 1.37941E-02 5.06678E-04-1.18625E-13
 -1      3634 1.36743E-02 5.20365E-04-1.16951E-13
 -1      3635 1.37861E-02 4.64520E-04-1.18696E-13
 -1      3636 5.06403E-03 1.46955E-04-1.34936E-14
 -1      3637 5.10458E-03 1.39963E-04-1.40061E-14
 -1      3638 5.07870E-03 1.62701E-04-1.38067E-14
 -1      3639 4.99685E-03 2.02865E-04-1.35542E-14
 -1      3640 4.55483E-03 3.86930E-04-1.19353E-14
 -1      3641 4.97850E-03 2.92050E-04-1.42874E-14
 -1      3642 1.37619E-02 3.41172E-04-1.18893E-13
 -1      3643 1.36491E-02 3.49953E-04-1.17337E-13
 -1      3644 1.37771E-02 3.75305E-04-1.18955E-13
 -1      3645 1.37851E-02 4.17461E-04-1.18883E-13
 -1      3646 1.35435E-02 3.50712E-04-1.15914E-13
 -1      3647 5.09464E-03 1.13366E-04-1.43082E-14
 -1      3648 5.02401E-03 9.27925E-05-1.40104E-14
 -1      3649 5.04179E-03 7.14980E-05-1.46303E-14
 -1      3650 5.04194E-03-5.41078E-05-1.63472E-14
 -1      3651 5.18061E-03-4.52029E-05-1.74519E-14
 -1      3652 5.31730E-03-3.79067E-05-1.85829E-14
 -1      3653 5.45326E-03-3.13804E-05-1.97401E-14
 -1      3654 5.28936E-03-5.76192E-06-1.80065E-14
 -1      3655 5.58850E-03-2.56111E-05-2.09237E-14
 -1      3656 5.72371E-03-2.02826E-05-2.21352E-14
 -1      3657 5.55264E-03 4.51975E-06-2.03191E-14
 -1      3658 5.85887E-03-1.53270E-05-2.33723E-14
 -1      3659 5.99435E-03-1.06200E-05-2.46346E-14
 -1      3660 5.81677E-03 1.39115E-05-2.27377E-14
 -1      3661 6.13012E-03-6.06866E-06-2.59235E-14
 -1      3662 6.26638E-03-1.62887E-06-2.72371E-14
 -1      3663 6.08308E-03 2.29855E-05-2.52613E-14
 -1      3664 6.40306E-03 2.79576E-06-2.85756E-14
 -1      3665 6.54029E-03 7.21339E-06-2.99387E-14
 -1      3666 6.35210E-03 3.20761E-05-2.78859E-14
 -1      3667 6.67799E-03 1.17111E-05-3.13248E-14
 -1      3668 6.81621E-03 1.62817E-05-3.27342E-14
 -1      3669 6.62388E-03 4.14279E-05-3.06083E-14
 -1      3670 6.95488E-03 2.09969E-05-3.41676E-14
 -1      3671 7.09403E-03 2.58413E-05-3.56236E-14
 -1      3672 6.89827E-03 5.12290E-05-3.34238E-14
 -1      3673 7.23358E-03 3.08685E-05-3.71014E-14
 -1      3674 7.37354E-03 3.60589E-05-3.86007E-14
 -1      3675 7.17499E-03 6.16188E-05-3.63317E-14
 -1      3676 7.51385E-03 4.14491E-05-4.01231E-14
 -1      3677 7.65450E-03 4.70179E-05-4.16665E-14
 -1      3678 7.45370E-03 7.26772E-05-3.93284E-14
 -1      3679 7.79544E-03 5.27880E-05-4.32308E-14
 -1      3680 7.93666E-03 5.87380E-05-4.48140E-14
 -1      3681 7.73409E-03 8.44326E-05-4.24120E-14
 -1      3682 8.07811E-03 6.48796E-05-4.64170E-14
 -1      3683 8.21978E-03 7.11926E-05-4.80395E-14
 -1      3684 8.01584E-03 9.68728E-05-4.55765E-14
 -1      3685 8.36163E-03 7.76804E-05-4.96813E-14
 -1      3686 8.50365E-03 8.43248E-05-5.13407E-14
 -1      3687 8.29867E-03 1.09956E-04-4.88186E-14
 -1      3688 8.64580E-03 9.11235E-05-5.30154E-14
 -1      3689 8.78809E-03 9.80604E-05-5.47081E-14
 -1      3690 8.58234E-03 1.23622E-04-5.21333E-14
 -1      3691 8.93048E-03 1.05130E-04-5.64181E-14
 -1      3692 9.07297E-03 1.12318E-04-5.81415E-14
 -1      3693 8.86665E-03 1.37801E-04-5.55153E-14
 -1      3694 9.21553E-03 1.19618E-04-5.98797E-14
 -1      3695 9.35815E-03 1.27017E-04-6.16321E-14
 -1      3696 9.15144E-03 1.52418E-04-5.89594E-14
 -1      3697 9.50084E-03 1.34507E-04-6.33965E-14
 -1      3698 9.64357E-03 1.42079E-04-6.51717E-14
 -1      3699 9.43657E-03 1.67402E-04-6.24591E-14
 -1      3700 9.78634E-03 1.49725E-04-6.69571E-14
 -1      3701 9.92914E-03 1.57436E-04-6.87541E-14
 -1      3702 9.72196E-03 1.82687E-04-6.60062E-14
 -1      3703 1.00720E-02 1.65206E-04-7.05610E-14
 -1      3704 1.02148E-02 1.73027E-04-7.23777E-14
 -1      3705 1.00075E-02 1.98215E-04-6.95985E-14
 -1      3706 1.03577E-02 1.80894E-04-7.42042E-14
 -1      3707 1.05005E-02 1.88802E-04-7.60390E-14
 -1      3708 1.02932E-02 2.13935E-04-7.32296E-14
 -1      3709 1.06434E-02 1.96743E-04-7.78802E-14
 -1      3710 1.07863E-02 2.04716E-04-7.97308E-14
 -1      3711 1.05789E-02 2.29804E-04-7.68974E-14
 -1      3712 1.09292E-02 2.12715E-04-8.15865E-14
 -1      3713 1.10721E-02 2.20736E-04-8.34475E-14
 -1      3714 1.08647E-02 2.45786E-04-8.05956E-14
 -1      3715 1.12150E-02 2.28776E-04-8.53129E-14
 -1      3716 1.13579E-02 2.36834E-04-8.71801E-14
 -1      3717 1.11505E-02 2.61854E-04-8.43168E-14
 -1      3718 1.15008E-02 2.44905E-04-8.90514E-14
 -1      3719 1.16437E-02 2.52988E-04-9.09244E-14
 -1      3720 1.14363E-02 2.77984E-04-8.80539E-14
 -1      3721 1.17866E-02 2.61080E-04-9.27953E-14
 -1      3722 1.19295E-02 2.69181E-04-9.46661E-14
 -1      3723 1.17221E-02 2.94159E-04-9.17955E-14
 -1      3724 1.20724E-02 2.77289E-04-9.65384E-14
 -1      3725 1.22153E-02 2.85402E-04-9.84132E-14
 -1      3726 1.20079E-02 3.10366E-04-9.55407E-14
 -1      3727 1.23582E-02 2.93519E-04-1.00285E-13
 -1      3728 1.25011E-02 3.01640E-04-1.02158E-13
 -1      3729 1.22937E-02 3.26593E-04-9.92868E-14
 -1      3730 1.26439E-02 3.09763E-04-1.04035E-13
 -1      3731 1.27868E-02 3.17888E-04-1.05910E-13
 -1      3732 1.25795E-02 3.42834E-04-1.03035E-13
 -1      3733 1.29297E-02 3.26015E-04-1.07785E-13
 -1      3734 1.30726E-02 3.34142E-04-1.09664E-13
 -1      3735 1.28653E-02 3.59083E-04-1.06787E-13
 -1      3736 1.32155E-02 3.42270E-04-1.11545E-13
 -1      3737 1.33583E-02 3.50399E-04-1.13427E-13
 -1      3738 1.31510E-02 3.75336E-04-1.10542E-13
 -1      3739 6.30416E-03 3.87756E-04-2.60163E-14
 -1      3740 6.16878E-03 3.76571E-04-2.47259E-14
 -1      3741 6.03419E-03 3.65736E-04-2.34613E-14
 -1      3742 5.90019E-03 3.55276E-04-2.22231E-14
 -1      3743 6.10995E-03 3.40937E-04-2.41731E-14
 -1      3744 6.85233E-03 4.33900E-04-3.14272E-14
 -1      3745 6.71432E-03 4.22267E-04-3.00392E-14
 -1      3746 7.12998E-03 4.56972E-04-3.42763E-14
 -1      3747 6.99088E-03 4.45465E-04-3.28399E-14
 -1      3748 6.92107E-03 4.07394E-04-3.22167E-14
 -1      3749 7.40953E-03 4.79582E-04-3.72126E-14
 -1      3750 7.26953E-03 4.68340E-04-3.57330E-14
 -1      3751 7.19748E-03 4.29569E-04-3.50877E-14
 -1      3752 7.69062E-03 5.01540E-04-4.02392E-14
 -1      3753 7.54989E-03 4.90643E-04-3.87159E-14
 -1      3754 7.47610E-03 4.51286E-04-3.80463E-14
 -1      3755 7.97293E-03 5.22758E-04-4.33448E-14
 -1      3756 7.83163E-03 5.12239E-04-4.17818E-14
 -1      3757 7.75650E-03 4.72409E-04-4.10928E-14
 -1      3758 8.25620E-03 5.43220E-04-4.65296E-14
 -1      3759 8.11446E-03 5.33079E-04-4.49277E-14
 -1      3760 8.03831E-03 4.92876E-04-4.42199E-14
 -1      3761 8.54020E-03 5.62960E-04-4.97905E-14
 -1      3762 8.39812E-03 5.53175E-04-4.81507E-14
 -1      3763 8.32122E-03 5.12684E-04-4.74240E-14
 -1      3764 8.82475E-03 5.82043E-04-5.31186E-14
 -1      3765 8.68242E-03 5.72578E-04-5.14464E-14
 -1      3766 8.60496E-03 5.31871E-04-5.07016E-14
 -1      3767 9.10971E-03 6.00547E-04-5.65101E-14
 -1      3768 8.96718E-03 5.91361E-04-5.48067E-14
 -1      3769 8.88932E-03 5.50495E-04-5.40474E-14
 -1      3770 9.39495E-03 6.18559E-04-5.99598E-14
 -1      3771 9.25230E-03 6.09609E-04-5.82273E-14
 -1      3772 9.17416E-03 5.68627E-04-5.74544E-14
 -1      3773 9.68040E-03 6.36159E-04-6.34647E-14
 -1      3774 9.53765E-03 6.27405E-04-6.17054E-14
 -1      3775 9.45933E-03 5.86341E-04-6.09191E-14
 -1      3776 9.96599E-03 6.53424E-04-6.70232E-14
 -1      3777 9.82318E-03 6.44829E-04-6.52374E-14
 -1      3778 9.74473E-03 6.03709E-04-6.44387E-14
 -1      3779 1.02517E-02 6.70422E-04-7.06301E-14
 -1      3780 1.01088E-02 6.61953E-04-6.88203E-14
 -1      3781 1.00303E-02 6.20796E-04-6.80092E-14
 -1      3782 1.05374E-02 6.87209E-04-7.42797E-14
 -1      3783 1.03945E-02 6.78839E-04-7.24505E-14
 -1      3784 1.03160E-02 6.37658E-04-7.16276E-14
 -1      3785 1.08232E-02 7.03835E-04-7.79671E-14
 -1      3786 1.06803E-02 6.95540E-04-7.61195E-14
 -1      3787 1.06017E-02 6.54346E-04-7.52885E-14
 -1      3788 1.11090E-02 7.20339E-04-8.16768E-14
 -1      3789 1.09661E-02 7.12100E-04-7.98186E-14
 -1      3790 1.08875E-02 6.70899E-04-7.89799E-14
 -1      3791 1.13948E-02 7.36752E-04-8.54056E-14
 -1      3792 1.12519E-02 7.28555E-04-8.35387E-14
 -1      3793 1.11733E-02 6.87352E-04-8.26953E-14
 -1      3794 1.16806E-02 7.53099E-04-8.91484E-14
 -1      3795 1.15377E-02 7.44933E-04-8.72759E-14
 -1      3796 1.14591E-02 7.03730E-04-8.64295E-14
 -1      3797 1.19663E-02 7.69400E-04-9.29006E-14
 -1      3798 1.18234E-02 7.61255E-04-9.10238E-14
 -1      3799 1.17449E-02 7.20054E-04-9.01737E-14
 -1      3800 1.22521E-02 7.85669E-04-9.66607E-14
 -1      3801 1.21092E-02 7.77538E-04-9.47792E-14
 -1      3802 1.20307E-02 7.36340E-04-9.39248E-14
 -1      3803 1.25379E-02 8.01917E-04-1.00420E-13
 -1      3804 1.23950E-02 7.93795E-04-9.85403E-14
 -1      3805 1.23165E-02 7.52601E-04-9.76841E-14
 -1      3806 1.28236E-02 8.18153E-04-1.04187E-13
 -1      3807 1.26808E-02 8.10036E-04-1.02302E-13
 -1      3808 1.26022E-02 7.68845E-04-1.01445E-13
 -1      3809 1.31094E-02 8.34381E-04-1.07960E-13
 -1      3810 1.29665E-02 8.26267E-04-1.06074E-13
 -1      3811 1.28880E-02 7.85079E-04-1.05209E-13
 -1      3812 1.33951E-02 8.50606E-04-1.11742E-13
 -1      3813 1.32523E-02 8.42493E-04-1.09849E-13
 -1      3814 1.31738E-02 8.01308E-04-1.08978E-13
 -1      3815 1.36447E-02 8.62287E-04-1.15070E-13
 -1      3816 1.35018E-02 8.54175E-04-1.13172E-13
 -1      3817 1.34233E-02 8.12991E-04-1.12291E-13
 -1      3818 1.36367E-02 8.20131E-04-1.15145E-13
 -1      3819 5.09130E-03 2.17567E-04-1.45365E-14
 -1      3820 5.09901E-03 1.86521E-04-1.42710E-14
 -1      3821 5.76696E-03 3.45364E-04-2.10126E-14
 -1      3822 5.63410E-03 3.36075E-04-1.98290E-14
 -1      3823 5.84715E-03 3.20185E-04-2.16953E-14
 -1      3824 4.69539E-03-7.11236E-05-1.36456E-14
 -1      3825 6.57695E-03 4.10678E-04-2.86729E-14
 -1      3826 6.44019E-03 3.99127E-04-2.73321E-14
 -1      3827 6.64735E-03 3.84996E-04-2.94376E-14
 -1      3828 4.79842E-03-6.75490E-05-1.44498E-14
 -1      3829 4.94117E-03-5.52434E-05-1.55058E-14
 -1      3830 5.06170E-03-1.07565E-05-1.60379E-14
 -1      3831 4.87283E-03-9.44352E-06-1.43819E-14
 -1      3832 5.11405E-03 3.05294E-04-1.54260E-14
 -1      3833 5.09924E-03 2.54650E-04-1.49382E-14
 -1      3834 5.20917E-03 2.34094E-04-1.56855E-14
 -1      3835 5.24697E-03 3.10332E-04-1.65030E-14
 -1      3836 1.38338E-02 7.16491E-04-1.18261E-13
 -1      3837 1.38418E-02 7.58560E-04-1.18187E-13
 -1      3838 1.37061E-02 6.88739E-04-1.16654E-13
 -1      3839 5.16436E-03 1.76147E-04-1.47991E-14
 -1      3840 1.36653E-02 4.31145E-04-1.17212E-13
 -1      3841 1.34791E-02 3.83775E-04-1.14908E-13
 -1      3842 6.37681E-03 3.62703E-04-2.67552E-14
 -1      3843 1.37287E-02 7.77256E-04-1.16578E-13
 -1      3844 5.14633E-03 1.29101E-04-1.46390E-14
 -1      3845 5.18179E-03 1.15532E-04-1.52757E-14
 -1      3846 5.18654E-03 1.43961E-04-1.49669E-14
 -1      3847 5.50627E-03 3.26118E-04-1.87053E-14
 -1      3848 5.37405E-03 3.18501E-04-1.75753E-14
 -1      3849 5.34735E-03 2.79675E-04-1.71585E-14
 -1      3850 5.59268E-03 2.99669E-04-1.93594E-14
 -1      3851 1.35465E-02 4.92250E-04-1.15351E-13
 -1      3852 1.35545E-02 5.34411E-04-1.15278E-13
 -1      3853 4.95594E-03 1.51770E-05-1.47603E-14
 -1      3854 1.35625E-02 5.76483E-04-1.15204E-13
 -1      3855 1.35704E-02 6.18556E-04-1.15128E-13
 -1      3856 1.34348E-02 5.48369E-04-1.13607E-13
 -1      3857 5.27096E-03 1.87354E-04-1.59350E-14
 -1      3858 5.23268E-03 1.64320E-04-1.54504E-14
 -1      3859 5.29098E-03 1.52734E-04-1.61091E-14
 -1      3860 1.34801E-02 4.30835E-04-1.14720E-13
 -1      3861 1.33603E-02 4.44879E-04-1.13052E-13
 -1      3862 5.51859E-03 3.32360E-05-1.97170E-14
 -1      3863 5.64678E-03 3.74880E-05-2.08977E-14
 -1      3864 5.77571E-03 4.18681E-05-2.21064E-14
 -1      3865 5.90576E-03 4.62958E-05-2.33418E-14
 -1      3866 5.73543E-03 6.84806E-05-2.14778E-14
 -1      3867 6.03670E-03 5.08708E-05-2.46015E-14
 -1      3868 6.16869E-03 5.55041E-05-2.58870E-14
 -1      3869 5.99070E-03 7.75415E-05-2.39442E-14
 -1      3870 6.30158E-03 6.02922E-05-2.71984E-14
 -1      3871 6.43543E-03 6.51606E-05-2.85342E-14
 -1      3872 6.25129E-03 8.74132E-05-2.65129E-14
 -1      3873 6.57012E-03 7.01906E-05-2.98936E-14
 -1      3874 6.70566E-03 7.53193E-05-3.12759E-14
 -1      3875 6.51652E-03 9.79747E-05-2.91813E-14
 -1      3876 6.84195E-03 8.06204E-05-3.26843E-14
 -1      3877 6.97897E-03 8.60423E-05-3.41144E-14
 -1      3878 6.78576E-03 1.09147E-04-3.19455E-14
 -1      3879 7.11664E-03 9.16428E-05-3.55656E-14
 -1      3880 7.25494E-03 9.73780E-05-3.70393E-14
 -1      3881 7.05843E-03 1.20916E-04-3.48023E-14
 -1      3882 7.39378E-03 1.03291E-04-3.85376E-14
 -1      3883 7.53314E-03 1.09344E-04-4.00564E-14
 -1      3884 7.33398E-03 1.33265E-04-3.77487E-14
 -1      3885 7.67294E-03 1.15567E-04-4.15959E-14
 -1      3886 7.81316E-03 1.21930E-04-4.31576E-14
 -1      3887 7.61191E-03 1.46167E-04-4.07833E-14
 -1      3888 7.95374E-03 1.28451E-04-4.47370E-14
 -1      3889 8.09466E-03 1.35104E-04-4.63374E-14
 -1      3890 7.89176E-03 1.59590E-04-4.39010E-14
 -1      3891 8.23586E-03 1.41900E-04-4.79577E-14
 -1      3892 8.37731E-03 1.48818E-04-4.95964E-14
 -1      3893 8.17315E-03 1.73491E-04-4.70990E-14
 -1      3894 8.51899E-03 1.55861E-04-5.12517E-14
 -1      3895 8.66087E-03 1.63012E-04-5.29239E-14
 -1      3896 8.45574E-03 1.87820E-04-5.03717E-14
 -1      3897 8.80292E-03 1.70271E-04-5.46142E-14
 -1      3898 8.94511E-03 1.77623E-04-5.63202E-14
 -1      3899 8.73927E-03 2.02523E-04-5.37146E-14
 -1      3900 9.08743E-03 1.85066E-04-5.80409E-14
 -1      3901 9.22986E-03 1.92587E-04-5.97746E-14
 -1      3902 9.02349E-03 2.17548E-04-5.71234E-14
 -1      3903 9.37237E-03 2.00184E-04-6.15241E-14
 -1      3904 9.51497E-03 2.07846E-04-6.32862E-14
 -1      3905 9.30823E-03 2.32842E-04-6.05906E-14
 -1      3906 9.65763E-03 2.15568E-04-6.50571E-14
 -1      3907 9.80035E-03 2.23343E-04-6.68403E-14
 -1      3908 9.59335E-03 2.48358E-04-6.41098E-14
 -1      3909 9.94311E-03 2.31167E-04-6.86345E-14
 -1      3910 1.00859E-02 2.39033E-04-7.04408E-14
 -1      3911 9.87874E-03 2.64053E-04-6.76738E-14
 -1      3912 1.02287E-02 2.46936E-04-7.22576E-14
 -1      3913 1.03716E-02 2.54872E-04-7.40822E-14
 -1      3914 1.01643E-02 2.79891E-04-7.12854E-14
 -1      3915 1.05144E-02 2.62838E-04-7.59164E-14
 -1      3916 1.06573E-02 2.70829E-04-7.77564E-14
 -1      3917 1.04500E-02 2.95841E-04-7.49334E-14
 -1      3918 1.08002E-02 2.78842E-04-7.96062E-14
 -1      3919 1.09431E-02 2.86874E-04-8.14622E-14
 -1      3920 1.07357E-02 3.11877E-04-7.86176E-14
 -1      3921 1.10860E-02 2.94922E-04-8.33215E-14
 -1      3922 1.12289E-02 3.02985E-04-8.51864E-14
 -1      3923 1.10215E-02 3.27978E-04-8.23262E-14
 -1      3924 1.13718E-02 3.11059E-04-8.70532E-14
 -1      3925 1.15147E-02 3.19144E-04-8.89241E-14
 -1      3926 1.13074E-02 3.44128E-04-8.60545E-14
 -1      3927 1.16577E-02 3.27237E-04-9.07960E-14
 -1      3928 1.18006E-02 3.35337E-04-9.26666E-14
 -1      3929 1.15932E-02 3.60312E-04-8.97926E-14
 -1      3930 1.19435E-02 3.43443E-04-9.45395E-14
 -1      3931 1.20864E-02 3.51554E-04-9.64142E-14
 -1      3932 1.18790E-02 3.76520E-04-9.35378E-14
 -1      3933 1.22293E-02 3.59669E-04-9.82873E-14
 -1      3934 1.23722E-02 3.67787E-04-1.00161E-13
 -1      3935 1.21648E-02 3.92746E-04-9.72865E-14
 -1      3936 1.25151E-02 3.75908E-04-1.02035E-13
 -1      3937 1.26579E-02 3.84030E-04-1.03910E-13
 -1      3938 1.24506E-02 4.08983E-04-1.01035E-13
 -1      3939 1.28008E-02 3.92154E-04-1.05785E-13
 -1      3940 1.29437E-02 4.00279E-04-1.07661E-13
 -1      3941 1.27364E-02 4.25227E-04-1.04783E-13
 -1      3942 1.30806E-02 4.18516E-04-1.09416E-13
 -1      3943 1.32235E-02 4.26642E-04-1.11294E-13
 -1      3944 1.32899E-02 4.88060E-04-1.11923E-13
 -1      3945 1.30162E-02 4.51587E-04-1.08412E-13
 -1      3946 6.18213E-03 3.17115E-04-2.48881E-14
 -1      3947 6.05162E-03 3.06763E-04-2.36220E-14
 -1      3948 7.26388E-03 4.02182E-04-3.58984E-14
 -1      3949 7.12575E-03 3.91622E-04-3.44418E-14
 -1      3950 6.98831E-03 3.81003E-04-3.30071E-14
 -1      3951 6.85160E-03 3.70294E-04-3.15945E-14
 -1      3952 7.05420E-03 3.54519E-04-3.37970E-14
 -1      3953 7.82183E-03 4.43207E-04-4.19480E-14
 -1      3954 7.68163E-03 4.33140E-04-4.04041E-14
 -1      3955 8.10330E-03 4.62911E-04-4.50940E-14
 -1      3956 7.96239E-03 4.53124E-04-4.35117E-14
 -1      3957 7.88664E-03 4.13849E-04-4.28038E-14
 -1      3958 8.38597E-03 4.82064E-04-4.83186E-14
 -1      3959 8.24450E-03 4.72551E-04-4.66971E-14
 -1      3960 8.16793E-03 4.32798E-04-4.59712E-14
 -1      3961 8.66954E-03 5.00701E-04-5.16147E-14
 -1      3962 8.52765E-03 4.91442E-04-4.99583E-14
 -1      3963 8.45048E-03 4.51312E-04-4.92142E-14
 -1      3964 8.95380E-03 5.18874E-04-5.49782E-14
 -1      3965 8.81159E-03 5.09840E-04-5.32890E-14
 -1      3966 8.73397E-03 4.69417E-04-5.25299E-14
 -1      3967 9.23856E-03 5.36643E-04-5.83996E-14
 -1      3968 9.09612E-03 5.27804E-04-5.66813E-14
 -1      3969 9.01817E-03 4.87157E-04-5.59095E-14
 -1      3970 9.52368E-03 5.54070E-04-6.18810E-14
 -1      3971 9.38108E-03 5.45395E-04-6.01340E-14
 -1      3972 9.30290E-03 5.04579E-04-5.93482E-14
 -1      3973 9.80906E-03 5.71214E-04-6.54129E-14
 -1      3974 9.66634E-03 5.62674E-04-6.36396E-14
 -1      3975 9.58801E-03 5.21734E-04-6.28425E-14
 -1      3976 1.00946E-02 5.88131E-04-6.89961E-14
 -1      3977 9.95182E-03 5.79698E-04-6.71988E-14
 -1      3978 9.87338E-03 5.38668E-04-6.63880E-14
 -1      3979 1.03803E-02 6.04866E-04-7.26254E-14
 -1      3980 1.02374E-02 5.96518E-04-7.08050E-14
 -1      3981 1.01589E-02 5.55426E-04-6.99836E-14
 -1      3982 1.06660E-02 6.21460E-04-7.62953E-14
 -1      3983 1.05232E-02 6.13178E-04-7.44556E-14
 -1      3984 1.04446E-02 5.72042E-04-7.36236E-14
 -1      3985 1.09518E-02 6.37946E-04-7.99929E-14
 -1      3986 1.08089E-02 6.29715E-04-7.81422E-14
 -1      3987 1.07304E-02 5.88550E-04-7.73020E-14
 -1      3988 1.12376E-02 6.54351E-04-8.37136E-14
 -1      3989 1.10947E-02 6.46158E-04-8.18507E-14
 -1      3990 1.10162E-02 6.04975E-04-8.10058E-14
 -1      3991 1.15234E-02 6.70698E-04-8.74514E-14
 -1      3992 1.13805E-02 6.62531E-04-8.55804E-14
 -1      3993 1.13020E-02 6.21339E-04-8.47313E-14
 -1      3994 1.18092E-02 6.87001E-04-9.11949E-14
 -1      3995 1.16663E-02 6.78854E-04-8.93227E-14
 -1      3996 1.15878E-02 6.37657E-04-8.84696E-14
 -1      3997 1.20950E-02 7.03275E-04-9.49498E-14
 -1      3998 1.19521E-02 6.95141E-04-9.30725E-14
 -1      3999 1.18736E-02 6.53943E-04-9.22155E-14
 -1      4000 1.23808E-02 7.19529E-04-9.87061E-14
 -1      4001 1.22379E-02 7.11404E-04-9.68273E-14
 -1      4002 1.21594E-02 6.70207E-04-9.59677E-14
 -1      4003 1.26666E-02 7.35771E-04-1.02466E-13
 -1      4004 1.25237E-02 7.27651E-04-1.00586E-13
 -1      4005 1.24452E-02 6.86455E-04-9.97264E-14
 -1      4006 1.29524E-02 7.52004E-04-1.06230E-13
 -1      4007 1.28095E-02 7.43888E-04-1.04347E-13
 -1      4008 1.27310E-02 7.02695E-04-1.03485E-13
 -1      4009 1.32381E-02 7.68234E-04-1.09994E-13
 -1      4010 1.30953E-02 7.60120E-04-1.08112E-13
 -1      4011 1.30168E-02 7.18929E-04-1.07246E-13
 -1      4012 1.35784E-02 6.60628E-04-1.15053E-13
 -1      4013 1.35864E-02 7.02700E-04-1.14979E-13
 -1      4014 1.34507E-02 6.32516E-04-1.13456E-13
 -1      4015 5.92256E-03 2.96690E-04-2.23817E-14
 -1      4016 5.79485E-03 2.86758E-04-2.11691E-14
 -1      4017 5.99340E-03 2.74080E-04-2.30708E-14
 -1      4018 5.26467E-03 2.48163E-05-1.74325E-14
 -1      4019 5.39144E-03 2.90155E-05-1.85615E-14
 -1      4020 5.48608E-03 6.04864E-05-1.91166E-14
 -1      4021 7.54188E-03 4.22951E-04-3.88819E-14
 -1      4022 7.40260E-03 4.12616E-04-3.73793E-14
 -1      4023 7.32929E-03 3.74655E-04-3.67132E-14
 -1      4024 5.06500E-03 2.11975E-05-1.56552E-14
 -1      4025 5.15578E-03 1.93180E-05-1.65008E-14
 -1      4026 5.25962E-03 5.26330E-05-1.70330E-14
 -1      4027 5.05241E-03 4.41581E-05-1.52063E-14
 -1      4028 6.71573E-03 3.59591E-04-3.02039E-14
 -1      4029 6.58074E-03 3.48851E-04-2.88378E-14
 -1      4030 6.78228E-03 3.34184E-04-3.09718E-14
 -1      4031 1.36042E-02 7.38193E-04-1.15066E-13
 -1      4032 1.36188E-02 7.84640E-04-1.15060E-13
 -1      4033 1.35122E-02 7.81069E-04-1.13635E-13
 -1      4034 1.34765E-02 7.10084E-04-1.13466E-13
 -1      4035 5.13773E-03 7.44127E-05-1.55217E-14
 -1      4036 6.44677E-03 3.38195E-04-2.74953E-14
 -1      4037 6.31384E-03 3.27566E-04-2.61786E-14
 -1      4038 6.25096E-03 2.93731E-04-2.56036E-14
 -1      4039 1.31610E-02 5.11900E-04-1.10095E-13
 -1      4040 1.32979E-02 5.30134E-04-1.11850E-13
 -1      4041 1.33058E-02 5.72209E-04-1.11774E-13
 -1      4042 7.60694E-03 3.94457E-04-3.97160E-14
 -1      4043 5.20877E-03 9.82353E-05-1.58517E-14
 -1      4044 5.23248E-03 7.53602E-05-1.64493E-14
 -1      4045 5.33169E-03 7.90211E-05-1.73787E-14
 -1      4046 5.26799E-03 1.16862E-04-1.61981E-14
 -1      4047 1.34055E-02 7.77499E-04-1.12210E-13
 -1      4048 1.33270E-02 7.36311E-04-1.11336E-13
 -1      4049 5.32262E-03 2.46860E-04-1.67597E-14
 -1      4050 5.29784E-03 2.13914E-04-1.63370E-14
 -1      4051 5.37667E-03 1.99481E-04-1.70171E-14
 -1      4052 5.43913E-03 2.56997E-04-1.78383E-14
 -1      4053 5.67546E-03 2.76921E-04-2.00436E-14
 -1      4054 5.55487E-03 2.66305E-04-1.89160E-14
 -1      4055 5.51979E-03 2.35965E-04-1.84966E-14
 -1      4056 5.74923E-03 2.54825E-04-2.07037E-14
 -1      4057 6.51425E-03 3.13850E-04-2.82381E-14
 -1      4058 8.51478E-03 4.20411E-04-5.01122E-14
 -1      4059 8.37337E-03 4.11500E-04-4.84714E-14
 -1      4060 5.44884E-03 8.22942E-05-1.85057E-14
 -1      4061 5.56876E-03 8.59094E-05-1.96590E-14
 -1      4062 5.41218E-03 1.02448E-04-1.78983E-14
 -1      4063 7.11883E-03 3.27861E-04-3.45880E-14
 -1      4064 6.98253E-03 3.18255E-04-3.31537E-14
 -1      4065 5.94440E-03 1.02872E-04-2.32893E-14
 -1      4066 6.07180E-03 1.07972E-04-2.45469E-14
 -1      4067 6.20068E-03 1.13394E-04-2.58304E-14
 -1      4068 6.33105E-03 1.18948E-04-2.71392E-14
 -1      4069 6.14942E-03 1.38211E-04-2.51498E-14
 -1      4070 6.46267E-03 1.24757E-04-2.84719E-14
 -1      4071 6.59551E-03 1.30687E-04-2.98285E-14
 -1      4072 6.40830E-03 1.50534E-04-2.77645E-14
 -1      4073 6.72940E-03 1.36801E-04-3.12089E-14
 -1      4074 6.86431E-03 1.43030E-04-3.26141E-14
 -1      4075 6.67265E-03 1.63559E-04-3.04758E-14
 -1      4076 7.00010E-03 1.49434E-04-3.40406E-14
 -1      4077 7.13675E-03 1.55939E-04-3.54893E-14
 -1      4078 6.94150E-03 1.77178E-04-3.32801E-14
 -1      4079 7.27413E-03 1.62593E-04-3.69619E-14
 -1      4080 7.41219E-03 1.69343E-04-3.84562E-14
 -1      4081 7.21409E-03 1.91258E-04-3.61783E-14
 -1      4082 7.55086E-03 1.76223E-04-3.99719E-14
 -1      4083 7.69008E-03 1.83193E-04-4.15098E-14
 -1      4084 7.48970E-03 2.05718E-04-3.91630E-14
 -1      4085 7.82979E-03 1.90279E-04-4.30668E-14
 -1      4086 7.96994E-03 1.97446E-04-4.46445E-14
 -1      4087 7.76776E-03 2.20500E-04-4.22352E-14
 -1      4088 8.11048E-03 2.04714E-04-4.62425E-14
 -1      4089 8.25136E-03 2.12056E-04-4.78599E-14
 -1      4090 8.04778E-03 2.35555E-04-4.53895E-14
 -1      4091 8.39254E-03 2.19485E-04-4.94959E-14
 -1      4092 8.53399E-03 2.26978E-04-5.11479E-14
 -1      4093 8.32933E-03 2.50842E-04-4.86204E-14
 -1      4094 8.67566E-03 2.34545E-04-5.28176E-14
 -1      4095 8.81755E-03 2.42168E-04-5.45046E-14
 -1      4096 8.61208E-03 2.66322E-04-5.19234E-14
 -1      4097 8.95960E-03 2.49851E-04-5.62073E-14
 -1      4098 9.10180E-03 2.57583E-04-5.79265E-14
 -1      4099 8.89573E-03 2.81965E-04-5.52943E-14
 -1      4100 9.24414E-03 2.65364E-04-5.96582E-14
 -1      4101 9.38658E-03 2.73185E-04-6.14041E-14
 -1      4102 9.18007E-03 2.97741E-04-5.87292E-14
 -1      4103 9.52911E-03 2.81046E-04-6.31623E-14
 -1      4104 9.67172E-03 2.88940E-04-6.49322E-14
 -1      4105 9.46490E-03 3.13626E-04-6.22166E-14
 -1      4106 9.81440E-03 2.96866E-04-6.67142E-14
 -1      4107 9.95713E-03 3.04818E-04-6.85082E-14
 -1      4108 9.75009E-03 3.29599E-04-6.57552E-14
 -1      4109 1.00999E-02 3.12795E-04-7.03126E-14
 -1      4110 1.02427E-02 3.20792E-04-7.21288E-14
 -1      4111 1.00355E-02 3.45640E-04-6.93422E-14
 -1      4112 1.03855E-02 3.28809E-04-7.39529E-14
 -1      4113 1.05284E-02 3.36842E-04-7.57857E-14
 -1      4114 1.03211E-02 3.61736E-04-7.29712E-14
 -1      4115 1.06713E-02 3.44889E-04-7.76272E-14
 -1      4116 1.08142E-02 3.52949E-04-7.94744E-14
 -1      4117 1.06068E-02 3.77874E-04-7.66375E-14
 -1      4118 1.09571E-02 3.61020E-04-8.13305E-14
 -1      4119 1.11000E-02 3.69099E-04-8.31898E-14
 -1      4120 1.08926E-02 3.94043E-04-8.03330E-14
 -1      4121 1.12429E-02 3.77187E-04-8.50529E-14
 -1      4122 1.13858E-02 3.85282E-04-8.69195E-14
 -1      4123 1.11784E-02 4.10236E-04-8.40531E-14
 -1      4124 1.15287E-02 3.93382E-04-8.87888E-14
 -1      4125 1.16716E-02 4.01487E-04-9.06610E-14
 -1      4126 1.14643E-02 4.26446E-04-8.77861E-14
 -1      4127 1.18146E-02 4.09596E-04-9.25336E-14
 -1      4128 1.19575E-02 4.17709E-04-9.44070E-14
 -1      4129 1.17501E-02 4.42669E-04-9.15280E-14
 -1      4130 1.21004E-02 4.25824E-04-9.62816E-14
 -1      4131 1.22433E-02 4.33941E-04-9.81581E-14
 -1      4132 1.20359E-02 4.58901E-04-9.52757E-14
 -1      4133 1.23862E-02 4.42060E-04-1.00033E-13
 -1      4134 1.25291E-02 4.50181E-04-1.01907E-13
 -1      4135 1.23217E-02 4.75138E-04-9.90279E-14
 -1      4136 1.26720E-02 4.58303E-04-1.03781E-13
 -1      4137 1.28149E-02 4.66425E-04-1.05655E-13
 -1      4138 1.26075E-02 4.91379E-04-1.02776E-13
 -1      4139 1.29195E-02 4.80045E-04-1.06997E-13
 -1      4140 1.30564E-02 4.98280E-04-1.08750E-13
 -1      4141 1.30643E-02 5.40357E-04-1.08678E-13
 -1      4142 1.28551E-02 5.13120E-04-1.05993E-13
 -1      4143 5.69495E-03 9.34612E-05-2.08513E-14
 -1      4144 5.81880E-03 9.79484E-05-2.20575E-14
 -1      4145 5.89735E-03 1.26823E-04-2.26360E-14
 -1      4146 1.33092E-02 7.00816E-04-1.11252E-13
 -1      4147 8.23225E-03 4.02516E-04-4.68491E-14
 -1      4148 8.09143E-03 3.93446E-04-4.52455E-14
 -1      4149 8.29630E-03 3.72020E-04-4.77292E-14
 -1      4150 7.95098E-03 3.84301E-04-4.36612E-14
 -1      4151 7.81093E-03 3.75067E-04-4.20966E-14
 -1      4152 8.01494E-03 3.54505E-04-4.45213E-14
 -1      4153 8.79826E-03 4.38007E-04-5.34459E-14
 -1      4154 8.65641E-03 4.29243E-04-5.17698E-14
 -1      4155 8.57890E-03 3.89331E-04-5.10105E-14
 -1      4156 9.08247E-03 4.55334E-04-5.68411E-14
 -1      4157 8.94029E-03 4.46701E-04-5.51362E-14
 -1      4158 8.86245E-03 4.06448E-04-5.43625E-14
 -1      4159 9.36721E-03 4.72429E-04-6.02959E-14
 -1      4160 9.22478E-03 4.63908E-04-5.85604E-14
 -1      4161 9.14670E-03 4.23392E-04-5.77753E-14
 -1      4162 9.65232E-03 4.89329E-04-6.38034E-14
 -1      4163 9.50973E-03 4.80902E-04-6.20435E-14
 -1      4164 9.43148E-03 4.40185E-04-6.12430E-14
 -1      4165 9.93771E-03 5.06069E-04-6.73648E-14
 -1      4166 9.79499E-03 4.97717E-04-6.55784E-14
 -1      4167 9.71663E-03 4.56851E-04-6.47678E-14
 -1      4168 1.02233E-02 5.22679E-04-7.09724E-14
 -1      4169 1.00805E-02 5.14388E-04-6.91633E-14
 -1      4170 1.00020E-02 4.73412E-04-6.83427E-14
 -1      4171 1.05090E-02 5.39188E-04-7.46230E-14
 -1      4172 1.03661E-02 5.30945E-04-7.27912E-14
 -1      4173 1.02876E-02 4.89890E-04-7.19613E-14
 -1      4174 1.07947E-02 5.55618E-04-7.83071E-14
 -1      4175 1.06518E-02 5.47411E-04-7.64606E-14
 -1      4176 1.05733E-02 5.06301E-04-7.56199E-14
 -1      4177 1.10805E-02 5.71988E-04-8.20167E-14
 -1      4178 1.09376E-02 5.63809E-04-8.01604E-14
 -1      4179 1.08591E-02 5.22662E-04-7.93104E-14
 -1      4180 1.13664E-02 5.88314E-04-8.57455E-14
 -1      4181 1.12234E-02 5.80156E-04-8.38791E-14
 -1      4182 1.11449E-02 5.38984E-04-8.30262E-14
 -1      4183 1.16522E-02 6.04608E-04-8.94873E-14
 -1      4184 1.15093E-02 5.96464E-04-8.76161E-14
 -1      4185 1.14307E-02 5.55278E-04-8.67598E-14
 -1      4186 1.19380E-02 6.20879E-04-9.32340E-14
 -1      4187 1.17951E-02 6.12746E-04-9.13588E-14
 -1      4188 1.17166E-02 5.71551E-04-9.05014E-14
 -1      4189 1.22238E-02 6.37134E-04-9.69873E-14
 -1      4190 1.20809E-02 6.29008E-04-9.51118E-14
 -1      4191 1.20024E-02 5.87810E-04-9.42491E-14
 -1      4192 1.25096E-02 6.53379E-04-1.00743E-13
 -1      4193 1.23667E-02 6.45258E-04-9.88640E-14
 -1      4194 1.22882E-02 6.04059E-04-9.80032E-14
 -1      4195 1.27954E-02 6.69618E-04-1.04500E-13
 -1      4196 1.26525E-02 6.61499E-04-1.02621E-13
 -1      4197 1.25740E-02 6.20302E-04-1.01756E-13
 -1      4198 1.30812E-02 6.85853E-04-1.08259E-13
 -1      4199 1.29383E-02 6.77736E-04-1.06379E-13
 -1      4200 1.28598E-02 6.36541E-04-1.05512E-13
 -1      4201 6.06003E-03 2.52034E-04-2.37613E-14
 -1      4202 5.93441E-03 2.42910E-04-2.25196E-14
 -1      4203 6.31670E-03 2.70557E-04-2.63203E-14
 -1      4204 6.18750E-03 2.61182E-04-2.50282E-14
 -1      4205 6.12302E-03 2.29896E-04-2.44529E-14
 -1      4206 6.84714E-03 3.08666E-04-3.17396E-14
 -1      4207 6.71274E-03 2.99045E-04-3.03489E-14
 -1      4208 6.91055E-03 2.82833E-04-3.25084E-14
 -1      4209 1.33407E-02 6.46070E-04-1.11918E-13
 -1      4210 1.31912E-02 6.72297E-04-1.09796E-13
 -1      4211 1.31127E-02 6.31104E-04-1.08925E-13
 -1      4212 1.33327E-02 6.03995E-04-1.11994E-13
 -1      4213 5.39610E-03 1.60500E-04-1.72111E-14
 -1      4214 5.33679E-03 1.38589E-04-1.67045E-14
 -1      4215 5.37733E-03 1.22772E-04-1.73042E-14
 -1      4216 7.39378E-03 3.46929E-04-3.75272E-14
 -1      4217 7.25594E-03 3.37408E-04-3.60460E-14
 -1      4218 7.18241E-03 3.00881E-04-3.53811E-14
 -1      4219 7.67135E-03 3.65763E-04-4.05523E-14
 -1      4220 7.53227E-03 3.56373E-04-3.90289E-14
 -1      4221 7.45751E-03 3.18897E-04-3.83416E-14
 -1      4222 7.73519E-03 3.36789E-04-4.13899E-14
 -1      4223 6.57947E-03 2.89507E-04-2.89814E-14
 -1      4224 6.44740E-03 2.79969E-04-2.76383E-14
 -1      4225 6.64273E-03 2.64884E-04-2.97259E-14
 -1      4226 5.64989E-03 1.13590E-04-2.02143E-14
 -1      4227 6.37981E-03 2.47148E-04-2.70395E-14
 -1      4228 1.31958E-02 5.85763E-04-1.10241E-13
 -1      4229 5.88010E-03 2.12982E-04-2.20310E-14
 -1      4230 5.81717E-03 2.33846E-04-2.13662E-14
 -1      4231 5.70210E-03 2.24770E-04-2.02366E-14
 -1      4232 5.48164E-03 2.09088E-04-1.80666E-14
 -1      4233 5.44191E-03 1.83338E-04-1.76443E-14
 -1      4234 5.49907E-03 1.68449E-04-1.82659E-14
 -1      4235 5.59142E-03 2.17998E-04-1.91492E-14
 -1      4236 5.84848E-03 1.49426E-04-2.19851E-14
 -1      4237 5.97156E-03 1.55469E-04-2.32146E-14
 -1      4238 6.35283E-03 1.75383E-04-2.70580E-14
 -1      4239 6.48327E-03 1.82341E-04-2.83888E-14
 -1      4240 6.66005E-03 2.14550E-04-3.01088E-14
 -1      4241 6.79339E-03 2.22340E-04-3.14946E-14
 -1      4242 6.92783E-03 2.30285E-04-3.29024E-14
 -1      4243 7.06326E-03 2.38238E-04-3.43330E-14
 -1      4244 7.19959E-03 2.46300E-04-3.57859E-14
 -1      4245 7.33673E-03 2.54362E-04-3.72610E-14
 -1      4246 7.47459E-03 2.62497E-04-3.87590E-14
 -1      4247 7.61309E-03 2.70624E-04-4.02779E-14
 -1      4248 7.75219E-03 2.78799E-04-4.18188E-14
 -1      4249 7.89179E-03 2.86962E-04-4.33798E-14
 -1      4250 8.03185E-03 2.95155E-04-4.49611E-14
 -1      4251 8.17232E-03 3.03335E-04-4.65607E-14
 -1      4252 8.31315E-03 3.11531E-04-4.81798E-14
 -1      4253 8.45429E-03 3.19714E-04-4.98171E-14
 -1      4254 8.59571E-03 3.27906E-04-5.14714E-14
 -1      4255 8.73736E-03 3.36086E-04-5.31437E-14
 -1      4256 8.87923E-03 3.44269E-04-5.48326E-14
 -1      4257 9.02127E-03 3.52442E-04-5.65375E-14
 -1      4258 9.16346E-03 3.60615E-04-5.82568E-14
 -1      4259 9.30579E-03 3.68780E-04-5.99885E-14
 -1      4260 9.44823E-03 3.76943E-04-6.17340E-14
 -1      4261 9.59076E-03 3.85099E-04-6.34931E-14
 -1      4262 9.73337E-03 3.93252E-04-6.52667E-14
 -1      4263 9.87605E-03 4.01401E-04-6.70512E-14
 -1      4264 1.00188E-02 4.09547E-04-6.88468E-14
 -1      4265 1.01616E-02 4.17688E-04-7.06539E-14
 -1      4266 1.03044E-02 4.25828E-04-7.24693E-14
 -1      4267 1.04472E-02 4.33964E-04-7.42978E-14
 -1      4268 1.05901E-02 4.42098E-04-7.61327E-14
 -1      4269 1.07329E-02 4.50230E-04-7.79763E-14
 -1      4270 1.08758E-02 4.58360E-04-7.98266E-14
 -1      4271 1.10187E-02 4.66488E-04-8.16840E-14
 -1      4272 1.11617E-02 4.74615E-04-8.35436E-14
 -1      4273 1.13046E-02 4.82741E-04-8.54070E-14
 -1      4274 1.14475E-02 4.90865E-04-8.72768E-14
 -1      4275 1.15904E-02 4.98989E-04-8.91456E-14
 -1      4276 1.17333E-02 5.07112E-04-9.10172E-14
 -1      4277 1.18762E-02 5.15235E-04-9.28897E-14
 -1      4278 1.20191E-02 5.23356E-04-9.47663E-14
 -1      4279 1.21621E-02 5.31478E-04-9.66420E-14
 -1      4280 1.23050E-02 5.39599E-04-9.85155E-14
 -1      4281 1.24479E-02 5.47720E-04-1.00394E-13
 -1      4282 1.25908E-02 5.55841E-04-1.02270E-13
 -1      4283 1.27337E-02 5.63961E-04-1.04145E-13
 -1      4284 1.28765E-02 5.72082E-04-1.06022E-13
 -1      4285 5.59455E-03 1.33167E-04-1.94812E-14
 -1      4286 5.71540E-03 1.41339E-04-2.06673E-14
 -1      4287 5.48827E-03 1.26766E-04-1.84284E-14
 -1      4288 6.09677E-03 1.61925E-04-2.44701E-14
 -1      4289 6.22395E-03 1.68505E-04-2.57516E-14
 -1      4290 6.29596E-03 1.99307E-04-2.63528E-14
 -1      4291 6.04226E-03 1.84584E-04-2.37923E-14
 -1      4292 5.54855E-03 1.52520E-04-1.88612E-14
 -1      4293 6.46844E-03 2.31246E-04-2.80214E-14
 -1      4294 6.33841E-03 2.22992E-04-2.66972E-14
 -1      4295 1.29866E-02 5.58527E-04-1.07557E-13
 -1      4296 5.78485E-03 1.68463E-04-2.12209E-14
 -1      4297 6.52792E-03 2.06753E-04-2.87472E-14
 -1      4298 5.95884E-03 1.99291E-04-2.28756E-14
 -1      4299 5.84257E-03 1.91400E-04-2.17150E-14
 -1      4300 6.20999E-03 2.14949E-04-2.53975E-14
 -1      4301 5.65480E-03 1.98454E-04-1.97860E-14
 -1      4302 6.08339E-03 2.06981E-04-2.41236E-14
 -1      4303 5.60296E-03 1.76325E-04-1.93132E-14
 -1      4304 5.71105E-03 1.81905E-04-2.04045E-14
 -1      4305 1.30912E-02 5.72145E-04-1.08897E-13
 -3
    1PSTEP                         2           1           1          
  100CL  101 1.000000000        4305                     0    1           1
 -4  STRESS      6    1
 -5  SXX         1    4    1    1
 -5  SYY         1    4    2    2
 -5  SZZ         1    4    3    3
 -5  SXY         1    4    1    2
 -5  SYZ         1    4    2    3
 -5  SZX         1    4    3    1
 -1         1 6.46453E+01 7.79809E-01 3.44974E+00 2.83673E-02-3.01079E-14-1.06645E-12
 -1         2-8.54288E-01-2.23227E+01-3.27032E+00-9.18844E-02 4.70086E-13 8.57266E-14
 -1         3 1.99998E+01 1.07921E-05-4.11522E-05 1.09355E-05-3.67917E-13-3.01649E-13
 -1         4 1.99998E+01 1.00922E-05-4.19290E-05-1.04295E-05 1.65404E-13 1.08667E-13
 -1         5 4.08587E+01 7.72561E+00 3.24764E+00 7.21832E+00-3.81778E-14 3.15080E-12
 -1         6 4.31985E+01 1.47646E+01 6.01668E+00-1.00497E+01-2.20379E-13 2.95017E-12
 -1         7 2.54779E+01 7.42908E+00-7.29306E-02-5.03882E+00-2.90878E-14 3.90809E-13
 -1         8 2.32346E+01 6.99907E+00 1.14895E-01-2.98254E+00-3.02536E-14-3.29814E-13
 -1         9 2.15936E+01 6.50721E+00 1.29577E-01-1.73211E+00-1.95677E-14-6.99058E-13
 -1        10 2.00107E+01 6.02653E+00 1.41722E-01-6.27596E-01-1.01447E-14-8.60096E-13
 -1        11 1.81879E+01 5.47985E+00 1.18361E-01 3.30298E-01-7.77156E-16-9.41822E-13
 -1        12 1.61071E+01 4.86316E+00 4.77840E-02 9.83299E-01 4.14946E-15-9.71486E-13
 -1        13 1.40549E+01 4.25991E+00-5.61781E-02 1.15344E+00 8.92342E-15-9.87603E-13
 -1        14 1.25720E+01 3.82366E+00-1.50293E-01 8.08586E-01 7.51482E-15-9.95952E-13
 -1        15 1.21316E+01 3.69516E+00-1.84139E-01 1.24417E-01 6.36990E-15-9.87424E-13
 -1        16 1.29331E+01 3.93195E+00-1.37926E-01-5.12908E-01 4.55191E-15-9.49901E-13
 -1        17 1.47502E+01 4.46788E+00-3.86198E-02-7.73589E-01 7.86871E-15-8.90973E-13
 -1        18 1.70467E+01 5.14754E+00 5.96559E-02-4.96106E-01 1.10467E-14-7.91110E-13
 -1        19 1.93582E+01 5.83651E+00 1.18557E-01 2.47688E-01 2.20379E-14-6.39560E-13
 -1        20 2.15106E+01 6.48507E+00 1.33390E-01 1.30096E+00 3.09058E-14-3.87036E-13
 -1        21 2.36810E+01 7.14467E+00 1.33694E-01 2.61296E+00 3.80390E-14 7.29191E-14
 -1        22 2.67227E+01 7.97562E+00 2.52249E-01 4.55311E+00 8.02136E-15 1.00520E-12
 -1        23 2.91211E+01-1.69916E+00-1.09907E+00-7.16737E-01-1.43614E-13 2.21875E-12
 -1        24 2.51598E+01-8.71115E-02-2.91695E-01 8.33809E-02-3.34659E-14 1.63373E-12
 -1        25 2.39066E+01-3.22915E-02-1.07571E-02 3.42858E-02-2.51355E-14 1.05780E-12
 -1        26 2.25324E+01-2.48390E-03 4.30147E-02-3.37163E-02-9.19376E-15 6.39254E-13
 -1        27 2.08999E+01-9.29921E-03 1.42336E-02-6.90667E-02 6.96546E-15 3.58893E-13
 -1        28 1.92717E+01-2.71339E-02-3.84112E-02-7.15830E-02-4.88672E-15 2.28002E-13
 -1        29 1.81187E+01-4.31008E-02-8.34588E-02-3.62312E-02-5.06192E-15 9.54202E-14
 -1        30 1.78572E+01-4.57655E-02-9.39814E-02 2.20490E-02-6.89943E-15-9.87101E-14
 -1        31 1.85757E+01-3.20401E-02-6.37451E-02 7.30673E-02-6.32610E-15-3.19276E-13
 -1        32 1.99647E+01-9.10244E-03-1.27680E-02 9.32565E-02-3.00017E-14-4.76643E-13
 -1        33 2.15075E+01 1.18687E-02 3.05281E-02 8.10138E-02 3.90804E-14-5.96103E-13
 -1        34 2.27572E+01 2.35626E-02 5.04919E-02 5.14942E-02 1.41163E-14-5.97439E-13
 -1        35 2.34960E+01 2.52671E-02 4.88660E-02 2.14109E-02-3.59955E-17-6.59152E-13
 -1        36 2.37240E+01 2.04625E-02 3.57329E-02-1.62037E-04-2.60747E-14-8.08955E-13
 -1        37 2.35646E+01 1.32923E-02 2.05202E-02-1.17782E-02 2.06985E-15-9.21891E-13
 -1        38 2.31708E+01 6.55855E-03 8.24788E-03-1.58501E-02-4.42954E-14-9.47934E-13
 -1        39 2.26728E+01 1.48645E-03 2.27532E-04-1.54857E-02-1.16266E-14-1.00002E-12
 -1        40 2.21606E+01-1.75938E-03-4.12706E-03-1.30907E-02-2.93697E-16-1.09503E-12
 -1        41 2.16871E+01-3.50314E-03-5.94630E-03-1.01314E-02 2.46248E-14-1.22783E-12
 -1        42 2.12776E+01-4.19014E-03-6.25241E-03-7.34741E-03-3.69156E-14-1.16730E-12
 -1        43 2.09396E+01-4.21576E-03-5.77168E-03-5.03105E-03-2.35940E-14-1.03927E-12
 -1        44 2.06704E+01-3.87438E-03-4.95567E-03-3.23918E-03-9.97911E-15-7.33350E-13
 -1        45 2.04622E+01-3.36317E-03-4.05884E-03-1.92304E-03-6.55636E-15-6.43519E-13
 -1        46 2.03054E+01-2.80384E-03-3.21109E-03-9.97633E-04-6.20561E-14-9.86170E-13
 -1        47 2.01905E+01-2.26557E-03-2.46961E-03-3.74857E-04 4.41710E-14-6.81142E-13
 -1        48 2.01086E+01-1.78336E-03-1.85172E-03 2.30307E-05-4.97300E-15-2.83820E-13
 -1        49 2.00520E+01-1.37118E-03-1.35419E-03 2.59406E-04-2.83954E-14-4.90767E-13
 -1        50 2.00144E+01-1.03074E-03-9.64324E-04 3.83543E-04-1.84441E-14-7.88461E-13
 -1        51 1.99908E+01-7.57156E-04-6.65966E-04 4.32490E-04-6.83686E-15-8.47079E-13
 -1        52 1.99771E+01-5.42429E-04-4.42703E-04 4.33358E-04 4.50172E-14-7.60762E-13
 -1        53 1.99702E+01-3.77520E-04-2.79420E-04 4.05482E-04-2.04337E-14-7.83922E-13
 -1        54 1.99680E+01-2.53538E-04-1.62959E-04 3.62278E-04 1.67262E-14-7.11249E-13
 -1        55 1.99687E+01-1.62358E-04-8.22855E-05 3.12750E-04 2.81694E-14-5.25851E-13
 -1        56 1.99712E+01-9.69029E-05-2.84085E-05 2.62690E-04-7.90479E-14-5.79234E-13
 -1        57 1.99745E+01-5.12124E-05 5.83340E-06 2.15594E-04-5.64778E-15-6.45127E-13
 -1        58 1.99781E+01-2.04015E-05 2.60261E-05 1.73364E-04 2.21848E-14-6.29455E-13
 -1        59 1.99817E+01-5.56025E-07 3.64421E-05 1.36828E-04 5.91947E-16-5.40201E-13
 -1        60 1.99850E+01 1.13974E-05 4.02873E-05 1.06119E-04 1.50089E-14-3.29780E-13
 -1        61 1.99880E+01 1.78282E-05 3.99204E-05 8.09467E-05 7.87095E-14-1.58915E-15
 -1        62 1.99906E+01 2.05317E-05 3.70426E-05 6.07881E-05-1.08088E-13 3.60303E-13
 -1        63 1.99928E+01 2.08481E-05 3.28594E-05 4.50135E-05 1.89553E-14 5.74989E-13
 -1        64 1.99946E+01 1.97661E-05 2.82176E-05 3.29645E-05-8.14676E-14 5.32570E-13
 -1        65 1.99961E+01 1.80114E-05 2.37305E-05 2.39914E-05-9.16714E-14 1.91759E-13
 -1        66 1.99973E+01 1.61187E-05 1.99014E-05 1.74499E-05 6.04954E-14 1.13099E-13
 -1        67 1.99982E+01 1.44791E-05 1.72527E-05 1.26472E-05-3.17290E-15-6.34670E-16
 -1        68 1.99989E+01 1.33367E-05 1.63763E-05 8.68523E-06 8.81326E-14 4.62904E-13
 -1        69 1.99995E+01 1.25926E-05 1.74227E-05 4.11931E-06 1.87435E-13 8.49093E-13
 -1        70 1.99998E+01 1.02538E-05 1.69872E-05-4.43829E-06-2.94497E-14 9.29693E-13
 -1        71 1.99998E+01-1.87084E-06-1.08683E-06-1.56682E-05-5.61079E-14 4.90930E-13
 -1        72 2.81921E+01-4.85856E-01-1.13311E+00-5.18879E-01 4.48322E-14 2.85422E-12
 -1        73 2.68614E+01-4.71696E-02-2.49506E-01-1.06875E-01 1.60393E-14 2.16949E-12
 -1        74 2.57776E+01 3.95244E-03 2.05298E-02-2.71523E-02 2.26442E-14 1.68127E-12
 -1        75 2.42808E+01 3.54131E-03 6.85506E-02 2.80341E-02 1.17014E-14 1.37012E-12
 -1        76 2.22510E+01-1.37336E-02 2.93454E-02 8.66878E-02 4.19606E-15 1.04677E-12
 -1        77 2.00450E+01-3.40139E-02-5.13206E-02 1.20803E-01-1.59970E-14 9.04707E-13
 -1        78 1.83997E+01-4.22290E-02-1.24819E-01 9.88602E-02-1.69491E-14 9.42656E-13
 -1        79 1.80144E+01-3.22319E-02-1.39410E-01 2.24589E-02 2.79312E-14 7.94633E-13
 -1        80 1.90362E+01-1.11492E-02-8.48130E-02-6.33944E-02-3.77894E-14 5.88397E-13
 -1        81 2.09320E+01 8.90254E-03-2.04128E-03-1.09904E-01 5.16226E-14 3.57950E-13
 -1        82 2.28790E+01 2.01593E-02 5.85963E-02-1.05023E-01 2.65564E-15 2.26014E-13
 -1        83 2.42631E+01 2.17878E-02 7.71236E-02-7.01325E-02-3.01105E-15 1.60521E-13
 -1        84 2.48836E+01 1.72255E-02 6.41324E-02-3.17165E-02 1.36040E-14 1.68606E-13
 -1        85 2.48519E+01 1.05710E-02 3.98035E-02-3.86147E-03 8.44181E-15-5.72264E-15
 -1        86 2.43994E+01 4.56795E-03 1.77121E-02 1.14084E-02 3.05083E-14-4.11602E-13
 -1        87 2.37449E+01 3.03631E-04 2.76252E-03 1.72662E-02-7.79338E-14-1.32149E-13
 -1        88 2.30444E+01-2.21224E-03-5.33656E-03 1.76476E-02 3.34540E-14-1.25107E-13
 -1        89 2.23885E+01-3.39421E-03-8.65595E-03 1.54981E-02-1.24667E-14-6.10782E-13
 -1        90 2.18195E+01-3.71311E-03-9.22410E-03 1.25450E-02-1.96273E-14-4.32119E-13
 -1        91 2.13499E+01-3.54326E-03-8.45399E-03 9.64309E-03 1.83810E-14-4.73563E-13
 -1        92 2.09759E+01-3.13731E-03-7.17347E-03 7.13970E-03-2.12407E-14-4.53372E-13
 -1        93 2.06863E+01-2.64859E-03-5.81069E-03 5.12320E-03 6.57655E-15-1.24772E-13
 -1        94 2.04673E+01-2.16193E-03-4.56018E-03 3.56630E-03-8.92513E-15-2.42317E-13
 -1        95 2.03053E+01-1.71935E-03-3.49293E-03 2.39982E-03-2.75045E-14-7.55570E-15
 -1        96 2.01882E+01-1.33778E-03-2.61989E-03 1.54715E-03 6.09888E-14-2.17870E-14
 -1        97 2.01057E+01-1.02040E-03-1.92574E-03 9.38259E-04-7.46232E-14-1.32048E-13
 -1        98 2.00494E+01-7.63338E-04-1.38563E-03 5.14279E-04-2.44527E-14-2.90462E-13
 -1        99 2.00123E+01-5.59610E-04-9.73090E-04 2.27820E-04-2.14474E-14-4.54608E-13
 -1       100 1.99892E+01-4.01210E-04-6.63484E-04 4.17641E-05 1.40178E-14-3.07179E-13
 -1       101 1.99759E+01-2.80265E-04-4.35308E-04-7.24111E-05-6.89846E-14-3.19084E-13
 -1       102 1.99695E+01-1.89592E-04-2.70473E-04-1.36280E-04 7.46190E-14-6.19427E-13
 -1       103 1.99676E+01-1.22919E-04-1.54134E-04-1.65920E-04-3.73833E-14-6.59462E-13
 -1       104 1.99685E+01-7.49438E-05-7.43288E-05-1.73122E-04 2.29873E-14-2.71257E-13
 -1       105 1.99710E+01-4.12856E-05-2.15766E-05-1.66381E-04-7.08167E-14-1.05307E-13
 -1       106 1.99744E+01-1.83993E-05 1.15268E-05-1.51685E-04-1.32412E-13 1.03281E-13
 -1       107 1.99781E+01-3.46532E-06 3.06767E-05-1.33146E-04 1.00044E-14-1.68302E-13
 -1       108 1.99817E+01 5.72175E-06 4.01855E-05-1.13490E-04 1.88076E-14-6.19328E-13
 -1       109 1.99851E+01 1.08596E-05 4.32646E-05-9.44387E-05 6.64672E-15-3.47269E-13
 -1       110 1.99881E+01 1.32351E-05 4.22634E-05-7.70059E-05 6.40870E-14-3.94010E-13
 -1       111 1.99907E+01 1.38103E-05 3.88683E-05-6.17160E-05-4.75777E-14-4.96984E-13
 -1       112 1.99929E+01 1.32956E-05 3.42697E-05-4.87703E-05-6.72823E-14-1.01832E-13
 -1       113 1.99947E+01 1.22130E-05 2.93015E-05-3.81659E-05 6.15034E-14-3.19193E-13
 -1       114 1.99961E+01 1.09480E-05 2.45664E-05-2.97762E-05-2.44613E-14-5.07372E-13
 -1       115 1.99973E+01 9.78834E-06 2.05628E-05-2.33916E-05-7.92294E-15-8.86855E-13
 -1       116 1.99982E+01 8.92464E-06 1.78180E-05-1.86908E-05-3.45523E-14-8.82946E-13
 -1       117 1.99990E+01 8.45833E-06 1.69537E-05-1.51355E-05-6.06942E-14-5.47810E-13
 -1       118 1.99995E+01 8.20908E-06 1.81191E-05-1.16682E-05 1.80360E-14-9.98502E-13
 -1       119 1.99998E+01 6.42065E-06 1.74792E-05-4.63996E-06 5.35081E-14-1.36628E-12
 -1       120 1.99998E+01-7.07008E-06-2.69698E-06 1.15747E-05 2.10252E-13-1.32454E-12
 -1       121 1.99998E+01 3.71579E-05-7.32015E-07 1.72116E-05-1.53950E-12-2.02593E-13
 -1       122 1.99998E+01-4.65408E-05 1.75547E-05-1.95039E-07-1.46965E-12 1.15009E-13
 -1       123 1.99998E+01-3.44865E-04 1.34536E-05-1.09897E-05-3.44675E-13 1.70749E-13
 -1       124 1.99998E+01-7.75062E-04 4.95884E-06-1.56879E-05 4.55383E-13 1.86621E-13
 -1       125 1.99998E+01-1.24850E-03-3.04725E-06-1.59479E-05 1.73176E-12-1.52260E-14
 -1       126 1.99998E+01-1.67690E-03-9.27903E-06-1.34649E-05 7.70154E-13-7.57526E-14
 -1       127 1.99998E+01-2.00713E-03-1.35182E-05-8.84871E-06 3.21296E-13 4.36875E-13
 -1       128 1.99998E+01-2.18380E-03-1.56812E-05-3.04388E-06 6.32290E-13-2.34565E-13
 -1       129 1.99998E+01-2.18227E-03-1.56624E-05 3.14478E-06 5.10376E-13 1.21369E-13
 -1       130 1.99998E+01-2.00276E-03-1.34667E-05 8.92317E-06 1.72137E-13-3.15202E-13
 -1       131 1.99998E+01-1.67040E-03-9.11905E-06 1.36336E-05-8.13330E-13-6.55598E-14
 -1       132 1.99998E+01-1.24093E-03-2.95449E-06 1.59851E-05-8.69877E-13 3.74340E-13
 -1       133 1.99998E+01-7.67529E-04 5.00848E-06 1.55837E-05-3.25900E-13-1.59778E-13
 -1       134 1.99998E+01-3.37284E-04 1.43054E-05 1.20887E-05-1.70798E-13 1.12051E-13
 -1       135 1.99998E+01-4.76287E-05 1.55223E-05 3.08565E-07-5.30936E-13-1.14930E-13
 -1       136 1.99998E+01 3.38083E-05-1.28987E-06-2.86904E-05-6.55711E-13 9.21696E-15
 -1       137-1.36717E+00-1.78336E+01-2.99985E+00-3.23915E+00 2.04789E-12 5.76587E-13
 -1       138-1.18653E+00-6.59305E+00-2.20083E+00-2.20490E+00 3.19450E-12 1.52192E-12
 -1       139 4.04504E+00 4.83974E+00-9.69925E-01 4.65914E+00 3.13466E-12 2.40041E-12
 -1       140 1.63571E+01 1.08429E+01 4.27038E-01 1.32088E+01 2.43311E-12 2.79765E-12
 -1       141 3.48976E+01 1.02547E+01 1.84615E+00 1.83806E+01 1.35178E-12 2.29644E-12
 -1       142 5.39107E+01 5.34119E+00 3.00285E+00 1.57738E+01 3.45363E-13 9.62230E-13
 -1       143 6.50536E+01 1.12801E+00 3.57545E+00 4.84706E+00-3.51351E-14-7.82971E-13
 -1       144 6.19270E+01 1.91451E+00 3.33858E+00-8.39869E+00 4.65398E-13-2.77228E-12
 -1       145 4.65668E+01 6.48154E+00 2.37501E+00-1.64541E+01 1.59633E-12-4.15984E-12
 -1       146 2.61996E+01 1.00362E+01 9.48489E-01-1.59696E+01 2.90462E-12-4.46998E-12
 -1       147 1.00125E+01 8.23151E+00-4.70010E-01-9.17145E+00 3.75910E-12-3.76721E-12
 -1       148 6.21669E-01 2.69500E-01-1.67922E+00-9.71583E-01 3.76360E-12-2.43602E-12
 -1       149-1.40501E+00-9.27759E+00-2.37872E+00 2.96000E+00 2.85810E-12-1.11187E-12
 -1       150-8.54948E-01-1.65442E+01-2.71572E+00 2.11005E+00 1.11713E-12-2.15876E-13
 -1       151-6.34426E-01-1.73911E+01-2.71316E+00-1.04536E+00-9.52002E-13-1.19908E-13
 -1       152-1.21043E+00-1.16310E+01-2.42548E+00-2.94475E+00-2.68413E-12-8.11948E-13
 -1       153-3.92062E-01-2.40890E+00-1.84516E+00-5.95781E-01-3.73312E-12-1.98111E-12
 -1       154 5.18926E+00 6.18595E+00-9.21217E-01 5.86513E+00-3.99492E-12-3.30930E-12
 -1       155 1.78493E+01 1.04107E+01 3.12150E-01 1.36062E+01-3.39112E-12-4.19964E-12
 -1       156 3.80716E+01 8.45852E+00 1.81194E+00 1.73352E+01-1.98816E-12-4.14629E-12
 -1       157 5.69025E+01 3.33281E+00 2.98383E+00 1.19690E+01-7.31491E-13-2.95475E-12
 -1       158 5.82852E+01 3.53012E+00 3.17022E+00-1.26784E+01-2.75387E-13 9.45077E-13
 -1       159 3.97229E+01 9.16181E+00 2.14273E+00-1.84104E+01-1.35134E-12 2.73193E-12
 -1       160 1.97356E+01 1.14267E+01 7.53775E-01-1.48569E+01-2.36616E-12 2.97878E-12
 -1       161 5.31990E+00 6.38837E+00-7.06026E-01-5.98272E+00-2.89252E-12 2.34801E-12
 -1       162-8.91066E-01-5.14555E+00-2.04231E+00 1.59359E+00-2.94453E-12 1.36793E-12
 -1       163-1.41284E+00-1.72172E+01-2.95580E+00 3.41276E+00-1.38228E-12 4.24244E-13
 -1       164 2.54721E+01 4.00934E+00-7.16351E-02-3.76243E+00-4.16524E-13 5.65936E-14
 -1       165 2.34245E+01 4.20404E+00-5.94571E-02-2.60080E+00-3.24085E-13-3.82572E-13
 -1       166 2.17946E+01 4.05732E+00-3.98153E-02-1.50692E+00-1.97222E-13-6.11089E-13
 -1       167 2.00034E+01 3.84702E+00-2.76632E-02-4.44546E-01-6.15358E-14-7.25545E-13
 -1       168 1.77878E+01 3.79684E+00-2.08694E-02 4.74128E-01 3.73538E-14-8.01019E-13
 -1       169 1.52549E+01 3.99562E+00-1.76678E-02 1.02646E+00 9.70630E-14-8.38145E-13
 -1       170 1.29689E+01 4.35187E+00-1.56367E-02 1.02841E+00 1.30900E-13-8.76431E-13
 -1       171 1.16332E+01 4.63048E+00-1.52557E-02 5.06206E-01 1.10627E-13-8.94073E-13
 -1       172 1.18502E+01 4.61963E+00-1.52644E-02-1.96681E-01 7.10005E-14-8.82990E-13
 -1       173 1.35728E+01 4.34352E+00-1.70704E-02-6.38885E-01 5.58928E-14-8.14843E-13
 -1       174 1.61764E+01 4.03596E+00-2.07333E-02-5.20426E-01 8.55409E-14-7.06791E-13
 -1       175 1.89186E+01 3.91747E+00-2.73128E-02 1.34755E-01 1.66088E-13-5.67053E-13
 -1       176 2.13964E+01 4.01361E+00-4.01787E-02 1.12383E+00 2.66277E-13-3.70447E-13
 -1       177 2.36977E+01 4.12844E+00-5.81180E-02 2.25484E+00 3.57360E-13-6.58328E-14
 -1       178 2.64174E+01 3.70482E+00-7.07281E-02 3.37644E+00 3.81917E-13 5.00371E-13
 -1       179 2.89233E+01 1.11011E+00-3.94067E-01 2.96853E+00 3.18627E-13 1.25530E-12
 -1       180 2.71408E+01 8.07118E-01-5.10303E-03-2.17289E+00-3.73604E-13 6.61270E-13
 -1       181 2.52548E+01 1.40348E-02-1.41124E-02-1.22280E+00-3.13125E-13 4.95031E-13
 -1       182 2.39125E+01-6.76463E-02 1.32079E-02-1.13517E+00-2.45828E-13 3.69973E-13
 -1       183 2.27595E+01-5.01312E-02 1.15035E-02-1.23892E+00-1.76296E-13 2.32026E-13
 -1       184 2.16610E+01 6.58776E-02 7.60624E-03-1.19943E+00-1.18034E-13 8.13455E-14
 -1       185 2.07582E+01 2.13949E-01 4.97753E-03-8.46788E-01-1.05486E-13-4.14508E-14
 -1       186 2.02729E+01 3.00702E-01 3.38655E-03-2.09621E-01-1.23047E-13-1.37155E-13
 -1       187 2.03369E+01 2.62934E-01 2.95972E-03 4.84945E-01-1.46514E-13-2.30836E-13
 -1       188 2.08730E+01 1.23458E-01 2.86680E-03 9.58188E-01-1.32640E-13-3.30098E-13
 -1       189 2.16317E+01-3.28781E-02 1.82866E-03 1.06609E+00-7.01843E-14-3.66999E-13
 -1       190 2.23370E+01-1.33395E-01-2.13540E-04 8.59929E-01-4.59684E-14-5.77630E-13
 -1       191 2.28093E+01-1.59984E-01-2.20270E-03 4.99931E-01-3.32148E-14-6.28996E-13
 -1       192 2.29945E+01-1.35219E-01-3.32749E-03 1.38310E-01-2.28624E-14-6.06084E-13
 -1       193 2.29283E+01-9.04473E-02-3.33353E-03-1.38701E-01-4.37734E-14-4.72543E-13
 -1       194 2.26853E+01-4.72710E-02-2.58244E-03-3.08613E-01-1.95591E-14-4.59005E-13
 -1       195 2.23434E+01-1.48579E-02-1.55163E-03-3.85860E-01-7.10073E-14-4.42353E-13
 -1       196 2.19656E+01 5.64834E-03-5.90362E-04-3.97557E-01-6.18008E-14-5.40417E-13
 -1       197 2.15955E+01 1.65678E-02 1.32732E-04-3.69770E-01-1.26185E-15-5.40188E-13
 -1       198 2.12586E+01 2.09361E-02 5.86821E-04-3.22351E-01-2.16636E-14-5.41638E-13
 -1       199 2.09673E+01 2.13350E-02 8.14451E-04-2.68454E-01 8.99672E-14-4.87699E-13
 -1       200 2.07251E+01 1.96061E-02 8.80717E-04-2.15852E-01 1.48848E-13-3.40188E-13
 -1       201 2.05297E+01 1.69317E-02 8.46319E-04-1.68570E-01-2.38948E-14-2.99188E-13
 -1       202 2.03762E+01 1.40113E-02 7.57740E-04-1.28255E-01-7.77110E-14-3.57857E-13
 -1       203 2.02586E+01 1.12247E-02 6.46538E-04-9.51602E-02 1.33694E-13-1.43113E-13
 -1       204 2.01705E+01 8.75348E-03 5.32195E-04-6.87909E-02 1.00603E-13-2.19404E-13
 -1       205 2.01062E+01 6.66312E-03 4.25584E-04-4.83093E-02-1.23157E-13-3.47125E-13
 -1       206 2.00604E+01 4.95438E-03 3.31930E-04-3.27695E-02-2.06541E-13-4.85263E-13
 -1       207 2.00288E+01 3.59516E-03 2.52978E-04-2.12489E-02-4.85804E-16-5.32563E-13
 -1       208 2.00078E+01 2.53917E-03 1.88473E-04-1.29136E-02 7.43560E-14-4.08244E-13
 -1       209 1.99946E+01 1.73660E-03 1.37117E-04-7.04568E-03-5.27812E-14-4.17681E-13
 -1       210 1.99870E+01 1.13982E-03 9.71536E-05-3.04827E-03 1.21883E-13-1.97506E-13
 -1       211 1.99832E+01 7.06223E-04 6.67177E-05-4.38195E-04 5.85027E-14-1.29405E-13
 -1       212 1.99820E+01 3.99261E-04 4.40329E-05 1.16658E-03-3.26823E-14-3.02795E-13
 -1       213 1.99824E+01 1.88583E-04 2.75068E-05 2.06185E-03-9.14995E-14-3.03275E-13
 -1       214 1.99838E+01 4.96089E-05 1.57709E-05 2.47200E-03-1.26384E-13-6.68756E-13
 -1       215 1.99857E+01-3.71351E-05 7.68514E-06 2.56377E-03 3.75794E-14-7.20288E-13
 -1       216 1.99877E+01-8.67759E-05 2.32273E-06 2.45830E-03 1.67913E-13-6.07394E-13
 -1       217 1.99897E+01-1.10843E-04-1.05374E-06 2.24135E-03 1.90862E-13-3.18426E-13
 -1       218 1.99916E+01-1.17968E-04-3.02050E-06 1.97179E-03 2.38570E-13-2.29062E-13
 -1       219 1.99933E+01-1.14500E-04-4.02071E-06 1.68834E-03 1.19255E-13-4.59843E-14
 -1       220 1.99948E+01-1.05047E-04-4.39068E-06 1.41487E-03-8.53486E-14 5.77079E-15
 -1       221 1.99960E+01-9.29391E-05-4.38189E-06 1.16448E-03-6.82056E-14 7.49008E-14
 -1       222 1.99970E+01-8.06230E-05-4.17421E-06 9.42337E-04 1.11211E-13 3.20108E-13
 -1       223 1.99979E+01-6.99948E-05-3.87091E-06 7.47772E-04 5.11696E-14 4.04298E-13
 -1       224 1.99985E+01-6.26726E-05-3.47831E-06 5.75561E-04 2.81058E-13 5.90527E-13
 -1       225 1.99991E+01-6.00657E-05-2.89706E-06 4.16887E-04 3.39322E-14 4.07170E-13
 -1       226 1.99994E+01-6.26605E-05-2.38008E-06 2.61702E-04-1.12294E-13 2.90528E-14
 -1       227 1.99997E+01-6.58466E-05-1.73786E-06 1.06549E-04-1.12221E-13 1.05621E-13
 -1       228 2.73638E+01 1.43903E-01-5.23273E-02 1.21181E+00 3.03466E-13 1.11837E-12
 -1       229 2.59282E+01-4.74758E-02 1.58568E-02 9.00505E-01 2.30573E-13 9.37151E-13
 -1       230 2.46896E+01-1.14753E-01 2.09183E-02 1.10329E+00 1.78526E-13 7.99082E-13
 -1       231 2.33433E+01-6.52508E-02 1.18325E-02 1.34545E+00 1.79666E-13 6.58977E-13
 -1       232 2.19722E+01 8.39928E-02-7.64035E-04 1.30136E+00 7.83518E-14 4.83826E-13
 -1       233 2.09198E+01 2.51711E-01-1.19456E-02 7.94525E-01 3.94147E-14 3.30983E-13
 -1       234 2.05641E+01 3.14243E-01-1.43230E-02-4.63040E-02 1.01886E-13 2.28616E-13
 -1       235 2.10098E+01 2.18514E-01-6.72701E-03-8.24159E-01 1.22213E-13 1.22752E-13
 -1       236 2.19768E+01 3.92733E-02 3.32431E-03-1.18268E+00 1.65430E-13-2.13579E-14
 -1       237 2.30040E+01-1.06187E-01 8.05723E-03-1.06194E+00 3.76530E-14-1.10179E-13
 -1       238 2.37348E+01-1.61996E-01 6.46325E-03-6.55323E-01 1.46953E-14-8.75923E-14
 -1       239 2.40369E+01-1.44952E-01 2.26915E-03-2.02652E-01 8.29068E-15-1.31533E-13
 -1       240 2.39544E+01-9.72384E-02-9.65897E-04 1.49312E-01 7.82885E-14-1.98922E-13
 -1       241 2.36072E+01-4.94219E-02-2.27630E-03 3.60008E-01 1.09267E-13-1.84650E-13
 -1       242 2.31204E+01-1.42031E-02-2.16336E-03 4.49364E-01-1.02206E-13-2.72997E-13
 -1       243 2.25913E+01 6.99811E-03-1.42946E-03 4.56553E-01 7.83638E-14-4.11433E-13
 -1       244 2.20829E+01 1.74308E-02-6.32882E-04 4.17650E-01 1.27028E-13-3.07859E-13
 -1       245 2.16290E+01 2.09798E-02-2.29828E-05 3.58346E-01-5.66622E-14-2.48889E-13
 -1       246 2.12433E+01 2.06817E-02 3.53706E-04 2.94355E-01-8.80417E-14-1.64975E-13
 -1       247 2.09274E+01 1.85285E-02 5.38979E-04 2.34107E-01-2.05153E-13-2.64819E-15
 -1       248 2.06757E+01 1.56919E-02 5.94655E-04 1.81409E-01-1.27970E-13 1.66805E-14
 -1       249 2.04801E+01 1.28003E-02 5.73912E-04 1.37401E-01 4.85583E-14 8.11445E-14
 -1       250 2.03312E+01 1.01557E-02 5.14316E-04 1.01831E-01-6.18856E-14 7.65697E-16
 -1       251 2.02202E+01 7.87728E-03 4.39520E-04 7.37958E-02 2.48273E-14-7.86552E-14
 -1       252 2.01392E+01 5.98787E-03 3.63145E-04 5.21679E-02 1.51738E-14 7.16201E-14
 -1       253 2.00815E+01 4.46345E-03 2.92316E-04 3.58088E-02 7.01244E-14 7.73793E-14
 -1       254 2.00416E+01 3.26005E-03 2.30222E-04 2.36754E-02 1.41375E-14 8.65986E-14
 -1       255 2.00149E+01 2.32796E-03 1.77794E-04 1.48616E-02-5.75582E-14 1.65865E-14
 -1       256 1.99978E+01 1.61884E-03 1.34742E-04 8.60777E-03 8.97432E-14-8.93145E-14
 -1       257 1.99877E+01 1.08906E-03 1.00176E-04 4.29302E-03 1.81803E-13-1.43306E-13
 -1       258 1.99824E+01 7.00865E-04 7.29597E-05 1.42015E-03-1.10163E-13-1.58321E-13
 -1       259 1.99803E+01 4.22544E-04 5.19175E-05-4.01757E-04-1.66049E-13-8.61791E-15
 -1       260 1.99803E+01 2.28076E-04 3.59373E-05-1.47489E-03-4.28918E-14 2.16402E-13
 -1       261 1.99815E+01 9.64981E-05 2.40239E-05-2.02887E-03-6.08954E-14-9.97910E-14
 -1       262 1.99835E+01 1.12067E-05 1.53182E-05-2.23514E-03 2.08786E-13-3.25729E-13
 -1       263 1.99857E+01-4.07324E-05 9.09801E-06-2.21921E-03 1.20558E-13-4.18708E-13
 -1       264 1.99879E+01-6.92364E-05 4.76955E-06-2.07093E-03-1.96139E-13-4.48660E-13
 -1       265 1.99901E+01-8.17866E-05 1.85309E-06-1.85295E-03 2.71338E-14-1.50025E-13
 -1       266 1.99920E+01-8.39366E-05-3.27132E-08-1.60744E-03-1.05689E-13 1.69991E-13
 -1       267 1.99937E+01-7.97487E-05-1.18684E-06-1.36142E-03-8.30478E-14 1.63353E-13
 -1       268 1.99952E+01-7.21622E-05-1.83957E-06-1.13084E-03 1.36306E-13-1.13401E-13
 -1       269 1.99964E+01-6.33089E-05-2.16154E-06-9.23611E-04 9.88872E-14 2.04288E-14
 -1       270 1.99974E+01-5.47912E-05-2.26228E-06-7.41758E-04 3.08053E-13-2.97132E-13
 -1       271 1.99982E+01-4.79298E-05-2.16761E-06-5.82801E-04-1.27789E-13-4.51719E-13
 -1       272 1.99988E+01-4.38219E-05-1.75506E-06-4.40625E-04-2.08710E-13-2.68091E-13
 -1       273 1.99992E+01-4.34617E-05-8.68359E-07-3.06703E-04 2.12118E-13-3.55160E-13
 -1       274 1.99996E+01-4.79907E-05-8.74892E-07-1.71599E-04 2.40842E-13-7.05839E-13
 -1       275 1.99997E+01-4.07300E-05-2.94133E-06-4.08413E-05-2.17469E-13-8.49888E-13
 -1       276 1.99997E+01-1.41549E-04-1.60741E-06-1.14540E-04-3.68563E-13 2.49376E-13
 -1       277 1.99997E+01-3.59295E-04-5.19643E-07-2.48791E-04-2.61214E-13 6.36545E-13
 -1       278 1.99998E+01-6.56733E-04-1.98031E-07-3.40858E-04 6.03300E-14 6.49378E-13
 -1       279 1.99998E+01-9.94279E-04 1.76808E-07-3.69942E-04 2.11270E-13 7.70484E-13
 -1       280 1.99998E+01-1.31829E-03 8.66831E-07-3.38938E-04 7.22590E-14-5.26453E-13
 -1       281 1.99998E+01-1.59331E-03 1.49939E-06-2.56424E-04 1.58565E-13-2.89106E-13
 -1       282 1.99999E+01-1.77437E-03 1.95170E-06-1.37111E-04 8.77969E-14 1.35520E-13
 -1       283 1.99999E+01-1.83684E-03 2.10891E-06 1.19095E-06 1.95870E-13-2.74012E-13
 -1       284 1.99999E+01-1.77222E-03 1.95025E-06 1.39314E-04-1.17509E-14-2.02801E-13
 -1       285 1.99998E+01-1.58927E-03 1.49977E-06 2.58167E-04 1.45917E-13-4.48873E-13
 -1       286 1.99998E+01-1.31848E-03 8.29814E-07 3.39026E-04-1.73398E-13-2.92405E-13
 -1       287 1.99998E+01-9.88454E-04 1.83613E-07 3.69981E-04-3.39638E-13 2.73486E-13
 -1       288 1.99998E+01-6.51005E-04-2.28415E-07 3.39508E-04-2.90365E-13 2.14039E-13
 -1       289 1.99997E+01-3.58623E-04-1.47462E-06 2.46400E-04-3.56009E-13-9.21601E-14
 -1       290 1.99997E+01-2.00715E-04-1.62357E-06 1.97023E-04-2.04367E-13-2.04981E-13
 -1       291-1.24592E-01-7.33154E+00-5.94773E-01 1.65991E+00 3.62647E-13 8.68763E-13
 -1       292 3.24268E+00-7.02871E+00-7.17401E-01 3.84127E+00 8.12322E-13 9.30173E-13
 -1       293 1.02985E+01-3.98568E+00-4.54152E-01 6.05079E+00 1.03315E-12 8.45671E-13
 -1       294 1.94676E+01-5.52041E-01-8.32190E-02 7.41800E+00 1.03703E-12 8.02830E-13
 -1       295 2.92507E+01 2.57244E+00 3.06750E-01 7.52809E+00 1.04299E-12 5.44342E-13
 -1       296 3.82338E+01 5.00260E+00 6.76334E-01 6.15588E+00 9.13573E-13 1.11799E-13
 -1       297 4.50423E+01 6.36584E+00 1.02933E+00 3.72770E+00 7.76004E-13-4.07271E-13
 -1       298 4.66047E+01 6.48941E+00 1.07645E+00-9.69067E-02 9.13214E-13-1.01637E-12
 -1       299 4.22848E+01 5.61777E+00 7.96775E-01-3.38465E+00 1.21013E-12-1.46178E-12
 -1       300 3.46481E+01 3.65850E+00 4.50849E-01-5.93382E+00 1.38144E-12-1.80861E-12
 -1       301 2.47514E+01 1.26387E+00 4.48425E-02-6.99027E+00 1.52198E-12-1.88433E-12
 -1       302 1.48641E+01-1.43102E+00-2.96081E-01-6.45036E+00 1.41781E-12-1.63058E-12
 -1       303 5.99731E+00-3.63781E+00-6.19890E-01-4.42710E+00 1.32647E-12-1.47999E-12
 -1       304 1.05424E+00-5.85845E+00-7.83581E-01-2.17842E+00 7.89452E-13-1.16353E-12
 -1       305-7.12509E-01-5.92201E+00-6.81939E-01-1.78372E-01 5.31710E-14-1.06830E-12
 -1       306 2.31238E-01-6.17402E+00-7.81812E-01 1.80379E+00-6.83703E-13-1.05044E-12
 -1       307 4.05403E+00-4.14568E+00-6.63585E-01 3.88050E+00-1.27201E-12-1.31786E-12
 -1       308 1.06067E+01-1.53867E+00-4.39415E-01 5.93051E+00-1.61429E-12-1.66055E-12
 -1       309 1.95883E+01 1.00619E+00-1.12686E-01 7.35165E+00-1.69714E-12-1.87975E-12
 -1       310 3.01226E+01 3.34078E+00 3.13621E-01 7.35504E+00-1.59572E-12-1.94827E-12
 -1       311 3.90617E+01 5.08730E+00 6.16005E-01 4.32340E+00-1.29755E-12-1.47676E-12
 -1       312 4.45018E+01 6.46514E+00 8.93958E-01 1.30937E+00-1.09231E-12-1.08941E-12
 -1       313 4.55902E+01 6.50725E+00 1.01538E+00-2.40189E+00-9.21027E-13-4.34458E-13
 -1       314 3.95958E+01 5.54208E+00 6.82451E-01-4.95219E+00-1.01763E-12 1.29591E-13
 -1       315 3.11720E+01 3.68429E+00 4.43047E-01-7.89261E+00-1.00989E-12 9.23567E-13
 -1       316 2.10251E+01 2.38474E-01 2.08942E-03-7.61959E+00-9.47686E-13 9.84296E-13
 -1       317 1.08080E+01-3.21550E+00-4.26920E-01-6.16121E+00-1.02968E-12 9.00280E-13
 -1       318 3.88384E+00-6.62400E+00-6.49278E-01-4.31657E+00-5.18641E-13 1.02872E-12
 -1       319-3.57192E-01-8.39278E+00-7.79175E-01-1.56282E+00-7.24976E-14 9.10355E-13
 -1       320 2.34553E+01 2.15374E+00-2.94393E-02-2.08667E+00-2.94923E-13-2.86767E-13
 -1       321 2.49278E+01 1.79731E+00-3.20672E-02-2.66633E+00-4.01331E-13-5.62675E-14
 -1       322 1.98914E+01 2.19078E+00-1.75050E-02 1.27558E-01 1.43332E-14-5.65306E-13
 -1       323 1.71594E+01 2.64044E+00-8.39946E-03 1.20048E+00 1.30317E-13-6.44704E-13
 -1       324 1.40926E+01 3.48397E+00 4.49407E-03 1.68063E+00 1.99020E-13-7.23651E-13
 -1       325 1.15154E+01 4.37275E+00 1.56477E-02 1.25014E+00 1.84255E-13-8.10462E-13
 -1       326 1.06783E+01 4.69862E+00 1.80184E-02 1.25632E-01 1.27617E-13-8.44108E-13
 -1       327 1.20368E+01 4.24899E+00 1.43813E-02-9.42834E-01 4.49066E-14-7.90724E-13
 -1       328 1.49722E+01 3.33219E+00 1.32939E-03-1.20273E+00 1.62669E-14-6.39335E-13
 -1       329 1.82820E+01 2.54035E+00-1.22098E-02-5.70256E-01 8.25711E-14-4.51552E-13
 -1       330 2.11647E+01 2.13946E+00-2.36929E-02 5.39314E-01 2.10805E-13-2.80045E-13
 -1       331 2.35061E+01 1.97067E+00-3.46669E-02 1.63678E+00 3.22595E-13-7.07923E-14
 -1       332 2.55239E+01 1.61057E+00-4.66932E-02 2.28495E+00 3.96749E-13 2.76038E-13
 -1       333 2.67048E+01 8.60249E-01-3.66001E-02 1.99204E+00 3.82749E-13 6.29462E-13
 -1       334 2.59188E+01-3.55024E-02 1.88084E-03 1.54732E+00 2.89153E-13 5.62579E-13
 -1       335 2.47562E+01 6.49091E-02 7.61181E-03-2.00379E+00-3.19155E-13 7.61015E-14
 -1       336 2.40596E+01-1.69698E-01 4.23665E-03-2.00057E+00-2.73780E-13 7.93548E-14
 -1       337 2.33402E+01 4.80817E-02 4.43073E-03-2.05121E+00-2.51804E-13 4.31878E-14
 -1       338 2.25999E+01 5.37185E-01 3.91333E-03-1.75598E+00-2.10367E-13-3.21375E-14
 -1       339 2.20102E+01 9.97321E-01 3.41263E-03-9.46970E-01-1.91041E-13-1.56443E-13
 -1       340 2.17902E+01 1.08979E+00 2.97984E-03 1.73556E-01-2.11380E-13-2.62917E-13
 -1       341 2.19822E+01 7.27461E-01 2.86918E-03 1.13519E+00-1.58650E-13-3.26449E-13
 -1       342 2.23881E+01 1.41768E-01 1.47184E-03 1.55872E+00-1.46125E-13-3.89300E-13
 -1       343 2.27382E+01-3.42722E-01-1.33086E-03 1.40680E+00-1.77679E-13-4.50001E-13
 -1       344 2.28824E+01-5.63693E-01-3.67153E-03 9.06818E-01-6.67795E-14-4.22691E-13
 -1       345 2.28140E+01-5.50625E-01-4.80695E-03 3.28255E-01-2.05879E-14-4.16739E-13
 -1       346 2.25973E+01-4.13265E-01-4.40065E-03-1.53805E-01 1.18391E-13-3.59907E-13
 -1       347 2.23019E+01-2.48706E-01-3.19161E-03-4.75529E-01-2.22421E-14-2.08521E-13
 -1       348 2.19784E+01-1.09500E-01-1.84396E-03-6.43806E-01-4.31062E-14-2.76822E-13
 -1       349 2.16583E+01-1.21762E-02-7.12996E-04-6.94957E-01-7.70640E-14-2.75037E-13
 -1       350 2.13599E+01 4.60479E-02 8.08200E-05-6.69557E-01-5.91326E-14-2.03089E-13
 -1       351 2.10927E+01 7.48042E-02 5.51951E-04-6.01323E-01-7.83217E-15-2.94397E-13
 -1       352 2.08609E+01 8.40837E-02 7.74984E-04-5.14341E-01 4.59848E-14-2.83850E-13
 -1       353 2.06652E+01 8.18294E-02 8.32033E-04-4.24044E-01 1.40766E-13-3.10281E-13
 -1       354 2.05039E+01 7.35724E-02 7.90913E-04-3.39325E-01 1.17046E-13-3.23444E-13
 -1       355 2.03737E+01 6.28394E-02 6.99982E-04-2.64602E-01-7.19694E-14-1.43621E-13
 -1       356 2.02708E+01 5.17148E-02 5.90370E-04-2.01463E-01 3.32403E-14-1.89936E-13
 -1       357 2.01911E+01 4.13272E-02 4.80395E-04-1.49822E-01 1.11618E-13-3.72111E-13
 -1       358 2.01306E+01 3.22063E-02 3.79742E-04-1.08705E-01-5.27777E-14-4.53769E-13
 -1       359 2.00856E+01 2.45251E-02 2.92682E-04-7.67298E-02-1.59412E-13-3.92189E-13
 -1       360 2.00529E+01 1.82565E-02 2.20290E-04-5.24108E-02-1.20026E-13-1.28311E-13
 -1       361 2.00297E+01 1.32709E-02 1.61892E-04-3.43199E-02 5.78979E-14-2.44117E-13
 -1       362 2.00138E+01 9.39467E-03 1.15962E-04-2.11739E-02 1.51360E-13-2.14901E-13
 -1       363 2.00033E+01 6.44499E-03 8.06522E-05-1.18686E-02 1.24151E-13-1.19932E-13
 -1       364 1.99967E+01 4.24807E-03 5.40978E-05-5.48463E-03 1.05645E-13-1.92899E-13
 -1       365 1.99929E+01 2.64866E-03 3.45728E-05-1.27592E-03-9.22493E-14-1.86024E-13
 -1       366 1.99911E+01 1.51363E-03 2.05644E-05 1.34925E-03-1.94859E-13-4.14548E-13
 -1       367 1.99905E+01 7.32274E-04 1.07953E-05 2.85064E-03-3.04705E-13-4.45823E-13
 -1       368 1.99908E+01 2.14779E-04 4.21664E-06 3.57834E-03-1.03858E-13-2.30815E-13
 -1       369 1.99916E+01-1.10135E-04-1.20640E-08 3.79352E-03 9.99091E-14-3.21366E-13
 -1       370 1.99926E+01-2.97953E-04-2.55109E-06 3.68679E-03 3.60142E-13-6.10287E-14
 -1       371 1.99936E+01-3.91078E-04-3.90942E-06 3.39379E-03 2.41935E-13-4.90437E-14
 -1       372 1.99947E+01-4.21361E-04-4.47298E-06 3.00810E-03 3.12182E-13-2.46797E-14
 -1       373 1.99957E+01-4.12350E-04-4.52999E-06 2.59165E-03 1.32427E-14-6.79161E-14
 -1       374 1.99966E+01-3.81253E-04-4.29401E-06 2.18295E-03-7.66108E-15-3.03287E-14
 -1       375 1.99973E+01-3.40619E-04-3.92264E-06 1.80327E-03 1.38511E-13 3.81708E-14
 -1       376 1.99980E+01-2.99733E-04-3.52665E-06 1.46133E-03 2.50033E-13 2.04240E-13
 -1       377 1.99985E+01-2.65587E-04-3.16216E-06 1.15667E-03 3.02454E-13 4.95596E-13
 -1       378 1.99989E+01-2.43318E-04-2.86050E-06 8.82732E-04-1.56287E-13 4.91645E-13
 -1       379 1.99993E+01-2.35754E-04-3.07095E-06 6.29435E-04-2.81477E-13 2.27360E-13
 -1       380 1.99995E+01-2.21721E-04-2.17506E-06 4.05118E-04-2.44834E-13 3.00797E-15
 -1       381 2.51284E+01-3.12915E-01 7.94060E-03 1.72196E+00 2.21525E-13 5.04201E-13
 -1       382 2.42505E+01-1.97086E-01 4.99941E-03 2.04054E+00 2.49453E-13 4.62857E-13
 -1       383 2.32842E+01 2.40879E-01 1.92195E-03 2.01339E+00 1.83197E-13 4.16177E-13
 -1       384 2.24298E+01 7.70357E-01-1.10765E-03 1.31963E+00 1.28309E-13 2.21096E-13
 -1       385 2.20326E+01 9.98631E-01-1.29557E-03 8.21828E-02 1.68567E-13 4.36299E-14
 -1       386 2.22458E+01 7.22678E-01 6.96755E-04-1.11195E+00 2.14378E-13-6.34679E-14
 -1       387 2.28396E+01 1.56457E-01 1.80716E-03-1.68754E+00 2.36277E-13-1.59548E-13
 -1       388 2.34154E+01-3.21406E-01-2.53749E-04-1.52957E+00 9.25403E-14-2.27635E-13
 -1       389 2.37172E+01-5.17179E-01-3.94943E-03-9.29796E-01-2.15097E-14-2.84259E-13
 -1       390 2.37055E+01-4.73830E-01-6.32392E-03-2.53827E-01-1.64951E-14-2.12038E-13
 -1       391 2.34599E+01-3.24533E-01-6.09144E-03 2.76512E-01 9.33958E-14-1.92308E-13
 -1       392 2.30779E+01-1.69305E-01-4.40402E-03 5.98655E-01 7.79552E-14-1.45899E-13
 -1       393 2.26382E+01-5.19564E-02-2.38544E-03 7.38864E-01 3.96109E-14-1.24946E-13
 -1       394 2.21947E+01 2.05413E-02-7.23771E-04 7.53146E-01 6.22013E-14-2.10020E-13
 -1       395 2.17800E+01 5.74785E-02 3.77235E-04 6.94509E-01 7.47716E-14-1.56838E-13
 -1       396 2.14114E+01 7.10424E-02 9.70985E-04 6.01776E-01-4.62555E-14-1.19618E-13
 -1       397 2.10961E+01 7.11478E-02 1.20151E-03 4.99544E-01-1.82446E-13 3.60676E-14
 -1       398 2.08342E+01 6.45018E-02 1.20976E-03 4.01616E-01-2.22576E-13 1.49444E-13
 -1       399 2.06221E+01 5.51652E-02 1.10126E-03 3.14660E-01-2.43726E-13 2.28451E-13
 -1       400 2.04540E+01 4.53857E-02 9.44020E-04 2.41055E-01 3.54129E-14 3.73725E-13
 -1       401 2.03235E+01 3.62888E-02 7.77274E-04 1.80815E-01-3.27780E-14 2.78841E-13
 -1       402 2.02241E+01 2.83535E-02 6.21254E-04 1.32776E-01 3.67916E-14 1.37227E-13
 -1       403 2.01498E+01 2.17074E-02 4.84809E-04 9.52913E-02 2.86511E-15 1.45881E-13
 -1       404 2.00954E+01 1.62998E-02 3.70466E-04 6.66122E-02-1.80491E-14 7.14754E-14
 -1       405 2.00566E+01 1.19986E-02 2.77489E-04 4.50868E-02 2.70408E-14 1.32424E-13
 -1       406 2.00295E+01 8.64352E-03 2.03644E-04 2.92481E-02 4.47425E-15 4.52208E-14
 -1       407 2.00114E+01 6.07340E-03 1.46159E-04 1.78443E-02 1.51268E-13 5.97868E-14
 -1       408 1.99997E+01 4.13967E-03 1.02232E-04 9.83749E-03 1.86561E-13 2.48907E-13
 -1       409 1.99926E+01 2.71200E-03 6.92779E-05 4.38604E-03 3.63115E-14 1.80605E-13
 -1       410 1.99889E+01 1.67973E-03 4.50287E-05 8.20567E-04-2.49332E-13 3.89059E-14
 -1       411 1.99873E+01 9.51220E-04 2.75639E-05-1.38206E-03-1.89507E-13 6.74454E-15
 -1       412 1.99871E+01 4.52065E-04 1.52960E-05-2.62372E-03 1.37355E-13-3.54912E-14
 -1       413 1.99879E+01 1.22944E-04 6.93973E-06-3.20778E-03 2.42911E-13-2.09338E-13
 -1       414 1.99891E+01-8.26662E-05 1.47268E-06-3.35904E-03 1.34659E-13-3.17023E-13
 -1       415 1.99905E+01-2.00667E-04-1.90516E-06-3.24065E-03-2.14824E-13-2.44298E-13
 -1       416 1.99920E+01-2.58320E-04-3.81023E-06-2.96818E-03-2.57160E-13-7.81474E-14
 -1       417 1.99934E+01-2.76005E-04-4.71061E-06-2.62105E-03-2.11922E-13 2.83744E-14
 -1       418 1.99947E+01-2.68727E-04-4.95712E-06-2.25161E-03 1.30465E-14-1.54713E-13
 -1       419 1.99958E+01-2.47414E-04-4.81054E-06-1.89224E-03 1.78783E-13-2.60286E-13
 -1       420 1.99968E+01-2.19999E-04-4.45970E-06-1.56072E-03 4.81154E-14-3.87775E-13
 -1       421 1.99976E+01-1.92344E-04-4.03858E-06-1.26415E-03 9.59520E-14-2.54047E-13
 -1       422 1.99982E+01-1.69001E-04-3.62484E-06-1.00177E-03-8.96575E-15 1.21607E-13
 -1       423 1.99988E+01-1.53515E-04-3.21800E-06-7.66928E-04-2.37691E-13-1.73319E-13
 -1       424 1.99992E+01-1.47450E-04-2.65039E-06-5.49862E-04 4.62612E-14-3.40757E-13
 -1       425 1.99995E+01-1.48603E-04-2.07485E-06-3.42213E-04 2.22677E-13-7.86521E-14
 -1       426 1.99996E+01-1.54906E-04-1.41816E-06-2.26393E-04 7.80470E-14 2.10764E-13
 -1       427 1.99998E+01-8.40628E-04-4.97368E-07-6.39478E-04-1.83456E-13 9.17438E-13
 -1       428 1.99997E+01-5.49282E-04-1.56412E-06-5.55761E-04-1.23475E-13 8.67786E-13
 -1       429 1.99996E+01-3.35361E-04-2.04930E-06-4.02509E-04-6.92140E-14 4.07296E-13
 -1       430 1.99999E+01-1.12339E-03 4.37169E-07-6.25762E-04-2.99399E-13-1.51990E-13
 -1       431 1.99999E+01-1.37521E-03 1.19358E-06-5.20727E-04-5.08124E-14-2.91667E-13
 -1       432 2.00000E+01-1.56128E-03 1.76919E-06-3.42662E-04-8.01070E-15 7.50429E-14
 -1       433 2.00000E+01-1.65968E-03 2.07563E-06-1.18122E-04-3.49694E-13-2.01761E-13
 -1       434 2.00000E+01-1.65878E-03 2.07539E-06 1.22152E-04-2.58178E-13-7.60537E-14
 -1       435 2.00000E+01-1.55865E-03 1.76539E-06 3.46134E-04-1.72129E-13-3.60750E-13
 -1       436 1.99999E+01-1.37510E-03 1.18430E-06 5.20745E-04-7.73002E-14-3.25564E-13
 -1       437 1.99999E+01-1.12329E-03 4.54627E-07 6.25934E-04 2.45299E-14 2.90415E-13
 -1       438 1.99998E+01-8.35531E-04-4.12722E-07 6.39196E-04-1.18058E-13 1.15387E-13
 -1       439 1.99997E+01-5.42727E-04-1.51342E-06 5.55595E-04-1.94508E-13-1.14980E-13
 -1       440 1.15241E+01-4.57452E+00-2.23349E-03 7.06504E+00-1.03778E-13 2.96797E-13
 -1       441 2.24728E+00-2.48860E+00 5.30146E-02-4.76775E-01 2.82049E-14 1.05127E-12
 -1       442 5.48658E+00-3.38295E+00 3.24965E-02 5.03338E+00 4.05509E-14 6.42306E-13
 -1       443 1.93320E+01-4.63649E+00-3.18213E-02 6.71251E+00 1.24123E-13 8.78048E-14
 -1       444 2.68713E+01-2.63616E+00-6.06188E-04 4.57979E+00 3.07310E-13-1.96107E-13
 -1       445 2.19613E+01 2.08843E+00-2.47504E-02-1.08168E+00-1.42222E-13-4.31100E-13
 -1       446 3.49322E+01 5.36888E+00 5.78879E-02 3.99142E-01 9.29035E-13-4.94299E-13
 -1       447 3.51153E+01 7.74150E+00 1.82193E-02 3.33990E-01 1.03359E-12-4.93820E-13
 -1       448 3.52061E+01 7.03091E+00 2.43455E-02 9.46953E-01 1.11386E-12-4.49744E-13
 -1       449 3.36588E+01 3.45562E+00-2.26082E-03 4.31484E-01 9.55257E-13-4.11601E-13
 -1       450 3.00078E+01-5.43113E-01-1.40341E-02-1.84403E+00 6.50105E-13-5.55722E-13
 -1       451 2.35012E+01-2.81523E+00-2.39803E-02-4.80658E+00 5.00947E-13-8.26533E-13
 -1       452 1.47393E+01-3.16751E+00-1.78197E-02-6.27384E+00 2.29844E-13-1.01536E-12
 -1       453 6.94802E+00-2.31644E+00-6.09774E-02-5.30201E+00 2.24154E-13-1.23458E-12
 -1       454 2.63100E+00-8.97023E-01-3.06661E-03-2.65053E+00 7.15261E-14-1.29469E-12
 -1       455 1.46362E+00-1.29169E+00-6.05864E-02 1.74924E+00-3.11660E-14-1.25058E-12
 -1       456 4.96892E+00-1.83063E+00-6.27073E-02 4.81898E+00-1.64424E-13-1.18996E-12
 -1       457 1.13429E+01-2.65290E+00-7.42355E-02 6.40862E+00-3.54217E-13-1.10022E-12
 -1       458 1.94400E+01-2.68390E+00-4.43869E-02 6.02403E+00-4.97338E-13-9.36681E-13
 -1       459 2.71197E+01-1.35581E+00-1.31852E-02 3.56388E+00-6.83231E-13-6.76875E-13
 -1       460 3.19308E+01 1.85513E+00-2.13298E-02 7.50603E-01-8.94094E-13-5.01696E-13
 -1       461 3.36342E+01 6.15134E+00-3.33616E-02-1.07038E+00-1.11186E-12-3.78184E-13
 -1       462 3.41723E+01 7.94078E+00-3.01439E-02-5.38903E-01-1.13970E-12-5.13184E-13
 -1       463 3.40188E+01 6.71587E+00-4.62396E-02-1.12443E-01-1.07425E-12-6.00311E-13
 -1       464 3.26071E+01 2.28335E+00 1.48217E-02-1.96712E+00-7.58074E-13-4.04426E-13
 -1       465 2.81475E+01-1.97356E+00 5.48032E-03-3.70446E+00-2.79846E-13-1.99202E-13
 -1       466 2.04111E+01-4.47802E+00-2.00425E-02-6.58038E+00 9.76996E-15 2.36713E-13
 -1       467 1.26488E+01-4.67133E+00-1.67523E-02-7.25159E+00 5.10980E-14 3.54172E-13
 -1       468 4.45665E+00-3.80547E+00-5.39058E-02-4.76389E+00 6.82093E-14 9.56846E-13
 -1       469 3.23104E+01 1.20481E+00 5.34860E-02 2.22338E+00 7.24276E-13-3.93963E-13
 -1       470 5.57429E+00-1.01293E+00 1.56936E-01 2.74846E+00-1.53204E-13 8.36747E-13
 -1       471 3.11783E+01 4.01816E+00-9.94682E-02 1.07844E+00-7.96488E-13-7.11063E-13
 -1       472 2.53938E+01-4.27398E-01-3.36664E-03 1.96532E+00 2.38000E-13 2.20285E-13
 -1       473 1.62480E+01 1.61238E+00 2.18000E-02 2.47701E+00 2.65556E-13-6.31679E-13
 -1       474 1.98269E+01 7.31880E-01 2.93839E-03 1.14206E+00 1.44131E-13-5.09121E-13
 -1       475 9.79202E+00 4.27266E+00 4.81034E-02 1.03575E+00 1.90078E-13-9.03232E-13
 -1       476 1.01238E+01 4.16688E+00 4.75956E-02-9.09208E-01 5.26016E-14-9.15523E-13
 -1       477 1.31507E+01 2.92497E+00 3.58692E-02-2.08298E+00-5.94050E-14-7.64657E-13
 -1       478 1.72741E+01 1.58143E+00 1.43099E-02-1.70770E+00-4.24580E-14-5.19196E-13
 -1       479 2.07799E+01 8.13702E-01-2.30354E-03-3.80685E-01 6.54984E-14-2.76670E-13
 -1       480 2.33268E+01 5.39932E-01-6.05245E-03 1.03106E+00 2.12831E-13-1.03249E-13
 -1       481 2.53307E+01-6.44373E-01-5.80802E-04 2.36355E+00 2.49398E-13 2.81180E-13
 -1       482 2.45580E+01-1.90872E-01-7.03269E-04-2.23992E+00-2.36063E-13-5.33340E-14
 -1       483 3.05298E+01 1.82479E+00-1.25746E-01-1.19282E+00 6.17631E-13-5.96419E-13
 -1       484 2.44731E+01-2.19852E-01-1.34128E-03-2.47049E+00-2.42705E-13-8.77949E-15
 -1       485 2.41078E+01 4.99353E-01-4.50314E-03-2.50995E+00-2.65858E-13 3.00152E-15
 -1       486 2.35309E+01 1.58737E+00-1.07549E-02-1.91540E+00-3.48121E-13-1.01405E-13
 -1       487 2.30978E+01 2.26172E+00-1.33267E-02-5.94531E-01-3.58501E-13-3.02232E-13
 -1       488 2.30997E+01 1.93358E+00-1.16153E-02 8.72588E-01-2.90453E-13-4.48943E-13
 -1       489 2.34072E+01 8.07995E-01-7.45278E-03 1.73637E+00-2.23516E-13-5.31403E-13
 -1       490 2.36131E+01-3.56335E-01-4.19626E-03 1.72186E+00-1.64255E-13-5.77099E-13
 -1       491 2.34871E+01-1.02502E+00-2.44186E-03 1.12364E+00-6.96691E-14-4.10221E-13
 -1       492 2.30825E+01-1.14811E+00-2.92504E-03 3.74835E-01 3.37493E-14-2.89313E-13
 -1       493 2.25651E+01-9.33996E-01-2.62300E-03-2.51584E-01 6.09841E-14-2.11900E-13
 -1       494 2.20658E+01-6.09713E-01-1.91547E-03-6.66175E-01 5.73712E-14-3.53697E-13
 -1       495 2.16410E+01-3.09339E-01-1.16866E-03-8.83238E-01-8.35603E-14-3.95178E-13
 -1       496 2.12993E+01-8.51253E-02-5.45806E-04-9.51707E-01-1.83620E-14-3.77237E-13
 -1       497 2.10289E+01 5.85667E-02-9.47336E-05-9.22727E-01-3.42767E-14-2.16498E-13
 -1       498 2.08139E+01 1.37175E-01 1.80640E-04-8.37691E-01-4.67878E-14-1.68251E-13
 -1       499 2.06414E+01 1.70177E-01 3.20456E-04-7.26259E-01-1.38398E-14-2.30326E-13
 -1       500 2.05018E+01 1.74432E-01 3.69052E-04-6.07952E-01 8.72342E-14-1.72160E-13
 -1       501 2.03886E+01 1.62409E-01 3.62694E-04-4.94582E-01 1.27456E-13-2.78346E-13
 -1       502 2.02970E+01 1.42496E-01 3.27278E-04-3.92534E-01 1.41375E-13-3.15948E-13
 -1       503 2.02236E+01 1.19941E-01 2.79587E-04-3.04587E-01 8.93356E-14-1.81457E-13
 -1       504 2.01654E+01 9.77964E-02 2.29640E-04-2.31258E-01-3.32679E-14-1.68288E-13
 -1       505 2.01198E+01 7.76691E-02 1.82878E-04-1.71749E-01 5.89753E-15-3.79285E-13
 -1       506 2.00847E+01 6.02610E-02 1.41856E-04-1.24574E-01-2.39389E-14-3.42384E-13
 -1       507 2.00582E+01 4.57338E-02 1.07409E-04-8.79744E-02 2.65825E-14-2.55013E-13
 -1       508 2.00384E+01 3.39477E-02 7.94106E-05-6.01673E-02-4.81174E-14-2.12898E-13
 -1       509 2.00240E+01 2.46118E-02 5.72511E-05-3.94848E-02 4.86540E-14-1.32212E-13
 -1       510 2.00137E+01 1.73754E-02 4.01192E-05-2.44481E-02 6.75311E-14-1.98137E-13
 -1       511 2.00067E+01 1.18825E-02 2.71648E-05-1.37934E-02-3.96383E-15-2.86436E-13
 -1       512 2.00019E+01 7.80063E-03 1.75859E-05-6.47155E-03-5.96483E-14-5.16021E-13
 -1       513 1.99990E+01 4.83570E-03 1.06708E-05-1.63273E-03-8.69592E-14-3.84071E-13
 -1       514 1.99972E+01 2.73686E-03 5.81336E-06 1.39693E-03-2.39148E-13-3.13715E-13
 -1       515 1.99963E+01 1.29631E-03 2.51243E-06 3.14103E-03-8.35670E-14-2.22448E-13
 -1       516 1.99960E+01 3.45922E-04 3.64191E-07 3.99853E-03 5.85666E-14 1.54721E-13
 -1       517 1.99961E+01-2.47508E-04-9.49994E-07 4.26728E-03 3.49803E-13 3.28850E-13
 -1       518 1.99964E+01-5.87520E-04-1.67680E-06 4.16482E-03 1.60088E-13 2.98145E-15
 -1       519 1.99968E+01-7.53176E-04-2.00366E-06 3.84609E-03 2.06697E-13 1.11682E-13
 -1       520 1.99972E+01-8.03851E-04-2.07103E-06 3.41804E-03 1.44578E-13 1.33578E-13
 -1       521 1.99977E+01-7.83480E-04-1.98174E-06 2.95147E-03 3.91197E-14 3.76888E-13
 -1       522 1.99981E+01-7.24226E-04-1.81283E-06 2.49032E-03 4.92853E-14 5.19697E-13
 -1       523 1.99985E+01-6.49583E-04-1.62645E-06 2.05892E-03 2.39002E-13 4.42674E-13
 -1       524 1.99988E+01-5.76864E-04-1.46651E-06 1.66735E-03 2.36105E-13 3.84181E-13
 -1       525 1.99991E+01-5.17964E-04-1.30231E-06 1.31572E-03 1.33715E-14 1.95187E-14
 -1       526 1.99993E+01-4.80772E-04-1.32817E-06 9.98002E-04-3.21638E-13-1.79045E-13
 -1       527 1.17488E+01-2.50013E+00 1.54426E-01 6.12637E+00-3.35107E-13 1.81681E-13
 -1       528 2.44084E+01 1.20745E+00-1.63899E-02 2.41290E+00 2.91948E-13 2.60067E-13
 -1       529 2.38167E+01 2.24111E+00-2.36696E-02 1.06697E+00 3.37097E-13 5.60627E-14
 -1       530 2.37136E+01 2.13807E+00-2.45581E-02-7.37859E-01 3.25946E-13-2.03025E-13
 -1       531 2.40586E+01 9.52859E-01-1.78864E-02-1.92246E+00 2.96670E-13-3.12219E-13
 -1       532 2.43392E+01-3.71769E-01-8.27050E-03-1.97955E+00 2.08890E-13-3.67284E-13
 -1       533 2.42281E+01-1.11572E+00-4.73683E-03-1.25594E+00 5.93468E-14-4.18201E-13
 -1       534 2.37598E+01-1.18529E+00-5.30070E-03-3.42628E-01-5.39347E-14-4.70223E-13
 -1       535 2.31690E+01-8.98238E-01-4.42095E-03 3.96610E-01-4.01100E-14-4.19535E-13
 -1       536 2.25974E+01-5.27743E-01-3.33017E-03 8.57413E-01 1.19324E-14-2.85302E-13
 -1       537 2.21058E+01-2.16340E-01-1.90759E-03 1.07046E+00 4.72639E-14-2.42087E-13
 -1       538 2.17007E+01-6.86708E-03-7.02939E-04 1.10822E+00 4.92162E-14-1.60132E-13
 -1       539 2.13681E+01 1.11666E-01 1.25104E-04 1.04043E+00 1.45500E-14-2.70668E-14
 -1       540 2.10932E+01 1.65316E-01 5.89523E-04 9.18874E-01-5.10774E-14 5.43233E-14
 -1       541 2.08652E+01 1.78545E-01 7.86508E-04 7.77786E-01-1.97053E-13 1.39830E-13
 -1       542 2.06763E+01 1.69418E-01 8.15496E-04 6.37692E-01-2.69034E-13 1.58390E-13
 -1       543 2.05212E+01 1.49692E-01 7.53588E-04 5.09572E-01-1.68349E-13-5.62202E-14
 -1       544 2.03952E+01 1.26362E-01 6.51539E-04 3.98289E-01-1.80716E-13-2.92186E-13
 -1       545 2.02943E+01 1.03263E-01 5.39247E-04 3.05059E-01-6.28313E-14 3.63792E-15
 -1       546 2.02148E+01 8.22826E-02 4.32429E-04 2.29076E-01 1.14696E-13 1.43117E-13
 -1       547 2.01532E+01 6.41796E-02 3.38194E-04 1.68539E-01-7.02305E-14 1.29398E-13
 -1       548 2.01063E+01 4.90937E-02 2.58831E-04 1.21264E-01-3.45970E-14 2.73862E-13
 -1       549 2.00712E+01 3.68458E-02 1.94108E-04 8.50317E-02-4.26096E-14 3.31392E-13
 -1       550 2.00454E+01 2.71121E-02 1.42606E-04 5.77768E-02 5.49656E-14 2.59492E-13
 -1       551 2.00270E+01 1.95213E-02 1.02463E-04 3.76711E-02 1.00914E-13 8.27198E-14
 -1       552 2.00141E+01 1.37070E-02 7.17581E-05 2.31541E-02 1.28090E-13 1.36486E-13
 -1       553 2.00055E+01 9.33284E-03 4.87032E-05 1.29289E-02 1.38295E-13 2.08555E-13
 -1       554 1.99999E+01 6.10429E-03 3.17237E-05 5.94048E-03 1.74483E-14 1.68227E-13
 -1       555 1.99965E+01 3.77109E-03 1.94823E-05 1.34727E-03-1.72719E-13 7.75052E-14
 -1       556 1.99947E+01 2.12580E-03 1.08730E-05-1.51038E-03 4.88155E-14 2.34076E-14
 -1       557 1.99939E+01 9.99866E-04 4.99933E-06-3.14059E-03 1.28376E-13-6.46060E-14
 -1       558 1.99939E+01 2.58811E-04 1.14802E-06-3.92792E-03 3.31749E-13 6.09620E-15
 -1       559 1.99942E+01-2.02890E-04-1.23908E-06-4.15800E-03-9.95978E-14-3.39259E-15
 -1       560 1.99948E+01-4.66701E-04-2.59191E-06-4.03861E-03-3.10659E-13-2.21945E-13
 -1       561 1.99955E+01-5.94521E-04-3.23667E-06-3.71723E-03-2.16353E-13-1.38225E-13
 -1       562 1.99962E+01-6.32670E-04-3.41710E-06-3.29540E-03-1.39196E-13-6.32960E-14
 -1       563 1.99968E+01-6.15336E-04-3.31298E-06-2.84016E-03 5.31471E-14-9.68788E-14
 -1       564 1.99974E+01-5.67502E-04-3.05778E-06-2.39297E-03-6.45907E-14 1.66048E-13
 -1       565 1.99980E+01-5.07379E-04-2.73718E-06-1.97659E-03 7.10319E-14 4.67719E-13
 -1       566 1.99984E+01-4.48372E-04-2.41637E-06-1.60021E-03-5.47619E-14 2.02741E-13
 -1       567 1.99988E+01-4.00364E-04-2.25004E-06-1.26369E-03-2.83497E-13 4.03857E-13
 -1       568 1.99991E+01-3.70677E-04-2.52980E-06-9.61474E-04-1.22196E-13 4.52954E-13
 -1       569 1.99994E+01-3.56389E-04-2.27945E-06-6.82304E-04 1.24959E-13 4.37440E-13
 -1       570 2.00000E+01-1.25958E-03 4.18293E-07-7.98003E-04-4.53261E-15-1.22142E-13
 -1       571 2.00002E+01-1.46651E-03 6.78003E-07-5.96017E-04 1.16279E-13-8.93969E-14
 -1       572 1.99996E+01-7.12866E-04-1.19688E-07-8.68402E-04 1.60828E-13 7.69277E-13
 -1       573 1.99998E+01-1.00034E-03 1.59994E-07-8.93491E-04-2.10048E-13 3.70188E-13
 -1       574 2.00002E+01-1.59883E-03 8.79716E-07-3.16745E-04-3.56032E-13-3.45404E-13
 -1       575 2.00003E+01-1.64382E-03 9.50451E-07 2.81159E-06-1.50697E-13 4.32724E-14
 -1       576 2.00002E+01-1.59707E-03 8.68157E-07 3.21991E-04-5.29230E-14-1.39728E-13
 -1       577 2.00002E+01-1.46627E-03 6.58363E-07 5.96051E-04-4.62451E-15-3.36584E-13
 -1       578 2.00000E+01-1.25914E-03 4.53620E-07 7.97990E-04 1.10502E-13-1.85605E-13
 -1       579 1.99998E+01-9.97477E-04 2.81275E-07 8.93969E-04-4.04608E-13-6.09303E-14
 -1       580 1.99996E+01-7.09313E-04-6.54765E-07 8.65110E-04-4.86170E-13-2.10868E-14
 -1       581 6.18295E+00-9.82462E-01 1.67738E-01-3.17481E+00 2.51858E-13 9.33670E-13
 -1       582 2.50338E+01-3.85003E-02-4.70954E-03 2.73194E+00 2.31163E-13 3.23935E-13
 -1       583 1.85418E+01-4.65967E+00 8.12124E-02 6.45057E+00-3.07462E-13-7.14498E-14
 -1       584 1.10930E+01-3.01684E+00 1.19409E-01-6.49169E+00 4.32487E-13 4.30656E-13
 -1       585 2.42900E+01 5.30792E-01-1.34271E-02-2.11766E+00-2.89156E-13-1.69203E-13
 -1       586 2.52929E+01-4.49613E+00-1.71653E-02-3.81713E+00 2.73875E-13-4.01547E-13
 -1       587 2.89699E+01 6.45500E+00-1.73507E-01-1.47076E+00-9.65589E-13-2.43010E-13
 -1       588 1.21669E+01 3.04488E+00 4.52197E-02 2.62372E+00 2.83338E-13-8.11980E-13
 -1       589 2.99219E+01 6.82799E+00-1.74322E-01 9.01926E-01 9.09633E-13-2.27707E-13
 -1       590 2.96178E+01-8.75322E-01-6.26528E-02-3.83193E-01-2.82401E-13-7.43863E-13
 -1       591 3.01807E+01 5.68971E+00-1.66992E-01-1.08667E+00 9.06594E-13-5.03254E-13
 -1       592 3.04911E+01 4.64476E+00-1.39592E-01 2.35705E+00 8.28379E-13 1.66533E-14
 -1       593 3.00635E+01 4.14419E-01-9.24009E-02 1.60576E+00 4.80106E-13 1.08705E-13
 -1       594 2.70464E+01-2.86594E+00-3.83453E-02-1.37787E+00 1.18239E-13-1.29140E-13
 -1       595 2.13983E+01-3.38699E+00 1.80414E-02-4.32691E+00-5.71557E-14-4.68831E-13
 -1       596 1.26313E+01-1.47793E+00 8.68902E-02-5.60319E+00-1.51663E-13-9.17745E-13
 -1       597 7.57681E+00 3.84010E-01 1.54157E-01-4.29208E+00-1.03299E-13-1.16089E-12
 -1       598 4.17034E+00 1.93888E+00 1.56779E-01-2.06391E-01 5.96745E-14-1.25672E-12
 -1       599 5.40913E+00 8.57284E-01 1.36253E-01 3.57264E+00 1.67456E-13-1.17031E-12
 -1       600 1.11729E+01-8.50794E-01 1.21443E-01 5.81642E+00 2.45158E-13-9.27362E-13
 -1       601 1.70728E+01-2.60851E+00 5.95020E-02 5.80660E+00 1.57423E-13-7.17395E-13
 -1       602 2.43459E+01-3.05186E+00 4.59190E-03 3.25418E+00-3.78725E-14-3.20338E-13
 -1       603 2.86484E+01-9.73641E-01-7.03554E-02-1.41118E-01-4.24291E-13-6.12912E-14
 -1       604 2.93072E+01 2.84495E+00-1.34146E-01-2.41158E+00-7.41018E-13 3.23352E-15
 -1       605 2.93663E+01 6.61749E+00-1.78832E-01 4.57411E-01-9.71973E-13-5.52180E-13
 -1       606 1.87675E+01-4.69557E+00 6.67140E-02-6.52943E+00 4.11442E-13-2.09355E-14
 -1       607 2.41633E+01-4.89302E+00-7.68037E-04 4.57366E+00-1.70378E-13-3.49182E-13
 -1       608 2.54402E+01 3.54037E-01-1.25334E-02 1.93692E+00 3.26131E-13 2.18028E-13
 -1       609 2.90100E+01-2.28413E+00-5.85839E-02 7.42402E-01 2.12699E-13-6.46518E-13
 -1       610 2.21916E+01 4.90510E-01-9.10005E-03-4.19611E-01-3.26805E-14-3.49978E-13
 -1       611 1.99994E+01-4.62853E-04-1.47515E-06 7.92545E-04-4.81340E-13-7.32685E-14
 -1       612 6.99508E+00 1.83458E-01 1.60129E-01-1.19683E-01 7.78154E-15 8.31092E-13
 -1       613 1.85444E+01-2.27941E+00 7.11625E-02-4.53147E+00-2.47517E-13-5.39303E-13
 -1       614 7.44674E+00 3.54787E+00 9.17422E-02-9.17046E-02 8.92919E-14-1.07989E-12
 -1       615 2.06515E+01-7.55560E-01 1.80726E-02-1.72766E+00-8.84761E-14-2.68641E-13
 -1       616 1.57809E+01 4.15726E-01 6.95086E-02-3.46672E+00-1.98883E-13-6.40116E-13
 -1       617 2.53239E+01-1.07474E+00-3.37648E-04 1.78733E+00 1.49522E-13 8.31609E-14
 -1       618 1.00452E+01 1.54604E+00 1.23992E-01 4.17499E+00 3.38417E-13-9.41150E-13
 -1       619 1.01835E+01 2.42441E+00 1.09021E-01-2.92474E+00-9.99027E-14-9.70782E-13
 -1       620 2.62609E+01-3.97480E+00-2.45518E-02 1.52903E+00-1.97732E-13-6.62104E-13
 -1       621 2.52749E+01-1.45356E-01-6.26544E-03-2.67225E+00-2.46592E-13 3.91367E-14
 -1       622 2.51057E+01 1.50012E+00-4.29084E-02-2.77528E+00-4.10552E-13 5.93818E-15
 -1       623 2.46449E+01 3.31674E+00-4.93303E-02-1.72014E+00-5.42139E-13-1.98896E-13
 -1       624 2.43911E+01 3.71400E+00-6.36132E-02 2.05652E-01-5.29184E-13-4.80760E-13
 -1       625 2.46975E+01 2.16775E+00-3.69443E-02 1.70667E+00-3.30604E-13-6.89613E-13
 -1       626 2.48646E+01 2.23515E-02-2.36136E-02 1.91580E+00-1.71198E-13-6.71711E-13
 -1       627 2.45073E+01-1.46495E+00-8.13372E-03 1.14468E+00 1.02236E-14-5.19690E-13
 -1       628 2.36718E+01-1.87216E+00-3.54745E-03 1.70172E-01 1.07263E-13-4.00804E-13
 -1       629 2.27257E+01-1.60330E+00-1.52831E-03-5.82926E-01 9.53685E-14-2.90545E-13
 -1       630 2.19104E+01-1.09037E+00-7.15320E-04-1.01682E+00 5.40357E-14-2.20744E-13
 -1       631 2.13034E+01-5.90327E-01-3.59657E-04-1.20419E+00-7.12874E-14-1.76764E-13
 -1       632 2.08877E+01-2.04702E-01-1.87287E-04-1.22912E+00-3.90640E-14-1.50155E-13
 -1       633 2.06157E+01 5.15590E-02-2.52922E-05-1.15913E+00 1.37166E-14-1.93861E-13
 -1       634 2.04402E+01 1.99689E-01 6.95495E-05-1.03944E+00-2.03325E-14-1.00393E-13
 -1       635 2.03253E+01 2.69523E-01 1.13284E-04-8.98838E-01 7.69829E-15 7.73999E-14
 -1       636 2.02475E+01 2.88025E-01 1.25885E-04-7.55230E-01 1.40609E-13 9.95912E-14
 -1       637 2.01921E+01 2.75876E-01 1.21113E-04-6.19292E-01 8.17462E-14 1.89214E-13
 -1       638 2.01507E+01 2.47515E-01 1.07728E-04-4.96884E-01 1.09387E-13 1.61318E-13
 -1       639 2.01185E+01 2.12355E-01 9.11060E-05-3.90650E-01 4.50714E-14-1.12689E-14
 -1       640 2.00929E+01 1.76164E-01 7.43312E-05-3.01131E-01-1.34117E-13-1.82350E-13
 -1       641 2.00721E+01 1.42208E-01 5.89366E-05-2.27551E-01-1.18137E-13-2.90798E-13
 -1       642 2.00554E+01 1.12113E-01 4.55896E-05-1.68392E-01-4.90296E-14-2.60776E-13
 -1       643 2.00419E+01 8.64816E-02 3.44603E-05-1.21789E-01-3.50186E-14-2.83798E-13
 -1       644 2.00312E+01 6.53092E-02 2.54529E-05-8.57903E-02 5.24783E-14-2.58971E-13
 -1       645 2.00227E+01 4.82556E-02 1.83419E-05-5.85263E-02 8.48770E-14-2.00465E-13
 -1       646 2.00162E+01 3.48219E-02 1.28523E-05-3.82978E-02 7.05400E-14-1.40593E-13
 -1       647 2.00112E+01 2.44572E-02 8.70452E-06-2.36214E-02-4.03876E-14-2.45393E-13
 -1       648 2.00075E+01 1.66223E-02 5.63843E-06-1.32418E-02-8.72498E-14-2.76013E-13
 -1       649 2.00047E+01 1.08237E-02 3.42494E-06-6.12317E-03-2.99004E-14-1.99723E-13
 -1       650 2.00028E+01 6.62981E-03 1.86961E-06-1.42949E-03-1.92577E-13-1.46280E-13
 -1       651 2.00014E+01 3.67539E-03 8.12082E-07 1.50016E-03-1.72422E-14 1.29235E-13
 -1       652 2.00004E+01 1.65958E-03 1.23278E-07 3.17834E-03 3.62694E-14 2.65321E-13
 -1       653 1.99998E+01 3.40021E-04-2.98576E-07 3.99492E-03 7.61615E-14 9.03086E-15
 -1       654 1.99995E+01-4.74642E-04-5.32206E-07 4.24054E-03 1.06161E-13-3.90030E-14
 -1       655 1.99993E+01-9.32711E-04-6.37682E-07 4.12713E-03 1.52092E-13 6.22407E-14
 -1       656 1.99992E+01-1.14716E-03-6.59025E-07 3.80532E-03 2.22907E-13 6.15550E-14
 -1       657 1.99992E+01-1.20269E-03-6.29276E-07 3.37884E-03 1.28370E-13 1.34466E-13
 -1       658 1.99992E+01-1.16185E-03-5.67929E-07 2.91603E-03 2.32558E-14 1.42163E-13
 -1       659 1.99993E+01-1.07040E-03-4.97983E-07 2.45916E-03-9.66422E-15-3.51464E-14
 -1       660 1.99994E+01-9.61594E-04-4.35570E-07 2.03155E-03 1.93204E-13 1.49915E-14
 -1       661 1.99994E+01-8.59454E-04-4.80947E-07 1.64282E-03-1.25975E-13-1.67337E-13
 -1       662 1.99995E+01-7.79488E-04-4.67342E-07 1.29301E-03-2.91599E-13 5.80950E-14
 -1       663 2.75896E+01 8.17905E-02-7.42932E-02-2.27583E+00-3.75937E-13 1.03823E-13
 -1       664 2.67190E+01 3.82464E+00-1.06018E-01-2.52395E+00-7.09627E-13-4.54897E-14
 -1       665 2.58064E+01 3.04881E+00-8.67013E-02 2.37065E+00 4.74558E-13 5.35830E-14
 -1       666 2.57871E+01 8.83562E-02-4.44254E-02-2.19467E+00 2.20620E-13-6.36310E-13
 -1       667 2.53659E+01-1.66608E+00-1.79897E-02-1.35602E+00 9.32240E-14-5.28815E-13
 -1       668 2.43124E+01-2.08879E+00-2.76022E-03-1.14116E-01-5.64672E-14-3.93632E-13
 -1       669 2.31590E+01-1.69013E+00-7.50841E-04 7.84485E-01-7.25225E-14-3.32656E-13
 -1       670 2.22201E+01-1.05806E+00-6.55658E-04 1.26338E+00-1.09862E-13-2.95159E-13
 -1       671 2.15466E+01-4.87586E-01-6.30019E-04 1.44510E+00-6.29081E-14-2.24170E-13
 -1       672 2.11046E+01-8.82007E-02-2.85085E-04 1.43837E+00-4.33417E-14-6.18197E-14
 -1       673 2.08167E+01 1.51207E-01-7.10458E-06 1.32977E+00 1.37554E-15-3.60843E-14
 -1       674 2.06247E+01 2.71137E-01 1.70809E-04 1.17203E+00-1.02888E-13 1.05638E-14
 -1       675 2.04897E+01 3.12900E-01 2.58504E-04 9.97933E-01-1.48001E-13 1.09080E-13
 -1       676 2.03887E+01 3.08707E-01 2.81868E-04 8.26927E-01-1.76746E-13-7.90285E-14
 -1       677 2.03091E+01 2.80570E-01 2.68061E-04 6.69768E-01-1.57468E-13-1.96464E-13
 -1       678 2.02444E+01 2.42293E-01 2.36193E-04 5.31605E-01-1.21793E-13-9.42999E-14
 -1       679 2.01913E+01 2.01920E-01 1.98310E-04 4.14061E-01-1.78948E-13-1.96552E-13
 -1       680 2.01476E+01 1.63770E-01 1.60978E-04 3.16638E-01-8.62002E-14-2.25660E-13
 -1       681 2.01120E+01 1.29890E-01 1.27305E-04 2.37658E-01-2.44871E-14 9.59164E-16
 -1       682 2.00835E+01 1.00998E-01 9.84877E-05 1.74877E-01-1.03077E-13-4.72333E-15
 -1       683 2.00609E+01 7.70759E-02 7.46790E-05 1.25882E-01-7.30063E-14 1.26675E-13
 -1       684 2.00434E+01 5.77263E-02 5.55159E-05 8.83247E-02 3.71781E-14 1.32328E-13
 -1       685 2.00300E+01 4.23856E-02 4.04184E-05 6.00560E-02 7.86714E-14 3.09172E-13
 -1       686 2.00200E+01 3.04440E-02 2.87484E-05 3.91866E-02 1.22740E-13 2.94213E-13
 -1       687 2.00127E+01 2.13119E-02 1.98908E-05 2.41063E-02 1.31389E-13 1.62509E-13
 -1       688 2.00074E+01 1.44535E-02 1.32917E-05 1.34759E-02 1.34044E-13 2.57114E-13
 -1       689 2.00038E+01 9.40139E-03 8.47237E-06 6.20496E-03-4.55865E-14 2.36961E-13
 -1       690 2.00013E+01 5.75912E-03 5.03144E-06 1.42201E-03-5.80330E-15 1.88287E-14
 -1       691 1.99997E+01 3.19851E-03 2.63976E-06-1.55674E-03 9.19062E-14 8.85569E-14
 -1       692 1.99988E+01 1.45319E-03 1.03261E-06-3.25869E-03 5.23961E-14 1.71192E-13
 -1       693 1.99983E+01 3.10794E-04 7.65056E-10-4.08333E-03 8.39695E-14 2.77327E-13
 -1       694 1.99981E+01-3.95151E-04-6.18486E-07-4.32758E-03-1.20446E-13 2.55463E-13
 -1       695 1.99981E+01-7.93027E-04-9.49679E-07-4.20749E-03-3.41146E-13 7.71714E-14
 -1       696 1.99982E+01-9.80308E-04-1.08720E-06-3.87639E-03-1.80757E-13 1.24295E-14
 -1       697 1.99984E+01-1.02991E-03-1.10061E-06-3.43977E-03-3.90238E-14-6.71455E-15
 -1       698 1.99986E+01-9.95645E-04-1.04027E-06-2.96715E-03-2.18959E-13 2.18365E-13
 -1       699 1.99988E+01-9.16881E-04-9.52051E-07-2.50140E-03-1.38112E-13 3.95096E-13
 -1       700 1.99990E+01-8.22218E-04-8.28042E-07-2.06598E-03-5.58828E-14 5.48069E-13
 -1       701 1.99992E+01-7.32515E-04-7.59319E-07-1.67076E-03-2.13381E-13 6.86863E-13
 -1       702 1.99993E+01-6.63306E-04-9.65919E-07-1.31616E-03-2.40468E-13 4.90069E-13
 -1       703 1.99995E+01-6.83115E-04-7.92155E-07-1.08850E-03-9.90397E-15 6.44073E-13
 -1       704 2.00006E+01-1.69951E-03 3.28112E-07-1.99260E-04 4.36225E-14 1.06011E-13
 -1       705 1.99996E+01-7.37681E-04-4.87679E-07 1.07419E-03-3.13298E-13-4.54960E-14
 -1       706 2.00003E+01-1.43328E-03 2.04707E-07-8.92958E-04 8.66376E-16-7.07560E-14
 -1       707 2.00006E+01-1.69851E-03 3.03995E-07 2.06355E-04-3.15985E-13-2.22874E-13
 -1       708 2.00005E+01-1.60861E-03 2.73467E-07-5.81114E-04-1.47961E-13-4.93536E-13
 -1       709 1.74252E+01-3.08430E+00 7.01526E-02 5.50744E+00-3.89824E-13-1.23443E-13
 -1       710 2.00005E+01-1.60819E-03 1.96916E-07 5.81223E-04-1.72167E-13-1.64156E-13
 -1       711 2.00003E+01-1.43268E-03 2.40991E-07 8.92854E-04-1.00262E-13-3.38909E-13
 -1       712 2.00000E+01-1.18665E-03 2.83511E-07 1.09268E-03-6.95803E-14-4.81249E-13
 -1       713 2.62242E+01 6.74943E-01-6.04661E-02 3.10346E+00 3.11893E-13 1.97234E-13
 -1       714 2.77586E+01-8.57784E-01-6.61746E-02-1.55047E+00 2.07534E-13-7.37504E-13
 -1       715 2.26710E+01-4.53599E+00 2.65407E-02-4.38096E+00 5.29628E-13-3.25491E-13
 -1       716 2.41546E+01-2.60004E-01-5.47901E-03-1.68378E+00-1.52728E-13-1.44601E-13
 -1       717 1.43729E+01 8.20103E-01 4.33548E-02 3.92704E+00 3.59934E-13-7.10272E-13
 -1       718 2.77895E+01-1.62691E+00-4.89842E-02 1.51706E+00 1.62387E-13 2.32377E-13
 -1       719 2.56608E+01 2.71747E+00-7.18572E-02-1.76596E+00 5.15640E-13-4.60272E-13
 -1       720 2.54904E+01 4.15701E+00-8.62508E-02 2.37458E-01 5.55500E-13-2.02743E-13
 -1       721 2.48772E+01-6.87977E-01-6.31653E-03-2.12445E+00-1.66093E-13-2.29877E-14
 -1       722 2.35044E+01-9.21823E-01-1.28965E-02 2.58812E-01 9.18501E-14-7.72334E-14
 -1       723 2.61369E+01-9.82449E-01-1.33140E-02 2.56275E+00 1.99461E-13 2.15508E-13
 -1       724 1.94985E+01-4.94203E-01 2.79334E-02 2.54288E+00 2.81010E-13-4.57616E-13
 -1       725 2.68851E+01-3.04500E+00-2.54849E-02-4.38297E-01 1.94508E-13-8.10487E-13
 -1       726 2.76207E+01 4.87774E+00-1.37213E-01 2.03740E+00 6.83349E-13 1.95122E-14
 -1       727 6.67911E+00 2.78190E+00 1.39285E-01 1.92290E+00 1.88620E-13-1.10051E-12
 -1       728 2.72212E+01 5.33999E+00-1.42124E-01-4.25687E-01 7.08857E-13-3.43797E-13
 -1       729 2.83747E+01 1.87492E+00-9.41076E-02 2.95896E+00 4.98501E-13 2.62637E-13
 -1       730 2.45322E+01-3.01372E+00 1.47875E-02-1.59612E+00-1.27842E-13-8.00315E-14
 -1       731 2.85504E+01 1.08308E+00-1.11785E-01 1.49849E+00-3.60760E-13-8.42371E-13
 -1       732 1.19840E+01 4.66381E-01 1.00794E-01-4.36240E+00-2.12153E-13-9.07743E-13
 -1       733 2.61503E+01-2.27282E+00-2.27084E-02 3.03403E-01-4.20289E-14-1.35413E-14
 -1       734 2.63654E+01 5.48542E+00-1.36972E-01-3.46145E-01-7.66179E-13-4.13310E-13
 -1       735 1.63715E+01-7.95984E-01 8.26352E-02 4.63346E+00 3.76268E-13-6.22788E-13
 -1       736 2.17166E+01-2.42687E+00 2.88290E-02 3.15406E+00 2.63633E-13-3.18788E-13
 -1       737 2.74434E+01 4.32983E+00-1.27992E-01 1.57617E+00-7.19556E-13-7.06817E-13
 -1       738 1.14092E+01-8.64351E-01 1.28855E-01-4.58137E+00 3.69836E-13 3.99479E-13
 -1       739 1.60762E+01-3.00287E+00 8.36263E-02-5.94211E+00 5.35381E-13 1.60323E-14
 -1       740 1.05100E+01-2.16661E-01 1.42606E-01 3.65660E+00-2.77906E-13 4.03740E-13
 -1       741 2.23672E+01-4.46706E+00 3.84536E-02 4.40630E+00-2.98827E-13-3.93498E-13
 -1       742 2.24750E+01-7.23775E-01-2.09000E-03 4.01949E-01 7.82777E-14-2.97756E-13
 -1       743 2.00000E+01-1.18935E-03 4.45584E-07-1.09326E-03-2.53679E-13 4.10282E-13
 -1       744 1.99998E+01-9.44430E-04 3.73420E-08-1.14404E-03-2.24151E-13 7.06619E-14
 -1       745 1.03589E+01 4.15229E-01 1.10396E-01-2.45385E+00 2.31649E-13 5.46799E-13
 -1       746 1.99998E+01-9.94941E-04 2.94846E-08 1.22919E-03-1.97524E-13-2.60859E-13
 -1       747 2.77855E+01 2.66067E+00-1.27546E-01-2.05538E+00 6.22030E-13-6.64708E-13
 -1       748 1.48510E+01-1.09683E+00 6.35838E-02 4.43426E+00-3.52019E-13 5.44356E-14
 -1       749 8.96809E+00 3.10967E+00 1.05593E-01 2.49057E+00 2.66384E-13-9.51732E-13
 -1       750 2.42463E+01-9.45333E-01 1.35820E-03-1.08154E+00-4.93949E-14-1.25439E-13
 -1       751 1.53364E+01-1.40054E+00 5.78947E-02-4.65870E+00 3.53885E-13 4.25875E-15
 -1       752 2.63565E+01 1.04793E+00-7.29985E-02 1.96543E+00-2.54310E-13-8.54912E-13
 -1       753 2.59048E+01-1.72142E+00-2.71025E-02 1.01101E+00 3.60658E-14-7.70550E-13
 -1       754 2.45031E+01-2.64557E+00 4.05914E-03-3.09890E-01 2.43730E-13-4.94620E-13
 -1       755 2.29501E+01-2.33455E+00 1.26523E-04-1.18693E+00 2.02982E-13-4.16592E-13
 -1       756 2.17448E+01-1.61562E+00 1.52813E-03-1.56965E+00 1.18681E-13-3.16544E-13
 -1       757 2.09220E+01-8.96156E-01 4.86493E-04-1.64267E+00-4.97906E-15-2.62718E-13
 -1       758 2.04233E+01-3.38230E-01 4.56979E-05-1.55052E+00-5.86454E-14-1.76262E-13
 -1       759 2.01487E+01 3.60219E-02 6.07405E-05-1.39104E+00-2.63748E-14-1.26992E-13
 -1       760 2.00126E+01 2.58252E-01 8.12439E-05-1.20988E+00 2.50862E-14-1.55611E-13
 -1       761 1.99564E+01 3.69503E-01 8.24417E-05-1.02876E+00 1.38381E-13-9.54786E-14
 -1       762 1.99424E+01 4.06455E-01 7.40939E-05-8.58220E-01 8.27733E-14 2.80392E-14
 -1       763 1.99482E+01 3.97517E-01 6.30643E-05-7.03431E-01 1.12240E-13-2.31732E-14
 -1       764 1.99614E+01 3.62923E-01 5.15899E-05-5.66776E-01-8.20770E-15-1.42862E-13
 -1       765 1.99755E+01 3.16257E-01 4.10616E-05-4.48972E-01-2.77181E-15-2.06775E-13
 -1       766 1.99877E+01 2.66178E-01 3.22543E-05-3.49604E-01-5.73457E-14-2.90204E-13
 -1       767 1.99971E+01 2.17861E-01 2.50323E-05-2.67461E-01-1.69598E-13-1.40243E-13
 -1       768 2.00036E+01 1.74105E-01 1.91588E-05-2.00841E-01-1.48971E-13-1.65961E-13
 -1       769 2.00077E+01 1.36159E-01 1.44249E-05-1.47794E-01-6.23154E-14-5.67933E-14
 -1       770 2.00098E+01 1.04306E-01 1.06580E-05-1.06312E-01-1.75195E-14-1.35242E-13
 -1       771 2.00106E+01 7.82673E-02 7.70625E-06-7.44600E-02 9.72268E-16-1.89122E-13
 -1       772 2.00104E+01 5.74628E-02 5.43197E-06-5.04592E-02 3.57225E-14-2.10957E-13
 -1       773 2.00096E+01 4.11843E-02 3.71105E-06-3.27357E-02-3.80615E-14-4.47344E-13
 -1       774 2.00086E+01 2.87000E-02 2.43415E-06-1.99373E-02-2.44420E-14-2.81910E-13
 -1       775 2.00074E+01 1.93172E-02 1.50720E-06-1.09320E-02-7.21263E-14-2.68763E-13
 -1       776 2.00061E+01 1.24139E-02 8.51090E-07-4.79279E-03-1.82898E-14-2.29739E-13
 -1       777 2.00050E+01 7.45308E-03 4.00709E-07-7.76106E-04 1.13605E-13 4.37437E-14
 -1       778 2.00040E+01 3.98460E-03 1.03540E-07 1.70320E-03 4.93252E-14 3.32247E-13
 -1       779 2.00031E+01 1.64010E-03-8.19816E-08 3.09700E-03-3.27329E-14 2.93651E-13
 -1       780 2.00024E+01 1.24607E-04-1.88199E-07 3.74769E-03-4.75322E-14 1.90789E-13
 -1       781 2.00017E+01-7.93581E-04-2.40060E-07 3.90949E-03 1.62386E-13 6.59344E-14
 -1       782 2.00012E+01-1.29326E-03-2.57446E-07 3.76700E-03 9.02870E-14 1.74169E-13
 -1       783 2.00008E+01-1.51010E-03-2.50404E-07 3.45080E-03 1.05322E-13-1.15095E-13
 -1       784 2.00005E+01-1.54550E-03-2.27495E-07 3.05017E-03-1.89517E-14-8.84111E-14
 -1       785 2.00003E+01-1.47397E-03-1.74476E-07 2.62346E-03-2.15368E-13-8.62393E-14
 -1       786 2.00001E+01-1.34981E-03-1.21254E-07 2.20614E-03-4.52906E-15-2.81191E-13
 -1       787 2.00000E+01-1.21196E-03-4.58317E-08 1.81875E-03-1.68862E-13-4.55277E-13
 -1       788 1.99999E+01-1.09068E-03-2.84511E-07 1.51088E-03-7.37576E-14-6.94362E-13
 -1       789 2.40006E+01-1.95205E+00 2.17983E-03 6.16844E-01 9.48365E-14-1.47589E-13
 -1       790 2.17262E+01-1.65679E+00-4.33774E-03 1.97528E+00-1.74342E-13-3.89331E-13
 -1       791 2.08254E+01-7.80924E-01 1.13729E-03 1.96924E+00-1.67172E-13-3.02422E-13
 -1       792 2.03529E+01-1.77758E-01 4.92783E-04 1.80327E+00-1.06471E-13-2.25805E-13
 -1       793 2.01188E+01 1.93634E-01 1.86500E-04 1.58766E+00-4.37325E-14-9.75396E-14
 -1       794 2.00211E+01 3.88493E-01 1.25763E-04 1.36346E+00-8.15041E-14 3.10953E-15
 -1       795 1.99918E+01 4.65682E-01 1.15446E-04 1.14883E+00-1.76627E-13-6.74262E-15
 -1       796 1.99923E+01 4.71249E-01 1.04716E-04 9.51573E-01-3.03329E-14-1.45493E-13
 -1       797 2.00027E+01 4.37256E-01 9.12338E-05 7.75351E-01-1.35909E-13-9.93839E-14
 -1       798 2.00137E+01 3.84551E-01 7.62669E-05 6.21615E-01-1.30210E-13-1.18938E-13
 -1       799 2.00219E+01 3.25856E-01 6.18605E-05 4.90335E-01-9.33746E-14-1.11116E-13
 -1       800 2.00264E+01 2.68437E-01 4.91549E-05 3.80460E-01-1.42078E-13-4.37704E-14
 -1       801 2.00279E+01 2.16094E-01 3.83821E-05 2.90227E-01-6.42204E-14 1.02027E-15
 -1       802 2.00271E+01 1.70493E-01 2.95074E-05 2.17450E-01-2.68999E-14-3.07732E-14
 -1       803 2.00249E+01 1.32032E-01 2.23292E-05 1.59765E-01-5.27678E-14-5.63520E-14
 -1       804 2.00219E+01 1.00403E-01 1.66108E-05 1.14822E-01-3.21079E-14-1.86326E-13
 -1       805 2.00186E+01 7.49364E-02 1.21235E-05 8.04084E-02-4.12549E-14-1.13762E-13
 -1       806 2.00155E+01 5.48171E-02 8.65632E-06 5.45309E-02 6.33618E-14-9.66937E-14
 -1       807 2.00125E+01 3.92033E-02 6.02062E-06 3.54466E-02 2.16118E-13-1.47872E-14
 -1       808 2.00099E+01 2.72984E-02 4.05147E-06 2.16743E-02-3.56819E-14 4.77180E-14
 -1       809 2.00077E+01 1.83861E-02 2.60813E-06 1.19829E-02-8.53416E-14 3.12568E-13
 -1       810 2.00058E+01 1.18444E-02 1.57296E-06 5.37007E-03 6.32405E-14 5.34731E-13
 -1       811 2.00043E+01 7.14841E-03 8.49460E-07 1.03508E-03 8.48726E-14 4.81369E-13
 -1       812 2.00031E+01 3.86436E-03 3.59836E-07-1.65039E-03 7.58028E-14 2.81667E-13
 -1       813 2.00022E+01 1.64119E-03 4.24183E-08-3.17065E-03-1.35284E-13 2.20731E-13
 -1       814 2.00015E+01 1.99668E-04-1.50904E-07-3.89229E-03-5.23748E-14 3.96901E-13
 -1       815 2.00009E+01-6.78594E-04-2.57059E-07-4.08738E-03-1.17590E-13 4.79778E-13
 -1       816 2.00005E+01-1.16162E-03-3.04068E-07-3.95358E-03-8.46146E-14 3.34080E-13
 -1       817 2.00002E+01-1.37672E-03-3.14874E-07-3.63082E-03-2.66367E-13 9.27993E-14
 -1       818 2.00000E+01-1.41894E-03-3.02580E-07-3.21500E-03-3.68611E-13 4.05488E-13
 -1       819 1.99999E+01-1.35828E-03-2.76783E-07-2.76905E-03-2.45392E-13 4.03138E-13
 -1       820 1.99998E+01-1.24593E-03-2.54879E-07-2.33158E-03-2.24965E-13 5.65243E-13
 -1       821 1.99998E+01-1.11789E-03-1.46868E-07-1.92315E-03-6.57711E-14 4.16278E-13
 -1       822 1.99997E+01-1.00250E-03-1.55077E-07-1.55297E-03-1.19378E-13 1.72452E-15
 -1       823 1.99997E+01-9.67715E-04 2.41240E-07-1.34089E-03-1.70385E-13 3.70748E-14
 -1       824 2.00010E+01-1.84254E-03 1.06040E-07 4.49511E-06-1.52915E-13-1.43615E-13
 -1       825 2.00004E+01-1.41911E-03 2.59795E-07 1.23063E-03-3.09852E-13-3.26186E-13
 -1       826 2.00009E+01-1.79390E-03-9.29894E-09 4.79608E-04-2.26254E-13 6.25840E-14
 -1       827 2.65418E+01-7.49646E-01-5.44535E-02 1.38725E+00-4.16689E-14-8.54109E-13
 -1       828 8.73085E+00 2.32189E+00 1.56869E-01-2.87441E+00-9.49622E-14-1.06069E-12
 -1       829 2.45240E+01-2.31591E+00 1.54152E-02-3.90875E-01-5.75586E-14 1.46250E-14
 -1       830 1.06233E+01 8.62411E-01 9.22760E-02 9.92189E-01 5.75841E-15 5.09273E-13
 -1       831 2.60120E+01-1.18601E+00-1.57512E-02-1.60237E+00-1.46119E-13 4.65817E-14
 -1       832 2.44224E+01-3.67571E+00-2.96063E-03-1.85557E+00 3.98126E-13-6.08904E-13
 -1       833 2.00007E+01-1.64963E-03 9.92657E-08 9.08434E-04-2.39063E-13-2.12596E-13
 -1       834 2.31736E+01-2.63383E+00 8.62510E-03 1.66875E+00-1.14487E-13-4.93113E-13
 -1       835 2.50269E+01-3.10455E+00-5.43106E-03 7.69166E-01-1.11230E-13-5.42396E-13
 -1       836 2.00476E+01-3.17519E+00 3.39550E-02-4.41797E+00 4.85872E-13-2.44288E-13
 -1       837 2.00004E+01-1.42261E-03-3.26414E-07-1.23025E-03-1.16546E-13 2.12864E-13
 -1       838 1.35454E+01-1.08278E-01 5.82356E-02-3.47928E+00 2.42486E-13 3.15997E-13
 -1       839 2.39248E+01-3.62230E+00 4.55790E-03 2.15184E+00-1.63225E-13-5.78386E-13
 -1       840 2.00007E+01-1.65072E-03 1.58525E-07-9.06751E-04-8.52049E-14-1.60677E-13
 -1       841 2.00009E+01-1.79437E-03 1.21911E-07-4.78065E-04 9.19711E-14-1.08725E-13
 -1       842 1.32537E+01 3.58405E-01 4.60467E-02 2.74226E+00-1.75202E-13 1.17524E-13
 -1       843 2.00001E+01-1.26588E-03-1.05384E-06 1.39595E-03-1.36272E-13-3.11763E-13
 -1       844 2.11119E+01-1.55617E+00 3.60044E-02-2.22936E+00-1.37289E-13-2.60700E-13
 -1       845 1.92247E+01-2.26596E+00 2.02199E-02 4.00069E+00-3.44029E-13-2.10237E-13
 -1       846 2.16066E+01-3.20285E+00 2.52663E-02 3.44677E+00-3.37239E-13-4.14826E-13
 -1       847 2.11652E+01-2.16194E+00 5.81739E-04-2.58088E+00 2.64129E-13-2.68956E-13
 -1       848 2.01646E+01-1.13855E+00 2.09301E-03-2.32411E+00 1.54580E-13-2.06184E-13
 -1       849 1.96680E+01-4.04193E-01 6.21389E-04-1.97780E+00 3.73654E-14-8.30326E-14
 -1       850 1.94619E+01 7.48175E-02 1.12544E-04-1.64854E+00-4.07358E-14-5.51083E-14
 -1       851 1.94188E+01 3.58011E-01 6.54206E-05-1.36064E+00 6.24006E-15-2.59916E-15
 -1       852 1.94588E+01 5.01541E-01 5.32557E-05-1.11718E+00 1.15210E-13 1.36808E-13
 -1       853 1.95350E+01 5.51648E-01 4.09342E-05-9.12190E-01 9.64858E-14-7.70065E-14
 -1       854 1.96214E+01 5.43005E-01 3.05247E-05-7.39244E-01 4.44312E-14-1.19264E-13
 -1       855 1.97042E+01 5.00399E-01 2.09339E-05-5.93232E-01-5.85213E-14-1.73280E-13
 -1       856 1.97769E+01 4.40702E-01 1.25535E-05-4.70479E-01-1.27349E-13-2.19764E-13
 -1       857 1.98375E+01 3.75077E-01 7.55434E-06-3.68194E-01-9.14129E-14-2.68344E-13
 -1       858 1.98858E+01 3.10528E-01 4.80922E-06-2.83955E-01-6.38722E-14-3.08034E-13
 -1       859 1.99231E+01 2.51082E-01 3.18821E-06-2.15503E-01-1.84267E-13-2.91939E-13
 -1       860 1.99510E+01 1.98737E-01 2.13396E-06-1.60685E-01-8.40466E-14-3.22089E-13
 -1       861 1.99712E+01 1.54173E-01 1.40893E-06-1.17461E-01-4.14885E-14-2.87934E-13
 -1       862 1.99854E+01 1.17254E-01 9.01831E-07-8.39266E-02-4.21706E-14-2.94002E-13
 -1       863 1.99950E+01 8.73716E-02 5.48358E-07-5.83491E-02-6.84509E-14-2.33050E-13
 -1       864 2.00011E+01 6.36891E-02 3.05372E-07-3.91928E-02-9.74217E-14-3.35071E-13
 -1       865 2.00047E+01 4.52884E-02 1.42038E-07-2.51292E-02-5.44023E-14-3.52047E-13
 -1       866 2.00066E+01 3.12685E-02 3.58232E-08-1.50347E-02 2.42771E-13-1.81703E-13
 -1       867 2.00073E+01 2.07991E-02-2.98677E-08-7.97935E-03-6.59574E-14-2.16015E-14
 -1       868 2.00073E+01 1.31483E-02-6.72825E-08-3.20808E-03 8.15436E-14-1.45472E-13
 -1       869 2.00068E+01 7.69154E-03-8.54331E-08-1.19368E-04 1.82829E-13-2.14913E-13
 -1       870 2.00060E+01 3.91025E-03-9.09160E-08 1.75744E-03 4.31929E-14-1.22808E-13
 -1       871 2.00052E+01 1.38315E-03-8.86000E-08 2.78392E-03-5.43767E-14-8.39020E-14
 -1       872 2.00043E+01-2.24987E-04-8.24440E-08 3.23270E-03-1.07310E-13-4.20808E-14
 -1       873 2.00035E+01-1.17605E-03-7.70432E-08 3.30517E-03-3.09820E-14-1.44978E-13
 -1       874 2.00027E+01-1.67111E-03-8.06371E-08 3.14679E-03 1.05220E-13-2.24817E-13
 -1       875 2.00021E+01-1.86205E-03-8.13740E-08 2.85991E-03 4.35734E-14-2.73748E-14
 -1       876 2.00015E+01-1.86228E-03-3.32282E-08 2.51371E-03-9.98375E-14-4.06182E-13
 -1       877 2.00011E+01-1.75339E-03-4.61614E-08 2.15331E-03-8.67677E-14-2.61150E-13
 -1       878 2.00007E+01-1.59715E-03-7.47823E-08 1.80380E-03-1.14441E-13-1.26347E-13
 -1       879 1.97251E+01-9.73338E-01 6.09243E-03 2.68660E+00-2.09552E-13-1.51219E-13
 -1       880 1.92692E+01 5.35754E-01 7.65428E-05 1.47944E+00-6.43329E-14-5.60587E-14
 -1       881 1.93812E+01 6.37726E-01 6.28760E-05 1.21451E+00-1.61649E-13-1.16717E-13
 -1       882 1.95051E+01 6.49408E-01 4.64889E-05 9.94550E-01-1.11147E-13-8.17685E-14
 -1       883 1.96205E+01 6.09152E-01 3.18581E-05 8.09077E-01-1.44677E-13 5.48933E-14
 -1       884 1.97190E+01 5.42533E-01 1.96250E-05 6.51816E-01-1.54592E-13 5.01065E-14
 -1       885 1.97984E+01 4.65877E-01 1.16321E-05 5.18785E-01-1.46368E-13 1.42208E-13
 -1       886 1.98602E+01 3.88943E-01 6.79401E-06 4.07230E-01-7.01813E-14 1.10386E-13
 -1       887 1.99067E+01 3.17270E-01 3.99194E-06 3.14869E-01-5.33198E-14-2.84405E-15
 -1       888 1.99407E+01 2.53625E-01 2.46576E-06 2.39511E-01-9.70306E-15-2.68591E-15
 -1       889 1.99650E+01 1.99019E-01 1.60948E-06 1.78975E-01 6.45287E-14-9.46710E-14
 -1       890 1.99817E+01 1.53403E-01 1.08769E-06 1.31123E-01 3.47963E-14-5.56540E-14
 -1       891 1.99930E+01 1.16136E-01 7.44136E-07 9.39207E-02-8.41922E-14-2.65184E-15
 -1       892 2.00001E+01 8.62804E-02 5.06701E-07 6.54932E-02 1.79569E-14-1.21142E-14
 -1       893 2.00044E+01 6.27933E-02 3.38762E-07 4.41636E-02-8.05469E-15 6.36759E-14
 -1       894 2.00066E+01 4.46386E-02 2.19219E-07 2.84740E-02-3.56475E-14 3.12045E-13
 -1       895 2.00075E+01 3.08527E-02 1.34564E-07 1.71874E-02-1.13906E-13 3.76839E-13
 -1       896 2.00076E+01 2.05777E-02 7.54878E-08 9.27740E-03-1.59696E-13 4.26255E-13
 -1       897 2.00071E+01 1.30736E-02 3.52497E-08 3.90914E-03 5.87735E-14 4.00339E-13
 -1       898 2.00063E+01 7.71863E-03 8.81802E-09 4.16558E-04 1.71452E-13 6.64907E-13
 -1       899 2.00055E+01 4.00125E-03-7.62133E-09-1.72217E-03-1.38023E-14 8.15382E-13
 -1       900 2.00046E+01 1.50879E-03-1.69905E-08-2.90851E-03-7.68900E-14 6.34636E-13
 -1       901 2.00037E+01-8.58265E-05-2.15509E-08-3.44560E-03-8.37060E-14 4.35413E-13
 -1       902 2.00029E+01-1.03750E-03-2.31543E-08-3.55779E-03-4.60297E-14 3.34562E-13
 -1       903 2.00023E+01-1.54170E-03-2.41924E-08-3.40742E-03-1.31007E-13 2.42707E-13
 -1       904 2.00017E+01-1.74599E-03-3.55169E-08-3.10896E-03-3.80890E-13 3.51186E-13
 -1       905 2.00012E+01-1.76033E-03-4.36920E-08-2.74034E-03-3.69056E-13 2.33909E-13
 -1       906 2.00008E+01-1.66505E-03 1.43498E-08-2.35198E-03-2.17619E-13 3.91085E-13
 -1       907 2.00005E+01-1.51941E-03-9.41868E-08-1.97724E-03-1.37158E-13 3.77912E-13
 -1       908 2.00003E+01-1.36459E-03-1.90482E-07-1.62720E-03 1.97098E-13 2.35607E-13
 -1       909 2.00000E+01-1.20219E-03-2.90520E-07-1.33052E-03 8.84579E-14 3.07312E-13
 -1       910 2.00014E+01-1.99978E-03 1.81247E-07 2.91670E-04-2.96300E-13-2.06306E-13
 -1       911 1.21281E+01 9.99438E-01 5.31485E-02-1.02657E+00 1.40932E-13 4.51210E-13
 -1       912 1.92129E+01 2.87171E-01 1.49561E-04 1.80542E+00-2.16303E-13-1.29924E-13
 -1       913 1.92969E+01-1.87242E-01-1.79815E-04 2.20987E+00-1.71412E-13-1.56770E-13
 -1       914 1.82642E+01-1.60422E+00 1.61390E-02-3.79479E+00 3.25846E-13-1.91975E-13
 -1       915 1.67524E+01-5.79881E-01 2.51374E-02 3.42727E+00-2.29735E-13-9.95896E-14
 -1       916 2.20254E+01-3.01985E+00 8.37791E-03-2.82952E+00 3.65565E-13-4.00595E-13
 -1       917 1.66263E+01-5.75024E-01 2.38181E-02-3.40090E+00 2.56674E-13-1.36023E-13
 -1       918 2.00014E+01-2.00014E-03 6.69918E-09-2.88732E-04-3.08533E-13-6.63460E-14
 -1       919 2.00004E+01-1.42135E-03-3.44015E-07 1.59929E-03-3.19189E-13-8.38492E-14
 -1       920 2.00008E+01-1.65874E-03 1.84752E-07-1.32875E-03 3.71158E-14-1.46472E-13
 -1       921 2.00013E+01-1.89649E-03-6.02869E-08 8.40153E-04-3.71485E-13-1.24553E-13
 -1       922 1.31052E+01 1.07012E+00 3.17928E-02 9.07532E-01 2.04560E-14 2.74495E-13
 -1       923 2.00008E+01-1.64259E-03 5.87858E-07 1.33355E-03-3.98951E-13-4.77257E-13
 -1       924 1.45726E+01 6.24941E-01 2.02603E-02-2.18847E+00 1.88935E-13 2.56447E-13
 -1       925 1.84821E+01-3.11258E-01 8.37544E-04-2.42039E+00 1.37833E-13-2.08909E-13
 -1       926 1.85061E+01 2.21479E-01-1.88813E-04-1.85895E+00 5.84341E-14-1.55603E-14
 -1       927 1.86600E+01 5.21728E-01-7.66732E-05-1.44061E+00-5.05007E-14 5.54380E-14
 -1       928 1.88574E+01 6.69190E-01-2.09994E-06-1.12904E+00 1.33400E-13 1.43711E-14
 -1       929 1.90587E+01 7.16572E-01 2.32571E-05-8.92347E-01 5.94224E-14 4.39279E-14
 -1       930 1.92455E+01 7.00010E-01 1.04323E-05-7.07956E-01 5.11563E-14 7.79296E-14
 -1       931 1.94094E+01 6.45945E-01 4.72029E-06-5.61177E-01-9.86720E-14 8.71568E-14
 -1       932 1.95481E+01 5.72044E-01-8.46296E-06-4.42453E-01-9.31002E-14 7.97168E-14
 -1       933 1.96621E+01 4.90585E-01-1.14303E-05-3.45958E-01-2.15274E-13 5.24725E-14
 -1       934 1.97533E+01 4.09759E-01-1.05322E-05-2.67611E-01-2.75128E-13-1.62496E-13
 -1       935 1.98248E+01 3.34507E-01-8.71210E-06-2.04335E-01-1.81468E-13-4.10493E-13
 -1       936 1.98795E+01 2.67473E-01-6.94548E-06-1.53694E-01-8.70663E-14-2.92831E-13
 -1       937 1.99204E+01 2.09735E-01-5.44402E-06-1.13636E-01-7.64021E-14-1.77298E-13
 -1       938 1.99504E+01 1.61348E-01-4.20507E-06-8.23719E-02 3.21128E-14-1.41962E-13
 -1       939 1.99717E+01 1.21740E-01-3.19528E-06-5.83309E-02 5.81282E-14-2.12609E-13
 -1       940 1.99864E+01 8.99925E-02-2.38319E-06-4.01414E-02-1.34174E-13-8.71780E-14
 -1       941 1.99962E+01 6.50422E-02-1.74037E-06-2.66222E-02-1.00209E-13-7.09556E-15
 -1       942 2.00023E+01 4.58048E-02-1.24040E-06-1.67731E-02 1.08259E-13 4.18948E-14
 -1       943 2.00059E+01 3.12557E-02-8.58744E-07-9.76170E-03 1.92860E-13-1.35885E-13
 -1       944 2.00076E+01 2.04731E-02-5.73176E-07-4.90720E-03-3.03700E-14 7.98135E-14
 -1       945 2.00082E+01 1.26576E-02-3.64133E-07-1.66238E-03-4.04124E-14-5.44387E-15
 -1       946 2.00080E+01 7.13520E-03-2.14901E-07 4.05146E-04 1.15306E-13-2.79958E-13
 -1       947 2.00073E+01 3.35159E-03-1.11636E-07 1.63125E-03-7.83763E-14-3.68591E-13
 -1       948 2.00064E+01 8.60068E-04-4.35481E-08 2.27222E-03-8.80227E-14-3.97202E-13
 -1       949 2.00055E+01-6.92395E-04-4.17557E-09 2.52003E-03-1.36789E-13-2.52513E-13
 -1       950 2.00045E+01-1.57982E-03 3.26421E-09 2.51548E-03-2.90619E-14-1.70021E-13
 -1       951 2.00036E+01-2.01130E-03-4.84365E-08 2.35952E-03 8.10899E-14-3.49960E-13
 -1       952 2.00028E+01-2.14369E-03 1.05779E-08 2.12272E-03-2.10031E-13-2.56924E-13
 -1       953 2.00021E+01-2.09494E-03 6.12663E-08 1.85251E-03-2.18009E-14 8.35697E-14
 -1       954 2.00015E+01-1.95074E-03 1.59039E-07 1.57848E-03-2.36352E-13-2.82440E-13
 -1       955 1.89490E+01 8.36582E-01-1.04974E-05 9.32764E-01-1.27624E-13-6.99683E-14
 -1       956 1.86683E+01 8.32624E-01-1.35487E-04 1.16161E+00-1.61309E-13-1.28737E-14
 -1       957 1.93821E+01 7.04363E-01-3.10415E-05 6.07568E-01-1.94789E-13 1.04434E-13
 -1       958 1.95393E+01 6.10923E-01-3.52629E-05 4.86749E-01-1.87061E-13 2.04350E-13
 -1       959 1.96632E+01 5.15812E-01-3.22737E-05 3.85846E-01-8.01711E-14-2.14302E-14
 -1       960 1.97591E+01 4.25725E-01-2.72101E-05 3.01930E-01 1.05053E-13-8.76670E-14
 -1       961 1.98321E+01 3.44402E-01-2.16393E-05 2.32797E-01 2.09846E-14-9.26536E-14
 -1       962 1.98865E+01 2.73524E-01-1.65457E-05 1.76566E-01 1.89243E-14-6.39413E-14
 -1       963 1.99265E+01 2.13431E-01-1.23120E-05 1.31500E-01 3.97987E-14 3.27817E-14
 -1       964 1.99551E+01 1.63646E-01-8.95073E-06 9.59554E-02 1.01789E-15-2.27855E-14
 -1       965 1.99752E+01 1.23230E-01-6.34996E-06 6.83860E-02-5.75166E-14 1.30107E-13
 -1       966 1.99888E+01 9.10240E-02-4.37688E-06 4.73761E-02-4.86806E-14 1.76360E-13
 -1       967 1.99977E+01 6.58128E-02-2.90828E-06 3.16635E-02-1.01527E-13 3.83561E-13
 -1       968 2.00031E+01 4.64208E-02-1.83751E-06 2.01518E-02-1.17570E-13 3.84814E-13
 -1       969 2.00062E+01 3.17711E-02-1.07496E-06 1.19118E-02-8.05775E-14 3.21722E-13
 -1       970 2.00077E+01 2.09141E-02-5.46949E-07 6.17373E-03-2.49694E-14 2.82586E-13
 -1       971 2.00080E+01 1.30363E-02-1.94070E-07 2.31244E-03-2.59504E-14 5.19545E-13
 -1       972 2.00077E+01 7.45798E-03 3.06905E-08-1.69655E-04 4.14515E-15 6.69756E-13
 -1       973 2.00070E+01 3.62288E-03 1.63869E-07-1.66138E-03 1.11660E-13 5.91689E-13
 -1       974 2.00061E+01 1.08418E-03 2.33368E-07-2.46091E-03-9.22037E-14 2.46704E-13
 -1       975 2.00052E+01-5.10621E-04 2.60117E-07-2.79254E-03 1.78195E-16 2.56176E-13
 -1       976 2.00042E+01-1.43504E-03 2.59182E-07-2.82148E-03 9.70985E-14 1.51416E-13
 -1       977 2.00034E+01-1.89778E-03 2.36170E-07-2.66660E-03-3.24367E-13 1.97118E-14
 -1       978 2.00026E+01-2.05573E-03 1.53013E-07-2.41138E-03-4.89530E-13-1.65213E-13
 -1       979 2.00020E+01-2.02589E-03 3.26367E-08-2.11192E-03-4.17815E-13-1.20015E-13
 -1       980 2.00014E+01-1.89381E-03-1.05825E-07-1.80388E-03-1.02361E-13-1.76658E-13
 -1       981 2.00011E+01-1.77656E-03-8.14945E-07-1.55843E-03-2.47643E-14-3.14564E-13
 -1       982 1.53168E+01 6.57307E-01 1.50320E-02 2.11269E+00-9.60263E-14-4.33252E-14
 -1       983 1.83518E+01 7.35263E-01-2.93325E-04 1.46838E+00-1.39417E-13-8.85418E-14
 -1       984 1.91865E+01 7.85471E-01-2.35662E-06 7.53358E-01-2.01111E-13-5.25780E-14
 -1       985 1.83318E+01-8.44720E-01 5.14903E-03-3.01736E+00 2.52277E-13-2.26456E-13
 -1       986 1.75747E+01 1.02463E-01 1.14646E-03 2.46717E+00-1.90166E-13-1.62858E-13
 -1       987 2.00012E+01-1.89403E-03 1.56247E-07-8.39899E-04-1.63210E-13-1.79096E-13
 -1       988 1.42538E+01 1.15536E+00 1.45607E-02-6.94365E-01 1.28104E-13 4.04374E-13
 -1       989 1.79682E+01 5.19258E-01-5.68939E-04 1.87321E+00-1.85518E-13-4.78205E-14
 -1       990 2.00019E+01-2.14117E-03-8.48736E-07 6.73301E-04-2.43516E-13-6.85293E-14
 -1       991 2.00020E+01-2.19610E-03 5.14188E-08 2.57044E-06-4.42209E-13-1.78071E-13
 -1       992 1.51783E+01 1.18050E+00 5.29455E-03 7.44144E-01 4.37345E-14-4.60309E-15
 -1       993 1.77218E+01 7.65409E-01-1.47218E-05-1.35880E+00 9.55805E-14-1.65556E-13
 -1       994 1.81613E+01 8.75241E-01-5.67215E-06-1.01166E+00 5.93792E-14 5.94870E-14
 -1       995 1.85320E+01 8.97130E-01-2.39666E-05-7.67732E-01 9.14578E-14 3.98454E-15
 -1       996 1.88411E+01 8.62361E-01 2.47458E-05-5.90381E-01 7.18542E-14-3.71425E-14
 -1       997 1.90974E+01 7.91263E-01-5.43731E-05-4.58393E-01-5.76432E-14-1.05126E-13
 -1       998 1.93068E+01 7.02116E-01-1.07019E-04-3.55936E-01-1.07189E-13-9.68012E-14
 -1       999 1.94769E+01 6.04861E-01-8.11563E-05-2.75878E-01-1.81870E-13-1.05481E-13
 -1      1000 1.96123E+01 5.08520E-01-6.82391E-05-2.12627E-01-3.49239E-13-1.58842E-13
 -1      1001 1.97187E+01 4.18350E-01-5.60795E-05-1.62369E-01-2.11191E-13 7.15214E-14
 -1      1002 1.98008E+01 3.37363E-01-4.56172E-05-1.22525E-01-5.80195E-14 2.47408E-13
 -1      1003 1.98632E+01 2.66956E-01-3.67384E-05-9.11443E-02-6.35400E-14 2.02439E-13
 -1      1004 1.99097E+01 2.07380E-01-2.92093E-05-6.66653E-02-2.16358E-13 8.22587E-14
 -1      1005 1.99435E+01 1.58133E-01-2.28750E-05-4.77931E-02-1.51650E-13-2.42619E-13
 -1      1006 1.99676E+01 1.18271E-01-1.76191E-05-3.34401E-02 1.87564E-14-4.41440E-13
 -1      1007 1.99842E+01 8.66290E-02-1.33297E-05-2.26915E-02-1.52611E-13-3.18398E-13
 -1      1008 1.99952E+01 6.19790E-02-9.89026E-06-1.47820E-02 3.21945E-14-3.05266E-13
 -1      1009 2.00022E+01 4.31320E-02-7.18120E-06-9.07828E-03 4.85875E-14-5.09350E-13
 -1      1010 2.00062E+01 2.89974E-02-5.08594E-06-5.06268E-03 1.87480E-13-6.78636E-13
 -1      1011 2.00083E+01 1.86145E-02-3.49561E-06-2.31816E-03 9.19345E-14-4.10138E-13
 -1      1012 2.00089E+01 1.11622E-02-2.31233E-06-5.13504E-04-1.08308E-13-1.45457E-13
 -1      1013 2.00088E+01 5.95681E-03-1.45098E-06 6.10260E-04-2.55531E-14-1.72986E-13
 -1      1014 2.00081E+01 2.44127E-03-8.39618E-07 1.25243E-03-1.37374E-13-2.35294E-13
 -1      1015 2.00071E+01 1.70566E-04-4.19451E-07 1.56376E-03-9.46014E-14-3.01540E-13
 -1      1016 2.00060E+01-1.20431E-03-1.47261E-07 1.65621E-03-1.29065E-13-4.61738E-13
 -1      1017 2.00050E+01-1.95238E-03-8.51244E-09 1.61105E-03 8.45636E-14-3.94928E-13
 -1      1018 2.00040E+01-2.27721E-03-3.66011E-08 1.48545E-03 1.02738E-13-1.42929E-13
 -1      1019 2.00031E+01-2.33031E-03 1.15328E-06 1.32355E-03-2.94296E-14-5.12483E-14
 -1      1020 2.00025E+01-2.27661E-03 1.10217E-06 9.76413E-04-3.60099E-13-3.54018E-14
 -1      1021 1.83624E+01 1.01746E+00-1.68516E-04 7.33986E-01-1.29302E-13-2.22413E-13
 -1      1022 1.94554E+01 6.37670E-01-1.34136E-04 3.08232E-01-1.23386E-14-2.12881E-13
 -1      1023 1.92692E+01 7.47848E-01-1.72499E-04 3.84536E-01-2.33613E-13-1.43512E-13
 -1      1024 1.97129E+01 4.35122E-01-8.76669E-05 1.91182E-01 7.60176E-14-2.29494E-13
 -1      1025 1.97982E+01 3.49460E-01-6.95009E-05 1.47197E-01-4.89485E-16-1.77666E-13
 -1      1026 1.98622E+01 2.75780E-01-5.43776E-05 1.11366E-01-5.80374E-14-1.59298E-13
 -1      1027 1.99094E+01 2.13902E-01-4.19825E-05 8.26441E-02-1.10791E-14-7.96841E-14
 -1      1028 1.99436E+01 1.63018E-01-3.19412E-05 6.00098E-02-1.00886E-13 3.49410E-14
 -1      1029 1.99677E+01 1.21972E-01-2.39055E-05 4.24880E-02-7.27628E-14 1.43478E-13
 -1      1030 1.99843E+01 8.94565E-02-1.75620E-05 2.91746E-02-2.03256E-13 1.18446E-13
 -1      1031 1.99952E+01 6.41486E-02-1.26289E-05 1.92575E-02-6.14305E-14 2.86900E-13
 -1      1032 2.00021E+01 4.47973E-02-8.85406E-06 1.20295E-02-4.07681E-14 2.17822E-13
 -1      1033 2.00061E+01 3.02710E-02-6.01548E-06 6.89036E-03-1.00689E-15 7.67685E-14
 -1      1034 2.00081E+01 1.95814E-02-3.92133E-06 3.34281E-03-1.87740E-13 1.64156E-13
 -1      1035 2.00088E+01 1.18885E-02-2.40923E-06 9.83882E-04-1.35088E-13 4.13254E-13
 -1      1036 2.00086E+01 6.49469E-03-1.34441E-06-5.06476E-04-1.89276E-14 3.46771E-13
 -1      1037 2.00079E+01 2.83263E-03-6.17023E-07-1.37749E-03 2.42069E-13 2.69146E-13
 -1      1038 2.00070E+01 4.49169E-04-1.38541E-07-1.81950E-03 8.26570E-14 7.21927E-14
 -1      1039 2.00059E+01-1.01122E-03 1.62341E-07-1.97493E-03 1.99474E-13-1.35705E-13
 -1      1040 2.00049E+01-1.82292E-03 3.45710E-07-1.94801E-03-7.86880E-14 1.29378E-13
 -1      1041 2.00039E+01-2.19395E-03 4.65024E-07-1.81285E-03-2.69514E-13 4.19924E-15
 -1      1042 2.00031E+01-2.27888E-03 2.37920E-07-1.62243E-03-3.09121E-13-6.65359E-14
 -1      1043 2.00023E+01-2.19881E-03 2.98800E-07-1.40612E-03-2.29260E-13-4.51881E-13
 -1      1044 2.00019E+01-2.14054E-03-1.04035E-07-6.65674E-04-2.51250E-13-3.21392E-13
 -1      1045 1.78899E+01 1.03874E+00-2.29089E-04 9.32773E-01-2.03223E-13-2.64988E-13
 -1      1046 1.72111E+01 5.20435E-01 2.04765E-03-1.87260E+00 1.26164E-13-1.96685E-13
 -1      1047 1.96007E+01 5.31952E-01-1.08916E-04 2.44423E-01 1.59321E-14-2.35770E-13
 -1      1048 1.68423E+01 1.01066E-01 6.56516E-03-2.52643E+00 2.06781E-13-1.67260E-13
 -1      1049 1.90337E+01 8.55183E-01-1.21795E-04 4.75902E-01-2.37712E-13-1.34087E-13
 -1      1050 2.00016E+01-1.99025E-03 5.17630E-07-1.15660E-03-2.19568E-13-2.63263E-13
 -1      1051 1.87363E+01 9.50288E-01-4.94838E-05 5.89178E-01-1.83505E-13-1.43213E-13
 -1      1052 2.00027E+01-2.35326E-03 2.71547E-07 2.14627E-04-1.72695E-13-1.25827E-13
 -1      1053 1.57687E+01 8.56855E-01 6.27223E-03-1.57464E+00 1.14412E-13 8.87956E-14
 -1      1054 1.65536E+01 8.64712E-01 6.87791E-04 1.58088E+00-1.18289E-13-2.72568E-13
 -1      1055 1.73037E+01 9.98612E-01-6.53555E-04 1.19033E+00-1.54597E-13-3.74682E-13
 -1      1056 1.98608E+01 2.63628E-01 3.36211E-05 5.24534E-02-9.79573E-14-8.66019E-14
 -1      1057 1.67407E+01 1.00997E+00 7.31105E-04-1.07823E+00 9.18761E-14 2.17460E-14
 -1      1058 1.92561E+01 7.44033E-01 4.05256E-05 1.72689E-01-7.29569E-14-3.90123E-13
 -1      1059 1.80016E+01 1.07233E+00-3.51725E-05-4.96575E-01 3.87683E-14-7.27676E-14
 -1      1060 1.84492E+01 1.01015E+00 7.38755E-05-3.64768E-01 2.98583E-14-7.74751E-14
 -1      1061 1.87870E+01 9.31003E-01 5.25185E-04-2.70485E-01-3.30460E-14-1.95632E-13
 -1      1062 1.90719E+01 8.22434E-01 2.68622E-06-2.00692E-01-1.46626E-13-3.18537E-13
 -1      1063 1.92970E+01 7.10153E-01-1.01719E-04-1.51899E-01-1.00716E-13-3.20878E-13
 -1      1064 1.94749E+01 6.00282E-01-7.57806E-05-1.14503E-01-1.77179E-13-2.47517E-13
 -1      1065 1.96145E+01 4.97127E-01-5.13722E-05-8.58889E-02-1.08707E-13-4.08376E-14
 -1      1066 1.97227E+01 4.03861E-01-3.35483E-05-6.39685E-02-6.93427E-15-2.02676E-14
 -1      1067 1.98055E+01 3.22130E-01-2.05398E-05-4.71836E-02-1.16675E-13-7.83251E-14
 -1      1068 1.98678E+01 2.52384E-01-1.11266E-05-3.43703E-02-2.05236E-13-1.28303E-13
 -1      1069 1.99138E+01 1.94229E-01-4.52201E-06-2.46450E-02-2.79638E-13-4.99655E-14
 -1      1070 1.99470E+01 1.46742E-01-1.04802E-07-1.73249E-02-2.80809E-14 7.52090E-14
 -1      1071 1.99704E+01 1.08710E-01 2.65377E-06-1.18743E-02-3.07668E-16 6.65487E-14
 -1      1072 1.99865E+01 7.88089E-02 4.19811E-06-7.86963E-03-1.85328E-13-2.79002E-14
 -1      1073 1.99970E+01 5.57259E-02 4.88869E-06-4.97488E-03-1.11339E-13-2.28838E-13
 -1      1074 2.00035E+01 3.82345E-02 5.00715E-06-2.92372E-03-4.80959E-14-4.82474E-13
 -1      1075 2.00072E+01 2.52376E-02 4.76578E-06-1.50607E-03 2.04142E-13-5.34966E-13
 -1      1076 2.00090E+01 1.57856E-02 4.31908E-06-5.57406E-04 2.41607E-13-7.89311E-13
 -1      1077 2.00094E+01 9.07863E-03 3.77532E-06 4.98963E-05 1.29792E-13-6.82406E-13
 -1      1078 2.00091E+01 4.45784E-03 3.20736E-06 4.13736E-04 1.39684E-13-4.57390E-13
 -1      1079 2.00083E+01 1.39187E-03 2.66262E-06 6.08221E-04-1.52055E-13-1.74816E-13
 -1      1080 2.00072E+01-5.40062E-04 2.17371E-06 6.88632E-04-2.05291E-13-1.27059E-13
 -1      1081 2.00061E+01-1.66528E-03 1.77060E-06 6.95573E-04-1.97643E-13-1.12576E-13
 -1      1082 2.00050E+01-2.23434E-03 1.39872E-06 6.58677E-04 1.26761E-13-3.44266E-13
 -1      1083 2.00040E+01-2.43964E-03 1.40867E-06 5.91732E-04 2.55270E-13-3.12927E-13
 -1      1084 2.00033E+01-2.43669E-03-6.38953E-06 3.75601E-04 1.78065E-13-3.27160E-13
 -1      1085 1.74270E+01 1.09317E+00-1.89120E-05-6.90269E-01 1.27849E-13 5.66426E-15
 -1      1086 1.97957E+01 3.36214E-01 4.31626E-05 6.91788E-02-7.00574E-14-9.99319E-14
 -1      1087 1.97088E+01 4.21433E-01 5.41324E-05 8.94167E-02 3.11827E-14-1.50317E-13
 -1      1088 1.99089E+01 2.03156E-01 2.56831E-05 3.89196E-02-1.25020E-13-8.76722E-15
 -1      1089 1.99436E+01 1.53778E-01 1.92346E-05 2.81936E-02-1.40319E-13 6.70656E-14
 -1      1090 1.99681E+01 1.14206E-01 1.40967E-05 1.98668E-02-1.06682E-13 4.11169E-14
 -1      1091 1.99849E+01 8.30584E-02 1.00802E-05 1.35366E-02-1.50488E-13-4.71739E-14
 -1      1092 1.99959E+01 5.89723E-02 7.00067E-06 8.82826E-03-2.35990E-13 6.67258E-14
 -1      1093 2.00028E+01 4.06810E-02 4.68713E-06 5.40831E-03-9.24700E-14 4.58294E-13
 -1      1094 2.00068E+01 2.70526E-02 2.98656E-06 2.99002E-03-2.55355E-15 4.40051E-13
 -1      1095 2.00087E+01 1.71079E-02 1.76642E-06 1.33414E-03-9.64799E-14 2.26219E-13
 -1      1096 2.00093E+01 1.00213E-02 9.15174E-07 2.46023E-04-1.52181E-14 9.34697E-14
 -1      1097 2.00091E+01 5.11232E-03 3.41509E-07-4.29056E-04 2.06916E-13-1.56878E-13
 -1      1098 2.00083E+01 1.83117E-03-2.66240E-08-8.11481E-04 2.31920E-13-2.46860E-13
 -1      1099 2.00073E+01-2.58381E-04-2.41407E-07-9.92971E-04 1.13819E-13-1.36215E-15
 -1      1100 2.00062E+01-1.49644E-03-3.31415E-07-1.04197E-03 2.54107E-15 3.44824E-13
 -1      1101 2.00051E+01-2.14397E-03-3.09213E-07-1.00859E-03-3.98628E-14 2.46686E-13
 -1      1102 2.00041E+01-2.39762E-03 1.42746E-07-9.28082E-04-5.81890E-14-3.04518E-14
 -1      1103 2.00031E+01-2.40329E-03-2.27153E-06-8.28694E-04-1.03135E-13-2.72241E-13
 -1      1104 1.78219E+01 1.15632E+00-1.66358E-04 3.61947E-01-1.77856E-13-1.64229E-13
 -1      1105 1.83278E+01 1.07486E+00-2.42726E-04 2.95749E-01-1.08113E-13-2.23337E-13
 -1      1106 1.90129E+01 8.63262E-01-2.29792E-04 2.07879E-01-2.17674E-13-4.53340E-13
 -1      1107 2.00026E+01-2.34514E-03 2.10921E-06-3.71079E-04-1.08825E-13-1.66127E-13
 -1      1108 1.57509E+01 1.23149E+00 2.07539E-03-3.37485E-01-1.30051E-14 3.97567E-13
 -1      1109 1.94464E+01 6.27516E-01 6.96959E-05 1.41172E-01 7.66166E-15-3.72069E-13
 -1      1110 1.95946E+01 5.19008E-01 6.51266E-05 1.13386E-01-2.98219E-15-2.31823E-13
 -1      1111 1.87167E+01 9.74418E-01 9.38279E-04 2.46875E-01-2.63652E-13-3.99153E-13
 -1      1112 1.71829E+01 1.20628E+00-4.10736E-05 4.35512E-01-1.57953E-13-4.08394E-14
 -1      1113 1.63721E+01 1.20607E+00 4.06643E-04 6.07552E-01-9.74171E-14-4.93617E-14
 -1      1114 1.75680E+01 1.18907E+00-8.67088E-04-4.87395E-02-4.82898E-14 1.32845E-14
 -1      1115 1.85501E+01 1.01587E+00-3.39396E-03 5.72918E-03-1.18727E-13-3.05982E-13
 -1      1116 1.67256E+01 1.23428E+00 3.35897E-04-1.59273E-01-3.46689E-14 2.03862E-13
 -1      1117 1.81307E+01 1.11562E+00-7.60350E-05-1.56445E-02-2.43193E-16-1.89687E-13
 -1      1118 3.39940E+01 1.10363E+01 2.79345E+00-7.59164E+00-6.47260E-14 1.64002E-12
 -1      1119 2.47309E+01 7.51862E+00 3.31091E-01-3.88367E+00-3.03091E-14 1.13382E-13
 -1      1120 2.24645E+01 6.78930E+00 1.66495E-01-2.34598E+00-1.89848E-14-4.93692E-13
 -1      1121 2.08169E+01 6.29216E+00 1.56911E-01-1.17644E+00-1.02696E-14-7.61216E-13
 -1      1122 1.90961E+01 5.77075E+00 1.39660E-01-1.37385E-01-4.38538E-15-8.83365E-13
 -1      1123 1.71300E+01 5.16309E+00 8.02329E-02 6.80862E-01-1.33227E-15-9.38315E-13
 -1      1124 1.50569E+01 4.51125E+00-1.93552E-02 1.10141E+00 1.02696E-15-9.64515E-13
 -1      1125 1.32942E+01 3.95026E+00-1.26690E-01 1.00998E+00 1.66533E-15-9.78104E-13
 -1      1126 1.23398E+01 3.64414E+00-1.92641E-01 4.76565E-01 2.28290E-15-9.78822E-13
 -1      1127 1.25226E+01 3.70095E+00-1.86054E-01-2.07128E-01 3.03924E-15-9.55451E-13
 -1      1128 1.38209E+01 4.11319E+00-1.10308E-01-6.73765E-01 4.10783E-15-9.04623E-13
 -1      1129 1.58741E+01 4.76124E+00-3.30364E-03-6.66573E-01 5.55112E-15-8.26686E-13
 -1      1130 1.81876E+01 5.48284E+00 8.85248E-02-1.46394E-01 9.54792E-15-6.95704E-13
 -1      1131 2.04405E+01 6.17458E+00 1.41392E-01 7.62181E-01 1.36557E-14-4.95671E-13
 -1      1132 2.26404E+01 6.84457E+00 1.74775E-01 1.94341E+00 2.12053E-14-1.38538E-13
 -1      1133 2.52760E+01 7.67359E+00 3.02615E-01 3.52579E+00 2.50910E-14 5.47010E-13
 -1      1134 3.18587E+01 1.01082E+01 1.83533E+00 6.39850E+00 6.05072E-14 1.98663E-12
 -1      1135 3.54609E+01 4.25190E+00 1.45892E+00-4.83419E+00-2.47441E-13 2.59454E-12
 -1      1136 2.60975E+01-1.76463E-01-6.51337E-01-7.25009E-02-7.76948E-14 2.06621E-12
 -1      1137 2.44375E+01-5.00849E-02-1.68808E-01 5.73029E-02-3.26093E-14 1.33448E-12
 -1      1138 2.32387E+01 1.55681E-03 2.38763E-02-7.30385E-03-2.45989E-14 8.46669E-13
 -1      1139 2.17317E+01 3.89846E-03 3.26946E-02-5.29777E-02-1.35719E-14 5.05443E-13
 -1      1140 2.00381E+01-2.71660E-02-2.70100E-02-7.11230E-02 4.53760E-15 2.90989E-13
 -1      1141 1.85665E+01-6.94335E-02-1.01069E-01-5.43406E-02-1.21309E-14 1.65881E-13
 -1      1142 1.78127E+01-9.41262E-02-1.43600E-01-7.21766E-03-4.68549E-15-2.98980E-15
 -1      1143 1.80627E+01-8.17772E-02-1.26651E-01 4.76956E-02-8.79245E-15-2.10575E-13
 -1      1144 1.91946E+01-3.89294E-02-6.09764E-02 8.34577E-02-1.12453E-15-4.13308E-13
 -1      1145 2.07505E+01 9.16527E-03 1.43385E-02 8.75467E-02-6.17941E-16-5.62397E-13
 -1      1146 2.22078E+01 4.07461E-02 6.43940E-02 6.68470E-02 1.48982E-14-5.68323E-13
 -1      1147 2.32214E+01 5.00828E-02 7.88659E-02 3.72365E-02-3.85456E-15-6.50799E-13
 -1      1148 2.36929E+01 4.33783E-02 6.74148E-02 1.14673E-02-1.28192E-14-7.06397E-13
 -1      1149 2.37017E+01 2.98788E-02 4.52922E-02-5.25147E-03-1.97247E-14-9.05458E-13
 -1      1150 2.33990E+01 1.62317E-02 2.36251E-02-1.33341E-02-2.63413E-14-9.46920E-13
 -1      1151 2.29327E+01 5.54716E-03 7.34878E-03-1.54422E-02-9.87426E-15-9.89696E-13
 -1      1152 2.24142E+01-1.52361E-03-2.84601E-03-1.42664E-02 2.89028E-15-1.00507E-12
 -1      1153 2.19140E+01-5.50926E-03-8.15923E-03-1.17214E-02-2.25135E-16-1.23212E-12
 -1      1154 2.14694E+01-7.27577E-03-1.01853E-02-8.91725E-03 5.62723E-15-1.19533E-12
 -1      1155 2.10951E+01-7.62474E-03-1.02659E-02-6.38784E-03-4.70091E-14-1.13794E-12
 -1      1156 2.07924E+01-7.16436E-03-9.33855E-03-4.32578E-03-1.22812E-14-8.91306E-13
 -1      1157 2.05552E+01-6.30712E-03-7.98907E-03-2.74902E-03 7.92877E-15-5.96849E-13
 -1      1158 2.03746E+01-5.31085E-03-6.55319E-03-1.59992E-03-5.42231E-14-8.09756E-13
 -1      1159 2.02406E+01-4.32466E-03-5.20613E-03-7.97414E-04 1.15171E-14-9.26245E-13
 -1      1160 2.01437E+01-3.42652E-03-4.02696E-03-2.61388E-04-5.46991E-15-4.68010E-13
 -1      1161 2.00758E+01-2.65030E-03-3.04009E-03 7.75429E-05-6.80128E-15-3.13894E-13
 -1      1162 2.00299E+01-2.00391E-03-2.24087E-03 2.75493E-04-2.61398E-14-7.73240E-13
 -1      1163 2.00001E+01-1.48100E-03-1.61049E-03 3.75910E-04-4.65539E-15-8.06088E-13
 -1      1164 1.99822E+01-1.06818E-03-1.12470E-03 4.11384E-04 1.96372E-14-8.72035E-13
 -1      1165 1.99725E+01-7.49384E-04-7.58462E-04 4.05708E-04-4.94242E-15-6.87242E-13
 -1      1166 1.99683E+01-5.08384E-04-4.88438E-04 3.75807E-04-9.70374E-16-7.68335E-13
 -1      1167 1.99679E+01-3.30109E-04-2.94073E-04 3.33381E-04 2.68480E-14-6.84865E-13
 -1      1168 1.99697E+01-2.01292E-04-1.57965E-04 2.86240E-04 4.36341E-15-4.90507E-13
 -1      1169 1.99727E+01-1.10671E-04-6.58053E-05 2.39363E-04-3.44214E-14-7.31226E-13
 -1      1170 1.99762E+01-4.89599E-05-6.10855E-06 1.95717E-04 1.53544E-14-6.07114E-13
 -1      1171 1.99799E+01-8.67544E-06 3.01536E-05 1.56872E-04-1.35221E-14-6.42848E-13
 -1      1172 1.99834E+01 1.60854E-05 4.99401E-05 1.23464E-04 3.41317E-14-4.15901E-13
 -1      1173 1.99866E+01 2.98927E-05 5.85143E-05 9.55280E-05 3.12487E-14-2.13972E-13
 -1      1174 1.99894E+01 3.62218E-05 5.97849E-05 7.27412E-05-5.63634E-15 2.22292E-13
 -1      1175 1.99918E+01 3.76721E-05 5.66041E-05 5.45838E-05-5.52528E-14 4.53876E-13
 -1      1176 1.99938E+01 3.61609E-05 5.10251E-05 4.04495E-05 3.64980E-15 6.30194E-13
 -1      1177 1.99954E+01 3.30904E-05 4.45263E-05 2.97072E-05-7.63978E-14 3.70856E-13
 -1      1178 1.99967E+01 2.94885E-05 3.82141E-05 2.17219E-05-1.73117E-14 2.46154E-13
 -1      1179 1.99978E+01 2.61177E-05 3.30107E-05 1.58298E-05-2.82175E-14-5.55835E-14
 -1      1180 1.99986E+01 2.35359E-05 2.97860E-05 1.12418E-05 8.07649E-14 2.42896E-13
 -1      1181 1.99992E+01 2.20603E-05 2.91147E-05 6.82466E-06 9.28188E-14 5.77004E-13
 -1      1182 1.99997E+01 2.11104E-05 2.95286E-05 6.20400E-07 8.12677E-14 1.04531E-12
 -1      1183 1.99998E+01 2.15827E-05 2.09831E-05-1.11444E-05-6.36562E-14 5.47938E-13
 -1      1184 1.99998E+01-1.07161E-05-2.35195E-05-1.04798E-05 8.93614E-14 3.05281E-13
 -1      1185 3.53142E+01 6.59057E-01 3.52275E-01 2.22686E+00-3.44932E-14 3.19944E-12
 -1      1186 2.75263E+01-2.74245E-02-5.79364E-01 7.33602E-02 1.76074E-14 2.54363E-12
 -1      1187 2.63380E+01 1.97659E-02-9.16017E-02-2.04258E-02 1.65050E-14 1.93401E-12
 -1      1188 2.51233E+01 3.78350E-02 7.49052E-02-5.34625E-03 5.18812E-15 1.54232E-12
 -1      1189 2.33692E+01 1.57174E-02 7.54068E-02 3.71513E-02 5.61964E-15 1.22975E-12
 -1      1190 2.11821E+01-3.37435E-02-8.87501E-03 8.61815E-02-1.09884E-15 9.65159E-13
 -1      1191 1.91381E+01-7.98662E-02-1.20278E-01 1.09361E-01-1.28413E-14 9.22318E-13
 -1      1192 1.80260E+01-8.90724E-02-1.86970E-01 8.28717E-02-3.91007E-15 9.11424E-13
 -1      1193 1.83318E+01-5.71391E-02-1.63411E-01 1.59075E-02-1.59855E-15 6.86194E-13
 -1      1194 1.98604E+01-1.06298E-02-7.11613E-02-5.27793E-02 1.00414E-14 4.98476E-13
 -1      1195 2.18772E+01 2.28626E-02 2.62437E-02-8.85803E-02 2.60835E-14 2.89074E-13
 -1      1196 2.36109E+01 3.48550E-02 8.13921E-02-8.53918E-02 1.80121E-14 1.55403E-13
 -1      1197 2.46387E+01 3.15321E-02 8.83626E-02-5.94565E-02-1.98886E-15 2.05239E-13
 -1      1198 2.49285E+01 2.20529E-02 6.71578E-02-2.97395E-02-1.39120E-14 9.66831E-14
 -1      1199 2.46694E+01 1.22648E-02 3.91718E-02-6.86778E-03 3.83747E-14-2.12073E-13
 -1      1200 2.40979E+01 4.69280E-03 1.61128E-02 6.82245E-03-1.79321E-14-3.65246E-13
 -1      1201 2.34065E+01-2.36130E-04 1.18850E-03 1.30650E-02-2.75297E-14-4.01554E-14
 -1      1202 2.27190E+01-2.99867E-03-6.72645E-03 1.45705E-02 3.94547E-14-4.22221E-13
 -1      1203 2.21012E+01-4.25548E-03-9.93523E-03 1.35834E-02-2.40104E-14-4.98789E-13
 -1      1204 2.15793E+01-4.57491E-03-1.04511E-02 1.15574E-02 1.55077E-14-4.37896E-13
 -1      1205 2.11566E+01-4.36687E-03-9.63389E-03 9.30004E-03 2.49318E-14-4.69608E-13
 -1      1206 2.08248E+01-3.89866E-03-8.28259E-03 7.20091E-03-3.03959E-14-3.21443E-13
 -1      1207 2.05710E+01-3.33254E-03-6.82103E-03 5.41175E-03 2.98113E-14-1.61212E-13
 -1      1208 2.03812E+01-2.76066E-03-5.45200E-03 3.96267E-03-4.26490E-14-9.10830E-14
 -1      1209 2.02425E+01-2.23124E-03-4.25791E-03 2.82843E-03 4.11298E-15 2.97644E-14
 -1      1210 2.01435E+01-1.76607E-03-3.25969E-03 1.96324E-03 1.36309E-14-1.29325E-13
 -1      1211 2.00748E+01-1.37163E-03-2.44896E-03 1.31764E-03-4.77927E-14-2.01750E-13
 -1      1212 2.00286E+01-1.04603E-03-1.80487E-03 8.45944E-04-2.50337E-14-4.14291E-13
 -1      1213 1.99990E+01-7.83070E-04-1.30267E-03 5.08880E-04-7.50372E-15-3.50333E-13
 -1      1214 1.99813E+01-5.74752E-04-9.17838E-04 2.74081E-04-1.23608E-14-3.49921E-13
 -1      1215 1.99718E+01-4.12655E-04-6.27997E-04 1.15583E-04-2.07937E-14-4.58008E-13
 -1      1216 1.99678E+01-2.88730E-04-4.13654E-04 1.29683E-05 1.96556E-14-7.15820E-13
 -1      1217 1.99675E+01-1.95693E-04-2.58323E-04-4.95478E-05 2.85683E-14-5.47573E-13
 -1      1218 1.99694E+01-1.27194E-04-1.48375E-04-8.39785E-05-5.82038E-14-1.52130E-13
 -1      1219 1.99725E+01-7.78541E-05-7.27556E-05-9.93209E-05-9.06605E-14-5.14606E-15
 -1      1220 1.99761E+01-4.32166E-05-2.26440E-05-1.02198E-04-3.44084E-15 5.99463E-14
 -1      1221 1.99798E+01-1.96619E-05 8.88335E-06-9.73893E-05 2.27559E-14-4.60529E-13
 -1      1222 1.99834E+01-4.30112E-06 2.71769E-05-8.82707E-05-3.90146E-15-5.07934E-13
 -1      1223 1.99866E+01 5.13533E-06 3.63073E-05-7.71592E-05 1.09412E-14-2.86116E-13
 -1      1224 1.99894E+01 1.04063E-05 3.93240E-05-6.55940E-05-1.10631E-14-5.22246E-13
 -1      1225 1.99918E+01 1.28612E-05 3.84817E-05-5.45528E-05-4.11263E-14-3.53957E-13
 -1      1226 1.99938E+01 1.35334E-05 3.54352E-05-4.46209E-05-1.54528E-14-1.24481E-13
 -1      1227 1.99954E+01 1.32249E-05 3.14158E-05-3.61168E-05-6.62878E-16-4.98345E-13
 -1      1228 1.99967E+01 1.25836E-05 2.73987E-05-2.91820E-05-1.14804E-14-7.17362E-13
 -1      1229 1.99978E+01 1.21597E-05 2.42732E-05-2.38181E-05-1.31790E-14-9.85067E-13
 -1      1230 1.99986E+01 1.23845E-05 2.29462E-05-1.98508E-05-4.79355E-14-6.32361E-13
 -1      1231 1.99992E+01 1.35679E-05 2.41360E-05-1.67625E-05-2.48503E-14-8.11599E-13
 -1      1232 1.99996E+01 1.48242E-05 2.62235E-05-1.27077E-05 3.09454E-14-1.21271E-12
 -1      1233 1.99998E+01 9.84289E-06 1.76866E-05-2.77154E-06 1.18945E-13-1.42907E-12
 -1      1234 1.99998E+01-9.26394E-06-2.39832E-05 9.48693E-06 4.15390E-14-8.68573E-13
 -1      1235 1.99998E+01 2.77706E-05-2.20892E-05 9.41081E-06-1.02076E-12-5.69211E-14
 -1      1236 1.99998E+01 3.45362E-05 2.03184E-05 9.24689E-06-1.81695E-12-3.84228E-14
 -1      1237 1.99998E+01-1.65650E-04 2.46032E-05-5.76113E-06-9.05563E-13 1.87878E-13
 -1      1238 1.99998E+01-5.44063E-04 1.39286E-05-1.32834E-05 7.03351E-14-3.71660E-15
 -1      1239 1.99998E+01-1.01217E-03 6.30229E-07-1.56979E-05 1.26162E-12 8.29840E-14
 -1      1240 1.99998E+01-1.47742E-03-1.10126E-05-1.44816E-05 1.26161E-12-7.67563E-14
 -1      1241 1.99998E+01-1.86793E-03-1.96979E-05-1.10960E-05 5.08481E-13 7.87612E-14
 -1      1242 1.99998E+01-2.12858E-03-2.51875E-05-5.91018E-06 6.04443E-13 8.42517E-14
 -1      1243 1.99998E+01-2.21857E-03-2.70209E-05 4.97648E-08 4.51119E-13-8.82373E-14
 -1      1244 1.99998E+01-2.12555E-03-2.51200E-05 6.00616E-06 6.01082E-13-5.47331E-14
 -1      1245 1.99998E+01-1.86233E-03-1.95452E-05 1.11585E-05-5.49646E-13-1.95575E-13
 -1      1246 1.99998E+01-1.46992E-03-1.07837E-05 1.47150E-05-8.28608E-13 5.44356E-14
 -1      1247 1.99998E+01-1.00431E-03 7.95900E-07 1.56931E-05-5.77759E-13 4.34788E-14
 -1      1248 1.99998E+01-5.36740E-04 1.42151E-05 1.34165E-05-1.58341E-13 3.86198E-14
 -1      1249 1.99998E+01-1.54837E-04 2.61517E-05 6.96775E-06-3.74674E-13-7.27028E-14
 -1      1250 1.99998E+01 2.61158E-05 1.77078E-05-1.68881E-05-6.35864E-13-7.20613E-14
 -1      1251 1.99998E+01 3.15319E-05-2.20581E-05-1.09997E-05-3.02704E-13 9.35315E-14
 -1      1252-1.29827E+00-2.18593E+01-3.66608E+00-1.95417E+00 1.29363E-12 3.21815E-13
 -1      1253-1.61149E+00-1.35246E+01-3.04943E+00-3.48762E+00 2.77933E-12 1.11527E-12
 -1      1254 8.39702E-01-1.01319E+00-1.77823E+00 6.95747E-01 3.28848E-12 2.07456E-12
 -1      1255 9.79924E+00 8.39454E+00-2.22533E-01 8.92556E+00 2.88169E-12 2.73470E-12
 -1      1256 2.58535E+01 1.13671E+01 1.43338E+00 1.63680E+01 1.92080E-12 2.66165E-12
 -1      1257 4.55980E+01 8.43353E+00 2.93211E+00 1.79163E+01 8.55871E-13 1.70797E-12
 -1      1258 6.16719E+01 3.37038E+00 3.92481E+00 1.09167E+01 1.08039E-13 1.36557E-13
 -1      1259 6.59433E+01 1.53434E+00 4.13448E+00-1.92615E+00 1.69705E-13-1.83287E-12
 -1      1260 5.60582E+01 4.56582E+00 3.45834E+00-1.31426E+01 1.00234E-12-3.57869E-12
 -1      1261 3.71218E+01 8.94637E+00 2.05996E+00-1.70029E+01 2.29150E-12-4.46865E-12
 -1      1262 1.79113E+01 9.80414E+00 3.76563E-01-1.28387E+01 3.44236E-12-4.27924E-12
 -1      1263 4.72847E+00 4.44710E+00-1.16514E+00-4.75158E+00 3.88090E-12-3.22553E-12
 -1      1264-7.91332E-01-5.05036E+00-2.28063E+00 1.59349E+00 3.41172E-12-1.82676E-12
 -1      1265-1.25220E+00-1.41054E+01-2.90044E+00 3.03647E+00 2.05569E-12-6.84092E-13
 -1      1266-7.87733E-01-1.83126E+01-3.08239E+00 5.89576E-01 7.68136E-14-1.81501E-13
 -1      1267-9.72496E-01-1.57880E+01-2.92859E+00-2.37074E+00-1.88427E-12-4.89789E-13
 -1      1268-1.11683E+00-7.69692E+00-2.40281E+00-2.29403E+00-3.29026E-12-1.44434E-12
 -1      1269 1.91850E+00 1.81234E+00-1.52796E+00 2.21725E+00-3.97726E-12-2.75502E-12
 -1      1270 1.11301E+01 8.75825E+00-2.72874E-01 9.69715E+00-3.79519E-12-3.91265E-12
 -1      1271 2.82257E+01 1.01612E+01 1.34717E+00 1.61436E+01-2.75491E-12-4.31299E-12
 -1      1272 4.90023E+01 6.39745E+00 2.94990E+00 1.54727E+01-1.35619E-12-3.68505E-12
 -1      1273 6.31036E+01 2.23757E+00 3.91412E+00 6.37435E+00-3.32491E-13-2.06762E-12
 -1      1274 6.39702E+01 2.14272E+00 3.99582E+00-6.68821E+00-1.00600E-13-7.44960E-14
 -1      1275 5.05515E+01 6.83338E+00 3.20194E+00-1.63883E+01-8.07410E-13 1.95155E-12
 -1      1276 3.01838E+01 1.10897E+01 1.80357E+00-1.74067E+01-1.93623E-12 3.04290E-12
 -1      1277 1.21991E+01 9.56936E+00 1.23413E-01-1.05253E+01-2.72227E-12 2.76801E-12
 -1      1278 1.62998E+00 5.86757E-01-1.53698E+00-1.65784E+00-3.01292E-12 1.95777E-12
 -1      1279-1.51395E+00-1.22388E+01-2.87746E+00 3.21381E+00-2.27862E-12 9.46243E-13
 -1      1280-1.13543E+00-2.18412E+01-3.66784E+00 2.00485E+00-4.59965E-13 2.49481E-13
 -1      1281 2.76631E+01 2.18248E+00-8.33177E-01-2.97965E+00-9.05109E-14 1.27970E-12
 -1      1282 2.43728E+01 5.33277E+00-3.96281E-02-3.22564E+00-2.04475E-13-1.69732E-13
 -1      1283 2.54057E+01 5.58050E+00-1.12366E-01-4.36198E+00-2.82607E-13 1.46896E-13
 -1      1284 2.24758E+01 5.34522E+00 5.90323E-03-2.15194E+00-1.69323E-13-6.04981E-13
 -1      1285 2.33094E+01 5.60114E+00 1.17029E-02-2.78023E+00-2.11053E-13-4.22967E-13
 -1      1286 2.44911E+01 4.13605E+00-2.47710E-02-3.03747E+00-3.45349E-13-1.23998E-13
 -1      1287 2.08755E+01 5.02255E+00 2.63040E-02-1.06339E+00-1.02626E-13-8.04176E-13
 -1      1288 2.16895E+01 5.27685E+00 3.41585E-02-1.60941E+00-1.31103E-13-7.20764E-13
 -1      1289 2.26252E+01 4.17860E+00-2.61461E-02-2.04724E+00-2.45789E-13-4.86840E-13
 -1      1290 1.90560E+01 4.63904E+00 1.80373E-02-5.39591E-02-2.59515E-14-9.00554E-13
 -1      1291 2.00152E+01 4.92977E+00 5.10052E-02-5.29861E-01-4.84751E-14-8.58674E-13
 -1      1292 2.09081E+01 3.96799E+00-2.47850E-02-9.73675E-01-1.23571E-13-6.59132E-13
 -1      1293 1.68913E+01 4.31139E+00-1.50862E-02 7.32310E-01 2.51466E-14-9.51302E-13
 -1      1294 1.80250E+01 4.64587E+00 5.69118E-02 3.96806E-01 1.17961E-14-9.35127E-13
 -1      1295 1.88935E+01 3.80972E+00-2.73746E-02 2.55501E-02-1.07206E-14-7.54126E-13
 -1      1296 1.45954E+01 4.13032E+00-5.84092E-02 1.09561E+00 5.97022E-14-9.77416E-13
 -1      1297 1.57487E+01 4.46499E+00 4.17253E-02 9.85059E-01 4.94327E-14-9.72625E-13
 -1      1298 1.65059E+01 3.85814E+00-3.11661E-02 7.72619E-01 6.32272E-14-8.18914E-13
 -1      1299 1.27365E+01 4.12227E+00-8.63395E-02 9.28220E-01 7.34135E-14-1.00053E-12
 -1      1300 1.35923E+01 4.37016E+00 3.31626E-03 1.06083E+00 7.05547E-14-9.96938E-13
 -1      1301 1.40882E+01 4.12130E+00-3.08207E-02 1.05630E+00 1.09520E-13-8.51305E-13
 -1      1302 1.18960E+01 4.22559E+00-7.99456E-02 3.34195E-01 6.26886E-14-1.00288E-12
 -1      1303 1.21577E+01 4.30093E+00-4.74486E-02 6.30306E-01 6.23251E-14-1.00779E-12
 -1      1304 1.22796E+01 4.44071E+00-2.32106E-02 7.87509E-01 1.17389E-13-8.83437E-13
 -1      1305 1.24539E+01 4.35047E+00-3.91305E-02-3.27206E-01 4.27020E-14-9.75878E-13
 -1      1306 1.19979E+01 4.21688E+00-8.36686E-02-5.42079E-02 4.10921E-14-9.95991E-13
 -1      1307 1.17248E+01 4.57678E+00-2.02018E-02 1.53468E-01 8.52074E-14-8.87790E-13
 -1      1308 1.42423E+01 4.46694E+00 1.05783E-02-6.77569E-01 4.05787E-14-9.10692E-13
 -1      1309 1.32111E+01 4.16651E+00-8.53359E-02-5.86149E-01 3.22381E-14-9.43819E-13
 -1      1310 1.26889E+01 4.43010E+00-2.49933E-02-4.40916E-01 5.95947E-14-8.48240E-13
 -1      1311 1.66763E+01 4.62557E+00 4.41698E-02-4.90161E-01 6.15341E-14-8.08886E-13
 -1      1312 1.54018E+01 4.25111E+00-5.37580E-02-6.54029E-01 4.85445E-14-8.63001E-13
 -1      1313 1.48520E+01 4.13783E+00-3.26633E-02-6.08192E-01 6.47885E-14-7.57941E-13
 -1      1314 1.91731E+01 4.88714E+00 5.30725E-02 1.94891E-01 1.13132E-13-6.65100E-13
 -1      1315 1.79274E+01 4.51491E+00-1.32943E-02-1.86794E-01 8.80129E-14-7.42989E-13
 -1      1316 1.75336E+01 3.94098E+00-3.45746E-02-2.13041E-01 1.17593E-13-6.27866E-13
 -1      1317 2.14654E+01 5.25273E+00 4.35575E-02 1.20503E+00 1.75138E-13-4.39794E-13
 -1      1318 2.03343E+01 4.90525E+00 9.59378E-03 6.78802E-01 1.46522E-13-5.68018E-13
 -1      1319 2.01572E+01 3.96057E+00-3.25229E-02 6.19585E-01 2.06148E-13-4.57669E-13
 -1      1320 2.36936E+01 5.64656E+00 3.22876E-02 2.42339E+00 2.32869E-13-5.40748E-14
 -1      1321 2.25559E+01 5.29152E+00 2.55699E-03 1.76747E+00 1.98452E-13-2.82517E-13
 -1      1322 2.25585E+01 4.11166E+00-2.88140E-02 1.68246E+00 2.96478E-13-2.07022E-13
 -1      1323 2.64915E+01 5.75982E+00 3.44381E-02 3.97515E+00 2.21573E-13 6.82468E-13
 -1      1324 2.49665E+01 5.41661E+00-3.04224E-02 2.99961E+00 2.05724E-13 2.36922E-13
 -1      1325 2.50600E+01 4.06584E+00-1.53140E-02 2.80759E+00 3.52711E-13 2.29816E-13
 -1      1326 3.44895E+01 3.83632E+00 1.09954E+00 5.04604E+00 1.20098E-13 2.10543E-12
 -1      1327 2.80382E+01 4.15943E+00-2.03520E-01 3.92980E+00 1.17073E-13 1.11328E-12
 -1      1328 2.80728E+01 2.77912E+00-1.31938E-02 3.37775E+00 3.74790E-13 9.04887E-13
 -1      1329 2.82079E+01 3.23861E-01-8.73330E-01 1.00583E+00 2.16535E-13 2.02383E-12
 -1      1330 2.75601E+01 5.61098E-02-4.64296E-01-1.38467E+00-2.36519E-13 1.40710E-12
 -1      1331 2.61168E+01 2.67707E-01-1.74665E-01-8.90067E-01-2.12996E-13 1.13868E-12
 -1      1332 2.53541E+01 8.25655E-02-6.95424E-02-6.10096E-01-1.60642E-13 1.02798E-12
 -1      1333 2.45828E+01 1.34911E-02-5.21578E-03-5.84391E-01-1.65347E-13 7.70500E-13
 -1      1334 2.59709E+01 2.47234E-01-1.06883E-01-1.58471E+00-3.70551E-13 5.94642E-13
 -1      1335 2.39351E+01-1.75295E-02 1.77240E-02-5.55947E-01-1.41504E-13 6.94446E-13
 -1      1336 2.32214E+01-2.73805E-02 2.40357E-02-5.85777E-01-1.29727E-13 5.05018E-13
 -1      1337 2.44925E+01-4.32616E-03-1.43326E-02-1.15747E+00-2.87902E-13 4.43395E-13
 -1      1338 2.26301E+01-2.76292E-02 2.59238E-02-6.30486E-01-9.29237E-14 4.17890E-13
 -1      1339 2.18482E+01-6.51884E-03 1.67677E-02-6.49301E-01-8.79793E-14 2.88904E-13
 -1      1340 2.33222E+01-5.32636E-02 1.09408E-02-1.18978E+00-2.15146E-13 3.11523E-13
 -1      1341 2.12761E+01 1.43716E-02 1.26089E-02-6.32639E-01-4.82639E-14 2.11428E-13
 -1      1342 2.05221E+01 5.20477E-02 2.60762E-03-6.18105E-01-6.05974E-14 1.48700E-13
 -1      1343 2.21864E+01 5.56635E-03 3.18497E-03-1.23441E+00-1.50542E-13 1.60005E-13
 -1      1344 2.00476E+01 8.15932E-02-3.60306E-03-4.70294E-01-5.30609E-14 8.94354E-14
 -1      1345 1.95212E+01 1.14172E-01-1.05023E-02-4.13579E-01-5.01023E-14 2.34951E-14
 -1      1346 2.11477E+01 1.14913E-01-1.68852E-02-1.04236E+00-1.13266E-13 2.66228E-14
 -1      1347 1.92672E+01 1.32400E-01-1.47457E-02-1.47738E-01-4.79131E-14-1.57704E-14
 -1      1348 1.91447E+01 1.38534E-01-1.65761E-02-6.60190E-02-6.62127E-14-1.07775E-13
 -1      1349 2.04165E+01 2.09516E-01-3.55960E-02-5.39489E-01-9.79772E-14-8.69036E-14
 -1      1350 1.91847E+01 1.31397E-01-1.58147E-02 2.23668E-01-8.66095E-14-1.54279E-13
 -1      1351 1.95019E+01 1.05557E-01-1.24702E-02 2.94847E-01-8.13620E-14-2.67810E-13
 -1      1352 2.02000E+01 2.29510E-01-3.95660E-02 1.42675E-01-1.52146E-13-1.82708E-13
 -1      1353 1.97949E+01 7.82873E-02-8.24949E-03 4.93165E-01-6.81529E-14-3.18544E-13
 -1      1354 2.04180E+01 3.49131E-02-1.85781E-03 5.25131E-01-7.09433E-14-4.02185E-13
 -1      1355 2.05337E+01 1.59676E-01-2.54805E-02 7.39841E-01-1.31915E-13-2.87870E-13
 -1      1356 2.08295E+01 6.30525E-03 1.23026E-03 5.71793E-01-7.18795E-14-4.33667E-13
 -1      1357 2.15320E+01-3.31177E-02 7.75421E-03 5.60749E-01-1.06663E-14-5.04777E-13
 -1      1358 2.12353E+01 4.08478E-02-3.29712E-03 1.03255E+00-1.18106E-13-3.76631E-13
 -1      1359 2.19136E+01-4.81490E-02 6.80651E-03 4.75853E-01 2.35402E-15-5.76934E-13
 -1      1360 2.24940E+01-7.06068E-02 1.16062E-02 4.38446E-01-9.10730E-16-5.92179E-13
 -1      1361 2.20141E+01-6.51779E-02 1.39488E-02 9.76266E-01-4.41066E-14-4.75222E-13
 -1      1362 2.27499E+01-7.00000E-02 7.31808E-03 2.88166E-01-1.97047E-14-5.98216E-13
 -1      1363 2.31028E+01-7.50050E-02 1.00957E-02 2.45120E-01-2.47502E-14-6.34924E-13
 -1      1364 2.26269E+01-1.19643E-01 2.07754E-02 6.83883E-01-4.39553E-14-6.16578E-13
 -1      1365 2.32052E+01-6.51757E-02 4.88388E-03 9.33048E-02-4.91360E-15-6.17131E-13
 -1      1366 2.33230E+01-5.91501E-02 6.13586E-03 5.81219E-02-2.19954E-14-6.59648E-13
 -1      1367 2.29575E+01-1.22251E-01 1.90849E-02 3.16647E-01-2.00482E-14-6.43254E-13
 -1      1368 2.32918E+01-4.72747E-02 1.99503E-03-5.86057E-02-3.53428E-14-6.72131E-13
 -1      1369 2.32257E+01-3.71023E-02 2.37354E-03-8.13151E-02-1.02461E-14-7.14589E-13
 -1      1370 2.30055E+01-9.43145E-02 1.34553E-02-5.25528E-03-5.65051E-14-5.29480E-13
 -1      1371 2.31013E+01-2.74148E-02 1.59772E-05-1.53139E-01-7.27760E-15-6.95758E-13
 -1      1372 2.29201E+01-1.75046E-02-6.62094E-05-1.64423E-01-4.94691E-14-7.25767E-13
 -1      1373 2.28350E+01-5.80169E-02 7.43503E-03-2.28701E-01-1.77965E-14-4.65611E-13
 -1      1374 2.27441E+01-1.12658E-02-8.44251E-04-1.97254E-01-4.96907E-14-6.98705E-13
 -1      1375 2.25088E+01-3.49837E-03-1.17864E-03-2.00281E-01-4.21054E-14-7.53951E-13
 -1      1376 2.25280E+01-2.65887E-02 2.68661E-03-3.51144E-01-5.39751E-14-4.53085E-13
 -1      1377 2.23144E+01-3.33825E-04-9.18156E-04-2.05493E-01-2.87161E-14-7.46937E-13
 -1      1378 2.20687E+01 4.97785E-03-1.40077E-03-2.03479E-01-3.40635E-14-8.04487E-13
 -1      1379 2.21571E+01-4.55913E-03-4.29973E-04-3.94296E-01-5.46640E-14-4.94188E-13
 -1      1380 2.18787E+01 5.97921E-03-6.17340E-04-1.92049E-01-2.12200E-15-8.39408E-13
 -1      1381 2.16491E+01 9.21772E-03-1.17973E-03-1.87464E-01 4.55734E-15-8.64768E-13
 -1      1382 2.17761E+01 8.49604E-03-2.16665E-03-3.85157E-01-4.29856E-14-5.89688E-13
 -1      1383 2.14766E+01 8.93058E-03-2.32652E-04-1.67762E-01 1.88651E-14-8.64632E-13
 -1      1384 2.12763E+01 1.06566E-02-8.17728E-04-1.62237E-01-1.38440E-14-8.62397E-13
 -1      1385 2.14187E+01 1.48207E-02-2.93472E-03-3.46781E-01-2.37038E-14-5.37099E-13
 -1      1386 2.11276E+01 9.72746E-03 8.98749E-05-1.39803E-01 1.70775E-14-8.28952E-13
 -1      1387 2.09611E+01 1.04495E-02-4.71222E-04-1.34295E-01 1.86528E-14-7.69673E-13
 -1      1388 2.11031E+01 1.67817E-02-3.09983E-03-2.95632E-01 2.36762E-14-5.30458E-13
 -1      1389 2.08378E+01 9.29038E-03 3.04977E-04-1.12397E-01 7.86540E-14-6.90128E-13
 -1      1390 2.07043E+01 9.39623E-03-1.99865E-04-1.07402E-01 8.05106E-14-5.57724E-13
 -1      1391 2.08362E+01 1.62358E-02-2.92746E-03-2.42099E-01 1.06305E-13-4.58332E-13
 -1      1392 2.06052E+01 8.24042E-03 4.18910E-04-8.77286E-02 5.84049E-15-5.08214E-13
 -1      1393 2.05014E+01 7.99950E-03-1.24442E-05-8.34536E-02 1.11814E-15-4.90549E-13
 -1      1394 2.06181E+01 1.44433E-02-2.59082E-03-1.92012E-01 8.63346E-14-2.95442E-13
 -1      1395 2.04238E+01 6.96235E-03 4.56464E-04-6.66912E-02-5.76574E-14-5.40630E-13
 -1      1396 2.03452E+01 6.55063E-03 1.03388E-04-6.31768E-02-8.65500E-14-6.52555E-13
 -1      1397 2.04449E+01 1.21806E-02-2.19518E-03-1.48154E-01-7.40111E-14-3.31471E-13
 -1      1398 2.02859E+01 5.67676E-03 4.44043E-04-4.94286E-02 2.77283E-14-5.31916E-13
 -1      1399 2.02280E+01 5.20344E-03 1.65513E-04-4.66277E-02 9.76160E-14-4.09195E-13
 -1      1400 2.03107E+01 9.88679E-03-1.80055E-03-1.11440E-01 3.29500E-14-2.30222E-13
 -1      1401 2.01837E+01 4.49844E-03 4.03134E-04-3.56844E-02 8.08475E-14-3.98209E-13
 -1      1402 2.01422E+01 4.02762E-03 1.90605E-04-3.35096E-02 3.78668E-14-2.42844E-13
 -1      1403 2.02091E+01 7.78636E-03-1.43842E-03-8.17246E-02 1.22766E-13-2.24170E-13
 -1      1404 2.01099E+01 3.47759E-03 3.49026E-04-2.50187E-02-1.83318E-14-3.04857E-13
 -1      1405 2.00810E+01 3.04402E-03 1.91953E-04-2.33698E-02-5.21647E-14-3.70177E-13
 -1      1406 2.01340E+01 5.97480E-03-1.12290E-03-5.83288E-02-1.05852E-14-2.74288E-13
 -1      1407 2.00581E+01 2.62700E-03 2.91624E-04-1.69352E-02-1.16975E-13-5.24052E-13
 -1      1408 2.00388E+01 2.24692E-03 1.79299E-04-1.57137E-02-8.67979E-14-6.11119E-13
 -1      1409 2.00799E+01 4.47471E-03-8.57856E-04-4.03521E-02-1.87660E-13-4.47167E-13
 -1      1410 2.00231E+01 1.93912E-03 2.36791E-04-1.09495E-02-2.59442E-14-6.07414E-13
 -1      1411 2.00107E+01 1.61751E-03 1.59382E-04-1.00665E-02-1.25674E-14-6.74187E-13
 -1      1412 2.00420E+01 3.27020E-03-6.41470E-04-2.68554E-02-8.45013E-14-4.99603E-13
 -1      1413 2.00004E+01 1.39649E-03 1.87611E-04-6.62469E-03-1.97176E-14-6.17449E-13
 -1      1414 1.99931E+01 1.13180E-03 1.36641E-04-6.00383E-03 6.53661E-14-6.12708E-13
 -1      1415 2.00164E+01 2.32742E-03-4.68986E-04-1.69581E-02-4.53481E-15-4.85393E-13
 -1      1416 1.99867E+01 9.77905E-04 1.45367E-04-3.58515E-03 1.93473E-14-5.77078E-13
 -1      1417 1.99829E+01 7.65099E-04 1.13846E-04-3.16277E-03-1.95448E-14-5.56632E-13
 -1      1418 1.99999E+01 1.60622E-03-3.34423E-04-9.88320E-03 4.11257E-14-4.91945E-13
 -1      1419 1.99792E+01 6.61851E-04 1.10243E-04-1.51878E-03 4.93545E-14-4.77808E-13
 -1      1420 1.99778E+01 4.94307E-04 9.26039E-05-1.24348E-03 6.48117E-14-4.19654E-13
 -1      1421 1.99899E+01 1.06663E-03-2.31577E-04-4.97300E-03 3.73588E-14-2.96874E-13
 -1      1422 1.99760E+01 4.28381E-04 8.18018E-05-1.73317E-04 4.33702E-14-4.15343E-13
 -1      1423 1.99761E+01 2.99059E-04 7.37396E-05-4.49667E-06 6.48382E-14-3.68448E-13
 -1      1424 1.99845E+01 6.72083E-04-1.54576E-04-1.68762E-03 6.79592E-14-1.81907E-13
 -1      1425 1.99756E+01 2.59947E-04 5.92949E-05 6.50463E-04-8.50928E-15-3.83533E-13
 -1      1426 1.99766E+01 1.62069E-04 5.75671E-05 7.44215E-04-9.46638E-14-4.40691E-13
 -1      1427 1.99822E+01 3.90772E-04-9.81697E-05 4.05109E-04 6.95882E-14-2.03122E-13
 -1      1428 1.99770E+01 1.41678E-04 4.18560E-05 1.10665E-03-8.60815E-14-4.62823E-13
 -1      1429 1.99784E+01 6.90943E-05 4.40841E-05 1.14913E-03-2.49275E-14-4.88593E-13
 -1      1430 1.99820E+01 1.96038E-04-5.78420E-05 1.64362E-03-1.11257E-13-3.13582E-13
 -1      1431 1.99792E+01 6.13271E-05 2.86172E-05 1.31199E-03-6.92830E-14-5.87013E-13
 -1      1432 1.99809E+01 8.67977E-06 3.31049E-05 1.32089E-03-1.79233E-14-6.07972E-13
 -1      1433 1.99830E+01 6.61373E-05-2.98205E-05 2.28749E-03-9.33748E-14-4.94246E-13
 -1      1434 1.99819E+01 9.04349E-06 1.87728E-05 1.35315E-03 1.78263E-14-6.88875E-13
 -1      1435 1.99836E+01-2.81944E-05 2.43485E-05 1.34128E-03 2.74845E-14-5.93006E-13
 -1      1436 1.99847E+01-1.62594E-05-1.10318E-05 2.53179E-03-5.74512E-14-7.69876E-13
 -1      1437 1.99847E+01-2.29325E-05 1.16114E-05 1.29299E-03 1.26735E-13-5.38888E-13
 -1      1438 1.99863E+01-4.84934E-05 1.74973E-05 1.26944E-03 9.58392E-14-4.48940E-13
 -1      1439 1.99867E+01-6.46801E-05 9.75593E-07 2.52003E-03 1.40791E-13-6.18201E-13
 -1      1440 1.99874E+01-4.05974E-05 6.52588E-06 1.17596E-03 8.05162E-14-3.49015E-13
 -1      1441 1.99888E+01-5.74956E-05 1.22326E-05 1.14695E-03 1.36703E-13-2.05073E-13
 -1      1442 1.99887E+01-8.94835E-05 8.11928E-06 2.35528E-03 1.27705E-13-4.77047E-13
 -1      1443 1.99898E+01-4.85025E-05 3.01239E-06 1.03252E-03 1.65997E-13-1.16696E-13
 -1      1444 1.99911E+01-5.91301E-05 8.25580E-06 1.00215E-03 4.56914E-14 2.45590E-14
 -1      1445 1.99907E+01-9.84553E-05 1.18722E-05 2.10955E-03 2.47785E-13-2.79440E-13
 -1      1446 1.99919E+01-5.00443E-05 6.62473E-07 8.82652E-04 3.63490E-14 1.22253E-13
 -1      1447 1.99930E+01-5.62719E-05 5.29974E-06 8.53472E-04 5.23360E-14 2.05711E-13
 -1      1448 1.99925E+01-9.73436E-05 1.33461E-05 1.83137E-03 1.92153E-13-1.39646E-13
 -1      1449 1.99938E+01-4.77213E-05-8.47406E-07 7.38666E-04-2.49262E-14 2.90290E-13
 -1      1450 1.99947E+01-5.09966E-05 3.13438E-06 7.12088E-04-9.20610E-14 2.65228E-13
 -1      1451 1.99941E+01-9.03248E-05 1.33667E-05 1.55185E-03 9.58193E-15 4.02160E-15
 -1      1452 1.99953E+01-4.33586E-05-1.76425E-06 6.07272E-04-1.15694E-13 2.44565E-13
 -1      1453 1.99960E+01-4.47977E-05 1.57396E-06 5.83901E-04-8.69823E-14 7.70116E-14
 -1      1454 1.99954E+01-8.04063E-05 1.25395E-05 1.28931E-03-1.24563E-13 4.74494E-14
 -1      1455 1.99966E+01-3.83030E-05-2.25842E-06 4.91116E-04 1.62317E-14 2.45833E-13
 -1      1456 1.99971E+01-3.87689E-05 4.94638E-07 4.70962E-04 8.00535E-14 2.70329E-13
 -1      1457 1.99966E+01-6.97725E-05 1.13086E-05 1.05277E-03 8.01572E-14 2.24432E-13
 -1      1458 1.99976E+01-3.35859E-05-2.40444E-06 3.89822E-04 4.18092E-14 1.50478E-13
 -1      1459 1.99980E+01-3.37476E-05-1.28811E-07 3.72429E-04 3.89007E-14 2.22756E-13
 -1      1460 1.99975E+01-6.00782E-05 1.00138E-05 8.44414E-04 1.97817E-14 2.46190E-13
 -1      1461 1.99984E+01-3.00580E-05-2.13779E-06 3.00655E-04 1.54728E-13 3.31086E-13
 -1      1462 1.99987E+01-3.04221E-05-1.93922E-07 2.85153E-04 2.00776E-13 5.02226E-13
 -1      1463 1.99983E+01-5.27026E-05 8.93747E-06 6.61238E-04 1.82937E-13 5.92938E-13
 -1      1464 1.99990E+01-2.84426E-05-1.23516E-06 2.18950E-04 3.63825E-14 4.64416E-13
 -1      1465 1.99992E+01-2.92087E-05 4.13386E-07 2.04043E-04 8.63164E-14 5.82450E-13
 -1      1466 1.99988E+01-4.89519E-05 8.29696E-06 4.96206E-04 1.72325E-13 4.72973E-13
 -1      1467 1.99994E+01-2.88918E-05 3.87827E-07 1.39248E-04 1.02226E-13 4.46693E-13
 -1      1468 1.99996E+01-2.94390E-05 9.28176E-07 1.23312E-04-4.47226E-14 5.22864E-13
 -1      1469 1.99993E+01-4.96410E-05 7.92725E-06 3.39668E-04-4.67349E-14 1.60624E-13
 -1      1470 1.99997E+01-3.30220E-05 6.31647E-07 5.76133E-05-7.93662E-14 4.90654E-13
 -1      1471 1.99997E+01-2.61299E-05-2.67253E-06 4.02943E-05-1.34381E-13 3.89097E-13
 -1      1472 1.99996E+01-5.35079E-05 6.98347E-06 1.85346E-04-7.39720E-14 4.14786E-14
 -1      1473 1.99998E+01 1.07814E-08-7.51012E-06-1.31004E-05-3.30665E-13 3.08691E-13
 -1      1474 1.99998E+01-2.89197E-05 9.54213E-07 3.26133E-05-3.31774E-13 5.68856E-14
 -1      1475 2.72061E+01 2.08029E-02-1.35632E-01 4.95985E-01 1.76741E-13 1.63210E-12
 -1      1476 2.84460E+01 1.76710E-01-2.47784E-01 6.91092E-01 1.48548E-13 1.92338E-12
 -1      1477 2.81524E+01 8.52625E-01-9.84495E-02 2.05579E+00 3.12292E-13 1.27844E-12
 -1      1478 2.58591E+01-3.11496E-02 1.29562E-02 4.44116E-01 1.47439E-13 1.29322E-12
 -1      1479 2.65163E+01 2.33547E-02-5.26540E-02 4.20955E-01 1.22275E-13 1.50715E-12
 -1      1480 2.65756E+01 5.27951E-02-3.66513E-02 1.02516E+00 2.60403E-13 1.04364E-12
 -1      1481 2.44626E+01-4.11633E-02 3.63153E-02 5.85066E-01 1.04923E-13 1.06776E-12
 -1      1482 2.52164E+01-5.53099E-02 1.73747E-02 5.25673E-01 9.67585E-14 1.21399E-12
 -1      1483 2.53314E+01-7.55728E-02 2.19634E-02 9.93326E-01 2.03170E-13 8.88510E-13
 -1      1484 2.27860E+01-1.34921E-02 1.64260E-02 7.25728E-01 9.27514E-14 8.46885E-13
 -1      1485 2.37488E+01-5.46292E-02 2.15571E-02 6.70184E-01 9.00707E-14 9.90222E-13
 -1      1486 2.40629E+01-8.16308E-02 2.85643E-02 1.22300E+00 1.73988E-13 7.38057E-13
 -1      1487 2.10329E+01 4.35876E-02-2.22392E-02 6.97022E-01 2.90106E-14 6.86506E-13
 -1      1488 2.20533E+01 9.91354E-03 3.44311E-03 6.91064E-01 4.09711E-14 7.48741E-13
 -1      1489 2.26814E+01 5.12271E-03 9.26979E-03 1.33356E+00 1.33587E-13 5.76501E-13
 -1      1490 1.97209E+01 9.65638E-02-5.81861E-02 4.10283E-01 2.46227E-14 6.25385E-13
 -1      1491 2.04734E+01 1.03084E-01-1.99149E-02 4.79715E-01 6.71685E-15 6.15959E-13
 -1      1492 2.14165E+01 1.47962E-01-1.99894E-02 1.06652E+00 4.50265E-14 4.14072E-13
 -1      1493 1.93629E+01 1.05209E-01-6.53188E-02-5.46661E-02 6.38309E-14 5.14228E-13
 -1      1494 1.95404E+01 1.63031E-01-3.36888E-02 6.80322E-02 4.17028E-14 5.73003E-13
 -1      1495 2.06632E+01 2.58743E-01-4.00797E-02 3.89251E-01 8.20559E-14 2.78277E-13
 -1      1496 2.00770E+01 6.17469E-02-3.67640E-02-4.75219E-01 3.26319E-14 3.31304E-13
 -1      1497 1.96168E+01 1.45646E-01-2.73401E-02-3.59983E-01 7.82048E-14 4.35811E-13
 -1      1498 2.06929E+01 2.48264E-01-3.91246E-02-4.32195E-01 1.29449E-13 1.89565E-13
 -1      1499 2.14717E+01-8.01431E-04 6.12267E-03-6.58630E-01 9.27882E-14 1.74083E-13
 -1      1500 2.06117E+01 6.69570E-02-5.76978E-03-6.01631E-01 5.75243E-14 2.94903E-13
 -1      1501 2.14196E+01 1.17803E-01-2.25687E-02-1.00929E+00 1.35635E-13 6.86153E-14
 -1      1502 2.29270E+01-4.44232E-02 3.58306E-02-5.79573E-01 1.79496E-14 8.98656E-14
 -1      1503 2.20361E+01-1.76879E-02 1.52457E-02-5.87626E-01 5.10338E-14 1.40971E-13
 -1      1504 2.24532E+01-4.04411E-02-4.41152E-03-1.12863E+00 1.12164E-13-6.96873E-14
 -1      1505 2.39689E+01-5.63886E-02 4.21146E-02-3.50266E-01 9.86884E-15 2.57849E-14
 -1      1506 2.33278E+01-6.67407E-02 2.42873E-02-3.96436E-01 1.82770E-14 8.41757E-14
 -1      1507 2.33653E+01-1.37404E-01 6.59123E-03-8.61045E-01 3.43475E-14-8.99576E-14
 -1      1508 2.44296E+01-4.63731E-02 3.20958E-02-1.03192E-01 2.80366E-14 4.66641E-15
 -1      1509 2.41366E+01-7.49905E-02 2.12874E-02-1.56269E-01 4.71498E-15 1.95260E-14
 -1      1510 2.39023E+01-1.52682E-01 9.77621E-03-4.28337E-01 3.47986E-15-9.94795E-14
 -1      1511 2.43798E+01-2.89399E-02 1.76362E-02 8.41563E-02 4.04919E-14-1.07013E-13
 -1      1512 2.43905E+01-5.89957E-02 1.27407E-02 4.23668E-02 3.14852E-14-8.02483E-15
 -1      1513 2.40197E+01-1.17163E-01 8.49017E-03-2.52039E-02 4.10019E-14-1.55343E-13
 -1      1514 2.39892E+01-1.32196E-02 5.86864E-03 1.93226E-01 5.61036E-14-2.76515E-13
 -1      1515 2.42003E+01-3.62253E-02 4.63253E-03 1.67494E-01 8.10580E-14-1.12226E-13
 -1      1516 2.38035E+01-6.84234E-02 5.77929E-03 2.55721E-01 1.19772E-13-2.06122E-13
 -1      1517 2.34265E+01-2.35825E-03-1.25484E-03 2.37221E-01-1.11441E-13-2.12384E-13
 -1      1518 2.37369E+01-1.64713E-02-5.67573E-04 2.25212E-01-3.87719E-14-3.14861E-13
 -1      1519 2.33809E+01-2.75183E-02 3.28656E-03 4.05133E-01-1.82189E-15-1.99073E-13
 -1      1520 2.28172E+01 3.80534E-03-4.50499E-03 2.38324E-01 4.93725E-14-2.27965E-13
 -1      1521 2.31529E+01-2.88529E-03-2.90112E-03 2.35607E-01-1.03386E-14-2.38358E-13
 -1      1522 2.28665E+01-6.30449E-04 1.52208E-03 4.52998E-01-2.25636E-14-3.65138E-13
 -1      1523 2.22382E+01 6.59333E-03-5.34406E-03 2.16085E-01 4.28704E-14-4.57084E-13
 -1      1524 2.25552E+01 4.95647E-03-3.35839E-03 2.18673E-01 1.02394E-13-2.63151E-13
 -1      1525 2.23422E+01 1.38030E-02 4.31711E-04 4.37000E-01 1.52613E-13-3.73908E-13
 -1      1526 2.17282E+01 7.32481E-03-4.98037E-03 1.84017E-01-5.69748E-14-3.48119E-13
 -1      1527 2.20051E+01 8.64960E-03-2.90507E-03 1.89104E-01-4.20291E-14-4.21651E-13
 -1      1528 2.18571E+01 1.96863E-02-1.80806E-04 3.87920E-01 2.38240E-14-2.38956E-13
 -1      1529 2.13011E+01 6.96099E-03-4.16005E-03 1.50162E-01-2.58899E-14-3.33008E-13
 -1      1530 2.15309E+01 9.75224E-03-2.16949E-03 1.56034E-01-3.16012E-14-3.24430E-13
 -1      1531 2.14348E+01 2.05594E-02-4.95125E-04 3.26359E-01-6.28813E-14-2.33755E-13
 -1      1532 2.09560E+01 6.10472E-03-3.26616E-03 1.18710E-01-1.15025E-13-2.57133E-13
 -1      1533 2.11399E+01 9.41885E-03-1.46296E-03 1.24430E-01-8.83308E-14-2.60641E-13
 -1      1534 2.10826E+01 1.88929E-02-6.33177E-04 2.64330E-01-1.31245E-13-4.37404E-14
 -1      1535 2.06849E+01 5.09760E-03-2.46294E-03 9.14616E-02-5.54904E-14-8.80756E-14
 -1      1536 2.08280E+01 8.39592E-03-8.98081E-04 9.65828E-02-8.34506E-14-1.94698E-13
 -1      1537 2.07982E+01 1.61883E-02-6.68895E-04 2.07923E-01-1.93940E-13 2.14137E-14
 -1      1538 2.04770E+01 4.11572E-03-1.80191E-03 6.88805E-02 2.89024E-14-1.19512E-13
 -1      1539 2.05857E+01 7.12378E-03-4.89293E-04 7.32386E-02 4.69190E-14-1.27279E-14
 -1      1540 2.05744E+01 1.32686E-02-6.46052E-04 1.59607E-01-1.61815E-14 3.06153E-14
 -1      1541 2.03210E+01 3.23892E-03-1.28379E-03 5.07461E-02-1.92760E-14-2.58450E-14
 -1      1542 2.04017E+01 5.84187E-03-2.13141E-04 5.43294E-02-3.70593E-14-8.97478E-14
 -1      1543 2.04024E+01 1.05386E-02-5.91185E-04 1.19831E-01-1.64855E-14 5.65425E-14
 -1      1544 2.02064E+01 2.49476E-03-8.90156E-04 3.65364E-02 4.85146E-14-5.93369E-14
 -1      1545 2.02650E+01 4.66802E-03-3.75260E-05 3.94072E-02-9.89269E-15-1.08798E-13
 -1      1546 2.02727E+01 8.16588E-03-5.20919E-04 8.80228E-02-2.05123E-14-7.52990E-14
 -1      1547 2.01242E+01 1.88408E-03-5.97981E-04 2.56341E-02-2.70508E-14-3.96270E-14
 -1      1548 2.01657E+01 3.65051E-03 6.66658E-05 2.78855E-02 5.77177E-14 9.90152E-15
 -1      1549 2.01772E+01 6.19325E-03-4.45811E-04 6.31748E-02 3.74746E-14 5.35298E-15
 -1      1550 2.00668E+01 1.39531E-03-3.85484E-04 1.74326E-02 4.29841E-14-1.08751E-13
 -1      1551 2.00954E+01 2.79986E-03 1.22329E-04 1.91646E-02-5.21859E-15-6.21287E-15
 -1      1552 2.01083E+01 4.60248E-03-3.72442E-04 4.41589E-02 2.86852E-14 9.25726E-14
 -1      1553 2.00280E+01 1.01203E-03-2.34094E-04 1.13840E-02 9.62614E-15-1.49617E-13
 -1      1554 2.00469E+01 2.10740E-03 1.46263E-04 1.26921E-02 7.97564E-15-1.23326E-13
 -1      1555 2.00599E+01 3.34930E-03-3.04680E-04 2.98879E-02 5.34937E-14 5.15895E-14
 -1      1556 2.00028E+01 7.16948E-04-1.28734E-04 7.01768E-03-4.52400E-14-1.33220E-13
 -1      1557 2.00147E+01 1.55571E-03 1.50311E-04 7.98706E-03-6.95124E-14-1.86608E-13
 -1      1558 2.00269E+01 2.38143E-03-2.44532E-04 1.93900E-02-1.39542E-14 1.06035E-13
 -1      1559 1.99874E+01 4.93770E-04-5.74995E-05 3.94188E-03-2.79058E-14-1.63830E-13
 -1      1560 1.99944E+01 1.12439E-03 1.42599E-04 4.64562E-03 3.26677E-14-1.87866E-13
 -1      1561 2.00053E+01 1.64754E-03-1.92754E-04 1.18337E-02 2.80608E-14-3.97054E-14
 -1      1562 1.99790E+01 3.28042E-04-1.11593E-05 1.83852E-03 1.11532E-13-3.33879E-13
 -1      1563 1.99825E+01 7.93112E-04 1.28572E-04 2.33756E-03 5.87516E-14-2.68324E-13
 -1      1564 1.99919E+01 1.10121E-03-1.49287E-04 6.52944E-03 1.39239E-13-1.68080E-13
 -1      1565 1.99752E+01 2.07407E-04 1.73495E-05 4.54324E-04-1.02583E-13-3.84560E-13
 -1      1566 1.99765E+01 5.43166E-04 1.11786E-04 7.98362E-04-1.29089E-14-4.00386E-13
 -1      1567 1.99844E+01 7.02426E-04-1.13585E-04 2.91853E-03 3.88618E-14-1.40455E-13
 -1      1568 1.99746E+01 1.21577E-04 3.33613E-05-4.08828E-04-9.29009E-14-1.61774E-13
 -1      1569 1.99743E+01 3.58080E-04 9.44852E-05-1.80021E-04-8.72068E-14-3.29997E-13
 -1      1570 1.99808E+01 4.17727E-04-8.48318E-05 5.56870E-04-1.01695E-13-1.11543E-13
 -1      1571 1.99758E+01 6.21646E-05 4.08524E-05-9.03329E-04-4.39991E-14 4.57479E-14
 -1      1572 1.99747E+01 2.23827E-04 7.80129E-05-7.58477E-04-1.93265E-14 1.83080E-14
 -1      1573 1.99799E+01 2.19769E-04-6.21003E-05-9.02294E-04-1.63394E-13 8.05381E-14
 -1      1574 1.99780E+01 2.24499E-05 4.27432E-05-1.14441E-03-1.21950E-13 3.49048E-15
 -1      1575 1.99765E+01 1.28743E-04 6.31051E-05-1.05933E-03-4.71228E-14-6.48826E-14
 -1      1576 1.99807E+01 8.66208E-05-4.44523E-05-1.72516E-03-2.91233E-14 8.42339E-14
 -1      1577 1.99808E+01-2.85943E-06 4.11404E-05-1.21765E-03 1.35514E-13-1.98255E-13
 -1      1578 1.99791E+01 6.33264E-05 5.00960E-05-1.17395E-03 2.72303E-14-6.32896E-14
 -1      1579 1.99823E+01 9.89385E-07-3.10009E-05-2.11260E-03 4.16365E-14-2.17404E-13
 -1      1580 1.99837E+01-1.78659E-05 3.75324E-05-1.18533E-03 9.65596E-14-4.75513E-13
 -1      1581 1.99820E+01 1.99736E-05 3.90615E-05-1.16927E-03 7.19583E-14-2.91053E-13
 -1      1582 1.99845E+01-5.05462E-05-2.09458E-05-2.21339E-03 1.90757E-13-3.83367E-13
 -1      1583 1.99865E+01-2.56987E-05 3.29423E-05-1.09175E-03-6.62451E-14-4.00269E-13
 -1      1584 1.99849E+01-7.29906E-06 2.99196E-05-1.09329E-03-9.96536E-14-5.17627E-13
 -1      1585 1.99867E+01-7.82349E-05-1.35890E-05-2.13554E-03-3.69729E-14-4.27937E-13
 -1      1586 1.99891E+01-2.87069E-05 2.80498E-05-9.67553E-04 6.93227E-14-2.70920E-13
 -1      1587 1.99876E+01-2.31261E-05 2.24993E-05-9.79480E-04 4.62474E-14-2.79385E-13
 -1      1588 1.99890E+01-8.97748E-05-8.33735E-06-1.95556E-03-5.02614E-14-3.11413E-13
 -1      1589 1.99913E+01-2.86256E-05 2.32857E-05-8.33130E-04-5.23609E-14-1.62042E-13
 -1      1590 1.99901E+01-3.10431E-05 1.65862E-05-8.50440E-04-1.38549E-14-1.78887E-13
 -1      1591 1.99910E+01-9.08500E-05-4.69721E-06-1.72609E-03-5.79803E-14 1.06106E-14
 -1      1592 1.99933E+01-2.67192E-05 1.89056E-05-7.01355E-04-5.91131E-14 7.22074E-14
 -1      1593 1.99922E+01-3.37119E-05 1.19533E-05-7.20692E-04-6.80916E-14-1.29885E-13
 -1      1594 1.99929E+01-8.55847E-05-2.26342E-06-1.48195E-03-9.18321E-14 2.04708E-13
 -1      1595 1.99949E+01-2.39008E-05 1.50485E-05-5.79623E-04 8.10702E-14-1.72888E-13
 -1      1596 1.99940E+01-3.31181E-05 8.38030E-06-5.98872E-04 1.54186E-14-3.43160E-14
 -1      1597 1.99945E+01-7.69236E-05-7.04920E-07-1.24477E-03 7.32108E-14 8.82528E-14
 -1      1598 1.99962E+01-2.08355E-05 1.17876E-05-4.71367E-04 1.55852E-14-2.06344E-13
 -1      1599 1.99955E+01-3.07463E-05 5.66824E-06-4.89352E-04 5.68360E-14-1.23731E-13
 -1      1600 1.99958E+01-6.69482E-05 2.54435E-07-1.02666E-03 7.94757E-14-4.65322E-14
 -1      1601 1.99973E+01-1.80302E-05 9.18495E-06-3.77114E-04 1.69446E-13-5.85536E-13
 -1      1602 1.99968E+01-2.77373E-05 3.65552E-06-3.93392E-04 1.55010E-13-3.37082E-13
 -1      1603 1.99969E+01-5.71477E-05 8.60583E-07-8.32705E-04 2.03006E-13-1.28749E-13
 -1      1604 1.99982E+01-1.59092E-05 7.36331E-06-2.95131E-04-4.47902E-14-7.37496E-13
 -1      1605 1.99977E+01-2.50338E-05 2.24862E-06-3.09896E-04-1.34559E-14-7.08622E-13
 -1      1606 1.99978E+01-4.86520E-05 1.36839E-06-6.62811E-04 1.47732E-13-4.08437E-13
 -1      1607 1.99989E+01-1.47985E-05 6.55294E-06-2.21831E-04-1.45946E-13-4.14990E-13
 -1      1608 1.99985E+01-2.34515E-05 1.47775E-06-2.35874E-04-1.38606E-13-5.30033E-13
 -1      1609 1.99985E+01-4.24107E-05 2.08139E-06-5.12804E-04-2.11893E-13-3.56815E-13
 -1      1610 1.99993E+01-1.49525E-05 6.77488E-06-1.52284E-04 1.42153E-13-6.17883E-13
 -1      1611 1.99991E+01-2.36705E-05 1.46095E-06-1.66973E-04 9.96086E-14-4.18810E-13
 -1      1612 1.99990E+01-3.92269E-05 3.29914E-06-3.75437E-04-1.03361E-14-3.13672E-13
 -1      1613 1.99997E+01-1.62872E-05 6.17753E-06-8.07194E-05 1.44433E-13-1.02025E-12
 -1      1614 1.99995E+01-2.60108E-05 1.80052E-06-9.84436E-05 1.47132E-13-8.11490E-13
 -1      1615 1.99994E+01-4.01386E-05 4.60561E-06-2.42105E-04 2.72418E-13-5.40902E-13
 -1      1616 1.99998E+01-1.54268E-05-3.23958E-06-1.23666E-05-9.25350E-14-9.89198E-13
 -1      1617 1.99997E+01-2.53585E-05 2.12119E-07-3.03441E-05-2.32221E-14-1.04537E-12
 -1      1618 1.99997E+01-3.96435E-05 4.31676E-06-1.07441E-04 6.20817E-14-8.83190E-13
 -1      1619 1.99998E+01-2.58605E-07-7.82920E-06 9.76331E-06-5.97160E-13-6.63803E-13
 -1      1620 1.99998E+01-1.09063E-04 3.79030E-06-6.23845E-05-8.67383E-13 2.08362E-13
 -1      1621 1.99998E+01-5.46837E-05-2.52900E-06-4.46706E-05-9.05184E-13-1.25144E-13
 -1      1622 1.99998E+01-3.62379E-04 3.07614E-06-1.33219E-04-2.77150E-13 4.47948E-13
 -1      1623 1.99998E+01-2.19117E-04 2.62735E-06-1.20116E-04-6.68131E-13 2.92930E-13
 -1      1624 1.99997E+01-2.33703E-04 5.03912E-06-1.82046E-04-3.42146E-13 3.96111E-13
 -1      1625 1.99998E+01-7.17257E-04 1.40753E-06-1.78558E-04 2.88587E-13 3.20667E-13
 -1      1626 1.99998E+01-5.14198E-04 2.11421E-06-1.71912E-04-9.22882E-14 3.65578E-13
 -1      1627 1.99998E+01-4.95365E-04 4.85257E-06-2.97822E-04-1.71895E-13 7.63136E-13
 -1      1628 1.99998E+01-1.11489E-03 2.00096E-07-1.90837E-04 8.92914E-13 3.34978E-13
 -1      1629 1.99998E+01-8.91334E-04 9.45605E-07-1.91109E-04 3.36899E-13 5.62382E-13
 -1      1630 1.99998E+01-8.21782E-04 1.42953E-06-3.58677E-04 2.59302E-13 6.82597E-13
 -1      1631 1.99998E+01-1.48489E-03-3.23097E-07-1.72108E-04 4.28808E-13-2.87265E-13
 -1      1632 1.99998E+01-1.28226E-03 2.25480E-07-1.78084E-04 8.47293E-13-2.89955E-13
 -1      1633 1.99998E+01-1.16308E-03-2.11311E-06-3.57225E-04 1.10413E-13 9.70074E-15
 -1      1634 1.99998E+01-1.78377E-03-5.20692E-07-1.27221E-04 2.30891E-13-3.31577E-14
 -1      1635 1.99998E+01-1.62732E-03-1.81880E-07-1.37853E-04 4.44622E-13-1.72947E-13
 -1      1636 1.99998E+01-1.47188E-03-5.00339E-06-3.00003E-04 9.26963E-14-3.20221E-13
 -1      1637 1.99998E+01-1.96127E-03-5.27750E-07-6.41390E-05 3.93198E-13-1.48395E-13
 -1      1638 1.99998E+01-1.87750E-03-3.56051E-07-7.75944E-05 1.92290E-13 3.72851E-13
 -1      1639 1.99998E+01-1.70671E-03-7.07998E-06-1.98214E-04 1.24431E-13 3.66074E-14
 -1      1640 1.99998E+01-1.99289E-03-4.61949E-07 7.81733E-06 3.28554E-13-1.53276E-14
 -1      1641 1.99998E+01-1.99361E-03-4.62996E-07-6.58828E-06 3.60346E-13-1.94314E-13
 -1      1642 1.99998E+01-1.83206E-03-8.14247E-06-6.84473E-05 1.07316E-13-1.97492E-13
 -1      1643 1.99998E+01-1.87431E-03-3.40859E-07 7.87103E-05 8.05578E-14-2.89200E-13
 -1      1644 1.99998E+01-1.95944E-03-5.29153E-07 6.52966E-05 2.43892E-13 4.74862E-14
 -1      1645 1.99998E+01-1.83095E-03-8.13081E-06 7.07632E-05 1.65017E-13-8.36241E-14
 -1      1646 1.99998E+01-1.62213E-03-1.28803E-07 1.38679E-04-3.12986E-13-2.07544E-13
 -1      1647 1.99998E+01-1.77965E-03-5.51239E-07 1.28154E-04 9.06306E-14-3.84650E-13
 -1      1648 1.99998E+01-1.70357E-03-7.03213E-06 2.00210E-04 2.24878E-14-4.41767E-13
 -1      1649 1.99998E+01-1.27897E-03 2.02378E-07 1.78185E-04-4.87695E-13 4.74498E-14
 -1      1650 1.99998E+01-1.48200E-03-3.43891E-07 1.72304E-04-4.14552E-13-2.23854E-13
 -1      1651 1.99998E+01-1.46962E-03-5.01326E-06 3.00832E-04-5.77809E-14-3.89177E-13
 -1      1652 1.99998E+01-8.84739E-04 9.24919E-07 1.91024E-04-3.77884E-13-1.37495E-14
 -1      1653 1.99998E+01-1.10830E-03 2.10845E-07 1.90880E-04-6.16537E-13 3.91623E-13
 -1      1654 1.99998E+01-1.16015E-03-2.05636E-06 3.57444E-04-2.58556E-13 1.51245E-13
 -1      1655 1.99998E+01-5.08134E-04 2.29869E-06 1.71518E-04-2.75607E-13 2.50943E-13
 -1      1656 1.99998E+01-7.10914E-04 1.37298E-06 1.77979E-04-3.87282E-13 1.05714E-13
 -1      1657 1.99998E+01-8.15916E-04 1.47019E-06 3.58105E-04-3.52049E-13 1.43912E-13
 -1      1658 1.99998E+01-2.18973E-04 8.61410E-07 1.20072E-04-5.05778E-13-9.33128E-14
 -1      1659 1.99998E+01-3.58663E-04 3.15256E-06 1.33578E-04-3.15363E-13-3.07544E-14
 -1      1660 1.99998E+01-4.91475E-04 4.78082E-06 2.96123E-04-2.72749E-13 5.46685E-14
 -1      1661 1.99998E+01-8.66773E-05-3.77614E-06 7.40584E-05-4.06172E-13-1.16488E-13
 -1      1662 1.99998E+01-1.44705E-04 2.74845E-06 9.93378E-05-3.15782E-13-2.00152E-13
 -1      1663 1.99997E+01-2.71023E-04 2.71597E-06 2.22130E-04-2.86252E-13-1.16997E-13
 -1      1664 1.99997E+01-1.33572E-04-2.36791E-06 1.53389E-04-1.71419E-13-7.25195E-14
 -1      1665-2.16068E-01-1.19742E+01-1.41725E+00-4.14960E-01 1.12255E-12 6.78901E-13
 -1      1666-3.07295E-01-1.38339E+01-1.57022E+00 4.95027E-01 4.27811E-13 4.72844E-13
 -1      1667 1.66050E+00-6.56249E+00-1.15276E+00 9.28104E-01 1.98730E-12 1.15252E-12
 -1      1668 8.46792E-01-1.14971E+01-1.62570E+00 2.77642E-01 1.42508E-12 7.64933E-13
 -1      1669 7.60850E+00 4.55751E-01-5.24139E-01 5.13344E+00 2.07367E-12 1.54721E-12
 -1      1670 4.35239E+00-4.75035E+00-1.27070E+00 2.21718E+00 2.02760E-12 1.20726E-12
 -1      1671 1.78736E+01 5.14749E+00 2.12869E-01 9.88724E+00 1.76481E-12 1.71752E-12
 -1      1672 1.16702E+01 2.09506E+00-6.17987E-01 6.44349E+00 2.01261E-12 1.58895E-12
 -1      1673 3.14100E+01 6.50597E+00 9.52316E-01 1.25466E+01 1.23490E-12 1.37224E-12
 -1      1674 2.27514E+01 6.13993E+00 1.29999E-01 1.05763E+01 1.65667E-12 1.62781E-12
 -1      1675 4.49584E+01 5.31730E+00 1.58439E+00 1.08871E+01 6.69603E-13 5.44897E-13
 -1      1676 3.63727E+01 6.77395E+00 9.05133E-01 1.21416E+01 1.08497E-12 1.14198E-12
 -1      1677 5.39830E+01 3.62143E+00 1.95209E+00 4.68127E+00 3.78503E-13-5.43676E-13
 -1      1678 4.89559E+01 5.07975E+00 1.60152E+00 9.37961E+00 5.30492E-13 2.32925E-13
 -1      1679 5.34973E+01 3.61343E+00 1.78467E+00-3.78515E+00 6.65495E-13-1.83858E-12
 -1      1680 5.49433E+01 3.40906E+00 1.93584E+00 1.86530E+00 4.55247E-13-9.45074E-13
 -1      1681 4.40527E+01 5.19981E+00 1.18234E+00-9.58763E+00 1.31845E-12-2.74469E-12
 -1      1682 5.09469E+01 3.77540E+00 1.74465E+00-6.10350E+00 8.83515E-13-2.11453E-12
 -1      1683 3.03237E+01 6.13608E+00 4.07426E-01-1.10160E+01 2.04042E-12-3.08198E-12
 -1      1684 3.96498E+01 5.23926E+00 1.21684E+00-1.10281E+01 1.55326E-12-2.92355E-12
 -1      1685 1.73275E+01 4.48432E+00-3.57116E-01-8.43107E+00 2.53997E-12-2.80831E-12
 -1      1686 2.51143E+01 5.78683E+00 4.79886E-01-1.10903E+01 2.25309E-12-3.09952E-12
 -1      1687 7.68109E+00-3.76638E-01-9.92785E-01-4.13501E+00 2.50622E-12-2.05558E-12
 -1      1688 1.27082E+01 3.35206E+00-2.59934E-01-7.47710E+00 2.57350E-12-2.58649E-12
 -1      1689 2.08040E+00-5.90489E+00-1.42383E+00-8.69026E-01 2.05969E-12-1.31173E-12
 -1      1690 3.80839E+00-1.55631E+00-9.25181E-01-2.64216E+00 2.52875E-12-1.87073E-12
 -1      1691 7.06677E-02-1.05000E+01-1.55952E+00 9.82844E-02 9.66838E-13-6.82537E-13
 -1      1692 3.37478E-01-7.29267E+00-1.32063E+00 2.29538E-01 1.79856E-12-1.08041E-12
 -1      1693-4.32943E-01-1.10272E+01-1.43366E+00-3.59100E-01-4.00874E-13-5.85504E-13
 -1      1694-4.55153E-01-1.06631E+01-1.42190E+00 6.50388E-01 5.43010E-13-6.31245E-13
 -1      1695-3.98404E-02-8.56135E+00-1.34798E+00-3.51411E-01-1.65223E-12-8.79519E-13
 -1      1696-1.55208E-01-1.11037E+01-1.53914E+00 2.16683E-01-8.27671E-13-5.82784E-13
 -1      1697 2.36920E+00-3.13931E+00-1.02080E+00 1.68145E+00-2.47569E-12-1.57005E-12
 -1      1698 1.27894E+00-7.28333E+00-1.43078E+00 5.45780E-01-1.94922E-12-1.07961E-12
 -1      1699 8.26605E+00 2.37206E+00-5.13235E-01 5.70028E+00-2.80920E-12-2.39542E-12
 -1      1700 4.94645E+00-1.63072E+00-1.12184E+00 2.95659E+00-2.62024E-12-1.84314E-12
 -1      1701 1.86442E+01 5.83773E+00 1.66190E-01 1.01158E+01-2.58071E-12-2.96696E-12
 -1      1702 1.22670E+01 3.53008E+00-6.13295E-01 6.96152E+00-2.76223E-12-2.59182E-12
 -1      1703 3.32748E+01 6.11029E+00 9.23032E-01 1.21301E+01-1.85374E-12-3.01670E-12
 -1      1704 2.38296E+01 6.38425E+00 7.57455E-02 1.07038E+01-2.40530E-12-3.03868E-12
 -1      1705 4.67570E+01 4.26372E+00 1.48059E+00 8.22359E+00-1.08074E-12-2.22333E-12
 -1      1706 3.84206E+01 5.87031E+00 8.51390E-01 1.06170E+01-1.55304E-12-2.74369E-12
 -1      1707 5.35412E+01 3.37494E+00 1.79282E+00 1.09927E+00-5.92998E-13-1.11694E-12
 -1      1708 5.00132E+01 4.16156E+00 1.48739E+00 6.16195E+00-8.72719E-13-1.95288E-12
 -1      1709 5.12490E+01 4.35295E+00 1.66728E+00-7.11363E+00-5.79231E-13 1.81744E-13
 -1      1710 5.41383E+01 3.36432E+00 1.85104E+00-1.63392E+00-4.69236E-13-7.00787E-13
 -1      1711 3.95165E+01 6.47346E+00 1.04993E+00-1.15405E+01-1.11039E-12 1.34803E-12
 -1      1712 4.77409E+01 4.65996E+00 1.62334E+00-8.98319E+00-6.97182E-13 5.91194E-13
 -1      1713 2.52517E+01 6.96273E+00 3.13441E-01-1.15262E+01-1.60982E-12 1.94134E-12
 -1      1714 3.45844E+01 6.61382E+00 1.13279E+00-1.28830E+01-1.22580E-12 1.81899E-12
 -1      1715 1.30745E+01 3.13893E+00-4.88637E-01-7.21620E+00-1.85540E-12 1.66867E-12
 -1      1716 2.02345E+01 5.90374E+00 4.11624E-01-1.07958E+01-1.67455E-12 1.90647E-12
 -1      1717 4.66397E+00-3.65925E+00-1.20435E+00-2.53616E+00-1.95666E-12 1.15180E-12
 -1      1718 8.36825E+00 1.70068E+00-3.92725E-01-5.79803E+00-1.97264E-12 1.55986E-12
 -1      1719 1.16042E+00-1.09764E+01-1.57482E+00-5.14926E-01-9.44023E-13 7.72618E-13
 -1      1720 2.21695E+00-5.75381E+00-1.04670E+00-1.48068E+00-1.67433E-12 1.12416E-12
 -1      1721-4.25617E-01-1.44020E+01-1.68673E+00-5.48432E-01 1.68865E-13 4.81420E-13
 -1      1722-3.77782E-01-1.22478E+01-1.52270E+00 5.76605E-01-6.83897E-13 6.29857E-13
 -1      1723 2.46431E+01 1.23140E+00 2.57528E-01 7.56521E+00 1.09224E-12 7.22089E-13
 -1      1724 1.47979E+01-2.36957E+00-3.14212E-01 6.73263E+00 1.10867E-12 9.19265E-13
 -1      1725 1.99998E+01-1.16535E-05-7.03370E-07-9.01753E-06-8.18357E-13-5.42336E-13
 -1      1726 1.99997E+01-8.91381E-05-9.26934E-08-7.56618E-05-3.42549E-13-3.58867E-13
 -1      1727 9.98333E-01-8.21465E+00-1.06267E+00 2.61712E+00 5.96523E-13 9.33309E-13
 -1      1728 6.39017E+00-6.03928E+00-8.28555E-01 4.87661E+00 9.85434E-13 9.47346E-13
 -1      1729-8.12452E-01-8.80091E+00-1.07686E+00 3.92426E-02 1.83388E-13 9.02334E-13
 -1      1730 3.44648E+01 4.23835E+00 8.20013E-01 7.01336E+00 9.92761E-13 3.58491E-13
 -1      1731 4.27263E+01 6.31852E+00 1.33261E+00 5.07632E+00 8.51041E-13-1.13465E-13
 -1      1732 4.72570E+01 7.15265E+00 1.64425E+00 1.86601E+00 8.41882E-13-6.99385E-13
 -1      1733 4.57521E+01 6.74240E+00 1.48932E+00-1.82764E+00 1.07403E-12-1.28986E-12
 -1      1734 3.94805E+01 5.19647E+00 1.05998E+00-4.80572E+00 1.32150E-12-1.72351E-12
 -1      1735 3.02207E+01 2.78135E+00 4.86089E-01-6.58987E+00 1.48420E-12-1.94000E-12
 -1      1736 1.98430E+01-7.96481E-02-9.63642E-02-6.70999E+00 1.51179E-12-1.83442E-12
 -1      1737 1.02476E+01-2.68907E+00-5.52882E-01-5.49661E+00 1.43718E-12-1.64510E-12
 -1      1738 3.15310E+00-5.30188E+00-9.45207E-01-3.18510E+00 1.09912E-12-1.35734E-12
 -1      1739-2.29085E-01-6.62466E+00-1.03113E+00-1.12269E+00 4.04149E-13-1.15030E-12
 -1      1740-6.07234E-01-6.78890E+00-1.02383E+00 7.88727E-01-2.99150E-13-1.08979E-12
 -1      1741 1.78490E+00-5.72540E+00-9.69882E-01 2.76196E+00-1.01685E-12-1.21814E-12
 -1      1742 7.05784E+00-3.17031E+00-7.09304E-01 4.82681E+00-1.49059E-12-1.55122E-12
 -1      1743 1.50220E+01-3.17876E-01-2.99988E-01 6.64166E+00-1.70908E-12-1.84908E-12
 -1      1744 2.51401E+01 2.39875E+00 2.54065E-01 7.45882E+00-1.69820E-12-1.99796E-12
 -1      1745 3.56484E+01 4.67491E+00 8.72147E-01 6.07696E+00-1.45445E-12-1.77947E-12
 -1      1746 4.29624E+01 6.49756E+00 1.28624E+00 2.90074E+00-1.21267E-12-1.35264E-12
 -1      1747 4.65298E+01 7.21335E+00 1.56432E+00-5.29778E-01-9.94871E-13-7.91200E-13
 -1      1748 4.37200E+01 6.63755E+00 1.31532E+00-3.83237E+00-9.87543E-13-7.14429E-14
 -1      1749 3.64703E+01 5.08831E+00 9.66850E-01-6.81832E+00-1.05370E-12 5.70433E-13
 -1      1750 2.63902E+01 2.23754E+00 3.93587E-01-7.79079E+00-1.00148E-12 1.03240E-12
 -1      1751 1.59365E+01-1.46497E+00-1.99226E-01-6.99156E+00-1.02063E-12 1.01452E-12
 -1      1752 6.99304E+00-5.51769E+00-7.74680E-01-5.06907E+00-8.16236E-13 9.66602E-13
 -1      1753 1.27951E+00-8.31943E+00-1.05553E+00-2.89366E+00-3.23297E-13 1.04389E-12
 -1      1754 2.82683E+01 2.19441E+00-1.45789E-02-2.89039E+00-2.89629E-13 1.05160E-12
 -1      1755 2.26496E+01 3.07059E+00-3.58913E-02-1.80688E+00-2.36996E-13-3.94636E-13
 -1      1756 2.34012E+01 3.10386E+00-6.36325E-02-2.32242E+00-3.12722E-13-2.90629E-13
 -1      1757 2.41842E+01 2.96570E+00-5.51510E-02-2.63172E+00-3.48915E-13-1.42109E-13
 -1      1758 2.48349E+01 2.73231E+00-1.78040E-01-3.04892E+00-4.03327E-13 5.99520E-14
 -1      1759 2.41453E+01 2.07777E+00-1.69662E-02-2.36165E+00-3.46178E-13-1.65697E-13
 -1      1760 1.88081E+01 2.99605E+00-2.61801E-02 3.01071E-01 3.01391E-14-6.16875E-13
 -1      1761 1.99661E+01 3.03400E+00-6.29192E-03-1.71478E-01-2.68067E-14-5.80376E-13
 -1      1762 1.61386E+01 3.31269E+00-3.48754E-02 1.11255E+00 1.15154E-13-6.74481E-13
 -1      1763 1.75355E+01 3.26559E+00 1.96986E-02 8.05948E-01 7.92873E-14-6.56806E-13
 -1      1764 1.85025E+01 2.36769E+00-3.50720E-02 6.78119E-01 6.59455E-14-6.05531E-13
 -1      1765 1.34479E+01 3.90158E+00-3.78929E-02 1.34710E+00 1.62877E-13-7.34728E-13
 -1      1766 1.47697E+01 3.80185E+00 3.66927E-02 1.31348E+00 1.48336E-13-7.10636E-13
 -1      1767 1.55945E+01 3.00383E+00-2.41494E-02 1.47936E+00 1.65416E-13-6.89828E-13
 -1      1768 1.15334E+01 4.49701E+00-2.19315E-02 8.66735E-01 1.44727E-13-7.85764E-13
 -1      1769 1.23287E+01 4.40886E+00 2.96126E-02 1.11477E+00 1.63506E-13-7.75500E-13
 -1      1770 1.28017E+01 3.89733E+00 9.77288E-03 1.51311E+00 1.88823E-13-7.75525E-13
 -1      1771 1.12987E+01 4.68493E+00 7.29803E-03-3.14213E-02 9.47827E-14-7.97278E-13
 -1      1772 1.11796E+01 4.68307E+00 1.26867E-03 3.14055E-01 1.22743E-13-8.01784E-13
 -1      1773 1.11009E+01 4.54598E+00 3.62002E-02 7.04722E-01 1.53931E-13-8.36847E-13
 -1      1774 1.28975E+01 4.34802E+00 3.17819E-02-7.59846E-01 5.02532E-14-7.37646E-13
 -1      1775 1.18905E+01 4.42931E+00-2.61808E-02-5.56252E-01 6.18680E-14-7.74408E-13
 -1      1776 1.13573E+01 4.48607E+00 3.50411E-02-4.33133E-01 8.06065E-14-8.29038E-13
 -1      1777 1.56644E+01 3.74388E+00 3.17883E-02-8.20209E-01 5.19237E-14-6.10352E-13
 -1      1778 1.41881E+01 3.82900E+00-3.90209E-02-9.12876E-01 3.76383E-14-6.68809E-13
 -1      1779 1.34907E+01 3.75809E+00 3.44611E-03-1.11997E+00 2.87860E-14-7.20333E-13
 -1      1780 1.86504E+01 3.26779E+00 1.03405E-02-1.87550E-01 1.29872E-13-4.48579E-13
 -1      1781 1.71663E+01 3.28733E+00-3.54452E-02-5.44870E-01 8.28816E-14-5.19779E-13
 -1      1782 1.66000E+01 2.88098E+00-2.66627E-02-9.19568E-01 4.63952E-14-5.49545E-13
 -1      1783 2.12846E+01 3.07350E+00-2.26185E-02 8.42950E-01 2.46355E-13-2.71012E-13
 -1      1784 2.00167E+01 3.02864E+00-3.14930E-02 3.38101E-01 1.85855E-13-3.66145E-13
 -1      1785 1.97080E+01 2.30520E+00-3.45273E-02-2.46678E-02 1.45332E-13-3.62568E-13
 -1      1786 2.35494E+01 2.98260E+00-6.51364E-02 1.92153E+00 3.45553E-13-2.30510E-14
 -1      1787 2.24358E+01 2.97828E+00-4.26674E-02 1.38704E+00 2.86840E-13-1.61302E-13
 -1      1788 2.23225E+01 2.08093E+00-2.65888E-02 1.10143E+00 2.64045E-13-1.66717E-13
 -1      1789 2.59201E+01 2.51839E+00-8.12155E-02 2.73664E+00 3.87130E-13 4.23842E-13
 -1      1790 2.46762E+01 2.79930E+00-5.58177E-02 2.32070E+00 3.63735E-13 1.57201E-13
 -1      1791 2.46200E+01 1.87924E+00 5.78788E-03 2.00223E+00 3.54277E-13 1.04958E-13
 -1      1792 2.77442E+01 1.07504E+00-1.52718E-01 2.31324E+00 3.59476E-13 9.90708E-13
 -1      1793 2.67491E+01 2.21060E+00 8.42047E-06 2.69772E+00 3.76704E-13 6.26277E-13
 -1      1794 2.61221E+01 1.26981E+00-3.60766E-02 2.15507E+00 3.97496E-13 4.49155E-13
 -1      1795 2.69322E+01 5.50172E-01-7.54083E-02 1.58714E+00 3.53863E-13 8.80298E-13
 -1      1796 2.66583E+01 2.61778E+00 1.02090E-01-3.28038E+00-3.73961E-13 4.35652E-13
 -1      1797 2.58692E+01-5.66714E-02-1.69062E-02 1.21461E+00 2.62229E-13 7.56766E-13
 -1      1798 2.65910E+01 1.12331E-01-2.30222E-02 1.35123E+00 2.84953E-13 8.33495E-13
 -1      1799 2.63387E+01 4.32858E-01 4.33776E-03 1.74856E+00 3.28456E-13 6.10487E-13
 -1      1800 2.61987E+01 1.56657E+00 8.80402E-02-2.62314E+00-3.81278E-13 3.02293E-13
 -1      1801 2.50676E+01 1.10978E-01 3.02836E-02-1.62882E+00-2.96714E-13 2.83664E-13
 -1      1802 2.43367E+01-4.51516E-02-8.03335E-03-1.54753E+00-2.67416E-13 2.13797E-13
 -1      1803 2.40099E+01-1.02823E-01 2.18003E-02-1.57491E+00-2.52577E-13 2.23838E-13
 -1      1804 2.34247E+01-1.00178E-01 6.78815E-03-1.61668E+00-2.27448E-13 1.54755E-13
 -1      1805 2.43846E+01-5.94126E-02 3.64731E-03-1.98405E+00-3.02041E-13 9.35035E-14
 -1      1806 2.30579E+01-2.57856E-02 9.02703E-03-1.64423E+00-2.03903E-13 1.34834E-13
 -1      1807 2.25272E+01 1.03470E-01 1.71612E-02-1.61502E+00-1.85755E-13 4.95645E-14
 -1      1808 2.36871E+01-5.97097E-02 4.44101E-03-2.03568E+00-2.65580E-13 5.61773E-14
 -1      1809 2.21390E+01 2.58791E-01 2.31039E-03-1.48002E+00-1.62150E-13 3.13534E-14
 -1      1810 2.17200E+01 4.34032E-01 2.41323E-02-1.27916E+00-1.59880E-13-4.64550E-14
 -1      1811 2.29506E+01 2.89379E-01-6.47299E-04-1.92959E+00-2.39939E-13 2.06864E-14
 -1      1812 2.14072E+01 5.78875E-01 6.29156E-03-9.11974E-01-1.59452E-13-1.01173E-13
 -1      1813 2.11840E+01 6.82222E-01 2.08420E-02-5.50256E-01-1.57376E-13-1.63245E-13
 -1      1814 2.22626E+01 7.48101E-01-1.41400E-02-1.37796E+00-2.02192E-13-9.64393E-14
 -1      1815 2.10704E+01 7.11759E-01 1.64914E-02-4.43245E-02-1.84297E-13-2.08924E-13
 -1      1816 2.10903E+01 6.62827E-01 8.76067E-03 3.49017E-01-1.58368E-13-2.46763E-13
 -1      1817 2.18414E+01 1.01215E+00-2.38800E-02-3.92049E-01-2.06462E-13-2.06706E-13
 -1      1818 2.12007E+01 5.50070E-01 2.24332E-02 7.84903E-01-1.50649E-13-2.63272E-13
 -1      1819 2.14312E+01 3.76790E-01-2.92502E-03 1.04994E+00-1.33250E-13-3.03505E-13
 -1      1820 2.18396E+01 8.84066E-01-1.86181E-02 6.75331E-01-1.80848E-13-3.01256E-13
 -1      1821 2.16565E+01 1.94100E-01 1.67108E-02 1.24636E+00-1.55336E-13-3.48519E-13
 -1      1822 2.19962E+01 2.00890E-03-7.95683E-03 1.30283E+00-9.35813E-14-3.31827E-13
 -1      1823 2.21726E+01 4.30728E-01-2.78692E-03 1.37935E+00-1.55034E-13-3.77925E-13
 -1      1824 2.21879E+01-1.49483E-01 2.59066E-03 1.23880E+00-1.10701E-13-3.79515E-13
 -1      1825 2.25175E+01-2.71290E-01-7.24259E-03 1.11958E+00-9.88632E-14-4.90588E-13
 -1      1826 2.25804E+01-8.92988E-02 8.80511E-03 1.50727E+00-1.72796E-13-4.25454E-13
 -1      1827 2.25945E+01-3.41151E-01-1.05120E-02 8.94371E-01-7.99439E-14-4.95277E-13
 -1      1828 2.28275E+01-3.71725E-01-4.45618E-03 6.91429E-01-2.65794E-14-5.40689E-13
 -1      1829 2.28397E+01-4.37766E-01 1.11603E-02 1.16623E+00-1.21568E-13-4.59429E-13
 -1      1830 2.27888E+01-3.69261E-01-1.69179E-02 4.27400E-01-4.05700E-14-5.41271E-13
 -1      1831 2.28909E+01-3.37008E-01-2.29167E-03 2.25170E-01-2.18072E-14-5.52826E-13
 -1      1832 2.28757E+01-5.44340E-01 7.74744E-03 6.15452E-01-4.44861E-14-4.30915E-13
 -1      1833 2.27741E+01-2.96109E-01-1.66468E-02 3.72972E-03 2.67711E-14-5.29435E-13
 -1      1834 2.27547E+01-2.39493E-01-1.05449E-03-1.50801E-01 3.02935E-14-4.06009E-13
 -1      1835 2.27255E+01-4.73429E-01 3.46611E-03 7.99382E-02 4.03909E-14-4.16240E-13
 -1      1836 2.25987E+01-1.89996E-01-1.25692E-02-2.99089E-01-3.37885E-14-3.10025E-13
 -1      1837 2.24899E+01-1.35384E-01-3.87417E-04-3.93905E-01 3.03316E-15-2.96665E-13
 -1      1838 2.24613E+01-3.26275E-01 5.68906E-04-3.22570E-01 5.60394E-14-2.91833E-13
 -1      1839 2.23220E+01-9.33408E-02-7.51395E-03-4.71744E-01-2.72542E-14-3.43448E-13
 -1      1840 2.21605E+01-5.20657E-02 6.74952E-05-5.14791E-01-6.00119E-14-3.22113E-13
 -1      1841 2.21451E+01-1.77396E-01-9.97772E-04-5.66092E-01-3.60319E-14-2.41112E-13
 -1      1842 2.19967E+01-2.25199E-02-3.09854E-03-5.38850E-01-7.67177E-14-3.36767E-13
 -1      1843 2.18138E+01 3.82135E-03 4.53054E-04-5.45027E-01-5.78429E-14-3.75935E-13
 -1      1844 2.18183E+01-6.12946E-02-1.72618E-03-6.73801E-01-6.26070E-14-3.00307E-13
 -1      1845 2.16628E+01 2.16817E-02 8.23179E-05-5.34034E-01-8.00959E-14-3.86753E-13
 -1      1846 2.14808E+01 3.58124E-02 7.71832E-04-5.17774E-01-1.86788E-14-3.61726E-13
 -1      1847 2.15055E+01 1.50498E-02-2.01557E-03-6.84898E-01-7.59956E-14-2.36616E-13
 -1      1848 2.13468E+01 4.48556E-02 2.03214E-03-4.87253E-01 1.98385E-14-4.01405E-13
 -1      1849 2.11794E+01 5.04958E-02 9.93650E-04-4.59669E-01 4.10132E-15-3.97975E-13
 -1      1850 2.12205E+01 5.77145E-02-2.08743E-03-6.36762E-01-1.94603E-14-2.58288E-13
 -1      1851 2.10639E+01 5.36929E-02 3.00669E-03-4.20657E-01 6.15426E-15-3.94791E-13
 -1      1852 2.09180E+01 5.40914E-02 1.10788E-03-3.89210E-01 7.88566E-14-3.42769E-13
 -1      1853 2.09699E+01 7.63739E-02-2.04092E-03-5.58280E-01 9.65048E-15-2.99769E-13
 -1      1854 2.08209E+01 5.38004E-02 3.30982E-03-3.48736E-01 1.19057E-13-3.82386E-13
 -1      1855 2.06988E+01 5.13319E-02 1.12634E-03-3.17902E-01 1.44155E-13-2.93869E-13
 -1      1856 2.07559E+01 7.98595E-02-1.91970E-03-4.69117E-01 8.38545E-14-3.18864E-13
 -1      1857 2.06191E+01 4.91949E-02 3.20191E-03-2.79984E-01 1.13570E-13-2.42156E-13
 -1      1858 2.05201E+01 4.54210E-02 1.07287E-03-2.52129E-01 3.05660E-14-2.79380E-13
 -1      1859 2.05777E+01 7.47904E-02-1.74895E-03-3.81329E-01 1.45792E-13-2.72239E-13
 -1      1860 2.04559E+01 4.24875E-02 2.87439E-03-2.18745E-01-9.51707E-14-1.90187E-13
 -1      1861 2.03778E+01 3.83544E-02 9.73436E-04-1.94874E-01-5.75284E-14-2.25565E-13
 -1      1862 2.04325E+01 6.56026E-02-1.54854E-03-3.01486E-01 7.72115E-15-2.66359E-13
 -1      1863 2.03272E+01 3.52486E-02 2.45450E-03-1.66717E-01 1.78657E-14-2.50458E-13
 -1      1864 2.02671E+01 3.12838E-02 8.50362E-04-1.47021E-01 1.17487E-13-2.07305E-13
 -1      1865 2.03168E+01 5.50339E-02-1.33586E-03-2.32528E-01-1.27200E-14-1.13658E-13
 -1      1866 2.02279E+01 2.83481E-02 2.01991E-03-1.24036E-01 1.01596E-13-2.57072E-13
 -1      1867 2.01828E+01 2.48120E-02 7.20343E-04-1.08263E-01 9.42825E-14-3.04664E-13
 -1      1868 2.02264E+01 4.46451E-02-1.12525E-03-1.75165E-01 7.00665E-14-3.18435E-13
 -1      1869 2.01531E+01 2.22121E-02 1.61378E-03-8.99968E-02 1.20389E-14-3.79691E-13
 -1      1870 2.01199E+01 1.92043E-02 5.94555E-04-7.76818E-02-1.26573E-13-4.46779E-13
 -1      1871 2.01571E+01 3.52372E-02-9.27249E-04-1.28839E-01 5.48943E-14-4.04858E-13
 -1      1872 2.00979E+01 1.69995E-02 1.25683E-03-6.35054E-02-1.83679E-13-4.64238E-13
 -1      1873 2.00742E+01 1.45278E-02 4.79653E-04-5.41109E-02-2.06974E-13-4.70500E-13
 -1      1874 2.01050E+01 2.71462E-02-7.48571E-04-9.23558E-02-1.24637E-13-4.45818E-13
 -1      1875 2.00582E+01 1.27173E-02 9.56044E-04-4.33512E-02-1.92329E-13-3.13337E-13
 -1      1876 2.00418E+01 1.07413E-02 3.78956E-04-3.63456E-02-4.42227E-14-3.30487E-13
 -1      1877 2.00668E+01 2.04386E-02-5.92624E-04-6.42723E-02-1.41696E-13-2.40284E-13
 -1      1878 2.00304E+01 9.29309E-03 7.10553E-04-2.83595E-02 6.11233E-14-3.63946E-13
 -1      1879 2.00194E+01 7.75041E-03 2.93503E-04-2.32574E-02 1.18546E-13-2.82422E-13
 -1      1880 2.00394E+01 1.50350E-02-4.60295E-04-4.31259E-02-3.60549E-14-1.93824E-13
 -1      1881 2.00117E+01 6.61799E-03 5.15381E-04-1.74688E-02 1.16338E-13-3.44110E-13
 -1      1882 2.00047E+01 5.43979E-03 2.22880E-04-1.38491E-02 2.74651E-14-3.03189E-13
 -1      1883 2.00203E+01 1.07864E-02-3.50717E-04-2.75588E-02 8.88735E-14-2.93316E-13
 -1      1884 1.99996E+01 4.57295E-03 3.63771E-04-9.76399E-03-1.02574E-14-2.24303E-13
 -1      1885 1.99955E+01 3.69241E-03 1.65838E-04-7.27426E-03 1.25940E-13-1.93687E-13
 -1      1886 2.00075E+01 7.51897E-03-2.61947E-04-1.63766E-02 1.49583E-13-9.50098E-14
 -1      1887 1.99923E+01 3.04269E-03 2.48547E-04-4.48201E-03 1.04901E-13-1.72358E-13
 -1      1888 1.99902E+01 2.39940E-03 1.20717E-04-2.83528E-03 6.33360E-14-7.43106E-14
 -1      1889 1.99992E+01 5.05940E-03-1.91479E-04-8.56771E-03 1.11064E-13-2.53997E-13
 -1      1890 1.99884E+01 1.92303E-03 1.62875E-04-1.00359E-03-4.22624E-14-7.88485E-14
 -1      1891 1.99876E+01 1.46476E-03 8.57265E-05 2.83158E-05-3.20364E-14-2.32635E-13
 -1      1892 1.99943E+01 3.24840E-03-1.36615E-04-3.30000E-03 1.39964E-14-9.55052E-14
 -1      1893 1.99868E+01 1.12389E-03 1.00639E-04 1.16249E-03-1.02487E-13-3.44232E-13
 -1      1894 1.99869E+01 8.06969E-04 5.91201E-05 1.75717E-03-1.66766E-13-3.35929E-13
 -1      1895 1.99916E+01 1.94665E-03-9.47167E-05 9.44488E-05-1.48212E-13-3.09078E-13
 -1      1896 1.99866E+01 5.69914E-04 5.65939E-05 2.39779E-03-2.29748E-13-4.09317E-13
 -1      1897 1.99872E+01 3.58777E-04 3.92975E-05 2.69072E-03-2.30237E-13-5.86572E-13
 -1      1898 1.99906E+01 1.03660E-03-6.33493E-05 2.14042E-03-2.68248E-13-5.00329E-13
 -1      1899 1.99874E+01 1.99657E-04 2.63782E-05 2.99277E-03-1.45537E-13-4.96351E-13
 -1      1900 1.99883E+01 6.59850E-05 2.48507E-05 3.08519E-03-2.74685E-14-4.50262E-13
 -1      1901 1.99905E+01 4.21751E-04-4.03605E-05 3.24191E-03-1.83514E-13-3.39925E-13
 -1      1902 1.99886E+01-3.58600E-05 6.45737E-06 3.16402E-03 6.43411E-14-4.82927E-13
 -1      1903 1.99896E+01-1.14171E-04 1.45801E-05 3.12995E-03 1.24220E-13-4.39384E-13
 -1      1904 1.99911E+01 2.47077E-05-2.39087E-05 3.70370E-03 4.23068E-16-2.66745E-13
 -1      1905 1.99901E+01-1.74917E-04-5.97092E-06 3.06957E-03 2.64892E-13-3.65354E-13
 -1      1906 1.99911E+01-2.14794E-04 7.48808E-06 2.96178E-03 2.80860E-13-1.48628E-13
 -1      1907 1.99920E+01-2.15335E-04-1.24588E-05 3.75097E-03 2.54117E-13-2.26234E-13
 -1      1908 1.99917E+01-2.46876E-04-1.30843E-05 2.82179E-03 2.58515E-13-1.34194E-13
 -1      1909 1.99926E+01-2.61049E-04 2.76068E-06 2.67685E-03 2.79873E-13-1.07844E-13
 -1      1910 1.99931E+01-3.45257E-04-4.75994E-06 3.54622E-03 2.52802E-13-1.96817E-14
 -1      1911 1.99931E+01-2.73866E-04-1.65426E-05 2.49821E-03 2.90477E-13-4.05622E-14
 -1      1912 1.99940E+01-2.71746E-04-2.56665E-07 2.34045E-03 1.97549E-13-2.37942E-15
 -1      1913 1.99942E+01-4.00564E-04 1.86879E-07 3.20355E-03 3.23356E-13-1.89410E-14
 -1      1914 1.99945E+01-2.72294E-04-1.75864E-05 2.15018E-03 4.35719E-14 1.95890E-14
 -1      1915 1.99952E+01-2.60736E-04-2.08598E-06 1.99487E-03-4.39621E-15-1.51400E-14
 -1      1916 1.99952E+01-4.07698E-04 3.16482E-06 2.80035E-03 1.09615E-13-4.44496E-14
 -1      1917 1.99956E+01-2.54167E-04-1.71239E-05 1.80962E-03-7.71417E-14 8.27047E-15
 -1      1918 1.99963E+01-2.38123E-04-3.14314E-06 1.66541E-03-2.88343E-14 9.92686E-14
 -1      1919 1.99961E+01-3.86085E-04 4.77577E-06 2.38650E-03 2.90562E-14-1.09286E-13
 -1      1920 1.99966E+01-2.28227E-04-1.58016E-05 1.49425E-03 1.36231E-13 9.28269E-14
 -1      1921 1.99972E+01-2.11300E-04-3.75861E-06 1.36496E-03 2.15369E-13 2.09659E-13
 -1      1922 1.99970E+01-3.49891E-04 5.47073E-06 1.99168E-03 6.21274E-14-3.94703E-15
 -1      1923 1.99975E+01-2.00910E-04-1.40567E-05 1.21142E-03 1.53157E-13 3.36044E-13
 -1      1924 1.99979E+01-1.85785E-04-4.17575E-06 1.09727E-03 1.23859E-13 4.68157E-13
 -1      1925 1.99977E+01-3.09515E-04 5.57795E-06 1.63070E-03 2.16520E-13 1.43606E-13
 -1      1926 1.99982E+01-1.77068E-04-1.21415E-05 9.60850E-04 1.84822E-13 5.60324E-13
 -1      1927 1.99985E+01-1.65796E-04-4.52366E-06 8.59363E-04 2.78955E-13 6.56499E-13
 -1      1928 1.99983E+01-2.72721E-04 5.33677E-06 1.30758E-03 2.38675E-13 3.12738E-13
 -1      1929 1.99987E+01-1.60411E-04-1.01329E-05 7.36761E-04 5.49117E-14 5.37039E-13
 -1      1930 1.99990E+01-1.54497E-04-4.80958E-06 6.43583E-04-4.42583E-14 4.18671E-13
 -1      1931 1.99987E+01-2.45398E-04 4.87456E-06 1.01866E-03 1.05096E-13 6.40760E-13
 -1      1932 1.99992E+01-1.52993E-04-7.88901E-06 5.29873E-04-8.50096E-14 1.94660E-13
 -1      1933 1.99993E+01-1.51873E-04-4.83853E-06 4.40050E-04-1.81056E-13 1.07512E-13
 -1      1934 1.99991E+01-2.31574E-04 4.03870E-06 7.55581E-04-2.73691E-13 2.32615E-13
 -1      1935 1.99995E+01-1.48850E-04-6.05911E-06 3.37375E-04-1.64188E-13 3.36582E-14
 -1      1936 1.99996E+01-1.46898E-04-5.10378E-06 2.52145E-04-1.16635E-13-1.30889E-14
 -1      1937 1.99996E+01-1.99495E-04 3.29367E-06 3.00222E-04-2.77585E-13-1.06041E-13
 -1      1938 1.99994E+01-2.20676E-04 5.07904E-06 5.15437E-04-2.25199E-13 1.88635E-13
 -1      1939 2.48785E+01-2.05586E-01 5.67976E-03 1.42373E+00 1.97257E-13 6.60725E-13
 -1      1940 2.55059E+01-1.72838E-01 1.04904E-02 1.29776E+00 2.03771E-13 7.21811E-13
 -1      1941 2.55190E+01-1.69248E-01 4.93516E-03 1.61735E+00 2.52800E-13 5.37976E-13
 -1      1942 2.37932E+01-1.06118E-01 1.08833E-02 1.70378E+00 2.10697E-13 5.89081E-13
 -1      1943 2.44438E+01-1.82273E-01 8.67907E-03 1.55232E+00 1.94848E-13 6.42008E-13
 -1      1944 2.46938E+01-2.38354E-01 1.24489E-02 1.88418E+00 2.28351E-13 4.94131E-13
 -1      1945 2.26470E+01 1.93840E-01 9.20438E-03 1.65339E+00 1.29684E-13 4.60118E-13
 -1      1946 2.32960E+01 4.70022E-02 5.17447E-03 1.66894E+00 1.88292E-13 5.35407E-13
 -1      1947 2.37713E+01 3.31137E-02 7.93924E-03 2.05117E+00 2.29824E-13 4.46657E-13
 -1      1948 2.16969E+01 5.25428E-01-2.35325E-03 1.03441E+00 6.85164E-14 2.73006E-13
 -1      1949 2.22066E+01 4.02285E-01 6.20636E-03 1.32274E+00 1.01202E-13 3.55251E-13
 -1      1950 2.28368E+01 4.94803E-01-8.03867E-03 1.70131E+00 1.54463E-13 3.31143E-13
 -1      1951 2.13034E+01 6.40397E-01-1.53427E-02-1.18918E-02 1.22907E-13 1.27150E-13
 -1      1952 2.15068E+01 6.44153E-01 1.08842E-02 4.68559E-01 1.11598E-13 1.73588E-13
 -1      1953 2.21866E+01 8.52501E-01-2.21990E-02 7.17703E-01 1.53912E-13 1.32737E-13
 -1      1954 2.16174E+01 4.37059E-01-1.64070E-02-9.90688E-01 1.66585E-13 2.33494E-14
 -1      1955 2.14471E+01 5.75326E-01 1.32113E-02-5.51494E-01 1.67068E-13 8.17124E-14
 -1      1956 2.20957E+01 8.32052E-01-1.95541E-02-5.31398E-01 1.97738E-13-1.13364E-14
 -1      1957 2.24007E+01 7.09799E-02-4.36032E-03-1.44564E+00 2.06571E-13-1.19037E-13
 -1      1958 2.19600E+01 2.45612E-01 8.59313E-03-1.24314E+00 1.81802E-13-6.80012E-15
 -1      1959 2.25221E+01 4.34375E-01-4.65863E-03-1.43243E+00 2.16653E-13-1.03801E-13
 -1      1960 2.32172E+01-2.21955E-01 8.93179E-03-1.29665E+00 5.65533E-14-2.29551E-13
 -1      1961 2.27146E+01-1.11430E-01-7.41690E-04-1.35409E+00 1.60156E-13-1.48400E-13
 -1      1962 2.31274E+01-7.03392E-02 5.44463E-03-1.63156E+00 1.91898E-13-1.84757E-13
 -1      1963 2.37450E+01-3.32891E-01 1.40986E-02-7.87800E-01-1.15932E-14-2.21456E-13
 -1      1964 2.33638E+01-3.12692E-01-8.87958E-03-9.96663E-01 1.08073E-15-2.26335E-13
 -1      1965 2.35739E+01-4.05908E-01 4.43628E-03-1.23438E+00 2.08496E-14-2.64669E-13
 -1      1966 2.38916E+01-2.97565E-01 1.14250E-02-2.21052E-01-8.20437E-15-1.64305E-13
 -1      1967 2.37147E+01-3.35489E-01-1.23387E-02-4.55252E-01-8.30586E-15-1.53862E-13
 -1      1968 2.37193E+01-4.88618E-01-1.08282E-03-5.84743E-01-2.38021E-14-2.58695E-13
 -1      1969 2.37217E+01-2.00317E-01 6.09317E-03 2.20014E-01 7.89672E-14-2.05713E-13
 -1      1970 2.37400E+01-2.54992E-01-1.14159E-02 3.59077E-02 4.03410E-14-1.66393E-13
 -1      1971 2.35900E+01-3.97210E-01-4.19222E-03 2.10874E-02 5.45891E-14-2.06652E-13
 -1      1972 2.33497E+01-1.02226E-01 1.57931E-03 4.84821E-01 8.57040E-14-1.68495E-13
 -1      1973 2.35080E+01-1.49354E-01-8.20530E-03 3.72311E-01 7.78353E-14-1.82440E-13
 -1      1974 2.32750E+01-2.47460E-01-4.33943E-03 4.45559E-01 8.04192E-14-1.82985E-13
 -1      1975 2.28806E+01-2.91711E-02-1.03616E-03 5.97527E-01-6.11746E-14-2.36713E-13
 -1      1976 2.31162E+01-6.08386E-02-4.50886E-03 5.47496E-01 5.94095E-14-1.47963E-13
 -1      1977 2.28623E+01-1.12078E-01-3.13731E-03 6.73824E-01 8.04235E-14-9.21672E-14
 -1      1978 2.23908E+01 1.54745E-02-2.04143E-03 6.06375E-01 4.88067E-14-3.36543E-13
 -1      1979 2.26531E+01-1.81551E-03-1.38077E-03 5.99516E-01-1.67305E-14-2.99470E-13
 -1      1980 2.24184E+01-1.73567E-02-1.81381E-03 7.48554E-01 3.91497E-14-2.00668E-13
 -1      1981 2.19277E+01 3.79242E-02-2.08853E-03 5.56195E-01 8.38155E-14-2.61625E-13
 -1      1982 2.21830E+01 3.08715E-02 7.96988E-04 5.74325E-01 1.02187E-13-3.07791E-13
 -1      1983 2.19869E+01 3.72951E-02-9.26555E-04 7.24719E-01 9.55328E-14-1.58556E-13
 -1      1984 2.15161E+01 4.59003E-02-1.71986E-03 4.79275E-01-6.10293E-14-1.61189E-13
 -1      1985 2.17458E+01 4.50689E-02 2.06645E-03 5.09123E-01 8.46372E-15-1.91838E-13
 -1      1986 2.15933E+01 6.25090E-02-4.89317E-04 6.48102E-01-9.38355E-15-1.38570E-13
 -1      1987 2.11660E+01 4.55970E-02-1.25116E-03 3.95681E-01-1.56621E-13-2.87623E-14
 -1      1988 2.13622E+01 4.80434E-02 2.63333E-03 4.28890E-01-1.04220E-13-1.00585E-13
 -1      1989 2.12500E+01 6.93415E-02-3.46062E-04 5.50175E-01-9.27125E-14-6.47377E-14
 -1      1990 2.08777E+01 4.11749E-02-8.26673E-04 3.16406E-01-2.12386E-13 5.63992E-14
 -1      1991 2.10390E+01 4.50277E-02 2.73141E-03 3.48318E-01-1.77137E-13 1.86523E-14
 -1      1992 2.09607E+01 6.61208E-02-3.44917E-04 4.49941E-01-1.99764E-13 1.04916E-13
 -1      1993 2.06465E+01 3.51413E-02-4.93436E-04 2.46580E-01-1.95877E-13 1.02386E-13
 -1      1994 2.07753E+01 3.93260E-02 2.55642E-03 2.74956E-01-2.30998E-13 1.31255E-13
 -1      1995 2.07236E+01 5.82334E-02-3.87088E-04 3.57497E-01-2.55899E-13 1.92924E-13
 -1      1996 2.04653E+01 2.88787E-02-2.53197E-04 1.87883E-01 3.72005E-14 2.46107E-13
 -1      1997 2.05656E+01 3.28384E-02 2.24780E-03 2.11921E-01-3.66981E-14 1.93626E-13
 -1      1998 2.05337E+01 4.88221E-02-4.22973E-04 2.77285E-01-1.01405E-13 2.61687E-13
 -1      1999 2.03260E+01 2.30762E-02-9.08835E-05 1.40140E-01-7.00775E-14 1.44277E-13
 -1      2000 2.04026E+01 2.65620E-02 1.89433E-03 1.59826E-01-5.91302E-15 2.17137E-13
 -1      2001 2.03848E+01 3.95567E-02-4.34985E-04 2.10455E-01-3.84827E-15 3.29715E-13
 -1      2002 2.02212E+01 1.80244E-02 1.20179E-05 1.02281E-01 5.48876E-14 8.50474E-14
 -1      2003 2.02784E+01 2.09587E-02 1.54710E-03 1.17992E-01-2.36971E-14 7.88045E-14
 -1      2004 2.02703E+01 3.12230E-02-4.22304E-04 1.56410E-01-9.93671E-15 1.95500E-13
 -1      2005 2.01439E+01 1.37974E-02 7.21761E-05 7.28987E-02 1.39519E-14 6.65586E-14
 -1      2006 2.01857E+01 1.61916E-02 1.23224E-03 8.51692E-02 3.06816E-14 9.15794E-14
 -1      2007 2.01840E+01 2.41110E-02-3.90890E-04 1.13732E-01 2.74254E-14 1.70181E-13
 -1      2008 2.00881E+01 1.03596E-02 1.02915E-04 5.05392E-02 1.32017E-14 7.03457E-14
 -1      2009 2.01179E+01 1.22667E-02 9.60589E-04 5.99371E-02-8.86959E-15 8.32872E-14
 -1      2010 2.01202E+01 1.82500E-02-3.48098E-04 8.07214E-02-2.31356E-14 4.91379E-14
 -1      2011 2.00489E+01 7.62579E-03 1.14244E-04 3.38495E-02 7.34005E-16 7.10537E-14
 -1      2012 2.00696E+01 9.11423E-03 7.34159E-04 4.09119E-02 3.44738E-14 8.36856E-14
 -1      2013 2.00741E+01 1.35436E-02-3.00326E-04 5.56774E-02 3.33360E-15 1.05216E-13
 -1      2014 2.00221E+01 5.49343E-03 1.13391E-04 2.16416E-02-2.87259E-16-1.45725E-14
 -1      2015 2.00360E+01 6.63373E-03 5.50324E-04 2.68458E-02 4.20044E-15 3.25045E-14
 -1      2016 2.00415E+01 9.84337E-03-2.52308E-04 3.70415E-02 3.37259E-14 7.35338E-14
 -1      2017 2.00046E+01 3.85996E-03 1.05418E-04 1.29106E-02 1.23132E-13-6.01949E-14
 -1      2018 2.00135E+01 4.71774E-03 4.04278E-04 1.66640E-02 5.18329E-14 4.82836E-14
 -1      2019 2.00193E+01 6.98839E-03-2.07139E-04 2.34561E-02 7.10894E-14 4.17988E-14
 -1      2020 1.99937E+01 2.63093E-03 9.37686E-05 6.82886E-03 1.80647E-13 5.59121E-14
 -1      2021 1.99990E+01 3.26399E-03 2.90471E-04 9.46979E-03 1.88023E-13 4.13130E-14
 -1      2022 2.00046E+01 4.82500E-03-1.66582E-04 1.37781E-02 1.92654E-13 9.05577E-14
 -1      2023 1.99875E+01 1.72352E-03 8.07090E-05 2.72943E-03-4.75386E-14-1.40253E-14
 -1      2024 1.99904E+01 2.18104E-03 2.03397E-04 4.53234E-03 7.48254E-14 1.12611E-13
 -1      2025 1.99955E+01 3.21567E-03-1.31427E-04 7.06933E-03 6.33726E-14 2.62482E-13
 -1      2026 1.99846E+01 1.06741E-03 6.76684E-05 8.46001E-05-1.78196E-13 3.13594E-14
 -1      2027 1.99858E+01 1.39015E-03 1.37989E-04 1.26808E-03-1.55326E-13-8.26757E-14
 -1      2028 1.99902E+01 2.04214E-03-1.01800E-04 2.57582E-03-8.58552E-14 1.31632E-14
 -1      2029 1.99838E+01 6.04382E-04 5.54912E-05-1.51589E-03-1.51520E-13 8.59928E-14
 -1      2030 1.99839E+01 8.25408E-04 8.98018E-05-7.80793E-04-1.98981E-13 8.10219E-14
 -1      2031 1.99877E+01 1.20559E-03-7.74183E-05-2.97484E-04-2.11670E-13 1.13102E-13
 -1      2032 1.99844E+01 2.87148E-04 4.46231E-05-2.38562E-03 2.96105E-14-9.77574E-14
 -1      2033 1.99838E+01 4.32825E-04 5.50587E-05-1.96733E-03 8.10786E-14 1.07831E-13
 -1      2034 1.99870E+01 6.25182E-04-5.77704E-05-2.01209E-03-8.06949E-15-5.16248E-14
 -1      2035 1.99857E+01 7.80046E-05 3.52448E-05-2.76010E-03 2.11049E-13-3.50879E-13
 -1      2036 1.99848E+01 1.68989E-04 3.06286E-05-2.55912E-03 6.29502E-14-2.09102E-13
 -1      2037 1.99873E+01 2.36061E-04-4.22403E-05-2.91981E-03 1.45345E-13-1.10332E-13
 -1      2038 1.99874E+01-5.26232E-05 2.73677E-05-2.81286E-03 6.68949E-14-4.64339E-13
 -1      2039 1.99863E+01-4.08165E-07 1.39696E-05-2.75536E-03 2.05693E-13-3.77046E-13
 -1      2040 1.99884E+01-1.29632E-05-3.01906E-05-3.28411E-03 2.82081E-13-2.73417E-13
 -1      2041 1.99893E+01-1.27560E-04 2.09008E-05-2.66907E-03-2.15684E-13-2.89037E-13
 -1      2042 1.99881E+01-1.02044E-04 3.05497E-06-2.70136E-03-6.44697E-14-3.59544E-13
 -1      2043 1.99897E+01-1.61628E-04-2.10127E-05-3.29846E-03-1.04524E-13-3.51254E-13
 -1      2044 1.99911E+01-1.64143E-04 1.56957E-05-2.41674E-03-1.44808E-13-6.75286E-14
 -1      2045 1.99900E+01-1.56331E-04-3.70390E-06-2.50069E-03-2.51311E-13-3.07658E-13
 -1      2046 1.99912E+01-2.40292E-04-1.41550E-05-3.10185E-03-2.25659E-13-2.13159E-13
 -1      2047 1.99927E+01-1.75336E-04 1.15768E-05-2.11578E-03-2.11251E-13 1.37144E-13
 -1      2048 1.99918E+01-1.78645E-04-7.53302E-06-2.22514E-03-1.33481E-13-3.35062E-14
 -1      2049 1.99927E+01-2.71780E-04-9.13487E-06-2.79149E-03-2.25154E-13 9.35599E-15
 -1      2050 1.99942E+01-1.70696E-04 8.35895E-06-1.80518E-03-5.12627E-14-3.46185E-14
 -1      2051 1.99934E+01-1.80390E-04-9.36419E-06-1.92260E-03-7.60508E-14 2.44444E-14
 -1      2052 1.99940E+01-2.72988E-04-5.54237E-06-2.43307E-03-1.12460E-13-3.73684E-14
 -1      2053 1.99955E+01-1.57195E-04 5.85815E-06-1.50858E-03 2.47750E-13-2.40070E-13
 -1      2054 1.99948E+01-1.69923E-04-9.89585E-06-1.62328E-03 1.16952E-13-1.78047E-13
 -1      2055 1.99953E+01-2.56253E-04-3.03677E-06-2.06881E-03 1.11478E-13-1.92840E-13
 -1      2056 1.99966E+01-1.39918E-04 3.89874E-06-1.23837E-03 1.70389E-14-1.93207E-13
 -1      2057 1.99960E+01-1.53327E-04-9.64233E-06-1.34449E-03 3.00400E-14-2.95249E-13
 -1      2058 1.99963E+01-2.30513E-04-1.33953E-06-1.72370E-03 7.94099E-14-2.88067E-13
 -1      2059 1.99975E+01-1.22656E-04 2.32089E-06-9.98792E-04 1.55350E-13-2.77331E-13
 -1      2060 1.99970E+01-1.35074E-04-8.97299E-06-1.09408E-03 1.66925E-13-1.82606E-13
 -1      2061 1.99972E+01-2.02278E-04-2.23334E-07-1.41013E-03 1.10763E-13-3.43477E-13
 -1      2062 1.99982E+01-1.08395E-04 1.00737E-06-7.87937E-04-1.16500E-13-1.00730E-13
 -1      2063 1.99978E+01-1.18580E-04-8.13207E-06-8.72977E-04 1.90956E-13-1.34615E-13
 -1      2064 1.99979E+01-1.76449E-04 4.97829E-07-1.13126E-03 9.52711E-14-4.69030E-14
 -1      2065 1.99988E+01-9.94279E-05-1.24196E-08-5.99169E-04-2.40690E-13-2.30983E-13
 -1      2066 1.99985E+01-1.06579E-04-7.23115E-06-6.76886E-04-2.69335E-13-2.50029E-13
 -1      2067 1.99985E+01-1.56882E-04 9.92326E-07-8.83384E-04-1.65085E-13 4.60134E-14
 -1      2068 1.99992E+01-9.68885E-05-5.70697E-07-4.23392E-04 5.93049E-14-3.96302E-13
 -1      2069 1.99990E+01-1.00655E-04-6.16840E-06-4.98022E-04-5.08082E-15-3.03494E-13
 -1      2070 1.99990E+01-1.45711E-04 1.54353E-06-6.58147E-04-3.21033E-14-2.77420E-13
 -1      2071 1.99995E+01-1.00179E-04-2.03698E-06-2.52944E-04 2.17065E-13-3.52457E-13
 -1      2072 1.99994E+01-1.00239E-04-4.60447E-06-3.27911E-04 2.28617E-13-3.59960E-13
 -1      2073 1.99993E+01-1.43914E-04 1.80287E-06-4.46341E-04 1.22158E-13-2.94410E-13
 -1      2074 1.99997E+01-9.89191E-05-3.61539E-06-1.29492E-04-5.95401E-14-4.06579E-13
 -1      2075 1.99996E+01-1.05573E-04-3.22606E-06-2.00512E-04 2.20376E-13-2.63673E-13
 -1      2076 1.99996E+01-1.49281E-04 1.69492E-06-2.83948E-04 1.63434E-13 1.29994E-13
 -1      2077 1.99997E+01-1.45598E-04-7.76736E-08-1.69114E-04-2.45802E-13 2.93233E-13
 -1      2078 1.99998E+01-9.14145E-04 2.09767E-06-5.03326E-04 1.12062E-13 7.86242E-13
 -1      2079 1.99998E+01-7.53154E-04-3.04265E-06-4.87855E-04-9.60465E-14 7.62807E-13
 -1      2080 1.99997E+01-6.02663E-04 4.82120E-07-4.49684E-04-1.06535E-13 8.06091E-13
 -1      2081 1.99997E+01-4.59114E-04-3.80177E-06-3.97337E-04-2.61279E-13 8.10827E-13
 -1      2082 1.99997E+01-6.92317E-04 2.34637E-07-6.03308E-04-2.04743E-13 8.73091E-13
 -1      2083 1.99997E+01-3.49756E-04-7.86098E-07-3.26220E-04-2.11294E-13 5.12124E-13
 -1      2084 1.99997E+01-2.37767E-04-3.29732E-06-2.52376E-04-2.55017E-13 3.81261E-13
 -1      2085 1.99996E+01-2.43338E-04-2.17299E-06-3.13070E-04-5.53986E-14 2.64199E-13
 -1      2086 1.99996E+01-4.38674E-04 1.61259E-06-4.78454E-04-7.39682E-14 6.88307E-13
 -1      2087 1.99998E+01-1.21403E-03 3.76317E-06-4.78805E-04-1.56448E-13-3.79507E-13
 -1      2088 1.99998E+01-1.05917E-03-7.41713E-07-4.97733E-04-1.04015E-13 3.82720E-13
 -1      2089 1.99998E+01-9.85702E-04-1.35688E-06-6.37131E-04-2.02321E-13 4.19734E-13
 -1      2090 1.99999E+01-1.47450E-03 5.16483E-06-3.83352E-04 2.61155E-14-2.82250E-13
 -1      2091 1.99999E+01-1.34306E-03 1.65559E-06-4.32220E-04-4.29967E-14-3.00261E-13
 -1      2092 1.99999E+01-1.25944E-03-3.08502E-06-5.77231E-04-1.53807E-13-3.06658E-13
 -1      2093 1.99999E+01-1.65642E-03 5.96577E-06-2.33680E-04 8.33825E-14 1.54087E-13
 -1      2094 1.99999E+01-1.56971E-03 3.79174E-06-3.03922E-04 8.86141E-14 1.94605E-14
 -1      2095 2.00000E+01-1.48383E-03-4.57197E-06-4.34536E-04-5.47217E-14-1.52145E-13
 -1      2096 1.99999E+01-1.73667E-03 6.02639E-06-5.20709E-05-1.36943E-13-4.07428E-13
 -1      2097 1.99999E+01-1.70673E-03 5.30271E-06-1.33393E-04-6.31682E-14-9.63453E-14
 -1      2098 2.00000E+01-1.62967E-03-5.52363E-06-2.31865E-04-5.75178E-14-7.25469E-14
 -1      2099 1.99999E+01-1.70524E-03 5.29243E-06 1.36492E-04-7.24799E-14-1.87011E-13
 -1      2100 1.99999E+01-1.73621E-03 6.03213E-06 5.52752E-05-3.75683E-14-1.69963E-13
 -1      2101 2.00000E+01-1.67966E-03-5.84629E-06 2.03431E-06-4.09398E-13-1.09615E-13
 -1      2102 1.99999E+01-1.56640E-03 3.82807E-06 3.06456E-04 1.09929E-15-3.30575E-13
 -1      2103 1.99999E+01-1.65412E-03 5.92060E-06 2.36549E-04-8.53381E-14-2.83157E-13
 -1      2104 2.00000E+01-1.62791E-03-5.49141E-06 2.35656E-04-2.02021E-13-3.14931E-13
 -1      2105 1.99999E+01-1.34295E-03 1.68444E-06 4.32154E-04-1.36799E-13-3.80732E-13
 -1      2106 1.99999E+01-1.47250E-03 5.12904E-06 3.84327E-04-4.73319E-15-3.67152E-13
 -1      2107 2.00000E+01-1.48225E-03-4.60779E-06 4.36215E-04-1.20727E-13-2.59785E-13
 -1      2108 1.99998E+01-1.05637E-03-7.84938E-07 4.97856E-04-1.05131E-13 2.87082E-13
 -1      2109 1.99998E+01-1.21401E-03 3.77499E-06 4.78882E-04-6.76237E-14 3.64833E-15
 -1      2110 1.99999E+01-1.25932E-03-3.05666E-06 5.77284E-04-1.30069E-14-7.63105E-14
 -1      2111 1.99998E+01-7.47462E-04-3.03683E-06 4.87049E-04-1.31099E-13 7.35156E-14
 -1      2112 1.99998E+01-9.08711E-04 2.13130E-06 5.03125E-04-1.35948E-13 1.79147E-13
 -1      2113 1.99998E+01-9.82930E-04-1.19697E-06 6.37097E-04-6.29944E-15 3.30445E-13
 -1      2114 1.99997E+01-4.46996E-04-1.27978E-06 3.96701E-04-2.22162E-13-9.11392E-14
 -1      2115 1.99997E+01-5.97242E-04 5.84374E-07 4.47966E-04-1.71602E-13 1.00650E-14
 -1      2116 1.99997E+01-6.88177E-04 1.08314E-07 6.01074E-04-1.78516E-13-6.88706E-14
 -1      2117 1.11518E+01-4.24603E+00-1.04757E-01 6.69972E+00 4.64073E-13 5.22644E-13
 -1      2118 7.43004E+00-5.54367E+00-3.38648E-01 5.48327E+00 3.40061E-13 6.05085E-13
 -1      2119 1.05173E+00-4.73948E+00-2.34167E-01 7.06171E-01 1.38028E-13 8.93619E-13
 -1      2120 1.03427E+00-5.32297E+00-3.07473E-01-1.25467E+00-1.42802E-14 9.32920E-13
 -1      2121 4.59666E+00-5.12824E+00-2.46040E-01 4.69077E+00 4.25604E-13 7.86954E-13
 -1      2122 2.65060E+00-5.03525E+00-2.30836E-01 3.34093E+00 2.56684E-13 7.51121E-13
 -1      2123 8.38695E+00-4.26903E+00-8.44015E-02 6.04554E+00 4.44089E-16 5.25080E-13
 -1      2124 1.94395E+01-2.54101E+00 1.33425E-02 7.08681E+00 5.81923E-13 4.34153E-13
 -1      2125 1.47674E+01-4.27495E+00-3.02435E-01 6.38663E+00 5.51337E-13 4.30461E-13
 -1      2126 2.78909E+01 1.13698E-03 1.69182E-01 6.06179E+00 6.91669E-13 1.74027E-13
 -1      2127 2.31462E+01-1.77756E+00-1.55773E-01 5.96190E+00 5.98077E-13 2.81664E-13
 -1      2128 2.09590E+01 2.97990E+00-2.69603E-02-7.62934E-01-9.58660E-14-5.12389E-13
 -1      2129 2.18410E+01 3.06080E+00-3.74677E-02-1.28254E+00-1.75450E-13-4.61096E-13
 -1      2130 2.27428E+01 2.15408E+00-1.76167E-02-1.60432E+00-2.11530E-13-3.60628E-13
 -1      2131 2.09113E+01 2.15043E+00-2.56408E-02-4.78306E-01-6.34753E-14-4.91298E-13
 -1      2132 3.93239E+01 5.83324E+00 3.86701E-01 2.20216E+00 8.56093E-13-4.65572E-13
 -1      2133 3.63481E+01 4.84557E+00 1.71457E-01 2.96356E+00 8.89344E-13-2.26319E-13
 -1      2134 4.01378E+01 6.98354E+00 3.19361E-01 4.64918E-01 9.58789E-13-7.06088E-13
 -1      2135 3.95231E+01 6.79835E+00 2.92019E-01 1.58973E+00 9.05609E-13-4.56440E-13
 -1      2136 3.82834E+01 6.06808E+00 1.87865E-01-8.54800E-01 1.13021E-12-8.90621E-13
 -1      2137 4.02105E+01 6.68011E+00 3.61657E-01 1.58013E-01 1.03761E-12-7.52481E-13
 -1      2138 3.39895E+01 3.22098E+00 4.53872E-02-2.43902E+00 1.10434E-12-1.07991E-12
 -1      2139 3.73904E+01 4.50678E+00 2.73497E-01-1.57551E+00 1.11219E-12-9.16267E-13
 -1      2140 2.73944E+01 7.17391E-02-1.19497E-01-4.27508E+00 1.04272E-12-1.19044E-12
 -1      2141 3.19710E+01 1.48866E+00 1.57807E-01-3.85330E+00 1.04289E-12-1.14769E-12
 -1      2142 1.90748E+01-2.15948E+00-2.49941E-01-5.57938E+00 9.21152E-13-1.21952E-12
 -1      2143 2.40452E+01-7.81694E-01 3.10475E-02-5.88673E+00 1.03878E-12-1.30385E-12
 -1      2144 1.03516E+01-3.31980E+00-3.49036E-01-5.38976E+00 7.27418E-13-1.25193E-12
 -1      2145 1.48029E+01-2.28116E+00-9.65571E-02-6.39880E+00 8.44991E-13-1.26348E-12
 -1      2146 3.93524E+00-3.82299E+00-4.00625E-01-3.70408E+00 4.88498E-13-1.18638E-12
 -1      2147 6.67106E+00-2.88714E+00-2.35740E-01-4.97929E+00 7.74159E-13-1.30078E-12
 -1      2148 1.00201E+00-3.11368E+00-2.68644E-01-1.30388E+00 5.52891E-14-1.16579E-12
 -1      2149 2.09477E+00-3.20518E+00-2.82681E-01-2.65204E+00 4.24438E-13-1.21797E-12
 -1      2150 1.01962E+00-3.58231E+00-3.38696E-01 1.97355E+00-3.64125E-13-1.12893E-12
 -1      2151 4.13553E-01-3.38443E+00-3.09058E-01 6.51348E-01 2.01922E-14-1.12166E-12
 -1      2152 4.73475E+00-2.86946E+00-2.48327E-01 4.50801E+00-7.19869E-13-1.21020E-12
 -1      2153 2.58452E+00-3.75074E+00-3.90272E-01 3.24696E+00-4.08396E-13-1.11303E-12
 -1      2154 1.11538E+01-2.03773E+00-1.61546E-01 6.22403E+00-9.98090E-13-1.32702E-12
 -1      2155 7.61202E+00-3.26776E+00-3.97162E-01 5.12454E+00-7.84595E-13-1.21098E-12
 -1      2156 1.95316E+01-8.60576E-01-3.83854E-02 6.65544E+00-1.11267E-12-1.34714E-12
 -1      2157 1.49759E+01-2.15053E+00-3.17125E-01 5.99748E+00-1.00275E-12-1.28095E-12
 -1      2158 2.83467E+01 8.73809E-01 1.01049E-01 5.35497E+00-1.15835E-12-1.26704E-12
 -1      2159 2.33874E+01-4.36219E-01-1.86524E-01 5.39293E+00-1.11577E-12-1.24978E-12
 -1      2160 3.48419E+01 3.39889E+00 1.39497E-01 2.61244E+00-1.11770E-12-9.69669E-13
 -1      2161 3.10292E+01 2.22482E+00 2.01478E-03 3.77148E+00-1.17421E-12-1.16496E-12
 -1      2162 3.83601E+01 6.24286E+00 2.55844E-01 3.26861E-01-1.11894E-12-7.33691E-13
 -1      2163 3.60057E+01 5.34064E+00 8.99265E-02 1.19464E+00-1.15813E-12-8.86069E-13
 -1      2164 3.92418E+01 7.02658E+00 2.71559E-01-1.08881E+00-1.02868E-12-5.14949E-13
 -1      2165 3.86430E+01 7.02850E+00 1.83251E-01 2.50214E-02-1.08946E-12-7.65443E-13
 -1      2166 3.66591E+01 5.91222E+00 1.85487E-01-2.20220E+00-1.01963E-12-2.91323E-13
 -1      2167 3.93184E+01 6.67313E+00 3.99078E-01-1.48982E+00-1.00642E-12-5.02376E-13
 -1      2168 3.48089E+01 7.74122E+00 2.68883E-01-2.90292E-01-1.11100E-12-5.49949E-13
 -1      2169 3.19605E+01 2.68894E+00 1.23000E-01-4.67981E+00-8.68500E-13 2.06946E-13
 -1      2170 3.55647E+01 3.97711E+00 2.59837E-01-3.49028E+00-8.90482E-13-1.16684E-13
 -1      2171 2.46703E+01-1.14720E+00-1.19886E-01-5.57048E+00-5.57776E-13 3.68428E-13
 -1      2172 2.94791E+01 7.52392E-01 2.14609E-01-5.68582E+00-6.32855E-13 3.15192E-13
 -1      2173 1.56825E+01-3.90886E+00-2.86598E-01-6.43078E+00-4.52749E-13 5.48561E-13
 -1      2174 2.06555E+01-2.15996E+00 2.13590E-02-7.08190E+00-4.81393E-13 5.44176E-13
 -1      2175 8.22506E+00-5.38915E+00-3.24760E-01-5.76712E+00-2.23321E-13 6.75765E-13
 -1      2176 1.20183E+01-3.97099E+00-1.23766E-01-6.83203E+00-4.91385E-13 5.64132E-13
 -1      2177 1.65978E+01-4.67990E+00-2.95803E-02-6.94597E+00-2.13163E-14 3.14360E-13
 -1      2178 2.08113E+00-5.84473E+00-3.75773E-01-3.00502E+00-4.05509E-14 9.14269E-13
 -1      2179 4.30932E+00-5.07819E+00-2.59379E-01-4.73669E+00-2.36089E-13 9.51017E-13
 -1      2180 3.48780E+01 3.14269E+00 3.07613E-01 4.27506E+00 8.25784E-13-1.33782E-13
 -1      2181 3.06601E+01 1.60280E+00 2.40107E-02 4.72642E+00 8.23591E-13 2.64233E-14
 -1      2182 2.99516E+01-5.98362E-01 1.62461E-01 3.38770E+00 5.41595E-13-2.93876E-13
 -1      2183 2.52503E+01 7.82233E-01-3.80635E-02-2.03386E+00-3.60559E-13 2.12316E-13
 -1      2184 3.42556E+01 3.54783E+00 2.71147E-01 1.35433E+00 8.43908E-13-3.96516E-13
 -1      2185 2.49128E+01 8.01545E-01-1.60273E-02-2.31257E+00-3.70350E-13 3.05589E-14
 -1      2186 3.04429E+00-3.68017E+00-8.23325E-02 2.26371E+00 1.05513E-13 8.51541E-13
 -1      2187 3.89803E+00-1.68113E+00 1.02675E-01 1.23786E+00-2.51049E-14 9.60898E-13
 -1      2188 5.27505E+00-2.33014E+00-1.12350E-02 3.85472E+00-9.14269E-14 6.96387E-13
 -1      2189 1.53578E+01-4.83670E+00-6.33367E-02 6.88007E+00 1.87073E-14 2.27082E-13
 -1      2190 1.99997E+01-3.66416E-04-2.24951E-06 3.77065E-04-2.00952E-13-9.56739E-14
 -1      2191 3.06060E+00-3.46202E+00-1.19980E-01-2.59997E+00 5.71210E-14 1.05221E-12
 -1      2192 2.32748E+01-3.67715E+00 2.48356E-02 5.74482E+00 2.27207E-13 1.63758E-15
 -1      2193 8.31930E+00-4.51103E+00-1.23911E-01-6.11177E+00 9.57567E-14 6.99246E-13
 -1      2194 2.46070E+01-3.26372E+00 6.93026E-02-5.25664E+00-1.31561E-13 8.90954E-14
 -1      2195 3.48485E+01 4.65601E+00 1.76757E-01-1.45576E+00-8.82516E-13-3.89522E-13
 -1      2196 3.23885E+01 5.23478E+00-1.52003E-01 4.98243E-01-9.33753E-13-6.34243E-13
 -1      2197 3.21765E+01 3.33973E+00 7.01582E-02-3.48775E-01-7.67497E-13-6.04905E-13
 -1      2198 3.45904E+01 7.47236E+00 2.55029E-01-8.22540E-01-1.13742E-12-4.77521E-13
 -1      2199 3.35196E+01 4.27945E+00 2.12372E-01-1.57895E-01-1.01422E-12-4.74509E-13
 -1      2200 3.00148E+01 4.33333E-01 1.74156E-01 2.18837E+00-8.10546E-13-6.34048E-13
 -1      2201 2.35743E+01-1.99164E+00 5.66539E-02 4.88830E+00-6.12232E-13-8.56620E-13
 -1      2202 1.53863E+01-2.74947E+00-7.04918E-02 6.30372E+00-4.56135E-13-1.05923E-12
 -1      2203 8.02845E+00-2.46390E+00-1.40041E-01 5.61395E+00-2.77056E-13-1.18117E-12
 -1      2204 3.05443E+00-1.81459E+00-1.60494E-01 3.29539E+00-1.13715E-13-1.24956E-12
 -1      2205 1.79242E+00-1.35226E+00-1.23448E-01-4.80595E-01 4.16403E-14-1.31350E-12
 -1      2206 4.63011E+00-1.90026E+00-1.36848E-01-3.93448E+00 1.36974E-13-1.29202E-12
 -1      2207 1.07572E+01-2.77922E+00-6.14178E-02-5.87509E+00 2.68230E-13-1.17288E-12
 -1      2208 1.90932E+01-3.17847E+00-4.04557E-02-5.60143E+00 3.95850E-13-9.67254E-13
 -1      2209 2.71158E+01-1.62182E+00 8.65020E-02-3.39748E+00 5.93581E-13-7.39631E-13
 -1      2210 3.23378E+01 1.63658E+00 1.75882E-01-6.99937E-01 8.00353E-13-5.26634E-13
 -1      2211 3.50785E+01 5.58029E+00 2.58852E-01 7.13171E-01 1.04211E-12-4.46976E-13
 -1      2212 3.57139E+01 6.96414E+00 3.24040E-01 3.57950E-01 9.90319E-13-4.96658E-13
 -1      2213 3.58558E+01 7.83791E+00 3.23370E-01 6.57387E-01 1.07947E-12-5.15803E-13
 -1      2214 3.06710E+01 3.17841E-01 1.45967E-01-2.74068E+00-5.47215E-13-2.76945E-13
 -1      2215 2.52536E+01-3.78299E-01-1.18279E-02 1.85162E+00 2.44290E-13 3.55040E-13
 -1      2216 2.56791E+01-1.62708E-01 2.51410E-02 1.79372E+00 2.57979E-13 3.84773E-13
 -1      2217 1.50398E+01 2.53126E+00-2.45084E-02 2.07842E+00 2.36967E-13-6.83290E-13
 -1      2218 1.68041E+01 2.19180E+00 4.94660E-02 1.79217E+00 1.95417E-13-6.46050E-13
 -1      2219 1.84384E+01 1.69278E+00-1.05095E-02 1.18715E+00 1.42016E-13-5.78416E-13
 -1      2220 1.98799E+01 1.49219E+00 1.10989E-02 6.15659E-01 7.34916E-14-5.48736E-13
 -1      2221 1.80043E+01 1.10168E+00-2.14353E-02 1.83864E+00 1.93175E-13-5.62409E-13
 -1      2222 1.02096E+01 4.45891E+00 1.45768E-02 5.70606E-01 1.56500E-13-8.75962E-13
 -1      2223 1.07009E+01 4.32173E+00 3.84095E-02 1.13824E+00 1.88194E-13-8.57547E-13
 -1      2224 1.11789E+01 4.23441E+00 5.93583E-02-9.22692E-01 4.53301E-14-8.55338E-13
 -1      2225 1.03455E+01 4.38805E+00 9.38652E-04-3.72953E-01 9.30701E-14-8.81618E-13
 -1      2226 9.96132E+00 4.26986E+00 8.31293E-02 6.33643E-02 1.20351E-13-9.22436E-13
 -1      2227 1.42103E+01 3.19614E+00 7.23842E-02-1.60883E+00-2.02269E-14-7.02257E-13
 -1      2228 1.24586E+01 3.52731E+00-2.96318E-02-1.50293E+00-3.68195E-15-7.78769E-13
 -1      2229 1.78662E+01 2.11639E+00 4.03452E-02-1.10472E+00 2.38256E-14-4.93473E-13
 -1      2230 1.60107E+01 2.42320E+00-3.05471E-02-1.46638E+00-1.54425E-14-5.82315E-13
 -1      2231 1.51833E+01 2.19775E+00 4.49209E-03-1.96246E+00-4.94188E-14-6.42431E-13
 -1      2232 2.09791E+01 1.49043E+00-4.26847E-03 8.75533E-02 1.43221E-13-2.91843E-13
 -1      2233 1.95006E+01 1.67826E+00-1.32822E-02-4.88714E-01 6.65527E-14-3.65940E-13
 -1      2234 1.89965E+01 1.14310E+00-2.16828E-02-1.05910E+00 1.74704E-14-3.95477E-13
 -1      2235 2.33045E+01 1.21866E+00-5.73707E-02 1.31616E+00 2.80123E-13-9.59337E-14
 -1      2236 2.22473E+01 1.36997E+00-2.12957E-03 7.72580E-01 2.01799E-13-1.88342E-13
 -1      2237 2.20217E+01 6.90078E-01-1.31288E-02 3.28256E-01 1.42383E-13-1.85860E-13
 -1      2238 2.48041E+01-3.88342E-01-1.15489E-03 2.21016E+00 2.57194E-13 3.55867E-13
 -1      2239 2.52490E+01-4.67711E-01 1.53742E-02 2.05057E+00 2.29610E-13 3.98299E-13
 -1      2240 2.53144E+01-5.36831E-01-6.34865E-03 2.14072E+00 2.44348E-13 2.63886E-13
 -1      2241 2.46446E+01-3.69182E-02 7.41262E-03-2.13421E+00-2.75067E-13 4.40186E-15
 -1      2242 2.43008E+01-2.02286E-01-1.59295E-02-2.11112E+00-2.59288E-13 8.98083E-15
 -1      2243 3.23836E+01 3.44464E+00-1.38094E-01-3.21021E-01 7.66442E-13-5.02959E-13
 -1      2244 3.14183E+01 1.51140E+00-6.35925E-02 3.17633E-01 6.58931E-13-4.98934E-13
 -1      2245 2.42690E+01-2.02444E-01 4.66341E-03-2.23419E+00-2.51183E-13 3.92513E-14
 -1      2246 2.39192E+01-5.17764E-02 4.01867E-03-2.25616E+00-2.55098E-13 1.79377E-14
 -1      2247 2.45265E+01-2.11098E-01 8.36886E-03-2.35010E+00-2.45546E-13-1.62227E-14
 -1      2248 2.37087E+01 2.20318E-01-1.21406E-02-2.26876E+00-2.58108E-13 4.56250E-14
 -1      2249 2.33797E+01 5.95363E-01 1.90160E-02-2.12299E+00-2.43845E-13 2.39695E-15
 -1      2250 2.43038E+01 1.46503E-01 6.20664E-03-2.51061E+00-2.56960E-13 2.79074E-15
 -1      2251 2.30526E+01 9.89502E-01-1.96109E-02-1.82645E+00-2.59548E-13-5.82060E-14
 -1      2252 2.28042E+01 1.35776E+00 1.93483E-02-1.41160E+00-2.56314E-13-1.13074E-13
 -1      2253 2.38306E+01 1.05150E+00-3.15462E-03-2.25746E+00-3.02719E-13-4.20948E-14
 -1      2254 2.25624E+01 1.60089E+00-6.33452E-03-7.80404E-01-2.70414E-13-2.24099E-13
 -1      2255 2.24598E+01 1.67323E+00 7.55568E-04-1.95951E-01-2.73429E-13-2.73385E-13
 -1      2256 2.33049E+01 1.91441E+00-2.32765E-02-1.28503E+00-3.62769E-13-1.98971E-13
 -1      2257 2.24744E+01 1.55782E+00 1.48756E-02 5.02650E-01-2.64535E-13-3.49453E-13
 -1      2258 2.25268E+01 1.26002E+00-2.05714E-02 9.99837E-01-2.15355E-13-3.93033E-13
 -1      2259 2.30847E+01 2.08758E+00-2.57639E-02 1.54218E-01-3.17458E-13-3.73036E-13
 -1      2260 2.27245E+01 8.56969E-01 2.32253E-02 1.42225E+00-1.89931E-13-4.34409E-13
 -1      2261 2.28670E+01 3.88362E-01-2.67405E-02 1.62769E+00-1.57049E-13-4.76713E-13
 -1      2262 2.32632E+01 1.37906E+00-8.49859E-03 1.35195E+00-2.54801E-13-5.04091E-13
 -1      2263 2.30127E+01-3.55244E-02 1.22147E-02 1.63813E+00-1.64268E-13-4.97733E-13
 -1      2264 2.31486E+01-4.05590E-01-1.81076E-02 1.54565E+00-1.74642E-13-4.93597E-13
 -1      2265 2.35422E+01 2.42911E-01 8.08957E-03 1.76917E+00-1.94117E-13-5.65767E-13
 -1      2266 2.31076E+01-6.56429E-01-4.23829E-03 1.26950E+00-1.33117E-13-4.20232E-13
 -1      2267 2.31726E+01-8.09540E-01-5.07975E-03 1.00693E+00-5.74285E-14-3.80858E-13
 -1      2268 2.35786E+01-6.76781E-01 1.15678E-02 1.43842E+00-1.22935E-13-5.15661E-13
 -1      2269 2.29703E+01-8.62991E-01-1.43767E-02 6.46044E-01-2.85457E-14-3.40085E-13
 -1      2270 2.29492E+01-8.37058E-01 3.28374E-03 3.51475E-01 3.05528E-14-3.25220E-13
 -1      2271 2.32939E+01-1.08438E+00 3.59444E-03 7.46954E-01-2.49506E-14-3.63443E-13
 -1      2272 2.26778E+01-7.64904E-01-1.60981E-02 4.22243E-02 3.15915E-14-2.82832E-13
 -1      2273 2.25887E+01-6.51203E-01 6.48687E-03-1.99018E-01 9.83317E-14-2.59016E-13
 -1      2274 2.28169E+01-1.04565E+00-3.95317E-03 5.17842E-02 5.41316E-14-2.31807E-13
 -1      2275 2.23232E+01-5.35336E-01-1.27582E-02-4.07279E-01 1.13249E-13-3.10784E-13
 -1      2276 2.21926E+01-4.07300E-01 6.32528E-03-5.66556E-01 3.20560E-14-2.79247E-13
 -1      2277 2.23023E+01-7.77887E-01-6.77669E-03-4.68927E-01 5.74467E-14-2.89506E-13
 -1      2278 2.19667E+01-2.97922E-01-8.11221E-03-6.77742E-01-6.29184E-14-3.03511E-13
 -1      2279 2.18173E+01-1.92338E-01 4.83068E-03-7.59805E-01-5.11845E-14-3.20687E-13
 -1      2280 2.18404E+01-4.64929E-01-6.59949E-03-7.82647E-01-1.62662E-14-4.05763E-13
 -1      2281 2.16370E+01-1.09833E-01-3.94419E-03-7.97066E-01-4.88919E-14-3.47087E-13
 -1      2282 2.14846E+01-3.70443E-02 3.22747E-03-8.20390E-01-6.33776E-14-3.15761E-13
 -1      2283 2.14595E+01-2.01427E-01-5.23891E-03-9.22899E-01-6.63163E-14-4.09596E-13
 -1      2284 2.13439E+01 1.62744E-02-8.51765E-04-8.08978E-01-6.70193E-14-2.57911E-13
 -1      2285 2.11987E+01 5.93463E-02 1.98729E-03-7.93822E-01-5.58978E-14-1.97960E-13
 -1      2286 2.11559E+01-1.64948E-02-3.80840E-03-9.40521E-01-2.21427E-14-2.97802E-13
 -1      2287 2.10888E+01 8.88475E-02 1.15137E-03-7.54413E-01-3.98365E-14-1.93498E-13
 -1      2288 2.09566E+01 1.09731E-01 1.16249E-03-7.17622E-01-2.43958E-14-2.39826E-13
 -1      2289 2.09149E+01 9.52678E-02-2.72614E-03-8.81951E-01-5.83853E-14-1.79392E-13
 -1      2290 2.08698E+01 1.22479E-01 2.27118E-03-6.65026E-01-3.82037E-14-2.23444E-13
 -1      2291 2.07537E+01 1.28708E-01 6.65423E-04-6.18719E-01 1.96097E-14-2.53106E-13
 -1      2292 2.07222E+01 1.51433E-01-2.01996E-03-7.82660E-01-2.03024E-14-1.90158E-13
 -1      2293 2.06846E+01 1.30874E-01 2.75686E-03-5.62627E-01 5.50053E-14-2.37173E-13
 -1      2294 2.05857E+01 1.28400E-01 3.86679E-04-5.14648E-01 9.72331E-14-2.76184E-13
 -1      2295 2.05668E+01 1.70292E-01-1.58564E-03-6.67127E-01 2.70810E-14-2.01687E-13
 -1      2296 2.05303E+01 1.24557E-01 2.82765E-03-4.60873E-01 1.37368E-13-3.14152E-13
 -1      2297 2.04480E+01 1.17539E-01 2.38628E-04-4.15797E-01 1.51028E-13-3.65903E-13
 -1      2298 2.04409E+01 1.66593E-01-1.31319E-03-5.50908E-01 1.12483E-13-2.15198E-13
 -1      2299 2.04037E+01 1.10758E-01 2.65225E-03-3.67446E-01 1.10937E-13-3.85421E-13
 -1      2300 2.03369E+01 1.01872E-01 1.62702E-04-3.27585E-01 3.88251E-14-3.00676E-13
 -1      2301 2.03389E+01 1.50806E-01-1.12429E-03-4.43010E-01 1.25290E-13-3.17226E-13
 -1      2302 2.03017E+01 9.40719E-02 2.34964E-03-2.85990E-01 1.93487E-14-2.43423E-13
 -1      2303 2.02485E+01 8.49171E-02 1.23771E-04-2.52201E-01 3.25888E-14-1.89801E-13
 -1      2304 2.02568E+01 1.29761E-01-9.73967E-04-3.47948E-01 1.35394E-13-2.75172E-13
 -1      2305 2.02207E+01 7.72111E-02 1.99828E-03-2.17592E-01 2.74525E-15-1.95942E-13
 -1      2306 2.01793E+01 6.86665E-02 1.02383E-04-1.89861E-01 7.90945E-14-2.62224E-13
 -1      2307 2.01914E+01 1.07605E-01-8.41025E-04-2.67319E-01 1.61488E-14-1.44901E-13
 -1      2308 2.01577E+01 6.16409E-02 1.64644E-03-1.61837E-01 7.72394E-14-3.43115E-13
 -1      2309 2.01261E+01 5.41252E-02 8.85485E-05-1.39676E-01 3.29800E-14-3.13932E-13
 -1      2310 2.01400E+01 8.66602E-02-7.17795E-04-2.00951E-01-3.49114E-14-2.64624E-13
 -1      2311 2.01095E+01 4.80384E-02 1.32127E-03-1.17512E-01-3.15346E-14-3.85307E-13
 -1      2312 2.00859E+01 4.16921E-02 7.76036E-05-1.00214E-01-5.82172E-14-2.74802E-13
 -1      2313 2.01001E+01 6.80738E-02-6.03048E-04-1.47678E-01 4.60077E-15-4.10222E-13
 -1      2314 2.00734E+01 3.66071E-02 1.03591E-03-8.30604E-02-5.24847E-14-2.46960E-13
 -1      2315 2.00561E+01 3.14119E-02 6.76705E-05-6.98501E-02-2.96382E-14-1.49081E-13
 -1      2316 2.00696E+01 5.22714E-02-4.97916E-04-1.05867E-01 9.33006E-15-2.53711E-13
 -1      2317 2.00468E+01 2.72833E-02 7.94676E-04-5.68514E-02-6.80212E-14-1.44772E-13
 -1      2318 2.00345E+01 2.31376E-02 5.82039E-05-4.69807E-02-6.73935E-15-1.84417E-13
 -1      2319 2.00468E+01 3.92607E-02-4.03849E-04-7.37368E-02-3.17334E-14-2.61195E-13
 -1      2320 2.00278E+01 1.98652E-02 5.96621E-04-3.73399E-02 5.09125E-14-2.44962E-13
 -1      2321 2.00192E+01 1.66308E-02 4.92108E-05-3.01314E-02 1.28801E-13-1.67108E-13
 -1      2322 2.00300E+01 2.88248E-02-3.21762E-04-4.95584E-02 6.09916E-15-2.04501E-13
 -1      2323 2.00144E+01 1.40930E-02 4.37977E-04-2.31448E-02 1.21645E-13-2.20725E-13
 -1      2324 2.00088E+01 1.16225E-02 4.08646E-05-1.80123E-02 1.46135E-13-1.86997E-13
 -1      2325 2.00179E+01 2.06434E-02-2.51826E-04-3.17565E-02 3.68185E-14-1.49600E-13
 -1      2326 2.00055E+01 9.69505E-03 3.13672E-04-1.30805E-02 5.89465E-14-2.71000E-13
 -1      2327 2.00019E+01 7.84774E-03 3.33347E-05-9.53370E-03 5.35367E-14-3.47893E-13
 -1      2328 2.00095E+01 1.43644E-02-1.93557E-04-1.89594E-02 5.86227E-14-2.44785E-13
 -1      2329 1.99997E+01 6.41454E-03 2.18280E-04-6.16054E-03-6.80163E-15-4.28992E-13
 -1      2330 1.99976E+01 5.06368E-03 2.67268E-05-3.79978E-03-6.05823E-14-3.61444E-13
 -1      2331 2.00038E+01 9.64577E-03-1.46005E-04-1.00110E-02-3.34117E-14-4.23021E-13
 -1      2332 1.99962E+01 4.02192E-03 1.46578E-04-1.58455E-03-8.88527E-14-3.48433E-13
 -1      2333 1.99951E+01 3.05832E-03 2.10742E-05-9.14499E-05-1.44219E-13-3.19396E-13
 -1      2334 2.00001E+01 6.17643E-03-1.07949E-04-3.96257E-03-4.83309E-14-4.92940E-13
 -1      2335 1.99943E+01 2.32026E-03 9.38399E-05 1.28277E-03-2.04446E-13-3.72793E-13
 -1      2336 1.99939E+01 1.65271E-03 1.63504E-05 2.15657E-03-2.39211E-13-3.20622E-13
 -1      2337 1.99978E+01 3.68627E-03-7.80589E-05-5.33862E-05-1.79220E-13-3.78692E-13
 -1      2338 1.99936E+01 1.14559E-03 5.59634E-05 2.93541E-03-1.58148E-13-3.16218E-13
 -1      2339 1.99936E+01 6.99811E-04 1.24861E-05 3.37981E-03-6.29333E-14-2.33428E-13
 -1      2340 1.99966E+01 1.94817E-03-5.50146E-05 2.31421E-03-1.80557E-13-2.45704E-13
 -1      2341 1.99935E+01 3.64753E-04 2.95029E-05 3.74992E-03-8.54023E-14-5.51188E-14
 -1      2342 1.99938E+01 8.15282E-05 9.38665E-06 3.90723E-03 3.40523E-14-7.44655E-14
 -1      2343 1.99961E+01 7.76151E-04-3.75803E-05 3.60045E-03-7.67548E-16-5.63097E-14
 -1      2344 1.99939E+01-1.28142E-04 1.16368E-05 4.00757E-03 2.47795E-13 7.47625E-15
 -1      2345 1.99943E+01-2.95063E-04 6.94456E-06 3.98214E-03 3.61738E-13 1.46512E-13
 -1      2346 1.99960E+01 2.12696E-05-2.46495E-05 4.15282E-03 1.90501E-13 2.33589E-13
 -1      2347 1.99945E+01-4.15646E-04 1.06048E-07 3.91391E-03 2.31031E-13 2.63924E-14
 -1      2348 1.99950E+01-5.01745E-04 5.04874E-06 3.78041E-03 1.55022E-13-1.59298E-14
 -1      2349 1.99962E+01-4.33388E-04-1.52640E-05 4.22820E-03 2.59590E-13 1.81805E-13
 -1      2350 1.99952E+01-5.60976E-04-6.86088E-06 3.61539E-03 2.50744E-13 4.73546E-15
 -1      2351 1.99957E+01-5.92998E-04 3.58973E-06 3.42569E-03 3.09791E-13 4.04412E-14
 -1      2352 1.99965E+01-6.77923E-04-8.61636E-06 4.01216E-03 1.89921E-13 8.10194E-15
 -1      2353 1.99960E+01-6.11723E-04-1.06256E-05 3.21324E-03 1.93198E-13-4.61716E-14
 -1      2354 1.99964E+01-6.09513E-04 2.46297E-06 3.00200E-03 5.07503E-14 5.13254E-15
 -1      2355 1.99970E+01-7.80584E-04-4.04264E-06 3.63507E-03 1.53504E-13 1.39586E-13
 -1      2356 1.99967E+01-6.03175E-04-1.22127E-05 2.77457E-03 5.86089E-14 1.06138E-14
 -1      2357 1.99971E+01-5.81259E-04 1.57021E-06 2.56361E-03 7.55854E-14 6.46648E-14
 -1      2358 1.99974E+01-7.92257E-04-1.00864E-06 3.18538E-03 9.91967E-14 2.32438E-13
 -1      2359 1.99973E+01-5.61192E-04-1.23753E-05 2.34117E-03 2.27393E-14 1.55232E-13
 -1      2360 1.99977E+01-5.30145E-04 8.19032E-07 2.14290E-03 2.13890E-15 1.99996E-13
 -1      2361 1.99979E+01-7.50396E-04 9.02473E-07 2.72011E-03 7.94629E-14 4.27628E-13
 -1      2362 1.99979E+01-5.04670E-04-1.16511E-05 1.93626E-03 1.42688E-13 1.96084E-13
 -1      2363 1.99982E+01-4.72233E-04 1.23650E-07 1.75619E-03 2.86758E-13 1.28551E-13
 -1      2364 1.99983E+01-6.82379E-04 2.00002E-06 2.27313E-03 9.51522E-14 5.94019E-13
 -1      2365 1.99984E+01-4.47544E-04-1.04106E-05 1.56952E-03 2.13392E-13 9.62718E-14
 -1      2366 1.99986E+01-4.19364E-04-5.49832E-07 1.40819E-03 2.54356E-13 2.76268E-13
 -1      2367 1.99986E+01-6.08295E-04 2.49687E-06 1.86146E-03 2.00906E-13 3.11169E-13
 -1      2368 1.99988E+01-3.99859E-04-8.86719E-06 1.24097E-03 2.22359E-13 2.25340E-13
 -1      2369 1.99990E+01-3.79901E-04-1.23393E-06 1.09570E-03-2.60607E-14 1.94557E-13
 -1      2370 1.99989E+01-5.42554E-04 2.58751E-06 1.48993E-03 1.75031E-13 3.07446E-13
 -1      2371 1.99991E+01-3.67953E-04-7.04676E-06 9.44420E-04-3.00071E-13 1.20560E-13
 -1      2372 1.99993E+01-3.58717E-04-2.69581E-06 8.10977E-04-3.92478E-13 1.14353E-13
 -1      2373 1.99992E+01-4.95172E-04 2.26527E-06 1.15554E-03-1.96736E-13-1.47153E-13
 -1      2374 1.15479E+01-3.54759E+00 5.69869E-02 6.66224E+00-2.27068E-13 1.97453E-13
 -1      2375 8.79804E+00-2.85147E+00 1.41158E-01 5.50114E+00-1.60122E-13 3.62488E-13
 -1      2376 2.34706E+01 1.08102E+00 1.91469E-02 1.83871E+00 2.18953E-13 2.46211E-13
 -1      2377 2.38456E+01 6.32476E-01-2.38443E-02 2.19796E+00 2.34834E-13 3.38462E-13
 -1      2378 2.29645E+01 1.62910E+00 7.21362E-04 5.42667E-01 2.45408E-13 5.50912E-14
 -1      2379 2.31481E+01 1.44459E+00-1.66631E-02 1.19164E+00 2.29539E-13 1.34130E-13
 -1      2380 2.41090E+01 1.72335E+00-2.68441E-02 1.79060E+00 3.13822E-13 1.64018E-13
 -1      2381 2.29821E+01 1.34288E+00-2.48191E-02-9.30135E-01 2.69427E-13-1.31325E-13
 -1      2382 2.29209E+01 1.59767E+00 6.51208E-03-3.14280E-01 2.63369E-13-7.70030E-14
 -1      2383 2.37426E+01 2.17487E+00-4.28516E-02 1.59162E-01 3.36453E-13-8.05756E-14
 -1      2384 2.34172E+01 4.43238E-01-3.20176E-02-1.78369E+00 2.44240E-13-2.17220E-13
 -1      2385 2.31913E+01 9.32068E-01 1.92224E-02-1.50550E+00 2.54734E-13-1.74060E-13
 -1      2386 2.38884E+01 1.54349E+00-2.67015E-02-1.38663E+00 2.92363E-13-2.61098E-13
 -1      2387 2.38371E+01-4.14074E-01-1.93962E-02-1.73281E+00 1.44859E-13-2.59408E-13
 -1      2388 2.35972E+01-2.47424E-02 1.05199E-02-1.83229E+00 2.24968E-13-2.36955E-13
 -1      2389 2.42359E+01 3.04593E-01 1.05029E-03-2.00429E+00 2.57412E-13-3.25469E-13
 -1      2390 2.39411E+01-8.21685E-01-3.98716E-03-1.08517E+00-2.91780E-15-3.42308E-13
 -1      2391 2.37969E+01-6.79988E-01-7.60446E-03-1.39750E+00 7.69324E-14-3.04300E-13
 -1      2392 2.43153E+01-7.25787E-01 1.08485E-02-1.64339E+00 1.55777E-13-4.02726E-13
 -1      2393 2.37192E+01-8.04297E-01 3.84786E-03-3.01145E-01-3.98579E-14-3.37444E-13
 -1      2394 2.37063E+01-8.55747E-01-1.92749E-02-6.40876E-01-1.37269E-14-3.46461E-13
 -1      2395 2.40006E+01-1.14562E+00 1.65747E-03-7.92945E-01-1.56125E-15-4.56600E-13
 -1      2396 2.33111E+01-5.78218E-01 5.67983E-03 3.30305E-01 3.97265E-14-2.98952E-13
 -1      2397 2.34102E+01-7.07238E-01-1.97061E-02 6.75503E-02-1.80602E-14-3.09873E-13
 -1      2398 2.34580E+01-1.04601E+00-5.88970E-03 4.01447E-02-5.23249E-14-4.74433E-13
 -1      2399 2.28401E+01-3.20491E-01 4.57350E-03 7.22587E-01 4.67491E-14-2.29764E-13
 -1      2400 2.30118E+01-4.48748E-01-1.45985E-02 5.64195E-01 6.42576E-14-2.22153E-13
 -1      2401 2.28704E+01-7.18925E-01-8.51287E-03 6.39665E-01-1.17736E-14-3.48389E-13
 -1      2402 2.23773E+01-1.15191E-01 2.99293E-03 9.00953E-01 4.95710E-14-1.73612E-13
 -1      2403 2.25842E+01-2.10502E-01-8.31986E-03 8.33071E-01 6.59551E-14-1.87003E-13
 -1      2404 2.23393E+01-3.77244E-01-7.66879E-03 9.73470E-01 2.91108E-14-2.73038E-13
 -1      2405 2.19541E+01 1.77585E-02 1.82224E-03 9.28352E-01 5.75834E-14-1.66440E-13
 -1      2406 2.21686E+01-4.06964E-02-3.04433E-03 9.23186E-01 6.86331E-14-1.62531E-13
 -1      2407 2.18933E+01-1.15611E-01-5.58498E-03 1.09529E+00 5.86475E-14-2.25898E-13
 -1      2408 2.15808E+01 8.98206E-02 1.16966E-03 8.65885E-01 6.65514E-14-6.61944E-14
 -1      2409 2.17849E+01 6.01615E-02 5.49045E-04 8.97404E-01 7.28036E-14-8.31140E-14
 -1      2410 2.15263E+01 4.90225E-02-3.82479E-03 1.07761E+00 2.02131E-14-7.36168E-14
 -1      2411 2.12589E+01 1.19911E-01 8.60051E-04 7.59059E-01-4.12009E-14-2.80028E-14
 -1      2412 2.14425E+01 1.09255E-01 2.64554E-03 8.07980E-01 1.92877E-14-3.01004E-14
 -1      2413 2.12235E+01 1.35420E-01-2.67659E-03 9.81122E-01-8.11829E-15 1.92712E-15
 -1      2414 2.09867E+01 1.24631E-01 7.26028E-04 6.37515E-01-1.95546E-13 7.31053E-14
 -1      2415 2.11452E+01 1.25049E-01 3.62473E-03 6.91439E-01-8.00048E-14 7.03745E-15
 -1      2416 2.09725E+01 1.69032E-01-2.02164E-03 8.48673E-01-1.02782E-13 1.10857E-13
 -1      2417 2.07607E+01 1.15807E-01 6.61605E-04 5.18556E-01-2.28419E-13 1.90387E-13
 -1      2418 2.08932E+01 1.21875E-01 3.86864E-03 5.70398E-01-2.22168E-13 1.19653E-13
 -1      2419 2.07643E+01 1.71246E-01-1.66246E-03 7.07447E-01-2.55060E-13 1.61908E-13
 -1      2420 2.05763E+01 1.00930E-01 6.14026E-04 4.11071E-01-2.17004E-13 1.03083E-13
 -1      2421 2.06843E+01 1.09303E-01 3.68158E-03 4.57325E-01-1.99928E-13 1.02641E-13
 -1      2422 2.05927E+01 1.57025E-01-1.44656E-03 5.73026E-01-2.28198E-13 4.53256E-14
 -1      2423 2.04285E+01 8.43498E-02 5.62812E-04 3.18704E-01-6.59073E-14 4.52772E-14
 -1      2424 2.05145E+01 9.31333E-02 3.27646E-03 3.58056E-01-1.80514E-13-6.67640E-14
 -1      2425 2.04527E+01 1.35750E-01-1.28571E-03 4.53208E-01-1.67113E-13-2.10786E-13
 -1      2426 2.03121E+01 6.83822E-02 5.03818E-04 2.42067E-01-2.05790E-14 1.85980E-13
 -1      2427 2.03792E+01 7.65990E-02 2.78882E-03 2.74439E-01 2.52535E-14 2.05810E-13
 -1      2428 2.03399E+01 1.12819E-01-1.13921E-03 3.50948E-01-1.07940E-13-1.63847E-13
 -1      2429 2.02220E+01 5.41168E-02 4.39519E-04 1.80167E-01 5.56298E-14 1.23531E-13
 -1      2430 2.02733E+01 6.13326E-02 2.29784E-03 2.06113E-01 4.08231E-14 2.19845E-13
 -1      2431 2.02504E+01 9.10704E-02-9.94081E-04 2.66397E-01 6.86842E-16 1.36595E-13
 -1      2432 2.01535E+01 4.19473E-02 3.74069E-04 1.31269E-01-2.44273E-14 1.19047E-13
 -1      2433 2.01920E+01 4.80318E-02 1.84536E-03 1.51618E-01-1.44042E-14 1.15685E-13
 -1      2434 2.01805E+01 7.18109E-02-8.50394E-04 1.98220E-01 5.15630E-15 1.37914E-13
 -1      2435 2.01024E+01 3.18933E-02 3.11192E-04 9.34020E-02-6.29874E-14 1.57506E-13
 -1      2436 2.01307E+01 3.68763E-02 1.45011E-03 1.09050E-01-1.11335E-14 1.85915E-13
 -1      2437 2.01268E+01 5.54768E-02-7.12544E-04 1.44404E-01-8.03361E-15 1.98619E-13
 -1      2438 2.00651E+01 2.37883E-02 2.53509E-04 6.46238E-02-3.76075E-14 2.74569E-13
 -1      2439 2.00854E+01 2.77764E-02 1.11728E-03 7.64314E-02-3.33199E-14 2.22227E-13
 -1      2440 2.00864E+01 4.20408E-02-5.85088E-04 1.02738E-01-7.27725E-14 2.82796E-13
 -1      2441 2.00384E+01 1.73873E-02 2.02513E-04 4.31655E-02 6.25382E-14 1.63600E-13
 -1      2442 2.00526E+01 2.05167E-02 8.44612E-04 5.19034E-02 8.91327E-14 2.45595E-13
 -1      2443 2.00564E+01 3.12485E-02-4.71219E-04 7.10740E-02-9.29541E-16 3.64819E-13
 -1      2444 2.00198E+01 1.24246E-02 1.58778E-04 2.74864E-02 1.43577E-13 8.95224E-14
 -1      2445 2.00295E+01 1.48360E-02 6.26181E-04 3.38178E-02 6.21646E-14 1.33244E-13
 -1      2446 2.00348E+01 2.27526E-02-3.72506E-04 4.74628E-02 7.41147E-14 1.03292E-13
 -1      2447 2.00074E+01 8.64520E-03 1.22222E-04 1.62876E-02 1.53980E-13 2.42794E-13
 -1      2448 2.00136E+01 1.04703E-02 4.54593E-04 2.07662E-02 1.61898E-13 9.34938E-14
 -1      2449 2.00195E+01 1.61865E-02-2.89143E-04 3.02098E-02 1.30235E-13 1.58175E-14
 -1      2450 1.99994E+01 5.81894E-03 9.23481E-05 8.50058E-03 1.08008E-13 1.95979E-13
 -1      2451 2.00032E+01 7.17480E-03 3.22244E-04 1.15782E-02 1.40476E-13 2.47820E-13
 -1      2452 2.00090E+01 1.12018E-02-2.20350E-04 1.78868E-02 1.06314E-13 2.19213E-13
 -1      2453 1.99946E+01 3.74640E-03 6.84292E-05 3.26463E-03-1.52224E-13 7.00745E-14
 -1      2454 1.99967E+01 4.73345E-03 2.21985E-04 5.30242E-03 7.49763E-14 1.14186E-13
 -1      2455 2.00021E+01 7.48686E-03-1.64751E-04 9.31880E-03 1.17654E-13 1.64836E-13
 -1      2456 1.99920E+01 2.25965E-03 4.96429E-05-1.01175E-04-1.63023E-13 2.70382E-14
 -1      2457 1.99930E+01 2.96176E-03 1.47444E-04 1.18054E-03-2.01940E-13 6.68169E-14
 -1      2458 1.99978E+01 4.77286E-03-1.20676E-04 3.55876E-03-1.07522E-13 1.18737E-13
 -1      2459 1.99910E+01 1.22046E-03 3.51626E-05-2.12613E-03 6.61313E-14 2.40702E-14
 -1      2460 1.99912E+01 1.70618E-03 9.31399E-05-1.38139E-03-4.46940E-14-2.95397E-14
 -1      2461 1.99953E+01 2.83446E-03-8.63793E-05-1.42709E-04-6.07286E-14 8.77636E-14
 -1      2462 1.99910E+01 5.17219E-04 2.42119E-05-3.21462E-03 2.20992E-13-7.32426E-14
 -1      2463 1.99907E+01 8.41552E-04 5.44842E-05-2.84062E-03 1.71086E-13 3.18576E-14
 -1      2464 1.99941E+01 1.48677E-03-6.01786E-05-2.36830E-03 7.34420E-14 2.42732E-14
 -1      2465 1.99915E+01 6.13536E-05 1.60941E-05-3.67012E-03 2.84306E-13-1.00285E-13
 -1      2466 1.99909E+01 2.67693E-04 2.77181E-05-3.54300E-03 3.44404E-13-6.19663E-14
 -1      2467 1.99938E+01 5.80980E-04-4.05388E-05-3.56328E-03 2.38480E-13-1.04711E-13
 -1      2468 1.99924E+01-2.16253E-04 1.02048E-05-3.71598E-03-1.43636E-13-1.88237E-13
 -1      2469 1.99917E+01-9.42372E-05 9.82180E-06-3.74532E-03 2.39332E-14-7.13825E-14
 -1      2470 1.99939E+01-6.19132E-07-2.61117E-05-4.06182E-03 1.03760E-13 5.35213E-14
 -1      2471 1.99934E+01-3.68682E-04 6.03206E-06-3.51300E-03-2.55315E-13-9.84020E-14
 -1      2472 1.99927E+01-3.05281E-04-1.58912E-06-3.63429E-03-2.31977E-13-1.60443E-13
 -1      2473 1.99944E+01-3.49638E-04-1.57489E-05-4.10983E-03-2.00900E-13-1.81007E-13
 -1      2474 1.99944E+01-4.36064E-04 3.14970E-06-3.17389E-03-2.09492E-13-1.26705E-13
 -1      2475 1.99937E+01-4.11951E-04-8.36512E-06-3.34245E-03-2.04292E-13-7.06099E-14
 -1      2476 1.99951E+01-5.36232E-04-8.49599E-06-3.88430E-03-2.51511E-13-1.99051E-13
 -1      2477 1.99954E+01-4.48285E-04 1.20664E-06-2.77504E-03-5.42363E-14-1.83223E-13
 -1      2478 1.99948E+01-4.49146E-04-1.19178E-05-2.96105E-03-1.44415E-13-6.87110E-14
 -1      2479 1.99958E+01-6.13296E-04-3.57682E-06-3.50920E-03-2.17892E-13-7.26837E-14
 -1      2480 1.99963E+01-4.27322E-04-8.58034E-08-2.36566E-03 1.43208E-13-1.86795E-13
 -1      2481 1.99957E+01-4.42682E-04-1.33049E-05-2.55040E-03 9.27015E-14-1.08363E-13
 -1      2482 1.99965E+01-6.20137E-04-3.72812E-07-3.06841E-03-5.28993E-14-2.51274E-14
 -1      2483 1.99971E+01-3.89209E-04-9.62692E-07-1.97502E-03 7.83409E-14-2.11749E-13
 -1      2484 1.99966E+01-4.11447E-04-1.33034E-05-2.14787E-03 2.06408E-14-1.40732E-14
 -1      2485 1.99971E+01-5.85612E-04 1.59742E-06-2.61585E-03-4.70482E-15 1.69454E-14
 -1      2486 1.99978E+01-3.45684E-04-1.61013E-06-1.61775E-03 6.34060E-14 5.91851E-14
 -1      2487 1.99974E+01-3.69214E-04-1.24627E-05-1.77404E-03 1.71101E-13-1.71816E-14
 -1      2488 1.99977E+01-5.30774E-04 2.70055E-06-2.18340E-03 2.19861E-15 2.75031E-13
 -1      2489 1.99983E+01-3.05485E-04-2.15303E-06-1.29785E-03-1.20421E-14 1.06928E-13
 -1      2490 1.99980E+01-3.26140E-04-1.11605E-05-1.43729E-03 3.05933E-14-2.01378E-14
 -1      2491 1.99982E+01-4.71034E-04 3.20685E-06-1.78684E-03-2.34773E-15 3.27522E-13
 -1      2492 1.99988E+01-2.75297E-04-2.75097E-06-1.01175E-03-2.25274E-13 1.25991E-13
 -1      2493 1.99985E+01-2.89933E-04-9.66054E-06-1.13724E-03-1.49497E-13 2.78631E-13
 -1      2494 1.99986E+01-4.17743E-04 3.28076E-06-1.43046E-03-1.83801E-13 2.63307E-13
 -1      2495 1.99992E+01-2.58309E-04-2.93753E-06-7.50302E-04-4.69396E-14 8.86802E-14
 -1      2496 1.99989E+01-2.66293E-04-8.09797E-06-8.66900E-04-1.24856E-13 1.27485E-13
 -1      2497 1.99990E+01-3.78836E-04 3.31833E-06-1.11144E-03-1.84981E-13 4.74395E-13
 -1      2498 1.99994E+01-2.53143E-04-3.15456E-06-5.07145E-04 1.15034E-13 2.52690E-13
 -1      2499 1.99993E+01-2.54885E-04-6.49899E-06-6.17609E-04 4.68311E-14 8.55810E-14
 -1      2500 1.99993E+01-3.54951E-04 4.28839E-06-8.19509E-04-3.32290E-15 4.00448E-13
 -1      2501 1.99995E+01-2.43620E-04-4.23027E-06-3.74648E-04 5.46396E-14 1.63355E-13
 -1      2502 2.00000E+01-1.30845E-03 5.82927E-06-6.54762E-04-2.35839E-14-1.86785E-13
 -1      2503 1.99999E+01-1.19156E-03-1.45451E-06-7.11997E-04-1.42645E-13-1.98939E-13
 -1      2504 2.00001E+01-1.50422E-03 5.97746E-06-4.64254E-04-6.98112E-15-5.70809E-14
 -1      2505 2.00000E+01-1.41786E-03 6.84858E-07-5.60171E-04 6.72700E-14-1.46114E-13
 -1      2506 2.00001E+01-1.37419E-03-3.92032E-06-7.01319E-04 7.16774E-14-2.61339E-14
 -1      2507 1.99997E+01-7.72408E-04 3.87485E-06-7.50310E-04-5.97186E-14 9.07114E-13
 -1      2508 1.99996E+01-6.36164E-04-5.02531E-06-7.12048E-04-5.47366E-14 8.16808E-13
 -1      2509 1.99999E+01-1.05487E-03 5.01902E-06-7.55889E-04-2.46771E-13 1.01713E-13
 -1      2510 1.99998E+01-9.23093E-04-3.45438E-06-7.65342E-04-2.56396E-13 7.03780E-13
 -1      2511 1.99997E+01-8.61601E-04-2.24920E-06-8.85280E-04-2.63739E-14 5.77976E-13
 -1      2512 1.99999E+01-1.13758E-03-2.54831E-06-8.50757E-04-5.61637E-14 7.52143E-14
 -1      2513 2.00001E+01-1.61990E-03 5.48884E-06-2.12419E-04-3.10353E-13-1.79069E-13
 -1      2514 2.00001E+01-1.57418E-03 2.75290E-06-3.33002E-04-1.91474E-13-8.25045E-14
 -1      2515 2.00002E+01-1.54675E-03-4.91519E-06-4.59100E-04-1.59084E-13-2.20894E-13
 -1      2516 2.00002E+01-1.64325E-03 4.38914E-06 6.68779E-05-2.24581E-13-1.78755E-14
 -1      2517 2.00002E+01-1.64368E-03 4.40583E-06-6.20646E-05-3.24228E-13-7.58715E-14
 -1      2518 2.00003E+01-1.63700E-03-5.42428E-06-1.57882E-04-2.40616E-13-1.95310E-13
 -1      2519 2.00001E+01-1.57197E-03 2.79376E-06 3.37300E-04-1.75905E-13-4.33875E-13
 -1      2520 2.00001E+01-1.61862E-03 5.46008E-06 2.17070E-04-9.96430E-14-1.52423E-13
 -1      2521 2.00003E+01-1.63615E-03-5.40390E-06 1.63376E-04-3.89539E-14-5.75776E-15
 -1      2522 2.00000E+01-1.41765E-03 7.16958E-07 5.60152E-04-6.16531E-14-2.86856E-13
 -1      2523 2.00001E+01-1.50280E-03 5.93656E-06 4.66076E-04-8.18214E-14-2.98770E-13
 -1      2524 2.00002E+01-1.54557E-03-4.97008E-06 4.61663E-04-7.11548E-14-2.33685E-13
 -1      2525 1.99999E+01-1.19135E-03-1.42904E-06 7.11963E-04 5.57928E-14 1.20745E-15
 -1      2526 2.00000E+01-1.30830E-03 5.79662E-06 6.54757E-04 5.21387E-14-2.86153E-13
 -1      2527 2.00001E+01-1.37390E-03-3.89549E-06 7.01384E-04 3.55388E-14-3.32736E-13
 -1      2528 1.99998E+01-9.18461E-04-3.13116E-06 7.64389E-04-2.47031E-13 6.17954E-14
 -1      2529 1.99999E+01-1.05374E-03 4.76664E-06 7.56290E-04-1.28403E-13 2.30838E-13
 -1      2530 1.99999E+01-1.13582E-03-2.16626E-06 8.51182E-04-1.48958E-13-7.48703E-14
 -1      2531 1.99996E+01-6.28878E-04-4.17840E-06 7.06345E-04-3.57783E-13-6.72157E-14
 -1      2532 1.99997E+01-7.68376E-04 2.93528E-06 7.50694E-04-3.71511E-13 3.13195E-14
 -1      2533 1.99997E+01-8.55051E-04 4.78318E-07 8.84070E-04-4.71701E-13-8.05029E-14
 -1      2534 1.99996E+01-3.82848E-04-3.74686E-06 4.87249E-04-2.56061E-13-1.10344E-14
 -1      2535 4.15155E+00-1.69916E+00 9.99078E-02-1.79081E+00 1.32769E-13 9.95259E-13
 -1      2536 5.30144E+00-2.36176E+00 6.23496E-02-4.04135E+00 1.37917E-13 9.61287E-13
 -1      2537 2.41908E+01 1.94723E-01 1.58805E-02 2.36809E+00 2.11327E-13 3.67244E-13
 -1      2538 2.46362E+01-1.65779E-01-7.51918E-03 2.37705E+00 2.55142E-13 3.75307E-13
 -1      2539 2.47401E+01 6.00338E-01-2.58047E-04 2.62776E+00 2.52201E-13 3.07634E-13
 -1      2540 1.88650E+01-4.72475E+00 9.12567E-03 6.65217E+00-1.00031E-13-1.04916E-14
 -1      2541 1.51002E+01-4.50719E+00 4.59102E-02 6.71550E+00-2.32314E-13 7.49678E-14
 -1      2542 7.85811E+00-3.28784E+00 5.59388E-02-5.58358E+00 2.79138E-13 6.85119E-13
 -1      2543 1.16858E+01-3.94888E+00-6.54324E-04-6.93954E+00 2.50244E-13 3.96350E-13
 -1      2544 2.45533E+01 1.12920E+00-2.62239E-02-2.32362E+00-3.34804E-13-1.31888E-13
 -1      2545 2.44872E+01 3.00155E-01-2.30336E-02-2.08871E+00-3.22073E-13-5.60186E-14
 -1      2546 2.44530E+01 2.26222E-01 1.97640E-02-2.18182E+00-2.66264E-13-9.33075E-14
 -1      2547 2.38955E+01 1.33361E+00-1.26677E-02-2.10235E+00-2.91390E-13-2.17146E-13
 -1      2548 2.30681E+01-4.36360E+00 3.04770E-02-5.10170E+00 1.72085E-13-6.93612E-14
 -1      2549 2.63822E+01-3.41917E+00-1.06096E-01-3.89013E+00-2.13440E-14-3.09475E-13
 -1      2550 3.13839E+01 7.05175E+00-1.64659E-01-8.58109E-01-1.04305E-12-3.85334E-13
 -1      2551 3.11457E+01 6.35748E+00-1.25060E-01-1.43471E+00-1.01436E-12-2.90740E-13
 -1      2552 1.17058E+01 3.69524E+00-9.63960E-03 1.90496E+00 2.33739E-13-8.10543E-13
 -1      2553 1.32636E+01 3.32413E+00 6.92591E-02 2.11027E+00 2.41989E-13-7.69584E-13
 -1      2554 1.41907E+01 2.27203E+00 2.21854E-02 2.62382E+00 2.70468E-13-7.32178E-13
 -1      2555 3.23892E+01 6.89609E+00-1.15832E-01 1.07964E+00 1.00275E-12-3.37230E-13
 -1      2556 3.23195E+01 7.19428E+00-1.36958E-01 4.81321E-01 9.73943E-13-3.82212E-13
 -1      2557 2.89349E+01-1.25617E+00 5.53380E-04-1.91330E+00-3.02709E-13-5.13589E-13
 -1      2558 3.09992E+01 5.91785E-01-5.82946E-02-1.33548E+00-5.41608E-13-5.66824E-13
 -1      2559 3.23813E+01 6.59771E+00-1.54753E-01-2.60591E-01 9.59288E-13-4.82780E-13
 -1      2560 3.24395E+01 5.50049E+00-8.66955E-02-5.41234E-01 9.10660E-13-4.97380E-13
 -1      2561 3.20373E+01 4.12582E+00-7.54497E-02 1.55028E+00 8.89344E-13-1.74499E-13
 -1      2562 3.25842E+01 5.67104E+00-1.43076E-01 1.52615E+00 9.79772E-13-2.07168E-13
 -1      2563 3.00917E+01 4.04160E-02-3.48130E-02 4.17749E-02 5.34413E-13-2.03615E-13
 -1      2564 3.15456E+01 1.72704E+00-1.50939E-01 8.88755E-01 7.31526E-13-1.54515E-13
 -1      2565 2.54468E+01-2.77301E+00-7.28759E-03-2.95102E+00 2.78749E-13-4.67237E-13
 -1      2566 2.81884E+01-1.89050E+00-1.28949E-01-1.70363E+00 3.92950E-13-3.42171E-13
 -1      2567 1.82066E+01-3.15947E+00 2.85444E-02-5.34416E+00 9.84768E-14-7.34782E-13
 -1      2568 2.22698E+01-3.20343E+00-3.80513E-02-4.66681E+00 2.44721E-13-6.38906E-13
 -1      2569 2.44824E+01-3.19835E+00 4.85122E-02-2.92123E+00 4.24383E-14-3.40783E-13
 -1      2570 9.90407E+00-1.90543E+00 4.35678E-03-5.40768E+00 1.62925E-14-1.08294E-12
 -1      2571 1.35199E+01-2.32834E+00 5.70046E-03-5.89824E+00 2.17881E-14-9.34711E-13
 -1      2572 5.11259E+00-2.03798E-01 6.77992E-02-3.40193E+00-3.70398E-14-1.20476E-12
 -1      2573 7.31491E+00-9.79335E-01 5.55254E-02-4.85736E+00 6.58917E-14-1.18380E-12
 -1      2574 1.01647E+01-6.33109E-01 1.28228E-01-4.98129E+00-1.19654E-13-1.07592E-12
 -1      2575 2.90740E+00 4.23300E-01 8.55736E-02 8.45393E-01 8.58341E-15-1.25344E-12
 -1      2576 3.33663E+00 6.11180E-01 8.90459E-02-1.45147E+00 7.40935E-14-1.24967E-12
 -1      2577 5.16895E+00-4.60710E-01 3.75172E-02 4.25853E+00-1.24623E-14-1.16007E-12
 -1      2578 3.44652E+00-1.17616E-01 4.04851E-02 2.59784E+00 7.90895E-14-1.18910E-12
 -1      2579 1.12284E+01-1.76974E+00 2.44249E-02 6.17295E+00-5.50393E-14-9.92081E-13
 -1      2580 8.15222E+00-1.22499E+00 4.75940E-02 5.31339E+00 6.15619E-14-1.06015E-12
 -1      2581 1.80014E+01-2.75093E+00-4.94275E-02 5.96460E+00-1.83104E-13-8.09849E-13
 -1      2582 1.42757E+01-2.56039E+00-4.94293E-05 6.03348E+00-6.18949E-14-8.94500E-13
 -1      2583 1.41859E+01-1.78405E+00 1.11196E-01 5.79977E+00 1.95288E-13-8.45518E-13
 -1      2584 2.53889E+01-2.36969E+00-1.05939E-01 3.47880E+00-3.77282E-13-4.78229E-13
 -1      2585 2.20933E+01-2.83287E+00 5.97997E-03 4.52359E+00-2.36838E-13-6.28053E-13
 -1      2586 2.98932E+01 2.35443E-01-1.66968E-01 3.97049E-01-6.73833E-13-2.66814E-13
 -1      2587 2.79656E+01-1.09270E+00-2.70645E-02 1.53857E+00-5.31075E-13-3.48471E-13
 -1      2588 3.10905E+01 4.28346E+00-2.01566E-01-1.63681E+00-9.43329E-13-1.82548E-13
 -1      2589 3.06821E+01 2.40910E+00-5.92980E-02-1.04079E+00-7.97834E-13-2.20324E-13
 -1      2590 3.17594E+01 6.57377E+00-1.11804E-01 3.59734E-01-1.01436E-12-5.61551E-13
 -1      2591 3.15643E+01 7.17736E+00-1.59500E-01-1.58905E-01-1.05549E-12-4.94448E-13
 -1      2592 1.59075E+01-4.57527E+00 6.20668E-02-6.76911E+00 2.26930E-13 1.28002E-13
 -1      2593 1.93453E+01-4.69163E+00-5.02400E-02-6.61863E+00 1.94206E-13 8.79921E-14
 -1      2594 2.52334E+01-3.92764E+00-7.90617E-02 4.64906E+00 6.70020E-14-2.74530E-13
 -1      2595 2.18265E+01-4.67635E+00-6.16281E-03 5.55048E+00-2.71450E-14-1.38833E-13
 -1      2596 2.14371E+01-4.80267E+00 7.41156E-02 5.53054E+00-2.18048E-13-1.81688E-13
 -1      2597 2.56600E+01 1.19320E-01-2.64576E-02 1.72148E+00 3.10316E-13 3.80882E-13
 -1      2598 2.60428E+01 6.32960E-01-1.70734E-02 1.94833E+00 3.39902E-13 4.06758E-13
 -1      2599 2.54175E+01 9.78739E-01-3.89833E-02 2.08266E+00 3.60255E-13 2.42077E-13
 -1      2600 2.53624E+01-9.43496E-02-3.69668E-02 1.91636E+00 2.92918E-13 2.27528E-13
 -1      2601 3.03204E+01-7.47023E-01-9.69094E-02 1.52991E+00 4.71602E-13-5.31603E-13
 -1      2602 2.81047E+01-2.42106E+00-1.87438E-02 2.51270E+00 2.61909E-13-4.62880E-13
 -1      2603 1.09211E+01 3.68624E+00 6.45730E-02 1.86189E+00 2.37642E-13-8.69173E-13
 -1      2604 2.10150E+01 5.89109E-01-1.88290E-02 3.37780E-01 5.48138E-14-4.34144E-13
 -1      2605 2.10566E+01 1.36043E+00-2.72908E-03-1.55198E-01 1.79761E-15-4.59448E-13
 -1      2606 2.20703E+01 1.29019E+00-8.74459E-03-7.40724E-01-8.50908E-14-3.92452E-13
 -1      2607 1.16422E+01 3.54550E+00 5.80087E-02-1.55938E+00-9.35016E-16-8.54126E-13
 -1      2608 2.51905E+01-3.30659E-01 7.79573E-03 2.56297E+00 2.58241E-13 3.14509E-13
 -1      2609 2.46056E+01 1.16617E+00 1.02994E-03 1.84966E+00 3.18165E-13 6.93265E-14
 -1      2610 3.00347E+01-1.67570E-01-9.79372E-04-3.01882E-01 4.20552E-13-6.15979E-13
 -1      2611 2.69240E+01-3.65965E+00 2.49574E-02 2.76132E+00 3.17801E-15-4.92273E-13
 -1      2612 1.49631E+01-3.93779E+00 1.01195E-01-6.66415E+00 4.04704E-13 2.24390E-13
 -1      2613 2.22694E+01-4.64656E+00 7.94663E-02-5.25551E+00 3.62321E-13-1.55251E-13
 -1      2614 3.05022E+01 5.49456E+00-7.72112E-02 6.89722E-01-8.92314E-13-6.13662E-13
 -1      2615 8.55112E+00-1.79998E+00 1.59620E-01 4.59664E+00-2.08902E-13 4.89747E-13
 -1      2616 8.49558E+00-2.05840E+00 1.39052E-01-4.88552E+00 3.42254E-13 7.03826E-13
 -1      2617 1.50903E+01-3.72519E+00 1.03290E-01 6.35114E+00-3.49276E-13 7.39270E-14
 -1      2618 1.99995E+01-3.46215E-04-1.03542E-06-5.40516E-04 1.73471E-14 4.35355E-13
 -1      2619 1.99995E+01-4.51334E-04 1.05220E-07-6.20147E-04 6.50712E-14 6.03784E-13
 -1      2620 2.94238E+01 4.79704E+00-7.03044E-02-2.03062E+00-8.76410E-13-1.26052E-13
 -1      2621 1.99995E+01-3.44804E-04-4.65754E-06 5.96664E-04-3.64118E-13 2.60863E-14
 -1      2622 1.99996E+01-4.99070E-04 2.78624E-06 6.72944E-04-3.76217E-13-7.45987E-14
 -1      2623 1.99995E+01-5.87672E-04-2.29966E-06 8.32196E-04-4.72195E-13-4.57421E-14
 -1      2624 1.99993E+01-3.54436E-04-6.94904E-06 7.13096E-04-3.93171E-13 2.03887E-13
 -1      2625 2.93254E+01 9.76426E-01-2.36058E-02-1.28139E+00-5.84297E-13-4.09117E-14
 -1      2626 2.09071E+01-2.85982E+00 8.51271E-02 4.65616E+00 3.92741E-14-5.58109E-13
 -1      2627 4.96452E+00-1.08932E+00 1.63732E-01-2.88620E-01 1.52317E-14 9.72472E-13
 -1      2628 6.53631E+00-4.09058E-01 1.46349E-01-1.54844E+00 1.62082E-13 8.57592E-13
 -1      2629 6.04564E+00-4.97868E-01 7.14670E-02 1.20527E+00-8.83946E-14 8.35554E-13
 -1      2630 2.44953E+01 5.34764E-01 2.13400E-02 1.58824E+00 2.72636E-13 6.05349E-14
 -1      2631 8.23997E+00-4.88891E-02 1.25884E-01 4.80067E+00 1.92457E-13-1.08602E-12
 -1      2632 2.93771E+01 6.68669E+00-9.39015E-02-4.94695E-01-9.64451E-13-4.01150E-13
 -1      2633 5.56649E+00 1.10442E+00 1.15674E-01-2.30006E+00-3.02675E-14-1.23135E-12
 -1      2634 3.05599E+01 1.58548E+00-5.87873E-02 4.12038E-01-5.43371E-13-6.94445E-13
 -1      2635 1.69414E+01-2.71597E+00 6.37102E-02-5.33529E+00-4.81282E-14-7.61537E-13
 -1      2636 1.97379E+01-2.99270E+00-6.50906E-02-4.40670E+00-1.67588E-13-4.88703E-13
 -1      2637 1.57653E+01-1.76865E+00 1.41129E-01-5.12594E+00-1.94580E-13-7.16011E-13
 -1      2638 2.88356E+01-1.24118E+00 2.20182E-03 1.29728E-01 2.93184E-13-2.64788E-14
 -1      2639 3.05548E+01 2.61787E+00-3.87735E-02 2.05035E+00 6.61665E-13 4.77118E-14
 -1      2640 3.02976E+01 6.44779E+00-8.53795E-02-1.00485E-01 9.02278E-13-3.59809E-13
 -1      2641 2.77117E+01-2.78582E+00 1.17372E-02-2.05610E+00-1.32533E-15-5.79647E-13
 -1      2642 2.31922E+01 1.29191E+00-2.29687E-02-1.63384E+00-2.15718E-13-3.02328E-13
 -1      2643 3.06659E+01 3.89252E+00-5.49735E-02-1.16462E+00 7.77517E-13-5.50476E-13
 -1      2644 3.04517E+01 5.88644E+00-7.30821E-02 1.66341E+00 8.68028E-13-1.33379E-13
 -1      2645 4.70035E+00 1.31726E+00 1.33599E-01 1.70206E+00 1.25774E-13-1.23562E-12
 -1      2646 2.67570E+01-2.01507E+00 3.52893E-02 1.57966E+00-2.35589E-13-2.16105E-13
 -1      2647 1.99995E+01-5.36910E-04-3.11360E-06-7.84077E-04 1.14791E-13 5.55329E-13
 -1      2648 1.99994E+01-4.64523E-04 3.78603E-06 8.92779E-04-3.94391E-13-1.51581E-13
 -1      2649 8.86623E+00 3.88834E+00 7.87017E-02-5.02558E-01 6.47412E-14-9.87280E-13
 -1      2650 8.66159E+00 3.93031E+00 6.13037E-02 5.01824E-01 1.50869E-13-9.75720E-13
 -1      2651 2.07332E+01 5.56535E-02 1.97447E-02-1.03086E+00-7.90600E-15-2.75007E-13
 -1      2652 1.88933E+01 4.33395E-01 1.19472E-02-1.72728E+00-7.34095E-14-3.94251E-13
 -1      2653 1.66824E+01 1.06497E+00 8.69053E-02-2.50898E+00-1.25767E-13-5.80980E-13
 -1      2654 1.42404E+01 1.65693E+00-5.98270E-03-2.74179E+00-1.34680E-13-6.97623E-13
 -1      2655 1.82984E+01-2.40540E-01 2.63978E-02-2.64112E+00-1.42861E-13-4.51465E-13
 -1      2656 2.52732E+01-9.01763E-01-3.57245E-02 2.01707E+00 2.05357E-13 1.57763E-13
 -1      2657 2.53744E+01-7.09400E-01 2.21757E-02 1.84947E+00 1.77643E-13 1.49516E-13
 -1      2658 1.03949E+01 3.06332E-01 6.31447E-02 5.00984E+00 2.88269E-13-9.14990E-13
 -1      2659 7.83373E+00 1.25719E+00 1.45457E-01 3.85958E+00 2.63650E-13-1.04849E-12
 -1      2660 1.18815E+01 2.73351E+00 1.19322E-01-2.46326E+00-9.09897E-14-8.61866E-13
 -1      2661 9.98018E+00 3.28555E+00 1.79714E-02-1.87805E+00-2.03726E-14-9.34176E-13
 -1      2662 8.62960E+00 3.03981E+00 1.09104E-01-1.54037E+00-6.00561E-15-1.04217E-12
 -1      2663 1.29867E+01 1.37710E+00 8.22432E-02-3.27977E+00-1.50352E-13-8.15667E-13
 -1      2664 2.72602E+01-3.36002E+00-1.72707E-01 1.27429E+00-5.44703E-15-6.16715E-13
 -1      2665 2.54026E+01-4.30072E+00 4.31975E-02 3.00217E+00-2.10817E-13-5.25552E-13
 -1      2666 2.48439E+01-2.13023E-01-1.69106E-02-2.54868E+00-2.31521E-13 4.67335E-15
 -1      2667 2.46947E+01 2.55449E-01 8.58785E-04-2.57946E+00-2.64979E-13-2.19529E-15
 -1      2668 2.45737E+01 8.80931E-01-5.07113E-02-2.59146E+00-3.24699E-13-2.14501E-14
 -1      2669 2.43655E+01 1.64545E+00 7.29588E-03-2.31537E+00-3.91347E-13-8.44943E-14
 -1      2670 2.52467E+01 7.01460E-01-1.53743E-04-2.78725E+00-3.28442E-13 5.30565E-14
 -1      2671 2.40597E+01 2.34275E+00-5.34980E-02-1.80551E+00-4.46043E-13-1.71091E-13
 -1      2672 2.38697E+01 2.83540E+00-1.87014E-02-1.14597E+00-4.51212E-13-2.57054E-13
 -1      2673 2.49717E+01 2.37245E+00-2.74288E-02-2.29658E+00-4.67775E-13-9.95124E-14
 -1      2674 2.37734E+01 2.98114E+00-2.31034E-02-2.09616E-01-4.44582E-13-3.92041E-13
 -1      2675 2.37153E+01 2.73309E+00-5.82029E-02 5.14287E-01-3.93213E-13-4.68935E-13
 -1      2676 2.45835E+01 3.55637E+00-4.22338E-02-7.44082E-01-5.40422E-13-3.37902E-13
 -1      2677 2.39143E+01 2.17879E+00 6.64933E-03 1.28512E+00-3.17149E-13-5.61655E-13
 -1      2678 2.39949E+01 1.36056E+00-6.14600E-02 1.68984E+00-2.71992E-13-6.02319E-13
 -1      2679 2.45804E+01 3.02250E+00-3.26067E-02 1.02879E+00-4.34659E-13-6.00929E-13
 -1      2680 2.41481E+01 5.23135E-01 7.19291E-03 1.81972E+00-2.29834E-13-6.04141E-13
 -1      2681 2.41958E+01-2.60109E-01-3.94137E-02 1.78294E+00-1.63473E-13-6.21415E-13
 -1      2682 2.48434E+01 1.10683E+00-1.38252E-02 1.86287E+00-2.54359E-13-7.01640E-13
 -1      2683 2.40543E+01-8.57471E-01-5.88444E-03 1.44035E+00-7.23098E-14-5.57522E-13
 -1      2684 2.39815E+01-1.25819E+00-8.39791E-03 1.12421E+00-9.75923E-15-4.81387E-13
 -1      2685 2.47193E+01-7.33208E-01-2.98735E-03 1.55665E+00-8.08754E-14-5.86602E-13
 -1      2686 2.35736E+01-1.45291E+00-1.48222E-02 6.49458E-01 3.28904E-15-4.14203E-13
 -1      2687 2.33906E+01-1.48564E+00 9.30687E-03 2.80000E-01 6.76468E-14-3.62114E-13
 -1      2688 2.40818E+01-1.67989E+00-4.58494E-03 6.46915E-01 4.58082E-14-4.56490E-13
 -1      2689 2.29036E+01-1.40246E+00-1.47121E-02-1.06470E-01 7.34929E-14-2.72736E-13
 -1      2690 2.26693E+01-1.23291E+00 1.49188E-02-4.03287E-01 8.33632E-14-2.52241E-13
 -1      2691 2.31643E+01-1.75933E+00-1.31757E-02-2.23161E-01 1.10274E-13-3.49887E-13
 -1      2692 2.22421E+01-1.03834E+00-9.61361E-03-6.37828E-01 5.29958E-14-2.48357E-13
 -1      2693 2.20119E+01-8.19190E-01 1.35302E-02-8.29270E-01 4.84806E-14-2.73564E-13
 -1      2694 2.22761E+01-1.36379E+00-1.50335E-02-8.13029E-01 6.82954E-14-2.88428E-13
 -1      2695 2.16900E+01-6.19471E-01-5.00776E-03-9.38539E-01-1.16010E-14-2.88085E-13
 -1      2696 2.14904E+01-4.27586E-01 9.72757E-03-1.03501E+00-6.61276E-14-2.85822E-13
 -1      2697 2.15722E+01-8.53985E-01-1.31731E-02-1.11935E+00-4.52470E-15-1.59871E-13
 -1      2698 2.12693E+01-2.69379E-01-1.76206E-03-1.05865E+00-8.54694E-14-2.40461E-13
 -1      2699 2.11057E+01-1.30710E-01 6.00876E-03-1.08495E+00-1.23106E-14-2.36234E-13
 -1      2700 2.10711E+01-4.06501E-01-9.63043E-03-1.22193E+00-5.51762E-14-1.56217E-13
 -1      2701 2.09614E+01-2.36318E-02 2.32736E-04-1.05716E+00 2.45546E-14-2.54323E-13
 -1      2702 2.08297E+01 6.32169E-02 3.24018E-03-1.03775E+00 4.43328E-15-2.15340E-13
 -1      2703 2.07363E+01-8.20255E-02-6.29079E-03-1.19704E+00-1.42372E-14-1.77834E-13
 -1      2704 2.07376E+01 1.26140E-01 1.37326E-03-9.82425E-01-2.30190E-14-1.94682E-13
 -1      2705 2.06313E+01 1.72456E-01 1.41638E-03-9.36792E-01-3.57395E-14-1.50134E-13
 -1      2706 2.05187E+01 1.22410E-01-3.83770E-03-1.10071E+00-1.35751E-14-1.69851E-13
 -1      2707 2.05722E+01 2.02920E-01 1.96774E-03-8.69444E-01-3.01192E-14-8.01649E-14
 -1      2708 2.04857E+01 2.21236E-01 3.26267E-04-8.11579E-01-9.68152E-16-1.29703E-13
 -1      2709 2.03773E+01 2.32692E-01-2.26801E-03-9.69636E-01-5.43334E-16 9.10286E-15
 -1      2710 2.04468E+01 2.30265E-01 2.21406E-03-7.41878E-01 6.37528E-14-1.04422E-13
 -1      2711 2.03759E+01 2.31038E-01-2.60364E-04-6.81048E-01 1.36629E-13-5.40864E-14
 -1      2712 2.02831E+01 2.77555E-01-1.34997E-03-8.26958E-01 6.47357E-14 1.01704E-13
 -1      2713 2.03492E+01 2.27216E-01 2.23577E-03-6.14741E-01 1.02118E-13-8.55932E-15
 -1      2714 2.02911E+01 2.18092E-01-5.29369E-04-5.56610E-01 7.77213E-14-1.03096E-14
 -1      2715 2.02176E+01 2.81079E-01-8.48497E-04-6.86850E-01 1.25056E-13 1.22534E-13
 -1      2716 2.02718E+01 2.07435E-01 2.11576E-03-4.96824E-01 1.10083E-13-1.71013E-14
 -1      2717 2.02243E+01 1.93558E-01-6.11828E-04-4.44487E-01 1.64922E-13-2.51887E-14
 -1      2718 2.01697E+01 2.60994E-01-5.87183E-04-5.57503E-01 7.25119E-14 1.75956E-13
 -1      2719 2.02098E+01 1.79987E-01 1.91270E-03-3.92625E-01 1.43871E-13-9.29031E-14
 -1      2720 2.01714E+01 1.64591E-01-5.92994E-04-3.47447E-01 9.31017E-14-5.88614E-14
 -1      2721 2.01332E+01 2.29325E-01-4.52076E-04-4.43116E-01 1.04612E-13 5.82850E-14
 -1      2722 2.01601E+01 1.50497E-01 1.66898E-03-3.03805E-01-6.40907E-15-1.42506E-13
 -1      2723 2.01294E+01 1.35481E-01-5.25443E-04-2.66050E-01-8.88873E-14-2.16264E-13
 -1      2724 2.01044E+01 1.93711E-01-3.77691E-04-3.45243E-01-4.63147E-14-6.21751E-14
 -1      2725 2.01204E+01 1.22214E-01 1.41461E-03-2.30245E-01-1.15362E-13-2.44547E-13
 -1      2726 2.00962E+01 1.08586E-01-4.40105E-04-1.99523E-01-8.17956E-14-3.72927E-13
 -1      2727 2.00813E+01 1.58692E-01-3.29557E-04-2.63739E-01-1.44689E-13-2.93214E-13
 -1      2728 2.00891E+01 9.68151E-02 1.16953E-03-1.70796E-01-2.02049E-14-3.73727E-13
 -1      2729 2.00703E+01 8.50192E-02-3.54032E-04-1.46370E-01-1.19264E-14-3.33228E-13
 -1      2730 2.00627E+01 1.26720E-01-2.91135E-04-1.97437E-01-8.80441E-14-2.82593E-13
 -1      2731 2.00646E+01 7.49950E-02 9.45691E-04-1.23793E-01-6.70206E-14-3.13972E-13
 -1      2732 2.00502E+01 6.51324E-02-2.75753E-04-1.04782E-01-1.74582E-15-3.58998E-13
 -1      2733 2.00477E+01 9.89130E-02-2.55672E-04-1.44632E-01-4.83814E-14-2.02834E-13
 -1      2734 2.00457E+01 5.68571E-02 7.49155E-04-8.73864E-02 6.25832E-14-3.27431E-13
 -1      2735 2.00349E+01 4.88352E-02-2.08780E-04-7.28930E-02 8.56649E-15-2.81149E-13
 -1      2736 2.00357E+01 7.55670E-02-2.21264E-04-1.03407E-01 4.27779E-14-3.27558E-13
 -1      2737 2.00314E+01 4.21760E-02 5.81894E-04-5.97536E-02 4.52949E-14-2.29289E-13
 -1      2738 2.00235E+01 3.58032E-02-1.53830E-04-4.89328E-02 6.40214E-14-1.85672E-13
 -1      2739 2.00263E+01 5.65073E-02-1.88067E-04-7.18465E-02 5.75778E-14-1.84336E-13
 -1      2740 2.00207E+01 3.05633E-02 4.43208E-04-3.92132E-02 3.81213E-14-1.20457E-13
 -1      2741 2.00151E+01 2.56081E-02-1.10171E-04-3.13125E-02 3.71176E-14-1.05448E-13
 -1      2742 2.00189E+01 4.13129E-02-1.56867E-04-4.81634E-02 7.11780E-14-1.77848E-13
 -1      2743 2.00130E+01 2.15703E-02 3.30805E-04-2.42848E-02 5.65719E-14-1.29598E-13
 -1      2744 2.00090E+01 1.77959E-02-7.64101E-05-1.86581E-02 2.04950E-14-1.26406E-13
 -1      2745 2.00132E+01 2.94575E-02-1.28423E-04-3.07652E-02 2.04029E-14-2.08462E-13
 -1      2746 2.00075E+01 1.47479E-02 2.41576E-04-1.37081E-02-4.70196E-14-2.35564E-13
 -1      2747 2.00048E+01 1.19323E-02-5.09433E-05-9.81723E-03-3.06693E-14-2.76399E-13
 -1      2748 2.00090E+01 2.03958E-02-1.03240E-04-1.82826E-02-9.72739E-14-3.21178E-13
 -1      2749 2.00036E+01 9.67988E-03 1.72125E-04-6.43966E-03-2.14561E-14-3.63174E-13
 -1      2750 2.00019E+01 7.62581E-03-3.21994E-05-3.84692E-03-1.81464E-14-3.26065E-13
 -1      2751 2.00058E+01 1.36111E-02-8.15242E-05-9.57050E-03-2.34770E-14-2.27642E-13
 -1      2752 2.00011E+01 5.99961E-03 1.19108E-04-1.63516E-03-1.10852E-13-2.87967E-13
 -1      2753 2.00000E+01 4.53809E-03-1.87593E-05 7.68665E-06-1.69161E-13-2.92627E-13
 -1      2754 2.00035E+01 8.64141E-03-6.32382E-05-3.69390E-03-1.04887E-13-2.03154E-13
 -1      2755 1.99995E+01 3.39493E-03 7.94344E-05 1.37427E-03-1.21280E-13-1.43824E-13
 -1      2756 1.99989E+01 2.38539E-03-9.40511E-06 2.33877E-03-4.44257E-14-1.08079E-14
 -1      2757 2.00019E+01 5.08872E-03-4.81673E-05 9.45990E-05-8.89435E-14-6.00992E-14
 -1      2758 1.99985E+01 1.60748E-03 5.03733E-05 3.10816E-03-3.19875E-14 3.77901E-14
 -1      2759 1.99983E+01 9.35801E-04-3.12885E-06 3.60196E-03 1.03297E-13 1.59716E-13
 -1      2760 2.00008E+01 2.62066E-03-3.59897E-05 2.38072E-03 2.24433E-14 2.96179E-13
 -1      2761 1.99980E+01 4.28412E-04 2.95882E-05 3.96224E-03 1.10798E-13 8.49698E-14
 -1      2762 1.99980E+01 3.83380E-06 8.79724E-07 4.14095E-03 1.75693E-13 1.73092E-13
 -1      2763 2.00001E+01 9.66269E-04-2.63316E-05 3.61470E-03 6.35351E-14 9.55668E-14
 -1      2764 1.99978E+01-3.07727E-04 1.51352E-05 4.23192E-03 2.36496E-13 1.42484E-13
 -1      2765 1.99979E+01-5.55993E-04 3.25548E-06 4.20967E-03 1.60524E-13-1.78729E-14
 -1      2766 1.99996E+01-9.06597E-05-1.88088E-05 4.13591E-03 7.50326E-14-5.71243E-15
 -1      2767 1.99979E+01-7.29536E-04 5.43483E-06 4.13295E-03 1.61893E-13 3.28300E-14
 -1      2768 1.99980E+01-8.55733E-04 4.48370E-06 3.99141E-03 1.67094E-13 6.81333E-14
 -1      2769 1.99993E+01-7.19371E-04-1.30537E-05 4.19489E-03 1.29478E-13 4.36503E-14
 -1      2770 1.99980E+01-9.35240E-04-7.68513E-07 3.81893E-03 1.95658E-13 7.79800E-14
 -1      2771 1.99982E+01-9.80245E-04 4.92562E-06 3.61483E-03 2.12830E-13 1.43861E-13
 -1      2772 1.99992E+01-1.04999E-03-8.73245E-06 3.97228E-03 1.84095E-13 5.08465E-15
 -1      2773 1.99982E+01-9.98653E-04-4.45270E-06 3.39587E-03 1.85274E-13 2.45875E-13
 -1      2774 1.99984E+01-9.92799E-04 4.84520E-06 3.16706E-03 9.51491E-14 3.38960E-13
 -1      2775 1.99992E+01-1.18090E-03-5.55359E-06 3.59477E-03 1.93321E-13 1.61274E-13
 -1      2776 1.99984E+01-9.74426E-04-6.36098E-06 2.93388E-03 2.87803E-14 3.55255E-13
 -1      2777 1.99987E+01-9.39945E-04 4.43052E-06 2.70417E-03 1.14472E-13 3.58173E-13
 -1      2778 1.99992E+01-1.18539E-03-3.26790E-06 3.14796E-03 7.04085E-14 6.05398E-14
 -1      2779 1.99987E+01-9.02591E-04-7.04913E-06 2.47648E-03 2.53426E-14 3.76645E-13
 -1      2780 1.99989E+01-8.55675E-04 3.80588E-06 2.25936E-03 1.07068E-13 3.52639E-13
 -1      2781 1.99992E+01-1.11729E-03-1.68077E-06 2.68686E-03 3.68773E-14 5.32504E-14
 -1      2782 1.99989E+01-8.12348E-04-6.92904E-06 2.04776E-03 1.97670E-13 3.06983E-13
 -1      2783 1.99991E+01-7.64814E-04 3.05813E-06 1.84930E-03 2.11371E-13 3.17634E-13
 -1      2784 1.99993E+01-1.01589E-03-6.48466E-07 2.24398E-03 9.86581E-14 2.39557E-14
 -1      2785 1.99991E+01-7.25368E-04-6.42638E-06 1.65781E-03 8.77026E-14 2.98395E-13
 -1      2786 1.99992E+01-6.85061E-04 2.19296E-06 1.47845E-03-1.03824E-13 2.40799E-14
 -1      2787 1.99994E+01-9.09727E-04-8.71786E-08 1.83559E-03 9.92379E-14-8.39611E-14
 -1      2788 1.99993E+01-6.54897E-04-5.26091E-06 1.30729E-03-2.37097E-13 8.66680E-14
 -1      2789 1.99994E+01-6.29099E-04 4.37244E-07 1.14521E-03-2.83996E-13-1.04398E-13
 -1      2790 1.99995E+01-8.17087E-04 9.86923E-07 1.46595E-03-2.68428E-13 1.19429E-14
 -1      2791 2.81783E+01 1.21101E+00-2.27727E-01-2.20939E+00-5.55986E-13 3.58463E-14
 -1      2792 2.82731E+01-2.75910E-01 8.65373E-03-1.30092E+00-3.87745E-13 3.01981E-14
 -1      2793 2.77051E+01 4.96270E+00-2.04928E-01-1.91318E+00-8.59285E-13-1.37085E-13
 -1      2794 2.81332E+01 3.55421E+00-3.71281E-02-2.57778E+00-7.16927E-13-5.30131E-15
 -1      2795 2.48287E+01 2.74534E+00-1.99717E-02 1.69808E+00 4.23626E-13 7.22616E-14
 -1      2796 2.50493E+01 1.97028E+00-8.45305E-02 2.34644E+00 3.74679E-13 1.39596E-13
 -1      2797 2.50248E+01-2.57257E-01-6.02976E-02-2.05140E+00 1.91021E-13-4.89425E-13
 -1      2798 2.49581E+01 6.79411E-01-1.32987E-03-2.04758E+00 2.84231E-13-4.82003E-13
 -1      2799 2.47469E+01-1.41984E+00-2.04055E-02-1.24251E+00 7.77132E-14-4.44365E-13
 -1      2800 2.48789E+01-9.44000E-01 4.95924E-03-1.61740E+00 1.81201E-13-4.68474E-13
 -1      2801 2.56867E+01-8.49196E-01 7.34480E-03-1.79172E+00 1.49648E-13-5.94726E-13
 -1      2802 2.40461E+01-1.59926E+00 1.31510E-02-2.36337E-01-7.51513E-14-4.19475E-13
 -1      2803 2.42588E+01-1.60013E+00-1.64162E-02-6.80795E-01-6.23937E-15-4.11544E-13
 -1      2804 2.47414E+01-1.90316E+00-3.40604E-02-7.19627E-01 8.46892E-15-4.44085E-13
 -1      2805 2.31936E+01-1.24749E+00 1.95955E-02 5.72837E-01-8.04928E-14-3.53427E-13
 -1      2806 2.34557E+01-1.47416E+00-1.93529E-02 2.24305E-01-8.43691E-14-4.01813E-13
 -1      2807 2.36814E+01-1.92072E+00-1.92089E-02 3.61902E-01-6.93104E-14-3.70369E-13
 -1      2808 2.24339E+01-7.52650E-01 1.57040E-02 1.04680E+00-6.34046E-14-2.91977E-13
 -1      2809 2.26963E+01-1.00902E+00-1.19649E-02 8.34818E-01-7.04896E-14-3.34351E-13
 -1      2810 2.26315E+01-1.40081E+00-2.16020E-02 1.03871E+00-6.73346E-14-3.19804E-13
 -1      2811 2.18450E+01-3.25816E-01 1.00225E-02 1.24843E+00-3.26058E-15-2.32400E-13
 -1      2812 2.20770E+01-5.30955E-01-6.13456E-03 1.15469E+00-3.18495E-14-2.44861E-13
 -1      2813 2.18383E+01-7.89361E-01-1.70442E-02 1.36608E+00-9.50309E-14-2.65165E-13
 -1      2814 2.14141E+01-3.21896E-02 5.44202E-03 1.26774E+00-1.06211E-15-1.05058E-13
 -1      2815 2.16099E+01-1.65899E-01-1.69469E-03 1.25632E+00 1.65346E-14-1.29247E-13
 -1      2816 2.12983E+01-2.97523E-01-1.10624E-02 1.44756E+00-5.25494E-14-1.34065E-13
 -1      2817 2.10990E+01 1.39297E-01 2.45808E-03 1.18187E+00-3.94868E-14-2.76317E-14
 -1      2818 2.12628E+01 6.53325E-02 9.27908E-04 1.22027E+00-3.68317E-15-9.10818E-14
 -1      2819 2.09450E+01 2.61162E-02-6.56729E-03 1.38716E+00-1.16089E-14-5.24887E-14
 -1      2820 2.08626E+01 2.21348E-01 7.36815E-04 1.04351E+00-8.72028E-14 3.87083E-14
 -1      2821 2.10001E+01 1.89159E-01 2.42753E-03 1.10737E+00-4.68548E-14-1.22946E-14
 -1      2822 2.07120E+01 2.08193E-01-3.66869E-03 1.25221E+00-6.25200E-14-2.82881E-14
 -1      2823 2.06795E+01 2.46085E-01-1.41269E-04 8.86588E-01-1.88386E-13 1.16919E-13
 -1      2824 2.07950E+01 2.39747E-01 3.15175E-03 9.59631E-01-1.08380E-13 7.39568E-14
 -1      2825 2.05521E+01 2.90212E-01-2.03551E-03 1.08521E+00-1.14390E-13 7.72928E-14
 -1      2826 2.05338E+01 2.37967E-01-5.16887E-04 7.31376E-01-2.47152E-13 5.02054E-14
 -1      2827 2.06305E+01 2.45910E-01 3.36746E-03 8.03710E-01-2.35024E-13 5.62124E-14
 -1      2828 2.04358E+01 3.09501E-01-1.21453E-03 9.12042E-01-1.87106E-13 5.32030E-14
 -1      2829 2.04161E+01 2.13378E-01-6.19100E-04 5.88917E-01-1.53238E-13-1.61001E-13
 -1      2830 2.04962E+01 2.28073E-01 3.26569E-03 6.55153E-01-1.80101E-13-5.69782E-14
 -1      2831 2.03462E+01 2.93534E-01-8.41006E-04 7.47634E-01-1.26438E-13-1.38375E-13
 -1      2832 2.03206E+01 1.82386E-01-5.88045E-04 4.64308E-01-1.82854E-13-1.81731E-13
 -1      2833 2.03861E+01 1.99314E-01 2.98223E-03 5.22003E-01-1.60325E-13-1.26137E-13
 -1      2834 2.02743E+01 2.60411E-01-6.83407E-04 5.99838E-01-1.63092E-13-1.69166E-13
 -1      2835 2.02435E+01 1.50715E-01-5.02618E-04 3.59009E-01-1.50463E-13-1.20914E-13
 -1      2836 2.02962E+01 1.67369E-01 2.61130E-03 4.07512E-01-1.78895E-13-2.30599E-13
 -1      2837 2.02156E+01 2.21147E-01-6.12985E-04 4.71966E-01-1.37725E-13-1.47424E-13
 -1      2838 2.01818E+01 1.21338E-01-4.03832E-04 2.72385E-01-4.74694E-15-8.10549E-14
 -1      2839 2.02236E+01 1.36464E-01 2.21469E-03 3.12059E-01-1.18730E-13-1.38403E-13
 -1      2840 2.01673E+01 1.81956E-01-5.67065E-04 3.64532E-01-1.40082E-13-1.79134E-13
 -1      2841 2.01332E+01 9.55831E-02-3.11026E-04 2.02700E-01-5.96139E-14 9.03101E-14
 -1      2842 2.01657E+01 1.08666E-01 1.83044E-03 2.34427E-01 6.63809E-14 4.21242E-14
 -1      2843 2.01278E+01 1.46027E-01-5.20916E-04 2.76416E-01-6.44939E-14-1.34866E-13
 -1      2844 2.00953E+01 7.38371E-02-2.31825E-04 1.47740E-01-6.36565E-14 1.47982E-13
 -1      2845 2.01203E+01 8.47754E-02 1.47991E-03 1.72610E-01-1.07000E-13 1.10622E-13
 -1      2846 2.00960E+01 1.14739E-01-4.68163E-04 2.05636E-01-5.01950E-14 4.39697E-14
 -1      2847 2.00664E+01 5.59788E-02-1.67913E-04 1.05188E-01-5.53258E-14 2.38736E-13
 -1      2848 2.00852E+01 6.48921E-02 1.17319E-03 1.24321E-01-4.05321E-14 2.44367E-13
 -1      2849 2.00707E+01 8.84336E-02-4.10066E-04 1.49849E-01-7.65339E-14 6.44665E-14
 -1      2850 2.00447E+01 4.16377E-02-1.18237E-04 7.28360E-02-4.15771E-15 2.30464E-13
 -1      2851 2.00586E+01 4.87480E-02 9.13049E-04 8.72864E-02 2.53960E-14 2.34471E-13
 -1      2852 2.00509E+01 6.68969E-02-3.50218E-04 1.06668E-01-1.78077E-14 1.37702E-13
 -1      2853 2.00288E+01 3.03430E-02-8.06988E-05 4.86953E-02 1.22173E-13 1.72882E-13
 -1      2854 2.00387E+01 3.59089E-02 6.97872E-04 5.94009E-02 7.95572E-14 2.50540E-13
 -1      2855 2.00356E+01 4.96437E-02-2.92157E-04 7.38405E-02 2.82679E-14 2.17941E-13
 -1      2856 2.00173E+01 2.16070E-02-5.30003E-05 3.10411E-02 1.07633E-13 1.99112E-13
 -1      2857 2.00243E+01 2.58866E-02 5.23648E-04 3.88078E-02 1.01223E-13 1.89195E-13
 -1      2858 2.00241E+01 3.60845E-02-2.38505E-04 4.93452E-02 1.26023E-13 2.98169E-13
 -1      2859 2.00092E+01 1.49692E-02-3.30180E-05 1.84202E-02 1.04956E-13 2.42163E-13
 -1      2860 2.00140E+01 1.82013E-02 3.85258E-04 2.39213E-02 8.40873E-14 1.83870E-13
 -1      2861 2.00156E+01 2.56182E-02-1.90823E-04 3.14324E-02 1.03822E-13 2.04979E-13
 -1      2862 2.00038E+01 1.00177E-02-1.89407E-05 9.63629E-03 8.44927E-14 1.97421E-13
 -1      2863 2.00069E+01 1.24132E-02 2.77295E-04 1.34219E-02 1.72699E-13 1.86091E-13
 -1      2864 2.00095E+01 1.76822E-02-1.49777E-04 1.86281E-02 1.60457E-13 2.07221E-13
 -1      2865 2.00002E+01 6.39701E-03-9.29198E-06 3.72418E-03-1.38592E-13 9.24022E-14
 -1      2866 2.00022E+01 8.13609E-03 1.94547E-04 6.23495E-03-2.12277E-14 1.67536E-13
 -1      2867 2.00052E+01 1.17756E-02-1.15377E-04 9.71859E-03 4.45703E-14 2.62785E-13
 -1      2868 1.99981E+01 3.80865E-03-2.90293E-06-8.07384E-05 1.37494E-14 5.57971E-14
 -1      2869 1.99992E+01 5.04149E-03 1.32264E-04 1.50202E-03-8.04966E-14 6.91286E-14
 -1      2870 2.00022E+01 7.46744E-03-8.72077E-05 3.72419E-03-3.49889E-14 1.21314E-13
 -1      2871 1.99969E+01 2.00732E-03 1.13229E-06-2.37361E-03 1.90200E-14 1.95119E-14
 -1      2872 1.99974E+01 2.85649E-03 8.62807E-05-1.45072E-03 6.06087E-14 5.31534E-14
 -1      2873 2.00003E+01 4.39679E-03-6.46167E-05-1.31332E-04 4.05553E-14 9.84545E-14
 -1      2874 1.99964E+01 7.95285E-04 3.50314E-06-3.60965E-03 1.76562E-13 8.14758E-14
 -1      2875 1.99965E+01 1.35900E-03 5.30491E-05-3.14291E-03 8.18326E-14-2.40284E-14
 -1      2876 1.99991E+01 2.26764E-03-4.68464E-05-2.45233E-03 1.04870E-13 1.31008E-13
 -1      2877 1.99963E+01 1.58956E-05 4.72529E-06-4.13079E-03-2.22848E-14 1.61582E-13
 -1      2878 1.99961E+01 3.71504E-04 2.96214E-05-3.96826E-03 1.38432E-13 1.67732E-13
 -1      2879 1.99984E+01 8.41866E-04-3.31260E-05-3.70111E-03 2.32891E-14 2.36663E-13
 -1      2880 1.99964E+01-4.52894E-04 5.17707E-06-4.18882E-03-2.43139E-13-1.76565E-14
 -1      2881 1.99962E+01-2.45448E-04 1.35976E-05-4.21949E-03-9.61587E-14 5.07432E-14
 -1      2882 1.99981E+01-6.88317E-05-2.27273E-05-4.22488E-03 3.31155E-14 2.03932E-13
 -1      2883 1.99968E+01-7.04665E-04 5.12925E-06-3.96505E-03-2.77534E-13-5.50760E-14
 -1      2884 1.99965E+01-5.99676E-04 3.06069E-06-4.10971E-03-3.37217E-13-7.82587E-14
 -1      2885 1.99980E+01-6.10906E-04-1.49955E-05-4.27929E-03-2.39421E-13 2.86281E-13
 -1      2886 1.99972E+01-8.10070E-04 4.76892E-06-3.58657E-03-2.00304E-13-1.79524E-14
 -1      2887 1.99968E+01-7.73217E-04-3.49216E-06-3.79034E-03-2.19605E-13-6.40424E-16
 -1      2888 1.99981E+01-8.96466E-04-9.36418E-06-4.04833E-03-2.67519E-13 4.91170E-14
 -1      2889 1.99976E+01-8.21688E-04 4.21987E-06-3.13933E-03-1.04420E-14-2.52390E-14
 -1      2890 1.99973E+01-8.27563E-04-7.21676E-06-3.36566E-03-3.77437E-14-7.21212E-15
 -1      2891 1.99983E+01-1.01003E-03-5.35810E-06-3.66085E-03-1.13787E-13 1.05292E-14
 -1      2892 1.99980E+01-7.78177E-04 3.55603E-06-2.67863E-03-1.93616E-13 2.49198E-13
 -1      2893 1.99977E+01-8.08186E-04-8.98384E-06-2.90459E-03-1.75650E-13 4.29235E-14
 -1      2894 1.99985E+01-1.01441E-03-2.58795E-06-3.20392E-03-1.33115E-13 5.94507E-14
 -1      2895 1.99984E+01-7.07751E-04 2.82746E-06-2.23710E-03-9.81577E-14 4.21397E-13
 -1      2896 1.99981E+01-7.48379E-04-9.43989E-06-2.44978E-03-1.64951E-13 3.03230E-13
 -1      2897 1.99987E+01-9.55785E-04-7.50345E-07-2.73338E-03-2.02982E-13 3.30966E-13
 -1      2898 1.99987E+01-6.30974E-04 2.07600E-06-1.83098E-03-2.30938E-14 4.34717E-13
 -1      2899 1.99985E+01-6.72390E-04-9.02543E-06-2.02470E-03 5.47479E-14 5.28272E-13
 -1      2900 1.99989E+01-8.67794E-04 3.97386E-07-2.28214E-03-8.27881E-14 4.63464E-13
 -1      2901 1.99990E+01-5.63126E-04 1.04355E-06-1.46499E-03-2.49493E-13 4.82376E-13
 -1      2902 1.99988E+01-5.98018E-04-8.08887E-06-1.63901E-03-1.03784E-13 5.73356E-13
 -1      2903 1.99991E+01-7.74947E-04 1.01132E-06-1.86657E-03-1.39206E-13 6.67436E-13
 -1      2904 1.99992E+01-5.15167E-04-1.67103E-06-1.13597E-03-2.14018E-13 5.51543E-13
 -1      2905 1.99991E+01-5.37754E-04-7.10850E-06-1.29170E-03-3.29136E-13 5.03165E-13
 -1      2906 1.99993E+01-6.94749E-04 1.63399E-06-1.49152E-03-2.72870E-13 5.04732E-13
 -1      2907 1.99994E+01-5.19988E-04-3.03282E-06-8.84711E-04 4.43949E-14 5.44654E-13
 -1      2908 1.99993E+01-5.32980E-04-6.58178E-06-1.03128E-03-1.20467E-13 5.41694E-13
 -1      2909 1.99994E+01-6.64847E-04 5.80209E-06-1.19937E-03-1.08424E-13 5.85301E-13
 -1      2910 1.99996E+01-6.87919E-04 6.17076E-06-9.76131E-04 1.29808E-13 6.85255E-13
 -1      2911 2.00004E+01-1.66422E-03 3.91963E-06-9.43346E-05-7.24796E-14 5.24128E-14
 -1      2912 2.00004E+01-1.64389E-03 2.12053E-06-2.60877E-04-1.28825E-13-2.65983E-13
 -1      2913 1.99994E+01-6.15430E-04-4.83007E-06 1.03889E-03-2.57879E-13-1.23904E-13
 -1      2914 1.99995E+01-6.00748E-04-8.29285E-07 9.34555E-04-3.89010E-13-3.60943E-14
 -1      2915 1.99995E+01-7.55396E-04 1.91219E-06 1.18167E-03-3.02799E-13-1.01416E-13
 -1      2916 2.00002E+01-1.44022E-03 6.25283E-06-7.39638E-04 5.02218E-14-7.17972E-14
 -1      2917 2.00001E+01-1.34644E-03-1.88191E-06-8.45551E-04 2.15124E-14-5.00304E-14
 -1      2918 2.00004E+01-1.64249E-03 2.13956E-06 2.67002E-04-1.85661E-13-1.43076E-13
 -1      2919 2.00004E+01-1.66376E-03 3.89677E-06 1.00686E-04-1.85857E-13-6.13407E-14
 -1      2920 2.00006E+01-1.71223E-03-5.40204E-06 3.58140E-06-1.63559E-13-7.18197E-15
 -1      2921 2.00004E+01-1.59474E-03 5.35153E-06-4.44355E-04-3.06591E-13-4.86345E-13
 -1      2922 2.00003E+01-1.53493E-03 5.08739E-08-5.90157E-04-2.36396E-14-3.19501E-13
 -1      2923 2.00004E+01-1.53196E-03-4.54599E-06-7.41224E-04-8.86712E-14-2.69760E-13
 -1      2924 2.00005E+01-1.66668E-03-5.19961E-06-3.92306E-04-6.63721E-15-2.23628E-13
 -1      2925 1.78307E+01-3.88491E+00 5.29232E-02 6.03628E+00-3.26669E-13-8.23647E-14
 -1      2926 1.46308E+01-2.77268E+00 9.78727E-02 5.80955E+00-3.52718E-13 4.64906E-14
 -1      2927 2.00003E+01-1.53457E-03 4.72788E-08 5.90190E-04-4.48202E-14-3.41938E-13
 -1      2928 2.00004E+01-1.59361E-03 5.28881E-06 4.47120E-04-1.17120E-13-5.86514E-14
 -1      2929 2.00005E+01-1.66576E-03-5.27864E-06 3.95867E-04-2.75629E-13-1.09209E-13
 -1      2930 2.00001E+01-1.34605E-03-1.85087E-06 8.45593E-04-1.45502E-14-2.79557E-13
 -1      2931 2.00002E+01-1.43996E-03 6.21105E-06 7.39649E-04-5.22004E-14-3.91185E-13
 -1      2932 2.00004E+01-1.53151E-03-4.55755E-06 7.41281E-04-1.21116E-13-3.48469E-13
 -1      2933 1.99999E+01-1.09207E-03-1.29821E-06 9.90449E-04-2.70139E-13-3.22369E-13
 -1      2934 2.00000E+01-1.21475E-03 5.81455E-06 9.42359E-04 1.91032E-14-2.39737E-13
 -1      2935 2.00002E+01-1.31939E-03-3.00481E-06 9.99964E-04-1.03808E-13-3.30878E-13
 -1      2936 2.53433E+01 1.07424E+00-2.00937E-03 2.73666E+00 3.02348E-13 2.22794E-13
 -1      2937 2.55960E+01 1.94913E-01-5.05025E-02 2.85938E+00 2.45243E-13 2.50204E-13
 -1      2938 2.61149E+01 1.91377E+00-2.66965E-02 2.82297E+00 3.88634E-13 1.24799E-13
 -1      2939 2.88968E+01 2.52194E-01-1.79763E-01-1.27112E+00 4.12982E-13-6.67078E-13
 -1      2940 2.85327E+01-1.36091E+00 1.01337E-02-5.86257E-01 2.17007E-13-6.98344E-13
 -1      2941 2.09887E+01-4.43568E+00 1.45357E-01-5.32170E+00 5.02168E-13-1.47449E-13
 -1      2942 2.36121E+01-4.72011E+00-1.35791E-01-4.19911E+00 4.02012E-13-3.40849E-13
 -1      2943 2.42079E+01 1.41430E-01-9.08069E-03-1.89166E+00-2.08659E-13-1.55931E-13
 -1      2944 2.43111E+01-2.18699E-01-2.64937E-02-1.97004E+00-2.02140E-13-1.05286E-13
 -1      2945 1.99996E+01-7.23602E-04-5.98115E-07 9.69349E-04-3.71523E-13-3.02189E-14
 -1      2946 1.31356E+01 1.92986E+00 1.67149E-02 3.22736E+00 3.34592E-13-7.61363E-13
 -1      2947 1.54956E+01 1.30377E+00 9.93663E-02 3.19332E+00 3.20195E-13-6.76119E-13
 -1      2948 2.75163E+01-2.02187E+00 2.32927E-02 1.72923E-01 1.29764E-13 7.32886E-14
 -1      2949 2.86529E+01-8.40363E-01-1.73348E-01 1.42264E+00 3.24078E-13 1.61662E-13
 -1      2950 2.48062E+01 1.67885E+00-8.00293E-02-1.81615E+00 3.85473E-13-3.95537E-13
 -1      2951 2.46820E+01 2.55227E+00-2.05112E-02-1.22989E+00 4.04309E-13-3.23586E-13
 -1      2952 2.58071E+01 1.36583E+00-4.54536E-02-2.04498E+00 3.82493E-13-5.65187E-13
 -1      2953 2.45721E+01 3.08861E+00-5.95885E-02-2.57699E-01 4.26333E-13-1.79593E-13
 -1      2954 2.46051E+01 3.16139E+00-6.14068E-02 6.50061E-01 4.44762E-13-7.30579E-14
 -1      2955 2.56863E+01 3.69371E+00-7.11908E-02 1.36093E+00 5.22568E-13-7.89056E-14
 -1      2956 2.55988E+01 3.46824E+00-8.43368E-02-7.97170E-01 5.32074E-13-3.16826E-13
 -1      2957 2.46932E+01-4.30737E-01-3.87900E-03-2.18098E+00-1.85947E-13-4.86495E-14
 -1      2958 2.46621E+01-4.34505E-01-1.67785E-02-2.29788E+00-2.11881E-13-2.54107E-14
 -1      2959 2.51031E+01-4.15889E-01 3.41459E-03-2.41675E+00-2.08447E-13 3.15026E-14
 -1      2960 2.45037E+01-4.43461E-01 3.20496E-03-1.89823E+00-1.62906E-13-7.66279E-14
 -1      2961 2.33934E+01-1.87519E-01 1.81956E-03 5.98904E-01 1.43452E-13-1.00331E-13
 -1      2962 2.21918E+01-1.81514E-02 2.27965E-02-4.70134E-02 6.31448E-14-1.68602E-13
 -1      2963 2.20896E+01-8.73109E-01-1.79824E-02-6.88114E-01 5.34468E-15-1.53494E-13
 -1      2964 2.55379E+01-4.32691E-01-1.09036E-02 2.62714E+00 2.20822E-13 2.70207E-13
 -1      2965 2.57239E+01-7.98573E-01 1.26833E-02 2.44743E+00 2.11489E-13 2.38267E-13
 -1      2966 2.56690E+01-1.10282E+00-3.70434E-02 2.13998E+00 1.83359E-13 1.43560E-13
 -1      2967 2.30983E+01 8.50281E-01-6.62197E-03-1.37200E+00-1.51276E-13-2.84869E-13
 -1      2968 1.77413E+01 5.48038E-01-5.66291E-03 2.51041E+00 2.80185E-13-5.33825E-13
 -1      2969 1.96934E+01 1.50028E-01 2.95157E-02 1.81332E+00 2.02749E-13-4.88232E-13
 -1      2970 1.70197E+01 1.13553E-01 3.01850E-02 3.30422E+00 3.16885E-13-5.78735E-13
 -1      2971 2.63398E+01-3.52736E+00 7.20133E-02-1.97689E+00 2.14205E-13-6.48759E-13
 -1      2972 2.79519E+01-2.28400E+00-1.59646E-01-5.28544E-01-2.25341E-14-7.60447E-13
 -1      2973 2.90711E+01 4.84359E+00-1.02534E-01 2.28163E+00 7.47680E-13 1.24761E-14
 -1      2974 2.86601E+01 5.73722E+00-1.99467E-01 1.40628E+00 7.99832E-13-1.06318E-13
 -1      2975 6.02529E+00 1.81790E+00 1.21829E-01 2.73902E+00 1.70620E-13-1.12890E-12
 -1      2976 5.42204E+00 2.34201E+00 1.23943E-01 9.41201E-01 1.18662E-13-1.16876E-12
 -1      2977 2.85263E+01 6.07916E+00-1.59894E-01 3.02350E-01 8.06438E-13-2.63158E-13
 -1      2978 2.86706E+01 5.56524E+00-1.41097E-01-8.12755E-01 8.21232E-13-4.26340E-13
 -1      2979 2.92855E+01 1.31571E+00-3.66061E-02 2.40184E+00 4.96186E-13 2.17049E-13
 -1      2980 2.92269E+01 3.01451E+00-2.09062E-01 2.55144E+00 6.64302E-13 1.44412E-13
 -1      2981 2.32488E+01-3.07538E+00 9.77068E-02-2.82606E+00-1.09954E-13-2.77056E-13
 -1      2982 2.54860E+01-3.13112E+00-1.21495E-01-1.58736E+00 1.18933E-14-1.01544E-13
 -1      2983 2.90848E+01 3.34279E-01-4.72190E-02 6.59012E-01-3.29639E-13-7.82652E-13
 -1      2984 2.96315E+01 2.40673E+00-1.89530E-01 1.12363E+00-5.92415E-13-7.45987E-13
 -1      2985 9.82847E+00 4.84560E-01 1.20138E-01-4.30566E+00-1.63661E-13-1.01610E-12
 -1      2986 1.22811E+01-5.58302E-01 7.64292E-02-5.02939E+00-1.64924E-13-9.17585E-13
 -1      2987 2.70825E+01-1.81287E+00-1.54893E-01 1.87994E-01-2.49304E-13-3.94129E-14
 -1      2988 2.53989E+01-2.49529E+00 5.37976E-02 1.64356E+00-3.36675E-14-1.46314E-13
 -1      2989 2.78737E+01 6.00533E+00-1.49003E-01 1.60077E-01-8.54400E-13-4.95808E-13
 -1      2990 2.76021E+01 6.02848E+00-1.47269E-01-9.36055E-01-8.64170E-13-3.18051E-13
 -1      2991 1.65547E+01-1.75722E+00 1.06050E-02 5.25174E+00 2.55185E-13-6.52943E-13
 -1      2992 1.39198E+01-7.55949E-01 1.27478E-01 5.16983E+00 3.18315E-13-7.55285E-13
 -1      2993 2.27250E+01-2.89427E+00-8.40701E-02 3.28590E+00 1.03612E-13-3.07754E-13
 -1      2994 1.95981E+01-2.41137E+00 8.06779E-02 4.41746E+00 2.25445E-13-4.95350E-13
 -1      2995 1.91519E+01-1.63003E+00 8.74759E-02 3.91540E+00 3.23033E-13-4.93156E-13
 -1      2996 2.93024E+01 4.24602E+00-9.98017E-02 1.33474E+00-7.58643E-13-7.01675E-13
 -1      2997 2.82598E+01 5.41481E+00-2.06743E-01 9.87947E-01-8.57564E-13-6.48703E-13
 -1      2998 2.81786E+01 2.78162E+00-8.86691E-02 1.55405E+00-5.50476E-13-7.72049E-13
 -1      2999 8.83375E+00-8.90972E-01 1.43582E-01-3.91794E+00 3.29577E-13 6.86007E-13
 -1      3000 1.11025E+01-1.90965E+00 9.61309E-02-5.54978E+00 3.98931E-13 4.07729E-13
 -1      3001 1.37825E+01-2.89348E+00 1.50363E-01-6.12933E+00 4.91329E-13 1.91194E-13
 -1      3002 1.70538E+01-3.97916E+00-3.52073E-02-6.31578E+00 4.67709E-13-5.82867E-16
 -1      3003 1.37460E+01-1.91262E+00 1.41842E-01-5.31864E+00 4.53484E-13 2.10373E-13
 -1      3004 1.08378E+01-1.38746E+00 7.59872E-02 4.81533E+00-2.92280E-13 2.94043E-13
 -1      3005 8.30545E+00-5.23471E-01 2.33683E-01 3.19808E+00-2.54172E-13 6.26110E-13
 -1      3006 2.30317E+01-4.77457E+00-4.91365E-02 4.56656E+00-2.19935E-13-3.45314E-13
 -1      3007 2.04965E+01-4.46821E+00 6.69512E-02 5.33181E+00-3.03368E-13-2.23788E-13
 -1      3008 1.99410E+01-3.82371E+00 8.11679E-02 5.01934E+00-3.72008E-13-2.31131E-13
 -1      3009 2.45435E+01-4.23827E+00 7.49679E-02 3.08206E+00-2.48732E-13-5.44217E-13
 -1      3010 2.45012E+01-1.00539E-02-7.36048E-03 1.54077E+00 2.25412E-13 5.13639E-14
 -1      3011 2.11845E+01 3.42922E-02 2.11355E-02 7.50423E-01 1.26710E-13-4.02866E-13
 -1      3012 2.23391E+01-9.64091E-02 7.67814E-03-6.14952E-03 2.60885E-14-3.30522E-13
 -1      3013 2.10589E+01-6.27655E-01 1.31383E-02 1.43708E+00 1.72770E-13-3.79446E-13
 -1      3014 2.43097E+01-3.70127E-01-1.34632E-02 1.36547E+00 1.78773E-13 3.40439E-15
 -1      3015 2.31924E+01 7.94029E-02-1.89293E-02-1.04973E+00-1.03043E-13-2.47576E-13
 -1      3016 8.37312E+00 2.17039E+00 1.58643E-01 3.06525E+00 2.56753E-13-1.03552E-12
 -1      3017 2.45079E+01-1.01718E+00 2.69562E-03 1.04828E+00 1.29659E-13 4.20410E-15
 -1      3018 2.70868E+01-1.12197E+00-7.19914E-03-9.58939E-01-2.07482E-13 4.48669E-14
 -1      3019 2.00002E+01-1.32051E-03-3.08494E-06-9.99289E-04-8.48327E-14 1.02750E-13
 -1      3020 2.00000E+01-1.21588E-03 6.23952E-06-9.41468E-04-9.13546E-14 4.70879E-14
 -1      3021 1.99999E+01-1.09601E-03-2.56524E-06-9.91483E-04-1.74160E-13 4.13146E-13
 -1      3022 2.73883E+01 2.04511E+00-4.96049E-02-2.54160E+00-5.39492E-13 3.80390E-14
 -1      3023 2.41167E+01-2.40724E+00 5.09443E-02 1.76389E+00 1.12861E-13-1.88495E-13
 -1      3024 2.73676E+01-2.44462E+00 1.17916E-02-7.88147E-02 8.80329E-15-6.84522E-13
 -1      3025 2.70417E+01 5.04270E+00-9.05588E-02 6.59874E-01-7.45765E-13-5.62231E-13
 -1      3026 2.77664E+01-1.10749E+00-6.08794E-02 6.22839E-01-6.39974E-14-8.11032E-13
 -1      3027 1.99998E+01-9.64325E-04 5.76145E-06-1.01499E-03-2.56872E-13 2.46568E-13
 -1      3028 1.99997E+01-8.29875E-04-2.88352E-06-1.00324E-03 4.00272E-14 3.87967E-13
 -1      3029 1.99996E+01-8.22495E-04-5.98951E-06-1.12006E-03-3.51918E-14 2.69133E-13
 -1      3030 1.99999E+01-1.07483E-03-3.68391E-06-1.12326E-03-2.84709E-13 3.65764E-13
 -1      3031 2.61852E+01-1.12715E-01-1.19928E-02 2.86849E+00 2.54588E-13 2.37425E-13
 -1      3032 1.99997E+01-8.67867E-04-5.09718E-07 9.85878E-04-3.91252E-13-1.19007E-13
 -1      3033 8.66794E+00-2.22955E-02 1.60818E-01 1.91876E+00-1.42934E-13 6.21780E-13
 -1      3034 2.17048E+01-2.64592E+00 6.39444E-02-3.10759E+00-1.59789E-13-3.18630E-13
 -1      3035 2.83448E+01 1.42996E-01-4.52443E-03 2.34957E+00 3.32685E-13 2.56087E-13
 -1      3036 2.50463E+01-3.87777E+00 2.46979E-02-2.44986E+00 3.56479E-13-5.71980E-13
 -1      3037 8.52973E+00 2.61689E-01 7.30981E-02-1.40690E+00 1.12507E-13 6.77458E-13
 -1      3038 8.55069E+00-2.42400E-01 1.73453E-01-2.82601E+00 2.35006E-13 7.20562E-13
 -1      3039 1.08728E+01-2.30368E-01 1.15844E-01-3.43343E+00 3.10071E-13 4.95534E-13
 -1      3040 2.61934E+01-2.48561E+00-4.62614E-02-1.25789E-01 2.84217E-14 6.29496E-14
 -1      3041 1.13105E+01 2.30155E+00 1.00809E-01 3.35598E+00 3.07539E-13-8.70214E-13
 -1      3042 1.22930E+01 1.20770E+00 1.05358E-01 4.08135E+00 3.46181E-13-8.25368E-13
 -1      3043 1.52111E+01-9.72945E-01 9.40209E-02-4.53384E+00-2.31620E-13-7.38548E-13
 -1      3044 1.94581E+01-3.80729E+00 9.25584E-02-5.31335E+00 5.28980E-13-1.30885E-13
 -1      3045 2.65633E+01 4.77103E+00-1.14184E-01-1.45664E+00-7.60336E-13-2.36124E-13
 -1      3046 2.74857E+01 5.22831E+00-1.21790E-01 8.36096E-01 6.94417E-13-1.45647E-13
 -1      3047 1.99997E+01-8.65253E-04 1.37541E-06 1.15001E-03-3.28808E-13-1.07785E-13
 -1      3048 1.99998E+01-9.93716E-04 1.52509E-06 1.05895E-03-3.11327E-13-1.17190E-13
 -1      3049 1.99999E+01-1.09442E-03-3.13472E-06 1.16248E-03-1.15934E-13-3.62895E-13
 -1      3050 1.99997E+01-8.93589E-04-4.24024E-06 1.26182E-03-2.46004E-13-1.29182E-13
 -1      3051 2.81485E+01 3.44424E+00-7.12062E-02 2.57626E+00 5.88390E-13 1.35947E-13
 -1      3052 2.88440E+01 4.06412E+00-1.97598E-01-1.51238E+00 7.68219E-13-5.83630E-13
 -1      3053 2.91592E+01 2.38586E+00-9.57287E-02-1.68852E+00 6.28358E-13-6.43818E-13
 -1      3054 6.98760E+00 3.14773E+00 8.21250E-02 8.50787E-01 1.46223E-13-1.08222E-12
 -1      3055 6.19930E+00 2.79215E+00 1.87560E-01-1.67671E-01 7.49296E-14-1.16759E-12
 -1      3056 2.75964E+01 4.08500E+00-1.21661E-01-1.29668E+00 6.80345E-13-5.12222E-13
 -1      3057 2.78650E+01 8.85521E-01-7.24341E-02-1.84611E+00 4.12441E-13-6.97498E-13
 -1      3058 1.31439E+01 3.62115E-01 1.09774E-01 4.54550E+00 3.55022E-13-8.02400E-13
 -1      3059 1.59944E+01-2.07927E+00 4.65584E-02 4.92421E+00-3.80140E-13-4.26395E-14
 -1      3060 1.35575E+01-1.74620E+00 1.47324E-01 5.19232E+00-3.45182E-13 1.54016E-13
 -1      3061 1.26423E+01-7.12028E-01 6.10045E-02 4.10913E+00-2.96013E-13 2.11137E-13
 -1      3062 9.33178E+00 3.65267E+00 4.13611E-02 1.76762E+00 2.20424E-13-9.22866E-13
 -1      3063 1.06078E+01 3.07634E+00 6.45333E-02 2.58211E+00 2.73025E-13-8.68770E-13
 -1      3064 2.32029E+01-2.51527E-01-3.99642E-03-7.37777E-01-4.66779E-14-2.37907E-13
 -1      3065 2.42268E+01-5.70667E-01 1.21964E-02-1.38161E+00-8.83920E-14-1.40176E-13
 -1      3066 2.45548E+01-8.52497E-01-2.02606E-02-1.56693E+00-1.15471E-13-8.39446E-14
 -1      3067 2.34114E+01-8.64186E-01-3.57360E-03-3.41771E-01 5.90673E-15-2.18193E-13
 -1      3068 8.21556E+00 3.37949E+00 1.42281E-01 1.25053E+00 1.75200E-13-1.03206E-12
 -1      3069 1.34091E+01-1.13415E+00 9.23332E-02-4.60514E+00 3.37425E-13 1.93234E-13
 -1      3070 1.55101E+01-2.25419E+00 5.68136E-03-5.31358E+00 4.43673E-13 8.04912E-16
 -1      3071 2.57582E+01 2.48931E+00-1.32834E-01-2.61055E+00-5.56548E-13-2.73045E-14
 -1      3072 2.56167E+01 3.65990E+00-5.76910E-02-2.12354E+00-6.41417E-13-1.28918E-13
 -1      3073 2.54107E+01 4.40609E+00-1.03640E-01-1.05443E+00-6.76681E-13-3.04545E-13
 -1      3074 2.52807E+01 4.51868E+00-1.28760E-01-1.04306E-01-6.50091E-13-4.38880E-13
 -1      3075 2.55135E+01 1.72117E+00-3.76035E-02 1.81105E+00-2.95278E-13-7.38897E-13
 -1      3076 2.55170E+01 4.13563E-01-9.45319E-02 1.88160E+00-1.91337E-13-7.65221E-13
 -1      3077 2.53893E+01-7.42022E-01-1.29009E-02 1.46743E+00-5.71088E-14-6.91554E-13
 -1      3078 2.51979E+01-1.57818E+00 6.39455E-04 1.08070E+00 3.45671E-14-6.38765E-13
 -1      3079 2.44634E+01-2.06182E+00-2.51212E-02 4.03060E-01 8.06200E-14-5.18042E-13
 -1      3080 2.41104E+01-2.18833E+00 2.96328E-02-3.58343E-02 1.74230E-13-4.44372E-13
 -1      3081 2.50843E+01-2.30894E+00-6.10256E-02 3.10767E-01 1.27073E-13-6.20871E-13
 -1      3082 2.33060E+01-2.15609E+00-2.06808E-02-5.35328E-01 1.71093E-13-3.68402E-13
 -1      3083 2.28717E+01-1.91391E+00 2.51540E-02-8.64832E-01 1.51669E-13-3.42386E-13
 -1      3084 2.36268E+01-2.59130E+00-4.27838E-02-7.84877E-01 2.39416E-13-4.20288E-13
 -1      3085 2.22452E+01-1.63720E+00-6.13901E-03-1.09086E+00 8.06497E-14-3.02394E-13
 -1      3086 2.18616E+01-1.30914E+00 2.11705E-02-1.27285E+00 8.14615E-14-2.98395E-13
 -1      3087 2.22531E+01-2.00539E+00-2.82667E-02-1.39082E+00 1.33065E-13-3.72171E-13
 -1      3088 2.14276E+01-1.01045E+00-1.18344E-03-1.34057E+00 2.88764E-14-2.36715E-13
 -1      3089 2.11374E+01-7.15312E-01 1.35511E-02-1.40932E+00-4.35575E-14-2.29377E-13
 -1      3090 2.12698E+01-1.28083E+00-2.17940E-02-1.61557E+00 6.81647E-14-2.82329E-13
 -1      3091 2.08737E+01-4.72081E-01 1.84904E-03-1.38394E+00-8.49504E-14-1.88241E-13
 -1      3092 2.06707E+01-2.56012E-01 7.32707E-03-1.38140E+00-3.82660E-14-1.99284E-13
 -1      3093 2.06315E+01-6.31831E-01-1.51040E-02-1.60038E+00-3.42601E-14-2.38813E-13
 -1      3094 2.05257E+01-8.72019E-02 2.73483E-03-1.31352E+00-3.67185E-14-1.90296E-13
 -1      3095 2.03903E+01 5.15484E-02 3.36856E-03-1.27033E+00-9.63314E-16-2.13052E-13
 -1      3096 2.02625E+01-1.59211E-01-9.14786E-03-1.47213E+00-4.72286E-14-1.44231E-13
 -1      3097 2.03193E+01 1.54514E-01 2.78125E-03-1.18604E+00 1.54547E-14-1.71816E-13
 -1      3098 2.02301E+01 2.32142E-01 1.00662E-03-1.12212E+00 1.45009E-14-1.44771E-13
 -1      3099 2.00685E+01 1.43131E-01-4.98650E-03-1.30073E+00-3.47961E-15-1.43281E-13
 -1      3100 2.02018E+01 2.85520E-01 2.55863E-03-1.03463E+00 5.34002E-14-9.15405E-14
 -1      3101 2.01420E+01 3.20028E-01-3.15341E-04-9.62518E-01 7.65028E-14 1.58996E-14
 -1      3102 1.99790E+01 3.12203E-01-2.42134E-03-1.11908E+00 9.86913E-14-1.51345E-13
 -1      3103 2.01364E+01 3.39662E-01 2.29640E-03-8.78617E-01 2.91759E-14 9.27340E-14
 -1      3104 2.00947E+01 3.46271E-01-9.86489E-04-8.06117E-01 7.49224E-14 7.78374E-14
 -1      3105 1.99475E+01 3.87513E-01-9.69995E-04-9.42991E-01 1.04653E-13-6.27078E-15
 -1      3106 2.00998E+01 3.44870E-01 2.05431E-03-7.29291E-01 1.22398E-13 8.39266E-14
 -1      3107 2.00693E+01 3.34962E-01-1.26385E-03-6.61092E-01 1.22667E-13 6.88952E-14
 -1      3108 1.99452E+01 4.02077E-01-2.17920E-04-7.80187E-01 8.20776E-14 5.93275E-15
 -1      3109 2.00784E+01 3.21706E-01 1.83307E-03-5.93015E-01 4.49260E-14 5.87982E-14
 -1      3110 2.00549E+01 3.03160E-01-1.31234E-03-5.31719E-01 3.77856E-14 1.37967E-14
 -1      3111 1.99553E+01 3.80508E-01 1.22972E-04-6.34400E-01 6.73857E-14-1.32284E-13
 -1      3112 2.00646E+01 2.84232E-01 1.62217E-03-4.72979E-01 4.19993E-14-2.81506E-14
 -1      3113 2.00459E+01 2.62198E-01-1.23432E-03-4.19767E-01 1.88341E-14-1.54143E-13
 -1      3114 1.99691E+01 3.39901E-01 2.41507E-04-5.07157E-01-1.22962E-14-1.47741E-13
 -1      3115 2.00544E+01 2.41526E-01 1.41575E-03-3.70252E-01-4.20915E-14-1.45987E-13
 -1      3116 2.00393E+01 2.19178E-01-1.09331E-03-3.25345E-01-9.58591E-14-1.89008E-13
 -1      3117 1.99822E+01 2.91476E-01 2.48969E-04-3.98596E-01-2.72355E-14-2.66562E-13
 -1      3118 2.00462E+01 1.99097E-01 1.21483E-03-2.84476E-01-1.75009E-13-1.31754E-13
 -1      3119 2.00338E+01 1.78244E-01-9.28851E-04-2.47487E-01-1.44918E-13-1.55178E-13
 -1      3120 1.99928E+01 2.42202E-01 2.07973E-04-3.07893E-01-1.14929E-13-2.39228E-13
 -1      3121 2.00389E+01 1.60014E-01 1.02370E-03-2.14409E-01-1.14174E-13-1.86455E-13
 -1      3122 2.00288E+01 1.41560E-01-7.64377E-04-1.84594E-01-1.17379E-13-2.39446E-13
 -1      3123 2.00006E+01 1.96092E-01 1.52552E-04-2.33580E-01-1.46109E-13-1.13360E-13
 -1      3124 2.00324E+01 1.25743E-01 8.46922E-04-1.58318E-01-8.79754E-14-1.62487E-13
 -1      3125 2.00243E+01 1.10020E-01-6.12665E-04-1.34765E-01-3.05127E-14-1.77227E-13
 -1      3126 2.00057E+01 1.55179E-01 9.94022E-05-1.73823E-01-1.23731E-13-1.27223E-13
 -1      3127 2.00266E+01 9.67497E-02 6.88005E-04-1.14272E-01-1.52509E-15-1.79258E-13
 -1      3128 2.00201E+01 8.37423E-02-4.79743E-04-9.60226E-02 5.47553E-15-2.10553E-13
 -1      3129 2.00087E+01 1.20235E-01 5.53691E-05-1.26635E-01-1.50183E-14-1.31255E-13
 -1      3130 2.00215E+01 7.29068E-02 5.48936E-04-8.03312E-02-1.98669E-14-1.32000E-13
 -1      3131 2.00164E+01 6.24077E-02-3.67515E-04-6.64640E-02-9.82928E-16-2.05275E-13
 -1      3132 2.00101E+01 9.12597E-02 2.21418E-05-9.00410E-02 6.12586E-15-1.37602E-13
 -1      3133 2.00171E+01 5.37632E-02 4.30210E-04-5.46772E-02 1.94286E-14-1.73899E-13
 -1      3134 2.00131E+01 4.54719E-02-2.75476E-04-4.43505E-02 4.23234E-14-1.82862E-13
 -1      3135 2.00103E+01 6.78204E-02-1.03489E-06-6.21804E-02 3.55594E-14-2.09887E-13
 -1      3136 2.00133E+01 3.87196E-02 3.31118E-04-3.56767E-02-3.13062E-15-3.31375E-13
 -1      3137 2.00103E+01 3.23045E-02-2.01829E-04-2.81528E-02-9.38583E-14-3.99517E-13
 -1      3138 2.00098E+01 4.92702E-02-1.58806E-05-4.13759E-02-2.86675E-14-3.41832E-13
 -1      3139 2.00102E+01 2.71360E-02 2.50120E-04-2.19145E-02-8.40707E-14-3.18660E-13
 -1      3140 2.00079E+01 2.22715E-02-1.44187E-04-1.65667E-02-8.16349E-14-2.64433E-13
 -1      3141 2.00089E+01 3.48866E-02-2.43165E-05-2.61639E-02-1.37487E-14-3.94113E-13
 -1      3142 2.00077E+01 1.83953E-02 1.85195E-04-1.21984E-02-7.63304E-14-2.97942E-13
 -1      3143 2.00060E+01 1.47824E-02-1.00009E-04-8.50791E-03-5.75598E-14-2.43317E-13
 -1      3144 2.00078E+01 2.39551E-02-2.81078E-05-1.53028E-02-5.93930E-14-2.21708E-13
 -1      3145 2.00056E+01 1.19374E-02 1.34119E-04-5.54811E-03-6.07145E-14-1.65979E-13
 -1      3146 2.00044E+01 9.31365E-03-6.68506E-05-3.09462E-03-1.20123E-13-1.88172E-13
 -1      3147 2.00066E+01 1.58166E-02-2.87253E-05-7.76352E-03-5.97063E-14-2.70750E-13
 -1      3148 2.00040E+01 7.27506E-03 9.46750E-05-1.17426E-03-1.29871E-13-3.78355E-14
 -1      3149 2.00032E+01 5.41769E-03-4.25043E-05 3.75593E-04-2.29995E-15 6.12850E-14
 -1      3150 2.00055E+01 9.89038E-03-2.73187E-05-2.71185E-03 7.39657E-14-1.40584E-13
 -1      3151 2.00028E+01 3.99728E-03 6.47807E-05 1.54606E-03-9.07824E-15 2.99087E-13
 -1      3152 2.00022E+01 2.72218E-03-2.50574E-05 2.45167E-03 4.32808E-14 3.01819E-13
 -1      3153 2.00044E+01 5.68202E-03-2.47433E-05 5.15619E-04 7.89237E-14 2.23996E-13
 -1      3154 2.00019E+01 1.76635E-03 4.25683E-05 3.09519E-03-4.45173E-14 2.32867E-13
 -1      3155 2.00015E+01 9.24715E-04-1.29047E-05 3.55455E-03 1.80634E-14 4.30536E-14
 -1      3156 2.00035E+01 2.78167E-03-2.16071E-05 2.43644E-03 3.56085E-15 2.94309E-13
 -1      3157 2.00012E+01 3.10704E-04 2.64181E-05 3.83947E-03 3.89097E-14 4.59348E-14
 -1      3158 2.00009E+01-2.15324E-04-4.73481E-06 4.00073E-03 1.54551E-14 7.99667E-15
 -1      3159 2.00027E+01 8.57365E-04-1.83218E-05 3.44686E-03-2.26022E-14 2.29552E-13
 -1      3160 2.00006E+01-5.83748E-04 1.49650E-05 4.05166E-03 1.12212E-13 2.85745E-14
 -1      3161 2.00005E+01-8.85792E-04 4.99826E-07 4.02328E-03 1.37211E-13 3.70746E-14
 -1      3162 2.00020E+01-3.54418E-04-1.51505E-05 3.84440E-03 6.35812E-14 1.13315E-13
 -1      3163 2.00003E+01-1.08274E-03 7.08602E-06 3.93033E-03 1.02046E-13 9.15089E-14
 -1      3164 2.00002E+01-1.23081E-03 3.61833E-06 3.78979E-03 1.29338E-13 6.09680E-14
 -1      3165 2.00014E+01-1.05900E-03-1.22486E-05 3.84781E-03 1.38402E-13 1.11117E-13
 -1      3166 2.00000E+01-1.31240E-03 1.88230E-06 3.61639E-03 1.73991E-13 2.38732E-14
 -1      3167 2.00000E+01-1.35915E-03 5.24619E-06 3.41737E-03 1.15864E-13-6.81985E-15
 -1      3168 2.00010E+01-1.41360E-03-9.69695E-06 3.61409E-03 7.58424E-14 8.98011E-14
 -1      3169 1.99999E+01-1.36725E-03-1.35575E-06 3.20664E-03-1.32744E-14-2.57721E-15
 -1      3170 1.99999E+01-1.35166E-03 5.86476E-06 2.98478E-03-6.59925E-14-5.33552E-15
 -1      3171 2.00007E+01-1.53673E-03-7.52627E-06 3.25275E-03 6.08475E-14-1.24306E-13
 -1      3172 1.99998E+01-1.31702E-03-3.16679E-06 2.76467E-03-8.55944E-14-3.51831E-15
 -1      3173 1.99998E+01-1.26763E-03 5.81985E-06 2.54233E-03-9.38997E-14-2.27971E-13
 -1      3174 2.00004E+01-1.51624E-03-5.71221E-06 2.83720E-03-1.12617E-13-7.26821E-14
 -1      3175 1.99997E+01-1.21265E-03-3.96490E-06 2.32961E-03-3.18285E-14-2.55247E-13
 -1      3176 1.99997E+01-1.15003E-03 5.38533E-06 2.11941E-03 1.19373E-13-3.21697E-13
 -1      3177 2.00002E+01-1.41667E-03-4.28807E-06 2.41414E-03-1.33707E-13-1.61524E-13
 -1      3178 1.99997E+01-1.09154E-03-4.18154E-06 1.92325E-03 4.77502E-15-3.09046E-13
 -1      3179 1.99997E+01-1.03070E-03 4.04468E-06 1.73051E-03-1.15916E-13-4.63613E-13
 -1      3180 2.00000E+01-1.28471E-03-3.30746E-06 2.01119E-03-4.29429E-14-3.28319E-13
 -1      3181 1.99996E+01-9.80544E-04-4.30988E-06 1.57701E-03-1.30476E-13-4.37486E-13
 -1      3182 1.99997E+01-9.31244E-04 2.33627E-06 1.40063E-03-1.51620E-13-2.51823E-13
 -1      3183 1.99998E+01-1.03913E-03 1.65197E-06 1.36787E-03-1.40344E-13-5.66768E-13
 -1      3184 1.99999E+01-1.15151E-03-9.84386E-07 1.66371E-03-9.50911E-14-6.29441E-13
 -1      3185 2.48353E+01-2.27393E+00-1.02785E-01 5.51142E-01 2.41404E-14-8.78551E-14
 -1      3186 2.29828E+01-2.05747E+00 6.89088E-02 1.80900E+00 1.73445E-13-2.13979E-13
 -1      3187 2.63094E+01-1.44544E+00-1.23070E-01-1.38268E+00 1.30862E-13-6.42939E-13
 -1      3188 2.66741E+01-2.14089E-01-3.43535E-02-1.87746E+00 2.19554E-13-6.89743E-13
 -1      3189 2.20090E+01-1.29806E+00 2.71158E-02 1.60309E+00-1.37763E-13-3.47201E-13
 -1      3190 2.24716E+01-1.70105E+00 2.43388E-03 1.41713E+00-8.45487E-14-3.83368E-13
 -1      3191 2.12198E+01-6.06793E-01 1.51206E-02 1.69105E+00-1.51391E-13-2.84574E-13
 -1      3192 2.15504E+01-9.38936E-01 4.07625E-03 1.63059E+00-1.73702E-13-2.99664E-13
 -1      3193 2.11625E+01-1.24644E+00-3.39268E-02 1.98326E+00-1.60802E-13-3.41201E-13
 -1      3194 2.07465E+01-1.18706E-01 7.14158E-03 1.61257E+00-7.47398E-14-1.77605E-13
 -1      3195 2.09663E+01-3.39983E-01 4.77908E-03 1.63108E+00-7.32477E-14-2.41161E-13
 -1      3196 2.05445E+01-4.95962E-01-1.65468E-02 1.88823E+00-1.48944E-13-2.65735E-13
 -1      3197 2.04764E+01 1.78478E-01 2.52161E-03 1.45496E+00 1.09432E-14-6.93856E-14
 -1      3198 2.06218E+01 5.04457E-02 4.50405E-03 1.51657E+00-3.55426E-14-1.05781E-13
 -1      3199 2.02123E+01 7.26161E-04-8.99351E-03 1.69626E+00-6.01476E-14-1.70303E-13
 -1      3200 2.03262E+01 3.31306E-01 3.54490E-05 1.26635E+00-1.06206E-13-3.81134E-14
 -1      3201 2.04248E+01 2.70194E-01 3.93392E-03 1.34825E+00 1.06150E-16-5.99346E-15
 -1      3202 2.00598E+01 2.88253E-01-4.24383E-03 1.47539E+00-7.10729E-14-9.08681E-15
 -1      3203 2.02413E+01 3.88354E-01-1.16151E-03 1.07309E+00-1.59236E-13 4.37830E-14
 -1      3204 2.03117E+01 3.70154E-01 3.39647E-03 1.16118E+00-1.42309E-13 2.41396E-14
 -1      3205 2.00033E+01 4.26449E-01-1.57855E-03 1.25556E+00-1.44633E-13-1.78079E-14
 -1      3206 2.01899E+01 3.87831E-01-1.63120E-03 8.89404E-01-9.20609E-14-1.25868E-13
 -1      3207 2.02434E+01 3.94618E-01 2.97935E-03 9.75221E-01-9.35013E-14-2.45985E-14
 -1      3208 1.99920E+01 4.68717E-01-2.82430E-04 1.04941E+00-1.07228E-13-7.31331E-14
 -1      3209 2.01549E+01 3.56268E-01-1.70712E-03 7.22837E-01-1.53435E-13-1.54868E-13
 -1      3210 2.01976E+01 3.75951E-01 2.64501E-03 8.01584E-01-7.85963E-14-1.63038E-13
 -1      3211 1.99985E+01 4.54750E-01 2.41909E-04 8.62565E-01-5.53956E-14-1.20996E-13
 -1      3212 2.01281E+01 3.10691E-01-1.58586E-03 5.76872E-01-1.20618E-13-1.05251E-13
 -1      3213 2.01632E+01 3.35676E-01 2.34698E-03 6.46198E-01-1.84868E-13-1.44799E-13
 -1      3214 2.00093E+01 4.11357E-01 3.73930E-04 6.97550E-01-1.50880E-13-9.17008E-14
 -1      3215 2.01057E+01 2.61302E-01-1.38014E-03 4.52399E-01-1.19974E-13-1.49288E-13
 -1      3216 2.01348E+01 2.87132E-01 2.06186E-03 5.11539E-01-7.91062E-14-9.46184E-14
 -1      3217 2.00186E+01 3.55510E-01 3.30895E-04 5.55060E-01-1.22587E-13-1.67792E-13
 -1      3218 2.00863E+01 2.13780E-01-1.15143E-03 3.48682E-01-1.10201E-13-7.85206E-14
 -1      3219 2.01104E+01 2.38037E-01 1.78354E-03 3.97859E-01-1.63682E-13-1.37027E-13
 -1      3220 2.00246E+01 2.97300E-01 2.31132E-04 4.34538E-01-1.16899E-13-8.85991E-14
 -1      3221 2.00695E+01 1.70982E-01-9.31644E-04 2.64018E-01-9.49316E-14-4.14775E-14
 -1      3222 2.00892E+01 1.92503E-01 1.51502E-03 3.04025E-01-7.11783E-14-1.07241E-13
 -1      3223 2.00273E+01 2.42293E-01 1.28722E-04 3.34566E-01-7.50004E-14 1.00377E-14
 -1      3224 2.00549E+01 1.34054E-01-7.35754E-04 1.96197E-01-4.89548E-14-7.73879E-14
 -1      3225 2.00709E+01 1.52433E-01 1.26305E-03 2.28111E-01-2.31308E-14-3.51385E-14
 -1      3226 2.00274E+01 1.93233E-01 4.50999E-05 2.53156E-01-4.99263E-14-1.43787E-14
 -1      3227 2.00427E+01 1.03164E-01-5.69106E-04 1.42828E-01-9.99928E-14-3.55139E-14
 -1      3228 2.00553E+01 1.18418E-01 1.03378E-03 1.67824E-01-7.72377E-14-5.53990E-14
 -1      3229 2.00257E+01 1.51148E-01-1.44607E-05 1.88025E-01-4.71822E-14-2.17540E-14
 -1      3230 2.00325E+01 7.79443E-02-4.31833E-04 1.01559E-01 1.23961E-14 3.86864E-15
 -1      3231 2.00424E+01 9.03188E-02 8.31112E-04 1.20790E-01-5.85178E-14-4.45210E-14
 -1      3232 2.00230E+01 1.16076E-01-5.20129E-05 1.36806E-01-3.36641E-14-1.40941E-13
 -1      3233 2.00243E+01 5.77750E-02-3.21494E-04 7.02087E-02-4.52191E-14 1.06100E-13
 -1      3234 2.00318E+01 6.76161E-02 6.56577E-04 8.47389E-02-4.48338E-15 5.96331E-14
 -1      3235 2.00199E+01 8.75200E-02-7.21818E-05 9.72165E-02-4.96014E-14-1.20593E-13
 -1      3236 2.00177E+01 4.19419E-02-2.34588E-04 4.68311E-02 1.34407E-13 1.32439E-13
 -1      3237 2.00234E+01 4.96267E-02 5.09738E-04 5.76020E-02 5.94272E-14 1.50857E-13
 -1      3238 2.00167E+01 6.47323E-02-7.98620E-05 6.71497E-02 8.38199E-15-1.33210E-13
 -1      3239 2.00126E+01 2.97316E-02-1.67371E-04 2.97482E-02 1.93970E-13 4.26443E-14
 -1      3240 2.00168E+01 3.56274E-02 3.88784E-04 3.75669E-02 2.03998E-13 1.17920E-13
 -1      3241 2.00136E+01 4.68782E-02-7.92700E-05 4.47365E-02 1.62992E-13-5.20813E-14
 -1      3242 2.00087E+01 2.04815E-02-1.16285E-04 1.75485E-02 4.70233E-14 1.18709E-13
 -1      3243 2.00117E+01 2.49241E-02 2.91074E-04 2.30895E-02 9.02553E-14 1.05983E-13
 -1      3244 2.00109E+01 3.31350E-02-7.36765E-05 2.83651E-02 5.69096E-14 4.71969E-14
 -1      3245 2.00057E+01 1.36036E-02-7.81429E-05 9.07000E-03-3.13803E-14 2.78523E-13
 -1      3246 2.00079E+01 1.68879E-02 2.13581E-04 1.28849E-02 6.18042E-14 2.82603E-13
 -1      3247 2.00085E+01 2.27437E-02-6.54464E-05 1.66799E-02-3.21829E-14 1.07791E-13
 -1      3248 2.00036E+01 8.59298E-03-5.02049E-05 3.37534E-03 5.71678E-14 2.33957E-13
 -1      3249 2.00050E+01 1.09702E-02 1.53208E-04 5.90671E-03 5.98178E-14 4.28184E-13
 -1      3250 2.00065E+01 1.50336E-02-5.61916E-05 8.56542E-03-4.16128E-14 4.09988E-13
 -1      3251 2.00020E+01 5.02702E-03-3.01767E-05-2.78243E-04 6.14114E-14 2.56702E-13
 -1      3252 2.00030E+01 6.70597E-03 1.07006E-04 1.31821E-03 2.20105E-14 2.30276E-13
 -1      3253 2.00049E+01 9.43020E-03-4.69455E-05 3.12130E-03 7.99272E-14 5.60524E-13
 -1      3254 2.00010E+01 2.55928E-03-1.61795E-05-2.46884E-03 3.24040E-15 2.78463E-13
 -1      3255 2.00016E+01 3.71021E-03 7.22960E-05-1.53745E-03 1.02891E-13 1.55665E-13
 -1      3256 2.00036E+01 5.45374E-03-3.83212E-05-3.65766E-04 1.02868E-13 3.13413E-13
 -1      3257 2.00003E+01 9.11158E-04-6.70347E-06-3.63849E-03 1.64948E-14 2.69854E-13
 -1      3258 2.00006E+01 1.67026E-03 4.67300E-05-3.16699E-03-5.18140E-14 2.52657E-13
 -1      3259 2.00026E+01 2.71172E-03-3.06392E-05-2.45095E-03-8.02199E-14 2.76054E-13
 -1      3260 1.99998E+01-1.37543E-04-5.55739E-07-4.11900E-03-1.12182E-13 3.61183E-13
 -1      3261 1.99999E+01 3.36823E-04 2.83110E-05-3.95430E-03 3.84256E-14 3.10053E-13
 -1      3262 2.00018E+01 8.89007E-04-2.40248E-05-3.55865E-03-5.98852E-14 2.46105E-13
 -1      3263 1.99995E+01-7.57996E-04 3.19029E-06-4.15444E-03-2.21572E-13 2.90263E-13
 -1      3264 1.99996E+01-4.85502E-04 1.53797E-05-4.18468E-03-1.28503E-13 4.39695E-13
 -1      3265 2.00011E+01-2.63047E-04-1.84806E-05-4.00729E-03-9.31186E-14 4.66774E-13
 -1      3266 1.99994E+01-1.08116E-03 5.24156E-06-3.92027E-03-1.36533E-13 1.36375E-13
 -1      3267 1.99993E+01-9.47446E-04 6.58799E-06-4.06565E-03-2.04816E-13 1.39302E-13
 -1      3268 2.00007E+01-9.37433E-04-1.39368E-05-4.03097E-03-6.04988E-14 4.37501E-13
 -1      3269 1.99993E+01-1.20572E-03 6.12640E-06-3.53917E-03-1.99381E-13 2.76281E-14
 -1      3270 1.99992E+01-1.16346E-03 8.62129E-07-3.74445E-03-2.11808E-13-3.11768E-14
 -1      3271 2.00004E+01-1.28159E-03-1.02890E-05-3.79782E-03-1.74719E-13 1.83927E-13
 -1      3272 1.99993E+01-1.20498E-03 6.23788E-06-3.09381E-03-2.49686E-13 3.03599E-13
 -1      3273 1.99992E+01-1.21917E-03-2.63283E-06-3.32227E-03-2.35188E-13 1.78728E-13
 -1      3274 2.00001E+01-1.40646E-03-7.42184E-06-3.42528E-03-3.10557E-13 2.26940E-13
 -1      3275 1.99993E+01-1.13279E-03 5.84681E-06-2.63706E-03-1.95785E-13 3.93249E-13
 -1      3276 1.99992E+01-1.17782E-03-4.53356E-06-2.86574E-03-2.23555E-13 3.39478E-13
 -1      3277 2.00000E+01-1.39438E-03-5.21152E-06-2.99232E-03-3.03493E-13 4.23078E-13
 -1      3278 1.99994E+01-1.02834E-03 5.19971E-06-2.19984E-03-1.81520E-13 5.41055E-13
 -1      3279 1.99993E+01-1.08566E-03-5.34189E-06-2.41586E-03-1.29744E-13 5.55983E-13
 -1      3280 1.99998E+01-1.30573E-03-3.56133E-06-2.54941E-03-2.48663E-13 4.63584E-13
 -1      3281 1.99995E+01-9.19930E-04 4.25991E-06-1.79765E-03-1.96380E-13 5.02569E-13
 -1      3282 1.99994E+01-9.75986E-04-5.33285E-06-1.99496E-03-1.37419E-13 4.80408E-13
 -1      3283 1.99998E+01-1.18390E-03-2.22245E-06-2.12562E-03-1.64583E-13 4.82195E-13
 -1      3284 1.99995E+01-8.30770E-04 1.10784E-06-1.43615E-03-1.98535E-13 2.08474E-13
 -1      3285 1.99994E+01-8.72712E-04-4.74790E-06-1.61217E-03-2.02499E-13 3.17539E-13
 -1      3286 1.99997E+01-1.06177E-03-1.42865E-06-1.73629E-03-4.46990E-14 1.67414E-13
 -1      3287 1.99996E+01-8.25029E-04-1.29413E-06-1.21386E-03-9.70345E-14 3.58319E-13
 -1      3288 1.99995E+01-8.22475E-04-4.83929E-06-1.33395E-03-1.89048E-13 2.37618E-13
 -1      3289 1.99997E+01-9.84612E-04 7.22632E-07-1.44536E-03-1.78980E-13-5.22455E-14
 -1      3290 1.99998E+01-9.47652E-04 5.60492E-06-1.23961E-03-1.35540E-13 7.94412E-14
 -1      3291 2.00008E+01-1.76514E-03 2.42504E-06 1.08186E-04-2.80410E-13-2.15348E-13
 -1      3292 2.00008E+01-1.76570E-03 2.38638E-06-1.00160E-04-8.62933E-14 1.20387E-14
 -1      3293 2.00002E+01-1.30284E-03-1.23266E-06 1.16100E-03-1.92032E-13-4.18201E-13
 -1      3294 2.00003E+01-1.41608E-03 6.41758E-06 1.05945E-03-2.25201E-13-2.45884E-13
 -1      3295 2.00007E+01-1.69843E-03 5.38593E-09 5.32003E-04-2.15456E-13-2.00789E-14
 -1      3296 2.00008E+01-1.73832E-03 4.35330E-06 3.39284E-04-2.59613E-13-3.67920E-14
 -1      3297 2.00010E+01-1.82902E-03-5.33082E-06 2.43150E-04-2.05570E-13 2.60529E-15
 -1      3298 2.67913E+01-1.75349E+00-4.78445E-03 5.44467E-01 6.78450E-14-8.23869E-13
 -1      3299 2.74712E+01 9.79638E-03-1.06011E-01 1.40695E+00-1.75193E-13-8.32279E-13
 -1      3300 2.58311E+01 4.17987E+00-7.98485E-02 8.66467E-01-6.28816E-13-5.73321E-13
 -1      3301 7.93234E+00 2.96175E+00 1.59679E-01 2.22489E+00 2.34777E-13-1.03256E-12
 -1      3302 8.22679E+00 1.37594E+00 1.66472E-01-3.57947E+00-8.62088E-14-1.10381E-12
 -1      3303 1.03713E+01 1.36316E+00 1.28010E-01-3.61626E+00-1.48499E-13-9.99562E-13
 -1      3304 1.52239E+01-5.36679E-02 1.18156E-02 4.29652E+00 3.61947E-13-6.63761E-13
 -1      3305 2.38543E+01-1.60357E+00-2.99024E-02-8.44229E-02 3.33917E-14-2.62602E-14
 -1      3306 2.25637E+01-1.58002E+00 2.57286E-02-1.14159E+00-8.18026E-14-1.25500E-13
 -1      3307 2.66683E+01 1.18074E+00-1.26825E-01-2.05572E+00 4.26832E-13-6.34652E-13
 -1      3308 2.67460E+01 2.78477E+00-6.50241E-02-1.92794E+00 5.86753E-13-5.62876E-13
 -1      3309 1.03425E+01 2.51840E-01 4.53263E-02 2.25891E+00-1.31619E-13 4.77784E-13
 -1      3310 8.99931E+00 6.38105E-01 1.96474E-01 4.68251E-01-2.58799E-14 6.79845E-13
 -1      3311 1.03951E+01 6.69854E-01 1.17254E-01-6.72874E-01 1.04158E-13 5.33171E-13
 -1      3312 9.40842E+00 2.30701E+00 8.26848E-02 3.23927E+00 3.06963E-13-9.40026E-13
 -1      3313 2.66636E+01-6.61749E-01-8.34908E-02-1.88764E+00-2.66315E-13 8.68888E-14
 -1      3314 2.62337E+01-1.56196E+00 4.61719E-02-7.55431E-01-9.12811E-14 3.71231E-14
 -1      3315 2.38299E+01-3.89021E+00 1.24323E-01-2.96943E+00 4.60146E-13-5.08191E-13
 -1      3316 2.53475E+01-3.55194E+00-1.32784E-01-1.27000E+00 2.93705E-13-7.23342E-13
 -1      3317 2.00005E+01-1.54182E-03-2.24594E-06 9.00646E-04-1.03831E-13-2.98332E-13
 -1      3318 2.00006E+01-1.61909E-03 6.02528E-06 7.40174E-04-2.19226E-13-1.73468E-13
 -1      3319 2.00008E+01-1.73152E-03-5.06475E-06 6.98062E-04-3.07338E-13-1.06400E-13
 -1      3320 2.00005E+01-1.54268E-03-2.47265E-06 1.07779E-03-1.99864E-13-3.02802E-13
 -1      3321 2.32279E+01-2.08996E+00 4.15297E-02 1.16914E+00-1.05114E-13-4.44646E-13
 -1      3322 2.37516E+01-2.41008E+00-1.34441E-02 7.70692E-01-6.95112E-14-4.51628E-13
 -1      3323 2.23432E+01-2.21462E+00-4.46305E-02 1.84849E+00-1.46883E-13-4.91598E-13
 -1      3324 2.47791E+01-2.56144E+00 3.41786E-02 2.83775E-01-7.87640E-14-4.74419E-13
 -1      3325 2.54095E+01-2.34542E+00 1.77617E-02-3.73501E-01-2.68253E-14-5.23057E-13
 -1      3326 2.39293E+01-2.89847E+00-2.99493E-02 1.22937E+00-9.78644E-14-5.29183E-13
 -1      3327 2.63650E+01 1.03320E+00-2.80489E-02-2.63873E+00-4.12191E-13 6.09443E-14
 -1      3328 2.50236E+01-1.56444E+00 2.66707E-02 8.61855E-01 5.53602E-14 6.20077E-14
 -1      3329 2.62906E+01-9.54291E-02-5.45697E-02-2.46414E+00-3.03776E-13 6.22280E-14
 -1      3330 1.81162E+01-5.46864E-01 1.10563E-01 3.48085E+00 3.40641E-13-5.30812E-13
 -1      3331 2.63725E+01 3.98912E+00-1.21880E-01-1.09875E+00 6.14758E-13-4.03920E-13
 -1      3332 1.82880E+01-2.96260E+00 1.26255E-01-5.10275E+00 5.00891E-13-1.08986E-13
 -1      3333 2.09882E+01-4.01916E+00-9.83581E-02-4.49459E+00 4.95659E-13-3.14124E-13
 -1      3334 2.59981E+01-2.63297E+00 1.24957E-02-1.03892E-01-4.22613E-14-6.12042E-13
 -1      3335 2.65229E+01 4.66800E+00-9.08851E-02 1.12406E+00 6.32799E-13-1.04416E-13
 -1      3336 2.63333E+01 4.70336E+00-1.21856E-01-1.17342E-01 6.20420E-13-2.86479E-13
 -1      3337 2.03459E+01-1.53191E+00-4.50653E-02 2.91135E+00 2.62783E-13-3.95357E-13
 -1      3338 6.27278E+00 2.15551E+00 1.06841E-01-1.67114E+00-1.68129E-14-1.14359E-12
 -1      3339 2.59259E+01 3.06720E+00-1.18830E-01 1.59076E+00-4.99149E-13-6.97165E-13
 -1      3340 2.18363E+01-1.27111E+00 4.46343E-02 1.64891E+00 1.96117E-13-3.15663E-13
 -1      3341 2.00003E+01-1.41778E-03 6.40888E-06-1.05818E-03-1.08696E-14 3.82898E-14
 -1      3342 2.00002E+01-1.30654E-03-2.22127E-06-1.16050E-03-1.99929E-13 3.66804E-13
 -1      3343 1.26084E+01-4.97479E-01 1.05714E-01-4.01253E+00 2.82337E-13 3.31846E-13
 -1      3344 1.44514E+01-7.13656E-01 7.87318E-02-4.00619E+00 2.60432E-13 1.84568E-13
 -1      3345 1.18515E+01 7.97151E-02 3.17001E-02-3.00479E+00 2.60174E-13 4.42910E-13
 -1      3346 2.49249E+01-3.85673E+00-2.79302E-02 1.89992E+00-1.81159E-13-6.30923E-13
 -1      3347 2.32310E+01-3.99861E+00 2.85759E-02 3.18840E+00-2.27474E-13-5.27217E-13
 -1      3348 2.68778E+01 2.63001E+00-1.04011E-01 1.83180E+00-4.85320E-13-7.89147E-13
 -1      3349 2.55350E+01-1.71856E+00-2.19208E-02 1.18183E+00 9.38416E-14 1.07546E-13
 -1      3350 7.79650E+00 2.90486E+00 5.81966E-02-1.44791E+00-1.46758E-14-1.07200E-12
 -1      3351 2.65992E+01 3.79044E+00-1.75659E-01 2.16465E+00 5.61107E-13 1.72119E-14
 -1      3352 2.65481E+01 1.07061E-01-4.22915E-02 1.69860E+00-1.43156E-13-8.56384E-13
 -1      3353 2.74493E+01 1.11619E+00-7.60121E-02 1.76661E+00-3.12028E-13-8.69291E-13
 -1      3354 2.00006E+01-1.62009E-03 6.10496E-06-7.39414E-04-9.85325E-14-3.07424E-13
 -1      3355 2.00005E+01-1.54258E-03-2.10502E-06-9.00011E-04-9.45716E-14-1.41665E-13
 -1      3356 2.00005E+01-1.54425E-03-3.02337E-06-1.07592E-03-1.10877E-13-5.98893E-14
 -1      3357 2.70463E+01 2.66244E+00-7.69868E-02 2.66830E+00 4.95159E-13 1.47757E-13
 -1      3358 2.71419E+01 1.09215E+00-1.52917E-01 2.98762E+00 4.04052E-13 2.06495E-13
 -1      3359 2.71031E+01-3.13381E-01-5.63476E-02 2.42526E+00 2.68272E-13 2.25285E-13
 -1      3360 2.69883E+01-1.28900E+00-1.26699E-02 2.10295E+00 1.66206E-13 2.22156E-13
 -1      3361 2.00008E+01-1.73921E-03 4.41985E-06-3.34889E-04 1.18682E-13 7.62541E-14
 -1      3362 2.00007E+01-1.69887E-03 1.52764E-07-5.31186E-04 3.84876E-14-3.03967E-13
 -1      3363 2.00008E+01-1.73262E-03-4.84602E-06-6.96214E-04 3.69710E-14-1.65956E-13
 -1      3364 2.00010E+01-1.82957E-03-5.22396E-06-2.37963E-04-3.14001E-14-1.15774E-13
 -1      3365 2.64920E+01-2.20511E+00 3.36703E-02 3.84103E-01 1.03619E-13-8.04495E-13
 -1      3366 2.61067E+01-1.20713E+00-7.47295E-02 1.17516E+00-1.73125E-14-8.43450E-13
 -1      3367 2.56088E+01-6.05335E-01-2.09037E-02-2.12864E+00-2.12554E-13 2.77556E-14
 -1      3368 1.21293E+01 1.22130E-01 1.54595E-01 3.16160E+00-2.21146E-13 2.53512E-13
 -1      3369 1.18564E+01 5.71815E-01 3.49256E-02 1.92680E+00-7.49747E-14 2.95805E-13
 -1      3370 1.39002E+01-3.80097E-01 2.44648E-02 3.54246E+00-2.84030E-13 1.05443E-13
 -1      3371 2.23701E+01-3.50065E+00 3.71434E-02-3.21350E+00 4.65031E-13-4.06390E-13
 -1      3372 2.52945E+01-2.79093E+00-1.78274E-02-3.81837E-01 2.06854E-13-6.89754E-13
 -1      3373 1.40786E+01 5.26028E-01 1.54002E-01-3.88426E+00-2.10595E-13-7.69974E-13
 -1      3374 1.68057E+01-9.35571E-01 4.34464E-04-4.01260E+00-2.13871E-13-5.79821E-13
 -1      3375 2.54042E+01-9.32521E-01-3.44034E-03-1.86292E+00-1.39709E-13 5.74627E-15
 -1      3376 2.31194E+01-1.36396E+00-2.89744E-02 5.38560E-01 7.53737E-14-2.27113E-13
 -1      3377 2.51611E+01-1.65815E+00 1.65113E-03-4.89279E-01-1.51251E-14-5.88366E-14
 -1      3378 2.00000E+01-1.12609E-03 2.05381E-06 1.31186E-03-1.22068E-13-3.94378E-13
 -1      3379 2.00001E+01-1.22023E-03 3.07405E-06 1.24221E-03-9.12739E-14-4.08652E-13
 -1      3380 2.00002E+01-1.34539E-03-2.23418E-06 1.31484E-03-2.45498E-13-2.76850E-13
 -1      3381 2.00000E+01-1.18279E-03-3.08429E-06 1.45372E-03-1.06100E-13-5.25497E-13
 -1      3382 2.60648E+01-2.14148E+00-3.15187E-02 4.90108E-01 4.31660E-14 1.24942E-13
 -1      3383 1.77540E+01-2.26546E+00 8.25448E-02-4.62711E+00 4.40557E-13-1.11293E-13
 -1      3384 1.99896E+01-1.80090E+00 1.06264E-01-3.27835E+00-2.01845E-13-3.89213E-13
 -1      3385 2.25791E+01-2.31345E+00-2.88527E-02-1.95685E+00-1.31083E-13-1.51514E-13
 -1      3386 1.84757E+01-2.60439E+00 9.49531E-02 4.70855E+00-3.70322E-13-1.88186E-13
 -1      3387 1.69433E+01-1.71505E+00 1.45361E-02 4.30177E+00-3.26780E-13-9.15691E-14
 -1      3388 2.46171E+01-2.55578E+00 9.28094E-02-9.79031E-01-1.21576E-13-4.50577E-14
 -1      3389 2.18833E+01-3.86188E+00 1.48173E-03 3.94256E+00-3.10273E-13-4.04943E-13
 -1      3390 1.95819E+01-3.19635E+00 1.66187E-02 4.50659E+00-3.78829E-13-2.71276E-13
 -1      3391 2.03144E+01-2.80687E+00-2.09589E-02 3.76637E+00-3.58066E-13-3.23847E-13
 -1      3392 2.28988E+01-3.41124E+00 5.82346E-02 2.76189E+00-2.44256E-13-4.92517E-13
 -1      3393 9.64454E+00 2.44820E+00 2.16664E-01-2.89367E+00-9.66796E-14-1.02308E-12
 -1      3394 1.08700E+01 1.34070E+00 1.62524E-02-3.65034E+00-1.46674E-13-9.32032E-13
 -1      3395 1.85317E+01-6.47707E-01 5.69274E-02-2.90441E+00-1.73285E-13-4.56392E-13
 -1      3396 2.54606E+01-3.53867E+00-6.05146E-02 1.10017E+00-1.44347E-13-6.03611E-13
 -1      3397 2.43997E+01-3.35395E+00-9.38093E-03 1.52988E+00-1.23370E-13-5.53954E-13
 -1      3398 2.57079E+01-2.75479E-01-1.99749E-02 1.69581E+00-1.03577E-13-7.60387E-13
 -1      3399 2.21607E+01-2.25500E+00 2.19328E-02-1.86537E+00 2.22295E-13-3.90985E-13
 -1      3400 2.15222E+01-1.84136E+00 2.67721E-02-2.03089E+00 2.03216E-13-2.79243E-13
 -1      3401 2.10034E+01-1.38921E+00 1.32898E-02-1.96104E+00 1.45030E-13-2.74139E-13
 -1      3402 2.05849E+01-9.95211E-01 1.51893E-02-1.96304E+00 5.12009E-14-2.09127E-13
 -1      3403 2.05646E+01-1.66099E+00-2.41527E-02-2.46409E+00 2.10689E-13-2.13428E-13
 -1      3404 2.03237E+01-6.48798E-01 1.13229E-02-1.82135E+00 1.60525E-14-1.54454E-13
 -1      3405 2.00683E+01-3.61701E-01 6.99716E-03-1.75449E+00 1.54826E-14-1.04231E-13
 -1      3406 1.98573E+01-7.84895E-01-1.88750E-02-2.15061E+00 8.14498E-14-1.51895E-13
 -1      3407 1.99596E+01-1.27538E-01 8.25683E-03-1.60608E+00-4.33825E-14-8.78044E-14
 -1      3408 1.98161E+01 5.74475E-02 2.08179E-03-1.51560E+00-2.84266E-14-4.11005E-14
 -1      3409 1.95357E+01-1.74032E-01-1.10388E-02-1.81164E+00 7.88009E-15-9.74188E-14
 -1      3410 1.97932E+01 2.01574E-01 5.99709E-03-1.37928E+00 2.95773E-15-6.74794E-14
 -1      3411 1.97198E+01 3.06770E-01-3.31918E-04-1.28409E+00 2.29273E-14-6.85930E-14
 -1      3412 1.94277E+01 2.12797E-01-5.30987E-03-1.50251E+00-2.03121E-14-7.62323E-14
 -1      3413 1.97406E+01 3.83834E-01 4.19211E-03-1.16514E+00 5.30704E-14-1.49446E-14
 -1      3414 1.97082E+01 4.32816E-01-1.44292E-03-1.07327E+00 1.44209E-13-1.70530E-14
 -1      3415 1.94351E+01 4.29072E-01-1.95215E-03-1.23713E+00 5.26924E-14 1.36583E-13
 -1      3416 1.97480E+01 4.63845E-01 2.94291E-03-9.71130E-01 1.14668E-13-7.96687E-14
 -1      3417 1.97376E+01 4.75891E-01-1.88319E-03-8.86151E-01 1.19490E-13-2.96720E-14
 -1      3418 1.94977E+01 5.27285E-01-1.78193E-04-1.01325E+00 1.14362E-13 5.80903E-15
 -1      3419 1.97829E+01 4.77522E-01 2.13923E-03-7.98932E-01 5.86658E-14-4.73246E-14
 -1      3420 1.97830E+01 4.67049E-01-1.97158E-03-7.22483E-01 4.34377E-14-7.31142E-14
 -1      3421 1.95810E+01 5.48602E-01 6.79905E-04-8.24538E-01 7.78764E-14-1.11501E-13
 -1      3422 1.98265E+01 4.51438E-01 1.63397E-03-6.48369E-01 3.12702E-14-1.07425E-13
 -1      3423 1.98308E+01 4.28580E-01-1.88077E-03-5.81130E-01-2.79970E-14-1.98362E-13
 -1      3424 1.96661E+01 5.23096E-01 1.00635E-03-6.65238E-01-1.40835E-14-1.48274E-13
 -1      3425 1.98693E+01 4.04080E-01 1.30937E-03-5.18639E-01-6.73799E-14-2.17864E-13
 -1      3426 1.98743E+01 3.75632E-01-1.69980E-03-4.60733E-01-5.34582E-14-2.13229E-13
 -1      3427 1.97437E+01 4.71853E-01 1.05729E-03-5.30974E-01-7.72621E-14-2.04619E-13
 -1      3428 1.99066E+01 3.47748E-01 1.08362E-03-4.08623E-01-5.59984E-14-2.82116E-13
 -1      3429 1.99110E+01 3.18076E-01-1.47754E-03-3.59748E-01-5.30984E-14-2.90404E-13
 -1      3430 1.98100E+01 4.09006E-01 9.72014E-04-4.18553E-01-1.31426E-13-2.61635E-13
 -1      3431 1.99370E+01 2.90241E-01 9.11273E-04-3.16863E-01-5.01085E-14-3.49368E-13
 -1      3432 1.99401E+01 2.61968E-01-1.24598E-03-2.76395E-01-7.46925E-14-2.71722E-13
 -1      3433 1.98639E+01 3.43703E-01 8.27160E-04-3.25382E-01-8.73029E-14-2.47814E-13
 -1      3434 1.99604E+01 2.36155E-01 7.69020E-04-2.41603E-01-1.82211E-13-2.69730E-13
 -1      3435 1.99623E+01 2.10695E-01-1.02464E-03-2.08710E-01-1.78761E-13-2.10010E-13
 -1      3436 1.99062E+01 2.81498E-01 6.68194E-04-2.49124E-01-1.06116E-13-2.77852E-13
 -1      3437 1.99776E+01 1.87893E-01 6.45455E-04-1.80909E-01-9.80058E-14-2.63028E-13
 -1      3438 1.99785E+01 1.65863E-01-8.24182E-04-1.54649E-01-6.34742E-14-1.03680E-13
 -1      3439 1.99383E+01 2.25423E-01 5.18505E-04-1.87574E-01-1.32304E-13-3.09377E-13
 -1      3440 1.99897E+01 1.46425E-01 5.35896E-04-1.32784E-01-2.06447E-14-1.37661E-13
 -1      3441 1.99899E+01 1.27943E-01-6.49468E-04-1.12191E-01 6.25981E-15-1.62764E-13
 -1      3442 1.99620E+01 1.76821E-01 3.88470E-04-1.38634E-01-6.91502E-14-3.05187E-13
 -1      3443 1.99979E+01 1.11836E-01 4.38859E-04-9.52748E-02-2.54501E-14-2.01711E-13
 -1      3444 1.99975E+01 9.67200E-02-5.01724E-04-7.94126E-02 3.84071E-15-2.14804E-13
 -1      3445 1.99789E+01 1.35964E-01 2.81282E-04-1.00330E-01-3.60950E-14-3.21954E-13
 -1      3446 2.00031E+01 8.36882E-02 3.53973E-04-6.65509E-02-2.22602E-14-2.55301E-13
 -1      3447 2.00023E+01 7.15975E-02-3.79923E-04-5.45576E-02 4.30183E-14-2.49000E-13
 -1      3448 1.99906E+01 1.02475E-01 1.96336E-04-7.08409E-02-5.62244E-14-2.00308E-13
 -1      3449 2.00060E+01 6.12772E-02 2.80986E-04-4.49584E-02-4.97985E-14-3.13883E-13
 -1      3450 2.00051E+01 5.18025E-02-2.81739E-04-3.60677E-02-6.93748E-14-3.26043E-13
 -1      3451 1.99983E+01 7.56276E-02 1.31197E-04-4.85333E-02-5.81431E-14-3.36643E-13
 -1      3452 2.00074E+01 4.37923E-02 2.19398E-04-2.90483E-02-3.10535E-16-4.75459E-13
 -1      3453 2.00065E+01 3.65127E-02-2.04215E-04-2.25997E-02 1.96744E-14-3.79115E-13
 -1      3454 2.00030E+01 5.45401E-02 8.27401E-05-3.19741E-02-1.13192E-13-3.57233E-13
 -1      3455 2.00078E+01 3.04171E-02 1.68397E-04-1.75847E-02 9.36228E-14-3.20472E-13
 -1      3456 2.00069E+01 2.49343E-02-1.44209E-04-1.30231E-02 5.70597E-14-1.79017E-13
 -1      3457 2.00057E+01 3.82984E-02 4.77817E-05-1.99376E-02 1.37289E-13-2.84625E-13
 -1      3458 2.00075E+01 2.03892E-02 1.26931E-04-9.53772E-03-8.66004E-14-1.49353E-13
 -1      3459 2.00067E+01 1.63452E-02-9.86732E-05-6.40706E-03-5.91997E-14-1.22516E-13
 -1      3460 2.00070E+01 2.60333E-02 2.33985E-05-1.13975E-02 7.24213E-14-4.29634E-14
 -1      3461 2.00069E+01 1.30294E-02 9.38153E-05-4.06723E-03 4.59263E-14-1.70231E-13
 -1      3462 2.00061E+01 1.01149E-02-6.48221E-05-2.00041E-03 1.97424E-13-3.35908E-14
 -1      3463 2.00073E+01 1.69608E-02 7.06885E-06-5.51219E-03-2.31357E-14-9.18960E-14
 -1      3464 2.00060E+01 7.75491E-03 6.78291E-05-5.01060E-04 1.79966E-13-7.38691E-14
 -1      3465 2.00054E+01 5.70979E-03-4.02130E-05 7.91789E-04 1.16062E-13 1.09970E-13
 -1      3466 2.00070E+01 1.04004E-02-3.29135E-06-1.60433E-03 1.67583E-13-2.66247E-13
 -1      3467 2.00051E+01 4.07862E-03 4.77952E-05 1.68855E-03 1.21664E-14 6.82659E-14
 -1      3468 2.00046E+01 2.68980E-03-2.27717E-05 2.43204E-03 3.46753E-14 1.40438E-13
 -1      3469 2.00063E+01 5.77856E-03-9.34915E-06 8.61277E-04 7.78136E-14-1.26292E-13
 -1      3470 2.00042E+01 1.60338E-03 3.26296E-05 2.90835E-03-3.67554E-14 1.27558E-13
 -1      3471 2.00038E+01 6.99865E-04-1.07829E-05 3.27328E-03-9.62978E-14 1.35916E-13
 -1      3472 2.00055E+01 2.62413E-03-1.24015E-05 2.29987E-03 7.93585E-15-1.38109E-13
 -1      3473 2.00034E+01 1.18899E-05 2.13707E-05 3.46599E-03-6.72721E-14 1.17160E-13
 -1      3474 2.00030E+01-5.40938E-04-2.86001E-06 3.57968E-03 4.85785E-14 6.15553E-14
 -1      3475 2.00047E+01 5.57836E-04-1.34328E-05 3.02775E-03-8.86632E-14-6.65077E-14
 -1      3476 2.00026E+01-9.44623E-04 1.31901E-05 3.58947E-03 1.05513E-13-3.66914E-14
 -1      3477 2.00024E+01-1.25083E-03 2.09409E-06 3.54476E-03 1.00847E-13-2.94993E-14
 -1      3478 2.00038E+01-7.19570E-04-1.31725E-05 3.28125E-03-6.01563E-14-5.85055E-14
 -1      3479 2.00020E+01-1.45775E-03 7.39177E-06 3.44403E-03 7.05459E-14-1.20276E-13
 -1      3480 2.00018E+01-1.59646E-03 4.93649E-06 3.30693E-03 5.49715E-14-1.94346E-13
 -1      3481 2.00030E+01-1.44004E-03-1.21502E-05 3.23322E-03 3.65225E-14-2.75432E-13
 -1      3482 2.00015E+01-1.67267E-03 3.42237E-06 3.14633E-03 6.65171E-14-1.43790E-13
 -1      3483 2.00013E+01-1.70317E-03 6.30623E-06 2.96231E-03 4.85427E-14-1.03292E-13
 -1      3484 2.00024E+01-1.78037E-03-1.07383E-05 3.00707E-03 8.88296E-14-5.10407E-14
 -1      3485 2.00010E+01-1.69781E-03 8.34208E-07 2.77584E-03 1.06250E-14-2.14919E-13
 -1      3486 2.00009E+01-1.66361E-03 6.78735E-06 2.57478E-03-1.29897E-13-1.56715E-13
 -1      3487 2.00018E+01-1.87339E-03-9.18809E-06 2.68830E-03-6.61064E-14-2.32995E-13
 -1      3488 2.00007E+01-1.61246E-03-6.88487E-07 2.38440E-03-1.69165E-13-5.93414E-14
 -1      3489 2.00006E+01-1.54587E-03 6.41773E-06 2.18513E-03-4.20680E-14-1.35178E-13
 -1      3490 2.00013E+01-1.81669E-03-7.57923E-06 2.33310E-03-7.72326E-14-3.18031E-13
 -1      3491 2.00004E+01-1.47348E-03-8.60501E-07 2.00268E-03-4.45643E-14-8.54396E-14
 -1      3492 2.00003E+01-1.39814E-03 4.51410E-06 1.81678E-03-1.42097E-13-1.48950E-13
 -1      3493 2.00009E+01-1.68462E-03-6.90633E-06 1.97829E-03-7.06804E-14-2.16452E-13
 -1      3494 2.03075E+01-8.60121E-01 1.67410E-02 2.29621E+00-1.55778E-13-2.07111E-13
 -1      3495 2.08092E+01-1.30318E+00 2.76832E-02 2.31362E+00-2.17233E-13-2.25979E-13
 -1      3496 1.96462E+01 4.58303E-01-2.17160E-03 1.42145E+00-9.86962E-14-2.70153E-15
 -1      3497 1.97023E+01 3.71098E-01 6.90048E-03 1.53557E+00-8.47247E-14-2.38386E-14
 -1      3498 1.96845E+01 5.47416E-01-2.83145E-03 1.18278E+00-1.54388E-13-5.42264E-14
 -1      3499 1.97046E+01 5.17817E-01 4.47708E-03 1.28930E+00-1.17317E-13-6.77761E-14
 -1      3500 1.93272E+01 5.88281E-01 4.48095E-05 1.34482E+00-1.07750E-13-1.05711E-13
 -1      3501 1.97457E+01 5.56088E-01-2.90291E-03 9.74489E-01-7.39767E-14-9.25479E-14
 -1      3502 1.97496E+01 5.61158E-01 3.05267E-03 1.07132E+00-1.17295E-13-5.05557E-14
 -1      3503 1.94481E+01 6.45881E-01 1.32865E-03 1.10296E+00-1.26292E-13-9.13597E-14
 -1      3504 1.98085E+01 5.19214E-01-2.71018E-03 7.93608E-01-1.68187E-13 1.62077E-15
 -1      3505 1.98067E+01 5.43243E-01 2.24246E-03 8.79812E-01-6.10720E-14-4.52157E-14
 -1      3506 1.95684E+01 6.31615E-01 1.72146E-03 9.00573E-01-1.15548E-13-4.94765E-15
 -1      3507 1.98635E+01 4.59896E-01-2.40335E-03 6.37924E-01-1.13349E-13-3.45740E-15
 -1      3508 1.98609E+01 4.92642E-01 1.77531E-03 7.13157E-01-1.62133E-13 2.30880E-14
 -1      3509 1.96748E+01 5.77904E-01 1.68843E-03 7.29395E-01-1.65287E-13 5.70476E-14
 -1      3510 1.99077E+01 3.92601E-01-2.06125E-03 5.05547E-01-1.36503E-13-1.43719E-14
 -1      3511 1.99062E+01 4.27772E-01 1.48421E-03 5.69942E-01-9.82127E-14 4.01827E-14
 -1      3512 1.97629E+01 5.05874E-01 1.46234E-03 5.84374E-01-1.30298E-13 1.06143E-13
 -1      3513 1.99414E+01 3.25825E-01-1.72329E-03 3.94619E-01-1.13913E-13-5.79492E-15
 -1      3514 1.99413E+01 3.59787E-01 1.27711E-03 4.48688E-01-1.07929E-13 1.25239E-15
 -1      3515 1.98326E+01 4.28697E-01 1.18528E-03 4.62170E-01-1.22017E-13 1.15058E-13
 -1      3516 1.99657E+01 2.64220E-01-1.40998E-03 3.03137E-01-5.28955E-14 7.48702E-15
 -1      3517 1.99669E+01 2.95045E-01 1.10489E-03 3.47698E-01-9.91632E-14-5.65936E-14
 -1      3518 1.98859E+01 3.54057E-01 9.16300E-04 3.60298E-01-4.22793E-14 2.49649E-15
 -1      3519 1.99827E+01 2.09984E-01-1.13181E-03 2.28917E-01-2.96522E-14 8.36521E-15
 -1      3520 1.99848E+01 2.36824E-01 9.48847E-04 2.64990E-01-5.27663E-15 4.77566E-14
 -1      3521 1.99254E+01 2.86122E-01 6.82189E-04 2.76527E-01-1.92068E-14 3.62432E-14
 -1      3522 1.99940E+01 1.63810E-01-8.92674E-04 1.69686E-01-8.83396E-16-6.48991E-14
 -1      3523 1.99966E+01 1.86475E-01 8.03673E-04 1.98384E-01 6.23602E-15-1.52934E-14
 -1      3524 1.99540E+01 2.26782E-01 4.91383E-04 2.08669E-01 2.82735E-14-8.05417E-14
 -1      3525 2.00012E+01 1.25509E-01-6.92258E-04 1.23196E-01 1.89997E-14-1.26915E-13
 -1      3526 2.00038E+01 1.44187E-01 6.69453E-04 1.45638E-01 5.29060E-14-8.07356E-14
 -1      3527 1.99741E+01 1.76511E-01 3.42550E-04 1.54561E-01 6.58762E-14-1.51235E-13
 -1      3528 2.00053E+01 9.44237E-02-5.27814E-04 8.73184E-02-1.17477E-13-9.00116E-14
 -1      3529 2.00079E+01 1.09499E-01 5.47883E-04 1.04567E-01-1.07741E-13-1.30832E-13
 -1      3530 1.99878E+01 1.34954E-01 2.30231E-04 1.12116E-01-5.68019E-14 1.85142E-14
 -1      3531 2.00075E+01 6.96755E-02-3.95388E-04 6.01143E-02 1.72648E-14-7.36456E-14
 -1      3532 2.00098E+01 8.16163E-02 4.40466E-04 7.31355E-02 2.25370E-14-1.12302E-13
 -1      3533 1.99968E+01 1.01311E-01 1.47809E-04 7.93760E-02-1.68626E-14-3.49320E-14
 -1      3534 2.00082E+01 5.03245E-02-2.90583E-04 3.98700E-02 8.58184E-14 8.35725E-14
 -1      3535 2.00103E+01 5.96159E-02 3.47873E-04 4.95132E-02-7.58704E-15-4.51105E-14
 -1      3536 2.00023E+01 7.45842E-02 8.89128E-05 5.45631E-02-1.17262E-14 1.04370E-14
 -1      3537 2.00081E+01 3.54576E-02-2.09020E-04 2.51126E-02-7.26297E-14 2.54590E-13
 -1      3538 2.00099E+01 4.25612E-02 2.69890E-04 3.21044E-02 7.07198E-14 1.65537E-13
 -1      3539 2.00055E+01 5.37272E-02 4.79932E-05 3.61100E-02 2.30645E-15 2.06085E-13
 -1      3540 2.00075E+01 2.42392E-02-1.46604E-04 1.46053E-02-1.13650E-13 3.87358E-13
 -1      3541 2.00090E+01 2.95722E-02 2.05606E-04 1.95524E-02-7.01621E-14 2.22627E-13
 -1      3542 2.00070E+01 3.77347E-02 2.04820E-05 2.26692E-02-6.74273E-14 3.24948E-13
 -1      3543 2.00066E+01 1.59339E-02-9.96697E-05 7.33160E-03-1.27066E-13 4.32143E-13
 -1      3544 2.00078E+01 1.98602E-02 1.53660E-04 1.07302E-02-1.61682E-13 4.08406E-13
 -1      3545 2.00075E+01 2.56917E-02 2.75308E-06 1.31098E-02-1.23993E-13 3.87289E-13
 -1      3546 2.00057E+01 9.91367E-03-6.50351E-05 2.47213E-03 1.05133E-13 4.61976E-13
 -1      3547 2.00066E+01 1.27418E-02 1.12471E-04 4.72028E-03 6.58950E-14 4.49811E-13
 -1      3548 2.00072E+01 1.67962E-02-7.99683E-06 6.50192E-03-6.95596E-14 3.92730E-13
 -1      3549 2.00047E+01 5.65488E-03-4.00102E-05-6.21594E-04 1.01759E-13 4.70043E-13
 -1      3550 2.00055E+01 7.64052E-03 8.04040E-05 7.89605E-04 1.21240E-13 4.99798E-13
 -1      3551 2.00066E+01 1.03650E-02-1.38898E-05 2.09621E-03 1.17233E-13 4.49853E-13
 -1      3552 2.00038E+01 2.72996E-03-2.23681E-05-2.45360E-03-1.06560E-13 4.40802E-13
 -1      3553 2.00044E+01 4.08085E-03 5.58934E-05-1.63678E-03 5.42342E-14 5.90817E-13
 -1      3554 2.00058E+01 5.82991E-03-1.65022E-05-7.00263E-04 6.58455E-14 8.81397E-13
 -1      3555 2.00030E+01 7.96149E-04-1.03012E-05-3.40863E-03-6.11789E-14 4.57165E-13
 -1      3556 2.00035E+01 1.67799E-03 3.75107E-05-3.00189E-03-7.10978E-14 4.21598E-13
 -1      3557 2.00049E+01 2.72758E-03-1.69841E-05-2.34819E-03-8.16419E-15 6.66015E-13
 -1      3558 2.00023E+01-4.16585E-04-2.36785E-06-3.77481E-03-1.19843E-13 3.94131E-13
 -1      3559 2.00026E+01 1.26152E-04 2.40028E-05-3.64079E-03-5.65731E-14 4.12646E-13
 -1      3560 2.00041E+01 6.87400E-04-1.61579E-05-3.19900E-03-1.01286E-13 5.05382E-13
 -1      3561 2.00018E+01-1.11748E-03 2.56250E-06-3.76349E-03-8.24459E-14 4.67743E-13
 -1      3562 2.00020E+01-8.13612E-04 1.43025E-05-3.80201E-03-9.38786E-14 4.33154E-13
 -1      3563 2.00033E+01-5.82151E-04-1.45987E-05-3.51565E-03-8.69848E-14 3.34598E-13
 -1      3564 2.00013E+01-1.46611E-03 5.36046E-06-3.52608E-03-2.16025E-13 3.00101E-13
 -1      3565 2.00014E+01-1.32500E-03 7.52437E-06-3.66583E-03-1.07699E-13 3.63354E-13
 -1      3566 2.00026E+01-1.30657E-03-1.26986E-05-3.49087E-03-3.09808E-14 3.23327E-13
 -1      3567 2.00009E+01-1.58238E-03 6.67790E-06-3.16796E-03-3.80550E-13 3.70389E-13
 -1      3568 2.00010E+01-1.54708E-03 2.94847E-06-3.35972E-03-3.11588E-13 2.89564E-13
 -1      3569 2.00019E+01-1.65756E-03-1.07223E-05-3.26250E-03-2.79826E-13 2.89827E-13
 -1      3570 2.00006E+01-1.55514E-03 7.01843E-06-2.75964E-03-3.00678E-13 3.43998E-13
 -1      3571 2.00006E+01-1.58363E-03 1.50572E-08-2.97088E-03-3.90700E-13 2.86799E-13
 -1      3572 2.00014E+01-1.76403E-03-8.85159E-06-2.92634E-03-3.70028E-13 2.36805E-13
 -1      3573 2.00003E+01-1.44904E-03 6.84509E-06-2.34577E-03-2.50011E-13 4.50082E-13
 -1      3574 2.00004E+01-1.51095E-03-1.71233E-06-2.55627E-03-2.04271E-13 4.15221E-13
 -1      3575 2.00010E+01-1.72116E-03-7.12734E-06-2.54628E-03-3.04381E-13 3.63448E-13
 -1      3576 2.00001E+01-1.31237E-03 6.19643E-06-1.95156E-03-9.16922E-14 4.56684E-13
 -1      3577 2.00002E+01-1.38625E-03-3.08773E-06-2.15139E-03-2.02303E-13 5.20140E-13
 -1      3578 2.00007E+01-1.59788E-03-5.51258E-06-2.16347E-03-1.97313E-13 3.47978E-13
 -1      3579 2.00000E+01-1.17943E-03 3.32955E-06-1.59245E-03 6.05831E-14 2.09983E-13
 -1      3580 2.00000E+01-1.24419E-03-2.82863E-06-1.77352E-03 9.09140E-14 3.63226E-13
 -1      3581 2.00004E+01-1.44347E-03-2.22653E-06-1.80114E-03 7.17502E-14 2.56801E-13
 -1      3582 2.00000E+01-1.18665E-03 5.74371E-06-1.20875E-03-1.14866E-13 4.37556E-13
 -1      3583 1.99999E+01-1.07167E-03-3.37220E-07-1.23589E-03-1.09147E-13 1.79339E-13
 -1      3584 1.99999E+01-1.08884E-03-1.42761E-06-1.33613E-03-8.12788E-15 8.47601E-14
 -1      3585 2.00002E+01-1.31755E-03-1.82872E-06-1.28488E-03-2.62158E-14 3.87754E-13
 -1      3586 2.00012E+01-1.89402E-03 6.35156E-07 3.87093E-04-2.97024E-13-6.22818E-14
 -1      3587 2.00012E+01-1.91539E-03 3.25615E-06 1.45074E-04-2.11152E-13-2.05154E-13
 -1      3588 2.41775E+01-1.33102E+00 3.88565E-02-3.19771E-01 2.91815E-14-1.29785E-13
 -1      3589 1.12280E+01 8.56908E-01 1.42192E-02-5.78861E-02 9.74047E-14 4.69007E-13
 -1      3590 1.13081E+01 7.74552E-01 1.23245E-01-1.70042E+00 1.88603E-13 4.67709E-13
 -1      3591 2.46470E+01-2.99524E+00 8.92064E-02-1.00003E+00 3.24269E-13-5.62578E-13
 -1      3592 2.50089E+01-1.17448E+00-3.72289E-02-1.29159E+00-8.66729E-14-3.78569E-14
 -1      3593 1.96736E+01 2.38424E-01-2.70439E-04 1.69356E+00-1.00303E-13-1.25403E-13
 -1      3594 1.98011E+01 6.28873E-02 1.08643E-02 1.80927E+00-1.41932E-13-1.38539E-13
 -1      3595 1.92354E+01 4.11348E-01-2.73195E-03 1.63938E+00-1.49752E-13-9.48893E-14
 -1      3596 1.98463E+01-1.78691E-01 4.10956E-03 1.99636E+00-1.61612E-13-2.17161E-13
 -1      3597 2.00952E+01-4.78835E-01 1.47118E-02 2.09667E+00-1.45500E-13-1.94879E-13
 -1      3598 1.94544E+01-5.89576E-01-1.07562E-02 2.44774E+00-1.75665E-13-1.29059E-13
 -1      3599 1.92331E+01 4.81181E-02-7.66191E-03 2.00316E+00-1.95499E-13-1.82626E-13
 -1      3600 2.34673E+01-3.12954E+00-1.05551E-02 1.94524E+00-1.24880E-13-5.07488E-13
 -1      3601 1.69140E+01-1.48142E+00 5.47200E-02-4.19882E+00 3.58703E-13-9.32379E-14
 -1      3602 1.88800E+01-2.43645E+00-5.52673E-02-4.14133E+00 3.94726E-13-1.93900E-13
 -1      3603 1.78531E+01-1.36357E+00 2.60910E-02 3.71063E+00-3.05420E-13-1.48770E-13
 -1      3604 1.59598E+01-7.50909E-01 1.06287E-01 3.90540E+00-2.87728E-13-9.57914E-15
 -1      3605 2.27035E+01-1.97959E+00-7.04186E-03-1.40854E+00-8.85611E-14-1.30695E-13
 -1      3606 2.12240E+01-2.98107E+00 9.90199E-02-3.55442E+00 4.31228E-13-3.38903E-13
 -1      3607 2.29325E+01-3.50508E+00-1.06313E-01-2.43775E+00 3.73647E-13-4.84762E-13
 -1      3608 2.02073E+01-2.29158E+00 5.41077E-02-3.39743E+00 3.55577E-13-2.94916E-13
 -1      3609 2.08809E+01-1.11263E+00 4.20244E-02-1.98314E+00-1.06807E-13-2.78176E-13
 -1      3610 2.26053E+01-2.83715E+00 8.97579E-02 2.53784E+00-2.09289E-13-4.18171E-13
 -1      3611 2.33638E+01-2.92237E+00 1.52715E-03-1.59531E+00 3.22914E-13-4.69875E-13
 -1      3612 1.50813E+01-3.86503E-01 1.18869E-02-3.45701E+00 2.40924E-13 7.55541E-14
 -1      3613 1.60097E+01-9.89378E-01 3.05962E-02-4.00749E+00 2.80652E-13-8.10844E-14
 -1      3614 1.75018E+01-1.04526E+00 5.00915E-02-3.53578E+00 2.84540E-13-1.66067E-13
 -1      3615 2.26027E+01-2.59005E+00 4.40067E-02-1.94605E+00 2.88108E-13-4.43935E-13
 -1      3616 2.14769E+01-2.64534E+00-4.53350E-02-2.70417E+00 3.15584E-13-3.01524E-13
 -1      3617 2.00014E+01-2.00922E-03-4.96533E-06 1.09621E-06-2.07957E-13-2.25340E-13
 -1      3618 2.00012E+01-1.91548E-03 3.31212E-06-1.39185E-04-2.28771E-13-9.35086E-14
 -1      3619 2.00012E+01-1.89420E-03 8.33077E-07-3.84758E-04-1.78066E-13-1.11377E-13
 -1      3620 2.00002E+01-1.31906E-03-1.06542E-06 1.70866E-03-2.17586E-13-2.67196E-13
 -1      3621 2.00001E+01-1.25244E-03 2.54687E-06 1.55772E-03-1.55949E-13-4.19875E-13
 -1      3622 2.00003E+01-1.34185E-03-9.22479E-07 1.49451E-03-2.34447E-13-1.74197E-13
 -1      3623 2.00005E+01-1.51382E-03-4.91583E-06 1.70025E-03-2.47723E-13-8.34873E-14
 -1      3624 1.27752E+01 4.97179E-01 7.94419E-02-2.25970E+00 2.00816E-13 4.01387E-13
 -1      3625 1.94438E+01-1.59784E+00 1.16899E-03 3.29309E+00-2.77283E-13-1.80619E-13
 -1      3626 2.06675E+01-1.95220E+00 2.67935E-02 2.90737E+00-2.78662E-13-2.91748E-13
 -1      3627 2.00003E+01-1.38843E-03 3.80975E-06-1.42044E-03 1.68165E-14 1.92801E-13
 -1      3628 2.00002E+01-1.28379E-03-2.70600E-06-1.47490E-03 1.63436E-13 2.84089E-13
 -1      3629 1.99999E+01-1.10386E-03-8.22870E-07-1.44061E-03 6.22478E-15 9.64985E-14
 -1      3630 2.00008E+01-1.64758E-03 6.56856E-06-1.11168E-03-1.49000E-14-9.69550E-14
 -1      3631 2.00006E+01-1.54291E-03-3.87747E-06-1.27799E-03-5.69368E-14-7.21037E-14
 -1      3632 2.00005E+01-1.51677E-03-2.70188E-06-1.48358E-03 8.89237E-14 4.88587E-15
 -1      3633 2.00011E+01-1.83475E-03 5.80087E-06 6.55621E-04-2.77638E-13-9.69198E-14
 -1      3634 2.00013E+01-1.95378E-03-4.74793E-06 5.68738E-04-3.44611E-13-1.37223E-13
 -1      3635 2.00010E+01-1.77685E-03-4.23767E-06 8.75438E-04-3.77787E-13-1.64559E-13
 -1      3636 1.20751E+01 1.02100E+00 1.22280E-01 9.36876E-01 1.65831E-14 3.77129E-13
 -1      3637 1.25430E+01 1.02158E+00 2.38074E-02-3.41154E-03 7.89117E-14 4.10571E-13
 -1      3638 1.30583E+01 6.92533E-01 7.72471E-03 1.77650E+00-5.72658E-14 1.87923E-13
 -1      3639 1.49442E+01-1.81136E-01-1.65143E-03 3.16933E+00-1.92927E-13 2.49349E-14
 -1      3640 2.13879E+01-2.54502E+00 2.09093E-02 2.87835E+00-2.39843E-13-3.31040E-13
 -1      3641 1.82168E+01-8.46134E-01-2.38223E-02 3.06633E+00-2.35305E-13-1.51264E-13
 -1      3642 2.00004E+01-1.41526E-03 4.08878E-06 1.40968E-03-3.13297E-13-1.97920E-13
 -1      3643 2.00006E+01-1.53562E-03-1.85097E-07 1.47064E-03-4.17984E-13-2.76848E-13
 -1      3644 2.00006E+01-1.53617E-03-4.54156E-06 1.28053E-03-3.60223E-13-5.01445E-13
 -1      3645 2.00008E+01-1.63543E-03 7.98989E-06 1.11905E-03-3.13263E-13-3.90691E-13
 -1      3646 2.00008E+01-1.61539E-03 4.74702E-06 1.55993E-03-2.88608E-13-2.65084E-13
 -1      3647 1.32966E+01 7.63355E-01 1.77866E-03-1.65270E+00 1.60491E-13 3.63827E-13
 -1      3648 1.40649E+01 2.88837E-01 4.74595E-02-2.81156E+00 2.14330E-13 3.08215E-13
 -1      3649 1.55884E+01 5.81328E-02 4.33852E-02-2.82523E+00 2.25922E-13 9.97518E-14
 -1      3650 1.93589E+01-7.03431E-01 2.12690E-02-2.38316E+00 1.77052E-13-2.17167E-13
 -1      3651 1.90942E+01-3.63307E-01 4.81095E-04-2.18868E+00 8.30393E-14-1.29283E-13
 -1      3652 1.91078E+01-7.48971E-02 1.42376E-02-1.92616E+00 3.37093E-14-6.06357E-14
 -1      3653 1.89901E+01 1.39472E-01-2.96965E-03-1.75205E+00 1.26156E-14-2.46091E-14
 -1      3654 1.84750E+01-4.66022E-02-6.82997E-03-2.13334E+00 9.48012E-14-1.08570E-13
 -1      3655 1.90715E+01 3.10878E-01 9.27574E-03-1.54761E+00-5.35511E-14 2.00289E-14
 -1      3656 1.90387E+01 4.30914E-01-4.11629E-03-1.40152E+00-2.83463E-14 1.51368E-14
 -1      3657 1.85802E+01 3.72213E-01-2.05903E-03-1.64433E+00-8.04364E-15 4.10091E-14
 -1      3658 1.91426E+01 5.22236E-01 5.79014E-03-1.24557E+00 6.33255E-14 3.05092E-14
 -1      3659 1.91547E+01 5.77675E-01-4.03761E-03-1.12499E+00 1.45850E-13 8.22099E-14
 -1      3660 1.87632E+01 5.97990E-01 7.83186E-04-1.28103E+00 4.59155E-14 2.54380E-14
 -1      3661 1.92601E+01 6.14794E-01 3.57451E-03-1.00442E+00 6.07830E-14 8.17940E-14
 -1      3662 1.92926E+01 6.27769E-01-3.62554E-03-9.04374E-01 5.57111E-14 2.76932E-14
 -1      3663 1.89652E+01 6.96001E-01 1.96213E-03-1.00814E+00 8.79485E-14-1.35316E-14
 -1      3664 1.93901E+01 6.29770E-01 2.23723E-03-8.09280E-01 4.81920E-14 2.46755E-14
 -1      3665 1.94292E+01 6.16334E-01-3.15309E-03-7.25646E-01 7.07092E-14-2.23988E-14
 -1      3666 1.91597E+01 7.11401E-01 2.31715E-03-7.98328E-01 5.81538E-14 5.69853E-14
 -1      3667 1.95146E+01 5.97295E-01 1.44782E-03-6.49329E-01-2.70121E-15 7.92301E-15
 -1      3668 1.95529E+01 5.68869E-01-2.70615E-03-5.79021E-01-1.01050E-13-3.14825E-14
 -1      3669 1.93345E+01 6.75831E-01 2.29197E-03-6.33275E-01-1.08593E-14 6.39593E-14
 -1      3670 1.96252E+01 5.38417E-01 1.00084E-03-5.17031E-01-9.32659E-14-3.75552E-14
 -1      3671 1.96591E+01 5.02741E-01-2.30537E-03-4.58027E-01-1.22946E-13-5.99351E-14
 -1      3672 1.94849E+01 6.11474E-01 2.08655E-03-5.00810E-01-9.23614E-14 5.85776E-14
 -1      3673 1.97186E+01 4.67465E-01 7.40222E-04-4.07542E-01-1.99135E-13-7.46147E-14
 -1      3674 1.97469E+01 4.29763E-01-1.93667E-03-3.58372E-01-1.62132E-13-1.22141E-13
 -1      3675 1.96103E+01 5.33411E-01 1.82017E-03-3.93387E-01-1.78982E-13 4.19055E-14
 -1      3676 1.97947E+01 3.93980E-01 5.80929E-04-3.17383E-01-1.43825E-13-2.03466E-13
 -1      3677 1.98172E+01 3.57565E-01-1.60329E-03-2.76830E-01-1.53082E-13-2.58767E-13
 -1      3678 1.97120E+01 4.51871E-01 1.52591E-03-3.06109E-01-2.17943E-13-5.93806E-14
 -1      3679 1.98548E+01 3.23880E-01 4.77522E-04-2.43772E-01-1.65887E-13-3.59186E-13
 -1      3680 1.98721E+01 2.90644E-01-1.30803E-03-2.10745E-01-1.64711E-13-3.65326E-13
 -1      3681 1.97924E+01 3.73477E-01 1.24269E-03-2.35405E-01-2.61389E-13-3.04264E-13
 -1      3682 1.99010E+01 2.60466E-01 4.01981E-04-1.84349E-01-1.39545E-13-2.64033E-13
 -1      3683 1.99137E+01 2.31332E-01-1.05099E-03-1.57828E-01-1.41434E-13-2.98517E-13
 -1      3684 1.98547E+01 3.02028E-01 9.87259E-04-1.78536E-01-1.00563E-13-3.54951E-13
 -1      3685 1.99355E+01 2.05263E-01 3.40514E-04-1.37007E-01-9.77077E-14-2.90138E-13
 -1      3686 1.99447E+01 1.80513E-01-8.31069E-04-1.16032E-01-7.42078E-14-2.91403E-13
 -1      3687 1.99019E+01 2.39387E-01 7.66336E-04-1.33265E-01-1.26666E-13-2.34884E-13
 -1      3688 1.99607E+01 1.58636E-01 2.87161E-04-9.98351E-02-3.45665E-14-2.17341E-13
 -1      3689 1.99670E+01 1.38147E-01-6.46292E-04-8.35076E-02 5.79807E-15-2.05978E-13
 -1      3690 1.99368E+01 1.86118E-01 5.81434E-04-9.76724E-02-2.32281E-14-1.86337E-13
 -1      3691 1.99785E+01 1.20230E-01 2.39673E-04-7.10979E-02-1.15475E-14-1.95980E-13
 -1      3692 1.99827E+01 1.03646E-01-4.93875E-04-5.85993E-02-3.84887E-14-1.49294E-13
 -1      3693 1.99621E+01 1.41957E-01 4.30915E-04-7.00807E-02 5.24039E-14-2.00739E-13
 -1      3694 1.99907E+01 8.92864E-02 1.97382E-04-4.92482E-02-1.24465E-13-1.38110E-13
 -1      3695 1.99933E+01 7.61354E-02-3.70433E-04-3.98497E-02-6.70270E-14-2.10251E-13
 -1      3696 1.99798E+01 1.06154E-01 3.11370E-04-4.90184E-02-5.62235E-14-1.18500E-13
 -1      3697 1.99987E+01 6.48551E-02 1.60158E-04-3.29313E-02-1.25083E-13-1.79119E-13
 -1      3698 2.00002E+01 5.46278E-02-2.72250E-04-2.60001E-02-1.46862E-13-1.12192E-13
 -1      3699 1.99918E+01 7.77097E-02 2.18579E-04-3.32093E-02-1.01473E-13-8.64827E-14
 -1      3700 2.00036E+01 4.59363E-02 1.27943E-04-2.09864E-02-7.05896E-15-6.57767E-14
 -1      3701 2.00043E+01 3.81345E-02-1.95552E-04-1.59851E-02 2.08008E-13-4.01416E-14
 -1      3702 1.99996E+01 5.55457E-02 1.48148E-04-2.15632E-02-2.14621E-14 6.28690E-14
 -1      3703 2.00064E+01 3.15670E-02 1.00575E-04-1.24383E-02 2.45960E-13-1.12662E-13
 -1      3704 2.00065E+01 2.57325E-02-1.36723E-04-8.92042E-03 8.60492E-14-4.11343E-15
 -1      3705 2.00043E+01 3.86020E-02 9.58991E-05-1.31643E-02 1.81636E-13-1.51167E-13
 -1      3706 2.00076E+01 2.08707E-02 7.77520E-05-6.48382E-03-6.46406E-14 2.98613E-14
 -1      3707 2.00074E+01 1.65994E-02-9.24476E-05-4.08541E-03-2.83868E-14 2.28029E-15
 -1      3708 2.00069E+01 2.59010E-02 5.80832E-05-7.25685E-03 5.66058E-14 1.58733E-14
 -1      3709 2.00078E+01 1.30801E-02 5.90609E-05-2.47350E-03 2.76167E-16-4.93275E-14
 -1      3710 2.00074E+01 1.00272E-02-5.97974E-05-9.03509E-04 1.03164E-13-1.53508E-13
 -1      3711 2.00079E+01 1.65783E-02 3.14704E-05-3.22748E-03-3.32458E-14 6.43075E-14
 -1      3712 2.00075E+01 7.54462E-03 4.40206E-05 1.08428E-04 8.44538E-14-1.98873E-13
 -1      3713 2.00070E+01 5.42337E-03-3.62603E-05 1.07859E-03 8.01249E-14-2.07653E-13
 -1      3714 2.00081E+01 9.89426E-03 1.33670E-05-5.87200E-04 4.90334E-14-1.38542E-13
 -1      3715 2.00067E+01 3.72606E-03 3.21248E-05 1.66439E-03-4.32462E-14-1.62227E-13
 -1      3716 2.00062E+01 2.30332E-03-1.97359E-05 2.21103E-03-9.94856E-14-2.29393E-13
 -1      3717 2.00076E+01 5.23232E-03 1.58493E-06 1.04739E-03 6.06282E-14-3.09596E-13
 -1      3718 2.00058E+01 1.18887E-03 2.28771E-05 2.50278E-03-2.19604E-14-2.57158E-13
 -1      3719 2.00054E+01 2.78868E-04-8.50776E-06 2.75937E-03-1.11561E-13-2.17861E-13
 -1      3720 2.00068E+01 2.09007E-03-5.61181E-06 1.97168E-03-1.15038E-13-4.41273E-13
 -1      3721 2.00049E+01-4.12556E-04 1.58130E-05 2.85552E-03-1.57962E-13-1.37215E-13
 -1      3722 2.00045E+01-9.55144E-04-1.20306E-06 2.92112E-03-1.23182E-13-1.71742E-13
 -1      3723 2.00059E+01 6.63041E-05-9.57268E-06 2.40923E-03-1.29726E-13-2.83587E-13
 -1      3724 2.00040E+01-1.34751E-03 1.05106E-05 2.89353E-03-3.91619E-14-1.62105E-13
 -1      3725 2.00036E+01-1.63437E-03 3.25179E-06 2.84005E-03 7.46595E-14-1.03119E-13
 -1      3726 2.00049E+01-1.15355E-03-1.13277E-05 2.52589E-03-3.63177E-14-2.43335E-13
 -1      3727 2.00032E+01-1.82220E-03 6.58845E-06 2.73992E-03 9.15871E-14-1.94474E-13
 -1      3728 2.00029E+01-1.93780E-03 5.69780E-06 2.61822E-03 9.42151E-14-1.69453E-13
 -1      3729 2.00040E+01-1.81176E-03-1.16504E-05 2.44213E-03-3.40214E-14-1.83512E-13
 -1      3730 2.00025E+01-1.99202E-03 3.78940E-06 2.48108E-03-1.01327E-13-1.07220E-13
 -1      3731 2.00022E+01-1.99932E-03 6.98181E-06 2.32595E-03-2.10943E-13-2.92486E-13
 -1      3732 2.00032E+01-2.09190E-03-1.10607E-05 2.24333E-03-4.63625E-14-3.95287E-13
 -1      3733 2.00018E+01-1.97356E-03 1.55503E-06 2.17593E-03-1.10683E-13-1.59703E-13
 -1      3734 2.00016E+01-1.91808E-03 7.74002E-06 2.01004E-03-9.61342E-14-1.18423E-13
 -1      3735 2.00024E+01-2.13040E-03-1.01114E-05 1.98780E-03-9.07315E-14-1.31337E-15
 -1      3736 2.00013E+01-1.84553E-03 1.28289E-06 1.85882E-03-1.22879E-13-2.53493E-13
 -1      3737 2.00011E+01-1.76817E-03 4.03720E-06 1.69931E-03-8.85725E-14-2.37262E-13
 -1      3738 2.00018E+01-2.03368E-03-9.35904E-06 1.71581E-03-1.43329E-13-5.55874E-14
 -1      3739 1.92204E+01 7.35753E-01-4.67000E-03 9.66862E-01-1.42538E-13-1.09076E-13
 -1      3740 1.91637E+01 7.42199E-01 2.90504E-03 1.07195E+00-1.59139E-13-1.20539E-13
 -1      3741 1.90178E+01 7.25548E-01-5.73954E-03 1.19158E+00-1.62465E-13-1.14584E-13
 -1      3742 1.89697E+01 6.92626E-01 5.07988E-03 1.31946E+00-7.43515E-14-5.73781E-14
 -1      3743 1.88223E+01 8.40119E-01 4.19674E-03 1.04469E+00-1.43484E-13-7.47732E-14
 -1      3744 1.95457E+01 6.18872E-01-3.17764E-03 6.31937E-01-1.82694E-13 5.79153E-14
 -1      3745 1.94993E+01 6.59061E-01 1.07548E-03 7.06823E-01-1.58832E-13 6.69423E-14
 -1      3746 1.96648E+01 5.34585E-01-2.62863E-03 5.04570E-01-2.00234E-13 1.35864E-13
 -1      3747 1.96274E+01 5.78586E-01 7.76392E-04 5.68105E-01-1.98123E-13 6.00002E-14
 -1      3748 1.94687E+01 6.60759E-01 2.71561E-03 5.46288E-01-2.13975E-13 1.47470E-13
 -1      3749 1.97585E+01 4.49155E-01-2.16448E-03 3.97965E-01-6.70749E-14 6.38040E-14
 -1      3750 1.97295E+01 4.92515E-01 6.41998E-04 4.51443E-01-1.21984E-13 5.32350E-14
 -1      3751 1.96075E+01 5.65843E-01 2.19997E-03 4.35551E-01-1.10654E-13 1.17496E-13
 -1      3752 1.98303E+01 3.68777E-01-1.76616E-03 3.09510E-01 5.02522E-14-1.72429E-14
 -1      3753 1.98088E+01 4.08884E-01 5.68322E-04 3.53974E-01 3.08048E-14 2.19707E-14
 -1      3754 1.97160E+01 4.72680E-01 1.74220E-03 3.43236E-01-5.27322E-15-8.65129E-14
 -1      3755 1.98844E+01 2.96735E-01-1.42472E-03 2.37004E-01-3.48809E-14-7.36083E-14
 -1      3756 1.98688E+01 3.32271E-01 5.15402E-04 2.73441E-01 5.32700E-15-3.19816E-14
 -1      3757 1.97993E+01 3.86510E-01 1.35247E-03 2.66790E-01 8.46746E-14-6.62399E-14
 -1      3758 1.99242E+01 2.34384E-01-1.13457E-03 1.78411E-01 4.33445E-14-2.30263E-14
 -1      3759 1.99133E+01 2.64880E-01 4.65581E-04 2.07807E-01-2.33774E-16-4.13801E-14
 -1      3760 1.98620E+01 3.10038E-01 1.03142E-03 2.04180E-01 3.18694E-15-1.36696E-13
 -1      3761 1.99530E+01 1.81875E-01-8.90945E-04 1.31787E-01 8.76994E-15 9.75203E-15
 -1      3762 1.99456E+01 2.07386E-01 4.13202E-04 1.55121E-01 5.29789E-14 1.15441E-14
 -1      3763 1.99085E+01 2.44261E-01 7.72909E-04 1.53601E-01 3.69167E-14 1.40738E-14
 -1      3764 1.99732E+01 1.38650E-01-6.89211E-04 9.52840E-02-3.83447E-15 2.35227E-14
 -1      3765 1.99684E+01 1.59531E-01 3.58600E-04 1.13501E-01-1.62183E-14 4.91735E-14
 -1      3766 1.99422E+01 1.89097E-01 5.68635E-04 1.13362E-01 8.04947E-15-7.22449E-15
 -1      3767 1.99870E+01 1.03773E-01-5.24651E-04 6.71861E-02-6.03857E-14 5.53133E-14
 -1      3768 1.99841E+01 1.20536E-01 3.04160E-04 8.11643E-02 5.06142E-15 6.95273E-14
 -1      3769 1.99661E+01 1.43826E-01 4.09970E-04 8.18669E-02 3.39557E-15 3.24016E-14
 -1      3770 1.99961E+01 7.61439E-02-3.92485E-04 4.59412E-02-2.65143E-14 5.01484E-14
 -1      3771 1.99946E+01 8.93599E-02 2.52371E-04 5.64748E-02-1.11642E-14 1.05433E-13
 -1      3772 1.99826E+01 1.07389E-01 2.88761E-04 5.76335E-02-7.04528E-14 1.88019E-13
 -1      3773 2.00018E+01 5.46403E-02-2.88012E-04 3.01841E-02-8.41505E-14 2.96423E-13
 -1      3774 2.00012E+01 6.48782E-02 2.05095E-04 3.79685E-02-5.03499E-14 1.65924E-13
 -1      3775 1.99936E+01 7.85875E-02 1.97708E-04 3.93218E-02-9.51833E-14 2.28136E-13
 -1      3776 2.00051E+01 3.81967E-02-2.06760E-04 1.87440E-02-1.25033E-13 3.94582E-13
 -1      3777 2.00050E+01 4.59882E-02 1.63416E-04 2.43731E-02-6.39253E-14 3.33161E-13
 -1      3778 2.00007E+01 5.62195E-02 1.30510E-04 2.57521E-02-9.20047E-14 4.05519E-13
 -1      3779 2.00068E+01 2.58501E-02-1.44623E-04 1.06396E-02-9.95289E-14 3.72901E-13
 -1      3780 2.00070E+01 3.16707E-02 1.27740E-04 1.46091E-02-1.25031E-13 3.48041E-13
 -1      3781 2.00048E+01 3.91523E-02 8.18794E-05 1.59118E-02-1.18729E-13 3.46810E-13
 -1      3782 2.00073E+01 1.67600E-02-9.79419E-05 5.06586E-03-3.19475E-14 3.56023E-13
 -1      3783 2.00077E+01 2.10214E-02 9.79680E-05 7.78066E-03-6.08856E-14 4.00709E-13
 -1      3784 2.00070E+01 2.63675E-02 4.74736E-05 8.95197E-03-4.23079E-14 3.25677E-13
 -1      3785 2.00071E+01 1.02132E-02-6.35443E-05 1.37502E-03 1.22441E-13 6.05440E-13
 -1      3786 2.00077E+01 1.32626E-02 7.36766E-05 3.15966E-03 1.80234E-14 4.97988E-13
 -1      3787 2.00078E+01 1.69797E-02 2.37920E-05 4.17570E-03-5.07564E-14 3.71381E-13
 -1      3788 2.00066E+01 5.61784E-03-3.87435E-05-9.44423E-04-3.82083E-14 7.86015E-13
 -1      3789 2.00071E+01 7.74168E-03 5.42593E-05 1.65405E-04 1.31959E-13 7.04242E-13
 -1      3790 2.00078E+01 1.02391E-02 8.05815E-06 1.02247E-03 3.00884E-14 5.90855E-13
 -1      3791 2.00058E+01 2.49285E-03-2.13126E-05-2.28898E-03 9.03877E-15 5.79718E-13
 -1      3792 2.00063E+01 3.92281E-03 3.90355E-05-1.65671E-03 6.30253E-14 6.73902E-13
 -1      3793 2.00073E+01 5.52537E-03-1.89611E-06-9.50150E-04 1.83541E-14 6.91180E-13
 -1      3794 2.00049E+01 4.54256E-04-9.44167E-06-2.96034E-03-7.30086E-14 3.79604E-13
 -1      3795 2.00054E+01 1.37440E-03 2.73235E-05-2.65607E-03-7.88074E-14 4.71238E-13
 -1      3796 2.00065E+01 2.33526E-03-7.73873E-06-2.08494E-03 3.43826E-14 3.38750E-13
 -1      3797 2.00041E+01-7.99212E-04-1.68679E-06-3.18360E-03 4.68823E-15 2.04320E-13
 -1      3798 2.00045E+01-2.45111E-04 1.84854E-05-3.09617E-03-7.13044E-15 3.79765E-13
 -1      3799 2.00056E+01 2.67775E-04-1.07331E-05-2.64246E-03-5.40663E-14 2.52456E-13
 -1      3800 2.00033E+01-1.50002E-03 3.08586E-06-3.12313E-03-4.42786E-15 1.75695E-13
 -1      3801 2.00036E+01-1.20152E-03 1.19510E-05-3.17168E-03 2.82882E-15 2.04364E-13
 -1      3802 2.00046E+01-9.91022E-04-1.18204E-05-2.81688E-03-1.69229E-14 2.47964E-13
 -1      3803 2.00026E+01-1.82469E-03 5.75229E-06-2.89600E-03-3.66949E-13 2.28344E-13
 -1      3804 2.00028E+01-1.69829E-03 7.22478E-06-3.02322E-03-2.10976E-13 7.24263E-14
 -1      3805 2.00038E+01-1.68291E-03-1.16865E-05-2.74975E-03-4.71367E-14 8.89481E-14
 -1      3806 2.00019E+01-1.90547E-03 6.94482E-06-2.58327E-03-3.90121E-13 1.03795E-13
 -1      3807 2.00022E+01-1.88879E-03 3.87896E-06-2.74978E-03-4.61780E-13 1.21817E-13
 -1      3808 2.00030E+01-1.99105E-03-1.08342E-05-2.54179E-03-4.38720E-13-6.15972E-14
 -1      3809 2.00014E+01-1.83995E-03 7.17930E-06-2.23844E-03-3.30057E-13 1.78327E-13
 -1      3810 2.00016E+01-1.88728E-03 1.61854E-06-2.41846E-03-4.11947E-13 6.62890E-14
 -1      3811 2.00023E+01-2.05288E-03-9.70859E-06-2.26263E-03-4.49390E-13-1.25901E-13
 -1      3812 2.00010E+01-1.69817E-03 6.92425E-06-1.89610E-03-1.46130E-13 1.02527E-13
 -1      3813 2.00011E+01-1.77682E-03 3.11494E-07-2.07206E-03-1.21404E-13 1.32404E-13
 -1      3814 2.00017E+01-1.96932E-03-8.41321E-06-1.95763E-03-2.12490E-13-4.23029E-14
 -1      3815 2.00007E+01-1.56898E-03 2.94315E-06-1.59942E-03 1.13160E-13 2.95311E-14
 -1      3816 2.00008E+01-1.65301E-03-3.03079E-06-1.76595E-03-5.08705E-14 9.87975E-15
 -1      3817 2.00012E+01-1.84186E-03-5.77104E-06-1.67793E-03-9.30876E-14-3.33228E-13
 -1      3818 2.00009E+01-1.70854E-03 3.74733E-06-1.44480E-03 1.15991E-15-2.01595E-13
 -1      3819 1.59423E+01 5.03436E-02 1.22358E-02 2.75821E+00-1.41982E-13-4.81282E-14
 -1      3820 1.44490E+01 5.79070E-01 8.55696E-02 2.41229E+00-1.24729E-13 6.02816E-14
 -1      3821 1.88044E+01 6.22584E-01-7.04716E-03 1.47665E+00-1.13140E-13-1.12150E-13
 -1      3822 1.87877E+01 5.25615E-01 8.71877E-03 1.63694E+00-2.39461E-13-1.21733E-13
 -1      3823 1.85249E+01 7.90361E-01 4.22205E-03 1.31099E+00-1.44443E-13-3.01497E-14
 -1      3824 1.97881E+01-1.90277E+00 1.56547E-02-3.21956E+00 3.02676E-13-2.67800E-13
 -1      3825 1.93977E+01 6.91628E-01-3.83939E-03 7.83929E-01-1.81830E-13-2.37309E-14
 -1      3826 1.93437E+01 7.20609E-01 1.68876E-03 8.72239E-01-1.44745E-13-8.84788E-14
 -1      3827 1.92942E+01 7.48809E-01 3.30142E-03 6.79294E-01-1.93162E-13-8.21619E-15
 -1      3828 1.97714E+01-1.49017E+00 2.60430E-02-2.86156E+00 2.50625E-13-2.84199E-13
 -1      3829 1.92871E+01-1.00805E+00 5.40995E-03-2.67264E+00 2.12693E-13-2.21980E-13
 -1      3830 1.83972E+01-5.94155E-01-7.70027E-03-2.70634E+00 2.05688E-13-2.31535E-13
 -1      3831 1.82663E+01-1.23524E+00-5.29695E-03-3.38611E+00 2.88406E-13-2.05730E-13
 -1      3832 1.86502E+01-4.05084E-01 2.27775E-02 2.60474E+00-1.97670E-13-1.65219E-13
 -1      3833 1.72155E+01-2.27123E-01 2.41388E-02 2.91508E+00-2.10040E-13-1.63023E-13
 -1      3834 1.63816E+01 3.19219E-01-2.90496E-02 2.31738E+00-1.38359E-13-1.13397E-13
 -1      3835 1.84345E+01-7.13893E-02-1.12184E-02 2.33935E+00-1.63081E-13-1.14658E-13
 -1      3836 2.00011E+01-1.83664E-03 5.50572E-06-6.54389E-04-6.27650E-14-1.20625E-13
 -1      3837 2.00010E+01-1.77274E-03-1.95951E-06-8.73740E-04-7.86717E-14-1.43698E-13
 -1      3838 2.00013E+01-1.95634E-03-4.64404E-06-5.66422E-04-2.71609E-13-1.67818E-13
 -1      3839 1.41543E+01 8.19126E-01-7.37052E-03 1.57580E+00-2.67434E-14 1.02215E-13
 -1      3840 2.00010E+01-1.77644E-03-1.03545E-06 1.09877E-03-3.91253E-13-2.82965E-13
 -1      3841 2.00011E+01-1.80022E-03-5.85606E-06 1.45072E-03-2.71724E-13-3.46444E-13
 -1      3842 1.90797E+01 8.15769E-01 3.87380E-03 8.41476E-01-1.52671E-13-6.34851E-14
 -1      3843 2.00010E+01-1.78643E-03-3.21792E-06-1.09032E-03-5.34808E-14-8.95923E-14
 -1      3844 1.33456E+01 1.11153E+00 7.18174E-02-8.67012E-01 1.28974E-13 4.23038E-13
 -1      3845 1.43822E+01 9.00917E-01 1.84943E-02-1.40839E+00 1.69552E-13 3.09345E-13
 -1      3846 1.35858E+01 1.08267E+00-8.72851E-03 5.17232E-02 6.99900E-14 3.30977E-13
 -1      3847 1.85882E+01 3.83853E-01-8.61096E-03 1.84338E+00-2.17691E-13-7.41631E-14
 -1      3848 1.86433E+01 1.89596E-01 1.43200E-02 2.04789E+00-1.74156E-13-9.45719E-14
 -1      3849 1.77934E+01 3.22225E-01 7.84324E-03 2.15802E+00-1.79321E-13-1.25004E-13
 -1      3850 1.81791E+01 6.34877E-01 4.88304E-03 1.66343E+00-1.66465E-13-6.82071E-14
 -1      3851 2.00016E+01-2.01479E-03-6.28085E-07 7.53952E-04-2.72887E-13-1.04567E-13
 -1      3852 2.00017E+01-2.06402E-03 4.12077E-06 4.81291E-04-2.70867E-13-1.12064E-13
 -1      3853 1.74377E+01-7.21361E-01-3.78228E-03-3.17628E+00 2.59832E-13-1.74776E-13
 -1      3854 2.00017E+01-2.09343E-03 2.42449E-06 1.47686E-04-3.36426E-13-1.85447E-13
 -1      3855 2.00017E+01-2.09581E-03 1.23291E-06-1.44995E-04-3.31324E-13-8.30706E-14
 -1      3856 2.00020E+01-2.17376E-03-3.00883E-06 3.39485E-04-3.72753E-13-9.05683E-14
 -1      3857 1.51797E+01 9.11602E-01-5.75280E-03 1.39533E+00-2.35367E-14-7.05842E-14
 -1      3858 1.42891E+01 1.17415E+00 6.05512E-02 8.20260E-01 4.43946E-14 1.28217E-13
 -1      3859 1.46600E+01 1.16116E+00-3.90520E-03 7.08270E-02 8.80377E-14 2.34686E-13
 -1      3860 2.00014E+01-1.92346E-03 4.30751E-06 1.19771E-03-3.75856E-13-2.58914E-13
 -1      3861 2.00017E+01-2.05226E-03-8.78150E-07 1.12831E-03-2.61182E-13-2.59477E-13
 -1      3862 1.81171E+01 5.13267E-01 1.03324E-02-1.61052E+00 8.34636E-14-1.01998E-13
 -1      3863 1.81788E+01 6.24611E-01-1.01008E-02-1.40660E+00 3.16908E-14-4.19412E-14
 -1      3864 1.84103E+01 7.10755E-01 5.87058E-03-1.22455E+00-1.01306E-14 2.03871E-14
 -1      3865 1.84987E+01 7.58229E-01-7.78420E-03-1.07546E+00 7.82410E-14 4.60421E-14
 -1      3866 1.79625E+01 8.28597E-01 6.45634E-03-1.17973E+00 7.86572E-14-4.73253E-14
 -1      3867 1.86925E+01 7.90430E-01 3.17896E-03-9.46316E-01 8.99723E-14 1.76248E-14
 -1      3868 1.87865E+01 7.96843E-01-5.86183E-03-8.34323E-01 9.85378E-14 1.01499E-14
 -1      3869 1.83651E+01 8.93268E-01 5.83872E-03-8.86288E-01 6.09845E-14 3.19704E-14
 -1      3870 1.89471E+01 7.93681E-01 1.69892E-03-7.39389E-01 6.67095E-14 1.03773E-14
 -1      3871 1.90360E+01 7.73495E-01-4.54782E-03-6.52690E-01 5.63672E-14 1.07010E-14
 -1      3872 1.87019E+01 8.85616E-01 4.98613E-03-6.77047E-01 9.55600E-14-3.07108E-14
 -1      3873 1.91685E+01 7.48300E-01 8.28122E-04-5.81287E-01-1.57025E-14 1.07819E-14
 -1      3874 1.92472E+01 7.13057E-01-3.59787E-03-5.12557E-01-9.05759E-14-2.10951E-14
 -1      3875 1.89819E+01 8.31575E-01 4.20333E-03-5.22692E-01-2.90042E-15-8.62707E-14
 -1      3876 1.93555E+01 6.75715E-01 3.80606E-04-4.56952E-01-1.02084E-13 1.97553E-14
 -1      3877 1.94226E+01 6.32615E-01-2.89591E-03-4.01496E-01-6.93783E-14 4.18592E-14
 -1      3878 1.92121E+01 7.50800E-01 3.38155E-03-4.06171E-01-7.33933E-14-1.56973E-13
 -1      3879 1.95103E+01 5.89692E-01 1.65668E-04-3.57811E-01-1.52610E-13 4.19253E-14
 -1      3880 1.95655E+01 5.44199E-01-2.33072E-03-3.12773E-01-2.10371E-13 3.36292E-15
 -1      3881 1.94001E+01 6.56760E-01 2.81328E-03-3.15082E-01-1.49449E-13-8.36627E-14
 -1      3882 1.96354E+01 5.00509E-01 6.23184E-05-2.78214E-01-2.66263E-13-4.67889E-14
 -1      3883 1.96796E+01 4.56321E-01-1.87567E-03-2.41595E-01-3.39125E-13-1.26149E-13
 -1      3884 1.95512E+01 5.59284E-01 2.28243E-03-2.43643E-01-2.67512E-13-1.67309E-13
 -1      3885 1.97346E+01 4.14856E-01 3.09635E-05-2.14157E-01-3.34912E-13-9.87905E-14
 -1      3886 1.97692E+01 3.74159E-01-1.50467E-03-1.84515E-01-2.00454E-13-1.58566E-13
 -1      3887 1.96707E+01 4.65480E-01 1.83020E-03-1.87017E-01-2.93082E-13-1.12083E-13
 -1      3888 1.98117E+01 3.36635E-01 2.78046E-05-1.62804E-01-1.25460E-13-7.55706E-14
 -1      3889 1.98382E+01 3.00593E-01-1.19820E-03-1.39013E-01-5.26205E-14-7.39288E-14
 -1      3890 1.97638E+01 3.79446E-01 1.44866E-03-1.42060E-01-1.30126E-13 2.12136E-13
 -1      3891 1.98705E+01 2.67833E-01 3.41830E-05-1.21963E-01-9.33816E-14-9.95158E-14
 -1      3892 1.98903E+01 2.36888E-01-9.44013E-04-1.03081E-01-1.05842E-13 3.36319E-14
 -1      3893 1.98351E+01 3.03374E-01 1.12906E-03-1.06521E-01-6.75958E-14 1.93666E-13
 -1      3894 1.99145E+01 2.09101E-01 4.18352E-05-8.98289E-02-1.34386E-13-1.36877E-14
 -1      3895 1.99289E+01 1.83211E-01-7.34117E-04-7.50377E-02-8.75512E-14-6.63655E-14
 -1      3896 1.98887E+01 2.38079E-01 8.65000E-04-7.86510E-02-1.33743E-13 2.02447E-13
 -1      3897 1.99466E+01 1.60212E-01 4.73679E-05-6.48647E-02-4.65598E-14-2.48191E-13
 -1      3898 1.99567E+01 1.39036E-01-5.62480E-04-5.34444E-02-2.33262E-16-2.57858E-13
 -1      3899 1.99283E+01 1.83425E-01 6.50423E-04-5.70250E-02-1.74882E-13-1.82996E-13
 -1      3900 1.99694E+01 1.20408E-01 4.98162E-05-4.57457E-02 4.24536E-14-3.03753E-13
 -1      3901 1.99764E+01 1.03438E-01-4.23916E-04-3.70662E-02-8.03682E-14-2.72488E-13
 -1      3902 1.99567E+01 1.38682E-01 4.79114E-04-4.04538E-02-7.46697E-14-3.06171E-13
 -1      3903 1.99852E+01 8.86493E-02 4.93687E-05-3.13333E-02-1.64921E-13-2.45605E-13
 -1      3904 1.99897E+01 7.53096E-02-3.13664E-04-2.48500E-02-7.98458E-14-2.36931E-13
 -1      3905 1.99767E+01 1.02785E-01 3.44812E-04-2.79375E-02-8.53556E-14-3.92790E-13
 -1      3906 1.99956E+01 6.37901E-02 4.66751E-05-2.06590E-02-4.25949E-14-1.52901E-13
 -1      3907 1.99985E+01 5.34999E-02-2.27298E-04-1.59087E-02 2.85071E-14-1.39633E-13
 -1      3908 1.99903E+01 7.45298E-02 2.41470E-04-1.86370E-02-4.80044E-14-2.75663E-13
 -1      3909 2.00022E+01 4.46953E-02 4.24838E-05-1.29097E-02 6.88667E-14-2.62694E-13
 -1      3910 2.00038E+01 3.69072E-02-1.60748E-04-9.50529E-03 1.32890E-13-3.64312E-13
 -1      3911 1.99991E+01 5.27008E-02 1.63488E-04-1.18536E-02 7.33839E-15-4.53533E-13
 -1      3912 2.00061E+01 3.03076E-02 3.74701E-05-7.41380E-03 1.32951E-13-3.36384E-13
 -1      3913 2.00068E+01 2.45304E-02-1.10357E-04-5.03710E-03 7.62506E-14-3.50332E-13
 -1      3914 2.00044E+01 3.61520E-02 1.05859E-04-7.01269E-03 1.30203E-13-5.60279E-13
 -1      3915 2.00080E+01 1.96859E-02 3.21706E-05-3.62486E-03-5.85217E-15-1.88256E-13
 -1      3916 2.00082E+01 1.54934E-02-7.29151E-05-2.01909E-03-4.02877E-14-2.03504E-13
 -1      3917 2.00074E+01 2.38526E-02 6.42492E-05-3.64756E-03 1.57400E-13-6.37188E-13
 -1      3918 2.00086E+01 1.20195E-02 2.69728E-05-1.10577E-03-9.73064E-14-9.17759E-14
 -1      3919 2.00084E+01 9.05275E-03-4.56731E-05-6.70872E-05 3.24534E-14-2.48719E-13
 -1      3920 2.00086E+01 1.49075E-02 3.50038E-05-1.38466E-03-1.73269E-14-2.11486E-13
 -1      3921 2.00084E+01 6.62906E-03 2.21312E-05 4.87617E-04 2.15840E-14-2.58476E-13
 -1      3922 2.00080E+01 4.59248E-03-2.63258E-05 1.11826E-03-4.21021E-14-3.26097E-13
 -1      3923 2.00089E+01 8.56083E-03 1.51160E-05 7.05284E-05-3.27224E-14-1.48517E-13
 -1      3924 2.00077E+01 2.95816E-03 1.77925E-05 1.42168E-03-5.85737E-14-4.06170E-13
 -1      3925 2.00073E+01 1.61351E-03-1.29808E-05 1.76624E-03-1.29061E-13-3.35793E-13
 -1      3926 2.00084E+01 4.18955E-03 2.16421E-06 9.46649E-04-1.11113E-13-2.76850E-13
 -1      3927 2.00068E+01 5.60239E-04 1.40230E-05 1.89911E-03-1.00187E-13-3.55104E-13
 -1      3928 2.00063E+01-2.80913E-04-4.11565E-06 2.04940E-03-8.04521E-14-2.87635E-13
 -1      3929 2.00075E+01 1.29055E-03-5.76289E-06 1.41830E-03-1.38287E-13-2.46711E-13
 -1      3930 2.00058E+01-9.16448E-04 1.08292E-05 2.07123E-03-1.19938E-13-3.34843E-13
 -1      3931 2.00053E+01-1.40049E-03 1.46293E-06 2.09499E-03-7.60846E-14-3.81879E-13
 -1      3932 2.00065E+01-5.34743E-04-1.01473E-05 1.61646E-03-1.01415E-13-3.69424E-13
 -1      3933 2.00048E+01-1.74409E-03 8.16423E-06 2.04869E-03-2.66835E-14-3.33646E-13
 -1      3934 2.00043E+01-1.98279E-03 4.65201E-06 1.99479E-03 5.07245E-14-3.43120E-13
 -1      3935 2.00055E+01-1.59654E-03-1.21239E-05 1.63746E-03 1.17160E-14-4.94301E-13
 -1      3936 2.00038E+01-2.12975E-03 5.89222E-06 1.91045E-03 7.20930E-14-2.75955E-13
 -1      3937 2.00034E+01-2.20641E-03 6.43731E-06 1.81298E-03-5.09012E-14-3.19473E-13
 -1      3938 2.00044E+01-2.13195E-03-1.25313E-05 1.55040E-03 4.02855E-14-1.63706E-13
 -1      3939 2.00030E+01-2.23098E-03 3.61673E-06 1.71235E-03-1.13072E-13-1.73319E-13
 -1      3940 2.00026E+01-2.20615E-03 9.02783E-06 1.59170E-03-1.27803E-14-8.26484E-14
 -1      3941 2.00035E+01-2.31818E-03-1.12632E-05 1.40518E-03 7.02535E-14-7.61612E-14
 -1      3942 2.00023E+01-2.18609E-03 1.28021E-06 1.40848E-03-1.95533E-13-9.89160E-14
 -1      3943 2.00020E+01-2.11115E-03 7.13931E-06 1.29012E-03-3.56149E-13-2.37112E-13
 -1      3944 2.00022E+01-2.21286E-03-4.24659E-06 8.24780E-04-2.93395E-13-8.53223E-14
 -1      3945 2.00028E+01-2.31628E-03-7.72580E-06 1.14924E-03-1.94864E-13-2.60793E-14
 -1      3946 1.86438E+01 9.16779E-01-6.83495E-03 8.38944E-01-1.39689E-13-9.73395E-14
 -1      3947 1.85085E+01 9.30163E-01 1.31783E-03 9.43731E-01-1.74305E-13-1.08142E-13
 -1      3948 1.95549E+01 5.73315E-01-2.51723E-03 3.49068E-01-3.29103E-14-8.22059E-14
 -1      3949 1.94943E+01 6.24879E-01-2.08961E-04 3.95772E-01-6.36041E-14 4.25577E-14
 -1      3950 1.93986E+01 6.75144E-01-3.13337E-03 4.38223E-01-2.35221E-13 4.91094E-14
 -1      3951 1.93218E+01 7.26746E-01-2.46765E-04 4.93867E-01-2.60995E-13-8.68161E-15
 -1      3952 1.93719E+01 6.96528E-01 3.25639E-03 3.45766E-01-1.34222E-13-2.02587E-13
 -1      3953 1.97697E+01 3.87453E-01-1.63262E-03 2.13213E-01 3.32647E-14-1.61136E-13
 -1      3954 1.97343E+01 4.31068E-01-5.98762E-05 2.45606E-01 7.95920E-14-1.71345E-13
 -1      3955 1.98403E+01 3.09593E-01-1.30454E-03 1.62819E-01 6.05659E-16-1.52803E-13
 -1      3956 1.98140E+01 3.47602E-01 7.65967E-06 1.89319E-01 5.72810E-14-1.30654E-13
 -1      3957 1.97598E+01 3.93997E-01 1.54279E-03 1.68792E-01 5.34758E-14-2.17473E-13
 -1      3958 1.98927E+01 2.43057E-01-1.03165E-03 1.22143E-01 3.70679E-17-6.85986E-14
 -1      3959 1.98736E+01 2.75316E-01 5.50646E-05 1.43496E-01-2.62798E-14-1.00370E-13
 -1      3960 1.98334E+01 3.13902E-01 1.17795E-03 1.28934E-01-6.41533E-14-1.56839E-13
 -1      3961 1.99310E+01 1.87527E-01-8.05441E-04 8.98290E-02-2.94439E-14-5.74197E-14
 -1      3962 1.99174E+01 2.14294E-01 8.32189E-05 1.06758E-01 3.89807E-14-3.53305E-14
 -1      3963 1.98882E+01 2.45790E-01 8.87193E-04 9.67057E-02-4.43101E-15-1.39217E-13
 -1      3964 1.99585E+01 1.42134E-01-6.19668E-04 6.45858E-02-7.02933E-14 1.21359E-13
 -1      3965 1.99490E+01 1.63903E-01 9.60238E-05 7.77824E-02-4.48469E-14 2.93418E-14
 -1      3966 1.99282E+01 1.89150E-01 6.57718E-04 7.10741E-02-8.72423E-14-3.01042E-14
 -1      3967 1.99776E+01 1.05725E-01-4.69033E-04 4.52106E-02-9.26824E-14 1.55645E-13
 -1      3968 1.99712E+01 1.23102E-01 9.78760E-05 5.53180E-02-7.73061E-14 1.41337E-13
 -1      3969 1.99569E+01 1.42986E-01 4.78775E-04 5.10398E-02-7.03869E-14 6.82432E-14
 -1      3970 1.99905E+01 7.70410E-02-3.48659E-04 3.06142E-02-1.52922E-13 2.51707E-13
 -1      3971 1.99864E+01 9.06678E-02 9.26513E-05 3.82126E-02-1.27949E-13 1.43366E-13
 -1      3972 1.99768E+01 1.06055E-01 3.41129E-04 3.56617E-02-1.24944E-13 1.20513E-13
 -1      3973 1.99988E+01 5.48370E-02-2.53960E-04 1.98372E-02-5.45029E-14 3.03271E-13
 -1      3974 1.99964E+01 6.53366E-02 8.33855E-05 2.54355E-02-4.70138E-14 4.24571E-13
 -1      3975 1.99903E+01 7.70309E-02 2.36828E-04 2.40812E-02-1.95675E-13 2.42802E-13
 -1      3976 2.00039E+01 3.79530E-02-1.80678E-04 1.20572E-02-8.91678E-14 2.87936E-13
 -1      3977 2.00026E+01 4.58987E-02 7.22727E-05 1.60898E-02-1.06178E-13 2.81426E-13
 -1      3978 1.99990E+01 5.46194E-02 1.59094E-04 1.55383E-02 5.49679E-16 2.44385E-13
 -1      3979 2.00067E+01 2.53529E-02-1.24947E-04 6.58523E-03-4.87719E-15 1.84356E-13
 -1      3980 2.00062E+01 3.12520E-02 6.07901E-05 9.41472E-03-2.57644E-14 2.61365E-13
 -1      3981 2.00043E+01 3.76220E-02 1.02229E-04 9.37942E-03-3.74293E-14 1.69013E-13
 -1      3982 2.00080E+01 1.61398E-02-8.33447E-05 2.85737E-03-1.55245E-13 2.97273E-13
 -1      3983 2.00079E+01 2.04283E-02 4.98575E-05 4.77968E-03-7.58291E-14 2.17724E-13
 -1      3984 2.00072E+01 2.49733E-02 6.15135E-05 5.05618E-03-7.84818E-14 7.33684E-14
 -1      3985 2.00082E+01 9.55769E-03-5.29199E-05 4.20842E-04-2.72886E-17 6.06336E-13
 -1      3986 2.00084E+01 1.26008E-02 3.99881E-05 1.67285E-03-6.56196E-14 5.08262E-13
 -1      3987 2.00085E+01 1.57544E-02 3.31005E-05 2.11898E-03-1.81329E-13 2.52444E-13
 -1      3988 2.00078E+01 4.98291E-03-3.11836E-05-1.08072E-03 2.37243E-14 5.38229E-13
 -1      3989 2.00082E+01 7.08047E-03 3.14148E-05-3.13029E-04-2.19663E-14 6.09732E-13
 -1      3990 2.00087E+01 9.19327E-03 1.39024E-05 2.06885E-04-8.43130E-14 4.82083E-13
 -1      3991 2.00070E+01 1.91131E-03-1.60811E-05-1.92251E-03 5.79702E-14 2.46781E-13
 -1      3992 2.00075E+01 3.30444E-03 2.41877E-05-1.49582E-03 1.83481E-13 4.35603E-13
 -1      3993 2.00082E+01 4.65454E-03 1.47913E-06-9.64178E-04 1.46552E-13 2.48016E-13
 -1      3994 2.00061E+01-5.74564E-05-5.94950E-06-2.31303E-03-1.95070E-14 1.48060E-13
 -1      3995 2.00066E+01 8.21851E-04 1.82462E-05-2.11900E-03-5.84882E-14 1.57356E-13
 -1      3996 2.00074E+01 1.62589E-03-6.06744E-06-1.61345E-03 1.81090E-13 1.62615E-13
 -1      3997 2.00051E+01-1.23591E-03 5.29176E-07-2.40697E-03 1.81080E-13 2.53120E-14
 -1      3998 2.00056E+01-7.22279E-04 1.34700E-05-2.36536E-03 7.18681E-14 1.23533E-13
 -1      3999 2.00064E+01-2.98571E-04-1.01903E-05-1.90684E-03 1.00988E-13-4.81055E-14
 -1      4000 2.00042E+01-1.86395E-03 4.37647E-06-2.31652E-03-2.17547E-13 7.29344E-14
 -1      4001 2.00046E+01-1.60278E-03 9.71032E-06-2.36928E-03 1.06088E-13 1.11132E-14
 -1      4002 2.00054E+01-1.43498E-03-1.19816E-05-1.96728E-03 1.14132E-13-4.69590E-14
 -1      4003 2.00033E+01-2.12258E-03 6.41418E-06-2.12089E-03-3.66631E-13-1.44009E-13
 -1      4004 2.00037E+01-2.02890E-03 6.79230E-06-2.22708E-03-3.10583E-13-3.68549E-14
 -1      4005 2.00044E+01-2.02540E-03-1.22287E-05-1.88361E-03-2.32385E-13 1.49930E-13
 -1      4006 2.00025E+01-2.14760E-03 7.04168E-06-1.87501E-03-3.67479E-13-2.33071E-13
 -1      4007 2.00029E+01-2.15745E-03 4.42627E-06-2.00655E-03-3.90706E-13-2.03215E-13
 -1      4008 2.00035E+01-2.25145E-03-1.14303E-05-1.71850E-03-2.63543E-13 1.77777E-16
 -1      4009 2.00019E+01-2.03877E-03 6.67147E-06-1.61511E-03-1.97631E-13-3.62241E-13
 -1      4010 2.00021E+01-2.10468E-03 2.69117E-06-1.75269E-03-3.39386E-13-3.53123E-13
 -1      4011 2.00026E+01-2.24925E-03-1.01643E-05-1.51631E-03-2.74396E-13-2.86143E-13
 -1      4012 2.00017E+01-2.06288E-03 4.03435E-06-4.74511E-04-2.87010E-13-1.61085E-13
 -1      4013 2.00016E+01-2.01742E-03-8.86802E-07-7.51982E-04-2.24340E-13-3.29246E-13
 -1      4014 2.00020E+01-2.17370E-03-4.76835E-06-3.34090E-04-3.44060E-13-1.86897E-13
 -1      4015 1.82638E+01 9.20621E-01-9.64937E-03 1.05407E+00-1.94865E-13-1.06752E-13
 -1      4016 1.81113E+01 8.96412E-01 2.54286E-03 1.19674E+00-1.30692E-13-1.22672E-13
 -1      4017 1.81538E+01 1.03783E+00 8.61475E-03 8.30471E-01-1.68030E-13-2.81913E-13
 -1      4018 1.78454E+01 1.32376E-01 1.61106E-02-2.15880E+00 1.24891E-13-1.94590E-13
 -1      4019 1.78489E+01 3.47135E-01-1.11936E-02-1.87234E+00 1.14131E-13-1.14585E-13
 -1      4020 1.74890E+01 6.49272E-01 6.16480E-03-1.60637E+00 1.14342E-13-2.22759E-13
 -1      4021 1.96764E+01 4.76036E-01-2.02935E-03 2.74758E-01 3.53534E-14-1.58353E-13
 -1      4022 1.96297E+01 5.24483E-01-1.39827E-04 3.13838E-01-7.78602E-14-1.27341E-13
 -1      4023 1.95355E+01 5.87724E-01 2.56365E-03 2.75811E-01-9.97253E-15-2.13974E-13
 -1      4024 1.76005E+01-3.33462E-01 2.65106E-02-2.76272E+00 2.53570E-13-1.87992E-13
 -1      4025 1.76433E+01-1.33455E-01-1.24367E-02-2.47831E+00 1.73690E-13-2.26433E-13
 -1      4026 1.70350E+01 3.17470E-01 7.66346E-03-2.19012E+00 1.52464E-13-1.73525E-13
 -1      4027 1.67126E+01-2.33368E-01 1.27103E-02-2.95131E+00 2.49008E-13-1.29856E-13
 -1      4028 1.92007E+01 7.74489E-01-3.92380E-03 5.45127E-01-2.39158E-13-7.87445E-15
 -1      4029 1.91051E+01 8.21776E-01-4.63049E-05 6.11879E-01-2.19402E-13-8.27004E-14
 -1      4030 1.91636E+01 8.06237E-01 4.06217E-03 4.29653E-01-2.52735E-13-1.28376E-13
 -1      4031 2.00014E+01-1.93279E-03 5.14403E-06-9.99582E-04-2.51929E-13-1.66871E-13
 -1      4032 2.00012E+01-1.82629E-03 2.65287E-07-1.24634E-03-1.05960E-13-1.63043E-13
 -1      4033 2.00013E+01-1.88438E-03 5.45399E-07-1.35913E-03-1.20849E-13-2.95939E-13
 -1      4034 2.00017E+01-2.06804E-03-1.35939E-06-9.19220E-04-2.65015E-13-3.07400E-13
 -1      4035 1.56977E+01 3.21025E-01-6.62141E-03-2.38892E+00 1.77276E-13 4.92974E-14
 -1      4036 1.89523E+01 8.60640E-01-5.02775E-03 6.75601E-01-2.20467E-13-2.09347E-14
 -1      4037 1.88369E+01 8.95840E-01 4.39384E-04 7.57489E-01-1.49681E-13-6.40417E-14
 -1      4038 1.85699E+01 9.91278E-01 6.64562E-03 6.59997E-01-1.48432E-13-1.85810E-13
 -1      4039 2.00026E+01-2.31322E-03-6.80833E-07 5.89421E-04-2.47016E-13-4.98412E-15
 -1      4040 2.00023E+01-2.24817E-03 3.85942E-06 4.47245E-04-2.88602E-13 6.60102E-14
 -1      4041 2.00024E+01-2.27335E-03 2.14573E-06 1.12049E-04-3.10882E-13-1.30739E-13
 -1      4042 1.96625E+01 4.85777E-01 1.99783E-03 2.17353E-01 6.37226E-14-1.96716E-13
 -1      4043 1.52446E+01 7.55908E-01 3.27366E-02-1.87412E+00 1.45906E-13 1.43936E-13
 -1      4044 1.63087E+01 4.99855E-01 1.95264E-02-2.04824E+00 1.41330E-13-4.14252E-14
 -1      4045 1.64648E+01 6.51868E-01-1.60965E-02-1.73748E+00 1.17112E-13-7.16077E-14
 -1      4046 1.49460E+01 9.58543E-01-2.16203E-02-1.16415E+00 1.02762E-13 2.63622E-13
 -1      4047 2.00015E+01-1.94260E-03 1.16326E-06-1.47065E-03-1.20852E-13-3.30292E-13
 -1      4048 2.00019E+01-2.10000E-03-5.40070E-06-1.27483E-03-1.93747E-13-4.49162E-13
 -1      4049 1.70352E+01 5.09324E-01 7.18809E-03 2.01862E+00-1.73656E-13-1.67528E-13
 -1      4050 1.60285E+01 7.89626E-01 3.65395E-02 1.82781E+00-9.76938E-14-1.56658E-13
 -1      4051 1.58104E+01 9.84522E-01-2.18780E-02 1.19193E+00-1.21522E-14-1.89100E-13
 -1      4052 1.72223E+01 6.56391E-01-2.20421E-02 1.73835E+00-1.67495E-13-1.54020E-13
 -1      4053 1.78048E+01 8.43322E-01-1.45360E-02 1.34107E+00-1.32230E-13-1.74235E-13
 -1      4054 1.76227E+01 7.75623E-01 4.41158E-03 1.52736E+00-1.95220E-13-1.58701E-13
 -1      4055 1.69842E+01 9.51976E-01 1.86811E-02 1.37587E+00-1.48873E-13-3.34799E-13
 -1      4056 1.76345E+01 1.03349E+00 1.23225E-02 1.05653E+00-1.69466E-13-3.04714E-13
 -1      4057 1.89006E+01 9.08836E-01 5.22716E-03 5.31329E-01-1.97224E-13-1.58986E-13
 -1      4058 1.98841E+01 2.36881E-01-9.86182E-04 6.77540E-02-5.45588E-14-1.31838E-13
 -1      4059 1.98614E+01 2.69279E-01-1.88985E-04 8.07702E-02-7.22031E-14-1.33903E-13
 -1      4060 1.69767E+01 7.84882E-01 1.01947E-02-1.46172E+00 9.81999E-14-5.54716E-14
 -1      4061 1.72053E+01 8.60232E-01-1.63129E-02-1.22614E+00 7.33819E-14-7.02929E-14
 -1      4062 1.63142E+01 9.55290E-01 2.19637E-02-1.31604E+00 1.20022E-13 7.35115E-14
 -1      4063 1.93530E+01 6.85205E-01-3.13023E-03 2.42276E-01-6.93196E-14-2.52917E-13
 -1      4064 1.92611E+01 7.43078E-01-1.44729E-03 2.74259E-01-1.11486E-13-2.34577E-13
 -1      4065 1.80722E+01 9.80032E-01 1.03932E-03-7.48900E-01 6.39524E-14 3.35353E-14
 -1      4066 1.82516E+01 9.71804E-01-8.15142E-03-6.39234E-01 8.81161E-14 1.27466E-14
 -1      4067 1.84825E+01 9.57018E-01-1.35099E-05-5.62048E-01 4.87902E-14 2.62620E-15
 -1      4068 1.86334E+01 9.27919E-01-5.71429E-03-4.83145E-01 6.14876E-14-4.78731E-14
 -1      4069 1.82498E+01 1.05044E+00 8.19908E-03-4.28482E-01 5.66631E-14-6.33387E-14
 -1      4070 1.88149E+01 8.92856E-01-5.79708E-04-4.27952E-01 3.43943E-14-8.00542E-14
 -1      4071 1.89377E+01 8.48936E-01-5.52527E-03-3.70894E-01-2.80365E-14-1.14437E-13
 -1      4072 1.86459E+01 9.74505E-01 7.42797E-03-3.16400E-01 7.32731E-16-1.47215E-13
 -1      4073 1.90833E+01 8.05960E-01-7.36171E-04-3.27132E-01-1.35981E-13-1.47239E-13
 -1      4074 1.91861E+01 7.55136E-01-3.74750E-03-2.82863E-01-1.61618E-13-2.29030E-13
 -1      4075 1.89534E+01 8.85893E-01 8.40673E-03-2.32559E-01-1.04634E-13-2.35109E-13
 -1      4076 1.93006E+01 7.04720E-01-9.84621E-04-2.51681E-01-1.37455E-13-1.81241E-13
 -1      4077 1.93846E+01 6.52030E-01-2.87246E-03-2.17150E-01-1.31014E-13-1.88236E-13
 -1      4078 1.92056E+01 7.74634E-01 7.53462E-03-1.75135E-01-1.13906E-13-3.66301E-13
 -1      4079 1.94748E+01 6.01301E-01-8.46664E-04-1.93520E-01-1.72385E-13-1.89535E-13
 -1      4080 1.95418E+01 5.50160E-01-2.20103E-03-1.66099E-01-2.63074E-13-1.49100E-13
 -1      4081 1.94024E+01 6.61915E-01 5.93908E-03-1.32346E-01-1.54298E-13-2.93269E-13
 -1      4082 1.96124E+01 5.01775E-01-7.09845E-04-1.48036E-01-2.51411E-13-7.22429E-14
 -1      4083 1.96652E+01 4.54445E-01-1.69302E-03-1.26098E-01-1.25037E-13 7.13784E-14
 -1      4084 1.95574E+01 5.53800E-01 4.61524E-03-9.96347E-02-1.61945E-13-1.42252E-13
 -1      4085 1.97198E+01 4.10275E-01-5.79971E-04-1.12294E-01-1.07335E-13 1.36447E-13
 -1      4086 1.97607E+01 3.68056E-01-1.29979E-03-9.47605E-02-4.49320E-14 1.53243E-13
 -1      4087 1.96783E+01 4.54312E-01 3.55684E-03-7.45766E-02-2.40556E-14 2.12935E-14
 -1      4088 1.98024E+01 3.29114E-01-4.61035E-04-8.42422E-02-5.90499E-14 1.18122E-13
 -1      4089 1.98335E+01 2.92569E-01-9.91391E-04-7.03103E-02-4.04736E-14 1.11002E-13
 -1      4090 1.97715E+01 3.65815E-01 2.71423E-03-5.53671E-02-8.17820E-14-7.47661E-14
 -1      4091 1.98649E+01 2.59204E-01-3.56522E-04-6.23425E-02-1.05397E-13 1.05391E-13
 -1      4092 1.98881E+01 2.28368E-01-7.48578E-04-5.13705E-02-2.24976E-13 3.14707E-14
 -1      4093 1.98421E+01 2.89306E-01 2.04584E-03-4.06632E-02-1.29451E-13-6.71260E-14
 -1      4094 1.99112E+01 2.00475E-01-2.68112E-04-4.53854E-02-3.33204E-13 1.57526E-14
 -1      4095 1.99281E+01 1.75032E-01-5.57902E-04-3.68404E-02-2.82620E-13-1.32952E-13
 -1      4096 1.98948E+01 2.24765E-01 1.51914E-03-2.94556E-02-2.84550E-13-8.33734E-14
 -1      4097 1.99449E+01 1.52215E-01-1.95788E-04-3.23938E-02-1.48808E-13-8.17354E-14
 -1      4098 1.99569E+01 1.31646E-01-4.09229E-04-2.58244E-02-1.15892E-14-1.81401E-13
 -1      4099 1.99333E+01 1.71497E-01 1.10810E-03-2.09713E-02-1.35156E-13-7.21957E-14
 -1      4100 1.99687E+01 1.13349E-01-1.38371E-04-2.25656E-02 4.83635E-14-2.11752E-13
 -1      4101 1.99770E+01 9.70343E-02-2.94491E-04-1.75881E-02-1.42674E-14-1.05547E-13
 -1      4102 1.99607E+01 1.28405E-01 7.91238E-04-1.46086E-02-2.62018E-14 1.08533E-13
 -1      4103 1.99851E+01 8.26369E-02-9.40454E-05-1.52392E-02-1.73609E-13-1.07280E-13
 -1      4104 1.99906E+01 6.99337E-02-2.07059E-04-1.15289E-02-6.45314E-14-1.48905E-13
 -1      4105 1.99798E+01 9.41955E-02 5.50471E-04-9.89313E-03-6.83158E-14 4.04861E-14
 -1      4106 1.99959E+01 5.88126E-02-6.07537E-05-9.87008E-03 1.31224E-14-2.99688E-13
 -1      4107 1.99994E+01 4.91026E-02-1.41415E-04-7.15491E-03-1.41297E-14-3.63759E-13
 -1      4108 1.99926E+01 6.75295E-02 3.70513E-04-6.44882E-03-1.47489E-13-1.25368E-13
 -1      4109 2.00027E+01 4.06719E-02-3.64527E-05-6.01304E-03-2.24693E-14-4.88418E-13
 -1      4110 2.00048E+01 3.33907E-02-9.29610E-05-4.06817E-03 8.74648E-14-5.91693E-13
 -1      4111 2.00008E+01 4.71209E-02 2.38506E-04-3.97705E-03-8.54956E-14-3.40588E-13
 -1      4112 2.00066E+01 2.71245E-02-1.92659E-05-3.30797E-03 2.08449E-13-6.24096E-13
 -1      4113 2.00077E+01 2.17758E-02-5.78944E-05-1.95007E-03 2.19797E-13-5.55546E-13
 -1      4114 2.00057E+01 3.17947E-02 1.43759E-04-2.24136E-03 5.84655E-14-4.90148E-13
 -1      4115 2.00086E+01 1.72178E-02-7.55869E-06-1.46682E-03 1.85004E-13-5.34920E-13
 -1      4116 2.00089E+01 1.33783E-02-3.31024E-05-5.48651E-04 4.81521E-14-4.03035E-13
 -1      4117 2.00082E+01 2.05172E-02 7.75000E-05-1.05559E-03 2.15445E-13-6.86133E-13
 -1      4118 2.00092E+01 1.01437E-02 3.75497E-08-2.62263E-04-3.95557E-14-3.60721E-13
 -1      4119 2.00091E+01 7.46104E-03-1.60719E-05 3.32642E-04 9.61046E-14-3.11912E-13
 -1      4120 2.00092E+01 1.24054E-02 3.26506E-05-2.74414E-04 1.92787E-13-7.56446E-13
 -1      4121 2.00089E+01 5.23241E-03 4.63246E-06 4.82651E-04 3.19507E-14-2.36559E-13
 -1      4122 2.00086E+01 3.41990E-03-4.80187E-06 8.44949E-04-5.96194E-14-1.94467E-13
 -1      4123 2.00092E+01 6.72388E-03 3.58569E-06 2.14465E-04 1.46034E-13-6.08044E-13
 -1      4124 2.00082E+01 1.94114E-03 7.10113E-06 9.03550E-04-1.70718E-13-1.55907E-13
 -1      4125 2.00077E+01 7.69688E-04 2.27777E-06 1.10266E-03-1.55726E-13-1.95993E-13
 -1      4126 2.00086E+01 2.87281E-03-1.40876E-05 4.96775E-04 9.50151E-15-2.94640E-13
 -1      4127 2.00072E+01-1.62103E-04 8.11654E-06 1.10271E-03-1.54613E-13-2.79463E-13
 -1      4128 2.00066E+01-8.72112E-04 6.38219E-06 1.19084E-03-1.40516E-13-3.19058E-13
 -1      4129 2.00077E+01 3.72684E-04-2.37365E-05 6.37069E-04-1.95831E-13-1.30902E-13
 -1      4130 2.00061E+01-1.41486E-03 8.18087E-06 1.15588E-03-1.26623E-13-3.61298E-13
 -1      4131 2.00055E+01-1.80187E-03 8.43705E-06 1.17148E-03 2.68954E-14-3.47395E-13
 -1      4132 2.00066E+01-1.15300E-03-2.78744E-05 6.83225E-04-1.95589E-13-1.45699E-13
 -1      4133 2.00050E+01-2.07663E-03 7.60006E-06 1.11795E-03 1.10551E-13-4.73615E-13
 -1      4134 2.00045E+01-2.24574E-03 8.84561E-06 1.08873E-03 9.78974E-14-2.75109E-13
 -1      4135 2.00055E+01-1.99473E-03-2.82654E-05 6.70293E-04-2.72861E-14-3.09192E-13
 -1      4136 2.00040E+01-2.34321E-03 6.26557E-06 1.02600E-03 2.04616E-13-3.06617E-13
 -1      4137 2.00036E+01-2.36732E-03 1.17480E-05 9.72893E-04 1.63874E-13-2.00566E-13
 -1      4138 2.00044E+01-2.37290E-03-2.57885E-05 6.23295E-04 1.60915E-13-3.38966E-13
 -1      4139 2.00032E+01-2.38449E-03-2.31955E-06 8.43956E-04 7.83692E-14-1.37299E-13
 -1      4140 2.00029E+01-2.34997E-03 5.85518E-06 6.82695E-04-9.35398E-14-3.96439E-14
 -1      4141 2.00030E+01-2.39483E-03-5.68977E-06 2.96215E-04 2.63232E-14-3.43116E-13
 -1      4142 2.00036E+01-2.45008E-03-1.10702E-05 4.75693E-04 2.22011E-13-3.27723E-13
 -1      4143 1.75676E+01 9.41645E-01 4.70384E-03-1.01796E+00 1.01416E-13-3.84477E-14
 -1      4144 1.77741E+01 9.64484E-01-1.15711E-02-8.62148E-01 1.11478E-13 4.80884E-14
 -1      4145 1.77473E+01 1.09494E+00 1.08939E-02-5.90435E-01 6.32113E-14-8.01771E-14
 -1      4146 2.00021E+01-2.17236E-03 1.41561E-06-1.02418E-03-2.13745E-13-3.46228E-13
 -1      4147 1.98277E+01 3.03614E-01-1.25951E-03 9.06143E-02-4.23696E-14-1.66927E-13
 -1      4148 1.97967E+01 3.42135E-01-3.14466E-04 1.06647E-01-3.44906E-14-1.24474E-13
 -1      4149 1.98344E+01 3.02360E-01 2.41447E-03 6.06855E-02-1.05638E-13-1.10834E-13
 -1      4150 1.97520E+01 3.82465E-01-1.59043E-03 1.18841E-01-6.06133E-15-1.82869E-13
 -1      4151 1.97104E+01 4.27195E-01-4.89611E-04 1.38249E-01 8.86142E-14-1.74617E-13
 -1      4152 1.97605E+01 3.82133E-01 3.20661E-03 7.92521E-02-4.93981E-14-9.64984E-14
 -1      4153 1.99254E+01 1.81616E-01-7.61490E-04 4.95753E-02-1.10433E-13-3.61988E-14
 -1      4154 1.99091E+01 2.08298E-01-1.01825E-04 5.99537E-02-4.39874E-14-6.14119E-14
 -1      4155 1.98894E+01 2.35160E-01 1.79297E-03 4.55119E-02-9.25080E-14-3.70822E-14
 -1      4156 1.99550E+01 1.36744E-01-5.78696E-04 3.53877E-02-1.49642E-13 1.37759E-13
 -1      4157 1.99436E+01 1.58298E-01-4.34794E-05 4.35129E-02-1.67660E-13 2.43048E-14
 -1      4158 1.99295E+01 1.79724E-01 1.30936E-03 3.33665E-02-1.40552E-13 6.33808E-15
 -1      4159 1.99757E+01 1.00977E-01-4.31992E-04 2.45265E-02-1.16973E-13 9.80660E-14
 -1      4160 1.99679E+01 1.18074E-01-6.20276E-06 3.07697E-02-6.51287E-14 1.17586E-13
 -1      4161 1.99581E+01 1.34863E-01 9.37151E-04 2.38433E-02-1.23810E-13 6.68143E-14
 -1      4162 1.99897E+01 7.29696E-02-3.16048E-04 1.63779E-02-1.34042E-13 1.07548E-13
 -1      4163 1.99846E+01 8.62925E-02 1.61040E-05 2.10827E-02-1.82289E-13 6.17423E-14
 -1      4164 1.99780E+01 9.92173E-02 6.54448E-04 1.65290E-02-1.49628E-13 1.16344E-14
 -1      4165 1.99987E+01 5.14245E-02-2.25914E-04 1.03961E-02-9.74714E-14 1.73506E-13
 -1      4166 1.99956E+01 6.16231E-02 2.80931E-05 1.38685E-02-1.36512E-13 1.19575E-13
 -1      4167 1.99914E+01 7.13912E-02 4.43014E-04 1.10297E-02-1.61061E-13-3.18693E-14
 -1      4168 2.00043E+01 3.51498E-02-1.57063E-04 6.11053E-03-2.56565E-14 2.85051E-13
 -1      4169 2.00025E+01 4.28137E-02 3.32152E-05 8.61499E-03-9.61642E-15 3.34121E-13
 -1      4170 2.00000E+01 5.00529E-02 2.87667E-04 6.98773E-03-1.57430E-13 3.11038E-13
 -1      4171 2.00073E+01 2.30927E-02-1.05448E-04 3.12652E-03-1.13345E-13 3.00278E-13
 -1      4172 2.00065E+01 2.87384E-02 3.39639E-05 4.88531E-03-3.59234E-14 2.59257E-13
 -1      4173 2.00052E+01 3.39887E-02 1.75862E-04 4.09053E-03-5.41021E-14 4.95088E-13
 -1      4174 2.00087E+01 1.43498E-02-6.75400E-05 1.12106E-03-1.50362E-13 2.22089E-13
 -1      4175 2.00085E+01 1.84172E-02 3.20958E-05 2.31661E-03-1.48133E-13 1.93115E-13
 -1      4176 2.00080E+01 2.21316E-02 9.73576E-05 2.07377E-03-3.20947E-14 3.26028E-13
 -1      4177 2.00089E+01 8.16486E-03-4.03383E-05-1.64538E-04-2.82240E-14 2.14073E-13
 -1      4178 2.00091E+01 1.10202E-02 2.88151E-05 6.14351E-04-8.90697E-14 1.97456E-13
 -1      4179 2.00091E+01 1.35702E-02 4.39034E-05 7.19789E-04-6.66782E-14 1.92991E-13
 -1      4180 2.00085E+01 3.91868E-03-2.13459E-05-9.33159E-04 1.90378E-13 9.20460E-14
 -1      4181 2.00089E+01 5.86012E-03 2.49213E-05-4.55553E-04 7.39259E-14 5.00952E-14
 -1      4182 2.00092E+01 7.54467E-03 8.95366E-06-1.46376E-04 6.40113E-14-3.59931E-15
 -1      4183 2.00076E+01 1.11352E-03-8.52729E-06-1.34075E-03 2.23330E-13 1.54841E-14
 -1      4184 2.00081E+01 2.37953E-03 2.09241E-05-1.07537E-03 2.25189E-13 1.20445E-14
 -1      4185 2.00086E+01 3.43439E-03-1.26051E-05-6.62263E-04 2.41396E-13-2.51127E-13
 -1      4186 2.00066E+01-6.43395E-04-2.50362E-07-1.50476E-03 1.13455E-13-6.65707E-14
 -1      4187 2.00072E+01 1.34475E-04 1.71321E-05-1.38423E-03 1.29812E-13 4.67414E-14
 -1      4188 2.00077E+01 7.42372E-04-2.46992E-05-9.33736E-04 1.95325E-13-1.33701E-13
 -1      4189 2.00055E+01-1.65688E-03 4.77970E-06-1.51171E-03-8.94045E-14 2.78355E-13
 -1      4190 2.00061E+01-1.22250E-03 1.37211E-05-1.48615E-03 6.08690E-14 1.25587E-13
 -1      4191 2.00066E+01-9.22473E-04-3.02797E-05-1.04060E-03 3.28123E-14 1.66576E-13
 -1      4192 2.00045E+01-2.15969E-03 7.52921E-06-1.42370E-03-1.50705E-13 3.08193E-14
 -1      4193 2.00050E+01-1.95891E-03 1.07779E-05-1.45719E-03-6.67779E-14 1.21539E-13
 -1      4194 2.00055E+01-1.86270E-03-3.14792E-05-1.04180E-03-2.07439E-15 3.26049E-13
 -1      4195 2.00036E+01-2.32576E-03 8.44259E-06-1.28342E-03-2.28841E-13-4.91308E-14
 -1      4196 2.00040E+01-2.27743E-03 8.31095E-06-1.35078E-03-1.87513E-13-6.78191E-14
 -1      4197 2.00045E+01-2.30856E-03-2.95174E-05-9.79836E-04-4.73759E-14 6.67070E-14
 -1      4198 2.00027E+01-2.29022E-03 6.37763E-06-1.11583E-03-1.16335E-13-3.08871E-13
 -1      4199 2.00031E+01-2.33062E-03 5.23310E-06-1.20299E-03-2.11392E-13-1.87117E-13
 -1      4200 2.00035E+01-2.42707E-03-2.15301E-05-8.86256E-04-1.13088E-13-2.45149E-13
 -1      4201 1.80723E+01 1.07721E+00-8.13821E-03 5.56854E-01-1.54991E-13-2.53861E-13
 -1      4202 1.78363E+01 1.09889E+00-3.03636E-03 6.41791E-01-2.07365E-13-2.46754E-13
 -1      4203 1.85175E+01 1.00540E+00-6.03439E-03 4.48836E-01-1.59582E-13-1.63387E-13
 -1      4204 1.83320E+01 1.04691E+00-2.10949E-03 5.10474E-01-1.35073E-13-2.05123E-13
 -1      4205 1.80991E+01 1.12409E+00 7.53675E-03 3.27170E-01-1.49764E-13-2.35521E-13
 -1      4206 1.91373E+01 7.99061E-01-3.94983E-03 2.99402E-01-2.06348E-13-2.49616E-13
 -1      4207 1.90210E+01 8.56053E-01-1.80812E-03 3.37478E-01-2.51171E-13-2.22649E-13
 -1      4208 1.91582E+01 8.13424E-01 8.58360E-03 1.91146E-01-1.32419E-13-4.42612E-13
 -1      4209 2.00022E+01-2.23662E-03-5.77099E-07-5.18932E-04-1.54770E-13-2.52314E-13
 -1      4210 2.00025E+01-2.26873E-03-8.93024E-07-8.88624E-04-1.30478E-13-2.47275E-13
 -1      4211 2.00029E+01-2.37519E-03-5.99840E-07-6.04361E-04-1.24113E-13-1.28285E-13
 -1      4212 2.00023E+01-2.26893E-03 1.48917E-06-1.85177E-04-2.65707E-13-2.20383E-13
 -1      4213 1.54013E+01 1.17841E+00-1.91548E-02 1.77698E-01-8.73173E-15 2.20891E-13
 -1      4214 1.51051E+01 1.22993E+00 4.10112E-02-5.06020E-01 6.27250E-14 4.23882E-13
 -1      4215 1.57231E+01 1.06062E+00 3.49861E-03-9.33192E-01 7.78761E-14 2.59928E-13
 -1      4216 1.95214E+01 5.75147E-01-2.49234E-03 1.93984E-01 5.53972E-14-2.90358E-13
 -1      4217 1.94500E+01 6.30381E-01-1.04660E-03 2.21216E-01 2.59731E-15-2.78178E-13
 -1      4218 1.93701E+01 6.93438E-01 7.02167E-03 1.57541E-01-5.56309E-14-3.72313E-13
 -1      4219 1.96519E+01 4.73360E-01-1.99302E-03 1.53086E-01 6.60282E-14-2.17592E-13
 -1      4220 1.95971E+01 5.23894E-01-7.28027E-04 1.76212E-01 3.77711E-14-2.53038E-13
 -1      4221 1.95350E+01 5.79135E-01 5.47433E-03 1.27589E-01 2.28279E-16-2.81241E-13
 -1      4222 1.96627E+01 4.74654E-01 4.21048E-03 1.01497E-01 3.44130E-14-1.75127E-13
 -1      4223 1.88638E+01 9.10014E-01-4.74596E-03 3.68226E-01-2.35310E-13-2.55195E-13
 -1      4224 1.87203E+01 9.62268E-01-8.39183E-04 4.16558E-01-1.89444E-13-2.87867E-13
 -1      4225 1.88832E+01 9.28672E-01 7.56635E-03 2.27360E-01-2.58547E-13-4.00515E-13
 -1      4226 1.71206E+01 1.06710E+00 1.28803E-02-8.78963E-01 1.09226E-13-7.44186E-15
 -1      4227 1.85459E+01 1.02889E+00 6.63921E-03 2.69122E-01-1.69870E-13-3.04367E-13
 -1      4228 2.00027E+01-2.34850E-03 1.90364E-06-7.59711E-05-1.32642E-13-1.96722E-13
 -1      4229 1.75377E+01 1.19252E+00 1.11736E-02 3.95723E-01-1.70592E-13-7.82815E-14
 -1      4230 1.75082E+01 1.10607E+00-1.18913E-02 6.96994E-01-2.21299E-13-2.18501E-13
 -1      4231 1.72172E+01 1.10531E+00-3.52977E-03 8.03438E-01-1.61361E-13-2.75244E-13
 -1      4232 1.64234E+01 1.03837E+00-5.57543E-03 1.08019E+00-9.95054E-14-2.23753E-13
 -1      4233 1.58608E+01 1.22463E+00 3.25900E-02 6.70448E-01-3.70755E-14-5.02517E-14
 -1      4234 1.60261E+01 1.20486E+00-1.03832E-02 1.58094E-01-8.67843E-14 1.88535E-13
 -1      4235 1.67980E+01 1.07752E+00-1.82272E-02 9.12599E-01-1.01598E-13-2.59102E-13
 -1      4236 1.74793E+01 1.14422E+00-2.69082E-03-3.58016E-01 2.36391E-14 9.23469E-16
 -1      4237 1.77615E+01 1.11970E+00-8.98022E-03-2.81576E-01-3.73989E-14-6.99717E-14
 -1      4238 1.84933E+01 1.01236E+00-2.92434E-03-1.72276E-01-3.76285E-14-2.11965E-13
 -1      4239 1.86672E+01 9.76435E-01-5.55910E-05-1.37130E-01-7.14580E-14-2.65807E-13
 -1      4240 1.88741E+01 8.97270E-01-4.96925E-03-2.09739E-02-1.34820E-13-4.09322E-13
 -1      4241 1.90167E+01 8.40707E-01-5.55303E-03-6.07591E-05-1.20891E-13-4.56648E-13
 -1      4242 1.91402E+01 7.80246E-01-5.89258E-03-9.26297E-03-7.47926E-14-4.24956E-13
 -1      4243 1.92549E+01 7.25734E-01-4.69513E-03 7.81108E-03-5.39677E-14-4.16588E-13
 -1      4244 1.93527E+01 6.66432E-01-4.87164E-03-1.42694E-03-6.77858E-14-3.64367E-13
 -1      4245 1.94438E+01 6.13280E-01-3.61196E-03 1.15744E-02-1.00015E-13-3.44313E-13
 -1      4246 1.95201E+01 5.57659E-01-3.84919E-03 2.78267E-03-8.91800E-14-2.29760E-13
 -1      4247 1.95917E+01 5.07964E-01-2.71730E-03 1.25644E-02-5.90628E-14-2.10270E-13
 -1      4248 1.96506E+01 4.57652E-01-3.00404E-03 4.57926E-03-2.16829E-14-1.27058E-13
 -1      4249 1.97061E+01 4.12872E-01-2.02265E-03 1.19482E-02 3.03073E-14-1.49548E-13
 -1      4250 1.97510E+01 3.68717E-01-2.32319E-03 4.94355E-03-3.14571E-14-1.01592E-13
 -1      4251 1.97934E+01 3.29585E-01-1.48917E-03 1.05098E-02-1.26922E-13-1.12803E-13
 -1      4252 1.98271E+01 2.91823E-01-1.77711E-03 4.54486E-03-1.38152E-13-9.46677E-14
 -1      4253 1.98591E+01 2.58506E-01-1.08149E-03 8.75386E-03-1.10093E-13-1.05377E-13
 -1      4254 1.98840E+01 2.26939E-01-1.34123E-03 3.80730E-03-1.93814E-13-8.70601E-14
 -1      4255 1.99076E+01 1.99213E-01-7.71966E-04 6.98536E-03-1.60690E-13 1.10303E-15
 -1      4256 1.99256E+01 1.73362E-01-9.96185E-04 2.98204E-03-8.22690E-14-1.64652E-14
 -1      4257 1.99426E+01 1.50758E-01-5.39134E-04 5.37187E-03-4.26589E-15 7.72579E-14
 -1      4258 1.99554E+01 1.29988E-01-7.26113E-04 2.20520E-03-5.80975E-14 9.21769E-14
 -1      4259 1.99674E+01 1.11910E-01-3.66105E-04 3.99024E-03-1.07228E-13 1.05047E-13
 -1      4260 1.99762E+01 9.55233E-02-5.17583E-04 1.54006E-03-1.31894E-13 2.74317E-14
 -1      4261 1.99845E+01 8.13272E-02-2.39429E-04 2.86089E-03-1.20774E-13-3.67503E-14
 -1      4262 1.99903E+01 6.86292E-02-3.59053E-04 1.00640E-03-1.99423E-13-2.46935E-14
 -1      4263 1.99957E+01 5.76818E-02-1.48359E-04 1.97189E-03-1.98462E-13-5.68476E-14
 -1      4264 1.99994E+01 4.80192E-02-2.40615E-04 5.99962E-04-1.80372E-13 4.76555E-14
 -1      4265 2.00027E+01 3.97319E-02-8.43272E-05 1.29493E-03-8.34836E-14-9.14837E-16
 -1      4266 2.00049E+01 3.25180E-02-1.53849E-04 3.04813E-04 8.41426E-15-3.22739E-14
 -1      4267 2.00068E+01 2.63661E-02-4.05484E-05 7.95467E-04 1.31980E-13-3.35994E-14
 -1      4268 2.00079E+01 2.10909E-02-9.17102E-05 1.00817E-04 7.49283E-14-1.36076E-13
 -1      4269 2.00088E+01 1.66213E-02-1.17007E-05 4.38793E-04 7.57607E-14-2.82319E-13
 -1      4270 2.00091E+01 1.28533E-02-4.83963E-05-3.21648E-05 1.27187E-13-3.74435E-13
 -1      4271 2.00094E+01 9.68514E-03 6.34148E-06 1.93209E-04 1.06002E-13-3.34819E-13
 -1      4272 2.00093E+01 7.06775E-03-1.92150E-05-1.12160E-04 2.00212E-13-4.77918E-13
 -1      4273 2.00092E+01 4.88777E-03 1.67338E-05 3.14968E-05 2.78008E-13-4.76292E-13
 -1      4274 2.00088E+01 3.13209E-03-4.35630E-07-1.54230E-04 2.04118E-13-4.93182E-13
 -1      4275 2.00084E+01 1.68795E-03 2.18538E-05-6.87136E-05 6.06557E-14-2.83134E-13
 -1      4276 2.00079E+01 5.64357E-04 1.08543E-05-1.70353E-04 3.08791E-15-1.46482E-13
 -1      4277 2.00074E+01-3.43613E-04 2.34601E-05-1.25180E-04-6.83245E-14-6.88844E-15
 -1      4278 2.00068E+01-1.01447E-03 1.68786E-05-1.69692E-04-1.00967E-13 8.42807E-14
 -1      4279 2.00063E+01-1.54147E-03 2.28073E-05-1.51573E-04-8.98811E-14 1.76917E-13
 -1      4280 2.00057E+01-1.89742E-03 1.92381E-05-1.59091E-04-1.78263E-13 2.75050E-13
 -1      4281 2.00051E+01-2.16216E-03 2.06104E-05-1.58129E-04 1.58407E-14 1.47784E-13
 -1      4282 2.00046E+01-2.30756E-03 1.87841E-05-1.43530E-04 8.88310E-14 8.69944E-14
 -1      4283 2.00041E+01-2.40284E-03 1.48811E-05-1.50163E-04 1.19451E-13-1.11901E-14
 -1      4284 2.00036E+01-2.42249E-03 7.67365E-06-1.33097E-04 3.14295E-14-1.71796E-13
 -1      4285 1.67041E+01 1.13064E+00-5.24202E-04-6.07557E-01 5.28210E-14 9.65066E-14
 -1      4286 1.70461E+01 1.14503E+00-1.37274E-02-4.36102E-01 8.79675E-14 1.11966E-13
 -1      4287 1.61960E+01 1.08836E+00-2.08513E-02-7.31989E-01 6.32244E-14 1.89172E-13
 -1      4288 1.80505E+01 1.09342E+00-3.18365E-03-2.48801E-01-4.59778E-15-1.39103E-13
 -1      4289 1.82742E+01 1.05566E+00-5.73625E-03-1.95471E-01 3.55720E-14-1.55586E-13
 -1      4290 1.83633E+01 1.07434E+00 5.90680E-03-5.01161E-03-3.33167E-14-2.65237E-13
 -1      4291 1.78778E+01 1.16313E+00 9.39837E-03-3.28997E-02-2.98486E-14-7.33376E-14
 -1      4292 1.63001E+01 1.25899E+00 2.37656E-02-2.46728E-01-5.26902E-14 2.87144E-13
 -1      4293 1.86253E+01 9.88312E-01-4.76095E-03 1.25122E-01-2.17903E-13-3.50547E-13
 -1      4294 1.84360E+01 1.04233E+00-3.89887E-03 1.42634E-01-8.44265E-14-2.73525E-13
 -1      4295 2.00033E+01-2.41799E-03-3.68961E-06 9.29632E-05 4.71881E-15-2.23246E-13
 -1      4296 1.71939E+01 1.22260E+00 1.22579E-02-1.03509E-01-2.78136E-14 1.08832E-13
 -1      4297 1.87197E+01 9.54878E-01-4.11402E-03-1.70408E-02-1.68672E-13-3.27502E-13
 -1      4298 1.76853E+01 1.16508E+00-4.86887E-03 1.64625E-01-9.17751E-14-3.81816E-14
 -1      4299 1.73628E+01 1.18851E+00-7.33584E-03 1.81745E-01-7.08251E-14 1.35534E-14
 -1      4300 1.82228E+01 1.08996E+00-3.26039E-03 1.45684E-01-2.59887E-14-2.22336E-13
 -1      4301 1.68310E+01 1.22544E+00 1.84123E-02 5.17354E-01-1.16903E-13-5.81523E-15
 -1      4302 1.79690E+01 1.12959E+00-4.34693E-03 1.64236E-01-8.57133E-14-1.60808E-13
 -1      4303 1.65159E+01 1.20583E+00-1.14275E-02 2.08796E-01-1.09147E-13 1.18031E-13
 -1      4304 1.69366E+01 1.20972E+00-7.71509E-03 1.50553E-01-8.88576E-14 1.17987E-13
 -1      4305 2.00030E+01-2.38375E-03 4.51187E-06 2.96499E-06 4.33686E-14-2.54459E-13
 -3
    1PSTEP                         3           1           1          
  100CL  101 1.000000000        4305                     0    1           1
 -4  TOSTRAIN    6    1
 -5  EXX         1    4    1    1
 -5  EYY         1    4    2    2
 -5  EZZ         1    4    3    3
 -5  EXY         1    4    1    2
 -5  EYZ         1    4    2    3
 -5  EZX         1    4    3    1
 -1         1 3.01793E-04-9.35653E-05-7.70371E-05 1.75607E-07-1.86506E-19-6.60196E-18
 -1         2 3.24934E-05-1.00406E-04 1.75370E-05-5.68808E-07 2.91001E-18 5.30640E-19
 -1         3 9.52372E-05-2.85710E-05-2.85714E-05 6.76962E-11-2.27758E-18-1.86735E-18
 -1         4 9.52372E-05-2.85710E-05-2.85714E-05-6.45638E-11 1.02393E-18 6.72698E-19
 -1         5 1.78889E-04-2.62205E-05-5.39413E-05 4.46848E-05-2.36163E-19 1.95053E-17
 -1         6 1.76020E-04 3.24957E-10-5.41536E-05-6.22122E-05-1.36457E-18 1.82629E-17
 -1         7 1.10815E-04-9.16279E-07-4.73573E-05-3.11927E-05-1.80206E-19 2.41934E-18
 -1         8 1.00478E-04-2.75507E-08-4.26438E-05-1.84633E-05-1.86983E-19-2.04172E-18
 -1         9 9.33453E-05-4.63338E-08-3.95269E-05-1.07226E-05-1.21073E-19-4.32750E-18
 -1        10 8.64775E-05-9.14967E-08-3.65212E-05-3.88512E-06-6.30510E-20-5.32442E-18
 -1        11 7.86116E-05-5.72792E-08-3.32475E-05 2.04470E-06-4.44692E-21-5.83033E-18
 -1        12 6.96850E-05 7.94536E-08-2.97300E-05 6.08709E-06 2.57286E-20-6.01396E-18
 -1        13 6.09230E-05 2.87037E-07-2.64316E-05 7.14032E-06 5.51101E-20-6.11374E-18
 -1        14 5.46192E-05 4.62539E-07-2.41381E-05 5.00553E-06 4.65074E-20-6.16542E-18
 -1        15 5.27539E-05 5.28166E-07-2.34865E-05 7.70200E-07 3.94664E-20-6.11263E-18
 -1        16 5.61663E-05 4.44683E-07-2.47498E-05-3.17515E-06 2.82697E-20-5.88035E-18
 -1        17 6.39115E-05 2.59098E-07-2.76383E-05-4.78889E-06 4.88103E-20-5.51555E-18
 -1        18 7.37357E-05 7.45107E-08-3.14219E-05-3.07113E-06 6.78685E-20-4.89732E-18
 -1        19 8.36748E-05-3.10921E-08-3.54279E-05 1.53330E-06 1.35949E-19-3.95919E-18
 -1        20 9.29763E-05-3.86534E-08-3.93586E-05 8.05357E-06 1.91218E-19-2.39594E-18
 -1        21 1.02369E-04 1.27851E-09-4.34000E-05 1.61755E-05 2.35158E-19 4.51419E-19
 -1        22 1.15497E-04-5.56525E-07-4.83679E-05 2.81859E-05 5.00808E-20 6.22282E-18
 -1        23 1.42669E-04-4.81227E-05-4.44078E-05-4.43694E-06-8.89146E-19 1.37351E-17
 -1        24 1.20350E-04-3.59406E-05-3.72071E-05 5.16167E-07-2.07172E-19 1.01136E-17
 -1        25 1.13903E-04-3.42907E-05-3.41574E-05 2.12245E-07-1.55598E-19 6.54830E-18
 -1        26 1.07239E-04-3.22625E-05-3.19808E-05-2.08720E-07-5.69142E-20 3.95728E-18
 -1        27 9.95163E-05-2.99216E-05-2.97759E-05-4.27556E-07 4.31205E-20 2.22177E-18
 -1        28 9.18637E-05-2.76054E-05-2.76752E-05-4.43133E-07-3.02467E-20 1.41141E-18
 -1        29 8.64602E-05-2.59698E-05-2.62197E-05-2.24288E-07-3.13336E-20 5.90700E-19
 -1        30 8.52338E-05-2.55939E-05-2.58924E-05 1.36494E-07-4.27189E-20-6.11055E-19
 -1        31 8.85925E-05-2.65982E-05-2.67945E-05 4.52321E-07-3.91703E-20-1.97650E-18
 -1        32 9.51014E-05-2.85461E-05-2.85688E-05 5.77302E-07-1.85722E-19-2.95075E-18
 -1        33 1.02356E-04-3.07120E-05-3.05965E-05 5.01514E-07 2.41926E-19-3.69015E-18
 -1        34 1.08262E-04-3.24703E-05-3.23036E-05 3.18773E-07 8.73850E-20-3.69848E-18
 -1        35 1.11780E-04-3.35151E-05-3.33691E-05 1.32544E-07-2.28302E-22-4.08052E-18
 -1        36 1.12891E-04-3.38451E-05-3.37505E-05-1.00308E-09-1.61413E-19-5.00782E-18
 -1        37 1.12164E-04-3.36298E-05-3.35850E-05-7.29128E-08 1.28122E-20-5.70694E-18
 -1        38 1.10316E-04-3.30817E-05-3.30713E-05-9.81197E-08-2.74209E-19-5.86817E-18
 -1        39 1.07963E-04-3.23829E-05-3.23907E-05-9.58636E-08-7.19736E-20-6.19064E-18
 -1        40 1.05535E-04-3.16605E-05-3.16751E-05-8.10378E-08-1.81814E-21-6.77878E-18
 -1        41 1.03286E-04-3.09898E-05-3.10049E-05-6.27183E-08 1.52438E-19-7.60086E-18
 -1        42 1.01337E-04-3.04077E-05-3.04204E-05-4.54840E-08-2.28526E-19-7.22615E-18
 -1        43 9.97267E-05-2.99256E-05-2.99352E-05-3.11446E-08-1.46057E-19-6.43355E-18
 -1        44 9.84429E-05-2.95404E-05-2.95471E-05-2.00521E-08-6.17749E-20-4.53979E-18
 -1        45 9.74494E-05-2.92419E-05-2.92462E-05-1.19045E-08-4.05863E-20-3.98369E-18
 -1        46 9.67011E-05-2.90165E-05-2.90191E-05-6.17582E-09-3.84156E-19-6.10486E-18
 -1        47 9.61521E-05-2.88509E-05-2.88521E-05-2.32054E-09 2.73439E-19-4.21659E-18
 -1        48 9.57604E-05-2.87324E-05-2.87328E-05 1.42571E-10-3.07854E-20-1.75698E-18
 -1        49 9.54896E-05-2.86503E-05-2.86502E-05 1.60585E-09-1.75781E-19-3.03808E-18
 -1        50 9.53096E-05-2.85955E-05-2.85951E-05 2.37431E-09-1.14178E-19-4.88095E-18
 -1        51 9.51961E-05-2.85609E-05-2.85603E-05 2.67732E-09-4.23235E-20-5.24382E-18
 -1        52 9.51303E-05-2.85406E-05-2.85400E-05 2.68269E-09 2.78678E-19-4.70948E-18
 -1        53 9.50973E-05-2.85303E-05-2.85297E-05 2.51013E-09-1.26495E-19-4.85285E-18
 -1        54 9.50865E-05-2.85267E-05-2.85262E-05 2.24267E-09 1.03543E-19-4.40297E-18
 -1        55 9.50896E-05-2.85274E-05-2.85269E-05 1.93607E-09 1.74382E-19-3.25527E-18
 -1        56 9.51009E-05-2.85307E-05-2.85302E-05 1.62617E-09-4.89344E-19-3.58574E-18
 -1        57 9.51166E-05-2.85352E-05-2.85349E-05 1.33463E-09-3.49624E-20-3.99364E-18
 -1        58 9.51338E-05-2.85403E-05-2.85400E-05 1.07321E-09 1.37334E-19-3.89663E-18
 -1        59 9.51509E-05-2.85453E-05-2.85451E-05 8.47033E-10 3.66444E-21-3.34410E-18
 -1        60 9.51668E-05-2.85501E-05-2.85499E-05 6.56928E-10 9.29123E-20-2.04149E-18
 -1        61 9.51810E-05-2.85543E-05-2.85542E-05 5.01099E-10 4.87249E-19-9.83756E-21
 -1        62 9.51933E-05-2.85580E-05-2.85579E-05 3.76307E-10-6.69117E-19 2.23045E-18
 -1        63 9.52038E-05-2.85611E-05-2.85610E-05 2.78655E-10 1.17343E-19 3.55946E-18
 -1        64 9.52124E-05-2.85637E-05-2.85636E-05 2.04066E-10-5.04323E-19 3.29686E-18
 -1        65 9.52195E-05-2.85658E-05-2.85658E-05 1.48518E-10-5.67489E-19 1.18708E-18
 -1        66 9.52252E-05-2.85675E-05-2.85675E-05 1.08023E-10 3.74495E-19 7.00135E-19
 -1        67 9.52296E-05-2.85689E-05-2.85688E-05 7.82919E-11-1.96417E-20-3.92889E-21
 -1        68 9.52330E-05-2.85699E-05-2.85699E-05 5.37657E-11 5.45583E-19 2.86559E-18
 -1        69 9.52355E-05-2.85706E-05-2.85706E-05 2.55005E-11 1.16031E-18 5.25629E-18
 -1        70 9.52369E-05-2.85711E-05-2.85710E-05-2.74751E-11-1.82308E-19 5.75524E-18
 -1        71 9.52374E-05-2.85712E-05-2.85712E-05-9.69936E-11-3.47335E-19 3.03909E-18
 -1        72 1.36561E-04-4.09693E-05-4.49761E-05-3.21211E-06 2.77589E-19 1.76692E-17
 -1        73 1.28335E-04-3.82416E-05-3.94941E-05-6.61610E-07 9.92931E-20 1.34301E-17
 -1        74 1.22716E-04-3.68356E-05-3.67330E-05-1.68086E-07 1.40179E-19 1.04079E-17
 -1        75 1.15520E-04-3.47679E-05-3.43655E-05 1.73544E-07 7.24395E-20 8.48167E-18
 -1        76 1.05935E-04-3.18945E-05-3.16278E-05 5.36639E-07 2.59771E-20 6.47991E-18
 -1        77 9.55741E-05-2.87243E-05-2.88315E-05 7.47829E-07-9.90350E-20 5.60045E-18
 -1        78 8.78563E-05-2.63081E-05-2.68194E-05 6.11992E-07-1.04915E-19 5.83550E-18
 -1        79 8.60282E-05-2.56892E-05-2.63527E-05 1.39031E-07 1.72896E-19 4.91918E-18
 -1        80 9.07857E-05-2.71265E-05-2.75825E-05-3.92442E-07-2.33934E-19 3.64248E-18
 -1        81 9.96666E-05-2.98576E-05-2.99254E-05-6.80359E-07 3.19569E-19 2.21592E-18
 -1        82 1.08835E-04-3.26719E-05-3.24340E-05-6.50145E-07 1.64410E-20 1.39909E-18
 -1        83 1.15397E-04-3.46680E-05-3.43255E-05-4.34153E-07-1.86397E-20 9.93662E-19
 -1        84 1.18377E-04-3.55576E-05-3.52673E-05-1.96340E-07 8.42177E-20 1.04372E-18
 -1        85 1.18270E-04-3.55093E-05-3.53283E-05-2.39043E-08 5.22584E-20-3.54315E-20
 -1        86 1.16156E-04-3.48598E-05-3.47784E-05 7.06232E-08 1.88862E-19-2.54805E-18
 -1        87 1.13067E-04-3.39238E-05-3.39086E-05 1.06886E-07-4.82447E-19-8.18035E-19
 -1        88 1.09746E-04-3.29235E-05-3.29428E-05 1.09247E-07 2.07096E-19-7.74466E-19
 -1        89 1.06629E-04-3.19873E-05-3.20199E-05 9.59409E-08-7.71746E-20-3.78104E-18
 -1        90 1.03921E-04-3.11752E-05-3.12093E-05 7.76595E-08-1.21501E-19-2.67504E-18
 -1        91 1.01683E-04-3.05047E-05-3.05351E-05 5.96953E-08 1.13788E-19-2.93158E-18
 -1        92 9.99001E-05-2.99703E-05-2.99953E-05 4.41981E-08-1.31490E-19-2.80659E-18
 -1        93 9.85182E-05-2.95562E-05-2.95757E-05 3.17151E-08 4.07119E-20-7.72400E-19
 -1        94 9.74727E-05-2.92427E-05-2.92576E-05 2.20771E-08-5.52507E-20-1.50006E-18
 -1        95 9.66993E-05-2.90107E-05-2.90217E-05 1.48560E-08-1.70267E-19-4.67721E-20
 -1        96 9.61401E-05-2.88429E-05-2.88509E-05 9.57758E-09 3.77549E-19-1.34871E-19
 -1        97 9.57459E-05-2.87246E-05-2.87302E-05 5.80827E-09-4.61953E-19-8.17442E-19
 -1        98 9.54762E-05-2.86436E-05-2.86475E-05 3.18363E-09-1.51374E-19-1.79810E-18
 -1        99 9.52987E-05-2.85902E-05-2.85928E-05 1.41031E-09-1.32770E-19-2.81424E-18
 -1       100 9.51880E-05-2.85569E-05-2.85585E-05 2.58540E-10 8.67770E-20-1.90158E-18
 -1       101 9.51245E-05-2.85378E-05-2.85387E-05-4.48259E-10-4.27048E-19-1.97528E-18
 -1       102 9.50936E-05-2.85284E-05-2.85289E-05-8.43640E-10 4.61927E-19-3.83455E-18
 -1       103 9.50841E-05-2.85255E-05-2.85257E-05-1.02712E-09-2.31420E-19-4.08238E-18
 -1       104 9.50882E-05-2.85267E-05-2.85267E-05-1.07171E-09 1.42302E-19-1.67921E-18
 -1       105 9.51003E-05-2.85302E-05-2.85301E-05-1.02998E-09-4.38389E-19-6.51904E-19
 -1       106 9.51163E-05-2.85350E-05-2.85348E-05-9.39004E-10-8.19690E-19 6.39360E-19
 -1       107 9.51338E-05-2.85402E-05-2.85400E-05-8.24238E-10 6.19320E-20-1.04187E-18
 -1       108 9.51510E-05-2.85454E-05-2.85451E-05-7.02556E-10 1.16428E-19-3.83393E-18
 -1       109 9.51670E-05-2.85501E-05-2.85499E-05-5.84621E-10 4.11464E-20-2.14976E-18
 -1       110 9.51813E-05-2.85544E-05-2.85542E-05-4.76703E-10 3.96729E-19-2.43911E-18
 -1       111 9.51936E-05-2.85581E-05-2.85579E-05-3.82051E-10-2.94528E-19-3.07657E-18
 -1       112 9.52040E-05-2.85612E-05-2.85611E-05-3.01911E-10-4.16510E-19-6.30391E-19
 -1       113 9.52126E-05-2.85638E-05-2.85637E-05-2.36265E-10 3.80735E-19-1.97596E-18
 -1       114 9.52196E-05-2.85659E-05-2.85658E-05-1.84329E-10-1.51427E-19-3.14087E-18
 -1       115 9.52253E-05-2.85676E-05-2.85675E-05-1.44805E-10-4.90468E-20-5.49005E-18
 -1       116 9.52297E-05-2.85689E-05-2.85689E-05-1.15705E-10-2.13895E-19-5.46586E-18
 -1       117 9.52331E-05-2.85699E-05-2.85699E-05-9.36957E-11-3.75726E-19-3.39121E-18
 -1       118 9.52355E-05-2.85707E-05-2.85706E-05-7.22320E-11 1.11652E-19-6.18121E-18
 -1       119 9.52370E-05-2.85711E-05-2.85710E-05-2.87236E-11 3.31241E-19-8.45794E-18
 -1       120 9.52374E-05-2.85712E-05-2.85712E-05 7.16528E-11 1.30156E-18-8.19952E-18
 -1       121 9.52371E-05-2.85710E-05-2.85712E-05 1.06548E-10-9.53022E-18-1.25415E-18
 -1       122 9.52372E-05-2.85714E-05-2.85710E-05-1.20738E-12-9.09781E-18 7.11960E-19
 -1       123 9.52376E-05-2.85728E-05-2.85706E-05-6.80312E-11-2.13370E-18 1.05701E-18
 -1       124 9.52383E-05-2.85748E-05-2.85700E-05-9.71158E-11 2.81903E-18 1.15528E-18
 -1       125 9.52389E-05-2.85771E-05-2.85694E-05-9.87250E-11 1.07204E-17-9.42564E-20
 -1       126 9.52395E-05-2.85791E-05-2.85688E-05-8.33544E-11 4.76762E-18-4.68945E-19
 -1       127 9.52400E-05-2.85807E-05-2.85683E-05-5.47777E-11 1.98897E-18 2.70446E-18
 -1       128 9.52402E-05-2.85815E-05-2.85681E-05-1.88430E-11 3.91417E-18-1.45207E-18
 -1       129 9.52402E-05-2.85815E-05-2.85681E-05 1.94677E-11 3.15947E-18 7.51330E-19
 -1       130 9.52400E-05-2.85806E-05-2.85683E-05 5.52387E-11 1.06561E-18-1.95125E-18
 -1       131 9.52395E-05-2.85791E-05-2.85688E-05 8.43987E-11-5.03490E-18-4.05846E-19
 -1       132 9.52389E-05-2.85770E-05-2.85694E-05 9.89553E-11-5.38495E-18 2.31734E-18
 -1       133 9.52382E-05-2.85748E-05-2.85700E-05 9.64707E-11-2.01748E-18-9.89104E-19
 -1       134 9.52376E-05-2.85728E-05-2.85706E-05 7.48347E-11-1.05732E-18 6.93648E-19
 -1       135 9.52372E-05-2.85714E-05-2.85710E-05 1.91016E-12-3.28674E-18-7.11472E-19
 -1       136 9.52371E-05-2.85710E-05-2.85712E-05-1.77607E-10-4.05916E-18 5.70574E-20
 -1       137 2.32517E-05-7.86833E-05 1.31446E-05-2.00519E-05 1.26767E-17 3.56937E-18
 -1       138 6.91254E-06-2.65564E-05 6.33556E-07-1.36494E-05 1.97757E-17 9.42176E-18
 -1       139 1.37338E-05 1.86534E-05-1.73112E-05 2.88423E-05 1.94059E-17 1.48582E-17
 -1       140 6.17913E-05 2.76554E-05-3.68237E-05 8.17686E-05 1.50619E-17 1.73163E-17
 -1       141 1.48892E-04-3.65930E-06-5.57121E-05 1.13785E-04 8.36741E-18 1.42136E-17
 -1       142 2.44798E-04-5.58709E-05-7.03463E-05 9.76471E-05 2.13802E-18 5.95591E-18
 -1       143 3.03060E-04-9.26700E-05-7.75191E-05 3.00056E-05-2.17555E-19-4.84715E-18
 -1       144 2.87386E-04-8.41198E-05-7.53041E-05-5.19919E-05 2.88103E-18-1.71615E-17
 -1       145 2.09095E-04-3.90524E-05-6.44738E-05-1.01859E-04 9.88212E-18-2.57545E-17
 -1       146 1.09067E-04 9.00868E-06-4.72488E-05-9.88596E-05 1.79810E-17-2.76700E-17
 -1       147 3.65906E-05 2.55656E-05-2.83010E-05-5.67756E-05 2.32705E-17-2.33214E-17
 -1       148 4.97421E-06 2.79412E-06-9.26939E-06-6.01456E-06 2.32972E-17-1.50802E-17
 -1       149 9.96135E-06-3.87736E-05 3.93360E-06 1.83238E-05 1.76926E-17-6.88246E-18
 -1       150 2.34429E-05-7.36808E-05 1.19239E-05 1.30622E-05 6.91539E-18-1.33638E-18
 -1       151 2.56993E-05-7.80326E-05 1.28310E-05-6.47127E-06-5.89328E-18-7.42424E-19
 -1       152 1.43168E-05-5.01917E-05 6.79507E-06-1.82294E-05-1.66171E-17-5.02661E-18
 -1       153 4.21027E-06-8.27492E-06-4.78511E-06-3.68817E-06-2.31096E-17-1.22644E-17
 -1       154 1.71897E-05 2.33597E-05-2.06371E-05 3.63079E-05-2.47312E-17-2.04846E-17
 -1       155 6.96783E-05 2.36300E-05-3.88851E-05 8.42287E-05-2.09920E-17-2.59988E-17
 -1       156 1.66621E-04-1.66978E-05-5.78433E-05 1.07313E-04-1.23068E-17-2.56698E-17
 -1       157 2.61941E-04-6.96814E-05-7.18417E-05 7.40941E-05-4.52819E-18-1.82923E-17
 -1       158 2.67977E-04-7.09833E-05-7.32113E-05-7.84855E-05-1.70468E-18 5.85003E-18
 -1       159 1.73007E-04-1.61804E-05-5.96318E-05-1.13969E-04-8.36487E-18 1.69119E-17
 -1       160 7.65782E-05 2.51425E-05-4.09282E-05-9.19713E-05-1.46482E-17 1.84424E-17
 -1       161 1.72152E-05 2.38296E-05-2.00881E-05-3.70359E-05-1.79071E-17 1.45364E-17
 -1       162 6.02520E-06-2.03121E-05-1.10154E-06 9.86507E-06-1.82290E-17 8.46821E-18
 -1       163 2.20907E-05-7.57457E-05 1.25391E-05 2.11266E-05-8.55673E-18 2.62623E-18
 -1       164 1.15670E-04-1.71943E-05-4.24575E-05-2.32912E-05-2.57853E-18 3.50222E-19
 -1       165 1.05624E-04-1.33594E-05-3.97524E-05-1.61002E-05-2.00621E-18-2.36825E-18
 -1       166 9.80443E-05-1.17576E-05-3.71208E-05-9.32857E-06-1.22093E-18-3.78293E-18
 -1       167 8.97980E-05-1.02176E-05-3.42037E-05-2.75195E-06-3.80953E-19-4.49146E-18
 -1       168 7.93097E-05-7.30119E-06-3.09346E-05 2.93508E-06 2.31214E-19-4.95866E-18
 -1       169 6.69595E-05-2.74069E-06-2.75848E-05 6.35429E-06 6.00877E-19-5.18851E-18
 -1       170 5.55622E-05 2.21848E-06-2.48185E-05 6.36634E-06 8.10346E-19-5.42553E-18
 -1       171 4.88031E-05 5.45281E-06-2.33065E-05 3.13365E-06 6.84836E-19-5.53474E-18
 -1       172 4.98517E-05 5.09125E-06-2.36010E-05-1.21755E-06 4.39508E-19-5.46613E-18
 -1       173 5.84518E-05 1.31810E-06-2.56760E-05-3.95500E-06 3.45986E-19-5.04426E-18
 -1       174 7.12944E-05-3.86063E-06-2.89735E-05-3.22169E-06 5.29581E-19-4.37538E-18
 -1       175 8.45310E-05-8.33288E-06-3.27530E-05 8.34200E-07 1.02811E-18-3.51029E-18
 -1       176 9.62111E-05-1.13964E-05-3.64913E-05 6.95704E-06 1.64841E-18-2.29325E-18
 -1       177 1.07032E-04-1.41117E-05-4.00284E-05 1.39585E-05 2.21220E-18-4.07582E-19
 -1       178 1.20605E-04-1.99960E-05-4.33685E-05 2.09018E-05 2.36424E-18 3.09765E-18
 -1       179 1.36707E-04-3.54698E-05-4.47814E-05 1.83766E-05 1.97240E-18 7.77068E-18
 -1       180 1.28096E-04-3.49218E-05-3.99499E-05-1.34512E-05-2.31285E-18 4.09358E-18
 -1       181 1.20261E-04-3.59913E-05-3.61655E-05-7.56970E-06-1.93838E-18 3.06448E-18
 -1       182 1.13947E-04-3.45017E-05-3.40012E-05-7.02727E-06-1.52180E-18 2.29031E-18
 -1       183 1.08434E-04-3.27687E-05-3.23872E-05-7.66948E-06-1.09135E-18 1.43635E-18
 -1       184 1.03043E-04-3.06415E-05-3.10022E-05-7.42502E-06-7.30687E-19 5.03591E-19
 -1       185 9.85359E-05-2.86429E-05-2.99365E-05-5.24202E-06-6.53023E-19-2.56601E-19
 -1       186 9.61030E-05-2.75341E-05-2.93747E-05-1.29765E-06-7.61727E-19-8.49055E-19
 -1       187 9.64624E-05-2.78048E-05-2.94142E-05 3.00204E-06-9.06994E-19-1.42899E-18
 -1       188 9.92149E-05-2.92348E-05-2.99813E-05 5.93164E-06-8.21106E-19-2.04346E-18
 -1       189 1.03052E-04-3.10616E-05-3.08468E-05 6.59963E-06-4.34473E-19-2.27192E-18
 -1       190 1.06557E-04-3.25449E-05-3.17204E-05 5.32337E-06-2.84570E-19-3.57582E-18
 -1       191 1.08847E-04-3.33434E-05-3.23666E-05 3.09481E-06-2.05611E-19-3.89378E-18
 -1       192 1.09696E-04-3.34885E-05-3.26720E-05 8.56205E-07-1.41532E-19-3.75195E-18
 -1       193 1.09316E-04-3.31806E-05-3.26413E-05-8.58626E-07-2.70981E-19-2.92527E-18
 -1       194 1.08096E-04-3.26289E-05-3.23523E-05-1.91046E-06-1.21079E-19-2.84145E-18
 -1       195 1.06421E-04-3.19877E-05-3.19053E-05-2.38865E-06-4.39569E-19-2.73837E-18
 -1       196 1.04591E-04-3.13518E-05-3.13904E-05-2.46107E-06-3.82576E-19-3.34544E-18
 -1       197 1.02812E-04-3.07720E-05-3.08737E-05-2.28905E-06-7.81127E-21-3.34402E-18
 -1       198 1.01201E-04-3.02706E-05-3.03965E-05-1.99551E-06-1.34108E-19-3.35300E-18
 -1       199 9.98128E-05-2.98529E-05-2.99799E-05-1.66186E-06 5.56939E-19-3.01909E-18
 -1       200 9.86615E-05-2.95151E-05-2.96310E-05-1.33622E-06 9.21438E-19-2.10592E-18
 -1       201 9.77349E-05-2.92487E-05-2.93483E-05-1.04353E-06-1.47920E-19-1.85212E-18
 -1       202 9.70085E-05-2.90433E-05-2.91253E-05-7.93961E-07-4.81069E-19-2.21531E-18
 -1       203 9.64526E-05-2.88883E-05-2.89538E-05-5.89087E-07 8.27627E-19-8.85935E-19
 -1       204 9.60369E-05-2.87741E-05-2.88250E-05-4.25848E-07 6.22778E-19-1.35822E-18
 -1       205 9.57336E-05-2.86920E-05-2.87306E-05-2.99057E-07-7.62400E-19-2.14887E-18
 -1       206 9.55181E-05-2.86346E-05-2.86632E-05-2.02859E-07-1.27859E-18-3.00401E-18
 -1       207 9.53697E-05-2.85958E-05-2.86165E-05-1.31541E-07-3.00711E-21-3.29682E-18
 -1       208 9.52715E-05-2.85708E-05-2.85853E-05-7.99411E-08 4.60299E-19-2.52722E-18
 -1       209 9.52099E-05-2.85557E-05-2.85656E-05-4.36161E-08-3.26741E-19-2.58564E-18
 -1       210 9.51745E-05-2.85476E-05-2.85540E-05-1.88703E-08 7.54513E-19-1.22265E-18
 -1       211 9.51571E-05-2.85442E-05-2.85482E-05-2.71263E-09 3.62159E-19-8.01078E-19
 -1       212 9.51518E-05-2.85439E-05-2.85461E-05 7.22169E-09-2.02319E-19-1.87445E-18
 -1       213 9.51541E-05-2.85455E-05-2.85465E-05 1.27638E-08-5.66426E-19-1.87741E-18
 -1       214 9.51608E-05-2.85481E-05-2.85483E-05 1.53029E-08-7.82379E-19-4.13992E-18
 -1       215 9.51698E-05-2.85511E-05-2.85508E-05 1.58710E-08 2.32634E-19-4.45893E-18
 -1       216 9.51796E-05-2.85543E-05-2.85537E-05 1.52180E-08 1.03946E-18-3.76006E-18
 -1       217 9.51893E-05-2.85573E-05-2.85566E-05 1.38750E-08 1.18153E-18-1.97121E-18
 -1       218 9.51983E-05-2.85600E-05-2.85593E-05 1.22063E-08 1.47686E-18-1.41800E-18
 -1       219 9.52064E-05-2.85624E-05-2.85617E-05 1.04516E-08 7.38244E-19-2.84665E-19
 -1       220 9.52133E-05-2.85645E-05-2.85638E-05 8.75874E-09-5.28348E-19 3.57239E-20
 -1       221 9.52192E-05-2.85662E-05-2.85656E-05 7.20867E-09-4.22225E-19 4.63672E-19
 -1       222 9.52241E-05-2.85676E-05-2.85671E-05 5.83352E-09 6.88451E-19 1.98162E-18
 -1       223 9.52281E-05-2.85687E-05-2.85683E-05 4.62907E-09 3.16764E-19 2.50280E-18
 -1       224 9.52313E-05-2.85696E-05-2.85693E-05 3.56300E-09 1.73988E-18 3.65564E-18
 -1       225 9.52337E-05-2.85704E-05-2.85700E-05 2.58073E-09 2.10056E-19 2.52057E-18
 -1       226 9.52354E-05-2.85709E-05-2.85705E-05 1.62006E-09-6.95154E-19 1.79850E-19
 -1       227 9.52366E-05-2.85713E-05-2.85709E-05 6.59586E-10-6.94703E-19 6.53841E-19
 -1       228 1.30173E-04-3.83312E-05-3.95459E-05 7.50168E-06 1.87857E-18 6.92324E-18
 -1       229 1.23513E-04-3.72891E-05-3.68970E-05 5.57455E-06 1.42737E-18 5.80141E-18
 -1       230 1.17703E-04-3.58471E-05-3.50073E-05 6.82986E-06 1.10516E-18 4.94670E-18
 -1       231 1.11235E-04-3.36752E-05-3.31980E-05 8.32898E-06 1.11222E-18 4.07941E-18
 -1       232 1.04511E-04-3.09878E-05-3.15125E-05 8.05602E-06 4.85022E-19 2.99511E-18
 -1       233 9.92754E-05-2.86697E-05-3.03019E-05 4.91849E-06 2.43992E-19 2.04894E-18
 -1       234 9.74958E-05-2.78604E-05-2.98944E-05-2.86644E-07 6.30682E-19 1.41523E-18
 -1       235 9.97442E-05-2.89639E-05-3.03582E-05-5.10194E-06 7.56543E-19 7.59861E-19
 -1       236 1.04590E-04-3.12131E-05-3.14357E-05-7.32132E-06 1.02409E-18-1.32230E-19
 -1       237 1.09683E-04-3.33800E-05-3.26728E-05-6.57390E-06 2.33083E-19-6.82067E-19
 -1       238 1.13245E-04-3.46874E-05-3.36446E-05-4.05676E-06 9.09866E-20-5.42224E-19
 -1       239 1.14665E-04-3.50319E-05-3.41206E-05-1.25451E-06 5.13150E-20-8.14250E-19
 -1       240 1.14209E-04-3.46822E-05-3.40862E-05 9.24315E-07 4.84643E-19-1.23142E-18
 -1       241 1.12489E-04-3.39566E-05-3.36648E-05 2.22862E-06 6.76417E-19-1.14307E-18
 -1       242 1.10120E-04-3.30936E-05-3.30191E-05 2.78178E-06-6.32701E-19-1.68998E-18
 -1       243 1.07570E-04-3.22380E-05-3.22902E-05 2.82628E-06 4.85109E-19-2.54697E-18
 -1       244 1.05133E-04-3.14631E-05-3.15749E-05 2.58545E-06 7.86365E-19-1.90579E-18
 -1       245 1.02965E-04-3.07986E-05-3.09286E-05 2.21833E-06-3.50766E-19-1.54074E-18
 -1       246 1.01129E-04-3.02496E-05-3.03755E-05 1.82220E-06-5.45022E-19-1.02127E-18
 -1       247 9.96269E-05-2.98088E-05-2.99202E-05 1.44924E-06-1.27000E-18-1.63929E-20
 -1       248 9.84327E-05-2.94629E-05-2.95564E-05 1.12301E-06-7.92195E-19 1.03260E-19
 -1       249 9.75050E-05-2.91971E-05-2.92728E-05 8.50579E-07 3.00598E-19 5.02323E-19
 -1       250 9.67998E-05-2.89969E-05-2.90566E-05 6.30380E-07-3.83102E-19 4.73995E-21
 -1       251 9.62746E-05-2.88491E-05-2.88951E-05 4.56831E-07 1.53693E-19-4.86913E-19
 -1       252 9.58919E-05-2.87423E-05-2.87771E-05 3.22944E-07 9.39332E-20 4.43363E-19
 -1       253 9.56196E-05-2.86671E-05-2.86929E-05 2.21674E-07 4.34104E-19 4.79015E-19
 -1       254 9.54311E-05-2.86156E-05-2.86344E-05 1.46562E-07 8.75185E-20 5.36086E-19
 -1       255 9.53053E-05-2.85818E-05-2.85951E-05 9.20002E-08-3.56312E-19 1.02678E-19
 -1       256 9.52252E-05-2.85608E-05-2.85700E-05 5.32862E-08 5.55554E-19-5.52899E-19
 -1       257 9.51777E-05-2.85488E-05-2.85549E-05 2.65758E-08 1.12544E-18-8.87134E-19
 -1       258 9.51530E-05-2.85430E-05-2.85469E-05 8.79142E-09-6.81963E-19-9.80082E-19
 -1       259 9.51434E-05-2.85413E-05-2.85436E-05-2.48707E-09-1.02792E-18-5.33489E-20
 -1       260 9.51437E-05-2.85422E-05-2.85434E-05-9.13025E-09-2.65521E-19 1.33963E-18
 -1       261 9.51499E-05-2.85446E-05-2.85451E-05-1.25597E-08-3.76971E-19-6.17754E-19
 -1       262 9.51593E-05-2.85478E-05-2.85477E-05-1.38366E-08 1.29248E-18-2.01642E-18
 -1       263 9.51700E-05-2.85512E-05-2.85509E-05-1.37380E-08 7.46312E-19-2.59200E-18
 -1       264 9.51808E-05-2.85545E-05-2.85541E-05-1.28201E-08-1.21419E-18-2.77742E-18
 -1       265 9.51910E-05-2.85577E-05-2.85571E-05-1.14707E-08 1.67971E-19-9.28729E-19
 -1       266 9.52003E-05-2.85604E-05-2.85599E-05-9.95084E-09-6.54264E-19 1.05233E-18
 -1       267 9.52083E-05-2.85628E-05-2.85624E-05-8.42785E-09-5.14105E-19 1.01123E-18
 -1       268 9.52152E-05-2.85649E-05-2.85644E-05-7.00043E-09 8.43800E-19-7.02006E-19
 -1       269 9.52210E-05-2.85666E-05-2.85662E-05-5.71759E-09 6.12159E-19 1.26464E-19
 -1       270 9.52257E-05-2.85679E-05-2.85676E-05-4.59183E-09 1.90700E-18-1.83939E-18
 -1       271 9.52295E-05-2.85690E-05-2.85688E-05-3.60781E-09-7.91073E-19-2.79636E-18
 -1       272 9.52324E-05-2.85699E-05-2.85696E-05-2.72768E-09-1.29201E-18-1.65961E-18
 -1       273 9.52346E-05-2.85706E-05-2.85703E-05-1.89864E-09 1.31311E-18-2.19861E-18
 -1       274 9.52360E-05-2.85710E-05-2.85707E-05-1.06228E-09 1.49093E-18-4.36948E-18
 -1       275 9.52369E-05-2.85712E-05-2.85710E-05-2.52827E-10-1.34623E-18-5.26121E-18
 -1       276 9.52370E-05-2.85717E-05-2.85709E-05-7.09059E-10-2.28158E-18 1.54375E-18
 -1       277 9.52374E-05-2.85728E-05-2.85706E-05-1.54014E-09-1.61704E-18 3.94052E-18
 -1       278 9.52380E-05-2.85742E-05-2.85702E-05-2.11008E-09 3.73472E-19 4.01996E-18
 -1       279 9.52386E-05-2.85759E-05-2.85697E-05-2.29012E-09 1.30786E-18 4.76966E-18
 -1       280 9.52391E-05-2.85775E-05-2.85693E-05-2.09819E-09 4.47318E-19-3.25899E-18
 -1       281 9.52396E-05-2.85788E-05-2.85689E-05-1.58739E-09 9.81595E-19-1.78970E-18
 -1       282 9.52399E-05-2.85797E-05-2.85687E-05-8.48781E-10 5.43505E-19 8.38934E-19
 -1       283 9.52400E-05-2.85800E-05-2.85686E-05 7.37255E-12 1.21253E-18-1.69626E-18
 -1       284 9.52399E-05-2.85797E-05-2.85687E-05 8.62422E-10-7.27439E-20-1.25544E-18
 -1       285 9.52396E-05-2.85788E-05-2.85689E-05 1.59818E-09 9.03296E-19-2.77874E-18
 -1       286 9.52391E-05-2.85775E-05-2.85693E-05 2.09873E-09-1.07341E-18-1.81013E-18
 -1       287 9.52386E-05-2.85759E-05-2.85697E-05 2.29036E-09-2.10252E-18 1.69301E-18
 -1       288 9.52379E-05-2.85742E-05-2.85702E-05 2.10172E-09-1.79750E-18 1.32500E-18
 -1       289 9.52374E-05-2.85728E-05-2.85706E-05 1.52533E-09-2.20387E-18-5.70515E-19
 -1       290 9.52369E-05-2.85719E-05-2.85707E-05 1.21967E-09-1.26513E-18-1.26893E-18
 -1       291 1.07300E-05-3.38844E-05 7.81936E-06 1.02757E-05 2.24511E-18 5.37771E-18
 -1       292 2.65072E-05-3.70776E-05 1.99242E-06 2.37793E-05 5.02820E-18 5.75839E-18
 -1       293 5.53831E-05-3.30428E-05-1.11809E-05 3.74573E-05 6.39679E-18 5.23498E-18
 -1       294 9.36105E-05-3.03208E-05-2.74185E-05 4.59210E-05 6.42030E-18 4.97018E-18
 -1       295 1.35176E-04-2.99752E-05-4.40009E-05 4.66024E-05 6.45693E-18 3.37013E-18
 -1       296 1.73953E-04-3.17640E-05-5.85456E-05 3.81078E-05 5.65551E-18 6.92661E-19
 -1       297 2.03923E-04-3.55031E-05-6.85386E-05 2.30762E-05 4.80395E-18-2.52098E-18
 -1       298 2.11119E-04-3.72140E-05-7.07228E-05-5.99898E-07 5.65363E-18-6.29165E-18
 -1       299 1.92193E-04-3.47938E-05-6.46381E-05-2.09526E-05 7.49105E-18-9.04928E-18
 -1       300 1.59121E-04-3.27200E-05-5.25768E-05-3.67332E-05 8.55191E-18-1.11959E-17
 -1       301 1.15994E-04-2.94048E-05-3.69511E-05-4.32731E-05 9.42197E-18-1.16649E-17
 -1       302 7.32488E-05-2.76258E-05-2.06000E-05-3.99308E-05 8.77632E-18-1.00939E-17
 -1       303 3.46410E-05-2.50049E-05-6.32258E-06-2.74059E-05 8.21177E-18-9.16188E-18
 -1       304 1.45088E-05-2.82841E-05 3.13182E-06-1.34854E-05 4.88664E-18-7.20285E-18
 -1       305 6.04131E-06-2.62080E-05 6.23055E-06-1.10421E-06 3.29125E-19-6.61289E-18
 -1       306 1.10380E-05-2.86136E-05 4.76678E-06 1.11663E-05-4.23252E-18-6.50225E-18
 -1       307 2.61753E-05-2.45848E-05-3.02901E-06 2.40222E-05-7.87444E-18-8.15818E-18
 -1       308 5.33339E-05-2.18517E-05-1.50468E-05 3.67127E-05-9.99287E-18-1.02796E-17
 -1       309 9.20014E-05-2.30310E-05-2.99574E-05 4.55102E-05-1.05060E-17-1.16361E-17
 -1       310 1.38220E-04-2.75718E-05-4.63114E-05 4.55312E-05-9.87873E-18-1.20605E-17
 -1       311 1.77861E-04-3.24572E-05-6.01367E-05 2.67639E-05-8.03263E-18-9.14160E-18
 -1       312 2.01400E-04-3.40647E-05-6.85529E-05 8.10561E-06-6.76229E-18-6.74376E-18
 -1       313 2.06349E-04-3.55925E-05-6.95898E-05-1.48689E-05-5.70159E-18-2.68922E-18
 -1       314 1.79659E-04-3.11495E-05-6.12330E-05-3.06564E-05-6.29960E-18 8.02140E-19
 -1       315 1.42542E-04-2.76201E-05-4.76849E-05-4.88590E-05-6.25174E-18 5.71747E-18
 -1       316 9.97758E-05-2.89032E-05-3.03666E-05-4.71689E-05-5.86655E-18 6.09292E-18
 -1       317 5.66702E-05-3.01421E-05-1.28794E-05-3.81408E-05-6.37435E-18 5.57358E-18
 -1       318 2.88849E-05-3.61636E-05 8.22706E-07-2.67216E-05-3.21110E-18 6.36826E-18
 -1       319 1.14019E-05-3.83422E-05 8.78960E-06-9.67460E-06-4.48875E-19 5.63510E-18
 -1       320 1.08657E-04-2.32096E-05-3.67245E-05-1.29175E-05-1.82572E-18-1.77522E-18
 -1       321 1.16182E-04-2.70066E-05-3.83314E-05-1.65059E-05-2.48443E-18-3.48342E-19
 -1       322 9.16162E-05-1.79590E-05-3.16293E-05 7.89645E-07 8.87250E-20-3.49952E-18
 -1       323 7.79512E-05-1.19279E-05-2.83254E-05 7.43156E-06 8.06708E-19-3.99103E-18
 -1       324 6.21240E-05-3.54832E-06-2.50879E-05 1.04039E-05 1.23203E-18-4.47975E-18
 -1       325 4.85661E-05 4.34971E-06-2.26229E-05 7.73896E-06 1.14062E-18-5.01715E-18
 -1       326 4.41110E-05 7.09390E-06-2.18812E-05 7.77721E-07 7.90009E-19-5.22543E-18
 -1       327 5.12274E-05 3.01738E-06-2.31969E-05-5.83659E-06 2.77992E-19-4.89497E-18
 -1       328 6.65340E-05-5.52317E-06-2.61428E-05-7.44548E-06 1.00699E-19-3.95778E-18
 -1       329 8.34455E-05-1.40028E-05-2.98044E-05-3.53016E-06 5.11155E-19-2.79532E-18
 -1       330 9.77616E-05-2.00135E-05-3.34044E-05 3.33861E-06 1.30499E-18-1.73362E-18
 -1       331 1.09168E-04-2.41465E-05-3.65605E-05 1.01324E-05 1.99703E-18-4.38240E-19
 -1       332 1.19308E-04-2.87267E-05-3.89859E-05 1.41449E-05 2.45606E-18 1.70881E-18
 -1       333 1.25989E-04-3.40010E-05-3.95530E-05 1.23317E-05 2.36942E-18 3.89666E-18
 -1       334 1.23471E-04-3.71987E-05-3.69672E-05 9.57863E-06 1.78999E-18 3.48264E-18
 -1       335 1.17783E-04-3.50677E-05-3.54224E-05-1.24044E-05-1.97573E-18 4.71103E-19
 -1       336 1.14806E-04-3.51850E-05-3.41082E-05-1.23845E-05-1.69483E-18 4.91244E-19
 -1       337 1.11069E-04-3.31205E-05-3.33907E-05-1.26980E-05-1.55878E-18 2.67354E-19
 -1       338 1.06846E-04-2.97332E-05-3.30344E-05-1.08704E-05-1.30228E-18-1.98948E-19
 -1       339 1.03381E-04-2.66989E-05-3.28517E-05-5.86220E-06-1.18263E-18-9.68457E-19
 -1       340 1.02202E-04-2.59437E-05-3.26716E-05 1.07439E-06-1.30855E-18-1.62758E-18
 -1       341 1.03634E-04-2.79431E-05-3.24287E-05 7.02734E-06-9.82123E-19-2.02088E-18
 -1       342 1.06405E-04-3.13100E-05-3.21785E-05 9.64921E-06-9.04581E-19-2.40996E-18
 -1       343 1.08769E-04-3.41133E-05-3.19999E-05 8.70876E-06-1.09992E-18-2.78572E-18
 -1       344 1.09774E-04-3.53681E-05-3.19013E-05 5.61363E-06-4.13395E-19-2.61666E-18
 -1       345 1.09432E-04-3.52066E-05-3.18277E-05 2.03205E-06-1.27449E-19-2.57981E-18
 -1       346 1.08203E-04-3.42435E-05-3.17124E-05-9.52128E-07 7.32894E-19-2.22799E-18
 -1       347 1.06559E-04-3.30396E-05-3.15197E-05-2.94375E-06-1.37688E-19-1.29084E-18
 -1       348 1.04818E-04-3.19165E-05-3.12500E-05-3.98547E-06-2.66848E-19-1.71366E-18
 -1       349 1.03153E-04-3.09974E-05-3.09265E-05-4.30211E-06-4.77063E-19-1.70261E-18
 -1       350 1.01648E-04-3.02949E-05-3.05795E-05-4.14488E-06-3.66059E-19-1.25722E-18
 -1       351 1.00334E-04-2.97769E-05-3.02366E-05-3.72248E-06-4.84846E-20-1.82246E-18
 -1       352 9.92164E-05-2.94020E-05-2.99177E-05-3.18402E-06 2.84668E-19-1.75717E-18
 -1       353 9.82877E-05-2.91333E-05-2.96347E-05-2.62504E-06 8.71407E-19-1.92079E-18
 -1       354 9.75312E-05-2.89420E-05-2.93926E-05-2.10058E-06 7.24570E-19-2.00228E-18
 -1       355 9.69268E-05-2.88070E-05-2.91917E-05-1.63801E-06-4.45524E-19-8.89081E-19
 -1       356 9.64530E-05-2.87129E-05-2.90294E-05-1.24715E-06 2.05773E-19-1.17579E-18
 -1       357 9.60884E-05-2.86483E-05-2.89012E-05-9.27472E-07 6.90968E-19-2.30354E-18
 -1       358 9.58134E-05-2.86052E-05-2.88022E-05-6.72934E-07-3.26719E-19-2.80905E-18
 -1       359 9.56102E-05-2.85773E-05-2.87273E-05-4.74994E-07-9.86837E-19-2.42783E-18
 -1       360 9.54635E-05-2.85603E-05-2.86720E-05-3.24448E-07-7.43021E-19-7.94308E-19
 -1       361 9.53603E-05-2.85509E-05-2.86320E-05-2.12457E-07 3.58416E-19-1.51120E-18
 -1       362 9.52901E-05-2.85465E-05-2.86040E-05-1.31076E-07 9.36988E-19-1.33034E-18
 -1       363 9.52442E-05-2.85455E-05-2.85849E-05-7.34724E-08 7.68557E-19-7.42438E-19
 -1       364 9.52161E-05-2.85465E-05-2.85725E-05-3.39525E-08 6.53994E-19-1.19414E-18
 -1       365 9.52005E-05-2.85487E-05-2.85649E-05-7.89856E-09-5.71067E-19-1.15158E-18
 -1       366 9.51934E-05-2.85515E-05-2.85608E-05 8.35253E-09-1.20627E-18-2.56625E-18
 -1       367 9.51920E-05-2.85544E-05-2.85589E-05 1.76468E-08-1.88627E-18-2.75986E-18
 -1       368 9.51941E-05-2.85573E-05-2.85586E-05 2.21516E-08-6.42933E-19-1.42886E-18
 -1       369 9.51981E-05-2.85599E-05-2.85592E-05 2.34837E-08 6.18485E-19-1.98941E-18
 -1       370 9.52031E-05-2.85622E-05-2.85604E-05 2.28230E-08 2.22945E-18-3.77797E-19
 -1       371 9.52083E-05-2.85642E-05-2.85618E-05 2.10092E-08 1.49769E-18-3.03604E-19
 -1       372 9.52134E-05-2.85658E-05-2.85633E-05 1.86216E-08 1.93255E-18-1.52779E-19
 -1       373 9.52181E-05-2.85672E-05-2.85647E-05 1.60436E-08 8.19784E-20-4.20433E-19
 -1       374 9.52223E-05-2.85683E-05-2.85660E-05 1.35135E-08-4.74258E-20-1.87749E-19
 -1       375 9.52258E-05-2.85692E-05-2.85671E-05 1.11631E-08 8.57449E-19 2.36296E-19
 -1       376 9.52288E-05-2.85699E-05-2.85681E-05 9.04630E-09 1.54783E-18 1.26434E-18
 -1       377 9.52313E-05-2.85705E-05-2.85689E-05 7.16035E-09 1.87233E-18 3.06798E-18
 -1       378 9.52334E-05-2.85711E-05-2.85696E-05 5.46453E-09-9.67494E-19 3.04352E-18
 -1       379 9.52349E-05-2.85715E-05-2.85701E-05 3.89650E-09-1.74248E-18 1.40746E-18
 -1       380 9.52360E-05-2.85718E-05-2.85704E-05 2.50787E-09-1.51564E-18 1.86208E-20
 -1       381 1.20095E-04-3.73992E-05-3.54129E-05 1.06597E-05 1.37134E-18 3.12124E-18
 -1       382 1.15753E-04-3.55892E-05-3.43382E-05 1.26319E-05 1.54424E-18 2.86531E-18
 -1       383 1.10530E-04-3.21189E-05-3.35982E-05 1.24638E-05 1.13407E-18 2.57633E-18
 -1       384 1.05710E-04-2.83727E-05-3.31484E-05 8.16912E-06 7.94295E-19 1.36869E-18
 -1       385 1.03492E-04-2.67178E-05-3.29079E-05 5.08751E-07 1.04350E-18 2.70085E-19
 -1       386 1.04899E-04-2.83394E-05-3.28088E-05-6.88347E-06 1.32710E-18-3.92891E-19
 -1       387 1.08534E-04-3.18855E-05-3.28429E-05-1.04466E-05 1.46266E-18-9.87677E-19
 -1       388 1.11961E-04-3.49807E-05-3.29926E-05-9.46877E-06 5.72874E-19-1.40918E-18
 -1       389 1.13683E-04-3.63388E-05-3.31617E-05-5.75588E-06-1.33166E-19-1.75971E-18
 -1       390 1.13569E-04-3.61123E-05-3.32182E-05-1.57131E-06-1.02117E-19-1.31261E-18
 -1       391 1.12186E-04-3.50509E-05-3.30796E-05 1.71174E-06 5.78173E-19-1.19048E-18
 -1       392 1.10143E-04-3.37684E-05-3.27475E-05 3.70596E-06 4.82583E-19-9.03188E-19
 -1       393 1.07879E-04-3.25843E-05-3.22774E-05 4.57392E-06 2.45209E-19-7.73475E-19
 -1       394 1.05661E-04-3.16079E-05-3.17395E-05 4.66233E-06 3.85056E-19-1.30012E-18
 -1       395 1.03632E-04-3.08411E-05-3.11946E-05 4.29934E-06 4.62872E-19-9.70902E-19
 -1       396 1.01856E-04-3.02509E-05-3.06846E-05 3.72528E-06-2.86344E-19-7.40493E-19
 -1       397 1.00354E-04-2.98002E-05-3.02332E-05 3.09242E-06-1.12943E-18 2.23275E-19
 -1       398 9.91166E-05-2.94577E-05-2.98495E-05 2.48619E-06-1.37785E-18 9.25130E-19
 -1       399 9.81200E-05-2.91990E-05-2.95337E-05 1.94789E-06-1.50878E-18 1.41422E-18
 -1       400 9.73339E-05-2.90052E-05-2.92804E-05 1.49225E-06 2.19224E-19 2.31354E-18
 -1       401 9.67256E-05-2.88619E-05-2.90817E-05 1.11933E-06-2.02911E-19 1.72616E-18
 -1       402 9.62636E-05-2.87574E-05-2.89291E-05 8.21950E-07 2.27758E-19 8.49502E-19
 -1       403 9.59197E-05-2.86827E-05-2.88141E-05 5.89899E-07 1.77359E-20 9.03074E-19
 -1       404 9.56688E-05-2.86307E-05-2.87293E-05 4.12361E-07-1.11733E-19 4.42467E-19
 -1       405 9.54900E-05-2.85955E-05-2.86681E-05 2.79109E-07 1.67395E-19 8.19765E-19
 -1       406 9.53662E-05-2.85728E-05-2.86250E-05 1.81059E-07 2.76977E-20 2.79938E-19
 -1       407 9.52833E-05-2.85589E-05-2.85956E-05 1.10465E-07 9.36423E-19 3.70109E-19
 -1       408 9.52304E-05-2.85514E-05-2.85764E-05 6.08987E-08 1.15490E-18 1.54085E-18
 -1       409 9.51990E-05-2.85481E-05-2.85644E-05 2.71517E-08 2.24785E-19 1.11803E-18
 -1       410 9.51826E-05-2.85476E-05-2.85577E-05 5.07970E-09-1.54348E-18 2.40846E-19
 -1       411 9.51761E-05-2.85488E-05-2.85545E-05-8.55564E-09-1.17314E-18 4.17519E-20
 -1       412 9.51762E-05-2.85509E-05-2.85536E-05-1.62421E-08 8.50296E-19-2.19707E-19
 -1       413 9.51802E-05-2.85535E-05-2.85543E-05-1.98577E-08 1.50374E-18-1.29590E-18
 -1       414 9.51863E-05-2.85562E-05-2.85557E-05-2.07940E-08 8.33601E-19-1.96253E-18
 -1       415 9.51933E-05-2.85589E-05-2.85576E-05-2.00611E-08-1.32986E-18-1.51232E-18
 -1       416 9.52004E-05-2.85612E-05-2.85597E-05-1.83744E-08-1.59194E-18-4.83770E-19
 -1       417 9.52071E-05-2.85633E-05-2.85616E-05-1.62255E-08-1.31190E-18 1.75651E-19
 -1       418 9.52132E-05-2.85651E-05-2.85635E-05-1.39385E-08 8.07643E-20-9.57748E-19
 -1       419 9.52185E-05-2.85666E-05-2.85651E-05-1.17139E-08 1.10675E-18-1.61129E-18
 -1       420 9.52231E-05-2.85679E-05-2.85665E-05-9.66160E-09 2.97857E-19-2.40051E-18
 -1       421 9.52269E-05-2.85689E-05-2.85677E-05-7.82569E-09 5.93988E-19-1.57267E-18
 -1       422 9.52300E-05-2.85697E-05-2.85687E-05-6.20144E-09-5.55023E-20 7.52808E-19
 -1       423 9.52325E-05-2.85704E-05-2.85695E-05-4.74765E-09-1.47142E-18-1.07293E-18
 -1       424 9.52344E-05-2.85710E-05-2.85701E-05-3.40391E-09 2.86379E-19-2.10945E-18
 -1       425 9.52358E-05-2.85714E-05-2.85705E-05-2.11846E-09 1.37848E-18-4.86894E-19
 -1       426 9.52365E-05-2.85716E-05-2.85707E-05-1.40148E-09 4.83148E-19 1.30473E-18
 -1       427 9.52381E-05-2.85751E-05-2.85699E-05-3.95867E-09-1.13568E-18 5.67938E-18
 -1       428 9.52373E-05-2.85736E-05-2.85702E-05-3.44043E-09-7.64370E-19 5.37201E-18
 -1       429 9.52368E-05-2.85725E-05-2.85704E-05-2.49172E-09-4.28467E-19 2.52136E-18
 -1       430 9.52390E-05-2.85766E-05-2.85696E-05-3.87377E-09-1.85342E-18-9.40893E-19
 -1       431 9.52397E-05-2.85779E-05-2.85694E-05-3.22355E-09-3.14553E-19-1.80556E-18
 -1       432 9.52403E-05-2.85789E-05-2.85692E-05-2.12124E-09-4.95900E-20 4.64551E-19
 -1       433 9.52406E-05-2.85794E-05-2.85691E-05-7.31234E-10-2.16477E-18-1.24899E-18
 -1       434 9.52406E-05-2.85794E-05-2.85691E-05 7.56176E-10-1.59824E-18-4.70809E-19
 -1       435 9.52403E-05-2.85788E-05-2.85692E-05 2.14274E-09-1.06556E-18-2.23321E-18
 -1       436 9.52397E-05-2.85779E-05-2.85694E-05 3.22366E-09-4.78525E-19-2.01540E-18
 -1       437 9.52390E-05-2.85766E-05-2.85696E-05 3.87483E-09 1.51852E-19 1.79781E-18
 -1       438 9.52381E-05-2.85751E-05-2.85699E-05 3.95693E-09-7.30838E-19 7.14298E-19
 -1       439 9.52372E-05-2.85735E-05-2.85702E-05 3.43940E-09-1.20410E-18-7.11778E-19
 -1       440 6.14147E-05-3.82432E-05-9.93855E-06 4.37360E-05-6.42474E-19 1.83743E-18
 -1       441 1.41807E-05-1.51366E-05 5.97196E-07-2.95146E-06 1.74555E-19 6.50797E-18
 -1       442 3.09129E-05-2.39937E-05-2.85043E-06 3.11590E-05 2.50881E-19 3.97640E-18
 -1       443 9.87261E-05-4.96502E-05-2.11451E-05 4.15536E-05 7.68577E-19 5.43636E-19
 -1       444 1.31725E-04-5.09398E-05-3.46245E-05 2.83511E-05 1.90244E-18-1.21401E-18
 -1       445 1.01630E-04-2.13930E-05-3.44746E-05-6.69611E-06-8.80421E-19-2.66872E-18
 -1       446 1.58591E-04-2.44198E-05-5.72974E-05 2.47088E-06 5.75125E-18-3.06033E-18
 -1       447 1.56130E-04-1.33264E-05-6.11372E-05 2.06755E-06 6.39838E-18-3.05707E-18
 -1       448 1.57569E-04-1.68487E-05-6.02226E-05 5.86209E-06 6.89559E-18-2.78414E-18
 -1       449 1.55347E-04-3.16254E-05-5.30313E-05 2.67109E-06 5.91361E-18-2.54788E-18
 -1       450 1.43690E-04-4.54344E-05-4.21592E-05-1.14154E-05 4.02449E-18-3.44044E-18
 -1       451 1.15967E-04-4.69448E-05-2.96656E-05-2.97550E-05 3.10120E-18-5.11666E-18
 -1       452 7.47374E-05-3.61140E-05-1.66159E-05-3.88381E-05 1.42291E-18-6.28559E-18
 -1       453 3.64821E-05-2.08693E-05-6.90692E-06-3.28220E-05 1.38755E-18-7.64262E-18
 -1       454 1.38144E-05-8.02573E-06-2.49171E-06-1.64080E-05 4.43051E-19-8.01452E-18
 -1       455 8.90145E-06-8.15522E-06-5.34131E-07 1.08287E-05-1.92859E-19-7.74135E-18
 -1       456 2.63663E-05-1.57262E-05-4.78188E-06 2.98318E-05-1.01760E-18-7.36633E-18
 -1       457 5.79099E-05-2.87310E-05-1.27678E-05 3.96724E-05-2.19254E-18-6.81077E-18
 -1       458 9.64688E-05-4.04884E-05-2.41486E-05 3.72916E-05-3.07918E-18-5.79847E-18
 -1       459 1.31097E-04-4.51798E-05-3.68684E-05 2.20621E-05-4.22971E-18-4.19059E-18
 -1       460 1.49431E-04-3.67510E-05-4.83671E-05 4.64659E-06-5.53478E-18-3.10660E-18
 -1       461 1.51423E-04-1.87091E-05-5.69953E-05-6.62616E-06-6.88278E-18-2.34104E-18
 -1       462 1.51424E-04-1.09613E-05-6.03051E-05-3.33607E-06-7.05515E-18-3.17689E-18
 -1       463 1.52466E-04-1.65519E-05-5.84126E-05-6.96075E-07-6.65027E-18-3.71646E-18
 -1       464 1.51989E-04-3.57296E-05-4.97729E-05-1.21774E-05-4.69280E-18-2.50351E-18
 -1       465 1.36847E-04-4.96165E-05-3.73653E-05-2.29324E-05-1.73255E-18-1.23328E-18
 -1       466 1.03621E-04-5.04539E-05-2.28569E-05-4.07357E-05 6.05629E-20 1.46547E-18
 -1       467 6.69299E-05-4.02903E-05-1.14762E-05-4.48908E-05 3.16367E-19 2.19252E-18
 -1       468 2.67355E-05-2.44109E-05-1.18696E-06-2.94907E-05 4.22299E-19 5.92288E-18
 -1       469 1.52062E-04-4.04970E-05-4.76242E-05 1.37638E-05 4.48359E-18-2.43903E-18
 -1       470 2.77671E-05-1.30109E-05-5.76891E-06 1.70143E-05-9.48306E-19 5.18024E-18
 -1       471 1.42870E-04-2.52643E-05-5.07544E-05 6.67606E-06-4.93063E-18-4.40187E-18
 -1       472 1.21538E-04-3.83073E-05-3.56823E-05 1.21663E-05 1.47333E-18 1.36366E-18
 -1       473 7.50369E-05-1.55646E-05-2.54110E-05 1.53339E-05 1.64391E-18-3.91041E-18
 -1       474 9.33638E-05-2.48431E-05-2.93556E-05 7.06991E-06 8.92252E-19-3.15171E-18
 -1       475 4.04562E-05 6.28870E-06-1.98633E-05 6.41176E-06 1.17667E-18-5.59140E-18
 -1       476 4.21881E-05 5.31167E-06-2.01887E-05-5.62843E-06 3.25622E-19-5.66752E-18
 -1       477 5.83927E-05-4.90956E-06-2.27945E-05-1.28946E-05-3.67741E-19-4.73360E-18
 -1       478 7.99780E-05-1.71671E-05-2.68683E-05-1.05715E-05-2.62847E-19-3.21407E-18
 -1       479 9.77928E-05-2.58075E-05-3.08590E-05-2.35662E-06 4.05464E-19-1.71271E-18
 -1       480 1.10317E-04-3.07442E-05-3.41241E-05 6.38274E-06 1.31753E-18-6.39169E-19
 -1       481 1.21544E-04-3.92543E-05-3.52689E-05 1.46315E-05 1.54389E-18 1.74064E-18
 -1       482 1.17216E-04-3.59907E-05-3.48135E-05-1.38662E-05-1.46134E-18-3.30164E-19
 -1       483 1.42953E-04-3.47449E-05-4.68196E-05-7.38414E-06 3.82345E-18-3.69222E-18
 -1       484 1.16855E-04-3.60066E-05-3.46539E-05-1.52935E-05-1.50246E-18-5.43524E-20
 -1       485 1.14092E-04-3.20554E-05-3.51746E-05-1.55378E-05-1.64579E-18 1.85824E-20
 -1       486 1.09800E-04-2.60413E-05-3.59344E-05-1.18573E-05-2.15505E-18-6.27744E-19
 -1       487 1.06777E-04-2.22077E-05-3.62913E-05-3.68043E-06-2.21929E-18-1.87096E-18
 -1       488 1.07253E-04-2.37754E-05-3.58171E-05 5.40174E-06-1.79804E-18-2.77917E-18
 -1       489 1.10319E-04-2.95806E-05-3.46287E-05 1.07489E-05-1.38368E-18-3.28964E-18
 -1       490 1.12958E-04-3.54239E-05-3.32440E-05 1.06592E-05-1.01682E-18-3.57252E-18
 -1       491 1.13311E-04-3.84305E-05-3.21003E-05 6.95589E-06-4.31284E-19-2.53946E-18
 -1       492 1.11561E-04-3.84380E-05-3.13488E-05 2.32041E-06 2.08925E-19-1.79099E-18
 -1       493 1.08791E-04-3.66797E-05-3.09140E-05-1.55743E-06 3.77522E-19-1.31176E-18
 -1       494 1.05949E-04-3.44232E-05-3.06607E-05-4.12394E-06 3.55157E-19-2.18955E-18
 -1       495 1.03496E-04-3.23871E-05-3.04794E-05-5.46767E-06-5.17277E-19-2.44634E-18
 -1       496 1.01548E-04-3.08322E-05-3.03086E-05-5.89152E-06-1.13670E-19-2.33528E-18
 -1       497 1.00054E-04-2.97622E-05-3.01253E-05-5.71212E-06-2.12189E-19-1.34023E-18
 -1       498 9.89178E-05-2.90812E-05-2.99293E-05-5.18571E-06-2.89639E-19-1.04155E-18
 -1       499 9.80489E-05-2.86778E-05-2.97293E-05-4.49589E-06-8.56752E-20-1.42583E-18
 -1       500 9.73780E-05-2.84582E-05-2.95357E-05-3.76351E-06 5.40021E-19-1.06576E-18
 -1       501 9.68560E-05-2.83537E-05-2.93568E-05-3.06170E-06 7.89016E-19-1.72309E-18
 -1       502 9.64485E-05-2.83177E-05-2.91978E-05-2.42997E-06 8.75177E-19-1.95587E-18
 -1       503 9.61312E-05-2.83201E-05-2.90609E-05-1.88554E-06 5.53030E-19-1.12331E-18
 -1       504 9.58857E-05-2.83423E-05-2.89463E-05-1.43160E-06-2.05944E-19-1.04178E-18
 -1       505 9.56976E-05-2.83730E-05-2.88527E-05-1.06320E-06 3.65085E-20-2.34795E-18
 -1       506 9.55554E-05-2.84057E-05-2.87779E-05-7.71169E-07-1.48193E-19-2.11952E-18
 -1       507 9.54495E-05-2.84369E-05-2.87193E-05-5.44604E-07 1.64558E-19-1.57865E-18
 -1       508 9.53722E-05-2.84647E-05-2.86744E-05-3.72464E-07-2.97870E-19-1.31794E-18
 -1       509 9.53170E-05-2.84886E-05-2.86406E-05-2.44430E-07 3.01192E-19-8.18454E-19
 -1       510 9.52786E-05-2.85084E-05-2.86157E-05-1.51345E-07 4.18050E-19-1.22656E-18
 -1       511 9.52528E-05-2.85244E-05-2.85978E-05-8.53876E-08-2.45380E-20-1.77317E-18
 -1       512 9.52362E-05-2.85371E-05-2.85853E-05-4.00620E-08-3.69251E-19-3.19442E-18
 -1       513 9.52262E-05-2.85469E-05-2.85768E-05-1.01074E-08-5.38319E-19-2.37758E-18
 -1       514 9.52209E-05-2.85544E-05-2.85713E-05 8.64764E-09-1.48044E-18-1.94205E-18
 -1       515 9.52188E-05-2.85600E-05-2.85680E-05 1.94445E-08-5.17319E-19-1.37706E-18
 -1       516 9.52187E-05-2.85641E-05-2.85662E-05 2.47528E-08 3.62555E-19 9.57799E-19
 -1       517 9.52198E-05-2.85670E-05-2.85655E-05 2.64165E-08 2.16545E-18 2.03574E-18
 -1       518 9.52217E-05-2.85690E-05-2.85654E-05 2.57822E-08 9.91023E-19 1.84566E-20
 -1       519 9.52238E-05-2.85704E-05-2.85657E-05 2.38091E-08 1.27956E-18 6.91365E-19
 -1       520 9.52260E-05-2.85713E-05-2.85663E-05 2.11593E-08 8.95009E-19 8.26913E-19
 -1       521 9.52281E-05-2.85718E-05-2.85670E-05 1.82710E-08 2.42170E-19 2.33311E-18
 -1       522 9.52300E-05-2.85721E-05-2.85677E-05 1.54163E-08 3.05099E-19 3.21717E-18
 -1       523 9.52317E-05-2.85723E-05-2.85683E-05 1.27457E-08 1.47954E-18 2.74036E-18
 -1       524 9.52331E-05-2.85724E-05-2.85689E-05 1.03217E-08 1.46160E-18 2.37827E-18
 -1       525 9.52344E-05-2.85726E-05-2.85694E-05 8.14495E-09 8.27757E-20 1.20830E-19
 -1       526 9.52354E-05-2.85727E-05-2.85697E-05 6.17811E-09-1.99109E-18-1.10837E-18
 -1       527 5.92975E-05-2.89099E-05-1.24770E-05 3.79251E-05-2.07444E-18 1.12470E-18
 -1       528 1.14529E-04-2.90959E-05-3.66721E-05 1.49370E-05 1.80729E-18 1.60994E-18
 -1       529 1.10245E-04-2.33180E-05-3.73381E-05 6.60505E-06 2.08675E-18 3.47054E-19
 -1       530 1.09903E-04-2.36603E-05-3.70480E-05-4.56770E-06 2.01777E-18-1.25682E-18
 -1       531 1.13229E-04-2.98064E-05-3.58158E-05-1.19010E-05 1.83653E-18-1.93277E-18
 -1       532 1.16444E-04-3.65288E-05-3.42786E-05-1.22544E-05 1.29312E-18-2.27367E-18
 -1       533 1.16973E-04-3.99178E-05-3.30403E-05-7.77489E-06 3.67384E-19-2.58887E-18
 -1       534 1.14843E-04-3.95793E-05-3.22746E-05-2.12103E-06-3.33880E-19-2.91091E-18
 -1       535 1.11618E-04-3.73696E-05-3.18364E-05 2.45520E-06-2.48296E-19-2.59712E-18
 -1       536 1.08366E-04-3.47904E-05-3.15440E-05 5.30779E-06 7.38693E-20-1.76616E-18
 -1       537 1.05577E-04-3.26071E-05-3.12797E-05 6.62666E-06 2.92587E-19-1.49864E-18
 -1       538 1.03347E-04-3.10326E-05-3.09945E-05 6.86041E-06 3.04671E-19-9.91294E-19
 -1       539 1.01593E-04-2.99943E-05-3.06848E-05 6.44078E-06 9.00715E-20-1.67556E-19
 -1       540 1.00207E-04-2.93468E-05-3.03666E-05 5.68826E-06-3.16194E-19 3.36287E-19
 -1       541 9.91019E-05-2.89583E-05-3.00587E-05 4.81487E-06-1.21985E-18 8.65616E-19
 -1       542 9.82156E-05-2.87320E-05-2.97758E-05 3.94762E-06-1.66545E-18 9.80510E-19
 -1       543 9.75050E-05-2.86042E-05-2.95262E-05 3.15449E-06-1.04216E-18-3.48030E-19
 -1       544 9.69385E-05-2.85352E-05-2.93134E-05 2.46560E-06-1.11872E-18-1.80877E-18
 -1       545 9.64914E-05-2.85009E-05-2.91369E-05 1.88846E-06-3.88956E-19 2.25203E-20
 -1       546 9.61430E-05-2.84871E-05-2.89938E-05 1.41809E-06 7.10025E-19 8.85963E-19
 -1       547 9.58756E-05-2.84852E-05-2.88804E-05 1.04334E-06-4.34760E-19 8.01033E-19
 -1       548 9.56737E-05-2.84898E-05-2.87922E-05 7.50680E-07-2.14172E-19 1.69534E-18
 -1       549 9.55241E-05-2.84979E-05-2.87248E-05 5.26387E-07-2.63773E-19 2.05148E-18
 -1       550 9.54155E-05-2.85074E-05-2.86744E-05 3.57666E-07 3.40263E-19 1.60638E-18
 -1       551 9.53386E-05-2.85172E-05-2.86374E-05 2.33202E-07 6.24708E-19 5.12075E-19
 -1       552 9.52858E-05-2.85265E-05-2.86109E-05 1.43335E-07 7.92937E-19 8.44914E-19
 -1       553 9.52508E-05-2.85349E-05-2.85924E-05 8.00360E-08 8.56114E-19 1.29105E-18
 -1       554 9.52288E-05-2.85423E-05-2.85798E-05 3.67744E-08 1.08013E-19 1.04141E-18
 -1       555 9.52161E-05-2.85485E-05-2.85718E-05 8.34023E-09-1.06921E-18 4.79794E-19
 -1       556 9.52098E-05-2.85538E-05-2.85669E-05-9.34996E-09 3.02191E-19 1.44904E-19
 -1       557 9.52078E-05-2.85580E-05-2.85642E-05-1.94417E-08 7.94710E-19-3.99942E-19
 -1       558 9.52085E-05-2.85614E-05-2.85630E-05-2.43157E-08 2.05369E-18 3.77384E-20
 -1       559 9.52108E-05-2.85641E-05-2.85629E-05-2.57400E-08-6.16558E-19-2.10017E-20
 -1       560 9.52139E-05-2.85662E-05-2.85633E-05-2.50009E-08-1.92313E-18-1.37395E-18
 -1       561 9.52173E-05-2.85678E-05-2.85641E-05-2.30114E-08-1.33933E-18-8.55677E-19
 -1       562 9.52207E-05-2.85689E-05-2.85650E-05-2.04001E-08-8.61691E-19-3.91832E-19
 -1       563 9.52239E-05-2.85698E-05-2.85660E-05-1.75819E-08 3.29006E-19-5.99726E-19
 -1       564 9.52267E-05-2.85705E-05-2.85670E-05-1.48136E-08-3.99847E-19 1.02792E-18
 -1       565 9.52292E-05-2.85709E-05-2.85678E-05-1.22360E-08 4.39722E-19 2.89541E-18
 -1       566 9.52313E-05-2.85713E-05-2.85686E-05-9.90606E-09-3.39002E-19 1.25506E-18
 -1       567 9.52331E-05-2.85717E-05-2.85692E-05-7.82281E-09-1.75498E-18 2.50007E-18
 -1       568 9.52345E-05-2.85720E-05-2.85697E-05-5.95198E-09-7.56451E-19 2.80400E-18
 -1       569 9.52358E-05-2.85723E-05-2.85701E-05-4.22379E-09 7.73555E-19 2.70796E-18
 -1       570 9.52399E-05-2.85774E-05-2.85696E-05-4.94002E-09-2.80590E-20-7.56120E-19
 -1       571 9.52409E-05-2.85786E-05-2.85695E-05-3.68963E-09 7.19825E-19-5.53410E-19
 -1       572 9.52374E-05-2.85743E-05-2.85699E-05-5.37582E-09 9.95599E-19 4.76219E-18
 -1       573 9.52387E-05-2.85759E-05-2.85698E-05-5.53113E-09-1.30030E-18 2.29164E-18
 -1       574 9.52415E-05-2.85794E-05-2.85695E-05-1.96081E-09-2.20401E-18-2.13821E-18
 -1       575 9.52418E-05-2.85797E-05-2.85695E-05 1.74051E-11-9.32887E-19 2.67877E-19
 -1       576 9.52415E-05-2.85794E-05-2.85695E-05 1.99328E-09-3.27619E-19-8.64983E-19
 -1       577 9.52409E-05-2.85786E-05-2.85695E-05 3.68984E-09-2.86279E-20-2.08361E-18
 -1       578 9.52399E-05-2.85774E-05-2.85696E-05 4.93994E-09 6.84062E-19-1.14898E-18
 -1       579 9.52387E-05-2.85759E-05-2.85698E-05 5.53409E-09-2.50472E-18-3.77188E-19
 -1       580 9.52374E-05-2.85743E-05-2.85699E-05 5.35544E-09-3.00962E-18-1.30537E-19
 -1       581 3.06065E-05-1.37508E-05-6.63051E-06-1.96536E-05 1.55912E-18 5.77984E-18
 -1       582 1.19270E-04-3.59392E-05-3.57300E-05 1.69120E-05 1.43101E-18 2.00531E-18
 -1       583 9.48349E-05-4.87932E-05-1.94449E-05 3.99321E-05-1.90334E-18-4.42350E-19
 -1       584 5.69631E-05-3.03836E-05-1.09688E-05-4.01866E-05 2.67742E-18 2.66604E-18
 -1       585 1.14928E-04-3.21532E-05-3.55222E-05-1.31093E-05-1.79001E-18-1.04744E-18
 -1       586 1.26890E-04-5.75183E-05-2.97914E-05-2.36298E-05 1.69539E-18-2.48583E-18
 -1       587 1.28978E-04-1.03996E-05-5.14332E-05-9.10470E-06-5.97778E-18-1.50433E-18
 -1       588 5.35234E-05-2.94652E-06-2.15158E-05 1.62421E-05 1.75400E-18-5.02650E-18
 -1       589 1.32980E-04-9.98234E-06-5.33300E-05 5.58335E-06 5.63118E-18-1.40956E-18
 -1       590 1.42377E-04-4.63899E-05-4.13590E-05-2.37215E-06-1.74812E-18-4.60484E-18
 -1       591 1.35828E-04-1.57829E-05-5.20386E-05-6.72700E-06 5.61244E-18-3.11533E-18
 -1       592 1.38760E-04-2.12414E-05-5.08588E-05 1.45913E-05 5.12799E-18 1.03126E-19
 -1       593 1.42699E-04-4.08424E-05-4.39799E-05 9.94040E-06 2.97211E-18 6.73021E-19
 -1       594 1.32941E-04-5.22302E-05-3.47261E-05-8.52964E-06 7.31863E-19-7.99520E-19
 -1       595 1.06710E-04-4.67233E-05-2.56446E-05-2.67856E-05-3.53795E-19-2.90230E-18
 -1       596 6.21363E-05-2.52066E-05-1.55196E-05-3.46864E-05-9.38936E-19-5.68153E-18
 -1       597 3.53113E-05-9.21562E-06-1.06385E-05-2.65700E-05-6.39642E-19-7.18665E-18
 -1       598 1.68650E-05 3.05115E-06-7.98088E-06-1.27766E-06 3.69424E-19-7.78000E-18
 -1       599 2.43384E-05-3.83967E-06-8.30320E-06 2.21163E-05 1.03669E-18-7.24510E-18
 -1       600 5.42464E-05-2.01862E-05-1.41676E-05 3.60064E-05 1.51767E-18-5.74087E-18
 -1       601 8.49406E-05-3.68962E-05-2.03800E-05 3.59456E-05 9.74511E-19-4.44105E-18
 -1       602 1.20286E-04-4.93191E-05-3.03982E-05 2.01449E-05-2.34390E-19-1.98312E-18
 -1       603 1.37912E-04-4.54622E-05-3.98704E-05-8.73590E-07-2.62654E-18-3.79630E-19
 -1       604 1.35686E-04-2.81285E-05-4.65705E-05-1.49288E-05-4.58732E-18 2.00641E-20
 -1       605 1.30642E-04-1.01845E-05-5.22570E-05 2.83159E-06-6.01722E-18-3.41827E-18
 -1       606 9.59819E-05-4.92659E-05-1.97851E-05-4.04203E-05 2.54703E-18-1.29629E-19
 -1       607 1.22054E-04-5.78180E-05-2.75326E-05 2.83131E-05-1.05477E-18-2.16165E-18
 -1       608 1.20656E-04-3.46393E-05-3.69086E-05 1.19905E-05 2.01892E-18 1.34969E-18
 -1       609 1.41489E-04-5.22359E-05-3.84587E-05 4.59582E-06 1.31668E-18-4.00234E-18
 -1       610 1.04987E-04-2.93536E-05-3.24464E-05-2.59759E-06-2.02305E-19-2.16653E-18
 -1       611 9.52361E-05-2.85728E-05-2.85700E-05 4.90623E-09-2.97972E-18-4.53567E-19
 -1       612 3.28191E-05-9.34812E-06-9.49254E-06-7.40897E-07 4.81651E-20 5.14488E-18
 -1       613 9.14615E-05-3.74480E-05-2.28969E-05-2.80520E-05-1.53212E-18-3.33851E-18
 -1       614 3.02612E-05 6.12536E-06-1.52697E-05-5.67695E-07 5.52759E-19-6.68510E-18
 -1       615 9.93938E-05-3.31258E-05-2.83366E-05-1.06950E-05-5.47704E-19-1.66303E-18
 -1       616 7.44537E-05-2.06637E-05-2.28070E-05-2.14607E-05-1.23116E-18-3.96263E-18
 -1       617 1.22126E-04-4.12943E-05-3.46433E-05 1.10645E-05 9.25625E-19 5.14807E-19
 -1       618 4.54483E-05-7.16527E-06-1.59684E-05 2.58452E-05 2.09498E-18-5.82616E-18
 -1       619 4.48739E-05-3.15886E-06-1.74922E-05-1.81055E-05-6.18427E-19-6.00957E-18
 -1       620 1.30765E-04-5.64081E-05-3.19542E-05 9.46545E-06-1.22404E-18-4.09874E-18
 -1       621 1.20573E-04-3.67902E-05-3.59292E-05-1.65425E-05-1.52651E-18 2.42255E-19
 -1       622 1.17469E-04-2.86606E-05-3.82126E-05-1.71803E-05-2.54154E-18 3.67425E-20
 -1       623 1.12689E-04-1.93425E-05-4.01801E-05-1.06485E-05-3.35605E-18-1.23126E-18
 -1       624 1.10933E-04-1.70678E-05-4.04530E-05 1.27308E-06-3.27590E-18-2.97614E-18
 -1       625 1.14563E-04-2.49067E-05-3.85548E-05 1.05651E-05-2.04660E-18-4.26903E-18
 -1       626 1.18405E-04-3.53806E-05-3.56652E-05 1.18597E-05-1.05979E-18-4.15821E-18
 -1       627 1.18806E-04-4.19748E-05-3.29564E-05 7.08613E-06 6.32911E-20-3.21713E-18
 -1       628 1.15402E-04-4.27268E-05-3.11592E-05 1.05344E-06 6.64008E-19-2.48117E-18
 -1       629 1.10510E-04-4.00978E-05-3.01821E-05-3.60859E-06 5.90379E-19-1.79861E-18
 -1       630 1.05894E-04-3.64918E-05-2.97463E-05-6.29459E-06 3.34506E-19-1.36651E-18
 -1       631 1.02288E-04-3.32439E-05-2.95918E-05-7.45452E-06-4.41304E-19-1.09426E-18
 -1       632 9.97580E-05-3.08141E-05-2.95481E-05-7.60883E-06-2.41825E-19-9.29529E-19
 -1       633 9.80966E-05-2.92055E-05-2.95248E-05-7.17555E-06 8.49124E-20-1.20009E-18
 -1       634 9.70487E-05-2.82494E-05-2.94852E-05-6.43461E-06-1.25868E-19-6.21479E-19
 -1       635 9.64019E-05-2.77529E-05-2.94206E-05-5.56423E-06 4.76562E-20 4.79142E-19
 -1       636 9.60049E-05-2.75536E-05-2.93358E-05-4.67523E-06 8.70438E-19 6.16517E-19
 -1       637 9.57586E-05-2.75323E-05-2.92394E-05-3.83372E-06 5.06048E-19 1.17132E-18
 -1       638 9.56020E-05-2.76082E-05-2.91398E-05-3.07595E-06 6.77160E-19 9.98638E-19
 -1       639 9.54990E-05-2.77297E-05-2.90437E-05-2.41831E-06 2.79013E-19-6.97597E-20
 -1       640 9.54285E-05-2.78653E-05-2.89554E-05-1.86415E-06-8.30251E-19-1.12883E-18
 -1       641 9.53783E-05-2.79974E-05-2.88773E-05-1.40865E-06-7.31321E-19-1.80018E-18
 -1       642 9.53415E-05-2.81167E-05-2.88105E-05-1.04243E-06-3.03517E-19-1.61432E-18
 -1       643 9.53140E-05-2.82195E-05-2.87546E-05-7.53930E-07-2.16782E-19-1.75684E-18
 -1       644 9.52931E-05-2.83050E-05-2.87091E-05-5.31083E-07 3.24866E-19-1.60315E-18
 -1       645 9.52773E-05-2.83741E-05-2.86727E-05-3.62306E-07 5.25429E-19-1.24097E-18
 -1       646 9.52654E-05-2.84287E-05-2.86442E-05-2.37081E-07 4.36676E-19-8.70337E-19
 -1       647 9.52565E-05-2.84710E-05-2.86223E-05-1.46228E-07-2.50018E-19-1.51910E-18
 -1       648 9.52499E-05-2.85029E-05-2.86058E-05-8.19733E-08-5.40118E-19-1.70865E-18
 -1       649 9.52451E-05-2.85266E-05-2.85936E-05-3.79054E-08-1.85097E-19-1.23638E-18
 -1       650 9.52417E-05-2.85438E-05-2.85848E-05-8.84923E-09-1.19215E-18-9.05544E-19
 -1       651 9.52394E-05-2.85559E-05-2.85786E-05 9.28669E-09-1.06737E-19 8.00029E-19
 -1       652 9.52378E-05-2.85642E-05-2.85744E-05 1.96754E-08 2.24525E-19 1.64247E-18
 -1       653 9.52369E-05-2.85696E-05-2.85717E-05 2.47305E-08 4.71476E-19 5.59053E-20
 -1       654 9.52363E-05-2.85729E-05-2.85700E-05 2.62510E-08 6.57187E-19-2.41447E-19
 -1       655 9.52360E-05-2.85748E-05-2.85691E-05 2.55489E-08 9.41520E-19 3.85300E-19
 -1       656 9.52359E-05-2.85757E-05-2.85686E-05 2.35568E-08 1.37990E-18 3.81055E-19
 -1       657 9.52359E-05-2.85760E-05-2.85685E-05 2.09166E-08 7.94673E-19 8.32409E-19
 -1       658 9.52360E-05-2.85758E-05-2.85687E-05 1.80516E-08 1.43964E-19 8.80057E-19
 -1       659 9.52362E-05-2.85755E-05-2.85689E-05 1.52234E-08-5.98261E-20-2.17573E-19
 -1       660 9.52364E-05-2.85751E-05-2.85691E-05 1.25763E-08 1.19603E-18 9.28048E-20
 -1       661 9.52366E-05-2.85747E-05-2.85694E-05 1.01698E-08-7.79844E-19-1.03590E-18
 -1       662 9.52369E-05-2.85744E-05-2.85696E-05 8.00434E-09-1.80513E-18 3.59636E-19
 -1       663 1.31368E-04-3.89181E-05-3.98843E-05-1.40884E-05-2.32724E-18 6.42660E-19
 -1       664 1.21921E-04-1.98061E-05-4.41387E-05-1.56245E-05-4.39300E-18-2.81625E-19
 -1       665 1.18656E-04-2.22243E-05-4.16346E-05 1.46754E-05 2.93777E-18 3.31703E-19
 -1       666 1.22733E-04-3.63545E-05-3.71765E-05-1.35860E-05 1.36579E-18-3.93904E-18
 -1       667 1.23196E-04-4.41450E-05-3.39426E-05-8.39441E-06 5.77097E-19-3.27361E-18
 -1       668 1.18761E-04-4.46746E-05-3.17611E-05-7.06431E-07-3.49562E-19-2.43677E-18
 -1       669 1.12696E-04-4.11314E-05-3.06734E-05 4.85634E-06-4.48948E-19-2.05930E-18
 -1       670 1.07322E-04-3.67804E-05-3.02346E-05 7.82094E-06-6.80094E-19-1.82718E-18
 -1       671 1.03300E-04-3.31018E-05-3.00873E-05 8.94583E-06-3.89431E-19-1.38772E-18
 -1       672 1.00624E-04-3.05690E-05-3.00248E-05 8.90417E-06-2.68306E-19-3.82694E-19
 -1       673 9.89114E-05-2.90182E-05-2.99543E-05 8.23193E-06 8.51482E-21-2.23379E-19
 -1       674 9.78255E-05-2.81730E-05-2.98504E-05 7.25541E-06-6.36927E-19 6.53948E-20
 -1       675 9.71227E-05-2.77814E-05-2.97168E-05 6.17768E-06-9.16196E-19 6.75256E-19
 -1       676 9.66475E-05-2.76571E-05-2.95664E-05 5.11908E-06-1.09414E-18-4.89224E-19
 -1       677 9.63088E-05-2.76773E-05-2.94125E-05 4.14618E-06-9.74799E-19-1.21621E-18
 -1       678 9.60557E-05-2.77672E-05-2.92657E-05 3.29089E-06-7.53956E-19-5.83761E-19
 -1       679 9.58602E-05-2.78834E-05-2.91322E-05 2.56324E-06-1.10777E-18-1.21675E-18
 -1       680 9.57067E-05-2.80026E-05-2.90155E-05 1.96014E-06-5.33620E-19-1.39694E-18
 -1       681 9.55858E-05-2.81131E-05-2.89164E-05 1.47122E-06-1.51587E-19 5.93761E-21
 -1       682 9.54912E-05-2.82099E-05-2.88345E-05 1.08257E-06-6.38098E-19-2.92396E-20
 -1       683 9.54179E-05-2.82915E-05-2.87682E-05 7.79270E-07-4.51944E-19 7.84176E-19
 -1       684 9.53621E-05-2.83586E-05-2.87156E-05 5.46772E-07 2.30150E-19 8.19175E-19
 -1       685 9.53204E-05-2.84125E-05-2.86746E-05 3.71775E-07 4.87014E-19 1.91392E-18
 -1       686 9.52898E-05-2.84551E-05-2.86433E-05 2.42584E-07 7.59819E-19 1.82132E-18
 -1       687 9.52679E-05-2.84881E-05-2.86199E-05 1.49230E-07 8.13360E-19 1.00601E-18
 -1       688 9.52527E-05-2.85132E-05-2.86026E-05 8.34225E-08 8.29798E-19 1.59166E-18
 -1       689 9.52425E-05-2.85320E-05-2.85902E-05 3.84116E-08-2.82202E-19 1.46690E-18
 -1       690 9.52360E-05-2.85459E-05-2.85815E-05 8.80295E-09-3.59252E-20 1.16559E-19
 -1       691 9.52322E-05-2.85558E-05-2.85756E-05-9.63694E-09 5.68943E-19 5.48209E-19
 -1       692 9.52302E-05-2.85628E-05-2.85718E-05-2.01728E-08 3.24357E-19 1.05976E-18
 -1       693 9.52295E-05-2.85675E-05-2.85694E-05-2.52778E-08 5.19812E-19 1.71678E-18
 -1       694 9.52295E-05-2.85706E-05-2.85681E-05-2.67898E-08-7.45619E-19 1.58144E-18
 -1       695 9.52301E-05-2.85725E-05-2.85676E-05-2.60464E-08-2.11186E-18 4.77728E-19
 -1       696 9.52309E-05-2.85735E-05-2.85674E-05-2.39967E-08-1.11897E-18 7.69447E-20
 -1       697 9.52318E-05-2.85740E-05-2.85676E-05-2.12938E-08-2.41576E-19-4.15663E-20
 -1       698 9.52327E-05-2.85741E-05-2.85680E-05-1.83681E-08-1.35546E-18 1.35178E-18
 -1       699 9.52336E-05-2.85740E-05-2.85684E-05-1.54849E-08-8.54977E-19 2.44583E-18
 -1       700 9.52344E-05-2.85739E-05-2.85688E-05-1.27894E-08-3.45941E-19 3.39281E-18
 -1       701 9.52352E-05-2.85737E-05-2.85692E-05-1.03428E-08-1.32093E-18 4.25201E-18
 -1       702 9.52359E-05-2.85736E-05-2.85695E-05-8.14763E-09-1.48861E-18 3.03376E-18
 -1       703 9.52367E-05-2.85740E-05-2.85697E-05-6.73836E-09-6.13103E-20 3.98712E-18
 -1       704 9.52433E-05-2.85804E-05-2.85698E-05-1.23351E-09 2.70044E-19 6.56258E-19
 -1       705 9.52371E-05-2.85743E-05-2.85698E-05 6.64973E-09-1.93946E-18-2.81642E-19
 -1       706 9.52415E-05-2.85787E-05-2.85698E-05-5.52783E-09 5.36328E-21-4.38013E-19
 -1       707 9.52433E-05-2.85804E-05-2.85698E-05 1.27743E-09-1.95610E-18-1.37970E-18
 -1       708 9.52427E-05-2.85798E-05-2.85698E-05-3.59737E-09-9.15952E-19-3.05522E-18
 -1       709 8.72831E-05-3.96805E-05-2.01530E-05 3.40937E-05-2.41316E-18-7.64130E-19
 -1       710 9.52427E-05-2.85798E-05-2.85698E-05 3.59805E-09-1.06580E-18-1.01621E-18
 -1       711 9.52415E-05-2.85787E-05-2.85698E-05 5.52719E-09-6.20670E-19-2.09801E-18
 -1       712 9.52399E-05-2.85771E-05-2.85698E-05 6.76422E-09-4.30735E-19-2.97916E-18
 -1       713 1.24000E-04-3.41628E-05-3.87153E-05 1.92119E-05 1.93078E-18 1.22097E-18
 -1       714 1.33504E-04-4.36454E-05-3.87449E-05-9.59812E-06 1.28474E-18-4.56548E-18
 -1       715 1.14399E-04-5.40251E-05-2.57808E-05-2.71202E-05 3.27871E-18-2.01496E-18
 -1       716 1.15401E-04-3.57369E-05-3.41612E-05-1.04234E-05-9.45453E-19-8.95155E-19
 -1       717 6.72090E-05-1.66894E-05-2.14979E-05 2.43102E-05 2.22816E-18-4.39691E-18
 -1       718 1.34725E-04-4.73765E-05-3.76084E-05 9.39133E-06 1.00526E-18 1.43853E-18
 -1       719 1.18415E-04-2.36152E-05-4.08825E-05-1.09321E-05 3.19203E-18-2.84932E-18
 -1       720 1.15567E-04-1.64963E-05-4.27641E-05 1.46998E-06 3.43882E-18-1.25507E-18
 -1       721 1.19455E-04-3.88059E-05-3.45861E-05-1.31514E-05-1.02820E-18-1.42305E-19
 -1       722 1.13261E-04-3.79490E-05-3.23223E-05 1.60217E-06 5.68597E-19-4.78117E-19
 -1       723 1.25884E-04-4.19977E-05-3.59983E-05 1.58646E-05 1.23476E-18 1.33410E-18
 -1       724 9.35163E-05-3.02483E-05-2.70160E-05 1.57416E-05 1.73960E-18-2.83289E-18
 -1       725 1.32411E-04-5.28709E-05-3.41786E-05-2.71327E-06 1.20407E-18-5.01731E-18
 -1       726 1.24755E-04-1.60347E-05-4.70797E-05 1.26125E-05 4.23035E-18 1.20782E-19
 -1       727 2.76322E-05 3.50656E-06-1.28525E-05 1.19037E-05 1.16763E-18-6.81274E-18
 -1       728 1.22199E-04-1.32559E-05-4.71928E-05-2.63521E-06 4.38821E-18-2.12830E-18
 -1       729 1.32573E-04-3.14726E-05-4.36618E-05 1.83174E-05 3.08598E-18 1.62567E-18
 -1       730 1.21104E-04-4.94181E-05-3.06702E-05-9.88075E-06-7.91420E-19-4.95455E-19
 -1       731 1.34567E-04-3.54692E-05-4.28659E-05 9.27637E-06-2.23341E-18-5.21471E-18
 -1       732 5.62565E-05-1.50431E-05-1.73063E-05-2.70053E-05-1.31328E-18-5.61940E-18
 -1       733 1.27805E-04-4.81481E-05-3.42188E-05 1.87821E-06-2.60185E-19-8.38563E-20
 -1       734 1.17909E-04-1.13481E-05-4.61534E-05-2.14280E-06-4.74301E-18-2.55858E-18
 -1       735 7.89785E-05-2.72963E-05-2.18572E-05 2.86834E-05 2.32931E-18-3.85536E-18
 -1       736 1.06838E-04-4.26214E-05-2.74195E-05 1.95252E-05 1.63198E-18-1.97345E-18
 -1       737 1.24680E-04-1.84038E-05-4.59998E-05 9.75724E-06-4.45444E-18-4.37557E-18
 -1       738 5.53802E-05-2.05989E-05-1.44505E-05-2.83608E-05 2.28944E-18 2.47283E-18
 -1       739 8.07235E-05-3.73848E-05-1.82779E-05-3.67845E-05 3.31420E-18 9.92617E-20
 -1       740 5.01532E-05-1.62497E-05-1.40256E-05 2.26361E-05-1.72035E-18 2.49941E-18
 -1       741 1.12837E-04-5.32797E-05-2.53885E-05 2.72771E-05-1.84988E-18-2.43594E-18
 -1       742 1.08061E-04-3.55506E-05-3.10831E-05 2.48825E-06 4.84572E-19-1.84323E-18
 -1       743 9.52399E-05-2.85771E-05-2.85698E-05-6.76780E-09-1.57039E-18 2.53984E-18
 -1       744 9.52383E-05-2.85756E-05-2.85697E-05-7.08216E-09-1.38760E-18 4.37431E-19
 -1       745 4.85771E-05-1.29788E-05-1.48659E-05-1.51905E-05 1.43405E-18 3.38485E-18
 -1       746 9.52386E-05-2.85759E-05-2.85697E-05 7.60928E-09-1.22277E-18-1.61484E-18
 -1       747 1.28693E-04-2.68414E-05-4.41019E-05-1.27238E-05 3.85059E-18-4.11489E-18
 -1       748 7.21950E-05-2.65295E-05-1.93460E-05 2.74502E-05-2.17916E-18 3.37000E-19
 -1       749 3.81119E-05 1.84554E-06-1.67511E-05 1.54178E-05 1.64906E-18-5.89175E-18
 -1       750 1.16807E-04-3.91410E-05-3.32806E-05-6.69527E-06-3.05794E-19-7.76527E-19
 -1       751 7.49483E-05-2.86610E-05-1.96326E-05-2.88396E-05 2.19072E-18 2.63639E-20
 -1       752 1.24115E-04-3.25578E-05-3.94968E-05 1.21670E-05-1.57428E-18-5.29230E-18
 -1       753 1.25854E-04-4.51654E-05-3.46768E-05 6.25861E-06 2.23249E-19-4.77007E-18
 -1       754 1.20455E-04-4.76082E-05-3.12057E-05-1.91836E-06 1.50880E-18-3.06194E-18
 -1       755 1.12621E-04-4.39029E-05-2.94502E-05-7.34764E-06 1.25655E-18-2.57890E-18
 -1       756 1.05852E-04-3.87596E-05-2.87487E-05-9.71688E-06 7.34693E-19-1.95956E-18
 -1       757 1.00908E-04-3.41566E-05-2.86060E-05-1.01689E-05-3.08215E-20-1.62635E-18
 -1       758 9.77372E-05-3.07869E-05-2.86928E-05-9.59847E-06-3.63043E-19-1.09115E-18
 -1       759 9.58945E-05-2.86124E-05-2.88350E-05-8.61121E-06-1.63273E-19-7.86143E-19
 -1       760 9.49292E-05-2.73598E-05-2.89580E-05-7.48975E-06 1.55296E-19-9.63306E-19
 -1       761 9.45027E-05-2.67498E-05-2.90367E-05-6.36854E-06 8.56647E-19-5.91058E-19
 -1       762 9.43832E-05-2.65538E-05-2.90695E-05-5.31279E-06 5.12406E-19 1.73576E-19
 -1       763 9.44236E-05-2.66046E-05-2.90650E-05-4.35458E-06 6.94821E-19-1.43453E-19
 -1       764 9.45356E-05-2.67881E-05-2.90344E-05-3.50861E-06-5.08096E-20-8.84382E-19
 -1       765 9.46695E-05-2.70305E-05-2.89880E-05-2.77935E-06-1.71589E-20-1.28003E-18
 -1       766 9.47993E-05-2.72864E-05-2.89340E-05-2.16422E-06-3.54997E-19-1.79650E-18
 -1       767 9.49130E-05-2.75299E-05-2.88784E-05-1.65571E-06-1.04989E-18-8.68171E-19
 -1       768 9.50065E-05-2.77475E-05-2.88252E-05-1.24330E-06-9.22201E-19-1.02738E-18
 -1       769 9.50800E-05-2.79340E-05-2.87768E-05-9.14914E-07-3.85762E-19-3.51577E-19
 -1       770 9.51357E-05-2.80887E-05-2.87344E-05-6.58123E-07-1.08454E-19-8.37210E-19
 -1       771 9.51766E-05-2.82138E-05-2.86983E-05-4.60943E-07 6.01881E-21-1.17076E-18
 -1       772 9.52054E-05-2.83126E-05-2.86683E-05-3.12366E-07 2.21139E-19-1.30593E-18
 -1       773 9.52251E-05-2.83891E-05-2.86440E-05-2.02649E-07-2.35619E-19-2.76927E-18
 -1       774 9.52378E-05-2.84470E-05-2.86246E-05-1.23422E-07-1.51308E-19-1.74516E-18
 -1       775 9.52455E-05-2.84900E-05-2.86095E-05-6.76743E-08-4.46496E-19-1.66377E-18
 -1       776 9.52496E-05-2.85211E-05-2.85979E-05-2.96697E-08-1.13223E-19-1.42220E-18
 -1       777 9.52513E-05-2.85431E-05-2.85892E-05-4.80446E-09 7.03269E-19 2.70794E-19
 -1       778 9.52514E-05-2.85582E-05-2.85828E-05 1.05436E-08 3.05346E-19 2.05677E-18
 -1       779 9.52505E-05-2.85681E-05-2.85782E-05 1.91719E-08-2.02632E-19 1.81784E-18
 -1       780 9.52491E-05-2.85742E-05-2.85750E-05 2.32000E-08-2.94247E-19 1.18107E-18
 -1       781 9.52475E-05-2.85777E-05-2.85728E-05 2.42016E-08 1.00525E-18 4.08166E-19
 -1       782 9.52458E-05-2.85794E-05-2.85714E-05 2.33195E-08 5.58920E-19 1.07819E-18
 -1       783 9.52442E-05-2.85798E-05-2.85705E-05 2.13621E-08 6.51993E-19-7.12495E-19
 -1       784 9.52428E-05-2.85795E-05-2.85700E-05 1.88820E-08-1.17320E-19-5.47307E-19
 -1       785 9.52416E-05-2.85789E-05-2.85697E-05 1.62405E-08-1.33323E-18-5.33862E-19
 -1       786 9.52405E-05-2.85780E-05-2.85696E-05 1.36571E-08-2.80370E-20-1.74071E-18
 -1       787 9.52397E-05-2.85772E-05-2.85697E-05 1.12590E-08-1.04534E-18-2.81838E-18
 -1       788 9.52390E-05-2.85764E-05-2.85697E-05 9.35305E-09-4.56594E-19-4.29843E-18
 -1       789 1.17074E-04-4.35852E-05-3.14876E-05 3.81856E-06 5.87085E-19-9.13647E-19
 -1       790 1.05831E-04-3.89208E-05-2.86913E-05 1.22279E-05-1.07926E-18-2.41015E-18
 -1       791 1.00283E-04-3.34709E-05-2.86295E-05 1.21906E-05-1.03487E-18-1.87214E-18
 -1       792 9.71717E-05-2.99227E-05-2.88192E-05 1.11631E-05-6.59108E-19-1.39784E-18
 -1       793 9.55268E-05-2.78193E-05-2.90169E-05 9.82834E-06-2.70725E-19-6.03816E-19
 -1       794 9.47834E-05-2.67518E-05-2.91560E-05 8.44046E-06-5.04550E-19 1.92495E-20
 -1       795 9.45337E-05-2.63424E-05-2.92244E-05 7.11178E-06-1.09340E-18-4.17404E-20
 -1       796 9.45283E-05-2.63166E-05-2.92332E-05 5.89069E-06-1.87775E-19-9.00672E-19
 -1       797 9.46263E-05-2.64933E-05-2.91996E-05 4.79979E-06-8.41339E-19-6.15234E-19
 -1       798 9.47541E-05-2.67600E-05-2.91401E-05 3.84809E-06-8.06060E-19-7.36286E-19
 -1       799 9.48767E-05-2.70511E-05-2.90679E-05 3.03541E-06-5.78033E-19-6.87861E-19
 -1       800 9.49804E-05-2.73310E-05-2.89924E-05 2.35523E-06-8.79530E-19-2.70960E-19
 -1       801 9.50621E-05-2.75823E-05-2.89198E-05 1.79664E-06-3.97555E-19 6.31597E-21
 -1       802 9.51235E-05-2.77983E-05-2.88536E-05 1.34612E-06-1.66523E-19-1.90501E-19
 -1       803 9.51679E-05-2.79783E-05-2.87955E-05 9.89023E-07-3.26658E-19-3.48845E-19
 -1       804 9.51989E-05-2.81246E-05-2.87461E-05 7.10801E-07-1.98763E-19-1.15345E-18
 -1       805 9.52198E-05-2.82412E-05-2.87051E-05 4.97767E-07-2.55387E-19-7.04242E-19
 -1       806 9.52334E-05-2.83325E-05-2.86718E-05 3.37572E-07 3.92240E-19-5.98580E-19
 -1       807 9.52416E-05-2.84026E-05-2.86453E-05 2.19432E-07 1.33787E-18-9.15397E-20
 -1       808 9.52462E-05-2.84556E-05-2.86246E-05 1.34175E-07-2.20888E-19 2.95397E-19
 -1       809 9.52484E-05-2.84948E-05-2.86086E-05 7.41800E-08-5.28305E-19 1.93495E-18
 -1       810 9.52489E-05-2.85234E-05-2.85967E-05 3.32433E-08 3.91489E-19 3.31024E-18
 -1       811 9.52485E-05-2.85436E-05-2.85878E-05 6.40765E-09 5.25402E-19 2.97990E-18
 -1       812 9.52475E-05-2.85575E-05-2.85814E-05-1.02167E-08 4.69256E-19 1.74365E-18
 -1       813 9.52462E-05-2.85668E-05-2.85769E-05-1.96278E-08-8.37471E-19 1.36643E-18
 -1       814 9.52449E-05-2.85726E-05-2.85738E-05-2.40951E-08-3.24225E-19 2.45701E-18
 -1       815 9.52435E-05-2.85760E-05-2.85718E-05-2.53029E-08-7.27941E-19 2.97006E-18
 -1       816 9.52423E-05-2.85777E-05-2.85705E-05-2.44746E-08-5.23805E-19 2.06811E-18
 -1       817 9.52412E-05-2.85783E-05-2.85698E-05-2.24765E-08-1.64894E-18 5.74472E-19
 -1       818 9.52403E-05-2.85782E-05-2.85695E-05-1.99024E-08-2.28187E-18 2.51016E-18
 -1       819 9.52396E-05-2.85778E-05-2.85693E-05-1.71417E-08-1.51910E-18 2.49562E-18
 -1       820 9.52390E-05-2.85771E-05-2.85694E-05-1.44336E-08-1.39264E-18 3.49912E-18
 -1       821 9.52385E-05-2.85764E-05-2.85695E-05-1.19052E-08-4.07154E-19 2.57696E-18
 -1       822 9.52382E-05-2.85758E-05-2.85696E-05-9.61364E-09-7.39008E-19 1.06756E-20
 -1       823 9.52383E-05-2.85757E-05-2.85697E-05-8.30074E-09-1.05476E-18 2.29511E-19
 -1       824 9.52455E-05-2.85816E-05-2.85702E-05 2.78269E-11-9.46619E-19-8.89045E-19
 -1       825 9.52419E-05-2.85787E-05-2.85699E-05 7.61817E-09-1.91813E-18-2.01924E-18
 -1       826 9.52450E-05-2.85813E-05-2.85702E-05 2.96900E-09-1.40062E-18 3.87425E-19
 -1       827 1.27538E-04-4.14088E-05-3.71053E-05 8.58774E-06-2.57941E-19-5.28733E-18
 -1       828 3.80344E-05-1.64013E-06-1.50426E-05-1.77940E-05-5.87841E-19-6.56620E-18
 -1       829 1.20068E-04-4.60845E-05-3.16525E-05-2.41970E-06-3.56323E-19 9.05417E-20
 -1       830 4.92234E-05-1.12013E-05-1.59688E-05 6.14212E-06 3.56449E-20 3.15266E-18
 -1       831 1.25584E-04-4.27852E-05-3.55407E-05-9.91946E-06-9.04532E-19 2.88385E-19
 -1       832 1.21553E-04-5.23883E-05-2.96523E-05-1.14869E-05 2.46458E-18-3.76942E-18
 -1       833 9.52438E-05-2.85803E-05-2.85701E-05 5.62364E-09-1.47991E-18-1.31607E-18
 -1       834 1.14101E-04-4.56595E-05-2.93014E-05 1.03304E-05-7.08727E-19-3.05260E-18
 -1       835 1.23619E-04-5.05285E-05-3.13435E-05 4.76150E-06-6.88565E-19-3.35770E-18
 -1       836 9.99521E-05-4.38078E-05-2.39417E-05-2.73493E-05 3.00783E-18-1.51224E-18
 -1       837 9.52419E-05-2.85787E-05-2.85699E-05-7.61582E-09-7.21476E-19 1.31773E-18
 -1       838 6.45735E-05-1.99494E-05-1.89186E-05-2.15384E-05 1.50111E-18 1.95622E-18
 -1       839 1.19096E-04-5.14339E-05-2.89819E-05 1.33209E-05-1.01043E-18-3.58049E-18
 -1       840 9.52438E-05-2.85803E-05-2.85701E-05-5.61322E-09-5.27459E-19-9.94669E-19
 -1       841 9.52450E-05-2.85813E-05-2.85702E-05-2.95945E-09 5.69345E-19-6.73062E-19
 -1       842 6.25353E-05-1.72930E-05-1.92267E-05 1.69759E-05-1.08458E-18 7.27535E-19
 -1       843 9.52405E-05-2.85776E-05-2.85698E-05 8.64162E-09-8.43587E-19-1.92996E-18
 -1       844 1.02704E-04-3.76216E-05-2.77653E-05-1.38008E-05-8.49859E-19-1.61387E-18
 -1       845 9.47545E-05-3.82831E-05-2.41305E-05 2.47662E-05-2.12969E-18-1.30147E-18
 -1       846 1.07428E-04-4.61544E-05-2.61708E-05 2.13371E-05-2.08766E-18-2.56796E-18
 -1       847 1.03874E-04-4.05318E-05-2.71447E-05-1.59769E-05 1.63509E-18-1.66497E-18
 -1       848 9.76456E-05-3.42313E-05-2.71702E-05-1.43874E-05 9.56928E-19-1.27638E-18
 -1       849 9.42337E-05-3.00228E-05-2.75168E-05-1.22435E-05 2.31310E-19-5.14012E-19
 -1       850 9.25688E-05-2.74466E-05-2.79091E-05-1.02053E-05-2.52174E-19-3.41146E-19
 -1       851 9.19590E-05-2.60364E-05-2.82523E-05-8.42299E-06 3.86287E-20-1.60900E-20
 -1       852 9.19443E-05-2.54101E-05-2.85145E-05-6.91588E-06 7.13207E-19 8.46906E-19
 -1       853 9.22359E-05-2.52804E-05-2.86951E-05-5.64689E-06 5.97293E-19-4.76707E-19
 -1       854 9.26596E-05-2.54449E-05-2.88062E-05-4.57627E-06 2.75050E-19-7.38304E-19
 -1       855 9.31145E-05-2.57660E-05-2.88636E-05-3.67239E-06-3.62275E-19-1.07268E-18
 -1       856 9.35463E-05-2.61542E-05-2.88823E-05-2.91249E-06-7.88353E-19-1.36045E-18
 -1       857 9.39284E-05-2.65532E-05-2.88751E-05-2.27930E-06-5.65889E-19-1.66118E-18
 -1       858 9.42507E-05-2.69296E-05-2.88519E-05-1.75782E-06-3.95399E-19-1.90688E-18
 -1       859 9.45131E-05-2.72659E-05-2.88202E-05-1.33406E-06-1.14070E-18-1.80724E-18
 -1       860 9.47207E-05-2.75550E-05-2.87853E-05-9.94719E-07-5.20289E-19-1.99388E-18
 -1       861 9.48807E-05-2.77961E-05-2.87505E-05-7.27141E-07-2.56834E-19-1.78245E-18
 -1       862 9.50010E-05-2.79922E-05-2.87181E-05-5.19546E-07-2.61056E-19-1.82001E-18
 -1       863 9.50893E-05-2.81482E-05-2.86890E-05-3.61209E-07-4.23744E-19-1.44269E-18
 -1       864 9.51523E-05-2.82697E-05-2.86640E-05-2.42622E-07-6.03087E-19-2.07425E-18
 -1       865 9.51960E-05-2.83625E-05-2.86429E-05-1.55562E-07-3.36776E-19-2.17934E-18
 -1       866 9.52250E-05-2.84320E-05-2.86256E-05-9.30721E-08 1.50287E-18-1.12483E-18
 -1       867 9.52434E-05-2.84829E-05-2.86116E-05-4.93960E-08-4.08308E-19-1.33724E-19
 -1       868 9.52540E-05-2.85192E-05-2.86006E-05-1.98596E-08 5.04794E-19-9.00539E-19
 -1       869 9.52594E-05-2.85445E-05-2.85921E-05-7.38944E-10 1.13180E-18-1.33042E-18
 -1       870 9.52612E-05-2.85614E-05-2.85856E-05 1.08794E-08 2.67385E-19-7.60238E-19
 -1       871 9.52607E-05-2.85722E-05-2.85808E-05 1.72338E-08-3.36618E-19-5.19393E-19
 -1       872 9.52588E-05-2.85786E-05-2.85772E-05 2.00119E-08-6.64299E-19-2.60500E-19
 -1       873 9.52563E-05-2.85820E-05-2.85747E-05 2.04606E-08-1.91793E-19-8.97483E-19
 -1       874 9.52535E-05-2.85833E-05-2.85729E-05 1.94802E-08 6.51364E-19-1.39173E-18
 -1       875 9.52507E-05-2.85833E-05-2.85717E-05 1.77042E-08 2.69740E-19-1.69463E-19
 -1       876 9.52481E-05-2.85825E-05-2.85710E-05 1.55611E-08-6.18042E-19-2.51446E-18
 -1       877 9.52457E-05-2.85813E-05-2.85705E-05 1.33300E-08-5.37133E-19-1.61664E-18
 -1       878 9.52437E-05-2.85800E-05-2.85702E-05 1.11664E-08-7.08445E-19-7.82148E-19
 -1       879 9.53109E-05-3.28224E-05-2.67592E-05 1.66313E-05-1.29722E-18-9.36114E-19
 -1       880 9.09927E-05-2.49764E-05-2.82925E-05 9.15846E-06-3.98251E-19-3.47030E-19
 -1       881 9.13801E-05-2.46507E-05-2.85981E-05 7.51841E-06-1.00069E-18-7.22532E-19
 -1       882 9.19537E-05-2.47721E-05-2.87920E-05 6.15674E-06-6.88050E-19-5.06186E-19
 -1       883 9.25608E-05-2.51287E-05-2.88994E-05 5.00857E-06-8.95618E-19 3.39816E-19
 -1       884 9.31247E-05-2.55865E-05-2.89449E-05 4.03505E-06-9.57001E-19 3.10184E-19
 -1       885 9.36127E-05-2.60650E-05-2.89490E-05 3.21153E-06-9.06088E-19 8.80335E-19
 -1       886 9.40166E-05-2.65196E-05-2.89273E-05 2.52095E-06-4.34456E-19 6.83344E-19
 -1       887 9.43404E-05-2.69273E-05-2.88913E-05 1.94919E-06-3.30075E-19-1.76061E-20
 -1       888 9.45934E-05-2.72790E-05-2.88490E-05 1.48269E-06-6.00666E-20-1.66272E-20
 -1       889 9.47870E-05-2.75737E-05-2.88057E-05 1.10794E-06 3.99464E-19-5.86059E-19
 -1       890 9.49320E-05-2.78149E-05-2.87645E-05 8.11712E-07 2.15405E-19-3.44525E-19
 -1       891 9.50386E-05-2.80083E-05-2.87273E-05 5.81414E-07-5.21190E-19-1.64161E-20
 -1       892 9.51153E-05-2.81607E-05-2.86948E-05 4.05434E-07 1.11162E-19-7.49930E-20
 -1       893 9.51691E-05-2.82786E-05-2.86673E-05 2.73394E-07-4.98624E-20 3.94184E-19
 -1       894 9.52058E-05-2.83683E-05-2.86446E-05 1.76268E-07-2.20675E-19 1.93171E-18
 -1       895 9.52298E-05-2.84352E-05-2.86262E-05 1.06398E-07-7.05130E-19 2.33281E-18
 -1       896 9.52447E-05-2.84842E-05-2.86116E-05 5.74315E-08-9.88593E-19 2.63872E-18
 -1       897 9.52532E-05-2.85193E-05-2.86002E-05 2.41994E-08 3.63836E-19 2.47829E-18
 -1       898 9.52572E-05-2.85437E-05-2.85915E-05 2.57869E-09 1.06137E-18 4.11609E-18
 -1       899 9.52584E-05-2.85602E-05-2.85849E-05-1.06610E-08-8.54426E-20 5.04761E-18
 -1       900 9.52577E-05-2.85708E-05-2.85801E-05-1.80050E-08-4.75986E-19 3.92870E-18
 -1       901 9.52559E-05-2.85771E-05-2.85766E-05-2.13299E-08-5.18180E-19 2.69541E-18
 -1       902 9.52536E-05-2.85806E-05-2.85742E-05-2.20244E-08-2.84946E-19 2.07110E-18
 -1       903 9.52511E-05-2.85820E-05-2.85725E-05-2.10935E-08-8.10997E-19 1.50247E-18
 -1       904 9.52487E-05-2.85822E-05-2.85714E-05-1.92459E-08-2.35789E-18 2.17401E-18
 -1       905 9.52464E-05-2.85816E-05-2.85707E-05-1.69640E-08-2.28463E-18 1.44801E-18
 -1       906 9.52445E-05-2.85806E-05-2.85702E-05-1.45599E-08-1.34716E-18 2.42100E-18
 -1       907 9.52428E-05-2.85794E-05-2.85700E-05-1.22400E-08-8.49075E-19 2.33945E-18
 -1       908 9.52414E-05-2.85783E-05-2.85699E-05-1.00731E-08 1.22013E-18 1.45852E-18
 -1       909 9.52401E-05-2.85772E-05-2.85698E-05-8.23654E-09 5.47596E-19 1.90241E-18
 -1       910 9.52478E-05-2.85830E-05-2.85706E-05 1.80557E-09-1.83424E-18-1.27713E-18
 -1       911 5.62490E-05-1.26425E-05-1.85005E-05-6.35497E-06 8.72439E-19 2.79321E-18
 -1       912 9.10797E-05-2.60798E-05-2.78566E-05 1.11764E-05-1.33902E-18-8.04290E-19
 -1       913 9.21577E-05-2.84583E-05-2.73003E-05 1.36802E-05-1.06112E-18-9.70483E-19
 -1       914 8.92411E-05-3.37539E-05-2.37231E-05-2.34916E-05 2.01714E-18-1.18841E-18
 -1       915 8.05658E-05-2.67292E-05-2.29839E-05 2.12164E-05-1.42215E-18-6.16504E-19
 -1       916 1.09185E-04-4.58570E-05-2.71109E-05-1.75161E-05 2.26303E-18-2.47988E-18
 -1       917 7.99602E-05-2.65241E-05-2.28169E-05-2.10532E-05 1.58894E-18-8.42050E-19
 -1       918 9.52478E-05-2.85830E-05-2.85706E-05-1.78739E-09-1.90997E-18-4.10713E-19
 -1       919 9.52419E-05-2.85787E-05-2.85699E-05 9.90040E-09-1.97593E-18-5.19067E-19
 -1       920 9.52443E-05-2.85805E-05-2.85702E-05-8.22559E-09 2.29764E-19-9.06731E-19
 -1       921 9.52468E-05-2.85822E-05-2.85705E-05 5.20095E-09-2.29967E-18-7.71041E-19
 -1       922 6.08316E-05-1.36713E-05-2.00991E-05 5.61806E-06 1.26641E-19 1.69923E-18
 -1       923 9.52442E-05-2.85804E-05-2.85702E-05 8.25533E-09-2.46970E-18-2.95445E-18
 -1       924 6.84717E-05-1.78711E-05-2.16143E-05-1.35477E-05 1.16960E-18 1.58753E-18
 -1       925 8.84535E-05-2.78864E-05-2.59544E-05-1.49834E-05 8.53255E-19-1.29325E-18
 -1       926 8.78082E-05-2.53824E-05-2.67546E-05-1.15078E-05 3.61735E-19-9.63263E-20
 -1       927 8.81117E-05-2.41726E-05-2.74028E-05-8.91804E-06-3.12623E-19 3.43188E-19
 -1       928 8.88412E-05-2.37525E-05-2.78952E-05-6.98932E-06 8.25807E-19 8.89644E-20
 -1       929 8.97322E-05-2.38145E-05-2.82503E-05-5.52406E-06 3.67853E-19 2.71934E-19
 -1       930 9.06453E-05-2.41602E-05-2.84936E-05-4.38259E-06 3.16681E-19 4.82421E-19
 -1       931 9.15028E-05-2.46518E-05-2.86504E-05-3.47395E-06-6.10827E-19 5.39542E-19
 -1       932 9.22688E-05-2.52018E-05-2.87431E-05-2.73899E-06-5.76335E-19 4.93485E-19
 -1       933 9.29281E-05-2.57525E-05-2.87895E-05-2.14165E-06-1.33265E-18 3.24830E-19
 -1       934 9.34782E-05-2.62678E-05-2.88045E-05-1.65664E-06-1.70317E-18-1.00593E-18
 -1       935 9.39259E-05-2.67282E-05-2.87990E-05-1.26493E-06-1.12338E-18-2.54115E-18
 -1       936 9.42821E-05-2.71256E-05-2.87814E-05-9.51440E-07-5.38982E-19-1.81276E-18
 -1       937 9.45596E-05-2.74590E-05-2.87574E-05-7.03460E-07-4.72965E-19-1.09756E-18
 -1       938 9.47713E-05-2.77322E-05-2.87310E-05-5.09921E-07 1.98793E-19-8.78814E-19
 -1       939 9.49294E-05-2.79513E-05-2.87049E-05-3.61096E-07 3.59841E-19-1.31615E-18
 -1       940 9.50449E-05-2.81235E-05-2.86806E-05-2.48494E-07-8.30602E-19-5.39673E-19
 -1       941 9.51271E-05-2.82563E-05-2.86589E-05-1.64804E-07-6.20343E-19-4.39249E-20
 -1       942 9.51838E-05-2.83566E-05-2.86402E-05-1.03833E-07 6.70172E-19 2.59349E-19
 -1       943 9.52215E-05-2.84310E-05-2.86245E-05-6.04296E-08 1.19390E-18-8.41191E-19
 -1       944 9.52452E-05-2.84849E-05-2.86116E-05-3.03779E-08-1.88005E-19 4.94084E-19
 -1       945 9.52591E-05-2.85229E-05-2.86012E-05-1.02909E-08-2.50172E-19-3.37001E-20
 -1       946 9.52660E-05-2.85489E-05-2.85930E-05 2.50805E-09 7.13800E-19-1.73307E-18
 -1       947 9.52682E-05-2.85659E-05-2.85867E-05 1.00982E-08-4.85187E-19-2.28176E-18
 -1       948 9.52676E-05-2.85765E-05-2.85819E-05 1.40661E-08-5.44902E-19-2.45887E-18
 -1       949 9.52652E-05-2.85826E-05-2.85783E-05 1.56002E-08-8.46786E-19-1.56317E-18
 -1       950 9.52619E-05-2.85854E-05-2.85756E-05 1.55720E-08-1.79907E-19-1.05251E-18
 -1       951 9.52582E-05-2.85862E-05-2.85737E-05 1.46065E-08 5.01985E-19-2.16642E-18
 -1       952 9.52546E-05-2.85857E-05-2.85724E-05 1.31406E-08-1.30019E-18-1.59048E-18
 -1       953 9.52512E-05-2.85844E-05-2.85715E-05 1.14679E-08-1.34958E-19 5.17336E-19
 -1       954 9.52482E-05-2.85829E-05-2.85708E-05 9.77154E-09-1.46313E-18-1.74844E-18
 -1       955 8.90381E-05-2.30862E-05-2.82651E-05 5.77425E-06-7.90053E-19-4.33137E-19
 -1       956 8.77075E-05-2.27040E-05-2.78591E-05 7.19092E-06-9.98578E-19-7.96946E-20
 -1       957 9.12897E-05-2.43346E-05-2.86951E-05 3.76114E-06-1.20584E-18 6.46498E-19
 -1       958 9.21715E-05-2.50040E-05-2.87862E-05 3.01321E-06-1.15800E-18 1.26503E-18
 -1       959 9.28975E-05-2.56340E-05-2.88273E-05 2.38857E-06-4.96298E-19-1.32663E-19
 -1       960 9.34830E-05-2.62000E-05-2.88356E-05 1.86909E-06 6.50330E-19-5.42701E-19
 -1       961 9.39464E-05-2.66915E-05-2.88236E-05 1.44112E-06 1.29905E-19-5.73570E-19
 -1       962 9.43071E-05-2.71068E-05-2.88002E-05 1.09303E-06 1.17151E-19-3.95827E-19
 -1       963 9.45830E-05-2.74500E-05-2.87713E-05 8.14050E-07 2.46373E-19 2.02935E-19
 -1       964 9.47905E-05-2.77280E-05-2.87411E-05 5.94010E-07 6.30123E-21-1.41053E-19
 -1       965 9.49438E-05-2.79491E-05-2.87120E-05 4.23342E-07-3.56055E-19 8.05426E-19
 -1       966 9.50546E-05-2.81219E-05-2.86855E-05 2.93281E-07-3.01356E-19 1.09176E-18
 -1       967 9.51330E-05-2.82547E-05-2.86621E-05 1.96012E-07-6.28499E-19 2.37442E-18
 -1       968 9.51867E-05-2.83549E-05-2.86422E-05 1.24749E-07-7.27815E-19 2.38218E-18
 -1       969 9.52223E-05-2.84290E-05-2.86257E-05 7.37400E-08-4.98813E-19 1.99161E-18
 -1       970 9.52447E-05-2.84828E-05-2.86122E-05 3.82183E-08-1.54572E-19 1.74934E-18
 -1       971 9.52576E-05-2.85208E-05-2.86015E-05 1.43151E-08-1.60646E-19 3.21623E-18
 -1       972 9.52641E-05-2.85469E-05-2.85931E-05-1.05025E-09 2.56604E-20 4.14611E-18
 -1       973 9.52662E-05-2.85642E-05-2.85866E-05-1.02847E-08 6.91227E-19 3.66284E-18
 -1       974 9.52656E-05-2.85750E-05-2.85817E-05-1.52342E-08-5.70785E-19 1.52722E-18
 -1       975 9.52634E-05-2.85812E-05-2.85781E-05-1.72872E-08 1.10311E-21 1.58585E-18
 -1       976 9.52603E-05-2.85843E-05-2.85754E-05-1.74663E-08 6.01086E-19 9.37339E-19
 -1       977 9.52569E-05-2.85853E-05-2.85735E-05-1.65075E-08-2.00799E-18 1.22026E-19
 -1       978 9.52535E-05-2.85850E-05-2.85722E-05-1.49276E-08-3.03043E-18-1.02275E-18
 -1       979 9.52503E-05-2.85839E-05-2.85713E-05-1.30738E-08-2.58647E-18-7.42952E-19
 -1       980 9.52475E-05-2.85825E-05-2.85707E-05-1.11668E-08-6.33661E-19-1.09360E-18
 -1       981 9.52458E-05-2.85814E-05-2.85704E-05-9.64742E-09-1.53303E-19-1.94730E-18
 -1       982 7.19767E-05-1.87726E-05-2.27486E-05 1.30785E-05-5.94441E-19-2.68205E-19
 -1       983 8.63398E-05-2.27152E-05-2.72687E-05 9.08997E-06-8.63060E-19-5.48115E-19
 -1       984 9.02424E-05-2.36690E-05-2.85315E-05 4.66364E-06-1.24497E-18-3.25483E-19
 -1       985 8.84935E-05-3.02181E-05-2.49570E-05-1.86789E-05 1.56171E-18-1.40187E-18
 -1       986 8.35409E-05-2.46204E-05-2.52476E-05 1.52730E-05-1.17723E-18-1.00817E-18
 -1       987 9.52467E-05-2.85822E-05-2.85705E-05-5.19937E-09-1.01034E-18-1.10869E-18
 -1       988 6.62040E-05-1.48817E-05-2.19438E-05-4.29845E-06 7.93027E-19 2.50327E-18
 -1       989 8.48221E-05-2.31954E-05-2.64134E-05 1.15961E-05-1.14845E-18-2.96031E-19
 -1       990 9.52502E-05-2.85843E-05-2.85711E-05 4.16805E-09-1.50748E-18-4.24229E-19
 -1       991 9.52509E-05-2.85848E-05-2.85712E-05 1.59123E-11-2.73749E-18-1.10235E-18
 -1       992 7.05838E-05-1.60695E-05-2.33446E-05 4.60661E-06 2.70734E-19-2.84883E-20
 -1       993 8.32960E-05-2.16720E-05-2.64103E-05-8.41159E-06 5.91690E-19-1.02487E-18
 -1       994 8.52322E-05-2.17769E-05-2.71951E-05-6.26267E-06 3.67585E-19 3.68252E-19
 -1       995 8.69663E-05-2.22023E-05-2.77561E-05-4.75262E-06 5.66167E-19 2.46662E-20
 -1       996 8.84874E-05-2.28094E-05-2.81477E-05-3.65474E-06 4.44811E-19-2.29930E-19
 -1       997 8.98095E-05-2.35140E-05-2.84126E-05-2.83767E-06-3.56839E-19-6.50781E-19
 -1       998 9.09343E-05-2.42376E-05-2.85847E-05-2.20341E-06-6.63548E-19-5.99246E-19
 -1       999 9.18831E-05-2.49437E-05-2.86886E-05-1.70782E-06-1.12586E-18-6.52976E-19
 -1      1000 9.26657E-05-2.55960E-05-2.87444E-05-1.31626E-06-2.16196E-18-9.83311E-19
 -1      1001 9.33009E-05-2.61773E-05-2.87674E-05-1.00514E-06-1.30737E-18 4.42752E-19
 -1      1002 9.38078E-05-2.66804E-05-2.87691E-05-7.58486E-07-3.59169E-19 1.53157E-18
 -1      1003 9.42054E-05-2.71047E-05-2.87576E-05-5.64227E-07-3.93343E-19 1.25320E-18
 -1      1004 9.45117E-05-2.74548E-05-2.87388E-05-4.12690E-07-1.33936E-18 5.09220E-19
 -1      1005 9.47432E-05-2.77377E-05-2.87167E-05-2.95862E-07-9.38786E-19-1.50193E-18
 -1      1006 9.49148E-05-2.79619E-05-2.86942E-05-2.07010E-07 1.16111E-19-2.73273E-18
 -1      1007 9.50391E-05-2.81363E-05-2.86727E-05-1.40471E-07-9.44737E-19-1.97104E-18
 -1      1008 9.51268E-05-2.82695E-05-2.86532E-05-9.15078E-08 1.99299E-19-1.88974E-18
 -1      1009 9.51869E-05-2.83691E-05-2.86362E-05-5.61988E-08 3.00779E-19-3.15312E-18
 -1      1010 9.52264E-05-2.84422E-05-2.86218E-05-3.13404E-08 1.16059E-18-4.20108E-18
 -1      1011 9.52508E-05-2.84946E-05-2.86098E-05-1.43505E-08 5.69118E-19-2.53895E-18
 -1      1012 9.52647E-05-2.85310E-05-2.86002E-05-3.17884E-09-6.70475E-19-9.00450E-19
 -1      1013 9.52713E-05-2.85556E-05-2.85925E-05 3.77780E-09-1.58186E-19-1.07087E-18
 -1      1014 9.52730E-05-2.85713E-05-2.85864E-05 7.75312E-09-8.50409E-19-1.45658E-18
 -1      1015 9.52717E-05-2.85808E-05-2.85818E-05 9.68044E-09-5.85628E-19-1.86667E-18
 -1      1016 9.52686E-05-2.85858E-05-2.85783E-05 1.02527E-08-7.98975E-19-2.85838E-18
 -1      1017 9.52646E-05-2.85879E-05-2.85758E-05 9.97318E-09 5.23489E-19-2.44479E-18
 -1      1018 9.52604E-05-2.85880E-05-2.85739E-05 9.19566E-09 6.35998E-19-8.84796E-19
 -1      1019 9.52562E-05-2.85870E-05-2.85725E-05 8.19343E-09-1.82183E-19-3.17251E-19
 -1      1020 9.52532E-05-2.85858E-05-2.85717E-05 6.04446E-09-2.22919E-18-2.19154E-19
 -1      1021 8.59867E-05-2.13867E-05-2.76863E-05 4.54372E-06-8.00444E-19-1.37684E-18
 -1      1022 9.17339E-05-2.47567E-05-2.87050E-05 1.90810E-06-7.63818E-20-1.31783E-18
 -1      1023 9.06898E-05-2.39659E-05-2.85965E-05 2.38046E-06-1.44618E-18-8.88406E-19
 -1      1024 9.32492E-05-2.60891E-05-2.87832E-05 1.18351E-06 4.70585E-19-1.42068E-18
 -1      1025 9.37781E-05-2.66190E-05-2.87827E-05 9.11219E-07-3.03008E-21-1.09984E-18
 -1      1026 9.41882E-05-2.70613E-05-2.87689E-05 6.89411E-07-3.59279E-19-9.86132E-19
 -1      1027 9.45014E-05-2.74234E-05-2.87478E-05 5.11606E-07-6.85850E-20-4.93283E-19
 -1      1028 9.47366E-05-2.77145E-05-2.87239E-05 3.71489E-07-6.24531E-19 2.16302E-19
 -1      1029 9.49101E-05-2.79444E-05-2.86996E-05 2.63021E-07-4.50437E-19 8.88198E-19
 -1      1030 9.50354E-05-2.81229E-05-2.86768E-05 1.80604E-07-1.25825E-18 7.33239E-19
 -1      1031 9.51237E-05-2.82591E-05-2.86563E-05 1.19213E-07-3.80284E-19 1.77604E-18
 -1      1032 9.51842E-05-2.83611E-05-2.86385E-05 7.44684E-08-2.52374E-19 1.34842E-18
 -1      1033 9.52239E-05-2.84360E-05-2.86234E-05 4.26546E-08-6.23312E-21 4.75234E-19
 -1      1034 9.52487E-05-2.84898E-05-2.86110E-05 2.06936E-08-1.16220E-18 1.01620E-18
 -1      1035 9.52629E-05-2.85274E-05-2.86010E-05 6.09070E-09-8.36260E-19 2.55824E-18
 -1      1036 9.52698E-05-2.85528E-05-2.85930E-05-3.13533E-09-1.17171E-19 2.14668E-18
 -1      1037 9.52718E-05-2.85693E-05-2.85868E-05-8.52733E-09 1.49852E-18 1.66614E-18
 -1      1038 9.52707E-05-2.85793E-05-2.85820E-05-1.12635E-08 5.11686E-19 4.46907E-19
 -1      1039 9.52678E-05-2.85847E-05-2.85785E-05-1.22257E-08 1.23484E-18-8.40076E-19
 -1      1040 9.52641E-05-2.85871E-05-2.85758E-05-1.20591E-08-4.87116E-19 8.00913E-19
 -1      1041 9.52600E-05-2.85875E-05-2.85739E-05-1.12224E-08-1.66842E-18 2.59953E-20
 -1      1042 9.52559E-05-2.85867E-05-2.85725E-05-1.00436E-08-1.91361E-18-4.11889E-19
 -1      1043 9.52522E-05-2.85852E-05-2.85716E-05-8.70453E-09-1.41923E-18-2.79736E-18
 -1      1044 9.52502E-05-2.85843E-05-2.85711E-05-4.12084E-09-1.55536E-18-1.98957E-18
 -1      1045 8.37066E-05-2.06104E-05-2.70421E-05 5.77431E-06-1.25805E-18-1.64040E-18
 -1      1046 8.12110E-05-2.21119E-05-2.53209E-05-1.15923E-05 7.81013E-19-1.21757E-18
 -1      1047 9.25771E-05-2.54678E-05-2.87615E-05 1.51310E-06 9.86273E-20-1.45953E-18
 -1      1048 8.00478E-05-2.35886E-05-2.41736E-05-1.56398E-05 1.28007E-18-1.03542E-18
 -1      1049 8.94152E-05-2.31185E-05-2.84133E-05 2.94606E-06-1.47155E-18-8.30064E-19
 -1      1050 9.52484E-05-2.85831E-05-2.85708E-05-7.15988E-09-1.35923E-18-1.62972E-18
 -1      1051 8.78629E-05-2.22409E-05-2.81239E-05 3.64729E-06-1.13598E-18-8.86558E-19
 -1      1052 9.52544E-05-2.85865E-05-2.85719E-05 1.32865E-09-1.06907E-18-7.78932E-19
 -1      1053 7.38559E-05-1.84554E-05-2.37209E-05-9.74779E-06 7.08264E-19 5.49691E-19
 -1      1054 7.75906E-05-1.95314E-05-2.48801E-05 9.78642E-06-7.32263E-19-1.68732E-18
 -1      1055 8.09731E-05-1.99634E-05-2.61493E-05 7.36870E-06-9.57032E-19-2.31946E-18
 -1      1056 9.41987E-05-2.71173E-05-2.87491E-05 3.24712E-07-6.06402E-19-5.36107E-19
 -1      1057 7.82736E-05-1.91069E-05-2.53546E-05-6.67473E-06 5.68757E-19 1.34619E-19
 -1      1058 9.06327E-05-2.39657E-05-2.85714E-05 1.06903E-06-4.51637E-19-2.41505E-18
 -1      1059 8.41899E-05-2.06101E-05-2.72486E-05-3.07404E-06 2.39993E-19-4.50466E-19
 -1      1060 8.64100E-05-2.15458E-05-2.77987E-05-2.25809E-06 1.84837E-19-4.79607E-19
 -1      1061 8.81313E-05-2.24060E-05-2.81661E-05-1.67443E-06-2.04569E-19-1.21106E-18
 -1      1062 8.96436E-05-2.33292E-05-2.84204E-05-1.24238E-06-9.07685E-19-1.97189E-18
 -1      1063 9.08760E-05-2.41853E-05-2.85821E-05-9.40328E-07-6.23478E-19-1.98639E-18
 -1      1064 9.18800E-05-2.49626E-05-2.86791E-05-7.08828E-07-1.09682E-18-1.53225E-18
 -1      1065 9.26921E-05-2.56533E-05-2.87311E-05-5.31693E-07-6.72948E-19-2.52804E-19
 -1      1066 9.33409E-05-2.62521E-05-2.87524E-05-3.95996E-07-4.29265E-20-1.25466E-19
 -1      1067 9.38518E-05-2.67596E-05-2.87539E-05-2.92089E-07-7.22271E-19-4.84870E-19
 -1      1068 9.42479E-05-2.71807E-05-2.87431E-05-2.12768E-07-1.27051E-18-7.94255E-19
 -1      1069 9.45499E-05-2.75233E-05-2.87257E-05-1.52565E-07-1.73109E-18-3.09310E-19
 -1      1070 9.47761E-05-2.77969E-05-2.87053E-05-1.07249E-07-1.73834E-19 4.65580E-19
 -1      1071 9.49420E-05-2.80115E-05-2.86845E-05-7.35076E-08-1.90462E-21 4.11968E-19
 -1      1072 9.50610E-05-2.81768E-05-2.86646E-05-4.87168E-08-1.14727E-18-1.72715E-19
 -1      1073 9.51441E-05-2.83018E-05-2.86467E-05-3.07969E-08-6.89239E-19-1.41662E-18
 -1      1074 9.52002E-05-2.83944E-05-2.86310E-05-1.80992E-08-2.97736E-19-2.98675E-18
 -1      1075 9.52363E-05-2.84616E-05-2.86178E-05-9.32327E-09 1.26374E-18-3.31169E-18
 -1      1076 9.52582E-05-2.85091E-05-2.86068E-05-3.45061E-09 1.49566E-18-4.88621E-18
 -1      1077 9.52700E-05-2.85417E-05-2.85978E-05 3.08882E-10 8.03473E-19-4.22442E-18
 -1      1078 9.52750E-05-2.85632E-05-2.85908E-05 2.56122E-09 8.64710E-19-2.83146E-18
 -1      1079 9.52755E-05-2.85766E-05-2.85852E-05 3.76517E-09-9.41295E-19-1.08220E-18
 -1      1080 9.52732E-05-2.85843E-05-2.85810E-05 4.26296E-09-1.27085E-18-7.86554E-19
 -1      1081 9.52695E-05-2.85881E-05-2.85777E-05 4.30593E-09-1.22350E-18-6.96896E-19
 -1      1082 9.52651E-05-2.85892E-05-2.85754E-05 4.07752E-09 7.84710E-19-2.13117E-18
 -1      1083 9.52605E-05-2.85887E-05-2.85736E-05 3.66310E-09 1.58024E-18-1.93717E-18
 -1      1084 9.52572E-05-2.85877E-05-2.85727E-05 2.32515E-09 1.10231E-18-2.02528E-18
 -1      1085 8.14242E-05-1.96902E-05-2.64575E-05-4.27310E-06 7.91446E-19 3.50641E-20
 -1      1086 9.37847E-05-2.66786E-05-2.87596E-05 4.28250E-07-4.33689E-19-6.18626E-19
 -1      1087 9.32491E-05-2.61486E-05-2.87571E-05 5.53532E-07 1.93036E-19-9.30534E-19
 -1      1088 9.45139E-05-2.74739E-05-2.87313E-05 2.40931E-07-7.73932E-19-5.42733E-20
 -1      1089 9.47497E-05-2.77586E-05-2.87104E-05 1.74532E-07-8.68644E-19 4.15168E-19
 -1      1090 9.49229E-05-2.79820E-05-2.86889E-05 1.22985E-07-6.60414E-19 2.54533E-19
 -1      1091 9.50473E-05-2.81543E-05-2.86684E-05 8.37979E-08-9.31595E-19-2.92029E-19
 -1      1092 9.51344E-05-2.82848E-05-2.86498E-05 5.46511E-08-1.46089E-18 4.13064E-19
 -1      1093 9.51935E-05-2.83818E-05-2.86336E-05 3.34800E-08-5.72433E-19 2.83706E-18
 -1      1094 9.52319E-05-2.84523E-05-2.86198E-05 1.85096E-08-1.58077E-20 2.72412E-18
 -1      1095 9.52553E-05-2.85025E-05-2.86084E-05 8.25895E-09-5.97256E-19 1.40040E-18
 -1      1096 9.52682E-05-2.85370E-05-2.85991E-05 1.52300E-09-9.42073E-20 5.78622E-19
 -1      1097 9.52740E-05-2.85600E-05-2.85917E-05-2.65606E-09 1.28091E-18-9.71147E-19
 -1      1098 9.52751E-05-2.85746E-05-2.85859E-05-5.02345E-09 1.43570E-18-1.52818E-18
 -1      1099 9.52732E-05-2.85831E-05-2.85815E-05-6.14696E-09 7.04594E-19-8.43236E-21
 -1      1100 9.52697E-05-2.85874E-05-2.85781E-05-6.45032E-09 1.57305E-20 2.13463E-18
 -1      1101 9.52654E-05-2.85889E-05-2.85756E-05-6.24365E-09-2.46770E-19 1.52710E-18
 -1      1102 9.52609E-05-2.85886E-05-2.85738E-05-5.74527E-09-3.60218E-19-1.88511E-19
 -1      1103 9.52564E-05-2.85873E-05-2.85725E-05-5.13001E-09-6.38453E-19-1.68530E-18
 -1      1104 8.32146E-05-1.99533E-05-2.71125E-05 2.24062E-06-1.10101E-18-1.01665E-18
 -1      1105 8.57402E-05-2.10639E-05-2.77193E-05 1.83083E-06-6.69274E-19-1.38256E-18
 -1      1106 8.93046E-05-2.30501E-05-2.83956E-05 1.28687E-06-1.34750E-18-2.80639E-18
 -1      1107 9.52538E-05-2.85863E-05-2.85718E-05-2.29715E-09-6.73677E-19-1.02840E-18
 -1      1108 7.32422E-05-1.66401E-05-2.42507E-05-2.08919E-06-8.05039E-20 2.46113E-18
 -1      1109 9.17056E-05-2.47926E-05-2.86768E-05 8.73923E-07 4.74296E-20-2.30329E-18
 -1      1110 9.25660E-05-2.55209E-05-2.87334E-05 7.01916E-07-1.84615E-20-1.43510E-18
 -1      1111 8.77338E-05-2.20994E-05-2.81257E-05 1.52827E-06-1.63213E-18-2.47095E-18
 -1      1112 8.01001E-05-1.88028E-05-2.62705E-05 2.69603E-06-9.77806E-19-2.52816E-19
 -1      1113 7.62391E-05-1.76462E-05-2.51098E-05 3.76104E-06-6.03058E-19-3.05572E-19
 -1      1114 8.19596E-05-1.94336E-05-2.67999E-05-3.01721E-07-2.98938E-19 8.22377E-20
 -1      1115 8.68872E-05-2.16578E-05-2.79675E-05 3.54663E-08-7.34980E-19-1.89417E-18
 -1      1116 7.78819E-05-1.80166E-05-2.56553E-05-9.85976E-07-2.14618E-19 1.26200E-18
 -1      1117 8.47430E-05-2.05884E-05-2.74951E-05-9.68471E-08-1.50487E-21-1.17425E-18
 -1      1118 1.42120E-04 3.24957E-10-5.10269E-05-4.69959E-05-4.00647E-19 1.01523E-17
 -1      1119 1.06552E-04 9.98660E-11-4.44941E-05-2.40418E-05-1.87830E-19 7.01926E-19
 -1      1120 9.70368E-05 6.69695E-11-4.09983E-05-1.45228E-05-1.17526E-19-3.05616E-18
 -1      1121 8.99152E-05 5.91625E-11-3.79800E-05-7.28269E-06-6.37392E-20-4.71230E-18
 -1      1122 8.24905E-05 5.13858E-11-3.48591E-05-8.50478E-07-2.75286E-20-5.46842E-18
 -1      1123 7.40812E-05 3.61137E-11-3.14653E-05 4.21486E-06-7.83505E-21-5.80861E-18
 -1      1124 6.52823E-05 1.21240E-11-2.80466E-05 6.81823E-06 5.92923E-21-5.97081E-18
 -1      1125 5.78437E-05-1.38626E-11-2.52383E-05 6.25226E-06 1.01644E-20-6.05493E-18
 -1      1126 5.38303E-05-3.06576E-11-2.37516E-05 2.95016E-06 1.42407E-20-6.05938E-18
 -1      1127 5.46100E-05-2.88011E-11-2.40624E-05-1.28222E-06 1.87406E-20-5.91470E-18
 -1      1128 6.00956E-05-9.22677E-12-2.61455E-05-4.17093E-06 2.58345E-20-5.60004E-18
 -1      1129 6.87938E-05 1.77838E-11-2.94948E-05-4.12640E-06 3.38813E-20-5.11757E-18
 -1      1130 7.86484E-05 4.11693E-11-3.33933E-05-9.06252E-07 5.84453E-20-4.30673E-18
 -1      1131 8.83129E-05 5.69647E-11-3.73482E-05 4.71827E-06 8.36445E-20-3.06844E-18
 -1      1132 9.77839E-05 7.06715E-11-4.12892E-05 1.20306E-05 1.31714E-19-8.57621E-19
 -1      1133 1.08967E-04 1.01902E-10-4.56298E-05 2.18263E-05 1.55007E-19 3.38628E-18
 -1      1134 1.34646E-04 2.24310E-10-5.12130E-05 3.96098E-05 3.74812E-19 1.22985E-17
 -1      1135 1.60703E-04-3.24955E-05-4.97854E-05-2.99259E-05-1.53228E-18 1.60610E-17
 -1      1136 1.25456E-04-3.71920E-05-4.01317E-05-4.48815E-07-4.81009E-19 1.27907E-17
 -1      1137 1.16682E-04-3.49081E-05-3.56430E-05 3.54732E-07-2.01859E-19 8.26108E-18
 -1      1138 1.10624E-04-3.32248E-05-3.30866E-05-4.52143E-08-1.52279E-19 5.24129E-18
 -1      1139 1.03432E-04-3.10735E-05-3.08952E-05-3.27957E-07-8.40167E-20 3.12891E-18
 -1      1140 9.54969E-05-2.87166E-05-2.87157E-05-4.40285E-07 2.80927E-20 1.80148E-18
 -1      1141 8.86553E-05-2.67098E-05-2.69056E-05-3.36394E-07-7.50881E-20 1.02687E-18
 -1      1142 8.51618E-05-2.56897E-05-2.59960E-05-4.46807E-08-2.89976E-20-1.84891E-20
 -1      1143 8.63106E-05-2.60123E-05-2.62901E-05 2.95259E-07-5.44483E-20-1.30358E-18
 -1      1144 9.15457E-05-2.75191E-05-2.76556E-05 5.16643E-07-6.96155E-21-2.55862E-18
 -1      1145 9.87781E-05-2.96203E-05-2.95883E-05 5.41956E-07-3.82447E-21-3.48162E-18
 -1      1146 1.05601E-04-3.16234E-05-3.14770E-05 4.13815E-07 9.22339E-20-3.51815E-18
 -1      1147 1.10394E-04-3.30476E-05-3.28694E-05 2.30512E-07-2.38691E-20-4.02881E-18
 -1      1148 1.12665E-04-3.37367E-05-3.35879E-05 7.09882E-08-7.93630E-20-4.37294E-18
 -1      1149 1.12758E-04-3.37819E-05-3.36865E-05-3.25091E-08-1.22102E-19-5.60521E-18
 -1      1150 1.11367E-04-3.33835E-05-3.33378E-05-8.25443E-08-1.63062E-19-5.86189E-18
 -1      1151 1.09185E-04-3.27451E-05-3.27339E-05-9.55946E-08-6.11253E-20-6.12667E-18
 -1      1152 1.06741E-04-3.20235E-05-3.20317E-05-8.83159E-08 1.78921E-20-6.22189E-18
 -1      1153 1.04372E-04-3.13204E-05-3.13368E-05-7.25611E-08-1.39463E-21-7.62745E-18
 -1      1154 1.02260E-04-3.06907E-05-3.07087E-05-5.52020E-08 3.48342E-20-7.39964E-18
 -1      1155 1.00478E-04-3.01575E-05-3.01738E-05-3.95438E-08-2.91009E-19-7.04440E-18
 -1      1156 9.90349E-05-2.97242E-05-2.97376E-05-2.67786E-08-7.60258E-20-5.51761E-18
 -1      1157 9.79025E-05-2.93833E-05-2.93937E-05-1.70177E-08 4.90837E-20-3.69478E-18
 -1      1158 9.70389E-05-2.91225E-05-2.91302E-05-9.90429E-09-3.35666E-19-5.01278E-18
 -1      1159 9.63973E-05-2.89283E-05-2.89337E-05-4.93637E-09 7.12972E-20-5.73390E-18
 -1      1160 9.59332E-05-2.87873E-05-2.87910E-05-1.61812E-09-3.38617E-20-2.89720E-18
 -1      1161 9.56073E-05-2.86880E-05-2.86904E-05 4.80027E-10-4.21035E-20-1.94315E-18
 -1      1162 9.53864E-05-2.86204E-05-2.86219E-05 1.70543E-09-1.61818E-19-4.78672E-18
 -1      1163 9.52432E-05-2.85764E-05-2.85772E-05 2.32706E-09-2.88195E-20-4.99007E-18
 -1      1164 9.51563E-05-2.85494E-05-2.85498E-05 2.54666E-09 1.21563E-19-5.39831E-18
 -1      1165 9.51091E-05-2.85346E-05-2.85346E-05 2.51152E-09-3.05959E-20-4.25436E-18
 -1      1166 9.50888E-05-2.85279E-05-2.85278E-05 2.32643E-09-6.00714E-21-4.75636E-18
 -1      1167 9.50860E-05-2.85267E-05-2.85265E-05 2.06379E-09 1.66202E-19-4.23964E-18
 -1      1168 9.50941E-05-2.85288E-05-2.85285E-05 1.77196E-09 2.70115E-20-3.03647E-18
 -1      1169 9.51082E-05-2.85328E-05-2.85325E-05 1.48177E-09-2.13085E-19-4.52664E-18
 -1      1170 9.51250E-05-2.85377E-05-2.85374E-05 1.21158E-09 9.50508E-20-3.75832E-18
 -1      1171 9.51424E-05-2.85428E-05-2.85426E-05 9.71114E-10-8.37085E-20-3.97954E-18
 -1      1172 9.51590E-05-2.85477E-05-2.85475E-05 7.64299E-10 2.11292E-19-2.57462E-18
 -1      1173 9.51742E-05-2.85522E-05-2.85521E-05 5.91364E-10 1.93445E-19-1.32459E-18
 -1      1174 9.51875E-05-2.85562E-05-2.85560E-05 4.50302E-10-3.48917E-20 1.37609E-18
 -1      1175 9.51988E-05-2.85596E-05-2.85595E-05 3.37900E-10-3.42041E-19 2.80971E-18
 -1      1176 9.52084E-05-2.85624E-05-2.85624E-05 2.50402E-10 2.25940E-20 3.90120E-18
 -1      1177 9.52162E-05-2.85648E-05-2.85647E-05 1.83902E-10-4.72939E-19 2.29577E-18
 -1      1178 9.52225E-05-2.85667E-05-2.85666E-05 1.34469E-10-1.07168E-19 1.52381E-18
 -1      1179 9.52276E-05-2.85682E-05-2.85682E-05 9.79937E-11-1.74680E-19-3.44088E-19
 -1      1180 9.52315E-05-2.85694E-05-2.85694E-05 6.95924E-11 4.99973E-19 1.50364E-18
 -1      1181 9.52344E-05-2.85703E-05-2.85702E-05 4.22479E-11 5.74592E-19 3.57193E-18
 -1      1182 9.52364E-05-2.85709E-05-2.85708E-05 3.84057E-12 5.03086E-19 6.47094E-18
 -1      1183 9.52373E-05-2.85711E-05-2.85711E-05-6.89889E-11-3.94062E-19 3.39200E-18
 -1      1184 9.52373E-05-2.85712E-05-2.85713E-05-6.48748E-11 5.53190E-19 1.88983E-18
 -1      1185 1.66718E-04-4.78137E-05-4.97129E-05 1.37854E-05-2.13346E-19 1.98066E-17
 -1      1186 1.31944E-04-3.86262E-05-4.20430E-05 4.54134E-07 1.09003E-19 1.57462E-17
 -1      1187 1.25522E-04-3.74007E-05-3.80901E-05-1.26445E-07 1.02180E-19 1.19724E-17
 -1      1188 1.19474E-04-3.58173E-05-3.55879E-05-3.30958E-08 3.21178E-20 9.54773E-18
 -1      1189 1.11152E-04-3.34175E-05-3.30480E-05 2.29984E-07 3.47846E-20 7.61271E-18
 -1      1190 1.00928E-04-3.04082E-05-3.02542E-05 5.33505E-07-6.79942E-21 5.97476E-18
 -1      1191 9.14197E-05-2.75486E-05-2.77988E-05 6.76994E-07-7.94954E-20 5.70943E-18
 -1      1192 8.62324E-05-2.59085E-05-2.65145E-05 5.13016E-07-2.42066E-20 5.64214E-18
 -1      1193 8.76093E-05-2.62269E-05-2.68848E-05 9.84751E-08-9.89970E-21 4.24792E-18
 -1      1194 9.46904E-05-2.83210E-05-2.86957E-05-3.26729E-07 6.21577E-20 3.08585E-18
 -1      1195 1.04107E-04-3.11818E-05-3.11609E-05-5.48354E-07 1.61469E-19 1.78978E-18
 -1      1196 1.12267E-04-3.36801E-05-3.33920E-05-5.28616E-07 1.11507E-19 9.62018E-19
 -1      1197 1.17156E-04-3.51743E-05-3.48225E-05-3.68064E-07-1.23084E-20 1.27044E-18
 -1      1198 1.18580E-04-3.56031E-05-3.53239E-05-1.84102E-07-8.61161E-20 5.98521E-19
 -1      1199 1.17400E-04-3.52395E-05-3.50729E-05-4.25148E-08 2.37558E-19-1.31282E-18
 -1      1200 1.14722E-04-3.44263E-05-3.43556E-05 4.22342E-08-1.11008E-19-2.26104E-18
 -1      1201 1.11458E-04-3.34407E-05-3.34318E-05 8.08783E-08-1.70422E-19-2.48578E-19
 -1      1202 1.08200E-04-3.24604E-05-3.24835E-05 9.01986E-08 2.44244E-19-2.61376E-18
 -1      1203 1.05264E-04-3.15793E-05-3.16144E-05 8.40880E-08-1.48636E-19-3.08774E-18
 -1      1204 1.02780E-04-3.08345E-05-3.08708E-05 7.15457E-08 9.60026E-20-2.71080E-18
 -1      1205 1.00766E-04-3.02308E-05-3.02634E-05 5.75717E-08 1.54339E-19-2.90711E-18
 -1      1206 9.91833E-05-2.97565E-05-2.97836E-05 4.45770E-08-1.88165E-19-1.98990E-18
 -1      1207 9.79717E-05-2.93933E-05-2.94149E-05 3.35013E-08 1.84546E-19-9.97983E-19
 -1      1208 9.70653E-05-2.91214E-05-2.91381E-05 2.45308E-08-2.64017E-19-5.63848E-19
 -1      1209 9.64023E-05-2.89224E-05-2.89350E-05 1.75093E-08 2.54612E-20 1.84256E-19
 -1      1210 9.59287E-05-2.87802E-05-2.87895E-05 1.21534E-08 8.43813E-20-8.00580E-19
 -1      1211 9.55996E-05-2.86813E-05-2.86880E-05 8.15683E-09-2.95860E-19-1.24893E-18
 -1      1212 9.53785E-05-2.86147E-05-2.86194E-05 5.23680E-09-1.54971E-19-2.56466E-18
 -1      1213 9.52365E-05-2.85719E-05-2.85751E-05 3.15021E-09-4.64517E-20-2.16873E-18
 -1      1214 9.51510E-05-2.85461E-05-2.85482E-05 1.69669E-09-7.65190E-20-2.16618E-18
 -1      1215 9.51052E-05-2.85322E-05-2.85335E-05 7.15512E-10-1.28723E-19-2.83529E-18
 -1      1216 9.50860E-05-2.85263E-05-2.85271E-05 8.02798E-11 1.21677E-19-4.43126E-18
 -1      1217 9.50841E-05-2.85256E-05-2.85260E-05-3.06724E-10 1.76852E-19-3.38974E-18
 -1      1218 9.50929E-05-2.85281E-05-2.85283E-05-5.19867E-10-3.60309E-19-9.41760E-19
 -1      1219 9.51074E-05-2.85324E-05-2.85324E-05-6.14844E-10-5.61231E-19-3.18564E-20
 -1      1220 9.51245E-05-2.85375E-05-2.85374E-05-6.32651E-10-2.13005E-20 3.71096E-19
 -1      1221 9.51421E-05-2.85427E-05-2.85425E-05-6.02886E-10 1.40870E-19-2.85090E-18
 -1      1222 9.51588E-05-2.85477E-05-2.85475E-05-5.46438E-10-2.41519E-20-3.14435E-18
 -1      1223 9.51741E-05-2.85523E-05-2.85521E-05-4.77652E-10 6.77314E-20-1.77119E-18
 -1      1224 9.51874E-05-2.85563E-05-2.85561E-05-4.06058E-10-6.84857E-20-3.23295E-18
 -1      1225 9.51988E-05-2.85597E-05-2.85595E-05-3.37708E-10-2.54591E-19-2.19116E-18
 -1      1226 9.52084E-05-2.85625E-05-2.85624E-05-2.76225E-10-9.56601E-20-7.70600E-19
 -1      1227 9.52162E-05-2.85649E-05-2.85647E-05-2.23580E-10-4.10353E-21-3.08499E-18
 -1      1228 9.52225E-05-2.85668E-05-2.85667E-05-1.80650E-10-7.10694E-20-4.44081E-18
 -1      1229 9.52276E-05-2.85683E-05-2.85682E-05-1.47445E-10-8.15843E-20-6.09803E-18
 -1      1230 9.52315E-05-2.85694E-05-2.85694E-05-1.22886E-10-2.96744E-19-3.91461E-18
 -1      1231 9.52344E-05-2.85703E-05-2.85702E-05-1.03768E-10-1.53835E-19-5.02419E-18
 -1      1232 9.52364E-05-2.85709E-05-2.85708E-05-7.86668E-11 1.91567E-19-7.50726E-18
 -1      1233 9.52373E-05-2.85712E-05-2.85711E-05-1.71572E-11 7.36328E-19-8.84661E-18
 -1      1234 9.52373E-05-2.85712E-05-2.85713E-05 5.87286E-11 2.57146E-19-5.37688E-18
 -1      1235 9.52371E-05-2.85710E-05-2.85713E-05 5.82574E-11-6.31901E-18-3.52369E-19
 -1      1236 9.52371E-05-2.85710E-05-2.85711E-05 5.72427E-11-1.12478E-17-2.37855E-19
 -1      1237 9.52374E-05-2.85720E-05-2.85708E-05-3.56641E-11-5.60587E-18 1.16305E-18
 -1      1238 9.52379E-05-2.85738E-05-2.85703E-05-8.22307E-11 4.35408E-19-2.30075E-20
 -1      1239 9.52386E-05-2.85760E-05-2.85697E-05-9.71774E-11 7.81001E-18 5.13710E-19
 -1      1240 9.52392E-05-2.85781E-05-2.85691E-05-8.96482E-11 7.80997E-18-4.75158E-19
 -1      1241 9.52398E-05-2.85800E-05-2.85685E-05-6.86897E-11 3.14774E-18 4.87569E-19
 -1      1242 9.52401E-05-2.85812E-05-2.85682E-05-3.65868E-11 3.74179E-18 5.21558E-19
 -1      1243 9.52403E-05-2.85816E-05-2.85681E-05 3.08068E-13 2.79264E-18-5.46231E-19
 -1      1244 9.52401E-05-2.85812E-05-2.85682E-05 3.71810E-11 3.72098E-18-3.38824E-19
 -1      1245 9.52398E-05-2.85800E-05-2.85686E-05 6.90764E-11-3.40257E-18-1.21070E-18
 -1      1246 9.52392E-05-2.85781E-05-2.85691E-05 9.10931E-11-5.12948E-18 3.36982E-19
 -1      1247 9.52386E-05-2.85759E-05-2.85697E-05 9.71476E-11-3.57660E-18 2.69154E-19
 -1      1248 9.52379E-05-2.85737E-05-2.85703E-05 8.30543E-11-9.80204E-19 2.39075E-19
 -1      1249 9.52374E-05-2.85719E-05-2.85708E-05 4.31337E-11-2.31941E-18-4.50065E-19
 -1      1250 9.52372E-05-2.85711E-05-2.85711E-05-1.04545E-10-3.93630E-18-4.46094E-19
 -1      1251 9.52371E-05-2.85709E-05-2.85713E-05-6.80936E-11-1.87388E-18 5.79005E-19
 -1      1252 3.02826E-05-9.69999E-05 1.56247E-05-1.20972E-05 8.00827E-18 1.99209E-18
 -1      1253 1.60034E-05-5.77444E-05 7.10189E-06-2.15900E-05 1.72049E-17 6.90417E-18
 -1      1254 7.98632E-06-3.48395E-06-8.21993E-06 4.30700E-06 2.03576E-17 1.28436E-17
 -1      1255 3.49887E-05 2.62930E-05-2.70508E-05 5.52535E-05 1.78402E-17 1.69271E-17
 -1      1256 1.04825E-04 1.51480E-05-4.63467E-05 1.01326E-04 1.18906E-17 1.64731E-17
 -1      1257 2.00897E-04-2.91691E-05-6.32255E-05 1.10910E-04 5.29777E-18 1.05710E-17
 -1      1258 2.83254E-04-7.76601E-05-7.42279E-05 6.75797E-05 6.68838E-19 8.46186E-19
 -1      1259 3.05917E-04-9.28047E-05-7.67086E-05-1.19238E-05 1.05074E-18-1.13462E-17
 -1      1260 2.55481E-04-6.32816E-05-7.01375E-05-8.13592E-05 6.20452E-18-2.21541E-17
 -1      1261 1.61047E-04-1.33721E-05-5.60023E-05-1.05256E-04 1.41853E-17-2.76658E-17
 -1      1262 7.07482E-05 2.05608E-05-3.78004E-05-7.94776E-05 2.13097E-17-2.64901E-17
 -1      1263 1.78280E-05 1.60862E-05-1.86562E-05-2.94145E-05 2.40252E-17-1.99671E-17
 -1      1264 6.70460E-06-1.96608E-05-2.51487E-06 9.86444E-06 2.11199E-17-1.13083E-17
 -1      1265 1.83311E-05-6.12360E-05 8.12773E-06 1.87972E-05 1.27241E-17-4.23464E-18
 -1      1266 2.68131E-05-8.16739E-05 1.26081E-05 3.64975E-06 4.75715E-19-1.12354E-18
 -1      1267 2.21071E-05-6.96080E-05 9.99790E-06-1.46760E-05-1.16649E-17-3.03195E-18
 -1      1268 9.10996E-06-3.16239E-05 1.14911E-06-1.42011E-05-2.03694E-17-8.94128E-18
 -1      1269 8.72945E-06 8.07227E-06-1.26058E-05 1.37258E-05-2.46190E-17-1.70542E-17
 -1      1270 4.08784E-05 2.61957E-05-2.97113E-05 6.00300E-05-2.34933E-17-2.42201E-17
 -1      1271 1.17967E-04 6.13988E-06-4.84233E-05 9.99367E-05-1.70550E-17-2.67002E-17
 -1      1272 2.19991E-04-4.37534E-05-6.50953E-05 9.57836E-05-8.39452E-18-2.28140E-17
 -1      1273 2.91705E-04-8.50845E-05-7.47059E-05 3.94602E-05-2.05824E-18-1.27999E-17
 -1      1274 2.95851E-04-8.68909E-05-7.54193E-05-4.14032E-05-6.22966E-19-4.61421E-19
 -1      1275 2.26385E-04-4.42508E-05-6.67311E-05-1.01451E-04-4.99834E-18 1.20812E-17
 -1      1276 1.25314E-04 7.11201E-06-5.03738E-05-1.07756E-04-1.19855E-17 1.88380E-17
 -1      1277 4.42443E-05 2.79647E-05-3.05102E-05-6.51568E-05-1.68526E-17 1.71355E-17
 -1      1278 9.11926E-06 2.66122E-06-1.04857E-05-1.02628E-05-1.86534E-17 1.21185E-17
 -1      1279 1.43854E-05-5.20066E-05 5.94459E-06 1.98950E-05-1.41073E-17 5.85808E-18
 -1      1280 3.10346E-05-9.71438E-05 1.53578E-05 1.24109E-05-2.84772E-18 1.54417E-18
 -1      1281 1.29801E-04-2.79357E-05-4.66040E-05-1.84455E-05-5.60101E-19 7.92166E-18
 -1      1282 1.08499E-04-9.36755E-06-4.26253E-05-1.99683E-05-1.26557E-18-1.05069E-18
 -1      1283 1.13168E-04-9.55961E-06-4.48011E-05-2.70027E-05-1.74955E-18 9.09184E-19
 -1      1284 9.93832E-05-6.66330E-06-3.97162E-05-1.33215E-05-1.04810E-18-3.74510E-18
 -1      1285 1.02979E-04-6.64382E-06-4.12451E-05-1.72110E-05-1.30655E-18-2.61839E-18
 -1      1286 1.10751E-04-1.52564E-05-4.10139E-05-1.88034E-05-2.13786E-18-7.67518E-19
 -1      1287 9.21947E-05-5.94288E-06-3.68720E-05-6.58287E-06-6.35486E-19-4.97822E-18
 -1      1288 9.56964E-05-5.90598E-06-3.83608E-05-9.96302E-06-8.11563E-19-4.46188E-18
 -1      1289 1.01807E-04-1.23862E-05-3.84156E-05-1.26734E-05-1.52156E-18-3.01374E-18
 -1      1290 8.40898E-05-5.15791E-06-3.37641E-05-3.34033E-07-1.60725E-19-5.57485E-18
 -1      1291 8.81950E-05-5.19088E-06-3.53928E-05-3.28009E-06-3.00167E-19-5.31558E-18
 -1      1292 9.39291E-05-1.09381E-05-3.56552E-05-6.02751E-06-7.64977E-19-4.08032E-18
 -1      1293 7.42971E-05-3.57843E-06-3.03614E-05 4.53335E-06 1.55748E-19-5.88902E-18
 -1      1294 7.91149E-05-3.70806E-06-3.21159E-05 2.45642E-06 7.32683E-20-5.78886E-18
 -1      1295 8.45657E-05-8.81008E-06-3.25635E-05 1.58167E-07-6.63597E-20-4.66834E-18
 -1      1296 6.36849E-05-1.09892E-06-2.70292E-05 6.78236E-06 3.69624E-19-6.05066E-18
 -1      1297 6.85559E-05-1.29595E-06-2.86781E-05 6.09799E-06 3.05991E-19-6.02099E-18
 -1      1298 7.31326E-05-5.16331E-06-2.92399E-05 4.78288E-06 3.91382E-19-5.06947E-18
 -1      1299 5.48845E-05 1.55815E-06-2.44951E-05 5.74612E-06 4.54380E-19-6.19375E-18
 -1      1300 5.84772E-05 1.38805E-06-2.56448E-05 6.56702E-06 4.36751E-19-6.17153E-18
 -1      1301 6.12430E-05-4.56701E-07-2.61603E-05 6.53901E-06 6.78050E-19-5.27000E-18
 -1      1302 5.07255E-05 3.24173E-06-2.34116E-05 2.06883E-06 3.88097E-19-6.20830E-18
 -1      1303 5.18175E-05 3.18023E-06-2.37383E-05 3.90190E-06 3.85929E-19-6.23870E-18
 -1      1304 5.21636E-05 3.63709E-06-2.39967E-05 4.87506E-06 7.26675E-19-5.46889E-18
 -1      1305 5.31453E-05 2.98114E-06-2.41926E-05-2.02556E-06 2.64380E-19-6.04116E-18
 -1      1306 5.12281E-05 3.06012E-06-2.35623E-05-3.35573E-07 2.54401E-19-6.16565E-18
 -1      1307 4.93231E-05 5.07330E-06-2.33842E-05 9.50039E-07 5.27470E-19-5.49584E-18
 -1      1308 6.14238E-05 9.09929E-07-2.66771E-05-4.19447E-06 2.51251E-19-5.63762E-18
 -1      1309 5.70796E-05 1.08949E-06-2.52315E-05-3.62854E-06 1.99688E-19-5.84270E-18
 -1      1310 5.41304E-05 3.00440E-06-2.45748E-05-2.72948E-06 3.68936E-19-5.25101E-18
 -1      1311 7.27400E-05-1.85988E-06-3.02209E-05-3.03433E-06 3.80953E-19-5.00739E-18
 -1      1312 6.73457E-05-1.68239E-06-2.83316E-05-4.04875E-06 3.00485E-19-5.34238E-18
 -1      1313 6.48591E-05-1.46650E-06-2.72838E-05-3.76500E-06 4.01070E-19-4.69203E-18
 -1      1314 8.42430E-05-4.19388E-06-3.41190E-05 1.20647E-06 6.99861E-19-4.11724E-18
 -1      1315 7.89377E-05-4.09204E-06-3.21238E-05-1.15634E-06 5.44430E-19-4.59947E-18
 -1      1316 7.79126E-05-6.23198E-06-3.08426E-05-1.31882E-06 7.27998E-19-3.88680E-18
 -1      1317 9.46503E-05-5.71416E-06-3.79614E-05 7.45974E-06 1.08420E-18-2.72260E-18
 -1      1318 8.98086E-05-5.70433E-06-3.60107E-05 4.20211E-06 9.06855E-19-3.51630E-18
 -1      1319 9.03750E-05-9.88963E-06-3.46088E-05 3.83553E-06 1.27608E-18-2.83314E-18
 -1      1320 1.04714E-04-7.00572E-06-4.17608E-05 1.50019E-05 1.44165E-18-3.34737E-19
 -1      1321 9.98461E-05-7.02868E-06-3.97699E-05 1.09415E-05 1.22862E-18-1.74894E-18
 -1      1322 1.01589E-04-1.26060E-05-3.82375E-05 1.04152E-05 1.83541E-18-1.28156E-18
 -1      1323 1.17873E-04-1.04665E-05-4.59094E-05 2.46081E-05 1.37156E-18 4.22479E-18
 -1      1324 1.11194E-04-9.82962E-06-4.35493E-05 1.85690E-05 1.27309E-18 1.46664E-18
 -1      1325 1.13547E-04-1.64170E-05-4.16813E-05 1.73803E-05 2.18344E-18 1.42270E-18
 -1      1326 1.57185E-04-3.25733E-05-4.95153E-05 3.12374E-05 7.43695E-19 1.30341E-17
 -1      1327 1.27864E-04-1.99570E-05-4.69657E-05 2.43274E-05 7.24637E-19 6.89188E-18
 -1      1328 1.29729E-04-2.68513E-05-4.41370E-05 2.09099E-05 2.32013E-18 5.60185E-18
 -1      1329 1.35108E-04-3.75071E-05-4.49183E-05 6.22656E-06 1.34048E-18 1.25287E-17
 -1      1330 1.31821E-04-3.84410E-05-4.16626E-05-8.57176E-06-1.46420E-18 8.71046E-18
 -1      1331 1.24233E-04-3.57854E-05-3.85239E-05-5.50994E-06-1.31862E-18 7.04896E-18
 -1      1332 1.20715E-04-3.57276E-05-3.66692E-05-3.77679E-06-9.94417E-19 6.36369E-18
 -1      1333 1.17049E-04-3.50465E-05-3.51623E-05-3.61766E-06-1.02357E-18 4.76976E-18
 -1      1334 1.23471E-04-3.57714E-05-3.79635E-05-9.81014E-06-2.29387E-18 3.68115E-18
 -1      1335 1.13976E-04-3.43018E-05-3.40836E-05-3.44158E-06-8.75983E-19 4.29894E-18
 -1      1336 1.10583E-04-3.33382E-05-3.30199E-05-3.62624E-06-8.03077E-19 3.12629E-18
 -1      1337 1.16658E-04-3.49894E-05-3.50514E-05-7.16527E-06-1.78228E-18 2.74484E-18
 -1      1338 1.07765E-04-3.24973E-05-3.21658E-05-3.90301E-06-5.75241E-19 2.58692E-18
 -1      1339 1.04024E-04-3.12667E-05-3.11225E-05-4.01948E-06-5.44635E-19 1.78846E-18
 -1      1340 1.11118E-04-3.35866E-05-3.31892E-05-7.36529E-06-1.33185E-18 1.92848E-18
 -1      1341 1.01276E-04-3.03440E-05-3.03549E-05-3.91633E-06-2.98778E-19 1.30882E-18
 -1      1342 9.76461E-05-2.90731E-05-2.93792E-05-3.82637E-06-3.75126E-19 9.20566E-19
 -1      1343 1.05637E-04-3.16729E-05-3.16877E-05-7.64156E-06-9.31925E-19 9.90499E-19
 -1      1344 9.53533E-05-2.82457E-05-2.87731E-05-2.91134E-06-3.28463E-19 5.53589E-19
 -1      1345 9.28098E-05-2.73287E-05-2.81005E-05-2.56025E-06-3.10160E-19 1.45451E-19
 -1      1346 1.00563E-04-2.96396E-05-3.04555E-05-6.45267E-06-7.01178E-19 1.64827E-19
 -1      1347 9.15807E-05-2.68731E-05-2.77840E-05-9.14567E-07-2.96607E-19-9.76205E-20
 -1      1348 9.09911E-05-2.66662E-05-2.76264E-05-4.08689E-07-4.09898E-19-6.67164E-19
 -1      1349 9.69731E-05-2.81179E-05-2.96353E-05-3.33970E-06-6.06529E-19-5.37965E-19
 -1      1350 9.11904E-05-2.67584E-05-2.76697E-05 1.38461E-06-5.36159E-19-9.55056E-19
 -1      1351 9.27334E-05-2.73395E-05-2.80701E-05 1.82525E-06-5.03674E-19-1.65791E-18
 -1      1352 9.59193E-05-2.77078E-05-2.93735E-05 8.83224E-07-9.41874E-19-1.13105E-18
 -1      1353 9.41616E-05-2.78939E-05-2.84296E-05 3.05293E-06-4.21895E-19-1.97197E-18
 -1      1354 9.71812E-05-2.89996E-05-2.92273E-05 3.25081E-06-4.39167E-19-2.48975E-18
 -1      1355 9.75880E-05-2.85371E-05-2.96834E-05 4.57997E-06-8.16626E-19-1.78206E-18
 -1      1356 9.91772E-05-2.97281E-05-2.97595E-05 3.53967E-06-4.44965E-19-2.68478E-18
 -1      1357 1.02570E-04-3.09288E-05-3.06758E-05 3.47130E-06-6.60289E-20-3.12481E-18
 -1      1358 1.01067E-04-3.01369E-05-3.04102E-05 6.39197E-06-7.31132E-19-2.33152E-18
 -1      1359 1.04409E-04-3.15441E-05-3.12039E-05 2.94576E-06 1.45716E-20-3.57151E-18
 -1      1360 1.07198E-04-3.24870E-05-3.19781E-05 2.71419E-06-5.63475E-21-3.66588E-18
 -1      1361 1.04902E-04-3.17790E-05-3.12892E-05 6.04355E-06-2.73036E-19-2.94188E-18
 -1      1362 1.08422E-04-3.28436E-05-3.23650E-05 1.78388E-06-1.21993E-19-3.70325E-18
 -1      1363 1.10106E-04-3.33756E-05-3.28488E-05 1.51741E-06-1.53220E-19-3.93052E-18
 -1      1364 1.07888E-04-3.29235E-05-3.20543E-05 4.23356E-06-2.72109E-19-3.81692E-18
 -1      1365 1.10587E-04-3.34676E-05-3.30339E-05 5.77601E-07-3.04138E-20-3.82037E-18
 -1      1366 1.11138E-04-3.36090E-05-3.32049E-05 3.59802E-07-1.36167E-19-4.08354E-18
 -1      1367 1.09469E-04-3.34059E-05-3.25309E-05 1.96019E-06-1.24104E-19-3.98205E-18
 -1      1368 1.10978E-04-3.35020E-05-3.31969E-05-3.62797E-07-2.18786E-19-4.16081E-18
 -1      1369 1.10648E-04-3.33596E-05-3.31152E-05-5.03379E-07-6.34282E-20-4.42364E-18
 -1      1370 1.09666E-04-3.33334E-05-3.26662E-05-3.25327E-08-3.49805E-19-3.27773E-18
 -1      1371 1.10045E-04-3.31324E-05-3.29626E-05-9.48001E-07-4.50499E-20-4.30706E-18
 -1      1372 1.09168E-04-3.28262E-05-3.27183E-05-1.01786E-06-3.06235E-19-4.49284E-18
 -1      1373 1.08810E-04-3.29084E-05-3.25032E-05-1.41577E-06-1.10164E-19-2.88235E-18
 -1      1374 1.08322E-04-3.25440E-05-3.24795E-05-1.22110E-06-3.07609E-19-4.32531E-18
 -1      1375 1.07191E-04-3.21704E-05-3.21560E-05-1.23984E-06-2.60652E-19-4.66732E-18
 -1      1376 1.07310E-04-3.23133E-05-3.21320E-05-2.17375E-06-3.34130E-19-2.80482E-18
 -1      1377 1.06261E-04-3.18780E-05-3.18816E-05-1.27210E-06-1.77766E-19-4.62391E-18
 -1      1378 1.05084E-04-3.15010E-05-3.15405E-05-1.25963E-06-2.10869E-19-4.98016E-18
 -1      1379 1.05517E-04-3.16742E-05-3.16486E-05-2.44088E-06-3.38395E-19-3.05926E-18
 -1      1380 1.04176E-04-3.12259E-05-3.12667E-05-1.18888E-06-1.31365E-20-5.19635E-18
 -1      1381 1.03079E-04-3.08817E-05-3.09460E-05-1.16049E-06 2.82122E-20-5.35333E-18
 -1      1382 1.03687E-04-3.10651E-05-3.11312E-05-2.38430E-06-2.66102E-19-3.65045E-18
 -1      1383 1.02257E-04-3.06380E-05-3.06947E-05-1.03853E-06 1.16783E-19-5.35248E-18
 -1      1384 1.01302E-04-3.03428E-05-3.04138E-05-1.00433E-06-8.57009E-20-5.33865E-18
 -1      1385 1.01977E-04-3.05234E-05-3.06333E-05-2.14674E-06-1.46737E-19-3.32490E-18
 -1      1386 1.00594E-04-3.01361E-05-3.01958E-05-8.65448E-07 1.05718E-19-5.13161E-18
 -1      1387 9.98006E-05-2.98940E-05-2.99616E-05-8.31353E-07 1.15468E-19-4.76464E-18
 -1      1388 1.00471E-04-3.00629E-05-3.01860E-05-1.83010E-06 1.46566E-19-3.28378E-18
 -1      1389 9.92138E-05-2.97245E-05-2.97801E-05-6.95793E-07 4.86907E-19-4.27222E-18
 -1      1390 9.85790E-05-2.95326E-05-2.95920E-05-6.64873E-07 4.98399E-19-3.45258E-18
 -1      1391 9.92011E-05-2.96845E-05-2.98032E-05-1.49871E-06 6.58075E-19-2.83729E-18
 -1      1392 9.81075E-05-2.93973E-05-2.94457E-05-5.43082E-07 3.61544E-20-3.14608E-18
 -1      1393 9.76143E-05-2.92496E-05-2.92992E-05-5.16617E-07 6.92350E-21-3.03673E-18
 -1      1394 9.81647E-05-2.93820E-05-2.94875E-05-1.18865E-06 5.34451E-19-1.82893E-18
 -1      1395 9.72454E-05-2.91443E-05-2.91846E-05-4.12851E-07-3.56927E-19-3.34676E-18
 -1      1396 9.68725E-05-2.90336E-05-2.90735E-05-3.91095E-07-5.35786E-19-4.03962E-18
 -1      1397 9.73424E-05-2.91459E-05-2.92348E-05-9.17146E-07-4.58162E-19-2.05196E-18
 -1      1398 9.65907E-05-2.89534E-05-2.89858E-05-3.05987E-07 1.71652E-19-3.29282E-18
 -1      1399 9.63161E-05-2.88726E-05-2.89038E-05-2.88648E-07 6.04290E-19-2.53311E-18
 -1      1400 9.67059E-05-2.89656E-05-2.90379E-05-6.89865E-07 2.03977E-19-1.42519E-18
 -1      1401 9.61059E-05-2.88130E-05-2.88384E-05-2.20903E-07 5.00484E-19-2.46510E-18
 -1      1402 9.59090E-05-2.87556E-05-2.87793E-05-2.07440E-07 2.34413E-19-1.50332E-18
 -1      1403 9.62246E-05-2.88310E-05-2.88881E-05-5.05914E-07 7.59978E-19-1.38772E-18
 -1      1404 9.57560E-05-2.87124E-05-2.87317E-05-1.54878E-07-1.13483E-19-1.88721E-18
 -1      1405 9.56192E-05-2.86729E-05-2.86906E-05-1.44670E-07-3.22924E-19-2.29157E-18
 -1      1406 9.58693E-05-2.87328E-05-2.87767E-05-3.61083E-07-6.55280E-20-1.69798E-18
 -1      1407 9.55108E-05-2.86424E-05-2.86569E-05-1.04837E-07-7.24133E-19-3.24413E-18
 -1      1408 9.54193E-05-2.86164E-05-2.86292E-05-9.72750E-08-5.37320E-19-3.78312E-18
 -1      1409 9.56134E-05-2.86630E-05-2.86961E-05-2.49799E-07-1.16171E-18-2.76817E-18
 -1      1410 9.53449E-05-2.85955E-05-2.86061E-05-6.77823E-08-1.60607E-19-3.76018E-18
 -1      1411 9.52867E-05-2.85793E-05-2.85883E-05-6.23167E-08-7.77984E-20-4.17354E-18
 -1      1412 9.54345E-05-2.86150E-05-2.86392E-05-1.66248E-07-5.23102E-19-3.09278E-18
 -1      1413 9.52378E-05-2.85656E-05-2.85731E-05-4.10100E-08-1.22061E-19-3.82230E-18
 -1      1414 9.52034E-05-2.85564E-05-2.85625E-05-3.71666E-08 4.04647E-19-3.79295E-18
 -1      1415 9.53136E-05-2.85831E-05-2.86004E-05-1.04979E-07-2.80729E-20-3.00481E-18
 -1      1416 9.51730E-05-2.85479E-05-2.85531E-05-2.21938E-08 1.19769E-19-3.57239E-18
 -1      1417 9.51552E-05-2.85435E-05-2.85475E-05-1.95791E-08-1.20992E-19-3.44581E-18
 -1      1418 9.52356E-05-2.85631E-05-2.85751E-05-6.11817E-08 2.54588E-19-3.04537E-18
 -1      1419 9.51380E-05-2.85387E-05-2.85421E-05-9.40195E-09 3.05528E-19-2.95786E-18
 -1      1420 9.51314E-05-2.85375E-05-2.85399E-05-7.69773E-09 4.01215E-19-2.59786E-18
 -1      1421 9.51886E-05-2.85515E-05-2.85596E-05-3.07852E-08 2.31269E-19-1.83779E-18
 -1      1422 9.51232E-05-2.85353E-05-2.85374E-05-1.07291E-09 2.68482E-19-2.57117E-18
 -1      1423 9.51238E-05-2.85360E-05-2.85374E-05-2.78366E-11 4.01379E-19-2.28087E-18
 -1      1424 9.51634E-05-2.85458E-05-2.85509E-05-1.04472E-08 4.20700E-19-1.12609E-18
 -1      1425 9.51216E-05-2.85355E-05-2.85367E-05 4.02668E-09-5.26765E-20-2.37425E-18
 -1      1426 9.51266E-05-2.85374E-05-2.85380E-05 4.60704E-09-5.86014E-19-2.72808E-18
 -1      1427 9.51529E-05-2.85440E-05-2.85470E-05 2.50782E-09 4.30784E-19-1.25742E-18
 -1      1428 9.51281E-05-2.85379E-05-2.85385E-05 6.85067E-09-5.32886E-19-2.86510E-18
 -1      1429 9.51353E-05-2.85404E-05-2.85405E-05 7.11369E-09-1.54313E-19-3.02463E-18
 -1      1430 9.51520E-05-2.85446E-05-2.85462E-05 1.01748E-08-6.88733E-19-1.94122E-18
 -1      1431 9.51390E-05-2.85415E-05-2.85417E-05 8.12186E-09-4.28895E-19-3.63389E-18
 -1      1432 9.51472E-05-2.85442E-05-2.85440E-05 8.17693E-09-1.10954E-19-3.76364E-18
 -1      1433 9.51569E-05-2.85467E-05-2.85473E-05 1.41606E-08-5.78035E-19-3.05962E-18
 -1      1434 9.51520E-05-2.85456E-05-2.85455E-05 8.37665E-09 1.10353E-19-4.26446E-18
 -1      1435 9.51601E-05-2.85482E-05-2.85479E-05 8.30318E-09 1.70142E-19-3.67099E-18
 -1      1436 9.51651E-05-2.85496E-05-2.85495E-05 1.56730E-08-3.55650E-19-4.76590E-18
 -1      1437 9.51653E-05-2.85497E-05-2.85495E-05 8.00422E-09 7.84552E-19-3.33598E-18
 -1      1438 9.51730E-05-2.85521E-05-2.85517E-05 7.85842E-09 5.93291E-19-2.77915E-18
 -1      1439 9.51746E-05-2.85527E-05-2.85523E-05 1.56002E-08 8.71566E-19-3.82696E-18
 -1      1440 9.51780E-05-2.85536E-05-2.85533E-05 7.27976E-09 4.98434E-19-2.16057E-18
 -1      1441 9.51849E-05-2.85558E-05-2.85553E-05 7.10017E-09 8.46255E-19-1.26950E-18
 -1      1442 9.51845E-05-2.85558E-05-2.85552E-05 1.45803E-08 7.90554E-19-2.95315E-18
 -1      1443 9.51896E-05-2.85571E-05-2.85568E-05 6.39178E-09 1.02760E-18-7.22406E-19
 -1      1444 9.51956E-05-2.85590E-05-2.85585E-05 6.20380E-09 2.82852E-19 1.52032E-19
 -1      1445 9.51939E-05-2.85586E-05-2.85579E-05 1.30591E-08 1.53391E-18-1.72987E-18
 -1      1446 9.51998E-05-2.85602E-05-2.85598E-05 5.46404E-09 2.25017E-19 7.56802E-19
 -1      1447 9.52049E-05-2.85617E-05-2.85613E-05 5.28340E-09 3.23985E-19 1.27345E-18
 -1      1448 9.52025E-05-2.85612E-05-2.85605E-05 1.13371E-08 1.18952E-18-8.64474E-19
 -1      1449 9.52085E-05-2.85627E-05-2.85625E-05 4.57270E-09-1.54305E-19 1.79704E-18
 -1      1450 9.52127E-05-2.85640E-05-2.85637E-05 4.40817E-09-5.69901E-19 1.64189E-18
 -1      1451 9.52100E-05-2.85634E-05-2.85628E-05 9.60670E-09 5.93167E-20 2.48956E-20
 -1      1452 9.52157E-05-2.85649E-05-2.85647E-05 3.75930E-09-7.16200E-19 1.51397E-18
 -1      1453 9.52192E-05-2.85660E-05-2.85657E-05 3.61462E-09-5.38462E-19 4.76739E-19
 -1      1454 9.52165E-05-2.85653E-05-2.85647E-05 7.98144E-09-7.71105E-19 2.93734E-19
 -1      1455 9.52217E-05-2.85667E-05-2.85665E-05 3.04024E-09 1.00482E-19 1.52182E-18
 -1      1456 9.52245E-05-2.85675E-05-2.85673E-05 2.91548E-09 4.95569E-19 1.67347E-18
 -1      1457 9.52218E-05-2.85669E-05-2.85664E-05 6.51715E-09 4.96211E-19 1.38934E-18
 -1      1458 9.52266E-05-2.85681E-05-2.85679E-05 2.41318E-09 2.58819E-19 9.31533E-19
 -1      1459 9.52288E-05-2.85688E-05-2.85686E-05 2.30551E-09 2.40814E-19 1.37896E-18
 -1      1460 9.52263E-05-2.85682E-05-2.85677E-05 5.22732E-09 1.22458E-19 1.52403E-18
 -1      1461 9.52304E-05-2.85692E-05-2.85691E-05 1.86120E-09 9.57842E-19 2.04958E-18
 -1      1462 9.52321E-05-2.85698E-05-2.85696E-05 1.76523E-09 1.24290E-18 3.10902E-18
 -1      1463 9.52298E-05-2.85692E-05-2.85688E-05 4.09338E-09 1.13247E-18 3.67057E-18
 -1      1464 9.52333E-05-2.85701E-05-2.85699E-05 1.35540E-09 2.25225E-19 2.87496E-18
 -1      1465 9.52345E-05-2.85705E-05-2.85703E-05 1.26313E-09 5.34339E-19 3.60564E-18
 -1      1466 9.52326E-05-2.85700E-05-2.85697E-05 3.07175E-09 1.06677E-18 2.92793E-18
 -1      1467 9.52354E-05-2.85707E-05-2.85706E-05 8.62011E-10 6.32826E-19 2.76524E-18
 -1      1468 9.52361E-05-2.85710E-05-2.85708E-05 7.63362E-10-2.76854E-19 3.23678E-18
 -1      1469 9.52347E-05-2.85706E-05-2.85703E-05 2.10271E-09-2.89311E-19 9.94341E-19
 -1      1470 9.52367E-05-2.85711E-05-2.85709E-05 3.56654E-10-4.91315E-19 3.03738E-18
 -1      1471 9.52369E-05-2.85712E-05-2.85710E-05 2.49441E-10-8.31881E-19 2.40870E-18
 -1      1472 9.52361E-05-2.85711E-05-2.85707E-05 1.14738E-09-4.57922E-19 2.56772E-19
 -1      1473 9.52372E-05-2.85711E-05-2.85712E-05-8.10975E-11-2.04698E-18 1.91095E-18
 -1      1474 9.52370E-05-2.85712E-05-2.85710E-05 2.01892E-10-2.05384E-18 3.52149E-19
 -1      1475 1.29717E-04-3.85730E-05-3.95414E-05 3.07039E-06 1.09410E-18 1.01035E-17
 -1      1476 1.35559E-04-3.94417E-05-4.20695E-05 4.27819E-06 9.19666E-19 1.19067E-17
 -1      1477 1.32981E-04-3.60169E-05-4.19045E-05 1.27263E-05 1.93319E-18 7.91393E-18
 -1      1478 1.23164E-04-3.71084E-05-3.68353E-05 2.74929E-06 9.12731E-19 8.00563E-18
 -1      1479 1.26310E-04-3.76941E-05-3.81646E-05 2.60591E-06 7.56936E-19 9.32998E-18
 -1      1480 1.26528E-04-3.76614E-05-3.82151E-05 6.34620E-06 1.61198E-18 6.46062E-18
 -1      1481 1.16496E-04-3.51945E-05-3.47149E-05 3.62184E-06 6.49526E-19 6.60990E-18
 -1      1482 1.20132E-04-3.63117E-05-3.58617E-05 3.25417E-06 5.98981E-19 7.51517E-18
 -1      1483 1.20702E-04-3.65790E-05-3.59752E-05 6.14916E-06 1.25773E-18 5.50031E-18
 -1      1484 1.08500E-04-3.26391E-05-3.24539E-05 4.49260E-06 5.74175E-19 5.24255E-18
 -1      1485 1.13137E-04-3.42177E-05-3.37461E-05 4.14876E-06 5.57579E-19 6.12998E-18
 -1      1486 1.14661E-04-3.48051E-05-3.41229E-05 7.57096E-06 1.07707E-18 4.56894E-18
 -1      1487 1.00126E-04-2.98077E-05-3.02152E-05 4.31490E-06 1.79591E-19 4.24967E-18
 -1      1488 1.04997E-04-3.14625E-05-3.15025E-05 4.27802E-06 2.53627E-19 4.63507E-18
 -1      1489 1.07986E-04-3.23908E-05-3.23651E-05 8.25538E-06 8.26962E-19 3.56887E-18
 -1      1490 9.38541E-05-2.76297E-05-2.85877E-05 2.53985E-06 1.52413E-19 3.87147E-18
 -1      1491 9.73736E-05-2.87284E-05-2.94898E-05 2.96967E-06 4.15576E-20 3.81302E-18
 -1      1492 1.01801E-04-2.98619E-05-3.09016E-05 6.60225E-06 2.78727E-19 2.56325E-18
 -1      1493 9.21474E-05-2.70670E-05-2.81227E-05-3.38409E-07 3.95128E-19 3.18332E-18
 -1      1494 9.28650E-05-2.70905E-05-2.83082E-05 4.21152E-07 2.58173E-19 3.54716E-18
 -1      1495 9.80840E-05-2.82295E-05-3.00794E-05 2.40965E-06 5.07955E-19 1.72266E-18
 -1      1496 9.55690E-05-2.83348E-05-2.89447E-05-2.94183E-06 2.02004E-19 2.05093E-18
 -1      1497 9.32443E-05-2.72914E-05-2.83623E-05-2.22846E-06 4.84106E-19 2.69785E-18
 -1      1498 9.82389E-05-2.83232E-05-3.01023E-05-2.67549E-06 8.01293E-19 1.17347E-18
 -1      1499 1.02239E-04-3.06864E-05-3.06435E-05-4.07724E-06 5.74404E-19 1.07753E-18
 -1      1500 9.80633E-05-2.91181E-05-2.95683E-05-3.72438E-06 3.56098E-19 1.82557E-18
 -1      1501 1.01862E-04-3.00062E-05-3.08752E-05-6.24800E-06 8.39628E-19 4.24761E-19
 -1      1502 1.09188E-04-3.30155E-05-3.25187E-05-3.58784E-06 1.11114E-19 5.56342E-19
 -1      1503 1.04937E-04-3.15861E-05-3.13822E-05-3.63769E-06 3.15923E-19 8.72709E-19
 -1      1504 1.06984E-04-3.22623E-05-3.20393E-05-6.98678E-06 6.94349E-19-4.31378E-19
 -1      1505 1.14158E-04-3.45700E-05-3.39602E-05-2.16831E-06 6.10923E-20 1.59639E-19
 -1      1506 1.11146E-04-3.36780E-05-3.31145E-05-2.45413E-06 1.13152E-19 5.21137E-19
 -1      1507 1.11450E-04-3.40428E-05-3.31514E-05-5.33028E-06 2.12645E-19-5.56884E-19
 -1      1508 1.16352E-04-3.51661E-05-3.46804E-05-6.38806E-07 1.73556E-19 2.88785E-20
 -1      1509 1.15013E-04-3.48684E-05-3.42724E-05-9.67377E-07 2.91895E-20 1.20861E-19
 -1      1510 1.14025E-04-3.48872E-05-3.38815E-05-2.65161E-06 2.15729E-20-6.15819E-19
 -1      1511 1.16111E-04-3.49913E-05-3.47030E-05 5.20967E-07 2.50656E-19-6.62469E-19
 -1      1512 1.16211E-04-3.51426E-05-3.46986E-05 2.62271E-07 1.94897E-19-4.96838E-20
 -1      1513 1.14535E-04-3.48839E-05-3.41060E-05-1.56024E-07 2.53819E-19-9.61650E-19
 -1      1514 1.14245E-04-3.43417E-05-3.42235E-05 1.19616E-06 3.47313E-19-1.71176E-18
 -1      1515 1.15285E-04-3.47510E-05-3.44980E-05 1.03687E-06 5.01788E-19-6.94739E-19
 -1      1516 1.13439E-04-3.43391E-05-3.38797E-05 1.58304E-06 7.41445E-19-1.27600E-18
 -1      1517 1.11560E-04-3.34759E-05-3.34690E-05 1.46851E-06-6.89874E-19-1.31473E-18
 -1      1518 1.13057E-04-3.39874E-05-3.38890E-05 1.39417E-06-2.40016E-19-1.94916E-18
 -1      1519 1.11372E-04-3.35370E-05-3.33463E-05 2.50796E-06-1.12794E-20-1.23235E-18
 -1      1520 1.08654E-04-3.25714E-05-3.26228E-05 1.47534E-06 3.05638E-19-1.41121E-18
 -1      1521 1.10260E-04-3.30852E-05-3.30853E-05 1.45852E-06-6.40012E-20-1.47553E-18
 -1      1522 1.08887E-04-3.26716E-05-3.26583E-05 2.80427E-06-1.39679E-19-2.26037E-18
 -1      1523 1.05894E-04-3.17298E-05-3.18037E-05 1.33767E-06 2.65388E-19-2.82958E-18
 -1      1524 1.07403E-04-3.21933E-05-3.22448E-05 1.35369E-06 6.33869E-19-1.62902E-18
 -1      1525 1.06371E-04-3.18524E-05-3.19352E-05 2.70524E-06 9.44747E-19-2.31466E-18
 -1      1526 1.03464E-04-3.09983E-05-3.10745E-05 1.13915E-06-3.52701E-19-2.15504E-18
 -1      1527 1.04778E-04-3.13905E-05-3.14620E-05 1.17064E-06-2.60180E-19-2.61023E-18
 -1      1528 1.04053E-04-3.11304E-05-3.12534E-05 2.40141E-06 1.47483E-19-1.47925E-18
 -1      1529 1.01430E-04-3.03911E-05-3.04599E-05 9.29576E-07-1.60273E-19-2.06148E-18
 -1      1530 1.02517E-04-3.07089E-05-3.07827E-05 9.65928E-07-1.95628E-19-2.00839E-18
 -1      1531 1.02042E-04-3.05225E-05-3.06528E-05 2.02032E-06-3.89268E-19-1.44706E-18
 -1      1532 9.97864E-05-2.99034E-05-2.99614E-05 7.34870E-07-7.12059E-19-1.59178E-18
 -1      1533 1.00655E-04-3.01530E-05-3.02203E-05 7.70282E-07-5.46809E-19-1.61350E-18
 -1      1534 1.00367E-04-3.00271E-05-3.01480E-05 1.63633E-06-8.12467E-19-2.70774E-19
 -1      1535 9.84958E-05-2.95221E-05-2.95689E-05 5.66191E-07-3.43512E-19-5.45231E-19
 -1      1536 9.91704E-05-2.97131E-05-2.97706E-05 5.97894E-07-5.16599E-19-1.20528E-18
 -1      1537 9.90168E-05-2.96336E-05-2.97380E-05 1.28714E-06-1.20058E-18 1.32561E-19
 -1      1538 9.75062E-05-2.92307E-05-2.92673E-05 4.26403E-07 1.78919E-19-7.39838E-19
 -1      1539 9.80176E-05-2.93735E-05-2.94206E-05 4.53382E-07 2.90450E-19-7.87906E-20
 -1      1540 9.79555E-05-2.93280E-05-2.94141E-05 9.88044E-07-1.00172E-19 1.89524E-19
 -1      1541 9.67637E-05-2.90127E-05-2.90407E-05 3.14143E-07-1.19328E-19-1.59993E-19
 -1      1542 9.71429E-05-2.91172E-05-2.91547E-05 3.36325E-07-2.29416E-19-5.55582E-19
 -1      1543 9.71398E-05-2.90952E-05-2.91641E-05 7.41810E-07-1.02054E-19 3.50025E-19
 -1      1544 9.62187E-05-2.88532E-05-2.88741E-05 2.26178E-07 3.00329E-19-3.67323E-19
 -1      1545 9.64935E-05-2.89278E-05-2.89569E-05 2.43949E-07-6.12411E-20-6.73509E-19
 -1      1546 9.65260E-05-2.89214E-05-2.89752E-05 5.44903E-07-1.26981E-19-4.66137E-19
 -1      1547 9.58278E-05-2.87391E-05-2.87544E-05 1.58687E-07-1.67457E-19-2.45310E-19
 -1      1548 9.60221E-05-2.87909E-05-2.88131E-05 1.72624E-07 3.57300E-19 6.12955E-20
 -1      1549 9.60736E-05-2.87944E-05-2.88355E-05 3.91082E-07 2.31985E-19 3.31377E-20
 -1      1550 9.55547E-05-2.86597E-05-2.86707E-05 1.07916E-07 2.66092E-19-6.73223E-19
 -1      1551 9.56881E-05-2.86945E-05-2.87111E-05 1.18638E-07-3.23055E-20-3.84606E-20
 -1      1552 9.57477E-05-2.87037E-05-2.87345E-05 2.73364E-07 1.77575E-19 5.73069E-19
 -1      1553 9.53701E-05-2.86062E-05-2.86139E-05 7.04725E-08 5.95905E-20-9.26201E-19
 -1      1554 9.54583E-05-2.86286E-05-2.86408E-05 7.85703E-08 4.93732E-20-7.63449E-19
 -1      1555 9.55188E-05-2.86406E-05-2.86632E-05 1.85021E-07 3.31152E-19 3.19363E-19
 -1      1556 9.52505E-05-2.85718E-05-2.85770E-05 4.34428E-08-2.80057E-19-8.24695E-19
 -1      1557 9.53058E-05-2.85853E-05-2.85940E-05 4.94437E-08-4.30315E-19-1.15519E-18
 -1      1558 9.53630E-05-2.85981E-05-2.86144E-05 1.20033E-07-8.63835E-20 6.56407E-19
 -1      1559 9.51776E-05-2.85510E-05-2.85545E-05 2.44021E-08-1.72750E-19-1.01418E-18
 -1      1560 9.52097E-05-2.85583E-05-2.85644E-05 2.87586E-08 2.02229E-19-1.16298E-18
 -1      1561 9.52611E-05-2.85708E-05-2.85822E-05 7.32560E-08 1.73710E-19-2.45795E-19
 -1      1562 9.51376E-05-2.85398E-05-2.85419E-05 1.13813E-08 6.90434E-19-2.06687E-18
 -1      1563 9.51536E-05-2.85429E-05-2.85470E-05 1.44706E-08 3.63700E-19-1.66105E-18
 -1      1564 9.51983E-05-2.85544E-05-2.85622E-05 4.04203E-08 8.61956E-19-1.04050E-18
 -1      1565 9.51199E-05-2.85351E-05-2.85363E-05 2.81248E-09-6.35038E-19-2.38061E-18
 -1      1566 9.51252E-05-2.85354E-05-2.85381E-05 4.94224E-09-7.99124E-20-2.47858E-18
 -1      1567 9.51629E-05-2.85456E-05-2.85507E-05 1.80671E-08 2.40573E-19-8.69485E-19
 -1      1568 9.51167E-05-2.85346E-05-2.85351E-05-2.53084E-09-5.75101E-19-1.00146E-18
 -1      1569 9.51153E-05-2.85332E-05-2.85348E-05-1.11441E-09-5.39852E-19-2.04284E-18
 -1      1570 9.51464E-05-2.85420E-05-2.85451E-05 3.44729E-09-6.29541E-19-6.90504E-19
 -1      1571 9.51226E-05-2.85366E-05-2.85367E-05-5.59204E-09-2.72375E-19 2.83201E-19
 -1      1572 9.51171E-05-2.85343E-05-2.85352E-05-4.69533E-09-1.19640E-19 1.13335E-19
 -1      1573 9.51423E-05-2.85416E-05-2.85434E-05-5.58563E-09-1.01149E-18 4.98569E-19
 -1      1574 9.51335E-05-2.85400E-05-2.85399E-05-7.08445E-09-7.54930E-19 2.16078E-20
 -1      1575 9.51259E-05-2.85373E-05-2.85377E-05-6.55775E-09-2.91712E-19-4.01654E-19
 -1      1576 9.51459E-05-2.85433E-05-2.85441E-05-1.06796E-08-1.80287E-19 5.21448E-19
 -1      1577 9.51467E-05-2.85441E-05-2.85438E-05-7.53783E-09 8.38897E-19-1.22729E-18
 -1      1578 9.51384E-05-2.85413E-05-2.85414E-05-7.26728E-09 1.68569E-19-3.91793E-19
 -1      1579 9.51540E-05-2.85461E-05-2.85463E-05-1.30780E-08 2.57750E-19-1.34584E-18
 -1      1580 9.51606E-05-2.85483E-05-2.85480E-05-7.33775E-09 5.97750E-19-2.94365E-18
 -1      1581 9.51523E-05-2.85457E-05-2.85456E-05-7.23836E-09 4.45456E-19-1.80176E-18
 -1      1582 9.51642E-05-2.85494E-05-2.85493E-05-1.37020E-08 1.18088E-18-2.37323E-18
 -1      1583 9.51739E-05-2.85523E-05-2.85520E-05-6.75847E-09-4.10088E-19-2.47785E-18
 -1      1584 9.51662E-05-2.85500E-05-2.85497E-05-6.76798E-09-6.16903E-19-3.20436E-18
 -1      1585 9.51751E-05-2.85528E-05-2.85524E-05-1.32200E-08-2.28880E-19-2.64913E-18
 -1      1586 9.51861E-05-2.85560E-05-2.85557E-05-5.98961E-09 4.29141E-19-1.67713E-18
 -1      1587 9.51792E-05-2.85539E-05-2.85536E-05-6.06345E-09 2.86293E-19-1.72952E-18
 -1      1588 9.51858E-05-2.85561E-05-2.85556E-05-1.21058E-08-3.11142E-19-1.92779E-18
 -1      1589 9.51968E-05-2.85592E-05-2.85589E-05-5.15747E-09-3.24139E-19-1.00312E-18
 -1      1590 9.51909E-05-2.85574E-05-2.85571E-05-5.26463E-09-8.57685E-20-1.10740E-18
 -1      1591 9.51956E-05-2.85591E-05-2.85585E-05-1.06853E-08-3.58926E-19 6.56848E-20
 -1      1592 9.52061E-05-2.85620E-05-2.85617E-05-4.34172E-09-3.65938E-19 4.46998E-19
 -1      1593 9.52010E-05-2.85605E-05-2.85602E-05-4.46142E-09-4.21519E-19-8.04050E-19
 -1      1594 9.52043E-05-2.85616E-05-2.85611E-05-9.17395E-09-5.68485E-19 1.26724E-18
 -1      1595 9.52138E-05-2.85643E-05-2.85640E-05-3.58814E-09 5.01863E-19-1.07026E-18
 -1      1596 9.52096E-05-2.85631E-05-2.85628E-05-3.70730E-09 9.54486E-20-2.12432E-19
 -1      1597 9.52118E-05-2.85639E-05-2.85634E-05-7.70575E-09 4.53209E-19 5.46327E-19
 -1      1598 9.52202E-05-2.85662E-05-2.85660E-05-2.91799E-09 9.64797E-20-1.27737E-18
 -1      1599 9.52168E-05-2.85652E-05-2.85650E-05-3.02932E-09 3.51842E-19-7.65951E-19
 -1      1600 9.52181E-05-2.85657E-05-2.85653E-05-6.35551E-09 4.91992E-19-2.88056E-19
 -1      1601 9.52254E-05-2.85677E-05-2.85675E-05-2.33452E-09 1.04895E-18-3.62475E-18
 -1      1602 9.52227E-05-2.85669E-05-2.85667E-05-2.43528E-09 9.59587E-19-2.08670E-18
 -1      1603 9.52234E-05-2.85673E-05-2.85669E-05-5.15484E-09 1.25670E-18-7.97019E-19
 -1      1604 9.52295E-05-2.85689E-05-2.85688E-05-1.82700E-09-2.77273E-19-4.56545E-18
 -1      1605 9.52274E-05-2.85683E-05-2.85682E-05-1.91841E-09-8.32987E-20-4.38671E-18
 -1      1606 9.52276E-05-2.85685E-05-2.85682E-05-4.10312E-09 9.14531E-19-2.52842E-18
 -1      1607 9.52327E-05-2.85699E-05-2.85698E-05-1.37324E-09-9.03473E-19-2.56898E-18
 -1      1608 9.52310E-05-2.85694E-05-2.85693E-05-1.46017E-09-8.58040E-19-3.28116E-18
 -1      1609 9.52310E-05-2.85695E-05-2.85692E-05-3.17450E-09-1.31172E-18-2.20885E-18
 -1      1610 9.52350E-05-2.85706E-05-2.85704E-05-9.42709E-10 8.79997E-19-3.82499E-18
 -1      1611 9.52338E-05-2.85703E-05-2.85701E-05-1.03364E-09 6.16625E-19-2.59263E-18
 -1      1612 9.52335E-05-2.85702E-05-2.85700E-05-2.32413E-09-6.39854E-20-1.94178E-18
 -1      1613 9.52364E-05-2.85710E-05-2.85709E-05-4.99692E-10 8.94107E-19-6.31584E-18
 -1      1614 9.52358E-05-2.85708E-05-2.85707E-05-6.09413E-10 9.10818E-19-5.02351E-18
 -1      1615 9.52354E-05-2.85708E-05-2.85705E-05-1.49875E-09 1.68639E-18-3.34844E-18
 -1      1616 9.52371E-05-2.85712E-05-2.85711E-05-7.65549E-11-5.72836E-19-6.12361E-18
 -1      1617 9.52369E-05-2.85712E-05-2.85710E-05-1.87845E-10-1.43756E-19-6.47133E-18
 -1      1618 9.52365E-05-2.85711E-05-2.85709E-05-6.65114E-10 3.84316E-19-5.46736E-18
 -1      1619 9.52372E-05-2.85711E-05-2.85712E-05 6.04395E-11-3.69671E-18-4.10926E-18
 -1      1620 9.52372E-05-2.85716E-05-2.85709E-05-3.86190E-10-5.36952E-18 1.28986E-18
 -1      1621 9.52371E-05-2.85714E-05-2.85710E-05-2.76532E-10-5.60352E-18-7.74699E-19
 -1      1622 9.52376E-05-2.85728E-05-2.85706E-05-8.24686E-10-1.71569E-18 2.77301E-18
 -1      1623 9.52373E-05-2.85722E-05-2.85708E-05-7.43573E-10-4.13605E-18 1.81338E-18
 -1      1624 9.52372E-05-2.85722E-05-2.85707E-05-1.12695E-09-2.11804E-18 2.45212E-18
 -1      1625 9.52381E-05-2.85745E-05-2.85701E-05-1.10536E-09 1.78649E-18 1.98508E-18
 -1      1626 9.52378E-05-2.85736E-05-2.85704E-05-1.06422E-09-5.71308E-19 2.26310E-18
 -1      1627 9.52377E-05-2.85735E-05-2.85704E-05-1.84366E-09-1.06411E-18 4.72417E-18
 -1      1628 9.52388E-05-2.85765E-05-2.85696E-05-1.18137E-09 5.52756E-18 2.07367E-18
 -1      1629 9.52384E-05-2.85754E-05-2.85699E-05-1.18306E-09 2.08557E-18 3.48141E-18
 -1      1630 9.52383E-05-2.85750E-05-2.85699E-05-2.22038E-09 1.60520E-18 4.22560E-18
 -1      1631 9.52393E-05-2.85782E-05-2.85690E-05-1.06543E-09 2.65452E-18-1.77831E-18
 -1      1632 9.52390E-05-2.85773E-05-2.85693E-05-1.10243E-09 5.24514E-18-1.79496E-18
 -1      1633 9.52389E-05-2.85767E-05-2.85695E-05-2.21139E-09 6.83511E-19 6.00522E-20
 -1      1634 9.52398E-05-2.85797E-05-2.85686E-05-7.87559E-10 1.42933E-18-2.05262E-19
 -1      1635 9.52395E-05-2.85789E-05-2.85688E-05-8.53378E-10 2.75242E-18-1.07063E-18
 -1      1636 9.52394E-05-2.85782E-05-2.85691E-05-1.85716E-09 5.73834E-19-1.98232E-18
 -1      1637 9.52401E-05-2.85805E-05-2.85684E-05-3.97051E-10 2.43408E-18-9.18634E-19
 -1      1638 9.52399E-05-2.85801E-05-2.85685E-05-4.80347E-10 1.19037E-18 2.30812E-18
 -1      1639 9.52398E-05-2.85793E-05-2.85688E-05-1.22704E-09 7.70287E-19 2.26617E-19
 -1      1640 9.52401E-05-2.85807E-05-2.85683E-05 4.83930E-11 2.03391E-18-9.48854E-20
 -1      1641 9.52401E-05-2.85807E-05-2.85683E-05-4.07846E-11 2.23071E-18-1.20290E-18
 -1      1642 9.52400E-05-2.85799E-05-2.85686E-05-4.23721E-10 6.64339E-19-1.22257E-18
 -1      1643 9.52399E-05-2.85801E-05-2.85685E-05 4.87254E-10 4.98691E-19-1.79028E-18
 -1      1644 9.52401E-05-2.85805E-05-2.85684E-05 4.04217E-10 1.50981E-18 2.93962E-19
 -1      1645 9.52400E-05-2.85799E-05-2.85686E-05 4.38058E-10 1.02153E-18-5.17673E-19
 -1      1646 9.52395E-05-2.85789E-05-2.85689E-05 8.58488E-10-1.93753E-18-1.28480E-18
 -1      1647 9.52398E-05-2.85796E-05-2.85686E-05 7.93334E-10 5.61046E-19-2.38117E-18
 -1      1648 9.52398E-05-2.85793E-05-2.85688E-05 1.23940E-09 1.39210E-19-2.73475E-18
 -1      1649 9.52390E-05-2.85772E-05-2.85693E-05 1.10305E-09-3.01906E-18 2.93737E-19
 -1      1650 9.52393E-05-2.85782E-05-2.85690E-05 1.06664E-09-2.56628E-18-1.38576E-18
 -1      1651 9.52394E-05-2.85782E-05-2.85691E-05 1.86229E-09-3.57691E-19-2.40919E-18
 -1      1652 9.52384E-05-2.85754E-05-2.85699E-05 1.18253E-09-2.33928E-18-8.51158E-20
 -1      1653 9.52387E-05-2.85764E-05-2.85696E-05 1.18164E-09-3.81666E-18 2.42433E-18
 -1      1654 9.52388E-05-2.85767E-05-2.85695E-05 2.21275E-09-1.60059E-18 9.36275E-19
 -1      1655 9.52378E-05-2.85735E-05-2.85704E-05 1.06178E-09-1.70614E-18 1.55346E-18
 -1      1656 9.52381E-05-2.85745E-05-2.85701E-05 1.10177E-09-2.39746E-18 6.54418E-19
 -1      1657 9.52383E-05-2.85750E-05-2.85700E-05 2.21684E-09-2.17935E-18 8.90883E-19
 -1      1658 9.52373E-05-2.85721E-05-2.85708E-05 7.43301E-10-3.13101E-18-5.77651E-19
 -1      1659 9.52376E-05-2.85728E-05-2.85706E-05 8.26912E-10-1.95225E-18-1.90385E-19
 -1      1660 9.52377E-05-2.85734E-05-2.85704E-05 1.83314E-09-1.68845E-18 3.38424E-19
 -1      1661 9.52371E-05-2.85715E-05-2.85710E-05 4.58457E-10-2.51440E-18-7.21118E-19
 -1      1662 9.52371E-05-2.85718E-05-2.85709E-05 6.14948E-10-1.95484E-18-1.23904E-18
 -1      1663 9.52372E-05-2.85723E-05-2.85706E-05 1.37509E-09-1.77203E-18-7.24269E-19
 -1      1664 9.52367E-05-2.85716E-05-2.85708E-05 9.49553E-10-1.06117E-18-4.48930E-19
 -1      1665 1.81017E-05-5.46866E-05 1.06658E-05-2.56880E-06 6.94991E-18 4.20277E-18
 -1      1666 2.05426E-05-6.31936E-05 1.27245E-05 3.06445E-06 2.64846E-18 2.92692E-18
 -1      1667 1.89289E-05-3.19753E-05 1.51348E-06 5.74541E-06 1.23032E-17 7.13466E-18
 -1      1668 2.27792E-05-5.36352E-05 7.47324E-06 1.71874E-06 8.82100E-18 4.73536E-18
 -1      1669 3.63286E-05-7.95027E-06-1.40163E-05 3.17785E-05 1.28376E-17 9.57740E-18
 -1      1670 2.93271E-05-2.70231E-05-5.48242E-06 1.37254E-05 1.25522E-17 7.47380E-18
 -1      1671 7.74549E-05-1.32599E-06-3.18737E-05 6.12067E-05 1.09259E-17 1.06328E-17
 -1      1672 5.34625E-05-5.81248E-06-2.26075E-05 3.98882E-05 1.24599E-17 9.83575E-18
 -1      1673 1.38917E-04-1.52511E-05-4.96308E-05 7.76693E-05 7.64490E-18 8.49405E-18
 -1      1674 9.93828E-05-3.44988E-06-4.06542E-05 6.54721E-05 1.02559E-17 1.00763E-17
 -1      1675 2.04228E-04-4.11693E-05-6.42777E-05 6.73964E-05 4.14538E-18 3.37204E-18
 -1      1676 1.62233E-04-2.09972E-05-5.73280E-05 7.51625E-05 6.71612E-18 7.06764E-18
 -1      1677 2.49100E-04-6.26623E-05-7.29964E-05 2.89793E-05 2.34310E-18-3.36547E-18
 -1      1678 2.23579E-04-4.80355E-05-6.95675E-05 5.80643E-05 3.28405E-18 1.44165E-18
 -1      1679 2.47038E-04-6.17674E-05-7.30884E-05-2.34319E-05 4.11976E-18-1.13820E-17
 -1      1680 2.53999E-04-6.50223E-05-7.41422E-05 1.15471E-05 2.81850E-18-5.85046E-18
 -1      1681 2.00658E-04-3.98606E-05-6.47306E-05-5.93520E-05 8.16169E-18-1.69932E-17
 -1      1682 2.34718E-04-5.72955E-05-6.98668E-05-3.77836E-05 5.46919E-18-1.30896E-17
 -1      1683 1.35051E-04-1.46822E-05-5.01453E-05-6.81943E-05 1.26310E-17-1.90777E-17
 -1      1684 1.79585E-04-3.34320E-05-5.83327E-05-6.82690E-05 9.61594E-18-1.80986E-17
 -1      1685 7.66160E-05-2.88950E-06-3.28603E-05-5.21923E-05 1.57243E-17-1.73845E-17
 -1      1686 1.10639E-04-9.00676E-06-4.18593E-05-6.86542E-05 1.39472E-17-1.91870E-17
 -1      1687 3.85329E-05-1.13482E-05-1.51625E-05-2.55977E-05 1.55143E-17-1.27241E-17
 -1      1688 5.60979E-05-1.82106E-06-2.41810E-05-4.62868E-05 1.59327E-17-1.60115E-17
 -1      1689 2.03763E-05-2.90565E-05-1.31661E-06-5.37968E-06 1.27504E-17-8.12008E-18
 -1      1690 2.16802E-05-1.15299E-05-7.62288E-06-1.63562E-05 1.56532E-17-1.15815E-17
 -1      1691 1.75644E-05-4.78729E-05 7.47272E-06 6.08427E-07 5.98513E-18-4.22500E-18
 -1      1692 1.39118E-05-3.33225E-05 3.64729E-06 1.42095E-06 1.11317E-17-6.68817E-18
 -1      1693 1.57396E-05-4.98440E-05 9.54471E-06-2.22300E-06-2.48138E-18-3.62445E-18
 -1      1694 1.50968E-05-4.80949E-05 9.11218E-06 4.02621E-06 3.36145E-18-3.90779E-18
 -1      1695 1.39665E-05-3.87857E-05 5.86847E-06-2.17540E-06-1.02288E-17-5.44462E-18
 -1      1696 1.73221E-05-5.04542E-05 8.75490E-06 1.34137E-06-5.12413E-18-3.60773E-18
 -1      1697 1.72249E-05-1.68753E-05-3.76081E-06 1.04090E-05-1.53262E-17-9.71970E-18
 -1      1698 1.85389E-05-3.44656E-05 1.76444E-06 3.37864E-06-1.20668E-17-6.68341E-18
 -1      1699 3.67067E-05 2.20071E-07-1.76413E-05 3.52875E-05-1.73904E-17-1.48290E-17
 -1      1700 2.74868E-05-1.32291E-05-1.00788E-05 1.83027E-05-1.62190E-17-1.14095E-17
 -1      1701 8.02049E-05 9.26690E-07-3.41828E-05 6.26214E-05-1.59750E-17-1.83688E-17
 -1      1702 5.42475E-05 1.61756E-07-2.54877E-05 4.30951E-05-1.71007E-17-1.60437E-17
 -1      1703 1.48404E-04-1.97574E-05-5.18690E-05 7.50910E-05-1.14764E-17-1.86745E-17
 -1      1704 1.04246E-04-3.74937E-06-4.28020E-05 6.62617E-05-1.48908E-17-1.88126E-17
 -1      1705 2.14446E-04-4.86074E-05-6.58363E-05 5.09080E-05-6.69024E-18-1.37651E-17
 -1      1706 1.73353E-04-2.81490E-05-5.92185E-05 6.57242E-05-9.61382E-18-1.69856E-17
 -1      1707 2.47576E-04-6.29774E-05-7.27715E-05 6.80500E-06-3.67104E-18-6.91497E-18
 -1      1708 2.30088E-04-5.37553E-05-7.03097E-05 3.81454E-05-5.40301E-18-1.20897E-17
 -1      1709 2.35442E-04-5.48663E-05-7.14919E-05-4.40367E-05-3.58591E-18 1.12486E-18
 -1      1710 2.50351E-04-6.39643E-05-7.33322E-05-1.01147E-05-2.90490E-18-4.33813E-18
 -1      1711 1.77426E-04-2.71260E-05-6.07003E-05-7.14411E-05-6.87325E-18 8.34582E-18
 -1      1712 2.18362E-04-4.83301E-05-6.71282E-05-5.56102E-05-4.31579E-18 3.66088E-18
 -1      1713 1.09852E-04-3.36575E-06-4.45280E-05-7.13529E-05-9.96534E-18 1.20194E-17
 -1      1714 1.53621E-04-1.95302E-05-5.34604E-05-7.97521E-05-7.58772E-18 1.12596E-17
 -1      1715 5.84735E-05-3.03256E-06-2.54889E-05-4.46717E-05-1.14858E-17 1.03304E-17
 -1      1716 8.73329E-05-1.38146E-06-3.53803E-05-6.68310E-05-1.03668E-17 1.18051E-17
 -1      1717 2.91574E-05-2.23673E-05-7.17031E-06-1.57001E-05-1.21134E-17 7.12948E-18
 -1      1718 3.79803E-05-3.29511E-06-1.62543E-05-3.58925E-05-1.22125E-17 9.65787E-18
 -1      1719 2.34562E-05-5.16766E-05 6.52369E-06-3.18764E-06-5.84453E-18 4.78289E-18
 -1      1720 2.02719E-05-2.90709E-05 6.83494E-08-9.16609E-06-1.03660E-17 6.95965E-18
 -1      1721 2.09572E-05-6.55635E-05 1.31503E-05-3.39505E-06 1.04524E-18 2.97986E-18
 -1      1722 1.78731E-05-5.56076E-05 1.07855E-05 3.56946E-06-4.23347E-18 3.89889E-18
 -1      1723 1.15221E-04-2.97085E-05-3.57373E-05 4.68322E-05 6.76102E-18 4.46979E-18
 -1      1724 7.43004E-05-3.19747E-05-1.92511E-05 4.16782E-05 6.86436E-18 5.69079E-18
 -1      1725 9.52370E-05-2.85712E-05-2.85711E-05-5.58228E-11-5.06602E-18-3.35732E-18
 -1      1726 9.52370E-05-2.85715E-05-2.85709E-05-4.68383E-10-2.12054E-18-2.22156E-18
 -1      1727 1.80073E-05-3.90255E-05 5.24871E-06 1.62012E-05 3.69222E-18 5.77761E-18
 -1      1728 4.02406E-05-3.67036E-05-4.44677E-06 3.01885E-05 6.10033E-18 5.86441E-18
 -1      1729 1.02423E-05-3.92101E-05 8.60550E-06 2.42930E-07 1.13524E-18 5.58534E-18
 -1      1730 1.56892E-04-3.02243E-05-5.13854E-05 4.34161E-05 6.14607E-18 2.21923E-18
 -1      1731 1.92528E-04-3.28531E-05-6.37182E-05 3.14248E-05 5.26833E-18-7.01767E-19
 -1      1732 2.12466E-04-3.57987E-05-6.98983E-05 1.15515E-05 5.21222E-18-4.32950E-18
 -1      1733 2.06108E-04-3.53811E-05-6.79002E-05-1.13140E-05 6.64921E-18-7.98540E-18
 -1      1734 1.79065E-04-3.31699E-05-5.87767E-05-2.97497E-05 8.18059E-18-1.06692E-17
 -1      1735 1.39241E-04-3.06224E-05-4.48311E-05-4.07945E-05 9.18819E-18-1.20101E-17
 -1      1736 9.47417E-05-2.85887E-05-2.86922E-05-4.15380E-05 9.35802E-18-1.13562E-17
 -1      1737 5.34293E-05-2.66546E-05-1.34306E-05-3.40266E-05 8.89554E-18-1.01835E-17
 -1      1738 2.39392E-05-2.84012E-05-1.43130E-06-1.97173E-05 6.80422E-18-8.40288E-18
 -1      1739 9.84596E-06-2.97457E-05 4.88094E-06-6.95002E-06 2.50192E-18-7.12079E-18
 -1      1740 8.26945E-06-2.99980E-05 5.69052E-06 4.88259E-06-1.85172E-18-6.74577E-18
 -1      1741 1.80642E-05-2.84281E-05 1.01080E-06 1.70978E-05-6.29430E-18-7.54092E-18
 -1      1742 3.91511E-05-2.41660E-05-8.93125E-06 2.98802E-05-9.22758E-18-9.60271E-18
 -1      1743 7.24160E-05-2.25452E-05-2.24344E-05 4.11150E-05-1.05794E-17-1.14468E-17
 -1      1744 1.15925E-04-2.48547E-05-3.81313E-05 4.61736E-05-1.05129E-17-1.23675E-17
 -1      1745 1.61830E-04-2.99108E-05-5.34517E-05 3.76193E-05-9.00407E-18-1.10157E-17
 -1      1746 1.93463E-04-3.22716E-05-6.45321E-05 1.79570E-05-7.50746E-18-8.37334E-18
 -1      1747 2.09031E-04-3.43566E-05-6.93268E-05-3.27958E-06-6.15878E-18-4.89786E-18
 -1      1748 1.96829E-04-3.27288E-05-6.56760E-05-2.37242E-05-6.11346E-18-4.42575E-19
 -1      1749 1.65018E-04-2.92516E-05-5.47654E-05-4.22087E-05-6.52274E-18 3.53128E-18
 -1      1750 1.21909E-04-2.76076E-05-3.90226E-05-4.82287E-05-6.19943E-18 6.39086E-18
 -1      1751 7.82655E-05-2.94579E-05-2.16223E-05-4.32811E-05-6.31802E-18 6.28117E-18
 -1      1752 4.22893E-05-3.51581E-05-5.79660E-06-3.13800E-05-5.05255E-18 5.98376E-18
 -1      1753 1.94857E-05-3.99363E-05 5.03069E-06-1.79132E-05-2.00112E-18 6.46223E-18
 -1      1754 1.31497E-04-2.99129E-05-4.35876E-05-1.78929E-05-1.79296E-18 6.50987E-18
 -1      1755 1.03520E-04-1.76835E-05-3.69141E-05-1.11855E-05-1.46714E-18-2.44290E-18
 -1      1756 1.07091E-04-1.85591E-05-3.81674E-05-1.43769E-05-1.93588E-18-1.79915E-18
 -1      1757 1.11005E-04-2.03477E-05-3.90482E-05-1.62916E-05-2.15992E-18-8.79644E-19
 -1      1758 1.14613E-04-2.22131E-05-4.02296E-05-1.88743E-05-2.49684E-18 3.71106E-19
 -1      1759 1.12034E-04-2.45749E-05-3.75423E-05-1.46198E-05-2.14301E-18-1.02578E-18
 -1      1760 8.53196E-05-1.25644E-05-3.12734E-05 1.86377E-06 1.86612E-19-3.81874E-18
 -1      1761 9.07512E-05-1.40663E-05-3.28872E-05-1.06153E-06-1.65952E-19-3.59280E-18
 -1      1762 7.21680E-05-7.23063E-06-2.79537E-05 6.88723E-06 7.12831E-19-4.17537E-18
 -1      1763 7.88090E-05-9.52838E-06-2.96220E-05 4.98920E-06 4.90829E-19-4.06596E-18
 -1      1764 8.47748E-05-1.51073E-05-2.99815E-05 4.19788E-06 4.08224E-19-3.74853E-18
 -1      1765 5.85180E-05-5.78167E-07-2.49654E-05 8.33922E-06 1.00829E-18-4.54832E-18
 -1      1766 6.48485E-05-3.04800E-06-2.63561E-05 8.13108E-06 9.18290E-19-4.39918E-18
 -1      1767 7.00026E-05-7.93933E-06-2.66840E-05 9.15794E-06 1.02398E-18-4.27037E-18
 -1      1768 4.85279E-05 4.96941E-06-2.30050E-05 5.36550E-06 8.95942E-19-4.86425E-18
 -1      1769 5.23677E-05 3.33977E-06-2.37699E-05 6.90094E-06 1.01219E-18-4.80071E-18
 -1      1770 5.53790E-05 2.56585E-07-2.38093E-05 9.36686E-06 1.16889E-18-4.80088E-18
 -1      1771 4.71000E-05 6.15783E-06-2.27990E-05-1.94513E-07 5.86749E-19-4.93553E-18
 -1      1772 4.65443E-05 6.32766E-06-2.26549E-05 1.94415E-06 7.59835E-19-4.96342E-18
 -1      1773 4.63155E-05 5.73735E-06-2.21803E-05 4.36256E-06 9.52905E-19-5.18049E-18
 -1      1774 5.51596E-05 2.23451E-06-2.44851E-05-4.70381E-06 3.11113E-19-4.56638E-18
 -1      1775 5.03311E-05 4.14298E-06-2.34386E-05-3.44346E-06 3.82998E-19-4.79396E-18
 -1      1776 4.76238E-05 5.08739E-06-2.24666E-05-2.68130E-06 4.98988E-19-5.13213E-18
 -1      1777 6.91985E-05-4.59510E-06-2.75747E-05-5.07748E-06 3.21423E-19-3.77836E-18
 -1      1778 6.21482E-05-1.97968E-06-2.59246E-05-5.65114E-06 2.33027E-19-4.14027E-18
 -1      1779 5.88680E-05-1.38174E-06-2.46248E-05-6.93313E-06 1.78181E-19-4.45922E-18
 -1      1780 8.41284E-05-1.10973E-05-3.12625E-05-1.16102E-06 8.03980E-19-2.77692E-18
 -1      1781 7.70986E-05-8.81865E-06-2.93882E-05-3.37300E-06 5.13077E-19-3.21769E-18
 -1      1782 7.49702E-05-9.95730E-06-2.79570E-05-5.69257E-06 2.87224E-19-3.40196E-18
 -1      1783 9.69968E-05-1.57386E-05-3.49050E-05 5.21826E-06 1.52504E-18-1.67771E-18
 -1      1784 9.10359E-05-1.41282E-05-3.30719E-05 2.09301E-06 1.15052E-18-2.26661E-18
 -1      1785 9.06037E-05-1.71278E-05-3.16118E-05-1.52706E-07 8.99675E-19-2.24445E-18
 -1      1786 1.07972E-04-1.93461E-05-3.82130E-05 1.18952E-05 2.13913E-18-1.42778E-19
 -1      1787 1.02643E-04-1.78079E-05-3.65090E-05 8.58645E-06 1.77567E-18-9.98546E-19
 -1      1788 1.03363E-04-2.19421E-05-3.49887E-05 6.81837E-06 1.63457E-18-1.03206E-18
 -1      1789 1.19947E-04-2.49203E-05-4.10131E-05 1.69411E-05 2.39649E-18 2.62390E-18
 -1      1790 1.13587E-04-2.18420E-05-3.95166E-05 1.43663E-05 2.25169E-18 9.73135E-19
 -1      1791 1.14545E-04-2.62310E-05-3.78285E-05 1.23947E-05 2.19315E-18 6.49754E-19
 -1      1792 1.30798E-04-3.42972E-05-4.18976E-05 1.43200E-05 2.22537E-18 6.13294E-18
 -1      1793 1.24218E-04-2.76863E-05-4.13709E-05 1.67002E-05 2.33197E-18 3.87698E-18
 -1      1794 1.22628E-04-3.12190E-05-3.93031E-05 1.33409E-05 2.46070E-18 2.78049E-18
 -1      1795 1.27571E-04-3.57470E-05-3.96197E-05 9.82514E-06 2.19059E-18 5.44947E-18
 -1      1796 1.23059E-04-2.57635E-05-4.13368E-05-2.03071E-05-2.31506E-18 2.69674E-18
 -1      1797 1.23292E-04-3.72017E-05-3.69555E-05 7.51904E-06 1.62331E-18 4.68475E-18
 -1      1798 1.26496E-04-3.74193E-05-3.82572E-05 8.36479E-06 1.76400E-18 5.15974E-18
 -1      1799 1.24798E-04-3.55716E-05-3.82244E-05 1.08244E-05 2.03330E-18 3.77917E-18
 -1      1800 1.22392E-04-3.00926E-05-3.92454E-05-1.62385E-05-2.36031E-18 1.87125E-18
 -1      1801 1.19168E-04-3.53256E-05-3.58251E-05-1.00831E-05-1.83683E-18 1.75601E-18
 -1      1802 1.15965E-04-3.49702E-05-3.47405E-05-9.57995E-06-1.65545E-18 1.32350E-18
 -1      1803 1.14448E-04-3.48206E-05-3.40491E-05-9.74942E-06-1.56357E-18 1.38567E-18
 -1      1804 1.11680E-04-3.39506E-05-3.32884E-05-1.00080E-05-1.40801E-18 9.58007E-19
 -1      1805 1.16197E-04-3.51232E-05-3.47328E-05-1.22822E-05-1.86979E-18 5.78831E-19
 -1      1806 1.09824E-04-3.30756E-05-3.28601E-05-1.01786E-05-1.26226E-18 8.34691E-19
 -1      1807 1.07100E-04-3.17136E-05-3.22479E-05-9.99774E-06-1.14991E-18 3.06824E-19
 -1      1808 1.12875E-04-3.41294E-05-3.37323E-05-1.26018E-05-1.64407E-18 3.47763E-19
 -1      1809 1.05051E-04-3.03981E-05-3.19859E-05-9.16203E-06-1.00378E-18 1.94096E-19
 -1      1810 1.02774E-04-2.89962E-05-3.15337E-05-7.91864E-06-9.89745E-19-2.87578E-19
 -1      1811 1.08876E-04-3.14076E-05-3.32031E-05-1.19451E-05-1.48534E-18 1.28060E-19
 -1      1812 1.01103E-04-2.78341E-05-3.13787E-05-5.64556E-06-9.87085E-19-6.26315E-19
 -1      1813 9.98719E-05-2.70440E-05-3.11382E-05-3.40634E-06-9.74233E-19-1.01056E-18
 -1      1814 1.04964E-04-2.82211E-05-3.29398E-05-8.53020E-06-1.25166E-18-5.97008E-19
 -1      1815 9.92947E-05-2.67347E-05-3.10388E-05-2.74390E-07-1.14090E-18-1.29334E-18
 -1      1816 9.94708E-05-2.69852E-05-3.10342E-05 2.16058E-06-9.80374E-19-1.52757E-18
 -1      1817 1.02595E-04-2.63481E-05-3.27616E-05-2.42697E-06-1.27809E-18-1.27961E-18
 -1      1818 1.00138E-04-2.76993E-05-3.09657E-05 4.85892E-06-9.32577E-19-1.62978E-18
 -1      1819 1.01519E-04-2.88176E-05-3.11682E-05 6.49962E-06-8.24891E-19-1.87884E-18
 -1      1820 1.02762E-04-2.69630E-05-3.25511E-05 4.18062E-06-1.11953E-18-1.86492E-18
 -1      1821 1.02825E-04-3.00374E-05-3.11355E-05 7.71559E-06-9.61601E-19-2.15750E-18
 -1      1822 1.04752E-04-3.14022E-05-3.14639E-05 8.06512E-06-5.79312E-19-2.05417E-18
 -1      1823 1.04972E-04-2.96201E-05-3.23037E-05 8.53883E-06-9.59745E-19-2.33953E-18
 -1      1824 1.05866E-04-3.24125E-05-3.14711E-05 7.66875E-06-6.85293E-19-2.34939E-18
 -1      1825 1.07624E-04-3.34494E-05-3.18148E-05 6.93073E-06-6.12008E-19-3.03697E-18
 -1      1826 1.07641E-04-3.26956E-05-3.20883E-05 9.33072E-06-1.06969E-18-2.63377E-18
 -1      1827 1.08095E-04-3.38873E-05-3.18405E-05 5.53658E-06-4.94892E-19-3.06600E-18
 -1      1828 1.09240E-04-3.43744E-05-3.21009E-05 4.28028E-06-1.64530E-19-3.34712E-18
 -1      1829 1.09370E-04-3.47287E-05-3.19497E-05 7.21949E-06-7.52566E-19-2.84409E-18
 -1      1830 1.09070E-04-3.42897E-05-3.21085E-05 2.64581E-06-2.51145E-19-3.35073E-18
 -1      1831 1.09489E-04-3.43029E-05-3.22308E-05 1.39391E-06-1.34996E-19-3.42226E-18
 -1      1832 1.09699E-04-3.52828E-05-3.18651E-05 3.80994E-06-2.75392E-19-2.66757E-18
 -1      1833 1.08895E-04-3.39206E-05-3.21906E-05 2.30887E-08 1.65727E-19-3.27746E-18
 -1      1834 1.08699E-04-3.36457E-05-3.21696E-05-9.33528E-07 1.87532E-19-2.51339E-18
 -1      1835 1.08888E-04-3.47243E-05-3.17721E-05 4.94856E-07 2.50034E-19-2.57672E-18
 -1      1836 1.07902E-04-3.31707E-05-3.20723E-05-1.85151E-06-2.09168E-19-1.91920E-18
 -1      1837 1.07289E-04-3.27726E-05-3.19369E-05-2.43846E-06 1.87803E-20-1.83650E-18
 -1      1838 1.07424E-04-3.36421E-05-3.16187E-05-1.99686E-06 3.46913E-19-1.80658E-18
 -1      1839 1.06439E-04-3.23223E-05-3.17910E-05-2.92032E-06-1.68715E-19-2.12610E-18
 -1      1840 1.05600E-04-3.19059E-05-3.15831E-05-3.18680E-06-3.71503E-19-1.99403E-18
 -1      1841 1.05708E-04-3.24792E-05-3.13872E-05-3.50438E-06-2.23053E-19-1.49260E-18
 -1      1842 1.04783E-04-3.15267E-05-3.14065E-05-3.33574E-06-4.74919E-19-2.08475E-18
 -1      1843 1.03869E-04-3.11450E-05-3.11658E-05-3.37398E-06-3.58076E-19-2.32721E-18
 -1      1844 1.03986E-04-3.14584E-05-3.10896E-05-4.17115E-06-3.87568E-19-1.85905E-18
 -1      1845 1.03125E-04-3.08437E-05-3.09775E-05-3.30592E-06-4.95831E-19-2.39418E-18
 -1      1846 1.02237E-04-3.05174E-05-3.07343E-05-3.20527E-06-1.15631E-19-2.23926E-18
 -1      1847 1.02388E-04-3.06476E-05-3.07532E-05-4.23984E-06-4.70449E-19-1.46477E-18
 -1      1848 1.01584E-04-3.02847E-05-3.05498E-05-3.01633E-06 1.22811E-19-2.48489E-18
 -1      1849 1.00781E-04-3.00172E-05-3.03236E-05-2.84557E-06 2.53903E-20-2.46366E-18
 -1      1850 1.00970E-04-3.00372E-05-3.04074E-05-3.94186E-06-1.20468E-19-1.59893E-18
 -1      1851 1.00223E-04-2.98398E-05-3.01536E-05-2.60407E-06 3.80983E-20-2.44394E-18
 -1      1852 9.95306E-05-2.96269E-05-2.99548E-05-2.40940E-06 4.88161E-19-2.12190E-18
 -1      1853 9.97505E-05-2.95904E-05-3.00758E-05-3.45602E-06 5.97423E-20-1.85571E-18
 -1      1854 9.90656E-05-2.94927E-05-2.98053E-05-2.15884E-06 7.37020E-19-2.36715E-18
 -1      1855 9.84909E-05-2.93269E-05-2.96377E-05-1.96797E-06 8.92386E-19-1.81919E-18
 -1      1856 9.87264E-05-2.92683E-05-2.97745E-05-2.90406E-06 5.19100E-19-1.97392E-18
 -1      1857 9.81111E-05-2.92261E-05-2.95108E-05-1.73323E-06 7.03050E-19-1.49906E-18
 -1      1858 9.76483E-05-2.90997E-05-2.93742E-05-1.56080E-06 1.89218E-19-1.72949E-18
 -1      1859 9.78846E-05-2.90380E-05-2.95119E-05-2.36061E-06 9.02523E-19-1.68529E-18
 -1      1860 9.73442E-05-2.90245E-05-2.92697E-05-1.35413E-06-5.89153E-19-1.17735E-18
 -1      1861 9.69811E-05-2.89299E-05-2.91613E-05-1.20636E-06-3.56127E-19-1.39636E-18
 -1      1862 9.72063E-05-2.88747E-05-2.92904E-05-1.86634E-06 4.77978E-20-1.64889E-18
 -1      1863 9.67423E-05-2.88745E-05-2.90775E-05-1.03206E-06 1.10598E-19-1.55046E-18
 -1      1864 9.64642E-05-2.88053E-05-2.89937E-05-9.10130E-07 7.27299E-19-1.28332E-18
 -1      1865 9.66700E-05-2.87600E-05-2.91090E-05-1.43946E-06-7.87426E-20-7.03599E-19
 -1      1866 9.62802E-05-2.87650E-05-2.89279E-05-7.67842E-07 6.28928E-19-1.59140E-18
 -1      1867 9.60720E-05-2.87154E-05-2.88646E-05-6.70199E-07 5.83653E-19-1.88601E-18
 -1      1868 9.62538E-05-2.86806E-05-2.89639E-05-1.08435E-06 4.33745E-19-1.97126E-18
 -1      1869 9.59331E-05-2.86867E-05-2.88142E-05-5.57123E-07 7.45261E-20-2.35047E-18
 -1      1870 9.57810E-05-2.86522E-05-2.87674E-05-4.80887E-07-7.83549E-19-2.76578E-18
 -1      1871 9.59370E-05-2.86267E-05-2.88506E-05-7.97575E-07 3.39822E-19-2.50626E-18
 -1      1872 9.56782E-05-2.86321E-05-2.87296E-05-3.93129E-07-1.13706E-18-2.87385E-18
 -1      1873 9.55700E-05-2.86089E-05-2.86959E-05-3.34972E-07-1.28127E-18-2.91262E-18
 -1      1874 9.57006E-05-2.85911E-05-2.87638E-05-5.71726E-07-7.71560E-19-2.75983E-18
 -1      1875 9.54956E-05-2.85954E-05-2.86682E-05-2.68365E-07-1.19061E-18-1.93971E-18
 -1      1876 9.54210E-05-2.85805E-05-2.86446E-05-2.24997E-07-2.73759E-19-2.04587E-18
 -1      1877 9.55280E-05-2.85687E-05-2.86989E-05-3.97876E-07-8.77169E-19-1.48747E-18
 -1      1878 9.53687E-05-2.85717E-05-2.86248E-05-1.75559E-07 3.78382E-19-2.25300E-18
 -1      1879 9.53192E-05-2.85627E-05-2.86089E-05-1.43974E-07 7.33854E-19-1.74832E-18
 -1      1880 9.54050E-05-2.85555E-05-2.86514E-05-2.66970E-07-2.23197E-19-1.19986E-18
 -1      1881 9.52835E-05-2.85573E-05-2.85951E-05-1.08140E-07 7.20189E-19-2.13021E-18
 -1      1882 9.52524E-05-2.85526E-05-2.85849E-05-8.57327E-08 1.70022E-19-1.87688E-18
 -1      1883 9.53200E-05-2.85486E-05-2.86175E-05-1.70602E-07 5.50169E-19-1.81577E-18
 -1      1884 9.52291E-05-2.85496E-05-2.85756E-05-6.04438E-08-6.34981E-20-1.38854E-18
 -1      1885 9.52111E-05-2.85476E-05-2.85695E-05-4.50311E-08 7.79629E-19-1.19901E-18
 -1      1886 9.52633E-05-2.85459E-05-2.85941E-05-1.01379E-07 9.25988E-19-5.88156E-19
 -1      1887 9.51968E-05-2.85463E-05-2.85636E-05-2.77458E-08 6.49390E-19-1.06698E-18
 -1      1888 9.51878E-05-2.85462E-05-2.85603E-05-1.75517E-08 3.92080E-19-4.60018E-19
 -1      1889 9.52274E-05-2.85459E-05-2.85784E-05-5.30382E-08 6.87541E-19-1.57236E-18
 -1      1890 9.51798E-05-2.85459E-05-2.85568E-05-6.21268E-09-2.61624E-19-4.88110E-19
 -1      1891 9.51770E-05-2.85469E-05-2.85554E-05 1.75289E-10-1.98321E-19-1.44012E-18
 -1      1892 9.52063E-05-2.85476E-05-2.85685E-05-2.04286E-08 8.66442E-20-5.91223E-19
 -1      1893 9.51733E-05-2.85473E-05-2.85536E-05 7.19639E-09-6.34444E-19-2.13096E-18
 -1      1894 9.51743E-05-2.85489E-05-2.85535E-05 1.08777E-08-1.03236E-18-2.07956E-18
 -1      1895 9.51956E-05-2.85501E-05-2.85627E-05 5.84683E-10-9.17500E-19-1.91334E-18
 -1      1896 9.51735E-05-2.85497E-05-2.85528E-05 1.48435E-08-1.42225E-18-2.53387E-18
 -1      1897 9.51767E-05-2.85515E-05-2.85535E-05 1.66569E-08-1.42528E-18-3.63116E-18
 -1      1898 9.51918E-05-2.85529E-05-2.85598E-05 1.32502E-08-1.66059E-18-3.09728E-18
 -1      1899 9.51777E-05-2.85525E-05-2.85536E-05 1.85266E-08-9.00942E-19-3.07265E-18
 -1      1900 9.51821E-05-2.85544E-05-2.85546E-05 1.90988E-08-1.70043E-19-2.78734E-18
 -1      1901 9.51925E-05-2.85558E-05-2.85587E-05 2.00690E-08-1.13604E-18-2.10430E-18
 -1      1902 9.51841E-05-2.85554E-05-2.85551E-05 1.95868E-08 3.98302E-19-2.98955E-18
 -1      1903 9.51889E-05-2.85572E-05-2.85564E-05 1.93759E-08 7.68983E-19-2.72000E-18
 -1      1904 9.51958E-05-2.85586E-05-2.85589E-05 2.29277E-08 2.61899E-21-1.65128E-18
 -1      1905 9.51914E-05-2.85582E-05-2.85571E-05 1.90021E-08 1.63981E-18-2.26171E-18
 -1      1906 9.51962E-05-2.85598E-05-2.85584E-05 1.83349E-08 1.73866E-18-9.20081E-19
 -1      1907 9.52004E-05-2.85610E-05-2.85598E-05 2.32203E-08 1.57310E-18-1.40050E-18
 -1      1908 9.51988E-05-2.85607E-05-2.85592E-05 1.74682E-08 1.60033E-18-8.30724E-19
 -1      1909 9.52033E-05-2.85621E-05-2.85605E-05 1.65710E-08 1.73254E-18-6.67605E-19
 -1      1910 9.52057E-05-2.85632E-05-2.85611E-05 2.19528E-08 1.56496E-18-1.21839E-19
 -1      1911 9.52058E-05-2.85629E-05-2.85613E-05 1.54651E-08 1.79819E-18-2.51099E-19
 -1      1912 9.52098E-05-2.85641E-05-2.85624E-05 1.44885E-08 1.22292E-18-1.47297E-20
 -1      1913 9.52109E-05-2.85650E-05-2.85625E-05 1.98315E-08 2.00173E-18-1.17254E-19
 -1      1914 9.52122E-05-2.85648E-05-2.85632E-05 1.33106E-08 2.69731E-19 1.21265E-19
 -1      1915 9.52157E-05-2.85658E-05-2.85642E-05 1.23492E-08-2.72146E-20-9.37238E-20
 -1      1916 9.52158E-05-2.85665E-05-2.85640E-05 1.73355E-08 6.78568E-19-2.75164E-19
 -1      1917 9.52177E-05-2.85664E-05-2.85649E-05 1.12024E-08-4.77544E-19 5.11982E-20
 -1      1918 9.52207E-05-2.85672E-05-2.85658E-05 1.03097E-08-1.78498E-19 6.14520E-19
 -1      1919 9.52203E-05-2.85678E-05-2.85653E-05 1.47736E-08 1.79871E-19-6.76535E-19
 -1      1920 9.52225E-05-2.85677E-05-2.85664E-05 9.25011E-09 8.43334E-19 5.74643E-19
 -1      1921 9.52249E-05-2.85684E-05-2.85671E-05 8.44975E-09 1.33324E-18 1.29789E-18
 -1      1922 9.52241E-05-2.85688E-05-2.85666E-05 1.23294E-08 3.84598E-19-2.44340E-20
 -1      1923 9.52264E-05-2.85688E-05-2.85676E-05 7.49927E-09 9.48114E-19 2.08027E-18
 -1      1924 9.52284E-05-2.85693E-05-2.85682E-05 6.79261E-09 7.66749E-19 2.89812E-18
 -1      1925 9.52274E-05-2.85696E-05-2.85676E-05 1.00948E-08 1.34036E-18 8.88991E-19
 -1      1926 9.52297E-05-2.85696E-05-2.85686E-05 5.94812E-09 1.14413E-18 3.46867E-18
 -1      1927 9.52312E-05-2.85701E-05-2.85691E-05 5.31987E-09 1.72686E-18 4.06404E-18
 -1      1928 9.52302E-05-2.85702E-05-2.85685E-05 8.09454E-09 1.47751E-18 1.93600E-18
 -1      1929 9.52323E-05-2.85704E-05-2.85694E-05 4.56090E-09 3.39930E-19 3.32453E-18
 -1      1930 9.52335E-05-2.85707E-05-2.85698E-05 3.98408E-09-2.73980E-19 2.59177E-18
 -1      1931 9.52324E-05-2.85708E-05-2.85692E-05 6.30598E-09 6.50595E-19 3.96661E-18
 -1      1932 9.52343E-05-2.85709E-05-2.85700E-05 3.28016E-09-5.26250E-19 1.20504E-18
 -1      1933 9.52352E-05-2.85712E-05-2.85703E-05 2.72412E-09-1.12082E-18 6.65550E-19
 -1      1934 9.52342E-05-2.85713E-05-2.85698E-05 4.67741E-09-1.69427E-18 1.44000E-18
 -1      1935 9.52357E-05-2.85713E-05-2.85705E-05 2.08851E-09-1.01640E-18 2.08360E-19
 -1      1936 9.52363E-05-2.85715E-05-2.85706E-05 1.56090E-09-7.22029E-19-8.10268E-20
 -1      1937 9.52365E-05-2.85718E-05-2.85706E-05 1.85851E-09-1.71838E-18-6.56444E-19
 -1      1938 9.52356E-05-2.85716E-05-2.85702E-05 3.19080E-09-1.39409E-18 1.16774E-18
 -1      1939 1.18755E-04-3.65278E-05-3.52200E-05 8.81355E-06 1.22111E-18 4.09020E-18
 -1      1940 1.21689E-04-3.72751E-05-3.61402E-05 8.03375E-06 1.26144E-18 4.46838E-18
 -1      1941 1.21754E-04-3.72687E-05-3.61904E-05 1.00122E-05 1.56494E-18 3.33033E-18
 -1      1942 1.13437E-04-3.45112E-05-3.37869E-05 1.05472E-05 1.30432E-18 3.64670E-18
 -1      1943 1.16647E-04-3.58000E-05-3.46180E-05 9.60963E-06 1.20619E-18 3.97433E-18
 -1      1944 1.17912E-04-3.64297E-05-3.48771E-05 1.16639E-05 1.41360E-18 3.05890E-18
 -1      1945 1.07553E-04-3.14429E-05-3.25859E-05 1.02353E-05 8.02802E-19 2.84833E-18
 -1      1946 1.10859E-04-3.30635E-05-3.33225E-05 1.03315E-05 1.16561E-18 3.31443E-18
 -1      1947 1.13138E-04-3.38127E-05-3.39685E-05 1.26977E-05 1.42272E-18 2.76503E-18
 -1      1948 1.02571E-04-2.84901E-05-3.17573E-05 6.40350E-06 4.24139E-19 1.69002E-18
 -1      1949 1.05162E-04-2.98169E-05-3.22688E-05 8.18841E-06 6.26460E-19 2.19914E-18
 -1      1950 1.08051E-04-3.02563E-05-3.33692E-05 1.05319E-05 9.56194E-19 2.04993E-18
 -1      1951 1.00552E-04-2.73621E-05-3.14214E-05-7.36156E-08 7.60847E-19 7.87105E-19
 -1      1952 1.01478E-04-2.76722E-05-3.15924E-05 2.90060E-06 6.90835E-19 1.07459E-18
 -1      1953 1.04464E-04-2.76039E-05-3.30187E-05 4.44292E-06 9.52766E-19 8.21705E-19
 -1      1954 1.02339E-04-2.87774E-05-3.15846E-05-6.13283E-06 1.03125E-18 1.44525E-19
 -1      1955 1.01288E-04-2.79180E-05-3.13977E-05-3.41401E-06 1.03420E-18 5.05851E-19
 -1      1956 1.04057E-04-2.75753E-05-3.28471E-05-3.28960E-06 1.22407E-18-7.01813E-20
 -1      1957 1.06575E-04-3.16568E-05-3.21232E-05-8.94918E-06 1.27877E-18-7.36919E-19
 -1      1958 1.04208E-04-3.02142E-05-3.16814E-05-7.69560E-06 1.12544E-18-4.21134E-20
 -1      1959 1.06634E-04-3.00993E-05-3.28171E-05-8.86740E-06 1.34117E-18-6.42567E-19
 -1      1960 1.10863E-04-3.42372E-05-3.28079E-05-8.02689E-06 3.50089E-19-1.42102E-18
 -1      1961 1.08325E-04-3.29790E-05-3.22938E-05-8.38247E-06 9.91440E-19-9.18687E-19
 -1      1962 1.10223E-04-3.33818E-05-3.29127E-05-1.01002E-05 1.18794E-18-1.14374E-18
 -1      1963 1.13527E-04-3.55268E-05-3.33787E-05-4.87686E-06-7.17662E-20-1.37093E-18
 -1      1964 1.11715E-04-3.48531E-05-3.29724E-05-6.16982E-06 6.68362E-21-1.40110E-18
 -1      1965 1.12830E-04-3.56162E-05-3.30759E-05-7.64139E-06 1.29060E-19-1.63844E-18
 -1      1966 1.14178E-04-3.55641E-05-3.36513E-05-1.36842E-06-5.07955E-20-1.01713E-18
 -1      1967 1.13424E-04-3.54581E-05-3.34576E-05-2.81823E-06-5.14043E-20-9.52475E-19
 -1      1968 1.13649E-04-3.62099E-05-3.31919E-05-3.61984E-06-1.47351E-19-1.60145E-18
 -1      1969 1.13238E-04-3.48508E-05-3.35730E-05 1.36199E-06 4.88841E-19-1.27345E-18
 -1      1970 1.13428E-04-3.51122E-05-3.36043E-05 2.22286E-07 2.49736E-19-1.03005E-18
 -1      1971 1.12907E-04-3.55854E-05-3.31525E-05 1.30541E-07 3.37933E-19-1.27927E-18
 -1      1972 1.11333E-04-3.38458E-05-3.32032E-05 3.00127E-06 5.30547E-19-1.04306E-18
 -1      1973 1.12168E-04-3.42823E-05-3.34085E-05 2.30478E-06 4.81843E-19-1.12938E-18
 -1      1974 1.11193E-04-3.44222E-05-3.29172E-05 2.75822E-06 4.97844E-19-1.13276E-18
 -1      1975 1.08998E-04-3.28240E-05-3.26498E-05 3.69898E-06-3.78701E-19-1.46536E-18
 -1      1976 1.10171E-04-3.33065E-05-3.29577E-05 3.38926E-06 3.67765E-19-9.15967E-19
 -1      1977 1.09033E-04-3.31897E-05-3.25153E-05 4.17129E-06 4.97860E-19-5.70556E-19
 -1      1978 1.06604E-04-3.19102E-05-3.20187E-05 3.75375E-06 3.02137E-19-2.08337E-18
 -1      1979 1.07876E-04-3.23682E-05-3.23655E-05 3.71129E-06-1.03569E-19-1.85386E-18
 -1      1980 1.06782E-04-3.21063E-05-3.20101E-05 4.63390E-06 2.42355E-19-1.24223E-18
 -1      1981 1.04366E-04-3.11417E-05-3.13894E-05 3.44311E-06 5.18859E-19-1.61958E-18
 -1      1982 1.05588E-04-3.15441E-05-3.17303E-05 3.55534E-06 6.32589E-19-1.90537E-18
 -1      1983 1.04647E-04-3.12309E-05-3.14675E-05 4.48636E-06 5.91394E-19-9.81541E-19
 -1      1984 1.02395E-04-3.05163E-05-3.08111E-05 2.96694E-06-3.77800E-19-9.97835E-19
 -1      1985 1.03484E-04-3.08538E-05-3.11200E-05 3.15171E-06 5.23936E-20-1.18756E-18
 -1      1986 1.02736E-04-3.05492E-05-3.09392E-05 4.01206E-06-5.80871E-20-8.57814E-19
 -1      1987 1.00727E-04-3.00183E-05-3.03083E-05 2.44945E-06-9.69557E-19-1.78052E-19
 -1      1988 1.01652E-04-3.02924E-05-3.05735E-05 2.65503E-06-6.45174E-19-6.22672E-19
 -1      1989 1.01092E-04-3.00265E-05-3.04578E-05 3.40585E-06-5.73934E-19-4.00757E-19
 -1      1990 9.93601E-05-2.96281E-05-2.98881E-05 1.95870E-06-1.31477E-18 3.49139E-19
 -1      1991 1.00118E-04-2.98452E-05-3.01070E-05 2.15626E-06-1.09657E-18 1.15467E-19
 -1      1992 9.97190E-05-2.96285E-05-3.00400E-05 2.78535E-06-1.23663E-18 6.49479E-19
 -1      1993 9.82673E-05-2.93270E-05-2.95476E-05 1.52645E-06-1.21257E-18 6.33820E-19
 -1      1994 9.88703E-05-2.94954E-05-2.97230E-05 1.70211E-06-1.42999E-18 8.12531E-19
 -1      1995 9.86010E-05-2.93272E-05-2.96901E-05 2.21307E-06-1.58413E-18 1.19429E-18
 -1      1996 9.74128E-05-2.90982E-05-2.92786E-05 1.16309E-06 2.30288E-19 1.52352E-18
 -1      1997 9.78815E-05-2.92263E-05-2.94157E-05 1.31189E-06-2.27178E-19 1.19864E-18
 -1      1998 9.77103E-05-2.91007E-05-2.94056E-05 1.71652E-06-6.27742E-19 1.61997E-18
 -1      1999 9.67579E-05-2.89272E-05-2.90706E-05 8.67530E-07-4.33813E-19 8.93146E-19
 -1      2000 9.71145E-05-2.90228E-05-2.91755E-05 9.89399E-07-3.66052E-20 1.34418E-18
 -1      2001 9.70146E-05-2.89322E-05-2.91797E-05 1.30282E-06-2.38220E-20 2.04109E-18
 -1      2002 9.62658E-05-2.88017E-05-2.89132E-05 6.33167E-07 3.39781E-19 5.26484E-19
 -1      2003 9.65316E-05-2.88715E-05-2.89917E-05 7.30426E-07-1.46696E-19 4.87837E-19
 -1      2004 9.64814E-05-2.88083E-05-2.90042E-05 9.68250E-07-6.15125E-20 1.21024E-18
 -1      2005 9.59036E-05-2.87114E-05-2.87964E-05 4.51278E-07 8.63692E-20 4.12030E-19
 -1      2006 9.60974E-05-2.87613E-05-2.88540E-05 5.27238E-07 1.89934E-19 5.66920E-19
 -1      2007 9.60805E-05-2.87189E-05-2.88706E-05 7.04055E-07 1.69777E-19 1.05350E-18
 -1      2008 9.56428E-05-2.86481E-05-2.87116E-05 3.12862E-07 8.17250E-20 4.35473E-19
 -1      2009 9.57808E-05-2.86829E-05-2.87529E-05 3.71039E-07-5.49066E-20 5.15587E-19
 -1      2010 9.57850E-05-2.86558E-05-2.87709E-05 4.99704E-07-1.43221E-19 3.04187E-19
 -1      2011 9.54598E-05-2.86051E-05-2.86516E-05 2.09544E-07 4.54412E-21 4.39856E-19
 -1      2012 9.55554E-05-2.86285E-05-2.86804E-05 2.53264E-07 2.13410E-19 5.18054E-19
 -1      2013 9.55720E-05-2.86123E-05-2.86980E-05 3.44670E-07 2.06361E-20 6.51339E-19
 -1      2014 9.53353E-05-2.85770E-05-2.86103E-05 1.33972E-07-1.77844E-21-9.02112E-20
 -1      2015 9.53993E-05-2.85921E-05-2.86297E-05 1.66188E-07 2.60028E-20 2.01218E-19
 -1      2016 9.54222E-05-2.85835E-05-2.86460E-05 2.29305E-07 2.08779E-19 4.55209E-19
 -1      2017 9.52541E-05-2.85597E-05-2.85829E-05 7.99226E-08 7.62246E-19-3.72635E-19
 -1      2018 9.52949E-05-2.85688E-05-2.85955E-05 1.03158E-07 3.20870E-19 2.98899E-19
 -1      2019 9.53202E-05-2.85654E-05-2.86099E-05 1.45204E-07 4.40077E-19 2.58755E-19
 -1      2020 9.52041E-05-2.85500E-05-2.85657E-05 4.22739E-08 1.11829E-18 3.46123E-19
 -1      2021 9.52284E-05-2.85549E-05-2.85733E-05 5.86225E-08 1.16395E-18 2.55747E-19
 -1      2022 9.52534E-05-2.85548E-05-2.85857E-05 8.52928E-08 1.19262E-18 5.60595E-19
 -1      2023 9.51761E-05-2.85455E-05-2.85557E-05 1.68965E-08-2.94287E-19-8.68234E-20
 -1      2024 9.51889E-05-2.85476E-05-2.85598E-05 2.80573E-08 4.63205E-19 6.97117E-19
 -1      2025 9.52121E-05-2.85495E-05-2.85702E-05 4.37625E-08 3.92307E-19 1.62489E-18
 -1      2026 9.51632E-05-2.85445E-05-2.85506E-05 5.23715E-10-1.10312E-18 1.94129E-19
 -1      2027 9.51682E-05-2.85447E-05-2.85524E-05 7.85001E-09-9.61539E-19-5.11802E-19
 -1      2028 9.51889E-05-2.85476E-05-2.85609E-05 1.59456E-08-5.31485E-19 8.14865E-20
 -1      2029 9.51601E-05-2.85455E-05-2.85489E-05-9.38407E-09-9.37978E-19 5.32337E-19
 -1      2030 9.51601E-05-2.85446E-05-2.85492E-05-4.83348E-09-1.23179E-18 5.01564E-19
 -1      2031 9.51780E-05-2.85480E-05-2.85560E-05-1.84157E-09-1.31034E-18 7.00157E-19
 -1      2032 9.51633E-05-2.85478E-05-2.85493E-05-1.47681E-08 1.83303E-19-6.05165E-19
 -1      2033 9.51602E-05-2.85463E-05-2.85486E-05-1.21787E-08 5.01915E-19 6.67524E-19
 -1      2034 9.51752E-05-2.85498E-05-2.85540E-05-1.24558E-08-4.99540E-20-3.19582E-19
 -1      2035 9.51699E-05-2.85507E-05-2.85510E-05-1.70863E-08 1.30649E-18-2.17211E-18
 -1      2036 9.51653E-05-2.85489E-05-2.85498E-05-1.58422E-08 3.89692E-19-1.29444E-18
 -1      2037 9.51776E-05-2.85522E-05-2.85539E-05-1.80750E-08 8.99757E-19-6.83005E-19
 -1      2038 9.51783E-05-2.85538E-05-2.85533E-05-1.74129E-08 4.14111E-19-2.87448E-18
 -1      2039 9.51730E-05-2.85519E-05-2.85518E-05-1.70570E-08 1.27334E-18-2.33409E-18
 -1      2040 9.51828E-05-2.85548E-05-2.85550E-05-2.03302E-08 1.74621E-18-1.69258E-18
 -1      2041 9.51872E-05-2.85567E-05-2.85558E-05-1.65228E-08-1.33519E-18-1.78928E-18
 -1      2042 9.51818E-05-2.85550E-05-2.85543E-05-1.67227E-08-3.99098E-19-2.22575E-18
 -1      2043 9.51895E-05-2.85575E-05-2.85567E-05-2.04190E-08-6.47052E-19-2.17443E-18
 -1      2044 9.51958E-05-2.85595E-05-2.85584E-05-1.49608E-08-8.96432E-19-4.18034E-19
 -1      2045 9.51907E-05-2.85579E-05-2.85569E-05-1.54805E-08-1.55574E-18-1.90455E-18
 -1      2046 9.51967E-05-2.85600E-05-2.85586E-05-1.92019E-08-1.39694E-18-1.31956E-18
 -1      2047 9.52038E-05-2.85619E-05-2.85608E-05-1.30977E-08-1.30774E-18 8.48986E-19
 -1      2048 9.51991E-05-2.85605E-05-2.85594E-05-1.37747E-08-8.26310E-19-2.07419E-19
 -1      2049 9.52037E-05-2.85623E-05-2.85606E-05-1.72807E-08-1.39381E-18 5.79180E-20
 -1      2050 9.52109E-05-2.85640E-05-2.85629E-05-1.11750E-08-3.17341E-19-2.14305E-19
 -1      2051 9.52068E-05-2.85628E-05-2.85617E-05-1.19018E-08-4.70791E-19 1.51322E-19
 -1      2052 9.52101E-05-2.85642E-05-2.85626E-05-1.50619E-08-6.96179E-19-2.31328E-19
 -1      2053 9.52169E-05-2.85658E-05-2.85648E-05-9.33882E-09 1.53369E-18-1.48615E-18
 -1      2054 9.52135E-05-2.85648E-05-2.85638E-05-1.00489E-08 7.23987E-19-1.10219E-18
 -1      2055 9.52159E-05-2.85659E-05-2.85643E-05-1.28069E-08 6.90102E-19-1.19377E-18
 -1      2056 9.52221E-05-2.85672E-05-2.85663E-05-7.66612E-09 1.05479E-19-1.19605E-18
 -1      2057 9.52192E-05-2.85664E-05-2.85655E-05-8.32303E-09 1.85962E-19-1.82773E-18
 -1      2058 9.52208E-05-2.85673E-05-2.85658E-05-1.06705E-08 4.91585E-19-1.78327E-18
 -1      2059 9.52263E-05-2.85684E-05-2.85677E-05-6.18300E-09 9.61691E-19-1.71681E-18
 -1      2060 9.52239E-05-2.85678E-05-2.85670E-05-6.77286E-09 1.03335E-18-1.13042E-18
 -1      2061 9.52250E-05-2.85684E-05-2.85671E-05-8.72937E-09 6.85674E-19-2.12629E-18
 -1      2062 9.52297E-05-2.85694E-05-2.85687E-05-4.87771E-09-7.21188E-19-6.23569E-19
 -1      2063 9.52278E-05-2.85689E-05-2.85682E-05-5.40414E-09 1.18211E-18-8.33333E-19
 -1      2064 9.52285E-05-2.85693E-05-2.85682E-05-7.00301E-09 5.89773E-19-2.90352E-19
 -1      2065 9.52324E-05-2.85702E-05-2.85696E-05-3.70914E-09-1.48999E-18-1.42990E-18
 -1      2066 9.52310E-05-2.85697E-05-2.85691E-05-4.19025E-09-1.66731E-18-1.54780E-18
 -1      2067 9.52313E-05-2.85701E-05-2.85691E-05-5.46857E-09-1.02196E-18 2.84845E-19
 -1      2068 9.52345E-05-2.85708E-05-2.85702E-05-2.62100E-09 3.67125E-19-2.45330E-18
 -1      2069 9.52334E-05-2.85704E-05-2.85699E-05-3.08299E-09-3.14527E-20-1.87877E-18
 -1      2070 9.52335E-05-2.85707E-05-2.85698E-05-4.07424E-09-1.98735E-19-1.71736E-18
 -1      2071 9.52359E-05-2.85712E-05-2.85706E-05-1.56584E-09 1.34373E-18-2.18187E-18
 -1      2072 9.52352E-05-2.85710E-05-2.85704E-05-2.02993E-09 1.41525E-18-2.22832E-18
 -1      2073 9.52352E-05-2.85712E-05-2.85703E-05-2.76306E-09 7.56218E-19-1.82254E-18
 -1      2074 9.52367E-05-2.85714E-05-2.85708E-05-8.01615E-10-3.68581E-19-2.51692E-18
 -1      2075 9.52363E-05-2.85713E-05-2.85707E-05-1.24127E-09 1.36423E-18-1.63226E-18
 -1      2076 9.52362E-05-2.85715E-05-2.85706E-05-1.75777E-09 1.01173E-18 8.04725E-19
 -1      2077 9.52368E-05-2.85717E-05-2.85708E-05-1.04690E-09-1.52163E-18 1.81525E-18
 -1      2078 9.52384E-05-2.85755E-05-2.85698E-05-3.11583E-09 6.93718E-19 4.86721E-18
 -1      2079 9.52380E-05-2.85747E-05-2.85700E-05-3.02005E-09-5.94574E-19 4.72214E-18
 -1      2080 9.52376E-05-2.85739E-05-2.85702E-05-2.78376E-09-6.59505E-19 4.99009E-18
 -1      2081 9.52373E-05-2.85732E-05-2.85704E-05-2.45971E-09-1.61744E-18 5.01940E-18
 -1      2082 9.52377E-05-2.85743E-05-2.85700E-05-3.73476E-09-1.26746E-18 5.40485E-18
 -1      2083 9.52371E-05-2.85726E-05-2.85705E-05-2.01946E-09-1.30801E-18 3.17029E-18
 -1      2084 9.52369E-05-2.85721E-05-2.85706E-05-1.56233E-09-1.57868E-18 2.36019E-18
 -1      2085 9.52366E-05-2.85720E-05-2.85705E-05-1.93806E-09-3.42944E-19 1.63552E-18
 -1      2086 9.52370E-05-2.85730E-05-2.85703E-05-2.96186E-09-4.57898E-19 4.26095E-18
 -1      2087 9.52391E-05-2.85770E-05-2.85695E-05-2.96403E-09-9.68486E-19-2.34933E-18
 -1      2088 9.52387E-05-2.85762E-05-2.85697E-05-3.08120E-09-6.43901E-19 2.36922E-18
 -1      2089 9.52386E-05-2.85758E-05-2.85697E-05-3.94415E-09-1.25247E-18 2.59835E-18
 -1      2090 9.52397E-05-2.85783E-05-2.85691E-05-2.37313E-09 1.61667E-19-1.74726E-18
 -1      2091 9.52394E-05-2.85776E-05-2.85693E-05-2.67565E-09-2.66170E-19-1.85876E-18
 -1      2092 9.52394E-05-2.85773E-05-2.85695E-05-3.57333E-09-9.52141E-19-1.89836E-18
 -1      2093 9.52401E-05-2.85792E-05-2.85689E-05-1.44659E-09 5.16178E-19 9.53870E-19
 -1      2094 9.52399E-05-2.85788E-05-2.85690E-05-1.88142E-09 5.48563E-19 1.20470E-19
 -1      2095 9.52400E-05-2.85784E-05-2.85693E-05-2.68999E-09-3.38753E-19-9.41853E-19
 -1      2096 9.52403E-05-2.85796E-05-2.85688E-05-3.22344E-10-8.47740E-19-2.52218E-18
 -1      2097 9.52402E-05-2.85795E-05-2.85689E-05-8.25766E-10-3.91041E-19-5.96424E-19
 -1      2098 9.52404E-05-2.85792E-05-2.85691E-05-1.43535E-09-3.56063E-19-4.49100E-19
 -1      2099 9.52402E-05-2.85795E-05-2.85689E-05 8.44950E-10-4.48685E-19-1.15769E-18
 -1      2100 9.52403E-05-2.85796E-05-2.85688E-05 3.42180E-10-2.32566E-19-1.05215E-18
 -1      2101 9.52406E-05-2.85794E-05-2.85691E-05 1.25933E-11-2.53437E-18-6.78566E-19
 -1      2102 9.52399E-05-2.85788E-05-2.85690E-05 1.89711E-09 6.80514E-21-2.04642E-18
 -1      2103 9.52401E-05-2.85792E-05-2.85689E-05 1.46435E-09-5.28283E-19-1.75287E-18
 -1      2104 9.52404E-05-2.85792E-05-2.85691E-05 1.45883E-09-1.25061E-18-1.94957E-18
 -1      2105 9.52394E-05-2.85776E-05-2.85693E-05 2.67524E-09-8.46849E-19-2.35691E-18
 -1      2106 9.52397E-05-2.85783E-05-2.85692E-05 2.37917E-09-2.93007E-20-2.27285E-18
 -1      2107 9.52400E-05-2.85784E-05-2.85693E-05 2.70038E-09-7.47359E-19-1.60819E-18
 -1      2108 9.52387E-05-2.85762E-05-2.85697E-05 3.08197E-09-6.50812E-19 1.77718E-18
 -1      2109 9.52391E-05-2.85770E-05-2.85695E-05 2.96451E-09-4.18623E-19 2.25849E-20
 -1      2110 9.52394E-05-2.85773E-05-2.85695E-05 3.57366E-09-8.05187E-20-4.72398E-19
 -1      2111 9.52380E-05-2.85746E-05-2.85700E-05 3.01506E-09-8.11567E-19 4.55097E-19
 -1      2112 9.52384E-05-2.85755E-05-2.85698E-05 3.11458E-09-8.41581E-19 1.10900E-18
 -1      2113 9.52386E-05-2.85758E-05-2.85697E-05 3.94394E-09-3.89966E-20 2.04561E-18
 -1      2114 9.52373E-05-2.85731E-05-2.85704E-05 2.45577E-09-1.37529E-18-5.64195E-19
 -1      2115 9.52376E-05-2.85739E-05-2.85702E-05 2.77312E-09-1.06230E-18 6.23074E-20
 -1      2116 9.52377E-05-2.85743E-05-2.85700E-05 3.72094E-09-1.10510E-18-4.26342E-19
 -1      2117 5.93191E-05-3.60006E-05-1.03642E-05 4.14744E-05 2.87441E-18 3.23535E-18
 -1      2118 4.37845E-05-3.65290E-05-4.30742E-06 3.39441E-05 2.10572E-18 3.74579E-18
 -1      2119 1.21135E-05-2.37369E-05 4.15313E-06 4.37154E-06 8.54497E-19 5.53282E-18
 -1      2120 1.29686E-05-2.63858E-05 4.66256E-06-7.76698E-06-8.83032E-20 5.77465E-18
 -1      2121 2.95664E-05-3.06353E-05-4.12220E-07 2.90381E-05 2.63427E-18 4.87192E-18
 -1      2122 2.01449E-05-2.74342E-05 2.30742E-06 2.06819E-05 1.58882E-18 4.64979E-18
 -1      2123 4.61570E-05-3.21895E-05-6.28465E-06 3.74248E-05 3.17637E-21 3.25091E-18
 -1      2124 9.61800E-05-3.98898E-05-2.40771E-05 4.38707E-05 3.60285E-18 2.68721E-18
 -1      2125 7.68603E-05-4.10212E-05-1.64294E-05 3.95363E-05 3.41397E-18 2.66477E-18
 -1      2126 1.32570E-04-4.00804E-05-3.90401E-05 3.75254E-05 4.28175E-18 1.07743E-18
 -1      2127 1.12982E-04-4.13081E-05-3.12684E-05 3.69070E-05 3.70153E-18 1.74319E-18
 -1      2128 9.55863E-05-1.57129E-05-3.43268E-05-4.72293E-06-5.93479E-19-3.17190E-18
 -1      2129 9.96859E-05-1.65727E-05-3.57525E-05-7.93955E-06-1.08613E-18-2.85437E-18
 -1      2130 1.05247E-04-2.22070E-05-3.56508E-05-9.93153E-06-1.30947E-18-2.23246E-18
 -1      2131 9.65424E-05-1.95966E-05-3.30675E-05-2.96094E-06-3.92944E-19-3.04139E-18
 -1      2132 1.78371E-04-2.89520E-05-6.26687E-05 1.36324E-05 5.29946E-18-2.88203E-18
 -1      2133 1.65919E-04-2.90966E-05-5.80316E-05 1.83459E-05 5.50550E-18-1.40099E-18
 -1      2134 1.80700E-04-2.45410E-05-6.57954E-05 2.87806E-06 5.93558E-18-4.37101E-18
 -1      2135 1.78076E-04-2.45057E-05-6.47829E-05 9.84119E-06 5.60524E-18-2.82591E-18
 -1      2136 1.73365E-04-2.60633E-05-6.24647E-05-5.29162E-06 6.99607E-18-5.51291E-18
 -1      2137 1.81419E-04-2.61502E-05-6.52644E-05 9.78173E-07 6.42347E-18-4.65826E-18
 -1      2138 1.57188E-04-3.32832E-05-5.29417E-05-1.50987E-05 6.83651E-18-6.68563E-18
 -1      2139 1.71220E-04-3.23447E-05-5.85507E-05-9.75317E-06 6.88511E-18-5.67173E-18
 -1      2140 1.30518E-04-3.86225E-05-3.98063E-05-2.64648E-05 6.45503E-18-7.36961E-18
 -1      2141 1.49891E-04-3.88095E-05-4.70481E-05-2.38538E-05 6.45598E-18-7.10491E-18
 -1      2142 9.42744E-05-3.71759E-05-2.53549E-05-3.45390E-05 5.70265E-18-7.54960E-18
 -1      2143 1.15573E-04-3.81170E-05-3.30858E-05-3.64417E-05 6.43025E-18-8.07095E-18
 -1      2144 5.45347E-05-3.00980E-05-1.17076E-05-3.33652E-05 4.50367E-18-7.75009E-18
 -1      2145 7.38869E-05-3.18718E-05-1.83480E-05-3.96116E-05 5.23128E-18-7.82140E-18
 -1      2146 2.47730E-05-2.32542E-05-2.06810E-06-2.29300E-05 3.02433E-18-7.34462E-18
 -1      2147 3.62282E-05-2.29416E-05-6.52818E-06-3.08242E-05 4.79294E-18-8.05242E-18
 -1      2148 9.60335E-06-1.58747E-05 1.73741E-06-8.07167E-06 3.42307E-19-7.21672E-18
 -1      2149 1.49578E-05-1.78514E-05 2.40187E-07-1.64174E-05 2.62771E-18-7.53965E-18
 -1      2150 1.04568E-05-1.80314E-05 2.04816E-06 1.22172E-05-2.25374E-18-6.98866E-18
 -1      2151 7.24571E-06-1.62656E-05 2.77240E-06 4.03215E-06 1.25043E-19-6.94313E-18
 -1      2152 2.70004E-05-2.00732E-05-3.84721E-06 2.79067E-05-4.45582E-18-7.49158E-18
 -1      2153 1.82230E-05-2.09953E-05-1.92410E-07 2.01002E-05-2.52839E-18-6.89019E-18
 -1      2154 5.62552E-05-2.54067E-05-1.37923E-05 3.85297E-05-6.17826E-18-8.21474E-18
 -1      2155 4.14833E-05-2.58677E-05-8.09734E-06 3.17233E-05-4.85731E-18-7.49651E-18
 -1      2156 9.42918E-05-3.19454E-05-2.68557E-05 4.12003E-05-6.88850E-18-8.33925E-18
 -1      2157 7.48392E-05-3.11818E-05-1.98321E-05 3.71273E-05-6.20706E-18-7.92971E-18
 -1      2158 1.33592E-04-3.64786E-05-4.12624E-05 3.31498E-05-7.17056E-18-7.84395E-18
 -1      2159 1.12258E-04-3.52214E-05-3.36757E-05 3.33848E-05-6.90671E-18-7.73680E-18
 -1      2160 1.60859E-04-3.37882E-05-5.39654E-05 1.61722E-05-6.91909E-18-6.00292E-18
 -1      2161 1.44577E-04-3.37360E-05-4.74962E-05 2.33473E-05-7.26902E-18-7.21206E-18
 -1      2162 1.73383E-04-2.54378E-05-6.25003E-05 2.02343E-06-6.92704E-18-4.54158E-18
 -1      2163 1.63698E-04-2.61335E-05-5.86379E-05 7.39542E-06-7.16929E-18-5.48454E-18
 -1      2164 1.76440E-04-2.29878E-05-6.48046E-05-6.74022E-06-6.36842E-18-3.18770E-18
 -1      2165 1.73712E-04-2.19971E-05-6.43724E-05 1.54894E-07-6.74450E-18-4.73841E-18
 -1      2166 1.65856E-04-2.44817E-05-5.99328E-05-1.36327E-05-6.31272E-18-1.80418E-18
 -1      2167 1.77127E-04-2.49624E-05-6.38018E-05-9.22270E-06-6.22993E-18-3.10988E-18
 -1      2168 1.54314E-04-1.32482E-05-5.95056E-05-1.79705E-06-6.87748E-18-3.40454E-18
 -1      2169 1.48176E-04-3.30290E-05-4.89134E-05-2.89703E-05-5.37654E-18 1.28156E-18
 -1      2170 1.63303E-04-3.22393E-05-5.52510E-05-2.16065E-05-5.51228E-18-7.22096E-19
 -1      2171 1.19288E-04-4.05348E-05-3.41752E-05-3.44839E-05-3.45293E-18 2.28064E-18
 -1      2172 1.38995E-04-3.88368E-05-4.21659E-05-3.51979E-05-3.91795E-18 1.95114E-18
 -1      2173 8.06719E-05-4.06077E-05-1.81842E-05-3.98096E-05-2.80283E-18 3.39618E-18
 -1      2174 1.01414E-04-3.98238E-05-2.63204E-05-4.38404E-05-2.97986E-18 3.36950E-18
 -1      2175 4.73297E-05-3.69487E-05-5.59778E-06-3.57012E-05-1.38236E-18 4.18350E-18
 -1      2176 6.30799E-05-3.59017E-05-1.20856E-05-4.22935E-05-3.04212E-18 3.49211E-18
 -1      2177 8.57649E-05-4.59541E-05-1.71664E-05-4.29989E-05-1.31714E-19 1.94585E-18
 -1      2178 1.87966E-05-3.02683E-05 3.58718E-06-1.86025E-05-2.50722E-19 5.65903E-18
 -1      2179 2.81457E-05-2.99675E-05-1.36755E-07-2.93224E-05-1.46198E-18 5.88646E-18
 -1      2180 1.61157E-04-3.53000E-05-5.28505E-05 2.64647E-05 5.11199E-18-8.28398E-19
 -1      2181 1.43677E-04-3.62021E-05-4.59756E-05 2.92588E-05 5.09819E-18 1.63901E-19
 -1      2182 1.43249E-04-4.58694E-05-4.11595E-05 2.09715E-05 3.35266E-18-1.82027E-18
 -1      2183 1.19177E-04-3.22926E-05-3.73706E-05-1.25905E-05-2.23209E-18 1.31436E-18
 -1      2184 1.57666E-04-3.24294E-05-5.27137E-05 8.38395E-06 5.22450E-18-2.45470E-18
 -1      2185 1.17510E-04-3.17499E-05-3.68110E-05-1.43159E-05-2.29264E-18 1.89153E-19
 -1      2186 1.98716E-05-2.17560E-05 5.16340E-07 1.40134E-05 6.53168E-19 5.27130E-18
 -1      2187 2.08170E-05-1.37207E-05-2.67807E-06 7.66294E-06-1.55378E-19 5.94871E-18
 -1      2188 2.84641E-05-1.86156E-05-4.26052E-06 2.38626E-05-5.65818E-19 4.31097E-18
 -1      2189 8.01325E-05-4.48812E-05-1.53318E-05 4.25909E-05 1.16044E-19 1.40581E-18
 -1      2190 9.52370E-05-2.85727E-05-2.85704E-05 2.33421E-09-1.24399E-18-5.92267E-19
 -1      2191 1.96915E-05-2.06867E-05 2.12445E-09-1.60951E-05 3.53636E-19 6.51368E-18
 -1      2192 1.16050E-04-5.07955E-05-2.78784E-05 3.55632E-05 1.40671E-18 1.03762E-20
 -1      2193 4.62371E-05-3.31888E-05-6.03044E-06-3.78348E-05 5.92923E-19 4.32876E-18
 -1      2194 1.21740E-04-5.07933E-05-3.01604E-05-3.25411E-05-8.14422E-19 5.51630E-19
 -1      2195 1.59041E-04-2.78646E-05-5.55933E-05-9.01184E-06-5.46357E-18-2.41108E-18
 -1      2196 1.46970E-04-2.11247E-05-5.44714E-05 3.08436E-06-5.78015E-18-3.92621E-18
 -1      2197 1.48350E-04-3.01632E-05-5.04034E-05-2.15909E-06-4.75122E-18-3.74452E-18
 -1      2198 1.53677E-04-1.41966E-05-5.88753E-05-5.09191E-06-7.04096E-18-2.95614E-18
 -1      2199 1.53200E-04-2.78102E-05-5.29874E-05-9.77445E-07-6.27863E-18-2.93772E-18
 -1      2200 1.42060E-04-4.10636E-05-4.26680E-05 1.35470E-05-5.01782E-18-3.92600E-18
 -1      2201 1.15023E-04-4.32425E-05-3.05626E-05 3.02609E-05-3.79026E-18-5.30285E-18
 -1      2202 7.72965E-05-3.49724E-05-1.83883E-05 3.90230E-05-2.82316E-18-6.55704E-18
 -1      2203 4.19506E-05-2.30020E-05-8.61621E-06 3.47530E-05-1.71524E-18-7.31159E-18
 -1      2204 1.73664E-05-1.27751E-05-2.53545E-06 2.04001E-05-7.03884E-19-7.73574E-18
 -1      2205 1.06435E-05-8.82357E-06-1.21665E-06-2.97511E-06 2.57974E-19-8.13025E-18
 -1      2206 2.49583E-05-1.54678E-05-4.55144E-06-2.43563E-05 8.48303E-19-7.99811E-18
 -1      2207 5.52827E-05-2.85140E-05-1.16895E-05-3.63696E-05 1.65976E-18-7.26077E-18
 -1      2208 9.55186E-05-4.23538E-05-2.29280E-05-3.46755E-05 2.45047E-18-5.98789E-18
 -1      2209 1.31316E-04-4.65834E-05-3.60081E-05-2.10320E-05 3.67443E-18-4.57864E-18
 -1      2210 1.51400E-04-3.86549E-05-4.76973E-05-4.33294E-06 4.95464E-18-3.26065E-18
 -1      2211 1.58699E-04-2.39091E-05-5.68514E-05 4.41487E-06 6.45143E-18-2.76726E-18
 -1      2212 1.59655E-04-1.83203E-05-5.94256E-05 2.21588E-06 6.12998E-18-3.07494E-18
 -1      2213 1.59083E-04-1.43612E-05-6.08798E-05 4.06954E-06 6.68309E-18-3.19331E-18
 -1      2214 1.45390E-04-4.25107E-05-4.35747E-05-1.69661E-05-3.38758E-18-1.71439E-18
 -1      2215 1.20813E-04-3.78611E-05-3.55925E-05 1.14624E-05 1.51227E-18 2.19787E-18
 -1      2216 1.22478E-04-3.74951E-05-3.63322E-05 1.11040E-05 1.59701E-18 2.38192E-18
 -1      2217 6.80369E-05-9.39676E-06-2.52182E-05 1.28664E-05 1.46693E-18-4.22988E-18
 -1      2218 7.68177E-05-1.36394E-05-2.69014E-05 1.10944E-05 1.20972E-18-3.99935E-18
 -1      2219 8.53985E-05-1.82646E-05-2.88088E-05 7.34904E-06 8.79147E-19-3.58067E-18
 -1      2220 9.25186E-05-2.13100E-05-3.04787E-05 3.81122E-06 4.54943E-19-3.39693E-18
 -1      2221 8.41917E-05-2.04438E-05-2.73964E-05 1.13821E-05 1.19585E-18-3.48160E-18
 -1      2222 4.22264E-05 6.62694E-06-2.08856E-05 3.53232E-06 9.68807E-19-5.42263E-18
 -1      2223 4.47281E-05 5.23771E-06-2.12781E-05 7.04627E-06 1.16501E-18-5.30863E-18
 -1      2224 4.70988E-05 4.10923E-06-2.17363E-05-5.71190E-06 2.80618E-19-5.29495E-18
 -1      2225 4.29943E-05 6.11486E-06-2.10435E-05-2.30875E-06 5.76148E-19-5.45762E-18
 -1      2226 4.12163E-05 5.98348E-06-1.99344E-05 3.92255E-07 7.45025E-19-5.71030E-18
 -1      2227 6.29987E-05-5.18409E-06-2.45216E-05-9.95943E-06-1.25215E-19-4.34730E-18
 -1      2228 5.43301E-05-9.58999E-07-2.29782E-05-9.30384E-06-2.27905E-20-4.82098E-18
 -1      2229 8.19959E-05-1.55027E-05-2.83544E-05-6.83873E-06 1.47496E-19-3.05484E-18
 -1      2230 7.28233E-05-1.12897E-05-2.64796E-05-9.07758E-06-9.55923E-20-3.60481E-18
 -1      2231 6.91553E-05-1.12313E-05-2.48086E-05-1.21486E-05-3.05938E-19-3.97694E-18
 -1      2232 9.77773E-05-2.28667E-05-3.21196E-05 5.41997E-07 8.86612E-19-1.80666E-18
 -1      2233 9.04812E-05-1.98472E-05-3.03187E-05-3.02537E-06 4.11982E-19-2.26534E-18
 -1      2234 8.88573E-05-2.16635E-05-2.88740E-05-6.55636E-06 1.08142E-19-2.44820E-18
 -1      2235 1.09315E-04-2.74070E-05-3.53062E-05 8.14765E-06 1.73410E-18-5.93876E-19
 -1      2236 1.03985E-04-2.52551E-05-3.37490E-05 4.78264E-06 1.24923E-18-1.16594E-18
 -1      2237 1.03898E-04-2.81547E-05-3.25079E-05 2.03206E-06 8.81420E-19-1.15056E-18
 -1      2238 1.18671E-04-3.72820E-05-3.48852E-05 1.36819E-05 1.59215E-18 2.20299E-18
 -1      2239 1.20880E-04-3.83192E-05-3.53286E-05 1.26940E-05 1.42139E-18 2.46566E-18
 -1      2240 1.21321E-04-3.87107E-05-3.54267E-05 1.32521E-05 1.51263E-18 1.63358E-18
 -1      2241 1.17397E-04-3.53929E-05-3.51185E-05-1.32118E-05-1.70280E-18 2.72506E-20
 -1      2242 1.16030E-04-3.56560E-05-3.45024E-05-1.30688E-05-1.60512E-18 5.55948E-20
 -1      2243 1.49484E-04-2.96620E-05-5.18408E-05-1.98727E-06 4.74466E-18-3.11369E-18
 -1      2244 1.47542E-04-3.75953E-05-4.73452E-05 1.96630E-06 4.07910E-18-3.08849E-18
 -1      2245 1.15849E-04-3.56407E-05-3.43587E-05-1.38307E-05-1.55494E-18 2.42985E-19
 -1      2246 1.13969E-04-3.44226E-05-3.40772E-05-1.39667E-05-1.57918E-18 1.11044E-19
 -1      2247 1.17082E-04-3.60550E-05-3.46964E-05-1.45482E-05-1.52005E-18-1.00427E-19
 -1      2248 1.12601E-04-3.28031E-05-3.42421E-05-1.40447E-05-1.59781E-18 2.82439E-19
 -1      2249 1.10454E-04-3.05916E-05-3.41595E-05-1.31423E-05-1.50953E-18 1.48380E-20
 -1      2250 1.15514E-04-3.40309E-05-3.48994E-05-1.55419E-05-1.59070E-18 1.72748E-20
 -1      2251 1.08389E-04-2.81923E-05-3.44392E-05-1.13066E-05-1.60672E-18-3.60322E-19
 -1      2252 1.06624E-04-2.61395E-05-3.44249E-05-8.73849E-06-1.58672E-18-6.99977E-19
 -1      2253 1.11981E-04-2.90321E-05-3.55609E-05-1.39748E-05-1.87399E-18-2.60588E-19
 -1      2254 1.05162E-04-2.45997E-05-3.45491E-05-4.83107E-06-1.67400E-18-1.38728E-18
 -1      2255 1.04560E-04-2.41187E-05-3.44721E-05-1.21303E-06-1.69266E-18-1.69238E-18
 -1      2256 1.08274E-04-2.41432E-05-3.61385E-05-7.95496E-06-2.24572E-18-1.23172E-18
 -1      2257 1.04774E-04-2.47093E-05-3.42609E-05 3.11164E-06-1.63761E-18-2.16328E-18
 -1      2258 1.05500E-04-2.61516E-05-3.40791E-05 6.18946E-06-1.33316E-18-2.43307E-18
 -1      2259 1.06982E-04-2.30005E-05-3.60831E-05 9.54684E-07-1.96522E-18-2.30927E-18
 -1      2260 1.06955E-04-2.84160E-05-3.35772E-05 8.80442E-06-1.17577E-18-2.68920E-18
 -1      2261 1.08374E-04-3.07796E-05-3.33493E-05 1.00762E-05-9.72205E-19-2.95109E-18
 -1      2262 1.08819E-04-2.66540E-05-3.52437E-05 8.36924E-06-1.57734E-18-3.12056E-18
 -1      2263 1.09618E-04-3.30620E-05-3.27664E-05 1.01408E-05-1.01690E-18-3.08121E-18
 -1      2264 1.10837E-04-3.49749E-05-3.25762E-05 9.56833E-06-1.08112E-18-3.05560E-18
 -1      2265 1.11747E-04-3.24866E-05-3.39402E-05 1.09520E-05-1.20169E-18-3.50237E-18
 -1      2266 1.10980E-04-3.61307E-05-3.20934E-05 7.85883E-06-8.24060E-19-2.60144E-18
 -1      2267 1.11510E-04-3.69514E-05-3.19714E-05 6.23335E-06-3.55509E-19-2.35769E-18
 -1      2268 1.13229E-04-3.69229E-05-3.26617E-05 8.90451E-06-7.61023E-19-3.19219E-18
 -1      2269 1.10636E-04-3.69037E-05-3.16503E-05 3.99932E-06-1.76712E-19-2.10529E-18
 -1      2270 1.10473E-04-3.67753E-05-3.15732E-05 2.17580E-06 1.89137E-19-2.01327E-18
 -1      2271 1.12467E-04-3.84459E-05-3.17108E-05 4.62400E-06-1.54456E-19-2.24989E-18
 -1      2272 1.09105E-04-3.60163E-05-3.13808E-05 2.61389E-07 1.95565E-19-1.75087E-18
 -1      2273 1.08486E-04-3.53798E-05-3.13084E-05-1.23202E-06 6.08722E-19-1.60343E-18
 -1      2274 1.10151E-04-3.75692E-05-3.11205E-05 3.20569E-07 3.35103E-19-1.43499E-18
 -1      2275 1.07084E-04-3.44213E-05-3.11863E-05-2.52125E-06 7.01070E-19-1.92390E-18
 -1      2276 1.06252E-04-3.36523E-05-3.10918E-05-3.50725E-06 1.98442E-19-1.72867E-18
 -1      2277 1.07322E-04-3.55549E-05-3.07814E-05-2.90288E-06 3.55623E-19-1.79218E-18
 -1      2278 1.05041E-04-3.27881E-05-3.09940E-05-4.19554E-06-3.89493E-19-1.87888E-18
 -1      2279 1.04160E-04-3.20903E-05-3.08698E-05-4.70356E-06-3.16856E-19-1.98520E-18
 -1      2280 1.04675E-04-3.34050E-05-3.05678E-05-4.84496E-06-1.00696E-19-2.51187E-18
 -1      2281 1.03196E-04-3.14274E-05-3.07719E-05-4.93422E-06-3.02662E-19-2.14863E-18
 -1      2282 1.02356E-04-3.08733E-05-3.06240E-05-5.07860E-06-3.92337E-19-1.95471E-18
 -1      2283 1.02484E-04-3.16082E-05-3.03937E-05-5.71318E-06-4.10529E-19-2.53560E-18
 -1      2284 1.01616E-04-3.04126E-05-3.05187E-05-5.00796E-06-4.14882E-19-1.59659E-18
 -1      2285 1.00858E-04-3.00041E-05-3.03591E-05-4.91414E-06-3.46034E-19-1.22547E-18
 -1      2286 1.00771E-04-3.02958E-05-3.02173E-05-5.82227E-06-1.37074E-19-1.84354E-18
 -1      2287 1.00294E-04-2.97054E-05-3.02483E-05-4.67018E-06-2.46607E-19-1.19784E-18
 -1      2288 9.96348E-05-2.94171E-05-3.00892E-05-4.44242E-06-1.51021E-19-1.48464E-18
 -1      2289 9.94625E-05-2.94209E-05-3.00275E-05-5.45969E-06-3.61432E-19-1.11052E-18
 -1      2290 9.92020E-05-2.92341E-05-2.99782E-05-4.11683E-06-2.36499E-19-1.38323E-18
 -1      2291 9.86426E-05-2.90363E-05-2.98289E-05-3.83017E-06 1.21393E-19-1.56684E-18
 -1      2292 9.84638E-05-2.88792E-05-2.98291E-05-4.84504E-06-1.25682E-19-1.17717E-18
 -1      2293 9.83074E-05-2.89302E-05-2.97233E-05-3.48293E-06 3.40509E-19-1.46821E-18
 -1      2294 9.78429E-05-2.87972E-05-2.95897E-05-3.18592E-06 6.01920E-19-1.70971E-18
 -1      2295 9.76962E-05-2.85680E-05-2.96320E-05-4.12983E-06 1.67644E-19-1.24854E-18
 -1      2296 9.75814E-05-2.87399E-05-2.94935E-05-2.85302E-06 8.50371E-19-1.94475E-18
 -1      2297 9.72033E-05-2.86521E-05-2.93782E-05-2.57398E-06 9.34938E-19-2.26511E-18
 -1      2298 9.71013E-05-2.84060E-05-2.94455E-05-3.41038E-06 6.96320E-19-1.33218E-18
 -1      2299 9.69986E-05-2.86246E-05-2.92938E-05-2.27467E-06 6.86753E-19-2.38594E-18
 -1      2300 9.66966E-05-2.85678E-05-2.91975E-05-2.02791E-06 2.40346E-19-1.86133E-18
 -1      2301 9.66380E-05-2.83358E-05-2.92763E-05-2.74245E-06 7.75603E-19-1.96378E-18
 -1      2302 9.65368E-05-2.85578E-05-2.91256E-05-1.77041E-06 1.19778E-19-1.50690E-18
 -1      2303 9.63000E-05-2.85223E-05-2.90472E-05-1.56124E-06 2.01740E-19-1.17496E-18
 -1      2304 9.62771E-05-2.83190E-05-2.91283E-05-2.15396E-06 8.38154E-19-1.70344E-18
 -1      2305 9.61761E-05-2.85220E-05-2.89876E-05-1.34700E-06 1.69944E-20-1.21298E-18
 -1      2306 9.59939E-05-2.85008E-05-2.89252E-05-1.17533E-06 4.89633E-19-1.62329E-18
 -1      2307 9.59972E-05-2.83313E-05-2.90026E-05-1.65483E-06 9.99687E-20-8.97009E-19
 -1      2308 9.58987E-05-2.85056E-05-2.88770E-05-1.00185E-06 4.78149E-19-2.12404E-18
 -1      2309 9.57612E-05-2.84940E-05-2.88285E-05-8.64662E-07 2.04162E-19-1.94339E-18
 -1      2310 9.57819E-05-2.83577E-05-2.88986E-05-1.24398E-06-2.16118E-19-1.63815E-18
 -1      2311 9.56891E-05-2.85010E-05-2.87902E-05-7.27457E-07-1.95215E-19-2.38523E-18
 -1      2312 9.55875E-05-2.84957E-05-2.87533E-05-6.20369E-07-3.60392E-19-1.70116E-18
 -1      2313 9.56183E-05-2.83894E-05-2.88145E-05-9.14199E-07 2.84810E-20-2.53947E-18
 -1      2314 9.55337E-05-2.85034E-05-2.87236E-05-5.14184E-07-3.24905E-19-1.52880E-18
 -1      2315 9.54602E-05-2.85021E-05-2.86961E-05-4.32405E-07-1.83474E-19-9.22881E-19
 -1      2316 9.54957E-05-2.84213E-05-2.87479E-05-6.55366E-07 5.77574E-20-1.57059E-18
 -1      2317 9.54209E-05-2.85095E-05-2.86735E-05-3.51937E-07-4.21084E-19-8.96210E-19
 -1      2318 9.53692E-05-2.85106E-05-2.86535E-05-2.90833E-07-4.17198E-20-1.14163E-18
 -1      2319 9.54054E-05-2.84508E-05-2.86963E-05-4.56466E-07-1.96445E-19-1.61692E-18
 -1      2320 9.53410E-05-2.85173E-05-2.86366E-05-2.31152E-07 3.15172E-19-1.51643E-18
 -1      2321 9.53058E-05-2.85198E-05-2.86224E-05-1.86527E-07 7.97340E-19-1.03448E-18
 -1      2322 9.53403E-05-2.84766E-05-2.86570E-05-3.06790E-07 3.77567E-20-1.26596E-18
 -1      2323 9.52861E-05-2.85256E-05-2.86101E-05-1.43277E-07 7.53040E-19-1.36639E-18
 -1      2324 9.52631E-05-2.85286E-05-2.86003E-05-1.11505E-07 9.04645E-19-1.15760E-18
 -1      2325 9.52944E-05-2.84984E-05-2.86278E-05-1.96588E-07 2.27924E-19-9.26097E-19
 -1      2326 9.52499E-05-2.85335E-05-2.85916E-05-8.09743E-08 3.64907E-19-1.67762E-18
 -1      2327 9.52357E-05-2.85368E-05-2.85851E-05-5.90181E-08 3.31418E-19-2.15363E-18
 -1      2328 9.52631E-05-2.85163E-05-2.86064E-05-1.17368E-07 3.62902E-19-1.51534E-18
 -1      2329 9.52272E-05-2.85408E-05-2.85791E-05-3.81367E-08-4.21053E-20-2.65567E-18
 -1      2330 9.52192E-05-2.85439E-05-2.85751E-05-2.35225E-08-3.75033E-19-2.23751E-18
 -1      2331 9.52425E-05-2.85307E-05-2.85913E-05-6.19727E-08-2.06834E-19-2.61870E-18
 -1      2332 9.52141E-05-2.85471E-05-2.85711E-05-9.80913E-09-5.50040E-19-2.15697E-18
 -1      2333 9.52105E-05-2.85499E-05-2.85687E-05-5.66119E-10-8.92783E-19-1.97722E-18
 -1      2334 9.52298E-05-2.85420E-05-2.85809E-05-2.45302E-08-2.99191E-19-3.05154E-18
 -1      2335 9.52077E-05-2.85524E-05-2.85662E-05 7.94097E-09-1.26562E-18-2.30777E-18
 -1      2336 9.52069E-05-2.85549E-05-2.85651E-05 1.33502E-08-1.48083E-18-1.98480E-18
 -1      2337 9.52226E-05-2.85507E-05-2.85740E-05-3.30486E-10-1.10946E-18-2.34428E-18
 -1      2338 9.52057E-05-2.85569E-05-2.85636E-05 1.81716E-08-9.79009E-19-1.95754E-18
 -1      2339 9.52067E-05-2.85590E-05-2.85633E-05 2.09226E-08-3.89587E-19-1.44503E-18
 -1      2340 9.52192E-05-2.85572E-05-2.85696E-05 1.43260E-08-1.11773E-18-1.52102E-18
 -1      2341 9.52066E-05-2.85605E-05-2.85625E-05 2.32138E-08-5.28681E-19-3.41212E-19
 -1      2342 9.52086E-05-2.85622E-05-2.85627E-05 2.41876E-08 2.10800E-19-4.60977E-19
 -1      2343 9.52183E-05-2.85620E-05-2.85671E-05 2.22885E-08-4.75149E-21-3.48584E-19
 -1      2344 9.52091E-05-2.85633E-05-2.85624E-05 2.48088E-08 1.53397E-18 4.62816E-20
 -1      2345 9.52116E-05-2.85648E-05-2.85629E-05 2.46514E-08 2.23933E-18 9.06980E-19
 -1      2346 9.52190E-05-2.85656E-05-2.85658E-05 2.57080E-08 1.17929E-18 1.44602E-18
 -1      2347 9.52124E-05-2.85655E-05-2.85630E-05 2.42289E-08 1.43019E-18 1.63381E-19
 -1      2348 9.52150E-05-2.85667E-05-2.85636E-05 2.34025E-08 9.59662E-19-9.86129E-20
 -1      2349 9.52206E-05-2.85680E-05-2.85654E-05 2.61746E-08 1.60698E-18 1.12546E-18
 -1      2350 9.52161E-05-2.85672E-05-2.85638E-05 2.23810E-08 1.55223E-18 2.93148E-20
 -1      2351 9.52186E-05-2.85682E-05-2.85645E-05 2.12067E-08 1.91775E-18 2.50350E-19
 -1      2352 9.52226E-05-2.85697E-05-2.85656E-05 2.48372E-08 1.17570E-18 5.01549E-20
 -1      2353 9.52197E-05-2.85685E-05-2.85648E-05 1.98915E-08 1.19599E-18-2.85824E-19
 -1      2354 9.52220E-05-2.85693E-05-2.85655E-05 1.85838E-08 3.14168E-19 3.17729E-20
 -1      2355 9.52249E-05-2.85708E-05-2.85660E-05 2.25028E-08 9.50260E-19 8.64101E-19
 -1      2356 9.52231E-05-2.85695E-05-2.85659E-05 1.71759E-08 3.62817E-19 6.57044E-20
 -1      2357 9.52251E-05-2.85701E-05-2.85665E-05 1.58700E-08 4.67910E-19 4.00306E-19
 -1      2358 9.52270E-05-2.85715E-05-2.85666E-05 1.97190E-08 6.14075E-19 1.43890E-18
 -1      2359 9.52261E-05-2.85702E-05-2.85668E-05 1.44930E-08 1.40767E-19 9.60961E-19
 -1      2360 9.52279E-05-2.85707E-05-2.85674E-05 1.32656E-08 1.32408E-20 1.23807E-18
 -1      2361 9.52290E-05-2.85720E-05-2.85673E-05 1.68388E-08 4.91913E-19 2.64722E-18
 -1      2362 9.52287E-05-2.85708E-05-2.85677E-05 1.19864E-08 8.83308E-19 1.21385E-18
 -1      2363 9.52302E-05-2.85711E-05-2.85682E-05 1.08717E-08 1.77517E-18 7.95795E-19
 -1      2364 9.52308E-05-2.85722E-05-2.85680E-05 1.40718E-08 5.89037E-19 3.67726E-18
 -1      2365 9.52309E-05-2.85712E-05-2.85685E-05 9.71608E-09 1.32100E-18 5.95968E-19
 -1      2366 9.52322E-05-2.85715E-05-2.85689E-05 8.71734E-09 1.57459E-18 1.71023E-18
 -1      2367 9.52324E-05-2.85724E-05-2.85686E-05 1.15234E-08 1.24370E-18 1.92629E-18
 -1      2368 9.52328E-05-2.85716E-05-2.85691E-05 7.68221E-09 1.37651E-18 1.39496E-18
 -1      2369 9.52338E-05-2.85718E-05-2.85694E-05 6.78291E-09-1.61328E-19 1.20440E-18
 -1      2370 9.52338E-05-2.85725E-05-2.85691E-05 9.22339E-09 1.08353E-18 1.90324E-18
 -1      2371 9.52344E-05-2.85719E-05-2.85697E-05 5.84641E-09-1.85758E-18 7.46322E-19
 -1      2372 9.52352E-05-2.85721E-05-2.85699E-05 5.02034E-09-2.42963E-18 7.07898E-19
 -1      2373 9.52350E-05-2.85726E-05-2.85696E-05 7.15335E-09-1.21789E-18-9.10945E-19
 -1      2374 5.99764E-05-3.34716E-05-1.11576E-05 4.12424E-05-1.40565E-18 1.22216E-18
 -1      2375 4.57673E-05-2.63487E-05-7.82293E-06 3.40547E-05-9.91452E-19 2.24421E-18
 -1      2376 1.10193E-04-2.84091E-05-3.49825E-05 1.13825E-05 1.35542E-18 1.52418E-18
 -1      2377 1.12681E-04-3.10192E-05-3.50822E-05 1.36064E-05 1.45372E-18 2.09523E-18
 -1      2378 1.07026E-04-2.50498E-05-3.51303E-05 3.35936E-06 1.51921E-18 3.41039E-19
 -1      2379 1.08189E-04-2.61659E-05-3.52118E-05 7.37684E-06 1.42094E-18 8.30331E-19
 -1      2380 1.12381E-04-2.61967E-05-3.70312E-05 1.10846E-05 1.94270E-18 1.01535E-18
 -1      2381 1.07556E-04-2.64014E-05-3.48682E-05-5.75798E-06 1.66785E-18-8.12960E-19
 -1      2382 1.06855E-04-2.51454E-05-3.49955E-05-1.94554E-06 1.63035E-18-4.76686E-19
 -1      2383 1.10014E-04-2.35002E-05-3.72290E-05 9.85289E-07 2.08283E-18-4.98800E-19
 -1      2384 1.10923E-04-3.12967E-05-3.42388E-05-1.10419E-05 1.51197E-18-1.34469E-18
 -1      2385 1.09076E-04-2.87195E-05-3.43704E-05-9.31978E-06 1.57694E-18-1.07751E-18
 -1      2386 1.11587E-04-2.67382E-05-3.64584E-05-8.58388E-06 1.80988E-18-1.61630E-18
 -1      2387 1.14129E-04-3.59971E-05-3.35539E-05-1.07269E-05 8.96744E-19-1.60586E-18
 -1      2388 1.12388E-04-3.38431E-05-3.36248E-05-1.13427E-05 1.39266E-18-1.46686E-18
 -1      2389 1.14972E-04-3.31737E-05-3.50528E-05-1.24075E-05 1.59349E-18-2.01481E-18
 -1      2390 1.15185E-04-3.81086E-05-3.30467E-05-6.71772E-06-1.80722E-20-2.11905E-18
 -1      2391 1.14301E-04-3.72227E-05-3.30604E-05-8.65117E-06 4.76251E-19-1.88377E-18
 -1      2392 1.16809E-04-3.82078E-05-3.36477E-05-1.01734E-05 9.64324E-19-2.49306E-18
 -1      2393 1.14092E-04-3.77200E-05-3.27172E-05-1.86423E-06-2.46731E-19-2.08894E-18
 -1      2394 1.14137E-04-3.79136E-05-3.27355E-05-3.96733E-06-8.49812E-20-2.14476E-18
 -1      2395 1.15923E-04-3.97442E-05-3.26421E-05-4.90871E-06-9.66643E-21-2.82657E-18
 -1      2396 1.11823E-04-3.60630E-05-3.24484E-05 2.04475E-06 2.45927E-19-1.85065E-18
 -1      2397 1.12516E-04-3.67828E-05-3.25266E-05 4.18169E-07-1.11782E-19-1.91826E-18
 -1      2398 1.13208E-04-3.84841E-05-3.20452E-05 2.48515E-07-3.23912E-19-2.93697E-18
 -1      2399 1.09214E-04-3.41614E-05-3.21491E-05 4.47316E-06 2.89397E-19-1.42235E-18
 -1      2400 1.10242E-04-3.49900E-05-3.23024E-05 3.49263E-06 3.97794E-19-1.37523E-18
 -1      2401 1.09946E-04-3.60833E-05-3.16855E-05 3.95983E-06-7.28812E-20-2.15670E-18
 -1      2402 1.06719E-04-3.25203E-05-3.17887E-05 5.57733E-06 3.06867E-19-1.07474E-18
 -1      2403 1.07857E-04-3.32537E-05-3.20021E-05 5.15710E-06 4.08296E-19-1.15764E-18
 -1      2404 1.06927E-04-3.36987E-05-3.14109E-05 6.02624E-06 1.80213E-19-1.69024E-18
 -1      2405 1.04515E-04-3.12811E-05-3.13797E-05 5.74694E-06 3.56469E-19-1.03034E-18
 -1      2406 1.05627E-04-3.18589E-05-3.16258E-05 5.71496E-06 4.24872E-19-1.00615E-18
 -1      2407 1.04427E-04-3.18187E-05-3.11376E-05 6.78035E-06 3.63055E-19-1.39842E-18
 -1      2408 1.02636E-04-3.04036E-05-3.09524E-05 5.36024E-06 4.11984E-19-4.09776E-19
 -1      2409 1.03651E-04-3.08356E-05-3.12046E-05 5.55536E-06 4.50689E-19-5.14515E-19
 -1      2410 1.02441E-04-3.05129E-05-3.08400E-05 6.67091E-06 1.25129E-19-4.55723E-19
 -1      2411 1.01060E-04-2.98001E-05-3.05371E-05 4.69893E-06-2.55053E-19-1.73351E-19
 -1      2412 1.01947E-04-3.01157E-05-3.07757E-05 5.00178E-06 1.19399E-19-1.86336E-19
 -1      2413 1.00875E-04-2.96706E-05-3.05255E-05 6.07361E-06-5.02562E-20 1.19302E-20
 -1      2414 9.97576E-05-2.93885E-05-3.01556E-05 3.94652E-06-1.21052E-18 4.52557E-19
 -1      2415 1.00508E-04-2.96172E-05-3.03689E-05 4.28033E-06-4.95267E-19 4.35651E-20
 -1      2416 9.96303E-05-2.91529E-05-3.02118E-05 5.25369E-06-6.36269E-19 6.86259E-19
 -1      2417 9.86939E-05-2.91076E-05-2.98204E-05 3.21011E-06-1.41402E-18 1.17859E-18
 -1      2418 9.93119E-05-2.92726E-05-3.00032E-05 3.53103E-06-1.37533E-18 7.40710E-19
 -1      2419 9.86356E-05-2.88455E-05-2.99159E-05 4.37943E-06-1.57894E-18 1.00229E-18
 -1      2420 9.78372E-05-2.89149E-05-2.95359E-05 2.54473E-06-1.34336E-18 6.38133E-19
 -1      2421 9.83351E-05-2.90337E-05-2.96876E-05 2.83106E-06-1.23765E-18 6.35398E-19
 -1      2422 9.78384E-05-2.86684E-05-2.96494E-05 3.54731E-06-1.41266E-18 2.80587E-19
 -1      2423 9.71572E-05-2.87827E-05-2.93014E-05 1.97293E-06-4.07999E-19 2.80287E-19
 -1      2424 9.75502E-05-2.88676E-05-2.94238E-05 2.21654E-06-1.11747E-18-4.13301E-19
 -1      2425 9.72017E-05-2.85699E-05-2.94182E-05 2.80557E-06-1.03451E-18-1.30487E-18
 -1      2426 9.66259E-05-2.86924E-05-2.91126E-05 1.49851E-06-1.27394E-19 1.15131E-18
 -1      2427 9.69302E-05-2.87523E-05-2.92092E-05 1.69891E-06 1.56332E-19 1.27406E-18
 -1      2428 9.66970E-05-2.85181E-05-2.92236E-05 2.17254E-06-6.68202E-19-1.01429E-18
 -1      2429 9.62174E-05-2.86315E-05-2.89638E-05 1.11532E-06 3.44375E-19 7.64716E-19
 -1      2430 9.64487E-05-2.86731E-05-2.90385E-05 1.27594E-06 2.52715E-19 1.36094E-18
 -1      2431 9.63017E-05-2.84940E-05-2.90639E-05 1.64913E-06 4.25212E-21 8.45587E-19
 -1      2432 9.59087E-05-2.85915E-05-2.88489E-05 8.12620E-07-1.51216E-19 7.36956E-19
 -1      2433 9.60811E-05-2.86196E-05-2.89055E-05 9.38590E-07-8.91688E-20 7.16145E-19
 -1      2434 9.59962E-05-2.84861E-05-2.89359E-05 1.22707E-06 3.19197E-20 8.53754E-19
 -1      2435 9.56798E-05-2.85663E-05-2.87618E-05 5.78203E-07-3.89922E-19 9.75040E-19
 -1      2436 9.58057E-05-2.85846E-05-2.88039E-05 6.75074E-07-6.89215E-20 1.15090E-18
 -1      2437 9.57638E-05-2.84874E-05-2.88353E-05 8.93929E-07-4.97315E-20 1.22954E-18
 -1      2438 9.55135E-05-2.85515E-05-2.86971E-05 4.00052E-07-2.32808E-19 1.69971E-18
 -1      2439 9.56034E-05-2.85627E-05-2.87278E-05 4.73147E-07-2.06266E-19 1.37569E-18
 -1      2440 9.55901E-05-2.84938E-05-2.87576E-05 6.35996E-07-4.50496E-19 1.75064E-18
 -1      2441 9.53957E-05-2.85437E-05-2.86501E-05 2.67215E-07 3.87141E-19 1.01276E-18
 -1      2442 9.54580E-05-2.85501E-05-2.86719E-05 3.21307E-07 5.51774E-19 1.52035E-18
 -1      2443 9.54628E-05-2.85026E-05-2.86989E-05 4.39982E-07-5.75418E-21 2.25841E-18
 -1      2444 9.53145E-05-2.85408E-05-2.86167E-05 1.70154E-07 8.88809E-19 5.54186E-19
 -1      2445 9.53563E-05-2.85438E-05-2.86317E-05 2.09348E-07 3.84828E-19 8.24841E-19
 -1      2446 9.53717E-05-2.85122E-05-2.86554E-05 2.93817E-07 4.58805E-19 6.39428E-19
 -1      2447 9.52606E-05-2.85410E-05-2.85937E-05 1.00828E-07 9.53209E-19 1.50301E-18
 -1      2448 9.52874E-05-2.85417E-05-2.86037E-05 1.28553E-07 1.00223E-18 5.78771E-19
 -1      2449 9.53081E-05-2.85217E-05-2.86237E-05 1.87013E-07 8.06214E-19 9.79182E-20
 -1      2450 9.52266E-05-2.85430E-05-2.85784E-05 5.26227E-08 6.68622E-19 1.21320E-18
 -1      2451 9.52426E-05-2.85423E-05-2.85847E-05 7.16745E-08 8.69614E-19 1.53412E-18
 -1      2452 9.52652E-05-2.85306E-05-2.86013E-05 1.10728E-07 6.58132E-19 1.35703E-18
 -1      2453 9.52069E-05-2.85460E-05-2.85687E-05 2.02096E-08-9.42341E-19 4.33795E-19
 -1      2454 9.52153E-05-2.85445E-05-2.85724E-05 3.28245E-08 4.64139E-19 7.06868E-19
 -1      2455 9.52375E-05-2.85385E-05-2.85859E-05 5.76878E-08 7.28335E-19 1.02041E-18
 -1      2456 9.51969E-05-2.85494E-05-2.85630E-05-6.26320E-10-1.00919E-18 1.67379E-19
 -1      2457 9.52003E-05-2.85475E-05-2.85649E-05 7.30812E-09-1.25010E-18 4.13629E-19
 -1      2458 9.52208E-05-2.85453E-05-2.85756E-05 2.20304E-08-6.65613E-19 7.35036E-19
 -1      2459 9.51935E-05-2.85528E-05-2.85602E-05-1.31617E-08 4.09384E-19 1.49006E-19
 -1      2460 9.51936E-05-2.85509E-05-2.85608E-05-8.55147E-09-2.76677E-19-1.82865E-19
 -1      2461 9.52118E-05-2.85511E-05-2.85692E-05-8.83436E-10-3.75939E-19 5.43298E-19
 -1      2462 9.51942E-05-2.85561E-05-2.85591E-05-1.99000E-08 1.36804E-18-4.53406E-19
 -1      2463 9.51924E-05-2.85542E-05-2.85590E-05-1.75848E-08 1.05910E-18 1.97214E-19
 -1      2464 9.52080E-05-2.85559E-05-2.85654E-05-1.46609E-08 4.54641E-19 1.50262E-19
 -1      2465 9.51975E-05-2.85590E-05-2.85593E-05-2.27198E-08 1.75999E-18-6.20815E-19
 -1      2466 9.51945E-05-2.85572E-05-2.85587E-05-2.19329E-08 2.13202E-18-3.83601E-19
 -1      2467 9.52076E-05-2.85597E-05-2.85635E-05-2.20584E-08 1.47630E-18-6.48212E-19
 -1      2468 9.52020E-05-2.85616E-05-2.85602E-05-2.30037E-08-8.89178E-19-1.16528E-18
 -1      2469 9.51986E-05-2.85600E-05-2.85594E-05-2.31853E-08 1.48158E-19-4.41892E-19
 -1      2470 9.52093E-05-2.85627E-05-2.85629E-05-2.51446E-08 6.42326E-19 3.31323E-19
 -1      2471 9.52071E-05-2.85637E-05-2.85614E-05-2.17471E-08-1.58052E-18-6.09155E-19
 -1      2472 9.52036E-05-2.85624E-05-2.85605E-05-2.24980E-08-1.43605E-18-9.93218E-19
 -1      2473 9.52121E-05-2.85651E-05-2.85631E-05-2.54418E-08-1.24367E-18-1.12052E-18
 -1      2474 9.52121E-05-2.85655E-05-2.85628E-05-1.96479E-08-1.29686E-18-7.84362E-19
 -1      2475 9.52088E-05-2.85644E-05-2.85619E-05-2.06913E-08-1.26466E-18-4.37109E-19
 -1      2476 9.52155E-05-2.85670E-05-2.85637E-05-2.40457E-08-1.55698E-18-1.23222E-18
 -1      2477 9.52168E-05-2.85670E-05-2.85642E-05-1.71788E-08-3.35749E-19-1.13424E-18
 -1      2478 9.52138E-05-2.85661E-05-2.85634E-05-1.83303E-08-8.93997E-19-4.25354E-19
 -1      2479 9.52190E-05-2.85683E-05-2.85646E-05-2.17236E-08-1.34886E-18-4.49947E-19
 -1      2480 9.52211E-05-2.85682E-05-2.85655E-05-1.46446E-08 8.86525E-19-1.15635E-18
 -1      2481 9.52184E-05-2.85674E-05-2.85648E-05-1.57882E-08 5.73866E-19-6.70818E-19
 -1      2482 9.52223E-05-2.85694E-05-2.85655E-05-1.89949E-08-3.27472E-19-1.55551E-19
 -1      2483 9.52248E-05-2.85691E-05-2.85667E-05-1.22263E-08 4.84967E-19-1.31082E-18
 -1      2484 9.52225E-05-2.85685E-05-2.85661E-05-1.32963E-08 1.27776E-19-8.71198E-20
 -1      2485 9.52253E-05-2.85701E-05-2.85665E-05-1.61934E-08-2.91251E-20 1.04900E-19
 -1      2486 9.52280E-05-2.85699E-05-2.85677E-05-1.00146E-08 3.92513E-19 3.66384E-19
 -1      2487 9.52261E-05-2.85694E-05-2.85672E-05-1.09821E-08 1.05920E-18-1.06362E-19
 -1      2488 9.52280E-05-2.85707E-05-2.85674E-05-1.35163E-08 1.36104E-20 1.70257E-18
 -1      2489 9.52306E-05-2.85705E-05-2.85686E-05-8.03429E-09-7.45461E-20 6.61933E-19
 -1      2490 9.52290E-05-2.85701E-05-2.85681E-05-8.89752E-09 1.89387E-19-1.24662E-19
 -1      2491 9.52303E-05-2.85711E-05-2.85682E-05-1.10614E-08-1.45335E-20 2.02752E-18
 -1      2492 9.52327E-05-2.85710E-05-2.85693E-05-6.26319E-09-1.39455E-18 7.79943E-19
 -1      2493 9.52315E-05-2.85707E-05-2.85689E-05-7.04007E-09-9.25459E-19 1.72486E-18
 -1      2494 9.52322E-05-2.85715E-05-2.85689E-05-8.85526E-09-1.13782E-18 1.62999E-18
 -1      2495 9.52344E-05-2.85714E-05-2.85699E-05-4.64472E-09-2.90578E-19 5.48973E-19
 -1      2496 9.52335E-05-2.85712E-05-2.85696E-05-5.36652E-09-7.72919E-19 7.89195E-19
 -1      2497 9.52339E-05-2.85718E-05-2.85694E-05-6.88034E-09-1.14512E-18 2.93673E-18
 -1      2498 9.52358E-05-2.85718E-05-2.85703E-05-3.13947E-09 7.12117E-19 1.56427E-18
 -1      2499 9.52350E-05-2.85716E-05-2.85701E-05-3.82329E-09 2.89907E-19 5.29787E-19
 -1      2500 9.52352E-05-2.85721E-05-2.85699E-05-5.07315E-09-2.05704E-20 2.47896E-18
 -1      2501 9.52363E-05-2.85719E-05-2.85705E-05-2.31925E-09 3.38245E-19 1.01124E-18
 -1      2502 9.52399E-05-2.85776E-05-2.85695E-05-4.05329E-09-1.45996E-19-1.15629E-18
 -1      2503 9.52394E-05-2.85770E-05-2.85696E-05-4.40760E-09-8.83043E-19-1.23153E-18
 -1      2504 9.52406E-05-2.85787E-05-2.85694E-05-2.87395E-09-4.32164E-20-3.53358E-19
 -1      2505 9.52403E-05-2.85782E-05-2.85695E-05-3.46773E-09 4.16433E-19-9.04518E-19
 -1      2506 9.52404E-05-2.85781E-05-2.85696E-05-4.34150E-09 4.43718E-19-1.61781E-19
 -1      2507 9.52378E-05-2.85747E-05-2.85699E-05-4.64478E-09-3.69686E-19 5.61547E-18
 -1      2508 9.52373E-05-2.85739E-05-2.85700E-05-4.40791E-09-3.38846E-19 5.05643E-18
 -1      2509 9.52389E-05-2.85763E-05-2.85697E-05-4.67931E-09-1.52763E-18 6.29649E-19
 -1      2510 9.52384E-05-2.85755E-05-2.85698E-05-4.73783E-09-1.58721E-18 4.35673E-18
 -1      2511 9.52380E-05-2.85751E-05-2.85698E-05-5.48030E-09-1.63267E-19 3.57794E-18
 -1      2512 9.52393E-05-2.85767E-05-2.85697E-05-5.26659E-09-3.47680E-19 4.65612E-19
 -1      2513 9.52411E-05-2.85793E-05-2.85693E-05-1.31497E-09-1.92123E-18-1.10852E-18
 -1      2514 9.52409E-05-2.85791E-05-2.85693E-05-2.06144E-09-1.18532E-18-5.10742E-19
 -1      2515 9.52412E-05-2.85791E-05-2.85695E-05-2.84205E-09-9.84803E-19-1.36744E-18
 -1      2516 9.52412E-05-2.85795E-05-2.85693E-05 4.14006E-10-1.39026E-18-1.10658E-19
 -1      2517 9.52412E-05-2.85795E-05-2.85693E-05-3.84209E-10-2.00712E-18-4.69681E-19
 -1      2518 9.52416E-05-2.85796E-05-2.85695E-05-9.77367E-10-1.48952E-18-1.20906E-18
 -1      2519 9.52409E-05-2.85791E-05-2.85693E-05 2.08805E-09-1.08893E-18-2.68589E-18
 -1      2520 9.52411E-05-2.85793E-05-2.85693E-05 1.34376E-09-6.16837E-19-9.43570E-19
 -1      2521 9.52416E-05-2.85796E-05-2.85695E-05 1.01138E-09-2.41143E-19-3.56433E-20
 -1      2522 9.52403E-05-2.85782E-05-2.85695E-05 3.46761E-09-3.81662E-19-1.77578E-18
 -1      2523 9.52406E-05-2.85787E-05-2.85694E-05 2.88523E-09-5.06513E-19-1.84953E-18
 -1      2524 9.52412E-05-2.85791E-05-2.85695E-05 2.85792E-09-4.40482E-19-1.44662E-18
 -1      2525 9.52394E-05-2.85770E-05-2.85696E-05 4.40739E-09 3.45384E-19 7.47466E-21
 -1      2526 9.52399E-05-2.85776E-05-2.85695E-05 4.05326E-09 3.22764E-19-1.77142E-18
 -1      2527 9.52404E-05-2.85781E-05-2.85696E-05 4.34190E-09 2.20002E-19-2.05979E-18
 -1      2528 9.52384E-05-2.85755E-05-2.85698E-05 4.73193E-09-1.52924E-18 3.82543E-19
 -1      2529 9.52389E-05-2.85762E-05-2.85697E-05 4.68179E-09-7.94876E-19 1.42900E-18
 -1      2530 9.52393E-05-2.85767E-05-2.85697E-05 5.26923E-09-9.22121E-19-4.63483E-19
 -1      2531 9.52373E-05-2.85739E-05-2.85700E-05 4.37261E-09-2.21485E-18-4.16097E-19
 -1      2532 9.52378E-05-2.85747E-05-2.85699E-05 4.64715E-09-2.29983E-18 1.93883E-19
 -1      2533 9.52381E-05-2.85751E-05-2.85698E-05 5.47281E-09-2.92005E-18-4.98351E-19
 -1      2534 9.52366E-05-2.85726E-05-2.85703E-05 3.01631E-09-1.58514E-18-6.83085E-20
 -1      2535 2.20539E-05-1.41648E-05-3.02765E-06-1.10860E-05 8.21834E-19 6.16111E-18
 -1      2536 2.85298E-05-1.89090E-05-3.90264E-06-2.50179E-05 8.53809E-19 5.95041E-18
 -1      2537 1.14893E-04-3.36537E-05-3.47609E-05 1.46596E-05 1.30821E-18 2.27342E-18
 -1      2538 1.17563E-04-3.59732E-05-3.49935E-05 1.47151E-05 1.57946E-18 2.32333E-18
 -1      2539 1.16953E-04-3.24839E-05-3.62018E-05 1.62671E-05 1.56122E-18 1.90440E-18
 -1      2540 9.65698E-05-4.94618E-05-2.01569E-05 4.11801E-05-6.19393E-19-6.50627E-20
 -1      2541 7.82790E-05-4.31001E-05-1.49142E-05 4.15722E-05-1.43826E-18 4.64121E-19
 -1      2542 4.20366E-05-2.69622E-05-6.26257E-06-3.45650E-05 1.72837E-18 4.24109E-18
 -1      2543 6.12889E-05-3.54973E-05-1.10559E-05-4.29591E-05 1.54944E-18 2.45343E-18
 -1      2544 1.15345E-04-2.96616E-05-3.68142E-05-1.43843E-05-2.07260E-18-8.16500E-19
 -1      2545 1.16210E-04-3.35195E-05-3.55202E-05-1.29301E-05-1.99379E-18-3.46782E-19
 -1      2546 1.16091E-04-3.38838E-05-3.51619E-05-1.35065E-05-1.64830E-18-5.77617E-19
 -1      2547 1.11901E-04-2.77678E-05-3.61019E-05-1.30146E-05-1.80384E-18-1.34425E-18
 -1      2548 1.16038E-04-5.37771E-05-2.65756E-05-3.15820E-05 1.06536E-18-4.29446E-19
 -1      2549 1.30666E-04-5.38191E-05-3.33095E-05-2.40818E-05-1.32243E-19-1.91599E-18
 -1      2550 1.39608E-04-1.10191E-05-5.56921E-05-5.31210E-06-6.45693E-18-2.38540E-18
 -1      2551 1.39410E-04-1.40415E-05-5.41715E-05-8.88153E-06-6.27906E-18-1.79984E-18
 -1      2552 5.04768E-05 8.87596E-07-2.20474E-05 1.17926E-05 1.44696E-18-5.01761E-18
 -1      2553 5.83125E-05-3.21781E-06-2.33670E-05 1.30636E-05 1.49803E-18-4.76408E-18
 -1      2554 6.42973E-05-9.48493E-06-2.34125E-05 1.62427E-05 1.67432E-18-4.53253E-18
 -1      2555 1.44548E-04-1.32663E-05-5.66735E-05 6.68348E-06 6.20790E-18-2.08762E-18
 -1      2556 1.43821E-04-1.17167E-05-5.71005E-05 2.97960E-06 6.02960E-18-2.36611E-18
 -1      2557 1.39579E-04-4.73182E-05-3.95384E-05-1.18442E-05-1.87382E-18-3.17976E-18
 -1      2558 1.46853E-04-4.13833E-05-4.54076E-05-8.26724E-06-3.35274E-18-3.50862E-18
 -1      2559 1.44992E-04-1.46203E-05-5.64212E-05-1.61318E-06 5.93855E-18-2.98860E-18
 -1      2560 1.46740E-04-2.00254E-05-5.46128E-05-3.35049E-06 5.63785E-18-3.07939E-18
 -1      2561 1.46772E-04-2.60130E-05-5.20208E-05 9.59695E-06 5.50550E-18-1.08060E-18
 -1      2562 1.47266E-04-1.93395E-05-5.53317E-05 9.44757E-06 6.06539E-18-1.28251E-18
 -1      2563 1.43286E-04-4.27460E-05-4.32117E-05 2.58607E-07 3.30830E-18-1.26081E-18
 -1      2564 1.47965E-04-3.66255E-05-4.82511E-05 5.50182E-06 4.52845E-18-9.56300E-19
 -1      2565 1.25147E-04-4.95469E-05-3.24258E-05-1.82682E-05 1.72551E-18-2.89219E-18
 -1      2566 1.37115E-04-4.90873E-05-3.81824E-05-1.05463E-05 2.43257E-18-2.11822E-18
 -1      2567 9.11709E-05-4.10953E-05-2.13600E-05-3.30829E-05 6.09440E-19-4.54867E-18
 -1      2568 1.10677E-04-4.70141E-05-2.74189E-05-2.88898E-05 1.51492E-18-3.95490E-18
 -1      2569 1.21083E-04-5.02745E-05-3.01748E-05-1.80838E-05 2.62580E-19-2.10975E-18
 -1      2570 4.98781E-05-2.32284E-05-1.14059E-05-3.34761E-05 1.00797E-19-6.70384E-18
 -1      2571 6.76987E-05-3.04097E-05-1.59609E-05-3.65129E-05 1.34678E-19-5.78651E-18
 -1      2572 2.45400E-05-8.37102E-06-6.68971E-06-2.10595E-05-2.29440E-19-7.45791E-18
 -1      2573 3.61526E-05-1.51927E-05-8.78642E-06-3.00694E-05 4.07846E-19-7.32811E-18
 -1      2574 4.91248E-05-1.77191E-05-1.30060E-05-3.08366E-05-7.40836E-19-6.66064E-18
 -1      2575 1.31178E-05-2.25996E-06-4.35065E-06 5.23339E-06 5.32043E-20-7.75903E-18
 -1      2576 1.48884E-05-1.98345E-06-5.21570E-06-8.98530E-06 4.58827E-19-7.73616E-18
 -1      2577 2.52186E-05-9.63166E-06-6.54740E-06 2.63623E-05-7.70800E-20-7.18157E-18
 -1      2578 1.65222E-05-5.54151E-06-4.56279E-06 1.60818E-05 4.89585E-19-7.36135E-18
 -1      2579 5.59619E-05-2.45028E-05-1.33961E-05 3.82135E-05-3.40507E-19-6.14131E-18
 -1      2580 4.05021E-05-1.75473E-05-9.66940E-06 3.28924E-05 3.80953E-19-6.56302E-18
 -1      2581 8.97217E-05-3.87454E-05-2.20218E-05 3.69237E-05-1.13375E-18-5.01330E-18
 -1      2582 7.16373E-05-3.25861E-05-1.67364E-05 3.73501E-05-3.82647E-19-5.53727E-18
 -1      2583 6.99418E-05-2.89199E-05-1.71875E-05 3.59033E-05 1.20872E-18-5.23419E-18
 -1      2584 1.24436E-04-4.74028E-05-3.33891E-05 2.15354E-05-2.33548E-18-2.96038E-18
 -1      2585 1.09245E-04-4.50602E-05-2.74864E-05 2.80032E-05-1.46643E-18-3.88788E-18
 -1      2586 1.42251E-04-4.13449E-05-4.38360E-05 2.45792E-06-4.17132E-18-1.65214E-18
 -1      2587 1.34769E-04-4.51156E-05-3.85188E-05 9.52447E-06-3.28765E-18-2.15760E-18
 -1      2588 1.42219E-04-2.37297E-05-5.14941E-05-1.01326E-05-5.83987E-18-1.13015E-18
 -1      2589 1.42748E-04-3.22749E-05-4.75555E-05-6.44298E-06-4.93884E-18-1.36415E-18
 -1      2590 1.42004E-04-1.39072E-05-5.52941E-05 2.22693E-06-6.27948E-18-3.47622E-18
 -1      2591 1.40281E-04-1.06861E-05-5.61048E-05-9.83696E-07-6.53422E-18-3.06085E-18
 -1      2592 8.21975E-05-4.46007E-05-1.58934E-05-4.19040E-05 1.40502E-18 7.92373E-19
 -1      2593 9.88948E-05-4.99055E-05-2.11731E-05-4.09725E-05 1.20236E-18 5.44801E-19
 -1      2594 1.25883E-04-5.46378E-05-3.08133E-05 2.87799E-05 4.15046E-19-1.69936E-18
 -1      2595 1.10625E-04-5.34402E-05-2.45295E-05 3.43601E-05-1.68136E-19-8.59421E-19
 -1      2596 1.08837E-04-5.36002E-05-2.34105E-05 3.42367E-05-1.34996E-18-1.12481E-18
 -1      2597 1.22058E-04-3.60512E-05-3.69536E-05 1.06568E-05 1.92102E-18 2.35785E-18
 -1      2598 1.23133E-04-3.41655E-05-3.81895E-05 1.20611E-05 2.10416E-18 2.51800E-18
 -1      2599 1.19693E-04-3.15944E-05-3.78945E-05 1.28927E-05 2.23015E-18 1.49859E-18
 -1      2600 1.20961E-04-3.66284E-05-3.62732E-05 1.18632E-05 1.81331E-18 1.40850E-18
 -1      2601 1.45588E-04-4.67337E-05-4.27092E-05 9.47087E-06 2.91948E-18-3.29115E-18
 -1      2602 1.37317E-04-5.16517E-05-3.67802E-05 1.55548E-05 1.62127E-18-2.86594E-18
 -1      2603 4.66468E-05 1.85975E-06-2.05601E-05 1.15260E-05 1.47112E-18-5.38057E-18
 -1      2604 9.92569E-05-2.71893E-05-3.09527E-05 2.09102E-06 3.39326E-19-2.68756E-18
 -1      2605 9.83299E-05-2.35987E-05-3.20373E-05-9.60750E-07 1.11305E-20-2.84423E-18
 -1      2606 1.03266E-04-2.53727E-05-3.34137E-05-4.58543E-06-5.26752E-19-2.42948E-18
 -1      2607 5.02911E-05 1.68760E-07-2.14205E-05-9.65331E-06-5.79688E-21-5.28742E-18
 -1      2608 1.20416E-04-3.75721E-05-3.54769E-05 1.58660E-05 1.59864E-18 1.94696E-18
 -1      2609 1.15502E-04-2.95992E-05-3.68119E-05 1.14503E-05 1.96961E-18 4.29155E-19
 -1      2610 1.43263E-04-4.37033E-05-4.26720E-05-1.86879E-06 2.60336E-18-3.81313E-18
 -1      2611 1.33402E-04-5.59254E-05-3.31159E-05 1.70939E-05 1.95876E-20-3.04731E-18
 -1      2612 7.67338E-05-4.02718E-05-1.52686E-05-4.12543E-05 2.50552E-18 1.38913E-18
 -1      2613 1.12569E-04-5.40534E-05-2.47970E-05-3.25341E-05 2.24326E-18-9.61118E-19
 -1      2614 1.37510E-04-1.72998E-05-5.17917E-05 4.26971E-06-5.52393E-18-3.79884E-18
 -1      2615 4.30630E-05-2.10153E-05-8.88438E-06 2.84554E-05-1.29300E-18 3.03195E-18
 -1      2616 4.31971E-05-2.21371E-05-8.53383E-06-3.02437E-05 2.11885E-18 4.35693E-18
 -1      2617 7.70326E-05-3.94441E-05-1.57440E-05 3.93166E-05-2.16226E-18 4.57662E-19
 -1      2618 9.52363E-05-2.85724E-05-2.85703E-05-3.34605E-09 1.07387E-19 2.69505E-18
 -1      2619 9.52366E-05-2.85729E-05-2.85701E-05-3.83901E-09 4.02822E-19 3.73771E-18
 -1      2620 1.33361E-04-1.90906E-05-4.92218E-05-1.25705E-05-5.42546E-18-7.80223E-19
 -1      2621 9.52360E-05-2.85723E-05-2.85702E-05 3.69363E-09-2.25406E-18 1.61487E-19
 -1      2622 9.52367E-05-2.85732E-05-2.85701E-05 4.16584E-09-2.32896E-18-4.61802E-19
 -1      2623 9.52367E-05-2.85736E-05-2.85699E-05 5.15169E-09-2.92311E-18-2.83165E-19
 -1      2624 9.52355E-05-2.85722E-05-2.85700E-05 4.41441E-09-2.43391E-18 1.26216E-18
 -1      2625 1.38284E-04-3.72101E-05-4.34008E-05-7.93240E-06-3.61715E-18-2.53263E-19
 -1      2626 1.03521E-04-4.36070E-05-2.53764E-05 2.88239E-05 2.42887E-19-3.45505E-18
 -1      2627 2.49628E-05-1.25133E-05-4.75632E-06-1.78670E-06 9.42457E-20 6.01986E-18
 -1      2628 3.15006E-05-1.14946E-05-8.05632E-06-9.58558E-06 1.00332E-18 5.30920E-18
 -1      2629 2.93979E-05-1.11095E-05-7.58507E-06 7.46118E-06-5.47183E-19 5.17241E-18
 -1      2630 1.15850E-04-3.24773E-05-3.56557E-05 9.83193E-06 1.68775E-18 3.74733E-19
 -1      2631 3.91280E-05-1.21840E-05-1.11021E-05 2.97184E-05 1.19146E-18-6.72332E-18
 -1      2632 1.30473E-04-9.99177E-06-5.19669E-05-3.06240E-06-5.97074E-18-2.48326E-18
 -1      2633 2.47641E-05-2.85823E-06-8.97905E-06-1.42385E-05-1.87565E-19-7.62308E-18
 -1      2634 1.43343E-04-3.60232E-05-4.62020E-05 2.55071E-06-3.36378E-18-4.29890E-18
 -1      2635 8.44622E-05-3.72262E-05-2.00186E-05-3.30280E-05-2.97309E-19-4.71427E-18
 -1      2636 9.83582E-05-4.23549E-05-2.42316E-05-2.72796E-05-1.03730E-18-3.02531E-18
 -1      2637 7.73980E-05-3.11456E-05-1.93232E-05-3.17320E-05-1.20459E-18-4.43274E-18
 -1      2638 1.39082E-04-4.71073E-05-3.94101E-05 8.03078E-07 1.81490E-18-1.63901E-19
 -1      2639 1.41815E-04-3.11283E-05-4.75742E-05 1.26926E-05 4.09604E-18 2.94979E-19
 -1      2640 1.35185E-04-1.24565E-05-5.28999E-05-6.22050E-07 5.58555E-18-2.22733E-18
 -1      2641 1.35924E-04-5.28707E-05-3.55526E-05-1.27282E-05-8.15269E-21-3.58846E-18
 -1      2642 1.08626E-04-2.69470E-05-3.50867E-05-1.01142E-05-1.33540E-18-1.87155E-18
 -1      2643 1.40546E-04-2.51941E-05-4.96309E-05-7.20957E-06 4.81305E-18-3.40783E-18
 -1      2644 1.36703E-04-1.53673E-05-5.22596E-05 1.02973E-05 5.37358E-18-8.25539E-19
 -1      2645 2.03099E-05-6.32987E-07-7.96039E-06 1.05366E-05 7.78609E-19-7.64913E-18
 -1      2646 1.30242E-04-4.78702E-05-3.51775E-05 9.77883E-06-1.45848E-18-1.33810E-18
 -1      2647 9.52365E-05-2.85733E-05-2.85700E-05-4.85381E-09 7.10610E-19 3.43775E-18
 -1      2648 9.52358E-05-2.85728E-05-2.85699E-05 5.52672E-09-2.44147E-18-9.38359E-19
 -1      2649 3.65529E-05 5.73745E-06-1.78460E-05-3.11107E-06 4.00782E-19-6.11177E-18
 -1      2650 3.55434E-05 6.25447E-06-1.76965E-05 3.10653E-06 9.33943E-19-6.04019E-18
 -1      2651 9.86219E-05-2.93821E-05-2.96044E-05-6.38153E-06-4.89492E-20-1.70246E-18
 -1      2652 8.93319E-05-2.49437E-05-2.75527E-05-1.06927E-05-4.54447E-19-2.44061E-18
 -1      2653 7.77944E-05-1.88849E-05-2.49395E-05-1.55318E-05-7.78556E-19-3.59658E-18
 -1      2654 6.54528E-05-1.24447E-05-2.27389E-05-1.69730E-05-8.33719E-19-4.31857E-18
 -1      2655 8.74413E-05-2.73238E-05-2.56713E-05-1.63498E-05-8.84408E-19-2.79479E-18
 -1      2656 1.21688E-04-4.03476E-05-3.49864E-05 1.24866E-05 1.27126E-18 9.76629E-19
 -1      2657 1.21812E-04-3.96590E-05-3.51302E-05 1.14491E-05 1.09968E-18 9.25569E-19
 -1      2658 4.89719E-05-1.34814E-05-1.49869E-05 3.10133E-05 1.78449E-18-5.66411E-18
 -1      2659 3.52997E-05-5.41224E-06-1.22944E-05 2.38926E-05 1.63207E-18-6.49081E-18
 -1      2660 5.25030E-05-4.12727E-06-2.03104E-05-1.52488E-05-5.63277E-19-5.33533E-18
 -1      2661 4.28054E-05 1.36242E-06-1.88655E-05-1.16260E-05-1.26089E-19-5.78291E-18
 -1      2662 3.65949E-05 1.99142E-06-1.61510E-05-9.53562E-06-3.71636E-20-6.45174E-18
 -1      2663 5.97566E-05-1.21123E-05-2.01281E-05-2.03034E-05-9.30730E-19-5.04927E-18
 -1      2664 1.34857E-04-5.46965E-05-3.49655E-05 7.88848E-06-3.37093E-20-3.81784E-18
 -1      2665 1.27047E-04-5.68308E-05-2.99398E-05 1.85848E-05-1.30507E-18-3.25340E-18
 -1      2666 1.18633E-04-3.64815E-05-3.52675E-05-1.57775E-05-1.43323E-18 2.89116E-20
 -1      2667 1.17228E-04-3.40630E-05-3.56390E-05-1.59681E-05-1.64033E-18-1.36005E-20
 -1      2668 1.15832E-04-3.08380E-05-3.66053E-05-1.60424E-05-2.01006E-18-1.32791E-19
 -1      2669 1.13665E-04-2.69828E-05-3.71238E-05-1.43332E-05-2.42266E-18-5.23064E-19
 -1      2670 1.19221E-04-3.27263E-05-3.70696E-05-1.72544E-05-2.03322E-18 3.28424E-19
 -1      2671 1.11300E-04-2.31387E-05-3.79726E-05-1.11770E-05-2.76123E-18-1.05913E-18
 -1      2672 1.09641E-04-2.05709E-05-3.82392E-05-7.09409E-06-2.79322E-18-1.59129E-18
 -1      2673 1.15563E-04-2.43373E-05-3.91937E-05-1.42169E-05-2.89577E-18-6.16044E-19
 -1      2674 1.08981E-04-1.97331E-05-3.83308E-05-1.29762E-06-2.75217E-18-2.42692E-18
 -1      2675 1.09109E-04-2.07812E-05-3.80606E-05 3.18368E-06-2.43423E-18-2.90294E-18
 -1      2676 1.12044E-04-1.81239E-05-4.04010E-05-4.60622E-06-3.34541E-18-2.09178E-18
 -1      2677 1.10755E-04-2.37976E-05-3.72441E-05 7.95553E-06-1.96329E-18-3.47691E-18
 -1      2678 1.12406E-04-2.77118E-05-3.65148E-05 1.04609E-05-1.68378E-18-3.72864E-18
 -1      2679 1.12778E-04-2.06754E-05-3.95879E-05 6.36869E-06-2.69079E-18-3.72004E-18
 -1      2680 1.14233E-04-3.20165E-05-3.52104E-05 1.12649E-05-1.42279E-18-3.73991E-18
 -1      2681 1.15646E-04-3.57477E-05-3.43815E-05 1.10372E-05-1.01198E-18-3.84686E-18
 -1      2682 1.16740E-04-3.02002E-05-3.71376E-05 1.15320E-05-1.57458E-18-4.34348E-18
 -1      2683 1.15777E-04-3.84380E-05-3.31663E-05 8.91644E-06-4.47630E-19-3.45133E-18
 -1      2684 1.16007E-04-4.02387E-05-3.25019E-05 6.95938E-06-6.04123E-20-2.98001E-18
 -1      2685 1.18763E-04-3.88005E-05-3.42801E-05 9.63640E-06-5.00649E-19-3.63136E-18
 -1      2686 1.14352E-04-4.05739E-05-3.16715E-05 4.02046E-06 2.03611E-20-2.56412E-18
 -1      2687 1.13493E-04-4.05029E-05-3.12484E-05 1.73333E-06 4.18764E-19-2.24166E-18
 -1      2688 1.17082E-04-4.23955E-05-3.20246E-05 4.00471E-06 2.83574E-19-2.82589E-18
 -1      2689 1.11090E-04-3.93769E-05-3.07860E-05-6.59098E-07 4.54959E-19-1.68837E-18
 -1      2690 1.09689E-04-3.82771E-05-3.05524E-05-2.49654E-06 5.16058E-19-1.56150E-18
 -1      2691 1.12838E-04-4.14508E-05-3.06413E-05-1.38148E-06 6.82652E-19-2.16597E-18
 -1      2692 1.07412E-04-3.67051E-05-3.03368E-05-3.94846E-06 3.28070E-19-1.53745E-18
 -1      2693 1.05970E-04-3.53658E-05-3.02109E-05-5.13357E-06 3.00118E-19-1.69349E-18
 -1      2694 1.08047E-04-3.82958E-05-2.99464E-05-5.03303E-06 4.22780E-19-1.78550E-18
 -1      2695 1.04178E-04-3.39284E-05-3.01246E-05-5.81000E-06-7.18166E-20-1.78338E-18
 -1      2696 1.02932E-04-3.27506E-05-3.00434E-05-6.40723E-06-4.09361E-19-1.76938E-18
 -1      2697 1.03964E-04-3.48652E-05-2.96602E-05-6.92933E-06-2.80112E-20-9.89675E-19
 -1      2698 1.01670E-04-3.16649E-05-3.00082E-05-6.55355E-06-5.29096E-19-1.48857E-18
 -1      2699 1.00681E-04-3.07820E-05-2.99356E-05-6.71638E-06-7.62088E-20-1.46240E-18
 -1      2700 1.00933E-04-3.20235E-05-2.95667E-05-7.56434E-06-3.41566E-19-9.67055E-19
 -1      2701 9.98495E-05-3.00577E-05-2.99100E-05-6.54435E-06 1.52005E-19-1.57438E-18
 -1      2702 9.90942E-05-2.94603E-05-2.98316E-05-6.42414E-06 2.74441E-20-1.33306E-18
 -1      2703 9.88703E-05-3.00049E-05-2.95360E-05-7.41025E-06-8.81355E-20-1.10088E-18
 -1      2704 9.85681E-05-2.90264E-05-2.97987E-05-6.08168E-06-1.42499E-19-1.20517E-18
 -1      2705 9.79959E-05-2.86541E-05-2.97129E-05-5.79919E-06-2.21245E-19-9.29398E-19
 -1      2706 9.75389E-05-2.87241E-05-2.95056E-05-6.81395E-06-8.40364E-20-1.05146E-18
 -1      2707 9.76703E-05-2.84254E-05-2.96694E-05-5.38227E-06-1.86452E-19-4.96259E-19
 -1      2708 9.72345E-05-2.82123E-05-2.95798E-05-5.02406E-06-5.99344E-21-8.02923E-19
 -1      2709 9.67058E-05-2.79992E-05-2.94537E-05-6.00251E-06-3.36352E-21 5.63510E-20
 -1      2710 9.70338E-05-2.81164E-05-2.95282E-05-4.59258E-06 3.94660E-19-6.46424E-19
 -1      2711 9.66986E-05-2.80079E-05-2.94398E-05-4.21601E-06 8.45796E-19-3.34820E-19
 -1      2712 9.61916E-05-2.76522E-05-2.93788E-05-5.11927E-06 4.00745E-19 6.29597E-19
 -1      2713 9.65734E-05-2.79916E-05-2.93843E-05-3.80554E-06 6.32159E-19-5.29862E-20
 -1      2714 9.63134E-05-2.79480E-05-2.93013E-05-3.44568E-06 4.81132E-19-6.38213E-20
 -1      2715 9.58739E-05-2.75426E-05-2.92878E-05-4.25193E-06 7.74154E-19 7.58545E-19
 -1      2716 9.62332E-05-2.79750E-05-2.92460E-05-3.07558E-06 6.81467E-19-1.05865E-19
 -1      2717 9.60307E-05-2.79693E-05-2.91713E-05-2.75158E-06 1.02095E-18-1.55930E-19
 -1      2718 9.56743E-05-2.75702E-05-2.91896E-05-3.45121E-06 4.48883E-19 1.08925E-18
 -1      2719 9.59775E-05-2.80169E-05-2.91192E-05-2.43053E-06 8.90632E-19-5.75114E-19
 -1      2720 9.58200E-05-2.80317E-05-2.90542E-05-2.15086E-06 5.76344E-19-3.64380E-19
 -1      2721 9.55455E-05-2.76691E-05-2.90915E-05-2.74310E-06 6.47600E-19 3.60812E-19
 -1      2722 9.57832E-05-2.80859E-05-2.90072E-05-1.88070E-06-3.96752E-20-8.82180E-19
 -1      2723 9.56615E-05-2.81104E-05-2.89523E-05-1.64698E-06-5.50255E-19-1.33878E-18
 -1      2724 9.54592E-05-2.77976E-05-2.89991E-05-2.13722E-06-2.86710E-19-3.84893E-19
 -1      2725 9.56350E-05-2.81635E-05-2.89113E-05-1.42533E-06-7.14145E-19-1.51386E-18
 -1      2726 9.55418E-05-2.81912E-05-2.88661E-05-1.23514E-06-5.06353E-19-2.30860E-18
 -1      2727 9.53992E-05-2.79315E-05-2.89159E-05-1.63267E-06-8.95694E-19-1.81513E-18
 -1      2728 9.55222E-05-2.82393E-05-2.88314E-05-1.05731E-06-1.25078E-19-2.31355E-18
 -1      2729 9.54518E-05-2.82665E-05-2.87950E-05-9.06100E-07-7.38301E-20-2.06284E-18
 -1      2730 9.53561E-05-2.80572E-05-2.88434E-05-1.22223E-06-5.45035E-19-1.74938E-18
 -1      2731 9.54370E-05-2.83079E-05-2.87663E-05-7.66337E-07-4.14889E-19-1.94363E-18
 -1      2732 9.53846E-05-2.83326E-05-2.87375E-05-6.48652E-07-1.08075E-20-2.22237E-18
 -1      2733 9.53244E-05-2.81682E-05-2.87821E-05-8.95339E-07-2.99504E-19-1.25564E-18
 -1      2734 9.53733E-05-2.83670E-05-2.87143E-05-5.40964E-07 3.87420E-19-2.02695E-18
 -1      2735 9.53350E-05-2.83885E-05-2.86921E-05-4.51242E-07 5.30306E-20-1.74045E-18
 -1      2736 9.53006E-05-2.82623E-05-2.87315E-05-6.40137E-07 2.64816E-19-2.02774E-18
 -1      2737 9.53264E-05-2.84162E-05-2.86737E-05-3.69903E-07 2.80397E-19-1.41941E-18
 -1      2738 9.52990E-05-2.84343E-05-2.86569E-05-3.02918E-07 3.96323E-19-1.14940E-18
 -1      2739 9.52827E-05-2.83396E-05-2.86906E-05-4.44764E-07 3.56434E-19-1.14113E-18
 -1      2740 9.52926E-05-2.84561E-05-2.86426E-05-2.42749E-07 2.35989E-19-7.45685E-19
 -1      2741 9.52735E-05-2.84709E-05-2.86301E-05-1.93839E-07 2.29775E-19-6.52775E-19
 -1      2742 9.52692E-05-2.84015E-05-2.86582E-05-2.98154E-07 4.40626E-19-1.10097E-18
 -1      2743 9.52686E-05-2.84877E-05-2.86192E-05-1.50334E-07 3.50207E-19-8.02273E-19
 -1      2744 9.52558E-05-2.84995E-05-2.86101E-05-1.15503E-07 1.26874E-19-7.82515E-19
 -1      2745 9.52592E-05-2.84499E-05-2.86330E-05-1.90451E-07 1.26304E-19-1.29048E-18
 -1      2746 9.52522E-05-2.85122E-05-2.86020E-05-8.48597E-08-2.91074E-19-1.45825E-18
 -1      2747 9.52439E-05-2.85214E-05-2.85956E-05-6.07734E-08-1.89857E-19-1.71104E-18
 -1      2748 9.52518E-05-2.84870E-05-2.86139E-05-1.13178E-07-6.02172E-19-1.98825E-18
 -1      2749 9.52413E-05-2.85308E-05-2.85896E-05-3.98645E-08-1.32824E-19-2.24822E-18
 -1      2750 9.52363E-05-2.85378E-05-2.85852E-05-2.38143E-08-1.12335E-19-2.01850E-18
 -1      2751 9.52464E-05-2.85148E-05-2.85996E-05-5.92460E-08-1.45334E-19-1.40921E-18
 -1      2752 9.52345E-05-2.85446E-05-2.85810E-05-1.01224E-08-6.86225E-19-1.78265E-18
 -1      2753 9.52318E-05-2.85498E-05-2.85781E-05 4.75840E-11-1.04719E-18-1.81150E-18
 -1      2754 9.52426E-05-2.85352E-05-2.85891E-05-2.28670E-08-6.49299E-19-1.25762E-18
 -1      2755 9.52305E-05-2.85546E-05-2.85751E-05 8.50738E-09-7.50783E-19-8.90340E-19
 -1      2756 9.52295E-05-2.85585E-05-2.85733E-05 1.44781E-08-2.75016E-19-6.69061E-20
 -1      2757 9.52399E-05-2.85498E-05-2.85816E-05 5.85613E-10-5.50603E-19-3.72043E-19
 -1      2758 9.52286E-05-2.85617E-05-2.85713E-05 1.92410E-08-1.98018E-19 2.33939E-19
 -1      2759 9.52285E-05-2.85645E-05-2.85703E-05 2.22978E-08 6.39457E-19 9.88716E-19
 -1      2760 9.52381E-05-2.85600E-05-2.85765E-05 1.47378E-08 1.38935E-19 1.83349E-18
 -1      2761 9.52280E-05-2.85666E-05-2.85691E-05 2.45281E-08 6.85891E-19 5.26004E-19
 -1      2762 9.52285E-05-2.85685E-05-2.85686E-05 2.56344E-08 1.08763E-18 1.07152E-18
 -1      2763 9.52370E-05-2.85669E-05-2.85730E-05 2.23767E-08 3.93312E-19 5.91604E-19
 -1      2764 9.52282E-05-2.85698E-05-2.85678E-05 2.61976E-08 1.46403E-18 8.82046E-19
 -1      2765 9.52291E-05-2.85711E-05-2.85677E-05 2.60599E-08 9.93723E-19-1.10642E-19
 -1      2766 9.52363E-05-2.85713E-05-2.85708E-05 2.56032E-08 4.64488E-19-3.53626E-20
 -1      2767 9.52289E-05-2.85718E-05-2.85673E-05 2.55849E-08 1.00220E-18 2.03233E-19
 -1      2768 9.52300E-05-2.85727E-05-2.85674E-05 2.47087E-08 1.03439E-18 4.21778E-19
 -1      2769 9.52360E-05-2.85739E-05-2.85695E-05 2.59683E-08 8.01528E-19 2.70216E-19
 -1      2770 9.52299E-05-2.85730E-05-2.85672E-05 2.36410E-08 1.21122E-18 4.82733E-19
 -1      2771 9.52310E-05-2.85735E-05-2.85675E-05 2.23775E-08 1.31752E-18 8.90570E-19
 -1      2772 9.52358E-05-2.85753E-05-2.85688E-05 2.45903E-08 1.13964E-18 3.14764E-20
 -1      2773 9.52310E-05-2.85736E-05-2.85675E-05 2.10220E-08 1.14694E-18 1.52208E-18
 -1      2774 9.52320E-05-2.85739E-05-2.85677E-05 1.96056E-08 5.89018E-19 2.09832E-18
 -1      2775 9.52358E-05-2.85759E-05-2.85686E-05 2.22533E-08 1.19675E-18 9.98364E-19
 -1      2776 9.52321E-05-2.85738E-05-2.85678E-05 1.81621E-08 1.78164E-19 2.19920E-18
 -1      2777 9.52330E-05-2.85740E-05-2.85681E-05 1.67401E-08 7.08639E-19 2.21726E-18
 -1      2778 9.52359E-05-2.85759E-05-2.85686E-05 1.94874E-08 4.35862E-19 3.74770E-19
 -1      2779 9.52331E-05-2.85738E-05-2.85683E-05 1.53306E-08 1.56883E-19 2.33161E-18
 -1      2780 9.52339E-05-2.85739E-05-2.85686E-05 1.39865E-08 6.62803E-19 2.18300E-18
 -1      2781 9.52361E-05-2.85757E-05-2.85688E-05 1.66329E-08 2.28288E-19 3.29645E-19
 -1      2782 9.52340E-05-2.85737E-05-2.85687E-05 1.26766E-08 1.22367E-18 1.90037E-18
 -1      2783 9.52347E-05-2.85737E-05-2.85690E-05 1.14480E-08 1.30849E-18 1.96630E-18
 -1      2784 9.52363E-05-2.85753E-05-2.85690E-05 1.38913E-08 6.10741E-19 1.48297E-19
 -1      2785 9.52349E-05-2.85736E-05-2.85691E-05 1.02626E-08 5.42921E-19 1.84721E-18
 -1      2786 9.52355E-05-2.85736E-05-2.85694E-05 9.15233E-09-6.42719E-19 1.49066E-19
 -1      2787 9.52365E-05-2.85749E-05-2.85693E-05 1.13632E-08 6.14330E-19-5.19759E-19
 -1      2788 9.52356E-05-2.85735E-05-2.85695E-05 8.09276E-09-1.46774E-18 5.36516E-19
 -1      2789 9.52362E-05-2.85736E-05-2.85697E-05 7.08940E-09-1.75807E-18-6.46274E-19
 -1      2790 9.52368E-05-2.85746E-05-2.85695E-05 9.07494E-09-1.66170E-18 7.39321E-20
 -1      2791 1.32778E-04-3.41626E-05-4.30691E-05-1.36772E-05-3.44181E-18 2.21923E-19
 -1      2792 1.35015E-04-4.17163E-05-3.99547E-05-8.05334E-06-2.40031E-18 1.86877E-19
 -1      2793 1.25132E-04-1.56540E-05-4.76441E-05-1.18435E-05-5.31937E-18-8.48648E-19
 -1      2794 1.28943E-04-2.32124E-05-4.54445E-05-1.59577E-05-4.43803E-18-3.27166E-20
 -1      2795 1.14339E-04-2.23680E-05-3.94866E-05 1.05119E-05 2.62241E-18 4.47319E-19
 -1      2796 1.16589E-04-2.62817E-05-3.90020E-05 1.45256E-05 2.31944E-18 8.64167E-19
 -1      2797 1.19620E-04-3.68887E-05-3.56694E-05-1.26991E-05 1.18252E-18-3.02978E-18
 -1      2798 1.17879E-04-3.24173E-05-3.66314E-05-1.26755E-05 1.75955E-18-2.98380E-18
 -1      2799 1.19900E-04-4.20847E-05-3.34215E-05-7.69175E-06 4.81078E-19-2.75084E-18
 -1      2800 1.19812E-04-4.00436E-05-3.41691E-05-1.00125E-05 1.12172E-18-2.90008E-18
 -1      2801 1.23520E-04-4.07496E-05-3.54472E-05-1.10916E-05 9.26403E-19-3.68164E-18
 -1      2802 1.16771E-04-4.19859E-05-3.20043E-05-1.46304E-06-4.65223E-19-2.59675E-18
 -1      2803 1.17827E-04-4.22517E-05-3.24477E-05-4.21444E-06-3.86235E-20-2.54766E-18
 -1      2804 1.20584E-04-4.43589E-05-3.27882E-05-4.45484E-06 5.24234E-20-2.74910E-18
 -1      2805 1.12200E-04-3.91021E-05-3.12583E-05 3.54613E-06-4.98290E-19-2.18788E-18
 -1      2806 1.13827E-04-4.05003E-05-3.14943E-05 1.38855E-06-5.22288E-19-2.48741E-18
 -1      2807 1.15540E-04-4.29495E-05-3.11782E-05 2.24034E-06-4.29067E-19-2.29276E-18
 -1      2808 1.07881E-04-3.56549E-05-3.08984E-05 6.48022E-06-3.92505E-19-1.80747E-18
 -1      2809 1.09536E-04-3.72110E-05-3.10387E-05 5.16792E-06-4.36361E-19-2.06979E-18
 -1      2810 1.09801E-04-3.89704E-05-3.04324E-05 6.43009E-06-4.16826E-19-1.97974E-18
 -1      2811 1.04475E-04-3.27730E-05-3.06940E-05 7.72835E-06-2.01849E-20-1.43867E-18
 -1      2812 1.05896E-04-3.40582E-05-3.08093E-05 7.14808E-06-1.97163E-19-1.51581E-18
 -1      2813 1.05144E-04-3.49321E-05-3.01511E-05 8.45666E-06-5.88285E-19-1.64150E-18
 -1      2814 1.02010E-04-3.07527E-05-3.05197E-05 7.84792E-06-6.57485E-21-6.50360E-19
 -1      2815 1.03144E-04-3.16589E-05-3.06424E-05 7.77722E-06 1.02357E-19-8.00103E-19
 -1      2816 1.01861E-04-3.18271E-05-3.00538E-05 8.96106E-06-3.25306E-19-8.29931E-19
 -1      2817 1.00269E-04-2.94816E-05-3.03287E-05 7.31634E-06-2.44442E-19-1.71054E-19
 -1      2818 1.01157E-04-3.00656E-05-3.04643E-05 7.55407E-06-2.28006E-20-5.63840E-19
 -1      2819 9.97100E-05-2.97876E-05-2.99900E-05 8.58715E-06-7.18650E-20-3.24930E-19
 -1      2820 9.90285E-05-2.87507E-05-3.01164E-05 6.45982E-06-5.39827E-19 2.39623E-19
 -1      2821 9.97268E-05-2.91028E-05-3.02588E-05 6.85515E-06-2.90054E-19-7.61092E-20
 -1      2822 9.83364E-05-2.85919E-05-2.99035E-05 7.75177E-06-3.87029E-19-1.75117E-19
 -1      2823 9.81225E-05-2.83701E-05-2.98944E-05 5.48840E-06-1.16620E-18 7.23784E-19
 -1      2824 9.86770E-05-2.85701E-05-3.00347E-05 5.94057E-06-6.70925E-19 4.57828E-19
 -1      2825 9.74556E-05-2.79753E-05-2.97845E-05 6.71799E-06-7.08127E-19 4.78479E-19
 -1      2826 9.74408E-05-2.82001E-05-2.96764E-05 4.52757E-06-1.52999E-18 3.10796E-19
 -1      2827 9.78842E-05-2.83059E-05-2.98074E-05 4.97535E-06-1.45491E-18 3.47982E-19
 -1      2828 9.68728E-05-2.77184E-05-2.96419E-05 5.64598E-06-1.15828E-18 3.29352E-19
 -1      2829 9.69155E-05-2.81489E-05-2.94736E-05 3.64568E-06-9.48613E-19-9.96674E-19
 -1      2830 9.72703E-05-2.81988E-05-2.95905E-05 4.05571E-06-1.11491E-18-3.52722E-19
 -1      2831 9.64684E-05-2.76670E-05-2.94893E-05 4.62821E-06-7.82713E-19-8.56606E-19
 -1      2832 9.65050E-05-2.81601E-05-2.92928E-05 2.87429E-06-1.13195E-18-1.12500E-18
 -1      2833 9.67876E-05-2.81781E-05-2.93935E-05 3.23145E-06-9.92488E-19-7.80851E-19
 -1      2834 9.61734E-05-2.77223E-05-2.93386E-05 3.71328E-06-1.00962E-18-1.04722E-18
 -1      2835 9.61829E-05-2.82008E-05-2.91370E-05 2.22244E-06-9.31436E-19-7.48517E-19
 -1      2836 9.64059E-05-2.82013E-05-2.92213E-05 2.52269E-06-1.10744E-18-1.42752E-18
 -1      2837 9.59495E-05-2.78254E-05-2.91982E-05 2.92169E-06-8.52583E-19-9.12622E-19
 -1      2838 9.59311E-05-2.82528E-05-2.90064E-05 1.68619E-06-2.93860E-20-5.01768E-19
 -1      2839 9.61049E-05-2.82442E-05-2.90753E-05 1.93180E-06-7.34998E-19-8.56781E-19
 -1      2840 9.57755E-05-2.79431E-05-2.90730E-05 2.25663E-06-8.67174E-19-1.10893E-18
 -1      2841 9.57361E-05-2.83061E-05-2.88997E-05 1.25481E-06-3.69038E-19 5.59063E-19
 -1      2842 9.58695E-05-2.82934E-05-2.89547E-05 1.45121E-06 4.10929E-19 2.60769E-19
 -1      2843 9.56390E-05-2.80579E-05-2.89651E-05 1.71115E-06-3.99248E-19-8.34888E-19
 -1      2844 9.55869E-05-2.83557E-05-2.88142E-05 9.14579E-07-3.94064E-19 9.16081E-19
 -1      2845 9.56877E-05-2.83417E-05-2.88573E-05 1.06854E-06-6.62382E-19 6.84804E-19
 -1      2846 9.55320E-05-2.81615E-05-2.88747E-05 1.27298E-06-3.10731E-19 2.72193E-19
 -1      2847 9.54747E-05-2.83995E-05-2.87471E-05 6.51162E-07-3.42493E-19 1.47789E-18
 -1      2848 9.55494E-05-2.83858E-05-2.87803E-05 7.69609E-07-2.50913E-19 1.51275E-18
 -1      2849 9.54489E-05-2.82507E-05-2.88007E-05 9.27637E-07-4.73781E-19 3.99078E-19
 -1      2850 9.53918E-05-2.84369E-05-2.86954E-05 4.50890E-07-2.57381E-20 1.42668E-18
 -1      2851 9.54461E-05-2.84243E-05-2.87204E-05 5.40345E-07 1.57214E-19 1.45149E-18
 -1      2852 9.53853E-05-2.83250E-05-2.87413E-05 6.60327E-07-1.10238E-19 8.52442E-19
 -1      2853 9.53318E-05-2.84679E-05-2.86563E-05 3.01447E-07 7.56310E-19 1.07022E-18
 -1      2854 9.53703E-05-2.84568E-05-2.86748E-05 3.67720E-07 4.92497E-19 1.55096E-18
 -1      2855 9.53373E-05-2.83855E-05-2.86947E-05 4.57108E-07 1.74992E-19 1.34916E-18
 -1      2856 9.52896E-05-2.84931E-05-2.86272E-05 1.92159E-07 6.66299E-19 1.23260E-18
 -1      2857 9.53161E-05-2.84836E-05-2.86406E-05 2.40239E-07 6.26618E-19 1.17121E-18
 -1      2858 9.53019E-05-2.84338E-05-2.86586E-05 3.05470E-07 7.80141E-19 1.84581E-18
 -1      2859 9.52607E-05-2.85133E-05-2.86062E-05 1.14030E-07 6.49725E-19 1.49910E-18
 -1      2860 9.52783E-05-2.85053E-05-2.86156E-05 1.48084E-07 5.20541E-19 1.13824E-18
 -1      2861 9.52763E-05-2.84715E-05-2.86313E-05 1.94582E-07 6.42707E-19 1.26892E-18
 -1      2862 9.52418E-05-2.85291E-05-2.85912E-05 5.96532E-08 5.23050E-19 1.22213E-18
 -1      2863 9.52528E-05-2.85226E-05-2.85977E-05 8.30877E-08 1.06909E-18 1.15199E-18
 -1      2864 9.52583E-05-2.85006E-05-2.86110E-05 1.15317E-07 9.93304E-19 1.28279E-18
 -1      2865 9.52301E-05-2.85413E-05-2.85809E-05 2.30544E-08-8.57953E-19 5.72014E-19
 -1      2866 9.52365E-05-2.85361E-05-2.85852E-05 3.85973E-08-1.31410E-19 1.03713E-18
 -1      2867 9.52461E-05-2.85226E-05-2.85962E-05 6.01627E-08 2.75911E-19 1.62677E-18
 -1      2868 9.52235E-05-2.85505E-05-2.85741E-05-4.99809E-10 8.51155E-20 3.45411E-19
 -1      2869 9.52267E-05-2.85464E-05-2.85768E-05 9.29821E-09-4.98312E-19 4.27939E-19
 -1      2870 9.52381E-05-2.85389E-05-2.85857E-05 2.30545E-08-2.16598E-19 7.50989E-19
 -1      2871 9.52204E-05-2.85574E-05-2.85698E-05-1.46938E-08 1.17743E-19 1.20788E-19
 -1      2872 9.52214E-05-2.85542E-05-2.85714E-05-8.98065E-09 3.75197E-19 3.29045E-19
 -1      2873 9.52333E-05-2.85508E-05-2.85784E-05-8.13008E-10 2.51057E-19 6.09480E-19
 -1      2874 9.52196E-05-2.85624E-05-2.85673E-05-2.23455E-08 1.09300E-18 5.04374E-19
 -1      2875 9.52193E-05-2.85600E-05-2.85681E-05-1.94561E-08 5.06583E-19-1.48747E-19
 -1      2876 9.52306E-05-2.85593E-05-2.85736E-05-1.51811E-08 6.49195E-19 8.10999E-19
 -1      2877 9.52203E-05-2.85660E-05-2.85661E-05-2.55716E-08-1.37954E-19 1.00027E-18
 -1      2878 9.52192E-05-2.85642E-05-2.85663E-05-2.45654E-08 8.56963E-19 1.03834E-18
 -1      2879 9.52294E-05-2.85651E-05-2.85705E-05-2.29116E-08 1.44170E-19 1.46506E-18
 -1      2880 9.52218E-05-2.85685E-05-2.85657E-05-2.59308E-08-1.50514E-18-1.09302E-19
 -1      2881 9.52203E-05-2.85672E-05-2.85656E-05-2.61207E-08-5.95268E-19 3.14124E-19
 -1      2882 9.52292E-05-2.85690E-05-2.85687E-05-2.61540E-08 2.05001E-19 1.26243E-18
 -1      2883 9.52237E-05-2.85702E-05-2.85658E-05-2.45456E-08-1.71806E-18-3.40947E-19
 -1      2884 9.52220E-05-2.85692E-05-2.85655E-05-2.54411E-08-2.08754E-18-4.84459E-19
 -1      2885 9.52296E-05-2.85715E-05-2.85678E-05-2.64908E-08-1.48213E-18 1.77221E-18
 -1      2886 9.52258E-05-2.85713E-05-2.85662E-05-2.22026E-08-1.23998E-18-1.11134E-19
 -1      2887 9.52241E-05-2.85706E-05-2.85658E-05-2.34640E-08-1.35946E-18-3.96453E-21
 -1      2888 9.52304E-05-2.85730E-05-2.85675E-05-2.50611E-08-1.65607E-18 3.04058E-19
 -1      2889 9.52278E-05-2.85719E-05-2.85668E-05-1.94340E-08-6.46407E-20-1.56241E-19
 -1      2890 9.52262E-05-2.85714E-05-2.85664E-05-2.08351E-08-2.33652E-19-4.46464E-20
 -1      2891 9.52313E-05-2.85737E-05-2.85675E-05-2.26624E-08-7.04396E-19 6.51805E-20
 -1      2892 9.52297E-05-2.85723E-05-2.85674E-05-1.65820E-08-1.19857E-18 1.54265E-18
 -1      2893 9.52283E-05-2.85720E-05-2.85670E-05-1.79808E-08-1.08736E-18 2.65717E-19
 -1      2894 9.52322E-05-2.85741E-05-2.85678E-05-1.98338E-08-8.24042E-19 3.68028E-19
 -1      2895 9.52314E-05-2.85725E-05-2.85681E-05-1.38487E-08-6.07643E-19 2.60865E-18
 -1      2896 9.52301E-05-2.85723E-05-2.85677E-05-1.51653E-08-1.02113E-18 1.87714E-18
 -1      2897 9.52331E-05-2.85741E-05-2.85682E-05-1.69209E-08-1.25656E-18 2.04884E-18
 -1      2898 9.52328E-05-2.85726E-05-2.85687E-05-1.13347E-08-1.42962E-19 2.69110E-18
 -1      2899 9.52318E-05-2.85724E-05-2.85683E-05-1.25338E-08 3.38915E-19 3.27026E-18
 -1      2900 9.52340E-05-2.85740E-05-2.85686E-05-1.41275E-08-5.12498E-19 2.86906E-18
 -1      2901 9.52341E-05-2.85727E-05-2.85692E-05-9.06901E-09-1.54448E-18 2.98614E-18
 -1      2902 9.52332E-05-2.85725E-05-2.85689E-05-1.01462E-08-6.42472E-19 3.54934E-18
 -1      2903 9.52348E-05-2.85738E-05-2.85690E-05-1.15550E-08-8.61754E-19 4.13175E-18
 -1      2904 9.52352E-05-2.85728E-05-2.85696E-05-7.03219E-09-1.32487E-18 3.41432E-18
 -1      2905 9.52344E-05-2.85727E-05-2.85694E-05-7.99625E-09-2.03751E-18 3.11483E-18
 -1      2906 9.52355E-05-2.85737E-05-2.85694E-05-9.23323E-09-1.68920E-18 3.12453E-18
 -1      2907 9.52362E-05-2.85731E-05-2.85699E-05-5.47678E-09 2.74825E-19 3.37167E-18
 -1      2908 9.52356E-05-2.85730E-05-2.85697E-05-6.38412E-09-7.45748E-19 3.35334E-18
 -1      2909 9.52363E-05-2.85738E-05-2.85696E-05-7.42467E-09-6.71196E-19 3.62329E-18
 -1      2910 9.52371E-05-2.85741E-05-2.85698E-05-6.04272E-09 8.03571E-19 4.24205E-18
 -1      2911 9.52425E-05-2.85800E-05-2.85697E-05-5.83976E-10-4.48683E-19 3.24460E-19
 -1      2912 9.52424E-05-2.85799E-05-2.85697E-05-1.61495E-09-7.97486E-19-1.64656E-18
 -1      2913 9.52363E-05-2.85735E-05-2.85698E-05 6.43120E-09-1.59639E-18-7.67024E-19
 -1      2914 9.52366E-05-2.85736E-05-2.85699E-05 5.78534E-09-2.40816E-18-2.23441E-19
 -1      2915 9.52370E-05-2.85744E-05-2.85697E-05 7.31512E-09-1.87447E-18-6.27815E-19
 -1      2916 9.52413E-05-2.85786E-05-2.85697E-05-4.57871E-09 3.10897E-19-4.44459E-19
 -1      2917 9.52407E-05-2.85780E-05-2.85697E-05-5.23437E-09 1.33172E-19-3.09712E-19
 -1      2918 9.52424E-05-2.85798E-05-2.85697E-05 1.65287E-09-1.14933E-18-8.85709E-19
 -1      2919 9.52425E-05-2.85800E-05-2.85697E-05 6.23295E-10-1.15055E-18-3.79728E-19
 -1      2920 9.52433E-05-2.85804E-05-2.85698E-05 2.21706E-11-1.01251E-18-4.44598E-20
 -1      2921 9.52421E-05-2.85796E-05-2.85697E-05-2.75077E-09-1.89794E-18-3.01070E-18
 -1      2922 9.52418E-05-2.85792E-05-2.85697E-05-3.65335E-09-1.46341E-19-1.97786E-18
 -1      2923 9.52421E-05-2.85793E-05-2.85698E-05-4.58853E-09-5.48917E-19-1.66994E-18
 -1      2924 9.52430E-05-2.85801E-05-2.85698E-05-2.42856E-09-4.10875E-20-1.38436E-18
 -1      2925 9.03826E-05-4.40477E-05-1.96706E-05 3.73675E-05-2.02229E-18-5.09967E-19
 -1      2926 7.34915E-05-3.42442E-05-1.64741E-05 3.59639E-05-2.18344E-18 2.87885E-19
 -1      2927 9.52418E-05-2.85792E-05-2.85697E-05 3.65356E-09-2.77459E-19-2.11676E-18
 -1      2928 9.52421E-05-2.85796E-05-2.85697E-05 2.76788E-09-7.25028E-19-3.63080E-19
 -1      2929 9.52430E-05-2.85801E-05-2.85698E-05 2.45061E-09-1.70627E-18-6.76055E-19
 -1      2930 9.52407E-05-2.85780E-05-2.85697E-05 5.23462E-09-9.00728E-20-1.73059E-18
 -1      2931 9.52413E-05-2.85786E-05-2.85697E-05 4.57878E-09-3.23146E-19-2.42162E-18
 -1      2932 9.52421E-05-2.85793E-05-2.85698E-05 4.58888E-09-7.49767E-19-2.15719E-18
 -1      2933 9.52393E-05-2.85765E-05-2.85698E-05 6.13135E-09-1.67229E-18-1.99562E-18
 -1      2934 9.52400E-05-2.85773E-05-2.85697E-05 5.83365E-09 1.18258E-19-1.48408E-18
 -1      2935 9.52407E-05-2.85779E-05-2.85698E-05 6.19026E-09-6.42619E-19-2.04829E-18
 -1      2936 1.19151E-04-3.10865E-05-3.77490E-05 1.69412E-05 1.87170E-18 1.37919E-18
 -1      2937 1.21679E-04-3.55654E-05-3.70847E-05 1.77009E-05 1.51817E-18 1.54889E-18
 -1      2938 1.21661E-04-2.81557E-05-4.01681E-05 1.74755E-05 2.40594E-18 7.72573E-19
 -1      2939 1.37500E-04-3.98234E-05-4.24974E-05-7.86886E-06 2.55661E-18-4.12960E-18
 -1      2940 1.37800E-04-4.72560E-05-3.87686E-05-3.62921E-06 1.34334E-18-4.32326E-18
 -1      2941 1.06075E-04-5.13138E-05-2.29550E-05-3.29438E-05 3.10861E-18-9.12777E-19
 -1      2942 1.19376E-04-5.60143E-05-2.76352E-05-2.59945E-05 2.48858E-18-2.11012E-18
 -1      2943 1.15087E-04-3.38963E-05-3.48281E-05-1.17103E-05-1.29169E-18-9.65290E-19
 -1      2944 1.16118E-04-3.57338E-05-3.45439E-05-1.21955E-05-1.25134E-18-6.51770E-19
 -1      2945 9.52372E-05-2.85743E-05-2.85698E-05 6.00073E-09-2.29991E-18-1.87069E-19
 -1      2946 5.97698E-05-9.59925E-06-2.14425E-05 1.99789E-05 2.07126E-18-4.71326E-18
 -1      2947 7.17839E-05-1.60701E-05-2.35259E-05 1.97682E-05 1.98215E-18-4.18551E-18
 -1      2948 1.33885E-04-4.89702E-05-3.63097E-05 1.07047E-06 8.03259E-19 4.53586E-19
 -1      2949 1.37891E-04-4.46868E-05-4.05577E-05 8.80685E-06 2.00625E-18 1.00077E-18
 -1      2950 1.15841E-04-2.73285E-05-3.82168E-05-1.12428E-05 2.38625E-18-2.44855E-18
 -1      2951 1.13917E-04-2.30770E-05-3.90038E-05-7.61360E-06 2.50288E-18-2.00317E-18
 -1      2952 1.21005E-04-3.02984E-05-3.90349E-05-1.26594E-05 2.36785E-18-3.49875E-18
 -1      2953 1.12683E-04-2.03103E-05-3.97991E-05-1.59528E-06 2.63920E-18-1.11176E-18
 -1      2954 1.12739E-04-2.00082E-05-3.99589E-05 4.02419E-06 2.75323E-18-4.52266E-19
 -1      2955 1.17140E-04-1.90039E-05-4.23104E-05 8.42481E-06 3.23492E-18-4.88473E-19
 -1      2956 1.17065E-04-1.99337E-05-4.19259E-05-4.93486E-06 3.29379E-18-1.96133E-18
 -1      2957 1.18207E-04-3.73216E-05-3.46791E-05-1.35013E-05-1.15110E-18-3.01162E-19
 -1      2958 1.18083E-04-3.72767E-05-3.46908E-05-1.42250E-05-1.31164E-18-1.57310E-19
 -1      2959 1.20128E-04-3.78468E-05-3.52511E-05-1.49608E-05-1.29039E-18 1.94990E-19
 -1      2960 1.17313E-04-3.71215E-05-3.43565E-05-1.17510E-05-1.00847E-18-4.74365E-19
 -1      2961 1.11663E-04-3.43147E-05-3.31426E-05 3.70750E-06 8.88048E-19-6.21100E-19
 -1      2962 1.05669E-04-3.18216E-05-3.15681E-05-2.91035E-07 3.90906E-19-1.04373E-18
 -1      2963 1.06462E-04-3.56886E-05-3.03949E-05-4.25976E-06 3.30872E-20-9.50225E-19
 -1      2964 1.22243E-04-3.85276E-05-3.59165E-05 1.62633E-05 1.36700E-18 1.67271E-18
 -1      2965 1.23618E-04-4.05693E-05-3.55473E-05 1.51508E-05 1.30922E-18 1.47499E-18
 -1      2966 1.23862E-04-4.18686E-05-3.52710E-05 1.32475E-05 1.13508E-18 8.88703E-19
 -1      2967 1.08786E-04-2.89391E-05-3.42437E-05-8.49333E-06-9.36464E-19-1.76351E-18
 -1      2968 8.37078E-05-2.27270E-05-2.61547E-05 1.55406E-05 1.73449E-18-3.30462E-18
 -1      2969 9.35215E-05-2.74611E-05-2.82072E-05 1.12253E-05 1.25510E-18-3.02239E-18
 -1      2970 8.08410E-05-2.38163E-05-2.43324E-05 2.04547E-05 1.96170E-18-3.58258E-18
 -1      2971 1.30364E-04-5.45281E-05-3.22463E-05-1.22379E-05 1.32602E-18-4.01610E-18
 -1      2972 1.36595E-04-5.05794E-05-3.74287E-05-3.27194E-06-1.39509E-19-4.70760E-18
 -1      2973 1.31661E-04-1.83190E-05-4.89379E-05 1.41244E-05 4.62861E-18 7.72918E-20
 -1      2974 1.28566E-04-1.33380E-05-5.00888E-05 8.70556E-06 4.95154E-18-6.58171E-19
 -1      2975 2.59208E-05-1.24905E-07-1.06244E-05 1.69558E-05 1.05625E-18-6.98845E-18
 -1      2976 2.22964E-05 3.22960E-06-1.05013E-05 5.82648E-06 7.34589E-19-7.23536E-18
 -1      2977 1.27383E-04-1.15750E-05-5.01977E-05 1.87169E-06 4.99199E-18-1.62908E-18
 -1      2978 1.28778E-04-1.42553E-05-4.95802E-05-5.03134E-06 5.08432E-18-2.63925E-18
 -1      2979 1.37627E-04-3.55188E-05-4.38903E-05 1.48685E-05 3.07166E-18 1.34350E-18
 -1      2980 1.35168E-04-2.70992E-05-4.70547E-05 1.57946E-05 4.11234E-18 8.93832E-19
 -1      2981 1.14962E-04-4.79968E-05-2.83539E-05-1.74947E-05-6.80591E-19-1.71514E-18
 -1      2982 1.26008E-04-5.11450E-05-3.25140E-05-9.82649E-06 7.35860E-20-6.28604E-19
 -1      2983 1.38089E-04-3.98904E-05-4.22521E-05 4.07960E-06-2.04071E-18-4.84482E-18
 -1      2984 1.37935E-04-3.05994E-05-4.66715E-05 6.95578E-06-3.66744E-18-4.61824E-18
 -1      2985 4.59384E-05-1.19049E-05-1.41608E-05-2.66541E-05-1.01326E-18-6.29028E-18
 -1      2986 5.91699E-05-2.03122E-05-1.63829E-05-3.11343E-05-1.02099E-18-5.68063E-18
 -1      2987 1.31775E-04-4.71007E-05-3.68370E-05 1.16377E-06-1.54329E-18-2.44051E-19
 -1      2988 1.24435E-04-4.82433E-05-3.24632E-05 1.01744E-05-2.08450E-19-9.05796E-19
 -1      2989 1.24366E-04-1.10100E-05-4.91082E-05 9.90955E-07-5.28887E-18-3.06928E-18
 -1      2990 1.23037E-04-1.05141E-05-4.87449E-05-5.79463E-06-5.34944E-18-1.96888E-18
 -1      2991 8.13271E-05-3.20324E-05-2.10887E-05 3.25108E-05 1.57961E-18-4.04209E-18
 -1      2992 6.71825E-05-2.36673E-05-1.81984E-05 3.20037E-05 1.97052E-18-4.67567E-18
 -1      2993 1.12469E-04-4.61264E-05-2.87300E-05 2.03413E-05 6.41416E-19-1.90511E-18
 -1      2994 9.66537E-05-3.95952E-05-2.41683E-05 2.73462E-05 1.39549E-18-3.06647E-18
 -1      2995 9.34034E-05-3.52469E-05-2.46147E-05 2.42382E-05 1.99979E-18-3.05287E-18
 -1      2996 1.33612E-04-2.14988E-05-4.84016E-05 8.26270E-06-4.69616E-18-4.34380E-18
 -1      2997 1.27131E-04-1.42911E-05-4.90911E-05 6.11586E-06-5.30878E-18-4.01589E-18
 -1      2998 1.30337E-04-2.68826E-05-4.46511E-05 9.62032E-06-3.40783E-18-4.77933E-18
 -1      2999 4.31332E-05-1.70675E-05-1.06631E-05-2.42539E-05 2.04024E-18 4.24660E-18
 -1      3000 5.54597E-05-2.50916E-05-1.26749E-05-3.43558E-05 2.46952E-18 2.52426E-18
 -1      3001 6.95499E-05-3.36826E-05-1.48398E-05-3.79434E-05 3.04148E-18 1.18373E-18
 -1      3002 8.69432E-05-4.32606E-05-1.88457E-05-3.90977E-05 2.89537E-18-3.54695E-21
 -1      3003 6.79868E-05-2.89475E-05-1.62294E-05-3.29249E-05 2.80723E-18 1.30210E-18
 -1      3004 5.34823E-05-2.21981E-05-1.31387E-05 2.98092E-05-1.80937E-18 1.82006E-18
 -1      3005 3.99637E-05-1.46915E-05-1.00043E-05 1.97976E-05-1.57336E-18 3.87602E-18
 -1      3006 1.16566E-04-5.55683E-05-2.63156E-05 2.82692E-05-1.36150E-18-2.13765E-18
 -1      3007 1.03890E-04-5.06536E-05-2.25788E-05 3.30065E-05-1.87808E-18-1.38539E-18
 -1      3008 1.00304E-04-4.68113E-05-2.26382E-05 3.10721E-05-2.30287E-18-1.43081E-18
 -1      3009 1.22821E-04-5.53515E-05-2.86505E-05 1.90794E-05-1.53969E-18-3.36897E-18
 -1      3010 1.16697E-04-3.50391E-05-3.50225E-05 9.53807E-06 1.39541E-18 3.17958E-19
 -1      3011 1.00799E-04-3.01304E-05-3.02119E-05 4.64548E-06 7.84396E-19-2.49394E-18
 -1      3012 1.06504E-04-3.23831E-05-3.17388E-05-3.80685E-08 1.61492E-19-2.04608E-18
 -1      3013 1.01158E-04-3.30918E-05-2.91249E-05 8.89620E-06 1.06954E-18-2.34895E-18
 -1      3014 1.16308E-04-3.64714E-05-3.42634E-05 8.45290E-06 1.10669E-18 2.10650E-20
 -1      3015 1.10354E-04-3.27269E-05-3.33356E-05-6.49832E-06-6.37875E-19-1.53260E-18
 -1      3016 3.65448E-05-1.85305E-06-1.43067E-05 1.89754E-05 1.58935E-18-6.41045E-18
 -1      3017 1.18153E-04-3.98588E-05-3.35453E-05 6.48934E-06 8.02660E-19 2.60264E-20
 -1      3018 1.30598E-04-4.40278E-05-3.71268E-05-5.93629E-06-1.28443E-18 2.77721E-19
 -1      3019 9.52407E-05-2.85779E-05-2.85698E-05-6.18608E-09-5.25155E-19 6.36072E-19
 -1      3020 9.52400E-05-2.85773E-05-2.85697E-05-5.82813E-09-5.65529E-19 2.91497E-19
 -1      3021 9.52393E-05-2.85765E-05-2.85698E-05-6.13775E-09-1.07813E-18 2.55757E-18
 -1      3022 1.27570E-04-2.93166E-05-4.22839E-05-1.57337E-05-3.33975E-18 2.35475E-19
 -1      3023 1.18208E-04-4.59882E-05-3.07709E-05 1.09193E-05 6.98696E-19-1.16695E-18
 -1      3024 1.33797E-04-5.07545E-05-3.55481E-05-4.87901E-07 5.44715E-20-4.23755E-18
 -1      3025 1.21695E-04-1.44887E-05-4.62661E-05 4.08493E-06-4.61675E-18-3.48046E-18
 -1      3026 1.33890E-04-4.48532E-05-3.83741E-05 3.85567E-06-3.96200E-19-5.02079E-18
 -1      3027 9.52386E-05-2.85758E-05-2.85698E-05-6.28328E-09-1.59016E-18 1.52637E-18
 -1      3028 9.52378E-05-2.85749E-05-2.85698E-05-6.21056E-09 2.47788E-19 2.40170E-18
 -1      3029 9.52375E-05-2.85748E-05-2.85697E-05-6.93372E-09-2.17854E-19 1.66606E-18
 -1      3030 9.52391E-05-2.85764E-05-2.85697E-05-6.95354E-09-1.76248E-18 2.26425E-18
 -1      3031 1.24869E-04-3.79270E-05-3.73035E-05 1.77573E-05 1.57598E-18 1.46980E-18
 -1      3032 9.52379E-05-2.85751E-05-2.85698E-05 6.10305E-09-2.42204E-18-7.36708E-19
 -1      3033 4.10780E-05-1.27187E-05-1.15851E-05 1.18780E-05-8.84779E-19 3.84913E-18
 -1      3034 1.07045E-04-4.36979E-05-2.69225E-05-1.92375E-05-9.89229E-19-1.97248E-18
 -1      3035 1.34777E-04-3.98052E-05-4.07184E-05 1.45450E-05 2.05956E-18 1.58543E-18
 -1      3036 1.24772E-04-5.42813E-05-3.01231E-05-1.51658E-05 2.20686E-18-3.54086E-18
 -1      3037 4.01395E-05-1.10436E-05-1.22111E-05-8.70940E-06 6.96486E-19 4.19387E-18
 -1      3038 4.08160E-05-1.36173E-05-1.10430E-05-1.74943E-05 1.45488E-18 4.46069E-18
 -1      3039 5.19386E-05-1.67950E-05-1.46518E-05-2.12546E-05 1.91948E-18 3.06742E-18
 -1      3040 1.28347E-04-4.91892E-05-3.40885E-05-7.78693E-07 1.75918E-19 3.89635E-19
 -1      3041 5.04274E-05-5.34206E-06-1.89657E-05 2.07751E-05 1.90384E-18-5.38702E-18
 -1      3042 5.66625E-05-1.19610E-05-1.87851E-05 2.52655E-05 2.14305E-18-5.10941E-18
 -1      3043 7.36895E-05-2.64976E-05-1.98925E-05-2.80666E-05-1.43382E-18-4.57186E-18
 -1      3044 9.79643E-05-4.60594E-05-2.19175E-05-3.28922E-05 3.27463E-18-8.10187E-19
 -1      3045 1.19839E-04-1.50652E-05-4.53070E-05-9.01728E-06-4.70675E-18-1.46174E-18
 -1      3046 1.23589E-04-1.41946E-05-4.73143E-05 5.17583E-06 4.29869E-18-9.01653E-19
 -1      3047 9.52379E-05-2.85751E-05-2.85697E-05 7.11910E-09-2.03548E-18-6.67241E-19
 -1      3048 9.52387E-05-2.85759E-05-2.85697E-05 6.55543E-09-1.92727E-18-7.25464E-19
 -1      3049 9.52392E-05-2.85765E-05-2.85697E-05 7.19628E-09-7.17685E-19-2.24649E-18
 -1      3050 9.52377E-05-2.85752E-05-2.85697E-05 7.81128E-09-1.52288E-18-7.99700E-19
 -1      3051 1.29222E-04-2.37093E-05-4.54716E-05 1.59483E-05 3.64245E-18 8.41421E-19
 -1      3052 1.31829E-04-2.15705E-05-4.79526E-05-9.36233E-06 4.75567E-18-3.61286E-18
 -1      3053 1.35582E-04-3.01580E-05-4.55202E-05-1.04527E-05 3.88989E-18-3.98561E-18
 -1      3054 2.86602E-05 4.88960E-06-1.40880E-05 5.26678E-06 9.05180E-19-6.69961E-18
 -1      3055 2.52637E-05 4.17185E-06-1.19518E-05-1.03797E-06 4.63856E-19-7.22794E-18
 -1      3056 1.25749E-04-1.97972E-05-4.58384E-05-8.02707E-06 4.21166E-18-3.17092E-18
 -1      3057 1.31529E-04-3.54869E-05-4.14171E-05-1.14283E-05 2.55312E-18-4.31791E-18
 -1      3058 6.19160E-05-1.72095E-05-1.87716E-05 2.81388E-05 2.19773E-18-4.96727E-18
 -1      3059 7.90675E-05-3.28169E-05-1.96570E-05 3.04832E-05-2.35327E-18-2.63851E-19
 -1      3060 6.68437E-05-2.78936E-05-1.61718E-05 3.21429E-05-2.13685E-18 9.53389E-19
 -1      3061 6.11313E-05-2.15381E-05-1.67527E-05 2.54375E-05-1.83237E-18 1.30697E-18
 -1      3062 3.91599E-05 4.00347E-06-1.83523E-05 1.09424E-05 1.36453E-18-5.71297E-18
 -1      3063 4.60264E-05-5.96953E-07-1.92415E-05 1.59845E-05 1.69017E-18-5.37813E-18
 -1      3064 1.10855E-04-3.43390E-05-3.28067E-05-4.56719E-06-2.88961E-19-1.47275E-18
 -1      3065 1.16164E-04-3.73446E-05-3.37364E-05-8.55280E-06-5.47183E-19-8.67760E-19
 -1      3066 1.18174E-04-3.91088E-05-3.39569E-05-9.70003E-06-7.14821E-19-5.19655E-19
 -1      3067 1.12722E-04-3.75549E-05-3.22273E-05-2.11572E-06 3.65548E-20-1.35071E-18
 -1      3068 3.40906E-05 4.15305E-06-1.58868E-05 7.74137E-06 1.08457E-18-6.38896E-18
 -1      3069 6.53413E-05-2.46885E-05-1.70960E-05-2.85080E-05 2.08884E-18 1.19622E-18
 -1      3070 7.70695E-05-3.28996E-05-1.89099E-05-3.28936E-05 2.74656E-18 4.87044E-21
 -1      3071 1.19292E-04-2.47538E-05-4.09861E-05-1.61606E-05-3.44531E-18-1.69049E-19
 -1      3072 1.16838E-04-1.90848E-05-4.20985E-05-1.31457E-05-3.97068E-18-7.98090E-19
 -1      3073 1.14857E-04-1.51716E-05-4.30889E-05-6.52744E-06-4.18884E-18-1.88527E-18
 -1      3074 1.14113E-04-1.44138E-05-4.31836E-05-6.45702E-07-4.02457E-18-2.71687E-18
 -1      3075 1.19088E-04-2.81981E-05-3.90858E-05 1.12113E-05-1.82790E-18-4.57416E-18
 -1      3076 1.21054E-04-3.43484E-05-3.74938E-05 1.16480E-05-1.18444E-18-4.73710E-18
 -1      3077 1.21980E-04-3.97854E-05-3.52718E-05 9.08411E-06-3.53504E-19-4.28106E-18
 -1      3078 1.22244E-04-4.35131E-05-3.37394E-05 6.69008E-06 2.13987E-19-3.95425E-18
 -1      3079 1.19474E-04-4.47300E-05-3.21219E-05 2.49513E-06 4.99075E-19-3.20693E-18
 -1      3080 1.17895E-04-4.49063E-05-3.11761E-05-2.21831E-07 1.07857E-18-2.75088E-18
 -1      3081 1.22835E-04-4.67425E-05-3.28269E-05 1.92379E-06 7.86642E-19-3.84349E-18
 -1      3082 1.14091E-04-4.35318E-05-3.03126E-05-3.31394E-06 1.05915E-18-2.28058E-18
 -1      3083 1.11611E-04-4.18237E-05-2.98200E-05-5.35372E-06 9.38910E-19-2.11953E-18
 -1      3084 1.16271E-04-4.60310E-05-3.02544E-05-4.85876E-06 1.48210E-18-2.60178E-18
 -1      3085 1.08277E-04-3.95663E-05-2.94693E-05-6.75296E-06 4.99261E-19-1.87196E-18
 -1      3086 1.05943E-04-3.74952E-05-2.92599E-05-7.87957E-06 5.04286E-19-1.84720E-18
 -1      3087 1.08872E-04-4.12992E-05-2.90599E-05-8.60984E-06 8.23736E-19-2.30392E-18
 -1      3088 1.03482E-04-3.54209E-05-2.91730E-05-8.29878E-06 1.78760E-19-1.46538E-18
 -1      3089 1.01657E-04-3.36219E-05-2.91099E-05-8.72436E-06-2.69643E-19-1.41996E-18
 -1      3090 1.03145E-04-3.64534E-05-2.86594E-05-1.00012E-05 4.21974E-19-1.74775E-18
 -1      3091 1.00070E-04-3.20702E-05-2.91364E-05-8.56722E-06-5.25883E-19-1.16530E-18
 -1      3092 9.87871E-05-3.07591E-05-2.91289E-05-8.55153E-06-2.36885E-19-1.23366E-18
 -1      3093 9.91693E-05-3.24607E-05-2.86428E-05-9.90709E-06-2.12087E-19-1.47836E-18
 -1      3094 9.78622E-05-2.97416E-05-2.91849E-05-8.13131E-06-2.27305E-19-1.17802E-18
 -1      3095 9.70181E-05-2.88883E-05-2.91866E-05-7.86393E-06-5.96356E-21-1.31889E-18
 -1      3096 9.67288E-05-2.96916E-05-2.87626E-05-9.11316E-06-2.92368E-19-8.92862E-19
 -1      3097 9.65340E-05-2.82958E-05-2.92351E-05-7.34214E-06 9.56724E-20-1.06362E-18
 -1      3098 9.60005E-05-2.77961E-05-2.92269E-05-6.94644E-06 8.97678E-20-8.96201E-19
 -1      3099 9.53669E-05-2.79806E-05-2.88975E-05-8.05216E-06-2.15402E-20-8.86978E-19
 -1      3100 9.57875E-05-2.75037E-05-2.92554E-05-6.40484E-06 3.30573E-19-5.66679E-19
 -1      3101 9.54574E-05-2.72498E-05-2.92329E-05-5.95845E-06 4.73589E-19 9.84262E-20
 -1      3102 9.46958E-05-2.70514E-05-2.89990E-05-6.92766E-06 6.10946E-19-9.36898E-19
 -1      3103 9.53990E-05-2.71521E-05-2.92405E-05-5.43906E-06 1.80613E-19 5.74068E-19
 -1      3104 9.51957E-05-2.70564E-05-2.92061E-05-4.99025E-06 4.63805E-19 4.81851E-19
 -1      3105 9.44361E-05-2.66498E-05-2.90547E-05-5.83756E-06 6.47850E-19-3.88191E-20
 -1      3106 9.52177E-05-2.70747E-05-2.91969E-05-4.51466E-06 7.57701E-19 5.19546E-19
 -1      3107 9.50913E-05-2.70735E-05-2.91549E-05-4.09248E-06 7.59367E-19 4.26494E-19
 -1      3108 9.44029E-05-2.65781E-05-2.90685E-05-4.82973E-06 5.08099E-19 3.67266E-20
 -1      3109 9.51491E-05-2.71541E-05-2.91343E-05-3.67104E-06 2.78113E-19 3.63988E-19
 -1      3110 9.50685E-05-2.72044E-05-2.90892E-05-3.29159E-06 2.33911E-19 8.54082E-20
 -1      3111 9.44815E-05-2.66958E-05-2.90506E-05-3.92724E-06 4.17149E-19-8.18902E-19
 -1      3112 9.51372E-05-2.73125E-05-2.90620E-05-2.92797E-06 2.59996E-19-1.74266E-19
 -1      3113 9.50839E-05-2.73867E-05-2.90175E-05-2.59856E-06 1.16592E-19-9.54215E-19
 -1      3114 9.46050E-05-2.69090E-05-2.90117E-05-3.13954E-06-7.61194E-20-9.14586E-19
 -1      3115 9.51503E-05-2.75011E-05-2.89875E-05-2.29203E-06-2.60566E-19-9.03726E-19
 -1      3116 9.51137E-05-2.75823E-05-2.89459E-05-2.01404E-06-5.93413E-19-1.17005E-18
 -1      3117 9.47365E-05-2.71584E-05-2.89612E-05-2.46750E-06-1.68600E-19-1.65015E-18
 -1      3118 9.51717E-05-2.76910E-05-2.89160E-05-1.76104E-06-1.08339E-18-8.15623E-19
 -1      3119 9.51457E-05-2.77696E-05-2.88788E-05-1.53206E-06-8.97114E-19-9.60629E-19
 -1      3120 9.48576E-05-2.74081E-05-2.89062E-05-1.90600E-06-7.11467E-19-1.48094E-18
 -1      3121 9.51933E-05-2.78665E-05-2.88507E-05-1.32730E-06-7.06791E-19-1.15424E-18
 -1      3122 9.51742E-05-2.79374E-05-2.88185E-05-1.14272E-06-7.26629E-19-1.48229E-18
 -1      3123 9.49605E-05-2.76387E-05-2.88517E-05-1.44597E-06-9.04483E-19-7.01754E-19
 -1      3124 9.52116E-05-2.80202E-05-2.87933E-05-9.80067E-07-5.44610E-19-1.00587E-18
 -1      3125 9.51973E-05-2.80813E-05-2.87662E-05-8.34259E-07-1.88888E-19-1.09712E-18
 -1      3126 9.50434E-05-2.78408E-05-2.88008E-05-1.07605E-06-7.65956E-19-7.87573E-19
 -1      3127 9.52257E-05-2.81497E-05-2.87444E-05-7.07396E-07-9.44106E-21-1.10969E-18
 -1      3128 9.52148E-05-2.82007E-05-2.87220E-05-5.94425E-07 3.38962E-20-1.30342E-18
 -1      3129 9.51077E-05-2.80114E-05-2.87554E-05-7.83932E-07-9.29705E-20-8.12533E-19
 -1      3130 9.52356E-05-2.82558E-05-2.87037E-05-4.97288E-07-1.22985E-19-8.17141E-19
 -1      3131 9.52273E-05-2.82971E-05-2.86857E-05-4.11444E-07-6.08479E-21-1.27075E-18
 -1      3132 9.51557E-05-2.81513E-05-2.87161E-05-5.57397E-07 3.79220E-20-8.51824E-19
 -1      3133 9.52420E-05-2.83404E-05-2.86706E-05-3.38478E-07 1.20272E-19-1.07652E-18
 -1      3134 9.52358E-05-2.83732E-05-2.86564E-05-2.74551E-07 2.62002E-19-1.13200E-18
 -1      3135 9.51904E-05-2.82632E-05-2.86831E-05-3.84926E-07 2.20130E-19-1.29930E-18
 -1      3136 9.52458E-05-2.84066E-05-2.86442E-05-2.20856E-07-1.93800E-20-2.05137E-18
 -1      3137 9.52412E-05-2.84320E-05-2.86332E-05-1.74279E-07-5.81028E-19-2.47320E-18
 -1      3138 9.52146E-05-2.83508E-05-2.86559E-05-2.56136E-07-1.77465E-19-2.11611E-18
 -1      3139 9.52476E-05-2.84572E-05-2.86236E-05-1.35661E-07-5.20437E-19-1.97266E-18
 -1      3140 9.52442E-05-2.84765E-05-2.86152E-05-1.02556E-07-5.05359E-19-1.63697E-18
 -1      3141 9.52308E-05-2.84180E-05-2.86341E-05-1.61967E-07-8.51110E-20-2.43975E-18
 -1      3142 9.52481E-05-2.84950E-05-2.86078E-05-7.55140E-08-4.72521E-19-1.84441E-18
 -1      3143 9.52456E-05-2.85094E-05-2.86016E-05-5.26680E-08-3.56323E-19-1.50625E-18
 -1      3144 9.52410E-05-2.84685E-05-2.86169E-05-9.47314E-08-3.67671E-19-1.37248E-18
 -1      3145 9.52477E-05-2.85228E-05-2.85959E-05-3.43454E-08-3.75852E-19-1.02749E-18
 -1      3146 9.52459E-05-2.85333E-05-2.85914E-05-1.91572E-08-7.43619E-19-1.16487E-18
 -1      3147 9.52470E-05-2.85055E-05-2.86036E-05-4.80599E-08-3.69610E-19-1.67607E-18
 -1      3148 9.52467E-05-2.85427E-05-2.85871E-05-7.26923E-09-8.03965E-19-2.34220E-19
 -1      3149 9.52455E-05-2.85501E-05-2.85839E-05 2.32510E-09-1.42378E-20 3.79383E-19
 -1      3150 9.52500E-05-2.85321E-05-2.85935E-05-1.67877E-08 4.57883E-19-8.70280E-19
 -1      3151 9.52456E-05-2.85565E-05-2.85808E-05 9.57086E-09-5.61986E-20 1.85149E-18
 -1      3152 9.52448E-05-2.85616E-05-2.85786E-05 1.51770E-08 2.67929E-19 1.86841E-18
 -1      3153 9.52510E-05-2.85506E-05-2.85859E-05 3.19193E-09 4.88575E-19 1.38664E-18
 -1      3154 9.52443E-05-2.85657E-05-2.85764E-05 1.91607E-08-2.75583E-19 1.44156E-18
 -1      3155 9.52438E-05-2.85691E-05-2.85749E-05 2.20043E-08 1.11821E-19 2.66522E-19
 -1      3156 9.52506E-05-2.85631E-05-2.85805E-05 1.50827E-08 2.20434E-20 1.82191E-18
 -1      3157 9.52431E-05-2.85716E-05-2.85734E-05 2.37682E-08 2.40869E-19 2.84358E-19
 -1      3158 9.52428E-05-2.85738E-05-2.85725E-05 2.47664E-08 9.56743E-20 4.95032E-20
 -1      3159 9.52496E-05-2.85711E-05-2.85765E-05 2.13377E-08-1.39918E-19 1.42103E-18
 -1      3160 9.52420E-05-2.85751E-05-2.85714E-05 2.50817E-08 6.94643E-19 1.76890E-19
 -1      3161 9.52418E-05-2.85764E-05-2.85709E-05 2.49060E-08 8.49401E-19 2.29510E-19
 -1      3162 9.52481E-05-2.85759E-05-2.85738E-05 2.37987E-08 3.93598E-19 7.01476E-19
 -1      3163 9.52410E-05-2.85770E-05-2.85702E-05 2.43306E-08 6.31714E-19 5.66483E-19
 -1      3164 9.52409E-05-2.85776E-05-2.85700E-05 2.34606E-08 8.00662E-19 3.77421E-19
 -1      3165 9.52465E-05-2.85785E-05-2.85720E-05 2.38197E-08 8.56775E-19 6.87868E-19
 -1      3166 9.52401E-05-2.85777E-05-2.85696E-05 2.23872E-08 1.07709E-18 1.47786E-19
 -1      3167 9.52401E-05-2.85779E-05-2.85695E-05 2.11551E-08 7.17253E-19-4.22181E-20
 -1      3168 9.52449E-05-2.85796E-05-2.85709E-05 2.23730E-08 4.69501E-19 5.55912E-19
 -1      3169 9.52394E-05-2.85777E-05-2.85693E-05 1.98506E-08-8.21751E-20-1.59541E-20
 -1      3170 9.52395E-05-2.85777E-05-2.85693E-05 1.84772E-08-4.08525E-19-3.30294E-20
 -1      3171 9.52434E-05-2.85797E-05-2.85702E-05 2.01361E-08 3.76675E-19-7.69513E-19
 -1      3172 9.52388E-05-2.85773E-05-2.85692E-05 1.71146E-08-5.29870E-19-2.17800E-20
 -1      3173 9.52389E-05-2.85772E-05-2.85693E-05 1.57382E-08-5.81284E-19-1.41125E-18
 -1      3174 9.52421E-05-2.85792E-05-2.85698E-05 1.75636E-08-6.97152E-19-4.49937E-19
 -1      3175 9.52384E-05-2.85768E-05-2.85693E-05 1.44214E-08-1.97034E-19-1.58010E-18
 -1      3176 9.52385E-05-2.85765E-05-2.85694E-05 1.31201E-08 7.38978E-19-1.99146E-18
 -1      3177 9.52410E-05-2.85784E-05-2.85697E-05 1.49446E-08-8.27710E-19-9.99913E-19
 -1      3178 9.52381E-05-2.85761E-05-2.85694E-05 1.19058E-08 2.95597E-20-1.91314E-18
 -1      3179 9.52382E-05-2.85759E-05-2.85695E-05 1.07127E-08-7.17575E-19-2.86999E-18
 -1      3180 9.52401E-05-2.85776E-05-2.85696E-05 1.24502E-08-2.65837E-19-2.03245E-18
 -1      3181 9.52378E-05-2.85756E-05-2.85695E-05 9.76245E-09-8.07708E-19-2.70825E-18
 -1      3182 9.52379E-05-2.85754E-05-2.85696E-05 8.67058E-09-9.38599E-19-1.55890E-18
 -1      3183 9.52388E-05-2.85761E-05-2.85697E-05 8.46779E-09-8.68795E-19-3.50856E-18
 -1      3184 9.52393E-05-2.85768E-05-2.85697E-05 1.02992E-08-5.88659E-19-3.89654E-18
 -1      3185 1.21659E-04-4.61604E-05-3.27200E-05 3.41183E-06 1.49475E-19-5.43901E-19
 -1      3186 1.12283E-04-4.27285E-05-2.95652E-05 1.11986E-05 1.07364E-18-1.32466E-18
 -1      3187 1.27524E-04-4.42921E-05-3.61060E-05-8.55945E-06 8.10081E-19-3.98009E-18
 -1      3188 1.27374E-04-3.90762E-05-3.79636E-05-1.16224E-05 1.35914E-18-4.26984E-18
 -1      3189 1.06621E-04-3.76615E-05-2.94580E-05 9.92390E-06-8.52813E-19-2.14934E-18
 -1      3190 1.09434E-04-4.02060E-05-2.96606E-05 8.77271E-06-5.23397E-19-2.37324E-18
 -1      3191 1.01892E-04-3.32251E-05-2.93751E-05 1.04684E-05-9.37180E-19-1.76165E-18
 -1      3192 1.03957E-04-3.52633E-05-2.94256E-05 1.00941E-05-1.07531E-18-1.85506E-18
 -1      3193 1.02603E-04-3.61191E-05-2.86131E-05 1.22773E-05-9.95437E-19-2.11220E-18
 -1      3194 9.89522E-05-3.02133E-05-2.94343E-05 9.98255E-06-4.62676E-19-1.09946E-18
 -1      3195 1.00319E-04-3.15777E-05-2.94435E-05 1.00971E-05-4.53437E-19-1.49290E-18
 -1      3196 9.85633E-05-3.16874E-05-2.87196E-05 1.16890E-05-9.22036E-19-1.64503E-18
 -1      3197 9.72479E-05-2.84057E-05-2.94949E-05 9.00691E-06 6.77436E-20-4.29530E-19
 -1      3198 9.81205E-05-2.92259E-05-2.95103E-05 9.38827E-06-2.20025E-19-6.54836E-19
 -1      3199 9.62608E-05-2.88584E-05-2.89186E-05 1.05007E-05-3.72343E-19-1.05425E-18
 -1      3200 9.63181E-05-2.74598E-05-2.95106E-05 7.83933E-06-6.57469E-19-2.35940E-19
 -1      3201 9.68692E-05-2.78972E-05-2.95455E-05 8.34630E-06 6.57092E-22-3.71021E-20
 -1      3202 9.51173E-05-2.72782E-05-2.90889E-05 9.13334E-06-4.39975E-19-5.62516E-20
 -1      3203 9.58341E-05-2.70652E-05-2.94765E-05 6.64293E-06-9.85749E-19 2.71038E-19
 -1      3204 9.61889E-05-2.72590E-05-2.95294E-05 7.18827E-06-8.80960E-19 1.49436E-19
 -1      3205 9.46468E-05-2.65432E-05-2.91929E-05 7.77250E-06-8.95344E-19-1.10239E-19
 -1      3206 9.55905E-05-2.69935E-05-2.94045E-05 5.50583E-06-5.69901E-19-7.79181E-19
 -1      3207 9.58290E-05-2.70442E-05-2.94687E-05 6.03708E-06-5.78817E-19-1.52277E-19
 -1      3208 9.45309E-05-2.63276E-05-2.92310E-05 6.49635E-06-6.63794E-19-4.52729E-19
 -1      3209 9.54692E-05-2.70938E-05-2.93098E-05 4.47471E-06-9.49833E-19-9.58706E-19
 -1      3210 9.56382E-05-2.70673E-05-2.93782E-05 4.96219E-06-4.86548E-19-1.00928E-18
 -1      3211 9.45811E-05-2.64042E-05-2.92178E-05 5.33969E-06-3.42925E-19-7.49020E-19
 -1      3212 9.54064E-05-2.72726E-05-2.92058E-05 3.57111E-06-7.46683E-19-6.51552E-19
 -1      3213 9.55322E-05-2.72094E-05-2.92729E-05 4.00027E-06-1.14442E-18-8.96376E-19
 -1      3214 9.46944E-05-2.66265E-05-2.91706E-05 4.31817E-06-9.34017E-19-5.67672E-19
 -1      3215 9.53701E-05-2.74762E-05-2.91023E-05 2.80056E-06-7.42694E-19-9.24165E-19
 -1      3216 9.54670E-05-2.73997E-05-2.91644E-05 3.16667E-06-4.89705E-19-5.85733E-19
 -1      3217 9.48184E-05-2.69056E-05-2.91043E-05 3.43608E-06-7.58871E-19-1.03871E-18
 -1      3218 9.53454E-05-2.76751E-05-2.90056E-05 2.15851E-06-6.82198E-19-4.86080E-19
 -1      3219 9.54214E-05-2.75982E-05-2.90608E-05 2.46294E-06-1.01327E-18-8.48265E-19
 -1      3220 9.49302E-05-2.71912E-05-2.90302E-05 2.69000E-06-7.23658E-19-5.48470E-19
 -1      3221 9.53260E-05-2.78551E-05-2.89194E-05 1.63440E-06-5.87672E-19-2.56765E-19
 -1      3222 9.53857E-05-2.77844E-05-2.89667E-05 1.88206E-06-4.40627E-19-6.63875E-19
 -1      3223 9.50217E-05-2.74568E-05-2.89559E-05 2.07112E-06-4.64288E-19 6.21379E-20
 -1      3224 9.53093E-05-2.80105E-05-2.88449E-05 1.21455E-06-3.03053E-19-4.79068E-19
 -1      3225 9.53561E-05-2.79486E-05-2.88844E-05 1.41211E-06-1.43191E-19-2.17524E-19
 -1      3226 9.50923E-05-2.76904E-05-2.88864E-05 1.56716E-06-3.09068E-19-8.90111E-20
 -1      3227 9.52947E-05-2.81403E-05-2.87825E-05 8.84172E-07-6.19003E-19-2.19848E-19
 -1      3228 9.53310E-05-2.80881E-05-2.88147E-05 1.03891E-06-4.78138E-19-3.42946E-19
 -1      3229 9.51446E-05-2.78884E-05-2.88242E-05 1.16396E-06-2.92080E-19-1.34667E-19
 -1      3230 9.52821E-05-2.82461E-05-2.87313E-05 6.28701E-07 7.67380E-20 2.39488E-20
 -1      3231 9.53098E-05-2.82031E-05-2.87571E-05 7.47751E-07-3.62253E-19-2.75606E-19
 -1      3232 9.51820E-05-2.80515E-05-2.87704E-05 8.46897E-07-2.08396E-19-8.72491E-19
 -1      3233 9.52715E-05-2.83305E-05-2.86901E-05 4.34625E-07-2.79928E-19 6.56810E-19
 -1      3234 9.52922E-05-2.82959E-05-2.87104E-05 5.24574E-07-2.77542E-20 3.69157E-19
 -1      3235 9.52079E-05-2.81830E-05-2.87252E-05 6.01817E-07-3.07056E-19-7.46530E-19
 -1      3236 9.52627E-05-2.83966E-05-2.86577E-05 2.89907E-07 8.32041E-19 8.19861E-19
 -1      3237 9.52780E-05-2.83693E-05-2.86733E-05 3.56584E-07 3.67883E-19 9.33875E-19
 -1      3238 9.52251E-05-2.82869E-05-2.86881E-05 4.15689E-07 5.18885E-20-8.24633E-19
 -1      3239 9.52557E-05-2.84476E-05-2.86327E-05 1.84156E-07 1.20076E-18 2.63988E-19
 -1      3240 9.52666E-05-2.84263E-05-2.86445E-05 2.32557E-07 1.26285E-18 7.29980E-19
 -1      3241 9.52362E-05-2.83676E-05-2.86582E-05 2.76940E-07 1.00900E-18-3.22408E-19
 -1      3242 9.52503E-05-2.84861E-05-2.86136E-05 1.08633E-07 2.91097E-19 7.34865E-19
 -1      3243 9.52578E-05-2.84699E-05-2.86224E-05 1.42935E-07 5.58724E-19 6.56084E-19
 -1      3244 9.52428E-05-2.84291E-05-2.86347E-05 1.75593E-07 3.52298E-19 2.92171E-19
 -1      3245 9.52461E-05-2.85147E-05-2.85994E-05 5.61476E-08-1.94259E-19 1.72419E-18
 -1      3246 9.52512E-05-2.85026E-05-2.86058E-05 7.97638E-08 3.82597E-19 1.74945E-18
 -1      3247 9.52463E-05-2.84752E-05-2.86164E-05 1.03257E-07-1.99228E-19 6.67277E-19
 -1      3248 9.52430E-05-2.85356E-05-2.85891E-05 2.08949E-08 3.53896E-19 1.44830E-18
 -1      3249 9.52462E-05-2.85266E-05-2.85936E-05 3.65653E-08 3.70301E-19 2.65066E-18
 -1      3250 9.52478E-05-2.85091E-05-2.86025E-05 5.30240E-08-2.57603E-19 2.53802E-18
 -1      3251 9.52407E-05-2.85504E-05-2.85817E-05-1.72246E-09 3.80166E-19 1.58911E-18
 -1      3252 9.52426E-05-2.85439E-05-2.85848E-05 8.16036E-09 1.36255E-19 1.42552E-18
 -1      3253 9.52480E-05-2.85335E-05-2.85921E-05 1.93224E-08 4.94788E-19 3.46991E-18
 -1      3254 9.52391E-05-2.85606E-05-2.85766E-05-1.52833E-08 2.00596E-20 1.72382E-18
 -1      3255 9.52401E-05-2.85561E-05-2.85786E-05-9.51753E-09 6.36942E-19 9.63640E-19
 -1      3256 9.52474E-05-2.85505E-05-2.85845E-05-2.26427E-09 6.36803E-19 1.94018E-18
 -1      3257 9.52380E-05-2.85675E-05-2.85731E-05-2.25240E-08 1.02111E-19 1.67053E-18
 -1      3258 9.52384E-05-2.85644E-05-2.85744E-05-1.96052E-08-3.20753E-19 1.56407E-18
 -1      3259 9.52464E-05-2.85621E-05-2.85791E-05-1.51725E-08-4.96600E-19 1.70890E-18
 -1      3260 9.52373E-05-2.85718E-05-2.85709E-05-2.54986E-08-6.94458E-19 2.23589E-18
 -1      3261 9.52373E-05-2.85698E-05-2.85717E-05-2.44790E-08 2.37873E-19 1.91937E-18
 -1      3262 9.52452E-05-2.85697E-05-2.85753E-05-2.20297E-08-3.70718E-19 1.52351E-18
 -1      3263 9.52369E-05-2.85744E-05-2.85696E-05-2.57180E-08-1.37163E-18 1.79687E-18
 -1      3264 9.52366E-05-2.85731E-05-2.85700E-05-2.59051E-08-7.95494E-19 2.72192E-18
 -1      3265 9.52439E-05-2.85743E-05-2.85728E-05-2.48070E-08-5.76449E-19 2.88955E-18
 -1      3266 9.52367E-05-2.85757E-05-2.85690E-05-2.42683E-08-8.45207E-19 8.44223E-19
 -1      3267 9.52363E-05-2.85750E-05-2.85691E-05-2.51683E-08-1.26791E-18 8.62348E-19
 -1      3268 9.52427E-05-2.85769E-05-2.85711E-05-2.49536E-08-3.74516E-19 2.70834E-18
 -1      3269 9.52366E-05-2.85762E-05-2.85687E-05-2.19092E-08-1.23427E-18 1.71031E-19
 -1      3270 9.52361E-05-2.85759E-05-2.85687E-05-2.31799E-08-1.31119E-18-1.92999E-19
 -1      3271 9.52417E-05-2.85780E-05-2.85702E-05-2.35103E-08-1.08159E-18 1.13860E-18
 -1      3272 9.52365E-05-2.85762E-05-2.85687E-05-1.91522E-08-1.54567E-18 1.87942E-18
 -1      3273 9.52361E-05-2.85761E-05-2.85686E-05-2.05665E-08-1.45593E-18 1.10641E-18
 -1      3274 9.52407E-05-2.85783E-05-2.85696E-05-2.12041E-08-1.92249E-18 1.40487E-18
 -1      3275 9.52366E-05-2.85759E-05-2.85688E-05-1.63247E-08-1.21200E-18 2.43440E-18
 -1      3276 9.52362E-05-2.85759E-05-2.85687E-05-1.77403E-08-1.38391E-18 2.10153E-18
 -1      3277 9.52399E-05-2.85780E-05-2.85694E-05-1.85239E-08-1.87876E-18 2.61906E-18
 -1      3278 9.52367E-05-2.85755E-05-2.85691E-05-1.36180E-08-1.12370E-18 3.34939E-18
 -1      3279 9.52363E-05-2.85756E-05-2.85689E-05-1.49553E-08-8.03176E-19 3.44180E-18
 -1      3280 9.52392E-05-2.85774E-05-2.85694E-05-1.57820E-08-1.53934E-18 2.86981E-18
 -1      3281 9.52368E-05-2.85750E-05-2.85693E-05-1.11283E-08-1.21568E-18 3.11114E-18
 -1      3282 9.52365E-05-2.85752E-05-2.85691E-05-1.23497E-08-8.50687E-19 2.97396E-18
 -1      3283 9.52387E-05-2.85767E-05-2.85694E-05-1.31586E-08-1.01885E-18 2.98501E-18
 -1      3284 9.52370E-05-2.85747E-05-2.85696E-05-8.89044E-09-1.22902E-18 1.29055E-18
 -1      3285 9.52367E-05-2.85748E-05-2.85694E-05-9.98009E-09-1.25356E-18 1.96572E-18
 -1      3286 9.52383E-05-2.85761E-05-2.85695E-05-1.07484E-08-2.76708E-19 1.03637E-18
 -1      3287 9.52374E-05-2.85748E-05-2.85697E-05-7.51436E-09-6.00690E-19 2.21817E-18
 -1      3288 9.52370E-05-2.85747E-05-2.85696E-05-8.25782E-09-1.17030E-18 1.47097E-18
 -1      3289 9.52382E-05-2.85757E-05-2.85696E-05-8.94744E-09-1.10797E-18-3.23424E-19
 -1      3290 9.52383E-05-2.85756E-05-2.85697E-05-7.67377E-09-8.39054E-19 4.91779E-19
 -1      3291 9.52444E-05-2.85810E-05-2.85700E-05 6.69725E-10-1.73587E-18-1.33310E-18
 -1      3292 9.52444E-05-2.85810E-05-2.85700E-05-6.20041E-10-5.34197E-19 7.45253E-20
 -1      3293 9.52408E-05-2.85779E-05-2.85698E-05 7.18715E-09-1.18877E-18-2.58886E-18
 -1      3294 9.52418E-05-2.85787E-05-2.85699E-05 6.55848E-09-1.39410E-18-1.52214E-18
 -1      3295 9.52438E-05-2.85805E-05-2.85700E-05 3.29335E-09-1.33378E-18-1.24298E-19
 -1      3296 9.52442E-05-2.85808E-05-2.85700E-05 2.10033E-09-1.60713E-18-2.27760E-19
 -1      3297 9.52452E-05-2.85815E-05-2.85702E-05 1.50521E-09-1.27258E-18 1.61280E-20
 -1      3298 1.30089E-04-4.66164E-05-3.57910E-05 3.37051E-06 4.19970E-19-5.10017E-18
 -1      3299 1.30952E-04-3.90464E-05-3.97633E-05 8.70967E-06-1.08452E-18-5.15213E-18
 -1      3300 1.17148E-04-1.68833E-05-4.32530E-05 5.36384E-06-3.89275E-18-3.54913E-18
 -1      3301 3.33139E-05 2.54353E-06-1.48026E-05 1.37731E-05 1.45338E-18-6.39203E-18
 -1      3302 3.69717E-05-5.43826E-06-1.29255E-05-2.21586E-05-5.33737E-19-6.83323E-18
 -1      3303 4.72571E-05-8.50782E-06-1.61540E-05-2.23864E-05-9.19348E-19-6.18779E-18
 -1      3304 7.25546E-05-2.20209E-05-2.16155E-05 2.65975E-05 2.24056E-18-4.10896E-18
 -1      3305 1.15926E-04-4.16710E-05-3.19292E-05-5.22618E-07 2.06689E-19-1.62577E-19
 -1      3306 1.09666E-04-3.97945E-05-2.98541E-05-7.06700E-06-5.06393E-19-7.76915E-19
 -1      3307 1.25486E-04-3.22938E-05-4.03882E-05-1.27259E-05 2.64227E-18-3.92875E-18
 -1      3308 1.23477E-04-2.48549E-05-4.24964E-05-1.19349E-05 3.63218E-18-3.48448E-18
 -1      3309 4.88257E-05-1.36406E-05-1.49190E-05 1.39837E-05-8.14780E-19 2.95773E-18
 -1      3310 4.16616E-05-1.00982E-05-1.28321E-05 2.89870E-06-1.60212E-19 4.20859E-18
 -1      3311 4.83758E-05-1.18278E-05-1.52487E-05-4.16541E-06 6.44785E-19 3.30057E-18
 -1      3312 4.13881E-05-2.57295E-06-1.63426E-05 2.00526E-05 1.90029E-18-5.81922E-18
 -1      3313 1.28034E-04-4.11228E-05-3.75431E-05-1.16854E-05-1.64859E-18 5.37866E-19
 -1      3314 1.27088E-04-4.49805E-05-3.50254E-05-4.67648E-06-5.65077E-19 2.29917E-19
 -1      3315 1.18855E-04-5.27451E-05-2.78932E-05-1.83822E-05 2.84855E-18-3.14596E-18
 -1      3316 1.25966E-04-5.29351E-05-3.17689E-05-7.86192E-06 1.81814E-18-4.47784E-18
 -1      3317 9.52426E-05-2.85795E-05-2.85699E-05 5.57543E-09-6.42765E-19-1.84681E-18
 -1      3318 9.52433E-05-2.85800E-05-2.85700E-05 4.58203E-09-1.35711E-18-1.07385E-18
 -1      3319 9.52444E-05-2.85808E-05-2.85701E-05 4.32134E-09-1.90257E-18-6.58665E-19
 -1      3320 9.52429E-05-2.85795E-05-2.85700E-05 6.67203E-09-1.23725E-18-1.87449E-18
 -1      3321 1.13535E-04-4.31942E-05-2.99993E-05 7.23753E-06-6.50713E-19-2.75258E-18
 -1      3322 1.16565E-04-4.53882E-05-3.05518E-05 4.77095E-06-4.30313E-19-2.79580E-18
 -1      3323 1.09624E-04-4.24009E-05-2.89676E-05 1.14430E-05-9.09280E-19-3.04324E-18
 -1      3324 1.21606E-04-4.76449E-05-3.15767E-05 1.75670E-06-4.87591E-19-2.93689E-18
 -1      3325 1.24323E-04-4.74933E-05-3.28640E-05-2.31215E-06-1.66068E-19-3.23800E-18
 -1      3326 1.18133E-04-4.79442E-05-3.01867E-05 7.61037E-06-6.05827E-19-3.27590E-18
 -1      3327 1.24112E-04-3.27042E-05-3.92738E-05-1.63350E-05-2.55174E-18 3.77194E-19
 -1      3328 1.21357E-04-4.32358E-05-3.33860E-05 5.33529E-06 3.42704E-19 3.83838E-19
 -1      3329 1.25408E-04-3.79344E-05-3.76815E-05-1.52542E-05-1.88055E-18 3.85215E-19
 -1      3330 8.68908E-05-2.86423E-05-2.45725E-05 2.15481E-05 2.10877E-18-3.28602E-18
 -1      3331 1.20059E-04-1.85051E-05-4.39541E-05-6.80177E-06 3.80551E-18-2.50044E-18
 -1      3332 9.11377E-05-4.04137E-05-2.12922E-05-3.15885E-05 3.10072E-18-6.74662E-19
 -1      3333 1.05826E-04-4.89815E-05-2.47099E-05-2.78237E-05 3.06843E-18-1.94455E-18
 -1      3334 1.27544E-04-4.96960E-05-3.33193E-05-6.43143E-07-2.61654E-19-3.78883E-18
 -1      3335 1.19761E-04-1.55315E-05-4.49912E-05 6.95846E-06 3.91742E-18-6.46392E-19
 -1      3336 1.18852E-04-1.50480E-05-4.49184E-05-7.26404E-07 3.84066E-18-1.77344E-18
 -1      3337 9.91378E-05-3.62959E-05-2.70917E-05 1.80226E-05 1.62675E-18-2.44753E-18
 -1      3338 2.66385E-05 1.15059E-06-1.15317E-05-1.03451E-05-1.04106E-19-7.07950E-18
 -1      3339 1.19245E-04-2.22616E-05-4.19846E-05 9.84757E-06-3.09003E-18-4.31575E-18
 -1      3340 1.05734E-04-3.73113E-05-2.91662E-05 1.02075E-05 1.21408E-18-1.95412E-18
 -1      3341 9.52418E-05-2.85787E-05-2.85699E-05-6.55064E-09-6.72881E-20 2.37032E-19
 -1      3342 9.52408E-05-2.85779E-05-2.85698E-05-7.18403E-09-1.23765E-18 2.27069E-18
 -1      3343 6.05998E-05-2.05320E-05-1.67980E-05-2.48395E-05 1.74783E-18 2.05427E-18
 -1      3344 6.97231E-05-2.41557E-05-1.92504E-05-2.48002E-05 1.61221E-18 1.14257E-18
 -1      3345 5.62767E-05-1.65965E-05-1.68937E-05-1.86011E-05 1.61059E-18 2.74179E-18
 -1      3346 1.24239E-04-5.39324E-05-3.02303E-05 1.17614E-05-1.12144E-18-3.90574E-18
 -1      3347 1.16295E-04-5.22690E-05-2.73388E-05 1.97377E-05-1.40817E-18-3.26371E-18
 -1      3348 1.24381E-04-2.57245E-05-4.26494E-05 1.13397E-05-3.00432E-18-4.88516E-18
 -1      3349 1.24082E-04-4.46309E-05-3.41279E-05 7.31609E-06 5.80919E-19 6.65768E-19
 -1      3350 3.28933E-05 2.61165E-06-1.50105E-05-8.96328E-06-9.08708E-20-6.63619E-18
 -1      3351 1.21499E-04-1.96982E-05-4.42503E-05 1.34002E-05 3.47358E-18 1.06514E-19
 -1      3352 1.26327E-04-3.73556E-05-3.82802E-05 1.05151E-05-8.86208E-19-5.30142E-18
 -1      3353 1.29225E-04-3.37895E-05-4.11698E-05 1.09362E-05-1.93161E-18-5.38147E-18
 -1      3354 9.52433E-05-2.85800E-05-2.85700E-05-4.57733E-09-6.09963E-19-1.90310E-18
 -1      3355 9.52426E-05-2.85795E-05-2.85699E-05-5.57150E-09-5.85443E-19-8.76975E-19
 -1      3356 9.52429E-05-2.85795E-05-2.85700E-05-6.66043E-09-6.86383E-19-3.70744E-19
 -1      3357 1.25098E-04-2.58493E-05-4.28076E-05 1.65180E-05 3.06541E-18 9.14610E-19
 -1      3358 1.27905E-04-3.33550E-05-4.10625E-05 1.84948E-05 2.50131E-18 1.27825E-18
 -1      3359 1.29590E-04-4.01304E-05-3.85393E-05 1.50135E-05 1.66071E-18 1.39469E-18
 -1      3360 1.30375E-04-4.46748E-05-3.67737E-05 1.30183E-05 1.02888E-18 1.37526E-18
 -1      3361 9.52442E-05-2.85808E-05-2.85700E-05-2.07312E-09 7.34695E-19 4.72049E-19
 -1      3362 9.52438E-05-2.85805E-05-2.85700E-05-3.28829E-09 2.38256E-19-1.88170E-18
 -1      3363 9.52444E-05-2.85808E-05-2.85701E-05-4.30989E-09 2.28868E-19-1.02735E-18
 -1      3364 9.52453E-05-2.85815E-05-2.85702E-05-1.47310E-09-1.94381E-19-7.16698E-19
 -1      3365 1.29255E-04-4.83944E-05-3.45353E-05 2.37778E-06 6.41389E-19-4.98018E-18
 -1      3366 1.26149E-04-4.29368E-05-3.59267E-05 7.27478E-06-1.07150E-19-5.22135E-18
 -1      3367 1.22841E-04-3.94367E-05-3.58188E-05-1.31773E-05-1.31581E-18 1.71805E-19
 -1      3368 5.73634E-05-1.69669E-05-1.67659E-05 1.95718E-05-1.36902E-18 1.56929E-18
 -1      3369 5.55924E-05-1.42647E-05-1.75883E-05 1.19278E-05-4.64108E-19 1.83118E-18
 -1      3370 6.66994E-05-2.17023E-05-1.91979E-05 2.19295E-05-1.75827E-18 6.52798E-19
 -1      3371 1.11472E-04-4.86801E-05-2.67795E-05-1.98931E-05 2.87885E-18-2.51577E-18
 -1      3372 1.24462E-04-4.93997E-05-3.22328E-05-2.36375E-06 1.28052E-18-4.26989E-18
 -1      3373 6.60697E-05-1.78275E-05-2.01305E-05-2.40454E-05-1.30369E-18-4.76647E-18
 -1      3374 8.13630E-05-2.84639E-05-2.26695E-05-2.48399E-05-1.32397E-18-3.58936E-18
 -1      3375 1.22309E-04-4.07274E-05-3.49759E-05-1.15324E-05-8.64854E-19 3.55704E-20
 -1      3376 1.12082E-04-3.94814E-05-3.12172E-05 3.33394E-06 4.66603E-19-1.40593E-18
 -1      3377 1.22181E-04-4.38427E-05-3.35678E-05-3.02887E-06-9.36104E-20-3.64198E-19
 -1      3378 9.52395E-05-2.85767E-05-2.85698E-05 8.12105E-09-7.55656E-19-2.44139E-18
 -1      3379 9.52402E-05-2.85774E-05-2.85698E-05 7.68989E-09-5.65029E-19-2.52975E-18
 -1      3380 9.52412E-05-2.85782E-05-2.85699E-05 8.13949E-09-1.51975E-18-1.71383E-18
 -1      3381 9.52398E-05-2.85771E-05-2.85697E-05 8.99921E-09-6.56809E-19-3.25308E-18
 -1      3382 1.27222E-04-4.73879E-05-3.43263E-05 3.03400E-06 2.67216E-19 7.73447E-19
 -1      3383 8.76611E-05-3.62686E-05-2.17333E-05-2.86440E-05 2.72723E-18-6.88955E-19
 -1      3384 9.76093E-05-3.72840E-05-2.54778E-05-2.02945E-05-1.24953E-18-2.40941E-18
 -1      3385 1.10865E-04-4.32310E-05-2.90883E-05-1.21138E-05-8.11511E-19-9.37943E-19
 -1      3386 9.15644E-05-3.89314E-05-2.22211E-05 2.91481E-05-2.29242E-18-1.16491E-18
 -1      3387 8.31118E-05-3.23924E-05-2.16854E-05 2.66300E-05-2.02295E-18-5.66824E-19
 -1      3388 1.20743E-04-4.74702E-05-3.10741E-05-6.06067E-06-7.52589E-19-2.78925E-19
 -1      3389 1.09721E-04-4.96539E-05-2.57378E-05 2.44063E-05-1.92070E-18-2.50677E-18
 -1      3390 9.77897E-05-4.32186E-05-2.33288E-05 2.78979E-05-2.34514E-18-1.67930E-18
 -1      3391 1.00775E-04-4.23567E-05-2.51106E-05 2.33156E-05-2.21655E-18-2.00476E-18
 -1      3392 1.13832E-04-4.90398E-05-2.75621E-05 1.70974E-05-1.51207E-18-3.04891E-18
 -1      3393 4.21194E-05-2.42936E-06-1.62436E-05-1.79132E-05-5.98535E-19-6.33348E-18
 -1      3394 4.98236E-05-9.16758E-06-1.73665E-05-2.25974E-05-9.07966E-19-5.76956E-18
 -1      3395 8.90899E-05-2.96394E-05-2.52774E-05-1.79797E-05-1.07271E-18-2.82532E-18
 -1      3396 1.26383E-04-5.31367E-05-3.16052E-05 6.81059E-06-8.93587E-19-3.73663E-18
 -1      3397 1.20994E-04-5.08145E-05-3.01100E-05 9.47066E-06-7.63719E-19-3.42925E-18
 -1      3398 1.22841E-04-3.80088E-05-3.64271E-05 1.04979E-05-6.41204E-19-4.70715E-18
 -1      3399 1.08717E-04-4.24275E-05-2.83322E-05-1.15475E-05 1.37612E-18-2.42040E-18
 -1      3400 1.05079E-04-3.95526E-05-2.79880E-05-1.25722E-05 1.25800E-18-1.72865E-18
 -1      3401 1.01982E-04-3.66390E-05-2.79569E-05-1.21398E-05 8.97802E-19-1.69705E-18
 -1      3402 9.94234E-05-3.41678E-05-2.79130E-05-1.21522E-05 3.16957E-19-1.29460E-18
 -1      3403 1.00334E-04-3.72530E-05-2.71202E-05-1.52539E-05 1.30427E-18-1.32123E-18
 -1      3404 9.76903E-05-3.21396E-05-2.80531E-05-1.12751E-05 9.93717E-20-9.56141E-19
 -1      3405 9.60698E-05-3.04013E-05-2.81189E-05-1.08611E-05 9.58438E-20-6.45241E-19
 -1      3406 9.57070E-05-3.20782E-05-2.73362E-05-1.33133E-05 5.04214E-19-9.40303E-19
 -1      3407 9.52161E-05-2.91328E-05-2.82922E-05-9.94242E-06-2.68559E-19-5.43550E-19
 -1      3408 9.42775E-05-2.80382E-05-2.83809E-05-9.38231E-06-1.75974E-19-2.54432E-19
 -1      3409 9.32915E-05-2.87211E-05-2.77121E-05-1.12149E-05 4.87813E-20-6.03068E-19
 -1      3410 9.39569E-05-2.73247E-05-2.85354E-05-8.53839E-06 1.83094E-20-4.17729E-19
 -1      3411 9.34662E-05-2.67099E-05-2.86110E-05-7.94913E-06 1.41931E-19-4.24623E-19
 -1      3412 9.22162E-05-2.67329E-05-2.80831E-05-9.30123E-06-1.25742E-19-4.71914E-19
 -1      3413 9.34483E-05-2.63790E-05-2.87292E-05-7.21280E-06 3.28531E-19-9.25141E-20
 -1      3414 9.32322E-05-2.60914E-05-2.87797E-05-6.64408E-06 8.92720E-19-1.05566E-19
 -1      3415 9.19380E-05-2.57185E-05-2.83867E-05-7.65845E-06 3.26191E-19 8.45513E-19
 -1      3416 9.33712E-05-2.60068E-05-2.88600E-05-6.01176E-06 7.09850E-19-4.93187E-19
 -1      3417 9.33113E-05-2.59277E-05-2.88853E-05-5.48570E-06 7.39698E-19-1.83684E-19
 -1      3418 9.20932E-05-2.53427E-05-2.86080E-05-6.27251E-06 7.07957E-19 3.59607E-20
 -1      3419 9.35188E-05-2.59904E-05-2.89332E-05-4.94577E-06 3.63169E-19-2.92962E-19
 -1      3420 9.35402E-05-2.60345E-05-2.89380E-05-4.47251E-06 2.68900E-19-4.52612E-19
 -1      3421 9.24580E-05-2.53614E-05-2.87533E-05-5.10428E-06 4.82092E-19-6.90247E-19
 -1      3422 9.37649E-05-2.61763E-05-2.89608E-05-4.01371E-06 1.93577E-19-6.65015E-19
 -1      3423 9.38226E-05-2.62861E-05-2.89509E-05-3.59747E-06-1.73315E-19-1.22796E-18
 -1      3424 9.28993E-05-2.56049E-05-2.88369E-05-4.11814E-06-8.71833E-20-9.17887E-19
 -1      3425 9.40367E-05-2.64624E-05-2.89558E-05-3.21062E-06-4.17114E-19-1.34868E-18
 -1      3426 9.41055E-05-2.66008E-05-2.89366E-05-2.85215E-06-3.30932E-19-1.31999E-18
 -1      3427 9.33422E-05-2.59599E-05-2.88744E-05-3.28698E-06-4.78289E-19-1.26669E-18
 -1      3428 9.42952E-05-2.67837E-05-2.89297E-05-2.52957E-06-3.46657E-19-1.74643E-18
 -1      3429 9.43619E-05-2.69275E-05-2.89057E-05-2.22701E-06-3.28704E-19-1.79774E-18
 -1      3430 9.37475E-05-2.63537E-05-2.88796E-05-2.59104E-06-8.13587E-19-1.61964E-18
 -1      3431 9.45220E-05-2.71006E-05-2.88917E-05-1.96154E-06-3.10196E-19-2.16275E-18
 -1      3432 9.45804E-05-2.72366E-05-2.88660E-05-1.71102E-06-4.62382E-19-1.68209E-18
 -1      3433 9.40977E-05-2.67415E-05-2.88640E-05-2.01427E-06-5.40447E-19-1.53409E-18
 -1      3434 9.47108E-05-2.73913E-05-2.88485E-05-1.49564E-06-1.12797E-18-1.66976E-18
 -1      3435 9.47589E-05-2.75127E-05-2.88234E-05-1.29201E-06-1.10661E-18-1.30006E-18
 -1      3436 9.43882E-05-2.70979E-05-2.88363E-05-1.54220E-06-6.56907E-19-1.72003E-18
 -1      3437 9.48620E-05-2.76456E-05-2.88048E-05-1.11991E-06-6.06702E-19-1.62827E-18
 -1      3438 9.48998E-05-2.77497E-05-2.87816E-05-9.57354E-07-3.92936E-19-6.41827E-19
 -1      3439 9.46215E-05-2.74106E-05-2.88029E-05-1.16117E-06-8.19025E-19-1.91519E-18
 -1      3440 9.49793E-05-2.78603E-05-2.87634E-05-8.21995E-07-1.27801E-19-8.52188E-19
 -1      3441 9.50080E-05-2.79468E-05-2.87428E-05-6.94514E-07 3.87511E-20-1.00759E-18
 -1      3442 9.48039E-05-2.76757E-05-2.87679E-05-8.58210E-07-4.28072E-19-1.88925E-18
 -1      3443 9.50678E-05-2.80365E-05-2.87261E-05-5.89796E-07-1.57548E-19-1.24869E-18
 -1      3444 9.50888E-05-2.81066E-05-2.87084E-05-4.91602E-07 2.37759E-20-1.32974E-18
 -1      3445 9.49430E-05-2.78942E-05-2.87342E-05-6.21088E-07-2.23445E-19-1.99305E-18
 -1      3446 9.51326E-05-2.81778E-05-2.86937E-05-4.11982E-07-1.37801E-19-1.58044E-18
 -1      3447 9.51475E-05-2.82333E-05-2.86789E-05-3.37738E-07 2.66304E-19-1.54143E-18
 -1      3448 9.50465E-05-2.80703E-05-2.87034E-05-4.38539E-07-3.48056E-19-1.24000E-18
 -1      3449 9.51788E-05-2.82886E-05-2.86662E-05-2.78314E-07-3.08277E-19-1.94308E-18
 -1      3450 9.51890E-05-2.83317E-05-2.86541E-05-2.23276E-07-4.29463E-19-2.01836E-18
 -1      3451 9.51216E-05-2.82090E-05-2.86764E-05-3.00444E-07-3.59934E-19-2.08398E-18
 -1      3452 9.52106E-05-2.83738E-05-2.86436E-05-1.79823E-07-1.92236E-21-2.94332E-18
 -1      3453 9.52172E-05-2.84066E-05-2.86338E-05-1.39903E-07 1.21794E-19-2.34690E-18
 -1      3454 9.51745E-05-2.83162E-05-2.86533E-05-1.97935E-07-7.00713E-19-2.21144E-18
 -1      3455 9.52316E-05-2.84380E-05-2.86252E-05-1.08857E-07 5.79570E-19-1.98388E-18
 -1      3456 9.52355E-05-2.84623E-05-2.86176E-05-8.06191E-08 3.53227E-19-1.10820E-18
 -1      3457 9.52106E-05-2.83973E-05-2.86341E-05-1.23423E-07 8.49887E-19-1.76196E-18
 -1      3458 9.52446E-05-2.84853E-05-2.86107E-05-5.90430E-08-5.36098E-19-9.24563E-19
 -1      3459 9.52468E-05-2.85030E-05-2.86048E-05-3.96628E-08-3.66474E-19-7.58430E-19
 -1      3460 9.52341E-05-2.84575E-05-2.86185E-05-7.05559E-08 4.48322E-19-2.65964E-19
 -1      3461 9.52520E-05-2.85193E-05-2.85994E-05-2.51781E-08 2.84305E-19-1.05381E-18
 -1      3462 9.52529E-05-2.85319E-05-2.85949E-05-1.23835E-08 1.22215E-18-2.07943E-19
 -1      3463 9.52485E-05-2.85011E-05-2.86060E-05-3.41231E-08-1.43221E-19-5.68880E-19
 -1      3464 9.52555E-05-2.85432E-05-2.85908E-05-3.10180E-09 1.11408E-18-4.57285E-19
 -1      3465 9.52556E-05-2.85519E-05-2.85875E-05 4.90155E-09 7.18479E-19 6.80769E-19
 -1      3466 9.52565E-05-2.85319E-05-2.85963E-05-9.93155E-09 1.03742E-18-1.64819E-18
 -1      3467 9.52565E-05-2.85594E-05-2.85843E-05 1.04529E-08 7.53159E-20 4.22598E-19
 -1      3468 9.52560E-05-2.85651E-05-2.85819E-05 1.50555E-08 2.14657E-19 8.69381E-19
 -1      3469 9.52600E-05-2.85529E-05-2.85888E-05 5.33172E-09 4.81703E-19-7.81809E-19
 -1      3470 9.52558E-05-2.85698E-05-2.85796E-05 1.80041E-08-2.27534E-19 7.89648E-19
 -1      3471 9.52550E-05-2.85735E-05-2.85779E-05 2.02632E-08-5.96129E-19 8.41384E-19
 -1      3472 9.52607E-05-2.85668E-05-2.85831E-05 1.42373E-08 4.91267E-20-8.54958E-19
 -1      3473 9.52541E-05-2.85762E-05-2.85762E-05 2.14561E-08-4.16446E-19 7.25274E-19
 -1      3474 9.52533E-05-2.85783E-05-2.85750E-05 2.21599E-08 3.00724E-19 3.81056E-19
 -1      3475 9.52595E-05-2.85754E-05-2.85789E-05 1.87432E-08-5.48868E-19-4.11714E-19
 -1      3476 9.52520E-05-2.85797E-05-2.85738E-05 2.22205E-08 6.53173E-19-2.27137E-19
 -1      3477 9.52511E-05-2.85808E-05-2.85730E-05 2.19437E-08 6.24293E-19-1.82615E-19
 -1      3478 9.52573E-05-2.85803E-05-2.85759E-05 2.03125E-08-3.72396E-19-3.62177E-19
 -1      3479 9.52497E-05-2.85813E-05-2.85722E-05 2.13202E-08 4.36713E-19-7.44563E-19
 -1      3480 9.52489E-05-2.85816E-05-2.85717E-05 2.04715E-08 3.40300E-19-1.20309E-18
 -1      3481 9.52547E-05-2.85826E-05-2.85738E-05 2.00152E-08 2.26091E-19-1.70506E-18
 -1      3482 9.52475E-05-2.85815E-05-2.85711E-05 1.94773E-08 4.11772E-19-8.90127E-19
 -1      3483 9.52468E-05-2.85814E-05-2.85708E-05 1.83381E-08 3.00502E-19-6.39427E-19
 -1      3484 9.52519E-05-2.85833E-05-2.85723E-05 1.86152E-08 5.49897E-19-3.15966E-19
 -1      3485 9.52455E-05-2.85810E-05-2.85705E-05 1.71838E-08 6.57738E-20-1.33045E-18
 -1      3486 9.52448E-05-2.85807E-05-2.85703E-05 1.59391E-08-8.04125E-19-9.70143E-19
 -1      3487 9.52492E-05-2.85829E-05-2.85713E-05 1.66419E-08-4.09230E-19-1.44235E-18
 -1      3488 9.52437E-05-2.85801E-05-2.85701E-05 1.47606E-08-1.04721E-18-3.67351E-19
 -1      3489 9.52432E-05-2.85797E-05-2.85700E-05 1.35270E-08-2.60421E-19-8.36816E-19
 -1      3490 9.52468E-05-2.85819E-05-2.85707E-05 1.44430E-08-4.78107E-19-1.96876E-18
 -1      3491 9.52422E-05-2.85790E-05-2.85699E-05 1.23975E-08-2.75874E-19-5.28912E-19
 -1      3492 9.52417E-05-2.85786E-05-2.85699E-05 1.12467E-08-8.79648E-19-9.22068E-19
 -1      3493 9.52447E-05-2.85807E-05-2.85703E-05 1.22465E-08-4.37545E-19-1.33994E-18
 -1      3494 9.79070E-05-3.31304E-05-2.77022E-05 1.42147E-05-9.64341E-19-1.28212E-18
 -1      3495 1.00914E-04-3.59726E-05-2.77339E-05 1.43224E-05-1.34478E-18-1.39891E-18
 -1      3496 9.29017E-05-2.58805E-05-2.87310E-05 8.79943E-06-6.10976E-19-1.67235E-20
 -1      3497 9.32806E-05-2.63889E-05-2.86435E-05 9.50589E-06-5.24486E-19-1.47573E-19
 -1      3498 9.29579E-05-2.55100E-05-2.89163E-05 7.32195E-06-9.55733E-19-3.35687E-19
 -1      3499 9.30852E-05-2.56900E-05-2.88678E-05 7.98139E-06-7.26245E-19-4.19566E-19
 -1      3500 9.11936E-05-2.48090E-05-2.84504E-05 8.32505E-06-6.67024E-19-6.54401E-19
 -1      3501 9.32370E-05-2.55560E-05-2.90164E-05 6.03255E-06-4.57951E-19-5.72916E-19
 -1      3502 9.32398E-05-2.55459E-05-2.90009E-05 6.63198E-06-7.26114E-19-3.12964E-19
 -1      3503 9.16852E-05-2.47092E-05-2.86993E-05 6.82785E-06-7.81809E-19-5.65560E-19
 -1      3504 9.35883E-05-2.58215E-05-2.90525E-05 4.91281E-06-1.04116E-18 1.00334E-20
 -1      3505 9.35383E-05-2.57116E-05-2.90607E-05 5.44646E-06-3.78064E-19-2.79907E-19
 -1      3506 9.22779E-05-2.49496E-05-2.88489E-05 5.57498E-06-7.15295E-19-3.06282E-20
 -1      3507 9.39346E-05-2.61830E-05-2.90449E-05 3.94906E-06-7.01686E-19-2.14029E-20
 -1      3508 9.38694E-05-2.60293E-05-2.90680E-05 4.41478E-06-1.00368E-18 1.42926E-19
 -1      3509 9.28617E-05-2.53574E-05-2.89244E-05 4.51530E-06-1.02321E-18 3.53152E-19
 -1      3510 9.42409E-05-2.65672E-05-2.90103E-05 3.12958E-06-8.45020E-19-8.89691E-20
 -1      3511 9.41782E-05-2.64025E-05-2.90415E-05 3.52821E-06-6.07984E-19 2.48750E-19
 -1      3512 9.33843E-05-2.58259E-05-2.89484E-05 3.61755E-06-8.06610E-19 6.57073E-19
 -1      3513 9.44958E-05-2.69336E-05-2.89613E-05 2.44288E-06-7.05178E-19-3.58733E-20
 -1      3514 9.44427E-05-2.67761E-05-2.89955E-05 2.77759E-06-6.68131E-19 7.75311E-21
 -1      3515 9.38267E-05-2.62925E-05-2.89390E-05 2.86105E-06-7.55342E-19 7.12261E-19
 -1      3516 9.46995E-05-2.72623E-05-2.89067E-05 1.87656E-06-3.27448E-19 4.63482E-20
 -1      3517 9.46576E-05-2.71208E-05-2.89404E-05 2.15242E-06-6.13868E-19-3.50341E-19
 -1      3518 9.41874E-05-2.67237E-05-2.89098E-05 2.23042E-06-2.61729E-19 1.54546E-20
 -1      3519 9.48575E-05-2.75452E-05-2.88521E-05 1.41711E-06-1.83561E-19 5.17846E-20
 -1      3520 9.48260E-05-2.74233E-05-2.88835E-05 1.64042E-06-3.26649E-20 2.95636E-19
 -1      3521 9.44732E-05-2.71034E-05-2.88704E-05 1.71184E-06-1.18899E-19 2.24363E-19
 -1      3522 9.49770E-05-2.77816E-05-2.88012E-05 1.05044E-06-5.46867E-21-4.01756E-19
 -1      3523 9.49542E-05-2.76797E-05-2.88291E-05 1.22809E-06 3.86040E-20-9.46734E-20
 -1      3524 9.46945E-05-2.74265E-05-2.88274E-05 1.29176E-06 1.75026E-19-4.98591E-19
 -1      3525 9.50654E-05-2.79745E-05-2.87557E-05 7.62641E-07 1.17617E-19-7.85664E-19
 -1      3526 9.50494E-05-2.78913E-05-2.87797E-05 9.01570E-07 3.27513E-19-4.99792E-19
 -1      3527 9.48622E-05-2.76944E-05-2.87850E-05 9.56809E-07 4.07805E-19-9.36217E-19
 -1      3528 9.51294E-05-2.81287E-05-2.87165E-05 5.40542E-07-7.27239E-19-5.57214E-19
 -1      3529 9.51186E-05-2.80621E-05-2.87366E-05 6.47320E-07-6.66971E-19-8.09909E-19
 -1      3530 9.49869E-05-2.79117E-05-2.87457E-05 6.94054E-07-3.51631E-19 1.14612E-19
 -1      3531 9.51746E-05-2.82497E-05-2.86835E-05 3.72136E-07 1.06878E-19-4.55901E-19
 -1      3532 9.51676E-05-2.81974E-05-2.86999E-05 4.52743E-07 1.39515E-19-6.95204E-19
 -1      3533 9.50778E-05-2.80846E-05-2.87109E-05 4.91375E-07-1.04388E-19-2.16246E-19
 -1      3534 9.52057E-05-2.83431E-05-2.86564E-05 2.46814E-07 5.31257E-19 5.17354E-19
 -1      3535 9.52014E-05-2.83027E-05-2.86696E-05 3.06511E-07-4.69674E-20-2.79255E-19
 -1      3536 9.51425E-05-2.82197E-05-2.86809E-05 3.37772E-07-7.25910E-20 6.46100E-20
 -1      3537 9.52264E-05-2.84139E-05-2.86347E-05 1.55459E-07-4.49613E-19 1.57603E-18
 -1      3538 9.52239E-05-2.83833E-05-2.86451E-05 1.98741E-07 4.37789E-19 1.02476E-18
 -1      3539 9.51874E-05-2.83235E-05-2.86558E-05 2.23538E-07 1.42780E-20 1.27577E-18
 -1      3540 9.52394E-05-2.84665E-05-2.86175E-05 9.04136E-08-7.03550E-19 2.39793E-18
 -1      3541 9.52383E-05-2.84437E-05-2.86255E-05 1.21039E-07-4.34337E-19 1.37817E-18
 -1      3542 9.52176E-05-2.84018E-05-2.86353E-05 1.40333E-07-4.17407E-19 2.01158E-18
 -1      3543 9.52471E-05-2.85049E-05-2.86042E-05 4.53861E-08-7.86598E-19 2.67517E-18
 -1      3544 9.52468E-05-2.84883E-05-2.86103E-05 6.64252E-08-1.00089E-18 2.52823E-18
 -1      3545 9.52369E-05-2.84598E-05-2.86188E-05 8.11559E-08-7.67575E-19 2.39750E-18
 -1      3546 9.52511E-05-2.85322E-05-2.85940E-05 1.53037E-08 6.50824E-19 2.85985E-18
 -1      3547 9.52513E-05-2.85204E-05-2.85986E-05 2.92208E-08 4.07921E-19 2.78454E-18
 -1      3548 9.52486E-05-2.85018E-05-2.86058E-05 4.02500E-08-4.30607E-19 2.43118E-18
 -1      3549 9.52526E-05-2.85512E-05-2.85864E-05-3.84796E-09 6.29935E-19 2.90979E-18
 -1      3550 9.52531E-05-2.85430E-05-2.85898E-05 4.88803E-09 7.50535E-19 3.09399E-18
 -1      3551 9.52548E-05-2.85315E-05-2.85958E-05 1.29766E-08 7.25727E-19 2.78480E-18
 -1      3552 9.52525E-05-2.85639E-05-2.85809E-05-1.51890E-08-6.59655E-19 2.72877E-18
 -1      3553 9.52531E-05-2.85584E-05-2.85833E-05-1.01324E-08 3.35736E-19 3.65744E-18
 -1      3554 9.52574E-05-2.85519E-05-2.85881E-05-4.33496E-09 4.07615E-19 5.45627E-18
 -1      3555 9.52514E-05-2.85720E-05-2.85769E-05-2.11010E-08-3.78727E-19 2.83007E-18
 -1      3556 9.52521E-05-2.85684E-05-2.85786E-05-1.85831E-08-4.40129E-19 2.60989E-18
 -1      3557 9.52577E-05-2.85655E-05-2.85824E-05-1.45364E-08-5.05402E-20 4.12295E-18
 -1      3558 9.52498E-05-2.85768E-05-2.85742E-05-2.33678E-08-7.41886E-19 2.43986E-18
 -1      3559 9.52505E-05-2.85746E-05-2.85753E-05-2.25383E-08-3.50214E-19 2.55448E-18
 -1      3560 9.52565E-05-2.85739E-05-2.85783E-05-1.98033E-08-6.27009E-19 3.12856E-18
 -1      3561 9.52480E-05-2.85793E-05-2.85723E-05-2.32978E-08-5.10379E-19 2.89555E-18
 -1      3562 9.52487E-05-2.85782E-05-2.85730E-05-2.35363E-08-5.81153E-19 2.68143E-18
 -1      3563 9.52545E-05-2.85789E-05-2.85753E-05-2.17636E-08-5.38478E-19 2.07132E-18
 -1      3564 9.52463E-05-2.85802E-05-2.85711E-05-2.18281E-08-1.33730E-18 1.85777E-18
 -1      3565 9.52468E-05-2.85798E-05-2.85715E-05-2.26932E-08-6.66707E-19 2.24933E-18
 -1      3566 9.52522E-05-2.85813E-05-2.85733E-05-2.16101E-08-1.91786E-19 2.00155E-18
 -1      3567 9.52446E-05-2.85802E-05-2.85704E-05-1.96112E-08-2.35579E-18 2.29288E-18
 -1      3568 9.52450E-05-2.85802E-05-2.85706E-05-2.07983E-08-1.92888E-18 1.79254E-18
 -1      3569 9.52498E-05-2.85821E-05-2.85719E-05-2.01964E-08-1.73225E-18 1.79417E-18
 -1      3570 9.52430E-05-2.85797E-05-2.85700E-05-1.70835E-08-1.86134E-18 2.12951E-18
 -1      3571 9.52434E-05-2.85799E-05-2.85701E-05-1.83911E-08-2.41862E-18 1.77542E-18
 -1      3572 9.52475E-05-2.85819E-05-2.85710E-05-1.81155E-08-2.29065E-18 1.46594E-18
 -1      3573 9.52417E-05-2.85788E-05-2.85698E-05-1.45214E-08-1.54768E-18 2.78622E-18
 -1      3574 9.52420E-05-2.85792E-05-2.85698E-05-1.58245E-08-1.26453E-18 2.57042E-18
 -1      3575 9.52454E-05-2.85811E-05-2.85704E-05-1.57627E-08-1.88427E-18 2.24992E-18
 -1      3576 9.52406E-05-2.85779E-05-2.85697E-05-1.20811E-08-5.67619E-19 2.82709E-18
 -1      3577 9.52409E-05-2.85783E-05-2.85697E-05-1.33182E-08-1.25235E-18 3.21992E-18
 -1      3578 9.52435E-05-2.85800E-05-2.85701E-05-1.33929E-08-1.22146E-18 2.15415E-18
 -1      3579 9.52398E-05-2.85771E-05-2.85697E-05-9.85804E-09 3.75038E-19 1.29990E-18
 -1      3580 9.52399E-05-2.85774E-05-2.85697E-05-1.09789E-08 5.62801E-19 2.24854E-18
 -1      3581 9.52420E-05-2.85789E-05-2.85699E-05-1.11499E-08 4.44168E-19 1.58972E-18
 -1      3582 9.52400E-05-2.85772E-05-2.85698E-05-7.48274E-09-7.11073E-19 2.70868E-18
 -1      3583 9.52391E-05-2.85764E-05-2.85698E-05-7.65074E-09-6.75671E-19 1.11020E-18
 -1      3584 9.52392E-05-2.85765E-05-2.85697E-05-8.27130E-09-5.03154E-20 5.24706E-19
 -1      3585 9.52410E-05-2.85780E-05-2.85699E-05-7.95401E-09-1.62289E-19 2.40038E-18
 -1      3586 9.52464E-05-2.85821E-05-2.85704E-05 2.39629E-09-1.83872E-18-3.85554E-19
 -1      3587 9.52466E-05-2.85823E-05-2.85704E-05 8.98079E-10-1.30713E-18-1.27000E-18
 -1      3588 1.16977E-04-4.09330E-05-3.24529E-05-1.97953E-06 1.80636E-19-8.03437E-19
 -1      3589 5.22221E-05-1.19798E-05-1.71964E-05-3.58342E-07 6.02982E-19 2.90342E-18
 -1      3590 5.25655E-05-1.26421E-05-1.66740E-05-1.05264E-05 1.16753E-18 2.89526E-18
 -1      3591 1.21518E-04-4.96005E-05-3.05063E-05-6.19066E-06 2.00738E-18-3.48263E-18
 -1      3592 1.20821E-04-4.12666E-05-3.42265E-05-7.99558E-06-5.36556E-19-2.34350E-19
 -1      3593 9.33436E-05-2.69694E-05-2.84470E-05 1.04839E-05-6.20921E-19-7.76304E-19
 -1      3594 9.41855E-05-2.80033E-05-2.83254E-05 1.12003E-05-8.78630E-19-8.57626E-19
 -1      3595 9.10135E-05-2.55165E-05-2.80798E-05 1.01485E-05-9.27035E-19-5.87410E-19
 -1      3596 9.47554E-05-2.92086E-05-2.80769E-05 1.23584E-05-1.00045E-18-1.34433E-18
 -1      3597 9.63546E-05-3.10087E-05-2.79534E-05 1.29794E-05-9.00713E-19-1.20639E-18
 -1      3598 9.34975E-05-3.05841E-05-2.70009E-05 1.51527E-05-1.08745E-18-7.98934E-19
 -1      3599 9.15282E-05-2.72357E-05-2.75810E-05 1.24005E-05-1.21023E-18-1.13054E-18
 -1      3600 1.16235E-04-4.84122E-05-2.91042E-05 1.20419E-05-7.73063E-19-3.14159E-18
 -1      3601 8.25812E-05-3.12955E-05-2.17860E-05-2.59927E-05 2.22054E-18-5.77174E-19
 -1      3602 9.34646E-05-3.84947E-05-2.37540E-05-2.56368E-05 2.44354E-18-1.20030E-18
 -1      3603 8.69255E-05-3.20349E-05-2.34322E-05 2.29705E-05-1.89070E-18-9.20976E-19
 -1      3604 7.69198E-05-2.65273E-05-2.12208E-05 2.41763E-05-1.78116E-18-5.92923E-20
 -1      3605 1.10950E-04-4.18501E-05-2.96391E-05-8.71954E-06-5.48216E-19-8.09069E-19
 -1      3606 1.05184E-04-4.46571E-05-2.55898E-05-2.20036E-05 2.66952E-18-2.09799E-18
 -1      3607 1.14361E-04-4.92997E-05-2.82597E-05-1.50909E-05 2.31307E-18-3.00092E-18
 -1      3608 9.94215E-05-3.98571E-05-2.53362E-05-2.10317E-05 2.20117E-18-1.82566E-18
 -1      3609 1.00962E-04-3.51882E-05-2.80403E-05-1.22766E-05-6.61162E-19-1.72204E-18
 -1      3610 1.11569E-04-4.59317E-05-2.78128E-05 1.57104E-05-1.29559E-18-2.58867E-18
 -1      3611 1.15429E-04-4.72951E-05-2.91947E-05-9.87575E-06 1.99900E-18-2.90877E-18
 -1      3612 7.23509E-05-2.34022E-05-2.09360E-05-2.14005E-05 1.49144E-18 4.67721E-19
 -1      3613 7.76065E-05-2.76261E-05-2.13119E-05-2.48083E-05 1.73737E-18-5.01946E-19
 -1      3614 8.47637E-05-3.00516E-05-2.32708E-05-2.18881E-05 1.76144E-18-1.02803E-18
 -1      3615 1.11269E-04-4.46860E-05-2.83799E-05-1.20470E-05 1.78353E-18-2.74818E-18
 -1      3616 1.06115E-04-4.32134E-05-2.71181E-05-1.67401E-05 1.95362E-18-1.86658E-18
 -1      3617 9.52478E-05-2.85830E-05-2.85706E-05 6.78603E-12-1.28736E-18-1.39496E-18
 -1      3618 9.52466E-05-2.85823E-05-2.85704E-05-8.61624E-10-1.41620E-18-5.78863E-19
 -1      3619 9.52464E-05-2.85821E-05-2.85704E-05-2.38184E-09-1.10231E-18-6.89479E-19
 -1      3620 9.52408E-05-2.85780E-05-2.85698E-05 1.05774E-08-1.34696E-18-1.65407E-18
 -1      3621 9.52405E-05-2.85776E-05-2.85698E-05 9.64306E-09-9.65399E-19-2.59923E-18
 -1      3622 9.52412E-05-2.85782E-05-2.85699E-05 9.25172E-09-1.45134E-18-1.07836E-18
 -1      3623 9.52428E-05-2.85794E-05-2.85700E-05 1.05253E-08-1.53352E-18-5.16826E-19
 -1      3624 6.00105E-05-1.59962E-05-1.85822E-05-1.39886E-05 1.24315E-18 2.48477E-18
 -1      3625 9.48706E-05-3.53873E-05-2.54887E-05 2.03858E-05-1.71652E-18-1.11811E-18
 -1      3626 1.01167E-04-3.88595E-05-2.66086E-05 1.79980E-05-1.72504E-18-1.80606E-18
 -1      3627 9.52417E-05-2.85785E-05-2.85699E-05-8.79321E-09 1.04102E-19 1.19353E-18
 -1      3628 9.52407E-05-2.85778E-05-2.85698E-05-9.13033E-09 1.01174E-18 1.75865E-18
 -1      3629 9.52392E-05-2.85765E-05-2.85697E-05-8.91809E-09 3.85343E-20 5.97371E-19
 -1      3630 9.52441E-05-2.85804E-05-2.85702E-05-6.88183E-09-9.22382E-20-6.00197E-19
 -1      3631 9.52430E-05-2.85796E-05-2.85701E-05-7.91139E-09-3.52466E-19-4.46356E-19
 -1      3632 9.52428E-05-2.85794E-05-2.85700E-05-9.18405E-09 5.50480E-19 3.02459E-20
 -1      3633 9.52459E-05-2.85817E-05-2.85703E-05 4.05861E-09-1.71871E-18-5.99980E-19
 -1      3634 9.52473E-05-2.85826E-05-2.85706E-05 3.52076E-09-2.13331E-18-8.49475E-19
 -1      3635 9.52452E-05-2.85813E-05-2.85703E-05 5.41938E-09-2.33868E-18-1.01870E-18
 -1      3636 5.58672E-05-1.25629E-05-1.81264E-05 5.79971E-06 1.02680E-19 2.33458E-18
 -1      3637 5.82351E-05-1.30879E-05-1.92646E-05-2.11191E-08 4.88510E-19 2.54160E-18
 -1      3638 6.11822E-05-1.53680E-05-1.96073E-05 1.09974E-05-3.54495E-19 1.16335E-18
 -1      3639 7.14240E-05-2.22091E-05-2.10980E-05 1.96197E-05-1.19432E-18 1.54372E-19
 -1      3640 1.05453E-04-4.27031E-05-2.68188E-05 1.78184E-05-1.48473E-18-2.04928E-18
 -1      3641 8.79895E-05-3.00192E-05-2.49287E-05 1.89821E-05-1.45665E-18-9.36388E-19
 -1      3642 9.52420E-05-2.85787E-05-2.85699E-05 8.72661E-09-1.93946E-18-1.22522E-18
 -1      3643 9.52431E-05-2.85796E-05-2.85701E-05 9.10396E-09-2.58752E-18-1.71382E-18
 -1      3644 9.52430E-05-2.85795E-05-2.85701E-05 7.92710E-09-2.22995E-18-3.10418E-18
 -1      3645 9.52441E-05-2.85803E-05-2.85701E-05 6.92748E-09-1.93925E-18-2.41856E-18
 -1      3646 9.52440E-05-2.85802E-05-2.85702E-05 9.65671E-09-1.78662E-18-1.64100E-18
 -1      3647 6.22241E-05-1.53627E-05-2.00772E-05-1.02310E-05 9.93523E-19 2.25229E-18
 -1      3648 6.64951E-05-1.87850E-05-2.02793E-05-1.74049E-05 1.32681E-18 1.90805E-18
 -1      3649 7.40855E-05-2.20543E-05-2.21456E-05-1.74895E-05 1.39858E-18 6.17513E-19
 -1      3650 9.31597E-05-3.10356E-05-2.65494E-05-1.47529E-05 1.09604E-18-1.34436E-18
 -1      3651 9.14431E-05-2.90082E-05-2.67561E-05-1.35490E-05 5.14051E-19-8.00326E-19
 -1      3652 9.10762E-05-2.76739E-05-2.71221E-05-1.19238E-05 2.08676E-19-3.75365E-19
 -1      3653 9.02341E-05-2.64603E-05-2.73421E-05-1.08460E-05 7.80968E-20-1.52342E-19
 -1      3654 8.80524E-05-2.66050E-05-2.63588E-05-1.32064E-05 5.86864E-19-6.72102E-19
 -1      3655 9.03594E-05-2.57779E-05-2.76450E-05-9.58045E-06-3.31507E-19 1.23989E-19
 -1      3656 9.00506E-05-2.51402E-05-2.78333E-05-8.67608E-06-1.75477E-19 9.37045E-20
 -1      3657 8.79484E-05-2.47678E-05-2.70847E-05-1.01792E-05-4.97934E-20 2.53866E-19
 -1      3658 9.04010E-05-2.48680E-05-2.80651E-05-7.71070E-06 3.92014E-19 1.88867E-19
 -1      3659 9.03932E-05-2.46072E-05-2.82083E-05-6.96421E-06 9.02884E-19 5.08919E-19
 -1      3660 8.84933E-05-2.39582E-05-2.76552E-05-7.93017E-06 2.84239E-19 1.57474E-19
 -1      3661 9.08313E-05-2.45919E-05-2.83757E-05-6.21784E-06 3.76276E-19 5.06344E-19
 -1      3662 9.09779E-05-2.45663E-05-2.84749E-05-5.59851E-06 3.44878E-19 1.71434E-19
 -1      3663 8.93135E-05-2.37817E-05-2.80781E-05-6.24089E-06 5.44443E-19-8.37670E-20
 -1      3664 9.14308E-05-2.47044E-05-2.85891E-05-5.00983E-06 2.98332E-19 1.52753E-19
 -1      3665 9.16440E-05-2.48166E-05-2.86515E-05-4.49209E-06 4.37723E-19-1.38659E-19
 -1      3666 9.02171E-05-2.39867E-05-2.83763E-05-4.94203E-06 3.59999E-19 3.52766E-19
 -1      3667 9.20712E-05-2.50358E-05-2.87243E-05-4.01965E-06-1.67219E-20 4.90474E-20
 -1      3668 9.23001E-05-2.52199E-05-2.87582E-05-3.58442E-06-6.25548E-19-1.94892E-19
 -1      3669 9.11005E-05-2.44058E-05-2.85753E-05-3.92028E-06-6.72240E-20 3.95939E-19
 -1      3670 9.26826E-05-2.54735E-05-2.88003E-05-3.20067E-06-5.77360E-19-2.32485E-19
 -1      3671 9.28999E-05-2.56871E-05-2.88136E-05-2.83540E-06-7.61095E-19-3.71027E-19
 -1      3672 9.19089E-05-2.49268E-05-2.86992E-05-3.10025E-06-5.71761E-19 3.62623E-19
 -1      3673 9.32294E-05-2.59445E-05-2.88338E-05-2.52288E-06-1.23274E-18-4.61901E-19
 -1      3674 9.34217E-05-2.61606E-05-2.88330E-05-2.21849E-06-1.00367E-18-7.56110E-19
 -1      3675 9.26178E-05-2.54773E-05-2.87681E-05-2.43525E-06-1.10799E-18 2.59415E-19
 -1      3676 9.36969E-05-2.64029E-05-2.88382E-05-1.96475E-06-8.90347E-19-1.25955E-18
 -1      3677 9.38593E-05-2.66054E-05-2.88288E-05-1.71371E-06-9.47648E-19-1.60189E-18
 -1      3678 9.32188E-05-2.60104E-05-2.87982E-05-1.89496E-06-1.34917E-18-3.67594E-19
 -1      3679 9.40833E-05-2.68224E-05-2.88244E-05-1.50907E-06-1.02692E-18-2.22354E-18
 -1      3680 9.42155E-05-2.70028E-05-2.88101E-05-1.30461E-06-1.01964E-18-2.26154E-18
 -1      3681 9.37144E-05-2.64982E-05-2.88025E-05-1.45727E-06-1.61812E-18-1.88354E-18
 -1      3682 9.43938E-05-2.71902E-05-2.88001E-05-1.14121E-06-8.63852E-19-1.63449E-18
 -1      3683 9.44984E-05-2.73451E-05-2.87837E-05-9.77033E-07-8.75546E-19-1.84796E-18
 -1      3684 9.41135E-05-2.69271E-05-2.87907E-05-1.10522E-06-6.22532E-19-2.19732E-18
 -1      3685 9.46373E-05-2.75023E-05-2.87709E-05-8.48140E-07-6.04857E-19-1.79609E-18
 -1      3686 9.47180E-05-2.76316E-05-2.87542E-05-7.18294E-07-4.59382E-19-1.80392E-18
 -1      3687 9.44279E-05-2.72925E-05-2.87696E-05-8.24971E-07-7.84121E-19-1.45404E-18
 -1      3688 9.48240E-05-2.77603E-05-2.87406E-05-6.18027E-07-2.13983E-19-1.34544E-18
 -1      3689 9.48847E-05-2.78656E-05-2.87248E-05-5.16952E-07 3.58928E-20-1.27510E-18
 -1      3690 9.46706E-05-2.75957E-05-2.87443E-05-6.04638E-07-1.43793E-19-1.15351E-18
 -1      3691 9.49638E-05-2.79686E-05-2.87114E-05-4.40130E-07-7.14846E-20-1.21321E-18
 -1      3692 9.50084E-05-2.80525E-05-2.86971E-05-3.62758E-07-2.38264E-19-9.24203E-19
 -1      3693 9.48540E-05-2.78419E-05-2.87180E-05-4.33833E-07 3.24405E-19-1.24267E-18
 -1      3694 9.50662E-05-2.81333E-05-2.86848E-05-3.04870E-07-7.70495E-19-8.54967E-19
 -1      3695 9.50980E-05-2.81988E-05-2.86724E-05-2.46689E-07-4.14929E-19-1.30156E-18
 -1      3696 9.49897E-05-2.80375E-05-2.86927E-05-3.03447E-07-3.48050E-19-7.33571E-19
 -1      3697 9.51391E-05-2.82610E-05-2.86615E-05-2.03860E-07-7.74322E-19-1.10883E-18
 -1      3698 9.51612E-05-2.83111E-05-2.86510E-05-1.60953E-07-9.09144E-19-6.94521E-19
 -1      3699 9.50876E-05-2.81900E-05-2.86697E-05-2.05581E-07-6.28168E-19-5.35369E-19
 -1      3700 9.51896E-05-2.83580E-05-2.86416E-05-1.29916E-07-4.36983E-20-4.07189E-19
 -1      3701 9.52042E-05-2.83957E-05-2.86329E-05-9.89556E-08 1.28767E-18-2.48496E-19
 -1      3702 9.51565E-05-2.83065E-05-2.86494E-05-1.33486E-07-1.32861E-19 3.89189E-19
 -1      3703 9.52231E-05-2.84303E-05-2.86251E-05-7.69990E-08 1.52261E-18-6.97430E-19
 -1      3704 9.52324E-05-2.84580E-05-2.86181E-05-5.52217E-08 5.32686E-19-2.54641E-20
 -1      3705 9.52032E-05-2.83939E-05-2.86322E-05-8.14936E-08 1.12441E-18-9.35797E-19
 -1      3706 9.52443E-05-2.84830E-05-2.86117E-05-4.01379E-08-4.00156E-19 1.84856E-19
 -1      3707 9.52497E-05-2.85028E-05-2.86061E-05-2.52906E-08-1.75728E-19 1.41161E-20
 -1      3708 9.52336E-05-2.84580E-05-2.86179E-05-4.49234E-08 3.50417E-19 9.82634E-20
 -1      3709 9.52566E-05-2.85204E-05-2.86010E-05-1.53122E-08 1.70960E-21-3.05361E-19
 -1      3710 9.52593E-05-2.85342E-05-2.85967E-05-5.59315E-09 6.38634E-19-9.50289E-19
 -1      3711 9.52522E-05-2.85039E-05-2.86063E-05-1.99796E-08-2.05807E-19 3.98094E-19
 -1      3712 9.52627E-05-2.85462E-05-2.85926E-05 6.71222E-10 5.22809E-19-1.23112E-18
 -1      3713 9.52637E-05-2.85555E-05-2.85893E-05 6.67699E-09 4.96011E-19-1.28547E-18
 -1      3714 9.52624E-05-2.85359E-05-2.85970E-05-3.63505E-09 3.03540E-19-8.57639E-19
 -1      3715 9.52648E-05-2.85634E-05-2.85862E-05 1.03034E-08-2.67714E-19-1.00426E-18
 -1      3716 9.52646E-05-2.85693E-05-2.85837E-05 1.36874E-08-6.15863E-19-1.42005E-18
 -1      3717 9.52670E-05-2.85574E-05-2.85898E-05 6.48382E-09 3.75317E-19-1.91655E-18
 -1      3718 9.52642E-05-2.85742E-05-2.85814E-05 1.54934E-08-1.35945E-19-1.59193E-18
 -1      3719 9.52633E-05-2.85778E-05-2.85795E-05 1.70818E-08-6.90619E-19-1.34866E-18
 -1      3720 9.52677E-05-2.85713E-05-2.85842E-05 1.22057E-08-7.12142E-19-2.73169E-18
 -1      3721 9.52621E-05-2.85804E-05-2.85778E-05 1.76771E-08-9.77858E-19-8.49426E-19
 -1      3722 9.52608E-05-2.85824E-05-2.85765E-05 1.80831E-08-7.62556E-19-1.06316E-18
 -1      3723 9.52662E-05-2.85796E-05-2.85800E-05 1.49143E-08-8.03064E-19-1.75554E-18
 -1      3724 9.52592E-05-2.85836E-05-2.85752E-05 1.79123E-08-2.42431E-19-1.00351E-18
 -1      3725 9.52577E-05-2.85844E-05-2.85743E-05 1.75812E-08 4.62178E-19-6.38358E-19
 -1      3726 9.52633E-05-2.85840E-05-2.85769E-05 1.56365E-08-2.24824E-19-1.50636E-18
 -1      3727 9.52559E-05-2.85847E-05-2.85734E-05 1.69614E-08 5.66968E-19-1.20388E-18
 -1      3728 9.52545E-05-2.85848E-05-2.85727E-05 1.62080E-08 5.83236E-19-1.04900E-18
 -1      3729 9.52599E-05-2.85858E-05-2.85746E-05 1.51179E-08-2.10609E-19-1.13602E-18
 -1      3730 9.52527E-05-2.85844E-05-2.85721E-05 1.53591E-08-6.27265E-19-6.63743E-19
 -1      3731 9.52514E-05-2.85841E-05-2.85717E-05 1.43987E-08-1.30584E-18-1.81063E-18
 -1      3732 9.52562E-05-2.85859E-05-2.85730E-05 1.38873E-08-2.87006E-19-2.44702E-18
 -1      3733 9.52497E-05-2.85835E-05-2.85712E-05 1.34700E-08-6.85180E-19-9.88636E-19
 -1      3734 9.52485E-05-2.85829E-05-2.85710E-05 1.24431E-08-5.95116E-19-7.33096E-19
 -1      3735 9.52527E-05-2.85850E-05-2.85719E-05 1.23055E-08-5.61671E-19-8.13039E-21
 -1      3736 9.52470E-05-2.85821E-05-2.85707E-05 1.15070E-08-7.60681E-19-1.56924E-18
 -1      3737 9.52459E-05-2.85814E-05-2.85705E-05 1.05196E-08-5.48306E-19-1.46876E-18
 -1      3738 9.52496E-05-2.85837E-05-2.85711E-05 1.06217E-08-8.87274E-19-3.44113E-19
 -1      3739 9.04814E-05-2.39475E-05-2.85311E-05 5.98534E-06-8.82381E-19-6.75231E-19
 -1      3740 9.01915E-05-2.38466E-05-2.84232E-05 6.63591E-06-9.85145E-19-7.46194E-19
 -1      3741 8.95328E-05-2.37051E-05-2.82322E-05 7.37647E-06-1.00574E-18-7.09327E-19
 -1      3742 8.93353E-05-2.38087E-05-2.80649E-05 8.16810E-06-4.60271E-19-3.55197E-19
 -1      3743 8.84239E-05-2.28944E-05-2.80692E-05 6.46711E-06-8.88237E-19-4.62882E-19
 -1      3744 9.21950E-05-2.49708E-05-2.88216E-05 3.91199E-06-1.13096E-18 3.58523E-19
 -1      3745 9.19106E-05-2.47192E-05-2.87925E-05 4.37557E-06-9.83243E-19 4.14404E-19
 -1      3746 9.28822E-05-2.55432E-05-2.88688E-05 3.12353E-06-1.23955E-18 8.41066E-19
 -1      3747 9.26361E-05-2.52851E-05-2.88620E-05 3.51684E-06-1.22647E-18 3.71430E-19
 -1      3748 9.17602E-05-2.46698E-05-2.87434E-05 3.38178E-06-1.32461E-18 9.12911E-19
 -1      3749 9.34494E-05-2.60845E-05-2.88783E-05 2.46359E-06-4.15226E-19 3.94977E-19
 -1      3750 9.32456E-05-2.58407E-05-2.88856E-05 2.79465E-06-7.55136E-19 3.29550E-19
 -1      3751 9.25577E-05-2.53194E-05-2.88086E-05 2.69627E-06-6.85002E-19 7.27358E-19
 -1      3752 9.39059E-05-2.65705E-05-2.88643E-05 1.91602E-06 3.11085E-19-1.06742E-19
 -1      3753 9.37426E-05-2.63520E-05-2.88797E-05 2.19127E-06 1.90696E-19 1.36009E-19
 -1      3754 9.32081E-05-2.59174E-05-2.88327E-05 2.12479E-06-3.26436E-20-5.35556E-19
 -1      3755 9.42657E-05-2.69912E-05-2.88370E-05 1.46717E-06-2.15929E-19-4.55671E-19
 -1      3756 9.41380E-05-2.68025E-05-2.88563E-05 1.69273E-06 3.29766E-20-1.97982E-19
 -1      3757 9.37282E-05-2.64461E-05-2.88304E-05 1.65156E-06 5.24176E-19-4.10057E-19
 -1      3758 9.45441E-05-2.73454E-05-2.88034E-05 1.10445E-06 2.68323E-19-1.42544E-19
 -1      3759 9.44464E-05-2.71870E-05-2.88238E-05 1.28643E-06-1.44720E-21-2.56163E-19
 -1      3760 9.41367E-05-2.68994E-05-2.88123E-05 1.26397E-06 1.97286E-20-8.46212E-19
 -1      3761 9.47555E-05-2.76369E-05-2.87683E-05 8.15822E-07 5.42901E-20 6.03697E-20
 -1      3762 9.46822E-05-2.75068E-05-2.87880E-05 9.60275E-07 3.27964E-19 7.14632E-20
 -1      3763 9.44522E-05-2.72786E-05-2.87859E-05 9.50863E-07 2.28532E-19 8.71238E-20
 -1      3764 9.49133E-05-2.78719E-05-2.87345E-05 5.89853E-07-2.37372E-20 1.45617E-19
 -1      3765 9.48594E-05-2.77672E-05-2.87525E-05 7.02622E-07-1.00399E-19 3.04408E-19
 -1      3766 9.46918E-05-2.75892E-05-2.87563E-05 7.01766E-07 4.98301E-20-4.47230E-20
 -1      3767 9.50287E-05-2.80580E-05-2.87036E-05 4.15914E-07-3.73816E-19 3.42416E-19
 -1      3768 9.49900E-05-2.79752E-05-2.87195E-05 5.02446E-07 3.13326E-20 4.30407E-19
 -1      3769 9.48706E-05-2.78387E-05-2.87265E-05 5.06795E-07 2.10202E-20 2.00581E-19
 -1      3770 9.51114E-05-2.82027E-05-2.86765E-05 2.84398E-07-1.64136E-19 3.10442E-19
 -1      3771 9.50842E-05-2.81385E-05-2.86901E-05 3.49606E-07-6.91120E-20 6.52681E-19
 -1      3772 9.50015E-05-2.80356E-05-2.86986E-05 3.56779E-07-4.36136E-19 1.16392E-18
 -1      3773 9.51692E-05-2.83134E-05-2.86535E-05 1.86854E-07-5.20932E-19 1.83500E-18
 -1      3774 9.51506E-05-2.82644E-05-2.86648E-05 2.35043E-07-3.11690E-19 1.02715E-18
 -1      3775 9.50952E-05-2.81884E-05-2.86737E-05 2.43421E-07-5.89230E-19 1.41227E-18
 -1      3776 9.52082E-05-2.83966E-05-2.86343E-05 1.16034E-07-7.74012E-19 2.44265E-18
 -1      3777 9.51960E-05-2.83598E-05-2.86435E-05 1.50881E-07-3.95728E-19 2.06243E-18
 -1      3778 9.51607E-05-2.83048E-05-2.86521E-05 1.59418E-07-5.69553E-19 2.51036E-18
 -1      3779 9.52336E-05-2.84578E-05-2.86187E-05 6.58641E-08-6.16131E-19 2.30843E-18
 -1      3780 9.52260E-05-2.84308E-05-2.86261E-05 9.04373E-08-7.74002E-19 2.15454E-18
 -1      3781 9.52050E-05-2.83920E-05-2.86338E-05 9.85019E-08-7.34988E-19 2.14692E-18
 -1      3782 9.52490E-05-2.85019E-05-2.86063E-05 3.13601E-08-1.97770E-19 2.20395E-18
 -1      3783 9.52447E-05-2.84825E-05-2.86120E-05 4.81660E-08-3.76911E-19 2.48058E-18
 -1      3784 9.52337E-05-2.84559E-05-2.86189E-05 5.54170E-08-2.61906E-19 2.01609E-18
 -1      3785 9.52576E-05-2.85329E-05-2.85965E-05 8.51203E-09 7.57967E-19 3.74796E-18
 -1      3786 9.52555E-05-2.85193E-05-2.86010E-05 1.95598E-08 1.11573E-19 3.08278E-18
 -1      3787 9.52511E-05-2.85018E-05-2.86068E-05 2.58496E-08-3.14206E-19 2.29902E-18
 -1      3788 9.52614E-05-2.85540E-05-2.85890E-05-5.84643E-09-2.36527E-19 4.86581E-18
 -1      3789 9.52608E-05-2.85448E-05-2.85924E-05 1.02394E-09 8.16892E-19 4.35959E-18
 -1      3790 9.52607E-05-2.85339E-05-2.85972E-05 6.32959E-09 1.86262E-19 3.65768E-18
 -1      3791 9.52621E-05-2.85678E-05-2.85833E-05-1.41698E-08 5.59543E-20 3.58873E-18
 -1      3792 9.52624E-05-2.85618E-05-2.85858E-05-1.02558E-08 3.90156E-19 4.17177E-18
 -1      3793 9.52650E-05-2.85556E-05-2.85898E-05-5.88188E-09 1.13620E-19 4.27873E-18
 -1      3794 9.52609E-05-2.85763E-05-2.85791E-05-1.83259E-08-4.51958E-19 2.34993E-18
 -1      3795 9.52618E-05-2.85726E-05-2.85810E-05-1.64424E-08-4.87856E-19 2.91718E-18
 -1      3796 9.52657E-05-2.85696E-05-2.85841E-05-1.29068E-08 2.12845E-19 2.09703E-18
 -1      3797 9.52586E-05-2.85810E-05-2.85761E-05-1.97080E-08 2.90224E-20 1.26484E-18
 -1      3798 9.52597E-05-2.85790E-05-2.85774E-05-1.91668E-08-4.41408E-20 2.35092E-18
 -1      3799 9.52643E-05-2.85781E-05-2.85798E-05-1.63581E-08-3.34696E-19 1.56282E-18
 -1      3800 9.52558E-05-2.85832E-05-2.85739E-05-1.93337E-08-2.74106E-20 1.08763E-18
 -1      3801 9.52570E-05-2.85823E-05-2.85748E-05-1.96342E-08 1.75117E-20 1.26511E-18
 -1      3802 9.52617E-05-2.85828E-05-2.85767E-05-1.74378E-08-1.04761E-19 1.53502E-18
 -1      3803 9.52529E-05-2.85838E-05-2.85724E-05-1.79276E-08-2.27159E-18 1.41356E-18
 -1      3804 9.52541E-05-2.85836E-05-2.85730E-05-1.87152E-08-1.30604E-18 4.48353E-19
 -1      3805 9.52584E-05-2.85848E-05-2.85745E-05-1.70223E-08-2.91799E-19 5.50631E-19
 -1      3806 9.52500E-05-2.85833E-05-2.85714E-05-1.59917E-08-2.41503E-18 6.42539E-19
 -1      3807 9.52512E-05-2.85835E-05-2.85718E-05-1.70224E-08-2.85864E-18 7.54106E-19
 -1      3808 9.52550E-05-2.85851E-05-2.85729E-05-1.57349E-08-2.71588E-18-3.81316E-19
 -1      3809 9.52474E-05-2.85822E-05-2.85708E-05-1.38570E-08-2.04321E-18 1.10393E-18
 -1      3810 9.52484E-05-2.85827E-05-2.85710E-05-1.49714E-08-2.55015E-18 4.10361E-19
 -1      3811 9.52518E-05-2.85844E-05-2.85718E-05-1.40068E-08-2.78194E-18-7.79386E-19
 -1      3812 9.52452E-05-2.85809E-05-2.85704E-05-1.17378E-08-9.04612E-19 6.34694E-19
 -1      3813 9.52460E-05-2.85815E-05-2.85705E-05-1.28271E-08-7.51550E-19 8.19643E-19
 -1      3814 9.52488E-05-2.85832E-05-2.85710E-05-1.21187E-08-1.31542E-18-2.61875E-19
 -1      3815 9.52436E-05-2.85799E-05-2.85701E-05-9.90117E-09 7.00517E-19 1.82811E-19
 -1      3816 9.52443E-05-2.85804E-05-2.85702E-05-1.09320E-08-3.14913E-19 6.11604E-20
 -1      3817 9.52466E-05-2.85820E-05-2.85706E-05-1.03872E-08-5.76257E-19-2.06284E-18
 -1      3818 9.52450E-05-2.85809E-05-2.85703E-05-8.94397E-09 7.18041E-21-1.24797E-18
 -1      3819 7.58264E-05-2.25525E-05-2.27884E-05 1.70746E-05-8.78922E-19-2.97917E-19
 -1      3820 6.78554E-05-1.80062E-05-2.10612E-05 1.49332E-05-7.72117E-19 3.73171E-19
 -1      3821 8.86655E-05-2.38887E-05-2.77864E-05 9.14119E-06-7.00388E-19-6.94264E-19
 -1      3822 8.87017E-05-2.43490E-05-2.75489E-05 1.01334E-05-1.48238E-18-7.53587E-19
 -1      3823 8.70787E-05-2.27065E-05-2.75731E-05 8.11568E-06-8.94172E-19-1.86642E-19
 -1      3824 9.69249E-05-3.73519E-05-2.54759E-05-1.99306E-05 1.87370E-18-1.65780E-18
 -1      3825 9.13876E-05-2.44121E-05-2.87174E-05 4.85289E-06-1.12561E-18-1.46906E-19
 -1      3826 9.10812E-05-2.42049E-05-2.86553E-05 5.39957E-06-8.96038E-19-5.47725E-19
 -1      3827 9.08029E-05-2.40022E-05-2.86172E-05 4.20516E-06-1.19577E-18-5.08625E-20
 -1      3828 9.62411E-05-3.53781E-05-2.59920E-05-1.77144E-05 1.55149E-18-1.75933E-18
 -1      3829 9.32758E-05-3.23610E-05-2.60872E-05-1.65449E-05 1.31667E-18-1.37416E-18
 -1      3830 8.84653E-05-2.91000E-05-2.54695E-05-1.67535E-05 1.27331E-18-1.43331E-18
 -1      3831 8.87544E-05-3.19692E-05-2.43553E-05-2.09617E-05 1.78537E-18-1.27355E-18
 -1      3832 8.93567E-05-2.86047E-05-2.59560E-05 1.61246E-05-1.22366E-18-1.02278E-18
 -1      3833 8.22687E-05-2.57096E-05-2.41542E-05 1.80457E-05-1.30025E-18-1.00920E-18
 -1      3834 7.75929E-05-2.18406E-05-2.39966E-05 1.43457E-05-8.56506E-19-7.01982E-19
 -1      3835 8.79015E-05-2.66590E-05-2.62865E-05 1.44817E-05-1.00955E-18-7.09790E-19
 -1      3836 9.52459E-05-2.85817E-05-2.85703E-05-4.05098E-09-3.88545E-19-7.46724E-19
 -1      3837 9.52452E-05-2.85812E-05-2.85703E-05-5.40887E-09-4.87015E-19-8.89559E-19
 -1      3838 9.52473E-05-2.85827E-05-2.85706E-05-3.50642E-09-1.68139E-18-1.03887E-18
 -1      3839 6.62417E-05-1.63093E-05-2.14257E-05 9.75496E-06-1.65542E-19 6.32734E-19
 -1      3840 9.52455E-05-2.85813E-05-2.85704E-05 6.80188E-09-2.42204E-18-1.75169E-18
 -1      3841 9.52460E-05-2.85816E-05-2.85705E-05 8.98063E-09-1.68210E-18-2.14466E-18
 -1      3842 8.96847E-05-2.33776E-05-2.84036E-05 5.20914E-06-9.45103E-19-3.93003E-19
 -1      3843 9.52456E-05-2.85814E-05-2.85704E-05-6.74960E-09-3.31072E-19-5.54619E-19
 -1      3844 6.18601E-05-1.38748E-05-2.03111E-05-5.36722E-06 7.98415E-19 2.61881E-18
 -1      3845 6.71730E-05-1.62823E-05-2.17449E-05-8.71863E-06 1.04960E-18 1.91498E-18
 -1      3846 6.31603E-05-1.42403E-05-2.09966E-05 3.20191E-07 4.33274E-19 2.04889E-18
 -1      3847 8.79794E-05-2.47145E-05-2.71440E-05 1.14114E-05-1.34761E-18-4.59104E-19
 -1      3848 8.84864E-05-2.57509E-05-2.68360E-05 1.26774E-05-1.07810E-18-5.85444E-19
 -1      3849 8.42588E-05-2.38959E-05-2.58421E-05 1.33592E-05-1.11009E-18-7.73831E-19
 -1      3850 8.56533E-05-2.29539E-05-2.68539E-05 1.02974E-05-1.03050E-18-4.22234E-19
 -1      3851 9.52484E-05-2.85833E-05-2.85708E-05 4.66732E-09-1.68930E-18-6.47321E-19
 -1      3852 9.52490E-05-2.85837E-05-2.85709E-05 2.97942E-09-1.67680E-18-6.93730E-19
 -1      3853 8.40725E-05-2.83406E-05-2.38985E-05-1.96627E-05 1.60849E-18-1.08195E-18
 -1      3854 9.52493E-05-2.85839E-05-2.85709E-05 9.14249E-10-2.08264E-18-1.14801E-18
 -1      3855 9.52493E-05-2.85839E-05-2.85709E-05-8.97586E-10-2.05105E-18-5.14246E-19
 -1      3856 9.52506E-05-2.85846E-05-2.85711E-05 2.10158E-09-2.30752E-18-5.60661E-19
 -1      3857 7.09904E-05-1.73361E-05-2.30150E-05 8.63774E-06-1.45706E-19-4.36943E-19
 -1      3858 6.62796E-05-1.49083E-05-2.18021E-05 5.07780E-06 2.74818E-19 7.93736E-19
 -1      3859 6.81561E-05-1.54079E-05-2.26202E-05 4.38453E-07 5.44990E-19 1.45282E-18
 -1      3860 9.52476E-05-2.85826E-05-2.85707E-05 7.41439E-09-2.32673E-18-1.60280E-18
 -1      3861 9.52493E-05-2.85837E-05-2.85710E-05 6.98476E-09-1.61684E-18-1.60629E-18
 -1      3862 8.55237E-05-2.34522E-05-2.65656E-05-9.96987E-06 5.16680E-19-6.31413E-19
 -1      3863 8.56880E-05-2.29810E-05-2.69102E-05-8.70754E-06 1.96182E-19-2.59637E-19
 -1      3864 8.66443E-05-2.29243E-05-2.72878E-05-7.58053E-06-6.27129E-20 1.26205E-19
 -1      3865 8.70171E-05-2.28050E-05-2.75470E-05-6.65764E-06 4.84349E-19 2.85023E-19
 -1      3866 8.43426E-05-2.17242E-05-2.68136E-05-7.30311E-06 4.86925E-19-2.92966E-19
 -1      3867 8.78780E-05-2.29441E-05-2.78176E-05-5.85815E-06 5.56971E-19 1.09106E-19
 -1      3868 8.83294E-05-2.30349E-05-2.80041E-05-5.16486E-06 6.09996E-19 6.28327E-20
 -1      3869 8.61684E-05-2.19905E-05-2.74841E-05-5.48655E-06 3.77522E-19 1.97912E-19
 -1      3870 8.90882E-05-2.32903E-05-2.81931E-05-4.57717E-06 4.12963E-19 6.42402E-20
 -1      3871 8.95492E-05-2.35045E-05-2.83210E-05-4.04046E-06 3.48940E-19 6.62443E-20
 -1      3872 8.77846E-05-2.25070E-05-2.79585E-05-4.19125E-06 5.91562E-19-1.90115E-19
 -1      3873 9.02086E-05-2.38215E-05-2.84487E-05-3.59845E-06-9.72061E-20 6.67453E-20
 -1      3874 9.06399E-05-2.40954E-05-2.85318E-05-3.17297E-06-5.60708E-19-1.30588E-19
 -1      3875 8.91959E-05-2.31631E-05-2.82849E-05-3.23571E-06-1.79552E-20-5.34057E-19
 -1      3876 9.12034E-05-2.44336E-05-2.86143E-05-2.82875E-06-6.31949E-19 1.22295E-19
 -1      3877 9.15888E-05-2.47299E-05-2.86640E-05-2.48545E-06-4.29485E-19 2.59128E-19
 -1      3878 9.04086E-05-2.38754E-05-2.85023E-05-2.51439E-06-4.54339E-19-9.71736E-19
 -1      3879 9.20633E-05-2.50640E-05-2.87134E-05-2.21502E-06-9.44731E-19 2.59538E-19
 -1      3880 9.23948E-05-2.53559E-05-2.87392E-05-1.93622E-06-1.30230E-18 2.08180E-20
 -1      3881 9.14393E-05-2.45911E-05-2.86393E-05-1.95051E-06-9.25161E-19-5.17911E-19
 -1      3882 9.27867E-05-2.56672E-05-2.87653E-05-1.72228E-06-1.64830E-18-2.89646E-19
 -1      3883 9.30633E-05-2.59381E-05-2.87746E-05-1.49559E-06-2.09934E-18-7.80922E-19
 -1      3884 9.22986E-05-2.52702E-05-2.87184E-05-1.50827E-06-1.65603E-18-1.03572E-18
 -1      3885 9.33815E-05-2.62168E-05-2.87848E-05-1.32573E-06-2.07326E-18-6.11560E-19
 -1      3886 9.36066E-05-2.64578E-05-2.87834E-05-1.14224E-06-1.24091E-18-9.81602E-19
 -1      3887 9.30022E-05-2.58870E-05-2.87572E-05-1.15772E-06-1.81432E-18-6.93846E-19
 -1      3888 9.38606E-05-2.66995E-05-2.87832E-05-1.00783E-06-7.76657E-19-4.67818E-19
 -1      3889 9.40398E-05-2.69071E-05-2.87754E-05-8.60556E-07-3.25746E-19-4.57654E-19
 -1      3890 9.35690E-05-2.64291E-05-2.87691E-05-8.79417E-07-8.05543E-19 1.31323E-18
 -1      3891 9.42390E-05-2.71111E-05-2.87689E-05-7.55008E-07-5.78077E-19-6.16050E-19
 -1      3892 9.43786E-05-2.72853E-05-2.87576E-05-6.38121E-07-6.55211E-19 2.08197E-19
 -1      3893 9.40177E-05-2.68928E-05-2.87638E-05-6.59415E-07-4.18450E-19 1.19889E-18
 -1      3894 9.45320E-05-2.74536E-05-2.87478E-05-5.56084E-07-8.31914E-19-8.47334E-20
 -1      3895 9.46386E-05-2.75963E-05-2.87350E-05-4.64519E-07-5.41984E-19-4.10834E-19
 -1      3896 9.43668E-05-2.72800E-05-2.87485E-05-4.86887E-07-8.27936E-19 1.25325E-18
 -1      3897 9.47546E-05-2.77322E-05-2.87237E-05-4.01543E-07-2.88227E-19-1.53642E-18
 -1      3898 9.48343E-05-2.78467E-05-2.87109E-05-3.30846E-07-1.44398E-21-1.59626E-18
 -1      3899 9.46335E-05-2.75964E-05-2.87279E-05-3.53012E-07-1.08260E-18-1.13283E-18
 -1      3900 9.49202E-05-2.79544E-05-2.86995E-05-2.83187E-07 2.62808E-19-1.88038E-18
 -1      3901 9.49784E-05-2.80445E-05-2.86875E-05-2.29457E-07-4.97517E-19-1.68683E-18
 -1      3902 9.48333E-05-2.78499E-05-2.87055E-05-2.50428E-07-4.62241E-19-1.89534E-18
 -1      3903 9.50407E-05-2.81281E-05-2.86766E-05-1.93968E-07-1.02094E-18-1.52041E-18
 -1      3904 9.50821E-05-2.81977E-05-2.86658E-05-1.53834E-07-4.94284E-19-1.46672E-18
 -1      3905 9.49799E-05-2.80492E-05-2.86834E-05-1.72947E-07-5.28392E-19-2.43156E-18
 -1      3906 9.51261E-05-2.82615E-05-2.86561E-05-1.27889E-07-2.63683E-19-9.46531E-19
 -1      3907 9.51547E-05-2.83142E-05-2.86468E-05-9.84826E-08 1.76472E-19-8.64392E-19
 -1      3908 9.50850E-05-2.82030E-05-2.86629E-05-1.15372E-07-2.97170E-19-1.70648E-18
 -1      3909 9.51848E-05-2.83618E-05-2.86383E-05-7.99173E-08 4.26318E-19-1.62620E-18
 -1      3910 9.52038E-05-2.84009E-05-2.86304E-05-5.88423E-08 8.22650E-19-2.25526E-18
 -1      3911 9.51581E-05-2.83194E-05-2.86446E-05-7.33794E-08 4.54281E-20-2.80759E-18
 -1      3912 9.52236E-05-2.84358E-05-2.86232E-05-4.58950E-08 8.23029E-19-2.08238E-18
 -1      3913 9.52356E-05-2.84642E-05-2.86167E-05-3.11821E-08 4.72027E-19-2.16872E-18
 -1      3914 9.52074E-05-2.84057E-05-2.86289E-05-4.34119E-08 8.06021E-19-3.46839E-18
 -1      3915 9.52479E-05-2.84891E-05-2.86108E-05-2.24396E-08-3.62277E-20-1.16539E-18
 -1      3916 9.52549E-05-2.85092E-05-2.86056E-05-1.24992E-08-2.49400E-19-1.25979E-18
 -1      3917 9.52390E-05-2.84685E-05-2.86157E-05-2.25801E-08 9.74381E-19-3.94450E-18
 -1      3918 9.52618E-05-2.85265E-05-2.86008E-05-6.84521E-09-6.02373E-19-5.68137E-19
 -1      3919 9.52653E-05-2.85403E-05-2.85966E-05-4.15302E-10 2.00902E-19-1.53969E-18
 -1      3920 9.52579E-05-2.85128E-05-2.86049E-05-8.57171E-09-1.07262E-19-1.30920E-18
 -1      3921 9.52686E-05-2.85519E-05-2.85928E-05 3.01858E-09 1.33616E-19-1.60009E-18
 -1      3922 9.52698E-05-2.85610E-05-2.85896E-05 6.92254E-09-2.60632E-19-2.01869E-18
 -1      3923 9.52680E-05-2.85433E-05-2.85962E-05 4.36604E-10-2.02567E-19-9.19389E-19
 -1      3924 9.52707E-05-2.85684E-05-2.85866E-05 8.80088E-09-3.62599E-19-2.51438E-18
 -1      3925 9.52704E-05-2.85741E-05-2.85842E-05 1.09339E-08-7.98952E-19-2.07872E-18
 -1      3926 9.52720E-05-2.85635E-05-2.85894E-05 5.86021E-09-6.87844E-19-1.71383E-18
 -1      3927 9.52697E-05-2.85785E-05-2.85819E-05 1.17564E-08-6.20207E-19-2.19826E-18
 -1      3928 9.52685E-05-2.85818E-05-2.85800E-05 1.26868E-08-4.98037E-19-1.78060E-18
 -1      3929 9.52722E-05-2.85761E-05-2.85841E-05 8.77995E-09-8.56063E-19-1.52726E-18
 -1      3930 9.52670E-05-2.85841E-05-2.85783E-05 1.28219E-08-7.42476E-19-2.07284E-18
 -1      3931 9.52653E-05-2.85857E-05-2.85770E-05 1.29690E-08-4.71000E-19-2.36401E-18
 -1      3932 9.52700E-05-2.85833E-05-2.85800E-05 1.00067E-08-6.27810E-19-2.28691E-18
 -1      3933 9.52633E-05-2.85866E-05-2.85757E-05 1.26824E-08-1.65184E-19-2.06543E-18
 -1      3934 9.52615E-05-2.85870E-05-2.85747E-05 1.23487E-08 3.14009E-19-2.12408E-18
 -1      3935 9.52664E-05-2.85868E-05-2.85770E-05 1.01367E-08 7.25278E-20-3.05996E-18
 -1      3936 9.52594E-05-2.85870E-05-2.85738E-05 1.18266E-08 4.46290E-19-1.70829E-18
 -1      3937 9.52575E-05-2.85868E-05-2.85731E-05 1.12232E-08-3.15103E-19-1.97769E-18
 -1      3938 9.52623E-05-2.85879E-05-2.85748E-05 9.59772E-09 2.49387E-19-1.01342E-18
 -1      3939 9.52555E-05-2.85863E-05-2.85725E-05 1.06003E-08-6.99969E-19-1.07293E-18
 -1      3940 9.52538E-05-2.85857E-05-2.85720E-05 9.85339E-09-7.91159E-20-5.11633E-19
 -1      3941 9.52582E-05-2.85875E-05-2.85732E-05 8.69876E-09 4.34902E-19-4.71474E-19
 -1      3942 9.52523E-05-2.85852E-05-2.85716E-05 8.71919E-09-1.21044E-18-6.12337E-19
 -1      3943 9.52508E-05-2.85844E-05-2.85713E-05 7.98644E-09-2.20473E-18-1.46784E-18
 -1      3944 9.52516E-05-2.85851E-05-2.85714E-05 5.10578E-09-1.81625E-18-5.28186E-19
 -1      3945 9.52546E-05-2.85864E-05-2.85721E-05 7.11432E-09-1.20630E-18-1.61443E-19
 -1      3946 8.74800E-05-2.22586E-05-2.79762E-05 5.19346E-06-8.64743E-19-6.02578E-19
 -1      3947 8.68048E-05-2.20132E-05-2.77632E-05 5.84214E-06-1.07903E-18-6.69453E-19
 -1      3948 9.23030E-05-2.52019E-05-2.87665E-05 2.16090E-06-2.03731E-19-5.08893E-19
 -1      3949 9.19378E-05-2.48731E-05-2.87427E-05 2.45002E-06-3.93740E-19 2.63452E-19
 -1      3950 9.14145E-05-2.44929E-05-2.86918E-05 2.71281E-06-1.45613E-18 3.04010E-19
 -1      3951 9.09707E-05-2.41415E-05-2.86419E-05 3.05727E-06-1.61568E-18-5.37431E-20
 -1      3952 9.12475E-05-2.43620E-05-2.86537E-05 2.14045E-06-8.30898E-19-1.25411E-18
 -1      3953 9.35904E-05-2.63951E-05-2.88037E-05 1.31989E-06 2.05924E-19-9.97511E-19
 -1      3954 9.33573E-05-2.61391E-05-2.88080E-05 1.52042E-06 4.92712E-19-1.06071E-18
 -1      3955 9.40370E-05-2.68671E-05-2.87917E-05 1.00793E-06 3.74934E-21-9.45925E-19
 -1      3956 9.38556E-05-2.66504E-05-2.88022E-05 1.17198E-06 3.54597E-19-8.08811E-19
 -1      3957 9.35294E-05-2.63544E-05-2.87838E-05 1.04490E-06 3.31041E-19-1.34626E-18
 -1      3958 9.43815E-05-2.72593E-05-2.87703E-05 7.56124E-07 2.29517E-22-4.24658E-19
 -1      3959 9.42427E-05-2.70799E-05-2.87839E-05 8.88311E-07-1.62684E-19-6.21336E-19
 -1      3960 9.39948E-05-2.68404E-05-2.87763E-05 7.98161E-07-3.97140E-19-9.70907E-19
 -1      3961 9.46430E-05-2.75788E-05-2.87447E-05 5.56084E-07-1.82272E-19-3.55456E-19
 -1      3962 9.45386E-05-2.74331E-05-2.87592E-05 6.60885E-07 2.41309E-19-2.18712E-19
 -1      3963 9.43534E-05-2.72426E-05-2.87586E-05 5.98654E-07-2.74300E-20-8.61819E-19
 -1      3964 9.48381E-05-2.78344E-05-2.87181E-05 3.99817E-07-4.35149E-19 7.51270E-19
 -1      3965 9.47610E-05-2.77182E-05-2.87323E-05 4.81510E-07-2.77624E-19 1.81639E-19
 -1      3966 9.46252E-05-2.75691E-05-2.87360E-05 4.39982E-07-5.40071E-19-1.86359E-19
 -1      3967 9.49809E-05-2.80353E-05-2.86927E-05 2.79875E-07-5.73748E-19 9.63516E-19
 -1      3968 9.49251E-05-2.79443E-05-2.87057E-05 3.42445E-07-4.78562E-19 8.74941E-19
 -1      3969 9.48277E-05-2.78296E-05-2.87118E-05 3.15960E-07-4.35729E-19 4.22458E-19
 -1      3970 9.50832E-05-2.81905E-05-2.86696E-05 1.89516E-07-9.46660E-19 1.55819E-18
 -1      3971 9.50438E-05-2.81204E-05-2.86811E-05 2.36554E-07-7.92064E-19 8.87506E-19
 -1      3972 9.49757E-05-2.80338E-05-2.86882E-05 2.20763E-07-7.73464E-19 7.46034E-19
 -1      3973 9.51546E-05-2.83083E-05-2.86493E-05 1.22802E-07-3.37399E-19 1.87739E-18
 -1      3974 9.51276E-05-2.82553E-05-2.86592E-05 1.57458E-07-2.91038E-19 2.62830E-18
 -1      3975 9.50815E-05-2.81911E-05-2.86665E-05 1.49074E-07-1.21132E-18 1.50306E-18
 -1      3976 9.52029E-05-2.83961E-05-2.86321E-05 7.46395E-08-5.51991E-19 1.78246E-18
 -1      3977 9.51850E-05-2.83567E-05-2.86404E-05 9.96033E-08-6.57292E-19 1.74216E-18
 -1      3978 9.51551E-05-2.83102E-05-2.86473E-05 9.61895E-08 3.40278E-21 1.51286E-18
 -1      3979 9.52341E-05-2.84601E-05-2.86179E-05 4.07657E-08-3.01921E-20 1.14125E-18
 -1      3980 9.52229E-05-2.84315E-05-2.86246E-05 5.82816E-08-1.59494E-19 1.61797E-18
 -1      3981 9.52047E-05-2.83986E-05-2.86308E-05 5.80631E-08-2.31705E-19 1.04627E-18
 -1      3982 9.52531E-05-2.85058E-05-2.86063E-05 1.76885E-08-9.61043E-19 1.84026E-18
 -1      3983 9.52466E-05-2.84855E-05-2.86117E-05 2.95885E-08-4.69418E-19 1.34782E-18
 -1      3984 9.52367E-05-2.84629E-05-2.86171E-05 3.13001E-08-4.85840E-19 4.54185E-19
 -1      3985 9.52635E-05-2.85375E-05-2.85970E-05 2.60521E-09-1.68929E-22 3.75351E-18
 -1      3986 9.52602E-05-2.85235E-05-2.86013E-05 1.03557E-08-4.06216E-19 3.14638E-18
 -1      3987 9.52559E-05-2.85086E-05-2.86059E-05 1.31175E-08-1.12251E-18 1.56275E-18
 -1      3988 9.52681E-05-2.85588E-05-2.85898E-05-6.69014E-09 1.46865E-19 3.33190E-18
 -1      3989 9.52670E-05-2.85495E-05-2.85931E-05-1.93780E-09-1.35982E-19 3.77453E-18
 -1      3990 9.52663E-05-2.85401E-05-2.85969E-05 1.28072E-09-5.21937E-19 2.98432E-18
 -1      3991 9.52688E-05-2.85723E-05-2.85843E-05-1.19013E-08 3.58863E-19 1.52769E-18
 -1      3992 9.52691E-05-2.85664E-05-2.85868E-05-9.25987E-09 1.13583E-18 2.69659E-18
 -1      3993 9.52706E-05-2.85610E-05-2.85898E-05-5.96872E-09 9.07226E-19 1.53534E-18
 -1      3994 9.52671E-05-2.85804E-05-2.85801E-05-1.43188E-08-1.20758E-19 9.16559E-19
 -1      3995 9.52682E-05-2.85769E-05-2.85819E-05-1.31176E-08-3.62070E-19 9.74107E-19
 -1      3996 9.52711E-05-2.85743E-05-2.85844E-05-9.98802E-09 1.12103E-18 1.00666E-18
 -1      3997 9.52641E-05-2.85846E-05-2.85769E-05-1.49003E-08 1.12097E-18 1.56694E-19
 -1      3998 9.52657E-05-2.85829E-05-2.85783E-05-1.46427E-08 4.44898E-19 7.64725E-19
 -1      3999 9.52691E-05-2.85820E-05-2.85802E-05-1.18043E-08 6.25167E-19-2.97796E-19
 -1      4000 9.52605E-05-2.85862E-05-2.85747E-05-1.43404E-08-1.34672E-18 4.51499E-19
 -1      4001 9.52623E-05-2.85856E-05-2.85757E-05-1.46670E-08 6.56734E-19 6.87961E-20
 -1      4002 9.52658E-05-2.85859E-05-2.85771E-05-1.21784E-08 7.06534E-19-2.90698E-19
 -1      4003 9.52568E-05-2.85862E-05-2.85731E-05-1.31293E-08-2.26962E-18-8.91481E-19
 -1      4004 9.52585E-05-2.85864E-05-2.85738E-05-1.37867E-08-1.92265E-18-2.28149E-19
 -1      4005 9.52619E-05-2.85873E-05-2.85748E-05-1.16604E-08-1.43857E-18 9.28135E-19
 -1      4006 9.52532E-05-2.85853E-05-2.85719E-05-1.16072E-08-2.27487E-18-1.44282E-18
 -1      4007 9.52548E-05-2.85858E-05-2.85724E-05-1.24215E-08-2.41866E-18-1.25800E-18
 -1      4008 9.52578E-05-2.85871E-05-2.85732E-05-1.06384E-08-1.63146E-18 1.10053E-21
 -1      4009 9.52499E-05-2.85838E-05-2.85712E-05-9.99831E-09-1.22343E-18-2.24244E-18
 -1      4010 9.52513E-05-2.85845E-05-2.85715E-05-1.08500E-08-2.10096E-18-2.18600E-18
 -1      4011 9.52539E-05-2.85859E-05-2.85720E-05-9.38668E-09-1.69864E-18-1.77136E-18
 -1      4012 9.52490E-05-2.85837E-05-2.85709E-05-2.93745E-09-1.77673E-18-9.97194E-19
 -1      4013 9.52484E-05-2.85833E-05-2.85708E-05-4.65513E-09-1.38877E-18-2.03819E-18
 -1      4014 9.52505E-05-2.85846E-05-2.85711E-05-2.06818E-09-2.12989E-18-1.15698E-18
 -1      4015 8.56688E-05-2.16934E-05-2.74522E-05 6.52522E-06-1.20631E-18-6.60846E-19
 -1      4016 8.49602E-05-2.16083E-05-2.71418E-05 7.40839E-06-8.09042E-19-7.59399E-19
 -1      4017 8.49519E-05-2.10043E-05-2.73757E-05 5.14101E-06-1.04019E-18-1.74518E-18
 -1      4018 8.47662E-05-2.48862E-05-2.56059E-05-1.33640E-05 7.73132E-19-1.20461E-18
 -1      4019 8.45147E-05-2.38294E-05-2.60476E-05-1.15907E-05 7.06524E-19-7.09338E-19
 -1      4020 8.23444E-05-2.19013E-05-2.58824E-05-9.94421E-06 7.07835E-19-1.37898E-18
 -1      4021 9.30202E-05-2.58395E-05-2.87989E-05 1.70088E-06 2.18854E-19-9.80281E-19
 -1      4022 9.27257E-05-2.55447E-05-2.87924E-05 1.94281E-06-4.81992E-19-7.88300E-19
 -1      4023 9.21829E-05-2.51128E-05-2.87353E-05 1.70740E-06-6.17346E-20-1.32460E-18
 -1      4024 8.42505E-05-2.67694E-05-2.45410E-05-1.71026E-05 1.56972E-18-1.16376E-18
 -1      4025 8.42242E-05-2.58225E-05-2.50733E-05-1.53419E-05 1.07522E-18-1.40173E-18
 -1      4026 8.06544E-05-2.28349E-05-2.47527E-05-1.35579E-05 9.43823E-19-1.07421E-18
 -1      4027 7.98991E-05-2.50046E-05-2.34813E-05-1.82700E-05 1.54148E-18-8.03874E-19
 -1      4028 9.03309E-05-2.37359E-05-2.85546E-05 3.37459E-06-1.48050E-18-4.87466E-20
 -1      4029 8.98029E-05-2.33797E-05-2.84672E-05 3.78782E-06-1.35821E-18-5.11955E-19
 -1      4030 9.00975E-05-2.35431E-05-2.85089E-05 2.65976E-06-1.56455E-18-7.94711E-19
 -1      4031 9.52476E-05-2.85826E-05-2.85707E-05-6.18789E-09-1.55956E-18-1.03301E-18
 -1      4032 9.52463E-05-2.85818E-05-2.85705E-05-7.71545E-09-6.55940E-19-1.00931E-18
 -1      4033 9.52471E-05-2.85823E-05-2.85706E-05-8.41364E-09-7.48113E-19-1.83200E-18
 -1      4034 9.52493E-05-2.85837E-05-2.85710E-05-5.69041E-09-1.64057E-18-1.90295E-18
 -1      4035 7.43017E-05-2.08871E-05-2.29154E-05-1.47885E-05 1.09742E-18 3.05177E-19
 -1      4036 8.90266E-05-2.29692E-05-2.83281E-05 4.18229E-06-1.36479E-18-1.29596E-19
 -1      4037 8.84189E-05-2.26445E-05-2.81875E-05 4.68922E-06-9.26599E-19-3.96448E-19
 -1      4038 8.70026E-05-2.18176E-05-2.79129E-05 4.08569E-06-9.18864E-19-1.15025E-18
 -1      4039 9.52538E-05-2.85862E-05-2.85718E-05 3.64879E-09-1.52914E-18-3.08541E-20
 -1      4040 9.52523E-05-2.85854E-05-2.85715E-05 2.76866E-09-1.78658E-18 4.08634E-19
 -1      4041 9.52526E-05-2.85856E-05-2.85716E-05 6.93638E-10-1.92451E-18-8.09338E-19
 -1      4042 9.29340E-05-2.57789E-05-2.87737E-05 1.34552E-06 3.94473E-19-1.21776E-18
 -1      4043 7.14666E-05-1.82252E-05-2.27019E-05-1.16017E-05 9.03235E-19 8.91032E-19
 -1      4044 7.69183E-05-2.09457E-05-2.39192E-05-1.26796E-05 8.74902E-19-2.56439E-19
 -1      4045 7.74956E-05-2.03940E-05-2.45290E-05-1.07558E-05 7.24977E-19-4.43284E-19
 -1      4046 6.98330E-05-1.67561E-05-2.28237E-05-7.20663E-06 6.36152E-19 1.63195E-18
 -1      4047 9.52480E-05-2.85828E-05-2.85708E-05-9.10405E-09-7.48130E-19-2.04467E-18
 -1      4048 9.52502E-05-2.85841E-05-2.85712E-05-7.89184E-09-1.19939E-18-2.78053E-18
 -1      4049 8.03823E-05-2.19210E-05-2.50294E-05 1.24962E-05-1.07502E-18-1.03708E-18
 -1      4050 7.51461E-05-1.91900E-05-2.38519E-05 1.13150E-05-6.04765E-19-9.69788E-19
 -1      4051 7.39125E-05-1.78668E-05-2.40969E-05 7.37864E-06-7.52238E-20-1.17062E-18
 -1      4052 8.11049E-05-2.14462E-05-2.56460E-05 1.07612E-05-1.03688E-18-9.53453E-19
 -1      4053 8.36009E-05-2.13989E-05-2.67094E-05 8.30185E-06-8.18565E-19-1.07859E-18
 -1      4054 8.28031E-05-2.14881E-05-2.62623E-05 9.45511E-06-1.20851E-18-9.82434E-19
 -1      4055 7.94907E-05-1.97567E-05-2.55342E-05 8.51732E-06-9.21593E-19-2.07257E-18
 -1      4056 8.24799E-05-2.02884E-05-2.66099E-05 6.54045E-06-1.04907E-18-1.88633E-18
 -1      4057 8.86972E-05-2.26806E-05-2.82743E-05 3.28918E-06-1.22091E-18-9.84200E-19
 -1      4058 9.43493E-05-2.72765E-05-2.87490E-05 4.19430E-07-3.37745E-19-8.16141E-19
 -1      4059 9.41938E-05-2.70909E-05-2.87590E-05 5.00006E-07-4.46972E-19-8.28923E-19
 -1      4060 7.97056E-05-2.05295E-05-2.53251E-05-9.04874E-06 6.07905E-19-3.43393E-19
 -1      4061 8.07242E-05-2.04593E-05-2.58855E-05-7.59038E-06 4.54269E-19-4.35145E-19
 -1      4062 7.62906E-05-1.87884E-05-2.45661E-05-8.14690E-06 7.42989E-19 4.55073E-19
 -1      4063 9.11827E-05-2.43798E-05-2.86409E-05 1.49980E-06-4.29121E-19-1.56568E-18
 -1      4064 9.06602E-05-2.39754E-05-2.85843E-05 1.69780E-06-6.90149E-19-1.45214E-18
 -1      4065 8.46566E-05-2.11521E-05-2.72125E-05-4.63605E-06 3.95895E-19 2.07599E-19
 -1      4066 8.55358E-05-2.14344E-05-2.75008E-05-3.95716E-06 5.45481E-19 7.89072E-20
 -1      4067 8.66448E-05-2.18464E-05-2.77708E-05-3.47934E-06 3.02035E-19 1.62581E-20
 -1      4068 8.74131E-05-2.21923E-05-2.79720E-05-2.99090E-06 3.80638E-19-2.96358E-19
 -1      4069 8.53913E-05-2.10807E-05-2.75327E-05-2.65251E-06 3.50772E-19-3.92095E-19
 -1      4070 8.83199E-05-2.26259E-05-2.81566E-05-2.64923E-06 2.12917E-19-4.95574E-19
 -1      4071 8.89745E-05-2.30034E-05-2.82929E-05-2.29601E-06-1.73559E-19-7.08422E-19
 -1      4072 8.73872E-05-2.20071E-05-2.79938E-05-1.95866E-06 4.53605E-21-9.11333E-19
 -1      4073 8.97224E-05-2.34229E-05-2.84167E-05-2.02511E-06-8.41785E-19-9.11479E-19
 -1      4074 9.02887E-05-2.38074E-05-2.85053E-05-1.75106E-06-1.00049E-18-1.41781E-18
 -1      4075 8.89767E-05-2.28698E-05-2.83018E-05-1.43965E-06-6.47735E-19-1.45544E-18
 -1      4076 9.09024E-05-2.42151E-05-2.85838E-05-1.55803E-06-8.50910E-19-1.12197E-18
 -1      4077 9.13803E-05-2.45833E-05-2.86375E-05-1.34426E-06-8.11038E-19-1.16527E-18
 -1      4078 9.03381E-05-2.37587E-05-2.85074E-05-1.08417E-06-7.05134E-19-2.26758E-18
 -1      4079 9.18793E-05-2.49566E-05-2.86842E-05-1.19798E-06-1.06715E-18-1.17331E-18
 -1      4080 9.22736E-05-2.52940E-05-2.87133E-05-1.02823E-06-1.62856E-18-9.23003E-19
 -1      4081 9.14384E-05-2.45742E-05-2.86350E-05-8.19287E-07-9.55181E-19-1.81547E-18
 -1      4082 9.26767E-05-2.56273E-05-2.87379E-05-9.16413E-07-1.55635E-18-4.47218E-19
 -1      4083 9.29970E-05-2.59267E-05-2.87504E-05-7.80609E-07-7.74040E-19 4.41866E-19
 -1      4084 9.23326E-05-2.53085E-05-2.87083E-05-6.16786E-07-1.00252E-18-8.80609E-19
 -1      4085 9.33187E-05-2.62167E-05-2.87601E-05-6.95150E-07-6.64453E-19 8.44675E-19
 -1      4086 9.35746E-05-2.64751E-05-2.87615E-05-5.86613E-07-2.78150E-19 9.48647E-19
 -1      4087 9.30521E-05-2.59535E-05-2.87439E-05-4.61665E-07-1.48915E-19 1.31817E-19
 -1      4088 9.38278E-05-2.67213E-05-2.87616E-05-5.21500E-07-3.65547E-19 7.31229E-19
 -1      4089 9.40287E-05-2.69390E-05-2.87563E-05-4.35254E-07-2.50551E-19 6.87155E-19
 -1      4090 9.36233E-05-2.65068E-05-2.87546E-05-3.42749E-07-5.06269E-19-4.62838E-19
 -1      4091 9.42249E-05-2.71436E-05-2.87504E-05-3.85930E-07-6.52455E-19 6.52423E-19
 -1      4092 9.43799E-05-2.73230E-05-2.87413E-05-3.18008E-07-1.39271E-18 1.94819E-19
 -1      4093 9.40700E-05-2.69712E-05-2.87494E-05-2.51725E-07-8.01366E-19-4.15542E-19
 -1      4094 9.45293E-05-2.74896E-05-2.87323E-05-2.80957E-07-2.06269E-18 9.75160E-20
 -1      4095 9.46466E-05-2.76345E-05-2.87215E-05-2.28059E-07-1.74955E-18-8.23038E-19
 -1      4096 9.44138E-05-2.73530E-05-2.87350E-05-1.82344E-07-1.76150E-18-5.16121E-19
 -1      4097 9.47584E-05-2.77676E-05-2.87111E-05-2.00533E-07-9.21193E-19-5.05981E-19
 -1      4098 9.48454E-05-2.78824E-05-2.86999E-05-1.59865E-07-7.17428E-20-1.12296E-18
 -1      4099 9.46737E-05-2.76610E-05-2.87158E-05-1.29822E-07-8.36679E-19-4.46926E-19
 -1      4100 9.49274E-05-2.79868E-05-2.86893E-05-1.39692E-07 2.99393E-19-1.31085E-18
 -1      4101 9.49905E-05-2.80761E-05-2.86786E-05-1.08879E-07-8.83217E-20-6.53389E-19
 -1      4102 9.48666E-05-2.79050E-05-2.86950E-05-9.04342E-08-1.62201E-19 6.71869E-19
 -1      4103 9.50493E-05-2.81565E-05-2.86687E-05-9.43382E-08-1.07472E-18-6.64117E-19
 -1      4104 9.50939E-05-2.82247E-05-2.86589E-05-7.13694E-08-3.99480E-19-9.21793E-19
 -1      4105 9.50067E-05-2.80948E-05-2.86745E-05-6.12432E-08-4.22907E-19 2.50628E-19
 -1      4106 9.51349E-05-2.82855E-05-2.86499E-05-6.11005E-08 8.12338E-20-1.85521E-18
 -1      4107 9.51655E-05-2.83366E-05-2.86414E-05-4.42923E-08-8.74697E-20-2.25184E-18
 -1      4108 9.51059E-05-2.82398E-05-2.86556E-05-3.99213E-08-9.13025E-19-7.76089E-19
 -1      4109 9.51931E-05-2.83816E-05-2.86336E-05-3.72236E-08-1.39096E-19-3.02354E-18
 -1      4110 9.52133E-05-2.84191E-05-2.86264E-05-2.51839E-08 5.41449E-19-3.66286E-18
 -1      4111 9.51742E-05-2.83485E-05-2.86388E-05-2.46199E-08-5.29258E-19-2.10840E-18
 -1      4112 9.52310E-05-2.84517E-05-2.86198E-05-2.04779E-08 1.29040E-18-3.86345E-18
 -1      4113 9.52436E-05-2.84786E-05-2.86138E-05-1.20719E-08 1.36065E-18-3.43910E-18
 -1      4114 9.52195E-05-2.84283E-05-2.86243E-05-1.38751E-08 3.61929E-19-3.03425E-18
 -1      4115 9.52543E-05-2.85017E-05-2.86083E-05-9.08034E-09 1.14526E-18-3.31141E-18
 -1      4116 9.52615E-05-2.85204E-05-2.86034E-05-3.39641E-09 2.98084E-19-2.49498E-18
 -1      4117 9.52479E-05-2.84856E-05-2.86121E-05-6.53460E-09 1.33371E-18-4.24749E-18
 -1      4118 9.52672E-05-2.85362E-05-2.85990E-05-1.62353E-09-2.44869E-19-2.23303E-18
 -1      4119 9.52706E-05-2.85488E-05-2.85951E-05 2.05921E-09 5.94933E-19-1.93089E-18
 -1      4120 9.52643E-05-2.85256E-05-2.86022E-05-1.69875E-09 1.19344E-18-4.68276E-18
 -1      4121 9.52730E-05-2.85592E-05-2.85916E-05 2.98784E-09 1.97790E-19-1.46441E-18
 -1      4122 9.52740E-05-2.85674E-05-2.85886E-05 5.23064E-09-3.69073E-19-1.20385E-18
 -1      4123 9.52724E-05-2.85526E-05-2.85942E-05 1.32764E-09 9.04019E-19-3.76408E-18
 -1      4124 9.52742E-05-2.85738E-05-2.85858E-05 5.59340E-09-1.05682E-18-9.65136E-19
 -1      4125 9.52736E-05-2.85787E-05-2.85835E-05 6.82598E-09-9.64020E-19-1.21329E-18
 -1      4126 9.52750E-05-2.85700E-05-2.85879E-05 3.07528E-09 5.88188E-20-1.82396E-18
 -1      4127 9.52724E-05-2.85824E-05-2.85814E-05 6.82630E-09-9.57126E-19-1.73001E-18
 -1      4128 9.52709E-05-2.85851E-05-2.85796E-05 7.37185E-09-8.69860E-19-1.97512E-18
 -1      4129 9.52740E-05-2.85806E-05-2.85830E-05 3.94376E-09-1.21229E-18-8.10345E-19
 -1      4130 9.52690E-05-2.85869E-05-2.85780E-05 7.15543E-09-7.83857E-19-2.23661E-18
 -1      4131 9.52671E-05-2.85879E-05-2.85767E-05 7.25201E-09 1.66495E-19-2.15054E-18
 -1      4132 9.52710E-05-2.85863E-05-2.85793E-05 4.22949E-09-1.21079E-18-9.01949E-19
 -1      4133 9.52648E-05-2.85885E-05-2.85756E-05 6.92064E-09 6.84363E-19-2.93190E-18
 -1      4134 9.52627E-05-2.85886E-05-2.85746E-05 6.73975E-09 6.06031E-19-1.70306E-18
 -1      4135 9.52669E-05-2.85887E-05-2.85765E-05 4.14943E-09-1.68914E-19-1.91404E-18
 -1      4136 9.52604E-05-2.85883E-05-2.85738E-05 6.35141E-09 1.26667E-18-1.89811E-18
 -1      4137 9.52584E-05-2.85878E-05-2.85731E-05 6.02267E-09 1.01446E-18-1.24160E-18
 -1      4138 9.52625E-05-2.85890E-05-2.85744E-05 3.85849E-09 9.96143E-19-2.09836E-18
 -1      4139 9.52568E-05-2.85874E-05-2.85726E-05 5.22449E-09 4.85142E-19-8.49946E-19
 -1      4140 9.52553E-05-2.85868E-05-2.85722E-05 4.22621E-09-5.79056E-19-2.45415E-19
 -1      4141 9.52557E-05-2.85871E-05-2.85723E-05 1.83371E-09 1.62953E-19-2.12405E-18
 -1      4142 9.52587E-05-2.85882E-05-2.85731E-05 2.94476E-09 1.37435E-18-2.02876E-18
 -1      4143 8.23032E-05-2.06192E-05-2.64193E-05-6.30169E-06 6.27811E-19-2.38008E-19
 -1      4144 8.32771E-05-2.07822E-05-2.68245E-05-5.33711E-06 6.90099E-19 2.97690E-19
 -1      4145 8.29310E-05-2.01548E-05-2.68655E-05-3.65508E-06 3.91307E-19-4.96333E-19
 -1      4146 9.52513E-05-2.85848E-05-2.85713E-05-6.34017E-09-1.32318E-18-2.14332E-18
 -1      4147 9.39857E-05-2.68777E-05-2.87650E-05 5.60946E-07-2.62288E-19-1.03336E-18
 -1      4148 9.37818E-05-2.66514E-05-2.87713E-05 6.60198E-07-2.13513E-19-7.70554E-19
 -1      4149 9.40142E-05-2.68985E-05-2.87553E-05 3.75672E-07-6.53947E-19-6.86117E-19
 -1      4150 9.35129E-05-2.63936E-05-2.87710E-05 7.35680E-07-3.75225E-20-1.13205E-18
 -1      4151 9.32496E-05-2.61228E-05-2.87704E-05 8.55826E-07 5.48564E-19-1.08096E-18
 -1      4152 9.35471E-05-2.64142E-05-2.87599E-05 4.90608E-07-3.05797E-19-5.97371E-19
 -1      4153 9.46246E-05-2.75990E-05-2.87280E-05 3.06894E-07-6.83636E-19-2.24088E-19
 -1      4154 9.45079E-05-2.74496E-05-2.87397E-05 3.71142E-07-2.72303E-19-3.80169E-19
 -1      4155 9.43728E-05-2.72961E-05-2.87408E-05 2.81740E-07-5.72668E-19-2.29557E-19
 -1      4156 9.48293E-05-2.78552E-05-2.87053E-05 2.19067E-07-9.26356E-19 8.52792E-19
 -1      4157 9.47434E-05-2.77370E-05-2.87172E-05 2.69365E-07-1.03790E-18 1.50458E-19
 -1      4158 9.46436E-05-2.76167E-05-2.87212E-05 2.06555E-07-8.70083E-19 3.92357E-20
 -1      4159 9.49786E-05-2.80552E-05-2.86830E-05 1.51831E-07-7.24121E-19 6.07075E-19
 -1      4160 9.49167E-05-2.79633E-05-2.86943E-05 1.90479E-07-4.03178E-19 7.27916E-19
 -1      4161 9.48446E-05-2.78707E-05-2.86998E-05 1.47601E-07-7.66444E-19 4.13613E-19
 -1      4162 9.50851E-05-2.82087E-05-2.86624E-05 1.01387E-07-8.29782E-19 6.65772E-19
 -1      4163 9.50415E-05-2.81385E-05-2.86726E-05 1.30512E-07-1.12846E-18 3.82214E-19
 -1      4164 9.49908E-05-2.80685E-05-2.86787E-05 1.02322E-07-9.26266E-19 7.20226E-20
 -1      4165 9.51589E-05-2.83244E-05-2.86442E-05 6.43569E-08-6.03394E-19 1.07409E-18
 -1      4166 9.51292E-05-2.82718E-05-2.86531E-05 8.58528E-08-8.45072E-19 7.40229E-19
 -1      4167 9.50946E-05-2.82198E-05-2.86590E-05 6.82793E-08-9.97046E-19-1.97286E-19
 -1      4168 9.52084E-05-2.84099E-05-2.86285E-05 3.78271E-08-1.58826E-19 1.76460E-18
 -1      4169 9.51889E-05-2.83712E-05-2.86360E-05 5.33309E-08-5.95302E-20 2.06837E-18
 -1      4170 9.51663E-05-2.83335E-05-2.86416E-05 4.32574E-08-9.74565E-19 1.92547E-18
 -1      4171 9.52401E-05-2.84718E-05-2.86154E-05 1.93547E-08-7.01658E-19 1.85886E-18
 -1      4172 9.52280E-05-2.84439E-05-2.86216E-05 3.02424E-08-2.22383E-19 1.60492E-18
 -1      4173 9.52140E-05-2.84172E-05-2.86266E-05 2.53223E-08-3.34918E-19 3.06483E-18
 -1      4174 9.52589E-05-2.85154E-05-2.86046E-05 6.93990E-09-9.30810E-19 1.37483E-18
 -1      4175 9.52521E-05-2.84959E-05-2.86097E-05 1.43409E-08-9.17011E-19 1.19548E-18
 -1      4176 9.52442E-05-2.84775E-05-2.86139E-05 1.28376E-08-1.98681E-19 2.01827E-18
 -1      4177 9.52689E-05-2.85452E-05-2.85960E-05-1.01857E-09-1.74720E-19 1.32522E-18
 -1      4178 9.52656E-05-2.85320E-05-2.86000E-05 3.80313E-09-5.51384E-19 1.22235E-18
 -1      4179 9.52620E-05-2.85199E-05-2.86036E-05 4.45584E-09-4.12770E-19 1.19471E-18
 -1      4180 9.52728E-05-2.85648E-05-2.85892E-05-5.77670E-09 1.17853E-18 5.69809E-19
 -1      4181 9.52719E-05-2.85562E-05-2.85923E-05-2.82009E-09 4.57637E-19 3.10113E-19
 -1      4182 9.52710E-05-2.85486E-05-2.85953E-05-9.06140E-10 3.96261E-19-2.22814E-20
 -1      4183 9.52728E-05-2.85770E-05-2.85839E-05-8.29989E-09 1.38252E-18 9.58537E-20
 -1      4184 9.52734E-05-2.85718E-05-2.85864E-05-6.65708E-09 1.39403E-18 7.45611E-20
 -1      4185 9.52743E-05-2.85674E-05-2.85887E-05-4.09972E-09 1.49435E-18-1.55460E-18
 -1      4186 9.52705E-05-2.85839E-05-2.85799E-05-9.31516E-09 7.02339E-19-4.12105E-19
 -1      4187 9.52719E-05-2.85810E-05-2.85818E-05-8.56906E-09 8.03599E-19 2.89351E-19
 -1      4188 9.52738E-05-2.85789E-05-2.85836E-05-5.78027E-09 1.20915E-18-8.27672E-19
 -1      4189 9.52668E-05-2.85872E-05-2.85770E-05-9.35818E-09-5.53457E-19 1.72315E-18
 -1      4190 9.52688E-05-2.85859E-05-2.85783E-05-9.20000E-09 3.76808E-19 7.77442E-19
 -1      4191 9.52711E-05-2.85853E-05-2.85797E-05-6.44182E-09 2.03124E-19 1.03119E-18
 -1      4192 9.52627E-05-2.85882E-05-2.85748E-05-8.81338E-09-9.32938E-19 1.90786E-19
 -1      4193 9.52647E-05-2.85879E-05-2.85757E-05-9.02067E-09-4.13387E-19 7.52385E-19
 -1      4194 9.52672E-05-2.85882E-05-2.85768E-05-6.44926E-09-1.28414E-20 2.01840E-18
 -1      4195 9.52584E-05-2.85876E-05-2.85732E-05-7.94497E-09-1.41663E-18-3.04143E-19
 -1      4196 9.52604E-05-2.85880E-05-2.85739E-05-8.36196E-09-1.16079E-18-4.19833E-19
 -1      4197 9.52628E-05-2.85888E-05-2.85747E-05-6.06565E-09-2.93279E-19 4.12948E-19
 -1      4198 9.52544E-05-2.85862E-05-2.85720E-05-6.90752E-09-7.20172E-19-1.91206E-18
 -1      4199 9.52562E-05-2.85870E-05-2.85725E-05-7.44705E-09-1.30862E-18-1.15834E-18
 -1      4200 9.52584E-05-2.85880E-05-2.85731E-05-5.48634E-09-7.00069E-19-1.51759E-18
 -1      4201 8.45312E-05-2.06763E-05-2.73952E-05 3.44719E-06-9.59472E-19-1.57152E-18
 -1      4202 8.33693E-05-2.02433E-05-2.70647E-05 3.97299E-06-1.28369E-18-1.52753E-18
 -1      4203 8.67507E-05-2.16573E-05-2.79185E-05 2.77851E-06-9.87888E-19-1.01144E-18
 -1      4204 8.58027E-05-2.12003E-05-2.76942E-05 3.16008E-06-8.36164E-19-1.26981E-18
 -1      4205 8.45696E-05-2.05138E-05-2.74258E-05 2.02534E-06-9.27113E-19-1.45799E-18
 -1      4206 8.99942E-05-2.35283E-05-2.84993E-05 1.85344E-06-1.27739E-18-1.54524E-18
 -1      4207 8.93559E-05-2.30938E-05-2.84044E-05 2.08915E-06-1.55487E-18-1.37831E-18
 -1      4208 9.00550E-05-2.35076E-05-2.84900E-05 1.18328E-06-8.19738E-19-2.73998E-18
 -1      4209 9.52520E-05-2.85853E-05-2.85714E-05-3.21244E-09-9.58098E-19-1.56194E-18
 -1      4210 9.52531E-05-2.85858E-05-2.85717E-05-5.50100E-09-8.07720E-19-1.53075E-18
 -1      4211 9.52551E-05-2.85868E-05-2.85721E-05-3.74128E-09-7.68320E-19-7.94142E-19
 -1      4212 9.52523E-05-2.85855E-05-2.85715E-05-1.14633E-09-1.64485E-18-1.36428E-18
 -1      4213 7.16835E-05-1.63630E-05-2.37765E-05 1.10003E-06-5.40546E-20 1.36742E-18
 -1      4214 7.01137E-05-1.57806E-05-2.31405E-05-3.13250E-06 3.88302E-19 2.62403E-18
 -1      4215 7.33518E-05-1.74160E-05-2.39601E-05-5.77690E-06 4.82092E-19 1.60908E-18
 -1      4216 9.21409E-05-2.51453E-05-2.87212E-05 1.20085E-06 3.42935E-19-1.79746E-18
 -1      4217 9.17199E-05-2.47824E-05-2.86912E-05 1.36944E-06 1.60783E-20-1.72205E-18
 -1      4218 9.12380E-05-2.43795E-05-2.86288E-05 9.75252E-07-3.44383E-19-2.30479E-18
 -1      4219 9.29071E-05-2.58172E-05-2.87599E-05 9.47678E-07 4.08746E-19-1.34700E-18
 -1      4220 9.25720E-05-2.55000E-05-2.87477E-05 1.09083E-06 2.33821E-19-1.56643E-18
 -1      4221 9.21886E-05-2.51572E-05-2.87084E-05 7.89834E-07 1.41241E-21-1.74102E-18
 -1      4222 9.29477E-05-2.58353E-05-2.87476E-05 6.28314E-07 2.13032E-19-1.08412E-18
 -1      4223 8.85344E-05-2.26081E-05-2.82709E-05 2.27949E-06-1.45668E-18-1.57978E-18
 -1      4224 8.77706E-05-2.21598E-05-2.81219E-05 2.57870E-06-1.17275E-18-1.78203E-18
 -1      4225 8.85824E-05-2.25645E-05-2.82666E-05 1.40747E-06-1.60053E-18-2.47938E-18
 -1      4226 7.99838E-05-1.93949E-05-2.59211E-05-5.44120E-06 6.76163E-19-4.60678E-20
 -1      4227 8.68344E-05-2.16041E-05-2.79323E-05 1.66599E-06-1.05157E-18-1.88418E-18
 -1      4228 9.52541E-05-2.85864E-05-2.85719E-05-4.70298E-10-8.21115E-19-1.21780E-18
 -1      4229 8.17934E-05-1.93912E-05-2.67043E-05 2.44971E-06-1.05605E-18-4.84599E-19
 -1      4230 8.18092E-05-1.97277E-05-2.66484E-05 4.31473E-06-1.36995E-18-1.35263E-18
 -1      4231 8.04129E-05-1.93276E-05-2.61919E-05 4.97366E-06-9.98900E-19-1.70389E-18
 -1      4232 7.67313E-05-1.85094E-05-2.49719E-05 6.68687E-06-6.15986E-19-1.38514E-18
 -1      4233 7.37314E-05-1.68732E-05-2.42525E-05 4.15039E-06-2.29514E-19-3.11082E-19
 -1      4234 7.46084E-05-1.71422E-05-2.46651E-05 9.78674E-07-5.37236E-19 1.16712E-18
 -1      4235 7.84772E-05-1.88400E-05-2.56233E-05 5.64942E-06-6.28943E-19-1.60397E-18
 -1      4236 8.16039E-05-1.95179E-05-2.66178E-05-2.21629E-06 1.46337E-19 5.71540E-21
 -1      4237 8.29919E-05-2.00288E-05-2.70159E-05-1.74309E-06-2.31518E-19-4.33158E-19
 -1      4238 8.66212E-05-2.15940E-05-2.78791E-05-1.06647E-06-2.32938E-19-1.31216E-18
 -1      4239 8.74964E-05-2.20176E-05-2.80625E-05-8.48900E-07-4.42359E-19-1.64547E-18
 -1      4240 8.86017E-05-2.26831E-05-2.82684E-05-1.29839E-07-8.34600E-19-2.53390E-18
 -1      4241 8.93626E-05-2.31554E-05-2.83942E-05-3.76128E-10-7.48372E-19-2.82687E-18
 -1      4242 9.00375E-05-2.36192E-05-2.84858E-05-5.73422E-08-4.63001E-19-2.63068E-18
 -1      4243 9.06599E-05-2.40444E-05-2.85661E-05 4.83543E-08-3.34087E-19-2.57888E-18
 -1      4244 9.12105E-05-2.44662E-05-2.86219E-05-8.83341E-09-4.19626E-19-2.25561E-18
 -1      4245 9.17187E-05-2.48513E-05-2.86702E-05 7.16511E-08-6.19140E-19-2.13146E-18
 -1      4246 9.21619E-05-2.52249E-05-2.87009E-05 1.72260E-08-5.52067E-19-1.42233E-18
 -1      4247 9.25721E-05-2.55654E-05-2.87268E-05 7.77799E-08-3.65627E-19-1.30167E-18
 -1      4248 9.29249E-05-2.58887E-05-2.87404E-05 2.83478E-08-1.34228E-19-7.86552E-19
 -1      4249 9.32517E-05-2.61827E-05-2.87511E-05 7.39651E-08 1.87616E-19-9.25776E-19
 -1      4250 9.35289E-05-2.64566E-05-2.87535E-05 3.06029E-08-1.94734E-19-6.28904E-19
 -1      4251 9.37858E-05-2.67048E-05-2.87543E-05 6.50609E-08-7.85710E-19-6.98305E-19
 -1      4252 9.40006E-05-2.69323E-05-2.87498E-05 2.81348E-08-8.55224E-19-5.86038E-19
 -1      4253 9.41993E-05-2.71376E-05-2.87445E-05 5.41906E-08-6.81529E-19-6.52332E-19
 -1      4254 9.43632E-05-2.73231E-05-2.87362E-05 2.35690E-08-1.19980E-18-5.38944E-19
 -1      4255 9.45144E-05-2.74896E-05-2.87276E-05 4.32427E-08-9.94746E-19 6.82832E-21
 -1      4256 9.46374E-05-2.76381E-05-2.87175E-05 1.84603E-08-5.09284E-19-1.01928E-19
 -1      4257 9.47504E-05-2.77708E-05-2.87074E-05 3.32545E-08-2.64079E-20 4.78263E-19
 -1      4258 9.48410E-05-2.78877E-05-2.86969E-05 1.36513E-08-3.59651E-19 5.70619E-19
 -1      4259 9.49237E-05-2.79915E-05-2.86865E-05 2.47015E-08-6.63790E-19 6.50290E-19
 -1      4260 9.49891E-05-2.80818E-05-2.86764E-05 9.53371E-09-8.16488E-19 1.69816E-19
 -1      4261 9.50483E-05-2.81616E-05-2.86666E-05 1.77103E-08-7.47646E-19-2.27502E-19
 -1      4262 9.50942E-05-2.82302E-05-2.86573E-05 6.23010E-09-1.23452E-18-1.52865E-19
 -1      4263 9.51355E-05-2.82904E-05-2.86484E-05 1.22070E-08-1.22857E-18-3.51914E-19
 -1      4264 9.51668E-05-2.83415E-05-2.86403E-05 3.71405E-09-1.11659E-18 2.95010E-19
 -1      4265 9.51945E-05-2.83860E-05-2.86325E-05 8.01621E-09-5.16803E-19-5.66329E-21
 -1      4266 9.52150E-05-2.84233E-05-2.86256E-05 1.88694E-09 5.20883E-20-1.99791E-19
 -1      4267 9.52329E-05-2.84555E-05-2.86190E-05 4.92432E-09 8.17017E-19-2.07996E-19
 -1      4268 9.52455E-05-2.84821E-05-2.86132E-05 6.24107E-10 4.63842E-19-8.42377E-19
 -1      4269 9.52562E-05-2.85048E-05-2.86078E-05 2.71634E-09 4.68995E-19-1.74769E-18
 -1      4270 9.52633E-05-2.85232E-05-2.86031E-05-1.99116E-10 7.87350E-19-2.31793E-18
 -1      4271 9.52690E-05-2.85388E-05-2.85987E-05 1.19605E-09 6.56203E-19-2.07269E-18
 -1      4272 9.52724E-05-2.85510E-05-2.85949E-05-6.94322E-10 1.23941E-18-2.95854E-18
 -1      4273 9.52747E-05-2.85613E-05-2.85914E-05 1.94980E-10 1.72100E-18-2.94848E-18
 -1      4274 9.52755E-05-2.85691E-05-2.85885E-05-9.54758E-10 1.26359E-18-3.05303E-18
 -1      4275 9.52756E-05-2.85754E-05-2.85857E-05-4.25370E-10 3.75487E-19-1.75273E-18
 -1      4276 9.52749E-05-2.85800E-05-2.85835E-05-1.05457E-09 1.91156E-20-9.06792E-19
 -1      4277 9.52737E-05-2.85836E-05-2.85814E-05-7.74924E-10-4.22961E-19-4.26427E-20
 -1      4278 9.52720E-05-2.85860E-05-2.85796E-05-1.05047E-09-6.25037E-19 5.21738E-19
 -1      4279 9.52700E-05-2.85877E-05-2.85780E-05-9.38307E-10-5.56407E-19 1.09520E-18
 -1      4280 9.52679E-05-2.85886E-05-2.85768E-05-9.84847E-10-1.10354E-18 1.70269E-18
 -1      4281 9.52656E-05-2.85891E-05-2.85756E-05-9.78893E-10 9.80614E-20 9.14855E-19
 -1      4282 9.52634E-05-2.85890E-05-2.85746E-05-8.88517E-10 5.49906E-19 5.38537E-19
 -1      4283 9.52610E-05-2.85887E-05-2.85738E-05-9.29582E-10 7.39460E-19-6.92717E-20
 -1      4284 9.52587E-05-2.85881E-05-2.85731E-05-8.23931E-10 1.94563E-19-1.06350E-18
 -1      4285 7.79289E-05-1.84782E-05-2.54807E-05-3.76107E-06 3.26987E-19 5.97422E-19
 -1      4286 7.95558E-05-1.88795E-05-2.60527E-05-2.69968E-06 5.44560E-19 6.93118E-19
 -1      4287 7.55987E-05-1.79246E-05-2.47912E-05-4.53136E-06 3.91389E-19 1.17107E-18
 -1      4288 8.43971E-05-2.05751E-05-2.73636E-05-1.54020E-06-2.84625E-20-8.61111E-19
 -1      4289 8.55203E-05-2.10709E-05-2.76415E-05-1.21006E-06 2.20208E-19-9.63150E-19
 -1      4290 8.59011E-05-2.11258E-05-2.77399E-05-3.10242E-08-2.06246E-19-1.64195E-18
 -1      4291 8.34575E-05-2.00145E-05-2.71566E-05-2.03665E-07-1.84776E-19-4.53993E-19
 -1      4292 7.57868E-05-1.73246E-05-2.49712E-05-1.52736E-06-3.26178E-19 1.77756E-18
 -1      4293 8.72867E-05-2.18945E-05-2.80421E-05 7.74567E-07-1.34893E-18-2.17005E-18
 -1      4294 8.63071E-05-2.13681E-05-2.78448E-05 8.82975E-07-5.22640E-19-1.69325E-18
 -1      4295 9.52571E-05-2.85876E-05-2.85727E-05 5.75486E-10 2.92117E-20-1.38200E-18
 -1      4296 8.01114E-05-1.87582E-05-2.62508E-05-6.40770E-07-1.72181E-19 6.73722E-19
 -1      4297 8.77831E-05-2.21895E-05-2.81261E-05-1.05490E-07-1.04416E-18-2.02739E-18
 -1      4298 8.25582E-05-1.97097E-05-2.69523E-05 1.01911E-06-5.68132E-19-2.36363E-19
 -1      4299 8.09925E-05-1.91339E-05-2.65368E-05 1.12509E-06-4.38441E-19 8.39018E-20
 -1      4300 8.52229E-05-2.08377E-05-2.76052E-05 9.01854E-07-1.60882E-19-1.37637E-18
 -1      4301 7.83707E-05-1.82352E-05-2.57072E-05 3.20267E-06-7.23684E-19-3.59989E-20
 -1      4302 8.39594E-05-2.02849E-05-2.73044E-05 1.01670E-06-5.30605E-19-9.95478E-19
 -1      4303 7.69409E-05-1.78358E-05-2.53712E-05 1.29255E-06-6.75672E-19 7.30664E-19
 -1      4304 7.89333E-05-1.84235E-05-2.59601E-05 9.31993E-07-5.50069E-19 7.30393E-19
 -1      4305 9.52556E-05-2.85870E-05-2.85722E-05 1.83547E-11 2.68472E-19-1.57522E-18
 -3
    1PSTEP                         4           1           1          
  100CL  101 1.000000000        4305                     0    1           1
 -4  ERROR       1    1
 -5  STR(%)      1    1    0    0
 -1         1 1.20317E+01
 -1         2 2.81531E+01
 -1         3 8.30010E-05
 -1         4 9.42110E-05
 -1         5 1.25280E+01
 -1         6 1.28381E+01
 -1         7 1.28381E+01
 -1         8 4.43728E+00
 -1         9 2.93531E+00
 -1        10 2.78839E+00
 -1        11 3.24334E+00
 -1        12 3.66579E+00
 -1        13 3.66579E+00
 -1        14 3.42245E+00
 -1        15 2.72594E+00
 -1        16 3.86193E+00
 -1        17 3.93663E+00
 -1        18 3.93663E+00
 -1        19 3.54301E+00
 -1        20 3.44759E+00
 -1        21 4.57044E+00
 -1        22 8.70850E+00
 -1        23 1.28381E+01
 -1        24 2.86860E+00
 -1        25 2.00545E+00
 -1        26 2.02223E+00
 -1        27 2.93299E+00
 -1        28 3.68645E+00
 -1        29 3.71234E+00
 -1        30 3.71234E+00
 -1        31 3.64956E+00
 -1        32 2.98568E+00
 -1        33 1.77148E+00
 -1        34 1.28625E+00
 -1        35 1.05988E+00
 -1        36 1.05988E+00
 -1        37 1.05056E+00
 -1        38 1.01958E+00
 -1        39 8.83443E-01
 -1        40 7.08970E-01
 -1        41 5.66533E-01
 -1        42 4.49158E-01
 -1        43 3.85720E-01
 -1        44 3.17765E-01
 -1        45 2.53001E-01
 -1        46 1.95504E-01
 -1        47 1.46914E-01
 -1        48 1.07362E-01
 -1        49 8.88291E-02
 -1        50 7.32335E-02
 -1        51 5.90097E-02
 -1        52 4.65712E-02
 -1        53 3.60371E-02
 -1        54 2.73459E-02
 -1        55 2.07230E-02
 -1        56 1.71871E-02
 -1        57 1.39493E-02
 -1        58 1.11006E-02
 -1        59 8.67019E-03
 -1        60 6.72521E-03
 -1        61 5.22353E-03
 -1        62 3.97961E-03
 -1        63 2.96884E-03
 -1        64 2.16382E-03
 -1        65 1.78769E-03
 -1        66 1.45425E-03
 -1        67 1.16411E-03
 -1        68 9.09776E-04
 -1        69 6.85898E-04
 -1        70 6.06569E-04
 -1        71 3.77682E-04
 -1        72 1.25280E+01
 -1        73 2.06910E+00
 -1        74 1.41546E+00
 -1        75 1.90710E+00
 -1        76 2.32728E+00
 -1        77 3.35504E+00
 -1        78 3.85621E+00
 -1        79 4.24419E+00
 -1        80 4.24419E+00
 -1        81 3.64208E+00
 -1        82 2.17144E+00
 -1        83 1.33961E+00
 -1        84 1.16727E+00
 -1        85 1.37225E+00
 -1        86 1.37225E+00
 -1        87 1.33117E+00
 -1        88 1.16419E+00
 -1        89 9.78007E-01
 -1        90 7.98156E-01
 -1        91 6.23775E-01
 -1        92 4.69548E-01
 -1        93 3.46018E-01
 -1        94 2.69753E-01
 -1        95 2.04974E-01
 -1        96 1.51978E-01
 -1        97 1.09887E-01
 -1        98 7.72823E-02
 -1        99 5.25965E-02
 -1       100 4.31264E-02
 -1       101 3.54068E-02
 -1       102 2.84832E-02
 -1       103 2.24860E-02
 -1       104 1.79458E-02
 -1       105 1.57485E-02
 -1       106 1.34182E-02
 -1       107 1.11573E-02
 -1       108 9.08297E-03
 -1       109 7.27372E-03
 -1       110 5.86830E-03
 -1       111 4.64596E-03
 -1       112 3.61068E-03
 -1       113 2.75198E-03
 -1       114 2.05094E-03
 -1       115 1.48437E-03
 -1       116 1.15943E-03
 -1       117 9.06229E-04
 -1       118 6.72434E-04
 -1       119 4.30438E-04
 -1       120 2.89061E-04
 -1       121 1.24192E-04
 -1       122 1.24192E-04
 -1       123 1.11016E-04
 -1       124 6.12042E-05
 -1       125 5.33806E-05
 -1       126 9.14157E-05
 -1       127 1.14464E-04
 -1       128 1.21214E-04
 -1       129 1.21214E-04
 -1       130 1.14176E-04
 -1       131 9.01554E-05
 -1       132 5.31757E-05
 -1       133 6.24890E-05
 -1       134 1.10578E-04
 -1       135 1.65121E-04
 -1       136 1.78638E-04
 -1       137 2.81531E+01
 -1       138 4.60438E+01
 -1       139 4.60438E+01
 -1       140 1.83064E+01
 -1       141 1.20377E+01
 -1       142 1.20377E+01
 -1       143 1.18123E+01
 -1       144 1.21635E+01
 -1       145 1.21635E+01
 -1       146 1.24401E+01
 -1       147 2.92706E+01
 -1       148 3.01309E+01
 -1       149 2.82615E+01
 -1       150 2.82015E+01
 -1       151 2.82015E+01
 -1       152 2.76224E+01
 -1       153 4.01308E+01
 -1       154 4.01308E+01
 -1       155 1.59388E+01
 -1       156 1.23351E+01
 -1       157 1.23351E+01
 -1       158 1.25259E+01
 -1       159 1.25259E+01
 -1       160 1.63421E+01
 -1       161 4.40739E+01
 -1       162 4.40739E+01
 -1       163 2.69598E+01
 -1       164 6.88635E+00
 -1       165 3.30065E+00
 -1       166 2.76124E+00
 -1       167 2.96831E+00
 -1       168 3.71965E+00
 -1       169 4.27088E+00
 -1       170 4.27088E+00
 -1       171 3.62701E+00
 -1       172 4.13938E+00
 -1       173 4.55028E+00
 -1       174 4.55028E+00
 -1       175 3.84100E+00
 -1       176 3.30917E+00
 -1       177 3.66543E+00
 -1       178 4.64892E+00
 -1       179 1.25280E+01
 -1       180 3.11721E+00
 -1       181 2.14189E+00
 -1       182 1.60473E+00
 -1       183 2.12035E+00
 -1       184 2.93299E+00
 -1       185 3.68645E+00
 -1       186 3.71234E+00
 -1       187 3.64956E+00
 -1       188 2.98568E+00
 -1       189 1.92368E+00
 -1       190 1.28625E+00
 -1       191 1.03978E+00
 -1       192 1.05988E+00
 -1       193 1.05056E+00
 -1       194 1.01958E+00
 -1       195 8.83443E-01
 -1       196 7.30394E-01
 -1       197 6.22584E-01
 -1       198 5.26992E-01
 -1       199 4.23868E-01
 -1       200 3.26371E-01
 -1       201 2.53001E-01
 -1       202 1.97336E-01
 -1       203 1.53649E-01
 -1       204 1.16628E-01
 -1       205 8.88291E-02
 -1       206 7.32335E-02
 -1       207 5.90097E-02
 -1       208 4.65712E-02
 -1       209 3.60371E-02
 -1       210 2.74031E-02
 -1       211 2.14719E-02
 -1       212 1.71871E-02
 -1       213 1.39493E-02
 -1       214 1.11006E-02
 -1       215 8.89659E-03
 -1       216 7.08748E-03
 -1       217 5.69591E-03
 -1       218 4.56691E-03
 -1       219 3.58696E-03
 -1       220 2.75766E-03
 -1       221 2.06999E-03
 -1       222 1.50942E-03
 -1       223 1.16411E-03
 -1       224 9.09776E-04
 -1       225 6.85898E-04
 -1       226 6.06569E-04
 -1       227 3.77682E-04
 -1       228 2.31684E+00
 -1       229 1.60375E+00
 -1       230 1.41546E+00
 -1       231 1.90710E+00
 -1       232 2.35742E+00
 -1       233 3.35504E+00
 -1       234 3.85621E+00
 -1       235 4.24419E+00
 -1       236 3.64208E+00
 -1       237 2.17144E+00
 -1       238 1.33961E+00
 -1       239 1.07794E+00
 -1       240 1.16820E+00
 -1       241 1.37225E+00
 -1       242 1.33117E+00
 -1       243 1.16419E+00
 -1       244 9.78007E-01
 -1       245 8.09355E-01
 -1       246 6.51374E-01
 -1       247 5.04535E-01
 -1       248 3.77683E-01
 -1       249 2.74912E-01
 -1       250 2.04974E-01
 -1       251 1.51978E-01
 -1       252 1.11209E-01
 -1       253 8.03645E-02
 -1       254 5.65458E-02
 -1       255 4.31264E-02
 -1       256 3.54068E-02
 -1       257 2.84832E-02
 -1       258 2.24860E-02
 -1       259 1.79458E-02
 -1       260 1.57485E-02
 -1       261 1.34182E-02
 -1       262 1.11573E-02
 -1       263 9.08297E-03
 -1       264 7.27372E-03
 -1       265 5.86830E-03
 -1       266 4.64596E-03
 -1       267 3.65956E-03
 -1       268 2.83974E-03
 -1       269 2.15660E-03
 -1       270 1.59590E-03
 -1       271 1.15943E-03
 -1       272 9.06229E-04
 -1       273 6.72434E-04
 -1       274 4.47068E-04
 -1       275 2.89061E-04
 -1       276 1.73702E-04
 -1       277 1.74734E-04
 -1       278 1.74734E-04
 -1       279 9.23878E-05
 -1       280 1.64598E-04
 -1       281 2.12328E-04
 -1       282 2.31800E-04
 -1       283 2.31800E-04
 -1       284 2.31702E-04
 -1       285 2.10982E-04
 -1       286 1.65015E-04
 -1       287 9.38250E-05
 -1       288 1.75983E-04
 -1       289 1.75983E-04
 -1       290 2.24659E-04
 -1       291 3.42031E+01
 -1       292 3.87095E+01
 -1       293 4.60438E+01
 -1       294 1.96786E+01
 -1       295 1.08031E+01
 -1       296 1.20377E+01
 -1       297 1.18123E+01
 -1       298 1.14490E+01
 -1       299 1.21635E+01
 -1       300 1.13298E+01
 -1       301 1.24401E+01
 -1       302 3.01309E+01
 -1       303 3.52631E+01
 -1       304 3.52631E+01
 -1       305 3.43613E+01
 -1       306 3.43613E+01
 -1       307 3.56990E+01
 -1       308 4.01308E+01
 -1       309 1.59388E+01
 -1       310 1.09387E+01
 -1       311 1.23351E+01
 -1       312 1.20317E+01
 -1       313 1.16179E+01
 -1       314 1.25259E+01
 -1       315 1.10216E+01
 -1       316 1.70447E+01
 -1       317 4.40739E+01
 -1       318 3.69870E+01
 -1       319 3.42031E+01
 -1       320 2.33979E+00
 -1       321 3.11721E+00
 -1       322 3.53895E+00
 -1       323 4.58581E+00
 -1       324 5.39919E+00
 -1       325 5.39919E+00
 -1       326 5.18465E+00
 -1       327 5.69447E+00
 -1       328 5.69447E+00
 -1       329 4.68545E+00
 -1       330 3.47633E+00
 -1       331 2.75330E+00
 -1       332 2.54958E+00
 -1       333 2.18515E+00
 -1       334 1.60375E+00
 -1       335 1.49523E+00
 -1       336 1.53208E+00
 -1       337 1.96550E+00
 -1       338 2.36220E+00
 -1       339 2.43603E+00
 -1       340 2.21103E+00
 -1       341 2.20437E+00
 -1       342 1.76721E+00
 -1       343 1.32754E+00
 -1       344 8.13065E-01
 -1       345 6.66426E-01
 -1       346 6.28725E-01
 -1       347 7.77569E-01
 -1       348 7.87470E-01
 -1       349 7.15504E-01
 -1       350 6.40029E-01
 -1       351 5.69887E-01
 -1       352 4.82791E-01
 -1       353 3.91578E-01
 -1       354 3.06052E-01
 -1       355 2.31274E-01
 -1       356 1.69083E-01
 -1       357 1.19348E-01
 -1       358 8.63260E-02
 -1       359 6.22245E-02
 -1       360 4.53287E-02
 -1       361 3.69302E-02
 -1       362 3.05179E-02
 -1       363 2.46812E-02
 -1       364 1.95689E-02
 -1       365 1.52236E-02
 -1       366 1.21474E-02
 -1       367 1.03250E-02
 -1       368 8.56210E-03
 -1       369 6.95477E-03
 -1       370 5.70896E-03
 -1       371 4.60548E-03
 -1       372 3.68062E-03
 -1       373 2.95312E-03
 -1       374 2.31540E-03
 -1       375 1.77123E-03
 -1       376 1.31760E-03
 -1       377 9.48275E-04
 -1       378 6.80160E-04
 -1       379 4.99929E-04
 -1       380 3.29296E-04
 -1       381 1.25171E+00
 -1       382 1.81048E+00
 -1       383 2.26001E+00
 -1       384 2.26182E+00
 -1       385 2.17530E+00
 -1       386 2.29498E+00
 -1       387 2.27322E+00
 -1       388 1.58207E+00
 -1       389 8.45266E-01
 -1       390 7.28810E-01
 -1       391 9.20857E-01
 -1       392 9.90720E-01
 -1       393 1.02430E+00
 -1       394 9.57449E-01
 -1       395 8.57189E-01
 -1       396 7.42159E-01
 -1       397 6.11259E-01
 -1       398 4.83886E-01
 -1       399 3.70377E-01
 -1       400 2.74912E-01
 -1       401 1.98681E-01
 -1       402 1.50264E-01
 -1       403 1.11209E-01
 -1       404 8.03645E-02
 -1       405 5.65458E-02
 -1       406 3.85372E-02
 -1       407 2.73664E-02
 -1       408 2.35241E-02
 -1       409 1.97037E-02
 -1       410 1.61394E-02
 -1       411 1.29566E-02
 -1       412 1.02066E-02
 -1       413 8.74849E-03
 -1       414 7.40247E-03
 -1       415 6.11462E-03
 -1       416 5.02395E-03
 -1       417 4.09561E-03
 -1       418 3.30381E-03
 -1       419 2.61134E-03
 -1       420 2.02087E-03
 -1       421 1.52703E-03
 -1       422 1.12022E-03
 -1       423 8.37155E-04
 -1       424 6.38885E-04
 -1       425 4.47068E-04
 -1       426 2.58563E-04
 -1       427 1.83806E-04
 -1       428 3.40886E-04
 -1       429 3.40886E-04
 -1       430 2.22301E-04
 -1       431 2.92821E-04
 -1       432 3.26044E-04
 -1       433 3.26044E-04
 -1       434 3.25021E-04
 -1       435 3.25021E-04
 -1       436 2.93152E-04
 -1       437 2.22231E-04
 -1       438 1.89647E-04
 -1       439 2.92174E-04
 -1       440 2.75641E+01
 -1       441 3.42031E+01
 -1       442 2.65779E+01
 -1       443 1.57885E+01
 -1       444 8.85628E+00
 -1       445 2.68464E+00
 -1       446 1.00270E+01
 -1       447 1.11626E+01
 -1       448 1.08436E+01
 -1       449 8.76679E+00
 -1       450 6.99294E+00
 -1       451 1.21457E+01
 -1       452 2.06407E+01
 -1       453 3.52631E+01
 -1       454 3.25305E+01
 -1       455 3.43613E+01
 -1       456 2.69821E+01
 -1       457 2.45192E+01
 -1       458 1.47677E+01
 -1       459 8.71635E+00
 -1       460 7.80323E+00
 -1       461 1.05685E+01
 -1       462 1.14033E+01
 -1       463 1.06729E+01
 -1       464 7.63453E+00
 -1       465 8.23932E+00
 -1       466 1.51384E+01
 -1       467 2.64740E+01
 -1       468 2.71271E+01
 -1       469 6.96936E+00
 -1       470 3.29486E+01
 -1       471 8.10022E+00
 -1       472 2.45956E+00
 -1       473 6.99540E+00
 -1       474 4.81752E+00
 -1       475 8.48364E+00
 -1       476 8.48364E+00
 -1       477 7.29915E+00
 -1       478 6.55503E+00
 -1       479 4.61624E+00
 -1       480 3.14040E+00
 -1       481 1.57088E+00
 -1       482 1.08198E+00
 -1       483 5.33888E+00
 -1       484 1.36735E+00
 -1       485 1.66808E+00
 -1       486 2.13528E+00
 -1       487 2.31556E+00
 -1       488 2.34623E+00
 -1       489 1.71877E+00
 -1       490 1.51320E+00
 -1       491 1.30768E+00
 -1       492 1.20481E+00
 -1       493 9.71674E-01
 -1       494 9.15046E-01
 -1       495 8.64988E-01
 -1       496 7.70907E-01
 -1       497 6.79119E-01
 -1       498 6.12041E-01
 -1       499 5.25995E-01
 -1       500 4.35141E-01
 -1       501 3.48641E-01
 -1       502 2.71518E-01
 -1       503 2.05891E-01
 -1       504 1.52029E-01
 -1       505 1.09129E-01
 -1       506 7.58539E-02
 -1       507 5.06810E-02
 -1       508 3.25188E-02
 -1       509 2.26730E-02
 -1       510 1.83328E-02
 -1       511 1.60145E-02
 -1       512 1.35898E-02
 -1       513 1.12539E-02
 -1       514 9.12022E-03
 -1       515 7.53516E-03
 -1       516 6.50495E-03
 -1       517 5.46309E-03
 -1       518 4.49621E-03
 -1       519 3.70319E-03
 -1       520 2.97945E-03
 -1       521 2.34221E-03
 -1       522 1.83643E-03
 -1       523 1.42091E-03
 -1       524 1.06875E-03
 -1       525 7.78590E-04
 -1       526 5.45995E-04
 -1       527 1.89849E+01
 -1       528 2.26182E+00
 -1       529 2.98403E+00
 -1       530 2.79353E+00
 -1       531 2.12264E+00
 -1       532 1.77048E+00
 -1       533 1.36663E+00
 -1       534 1.43610E+00
 -1       535 1.17935E+00
 -1       536 1.18913E+00
 -1       537 1.09488E+00
 -1       538 9.59767E-01
 -1       539 8.82013E-01
 -1       540 7.75394E-01
 -1       541 6.50451E-01
 -1       542 5.25819E-01
 -1       543 4.12169E-01
 -1       544 3.14395E-01
 -1       545 2.33713E-01
 -1       546 1.69250E-01
 -1       547 1.19116E-01
 -1       548 8.10584E-02
 -1       549 5.29472E-02
 -1       550 3.72869E-02
 -1       551 2.73664E-02
 -1       552 2.35241E-02
 -1       553 1.97037E-02
 -1       554 1.61394E-02
 -1       555 1.29566E-02
 -1       556 1.02538E-02
 -1       557 8.74849E-03
 -1       558 7.40247E-03
 -1       559 6.11462E-03
 -1       560 5.02395E-03
 -1       561 4.09380E-03
 -1       562 3.26574E-03
 -1       563 2.59170E-03
 -1       564 2.04553E-03
 -1       565 1.57434E-03
 -1       566 1.17832E-03
 -1       567 8.54197E-04
 -1       568 5.90701E-04
 -1       569 4.05479E-04
 -1       570 3.74334E-04
 -1       571 4.28875E-04
 -1       572 3.54686E-04
 -1       573 2.99205E-04
 -1       574 4.31068E-04
 -1       575 4.31068E-04
 -1       576 4.30573E-04
 -1       577 4.28445E-04
 -1       578 3.74755E-04
 -1       579 3.37621E-04
 -1       580 3.37621E-04
 -1       581 2.71271E+01
 -1       582 1.89966E+00
 -1       583 1.22090E+01
 -1       584 1.98765E+01
 -1       585 2.52044E+00
 -1       586 8.09934E+00
 -1       587 7.50269E+00
 -1       588 7.08591E+00
 -1       589 7.76583E+00
 -1       590 5.01214E+00
 -1       591 7.15427E+00
 -1       592 6.17826E+00
 -1       593 4.08104E+00
 -1       594 6.95242E+00
 -1       595 1.07771E+01
 -1       596 1.53174E+01
 -1       597 2.30703E+01
 -1       598 2.36962E+01
 -1       599 2.69821E+01
 -1       600 1.76019E+01
 -1       601 1.18400E+01
 -1       602 9.27541E+00
 -1       603 5.47850E+00
 -1       604 5.33998E+00
 -1       605 7.30880E+00
 -1       606 1.21490E+01
 -1       607 7.50097E+00
 -1       608 2.70093E+00
 -1       609 5.89300E+00
 -1       610 3.20079E+00
 -1       611 3.21334E-04
 -1       612 1.81821E+01
 -1       613 1.01401E+01
 -1       614 1.25326E+01
 -1       615 6.08621E+00
 -1       616 1.02397E+01
 -1       617 2.59350E+00
 -1       618 1.43543E+01
 -1       619 1.13304E+01
 -1       620 4.89673E+00
 -1       621 2.38315E+00
 -1       622 3.05289E+00
 -1       623 3.33303E+00
 -1       624 4.58670E+00
 -1       625 2.76935E+00
 -1       626 1.84035E+00
 -1       627 2.06400E+00
 -1       628 1.98494E+00
 -1       629 1.43037E+00
 -1       630 1.24153E+00
 -1       631 1.05769E+00
 -1       632 8.65066E-01
 -1       633 7.70907E-01
 -1       634 6.67983E-01
 -1       635 5.60918E-01
 -1       636 4.55638E-01
 -1       637 3.59948E-01
 -1       638 2.77266E-01
 -1       639 2.09416E-01
 -1       640 1.57581E-01
 -1       641 1.16511E-01
 -1       642 8.42119E-02
 -1       643 5.92873E-02
 -1       644 4.04203E-02
 -1       645 2.64260E-02
 -1       646 1.62752E-02
 -1       647 1.09203E-02
 -1       648 9.72943E-03
 -1       649 9.10158E-03
 -1       650 8.13951E-03
 -1       651 7.03523E-03
 -1       652 5.91440E-03
 -1       653 5.05852E-03
 -1       654 4.32683E-03
 -1       655 3.60170E-03
 -1       656 2.92559E-03
 -1       657 2.33422E-03
 -1       658 1.84754E-03
 -1       659 1.42431E-03
 -1       660 1.06875E-03
 -1       661 7.78590E-04
 -1       662 5.45995E-04
 -1       663 3.06886E+00
 -1       664 4.07378E+00
 -1       665 3.43477E+00
 -1       666 2.09257E+00
 -1       667 2.86922E+00
 -1       668 2.27530E+00
 -1       669 1.85877E+00
 -1       670 1.71511E+00
 -1       671 1.38886E+00
 -1       672 1.12306E+00
 -1       673 9.95709E-01
 -1       674 8.48528E-01
 -1       675 7.01831E-01
 -1       676 5.66577E-01
 -1       677 4.47803E-01
 -1       678 3.47052E-01
 -1       679 2.63872E-01
 -1       680 1.96744E-01
 -1       681 1.43660E-01
 -1       682 1.02475E-01
 -1       683 7.11086E-02
 -1       684 4.76708E-02
 -1       685 3.05089E-02
 -1       686 1.88292E-02
 -1       687 1.35589E-02
 -1       688 1.25278E-02
 -1       689 1.11034E-02
 -1       690 9.53212E-03
 -1       691 7.97193E-03
 -1       692 6.51730E-03
 -1       693 5.60407E-03
 -1       694 4.75329E-03
 -1       695 3.94072E-03
 -1       696 3.23312E-03
 -1       697 2.61321E-03
 -1       698 2.06189E-03
 -1       699 1.58604E-03
 -1       700 1.21789E-03
 -1       701 9.16885E-04
 -1       702 6.62211E-04
 -1       703 4.98951E-04
 -1       704 5.60860E-04
 -1       705 3.50060E-04
 -1       706 5.42913E-04
 -1       707 5.60294E-04
 -1       708 5.60860E-04
 -1       709 1.00656E+01
 -1       710 5.60294E-04
 -1       711 5.40399E-04
 -1       712 4.38998E-04
 -1       713 2.34367E+00
 -1       714 3.37556E+00
 -1       715 8.51633E+00
 -1       716 2.52044E+00
 -1       717 8.88532E+00
 -1       718 4.42550E+00
 -1       719 3.23879E+00
 -1       720 3.72432E+00
 -1       721 2.19030E+00
 -1       722 4.32075E+00
 -1       723 3.80580E+00
 -1       724 6.96015E+00
 -1       725 5.56679E+00
 -1       726 4.75149E+00
 -1       727 1.55683E+01
 -1       728 5.11129E+00
 -1       729 3.43477E+00
 -1       730 7.99480E+00
 -1       731 2.88641E+00
 -1       732 1.20615E+01
 -1       733 5.60545E+00
 -1       734 5.10689E+00
 -1       735 1.08615E+01
 -1       736 7.10996E+00
 -1       737 5.20713E+00
 -1       738 1.45495E+01
 -1       739 9.86115E+00
 -1       740 1.42305E+01
 -1       741 6.35479E+00
 -1       742 4.61440E+00
 -1       743 4.42235E-04
 -1       744 3.73806E-04
 -1       745 1.19438E+01
 -1       746 4.21923E-04
 -1       747 4.06032E+00
 -1       748 9.31371E+00
 -1       749 8.83706E+00
 -1       750 2.51060E+00
 -1       751 7.84791E+00
 -1       752 2.88641E+00
 -1       753 3.05749E+00
 -1       754 3.57327E+00
 -1       755 2.21680E+00
 -1       756 1.96266E+00
 -1       757 1.54690E+00
 -1       758 1.20997E+00
 -1       759 9.94335E-01
 -1       760 7.96129E-01
 -1       761 6.34922E-01
 -1       762 5.01500E-01
 -1       763 3.90098E-01
 -1       764 3.02191E-01
 -1       765 2.31607E-01
 -1       766 1.75933E-01
 -1       767 1.31287E-01
 -1       768 9.56907E-02
 -1       769 6.79137E-02
 -1       770 4.72156E-02
 -1       771 3.21973E-02
 -1       772 2.11090E-02
 -1       773 1.30842E-02
 -1       774 7.41266E-03
 -1       775 5.32892E-03
 -1       776 5.66330E-03
 -1       777 5.50232E-03
 -1       778 5.05083E-03
 -1       779 4.45157E-03
 -1       780 3.85852E-03
 -1       781 3.41313E-03
 -1       782 2.92029E-03
 -1       783 2.42919E-03
 -1       784 1.96934E-03
 -1       785 1.55655E-03
 -1       786 1.19758E-03
 -1       787 8.93042E-04
 -1       788 6.24888E-04
 -1       789 5.43354E+00
 -1       790 3.00260E+00
 -1       791 1.78467E+00
 -1       792 1.52482E+00
 -1       793 1.22067E+00
 -1       794 9.58539E-01
 -1       795 7.58134E-01
 -1       796 5.92311E-01
 -1       797 4.57290E-01
 -1       798 3.50895E-01
 -1       799 2.66822E-01
 -1       800 2.01505E-01
 -1       801 1.50023E-01
 -1       802 1.09832E-01
 -1       803 7.88222E-02
 -1       804 5.52220E-02
 -1       805 3.75370E-02
 -1       806 2.45155E-02
 -1       807 1.51197E-02
 -1       808 8.65764E-03
 -1       809 7.35225E-03
 -1       810 7.33713E-03
 -1       811 6.85583E-03
 -1       812 6.12362E-03
 -1       813 5.28616E-03
 -1       814 4.51182E-03
 -1       815 3.93349E-03
 -1       816 3.32675E-03
 -1       817 2.74035E-03
 -1       818 2.20229E-03
 -1       819 1.72636E-03
 -1       820 1.31648E-03
 -1       821 9.72844E-04
 -1       822 6.87615E-04
 -1       823 5.16239E-04
 -1       824 6.72335E-04
 -1       825 5.34834E-04
 -1       826 7.07234E-04
 -1       827 2.08669E+00
 -1       828 1.95981E+01
 -1       829 4.68004E+00
 -1       830 1.06346E+01
 -1       831 3.39002E+00
 -1       832 5.45389E+00
 -1       833 7.07234E-04
 -1       834 4.98773E+00
 -1       835 2.74033E+00
 -1       836 6.47638E+00
 -1       837 5.75798E-04
 -1       838 7.38590E+00
 -1       839 3.50255E+00
 -1       840 7.04937E-04
 -1       841 7.04937E-04
 -1       842 6.88243E+00
 -1       843 5.95636E-04
 -1       844 7.27043E+00
 -1       845 6.57231E+00
 -1       846 5.63658E+00
 -1       847 3.74244E+00
 -1       848 2.92360E+00
 -1       849 1.80588E+00
 -1       850 1.32381E+00
 -1       851 9.55187E-01
 -1       852 7.48813E-01
 -1       853 5.99251E-01
 -1       854 4.86651E-01
 -1       855 3.87068E-01
 -1       856 3.02191E-01
 -1       857 2.31607E-01
 -1       858 1.74139E-01
 -1       859 1.28267E-01
 -1       860 9.23186E-02
 -1       861 6.46588E-02
 -1       862 4.46829E-02
 -1       863 2.99882E-02
 -1       864 1.91850E-02
 -1       865 1.14249E-02
 -1       866 6.13478E-03
 -1       867 3.22624E-03
 -1       868 3.94574E-03
 -1       869 4.26331E-03
 -1       870 4.17986E-03
 -1       871 3.85852E-03
 -1       872 3.41313E-03
 -1       873 2.99489E-03
 -1       874 2.60848E-03
 -1       875 2.20189E-03
 -1       876 1.80741E-03
 -1       877 1.44497E-03
 -1       878 1.12052E-03
 -1       879 3.73347E+00
 -1       880 1.15259E+00
 -1       881 8.98317E-01
 -1       882 7.24288E-01
 -1       883 5.72964E-01
 -1       884 4.45976E-01
 -1       885 3.41828E-01
 -1       886 2.57912E-01
 -1       887 1.91262E-01
 -1       888 1.39123E-01
 -1       889 9.89585E-02
 -1       890 6.90246E-02
 -1       891 4.74897E-02
 -1       892 3.15060E-02
 -1       893 1.98753E-02
 -1       894 1.17585E-02
 -1       895 6.12168E-03
 -1       896 3.96800E-03
 -1       897 4.73720E-03
 -1       898 4.89499E-03
 -1       899 4.67360E-03
 -1       900 4.23707E-03
 -1       901 3.69785E-03
 -1       902 3.24894E-03
 -1       903 2.81265E-03
 -1       904 2.36265E-03
 -1       905 1.93180E-03
 -1       906 1.53880E-03
 -1       907 1.19066E-03
 -1       908 9.95040E-04
 -1       909 6.21868E-04
 -1       910 8.58270E-04
 -1       911 6.43628E+00
 -1       912 1.63895E+00
 -1       913 2.55316E+00
 -1       914 4.88873E+00
 -1       915 6.22048E+00
 -1       916 4.69188E+00
 -1       917 4.73994E+00
 -1       918 8.32926E-04
 -1       919 8.27715E-04
 -1       920 9.95040E-04
 -1       921 9.27018E-04
 -1       922 5.27803E+00
 -1       923 9.27018E-04
 -1       924 4.66955E+00
 -1       925 2.11112E+00
 -1       926 1.72253E+00
 -1       927 1.23110E+00
 -1       928 9.53893E-01
 -1       929 7.48813E-01
 -1       930 5.85022E-01
 -1       931 4.54588E-01
 -1       932 3.51111E-01
 -1       933 2.68684E-01
 -1       934 2.03180E-01
 -1       935 1.51543E-01
 -1       936 1.11173E-01
 -1       937 7.99475E-02
 -1       938 5.61123E-02
 -1       939 3.82414E-02
 -1       940 2.59195E-02
 -1       941 1.68418E-02
 -1       942 1.02926E-02
 -1       943 5.69798E-03
 -1       944 3.24952E-03
 -1       945 2.61097E-03
 -1       946 3.10904E-03
 -1       947 3.20863E-03
 -1       948 3.06054E-03
 -1       949 2.77159E-03
 -1       950 2.41523E-03
 -1       951 2.11089E-03
 -1       952 1.79454E-03
 -1       953 1.47905E-03
 -1       954 1.29452E-03
 -1       955 8.82233E-01
 -1       956 1.15259E+00
 -1       957 5.18555E-01
 -1       958 3.96391E-01
 -1       959 3.01096E-01
 -1       960 2.26338E-01
 -1       961 1.67940E-01
 -1       962 1.22640E-01
 -1       963 8.78326E-02
 -1       964 6.14121E-02
 -1       965 4.20398E-02
 -1       966 2.83683E-02
 -1       967 1.83359E-02
 -1       968 1.11261E-02
 -1       969 6.13111E-03
 -1       970 3.36600E-03
 -1       971 3.06552E-03
 -1       972 3.52143E-03
 -1       973 3.56813E-03
 -1       974 3.36452E-03
 -1       975 3.02225E-03
 -1       976 2.62906E-03
 -1       977 2.30543E-03
 -1       978 1.95679E-03
 -1       979 1.61395E-03
 -1       980 1.29625E-03
 -1       981 1.04032E-03
 -1       982 4.79817E+00
 -1       983 1.56156E+00
 -1       984 6.76103E-01
 -1       985 3.23030E+00
 -1       986 3.50392E+00
 -1       987 9.32819E-04
 -1       988 4.28256E+00
 -1       989 2.11540E+00
 -1       990 1.10020E-03
 -1       991 1.02043E-03
 -1       992 3.74832E+00
 -1       993 1.69827E+00
 -1       994 1.23110E+00
 -1       995 8.95404E-01
 -1       996 6.62460E-01
 -1       997 4.97666E-01
 -1       998 3.76195E-01
 -1       999 2.84396E-01
 -1      1000 2.14026E-01
 -1      1001 1.60050E-01
 -1      1002 1.18375E-01
 -1      1003 8.62669E-02
 -1      1004 6.17055E-02
 -1      1005 4.31161E-02
 -1      1006 2.92351E-02
 -1      1007 2.00050E-02
 -1      1008 1.37356E-02
 -1      1009 9.06862E-03
 -1      1010 5.66785E-03
 -1      1011 3.24952E-03
 -1      1012 1.80650E-03
 -1      1013 2.29887E-03
 -1      1014 2.44744E-03
 -1      1015 2.37847E-03
 -1      1016 2.18205E-03
 -1      1017 1.92055E-03
 -1      1018 1.63487E-03
 -1      1019 1.38434E-03
 -1      1020 1.29452E-03
 -1      1021 9.98883E-01
 -1      1022 3.15774E-01
 -1      1023 4.15747E-01
 -1      1024 1.79204E-01
 -1      1025 1.33041E-01
 -1      1026 9.73037E-02
 -1      1027 6.98415E-02
 -1      1028 4.89712E-02
 -1      1029 3.33307E-02
 -1      1030 2.25985E-02
 -1      1031 1.47825E-02
 -1      1032 9.43545E-03
 -1      1033 5.89150E-03
 -1      1034 3.37643E-03
 -1      1035 2.05475E-03
 -1      1036 2.57388E-03
 -1      1037 2.72010E-03
 -1      1038 2.63160E-03
 -1      1039 2.40662E-03
 -1      1040 2.11307E-03
 -1      1041 1.80840E-03
 -1      1042 1.53957E-03
 -1      1043 1.27123E-03
 -1      1044 9.22765E-04
 -1      1045 1.37741E+00
 -1      1046 2.10402E+00
 -1      1047 2.38713E-01
 -1      1048 3.34448E+00
 -1      1049 5.48967E-01
 -1      1050 1.02379E-03
 -1      1051 7.33417E-01
 -1      1052 1.02043E-03
 -1      1053 3.32691E+00
 -1      1054 2.97831E+00
 -1      1055 1.89032E+00
 -1      1056 9.81529E-02
 -1      1057 2.09510E+00
 -1      1058 3.71081E-01
 -1      1059 9.72483E-01
 -1      1060 6.75174E-01
 -1      1061 4.81731E-01
 -1      1062 3.84096E-01
 -1      1063 2.93584E-01
 -1      1064 2.27967E-01
 -1      1065 1.74690E-01
 -1      1066 1.32800E-01
 -1      1067 9.97549E-02
 -1      1068 7.37218E-02
 -1      1069 5.34467E-02
 -1      1070 3.78689E-02
 -1      1071 2.61223E-02
 -1      1072 1.81886E-02
 -1      1073 1.22424E-02
 -1      1074 7.87200E-03
 -1      1075 4.73014E-03
 -1      1076 2.52977E-03
 -1      1077 1.32382E-03
 -1      1078 1.70431E-03
 -1      1079 1.96561E-03
 -1      1080 1.99715E-03
 -1      1081 1.88689E-03
 -1      1082 1.69177E-03
 -1      1083 1.65258E-03
 -1      1084 1.58730E-03
 -1      1085 1.39146E+00
 -1      1086 1.32004E-01
 -1      1087 1.74690E-01
 -1      1088 7.16226E-02
 -1      1089 5.11122E-02
 -1      1090 3.62333E-02
 -1      1091 2.51311E-02
 -1      1092 1.68265E-02
 -1      1093 1.07385E-02
 -1      1094 6.37701E-03
 -1      1095 3.37643E-03
 -1      1096 1.64162E-03
 -1      1097 1.90802E-03
 -1      1098 2.04986E-03
 -1      1099 2.00263E-03
 -1      1100 1.99715E-03
 -1      1101 1.88689E-03
 -1      1102 1.69177E-03
 -1      1103 1.65258E-03
 -1      1104 9.27375E-01
 -1      1105 7.07083E-01
 -1      1106 4.46541E-01
 -1      1107 1.65258E-03
 -1      1108 2.61333E+00
 -1      1109 2.93584E-01
 -1      1110 2.27967E-01
 -1      1111 5.45544E-01
 -1      1112 1.28842E+00
 -1      1113 1.97787E+00
 -1      1114 1.25309E+00
 -1      1115 5.88375E-01
 -1      1116 1.57951E+00
 -1      1117 8.06876E-01
 -1      1118 1.28381E+01
 -1      1119 8.63768E+00
 -1      1120 3.68630E+00
 -1      1121 2.86185E+00
 -1      1122 3.01586E+00
 -1      1123 3.45456E+00
 -1      1124 3.66579E+00
 -1      1125 3.54412E+00
 -1      1126 3.07419E+00
 -1      1127 3.29394E+00
 -1      1128 3.89928E+00
 -1      1129 3.93663E+00
 -1      1130 3.73982E+00
 -1      1131 3.49530E+00
 -1      1132 4.00901E+00
 -1      1133 6.63947E+00
 -1      1134 1.06182E+01
 -1      1135 1.28381E+01
 -1      1136 7.85334E+00
 -1      1137 2.43703E+00
 -1      1138 2.01384E+00
 -1      1139 2.47761E+00
 -1      1140 3.30972E+00
 -1      1141 3.69939E+00
 -1      1142 3.71234E+00
 -1      1143 3.68095E+00
 -1      1144 3.31762E+00
 -1      1145 2.37858E+00
 -1      1146 1.52886E+00
 -1      1147 1.17307E+00
 -1      1148 1.05988E+00
 -1      1149 1.05522E+00
 -1      1150 1.03507E+00
 -1      1151 9.51510E-01
 -1      1152 7.96206E-01
 -1      1153 6.37751E-01
 -1      1154 5.07845E-01
 -1      1155 4.17439E-01
 -1      1156 3.51743E-01
 -1      1157 2.85383E-01
 -1      1158 2.24253E-01
 -1      1159 1.71209E-01
 -1      1160 1.27138E-01
 -1      1161 9.80956E-02
 -1      1162 8.10313E-02
 -1      1163 6.61216E-02
 -1      1164 5.27905E-02
 -1      1165 4.13042E-02
 -1      1166 3.16915E-02
 -1      1167 2.40344E-02
 -1      1168 1.89550E-02
 -1      1169 1.55682E-02
 -1      1170 1.25250E-02
 -1      1171 9.88542E-03
 -1      1172 7.69770E-03
 -1      1173 5.97437E-03
 -1      1174 4.60157E-03
 -1      1175 3.47423E-03
 -1      1176 2.56633E-03
 -1      1177 1.97576E-03
 -1      1178 1.62097E-03
 -1      1179 1.30918E-03
 -1      1180 1.03694E-03
 -1      1181 7.97837E-04
 -1      1182 6.46234E-04
 -1      1183 4.92126E-04
 -1      1184 2.35947E-04
 -1      1185 1.25280E+01
 -1      1186 7.29853E+00
 -1      1187 1.74228E+00
 -1      1188 1.66128E+00
 -1      1189 2.11719E+00
 -1      1190 2.84116E+00
 -1      1191 3.60562E+00
 -1      1192 4.05020E+00
 -1      1193 4.24419E+00
 -1      1194 3.94313E+00
 -1      1195 2.90676E+00
 -1      1196 1.75553E+00
 -1      1197 1.25344E+00
 -1      1198 1.26976E+00
 -1      1199 1.37225E+00
 -1      1200 1.35171E+00
 -1      1201 1.24768E+00
 -1      1202 1.07110E+00
 -1      1203 8.88082E-01
 -1      1204 7.10966E-01
 -1      1205 5.46661E-01
 -1      1206 4.07783E-01
 -1      1207 3.07886E-01
 -1      1208 2.37363E-01
 -1      1209 1.78476E-01
 -1      1210 1.30932E-01
 -1      1211 9.35845E-02
 -1      1212 6.49394E-02
 -1      1213 4.78615E-02
 -1      1214 3.92666E-02
 -1      1215 3.19450E-02
 -1      1216 2.54846E-02
 -1      1217 2.02159E-02
 -1      1218 1.68472E-02
 -1      1219 1.45834E-02
 -1      1220 1.22877E-02
 -1      1221 1.01201E-02
 -1      1222 8.17834E-03
 -1      1223 6.57101E-03
 -1      1224 5.25713E-03
 -1      1225 4.12832E-03
 -1      1226 3.18133E-03
 -1      1227 2.40146E-03
 -1      1228 1.76765E-03
 -1      1229 1.32190E-03
 -1      1230 1.03283E-03
 -1      1231 7.89331E-04
 -1      1232 5.51436E-04
 -1      1233 3.59750E-04
 -1      1234 1.86031E-04
 -1      1235 1.03596E-04
 -1      1236 1.24192E-04
 -1      1237 1.17604E-04
 -1      1238 8.61101E-05
 -1      1239 5.72924E-05
 -1      1240 7.23981E-05
 -1      1241 1.02940E-04
 -1      1242 1.17839E-04
 -1      1243 1.21214E-04
 -1      1244 1.17695E-04
 -1      1245 1.02166E-04
 -1      1246 7.16656E-05
 -1      1247 5.78324E-05
 -1      1248 8.65335E-05
 -1      1249 1.37850E-04
 -1      1250 1.71880E-04
 -1      1251 1.36424E-04
 -1      1252 2.81531E+01
 -1      1253 3.70985E+01
 -1      1254 4.60438E+01
 -1      1255 3.21751E+01
 -1      1256 1.51720E+01
 -1      1257 1.20377E+01
 -1      1258 1.19250E+01
 -1      1259 1.19879E+01
 -1      1260 1.21635E+01
 -1      1261 1.23018E+01
 -1      1262 2.08553E+01
 -1      1263 2.97007E+01
 -1      1264 2.91962E+01
 -1      1265 2.82315E+01
 -1      1266 2.82015E+01
 -1      1267 2.79120E+01
 -1      1268 3.38766E+01
 -1      1269 4.01308E+01
 -1      1270 2.80348E+01
 -1      1271 1.41370E+01
 -1      1272 1.23351E+01
 -1      1273 1.21834E+01
 -1      1274 1.22788E+01
 -1      1275 1.25259E+01
 -1      1276 1.44340E+01
 -1      1277 3.02080E+01
 -1      1278 4.40739E+01
 -1      1279 3.55168E+01
 -1      1280 2.75565E+01
 -1      1281 1.28381E+01
 -1      1282 5.66182E+00
 -1      1283 9.86222E+00
 -1      1284 3.11798E+00
 -1      1285 3.86897E+00
 -1      1286 5.09350E+00
 -1      1287 2.77482E+00
 -1      1288 2.84828E+00
 -1      1289 3.03095E+00
 -1      1290 3.10583E+00
 -1      1291 2.87835E+00
 -1      1292 2.86478E+00
 -1      1293 3.69272E+00
 -1      1294 3.48150E+00
 -1      1295 3.34398E+00
 -1      1296 3.96834E+00
 -1      1297 3.96834E+00
 -1      1298 3.99527E+00
 -1      1299 3.84667E+00
 -1      1300 3.96834E+00
 -1      1301 4.27088E+00
 -1      1302 3.17648E+00
 -1      1303 3.52473E+00
 -1      1304 3.94895E+00
 -1      1305 4.00065E+00
 -1      1306 3.43266E+00
 -1      1307 3.88319E+00
 -1      1308 4.24346E+00
 -1      1309 4.20611E+00
 -1      1310 4.34483E+00
 -1      1311 4.24346E+00
 -1      1312 4.24346E+00
 -1      1313 4.55028E+00
 -1      1314 3.69201E+00
 -1      1315 3.88882E+00
 -1      1316 4.19564E+00
 -1      1317 3.37838E+00
 -1      1318 3.42609E+00
 -1      1319 3.57509E+00
 -1      1320 4.11793E+00
 -1      1321 3.55651E+00
 -1      1322 3.48730E+00
 -1      1323 6.67871E+00
 -1      1324 4.60968E+00
 -1      1325 4.15718E+00
 -1      1326 1.25280E+01
 -1      1327 1.06182E+01
 -1      1328 8.58844E+00
 -1      1329 1.25280E+01
 -1      1330 7.97764E+00
 -1      1331 2.99290E+00
 -1      1332 2.50525E+00
 -1      1333 2.07367E+00
 -1      1334 2.62955E+00
 -1      1335 1.80509E+00
 -1      1336 1.81348E+00
 -1      1337 1.87331E+00
 -1      1338 2.07129E+00
 -1      1339 2.52667E+00
 -1      1340 1.86254E+00
 -1      1341 2.93299E+00
 -1      1342 3.30972E+00
 -1      1343 2.52667E+00
 -1      1344 3.68645E+00
 -1      1345 3.69939E+00
 -1      1346 3.30972E+00
 -1      1347 3.71234E+00
 -1      1348 3.71234E+00
 -1      1349 3.69939E+00
 -1      1350 3.68095E+00
 -1      1351 3.64956E+00
 -1      1352 3.68095E+00
 -1      1353 3.31762E+00
 -1      1354 2.98568E+00
 -1      1355 3.31762E+00
 -1      1356 2.45468E+00
 -1      1357 1.84758E+00
 -1      1358 2.45468E+00
 -1      1359 1.52886E+00
 -1      1360 1.28625E+00
 -1      1361 1.60497E+00
 -1      1362 1.16302E+00
 -1      1363 1.04983E+00
 -1      1364 1.16302E+00
 -1      1365 1.05988E+00
 -1      1366 1.05988E+00
 -1      1367 1.04983E+00
 -1      1368 1.05522E+00
 -1      1369 1.05056E+00
 -1      1370 1.05522E+00
 -1      1371 1.03507E+00
 -1      1372 1.01958E+00
 -1      1373 1.03507E+00
 -1      1374 9.51510E-01
 -1      1375 8.83443E-01
 -1      1376 9.51510E-01
 -1      1377 8.06919E-01
 -1      1378 7.19682E-01
 -1      1379 8.06919E-01
 -1      1380 6.65777E-01
 -1      1381 5.94559E-01
 -1      1382 6.76489E-01
 -1      1383 5.46762E-01
 -1      1384 4.88075E-01
 -1      1385 5.74788E-01
 -1      1386 4.36513E-01
 -1      1387 4.04794E-01
 -1      1388 4.75430E-01
 -1      1389 3.56045E-01
 -1      1390 3.22068E-01
 -1      1391 3.75119E-01
 -1      1392 2.85383E-01
 -1      1393 2.53001E-01
 -1      1394 2.89686E-01
 -1      1395 2.25169E-01
 -1      1396 1.96420E-01
 -1      1397 2.25169E-01
 -1      1398 1.74577E-01
 -1      1399 1.50282E-01
 -1      1400 1.75493E-01
 -1      1401 1.31771E-01
 -1      1402 1.11995E-01
 -1      1403 1.35139E-01
 -1      1404 9.80956E-02
 -1      1405 8.88291E-02
 -1      1406 1.02729E-01
 -1      1407 8.10313E-02
 -1      1408 7.32335E-02
 -1      1409 8.10313E-02
 -1      1410 6.61216E-02
 -1      1411 5.90097E-02
 -1      1412 6.61216E-02
 -1      1413 5.27905E-02
 -1      1414 4.65712E-02
 -1      1415 5.27905E-02
 -1      1416 4.13042E-02
 -1      1417 3.60371E-02
 -1      1418 4.13042E-02
 -1      1419 3.17201E-02
 -1      1420 2.73745E-02
 -1      1421 3.17201E-02
 -1      1422 2.44089E-02
 -1      1423 2.10974E-02
 -1      1424 2.44375E-02
 -1      1425 1.89550E-02
 -1      1426 1.71871E-02
 -1      1427 1.93295E-02
 -1      1428 1.55682E-02
 -1      1429 1.39493E-02
 -1      1430 1.55682E-02
 -1      1431 1.25250E-02
 -1      1432 1.11006E-02
 -1      1433 1.25250E-02
 -1      1434 9.99862E-03
 -1      1435 8.78339E-03
 -1      1436 9.99862E-03
 -1      1437 7.87884E-03
 -1      1438 6.90635E-03
 -1      1439 7.99204E-03
 -1      1440 6.21056E-03
 -1      1441 5.45972E-03
 -1      1442 6.39170E-03
 -1      1443 4.89522E-03
 -1      1444 4.27326E-03
 -1      1445 5.13141E-03
 -1      1446 3.78328E-03
 -1      1447 3.27790E-03
 -1      1448 4.07693E-03
 -1      1449 2.86325E-03
 -1      1450 2.46074E-03
 -1      1451 3.17231E-03
 -1      1452 2.11691E-03
 -1      1453 1.92884E-03
 -1      1454 2.41383E-03
 -1      1455 1.64855E-03
 -1      1456 1.48183E-03
 -1      1457 1.78970E-03
 -1      1458 1.30918E-03
 -1      1459 1.16411E-03
 -1      1460 1.33677E-03
 -1      1461 1.03694E-03
 -1      1462 9.09776E-04
 -1      1463 1.03694E-03
 -1      1464 7.97837E-04
 -1      1465 6.85898E-04
 -1      1466 7.97837E-04
 -1      1467 6.46234E-04
 -1      1468 6.06569E-04
 -1      1469 6.46234E-04
 -1      1470 4.92126E-04
 -1      1471 3.77682E-04
 -1      1472 4.92126E-04
 -1      1473 2.78160E-04
 -1      1474 2.78160E-04
 -1      1475 2.19297E+00
 -1      1476 7.42240E+00
 -1      1477 7.42240E+00
 -1      1478 1.50960E+00
 -1      1479 1.83642E+00
 -1      1480 1.96029E+00
 -1      1481 1.66128E+00
 -1      1482 1.41546E+00
 -1      1483 1.50960E+00
 -1      1484 2.11719E+00
 -1      1485 1.90710E+00
 -1      1486 1.66128E+00
 -1      1487 2.85623E+00
 -1      1488 2.34235E+00
 -1      1489 2.13226E+00
 -1      1490 3.60562E+00
 -1      1491 3.35504E+00
 -1      1492 2.85623E+00
 -1      1493 4.05020E+00
 -1      1494 3.85621E+00
 -1      1495 3.60562E+00
 -1      1496 4.24419E+00
 -1      1497 4.24419E+00
 -1      1498 4.05020E+00
 -1      1499 3.64208E+00
 -1      1500 3.94313E+00
 -1      1501 3.94313E+00
 -1      1502 2.17144E+00
 -1      1503 2.90676E+00
 -1      1504 2.90676E+00
 -1      1505 1.33961E+00
 -1      1506 1.75553E+00
 -1      1507 1.75553E+00
 -1      1508 1.12260E+00
 -1      1509 1.20878E+00
 -1      1510 1.20878E+00
 -1      1511 1.27022E+00
 -1      1512 1.16773E+00
 -1      1513 1.12307E+00
 -1      1514 1.37225E+00
 -1      1515 1.37225E+00
 -1      1516 1.27022E+00
 -1      1517 1.33117E+00
 -1      1518 1.35171E+00
 -1      1519 1.35171E+00
 -1      1520 1.16419E+00
 -1      1521 1.24768E+00
 -1      1522 1.24768E+00
 -1      1523 9.78007E-01
 -1      1524 1.07110E+00
 -1      1525 1.07110E+00
 -1      1526 8.03756E-01
 -1      1527 8.93681E-01
 -1      1528 8.93681E-01
 -1      1529 6.37574E-01
 -1      1530 7.24765E-01
 -1      1531 7.30364E-01
 -1      1532 4.87041E-01
 -1      1533 5.64155E-01
 -1      1534 5.77954E-01
 -1      1535 3.61850E-01
 -1      1536 4.23615E-01
 -1      1537 4.41109E-01
 -1      1538 2.72333E-01
 -1      1539 3.10465E-01
 -1      1540 3.26297E-01
 -1      1541 2.04974E-01
 -1      1542 2.37363E-01
 -1      1543 2.39943E-01
 -1      1544 1.51978E-01
 -1      1545 1.78476E-01
 -1      1546 1.78476E-01
 -1      1547 1.10548E-01
 -1      1548 1.31594E-01
 -1      1549 1.31594E-01
 -1      1550 7.88234E-02
 -1      1551 9.51255E-02
 -1      1552 9.57869E-02
 -1      1553 5.45712E-02
 -1      1554 6.69141E-02
 -1      1555 6.84551E-02
 -1      1556 4.31264E-02
 -1      1557 4.78615E-02
 -1      1558 4.98361E-02
 -1      1559 3.54068E-02
 -1      1560 3.92666E-02
 -1      1561 3.92666E-02
 -1      1562 2.84832E-02
 -1      1563 3.19450E-02
 -1      1564 3.19450E-02
 -1      1565 2.24860E-02
 -1      1566 2.54846E-02
 -1      1567 2.54846E-02
 -1      1568 1.79458E-02
 -1      1569 2.02159E-02
 -1      1570 2.02159E-02
 -1      1571 1.57485E-02
 -1      1572 1.68472E-02
 -1      1573 1.68472E-02
 -1      1574 1.34182E-02
 -1      1575 1.45834E-02
 -1      1576 1.45834E-02
 -1      1577 1.11573E-02
 -1      1578 1.22877E-02
 -1      1579 1.22877E-02
 -1      1580 9.08297E-03
 -1      1581 1.01201E-02
 -1      1582 1.01201E-02
 -1      1583 7.27372E-03
 -1      1584 8.17834E-03
 -1      1585 8.17834E-03
 -1      1586 5.86830E-03
 -1      1587 6.57101E-03
 -1      1588 6.57101E-03
 -1      1589 4.64596E-03
 -1      1590 5.25713E-03
 -1      1591 5.25713E-03
 -1      1592 3.63512E-03
 -1      1593 4.15276E-03
 -1      1594 4.15276E-03
 -1      1595 2.79586E-03
 -1      1596 3.22521E-03
 -1      1597 3.24965E-03
 -1      1598 2.10377E-03
 -1      1599 2.45429E-03
 -1      1600 2.49817E-03
 -1      1601 1.54014E-03
 -1      1602 1.82342E-03
 -1      1603 1.87625E-03
 -1      1604 1.15943E-03
 -1      1605 1.32190E-03
 -1      1606 1.37767E-03
 -1      1607 9.06229E-04
 -1      1608 1.03283E-03
 -1      1609 1.03283E-03
 -1      1610 6.72434E-04
 -1      1611 7.89331E-04
 -1      1612 7.89331E-04
 -1      1613 4.38753E-04
 -1      1614 5.59751E-04
 -1      1615 5.59751E-04
 -1      1616 2.89061E-04
 -1      1617 3.59750E-04
 -1      1618 3.68064E-04
 -1      1619 2.06626E-04
 -1      1620 1.48947E-04
 -1      1621 1.48947E-04
 -1      1622 1.42875E-04
 -1      1623 1.49463E-04
 -1      1624 1.74218E-04
 -1      1625 1.17969E-04
 -1      1626 1.42875E-04
 -1      1627 1.74734E-04
 -1      1628 7.28842E-05
 -1      1629 7.67960E-05
 -1      1630 1.33561E-04
 -1      1631 1.28007E-04
 -1      1632 1.08990E-04
 -1      1633 1.28493E-04
 -1      1634 1.63396E-04
 -1      1635 1.51872E-04
 -1      1636 1.88463E-04
 -1      1637 1.76507E-04
 -1      1638 1.73132E-04
 -1      1639 2.22064E-04
 -1      1640 1.76507E-04
 -1      1641 1.76507E-04
 -1      1642 2.31800E-04
 -1      1643 1.72939E-04
 -1      1644 1.76458E-04
 -1      1645 2.31751E-04
 -1      1646 1.50569E-04
 -1      1647 1.62579E-04
 -1      1648 2.21342E-04
 -1      1649 1.09096E-04
 -1      1650 1.27585E-04
 -1      1651 1.87999E-04
 -1      1652 7.81570E-05
 -1      1653 7.35003E-05
 -1      1654 1.29420E-04
 -1      1655 1.43280E-04
 -1      1656 1.19236E-04
 -1      1657 1.34904E-04
 -1      1658 1.70552E-04
 -1      1659 1.43280E-04
 -1      1660 1.75983E-04
 -1      1661 2.01648E-04
 -1      1662 1.94890E-04
 -1      1663 2.00321E-04
 -1      1664 3.01171E-04
 -1      1665 3.11781E+01
 -1      1666 3.11781E+01
 -1      1667 4.23766E+01
 -1      1668 3.34313E+01
 -1      1669 4.60438E+01
 -1      1670 4.60438E+01
 -1      1671 1.89925E+01
 -1      1672 3.28612E+01
 -1      1673 1.14204E+01
 -1      1674 1.45548E+01
 -1      1675 1.20377E+01
 -1      1676 1.20377E+01
 -1      1677 1.18123E+01
 -1      1678 1.19250E+01
 -1      1679 1.18063E+01
 -1      1680 1.16307E+01
 -1      1681 1.21635E+01
 -1      1682 1.21635E+01
 -1      1683 1.18850E+01
 -1      1684 1.17467E+01
 -1      1685 2.08553E+01
 -1      1686 1.24401E+01
 -1      1687 3.01309E+01
 -1      1688 2.97007E+01
 -1      1689 3.17623E+01
 -1      1690 3.26970E+01
 -1      1691 3.17323E+01
 -1      1692 3.17623E+01
 -1      1693 3.12814E+01
 -1      1694 3.12814E+01
 -1      1695 3.09919E+01
 -1      1696 3.12814E+01
 -1      1697 3.79149E+01
 -1      1698 3.16607E+01
 -1      1699 4.01308E+01
 -1      1700 4.01308E+01
 -1      1701 1.59388E+01
 -1      1702 2.80348E+01
 -1      1703 1.16369E+01
 -1      1704 1.34387E+01
 -1      1705 1.23351E+01
 -1      1706 1.23351E+01
 -1      1707 1.20317E+01
 -1      1708 1.21834E+01
 -1      1709 1.20719E+01
 -1      1710 1.18248E+01
 -1      1711 1.25259E+01
 -1      1712 1.25259E+01
 -1      1713 1.36818E+01
 -1      1714 1.17738E+01
 -1      1715 3.05593E+01
 -1      1716 1.66934E+01
 -1      1717 4.40739E+01
 -1      1718 4.40739E+01
 -1      1719 3.19734E+01
 -1      1720 4.05304E+01
 -1      1721 3.11781E+01
 -1      1722 3.05815E+01
 -1      1723 1.52409E+01
 -1      1724 3.28612E+01
 -1      1725 2.06626E-04
 -1      1726 2.31382E-04
 -1      1727 3.64563E+01
 -1      1728 4.23766E+01
 -1      1729 3.42031E+01
 -1      1730 1.14204E+01
 -1      1731 1.19250E+01
 -1      1732 1.16307E+01
 -1      1733 1.18063E+01
 -1      1734 1.17467E+01
 -1      1735 1.18850E+01
 -1      1736 2.12855E+01
 -1      1737 3.26970E+01
 -1      1738 3.52631E+01
 -1      1739 3.48122E+01
 -1      1740 3.43613E+01
 -1      1741 3.50301E+01
 -1      1742 3.79149E+01
 -1      1743 2.80348E+01
 -1      1744 1.34387E+01
 -1      1745 1.16369E+01
 -1      1746 1.21834E+01
 -1      1747 1.18248E+01
 -1      1748 1.20719E+01
 -1      1749 1.17738E+01
 -1      1750 1.40332E+01
 -1      1751 3.05593E+01
 -1      1752 4.05304E+01
 -1      1753 3.55951E+01
 -1      1754 9.86222E+00
 -1      1755 2.55052E+00
 -1      1756 2.82022E+00
 -1      1757 3.20893E+00
 -1      1758 5.00178E+00
 -1      1759 2.72850E+00
 -1      1760 3.62930E+00
 -1      1761 3.25363E+00
 -1      1762 4.42835E+00
 -1      1763 4.15273E+00
 -1      1764 4.06238E+00
 -1      1765 4.83504E+00
 -1      1766 4.83504E+00
 -1      1767 4.99250E+00
 -1      1768 4.51310E+00
 -1      1769 4.83504E+00
 -1      1770 5.39919E+00
 -1      1771 4.66201E+00
 -1      1772 4.40583E+00
 -1      1773 5.29192E+00
 -1      1774 5.12238E+00
 -1      1775 4.91692E+00
 -1      1776 5.43956E+00
 -1      1777 5.12238E+00
 -1      1778 5.12238E+00
 -1      1779 5.69447E+00
 -1      1780 4.26323E+00
 -1      1781 4.61787E+00
 -1      1782 5.18996E+00
 -1      1783 3.39275E+00
 -1      1784 3.65867E+00
 -1      1785 4.08089E+00
 -1      1786 3.20936E+00
 -1      1787 3.03123E+00
 -1      1788 3.11481E+00
 -1      1789 3.59925E+00
 -1      1790 3.10750E+00
 -1      1791 2.65144E+00
 -1      1792 7.35655E+00
 -1      1793 3.41703E+00
 -1      1794 2.36736E+00
 -1      1795 2.25099E+00
 -1      1796 5.00178E+00
 -1      1797 1.60375E+00
 -1      1798 1.96029E+00
 -1      1799 1.89445E+00
 -1      1800 3.11721E+00
 -1      1801 1.81856E+00
 -1      1802 1.54998E+00
 -1      1803 1.56841E+00
 -1      1804 1.82621E+00
 -1      1805 1.51365E+00
 -1      1806 2.04292E+00
 -1      1807 2.44925E+00
 -1      1808 1.74879E+00
 -1      1809 2.64759E+00
 -1      1810 3.02432E+00
 -1      1811 2.16385E+00
 -1      1812 3.06124E+00
 -1      1813 3.07418E+00
 -1      1814 2.39911E+00
 -1      1815 2.96168E+00
 -1      1816 2.93030E+00
 -1      1817 2.32353E+00
 -1      1818 2.92697E+00
 -1      1819 2.59503E+00
 -1      1820 2.20770E+00
 -1      1821 2.37644E+00
 -1      1822 1.84545E+00
 -1      1823 1.98579E+00
 -1      1824 1.62561E+00
 -1      1825 1.30689E+00
 -1      1826 1.54737E+00
 -1      1827 1.04966E+00
 -1      1828 9.26425E-01
 -1      1829 1.07030E+00
 -1      1830 8.53105E-01
 -1      1831 8.63154E-01
 -1      1832 7.39745E-01
 -1      1833 8.44303E-01
 -1      1834 8.39643E-01
 -1      1835 6.47575E-01
 -1      1836 9.14066E-01
 -1      1837 8.98573E-01
 -1      1838 7.03147E-01
 -1      1839 9.03523E-01
 -1      1840 8.35457E-01
 -1      1841 7.82520E-01
 -1      1842 7.99473E-01
 -1      1843 7.22949E-01
 -1      1844 7.51487E-01
 -1      1845 6.85212E-01
 -1      1846 6.31307E-01
 -1      1847 6.77767E-01
 -1      1848 5.96236E-01
 -1      1849 5.48440E-01
 -1      1850 6.04958E-01
 -1      1851 5.04891E-01
 -1      1852 4.53330E-01
 -1      1853 5.26339E-01
 -1      1854 4.07723E-01
 -1      1855 3.58974E-01
 -1      1856 4.37185E-01
 -1      1857 3.16211E-01
 -1      1858 2.79526E-01
 -1      1859 3.48815E-01
 -1      1860 2.42137E-01
 -1      1861 2.14305E-01
 -1      1862 2.68663E-01
 -1      1863 1.83210E-01
 -1      1864 1.61366E-01
 -1      1865 2.00178E-01
 -1      1866 1.36499E-01
 -1      1867 1.17988E-01
 -1      1868 1.44216E-01
 -1      1869 1.01477E-01
 -1      1870 8.75776E-02
 -1      1871 1.02837E-01
 -1      1872 7.55268E-02
 -1      1873 6.77290E-02
 -1      1874 7.42752E-02
 -1      1875 5.92811E-02
 -1      1876 5.21692E-02
 -1      1877 5.37766E-02
 -1      1878 4.79699E-02
 -1      1879 4.17507E-02
 -1      1880 4.11294E-02
 -1      1881 3.85446E-02
 -1      1882 3.32775E-02
 -1      1883 3.37240E-02
 -1      1884 3.03592E-02
 -1      1885 2.60422E-02
 -1      1886 2.75996E-02
 -1      1887 2.34860E-02
 -1      1888 2.05204E-02
 -1      1889 2.21251E-02
 -1      1890 1.83478E-02
 -1      1891 1.62054E-02
 -1      1892 1.73963E-02
 -1      1893 1.46673E-02
 -1      1894 1.30484E-02
 -1      1895 1.36855E-02
 -1      1896 1.21371E-02
 -1      1897 1.07128E-02
 -1      1898 1.12362E-02
 -1      1899 9.83138E-03
 -1      1900 8.72935E-03
 -1      1901 9.44354E-03
 -1      1902 7.92568E-03
 -1      1903 7.02112E-03
 -1      1904 7.75844E-03
 -1      1905 6.39822E-03
 -1      1906 5.70244E-03
 -1      1907 6.33186E-03
 -1      1908 5.15070E-03
 -1      1909 4.58619E-03
 -1      1910 5.15722E-03
 -1      1911 4.12376E-03
 -1      1912 3.63379E-03
 -1      1913 4.14305E-03
 -1      1914 3.27004E-03
 -1      1915 2.85539E-03
 -1      1916 3.31687E-03
 -1      1917 2.53653E-03
 -1      1918 2.19270E-03
 -1      1919 2.63426E-03
 -1      1920 1.92061E-03
 -1      1921 1.64032E-03
 -1      1922 2.04332E-03
 -1      1923 1.41351E-03
 -1      1924 1.24086E-03
 -1      1925 1.54442E-03
 -1      1926 1.05619E-03
 -1      1927 9.29025E-04
 -1      1928 1.13294E-03
 -1      1929 7.94968E-04
 -1      1930 6.83029E-04
 -1      1931 8.14218E-04
 -1      1932 5.92913E-04
 -1      1933 5.53249E-04
 -1      1934 5.90045E-04
 -1      1935 4.67933E-04
 -1      1936 3.53489E-04
 -1      1937 2.76978E-04
 -1      1938 4.14613E-04
 -1      1939 1.33359E+00
 -1      1940 1.42773E+00
 -1      1941 1.42773E+00
 -1      1942 1.85879E+00
 -1      1943 1.61297E+00
 -1      1944 1.53110E+00
 -1      1945 2.30872E+00
 -1      1946 2.08356E+00
 -1      1947 2.03525E+00
 -1      1948 2.80843E+00
 -1      1949 2.30962E+00
 -1      1950 2.26092E+00
 -1      1951 3.01575E+00
 -1      1952 2.76517E+00
 -1      1953 2.21856E+00
 -1      1954 3.26958E+00
 -1      1955 3.07559E+00
 -1      1956 2.23514E+00
 -1      1957 2.95765E+00
 -1      1958 3.25870E+00
 -1      1959 2.28410E+00
 -1      1960 1.87676E+00
 -1      1961 2.61208E+00
 -1      1962 1.92765E+00
 -1      1963 1.09244E+00
 -1      1964 1.50835E+00
 -1      1965 1.21367E+00
 -1      1966 9.03376E-01
 -1      1967 1.03421E+00
 -1      1968 7.87038E-01
 -1      1969 1.04453E+00
 -1      1970 9.99399E-01
 -1      1971 8.24833E-01
 -1      1972 1.18149E+00
 -1      1973 1.07946E+00
 -1      1974 9.55788E-01
 -1      1975 1.17773E+00
 -1      1976 1.19827E+00
 -1      1977 1.00751E+00
 -1      1978 1.06082E+00
 -1      1979 1.14431E+00
 -1      1980 9.90873E-01
 -1      1981 9.17598E-01
 -1      1982 1.01069E+00
 -1      1983 9.07319E-01
 -1      1984 7.75757E-01
 -1      1985 8.60083E-01
 -1      1986 7.99674E-01
 -1      1987 6.31317E-01
 -1      1988 7.10307E-01
 -1      1989 6.76709E-01
 -1      1990 4.94210E-01
 -1      1991 5.67630E-01
 -1      1992 5.47573E-01
 -1      1993 3.74030E-01
 -1      1994 4.37456E-01
 -1      1995 4.27132E-01
 -1      1996 2.74912E-01
 -1      1997 3.26297E-01
 -1      1998 3.22645E-01
 -1      1999 2.01827E-01
 -1      2000 2.36796E-01
 -1      2001 2.36796E-01
 -1      2002 1.51121E-01
 -1      2003 1.77619E-01
 -1      2004 1.74472E-01
 -1      2005 1.11209E-01
 -1      2006 1.31594E-01
 -1      2007 1.30737E-01
 -1      2008 8.03645E-02
 -1      2009 9.57869E-02
 -1      2010 9.57869E-02
 -1      2011 5.65458E-02
 -1      2012 6.84551E-02
 -1      2013 6.84551E-02
 -1      2014 4.08318E-02
 -1      2015 4.75415E-02
 -1      2016 4.75415E-02
 -1      2017 3.13866E-02
 -1      2018 3.52464E-02
 -1      2019 3.29518E-02
 -1      2020 2.60036E-02
 -1      2021 2.94655E-02
 -1      2022 2.54453E-02
 -1      2023 2.10948E-02
 -1      2024 2.40934E-02
 -1      2025 2.16139E-02
 -1      2026 1.70426E-02
 -1      2027 1.93127E-02
 -1      2028 1.79215E-02
 -1      2029 1.43526E-02
 -1      2030 1.54512E-02
 -1      2031 1.45480E-02
 -1      2032 1.18124E-02
 -1      2033 1.29776E-02
 -1      2034 1.15816E-02
 -1      2035 9.95288E-03
 -1      2036 1.10834E-02
 -1      2037 9.47756E-03
 -1      2038 8.24272E-03
 -1      2039 9.27987E-03
 -1      2040 8.07548E-03
 -1      2041 6.69417E-03
 -1      2042 7.59880E-03
 -1      2043 6.75855E-03
 -1      2044 5.44613E-03
 -1      2045 6.14883E-03
 -1      2046 5.56929E-03
 -1      2047 4.37078E-03
 -1      2048 4.98196E-03
 -1      2049 4.55978E-03
 -1      2050 3.48168E-03
 -1      2051 3.97488E-03
 -1      2052 3.69971E-03
 -1      2053 2.72554E-03
 -1      2054 3.13545E-03
 -1      2055 2.95757E-03
 -1      2056 2.08874E-03
 -1      2057 2.43030E-03
 -1      2058 2.31611E-03
 -1      2059 1.56146E-03
 -1      2060 1.84182E-03
 -1      2061 1.77395E-03
 -1      2062 1.13982E-03
 -1      2063 1.35806E-03
 -1      2064 1.32362E-03
 -1      2065 8.71692E-04
 -1      2066 9.98291E-04
 -1      2067 9.78685E-04
 -1      2068 6.55659E-04
 -1      2069 7.72557E-04
 -1      2070 7.38020E-04
 -1      2071 4.47068E-04
 -1      2072 5.59751E-04
 -1      2073 5.42976E-04
 -1      2074 2.73812E-04
 -1      2075 3.52815E-04
 -1      2076 3.52815E-04
 -1      2077 2.16132E-04
 -1      2078 1.38097E-04
 -1      2079 1.79270E-04
 -1      2080 2.57810E-04
 -1      2081 2.57810E-04
 -1      2082 2.62346E-04
 -1      2083 2.57810E-04
 -1      2084 2.57294E-04
 -1      2085 2.99725E-04
 -1      2086 3.40886E-04
 -1      2087 1.93450E-04
 -1      2088 1.57345E-04
 -1      2089 2.03054E-04
 -1      2090 2.52575E-04
 -1      2091 2.28710E-04
 -1      2092 2.57561E-04
 -1      2093 2.78922E-04
 -1      2094 2.69186E-04
 -1      2095 3.09433E-04
 -1      2096 2.78922E-04
 -1      2097 2.78922E-04
 -1      2098 3.26044E-04
 -1      2099 2.78362E-04
 -1      2100 2.78411E-04
 -1      2101 3.25532E-04
 -1      2102 2.68002E-04
 -1      2103 2.78362E-04
 -1      2104 3.25021E-04
 -1      2105 2.29083E-04
 -1      2106 2.52067E-04
 -1      2107 3.09086E-04
 -1      2108 1.58028E-04
 -1      2109 1.93623E-04
 -1      2110 2.57692E-04
 -1      2111 1.82815E-04
 -1      2112 1.41736E-04
 -1      2113 2.05939E-04
 -1      2114 2.34078E-04
 -1      2115 2.34078E-04
 -1      2116 2.40910E-04
 -1      2117 3.68040E+01
 -1      2118 3.31368E+01
 -1      2119 3.42031E+01
 -1      2120 3.42031E+01
 -1      2121 3.26437E+01
 -1      2122 3.03905E+01
 -1      2123 2.70710E+01
 -1      2124 1.77335E+01
 -1      2125 3.09161E+01
 -1      2126 9.82971E+00
 -1      2127 1.42674E+01
 -1      2128 2.82648E+00
 -1      2129 2.72294E+00
 -1      2130 2.51222E+00
 -1      2131 3.11180E+00
 -1      2132 1.09197E+01
 -1      2133 1.10323E+01
 -1      2134 1.13058E+01
 -1      2135 1.14875E+01
 -1      2136 1.15036E+01
 -1      2137 1.11463E+01
 -1      2138 1.00483E+01
 -1      2139 1.04652E+01
 -1      2140 9.71653E+00
 -1      2141 9.16136E+00
 -1      2142 2.11383E+01
 -1      2143 1.22929E+01
 -1      2144 2.79519E+01
 -1      2145 2.53858E+01
 -1      2146 3.52631E+01
 -1      2147 3.52631E+01
 -1      2148 3.34459E+01
 -1      2149 3.38968E+01
 -1      2150 3.43613E+01
 -1      2151 3.43613E+01
 -1      2152 3.13406E+01
 -1      2153 3.06717E+01
 -1      2154 3.23250E+01
 -1      2155 3.01091E+01
 -1      2156 1.53533E+01
 -1      2157 2.74493E+01
 -1      2158 9.82750E+00
 -1      2159 1.23276E+01
 -1      2160 1.00692E+01
 -1      2161 9.37094E+00
 -1      2162 1.13001E+01
 -1      2163 1.14518E+01
 -1      2164 1.15106E+01
 -1      2165 1.17175E+01
 -1      2166 1.15994E+01
 -1      2167 1.11454E+01
 -1      2168 1.10381E+01
 -1      2169 9.32806E+00
 -1      2170 1.00802E+01
 -1      2171 1.26420E+01
 -1      2172 9.63046E+00
 -1      2173 2.96061E+01
 -1      2174 1.60916E+01
 -1      2175 3.17305E+01
 -1      2176 3.52740E+01
 -1      2177 2.08062E+01
 -1      2178 3.06651E+01
 -1      2179 3.20570E+01
 -1      2180 9.50351E+00
 -1      2181 8.88625E+00
 -1      2182 7.91282E+00
 -1      2183 2.62955E+00
 -1      2184 8.49818E+00
 -1      2185 2.30622E+00
 -1      2186 3.35759E+01
 -1      2187 3.35759E+01
 -1      2188 2.97633E+01
 -1      2189 2.16763E+01
 -1      2190 2.58416E-04
 -1      2191 3.06651E+01
 -1      2192 1.23224E+01
 -1      2193 2.68005E+01
 -1      2194 1.16889E+01
 -1      2195 1.03131E+01
 -1      2196 9.38657E+00
 -1      2197 7.86737E+00
 -1      2198 1.09859E+01
 -1      2199 9.18588E+00
 -1      2200 8.25979E+00
 -1      2201 1.17420E+01
 -1      2202 1.96435E+01
 -1      2203 2.57507E+01
 -1      2204 3.06717E+01
 -1      2205 3.34459E+01
 -1      2206 3.38968E+01
 -1      2207 2.79519E+01
 -1      2208 1.63932E+01
 -1      2209 9.56933E+00
 -1      2210 7.87986E+00
 -1      2211 9.80520E+00
 -1      2212 1.05948E+01
 -1      2213 1.10031E+01
 -1      2214 7.93692E+00
 -1      2215 1.85564E+00
 -1      2216 2.03166E+00
 -1      2217 6.19729E+00
 -1      2218 5.79060E+00
 -1      2219 4.70167E+00
 -1      2220 4.17824E+00
 -1      2221 5.90646E+00
 -1      2222 6.83414E+00
 -1      2223 6.94142E+00
 -1      2224 7.08906E+00
 -1      2225 6.83414E+00
 -1      2226 8.48364E+00
 -1      2227 6.49681E+00
 -1      2228 6.49681E+00
 -1      2229 5.62024E+00
 -1      2230 6.12475E+00
 -1      2231 6.92709E+00
 -1      2232 4.04628E+00
 -1      2233 4.65084E+00
 -1      2234 5.58563E+00
 -1      2235 2.94685E+00
 -1      2236 3.30836E+00
 -1      2237 3.87832E+00
 -1      2238 1.69068E+00
 -1      2239 1.41130E+00
 -1      2240 2.01522E+00
 -1      2241 1.28861E+00
 -1      2242 1.30703E+00
 -1      2243 7.68293E+00
 -1      2244 6.15412E+00
 -1      2245 1.44971E+00
 -1      2246 1.66643E+00
 -1      2247 1.22467E+00
 -1      2248 1.81679E+00
 -1      2249 2.01514E+00
 -1      2250 1.51771E+00
 -1      2251 2.24874E+00
 -1      2252 2.28566E+00
 -1      2253 1.90168E+00
 -1      2254 2.37580E+00
 -1      2255 2.26330E+00
 -1      2256 2.22542E+00
 -1      2257 2.27863E+00
 -1      2258 2.27530E+00
 -1      2259 2.33089E+00
 -1      2260 1.96157E+00
 -1      2261 1.74299E+00
 -1      2262 2.03250E+00
 -1      2263 1.64021E+00
 -1      2264 1.42037E+00
 -1      2265 1.61599E+00
 -1      2266 1.31761E+00
 -1      2267 1.06037E+00
 -1      2268 1.41044E+00
 -1      2269 1.00894E+00
 -1      2270 9.35618E-01
 -1      2271 1.25625E+00
 -1      2272 8.19050E-01
 -1      2273 8.00199E-01
 -1      2274 1.08824E+00
 -1      2275 7.71885E-01
 -1      2276 8.46308E-01
 -1      2277 9.43360E-01
 -1      2278 8.21279E-01
 -1      2279 8.26229E-01
 -1      2280 8.90017E-01
 -1      2281 7.79189E-01
 -1      2282 7.43205E-01
 -1      2283 8.17947E-01
 -1      2284 6.97312E-01
 -1      2285 6.59574E-01
 -1      2286 7.25013E-01
 -1      2287 6.26035E-01
 -1      2288 5.90964E-01
 -1      2289 6.45580E-01
 -1      2290 5.47941E-01
 -1      2291 5.04393E-01
 -1      2292 5.69018E-01
 -1      2293 4.58966E-01
 -1      2294 4.13360E-01
 -1      2295 4.80568E-01
 -1      2296 3.70110E-01
 -1      2297 3.27346E-01
 -1      2298 3.91891E-01
 -1      2299 2.88785E-01
 -1      2300 2.51396E-01
 -1      2301 3.10080E-01
 -1      2302 2.18582E-01
 -1      2303 1.87487E-01
 -1      2304 2.38705E-01
 -1      2305 1.60556E-01
 -1      2306 1.35689E-01
 -1      2307 1.78960E-01
 -1      2308 1.14239E-01
 -1      2309 9.77275E-02
 -1      2310 1.30579E-01
 -1      2311 8.10900E-02
 -1      2312 6.90392E-02
 -1      2313 9.24915E-02
 -1      2314 5.64528E-02
 -1      2315 4.80049E-02
 -1      2316 6.32675E-02
 -1      2317 3.89238E-02
 -1      2318 3.47245E-02
 -1      2319 4.15999E-02
 -1      2320 2.98016E-02
 -1      2321 2.65954E-02
 -1      2322 2.75959E-02
 -1      2323 2.44254E-02
 -1      2324 2.15070E-02
 -1      2325 2.05029E-02
 -1      2326 2.03479E-02
 -1      2327 1.77917E-02
 -1      2328 1.71737E-02
 -1      2329 1.65793E-02
 -1      2330 1.44067E-02
 -1      2331 1.48021E-02
 -1      2332 1.32388E-02
 -1      2333 1.17007E-02
 -1      2334 1.24219E-02
 -1      2335 1.06338E-02
 -1      2336 9.72260E-03
 -1      2337 1.01871E-02
 -1      2338 8.93007E-03
 -1      2339 8.04863E-03
 -1      2340 8.32769E-03
 -1      2341 7.53353E-03
 -1      2342 6.72986E-03
 -1      2343 7.02005E-03
 -1      2344 6.20893E-03
 -1      2345 5.58603E-03
 -1      2346 5.98402E-03
 -1      2347 5.10259E-03
 -1      2348 4.55084E-03
 -1      2349 4.97965E-03
 -1      2350 4.15434E-03
 -1      2351 3.69191E-03
 -1      2352 4.09970E-03
 -1      2353 3.33004E-03
 -1      2354 2.96628E-03
 -1      2355 3.34132E-03
 -1      2356 2.64766E-03
 -1      2357 2.32880E-03
 -1      2358 2.66083E-03
 -1      2359 2.07592E-03
 -1      2360 1.80383E-03
 -1      2361 2.08932E-03
 -1      2362 1.59607E-03
 -1      2363 1.36925E-03
 -1      2364 1.62867E-03
 -1      2365 1.19318E-03
 -1      2366 1.00851E-03
 -1      2367 1.24483E-03
 -1      2368 8.63432E-04
 -1      2369 7.29375E-04
 -1      2370 9.23671E-04
 -1      2371 6.13077E-04
 -1      2372 5.22962E-04
 -1      2373 6.62292E-04
 -1      2374 2.32745E+01
 -1      2375 2.27814E+01
 -1      2376 2.26182E+00
 -1      2377 2.26092E+00
 -1      2378 2.57966E+00
 -1      2379 2.62292E+00
 -1      2380 2.62292E+00
 -1      2381 2.54426E+00
 -1      2382 2.48442E+00
 -1      2383 2.88878E+00
 -1      2384 2.19793E+00
 -1      2385 2.20881E+00
 -1      2386 2.45809E+00
 -1      2387 1.67628E+00
 -1      2388 2.02185E+00
 -1      2389 1.94656E+00
 -1      2390 1.10595E+00
 -1      2391 1.47435E+00
 -1      2392 1.56856E+00
 -1      2393 1.08246E+00
 -1      2394 1.14068E+00
 -1      2395 1.40137E+00
 -1      2396 1.05011E+00
 -1      2397 9.54082E-01
 -1      2398 1.30773E+00
 -1      2399 1.08992E+00
 -1      2400 1.05499E+00
 -1      2401 1.18424E+00
 -1      2402 1.05959E+00
 -1      2403 1.04280E+00
 -1      2404 1.14200E+00
 -1      2405 9.58608E-01
 -1      2406 9.92032E-01
 -1      2407 1.02732E+00
 -1      2408 8.69601E-01
 -1      2409 9.19731E-01
 -1      2410 9.20890E-01
 -1      2411 7.58777E-01
 -1      2412 8.16292E-01
 -1      2413 8.28704E-01
 -1      2414 6.30855E-01
 -1      2415 6.96305E-01
 -1      2416 7.12923E-01
 -1      2417 5.04853E-01
 -1      2418 5.68539E-01
 -1      2419 5.88135E-01
 -1      2420 3.91273E-01
 -1      2421 4.48027E-01
 -1      2422 4.68994E-01
 -1      2423 2.94654E-01
 -1      2424 3.42386E-01
 -1      2425 3.63282E-01
 -1      2426 2.16197E-01
 -1      2427 2.54313E-01
 -1      2428 2.74054E-01
 -1      2429 1.59757E-01
 -1      2430 1.83965E-01
 -1      2431 2.01482E-01
 -1      2432 1.15163E-01
 -1      2433 1.34690E-01
 -1      2434 1.44183E-01
 -1      2435 8.07114E-02
 -1      2436 9.61339E-02
 -1      2437 1.00087E-01
 -1      2438 5.47465E-02
 -1      2439 6.66558E-02
 -1      2440 6.70028E-02
 -1      2441 3.79120E-02
 -1      2442 4.69163E-02
 -1      2443 4.51170E-02
 -1      2444 2.73664E-02
 -1      2445 3.29518E-02
 -1      2446 3.23266E-02
 -1      2447 2.35241E-02
 -1      2448 2.54453E-02
 -1      2449 2.54453E-02
 -1      2450 1.97037E-02
 -1      2451 2.16139E-02
 -1      2452 2.16139E-02
 -1      2453 1.61394E-02
 -1      2454 1.79215E-02
 -1      2455 1.79215E-02
 -1      2456 1.29566E-02
 -1      2457 1.45480E-02
 -1      2458 1.45480E-02
 -1      2459 1.02302E-02
 -1      2460 1.16052E-02
 -1      2461 1.16052E-02
 -1      2462 8.74849E-03
 -1      2463 9.47756E-03
 -1      2464 9.50114E-03
 -1      2465 7.40247E-03
 -1      2466 8.07548E-03
 -1      2467 8.07548E-03
 -1      2468 6.11462E-03
 -1      2469 6.75855E-03
 -1      2470 6.75855E-03
 -1      2471 5.02395E-03
 -1      2472 5.56929E-03
 -1      2473 5.56929E-03
 -1      2474 4.09471E-03
 -1      2475 4.55887E-03
 -1      2476 4.55887E-03
 -1      2477 3.28477E-03
 -1      2478 3.68068E-03
 -1      2479 3.67977E-03
 -1      2480 2.60152E-03
 -1      2481 2.94775E-03
 -1      2482 2.92872E-03
 -1      2483 2.03320E-03
 -1      2484 2.32843E-03
 -1      2485 2.31861E-03
 -1      2486 1.55068E-03
 -1      2487 1.79761E-03
 -1      2488 1.80993E-03
 -1      2489 1.14927E-03
 -1      2490 1.35267E-03
 -1      2491 1.37633E-03
 -1      2492 8.45676E-04
 -1      2493 9.87206E-04
 -1      2494 1.01626E-03
 -1      2495 6.14793E-04
 -1      2496 7.13928E-04
 -1      2497 7.22449E-04
 -1      2498 4.26273E-04
 -1      2499 5.22182E-04
 -1      2500 4.98090E-04
 -1      2501 3.93977E-04
 -1      2502 3.33578E-04
 -1      2503 2.98318E-04
 -1      2504 3.77459E-04
 -1      2505 3.60848E-04
 -1      2506 4.01604E-04
 -1      2507 2.69246E-04
 -1      2508 3.47786E-04
 -1      2509 2.60753E-04
 -1      2510 2.41506E-04
 -1      2511 3.26945E-04
 -1      2512 3.36770E-04
 -1      2513 3.78556E-04
 -1      2514 3.78556E-04
 -1      2515 4.29972E-04
 -1      2516 3.78045E-04
 -1      2517 3.78556E-04
 -1      2518 4.31068E-04
 -1      2519 3.77797E-04
 -1      2520 3.77797E-04
 -1      2521 4.30821E-04
 -1      2522 3.60798E-04
 -1      2523 3.76733E-04
 -1      2524 4.29509E-04
 -1      2525 2.98493E-04
 -1      2526 3.33953E-04
 -1      2527 4.01600E-04
 -1      2528 2.63634E-04
 -1      2529 2.79926E-04
 -1      2530 3.56188E-04
 -1      2531 3.14897E-04
 -1      2532 2.63634E-04
 -1      2533 3.37621E-04
 -1      2534 3.10735E-04
 -1      2535 3.06651E+01
 -1      2536 2.71271E+01
 -1      2537 2.07984E+00
 -1      2538 1.85507E+00
 -1      2539 2.08074E+00
 -1      2540 1.39987E+01
 -1      2541 1.98865E+01
 -1      2542 2.35018E+01
 -1      2543 2.31753E+01
 -1      2544 2.81882E+00
 -1      2545 2.00783E+00
 -1      2546 1.80121E+00
 -1      2547 2.43011E+00
 -1      2548 1.16189E+01
 -1      2549 8.16933E+00
 -1      2550 9.45298E+00
 -1      2551 9.03561E+00
 -1      2552 6.24255E+00
 -1      2553 6.24255E+00
 -1      2554 7.04065E+00
 -1      2555 9.30472E+00
 -1      2556 9.46421E+00
 -1      2557 6.62573E+00
 -1      2558 6.32333E+00
 -1      2559 9.15843E+00
 -1      2560 8.59063E+00
 -1      2561 7.47253E+00
 -1      2562 8.51094E+00
 -1      2563 5.53699E+00
 -1      2564 6.42391E+00
 -1      2565 9.54907E+00
 -1      2566 6.97268E+00
 -1      2567 1.57089E+01
 -1      2568 1.14614E+01
 -1      2569 8.86477E+00
 -1      2570 2.52903E+01
 -1      2571 1.79790E+01
 -1      2572 2.78004E+01
 -1      2573 2.91667E+01
 -1      2574 1.91938E+01
 -1      2575 2.90287E+01
 -1      2576 2.81134E+01
 -1      2577 2.69821E+01
 -1      2578 3.06717E+01
 -1      2579 2.10606E+01
 -1      2580 2.22920E+01
 -1      2581 1.33039E+01
 -1      2582 1.81796E+01
 -1      2583 1.47209E+01
 -1      2584 8.99588E+00
 -1      2585 1.20216E+01
 -1      2586 6.64087E+00
 -1      2587 7.09742E+00
 -1      2588 7.95426E+00
 -1      2589 6.57161E+00
 -1      2590 8.99086E+00
 -1      2591 9.35603E+00
 -1      2592 1.93115E+01
 -1      2593 1.36437E+01
 -1      2594 8.17863E+00
 -1      2595 1.16447E+01
 -1      2596 9.85497E+00
 -1      2597 2.15234E+00
 -1      2598 2.44304E+00
 -1      2599 2.62526E+00
 -1      2600 2.58025E+00
 -1      2601 6.43118E+00
 -1      2602 7.37464E+00
 -1      2603 7.78477E+00
 -1      2604 4.00915E+00
 -1      2605 3.36987E+00
 -1      2606 2.94271E+00
 -1      2607 7.89140E+00
 -1      2608 1.73527E+00
 -1      2609 2.72711E+00
 -1      2610 5.61594E+00
 -1      2611 6.69699E+00
 -1      2612 1.60128E+01
 -1      2613 1.01242E+01
 -1      2614 7.70451E+00
 -1      2615 2.59668E+01
 -1      2616 2.35018E+01
 -1      2617 1.55969E+01
 -1      2618 3.73183E-04
 -1      2619 3.73183E-04
 -1      2620 6.42134E+00
 -1      2621 3.25315E-04
 -1      2622 3.06754E-04
 -1      2623 3.29478E-04
 -1      2624 4.10631E-04
 -1      2625 5.40924E+00
 -1      2626 1.05577E+01
 -1      2627 2.61926E+01
 -1      2628 2.26546E+01
 -1      2629 2.55654E+01
 -1      2630 2.92066E+00
 -1      2631 2.22920E+01
 -1      2632 7.40575E+00
 -1      2633 2.33833E+01
 -1      2634 6.55618E+00
 -1      2635 1.53904E+01
 -1      2636 1.04586E+01
 -1      2637 1.27288E+01
 -1      2638 5.51673E+00
 -1      2639 5.12965E+00
 -1      2640 7.46005E+00
 -1      2641 6.55574E+00
 -1      2642 2.60254E+00
 -1      2643 6.24657E+00
 -1      2644 6.97205E+00
 -1      2645 2.53392E+01
 -1      2646 7.37695E+00
 -1      2647 3.80082E-04
 -1      2648 4.33664E-04
 -1      2649 1.05081E+01
 -1      2650 1.05081E+01
 -1      2651 5.35122E+00
 -1      2652 6.32062E+00
 -1      2653 8.39735E+00
 -1      2654 8.76942E+00
 -1      2655 8.16294E+00
 -1      2656 2.08219E+00
 -1      2657 2.52653E+00
 -1      2658 1.59781E+01
 -1      2659 2.06682E+01
 -1      2660 9.31478E+00
 -1      2661 9.90703E+00
 -1      2662 1.19315E+01
 -1      2663 1.07850E+01
 -1      2664 5.39487E+00
 -1      2665 6.19885E+00
 -1      2666 1.87525E+00
 -1      2667 2.02561E+00
 -1      2668 2.36048E+00
 -1      2669 2.59409E+00
 -1      2670 2.71802E+00
 -1      2671 2.73416E+00
 -1      2672 2.82430E+00
 -1      2673 3.19296E+00
 -1      2674 3.45113E+00
 -1      2675 3.46646E+00
 -1      2676 3.95987E+00
 -1      2677 2.55779E+00
 -1      2678 2.24406E+00
 -1      2679 3.67802E+00
 -1      2680 1.77956E+00
 -1      2681 1.67678E+00
 -1      2682 2.30485E+00
 -1      2683 1.78860E+00
 -1      2684 1.68584E+00
 -1      2685 1.95218E+00
 -1      2686 1.64631E+00
 -1      2687 1.59488E+00
 -1      2688 2.02447E+00
 -1      2689 1.31759E+00
 -1      2690 1.20102E+00
 -1      2691 1.70766E+00
 -1      2692 1.10660E+00
 -1      2693 1.07829E+00
 -1      2694 1.33595E+00
 -1      2695 9.86368E-01
 -1      2696 9.61339E-01
 -1      2697 1.14961E+00
 -1      2698 8.65027E-01
 -1      2699 8.17986E-01
 -1      2700 9.61378E-01
 -1      2701 7.70907E-01
 -1      2702 7.25013E-01
 -1      2703 8.17986E-01
 -1      2704 6.73551E-01
 -1      2705 6.40012E-01
 -1      2706 7.19445E-01
 -1      2707 5.86479E-01
 -1      2708 5.43457E-01
 -1      2709 6.14450E-01
 -1      2710 4.90817E-01
 -1      2711 4.45390E-01
 -1      2712 5.08278E-01
 -1      2713 3.97545E-01
 -1      2714 3.54295E-01
 -1      2715 4.07793E-01
 -1      2716 3.12954E-01
 -1      2717 2.74392E-01
 -1      2718 3.18607E-01
 -1      2719 2.40467E-01
 -1      2720 2.07653E-01
 -1      2721 2.43341E-01
 -1      2722 1.81736E-01
 -1      2723 1.54805E-01
 -1      2724 1.83499E-01
 -1      2725 1.34270E-01
 -1      2726 1.12820E-01
 -1      2727 1.37046E-01
 -1      2728 9.66705E-02
 -1      2729 8.00329E-02
 -1      2730 1.00361E-01
 -1      2731 6.75706E-02
 -1      2732 5.49842E-02
 -1      2733 7.17496E-02
 -1      2734 4.55507E-02
 -1      2735 3.64696E-02
 -1      2736 4.98538E-02
 -1      2737 2.94724E-02
 -1      2738 2.45495E-02
 -1      2739 3.34232E-02
 -1      2740 1.94741E-02
 -1      2741 1.73040E-02
 -1      2742 2.13506E-02
 -1      2743 1.46266E-02
 -1      2744 1.34674E-02
 -1      2745 1.35978E-02
 -1      2746 1.28720E-02
 -1      2747 1.16596E-02
 -1      2748 1.03249E-02
 -1      2749 1.13457E-02
 -1      2750 1.01778E-02
 -1      2751 9.41551E-03
 -1      2752 9.69672E-03
 -1      2753 8.62986E-03
 -1      2754 8.62054E-03
 -1      2755 8.07772E-03
 -1      2756 7.28519E-03
 -1      2757 7.58737E-03
 -1      2758 6.72478E-03
 -1      2759 6.20967E-03
 -1      2760 6.47481E-03
 -1      2761 5.78174E-03
 -1      2762 5.26081E-03
 -1      2763 5.48646E-03
 -1      2764 4.89496E-03
 -1      2765 4.41152E-03
 -1      2766 4.69268E-03
 -1      2767 4.04896E-03
 -1      2768 3.65245E-03
 -1      2769 3.96427E-03
 -1      2770 3.31439E-03
 -1      2771 2.95252E-03
 -1      2772 3.26364E-03
 -1      2773 2.65684E-03
 -1      2774 2.33821E-03
 -1      2775 2.62990E-03
 -1      2776 2.09487E-03
 -1      2777 1.84198E-03
 -1      2778 2.09088E-03
 -1      2779 1.63037E-03
 -1      2780 1.42261E-03
 -1      2781 1.63592E-03
 -1      2782 1.24483E-03
 -1      2783 1.06875E-03
 -1      2784 1.24653E-03
 -1      2785 9.23671E-04
 -1      2786 7.78590E-04
 -1      2787 9.23671E-04
 -1      2788 6.62292E-04
 -1      2789 5.45995E-04
 -1      2790 6.62292E-04
 -1      2791 4.20442E+00
 -1      2792 4.27368E+00
 -1      2793 5.78824E+00
 -1      2794 4.70688E+00
 -1      2795 3.20940E+00
 -1      2796 2.84830E+00
 -1      2797 1.93153E+00
 -1      2798 2.10761E+00
 -1      2799 2.11792E+00
 -1      2800 2.31985E+00
 -1      2801 2.48089E+00
 -1      2802 1.85570E+00
 -1      2803 1.82096E+00
 -1      2804 2.57226E+00
 -1      2805 1.51906E+00
 -1      2806 1.64743E+00
 -1      2807 2.06703E+00
 -1      2808 1.45212E+00
 -1      2809 1.44723E+00
 -1      2810 1.78694E+00
 -1      2811 1.24187E+00
 -1      2812 1.28899E+00
 -1      2813 1.55198E+00
 -1      2814 1.04141E+00
 -1      2815 1.10897E+00
 -1      2816 1.25596E+00
 -1      2817 9.38861E-01
 -1      2818 9.77738E-01
 -1      2819 1.05938E+00
 -1      2820 8.11961E-01
 -1      2821 8.65270E-01
 -1      2822 9.22118E-01
 -1      2823 6.76141E-01
 -1      2824 7.38613E-01
 -1      2825 7.75179E-01
 -1      2826 5.46198E-01
 -1      2827 6.08514E-01
 -1      2828 6.34204E-01
 -1      2829 4.29986E-01
 -1      2830 4.86811E-01
 -1      2831 5.07190E-01
 -1      2832 3.30724E-01
 -1      2833 3.79610E-01
 -1      2834 3.97427E-01
 -1      2835 2.48793E-01
 -1      2836 2.89134E-01
 -1      2837 3.05462E-01
 -1      2838 1.82997E-01
 -1      2839 2.15229E-01
 -1      2840 2.30308E-01
 -1      2841 1.31388E-01
 -1      2842 1.56455E-01
 -1      2843 1.70202E-01
 -1      2844 9.17665E-02
 -1      2845 1.10795E-01
 -1      2846 1.23067E-01
 -1      2847 6.20279E-02
 -1      2848 7.60835E-02
 -1      2849 8.67916E-02
 -1      2850 4.24788E-02
 -1      2851 5.03090E-02
 -1      2852 5.93897E-02
 -1      2853 2.89376E-02
 -1      2854 3.38979E-02
 -1      2855 3.90898E-02
 -1      2856 2.11767E-02
 -1      2857 2.30978E-02
 -1      2858 2.46690E-02
 -1      2859 1.66313E-02
 -1      2860 1.85415E-02
 -1      2861 1.61940E-02
 -1      2862 1.43336E-02
 -1      2863 1.61157E-02
 -1      2864 1.30433E-02
 -1      2865 1.20300E-02
 -1      2866 1.36214E-02
 -1      2867 1.18156E-02
 -1      2868 9.89296E-03
 -1      2869 1.12444E-02
 -1      2870 1.03178E-02
 -1      2871 8.36021E-03
 -1      2872 9.11286E-03
 -1      2873 8.75203E-03
 -1      2874 6.95988E-03
 -1      2875 7.63289E-03
 -1      2876 7.24461E-03
 -1      2877 5.85935E-03
 -1      2878 6.50327E-03
 -1      2879 6.06069E-03
 -1      2880 4.88862E-03
 -1      2881 5.43395E-03
 -1      2882 5.17868E-03
 -1      2883 4.01726E-03
 -1      2884 4.48233E-03
 -1      2885 4.34700E-03
 -1      2886 3.24943E-03
 -1      2887 3.66346E-03
 -1      2888 3.58692E-03
 -1      2889 2.60245E-03
 -1      2890 2.93947E-03
 -1      2891 2.92316E-03
 -1      2892 2.05371E-03
 -1      2893 2.32680E-03
 -1      2894 2.33755E-03
 -1      2895 1.58019E-03
 -1      2896 1.81578E-03
 -1      2897 1.82397E-03
 -1      2898 1.19811E-03
 -1      2899 1.39612E-03
 -1      2900 1.40197E-03
 -1      2901 8.85541E-04
 -1      2902 1.04760E-03
 -1      2903 1.06739E-03
 -1      2904 6.26456E-04
 -1      2905 7.58204E-04
 -1      2906 7.89548E-04
 -1      2907 4.52215E-04
 -1      2908 5.44826E-04
 -1      2909 5.80581E-04
 -1      2910 4.26818E-04
 -1      2911 4.95964E-04
 -1      2912 4.95964E-04
 -1      2913 4.48027E-04
 -1      2914 3.35697E-04
 -1      2915 4.48027E-04
 -1      2916 4.85894E-04
 -1      2917 4.58624E-04
 -1      2918 4.95434E-04
 -1      2919 4.95681E-04
 -1      2920 5.60577E-04
 -1      2921 4.95964E-04
 -1      2922 4.94868E-04
 -1      2923 5.51887E-04
 -1      2924 5.60860E-04
 -1      2925 1.11373E+01
 -1      2926 1.45252E+01
 -1      2927 4.94369E-04
 -1      2928 4.95434E-04
 -1      2929 5.60294E-04
 -1      2930 4.57577E-04
 -1      2931 4.84422E-04
 -1      2932 5.50346E-04
 -1      2933 3.88310E-04
 -1      2934 4.06877E-04
 -1      2935 4.89699E-04
 -1      2936 2.30275E+00
 -1      2937 2.12167E+00
 -1      2938 2.88922E+00
 -1      2939 4.35722E+00
 -1      2940 4.63428E+00
 -1      2941 1.03327E+01
 -1      2942 8.30784E+00
 -1      2943 2.52044E+00
 -1      2944 1.80121E+00
 -1      2945 3.43841E-04
 -1      2946 7.98561E+00
 -1      2947 7.94036E+00
 -1      2948 5.68896E+00
 -1      2949 4.25327E+00
 -1      2950 2.68071E+00
 -1      2951 3.01616E+00
 -1      2952 2.66568E+00
 -1      2953 3.25893E+00
 -1      2954 3.35417E+00
 -1      2955 3.57955E+00
 -1      2956 3.48155E+00
 -1      2957 1.63614E+00
 -1      2958 1.77883E+00
 -1      2959 2.28673E+00
 -1      2960 2.35537E+00
 -1      2961 3.73058E+00
 -1      2962 4.46849E+00
 -1      2963 5.20348E+00
 -1      2964 2.85273E+00
 -1      2965 2.68834E+00
 -1      2966 3.19965E+00
 -1      2967 2.60254E+00
 -1      2968 6.97777E+00
 -1      2969 5.88883E+00
 -1      2970 7.92273E+00
 -1      2971 6.83307E+00
 -1      2972 5.28947E+00
 -1      2973 5.46488E+00
 -1      2974 6.25866E+00
 -1      2975 2.12752E+01
 -1      2976 1.96322E+01
 -1      2977 6.43856E+00
 -1      2978 6.13278E+00
 -1      2979 3.75791E+00
 -1      2980 4.80652E+00
 -1      2981 9.38597E+00
 -1      2982 7.47361E+00
 -1      2983 3.94928E+00
 -1      2984 5.49332E+00
 -1      2985 1.75659E+01
 -1      2986 1.36894E+01
 -1      2987 5.54198E+00
 -1      2988 7.44043E+00
 -1      2989 6.20785E+00
 -1      2990 6.30479E+00
 -1      2991 1.13508E+01
 -1      2992 1.42317E+01
 -1      2993 8.19269E+00
 -1      2994 9.47499E+00
 -1      2995 8.98573E+00
 -1      2996 6.65367E+00
 -1      2997 6.25797E+00
 -1      2998 4.04677E+00
 -1      2999 2.08383E+01
 -1      3000 1.72130E+01
 -1      3001 1.48688E+01
 -1      3002 1.10051E+01
 -1      3003 1.22053E+01
 -1      3004 1.66077E+01
 -1      3005 2.35896E+01
 -1      3006 6.92788E+00
 -1      3007 9.28188E+00
 -1      3008 8.21018E+00
 -1      3009 5.62576E+00
 -1      3010 2.79998E+00
 -1      3011 4.71596E+00
 -1      3012 3.90759E+00
 -1      3013 5.78727E+00
 -1      3014 2.86695E+00
 -1      3015 2.86061E+00
 -1      3016 1.49613E+01
 -1      3017 3.45713E+00
 -1      3018 4.33716E+00
 -1      3019 4.92574E-04
 -1      3020 4.08285E-04
 -1      3021 3.70720E-04
 -1      3022 3.57132E+00
 -1      3023 6.35771E+00
 -1      3024 4.13614E+00
 -1      3025 5.15701E+00
 -1      3026 4.22660E+00
 -1      3027 3.36506E-04
 -1      3028 3.64246E-04
 -1      3029 4.36379E-04
 -1      3030 4.08021E-04
 -1      3031 3.07474E+00
 -1      3032 3.43841E-04
 -1      3033 1.62063E+01
 -1      3034 9.06747E+00
 -1      3035 3.93014E+00
 -1      3036 7.04156E+00
 -1      3037 1.50629E+01
 -1      3038 1.95354E+01
 -1      3039 1.32466E+01
 -1      3040 6.21015E+00
 -1      3041 1.07201E+01
 -1      3042 1.16198E+01
 -1      3043 1.11008E+01
 -1      3044 9.18874E+00
 -1      3045 4.59033E+00
 -1      3046 4.93139E+00
 -1      3047 3.85991E-04
 -1      3048 3.79772E-04
 -1      3049 4.30461E-04
 -1      3050 4.83959E-04
 -1      3051 4.09313E+00
 -1      3052 5.60729E+00
 -1      3053 4.69960E+00
 -1      3054 1.40505E+01
 -1      3055 1.81144E+01
 -1      3056 4.58580E+00
 -1      3057 3.71794E+00
 -1      3058 1.26079E+01
 -1      3059 9.68964E+00
 -1      3060 1.41493E+01
 -1      3061 1.17721E+01
 -1      3062 8.66035E+00
 -1      3063 7.96148E+00
 -1      3064 2.85569E+00
 -1      3065 2.51552E+00
 -1      3066 2.35045E+00
 -1      3067 3.56250E+00
 -1      3068 1.06849E+01
 -1      3069 1.11987E+01
 -1      3070 8.85453E+00
 -1      3071 3.56333E+00
 -1      3072 3.70341E+00
 -1      3073 4.21996E+00
 -1      3074 4.84679E+00
 -1      3075 2.82788E+00
 -1      3076 2.36338E+00
 -1      3077 2.44892E+00
 -1      3078 2.56075E+00
 -1      3079 2.81864E+00
 -1      3080 2.77911E+00
 -1      3081 3.31538E+00
 -1      3082 2.10087E+00
 -1      3083 1.82358E+00
 -1      3084 2.89503E+00
 -1      3085 1.69651E+00
 -1      3086 1.60209E+00
 -1      3087 2.08973E+00
 -1      3088 1.39422E+00
 -1      3089 1.30230E+00
 -1      3090 1.75478E+00
 -1      3091 1.13383E+00
 -1      3092 1.03752E+00
 -1      3093 1.37844E+00
 -1      3094 9.29700E-01
 -1      3095 8.82621E-01
 -1      3096 1.10215E+00
 -1      3097 7.83518E-01
 -1      3098 7.32056E-01
 -1      3099 8.95232E-01
 -1      3100 6.51453E-01
 -1      3101 5.97920E-01
 -1      3102 7.15526E-01
 -1      3103 5.31209E-01
 -1      3104 4.78569E-01
 -1      3105 5.68211E-01
 -1      3106 4.22868E-01
 -1      3107 3.75023E-01
 -1      3108 4.45799E-01
 -1      3109 3.31070E-01
 -1      3110 2.89729E-01
 -1      3111 3.46145E-01
 -1      3112 2.54437E-01
 -1      3113 2.20511E-01
 -1      3114 2.66899E-01
 -1      3115 1.92674E-01
 -1      3116 1.66757E-01
 -1      3117 2.03770E-01
 -1      3118 1.44434E-01
 -1      3119 1.23899E-01
 -1      3120 1.53610E-01
 -1      3121 1.06101E-01
 -1      3122 8.99513E-02
 -1      3123 1.13489E-01
 -1      3124 7.60628E-02
 -1      3125 6.36005E-02
 -1      3126 8.18022E-02
 -1      3127 5.32514E-02
 -1      3128 4.38179E-02
 -1      3129 5.75646E-02
 -1      3130 3.63088E-02
 -1      3131 2.93116E-02
 -1      3132 3.97064E-02
 -1      3133 2.37675E-02
 -1      3134 1.86921E-02
 -1      3135 2.66531E-02
 -1      3136 1.46797E-02
 -1      3137 1.20023E-02
 -1      3138 1.70966E-02
 -1      3139 9.16649E-03
 -1      3140 8.57105E-03
 -1      3141 1.02484E-02
 -1      3142 7.52918E-03
 -1      3143 7.21525E-03
 -1      3144 6.37079E-03
 -1      3145 7.38244E-03
 -1      3146 6.90140E-03
 -1      3147 5.49611E-03
 -1      3148 6.82091E-03
 -1      3149 6.26877E-03
 -1      3150 5.58281E-03
 -1      3151 6.04303E-03
 -1      3152 5.48261E-03
 -1      3153 5.27657E-03
 -1      3154 5.18298E-03
 -1      3155 4.75505E-03
 -1      3156 4.75120E-03
 -1      3157 4.45852E-03
 -1      3158 4.09268E-03
 -1      3159 4.15505E-03
 -1      3160 3.86998E-03
 -1      3161 3.50742E-03
 -1      3162 3.63583E-03
 -1      3163 3.26100E-03
 -1      3164 2.92294E-03
 -1      3165 3.16671E-03
 -1      3166 2.67739E-03
 -1      3167 2.38171E-03
 -1      3168 2.67474E-03
 -1      3169 2.15178E-03
 -1      3170 1.90844E-03
 -1      3171 2.19927E-03
 -1      3172 1.70205E-03
 -1      3173 1.49043E-03
 -1      3174 1.76295E-03
 -1      3175 1.31094E-03
 -1      3176 1.13316E-03
 -1      3177 1.37707E-03
 -1      3178 9.80897E-04
 -1      3179 8.35816E-04
 -1      3180 1.04531E-03
 -1      3181 7.01739E-04
 -1      3182 5.85441E-04
 -1      3183 5.23405E-04
 -1      3184 7.58965E-04
 -1      3185 5.51950E+00
 -1      3186 6.27175E+00
 -1      3187 3.12239E+00
 -1      3188 2.73406E+00
 -1      3189 2.35886E+00
 -1      3190 2.43068E+00
 -1      3191 1.58676E+00
 -1      3192 1.74989E+00
 -1      3193 2.39364E+00
 -1      3194 1.32394E+00
 -1      3195 1.45684E+00
 -1      3196 1.65475E+00
 -1      3197 1.10819E+00
 -1      3198 1.17186E+00
 -1      3199 1.37275E+00
 -1      3200 9.03533E-01
 -1      3201 9.77124E-01
 -1      3202 1.08960E+00
 -1      3203 7.29982E-01
 -1      3204 8.03331E-01
 -1      3205 8.58336E-01
 -1      3206 5.79444E-01
 -1      3207 6.47071E-01
 -1      3208 6.75222E-01
 -1      3209 4.52546E-01
 -1      3210 5.11934E-01
 -1      3211 5.24801E-01
 -1      3212 3.48973E-01
 -1      3213 3.99349E-01
 -1      3214 4.04092E-01
 -1      3215 2.65347E-01
 -1      3216 3.06937E-01
 -1      3217 3.08858E-01
 -1      3218 1.99125E-01
 -1      3219 2.32689E-01
 -1      3220 2.34164E-01
 -1      3221 1.46842E-01
 -1      3222 1.73384E-01
 -1      3223 1.75764E-01
 -1      3224 1.06153E-01
 -1      3225 1.26746E-01
 -1      3226 1.29927E-01
 -1      3227 7.49654E-02
 -1      3228 9.06483E-02
 -1      3229 9.43268E-02
 -1      3230 5.14464E-02
 -1      3231 6.31653E-02
 -1      3232 6.70221E-02
 -1      3233 3.40230E-02
 -1      3234 4.26039E-02
 -1      3235 4.63795E-02
 -1      3236 2.16723E-02
 -1      3237 2.75122E-02
 -1      3238 3.10263E-02
 -1      3239 1.43393E-02
 -1      3240 1.69744E-02
 -1      3241 1.98176E-02
 -1      3242 1.05927E-02
 -1      3243 1.11083E-02
 -1      3244 1.18887E-02
 -1      3245 9.22783E-03
 -1      3246 9.94001E-03
 -1      3247 8.00495E-03
 -1      3248 8.43463E-03
 -1      3249 9.22027E-03
 -1      3250 7.34469E-03
 -1      3251 7.41388E-03
 -1      3252 8.19398E-03
 -1      3253 7.09648E-03
 -1      3254 6.32046E-03
 -1      3255 7.04778E-03
 -1      3256 6.48972E-03
 -1      3257 5.44512E-03
 -1      3258 5.90173E-03
 -1      3259 5.70489E-03
 -1      3260 4.63255E-03
 -1      3261 5.05795E-03
 -1      3262 4.89899E-03
 -1      3263 3.93711E-03
 -1      3264 4.34339E-03
 -1      3265 4.22266E-03
 -1      3266 3.27993E-03
 -1      3267 3.63373E-03
 -1      3268 3.63012E-03
 -1      3269 2.67678E-03
 -1      3270 2.98673E-03
 -1      3271 3.03355E-03
 -1      3272 2.13209E-03
 -1      3273 2.40775E-03
 -1      3274 2.47132E-03
 -1      3275 1.65620E-03
 -1      3276 1.89413E-03
 -1      3277 1.96432E-03
 -1      3278 1.26719E-03
 -1      3279 1.45126E-03
 -1      3280 1.52142E-03
 -1      3281 9.44864E-04
 -1      3282 1.09537E-03
 -1      3283 1.14466E-03
 -1      3284 6.74913E-04
 -1      3285 8.02250E-04
 -1      3286 8.30229E-04
 -1      3287 5.07595E-04
 -1      3288 5.89225E-04
 -1      3289 6.01927E-04
 -1      3290 4.45023E-04
 -1      3291 6.16315E-04
 -1      3292 6.16598E-04
 -1      3293 4.86916E-04
 -1      3294 5.37617E-04
 -1      3295 6.33764E-04
 -1      3296 6.33764E-04
 -1      3297 6.89785E-04
 -1      3298 3.82674E+00
 -1      3299 2.48655E+00
 -1      3300 4.89691E+00
 -1      3301 1.22027E+01
 -1      3302 2.13342E+01
 -1      3303 1.58298E+01
 -1      3304 9.87341E+00
 -1      3305 4.50040E+00
 -1      3306 5.38312E+00
 -1      3307 3.07644E+00
 -1      3308 3.64955E+00
 -1      3309 1.24326E+01
 -1      3310 1.44084E+01
 -1      3311 1.12892E+01
 -1      3312 1.15957E+01
 -1      3313 3.22944E+00
 -1      3314 4.49774E+00
 -1      3315 6.98511E+00
 -1      3316 5.51034E+00
 -1      3317 6.23817E-04
 -1      3318 6.33764E-04
 -1      3319 7.07234E-04
 -1      3320 6.21034E-04
 -1      3321 3.42325E+00
 -1      3322 3.63151E+00
 -1      3323 3.99516E+00
 -1      3324 2.50781E+00
 -1      3325 2.80477E+00
 -1      3326 3.86403E+00
 -1      3327 3.06087E+00
 -1      3328 3.63677E+00
 -1      3329 2.72600E+00
 -1      3330 8.91082E+00
 -1      3331 4.17504E+00
 -1      3332 8.16877E+00
 -1      3333 7.49636E+00
 -1      3334 3.88297E+00
 -1      3335 4.23791E+00
 -1      3336 4.41781E+00
 -1      3337 7.03506E+00
 -1      3338 2.16472E+01
 -1      3339 3.98824E+00
 -1      3340 6.19684E+00
 -1      3341 5.59356E-04
 -1      3342 5.09017E-04
 -1      3343 1.09677E+01
 -1      3344 7.61690E+00
 -1      3345 9.66483E+00
 -1      3346 4.19964E+00
 -1      3347 4.92867E+00
 -1      3348 4.04677E+00
 -1      3349 4.24292E+00
 -1      3350 1.60654E+01
 -1      3351 4.09313E+00
 -1      3352 2.48655E+00
 -1      3353 2.88641E+00
 -1      3354 6.32899E-04
 -1      3355 6.23925E-04
 -1      3356 6.40368E-04
 -1      3357 3.43477E+00
 -1      3358 2.88922E+00
 -1      3359 3.38459E+00
 -1      3360 4.11565E+00
 -1      3361 6.32899E-04
 -1      3362 6.32899E-04
 -1      3363 7.04937E-04
 -1      3364 6.88636E-04
 -1      3365 4.31214E+00
 -1      3366 2.57209E+00
 -1      3367 2.88659E+00
 -1      3368 1.05565E+01
 -1      3369 8.75852E+00
 -1      3370 8.09807E+00
 -1      3371 5.96514E+00
 -1      3372 4.25569E+00
 -1      3373 1.11506E+01
 -1      3374 1.01899E+01
 -1      3375 2.79016E+00
 -1      3376 5.02397E+00
 -1      3377 4.41178E+00
 -1      3378 5.08779E-04
 -1      3379 5.17317E-04
 -1      3380 5.65235E-04
 -1      3381 6.10262E-04
 -1      3382 4.55277E+00
 -1      3383 7.16214E+00
 -1      3384 8.70528E+00
 -1      3385 7.63262E+00
 -1      3386 8.31894E+00
 -1      3387 7.94301E+00
 -1      3388 6.33742E+00
 -1      3389 5.99569E+00
 -1      3390 7.85108E+00
 -1      3391 6.10445E+00
 -1      3392 4.56956E+00
 -1      3393 1.54643E+01
 -1      3394 1.16959E+01
 -1      3395 8.75505E+00
 -1      3396 3.81853E+00
 -1      3397 3.12144E+00
 -1      3398 1.96352E+00
 -1      3399 2.97962E+00
 -1      3400 2.85255E+00
 -1      3401 2.44313E+00
 -1      3402 2.23525E+00
 -1      3403 3.33302E+00
 -1      3404 1.67639E+00
 -1      3405 1.50793E+00
 -1      3406 2.36474E+00
 -1      3407 1.26689E+00
 -1      3408 1.15907E+00
 -1      3409 1.56484E+00
 -1      3410 9.74761E-01
 -1      3411 8.75658E-01
 -1      3412 1.13950E+00
 -1      3413 7.72471E-01
 -1      3414 6.91868E-01
 -1      3415 8.52000E-01
 -1      3416 6.17087E-01
 -1      3417 5.50376E-01
 -1      3418 6.74032E-01
 -1      3419 4.94076E-01
 -1      3420 4.38375E-01
 -1      3421 5.42951E-01
 -1      3422 3.88583E-01
 -1      3423 3.44629E-01
 -1      3424 4.36860E-01
 -1      3425 3.02191E-01
 -1      3426 2.66899E-01
 -1      3427 3.44629E-01
 -1      3428 2.31607E-01
 -1      3429 2.03770E-01
 -1      3430 2.66899E-01
 -1      3431 1.75036E-01
 -1      3432 1.52713E-01
 -1      3433 2.02873E-01
 -1      3434 1.29777E-01
 -1      3435 1.11979E-01
 -1      3436 1.51203E-01
 -1      3437 9.40047E-02
 -1      3438 8.01161E-02
 -1      3439 1.10293E-01
 -1      3440 6.62863E-02
 -1      3441 5.59372E-02
 -1      3442 7.84887E-02
 -1      3443 4.59492E-02
 -1      3444 3.84401E-02
 -1      3445 5.46709E-02
 -1      3446 3.10927E-02
 -1      3447 2.55486E-02
 -1      3448 3.73355E-02
 -1      3449 2.01470E-02
 -1      3450 1.61346E-02
 -1      3451 2.45866E-02
 -1      3452 1.22546E-02
 -1      3453 9.41880E-03
 -1      3454 1.53050E-02
 -1      3455 6.77372E-03
 -1      3456 5.73185E-03
 -1      3457 8.77986E-03
 -1      3458 4.27758E-03
 -1      3459 4.44477E-03
 -1      3460 4.68051E-03
 -1      3461 4.80452E-03
 -1      3462 4.72403E-03
 -1      3463 3.58599E-03
 -1      3464 4.88282E-03
 -1      3465 4.65707E-03
 -1      3466 4.10452E-03
 -1      3467 4.61534E-03
 -1      3468 4.31571E-03
 -1      3469 4.22158E-03
 -1      3470 4.15505E-03
 -1      3471 3.85852E-03
 -1      3472 4.01919E-03
 -1      3473 3.63583E-03
 -1      3474 3.41313E-03
 -1      3475 3.63583E-03
 -1      3476 3.20401E-03
 -1      3477 2.95759E-03
 -1      3478 3.20401E-03
 -1      3479 2.76439E-03
 -1      3480 2.51884E-03
 -1      3481 2.80169E-03
 -1      3482 2.31554E-03
 -1      3483 2.08561E-03
 -1      3484 2.40518E-03
 -1      3485 1.88837E-03
 -1      3486 1.68198E-03
 -1      3487 2.00465E-03
 -1      3488 1.50076E-03
 -1      3489 1.32127E-03
 -1      3490 1.62619E-03
 -1      3491 1.15905E-03
 -1      3492 1.00678E-03
 -1      3493 1.28275E-03
 -1      3494 2.75907E+00
 -1      3495 3.36804E+00
 -1      3496 1.05556E+00
 -1      3497 1.18663E+00
 -1      3498 8.28225E-01
 -1      3499 9.28428E-01
 -1      3500 1.02545E+00
 -1      3501 6.58300E-01
 -1      3502 7.41211E-01
 -1      3503 8.11302E-01
 -1      3504 5.15127E-01
 -1      3505 5.82638E-01
 -1      3506 6.48626E-01
 -1      3507 3.98435E-01
 -1      3508 4.51633E-01
 -1      3509 5.09470E-01
 -1      3510 3.04325E-01
 -1      3511 3.46361E-01
 -1      3512 3.93902E-01
 -1      3513 2.29709E-01
 -1      3514 2.62367E-01
 -1      3515 2.99870E-01
 -1      3516 1.70643E-01
 -1      3517 1.96384E-01
 -1      3518 2.24587E-01
 -1      3519 1.24477E-01
 -1      3520 1.44573E-01
 -1      3521 1.65193E-01
 -1      3522 8.88903E-02
 -1      3523 1.04395E-01
 -1      3524 1.19041E-01
 -1      3525 6.21233E-02
 -1      3526 7.39234E-02
 -1      3527 8.39916E-02
 -1      3528 4.25134E-02
 -1      3529 5.13558E-02
 -1      3530 5.82572E-02
 -1      3531 2.80107E-02
 -1      3532 3.45215E-02
 -1      3533 3.94978E-02
 -1      3534 1.74975E-02
 -1      3535 2.21954E-02
 -1      3536 2.56907E-02
 -1      3537 1.02081E-02
 -1      3538 1.34391E-02
 -1      3539 1.58169E-02
 -1      3540 6.73697E-03
 -1      3541 7.38966E-03
 -1      3542 8.94007E-03
 -1      3543 5.65257E-03
 -1      3544 5.66013E-03
 -1      3545 5.04484E-03
 -1      3546 5.79652E-03
 -1      3547 6.03717E-03
 -1      3548 4.35260E-03
 -1      3549 5.50930E-03
 -1      3550 5.87541E-03
 -1      3551 4.81610E-03
 -1      3552 4.97988E-03
 -1      3553 5.39861E-03
 -1      3554 4.78429E-03
 -1      3555 4.37444E-03
 -1      3556 4.76161E-03
 -1      3557 4.45533E-03
 -1      3558 3.81567E-03
 -1      3559 4.10484E-03
 -1      3560 3.96746E-03
 -1      3561 3.28785E-03
 -1      3562 3.59122E-03
 -1      3563 3.47340E-03
 -1      3564 2.77650E-03
 -1      3565 3.06970E-03
 -1      3566 3.03080E-03
 -1      3567 2.28247E-03
 -1      3568 2.55150E-03
 -1      3569 2.58765E-03
 -1      3570 1.82908E-03
 -1      3571 2.06704E-03
 -1      3572 2.14722E-03
 -1      3573 1.42764E-03
 -1      3574 1.63258E-03
 -1      3575 1.73530E-03
 -1      3576 1.08175E-03
 -1      3577 1.25357E-03
 -1      3578 1.36473E-03
 -1      3579 8.41328E-04
 -1      3580 9.83942E-04
 -1      3581 1.09285E-03
 -1      3582 5.32051E-04
 -1      3583 4.97837E-04
 -1      3584 5.69053E-04
 -1      3585 5.98833E-04
 -1      3586 7.82752E-04
 -1      3587 7.65303E-04
 -1      3588 3.97207E+00
 -1      3589 8.53545E+00
 -1      3590 9.19002E+00
 -1      3591 4.51358E+00
 -1      3592 2.95031E+00
 -1      3593 1.42981E+00
 -1      3594 1.58189E+00
 -1      3595 1.39577E+00
 -1      3596 2.03899E+00
 -1      3597 2.16892E+00
 -1      3598 3.14332E+00
 -1      3599 2.09606E+00
 -1      3600 4.24514E+00
 -1      3601 6.36832E+00
 -1      3602 5.68255E+00
 -1      3603 6.39639E+00
 -1      3604 7.76710E+00
 -1      3605 5.97523E+00
 -1      3606 5.58413E+00
 -1      3607 5.07289E+00
 -1      3608 4.79031E+00
 -1      3609 6.67832E+00
 -1      3610 5.31215E+00
 -1      3611 4.13257E+00
 -1      3612 6.06292E+00
 -1      3613 6.29392E+00
 -1      3614 4.81433E+00
 -1      3615 3.45434E+00
 -1      3616 4.21716E+00
 -1      3617 8.45598E-04
 -1      3618 7.52630E-04
 -1      3619 7.68931E-04
 -1      3620 8.60378E-04
 -1      3621 7.26302E-04
 -1      3622 7.11675E-04
 -1      3623 9.74118E-04
 -1      3624 6.91109E+00
 -1      3625 5.15289E+00
 -1      3626 4.78746E+00
 -1      3627 7.85419E-04
 -1      3628 8.08454E-04
 -1      3629 6.54741E-04
 -1      3630 8.49988E-04
 -1      3631 7.85419E-04
 -1      3632 9.95040E-04
 -1      3633 8.17126E-04
 -1      3634 8.92644E-04
 -1      3635 8.17126E-04
 -1      3636 7.95633E+00
 -1      3637 5.85716E+00
 -1      3638 6.08023E+00
 -1      3639 6.55145E+00
 -1      3640 5.78002E+00
 -1      3641 4.97697E+00
 -1      3642 6.81275E-04
 -1      3643 8.77367E-04
 -1      3644 7.30926E-04
 -1      3645 8.17126E-04
 -1      3646 1.02377E-03
 -1      3647 5.55291E+00
 -1      3648 6.02772E+00
 -1      3649 4.70474E+00
 -1      3650 2.51736E+00
 -1      3651 1.95850E+00
 -1      3652 1.76420E+00
 -1      3653 1.52317E+00
 -1      3654 1.91682E+00
 -1      3655 1.27745E+00
 -1      3656 1.09314E+00
 -1      3657 1.47681E+00
 -1      3658 9.54540E-01
 -1      3659 8.51353E-01
 -1      3660 1.09250E+00
 -1      3661 7.48813E-01
 -1      3662 6.74032E-01
 -1      3663 8.51353E-01
 -1      3664 5.92137E-01
 -1      3665 5.35837E-01
 -1      3666 6.66918E-01
 -1      3667 4.70619E-01
 -1      3668 4.20828E-01
 -1      3669 5.19805E-01
 -1      3670 3.69089E-01
 -1      3671 3.26651E-01
 -1      3672 4.02849E-01
 -1      3673 2.85438E-01
 -1      3674 2.50145E-01
 -1      3675 3.09897E-01
 -1      3676 2.17394E-01
 -1      3677 1.88660E-01
 -1      3678 2.35932E-01
 -1      3679 1.62841E-01
 -1      3680 1.39905E-01
 -1      3681 1.77362E-01
 -1      3682 1.19720E-01
 -1      3683 1.01746E-01
 -1      3684 1.31358E-01
 -1      3685 8.61330E-02
 -1      3686 7.23032E-02
 -1      3687 9.55602E-02
 -1      3688 6.03856E-02
 -1      3689 5.03976E-02
 -1      3690 6.80299E-02
 -1      3691 4.14622E-02
 -1      3692 3.41148E-02
 -1      3693 4.71769E-02
 -1      3694 2.79538E-02
 -1      3695 2.25522E-02
 -1      3696 3.20805E-02
 -1      3697 1.80134E-02
 -1      3698 1.41334E-02
 -1      3699 2.13807E-02
 -1      3700 1.08588E-02
 -1      3701 8.21370E-03
 -1      3702 1.35672E-02
 -1      3703 5.91638E-03
 -1      3704 4.46211E-03
 -1      3705 7.99530E-03
 -1      3706 3.23788E-03
 -1      3707 3.59763E-03
 -1      3708 4.47375E-03
 -1      3709 3.27835E-03
 -1      3710 3.43714E-03
 -1      3711 2.93025E-03
 -1      3712 3.68617E-03
 -1      3713 3.64445E-03
 -1      3714 2.86000E-03
 -1      3715 3.69424E-03
 -1      3716 3.53358E-03
 -1      3717 3.15884E-03
 -1      3718 3.45953E-03
 -1      3719 3.23683E-03
 -1      3720 3.13459E-03
 -1      3721 3.09236E-03
 -1      3722 2.88324E-03
 -1      3723 2.91607E-03
 -1      3724 2.70506E-03
 -1      3725 2.51186E-03
 -1      3726 2.59341E-03
 -1      3727 2.35969E-03
 -1      3728 2.15639E-03
 -1      3729 2.26306E-03
 -1      3730 1.99822E-03
 -1      3731 1.80098E-03
 -1      3732 1.95272E-03
 -1      3733 1.64323E-03
 -1      3734 1.46201E-03
 -1      3735 1.63680E-03
 -1      3736 1.36975E-03
 -1      3737 1.20752E-03
 -1      3738 1.38678E-03
 -1      3739 8.03260E-01
 -1      3740 8.90275E-01
 -1      3741 1.02545E+00
 -1      3742 1.15259E+00
 -1      3743 1.01741E+00
 -1      3744 4.82266E-01
 -1      3745 5.45760E-01
 -1      3746 3.69109E-01
 -1      3747 4.21183E-01
 -1      3748 4.57473E-01
 -1      3749 2.79504E-01
 -1      3750 3.21462E-01
 -1      3751 3.48744E-01
 -1      3752 2.08800E-01
 -1      3753 2.42125E-01
 -1      3754 2.63717E-01
 -1      3755 1.53532E-01
 -1      3756 1.79601E-01
 -1      3757 1.97139E-01
 -1      3758 1.10799E-01
 -1      3759 1.30881E-01
 -1      3760 1.45290E-01
 -1      3761 7.84286E-02
 -1      3762 9.33955E-02
 -1      3763 1.05236E-01
 -1      3764 5.44509E-02
 -1      3765 6.52184E-02
 -1      3766 7.46223E-02
 -1      3767 3.67729E-02
 -1      3768 4.47647E-02
 -1      3769 5.17259E-02
 -1      3770 2.41218E-02
 -1      3771 2.99371E-02
 -1      3772 3.52040E-02
 -1      3773 1.50472E-02
 -1      3774 1.91056E-02
 -1      3775 2.33521E-02
 -1      3776 8.62388E-03
 -1      3777 1.14423E-02
 -1      3778 1.47310E-02
 -1      3779 5.04955E-03
 -1      3780 6.12639E-03
 -1      3781 8.62859E-03
 -1      3782 4.05160E-03
 -1      3783 3.66700E-03
 -1      3784 4.74855E-03
 -1      3785 3.98025E-03
 -1      3786 3.90136E-03
 -1      3787 3.21576E-03
 -1      3788 4.09751E-03
 -1      3789 4.20821E-03
 -1      3790 3.29347E-03
 -1      3791 3.90260E-03
 -1      3792 4.12086E-03
 -1      3793 3.54478E-03
 -1      3794 3.53118E-03
 -1      3795 3.80079E-03
 -1      3796 3.46632E-03
 -1      3797 3.13560E-03
 -1      3798 3.36005E-03
 -1      3799 3.19338E-03
 -1      3800 2.72086E-03
 -1      3801 2.93900E-03
 -1      3802 2.82566E-03
 -1      3803 2.33404E-03
 -1      3804 2.55904E-03
 -1      3805 2.46725E-03
 -1      3806 1.94429E-03
 -1      3807 2.15972E-03
 -1      3808 2.13111E-03
 -1      3809 1.57638E-03
 -1      3810 1.77287E-03
 -1      3811 1.78537E-03
 -1      3812 1.24345E-03
 -1      3813 1.41753E-03
 -1      3814 1.45510E-03
 -1      3815 1.01768E-03
 -1      3816 1.11549E-03
 -1      3817 1.16828E-03
 -1      3818 1.01768E-03
 -1      3819 5.50932E+00
 -1      3820 5.84030E+00
 -1      3821 1.35708E+00
 -1      3822 1.60026E+00
 -1      3823 1.35708E+00
 -1      3824 4.31558E+00
 -1      3825 6.24534E-01
 -1      3826 7.00195E-01
 -1      3827 5.97329E-01
 -1      3828 3.48637E+00
 -1      3829 3.07695E+00
 -1      3830 2.67071E+00
 -1      3831 4.05952E+00
 -1      3832 3.61870E+00
 -1      3833 4.86220E+00
 -1      3834 4.15105E+00
 -1      3835 3.02854E+00
 -1      3836 8.18878E-04
 -1      3837 8.18878E-04
 -1      3838 8.82872E-04
 -1      3839 5.03810E+00
 -1      3840 9.27018E-04
 -1      3841 1.11077E-03
 -1      3842 7.79168E-01
 -1      3843 9.63930E-04
 -1      3844 5.35942E+00
 -1      3845 4.47606E+00
 -1      3846 4.78030E+00
 -1      3847 1.87718E+00
 -1      3848 2.33428E+00
 -1      3849 2.80966E+00
 -1      3850 1.83848E+00
 -1      3851 1.01361E-03
 -1      3852 9.79236E-04
 -1      3853 3.98512E+00
 -1      3854 9.39350E-04
 -1      3855 9.26678E-04
 -1      3856 1.06032E-03
 -1      3857 4.27325E+00
 -1      3858 4.51318E+00
 -1      3859 4.01544E+00
 -1      3860 1.11077E-03
 -1      3861 1.19736E-03
 -1      3862 1.71040E+00
 -1      3863 1.46468E+00
 -1      3864 1.23110E+00
 -1      3865 1.09250E+00
 -1      3866 1.46468E+00
 -1      3867 9.24649E-01
 -1      3868 8.22108E-01
 -1      3869 1.06325E+00
 -1      3870 7.05636E-01
 -1      3871 6.23741E-01
 -1      3872 7.78932E-01
 -1      3873 5.41344E-01
 -1      3874 4.76127E-01
 -1      3875 5.80063E-01
 -1      3876 4.15391E-01
 -1      3877 3.63653E-01
 -1      3878 4.36931E-01
 -1      3879 3.17753E-01
 -1      3880 2.76540E-01
 -1      3881 3.30296E-01
 -1      3882 2.41355E-01
 -1      3883 2.08603E-01
 -1      3884 2.49211E-01
 -1      3885 1.81615E-01
 -1      3886 1.55797E-01
 -1      3887 1.87038E-01
 -1      3888 1.34959E-01
 -1      3889 1.14774E-01
 -1      3890 1.39212E-01
 -1      3891 9.87198E-02
 -1      3892 8.31072E-02
 -1      3893 1.02321E-01
 -1      3894 7.08265E-02
 -1      3895 5.89089E-02
 -1      3896 7.39862E-02
 -1      3897 4.96142E-02
 -1      3898 4.06787E-02
 -1      3899 5.24108E-02
 -1      3900 3.37383E-02
 -1      3901 2.75773E-02
 -1      3902 3.61756E-02
 -1      3903 2.29622E-02
 -1      3904 1.84234E-02
 -1      3905 2.46201E-02
 -1      3906 1.52887E-02
 -1      3907 1.20141E-02
 -1      3908 1.68703E-02
 -1      3909 9.68062E-03
 -1      3910 7.38330E-03
 -1      3911 1.14021E-02
 -1      3912 5.68291E-03
 -1      3913 4.45868E-03
 -1      3914 7.36824E-03
 -1      3915 3.24952E-03
 -1      3916 2.93025E-03
 -1      3917 4.45868E-03
 -1      3918 2.20874E-03
 -1      3919 2.45777E-03
 -1      3920 2.52801E-03
 -1      3921 2.70395E-03
 -1      3922 2.75375E-03
 -1      3923 2.05269E-03
 -1      3924 2.82804E-03
 -1      3925 2.75399E-03
 -1      3926 2.37315E-03
 -1      3927 2.71951E-03
 -1      3928 2.57503E-03
 -1      3929 2.41296E-03
 -1      3930 2.47682E-03
 -1      3931 2.29864E-03
 -1      3932 2.28026E-03
 -1      3933 2.16789E-03
 -1      3934 2.01572E-03
 -1      3935 2.05130E-03
 -1      3936 1.87288E-03
 -1      3937 1.71471E-03
 -1      3938 1.77771E-03
 -1      3939 1.58944E-03
 -1      3940 1.43169E-03
 -1      3941 1.50961E-03
 -1      3942 1.38678E-03
 -1      3943 1.29452E-03
 -1      3944 1.19736E-03
 -1      3945 1.33943E-03
 -1      3946 9.40558E-01
 -1      3947 1.07574E+00
 -1      3948 3.08435E-01
 -1      3949 3.56082E-01
 -1      3950 4.06069E-01
 -1      3951 4.67151E-01
 -1      3952 3.65761E-01
 -1      3953 1.73572E-01
 -1      3954 2.02771E-01
 -1      3955 1.27840E-01
 -1      3956 1.50491E-01
 -1      3957 1.56122E-01
 -1      3958 9.25682E-02
 -1      3959 1.09972E-01
 -1      3960 1.15172E-01
 -1      3961 6.56268E-02
 -1      3962 7.88371E-02
 -1      3963 8.35726E-02
 -1      3964 4.55055E-02
 -1      3965 5.51916E-02
 -1      3966 5.94063E-02
 -1      3967 3.08495E-02
 -1      3968 3.76852E-02
 -1      3969 4.11509E-02
 -1      3970 2.04672E-02
 -1      3971 2.54834E-02
 -1      3972 2.79646E-02
 -1      3973 1.29543E-02
 -1      3974 1.65592E-02
 -1      3975 1.86905E-02
 -1      3976 7.78328E-03
 -1      3977 1.02808E-02
 -1      3978 1.21090E-02
 -1      3979 4.62875E-03
 -1      3980 6.01130E-03
 -1      3981 7.66347E-03
 -1      3982 3.22097E-03
 -1      3983 3.37121E-03
 -1      3984 4.63396E-03
 -1      3985 2.78809E-03
 -1      3986 2.56013E-03
 -1      3987 2.71559E-03
 -1      3988 3.07100E-03
 -1      3989 3.04765E-03
 -1      3990 2.31431E-03
 -1      3991 3.04231E-03
 -1      3992 3.14411E-03
 -1      3993 2.64699E-03
 -1      3994 2.82692E-03
 -1      3995 2.99806E-03
 -1      3996 2.67585E-03
 -1      3997 2.51784E-03
 -1      3998 2.71443E-03
 -1      3999 2.51911E-03
 -1      4000 2.20925E-03
 -1      4001 2.37107E-03
 -1      4002 2.25984E-03
 -1      4003 1.88260E-03
 -1      4004 2.05692E-03
 -1      4005 1.96073E-03
 -1      4006 1.57676E-03
 -1      4007 1.74818E-03
 -1      4008 1.67398E-03
 -1      4009 1.28374E-03
 -1      4010 1.44259E-03
 -1      4011 1.40540E-03
 -1      4012 8.77845E-04
 -1      4013 9.27792E-04
 -1      4014 9.71598E-04
 -1      4015 1.26500E+00
 -1      4016 1.46949E+00
 -1      4017 1.18815E+00
 -1      4018 2.10757E+00
 -1      4019 1.91328E+00
 -1      4020 1.90114E+00
 -1      4021 2.32525E-01
 -1      4022 2.69904E-01
 -1      4023 2.77243E-01
 -1      4024 3.28739E+00
 -1      4025 2.72780E+00
 -1      4026 2.72425E+00
 -1      4027 4.04221E+00
 -1      4028 5.33761E-01
 -1      4029 6.12535E-01
 -1      4030 4.82357E-01
 -1      4031 9.78305E-04
 -1      4032 1.00942E-03
 -1      4033 1.03205E-03
 -1      4034 9.73277E-04
 -1      4035 4.00702E+00
 -1      4036 7.04760E-01
 -1      4037 8.07825E-01
 -1      4038 8.66150E-01
 -1      4039 1.15748E-03
 -1      4040 1.06032E-03
 -1      4041 1.02043E-03
 -1      4042 2.08958E-01
 -1      4043 3.99823E+00
 -1      4044 3.33570E+00
 -1      4045 2.71547E+00
 -1      4046 3.80473E+00
 -1      4047 1.16002E-03
 -1      4048 1.14751E-03
 -1      4049 3.24112E+00
 -1      4050 3.88824E+00
 -1      4051 3.36332E+00
 -1      4052 2.54686E+00
 -1      4053 1.72594E+00
 -1      4054 2.00286E+00
 -1      4055 2.43432E+00
 -1      4056 1.63387E+00
 -1      4057 6.41192E-01
 -1      4058 8.39972E-02
 -1      4059 9.77283E-02
 -1      4060 2.09956E+00
 -1      4061 1.89668E+00
 -1      4062 2.71100E+00
 -1      4063 3.43428E-01
 -1      4064 3.93414E-01
 -1      4065 1.10179E+00
 -1      4066 9.33944E-01
 -1      4067 7.85289E-01
 -1      4068 6.68817E-01
 -1      4069 8.23828E-01
 -1      4070 5.72095E-01
 -1      4071 4.89698E-01
 -1      4072 5.78452E-01
 -1      4073 4.40881E-01
 -1      4074 3.80146E-01
 -1      4075 4.32913E-01
 -1      4076 3.34890E-01
 -1      4077 2.88990E-01
 -1      4078 3.38840E-01
 -1      4079 2.56182E-01
 -1      4080 2.20996E-01
 -1      4081 2.60775E-01
 -1      4082 1.94358E-01
 -1      4083 1.67370E-01
 -1      4084 2.01329E-01
 -1      4085 1.46425E-01
 -1      4086 1.25588E-01
 -1      4087 1.53745E-01
 -1      4088 1.09065E-01
 -1      4089 9.30109E-02
 -1      4090 1.16278E-01
 -1      4091 7.99943E-02
 -1      4092 6.77137E-02
 -1      4093 8.67384E-02
 -1      4094 5.75761E-02
 -1      4095 4.82814E-02
 -1      4096 6.35842E-02
 -1      4097 4.04925E-02
 -1      4098 3.35520E-02
 -1      4099 4.56578E-02
 -1      4100 2.76787E-02
 -1      4101 2.30636E-02
 -1      4102 3.19956E-02
 -1      4103 1.90968E-02
 -1      4104 1.59621E-02
 -1      4105 2.21555E-02
 -1      4106 1.29890E-02
 -1      4107 1.06555E-02
 -1      4108 1.52155E-02
 -1      4109 8.47031E-03
 -1      4110 6.76993E-03
 -1      4111 1.00572E-02
 -1      4112 5.19900E-03
 -1      4113 3.98983E-03
 -1      4114 6.30107E-03
 -1      4115 2.88964E-03
 -1      4116 2.16813E-03
 -1      4117 3.62996E-03
 -1      4118 1.56516E-03
 -1      4119 1.81135E-03
 -1      4120 1.92679E-03
 -1      4121 2.00159E-03
 -1      4122 2.07587E-03
 -1      4123 1.51406E-03
 -1      4124 2.20652E-03
 -1      4125 2.17204E-03
 -1      4126 1.83496E-03
 -1      4127 2.18781E-03
 -1      4128 2.08960E-03
 -1      4129 1.98138E-03
 -1      4130 2.03447E-03
 -1      4131 1.90372E-03
 -1      4132 1.94202E-03
 -1      4133 1.80616E-03
 -1      4134 1.66332E-03
 -1      4135 1.78933E-03
 -1      4136 1.64373E-03
 -1      4137 1.51846E-03
 -1      4138 1.67217E-03
 -1      4139 1.48582E-03
 -1      4140 1.44091E-03
 -1      4141 1.30387E-03
 -1      4142 1.61994E-03
 -1      4143 1.54486E+00
 -1      4144 1.31128E+00
 -1      4145 1.18197E+00
 -1      4146 1.09700E-03
 -1      4147 1.14654E-01
 -1      4148 1.32522E-01
 -1      4149 1.15078E-01
 -1      4150 1.53866E-01
 -1      4151 1.76947E-01
 -1      4152 1.53347E-01
 -1      4153 6.02969E-02
 -1      4154 7.07320E-02
 -1      4155 8.48878E-02
 -1      4156 4.22215E-02
 -1      4157 5.00417E-02
 -1      4158 6.13674E-02
 -1      4159 2.94159E-02
 -1      4160 3.47820E-02
 -1      4161 4.36728E-02
 -1      4162 1.99568E-02
 -1      4163 2.38648E-02
 -1      4164 3.06822E-02
 -1      4165 1.31310E-02
 -1      4166 1.58045E-02
 -1      4167 2.09788E-02
 -1      4168 8.31501E-03
 -1      4169 1.00870E-02
 -1      4170 1.37825E-02
 -1      4171 4.87672E-03
 -1      4172 6.13425E-03
 -1      4173 8.55777E-03
 -1      4174 2.71559E-03
 -1      4175 3.37643E-03
 -1      4176 4.87672E-03
 -1      4177 2.10775E-03
 -1      4178 1.84818E-03
 -1      4179 2.50902E-03
 -1      4180 2.31406E-03
 -1      4181 2.24095E-03
 -1      4182 1.77482E-03
 -1      4183 2.34073E-03
 -1      4184 2.38498E-03
 -1      4185 1.97894E-03
 -1      4186 2.20462E-03
 -1      4187 2.31711E-03
 -1      4188 2.02624E-03
 -1      4189 2.05511E-03
 -1      4190 2.20189E-03
 -1      4191 1.99989E-03
 -1      4192 1.84765E-03
 -1      4193 1.99998E-03
 -1      4194 1.94202E-03
 -1      4195 1.61567E-03
 -1      4196 1.75008E-03
 -1      4197 1.78933E-03
 -1      4198 1.46191E-03
 -1      4199 1.59608E-03
 -1      4200 1.67217E-03
 -1      4201 9.63129E-01
 -1      4202 1.15239E+00
 -1      4203 7.20250E-01
 -1      4204 8.52983E-01
 -1      4205 8.17229E-01
 -1      4206 4.31144E-01
 -1      4207 4.97754E-01
 -1      4208 4.08811E-01
 -1      4209 1.28767E-03
 -1      4210 1.46191E-03
 -1      4211 1.65258E-03
 -1      4212 1.33651E-03
 -1      4213 3.18082E+00
 -1      4214 3.44794E+00
 -1      4215 2.97012E+00
 -1      4216 2.66148E-01
 -1      4217 3.04679E-01
 -1      4218 3.32333E-01
 -1      4219 2.03585E-01
 -1      4220 2.33340E-01
 -1      4221 2.60775E-01
 -1      4222 2.01329E-01
 -1      4223 5.47255E-01
 -1      4224 6.39480E-01
 -1      4225 4.96042E-01
 -1      4226 1.74328E+00
 -1      4227 6.26314E-01
 -1      4228 1.33651E-03
 -1      4229 1.10790E+00
 -1      4230 1.33292E+00
 -1      4231 1.58937E+00
 -1      4232 2.47809E+00
 -1      4233 2.86310E+00
 -1      4234 2.29560E+00
 -1      4235 1.93410E+00
 -1      4236 1.32228E+00
 -1      4237 1.11279E+00
 -1      4238 6.31774E-01
 -1      4239 5.35053E-01
 -1      4240 4.64136E-01
 -1      4241 4.15318E-01
 -1      4242 3.77589E-01
 -1      4243 3.32333E-01
 -1      4244 2.93584E-01
 -1      4245 2.60775E-01
 -1      4246 2.27967E-01
 -1      4247 2.01329E-01
 -1      4248 1.74690E-01
 -1      4249 1.53745E-01
 -1      4250 1.32402E-01
 -1      4251 1.15879E-01
 -1      4252 9.89539E-02
 -1      4253 8.59374E-02
 -1      4254 7.26722E-02
 -1      4255 6.25346E-02
 -1      4256 5.22794E-02
 -1      4257 4.44905E-02
 -1      4258 3.70511E-02
 -1      4259 3.11778E-02
 -1      4260 2.56267E-02
 -1      4261 2.16598E-02
 -1      4262 1.75075E-02
 -1      4263 1.45345E-02
 -1      4264 1.14905E-02
 -1      4265 9.30526E-03
 -1      4266 7.12451E-03
 -1      4267 5.55358E-03
 -1      4268 4.05329E-03
 -1      4269 2.95310E-03
 -1      4270 2.08569E-03
 -1      4271 1.48272E-03
 -1      4272 1.61592E-03
 -1      4273 1.80616E-03
 -1      4274 1.87708E-03
 -1      4275 2.00773E-03
 -1      4276 1.98412E-03
 -1      4277 1.99989E-03
 -1      4278 1.99715E-03
 -1      4279 1.94202E-03
 -1      4280 1.88689E-03
 -1      4281 1.78933E-03
 -1      4282 1.69177E-03
 -1      4283 1.67217E-03
 -1      4284 1.65258E-03
 -1      4285 1.83731E+00
 -1      4286 1.48549E+00
 -1      4287 2.35421E+00
 -1      4288 8.89680E-01
 -1      4289 7.41025E-01
 -1      4290 6.97625E-01
 -1      4291 1.02998E+00
 -1      4292 2.09642E+00
 -1      4293 5.66959E-01
 -1      4294 6.47729E-01
 -1      4295 1.65258E-03
 -1      4296 1.41630E+00
 -1      4297 5.13637E-01
 -1      4298 1.09023E+00
 -1      4299 1.27075E+00
 -1      4300 7.56980E-01
 -1      4301 1.63315E+00
 -1      4302 8.67126E-01
 -1      4303 1.77869E+00
 -1      4304 1.43397E+00
 -1      4305 1.61994E-03
 -3
 9999
