    1C
    1UUSER                                                              
    1UDATE              27.october.2022                                 
    1UTIME              01:14:51                                        
    1UHOST                                                              
    1UPGM               CalculiX                                        
    1UVERSION           Version 2.17                             
    1UCOMPILETIME       Thu Jul 23 21:43:50 CEST 2020                    
    1UDIR                                                               
    1UDBN                                                               
    1UMAT    1SOLIDMATERIAL                                             
    2C                          4432                                     1
 -1         1 5.49193E+01 3.56242E+01 0.00000E+00
 -1         2 6.19202E+01 2.86243E+01 0.00000E+00
 -1         3 1.50000E+02 0.00000E+00 0.00000E+00
 -1         4 1.50000E+02 5.00000E+01 0.00000E+00
 -1         5 0.00000E+00 0.00000E+00 0.00000E+00
 -1         6 0.00000E+00 5.00000E+01 0.00000E+00
 -1         7 0.00000E+00 4.70500E+01 0.00000E+00
 -1         8 0.00000E+00 4.41000E+01 0.00000E+00
 -1         9 0.00000E+00 4.11500E+01 0.00000E+00
 -1        10 0.00000E+00 3.82000E+01 0.00000E+00
 -1        11 0.00000E+00 3.52500E+01 0.00000E+00
 -1        12 0.00000E+00 3.23500E+01 0.00000E+00
 -1        13 0.00000E+00 2.94000E+01 0.00000E+00
 -1        14 0.00000E+00 2.64500E+01 0.00000E+00
 -1        15 0.00000E+00 2.35000E+01 0.00000E+00
 -1        16 0.00000E+00 2.05500E+01 0.00000E+00
 -1        17 0.00000E+00 1.76000E+01 0.00000E+00
 -1        18 0.00000E+00 1.47000E+01 0.00000E+00
 -1        19 0.00000E+00 1.17500E+01 0.00000E+00
 -1        20 0.00000E+00 8.80000E+00 0.00000E+00
 -1        21 0.00000E+00 5.85000E+00 0.00000E+00
 -1        22 0.00000E+00 2.90000E+00 0.00000E+00
 -1        23 3.15000E+00 5.00000E+01 0.00000E+00
 -1        24 6.15000E+00 5.00000E+01 0.00000E+00
 -1        25 9.15000E+00 5.00000E+01 0.00000E+00
 -1        26 1.21500E+01 5.00000E+01 0.00000E+00
 -1        27 1.51500E+01 5.00000E+01 0.00000E+00
 -1        28 1.81500E+01 5.00000E+01 0.00000E+00
 -1        29 2.11500E+01 5.00000E+01 0.00000E+00
 -1        30 2.41500E+01 5.00000E+01 0.00000E+00
 -1        31 2.71500E+01 5.00000E+01 0.00000E+00
 -1        32 3.01500E+01 5.00000E+01 0.00000E+00
 -1        33 3.31500E+01 5.00000E+01 0.00000E+00
 -1        34 3.61500E+01 5.00000E+01 0.00000E+00
 -1        35 3.91500E+01 5.00000E+01 0.00000E+00
 -1        36 4.21500E+01 5.00000E+01 0.00000E+00
 -1        37 4.51500E+01 5.00000E+01 0.00000E+00
 -1        38 4.81500E+01 5.00000E+01 0.00000E+00
 -1        39 5.11500E+01 5.00000E+01 0.00000E+00
 -1        40 5.41500E+01 5.00000E+01 0.00000E+00
 -1        41 5.71500E+01 5.00000E+01 0.00000E+00
 -1        42 6.01500E+01 5.00000E+01 0.00000E+00
 -1        43 6.31500E+01 5.00000E+01 0.00000E+00
 -1        44 6.61500E+01 5.00000E+01 0.00000E+00
 -1        45 6.91500E+01 5.00000E+01 0.00000E+00
 -1        46 7.21500E+01 5.00000E+01 0.00000E+00
 -1        47 7.51500E+01 5.00000E+01 0.00000E+00
 -1        48 7.81500E+01 5.00000E+01 0.00000E+00
 -1        49 8.11500E+01 5.00000E+01 0.00000E+00
 -1        50 8.41500E+01 5.00000E+01 0.00000E+00
 -1        51 8.71500E+01 5.00000E+01 0.00000E+00
 -1        52 9.01500E+01 5.00000E+01 0.00000E+00
 -1        53 9.31500E+01 5.00000E+01 0.00000E+00
 -1        54 9.61500E+01 5.00000E+01 0.00000E+00
 -1        55 9.91500E+01 5.00000E+01 0.00000E+00
 -1        56 1.02150E+02 5.00000E+01 0.00000E+00
 -1        57 1.05150E+02 5.00000E+01 0.00000E+00
 -1        58 1.08150E+02 5.00000E+01 0.00000E+00
 -1        59 1.11150E+02 5.00000E+01 0.00000E+00
 -1        60 1.14150E+02 5.00000E+01 0.00000E+00
 -1        61 1.17150E+02 5.00000E+01 0.00000E+00
 -1        62 1.20150E+02 5.00000E+01 0.00000E+00
 -1        63 1.23150E+02 5.00000E+01 0.00000E+00
 -1        64 1.26150E+02 5.00000E+01 0.00000E+00
 -1        65 1.29150E+02 5.00000E+01 0.00000E+00
 -1        66 1.32150E+02 5.00000E+01 0.00000E+00
 -1        67 1.35150E+02 5.00000E+01 0.00000E+00
 -1        68 1.38150E+02 5.00000E+01 0.00000E+00
 -1        69 1.41150E+02 5.00000E+01 0.00000E+00
 -1        70 1.44150E+02 5.00000E+01 0.00000E+00
 -1        71 1.47150E+02 5.00000E+01 0.00000E+00
 -1        72 3.15000E+00 0.00000E+00 0.00000E+00
 -1        73 6.15000E+00 0.00000E+00 0.00000E+00
 -1        74 9.15000E+00 0.00000E+00 0.00000E+00
 -1        75 1.21500E+01 0.00000E+00 0.00000E+00
 -1        76 1.51500E+01 0.00000E+00 0.00000E+00
 -1        77 1.81500E+01 0.00000E+00 0.00000E+00
 -1        78 2.11500E+01 0.00000E+00 0.00000E+00
 -1        79 2.41500E+01 0.00000E+00 0.00000E+00
 -1        80 2.71500E+01 0.00000E+00 0.00000E+00
 -1        81 3.01500E+01 0.00000E+00 0.00000E+00
 -1        82 3.31500E+01 0.00000E+00 0.00000E+00
 -1        83 3.61500E+01 0.00000E+00 0.00000E+00
 -1        84 3.91500E+01 0.00000E+00 0.00000E+00
 -1        85 4.21500E+01 0.00000E+00 0.00000E+00
 -1        86 4.51500E+01 0.00000E+00 0.00000E+00
 -1        87 4.81500E+01 0.00000E+00 0.00000E+00
 -1        88 5.11500E+01 0.00000E+00 0.00000E+00
 -1        89 5.41500E+01 0.00000E+00 0.00000E+00
 -1        90 5.71500E+01 0.00000E+00 0.00000E+00
 -1        91 6.01500E+01 0.00000E+00 0.00000E+00
 -1        92 6.31500E+01 0.00000E+00 0.00000E+00
 -1        93 6.61500E+01 0.00000E+00 0.00000E+00
 -1        94 6.91500E+01 0.00000E+00 0.00000E+00
 -1        95 7.21500E+01 0.00000E+00 0.00000E+00
 -1        96 7.51500E+01 0.00000E+00 0.00000E+00
 -1        97 7.81500E+01 0.00000E+00 0.00000E+00
 -1        98 8.11500E+01 0.00000E+00 0.00000E+00
 -1        99 8.41500E+01 0.00000E+00 0.00000E+00
 -1       100 8.71500E+01 0.00000E+00 0.00000E+00
 -1       101 9.01500E+01 0.00000E+00 0.00000E+00
 -1       102 9.31500E+01 0.00000E+00 0.00000E+00
 -1       103 9.61500E+01 0.00000E+00 0.00000E+00
 -1       104 9.91500E+01 0.00000E+00 0.00000E+00
 -1       105 1.02150E+02 0.00000E+00 0.00000E+00
 -1       106 1.05150E+02 0.00000E+00 0.00000E+00
 -1       107 1.08150E+02 0.00000E+00 0.00000E+00
 -1       108 1.11150E+02 0.00000E+00 0.00000E+00
 -1       109 1.14150E+02 0.00000E+00 0.00000E+00
 -1       110 1.17150E+02 0.00000E+00 0.00000E+00
 -1       111 1.20150E+02 0.00000E+00 0.00000E+00
 -1       112 1.23150E+02 0.00000E+00 0.00000E+00
 -1       113 1.26150E+02 0.00000E+00 0.00000E+00
 -1       114 1.29150E+02 0.00000E+00 0.00000E+00
 -1       115 1.32150E+02 0.00000E+00 0.00000E+00
 -1       116 1.35150E+02 0.00000E+00 0.00000E+00
 -1       117 1.38150E+02 0.00000E+00 0.00000E+00
 -1       118 1.41150E+02 0.00000E+00 0.00000E+00
 -1       119 1.44150E+02 0.00000E+00 0.00000E+00
 -1       120 1.47150E+02 0.00000E+00 0.00000E+00
 -1       121 1.50000E+02 2.95000E+00 0.00000E+00
 -1       122 1.50000E+02 5.90000E+00 0.00000E+00
 -1       123 1.50000E+02 8.85000E+00 0.00000E+00
 -1       124 1.50000E+02 1.18000E+01 0.00000E+00
 -1       125 1.50000E+02 1.47500E+01 0.00000E+00
 -1       126 1.50000E+02 1.76500E+01 0.00000E+00
 -1       127 1.50000E+02 2.06000E+01 0.00000E+00
 -1       128 1.50000E+02 2.35500E+01 0.00000E+00
 -1       129 1.50000E+02 2.65000E+01 0.00000E+00
 -1       130 1.50000E+02 2.94500E+01 0.00000E+00
 -1       131 1.50000E+02 3.24000E+01 0.00000E+00
 -1       132 1.50000E+02 3.53000E+01 0.00000E+00
 -1       133 1.50000E+02 3.82500E+01 0.00000E+00
 -1       134 1.50000E+02 4.12000E+01 0.00000E+00
 -1       135 1.50000E+02 4.41500E+01 0.00000E+00
 -1       136 1.50000E+02 4.71000E+01 0.00000E+00
 -1       137 6.17637E+01 2.71525E+01 0.00000E+00
 -1       138 6.13120E+01 2.57703E+01 0.00000E+00
 -1       139 6.05469E+01 2.44601E+01 0.00000E+00
 -1       140 5.95429E+01 2.33677E+01 0.00000E+00
 -1       141 5.82626E+01 2.24738E+01 0.00000E+00
 -1       142 5.68091E+01 2.18839E+01 0.00000E+00
 -1       143 5.54145E+01 2.16417E+01 0.00000E+00
 -1       144 5.39021E+01 2.16987E+01 0.00000E+00
 -1       145 5.23021E+01 2.21323E+01 0.00000E+00
 -1       146 5.10225E+01 2.28098E+01 0.00000E+00
 -1       147 4.99544E+01 2.36906E+01 0.00000E+00
 -1       148 4.89604E+01 2.49527E+01 0.00000E+00
 -1       149 4.83090E+01 2.63237E+01 0.00000E+00
 -1       150 4.79784E+01 2.77231E+01 0.00000E+00
 -1       151 4.79487E+01 2.92554E+01 0.00000E+00
 -1       152 4.82316E+01 3.06888E+01 0.00000E+00
 -1       153 4.88283E+01 3.20724E+01 0.00000E+00
 -1       154 4.96555E+01 3.32376E+01 0.00000E+00
 -1       155 5.06971E+01 3.42068E+01 0.00000E+00
 -1       156 5.19780E+01 3.49759E+01 0.00000E+00
 -1       157 5.33825E+01 3.54533E+01 0.00000E+00
 -1       158 5.62506E+01 3.54967E+01 0.00000E+00
 -1       159 5.76212E+01 3.50821E+01 0.00000E+00
 -1       160 5.88387E+01 3.44247E+01 0.00000E+00
 -1       161 5.98797E+01 3.35642E+01 0.00000E+00
 -1       162 6.07143E+01 3.25521E+01 0.00000E+00
 -1       163 6.13745E+01 3.13338E+01 0.00000E+00
 -1       164 6.17775E+01 3.00306E+01 0.00000E+00
 -1       165 2.59800E+00 4.55750E+01 0.00000E+00
 -1       166 2.59800E+00 4.26250E+01 0.00000E+00
 -1       167 2.59800E+00 3.96750E+01 0.00000E+00
 -1       168 2.59800E+00 3.67250E+01 0.00000E+00
 -1       169 2.59800E+00 3.38250E+01 0.00000E+00
 -1       170 2.59800E+00 3.08750E+01 0.00000E+00
 -1       171 2.59800E+00 2.79250E+01 0.00000E+00
 -1       172 2.59800E+00 2.49750E+01 0.00000E+00
 -1       173 2.59800E+00 2.20250E+01 0.00000E+00
 -1       174 2.59800E+00 1.90750E+01 0.00000E+00
 -1       175 2.59800E+00 1.61750E+01 0.00000E+00
 -1       176 2.59800E+00 1.32250E+01 0.00000E+00
 -1       177 2.59800E+00 1.02750E+01 0.00000E+00
 -1       178 2.59800E+00 7.32500E+00 0.00000E+00
 -1       179 2.59800E+00 4.37500E+00 0.00000E+00
 -1       180 2.87400E+00 2.18750E+00 0.00000E+00
 -1       181 4.65000E+00 4.74020E+01 0.00000E+00
 -1       182 7.65000E+00 4.74020E+01 0.00000E+00
 -1       183 1.06500E+01 4.74020E+01 0.00000E+00
 -1       184 1.36500E+01 4.74020E+01 0.00000E+00
 -1       185 1.66500E+01 4.74020E+01 0.00000E+00
 -1       186 1.96500E+01 4.74020E+01 0.00000E+00
 -1       187 2.26500E+01 4.74020E+01 0.00000E+00
 -1       188 2.56500E+01 4.74020E+01 0.00000E+00
 -1       189 2.86500E+01 4.74020E+01 0.00000E+00
 -1       190 3.16500E+01 4.74020E+01 0.00000E+00
 -1       191 3.46500E+01 4.74020E+01 0.00000E+00
 -1       192 3.76500E+01 4.74020E+01 0.00000E+00
 -1       193 4.06500E+01 4.74020E+01 0.00000E+00
 -1       194 4.36500E+01 4.74020E+01 0.00000E+00
 -1       195 4.66500E+01 4.74020E+01 0.00000E+00
 -1       196 4.96500E+01 4.74020E+01 0.00000E+00
 -1       197 5.26500E+01 4.74020E+01 0.00000E+00
 -1       198 5.56500E+01 4.74020E+01 0.00000E+00
 -1       199 5.86500E+01 4.74020E+01 0.00000E+00
 -1       200 6.16500E+01 4.74020E+01 0.00000E+00
 -1       201 6.46500E+01 4.74020E+01 0.00000E+00
 -1       202 6.76500E+01 4.74020E+01 0.00000E+00
 -1       203 7.06500E+01 4.74020E+01 0.00000E+00
 -1       204 7.36500E+01 4.74020E+01 0.00000E+00
 -1       205 7.66500E+01 4.74020E+01 0.00000E+00
 -1       206 7.96500E+01 4.74020E+01 0.00000E+00
 -1       207 8.26500E+01 4.74020E+01 0.00000E+00
 -1       208 8.56500E+01 4.74020E+01 0.00000E+00
 -1       209 8.86500E+01 4.74020E+01 0.00000E+00
 -1       210 9.16500E+01 4.74020E+01 0.00000E+00
 -1       211 9.46500E+01 4.74020E+01 0.00000E+00
 -1       212 9.76500E+01 4.74020E+01 0.00000E+00
 -1       213 1.00650E+02 4.74020E+01 0.00000E+00
 -1       214 1.03650E+02 4.74020E+01 0.00000E+00
 -1       215 1.06650E+02 4.74020E+01 0.00000E+00
 -1       216 1.09650E+02 4.74020E+01 0.00000E+00
 -1       217 1.12650E+02 4.74020E+01 0.00000E+00
 -1       218 1.15650E+02 4.74020E+01 0.00000E+00
 -1       219 1.18650E+02 4.74020E+01 0.00000E+00
 -1       220 1.21650E+02 4.74020E+01 0.00000E+00
 -1       221 1.24650E+02 4.74020E+01 0.00000E+00
 -1       222 1.27650E+02 4.74020E+01 0.00000E+00
 -1       223 1.30650E+02 4.74020E+01 0.00000E+00
 -1       224 1.33650E+02 4.74020E+01 0.00000E+00
 -1       225 1.36650E+02 4.74020E+01 0.00000E+00
 -1       226 1.39650E+02 4.74020E+01 0.00000E+00
 -1       227 1.42650E+02 4.74020E+01 0.00000E+00
 -1       228 1.45650E+02 4.74020E+01 0.00000E+00
 -1       229 5.87400E+00 2.18750E+00 0.00000E+00
 -1       230 8.87400E+00 2.18750E+00 0.00000E+00
 -1       231 1.18740E+01 2.18750E+00 0.00000E+00
 -1       232 1.48740E+01 2.18750E+00 0.00000E+00
 -1       233 1.78740E+01 2.18750E+00 0.00000E+00
 -1       234 2.08740E+01 2.18750E+00 0.00000E+00
 -1       235 2.38740E+01 2.18750E+00 0.00000E+00
 -1       236 2.68740E+01 2.18750E+00 0.00000E+00
 -1       237 2.98740E+01 2.18750E+00 0.00000E+00
 -1       238 3.28740E+01 2.18750E+00 0.00000E+00
 -1       239 3.58740E+01 2.18750E+00 0.00000E+00
 -1       240 3.88740E+01 2.18750E+00 0.00000E+00
 -1       241 4.18740E+01 2.18750E+00 0.00000E+00
 -1       242 4.48740E+01 2.18750E+00 0.00000E+00
 -1       243 4.78740E+01 2.18750E+00 0.00000E+00
 -1       244 5.08740E+01 2.18750E+00 0.00000E+00
 -1       245 5.38740E+01 2.18750E+00 0.00000E+00
 -1       246 5.68740E+01 2.18750E+00 0.00000E+00
 -1       247 5.98740E+01 2.18750E+00 0.00000E+00
 -1       248 6.28740E+01 2.18750E+00 0.00000E+00
 -1       249 6.58740E+01 2.18750E+00 0.00000E+00
 -1       250 6.88740E+01 2.18750E+00 0.00000E+00
 -1       251 7.18740E+01 2.18750E+00 0.00000E+00
 -1       252 7.48740E+01 2.18750E+00 0.00000E+00
 -1       253 7.78740E+01 2.18750E+00 0.00000E+00
 -1       254 8.08740E+01 2.18750E+00 0.00000E+00
 -1       255 8.38740E+01 2.18750E+00 0.00000E+00
 -1       256 8.68740E+01 2.18750E+00 0.00000E+00
 -1       257 8.98740E+01 2.18750E+00 0.00000E+00
 -1       258 9.28740E+01 2.18750E+00 0.00000E+00
 -1       259 9.58740E+01 2.18750E+00 0.00000E+00
 -1       260 9.88740E+01 2.18750E+00 0.00000E+00
 -1       261 1.01874E+02 2.18750E+00 0.00000E+00
 -1       262 1.04874E+02 2.18750E+00 0.00000E+00
 -1       263 1.07874E+02 2.18750E+00 0.00000E+00
 -1       264 1.10874E+02 2.18750E+00 0.00000E+00
 -1       265 1.13874E+02 2.18750E+00 0.00000E+00
 -1       266 1.16874E+02 2.18750E+00 0.00000E+00
 -1       267 1.19874E+02 2.18750E+00 0.00000E+00
 -1       268 1.22874E+02 2.18750E+00 0.00000E+00
 -1       269 1.25874E+02 2.18750E+00 0.00000E+00
 -1       270 1.28874E+02 2.18750E+00 0.00000E+00
 -1       271 1.31874E+02 2.18750E+00 0.00000E+00
 -1       272 1.34874E+02 2.18750E+00 0.00000E+00
 -1       273 1.37874E+02 2.18750E+00 0.00000E+00
 -1       274 1.40874E+02 2.18750E+00 0.00000E+00
 -1       275 1.43874E+02 2.18750E+00 0.00000E+00
 -1       276 1.46874E+02 2.18750E+00 0.00000E+00
 -1       277 1.47402E+02 4.42500E+00 0.00000E+00
 -1       278 1.47402E+02 7.37500E+00 0.00000E+00
 -1       279 1.47402E+02 1.03250E+01 0.00000E+00
 -1       280 1.47402E+02 1.32750E+01 0.00000E+00
 -1       281 1.47402E+02 1.61750E+01 0.00000E+00
 -1       282 1.47402E+02 1.91250E+01 0.00000E+00
 -1       283 1.47402E+02 2.20750E+01 0.00000E+00
 -1       284 1.47402E+02 2.50250E+01 0.00000E+00
 -1       285 1.47402E+02 2.79750E+01 0.00000E+00
 -1       286 1.47402E+02 3.09250E+01 0.00000E+00
 -1       287 1.47402E+02 3.38250E+01 0.00000E+00
 -1       288 1.47402E+02 3.67750E+01 0.00000E+00
 -1       289 1.47402E+02 3.97250E+01 0.00000E+00
 -1       290 1.47402E+02 4.26750E+01 0.00000E+00
 -1       291 1.46526E+02 4.50385E+01 0.00000E+00
 -1       292 6.30476E+01 2.77602E+01 0.00000E+00
 -1       293 6.27699E+01 2.60588E+01 0.00000E+00
 -1       294 6.21211E+01 2.44193E+01 0.00000E+00
 -1       295 6.09375E+01 2.30935E+01 0.00000E+00
 -1       296 5.96928E+01 2.17893E+01 0.00000E+00
 -1       297 5.81178E+01 2.07449E+01 0.00000E+00
 -1       298 5.63192E+01 2.05683E+01 0.00000E+00
 -1       299 5.46095E+01 2.03749E+01 0.00000E+00
 -1       300 5.27192E+01 2.05027E+01 0.00000E+00
 -1       301 5.10558E+01 2.13255E+01 0.00000E+00
 -1       302 4.96638E+01 2.22502E+01 0.00000E+00
 -1       303 4.82417E+01 2.33641E+01 0.00000E+00
 -1       304 4.75396E+01 2.51179E+01 0.00000E+00
 -1       305 4.69638E+01 2.67447E+01 0.00000E+00
 -1       306 4.65838E+01 2.84625E+01 0.00000E+00
 -1       307 4.68185E+01 3.02230E+01 0.00000E+00
 -1       308 4.73398E+01 3.18939E+01 0.00000E+00
 -1       309 4.82533E+01 3.33568E+01 0.00000E+00
 -1       310 4.93504E+01 3.46098E+01 0.00000E+00
 -1       311 5.07135E+01 3.56308E+01 0.00000E+00
 -1       312 5.22901E+01 3.63625E+01 0.00000E+00
 -1       313 5.39983E+01 3.69103E+01 0.00000E+00
 -1       314 5.57006E+01 3.67673E+01 0.00000E+00
 -1       315 5.73111E+01 3.65301E+01 0.00000E+00
 -1       316 5.88061E+01 3.58202E+01 0.00000E+00
 -1       317 6.01851E+01 3.49935E+01 0.00000E+00
 -1       318 6.12324E+01 3.38295E+01 0.00000E+00
 -1       319 6.21104E+01 3.25206E+01 0.00000E+00
 -1       320 6.27343E+01 3.10403E+01 0.00000E+00
 -1       321 6.31384E+01 2.94583E+01 0.00000E+00
 -1       322 5.19600E+00 4.11500E+01 0.00000E+00
 -1       323 5.19600E+00 4.41000E+01 0.00000E+00
 -1       324 5.19600E+00 3.52750E+01 0.00000E+00
 -1       325 5.19600E+00 3.23250E+01 0.00000E+00
 -1       326 5.19600E+00 2.93750E+01 0.00000E+00
 -1       327 5.19600E+00 2.64250E+01 0.00000E+00
 -1       328 5.19600E+00 2.34750E+01 0.00000E+00
 -1       329 5.19600E+00 2.05250E+01 0.00000E+00
 -1       330 5.19600E+00 1.76250E+01 0.00000E+00
 -1       331 5.19600E+00 1.46750E+01 0.00000E+00
 -1       332 5.19600E+00 1.17250E+01 0.00000E+00
 -1       333 5.19600E+00 8.77500E+00 0.00000E+00
 -1       334 5.19600E+00 5.82500E+00 0.00000E+00
 -1       335 5.53500E+00 4.00625E+00 0.00000E+00
 -1       336 8.53500E+00 4.00625E+00 0.00000E+00
 -1       337 9.15000E+00 4.48040E+01 0.00000E+00
 -1       338 1.21500E+01 4.48040E+01 0.00000E+00
 -1       339 1.51500E+01 4.48040E+01 0.00000E+00
 -1       340 1.81500E+01 4.48040E+01 0.00000E+00
 -1       341 2.11500E+01 4.48040E+01 0.00000E+00
 -1       342 2.41500E+01 4.48040E+01 0.00000E+00
 -1       343 2.71500E+01 4.48040E+01 0.00000E+00
 -1       344 3.01500E+01 4.48040E+01 0.00000E+00
 -1       345 3.31500E+01 4.48040E+01 0.00000E+00
 -1       346 3.61500E+01 4.48040E+01 0.00000E+00
 -1       347 3.91500E+01 4.48040E+01 0.00000E+00
 -1       348 4.21500E+01 4.48040E+01 0.00000E+00
 -1       349 4.51500E+01 4.48040E+01 0.00000E+00
 -1       350 4.81500E+01 4.48040E+01 0.00000E+00
 -1       351 5.11500E+01 4.48040E+01 0.00000E+00
 -1       352 5.41500E+01 4.48040E+01 0.00000E+00
 -1       353 5.71500E+01 4.48040E+01 0.00000E+00
 -1       354 6.01500E+01 4.48040E+01 0.00000E+00
 -1       355 6.31500E+01 4.48040E+01 0.00000E+00
 -1       356 6.61500E+01 4.48040E+01 0.00000E+00
 -1       357 6.91500E+01 4.48040E+01 0.00000E+00
 -1       358 7.21500E+01 4.48040E+01 0.00000E+00
 -1       359 7.51500E+01 4.48040E+01 0.00000E+00
 -1       360 7.81500E+01 4.48040E+01 0.00000E+00
 -1       361 8.11500E+01 4.48040E+01 0.00000E+00
 -1       362 8.41500E+01 4.48040E+01 0.00000E+00
 -1       363 8.71500E+01 4.48040E+01 0.00000E+00
 -1       364 9.01500E+01 4.48040E+01 0.00000E+00
 -1       365 9.31500E+01 4.48040E+01 0.00000E+00
 -1       366 9.61500E+01 4.48040E+01 0.00000E+00
 -1       367 9.91500E+01 4.48040E+01 0.00000E+00
 -1       368 1.02150E+02 4.48040E+01 0.00000E+00
 -1       369 1.05150E+02 4.48040E+01 0.00000E+00
 -1       370 1.08150E+02 4.48040E+01 0.00000E+00
 -1       371 1.11150E+02 4.48040E+01 0.00000E+00
 -1       372 1.14150E+02 4.48040E+01 0.00000E+00
 -1       373 1.17150E+02 4.48040E+01 0.00000E+00
 -1       374 1.20150E+02 4.48040E+01 0.00000E+00
 -1       375 1.23150E+02 4.48040E+01 0.00000E+00
 -1       376 1.26150E+02 4.48040E+01 0.00000E+00
 -1       377 1.29150E+02 4.48040E+01 0.00000E+00
 -1       378 1.32150E+02 4.48040E+01 0.00000E+00
 -1       379 1.35150E+02 4.48040E+01 0.00000E+00
 -1       380 1.38150E+02 4.48040E+01 0.00000E+00
 -1       381 1.41150E+02 4.48040E+01 0.00000E+00
 -1       382 1.43838E+02 4.49212E+01 0.00000E+00
 -1       383 1.15350E+01 4.00625E+00 0.00000E+00
 -1       384 1.45350E+01 4.00625E+00 0.00000E+00
 -1       385 1.75350E+01 4.00625E+00 0.00000E+00
 -1       386 2.05350E+01 4.00625E+00 0.00000E+00
 -1       387 2.35350E+01 4.00625E+00 0.00000E+00
 -1       388 2.65350E+01 4.00625E+00 0.00000E+00
 -1       389 2.95350E+01 4.00625E+00 0.00000E+00
 -1       390 3.25350E+01 4.00625E+00 0.00000E+00
 -1       391 3.55350E+01 4.00625E+00 0.00000E+00
 -1       392 3.85350E+01 4.00625E+00 0.00000E+00
 -1       393 4.15350E+01 4.00625E+00 0.00000E+00
 -1       394 4.45350E+01 4.00625E+00 0.00000E+00
 -1       395 4.75350E+01 4.00625E+00 0.00000E+00
 -1       396 5.05350E+01 4.00625E+00 0.00000E+00
 -1       397 5.35350E+01 4.00625E+00 0.00000E+00
 -1       398 5.65350E+01 4.00625E+00 0.00000E+00
 -1       399 5.95350E+01 4.00625E+00 0.00000E+00
 -1       400 6.25350E+01 4.00625E+00 0.00000E+00
 -1       401 6.55350E+01 4.00625E+00 0.00000E+00
 -1       402 6.85350E+01 4.00625E+00 0.00000E+00
 -1       403 7.15350E+01 4.00625E+00 0.00000E+00
 -1       404 7.45350E+01 4.00625E+00 0.00000E+00
 -1       405 7.75350E+01 4.00625E+00 0.00000E+00
 -1       406 8.05350E+01 4.00625E+00 0.00000E+00
 -1       407 8.35350E+01 4.00625E+00 0.00000E+00
 -1       408 8.65350E+01 4.00625E+00 0.00000E+00
 -1       409 8.95350E+01 4.00625E+00 0.00000E+00
 -1       410 9.25350E+01 4.00625E+00 0.00000E+00
 -1       411 9.55350E+01 4.00625E+00 0.00000E+00
 -1       412 9.85350E+01 4.00625E+00 0.00000E+00
 -1       413 1.01535E+02 4.00625E+00 0.00000E+00
 -1       414 1.04535E+02 4.00625E+00 0.00000E+00
 -1       415 1.07535E+02 4.00625E+00 0.00000E+00
 -1       416 1.10535E+02 4.00625E+00 0.00000E+00
 -1       417 1.13535E+02 4.00625E+00 0.00000E+00
 -1       418 1.16535E+02 4.00625E+00 0.00000E+00
 -1       419 1.19535E+02 4.00625E+00 0.00000E+00
 -1       420 1.22535E+02 4.00625E+00 0.00000E+00
 -1       421 1.25535E+02 4.00625E+00 0.00000E+00
 -1       422 1.28535E+02 4.00625E+00 0.00000E+00
 -1       423 1.31535E+02 4.00625E+00 0.00000E+00
 -1       424 1.34535E+02 4.00625E+00 0.00000E+00
 -1       425 1.37535E+02 4.00625E+00 0.00000E+00
 -1       426 1.40535E+02 4.00625E+00 0.00000E+00
 -1       427 1.43535E+02 4.00625E+00 0.00000E+00
 -1       428 1.45469E+02 4.21562E+00 0.00000E+00
 -1       429 1.44804E+02 1.18000E+01 0.00000E+00
 -1       430 1.44804E+02 8.85000E+00 0.00000E+00
 -1       431 1.45136E+02 6.53281E+00 0.00000E+00
 -1       432 1.44804E+02 1.47000E+01 0.00000E+00
 -1       433 1.44804E+02 1.76500E+01 0.00000E+00
 -1       434 1.44804E+02 2.06000E+01 0.00000E+00
 -1       435 1.44804E+02 2.35500E+01 0.00000E+00
 -1       436 1.44804E+02 2.65000E+01 0.00000E+00
 -1       437 1.44804E+02 2.94500E+01 0.00000E+00
 -1       438 1.44804E+02 3.23500E+01 0.00000E+00
 -1       439 1.44804E+02 3.53000E+01 0.00000E+00
 -1       440 1.44804E+02 3.82500E+01 0.00000E+00
 -1       441 1.44804E+02 4.12000E+01 0.00000E+00
 -1       442 6.38066E+01 2.47004E+01 0.00000E+00
 -1       443 6.48056E+01 2.85177E+01 0.00000E+00
 -1       444 6.45280E+01 2.68162E+01 0.00000E+00
 -1       445 6.26838E+01 2.27258E+01 0.00000E+00
 -1       446 6.14391E+01 2.14217E+01 0.00000E+00
 -1       447 5.19600E+00 3.82125E+01 0.00000E+00
 -1       448 5.73779E+01 1.90331E+01 0.00000E+00
 -1       449 5.56682E+01 1.88397E+01 0.00000E+00
 -1       450 5.35656E+01 1.89784E+01 0.00000E+00
 -1       451 5.13128E+01 1.97523E+01 0.00000E+00
 -1       452 4.95962E+01 2.06384E+01 0.00000E+00
 -1       453 4.81018E+01 2.17208E+01 0.00000E+00
 -1       454 4.65317E+01 2.36970E+01 0.00000E+00
 -1       455 4.59559E+01 2.53238E+01 0.00000E+00
 -1       456 4.52628E+01 2.72694E+01 0.00000E+00
 -1       457 4.54163E+01 2.95140E+01 0.00000E+00
 -1       458 4.56818E+01 3.14944E+01 0.00000E+00
 -1       459 4.66971E+01 3.33119E+01 0.00000E+00
 -1       460 4.77636E+01 3.48923E+01 0.00000E+00
 -1       461 4.92046E+01 3.62248E+01 0.00000E+00
 -1       462 5.09209E+01 3.72484E+01 0.00000E+00
 -1       463 5.27484E+01 3.78707E+01 0.00000E+00
 -1       464 5.49860E+01 3.84644E+01 0.00000E+00
 -1       465 5.65965E+01 3.82272E+01 0.00000E+00
 -1       466 5.87943E+01 3.77244E+01 0.00000E+00
 -1       467 6.01733E+01 3.68977E+01 0.00000E+00
 -1       468 6.17346E+01 3.53345E+01 0.00000E+00
 -1       469 6.26125E+01 3.40256E+01 0.00000E+00
 -1       470 6.39256E+01 3.24141E+01 0.00000E+00
 -1       471 6.43297E+01 3.08320E+01 0.00000E+00
 -1       472 5.97143E+01 2.00472E+01 0.00000E+00
 -1       473 4.63918E+01 2.20537E+01 0.00000E+00
 -1       474 5.21592E+01 1.82280E+01 0.00000E+00
 -1       475 1.00350E+01 6.60425E+00 0.00000E+00
 -1       476 7.79400E+00 3.08500E+01 0.00000E+00
 -1       477 7.79400E+00 3.38000E+01 0.00000E+00
 -1       478 7.79400E+00 2.49500E+01 0.00000E+00
 -1       479 7.79400E+00 2.20000E+01 0.00000E+00
 -1       480 7.79400E+00 1.91000E+01 0.00000E+00
 -1       481 7.79400E+00 1.61500E+01 0.00000E+00
 -1       482 7.79400E+00 1.32000E+01 0.00000E+00
 -1       483 7.79400E+00 1.02500E+01 0.00000E+00
 -1       484 1.30350E+01 6.60425E+00 0.00000E+00
 -1       485 1.06500E+01 4.22060E+01 0.00000E+00
 -1       486 4.97447E+01 1.88202E+01 0.00000E+00
 -1       487 1.36500E+01 4.22060E+01 0.00000E+00
 -1       488 1.66500E+01 4.22060E+01 0.00000E+00
 -1       489 1.96500E+01 4.22060E+01 0.00000E+00
 -1       490 2.26500E+01 4.22060E+01 0.00000E+00
 -1       491 2.56500E+01 4.22060E+01 0.00000E+00
 -1       492 2.86500E+01 4.22060E+01 0.00000E+00
 -1       493 3.16500E+01 4.22060E+01 0.00000E+00
 -1       494 3.46500E+01 4.22060E+01 0.00000E+00
 -1       495 3.76500E+01 4.22060E+01 0.00000E+00
 -1       496 4.06500E+01 4.22060E+01 0.00000E+00
 -1       497 4.36500E+01 4.22060E+01 0.00000E+00
 -1       498 4.66500E+01 4.22060E+01 0.00000E+00
 -1       499 4.96500E+01 4.22060E+01 0.00000E+00
 -1       500 5.26500E+01 4.22060E+01 0.00000E+00
 -1       501 5.56500E+01 4.22060E+01 0.00000E+00
 -1       502 5.86500E+01 4.22060E+01 0.00000E+00
 -1       503 6.16500E+01 4.22060E+01 0.00000E+00
 -1       504 6.46500E+01 4.22060E+01 0.00000E+00
 -1       505 6.76500E+01 4.22060E+01 0.00000E+00
 -1       506 7.06500E+01 4.22060E+01 0.00000E+00
 -1       507 7.36500E+01 4.22060E+01 0.00000E+00
 -1       508 7.66500E+01 4.22060E+01 0.00000E+00
 -1       509 7.96500E+01 4.22060E+01 0.00000E+00
 -1       510 8.26500E+01 4.22060E+01 0.00000E+00
 -1       511 8.56500E+01 4.22060E+01 0.00000E+00
 -1       512 8.86500E+01 4.22060E+01 0.00000E+00
 -1       513 9.16500E+01 4.22060E+01 0.00000E+00
 -1       514 9.46500E+01 4.22060E+01 0.00000E+00
 -1       515 9.76500E+01 4.22060E+01 0.00000E+00
 -1       516 1.00650E+02 4.22060E+01 0.00000E+00
 -1       517 1.03650E+02 4.22060E+01 0.00000E+00
 -1       518 1.06650E+02 4.22060E+01 0.00000E+00
 -1       519 1.09650E+02 4.22060E+01 0.00000E+00
 -1       520 1.12650E+02 4.22060E+01 0.00000E+00
 -1       521 1.15650E+02 4.22060E+01 0.00000E+00
 -1       522 1.18650E+02 4.22060E+01 0.00000E+00
 -1       523 1.21650E+02 4.22060E+01 0.00000E+00
 -1       524 1.24650E+02 4.22060E+01 0.00000E+00
 -1       525 1.27650E+02 4.22060E+01 0.00000E+00
 -1       526 1.30650E+02 4.22060E+01 0.00000E+00
 -1       527 1.33650E+02 4.22060E+01 0.00000E+00
 -1       528 1.36650E+02 4.22060E+01 0.00000E+00
 -1       529 1.39650E+02 4.22060E+01 0.00000E+00
 -1       530 1.90350E+01 6.60425E+00 0.00000E+00
 -1       531 2.20350E+01 6.60425E+00 0.00000E+00
 -1       532 2.50350E+01 6.60425E+00 0.00000E+00
 -1       533 2.80350E+01 6.60425E+00 0.00000E+00
 -1       534 3.10350E+01 6.60425E+00 0.00000E+00
 -1       535 3.40350E+01 6.60425E+00 0.00000E+00
 -1       536 3.70350E+01 6.60425E+00 0.00000E+00
 -1       537 4.00350E+01 6.60425E+00 0.00000E+00
 -1       538 4.30350E+01 6.60425E+00 0.00000E+00
 -1       539 4.60350E+01 6.60425E+00 0.00000E+00
 -1       540 4.90350E+01 6.60425E+00 0.00000E+00
 -1       541 5.20350E+01 6.60425E+00 0.00000E+00
 -1       542 5.50350E+01 6.60425E+00 0.00000E+00
 -1       543 5.80350E+01 6.60425E+00 0.00000E+00
 -1       544 6.10350E+01 6.60425E+00 0.00000E+00
 -1       545 6.40350E+01 6.60425E+00 0.00000E+00
 -1       546 6.70350E+01 6.60425E+00 0.00000E+00
 -1       547 7.00350E+01 6.60425E+00 0.00000E+00
 -1       548 7.30350E+01 6.60425E+00 0.00000E+00
 -1       549 7.60350E+01 6.60425E+00 0.00000E+00
 -1       550 7.90350E+01 6.60425E+00 0.00000E+00
 -1       551 8.20350E+01 6.60425E+00 0.00000E+00
 -1       552 8.50350E+01 6.60425E+00 0.00000E+00
 -1       553 8.80350E+01 6.60425E+00 0.00000E+00
 -1       554 9.10350E+01 6.60425E+00 0.00000E+00
 -1       555 9.40350E+01 6.60425E+00 0.00000E+00
 -1       556 9.70350E+01 6.60425E+00 0.00000E+00
 -1       557 1.00035E+02 6.60425E+00 0.00000E+00
 -1       558 1.03035E+02 6.60425E+00 0.00000E+00
 -1       559 1.06035E+02 6.60425E+00 0.00000E+00
 -1       560 1.09035E+02 6.60425E+00 0.00000E+00
 -1       561 1.12035E+02 6.60425E+00 0.00000E+00
 -1       562 1.15035E+02 6.60425E+00 0.00000E+00
 -1       563 1.18035E+02 6.60425E+00 0.00000E+00
 -1       564 1.21035E+02 6.60425E+00 0.00000E+00
 -1       565 1.24035E+02 6.60425E+00 0.00000E+00
 -1       566 1.27035E+02 6.60425E+00 0.00000E+00
 -1       567 1.30035E+02 6.60425E+00 0.00000E+00
 -1       568 1.33035E+02 6.60425E+00 0.00000E+00
 -1       569 1.36035E+02 6.60425E+00 0.00000E+00
 -1       570 1.39035E+02 6.60425E+00 0.00000E+00
 -1       571 1.42035E+02 6.60425E+00 0.00000E+00
 -1       572 1.42206E+02 1.61750E+01 0.00000E+00
 -1       573 1.42206E+02 1.91250E+01 0.00000E+00
 -1       574 1.42206E+02 1.03250E+01 0.00000E+00
 -1       575 1.42206E+02 1.32500E+01 0.00000E+00
 -1       576 1.42206E+02 2.20750E+01 0.00000E+00
 -1       577 1.42206E+02 2.50250E+01 0.00000E+00
 -1       578 1.42206E+02 2.79750E+01 0.00000E+00
 -1       579 1.42206E+02 3.08750E+01 0.00000E+00
 -1       580 1.42206E+02 3.38250E+01 0.00000E+00
 -1       581 1.42206E+02 3.67750E+01 0.00000E+00
 -1       582 1.42206E+02 3.97250E+01 0.00000E+00
 -1       583 6.47361E+01 2.28653E+01 0.00000E+00
 -1       584 6.62476E+01 3.00203E+01 0.00000E+00
 -1       585 1.60350E+01 6.60425E+00 0.00000E+00
 -1       586 6.61115E+01 2.74312E+01 0.00000E+00
 -1       587 6.31809E+01 2.10053E+01 0.00000E+00
 -1       588 6.45987E+01 3.43032E+01 0.00000E+00
 -1       589 5.34273E+01 3.98253E+01 0.00000E+00
 -1       590 7.79400E+00 2.79000E+01 0.00000E+00
 -1       591 5.67158E+01 1.72322E+01 0.00000E+00
 -1       592 4.37956E+01 2.84973E+01 0.00000E+00
 -1       593 5.91957E+01 1.80437E+01 0.00000E+00
 -1       594 5.45151E+01 1.73649E+01 0.00000E+00
 -1       595 4.79412E+01 1.99262E+01 0.00000E+00
 -1       596 4.47850E+01 2.39940E+01 0.00000E+00
 -1       597 4.40918E+01 2.59396E+01 0.00000E+00
 -1       598 4.38492E+01 3.07321E+01 0.00000E+00
 -1       599 4.47653E+01 3.31988E+01 0.00000E+00
 -1       600 4.58087E+01 3.50615E+01 0.00000E+00
 -1       601 4.73197E+01 3.68178E+01 0.00000E+00
 -1       602 4.93130E+01 3.79937E+01 0.00000E+00
 -1       603 5.12818E+01 3.91831E+01 0.00000E+00
 -1       604 5.60290E+01 3.99597E+01 0.00000E+00
 -1       605 5.80591E+01 3.95661E+01 0.00000E+00
 -1       606 6.05380E+01 3.90695E+01 0.00000E+00
 -1       607 6.20993E+01 3.75063E+01 0.00000E+00
 -1       608 6.37207E+01 3.56121E+01 0.00000E+00
 -1       609 6.57113E+01 2.52318E+01 0.00000E+00
 -1       610 6.58435E+01 3.16024E+01 0.00000E+00
 -1       611 7.92300E+00 4.16780E+01 0.00000E+00
 -1       612 7.61550E+00 6.21462E+00 0.00000E+00
 -1       613 6.18544E+01 1.91310E+01 0.00000E+00
 -1       614 7.79400E+00 3.67375E+01 0.00000E+00
 -1       615 1.41678E+02 4.22645E+01 0.00000E+00
 -1       616 4.62313E+01 2.02592E+01 0.00000E+00
 -1       617 7.85850E+00 3.92077E+01 0.00000E+00
 -1       618 5.31087E+01 1.66145E+01 0.00000E+00
 -1       619 6.65166E+01 3.34915E+01 0.00000E+00
 -1       620 4.46451E+01 2.23507E+01 0.00000E+00
 -1       621 1.03920E+01 2.05500E+01 0.00000E+00
 -1       622 1.03920E+01 2.35000E+01 0.00000E+00
 -1       623 1.03920E+01 1.46750E+01 0.00000E+00
 -1       624 1.03920E+01 1.17250E+01 0.00000E+00
 -1       625 1.15350E+01 9.20225E+00 0.00000E+00
 -1       626 6.75164E+01 2.60395E+01 0.00000E+00
 -1       627 1.05855E+01 3.97357E+01 0.00000E+00
 -1       628 1.51500E+01 3.96080E+01 0.00000E+00
 -1       629 1.81500E+01 3.96080E+01 0.00000E+00
 -1       630 2.11500E+01 3.96080E+01 0.00000E+00
 -1       631 2.41500E+01 3.96080E+01 0.00000E+00
 -1       632 2.71500E+01 3.96080E+01 0.00000E+00
 -1       633 3.01500E+01 3.96080E+01 0.00000E+00
 -1       634 3.31500E+01 3.96080E+01 0.00000E+00
 -1       635 3.61500E+01 3.96080E+01 0.00000E+00
 -1       636 3.91500E+01 3.96080E+01 0.00000E+00
 -1       637 4.21500E+01 3.96080E+01 0.00000E+00
 -1       638 4.51500E+01 3.96080E+01 0.00000E+00
 -1       639 4.81500E+01 4.01558E+01 0.00000E+00
 -1       640 6.61500E+01 3.96080E+01 0.00000E+00
 -1       641 6.91500E+01 3.96080E+01 0.00000E+00
 -1       642 7.21500E+01 3.96080E+01 0.00000E+00
 -1       643 7.51500E+01 3.96080E+01 0.00000E+00
 -1       644 7.81500E+01 3.96080E+01 0.00000E+00
 -1       645 8.11500E+01 3.96080E+01 0.00000E+00
 -1       646 8.41500E+01 3.96080E+01 0.00000E+00
 -1       647 8.71500E+01 3.96080E+01 0.00000E+00
 -1       648 9.01500E+01 3.96080E+01 0.00000E+00
 -1       649 9.31500E+01 3.96080E+01 0.00000E+00
 -1       650 9.61500E+01 3.96080E+01 0.00000E+00
 -1       651 9.91500E+01 3.96080E+01 0.00000E+00
 -1       652 1.02150E+02 3.96080E+01 0.00000E+00
 -1       653 1.05150E+02 3.96080E+01 0.00000E+00
 -1       654 1.08150E+02 3.96080E+01 0.00000E+00
 -1       655 1.11150E+02 3.96080E+01 0.00000E+00
 -1       656 1.14150E+02 3.96080E+01 0.00000E+00
 -1       657 1.17150E+02 3.96080E+01 0.00000E+00
 -1       658 1.20150E+02 3.96080E+01 0.00000E+00
 -1       659 1.23150E+02 3.96080E+01 0.00000E+00
 -1       660 1.26150E+02 3.96080E+01 0.00000E+00
 -1       661 1.29150E+02 3.96080E+01 0.00000E+00
 -1       662 1.32150E+02 3.96080E+01 0.00000E+00
 -1       663 1.35150E+02 3.96080E+01 0.00000E+00
 -1       664 1.38150E+02 3.96080E+01 0.00000E+00
 -1       665 2.35350E+01 9.20225E+00 0.00000E+00
 -1       666 4.22753E+01 2.96517E+01 0.00000E+00
 -1       667 2.05350E+01 9.20225E+00 0.00000E+00
 -1       668 2.95350E+01 9.20225E+00 0.00000E+00
 -1       669 3.25350E+01 9.20225E+00 0.00000E+00
 -1       670 3.55350E+01 9.20225E+00 0.00000E+00
 -1       671 3.85350E+01 9.20225E+00 0.00000E+00
 -1       672 4.15350E+01 9.20225E+00 0.00000E+00
 -1       673 4.45350E+01 9.20225E+00 0.00000E+00
 -1       674 4.75350E+01 9.20225E+00 0.00000E+00
 -1       675 5.05350E+01 9.20225E+00 0.00000E+00
 -1       676 5.35350E+01 9.20225E+00 0.00000E+00
 -1       677 5.65350E+01 9.20225E+00 0.00000E+00
 -1       678 5.95350E+01 9.20225E+00 0.00000E+00
 -1       679 6.25350E+01 9.20225E+00 0.00000E+00
 -1       680 6.55350E+01 9.20225E+00 0.00000E+00
 -1       681 6.85350E+01 9.20225E+00 0.00000E+00
 -1       682 7.15350E+01 9.20225E+00 0.00000E+00
 -1       683 7.45350E+01 9.20225E+00 0.00000E+00
 -1       684 7.75350E+01 9.20225E+00 0.00000E+00
 -1       685 8.05350E+01 9.20225E+00 0.00000E+00
 -1       686 8.35350E+01 9.20225E+00 0.00000E+00
 -1       687 8.65350E+01 9.20225E+00 0.00000E+00
 -1       688 8.95350E+01 9.20225E+00 0.00000E+00
 -1       689 9.25350E+01 9.20225E+00 0.00000E+00
 -1       690 9.55350E+01 9.20225E+00 0.00000E+00
 -1       691 9.85350E+01 9.20225E+00 0.00000E+00
 -1       692 1.01535E+02 9.20225E+00 0.00000E+00
 -1       693 1.04535E+02 9.20225E+00 0.00000E+00
 -1       694 1.07535E+02 9.20225E+00 0.00000E+00
 -1       695 1.10535E+02 9.20225E+00 0.00000E+00
 -1       696 1.13535E+02 9.20225E+00 0.00000E+00
 -1       697 1.16535E+02 9.20225E+00 0.00000E+00
 -1       698 1.19535E+02 9.20225E+00 0.00000E+00
 -1       699 1.22535E+02 9.20225E+00 0.00000E+00
 -1       700 1.25535E+02 9.20225E+00 0.00000E+00
 -1       701 1.28535E+02 9.20225E+00 0.00000E+00
 -1       702 1.31535E+02 9.20225E+00 0.00000E+00
 -1       703 1.34535E+02 9.20225E+00 0.00000E+00
 -1       704 1.37535E+02 9.20225E+00 0.00000E+00
 -1       705 1.39870E+02 9.76363E+00 0.00000E+00
 -1       706 1.39608E+02 2.35500E+01 0.00000E+00
 -1       707 1.40178E+02 3.96665E+01 0.00000E+00
 -1       708 1.39608E+02 1.76500E+01 0.00000E+00
 -1       709 1.39608E+02 2.65000E+01 0.00000E+00
 -1       710 1.39608E+02 2.06000E+01 0.00000E+00
 -1       711 1.75350E+01 9.20225E+00 0.00000E+00
 -1       712 1.39608E+02 2.94000E+01 0.00000E+00
 -1       713 1.39608E+02 3.23500E+01 0.00000E+00
 -1       714 1.39608E+02 3.53000E+01 0.00000E+00
 -1       715 6.78697E+01 3.12773E+01 0.00000E+00
 -1       716 4.94539E+01 3.99847E+01 0.00000E+00
 -1       717 6.43402E+01 3.77835E+01 0.00000E+00
 -1       718 2.65350E+01 9.20225E+00 0.00000E+00
 -1       719 1.28678E+01 3.96719E+01 0.00000E+00
 -1       720 1.03920E+01 1.76125E+01 0.00000E+00
 -1       721 1.03920E+01 3.23250E+01 0.00000E+00
 -1       722 6.80596E+01 2.86269E+01 0.00000E+00
 -1       723 6.12377E+01 1.68448E+01 0.00000E+00
 -1       724 1.45350E+01 9.20225E+00 0.00000E+00
 -1       725 6.72742E+01 2.32036E+01 0.00000E+00
 -1       726 4.26994E+01 3.25626E+01 0.00000E+00
 -1       727 5.55021E+01 1.54193E+01 0.00000E+00
 -1       728 4.25070E+01 2.42788E+01 0.00000E+00
 -1       729 4.79901E+01 1.79826E+01 0.00000E+00
 -1       730 4.22108E+01 2.68365E+01 0.00000E+00
 -1       731 4.36444E+01 3.50502E+01 0.00000E+00
 -1       732 4.52640E+01 3.70582E+01 0.00000E+00
 -1       733 5.05833E+01 1.70211E+01 0.00000E+00
 -1       734 6.27790E+01 3.93467E+01 0.00000E+00
 -1       735 6.54284E+01 3.56375E+01 0.00000E+00
 -1       736 6.54028E+01 2.07277E+01 0.00000E+00
 -1       737 6.40763E+01 1.88535E+01 0.00000E+00
 -1       738 5.84892E+01 1.60079E+01 0.00000E+00
 -1       739 1.03920E+01 3.52625E+01 0.00000E+00
 -1       740 1.03920E+01 2.64500E+01 0.00000E+00
 -1       741 1.39608E+02 1.47250E+01 0.00000E+00
 -1       742 1.39739E+02 1.22443E+01 0.00000E+00
 -1       743 4.72573E+01 3.82341E+01 0.00000E+00
 -1       744 4.62801E+01 1.83155E+01 0.00000E+00
 -1       745 4.44845E+01 2.05562E+01 0.00000E+00
 -1       746 4.11256E+01 3.14822E+01 0.00000E+00
 -1       747 1.03920E+01 2.93875E+01 0.00000E+00
 -1       748 4.23672E+01 2.26355E+01 0.00000E+00
 -1       749 6.34596E+01 1.65672E+01 0.00000E+00
 -1       750 5.14083E+01 4.04833E+01 0.00000E+00
 -1       751 1.29900E+01 1.32000E+01 0.00000E+00
 -1       752 1.96500E+01 3.70100E+01 0.00000E+00
 -1       753 2.26500E+01 3.70100E+01 0.00000E+00
 -1       754 2.56500E+01 3.70100E+01 0.00000E+00
 -1       755 2.86500E+01 3.70100E+01 0.00000E+00
 -1       756 3.16500E+01 3.70100E+01 0.00000E+00
 -1       757 3.46500E+01 3.70100E+01 0.00000E+00
 -1       758 3.76500E+01 3.70100E+01 0.00000E+00
 -1       759 4.06500E+01 3.70100E+01 0.00000E+00
 -1       760 4.06552E+01 2.53603E+01 0.00000E+00
 -1       761 4.85157E+01 1.54223E+01 0.00000E+00
 -1       762 7.06500E+01 3.70100E+01 0.00000E+00
 -1       763 7.36500E+01 3.70100E+01 0.00000E+00
 -1       764 7.66500E+01 3.70100E+01 0.00000E+00
 -1       765 7.96500E+01 3.70100E+01 0.00000E+00
 -1       766 8.26500E+01 3.70100E+01 0.00000E+00
 -1       767 8.56500E+01 3.70100E+01 0.00000E+00
 -1       768 8.86500E+01 3.70100E+01 0.00000E+00
 -1       769 9.16500E+01 3.70100E+01 0.00000E+00
 -1       770 9.46500E+01 3.70100E+01 0.00000E+00
 -1       771 9.76500E+01 3.70100E+01 0.00000E+00
 -1       772 1.00650E+02 3.70100E+01 0.00000E+00
 -1       773 1.03650E+02 3.70100E+01 0.00000E+00
 -1       774 1.06650E+02 3.70100E+01 0.00000E+00
 -1       775 1.09650E+02 3.70100E+01 0.00000E+00
 -1       776 1.12650E+02 3.70100E+01 0.00000E+00
 -1       777 1.15650E+02 3.70100E+01 0.00000E+00
 -1       778 1.18650E+02 3.70100E+01 0.00000E+00
 -1       779 1.21650E+02 3.70100E+01 0.00000E+00
 -1       780 1.24650E+02 3.70100E+01 0.00000E+00
 -1       781 1.27650E+02 3.70100E+01 0.00000E+00
 -1       782 1.30650E+02 3.70100E+01 0.00000E+00
 -1       783 1.33650E+02 3.70100E+01 0.00000E+00
 -1       784 1.36650E+02 3.70100E+01 0.00000E+00
 -1       785 1.37010E+02 2.79500E+01 0.00000E+00
 -1       786 3.40350E+01 1.18003E+01 0.00000E+00
 -1       787 3.10350E+01 1.18003E+01 0.00000E+00
 -1       788 4.00350E+01 1.18003E+01 0.00000E+00
 -1       789 4.30350E+01 1.18003E+01 0.00000E+00
 -1       790 4.60350E+01 1.18003E+01 0.00000E+00
 -1       791 4.90350E+01 1.18003E+01 0.00000E+00
 -1       792 5.20350E+01 1.18003E+01 0.00000E+00
 -1       793 5.50350E+01 1.18003E+01 0.00000E+00
 -1       794 5.80350E+01 1.18003E+01 0.00000E+00
 -1       795 6.10350E+01 1.18003E+01 0.00000E+00
 -1       796 6.40350E+01 1.18003E+01 0.00000E+00
 -1       797 6.70350E+01 1.18003E+01 0.00000E+00
 -1       798 7.00350E+01 1.18003E+01 0.00000E+00
 -1       799 7.30350E+01 1.18003E+01 0.00000E+00
 -1       800 7.60350E+01 1.18003E+01 0.00000E+00
 -1       801 7.90350E+01 1.18003E+01 0.00000E+00
 -1       802 8.20350E+01 1.18003E+01 0.00000E+00
 -1       803 8.50350E+01 1.18003E+01 0.00000E+00
 -1       804 8.80350E+01 1.18003E+01 0.00000E+00
 -1       805 9.10350E+01 1.18003E+01 0.00000E+00
 -1       806 9.40350E+01 1.18003E+01 0.00000E+00
 -1       807 9.70350E+01 1.18003E+01 0.00000E+00
 -1       808 1.00035E+02 1.18003E+01 0.00000E+00
 -1       809 1.03035E+02 1.18003E+01 0.00000E+00
 -1       810 1.06035E+02 1.18003E+01 0.00000E+00
 -1       811 1.09035E+02 1.18003E+01 0.00000E+00
 -1       812 1.12035E+02 1.18003E+01 0.00000E+00
 -1       813 1.15035E+02 1.18003E+01 0.00000E+00
 -1       814 1.18035E+02 1.18003E+01 0.00000E+00
 -1       815 1.21035E+02 1.18003E+01 0.00000E+00
 -1       816 1.24035E+02 1.18003E+01 0.00000E+00
 -1       817 1.27035E+02 1.18003E+01 0.00000E+00
 -1       818 1.30035E+02 1.18003E+01 0.00000E+00
 -1       819 1.33035E+02 1.18003E+01 0.00000E+00
 -1       820 1.36035E+02 1.18003E+01 0.00000E+00
 -1       821 1.37887E+02 1.20223E+01 0.00000E+00
 -1       822 1.29900E+01 2.20250E+01 0.00000E+00
 -1       823 1.90350E+01 1.18003E+01 0.00000E+00
 -1       824 1.37010E+02 2.50000E+01 0.00000E+00
 -1       825 1.37010E+02 3.38250E+01 0.00000E+00
 -1       826 1.37010E+02 3.08875E+01 0.00000E+00
 -1       827 1.04888E+01 3.74991E+01 0.00000E+00
 -1       828 3.70350E+01 1.18003E+01 0.00000E+00
 -1       829 5.33894E+01 1.41826E+01 0.00000E+00
 -1       830 6.74951E+01 3.73967E+01 0.00000E+00
 -1       831 6.94665E+01 2.69808E+01 0.00000E+00
 -1       832 4.03609E+01 2.82872E+01 0.00000E+00
 -1       833 1.66500E+01 3.70100E+01 0.00000E+00
 -1       834 4.10987E+01 3.45940E+01 0.00000E+00
 -1       835 5.09526E+01 1.48025E+01 0.00000E+00
 -1       836 6.98425E+01 3.00867E+01 0.00000E+00
 -1       837 1.37625E+01 1.12011E+01 0.00000E+00
 -1       838 4.29888E+01 3.72362E+01 0.00000E+00
 -1       839 6.87996E+01 3.33661E+01 0.00000E+00
 -1       840 6.92712E+01 2.44614E+01 0.00000E+00
 -1       841 6.82415E+01 2.05273E+01 0.00000E+00
 -1       842 6.69150E+01 1.86531E+01 0.00000E+00
 -1       843 2.20350E+01 1.18003E+01 0.00000E+00
 -1       844 1.29900E+01 2.49750E+01 0.00000E+00
 -1       845 1.29900E+01 1.61375E+01 0.00000E+00
 -1       846 4.68057E+01 1.57553E+01 0.00000E+00
 -1       847 1.37010E+02 1.61875E+01 0.00000E+00
 -1       848 1.43678E+01 3.70739E+01 0.00000E+00
 -1       849 2.80350E+01 1.18003E+01 0.00000E+00
 -1       850 1.29900E+01 1.90875E+01 0.00000E+00
 -1       851 1.37010E+02 1.91375E+01 0.00000E+00
 -1       852 1.37010E+02 2.20688E+01 0.00000E+00
 -1       853 4.22066E+01 2.08409E+01 0.00000E+00
 -1       854 4.45334E+01 1.86125E+01 0.00000E+00
 -1       855 3.92111E+01 3.01177E+01 0.00000E+00
 -1       856 2.50350E+01 1.18003E+01 0.00000E+00
 -1       857 6.62983E+01 1.63668E+01 0.00000E+00
 -1       858 7.02384E+01 2.17851E+01 0.00000E+00
 -1       859 4.05154E+01 2.37170E+01 0.00000E+00
 -1       860 1.63988E+01 1.15007E+01 0.00000E+00
 -1       861 6.21153E+01 1.48378E+01 0.00000E+00
 -1       862 7.07725E+01 3.21755E+01 0.00000E+00
 -1       863 1.29900E+01 3.08563E+01 0.00000E+00
 -1       864 6.81474E+01 3.53814E+01 0.00000E+00
 -1       865 1.29900E+01 3.37938E+01 0.00000E+00
 -1       866 7.20226E+01 2.82470E+01 0.00000E+00
 -1       867 2.41500E+01 3.44120E+01 0.00000E+00
 -1       868 2.71500E+01 3.44120E+01 0.00000E+00
 -1       869 3.01500E+01 3.44120E+01 0.00000E+00
 -1       870 3.31500E+01 3.44120E+01 0.00000E+00
 -1       871 3.61500E+01 3.44120E+01 0.00000E+00
 -1       872 3.86243E+01 3.45030E+01 0.00000E+00
 -1       873 7.21500E+01 3.44120E+01 0.00000E+00
 -1       874 7.51500E+01 3.44120E+01 0.00000E+00
 -1       875 7.81500E+01 3.44120E+01 0.00000E+00
 -1       876 8.11500E+01 3.44120E+01 0.00000E+00
 -1       877 8.41500E+01 3.44120E+01 0.00000E+00
 -1       878 8.71500E+01 3.44120E+01 0.00000E+00
 -1       879 9.01500E+01 3.44120E+01 0.00000E+00
 -1       880 9.31500E+01 3.44120E+01 0.00000E+00
 -1       881 9.61500E+01 3.44120E+01 0.00000E+00
 -1       882 9.91500E+01 3.44120E+01 0.00000E+00
 -1       883 1.02150E+02 3.44120E+01 0.00000E+00
 -1       884 1.05150E+02 3.44120E+01 0.00000E+00
 -1       885 1.08150E+02 3.44120E+01 0.00000E+00
 -1       886 1.11150E+02 3.44120E+01 0.00000E+00
 -1       887 1.14150E+02 3.44120E+01 0.00000E+00
 -1       888 1.17150E+02 3.44120E+01 0.00000E+00
 -1       889 1.20150E+02 3.44120E+01 0.00000E+00
 -1       890 1.23150E+02 3.44120E+01 0.00000E+00
 -1       891 1.26150E+02 3.44120E+01 0.00000E+00
 -1       892 1.29150E+02 3.44120E+01 0.00000E+00
 -1       893 1.32150E+02 3.44120E+01 0.00000E+00
 -1       894 1.34580E+02 3.41185E+01 0.00000E+00
 -1       895 5.54815E+01 1.30315E+01 0.00000E+00
 -1       896 4.45350E+01 1.43982E+01 0.00000E+00
 -1       897 4.15350E+01 1.43982E+01 0.00000E+00
 -1       898 7.15350E+01 1.43982E+01 0.00000E+00
 -1       899 7.45350E+01 1.43982E+01 0.00000E+00
 -1       900 7.75350E+01 1.43982E+01 0.00000E+00
 -1       901 8.05350E+01 1.43982E+01 0.00000E+00
 -1       902 8.35350E+01 1.43982E+01 0.00000E+00
 -1       903 8.65350E+01 1.43982E+01 0.00000E+00
 -1       904 8.95350E+01 1.43982E+01 0.00000E+00
 -1       905 9.25350E+01 1.43982E+01 0.00000E+00
 -1       906 9.55350E+01 1.43982E+01 0.00000E+00
 -1       907 9.85350E+01 1.43982E+01 0.00000E+00
 -1       908 1.01535E+02 1.43982E+01 0.00000E+00
 -1       909 1.04535E+02 1.43982E+01 0.00000E+00
 -1       910 1.07535E+02 1.43982E+01 0.00000E+00
 -1       911 1.10535E+02 1.43982E+01 0.00000E+00
 -1       912 1.13535E+02 1.43982E+01 0.00000E+00
 -1       913 1.16535E+02 1.43982E+01 0.00000E+00
 -1       914 1.19535E+02 1.43982E+01 0.00000E+00
 -1       915 1.22535E+02 1.43982E+01 0.00000E+00
 -1       916 1.25535E+02 1.43982E+01 0.00000E+00
 -1       917 1.28535E+02 1.43982E+01 0.00000E+00
 -1       918 1.31535E+02 1.43982E+01 0.00000E+00
 -1       919 1.34535E+02 1.43982E+01 0.00000E+00
 -1       920 1.37449E+02 1.41049E+01 0.00000E+00
 -1       921 7.18273E+01 2.57276E+01 0.00000E+00
 -1       922 2.05350E+01 1.43982E+01 0.00000E+00
 -1       923 1.29900E+01 2.79188E+01 0.00000E+00
 -1       924 3.86348E+01 2.66354E+01 0.00000E+00
 -1       925 1.81500E+01 3.44120E+01 0.00000E+00
 -1       926 1.34412E+02 2.64750E+01 0.00000E+00
 -1       927 3.89177E+01 3.23103E+01 0.00000E+00
 -1       928 3.25350E+01 1.43982E+01 0.00000E+00
 -1       929 2.11500E+01 3.44120E+01 0.00000E+00
 -1       930 6.95253E+01 1.82121E+01 0.00000E+00
 -1       931 3.85350E+01 1.43982E+01 0.00000E+00
 -1       932 1.55880E+01 1.46687E+01 0.00000E+00
 -1       933 2.95350E+01 1.43982E+01 0.00000E+00
 -1       934 1.34580E+02 3.11810E+01 0.00000E+00
 -1       935 1.58678E+01 3.44759E+01 0.00000E+00
 -1       936 1.55880E+01 3.23250E+01 0.00000E+00
 -1       937 6.97802E+01 1.50062E+01 0.00000E+00
 -1       938 7.27945E+01 2.30514E+01 0.00000E+00
 -1       939 1.34412E+02 2.35438E+01 0.00000E+00
 -1       940 2.35350E+01 1.43982E+01 0.00000E+00
 -1       941 1.55880E+01 2.05562E+01 0.00000E+00
 -1       942 1.34496E+02 2.88280E+01 0.00000E+00
 -1       943 4.03548E+01 2.19225E+01 0.00000E+00
 -1       944 4.22555E+01 1.88973E+01 0.00000E+00
 -1       945 7.29526E+01 3.03358E+01 0.00000E+00
 -1       946 7.15222E+01 1.94699E+01 0.00000E+00
 -1       947 3.55350E+01 1.43982E+01 0.00000E+00
 -1       948 3.74851E+01 2.84659E+01 0.00000E+00
 -1       949 3.84949E+01 2.49920E+01 0.00000E+00
 -1       950 1.78988E+01 1.40987E+01 0.00000E+00
 -1       951 1.55880E+01 2.93875E+01 0.00000E+00
 -1       952 1.34250E+02 1.73983E+01 0.00000E+00
 -1       953 1.55880E+01 2.35063E+01 0.00000E+00
 -1       954 6.44061E+01 1.44442E+01 0.00000E+00
 -1       955 4.42063E+01 1.65557E+01 0.00000E+00
 -1       956 2.56500E+01 3.18140E+01 0.00000E+00
 -1       957 2.86500E+01 3.18140E+01 0.00000E+00
 -1       958 3.16500E+01 3.18140E+01 0.00000E+00
 -1       959 3.46500E+01 3.18140E+01 0.00000E+00
 -1       960 3.67839E+01 3.20622E+01 0.00000E+00
 -1       961 7.36500E+01 3.18140E+01 0.00000E+00
 -1       962 7.60350E+01 1.69963E+01 0.00000E+00
 -1       963 7.66500E+01 3.18140E+01 0.00000E+00
 -1       964 7.96500E+01 3.18140E+01 0.00000E+00
 -1       965 8.26500E+01 3.18140E+01 0.00000E+00
 -1       966 8.56500E+01 3.18140E+01 0.00000E+00
 -1       967 8.86500E+01 3.18140E+01 0.00000E+00
 -1       968 9.16500E+01 3.18140E+01 0.00000E+00
 -1       969 9.46500E+01 3.18140E+01 0.00000E+00
 -1       970 9.76500E+01 3.18140E+01 0.00000E+00
 -1       971 1.00650E+02 3.18140E+01 0.00000E+00
 -1       972 1.03650E+02 3.18140E+01 0.00000E+00
 -1       973 1.06650E+02 3.18140E+01 0.00000E+00
 -1       974 1.09650E+02 3.18140E+01 0.00000E+00
 -1       975 1.12650E+02 3.18140E+01 0.00000E+00
 -1       976 1.15650E+02 3.18140E+01 0.00000E+00
 -1       977 1.18650E+02 3.18140E+01 0.00000E+00
 -1       978 1.21650E+02 3.18140E+01 0.00000E+00
 -1       979 1.24650E+02 3.18140E+01 0.00000E+00
 -1       980 1.27650E+02 3.18140E+01 0.00000E+00
 -1       981 1.30650E+02 3.18140E+01 0.00000E+00
 -1       982 1.32615E+02 3.14975E+01 0.00000E+00
 -1       983 1.34250E+02 2.03296E+01 0.00000E+00
 -1       984 1.55880E+01 1.76125E+01 0.00000E+00
 -1       985 7.39691E+01 2.68288E+01 0.00000E+00
 -1       986 7.20302E+01 1.63052E+01 0.00000E+00
 -1       987 8.20350E+01 1.69963E+01 0.00000E+00
 -1       988 8.50350E+01 1.69963E+01 0.00000E+00
 -1       989 8.80350E+01 1.69963E+01 0.00000E+00
 -1       990 9.10350E+01 1.69963E+01 0.00000E+00
 -1       991 9.40350E+01 1.69963E+01 0.00000E+00
 -1       992 9.70350E+01 1.69963E+01 0.00000E+00
 -1       993 1.00035E+02 1.69963E+01 0.00000E+00
 -1       994 1.03035E+02 1.69963E+01 0.00000E+00
 -1       995 1.06035E+02 1.69963E+01 0.00000E+00
 -1       996 1.09035E+02 1.69963E+01 0.00000E+00
 -1       997 1.12035E+02 1.69963E+01 0.00000E+00
 -1       998 1.15035E+02 1.69963E+01 0.00000E+00
 -1       999 1.18035E+02 1.69963E+01 0.00000E+00
 -1      1000 1.21035E+02 1.69963E+01 0.00000E+00
 -1      1001 1.24035E+02 1.69963E+01 0.00000E+00
 -1      1002 1.27035E+02 1.69963E+01 0.00000E+00
 -1      1003 1.30035E+02 1.69963E+01 0.00000E+00
 -1      1004 2.65350E+01 1.43982E+01 0.00000E+00
 -1      1005 1.96500E+01 3.18140E+01 0.00000E+00
 -1      1006 7.90350E+01 1.69963E+01 0.00000E+00
 -1      1007 1.55880E+01 2.64469E+01 0.00000E+00
 -1      1008 2.26500E+01 3.18140E+01 0.00000E+00
 -1      1009 3.10350E+01 1.69963E+01 0.00000E+00
 -1      1010 4.04036E+01 1.99788E+01 0.00000E+00
 -1      1011 1.78988E+01 1.70424E+01 0.00000E+00
 -1      1012 1.81860E+01 2.20313E+01 0.00000E+00
 -1      1013 7.49363E+01 2.41526E+01 0.00000E+00
 -1      1014 1.31814E+02 2.50094E+01 0.00000E+00
 -1      1015 1.30035E+02 1.99275E+01 0.00000E+00
 -1      1016 3.83344E+01 2.31975E+01 0.00000E+00
 -1      1017 1.80424E+01 1.95368E+01 0.00000E+00
 -1      1018 1.31898E+02 2.73624E+01 0.00000E+00
 -1      1019 7.48990E+01 2.89176E+01 0.00000E+00
 -1      1020 3.40350E+01 1.69963E+01 0.00000E+00
 -1      1021 3.60211E+01 2.60302E+01 0.00000E+00
 -1      1022 1.76190E+01 3.20695E+01 0.00000E+00
 -1      1023 4.09693E+01 1.71885E+01 0.00000E+00
 -1      1024 3.71345E+01 3.02640E+01 0.00000E+00
 -1      1025 2.20350E+01 1.69963E+01 0.00000E+00
 -1      1026 3.48522E+01 2.83906E+01 0.00000E+00
 -1      1027 1.30924E+02 2.24684E+01 0.00000E+00
 -1      1028 3.01500E+01 2.92160E+01 0.00000E+00
 -1      1029 7.59526E+01 3.03358E+01 0.00000E+00
 -1      1030 7.89526E+01 3.03358E+01 0.00000E+00
 -1      1031 8.19526E+01 3.03358E+01 0.00000E+00
 -1      1032 8.49526E+01 3.03358E+01 0.00000E+00
 -1      1033 8.79526E+01 3.03358E+01 0.00000E+00
 -1      1034 9.09526E+01 3.03358E+01 0.00000E+00
 -1      1035 9.39526E+01 3.03358E+01 0.00000E+00
 -1      1036 9.69526E+01 3.03358E+01 0.00000E+00
 -1      1037 9.99526E+01 3.03358E+01 0.00000E+00
 -1      1038 1.02953E+02 3.03358E+01 0.00000E+00
 -1      1039 1.05953E+02 3.03358E+01 0.00000E+00
 -1      1040 1.08953E+02 3.03358E+01 0.00000E+00
 -1      1041 1.11953E+02 3.03358E+01 0.00000E+00
 -1      1042 1.14953E+02 3.03358E+01 0.00000E+00
 -1      1043 1.17953E+02 3.03358E+01 0.00000E+00
 -1      1044 1.20953E+02 3.03358E+01 0.00000E+00
 -1      1045 1.23953E+02 3.03358E+01 0.00000E+00
 -1      1046 1.26953E+02 3.03358E+01 0.00000E+00
 -1      1047 1.29953E+02 3.03358E+01 0.00000E+00
 -1      1048 2.71500E+01 2.92160E+01 0.00000E+00
 -1      1049 8.95350E+01 1.95942E+01 0.00000E+00
 -1      1050 8.35350E+01 1.95942E+01 0.00000E+00
 -1      1051 9.25350E+01 1.95942E+01 0.00000E+00
 -1      1052 9.55350E+01 1.95942E+01 0.00000E+00
 -1      1053 9.85350E+01 1.95942E+01 0.00000E+00
 -1      1054 1.01535E+02 1.95942E+01 0.00000E+00
 -1      1055 1.04535E+02 1.95942E+01 0.00000E+00
 -1      1056 1.07535E+02 1.95942E+01 0.00000E+00
 -1      1057 1.10535E+02 1.95942E+01 0.00000E+00
 -1      1058 1.13535E+02 1.95942E+01 0.00000E+00
 -1      1059 1.16535E+02 1.95942E+01 0.00000E+00
 -1      1060 1.19535E+02 1.95942E+01 0.00000E+00
 -1      1061 1.22535E+02 1.95942E+01 0.00000E+00
 -1      1062 1.25535E+02 1.95942E+01 0.00000E+00
 -1      1063 1.27785E+02 1.97609E+01 0.00000E+00
 -1      1064 7.44148E+01 2.00238E+01 0.00000E+00
 -1      1065 2.41500E+01 2.92160E+01 0.00000E+00
 -1      1066 2.80350E+01 1.69963E+01 0.00000E+00
 -1      1067 1.32257E+02 2.94299E+01 0.00000E+00
 -1      1068 3.77945E+01 1.75013E+01 0.00000E+00
 -1      1069 8.65350E+01 1.95942E+01 0.00000E+00
 -1      1070 2.11500E+01 2.92160E+01 0.00000E+00
 -1      1071 1.83690E+01 2.93018E+01 0.00000E+00
 -1      1072 1.81860E+01 2.49719E+01 0.00000E+00
 -1      1073 2.50350E+01 1.69963E+01 0.00000E+00
 -1      1074 3.58605E+01 2.42357E+01 0.00000E+00
 -1      1075 2.35350E+01 1.95942E+01 0.00000E+00
 -1      1076 3.83832E+01 2.12539E+01 0.00000E+00
 -1      1077 7.66961E+01 2.63015E+01 0.00000E+00
 -1      1078 8.05350E+01 1.95942E+01 0.00000E+00
 -1      1079 7.74148E+01 2.00238E+01 0.00000E+00
 -1      1080 2.95350E+01 1.95942E+01 0.00000E+00
 -1      1081 2.08605E+01 2.08127E+01 0.00000E+00
 -1      1082 1.29260E+02 2.62786E+01 0.00000E+00
 -1      1083 2.08605E+01 2.37534E+01 0.00000E+00
 -1      1084 3.13189E+01 2.68556E+01 0.00000E+00
 -1      1085 1.28370E+02 2.37376E+01 0.00000E+00
 -1      1086 3.25350E+01 1.95942E+01 0.00000E+00
 -1      1087 1.28078E+02 2.17493E+01 0.00000E+00
 -1      1088 3.59094E+01 2.22920E+01 0.00000E+00
 -1      1089 2.65350E+01 1.95942E+01 0.00000E+00
 -1      1090 7.78990E+01 2.89176E+01 0.00000E+00
 -1      1091 8.04526E+01 2.77378E+01 0.00000E+00
 -1      1092 8.34526E+01 2.77378E+01 0.00000E+00
 -1      1093 8.64526E+01 2.77378E+01 0.00000E+00
 -1      1094 8.94526E+01 2.77378E+01 0.00000E+00
 -1      1095 9.24526E+01 2.77378E+01 0.00000E+00
 -1      1096 9.54526E+01 2.77378E+01 0.00000E+00
 -1      1097 9.84526E+01 2.77378E+01 0.00000E+00
 -1      1098 1.01453E+02 2.77378E+01 0.00000E+00
 -1      1099 1.04453E+02 2.77378E+01 0.00000E+00
 -1      1100 1.07453E+02 2.77378E+01 0.00000E+00
 -1      1101 1.10453E+02 2.77378E+01 0.00000E+00
 -1      1102 1.13453E+02 2.77378E+01 0.00000E+00
 -1      1103 1.16453E+02 2.77378E+01 0.00000E+00
 -1      1104 1.19453E+02 2.77378E+01 0.00000E+00
 -1      1105 1.22453E+02 2.77378E+01 0.00000E+00
 -1      1106 1.25453E+02 2.77378E+01 0.00000E+00
 -1      1107 7.78262E+01 2.35810E+01 0.00000E+00
 -1      1108 9.40350E+01 2.21922E+01 0.00000E+00
 -1      1109 2.35350E+01 2.25349E+01 0.00000E+00
 -1      1110 9.10350E+01 2.21922E+01 0.00000E+00
 -1      1111 1.00035E+02 2.21922E+01 0.00000E+00
 -1      1112 1.03035E+02 2.21922E+01 0.00000E+00
 -1      1113 1.06035E+02 2.21922E+01 0.00000E+00
 -1      1114 1.09035E+02 2.21922E+01 0.00000E+00
 -1      1115 1.12035E+02 2.21922E+01 0.00000E+00
 -1      1116 1.15035E+02 2.21922E+01 0.00000E+00
 -1      1117 1.18035E+02 2.21922E+01 0.00000E+00
 -1      1118 1.21035E+02 2.21922E+01 0.00000E+00
 -1      1119 1.24035E+02 2.21922E+01 0.00000E+00
 -1      1120 2.26500E+01 2.66180E+01 0.00000E+00
 -1      1121 3.32286E+01 2.39284E+01 0.00000E+00
 -1      1122 8.80350E+01 2.21922E+01 0.00000E+00
 -1      1123 2.83189E+01 2.68556E+01 0.00000E+00
 -1      1124 2.54845E+01 2.67368E+01 0.00000E+00
 -1      1125 3.00979E+01 2.39725E+01 0.00000E+00
 -1      1126 9.70350E+01 2.21922E+01 0.00000E+00
 -1      1127 8.50350E+01 2.21922E+01 0.00000E+00
 -1      1128 7.96603E+01 2.59380E+01 0.00000E+00
 -1      1129 8.20350E+01 2.21922E+01 0.00000E+00
 -1      1130 1.26056E+02 2.19708E+01 0.00000E+00
 -1      1131 3.55688E+01 1.98237E+01 0.00000E+00
 -1      1132 1.24563E+02 2.51969E+01 0.00000E+00
 -1      1133 2.08732E+01 2.70271E+01 0.00000E+00
 -1      1134 2.68164E+01 2.32537E+01 0.00000E+00
 -1      1135 8.49526E+01 2.51398E+01 0.00000E+00
 -1      1136 8.79526E+01 2.51398E+01 0.00000E+00
 -1      1137 9.09526E+01 2.51398E+01 0.00000E+00
 -1      1138 9.39526E+01 2.51398E+01 0.00000E+00
 -1      1139 9.69526E+01 2.51398E+01 0.00000E+00
 -1      1140 9.99526E+01 2.51398E+01 0.00000E+00
 -1      1141 1.02953E+02 2.51398E+01 0.00000E+00
 -1      1142 1.05953E+02 2.51398E+01 0.00000E+00
 -1      1143 1.08953E+02 2.51398E+01 0.00000E+00
 -1      1144 1.11953E+02 2.51398E+01 0.00000E+00
 -1      1145 1.14953E+02 2.51398E+01 0.00000E+00
 -1      1146 1.17953E+02 2.51398E+01 0.00000E+00
 -1      1147 1.20953E+02 2.51398E+01 0.00000E+00
 -1      1148 2.41419E+01 2.44722E+01 0.00000E+00
 -1      1149 8.27438E+01 2.49650E+01 0.00000E+00
 -1      1150 0.00000E+00 4.85250E+01 0.00000E+00
 -1      1151 0.00000E+00 4.55750E+01 0.00000E+00
 -1      1152 0.00000E+00 4.26250E+01 0.00000E+00
 -1      1153 0.00000E+00 3.96750E+01 0.00000E+00
 -1      1154 0.00000E+00 3.67250E+01 0.00000E+00
 -1      1155 0.00000E+00 3.38000E+01 0.00000E+00
 -1      1156 0.00000E+00 3.08750E+01 0.00000E+00
 -1      1157 0.00000E+00 2.79250E+01 0.00000E+00
 -1      1158 0.00000E+00 2.49750E+01 0.00000E+00
 -1      1159 0.00000E+00 2.20250E+01 0.00000E+00
 -1      1160 0.00000E+00 1.90750E+01 0.00000E+00
 -1      1161 0.00000E+00 1.61500E+01 0.00000E+00
 -1      1162 0.00000E+00 1.32250E+01 0.00000E+00
 -1      1163 0.00000E+00 1.02750E+01 0.00000E+00
 -1      1164 0.00000E+00 7.32500E+00 0.00000E+00
 -1      1165 0.00000E+00 4.37500E+00 0.00000E+00
 -1      1166 0.00000E+00 1.45000E+00 0.00000E+00
 -1      1167 1.57500E+00 5.00000E+01 0.00000E+00
 -1      1168 4.65000E+00 5.00000E+01 0.00000E+00
 -1      1169 7.65000E+00 5.00000E+01 0.00000E+00
 -1      1170 1.06500E+01 5.00000E+01 0.00000E+00
 -1      1171 1.36500E+01 5.00000E+01 0.00000E+00
 -1      1172 1.66500E+01 5.00000E+01 0.00000E+00
 -1      1173 1.96500E+01 5.00000E+01 0.00000E+00
 -1      1174 2.26500E+01 5.00000E+01 0.00000E+00
 -1      1175 2.56500E+01 5.00000E+01 0.00000E+00
 -1      1176 2.86500E+01 5.00000E+01 0.00000E+00
 -1      1177 3.16500E+01 5.00000E+01 0.00000E+00
 -1      1178 3.46500E+01 5.00000E+01 0.00000E+00
 -1      1179 3.76500E+01 5.00000E+01 0.00000E+00
 -1      1180 4.06500E+01 5.00000E+01 0.00000E+00
 -1      1181 4.36500E+01 5.00000E+01 0.00000E+00
 -1      1182 4.66500E+01 5.00000E+01 0.00000E+00
 -1      1183 4.96500E+01 5.00000E+01 0.00000E+00
 -1      1184 5.26500E+01 5.00000E+01 0.00000E+00
 -1      1185 5.56500E+01 5.00000E+01 0.00000E+00
 -1      1186 5.86500E+01 5.00000E+01 0.00000E+00
 -1      1187 6.16500E+01 5.00000E+01 0.00000E+00
 -1      1188 6.46500E+01 5.00000E+01 0.00000E+00
 -1      1189 6.76500E+01 5.00000E+01 0.00000E+00
 -1      1190 7.06500E+01 5.00000E+01 0.00000E+00
 -1      1191 7.36500E+01 5.00000E+01 0.00000E+00
 -1      1192 7.66500E+01 5.00000E+01 0.00000E+00
 -1      1193 7.96500E+01 5.00000E+01 0.00000E+00
 -1      1194 8.26500E+01 5.00000E+01 0.00000E+00
 -1      1195 8.56500E+01 5.00000E+01 0.00000E+00
 -1      1196 8.86500E+01 5.00000E+01 0.00000E+00
 -1      1197 9.16500E+01 5.00000E+01 0.00000E+00
 -1      1198 9.46500E+01 5.00000E+01 0.00000E+00
 -1      1199 9.76500E+01 5.00000E+01 0.00000E+00
 -1      1200 1.00650E+02 5.00000E+01 0.00000E+00
 -1      1201 1.03650E+02 5.00000E+01 0.00000E+00
 -1      1202 1.06650E+02 5.00000E+01 0.00000E+00
 -1      1203 1.09650E+02 5.00000E+01 0.00000E+00
 -1      1204 1.12650E+02 5.00000E+01 0.00000E+00
 -1      1205 1.15650E+02 5.00000E+01 0.00000E+00
 -1      1206 1.18650E+02 5.00000E+01 0.00000E+00
 -1      1207 1.21650E+02 5.00000E+01 0.00000E+00
 -1      1208 1.24650E+02 5.00000E+01 0.00000E+00
 -1      1209 1.27650E+02 5.00000E+01 0.00000E+00
 -1      1210 1.30650E+02 5.00000E+01 0.00000E+00
 -1      1211 1.33650E+02 5.00000E+01 0.00000E+00
 -1      1212 1.36650E+02 5.00000E+01 0.00000E+00
 -1      1213 1.39650E+02 5.00000E+01 0.00000E+00
 -1      1214 1.42650E+02 5.00000E+01 0.00000E+00
 -1      1215 1.45650E+02 5.00000E+01 0.00000E+00
 -1      1216 1.48575E+02 5.00000E+01 0.00000E+00
 -1      1217 1.57500E+00 0.00000E+00 0.00000E+00
 -1      1218 4.65000E+00 0.00000E+00 0.00000E+00
 -1      1219 7.65000E+00 0.00000E+00 0.00000E+00
 -1      1220 1.06500E+01 0.00000E+00 0.00000E+00
 -1      1221 1.36500E+01 0.00000E+00 0.00000E+00
 -1      1222 1.66500E+01 0.00000E+00 0.00000E+00
 -1      1223 1.96500E+01 0.00000E+00 0.00000E+00
 -1      1224 2.26500E+01 0.00000E+00 0.00000E+00
 -1      1225 2.56500E+01 0.00000E+00 0.00000E+00
 -1      1226 2.86500E+01 0.00000E+00 0.00000E+00
 -1      1227 3.16500E+01 0.00000E+00 0.00000E+00
 -1      1228 3.46500E+01 0.00000E+00 0.00000E+00
 -1      1229 3.76500E+01 0.00000E+00 0.00000E+00
 -1      1230 4.06500E+01 0.00000E+00 0.00000E+00
 -1      1231 4.36500E+01 0.00000E+00 0.00000E+00
 -1      1232 4.66500E+01 0.00000E+00 0.00000E+00
 -1      1233 4.96500E+01 0.00000E+00 0.00000E+00
 -1      1234 5.26500E+01 0.00000E+00 0.00000E+00
 -1      1235 5.56500E+01 0.00000E+00 0.00000E+00
 -1      1236 5.86500E+01 0.00000E+00 0.00000E+00
 -1      1237 6.16500E+01 0.00000E+00 0.00000E+00
 -1      1238 6.46500E+01 0.00000E+00 0.00000E+00
 -1      1239 6.76500E+01 0.00000E+00 0.00000E+00
 -1      1240 7.06500E+01 0.00000E+00 0.00000E+00
 -1      1241 7.36500E+01 0.00000E+00 0.00000E+00
 -1      1242 7.66500E+01 0.00000E+00 0.00000E+00
 -1      1243 7.96500E+01 0.00000E+00 0.00000E+00
 -1      1244 8.26500E+01 0.00000E+00 0.00000E+00
 -1      1245 8.56500E+01 0.00000E+00 0.00000E+00
 -1      1246 8.86500E+01 0.00000E+00 0.00000E+00
 -1      1247 9.16500E+01 0.00000E+00 0.00000E+00
 -1      1248 9.46500E+01 0.00000E+00 0.00000E+00
 -1      1249 9.76500E+01 0.00000E+00 0.00000E+00
 -1      1250 1.00650E+02 0.00000E+00 0.00000E+00
 -1      1251 1.03650E+02 0.00000E+00 0.00000E+00
 -1      1252 1.06650E+02 0.00000E+00 0.00000E+00
 -1      1253 1.09650E+02 0.00000E+00 0.00000E+00
 -1      1254 1.12650E+02 0.00000E+00 0.00000E+00
 -1      1255 1.15650E+02 0.00000E+00 0.00000E+00
 -1      1256 1.18650E+02 0.00000E+00 0.00000E+00
 -1      1257 1.21650E+02 0.00000E+00 0.00000E+00
 -1      1258 1.24650E+02 0.00000E+00 0.00000E+00
 -1      1259 1.27650E+02 0.00000E+00 0.00000E+00
 -1      1260 1.30650E+02 0.00000E+00 0.00000E+00
 -1      1261 1.33650E+02 0.00000E+00 0.00000E+00
 -1      1262 1.36650E+02 0.00000E+00 0.00000E+00
 -1      1263 1.39650E+02 0.00000E+00 0.00000E+00
 -1      1264 1.42650E+02 0.00000E+00 0.00000E+00
 -1      1265 1.45650E+02 0.00000E+00 0.00000E+00
 -1      1266 1.48575E+02 0.00000E+00 0.00000E+00
 -1      1267 1.50000E+02 1.47500E+00 0.00000E+00
 -1      1268 1.50000E+02 4.42500E+00 0.00000E+00
 -1      1269 1.50000E+02 7.37500E+00 0.00000E+00
 -1      1270 1.50000E+02 1.03250E+01 0.00000E+00
 -1      1271 1.50000E+02 1.32750E+01 0.00000E+00
 -1      1272 1.50000E+02 1.62000E+01 0.00000E+00
 -1      1273 1.50000E+02 1.91250E+01 0.00000E+00
 -1      1274 1.50000E+02 2.20750E+01 0.00000E+00
 -1      1275 1.50000E+02 2.50250E+01 0.00000E+00
 -1      1276 1.50000E+02 2.79750E+01 0.00000E+00
 -1      1277 1.50000E+02 3.09250E+01 0.00000E+00
 -1      1278 1.50000E+02 3.38500E+01 0.00000E+00
 -1      1279 1.50000E+02 3.67750E+01 0.00000E+00
 -1      1280 1.50000E+02 3.97250E+01 0.00000E+00
 -1      1281 1.50000E+02 4.26750E+01 0.00000E+00
 -1      1282 1.50000E+02 4.56250E+01 0.00000E+00
 -1      1283 1.50000E+02 4.85500E+01 0.00000E+00
 -1      1284 6.18810E+01 2.78843E+01 0.00000E+00
 -1      1285 6.15738E+01 2.64497E+01 0.00000E+00
 -1      1286 6.09650E+01 2.50944E+01 0.00000E+00
 -1      1287 6.00739E+01 2.38872E+01 0.00000E+00
 -1      1288 5.89278E+01 2.28850E+01 0.00000E+00
 -1      1289 5.75525E+01 2.21380E+01 0.00000E+00
 -1      1290 5.61179E+01 2.17275E+01 0.00000E+00
 -1      1291 5.46567E+01 2.16292E+01 0.00000E+00
 -1      1292 5.30892E+01 2.18680E+01 0.00000E+00
 -1      1293 5.16447E+01 2.24379E+01 0.00000E+00
 -1      1294 5.04666E+01 2.32237E+01 0.00000E+00
 -1      1295 4.94211E+01 2.42930E+01 0.00000E+00
 -1      1296 4.85974E+01 2.56205E+01 0.00000E+00
 -1      1297 4.81077E+01 2.70149E+01 0.00000E+00
 -1      1298 4.79215E+01 2.84885E+01 0.00000E+00
 -1      1299 4.80526E+01 2.99795E+01 0.00000E+00
 -1      1300 4.84926E+01 3.13967E+01 0.00000E+00
 -1      1301 4.92121E+01 3.26762E+01 0.00000E+00
 -1      1302 5.01516E+01 3.37488E+01 0.00000E+00
 -1      1303 5.13170E+01 3.46256E+01 0.00000E+00
 -1      1304 5.26676E+01 3.52519E+01 0.00000E+00
 -1      1305 5.41462E+01 3.55813E+01 0.00000E+00
 -1      1306 5.55880E+01 3.55923E+01 0.00000E+00
 -1      1307 5.69465E+01 3.53245E+01 0.00000E+00
 -1      1308 5.82463E+01 3.47836E+01 0.00000E+00
 -1      1309 5.93801E+01 3.40196E+01 0.00000E+00
 -1      1310 6.03208E+01 3.30777E+01 0.00000E+00
 -1      1311 6.10746E+01 3.19593E+01 0.00000E+00
 -1      1312 6.16078E+01 3.06920E+01 0.00000E+00
 -1      1313 6.18844E+01 2.93310E+01 0.00000E+00
 -1      1314 1.57500E+00 4.85250E+01 0.00000E+00
 -1      1315 1.29900E+00 4.48375E+01 0.00000E+00
 -1      1316 1.29900E+00 4.63125E+01 0.00000E+00
 -1      1317 1.29900E+00 4.18875E+01 0.00000E+00
 -1      1318 1.29900E+00 4.33625E+01 0.00000E+00
 -1      1319 2.59800E+00 4.41000E+01 0.00000E+00
 -1      1320 1.29900E+00 3.89375E+01 0.00000E+00
 -1      1321 1.29900E+00 4.04125E+01 0.00000E+00
 -1      1322 2.59800E+00 4.11500E+01 0.00000E+00
 -1      1323 1.29900E+00 3.59875E+01 0.00000E+00
 -1      1324 1.29900E+00 3.74625E+01 0.00000E+00
 -1      1325 2.59800E+00 3.82000E+01 0.00000E+00
 -1      1326 1.29900E+00 3.30875E+01 0.00000E+00
 -1      1327 1.29900E+00 3.45375E+01 0.00000E+00
 -1      1328 2.59800E+00 3.52750E+01 0.00000E+00
 -1      1329 1.29900E+00 3.01375E+01 0.00000E+00
 -1      1330 1.29900E+00 3.16125E+01 0.00000E+00
 -1      1331 2.59800E+00 3.23500E+01 0.00000E+00
 -1      1332 1.29900E+00 2.71875E+01 0.00000E+00
 -1      1333 1.29900E+00 2.86625E+01 0.00000E+00
 -1      1334 2.59800E+00 2.94000E+01 0.00000E+00
 -1      1335 1.29900E+00 2.42375E+01 0.00000E+00
 -1      1336 1.29900E+00 2.57125E+01 0.00000E+00
 -1      1337 2.59800E+00 2.64500E+01 0.00000E+00
 -1      1338 1.29900E+00 2.12875E+01 0.00000E+00
 -1      1339 1.29900E+00 2.27625E+01 0.00000E+00
 -1      1340 2.59800E+00 2.35000E+01 0.00000E+00
 -1      1341 1.29900E+00 1.83375E+01 0.00000E+00
 -1      1342 1.29900E+00 1.98125E+01 0.00000E+00
 -1      1343 2.59800E+00 2.05500E+01 0.00000E+00
 -1      1344 1.29900E+00 1.54375E+01 0.00000E+00
 -1      1345 1.29900E+00 1.68875E+01 0.00000E+00
 -1      1346 2.59800E+00 1.76250E+01 0.00000E+00
 -1      1347 1.29900E+00 1.24875E+01 0.00000E+00
 -1      1348 1.29900E+00 1.39625E+01 0.00000E+00
 -1      1349 2.59800E+00 1.47000E+01 0.00000E+00
 -1      1350 1.29900E+00 9.53750E+00 0.00000E+00
 -1      1351 1.29900E+00 1.10125E+01 0.00000E+00
 -1      1352 2.59800E+00 1.17500E+01 0.00000E+00
 -1      1353 1.29900E+00 6.58750E+00 0.00000E+00
 -1      1354 1.29900E+00 8.06250E+00 0.00000E+00
 -1      1355 2.59800E+00 8.80000E+00 0.00000E+00
 -1      1356 1.29900E+00 3.63750E+00 0.00000E+00
 -1      1357 1.29900E+00 5.11250E+00 0.00000E+00
 -1      1358 2.59800E+00 5.85000E+00 0.00000E+00
 -1      1359 1.43700E+00 1.09375E+00 0.00000E+00
 -1      1360 1.43700E+00 2.54375E+00 0.00000E+00
 -1      1361 2.73600E+00 3.28125E+00 0.00000E+00
 -1      1362 3.01200E+00 1.09375E+00 0.00000E+00
 -1      1363 3.90000E+00 4.87010E+01 0.00000E+00
 -1      1364 5.40000E+00 4.87010E+01 0.00000E+00
 -1      1365 6.90000E+00 4.87010E+01 0.00000E+00
 -1      1366 8.40000E+00 4.87010E+01 0.00000E+00
 -1      1367 6.15000E+00 4.74020E+01 0.00000E+00
 -1      1368 9.90000E+00 4.87010E+01 0.00000E+00
 -1      1369 1.14000E+01 4.87010E+01 0.00000E+00
 -1      1370 9.15000E+00 4.74020E+01 0.00000E+00
 -1      1371 1.29000E+01 4.87010E+01 0.00000E+00
 -1      1372 1.44000E+01 4.87010E+01 0.00000E+00
 -1      1373 1.21500E+01 4.74020E+01 0.00000E+00
 -1      1374 1.59000E+01 4.87010E+01 0.00000E+00
 -1      1375 1.74000E+01 4.87010E+01 0.00000E+00
 -1      1376 1.51500E+01 4.74020E+01 0.00000E+00
 -1      1377 1.89000E+01 4.87010E+01 0.00000E+00
 -1      1378 2.04000E+01 4.87010E+01 0.00000E+00
 -1      1379 1.81500E+01 4.74020E+01 0.00000E+00
 -1      1380 2.19000E+01 4.87010E+01 0.00000E+00
 -1      1381 2.34000E+01 4.87010E+01 0.00000E+00
 -1      1382 2.11500E+01 4.74020E+01 0.00000E+00
 -1      1383 2.49000E+01 4.87010E+01 0.00000E+00
 -1      1384 2.64000E+01 4.87010E+01 0.00000E+00
 -1      1385 2.41500E+01 4.74020E+01 0.00000E+00
 -1      1386 2.79000E+01 4.87010E+01 0.00000E+00
 -1      1387 2.94000E+01 4.87010E+01 0.00000E+00
 -1      1388 2.71500E+01 4.74020E+01 0.00000E+00
 -1      1389 3.09000E+01 4.87010E+01 0.00000E+00
 -1      1390 3.24000E+01 4.87010E+01 0.00000E+00
 -1      1391 3.01500E+01 4.74020E+01 0.00000E+00
 -1      1392 3.39000E+01 4.87010E+01 0.00000E+00
 -1      1393 3.54000E+01 4.87010E+01 0.00000E+00
 -1      1394 3.31500E+01 4.74020E+01 0.00000E+00
 -1      1395 3.69000E+01 4.87010E+01 0.00000E+00
 -1      1396 3.84000E+01 4.87010E+01 0.00000E+00
 -1      1397 3.61500E+01 4.74020E+01 0.00000E+00
 -1      1398 3.99000E+01 4.87010E+01 0.00000E+00
 -1      1399 4.14000E+01 4.87010E+01 0.00000E+00
 -1      1400 3.91500E+01 4.74020E+01 0.00000E+00
 -1      1401 4.29000E+01 4.87010E+01 0.00000E+00
 -1      1402 4.44000E+01 4.87010E+01 0.00000E+00
 -1      1403 4.21500E+01 4.74020E+01 0.00000E+00
 -1      1404 4.59000E+01 4.87010E+01 0.00000E+00
 -1      1405 4.74000E+01 4.87010E+01 0.00000E+00
 -1      1406 4.51500E+01 4.74020E+01 0.00000E+00
 -1      1407 4.89000E+01 4.87010E+01 0.00000E+00
 -1      1408 5.04000E+01 4.87010E+01 0.00000E+00
 -1      1409 4.81500E+01 4.74020E+01 0.00000E+00
 -1      1410 5.19000E+01 4.87010E+01 0.00000E+00
 -1      1411 5.34000E+01 4.87010E+01 0.00000E+00
 -1      1412 5.11500E+01 4.74020E+01 0.00000E+00
 -1      1413 5.49000E+01 4.87010E+01 0.00000E+00
 -1      1414 5.64000E+01 4.87010E+01 0.00000E+00
 -1      1415 5.41500E+01 4.74020E+01 0.00000E+00
 -1      1416 5.79000E+01 4.87010E+01 0.00000E+00
 -1      1417 5.94000E+01 4.87010E+01 0.00000E+00
 -1      1418 5.71500E+01 4.74020E+01 0.00000E+00
 -1      1419 6.09000E+01 4.87010E+01 0.00000E+00
 -1      1420 6.24000E+01 4.87010E+01 0.00000E+00
 -1      1421 6.01500E+01 4.74020E+01 0.00000E+00
 -1      1422 6.39000E+01 4.87010E+01 0.00000E+00
 -1      1423 6.54000E+01 4.87010E+01 0.00000E+00
 -1      1424 6.31500E+01 4.74020E+01 0.00000E+00
 -1      1425 6.69000E+01 4.87010E+01 0.00000E+00
 -1      1426 6.84000E+01 4.87010E+01 0.00000E+00
 -1      1427 6.61500E+01 4.74020E+01 0.00000E+00
 -1      1428 6.99000E+01 4.87010E+01 0.00000E+00
 -1      1429 7.14000E+01 4.87010E+01 0.00000E+00
 -1      1430 6.91500E+01 4.74020E+01 0.00000E+00
 -1      1431 7.29000E+01 4.87010E+01 0.00000E+00
 -1      1432 7.44000E+01 4.87010E+01 0.00000E+00
 -1      1433 7.21500E+01 4.74020E+01 0.00000E+00
 -1      1434 7.59000E+01 4.87010E+01 0.00000E+00
 -1      1435 7.74000E+01 4.87010E+01 0.00000E+00
 -1      1436 7.51500E+01 4.74020E+01 0.00000E+00
 -1      1437 7.89000E+01 4.87010E+01 0.00000E+00
 -1      1438 8.04000E+01 4.87010E+01 0.00000E+00
 -1      1439 7.81500E+01 4.74020E+01 0.00000E+00
 -1      1440 8.19000E+01 4.87010E+01 0.00000E+00
 -1      1441 8.34000E+01 4.87010E+01 0.00000E+00
 -1      1442 8.11500E+01 4.74020E+01 0.00000E+00
 -1      1443 8.49000E+01 4.87010E+01 0.00000E+00
 -1      1444 8.64000E+01 4.87010E+01 0.00000E+00
 -1      1445 8.41500E+01 4.74020E+01 0.00000E+00
 -1      1446 8.79000E+01 4.87010E+01 0.00000E+00
 -1      1447 8.94000E+01 4.87010E+01 0.00000E+00
 -1      1448 8.71500E+01 4.74020E+01 0.00000E+00
 -1      1449 9.09000E+01 4.87010E+01 0.00000E+00
 -1      1450 9.24000E+01 4.87010E+01 0.00000E+00
 -1      1451 9.01500E+01 4.74020E+01 0.00000E+00
 -1      1452 9.39000E+01 4.87010E+01 0.00000E+00
 -1      1453 9.54000E+01 4.87010E+01 0.00000E+00
 -1      1454 9.31500E+01 4.74020E+01 0.00000E+00
 -1      1455 9.69000E+01 4.87010E+01 0.00000E+00
 -1      1456 9.84000E+01 4.87010E+01 0.00000E+00
 -1      1457 9.61500E+01 4.74020E+01 0.00000E+00
 -1      1458 9.99000E+01 4.87010E+01 0.00000E+00
 -1      1459 1.01400E+02 4.87010E+01 0.00000E+00
 -1      1460 9.91500E+01 4.74020E+01 0.00000E+00
 -1      1461 1.02900E+02 4.87010E+01 0.00000E+00
 -1      1462 1.04400E+02 4.87010E+01 0.00000E+00
 -1      1463 1.02150E+02 4.74020E+01 0.00000E+00
 -1      1464 1.05900E+02 4.87010E+01 0.00000E+00
 -1      1465 1.07400E+02 4.87010E+01 0.00000E+00
 -1      1466 1.05150E+02 4.74020E+01 0.00000E+00
 -1      1467 1.08900E+02 4.87010E+01 0.00000E+00
 -1      1468 1.10400E+02 4.87010E+01 0.00000E+00
 -1      1469 1.08150E+02 4.74020E+01 0.00000E+00
 -1      1470 1.11900E+02 4.87010E+01 0.00000E+00
 -1      1471 1.13400E+02 4.87010E+01 0.00000E+00
 -1      1472 1.11150E+02 4.74020E+01 0.00000E+00
 -1      1473 1.14900E+02 4.87010E+01 0.00000E+00
 -1      1474 1.16400E+02 4.87010E+01 0.00000E+00
 -1      1475 1.14150E+02 4.74020E+01 0.00000E+00
 -1      1476 1.17900E+02 4.87010E+01 0.00000E+00
 -1      1477 1.19400E+02 4.87010E+01 0.00000E+00
 -1      1478 1.17150E+02 4.74020E+01 0.00000E+00
 -1      1479 1.20900E+02 4.87010E+01 0.00000E+00
 -1      1480 1.22400E+02 4.87010E+01 0.00000E+00
 -1      1481 1.20150E+02 4.74020E+01 0.00000E+00
 -1      1482 1.23900E+02 4.87010E+01 0.00000E+00
 -1      1483 1.25400E+02 4.87010E+01 0.00000E+00
 -1      1484 1.23150E+02 4.74020E+01 0.00000E+00
 -1      1485 1.26900E+02 4.87010E+01 0.00000E+00
 -1      1486 1.28400E+02 4.87010E+01 0.00000E+00
 -1      1487 1.26150E+02 4.74020E+01 0.00000E+00
 -1      1488 1.29900E+02 4.87010E+01 0.00000E+00
 -1      1489 1.31400E+02 4.87010E+01 0.00000E+00
 -1      1490 1.29150E+02 4.74020E+01 0.00000E+00
 -1      1491 1.32900E+02 4.87010E+01 0.00000E+00
 -1      1492 1.34400E+02 4.87010E+01 0.00000E+00
 -1      1493 1.32150E+02 4.74020E+01 0.00000E+00
 -1      1494 1.35900E+02 4.87010E+01 0.00000E+00
 -1      1495 1.37400E+02 4.87010E+01 0.00000E+00
 -1      1496 1.35150E+02 4.74020E+01 0.00000E+00
 -1      1497 1.38900E+02 4.87010E+01 0.00000E+00
 -1      1498 1.40400E+02 4.87010E+01 0.00000E+00
 -1      1499 1.38150E+02 4.74020E+01 0.00000E+00
 -1      1500 1.41900E+02 4.87010E+01 0.00000E+00
 -1      1501 1.43400E+02 4.87010E+01 0.00000E+00
 -1      1502 1.41150E+02 4.74020E+01 0.00000E+00
 -1      1503 1.44900E+02 4.87010E+01 0.00000E+00
 -1      1504 1.46400E+02 4.87010E+01 0.00000E+00
 -1      1505 1.44150E+02 4.74020E+01 0.00000E+00
 -1      1506 1.48575E+02 4.85500E+01 0.00000E+00
 -1      1507 1.47825E+02 4.72510E+01 0.00000E+00
 -1      1508 6.01200E+00 1.09375E+00 0.00000E+00
 -1      1509 4.51200E+00 1.09375E+00 0.00000E+00
 -1      1510 4.37400E+00 2.18750E+00 0.00000E+00
 -1      1511 9.01200E+00 1.09375E+00 0.00000E+00
 -1      1512 7.51200E+00 1.09375E+00 0.00000E+00
 -1      1513 7.37400E+00 2.18750E+00 0.00000E+00
 -1      1514 1.20120E+01 1.09375E+00 0.00000E+00
 -1      1515 1.05120E+01 1.09375E+00 0.00000E+00
 -1      1516 1.03740E+01 2.18750E+00 0.00000E+00
 -1      1517 1.50120E+01 1.09375E+00 0.00000E+00
 -1      1518 1.35120E+01 1.09375E+00 0.00000E+00
 -1      1519 1.33740E+01 2.18750E+00 0.00000E+00
 -1      1520 1.80120E+01 1.09375E+00 0.00000E+00
 -1      1521 1.65120E+01 1.09375E+00 0.00000E+00
 -1      1522 1.63740E+01 2.18750E+00 0.00000E+00
 -1      1523 2.10120E+01 1.09375E+00 0.00000E+00
 -1      1524 1.95120E+01 1.09375E+00 0.00000E+00
 -1      1525 1.93740E+01 2.18750E+00 0.00000E+00
 -1      1526 2.40120E+01 1.09375E+00 0.00000E+00
 -1      1527 2.25120E+01 1.09375E+00 0.00000E+00
 -1      1528 2.23740E+01 2.18750E+00 0.00000E+00
 -1      1529 2.70120E+01 1.09375E+00 0.00000E+00
 -1      1530 2.55120E+01 1.09375E+00 0.00000E+00
 -1      1531 2.53740E+01 2.18750E+00 0.00000E+00
 -1      1532 3.00120E+01 1.09375E+00 0.00000E+00
 -1      1533 2.85120E+01 1.09375E+00 0.00000E+00
 -1      1534 2.83740E+01 2.18750E+00 0.00000E+00
 -1      1535 3.30120E+01 1.09375E+00 0.00000E+00
 -1      1536 3.15120E+01 1.09375E+00 0.00000E+00
 -1      1537 3.13740E+01 2.18750E+00 0.00000E+00
 -1      1538 3.60120E+01 1.09375E+00 0.00000E+00
 -1      1539 3.45120E+01 1.09375E+00 0.00000E+00
 -1      1540 3.43740E+01 2.18750E+00 0.00000E+00
 -1      1541 3.90120E+01 1.09375E+00 0.00000E+00
 -1      1542 3.75120E+01 1.09375E+00 0.00000E+00
 -1      1543 3.73740E+01 2.18750E+00 0.00000E+00
 -1      1544 4.20120E+01 1.09375E+00 0.00000E+00
 -1      1545 4.05120E+01 1.09375E+00 0.00000E+00
 -1      1546 4.03740E+01 2.18750E+00 0.00000E+00
 -1      1547 4.50120E+01 1.09375E+00 0.00000E+00
 -1      1548 4.35120E+01 1.09375E+00 0.00000E+00
 -1      1549 4.33740E+01 2.18750E+00 0.00000E+00
 -1      1550 4.80120E+01 1.09375E+00 0.00000E+00
 -1      1551 4.65120E+01 1.09375E+00 0.00000E+00
 -1      1552 4.63740E+01 2.18750E+00 0.00000E+00
 -1      1553 5.10120E+01 1.09375E+00 0.00000E+00
 -1      1554 4.95120E+01 1.09375E+00 0.00000E+00
 -1      1555 4.93740E+01 2.18750E+00 0.00000E+00
 -1      1556 5.40120E+01 1.09375E+00 0.00000E+00
 -1      1557 5.25120E+01 1.09375E+00 0.00000E+00
 -1      1558 5.23740E+01 2.18750E+00 0.00000E+00
 -1      1559 5.70120E+01 1.09375E+00 0.00000E+00
 -1      1560 5.55120E+01 1.09375E+00 0.00000E+00
 -1      1561 5.53740E+01 2.18750E+00 0.00000E+00
 -1      1562 6.00120E+01 1.09375E+00 0.00000E+00
 -1      1563 5.85120E+01 1.09375E+00 0.00000E+00
 -1      1564 5.83740E+01 2.18750E+00 0.00000E+00
 -1      1565 6.30120E+01 1.09375E+00 0.00000E+00
 -1      1566 6.15120E+01 1.09375E+00 0.00000E+00
 -1      1567 6.13740E+01 2.18750E+00 0.00000E+00
 -1      1568 6.60120E+01 1.09375E+00 0.00000E+00
 -1      1569 6.45120E+01 1.09375E+00 0.00000E+00
 -1      1570 6.43740E+01 2.18750E+00 0.00000E+00
 -1      1571 6.90120E+01 1.09375E+00 0.00000E+00
 -1      1572 6.75120E+01 1.09375E+00 0.00000E+00
 -1      1573 6.73740E+01 2.18750E+00 0.00000E+00
 -1      1574 7.20120E+01 1.09375E+00 0.00000E+00
 -1      1575 7.05120E+01 1.09375E+00 0.00000E+00
 -1      1576 7.03740E+01 2.18750E+00 0.00000E+00
 -1      1577 7.50120E+01 1.09375E+00 0.00000E+00
 -1      1578 7.35120E+01 1.09375E+00 0.00000E+00
 -1      1579 7.33740E+01 2.18750E+00 0.00000E+00
 -1      1580 7.80120E+01 1.09375E+00 0.00000E+00
 -1      1581 7.65120E+01 1.09375E+00 0.00000E+00
 -1      1582 7.63740E+01 2.18750E+00 0.00000E+00
 -1      1583 8.10120E+01 1.09375E+00 0.00000E+00
 -1      1584 7.95120E+01 1.09375E+00 0.00000E+00
 -1      1585 7.93740E+01 2.18750E+00 0.00000E+00
 -1      1586 8.40120E+01 1.09375E+00 0.00000E+00
 -1      1587 8.25120E+01 1.09375E+00 0.00000E+00
 -1      1588 8.23740E+01 2.18750E+00 0.00000E+00
 -1      1589 8.70120E+01 1.09375E+00 0.00000E+00
 -1      1590 8.55120E+01 1.09375E+00 0.00000E+00
 -1      1591 8.53740E+01 2.18750E+00 0.00000E+00
 -1      1592 9.00120E+01 1.09375E+00 0.00000E+00
 -1      1593 8.85120E+01 1.09375E+00 0.00000E+00
 -1      1594 8.83740E+01 2.18750E+00 0.00000E+00
 -1      1595 9.30120E+01 1.09375E+00 0.00000E+00
 -1      1596 9.15120E+01 1.09375E+00 0.00000E+00
 -1      1597 9.13740E+01 2.18750E+00 0.00000E+00
 -1      1598 9.60120E+01 1.09375E+00 0.00000E+00
 -1      1599 9.45120E+01 1.09375E+00 0.00000E+00
 -1      1600 9.43740E+01 2.18750E+00 0.00000E+00
 -1      1601 9.90120E+01 1.09375E+00 0.00000E+00
 -1      1602 9.75120E+01 1.09375E+00 0.00000E+00
 -1      1603 9.73740E+01 2.18750E+00 0.00000E+00
 -1      1604 1.02012E+02 1.09375E+00 0.00000E+00
 -1      1605 1.00512E+02 1.09375E+00 0.00000E+00
 -1      1606 1.00374E+02 2.18750E+00 0.00000E+00
 -1      1607 1.05012E+02 1.09375E+00 0.00000E+00
 -1      1608 1.03512E+02 1.09375E+00 0.00000E+00
 -1      1609 1.03374E+02 2.18750E+00 0.00000E+00
 -1      1610 1.08012E+02 1.09375E+00 0.00000E+00
 -1      1611 1.06512E+02 1.09375E+00 0.00000E+00
 -1      1612 1.06374E+02 2.18750E+00 0.00000E+00
 -1      1613 1.11012E+02 1.09375E+00 0.00000E+00
 -1      1614 1.09512E+02 1.09375E+00 0.00000E+00
 -1      1615 1.09374E+02 2.18750E+00 0.00000E+00
 -1      1616 1.14012E+02 1.09375E+00 0.00000E+00
 -1      1617 1.12512E+02 1.09375E+00 0.00000E+00
 -1      1618 1.12374E+02 2.18750E+00 0.00000E+00
 -1      1619 1.17012E+02 1.09375E+00 0.00000E+00
 -1      1620 1.15512E+02 1.09375E+00 0.00000E+00
 -1      1621 1.15374E+02 2.18750E+00 0.00000E+00
 -1      1622 1.20012E+02 1.09375E+00 0.00000E+00
 -1      1623 1.18512E+02 1.09375E+00 0.00000E+00
 -1      1624 1.18374E+02 2.18750E+00 0.00000E+00
 -1      1625 1.23012E+02 1.09375E+00 0.00000E+00
 -1      1626 1.21512E+02 1.09375E+00 0.00000E+00
 -1      1627 1.21374E+02 2.18750E+00 0.00000E+00
 -1      1628 1.26012E+02 1.09375E+00 0.00000E+00
 -1      1629 1.24512E+02 1.09375E+00 0.00000E+00
 -1      1630 1.24374E+02 2.18750E+00 0.00000E+00
 -1      1631 1.29012E+02 1.09375E+00 0.00000E+00
 -1      1632 1.27512E+02 1.09375E+00 0.00000E+00
 -1      1633 1.27374E+02 2.18750E+00 0.00000E+00
 -1      1634 1.32012E+02 1.09375E+00 0.00000E+00
 -1      1635 1.30512E+02 1.09375E+00 0.00000E+00
 -1      1636 1.30374E+02 2.18750E+00 0.00000E+00
 -1      1637 1.35012E+02 1.09375E+00 0.00000E+00
 -1      1638 1.33512E+02 1.09375E+00 0.00000E+00
 -1      1639 1.33374E+02 2.18750E+00 0.00000E+00
 -1      1640 1.38012E+02 1.09375E+00 0.00000E+00
 -1      1641 1.36512E+02 1.09375E+00 0.00000E+00
 -1      1642 1.36374E+02 2.18750E+00 0.00000E+00
 -1      1643 1.41012E+02 1.09375E+00 0.00000E+00
 -1      1644 1.39512E+02 1.09375E+00 0.00000E+00
 -1      1645 1.39374E+02 2.18750E+00 0.00000E+00
 -1      1646 1.44012E+02 1.09375E+00 0.00000E+00
 -1      1647 1.42512E+02 1.09375E+00 0.00000E+00
 -1      1648 1.42374E+02 2.18750E+00 0.00000E+00
 -1      1649 1.47012E+02 1.09375E+00 0.00000E+00
 -1      1650 1.45512E+02 1.09375E+00 0.00000E+00
 -1      1651 1.45374E+02 2.18750E+00 0.00000E+00
 -1      1652 1.48575E+02 1.47500E+00 0.00000E+00
 -1      1653 1.48701E+02 5.16250E+00 0.00000E+00
 -1      1654 1.48701E+02 3.68750E+00 0.00000E+00
 -1      1655 1.48701E+02 8.11250E+00 0.00000E+00
 -1      1656 1.48701E+02 6.63750E+00 0.00000E+00
 -1      1657 1.47402E+02 5.90000E+00 0.00000E+00
 -1      1658 1.48701E+02 1.10625E+01 0.00000E+00
 -1      1659 1.48701E+02 9.58750E+00 0.00000E+00
 -1      1660 1.47402E+02 8.85000E+00 0.00000E+00
 -1      1661 1.48701E+02 1.40125E+01 0.00000E+00
 -1      1662 1.48701E+02 1.25375E+01 0.00000E+00
 -1      1663 1.47402E+02 1.18000E+01 0.00000E+00
 -1      1664 1.48701E+02 1.69125E+01 0.00000E+00
 -1      1665 1.48701E+02 1.54625E+01 0.00000E+00
 -1      1666 1.47402E+02 1.47250E+01 0.00000E+00
 -1      1667 1.48701E+02 1.98625E+01 0.00000E+00
 -1      1668 1.48701E+02 1.83875E+01 0.00000E+00
 -1      1669 1.47402E+02 1.76500E+01 0.00000E+00
 -1      1670 1.48701E+02 2.28125E+01 0.00000E+00
 -1      1671 1.48701E+02 2.13375E+01 0.00000E+00
 -1      1672 1.47402E+02 2.06000E+01 0.00000E+00
 -1      1673 1.48701E+02 2.57625E+01 0.00000E+00
 -1      1674 1.48701E+02 2.42875E+01 0.00000E+00
 -1      1675 1.47402E+02 2.35500E+01 0.00000E+00
 -1      1676 1.48701E+02 2.87125E+01 0.00000E+00
 -1      1677 1.48701E+02 2.72375E+01 0.00000E+00
 -1      1678 1.47402E+02 2.65000E+01 0.00000E+00
 -1      1679 1.48701E+02 3.16625E+01 0.00000E+00
 -1      1680 1.48701E+02 3.01875E+01 0.00000E+00
 -1      1681 1.47402E+02 2.94500E+01 0.00000E+00
 -1      1682 1.48701E+02 3.45625E+01 0.00000E+00
 -1      1683 1.48701E+02 3.31125E+01 0.00000E+00
 -1      1684 1.47402E+02 3.23750E+01 0.00000E+00
 -1      1685 1.48701E+02 3.75125E+01 0.00000E+00
 -1      1686 1.48701E+02 3.60375E+01 0.00000E+00
 -1      1687 1.47402E+02 3.53000E+01 0.00000E+00
 -1      1688 1.48701E+02 4.04625E+01 0.00000E+00
 -1      1689 1.48701E+02 3.89875E+01 0.00000E+00
 -1      1690 1.47402E+02 3.82500E+01 0.00000E+00
 -1      1691 1.48701E+02 4.34125E+01 0.00000E+00
 -1      1692 1.48701E+02 4.19375E+01 0.00000E+00
 -1      1693 1.47402E+02 4.12000E+01 0.00000E+00
 -1      1694 1.48263E+02 4.60692E+01 0.00000E+00
 -1      1695 1.48263E+02 4.45942E+01 0.00000E+00
 -1      1696 1.46964E+02 4.38568E+01 0.00000E+00
 -1      1697 1.46088E+02 4.62202E+01 0.00000E+00
 -1      1698 6.24056E+01 2.74564E+01 0.00000E+00
 -1      1699 6.24839E+01 2.81922E+01 0.00000E+00
 -1      1700 6.20409E+01 2.59145E+01 0.00000E+00
 -1      1701 6.22668E+01 2.66057E+01 0.00000E+00
 -1      1702 6.13340E+01 2.44397E+01 0.00000E+00
 -1      1703 6.17165E+01 2.50948E+01 0.00000E+00
 -1      1704 6.02402E+01 2.32306E+01 0.00000E+00
 -1      1705 6.07422E+01 2.37768E+01 0.00000E+00
 -1      1706 5.89777E+01 2.21316E+01 0.00000E+00
 -1      1707 5.96178E+01 2.25785E+01 0.00000E+00
 -1      1708 5.74635E+01 2.13144E+01 0.00000E+00
 -1      1709 5.81902E+01 2.16094E+01 0.00000E+00
 -1      1710 5.58669E+01 2.11050E+01 0.00000E+00
 -1      1711 5.65642E+01 2.12261E+01 0.00000E+00
 -1      1712 5.42558E+01 2.10368E+01 0.00000E+00
 -1      1713 5.50120E+01 2.10083E+01 0.00000E+00
 -1      1714 5.25106E+01 2.13175E+01 0.00000E+00
 -1      1715 5.33106E+01 2.11007E+01 0.00000E+00
 -1      1716 5.10392E+01 2.20676E+01 0.00000E+00
 -1      1717 5.16789E+01 2.17289E+01 0.00000E+00
 -1      1718 4.98091E+01 2.29704E+01 0.00000E+00
 -1      1719 5.03432E+01 2.25300E+01 0.00000E+00
 -1      1720 4.86010E+01 2.41584E+01 0.00000E+00
 -1      1721 4.90980E+01 2.35273E+01 0.00000E+00
 -1      1722 4.79243E+01 2.57208E+01 0.00000E+00
 -1      1723 4.82500E+01 2.50353E+01 0.00000E+00
 -1      1724 4.74711E+01 2.72339E+01 0.00000E+00
 -1      1725 4.76364E+01 2.65342E+01 0.00000E+00
 -1      1726 4.72663E+01 2.88590E+01 0.00000E+00
 -1      1727 4.72811E+01 2.80928E+01 0.00000E+00
 -1      1728 4.75250E+01 3.04559E+01 0.00000E+00
 -1      1729 4.73836E+01 2.97392E+01 0.00000E+00
 -1      1730 4.80841E+01 3.19832E+01 0.00000E+00
 -1      1731 4.77857E+01 3.12914E+01 0.00000E+00
 -1      1732 4.89544E+01 3.32972E+01 0.00000E+00
 -1      1733 4.85408E+01 3.27146E+01 0.00000E+00
 -1      1734 5.00237E+01 3.44083E+01 0.00000E+00
 -1      1735 4.95029E+01 3.39237E+01 0.00000E+00
 -1      1736 5.13457E+01 3.53034E+01 0.00000E+00
 -1      1737 5.07053E+01 3.49188E+01 0.00000E+00
 -1      1738 5.28363E+01 3.59079E+01 0.00000E+00
 -1      1739 5.21341E+01 3.56692E+01 0.00000E+00
 -1      1740 5.44588E+01 3.62673E+01 0.00000E+00
 -1      1741 5.36904E+01 3.61818E+01 0.00000E+00
 -1      1742 5.59756E+01 3.61320E+01 0.00000E+00
 -1      1743 5.53100E+01 3.61958E+01 0.00000E+00
 -1      1744 5.74662E+01 3.58061E+01 0.00000E+00
 -1      1745 5.67809E+01 3.60134E+01 0.00000E+00
 -1      1746 5.88224E+01 3.51224E+01 0.00000E+00
 -1      1747 5.82136E+01 3.54512E+01 0.00000E+00
 -1      1748 6.00324E+01 3.42788E+01 0.00000E+00
 -1      1749 5.95119E+01 3.47091E+01 0.00000E+00
 -1      1750 6.09734E+01 3.31908E+01 0.00000E+00
 -1      1751 6.05561E+01 3.36968E+01 0.00000E+00
 -1      1752 6.17424E+01 3.19272E+01 0.00000E+00
 -1      1753 6.14123E+01 3.25364E+01 0.00000E+00
 -1      1754 6.22559E+01 3.05355E+01 0.00000E+00
 -1      1755 6.20544E+01 3.11870E+01 0.00000E+00
 -1      1756 6.25293E+01 2.90413E+01 0.00000E+00
 -1      1757 6.24579E+01 2.97444E+01 0.00000E+00
 -1      1758 6.03152E+01 2.24414E+01 0.00000E+00
 -1      1759 6.15293E+01 2.37564E+01 0.00000E+00
 -1      1760 1.48437E+02 2.56875E+00 0.00000E+00
 -1      1761 1.47138E+02 3.30625E+00 0.00000E+00
 -1      1762 6.29087E+01 2.69095E+01 0.00000E+00
 -1      1763 6.24455E+01 2.52390E+01 0.00000E+00
 -1      1764 6.30930E+01 2.86093E+01 0.00000E+00
 -1      1765 5.89053E+01 2.12671E+01 0.00000E+00
 -1      1766 5.72185E+01 2.06566E+01 0.00000E+00
 -1      1767 5.54644E+01 2.04716E+01 0.00000E+00
 -1      1768 5.36643E+01 2.04388E+01 0.00000E+00
 -1      1769 5.18875E+01 2.09141E+01 0.00000E+00
 -1      1770 5.03598E+01 2.17878E+01 0.00000E+00
 -1      1771 4.89527E+01 2.28071E+01 0.00000E+00
 -1      1772 4.78906E+01 2.42410E+01 0.00000E+00
 -1      1773 4.72517E+01 2.59313E+01 0.00000E+00
 -1      1774 4.67738E+01 2.76036E+01 0.00000E+00
 -1      1775 4.67012E+01 2.93428E+01 0.00000E+00
 -1      1776 4.70791E+01 3.10585E+01 0.00000E+00
 -1      1777 4.77965E+01 3.26254E+01 0.00000E+00
 -1      1778 4.88018E+01 3.39833E+01 0.00000E+00
 -1      1779 5.00319E+01 3.51203E+01 0.00000E+00
 -1      1780 5.15018E+01 3.59967E+01 0.00000E+00
 -1      1781 5.31442E+01 3.66364E+01 0.00000E+00
 -1      1782 5.48495E+01 3.68388E+01 0.00000E+00
 -1      1783 5.65059E+01 3.66487E+01 0.00000E+00
 -1      1784 5.80586E+01 3.61751E+01 0.00000E+00
 -1      1785 5.94956E+01 3.54068E+01 0.00000E+00
 -1      1786 6.07087E+01 3.44115E+01 0.00000E+00
 -1      1787 6.16714E+01 3.31750E+01 0.00000E+00
 -1      1788 6.24223E+01 3.17805E+01 0.00000E+00
 -1      1789 6.29363E+01 3.02493E+01 0.00000E+00
 -1      1790 2.87400E+00 4.77875E+01 0.00000E+00
 -1      1791 3.89700E+00 4.04125E+01 0.00000E+00
 -1      1792 3.89700E+00 4.18875E+01 0.00000E+00
 -1      1793 3.89700E+00 4.33625E+01 0.00000E+00
 -1      1794 3.89700E+00 4.48375E+01 0.00000E+00
 -1      1795 5.19600E+00 4.26250E+01 0.00000E+00
 -1      1796 3.89700E+00 3.45500E+01 0.00000E+00
 -1      1797 3.89700E+00 3.60000E+01 0.00000E+00
 -1      1798 3.89700E+00 3.16000E+01 0.00000E+00
 -1      1799 3.89700E+00 3.30750E+01 0.00000E+00
 -1      1800 5.19600E+00 3.38000E+01 0.00000E+00
 -1      1801 3.89700E+00 2.86500E+01 0.00000E+00
 -1      1802 3.89700E+00 3.01250E+01 0.00000E+00
 -1      1803 5.19600E+00 3.08500E+01 0.00000E+00
 -1      1804 3.89700E+00 2.57000E+01 0.00000E+00
 -1      1805 3.89700E+00 2.71750E+01 0.00000E+00
 -1      1806 5.19600E+00 2.79000E+01 0.00000E+00
 -1      1807 3.89700E+00 2.27500E+01 0.00000E+00
 -1      1808 3.89700E+00 2.42250E+01 0.00000E+00
 -1      1809 5.19600E+00 2.49500E+01 0.00000E+00
 -1      1810 3.89700E+00 1.98000E+01 0.00000E+00
 -1      1811 3.89700E+00 2.12750E+01 0.00000E+00
 -1      1812 5.19600E+00 2.20000E+01 0.00000E+00
 -1      1813 3.89700E+00 1.69000E+01 0.00000E+00
 -1      1814 3.89700E+00 1.83500E+01 0.00000E+00
 -1      1815 5.19600E+00 1.90750E+01 0.00000E+00
 -1      1816 3.89700E+00 1.39500E+01 0.00000E+00
 -1      1817 3.89700E+00 1.54250E+01 0.00000E+00
 -1      1818 5.19600E+00 1.61500E+01 0.00000E+00
 -1      1819 3.89700E+00 1.10000E+01 0.00000E+00
 -1      1820 3.89700E+00 1.24750E+01 0.00000E+00
 -1      1821 5.19600E+00 1.32000E+01 0.00000E+00
 -1      1822 3.89700E+00 8.05000E+00 0.00000E+00
 -1      1823 3.89700E+00 9.52500E+00 0.00000E+00
 -1      1824 5.19600E+00 1.02500E+01 0.00000E+00
 -1      1825 3.89700E+00 5.10000E+00 0.00000E+00
 -1      1826 3.89700E+00 6.57500E+00 0.00000E+00
 -1      1827 5.19600E+00 7.30000E+00 0.00000E+00
 -1      1828 4.20450E+00 3.09687E+00 0.00000E+00
 -1      1829 4.06650E+00 4.19063E+00 0.00000E+00
 -1      1830 5.36550E+00 4.91563E+00 0.00000E+00
 -1      1831 5.70450E+00 3.09687E+00 0.00000E+00
 -1      1832 3.62400E+00 4.64885E+01 0.00000E+00
 -1      1833 8.70450E+00 3.09687E+00 0.00000E+00
 -1      1834 7.20450E+00 3.09687E+00 0.00000E+00
 -1      1835 7.03500E+00 4.00625E+00 0.00000E+00
 -1      1836 4.92300E+00 4.57510E+01 0.00000E+00
 -1      1837 8.40000E+00 4.61030E+01 0.00000E+00
 -1      1838 9.90000E+00 4.61030E+01 0.00000E+00
 -1      1839 1.14000E+01 4.61030E+01 0.00000E+00
 -1      1840 1.29000E+01 4.61030E+01 0.00000E+00
 -1      1841 1.06500E+01 4.48040E+01 0.00000E+00
 -1      1842 1.44000E+01 4.61030E+01 0.00000E+00
 -1      1843 1.59000E+01 4.61030E+01 0.00000E+00
 -1      1844 1.36500E+01 4.48040E+01 0.00000E+00
 -1      1845 1.74000E+01 4.61030E+01 0.00000E+00
 -1      1846 1.89000E+01 4.61030E+01 0.00000E+00
 -1      1847 1.66500E+01 4.48040E+01 0.00000E+00
 -1      1848 2.04000E+01 4.61030E+01 0.00000E+00
 -1      1849 2.19000E+01 4.61030E+01 0.00000E+00
 -1      1850 1.96500E+01 4.48040E+01 0.00000E+00
 -1      1851 2.34000E+01 4.61030E+01 0.00000E+00
 -1      1852 2.49000E+01 4.61030E+01 0.00000E+00
 -1      1853 2.26500E+01 4.48040E+01 0.00000E+00
 -1      1854 2.64000E+01 4.61030E+01 0.00000E+00
 -1      1855 2.79000E+01 4.61030E+01 0.00000E+00
 -1      1856 2.56500E+01 4.48040E+01 0.00000E+00
 -1      1857 2.94000E+01 4.61030E+01 0.00000E+00
 -1      1858 3.09000E+01 4.61030E+01 0.00000E+00
 -1      1859 2.86500E+01 4.48040E+01 0.00000E+00
 -1      1860 3.24000E+01 4.61030E+01 0.00000E+00
 -1      1861 3.39000E+01 4.61030E+01 0.00000E+00
 -1      1862 3.16500E+01 4.48040E+01 0.00000E+00
 -1      1863 3.54000E+01 4.61030E+01 0.00000E+00
 -1      1864 3.69000E+01 4.61030E+01 0.00000E+00
 -1      1865 3.46500E+01 4.48040E+01 0.00000E+00
 -1      1866 3.84000E+01 4.61030E+01 0.00000E+00
 -1      1867 3.99000E+01 4.61030E+01 0.00000E+00
 -1      1868 3.76500E+01 4.48040E+01 0.00000E+00
 -1      1869 4.14000E+01 4.61030E+01 0.00000E+00
 -1      1870 4.29000E+01 4.61030E+01 0.00000E+00
 -1      1871 4.06500E+01 4.48040E+01 0.00000E+00
 -1      1872 4.44000E+01 4.61030E+01 0.00000E+00
 -1      1873 4.59000E+01 4.61030E+01 0.00000E+00
 -1      1874 4.36500E+01 4.48040E+01 0.00000E+00
 -1      1875 4.74000E+01 4.61030E+01 0.00000E+00
 -1      1876 4.89000E+01 4.61030E+01 0.00000E+00
 -1      1877 4.66500E+01 4.48040E+01 0.00000E+00
 -1      1878 5.04000E+01 4.61030E+01 0.00000E+00
 -1      1879 5.19000E+01 4.61030E+01 0.00000E+00
 -1      1880 4.96500E+01 4.48040E+01 0.00000E+00
 -1      1881 5.34000E+01 4.61030E+01 0.00000E+00
 -1      1882 5.49000E+01 4.61030E+01 0.00000E+00
 -1      1883 5.26500E+01 4.48040E+01 0.00000E+00
 -1      1884 5.64000E+01 4.61030E+01 0.00000E+00
 -1      1885 5.79000E+01 4.61030E+01 0.00000E+00
 -1      1886 5.56500E+01 4.48040E+01 0.00000E+00
 -1      1887 5.94000E+01 4.61030E+01 0.00000E+00
 -1      1888 6.09000E+01 4.61030E+01 0.00000E+00
 -1      1889 5.86500E+01 4.48040E+01 0.00000E+00
 -1      1890 6.24000E+01 4.61030E+01 0.00000E+00
 -1      1891 6.39000E+01 4.61030E+01 0.00000E+00
 -1      1892 6.16500E+01 4.48040E+01 0.00000E+00
 -1      1893 6.54000E+01 4.61030E+01 0.00000E+00
 -1      1894 6.69000E+01 4.61030E+01 0.00000E+00
 -1      1895 6.46500E+01 4.48040E+01 0.00000E+00
 -1      1896 6.84000E+01 4.61030E+01 0.00000E+00
 -1      1897 6.99000E+01 4.61030E+01 0.00000E+00
 -1      1898 6.76500E+01 4.48040E+01 0.00000E+00
 -1      1899 7.14000E+01 4.61030E+01 0.00000E+00
 -1      1900 7.29000E+01 4.61030E+01 0.00000E+00
 -1      1901 7.06500E+01 4.48040E+01 0.00000E+00
 -1      1902 7.44000E+01 4.61030E+01 0.00000E+00
 -1      1903 7.59000E+01 4.61030E+01 0.00000E+00
 -1      1904 7.36500E+01 4.48040E+01 0.00000E+00
 -1      1905 7.74000E+01 4.61030E+01 0.00000E+00
 -1      1906 7.89000E+01 4.61030E+01 0.00000E+00
 -1      1907 7.66500E+01 4.48040E+01 0.00000E+00
 -1      1908 8.04000E+01 4.61030E+01 0.00000E+00
 -1      1909 8.19000E+01 4.61030E+01 0.00000E+00
 -1      1910 7.96500E+01 4.48040E+01 0.00000E+00
 -1      1911 8.34000E+01 4.61030E+01 0.00000E+00
 -1      1912 8.49000E+01 4.61030E+01 0.00000E+00
 -1      1913 8.26500E+01 4.48040E+01 0.00000E+00
 -1      1914 8.64000E+01 4.61030E+01 0.00000E+00
 -1      1915 8.79000E+01 4.61030E+01 0.00000E+00
 -1      1916 8.56500E+01 4.48040E+01 0.00000E+00
 -1      1917 8.94000E+01 4.61030E+01 0.00000E+00
 -1      1918 9.09000E+01 4.61030E+01 0.00000E+00
 -1      1919 8.86500E+01 4.48040E+01 0.00000E+00
 -1      1920 9.24000E+01 4.61030E+01 0.00000E+00
 -1      1921 9.39000E+01 4.61030E+01 0.00000E+00
 -1      1922 9.16500E+01 4.48040E+01 0.00000E+00
 -1      1923 9.54000E+01 4.61030E+01 0.00000E+00
 -1      1924 9.69000E+01 4.61030E+01 0.00000E+00
 -1      1925 9.46500E+01 4.48040E+01 0.00000E+00
 -1      1926 9.84000E+01 4.61030E+01 0.00000E+00
 -1      1927 9.99000E+01 4.61030E+01 0.00000E+00
 -1      1928 9.76500E+01 4.48040E+01 0.00000E+00
 -1      1929 1.01400E+02 4.61030E+01 0.00000E+00
 -1      1930 1.02900E+02 4.61030E+01 0.00000E+00
 -1      1931 1.00650E+02 4.48040E+01 0.00000E+00
 -1      1932 1.04400E+02 4.61030E+01 0.00000E+00
 -1      1933 1.05900E+02 4.61030E+01 0.00000E+00
 -1      1934 1.03650E+02 4.48040E+01 0.00000E+00
 -1      1935 1.07400E+02 4.61030E+01 0.00000E+00
 -1      1936 1.08900E+02 4.61030E+01 0.00000E+00
 -1      1937 1.06650E+02 4.48040E+01 0.00000E+00
 -1      1938 1.10400E+02 4.61030E+01 0.00000E+00
 -1      1939 1.11900E+02 4.61030E+01 0.00000E+00
 -1      1940 1.09650E+02 4.48040E+01 0.00000E+00
 -1      1941 1.13400E+02 4.61030E+01 0.00000E+00
 -1      1942 1.14900E+02 4.61030E+01 0.00000E+00
 -1      1943 1.12650E+02 4.48040E+01 0.00000E+00
 -1      1944 1.16400E+02 4.61030E+01 0.00000E+00
 -1      1945 1.17900E+02 4.61030E+01 0.00000E+00
 -1      1946 1.15650E+02 4.48040E+01 0.00000E+00
 -1      1947 1.19400E+02 4.61030E+01 0.00000E+00
 -1      1948 1.20900E+02 4.61030E+01 0.00000E+00
 -1      1949 1.18650E+02 4.48040E+01 0.00000E+00
 -1      1950 1.22400E+02 4.61030E+01 0.00000E+00
 -1      1951 1.23900E+02 4.61030E+01 0.00000E+00
 -1      1952 1.21650E+02 4.48040E+01 0.00000E+00
 -1      1953 1.25400E+02 4.61030E+01 0.00000E+00
 -1      1954 1.26900E+02 4.61030E+01 0.00000E+00
 -1      1955 1.24650E+02 4.48040E+01 0.00000E+00
 -1      1956 1.28400E+02 4.61030E+01 0.00000E+00
 -1      1957 1.29900E+02 4.61030E+01 0.00000E+00
 -1      1958 1.27650E+02 4.48040E+01 0.00000E+00
 -1      1959 1.31400E+02 4.61030E+01 0.00000E+00
 -1      1960 1.32900E+02 4.61030E+01 0.00000E+00
 -1      1961 1.30650E+02 4.48040E+01 0.00000E+00
 -1      1962 1.34400E+02 4.61030E+01 0.00000E+00
 -1      1963 1.35900E+02 4.61030E+01 0.00000E+00
 -1      1964 1.33650E+02 4.48040E+01 0.00000E+00
 -1      1965 1.37400E+02 4.61030E+01 0.00000E+00
 -1      1966 1.38900E+02 4.61030E+01 0.00000E+00
 -1      1967 1.36650E+02 4.48040E+01 0.00000E+00
 -1      1968 1.40400E+02 4.61030E+01 0.00000E+00
 -1      1969 1.41900E+02 4.61030E+01 0.00000E+00
 -1      1970 1.39650E+02 4.48040E+01 0.00000E+00
 -1      1971 1.43244E+02 4.61616E+01 0.00000E+00
 -1      1972 1.44744E+02 4.61616E+01 0.00000E+00
 -1      1973 1.45182E+02 4.49799E+01 0.00000E+00
 -1      1974 1.42494E+02 4.48626E+01 0.00000E+00
 -1      1975 1.17045E+01 3.09687E+00 0.00000E+00
 -1      1976 1.02045E+01 3.09687E+00 0.00000E+00
 -1      1977 1.00350E+01 4.00625E+00 0.00000E+00
 -1      1978 1.47045E+01 3.09687E+00 0.00000E+00
 -1      1979 1.32045E+01 3.09687E+00 0.00000E+00
 -1      1980 1.30350E+01 4.00625E+00 0.00000E+00
 -1      1981 1.77045E+01 3.09687E+00 0.00000E+00
 -1      1982 1.62045E+01 3.09687E+00 0.00000E+00
 -1      1983 1.60350E+01 4.00625E+00 0.00000E+00
 -1      1984 2.07045E+01 3.09687E+00 0.00000E+00
 -1      1985 1.92045E+01 3.09687E+00 0.00000E+00
 -1      1986 1.90350E+01 4.00625E+00 0.00000E+00
 -1      1987 2.37045E+01 3.09687E+00 0.00000E+00
 -1      1988 2.22045E+01 3.09687E+00 0.00000E+00
 -1      1989 2.20350E+01 4.00625E+00 0.00000E+00
 -1      1990 2.67045E+01 3.09687E+00 0.00000E+00
 -1      1991 2.52045E+01 3.09687E+00 0.00000E+00
 -1      1992 2.50350E+01 4.00625E+00 0.00000E+00
 -1      1993 2.97045E+01 3.09687E+00 0.00000E+00
 -1      1994 2.82045E+01 3.09687E+00 0.00000E+00
 -1      1995 2.80350E+01 4.00625E+00 0.00000E+00
 -1      1996 3.27045E+01 3.09687E+00 0.00000E+00
 -1      1997 3.12045E+01 3.09687E+00 0.00000E+00
 -1      1998 3.10350E+01 4.00625E+00 0.00000E+00
 -1      1999 3.57045E+01 3.09687E+00 0.00000E+00
 -1      2000 3.42045E+01 3.09687E+00 0.00000E+00
 -1      2001 3.40350E+01 4.00625E+00 0.00000E+00
 -1      2002 3.87045E+01 3.09687E+00 0.00000E+00
 -1      2003 3.72045E+01 3.09687E+00 0.00000E+00
 -1      2004 3.70350E+01 4.00625E+00 0.00000E+00
 -1      2005 4.17045E+01 3.09687E+00 0.00000E+00
 -1      2006 4.02045E+01 3.09687E+00 0.00000E+00
 -1      2007 4.00350E+01 4.00625E+00 0.00000E+00
 -1      2008 4.47045E+01 3.09687E+00 0.00000E+00
 -1      2009 4.32045E+01 3.09687E+00 0.00000E+00
 -1      2010 4.30350E+01 4.00625E+00 0.00000E+00
 -1      2011 4.77045E+01 3.09687E+00 0.00000E+00
 -1      2012 4.62045E+01 3.09687E+00 0.00000E+00
 -1      2013 4.60350E+01 4.00625E+00 0.00000E+00
 -1      2014 5.07045E+01 3.09687E+00 0.00000E+00
 -1      2015 4.92045E+01 3.09687E+00 0.00000E+00
 -1      2016 4.90350E+01 4.00625E+00 0.00000E+00
 -1      2017 5.37045E+01 3.09687E+00 0.00000E+00
 -1      2018 5.22045E+01 3.09687E+00 0.00000E+00
 -1      2019 5.20350E+01 4.00625E+00 0.00000E+00
 -1      2020 5.67045E+01 3.09687E+00 0.00000E+00
 -1      2021 5.52045E+01 3.09687E+00 0.00000E+00
 -1      2022 5.50350E+01 4.00625E+00 0.00000E+00
 -1      2023 5.97045E+01 3.09687E+00 0.00000E+00
 -1      2024 5.82045E+01 3.09687E+00 0.00000E+00
 -1      2025 5.80350E+01 4.00625E+00 0.00000E+00
 -1      2026 6.27045E+01 3.09687E+00 0.00000E+00
 -1      2027 6.12045E+01 3.09687E+00 0.00000E+00
 -1      2028 6.10350E+01 4.00625E+00 0.00000E+00
 -1      2029 6.57045E+01 3.09687E+00 0.00000E+00
 -1      2030 6.42045E+01 3.09687E+00 0.00000E+00
 -1      2031 6.40350E+01 4.00625E+00 0.00000E+00
 -1      2032 6.87045E+01 3.09687E+00 0.00000E+00
 -1      2033 6.72045E+01 3.09687E+00 0.00000E+00
 -1      2034 6.70350E+01 4.00625E+00 0.00000E+00
 -1      2035 7.17045E+01 3.09687E+00 0.00000E+00
 -1      2036 7.02045E+01 3.09687E+00 0.00000E+00
 -1      2037 7.00350E+01 4.00625E+00 0.00000E+00
 -1      2038 7.47045E+01 3.09687E+00 0.00000E+00
 -1      2039 7.32045E+01 3.09687E+00 0.00000E+00
 -1      2040 7.30350E+01 4.00625E+00 0.00000E+00
 -1      2041 7.77045E+01 3.09687E+00 0.00000E+00
 -1      2042 7.62045E+01 3.09687E+00 0.00000E+00
 -1      2043 7.60350E+01 4.00625E+00 0.00000E+00
 -1      2044 8.07045E+01 3.09687E+00 0.00000E+00
 -1      2045 7.92045E+01 3.09687E+00 0.00000E+00
 -1      2046 7.90350E+01 4.00625E+00 0.00000E+00
 -1      2047 8.37045E+01 3.09687E+00 0.00000E+00
 -1      2048 8.22045E+01 3.09687E+00 0.00000E+00
 -1      2049 8.20350E+01 4.00625E+00 0.00000E+00
 -1      2050 8.67045E+01 3.09687E+00 0.00000E+00
 -1      2051 8.52045E+01 3.09687E+00 0.00000E+00
 -1      2052 8.50350E+01 4.00625E+00 0.00000E+00
 -1      2053 8.97045E+01 3.09687E+00 0.00000E+00
 -1      2054 8.82045E+01 3.09687E+00 0.00000E+00
 -1      2055 8.80350E+01 4.00625E+00 0.00000E+00
 -1      2056 9.27045E+01 3.09687E+00 0.00000E+00
 -1      2057 9.12045E+01 3.09687E+00 0.00000E+00
 -1      2058 9.10350E+01 4.00625E+00 0.00000E+00
 -1      2059 9.57045E+01 3.09687E+00 0.00000E+00
 -1      2060 9.42045E+01 3.09687E+00 0.00000E+00
 -1      2061 9.40350E+01 4.00625E+00 0.00000E+00
 -1      2062 9.87045E+01 3.09687E+00 0.00000E+00
 -1      2063 9.72045E+01 3.09687E+00 0.00000E+00
 -1      2064 9.70350E+01 4.00625E+00 0.00000E+00
 -1      2065 1.01704E+02 3.09687E+00 0.00000E+00
 -1      2066 1.00204E+02 3.09687E+00 0.00000E+00
 -1      2067 1.00035E+02 4.00625E+00 0.00000E+00
 -1      2068 1.04704E+02 3.09687E+00 0.00000E+00
 -1      2069 1.03204E+02 3.09687E+00 0.00000E+00
 -1      2070 1.03035E+02 4.00625E+00 0.00000E+00
 -1      2071 1.07704E+02 3.09687E+00 0.00000E+00
 -1      2072 1.06204E+02 3.09687E+00 0.00000E+00
 -1      2073 1.06035E+02 4.00625E+00 0.00000E+00
 -1      2074 1.10704E+02 3.09687E+00 0.00000E+00
 -1      2075 1.09204E+02 3.09687E+00 0.00000E+00
 -1      2076 1.09035E+02 4.00625E+00 0.00000E+00
 -1      2077 1.13704E+02 3.09687E+00 0.00000E+00
 -1      2078 1.12204E+02 3.09687E+00 0.00000E+00
 -1      2079 1.12035E+02 4.00625E+00 0.00000E+00
 -1      2080 1.16704E+02 3.09687E+00 0.00000E+00
 -1      2081 1.15204E+02 3.09687E+00 0.00000E+00
 -1      2082 1.15035E+02 4.00625E+00 0.00000E+00
 -1      2083 1.19704E+02 3.09687E+00 0.00000E+00
 -1      2084 1.18204E+02 3.09687E+00 0.00000E+00
 -1      2085 1.18035E+02 4.00625E+00 0.00000E+00
 -1      2086 1.22704E+02 3.09687E+00 0.00000E+00
 -1      2087 1.21204E+02 3.09687E+00 0.00000E+00
 -1      2088 1.21035E+02 4.00625E+00 0.00000E+00
 -1      2089 1.25704E+02 3.09687E+00 0.00000E+00
 -1      2090 1.24204E+02 3.09687E+00 0.00000E+00
 -1      2091 1.24035E+02 4.00625E+00 0.00000E+00
 -1      2092 1.28704E+02 3.09687E+00 0.00000E+00
 -1      2093 1.27204E+02 3.09687E+00 0.00000E+00
 -1      2094 1.27035E+02 4.00625E+00 0.00000E+00
 -1      2095 1.31704E+02 3.09687E+00 0.00000E+00
 -1      2096 1.30204E+02 3.09687E+00 0.00000E+00
 -1      2097 1.30035E+02 4.00625E+00 0.00000E+00
 -1      2098 1.34704E+02 3.09687E+00 0.00000E+00
 -1      2099 1.33204E+02 3.09687E+00 0.00000E+00
 -1      2100 1.33035E+02 4.00625E+00 0.00000E+00
 -1      2101 1.37704E+02 3.09687E+00 0.00000E+00
 -1      2102 1.36204E+02 3.09687E+00 0.00000E+00
 -1      2103 1.36035E+02 4.00625E+00 0.00000E+00
 -1      2104 1.40704E+02 3.09687E+00 0.00000E+00
 -1      2105 1.39204E+02 3.09687E+00 0.00000E+00
 -1      2106 1.39035E+02 4.00625E+00 0.00000E+00
 -1      2107 1.43704E+02 3.09687E+00 0.00000E+00
 -1      2108 1.42204E+02 3.09687E+00 0.00000E+00
 -1      2109 1.42035E+02 4.00625E+00 0.00000E+00
 -1      2110 1.46171E+02 3.20156E+00 0.00000E+00
 -1      2111 1.44671E+02 3.20156E+00 0.00000E+00
 -1      2112 1.44502E+02 4.11094E+00 0.00000E+00
 -1      2113 1.46435E+02 4.32031E+00 0.00000E+00
 -1      2114 1.46103E+02 1.25375E+01 0.00000E+00
 -1      2115 1.46103E+02 1.10625E+01 0.00000E+00
 -1      2116 1.46103E+02 9.58750E+00 0.00000E+00
 -1      2117 1.46103E+02 8.11250E+00 0.00000E+00
 -1      2118 1.44804E+02 1.03250E+01 0.00000E+00
 -1      2119 1.46269E+02 6.95391E+00 0.00000E+00
 -1      2120 1.46269E+02 5.47891E+00 0.00000E+00
 -1      2121 1.45302E+02 5.37422E+00 0.00000E+00
 -1      2122 1.44970E+02 7.69141E+00 0.00000E+00
 -1      2123 1.46103E+02 1.54375E+01 0.00000E+00
 -1      2124 1.46103E+02 1.39875E+01 0.00000E+00
 -1      2125 1.44804E+02 1.32500E+01 0.00000E+00
 -1      2126 1.46103E+02 1.83875E+01 0.00000E+00
 -1      2127 1.46103E+02 1.69125E+01 0.00000E+00
 -1      2128 1.44804E+02 1.61750E+01 0.00000E+00
 -1      2129 1.46103E+02 2.13375E+01 0.00000E+00
 -1      2130 1.46103E+02 1.98625E+01 0.00000E+00
 -1      2131 1.44804E+02 1.91250E+01 0.00000E+00
 -1      2132 1.46103E+02 2.42875E+01 0.00000E+00
 -1      2133 1.46103E+02 2.28125E+01 0.00000E+00
 -1      2134 1.44804E+02 2.20750E+01 0.00000E+00
 -1      2135 1.46103E+02 2.72375E+01 0.00000E+00
 -1      2136 1.46103E+02 2.57625E+01 0.00000E+00
 -1      2137 1.44804E+02 2.50250E+01 0.00000E+00
 -1      2138 1.46103E+02 3.01875E+01 0.00000E+00
 -1      2139 1.46103E+02 2.87125E+01 0.00000E+00
 -1      2140 1.44804E+02 2.79750E+01 0.00000E+00
 -1      2141 1.46103E+02 3.30875E+01 0.00000E+00
 -1      2142 1.46103E+02 3.16375E+01 0.00000E+00
 -1      2143 1.44804E+02 3.09000E+01 0.00000E+00
 -1      2144 1.46103E+02 3.60375E+01 0.00000E+00
 -1      2145 1.46103E+02 3.45625E+01 0.00000E+00
 -1      2146 1.44804E+02 3.38250E+01 0.00000E+00
 -1      2147 1.46103E+02 3.89875E+01 0.00000E+00
 -1      2148 1.46103E+02 3.75125E+01 0.00000E+00
 -1      2149 1.44804E+02 3.67750E+01 0.00000E+00
 -1      2150 1.46103E+02 4.19375E+01 0.00000E+00
 -1      2151 1.46103E+02 4.04625E+01 0.00000E+00
 -1      2152 1.44804E+02 3.97250E+01 0.00000E+00
 -1      2153 6.29638E+01 2.45599E+01 0.00000E+00
 -1      2154 6.32882E+01 2.53796E+01 0.00000E+00
 -1      2155 6.39266E+01 2.81389E+01 0.00000E+00
 -1      2156 6.39720E+01 2.89880E+01 0.00000E+00
 -1      2157 6.36489E+01 2.64375E+01 0.00000E+00
 -1      2158 6.37878E+01 2.72882E+01 0.00000E+00
 -1      2159 6.46668E+01 2.76669E+01 0.00000E+00
 -1      2160 6.18106E+01 2.29096E+01 0.00000E+00
 -1      2161 6.24024E+01 2.35726E+01 0.00000E+00
 -1      2162 6.05659E+01 2.16055E+01 0.00000E+00
 -1      2163 6.11883E+01 2.22576E+01 0.00000E+00
 -1      2164 6.20614E+01 2.20738E+01 0.00000E+00
 -1      2165 3.89700E+00 3.74688E+01 0.00000E+00
 -1      2166 3.89700E+00 3.89437E+01 0.00000E+00
 -1      2167 5.19600E+00 3.96813E+01 0.00000E+00
 -1      2168 5.19600E+00 3.67438E+01 0.00000E+00
 -1      2169 5.68486E+01 1.98007E+01 0.00000E+00
 -1      2170 5.77479E+01 1.98890E+01 0.00000E+00
 -1      2171 5.51388E+01 1.96073E+01 0.00000E+00
 -1      2172 5.59937E+01 1.97040E+01 0.00000E+00
 -1      2173 5.65231E+01 1.89364E+01 0.00000E+00
 -1      2174 5.31424E+01 1.97406E+01 0.00000E+00
 -1      2175 5.40876E+01 1.96767E+01 0.00000E+00
 -1      2176 5.11843E+01 2.05389E+01 0.00000E+00
 -1      2177 5.20160E+01 2.01275E+01 0.00000E+00
 -1      2178 4.96300E+01 2.14443E+01 0.00000E+00
 -1      2179 5.03260E+01 2.09819E+01 0.00000E+00
 -1      2180 4.81717E+01 2.25424E+01 0.00000E+00
 -1      2181 4.88828E+01 2.19855E+01 0.00000E+00
 -1      2182 4.70356E+01 2.44075E+01 0.00000E+00
 -1      2183 4.73867E+01 2.35306E+01 0.00000E+00
 -1      2184 4.64599E+01 2.60342E+01 0.00000E+00
 -1      2185 4.67477E+01 2.52209E+01 0.00000E+00
 -1      2186 4.62438E+01 2.45104E+01 0.00000E+00
 -1      2187 4.59233E+01 2.78659E+01 0.00000E+00
 -1      2188 4.61133E+01 2.70070E+01 0.00000E+00
 -1      2189 4.61174E+01 2.98685E+01 0.00000E+00
 -1      2190 4.60001E+01 2.89883E+01 0.00000E+00
 -1      2191 4.65108E+01 3.16942E+01 0.00000E+00
 -1      2192 4.62501E+01 3.08587E+01 0.00000E+00
 -1      2193 4.74752E+01 3.33343E+01 0.00000E+00
 -1      2194 4.70184E+01 3.26029E+01 0.00000E+00
 -1      2195 4.85570E+01 3.47511E+01 0.00000E+00
 -1      2196 4.80084E+01 3.41245E+01 0.00000E+00
 -1      2197 4.99590E+01 3.59278E+01 0.00000E+00
 -1      2198 4.92775E+01 3.54173E+01 0.00000E+00
 -1      2199 5.16055E+01 3.68055E+01 0.00000E+00
 -1      2200 5.08172E+01 3.64396E+01 0.00000E+00
 -1      2201 5.33734E+01 3.73905E+01 0.00000E+00
 -1      2202 5.25193E+01 3.71166E+01 0.00000E+00
 -1      2203 5.53433E+01 3.76159E+01 0.00000E+00
 -1      2204 5.44922E+01 3.76873E+01 0.00000E+00
 -1      2205 5.69538E+01 3.73786E+01 0.00000E+00
 -1      2206 5.61485E+01 3.74972E+01 0.00000E+00
 -1      2207 5.57912E+01 3.83458E+01 0.00000E+00
 -1      2208 5.88002E+01 3.67723E+01 0.00000E+00
 -1      2209 5.80527E+01 3.71273E+01 0.00000E+00
 -1      2210 6.01792E+01 3.59456E+01 0.00000E+00
 -1      2211 5.94897E+01 3.63590E+01 0.00000E+00
 -1      2212 5.94838E+01 3.73111E+01 0.00000E+00
 -1      2213 6.14835E+01 3.45820E+01 0.00000E+00
 -1      2214 6.09598E+01 3.51640E+01 0.00000E+00
 -1      2215 6.23614E+01 3.32731E+01 0.00000E+00
 -1      2216 6.19225E+01 3.39275E+01 0.00000E+00
 -1      2217 6.21736E+01 3.46800E+01 0.00000E+00
 -1      2218 6.33299E+01 3.17272E+01 0.00000E+00
 -1      2219 6.30180E+01 3.24673E+01 0.00000E+00
 -1      2220 6.37340E+01 3.01452E+01 0.00000E+00
 -1      2221 6.35320E+01 3.09362E+01 0.00000E+00
 -1      2222 6.41276E+01 3.16231E+01 0.00000E+00
 -1      2223 5.89160E+01 2.03961E+01 0.00000E+00
 -1      2224 5.97035E+01 2.09183E+01 0.00000E+00
 -1      2225 6.05767E+01 2.07345E+01 0.00000E+00
 -1      2226 6.42300E+00 4.57510E+01 0.00000E+00
 -1      2227 5.04545E+01 2.01953E+01 0.00000E+00
 -1      2228 5.85461E+01 1.95402E+01 0.00000E+00
 -1      2229 7.17300E+00 4.44520E+01 0.00000E+00
 -1      2230 6.41673E+01 2.57583E+01 0.00000E+00
 -1      2231 6.32452E+01 2.37131E+01 0.00000E+00
 -1      2232 1.45665E+02 4.31193E+01 0.00000E+00
 -1      2233 6.45676E+01 2.96749E+01 0.00000E+00
 -1      2234 6.32691E+01 3.32198E+01 0.00000E+00
 -1      2235 6.09539E+01 3.61161E+01 0.00000E+00
 -1      2236 5.76954E+01 3.79758E+01 0.00000E+00
 -1      2237 5.38672E+01 3.81675E+01 0.00000E+00
 -1      2238 5.18347E+01 3.75595E+01 0.00000E+00
 -1      2239 5.00627E+01 3.67366E+01 0.00000E+00
 -1      2240 4.84841E+01 3.55585E+01 0.00000E+00
 -1      2241 4.72303E+01 3.41021E+01 0.00000E+00
 -1      2242 4.61895E+01 3.24032E+01 0.00000E+00
 -1      2243 4.55491E+01 3.05042E+01 0.00000E+00
 -1      2244 4.56094E+01 2.62966E+01 0.00000E+00
 -1      2245 4.73168E+01 2.27089E+01 0.00000E+00
 -1      2246 4.72468E+01 2.18872E+01 0.00000E+00
 -1      2247 4.64618E+01 2.28754E+01 0.00000E+00
 -1      2248 4.88490E+01 2.11796E+01 0.00000E+00
 -1      2249 5.46169E+01 1.89091E+01 0.00000E+00
 -1      2250 5.24392E+01 1.93653E+01 0.00000E+00
 -1      2251 5.28624E+01 1.86032E+01 0.00000E+00
 -1      2252 5.17360E+01 1.89901E+01 0.00000E+00
 -1      2253 4.53396E+01 2.83917E+01 0.00000E+00
 -1      2254 1.07850E+01 5.30525E+00 0.00000E+00
 -1      2255 9.28500E+00 5.30525E+00 0.00000E+00
 -1      2256 6.49500E+00 3.01125E+01 0.00000E+00
 -1      2257 6.49500E+00 3.15875E+01 0.00000E+00
 -1      2258 6.49500E+00 3.30625E+01 0.00000E+00
 -1      2259 6.49500E+00 3.45375E+01 0.00000E+00
 -1      2260 7.79400E+00 3.23250E+01 0.00000E+00
 -1      2261 6.49500E+00 2.42125E+01 0.00000E+00
 -1      2262 6.49500E+00 2.56875E+01 0.00000E+00
 -1      2263 6.49500E+00 2.12625E+01 0.00000E+00
 -1      2264 6.49500E+00 2.27375E+01 0.00000E+00
 -1      2265 7.79400E+00 2.34750E+01 0.00000E+00
 -1      2266 6.49500E+00 1.83625E+01 0.00000E+00
 -1      2267 6.49500E+00 1.98125E+01 0.00000E+00
 -1      2268 7.79400E+00 2.05500E+01 0.00000E+00
 -1      2269 6.49500E+00 1.54125E+01 0.00000E+00
 -1      2270 6.49500E+00 1.68875E+01 0.00000E+00
 -1      2271 7.79400E+00 1.76250E+01 0.00000E+00
 -1      2272 6.49500E+00 1.24625E+01 0.00000E+00
 -1      2273 6.49500E+00 1.39375E+01 0.00000E+00
 -1      2274 7.79400E+00 1.46750E+01 0.00000E+00
 -1      2275 6.49500E+00 9.51250E+00 0.00000E+00
 -1      2276 6.49500E+00 1.09875E+01 0.00000E+00
 -1      2277 7.79400E+00 1.17250E+01 0.00000E+00
 -1      2278 1.37850E+01 5.30525E+00 0.00000E+00
 -1      2279 1.22850E+01 5.30525E+00 0.00000E+00
 -1      2280 1.15350E+01 6.60425E+00 0.00000E+00
 -1      2281 9.90000E+00 4.35050E+01 0.00000E+00
 -1      2282 1.14000E+01 4.35050E+01 0.00000E+00
 -1      2283 4.96704E+01 1.97293E+01 0.00000E+00
 -1      2284 5.05287E+01 1.92862E+01 0.00000E+00
 -1      2285 1.29000E+01 4.35050E+01 0.00000E+00
 -1      2286 1.44000E+01 4.35050E+01 0.00000E+00
 -1      2287 1.21500E+01 4.22060E+01 0.00000E+00
 -1      2288 1.59000E+01 4.35050E+01 0.00000E+00
 -1      2289 1.74000E+01 4.35050E+01 0.00000E+00
 -1      2290 1.51500E+01 4.22060E+01 0.00000E+00
 -1      2291 1.89000E+01 4.35050E+01 0.00000E+00
 -1      2292 2.04000E+01 4.35050E+01 0.00000E+00
 -1      2293 1.81500E+01 4.22060E+01 0.00000E+00
 -1      2294 2.19000E+01 4.35050E+01 0.00000E+00
 -1      2295 2.34000E+01 4.35050E+01 0.00000E+00
 -1      2296 2.11500E+01 4.22060E+01 0.00000E+00
 -1      2297 2.49000E+01 4.35050E+01 0.00000E+00
 -1      2298 2.64000E+01 4.35050E+01 0.00000E+00
 -1      2299 2.41500E+01 4.22060E+01 0.00000E+00
 -1      2300 2.79000E+01 4.35050E+01 0.00000E+00
 -1      2301 2.94000E+01 4.35050E+01 0.00000E+00
 -1      2302 2.71500E+01 4.22060E+01 0.00000E+00
 -1      2303 3.09000E+01 4.35050E+01 0.00000E+00
 -1      2304 3.24000E+01 4.35050E+01 0.00000E+00
 -1      2305 3.01500E+01 4.22060E+01 0.00000E+00
 -1      2306 3.39000E+01 4.35050E+01 0.00000E+00
 -1      2307 3.54000E+01 4.35050E+01 0.00000E+00
 -1      2308 3.31500E+01 4.22060E+01 0.00000E+00
 -1      2309 3.69000E+01 4.35050E+01 0.00000E+00
 -1      2310 3.84000E+01 4.35050E+01 0.00000E+00
 -1      2311 3.61500E+01 4.22060E+01 0.00000E+00
 -1      2312 3.99000E+01 4.35050E+01 0.00000E+00
 -1      2313 4.14000E+01 4.35050E+01 0.00000E+00
 -1      2314 3.91500E+01 4.22060E+01 0.00000E+00
 -1      2315 4.29000E+01 4.35050E+01 0.00000E+00
 -1      2316 4.44000E+01 4.35050E+01 0.00000E+00
 -1      2317 4.21500E+01 4.22060E+01 0.00000E+00
 -1      2318 4.59000E+01 4.35050E+01 0.00000E+00
 -1      2319 4.74000E+01 4.35050E+01 0.00000E+00
 -1      2320 4.51500E+01 4.22060E+01 0.00000E+00
 -1      2321 4.89000E+01 4.35050E+01 0.00000E+00
 -1      2322 5.04000E+01 4.35050E+01 0.00000E+00
 -1      2323 4.81500E+01 4.22060E+01 0.00000E+00
 -1      2324 5.19000E+01 4.35050E+01 0.00000E+00
 -1      2325 5.34000E+01 4.35050E+01 0.00000E+00
 -1      2326 5.11500E+01 4.22060E+01 0.00000E+00
 -1      2327 5.49000E+01 4.35050E+01 0.00000E+00
 -1      2328 5.64000E+01 4.35050E+01 0.00000E+00
 -1      2329 5.41500E+01 4.22060E+01 0.00000E+00
 -1      2330 5.79000E+01 4.35050E+01 0.00000E+00
 -1      2331 5.94000E+01 4.35050E+01 0.00000E+00
 -1      2332 5.71500E+01 4.22060E+01 0.00000E+00
 -1      2333 6.09000E+01 4.35050E+01 0.00000E+00
 -1      2334 6.24000E+01 4.35050E+01 0.00000E+00
 -1      2335 6.01500E+01 4.22060E+01 0.00000E+00
 -1      2336 6.39000E+01 4.35050E+01 0.00000E+00
 -1      2337 6.54000E+01 4.35050E+01 0.00000E+00
 -1      2338 6.31500E+01 4.22060E+01 0.00000E+00
 -1      2339 6.69000E+01 4.35050E+01 0.00000E+00
 -1      2340 6.84000E+01 4.35050E+01 0.00000E+00
 -1      2341 6.61500E+01 4.22060E+01 0.00000E+00
 -1      2342 6.99000E+01 4.35050E+01 0.00000E+00
 -1      2343 7.14000E+01 4.35050E+01 0.00000E+00
 -1      2344 6.91500E+01 4.22060E+01 0.00000E+00
 -1      2345 7.29000E+01 4.35050E+01 0.00000E+00
 -1      2346 7.44000E+01 4.35050E+01 0.00000E+00
 -1      2347 7.21500E+01 4.22060E+01 0.00000E+00
 -1      2348 7.59000E+01 4.35050E+01 0.00000E+00
 -1      2349 7.74000E+01 4.35050E+01 0.00000E+00
 -1      2350 7.51500E+01 4.22060E+01 0.00000E+00
 -1      2351 7.89000E+01 4.35050E+01 0.00000E+00
 -1      2352 8.04000E+01 4.35050E+01 0.00000E+00
 -1      2353 7.81500E+01 4.22060E+01 0.00000E+00
 -1      2354 8.19000E+01 4.35050E+01 0.00000E+00
 -1      2355 8.34000E+01 4.35050E+01 0.00000E+00
 -1      2356 8.11500E+01 4.22060E+01 0.00000E+00
 -1      2357 8.49000E+01 4.35050E+01 0.00000E+00
 -1      2358 8.64000E+01 4.35050E+01 0.00000E+00
 -1      2359 8.41500E+01 4.22060E+01 0.00000E+00
 -1      2360 8.79000E+01 4.35050E+01 0.00000E+00
 -1      2361 8.94000E+01 4.35050E+01 0.00000E+00
 -1      2362 8.71500E+01 4.22060E+01 0.00000E+00
 -1      2363 9.09000E+01 4.35050E+01 0.00000E+00
 -1      2364 9.24000E+01 4.35050E+01 0.00000E+00
 -1      2365 9.01500E+01 4.22060E+01 0.00000E+00
 -1      2366 9.39000E+01 4.35050E+01 0.00000E+00
 -1      2367 9.54000E+01 4.35050E+01 0.00000E+00
 -1      2368 9.31500E+01 4.22060E+01 0.00000E+00
 -1      2369 9.69000E+01 4.35050E+01 0.00000E+00
 -1      2370 9.84000E+01 4.35050E+01 0.00000E+00
 -1      2371 9.61500E+01 4.22060E+01 0.00000E+00
 -1      2372 9.99000E+01 4.35050E+01 0.00000E+00
 -1      2373 1.01400E+02 4.35050E+01 0.00000E+00
 -1      2374 9.91500E+01 4.22060E+01 0.00000E+00
 -1      2375 1.02900E+02 4.35050E+01 0.00000E+00
 -1      2376 1.04400E+02 4.35050E+01 0.00000E+00
 -1      2377 1.02150E+02 4.22060E+01 0.00000E+00
 -1      2378 1.05900E+02 4.35050E+01 0.00000E+00
 -1      2379 1.07400E+02 4.35050E+01 0.00000E+00
 -1      2380 1.05150E+02 4.22060E+01 0.00000E+00
 -1      2381 1.08900E+02 4.35050E+01 0.00000E+00
 -1      2382 1.10400E+02 4.35050E+01 0.00000E+00
 -1      2383 1.08150E+02 4.22060E+01 0.00000E+00
 -1      2384 1.11900E+02 4.35050E+01 0.00000E+00
 -1      2385 1.13400E+02 4.35050E+01 0.00000E+00
 -1      2386 1.11150E+02 4.22060E+01 0.00000E+00
 -1      2387 1.14900E+02 4.35050E+01 0.00000E+00
 -1      2388 1.16400E+02 4.35050E+01 0.00000E+00
 -1      2389 1.14150E+02 4.22060E+01 0.00000E+00
 -1      2390 1.17900E+02 4.35050E+01 0.00000E+00
 -1      2391 1.19400E+02 4.35050E+01 0.00000E+00
 -1      2392 1.17150E+02 4.22060E+01 0.00000E+00
 -1      2393 1.20900E+02 4.35050E+01 0.00000E+00
 -1      2394 1.22400E+02 4.35050E+01 0.00000E+00
 -1      2395 1.20150E+02 4.22060E+01 0.00000E+00
 -1      2396 1.23900E+02 4.35050E+01 0.00000E+00
 -1      2397 1.25400E+02 4.35050E+01 0.00000E+00
 -1      2398 1.23150E+02 4.22060E+01 0.00000E+00
 -1      2399 1.26900E+02 4.35050E+01 0.00000E+00
 -1      2400 1.28400E+02 4.35050E+01 0.00000E+00
 -1      2401 1.26150E+02 4.22060E+01 0.00000E+00
 -1      2402 1.29900E+02 4.35050E+01 0.00000E+00
 -1      2403 1.31400E+02 4.35050E+01 0.00000E+00
 -1      2404 1.29150E+02 4.22060E+01 0.00000E+00
 -1      2405 1.32900E+02 4.35050E+01 0.00000E+00
 -1      2406 1.34400E+02 4.35050E+01 0.00000E+00
 -1      2407 1.32150E+02 4.22060E+01 0.00000E+00
 -1      2408 1.35900E+02 4.35050E+01 0.00000E+00
 -1      2409 1.37400E+02 4.35050E+01 0.00000E+00
 -1      2410 1.35150E+02 4.22060E+01 0.00000E+00
 -1      2411 1.38900E+02 4.35050E+01 0.00000E+00
 -1      2412 1.40400E+02 4.35050E+01 0.00000E+00
 -1      2413 1.38150E+02 4.22060E+01 0.00000E+00
 -1      2414 1.97850E+01 5.30525E+00 0.00000E+00
 -1      2415 1.82850E+01 5.30525E+00 0.00000E+00
 -1      2416 2.27850E+01 5.30525E+00 0.00000E+00
 -1      2417 2.12850E+01 5.30525E+00 0.00000E+00
 -1      2418 2.05350E+01 6.60425E+00 0.00000E+00
 -1      2419 2.57850E+01 5.30525E+00 0.00000E+00
 -1      2420 2.42850E+01 5.30525E+00 0.00000E+00
 -1      2421 2.35350E+01 6.60425E+00 0.00000E+00
 -1      2422 2.87850E+01 5.30525E+00 0.00000E+00
 -1      2423 2.72850E+01 5.30525E+00 0.00000E+00
 -1      2424 2.65350E+01 6.60425E+00 0.00000E+00
 -1      2425 3.17850E+01 5.30525E+00 0.00000E+00
 -1      2426 3.02850E+01 5.30525E+00 0.00000E+00
 -1      2427 2.95350E+01 6.60425E+00 0.00000E+00
 -1      2428 3.47850E+01 5.30525E+00 0.00000E+00
 -1      2429 3.32850E+01 5.30525E+00 0.00000E+00
 -1      2430 3.25350E+01 6.60425E+00 0.00000E+00
 -1      2431 3.77850E+01 5.30525E+00 0.00000E+00
 -1      2432 3.62850E+01 5.30525E+00 0.00000E+00
 -1      2433 3.55350E+01 6.60425E+00 0.00000E+00
 -1      2434 4.07850E+01 5.30525E+00 0.00000E+00
 -1      2435 3.92850E+01 5.30525E+00 0.00000E+00
 -1      2436 3.85350E+01 6.60425E+00 0.00000E+00
 -1      2437 4.37850E+01 5.30525E+00 0.00000E+00
 -1      2438 4.22850E+01 5.30525E+00 0.00000E+00
 -1      2439 4.15350E+01 6.60425E+00 0.00000E+00
 -1      2440 4.67850E+01 5.30525E+00 0.00000E+00
 -1      2441 4.52850E+01 5.30525E+00 0.00000E+00
 -1      2442 4.45350E+01 6.60425E+00 0.00000E+00
 -1      2443 4.97850E+01 5.30525E+00 0.00000E+00
 -1      2444 4.82850E+01 5.30525E+00 0.00000E+00
 -1      2445 4.75350E+01 6.60425E+00 0.00000E+00
 -1      2446 5.27850E+01 5.30525E+00 0.00000E+00
 -1      2447 5.12850E+01 5.30525E+00 0.00000E+00
 -1      2448 5.05350E+01 6.60425E+00 0.00000E+00
 -1      2449 5.57850E+01 5.30525E+00 0.00000E+00
 -1      2450 5.42850E+01 5.30525E+00 0.00000E+00
 -1      2451 5.35350E+01 6.60425E+00 0.00000E+00
 -1      2452 5.87850E+01 5.30525E+00 0.00000E+00
 -1      2453 5.72850E+01 5.30525E+00 0.00000E+00
 -1      2454 5.65350E+01 6.60425E+00 0.00000E+00
 -1      2455 6.17850E+01 5.30525E+00 0.00000E+00
 -1      2456 6.02850E+01 5.30525E+00 0.00000E+00
 -1      2457 5.95350E+01 6.60425E+00 0.00000E+00
 -1      2458 6.47850E+01 5.30525E+00 0.00000E+00
 -1      2459 6.32850E+01 5.30525E+00 0.00000E+00
 -1      2460 6.25350E+01 6.60425E+00 0.00000E+00
 -1      2461 6.77850E+01 5.30525E+00 0.00000E+00
 -1      2462 6.62850E+01 5.30525E+00 0.00000E+00
 -1      2463 6.55350E+01 6.60425E+00 0.00000E+00
 -1      2464 7.07850E+01 5.30525E+00 0.00000E+00
 -1      2465 6.92850E+01 5.30525E+00 0.00000E+00
 -1      2466 6.85350E+01 6.60425E+00 0.00000E+00
 -1      2467 7.37850E+01 5.30525E+00 0.00000E+00
 -1      2468 7.22850E+01 5.30525E+00 0.00000E+00
 -1      2469 7.15350E+01 6.60425E+00 0.00000E+00
 -1      2470 7.67850E+01 5.30525E+00 0.00000E+00
 -1      2471 7.52850E+01 5.30525E+00 0.00000E+00
 -1      2472 7.45350E+01 6.60425E+00 0.00000E+00
 -1      2473 7.97850E+01 5.30525E+00 0.00000E+00
 -1      2474 7.82850E+01 5.30525E+00 0.00000E+00
 -1      2475 7.75350E+01 6.60425E+00 0.00000E+00
 -1      2476 8.27850E+01 5.30525E+00 0.00000E+00
 -1      2477 8.12850E+01 5.30525E+00 0.00000E+00
 -1      2478 8.05350E+01 6.60425E+00 0.00000E+00
 -1      2479 8.57850E+01 5.30525E+00 0.00000E+00
 -1      2480 8.42850E+01 5.30525E+00 0.00000E+00
 -1      2481 8.35350E+01 6.60425E+00 0.00000E+00
 -1      2482 8.87850E+01 5.30525E+00 0.00000E+00
 -1      2483 8.72850E+01 5.30525E+00 0.00000E+00
 -1      2484 8.65350E+01 6.60425E+00 0.00000E+00
 -1      2485 9.17850E+01 5.30525E+00 0.00000E+00
 -1      2486 9.02850E+01 5.30525E+00 0.00000E+00
 -1      2487 8.95350E+01 6.60425E+00 0.00000E+00
 -1      2488 9.47850E+01 5.30525E+00 0.00000E+00
 -1      2489 9.32850E+01 5.30525E+00 0.00000E+00
 -1      2490 9.25350E+01 6.60425E+00 0.00000E+00
 -1      2491 9.77850E+01 5.30525E+00 0.00000E+00
 -1      2492 9.62850E+01 5.30525E+00 0.00000E+00
 -1      2493 9.55350E+01 6.60425E+00 0.00000E+00
 -1      2494 1.00785E+02 5.30525E+00 0.00000E+00
 -1      2495 9.92850E+01 5.30525E+00 0.00000E+00
 -1      2496 9.85350E+01 6.60425E+00 0.00000E+00
 -1      2497 1.03785E+02 5.30525E+00 0.00000E+00
 -1      2498 1.02285E+02 5.30525E+00 0.00000E+00
 -1      2499 1.01535E+02 6.60425E+00 0.00000E+00
 -1      2500 1.06785E+02 5.30525E+00 0.00000E+00
 -1      2501 1.05285E+02 5.30525E+00 0.00000E+00
 -1      2502 1.04535E+02 6.60425E+00 0.00000E+00
 -1      2503 1.09785E+02 5.30525E+00 0.00000E+00
 -1      2504 1.08285E+02 5.30525E+00 0.00000E+00
 -1      2505 1.07535E+02 6.60425E+00 0.00000E+00
 -1      2506 1.12785E+02 5.30525E+00 0.00000E+00
 -1      2507 1.11285E+02 5.30525E+00 0.00000E+00
 -1      2508 1.10535E+02 6.60425E+00 0.00000E+00
 -1      2509 1.15785E+02 5.30525E+00 0.00000E+00
 -1      2510 1.14285E+02 5.30525E+00 0.00000E+00
 -1      2511 1.13535E+02 6.60425E+00 0.00000E+00
 -1      2512 1.18785E+02 5.30525E+00 0.00000E+00
 -1      2513 1.17285E+02 5.30525E+00 0.00000E+00
 -1      2514 1.16535E+02 6.60425E+00 0.00000E+00
 -1      2515 1.21785E+02 5.30525E+00 0.00000E+00
 -1      2516 1.20285E+02 5.30525E+00 0.00000E+00
 -1      2517 1.19535E+02 6.60425E+00 0.00000E+00
 -1      2518 1.24785E+02 5.30525E+00 0.00000E+00
 -1      2519 1.23285E+02 5.30525E+00 0.00000E+00
 -1      2520 1.22535E+02 6.60425E+00 0.00000E+00
 -1      2521 1.27785E+02 5.30525E+00 0.00000E+00
 -1      2522 1.26285E+02 5.30525E+00 0.00000E+00
 -1      2523 1.25535E+02 6.60425E+00 0.00000E+00
 -1      2524 1.30785E+02 5.30525E+00 0.00000E+00
 -1      2525 1.29285E+02 5.30525E+00 0.00000E+00
 -1      2526 1.28535E+02 6.60425E+00 0.00000E+00
 -1      2527 1.33785E+02 5.30525E+00 0.00000E+00
 -1      2528 1.32285E+02 5.30525E+00 0.00000E+00
 -1      2529 1.31535E+02 6.60425E+00 0.00000E+00
 -1      2530 1.36785E+02 5.30525E+00 0.00000E+00
 -1      2531 1.35285E+02 5.30525E+00 0.00000E+00
 -1      2532 1.34535E+02 6.60425E+00 0.00000E+00
 -1      2533 1.39785E+02 5.30525E+00 0.00000E+00
 -1      2534 1.38285E+02 5.30525E+00 0.00000E+00
 -1      2535 1.37535E+02 6.60425E+00 0.00000E+00
 -1      2536 1.42785E+02 5.30525E+00 0.00000E+00
 -1      2537 1.41285E+02 5.30525E+00 0.00000E+00
 -1      2538 1.40535E+02 6.60425E+00 0.00000E+00
 -1      2539 1.44336E+02 5.26953E+00 0.00000E+00
 -1      2540 1.43505E+02 1.69125E+01 0.00000E+00
 -1      2541 1.43505E+02 1.54375E+01 0.00000E+00
 -1      2542 1.43505E+02 1.98625E+01 0.00000E+00
 -1      2543 1.43505E+02 1.83875E+01 0.00000E+00
 -1      2544 1.42206E+02 1.76500E+01 0.00000E+00
 -1      2545 1.43505E+02 1.10625E+01 0.00000E+00
 -1      2546 1.43505E+02 9.58750E+00 0.00000E+00
 -1      2547 1.43505E+02 1.39750E+01 0.00000E+00
 -1      2548 1.43505E+02 1.25250E+01 0.00000E+00
 -1      2549 1.42206E+02 1.17875E+01 0.00000E+00
 -1      2550 1.42206E+02 1.47125E+01 0.00000E+00
 -1      2551 1.43505E+02 2.28125E+01 0.00000E+00
 -1      2552 1.43505E+02 2.13375E+01 0.00000E+00
 -1      2553 1.42206E+02 2.06000E+01 0.00000E+00
 -1      2554 1.43505E+02 2.57625E+01 0.00000E+00
 -1      2555 1.43505E+02 2.42875E+01 0.00000E+00
 -1      2556 1.42206E+02 2.35500E+01 0.00000E+00
 -1      2557 1.43505E+02 2.87125E+01 0.00000E+00
 -1      2558 1.43505E+02 2.72375E+01 0.00000E+00
 -1      2559 1.42206E+02 2.65000E+01 0.00000E+00
 -1      2560 1.43505E+02 3.16125E+01 0.00000E+00
 -1      2561 1.43505E+02 3.01625E+01 0.00000E+00
 -1      2562 1.42206E+02 2.94250E+01 0.00000E+00
 -1      2563 1.43505E+02 3.45625E+01 0.00000E+00
 -1      2564 1.43505E+02 3.30875E+01 0.00000E+00
 -1      2565 1.42206E+02 3.23500E+01 0.00000E+00
 -1      2566 1.43505E+02 3.75125E+01 0.00000E+00
 -1      2567 1.43505E+02 3.60375E+01 0.00000E+00
 -1      2568 1.42206E+02 3.53000E+01 0.00000E+00
 -1      2569 1.43505E+02 4.04625E+01 0.00000E+00
 -1      2570 1.43505E+02 3.89875E+01 0.00000E+00
 -1      2571 1.42206E+02 3.82500E+01 0.00000E+00
 -1      2572 6.37099E+01 2.27956E+01 0.00000E+00
 -1      2573 6.42713E+01 2.37829E+01 0.00000E+00
 -1      2574 1.44321E+02 4.30606E+01 0.00000E+00
 -1      2575 6.55266E+01 2.92690E+01 0.00000E+00
 -1      2576 6.52886E+01 3.04262E+01 0.00000E+00
 -1      2577 1.67850E+01 5.30525E+00 0.00000E+00
 -1      2578 1.52850E+01 5.30525E+00 0.00000E+00
 -1      2579 1.75350E+01 6.60425E+00 0.00000E+00
 -1      2580 6.53197E+01 2.71237E+01 0.00000E+00
 -1      2581 6.54585E+01 2.79744E+01 0.00000E+00
 -1      2582 6.23100E+01 2.12135E+01 0.00000E+00
 -1      2583 6.29323E+01 2.18655E+01 0.00000E+00
 -1      2584 6.42621E+01 3.33586E+01 0.00000E+00
 -1      2585 6.36056E+01 3.41644E+01 0.00000E+00
 -1      2586 5.42067E+01 3.91448E+01 0.00000E+00
 -1      2587 5.30879E+01 3.88480E+01 0.00000E+00
 -1      2588 6.49500E+00 2.71625E+01 0.00000E+00
 -1      2589 6.49500E+00 2.86375E+01 0.00000E+00
 -1      2590 7.79400E+00 2.93750E+01 0.00000E+00
 -1      2591 7.79400E+00 2.64250E+01 0.00000E+00
 -1      2592 5.61920E+01 1.80359E+01 0.00000E+00
 -1      2593 5.70469E+01 1.81326E+01 0.00000E+00
 -1      2594 4.46060E+01 2.90057E+01 0.00000E+00
 -1      2595 4.45292E+01 2.78833E+01 0.00000E+00
 -1      2596 5.82868E+01 1.85384E+01 0.00000E+00
 -1      2597 5.94550E+01 1.90455E+01 0.00000E+00
 -1      2598 5.40403E+01 1.81716E+01 0.00000E+00
 -1      2599 5.50916E+01 1.81023E+01 0.00000E+00
 -1      2600 4.80215E+01 2.08235E+01 0.00000E+00
 -1      2601 4.87687E+01 2.02823E+01 0.00000E+00
 -1      2602 4.53704E+01 2.46589E+01 0.00000E+00
 -1      2603 4.56583E+01 2.38455E+01 0.00000E+00
 -1      2604 4.46773E+01 2.66045E+01 0.00000E+00
 -1      2605 4.50239E+01 2.56317E+01 0.00000E+00
 -1      2606 4.44384E+01 2.49668E+01 0.00000E+00
 -1      2607 4.47655E+01 3.11133E+01 0.00000E+00
 -1      2608 4.46327E+01 3.01230E+01 0.00000E+00
 -1      2609 4.57312E+01 3.32554E+01 0.00000E+00
 -1      2610 4.52235E+01 3.23466E+01 0.00000E+00
 -1      2611 4.67861E+01 3.49769E+01 0.00000E+00
 -1      2612 4.62529E+01 3.41867E+01 0.00000E+00
 -1      2613 4.82621E+01 3.65213E+01 0.00000E+00
 -1      2614 4.75416E+01 3.58551E+01 0.00000E+00
 -1      2615 5.01169E+01 3.76211E+01 0.00000E+00
 -1      2616 4.92588E+01 3.71093E+01 0.00000E+00
 -1      2617 5.20151E+01 3.85269E+01 0.00000E+00
 -1      2618 5.11014E+01 3.82158E+01 0.00000E+00
 -1      2619 5.63127E+01 3.90934E+01 0.00000E+00
 -1      2620 5.55075E+01 3.92120E+01 0.00000E+00
 -1      2621 5.84267E+01 3.86453E+01 0.00000E+00
 -1      2622 5.73278E+01 3.88966E+01 0.00000E+00
 -1      2623 6.03557E+01 3.79836E+01 0.00000E+00
 -1      2624 5.96662E+01 3.83970E+01 0.00000E+00
 -1      2625 6.19169E+01 3.64204E+01 0.00000E+00
 -1      2626 6.11363E+01 3.72020E+01 0.00000E+00
 -1      2627 6.13186E+01 3.82879E+01 0.00000E+00
 -1      2628 6.31666E+01 3.48188E+01 0.00000E+00
 -1      2629 6.27277E+01 3.54733E+01 0.00000E+00
 -1      2630 6.41597E+01 3.49576E+01 0.00000E+00
 -1      2631 6.47589E+01 2.49661E+01 0.00000E+00
 -1      2632 6.51196E+01 2.60240E+01 0.00000E+00
 -1      2633 6.50866E+01 3.12172E+01 0.00000E+00
 -1      2634 6.48845E+01 3.20082E+01 0.00000E+00
 -1      2635 6.60456E+01 3.08114E+01 0.00000E+00
 -1      2636 6.55950E+00 4.28890E+01 0.00000E+00
 -1      2637 8.53650E+00 4.32410E+01 0.00000E+00
 -1      2638 9.28650E+00 4.19420E+01 0.00000E+00
 -1      2639 6.55950E+00 4.14140E+01 0.00000E+00
 -1      2640 8.07525E+00 5.11044E+00 0.00000E+00
 -1      2641 6.57525E+00 5.11044E+00 0.00000E+00
 -1      2642 6.40575E+00 6.01981E+00 0.00000E+00
 -1      2643 8.82525E+00 6.40944E+00 0.00000E+00
 -1      2644 6.07843E+01 1.95891E+01 0.00000E+00
 -1      2645 6.16467E+01 2.02764E+01 0.00000E+00
 -1      2646 5.79557E+01 1.76379E+01 0.00000E+00
 -1      2647 7.79400E+00 3.52687E+01 0.00000E+00
 -1      2648 6.49500E+00 3.60062E+01 0.00000E+00
 -1      2649 6.49500E+00 3.74750E+01 0.00000E+00
 -1      2650 1.45350E+01 6.60425E+00 0.00000E+00
 -1      2651 6.40575E+00 7.49481E+00 0.00000E+00
 -1      2652 6.05250E+01 1.85874E+01 0.00000E+00
 -1      2653 5.70441E+01 3.97629E+01 0.00000E+00
 -1      2654 5.23546E+01 3.95042E+01 0.00000E+00
 -1      2655 5.02974E+01 3.85884E+01 0.00000E+00
 -1      2656 5.09520E+01 1.85241E+01 0.00000E+00
 -1      2657 4.83163E+01 3.74058E+01 0.00000E+00
 -1      2658 4.65642E+01 3.59397E+01 0.00000E+00
 -1      2659 4.52870E+01 3.41301E+01 0.00000E+00
 -1      2660 1.43586E+02 6.56853E+00 0.00000E+00
 -1      2661 1.43419E+02 7.72713E+00 0.00000E+00
 -1      2662 4.39437E+01 2.72185E+01 0.00000E+00
 -1      2663 6.52237E+01 2.40486E+01 0.00000E+00
 -1      2664 6.39585E+01 2.19353E+01 0.00000E+00
 -1      2665 1.42758E+02 4.35929E+01 0.00000E+00
 -1      2666 1.43241E+02 4.17323E+01 0.00000E+00
 -1      2667 1.41942E+02 4.09948E+01 0.00000E+00
 -1      2668 1.41414E+02 4.35342E+01 0.00000E+00
 -1      2669 4.38224E+01 2.96147E+01 0.00000E+00
 -1      2670 6.61795E+01 2.87258E+01 0.00000E+00
 -1      2671 7.70475E+00 8.23231E+00 0.00000E+00
 -1      2672 6.59114E+01 2.63315E+01 0.00000E+00
 -1      2673 4.71665E+01 2.09900E+01 0.00000E+00
 -1      2674 4.70863E+01 2.00927E+01 0.00000E+00
 -1      2675 4.63116E+01 2.11564E+01 0.00000E+00
 -1      2676 6.52725E+00 3.87101E+01 0.00000E+00
 -1      2677 6.52725E+00 4.01789E+01 0.00000E+00
 -1      2678 7.89075E+00 4.04429E+01 0.00000E+00
 -1      2679 7.82625E+00 3.79726E+01 0.00000E+00
 -1      2680 6.29100E+01 3.65592E+01 0.00000E+00
 -1      2681 5.92986E+01 3.93178E+01 0.00000E+00
 -1      2682 5.33371E+01 1.77964E+01 0.00000E+00
 -1      2683 5.38119E+01 1.69897E+01 0.00000E+00
 -1      2684 5.26339E+01 1.74212E+01 0.00000E+00
 -1      2685 5.47281E+01 3.98925E+01 0.00000E+00
 -1      2686 6.52211E+01 3.29528E+01 0.00000E+00
 -1      2687 6.55577E+01 3.38973E+01 0.00000E+00
 -1      2688 6.61801E+01 3.25469E+01 0.00000E+00
 -1      2689 6.25177E+01 2.00682E+01 0.00000E+00
 -1      2690 4.88430E+01 1.93732E+01 0.00000E+00
 -1      2691 4.55884E+01 2.30239E+01 0.00000E+00
 -1      2692 4.55185E+01 2.22022E+01 0.00000E+00
 -1      2693 4.47150E+01 2.31724E+01 0.00000E+00
 -1      2694 5.56154E+01 1.72985E+01 0.00000E+00
 -1      2695 4.43072E+01 3.19654E+01 0.00000E+00
 -1      2696 1.42120E+02 8.46463E+00 0.00000E+00
 -1      2697 1.40664E+02 4.22352E+01 0.00000E+00
 -1      2698 9.09300E+00 1.98250E+01 0.00000E+00
 -1      2699 9.09300E+00 2.12750E+01 0.00000E+00
 -1      2700 9.09300E+00 2.27500E+01 0.00000E+00
 -1      2701 9.09300E+00 2.42250E+01 0.00000E+00
 -1      2702 1.03920E+01 2.20250E+01 0.00000E+00
 -1      2703 9.09300E+00 1.39375E+01 0.00000E+00
 -1      2704 9.09300E+00 1.54125E+01 0.00000E+00
 -1      2705 9.09300E+00 1.09875E+01 0.00000E+00
 -1      2706 9.09300E+00 1.24625E+01 0.00000E+00
 -1      2707 1.03920E+01 1.32000E+01 0.00000E+00
 -1      2708 1.22850E+01 7.90325E+00 0.00000E+00
 -1      2709 1.07850E+01 7.90325E+00 0.00000E+00
 -1      2710 6.66138E+01 2.56357E+01 0.00000E+00
 -1      2711 6.68139E+01 2.67353E+01 0.00000E+00
 -1      2712 8.91450E+00 8.42712E+00 0.00000E+00
 -1      2713 9.25425E+00 4.07069E+01 0.00000E+00
 -1      2714 1.06178E+01 4.09709E+01 0.00000E+00
 -1      2715 9.22200E+00 3.94717E+01 0.00000E+00
 -1      2716 1.44000E+01 4.09070E+01 0.00000E+00
 -1      2717 1.59000E+01 4.09070E+01 0.00000E+00
 -1      2718 1.74000E+01 4.09070E+01 0.00000E+00
 -1      2719 1.89000E+01 4.09070E+01 0.00000E+00
 -1      2720 1.66500E+01 3.96080E+01 0.00000E+00
 -1      2721 2.04000E+01 4.09070E+01 0.00000E+00
 -1      2722 2.19000E+01 4.09070E+01 0.00000E+00
 -1      2723 1.96500E+01 3.96080E+01 0.00000E+00
 -1      2724 2.34000E+01 4.09070E+01 0.00000E+00
 -1      2725 2.49000E+01 4.09070E+01 0.00000E+00
 -1      2726 2.26500E+01 3.96080E+01 0.00000E+00
 -1      2727 2.64000E+01 4.09070E+01 0.00000E+00
 -1      2728 2.79000E+01 4.09070E+01 0.00000E+00
 -1      2729 2.56500E+01 3.96080E+01 0.00000E+00
 -1      2730 2.94000E+01 4.09070E+01 0.00000E+00
 -1      2731 3.09000E+01 4.09070E+01 0.00000E+00
 -1      2732 2.86500E+01 3.96080E+01 0.00000E+00
 -1      2733 3.24000E+01 4.09070E+01 0.00000E+00
 -1      2734 3.39000E+01 4.09070E+01 0.00000E+00
 -1      2735 3.16500E+01 3.96080E+01 0.00000E+00
 -1      2736 3.54000E+01 4.09070E+01 0.00000E+00
 -1      2737 3.69000E+01 4.09070E+01 0.00000E+00
 -1      2738 3.46500E+01 3.96080E+01 0.00000E+00
 -1      2739 3.84000E+01 4.09070E+01 0.00000E+00
 -1      2740 3.99000E+01 4.09070E+01 0.00000E+00
 -1      2741 3.76500E+01 3.96080E+01 0.00000E+00
 -1      2742 4.14000E+01 4.09070E+01 0.00000E+00
 -1      2743 4.29000E+01 4.09070E+01 0.00000E+00
 -1      2744 4.06500E+01 3.96080E+01 0.00000E+00
 -1      2745 4.44000E+01 4.09070E+01 0.00000E+00
 -1      2746 4.59000E+01 4.09070E+01 0.00000E+00
 -1      2747 4.36500E+01 3.96080E+01 0.00000E+00
 -1      2748 4.74000E+01 4.11809E+01 0.00000E+00
 -1      2749 4.89000E+01 4.11809E+01 0.00000E+00
 -1      2750 5.95940E+01 4.06378E+01 0.00000E+00
 -1      2751 6.10940E+01 4.06378E+01 0.00000E+00
 -1      2752 6.54000E+01 4.09070E+01 0.00000E+00
 -1      2753 6.69000E+01 4.09070E+01 0.00000E+00
 -1      2754 6.84000E+01 4.09070E+01 0.00000E+00
 -1      2755 6.99000E+01 4.09070E+01 0.00000E+00
 -1      2756 6.76500E+01 3.96080E+01 0.00000E+00
 -1      2757 7.14000E+01 4.09070E+01 0.00000E+00
 -1      2758 7.29000E+01 4.09070E+01 0.00000E+00
 -1      2759 7.06500E+01 3.96080E+01 0.00000E+00
 -1      2760 7.44000E+01 4.09070E+01 0.00000E+00
 -1      2761 7.59000E+01 4.09070E+01 0.00000E+00
 -1      2762 7.36500E+01 3.96080E+01 0.00000E+00
 -1      2763 7.74000E+01 4.09070E+01 0.00000E+00
 -1      2764 7.89000E+01 4.09070E+01 0.00000E+00
 -1      2765 7.66500E+01 3.96080E+01 0.00000E+00
 -1      2766 8.04000E+01 4.09070E+01 0.00000E+00
 -1      2767 8.19000E+01 4.09070E+01 0.00000E+00
 -1      2768 7.96500E+01 3.96080E+01 0.00000E+00
 -1      2769 8.34000E+01 4.09070E+01 0.00000E+00
 -1      2770 8.49000E+01 4.09070E+01 0.00000E+00
 -1      2771 8.26500E+01 3.96080E+01 0.00000E+00
 -1      2772 8.64000E+01 4.09070E+01 0.00000E+00
 -1      2773 8.79000E+01 4.09070E+01 0.00000E+00
 -1      2774 8.56500E+01 3.96080E+01 0.00000E+00
 -1      2775 8.94000E+01 4.09070E+01 0.00000E+00
 -1      2776 9.09000E+01 4.09070E+01 0.00000E+00
 -1      2777 8.86500E+01 3.96080E+01 0.00000E+00
 -1      2778 9.24000E+01 4.09070E+01 0.00000E+00
 -1      2779 9.39000E+01 4.09070E+01 0.00000E+00
 -1      2780 9.16500E+01 3.96080E+01 0.00000E+00
 -1      2781 9.54000E+01 4.09070E+01 0.00000E+00
 -1      2782 9.69000E+01 4.09070E+01 0.00000E+00
 -1      2783 9.46500E+01 3.96080E+01 0.00000E+00
 -1      2784 9.84000E+01 4.09070E+01 0.00000E+00
 -1      2785 9.99000E+01 4.09070E+01 0.00000E+00
 -1      2786 9.76500E+01 3.96080E+01 0.00000E+00
 -1      2787 1.01400E+02 4.09070E+01 0.00000E+00
 -1      2788 1.02900E+02 4.09070E+01 0.00000E+00
 -1      2789 1.00650E+02 3.96080E+01 0.00000E+00
 -1      2790 1.04400E+02 4.09070E+01 0.00000E+00
 -1      2791 1.05900E+02 4.09070E+01 0.00000E+00
 -1      2792 1.03650E+02 3.96080E+01 0.00000E+00
 -1      2793 1.07400E+02 4.09070E+01 0.00000E+00
 -1      2794 1.08900E+02 4.09070E+01 0.00000E+00
 -1      2795 1.06650E+02 3.96080E+01 0.00000E+00
 -1      2796 1.10400E+02 4.09070E+01 0.00000E+00
 -1      2797 1.11900E+02 4.09070E+01 0.00000E+00
 -1      2798 1.09650E+02 3.96080E+01 0.00000E+00
 -1      2799 1.13400E+02 4.09070E+01 0.00000E+00
 -1      2800 1.14900E+02 4.09070E+01 0.00000E+00
 -1      2801 1.12650E+02 3.96080E+01 0.00000E+00
 -1      2802 1.16400E+02 4.09070E+01 0.00000E+00
 -1      2803 1.17900E+02 4.09070E+01 0.00000E+00
 -1      2804 1.15650E+02 3.96080E+01 0.00000E+00
 -1      2805 1.19400E+02 4.09070E+01 0.00000E+00
 -1      2806 1.20900E+02 4.09070E+01 0.00000E+00
 -1      2807 1.18650E+02 3.96080E+01 0.00000E+00
 -1      2808 1.22400E+02 4.09070E+01 0.00000E+00
 -1      2809 1.23900E+02 4.09070E+01 0.00000E+00
 -1      2810 1.21650E+02 3.96080E+01 0.00000E+00
 -1      2811 1.25400E+02 4.09070E+01 0.00000E+00
 -1      2812 1.26900E+02 4.09070E+01 0.00000E+00
 -1      2813 1.24650E+02 3.96080E+01 0.00000E+00
 -1      2814 1.28400E+02 4.09070E+01 0.00000E+00
 -1      2815 1.29900E+02 4.09070E+01 0.00000E+00
 -1      2816 1.27650E+02 3.96080E+01 0.00000E+00
 -1      2817 1.31400E+02 4.09070E+01 0.00000E+00
 -1      2818 1.32900E+02 4.09070E+01 0.00000E+00
 -1      2819 1.30650E+02 3.96080E+01 0.00000E+00
 -1      2820 1.34400E+02 4.09070E+01 0.00000E+00
 -1      2821 1.35900E+02 4.09070E+01 0.00000E+00
 -1      2822 1.33650E+02 3.96080E+01 0.00000E+00
 -1      2823 1.37400E+02 4.09070E+01 0.00000E+00
 -1      2824 1.38900E+02 4.09070E+01 0.00000E+00
 -1      2825 1.36650E+02 3.96080E+01 0.00000E+00
 -1      2826 2.42850E+01 7.90325E+00 0.00000E+00
 -1      2827 2.27850E+01 7.90325E+00 0.00000E+00
 -1      2828 4.30622E+01 3.01919E+01 0.00000E+00
 -1      2829 4.30355E+01 2.90745E+01 0.00000E+00
 -1      2830 2.12850E+01 7.90325E+00 0.00000E+00
 -1      2831 1.97850E+01 7.90325E+00 0.00000E+00
 -1      2832 2.20350E+01 9.20225E+00 0.00000E+00
 -1      2833 3.02850E+01 7.90325E+00 0.00000E+00
 -1      2834 2.87850E+01 7.90325E+00 0.00000E+00
 -1      2835 3.32850E+01 7.90325E+00 0.00000E+00
 -1      2836 3.17850E+01 7.90325E+00 0.00000E+00
 -1      2837 3.10350E+01 9.20225E+00 0.00000E+00
 -1      2838 3.62850E+01 7.90325E+00 0.00000E+00
 -1      2839 3.47850E+01 7.90325E+00 0.00000E+00
 -1      2840 3.40350E+01 9.20225E+00 0.00000E+00
 -1      2841 3.92850E+01 7.90325E+00 0.00000E+00
 -1      2842 3.77850E+01 7.90325E+00 0.00000E+00
 -1      2843 3.70350E+01 9.20225E+00 0.00000E+00
 -1      2844 4.22850E+01 7.90325E+00 0.00000E+00
 -1      2845 4.07850E+01 7.90325E+00 0.00000E+00
 -1      2846 4.00350E+01 9.20225E+00 0.00000E+00
 -1      2847 4.52850E+01 7.90325E+00 0.00000E+00
 -1      2848 4.37850E+01 7.90325E+00 0.00000E+00
 -1      2849 4.30350E+01 9.20225E+00 0.00000E+00
 -1      2850 4.82850E+01 7.90325E+00 0.00000E+00
 -1      2851 4.67850E+01 7.90325E+00 0.00000E+00
 -1      2852 4.60350E+01 9.20225E+00 0.00000E+00
 -1      2853 5.12850E+01 7.90325E+00 0.00000E+00
 -1      2854 4.97850E+01 7.90325E+00 0.00000E+00
 -1      2855 4.90350E+01 9.20225E+00 0.00000E+00
 -1      2856 5.42850E+01 7.90325E+00 0.00000E+00
 -1      2857 5.27850E+01 7.90325E+00 0.00000E+00
 -1      2858 5.20350E+01 9.20225E+00 0.00000E+00
 -1      2859 5.72850E+01 7.90325E+00 0.00000E+00
 -1      2860 5.57850E+01 7.90325E+00 0.00000E+00
 -1      2861 5.50350E+01 9.20225E+00 0.00000E+00
 -1      2862 6.02850E+01 7.90325E+00 0.00000E+00
 -1      2863 5.87850E+01 7.90325E+00 0.00000E+00
 -1      2864 5.80350E+01 9.20225E+00 0.00000E+00
 -1      2865 6.32850E+01 7.90325E+00 0.00000E+00
 -1      2866 6.17850E+01 7.90325E+00 0.00000E+00
 -1      2867 6.10350E+01 9.20225E+00 0.00000E+00
 -1      2868 6.62850E+01 7.90325E+00 0.00000E+00
 -1      2869 6.47850E+01 7.90325E+00 0.00000E+00
 -1      2870 6.40350E+01 9.20225E+00 0.00000E+00
 -1      2871 6.92850E+01 7.90325E+00 0.00000E+00
 -1      2872 6.77850E+01 7.90325E+00 0.00000E+00
 -1      2873 6.70350E+01 9.20225E+00 0.00000E+00
 -1      2874 7.22850E+01 7.90325E+00 0.00000E+00
 -1      2875 7.07850E+01 7.90325E+00 0.00000E+00
 -1      2876 7.00350E+01 9.20225E+00 0.00000E+00
 -1      2877 7.52850E+01 7.90325E+00 0.00000E+00
 -1      2878 7.37850E+01 7.90325E+00 0.00000E+00
 -1      2879 7.30350E+01 9.20225E+00 0.00000E+00
 -1      2880 7.82850E+01 7.90325E+00 0.00000E+00
 -1      2881 7.67850E+01 7.90325E+00 0.00000E+00
 -1      2882 7.60350E+01 9.20225E+00 0.00000E+00
 -1      2883 8.12850E+01 7.90325E+00 0.00000E+00
 -1      2884 7.97850E+01 7.90325E+00 0.00000E+00
 -1      2885 7.90350E+01 9.20225E+00 0.00000E+00
 -1      2886 8.42850E+01 7.90325E+00 0.00000E+00
 -1      2887 8.27850E+01 7.90325E+00 0.00000E+00
 -1      2888 8.20350E+01 9.20225E+00 0.00000E+00
 -1      2889 8.72850E+01 7.90325E+00 0.00000E+00
 -1      2890 8.57850E+01 7.90325E+00 0.00000E+00
 -1      2891 8.50350E+01 9.20225E+00 0.00000E+00
 -1      2892 9.02850E+01 7.90325E+00 0.00000E+00
 -1      2893 8.87850E+01 7.90325E+00 0.00000E+00
 -1      2894 8.80350E+01 9.20225E+00 0.00000E+00
 -1      2895 9.32850E+01 7.90325E+00 0.00000E+00
 -1      2896 9.17850E+01 7.90325E+00 0.00000E+00
 -1      2897 9.10350E+01 9.20225E+00 0.00000E+00
 -1      2898 9.62850E+01 7.90325E+00 0.00000E+00
 -1      2899 9.47850E+01 7.90325E+00 0.00000E+00
 -1      2900 9.40350E+01 9.20225E+00 0.00000E+00
 -1      2901 9.92850E+01 7.90325E+00 0.00000E+00
 -1      2902 9.77850E+01 7.90325E+00 0.00000E+00
 -1      2903 9.70350E+01 9.20225E+00 0.00000E+00
 -1      2904 1.02285E+02 7.90325E+00 0.00000E+00
 -1      2905 1.00785E+02 7.90325E+00 0.00000E+00
 -1      2906 1.00035E+02 9.20225E+00 0.00000E+00
 -1      2907 1.05285E+02 7.90325E+00 0.00000E+00
 -1      2908 1.03785E+02 7.90325E+00 0.00000E+00
 -1      2909 1.03035E+02 9.20225E+00 0.00000E+00
 -1      2910 1.08285E+02 7.90325E+00 0.00000E+00
 -1      2911 1.06785E+02 7.90325E+00 0.00000E+00
 -1      2912 1.06035E+02 9.20225E+00 0.00000E+00
 -1      2913 1.11285E+02 7.90325E+00 0.00000E+00
 -1      2914 1.09785E+02 7.90325E+00 0.00000E+00
 -1      2915 1.09035E+02 9.20225E+00 0.00000E+00
 -1      2916 1.14285E+02 7.90325E+00 0.00000E+00
 -1      2917 1.12785E+02 7.90325E+00 0.00000E+00
 -1      2918 1.12035E+02 9.20225E+00 0.00000E+00
 -1      2919 1.17285E+02 7.90325E+00 0.00000E+00
 -1      2920 1.15785E+02 7.90325E+00 0.00000E+00
 -1      2921 1.15035E+02 9.20225E+00 0.00000E+00
 -1      2922 1.20285E+02 7.90325E+00 0.00000E+00
 -1      2923 1.18785E+02 7.90325E+00 0.00000E+00
 -1      2924 1.18035E+02 9.20225E+00 0.00000E+00
 -1      2925 1.23285E+02 7.90325E+00 0.00000E+00
 -1      2926 1.21785E+02 7.90325E+00 0.00000E+00
 -1      2927 1.21035E+02 9.20225E+00 0.00000E+00
 -1      2928 1.26285E+02 7.90325E+00 0.00000E+00
 -1      2929 1.24785E+02 7.90325E+00 0.00000E+00
 -1      2930 1.24035E+02 9.20225E+00 0.00000E+00
 -1      2931 1.29285E+02 7.90325E+00 0.00000E+00
 -1      2932 1.27785E+02 7.90325E+00 0.00000E+00
 -1      2933 1.27035E+02 9.20225E+00 0.00000E+00
 -1      2934 1.32285E+02 7.90325E+00 0.00000E+00
 -1      2935 1.30785E+02 7.90325E+00 0.00000E+00
 -1      2936 1.30035E+02 9.20225E+00 0.00000E+00
 -1      2937 1.35285E+02 7.90325E+00 0.00000E+00
 -1      2938 1.33785E+02 7.90325E+00 0.00000E+00
 -1      2939 1.33035E+02 9.20225E+00 0.00000E+00
 -1      2940 1.38285E+02 7.90325E+00 0.00000E+00
 -1      2941 1.36785E+02 7.90325E+00 0.00000E+00
 -1      2942 1.36035E+02 9.20225E+00 0.00000E+00
 -1      2943 1.40953E+02 8.18394E+00 0.00000E+00
 -1      2944 1.39453E+02 8.18394E+00 0.00000E+00
 -1      2945 1.38703E+02 9.48294E+00 0.00000E+00
 -1      2946 1.41038E+02 1.00443E+01 0.00000E+00
 -1      2947 1.40907E+02 2.42875E+01 0.00000E+00
 -1      2948 1.40907E+02 2.28125E+01 0.00000E+00
 -1      2949 1.39914E+02 4.09362E+01 0.00000E+00
 -1      2950 1.40928E+02 4.09655E+01 0.00000E+00
 -1      2951 1.39164E+02 3.96372E+01 0.00000E+00
 -1      2952 1.40907E+02 1.83875E+01 0.00000E+00
 -1      2953 1.40907E+02 1.69125E+01 0.00000E+00
 -1      2954 1.40907E+02 2.72375E+01 0.00000E+00
 -1      2955 1.40907E+02 2.57625E+01 0.00000E+00
 -1      2956 1.39608E+02 2.50250E+01 0.00000E+00
 -1      2957 1.40907E+02 2.13375E+01 0.00000E+00
 -1      2958 1.40907E+02 1.98625E+01 0.00000E+00
 -1      2959 1.39608E+02 1.91250E+01 0.00000E+00
 -1      2960 1.39608E+02 2.20750E+01 0.00000E+00
 -1      2961 1.82850E+01 7.90325E+00 0.00000E+00
 -1      2962 1.67850E+01 7.90325E+00 0.00000E+00
 -1      2963 1.90350E+01 9.20225E+00 0.00000E+00
 -1      2964 1.40907E+02 3.01375E+01 0.00000E+00
 -1      2965 1.40907E+02 2.86875E+01 0.00000E+00
 -1      2966 1.39608E+02 2.79500E+01 0.00000E+00
 -1      2967 1.40907E+02 3.30875E+01 0.00000E+00
 -1      2968 1.40907E+02 3.16125E+01 0.00000E+00
 -1      2969 1.39608E+02 3.08750E+01 0.00000E+00
 -1      2970 1.40907E+02 3.60375E+01 0.00000E+00
 -1      2971 1.40907E+02 3.45625E+01 0.00000E+00
 -1      2972 1.39608E+02 3.38250E+01 0.00000E+00
 -1      2973 1.41192E+02 3.96958E+01 0.00000E+00
 -1      2974 6.70586E+01 3.06488E+01 0.00000E+00
 -1      2975 6.68566E+01 3.14398E+01 0.00000E+00
 -1      2976 5.83546E+01 4.08860E+01 0.00000E+00
 -1      2977 5.03679E+01 3.95839E+01 0.00000E+00
 -1      2978 4.93834E+01 3.89892E+01 0.00000E+00
 -1      2979 6.40305E+01 3.66978E+01 0.00000E+00
 -1      2980 6.32198E+01 3.76449E+01 0.00000E+00
 -1      2981 2.72850E+01 7.90325E+00 0.00000E+00
 -1      2982 2.57850E+01 7.90325E+00 0.00000E+00
 -1      2983 2.50350E+01 9.20225E+00 0.00000E+00
 -1      2984 2.80350E+01 9.20225E+00 0.00000E+00
 -1      2985 1.17589E+01 4.09389E+01 0.00000E+00
 -1      2986 1.32589E+01 4.09389E+01 0.00000E+00
 -1      2987 1.40089E+01 3.96399E+01 0.00000E+00
 -1      2988 1.17266E+01 3.97038E+01 0.00000E+00
 -1      2989 9.09300E+00 1.68813E+01 0.00000E+00
 -1      2990 9.09300E+00 1.83563E+01 0.00000E+00
 -1      2991 1.03920E+01 1.90812E+01 0.00000E+00
 -1      2992 1.03920E+01 1.61437E+01 0.00000E+00
 -1      2993 9.09300E+00 3.15875E+01 0.00000E+00
 -1      2994 9.09300E+00 3.30625E+01 0.00000E+00
 -1      2995 6.70855E+01 2.80290E+01 0.00000E+00
 -1      2996 6.71536E+01 2.93236E+01 0.00000E+00
 -1      2997 6.02167E+01 1.74443E+01 0.00000E+00
 -1      2998 6.15460E+01 1.79879E+01 0.00000E+00
 -1      2999 1.52850E+01 7.90325E+00 0.00000E+00
 -1      3000 1.37850E+01 7.90325E+00 0.00000E+00
 -1      3001 1.30350E+01 9.20225E+00 0.00000E+00
 -1      3002 1.60350E+01 9.20225E+00 0.00000E+00
 -1      3003 5.58395E+01 4.10828E+01 0.00000E+00
 -1      3004 5.45387E+01 4.10156E+01 0.00000E+00
 -1      3005 6.60052E+01 2.30345E+01 0.00000E+00
 -1      3006 6.64928E+01 2.42177E+01 0.00000E+00
 -1      3007 4.37324E+01 3.28807E+01 0.00000E+00
 -1      3008 4.32743E+01 3.16473E+01 0.00000E+00
 -1      3009 5.50086E+01 1.63921E+01 0.00000E+00
 -1      3010 5.61090E+01 1.63257E+01 0.00000E+00
 -1      3011 4.32994E+01 2.51092E+01 0.00000E+00
 -1      3012 4.36460E+01 2.41364E+01 0.00000E+00
 -1      3013 4.79657E+01 1.89544E+01 0.00000E+00
 -1      3014 4.88674E+01 1.84014E+01 0.00000E+00
 -1      3015 5.30387E+01 4.10156E+01 0.00000E+00
 -1      3016 4.30032E+01 2.76669E+01 0.00000E+00
 -1      3017 4.31513E+01 2.63881E+01 0.00000E+00
 -1      3018 4.23589E+01 2.55576E+01 0.00000E+00
 -1      3019 4.47265E+01 3.50558E+01 0.00000E+00
 -1      3020 4.42049E+01 3.41245E+01 0.00000E+00
 -1      3021 4.62919E+01 3.69380E+01 0.00000E+00
 -1      3022 4.55363E+01 3.60599E+01 0.00000E+00
 -1      3023 5.01640E+01 1.79206E+01 0.00000E+00
 -1      3024 5.13713E+01 1.76245E+01 0.00000E+00
 -1      3025 6.24391E+01 3.84265E+01 0.00000E+00
 -1      3026 6.16585E+01 3.92081E+01 0.00000E+00
 -1      3027 6.35596E+01 3.85651E+01 0.00000E+00
 -1      3028 6.50136E+01 3.49703E+01 0.00000E+00
 -1      3029 6.45746E+01 3.56248E+01 0.00000E+00
 -1      3030 6.48843E+01 3.67105E+01 0.00000E+00
 -1      3031 6.59725E+01 3.45645E+01 0.00000E+00
 -1      3032 6.42919E+01 2.08665E+01 0.00000E+00
 -1      3033 6.50695E+01 2.17965E+01 0.00000E+00
 -1      3034 6.29654E+01 1.89923E+01 0.00000E+00
 -1      3035 6.36286E+01 1.99294E+01 0.00000E+00
 -1      3036 6.47396E+01 1.97906E+01 0.00000E+00
 -1      3037 5.76025E+01 1.66200E+01 0.00000E+00
 -1      3038 5.88424E+01 1.70258E+01 0.00000E+00
 -1      3039 5.73395E+01 4.10828E+01 0.00000E+00
 -1      3040 6.22145E+01 4.07764E+01 0.00000E+00
 -1      3041 9.09300E+00 3.45313E+01 0.00000E+00
 -1      3042 9.09300E+00 3.60000E+01 0.00000E+00
 -1      3043 1.03920E+01 3.37938E+01 0.00000E+00
 -1      3044 1.03920E+01 2.49750E+01 0.00000E+00
 -1      3045 9.09300E+00 2.57000E+01 0.00000E+00
 -1      3046 9.09300E+00 2.71750E+01 0.00000E+00
 -1      3047 6.77880E+01 2.73332E+01 0.00000E+00
 -1      3048 9.66450E+00 9.72612E+00 0.00000E+00
 -1      3049 4.88019E+01 4.00702E+01 0.00000E+00
 -1      3050 4.95519E+01 4.10954E+01 0.00000E+00
 -1      3051 4.66500E+01 3.98819E+01 0.00000E+00
 -1      3052 6.37145E+01 4.07764E+01 0.00000E+00
 -1      3053 1.39608E+02 1.61875E+01 0.00000E+00
 -1      3054 1.40907E+02 1.54500E+01 0.00000E+00
 -1      3055 1.40907E+02 1.39875E+01 0.00000E+00
 -1      3056 4.22431E+01 2.82441E+01 0.00000E+00
 -1      3057 6.71932E+01 3.23844E+01 0.00000E+00
 -1      3058 1.40973E+02 1.27472E+01 0.00000E+00
 -1      3059 1.40973E+02 1.12847E+01 0.00000E+00
 -1      3060 1.39805E+02 1.10040E+01 0.00000E+00
 -1      3061 1.39674E+02 1.34847E+01 0.00000E+00
 -1      3062 4.92867E+01 1.75018E+01 0.00000E+00
 -1      3063 1.41192E+02 3.82207E+01 0.00000E+00
 -1      3064 1.39893E+02 3.74832E+01 0.00000E+00
 -1      3065 5.98634E+01 1.64264E+01 0.00000E+00
 -1      3066 4.72885E+01 3.75260E+01 0.00000E+00
 -1      3067 4.62607E+01 3.76462E+01 0.00000E+00
 -1      3068 4.82851E+01 3.81139E+01 0.00000E+00
 -1      3069 4.31719E+01 3.38064E+01 0.00000E+00
 -1      3070 4.71107E+01 1.91209E+01 0.00000E+00
 -1      3071 4.71351E+01 1.81490E+01 0.00000E+00
 -1      3072 4.62557E+01 1.92873E+01 0.00000E+00
 -1      3073 5.43054E+01 1.60169E+01 0.00000E+00
 -1      3074 4.54382E+01 2.13049E+01 0.00000E+00
 -1      3075 4.53579E+01 2.04077E+01 0.00000E+00
 -1      3076 4.45648E+01 2.14534E+01 0.00000E+00
 -1      3077 6.79646E+01 2.99521E+01 0.00000E+00
 -1      3078 4.24874E+01 3.11072E+01 0.00000E+00
 -1      3079 4.17004E+01 3.05670E+01 0.00000E+00
 -1      3080 4.19125E+01 3.20224E+01 0.00000E+00
 -1      3081 5.18460E+01 1.68178E+01 0.00000E+00
 -1      3082 9.09300E+00 2.86437E+01 0.00000E+00
 -1      3083 9.09300E+00 3.01187E+01 0.00000E+00
 -1      3084 1.03920E+01 3.08563E+01 0.00000E+00
 -1      3085 1.03920E+01 2.79188E+01 0.00000E+00
 -1      3086 6.44645E+01 3.94774E+01 0.00000E+00
 -1      3087 4.83556E+01 3.91094E+01 0.00000E+00
 -1      3088 4.35761E+01 2.33148E+01 0.00000E+00
 -1      3089 4.35061E+01 2.24931E+01 0.00000E+00
 -1      3090 4.24371E+01 2.34571E+01 0.00000E+00
 -1      3091 1.09635E+01 1.04636E+01 0.00000E+00
 -1      3092 6.23487E+01 1.67060E+01 0.00000E+00
 -1      3093 6.26570E+01 1.78491E+01 0.00000E+00
 -1      3094 6.37680E+01 1.77103E+01 0.00000E+00
 -1      3095 6.63385E+01 2.19656E+01 0.00000E+00
 -1      3096 6.73953E+01 2.46215E+01 0.00000E+00
 -1      3097 5.69956E+01 1.57136E+01 0.00000E+00
 -1      3098 5.20291E+01 4.13447E+01 0.00000E+00
 -1      3099 5.24178E+01 4.01543E+01 0.00000E+00
 -1      3100 4.44542E+01 3.60542E+01 0.00000E+00
 -1      3101 5.13450E+01 3.98332E+01 0.00000E+00
 -1      3102 5.04311E+01 4.02340E+01 0.00000E+00
 -1      3103 5.05291E+01 4.13447E+01 0.00000E+00
 -1      3104 1.16910E+01 1.24625E+01 0.00000E+00
 -1      3105 1.16910E+01 1.39375E+01 0.00000E+00
 -1      3106 6.52451E+01 3.86957E+01 0.00000E+00
 -1      3107 1.89000E+01 3.83090E+01 0.00000E+00
 -1      3108 2.04000E+01 3.83090E+01 0.00000E+00
 -1      3109 2.19000E+01 3.83090E+01 0.00000E+00
 -1      3110 2.34000E+01 3.83090E+01 0.00000E+00
 -1      3111 2.11500E+01 3.70100E+01 0.00000E+00
 -1      3112 2.49000E+01 3.83090E+01 0.00000E+00
 -1      3113 2.64000E+01 3.83090E+01 0.00000E+00
 -1      3114 2.41500E+01 3.70100E+01 0.00000E+00
 -1      3115 2.79000E+01 3.83090E+01 0.00000E+00
 -1      3116 2.94000E+01 3.83090E+01 0.00000E+00
 -1      3117 2.71500E+01 3.70100E+01 0.00000E+00
 -1      3118 3.09000E+01 3.83090E+01 0.00000E+00
 -1      3119 3.24000E+01 3.83090E+01 0.00000E+00
 -1      3120 3.01500E+01 3.70100E+01 0.00000E+00
 -1      3121 3.39000E+01 3.83090E+01 0.00000E+00
 -1      3122 3.54000E+01 3.83090E+01 0.00000E+00
 -1      3123 3.31500E+01 3.70100E+01 0.00000E+00
 -1      3124 3.69000E+01 3.83090E+01 0.00000E+00
 -1      3125 3.84000E+01 3.83090E+01 0.00000E+00
 -1      3126 3.61500E+01 3.70100E+01 0.00000E+00
 -1      3127 3.99000E+01 3.83090E+01 0.00000E+00
 -1      3128 4.14000E+01 3.83090E+01 0.00000E+00
 -1      3129 3.91500E+01 3.70100E+01 0.00000E+00
 -1      3130 4.14330E+01 2.60984E+01 0.00000E+00
 -1      3131 4.15811E+01 2.48196E+01 0.00000E+00
 -1      3132 4.82529E+01 1.67025E+01 0.00000E+00
 -1      3133 4.95495E+01 1.62217E+01 0.00000E+00
 -1      3134 6.99000E+01 3.83090E+01 0.00000E+00
 -1      3135 7.14000E+01 3.83090E+01 0.00000E+00
 -1      3136 7.29000E+01 3.83090E+01 0.00000E+00
 -1      3137 7.44000E+01 3.83090E+01 0.00000E+00
 -1      3138 7.21500E+01 3.70100E+01 0.00000E+00
 -1      3139 7.59000E+01 3.83090E+01 0.00000E+00
 -1      3140 7.74000E+01 3.83090E+01 0.00000E+00
 -1      3141 7.51500E+01 3.70100E+01 0.00000E+00
 -1      3142 7.89000E+01 3.83090E+01 0.00000E+00
 -1      3143 8.04000E+01 3.83090E+01 0.00000E+00
 -1      3144 7.81500E+01 3.70100E+01 0.00000E+00
 -1      3145 8.19000E+01 3.83090E+01 0.00000E+00
 -1      3146 8.34000E+01 3.83090E+01 0.00000E+00
 -1      3147 8.11500E+01 3.70100E+01 0.00000E+00
 -1      3148 8.49000E+01 3.83090E+01 0.00000E+00
 -1      3149 8.64000E+01 3.83090E+01 0.00000E+00
 -1      3150 8.41500E+01 3.70100E+01 0.00000E+00
 -1      3151 8.79000E+01 3.83090E+01 0.00000E+00
 -1      3152 8.94000E+01 3.83090E+01 0.00000E+00
 -1      3153 8.71500E+01 3.70100E+01 0.00000E+00
 -1      3154 9.09000E+01 3.83090E+01 0.00000E+00
 -1      3155 9.24000E+01 3.83090E+01 0.00000E+00
 -1      3156 9.01500E+01 3.70100E+01 0.00000E+00
 -1      3157 9.39000E+01 3.83090E+01 0.00000E+00
 -1      3158 9.54000E+01 3.83090E+01 0.00000E+00
 -1      3159 9.31500E+01 3.70100E+01 0.00000E+00
 -1      3160 9.69000E+01 3.83090E+01 0.00000E+00
 -1      3161 9.84000E+01 3.83090E+01 0.00000E+00
 -1      3162 9.61500E+01 3.70100E+01 0.00000E+00
 -1      3163 9.99000E+01 3.83090E+01 0.00000E+00
 -1      3164 1.01400E+02 3.83090E+01 0.00000E+00
 -1      3165 9.91500E+01 3.70100E+01 0.00000E+00
 -1      3166 1.02900E+02 3.83090E+01 0.00000E+00
 -1      3167 1.04400E+02 3.83090E+01 0.00000E+00
 -1      3168 1.02150E+02 3.70100E+01 0.00000E+00
 -1      3169 1.05900E+02 3.83090E+01 0.00000E+00
 -1      3170 1.07400E+02 3.83090E+01 0.00000E+00
 -1      3171 1.05150E+02 3.70100E+01 0.00000E+00
 -1      3172 1.08900E+02 3.83090E+01 0.00000E+00
 -1      3173 1.10400E+02 3.83090E+01 0.00000E+00
 -1      3174 1.08150E+02 3.70100E+01 0.00000E+00
 -1      3175 1.11900E+02 3.83090E+01 0.00000E+00
 -1      3176 1.13400E+02 3.83090E+01 0.00000E+00
 -1      3177 1.11150E+02 3.70100E+01 0.00000E+00
 -1      3178 1.14900E+02 3.83090E+01 0.00000E+00
 -1      3179 1.16400E+02 3.83090E+01 0.00000E+00
 -1      3180 1.14150E+02 3.70100E+01 0.00000E+00
 -1      3181 1.17900E+02 3.83090E+01 0.00000E+00
 -1      3182 1.19400E+02 3.83090E+01 0.00000E+00
 -1      3183 1.17150E+02 3.70100E+01 0.00000E+00
 -1      3184 1.20900E+02 3.83090E+01 0.00000E+00
 -1      3185 1.22400E+02 3.83090E+01 0.00000E+00
 -1      3186 1.20150E+02 3.70100E+01 0.00000E+00
 -1      3187 1.23900E+02 3.83090E+01 0.00000E+00
 -1      3188 1.25400E+02 3.83090E+01 0.00000E+00
 -1      3189 1.23150E+02 3.70100E+01 0.00000E+00
 -1      3190 1.26900E+02 3.83090E+01 0.00000E+00
 -1      3191 1.28400E+02 3.83090E+01 0.00000E+00
 -1      3192 1.26150E+02 3.70100E+01 0.00000E+00
 -1      3193 1.29900E+02 3.83090E+01 0.00000E+00
 -1      3194 1.31400E+02 3.83090E+01 0.00000E+00
 -1      3195 1.29150E+02 3.70100E+01 0.00000E+00
 -1      3196 1.32900E+02 3.83090E+01 0.00000E+00
 -1      3197 1.34400E+02 3.83090E+01 0.00000E+00
 -1      3198 1.32150E+02 3.70100E+01 0.00000E+00
 -1      3199 1.35900E+02 3.83090E+01 0.00000E+00
 -1      3200 1.37400E+02 3.83090E+01 0.00000E+00
 -1      3201 1.35150E+02 3.70100E+01 0.00000E+00
 -1      3202 1.38309E+02 2.86750E+01 0.00000E+00
 -1      3203 1.38309E+02 2.72250E+01 0.00000E+00
 -1      3204 3.47850E+01 1.05013E+01 0.00000E+00
 -1      3205 3.32850E+01 1.05013E+01 0.00000E+00
 -1      3206 3.17850E+01 1.05013E+01 0.00000E+00
 -1      3207 3.02850E+01 1.05013E+01 0.00000E+00
 -1      3208 3.25350E+01 1.18003E+01 0.00000E+00
 -1      3209 4.07850E+01 1.05013E+01 0.00000E+00
 -1      3210 3.92850E+01 1.05013E+01 0.00000E+00
 -1      3211 4.37850E+01 1.05013E+01 0.00000E+00
 -1      3212 4.22850E+01 1.05013E+01 0.00000E+00
 -1      3213 4.15350E+01 1.18003E+01 0.00000E+00
 -1      3214 4.67850E+01 1.05013E+01 0.00000E+00
 -1      3215 4.52850E+01 1.05013E+01 0.00000E+00
 -1      3216 4.45350E+01 1.18003E+01 0.00000E+00
 -1      3217 4.97850E+01 1.05013E+01 0.00000E+00
 -1      3218 4.82850E+01 1.05013E+01 0.00000E+00
 -1      3219 4.75350E+01 1.18003E+01 0.00000E+00
 -1      3220 5.27850E+01 1.05013E+01 0.00000E+00
 -1      3221 5.12850E+01 1.05013E+01 0.00000E+00
 -1      3222 5.05350E+01 1.18003E+01 0.00000E+00
 -1      3223 5.57850E+01 1.05013E+01 0.00000E+00
 -1      3224 5.42850E+01 1.05013E+01 0.00000E+00
 -1      3225 5.35350E+01 1.18003E+01 0.00000E+00
 -1      3226 5.87850E+01 1.05013E+01 0.00000E+00
 -1      3227 5.72850E+01 1.05013E+01 0.00000E+00
 -1      3228 5.65350E+01 1.18003E+01 0.00000E+00
 -1      3229 6.17850E+01 1.05013E+01 0.00000E+00
 -1      3230 6.02850E+01 1.05013E+01 0.00000E+00
 -1      3231 5.95350E+01 1.18003E+01 0.00000E+00
 -1      3232 6.47850E+01 1.05013E+01 0.00000E+00
 -1      3233 6.32850E+01 1.05013E+01 0.00000E+00
 -1      3234 6.25350E+01 1.18003E+01 0.00000E+00
 -1      3235 6.77850E+01 1.05013E+01 0.00000E+00
 -1      3236 6.62850E+01 1.05013E+01 0.00000E+00
 -1      3237 6.55350E+01 1.18003E+01 0.00000E+00
 -1      3238 7.07850E+01 1.05013E+01 0.00000E+00
 -1      3239 6.92850E+01 1.05013E+01 0.00000E+00
 -1      3240 6.85350E+01 1.18003E+01 0.00000E+00
 -1      3241 7.37850E+01 1.05013E+01 0.00000E+00
 -1      3242 7.22850E+01 1.05013E+01 0.00000E+00
 -1      3243 7.15350E+01 1.18003E+01 0.00000E+00
 -1      3244 7.67850E+01 1.05013E+01 0.00000E+00
 -1      3245 7.52850E+01 1.05013E+01 0.00000E+00
 -1      3246 7.45350E+01 1.18003E+01 0.00000E+00
 -1      3247 7.97850E+01 1.05013E+01 0.00000E+00
 -1      3248 7.82850E+01 1.05013E+01 0.00000E+00
 -1      3249 7.75350E+01 1.18003E+01 0.00000E+00
 -1      3250 8.27850E+01 1.05013E+01 0.00000E+00
 -1      3251 8.12850E+01 1.05013E+01 0.00000E+00
 -1      3252 8.05350E+01 1.18003E+01 0.00000E+00
 -1      3253 8.57850E+01 1.05013E+01 0.00000E+00
 -1      3254 8.42850E+01 1.05013E+01 0.00000E+00
 -1      3255 8.35350E+01 1.18003E+01 0.00000E+00
 -1      3256 8.87850E+01 1.05013E+01 0.00000E+00
 -1      3257 8.72850E+01 1.05013E+01 0.00000E+00
 -1      3258 8.65350E+01 1.18003E+01 0.00000E+00
 -1      3259 9.17850E+01 1.05013E+01 0.00000E+00
 -1      3260 9.02850E+01 1.05013E+01 0.00000E+00
 -1      3261 8.95350E+01 1.18003E+01 0.00000E+00
 -1      3262 9.47850E+01 1.05013E+01 0.00000E+00
 -1      3263 9.32850E+01 1.05013E+01 0.00000E+00
 -1      3264 9.25350E+01 1.18003E+01 0.00000E+00
 -1      3265 9.77850E+01 1.05013E+01 0.00000E+00
 -1      3266 9.62850E+01 1.05013E+01 0.00000E+00
 -1      3267 9.55350E+01 1.18003E+01 0.00000E+00
 -1      3268 1.00785E+02 1.05013E+01 0.00000E+00
 -1      3269 9.92850E+01 1.05013E+01 0.00000E+00
 -1      3270 9.85350E+01 1.18003E+01 0.00000E+00
 -1      3271 1.03785E+02 1.05013E+01 0.00000E+00
 -1      3272 1.02285E+02 1.05013E+01 0.00000E+00
 -1      3273 1.01535E+02 1.18003E+01 0.00000E+00
 -1      3274 1.06785E+02 1.05013E+01 0.00000E+00
 -1      3275 1.05285E+02 1.05013E+01 0.00000E+00
 -1      3276 1.04535E+02 1.18003E+01 0.00000E+00
 -1      3277 1.09785E+02 1.05013E+01 0.00000E+00
 -1      3278 1.08285E+02 1.05013E+01 0.00000E+00
 -1      3279 1.07535E+02 1.18003E+01 0.00000E+00
 -1      3280 1.12785E+02 1.05013E+01 0.00000E+00
 -1      3281 1.11285E+02 1.05013E+01 0.00000E+00
 -1      3282 1.10535E+02 1.18003E+01 0.00000E+00
 -1      3283 1.15785E+02 1.05013E+01 0.00000E+00
 -1      3284 1.14285E+02 1.05013E+01 0.00000E+00
 -1      3285 1.13535E+02 1.18003E+01 0.00000E+00
 -1      3286 1.18785E+02 1.05013E+01 0.00000E+00
 -1      3287 1.17285E+02 1.05013E+01 0.00000E+00
 -1      3288 1.16535E+02 1.18003E+01 0.00000E+00
 -1      3289 1.21785E+02 1.05013E+01 0.00000E+00
 -1      3290 1.20285E+02 1.05013E+01 0.00000E+00
 -1      3291 1.19535E+02 1.18003E+01 0.00000E+00
 -1      3292 1.24785E+02 1.05013E+01 0.00000E+00
 -1      3293 1.23285E+02 1.05013E+01 0.00000E+00
 -1      3294 1.22535E+02 1.18003E+01 0.00000E+00
 -1      3295 1.27785E+02 1.05013E+01 0.00000E+00
 -1      3296 1.26285E+02 1.05013E+01 0.00000E+00
 -1      3297 1.25535E+02 1.18003E+01 0.00000E+00
 -1      3298 1.30785E+02 1.05013E+01 0.00000E+00
 -1      3299 1.29285E+02 1.05013E+01 0.00000E+00
 -1      3300 1.28535E+02 1.18003E+01 0.00000E+00
 -1      3301 1.33785E+02 1.05013E+01 0.00000E+00
 -1      3302 1.32285E+02 1.05013E+01 0.00000E+00
 -1      3303 1.31535E+02 1.18003E+01 0.00000E+00
 -1      3304 1.36785E+02 1.05013E+01 0.00000E+00
 -1      3305 1.35285E+02 1.05013E+01 0.00000E+00
 -1      3306 1.34535E+02 1.18003E+01 0.00000E+00
 -1      3307 1.38879E+02 1.08930E+01 0.00000E+00
 -1      3308 1.37711E+02 1.06123E+01 0.00000E+00
 -1      3309 1.36961E+02 1.19113E+01 0.00000E+00
 -1      3310 1.38813E+02 1.21333E+01 0.00000E+00
 -1      3311 1.16910E+01 2.12875E+01 0.00000E+00
 -1      3312 1.16910E+01 2.27625E+01 0.00000E+00
 -1      3313 1.97850E+01 1.05013E+01 0.00000E+00
 -1      3314 1.82850E+01 1.05013E+01 0.00000E+00
 -1      3315 1.38309E+02 2.57500E+01 0.00000E+00
 -1      3316 1.38309E+02 2.42750E+01 0.00000E+00
 -1      3317 1.37010E+02 2.64750E+01 0.00000E+00
 -1      3318 1.38309E+02 3.45625E+01 0.00000E+00
 -1      3319 1.38309E+02 3.30875E+01 0.00000E+00
 -1      3320 1.38309E+02 3.16187E+01 0.00000E+00
 -1      3321 1.38309E+02 3.01437E+01 0.00000E+00
 -1      3322 1.37010E+02 2.94188E+01 0.00000E+00
 -1      3323 1.37010E+02 3.23563E+01 0.00000E+00
 -1      3324 9.14137E+00 3.71183E+01 0.00000E+00
 -1      3325 9.17362E+00 3.83534E+01 0.00000E+00
 -1      3326 1.05371E+01 3.86174E+01 0.00000E+00
 -1      3327 1.04404E+01 3.63808E+01 0.00000E+00
 -1      3328 3.77850E+01 1.05013E+01 0.00000E+00
 -1      3329 3.62850E+01 1.05013E+01 0.00000E+00
 -1      3330 3.55350E+01 1.18003E+01 0.00000E+00
 -1      3331 3.85350E+01 1.18003E+01 0.00000E+00
 -1      3332 5.32490E+01 1.53985E+01 0.00000E+00
 -1      3333 5.44458E+01 1.48009E+01 0.00000E+00
 -1      3334 6.68226E+01 3.85024E+01 0.00000E+00
 -1      3335 6.83226E+01 3.85024E+01 0.00000E+00
 -1      3336 6.90726E+01 3.72034E+01 0.00000E+00
 -1      3337 6.59177E+01 3.75901E+01 0.00000E+00
 -1      3338 6.84914E+01 2.65101E+01 0.00000E+00
 -1      3339 6.87631E+01 2.78038E+01 0.00000E+00
 -1      3340 4.13181E+01 2.89695E+01 0.00000E+00
 -1      3341 4.12859E+01 2.75618E+01 0.00000E+00
 -1      3342 1.59000E+01 3.83090E+01 0.00000E+00
 -1      3343 1.74000E+01 3.83090E+01 0.00000E+00
 -1      3344 1.81500E+01 3.70100E+01 0.00000E+00
 -1      3345 4.23715E+01 3.48221E+01 0.00000E+00
 -1      3346 4.18990E+01 3.35783E+01 0.00000E+00
 -1      3347 5.07679E+01 1.59118E+01 0.00000E+00
 -1      3348 5.20306E+01 1.57085E+01 0.00000E+00
 -1      3349 5.21710E+01 1.44925E+01 0.00000E+00
 -1      3350 4.97341E+01 1.51124E+01 0.00000E+00
 -1      3351 5.67686E+01 1.36098E+01 0.00000E+00
 -1      3352 5.82621E+01 1.39041E+01 0.00000E+00
 -1      3353 6.89511E+01 2.93568E+01 0.00000E+00
 -1      3354 6.88561E+01 3.06820E+01 0.00000E+00
 -1      3355 1.26488E+01 1.02017E+01 0.00000E+00
 -1      3356 1.20772E+01 1.14631E+01 0.00000E+00
 -1      3357 1.33763E+01 1.22006E+01 0.00000E+00
 -1      3358 1.41488E+01 1.02017E+01 0.00000E+00
 -1      3359 4.41264E+01 3.71472E+01 0.00000E+00
 -1      3360 4.33166E+01 3.61432E+01 0.00000E+00
 -1      3361 6.83347E+01 3.23217E+01 0.00000E+00
 -1      3362 6.76581E+01 3.34288E+01 0.00000E+00
 -1      3363 6.82727E+01 2.38325E+01 0.00000E+00
 -1      3364 6.83938E+01 2.52504E+01 0.00000E+00
 -1      3365 6.68222E+01 2.06275E+01 0.00000E+00
 -1      3366 6.77579E+01 2.18654E+01 0.00000E+00
 -1      3367 6.54957E+01 1.87533E+01 0.00000E+00
 -1      3368 6.61589E+01 1.96904E+01 0.00000E+00
 -1      3369 6.75783E+01 1.95902E+01 0.00000E+00
 -1      3370 2.27850E+01 1.05013E+01 0.00000E+00
 -1      3371 2.12850E+01 1.05013E+01 0.00000E+00
 -1      3372 2.05350E+01 1.18003E+01 0.00000E+00
 -1      3373 1.16910E+01 2.42375E+01 0.00000E+00
 -1      3374 1.16910E+01 2.57125E+01 0.00000E+00
 -1      3375 1.29900E+01 2.35000E+01 0.00000E+00
 -1      3376 4.52070E+01 3.83331E+01 0.00000E+00
 -1      3377 4.40694E+01 3.84221E+01 0.00000E+00
 -1      3378 6.96545E+01 2.85337E+01 0.00000E+00
 -1      3379 4.11121E+01 3.30381E+01 0.00000E+00
 -1      3380 1.16910E+01 1.54063E+01 0.00000E+00
 -1      3381 1.16910E+01 1.68750E+01 0.00000E+00
 -1      3382 1.29900E+01 1.46687E+01 0.00000E+00
 -1      3383 4.67070E+01 3.86070E+01 0.00000E+00
 -1      3384 4.18194E+01 3.71231E+01 0.00000E+00
 -1      3385 4.25694E+01 3.84221E+01 0.00000E+00
 -1      3386 4.73979E+01 1.68689E+01 0.00000E+00
 -1      3387 4.76607E+01 1.55888E+01 0.00000E+00
 -1      3388 4.65429E+01 1.70354E+01 0.00000E+00
 -1      3389 5.97621E+01 1.39041E+01 0.00000E+00
 -1      3390 1.38309E+02 1.69188E+01 0.00000E+00
 -1      3391 1.38309E+02 1.54563E+01 0.00000E+00
 -1      3392 1.36178E+01 3.83729E+01 0.00000E+00
 -1      3393 1.47589E+01 3.83409E+01 0.00000E+00
 -1      3394 1.55089E+01 3.70419E+01 0.00000E+00
 -1      3395 1.16783E+01 3.85855E+01 0.00000E+00
 -1      3396 2.95350E+01 1.18003E+01 0.00000E+00
 -1      3397 2.87850E+01 1.05013E+01 0.00000E+00
 -1      3398 2.72850E+01 1.05013E+01 0.00000E+00
 -1      3399 1.16910E+01 1.98188E+01 0.00000E+00
 -1      3400 1.29900E+01 2.05562E+01 0.00000E+00
 -1      3401 1.16910E+01 1.83500E+01 0.00000E+00
 -1      3402 1.38309E+02 1.98687E+01 0.00000E+00
 -1      3403 1.38309E+02 1.83937E+01 0.00000E+00
 -1      3404 1.37010E+02 1.76625E+01 0.00000E+00
 -1      3405 1.38879E+02 3.74540E+01 0.00000E+00
 -1      3406 1.38129E+02 3.61550E+01 0.00000E+00
 -1      3407 1.36830E+02 3.54175E+01 0.00000E+00
 -1      3408 1.38309E+02 2.28094E+01 0.00000E+00
 -1      3409 1.38309E+02 2.13344E+01 0.00000E+00
 -1      3410 1.37010E+02 2.06031E+01 0.00000E+00
 -1      3411 1.37010E+02 2.35344E+01 0.00000E+00
 -1      3412 6.93688E+01 2.57211E+01 0.00000E+00
 -1      3413 4.22869E+01 2.17382E+01 0.00000E+00
 -1      3414 4.34259E+01 2.15958E+01 0.00000E+00
 -1      3415 4.33456E+01 2.06986E+01 0.00000E+00
 -1      3416 4.53823E+01 1.94358E+01 0.00000E+00
 -1      3417 4.54068E+01 1.84640E+01 0.00000E+00
 -1      3418 4.45090E+01 1.95843E+01 0.00000E+00
 -1      3419 6.64618E+01 3.65171E+01 0.00000E+00
 -1      3420 4.05080E+01 2.68238E+01 0.00000E+00
 -1      3421 4.07432E+01 2.98847E+01 0.00000E+00
 -1      3422 3.97860E+01 2.92025E+01 0.00000E+00
 -1      3423 4.01684E+01 3.08000E+01 0.00000E+00
 -1      3424 2.57850E+01 1.05013E+01 0.00000E+00
 -1      3425 2.42850E+01 1.05013E+01 0.00000E+00
 -1      3426 2.35350E+01 1.18003E+01 0.00000E+00
 -1      3427 2.65350E+01 1.18003E+01 0.00000E+00
 -1      3428 6.51873E+01 1.76101E+01 0.00000E+00
 -1      3429 6.66066E+01 1.75099E+01 0.00000E+00
 -1      3430 6.48790E+01 1.64670E+01 0.00000E+00
 -1      3431 6.87563E+01 2.24943E+01 0.00000E+00
 -1      3432 6.97548E+01 2.31232E+01 0.00000E+00
 -1      3433 6.92400E+01 2.11562E+01 0.00000E+00
 -1      3434 4.15112E+01 2.39979E+01 0.00000E+00
 -1      3435 4.14413E+01 2.31762E+01 0.00000E+00
 -1      3436 4.05853E+01 2.45387E+01 0.00000E+00
 -1      3437 1.69669E+01 1.03515E+01 0.00000E+00
 -1      3438 1.54669E+01 1.03515E+01 0.00000E+00
 -1      3439 1.50806E+01 1.13509E+01 0.00000E+00
 -1      3440 1.77169E+01 1.16505E+01 0.00000E+00
 -1      3441 4.20437E+01 3.59151E+01 0.00000E+00
 -1      3442 6.16765E+01 1.58413E+01 0.00000E+00
 -1      3443 6.27874E+01 1.57025E+01 0.00000E+00
 -1      3444 7.03075E+01 3.11311E+01 0.00000E+00
 -1      3445 6.93211E+01 3.17264E+01 0.00000E+00
 -1      3446 6.97861E+01 3.27708E+01 0.00000E+00
 -1      3447 6.03022E+01 1.54229E+01 0.00000E+00
 -1      3448 1.16910E+01 3.01219E+01 0.00000E+00
 -1      3449 1.16910E+01 3.15906E+01 0.00000E+00
 -1      3450 6.73320E+01 3.44365E+01 0.00000E+00
 -1      3451 6.67879E+01 3.55095E+01 0.00000E+00
 -1      3452 6.78213E+01 3.63891E+01 0.00000E+00
 -1      3453 6.84735E+01 3.43737E+01 0.00000E+00
 -1      3454 1.29900E+01 3.23250E+01 0.00000E+00
 -1      3455 1.16910E+01 3.30594E+01 0.00000E+00
 -1      3456 1.16910E+01 3.45281E+01 0.00000E+00
 -1      3457 6.15751E+01 1.33190E+01 0.00000E+00
 -1      3458 7.07446E+01 2.76139E+01 0.00000E+00
 -1      3459 7.09326E+01 2.91669E+01 0.00000E+00
 -1      3460 4.77036E+01 3.91949E+01 0.00000E+00
 -1      3461 4.08743E+01 3.58020E+01 0.00000E+00
 -1      3462 2.34000E+01 3.57110E+01 0.00000E+00
 -1      3463 2.49000E+01 3.57110E+01 0.00000E+00
 -1      3464 2.64000E+01 3.57110E+01 0.00000E+00
 -1      3465 2.79000E+01 3.57110E+01 0.00000E+00
 -1      3466 2.56500E+01 3.44120E+01 0.00000E+00
 -1      3467 2.94000E+01 3.57110E+01 0.00000E+00
 -1      3468 3.09000E+01 3.57110E+01 0.00000E+00
 -1      3469 2.86500E+01 3.44120E+01 0.00000E+00
 -1      3470 3.24000E+01 3.57110E+01 0.00000E+00
 -1      3471 3.39000E+01 3.57110E+01 0.00000E+00
 -1      3472 3.16500E+01 3.44120E+01 0.00000E+00
 -1      3473 3.54000E+01 3.57110E+01 0.00000E+00
 -1      3474 3.69000E+01 3.57110E+01 0.00000E+00
 -1      3475 3.46500E+01 3.44120E+01 0.00000E+00
 -1      3476 3.81372E+01 3.57565E+01 0.00000E+00
 -1      3477 3.96372E+01 3.57565E+01 0.00000E+00
 -1      3478 3.98615E+01 3.45485E+01 0.00000E+00
 -1      3479 3.73872E+01 3.44575E+01 0.00000E+00
 -1      3480 7.14000E+01 3.57110E+01 0.00000E+00
 -1      3481 7.29000E+01 3.57110E+01 0.00000E+00
 -1      3482 7.44000E+01 3.57110E+01 0.00000E+00
 -1      3483 7.59000E+01 3.57110E+01 0.00000E+00
 -1      3484 7.36500E+01 3.44120E+01 0.00000E+00
 -1      3485 7.74000E+01 3.57110E+01 0.00000E+00
 -1      3486 7.89000E+01 3.57110E+01 0.00000E+00
 -1      3487 7.66500E+01 3.44120E+01 0.00000E+00
 -1      3488 8.04000E+01 3.57110E+01 0.00000E+00
 -1      3489 8.19000E+01 3.57110E+01 0.00000E+00
 -1      3490 7.96500E+01 3.44120E+01 0.00000E+00
 -1      3491 8.34000E+01 3.57110E+01 0.00000E+00
 -1      3492 8.49000E+01 3.57110E+01 0.00000E+00
 -1      3493 8.26500E+01 3.44120E+01 0.00000E+00
 -1      3494 8.64000E+01 3.57110E+01 0.00000E+00
 -1      3495 8.79000E+01 3.57110E+01 0.00000E+00
 -1      3496 8.56500E+01 3.44120E+01 0.00000E+00
 -1      3497 8.94000E+01 3.57110E+01 0.00000E+00
 -1      3498 9.09000E+01 3.57110E+01 0.00000E+00
 -1      3499 8.86500E+01 3.44120E+01 0.00000E+00
 -1      3500 9.24000E+01 3.57110E+01 0.00000E+00
 -1      3501 9.39000E+01 3.57110E+01 0.00000E+00
 -1      3502 9.16500E+01 3.44120E+01 0.00000E+00
 -1      3503 9.54000E+01 3.57110E+01 0.00000E+00
 -1      3504 9.69000E+01 3.57110E+01 0.00000E+00
 -1      3505 9.46500E+01 3.44120E+01 0.00000E+00
 -1      3506 9.84000E+01 3.57110E+01 0.00000E+00
 -1      3507 9.99000E+01 3.57110E+01 0.00000E+00
 -1      3508 9.76500E+01 3.44120E+01 0.00000E+00
 -1      3509 1.01400E+02 3.57110E+01 0.00000E+00
 -1      3510 1.02900E+02 3.57110E+01 0.00000E+00
 -1      3511 1.00650E+02 3.44120E+01 0.00000E+00
 -1      3512 1.04400E+02 3.57110E+01 0.00000E+00
 -1      3513 1.05900E+02 3.57110E+01 0.00000E+00
 -1      3514 1.03650E+02 3.44120E+01 0.00000E+00
 -1      3515 1.07400E+02 3.57110E+01 0.00000E+00
 -1      3516 1.08900E+02 3.57110E+01 0.00000E+00
 -1      3517 1.06650E+02 3.44120E+01 0.00000E+00
 -1      3518 1.10400E+02 3.57110E+01 0.00000E+00
 -1      3519 1.11900E+02 3.57110E+01 0.00000E+00
 -1      3520 1.09650E+02 3.44120E+01 0.00000E+00
 -1      3521 1.13400E+02 3.57110E+01 0.00000E+00
 -1      3522 1.14900E+02 3.57110E+01 0.00000E+00
 -1      3523 1.12650E+02 3.44120E+01 0.00000E+00
 -1      3524 1.16400E+02 3.57110E+01 0.00000E+00
 -1      3525 1.17900E+02 3.57110E+01 0.00000E+00
 -1      3526 1.15650E+02 3.44120E+01 0.00000E+00
 -1      3527 1.19400E+02 3.57110E+01 0.00000E+00
 -1      3528 1.20900E+02 3.57110E+01 0.00000E+00
 -1      3529 1.18650E+02 3.44120E+01 0.00000E+00
 -1      3530 1.22400E+02 3.57110E+01 0.00000E+00
 -1      3531 1.23900E+02 3.57110E+01 0.00000E+00
 -1      3532 1.21650E+02 3.44120E+01 0.00000E+00
 -1      3533 1.25400E+02 3.57110E+01 0.00000E+00
 -1      3534 1.26900E+02 3.57110E+01 0.00000E+00
 -1      3535 1.24650E+02 3.44120E+01 0.00000E+00
 -1      3536 1.28400E+02 3.57110E+01 0.00000E+00
 -1      3537 1.29900E+02 3.57110E+01 0.00000E+00
 -1      3538 1.27650E+02 3.44120E+01 0.00000E+00
 -1      3539 1.31400E+02 3.57110E+01 0.00000E+00
 -1      3540 1.32900E+02 3.57110E+01 0.00000E+00
 -1      3541 1.30650E+02 3.44120E+01 0.00000E+00
 -1      3542 1.34115E+02 3.55643E+01 0.00000E+00
 -1      3543 1.35615E+02 3.55643E+01 0.00000E+00
 -1      3544 1.35795E+02 3.39717E+01 0.00000E+00
 -1      3545 1.33365E+02 3.42653E+01 0.00000E+00
 -1      3546 5.44354E+01 1.36071E+01 0.00000E+00
 -1      3547 5.54918E+01 1.42254E+01 0.00000E+00
 -1      3548 4.52850E+01 1.30992E+01 0.00000E+00
 -1      3549 4.37850E+01 1.30992E+01 0.00000E+00
 -1      3550 4.22850E+01 1.30992E+01 0.00000E+00
 -1      3551 4.07850E+01 1.30992E+01 0.00000E+00
 -1      3552 4.30350E+01 1.43982E+01 0.00000E+00
 -1      3553 5.14938E+01 1.33014E+01 0.00000E+00
 -1      3554 4.99938E+01 1.33014E+01 0.00000E+00
 -1      3555 6.30751E+01 1.33190E+01 0.00000E+00
 -1      3556 6.66666E+01 1.40835E+01 0.00000E+00
 -1      3557 6.51666E+01 1.40835E+01 0.00000E+00
 -1      3558 7.22850E+01 1.30992E+01 0.00000E+00
 -1      3559 7.07850E+01 1.30992E+01 0.00000E+00
 -1      3560 7.52850E+01 1.30992E+01 0.00000E+00
 -1      3561 7.37850E+01 1.30992E+01 0.00000E+00
 -1      3562 7.30350E+01 1.43982E+01 0.00000E+00
 -1      3563 7.82850E+01 1.30992E+01 0.00000E+00
 -1      3564 7.67850E+01 1.30992E+01 0.00000E+00
 -1      3565 7.60350E+01 1.43982E+01 0.00000E+00
 -1      3566 8.12850E+01 1.30992E+01 0.00000E+00
 -1      3567 7.97850E+01 1.30992E+01 0.00000E+00
 -1      3568 7.90350E+01 1.43982E+01 0.00000E+00
 -1      3569 8.42850E+01 1.30992E+01 0.00000E+00
 -1      3570 8.27850E+01 1.30992E+01 0.00000E+00
 -1      3571 8.20350E+01 1.43982E+01 0.00000E+00
 -1      3572 8.72850E+01 1.30992E+01 0.00000E+00
 -1      3573 8.57850E+01 1.30992E+01 0.00000E+00
 -1      3574 8.50350E+01 1.43982E+01 0.00000E+00
 -1      3575 9.02850E+01 1.30992E+01 0.00000E+00
 -1      3576 8.87850E+01 1.30992E+01 0.00000E+00
 -1      3577 8.80350E+01 1.43982E+01 0.00000E+00
 -1      3578 9.32850E+01 1.30992E+01 0.00000E+00
 -1      3579 9.17850E+01 1.30992E+01 0.00000E+00
 -1      3580 9.10350E+01 1.43982E+01 0.00000E+00
 -1      3581 9.62850E+01 1.30992E+01 0.00000E+00
 -1      3582 9.47850E+01 1.30992E+01 0.00000E+00
 -1      3583 9.40350E+01 1.43982E+01 0.00000E+00
 -1      3584 9.92850E+01 1.30992E+01 0.00000E+00
 -1      3585 9.77850E+01 1.30992E+01 0.00000E+00
 -1      3586 9.70350E+01 1.43982E+01 0.00000E+00
 -1      3587 1.02285E+02 1.30992E+01 0.00000E+00
 -1      3588 1.00785E+02 1.30992E+01 0.00000E+00
 -1      3589 1.00035E+02 1.43982E+01 0.00000E+00
 -1      3590 1.05285E+02 1.30992E+01 0.00000E+00
 -1      3591 1.03785E+02 1.30992E+01 0.00000E+00
 -1      3592 1.03035E+02 1.43982E+01 0.00000E+00
 -1      3593 1.08285E+02 1.30992E+01 0.00000E+00
 -1      3594 1.06785E+02 1.30992E+01 0.00000E+00
 -1      3595 1.06035E+02 1.43982E+01 0.00000E+00
 -1      3596 1.11285E+02 1.30992E+01 0.00000E+00
 -1      3597 1.09785E+02 1.30992E+01 0.00000E+00
 -1      3598 1.09035E+02 1.43982E+01 0.00000E+00
 -1      3599 1.14285E+02 1.30992E+01 0.00000E+00
 -1      3600 1.12785E+02 1.30992E+01 0.00000E+00
 -1      3601 1.12035E+02 1.43982E+01 0.00000E+00
 -1      3602 1.17285E+02 1.30992E+01 0.00000E+00
 -1      3603 1.15785E+02 1.30992E+01 0.00000E+00
 -1      3604 1.15035E+02 1.43982E+01 0.00000E+00
 -1      3605 1.20285E+02 1.30992E+01 0.00000E+00
 -1      3606 1.18785E+02 1.30992E+01 0.00000E+00
 -1      3607 1.18035E+02 1.43982E+01 0.00000E+00
 -1      3608 1.23285E+02 1.30992E+01 0.00000E+00
 -1      3609 1.21785E+02 1.30992E+01 0.00000E+00
 -1      3610 1.21035E+02 1.43982E+01 0.00000E+00
 -1      3611 1.26285E+02 1.30992E+01 0.00000E+00
 -1      3612 1.24785E+02 1.30992E+01 0.00000E+00
 -1      3613 1.24035E+02 1.43982E+01 0.00000E+00
 -1      3614 1.29285E+02 1.30992E+01 0.00000E+00
 -1      3615 1.27785E+02 1.30992E+01 0.00000E+00
 -1      3616 1.27035E+02 1.43982E+01 0.00000E+00
 -1      3617 1.32285E+02 1.30992E+01 0.00000E+00
 -1      3618 1.30785E+02 1.30992E+01 0.00000E+00
 -1      3619 1.30035E+02 1.43982E+01 0.00000E+00
 -1      3620 1.35285E+02 1.30992E+01 0.00000E+00
 -1      3621 1.33785E+02 1.30992E+01 0.00000E+00
 -1      3622 1.33035E+02 1.43982E+01 0.00000E+00
 -1      3623 1.38528E+02 1.44149E+01 0.00000E+00
 -1      3624 1.38594E+02 1.31746E+01 0.00000E+00
 -1      3625 1.37668E+02 1.30636E+01 0.00000E+00
 -1      3626 1.37229E+02 1.51462E+01 0.00000E+00
 -1      3627 7.05492E+01 2.50945E+01 0.00000E+00
 -1      3628 7.06469E+01 2.63542E+01 0.00000E+00
 -1      3629 7.19249E+01 2.69873E+01 0.00000E+00
 -1      3630 2.12850E+01 1.30992E+01 0.00000E+00
 -1      3631 1.97850E+01 1.30992E+01 0.00000E+00
 -1      3632 1.24283E+01 3.72865E+01 0.00000E+00
 -1      3633 6.93987E+01 3.61957E+01 0.00000E+00
 -1      3634 1.16910E+01 2.71844E+01 0.00000E+00
 -1      3635 1.16910E+01 2.86531E+01 0.00000E+00
 -1      3636 1.29900E+01 2.93875E+01 0.00000E+00
 -1      3637 3.94978E+01 2.74613E+01 0.00000E+00
 -1      3638 3.96450E+01 2.59979E+01 0.00000E+00
 -1      3639 1.74000E+01 3.57110E+01 0.00000E+00
 -1      3640 1.89000E+01 3.57110E+01 0.00000E+00
 -1      3641 1.35711E+02 2.72125E+01 0.00000E+00
 -1      3642 1.35711E+02 2.57375E+01 0.00000E+00
 -1      3643 4.87753E+01 1.36113E+01 0.00000E+00
 -1      3644 4.72753E+01 1.36113E+01 0.00000E+00
 -1      3645 4.00082E+01 3.34522E+01 0.00000E+00
 -1      3646 4.00217E+01 3.18963E+01 0.00000E+00
 -1      3647 3.90644E+01 3.12140E+01 0.00000E+00
 -1      3648 3.87710E+01 3.34067E+01 0.00000E+00
 -1      3649 3.32850E+01 1.30992E+01 0.00000E+00
 -1      3650 3.17850E+01 1.30992E+01 0.00000E+00
 -1      3651 2.04000E+01 3.57110E+01 0.00000E+00
 -1      3652 2.19000E+01 3.57110E+01 0.00000E+00
 -1      3653 2.26500E+01 3.44120E+01 0.00000E+00
 -1      3654 6.82202E+01 1.84326E+01 0.00000E+00
 -1      3655 6.88834E+01 1.93697E+01 0.00000E+00
 -1      3656 3.92850E+01 1.30992E+01 0.00000E+00
 -1      3657 3.77850E+01 1.30992E+01 0.00000E+00
 -1      3658 4.00350E+01 1.43982E+01 0.00000E+00
 -1      3659 1.42890E+01 1.39344E+01 0.00000E+00
 -1      3660 1.42890E+01 1.54031E+01 0.00000E+00
 -1      3661 3.10350E+01 1.43982E+01 0.00000E+00
 -1      3662 3.02850E+01 1.30992E+01 0.00000E+00
 -1      3663 2.87850E+01 1.30992E+01 0.00000E+00
 -1      3664 1.34580E+02 3.26497E+01 0.00000E+00
 -1      3665 1.35795E+02 3.25030E+01 0.00000E+00
 -1      3666 1.35795E+02 3.10343E+01 0.00000E+00
 -1      3667 7.01487E+01 3.48967E+01 0.00000E+00
 -1      3668 1.51178E+01 3.57749E+01 0.00000E+00
 -1      3669 1.62589E+01 3.57429E+01 0.00000E+00
 -1      3670 1.70089E+01 3.44439E+01 0.00000E+00
 -1      3671 1.42890E+01 3.15906E+01 0.00000E+00
 -1      3672 1.42890E+01 3.30594E+01 0.00000E+00
 -1      3673 1.23799E+01 3.61682E+01 0.00000E+00
 -1      3674 6.79118E+01 1.72895E+01 0.00000E+00
 -1      3675 1.29900E+01 1.76125E+01 0.00000E+00
 -1      3676 5.27122E+01 1.29914E+01 0.00000E+00
 -1      3677 5.42122E+01 1.29914E+01 0.00000E+00
 -1      3678 6.84076E+01 1.34032E+01 0.00000E+00
 -1      3679 6.80392E+01 1.56865E+01 0.00000E+00
 -1      3680 6.96527E+01 1.66092E+01 0.00000E+00
 -1      3681 6.99076E+01 1.34032E+01 0.00000E+00
 -1      3682 7.06576E+01 1.47022E+01 0.00000E+00
 -1      3683 1.35773E+02 1.52929E+01 0.00000E+00
 -1      3684 1.35992E+02 1.42516E+01 0.00000E+00
 -1      3685 1.36742E+02 1.29526E+01 0.00000E+00
 -1      3686 7.10328E+01 2.37564E+01 0.00000E+00
 -1      3687 7.23109E+01 2.43895E+01 0.00000E+00
 -1      3688 7.15165E+01 2.24182E+01 0.00000E+00
 -1      3689 1.29900E+01 2.64469E+01 0.00000E+00
 -1      3690 1.35711E+02 2.42719E+01 0.00000E+00
 -1      3691 1.35711E+02 2.28062E+01 0.00000E+00
 -1      3692 1.34412E+02 2.50094E+01 0.00000E+00
 -1      3693 5.67582E+01 1.24159E+01 0.00000E+00
 -1      3694 2.27850E+01 1.30992E+01 0.00000E+00
 -1      3695 2.20350E+01 1.43982E+01 0.00000E+00
 -1      3696 2.42850E+01 1.30992E+01 0.00000E+00
 -1      3697 1.42890E+01 1.98219E+01 0.00000E+00
 -1      3698 1.42890E+01 2.12906E+01 0.00000E+00
 -1      3699 1.35753E+02 2.98577E+01 0.00000E+00
 -1      3700 1.35753E+02 2.83890E+01 0.00000E+00
 -1      3701 1.34454E+02 2.76515E+01 0.00000E+00
 -1      3702 1.34538E+02 3.00045E+01 0.00000E+00
 -1      3703 4.13610E+01 2.22790E+01 0.00000E+00
 -1      3704 4.12807E+01 2.13817E+01 0.00000E+00
 -1      3705 4.04351E+01 2.28197E+01 0.00000E+00
 -1      3706 4.33700E+01 1.97267E+01 0.00000E+00
 -1      3707 4.33944E+01 1.87549E+01 0.00000E+00
 -1      3708 4.22310E+01 1.98691E+01 0.00000E+00
 -1      3709 7.24876E+01 2.92914E+01 0.00000E+00
 -1      3710 7.13975E+01 3.02112E+01 0.00000E+00
 -1      3711 7.18625E+01 3.12556E+01 0.00000E+00
 -1      3712 7.05238E+01 1.88410E+01 0.00000E+00
 -1      3713 6.98819E+01 1.99986E+01 0.00000E+00
 -1      3714 7.08803E+01 2.06275E+01 0.00000E+00
 -1      3715 3.47850E+01 1.30992E+01 0.00000E+00
 -1      3716 3.40350E+01 1.43982E+01 0.00000E+00
 -1      3717 3.62850E+01 1.30992E+01 0.00000E+00
 -1      3718 3.89230E+01 2.83765E+01 0.00000E+00
 -1      3719 3.80599E+01 2.75506E+01 0.00000E+00
 -1      3720 3.83481E+01 2.92918E+01 0.00000E+00
 -1      3721 1.96500E+01 3.44120E+01 0.00000E+00
 -1      3722 3.95751E+01 2.51762E+01 0.00000E+00
 -1      3723 3.95051E+01 2.43545E+01 0.00000E+00
 -1      3724 3.85649E+01 2.58137E+01 0.00000E+00
 -1      3725 1.84669E+01 1.29495E+01 0.00000E+00
 -1      3726 1.71488E+01 1.27997E+01 0.00000E+00
 -1      3727 1.92169E+01 1.42485E+01 0.00000E+00
 -1      3728 1.42890E+01 3.01219E+01 0.00000E+00
 -1      3729 1.55880E+01 3.08563E+01 0.00000E+00
 -1      3730 1.42890E+01 2.86531E+01 0.00000E+00
 -1      3731 1.35630E+02 1.67929E+01 0.00000E+00
 -1      3732 1.34393E+02 1.58983E+01 0.00000E+00
 -1      3733 1.55880E+01 2.20313E+01 0.00000E+00
 -1      3734 1.42890E+01 2.27656E+01 0.00000E+00
 -1      3735 1.42890E+01 2.42406E+01 0.00000E+00
 -1      3736 6.32607E+01 1.46410E+01 0.00000E+00
 -1      3737 6.39329E+01 1.55057E+01 0.00000E+00
 -1      3738 4.65253E+01 1.49103E+01 0.00000E+00
 -1      3739 1.35630E+02 1.82679E+01 0.00000E+00
 -1      3740 4.52432E+01 1.74356E+01 0.00000E+00
 -1      3741 4.55060E+01 1.61555E+01 0.00000E+00
 -1      3742 2.49000E+01 3.31130E+01 0.00000E+00
 -1      3743 2.64000E+01 3.31130E+01 0.00000E+00
 -1      3744 1.46944E+01 1.23503E+01 0.00000E+00
 -1      3745 1.59934E+01 1.30847E+01 0.00000E+00
 -1      3746 2.79000E+01 3.31130E+01 0.00000E+00
 -1      3747 2.94000E+01 3.31130E+01 0.00000E+00
 -1      3748 2.71500E+01 3.18140E+01 0.00000E+00
 -1      3749 3.09000E+01 3.31130E+01 0.00000E+00
 -1      3750 3.24000E+01 3.31130E+01 0.00000E+00
 -1      3751 3.01500E+01 3.18140E+01 0.00000E+00
 -1      3752 3.39000E+01 3.31130E+01 0.00000E+00
 -1      3753 3.54000E+01 3.31130E+01 0.00000E+00
 -1      3754 3.31500E+01 3.18140E+01 0.00000E+00
 -1      3755 3.64669E+01 3.32371E+01 0.00000E+00
 -1      3756 3.77041E+01 3.32826E+01 0.00000E+00
 -1      3757 3.78508E+01 3.21863E+01 0.00000E+00
 -1      3758 3.57169E+01 3.19381E+01 0.00000E+00
 -1      3759 7.29000E+01 3.31130E+01 0.00000E+00
 -1      3760 7.44000E+01 3.31130E+01 0.00000E+00
 -1      3761 7.67850E+01 1.56973E+01 0.00000E+00
 -1      3762 7.52850E+01 1.56973E+01 0.00000E+00
 -1      3763 1.36789E+01 3.54338E+01 0.00000E+00
 -1      3764 7.59000E+01 3.31130E+01 0.00000E+00
 -1      3765 7.74000E+01 3.31130E+01 0.00000E+00
 -1      3766 7.51500E+01 3.18140E+01 0.00000E+00
 -1      3767 7.89000E+01 3.31130E+01 0.00000E+00
 -1      3768 8.04000E+01 3.31130E+01 0.00000E+00
 -1      3769 7.81500E+01 3.18140E+01 0.00000E+00
 -1      3770 8.19000E+01 3.31130E+01 0.00000E+00
 -1      3771 8.34000E+01 3.31130E+01 0.00000E+00
 -1      3772 8.11500E+01 3.18140E+01 0.00000E+00
 -1      3773 8.49000E+01 3.31130E+01 0.00000E+00
 -1      3774 8.64000E+01 3.31130E+01 0.00000E+00
 -1      3775 8.41500E+01 3.18140E+01 0.00000E+00
 -1      3776 8.79000E+01 3.31130E+01 0.00000E+00
 -1      3777 8.94000E+01 3.31130E+01 0.00000E+00
 -1      3778 8.71500E+01 3.18140E+01 0.00000E+00
 -1      3779 9.09000E+01 3.31130E+01 0.00000E+00
 -1      3780 9.24000E+01 3.31130E+01 0.00000E+00
 -1      3781 9.01500E+01 3.18140E+01 0.00000E+00
 -1      3782 9.39000E+01 3.31130E+01 0.00000E+00
 -1      3783 9.54000E+01 3.31130E+01 0.00000E+00
 -1      3784 9.31500E+01 3.18140E+01 0.00000E+00
 -1      3785 9.69000E+01 3.31130E+01 0.00000E+00
 -1      3786 9.84000E+01 3.31130E+01 0.00000E+00
 -1      3787 9.61500E+01 3.18140E+01 0.00000E+00
 -1      3788 9.99000E+01 3.31130E+01 0.00000E+00
 -1      3789 1.01400E+02 3.31130E+01 0.00000E+00
 -1      3790 9.91500E+01 3.18140E+01 0.00000E+00
 -1      3791 1.02900E+02 3.31130E+01 0.00000E+00
 -1      3792 1.04400E+02 3.31130E+01 0.00000E+00
 -1      3793 1.02150E+02 3.18140E+01 0.00000E+00
 -1      3794 1.05900E+02 3.31130E+01 0.00000E+00
 -1      3795 1.07400E+02 3.31130E+01 0.00000E+00
 -1      3796 1.05150E+02 3.18140E+01 0.00000E+00
 -1      3797 1.08900E+02 3.31130E+01 0.00000E+00
 -1      3798 1.10400E+02 3.31130E+01 0.00000E+00
 -1      3799 1.08150E+02 3.18140E+01 0.00000E+00
 -1      3800 1.11900E+02 3.31130E+01 0.00000E+00
 -1      3801 1.13400E+02 3.31130E+01 0.00000E+00
 -1      3802 1.11150E+02 3.18140E+01 0.00000E+00
 -1      3803 1.14900E+02 3.31130E+01 0.00000E+00
 -1      3804 1.16400E+02 3.31130E+01 0.00000E+00
 -1      3805 1.14150E+02 3.18140E+01 0.00000E+00
 -1      3806 1.17900E+02 3.31130E+01 0.00000E+00
 -1      3807 1.19400E+02 3.31130E+01 0.00000E+00
 -1      3808 1.17150E+02 3.18140E+01 0.00000E+00
 -1      3809 1.20900E+02 3.31130E+01 0.00000E+00
 -1      3810 1.22400E+02 3.31130E+01 0.00000E+00
 -1      3811 1.20150E+02 3.18140E+01 0.00000E+00
 -1      3812 1.23900E+02 3.31130E+01 0.00000E+00
 -1      3813 1.25400E+02 3.31130E+01 0.00000E+00
 -1      3814 1.23150E+02 3.18140E+01 0.00000E+00
 -1      3815 1.26900E+02 3.31130E+01 0.00000E+00
 -1      3816 1.28400E+02 3.31130E+01 0.00000E+00
 -1      3817 1.26150E+02 3.18140E+01 0.00000E+00
 -1      3818 1.29900E+02 3.31130E+01 0.00000E+00
 -1      3819 1.31400E+02 3.31130E+01 0.00000E+00
 -1      3820 1.29150E+02 3.18140E+01 0.00000E+00
 -1      3821 1.32383E+02 3.29548E+01 0.00000E+00
 -1      3822 1.33598E+02 3.28080E+01 0.00000E+00
 -1      3823 1.33598E+02 3.13393E+01 0.00000E+00
 -1      3824 1.31633E+02 3.16558E+01 0.00000E+00
 -1      3825 1.35630E+02 1.97335E+01 0.00000E+00
 -1      3826 1.34250E+02 1.88639E+01 0.00000E+00
 -1      3827 1.35630E+02 2.11992E+01 0.00000E+00
 -1      3828 1.42890E+01 1.68750E+01 0.00000E+00
 -1      3829 1.42890E+01 1.83500E+01 0.00000E+00
 -1      3830 1.55880E+01 1.90844E+01 0.00000E+00
 -1      3831 1.55880E+01 1.61406E+01 0.00000E+00
 -1      3832 5.52582E+01 1.24159E+01 0.00000E+00
 -1      3833 7.28982E+01 2.62782E+01 0.00000E+00
 -1      3834 7.29958E+01 2.75379E+01 0.00000E+00
 -1      3835 7.17826E+01 1.53517E+01 0.00000E+00
 -1      3836 7.09052E+01 1.56557E+01 0.00000E+00
 -1      3837 7.07777E+01 1.72587E+01 0.00000E+00
 -1      3838 7.32826E+01 1.53517E+01 0.00000E+00
 -1      3839 8.27850E+01 1.56973E+01 0.00000E+00
 -1      3840 8.12850E+01 1.56973E+01 0.00000E+00
 -1      3841 8.57850E+01 1.56973E+01 0.00000E+00
 -1      3842 8.42850E+01 1.56973E+01 0.00000E+00
 -1      3843 8.35350E+01 1.69963E+01 0.00000E+00
 -1      3844 8.87850E+01 1.56973E+01 0.00000E+00
 -1      3845 8.72850E+01 1.56973E+01 0.00000E+00
 -1      3846 8.65350E+01 1.69963E+01 0.00000E+00
 -1      3847 9.17850E+01 1.56973E+01 0.00000E+00
 -1      3848 9.02850E+01 1.56973E+01 0.00000E+00
 -1      3849 8.95350E+01 1.69963E+01 0.00000E+00
 -1      3850 9.47850E+01 1.56973E+01 0.00000E+00
 -1      3851 9.32850E+01 1.56973E+01 0.00000E+00
 -1      3852 9.25350E+01 1.69963E+01 0.00000E+00
 -1      3853 9.77850E+01 1.56973E+01 0.00000E+00
 -1      3854 9.62850E+01 1.56973E+01 0.00000E+00
 -1      3855 9.55350E+01 1.69963E+01 0.00000E+00
 -1      3856 1.00785E+02 1.56973E+01 0.00000E+00
 -1      3857 9.92850E+01 1.56973E+01 0.00000E+00
 -1      3858 9.85350E+01 1.69963E+01 0.00000E+00
 -1      3859 1.03785E+02 1.56973E+01 0.00000E+00
 -1      3860 1.02285E+02 1.56973E+01 0.00000E+00
 -1      3861 1.01535E+02 1.69963E+01 0.00000E+00
 -1      3862 1.06785E+02 1.56973E+01 0.00000E+00
 -1      3863 1.05285E+02 1.56973E+01 0.00000E+00
 -1      3864 1.04535E+02 1.69963E+01 0.00000E+00
 -1      3865 1.09785E+02 1.56973E+01 0.00000E+00
 -1      3866 1.08285E+02 1.56973E+01 0.00000E+00
 -1      3867 1.07535E+02 1.69963E+01 0.00000E+00
 -1      3868 1.12785E+02 1.56973E+01 0.00000E+00
 -1      3869 1.11285E+02 1.56973E+01 0.00000E+00
 -1      3870 1.10535E+02 1.69963E+01 0.00000E+00
 -1      3871 1.15785E+02 1.56973E+01 0.00000E+00
 -1      3872 1.14285E+02 1.56973E+01 0.00000E+00
 -1      3873 1.13535E+02 1.69963E+01 0.00000E+00
 -1      3874 1.18785E+02 1.56973E+01 0.00000E+00
 -1      3875 1.17285E+02 1.56973E+01 0.00000E+00
 -1      3876 1.16535E+02 1.69963E+01 0.00000E+00
 -1      3877 1.21785E+02 1.56973E+01 0.00000E+00
 -1      3878 1.20285E+02 1.56973E+01 0.00000E+00
 -1      3879 1.19535E+02 1.69963E+01 0.00000E+00
 -1      3880 1.24785E+02 1.56973E+01 0.00000E+00
 -1      3881 1.23285E+02 1.56973E+01 0.00000E+00
 -1      3882 1.22535E+02 1.69963E+01 0.00000E+00
 -1      3883 1.27785E+02 1.56973E+01 0.00000E+00
 -1      3884 1.26285E+02 1.56973E+01 0.00000E+00
 -1      3885 1.25535E+02 1.69963E+01 0.00000E+00
 -1      3886 1.30785E+02 1.56973E+01 0.00000E+00
 -1      3887 1.29285E+02 1.56973E+01 0.00000E+00
 -1      3888 1.28535E+02 1.69963E+01 0.00000E+00
 -1      3889 1.32893E+02 1.58983E+01 0.00000E+00
 -1      3890 4.43698E+01 1.75841E+01 0.00000E+00
 -1      3891 1.67434E+01 1.43837E+01 0.00000E+00
 -1      3892 1.32143E+02 1.71973E+01 0.00000E+00
 -1      3893 1.57279E+01 3.34004E+01 0.00000E+00
 -1      3894 1.44289E+01 3.41348E+01 0.00000E+00
 -1      3895 2.72850E+01 1.30992E+01 0.00000E+00
 -1      3896 2.57850E+01 1.30992E+01 0.00000E+00
 -1      3897 2.80350E+01 1.43982E+01 0.00000E+00
 -1      3898 1.89000E+01 3.31130E+01 0.00000E+00
 -1      3899 2.04000E+01 3.31130E+01 0.00000E+00
 -1      3900 7.14612E+01 3.32937E+01 0.00000E+00
 -1      3901 7.04748E+01 3.38890E+01 0.00000E+00
 -1      3902 7.97850E+01 1.56973E+01 0.00000E+00
 -1      3903 7.82850E+01 1.56973E+01 0.00000E+00
 -1      3904 7.75350E+01 1.69963E+01 0.00000E+00
 -1      3905 8.05350E+01 1.69963E+01 0.00000E+00
 -1      3906 1.42890E+01 2.57109E+01 0.00000E+00
 -1      3907 1.42890E+01 2.71828E+01 0.00000E+00
 -1      3908 1.55880E+01 2.79172E+01 0.00000E+00
 -1      3909 1.55880E+01 2.49766E+01 0.00000E+00
 -1      3910 2.19000E+01 3.31130E+01 0.00000E+00
 -1      3911 2.34000E+01 3.31130E+01 0.00000E+00
 -1      3912 2.41500E+01 3.18140E+01 0.00000E+00
 -1      3913 4.32309E+01 1.77265E+01 0.00000E+00
 -1      3914 2.11500E+01 3.18140E+01 0.00000E+00
 -1      3915 3.17850E+01 1.56973E+01 0.00000E+00
 -1      3916 3.02850E+01 1.56973E+01 0.00000E+00
 -1      3917 1.34331E+02 2.19367E+01 0.00000E+00
 -1      3918 7.40326E+01 1.66507E+01 0.00000E+00
 -1      3919 4.03792E+01 2.09506E+01 0.00000E+00
 -1      3920 4.13051E+01 2.04099E+01 0.00000E+00
 -1      3921 4.13295E+01 1.94380E+01 0.00000E+00
 -1      3922 1.67434E+01 1.58556E+01 0.00000E+00
 -1      3923 1.67434E+01 1.73275E+01 0.00000E+00
 -1      3924 1.78988E+01 1.55706E+01 0.00000E+00
 -1      3925 6.42206E+01 1.31222E+01 0.00000E+00
 -1      3926 1.68870E+01 2.12938E+01 0.00000E+00
 -1      3927 1.68870E+01 2.27687E+01 0.00000E+00
 -1      3928 7.33818E+01 2.49401E+01 0.00000E+00
 -1      3929 7.44527E+01 2.54907E+01 0.00000E+00
 -1      3930 7.38654E+01 2.36020E+01 0.00000E+00
 -1      3931 7.17762E+01 1.78876E+01 0.00000E+00
 -1      3932 7.22112E+01 3.19947E+01 0.00000E+00
 -1      3933 7.21584E+01 2.12606E+01 0.00000E+00
 -1      3934 1.33113E+02 2.57422E+01 0.00000E+00
 -1      3935 1.33113E+02 2.42766E+01 0.00000E+00
 -1      3936 1.32143E+02 2.01285E+01 0.00000E+00
 -1      3937 1.32143E+02 1.86629E+01 0.00000E+00
 -1      3938 1.30035E+02 1.84619E+01 0.00000E+00
 -1      3939 2.50350E+01 1.43982E+01 0.00000E+00
 -1      3940 3.94249E+01 2.34572E+01 0.00000E+00
 -1      3941 3.93446E+01 2.25600E+01 0.00000E+00
 -1      3942 3.84147E+01 2.40948E+01 0.00000E+00
 -1      3943 1.68152E+01 1.85747E+01 0.00000E+00
 -1      3944 1.68152E+01 2.00465E+01 0.00000E+00
 -1      3945 1.81142E+01 2.07840E+01 0.00000E+00
 -1      3946 1.79706E+01 1.82896E+01 0.00000E+00
 -1      3947 1.33197E+02 2.80952E+01 0.00000E+00
 -1      3948 1.33155E+02 2.69187E+01 0.00000E+00
 -1      3949 1.31856E+02 2.61859E+01 0.00000E+00
 -1      3950 7.34608E+01 2.85823E+01 0.00000E+00
 -1      3951 7.39258E+01 2.96267E+01 0.00000E+00
 -1      3952 7.44340E+01 2.78732E+01 0.00000E+00
 -1      3953 3.32850E+01 1.56973E+01 0.00000E+00
 -1      3954 3.25350E+01 1.69963E+01 0.00000E+00
 -1      3955 3.47850E+01 1.56973E+01 0.00000E+00
 -1      3956 7.33013E+01 3.10749E+01 0.00000E+00
 -1      3957 3.70350E+01 1.43982E+01 0.00000E+00
 -1      3958 3.73280E+01 2.63328E+01 0.00000E+00
 -1      3959 3.72580E+01 2.55111E+01 0.00000E+00
 -1      3960 1.92169E+01 1.57203E+01 0.00000E+00
 -1      3961 4.43706E+01 1.54770E+01 0.00000E+00
 -1      3962 4.28706E+01 1.54770E+01 0.00000E+00
 -1      3963 1.67434E+01 3.32727E+01 0.00000E+00
 -1      3964 1.78845E+01 3.32407E+01 0.00000E+00
 -1      3965 1.86345E+01 3.19417E+01 0.00000E+00
 -1      3966 1.66035E+01 3.21973E+01 0.00000E+00
 -1      3967 4.16124E+01 1.80429E+01 0.00000E+00
 -1      3968 4.25878E+01 1.68721E+01 0.00000E+00
 -1      3969 4.12522E+01 1.57934E+01 0.00000E+00
 -1      3970 4.06865E+01 1.85837E+01 0.00000E+00
 -1      3971 3.80261E+01 3.12872E+01 0.00000E+00
 -1      3972 3.81728E+01 3.01909E+01 0.00000E+00
 -1      3973 3.73098E+01 2.93650E+01 0.00000E+00
 -1      3974 3.69592E+01 3.11631E+01 0.00000E+00
 -1      3975 3.67531E+01 2.72480E+01 0.00000E+00
 -1      3976 3.97522E+01 1.57934E+01 0.00000E+00
 -1      3977 1.66035E+01 3.07285E+01 0.00000E+00
 -1      3978 2.27850E+01 1.56973E+01 0.00000E+00
 -1      3979 2.12850E+01 1.56973E+01 0.00000E+00
 -1      3980 6.53522E+01 1.54055E+01 0.00000E+00
 -1      3981 1.99669E+01 1.70193E+01 0.00000E+00
 -1      3982 3.61686E+01 2.84282E+01 0.00000E+00
 -1      3983 3.54367E+01 2.72104E+01 0.00000E+00
 -1      3984 1.32668E+02 2.30061E+01 0.00000E+00
 -1      3985 1.32587E+02 2.13990E+01 0.00000E+00
 -1      3986 1.30480E+02 2.11980E+01 0.00000E+00
 -1      3987 1.31369E+02 2.37389E+01 0.00000E+00
 -1      3988 2.94000E+01 3.05150E+01 0.00000E+00
 -1      3989 3.09000E+01 3.05150E+01 0.00000E+00
 -1      3990 3.32511E+01 3.01023E+01 0.00000E+00
 -1      3991 3.47511E+01 3.01023E+01 0.00000E+00
 -1      3992 4.56704E+01 1.50768E+01 0.00000E+00
 -1      3993 7.48013E+01 3.10749E+01 0.00000E+00
 -1      3994 7.63013E+01 3.10749E+01 0.00000E+00
 -1      3995 7.44526E+01 3.03358E+01 0.00000E+00
 -1      3996 7.78013E+01 3.10749E+01 0.00000E+00
 -1      3997 7.93013E+01 3.10749E+01 0.00000E+00
 -1      3998 7.74526E+01 3.03358E+01 0.00000E+00
 -1      3999 8.08013E+01 3.10749E+01 0.00000E+00
 -1      4000 8.23013E+01 3.10749E+01 0.00000E+00
 -1      4001 8.04526E+01 3.03358E+01 0.00000E+00
 -1      4002 8.38013E+01 3.10749E+01 0.00000E+00
 -1      4003 8.53013E+01 3.10749E+01 0.00000E+00
 -1      4004 8.34526E+01 3.03358E+01 0.00000E+00
 -1      4005 8.68013E+01 3.10749E+01 0.00000E+00
 -1      4006 8.83013E+01 3.10749E+01 0.00000E+00
 -1      4007 8.64526E+01 3.03358E+01 0.00000E+00
 -1      4008 8.98013E+01 3.10749E+01 0.00000E+00
 -1      4009 9.13013E+01 3.10749E+01 0.00000E+00
 -1      4010 8.94526E+01 3.03358E+01 0.00000E+00
 -1      4011 9.28013E+01 3.10749E+01 0.00000E+00
 -1      4012 9.43013E+01 3.10749E+01 0.00000E+00
 -1      4013 9.24526E+01 3.03358E+01 0.00000E+00
 -1      4014 9.58013E+01 3.10749E+01 0.00000E+00
 -1      4015 9.73013E+01 3.10749E+01 0.00000E+00
 -1      4016 9.54526E+01 3.03358E+01 0.00000E+00
 -1      4017 9.88013E+01 3.10749E+01 0.00000E+00
 -1      4018 1.00301E+02 3.10749E+01 0.00000E+00
 -1      4019 9.84526E+01 3.03358E+01 0.00000E+00
 -1      4020 1.01801E+02 3.10749E+01 0.00000E+00
 -1      4021 1.03301E+02 3.10749E+01 0.00000E+00
 -1      4022 1.01453E+02 3.03358E+01 0.00000E+00
 -1      4023 1.04801E+02 3.10749E+01 0.00000E+00
 -1      4024 1.06301E+02 3.10749E+01 0.00000E+00
 -1      4025 1.04453E+02 3.03358E+01 0.00000E+00
 -1      4026 1.07801E+02 3.10749E+01 0.00000E+00
 -1      4027 1.09301E+02 3.10749E+01 0.00000E+00
 -1      4028 1.07453E+02 3.03358E+01 0.00000E+00
 -1      4029 1.10801E+02 3.10749E+01 0.00000E+00
 -1      4030 1.12301E+02 3.10749E+01 0.00000E+00
 -1      4031 1.10453E+02 3.03358E+01 0.00000E+00
 -1      4032 1.13801E+02 3.10749E+01 0.00000E+00
 -1      4033 1.15301E+02 3.10749E+01 0.00000E+00
 -1      4034 1.13453E+02 3.03358E+01 0.00000E+00
 -1      4035 1.16801E+02 3.10749E+01 0.00000E+00
 -1      4036 1.18301E+02 3.10749E+01 0.00000E+00
 -1      4037 1.16453E+02 3.03358E+01 0.00000E+00
 -1      4038 1.19801E+02 3.10749E+01 0.00000E+00
 -1      4039 1.21301E+02 3.10749E+01 0.00000E+00
 -1      4040 1.19453E+02 3.03358E+01 0.00000E+00
 -1      4041 1.22801E+02 3.10749E+01 0.00000E+00
 -1      4042 1.24301E+02 3.10749E+01 0.00000E+00
 -1      4043 1.22453E+02 3.03358E+01 0.00000E+00
 -1      4044 1.25801E+02 3.10749E+01 0.00000E+00
 -1      4045 1.27301E+02 3.10749E+01 0.00000E+00
 -1      4046 1.25453E+02 3.03358E+01 0.00000E+00
 -1      4047 1.28801E+02 3.10749E+01 0.00000E+00
 -1      4048 1.30301E+02 3.10749E+01 0.00000E+00
 -1      4049 1.28453E+02 3.03358E+01 0.00000E+00
 -1      4050 2.64000E+01 3.05150E+01 0.00000E+00
 -1      4051 2.79000E+01 3.05150E+01 0.00000E+00
 -1      4052 2.86500E+01 2.92160E+01 0.00000E+00
 -1      4053 9.02850E+01 1.82952E+01 0.00000E+00
 -1      4054 8.87850E+01 1.82952E+01 0.00000E+00
 -1      4055 8.42850E+01 1.82952E+01 0.00000E+00
 -1      4056 8.27850E+01 1.82952E+01 0.00000E+00
 -1      4057 9.32850E+01 1.82952E+01 0.00000E+00
 -1      4058 9.17850E+01 1.82952E+01 0.00000E+00
 -1      4059 9.10350E+01 1.95942E+01 0.00000E+00
 -1      4060 9.62850E+01 1.82952E+01 0.00000E+00
 -1      4061 9.47850E+01 1.82952E+01 0.00000E+00
 -1      4062 9.40350E+01 1.95942E+01 0.00000E+00
 -1      4063 9.92850E+01 1.82952E+01 0.00000E+00
 -1      4064 9.77850E+01 1.82952E+01 0.00000E+00
 -1      4065 9.70350E+01 1.95942E+01 0.00000E+00
 -1      4066 1.02285E+02 1.82952E+01 0.00000E+00
 -1      4067 1.00785E+02 1.82952E+01 0.00000E+00
 -1      4068 1.00035E+02 1.95942E+01 0.00000E+00
 -1      4069 1.05285E+02 1.82952E+01 0.00000E+00
 -1      4070 1.03785E+02 1.82952E+01 0.00000E+00
 -1      4071 1.03035E+02 1.95942E+01 0.00000E+00
 -1      4072 1.08285E+02 1.82952E+01 0.00000E+00
 -1      4073 1.06785E+02 1.82952E+01 0.00000E+00
 -1      4074 1.06035E+02 1.95942E+01 0.00000E+00
 -1      4075 1.11285E+02 1.82952E+01 0.00000E+00
 -1      4076 1.09785E+02 1.82952E+01 0.00000E+00
 -1      4077 1.09035E+02 1.95942E+01 0.00000E+00
 -1      4078 1.14285E+02 1.82952E+01 0.00000E+00
 -1      4079 1.12785E+02 1.82952E+01 0.00000E+00
 -1      4080 1.12035E+02 1.95942E+01 0.00000E+00
 -1      4081 1.17285E+02 1.82952E+01 0.00000E+00
 -1      4082 1.15785E+02 1.82952E+01 0.00000E+00
 -1      4083 1.15035E+02 1.95942E+01 0.00000E+00
 -1      4084 1.20285E+02 1.82952E+01 0.00000E+00
 -1      4085 1.18785E+02 1.82952E+01 0.00000E+00
 -1      4086 1.18035E+02 1.95942E+01 0.00000E+00
 -1      4087 1.23285E+02 1.82952E+01 0.00000E+00
 -1      4088 1.21785E+02 1.82952E+01 0.00000E+00
 -1      4089 1.21035E+02 1.95942E+01 0.00000E+00
 -1      4090 1.26285E+02 1.82952E+01 0.00000E+00
 -1      4091 1.24785E+02 1.82952E+01 0.00000E+00
 -1      4092 1.24035E+02 1.95942E+01 0.00000E+00
 -1      4093 1.28910E+02 1.83786E+01 0.00000E+00
 -1      4094 1.27410E+02 1.83786E+01 0.00000E+00
 -1      4095 1.26660E+02 1.96776E+01 0.00000E+00
 -1      4096 1.28910E+02 1.98442E+01 0.00000E+00
 -1      4097 7.32225E+01 1.81645E+01 0.00000E+00
 -1      4098 7.29685E+01 1.97469E+01 0.00000E+00
 -1      4099 7.36046E+01 2.15376E+01 0.00000E+00
 -1      4100 7.52249E+01 1.85100E+01 0.00000E+00
 -1      4101 2.34000E+01 3.05150E+01 0.00000E+00
 -1      4102 2.49000E+01 3.05150E+01 0.00000E+00
 -1      4103 2.56500E+01 2.92160E+01 0.00000E+00
 -1      4104 2.87850E+01 1.56973E+01 0.00000E+00
 -1      4105 2.72850E+01 1.56973E+01 0.00000E+00
 -1      4106 2.95350E+01 1.69963E+01 0.00000E+00
 -1      4107 1.33418E+02 3.03055E+01 0.00000E+00
 -1      4108 1.33376E+02 2.91290E+01 0.00000E+00
 -1      4109 1.32077E+02 2.83962E+01 0.00000E+00
 -1      4110 1.32436E+02 3.04637E+01 0.00000E+00
 -1      4111 3.93819E+01 1.73449E+01 0.00000E+00
 -1      4112 3.81647E+01 1.59498E+01 0.00000E+00
 -1      4113 8.72850E+01 1.82952E+01 0.00000E+00
 -1      4114 8.57850E+01 1.82952E+01 0.00000E+00
 -1      4115 8.80350E+01 1.95942E+01 0.00000E+00
 -1      4116 2.04000E+01 3.05150E+01 0.00000E+00
 -1      4117 2.19000E+01 3.05150E+01 0.00000E+00
 -1      4118 2.26500E+01 2.92160E+01 0.00000E+00
 -1      4119 1.79940E+01 3.06856E+01 0.00000E+00
 -1      4120 1.90095E+01 3.05579E+01 0.00000E+00
 -1      4121 1.97595E+01 2.92589E+01 0.00000E+00
 -1      4122 1.69785E+01 2.93446E+01 0.00000E+00
 -1      4123 1.81860E+01 2.35016E+01 0.00000E+00
 -1      4124 1.68870E+01 2.42391E+01 0.00000E+00
 -1      4125 1.68870E+01 2.57094E+01 0.00000E+00
 -1      4126 2.57850E+01 1.56973E+01 0.00000E+00
 -1      4127 2.42850E+01 1.56973E+01 0.00000E+00
 -1      4128 2.35350E+01 1.69963E+01 0.00000E+00
 -1      4129 3.66647E+01 1.59498E+01 0.00000E+00
 -1      4130 3.59408E+01 2.51329E+01 0.00000E+00
 -1      4131 3.71777E+01 2.46139E+01 0.00000E+00
 -1      4132 3.70975E+01 2.37166E+01 0.00000E+00
 -1      4133 2.00387E+01 1.82665E+01 0.00000E+00
 -1      4134 3.25011E+01 2.88033E+01 0.00000E+00
 -1      4135 3.60675E+01 3.01399E+01 0.00000E+00
 -1      4136 2.42850E+01 1.82952E+01 0.00000E+00
 -1      4137 2.27850E+01 1.82952E+01 0.00000E+00
 -1      4138 3.93690E+01 2.15882E+01 0.00000E+00
 -1      4139 3.93934E+01 2.06163E+01 0.00000E+00
 -1      4140 3.83588E+01 2.22257E+01 0.00000E+00
 -1      4141 7.54258E+01 2.96267E+01 0.00000E+00
 -1      4142 2.65350E+01 1.69963E+01 0.00000E+00
 -1      4143 1.31453E+02 3.06220E+01 0.00000E+00
 -1      4144 7.46755E+01 2.20882E+01 0.00000E+00
 -1      4145 3.90991E+01 1.87401E+01 0.00000E+00
 -1      4146 7.58162E+01 2.52270E+01 0.00000E+00
 -1      4147 7.53326E+01 2.65652E+01 0.00000E+00
 -1      4148 8.20350E+01 1.95942E+01 0.00000E+00
 -1      4149 8.12850E+01 1.82952E+01 0.00000E+00
 -1      4150 7.97850E+01 1.82952E+01 0.00000E+00
 -1      4151 1.69785E+01 2.78743E+01 0.00000E+00
 -1      4152 7.67249E+01 1.85100E+01 0.00000E+00
 -1      4153 7.59148E+01 2.00238E+01 0.00000E+00
 -1      4154 7.82249E+01 1.85100E+01 0.00000E+00
 -1      4155 3.02850E+01 1.82952E+01 0.00000E+00
 -1      4156 2.87850E+01 1.82952E+01 0.00000E+00
 -1      4157 2.14478E+01 1.89045E+01 0.00000E+00
 -1      4158 1.94514E+01 2.01748E+01 0.00000E+00
 -1      4159 1.95233E+01 2.14220E+01 0.00000E+00
 -1      4160 2.21978E+01 2.02035E+01 0.00000E+00
 -1      4161 7.57975E+01 2.76096E+01 0.00000E+00
 -1      4162 1.30579E+02 2.68205E+01 0.00000E+00
 -1      4163 1.30537E+02 2.56440E+01 0.00000E+00
 -1      4164 3.59147E+01 1.72488E+01 0.00000E+00
 -1      4165 8.50350E+01 1.95942E+01 0.00000E+00
 -1      4166 1.95233E+01 2.28923E+01 0.00000E+00
 -1      4167 1.95233E+01 2.43626E+01 0.00000E+00
 -1      4168 2.08605E+01 2.22831E+01 0.00000E+00
 -1      4169 3.30856E+01 2.76231E+01 0.00000E+00
 -1      4170 3.36700E+01 2.64429E+01 0.00000E+00
 -1      4171 3.07345E+01 2.80358E+01 0.00000E+00
 -1      4172 1.28815E+02 2.50081E+01 0.00000E+00
 -1      4173 1.30092E+02 2.43735E+01 0.00000E+00
 -1      4174 1.29647E+02 2.31030E+01 0.00000E+00
 -1      4175 1.31105E+02 2.98829E+01 0.00000E+00
 -1      4176 3.32850E+01 1.82952E+01 0.00000E+00
 -1      4177 3.17850E+01 1.82952E+01 0.00000E+00
 -1      4178 3.10350E+01 1.95942E+01 0.00000E+00
 -1      4179 1.29501E+02 2.21088E+01 0.00000E+00
 -1      4180 1.29056E+02 2.08384E+01 0.00000E+00
 -1      4181 1.27931E+02 2.07551E+01 0.00000E+00
 -1      4182 1.28224E+02 2.27434E+01 0.00000E+00
 -1      4183 3.58850E+01 2.32638E+01 0.00000E+00
 -1      4184 3.71219E+01 2.27448E+01 0.00000E+00
 -1      4185 3.71463E+01 2.17729E+01 0.00000E+00
 -1      4186 2.57850E+01 1.82952E+01 0.00000E+00
 -1      4187 2.50350E+01 1.95942E+01 0.00000E+00
 -1      4188 2.72850E+01 1.82952E+01 0.00000E+00
 -1      4189 3.58922E+01 3.10390E+01 0.00000E+00
 -1      4190 7.69258E+01 2.96267E+01 0.00000E+00
 -1      4191 7.84258E+01 2.96267E+01 0.00000E+00
 -1      4192 7.63990E+01 2.89176E+01 0.00000E+00
 -1      4193 7.97026E+01 2.90368E+01 0.00000E+00
 -1      4194 8.12026E+01 2.90368E+01 0.00000E+00
 -1      4195 8.27026E+01 2.90368E+01 0.00000E+00
 -1      4196 8.42026E+01 2.90368E+01 0.00000E+00
 -1      4197 8.19526E+01 2.77378E+01 0.00000E+00
 -1      4198 8.57026E+01 2.90368E+01 0.00000E+00
 -1      4199 8.72026E+01 2.90368E+01 0.00000E+00
 -1      4200 8.49526E+01 2.77378E+01 0.00000E+00
 -1      4201 8.87026E+01 2.90368E+01 0.00000E+00
 -1      4202 9.02026E+01 2.90368E+01 0.00000E+00
 -1      4203 8.79526E+01 2.77378E+01 0.00000E+00
 -1      4204 9.17026E+01 2.90368E+01 0.00000E+00
 -1      4205 9.32026E+01 2.90368E+01 0.00000E+00
 -1      4206 9.09526E+01 2.77378E+01 0.00000E+00
 -1      4207 9.47026E+01 2.90368E+01 0.00000E+00
 -1      4208 9.62026E+01 2.90368E+01 0.00000E+00
 -1      4209 9.39526E+01 2.77378E+01 0.00000E+00
 -1      4210 9.77026E+01 2.90368E+01 0.00000E+00
 -1      4211 9.92026E+01 2.90368E+01 0.00000E+00
 -1      4212 9.69526E+01 2.77378E+01 0.00000E+00
 -1      4213 1.00703E+02 2.90368E+01 0.00000E+00
 -1      4214 1.02203E+02 2.90368E+01 0.00000E+00
 -1      4215 9.99526E+01 2.77378E+01 0.00000E+00
 -1      4216 1.03703E+02 2.90368E+01 0.00000E+00
 -1      4217 1.05203E+02 2.90368E+01 0.00000E+00
 -1      4218 1.02953E+02 2.77378E+01 0.00000E+00
 -1      4219 1.06703E+02 2.90368E+01 0.00000E+00
 -1      4220 1.08203E+02 2.90368E+01 0.00000E+00
 -1      4221 1.05953E+02 2.77378E+01 0.00000E+00
 -1      4222 1.09703E+02 2.90368E+01 0.00000E+00
 -1      4223 1.11203E+02 2.90368E+01 0.00000E+00
 -1      4224 1.08953E+02 2.77378E+01 0.00000E+00
 -1      4225 1.12703E+02 2.90368E+01 0.00000E+00
 -1      4226 1.14203E+02 2.90368E+01 0.00000E+00
 -1      4227 1.11953E+02 2.77378E+01 0.00000E+00
 -1      4228 1.15703E+02 2.90368E+01 0.00000E+00
 -1      4229 1.17203E+02 2.90368E+01 0.00000E+00
 -1      4230 1.14953E+02 2.77378E+01 0.00000E+00
 -1      4231 1.18703E+02 2.90368E+01 0.00000E+00
 -1      4232 1.20203E+02 2.90368E+01 0.00000E+00
 -1      4233 1.17953E+02 2.77378E+01 0.00000E+00
 -1      4234 1.21703E+02 2.90368E+01 0.00000E+00
 -1      4235 1.23203E+02 2.90368E+01 0.00000E+00
 -1      4236 1.20953E+02 2.77378E+01 0.00000E+00
 -1      4237 1.24703E+02 2.90368E+01 0.00000E+00
 -1      4238 1.26203E+02 2.90368E+01 0.00000E+00
 -1      4239 1.23953E+02 2.77378E+01 0.00000E+00
 -1      4240 1.28106E+02 2.83072E+01 0.00000E+00
 -1      4241 1.29606E+02 2.83072E+01 0.00000E+00
 -1      4242 7.63813E+01 2.38668E+01 0.00000E+00
 -1      4243 7.72611E+01 2.49413E+01 0.00000E+00
 -1      4244 9.47850E+01 2.08932E+01 0.00000E+00
 -1      4245 9.32850E+01 2.08932E+01 0.00000E+00
 -1      4246 2.35350E+01 2.10646E+01 0.00000E+00
 -1      4247 2.21978E+01 2.16738E+01 0.00000E+00
 -1      4248 2.21978E+01 2.31441E+01 0.00000E+00
 -1      4249 9.17850E+01 2.08932E+01 0.00000E+00
 -1      4250 9.02850E+01 2.08932E+01 0.00000E+00
 -1      4251 9.25350E+01 2.21922E+01 0.00000E+00
 -1      4252 1.00785E+02 2.08932E+01 0.00000E+00
 -1      4253 9.92850E+01 2.08932E+01 0.00000E+00
 -1      4254 1.03785E+02 2.08932E+01 0.00000E+00
 -1      4255 1.02285E+02 2.08932E+01 0.00000E+00
 -1      4256 1.01535E+02 2.21922E+01 0.00000E+00
 -1      4257 1.06785E+02 2.08932E+01 0.00000E+00
 -1      4258 1.05285E+02 2.08932E+01 0.00000E+00
 -1      4259 1.04535E+02 2.21922E+01 0.00000E+00
 -1      4260 1.09785E+02 2.08932E+01 0.00000E+00
 -1      4261 1.08285E+02 2.08932E+01 0.00000E+00
 -1      4262 1.07535E+02 2.21922E+01 0.00000E+00
 -1      4263 1.12785E+02 2.08932E+01 0.00000E+00
 -1      4264 1.11285E+02 2.08932E+01 0.00000E+00
 -1      4265 1.10535E+02 2.21922E+01 0.00000E+00
 -1      4266 1.15785E+02 2.08932E+01 0.00000E+00
 -1      4267 1.14285E+02 2.08932E+01 0.00000E+00
 -1      4268 1.13535E+02 2.21922E+01 0.00000E+00
 -1      4269 1.18785E+02 2.08932E+01 0.00000E+00
 -1      4270 1.17285E+02 2.08932E+01 0.00000E+00
 -1      4271 1.16535E+02 2.21922E+01 0.00000E+00
 -1      4272 1.21785E+02 2.08932E+01 0.00000E+00
 -1      4273 1.20285E+02 2.08932E+01 0.00000E+00
 -1      4274 1.19535E+02 2.21922E+01 0.00000E+00
 -1      4275 1.24785E+02 2.08932E+01 0.00000E+00
 -1      4276 1.23285E+02 2.08932E+01 0.00000E+00
 -1      4277 1.22535E+02 2.21922E+01 0.00000E+00
 -1      4278 2.19000E+01 2.79170E+01 0.00000E+00
 -1      4279 2.34000E+01 2.79170E+01 0.00000E+00
 -1      4280 3.22738E+01 2.53920E+01 0.00000E+00
 -1      4281 3.46249E+01 2.49793E+01 0.00000E+00
 -1      4282 7.61755E+01 2.20882E+01 0.00000E+00
 -1      4283 1.27356E+02 2.70082E+01 0.00000E+00
 -1      4284 3.45446E+01 2.40820E+01 0.00000E+00
 -1      4285 3.80889E+01 1.93776E+01 0.00000E+00
 -1      4286 8.87850E+01 2.08932E+01 0.00000E+00
 -1      4287 8.72850E+01 2.08932E+01 0.00000E+00
 -1      4288 8.95350E+01 2.21922E+01 0.00000E+00
 -1      4289 7.72975E+01 2.76096E+01 0.00000E+00
 -1      4290 2.92345E+01 2.80358E+01 0.00000E+00
 -1      4291 2.98189E+01 2.68556E+01 0.00000E+00
 -1      4292 2.77345E+01 2.80358E+01 0.00000E+00
 -1      4293 2.48172E+01 2.79764E+01 0.00000E+00
 -1      4294 2.63172E+01 2.79764E+01 0.00000E+00
 -1      4295 2.69017E+01 2.67962E+01 0.00000E+00
 -1      4296 2.40672E+01 2.66774E+01 0.00000E+00
 -1      4297 3.07084E+01 2.54141E+01 0.00000E+00
 -1      4298 3.16632E+01 2.39504E+01 0.00000E+00
 -1      4299 1.82775E+01 2.71368E+01 0.00000E+00
 -1      4300 2.80350E+01 1.95942E+01 0.00000E+00
 -1      4301 9.77850E+01 2.08932E+01 0.00000E+00
 -1      4302 9.62850E+01 2.08932E+01 0.00000E+00
 -1      4303 9.85350E+01 2.21922E+01 0.00000E+00
 -1      4304 8.57850E+01 2.08932E+01 0.00000E+00
 -1      4305 8.42850E+01 2.08932E+01 0.00000E+00
 -1      4306 8.65350E+01 2.21922E+01 0.00000E+00
 -1      4307 3.45690E+01 2.31102E+01 0.00000E+00
 -1      4308 7.76205E+01 2.18024E+01 0.00000E+00
 -1      4309 9.55350E+01 2.21922E+01 0.00000E+00
 -1      4310 2.50350E+01 2.10646E+01 0.00000E+00
 -1      4311 2.92084E+01 2.54141E+01 0.00000E+00
 -1      4312 3.28818E+01 2.17613E+01 0.00000E+00
 -1      4313 3.42222E+01 2.09431E+01 0.00000E+00
 -1      4314 7.91758E+01 2.83277E+01 0.00000E+00
 -1      4315 7.87433E+01 2.47595E+01 0.00000E+00
 -1      4316 7.81782E+01 2.61197E+01 0.00000E+00
 -1      4317 8.27850E+01 2.08932E+01 0.00000E+00
 -1      4318 8.12850E+01 2.08932E+01 0.00000E+00
 -1      4319 8.35350E+01 2.21922E+01 0.00000E+00
 -1      4320 7.89749E+01 1.98090E+01 0.00000E+00
 -1      4321 3.13164E+01 2.17834E+01 0.00000E+00
 -1      4322 1.26921E+02 2.08658E+01 0.00000E+00
 -1      4323 1.25796E+02 2.07825E+01 0.00000E+00
 -1      4324 1.25046E+02 2.20815E+01 0.00000E+00
 -1      4325 1.27067E+02 2.18600E+01 0.00000E+00
 -1      4326 1.30925E+02 2.88491E+01 0.00000E+00
 -1      4327 3.66816E+01 1.86625E+01 0.00000E+00
 -1      4328 3.48019E+01 1.84100E+01 0.00000E+00
 -1      4329 1.26911E+02 2.57377E+01 0.00000E+00
 -1      4330 1.26467E+02 2.44673E+01 0.00000E+00
 -1      4331 1.25008E+02 2.64674E+01 0.00000E+00
 -1      4332 1.95296E+01 2.59995E+01 0.00000E+00
 -1      4333 1.96211E+01 2.81644E+01 0.00000E+00
 -1      4334 2.98164E+01 2.17834E+01 0.00000E+00
 -1      4335 2.08668E+01 2.53902E+01 0.00000E+00
 -1      4336 7.87797E+01 2.74278E+01 0.00000E+00
 -1      4337 2.81757E+01 2.14240E+01 0.00000E+00
 -1      4338 2.66757E+01 2.14240E+01 0.00000E+00
 -1      4339 2.51757E+01 2.28943E+01 0.00000E+00
 -1      4340 2.84571E+01 2.36131E+01 0.00000E+00
 -1      4341 2.10116E+01 2.81216E+01 0.00000E+00
 -1      4342 2.17616E+01 2.68226E+01 0.00000E+00
 -1      4343 8.00565E+01 2.68379E+01 0.00000E+00
 -1      4344 7.99306E+01 2.28866E+01 0.00000E+00
 -1      4345 8.08477E+01 2.40651E+01 0.00000E+00
 -1      4346 8.42026E+01 2.64388E+01 0.00000E+00
 -1      4347 8.57026E+01 2.64388E+01 0.00000E+00
 -1      4348 8.72026E+01 2.64388E+01 0.00000E+00
 -1      4349 8.87026E+01 2.64388E+01 0.00000E+00
 -1      4350 8.64526E+01 2.51398E+01 0.00000E+00
 -1      4351 9.02026E+01 2.64388E+01 0.00000E+00
 -1      4352 9.17026E+01 2.64388E+01 0.00000E+00
 -1      4353 8.94526E+01 2.51398E+01 0.00000E+00
 -1      4354 9.32026E+01 2.64388E+01 0.00000E+00
 -1      4355 9.47026E+01 2.64388E+01 0.00000E+00
 -1      4356 9.24526E+01 2.51398E+01 0.00000E+00
 -1      4357 9.62026E+01 2.64388E+01 0.00000E+00
 -1      4358 9.77026E+01 2.64388E+01 0.00000E+00
 -1      4359 9.54526E+01 2.51398E+01 0.00000E+00
 -1      4360 9.92026E+01 2.64388E+01 0.00000E+00
 -1      4361 1.00703E+02 2.64388E+01 0.00000E+00
 -1      4362 9.84526E+01 2.51398E+01 0.00000E+00
 -1      4363 1.02203E+02 2.64388E+01 0.00000E+00
 -1      4364 1.03703E+02 2.64388E+01 0.00000E+00
 -1      4365 1.01453E+02 2.51398E+01 0.00000E+00
 -1      4366 1.05203E+02 2.64388E+01 0.00000E+00
 -1      4367 1.06703E+02 2.64388E+01 0.00000E+00
 -1      4368 1.04453E+02 2.51398E+01 0.00000E+00
 -1      4369 1.08203E+02 2.64388E+01 0.00000E+00
 -1      4370 1.09703E+02 2.64388E+01 0.00000E+00
 -1      4371 1.07453E+02 2.51398E+01 0.00000E+00
 -1      4372 1.11203E+02 2.64388E+01 0.00000E+00
 -1      4373 1.12703E+02 2.64388E+01 0.00000E+00
 -1      4374 1.10453E+02 2.51398E+01 0.00000E+00
 -1      4375 1.14203E+02 2.64388E+01 0.00000E+00
 -1      4376 1.15703E+02 2.64388E+01 0.00000E+00
 -1      4377 1.13453E+02 2.51398E+01 0.00000E+00
 -1      4378 1.17203E+02 2.64388E+01 0.00000E+00
 -1      4379 1.18703E+02 2.64388E+01 0.00000E+00
 -1      4380 1.16453E+02 2.51398E+01 0.00000E+00
 -1      4381 1.20203E+02 2.64388E+01 0.00000E+00
 -1      4382 1.21703E+02 2.64388E+01 0.00000E+00
 -1      4383 1.19453E+02 2.51398E+01 0.00000E+00
 -1      4384 1.23508E+02 2.64674E+01 0.00000E+00
 -1      4385 7.91806E+01 2.15876E+01 0.00000E+00
 -1      4386 2.38385E+01 2.35035E+01 0.00000E+00
 -1      4387 2.25012E+01 2.41128E+01 0.00000E+00
 -1      4388 2.54792E+01 2.38629E+01 0.00000E+00
 -1      4389 9.39938E+01 2.36660E+01 0.00000E+00
 -1      4390 9.24938E+01 2.36660E+01 0.00000E+00
 -1      4391 2.17553E+01 2.51857E+01 0.00000E+00
 -1      4392 1.05994E+02 2.36660E+01 0.00000E+00
 -1      4393 1.04494E+02 2.36660E+01 0.00000E+00
 -1      4394 1.02994E+02 2.36660E+01 0.00000E+00
 -1      4395 1.01494E+02 2.36660E+01 0.00000E+00
 -1      4396 1.11994E+02 2.36660E+01 0.00000E+00
 -1      4397 1.10494E+02 2.36660E+01 0.00000E+00
 -1      4398 1.14994E+02 2.36660E+01 0.00000E+00
 -1      4399 1.13494E+02 2.36660E+01 0.00000E+00
 -1      4400 1.17994E+02 2.36660E+01 0.00000E+00
 -1      4401 1.16494E+02 2.36660E+01 0.00000E+00
 -1      4402 1.20994E+02 2.36660E+01 0.00000E+00
 -1      4403 1.19494E+02 2.36660E+01 0.00000E+00
 -1      4404 1.22494E+02 2.36660E+01 0.00000E+00
 -1      4405 8.12021E+01 2.54515E+01 0.00000E+00
 -1      4406 8.15982E+01 2.63514E+01 0.00000E+00
 -1      4407 8.30982E+01 2.63514E+01 0.00000E+00
 -1      4408 8.23894E+01 2.35786E+01 0.00000E+00
 -1      4409 9.69938E+01 2.36660E+01 0.00000E+00
 -1      4410 9.54938E+01 2.36660E+01 0.00000E+00
 -1      4411 9.09938E+01 2.36660E+01 0.00000E+00
 -1      4412 8.94938E+01 2.36660E+01 0.00000E+00
 -1      4413 3.69760E+01 2.05388E+01 0.00000E+00
 -1      4414 3.40519E+01 1.97090E+01 0.00000E+00
 -1      4415 2.75677E+01 2.50547E+01 0.00000E+00
 -1      4416 9.99938E+01 2.36660E+01 0.00000E+00
 -1      4417 9.84938E+01 2.36660E+01 0.00000E+00
 -1      4418 8.79938E+01 2.36660E+01 0.00000E+00
 -1      4419 8.64938E+01 2.36660E+01 0.00000E+00
 -1      4420 1.08994E+02 2.36660E+01 0.00000E+00
 -1      4421 1.07494E+02 2.36660E+01 0.00000E+00
 -1      4422 2.33960E+01 2.55451E+01 0.00000E+00
 -1      4423 3.57391E+01 2.10578E+01 0.00000E+00
 -1      4424 8.38894E+01 2.35786E+01 0.00000E+00
 -1      4425 1.25310E+02 2.35838E+01 0.00000E+00
 -1      4426 1.24299E+02 2.36946E+01 0.00000E+00
 -1      4427 8.38482E+01 2.50524E+01 0.00000E+00
 -1      4428 1.22758E+02 2.51684E+01 0.00000E+00
 -1      4429 2.48132E+01 2.56045E+01 0.00000E+00
 -1      4430 2.61504E+01 2.49952E+01 0.00000E+00
 -1      4431 1.27213E+02 2.28542E+01 0.00000E+00
 -1      4432 8.49938E+01 2.36660E+01 0.00000E+00
 -3
    3C                          2134                                     1
 -1       165    8    0    1
 -2         6         7        23      1150      1314      1167
 -1       166    8    0    1
 -2         7         8       165      1151      1315      1316
 -1       167    8    0    1
 -2         8         9       166      1152      1317      1318
 -1       168    8    0    1
 -2         8       166       165      1318      1319      1315
 -1       169    8    0    1
 -2         9        10       167      1153      1320      1321
 -1       170    8    0    1
 -2         9       167       166      1321      1322      1317
 -1       171    8    0    1
 -2        10        11       168      1154      1323      1324
 -1       172    8    0    1
 -2        10       168       167      1324      1325      1320
 -1       173    8    0    1
 -2        11        12       169      1155      1326      1327
 -1       174    8    0    1
 -2        11       169       168      1327      1328      1323
 -1       175    8    0    1
 -2        12        13       170      1156      1329      1330
 -1       176    8    0    1
 -2        12       170       169      1330      1331      1326
 -1       177    8    0    1
 -2        13        14       171      1157      1332      1333
 -1       178    8    0    1
 -2        13       171       170      1333      1334      1329
 -1       179    8    0    1
 -2        14        15       172      1158      1335      1336
 -1       180    8    0    1
 -2        14       172       171      1336      1337      1332
 -1       181    8    0    1
 -2        15        16       173      1159      1338      1339
 -1       182    8    0    1
 -2        15       173       172      1339      1340      1335
 -1       183    8    0    1
 -2        16        17       174      1160      1341      1342
 -1       184    8    0    1
 -2        16       174       173      1342      1343      1338
 -1       185    8    0    1
 -2        17        18       175      1161      1344      1345
 -1       186    8    0    1
 -2        17       175       174      1345      1346      1341
 -1       187    8    0    1
 -2        18        19       176      1162      1347      1348
 -1       188    8    0    1
 -2        18       176       175      1348      1349      1344
 -1       189    8    0    1
 -2        19        20       177      1163      1350      1351
 -1       190    8    0    1
 -2        19       177       176      1351      1352      1347
 -1       191    8    0    1
 -2        20        21       178      1164      1353      1354
 -1       192    8    0    1
 -2        20       178       177      1354      1355      1350
 -1       193    8    0    1
 -2        21        22       179      1165      1356      1357
 -1       194    8    0    1
 -2        21       179       178      1357      1358      1353
 -1       195    8    0    1
 -2        22         5       180      1166      1359      1360
 -1       196    8    0    1
 -2       179        22       180      1356      1360      1361
 -1       197    8    0    1
 -2         5        72       180      1217      1362      1359
 -1       198    8    0    1
 -2        24        23       181      1168      1363      1364
 -1       199    8    0    1
 -2        25        24       182      1169      1365      1366
 -1       200    8    0    1
 -2        24       181       182      1364      1367      1365
 -1       201    8    0    1
 -2        26        25       183      1170      1368      1369
 -1       202    8    0    1
 -2        25       182       183      1366      1370      1368
 -1       203    8    0    1
 -2        27        26       184      1171      1371      1372
 -1       204    8    0    1
 -2        26       183       184      1369      1373      1371
 -1       205    8    0    1
 -2        28        27       185      1172      1374      1375
 -1       206    8    0    1
 -2        27       184       185      1372      1376      1374
 -1       207    8    0    1
 -2        29        28       186      1173      1377      1378
 -1       208    8    0    1
 -2        28       185       186      1375      1379      1377
 -1       209    8    0    1
 -2        30        29       187      1174      1380      1381
 -1       210    8    0    1
 -2        29       186       187      1378      1382      1380
 -1       211    8    0    1
 -2        31        30       188      1175      1383      1384
 -1       212    8    0    1
 -2        30       187       188      1381      1385      1383
 -1       213    8    0    1
 -2        32        31       189      1176      1386      1387
 -1       214    8    0    1
 -2        31       188       189      1384      1388      1386
 -1       215    8    0    1
 -2        33        32       190      1177      1389      1390
 -1       216    8    0    1
 -2        32       189       190      1387      1391      1389
 -1       217    8    0    1
 -2        34        33       191      1178      1392      1393
 -1       218    8    0    1
 -2        33       190       191      1390      1394      1392
 -1       219    8    0    1
 -2        35        34       192      1179      1395      1396
 -1       220    8    0    1
 -2        34       191       192      1393      1397      1395
 -1       221    8    0    1
 -2        36        35       193      1180      1398      1399
 -1       222    8    0    1
 -2        35       192       193      1396      1400      1398
 -1       223    8    0    1
 -2        37        36       194      1181      1401      1402
 -1       224    8    0    1
 -2        36       193       194      1399      1403      1401
 -1       225    8    0    1
 -2        38        37       195      1182      1404      1405
 -1       226    8    0    1
 -2        37       194       195      1402      1406      1404
 -1       227    8    0    1
 -2        39        38       196      1183      1407      1408
 -1       228    8    0    1
 -2        38       195       196      1405      1409      1407
 -1       229    8    0    1
 -2        40        39       197      1184      1410      1411
 -1       230    8    0    1
 -2        39       196       197      1408      1412      1410
 -1       231    8    0    1
 -2        41        40       198      1185      1413      1414
 -1       232    8    0    1
 -2        40       197       198      1411      1415      1413
 -1       233    8    0    1
 -2        42        41       199      1186      1416      1417
 -1       234    8    0    1
 -2        41       198       199      1414      1418      1416
 -1       235    8    0    1
 -2        43        42       200      1187      1419      1420
 -1       236    8    0    1
 -2        42       199       200      1417      1421      1419
 -1       237    8    0    1
 -2        44        43       201      1188      1422      1423
 -1       238    8    0    1
 -2        43       200       201      1420      1424      1422
 -1       239    8    0    1
 -2        45        44       202      1189      1425      1426
 -1       240    8    0    1
 -2        44       201       202      1423      1427      1425
 -1       241    8    0    1
 -2        46        45       203      1190      1428      1429
 -1       242    8    0    1
 -2        45       202       203      1426      1430      1428
 -1       243    8    0    1
 -2        47        46       204      1191      1431      1432
 -1       244    8    0    1
 -2        46       203       204      1429      1433      1431
 -1       245    8    0    1
 -2        48        47       205      1192      1434      1435
 -1       246    8    0    1
 -2        47       204       205      1432      1436      1434
 -1       247    8    0    1
 -2        49        48       206      1193      1437      1438
 -1       248    8    0    1
 -2        48       205       206      1435      1439      1437
 -1       249    8    0    1
 -2        50        49       207      1194      1440      1441
 -1       250    8    0    1
 -2        49       206       207      1438      1442      1440
 -1       251    8    0    1
 -2        51        50       208      1195      1443      1444
 -1       252    8    0    1
 -2        50       207       208      1441      1445      1443
 -1       253    8    0    1
 -2        52        51       209      1196      1446      1447
 -1       254    8    0    1
 -2        51       208       209      1444      1448      1446
 -1       255    8    0    1
 -2        53        52       210      1197      1449      1450
 -1       256    8    0    1
 -2        52       209       210      1447      1451      1449
 -1       257    8    0    1
 -2        54        53       211      1198      1452      1453
 -1       258    8    0    1
 -2        53       210       211      1450      1454      1452
 -1       259    8    0    1
 -2        55        54       212      1199      1455      1456
 -1       260    8    0    1
 -2        54       211       212      1453      1457      1455
 -1       261    8    0    1
 -2        56        55       213      1200      1458      1459
 -1       262    8    0    1
 -2        55       212       213      1456      1460      1458
 -1       263    8    0    1
 -2        57        56       214      1201      1461      1462
 -1       264    8    0    1
 -2        56       213       214      1459      1463      1461
 -1       265    8    0    1
 -2        58        57       215      1202      1464      1465
 -1       266    8    0    1
 -2        57       214       215      1462      1466      1464
 -1       267    8    0    1
 -2        59        58       216      1203      1467      1468
 -1       268    8    0    1
 -2        58       215       216      1465      1469      1467
 -1       269    8    0    1
 -2        60        59       217      1204      1470      1471
 -1       270    8    0    1
 -2        59       216       217      1468      1472      1470
 -1       271    8    0    1
 -2        61        60       218      1205      1473      1474
 -1       272    8    0    1
 -2        60       217       218      1471      1475      1473
 -1       273    8    0    1
 -2        62        61       219      1206      1476      1477
 -1       274    8    0    1
 -2        61       218       219      1474      1478      1476
 -1       275    8    0    1
 -2        63        62       220      1207      1479      1480
 -1       276    8    0    1
 -2        62       219       220      1477      1481      1479
 -1       277    8    0    1
 -2        64        63       221      1208      1482      1483
 -1       278    8    0    1
 -2        63       220       221      1480      1484      1482
 -1       279    8    0    1
 -2        65        64       222      1209      1485      1486
 -1       280    8    0    1
 -2        64       221       222      1483      1487      1485
 -1       281    8    0    1
 -2        66        65       223      1210      1488      1489
 -1       282    8    0    1
 -2        65       222       223      1486      1490      1488
 -1       283    8    0    1
 -2        67        66       224      1211      1491      1492
 -1       284    8    0    1
 -2        66       223       224      1489      1493      1491
 -1       285    8    0    1
 -2        68        67       225      1212      1494      1495
 -1       286    8    0    1
 -2        67       224       225      1492      1496      1494
 -1       287    8    0    1
 -2        69        68       226      1213      1497      1498
 -1       288    8    0    1
 -2        68       225       226      1495      1499      1497
 -1       289    8    0    1
 -2        70        69       227      1214      1500      1501
 -1       290    8    0    1
 -2        69       226       227      1498      1502      1500
 -1       291    8    0    1
 -2        71        70       228      1215      1503      1504
 -1       292    8    0    1
 -2        70       227       228      1501      1505      1503
 -1       293    8    0    1
 -2         4        71       136      1216      1506      1283
 -1       294    8    0    1
 -2       136        71       228      1506      1504      1507
 -1       295    8    0    1
 -2        72        73       229      1218      1508      1509
 -1       296    8    0    1
 -2        72       229       180      1509      1510      1362
 -1       297    8    0    1
 -2        73        74       230      1219      1511      1512
 -1       298    8    0    1
 -2        73       230       229      1512      1513      1508
 -1       299    8    0    1
 -2        74        75       231      1220      1514      1515
 -1       300    8    0    1
 -2        74       231       230      1515      1516      1511
 -1       301    8    0    1
 -2        75        76       232      1221      1517      1518
 -1       302    8    0    1
 -2        75       232       231      1518      1519      1514
 -1       303    8    0    1
 -2        76        77       233      1222      1520      1521
 -1       304    8    0    1
 -2        76       233       232      1521      1522      1517
 -1       305    8    0    1
 -2        77        78       234      1223      1523      1524
 -1       306    8    0    1
 -2        77       234       233      1524      1525      1520
 -1       307    8    0    1
 -2        78        79       235      1224      1526      1527
 -1       308    8    0    1
 -2        78       235       234      1527      1528      1523
 -1       309    8    0    1
 -2        79        80       236      1225      1529      1530
 -1       310    8    0    1
 -2        79       236       235      1530      1531      1526
 -1       311    8    0    1
 -2        80        81       237      1226      1532      1533
 -1       312    8    0    1
 -2        80       237       236      1533      1534      1529
 -1       313    8    0    1
 -2        81        82       238      1227      1535      1536
 -1       314    8    0    1
 -2        81       238       237      1536      1537      1532
 -1       315    8    0    1
 -2        82        83       239      1228      1538      1539
 -1       316    8    0    1
 -2        82       239       238      1539      1540      1535
 -1       317    8    0    1
 -2        83        84       240      1229      1541      1542
 -1       318    8    0    1
 -2        83       240       239      1542      1543      1538
 -1       319    8    0    1
 -2        84        85       241      1230      1544      1545
 -1       320    8    0    1
 -2        84       241       240      1545      1546      1541
 -1       321    8    0    1
 -2        85        86       242      1231      1547      1548
 -1       322    8    0    1
 -2        85       242       241      1548      1549      1544
 -1       323    8    0    1
 -2        86        87       243      1232      1550      1551
 -1       324    8    0    1
 -2        86       243       242      1551      1552      1547
 -1       325    8    0    1
 -2        87        88       244      1233      1553      1554
 -1       326    8    0    1
 -2        87       244       243      1554      1555      1550
 -1       327    8    0    1
 -2        88        89       245      1234      1556      1557
 -1       328    8    0    1
 -2        88       245       244      1557      1558      1553
 -1       329    8    0    1
 -2        89        90       246      1235      1559      1560
 -1       330    8    0    1
 -2        89       246       245      1560      1561      1556
 -1       331    8    0    1
 -2        90        91       247      1236      1562      1563
 -1       332    8    0    1
 -2        90       247       246      1563      1564      1559
 -1       333    8    0    1
 -2        91        92       248      1237      1565      1566
 -1       334    8    0    1
 -2        91       248       247      1566      1567      1562
 -1       335    8    0    1
 -2        92        93       249      1238      1568      1569
 -1       336    8    0    1
 -2        92       249       248      1569      1570      1565
 -1       337    8    0    1
 -2        93        94       250      1239      1571      1572
 -1       338    8    0    1
 -2        93       250       249      1572      1573      1568
 -1       339    8    0    1
 -2        94        95       251      1240      1574      1575
 -1       340    8    0    1
 -2        94       251       250      1575      1576      1571
 -1       341    8    0    1
 -2        95        96       252      1241      1577      1578
 -1       342    8    0    1
 -2        95       252       251      1578      1579      1574
 -1       343    8    0    1
 -2        96        97       253      1242      1580      1581
 -1       344    8    0    1
 -2        96       253       252      1581      1582      1577
 -1       345    8    0    1
 -2        97        98       254      1243      1583      1584
 -1       346    8    0    1
 -2        97       254       253      1584      1585      1580
 -1       347    8    0    1
 -2        98        99       255      1244      1586      1587
 -1       348    8    0    1
 -2        98       255       254      1587      1588      1583
 -1       349    8    0    1
 -2        99       100       256      1245      1589      1590
 -1       350    8    0    1
 -2        99       256       255      1590      1591      1586
 -1       351    8    0    1
 -2       100       101       257      1246      1592      1593
 -1       352    8    0    1
 -2       100       257       256      1593      1594      1589
 -1       353    8    0    1
 -2       101       102       258      1247      1595      1596
 -1       354    8    0    1
 -2       101       258       257      1596      1597      1592
 -1       355    8    0    1
 -2       102       103       259      1248      1598      1599
 -1       356    8    0    1
 -2       102       259       258      1599      1600      1595
 -1       357    8    0    1
 -2       103       104       260      1249      1601      1602
 -1       358    8    0    1
 -2       103       260       259      1602      1603      1598
 -1       359    8    0    1
 -2       104       105       261      1250      1604      1605
 -1       360    8    0    1
 -2       104       261       260      1605      1606      1601
 -1       361    8    0    1
 -2       105       106       262      1251      1607      1608
 -1       362    8    0    1
 -2       105       262       261      1608      1609      1604
 -1       363    8    0    1
 -2       106       107       263      1252      1610      1611
 -1       364    8    0    1
 -2       106       263       262      1611      1612      1607
 -1       365    8    0    1
 -2       107       108       264      1253      1613      1614
 -1       366    8    0    1
 -2       107       264       263      1614      1615      1610
 -1       367    8    0    1
 -2       108       109       265      1254      1616      1617
 -1       368    8    0    1
 -2       108       265       264      1617      1618      1613
 -1       369    8    0    1
 -2       109       110       266      1255      1619      1620
 -1       370    8    0    1
 -2       109       266       265      1620      1621      1616
 -1       371    8    0    1
 -2       110       111       267      1256      1622      1623
 -1       372    8    0    1
 -2       110       267       266      1623      1624      1619
 -1       373    8    0    1
 -2       111       112       268      1257      1625      1626
 -1       374    8    0    1
 -2       111       268       267      1626      1627      1622
 -1       375    8    0    1
 -2       112       113       269      1258      1628      1629
 -1       376    8    0    1
 -2       112       269       268      1629      1630      1625
 -1       377    8    0    1
 -2       113       114       270      1259      1631      1632
 -1       378    8    0    1
 -2       113       270       269      1632      1633      1628
 -1       379    8    0    1
 -2       114       115       271      1260      1634      1635
 -1       380    8    0    1
 -2       114       271       270      1635      1636      1631
 -1       381    8    0    1
 -2       115       116       272      1261      1637      1638
 -1       382    8    0    1
 -2       115       272       271      1638      1639      1634
 -1       383    8    0    1
 -2       116       117       273      1262      1640      1641
 -1       384    8    0    1
 -2       116       273       272      1641      1642      1637
 -1       385    8    0    1
 -2       117       118       274      1263      1643      1644
 -1       386    8    0    1
 -2       117       274       273      1644      1645      1640
 -1       387    8    0    1
 -2       118       119       275      1264      1646      1647
 -1       388    8    0    1
 -2       118       275       274      1647      1648      1643
 -1       389    8    0    1
 -2       119       120       276      1265      1649      1650
 -1       390    8    0    1
 -2       119       276       275      1650      1651      1646
 -1       391    8    0    1
 -2       120         3       121      1266      1267      1652
 -1       392    8    0    1
 -2       121       122       277      1268      1653      1654
 -1       393    8    0    1
 -2       122       123       278      1269      1655      1656
 -1       394    8    0    1
 -2       122       278       277      1656      1657      1653
 -1       395    8    0    1
 -2       123       124       279      1270      1658      1659
 -1       396    8    0    1
 -2       123       279       278      1659      1660      1655
 -1       397    8    0    1
 -2       124       125       280      1271      1661      1662
 -1       398    8    0    1
 -2       124       280       279      1662      1663      1658
 -1       399    8    0    1
 -2       125       126       281      1272      1664      1665
 -1       400    8    0    1
 -2       125       281       280      1665      1666      1661
 -1       401    8    0    1
 -2       126       127       282      1273      1667      1668
 -1       402    8    0    1
 -2       126       282       281      1668      1669      1664
 -1       403    8    0    1
 -2       127       128       283      1274      1670      1671
 -1       404    8    0    1
 -2       127       283       282      1671      1672      1667
 -1       405    8    0    1
 -2       128       129       284      1275      1673      1674
 -1       406    8    0    1
 -2       128       284       283      1674      1675      1670
 -1       407    8    0    1
 -2       129       130       285      1276      1676      1677
 -1       408    8    0    1
 -2       129       285       284      1677      1678      1673
 -1       409    8    0    1
 -2       130       131       286      1277      1679      1680
 -1       410    8    0    1
 -2       130       286       285      1680      1681      1676
 -1       411    8    0    1
 -2       131       132       287      1278      1682      1683
 -1       412    8    0    1
 -2       131       287       286      1683      1684      1679
 -1       413    8    0    1
 -2       132       133       288      1279      1685      1686
 -1       414    8    0    1
 -2       132       288       287      1686      1687      1682
 -1       415    8    0    1
 -2       133       134       289      1280      1688      1689
 -1       416    8    0    1
 -2       133       289       288      1689      1690      1685
 -1       417    8    0    1
 -2       134       135       290      1281      1691      1692
 -1       418    8    0    1
 -2       134       290       289      1692      1693      1688
 -1       419    8    0    1
 -2       135       136       291      1282      1694      1695
 -1       420    8    0    1
 -2       290       135       291      1691      1695      1696
 -1       421    8    0    1
 -2       136       228       291      1507      1697      1694
 -1       422    8    0    1
 -2         2       137       292      1284      1698      1699
 -1       423    8    0    1
 -2       137       138       293      1285      1700      1701
 -1       424    8    0    1
 -2       138       139       294      1286      1702      1703
 -1       425    8    0    1
 -2       139       140       295      1287      1704      1705
 -1       426    8    0    1
 -2       140       141       296      1288      1706      1707
 -1       427    8    0    1
 -2       141       142       297      1289      1708      1709
 -1       428    8    0    1
 -2       142       143       298      1290      1710      1711
 -1       429    8    0    1
 -2       143       144       299      1291      1712      1713
 -1       430    8    0    1
 -2       144       145       300      1292      1714      1715
 -1       431    8    0    1
 -2       145       146       301      1293      1716      1717
 -1       432    8    0    1
 -2       146       147       302      1294      1718      1719
 -1       433    8    0    1
 -2       147       148       303      1295      1720      1721
 -1       434    8    0    1
 -2       148       149       304      1296      1722      1723
 -1       435    8    0    1
 -2       149       150       305      1297      1724      1725
 -1       436    8    0    1
 -2       150       151       306      1298      1726      1727
 -1       437    8    0    1
 -2       151       152       307      1299      1728      1729
 -1       438    8    0    1
 -2       152       153       308      1300      1730      1731
 -1       439    8    0    1
 -2       153       154       309      1301      1732      1733
 -1       440    8    0    1
 -2       154       155       310      1302      1734      1735
 -1       441    8    0    1
 -2       155       156       311      1303      1736      1737
 -1       442    8    0    1
 -2       156       157       312      1304      1738      1739
 -1       443    8    0    1
 -2       157         1       313      1305      1740      1741
 -1       444    8    0    1
 -2         1       158       314      1306      1742      1743
 -1       445    8    0    1
 -2       158       159       315      1307      1744      1745
 -1       446    8    0    1
 -2       159       160       316      1308      1746      1747
 -1       447    8    0    1
 -2       160       161       317      1309      1748      1749
 -1       448    8    0    1
 -2       161       162       318      1310      1750      1751
 -1       449    8    0    1
 -2       162       163       319      1311      1752      1753
 -1       450    8    0    1
 -2       163       164       320      1312      1754      1755
 -1       451    8    0    1
 -2       164         2       321      1313      1756      1757
 -1       452    8    0    1
 -2       295       140       296      1704      1707      1758
 -1       453    8    0    1
 -2       294       139       295      1702      1705      1759
 -1       454    8    0    1
 -2       120       121       276      1652      1760      1649
 -1       455    8    0    1
 -2       121       277       276      1654      1761      1760
 -1       456    8    0    1
 -2       292       137       293      1698      1701      1762
 -1       457    8    0    1
 -2       293       138       294      1700      1703      1763
 -1       458    8    0    1
 -2         2       292       321      1699      1764      1756
 -1       459    8    0    1
 -2       141       297       296      1709      1765      1706
 -1       460    8    0    1
 -2       142       298       297      1711      1766      1708
 -1       461    8    0    1
 -2       143       299       298      1713      1767      1710
 -1       462    8    0    1
 -2       144       300       299      1715      1768      1712
 -1       463    8    0    1
 -2       145       301       300      1717      1769      1714
 -1       464    8    0    1
 -2       146       302       301      1719      1770      1716
 -1       465    8    0    1
 -2       147       303       302      1721      1771      1718
 -1       466    8    0    1
 -2       148       304       303      1723      1772      1720
 -1       467    8    0    1
 -2       149       305       304      1725      1773      1722
 -1       468    8    0    1
 -2       150       306       305      1727      1774      1724
 -1       469    8    0    1
 -2       151       307       306      1729      1775      1726
 -1       470    8    0    1
 -2       152       308       307      1731      1776      1728
 -1       471    8    0    1
 -2       153       309       308      1733      1777      1730
 -1       472    8    0    1
 -2       154       310       309      1735      1778      1732
 -1       473    8    0    1
 -2       155       311       310      1737      1779      1734
 -1       474    8    0    1
 -2       156       312       311      1739      1780      1736
 -1       475    8    0    1
 -2       157       313       312      1741      1781      1738
 -1       476    8    0    1
 -2         1       314       313      1743      1782      1740
 -1       477    8    0    1
 -2       158       315       314      1745      1783      1742
 -1       478    8    0    1
 -2       159       316       315      1747      1784      1744
 -1       479    8    0    1
 -2       160       317       316      1749      1785      1746
 -1       480    8    0    1
 -2       161       318       317      1751      1786      1748
 -1       481    8    0    1
 -2       162       319       318      1753      1787      1750
 -1       482    8    0    1
 -2       163       320       319      1755      1788      1752
 -1       483    8    0    1
 -2       164       321       320      1757      1789      1754
 -1       484    8    0    1
 -2        23         7       165      1314      1316      1790
 -1       485    8    0    1
 -2       166       167       322      1322      1791      1792
 -1       486    8    0    1
 -2       165       166       323      1319      1793      1794
 -1       487    8    0    1
 -2       166       322       323      1792      1795      1793
 -1       488    8    0    1
 -2       168       169       324      1328      1796      1797
 -1       489    8    0    1
 -2       169       170       325      1331      1798      1799
 -1       490    8    0    1
 -2       169       325       324      1799      1800      1796
 -1       491    8    0    1
 -2       170       171       326      1334      1801      1802
 -1       492    8    0    1
 -2       170       326       325      1802      1803      1798
 -1       493    8    0    1
 -2       171       172       327      1337      1804      1805
 -1       494    8    0    1
 -2       171       327       326      1805      1806      1801
 -1       495    8    0    1
 -2       172       173       328      1340      1807      1808
 -1       496    8    0    1
 -2       172       328       327      1808      1809      1804
 -1       497    8    0    1
 -2       173       174       329      1343      1810      1811
 -1       498    8    0    1
 -2       173       329       328      1811      1812      1807
 -1       499    8    0    1
 -2       174       175       330      1346      1813      1814
 -1       500    8    0    1
 -2       174       330       329      1814      1815      1810
 -1       501    8    0    1
 -2       175       176       331      1349      1816      1817
 -1       502    8    0    1
 -2       175       331       330      1817      1818      1813
 -1       503    8    0    1
 -2       176       177       332      1352      1819      1820
 -1       504    8    0    1
 -2       176       332       331      1820      1821      1816
 -1       505    8    0    1
 -2       177       178       333      1355      1822      1823
 -1       506    8    0    1
 -2       177       333       332      1823      1824      1819
 -1       507    8    0    1
 -2       178       179       334      1358      1825      1826
 -1       508    8    0    1
 -2       178       334       333      1826      1827      1822
 -1       509    8    0    1
 -2       179       180       335      1361      1828      1829
 -1       510    8    0    1
 -2       334       179       335      1825      1829      1830
 -1       511    8    0    1
 -2       180       229       335      1510      1831      1828
 -1       512    8    0    1
 -2       181        23       165      1363      1790      1832
 -1       513    8    0    1
 -2       229       230       336      1513      1833      1834
 -1       514    8    0    1
 -2       229       336       335      1834      1835      1831
 -1       515    8    0    1
 -2       181       165       323      1832      1794      1836
 -1       516    8    0    1
 -2       183       182       337      1370      1837      1838
 -1       517    8    0    1
 -2       184       183       338      1373      1839      1840
 -1       518    8    0    1
 -2       183       337       338      1838      1841      1839
 -1       519    8    0    1
 -2       185       184       339      1376      1842      1843
 -1       520    8    0    1
 -2       184       338       339      1840      1844      1842
 -1       521    8    0    1
 -2       186       185       340      1379      1845      1846
 -1       522    8    0    1
 -2       185       339       340      1843      1847      1845
 -1       523    8    0    1
 -2       187       186       341      1382      1848      1849
 -1       524    8    0    1
 -2       186       340       341      1846      1850      1848
 -1       525    8    0    1
 -2       188       187       342      1385      1851      1852
 -1       526    8    0    1
 -2       187       341       342      1849      1853      1851
 -1       527    8    0    1
 -2       189       188       343      1388      1854      1855
 -1       528    8    0    1
 -2       188       342       343      1852      1856      1854
 -1       529    8    0    1
 -2       190       189       344      1391      1857      1858
 -1       530    8    0    1
 -2       189       343       344      1855      1859      1857
 -1       531    8    0    1
 -2       191       190       345      1394      1860      1861
 -1       532    8    0    1
 -2       190       344       345      1858      1862      1860
 -1       533    8    0    1
 -2       192       191       346      1397      1863      1864
 -1       534    8    0    1
 -2       191       345       346      1861      1865      1863
 -1       535    8    0    1
 -2       193       192       347      1400      1866      1867
 -1       536    8    0    1
 -2       192       346       347      1864      1868      1866
 -1       537    8    0    1
 -2       194       193       348      1403      1869      1870
 -1       538    8    0    1
 -2       193       347       348      1867      1871      1869
 -1       539    8    0    1
 -2       195       194       349      1406      1872      1873
 -1       540    8    0    1
 -2       194       348       349      1870      1874      1872
 -1       541    8    0    1
 -2       196       195       350      1409      1875      1876
 -1       542    8    0    1
 -2       195       349       350      1873      1877      1875
 -1       543    8    0    1
 -2       197       196       351      1412      1878      1879
 -1       544    8    0    1
 -2       196       350       351      1876      1880      1878
 -1       545    8    0    1
 -2       198       197       352      1415      1881      1882
 -1       546    8    0    1
 -2       197       351       352      1879      1883      1881
 -1       547    8    0    1
 -2       199       198       353      1418      1884      1885
 -1       548    8    0    1
 -2       198       352       353      1882      1886      1884
 -1       549    8    0    1
 -2       200       199       354      1421      1887      1888
 -1       550    8    0    1
 -2       199       353       354      1885      1889      1887
 -1       551    8    0    1
 -2       201       200       355      1424      1890      1891
 -1       552    8    0    1
 -2       200       354       355      1888      1892      1890
 -1       553    8    0    1
 -2       202       201       356      1427      1893      1894
 -1       554    8    0    1
 -2       201       355       356      1891      1895      1893
 -1       555    8    0    1
 -2       203       202       357      1430      1896      1897
 -1       556    8    0    1
 -2       202       356       357      1894      1898      1896
 -1       557    8    0    1
 -2       204       203       358      1433      1899      1900
 -1       558    8    0    1
 -2       203       357       358      1897      1901      1899
 -1       559    8    0    1
 -2       205       204       359      1436      1902      1903
 -1       560    8    0    1
 -2       204       358       359      1900      1904      1902
 -1       561    8    0    1
 -2       206       205       360      1439      1905      1906
 -1       562    8    0    1
 -2       205       359       360      1903      1907      1905
 -1       563    8    0    1
 -2       207       206       361      1442      1908      1909
 -1       564    8    0    1
 -2       206       360       361      1906      1910      1908
 -1       565    8    0    1
 -2       208       207       362      1445      1911      1912
 -1       566    8    0    1
 -2       207       361       362      1909      1913      1911
 -1       567    8    0    1
 -2       209       208       363      1448      1914      1915
 -1       568    8    0    1
 -2       208       362       363      1912      1916      1914
 -1       569    8    0    1
 -2       210       209       364      1451      1917      1918
 -1       570    8    0    1
 -2       209       363       364      1915      1919      1917
 -1       571    8    0    1
 -2       211       210       365      1454      1920      1921
 -1       572    8    0    1
 -2       210       364       365      1918      1922      1920
 -1       573    8    0    1
 -2       212       211       366      1457      1923      1924
 -1       574    8    0    1
 -2       211       365       366      1921      1925      1923
 -1       575    8    0    1
 -2       213       212       367      1460      1926      1927
 -1       576    8    0    1
 -2       212       366       367      1924      1928      1926
 -1       577    8    0    1
 -2       214       213       368      1463      1929      1930
 -1       578    8    0    1
 -2       213       367       368      1927      1931      1929
 -1       579    8    0    1
 -2       215       214       369      1466      1932      1933
 -1       580    8    0    1
 -2       214       368       369      1930      1934      1932
 -1       581    8    0    1
 -2       216       215       370      1469      1935      1936
 -1       582    8    0    1
 -2       215       369       370      1933      1937      1935
 -1       583    8    0    1
 -2       217       216       371      1472      1938      1939
 -1       584    8    0    1
 -2       216       370       371      1936      1940      1938
 -1       585    8    0    1
 -2       218       217       372      1475      1941      1942
 -1       586    8    0    1
 -2       217       371       372      1939      1943      1941
 -1       587    8    0    1
 -2       219       218       373      1478      1944      1945
 -1       588    8    0    1
 -2       218       372       373      1942      1946      1944
 -1       589    8    0    1
 -2       220       219       374      1481      1947      1948
 -1       590    8    0    1
 -2       219       373       374      1945      1949      1947
 -1       591    8    0    1
 -2       221       220       375      1484      1950      1951
 -1       592    8    0    1
 -2       220       374       375      1948      1952      1950
 -1       593    8    0    1
 -2       222       221       376      1487      1953      1954
 -1       594    8    0    1
 -2       221       375       376      1951      1955      1953
 -1       595    8    0    1
 -2       223       222       377      1490      1956      1957
 -1       596    8    0    1
 -2       222       376       377      1954      1958      1956
 -1       597    8    0    1
 -2       224       223       378      1493      1959      1960
 -1       598    8    0    1
 -2       223       377       378      1957      1961      1959
 -1       599    8    0    1
 -2       225       224       379      1496      1962      1963
 -1       600    8    0    1
 -2       224       378       379      1960      1964      1962
 -1       601    8    0    1
 -2       226       225       380      1499      1965      1966
 -1       602    8    0    1
 -2       225       379       380      1963      1967      1965
 -1       603    8    0    1
 -2       227       226       381      1502      1968      1969
 -1       604    8    0    1
 -2       226       380       381      1966      1970      1968
 -1       605    8    0    1
 -2       228       227       382      1505      1971      1972
 -1       606    8    0    1
 -2       291       228       382      1697      1972      1973
 -1       607    8    0    1
 -2       227       381       382      1969      1974      1971
 -1       608    8    0    1
 -2       230       231       383      1516      1975      1976
 -1       609    8    0    1
 -2       230       383       336      1976      1977      1833
 -1       610    8    0    1
 -2       231       232       384      1519      1978      1979
 -1       611    8    0    1
 -2       231       384       383      1979      1980      1975
 -1       612    8    0    1
 -2       232       233       385      1522      1981      1982
 -1       613    8    0    1
 -2       232       385       384      1982      1983      1978
 -1       614    8    0    1
 -2       233       234       386      1525      1984      1985
 -1       615    8    0    1
 -2       233       386       385      1985      1986      1981
 -1       616    8    0    1
 -2       234       235       387      1528      1987      1988
 -1       617    8    0    1
 -2       234       387       386      1988      1989      1984
 -1       618    8    0    1
 -2       235       236       388      1531      1990      1991
 -1       619    8    0    1
 -2       235       388       387      1991      1992      1987
 -1       620    8    0    1
 -2       236       237       389      1534      1993      1994
 -1       621    8    0    1
 -2       236       389       388      1994      1995      1990
 -1       622    8    0    1
 -2       237       238       390      1537      1996      1997
 -1       623    8    0    1
 -2       237       390       389      1997      1998      1993
 -1       624    8    0    1
 -2       238       239       391      1540      1999      2000
 -1       625    8    0    1
 -2       238       391       390      2000      2001      1996
 -1       626    8    0    1
 -2       239       240       392      1543      2002      2003
 -1       627    8    0    1
 -2       239       392       391      2003      2004      1999
 -1       628    8    0    1
 -2       240       241       393      1546      2005      2006
 -1       629    8    0    1
 -2       240       393       392      2006      2007      2002
 -1       630    8    0    1
 -2       241       242       394      1549      2008      2009
 -1       631    8    0    1
 -2       241       394       393      2009      2010      2005
 -1       632    8    0    1
 -2       242       243       395      1552      2011      2012
 -1       633    8    0    1
 -2       242       395       394      2012      2013      2008
 -1       634    8    0    1
 -2       243       244       396      1555      2014      2015
 -1       635    8    0    1
 -2       243       396       395      2015      2016      2011
 -1       636    8    0    1
 -2       244       245       397      1558      2017      2018
 -1       637    8    0    1
 -2       244       397       396      2018      2019      2014
 -1       638    8    0    1
 -2       245       246       398      1561      2020      2021
 -1       639    8    0    1
 -2       245       398       397      2021      2022      2017
 -1       640    8    0    1
 -2       246       247       399      1564      2023      2024
 -1       641    8    0    1
 -2       246       399       398      2024      2025      2020
 -1       642    8    0    1
 -2       247       248       400      1567      2026      2027
 -1       643    8    0    1
 -2       247       400       399      2027      2028      2023
 -1       644    8    0    1
 -2       248       249       401      1570      2029      2030
 -1       645    8    0    1
 -2       248       401       400      2030      2031      2026
 -1       646    8    0    1
 -2       249       250       402      1573      2032      2033
 -1       647    8    0    1
 -2       249       402       401      2033      2034      2029
 -1       648    8    0    1
 -2       250       251       403      1576      2035      2036
 -1       649    8    0    1
 -2       250       403       402      2036      2037      2032
 -1       650    8    0    1
 -2       251       252       404      1579      2038      2039
 -1       651    8    0    1
 -2       251       404       403      2039      2040      2035
 -1       652    8    0    1
 -2       252       253       405      1582      2041      2042
 -1       653    8    0    1
 -2       252       405       404      2042      2043      2038
 -1       654    8    0    1
 -2       253       254       406      1585      2044      2045
 -1       655    8    0    1
 -2       253       406       405      2045      2046      2041
 -1       656    8    0    1
 -2       254       255       407      1588      2047      2048
 -1       657    8    0    1
 -2       254       407       406      2048      2049      2044
 -1       658    8    0    1
 -2       255       256       408      1591      2050      2051
 -1       659    8    0    1
 -2       255       408       407      2051      2052      2047
 -1       660    8    0    1
 -2       256       257       409      1594      2053      2054
 -1       661    8    0    1
 -2       256       409       408      2054      2055      2050
 -1       662    8    0    1
 -2       257       258       410      1597      2056      2057
 -1       663    8    0    1
 -2       257       410       409      2057      2058      2053
 -1       664    8    0    1
 -2       258       259       411      1600      2059      2060
 -1       665    8    0    1
 -2       258       411       410      2060      2061      2056
 -1       666    8    0    1
 -2       259       260       412      1603      2062      2063
 -1       667    8    0    1
 -2       259       412       411      2063      2064      2059
 -1       668    8    0    1
 -2       260       261       413      1606      2065      2066
 -1       669    8    0    1
 -2       260       413       412      2066      2067      2062
 -1       670    8    0    1
 -2       261       262       414      1609      2068      2069
 -1       671    8    0    1
 -2       261       414       413      2069      2070      2065
 -1       672    8    0    1
 -2       262       263       415      1612      2071      2072
 -1       673    8    0    1
 -2       262       415       414      2072      2073      2068
 -1       674    8    0    1
 -2       263       264       416      1615      2074      2075
 -1       675    8    0    1
 -2       263       416       415      2075      2076      2071
 -1       676    8    0    1
 -2       264       265       417      1618      2077      2078
 -1       677    8    0    1
 -2       264       417       416      2078      2079      2074
 -1       678    8    0    1
 -2       265       266       418      1621      2080      2081
 -1       679    8    0    1
 -2       265       418       417      2081      2082      2077
 -1       680    8    0    1
 -2       266       267       419      1624      2083      2084
 -1       681    8    0    1
 -2       266       419       418      2084      2085      2080
 -1       682    8    0    1
 -2       267       268       420      1627      2086      2087
 -1       683    8    0    1
 -2       267       420       419      2087      2088      2083
 -1       684    8    0    1
 -2       268       269       421      1630      2089      2090
 -1       685    8    0    1
 -2       268       421       420      2090      2091      2086
 -1       686    8    0    1
 -2       269       270       422      1633      2092      2093
 -1       687    8    0    1
 -2       269       422       421      2093      2094      2089
 -1       688    8    0    1
 -2       270       271       423      1636      2095      2096
 -1       689    8    0    1
 -2       270       423       422      2096      2097      2092
 -1       690    8    0    1
 -2       271       272       424      1639      2098      2099
 -1       691    8    0    1
 -2       271       424       423      2099      2100      2095
 -1       692    8    0    1
 -2       272       273       425      1642      2101      2102
 -1       693    8    0    1
 -2       272       425       424      2102      2103      2098
 -1       694    8    0    1
 -2       273       274       426      1645      2104      2105
 -1       695    8    0    1
 -2       273       426       425      2105      2106      2101
 -1       696    8    0    1
 -2       274       275       427      1648      2107      2108
 -1       697    8    0    1
 -2       274       427       426      2108      2109      2104
 -1       698    8    0    1
 -2       275       276       428      1651      2110      2111
 -1       699    8    0    1
 -2       427       275       428      2107      2111      2112
 -1       700    8    0    1
 -2       276       277       428      1761      2113      2110
 -1       701    8    0    1
 -2       279       280       429      1663      2114      2115
 -1       702    8    0    1
 -2       278       279       430      1660      2116      2117
 -1       703    8    0    1
 -2       279       429       430      2115      2118      2116
 -1       704    8    0    1
 -2       277       278       431      1657      2119      2120
 -1       705    8    0    1
 -2       428       277       431      2113      2120      2121
 -1       706    8    0    1
 -2       278       430       431      2117      2122      2119
 -1       707    8    0    1
 -2       280       281       432      1666      2123      2124
 -1       708    8    0    1
 -2       280       432       429      2124      2125      2114
 -1       709    8    0    1
 -2       281       282       433      1669      2126      2127
 -1       710    8    0    1
 -2       281       433       432      2127      2128      2123
 -1       711    8    0    1
 -2       282       283       434      1672      2129      2130
 -1       712    8    0    1
 -2       282       434       433      2130      2131      2126
 -1       713    8    0    1
 -2       283       284       435      1675      2132      2133
 -1       714    8    0    1
 -2       283       435       434      2133      2134      2129
 -1       715    8    0    1
 -2       284       285       436      1678      2135      2136
 -1       716    8    0    1
 -2       284       436       435      2136      2137      2132
 -1       717    8    0    1
 -2       285       286       437      1681      2138      2139
 -1       718    8    0    1
 -2       285       437       436      2139      2140      2135
 -1       719    8    0    1
 -2       286       287       438      1684      2141      2142
 -1       720    8    0    1
 -2       286       438       437      2142      2143      2138
 -1       721    8    0    1
 -2       287       288       439      1687      2144      2145
 -1       722    8    0    1
 -2       287       439       438      2145      2146      2141
 -1       723    8    0    1
 -2       288       289       440      1690      2147      2148
 -1       724    8    0    1
 -2       288       440       439      2148      2149      2144
 -1       725    8    0    1
 -2       289       290       441      1693      2150      2151
 -1       726    8    0    1
 -2       289       441       440      2151      2152      2147
 -1       727    8    0    1
 -2       293       294       442      1763      2153      2154
 -1       728    8    0    1
 -2       321       292       443      1764      2155      2156
 -1       729    8    0    1
 -2       292       293       444      1762      2157      2158
 -1       730    8    0    1
 -2       292       444       443      2158      2159      2155
 -1       731    8    0    1
 -2       294       295       445      1759      2160      2161
 -1       732    8    0    1
 -2       295       296       446      1758      2162      2163
 -1       733    8    0    1
 -2       295       446       445      2163      2164      2160
 -1       734    8    0    1
 -2       167       168       447      1325      2165      2166
 -1       735    8    0    1
 -2       322       167       447      1791      2166      2167
 -1       736    8    0    1
 -2       168       324       447      1797      2168      2165
 -1       737    8    0    1
 -2       297       298       448      1766      2169      2170
 -1       738    8    0    1
 -2       298       299       449      1767      2171      2172
 -1       739    8    0    1
 -2       298       449       448      2172      2173      2169
 -1       740    8    0    1
 -2       299       300       450      1768      2174      2175
 -1       741    8    0    1
 -2       300       301       451      1769      2176      2177
 -1       742    8    0    1
 -2       301       302       452      1770      2178      2179
 -1       743    8    0    1
 -2       302       303       453      1771      2180      2181
 -1       744    8    0    1
 -2       303       304       454      1772      2182      2183
 -1       745    8    0    1
 -2       304       305       455      1773      2184      2185
 -1       746    8    0    1
 -2       304       455       454      2185      2186      2182
 -1       747    8    0    1
 -2       305       306       456      1774      2187      2188
 -1       748    8    0    1
 -2       306       307       457      1775      2189      2190
 -1       749    8    0    1
 -2       307       308       458      1776      2191      2192
 -1       750    8    0    1
 -2       308       309       459      1777      2193      2194
 -1       751    8    0    1
 -2       309       310       460      1778      2195      2196
 -1       752    8    0    1
 -2       310       311       461      1779      2197      2198
 -1       753    8    0    1
 -2       311       312       462      1780      2199      2200
 -1       754    8    0    1
 -2       312       313       463      1781      2201      2202
 -1       755    8    0    1
 -2       313       314       464      1782      2203      2204
 -1       756    8    0    1
 -2       314       315       465      1783      2205      2206
 -1       757    8    0    1
 -2       314       465       464      2206      2207      2203
 -1       758    8    0    1
 -2       315       316       466      1784      2208      2209
 -1       759    8    0    1
 -2       316       317       467      1785      2210      2211
 -1       760    8    0    1
 -2       316       467       466      2211      2212      2208
 -1       761    8    0    1
 -2       317       318       468      1786      2213      2214
 -1       762    8    0    1
 -2       318       319       469      1787      2215      2216
 -1       763    8    0    1
 -2       318       469       468      2216      2217      2213
 -1       764    8    0    1
 -2       319       320       470      1788      2218      2219
 -1       765    8    0    1
 -2       320       321       471      1789      2220      2221
 -1       766    8    0    1
 -2       320       471       470      2221      2222      2218
 -1       767    8    0    1
 -2       296       297       472      1765      2223      2224
 -1       768    8    0    1
 -2       446       296       472      2162      2224      2225
 -1       769    8    0    1
 -2       181       323       182      1836      2226      1367
 -1       770    8    0    1
 -2       451       301       452      2176      2179      2227
 -1       771    8    0    1
 -2       297       448       472      2170      2228      2223
 -1       772    8    0    1
 -2       337       182       323      1837      2226      2229
 -1       773    8    0    1
 -2       444       293       442      2157      2154      2230
 -1       774    8    0    1
 -2       294       445       442      2161      2231      2153
 -1       775    8    0    1
 -2       441       290       291      2150      1696      2232
 -1       776    8    0    1
 -2       321       443       471      2156      2233      2220
 -1       777    8    0    1
 -2       469       319       470      2215      2219      2234
 -1       778    8    0    1
 -2       467       317       468      2210      2214      2235
 -1       779    8    0    1
 -2       465       315       466      2205      2209      2236
 -1       780    8    0    1
 -2       463       313       464      2201      2204      2237
 -1       781    8    0    1
 -2       462       312       463      2199      2202      2238
 -1       782    8    0    1
 -2       461       311       462      2197      2200      2239
 -1       783    8    0    1
 -2       460       310       461      2195      2198      2240
 -1       784    8    0    1
 -2       459       309       460      2193      2196      2241
 -1       785    8    0    1
 -2       458       308       459      2191      2194      2242
 -1       786    8    0    1
 -2       457       307       458      2189      2192      2243
 -1       787    8    0    1
 -2       455       305       456      2184      2188      2244
 -1       788    8    0    1
 -2       453       303       473      2180      2245      2246
 -1       789    8    0    1
 -2       303       454       473      2183      2247      2245
 -1       790    8    0    1
 -2       452       302       453      2178      2181      2248
 -1       791    8    0    1
 -2       299       450       449      2175      2249      2171
 -1       792    8    0    1
 -2       450       300       474      2174      2250      2251
 -1       793    8    0    1
 -2       300       451       474      2177      2252      2250
 -1       794    8    0    1
 -2       456       306       457      2187      2190      2253
 -1       795    8    0    1
 -2       336       383       475      1977      2254      2255
 -1       796    8    0    1
 -2       325       326       476      1803      2256      2257
 -1       797    8    0    1
 -2       324       325       477      1800      2258      2259
 -1       798    8    0    1
 -2       325       476       477      2257      2260      2258
 -1       799    8    0    1
 -2       327       328       478      1809      2261      2262
 -1       800    8    0    1
 -2       328       329       479      1812      2263      2264
 -1       801    8    0    1
 -2       328       479       478      2264      2265      2261
 -1       802    8    0    1
 -2       329       330       480      1815      2266      2267
 -1       803    8    0    1
 -2       329       480       479      2267      2268      2263
 -1       804    8    0    1
 -2       330       331       481      1818      2269      2270
 -1       805    8    0    1
 -2       330       481       480      2270      2271      2266
 -1       806    8    0    1
 -2       331       332       482      1821      2272      2273
 -1       807    8    0    1
 -2       331       482       481      2273      2274      2269
 -1       808    8    0    1
 -2       332       333       483      1824      2275      2276
 -1       809    8    0    1
 -2       332       483       482      2276      2277      2272
 -1       810    8    0    1
 -2       383       384       484      1980      2278      2279
 -1       811    8    0    1
 -2       383       484       475      2279      2280      2254
 -1       812    8    0    1
 -2       338       337       485      1841      2281      2282
 -1       813    8    0    1
 -2       451       452       486      2227      2283      2284
 -1       814    8    0    1
 -2       339       338       487      1844      2285      2286
 -1       815    8    0    1
 -2       338       485       487      2282      2287      2285
 -1       816    8    0    1
 -2       340       339       488      1847      2288      2289
 -1       817    8    0    1
 -2       339       487       488      2286      2290      2288
 -1       818    8    0    1
 -2       341       340       489      1850      2291      2292
 -1       819    8    0    1
 -2       340       488       489      2289      2293      2291
 -1       820    8    0    1
 -2       342       341       490      1853      2294      2295
 -1       821    8    0    1
 -2       341       489       490      2292      2296      2294
 -1       822    8    0    1
 -2       343       342       491      1856      2297      2298
 -1       823    8    0    1
 -2       342       490       491      2295      2299      2297
 -1       824    8    0    1
 -2       344       343       492      1859      2300      2301
 -1       825    8    0    1
 -2       343       491       492      2298      2302      2300
 -1       826    8    0    1
 -2       345       344       493      1862      2303      2304
 -1       827    8    0    1
 -2       344       492       493      2301      2305      2303
 -1       828    8    0    1
 -2       346       345       494      1865      2306      2307
 -1       829    8    0    1
 -2       345       493       494      2304      2308      2306
 -1       830    8    0    1
 -2       347       346       495      1868      2309      2310
 -1       831    8    0    1
 -2       346       494       495      2307      2311      2309
 -1       832    8    0    1
 -2       348       347       496      1871      2312      2313
 -1       833    8    0    1
 -2       347       495       496      2310      2314      2312
 -1       834    8    0    1
 -2       349       348       497      1874      2315      2316
 -1       835    8    0    1
 -2       348       496       497      2313      2317      2315
 -1       836    8    0    1
 -2       350       349       498      1877      2318      2319
 -1       837    8    0    1
 -2       349       497       498      2316      2320      2318
 -1       838    8    0    1
 -2       351       350       499      1880      2321      2322
 -1       839    8    0    1
 -2       350       498       499      2319      2323      2321
 -1       840    8    0    1
 -2       352       351       500      1883      2324      2325
 -1       841    8    0    1
 -2       351       499       500      2322      2326      2324
 -1       842    8    0    1
 -2       353       352       501      1886      2327      2328
 -1       843    8    0    1
 -2       352       500       501      2325      2329      2327
 -1       844    8    0    1
 -2       354       353       502      1889      2330      2331
 -1       845    8    0    1
 -2       353       501       502      2328      2332      2330
 -1       846    8    0    1
 -2       355       354       503      1892      2333      2334
 -1       847    8    0    1
 -2       354       502       503      2331      2335      2333
 -1       848    8    0    1
 -2       356       355       504      1895      2336      2337
 -1       849    8    0    1
 -2       355       503       504      2334      2338      2336
 -1       850    8    0    1
 -2       357       356       505      1898      2339      2340
 -1       851    8    0    1
 -2       356       504       505      2337      2341      2339
 -1       852    8    0    1
 -2       358       357       506      1901      2342      2343
 -1       853    8    0    1
 -2       357       505       506      2340      2344      2342
 -1       854    8    0    1
 -2       359       358       507      1904      2345      2346
 -1       855    8    0    1
 -2       358       506       507      2343      2347      2345
 -1       856    8    0    1
 -2       360       359       508      1907      2348      2349
 -1       857    8    0    1
 -2       359       507       508      2346      2350      2348
 -1       858    8    0    1
 -2       361       360       509      1910      2351      2352
 -1       859    8    0    1
 -2       360       508       509      2349      2353      2351
 -1       860    8    0    1
 -2       362       361       510      1913      2354      2355
 -1       861    8    0    1
 -2       361       509       510      2352      2356      2354
 -1       862    8    0    1
 -2       363       362       511      1916      2357      2358
 -1       863    8    0    1
 -2       362       510       511      2355      2359      2357
 -1       864    8    0    1
 -2       364       363       512      1919      2360      2361
 -1       865    8    0    1
 -2       363       511       512      2358      2362      2360
 -1       866    8    0    1
 -2       365       364       513      1922      2363      2364
 -1       867    8    0    1
 -2       364       512       513      2361      2365      2363
 -1       868    8    0    1
 -2       366       365       514      1925      2366      2367
 -1       869    8    0    1
 -2       365       513       514      2364      2368      2366
 -1       870    8    0    1
 -2       367       366       515      1928      2369      2370
 -1       871    8    0    1
 -2       366       514       515      2367      2371      2369
 -1       872    8    0    1
 -2       368       367       516      1931      2372      2373
 -1       873    8    0    1
 -2       367       515       516      2370      2374      2372
 -1       874    8    0    1
 -2       369       368       517      1934      2375      2376
 -1       875    8    0    1
 -2       368       516       517      2373      2377      2375
 -1       876    8    0    1
 -2       370       369       518      1937      2378      2379
 -1       877    8    0    1
 -2       369       517       518      2376      2380      2378
 -1       878    8    0    1
 -2       371       370       519      1940      2381      2382
 -1       879    8    0    1
 -2       370       518       519      2379      2383      2381
 -1       880    8    0    1
 -2       372       371       520      1943      2384      2385
 -1       881    8    0    1
 -2       371       519       520      2382      2386      2384
 -1       882    8    0    1
 -2       373       372       521      1946      2387      2388
 -1       883    8    0    1
 -2       372       520       521      2385      2389      2387
 -1       884    8    0    1
 -2       374       373       522      1949      2390      2391
 -1       885    8    0    1
 -2       373       521       522      2388      2392      2390
 -1       886    8    0    1
 -2       375       374       523      1952      2393      2394
 -1       887    8    0    1
 -2       374       522       523      2391      2395      2393
 -1       888    8    0    1
 -2       376       375       524      1955      2396      2397
 -1       889    8    0    1
 -2       375       523       524      2394      2398      2396
 -1       890    8    0    1
 -2       377       376       525      1958      2399      2400
 -1       891    8    0    1
 -2       376       524       525      2397      2401      2399
 -1       892    8    0    1
 -2       378       377       526      1961      2402      2403
 -1       893    8    0    1
 -2       377       525       526      2400      2404      2402
 -1       894    8    0    1
 -2       379       378       527      1964      2405      2406
 -1       895    8    0    1
 -2       378       526       527      2403      2407      2405
 -1       896    8    0    1
 -2       380       379       528      1967      2408      2409
 -1       897    8    0    1
 -2       379       527       528      2406      2410      2408
 -1       898    8    0    1
 -2       381       380       529      1970      2411      2412
 -1       899    8    0    1
 -2       380       528       529      2409      2413      2411
 -1       900    8    0    1
 -2       385       386       530      1986      2414      2415
 -1       901    8    0    1
 -2       386       387       531      1989      2416      2417
 -1       902    8    0    1
 -2       386       531       530      2417      2418      2414
 -1       903    8    0    1
 -2       387       388       532      1992      2419      2420
 -1       904    8    0    1
 -2       387       532       531      2420      2421      2416
 -1       905    8    0    1
 -2       388       389       533      1995      2422      2423
 -1       906    8    0    1
 -2       388       533       532      2423      2424      2419
 -1       907    8    0    1
 -2       389       390       534      1998      2425      2426
 -1       908    8    0    1
 -2       389       534       533      2426      2427      2422
 -1       909    8    0    1
 -2       390       391       535      2001      2428      2429
 -1       910    8    0    1
 -2       390       535       534      2429      2430      2425
 -1       911    8    0    1
 -2       391       392       536      2004      2431      2432
 -1       912    8    0    1
 -2       391       536       535      2432      2433      2428
 -1       913    8    0    1
 -2       392       393       537      2007      2434      2435
 -1       914    8    0    1
 -2       392       537       536      2435      2436      2431
 -1       915    8    0    1
 -2       393       394       538      2010      2437      2438
 -1       916    8    0    1
 -2       393       538       537      2438      2439      2434
 -1       917    8    0    1
 -2       394       395       539      2013      2440      2441
 -1       918    8    0    1
 -2       394       539       538      2441      2442      2437
 -1       919    8    0    1
 -2       395       396       540      2016      2443      2444
 -1       920    8    0    1
 -2       395       540       539      2444      2445      2440
 -1       921    8    0    1
 -2       396       397       541      2019      2446      2447
 -1       922    8    0    1
 -2       396       541       540      2447      2448      2443
 -1       923    8    0    1
 -2       397       398       542      2022      2449      2450
 -1       924    8    0    1
 -2       397       542       541      2450      2451      2446
 -1       925    8    0    1
 -2       398       399       543      2025      2452      2453
 -1       926    8    0    1
 -2       398       543       542      2453      2454      2449
 -1       927    8    0    1
 -2       399       400       544      2028      2455      2456
 -1       928    8    0    1
 -2       399       544       543      2456      2457      2452
 -1       929    8    0    1
 -2       400       401       545      2031      2458      2459
 -1       930    8    0    1
 -2       400       545       544      2459      2460      2455
 -1       931    8    0    1
 -2       401       402       546      2034      2461      2462
 -1       932    8    0    1
 -2       401       546       545      2462      2463      2458
 -1       933    8    0    1
 -2       402       403       547      2037      2464      2465
 -1       934    8    0    1
 -2       402       547       546      2465      2466      2461
 -1       935    8    0    1
 -2       403       404       548      2040      2467      2468
 -1       936    8    0    1
 -2       403       548       547      2468      2469      2464
 -1       937    8    0    1
 -2       404       405       549      2043      2470      2471
 -1       938    8    0    1
 -2       404       549       548      2471      2472      2467
 -1       939    8    0    1
 -2       405       406       550      2046      2473      2474
 -1       940    8    0    1
 -2       405       550       549      2474      2475      2470
 -1       941    8    0    1
 -2       406       407       551      2049      2476      2477
 -1       942    8    0    1
 -2       406       551       550      2477      2478      2473
 -1       943    8    0    1
 -2       407       408       552      2052      2479      2480
 -1       944    8    0    1
 -2       407       552       551      2480      2481      2476
 -1       945    8    0    1
 -2       408       409       553      2055      2482      2483
 -1       946    8    0    1
 -2       408       553       552      2483      2484      2479
 -1       947    8    0    1
 -2       409       410       554      2058      2485      2486
 -1       948    8    0    1
 -2       409       554       553      2486      2487      2482
 -1       949    8    0    1
 -2       410       411       555      2061      2488      2489
 -1       950    8    0    1
 -2       410       555       554      2489      2490      2485
 -1       951    8    0    1
 -2       411       412       556      2064      2491      2492
 -1       952    8    0    1
 -2       411       556       555      2492      2493      2488
 -1       953    8    0    1
 -2       412       413       557      2067      2494      2495
 -1       954    8    0    1
 -2       412       557       556      2495      2496      2491
 -1       955    8    0    1
 -2       413       414       558      2070      2497      2498
 -1       956    8    0    1
 -2       413       558       557      2498      2499      2494
 -1       957    8    0    1
 -2       414       415       559      2073      2500      2501
 -1       958    8    0    1
 -2       414       559       558      2501      2502      2497
 -1       959    8    0    1
 -2       415       416       560      2076      2503      2504
 -1       960    8    0    1
 -2       415       560       559      2504      2505      2500
 -1       961    8    0    1
 -2       416       417       561      2079      2506      2507
 -1       962    8    0    1
 -2       416       561       560      2507      2508      2503
 -1       963    8    0    1
 -2       417       418       562      2082      2509      2510
 -1       964    8    0    1
 -2       417       562       561      2510      2511      2506
 -1       965    8    0    1
 -2       418       419       563      2085      2512      2513
 -1       966    8    0    1
 -2       418       563       562      2513      2514      2509
 -1       967    8    0    1
 -2       419       420       564      2088      2515      2516
 -1       968    8    0    1
 -2       419       564       563      2516      2517      2512
 -1       969    8    0    1
 -2       420       421       565      2091      2518      2519
 -1       970    8    0    1
 -2       420       565       564      2519      2520      2515
 -1       971    8    0    1
 -2       421       422       566      2094      2521      2522
 -1       972    8    0    1
 -2       421       566       565      2522      2523      2518
 -1       973    8    0    1
 -2       422       423       567      2097      2524      2525
 -1       974    8    0    1
 -2       422       567       566      2525      2526      2521
 -1       975    8    0    1
 -2       423       424       568      2100      2527      2528
 -1       976    8    0    1
 -2       423       568       567      2528      2529      2524
 -1       977    8    0    1
 -2       424       425       569      2103      2530      2531
 -1       978    8    0    1
 -2       424       569       568      2531      2532      2527
 -1       979    8    0    1
 -2       425       426       570      2106      2533      2534
 -1       980    8    0    1
 -2       425       570       569      2534      2535      2530
 -1       981    8    0    1
 -2       426       427       571      2109      2536      2537
 -1       982    8    0    1
 -2       426       571       570      2537      2538      2533
 -1       983    8    0    1
 -2       427       428       431      2112      2121      2539
 -1       984    8    0    1
 -2       432       433       572      2128      2540      2541
 -1       985    8    0    1
 -2       433       434       573      2131      2542      2543
 -1       986    8    0    1
 -2       433       573       572      2543      2544      2540
 -1       987    8    0    1
 -2       430       429       574      2118      2545      2546
 -1       988    8    0    1
 -2       429       432       575      2125      2547      2548
 -1       989    8    0    1
 -2       574       429       575      2545      2548      2549
 -1       990    8    0    1
 -2       432       572       575      2541      2550      2547
 -1       991    8    0    1
 -2       434       435       576      2134      2551      2552
 -1       992    8    0    1
 -2       434       576       573      2552      2553      2542
 -1       993    8    0    1
 -2       435       436       577      2137      2554      2555
 -1       994    8    0    1
 -2       435       577       576      2555      2556      2551
 -1       995    8    0    1
 -2       436       437       578      2140      2557      2558
 -1       996    8    0    1
 -2       436       578       577      2558      2559      2554
 -1       997    8    0    1
 -2       437       438       579      2143      2560      2561
 -1       998    8    0    1
 -2       437       579       578      2561      2562      2557
 -1       999    8    0    1
 -2       438       439       580      2146      2563      2564
 -1      1000    8    0    1
 -2       438       580       579      2564      2565      2560
 -1      1001    8    0    1
 -2       439       440       581      2149      2566      2567
 -1      1002    8    0    1
 -2       439       581       580      2567      2568      2563
 -1      1003    8    0    1
 -2       440       441       582      2152      2569      2570
 -1      1004    8    0    1
 -2       440       582       581      2570      2571      2566
 -1      1005    8    0    1
 -2       442       445       583      2231      2572      2573
 -1      1006    8    0    1
 -2       441       291       382      2232      1973      2574
 -1      1007    8    0    1
 -2       471       443       584      2233      2575      2576
 -1      1008    8    0    1
 -2       384       385       585      1983      2577      2578
 -1      1009    8    0    1
 -2       385       530       585      2415      2579      2577
 -1      1010    8    0    1
 -2       443       444       586      2159      2580      2581
 -1      1011    8    0    1
 -2       445       446       587      2164      2582      2583
 -1      1012    8    0    1
 -2       469       470       588      2234      2584      2585
 -1      1013    8    0    1
 -2       463       464       589      2237      2586      2587
 -1      1014    8    0    1
 -2       326       327       590      1806      2588      2589
 -1      1015    8    0    1
 -2       476       326       590      2256      2589      2590
 -1      1016    8    0    1
 -2       327       478       590      2262      2591      2588
 -1      1017    8    0    1
 -2       448       449       591      2173      2592      2593
 -1      1018    8    0    1
 -2       456       457       592      2253      2594      2595
 -1      1019    8    0    1
 -2       472       448       593      2228      2596      2597
 -1      1020    8    0    1
 -2       449       450       594      2249      2598      2599
 -1      1021    8    0    1
 -2       452       453       595      2248      2600      2601
 -1      1022    8    0    1
 -2       454       455       596      2186      2602      2603
 -1      1023    8    0    1
 -2       455       456       597      2244      2604      2605
 -1      1024    8    0    1
 -2       455       597       596      2605      2606      2602
 -1      1025    8    0    1
 -2       457       458       598      2243      2607      2608
 -1      1026    8    0    1
 -2       458       459       599      2242      2609      2610
 -1      1027    8    0    1
 -2       459       460       600      2241      2611      2612
 -1      1028    8    0    1
 -2       460       461       601      2240      2613      2614
 -1      1029    8    0    1
 -2       461       462       602      2239      2615      2616
 -1      1030    8    0    1
 -2       462       463       603      2238      2617      2618
 -1      1031    8    0    1
 -2       464       465       604      2207      2619      2620
 -1      1032    8    0    1
 -2       465       466       605      2236      2621      2622
 -1      1033    8    0    1
 -2       466       467       606      2212      2623      2624
 -1      1034    8    0    1
 -2       467       468       607      2235      2625      2626
 -1      1035    8    0    1
 -2       467       607       606      2626      2627      2623
 -1      1036    8    0    1
 -2       468       469       608      2217      2628      2629
 -1      1037    8    0    1
 -2       469       588       608      2585      2630      2628
 -1      1038    8    0    1
 -2       444       442       609      2230      2631      2632
 -1      1039    8    0    1
 -2       470       471       610      2222      2633      2634
 -1      1040    8    0    1
 -2       471       584       610      2576      2635      2633
 -1      1041    8    0    1
 -2       337       323       611      2229      2636      2637
 -1      1042    8    0    1
 -2       485       337       611      2281      2637      2638
 -1      1043    8    0    1
 -2       323       322       611      1795      2639      2636
 -1      1044    8    0    1
 -2       335       336       612      1835      2640      2641
 -1      1045    8    0    1
 -2       334       335       612      1830      2641      2642
 -1      1046    8    0    1
 -2       336       475       612      2255      2643      2640
 -1      1047    8    0    1
 -2       446       472       613      2225      2644      2645
 -1      1048    8    0    1
 -2       448       591       593      2593      2646      2596
 -1      1049    8    0    1
 -2       324       477       614      2259      2647      2648
 -1      1050    8    0    1
 -2       324       614       447      2648      2649      2168
 -1      1051    8    0    1
 -2       484       384       585      2278      2578      2650
 -1      1052    8    0    1
 -2       333       334       612      1827      2642      2651
 -1      1053    8    0    1
 -2       613       472       593      2644      2597      2652
 -1      1054    8    0    1
 -2       604       465       605      2619      2622      2653
 -1      1055    8    0    1
 -2       603       463       589      2617      2587      2654
 -1      1056    8    0    1
 -2       602       462       603      2615      2618      2655
 -1      1057    8    0    1
 -2       451       486       474      2284      2656      2252
 -1      1058    8    0    1
 -2       601       461       602      2613      2616      2657
 -1      1059    8    0    1
 -2       600       460       601      2611      2614      2658
 -1      1060    8    0    1
 -2       599       459       600      2609      2612      2659
 -1      1061    8    0    1
 -2       427       431       571      2539      2660      2536
 -1      1062    8    0    1
 -2       431       430       571      2122      2661      2660
 -1      1063    8    0    1
 -2       597       456       592      2604      2595      2662
 -1      1064    8    0    1
 -2       442       583       609      2573      2663      2631
 -1      1065    8    0    1
 -2       583       445       587      2572      2583      2664
 -1      1066    8    0    1
 -2       441       382       615      2574      2665      2666
 -1      1067    8    0    1
 -2       582       441       615      2569      2666      2667
 -1      1068    8    0    1
 -2       382       381       615      1974      2668      2665
 -1      1069    8    0    1
 -2       457       598       592      2608      2669      2594
 -1      1070    8    0    1
 -2       584       443       586      2575      2581      2670
 -1      1071    8    0    1
 -2       333       612       483      2651      2671      2275
 -1      1072    8    0    1
 -2       586       444       609      2580      2632      2672
 -1      1073    8    0    1
 -2       595       453       616      2600      2673      2674
 -1      1074    8    0    1
 -2       453       473       616      2246      2675      2673
 -1      1075    8    0    1
 -2       322       447       617      2167      2676      2677
 -1      1076    8    0    1
 -2       611       322       617      2639      2677      2678
 -1      1077    8    0    1
 -2       447       614       617      2649      2679      2676
 -1      1078    8    0    1
 -2       607       468       608      2625      2629      2680
 -1      1079    8    0    1
 -2       605       466       606      2621      2624      2681
 -1      1080    8    0    1
 -2       594       450       618      2598      2682      2683
 -1      1081    8    0    1
 -2       450       474       618      2251      2684      2682
 -1      1082    8    0    1
 -2       589       464       604      2586      2620      2685
 -1      1083    8    0    1
 -2       588       470       619      2584      2686      2687
 -1      1084    8    0    1
 -2       470       610       619      2634      2688      2686
 -1      1085    8    0    1
 -2       587       446       613      2582      2645      2689
 -1      1086    8    0    1
 -2       486       452       595      2283      2601      2690
 -1      1087    8    0    1
 -2       473       454       620      2247      2691      2692
 -1      1088    8    0    1
 -2       454       596       620      2603      2693      2691
 -1      1089    8    0    1
 -2       591       449       594      2592      2599      2694
 -1      1090    8    0    1
 -2       598       458       599      2607      2610      2695
 -1      1091    8    0    1
 -2       571       430       574      2661      2546      2696
 -1      1092    8    0    1
 -2       615       381       529      2668      2412      2697
 -1      1093    8    0    1
 -2       479       480       621      2268      2698      2699
 -1      1094    8    0    1
 -2       478       479       622      2265      2700      2701
 -1      1095    8    0    1
 -2       479       621       622      2699      2702      2700
 -1      1096    8    0    1
 -2       481       482       623      2274      2703      2704
 -1      1097    8    0    1
 -2       482       483       624      2277      2705      2706
 -1      1098    8    0    1
 -2       482       624       623      2706      2707      2703
 -1      1099    8    0    1
 -2       475       484       625      2280      2708      2709
 -1      1100    8    0    1
 -2       586       609       626      2672      2710      2711
 -1      1101    8    0    1
 -2       612       475       483      2643      2712      2671
 -1      1102    8    0    1
 -2       485       611       627      2638      2713      2714
 -1      1103    8    0    1
 -2       611       617       627      2678      2715      2713
 -1      1104    8    0    1
 -2       488       487       628      2290      2716      2717
 -1      1105    8    0    1
 -2       489       488       629      2293      2718      2719
 -1      1106    8    0    1
 -2       488       628       629      2717      2720      2718
 -1      1107    8    0    1
 -2       490       489       630      2296      2721      2722
 -1      1108    8    0    1
 -2       489       629       630      2719      2723      2721
 -1      1109    8    0    1
 -2       491       490       631      2299      2724      2725
 -1      1110    8    0    1
 -2       490       630       631      2722      2726      2724
 -1      1111    8    0    1
 -2       492       491       632      2302      2727      2728
 -1      1112    8    0    1
 -2       491       631       632      2725      2729      2727
 -1      1113    8    0    1
 -2       493       492       633      2305      2730      2731
 -1      1114    8    0    1
 -2       492       632       633      2728      2732      2730
 -1      1115    8    0    1
 -2       494       493       634      2308      2733      2734
 -1      1116    8    0    1
 -2       493       633       634      2731      2735      2733
 -1      1117    8    0    1
 -2       495       494       635      2311      2736      2737
 -1      1118    8    0    1
 -2       494       634       635      2734      2738      2736
 -1      1119    8    0    1
 -2       496       495       636      2314      2739      2740
 -1      1120    8    0    1
 -2       495       635       636      2737      2741      2739
 -1      1121    8    0    1
 -2       497       496       637      2317      2742      2743
 -1      1122    8    0    1
 -2       496       636       637      2740      2744      2742
 -1      1123    8    0    1
 -2       498       497       638      2320      2745      2746
 -1      1124    8    0    1
 -2       497       637       638      2743      2747      2745
 -1      1125    8    0    1
 -2       499       498       639      2323      2748      2749
 -1      1126    8    0    1
 -2       503       502       606      2335      2750      2751
 -1      1127    8    0    1
 -2       505       504       640      2341      2752      2753
 -1      1128    8    0    1
 -2       506       505       641      2344      2754      2755
 -1      1129    8    0    1
 -2       505       640       641      2753      2756      2754
 -1      1130    8    0    1
 -2       507       506       642      2347      2757      2758
 -1      1131    8    0    1
 -2       506       641       642      2755      2759      2757
 -1      1132    8    0    1
 -2       508       507       643      2350      2760      2761
 -1      1133    8    0    1
 -2       507       642       643      2758      2762      2760
 -1      1134    8    0    1
 -2       509       508       644      2353      2763      2764
 -1      1135    8    0    1
 -2       508       643       644      2761      2765      2763
 -1      1136    8    0    1
 -2       510       509       645      2356      2766      2767
 -1      1137    8    0    1
 -2       509       644       645      2764      2768      2766
 -1      1138    8    0    1
 -2       511       510       646      2359      2769      2770
 -1      1139    8    0    1
 -2       510       645       646      2767      2771      2769
 -1      1140    8    0    1
 -2       512       511       647      2362      2772      2773
 -1      1141    8    0    1
 -2       511       646       647      2770      2774      2772
 -1      1142    8    0    1
 -2       513       512       648      2365      2775      2776
 -1      1143    8    0    1
 -2       512       647       648      2773      2777      2775
 -1      1144    8    0    1
 -2       514       513       649      2368      2778      2779
 -1      1145    8    0    1
 -2       513       648       649      2776      2780      2778
 -1      1146    8    0    1
 -2       515       514       650      2371      2781      2782
 -1      1147    8    0    1
 -2       514       649       650      2779      2783      2781
 -1      1148    8    0    1
 -2       516       515       651      2374      2784      2785
 -1      1149    8    0    1
 -2       515       650       651      2782      2786      2784
 -1      1150    8    0    1
 -2       517       516       652      2377      2787      2788
 -1      1151    8    0    1
 -2       516       651       652      2785      2789      2787
 -1      1152    8    0    1
 -2       518       517       653      2380      2790      2791
 -1      1153    8    0    1
 -2       517       652       653      2788      2792      2790
 -1      1154    8    0    1
 -2       519       518       654      2383      2793      2794
 -1      1155    8    0    1
 -2       518       653       654      2791      2795      2793
 -1      1156    8    0    1
 -2       520       519       655      2386      2796      2797
 -1      1157    8    0    1
 -2       519       654       655      2794      2798      2796
 -1      1158    8    0    1
 -2       521       520       656      2389      2799      2800
 -1      1159    8    0    1
 -2       520       655       656      2797      2801      2799
 -1      1160    8    0    1
 -2       522       521       657      2392      2802      2803
 -1      1161    8    0    1
 -2       521       656       657      2800      2804      2802
 -1      1162    8    0    1
 -2       523       522       658      2395      2805      2806
 -1      1163    8    0    1
 -2       522       657       658      2803      2807      2805
 -1      1164    8    0    1
 -2       524       523       659      2398      2808      2809
 -1      1165    8    0    1
 -2       523       658       659      2806      2810      2808
 -1      1166    8    0    1
 -2       525       524       660      2401      2811      2812
 -1      1167    8    0    1
 -2       524       659       660      2809      2813      2811
 -1      1168    8    0    1
 -2       526       525       661      2404      2814      2815
 -1      1169    8    0    1
 -2       525       660       661      2812      2816      2814
 -1      1170    8    0    1
 -2       527       526       662      2407      2817      2818
 -1      1171    8    0    1
 -2       526       661       662      2815      2819      2817
 -1      1172    8    0    1
 -2       528       527       663      2410      2820      2821
 -1      1173    8    0    1
 -2       527       662       663      2818      2822      2820
 -1      1174    8    0    1
 -2       529       528       664      2413      2823      2824
 -1      1175    8    0    1
 -2       528       663       664      2821      2825      2823
 -1      1176    8    0    1
 -2       531       532       665      2421      2826      2827
 -1      1177    8    0    1
 -2       592       598       666      2669      2828      2829
 -1      1178    8    0    1
 -2       530       531       667      2418      2830      2831
 -1      1179    8    0    1
 -2       531       665       667      2827      2832      2830
 -1      1180    8    0    1
 -2       533       534       668      2427      2833      2834
 -1      1181    8    0    1
 -2       534       535       669      2430      2835      2836
 -1      1182    8    0    1
 -2       534       669       668      2836      2837      2833
 -1      1183    8    0    1
 -2       535       536       670      2433      2838      2839
 -1      1184    8    0    1
 -2       535       670       669      2839      2840      2835
 -1      1185    8    0    1
 -2       536       537       671      2436      2841      2842
 -1      1186    8    0    1
 -2       536       671       670      2842      2843      2838
 -1      1187    8    0    1
 -2       537       538       672      2439      2844      2845
 -1      1188    8    0    1
 -2       537       672       671      2845      2846      2841
 -1      1189    8    0    1
 -2       538       539       673      2442      2847      2848
 -1      1190    8    0    1
 -2       538       673       672      2848      2849      2844
 -1      1191    8    0    1
 -2       539       540       674      2445      2850      2851
 -1      1192    8    0    1
 -2       539       674       673      2851      2852      2847
 -1      1193    8    0    1
 -2       540       541       675      2448      2853      2854
 -1      1194    8    0    1
 -2       540       675       674      2854      2855      2850
 -1      1195    8    0    1
 -2       541       542       676      2451      2856      2857
 -1      1196    8    0    1
 -2       541       676       675      2857      2858      2853
 -1      1197    8    0    1
 -2       542       543       677      2454      2859      2860
 -1      1198    8    0    1
 -2       542       677       676      2860      2861      2856
 -1      1199    8    0    1
 -2       543       544       678      2457      2862      2863
 -1      1200    8    0    1
 -2       543       678       677      2863      2864      2859
 -1      1201    8    0    1
 -2       544       545       679      2460      2865      2866
 -1      1202    8    0    1
 -2       544       679       678      2866      2867      2862
 -1      1203    8    0    1
 -2       545       546       680      2463      2868      2869
 -1      1204    8    0    1
 -2       545       680       679      2869      2870      2865
 -1      1205    8    0    1
 -2       546       547       681      2466      2871      2872
 -1      1206    8    0    1
 -2       546       681       680      2872      2873      2868
 -1      1207    8    0    1
 -2       547       548       682      2469      2874      2875
 -1      1208    8    0    1
 -2       547       682       681      2875      2876      2871
 -1      1209    8    0    1
 -2       548       549       683      2472      2877      2878
 -1      1210    8    0    1
 -2       548       683       682      2878      2879      2874
 -1      1211    8    0    1
 -2       549       550       684      2475      2880      2881
 -1      1212    8    0    1
 -2       549       684       683      2881      2882      2877
 -1      1213    8    0    1
 -2       550       551       685      2478      2883      2884
 -1      1214    8    0    1
 -2       550       685       684      2884      2885      2880
 -1      1215    8    0    1
 -2       551       552       686      2481      2886      2887
 -1      1216    8    0    1
 -2       551       686       685      2887      2888      2883
 -1      1217    8    0    1
 -2       552       553       687      2484      2889      2890
 -1      1218    8    0    1
 -2       552       687       686      2890      2891      2886
 -1      1219    8    0    1
 -2       553       554       688      2487      2892      2893
 -1      1220    8    0    1
 -2       553       688       687      2893      2894      2889
 -1      1221    8    0    1
 -2       554       555       689      2490      2895      2896
 -1      1222    8    0    1
 -2       554       689       688      2896      2897      2892
 -1      1223    8    0    1
 -2       555       556       690      2493      2898      2899
 -1      1224    8    0    1
 -2       555       690       689      2899      2900      2895
 -1      1225    8    0    1
 -2       556       557       691      2496      2901      2902
 -1      1226    8    0    1
 -2       556       691       690      2902      2903      2898
 -1      1227    8    0    1
 -2       557       558       692      2499      2904      2905
 -1      1228    8    0    1
 -2       557       692       691      2905      2906      2901
 -1      1229    8    0    1
 -2       558       559       693      2502      2907      2908
 -1      1230    8    0    1
 -2       558       693       692      2908      2909      2904
 -1      1231    8    0    1
 -2       559       560       694      2505      2910      2911
 -1      1232    8    0    1
 -2       559       694       693      2911      2912      2907
 -1      1233    8    0    1
 -2       560       561       695      2508      2913      2914
 -1      1234    8    0    1
 -2       560       695       694      2914      2915      2910
 -1      1235    8    0    1
 -2       561       562       696      2511      2916      2917
 -1      1236    8    0    1
 -2       561       696       695      2917      2918      2913
 -1      1237    8    0    1
 -2       562       563       697      2514      2919      2920
 -1      1238    8    0    1
 -2       562       697       696      2920      2921      2916
 -1      1239    8    0    1
 -2       563       564       698      2517      2922      2923
 -1      1240    8    0    1
 -2       563       698       697      2923      2924      2919
 -1      1241    8    0    1
 -2       564       565       699      2520      2925      2926
 -1      1242    8    0    1
 -2       564       699       698      2926      2927      2922
 -1      1243    8    0    1
 -2       565       566       700      2523      2928      2929
 -1      1244    8    0    1
 -2       565       700       699      2929      2930      2925
 -1      1245    8    0    1
 -2       566       567       701      2526      2931      2932
 -1      1246    8    0    1
 -2       566       701       700      2932      2933      2928
 -1      1247    8    0    1
 -2       567       568       702      2529      2934      2935
 -1      1248    8    0    1
 -2       567       702       701      2935      2936      2931
 -1      1249    8    0    1
 -2       568       569       703      2532      2937      2938
 -1      1250    8    0    1
 -2       568       703       702      2938      2939      2934
 -1      1251    8    0    1
 -2       569       570       704      2535      2940      2941
 -1      1252    8    0    1
 -2       569       704       703      2941      2942      2937
 -1      1253    8    0    1
 -2       570       571       705      2538      2943      2944
 -1      1254    8    0    1
 -2       704       570       705      2940      2944      2945
 -1      1255    8    0    1
 -2       571       574       705      2696      2946      2943
 -1      1256    8    0    1
 -2       576       577       706      2556      2947      2948
 -1      1257    8    0    1
 -2       615       529       707      2697      2949      2950
 -1      1258    8    0    1
 -2       529       664       707      2824      2951      2949
 -1      1259    8    0    1
 -2       572       573       708      2544      2952      2953
 -1      1260    8    0    1
 -2       577       578       709      2559      2954      2955
 -1      1261    8    0    1
 -2       577       709       706      2955      2956      2947
 -1      1262    8    0    1
 -2       573       576       710      2553      2957      2958
 -1      1263    8    0    1
 -2       708       573       710      2952      2958      2959
 -1      1264    8    0    1
 -2       576       706       710      2948      2960      2957
 -1      1265    8    0    1
 -2       585       530       711      2579      2961      2962
 -1      1266    8    0    1
 -2       530       667       711      2831      2963      2961
 -1      1267    8    0    1
 -2       578       579       712      2562      2964      2965
 -1      1268    8    0    1
 -2       578       712       709      2965      2966      2954
 -1      1269    8    0    1
 -2       579       580       713      2565      2967      2968
 -1      1270    8    0    1
 -2       579       713       712      2968      2969      2964
 -1      1271    8    0    1
 -2       580       581       714      2568      2970      2971
 -1      1272    8    0    1
 -2       580       714       713      2971      2972      2967
 -1      1273    8    0    1
 -2       582       615       707      2667      2950      2973
 -1      1274    8    0    1
 -2       610       584       715      2635      2974      2975
 -1      1275    8    0    1
 -2       605       606       502      2681      2750      2976
 -1      1276    8    0    1
 -2       602       603       716      2655      2977      2978
 -1      1277    8    0    1
 -2       607       608       717      2680      2979      2980
 -1      1278    8    0    1
 -2       532       533       718      2424      2981      2982
 -1      1279    8    0    1
 -2       665       532       718      2826      2982      2983
 -1      1280    8    0    1
 -2       533       668       718      2834      2984      2981
 -1      1281    8    0    1
 -2       487       485       719      2287      2985      2986
 -1      1282    8    0    1
 -2       628       487       719      2716      2986      2987
 -1      1283    8    0    1
 -2       485       627       719      2714      2988      2985
 -1      1284    8    0    1
 -2       480       481       720      2271      2989      2990
 -1      1285    8    0    1
 -2       621       480       720      2698      2990      2991
 -1      1286    8    0    1
 -2       481       623       720      2704      2992      2989
 -1      1287    8    0    1
 -2       477       476       721      2260      2993      2994
 -1      1288    8    0    1
 -2       584       586       722      2670      2995      2996
 -1      1289    8    0    1
 -2       613       593       723      2652      2997      2998
 -1      1290    8    0    1
 -2       484       585       724      2650      2999      3000
 -1      1291    8    0    1
 -2       625       484       724      2708      3000      3001
 -1      1292    8    0    1
 -2       585       711       724      2962      3002      2999
 -1      1293    8    0    1
 -2       589       604       501      2685      3003      3004
 -1      1294    8    0    1
 -2       609       583       725      2663      3005      3006
 -1      1295    8    0    1
 -2       598       599       726      2695      3007      3008
 -1      1296    8    0    1
 -2       591       594       727      2694      3009      3010
 -1      1297    8    0    1
 -2       596       597       728      2606      3011      3012
 -1      1298    8    0    1
 -2       486       595       729      2690      3013      3014
 -1      1299    8    0    1
 -2       589       501       500      3004      2329      3015
 -1      1300    8    0    1
 -2       597       592       730      2662      3016      3017
 -1      1301    8    0    1
 -2       597       730       728      3017      3018      3011
 -1      1302    8    0    1
 -2       599       600       731      2659      3019      3020
 -1      1303    8    0    1
 -2       600       601       732      2658      3021      3022
 -1      1304    8    0    1
 -2       474       486       733      2656      3023      3024
 -1      1305    8    0    1
 -2       606       607       734      2627      3025      3026
 -1      1306    8    0    1
 -2       607       717       734      2980      3027      3025
 -1      1307    8    0    1
 -2       608       588       735      2630      3028      3029
 -1      1308    8    0    1
 -2       717       608       735      2979      3029      3030
 -1      1309    8    0    1
 -2       588       619       735      2687      3031      3028
 -1      1310    8    0    1
 -2       583       587       736      2664      3032      3033
 -1      1311    8    0    1
 -2       587       613       737      2689      3034      3035
 -1      1312    8    0    1
 -2       587       737       736      3035      3036      3032
 -1      1313    8    0    1
 -2       593       591       738      2646      3037      3038
 -1      1314    8    0    1
 -2       501       604       502      3003      3039      2332
 -1      1315    8    0    1
 -2       503       606       734      2751      3026      3040
 -1      1316    8    0    1
 -2       605       502       604      2976      3039      2653
 -1      1317    8    0    1
 -2       614       477       739      2647      3041      3042
 -1      1318    8    0    1
 -2       477       721       739      2994      3043      3041
 -1      1319    8    0    1
 -2       478       622       740      2701      3044      3045
 -1      1320    8    0    1
 -2       478       740       590      3045      3046      2591
 -1      1321    8    0    1
 -2       586       626       722      2711      3047      2995
 -1      1322    8    0    1
 -2       483       475       625      2712      2709      3048
 -1      1323    8    0    1
 -2       499       639       716      2749      3049      3050
 -1      1324    8    0    1
 -2       639       498       638      2748      2746      3051
 -1      1325    8    0    1
 -2       503       734       504      3040      3052      2338
 -1      1326    8    0    1
 -2       572       708       741      2953      3053      3054
 -1      1327    8    0    1
 -2       572       741       575      3054      3055      2550
 -1      1328    8    0    1
 -2       592       666       730      2829      3056      3016
 -1      1329    8    0    1
 -2       610       715       619      2975      3057      2688
 -1      1330    8    0    1
 -2       574       575       742      2549      3058      3059
 -1      1331    8    0    1
 -2       705       574       742      2946      3059      3060
 -1      1332    8    0    1
 -2       575       741       742      3055      3061      3058
 -1      1333    8    0    1
 -2       733       486       729      3023      3014      3062
 -1      1334    8    0    1
 -2       582       707       581      2973      3063      2571
 -1      1335    8    0    1
 -2       714       581       707      2970      3063      3064
 -1      1336    8    0    1
 -2       593       738       723      3038      3065      2997
 -1      1337    8    0    1
 -2       732       601       743      3021      3066      3067
 -1      1338    8    0    1
 -2       601       602       743      2657      3068      3066
 -1      1339    8    0    1
 -2       599       731       726      3020      3069      3007
 -1      1340    8    0    1
 -2       729       595       744      3013      3070      3071
 -1      1341    8    0    1
 -2       595       616       744      2674      3072      3070
 -1      1342    8    0    1
 -2       727       594       618      3009      2683      3073
 -1      1343    8    0    1
 -2       616       473       745      2675      3074      3075
 -1      1344    8    0    1
 -2       473       620       745      2692      3076      3074
 -1      1345    8    0    1
 -2       715       584       722      2974      2996      3077
 -1      1346    8    0    1
 -2       666       598       746      2828      3078      3079
 -1      1347    8    0    1
 -2       598       726       746      3008      3080      3078
 -1      1348    8    0    1
 -2       618       474       733      2684      3024      3081
 -1      1349    8    0    1
 -2       476       590       747      2590      3082      3083
 -1      1350    8    0    1
 -2       721       476       747      2993      3083      3084
 -1      1351    8    0    1
 -2       590       740       747      3046      3085      3082
 -1      1352    8    0    1
 -2       640       504       734      2752      3052      3086
 -1      1353    8    0    1
 -2       602       716       743      2978      3087      3068
 -1      1354    8    0    1
 -2       620       596       748      2693      3088      3089
 -1      1355    8    0    1
 -2       596       728       748      3012      3090      3088
 -1      1356    8    0    1
 -2       483       625       624      3048      3091      2705
 -1      1357    8    0    1
 -2       613       723       749      2998      3092      3093
 -1      1358    8    0    1
 -2       613       749       737      3093      3094      3034
 -1      1359    8    0    1
 -2       725       583       736      3005      3033      3095
 -1      1360    8    0    1
 -2       609       725       626      3006      3096      2710
 -1      1361    8    0    1
 -2       591       727       738      3010      3097      3037
 -1      1362    8    0    1
 -2       589       500       750      3015      3098      3099
 -1      1363    8    0    1
 -2       731       600       732      3019      3022      3100
 -1      1364    8    0    1
 -2       603       589       750      2654      3099      3101
 -1      1365    8    0    1
 -2       603       750       716      3101      3102      2977
 -1      1366    8    0    1
 -2       499       716       750      3050      3102      3103
 -1      1367    8    0    1
 -2       623       624       751      2707      3104      3105
 -1      1368    8    0    1
 -2       640       734       717      3086      3027      3106
 -1      1369    8    0    1
 -2       630       629       752      2723      3107      3108
 -1      1370    8    0    1
 -2       631       630       753      2726      3109      3110
 -1      1371    8    0    1
 -2       630       752       753      3108      3111      3109
 -1      1372    8    0    1
 -2       632       631       754      2729      3112      3113
 -1      1373    8    0    1
 -2       631       753       754      3110      3114      3112
 -1      1374    8    0    1
 -2       633       632       755      2732      3115      3116
 -1      1375    8    0    1
 -2       632       754       755      3113      3117      3115
 -1      1376    8    0    1
 -2       634       633       756      2735      3118      3119
 -1      1377    8    0    1
 -2       633       755       756      3116      3120      3118
 -1      1378    8    0    1
 -2       635       634       757      2738      3121      3122
 -1      1379    8    0    1
 -2       634       756       757      3119      3123      3121
 -1      1380    8    0    1
 -2       636       635       758      2741      3124      3125
 -1      1381    8    0    1
 -2       635       757       758      3122      3126      3124
 -1      1382    8    0    1
 -2       637       636       759      2744      3127      3128
 -1      1383    8    0    1
 -2       636       758       759      3125      3129      3127
 -1      1384    8    0    1
 -2       500       499       750      2326      3103      3098
 -1      1385    8    0    1
 -2       728       730       760      3018      3130      3131
 -1      1386    8    0    1
 -2       733       729       761      3062      3132      3133
 -1      1387    8    0    1
 -2       642       641       762      2759      3134      3135
 -1      1388    8    0    1
 -2       643       642       763      2762      3136      3137
 -1      1389    8    0    1
 -2       642       762       763      3135      3138      3136
 -1      1390    8    0    1
 -2       644       643       764      2765      3139      3140
 -1      1391    8    0    1
 -2       643       763       764      3137      3141      3139
 -1      1392    8    0    1
 -2       645       644       765      2768      3142      3143
 -1      1393    8    0    1
 -2       644       764       765      3140      3144      3142
 -1      1394    8    0    1
 -2       646       645       766      2771      3145      3146
 -1      1395    8    0    1
 -2       645       765       766      3143      3147      3145
 -1      1396    8    0    1
 -2       647       646       767      2774      3148      3149
 -1      1397    8    0    1
 -2       646       766       767      3146      3150      3148
 -1      1398    8    0    1
 -2       648       647       768      2777      3151      3152
 -1      1399    8    0    1
 -2       647       767       768      3149      3153      3151
 -1      1400    8    0    1
 -2       649       648       769      2780      3154      3155
 -1      1401    8    0    1
 -2       648       768       769      3152      3156      3154
 -1      1402    8    0    1
 -2       650       649       770      2783      3157      3158
 -1      1403    8    0    1
 -2       649       769       770      3155      3159      3157
 -1      1404    8    0    1
 -2       651       650       771      2786      3160      3161
 -1      1405    8    0    1
 -2       650       770       771      3158      3162      3160
 -1      1406    8    0    1
 -2       652       651       772      2789      3163      3164
 -1      1407    8    0    1
 -2       651       771       772      3161      3165      3163
 -1      1408    8    0    1
 -2       653       652       773      2792      3166      3167
 -1      1409    8    0    1
 -2       652       772       773      3164      3168      3166
 -1      1410    8    0    1
 -2       654       653       774      2795      3169      3170
 -1      1411    8    0    1
 -2       653       773       774      3167      3171      3169
 -1      1412    8    0    1
 -2       655       654       775      2798      3172      3173
 -1      1413    8    0    1
 -2       654       774       775      3170      3174      3172
 -1      1414    8    0    1
 -2       656       655       776      2801      3175      3176
 -1      1415    8    0    1
 -2       655       775       776      3173      3177      3175
 -1      1416    8    0    1
 -2       657       656       777      2804      3178      3179
 -1      1417    8    0    1
 -2       656       776       777      3176      3180      3178
 -1      1418    8    0    1
 -2       658       657       778      2807      3181      3182
 -1      1419    8    0    1
 -2       657       777       778      3179      3183      3181
 -1      1420    8    0    1
 -2       659       658       779      2810      3184      3185
 -1      1421    8    0    1
 -2       658       778       779      3182      3186      3184
 -1      1422    8    0    1
 -2       660       659       780      2813      3187      3188
 -1      1423    8    0    1
 -2       659       779       780      3185      3189      3187
 -1      1424    8    0    1
 -2       661       660       781      2816      3190      3191
 -1      1425    8    0    1
 -2       660       780       781      3188      3192      3190
 -1      1426    8    0    1
 -2       662       661       782      2819      3193      3194
 -1      1427    8    0    1
 -2       661       781       782      3191      3195      3193
 -1      1428    8    0    1
 -2       663       662       783      2822      3196      3197
 -1      1429    8    0    1
 -2       662       782       783      3194      3198      3196
 -1      1430    8    0    1
 -2       664       663       784      2825      3199      3200
 -1      1431    8    0    1
 -2       663       783       784      3197      3201      3199
 -1      1432    8    0    1
 -2       709       712       785      2966      3202      3203
 -1      1433    8    0    1
 -2       669       670       786      2840      3204      3205
 -1      1434    8    0    1
 -2       668       669       787      2837      3206      3207
 -1      1435    8    0    1
 -2       669       786       787      3205      3208      3206
 -1      1436    8    0    1
 -2       671       672       788      2846      3209      3210
 -1      1437    8    0    1
 -2       672       673       789      2849      3211      3212
 -1      1438    8    0    1
 -2       672       789       788      3212      3213      3209
 -1      1439    8    0    1
 -2       673       674       790      2852      3214      3215
 -1      1440    8    0    1
 -2       673       790       789      3215      3216      3211
 -1      1441    8    0    1
 -2       674       675       791      2855      3217      3218
 -1      1442    8    0    1
 -2       674       791       790      3218      3219      3214
 -1      1443    8    0    1
 -2       675       676       792      2858      3220      3221
 -1      1444    8    0    1
 -2       675       792       791      3221      3222      3217
 -1      1445    8    0    1
 -2       676       677       793      2861      3223      3224
 -1      1446    8    0    1
 -2       676       793       792      3224      3225      3220
 -1      1447    8    0    1
 -2       677       678       794      2864      3226      3227
 -1      1448    8    0    1
 -2       677       794       793      3227      3228      3223
 -1      1449    8    0    1
 -2       678       679       795      2867      3229      3230
 -1      1450    8    0    1
 -2       678       795       794      3230      3231      3226
 -1      1451    8    0    1
 -2       679       680       796      2870      3232      3233
 -1      1452    8    0    1
 -2       679       796       795      3233      3234      3229
 -1      1453    8    0    1
 -2       680       681       797      2873      3235      3236
 -1      1454    8    0    1
 -2       680       797       796      3236      3237      3232
 -1      1455    8    0    1
 -2       681       682       798      2876      3238      3239
 -1      1456    8    0    1
 -2       681       798       797      3239      3240      3235
 -1      1457    8    0    1
 -2       682       683       799      2879      3241      3242
 -1      1458    8    0    1
 -2       682       799       798      3242      3243      3238
 -1      1459    8    0    1
 -2       683       684       800      2882      3244      3245
 -1      1460    8    0    1
 -2       683       800       799      3245      3246      3241
 -1      1461    8    0    1
 -2       684       685       801      2885      3247      3248
 -1      1462    8    0    1
 -2       684       801       800      3248      3249      3244
 -1      1463    8    0    1
 -2       685       686       802      2888      3250      3251
 -1      1464    8    0    1
 -2       685       802       801      3251      3252      3247
 -1      1465    8    0    1
 -2       686       687       803      2891      3253      3254
 -1      1466    8    0    1
 -2       686       803       802      3254      3255      3250
 -1      1467    8    0    1
 -2       687       688       804      2894      3256      3257
 -1      1468    8    0    1
 -2       687       804       803      3257      3258      3253
 -1      1469    8    0    1
 -2       688       689       805      2897      3259      3260
 -1      1470    8    0    1
 -2       688       805       804      3260      3261      3256
 -1      1471    8    0    1
 -2       689       690       806      2900      3262      3263
 -1      1472    8    0    1
 -2       689       806       805      3263      3264      3259
 -1      1473    8    0    1
 -2       690       691       807      2903      3265      3266
 -1      1474    8    0    1
 -2       690       807       806      3266      3267      3262
 -1      1475    8    0    1
 -2       691       692       808      2906      3268      3269
 -1      1476    8    0    1
 -2       691       808       807      3269      3270      3265
 -1      1477    8    0    1
 -2       692       693       809      2909      3271      3272
 -1      1478    8    0    1
 -2       692       809       808      3272      3273      3268
 -1      1479    8    0    1
 -2       693       694       810      2912      3274      3275
 -1      1480    8    0    1
 -2       693       810       809      3275      3276      3271
 -1      1481    8    0    1
 -2       694       695       811      2915      3277      3278
 -1      1482    8    0    1
 -2       694       811       810      3278      3279      3274
 -1      1483    8    0    1
 -2       695       696       812      2918      3280      3281
 -1      1484    8    0    1
 -2       695       812       811      3281      3282      3277
 -1      1485    8    0    1
 -2       696       697       813      2921      3283      3284
 -1      1486    8    0    1
 -2       696       813       812      3284      3285      3280
 -1      1487    8    0    1
 -2       697       698       814      2924      3286      3287
 -1      1488    8    0    1
 -2       697       814       813      3287      3288      3283
 -1      1489    8    0    1
 -2       698       699       815      2927      3289      3290
 -1      1490    8    0    1
 -2       698       815       814      3290      3291      3286
 -1      1491    8    0    1
 -2       699       700       816      2930      3292      3293
 -1      1492    8    0    1
 -2       699       816       815      3293      3294      3289
 -1      1493    8    0    1
 -2       700       701       817      2933      3295      3296
 -1      1494    8    0    1
 -2       700       817       816      3296      3297      3292
 -1      1495    8    0    1
 -2       701       702       818      2936      3298      3299
 -1      1496    8    0    1
 -2       701       818       817      3299      3300      3295
 -1      1497    8    0    1
 -2       702       703       819      2939      3301      3302
 -1      1498    8    0    1
 -2       702       819       818      3302      3303      3298
 -1      1499    8    0    1
 -2       703       704       820      2942      3304      3305
 -1      1500    8    0    1
 -2       703       820       819      3305      3306      3301
 -1      1501    8    0    1
 -2       704       705       821      2945      3307      3308
 -1      1502    8    0    1
 -2       820       704       821      3304      3308      3309
 -1      1503    8    0    1
 -2       705       742       821      3060      3310      3307
 -1      1504    8    0    1
 -2       622       621       822      2702      3311      3312
 -1      1505    8    0    1
 -2       711       667       823      2963      3313      3314
 -1      1506    8    0    1
 -2       706       709       824      2956      3315      3316
 -1      1507    8    0    1
 -2       709       785       824      3203      3317      3315
 -1      1508    8    0    1
 -2       713       714       825      2972      3318      3319
 -1      1509    8    0    1
 -2       712       713       826      2969      3320      3321
 -1      1510    8    0    1
 -2       785       712       826      3202      3321      3322
 -1      1511    8    0    1
 -2       713       825       826      3319      3323      3320
 -1      1512    8    0    1
 -2       617       614       827      2679      3324      3325
 -1      1513    8    0    1
 -2       627       617       827      2715      3325      3326
 -1      1514    8    0    1
 -2       614       739       827      3042      3327      3324
 -1      1515    8    0    1
 -2       670       671       828      2843      3328      3329
 -1      1516    8    0    1
 -2       786       670       828      3204      3329      3330
 -1      1517    8    0    1
 -2       671       788       828      3210      3331      3328
 -1      1518    8    0    1
 -2       727       618       829      3073      3332      3333
 -1      1519    8    0    1
 -2       641       640       830      2756      3334      3335
 -1      1520    8    0    1
 -2       762       641       830      3134      3335      3336
 -1      1521    8    0    1
 -2       640       717       830      3106      3337      3334
 -1      1522    8    0    1
 -2       722       626       831      3047      3338      3339
 -1      1523    8    0    1
 -2       730       666       832      3056      3340      3341
 -1      1524    8    0    1
 -2       629       628       833      2720      3342      3343
 -1      1525    8    0    1
 -2       629       833       752      3343      3344      3107
 -1      1526    8    0    1
 -2       726       731       834      3069      3345      3346
 -1      1527    8    0    1
 -2       618       733       835      3081      3347      3348
 -1      1528    8    0    1
 -2       829       618       835      3332      3348      3349
 -1      1529    8    0    1
 -2       733       761       835      3133      3350      3347
 -1      1530    8    0    1
 -2       738       727       794      3097      3351      3352
 -1      1531    8    0    1
 -2       715       722       836      3077      3353      3354
 -1      1532    8    0    1
 -2       624       625       837      3091      3355      3356
 -1      1533    8    0    1
 -2       751       624       837      3104      3356      3357
 -1      1534    8    0    1
 -2       625       724       837      3001      3358      3355
 -1      1535    8    0    1
 -2       731       732       838      3100      3359      3360
 -1      1536    8    0    1
 -2       619       715       839      3057      3361      3362
 -1      1537    8    0    1
 -2       626       725       840      3096      3363      3364
 -1      1538    8    0    1
 -2       725       736       841      3095      3365      3366
 -1      1539    8    0    1
 -2       736       737       842      3036      3367      3368
 -1      1540    8    0    1
 -2       736       842       841      3368      3369      3365
 -1      1541    8    0    1
 -2       667       665       843      2832      3370      3371
 -1      1542    8    0    1
 -2       667       843       823      3371      3372      3313
 -1      1543    8    0    1
 -2       740       622       844      3044      3373      3374
 -1      1544    8    0    1
 -2       622       822       844      3312      3375      3373
 -1      1545    8    0    1
 -2       838       732       638      3359      3376      3377
 -1      1546    8    0    1
 -2       722       831       836      3339      3378      3353
 -1      1547    8    0    1
 -2       726       834       746      3346      3379      3080
 -1      1548    8    0    1
 -2       720       623       845      2992      3380      3381
 -1      1549    8    0    1
 -2       623       751       845      3105      3382      3380
 -1      1550    8    0    1
 -2       639       638       732      3051      3376      3383
 -1      1551    8    0    1
 -2       637       759       838      3128      3384      3385
 -1      1552    8    0    1
 -2       638       637       838      2747      3385      3377
 -1      1553    8    0    1
 -2       761       729       846      3132      3386      3387
 -1      1554    8    0    1
 -2       729       744       846      3071      3388      3386
 -1      1555    8    0    1
 -2       738       794       795      3352      3231      3389
 -1      1556    8    0    1
 -2       741       708       847      3053      3390      3391
 -1      1557    8    0    1
 -2       628       719       848      2987      3392      3393
 -1      1558    8    0    1
 -2       628       848       833      3393      3394      3342
 -1      1559    8    0    1
 -2       627       827       719      3326      3395      2988
 -1      1560    8    0    1
 -2       668       787       849      3207      3396      3397
 -1      1561    8    0    1
 -2       668       849       718      3397      3398      2984
 -1      1562    8    0    1
 -2       822       621       850      3311      3399      3400
 -1      1563    8    0    1
 -2       621       720       850      2991      3401      3399
 -1      1564    8    0    1
 -2       708       710       851      2959      3402      3403
 -1      1565    8    0    1
 -2       708       851       847      3403      3404      3390
 -1      1566    8    0    1
 -2       707       664       714      2951      3405      3064
 -1      1567    8    0    1
 -2       825       714       784      3318      3406      3407
 -1      1568    8    0    1
 -2       710       706       852      2960      3408      3409
 -1      1569    8    0    1
 -2       851       710       852      3402      3409      3410
 -1      1570    8    0    1
 -2       706       824       852      3316      3411      3408
 -1      1571    8    0    1
 -2       831       626       840      3338      3364      3412
 -1      1572    8    0    1
 -2       620       748       853      3089      3413      3414
 -1      1573    8    0    1
 -2       620       853       745      3414      3415      3076
 -1      1574    8    0    1
 -2       744       616       854      3072      3416      3417
 -1      1575    8    0    1
 -2       616       745       854      3075      3418      3416
 -1      1576    8    0    1
 -2       830       717       735      3337      3030      3419
 -1      1577    8    0    1
 -2       760       730       832      3130      3341      3420
 -1      1578    8    0    1
 -2       832       666       855      3340      3421      3422
 -1      1579    8    0    1
 -2       666       746       855      3079      3423      3421
 -1      1580    8    0    1
 -2       665       718       856      2983      3424      3425
 -1      1581    8    0    1
 -2       843       665       856      3370      3425      3426
 -1      1582    8    0    1
 -2       718       849       856      3398      3427      3424
 -1      1583    8    0    1
 -2       842       737       857      3367      3428      3429
 -1      1584    8    0    1
 -2       737       749       857      3094      3430      3428
 -1      1585    8    0    1
 -2       840       725       858      3363      3431      3432
 -1      1586    8    0    1
 -2       725       841       858      3366      3433      3431
 -1      1587    8    0    1
 -2       748       728       859      3090      3434      3435
 -1      1588    8    0    1
 -2       728       760       859      3131      3436      3434
 -1      1589    8    0    1
 -2       724       711       860      3002      3437      3438
 -1      1590    8    0    1
 -2       837       724       860      3358      3438      3439
 -1      1591    8    0    1
 -2       711       823       860      3314      3440      3437
 -1      1592    8    0    1
 -2       834       731       838      3345      3360      3441
 -1      1593    8    0    1
 -2       749       723       861      3092      3442      3443
 -1      1594    8    0    1
 -2       715       836       862      3354      3444      3445
 -1      1595    8    0    1
 -2       715       862       839      3445      3446      3361
 -1      1596    8    0    1
 -2       723       738       861      3065      3447      3442
 -1      1597    8    0    1
 -2       721       747       863      3084      3448      3449
 -1      1598    8    0    1
 -2       735       619       864      3031      3450      3451
 -1      1599    8    0    1
 -2       830       735       864      3419      3451      3452
 -1      1600    8    0    1
 -2       619       839       864      3362      3453      3450
 -1      1601    8    0    1
 -2       714       664       784      3405      3200      3406
 -1      1602    8    0    1
 -2       721       863       865      3449      3454      3455
 -1      1603    8    0    1
 -2       721       865       739      3455      3456      3043
 -1      1604    8    0    1
 -2       861       738       795      3447      3389      3457
 -1      1605    8    0    1
 -2       836       831       866      3378      3458      3459
 -1      1606    8    0    1
 -2       716       639       743      3049      3460      3087
 -1      1607    8    0    1
 -2       838       759       834      3384      3461      3441
 -1      1608    8    0    1
 -2       754       753       867      3114      3462      3463
 -1      1609    8    0    1
 -2       755       754       868      3117      3464      3465
 -1      1610    8    0    1
 -2       754       867       868      3463      3466      3464
 -1      1611    8    0    1
 -2       756       755       869      3120      3467      3468
 -1      1612    8    0    1
 -2       755       868       869      3465      3469      3467
 -1      1613    8    0    1
 -2       757       756       870      3123      3470      3471
 -1      1614    8    0    1
 -2       756       869       870      3468      3472      3470
 -1      1615    8    0    1
 -2       758       757       871      3126      3473      3474
 -1      1616    8    0    1
 -2       757       870       871      3471      3475      3473
 -1      1617    8    0    1
 -2       759       758       872      3129      3476      3477
 -1      1618    8    0    1
 -2       834       759       872      3461      3477      3478
 -1      1619    8    0    1
 -2       758       871       872      3474      3479      3476
 -1      1620    8    0    1
 -2       763       762       873      3138      3480      3481
 -1      1621    8    0    1
 -2       764       763       874      3141      3482      3483
 -1      1622    8    0    1
 -2       763       873       874      3481      3484      3482
 -1      1623    8    0    1
 -2       765       764       875      3144      3485      3486
 -1      1624    8    0    1
 -2       764       874       875      3483      3487      3485
 -1      1625    8    0    1
 -2       766       765       876      3147      3488      3489
 -1      1626    8    0    1
 -2       765       875       876      3486      3490      3488
 -1      1627    8    0    1
 -2       767       766       877      3150      3491      3492
 -1      1628    8    0    1
 -2       766       876       877      3489      3493      3491
 -1      1629    8    0    1
 -2       768       767       878      3153      3494      3495
 -1      1630    8    0    1
 -2       767       877       878      3492      3496      3494
 -1      1631    8    0    1
 -2       769       768       879      3156      3497      3498
 -1      1632    8    0    1
 -2       768       878       879      3495      3499      3497
 -1      1633    8    0    1
 -2       770       769       880      3159      3500      3501
 -1      1634    8    0    1
 -2       769       879       880      3498      3502      3500
 -1      1635    8    0    1
 -2       771       770       881      3162      3503      3504
 -1      1636    8    0    1
 -2       770       880       881      3501      3505      3503
 -1      1637    8    0    1
 -2       772       771       882      3165      3506      3507
 -1      1638    8    0    1
 -2       771       881       882      3504      3508      3506
 -1      1639    8    0    1
 -2       773       772       883      3168      3509      3510
 -1      1640    8    0    1
 -2       772       882       883      3507      3511      3509
 -1      1641    8    0    1
 -2       774       773       884      3171      3512      3513
 -1      1642    8    0    1
 -2       773       883       884      3510      3514      3512
 -1      1643    8    0    1
 -2       775       774       885      3174      3515      3516
 -1      1644    8    0    1
 -2       774       884       885      3513      3517      3515
 -1      1645    8    0    1
 -2       776       775       886      3177      3518      3519
 -1      1646    8    0    1
 -2       775       885       886      3516      3520      3518
 -1      1647    8    0    1
 -2       777       776       887      3180      3521      3522
 -1      1648    8    0    1
 -2       776       886       887      3519      3523      3521
 -1      1649    8    0    1
 -2       778       777       888      3183      3524      3525
 -1      1650    8    0    1
 -2       777       887       888      3522      3526      3524
 -1      1651    8    0    1
 -2       779       778       889      3186      3527      3528
 -1      1652    8    0    1
 -2       778       888       889      3525      3529      3527
 -1      1653    8    0    1
 -2       780       779       890      3189      3530      3531
 -1      1654    8    0    1
 -2       779       889       890      3528      3532      3530
 -1      1655    8    0    1
 -2       781       780       891      3192      3533      3534
 -1      1656    8    0    1
 -2       780       890       891      3531      3535      3533
 -1      1657    8    0    1
 -2       782       781       892      3195      3536      3537
 -1      1658    8    0    1
 -2       781       891       892      3534      3538      3536
 -1      1659    8    0    1
 -2       783       782       893      3198      3539      3540
 -1      1660    8    0    1
 -2       782       892       893      3537      3541      3539
 -1      1661    8    0    1
 -2       784       783       894      3201      3542      3543
 -1      1662    8    0    1
 -2       825       784       894      3407      3543      3544
 -1      1663    8    0    1
 -2       783       893       894      3540      3545      3542
 -1      1664    8    0    1
 -2       727       829       895      3333      3546      3547
 -1      1665    8    0    1
 -2       789       790       896      3216      3548      3549
 -1      1666    8    0    1
 -2       788       789       897      3213      3550      3551
 -1      1667    8    0    1
 -2       789       896       897      3549      3552      3550
 -1      1668    8    0    1
 -2       791       792       835      3222      3553      3554
 -1      1669    8    0    1
 -2       795       796       861      3234      3555      3457
 -1      1670    8    0    1
 -2       796       797       857      3237      3556      3557
 -1      1671    8    0    1
 -2       798       799       898      3243      3558      3559
 -1      1672    8    0    1
 -2       799       800       899      3246      3560      3561
 -1      1673    8    0    1
 -2       799       899       898      3561      3562      3558
 -1      1674    8    0    1
 -2       800       801       900      3249      3563      3564
 -1      1675    8    0    1
 -2       800       900       899      3564      3565      3560
 -1      1676    8    0    1
 -2       801       802       901      3252      3566      3567
 -1      1677    8    0    1
 -2       801       901       900      3567      3568      3563
 -1      1678    8    0    1
 -2       802       803       902      3255      3569      3570
 -1      1679    8    0    1
 -2       802       902       901      3570      3571      3566
 -1      1680    8    0    1
 -2       803       804       903      3258      3572      3573
 -1      1681    8    0    1
 -2       803       903       902      3573      3574      3569
 -1      1682    8    0    1
 -2       804       805       904      3261      3575      3576
 -1      1683    8    0    1
 -2       804       904       903      3576      3577      3572
 -1      1684    8    0    1
 -2       805       806       905      3264      3578      3579
 -1      1685    8    0    1
 -2       805       905       904      3579      3580      3575
 -1      1686    8    0    1
 -2       806       807       906      3267      3581      3582
 -1      1687    8    0    1
 -2       806       906       905      3582      3583      3578
 -1      1688    8    0    1
 -2       807       808       907      3270      3584      3585
 -1      1689    8    0    1
 -2       807       907       906      3585      3586      3581
 -1      1690    8    0    1
 -2       808       809       908      3273      3587      3588
 -1      1691    8    0    1
 -2       808       908       907      3588      3589      3584
 -1      1692    8    0    1
 -2       809       810       909      3276      3590      3591
 -1      1693    8    0    1
 -2       809       909       908      3591      3592      3587
 -1      1694    8    0    1
 -2       810       811       910      3279      3593      3594
 -1      1695    8    0    1
 -2       810       910       909      3594      3595      3590
 -1      1696    8    0    1
 -2       811       812       911      3282      3596      3597
 -1      1697    8    0    1
 -2       811       911       910      3597      3598      3593
 -1      1698    8    0    1
 -2       812       813       912      3285      3599      3600
 -1      1699    8    0    1
 -2       812       912       911      3600      3601      3596
 -1      1700    8    0    1
 -2       813       814       913      3288      3602      3603
 -1      1701    8    0    1
 -2       813       913       912      3603      3604      3599
 -1      1702    8    0    1
 -2       814       815       914      3291      3605      3606
 -1      1703    8    0    1
 -2       814       914       913      3606      3607      3602
 -1      1704    8    0    1
 -2       815       816       915      3294      3608      3609
 -1      1705    8    0    1
 -2       815       915       914      3609      3610      3605
 -1      1706    8    0    1
 -2       816       817       916      3297      3611      3612
 -1      1707    8    0    1
 -2       816       916       915      3612      3613      3608
 -1      1708    8    0    1
 -2       817       818       917      3300      3614      3615
 -1      1709    8    0    1
 -2       817       917       916      3615      3616      3611
 -1      1710    8    0    1
 -2       818       819       918      3303      3617      3618
 -1      1711    8    0    1
 -2       818       918       917      3618      3619      3614
 -1      1712    8    0    1
 -2       819       820       919      3306      3620      3621
 -1      1713    8    0    1
 -2       819       919       918      3621      3622      3617
 -1      1714    8    0    1
 -2       742       741       920      3061      3623      3624
 -1      1715    8    0    1
 -2       821       742       920      3310      3624      3625
 -1      1716    8    0    1
 -2       741       847       920      3391      3626      3623
 -1      1717    8    0    1
 -2       831       840       921      3412      3627      3628
 -1      1718    8    0    1
 -2       831       921       866      3628      3629      3458
 -1      1719    8    0    1
 -2       823       843       922      3372      3630      3631
 -1      1720    8    0    1
 -2       719       827       848      3395      3632      3392
 -1      1721    8    0    1
 -2       762       830       864      3336      3452      3633
 -1      1722    8    0    1
 -2       747       740       923      3085      3634      3635
 -1      1723    8    0    1
 -2       747       923       863      3635      3636      3448
 -1      1724    8    0    1
 -2       760       832       924      3420      3637      3638
 -1      1725    8    0    1
 -2       752       833       925      3344      3639      3640
 -1      1726    8    0    1
 -2       824       785       926      3317      3641      3642
 -1      1727    8    0    1
 -2       790       791       761      3219      3643      3644
 -1      1728    8    0    1
 -2       746       834       927      3379      3645      3646
 -1      1729    8    0    1
 -2       855       746       927      3423      3646      3647
 -1      1730    8    0    1
 -2       834       872       927      3478      3648      3645
 -1      1731    8    0    1
 -2       787       786       928      3208      3649      3650
 -1      1732    8    0    1
 -2       753       752       929      3111      3651      3652
 -1      1733    8    0    1
 -2       753       929       867      3652      3653      3462
 -1      1734    8    0    1
 -2       761       791       835      3643      3554      3350
 -1      1735    8    0    1
 -2       841       842       930      3369      3654      3655
 -1      1736    8    0    1
 -2       828       788       931      3331      3656      3657
 -1      1737    8    0    1
 -2       788       897       931      3551      3658      3656
 -1      1738    8    0    1
 -2       845       751       932      3382      3659      3660
 -1      1739    8    0    1
 -2       787       928       933      3650      3661      3662
 -1      1740    8    0    1
 -2       787       933       849      3662      3663      3396
 -1      1741    8    0    1
 -2       825       894       934      3544      3664      3665
 -1      1742    8    0    1
 -2       825       934       826      3665      3666      3323
 -1      1743    8    0    1
 -2       762       864       873      3633      3667      3480
 -1      1744    8    0    1
 -2       833       848       935      3394      3668      3669
 -1      1745    8    0    1
 -2       833       935       925      3669      3670      3639
 -1      1746    8    0    1
 -2       865       863       936      3454      3671      3672
 -1      1747    8    0    1
 -2       827       739       848      3327      3673      3632
 -1      1748    8    0    1
 -2       842       857       930      3429      3674      3654
 -1      1749    8    0    1
 -2       850       720       845      3401      3381      3675
 -1      1750    8    0    1
 -2       835       792       829      3553      3676      3349
 -1      1751    8    0    1
 -2       792       793       829      3225      3677      3676
 -1      1752    8    0    1
 -2       857       797       937      3556      3678      3679
 -1      1753    8    0    1
 -2       930       857       937      3674      3679      3680
 -1      1754    8    0    1
 -2       797       798       937      3240      3681      3678
 -1      1755    8    0    1
 -2       798       898       937      3559      3682      3681
 -1      1756    8    0    1
 -2       920       847       919      3626      3683      3684
 -1      1757    8    0    1
 -2       820       821       920      3309      3625      3685
 -1      1758    8    0    1
 -2       921       840       938      3627      3686      3687
 -1      1759    8    0    1
 -2       840       858       938      3432      3688      3686
 -1      1760    8    0    1
 -2       740       844       923      3374      3689      3634
 -1      1761    8    0    1
 -2       852       824       939      3411      3690      3691
 -1      1762    8    0    1
 -2       824       926       939      3642      3692      3690
 -1      1763    8    0    1
 -2       727       895       794      3547      3693      3351
 -1      1764    8    0    1
 -2       922       843       940      3630      3694      3695
 -1      1765    8    0    1
 -2       843       856       940      3426      3696      3694
 -1      1766    8    0    1
 -2       822       850       941      3400      3697      3698
 -1      1767    8    0    1
 -2       785       826       942      3322      3699      3700
 -1      1768    8    0    1
 -2       926       785       942      3641      3700      3701
 -1      1769    8    0    1
 -2       826       934       942      3666      3702      3699
 -1      1770    8    0    1
 -2       853       748       943      3413      3703      3704
 -1      1771    8    0    1
 -2       748       859       943      3435      3705      3703
 -1      1772    8    0    1
 -2       854       745       944      3418      3706      3707
 -1      1773    8    0    1
 -2       745       853       944      3415      3708      3706
 -1      1774    8    0    1
 -2       836       866       945      3459      3709      3710
 -1      1775    8    0    1
 -2       836       945       862      3710      3711      3444
 -1      1776    8    0    1
 -2       841       930       946      3655      3712      3713
 -1      1777    8    0    1
 -2       841       946       858      3713      3714      3433
 -1      1778    8    0    1
 -2       928       786       947      3649      3715      3716
 -1      1779    8    0    1
 -2       786       828       947      3330      3717      3715
 -1      1780    8    0    1
 -2       924       832       948      3637      3718      3719
 -1      1781    8    0    1
 -2       832       855       948      3422      3720      3718
 -1      1782    8    0    1
 -2       752       925       929      3640      3721      3651
 -1      1783    8    0    1
 -2       859       760       949      3436      3722      3723
 -1      1784    8    0    1
 -2       760       924       949      3638      3724      3722
 -1      1785    8    0    1
 -2       860       823       950      3440      3725      3726
 -1      1786    8    0    1
 -2       823       922       950      3631      3727      3725
 -1      1787    8    0    1
 -2       936       863       951      3671      3728      3729
 -1      1788    8    0    1
 -2       863       923       951      3636      3730      3728
 -1      1789    8    0    1
 -2       919       847       952      3683      3731      3732
 -1      1790    8    0    1
 -2       820       920       919      3685      3684      3620
 -1      1791    8    0    1
 -2       822       941       953      3698      3733      3734
 -1      1792    8    0    1
 -2       822       953       844      3734      3735      3375
 -1      1793    8    0    1
 -2       749       861       954      3443      3736      3737
 -1      1794    8    0    1
 -2       790       761       896      3644      3738      3548
 -1      1795    8    0    1
 -2       847       851       952      3404      3739      3731
 -1      1796    8    0    1
 -2       846       744       955      3388      3740      3741
 -1      1797    8    0    1
 -2       868       867       956      3466      3742      3743
 -1      1798    8    0    1
 -2       932       751       860      3659      3744      3745
 -1      1799    8    0    1
 -2       869       868       957      3469      3746      3747
 -1      1800    8    0    1
 -2       868       956       957      3743      3748      3746
 -1      1801    8    0    1
 -2       870       869       958      3472      3749      3750
 -1      1802    8    0    1
 -2       869       957       958      3747      3751      3749
 -1      1803    8    0    1
 -2       871       870       959      3475      3752      3753
 -1      1804    8    0    1
 -2       870       958       959      3750      3754      3752
 -1      1805    8    0    1
 -2       872       871       960      3479      3755      3756
 -1      1806    8    0    1
 -2       927       872       960      3648      3756      3757
 -1      1807    8    0    1
 -2       871       959       960      3753      3758      3755
 -1      1808    8    0    1
 -2       874       873       961      3484      3759      3760
 -1      1809    8    0    1
 -2       899       900       962      3565      3761      3762
 -1      1810    8    0    1
 -2       848       739       865      3673      3456      3763
 -1      1811    8    0    1
 -2       875       874       963      3487      3764      3765
 -1      1812    8    0    1
 -2       874       961       963      3760      3766      3764
 -1      1813    8    0    1
 -2       876       875       964      3490      3767      3768
 -1      1814    8    0    1
 -2       875       963       964      3765      3769      3767
 -1      1815    8    0    1
 -2       877       876       965      3493      3770      3771
 -1      1816    8    0    1
 -2       876       964       965      3768      3772      3770
 -1      1817    8    0    1
 -2       878       877       966      3496      3773      3774
 -1      1818    8    0    1
 -2       877       965       966      3771      3775      3773
 -1      1819    8    0    1
 -2       879       878       967      3499      3776      3777
 -1      1820    8    0    1
 -2       878       966       967      3774      3778      3776
 -1      1821    8    0    1
 -2       880       879       968      3502      3779      3780
 -1      1822    8    0    1
 -2       879       967       968      3777      3781      3779
 -1      1823    8    0    1
 -2       881       880       969      3505      3782      3783
 -1      1824    8    0    1
 -2       880       968       969      3780      3784      3782
 -1      1825    8    0    1
 -2       882       881       970      3508      3785      3786
 -1      1826    8    0    1
 -2       881       969       970      3783      3787      3785
 -1      1827    8    0    1
 -2       883       882       971      3511      3788      3789
 -1      1828    8    0    1
 -2       882       970       971      3786      3790      3788
 -1      1829    8    0    1
 -2       884       883       972      3514      3791      3792
 -1      1830    8    0    1
 -2       883       971       972      3789      3793      3791
 -1      1831    8    0    1
 -2       885       884       973      3517      3794      3795
 -1      1832    8    0    1
 -2       884       972       973      3792      3796      3794
 -1      1833    8    0    1
 -2       886       885       974      3520      3797      3798
 -1      1834    8    0    1
 -2       885       973       974      3795      3799      3797
 -1      1835    8    0    1
 -2       887       886       975      3523      3800      3801
 -1      1836    8    0    1
 -2       886       974       975      3798      3802      3800
 -1      1837    8    0    1
 -2       888       887       976      3526      3803      3804
 -1      1838    8    0    1
 -2       887       975       976      3801      3805      3803
 -1      1839    8    0    1
 -2       889       888       977      3529      3806      3807
 -1      1840    8    0    1
 -2       888       976       977      3804      3808      3806
 -1      1841    8    0    1
 -2       890       889       978      3532      3809      3810
 -1      1842    8    0    1
 -2       889       977       978      3807      3811      3809
 -1      1843    8    0    1
 -2       891       890       979      3535      3812      3813
 -1      1844    8    0    1
 -2       890       978       979      3810      3814      3812
 -1      1845    8    0    1
 -2       892       891       980      3538      3815      3816
 -1      1846    8    0    1
 -2       891       979       980      3813      3817      3815
 -1      1847    8    0    1
 -2       893       892       981      3541      3818      3819
 -1      1848    8    0    1
 -2       892       980       981      3816      3820      3818
 -1      1849    8    0    1
 -2       894       893       982      3545      3821      3822
 -1      1850    8    0    1
 -2       934       894       982      3664      3822      3823
 -1      1851    8    0    1
 -2       893       981       982      3819      3824      3821
 -1      1852    8    0    1
 -2       952       851       983      3739      3825      3826
 -1      1853    8    0    1
 -2       851       852       983      3410      3827      3825
 -1      1854    8    0    1
 -2       850       845       984      3675      3828      3829
 -1      1855    8    0    1
 -2       941       850       984      3697      3829      3830
 -1      1856    8    0    1
 -2       845       932       984      3660      3831      3828
 -1      1857    8    0    1
 -2       793       794       895      3228      3693      3832
 -1      1858    8    0    1
 -2       866       921       985      3629      3833      3834
 -1      1859    8    0    1
 -2       937       898       986      3682      3835      3836
 -1      1860    8    0    1
 -2       930       937       986      3680      3836      3837
 -1      1861    8    0    1
 -2       898       899       986      3562      3838      3835
 -1      1862    8    0    1
 -2       901       902       987      3571      3839      3840
 -1      1863    8    0    1
 -2       902       903       988      3574      3841      3842
 -1      1864    8    0    1
 -2       902       988       987      3842      3843      3839
 -1      1865    8    0    1
 -2       903       904       989      3577      3844      3845
 -1      1866    8    0    1
 -2       903       989       988      3845      3846      3841
 -1      1867    8    0    1
 -2       904       905       990      3580      3847      3848
 -1      1868    8    0    1
 -2       904       990       989      3848      3849      3844
 -1      1869    8    0    1
 -2       905       906       991      3583      3850      3851
 -1      1870    8    0    1
 -2       905       991       990      3851      3852      3847
 -1      1871    8    0    1
 -2       906       907       992      3586      3853      3854
 -1      1872    8    0    1
 -2       906       992       991      3854      3855      3850
 -1      1873    8    0    1
 -2       907       908       993      3589      3856      3857
 -1      1874    8    0    1
 -2       907       993       992      3857      3858      3853
 -1      1875    8    0    1
 -2       908       909       994      3592      3859      3860
 -1      1876    8    0    1
 -2       908       994       993      3860      3861      3856
 -1      1877    8    0    1
 -2       909       910       995      3595      3862      3863
 -1      1878    8    0    1
 -2       909       995       994      3863      3864      3859
 -1      1879    8    0    1
 -2       910       911       996      3598      3865      3866
 -1      1880    8    0    1
 -2       910       996       995      3866      3867      3862
 -1      1881    8    0    1
 -2       911       912       997      3601      3868      3869
 -1      1882    8    0    1
 -2       911       997       996      3869      3870      3865
 -1      1883    8    0    1
 -2       912       913       998      3604      3871      3872
 -1      1884    8    0    1
 -2       912       998       997      3872      3873      3868
 -1      1885    8    0    1
 -2       913       914       999      3607      3874      3875
 -1      1886    8    0    1
 -2       913       999       998      3875      3876      3871
 -1      1887    8    0    1
 -2       914       915      1000      3610      3877      3878
 -1      1888    8    0    1
 -2       914      1000       999      3878      3879      3874
 -1      1889    8    0    1
 -2       915       916      1001      3613      3880      3881
 -1      1890    8    0    1
 -2       915      1001      1000      3881      3882      3877
 -1      1891    8    0    1
 -2       916       917      1002      3616      3883      3884
 -1      1892    8    0    1
 -2       916      1002      1001      3884      3885      3880
 -1      1893    8    0    1
 -2       917       918      1003      3619      3886      3887
 -1      1894    8    0    1
 -2       917      1003      1002      3887      3888      3883
 -1      1895    8    0    1
 -2       918       919       952      3622      3732      3889
 -1      1896    8    0    1
 -2       955       744       854      3740      3417      3890
 -1      1897    8    0    1
 -2       932       860       950      3745      3726      3891
 -1      1898    8    0    1
 -2       793       895       829      3832      3546      3677
 -1      1899    8    0    1
 -2       918       952      1003      3889      3892      3886
 -1      1900    8    0    1
 -2       860       751       837      3744      3357      3439
 -1      1901    8    0    1
 -2       865       936       935      3672      3893      3894
 -1      1902    8    0    1
 -2       856       849      1004      3427      3895      3896
 -1      1903    8    0    1
 -2       849       933      1004      3663      3897      3895
 -1      1904    8    0    1
 -2       929       925      1005      3721      3898      3899
 -1      1905    8    0    1
 -2       839       862       873      3446      3900      3901
 -1      1906    8    0    1
 -2       864       839       873      3453      3901      3667
 -1      1907    8    0    1
 -2       900       901      1006      3568      3902      3903
 -1      1908    8    0    1
 -2       962       900      1006      3761      3903      3904
 -1      1909    8    0    1
 -2       901       987      1006      3840      3905      3902
 -1      1910    8    0    1
 -2       923       844      1007      3689      3906      3907
 -1      1911    8    0    1
 -2       951       923      1007      3730      3907      3908
 -1      1912    8    0    1
 -2       844       953      1007      3735      3909      3906
 -1      1913    8    0    1
 -2       867       929      1008      3653      3910      3911
 -1      1914    8    0    1
 -2       867      1008       956      3911      3912      3742
 -1      1915    8    0    1
 -2       955       854       944      3890      3707      3913
 -1      1916    8    0    1
 -2       743       639       732      3460      3383      3067
 -1      1917    8    0    1
 -2       929      1005      1008      3899      3914      3910
 -1      1918    8    0    1
 -2       933       928      1009      3661      3915      3916
 -1      1919    8    0    1
 -2       983       852       939      3827      3691      3917
 -1      1920    8    0    1
 -2       899       962       986      3762      3918      3838
 -1      1921    8    0    1
 -2       935       848       865      3668      3763      3894
 -1      1922    8    0    1
 -2       853       943      1010      3704      3919      3920
 -1      1923    8    0    1
 -2       853      1010       944      3920      3921      3708
 -1      1924    8    0    1
 -2       984       932      1011      3831      3922      3923
 -1      1925    8    0    1
 -2       932       950      1011      3891      3924      3922
 -1      1926    8    0    1
 -2       861       796       954      3555      3925      3736
 -1      1927    8    0    1
 -2       953       941      1012      3733      3926      3927
 -1      1928    8    0    1
 -2       985       921      1013      3833      3928      3929
 -1      1929    8    0    1
 -2       921       938      1013      3687      3930      3928
 -1      1930    8    0    1
 -2       930       986       946      3837      3931      3712
 -1      1931    8    0    1
 -2       873       862       961      3900      3932      3759
 -1      1932    8    0    1
 -2       938       858       946      3688      3714      3933
 -1      1933    8    0    1
 -2       939       926      1014      3692      3934      3935
 -1      1934    8    0    1
 -2       952       983      1015      3826      3936      3937
 -1      1935    8    0    1
 -2       952      1015      1003      3937      3938      3892
 -1      1936    8    0    1
 -2       940       856      1004      3696      3896      3939
 -1      1937    8    0    1
 -2       943       859      1016      3705      3940      3941
 -1      1938    8    0    1
 -2       859       949      1016      3723      3942      3940
 -1      1939    8    0    1
 -2       941       984      1017      3830      3943      3944
 -1      1940    8    0    1
 -2      1012       941      1017      3926      3944      3945
 -1      1941    8    0    1
 -2       984      1011      1017      3923      3946      3943
 -1      1942    8    0    1
 -2       926       942      1018      3701      3947      3948
 -1      1943    8    0    1
 -2       926      1018      1014      3948      3949      3934
 -1      1944    8    0    1
 -2       945       866      1019      3709      3950      3951
 -1      1945    8    0    1
 -2       866       985      1019      3834      3952      3950
 -1      1946    8    0    1
 -2      1009       928      1020      3915      3953      3954
 -1      1947    8    0    1
 -2       928       947      1020      3716      3955      3953
 -1      1948    8    0    1
 -2       961       862       945      3932      3711      3956
 -1      1949    8    0    1
 -2       947       828       931      3717      3657      3957
 -1      1950    8    0    1
 -2       949       924      1021      3724      3958      3959
 -1      1951    8    0    1
 -2       950       922      1011      3727      3960      3924
 -1      1952    8    0    1
 -2       897       896       955      3552      3961      3962
 -1      1953    8    0    1
 -2       925       935      1022      3670      3963      3964
 -1      1954    8    0    1
 -2      1005       925      1022      3898      3964      3965
 -1      1955    8    0    1
 -2       935       936      1022      3893      3966      3963
 -1      1956    8    0    1
 -2       955       944      1023      3913      3967      3968
 -1      1957    8    0    1
 -2       897       955      1023      3962      3968      3969
 -1      1958    8    0    1
 -2       944      1010      1023      3921      3970      3967
 -1      1959    8    0    1
 -2       855       927      1024      3647      3971      3972
 -1      1960    8    0    1
 -2       948       855      1024      3720      3972      3973
 -1      1961    8    0    1
 -2       927       960      1024      3757      3974      3971
 -1      1962    8    0    1
 -2       924       948      1021      3719      3975      3958
 -1      1963    8    0    1
 -2       897      1023       931      3969      3976      3658
 -1      1964    8    0    1
 -2       936       951      1022      3729      3977      3966
 -1      1965    8    0    1
 -2       922       940      1025      3695      3978      3979
 -1      1966    8    0    1
 -2       857       749       954      3430      3737      3980
 -1      1967    8    0    1
 -2       922      1025      1011      3979      3981      3960
 -1      1968    8    0    1
 -2      1021       948      1026      3975      3982      3983
 -1      1969    8    0    1
 -2       983       939      1027      3917      3984      3985
 -1      1970    8    0    1
 -2      1015       983      1027      3936      3985      3986
 -1      1971    8    0    1
 -2       939      1014      1027      3935      3987      3984
 -1      1972    8    0    1
 -2       958       957      1028      3751      3988      3989
 -1      1973    8    0    1
 -2       959       958      1026      3754      3990      3991
 -1      1974    8    0    1
 -2       846       955       896      3741      3961      3992
 -1      1975    8    0    1
 -2       963       961      1029      3766      3993      3994
 -1      1976    8    0    1
 -2       961       945      1029      3956      3995      3993
 -1      1977    8    0    1
 -2       964       963      1030      3769      3996      3997
 -1      1978    8    0    1
 -2       963      1029      1030      3994      3998      3996
 -1      1979    8    0    1
 -2       965       964      1031      3772      3999      4000
 -1      1980    8    0    1
 -2       964      1030      1031      3997      4001      3999
 -1      1981    8    0    1
 -2       966       965      1032      3775      4002      4003
 -1      1982    8    0    1
 -2       965      1031      1032      4000      4004      4002
 -1      1983    8    0    1
 -2       967       966      1033      3778      4005      4006
 -1      1984    8    0    1
 -2       966      1032      1033      4003      4007      4005
 -1      1985    8    0    1
 -2       968       967      1034      3781      4008      4009
 -1      1986    8    0    1
 -2       967      1033      1034      4006      4010      4008
 -1      1987    8    0    1
 -2       969       968      1035      3784      4011      4012
 -1      1988    8    0    1
 -2       968      1034      1035      4009      4013      4011
 -1      1989    8    0    1
 -2       970       969      1036      3787      4014      4015
 -1      1990    8    0    1
 -2       969      1035      1036      4012      4016      4014
 -1      1991    8    0    1
 -2       971       970      1037      3790      4017      4018
 -1      1992    8    0    1
 -2       970      1036      1037      4015      4019      4017
 -1      1993    8    0    1
 -2       972       971      1038      3793      4020      4021
 -1      1994    8    0    1
 -2       971      1037      1038      4018      4022      4020
 -1      1995    8    0    1
 -2       973       972      1039      3796      4023      4024
 -1      1996    8    0    1
 -2       972      1038      1039      4021      4025      4023
 -1      1997    8    0    1
 -2       974       973      1040      3799      4026      4027
 -1      1998    8    0    1
 -2       973      1039      1040      4024      4028      4026
 -1      1999    8    0    1
 -2       975       974      1041      3802      4029      4030
 -1      2000    8    0    1
 -2       974      1040      1041      4027      4031      4029
 -1      2001    8    0    1
 -2       976       975      1042      3805      4032      4033
 -1      2002    8    0    1
 -2       975      1041      1042      4030      4034      4032
 -1      2003    8    0    1
 -2       977       976      1043      3808      4035      4036
 -1      2004    8    0    1
 -2       976      1042      1043      4033      4037      4035
 -1      2005    8    0    1
 -2       978       977      1044      3811      4038      4039
 -1      2006    8    0    1
 -2       977      1043      1044      4036      4040      4038
 -1      2007    8    0    1
 -2       979       978      1045      3814      4041      4042
 -1      2008    8    0    1
 -2       978      1044      1045      4039      4043      4041
 -1      2009    8    0    1
 -2       980       979      1046      3817      4044      4045
 -1      2010    8    0    1
 -2       979      1045      1046      4042      4046      4044
 -1      2011    8    0    1
 -2       981       980      1047      3820      4047      4048
 -1      2012    8    0    1
 -2       980      1046      1047      4045      4049      4047
 -1      2013    8    0    1
 -2       957       956      1048      3748      4050      4051
 -1      2014    8    0    1
 -2       957      1048      1028      4051      4052      3988
 -1      2015    8    0    1
 -2       989       990      1049      3849      4053      4054
 -1      2016    8    0    1
 -2       987       988      1050      3843      4055      4056
 -1      2017    8    0    1
 -2       990       991      1051      3852      4057      4058
 -1      2018    8    0    1
 -2       990      1051      1049      4058      4059      4053
 -1      2019    8    0    1
 -2       991       992      1052      3855      4060      4061
 -1      2020    8    0    1
 -2       991      1052      1051      4061      4062      4057
 -1      2021    8    0    1
 -2       992       993      1053      3858      4063      4064
 -1      2022    8    0    1
 -2       992      1053      1052      4064      4065      4060
 -1      2023    8    0    1
 -2       993       994      1054      3861      4066      4067
 -1      2024    8    0    1
 -2       993      1054      1053      4067      4068      4063
 -1      2025    8    0    1
 -2       994       995      1055      3864      4069      4070
 -1      2026    8    0    1
 -2       994      1055      1054      4070      4071      4066
 -1      2027    8    0    1
 -2       995       996      1056      3867      4072      4073
 -1      2028    8    0    1
 -2       995      1056      1055      4073      4074      4069
 -1      2029    8    0    1
 -2       996       997      1057      3870      4075      4076
 -1      2030    8    0    1
 -2       996      1057      1056      4076      4077      4072
 -1      2031    8    0    1
 -2       997       998      1058      3873      4078      4079
 -1      2032    8    0    1
 -2       997      1058      1057      4079      4080      4075
 -1      2033    8    0    1
 -2       998       999      1059      3876      4081      4082
 -1      2034    8    0    1
 -2       998      1059      1058      4082      4083      4078
 -1      2035    8    0    1
 -2       999      1000      1060      3879      4084      4085
 -1      2036    8    0    1
 -2       999      1060      1059      4085      4086      4081
 -1      2037    8    0    1
 -2      1000      1001      1061      3882      4087      4088
 -1      2038    8    0    1
 -2      1000      1061      1060      4088      4089      4084
 -1      2039    8    0    1
 -2      1001      1002      1062      3885      4090      4091
 -1      2040    8    0    1
 -2      1001      1062      1061      4091      4092      4087
 -1      2041    8    0    1
 -2      1002      1003      1063      3888      4093      4094
 -1      2042    8    0    1
 -2      1062      1002      1063      4090      4094      4095
 -1      2043    8    0    1
 -2      1003      1015      1063      3938      4096      4093
 -1      2044    8    0    1
 -2       946       986      1064      3931      4097      4098
 -1      2045    8    0    1
 -2       938       946      1064      3933      4098      4099
 -1      2046    8    0    1
 -2       986       962      1064      3918      4100      4097
 -1      2047    8    0    1
 -2       956      1008      1065      3912      4101      4102
 -1      2048    8    0    1
 -2       956      1065      1048      4102      4103      4050
 -1      2049    8    0    1
 -2      1004       933      1066      3897      4104      4105
 -1      2050    8    0    1
 -2       933      1009      1066      3916      4106      4104
 -1      2051    8    0    1
 -2       942       934      1067      3702      4107      4108
 -1      2052    8    0    1
 -2      1018       942      1067      3947      4108      4109
 -1      2053    8    0    1
 -2       934       982      1067      3823      4110      4107
 -1      2054    8    0    1
 -2       931      1023      1068      3976      4111      4112
 -1      2055    8    0    1
 -2       988       989      1069      3846      4113      4114
 -1      2056    8    0    1
 -2       989      1049      1069      4054      4115      4113
 -1      2057    8    0    1
 -2      1008      1005      1070      3914      4116      4117
 -1      2058    8    0    1
 -2      1008      1070      1065      4117      4118      4101
 -1      2059    8    0    1
 -2      1005      1022      1071      3965      4119      4120
 -1      2060    8    0    1
 -2      1070      1005      1071      4116      4120      4121
 -1      2061    8    0    1
 -2      1022       951      1071      3977      4122      4119
 -1      2062    8    0    1
 -2       953      1012      1072      3927      4123      4124
 -1      2063    8    0    1
 -2       953      1072      1007      4124      4125      3909
 -1      2064    8    0    1
 -2       940      1004      1073      3939      4126      4127
 -1      2065    8    0    1
 -2       940      1073      1025      4127      4128      3978
 -1      2066    8    0    1
 -2       947       931      1068      3957      4112      4129
 -1      2067    8    0    1
 -2       949      1021      1074      3959      4130      4131
 -1      2068    8    0    1
 -2       949      1074      1016      4131      4132      3942
 -1      2069    8    0    1
 -2      1011      1025      1017      3981      4133      3946
 -1      2070    8    0    1
 -2      1026       958      1028      3990      3989      4134
 -1      2071    8    0    1
 -2       959      1026       948      3991      3982      4135
 -1      2072    8    0    1
 -2      1025      1073      1075      4128      4136      4137
 -1      2073    8    0    1
 -2      1010       943      1076      3919      4138      4139
 -1      2074    8    0    1
 -2       943      1016      1076      3941      4140      4138
 -1      2075    8    0    1
 -2      1029       945      1019      3995      3951      4141
 -1      2076    8    0    1
 -2      1004      1066      1073      4105      4142      4126
 -1      2077    8    0    1
 -2       982       981      1067      3824      4143      4110
 -1      2078    8    0    1
 -2      1013       938      1064      3930      4099      4144
 -1      2079    8    0    1
 -2      1068      1023      1010      4111      3970      4145
 -1      2080    8    0    1
 -2       985      1013      1077      3929      4146      4147
 -1      2081    8    0    1
 -2       987      1050      1078      4056      4148      4149
 -1      2082    8    0    1
 -2       987      1078      1006      4149      4150      3905
 -1      2083    8    0    1
 -2       951      1007      1071      3908      4151      4122
 -1      2084    8    0    1
 -2      1064       962      1079      4100      4152      4153
 -1      2085    8    0    1
 -2       962      1006      1079      3904      4154      4152
 -1      2086    8    0    1
 -2      1066      1009      1080      4106      4155      4156
 -1      2087    8    0    1
 -2      1017      1025      1081      4133      4157      4158
 -1      2088    8    0    1
 -2      1012      1017      1081      3945      4158      4159
 -1      2089    8    0    1
 -2      1025      1075      1081      4137      4160      4157
 -1      2090    8    0    1
 -2      1019       985      1077      3952      4147      4161
 -1      2091    8    0    1
 -2      1014      1018      1082      3949      4162      4163
 -1      2092    8    0    1
 -2      1020       947      1068      3955      4129      4164
 -1      2093    8    0    1
 -2       988      1069      1050      4114      4165      4055
 -1      2094    8    0    1
 -2      1072      1012      1083      4123      4166      4167
 -1      2095    8    0    1
 -2      1012      1081      1083      4159      4168      4166
 -1      2096    8    0    1
 -2      1021      1026      1084      3983      4169      4170
 -1      2097    8    0    1
 -2      1026      1028      1084      4134      4171      4169
 -1      2098    8    0    1
 -2      1014      1082      1085      4163      4172      4173
 -1      2099    8    0    1
 -2      1014      1085      1027      4173      4174      3987
 -1      2100    8    0    1
 -2       761       846       896      3387      3992      3738
 -1      2101    8    0    1
 -2       981      1047      1067      4048      4175      4143
 -1      2102    8    0    1
 -2      1009      1020      1086      3954      4176      4177
 -1      2103    8    0    1
 -2      1009      1086      1080      4177      4178      4155
 -1      2104    8    0    1
 -2      1015      1027      1087      3986      4179      4180
 -1      2105    8    0    1
 -2      1063      1015      1087      4096      4180      4181
 -1      2106    8    0    1
 -2      1027      1085      1087      4174      4182      4179
 -1      2107    8    0    1
 -2      1016      1074      1088      4132      4183      4184
 -1      2108    8    0    1
 -2      1016      1088      1076      4184      4185      4140
 -1      2109    8    0    1
 -2      1075      1073      1089      4136      4186      4187
 -1      2110    8    0    1
 -2      1073      1066      1089      4142      4188      4186
 -1      2111    8    0    1
 -2       960       959      1024      3758      4189      3974
 -1      2112    8    0    1
 -2      1030      1029      1090      3998      4190      4191
 -1      2113    8    0    1
 -2      1029      1019      1090      4141      4192      4190
 -1      2114    8    0    1
 -2      1031      1030      1091      4001      4193      4194
 -1      2115    8    0    1
 -2      1032      1031      1092      4004      4195      4196
 -1      2116    8    0    1
 -2      1031      1091      1092      4194      4197      4195
 -1      2117    8    0    1
 -2      1033      1032      1093      4007      4198      4199
 -1      2118    8    0    1
 -2      1032      1092      1093      4196      4200      4198
 -1      2119    8    0    1
 -2      1034      1033      1094      4010      4201      4202
 -1      2120    8    0    1
 -2      1033      1093      1094      4199      4203      4201
 -1      2121    8    0    1
 -2      1035      1034      1095      4013      4204      4205
 -1      2122    8    0    1
 -2      1034      1094      1095      4202      4206      4204
 -1      2123    8    0    1
 -2      1036      1035      1096      4016      4207      4208
 -1      2124    8    0    1
 -2      1035      1095      1096      4205      4209      4207
 -1      2125    8    0    1
 -2      1037      1036      1097      4019      4210      4211
 -1      2126    8    0    1
 -2      1036      1096      1097      4208      4212      4210
 -1      2127    8    0    1
 -2      1038      1037      1098      4022      4213      4214
 -1      2128    8    0    1
 -2      1037      1097      1098      4211      4215      4213
 -1      2129    8    0    1
 -2      1039      1038      1099      4025      4216      4217
 -1      2130    8    0    1
 -2      1038      1098      1099      4214      4218      4216
 -1      2131    8    0    1
 -2      1040      1039      1100      4028      4219      4220
 -1      2132    8    0    1
 -2      1039      1099      1100      4217      4221      4219
 -1      2133    8    0    1
 -2      1041      1040      1101      4031      4222      4223
 -1      2134    8    0    1
 -2      1040      1100      1101      4220      4224      4222
 -1      2135    8    0    1
 -2      1042      1041      1102      4034      4225      4226
 -1      2136    8    0    1
 -2      1041      1101      1102      4223      4227      4225
 -1      2137    8    0    1
 -2      1043      1042      1103      4037      4228      4229
 -1      2138    8    0    1
 -2      1042      1102      1103      4226      4230      4228
 -1      2139    8    0    1
 -2      1044      1043      1104      4040      4231      4232
 -1      2140    8    0    1
 -2      1043      1103      1104      4229      4233      4231
 -1      2141    8    0    1
 -2      1045      1044      1105      4043      4234      4235
 -1      2142    8    0    1
 -2      1044      1104      1105      4232      4236      4234
 -1      2143    8    0    1
 -2      1046      1045      1106      4046      4237      4238
 -1      2144    8    0    1
 -2      1045      1105      1106      4235      4239      4237
 -1      2145    8    0    1
 -2      1047      1046      1082      4049      4240      4241
 -1      2146    8    0    1
 -2      1077      1013      1107      4146      4242      4243
 -1      2147    8    0    1
 -2      1051      1052      1108      4062      4244      4245
 -1      2148    8    0    1
 -2      1081      1075      1109      4160      4246      4247
 -1      2149    8    0    1
 -2      1081      1109      1083      4247      4248      4168
 -1      2150    8    0    1
 -2      1049      1051      1110      4059      4249      4250
 -1      2151    8    0    1
 -2      1051      1108      1110      4245      4251      4249
 -1      2152    8    0    1
 -2      1053      1054      1111      4068      4252      4253
 -1      2153    8    0    1
 -2      1054      1055      1112      4071      4254      4255
 -1      2154    8    0    1
 -2      1054      1112      1111      4255      4256      4252
 -1      2155    8    0    1
 -2      1055      1056      1113      4074      4257      4258
 -1      2156    8    0    1
 -2      1055      1113      1112      4258      4259      4254
 -1      2157    8    0    1
 -2      1056      1057      1114      4077      4260      4261
 -1      2158    8    0    1
 -2      1056      1114      1113      4261      4262      4257
 -1      2159    8    0    1
 -2      1057      1058      1115      4080      4263      4264
 -1      2160    8    0    1
 -2      1057      1115      1114      4264      4265      4260
 -1      2161    8    0    1
 -2      1058      1059      1116      4083      4266      4267
 -1      2162    8    0    1
 -2      1058      1116      1115      4267      4268      4263
 -1      2163    8    0    1
 -2      1059      1060      1117      4086      4269      4270
 -1      2164    8    0    1
 -2      1059      1117      1116      4270      4271      4266
 -1      2165    8    0    1
 -2      1060      1061      1118      4089      4272      4273
 -1      2166    8    0    1
 -2      1060      1118      1117      4273      4274      4269
 -1      2167    8    0    1
 -2      1061      1062      1119      4092      4275      4276
 -1      2168    8    0    1
 -2      1061      1119      1118      4276      4277      4272
 -1      2169    8    0    1
 -2      1065      1070      1120      4118      4278      4279
 -1      2170    8    0    1
 -2      1021      1084      1121      4170      4280      4281
 -1      2171    8    0    1
 -2      1013      1064      1079      4144      4153      4282
 -1      2172    8    0    1
 -2      1082      1046      1106      4240      4238      4283
 -1      2173    8    0    1
 -2      1021      1121      1074      4281      4284      4130
 -1      2174    8    0    1
 -2      1068      1010      1076      4145      4139      4285
 -1      2175    8    0    1
 -2      1069      1049      1122      4115      4286      4287
 -1      2176    8    0    1
 -2      1049      1110      1122      4250      4288      4286
 -1      2177    8    0    1
 -2       954       796       857      3925      3557      3980
 -1      2178    8    0    1
 -2      1019      1077      1090      4161      4289      4192
 -1      2179    8    0    1
 -2      1084      1028      1123      4171      4290      4291
 -1      2180    8    0    1
 -2      1028      1048      1123      4052      4292      4290
 -1      2181    8    0    1
 -2      1048      1065      1124      4103      4293      4294
 -1      2182    8    0    1
 -2      1123      1048      1124      4292      4294      4295
 -1      2183    8    0    1
 -2      1065      1120      1124      4279      4296      4293
 -1      2184    8    0    1
 -2      1121      1084      1125      4280      4297      4298
 -1      2185    8    0    1
 -2      1071      1007      1072      4151      4125      4299
 -1      2186    8    0    1
 -2      1066      1080      1089      4156      4300      4188
 -1      2187    8    0    1
 -2      1052      1053      1126      4065      4301      4302
 -1      2188    8    0    1
 -2      1053      1111      1126      4253      4303      4301
 -1      2189    8    0    1
 -2      1050      1069      1127      4165      4304      4305
 -1      2190    8    0    1
 -2      1069      1122      1127      4287      4306      4304
 -1      2191    8    0    1
 -2      1074      1121      1088      4284      4307      4183
 -1      2192    8    0    1
 -2      1107      1013      1079      4242      4282      4308
 -1      2193    8    0    1
 -2      1052      1126      1108      4302      4309      4244
 -1      2194    8    0    1
 -2      1075      1089      1109      4187      4310      4246
 -1      2195    8    0    1
 -2      1084      1123      1125      4291      4311      4297
 -1      2196    8    0    1
 -2      1088      1121      1086      4307      4312      4313
 -1      2197    8    0    1
 -2      1091      1030      1090      4193      4191      4314
 -1      2198    8    0    1
 -2      1077      1107      1128      4243      4315      4316
 -1      2199    8    0    1
 -2      1078      1050      1129      4148      4317      4318
 -1      2200    8    0    1
 -2      1050      1127      1129      4305      4319      4317
 -1      2201    8    0    1
 -2      1006      1078      1079      4150      4320      4154
 -1      2202    8    0    1
 -2      1121      1125      1086      4298      4321      4312
 -1      2203    8    0    1
 -2      1062      1063      1130      4095      4322      4323
 -1      2204    8    0    1
 -2      1119      1062      1130      4275      4323      4324
 -1      2205    8    0    1
 -2      1063      1087      1130      4181      4325      4322
 -1      2206    8    0    1
 -2      1082      1018      1047      4162      4326      4241
 -1      2207    8    0    1
 -2      1020      1068      1131      4164      4327      4328
 -1      2208    8    0    1
 -2      1085      1082      1132      4172      4329      4330
 -1      2209    8    0    1
 -2      1082      1106      1132      4283      4331      4329
 -1      2210    8    0    1
 -2      1071      1072      1133      4299      4332      4333
 -1      2211    8    0    1
 -2      1018      1067      1047      4109      4175      4326
 -1      2212    8    0    1
 -2      1080      1086      1125      4178      4321      4334
 -1      2213    8    0    1
 -2      1072      1083      1133      4167      4335      4332
 -1      2214    8    0    1
 -2      1090      1077      1128      4289      4316      4336
 -1      2215    8    0    1
 -2      1089      1080      1134      4300      4337      4338
 -1      2216    8    0    1
 -2      1109      1089      1134      4310      4338      4339
 -1      2217    8    0    1
 -2      1080      1125      1134      4334      4340      4337
 -1      2218    8    0    1
 -2      1070      1071      1133      4121      4333      4341
 -1      2219    8    0    1
 -2      1070      1133      1120      4341      4342      4278
 -1      2220    8    0    1
 -2      1091      1090      1128      4314      4336      4343
 -1      2221    8    0    1
 -2      1128      1107      1129      4315      4344      4345
 -1      2222    8    0    1
 -2      1093      1092      1135      4200      4346      4347
 -1      2223    8    0    1
 -2      1094      1093      1136      4203      4348      4349
 -1      2224    8    0    1
 -2      1093      1135      1136      4347      4350      4348
 -1      2225    8    0    1
 -2      1095      1094      1137      4206      4351      4352
 -1      2226    8    0    1
 -2      1094      1136      1137      4349      4353      4351
 -1      2227    8    0    1
 -2      1096      1095      1138      4209      4354      4355
 -1      2228    8    0    1
 -2      1095      1137      1138      4352      4356      4354
 -1      2229    8    0    1
 -2      1097      1096      1139      4212      4357      4358
 -1      2230    8    0    1
 -2      1096      1138      1139      4355      4359      4357
 -1      2231    8    0    1
 -2      1098      1097      1140      4215      4360      4361
 -1      2232    8    0    1
 -2      1097      1139      1140      4358      4362      4360
 -1      2233    8    0    1
 -2      1099      1098      1141      4218      4363      4364
 -1      2234    8    0    1
 -2      1098      1140      1141      4361      4365      4363
 -1      2235    8    0    1
 -2      1100      1099      1142      4221      4366      4367
 -1      2236    8    0    1
 -2      1099      1141      1142      4364      4368      4366
 -1      2237    8    0    1
 -2      1101      1100      1143      4224      4369      4370
 -1      2238    8    0    1
 -2      1100      1142      1143      4367      4371      4369
 -1      2239    8    0    1
 -2      1102      1101      1144      4227      4372      4373
 -1      2240    8    0    1
 -2      1101      1143      1144      4370      4374      4372
 -1      2241    8    0    1
 -2      1103      1102      1145      4230      4375      4376
 -1      2242    8    0    1
 -2      1102      1144      1145      4373      4377      4375
 -1      2243    8    0    1
 -2      1104      1103      1146      4233      4378      4379
 -1      2244    8    0    1
 -2      1103      1145      1146      4376      4380      4378
 -1      2245    8    0    1
 -2      1105      1104      1147      4236      4381      4382
 -1      2246    8    0    1
 -2      1104      1146      1147      4379      4383      4381
 -1      2247    8    0    1
 -2      1106      1105      1132      4239      4384      4331
 -1      2248    8    0    1
 -2      1079      1078      1107      4320      4385      4308
 -1      2249    8    0    1
 -2      1083      1109      1148      4248      4386      4387
 -1      2250    8    0    1
 -2      1109      1134      1148      4339      4388      4386
 -1      2251    8    0    1
 -2      1110      1108      1138      4251      4389      4390
 -1      2252    8    0    1
 -2      1133      1083      1120      4335      4391      4342
 -1      2253    8    0    1
 -2      1112      1113      1142      4259      4392      4393
 -1      2254    8    0    1
 -2      1111      1112      1141      4256      4394      4395
 -1      2255    8    0    1
 -2      1114      1115      1144      4265      4396      4397
 -1      2256    8    0    1
 -2      1115      1116      1145      4268      4398      4399
 -1      2257    8    0    1
 -2      1116      1117      1146      4271      4400      4401
 -1      2258    8    0    1
 -2      1117      1118      1147      4274      4402      4403
 -1      2259    8    0    1
 -2      1118      1119      1147      4277      4404      4402
 -1      2260    8    0    1
 -2      1107      1078      1129      4385      4318      4344
 -1      2261    8    0    1
 -2      1091      1128      1149      4343      4405      4406
 -1      2262    8    0    1
 -2      1092      1091      1149      4197      4406      4407
 -1      2263    8    0    1
 -2      1128      1129      1149      4345      4408      4405
 -1      2264    8    0    1
 -2      1108      1126      1139      4309      4409      4410
 -1      2265    8    0    1
 -2      1122      1110      1137      4288      4411      4412
 -1      2266    8    0    1
 -2      1131      1068      1076      4327      4285      4413
 -1      2267    8    0    1
 -2      1020      1131      1086      4328      4414      4176
 -1      2268    8    0    1
 -2      1125      1123      1134      4311      4415      4340
 -1      2269    8    0    1
 -2       959       948      1024      4135      3973      4189
 -1      2270    8    0    1
 -2      1126      1111      1140      4303      4416      4417
 -1      2271    8    0    1
 -2      1127      1122      1136      4306      4418      4419
 -1      2272    8    0    1
 -2      1113      1114      1143      4262      4420      4421
 -1      2273    8    0    1
 -2      1120      1083      1148      4391      4387      4422
 -1      2274    8    0    1
 -2      1131      1076      1088      4413      4185      4423
 -1      2275    8    0    1
 -2      1129      1127      1149      4319      4424      4408
 -1      2276    8    0    1
 -2      1139      1126      1140      4409      4417      4362
 -1      2277    8    0    1
 -2      1145      1116      1146      4398      4401      4380
 -1      2278    8    0    1
 -2      1119      1130      1132      4324      4425      4426
 -1      2279    8    0    1
 -2      1092      1149      1135      4407      4427      4346
 -1      2280    8    0    1
 -2      1105      1147      1132      4382      4428      4384
 -1      2281    8    0    1
 -2      1110      1138      1137      4390      4356      4411
 -1      2282    8    0    1
 -2      1119      1132      1147      4426      4428      4404
 -1      2283    8    0    1
 -2      1144      1115      1145      4396      4399      4377
 -1      2284    8    0    1
 -2      1141      1112      1142      4394      4393      4368
 -1      2285    8    0    1
 -2      1138      1108      1139      4389      4410      4359
 -1      2286    8    0    1
 -2      1142      1113      1143      4392      4421      4371
 -1      2287    8    0    1
 -2      1111      1141      1140      4395      4365      4416
 -1      2288    8    0    1
 -2      1114      1144      1143      4397      4374      4420
 -1      2289    8    0    1
 -2      1117      1147      1146      4403      4383      4400
 -1      2290    8    0    1
 -2      1131      1088      1086      4423      4313      4414
 -1      2291    8    0    1
 -2      1122      1137      1136      4412      4353      4418
 -1      2292    8    0    1
 -2      1124      1120      1148      4296      4422      4429
 -1      2293    8    0    1
 -2      1123      1124      1134      4295      4430      4415
 -1      2294    8    0    1
 -2      1087      1085      1130      4182      4431      4325
 -1      2295    8    0    1
 -2      1130      1085      1132      4431      4330      4425
 -1      2296    8    0    1
 -2      1148      1134      1124      4388      4430      4429
 -1      2297    8    0    1
 -2      1149      1127      1135      4424      4432      4427
 -1      2298    8    0    1
 -2      1135      1127      1136      4432      4419      4350
 -3
    1PSTEP                         1           1           1          
  100CL  101 1.000000000        4432                     0    1           1
 -4  DISP        4    1
 -5  D1          1    2    1    0
 -5  D2          1    2    2    0
 -5  D3          1    2    3    0
 -5  ALL         1    2    0    0    1ALL
 -1         1 5.75505E-03-1.18169E-03-1.43655E-14
 -1         2 7.90264E-03-3.35790E-04-1.84912E-14
 -1         3 1.47807E-02-9.03316E-04-1.09791E-13
 -1         4 1.56350E-02-2.33453E-03-1.12043E-13
 -1         5 0.00000E+00 0.00000E+00 0.00000E+00
 -1         6 0.00000E+00 0.00000E+00 0.00000E+00
 -1         7 0.00000E+00 0.00000E+00 0.00000E+00
 -1         8 0.00000E+00 0.00000E+00 0.00000E+00
 -1         9 0.00000E+00 0.00000E+00 0.00000E+00
 -1        10 0.00000E+00 0.00000E+00 0.00000E+00
 -1        11 0.00000E+00 0.00000E+00 0.00000E+00
 -1        12 0.00000E+00 0.00000E+00 0.00000E+00
 -1        13 0.00000E+00 0.00000E+00 0.00000E+00
 -1        14 0.00000E+00 0.00000E+00 0.00000E+00
 -1        15 0.00000E+00 0.00000E+00 0.00000E+00
 -1        16 0.00000E+00 0.00000E+00 0.00000E+00
 -1        17 0.00000E+00 0.00000E+00 0.00000E+00
 -1        18 0.00000E+00 0.00000E+00 0.00000E+00
 -1        19 0.00000E+00 0.00000E+00 0.00000E+00
 -1        20 0.00000E+00 0.00000E+00 0.00000E+00
 -1        21 0.00000E+00 0.00000E+00 0.00000E+00
 -1        22 0.00000E+00 0.00000E+00 0.00000E+00
 -1        23 4.08657E-04-2.52492E-04 3.08727E-17
 -1        24 7.03001E-04-3.82799E-04-3.33731E-17
 -1        25 9.79261E-04-4.69843E-04-1.90989E-16
 -1        26 1.25356E-03-5.28429E-04-4.41291E-16
 -1        27 1.53118E-03-5.68064E-04-7.82455E-16
 -1        28 1.81539E-03-5.94768E-04-1.21453E-15
 -1        29 2.10873E-03-6.13376E-04-1.73952E-15
 -1        30 2.41355E-03-6.28457E-04-2.35715E-15
 -1        31 2.73211E-03-6.44936E-04-3.06819E-15
 -1        32 3.06642E-03-6.68596E-04-3.87148E-15
 -1        33 3.41766E-03-7.06402E-04-4.76111E-15
 -1        34 3.78510E-03-7.66372E-04-5.73470E-15
 -1        35 4.16437E-03-8.56395E-04-6.80057E-15
 -1        36 4.54576E-03-9.81166E-04-7.95790E-15
 -1        37 4.91382E-03-1.13680E-03-9.21057E-15
 -1        38 5.25121E-03-1.30486E-03-1.05651E-14
 -1        39 5.54790E-03-1.45135E-03-1.20249E-14
 -1        40 5.81132E-03-1.53750E-03-1.36019E-14
 -1        41 6.06722E-03-1.54055E-03-1.53044E-14
 -1        42 6.34605E-03-1.46870E-03-1.71274E-14
 -1        43 6.66529E-03-1.35555E-03-1.90804E-14
 -1        44 7.02281E-03-1.23983E-03-2.11481E-14
 -1        45 7.40361E-03-1.14849E-03-2.33234E-14
 -1        46 7.79063E-03-1.09239E-03-2.56023E-14
 -1        47 8.17132E-03-1.07067E-03-2.79820E-14
 -1        48 8.53904E-03-1.07702E-03-3.04614E-14
 -1        49 8.89174E-03-1.10390E-03-3.30310E-14
 -1        50 9.23007E-03-1.14469E-03-3.57032E-14
 -1        51 9.55591E-03-1.19430E-03-3.84781E-14
 -1        52 9.87149E-03-1.24909E-03-4.13568E-14
 -1        53 1.01790E-02-1.30661E-03-4.43186E-14
 -1        54 1.04802E-02-1.36527E-03-4.73619E-14
 -1        55 1.07767E-02-1.42408E-03-5.04966E-14
 -1        56 1.10697E-02-1.48247E-03-5.37068E-14
 -1        57 1.13602E-02-1.54013E-03-5.69965E-14
 -1        58 1.16488E-02-1.59694E-03-6.03556E-14
 -1        59 1.19362E-02-1.65289E-03-6.37640E-14
 -1        60 1.22227E-02-1.70802E-03-6.72209E-14
 -1        61 1.25087E-02-1.76240E-03-7.07195E-14
 -1        62 1.27943E-02-1.81614E-03-7.42583E-14
 -1        63 1.30797E-02-1.86934E-03-7.78564E-14
 -1        64 1.33651E-02-1.92209E-03-8.15096E-14
 -1        65 1.36504E-02-1.97449E-03-8.52157E-14
 -1        66 1.39358E-02-2.02661E-03-8.89689E-14
 -1        67 1.42212E-02-2.07853E-03-9.27720E-14
 -1        68 1.45067E-02-2.13032E-03-9.66036E-14
 -1        69 1.47922E-02-2.18202E-03-1.00469E-13
 -1        70 1.50779E-02-2.23370E-03-1.04359E-13
 -1        71 1.53636E-02-2.28539E-03-1.08288E-13
 -1        72 4.11253E-04 2.53779E-04 5.33766E-17
 -1        73 7.03193E-04 3.86899E-04 2.72745E-17
 -1        74 9.79887E-04 4.74194E-04-7.92687E-17
 -1        75 1.25377E-03 5.34295E-04-2.68692E-16
 -1        76 1.53006E-03 5.76103E-04-5.44906E-16
 -1        77 1.81154E-03 6.05660E-04-9.09822E-16
 -1        78 2.09990E-03 6.27730E-04-1.36339E-15
 -1        79 2.39613E-03 6.46508E-04-1.90502E-15
 -1        80 2.70058E-03 6.65957E-04-2.53884E-15
 -1        81 3.01279E-03 6.89870E-04-3.26574E-15
 -1        82 3.33117E-03 7.21664E-04-4.09037E-15
 -1        83 3.65273E-03 7.63832E-04-5.00697E-15
 -1        84 3.97289E-03 8.17018E-04-6.01976E-15
 -1        85 4.28586E-03 8.78838E-04-7.12975E-15
 -1        86 4.58574E-03 9.42896E-04-8.34217E-15
 -1        87 4.86851E-03 9.98765E-04-9.67144E-15
 -1        88 5.13417E-03 1.03375E-03-1.11086E-14
 -1        89 5.38793E-03 1.03648E-03-1.26584E-14
 -1        90 5.63923E-03 1.00108E-03-1.43325E-14
 -1        91 5.89856E-03 9.29548E-04-1.61319E-14
 -1        92 6.17366E-03 8.30958E-04-1.80544E-14
 -1        93 6.46734E-03 7.17953E-04-2.00959E-14
 -1        94 6.77757E-03 6.02653E-04-2.22527E-14
 -1        95 7.09934E-03 4.93904E-04-2.45180E-14
 -1        96 7.42681E-03 3.96465E-04-2.68819E-14
 -1        97 7.75497E-03 3.11638E-04-2.93559E-14
 -1        98 8.08026E-03 2.38475E-04-3.19370E-14
 -1        99 8.40064E-03 1.74914E-04-3.46150E-14
 -1       100 8.71528E-03 1.18588E-04-3.73843E-14
 -1       101 9.02420E-03 6.72920E-05-4.02474E-14
 -1       102 9.32789E-03 1.91967E-05-4.31926E-14
 -1       103 9.62710E-03-2.71004E-05-4.62195E-14
 -1       104 9.92261E-03-7.26076E-05-4.93193E-14
 -1       105 1.02152E-02-1.18005E-04-5.25052E-14
 -1       106 1.05055E-02-1.63718E-04-5.57721E-14
 -1       107 1.07942E-02-2.09986E-04-5.91221E-14
 -1       108 1.10816E-02-2.56916E-04-6.25374E-14
 -1       109 1.13682E-02-3.04529E-04-6.60202E-14
 -1       110 1.16543E-02-3.52793E-04-6.95587E-14
 -1       111 1.19399E-02-4.01642E-04-7.31473E-14
 -1       112 1.22254E-02-4.51000E-04-7.67853E-14
 -1       113 1.25108E-02-5.00782E-04-8.04601E-14
 -1       114 1.27961E-02-5.50907E-04-8.41602E-14
 -1       115 1.30815E-02-6.01299E-04-8.78734E-14
 -1       116 1.33669E-02-6.51889E-04-9.15771E-14
 -1       117 1.36524E-02-7.02615E-04-9.52610E-14
 -1       118 1.39380E-02-7.53419E-04-9.89611E-14
 -1       119 1.42236E-02-8.04250E-04-1.02652E-13
 -1       120 1.45093E-02-8.55068E-04-1.06323E-13
 -1       121 1.48307E-02-9.87601E-04-1.09934E-13
 -1       122 1.48806E-02-1.07191E-03-1.10096E-13
 -1       123 1.49305E-02-1.15626E-03-1.10264E-13
 -1       124 1.49804E-02-1.24067E-03-1.10437E-13
 -1       125 1.50303E-02-1.32514E-03-1.10608E-13
 -1       126 1.50795E-02-1.40822E-03-1.10791E-13
 -1       127 1.51297E-02-1.49277E-03-1.10952E-13
 -1       128 1.51800E-02-1.57735E-03-1.11113E-13
 -1       129 1.52304E-02-1.66192E-03-1.11271E-13
 -1       130 1.52809E-02-1.74650E-03-1.11400E-13
 -1       131 1.53315E-02-1.83105E-03-1.11531E-13
 -1       132 1.53814E-02-1.91414E-03-1.11669E-13
 -1       133 1.54323E-02-1.99861E-03-1.11794E-13
 -1       134 1.54832E-02-2.08302E-03-1.11888E-13
 -1       135 1.55341E-02-2.16737E-03-1.11950E-13
 -1       136 1.55850E-02-2.25168E-03-1.12000E-13
 -1       137 7.83385E-03-1.61986E-04-1.83711E-14
 -1       138 7.67517E-03 2.79056E-06-1.80538E-14
 -1       139 7.42094E-03 1.62779E-04-1.75376E-14
 -1       140 7.09502E-03 3.01622E-04-1.68924E-14
 -1       141 6.68507E-03 4.20354E-04-1.60983E-14
 -1       142 6.22672E-03 5.05746E-04-1.52267E-14
 -1       143 5.78577E-03 5.47751E-04-1.44256E-14
 -1       144 5.31134E-03 5.54053E-04-1.35929E-14
 -1       145 4.81413E-03 5.13780E-04-1.27501E-14
 -1       146 4.41664E-03 4.41716E-04-1.21025E-14
 -1       147 4.08718E-03 3.43930E-04-1.15786E-14
 -1       148 3.78310E-03 2.02048E-04-1.11094E-14
 -1       149 3.58581E-03 4.50776E-05-1.08169E-14
 -1       150 3.48866E-03-1.17864E-04-1.06784E-14
 -1       151 3.48582E-03-2.98438E-04-1.06815E-14
 -1       152 3.58069E-03-4.73903E-04-1.08327E-14
 -1       153 3.77504E-03-6.50215E-04-1.11358E-14
 -1       154 4.04302E-03-8.07108E-04-1.15563E-14
 -1       155 4.38081E-03-9.45701E-04-1.20903E-14
 -1       156 4.79749E-03-1.06403E-03-1.27617E-14
 -1       157 5.25632E-03-1.14462E-03-1.35159E-14
 -1       158 6.18697E-03-1.17242E-03-1.51207E-14
 -1       159 6.62497E-03-1.12147E-03-1.59141E-14
 -1       160 7.00858E-03-1.03731E-03-1.66295E-14
 -1       161 7.32924E-03-9.28070E-04-1.72548E-14
 -1       162 7.57977E-03-8.02732E-04-1.77617E-14
 -1       163 7.77041E-03-6.55359E-04-1.81663E-14
 -1       164 7.87788E-03-5.00462E-04-1.84128E-14
 -1       165 2.42833E-04-1.17756E-04-1.41997E-17
 -1       166 2.27739E-04-8.57917E-05-2.80978E-17
 -1       167 2.21084E-04-6.36208E-05-3.59752E-17
 -1       168 2.16967E-04-4.65117E-05-4.04645E-17
 -1       169 2.14160E-04-3.27875E-05-4.27921E-17
 -1       170 2.12219E-04-2.08927E-05-4.37950E-17
 -1       171 2.11104E-04-1.02633E-05-4.39102E-17
 -1       172 2.10790E-04-1.87004E-07-4.34833E-17
 -1       173 2.11255E-04 9.99643E-06-4.20941E-17
 -1       174 2.12474E-04 2.09233E-05-4.00647E-17
 -1       175 2.14401E-04 3.30217E-05-3.71983E-17
 -1       176 2.17199E-04 4.74462E-05-3.29157E-17
 -1       177 2.21226E-04 6.50439E-05-2.64545E-17
 -1       178 2.27793E-04 8.77062E-05-1.61072E-17
 -1       179 2.41658E-04 1.20329E-04 7.28448E-19
 -1       180 2.99057E-04 1.78193E-04 1.94750E-17
 -1       181 4.72259E-04-2.49498E-04-4.04848E-17
 -1       182 7.75219E-04-3.57193E-04-1.70813E-16
 -1       183 1.06651E-03-4.28984E-04-3.89537E-16
 -1       184 1.35452E-03-4.76822E-04-6.97156E-16
 -1       185 1.64368E-03-5.08113E-04-1.09418E-15
 -1       186 1.93707E-03-5.28309E-04-1.58148E-15
 -1       187 2.23703E-03-5.42101E-04-2.15925E-15
 -1       188 2.54556E-03-5.54209E-04-2.82743E-15
 -1       189 2.86432E-03-5.69993E-04-3.58644E-15
 -1       190 3.19454E-03-5.95954E-04-4.43388E-15
 -1       191 3.53664E-03-6.40000E-04-5.36524E-15
 -1       192 3.88959E-03-7.11009E-04-6.38390E-15
 -1       193 4.25007E-03-8.16907E-04-7.49581E-15
 -1       194 4.61179E-03-9.60264E-04-8.69969E-15
 -1       195 4.96583E-03-1.13142E-03-1.00006E-14
 -1       196 5.30356E-03-1.30257E-03-1.14073E-14
 -1       197 5.62231E-03-1.43112E-03-1.29262E-14
 -1       198 5.93001E-03-1.47862E-03-1.45658E-14
 -1       199 6.24209E-03-1.43568E-03-1.63292E-14
 -1       200 6.57121E-03-1.32890E-03-1.82170E-14
 -1       201 6.91983E-03-1.20213E-03-2.02276E-14
 -1       202 7.28158E-03-1.09215E-03-2.23509E-14
 -1       203 7.64719E-03-1.01757E-03-2.45818E-14
 -1       204 8.00898E-03-9.81288E-04-2.69121E-14
 -1       205 8.36231E-03-9.77749E-04-2.93414E-14
 -1       206 8.70521E-03-9.98744E-04-3.18654E-14
 -1       207 9.03755E-03-1.03656E-03-3.44866E-14
 -1       208 9.36021E-03-1.08511E-03-3.72075E-14
 -1       209 9.67453E-03-1.13999E-03-4.00270E-14
 -1       210 9.98195E-03-1.19823E-03-4.29429E-14
 -1       211 1.02838E-02-1.25791E-03-4.59377E-14
 -1       212 1.05813E-02-1.31783E-03-4.90147E-14
 -1       213 1.08755E-02-1.37730E-03-5.21781E-14
 -1       214 1.11671E-02-1.43596E-03-5.54167E-14
 -1       215 1.14568E-02-1.49364E-03-5.87300E-14
 -1       216 1.17451E-02-1.55033E-03-6.21080E-14
 -1       217 1.20324E-02-1.60607E-03-6.55347E-14
 -1       218 1.23191E-02-1.66096E-03-6.90107E-14
 -1       219 1.26052E-02-1.71510E-03-7.25271E-14
 -1       220 1.28911E-02-1.76861E-03-7.60957E-14
 -1       221 1.31768E-02-1.82160E-03-7.97181E-14
 -1       222 1.34624E-02-1.87417E-03-8.33883E-14
 -1       223 1.37479E-02-1.92642E-03-8.71042E-14
 -1       224 1.40335E-02-1.97842E-03-9.08751E-14
 -1       225 1.43190E-02-2.03026E-03-9.46794E-14
 -1       226 1.46046E-02-2.08198E-03-9.85175E-14
 -1       227 1.48902E-02-2.13365E-03-1.02388E-13
 -1       228 1.51759E-02-2.18532E-03-1.06294E-13
 -1       229 6.09076E-04 3.14150E-04-2.30901E-17
 -1       230 9.03632E-04 4.06010E-04-1.41197E-16
 -1       231 1.19057E-03 4.68458E-04-3.39660E-16
 -1       232 1.47589E-03 5.11172E-04-6.22031E-16
 -1       233 1.76307E-03 5.40643E-04-9.91269E-16
 -1       234 2.05422E-03 5.61887E-04-1.44862E-15
 -1       235 2.35061E-03 5.79275E-04-1.99487E-15
 -1       236 2.65285E-03 5.96929E-04-2.62983E-15
 -1       237 2.96083E-03 6.18842E-04-3.35679E-15
 -1       238 3.27365E-03 6.48724E-04-4.17743E-15
 -1       239 3.58943E-03 6.89479E-04-5.09302E-15
 -1       240 3.90524E-03 7.42266E-04-6.10212E-15
 -1       241 4.21738E-03 8.05227E-04-7.20803E-15
 -1       242 4.52199E-03 8.72275E-04-8.41522E-15
 -1       243 4.81626E-03 9.32795E-04-9.73259E-15
 -1       244 5.09983E-03 9.73237E-04-1.11614E-14
 -1       245 5.37562E-03 9.80888E-04-1.27039E-14
 -1       246 5.64936E-03 9.48579E-04-1.43692E-14
 -1       247 5.92766E-03 8.77719E-04-1.61584E-14
 -1       248 6.21559E-03 7.77689E-04-1.80736E-14
 -1       249 6.51512E-03 6.62029E-04-2.01059E-14
 -1       250 6.82513E-03 5.43844E-04-2.22543E-14
 -1       251 7.14248E-03 4.32681E-04-2.45071E-14
 -1       252 7.46341E-03 3.33618E-04-2.68646E-14
 -1       253 7.78455E-03 2.47976E-04-2.93285E-14
 -1       254 8.10341E-03 1.74663E-04-3.18986E-14
 -1       255 8.41851E-03 1.11417E-04-3.45637E-14
 -1       256 8.72914E-03 5.56848E-05-3.73186E-14
 -1       257 9.03525E-03 5.11230E-06-4.01658E-14
 -1       258 9.33714E-03-4.22339E-05-4.31006E-14
 -1       259 9.63532E-03-8.78226E-05-4.61126E-14
 -1       260 9.93036E-03-1.32698E-04-4.92058E-14
 -1       261 1.02229E-02-1.77556E-04-5.23789E-14
 -1       262 1.05134E-02-2.22823E-04-5.56343E-14
 -1       263 1.08023E-02-2.68733E-04-5.89693E-14
 -1       264 1.10902E-02-3.15383E-04-6.23697E-14
 -1       265 1.13772E-02-3.62783E-04-6.58339E-14
 -1       266 1.16636E-02-4.10888E-04-6.93561E-14
 -1       267 1.19496E-02-4.59623E-04-7.29367E-14
 -1       268 1.22353E-02-5.08900E-04-7.65666E-14
 -1       269 1.25210E-02-5.58629E-04-8.02370E-14
 -1       270 1.28065E-02-6.08721E-04-8.39309E-14
 -1       271 1.30920E-02-6.59097E-04-8.76355E-14
 -1       272 1.33775E-02-7.09682E-04-9.13334E-14
 -1       273 1.36631E-02-7.60410E-04-9.50215E-14
 -1       274 1.39487E-02-8.11222E-04-9.87184E-14
 -1       275 1.42344E-02-8.62065E-04-1.02412E-13
 -1       276 1.45201E-02-9.12894E-04-1.06087E-13
 -1       277 1.46082E-02-9.85775E-04-1.06842E-13
 -1       278 1.46581E-02-1.07010E-03-1.06995E-13
 -1       279 1.47079E-02-1.15446E-03-1.07151E-13
 -1       280 1.47579E-02-1.23885E-03-1.07308E-13
 -1       281 1.48070E-02-1.32185E-03-1.07461E-13
 -1       282 1.48571E-02-1.40630E-03-1.07611E-13
 -1       283 1.49073E-02-1.49077E-03-1.07759E-13
 -1       284 1.49577E-02-1.57525E-03-1.07903E-13
 -1       285 1.50081E-02-1.65973E-03-1.08036E-13
 -1       286 1.50587E-02-1.74420E-03-1.08159E-13
 -1       287 1.51086E-02-1.82722E-03-1.08266E-13
 -1       288 1.51594E-02-1.91165E-03-1.08361E-13
 -1       289 1.52103E-02-1.99604E-03-1.08441E-13
 -1       290 1.52612E-02-2.08040E-03-1.08505E-13
 -1       291 1.52186E-02-2.13287E-03-1.07403E-13
 -1       292 7.90035E-03-3.02263E-04-1.93037E-14
 -1       293 7.74378E-03-2.01582E-04-1.90913E-14
 -1       294 7.46838E-03-7.24461E-05-1.86271E-14
 -1       295 7.12539E-03 1.09261E-04-1.78145E-14
 -1       296 6.71410E-03 2.90169E-04-1.69936E-14
 -1       297 6.28853E-03 4.72281E-04-1.59983E-14
 -1       298 5.92548E-03 5.88748E-04-1.49266E-14
 -1       299 5.55479E-03 6.32929E-04-1.39604E-14
 -1       300 5.16473E-03 5.88410E-04-1.29504E-14
 -1       301 4.76233E-03 4.62050E-04-1.21159E-14
 -1       302 4.40113E-03 3.11939E-04-1.14520E-14
 -1       303 4.05221E-03 1.34666E-04-1.08111E-14
 -1       304 3.72117E-03 4.40938E-06-1.05095E-14
 -1       305 3.52154E-03-1.10606E-04-1.02756E-14
 -1       306 3.44467E-03-2.07343E-04-1.01357E-14
 -1       307 3.51212E-03-3.04278E-04-1.02536E-14
 -1       308 3.71145E-03-4.23959E-04-1.05020E-14
 -1       309 4.00837E-03-5.85373E-04-1.09296E-14
 -1       310 4.36343E-03-7.65631E-04-1.14565E-14
 -1       311 4.75654E-03-9.59208E-04-1.21285E-14
 -1       312 5.16162E-03-1.13086E-03-1.29366E-14
 -1       313 5.56946E-03-1.24507E-03-1.38503E-14
 -1       314 5.93832E-03-1.25511E-03-1.48013E-14
 -1       315 6.29434E-03-1.19071E-03-1.57357E-14
 -1       316 6.66876E-03-1.05804E-03-1.66327E-14
 -1       317 7.01703E-03-8.96661E-04-1.74900E-14
 -1       318 7.34643E-03-7.44617E-04-1.81549E-14
 -1       319 7.62440E-03-6.05184E-04-1.87230E-14
 -1       320 7.82737E-03-4.89590E-04-1.91282E-14
 -1       321 7.92684E-03-3.93360E-04-1.93901E-14
 -1       322 4.59626E-04-1.46669E-04-1.24311E-16
 -1       323 4.80145E-04-1.95520E-04-1.00892E-16
 -1       324 4.38726E-04-7.88782E-05-1.47465E-16
 -1       325 4.32848E-04-5.33812E-05-1.51663E-16
 -1       326 4.29119E-04-3.10249E-05-1.53306E-16
 -1       327 4.27408E-04-1.03628E-05-1.52784E-16
 -1       328 4.27650E-04 9.90414E-06-1.50115E-16
 -1       329 4.29779E-04 3.09991E-05-1.45371E-16
 -1       330 4.33667E-04 5.37191E-05-1.38178E-16
 -1       331 4.39547E-04 8.01338E-05-1.28481E-16
 -1       332 4.47873E-04 1.11496E-04-1.14637E-16
 -1       333 4.60203E-04 1.50221E-04-9.43053E-17
 -1       334 4.81461E-04 2.00754E-04-6.44457E-17
 -1       335 5.37754E-04 2.53356E-04-4.87078E-17
 -1       336 8.35237E-04 3.46862E-04-1.73723E-16
 -1       337 8.75935E-04-3.25429E-04-3.26724E-16
 -1       338 1.16933E-03-3.82724E-04-6.02854E-16
 -1       339 1.46148E-03-4.20543E-04-9.66363E-16
 -1       340 1.75451E-03-4.44540E-04-1.41742E-15
 -1       341 2.05027E-03-4.59490E-04-1.95748E-15
 -1       342 2.35037E-03-4.69915E-04-2.58583E-15
 -1       343 2.65628E-03-4.80658E-04-3.30212E-15
 -1       344 2.96943E-03-4.97419E-04-4.10733E-15
 -1       345 3.29132E-03-5.27212E-04-4.99804E-15
 -1       346 3.62348E-03-5.78526E-04-5.97294E-15
 -1       347 3.96724E-03-6.60703E-04-7.03688E-15
 -1       348 4.32270E-03-7.81573E-04-8.19352E-15
 -1       349 4.68678E-03-9.41976E-04-9.44132E-15
 -1       350 5.05140E-03-1.12679E-03-1.07912E-14
 -1       351 5.40607E-03-1.29706E-03-1.22486E-14
 -1       352 5.74722E-03-1.39876E-03-1.38270E-14
 -1       353 6.08479E-03-1.39599E-03-1.55286E-14
 -1       354 6.43290E-03-1.30186E-03-1.73561E-14
 -1       355 6.79474E-03-1.16673E-03-1.93104E-14
 -1       356 7.16199E-03-1.03993E-03-2.13824E-14
 -1       357 7.52460E-03-9.48360E-04-2.35624E-14
 -1       358 7.87707E-03-8.98178E-04-2.58447E-14
 -1       359 8.21823E-03-8.84451E-04-2.82246E-14
 -1       360 8.54903E-03-8.98610E-04-3.07004E-14
 -1       361 8.87098E-03-9.32264E-04-3.32710E-14
 -1       362 9.18553E-03-9.78610E-04-3.59412E-14
 -1       363 9.49395E-03-1.03264E-03-3.87101E-14
 -1       364 9.79734E-03-1.09089E-03-4.15719E-14
 -1       365 1.00966E-02-1.15108E-03-4.45198E-14
 -1       366 1.03926E-02-1.21177E-03-4.75478E-14
 -1       367 1.06859E-02-1.27211E-03-5.06603E-14
 -1       368 1.09772E-02-1.33163E-03-5.38501E-14
 -1       369 1.12669E-02-1.39012E-03-5.71169E-14
 -1       370 1.15554E-02-1.44753E-03-6.04571E-14
 -1       371 1.18430E-02-1.50389E-03-6.38546E-14
 -1       372 1.21299E-02-1.55930E-03-6.73084E-14
 -1       373 1.24164E-02-1.61387E-03-7.08025E-14
 -1       374 1.27025E-02-1.66772E-03-7.43415E-14
 -1       375 1.29884E-02-1.72098E-03-7.79337E-14
 -1       376 1.32742E-02-1.77376E-03-8.15749E-14
 -1       377 1.35599E-02-1.82616E-03-8.52614E-14
 -1       378 1.38456E-02-1.87827E-03-8.89935E-14
 -1       379 1.41312E-02-1.93017E-03-9.27702E-14
 -1       380 1.44169E-02-1.98192E-03-9.65803E-14
 -1       381 1.47025E-02-2.03360E-03-1.00421E-13
 -1       382 1.49605E-02-2.08323E-03-1.03897E-13
 -1       383 1.12761E-03 4.11457E-04-3.76747E-16
 -1       384 1.41755E-03 4.55550E-04-6.61692E-16
 -1       385 1.70779E-03 4.85574E-04-1.03191E-15
 -1       386 2.00030E-03 5.06631E-04-1.48928E-15
 -1       387 2.29644E-03 5.23172E-04-2.03493E-15
 -1       388 2.59704E-03 5.39392E-04-2.66829E-15
 -1       389 2.90244E-03 5.59390E-04-3.39187E-15
 -1       390 3.21239E-03 5.87063E-04-4.20763E-15
 -1       391 3.52594E-03 6.25664E-04-5.11718E-15
 -1       392 3.84130E-03 6.76913E-04-6.11894E-15
 -1       393 4.15585E-03 7.39692E-04-7.21748E-15
 -1       394 4.46638E-03 8.08629E-04-8.41581E-15
 -1       395 4.77000E-03 8.73376E-04-9.72094E-15
 -1       396 5.06541E-03 9.19758E-04-1.11380E-14
 -1       397 5.35413E-03 9.33528E-04-1.26693E-14
 -1       398 5.64054E-03 9.05750E-04-1.43214E-14
 -1       399 5.93015E-03 8.36831E-04-1.61005E-14
 -1       400 6.22716E-03 7.36347E-04-1.80035E-14
 -1       401 6.53292E-03 6.18803E-04-2.00250E-14
 -1       402 6.84602E-03 4.98343E-04-2.21614E-14
 -1       403 7.16359E-03 3.85200E-04-2.44040E-14
 -1       404 7.48255E-03 2.84724E-04-2.67515E-14
 -1       405 7.80040E-03 1.98253E-04-2.92034E-14
 -1       406 8.11548E-03 1.24594E-04-3.17587E-14
 -1       407 8.42689E-03 6.13588E-05-3.44106E-14
 -1       408 8.73431E-03 5.87029E-06-3.71528E-14
 -1       409 9.03781E-03-4.43226E-05-3.99869E-14
 -1       410 9.33773E-03-9.12274E-05-4.29072E-14
 -1       411 9.63450E-03-1.36364E-04-4.59060E-14
 -1       412 9.92863E-03-1.80810E-04-4.89864E-14
 -1       413 1.02206E-02-2.25281E-04-5.21468E-14
 -1       414 1.05108E-02-2.70212E-04-5.53886E-14
 -1       415 1.07997E-02-3.15839E-04-5.87089E-14
 -1       416 1.10875E-02-3.62257E-04-6.20977E-14
 -1       417 1.13746E-02-4.09472E-04-6.55479E-14
 -1       418 1.16612E-02-4.57432E-04-6.90567E-14
 -1       419 1.19474E-02-5.06056E-04-7.26262E-14
 -1       420 1.22333E-02-5.55251E-04-7.62484E-14
 -1       421 1.25190E-02-6.04920E-04-7.99143E-14
 -1       422 1.28047E-02-6.54972E-04-8.36041E-14
 -1       423 1.30903E-02-7.05321E-04-8.73042E-14
 -1       424 1.33759E-02-7.55892E-04-9.09977E-14
 -1       425 1.36615E-02-8.06615E-04-9.46880E-14
 -1       426 1.39472E-02-8.57430E-04-9.83836E-14
 -1       427 1.42328E-02-9.08282E-04-1.02077E-13
 -1       428 1.44205E-02-9.47035E-04-1.04463E-13
 -1       429 1.44854E-02-1.15257E-03-1.04020E-13
 -1       430 1.44356E-02-1.06823E-03-1.03875E-13
 -1       431 1.44280E-02-1.00763E-03-1.04169E-13
 -1       432 1.45345E-02-1.23551E-03-1.04157E-13
 -1       433 1.45846E-02-1.31988E-03-1.04289E-13
 -1       434 1.46347E-02-1.40427E-03-1.04421E-13
 -1       435 1.46850E-02-1.48866E-03-1.04552E-13
 -1       436 1.47354E-02-1.57306E-03-1.04678E-13
 -1       437 1.47859E-02-1.65745E-03-1.04793E-13
 -1       438 1.48357E-02-1.74041E-03-1.04888E-13
 -1       439 1.48865E-02-1.82479E-03-1.04966E-13
 -1       440 1.49373E-02-1.90915E-03-1.05031E-13
 -1       441 1.49883E-02-1.99350E-03-1.05090E-13
 -1       442 7.60723E-03-2.15803E-04-1.98166E-14
 -1       443 7.95051E-03-3.63631E-04-2.05830E-14
 -1       444 7.86498E-03-3.16483E-04-2.03599E-14
 -1       445 7.22294E-03-4.98451E-05-1.90028E-14
 -1       446 6.87743E-03 1.25416E-04-1.81367E-14
 -1       447 4.47175E-04-1.09132E-04-1.38744E-16
 -1       448 6.00068E-03 5.72914E-04-1.55262E-14
 -1       449 5.72551E-03 6.53045E-04-1.45276E-14
 -1       450 5.39239E-03 6.54076E-04-1.33739E-14
 -1       451 4.99118E-03 5.31572E-04-1.22257E-14
 -1       452 4.64149E-03 3.68853E-04-1.14088E-14
 -1       453 4.30077E-03 1.97745E-04-1.07391E-14
 -1       454 3.86250E-03-2.72325E-06-1.00838E-14
 -1       455 3.62680E-03-9.50506E-05-9.86117E-15
 -1       456 3.45491E-03-1.70380E-04-9.59989E-15
 -1       457 3.44856E-03-2.30645E-04-9.68340E-15
 -1       458 3.59983E-03-2.99320E-04-9.81354E-15
 -1       459 3.89241E-03-4.31763E-04-1.02584E-14
 -1       460 4.24585E-03-6.01360E-04-1.07405E-14
 -1       461 4.64178E-03-8.17508E-04-1.14100E-14
 -1       462 5.03936E-03-1.04079E-03-1.22435E-14
 -1       463 5.39724E-03-1.21052E-03-1.31792E-14
 -1       464 5.79010E-03-1.30171E-03-1.43918E-14
 -1       465 6.05447E-03-1.27251E-03-1.53136E-14
 -1       466 6.43781E-03-1.12992E-03-1.66325E-14
 -1       467 6.72805E-03-9.80774E-04-1.74988E-14
 -1       468 7.14503E-03-7.64842E-04-1.85139E-14
 -1       469 7.42929E-03-6.30521E-04-1.90978E-14
 -1       470 7.72986E-03-4.89731E-04-1.99980E-14
 -1       471 7.88537E-03-4.24775E-04-2.02691E-14
 -1       472 6.45089E-03 3.53590E-04-1.69875E-14
 -1       473 4.06122E-03 7.60680E-05-1.00046E-14
 -1       474 5.20207E-03 6.18910E-04-1.26265E-14
 -1       475 9.43650E-04 3.13289E-04-3.31674E-16
 -1       476 6.54858E-04-6.18664E-05-3.25820E-16
 -1       477 6.63158E-04-9.64045E-05-3.20365E-16
 -1       478 6.48954E-04-5.89970E-07-3.23729E-16
 -1       479 6.51106E-04 2.97148E-05-3.16668E-16
 -1       480 6.56372E-04 6.14445E-05-3.05633E-16
 -1       481 6.64906E-04 9.73131E-05-2.90044E-16
 -1       482 6.76962E-04 1.38571E-04-2.68950E-16
 -1       483 6.93707E-04 1.87319E-04-2.39812E-16
 -1       484 1.23538E-03 3.64078E-04-5.93255E-16
 -1       485 9.88103E-04-2.90627E-04-5.02114E-16
 -1       486 4.82584E-03 4.59504E-04-1.14504E-14
 -1       487 1.27870E-03-3.34174E-04-8.32240E-16
 -1       488 1.56960E-03-3.62750E-04-1.24825E-15
 -1       489 1.86109E-03-3.80446E-04-1.75135E-15
 -1       490 2.15391E-03-3.91334E-04-2.34160E-15
 -1       491 2.44896E-03-3.99623E-04-3.01864E-15
 -1       492 2.74739E-03-4.10022E-04-3.78254E-15
 -1       493 3.05088E-03-4.28171E-04-4.63122E-15
 -1       494 3.36209E-03-4.61061E-04-5.56539E-15
 -1       495 3.68499E-03-5.17372E-04-6.58418E-15
 -1       496 4.02474E-03-6.07338E-04-7.69107E-15
 -1       497 4.38560E-03-7.40873E-04-8.88788E-15
 -1       498 4.76622E-03-9.20570E-04-1.01785E-14
 -1       499 5.15451E-03-1.12649E-03-1.15736E-14
 -1       500 5.53333E-03-1.29725E-03-1.30856E-14
 -1       501 5.90006E-03-1.35619E-03-1.47250E-14
 -1       502 6.27231E-03-1.28168E-03-1.64943E-14
 -1       503 6.65780E-03-1.13236E-03-1.83930E-14
 -1       504 7.04530E-03-9.83306E-04-2.04147E-14
 -1       505 7.41782E-03-8.75318E-04-2.25467E-14
 -1       506 7.76909E-03-8.14712E-04-2.47797E-14
 -1       507 8.10125E-03-7.94034E-04-2.71124E-14
 -1       508 8.41946E-03-8.03144E-04-2.95386E-14
 -1       509 8.72840E-03-8.33067E-04-3.20609E-14
 -1       510 9.03128E-03-8.76801E-04-3.46812E-14
 -1       511 9.33009E-03-9.29189E-04-3.73977E-14
 -1       512 9.62599E-03-9.86582E-04-4.02110E-14
 -1       513 9.91969E-03-1.04649E-03-4.31121E-14
 -1       514 1.02116E-02-1.10731E-03-4.60919E-14
 -1       515 1.05022E-02-1.16801E-03-4.91558E-14
 -1       516 1.07916E-02-1.22802E-03-5.22973E-14
 -1       517 1.10801E-02-1.28706E-03-5.55133E-14
 -1       518 1.13678E-02-1.34499E-03-5.88117E-14
 -1       519 1.16550E-02-1.40185E-03-6.21789E-14
 -1       520 1.19417E-02-1.45769E-03-6.56034E-14
 -1       521 1.22281E-02-1.51264E-03-6.90744E-14
 -1       522 1.25143E-02-1.56680E-03-7.25906E-14
 -1       523 1.28003E-02-1.62032E-03-7.61533E-14
 -1       524 1.30861E-02-1.67330E-03-7.97655E-14
 -1       525 1.33719E-02-1.72585E-03-8.34221E-14
 -1       526 1.36577E-02-1.77808E-03-8.71216E-14
 -1       527 1.39434E-02-1.83005E-03-9.08679E-14
 -1       528 1.42291E-02-1.88185E-03-9.46529E-14
 -1       529 1.45148E-02-1.93355E-03-9.84649E-14
 -1       530 1.81932E-03 4.22422E-04-1.36536E-15
 -1       531 2.11351E-03 4.39138E-04-1.87997E-15
 -1       532 2.41057E-03 4.53157E-04-2.48052E-15
 -1       533 2.71143E-03 4.68561E-04-3.16912E-15
 -1       534 3.01682E-03 4.89429E-04-3.94743E-15
 -1       535 3.32721E-03 5.19659E-04-4.81793E-15
 -1       536 3.64251E-03 5.62415E-04-5.77851E-15
 -1       537 3.96171E-03 6.19073E-04-6.83253E-15
 -1       538 4.28247E-03 6.87590E-04-7.98395E-15
 -1       539 4.60116E-03 7.60651E-04-9.23771E-15
 -1       540 4.91400E-03 8.24830E-04-1.05975E-14
 -1       541 5.21931E-03 8.62640E-04-1.20720E-14
 -1       542 5.51938E-03 8.58595E-04-1.36655E-14
 -1       543 5.81984E-03 8.06741E-04-1.53853E-14
 -1       544 6.12616E-03 7.14049E-04-1.72324E-14
 -1       545 6.44032E-03 5.96461E-04-1.91984E-14
 -1       546 6.76044E-03 4.71398E-04-2.12812E-14
 -1       547 7.08270E-03 3.52054E-04-2.34729E-14
 -1       548 7.40360E-03 2.45582E-04-2.57719E-14
 -1       549 7.72092E-03 1.54087E-04-2.81752E-14
 -1       550 8.03376E-03 7.66031E-05-3.06764E-14
 -1       551 8.34202E-03 1.06935E-05-3.32773E-14
 -1       552 8.64608E-03-4.64838E-05-3.59707E-14
 -1       553 8.94648E-03-9.75814E-05-3.87550E-14
 -1       554 9.24376E-03-1.44806E-04-4.16295E-14
 -1       555 9.53847E-03-1.89855E-04-4.45836E-14
 -1       556 9.83107E-03-2.33953E-04-4.76184E-14
 -1       557 1.01220E-02-2.77930E-04-5.07314E-14
 -1       558 1.04115E-02-3.22306E-04-5.39262E-14
 -1       559 1.07000E-02-3.67373E-04-5.71998E-14
 -1       560 1.09877E-02-4.13264E-04-6.05493E-14
 -1       561 1.12748E-02-4.60004E-04-6.39616E-14
 -1       562 1.15614E-02-5.07553E-04-6.74349E-14
 -1       563 1.18477E-02-5.55832E-04-7.09704E-14
 -1       564 1.21337E-02-6.04744E-04-7.45620E-14
 -1       565 1.24196E-02-6.54189E-04-7.82047E-14
 -1       566 1.27054E-02-7.04067E-04-8.18791E-14
 -1       567 1.29912E-02-7.54288E-04-8.55708E-14
 -1       568 1.32768E-02-8.04769E-04-8.92651E-14
 -1       569 1.35625E-02-8.55438E-04-9.29579E-14
 -1       570 1.38482E-02-9.06229E-04-9.66511E-14
 -1       571 1.41339E-02-9.57084E-04-1.00352E-13
 -1       572 1.43121E-02-1.23352E-03-1.00986E-13
 -1       573 1.43622E-02-1.31784E-03-1.01105E-13
 -1       574 1.42131E-02-1.06632E-03-1.00736E-13
 -1       575 1.42625E-02-1.14992E-03-1.00867E-13
 -1       576 1.44124E-02-1.40216E-03-1.01225E-13
 -1       577 1.44627E-02-1.48647E-03-1.01337E-13
 -1       578 1.45132E-02-1.57079E-03-1.01438E-13
 -1       579 1.45629E-02-1.65368E-03-1.01525E-13
 -1       580 1.46136E-02-1.73800E-03-1.01593E-13
 -1       581 1.46645E-02-1.82232E-03-1.01654E-13
 -1       582 1.47154E-02-1.90664E-03-1.01703E-13
 -1       583 7.43567E-03-1.78007E-04-2.04431E-14
 -1       584 7.97486E-03-4.00051E-04-2.16468E-14
 -1       585 1.52698E-03 3.98865E-04-9.36788E-16
 -1       586 7.94388E-03-3.58656E-04-2.15161E-14
 -1       587 7.03731E-03 8.80252E-06-1.93135E-14
 -1       588 7.57179E-03-5.53124E-04-2.04863E-14
 -1       589 5.58266E-03-1.28446E-03-1.35294E-14
 -1       590 6.50165E-04-3.05437E-05-3.26917E-16
 -1       591 5.83248E-03 6.37070E-04-1.50977E-14
 -1       592 3.39811E-03-1.90815E-04-9.03211E-15
 -1       593 6.20679E-03 4.70748E-04-1.66186E-14
 -1       594 5.54132E-03 6.83289E-04-1.38552E-14
 -1       595 4.48493E-03 2.84618E-04-1.06416E-14
 -1       596 3.69806E-03-7.09512E-05-9.37075E-15
 -1       597 3.49362E-03-1.41830E-04-9.12037E-15
 -1       598 3.47146E-03-2.30694E-04-9.07187E-15
 -1       599 3.74041E-03-3.27901E-04-9.45470E-15
 -1       600 4.06033E-03-4.65931E-04-9.89464E-15
 -1       601 4.46164E-03-6.75614E-04-1.05509E-14
 -1       602 4.86904E-03-9.18838E-04-1.14633E-14
 -1       603 5.24936E-03-1.14059E-03-1.24202E-14
 -1       604 5.94528E-03-1.31741E-03-1.49732E-14
 -1       605 6.23697E-03-1.23651E-03-1.61741E-14
 -1       606 6.61387E-03-1.05845E-03-1.77231E-14
 -1       607 6.94653E-03-8.64469E-04-1.87583E-14
 -1       608 7.34212E-03-6.56514E-04-1.98701E-14
 -1       609 7.77019E-03-3.02222E-04-2.11903E-14
 -1       610 7.89102E-03-4.33080E-04-2.13662E-14
 -1       611 7.20202E-04-2.24052E-04-2.81107E-16
 -1       612 7.12651E-04 2.66339E-04-1.71311E-16
 -1       613 6.66166E-03 2.12194E-04-1.83678E-14
 -1       614 6.75334E-04-1.36000E-04-3.09533E-16
 -1       615 1.47089E-02-1.97013E-03-1.01065E-13
 -1       616 4.23109E-03 1.71876E-04-9.90340E-15
 -1       617 6.95232E-04-1.76270E-04-2.99026E-16
 -1       618 5.35920E-03 6.76307E-04-1.30828E-14
 -1       619 7.79778E-03-4.88254E-04-2.18588E-14
 -1       620 3.85201E-03 1.59248E-06-9.28571E-15
 -1       621 8.81641E-04 5.76443E-05-5.38784E-16
 -1       622 8.75929E-04 1.77346E-05-5.53157E-16
 -1       623 9.06847E-04 1.48808E-04-4.91022E-16
 -1       624 9.26866E-04 2.03991E-04-4.53969E-16
 -1       625 1.05861E-03 2.76195E-04-5.13055E-16
 -1       626 7.92158E-03-3.50464E-04-2.25207E-14
 -1       627 9.55831E-04-2.33635E-04-5.29036E-16
 -1       628 1.38938E-03-2.84731E-04-1.07741E-15
 -1       629 1.67591E-03-3.05396E-04-1.54361E-15
 -1       630 1.96221E-03-3.18027E-04-2.09589E-15
 -1       631 2.24820E-03-3.26025E-04-2.73423E-15
 -1       632 2.53420E-03-3.33085E-04-3.45794E-15
 -1       633 2.82117E-03-3.43390E-04-4.26665E-15
 -1       634 3.11121E-03-3.61943E-04-5.15935E-15
 -1       635 3.40832E-03-3.95112E-04-6.13548E-15
 -1       636 3.71936E-03-4.51684E-04-7.19625E-15
 -1       637 4.05437E-03-5.44482E-04-8.34297E-15
 -1       638 4.42339E-03-6.91215E-04-9.57740E-15
 -1       639 4.86207E-03-9.29559E-04-1.08998E-14
 -1       640 7.33891E-03-7.92036E-04-2.15299E-14
 -1       641 7.68981E-03-7.24779E-04-2.37178E-14
 -1       642 8.01151E-03-7.02628E-04-2.60019E-14
 -1       643 8.31454E-03-7.10799E-04-2.83819E-14
 -1       644 8.60744E-03-7.39113E-04-3.08536E-14
 -1       645 8.89553E-03-7.80825E-04-3.34246E-14
 -1       646 9.18168E-03-8.31246E-04-3.60923E-14
 -1       647 9.46728E-03-8.87027E-04-3.88549E-14
 -1       648 9.75288E-03-9.45788E-04-4.17082E-14
 -1       649 1.00387E-02-1.00588E-03-4.46442E-14
 -1       650 1.03246E-02-1.06622E-03-4.76603E-14
 -1       651 1.06106E-02-1.12614E-03-5.07538E-14
 -1       652 1.08967E-02-1.18524E-03-5.39232E-14
 -1       653 1.11828E-02-1.24335E-03-5.71742E-14
 -1       654 1.14688E-02-1.30042E-03-6.05044E-14
 -1       655 1.17548E-02-1.35651E-03-6.38998E-14
 -1       656 1.20407E-02-1.41168E-03-6.73474E-14
 -1       657 1.23266E-02-1.46606E-03-7.08393E-14
 -1       658 1.26125E-02-1.51976E-03-7.43782E-14
 -1       659 1.28983E-02-1.57289E-03-7.79606E-14
 -1       660 1.31841E-02-1.62557E-03-8.15898E-14
 -1       661 1.34698E-02-1.67790E-03-8.52630E-14
 -1       662 1.37556E-02-1.72994E-03-8.89801E-14
 -1       663 1.40413E-02-1.78179E-03-9.27359E-14
 -1       664 1.43270E-02-1.83350E-03-9.65246E-14
 -1       665 2.22291E-03 3.70496E-04-2.28562E-15
 -1       666 3.36792E-03-1.93978E-04-8.45088E-15
 -1       667 1.92962E-03 3.57902E-04-1.71591E-15
 -1       668 2.81923E-03 3.96116E-04-3.68361E-15
 -1       669 3.12496E-03 4.17039E-04-4.51542E-15
 -1       670 3.43764E-03 4.48776E-04-5.43675E-15
 -1       671 3.75816E-03 4.94867E-04-6.44829E-15
 -1       672 4.08595E-03 5.57089E-04-7.55387E-15
 -1       673 4.41794E-03 6.33065E-04-8.75642E-15
 -1       674 4.74851E-03 7.13073E-04-1.00617E-14
 -1       675 5.07176E-03 7.78459E-04-1.14760E-14
 -1       676 5.38597E-03 8.05495E-04-1.30113E-14
 -1       677 5.69628E-03 7.77114E-04-1.46720E-14
 -1       678 6.01120E-03 6.94110E-04-1.64598E-14
 -1       679 6.33534E-03 5.74637E-04-1.83736E-14
 -1       680 6.66657E-03 4.42302E-04-2.04040E-14
 -1       681 6.99887E-03 3.15363E-04-2.25457E-14
 -1       682 7.32672E-03 2.03098E-04-2.47955E-14
 -1       683 7.64731E-03 1.07716E-04-2.71480E-14
 -1       684 7.96023E-03 2.77504E-05-2.96011E-14
 -1       685 8.26638E-03-3.97178E-05-3.21509E-14
 -1       686 8.56711E-03-9.78567E-05-3.47958E-14
 -1       687 8.86375E-03-1.49500E-04-3.75309E-14
 -1       688 9.15740E-03-1.96962E-04-4.03588E-14
 -1       689 9.44888E-03-2.42014E-04-4.32711E-14
 -1       690 9.73880E-03-2.85947E-04-4.62597E-14
 -1       691 1.00276E-02-3.29643E-04-4.93293E-14
 -1       692 1.03155E-02-3.73673E-04-5.24758E-14
 -1       693 1.06028E-02-4.18367E-04-5.57019E-14
 -1       694 1.08897E-02-4.63886E-04-5.90073E-14
 -1       695 1.11762E-02-5.10276E-04-6.23833E-14
 -1       696 1.14625E-02-5.57508E-04-6.58231E-14
 -1       697 1.17486E-02-6.05510E-04-6.93229E-14
 -1       698 1.20346E-02-6.54187E-04-7.28843E-14
 -1       699 1.23205E-02-7.03437E-04-7.64963E-14
 -1       700 1.26063E-02-7.53160E-04-8.01521E-14
 -1       701 1.28920E-02-8.03261E-04-8.38367E-14
 -1       702 1.31778E-02-8.53656E-04-8.75252E-14
 -1       703 1.34635E-02-9.04267E-04-9.12182E-14
 -1       704 1.37492E-02-9.55029E-04-9.49162E-14
 -1       705 1.39811E-02-1.01065E-03-9.78205E-14
 -1       706 1.41901E-02-1.39997E-03-9.80213E-14
 -1       707 1.45212E-02-1.87008E-03-9.91050E-14
 -1       708 1.40897E-02-1.23148E-03-9.78130E-14
 -1       709 1.42405E-02-1.48420E-03-9.81146E-14
 -1       710 1.41398E-02-1.31573E-03-9.79204E-14
 -1       711 1.63815E-03 3.40429E-04-1.23147E-15
 -1       712 1.42901E-02-1.56701E-03-9.81908E-14
 -1       713 1.43408E-02-1.65126E-03-9.82546E-14
 -1       714 1.43916E-02-1.73552E-03-9.83097E-14
 -1       715 8.00149E-03-4.31363E-04-2.28459E-14
 -1       716 5.03326E-03-1.02500E-03-1.15154E-14
 -1       717 7.22220E-03-7.57433E-04-2.02845E-14
 -1       718 2.51904E-03 3.81947E-04-2.94068E-15
 -1       719 1.17234E-03-2.63103E-04-7.78589E-16
 -1       720 8.91960E-04 1.00694E-04-5.18564E-16
 -1       721 8.88913E-04-1.00784E-04-5.58368E-16
 -1       722 8.04158E-03-3.94323E-04-2.29638E-14
 -1       723 6.41729E-03 3.67237E-04-1.78917E-14
 -1       724 1.34787E-03 3.14394E-04-8.30794E-16
 -1       725 7.68259E-03-2.67358E-04-2.22781E-14
 -1       726 3.54654E-03-2.57073E-04-8.62703E-15
 -1       727 5.64899E-03 6.92410E-04-1.43532E-14
 -1       728 3.51905E-03-9.58722E-05-8.47380E-15
 -1       729 4.63079E-03 3.89867E-04-1.06217E-14
 -1       730 3.37285E-03-1.54104E-04-8.39808E-15
 -1       731 3.84602E-03-3.72292E-04-8.99941E-15
 -1       732 4.22442E-03-5.49812E-04-9.65799E-15
 -1       733 5.02228E-03 5.72799E-04-1.18131E-14
 -1       734 6.91436E-03-9.28076E-04-1.91955E-14
 -1       735 7.52394E-03-5.98958E-04-2.10702E-14
 -1       736 7.26382E-03-9.57872E-05-2.08598E-14
 -1       737 6.93059E-03 7.67539E-05-1.98705E-14
 -1       738 6.02550E-03 5.71695E-04-1.61253E-14
 -1       739 9.03737E-04-1.46733E-04-5.46184E-16
 -1       740 8.75117E-04-2.07023E-05-5.61031E-16
 -1       741 1.40401E-02-1.14794E-03-9.77016E-14
 -1       742 1.40106E-02-1.07930E-03-9.77649E-14
 -1       743 4.59737E-03-7.54681E-04-1.05162E-14
 -1       744 4.38372E-03 2.85465E-04-9.87765E-15
 -1       745 3.99804E-03 9.25983E-05-9.18175E-15
 -1       746 3.38711E-03-2.13553E-04-8.02032E-15
 -1       747 8.79406E-04-5.94697E-05-5.63063E-16
 -1       748 3.62398E-03-3.79171E-05-8.38715E-15
 -1       749 6.69170E-03 2.35404E-04-1.93628E-14
 -1       750 5.32603E-03-1.18830E-03-1.24720E-14
 -1       751 1.15902E-03 2.04559E-04-7.37125E-16
 -1       752 1.77967E-03-2.49767E-04-1.85162E-15
 -1       753 2.05840E-03-2.58769E-04-2.45050E-15
 -1       754 2.33478E-03-2.65043E-04-3.13505E-15
 -1       755 2.60853E-03-2.71566E-04-3.90365E-15
 -1       756 2.88017E-03-2.81585E-04-4.75586E-15
 -1       757 3.15157E-03-2.98915E-04-5.69021E-15
 -1       758 3.42710E-03-3.28653E-04-6.70661E-15
 -1       759 3.71537E-03-3.79715E-04-7.80567E-15
 -1       760 3.34569E-03-1.14727E-04-7.78853E-15
 -1       761 4.79534E-03 5.29153E-04-1.07863E-14
 -1       762 7.95527E-03-6.09091E-04-2.48972E-14
 -1       763 8.23480E-03-6.21088E-04-2.72274E-14
 -1       764 8.50596E-03-6.50656E-04-2.96528E-14
 -1       765 8.77543E-03-6.91469E-04-3.21731E-14
 -1       766 9.04612E-03-7.39936E-04-3.47928E-14
 -1       767 9.31918E-03-7.93510E-04-3.75047E-14
 -1       768 9.59480E-03-8.50257E-04-4.03098E-14
 -1       769 9.87276E-03-9.08721E-04-4.32020E-14
 -1       770 1.01527E-02-9.67845E-04-4.61746E-14
 -1       771 1.04342E-02-1.02691E-03-4.92240E-14
 -1       772 1.07168E-02-1.08546E-03-5.23469E-14
 -1       773 1.10004E-02-1.14323E-03-5.55479E-14
 -1       774 1.12846E-02-1.20014E-03-5.88353E-14
 -1       775 1.15694E-02-1.25615E-03-6.21963E-14
 -1       776 1.18544E-02-1.31132E-03-6.56169E-14
 -1       777 1.21397E-02-1.36573E-03-6.90873E-14
 -1       778 1.24252E-02-1.41949E-03-7.26018E-14
 -1       779 1.27108E-02-1.47268E-03-7.61623E-14
 -1       780 1.29964E-02-1.52542E-03-7.97650E-14
 -1       781 1.32821E-02-1.57779E-03-8.34144E-14
 -1       782 1.35678E-02-1.62988E-03-8.71052E-14
 -1       783 1.38536E-02-1.68175E-03-9.08339E-14
 -1       784 1.41393E-02-1.73347E-03-9.45950E-14
 -1       785 1.40179E-02-1.48112E-03-9.48936E-14
 -1       786 3.22642E-03 3.40209E-04-5.09422E-15
 -1       787 2.92053E-03 3.20858E-04-4.21153E-15
 -1       788 3.87039E-03 4.20593E-04-7.12661E-15
 -1       789 4.21044E-03 4.90074E-04-8.28080E-15
 -1       790 4.55778E-03 5.78311E-04-9.53074E-15
 -1       791 4.90332E-03 6.71416E-04-1.08860E-14
 -1       792 5.23825E-03 7.39591E-04-1.23582E-14
 -1       793 5.56259E-03 7.48163E-04-1.39573E-14
 -1       794 5.88748E-03 6.81853E-04-1.56867E-14
 -1       795 6.22322E-03 5.58535E-04-1.75458E-14
 -1       796 6.56878E-03 4.13079E-04-1.95265E-14
 -1       797 6.91590E-03 2.74312E-04-2.16193E-14
 -1       798 7.25460E-03 1.54684E-04-2.38212E-14
 -1       799 7.58102E-03 5.63845E-05-2.61264E-14
 -1       800 7.89541E-03-2.41930E-05-2.85302E-14
 -1       801 8.19984E-03-9.13362E-05-3.10318E-14
 -1       802 8.49696E-03-1.48992E-04-3.36273E-14
 -1       803 8.78917E-03-2.00263E-04-3.63144E-14
 -1       804 9.07827E-03-2.47492E-04-3.90957E-14
 -1       805 9.36551E-03-2.92407E-04-4.19634E-14
 -1       806 9.65172E-03-3.36241E-04-4.49103E-14
 -1       807 9.93740E-03-3.79841E-04-4.79351E-14
 -1       808 1.02229E-02-4.23760E-04-5.10393E-14
 -1       809 1.05083E-02-4.68322E-04-5.42188E-14
 -1       810 1.07937E-02-5.13694E-04-5.74789E-14
 -1       811 1.10792E-02-5.59930E-04-6.08157E-14
 -1       812 1.13647E-02-6.07008E-04-6.42219E-14
 -1       813 1.16503E-02-6.54862E-04-6.76874E-14
 -1       814 1.19359E-02-7.03405E-04-7.12125E-14
 -1       815 1.22216E-02-7.52536E-04-7.47963E-14
 -1       816 1.25073E-02-8.02157E-04-7.84275E-14
 -1       817 1.27930E-02-8.52175E-04-8.20952E-14
 -1       818 1.30788E-02-9.02506E-04-8.57781E-14
 -1       819 1.33645E-02-9.53074E-04-8.94711E-14
 -1       820 1.36502E-02-1.00381E-03-9.31710E-14
 -1       821 1.38304E-02-1.04154E-03-9.54638E-14
 -1       822 1.10863E-03 4.34182E-05-8.37106E-16
 -1       823 1.74906E-03 2.80824E-04-1.54537E-15
 -1       824 1.39674E-02-1.39698E-03-9.48197E-14
 -1       825 1.41187E-02-1.64875E-03-9.50002E-14
 -1       826 1.40682E-02-1.56492E-03-9.49508E-14
 -1       827 9.27800E-04-1.87614E-04-5.40875E-16
 -1       828 3.54232E-03 3.71824E-04-6.06499E-15
 -1       829 5.39541E-03 7.13156E-04-1.31594E-14
 -1       830 7.61696E-03-6.46848E-04-2.25386E-14
 -1       831 8.06245E-03-3.85307E-04-2.39902E-14
 -1       832 3.26927E-03-1.60277E-04-7.71670E-15
 -1       833 1.49931E-03-2.35288E-04-1.33747E-15
 -1       834 3.58435E-03-2.96310E-04-8.00168E-15
 -1       835 5.10748E-03 6.47543E-04-1.19295E-14
 -1       836 8.12467E-03-4.29494E-04-2.43123E-14
 -1       837 1.25116E-03 2.57185E-04-7.87663E-16
 -1       838 3.97744E-03-4.57011E-04-8.71661E-15
 -1       839 7.96740E-03-4.85188E-04-2.35373E-14
 -1       840 7.92179E-03-3.34449E-04-2.37899E-14
 -1       841 7.54280E-03-1.78943E-04-2.29057E-14
 -1       842 7.25639E-03-4.64457E-05-2.18688E-14
 -1       843 2.03773E-03 2.92500E-04-2.08438E-15
 -1       844 1.10392E-03-2.67970E-06-8.52346E-16
 -1       845 1.13659E-03 1.45424E-04-7.80310E-16
 -1       846 4.56877E-03 4.39832E-04-1.00287E-14
 -1       847 1.38174E-02-1.14557E-03-9.45378E-14
 -1       848 1.28632E-03-2.20404E-04-1.00205E-15
 -1       849 2.62197E-03 3.09101E-04-3.41687E-15
 -1       850 1.11965E-03 9.20554E-05-8.13379E-16
 -1       851 1.38675E-02-1.22975E-03-9.46438E-14
 -1       852 1.39174E-02-1.31337E-03-9.47360E-14
 -1       853 3.73495E-03 3.85865E-05-8.28299E-15
 -1       854 4.14437E-03 2.01837E-04-9.15112E-15
 -1       855 3.23313E-03-1.76669E-04-7.30766E-15
 -1       856 2.32831E-03 3.00844E-04-2.70825E-15
 -1       857 7.03308E-03 9.63713E-05-2.13310E-14
 -1       858 7.81796E-03-2.67670E-04-2.44429E-14
 -1       859 3.41226E-03-7.27517E-05-7.70681E-15
 -1       860 1.49999E-03 2.72856E-04-1.13334E-15
 -1       861 6.43978E-03 3.93914E-04-1.83911E-14
 -1       862 8.14286E-03-4.73299E-04-2.50271E-14
 -1       863 1.11518E-03-9.45709E-05-8.58553E-16
 -1       864 7.80388E-03-5.51943E-04-2.30418E-14
 -1       865 1.13138E-03-1.44884E-04-8.47843E-16
 -1       866 8.23412E-03-4.26653E-04-2.59637E-14
 -1       867 2.15185E-03-2.03631E-04-2.81494E-15
 -1       868 2.41687E-03-2.09446E-04-3.54319E-15
 -1       869 2.67589E-03-2.16275E-04-4.35427E-15
 -1       870 2.92816E-03-2.26214E-04-5.24807E-15
 -1       871 3.17372E-03-2.41554E-04-6.22267E-15
 -1       872 3.37734E-03-2.63018E-04-7.08518E-15
 -1       873 8.18036E-03-5.37155E-04-2.60796E-14
 -1       874 8.42069E-03-5.69393E-04-2.84556E-14
 -1       875 8.66672E-03-6.09850E-04-3.09265E-14
 -1       876 8.91934E-03-6.56170E-04-3.34958E-14
 -1       877 9.17828E-03-7.06905E-04-3.61622E-14
 -1       878 9.44279E-03-7.60788E-04-3.89178E-14
 -1       879 9.71202E-03-8.16700E-04-4.17642E-14
 -1       880 9.98510E-03-8.73713E-04-4.46965E-14
 -1       881 1.02613E-02-9.31113E-04-4.77043E-14
 -1       882 1.05399E-02-9.88398E-04-5.07861E-14
 -1       883 1.08204E-02-1.04525E-03-5.39396E-14
 -1       884 1.11023E-02-1.10148E-03-5.71779E-14
 -1       885 1.13853E-02-1.15703E-03-6.04977E-14
 -1       886 1.16692E-02-1.21188E-03-6.38861E-14
 -1       887 1.19536E-02-1.26608E-03-6.73313E-14
 -1       888 1.22385E-02-1.31970E-03-7.08285E-14
 -1       889 1.25237E-02-1.37282E-03-7.43665E-14
 -1       890 1.28091E-02-1.42551E-03-7.79445E-14
 -1       891 1.30946E-02-1.47786E-03-8.15679E-14
 -1       892 1.33802E-02-1.52993E-03-8.52377E-14
 -1       893 1.36659E-02-1.58179E-03-8.89454E-14
 -1       894 1.38923E-02-1.61532E-03-9.19630E-14
 -1       895 5.62204E-03 7.22774E-04-1.42590E-14
 -1       896 4.32721E-03 4.18579E-04-9.00825E-15
 -1       897 3.97213E-03 3.37851E-04-7.80959E-15
 -1       898 7.52740E-03-2.44509E-06-2.51105E-14
 -1       899 7.84245E-03-8.11056E-05-2.74675E-14
 -1       900 8.14398E-03-1.45403E-04-2.99206E-14
 -1       901 8.43612E-03-2.00564E-04-3.24685E-14
 -1       902 8.72259E-03-2.50091E-04-3.51069E-14
 -1       903 9.00595E-03-2.96289E-04-3.78375E-14
 -1       904 9.28789E-03-3.40704E-04-4.06605E-14
 -1       905 9.56944E-03-3.84382E-04-4.35664E-14
 -1       906 9.85118E-03-4.28016E-04-4.65504E-14
 -1       907 1.01334E-02-4.72053E-04-4.96127E-14
 -1       908 1.04162E-02-5.16757E-04-5.27498E-14
 -1       909 1.06997E-02-5.62257E-04-5.59670E-14
 -1       910 1.09836E-02-6.08593E-04-5.92599E-14
 -1       911 1.12681E-02-6.55740E-04-6.26283E-14
 -1       912 1.15529E-02-7.03635E-04-6.60590E-14
 -1       913 1.18379E-02-7.52195E-04-6.95507E-14
 -1       914 1.21232E-02-8.01327E-04-7.31018E-14
 -1       915 1.24087E-02-8.50938E-04-7.67103E-14
 -1       916 1.26943E-02-9.00942E-04-8.03544E-14
 -1       917 1.29799E-02-9.51258E-04-8.40285E-14
 -1       918 1.32656E-02-1.00182E-03-8.77190E-14
 -1       919 1.35513E-02-1.05255E-03-9.14163E-14
 -1       920 1.38239E-02-1.09357E-03-9.50036E-14
 -1       921 8.15148E-03-3.85487E-04-2.57692E-14
 -1       922 1.85873E-03 2.20319E-04-1.87877E-15
 -1       923 1.10603E-03-4.79467E-05-8.59915E-16
 -1       924 3.19047E-03-1.22306E-04-7.07019E-15
 -1       925 1.60869E-03-1.86565E-04-1.61139E-15
 -1       926 1.37452E-02-1.39461E-03-9.16228E-14
 -1       927 3.29067E-03-2.12951E-04-7.20308E-15
 -1       928 3.01353E-03 2.41756E-04-4.75117E-15
 -1       929 1.88199E-03-1.96704E-04-2.17081E-15
 -1       930 7.51343E-03-1.09202E-04-2.37699E-14
 -1       931 3.63606E-03 2.86708E-04-6.70134E-15
 -1       932 1.38977E-03 1.92956E-04-1.08909E-15
 -1       933 2.71853E-03 2.34150E-04-3.90643E-15
 -1       934 1.38418E-02-1.53157E-03-9.19185E-14
 -1       935 1.40008E-03-1.76752E-04-1.24114E-15
 -1       936 1.35735E-03-1.33482E-04-1.21155E-15
 -1       937 7.36386E-03 2.63946E-05-2.38098E-14
 -1       938 8.09931E-03-3.37230E-04-2.64539E-14
 -1       939 1.36951E-02-1.31111E-03-9.15553E-14
 -1       940 2.14312E-03 2.26415E-04-2.47118E-15
 -1       941 1.34732E-03 7.40258E-05-1.17328E-15
 -1       942 1.37935E-02-1.46308E-03-9.17744E-14
 -1       943 3.49589E-03-1.36006E-05-7.60774E-15
 -1       944 3.86127E-03 1.33130E-04-8.24798E-15
 -1       945 8.30513E-03-4.66442E-04-2.67081E-14
 -1       946 7.79057E-03-2.06000E-04-2.53391E-14
 -1       947 3.31784E-03 2.57344E-04-5.68236E-15
 -1       948 3.11062E-03-1.41503E-04-6.68454E-15
 -1       949 3.21991E-03-9.05751E-05-6.99574E-15
 -1       950 1.61306E-03 2.18253E-04-1.42032E-15
 -1       951 1.34152E-03-8.04267E-05-1.21844E-15
 -1       952 1.35751E-02-1.13327E-03-9.11697E-14
 -1       953 1.33679E-03 2.10573E-05-1.19922E-15
 -1       954 6.70707E-03 2.82872E-04-1.99160E-14
 -1       955 4.21147E-03 3.01934E-04-8.95207E-15
 -1       956 2.24649E-03-1.53075E-04-3.18654E-15
 -1       957 2.49973E-03-1.59908E-04-3.95614E-15
 -1       958 2.74303E-03-1.68360E-04-4.80818E-15
 -1       959 2.97299E-03-1.80087E-04-5.74113E-15
 -1       960 3.13432E-03-1.95059E-04-6.45253E-15
 -1       961 8.34311E-03-4.98796E-04-2.72629E-14
 -1       962 8.10199E-03-2.02198E-04-2.88139E-14
 -1       963 8.56171E-03-5.37573E-04-2.96856E-14
 -1       964 8.79496E-03-5.80675E-04-3.22045E-14
 -1       965 9.03949E-03-6.27630E-04-3.48214E-14
 -1       966 9.29293E-03-6.77747E-04-3.75317E-14
 -1       967 9.55346E-03-7.30224E-04-4.03289E-14
 -1       968 9.81968E-03-7.84277E-04-4.32195E-14
 -1       969 1.00904E-02-8.39225E-04-4.61899E-14
 -1       970 1.03648E-02-8.94538E-04-4.92322E-14
 -1       971 1.06420E-02-9.49835E-04-5.23455E-14
 -1       972 1.09213E-02-1.00487E-03-5.55346E-14
 -1       973 1.12024E-02-1.05950E-03-5.88095E-14
 -1       974 1.14849E-02-1.11367E-03-6.21609E-14
 -1       975 1.17682E-02-1.16736E-03-6.55723E-14
 -1       976 1.20524E-02-1.22061E-03-6.90484E-14
 -1       977 1.23370E-02-1.27346E-03-7.25675E-14
 -1       978 1.26221E-02-1.32597E-03-7.61261E-14
 -1       979 1.29074E-02-1.37818E-03-7.97261E-14
 -1       980 1.31928E-02-1.43016E-03-8.33728E-14
 -1       981 1.34785E-02-1.48196E-03-8.70591E-14
 -1       982 1.36601E-02-1.50680E-03-8.94837E-14
 -1       983 1.36250E-02-1.21680E-03-9.12641E-14
 -1       984 1.36530E-03 1.30824E-04-1.13699E-15
 -1       985 8.32707E-03-4.24863E-04-2.74712E-14
 -1       986 7.67026E-03-9.35090E-05-2.55910E-14
 -1       987 8.66418E-03-2.98886E-04-3.39076E-14
 -1       988 8.94003E-03-3.43114E-04-3.65897E-14
 -1       989 9.21536E-03-3.86567E-04-3.93635E-14
 -1       990 9.49126E-03-4.29963E-04-4.22270E-14
 -1       991 9.76829E-03-4.73726E-04-4.51721E-14
 -1       992 1.00467E-02-5.18108E-04-4.81941E-14
 -1       993 1.03264E-02-5.63242E-04-5.12925E-14
 -1       994 1.06074E-02-6.09180E-04-5.44653E-14
 -1       995 1.08895E-02-6.55915E-04-5.77178E-14
 -1       996 1.11725E-02-7.03403E-04-6.10442E-14
 -1       997 1.14562E-02-7.51575E-04-6.44402E-14
 -1       998 1.17406E-02-8.00350E-04-6.79013E-14
 -1       999 1.20253E-02-8.49645E-04-7.14220E-14
 -1      1000 1.23104E-02-8.99374E-04-7.49998E-14
 -1      1001 1.25958E-02-9.49462E-04-7.86212E-14
 -1      1002 1.28813E-02-9.99835E-04-8.22797E-14
 -1      1003 1.31669E-02-1.05043E-03-8.59613E-14
 -1      1004 2.42923E-03 2.30129E-04-3.14673E-15
 -1      1005 1.71932E-03-1.38912E-04-1.89690E-15
 -1      1006 8.38590E-03-2.52669E-04-3.13159E-14
 -1      1007 1.33463E-03-2.96509E-05-1.21424E-15
 -1      1008 1.98562E-03-1.46586E-04-2.49955E-15
 -1      1009 2.80700E-03 1.57194E-04-4.40790E-15
 -1      1010 3.60645E-03 6.34771E-05-7.57537E-15
 -1      1011 1.58309E-03 1.50850E-04-1.47985E-15
 -1      1012 1.57418E-03 4.86726E-05-1.59860E-15
 -1      1013 8.31094E-03-3.85229E-04-2.81848E-14
 -1      1014 1.34728E-02-1.30847E-03-8.83749E-14
 -1      1015 1.32167E-02-1.13376E-03-8.60528E-14
 -1      1016 3.27047E-03-4.63094E-05-6.90469E-15
 -1      1017 1.57594E-03 9.82621E-05-1.54325E-15
 -1      1018 1.35210E-02-1.37682E-03-8.85247E-14
 -1      1019 8.42659E-03-4.67529E-04-2.82440E-14
 -1      1020 3.09462E-03 1.58570E-04-5.30120E-15
 -1      1021 3.02899E-03-9.18215E-05-6.15927E-15
 -1      1022 1.53898E-03-1.37213E-04-1.53528E-15
 -1      1023 3.80373E-03 1.96325E-04-7.69969E-15
 -1      1024 3.11084E-03-1.65983E-04-6.57298E-15
 -1      1025 1.96698E-03 1.59224E-04-2.23080E-15
 -1      1026 2.93770E-03-1.23731E-04-5.79826E-15
 -1      1027 1.33447E-02-1.22107E-03-8.72164E-14
 -1      1028 2.59128E-03-1.16374E-04-4.37165E-15
 -1      1029 8.50992E-03-5.02981E-04-2.91089E-14
 -1      1030 8.73378E-03-5.43576E-04-3.16047E-14
 -1      1031 8.97149E-03-5.88018E-04-3.41992E-14
 -1      1032 9.21979E-03-6.35757E-04-3.68861E-14
 -1      1033 9.47628E-03-6.86063E-04-3.96622E-14
 -1      1034 9.73925E-03-7.38198E-04-4.25294E-14
 -1      1035 1.00074E-02-7.91501E-04-4.54814E-14
 -1      1036 1.02796E-02-8.45434E-04-4.85084E-14
 -1      1037 1.05551E-02-8.99595E-04-5.16034E-14
 -1      1038 1.08332E-02-9.53711E-04-5.47719E-14
 -1      1039 1.11133E-02-1.00761E-03-5.80245E-14
 -1      1040 1.13949E-02-1.06120E-03-6.13556E-14
 -1      1041 1.16777E-02-1.11445E-03-6.47496E-14
 -1      1042 1.19614E-02-1.16735E-03-6.82128E-14
 -1      1043 1.22458E-02-1.21994E-03-7.17232E-14
 -1      1044 1.25306E-02-1.27225E-03-7.52745E-14
 -1      1045 1.28158E-02-1.32433E-03-7.88647E-14
 -1      1046 1.31012E-02-1.37620E-03-8.25035E-14
 -1      1047 1.33867E-02-1.42793E-03-8.61786E-14
 -1      1048 2.34802E-03-1.06816E-04-3.56285E-15
 -1      1049 9.41612E-03-4.72550E-04-4.08946E-14
 -1      1050 8.87977E-03-3.87372E-04-3.53506E-14
 -1      1051 9.68775E-03-5.16570E-04-4.38006E-14
 -1      1052 9.96180E-03-5.61544E-04-4.67860E-14
 -1      1053 1.02381E-02-6.07421E-04-4.98461E-14
 -1      1054 1.05164E-02-6.54131E-04-5.29797E-14
 -1      1055 1.07964E-02-7.01596E-04-5.61909E-14
 -1      1056 1.10778E-02-7.49731E-04-5.94768E-14
 -1      1057 1.13603E-02-7.98453E-04-6.28318E-14
 -1      1058 1.16437E-02-8.47678E-04-6.62604E-14
 -1      1059 1.19278E-02-8.97330E-04-6.97520E-14
 -1      1060 1.22125E-02-9.47336E-04-7.33009E-14
 -1      1061 1.24975E-02-9.97633E-04-7.68968E-14
 -1      1062 1.27828E-02-1.04816E-03-8.05333E-14
 -1      1063 1.29997E-02-1.09091E-03-8.32852E-14
 -1      1064 8.08783E-03-2.72435E-04-2.76329E-14
 -1      1065 2.09473E-03-9.91904E-05-2.83565E-15
 -1      1066 2.52499E-03 1.58607E-04-3.59910E-15
 -1      1067 1.35905E-02-1.44178E-03-8.90047E-14
 -1      1068 3.45233E-03 1.51898E-04-6.55780E-15
 -1      1069 9.14689E-03-4.29503E-04-3.80769E-14
 -1      1070 1.83426E-03-9.22795E-05-2.19227E-15
 -1      1071 1.58896E-03-8.70276E-05-1.66960E-15
 -1      1072 1.56558E-03-6.87005E-06-1.62422E-15
 -1      1073 2.24553E-03 1.59965E-04-2.87385E-15
 -1      1074 3.05023E-03-5.50135E-05-6.07728E-15
 -1      1075 2.07437E-03 9.81257E-05-2.59841E-15
 -1      1076 3.35515E-03 1.27459E-05-6.87682E-15
 -1      1077 8.50656E-03-4.45366E-04-2.96707E-14
 -1      1078 8.61393E-03-3.45869E-04-3.27144E-14
 -1      1079 8.35410E-03-3.14370E-04-3.00847E-14
 -1      1080 2.61514E-03 8.71550E-05-4.06423E-15
 -1      1081 1.82180E-03 7.30945E-05-2.06972E-15
 -1      1082 1.32513E-02-1.30084E-03-8.52531E-14
 -1      1083 1.80536E-03 1.32179E-05-2.10569E-15
 -1      1084 2.67604E-03-7.87354E-05-4.69334E-15
 -1      1085 1.31233E-02-1.21358E-03-8.41090E-14
 -1      1086 2.88535E-03 7.94586E-05-4.92143E-15
 -1      1087 1.30615E-02-1.15224E-03-8.37002E-14
 -1      1088 3.10636E-03-8.37403E-06-6.05394E-15
 -1      1089 2.34524E-03 9.38276E-05-3.29050E-15
 -1      1090 8.64112E-03-5.04720E-04-3.07061E-14
 -1      1091 8.82053E-03-5.18216E-04-3.28657E-14
 -1      1092 9.06183E-03-5.61197E-04-3.55043E-14
 -1      1093 9.31266E-03-6.07154E-04-3.82323E-14
 -1      1094 9.57087E-03-6.55466E-04-4.10497E-14
 -1      1095 9.83501E-03-7.05463E-04-4.39588E-14
 -1      1096 1.01039E-02-7.56584E-04-4.69493E-14
 -1      1097 1.03767E-02-8.08396E-04-5.00099E-14
 -1      1098 1.06526E-02-8.60577E-04-5.31404E-14
 -1      1099 1.09309E-02-9.12907E-04-5.63458E-14
 -1      1100 1.12111E-02-9.65243E-04-5.96350E-14
 -1      1101 1.14929E-02-1.01750E-03-6.29913E-14
 -1      1102 1.17758E-02-1.06963E-03-6.64190E-14
 -1      1103 1.20596E-02-1.12163E-03-6.99070E-14
 -1      1104 1.23440E-02-1.17349E-03-7.34440E-14
 -1      1105 1.26288E-02-1.22522E-03-7.70201E-14
 -1      1106 1.29140E-02-1.27685E-03-8.06338E-14
 -1      1107 8.51642E-03-4.05563E-04-3.05455E-14
 -1      1108 9.87759E-03-6.02071E-04-4.53796E-14
 -1      1109 2.04778E-03 3.38192E-05-2.64627E-15
 -1      1110 9.60812E-03-5.56203E-04-4.24328E-14
 -1      1111 1.04258E-02-6.96871E-04-5.14993E-14
 -1      1112 1.07036E-02-7.45414E-04-5.46735E-14
 -1      1113 1.09834E-02-7.94524E-04-5.79208E-14
 -1      1114 1.12647E-02-8.44089E-04-6.12370E-14
 -1      1115 1.15472E-02-8.94021E-04-6.46267E-14
 -1      1116 1.18306E-02-9.44248E-04-6.80881E-14
 -1      1117 1.21148E-02-9.94711E-04-7.16107E-14
 -1      1118 1.23995E-02-1.04536E-03-7.51777E-14
 -1      1119 1.26845E-02-1.09616E-03-7.87875E-14
 -1      1120 1.95737E-03-4.58411E-05-2.49416E-15
 -1      1121 2.85189E-03-3.17573E-05-5.22863E-15
 -1      1122 9.34235E-03-5.11688E-04-3.95706E-14
 -1      1123 2.43654E-03-6.63555E-05-3.85511E-15
 -1      1124 2.20057E-03-5.51600E-05-3.13799E-15
 -1      1125 2.59776E-03-1.69629E-05-4.30740E-15
 -1      1126 1.01503E-02-6.49032E-04-4.84061E-14
 -1      1127 9.08072E-03-4.68840E-04-3.67982E-14
 -1      1128 8.72434E-03-4.74563E-04-3.21548E-14
 -1      1129 8.82335E-03-4.27945E-04-3.41161E-14
 -1      1130 1.28729E-02-1.12420E-03-8.12361E-14
 -1      1131 3.15487E-03 6.55012E-05-5.87916E-15
 -1      1132 1.27860E-02-1.18988E-03-7.95054E-14
 -1      1133 1.80288E-03-4.99595E-05-2.13123E-15
 -1      1134 2.32804E-03 1.05439E-05-3.42681E-15
 -1      1135 9.13993E-03-5.31077E-04-3.68069E-14
 -1      1136 9.39625E-03-5.75643E-04-3.95774E-14
 -1      1137 9.65841E-03-6.22278E-04-4.24371E-14
 -1      1138 9.92542E-03-6.70412E-04-4.53861E-14
 -1      1139 1.01965E-02-7.19616E-04-4.84135E-14
 -1      1140 1.04708E-02-7.69564E-04-5.15054E-14
 -1      1141 1.07478E-02-8.20014E-04-5.46722E-14
 -1      1142 1.10270E-02-8.70792E-04-5.79200E-14
 -1      1143 1.13079E-02-9.21779E-04-6.12379E-14
 -1      1144 1.15902E-02-9.72894E-04-6.46266E-14
 -1      1145 1.18734E-02-1.02408E-03-6.80864E-14
 -1      1146 1.21574E-02-1.07532E-03-7.16019E-14
 -1      1147 1.24420E-02-1.12657E-03-7.51637E-14
 -1      1148 2.09001E-03-7.22221E-06-2.80500E-15
 -1      1149 8.95177E-03-4.96347E-04-3.48206E-14
 -1      1150 0.00000E+00 0.00000E+00 0.00000E+00
 -1      1151 0.00000E+00 0.00000E+00 0.00000E+00
 -1      1152 0.00000E+00 0.00000E+00 0.00000E+00
 -1      1153 0.00000E+00 0.00000E+00 0.00000E+00
 -1      1154 0.00000E+00 0.00000E+00 0.00000E+00
 -1      1155 0.00000E+00 0.00000E+00 0.00000E+00
 -1      1156 0.00000E+00 0.00000E+00 0.00000E+00
 -1      1157 0.00000E+00 0.00000E+00 0.00000E+00
 -1      1158 0.00000E+00 0.00000E+00 0.00000E+00
 -1      1159 0.00000E+00 0.00000E+00 0.00000E+00
 -1      1160 0.00000E+00 0.00000E+00 0.00000E+00
 -1      1161 0.00000E+00 0.00000E+00 0.00000E+00
 -1      1162 0.00000E+00 0.00000E+00 0.00000E+00
 -1      1163 0.00000E+00 0.00000E+00 0.00000E+00
 -1      1164 0.00000E+00 0.00000E+00 0.00000E+00
 -1      1165 0.00000E+00 0.00000E+00 0.00000E+00
 -1      1166 0.00000E+00 0.00000E+00 0.00000E+00
 -1      1167 2.09936E-04-1.44992E-04 1.36881E-17
 -1      1168 5.50265E-04-3.24751E-04-1.39184E-17
 -1      1169 8.36601E-04-4.35655E-04-1.23098E-16
 -1      1170 1.11428E-03-5.06789E-04-3.27998E-16
 -1      1171 1.39174E-03-5.53827E-04-6.24880E-16
 -1      1172 1.67348E-03-5.85049E-04-1.01179E-15
 -1      1173 1.96273E-03-6.05883E-04-1.49017E-15
 -1      1174 2.26210E-03-6.20857E-04-2.06131E-15
 -1      1175 2.57394E-03-6.34562E-04-2.72539E-15
 -1      1176 2.90038E-03-6.52268E-04-3.48204E-15
 -1      1177 3.24297E-03-6.80412E-04-4.32965E-15
 -1      1178 3.60195E-03-7.26838E-04-5.26182E-15
 -1      1179 3.97489E-03-8.00323E-04-6.28099E-15
 -1      1180 4.35504E-03-9.08531E-04-7.39368E-15
 -1      1181 4.73012E-03-1.05340E-03-8.60028E-15
 -1      1182 5.08366E-03-1.22433E-03-9.90449E-15
 -1      1183 5.40125E-03-1.39313E-03-1.13111E-14
 -1      1184 5.68074E-03-1.51872E-03-1.28280E-14
 -1      1185 5.93892E-03-1.56547E-03-1.44687E-14
 -1      1186 6.20516E-03-1.52485E-03-1.62320E-14
 -1      1187 6.50426E-03-1.42119E-03-1.81213E-14
 -1      1188 6.84344E-03-1.29591E-03-2.01351E-14
 -1      1189 7.21325E-03-1.18533E-03-2.22539E-14
 -1      1190 7.59724E-03-1.10890E-03-2.44788E-14
 -1      1191 7.98076E-03-1.07036E-03-2.68073E-14
 -1      1192 8.35455E-03-1.06456E-03-2.92368E-14
 -1      1193 8.71447E-03-1.08345E-03-3.17595E-14
 -1      1194 9.05986E-03-1.11936E-03-3.43780E-14
 -1      1195 9.39196E-03-1.16622E-03-3.71045E-14
 -1      1196 9.71277E-03-1.21966E-03-3.99325E-14
 -1      1197 1.00244E-02-1.27668E-03-4.28504E-14
 -1      1198 1.03289E-02-1.33535E-03-4.58533E-14
 -1      1199 1.06279E-02-1.39446E-03-4.89391E-14
 -1      1200 1.09228E-02-1.45329E-03-5.21110E-14
 -1      1201 1.12146E-02-1.51145E-03-5.53582E-14
 -1      1202 1.15043E-02-1.56876E-03-5.86840E-14
 -1      1203 1.17924E-02-1.62517E-03-6.20691E-14
 -1      1204 1.20794E-02-1.68070E-03-6.55008E-14
 -1      1205 1.23656E-02-1.73544E-03-6.89787E-14
 -1      1206 1.26514E-02-1.78947E-03-7.24961E-14
 -1      1207 1.29370E-02-1.84291E-03-7.60640E-14
 -1      1208 1.32224E-02-1.89586E-03-7.96897E-14
 -1      1209 1.35077E-02-1.94840E-03-8.33728E-14
 -1      1210 1.37931E-02-2.00064E-03-8.71015E-14
 -1      1211 1.40785E-02-2.05263E-03-9.08801E-14
 -1      1212 1.43639E-02-2.10447E-03-9.46937E-14
 -1      1213 1.46494E-02-2.15619E-03-9.85400E-14
 -1      1214 1.49351E-02-2.20787E-03-1.02416E-13
 -1      1215 1.52207E-02-2.25954E-03-1.06324E-13
 -1      1216 1.54993E-02-2.30996E-03-1.10170E-13
 -1      1217 2.26626E-04 1.57398E-04 2.68747E-17
 -1      1218 5.52676E-04 3.30175E-04 3.14148E-17
 -1      1219 8.37658E-04 4.39689E-04-3.55483E-17
 -1      1220 1.11478E-03 5.11720E-04-1.84829E-16
 -1      1221 1.39110E-03 5.60612E-04-4.18692E-16
 -1      1222 1.67068E-03 5.94428E-04-7.40212E-16
 -1      1223 1.95597E-03 6.18597E-04-1.14993E-15
 -1      1224 2.24843E-03 6.37522E-04-1.64652E-15
 -1      1225 2.54881E-03 6.55249E-04-2.23432E-15
 -1      1226 2.85706E-03 6.75707E-04-2.91570E-15
 -1      1227 3.17220E-03 7.02655E-04-3.69281E-15
 -1      1228 3.49197E-03 7.39304E-04-4.56349E-15
 -1      1229 3.81265E-03 7.87554E-04-5.52709E-15
 -1      1230 4.12911E-03 8.46830E-04-6.58975E-15
 -1      1231 4.43557E-03 9.12815E-04-7.75107E-15
 -1      1232 4.72701E-03 9.76730E-04-9.02360E-15
 -1      1233 5.00134E-03 1.02612E-03-1.04077E-14
 -1      1234 5.26110E-03 1.04774E-03-1.19006E-14
 -1      1235 5.51363E-03 1.03199E-03-1.35145E-14
 -1      1236 5.76896E-03 9.76675E-04-1.52520E-14
 -1      1237 6.03626E-03 8.87997E-04-1.71117E-14
 -1      1238 6.32079E-03 7.77996E-04-1.90917E-14
 -1      1239 6.62283E-03 6.60162E-04-2.11896E-14
 -1      1240 6.93879E-03 5.45606E-04-2.34003E-14
 -1      1241 7.26328E-03 4.41228E-04-2.57159E-14
 -1      1242 7.59090E-03 3.49815E-04-2.81327E-14
 -1      1243 7.91743E-03 2.71183E-04-3.06602E-14
 -1      1244 8.24011E-03 2.03501E-04-3.32879E-14
 -1      1245 8.55753E-03 1.44322E-04-3.60128E-14
 -1      1246 8.86928E-03 9.12240E-05-3.88300E-14
 -1      1247 9.17559E-03 4.21259E-05-4.17322E-14
 -1      1248 9.47707E-03-4.60581E-06-4.47177E-14
 -1      1249 9.77448E-03-5.01686E-05-4.77811E-14
 -1      1250 1.00686E-02-9.53873E-05-5.09237E-14
 -1      1251 1.03601E-02-1.40792E-04-5.41488E-14
 -1      1252 1.06496E-02-1.86695E-04-5.74506E-14
 -1      1253 1.09377E-02-2.33251E-04-6.08310E-14
 -1      1254 1.12248E-02-2.80509E-04-6.42859E-14
 -1      1255 1.15112E-02-3.28454E-04-6.77997E-14
 -1      1256 1.17970E-02-3.77029E-04-7.13639E-14
 -1      1257 1.20826E-02-4.26157E-04-7.49736E-14
 -1      1258 1.23681E-02-4.75752E-04-7.86272E-14
 -1      1259 1.26534E-02-5.25732E-04-8.23127E-14
 -1      1260 1.29388E-02-5.76017E-04-8.60191E-14
 -1      1261 1.32242E-02-6.26532E-04-8.97242E-14
 -1      1262 1.35097E-02-6.77211E-04-9.34166E-14
 -1      1263 1.37952E-02-7.27995E-04-9.71111E-14
 -1      1264 1.40808E-02-7.78829E-04-1.00807E-13
 -1      1265 1.43665E-02-8.29665E-04-1.04487E-13
 -1      1266 1.46450E-02-8.79200E-04-1.08059E-13
 -1      1267 1.48057E-02-9.45464E-04-1.09860E-13
 -1      1268 1.48556E-02-1.02976E-03-1.10015E-13
 -1      1269 1.49055E-02-1.11408E-03-1.10180E-13
 -1      1270 1.49554E-02-1.19847E-03-1.10344E-13
 -1      1271 1.50053E-02-1.28291E-03-1.10520E-13
 -1      1272 1.50549E-02-1.36668E-03-1.10700E-13
 -1      1273 1.51046E-02-1.45050E-03-1.10876E-13
 -1      1274 1.51548E-02-1.53506E-03-1.11032E-13
 -1      1275 1.52051E-02-1.61963E-03-1.11195E-13
 -1      1276 1.52556E-02-1.70421E-03-1.11337E-13
 -1      1277 1.53062E-02-1.78877E-03-1.11454E-13
 -1      1278 1.53564E-02-1.87259E-03-1.11595E-13
 -1      1279 1.54068E-02-1.95637E-03-1.11731E-13
 -1      1280 1.54577E-02-2.04081E-03-1.11842E-13
 -1      1281 1.55086E-02-2.12519E-03-1.11918E-13
 -1      1282 1.55595E-02-2.20952E-03-1.11975E-13
 -1      1283 1.56100E-02-2.29310E-03-1.12028E-13
 -1      1284 7.91932E-03-2.62359E-04-1.84591E-14
 -1      1285 7.78861E-03-1.13149E-04-1.82423E-14
 -1      1286 7.55668E-03 4.24929E-05-1.78297E-14
 -1      1287 7.24041E-03 2.01407E-04-1.72558E-14
 -1      1288 6.85680E-03 3.52964E-04-1.65495E-14
 -1      1289 6.42198E-03 4.82325E-04-1.57227E-14
 -1      1290 5.98674E-03 5.66723E-04-1.48850E-14
 -1      1291 5.55298E-03 5.96682E-04-1.40616E-14
 -1      1292 5.08841E-03 5.67616E-04-1.32129E-14
 -1      1293 4.65151E-03 4.86017E-04-1.24599E-14
 -1      1294 4.28223E-03 3.75163E-04-1.18638E-14
 -1      1295 3.94206E-03 2.37248E-04-1.13481E-14
 -1      1296 3.66353E-03 8.44267E-05-1.09567E-14
 -1      1297 3.49435E-03-6.23535E-05-1.07364E-14
 -1      1298 3.43305E-03-2.10100E-04-1.06629E-14
 -1      1299 3.48608E-03-3.63115E-04-1.07434E-14
 -1      1300 3.65087E-03-5.22709E-04-1.09747E-14
 -1      1301 3.91021E-03-6.88221E-04-1.13475E-14
 -1      1302 4.23665E-03-8.50738E-04-1.18377E-14
 -1      1303 4.62521E-03-1.00561E-03-1.24527E-14
 -1      1304 5.05859E-03-1.13278E-03-1.31785E-14
 -1      1305 5.51845E-03-1.20944E-03-1.39858E-14
 -1      1306 5.95991E-03-1.22375E-03-1.47931E-14
 -1      1307 6.37633E-03-1.17876E-03-1.55710E-14
 -1      1308 6.77974E-03-1.08568E-03-1.63253E-14
 -1      1309 7.13921E-03-9.63227E-04-1.69891E-14
 -1      1310 7.44364E-03-8.28289E-04-1.75445E-14
 -1      1311 7.69012E-03-6.87451E-04-1.79910E-14
 -1      1312 7.86186E-03-5.45613E-04-1.83115E-14
 -1      1313 7.94145E-03-4.06350E-04-1.84750E-14
 -1      1314 1.66912E-04-1.07019E-04 9.48677E-20
 -1      1315 1.13828E-04-5.31789E-05-1.67916E-17
 -1      1316 1.18702E-04-6.42130E-05-1.21837E-17
 -1      1317 1.09581E-04-3.89432E-05-2.42726E-17
 -1      1318 1.11545E-04-4.53184E-05-2.19144E-17
 -1      1319 2.29130E-04-9.93314E-05-5.17842E-17
 -1      1320 1.07551E-04-2.88294E-05-2.87043E-17
 -1      1321 1.08647E-04-3.35657E-05-2.74439E-17
 -1      1322 2.21313E-04-7.32233E-05-6.56078E-17
 -1      1323 1.06179E-04-2.08791E-05-3.12928E-17
 -1      1324 1.06916E-04-2.46662E-05-3.05609E-17
 -1      1325 2.16930E-04-5.40091E-05-7.39290E-17
 -1      1326 1.05203E-04-1.44365E-05-3.25532E-17
 -1      1327 1.05711E-04-1.75453E-05-3.22279E-17
 -1      1328 2.13930E-04-3.88776E-05-7.87131E-17
 -1      1329 1.04527E-04-8.81063E-06-3.33663E-17
 -1      1330 1.04861E-04-1.15619E-05-3.32715E-17
 -1      1331 2.11792E-04-2.62888E-05-8.13016E-17
 -1      1332 1.04166E-04-3.73616E-06-3.34205E-17
 -1      1333 1.04324E-04-6.26111E-06-3.34476E-17
 -1      1334 2.10392E-04-1.52528E-05-8.24536E-17
 -1      1335 1.04122E-04 1.14099E-06-3.30411E-17
 -1      1336 1.04107E-04-1.32958E-06-3.32579E-17
 -1      1337 2.09732E-04-5.12801E-06-8.22774E-17
 -1      1338 1.04389E-04 6.15688E-06-3.20924E-17
 -1      1339 1.04205E-04 3.57746E-06-3.24041E-17
 -1      1340 2.09804E-04 4.77698E-06-8.09763E-17
 -1      1341 1.04951E-04 1.16372E-05-3.06423E-17
 -1      1342 1.04606E-04 8.78883E-06-3.11166E-17
 -1      1343 2.10583E-04 1.51175E-05-7.83065E-17
 -1      1344 1.05787E-04 1.77985E-05-2.85416E-17
 -1      1345 1.05285E-04 1.45760E-05-2.92464E-17
 -1      1346 2.12023E-04 2.64344E-05-7.44034E-17
 -1      1347 1.06963E-04 2.52283E-05-2.54245E-17
 -1      1348 1.06245E-04 2.13167E-05-2.64952E-17
 -1      1349 2.14132E-04 3.94794E-05-6.88468E-17
 -1      1350 1.08638E-04 3.43705E-05-2.10200E-17
 -1      1351 1.07562E-04 2.95194E-05-2.27005E-17
 -1      1352 2.17063E-04 5.52312E-05-6.10541E-17
 -1      1353 1.11452E-04 4.63157E-05-1.41082E-17
 -1      1354 1.09525E-04 3.98620E-05-1.70491E-17
 -1      1355 2.21324E-04 7.49417E-05-4.98326E-17
 -1      1356 1.17953E-04 6.44891E-05-3.27971E-18
 -1      1357 1.13397E-04 5.42128E-05-8.47033E-18
 -1      1358 2.28948E-04 1.01660E-04-3.31766E-17
 -1      1359 1.57506E-04 1.07083E-04 1.30782E-17
 -1      1360 1.36532E-04 8.30039E-05 3.15774E-18
 -1      1361 2.58386E-04 1.45071E-04-1.33763E-17
 -1      1362 3.35469E-04 2.13697E-04 1.43115E-17
 -1      1363 4.22833E-04-2.51190E-04-2.68476E-17
 -1      1364 5.77627E-04-3.20846E-04-6.25991E-17
 -1      1365 7.27229E-04-3.75958E-04-1.23233E-16
 -1      1366 8.73546E-04-4.19745E-04-2.06784E-16
 -1      1367 6.18523E-04-3.11526E-04-1.19086E-16
 -1      1368 1.01753E-03-4.55319E-04-3.12386E-16
 -1      1369 1.16021E-03-4.83880E-04-4.41162E-16
 -1      1370 9.17990E-04-4.00899E-04-2.93616E-16
 -1      1371 1.30250E-03-5.07266E-04-5.92056E-16
 -1      1372 1.44500E-03-5.26057E-04-7.65799E-16
 -1      1373 1.20954E-03-4.59027E-04-5.56941E-16
 -1      1374 1.58829E-03-5.41315E-04-9.61796E-16
 -1      1375 1.73276E-03-5.53530E-04-1.18052E-15
 -1      1376 1.49919E-03-4.96764E-04-9.09564E-16
 -1      1377 1.87884E-03-5.63388E-04-1.42185E-15
 -1      1378 2.02680E-03-5.71414E-04-1.68581E-15
 -1      1379 1.79105E-03-5.20772E-04-1.35146E-15
 -1      1380 2.17697E-03-5.78167E-04-1.97279E-15
 -1      1381 2.32960E-03-5.84235E-04-2.28338E-15
 -1      1382 2.08810E-03-5.36017E-04-1.88364E-15
 -1      1383 2.48497E-03-5.90196E-04-2.61672E-15
 -1      1384 2.64328E-03-5.96733E-04-2.97235E-15
 -1      1385 2.39259E-03-5.47067E-04-2.50662E-15
 -1      1386 2.80476E-03-6.04557E-04-3.35115E-15
 -1      1387 2.96954E-03-6.14473E-04-3.75259E-15
 -1      1388 2.70634E-03-5.58851E-04-3.21997E-15
 -1      1389 3.13774E-03-6.27425E-04-4.17545E-15
 -1      1390 3.30935E-03-6.44342E-04-4.62103E-15
 -1      1391 3.03076E-03-5.77266E-04-4.02286E-15
 -1      1392 3.48432E-03-6.66450E-04-5.08705E-15
 -1      1393 3.66236E-03-6.94737E-04-5.57414E-15
 -1      1394 3.36662E-03-6.09674E-04-4.91234E-15
 -1      1395 3.84310E-03-7.30601E-04-6.08526E-15
 -1      1396 4.02586E-03-7.74870E-04-6.61788E-15
 -1      1397 3.71359E-03-6.64973E-04-5.88860E-15
 -1      1398 4.20984E-03-8.28680E-04-7.17387E-15
 -1      1399 4.39384E-03-8.92203E-04-7.75351E-15
 -1      1400 4.06966E-03-7.52619E-04-6.95529E-15
 -1      1401 4.57666E-03-9.65432E-04-8.35568E-15
 -1      1402 4.75667E-03-1.04702E-03-8.98341E-15
 -1      1403 4.43038E-03-8.79469E-04-8.11322E-15
 -1      1404 4.93252E-03-1.13469E-03-9.63526E-15
 -1      1405 5.10278E-03-1.22487E-03-1.03124E-14
 -1      1406 4.78851E-03-1.04351E-03-9.36607E-15
 -1      1407 5.26659E-03-1.31257E-03-1.10154E-14
 -1      1408 5.42367E-03-1.39228E-03-1.17457E-14
 -1      1409 5.13515E-03-1.22589E-03-1.07197E-14
 -1      1410 5.57447E-03-1.45795E-03-1.25054E-14
 -1      1411 5.72069E-03-1.50465E-03-1.32949E-14
 -1      1412 5.46382E-03-1.38790E-03-1.21815E-14
 -1      1413 5.86414E-03-1.52870E-03-1.41156E-14
 -1      1414 6.00792E-03-1.52891E-03-1.49669E-14
 -1      1415 5.77646E-03-1.48288E-03-1.37611E-14
 -1      1416 6.15424E-03-1.50659E-03-1.58496E-14
 -1      1417 6.30563E-03-1.46515E-03-1.67619E-14
 -1      1418 6.08545E-03-1.48266E-03-1.54648E-14
 -1      1419 6.46331E-03-1.40995E-03-1.77058E-14
 -1      1420 6.62797E-03-1.34662E-03-1.86825E-14
 -1      1421 6.40599E-03-1.39741E-03-1.72914E-14
 -1      1422 6.79933E-03-1.28103E-03-1.96874E-14
 -1      1423 6.97641E-03-1.21798E-03-2.07207E-14
 -1      1424 6.74557E-03-1.26820E-03-1.92414E-14
 -1      1425 7.15802E-03-1.16113E-03-2.17821E-14
 -1      1426 7.34253E-03-1.11295E-03-2.28680E-14
 -1      1427 7.10134E-03-1.14050E-03-2.13086E-14
 -1      1428 7.52862E-03-1.07447E-03-2.39807E-14
 -1      1429 7.71485E-03-1.04620E-03-2.51195E-14
 -1      1430 7.46494E-03-1.04372E-03-2.34839E-14
 -1      1431 7.90024E-03-1.02748E-03-2.62842E-14
 -1      1432 8.08385E-03-1.01778E-03-2.74753E-14
 -1      1433 7.82809E-03-9.87653E-04-2.57629E-14
 -1      1434 8.26514E-03-1.01580E-03-2.86896E-14
 -1      1435 8.44368E-03-1.02067E-03-2.99269E-14
 -1      1436 8.18503E-03-9.69232E-04-2.81423E-14
 -1      1437 8.61926E-03-1.03113E-03-3.11886E-14
 -1      1438 8.79180E-03-1.04629E-03-3.24734E-14
 -1      1439 8.53271E-03-9.80197E-04-3.06177E-14
 -1      1440 8.96133E-03-1.06519E-03-3.37841E-14
 -1      1441 9.12797E-03-1.08710E-03-3.51203E-14
 -1      1442 8.87014E-03-1.01181E-03-3.31889E-14
 -1      1443 9.29187E-03-1.11135E-03-3.64809E-14
 -1      1444 9.45323E-03-1.13737E-03-3.78701E-14
 -1      1445 9.19764E-03-1.05683E-03-3.58608E-14
 -1      1446 9.61226E-03-1.16476E-03-3.92828E-14
 -1      1447 9.76917E-03-1.19310E-03-4.07159E-14
 -1      1448 9.51624E-03-1.10996E-03-3.86313E-14
 -1      1449 9.92418E-03-1.22214E-03-4.21731E-14
 -1      1450 1.00775E-02-1.25160E-03-4.36524E-14
 -1      1451 9.82727E-03-1.16754E-03-4.14987E-14
 -1      1452 1.02293E-02-1.28135E-03-4.51519E-14
 -1      1453 1.03798E-02-1.31119E-03-4.66717E-14
 -1      1454 1.01321E-02-1.22720E-03-4.44523E-14
 -1      1455 1.05291E-02-1.34106E-03-4.82140E-14
 -1      1456 1.06773E-02-1.37082E-03-4.97759E-14
 -1      1457 1.04319E-02-1.28747E-03-4.74883E-14
 -1      1458 1.08248E-02-1.40047E-03-5.13584E-14
 -1      1459 1.09714E-02-1.42992E-03-5.29614E-14
 -1      1460 1.07279E-02-1.34746E-03-5.06094E-14
 -1      1461 1.11174E-02-1.45917E-03-5.45832E-14
 -1      1462 1.12628E-02-1.48818E-03-5.62233E-14
 -1      1463 1.10209E-02-1.40671E-03-5.38096E-14
 -1      1464 1.14077E-02-1.51695E-03-5.78817E-14
 -1      1465 1.15522E-02-1.54547E-03-5.95569E-14
 -1      1466 1.13116E-02-1.46498E-03-5.70838E-14
 -1      1467 1.16964E-02-1.57376E-03-6.12465E-14
 -1      1468 1.18403E-02-1.60180E-03-6.29504E-14
 -1      1469 1.16007E-02-1.52221E-03-6.04281E-14
 -1      1470 1.19839E-02-1.62963E-03-6.46654E-14
 -1      1471 1.21273E-02-1.65723E-03-6.63928E-14
 -1      1472 1.18886E-02-1.57844E-03-6.38303E-14
 -1      1473 1.22706E-02-1.68464E-03-6.81290E-14
 -1      1474 1.24137E-02-1.71185E-03-6.98743E-14
 -1      1475 1.21757E-02-1.63374E-03-6.72802E-14
 -1      1476 1.25568E-02-1.73890E-03-7.16360E-14
 -1      1477 1.26997E-02-1.76577E-03-7.34092E-14
 -1      1478 1.24621E-02-1.68824E-03-7.07784E-14
 -1      1479 1.28426E-02-1.79251E-03-7.51924E-14
 -1      1480 1.29854E-02-1.81910E-03-7.69880E-14
 -1      1481 1.27481E-02-1.74204E-03-7.43196E-14
 -1      1482 1.31282E-02-1.84558E-03-7.88007E-14
 -1      1483 1.32709E-02-1.87195E-03-8.06276E-14
 -1      1484 1.30339E-02-1.79526E-03-7.79142E-14
 -1      1485 1.34137E-02-1.89823E-03-8.24645E-14
 -1      1486 1.35564E-02-1.92441E-03-8.43147E-14
 -1      1487 1.33196E-02-1.84801E-03-8.15617E-14
 -1      1488 1.36991E-02-1.95053E-03-8.61778E-14
 -1      1489 1.38419E-02-1.97658E-03-8.80509E-14
 -1      1490 1.36051E-02-1.90040E-03-8.52551E-14
 -1      1491 1.39846E-02-2.00257E-03-8.99356E-14
 -1      1492 1.41273E-02-2.02852E-03-9.18315E-14
 -1      1493 1.38907E-02-1.95250E-03-8.89974E-14
 -1      1494 1.42701E-02-2.05443E-03-9.37369E-14
 -1      1495 1.44129E-02-2.08031E-03-9.56477E-14
 -1      1496 1.41762E-02-2.00439E-03-9.27825E-14
 -1      1497 1.45556E-02-2.10617E-03-9.75702E-14
 -1      1498 1.46984E-02-2.13201E-03-9.95004E-14
 -1      1499 1.44618E-02-2.05615E-03-9.66033E-14
 -1      1500 1.48413E-02-2.15785E-03-1.01438E-13
 -1      1501 1.49841E-02-2.18368E-03-1.03381E-13
 -1      1502 1.47474E-02-2.10783E-03-1.00458E-13
 -1      1503 1.51269E-02-2.20951E-03-1.05333E-13
 -1      1504 1.52698E-02-2.23535E-03-1.07296E-13
 -1      1505 1.50331E-02-2.15948E-03-1.04343E-13
 -1      1506 1.54743E-02-2.26853E-03-1.10149E-13
 -1      1507 1.53805E-02-2.21848E-03-1.09147E-13
 -1      1508 6.46429E-04 3.55231E-04-1.95021E-17
 -1      1509 4.94481E-04 2.91839E-04 7.26415E-18
 -1      1510 4.48058E-04 2.54079E-04-1.33628E-17
 -1      1511 9.37777E-04 4.45449E-04-1.33479E-16
 -1      1512 7.93680E-04 4.04786E-04-6.64751E-17
 -1      1513 7.52358E-04 3.68839E-04-9.28755E-17
 -1      1514 1.22136E-03 5.05684E-04-3.28744E-16
 -1      1515 1.07997E-03 4.78495E-04-2.20635E-16
 -1      1516 1.04522E-03 4.44458E-04-2.52145E-16
 -1      1517 1.50388E-03 5.46680E-04-6.09376E-16
 -1      1518 1.36241E-03 5.28151E-04-4.58360E-16
 -1      1519 1.33269E-03 4.95150E-04-4.93502E-16
 -1      1520 1.78915E-03 5.75015E-04-9.77273E-16
 -1      1521 1.64596E-03 5.62118E-04-7.82130E-16
 -1      1522 1.61963E-03 5.29494E-04-8.20145E-16
 -1      1523 2.07939E-03 5.95596E-04-1.43230E-15
 -1      1524 1.93352E-03 5.86006E-04-1.19379E-15
 -1      1525 1.90913E-03 5.53275E-04-1.23352E-15
 -1      1526 2.37586E-03 6.12690E-04-1.97523E-15
 -1      1527 2.22678E-03 6.04327E-04-1.69270E-15
 -1      1528 2.20305E-03 5.71137E-04-1.73468E-15
 -1      1529 2.67904E-03 6.30356E-04-2.61085E-15
 -1      1530 2.52659E-03 6.21214E-04-2.28153E-15
 -1      1531 2.50238E-03 5.87300E-04-2.32481E-15
 -1      1532 2.98861E-03 6.52567E-04-3.33936E-15
 -1      1533 2.83306E-03 6.40685E-04-2.96363E-15
 -1      1534 2.80738E-03 6.05868E-04-3.00678E-15
 -1      1535 3.30329E-03 6.83028E-04-4.16313E-15
 -1      1536 3.14541E-03 6.66619E-04-3.73933E-15
 -1      1537 3.11757E-03 6.30828E-04-3.78197E-15
 -1      1538 3.62066E-03 7.24630E-04-5.07768E-15
 -1      1539 3.46182E-03 7.02404E-04-4.60827E-15
 -1      1540 3.43156E-03 6.65722E-04-4.64978E-15
 -1      1541 3.93715E-03 7.78474E-04-6.08912E-15
 -1      1542 3.77928E-03 7.50173E-04-5.57147E-15
 -1      1543 3.74703E-03 7.12903E-04-5.61103E-15
 -1      1544 4.24834E-03 8.42541E-04-7.19867E-15
 -1      1545 4.09372E-03 8.09627E-04-6.63178E-15
 -1      1546 4.06073E-03 7.72337E-04-6.66967E-15
 -1      1547 4.54981E-03 9.10472E-04-8.41096E-15
 -1      1548 4.40056E-03 8.76681E-04-7.79116E-15
 -1      1549 4.36898E-03 8.40186E-04-7.82648E-15
 -1      1550 4.83857E-03 9.71321E-04-9.73483E-15
 -1      1551 4.69590E-03 9.42610E-04-9.05866E-15
 -1      1552 4.66846E-03 9.07831E-04-9.08980E-15
 -1      1553 5.11461E-03 1.01129E-03-1.11680E-14
 -1      1554 4.97806E-03 9.94702E-04-1.04379E-14
 -1      1555 4.95758E-03 9.62372E-04-1.04637E-14
 -1      1556 5.38168E-03 1.01764E-03-1.27174E-14
 -1      1557 5.24888E-03 1.01913E-03-1.19277E-14
 -1      1558 5.23753E-03 9.89461E-04-1.19499E-14
 -1      1559 5.64667E-03 9.83445E-04-1.43887E-14
 -1      1560 5.51391E-03 1.00556E-03-1.35380E-14
 -1      1561 5.51258E-03 9.78053E-04-1.35560E-14
 -1      1562 5.91730E-03 9.10518E-04-1.61834E-14
 -1      1563 5.78080E-03 9.51252E-04-1.52706E-14
 -1      1564 5.78889E-03 9.24896E-04-1.52844E-14
 -1      1565 6.19950E-03 8.08630E-04-1.80989E-14
 -1      1566 6.05668E-03 8.62323E-04-1.71260E-14
 -1      1567 6.07227E-03 8.35961E-04-1.71360E-14
 -1      1568 6.49562E-03 6.91611E-04-2.01349E-14
 -1      1569 6.34579E-03 7.51141E-04-1.91018E-14
 -1      1570 6.36617E-03 7.23899E-04-1.91077E-14
 -1      1571 6.80447E-03 5.72665E-04-2.22824E-14
 -1      1572 6.64863E-03 6.31725E-04-2.11949E-14
 -1      1573 6.67094E-03 6.03197E-04-2.11961E-14
 -1      1574 7.12246E-03 4.61269E-04-2.45437E-14
 -1      1575 6.96260E-03 5.15663E-04-2.34002E-14
 -1      1576 6.98445E-03 4.85863E-04-2.33960E-14
 -1      1577 7.44522E-03 3.62343E-04-2.69055E-14
 -1      1578 7.28353E-03 4.10144E-04-2.57119E-14
 -1      1579 7.30330E-03 3.79346E-04-2.57031E-14
 -1      1580 7.76878E-03 2.77021E-04-2.93736E-14
 -1      1581 7.60714E-03 3.18043E-04-2.81257E-14
 -1      1582 7.62402E-03 2.86617E-04-2.81142E-14
 -1      1583 8.09019E-03 2.04061E-04-3.19450E-14
 -1      1584 7.92991E-03 2.39139E-04-3.06466E-14
 -1      1585 7.94375E-03 2.07433E-04-3.06297E-14
 -1      1586 8.40761E-03 1.41111E-04-3.46144E-14
 -1      1587 8.24948E-03 1.71501E-04-3.32669E-14
 -1      1588 8.26053E-03 1.39790E-04-3.32435E-14
 -1      1589 8.72020E-03 8.55747E-05-3.73793E-14
 -1      1590 8.56454E-03 1.12570E-04-3.59856E-14
 -1      1591 8.57329E-03 8.10449E-05-3.59542E-14
 -1      1592 9.02785E-03 3.50950E-05-4.02326E-14
 -1      1593 8.87464E-03 5.98303E-05-3.87948E-14
 -1      1594 8.88164E-03 2.85997E-05-3.87574E-14
 -1      1595 9.33087E-03-1.22458E-05-4.31691E-14
 -1      1596 9.17991E-03 1.11298E-05-4.16906E-14
 -1      1597 9.18566E-03-1.97583E-05-4.16460E-14
 -1      1598 9.62982E-03-5.78929E-05-4.61893E-14
 -1      1599 9.48081E-03-3.52109E-05-4.46695E-14
 -1      1600 9.48574E-03-6.57520E-05-4.46189E-14
 -1      1601 9.92536E-03-1.02867E-04-4.92859E-14
 -1      1602 9.77797E-03-8.04165E-05-4.77269E-14
 -1      1603 9.78243E-03-1.10633E-04-4.76709E-14
 -1      1604 1.02181E-02-1.47844E-04-5.24663E-14
 -1      1605 1.00721E-02-1.25325E-04-5.08647E-14
 -1      1606 1.00763E-02-1.55255E-04-5.08027E-14
 -1      1607 1.05088E-02-1.93236E-04-5.57239E-14
 -1      1608 1.03637E-02-1.70471E-04-5.40861E-14
 -1      1609 1.03679E-02-2.00156E-04-5.40174E-14
 -1      1610 1.07978E-02-2.39267E-04-5.90576E-14
 -1      1611 1.06534E-02-2.16164E-04-5.73819E-14
 -1      1612 1.06577E-02-2.45648E-04-5.73087E-14
 -1      1613 1.10855E-02-2.86028E-04-6.24702E-14
 -1      1614 1.09418E-02-2.62554E-04-6.07549E-14
 -1      1615 1.09461E-02-2.91877E-04-6.06757E-14
 -1      1616 1.13724E-02-3.33525E-04-6.59435E-14
 -1      1617 1.12291E-02-3.09686E-04-6.41987E-14
 -1      1618 1.12335E-02-3.38883E-04-6.41109E-14
 -1      1619 1.16587E-02-3.81712E-04-6.94773E-14
 -1      1620 1.15157E-02-3.57536E-04-6.77032E-14
 -1      1621 1.15203E-02-3.86637E-04-6.76048E-14
 -1      1622 1.19446E-02-4.30515E-04-7.30583E-14
 -1      1623 1.18017E-02-4.06041E-04-7.12617E-14
 -1      1624 1.18065E-02-4.35072E-04-7.11576E-14
 -1      1625 1.22303E-02-4.79847E-04-7.66882E-14
 -1      1626 1.20875E-02-4.55120E-04-7.48674E-14
 -1      1627 1.20924E-02-4.84100E-04-7.47599E-14
 -1      1628 1.25158E-02-5.29619E-04-8.03549E-14
 -1      1629 1.23731E-02-5.04683E-04-7.85188E-14
 -1      1630 1.23781E-02-5.33627E-04-7.84081E-14
 -1      1631 1.28013E-02-5.79745E-04-8.40484E-14
 -1      1632 1.26586E-02-5.54643E-04-8.21979E-14
 -1      1633 1.26637E-02-5.83563E-04-8.20857E-14
 -1      1634 1.30868E-02-6.30145E-04-8.77526E-14
 -1      1635 1.29440E-02-6.04915E-04-8.59009E-14
 -1      1636 1.29492E-02-6.33822E-04-8.57829E-14
 -1      1637 1.33722E-02-6.80748E-04-9.14499E-14
 -1      1638 1.32295E-02-6.55425E-04-8.96038E-14
 -1      1639 1.32348E-02-6.84325E-04-8.94834E-14
 -1      1640 1.36578E-02-7.31489E-04-9.51445E-14
 -1      1641 1.35150E-02-7.06105E-04-9.32978E-14
 -1      1642 1.35203E-02-7.35003E-04-9.31775E-14
 -1      1643 1.39434E-02-7.82310E-04-9.88386E-14
 -1      1644 1.38006E-02-7.56893E-04-9.69910E-14
 -1      1645 1.38059E-02-7.85793E-04-9.68714E-14
 -1      1646 1.42290E-02-8.33157E-04-1.02528E-13
 -1      1647 1.40862E-02-8.07733E-04-1.00684E-13
 -1      1648 1.40915E-02-8.36637E-04-1.00564E-13
 -1      1649 1.45147E-02-8.83985E-04-1.06200E-13
 -1      1650 1.43718E-02-8.58575E-04-1.04366E-13
 -1      1651 1.43772E-02-8.87485E-04-1.04247E-13
 -1      1652 1.46700E-02-9.21344E-04-1.08126E-13
 -1      1653 1.47444E-02-1.02885E-03-1.08469E-13
 -1      1654 1.47194E-02-9.86698E-04-1.08390E-13
 -1      1655 1.47943E-02-1.11319E-03-1.08624E-13
 -1      1656 1.47693E-02-1.07102E-03-1.08547E-13
 -1      1657 1.46331E-02-1.02794E-03-1.06914E-13
 -1      1658 1.48441E-02-1.19758E-03-1.08788E-13
 -1      1659 1.48192E-02-1.15538E-03-1.08705E-13
 -1      1660 1.46830E-02-1.11228E-03-1.07067E-13
 -1      1661 1.48941E-02-1.28201E-03-1.08955E-13
 -1      1662 1.48691E-02-1.23979E-03-1.08873E-13
 -1      1663 1.47329E-02-1.19666E-03-1.07226E-13
 -1      1664 1.49432E-02-1.36504E-03-1.09121E-13
 -1      1665 1.49186E-02-1.32352E-03-1.09036E-13
 -1      1666 1.47824E-02-1.28036E-03-1.07384E-13
 -1      1667 1.49934E-02-1.44953E-03-1.09281E-13
 -1      1668 1.49683E-02-1.40728E-03-1.09203E-13
 -1      1669 1.48320E-02-1.36408E-03-1.07537E-13
 -1      1670 1.50436E-02-1.53405E-03-1.09433E-13
 -1      1671 1.50185E-02-1.49179E-03-1.09356E-13
 -1      1672 1.48822E-02-1.44854E-03-1.07685E-13
 -1      1673 1.50940E-02-1.61857E-03-1.09585E-13
 -1      1674 1.50688E-02-1.57631E-03-1.09510E-13
 -1      1675 1.49324E-02-1.53301E-03-1.07830E-13
 -1      1676 1.51445E-02-1.70309E-03-1.09713E-13
 -1      1677 1.51192E-02-1.66083E-03-1.09653E-13
 -1      1678 1.49828E-02-1.61749E-03-1.07967E-13
 -1      1679 1.51951E-02-1.78760E-03-1.09836E-13
 -1      1680 1.51698E-02-1.74535E-03-1.09773E-13
 -1      1681 1.50334E-02-1.70196E-03-1.08091E-13
 -1      1682 1.52450E-02-1.87065E-03-1.09955E-13
 -1      1683 1.52200E-02-1.82913E-03-1.09898E-13
 -1      1684 1.50836E-02-1.78570E-03-1.08205E-13
 -1      1685 1.52958E-02-1.95510E-03-1.10070E-13
 -1      1686 1.52704E-02-1.91288E-03-1.10015E-13
 -1      1687 1.51339E-02-1.86943E-03-1.08310E-13
 -1      1688 1.53467E-02-2.03951E-03-1.10162E-13
 -1      1689 1.53212E-02-1.99731E-03-1.10122E-13
 -1      1690 1.51848E-02-1.95384E-03-1.08405E-13
 -1      1691 1.53976E-02-2.12387E-03-1.10228E-13
 -1      1692 1.53722E-02-2.08170E-03-1.10197E-13
 -1      1693 1.52357E-02-2.03822E-03-1.08481E-13
 -1      1694 1.54018E-02-2.19226E-03-1.09702E-13
 -1      1695 1.53763E-02-2.15010E-03-1.09675E-13
 -1      1696 1.52399E-02-2.10663E-03-1.07960E-13
 -1      1697 1.51972E-02-2.15909E-03-1.06855E-13
 -1      1698 7.90725E-03-2.69615E-04-1.88395E-14
 -1      1699 7.94976E-03-3.16760E-04-1.88999E-14
 -1      1700 7.72349E-03-1.58485E-04-1.85792E-14
 -1      1701 7.82264E-03-2.13476E-04-1.87388E-14
 -1      1702 7.42510E-03-1.57532E-05-1.80951E-14
 -1      1703 7.57445E-03-8.80126E-05-1.83542E-14
 -1      1704 7.06845E-03 1.68709E-04-1.73789E-14
 -1      1705 7.24186E-03 8.57782E-05-1.77014E-14
 -1      1706 6.64904E-03 3.52527E-04-1.65858E-14
 -1      1707 6.84125E-03 2.63702E-04-1.69839E-14
 -1      1708 6.22158E-03 5.21632E-04-1.56639E-14
 -1      1709 6.40954E-03 4.47938E-04-1.61011E-14
 -1      1710 5.85307E-03 6.18411E-04-1.47317E-14
 -1      1711 6.02358E-03 5.82928E-04-1.51354E-14
 -1      1712 5.46933E-03 6.41600E-04-1.38311E-14
 -1      1713 5.64710E-03 6.41984E-04-1.42482E-14
 -1      1714 5.05906E-03 5.73925E-04-1.29018E-14
 -1      1715 5.25228E-03 6.19160E-04-1.33218E-14
 -1      1716 4.65897E-03 4.39958E-04-1.21540E-14
 -1      1717 4.83278E-03 5.05244E-04-1.24763E-14
 -1      1718 4.29766E-03 2.87681E-04-1.15517E-14
 -1      1719 4.46030E-03 3.59001E-04-1.18112E-14
 -1      1720 3.94041E-03 1.08999E-04-1.09855E-14
 -1      1721 4.10984E-03 1.87750E-04-1.12174E-14
 -1      1722 3.63462E-03-1.99270E-05-1.06762E-14
 -1      1723 3.75590E-03 4.25794E-05-1.08216E-14
 -1      1724 3.46281E-03-1.32623E-04-1.04833E-14
 -1      1725 3.52698E-03-8.43811E-05-1.05522E-14
 -1      1726 3.41689E-03-2.34033E-04-1.04126E-14
 -1      1727 3.42047E-03-1.89492E-04-1.04111E-14
 -1      1728 3.51360E-03-3.39837E-04-1.05478E-14
 -1      1729 3.45257E-03-2.90270E-04-1.04736E-14
 -1      1730 3.74085E-03-4.73266E-04-1.08270E-14
 -1      1731 3.62055E-03-4.07389E-04-1.06787E-14
 -1      1732 4.05358E-03-6.41553E-04-1.12587E-14
 -1      1733 3.90032E-03-5.62856E-04-1.10503E-14
 -1      1734 4.42059E-03-8.26775E-04-1.17990E-14
 -1      1735 4.24603E-03-7.39034E-04-1.15339E-14
 -1      1736 4.82577E-03-1.01960E-03-1.24827E-14
 -1      1737 4.63436E-03-9.30896E-04-1.21488E-14
 -1      1738 5.23582E-03-1.17802E-03-1.32723E-14
 -1      1739 5.04772E-03-1.11151E-03-1.28969E-14
 -1      1740 5.65036E-03-1.26890E-03-1.41551E-14
 -1      1741 5.46352E-03-1.23871E-03-1.37341E-14
 -1      1742 6.01975E-03-1.25994E-03-1.50099E-14
 -1      1743 5.85613E-03-1.27288E-03-1.46315E-14
 -1      1744 6.39133E-03-1.17497E-03-1.58738E-14
 -1      1745 6.21618E-03-1.22479E-03-1.54740E-14
 -1      1746 6.77059E-03-1.03421E-03-1.66777E-14
 -1      1747 6.59959E-03-1.10389E-03-1.63155E-14
 -1      1748 7.12013E-03-8.69550E-04-1.74081E-14
 -1      1749 6.95966E-03-9.45581E-04-1.70932E-14
 -1      1750 7.44120E-03-7.18868E-04-1.79804E-14
 -1      1751 7.30154E-03-7.88049E-04-1.77265E-14
 -1      1752 7.70905E-03-5.80686E-04-1.84551E-14
 -1      1753 7.59227E-03-6.42631E-04-1.82519E-14
 -1      1754 7.89030E-03-4.66623E-04-1.87740E-14
 -1      1755 7.81931E-03-5.15947E-04-1.86488E-14
 -1      1756 7.96259E-03-3.69162E-04-1.89416E-14
 -1      1757 7.94367E-03-4.11473E-04-1.89014E-14
 -1      1758 6.88644E-03 1.74587E-04-1.74330E-14
 -1      1759 7.28851E-03-2.45561E-05-1.82362E-14
 -1      1760 1.46754E-02-9.50259E-04-1.08010E-13
 -1      1761 1.45641E-02-9.49338E-04-1.06460E-13
 -1      1762 7.86560E-03-2.77793E-04-1.92012E-14
 -1      1763 7.62594E-03-1.79460E-04-1.88678E-14
 -1      1764 7.96574E-03-3.49962E-04-1.93468E-14
 -1      1765 6.45794E-03 3.83834E-04-1.65365E-14
 -1      1766 6.08160E-03 5.61922E-04-1.55090E-14
 -1      1767 5.72962E-03 6.55561E-04-1.44930E-14
 -1      1768 5.37436E-03 6.53646E-04-1.35010E-14
 -1      1769 5.00419E-03 5.45299E-04-1.25754E-14
 -1      1770 4.62220E-03 3.78096E-04-1.18194E-14
 -1      1771 4.25062E-03 1.90073E-04-1.11563E-14
 -1      1772 3.88373E-03 2.57151E-05-1.06778E-14
 -1      1773 3.58985E-03-9.14166E-05-1.04004E-14
 -1      1774 3.43342E-03-1.78216E-04-1.02095E-14
 -1      1775 3.42571E-03-2.43169E-04-1.01981E-14
 -1      1776 3.57434E-03-3.28031E-04-1.03837E-14
 -1      1777 3.84942E-03-4.57476E-04-1.07263E-14
 -1      1778 4.20395E-03-6.35563E-04-1.12113E-14
 -1      1779 4.59717E-03-8.44619E-04-1.18207E-14
 -1      1780 4.99992E-03-1.05764E-03-1.25707E-14
 -1      1781 5.39578E-03-1.22611E-03-1.34367E-14
 -1      1782 5.75088E-03-1.29851E-03-1.43702E-14
 -1      1783 6.09317E-03-1.26255E-03-1.53121E-14
 -1      1784 6.43988E-03-1.14057E-03-1.62265E-14
 -1      1785 6.80304E-03-9.66009E-04-1.70959E-14
 -1      1786 7.15499E-03-7.85480E-04-1.78476E-14
 -1      1787 7.48332E-03-6.28904E-04-1.84522E-14
 -1      1788 7.75047E-03-5.04607E-04-1.89299E-14
 -1      1789 7.92128E-03-4.15134E-04-1.92587E-14
 -1      1790 2.87061E-04-1.68844E-04-2.64681E-17
 -1      1791 3.35122E-04-1.02959E-04-1.05290E-16
 -1      1792 3.40033E-04-1.19367E-04-9.74291E-17
 -1      1793 3.46555E-04-1.38842E-04-8.81998E-17
 -1      1794 3.56258E-04-1.61556E-04-7.55960E-17
 -1      1795 4.63999E-04-1.70008E-04-1.41678E-16
 -1      1796 3.23237E-04-5.39830E-05-1.21946E-16
 -1      1797 3.25455E-04-6.42004E-05-1.19438E-16
 -1      1798 3.19830E-04-3.55010E-05-1.25009E-16
 -1      1799 3.21373E-04-4.43607E-05-1.23585E-16
 -1      1800 4.33433E-04-6.54523E-05-1.81821E-16
 -1      1801 3.17746E-04-1.92056E-05-1.26093E-16
 -1      1802 3.18632E-04-2.71309E-05-1.25835E-16
 -1      1803 4.28874E-04-4.17389E-05-1.85100E-16
 -1      1804 3.16945E-04-3.99168E-06-1.25266E-16
 -1      1805 3.17188E-04-1.15113E-05-1.25835E-16
 -1      1806 4.26273E-04-2.04707E-05-1.85832E-16
 -1      1807 3.17398E-04 1.11455E-05-1.22745E-16
 -1      1808 3.17016E-04 3.54177E-06-1.24331E-16
 -1      1809 4.25576E-04-2.55456E-07-1.84165E-16
 -1      1810 3.19059E-04 2.71626E-05-1.18476E-16
 -1      1811 3.18076E-04 1.90030E-05-1.20916E-16
 -1      1812 4.26726E-04 2.01867E-05-1.79950E-16
 -1      1813 3.21835E-04 4.46973E-05-1.11985E-16
 -1      1814 3.20296E-04 3.56730E-05-1.15495E-16
 -1      1815 4.29620E-04 4.18929E-05-1.73012E-16
 -1      1816 3.25893E-04 6.54128E-05-1.03243E-16
 -1      1817 3.23680E-04 5.46588E-05-1.08244E-16
 -1      1818 4.34239E-04 6.62704E-05-1.63471E-16
 -1      1819 3.31581E-04 9.04616E-05-9.07884E-17
 -1      1820 3.28467E-04 7.73556E-05-9.77002E-17
 -1      1821 4.40837E-04 9.50137E-05-1.50338E-16
 -1      1822 3.40200E-04 1.22255E-04-7.23569E-17
 -1      1823 3.35324E-04 1.05446E-04-8.26704E-17
 -1      1824 4.50132E-04 1.29951E-04-1.31324E-16
 -1      1825 3.56502E-04 1.65952E-04-4.56585E-17
 -1      1826 3.46909E-04 1.42407E-04-6.05120E-17
 -1      1827 4.64738E-04 1.74516E-04-1.04165E-16
 -1      1828 4.11559E-04 2.22026E-04-2.57227E-17
 -1      1829 3.82344E-04 1.90900E-04-3.82994E-17
 -1      1830 5.02060E-04 2.27490E-04-7.90925E-17
 -1      1831 5.64444E-04 2.85777E-04-5.75305E-17
 -1      1832 3.43762E-04-1.80321E-04-5.19062E-17
 -1      1833 8.64827E-04 3.80218E-04-1.80574E-16
 -1      1834 7.15491E-04 3.37552E-04-1.09342E-16
 -1      1835 6.81981E-04 3.07062E-04-1.23125E-16
 -1      1836 4.64820E-04-2.21054E-04-9.74833E-17
 -1      1837 8.19105E-04-3.45422E-04-2.71525E-16
 -1      1838 9.67889E-04-3.80822E-04-3.84580E-16
 -1      1839 1.11485E-03-4.09713E-04-5.19319E-16
 -1      1840 1.26138E-03-4.32839E-04-6.76217E-16
 -1      1841 1.02060E-03-3.59798E-04-4.79787E-16
 -1      1842 1.40739E-03-4.51594E-04-8.55124E-16
 -1      1843 1.55362E-03-4.66357E-04-1.05632E-15
 -1      1844 1.31457E-03-4.06022E-04-7.99152E-16
 -1      1845 1.70025E-03-4.78105E-04-1.27955E-15
 -1      1846 1.84772E-03-4.87213E-04-1.52507E-15
 -1      1847 1.60791E-03-4.35461E-04-1.20592E-15
 -1      1848 1.99622E-03-4.94438E-04-1.79292E-15
 -1      1849 2.14609E-03-5.00193E-04-2.08320E-15
 -1      1850 1.90275E-03-4.53385E-04-1.70100E-15
 -1      1851 2.29744E-03-5.05181E-04-2.39613E-15
 -1      1852 2.45061E-03-5.09891E-04-2.73140E-15
 -1      1853 2.20094E-03-4.64394E-04-2.28498E-15
 -1      1854 2.60565E-03-5.15097E-04-3.08891E-15
 -1      1855 2.76286E-03-5.21402E-04-3.46861E-15
 -1      1856 2.50405E-03-4.73084E-04-2.95764E-15
 -1      1857 2.92231E-03-5.29750E-04-3.87041E-15
 -1      1858 3.08415E-03-5.40912E-04-4.29374E-15
 -1      1859 2.81351E-03-4.84665E-04-3.71820E-15
 -1      1860 3.24857E-03-5.56052E-04-4.73913E-15
 -1      1861 3.41545E-03-5.76151E-04-5.20508E-15
 -1      1862 3.13077E-03-5.05525E-04-4.56609E-15
 -1      1863 3.58519E-03-6.02536E-04-5.69315E-15
 -1      1864 3.75715E-03-6.36378E-04-6.20422E-15
 -1      1865 3.45737E-03-5.43642E-04-5.49913E-15
 -1      1866 3.93213E-03-6.78884E-04-6.73714E-15
 -1      1867 4.10866E-03-7.31172E-04-7.29264E-15
 -1      1868 3.79498E-03-6.08532E-04-6.51988E-15
 -1      1869 4.28792E-03-7.93707E-04-7.87077E-15
 -1      1870 4.46743E-03-8.66850E-04-8.47280E-15
 -1      1871 4.14479E-03-7.09968E-04-7.63007E-15
 -1      1872 4.64850E-03-9.49409E-04-9.09894E-15
 -1      1873 4.82783E-03-1.03952E-03-9.74919E-15
 -1      1874 4.50596E-03-8.54158E-04-8.83229E-15
 -1      1875 5.00612E-03-1.13347E-03-1.04254E-14
 -1      1876 5.18090E-03-1.22614E-03-1.11274E-14
 -1      1877 4.87287E-03-1.03567E-03-1.01315E-14
 -1      1878 5.35156E-03-1.31158E-03-1.18586E-14
 -1      1879 5.51886E-03-1.38227E-03-1.26184E-14
 -1      1880 5.23437E-03-1.22685E-03-1.15355E-14
 -1      1881 5.68089E-03-1.43281E-03-1.34077E-14
 -1      1882 5.84311E-03-1.45812E-03-1.42278E-14
 -1      1883 5.58051E-03-1.37548E-03-1.30539E-14
 -1      1884 6.00296E-03-1.45681E-03-1.50804E-14
 -1      1885 6.16724E-03-1.43086E-03-1.59636E-14
 -1      1886 5.91467E-03-1.42800E-03-1.46950E-14
 -1      1887 6.33361E-03-1.38408E-03-1.68770E-14
 -1      1888 6.50524E-03-1.32334E-03-1.78213E-14
 -1      1889 6.25360E-03-1.37074E-03-1.64615E-14
 -1      1890 6.68088E-03-1.25483E-03-1.87966E-14
 -1      1891 6.85930E-03-1.18531E-03-1.98024E-14
 -1      1892 6.60893E-03-1.24199E-03-1.83525E-14
 -1      1893 7.04059E-03-1.11980E-03-2.08363E-14
 -1      1894 7.22167E-03-1.06179E-03-2.18988E-14
 -1      1895 6.97606E-03-1.09922E-03-2.03652E-14
 -1      1896 7.40360E-03-1.01366E-03-2.29862E-14
 -1      1897 7.58341E-03-9.76018E-04-2.41000E-14
 -1      1898 7.34305E-03-9.83811E-04-2.24894E-14
 -1      1899 7.76242E-03-9.49120E-04-2.52407E-14
 -1      1900 7.93868E-03-9.32140E-04-2.64056E-14
 -1      1901 7.70132E-03-9.11325E-04-2.47193E-14
 -1      1902 8.11318E-03-9.24194E-04-2.75953E-14
 -1      1903 8.28494E-03-9.24132E-04-2.88094E-14
 -1      1904 8.04798E-03-8.80367E-04-2.70490E-14
 -1      1905 8.45451E-03-9.30714E-04-3.00479E-14
 -1      1906 8.62159E-03-9.42920E-04-3.13082E-14
 -1      1907 8.38352E-03-8.82615E-04-2.94767E-14
 -1      1908 8.78642E-03-9.59606E-04-3.25955E-14
 -1      1909 8.94909E-03-9.79990E-04-3.39056E-14
 -1      1910 8.70952E-03-9.08701E-04-3.20015E-14
 -1      1911 9.10964E-03-1.00319E-03-3.52398E-14
 -1      1912 9.26835E-03-1.02865E-03-3.66006E-14
 -1      1913 9.02754E-03-9.50624E-04-3.46210E-14
 -1      1914 9.42518E-03-1.05574E-03-3.79843E-14
 -1      1915 9.58047E-03-1.08409E-03-3.93933E-14
 -1      1916 9.33895E-03-1.00235E-03-3.73398E-14
 -1      1917 9.73417E-03-1.11330E-03-4.08252E-14
 -1      1918 9.88660E-03-1.14309E-03-4.22784E-14
 -1      1919 9.64488E-03-1.05964E-03-4.01535E-14
 -1      1920 1.00377E-02-1.17325E-03-4.37544E-14
 -1      1921 1.01878E-02-1.20358E-03-4.52505E-14
 -1      1922 9.94629E-03-1.11969E-03-4.30586E-14
 -1      1923 1.03369E-02-1.23396E-03-4.67667E-14
 -1      1924 1.04851E-02-1.26427E-03-4.83041E-14
 -1      1925 1.02440E-02-1.18070E-03-4.60478E-14
 -1      1926 1.06325E-02-1.29446E-03-4.98618E-14
 -1      1927 1.07793E-02-1.32444E-03-5.14397E-14
 -1      1928 1.05388E-02-1.24160E-03-4.91172E-14
 -1      1929 1.09255E-02-1.35421E-03-5.30361E-14
 -1      1930 1.10711E-02-1.38370E-03-5.46522E-14
 -1      1931 1.08312E-02-1.30178E-03-5.22680E-14
 -1      1932 1.12163E-02-1.41294E-03-5.62890E-14
 -1      1933 1.13611E-02-1.44190E-03-5.79415E-14
 -1      1934 1.11218E-02-1.36093E-03-5.54938E-14
 -1      1935 1.15055E-02-1.47059E-03-5.96104E-14
 -1      1936 1.16497E-02-1.49901E-03-6.12968E-14
 -1      1937 1.14109E-02-1.41897E-03-5.87971E-14
 -1      1938 1.17936E-02-1.52718E-03-6.29957E-14
 -1      1939 1.19373E-02-1.55509E-03-6.47090E-14
 -1      1940 1.16990E-02-1.47589E-03-6.21640E-14
 -1      1941 1.20809E-02-1.58278E-03-6.64344E-14
 -1      1942 1.22243E-02-1.61025E-03-6.81690E-14
 -1      1943 1.19863E-02-1.53179E-03-6.55879E-14
 -1      1944 1.23675E-02-1.63752E-03-6.99171E-14
 -1      1945 1.25107E-02-1.66460E-03-7.16780E-14
 -1      1946 1.22731E-02-1.58677E-03-6.90599E-14
 -1      1947 1.26537E-02-1.69152E-03-7.34505E-14
 -1      1948 1.27967E-02-1.71827E-03-7.52327E-14
 -1      1949 1.25594E-02-1.64096E-03-7.25774E-14
 -1      1950 1.29397E-02-1.74489E-03-7.70291E-14
 -1      1951 1.30826E-02-1.77138E-03-7.88386E-14
 -1      1952 1.28454E-02-1.69450E-03-7.61457E-14
 -1      1953 1.32254E-02-1.79777E-03-8.06591E-14
 -1      1954 1.33683E-02-1.82404E-03-8.24931E-14
 -1      1955 1.31313E-02-1.74749E-03-7.97596E-14
 -1      1956 1.35111E-02-1.85024E-03-8.43376E-14
 -1      1957 1.36539E-02-1.87635E-03-8.61941E-14
 -1      1958 1.34171E-02-1.80006E-03-8.34229E-14
 -1      1959 1.37967E-02-1.90240E-03-8.80657E-14
 -1      1960 1.39395E-02-1.92839E-03-8.99448E-14
 -1      1961 1.37027E-02-1.85229E-03-8.71324E-14
 -1      1962 1.40823E-02-1.95434E-03-9.18314E-14
 -1      1963 1.42251E-02-1.98024E-03-9.37310E-14
 -1      1964 1.39884E-02-1.90427E-03-9.08874E-14
 -1      1965 1.43679E-02-2.00612E-03-9.56397E-14
 -1      1966 1.45108E-02-2.03197E-03-9.75553E-14
 -1      1967 1.42740E-02-1.95608E-03-9.46772E-14
 -1      1968 1.46536E-02-2.05781E-03-9.94826E-14
 -1      1969 1.47964E-02-2.08363E-03-1.01415E-13
 -1      1970 1.45597E-02-2.00778E-03-9.85070E-14
 -1      1971 1.49254E-02-2.10845E-03-1.03152E-13
 -1      1972 1.50682E-02-2.13427E-03-1.05101E-13
 -1      1973 1.50895E-02-2.10804E-03-1.05653E-13
 -1      1974 1.48315E-02-2.05842E-03-1.02166E-13
 -1      1975 1.15745E-03 4.43418E-04-3.82208E-16
 -1      1976 1.01159E-03 4.14976E-04-2.71227E-16
 -1      1977 9.79053E-04 3.85468E-04-2.87679E-16
 -1      1978 1.44677E-03 4.85962E-04-6.67326E-16
 -1      1979 1.30215E-03 4.66845E-04-5.14088E-16
 -1      1980 1.27160E-03 4.38428E-04-5.32004E-16
 -1      1981 1.73641E-03 5.14756E-04-1.03793E-15
 -1      1982 1.59133E-03 5.01777E-04-8.41856E-16
 -1      1983 1.56245E-03 4.74000E-04-8.60545E-16
 -1      1984 2.02874E-03 5.34978E-04-1.49499E-15
 -1      1985 1.88211E-03 5.25689E-04-1.25548E-15
 -1      1986 1.85422E-03 4.98104E-04-1.27471E-15
 -1      1987 2.32522E-03 5.51068E-04-2.03978E-15
 -1      1988 2.17638E-03 5.43308E-04-1.75643E-15
 -1      1989 2.14872E-03 5.15532E-04-1.77554E-15
 -1      1990 2.62659E-03 5.67223E-04-2.67459E-15
 -1      1991 2.47526E-03 5.58915E-04-2.34600E-15
 -1      1992 2.44713E-03 5.30609E-04-2.36441E-15
 -1      1993 2.93298E-03 5.87569E-04-3.40141E-15
 -1      1994 2.77918E-03 5.76665E-04-3.02606E-15
 -1      1995 2.75006E-03 5.47530E-04-3.04319E-15
 -1      1996 3.24381E-03 6.16036E-04-4.22087E-15
 -1      1997 3.08793E-03 6.00618E-04-3.79930E-15
 -1      1998 3.05758E-03 5.70419E-04-3.81375E-15
 -1      1999 3.55770E-03 6.55871E-04-5.13137E-15
 -1      2000 3.40055E-03 6.34447E-04-4.66460E-15
 -1      2001 3.36913E-03 6.03070E-04-4.67648E-15
 -1      2002 3.87243E-03 7.08681E-04-6.13824E-15
 -1      2003 3.71522E-03 6.80721E-04-5.62315E-15
 -1      2004 3.68343E-03 6.48281E-04-5.63204E-15
 -1      2005 4.18500E-03 7.73063E-04-7.24154E-15
 -1      2006 4.02930E-03 7.39726E-04-6.67757E-15
 -1      2007 3.99835E-03 7.06685E-04-6.68291E-15
 -1      2008 4.49214E-03 8.43180E-04-8.44659E-15
 -1      2009 4.33955E-03 8.07984E-04-7.83084E-15
 -1      2010 4.31104E-03 7.75226E-04-7.83196E-15
 -1      2011 4.79120E-03 9.08181E-04-9.75848E-15
 -1      2012 4.64285E-03 8.77125E-04-9.08874E-15
 -1      2013 4.61839E-03 8.45850E-04-9.08491E-15
 -1      2014 5.08140E-03 9.53622E-04-1.11824E-14
 -1      2015 4.93732E-03 9.34178E-04-1.04565E-14
 -1      2016 4.91810E-03 9.05536E-04-1.04462E-14
 -1      2017 5.36482E-03 9.65413E-04-1.27218E-14
 -1      2018 5.22359E-03 9.64272E-04-1.19372E-14
 -1      2019 5.21011E-03 9.38832E-04-1.19215E-14
 -1      2020 5.64619E-03 9.35168E-04-1.43830E-14
 -1      2021 5.50522E-03 9.55565E-04-1.35367E-14
 -1      2022 5.49738E-03 9.32964E-04-1.35145E-14
 -1      2023 5.93119E-03 8.63863E-04-1.61676E-14
 -1      2024 5.78773E-03 9.04116E-04-1.52595E-14
 -1      2025 5.78510E-03 8.83221E-04-1.52315E-14
 -1      2026 6.22415E-03 7.61396E-04-1.80736E-14
 -1      2027 6.07639E-03 8.15665E-04-1.71057E-14
 -1      2028 6.07837E-03 7.95143E-04-1.70721E-14
 -1      2029 6.52663E-03 6.42407E-04-2.00994E-14
 -1      2030 6.37418E-03 7.03107E-04-1.90718E-14
 -1      2031 6.37996E-03 6.81970E-04-1.90329E-14
 -1      2032 6.83751E-03 5.21036E-04-2.22369E-14
 -1      2033 6.68120E-03 5.81387E-04-2.11546E-14
 -1      2034 6.68966E-03 5.59203E-04-2.11102E-14
 -1      2035 7.15404E-03 4.07452E-04-2.44872E-14
 -1      2036 6.99534E-03 4.62939E-04-2.33489E-14
 -1      2037 7.00514E-03 4.39713E-04-2.32994E-14
 -1      2038 7.47304E-03 3.06917E-04-2.68401E-14
 -1      2039 7.31350E-03 3.55475E-04-2.56496E-14
 -1      2040 7.32337E-03 3.31434E-04-2.55950E-14
 -1      2041 7.79178E-03 2.20638E-04-2.92975E-14
 -1      2042 7.63266E-03 2.62074E-04-2.80558E-14
 -1      2043 7.64161E-03 2.37496E-04-2.79952E-14
 -1      2044 8.10824E-03 1.47295E-04-3.18571E-14
 -1      2045 7.95044E-03 1.82499E-04-3.05653E-14
 -1      2046 7.95787E-03 1.57634E-04-3.04981E-14
 -1      2047 8.42122E-03 8.43968E-05-3.45116E-14
 -1      2048 8.26525E-03 1.14705E-04-3.31720E-14
 -1      2049 8.27094E-03 8.97462E-05-3.30992E-14
 -1      2050 8.73018E-03 2.92010E-05-3.72638E-14
 -1      2051 8.57624E-03 5.59840E-05-3.58763E-14
 -1      2052 8.58023E-03 3.10720E-05-3.57962E-14
 -1      2053 9.03506E-03-2.07750E-05-4.01033E-14
 -1      2054 8.88313E-03 3.67947E-06-3.86724E-14
 -1      2055 8.88562E-03-2.10952E-05-3.85855E-14
 -1      2056 9.33611E-03-6.75446E-05-4.30264E-14
 -1      2057 9.18604E-03-4.44721E-05-4.15539E-14
 -1      2058 9.18732E-03-6.90580E-05-4.14611E-14
 -1      2059 9.63378E-03-1.12619E-04-4.60330E-14
 -1      2060 9.48533E-03-9.02320E-05-4.45202E-14
 -1      2061 9.48569E-03-1.14607E-04-4.44194E-14
 -1      2062 9.92856E-03-1.57059E-04-4.91185E-14
 -1      2063 9.78149E-03-1.34878E-04-4.75659E-14
 -1      2064 9.78119E-03-1.59042E-04-4.74592E-14
 -1      2065 1.02210E-02-2.01563E-04-5.22854E-14
 -1      2066 1.00750E-02-1.79279E-04-5.06912E-14
 -1      2067 1.00743E-02-2.03245E-04-5.05780E-14
 -1      2068 1.05115E-02-2.46553E-04-5.55340E-14
 -1      2069 1.03664E-02-2.23985E-04-5.39002E-14
 -1      2070 1.03654E-02-2.47773E-04-5.37804E-14
 -1      2071 1.08006E-02-2.92251E-04-5.88548E-14
 -1      2072 1.06562E-02-2.69309E-04-5.71854E-14
 -1      2073 1.06550E-02-2.92944E-04-5.70590E-14
 -1      2074 1.10885E-02-3.38745E-04-6.22507E-14
 -1      2075 1.09447E-02-3.15399E-04-6.05440E-14
 -1      2076 1.09434E-02-3.38905E-04-6.04118E-14
 -1      2077 1.13757E-02-3.86032E-04-6.57081E-14
 -1      2078 1.12322E-02-3.62293E-04-6.39729E-14
 -1      2079 1.12310E-02-3.85694E-04-6.38323E-14
 -1      2080 1.16622E-02-4.34058E-04-6.92261E-14
 -1      2081 1.15190E-02-4.09958E-04-6.74581E-14
 -1      2082 1.15178E-02-4.33275E-04-6.73134E-14
 -1      2083 1.19484E-02-4.82742E-04-7.27988E-14
 -1      2084 1.18053E-02-4.58324E-04-7.10058E-14
 -1      2085 1.18042E-02-4.81576E-04-7.08525E-14
 -1      2086 1.22342E-02-5.31987E-04-7.64205E-14
 -1      2087 1.20913E-02-5.07300E-04-7.46041E-14
 -1      2088 1.20903E-02-5.30502E-04-7.44468E-14
 -1      2089 1.25200E-02-5.81698E-04-8.00822E-14
 -1      2090 1.23771E-02-5.56790E-04-7.82465E-14
 -1      2091 1.23761E-02-5.79955E-04-7.80869E-14
 -1      2092 1.28056E-02-6.31784E-04-8.37670E-14
 -1      2093 1.26628E-02-6.06699E-04-8.19213E-14
 -1      2094 1.26618E-02-6.29838E-04-8.17571E-14
 -1      2095 1.30912E-02-6.82160E-04-8.74668E-14
 -1      2096 1.29484E-02-6.56940E-04-8.56172E-14
 -1      2097 1.29475E-02-6.80062E-04-8.54500E-14
 -1      2098 1.33767E-02-7.32751E-04-9.11627E-14
 -1      2099 1.32339E-02-7.07433E-04-8.93170E-14
 -1      2100 1.32331E-02-7.30543E-04-8.91478E-14
 -1      2101 1.36623E-02-7.83490E-04-9.48570E-14
 -1      2102 1.35195E-02-7.58105E-04-9.30089E-14
 -1      2103 1.35187E-02-7.81210E-04-9.28429E-14
 -1      2104 1.39480E-02-8.34314E-04-9.85506E-14
 -1      2105 1.38051E-02-8.08894E-04-9.67039E-14
 -1      2106 1.38044E-02-8.31998E-04-9.65358E-14
 -1      2107 1.42336E-02-8.85171E-04-1.02241E-13
 -1      2108 1.40908E-02-8.59741E-04-1.00398E-13
 -1      2109 1.40900E-02-8.82847E-04-1.00230E-13
 -1      2110 1.44703E-02-9.29968E-04-1.05271E-13
 -1      2111 1.43274E-02-9.04549E-04-1.03432E-13
 -1      2112 1.43267E-02-9.27659E-04-1.03268E-13
 -1      2113 1.45144E-02-9.66411E-04-1.05651E-13
 -1      2114 1.46216E-02-1.19572E-03-1.05660E-13
 -1      2115 1.45967E-02-1.15353E-03-1.05584E-13
 -1      2116 1.45717E-02-1.11135E-03-1.05506E-13
 -1      2117 1.45468E-02-1.06918E-03-1.05431E-13
 -1      2118 1.44605E-02-1.11040E-03-1.03943E-13
 -1      2119 1.45430E-02-1.03887E-03-1.05578E-13
 -1      2120 1.45181E-02-9.96709E-04-1.05505E-13
 -1      2121 1.44243E-02-9.77331E-04-1.04312E-13
 -1      2122 1.44318E-02-1.03793E-03-1.04016E-13
 -1      2123 1.46708E-02-1.27868E-03-1.05804E-13
 -1      2124 1.46462E-02-1.23720E-03-1.05732E-13
 -1      2125 1.45100E-02-1.19404E-03-1.04085E-13
 -1      2126 1.47208E-02-1.36309E-03-1.05949E-13
 -1      2127 1.46958E-02-1.32088E-03-1.05877E-13
 -1      2128 1.45595E-02-1.27770E-03-1.04220E-13
 -1      2129 1.47710E-02-1.44751E-03-1.06089E-13
 -1      2130 1.47459E-02-1.40530E-03-1.06021E-13
 -1      2131 1.46096E-02-1.36208E-03-1.04356E-13
 -1      2132 1.48213E-02-1.53195E-03-1.06225E-13
 -1      2133 1.47961E-02-1.48973E-03-1.06156E-13
 -1      2134 1.46598E-02-1.44647E-03-1.04488E-13
 -1      2135 1.48717E-02-1.61638E-03-1.06353E-13
 -1      2136 1.48465E-02-1.57416E-03-1.06291E-13
 -1      2137 1.47102E-02-1.53086E-03-1.04615E-13
 -1      2138 1.49223E-02-1.70081E-03-1.06467E-13
 -1      2139 1.48970E-02-1.65859E-03-1.06411E-13
 -1      2140 1.47606E-02-1.61525E-03-1.04733E-13
 -1      2141 1.49721E-02-1.78380E-03-1.06571E-13
 -1      2142 1.49472E-02-1.74230E-03-1.06520E-13
 -1      2143 1.48108E-02-1.69893E-03-1.04838E-13
 -1      2144 1.50229E-02-1.86820E-03-1.06660E-13
 -1      2145 1.49975E-02-1.82600E-03-1.06617E-13
 -1      2146 1.48611E-02-1.78260E-03-1.04927E-13
 -1      2147 1.50738E-02-1.95258E-03-1.06740E-13
 -1      2148 1.50483E-02-1.91039E-03-1.06700E-13
 -1      2149 1.49119E-02-1.86697E-03-1.05005E-13
 -1      2150 1.51247E-02-2.03694E-03-1.06803E-13
 -1      2151 1.50992E-02-1.99476E-03-1.06773E-13
 -1      2152 1.49628E-02-1.95132E-03-1.05071E-13
 -1      2153 7.53850E-03-1.97280E-04-1.92314E-14
 -1      2154 7.68664E-03-2.49126E-04-1.94657E-14
 -1      2155 7.96229E-03-3.49985E-04-1.99476E-14
 -1      2156 7.97635E-03-3.64982E-04-1.99900E-14
 -1      2157 7.83179E-03-3.01676E-04-1.97317E-14
 -1      2158 7.91470E-03-3.26563E-04-1.98380E-14
 -1      2159 7.94905E-03-3.53110E-04-2.04795E-14
 -1      2160 7.14457E-03-1.85850E-05-1.84278E-14
 -1      2161 7.32628E-03-1.08305E-04-1.88343E-14
 -1      2162 6.75549E-03 1.83133E-04-1.75949E-14
 -1      2163 6.95386E-03 7.90298E-05-1.80068E-14
 -1      2164 7.02825E-03 4.57524E-06-1.85915E-14
 -1      2165 3.28086E-04-7.57195E-05-1.15861E-16
 -1      2166 3.31278E-04-8.84470E-05-1.11117E-16
 -1      2167 4.49599E-04-1.26938E-04-1.61804E-16
 -1      2168 4.40124E-04-9.31644E-05-1.74611E-16
 -1      2169 5.94141E-03 6.14063E-04-1.52777E-14
 -1      2170 6.09226E-03 5.41991E-04-1.58122E-14
 -1      2171 5.65073E-03 6.84959E-04-1.42939E-14
 -1      2172 5.79302E-03 6.59494E-04-1.47803E-14
 -1      2173 5.84521E-03 6.46792E-04-1.50695E-14
 -1      2174 5.31812E-03 6.54139E-04-1.32107E-14
 -1      2175 5.47389E-03 6.83950E-04-1.37161E-14
 -1      2176 4.93519E-03 5.01616E-04-1.22165E-14
 -1      2177 5.10829E-03 5.81938E-04-1.26322E-14
 -1      2178 4.57738E-03 3.18772E-04-1.14694E-14
 -1      2179 4.74671E-03 4.09028E-04-1.17993E-14
 -1      2180 4.21105E-03 1.27031E-04-1.08048E-14
 -1      2181 4.39142E-03 2.21751E-04-1.11248E-14
 -1      2182 3.79830E-03-4.76817E-05-1.03150E-14
 -1      2183 3.96903E-03 1.61019E-05-1.04646E-14
 -1      2184 3.55140E-03-1.35652E-04-1.00787E-14
 -1      2185 3.66461E-03-9.66157E-05-1.01953E-14
 -1      2186 3.73272E-03-8.87329E-05-9.98683E-15
 -1      2187 3.41200E-03-1.94085E-04-9.87444E-15
 -1      2188 3.45769E-03-1.74354E-04-9.94412E-15
 -1      2189 3.44466E-03-2.40960E-04-9.97462E-15
 -1      2190 3.40697E-03-2.20447E-04-9.91641E-15
 -1      2191 3.63911E-03-3.11947E-04-1.01661E-14
 -1      2192 3.52860E-03-2.73770E-04-1.00437E-14
 -1      2193 3.96107E-03-4.53602E-04-1.06065E-14
 -1      2194 3.79937E-03-3.81921E-04-1.03950E-14
 -1      2195 4.33938E-03-6.40826E-04-1.11177E-14
 -1      2196 4.15620E-03-5.45548E-04-1.08570E-14
 -1      2197 4.74533E-03-8.72672E-04-1.17995E-14
 -1      2198 4.55592E-03-7.60598E-04-1.14643E-14
 -1      2199 5.13882E-03-1.10189E-03-1.26291E-14
 -1      2200 4.95984E-03-9.97442E-04-1.22269E-14
 -1      2201 5.49630E-03-1.26551E-03-1.35578E-14
 -1      2202 5.32959E-03-1.19682E-03-1.31037E-14
 -1      2203 5.84277E-03-1.32198E-03-1.46429E-14
 -1      2204 5.70147E-03-1.31543E-03-1.41674E-14
 -1      2205 6.12570E-03-1.26218E-03-1.55707E-14
 -1      2206 5.98472E-03-1.30416E-03-1.51023E-14
 -1      2207 5.91048E-03-1.32677E-03-1.48925E-14
 -1      2208 6.48725E-03-1.09682E-03-1.66780E-14
 -1      2209 6.32977E-03-1.17929E-03-1.62241E-14
 -1      2210 6.81210E-03-9.15838E-04-1.75344E-14
 -1      2211 6.64809E-03-1.01132E-03-1.71041E-14
 -1      2212 6.54328E-03-1.05788E-03-1.71023E-14
 -1      2213 7.20775E-03-7.10397E-04-1.83617E-14
 -1      2214 7.04265E-03-7.94908E-04-1.80284E-14
 -1      2215 7.51679E-03-5.69584E-04-1.89291E-14
 -1      2216 7.36630E-03-6.36894E-04-1.86446E-14
 -1      2217 7.26912E-03-6.58625E-04-1.88285E-14
 -1      2218 7.79407E-03-4.49931E-04-1.95730E-14
 -1      2219 7.68108E-03-4.91592E-04-1.93684E-14
 -1      2220 7.94168E-03-3.93919E-04-1.98335E-14
 -1      2221 7.88101E-03-4.16995E-04-1.97017E-14
 -1      2222 7.83519E-03-4.24480E-04-2.01420E-14
 -1      2223 6.33122E-03 4.18627E-04-1.65345E-14
 -1      2224 6.52226E-03 3.10278E-04-1.70341E-14
 -1      2225 6.62656E-03 2.27739E-04-1.75923E-14
 -1      2226 6.16104E-04-2.76788E-04-1.61898E-16
 -1      2227 4.85595E-03 4.54014E-04-1.18533E-14
 -1      2228 6.18861E-03 4.83785E-04-1.62899E-14
 -1      2229 6.73069E-04-2.67616E-04-2.23278E-16
 -1      2230 7.77066E-03-3.00783E-04-2.00974E-14
 -1      2231 7.42120E-03-1.75824E-04-1.94227E-14
 -1      2232 1.51034E-02-2.06318E-03-1.06252E-13
 -1      2233 7.97054E-03-3.78987E-04-2.04323E-14
 -1      2234 7.59159E-03-5.13466E-04-1.95603E-14
 -1      2235 6.90194E-03-8.51568E-04-1.80353E-14
 -1      2236 6.21677E-03-1.23193E-03-1.60068E-14
 -1      2237 5.61270E-03-1.30261E-03-1.38202E-14
 -1      2238 5.25294E-03-1.14981E-03-1.27463E-14
 -1      2239 4.88029E-03-9.25825E-04-1.18560E-14
 -1      2240 4.47250E-03-6.80111E-04-1.10971E-14
 -1      2241 4.07527E-03-4.73220E-04-1.05149E-14
 -1      2242 3.72256E-03-3.22386E-04-1.00465E-14
 -1      2243 3.48167E-03-2.41716E-04-9.75765E-15
 -1      2244 3.50223E-03-1.62850E-04-9.73918E-15
 -1      2245 4.09081E-03 5.46764E-05-1.04307E-14
 -1      2246 4.19991E-03 1.00904E-04-1.03945E-14
 -1      2247 3.97628E-03-1.05207E-07-1.00667E-14
 -1      2248 4.50449E-03 2.63097E-04-1.11042E-14
 -1      2249 5.56335E-03 6.96483E-04-1.39899E-14
 -1      2250 5.22470E-03 6.28694E-04-1.28375E-14
 -1      2251 5.31299E-03 6.63428E-04-1.30422E-14
 -1      2252 5.13774E-03 5.93276E-04-1.24703E-14
 -1      2253 3.39868E-03-2.02171E-04-9.64948E-15
 -1      2254 1.03232E-03 3.64669E-04-3.79145E-16
 -1      2255 8.84773E-04 3.33335E-04-2.72514E-16
 -1      2256 5.39069E-04-4.51994E-05-2.63732E-16
 -1      2257 5.41512E-04-5.89838E-05-2.62323E-16
 -1      2258 5.44664E-04-7.36570E-05-2.60059E-16
 -1      2259 5.48491E-04-8.93414E-05-2.56888E-16
 -1      2260 6.56426E-04-7.86006E-05-3.54493E-16
 -1      2261 5.35868E-04 5.88273E-06-2.60480E-16
 -1      2262 5.35693E-04-6.64546E-06-2.62594E-16
 -1      2263 5.38090E-04 3.16544E-05-2.53961E-16
 -1      2264 5.36675E-04 1.86118E-05-2.57756E-16
 -1      2265 6.47673E-04 1.44046E-05-3.51539E-16
 -1      2266 5.42642E-04 5.90612E-05-2.43932E-16
 -1      2267 5.40086E-04 4.50333E-05-2.49543E-16
 -1      2268 6.51345E-04 4.52200E-05-3.42174E-16
 -1      2269 5.49695E-04 9.05602E-05-2.30000E-16
 -1      2270 5.45869E-04 7.42830E-05-2.37467E-16
 -1      2271 6.58084E-04 7.88499E-05-3.28107E-16
 -1      2272 5.59575E-04 1.27490E-04-2.10728E-16
 -1      2273 5.54264E-04 1.08260E-04-2.21272E-16
 -1      2274 6.68059E-04 1.17340E-04-3.08754E-16
 -1      2275 5.73566E-04 1.72274E-04-1.83664E-16
 -1      2276 5.65996E-04 1.48764E-04-1.98450E-16
 -1      2277 6.81832E-04 1.62402E-04-2.82191E-16
 -1      2278 1.32531E-03 4.11963E-04-6.52988E-16
 -1      2279 1.17897E-03 3.90755E-04-5.05563E-16
 -1      2280 1.08742E-03 3.43169E-04-4.76073E-16
 -1      2281 9.28687E-04-3.10788E-04-4.38018E-16
 -1      2282 1.07573E-03-3.38257E-04-5.79059E-16
 -1      2283 4.78129E-03 4.09943E-04-1.14702E-14
 -1      2284 4.94161E-03 4.99655E-04-1.18763E-14
 -1      2285 1.22227E-03-3.60758E-04-7.41513E-16
 -1      2286 1.36885E-03-3.78759E-04-9.25719E-16
 -1      2287 1.13161E-03-3.16218E-04-6.82681E-16
 -1      2288 1.51525E-03-3.93156E-04-1.13132E-15
 -1      2289 1.66188E-03-4.04308E-04-1.35875E-15
 -1      2290 1.42323E-03-3.51349E-04-1.05576E-15
 -1      2291 1.80872E-03-4.13005E-04-1.60845E-15
 -1      2292 1.95609E-03-4.19590E-04-1.87993E-15
 -1      2293 1.71498E-03-3.73273E-04-1.51475E-15
 -1      2294 2.10401E-03-4.24778E-04-2.17281E-15
 -1      2295 2.25278E-03-4.28960E-04-2.48838E-15
 -1      2296 2.00746E-03-3.86178E-04-2.06058E-15
 -1      2297 2.40241E-03-4.32857E-04-2.82565E-15
 -1      2298 2.55321E-03-4.36953E-04-3.18506E-15
 -1      2299 2.30151E-03-3.94183E-04-2.69342E-15
 -1      2300 2.70522E-03-4.42052E-04-3.56624E-15
 -1      2301 2.85875E-03-4.48800E-04-3.96856E-15
 -1      2302 2.59816E-03-4.01695E-04-3.41395E-15
 -1      2303 3.01396E-03-4.58125E-04-4.39297E-15
 -1      2304 3.17113E-03-4.70938E-04-4.83888E-15
 -1      2305 2.89882E-03-4.13846E-04-4.22047E-15
 -1      2306 3.33069E-03-4.88273E-04-5.30473E-15
 -1      2307 3.49277E-03-5.11424E-04-5.79341E-15
 -1      2308 3.20569E-03-4.36967E-04-5.11189E-15
 -1      2309 3.65826E-03-5.41393E-04-6.30339E-15
 -1      2310 3.82689E-03-5.79941E-04-6.83576E-15
 -1      2311 3.52229E-03-4.79042E-04-6.08834E-15
 -1      2312 4.00015E-03-6.27727E-04-7.38987E-15
 -1      2313 4.17687E-03-6.86719E-04-7.96673E-15
 -1      2314 3.85375E-03-5.50024E-04-7.15114E-15
 -1      2315 4.35899E-03-7.56675E-04-8.56655E-15
 -1      2316 4.54371E-03-8.38685E-04-9.19048E-15
 -1      2317 4.20583E-03-6.61294E-04-8.30312E-15
 -1      2318 4.73285E-03-9.30886E-04-9.83949E-15
 -1      2319 4.92155E-03-1.03034E-03-1.05128E-14
 -1      2320 4.58107E-03-8.22110E-04-9.54828E-15
 -1      2321 5.10995E-03-1.13269E-03-1.12133E-14
 -1      2322 5.29464E-03-1.22868E-03-1.19422E-14
 -1      2323 4.97135E-03-1.02730E-03-1.08923E-14
 -1      2324 5.47356E-03-1.31239E-03-1.27007E-14
 -1      2325 5.64954E-03-1.37075E-03-1.34888E-14
 -1      2326 5.35566E-03-1.23542E-03-1.23473E-14
 -1      2327 5.81932E-03-1.39951E-03-1.43093E-14
 -1      2328 5.99271E-03-1.39544E-03-1.51625E-14
 -1      2329 5.72018E-03-1.36532E-03-1.39242E-14
 -1      2330 6.16578E-03-1.35959E-03-1.60466E-14
 -1      2331 6.34637E-03-1.30225E-03-1.69618E-14
 -1      2332 6.07774E-03-1.35201E-03-1.56301E-14
 -1      2333 6.53150E-03-1.22895E-03-1.79081E-14
 -1      2334 6.71961E-03-1.15180E-03-1.88862E-14
 -1      2335 6.45254E-03-1.22011E-03-1.74631E-14
 -1      2336 6.91024E-03-1.07644E-03-1.98937E-14
 -1      2337 7.09836E-03-1.00865E-03-2.09303E-14
 -1      2338 6.84369E-03-1.05393E-03-1.94224E-14
 -1      2339 7.28515E-03-9.51577E-04-2.19947E-14
 -1      2340 7.46692E-03-9.05850E-04-2.30834E-14
 -1      2341 7.22921E-03-9.17588E-04-2.14982E-14
 -1      2342 7.64550E-03-8.72342E-04-2.41989E-14
 -1      2343 7.81908E-03-8.49369E-04-2.53396E-14
 -1      2344 7.59407E-03-8.31691E-04-2.36792E-14
 -1      2345 7.98934E-03-8.36656E-04-2.65057E-14
 -1      2346 8.15571E-03-8.32298E-04-2.76949E-14
 -1      2347 7.93654E-03-7.92454E-04-2.59615E-14
 -1      2348 8.31933E-03-8.35488E-04-2.89083E-14
 -1      2349 8.48021E-03-8.44741E-04-3.01460E-14
 -1      2350 8.26143E-03-7.88939E-04-2.83417E-14
 -1      2351 8.63896E-03-8.59123E-04-3.14084E-14
 -1      2352 8.79581E-03-8.77619E-04-3.26955E-14
 -1      2353 8.57445E-03-8.10721E-04-3.08166E-14
 -1      2354 8.95100E-03-8.99392E-04-3.40040E-14
 -1      2355 9.10485E-03-9.23775E-04-3.53377E-14
 -1      2356 8.87988E-03-8.49513E-04-3.33878E-14
 -1      2357 9.25738E-03-9.50117E-04-3.66955E-14
 -1      2358 9.40890E-03-9.77984E-04-3.80784E-14
 -1      2359 9.18041E-03-8.99162E-04-3.60536E-14
 -1      2360 9.55935E-03-1.00692E-03-3.94850E-14
 -1      2361 9.70901E-03-1.03663E-03-4.09142E-14
 -1      2362 9.47761E-03-9.55276E-04-3.88175E-14
 -1      2363 9.85781E-03-1.06683E-03-4.23656E-14
 -1      2364 1.00060E-02-1.09733E-03-4.38381E-14
 -1      2365 9.77235E-03-1.01484E-03-4.16746E-14
 -1      2366 1.01534E-02-1.12795E-03-4.53290E-14
 -1      2367 1.03004E-02-1.15857E-03-4.68428E-14
 -1      2368 1.00652E-02-1.07585E-03-4.46142E-14
 -1      2369 1.04467E-02-1.18909E-03-4.83758E-14
 -1      2370 1.05927E-02-1.21945E-03-4.99288E-14
 -1      2371 1.03565E-02-1.13707E-03-4.76356E-14
 -1      2372 1.07382E-02-1.24958E-03-5.15025E-14
 -1      2373 1.08833E-02-1.27946E-03-5.30925E-14
 -1      2374 1.06465E-02-1.19773E-03-5.07381E-14
 -1      2375 1.10281E-02-1.30908E-03-5.47054E-14
 -1      2376 1.11727E-02-1.33840E-03-5.63369E-14
 -1      2377 1.09355E-02-1.25746E-03-5.39185E-14
 -1      2378 1.13169E-02-1.36744E-03-5.79850E-14
 -1      2379 1.14610E-02-1.39619E-03-5.96511E-14
 -1      2380 1.12237E-02-1.31607E-03-5.71750E-14
 -1      2381 1.16048E-02-1.42466E-03-6.13340E-14
 -1      2382 1.17485E-02-1.45287E-03-6.30313E-14
 -1      2383 1.15112E-02-1.37353E-03-6.05050E-14
 -1      2384 1.18921E-02-1.48082E-03-6.47403E-14
 -1      2385 1.20355E-02-1.50853E-03-6.64655E-14
 -1      2386 1.17982E-02-1.42992E-03-6.38963E-14
 -1      2387 1.21788E-02-1.53603E-03-6.82027E-14
 -1      2388 1.23220E-02-1.56331E-03-6.99483E-14
 -1      2389 1.20848E-02-1.48532E-03-6.73433E-14
 -1      2390 1.24652E-02-1.59041E-03-7.17085E-14
 -1      2391 1.26082E-02-1.61733E-03-7.34807E-14
 -1      2392 1.23711E-02-1.53987E-03-7.08392E-14
 -1      2393 1.27513E-02-1.64410E-03-7.52621E-14
 -1      2394 1.28943E-02-1.67072E-03-7.70563E-14
 -1      2395 1.26572E-02-1.59370E-03-7.43800E-14
 -1      2396 1.30372E-02-1.69721E-03-7.88634E-14
 -1      2397 1.31801E-02-1.72359E-03-8.06811E-14
 -1      2398 1.29432E-02-1.64693E-03-7.79666E-14
 -1      2399 1.33230E-02-1.74987E-03-8.25106E-14
 -1      2400 1.34659E-02-1.77606E-03-8.43523E-14
 -1      2401 1.32290E-02-1.69968E-03-8.16012E-14
 -1      2402 1.36088E-02-1.80217E-03-8.62042E-14
 -1      2403 1.37516E-02-1.82821E-03-8.80697E-14
 -1      2404 1.35148E-02-1.75205E-03-8.52787E-14
 -1      2405 1.38945E-02-1.85420E-03-8.99463E-14
 -1      2406 1.40373E-02-1.88014E-03-9.18277E-14
 -1      2407 1.38005E-02-1.80413E-03-8.90018E-14
 -1      2408 1.41801E-02-1.90604E-03-9.37192E-14
 -1      2409 1.43230E-02-1.93191E-03-9.56219E-14
 -1      2410 1.40862E-02-1.85600E-03-9.27671E-14
 -1      2411 1.44658E-02-1.95776E-03-9.75337E-14
 -1      2412 1.46087E-02-1.98358E-03-9.94547E-14
 -1      2413 1.43719E-02-1.90773E-03-9.65644E-14
 -1      2414 1.91052E-03 4.65143E-04-1.45344E-15
 -1      2415 1.76376E-03 4.55453E-04-1.22127E-15
 -1      2416 2.20597E-03 4.80894E-04-1.98292E-15
 -1      2417 2.05788E-03 4.73502E-04-1.70759E-15
 -1      2418 1.96621E-03 4.31869E-04-1.63677E-15
 -1      2419 2.50487E-03 4.95186E-04-2.59998E-15
 -1      2420 2.35496E-03 4.87991E-04-2.28031E-15
 -1      2421 2.26196E-03 4.46027E-04-2.19436E-15
 -1      2422 2.80790E-03 5.12211E-04-3.30676E-15
 -1      2423 2.65587E-03 5.03122E-04-2.94200E-15
 -1      2424 2.56093E-03 4.59577E-04-2.83897E-15
 -1      2425 3.11539E-03 5.36103E-04-4.10468E-15
 -1      2426 2.96114E-03 5.23068E-04-3.69370E-15
 -1      2427 2.86399E-03 4.76677E-04-3.57281E-15
 -1      2428 3.42719E-03 5.70635E-04-4.99312E-15
 -1      2429 3.27088E-03 5.51846E-04-4.53764E-15
 -1      2430 3.17181E-03 5.01463E-04-4.39709E-15
 -1      2431 3.74248E-03 6.18466E-04-5.97523E-15
 -1      2432 3.58462E-03 5.92796E-04-5.47232E-15
 -1      2433 3.48470E-03 5.37710E-04-5.31262E-15
 -1      2434 4.05949E-03 6.79871E-04-7.05280E-15
 -1      2435 3.90106E-03 6.47580E-04-6.50210E-15
 -1      2436 3.80222E-03 5.88031E-04-6.32044E-15
 -1      2437 4.37545E-03 7.51065E-04-8.22862E-15
 -1      2438 4.21793E-03 7.14674E-04-7.62738E-15
 -1      2439 4.12280E-03 6.52467E-04-7.42395E-15
 -1      2440 4.68697E-03 8.22765E-04-9.50902E-15
 -1      2441 4.53202E-03 7.87654E-04-8.85586E-15
 -1      2442 4.44331E-03 7.26539E-04-8.62643E-15
 -1      2443 4.99138E-03 8.80398E-04-1.08985E-14
 -1      2444 4.84008E-03 8.54401E-04-1.01898E-14
 -1      2445 4.75966E-03 7.99562E-04-9.93407E-15
 -1      2446 5.28855E-03 9.07320E-04-1.24039E-14
 -1      2447 5.14053E-03 8.98670E-04-1.16365E-14
 -1      2448 5.06857E-03 8.54982E-04-1.13518E-14
 -1      2449 5.58187E-03 8.91018E-04-1.40289E-14
 -1      2450 5.43506E-03 9.05004E-04-1.32010E-14
 -1      2451 5.37012E-03 8.74646E-04-1.28878E-14
 -1      2452 5.87702E-03 8.29024E-04-1.57790E-14
 -1      2453 5.72860E-03 8.65401E-04-1.48877E-14
 -1      2454 5.66879E-03 8.46547E-04-1.45453E-14
 -1      2455 6.17877E-03 7.30175E-04-1.76524E-14
 -1      2456 6.02676E-03 7.83290E-04-1.67015E-14
 -1      2457 5.97112E-03 7.71255E-04-1.63291E-14
 -1      2458 6.48852E-03 6.10284E-04-1.96445E-14
 -1      2459 6.33268E-03 6.71800E-04-1.86335E-14
 -1      2460 6.28127E-03 6.61590E-04-1.82350E-14
 -1      2461 6.80456E-03 4.85497E-04-2.17506E-14
 -1      2462 6.64602E-03 5.47643E-04-2.06842E-14
 -1      2463 6.59901E-03 5.35852E-04-2.02582E-14
 -1      2464 7.12367E-03 3.67736E-04-2.39698E-14
 -1      2465 6.96407E-03 4.25231E-04-2.28462E-14
 -1      2466 6.92099E-03 4.10361E-04-2.23953E-14
 -1      2467 7.44272E-03 2.63324E-04-2.62916E-14
 -1      2468 7.28348E-03 3.13681E-04-2.51168E-14
 -1      2469 7.24314E-03 2.95570E-04-2.46401E-14
 -1      2470 7.75957E-03 1.73910E-04-2.87175E-14
 -1      2471 7.60161E-03 2.16766E-04-2.74915E-14
 -1      2472 7.56248E-03 1.95870E-04-2.69895E-14
 -1      2473 8.07300E-03 9.82925E-05-3.12458E-14
 -1      2474 7.91681E-03 1.34505E-04-2.99701E-14
 -1      2475 7.87756E-03 1.11429E-04-2.94419E-14
 -1      2476 8.38257E-03 3.39227E-05-3.38680E-14
 -1      2477 8.22831E-03 6.48654E-05-3.25453E-14
 -1      2478 8.18799E-03 4.02057E-05-3.19931E-14
 -1      2479 8.68824E-03-2.20784E-05-3.65873E-14
 -1      2480 8.53589E-03 5.03490E-06-3.52154E-14
 -1      2481 8.49401E-03-2.06882E-05-3.46390E-14
 -1      2482 8.99027E-03-7.23516E-05-3.93967E-14
 -1      2483 8.83969E-03-4.77956E-05-3.79808E-14
 -1      2484 8.79611E-03-7.41571E-05-3.73779E-14
 -1      2485 9.28906E-03-1.19060E-04-4.22899E-14
 -1      2486 9.14004E-03-9.60450E-05-4.08331E-14
 -1      2487 9.09487E-03-1.22715E-04-4.02070E-14
 -1      2488 9.58503E-03-1.63844E-04-4.52672E-14
 -1      2489 9.43736E-03-1.41614E-04-4.37677E-14
 -1      2490 9.39083E-03-1.68351E-04-4.31209E-14
 -1      2491 9.87864E-03-2.07865E-04-4.83232E-14
 -1      2492 9.73209E-03-1.85895E-04-4.67851E-14
 -1      2493 9.68448E-03-2.12534E-04-4.61132E-14
 -1      2494 1.01703E-02-2.51895E-04-5.14605E-14
 -1      2495 1.00247E-02-2.29843E-04-4.98820E-14
 -1      2496 9.97625E-03-2.56282E-04-4.91880E-14
 -1      2497 1.04604E-02-2.96407E-04-5.46786E-14
 -1      2498 1.03155E-02-2.74069E-04-5.30593E-14
 -1      2499 1.02665E-02-3.00254E-04-5.23420E-14
 -1      2500 1.07493E-02-3.41656E-04-5.79741E-14
 -1      2501 1.06050E-02-3.18927E-04-5.63183E-14
 -1      2502 1.05556E-02-3.44839E-04-5.55762E-14
 -1      2503 1.10372E-02-3.87746E-04-6.13389E-14
 -1      2504 1.08933E-02-3.64590E-04-5.96467E-14
 -1      2505 1.08437E-02-3.90234E-04-5.88863E-14
 -1      2506 1.13244E-02-4.34684E-04-6.47723E-14
 -1      2507 1.11809E-02-4.11108E-04-6.30482E-14
 -1      2508 1.11311E-02-4.36504E-04-6.22658E-14
 -1      2509 1.16111E-02-4.82419E-04-6.82617E-14
 -1      2510 1.14678E-02-4.58454E-04-6.65090E-14
 -1      2511 1.14180E-02-4.83629E-04-6.57086E-14
 -1      2512 1.18974E-02-5.30863E-04-7.18152E-14
 -1      2513 1.17543E-02-5.06556E-04-7.00322E-14
 -1      2514 1.17045E-02-5.31541E-04-6.92127E-14
 -1      2515 1.21834E-02-5.79918E-04-7.54191E-14
 -1      2516 1.20404E-02-5.55319E-04-7.36106E-14
 -1      2517 1.19907E-02-5.80146E-04-7.27777E-14
 -1      2518 1.24693E-02-6.29482E-04-7.90668E-14
 -1      2519 1.23264E-02-6.04642E-04-7.72390E-14
 -1      2520 1.22766E-02-6.29340E-04-7.63906E-14
 -1      2521 1.27550E-02-6.79458E-04-8.27403E-14
 -1      2522 1.26122E-02-6.54423E-04-8.08998E-14
 -1      2523 1.25625E-02-6.79020E-04-8.00438E-14
 -1      2524 1.30407E-02-7.29754E-04-8.64330E-14
 -1      2525 1.28979E-02-7.04570E-04-8.45855E-14
 -1      2526 1.28483E-02-7.29089E-04-8.37217E-14
 -1      2527 1.33264E-02-7.80293E-04-9.01299E-14
 -1      2528 1.31836E-02-7.54997E-04-8.82820E-14
 -1      2529 1.31340E-02-7.79460E-04-8.74141E-14
 -1      2530 1.36120E-02-8.31001E-04-9.38235E-14
 -1      2531 1.34692E-02-8.05629E-04-9.19766E-14
 -1      2532 1.34197E-02-8.30054E-04-9.11090E-14
 -1      2533 1.38977E-02-8.81815E-04-9.75187E-14
 -1      2534 1.37549E-02-8.56398E-04-9.56713E-14
 -1      2535 1.37054E-02-8.80802E-04-9.48039E-14
 -1      2536 1.41834E-02-9.32679E-04-1.01212E-13
 -1      2537 1.40405E-02-9.07244E-04-9.93652E-14
 -1      2538 1.39910E-02-9.31641E-04-9.85004E-14
 -1      2539 1.43304E-02-9.57950E-04-1.03119E-13
 -1      2540 1.44483E-02-1.27670E-03-1.02637E-13
 -1      2541 1.44233E-02-1.23452E-03-1.02572E-13
 -1      2542 1.44984E-02-1.36105E-03-1.02763E-13
 -1      2543 1.44733E-02-1.31887E-03-1.02698E-13
 -1      2544 1.43371E-02-1.27568E-03-1.01049E-13
 -1      2545 1.43492E-02-1.10944E-03-1.02374E-13
 -1      2546 1.43243E-02-1.06728E-03-1.02302E-13
 -1      2547 1.43985E-02-1.19271E-03-1.02507E-13
 -1      2548 1.43740E-02-1.15125E-03-1.02442E-13
 -1      2549 1.42378E-02-1.10811E-03-1.00798E-13
 -1      2550 1.42873E-02-1.19172E-03-1.00927E-13
 -1      2551 1.45487E-02-1.44540E-03-1.02885E-13
 -1      2552 1.45235E-02-1.40322E-03-1.02826E-13
 -1      2553 1.43872E-02-1.36000E-03-1.01168E-13
 -1      2554 1.45990E-02-1.52975E-03-1.03005E-13
 -1      2555 1.45738E-02-1.48758E-03-1.02946E-13
 -1      2556 1.44375E-02-1.44431E-03-1.01285E-13
 -1      2557 1.46495E-02-1.61411E-03-1.03113E-13
 -1      2558 1.46243E-02-1.57193E-03-1.03061E-13
 -1      2559 1.44879E-02-1.52863E-03-1.01392E-13
 -1      2560 1.46993E-02-1.69703E-03-1.03203E-13
 -1      2561 1.46744E-02-1.65557E-03-1.03160E-13
 -1      2562 1.45380E-02-1.61223E-03-1.01487E-13
 -1      2563 1.47500E-02-1.78138E-03-1.03281E-13
 -1      2564 1.47246E-02-1.73921E-03-1.03244E-13
 -1      2565 1.45882E-02-1.69584E-03-1.01567E-13
 -1      2566 1.48009E-02-1.86573E-03-1.03347E-13
 -1      2567 1.47754E-02-1.82356E-03-1.03315E-13
 -1      2568 1.46390E-02-1.78016E-03-1.01634E-13
 -1      2569 1.48518E-02-1.95006E-03-1.03402E-13
 -1      2570 1.48263E-02-1.90790E-03-1.03374E-13
 -1      2571 1.46899E-02-1.86448E-03-1.01690E-13
 -1      2572 7.32180E-03-1.56015E-04-1.97368E-14
 -1      2573 7.51659E-03-2.33091E-04-2.01467E-14
 -1      2574 1.49744E-02-2.03837E-03-1.04504E-13
 -1      2575 7.99467E-03-3.79483E-04-2.11256E-14
 -1      2576 7.95759E-03-3.89264E-04-2.09658E-14
 -1      2577 1.61745E-03 4.43683E-04-1.01083E-15
 -1      2578 1.47135E-03 4.29489E-04-8.21297E-16
 -1      2579 1.67265E-03 4.12954E-04-1.16518E-15
 -1      2580 7.93112E-03-3.56375E-04-2.09476E-14
 -1      2581 7.97657E-03-3.65435E-04-2.10590E-14
 -1      2582 6.93096E-03 3.68171E-05-1.87490E-14
 -1      2583 7.10267E-03-5.30276E-05-1.91818E-14
 -1      2584 7.65105E-03-4.85340E-04-2.02595E-14
 -1      2585 7.49155E-03-5.46053E-04-1.98074E-14
 -1      2586 5.68418E-03-1.32877E-03-1.39991E-14
 -1      2587 5.52038E-03-1.27759E-03-1.33969E-14
 -1      2588 5.36163E-04-1.92292E-05-2.63786E-16
 -1      2589 5.37279E-04-3.19893E-05-2.64247E-16
 -1      2590 6.50074E-04-4.58759E-05-3.57895E-16
 -1      2591 6.47191E-04-1.54805E-05-3.56906E-16
 -1      2592 5.77153E-03 6.73441E-04-1.48587E-14
 -1      2593 5.88802E-03 6.30079E-04-1.53593E-14
 -1      2594 3.39160E-03-2.02636E-04-9.36652E-15
 -1      2595 3.39313E-03-1.93277E-04-9.32511E-15
 -1      2596 6.08055E-03 5.38393E-04-1.61122E-14
 -1      2597 6.28184E-03 4.18776E-04-1.68464E-14
 -1      2598 5.48392E-03 7.00214E-04-1.36599E-14
 -1      2599 5.62310E-03 7.00708E-04-1.42366E-14
 -1      2600 4.43254E-03 2.18748E-04-1.07241E-14
 -1      2601 4.59802E-03 3.09421E-04-1.10569E-14
 -1      2602 3.65776E-03-1.17328E-04-9.63003E-15
 -1      2603 3.77751E-03-7.76728E-05-9.74151E-15
 -1      2604 3.45004E-03-1.74337E-04-9.37122E-15
 -1      2605 3.54017E-03-1.53505E-04-9.50025E-15
 -1      2606 3.57249E-03-1.35991E-04-9.25988E-15
 -1      2607 3.51036E-03-2.34699E-04-9.45278E-15
 -1      2608 3.43305E-03-2.17461E-04-9.38940E-15
 -1      2609 3.81309E-03-3.34983E-04-9.86804E-15
 -1      2610 3.65884E-03-2.81191E-04-9.64928E-15
 -1      2611 4.16942E-03-4.91157E-04-1.03327E-14
 -1      2612 3.99150E-03-4.08935E-04-1.00959E-14
 -1      2613 4.58402E-03-7.19896E-04-1.10033E-14
 -1      2614 4.39075E-03-6.07122E-04-1.06718E-14
 -1      2615 4.98886E-03-9.78499E-04-1.18857E-14
 -1      2616 4.80315E-03-8.56627E-04-1.14709E-14
 -1      2617 5.34729E-03-1.19715E-03-1.28369E-14
 -1      2618 5.19106E-03-1.10322E-03-1.23721E-14
 -1      2619 5.97827E-03-1.32541E-03-1.51858E-14
 -1      2620 5.86766E-03-1.34229E-03-1.47240E-14
 -1      2621 6.29620E-03-1.20093E-03-1.64440E-14
 -1      2622 6.12865E-03-1.27969E-03-1.57819E-14
 -1      2623 6.62386E-03-1.01510E-03-1.76526E-14
 -1      2624 6.49355E-03-1.09615E-03-1.72137E-14
 -1      2625 7.00188E-03-7.88764E-04-1.86701E-14
 -1      2626 6.80561E-03-9.04596E-04-1.81587E-14
 -1      2627 6.74866E-03-9.56090E-04-1.82720E-14
 -1      2628 7.36158E-03-6.03885E-04-1.95076E-14
 -1      2629 7.22272E-03-6.71409E-04-1.92118E-14
 -1      2630 7.45220E-03-5.71326E-04-2.01983E-14
 -1      2631 7.70291E-03-2.96980E-04-2.05122E-14
 -1      2632 7.83724E-03-3.32650E-04-2.07870E-14
 -1      2633 7.90595E-03-4.04457E-04-2.08267E-14
 -1      2634 7.83117E-03-4.24441E-04-2.06909E-14
 -1      2635 7.96193E-03-3.98627E-04-2.15208E-14
 -1      2636 5.96136E-04-2.15014E-04-2.07896E-16
 -1      2637 7.92157E-04-2.74467E-04-3.32715E-16
 -1      2638 8.50759E-04-2.60320E-04-4.10465E-16
 -1      2639 5.85140E-04-1.87003E-04-2.22898E-16
 -1      2640 7.68376E-04 3.08340E-04-1.96769E-16
 -1      2641 6.19473E-04 2.64143E-04-1.25632E-16
 -1      2642 5.92299E-04 2.37538E-04-1.33872E-16
 -1      2643 8.24757E-04 2.93921E-04-2.67839E-16
 -1      2644 6.52392E-03 2.71744E-04-1.77088E-14
 -1      2645 6.72245E-03 1.50452E-04-1.82873E-14
 -1      2646 5.99460E-03 5.82026E-04-1.58889E-14
 -1      2647 6.66365E-04-1.15558E-04-3.45888E-16
 -1      2648 5.53115E-04-1.06353E-04-2.52185E-16
 -1      2649 5.58514E-04-1.24889E-04-2.45721E-16
 -1      2650 1.38011E-03 3.84977E-04-7.78959E-16
 -1      2651 5.79011E-04 2.06813E-04-1.55380E-16
 -1      2652 6.40471E-03 3.45352E-04-1.75172E-14
 -1      2653 6.07400E-03-1.30898E-03-1.56049E-14
 -1      2654 5.43852E-03-1.24407E-03-1.30052E-14
 -1      2655 5.09395E-03-1.04156E-03-1.19705E-14
 -1      2656 5.04279E-03 5.57079E-04-1.20688E-14
 -1      2657 4.69313E-03-7.82563E-04-1.10295E-14
 -1      2658 4.27447E-03-5.39195E-04-1.02416E-14
 -1      2659 3.89353E-03-3.60159E-04-9.69050E-15
 -1      2660 1.42810E-02-9.82355E-04-1.02257E-13
 -1      2661 1.42847E-02-1.01265E-03-1.02107E-13
 -1      2662 3.40108E-03-1.80749E-04-9.08964E-15
 -1      2663 7.62158E-03-2.74321E-04-2.08313E-14
 -1      2664 7.23126E-03-1.18269E-04-1.98956E-14
 -1      2665 1.48347E-02-2.02668E-03-1.02489E-13
 -1      2666 1.48486E-02-1.98182E-03-1.03086E-13
 -1      2667 1.47121E-02-1.93839E-03-1.01396E-13
 -1      2668 1.47057E-02-2.00187E-03-1.00758E-13
 -1      2669 3.39322E-03-2.01973E-04-9.06618E-15
 -1      2670 8.00573E-03-3.79240E-04-2.15968E-14
 -1      2671 6.97153E-04 2.25676E-04-2.32656E-16
 -1      2672 7.89142E-03-3.50664E-04-2.13671E-14
 -1      2673 4.29917E-03 1.52693E-04-1.03474E-14
 -1      2674 4.37853E-03 2.07122E-04-1.02973E-14
 -1      2675 4.16964E-03 9.81913E-05-9.98000E-15
 -1      2676 5.66862E-04-1.42681E-04-2.40910E-16
 -1      2677 5.74336E-04-1.65157E-04-2.31003E-16
 -1      2678 7.03796E-04-2.00011E-04-3.19189E-16
 -1      2679 6.82066E-04-1.55741E-04-3.34151E-16
 -1      2680 7.12483E-03-7.33513E-04-1.93381E-14
 -1      2681 6.40051E-03-1.16323E-03-1.69755E-14
 -1      2682 5.39174E-03 6.90732E-04-1.32743E-14
 -1      2683 5.45490E-03 7.06505E-04-1.35084E-14
 -1      2684 5.30457E-03 6.71630E-04-1.28967E-14
 -1      2685 5.76555E-03-1.34504E-03-1.42787E-14
 -1      2686 7.76254E-03-4.51761E-04-2.09395E-14
 -1      2687 7.69482E-03-4.86920E-04-2.11862E-14
 -1      2688 7.85785E-03-4.36473E-04-2.16294E-14
 -1      2689 6.82170E-03 9.33724E-05-1.88661E-14
 -1      2690 4.68690E-03 3.66531E-04-1.10760E-14
 -1      2691 3.87222E-03-3.94985E-05-9.70358E-15
 -1      2692 3.96235E-03 4.97205E-06-9.66337E-15
 -1      2693 3.77525E-03-6.37657E-05-9.34708E-15
 -1      2694 5.68267E-03 6.95164E-04-1.45115E-14
 -1      2695 3.57095E-03-2.48107E-04-9.27772E-15
 -1      2696 1.41735E-02-1.01169E-03-1.00540E-13
 -1      2697 1.46119E-02-1.95185E-03-9.97764E-14
 -1      2698 7.66701E-04 6.09245E-05-4.43683E-16
 -1      2699 7.63470E-04 4.27622E-05-4.51028E-16
 -1      2700 7.61123E-04 2.49355E-05-4.56937E-16
 -1      2701 7.59787E-04 7.58663E-06-4.61491E-16
 -1      2702 8.76183E-04 3.74047E-05-5.75969E-16
 -1      2703 7.89506E-04 1.45947E-04-3.98946E-16
 -1      2704 7.82323E-04 1.22508E-04-4.12864E-16
 -1      2705 8.07658E-04 1.98693E-04-3.64156E-16
 -1      2706 7.97961E-04 1.71270E-04-3.83062E-16
 -1      2707 9.13868E-04 1.75985E-04-5.00508E-16
 -1      2708 1.14413E-03 3.21110E-04-5.78625E-16
 -1      2709 9.98224E-04 2.97007E-04-4.43466E-16
 -1      2710 7.86530E-03-3.47632E-04-2.18684E-14
 -1      2711 7.95292E-03-3.66251E-04-2.20339E-14
 -1      2712 8.11826E-04 2.48579E-04-3.12074E-16
 -1      2713 8.35488E-04-2.32514E-04-4.23354E-16
 -1      2714 9.68909E-04-2.62614E-04-5.43687E-16
 -1      2715 8.22103E-04-2.06750E-04-4.33816E-16
 -1      2716 1.33282E-03-3.10635E-04-9.79536E-16
 -1      2717 1.47766E-03-3.23972E-04-1.18945E-15
 -1      2718 1.62241E-03-3.34514E-04-1.42058E-15
 -1      2719 1.76726E-03-3.42563E-04-1.67363E-15
 -1      2720 1.53161E-03-2.96746E-04-1.32659E-15
 -1      2721 1.91207E-03-3.48756E-04-1.94830E-15
 -1      2722 2.05704E-03-3.53399E-04-2.24377E-15
 -1      2723 1.81842E-03-3.12373E-04-1.83532E-15
 -1      2724 2.20209E-03-3.57135E-04-2.56132E-15
 -1      2725 2.34746E-03-3.60319E-04-2.90089E-15
 -1      2726 2.10473E-03-3.21450E-04-2.42966E-15
 -1      2727 2.49310E-03-3.63626E-04-3.26181E-15
 -1      2728 2.63933E-03-3.67517E-04-3.64433E-15
 -1      2729 2.39066E-03-3.27521E-04-3.10987E-15
 -1      2730 2.78619E-03-3.72715E-04-4.04787E-15
 -1      2731 2.93411E-03-3.79889E-04-4.47292E-15
 -1      2732 2.67683E-03-3.34475E-04-3.87601E-15
 -1      2733 3.08335E-03-3.89793E-04-4.91892E-15
 -1      2734 3.23449E-03-4.03476E-04-5.38581E-15
 -1      2735 2.96478E-03-3.46818E-04-4.72654E-15
 -1      2736 3.38816E-03-4.21648E-04-5.87383E-15
 -1      2737 3.54511E-03-4.46033E-04-6.38378E-15
 -1      2738 3.25766E-03-3.70106E-04-5.66081E-15
 -1      2739 3.70657E-03-4.77150E-04-6.91432E-15
 -1      2740 3.87314E-03-5.17815E-04-7.46672E-15
 -1      2741 3.56128E-03-4.11725E-04-6.67851E-15
 -1      2742 4.04696E-03-5.68089E-04-8.04202E-15
 -1      2743 4.22734E-03-6.31984E-04-8.63903E-15
 -1      2744 3.88518E-03-4.82505E-04-7.78228E-15
 -1      2745 4.41707E-03-7.08806E-04-9.25865E-15
 -1      2746 4.61234E-03-8.01585E-04-9.90325E-15
 -1      2747 4.24134E-03-5.99055E-04-8.97317E-15
 -1      2748 4.83004E-03-9.22884E-04-1.05692E-14
 -1      2749 5.03171E-03-1.03661E-03-1.12661E-14
 -1      2750 6.40371E-03-1.19183E-03-1.71436E-14
 -1      2751 6.60867E-03-1.09685E-03-1.80987E-14
 -1      2752 7.18000E-03-8.79447E-04-2.10017E-14
 -1      2753 7.36846E-03-8.25844E-04-2.20683E-14
 -1      2754 7.55045E-03-7.88008E-04-2.31591E-14
 -1      2755 7.72378E-03-7.61654E-04-2.42748E-14
 -1      2756 7.51446E-03-7.40864E-04-2.26398E-14
 -1      2757 7.89114E-03-7.47056E-04-2.54179E-14
 -1      2758 8.05273E-03-7.40829E-04-2.65845E-14
 -1      2759 7.85312E-03-6.99658E-04-2.48745E-14
 -1      2760 8.21016E-03-7.42691E-04-2.77740E-14
 -1      2761 8.36420E-03-7.50423E-04-2.89866E-14
 -1      2762 8.16543E-03-6.96145E-04-2.72071E-14
 -1      2763 8.51573E-03-7.63489E-04-3.02241E-14
 -1      2764 8.66545E-03-7.80605E-04-3.14855E-14
 -1      2765 8.46266E-03-7.17127E-04-2.96331E-14
 -1      2766 8.81374E-03-8.01155E-04-3.27719E-14
 -1      2767 8.96111E-03-8.24390E-04-3.40809E-14
 -1      2768 8.75241E-03-7.54216E-04-3.21552E-14
 -1      2769 9.10766E-03-8.49744E-04-3.54134E-14
 -1      2770 9.25375E-03-8.76771E-04-3.67696E-14
 -1      2771 9.03896E-03-8.01879E-04-3.47747E-14
 -1      2772 9.39935E-03-9.05013E-04-3.81522E-14
 -1      2773 9.54471E-03-9.34200E-04-3.95575E-14
 -1      2774 9.32447E-03-8.56206E-04-3.74885E-14
 -1      2775 9.68972E-03-9.63994E-04-4.09845E-14
 -1      2776 9.83459E-03-9.94229E-04-4.24335E-14
 -1      2777 9.60986E-03-9.14405E-04-4.02963E-14
 -1      2778 9.97920E-03-1.02467E-03-4.39024E-14
 -1      2779 1.01237E-02-1.05523E-03-4.53906E-14
 -1      2780 9.89545E-03-9.74521E-04-4.31906E-14
 -1      2781 1.02680E-02-1.08575E-03-4.68982E-14
 -1      2782 1.04122E-02-1.11617E-03-4.84274E-14
 -1      2783 1.01813E-02-1.03524E-03-4.61649E-14
 -1      2784 1.05562E-02-1.14641E-03-4.99777E-14
 -1      2785 1.07001E-02-1.17644E-03-5.15451E-14
 -1      2786 1.04673E-02-1.09571E-03-4.92188E-14
 -1      2787 1.08439E-02-1.20622E-03-5.31348E-14
 -1      2788 1.09876E-02-1.23574E-03-5.47429E-14
 -1      2789 1.07534E-02-1.15546E-03-5.23533E-14
 -1      2790 1.11312E-02-1.26497E-03-5.63685E-14
 -1      2791 1.12747E-02-1.29392E-03-5.80137E-14
 -1      2792 1.10395E-02-1.21422E-03-5.55635E-14
 -1      2793 1.14181E-02-1.32260E-03-5.96778E-14
 -1      2794 1.15614E-02-1.35100E-03-6.13590E-14
 -1      2795 1.13256E-02-1.27191E-03-5.88529E-14
 -1      2796 1.17047E-02-1.37914E-03-6.30534E-14
 -1      2797 1.18479E-02-1.40704E-03-6.47625E-14
 -1      2798 1.16116E-02-1.32855E-03-6.22107E-14
 -1      2799 1.19910E-02-1.43470E-03-6.64848E-14
 -1      2800 1.21342E-02-1.46214E-03-6.82204E-14
 -1      2801 1.18976E-02-1.38421E-03-6.56283E-14
 -1      2802 1.22772E-02-1.48939E-03-6.99688E-14
 -1      2803 1.24203E-02-1.51645E-03-7.17289E-14
 -1      2804 1.21836E-02-1.43899E-03-6.90983E-14
 -1      2805 1.25633E-02-1.54334E-03-7.34982E-14
 -1      2806 1.27062E-02-1.57007E-03-7.52782E-14
 -1      2807 1.24694E-02-1.49303E-03-7.26155E-14
 -1      2808 1.28492E-02-1.59666E-03-7.70714E-14
 -1      2809 1.29921E-02-1.62313E-03-7.88743E-14
 -1      2810 1.27553E-02-1.54643E-03-7.61761E-14
 -1      2811 1.31350E-02-1.64949E-03-8.06913E-14
 -1      2812 1.32779E-02-1.67575E-03-8.25174E-14
 -1      2813 1.30411E-02-1.59933E-03-7.97828E-14
 -1      2814 1.34208E-02-1.70192E-03-8.43548E-14
 -1      2815 1.35637E-02-1.72802E-03-8.62044E-14
 -1      2816 1.33269E-02-1.65181E-03-8.34347E-14
 -1      2817 1.37066E-02-1.75405E-03-8.80654E-14
 -1      2818 1.38494E-02-1.78002E-03-8.99364E-14
 -1      2819 1.36127E-02-1.70398E-03-8.71310E-14
 -1      2820 1.39923E-02-1.80595E-03-9.18157E-14
 -1      2821 1.41352E-02-1.83184E-03-9.37020E-14
 -1      2822 1.38984E-02-1.75591E-03-9.08669E-14
 -1      2823 1.42780E-02-1.85770E-03-9.55975E-14
 -1      2824 1.44209E-02-1.88353E-03-9.75043E-14
 -1      2825 1.41841E-02-1.80767E-03-9.46369E-14
 -1      2826 2.31680E-03 4.10866E-04-2.40916E-15
 -1      2827 2.16873E-03 4.04834E-04-2.10620E-15
 -1      2828 3.39372E-03-1.99147E-04-8.77447E-15
 -1      2829 3.35821E-03-1.90667E-04-8.75399E-15
 -1      2830 2.02133E-03 3.98283E-04-1.82413E-15
 -1      2831 1.87445E-03 3.90832E-04-1.56368E-15
 -1      2832 2.07568E-03 3.64514E-04-2.01578E-15
 -1      2833 2.91846E-03 4.40579E-04-3.84228E-15
 -1      2834 2.76640E-03 4.31300E-04-3.45062E-15
 -1      2835 3.22687E-03 4.65950E-04-4.69281E-15
 -1      2836 3.07200E-03 4.51946E-04-4.25621E-15
 -1      2837 2.97149E-03 4.03812E-04-4.11468E-15
 -1      2838 3.54148E-03 5.03572E-04-5.63361E-15
 -1      2839 3.38348E-03 4.82988E-04-5.15182E-15
 -1      2840 3.28079E-03 4.29419E-04-4.99093E-15
 -1      2841 3.86229E-03 5.56178E-04-6.66780E-15
 -1      2842 3.70131E-03 5.27876E-04-6.13879E-15
 -1      2843 3.59779E-03 4.68127E-04-5.95754E-15
 -1      2844 4.18773E-03 6.23806E-04-7.79655E-15
 -1      2845 4.02478E-03 5.88258E-04-7.22029E-15
 -1      2846 3.92287E-03 5.23039E-04-7.01652E-15
 -1      2847 4.51407E-03 7.01441E-04-9.02554E-15
 -1      2848 4.35125E-03 6.62009E-04-8.39777E-15
 -1      2849 4.25426E-03 5.94470E-04-8.17067E-15
 -1      2850 4.83601E-03 7.76736E-04-1.03597E-14
 -1      2851 4.67595E-03 7.40585E-04-9.67946E-15
 -1      2852 4.58713E-03 6.76776E-04-9.42539E-15
 -1      2853 5.14939E-03 8.30389E-04-1.18069E-14
 -1      2854 4.99372E-03 8.07780E-04-1.10686E-14
 -1      2855 4.91470E-03 7.55249E-04-1.07866E-14
 -1      2856 5.45473E-03 8.42084E-04-1.33739E-14
 -1      2857 5.30243E-03 8.42670E-04-1.25750E-14
 -1      2858 5.23203E-03 8.06796E-04-1.22626E-14
 -1      2859 5.75827E-03 8.00313E-04-1.50644E-14
 -1      2860 5.60577E-03 8.27922E-04-1.42030E-14
 -1      2861 5.54102E-03 8.08264E-04-1.38608E-14
 -1      2862 6.06791E-03 7.09889E-04-1.68816E-14
 -1      2863 5.91175E-03 7.60052E-04-1.59569E-14
 -1      2864 5.85045E-03 7.49993E-04-1.55850E-14
 -1      2865 6.38680E-03 5.88949E-04-1.88194E-14
 -1      2866 6.22619E-03 6.51769E-04-1.78360E-14
 -1      2867 6.16876E-03 6.43273E-04-1.74359E-14
 -1      2868 6.71251E-03 4.58204E-04-2.08745E-14
 -1      2869 6.54921E-03 5.23559E-04-1.98329E-14
 -1      2870 6.49719E-03 5.11686E-04-1.94077E-14
 -1      2871 7.03985E-03 3.33445E-04-2.30406E-14
 -1      2872 6.87648E-03 3.94352E-04-2.19438E-14
 -1      2873 6.83059E-03 3.77774E-04-2.14930E-14
 -1      2874 7.36414E-03 2.23058E-04-2.53135E-14
 -1      2875 7.20274E-03 2.76265E-04-2.41643E-14
 -1      2876 7.16212E-03 2.55812E-04-2.36884E-14
 -1      2877 7.68293E-03 1.29041E-04-2.76894E-14
 -1      2878 7.52441E-03 1.74073E-04-2.64886E-14
 -1      2879 7.48717E-03 1.51210E-04-2.59890E-14
 -1      2880 7.99563E-03 5.00880E-05-3.01676E-14
 -1      2881 7.84010E-03 8.78624E-05-2.89155E-14
 -1      2882 7.80425E-03 6.35912E-05-2.83916E-14
 -1      2883 8.30272E-03-1.65650E-05-3.27411E-14
 -1      2884 8.14987E-03 1.54340E-05-3.14430E-14
 -1      2885 8.11379E-03-9.63475E-06-3.08924E-14
 -1      2886 8.60507E-03-7.40215E-05-3.54079E-14
 -1      2887 8.45444E-03-4.62522E-05-3.40624E-14
 -1      2888 8.41709E-03-7.17791E-05-3.34894E-14
 -1      2889 8.90362E-03-1.25107E-04-3.81698E-14
 -1      2890 8.75477E-03-1.00205E-04-3.67779E-14
 -1      2891 8.71560E-03-1.25999E-04-3.61788E-14
 -1      2892 9.19919E-03-1.72140E-04-4.10169E-14
 -1      2893 9.05173E-03-1.49011E-04-3.95819E-14
 -1      2894 9.01059E-03-1.74943E-04-3.89593E-14
 -1      2895 9.49243E-03-2.16896E-04-4.39489E-14
 -1      2896 9.34606E-03-1.94717E-04-4.24736E-14
 -1      2897 9.30304E-03-2.20687E-04-4.18281E-14
 -1      2898 9.78385E-03-2.60653E-04-4.69605E-14
 -1      2899 9.63833E-03-2.38840E-04-4.54456E-14
 -1      2900 9.59367E-03-2.64771E-04-4.47784E-14
 -1      2901 1.00739E-02-3.04275E-04-5.00514E-14
 -1      2902 9.92900E-03-2.82442E-04-4.84953E-14
 -1      2903 9.88298E-03-3.08273E-04-4.78069E-14
 -1      2904 1.03628E-02-3.48309E-04-5.32225E-14
 -1      2905 1.02184E-02-3.26218E-04-5.16280E-14
 -1      2906 1.01713E-02-3.51909E-04-5.09151E-14
 -1      2907 1.06508E-02-3.93062E-04-5.64735E-14
 -1      2908 1.05069E-02-3.70584E-04-5.48381E-14
 -1      2909 1.04590E-02-3.96112E-04-5.41034E-14
 -1      2910 1.09382E-02-4.38675E-04-5.97958E-14
 -1      2911 1.07946E-02-4.15757E-04-5.81261E-14
 -1      2912 1.07461E-02-4.41114E-04-5.73679E-14
 -1      2913 1.12252E-02-4.85177E-04-6.31902E-14
 -1      2914 1.10817E-02-4.61815E-04-6.14840E-14
 -1      2915 1.10328E-02-4.87005E-04-6.07071E-14
 -1      2916 1.15117E-02-5.32526E-04-6.66452E-14
 -1      2917 1.13685E-02-5.08748E-04-6.49111E-14
 -1      2918 1.13192E-02-5.33782E-04-6.41138E-14
 -1      2919 1.17980E-02-5.80641E-04-7.01638E-14
 -1      2920 1.16549E-02-5.56492E-04-6.83953E-14
 -1      2921 1.16055E-02-5.81386E-04-6.75832E-14
 -1      2922 1.20840E-02-6.29423E-04-7.37364E-14
 -1      2923 1.19410E-02-6.04954E-04-7.19440E-14
 -1      2924 1.18915E-02-6.29725E-04-7.11114E-14
 -1      2925 1.23700E-02-6.78766E-04-7.73623E-14
 -1      2926 1.22270E-02-6.54030E-04-7.55448E-14
 -1      2927 1.21774E-02-6.78697E-04-7.46982E-14
 -1      2928 1.26558E-02-7.28568E-04-8.10179E-14
 -1      2929 1.25129E-02-7.03615E-04-7.91864E-14
 -1      2930 1.24633E-02-7.28197E-04-7.83294E-14
 -1      2931 1.29416E-02-7.78734E-04-8.46995E-14
 -1      2932 1.27987E-02-7.53610E-04-8.28567E-14
 -1      2933 1.27491E-02-7.78125E-04-8.19917E-14
 -1      2934 1.32273E-02-8.29179E-04-8.83926E-14
 -1      2935 1.30844E-02-8.03926E-04-8.65450E-14
 -1      2936 1.30349E-02-8.28390E-04-8.56768E-14
 -1      2937 1.35130E-02-8.79828E-04-9.20883E-14
 -1      2938 1.33701E-02-8.54482E-04-9.02411E-14
 -1      2939 1.33206E-02-8.78909E-04-8.93692E-14
 -1      2940 1.37987E-02-9.30613E-04-9.57845E-14
 -1      2941 1.36558E-02-9.05207E-04-9.39355E-14
 -1      2942 1.36063E-02-9.29612E-04-9.30663E-14
 -1      2943 1.40575E-02-9.83862E-04-9.90877E-14
 -1      2944 1.39147E-02-9.58425E-04-9.72384E-14
 -1      2945 1.38652E-02-9.82821E-04-9.63678E-14
 -1      2946 1.40971E-02-1.03847E-03-9.92759E-14
 -1      2947 1.43264E-02-1.44321E-03-9.96804E-14
 -1      2948 1.43012E-02-1.40107E-03-9.96287E-14
 -1      2949 1.45180E-02-1.90182E-03-9.87965E-14
 -1      2950 1.46151E-02-1.92011E-03-1.00095E-13
 -1      2951 1.44241E-02-1.85180E-03-9.78227E-14
 -1      2952 1.42259E-02-1.27465E-03-9.94592E-14
 -1      2953 1.42008E-02-1.23250E-03-9.94024E-14
 -1      2954 1.43768E-02-1.52749E-03-9.97757E-14
 -1      2955 1.43516E-02-1.48535E-03-9.97300E-14
 -1      2956 1.42152E-02-1.44208E-03-9.80745E-14
 -1      2957 1.42761E-02-1.35893E-03-9.95737E-14
 -1      2958 1.42510E-02-1.31679E-03-9.95176E-14
 -1      2959 1.41147E-02-1.27360E-03-9.78706E-14
 -1      2960 1.41649E-02-1.35785E-03-9.79783E-14
 -1      2961 1.72800E-03 3.81846E-04-1.32473E-15
 -1      2962 1.58180E-03 3.70973E-04-1.10708E-15
 -1      2963 1.78310E-03 3.50515E-04-1.48883E-15
 -1      2964 1.44265E-02-1.61034E-03-9.98573E-14
 -1      2965 1.44016E-02-1.56891E-03-9.98188E-14
 -1      2966 1.42653E-02-1.52561E-03-9.81597E-14
 -1      2967 1.44772E-02-1.69463E-03-9.99282E-14
 -1      2968 1.44518E-02-1.65248E-03-9.98937E-14
 -1      2969 1.43154E-02-1.60914E-03-9.82326E-14
 -1      2970 1.45280E-02-1.77892E-03-9.99894E-14
 -1      2971 1.45026E-02-1.73677E-03-9.99597E-14
 -1      2972 1.43661E-02-1.69339E-03-9.82936E-14
 -1      2973 1.46183E-02-1.88836E-03-1.00412E-13
 -1      2974 8.00664E-03-4.03787E-04-2.22617E-14
 -1      2975 7.96366E-03-4.12658E-04-2.21182E-14
 -1      2976 6.23378E-03-1.27433E-03-1.63753E-14
 -1      2977 5.16356E-03-1.09171E-03-1.19981E-14
 -1      2978 4.98660E-03-9.73711E-04-1.15249E-14
 -1      2979 7.25823E-03-6.83555E-04-2.01052E-14
 -1      2980 7.06792E-03-7.87680E-04-1.95444E-14
 -1      2981 2.61547E-03 4.23599E-04-3.08141E-15
 -1      2982 2.46568E-03 4.16976E-04-2.73426E-15
 -1      2983 2.37045E-03 3.75471E-04-2.62834E-15
 -1      2984 2.66857E-03 3.87229E-04-3.32732E-15
 -1      2985 1.07837E-03-2.79421E-04-6.61228E-16
 -1      2986 1.22315E-03-2.98986E-04-8.33602E-16
 -1      2987 1.27932E-03-2.75660E-04-9.49043E-16
 -1      2988 1.06190E-03-2.50360E-04-6.75011E-16
 -1      2989 7.76130E-04 1.00725E-04-4.24736E-16
 -1      2990 7.70951E-04 8.02370E-05-4.35063E-16
 -1      2991 8.84182E-04 7.87245E-05-5.58296E-16
 -1      2992 8.96681E-04 1.24248E-04-5.33671E-16
 -1      2993 7.68769E-04-8.04926E-05-4.64974E-16
 -1      2994 7.73794E-04-1.00146E-04-4.61396E-16
 -1      2995 8.01717E-03-3.82502E-04-2.22519E-14
 -1      2996 8.03400E-03-3.90351E-04-2.23184E-14
 -1      2997 6.28990E-03 4.21330E-04-1.72882E-14
 -1      2998 6.50529E-03 2.90267E-04-1.81638E-14
 -1      2999 1.43585E-03 3.57524E-04-9.10242E-16
 -1      3000 1.28989E-03 3.41148E-04-7.33991E-16
 -1      3001 1.20139E-03 2.98366E-04-6.86937E-16
 -1      3002 1.49183E-03 3.29726E-04-1.04631E-15
 -1      3003 5.91429E-03-1.36117E-03-1.48893E-14
 -1      3004 5.75578E-03-1.35585E-03-1.41595E-14
 -1      3005 7.56525E-03-2.53848E-04-2.13723E-14
 -1      3006 7.72978E-03-3.07983E-04-2.17509E-14
 -1      3007 3.62903E-03-2.62542E-04-9.05263E-15
 -1      3008 3.49169E-03-2.25016E-04-8.86646E-15
 -1      3009 5.59825E-03 7.12155E-04-1.41478E-14
 -1      3010 5.72725E-03 6.89825E-04-1.47673E-14
 -1      3011 3.49622E-03-1.39517E-04-8.81228E-15
 -1      3012 3.59834E-03-1.12035E-04-8.93444E-15
 -1      3013 4.59220E-03 3.29369E-04-1.06668E-14
 -1      3014 4.75409E-03 4.20068E-04-1.10683E-14
 -1      3015 5.56692E-03-1.31184E-03-1.33468E-14
 -1      3016 3.36002E-03-1.77643E-04-8.72833E-15
 -1      3017 3.41085E-03-1.65437E-04-8.77133E-15
 -1      3018 3.41876E-03-1.42886E-04-8.45489E-15
 -1      3019 3.95480E-03-3.85470E-04-9.46091E-15
 -1      3020 3.79588E-03-3.21864E-04-9.24602E-15
 -1      3021 4.35923E-03-5.86574E-04-1.01224E-14
 -1      3022 4.16182E-03-4.81610E-04-9.79821E-15
 -1      3023 4.95860E-03 5.25923E-04-1.16708E-14
 -1      3024 5.13282E-03 6.09897E-04-1.22577E-14
 -1      3025 6.90133E-03-8.84350E-04-1.90108E-14
 -1      3026 6.74440E-03-9.85988E-04-1.84857E-14
 -1      3027 7.05093E-03-8.28043E-04-1.97661E-14
 -1      3028 7.54035E-03-5.47870E-04-2.08001E-14
 -1      3029 7.42624E-03-5.97168E-04-2.04897E-14
 -1      3030 7.36369E-03-6.53804E-04-2.07018E-14
 -1      3031 7.67081E-03-5.13796E-04-2.14845E-14
 -1      3032 7.13891E-03-7.19990E-05-2.01047E-14
 -1      3033 7.33621E-03-1.62742E-04-2.06738E-14
 -1      3034 6.77796E-03 1.27833E-04-1.91421E-14
 -1      3035 6.95534E-03 2.37014E-05-1.96198E-14
 -1      3036 7.08431E-03-2.88506E-05-2.03878E-14
 -1      3037 5.91728E-03 6.23689E-04-1.56492E-14
 -1      3038 6.08723E-03 5.36514E-04-1.64139E-14
 -1      3039 6.10379E-03-1.32448E-03-1.57633E-14
 -1      3040 6.75958E-03-1.03290E-03-1.88283E-14
 -1      3041 7.79978E-04-1.21035E-04-4.56124E-16
 -1      3042 7.87233E-04-1.43467E-04-4.48941E-16
 -1      3043 8.93532E-04-1.23221E-04-5.82474E-16
 -1      3044 8.72901E-04-1.54070E-06-5.87204E-16
 -1      3045 7.59467E-04-9.55917E-06-4.64797E-16
 -1      3046 7.60188E-04-2.66927E-05-4.66885E-16
 -1      3047 8.01636E-03-3.81177E-04-2.27621E-14
 -1      3048 8.72005E-04 2.34574E-04-3.88619E-16
 -1      3049 4.96751E-03-9.78013E-04-1.12377E-14
 -1      3050 5.11650E-03-1.08446E-03-1.15796E-14
 -1      3051 4.65415E-03-7.96980E-04-1.02536E-14
 -1      3052 6.96184E-03-9.49191E-04-1.98366E-14
 -1      3053 1.40648E-02-1.18971E-03-9.77583E-14
 -1      3054 1.41760E-02-1.19072E-03-9.93428E-14
 -1      3055 1.41513E-02-1.14893E-03-9.92821E-14
 -1      3056 3.33042E-03-1.76368E-04-8.44252E-15
 -1      3057 7.92725E-03-4.35838E-04-2.23701E-14
 -1      3058 1.41365E-02-1.11460E-03-9.93146E-14
 -1      3059 1.41118E-02-1.07280E-03-9.92501E-14
 -1      3060 1.39958E-02-1.04497E-03-9.77960E-14
 -1      3061 1.40253E-02-1.11361E-03-9.77346E-14
 -1      3062 4.85212E-03 4.88658E-04-1.12423E-14
 -1      3063 1.45928E-02-1.84621E-03-1.00390E-13
 -1      3064 1.44563E-02-1.80280E-03-9.87203E-14
 -1      3065 6.19934E-03 4.83760E-04-1.70314E-14
 -1      3066 4.55733E-03-6.98738E-04-1.05615E-14
 -1      3067 4.42660E-03-6.32156E-04-1.01058E-14
 -1      3068 4.75682E-03-8.23888E-04-1.10138E-14
 -1      3069 3.67917E-03-2.86295E-04-8.83183E-15
 -1      3070 4.46176E-03 2.69023E-04-1.02889E-14
 -1      3071 4.52626E-03 3.28799E-04-1.02767E-14
 -1      3072 4.33195E-03 2.14959E-04-9.91923E-15
 -1      3073 5.51291E-03 7.16481E-04-1.37492E-14
 -1      3074 4.04954E-03 5.47878E-05-9.61538E-15
 -1      3075 4.12481E-03 1.08591E-04-9.56383E-15
 -1      3076 3.93500E-03 2.37093E-05-9.25740E-15
 -1      3077 8.05634E-03-4.04386E-04-2.29249E-14
 -1      3078 3.41843E-03-2.06642E-04-8.55698E-15
 -1      3079 3.35712E-03-1.94296E-04-8.25225E-15
 -1      3080 3.44875E-03-2.18354E-04-8.33874E-15
 -1      3081 5.20952E-03 6.50073E-04-1.24759E-14
 -1      3082 7.61973E-04-4.40262E-05-4.67630E-16
 -1      3083 7.64820E-04-6.19090E-05-4.66925E-16
 -1      3084 8.81454E-04-7.97153E-05-5.91012E-16
 -1      3085 8.74609E-04-3.98939E-05-5.92327E-16
 -1      3086 7.11988E-03-8.39835E-04-2.03773E-14
 -1      3087 4.84235E-03-8.88006E-04-1.10385E-14
 -1      3088 3.66556E-03-8.13424E-05-8.89373E-15
 -1      3089 3.73386E-03-4.52898E-05-8.85211E-15
 -1      3090 3.56395E-03-8.62715E-05-8.45132E-15
 -1      3091 9.89291E-04 2.39885E-04-5.10117E-16
 -1      3092 6.53857E-03 2.97314E-04-1.86526E-14
 -1      3093 6.64757E-03 2.14693E-04-1.88990E-14
 -1      3094 6.78834E-03 1.49340E-04-1.96467E-14
 -1      3095 7.48272E-03-2.11321E-04-2.15863E-14
 -1      3096 7.82386E-03-3.30627E-04-2.24214E-14
 -1      3097 5.82412E-03 6.63425E-04-1.52624E-14
 -1      3098 5.44755E-03-1.26510E-03-1.28118E-14
 -1      3099 5.46617E-03-1.26254E-03-1.30314E-14
 -1      3100 4.03551E-03-4.31756E-04-9.34564E-15
 -1      3101 5.31235E-03-1.18010E-03-1.24833E-14
 -1      3102 5.20086E-03-1.12091E-03-1.20213E-14
 -1      3103 5.25392E-03-1.16811E-03-1.20532E-14
 -1      3104 1.04095E-03 2.06659E-04-6.13062E-16
 -1      3105 1.02969E-03 1.76829E-04-6.35166E-16
 -1      3106 7.26609E-03-7.59593E-04-2.09339E-14
 -1      3107 1.72706E-03-2.77265E-04-1.72269E-15
 -1      3108 1.86872E-03-2.82880E-04-1.99968E-15
 -1      3109 2.00996E-03-2.87221E-04-2.29805E-15
 -1      3110 2.15091E-03-2.90528E-04-2.61751E-15
 -1      3111 1.91810E-03-2.54185E-04-2.16666E-15
 -1      3112 2.29139E-03-2.93364E-04-2.95826E-15
 -1      3113 2.43161E-03-2.96003E-04-3.32071E-15
 -1      3114 2.19566E-03-2.60744E-04-2.80742E-15
 -1      3115 2.57142E-03-2.99030E-04-3.70431E-15
 -1      3116 2.71120E-03-3.02806E-04-4.10903E-15
 -1      3117 2.47047E-03-2.65847E-04-3.53332E-15
 -1      3118 2.85089E-03-3.07913E-04-4.53438E-15
 -1      3119 2.99114E-03-3.14929E-04-4.98080E-15
 -1      3120 2.74261E-03-2.72518E-04-4.34296E-15
 -1      3121 3.13206E-03-3.24366E-04-5.44784E-15
 -1      3122 3.27478E-03-3.37289E-04-5.93578E-15
 -1      3123 3.01328E-03-2.84086E-04-5.23591E-15
 -1      3124 3.41972E-03-3.54044E-04-6.44436E-15
 -1      3125 3.56873E-03-3.76795E-04-6.97333E-15
 -1      3126 3.28573E-03-3.04642E-04-6.21110E-15
 -1      3127 3.72289E-03-4.05431E-04-7.52425E-15
 -1      3128 3.88463E-03-4.44799E-04-8.09660E-15
 -1      3129 3.56710E-03-3.40305E-04-7.26840E-15
 -1      3130 3.34528E-03-1.44719E-04-8.11012E-15
 -1      3131 3.41578E-03-1.21877E-04-8.14734E-15
 -1      3132 4.74224E-03 4.63749E-04-1.07395E-14
 -1      3133 4.92596E-03 5.54582E-04-1.13304E-14
 -1      3134 7.82608E-03-6.50902E-04-2.43323E-14
 -1      3135 7.98004E-03-6.46355E-04-2.54754E-14
 -1      3136 8.12838E-03-6.49863E-04-2.66417E-14
 -1      3137 8.27322E-03-6.58490E-04-2.78300E-14
 -1      3138 8.09930E-03-6.03072E-04-2.60764E-14
 -1      3139 8.41522E-03-6.72001E-04-2.90435E-14
 -1      3140 8.55588E-03-6.88937E-04-3.02805E-14
 -1      3141 8.37339E-03-6.27784E-04-2.84549E-14
 -1      3142 8.69543E-03-7.08967E-04-3.15407E-14
 -1      3143 8.83473E-03-7.31397E-04-3.28275E-14
 -1      3144 8.64261E-03-6.65289E-04-3.09283E-14
 -1      3145 8.97378E-03-7.55808E-04-3.41367E-14
 -1      3146 9.11306E-03-7.81839E-04-3.54686E-14
 -1      3147 8.91185E-03-7.11515E-04-3.34984E-14
 -1      3148 9.25248E-03-8.09089E-04-3.68255E-14
 -1      3149 9.39230E-03-8.37355E-04-3.82058E-14
 -1      3150 9.18314E-03-7.63700E-04-3.61638E-14
 -1      3151 9.53239E-03-8.66299E-04-3.96079E-14
 -1      3152 9.67289E-03-8.95803E-04-4.10335E-14
 -1      3153 9.45710E-03-8.19742E-04-3.89218E-14
 -1      3154 9.81365E-03-9.25609E-04-4.24787E-14
 -1      3155 9.95479E-03-9.55646E-04-4.39458E-14
 -1      3156 9.73367E-03-8.78016E-04-4.17691E-14
 -1      3157 1.00961E-02-9.85731E-04-4.54335E-14
 -1      3158 1.02378E-02-1.01582E-03-4.69380E-14
 -1      3159 1.00125E-02-9.37309E-04-4.47011E-14
 -1      3160 1.03796E-02-1.04581E-03-4.84627E-14
 -1      3161 1.05216E-02-1.07566E-03-5.00087E-14
 -1      3162 1.02931E-02-9.96768E-04-4.77116E-14
 -1      3163 1.06638E-02-1.10531E-03-5.15736E-14
 -1      3164 1.08061E-02-1.13474E-03-5.31582E-14
 -1      3165 1.05752E-02-1.05583E-03-5.07994E-14
 -1      3166 1.09485E-02-1.16394E-03-5.47611E-14
 -1      3167 1.10911E-02-1.19288E-03-5.63848E-14
 -1      3168 1.08584E-02-1.11417E-03-5.39608E-14
 -1      3169 1.12336E-02-1.22157E-03-5.80292E-14
 -1      3170 1.13763E-02-1.25001E-03-5.96897E-14
 -1      3171 1.11423E-02-1.17163E-03-5.72062E-14
 -1      3172 1.15190E-02-1.27821E-03-6.13693E-14
 -1      3173 1.16617E-02-1.30616E-03-6.30631E-14
 -1      3174 1.14268E-02-1.22816E-03-6.05274E-14
 -1      3175 1.18045E-02-1.33389E-03-6.47707E-14
 -1      3176 1.19473E-02-1.36141E-03-6.64929E-14
 -1      3177 1.17117E-02-1.28380E-03-6.39155E-14
 -1      3178 1.20901E-02-1.38872E-03-6.82271E-14
 -1      3179 1.22330E-02-1.41585E-03-6.99752E-14
 -1      3180 1.19969E-02-1.33861E-03-6.73569E-14
 -1      3181 1.23758E-02-1.44281E-03-7.17331E-14
 -1      3182 1.25187E-02-1.46961E-03-7.35022E-14
 -1      3183 1.22823E-02-1.39270E-03-7.08499E-14
 -1      3184 1.26615E-02-1.49627E-03-7.52827E-14
 -1      3185 1.28044E-02-1.52279E-03-7.70720E-14
 -1      3186 1.25679E-02-1.44617E-03-7.43889E-14
 -1      3187 1.29473E-02-1.54921E-03-7.88758E-14
 -1      3188 1.30901E-02-1.57551E-03-8.06899E-14
 -1      3189 1.28535E-02-1.49913E-03-7.79698E-14
 -1      3190 1.32330E-02-1.60173E-03-8.25151E-14
 -1      3191 1.33759E-02-1.62786E-03-8.43509E-14
 -1      3192 1.31392E-02-1.55168E-03-8.15965E-14
 -1      3193 1.35188E-02-1.65393E-03-8.61962E-14
 -1      3194 1.36616E-02-1.67993E-03-8.80549E-14
 -1      3195 1.34249E-02-1.60390E-03-8.52661E-14
 -1      3196 1.38045E-02-1.70588E-03-8.99209E-14
 -1      3197 1.39474E-02-1.73178E-03-9.17931E-14
 -1      3198 1.37107E-02-1.65586E-03-8.89760E-14
 -1      3199 1.40903E-02-1.75765E-03-9.36777E-14
 -1      3200 1.42331E-02-1.78349E-03-9.55682E-14
 -1      3201 1.39964E-02-1.70765E-03-9.27208E-14
 -1      3202 1.41540E-02-1.52406E-03-9.65447E-14
 -1      3203 1.41291E-02-1.48268E-03-9.65078E-14
 -1      3204 3.33304E-03 3.91398E-04-5.29142E-15
 -1      3205 3.17692E-03 3.77196E-04-4.82951E-15
 -1      3206 3.02282E-03 3.66064E-04-4.38960E-15
 -1      3207 2.87072E-03 3.57228E-04-3.97219E-15
 -1      3208 3.07241E-03 3.27166E-04-4.66759E-15
 -1      3209 3.98293E-03 4.87911E-04-7.36691E-15
 -1      3210 3.81679E-03 4.56870E-04-6.81344E-15
 -1      3211 4.32142E-03 5.63807E-04-8.54571E-15
 -1      3212 4.15165E-03 5.23642E-04-7.94459E-15
 -1      3213 4.04239E-03 4.51181E-04-7.71921E-15
 -1      3214 4.66211E-03 6.52404E-04-9.82539E-15
 -1      3215 4.49226E-03 6.07521E-04-9.17249E-15
 -1      3216 4.38891E-03 5.33174E-04-8.92156E-15
 -1      3217 4.99614E-03 7.35691E-04-1.12141E-14
 -1      3218 4.83057E-03 6.96608E-04-1.05061E-14
 -1      3219 4.73803E-03 6.30129E-04-1.02264E-14
 -1      3220 5.31734E-03 7.85264E-04-1.27194E-14
 -1      3221 5.15794E-03 7.67053E-04-1.19509E-14
 -1      3222 5.07812E-03 7.19638E-04-1.16410E-14
 -1      3223 5.63000E-03 7.74238E-04-1.43502E-14
 -1      3224 5.47347E-03 7.88574E-04-1.35192E-14
 -1      3225 5.40337E-03 7.65150E-04-1.31774E-14
 -1      3226 5.94630E-03 6.95546E-04-1.61097E-14
 -1      3227 5.78645E-03 7.42004E-04-1.52143E-14
 -1      3228 5.72191E-03 7.35935E-04-1.48422E-14
 -1      3229 6.27449E-03 5.70617E-04-1.79951E-14
 -1      3230 6.10849E-03 6.36687E-04-1.70367E-14
 -1      3231 6.04780E-03 6.33530E-04-1.66370E-14
 -1      3232 6.61321E-03 4.29255E-04-1.99989E-14
 -1      3233 6.44322E-03 5.00054E-04-1.89827E-14
 -1      3234 6.38846E-03 4.90392E-04-1.85577E-14
 -1      3235 6.95391E-03 2.94410E-04-2.21153E-14
 -1      3236 6.78440E-03 3.59855E-04-2.10431E-14
 -1      3237 6.73791E-03 3.41660E-04-2.05942E-14
 -1      3238 7.28805E-03 1.77559E-04-2.43399E-14
 -1      3239 7.12233E-03 2.33490E-04-2.32139E-14
 -1      3240 7.08354E-03 2.09590E-04-2.27412E-14
 -1      3241 7.61221E-03 8.02326E-05-2.66659E-14
 -1      3242 7.45158E-03 1.26685E-04-2.54907E-14
 -1      3243 7.41770E-03 1.00347E-04-2.49927E-14
 -1      3244 7.92627E-03-2.80987E-07-2.90939E-14
 -1      3245 7.77051E-03 3.81549E-05-2.78673E-14
 -1      3246 7.73892E-03 1.13262E-05-2.73458E-14
 -1      3247 8.23177E-03-6.75904E-05-3.16184E-14
 -1      3248 8.08000E-03-3.52961E-05-3.03440E-14
 -1      3249 8.04852E-03-6.17851E-05-2.97974E-14
 -1      3250 8.53083E-03-1.25340E-04-3.42368E-14
 -1      3251 8.38200E-03-9.74273E-05-3.29173E-14
 -1      3252 8.34917E-03-1.23367E-04-3.23457E-14
 -1      3253 8.82534E-03-1.76564E-04-3.69502E-14
 -1      3254 8.67855E-03-1.51593E-04-3.55809E-14
 -1      3255 8.64361E-03-1.77088E-04-3.49872E-14
 -1      3256 9.11679E-03-2.23637E-04-3.97506E-14
 -1      3257 8.97136E-03-2.00492E-04-3.83396E-14
 -1      3258 8.93403E-03-2.25704E-04-3.77198E-14
 -1      3259 9.40623E-03-2.68347E-04-4.26385E-14
 -1      3260 9.26170E-03-2.46199E-04-4.11844E-14
 -1      3261 9.22201E-03-2.71255E-04-4.05428E-14
 -1      3262 9.69439E-03-3.11976E-04-4.56067E-14
 -1      3263 9.55043E-03-2.90236E-04-4.41118E-14
 -1      3264 9.50860E-03-3.15215E-04-4.34496E-14
 -1      3265 9.98173E-03-3.55403E-04-4.86533E-14
 -1      3266 9.83813E-03-3.33676E-04-4.71206E-14
 -1      3267 9.79446E-03-3.58614E-04-4.64348E-14
 -1      3268 1.02685E-02-3.99193E-04-5.17799E-14
 -1      3269 1.01252E-02-3.77230E-04-5.02066E-14
 -1      3270 1.00800E-02-4.02137E-04-4.95013E-14
 -1      3271 1.05550E-02-4.43674E-04-5.49837E-14
 -1      3272 1.04118E-02-4.21335E-04-5.33723E-14
 -1      3273 1.03654E-02-4.46208E-04-5.26436E-14
 -1      3274 1.08412E-02-4.89006E-04-5.82639E-14
 -1      3275 1.06981E-02-4.66229E-04-5.66149E-14
 -1      3276 1.06508E-02-4.91059E-04-5.58642E-14
 -1      3277 1.11273E-02-5.35234E-04-6.16198E-14
 -1      3278 1.09843E-02-5.12009E-04-5.99336E-14
 -1      3279 1.09363E-02-5.36787E-04-5.91633E-14
 -1      3280 1.14133E-02-5.82329E-04-6.50392E-14
 -1      3281 1.12703E-02-5.58677E-04-6.33206E-14
 -1      3282 1.12218E-02-5.83399E-04-6.25316E-14
 -1      3283 1.16992E-02-6.30215E-04-6.85206E-14
 -1      3284 1.15563E-02-6.06178E-04-6.67724E-14
 -1      3285 1.15074E-02-6.30842E-04-6.59638E-14
 -1      3286 1.19851E-02-6.78798E-04-7.20627E-14
 -1      3287 1.18422E-02-6.54425E-04-7.02847E-14
 -1      3288 1.17930E-02-6.79033E-04-6.94589E-14
 -1      3289 1.22709E-02-7.27973E-04-7.56596E-14
 -1      3290 1.21280E-02-7.03317E-04-7.38536E-14
 -1      3291 1.20787E-02-7.27871E-04-7.30134E-14
 -1      3292 1.25567E-02-7.77637E-04-7.92955E-14
 -1      3293 1.24138E-02-7.52749E-04-7.74739E-14
 -1      3294 1.23644E-02-7.77256E-04-7.66182E-14
 -1      3295 1.28425E-02-8.27694E-04-8.29655E-14
 -1      3296 1.26996E-02-8.02621E-04-8.11283E-14
 -1      3297 1.26501E-02-8.27087E-04-8.02637E-14
 -1      3298 1.31282E-02-8.78058E-04-8.66513E-14
 -1      3299 1.29854E-02-8.52842E-04-8.48071E-14
 -1      3300 1.29359E-02-8.77275E-04-8.39379E-14
 -1      3301 1.34140E-02-9.28651E-04-9.03458E-14
 -1      3302 1.32711E-02-9.03330E-04-8.84964E-14
 -1      3303 1.32216E-02-9.27739E-04-8.76240E-14
 -1      3304 1.36997E-02-9.79407E-04-9.40432E-14
 -1      3305 1.35568E-02-9.54013E-04-9.21944E-14
 -1      3306 1.35073E-02-9.78405E-04-9.13194E-14
 -1      3307 1.39057E-02-1.02609E-03-9.66465E-14
 -1      3308 1.37898E-02-9.98269E-04-9.51924E-14
 -1      3309 1.37403E-02-1.02266E-03-9.43177E-14
 -1      3310 1.39205E-02-1.06040E-03-9.66175E-14
 -1      3311 9.92949E-04 5.16926E-05-7.08689E-16
 -1      3312 9.89556E-04 2.98245E-05-7.17322E-16
 -1      3313 1.83796E-03 3.18971E-04-1.65714E-15
 -1      3314 1.69283E-03 3.11252E-04-1.41209E-15
 -1      3315 1.41039E-02-1.44058E-03-9.64686E-14
 -1      3316 1.40787E-02-1.39848E-03-9.64263E-14
 -1      3317 1.39926E-02-1.43905E-03-9.48640E-14
 -1      3318 1.42551E-02-1.69214E-03-9.66618E-14
 -1      3319 1.42297E-02-1.65003E-03-9.66354E-14
 -1      3320 1.42045E-02-1.60809E-03-9.66086E-14
 -1      3321 1.41791E-02-1.56599E-03-9.65783E-14
 -1      3322 1.40430E-02-1.52303E-03-9.49319E-14
 -1      3323 1.40934E-02-1.60684E-03-9.49875E-14
 -1      3324 7.98167E-04-1.62511E-04-4.46352E-16
 -1      3325 8.09180E-04-1.84757E-04-4.39780E-16
 -1      3326 9.38990E-04-2.10700E-04-5.63622E-16
 -1      3327 9.13108E-04-1.66983E-04-5.72852E-16
 -1      3328 3.65280E-03 4.30750E-04-6.28305E-15
 -1      3329 3.49175E-03 4.08975E-04-5.77560E-15
 -1      3330 3.38360E-03 3.51715E-04-5.59432E-15
 -1      3331 3.70648E-03 3.91413E-04-6.61056E-15
 -1      3332 5.38810E-03 7.13191E-04-1.31637E-14
 -1      3333 5.52023E-03 7.27086E-04-1.37887E-14
 -1      3334 7.47342E-03-7.02167E-04-2.20601E-14
 -1      3335 7.64618E-03-6.73696E-04-2.31523E-14
 -1      3336 7.79220E-03-6.08296E-04-2.37307E-14
 -1      3337 7.42023E-03-6.74573E-04-2.14241E-14
 -1      3338 8.00988E-03-3.77616E-04-2.32714E-14
 -1      3339 8.07188E-03-3.92661E-04-2.34951E-14
 -1      3340 3.29846E-03-1.74309E-04-8.09732E-15
 -1      3341 3.29955E-03-1.62714E-04-8.07186E-15
 -1      3342 1.44313E-03-2.60393E-04-1.23267E-15
 -1      3343 1.58522E-03-2.69848E-04-1.46709E-15
 -1      3344 1.63832E-03-2.43320E-04-1.61091E-15
 -1      3345 3.70681E-03-3.09656E-04-8.51328E-15
 -1      3346 3.56173E-03-2.58461E-04-8.33359E-15
 -1      3347 5.08709E-03 6.23250E-04-1.19123E-14
 -1      3348 5.24245E-03 6.78757E-04-1.25403E-14
 -1      3349 5.26246E-03 7.02461E-04-1.25728E-14
 -1      3350 4.96760E-03 6.00255E-04-1.13835E-14
 -1      3351 5.76798E-03 7.01920E-04-1.50565E-14
 -1      3352 5.93819E-03 6.40412E-04-1.59525E-14
 -1      3353 8.10110E-03-4.08908E-04-2.36544E-14
 -1      3354 8.08236E-03-4.20464E-04-2.35948E-14
 -1      3355 1.15316E-03 2.69102E-04-6.68641E-16
 -1      3356 1.08620E-03 2.32855E-04-6.34909E-16
 -1      3357 1.20272E-03 2.30959E-04-7.88974E-16
 -1      3358 1.29748E-03 2.86301E-04-8.35595E-16
 -1      3359 4.10603E-03-4.80194E-04-9.20348E-15
 -1      3360 3.91896E-03-3.94213E-04-8.88168E-15
 -1      3361 7.99853E-03-4.43426E-04-2.32127E-14
 -1      3362 7.89225E-03-4.65872E-04-2.27117E-14
 -1      3363 7.81707E-03-3.19855E-04-2.30509E-14
 -1      3364 7.93097E-03-3.55618E-04-2.31738E-14
 -1      3365 7.40210E-03-1.59600E-04-2.18961E-14
 -1      3366 7.60808E-03-2.40480E-04-2.26163E-14
 -1      3367 7.08688E-03-4.24138E-06-2.08874E-14
 -1      3368 7.24551E-03-8.68354E-05-2.13899E-14
 -1      3369 7.39737E-03-1.28784E-04-2.24116E-14
 -1      3370 2.12931E-03 3.30534E-04-2.21143E-15
 -1      3371 1.98340E-03 3.25285E-04-1.92346E-15
 -1      3372 1.89233E-03 2.87257E-04-1.83024E-15
 -1      3373 9.87560E-04 8.49219E-06-7.24017E-16
 -1      3374 9.87027E-04-1.25483E-05-7.28787E-16
 -1      3375 1.10345E-03 2.01531E-05-8.74382E-16
 -1      3376 4.34584E-03-6.06627E-04-9.64349E-15
 -1      3377 4.20663E-03-5.52815E-04-9.16610E-15
 -1      3378 8.12497E-03-4.07775E-04-2.41758E-14
 -1      3379 3.46701E-03-2.36359E-04-8.03366E-15
 -1      3380 1.01973E-03 1.48956E-04-6.54330E-16
 -1      3381 1.01115E-03 1.22719E-04-6.71297E-16
 -1      3382 1.14519E-03 1.74565E-04-7.86684E-16
 -1      3383 4.56957E-03-7.25311E-04-1.02944E-14
 -1      3384 3.84423E-03-3.99653E-04-8.27775E-15
 -1      3385 4.02581E-03-4.87961E-04-8.55555E-15
 -1      3386 4.62239E-03 4.11378E-04-1.03579E-14
 -1      3387 4.69659E-03 4.85825E-04-1.04345E-14
 -1      3388 4.50080E-03 3.60537E-04-9.98421E-15
 -1      3389 6.11306E-03 5.67582E-04-1.68756E-14
 -1      3390 1.39535E-02-1.18851E-03-9.61749E-14
 -1      3391 1.39287E-02-1.14675E-03-9.61187E-14
 -1      3392 1.22766E-03-2.42613E-04-9.15555E-16
 -1      3393 1.33544E-03-2.52287E-04-1.06786E-15
 -1      3394 1.39129E-03-2.28796E-04-1.19083E-15
 -1      3395 1.04638E-03-2.25359E-04-6.83196E-16
 -1      3396 2.77019E-03 3.12668E-04-3.82870E-15
 -1      3397 2.72016E-03 3.50285E-04-3.57617E-15
 -1      3398 2.57100E-03 3.44612E-04-3.20219E-15
 -1      3399 9.97711E-04 7.42534E-05-6.98253E-16
 -1      3400 1.11141E-03 6.73250E-05-8.54406E-16
 -1      3401 1.00375E-03 9.78155E-05-6.85921E-16
 -1      3402 1.40036E-02-1.27272E-03-9.62843E-14
 -1      3403 1.39785E-02-1.23062E-03-9.62309E-14
 -1      3404 1.38424E-02-1.18766E-03-9.45940E-14
 -1      3405 1.43593E-02-1.78453E-03-9.74304E-14
 -1      3406 1.42654E-02-1.73452E-03-9.64596E-14
 -1      3407 1.41290E-02-1.69112E-03-9.48099E-14
 -1      3408 1.40537E-02-1.35665E-03-9.63806E-14
 -1      3409 1.40286E-02-1.31456E-03-9.63323E-14
 -1      3410 1.38924E-02-1.27156E-03-9.46949E-14
 -1      3411 1.39423E-02-1.35518E-03-9.47842E-14
 -1      3412 8.01334E-03-3.71079E-04-2.39141E-14
 -1      3413 3.67953E-03-1.72559E-05-8.35845E-15
 -1      3414 3.80298E-03-3.11905E-06-8.80147E-15
 -1      3415 3.86700E-03 4.34914E-05-8.75030E-15
 -1      3416 4.20712E-03 1.68710E-04-9.55207E-15
 -1      3417 4.27620E-03 2.29791E-04-9.53816E-15
 -1      3418 4.08561E-03 1.31481E-04-9.19344E-15
 -1      3419 7.56020E-03-6.02167E-04-2.18255E-14
 -1      3420 3.27823E-03-1.45996E-04-7.77359E-15
 -1      3421 3.29059E-03-1.79448E-04-7.88777E-15
 -1      3422 3.23253E-03-1.66245E-04-7.53018E-15
 -1      3423 3.29210E-03-1.86534E-04-7.67866E-15
 -1      3424 2.42293E-03 3.39757E-04-2.85073E-15
 -1      3425 2.27576E-03 3.35226E-04-2.52034E-15
 -1      3426 2.18206E-03 2.96371E-04-2.41139E-15
 -1      3427 2.47416E-03 3.03697E-04-3.07668E-15
 -1      3428 6.96397E-03 7.54059E-05-2.06268E-14
 -1      3429 7.13352E-03 1.56223E-05-2.16297E-14
 -1      3430 6.85407E-03 1.55562E-04-2.03659E-14
 -1      3431 7.74813E-03-2.82782E-04-2.33750E-14
 -1      3432 7.87512E-03-3.14342E-04-2.41431E-14
 -1      3433 7.68687E-03-2.38937E-04-2.36945E-14
 -1      3434 3.45919E-03-9.97890E-05-8.10630E-15
 -1      3435 3.50661E-03-7.33961E-05-8.06493E-15
 -1      3436 3.36646E-03-1.06001E-04-7.76903E-15
 -1      3437 1.56746E-03 3.06792E-04-1.20940E-15
 -1      3438 1.42271E-03 2.95089E-04-1.00320E-15
 -1      3439 1.37404E-03 2.66806E-04-9.77883E-16
 -1      3440 1.62336E-03 2.78064E-04-1.35706E-15
 -1      3441 3.76976E-03-3.50603E-04-8.37803E-15
 -1      3442 6.40958E-03 3.82050E-04-1.81769E-14
 -1      3443 6.54760E-03 3.15923E-04-1.89067E-14
 -1      3444 8.14914E-03-4.43435E-04-2.46923E-14
 -1      3445 8.07914E-03-4.40838E-04-2.39480E-14
 -1      3446 8.06983E-03-4.65703E-04-2.42998E-14
 -1      3447 6.22085E-03 4.89528E-04-1.72757E-14
 -1      3448 9.94474E-04-7.63982E-05-7.32568E-16
 -1      3449 9.99987E-04-9.88993E-05-7.29831E-16
 -1      3450 7.79959E-03-4.99633E-04-2.24689E-14
 -1      3451 7.66889E-03-5.48239E-04-2.20689E-14
 -1      3452 7.71228E-03-5.80516E-04-2.28140E-14
 -1      3453 7.89628E-03-5.00164E-04-2.33116E-14
 -1      3454 1.12042E-03-1.19217E-04-8.82703E-16
 -1      3455 1.00708E-03-1.22478E-04-7.24925E-16
 -1      3456 1.01564E-03-1.47439E-04-7.17661E-16
 -1      3457 6.31388E-03 4.85503E-04-1.80045E-14
 -1      3458 8.16122E-03-4.07980E-04-2.49909E-14
 -1      3459 8.19523E-03-4.25602E-04-2.51548E-14
 -1      3460 4.75552E-03-8.36757E-04-1.07381E-14
 -1      3461 3.64877E-03-3.22541E-04-7.92728E-15
 -1      3462 2.10374E-03-2.29631E-04-2.65743E-15
 -1      3463 2.23959E-03-2.32244E-04-2.99964E-15
 -1      3464 2.37429E-03-2.34750E-04-3.36267E-15
 -1      3465 2.50800E-03-2.37269E-04-3.74738E-15
 -1      3466 2.28297E-03-2.05097E-04-3.19348E-15
 -1      3467 2.64040E-03-2.40308E-04-4.15213E-15
 -1      3468 2.77187E-03-2.43999E-04-4.57798E-15
 -1      3469 2.54453E-03-2.10336E-04-3.96222E-15
 -1      3470 2.90207E-03-2.48815E-04-5.02429E-15
 -1      3471 3.03181E-03-2.55049E-04-5.49112E-15
 -1      3472 2.79934E-03-2.17267E-04-4.81344E-15
 -1      3473 3.16063E-03-2.63135E-04-5.97862E-15
 -1      3474 3.29027E-03-2.73698E-04-6.48600E-15
 -1      3475 3.04696E-03-2.27840E-04-5.74673E-15
 -1      3476 3.39977E-03-2.85666E-04-6.91924E-15
 -1      3477 3.53336E-03-3.03005E-04-7.46405E-15
 -1      3478 3.47377E-03-2.65577E-04-7.55776E-15
 -1      3479 3.26958E-03-2.43478E-04-6.66817E-15
 -1      3480 8.07930E-03-5.57886E-04-2.55131E-14
 -1      3481 8.20894E-03-5.70141E-04-2.66785E-14
 -1      3482 8.33677E-03-5.85603E-04-2.78681E-14
 -1      3483 8.46501E-03-6.03572E-04-2.90806E-14
 -1      3484 8.30522E-03-5.45221E-04-2.72814E-14
 -1      3485 8.59317E-03-6.23729E-04-3.03170E-14
 -1      3486 8.72241E-03-6.45756E-04-3.15778E-14
 -1      3487 8.54673E-03-5.84245E-04-2.97070E-14
 -1      3488 8.85235E-03-6.69291E-04-3.28629E-14
 -1      3489 8.98356E-03-6.94239E-04-3.41716E-14
 -1      3490 8.79487E-03-6.29145E-04-3.22272E-14
 -1      3491 9.11572E-03-7.20229E-04-3.55024E-14
 -1      3492 9.24910E-03-7.47224E-04-3.68589E-14
 -1      3493 9.04984E-03-6.78699E-04-3.48437E-14
 -1      3494 9.38343E-03-7.74888E-04-3.82374E-14
 -1      3495 9.51882E-03-8.03201E-04-3.96387E-14
 -1      3496 9.31103E-03-7.31772E-04-3.75539E-14
 -1      3497 9.65506E-03-8.31885E-04-4.10606E-14
 -1      3498 9.79219E-03-8.60925E-04-4.25056E-14
 -1      3499 9.57755E-03-7.87258E-04-4.03541E-14
 -1      3500 9.93002E-03-8.90108E-04-4.39707E-14
 -1      3501 1.00686E-02-9.19425E-04-4.54565E-14
 -1      3502 9.84850E-03-8.44175E-04-4.32418E-14
 -1      3503 1.02077E-02-9.48724E-04-4.69609E-14
 -1      3504 1.03473E-02-9.78002E-04-4.84834E-14
 -1      3505 1.01230E-02-9.01726E-04-4.62114E-14
 -1      3506 1.04874E-02-1.00715E-03-5.00260E-14
 -1      3507 1.06280E-02-1.03619E-03-5.15879E-14
 -1      3508 1.04004E-02-9.59325E-04-4.92566E-14
 -1      3509 1.07688E-02-1.06504E-03-5.31688E-14
 -1      3510 1.09100E-02-1.09371E-03-5.47682E-14
 -1      3511 1.06799E-02-1.01658E-03-5.23770E-14
 -1      3512 1.10515E-02-1.12218E-03-5.63878E-14
 -1      3513 1.11931E-02-1.15044E-03-5.80285E-14
 -1      3514 1.09611E-02-1.07325E-03-5.55740E-14
 -1      3515 1.13350E-02-1.17849E-03-5.96885E-14
 -1      3516 1.14771E-02-1.20634E-03-6.13659E-14
 -1      3517 1.12436E-02-1.12922E-03-5.88515E-14
 -1      3518 1.16192E-02-1.23398E-03-6.30592E-14
 -1      3519 1.17616E-02-1.26143E-03-6.47656E-14
 -1      3520 1.15271E-02-1.18447E-03-6.22036E-14
 -1      3521 1.19040E-02-1.28870E-03-6.64855E-14
 -1      3522 1.20465E-02-1.31580E-03-6.82212E-14
 -1      3523 1.18112E-02-1.23903E-03-6.56159E-14
 -1      3524 1.21890E-02-1.34274E-03-6.99669E-14
 -1      3525 1.23317E-02-1.36953E-03-7.17251E-14
 -1      3526 1.20959E-02-1.29296E-03-6.90847E-14
 -1      3527 1.24744E-02-1.39619E-03-7.34947E-14
 -1      3528 1.26171E-02-1.42272E-03-7.52742E-14
 -1      3529 1.23810E-02-1.34633E-03-7.26003E-14
 -1      3530 1.27599E-02-1.44914E-03-7.70648E-14
 -1      3531 1.29026E-02-1.47545E-03-7.88661E-14
 -1      3532 1.26663E-02-1.39923E-03-7.61611E-14
 -1      3533 1.30455E-02-1.50168E-03-8.06804E-14
 -1      3534 1.31883E-02-1.52783E-03-8.25044E-14
 -1      3535 1.29518E-02-1.45174E-03-7.97627E-14
 -1      3536 1.33311E-02-1.55390E-03-8.43366E-14
 -1      3537 1.34740E-02-1.57991E-03-8.61805E-14
 -1      3538 1.32374E-02-1.50395E-03-8.34095E-14
 -1      3539 1.36168E-02-1.60587E-03-8.80338E-14
 -1      3540 1.37597E-02-1.63178E-03-8.98956E-14
 -1      3541 1.35230E-02-1.55590E-03-8.70944E-14
 -1      3542 1.38729E-02-1.64855E-03-9.14098E-14
 -1      3543 1.40158E-02-1.67440E-03-9.32858E-14
 -1      3544 1.40055E-02-1.63205E-03-9.34894E-14
 -1      3545 1.37791E-02-1.59858E-03-9.04596E-14
 -1      3546 5.51262E-03 7.39785E-04-1.37409E-14
 -1      3547 5.63267E-03 7.23688E-04-1.43499E-14
 -1      3548 4.45572E-03 5.01318E-04-9.29695E-15
 -1      3549 4.27679E-03 4.53171E-04-8.67209E-15
 -1      3550 4.09949E-03 4.12045E-04-8.07121E-15
 -1      3551 3.92660E-03 3.77369E-04-7.49394E-15
 -1      3552 4.15404E-03 3.71239E-04-8.42375E-15
 -1      3553 5.18676E-03 7.08526E-04-1.21830E-14
 -1      3554 5.01469E-03 6.65025E-04-1.14427E-14
 -1      3555 6.49363E-03 4.03765E-04-1.89931E-14
 -1      3556 6.95666E-03 1.86188E-04-2.15141E-14
 -1      3557 6.77685E-03 2.58562E-04-2.04563E-14
 -1      3558 7.55068E-03 2.45801E-05-2.56480E-14
 -1      3559 7.38694E-03 7.17527E-05-2.44956E-14
 -1      3560 7.86680E-03-5.51079E-05-2.80269E-14
 -1      3561 7.71061E-03-1.71950E-05-2.68254E-14
 -1      3562 7.68584E-03-4.76256E-05-2.63065E-14
 -1      3563 8.17051E-03-1.20692E-04-3.05035E-14
 -1      3564 8.02000E-03-8.92455E-05-2.92527E-14
 -1      3565 7.99463E-03-1.17952E-04-2.87100E-14
 -1      3566 8.46556E-03-1.76858E-04-3.30728E-14
 -1      3567 8.31890E-03-1.49651E-04-3.17761E-14
 -1      3568 8.29131E-03-1.76477E-04-3.12094E-14
 -1      3569 8.75511E-03-2.26988E-04-3.57375E-14
 -1      3570 8.61085E-03-2.02485E-04-3.43944E-14
 -1      3571 8.58033E-03-2.27898E-04-3.38026E-14
 -1      3572 9.04144E-03-2.73424E-04-3.84910E-14
 -1      3573 8.89855E-03-2.50540E-04-3.71030E-14
 -1      3574 8.86492E-03-2.75057E-04-3.64882E-14
 -1      3575 9.32608E-03-3.17818E-04-4.13343E-14
 -1      3576 9.18389E-03-2.95792E-04-3.99022E-14
 -1      3577 9.14730E-03-3.19826E-04-3.92626E-14
 -1      3578 9.61000E-03-3.61323E-04-4.42607E-14
 -1      3579 9.46808E-03-3.39628E-04-4.27873E-14
 -1      3580 9.42883E-03-3.63463E-04-4.21267E-14
 -1      3581 9.89376E-03-4.04718E-04-4.72649E-14
 -1      3582 9.75186E-03-3.83001E-04-4.57524E-14
 -1      3583 9.71033E-03-4.06808E-04-4.50720E-14
 -1      3584 1.01777E-02-4.48505E-04-5.03470E-14
 -1      3585 1.00357E-02-4.26544E-04-4.87959E-14
 -1      3586 9.99222E-03-4.50413E-04-4.80936E-14
 -1      3587 1.04618E-02-4.92980E-04-5.35087E-14
 -1      3588 1.03197E-02-4.70648E-04-5.19188E-14
 -1      3589 1.02747E-02-4.94616E-04-5.11951E-14
 -1      3590 1.07463E-02-5.38291E-04-5.67449E-14
 -1      3591 1.06040E-02-5.15529E-04-5.51165E-14
 -1      3592 1.05578E-02-5.39601E-04-5.43723E-14
 -1      3593 1.10311E-02-5.84478E-04-6.00600E-14
 -1      3594 1.08887E-02-5.61277E-04-5.83932E-14
 -1      3595 1.08415E-02-5.85440E-04-5.76271E-14
 -1      3596 1.13161E-02-6.31516E-04-6.34426E-14
 -1      3597 1.11736E-02-6.07895E-04-6.17438E-14
 -1      3598 1.11257E-02-6.32132E-04-6.09561E-14
 -1      3599 1.16014E-02-6.79336E-04-6.68894E-14
 -1      3600 1.14587E-02-6.55334E-04-6.51589E-14
 -1      3601 1.14103E-02-6.79624E-04-6.43562E-14
 -1      3602 1.18868E-02-7.27848E-04-7.03983E-14
 -1      3603 1.17440E-02-7.03512E-04-6.86367E-14
 -1      3604 1.16953E-02-7.27838E-04-6.78166E-14
 -1      3605 1.21723E-02-7.76953E-04-7.39648E-14
 -1      3606 1.20295E-02-7.52333E-04-7.21750E-14
 -1      3607 1.19805E-02-7.76681E-04-7.13384E-14
 -1      3608 1.24579E-02-8.26553E-04-7.75787E-14
 -1      3609 1.23151E-02-8.01697E-04-7.57659E-14
 -1      3610 1.22659E-02-8.26056E-04-7.49164E-14
 -1      3611 1.27436E-02-8.76554E-04-8.12287E-14
 -1      3612 1.26007E-02-8.51508E-04-7.93993E-14
 -1      3613 1.25514E-02-8.75872E-04-7.85377E-14
 -1      3614 1.30293E-02-9.26873E-04-8.49061E-14
 -1      3615 1.28864E-02-9.01678E-04-8.30661E-14
 -1      3616 1.28370E-02-9.26041E-04-8.21943E-14
 -1      3617 1.33150E-02-9.77434E-04-8.85942E-14
 -1      3618 1.31721E-02-9.52127E-04-8.67476E-14
 -1      3619 1.31227E-02-9.76488E-04-8.58737E-14
 -1      3620 1.36008E-02-1.02817E-03-9.22930E-14
 -1      3621 1.34579E-02-1.00278E-03-9.04434E-14
 -1      3622 1.34084E-02-1.02715E-03-8.95655E-14
 -1      3623 1.39319E-02-1.12074E-03-9.63528E-14
 -1      3624 1.39172E-02-1.08643E-03-9.63876E-14
 -1      3625 1.38271E-02-1.06754E-03-9.52376E-14
 -1      3626 1.38206E-02-1.11956E-03-9.47721E-14
 -1      3627 8.05071E-03-3.69750E-04-2.47949E-14
 -1      3628 8.11541E-03-3.90764E-04-2.48951E-14
 -1      3629 8.21016E-03-4.09846E-04-2.58902E-14
 -1      3630 1.94626E-03 2.55397E-04-2.00800E-15
 -1      3631 1.80296E-03 2.50678E-04-1.73562E-15
 -1      3632 1.10492E-03-2.06977E-04-7.81466E-16
 -1      3633 7.87709E-03-5.66394E-04-2.39863E-14
 -1      3634 9.87992E-04-3.35239E-05-7.31904E-16
 -1      3635 9.90458E-04-5.46988E-05-7.33287E-16
 -1      3636 1.10773E-03-7.09518E-05-8.88910E-16
 -1      3637 3.21584E-03-1.44350E-04-7.41004E-15
 -1      3638 3.25263E-03-1.26403E-04-7.44603E-15
 -1      3639 1.55246E-03-2.10797E-04-1.49994E-15
 -1      3640 1.69124E-03-2.17304E-04-1.75784E-15
 -1      3641 1.38815E-02-1.43785E-03-9.32597E-14
 -1      3642 1.38563E-02-1.39581E-03-9.32256E-14
 -1      3643 4.86901E-03 6.10056E-04-1.08742E-14
 -1      3644 4.68828E-03 5.52803E-04-1.01881E-14
 -1      3645 3.41631E-03-2.36677E-04-7.61794E-15
 -1      3646 3.33040E-03-2.02955E-04-7.62563E-15
 -1      3647 3.24495E-03-1.86981E-04-7.27576E-15
 -1      3648 3.32316E-03-2.27202E-04-7.16594E-15
 -1      3649 3.11959E-03 2.86974E-04-4.94847E-15
 -1      3650 2.96791E-03 2.79600E-04-4.50538E-15
 -1      3651 1.82944E-03-2.22455E-04-2.03633E-15
 -1      3652 1.96704E-03-2.26412E-04-2.33618E-15
 -1      3653 2.01569E-03-1.99616E-04-2.50803E-15
 -1      3654 7.38283E-03-9.09463E-05-2.28393E-14
 -1      3655 7.52096E-03-1.54593E-04-2.33648E-14
 -1      3656 3.75718E-03 3.49586E-04-6.94001E-15
 -1      3657 3.59239E-03 3.27187E-04-6.40819E-15
 -1      3658 3.80472E-03 3.05288E-04-7.27027E-15
 -1      3659 1.27284E-03 2.00505E-04-9.30950E-16
 -1      3660 1.26036E-03 1.69225E-04-9.55846E-16
 -1      3661 2.86444E-03 2.35076E-04-4.34327E-15
 -1      3662 2.81835E-03 2.74310E-04-4.08469E-15
 -1      3663 2.67051E-03 2.70310E-04-3.68512E-15
 -1      3664 1.38670E-02-1.57345E-03-9.19521E-14
 -1      3665 1.39802E-02-1.59015E-03-9.34673E-14
 -1      3666 1.39550E-02-1.54826E-03-9.34417E-14
 -1      3667 8.00580E-03-5.24150E-04-2.45646E-14
 -1      3668 1.34149E-03-1.98905E-04-1.14741E-15
 -1      3669 1.44707E-03-2.05397E-04-1.31785E-15
 -1      3670 1.50280E-03-1.82042E-04-1.44768E-15
 -1      3671 1.23354E-03-1.13713E-04-1.05611E-15
 -1      3672 1.24265E-03-1.40216E-04-1.05019E-15
 -1      3673 1.09096E-03-1.84202E-04-7.85789E-16
 -1      3674 7.27318E-03-2.23681E-05-2.25653E-14
 -1      3675 1.12546E-03 1.18235E-04-8.25566E-16
 -1      3676 5.32048E-03 7.38929E-04-1.27953E-14
 -1      3677 5.48420E-03 7.48414E-04-1.35941E-14
 -1      3678 7.13161E-03 1.44744E-04-2.27386E-14
 -1      3679 7.19544E-03 5.21371E-05-2.25845E-14
 -1      3680 7.43012E-03-4.74914E-05-2.38235E-14
 -1      3681 7.30188E-03 8.84643E-05-2.38501E-14
 -1      3682 7.44366E-03 7.10456E-06-2.44868E-14
 -1      3683 1.36843E-02-1.09903E-03-9.29760E-14
 -1      3684 1.36876E-02-1.07304E-03-9.32103E-14
 -1      3685 1.37370E-02-1.04867E-03-9.40865E-14
 -1      3686 8.01063E-03-3.44490E-04-2.51318E-14
 -1      3687 8.13464E-03-3.69046E-04-2.61358E-14
 -1      3688 7.96852E-03-3.13168E-04-2.54659E-14
 -1      3689 1.10210E-03-2.52695E-05-8.85780E-16
 -1      3690 1.38312E-02-1.35403E-03-9.31879E-14
 -1      3691 1.38062E-02-1.31225E-03-9.31470E-14
 -1      3692 1.37201E-02-1.35286E-03-9.15925E-14
 -1      3693 5.75325E-03 7.20310E-04-1.50002E-14
 -1      3694 2.08986E-03 2.59084E-04-2.30131E-15
 -1      3695 1.99959E-03 2.23407E-04-2.19032E-15
 -1      3696 2.23395E-03 2.62034E-04-2.61564E-15
 -1      3697 1.23159E-03 8.41110E-05-1.01275E-15
 -1      3698 1.22525E-03 5.82186E-05-1.02663E-15
 -1      3699 1.39308E-02-1.51399E-03-9.33686E-14
 -1      3700 1.39056E-02-1.47211E-03-9.33395E-14
 -1      3701 1.37693E-02-1.42884E-03-9.17055E-14
 -1      3702 1.38176E-02-1.49733E-03-9.18561E-14
 -1      3703 3.55813E-03-4.11048E-05-8.01579E-15
 -1      3704 3.60922E-03-4.30578E-06-7.96482E-15
 -1      3705 3.44737E-03-5.63509E-05-7.67998E-15
 -1      3706 3.94071E-03 9.62151E-05-8.73551E-15
 -1      3707 4.00702E-03 1.51725E-04-8.71891E-15
 -1      3708 3.80312E-03 7.21428E-05-8.29054E-15
 -1      3709 8.28372E-03-4.44354E-04-2.63592E-14
 -1      3710 8.22190E-03-4.43206E-04-2.55215E-14
 -1      3711 8.23950E-03-4.62742E-04-2.58864E-14
 -1      3712 7.65488E-03-1.68873E-04-2.45789E-14
 -1      3713 7.66564E-03-2.04238E-04-2.41364E-14
 -1      3714 7.80331E-03-2.45955E-04-2.49189E-14
 -1      3715 3.27394E-03 2.96754E-04-5.41342E-15
 -1      3716 3.16409E-03 2.45261E-04-5.23178E-15
 -1      3717 3.43127E-03 3.10079E-04-5.89955E-15
 -1      3718 3.18142E-03-1.50589E-04-7.21149E-15
 -1      3719 3.13554E-03-1.33741E-04-6.89778E-15
 -1      3720 3.15727E-03-1.56815E-04-7.01324E-15
 -1      3721 1.74402E-03-1.91803E-04-1.90752E-15
 -1      3722 3.27437E-03-1.10862E-04-7.40847E-15
 -1      3723 3.30241E-03-9.26015E-05-7.36898E-15
 -1      3724 3.19223E-03-1.12421E-04-7.05498E-15
 -1      3725 1.67913E-03 2.49108E-04-1.50995E-15
 -1      3726 1.55526E-03 2.46091E-04-1.30054E-15
 -1      3727 1.73459E-03 2.19904E-04-1.66750E-15
 -1      3728 1.22636E-03-8.83088E-05-1.05929E-15
 -1      3729 1.34634E-03-1.06477E-04-1.24434E-15
 -1      3730 1.22121E-03-6.36489E-05-1.05998E-15
 -1      3731 1.36962E-02-1.13941E-03-9.28536E-14
 -1      3732 1.35632E-02-1.09291E-03-9.12938E-14
 -1      3733 1.33909E-03 4.71290E-05-1.21502E-15
 -1      3734 1.22060E-03 3.30943E-05-1.03822E-15
 -1      3735 1.21783E-03 8.58176E-06-1.04733E-15
 -1      3736 6.56355E-03 3.36818E-04-1.91796E-14
 -1      3737 6.68461E-03 2.56548E-04-1.96729E-14
 -1      3738 4.56962E-03 4.67355E-04-9.90612E-15
 -1      3739 1.37213E-02-1.18148E-03-9.29071E-14
 -1      3740 4.31243E-03 2.83079E-04-9.43948E-15
 -1      3741 4.40075E-03 3.64175E-04-9.50952E-15
 -1      3742 2.19649E-03-1.76729E-04-3.02515E-15
 -1      3743 2.32670E-03-1.79371E-04-3.38876E-15
 -1      3744 1.32650E-03 2.39595E-04-9.51076E-16
 -1      3745 1.44225E-03 2.32097E-04-1.14004E-15
 -1      3746 2.45497E-03-1.82238E-04-3.77338E-15
 -1      3747 2.58127E-03-1.85233E-04-4.17837E-15
 -1      3748 2.37127E-03-1.55102E-04-3.58540E-15
 -1      3749 2.70512E-03-1.88802E-04-4.60405E-15
 -1      3750 2.82665E-03-1.92804E-04-5.05005E-15
 -1      3751 2.61890E-03-1.61968E-04-4.39536E-15
 -1      3752 2.94489E-03-1.97949E-04-5.51626E-15
 -1      3753 3.06064E-03-2.03588E-04-6.00292E-15
 -1      3754 2.85437E-03-1.70849E-04-5.28660E-15
 -1      3755 3.14536E-03-2.11123E-04-6.36022E-15
 -1      3756 3.23951E-03-2.18094E-04-6.78780E-15
 -1      3757 3.20371E-03-1.96762E-04-6.84291E-15
 -1      3758 3.04679E-03-1.82817E-04-6.11299E-15
 -1      3759 8.27667E-03-5.08473E-04-2.66961E-14
 -1      3760 8.38791E-03-5.27609E-04-2.78850E-14
 -1      3761 8.12151E-03-1.76834E-04-2.93940E-14
 -1      3762 7.97353E-03-1.47748E-04-2.81683E-14
 -1      3763 1.20509E-03-1.81301E-04-9.52959E-16
 -1      3764 8.50156E-03-5.47601E-04-2.90976E-14
 -1      3765 8.61860E-03-5.69089E-04-3.03335E-14
 -1      3766 8.45675E-03-5.13856E-04-2.84893E-14
 -1      3767 8.73802E-03-5.91370E-04-3.15949E-14
 -1      3768 8.86016E-03-6.14920E-04-3.28790E-14
 -1      3769 8.68104E-03-5.55999E-04-3.09621E-14
 -1      3770 8.98442E-03-6.39222E-04-3.41865E-14
 -1      3771 9.11086E-03-6.64532E-04-3.55175E-14
 -1      3772 8.91884E-03-6.01791E-04-3.35308E-14
 -1      3773 9.23909E-03-6.90443E-04-3.68718E-14
 -1      3774 9.36908E-03-7.17101E-04-3.82498E-14
 -1      3775 9.16712E-03-6.50892E-04-3.61918E-14
 -1      3776 9.50054E-03-7.44179E-04-3.96497E-14
 -1      3777 9.63343E-03-7.71752E-04-4.10706E-14
 -1      3778 9.42364E-03-7.02639E-04-3.89445E-14
 -1      3779 9.76750E-03-7.99562E-04-4.25141E-14
 -1      3780 9.90271E-03-8.27655E-04-4.39792E-14
 -1      3781 9.68672E-03-7.56271E-04-4.17868E-14
 -1      3782 1.00389E-02-8.55836E-04-4.54621E-14
 -1      3783 1.01759E-02-8.84133E-04-4.69656E-14
 -1      3784 9.95502E-03-8.11064E-04-4.47143E-14
 -1      3785 1.03138E-02-9.12406E-04-4.84875E-14
 -1      3786 1.04523E-02-9.40680E-04-5.00269E-14
 -1      3787 1.02275E-02-8.66421E-04-4.77195E-14
 -1      3788 1.05914E-02-9.68853E-04-5.15872E-14
 -1      3789 1.07310E-02-9.96951E-04-5.31670E-14
 -1      3790 1.05032E-02-9.21896E-04-5.07996E-14
 -1      3791 1.08711E-02-1.02491E-03-5.47638E-14
 -1      3792 1.10117E-02-1.05274E-03-5.63798E-14
 -1      3793 1.07814E-02-9.77186E-04-5.39543E-14
 -1      3794 1.11525E-02-1.08042E-03-5.80163E-14
 -1      3795 1.12937E-02-1.10795E-03-5.96742E-14
 -1      3796 1.10617E-02-1.03211E-03-5.71860E-14
 -1      3797 1.14352E-02-1.13532E-03-6.13495E-14
 -1      3798 1.15768E-02-1.16256E-03-6.30388E-14
 -1      3799 1.13435E-02-1.08656E-03-6.04957E-14
 -1      3800 1.17187E-02-1.18963E-03-6.47465E-14
 -1      3801 1.18608E-02-1.21657E-03-6.64670E-14
 -1      3802 1.16264E-02-1.14053E-03-6.38749E-14
 -1      3803 1.20030E-02-1.24338E-03-6.81997E-14
 -1      3804 1.21453E-02-1.27006E-03-6.99469E-14
 -1      3805 1.19102E-02-1.19402E-03-6.73166E-14
 -1      3806 1.22877E-02-1.29662E-03-7.17050E-14
 -1      3807 1.24302E-02-1.32308E-03-7.34757E-14
 -1      3808 1.21946E-02-1.24708E-03-7.08087E-14
 -1      3809 1.25728E-02-1.34943E-03-7.52566E-14
 -1      3810 1.27155E-02-1.37570E-03-7.70462E-14
 -1      3811 1.24794E-02-1.29976E-03-7.43507E-14
 -1      3812 1.28582E-02-1.40189E-03-7.88469E-14
 -1      3813 1.30009E-02-1.42800E-03-8.06607E-14
 -1      3814 1.27646E-02-1.35212E-03-7.79308E-14
 -1      3815 1.31437E-02-1.45405E-03-8.24832E-14
 -1      3816 1.32865E-02-1.48004E-03-8.43151E-14
 -1      3817 1.30500E-02-1.40421E-03-8.15564E-14
 -1      3818 1.34293E-02-1.50598E-03-8.61560E-14
 -1      3819 1.35721E-02-1.53187E-03-8.80066E-14
 -1      3820 1.33356E-02-1.45610E-03-8.52197E-14
 -1      3821 1.36630E-02-1.54431E-03-8.92214E-14
 -1      3822 1.37762E-02-1.56105E-03-9.07292E-14
 -1      3823 1.37509E-02-1.51920E-03-9.07073E-14
 -1      3824 1.35692E-02-1.49440E-03-8.82745E-14
 -1      3825 1.37462E-02-1.22328E-03-9.29551E-14
 -1      3826 1.36000E-02-1.17503E-03-9.12185E-14
 -1      3827 1.37711E-02-1.26506E-03-9.30003E-14
 -1      3828 1.24923E-03 1.39491E-04-9.77476E-16
 -1      3829 1.23964E-03 1.11124E-04-9.96721E-16
 -1      3830 1.35356E-03 1.01865E-04-1.18369E-15
 -1      3831 1.37504E-03 1.61327E-04-1.14179E-15
 -1      3832 5.59162E-03 7.49611E-04-1.41463E-14
 -1      3833 8.24895E-03-4.08404E-04-2.66364E-14
 -1      3834 8.28928E-03-4.26947E-04-2.67348E-14
 -1      3835 7.59678E-03-5.30053E-05-2.53819E-14
 -1      3836 7.51696E-03-4.14309E-05-2.47237E-14
 -1      3837 7.58829E-03-1.07878E-04-2.47028E-14
 -1      3838 7.75458E-03-9.11480E-05-2.65514E-14
 -1      3839 8.69304E-03-2.76506E-04-3.45329E-14
 -1      3840 8.55217E-03-2.53180E-04-3.32125E-14
 -1      3841 8.97277E-03-3.21359E-04-3.72403E-14
 -1      3842 8.83311E-03-2.99140E-04-3.58769E-14
 -1      3843 8.80312E-03-3.22829E-04-3.52645E-14
 -1      3844 9.25143E-03-3.64990E-04-4.00349E-14
 -1      3845 9.11213E-03-3.43261E-04-3.86254E-14
 -1      3846 9.07834E-03-3.66103E-04-3.79918E-14
 -1      3847 9.53014E-03-4.08264E-04-4.29203E-14
 -1      3848 9.39071E-03-3.86634E-04-4.14677E-14
 -1      3849 9.35367E-03-4.09128E-04-4.08098E-14
 -1      3850 9.80950E-03-4.51739E-04-4.58835E-14
 -1      3851 9.66970E-03-4.29956E-04-4.43914E-14
 -1      3852 9.62992E-03-4.52419E-04-4.37143E-14
 -1      3853 1.00898E-02-4.95757E-04-4.89248E-14
 -1      3854 9.94951E-03-4.73671E-04-4.73948E-14
 -1      3855 9.90749E-03-4.96282E-04-4.66972E-14
 -1      3856 1.03711E-02-5.40517E-04-5.20437E-14
 -1      3857 1.02303E-02-5.18042E-04-5.04734E-14
 -1      3858 1.01865E-02-5.40890E-04-4.97568E-14
 -1      3859 1.06533E-02-5.86106E-04-5.52397E-14
 -1      3860 1.05121E-02-5.63210E-04-5.36327E-14
 -1      3861 1.04668E-02-5.86320E-04-5.28937E-14
 -1      3862 1.09363E-02-6.32536E-04-5.85109E-14
 -1      3863 1.07947E-02-6.09220E-04-5.68655E-14
 -1      3864 1.07483E-02-6.32584E-04-5.61077E-14
 -1      3865 1.12201E-02-6.79772E-04-6.18555E-14
 -1      3866 1.10781E-02-6.56060E-04-6.01742E-14
 -1      3867 1.10308E-02-6.79648E-04-5.93949E-14
 -1      3868 1.15044E-02-7.27743E-04-6.52693E-14
 -1      3869 1.13622E-02-7.03672E-04-6.35545E-14
 -1      3870 1.13142E-02-7.27449E-04-6.27551E-14
 -1      3871 1.17891E-02-7.76363E-04-6.87452E-14
 -1      3872 1.16467E-02-7.51978E-04-6.69988E-14
 -1      3873 1.15983E-02-7.75908E-04-6.61847E-14
 -1      3874 1.20742E-02-8.25542E-04-7.22790E-14
 -1      3875 1.19316E-02-8.00889E-04-7.05038E-14
 -1      3876 1.18828E-02-8.24937E-04-6.96732E-14
 -1      3877 1.23595E-02-8.75189E-04-7.58657E-14
 -1      3878 1.22168E-02-8.50313E-04-7.40667E-14
 -1      3879 1.21678E-02-8.74449E-04-7.32191E-14
 -1      3880 1.26449E-02-9.25218E-04-7.94967E-14
 -1      3881 1.25022E-02-9.00161E-04-7.76782E-14
 -1      3882 1.24530E-02-9.24362E-04-7.68182E-14
 -1      3883 1.29305E-02-9.75553E-04-8.31589E-14
 -1      3884 1.27877E-02-9.50351E-04-8.13226E-14
 -1      3885 1.27384E-02-9.74600E-04-8.04555E-14
 -1      3886 1.32162E-02-1.02613E-03-8.68408E-14
 -1      3887 1.30733E-02-1.00081E-03-8.49975E-14
 -1      3888 1.30240E-02-1.02509E-03-8.41219E-14
 -1      3889 1.34203E-02-1.06749E-03-8.94430E-14
 -1      3890 4.19242E-03 2.43453E-04-9.08018E-15
 -1      3891 1.49955E-03 2.06119E-04-1.27585E-15
 -1      3892 1.33709E-02-1.09180E-03-8.85637E-14
 -1      3893 1.37623E-03-1.54718E-04-1.25518E-15
 -1      3894 1.26341E-03-1.61323E-04-1.06341E-15
 -1      3895 2.52404E-03 2.67269E-04-3.30722E-15
 -1      3896 2.37859E-03 2.64629E-04-2.95101E-15
 -1      3897 2.57243E-03 2.30413E-04-3.54142E-15
 -1      3898 1.66190E-03-1.62353E-04-1.77991E-15
 -1      3899 1.79720E-03-1.66890E-04-2.05962E-15
 -1      3900 8.16855E-03-4.95324E-04-2.55769E-14
 -1      3901 8.07562E-03-4.98371E-04-2.48192E-14
 -1      3902 8.41029E-03-2.29077E-04-3.19171E-14
 -1      3903 8.26686E-03-2.03657E-04-3.06438E-14
 -1      3904 8.24579E-03-2.31394E-04-3.00797E-14
 -1      3905 8.52648E-03-2.78441E-04-3.26266E-14
 -1      3906 1.21696E-03-1.54781E-05-1.05389E-15
 -1      3907 1.21807E-03-3.94829E-05-1.05811E-15
 -1      3908 1.33493E-03-5.48473E-05-1.24548E-15
 -1      3909 1.33263E-03-4.43851E-06-1.23583E-15
 -1      3910 1.93152E-03-1.70699E-04-2.36021E-15
 -1      3911 2.06473E-03-1.73836E-04-2.68230E-15
 -1      3912 2.11452E-03-1.49089E-04-2.85792E-15
 -1      3913 4.04419E-03 2.04906E-04-8.62233E-15
 -1      3914 1.85099E-03-1.42553E-04-2.21414E-15
 -1      3915 2.90796E-03 1.95136E-04-4.60500E-15
 -1      3916 2.76278E-03 1.93753E-04-4.18090E-15
 -1      3917 1.36600E-02-1.26395E-03-9.14116E-14
 -1      3918 7.89099E-03-1.56559E-04-2.72101E-14
 -1      3919 3.54943E-03 1.26168E-05-7.61588E-15
 -1      3920 3.67229E-03 3.80825E-05-7.94940E-15
 -1      3921 3.73256E-03 8.44919E-05-7.93205E-15
 -1      3922 1.48506E-03 1.72862E-04-1.30461E-15
 -1      3923 1.47213E-03 1.41045E-04-1.32986E-15
 -1      3924 1.59581E-03 1.83890E-04-1.47876E-15
 -1      3925 6.62575E-03 3.50479E-04-1.97569E-14
 -1      3926 1.45893E-03 6.20408E-05-1.40521E-15
 -1      3927 1.45289E-03 3.44238E-05-1.41990E-15
 -1      3928 8.23371E-03-3.89663E-04-2.69903E-14
 -1      3929 8.32816E-03-4.09243E-04-2.78540E-14
 -1      3930 8.21287E-03-3.66542E-04-2.73391E-14
 -1      3931 7.72722E-03-1.56803E-04-2.54975E-14
 -1      3932 8.25086E-03-4.78909E-04-2.61593E-14
 -1      3933 7.95558E-03-2.84988E-04-2.59252E-14
 -1      3934 1.36089E-02-1.35152E-03-8.99996E-14
 -1      3935 1.35839E-02-1.30981E-03-8.99659E-14
 -1      3936 1.34208E-02-1.17524E-03-8.86557E-14
 -1      3937 1.33958E-02-1.13353E-03-8.86108E-14
 -1      3938 1.31917E-02-1.09209E-03-8.60096E-14
 -1      3939 2.28484E-03 2.27506E-04-2.82399E-15
 -1      3940 3.33594E-03-6.92870E-05-7.32256E-15
 -1      3941 3.37289E-03-4.22323E-05-7.27515E-15
 -1      3942 3.23533E-03-7.66267E-05-6.97344E-15
 -1      3943 1.46901E-03 1.15398E-04-1.36006E-15
 -1      3944 1.45924E-03 8.59852E-05-1.37972E-15
 -1      3945 1.57240E-03 7.30114E-05-1.59947E-15
 -1      3946 1.57714E-03 1.24050E-04-1.53992E-15
 -1      3947 1.36572E-02-1.41994E-03-9.01549E-14
 -1      3948 1.36330E-02-1.38573E-03-9.00779E-14
 -1      3949 1.34968E-02-1.34264E-03-8.84551E-14
 -1      3950 8.33647E-03-4.45770E-04-2.71171E-14
 -1      3951 8.37534E-03-4.64754E-04-2.74966E-14
 -1      3952 8.38767E-03-4.46532E-04-2.78818E-14
 -1      3953 3.05509E-03 1.97621E-04-5.05008E-15
 -1      3954 2.94860E-03 1.54361E-04-4.86922E-15
 -1      3955 3.20490E-03 2.02218E-04-5.51680E-15
 -1      3956 8.33367E-03-4.78240E-04-2.70107E-14
 -1      3957 3.47584E-03 2.66225E-04-6.20702E-15
 -1      3958 3.10356E-03-1.09932E-04-6.62877E-15
 -1      3959 3.11435E-03-9.57028E-05-6.59366E-15
 -1      3960 1.71760E-03 1.84523E-04-1.70163E-15
 -1      3961 4.28222E-03 3.57280E-04-9.00895E-15
 -1      3962 4.09926E-03 3.13264E-04-8.40047E-15
 -1      3963 1.46765E-03-1.57141E-04-1.41331E-15
 -1      3964 1.57111E-03-1.61263E-04-1.60153E-15
 -1      3965 1.62746E-03-1.38063E-04-1.73864E-15
 -1      3966 1.44639E-03-1.35566E-04-1.39651E-15
 -1      3967 3.83895E-03 1.55958E-04-7.99789E-15
 -1      3968 4.00897E-03 2.35125E-04-8.33906E-15
 -1      3969 3.89597E-03 2.61481E-04-7.78196E-15
 -1      3970 3.70880E-03 1.18909E-04-7.66378E-15
 -1      3971 3.18360E-03-1.82214E-04-6.90550E-15
 -1      3972 3.16253E-03-1.67312E-04-6.95519E-15
 -1      3973 3.09748E-03-1.51429E-04-6.65020E-15
 -1      3974 3.11063E-03-1.75664E-04-6.53455E-15
 -1      3975 3.05712E-03-1.18719E-04-6.44259E-15
 -1      3976 3.72618E-03 2.37125E-04-7.22159E-15
 -1      3977 1.43678E-03-1.07967E-04-1.40099E-15
 -1      3978 2.05242E-03 1.91360E-04-2.37691E-15
 -1      3979 1.91162E-03 1.89492E-04-2.07852E-15
 -1      3980 6.85840E-03 1.85589E-04-2.06497E-14
 -1      3981 1.77330E-03 1.55875E-04-1.86205E-15
 -1      3982 3.01781E-03-1.31895E-04-6.25532E-15
 -1      3983 2.97052E-03-1.09184E-04-6.00155E-15
 -1      3984 1.35199E-02-1.26606E-03-8.93823E-14
 -1      3985 1.34848E-02-1.21896E-03-8.92396E-14
 -1      3986 1.32807E-02-1.17740E-03-8.66357E-14
 -1      3987 1.34087E-02-1.26476E-03-8.77970E-14
 -1      3988 2.54000E-03-1.36265E-04-4.18753E-15
 -1      3989 2.65898E-03-1.40585E-04-4.61259E-15
 -1      3990 2.83180E-03-1.42747E-04-5.31901E-15
 -1      3991 2.93951E-03-1.48971E-04-5.79549E-15
 -1      3992 4.45780E-03 4.24771E-04-9.54136E-15
 -1      3993 8.43526E-03-4.97089E-04-2.82065E-14
 -1      3994 8.54215E-03-5.17335E-04-2.94247E-14
 -1      3995 8.41243E-03-4.81411E-04-2.79223E-14
 -1      3996 8.65348E-03-5.38037E-04-3.06675E-14
 -1      3997 8.76861E-03-5.59954E-04-3.19351E-14
 -1      3998 8.62484E-03-5.20868E-04-3.03729E-14
 -1      3999 8.88704E-03-5.82563E-04-3.32250E-14
 -1      4000 9.00834E-03-6.06163E-04-3.45381E-14
 -1      4001 8.85446E-03-5.63950E-04-3.29187E-14
 -1      4002 9.13220E-03-6.30412E-04-3.58748E-14
 -1      4003 9.25826E-03-6.55443E-04-3.72341E-14
 -1      4004 9.09673E-03-6.10437E-04-3.55573E-14
 -1      4005 9.38632E-03-6.80999E-04-3.86165E-14
 -1      4006 9.51612E-03-7.07117E-04-4.00206E-14
 -1      4007 9.34862E-03-6.59786E-04-3.82881E-14
 -1      4008 9.64749E-03-7.33595E-04-4.14488E-14
 -1      4009 9.78025E-03-7.60441E-04-4.28976E-14
 -1      4010 9.60802E-03-7.11289E-04-4.11088E-14
 -1      4011 9.91426E-03-7.87494E-04-4.43646E-14
 -1      4012 1.00494E-02-8.14754E-04-4.58528E-14
 -1      4013 9.87335E-03-7.64243E-04-4.40155E-14
 -1      4014 1.01855E-02-8.42099E-04-4.73599E-14
 -1      4015 1.03225E-02-8.69528E-04-4.88864E-14
 -1      4016 1.01434E-02-8.18049E-04-4.70013E-14
 -1      4017 1.04602E-02-8.96954E-04-5.04326E-14
 -1      4018 1.05987E-02-9.24379E-04-5.19962E-14
 -1      4019 1.04172E-02-8.72241E-04-5.00642E-14
 -1      4020 1.07377E-02-9.51742E-04-5.35779E-14
 -1      4021 1.08773E-02-9.79049E-04-5.51790E-14
 -1      4022 1.06940E-02-9.26487E-04-5.32004E-14
 -1      4023 1.10174E-02-1.00626E-03-5.67977E-14
 -1      4024 1.11578E-02-1.03339E-03-5.84376E-14
 -1      4025 1.09730E-02-9.80571E-04-5.64100E-14
 -1      4026 1.12987E-02-1.06040E-03-6.00985E-14
 -1      4027 1.14398E-02-1.08732E-03-6.17749E-14
 -1      4028 1.12539E-02-1.03437E-03-5.96996E-14
 -1      4029 1.15813E-02-1.11413E-03-6.34695E-14
 -1      4030 1.17229E-02-1.14083E-03-6.51796E-14
 -1      4031 1.15361E-02-1.08782E-03-6.30625E-14
 -1      4032 1.18648E-02-1.16743E-03-6.69029E-14
 -1      4033 1.20068E-02-1.19394E-03-6.86391E-14
 -1      4034 1.18194E-02-1.14092E-03-6.64885E-14
 -1      4035 1.21490E-02-1.22035E-03-7.03891E-14
 -1      4036 1.22913E-02-1.24668E-03-7.21523E-14
 -1      4037 1.21035E-02-1.19368E-03-6.99698E-14
 -1      4038 1.24337E-02-1.27293E-03-7.39260E-14
 -1      4039 1.25763E-02-1.29910E-03-7.57091E-14
 -1      4040 1.23881E-02-1.24613E-03-7.35017E-14
 -1      4041 1.27188E-02-1.32521E-03-7.75030E-14
 -1      4042 1.28615E-02-1.35125E-03-7.93077E-14
 -1      4043 1.26731E-02-1.29832E-03-7.70739E-14
 -1      4044 1.30042E-02-1.37724E-03-8.11225E-14
 -1      4045 1.31469E-02-1.40319E-03-8.29480E-14
 -1      4046 1.29584E-02-1.35030E-03-8.06883E-14
 -1      4047 1.32897E-02-1.42909E-03-8.47839E-14
 -1      4048 1.34325E-02-1.45495E-03-8.66255E-14
 -1      4049 1.32439E-02-1.40209E-03-8.43446E-14
 -1      4050 2.29307E-03-1.28691E-04-3.39872E-15
 -1      4051 2.41791E-03-1.32182E-04-3.78265E-15
 -1      4052 2.46738E-03-1.10525E-04-3.98092E-15
 -1      4053 9.45394E-03-4.52376E-04-4.15839E-14
 -1      4054 9.31749E-03-4.30836E-04-4.01525E-14
 -1      4055 8.91030E-03-3.67036E-04-3.59975E-14
 -1      4056 8.77484E-03-3.45884E-04-3.46551E-14
 -1      4057 9.72816E-03-4.96037E-04-4.45094E-14
 -1      4058 9.59080E-03-4.74116E-04-4.30369E-14
 -1      4059 9.55222E-03-4.95017E-04-4.23602E-14
 -1      4060 1.00043E-02-5.40527E-04-4.75117E-14
 -1      4061 9.86597E-03-5.18184E-04-4.60006E-14
 -1      4062 9.82487E-03-5.39344E-04-4.53067E-14
 -1      4063 1.02822E-02-5.85879E-04-5.05899E-14
 -1      4064 1.01430E-02-5.63104E-04-4.90422E-14
 -1      4065 1.00999E-02-5.84651E-04-4.83288E-14
 -1      4066 1.05618E-02-6.32078E-04-5.37457E-14
 -1      4067 1.04218E-02-6.08882E-04-5.21574E-14
 -1      4068 1.03771E-02-6.30864E-04-5.14253E-14
 -1      4069 1.08428E-02-6.79076E-04-5.69757E-14
 -1      4070 1.07021E-02-6.55486E-04-5.53522E-14
 -1      4071 1.06562E-02-6.77897E-04-5.45987E-14
 -1      4072 1.11250E-02-7.26805E-04-6.02812E-14
 -1      4073 1.09838E-02-7.02858E-04-5.86193E-14
 -1      4074 1.09369E-02-7.25661E-04-5.78468E-14
 -1      4075 1.14081E-02-7.75187E-04-6.36575E-14
 -1      4076 1.12665E-02-7.50923E-04-6.19611E-14
 -1      4077 1.12189E-02-7.74067E-04-6.11697E-14
 -1      4078 1.16920E-02-8.24138E-04-6.71020E-14
 -1      4079 1.15500E-02-7.99599E-04-6.53707E-14
 -1      4080 1.15019E-02-8.23028E-04-6.45610E-14
 -1      4081 1.19765E-02-8.73572E-04-7.06046E-14
 -1      4082 1.18342E-02-8.48801E-04-6.88454E-14
 -1      4083 1.17856E-02-8.72462E-04-6.80194E-14
 -1      4084 1.22614E-02-9.23412E-04-7.41619E-14
 -1      4085 1.21189E-02-8.98447E-04-7.23769E-14
 -1      4086 1.20700E-02-9.22290E-04-7.15374E-14
 -1      4087 1.25465E-02-9.73584E-04-7.77692E-14
 -1      4088 1.24039E-02-9.48461E-04-7.59599E-14
 -1      4089 1.23549E-02-9.72444E-04-7.51057E-14
 -1      4090 1.28320E-02-1.02402E-03-8.14120E-14
 -1      4091 1.26892E-02-9.98773E-04-7.95868E-14
 -1      4092 1.26401E-02-1.02286E-03-7.87183E-14
 -1      4093 1.30832E-02-1.07069E-03-8.46257E-14
 -1      4094 1.29404E-02-1.04536E-03-8.27893E-14
 -1      4095 1.28912E-02-1.06951E-03-8.19125E-14
 -1      4096 1.31082E-02-1.11231E-03-8.46710E-14
 -1      4097 7.88528E-03-1.95448E-04-2.66374E-14
 -1      4098 7.94392E-03-2.47275E-04-2.65038E-14
 -1      4099 8.09462E-03-3.11458E-04-2.70690E-14
 -1      4100 8.09302E-03-2.41733E-04-2.82514E-14
 -1      4101 2.03683E-03-1.22098E-04-2.69293E-15
 -1      4102 2.16595E-03-1.25274E-04-3.03551E-15
 -1      4103 2.21955E-03-1.02349E-04-3.21416E-15
 -1      4104 2.61917E-03 1.93272E-04-3.77838E-15
 -1      4105 2.47655E-03 1.93057E-04-3.39671E-15
 -1      4106 2.66406E-03 1.55778E-04-4.01831E-15
 -1      4107 1.37161E-02-1.48667E-03-9.04699E-14
 -1      4108 1.36920E-02-1.45245E-03-9.03967E-14
 -1      4109 1.35557E-02-1.40930E-03-8.87733E-14
 -1      4110 1.36253E-02-1.47429E-03-8.92516E-14
 -1      4111 3.62572E-03 1.63374E-04-7.14245E-15
 -1      4112 3.54722E-03 2.12963E-04-6.65790E-15
 -1      4113 9.18148E-03-4.09446E-04-3.87456E-14
 -1      4114 9.04575E-03-3.88196E-04-3.73608E-14
 -1      4115 9.28206E-03-4.51733E-04-3.95010E-14
 -1      4116 1.77396E-03-1.15226E-04-2.07015E-15
 -1      4117 1.90608E-03-1.18743E-04-2.37093E-15
 -1      4118 1.96284E-03-9.53876E-05-2.52959E-15
 -1      4119 1.56104E-03-1.11834E-04-1.63091E-15
 -1      4120 1.65084E-03-1.12368E-04-1.80990E-15
 -1      4121 1.70989E-03-8.95823E-05-1.94904E-15
 -1      4122 1.46337E-03-8.38622E-05-1.46285E-15
 -1      4123 1.56658E-03 2.04960E-05-1.64026E-15
 -1      4124 1.44911E-03 7.64508E-06-1.43124E-15
 -1      4125 1.44777E-03-1.86946E-05-1.43975E-15
 -1      4126 2.33475E-03 1.92893E-04-3.03560E-15
 -1      4127 2.19339E-03 1.92413E-04-2.69552E-15
 -1      4128 2.10467E-03 1.59270E-04-2.56696E-15
 -1      4129 3.38946E-03 2.01474E-04-6.14230E-15
 -1      4130 3.03046E-03-7.73880E-05-6.14185E-15
 -1      4131 3.13031E-03-7.76596E-05-6.55163E-15
 -1      4132 3.15107E-03-5.73162E-05-6.50763E-15
 -1      4133 1.76727E-03 1.27693E-04-1.89941E-15
 -1      4134 2.76381E-03-1.17893E-04-5.08386E-15
 -1      4135 3.02965E-03-1.56137E-04-6.22969E-15
 -1      4136 2.15653E-03 1.27299E-04-2.76152E-15
 -1      4137 2.01897E-03 1.28078E-04-2.43833E-15
 -1      4138 3.42314E-03-1.03238E-05-7.26123E-15
 -1      4139 3.47478E-03 2.58108E-05-7.24538E-15
 -1      4140 3.30661E-03-2.61040E-05-6.91478E-15
 -1      4141 8.47564E-03-4.83336E-04-2.87022E-14
 -1      4142 2.38356E-03 1.58189E-04-3.25109E-15
 -1      4143 1.35344E-02-1.46190E-03-8.80399E-14
 -1      4144 8.20944E-03-3.38272E-04-2.79428E-14
 -1      4145 3.53497E-03 1.00676E-04-7.08555E-15
 -1      4146 8.41793E-03-4.18238E-04-2.89518E-14
 -1      4147 8.42085E-03-4.36194E-04-2.85841E-14
 -1      4148 8.74822E-03-3.68327E-04-3.40473E-14
 -1      4149 8.63933E-03-3.24718E-04-3.33343E-14
 -1      4150 8.50330E-03-3.03302E-04-3.20399E-14
 -1      4151 1.45848E-03-5.73832E-05-1.46171E-15
 -1      4152 8.23203E-03-2.64588E-04-2.94767E-14
 -1      4153 8.22371E-03-2.97767E-04-2.88733E-14
 -1      4154 8.36946E-03-2.86826E-04-3.07262E-14
 -1      4155 2.70701E-03 1.18360E-04-4.26162E-15
 -1      4156 2.56889E-03 1.21068E-04-3.85546E-15
 -1      4157 1.89001E-03 1.14211E-04-2.17907E-15
 -1      4158 1.69739E-03 8.61804E-05-1.82395E-15
 -1      4159 1.69549E-03 6.05654E-05-1.85381E-15
 -1      4160 1.94545E-03 8.50481E-05-2.35314E-15
 -1      4161 8.47566E-03-4.57365E-04-2.89812E-14
 -1      4162 1.33861E-02-1.33881E-03-8.68934E-14
 -1      4163 1.33620E-02-1.30467E-03-8.68161E-14
 -1      4164 3.27131E-03 1.49214E-04-5.93805E-15
 -1      4165 9.01425E-03-4.09524E-04-3.67297E-14
 -1      4166 1.68791E-03 3.13530E-05-1.87094E-15
 -1      4167 1.68309E-03 2.93549E-06-1.88437E-15
 -1      4168 1.81010E-03 4.23930E-05-2.11621E-15
 -1      4169 2.80315E-03-1.01277E-04-5.25476E-15
 -1      4170 2.84979E-03-8.52691E-05-5.42505E-15
 -1      4171 2.62660E-03-9.71939E-05-4.55629E-15
 -1      4172 1.31872E-02-1.25719E-03-8.46874E-14
 -1      4173 1.32979E-02-1.26099E-03-8.62412E-14
 -1      4174 1.32339E-02-1.21734E-03-8.56636E-14
 -1      4175 1.34886E-02-1.43488E-03-8.75989E-14
 -1      4176 2.98572E-03 1.13316E-04-5.13600E-15
 -1      4177 2.84559E-03 1.15540E-04-4.68816E-15
 -1      4178 2.74779E-03 8.10387E-05-4.50737E-15
 -1      4179 1.32030E-02-1.18663E-03-8.54578E-14
 -1      4180 1.31390E-02-1.14301E-03-8.48787E-14
 -1      4181 1.30306E-02-1.12157E-03-8.34974E-14
 -1      4182 1.30923E-02-1.18290E-03-8.39099E-14
 -1      4183 3.07102E-03-3.72804E-05-6.09019E-15
 -1      4184 3.18524E-03-3.33243E-05-6.49613E-15
 -1      4185 3.22324E-03-6.11483E-06-6.48246E-15
 -1      4186 2.29389E-03 1.25759E-04-3.10509E-15
 -1      4187 2.20800E-03 9.55155E-05-2.95955E-15
 -1      4188 2.43139E-03 1.23651E-04-3.47000E-15
 -1      4189 3.03540E-03-1.68818E-04-6.17220E-15
 -1      4190 8.58168E-03-5.02389E-04-2.99311E-14
 -1      4191 8.69234E-03-5.22622E-04-3.11837E-14
 -1      4192 8.53738E-03-4.84723E-04-2.94902E-14
 -1      4193 8.78346E-03-5.30278E-04-3.22620E-14
 -1      4194 8.90082E-03-5.51837E-04-3.35579E-14
 -1      4195 9.02116E-03-5.74076E-04-3.48776E-14
 -1      4196 9.14412E-03-5.97296E-04-3.62190E-14
 -1      4197 8.94269E-03-5.38981E-04-3.41980E-14
 -1      4198 9.26938E-03-6.21066E-04-3.75837E-14
 -1      4199 9.39669E-03-6.45566E-04-3.89703E-14
 -1      4200 9.18817E-03-5.83482E-04-3.68808E-14
 -1      4201 9.52580E-03-6.70491E-04-4.03822E-14
 -1      4202 9.65652E-03-6.95931E-04-4.18145E-14
 -1      4203 9.44226E-03-6.30738E-04-3.96550E-14
 -1      4204 9.78868E-03-7.21656E-04-4.32667E-14
 -1      4205 9.92213E-03-7.47718E-04-4.47393E-14
 -1      4206 9.70315E-03-6.80018E-04-4.25172E-14
 -1      4207 1.00567E-02-7.73948E-04-4.62323E-14
 -1      4208 1.01923E-02-8.00376E-04-4.77442E-14
 -1      4209 9.96949E-03-7.30692E-04-4.54642E-14
 -1      4210 1.03289E-02-8.26880E-04-4.92742E-14
 -1      4211 1.04662E-02-8.53481E-04-5.08245E-14
 -1      4212 1.02402E-02-7.82256E-04-4.84866E-14
 -1      4213 1.06043E-02-8.80094E-04-5.23929E-14
 -1      4214 1.07430E-02-9.06735E-04-5.39789E-14
 -1      4215 1.05145E-02-8.34331E-04-5.15836E-14
 -1      4216 1.08823E-02-9.33345E-04-5.55834E-14
 -1      4217 1.10221E-02-9.59939E-04-5.72063E-14
 -1      4218 1.07915E-02-8.86646E-04-5.47547E-14
 -1      4219 1.11624E-02-9.86479E-04-5.88486E-14
 -1      4220 1.13030E-02-1.01298E-03-6.05109E-14
 -1      4221 1.10708E-02-9.39021E-04-5.80009E-14
 -1      4222 1.14440E-02-1.03941E-03-6.21922E-14
 -1      4223 1.15853E-02-1.06579E-03-6.38900E-14
 -1      4224 1.13518E-02-9.91346E-04-6.13227E-14
 -1      4225 1.17268E-02-1.09210E-03-6.56020E-14
 -1      4226 1.18685E-02-1.11836E-03-6.73278E-14
 -1      4227 1.16342E-02-1.04356E-03-6.47139E-14
 -1      4228 1.20105E-02-1.14455E-03-6.90707E-14
 -1      4229 1.21526E-02-1.17069E-03-7.08260E-14
 -1      4230 1.19175E-02-1.09564E-03-6.81698E-14
 -1      4231 1.22948E-02-1.19677E-03-7.25894E-14
 -1      4232 1.24372E-02-1.22280E-03-7.43661E-14
 -1      4233 1.22016E-02-1.14757E-03-7.16782E-14
 -1      4234 1.25797E-02-1.24878E-03-7.61549E-14
 -1      4235 1.27222E-02-1.27473E-03-7.79526E-14
 -1      4236 1.24863E-02-1.19937E-03-7.52329E-14
 -1      4237 1.28648E-02-1.30063E-03-7.97612E-14
 -1      4238 1.30075E-02-1.32649E-03-8.15783E-14
 -1      4239 1.27713E-02-1.25105E-03-7.88309E-14
 -1      4240 1.31762E-02-1.33859E-03-8.38847E-14
 -1      4241 1.33189E-02-1.36436E-03-8.57250E-14
 -1      4242 8.41638E-03-3.97609E-04-2.93792E-14
 -1      4243 8.51780E-03-4.28144E-04-3.01338E-14
 -1      4244 9.92010E-03-5.82463E-04-4.61045E-14
 -1      4245 9.78394E-03-5.59711E-04-4.46127E-14
 -1      4246 2.05741E-03 6.46892E-05-2.65035E-15
 -1      4247 1.93317E-03 5.35214E-05-2.37592E-15
 -1      4248 1.92392E-03 2.31759E-05-2.39514E-15
 -1      4249 9.64855E-03-5.37215E-04-4.31399E-14
 -1      4250 9.51389E-03-5.15047E-04-4.16863E-14
 -1      4251 9.74304E-03-5.79249E-04-4.39188E-14
 -1      4252 1.04712E-02-6.75911E-04-5.22621E-14
 -1      4253 1.03325E-02-6.52236E-04-5.06956E-14
 -1      4254 1.07500E-02-7.23825E-04-5.54530E-14
 -1      4255 1.06104E-02-6.99789E-04-5.38468E-14
 -1      4256 1.05646E-02-7.21140E-04-5.30982E-14
 -1      4257 1.10306E-02-7.72375E-04-5.87190E-14
 -1      4258 1.08901E-02-7.48033E-04-5.70776E-14
 -1      4259 1.08434E-02-7.69954E-04-5.63083E-14
 -1      4260 1.13124E-02-8.21459E-04-6.20570E-14
 -1      4261 1.11713E-02-7.96861E-04-6.03794E-14
 -1      4262 1.11239E-02-8.19284E-04-5.95923E-14
 -1      4263 1.15954E-02-8.70991E-04-6.54655E-14
 -1      4264 1.14538E-02-8.46178E-04-6.37537E-14
 -1      4265 1.14058E-02-8.69030E-04-6.29471E-14
 -1      4266 1.18792E-02-9.20893E-04-6.89393E-14
 -1      4267 1.17372E-02-8.95903E-04-6.71937E-14
 -1      4268 1.16888E-02-9.19109E-04-6.63724E-14
 -1      4269 1.21636E-02-9.71099E-04-7.24692E-14
 -1      4270 1.20213E-02-9.45963E-04-7.06983E-14
 -1      4271 1.19726E-02-9.69455E-04-6.98601E-14
 -1      4272 1.24484E-02-1.02155E-03-7.60455E-14
 -1      4273 1.23059E-02-9.96298E-04-7.42519E-14
 -1      4274 1.22570E-02-1.02001E-03-7.34005E-14
 -1      4275 1.27336E-02-1.07220E-03-7.96685E-14
 -1      4276 1.25910E-02-1.04685E-03-7.78543E-14
 -1      4277 1.25419E-02-1.07074E-03-7.69881E-14
 -1      4278 1.89222E-03-6.89549E-05-2.36917E-15
 -1      4279 2.02205E-03-7.23037E-05-2.69020E-15
 -1      4280 2.75351E-03-5.77698E-05-4.98347E-15
 -1      4281 2.93683E-03-6.48472E-05-5.70874E-15
 -1      4282 8.33306E-03-3.55191E-04-2.91595E-14
 -1      4283 1.30826E-02-1.28890E-03-8.29450E-14
 -1      4284 2.94709E-03-4.64381E-05-5.66837E-15
 -1      4285 3.40617E-03 7.31288E-05-6.74536E-15
 -1      4286 9.38009E-03-4.93178E-04-4.02557E-14
 -1      4287 9.24705E-03-4.71692E-04-3.88491E-14
 -1      4288 9.47565E-03-5.34157E-04-4.10142E-14
 -1      4289 8.58273E-03-4.75191E-04-3.02170E-14
 -1      4290 2.50836E-03-9.12362E-05-4.13500E-15
 -1      4291 2.55367E-03-7.24158E-05-4.28792E-15
 -1      4292 2.38703E-03-8.62589E-05-3.73380E-15
 -1      4293 2.14338E-03-7.69222E-05-3.01233E-15
 -1      4294 2.26964E-03-8.08489E-05-3.37336E-15
 -1      4295 2.31638E-03-6.05558E-05-3.51263E-15
 -1      4296 2.07708E-03-5.02900E-05-2.83294E-15
 -1      4297 2.63032E-03-4.96143E-05-4.52454E-15
 -1      4298 2.72169E-03-2.58929E-05-4.78105E-15
 -1      4299 1.57213E-03-4.68108E-05-1.67755E-15
 -1      4300 2.47815E-03 8.93568E-05-3.69207E-15
 -1      4301 1.01944E-02-6.28746E-04-4.91459E-14
 -1      4302 1.00569E-02-6.05496E-04-4.76157E-14
 -1      4303 1.02880E-02-6.72970E-04-4.99650E-14
 -1      4304 9.11492E-03-4.50565E-04-3.74643E-14
 -1      4305 8.98350E-03-4.29867E-04-3.61015E-14
 -1      4306 9.21228E-03-4.90653E-04-3.81982E-14
 -1      4307 2.97078E-03-2.50813E-05-5.65809E-15
 -1      4308 8.44185E-03-3.65200E-04-3.03448E-14
 -1      4309 1.00140E-02-6.25605E-04-4.69041E-14
 -1      4310 2.19090E-03 6.18978E-05-2.98741E-15
 -1      4311 2.50970E-03-4.29012E-05-4.10537E-15
 -1      4312 2.86211E-03 1.74473E-05-5.10295E-15
 -1      4313 2.99738E-03 3.21780E-05-5.49933E-15
 -1      4314 8.73419E-03-5.10968E-04-3.18043E-14
 -1      4315 8.62720E-03-4.41917E-04-3.13721E-14
 -1      4316 8.61797E-03-4.60386E-04-3.09257E-14
 -1      4317 8.85298E-03-4.09540E-04-3.47593E-14
 -1      4318 8.72304E-03-3.89706E-04-3.34385E-14
 -1      4319 8.95328E-03-4.49174E-04-3.54717E-14
 -1      4320 8.48533E-03-3.32641E-04-3.14124E-14
 -1      4321 2.72853E-03 2.44998E-05-4.63918E-15
 -1      4322 1.29363E-02-1.10758E-03-8.22650E-14
 -1      4323 1.28278E-02-1.08617E-03-8.08913E-14
 -1      4324 1.27787E-02-1.11017E-03-8.00180E-14
 -1      4325 1.29672E-02-1.13821E-03-8.24707E-14
 -1      4326 1.34538E-02-1.40241E-03-8.73587E-14
 -1      4327 3.29775E-03 9.91459E-05-6.24022E-15
 -1      4328 3.12552E-03 1.07971E-04-5.61409E-15
 -1      4329 1.30186E-02-1.24532E-03-8.23773E-14
 -1      4330 1.29546E-02-1.20178E-03-8.18075E-14
 -1      4331 1.28500E-02-1.23334E-03-8.00822E-14
 -1      4332 1.68173E-03-2.79588E-05-1.89657E-15
 -1      4333 1.69325E-03-6.86795E-05-1.92198E-15
 -1      4334 2.59979E-03 3.10265E-05-4.21512E-15
 -1      4335 1.79980E-03-1.87019E-05-2.14752E-15
 -1      4336 8.68993E-03-4.90374E-04-3.14561E-14
 -1      4337 2.46299E-03 4.52390E-05-3.76805E-15
 -1      4338 2.33166E-03 4.98913E-05-3.38693E-15
 -1      4339 2.18639E-03 2.20499E-05-3.04975E-15
 -1      4340 2.46117E-03-3.74804E-06-3.87949E-15
 -1      4341 1.81531E-03-7.08985E-05-2.18923E-15
 -1      4342 1.87796E-03-4.78258E-05-2.33605E-15
 -1      4343 8.77728E-03-4.96638E-04-3.25351E-14
 -1      4344 8.66958E-03-4.17732E-04-3.23339E-14
 -1      4345 8.77747E-03-4.53726E-04-3.31591E-14
 -1      4346 9.10408E-03-5.46567E-04-3.61807E-14
 -1      4347 9.22945E-03-5.68882E-04-3.75434E-14
 -1      4348 9.35674E-03-5.91718E-04-3.89288E-14
 -1      4349 9.48573E-03-6.15215E-04-4.03384E-14
 -1      4350 9.26885E-03-5.53270E-04-3.82053E-14
 -1      4351 9.61627E-03-6.39119E-04-4.17699E-14
 -1      4352 9.74818E-03-6.63488E-04-4.32209E-14
 -1      4353 9.52773E-03-5.98842E-04-4.10209E-14
 -1      4354 9.88135E-03-6.88144E-04-4.46946E-14
 -1      4355 1.00157E-02-7.13120E-04-4.61869E-14
 -1      4356 9.79207E-03-6.46221E-04-4.39249E-14
 -1      4357 1.01510E-02-7.38284E-04-4.76974E-14
 -1      4358 1.02872E-02-7.63657E-04-4.92266E-14
 -1      4359 1.00609E-02-6.94904E-04-4.69090E-14
 -1      4360 1.04243E-02-7.89146E-04-5.07744E-14
 -1      4361 1.05621E-02-8.14764E-04-5.23423E-14
 -1      4362 1.03335E-02-7.44502E-04-4.99685E-14
 -1      4363 1.07005E-02-8.40445E-04-5.39287E-14
 -1      4364 1.08396E-02-8.66201E-04-5.55331E-14
 -1      4365 1.06091E-02-7.94722E-04-5.31003E-14
 -1      4366 1.09791E-02-8.91983E-04-5.71550E-14
 -1      4367 1.11192E-02-9.17803E-04-5.87947E-14
 -1      4368 1.08872E-02-8.45354E-04-5.63089E-14
 -1      4369 1.12596E-02-9.43628E-04-6.04547E-14
 -1      4370 1.14004E-02-9.69466E-04-6.21339E-14
 -1      4371 1.11673E-02-8.96251E-04-5.95900E-14
 -1      4372 1.15416E-02-9.95297E-04-6.38301E-14
 -1      4373 1.16830E-02-1.02113E-03-6.55415E-14
 -1      4374 1.14489E-02-9.47313E-04-6.29439E-14
 -1      4375 1.18246E-02-1.04694E-03-6.72680E-14
 -1      4376 1.19664E-02-1.07275E-03-6.90101E-14
 -1      4377 1.17316E-02-9.98473E-04-6.63679E-14
 -1      4378 1.21085E-02-1.09854E-03-7.07667E-14
 -1      4379 1.22506E-02-1.12432E-03-7.25321E-14
 -1      4380 1.20153E-02-1.04969E-03-6.98518E-14
 -1      4381 1.23930E-02-1.15009E-03-7.43100E-14
 -1      4382 1.25354E-02-1.17584E-03-7.61018E-14
 -1      4383 1.22996E-02-1.10094E-03-7.33880E-14
 -1      4384 1.27074E-02-1.20761E-03-7.82699E-14
 -1      4385 8.56568E-03-3.79102E-04-3.16511E-14
 -1      4386 2.06592E-03 1.27279E-05-2.75198E-15
 -1      4387 1.94616E-03 3.23244E-06-2.46931E-15
 -1      4388 2.20598E-03 1.19423E-06-3.13441E-15
 -1      4389 9.90276E-03-6.36574E-04-4.54076E-14
 -1      4390 9.76838E-03-6.13016E-04-4.39240E-14
 -1      4391 1.87794E-03-1.63857E-05-2.32433E-15
 -1      4392 1.10054E-02-8.32728E-04-5.79437E-14
 -1      4393 1.08655E-02-8.07731E-04-5.63101E-14
 -1      4394 1.07261E-02-7.82817E-04-5.46981E-14
 -1      4395 1.05872E-02-7.58036E-04-5.31051E-14
 -1      4396 1.15687E-02-9.33489E-04-6.46524E-14
 -1      4397 1.14274E-02-9.08212E-04-6.29474E-14
 -1      4398 1.18520E-02-9.84187E-04-6.81064E-14
 -1      4399 1.17103E-02-9.58820E-04-6.63706E-14
 -1      4400 1.21361E-02-1.03503E-03-7.16209E-14
 -1      4401 1.19940E-02-1.00959E-03-6.98580E-14
 -1      4402 1.24207E-02-1.08598E-03-7.51820E-14
 -1      4403 1.22783E-02-1.06049E-03-7.33965E-14
 -1      4404 1.25632E-02-1.11148E-03-7.69812E-14
 -1      4405 8.83943E-03-4.85839E-04-3.35012E-14
 -1      4406 8.88992E-03-5.08182E-04-3.38656E-14
 -1      4407 9.01145E-03-5.29035E-04-3.51898E-14
 -1      4408 8.89217E-03-4.63740E-04-3.44955E-14
 -1      4409 1.01743E-02-6.84548E-04-4.84303E-14
 -1      4410 1.00381E-02-6.60457E-04-4.69089E-14
 -1      4411 9.63503E-03-5.89738E-04-4.24625E-14
 -1      4412 9.50277E-03-5.66893E-04-4.10208E-14
 -1      4413 3.25486E-03 3.31797E-05-6.39331E-15
 -1      4414 3.01730E-03 6.83604E-05-5.41425E-15
 -1      4415 2.37625E-03-2.93272E-05-3.66607E-15
 -1      4416 1.04489E-02-7.33369E-04-5.15265E-14
 -1      4417 1.03112E-02-7.08882E-04-4.99695E-14
 -1      4418 9.37172E-03-5.44417E-04-3.96008E-14
 -1      4419 9.24192E-03-5.22517E-04-3.82058E-14
 -1      4420 1.12864E-02-8.82981E-04-6.12604E-14
 -1      4421 1.11457E-02-8.57823E-04-5.95925E-14
 -1      4422 2.02007E-03-2.68470E-05-2.67508E-15
 -1      4423 3.12647E-03 2.22630E-05-5.99244E-15
 -1      4424 9.01802E-03-4.83897E-04-3.58325E-14
 -1      4425 1.28294E-02-1.15708E-03-8.03789E-14
 -1      4426 1.27352E-02-1.14300E-03-7.91594E-14
 -1      4427 9.04750E-03-5.13844E-04-3.58330E-14
 -1      4428 1.26139E-02-1.15822E-03-7.73382E-14
 -1      4429 2.14172E-03-3.14902E-05-2.99595E-15
 -1      4430 2.25735E-03-2.34487E-05-3.30951E-15
 -1      4431 1.29980E-02-1.16885E-03-8.26765E-14
 -1      4432 9.11355E-03-5.01044E-04-3.68321E-14
 -3
    1PSTEP                         2           1           1          
  100CL  101 1.000000000        4432                     0    1           1
 -4  STRESS      6    1
 -5  SXX         1    4    1    1
 -5  SYY         1    4    2    2
 -5  SZZ         1    4    3    3
 -5  SXY         1    4    1    2
 -5  SYZ         1    4    2    3
 -5  SZX         1    4    3    1
 -1         1 6.82303E+01 9.29601E-01 3.83717E+00 2.86983E-01-4.40897E-14-3.95082E-13
 -1         2-7.00334E-01-2.46926E+01-3.37601E+00 6.42910E-02 2.89834E-13 8.41723E-14
 -1         3 2.00000E+01 2.26879E-04-1.06051E-04 2.19940E-04-2.72132E-13-2.53355E-13
 -1         4 2.00000E+01 1.96637E-04-1.36423E-04-1.94320E-04 2.74985E-13 3.80587E-14
 -1         5 3.24525E+01 6.09010E+00 2.65722E+00 6.13139E+00-2.95389E-14 2.17457E-12
 -1         6 3.52994E+01 1.20816E+01 4.97252E+00-8.48887E+00-1.09857E-13 1.91558E-12
 -1         7 2.09778E+01 6.13774E+00-9.60829E-02-4.54697E+00-1.63897E-14 4.33483E-13
 -1         8 1.98781E+01 5.99174E+00 6.68055E-02-3.02642E+00-2.50945E-14-3.94173E-14
 -1         9 1.93145E+01 5.82189E+00 5.66918E-02-2.23619E+00-2.06848E-14-3.02950E-13
 -1        10 1.89935E+01 5.71924E+00 5.14904E-02-1.65414E+00-1.28716E-14-4.37749E-13
 -1        11 1.87733E+01 5.64957E+00 4.45378E-02-1.18779E+00-1.00848E-14-5.09031E-13
 -1        12 1.86191E+01 5.60096E+00 3.82665E-02-8.04964E-01-4.60482E-15-5.41359E-13
 -1        13 1.85165E+01 5.56902E+00 3.38373E-02-4.66768E-01-2.63374E-15-5.46594E-13
 -1        14 1.84675E+01 5.55385E+00 3.18508E-02-1.57016E-01 1.15164E-15-5.42025E-13
 -1        15 1.84717E+01 5.55519E+00 3.24215E-02 1.45902E-01 6.03272E-15-5.19810E-13
 -1        16 1.85275E+01 5.57253E+00 3.53957E-02 4.62605E-01 8.77857E-15-4.92478E-13
 -1        17 1.86328E+01 5.60519E+00 4.04075E-02 8.13283E-01 1.30876E-14-4.46913E-13
 -1        18 1.87842E+01 5.65297E+00 4.66354E-02 1.21077E+00 1.68945E-14-3.79726E-13
 -1        19 1.89974E+01 5.72084E+00 5.27760E-02 1.69285E+00 1.95330E-14-2.70037E-13
 -1        20 1.93105E+01 5.82207E+00 5.64182E-02 2.28825E+00 2.65205E-14-8.84588E-14
 -1        21 1.98612E+01 6.00249E+00 6.09202E-02 3.07607E+00 2.98581E-14 2.40168E-13
 -1        22 2.13178E+01 6.40523E+00 1.55034E-01 4.35919E+00 5.96745E-16 8.69567E-13
 -1        23 2.30459E+01-1.38667E+00-9.44957E-01-6.62624E-01-6.53193E-14 1.53777E-12
 -1        24 1.96787E+01-1.00156E-01-3.05087E-01 6.86087E-02-1.97715E-14 1.20542E-12
 -1        25 1.92361E+01-5.86573E-02-6.89705E-02 6.25970E-02-9.49674E-15 8.59637E-13
 -1        26 1.93046E+01-2.64461E-02-1.11365E-02 3.55730E-02 9.32717E-15 6.41596E-13
 -1        27 1.96525E+01-1.78786E-02-6.30805E-03 2.71751E-02 2.24701E-15 5.31715E-13
 -1        28 2.02003E+01-1.37629E-02-8.87614E-03 2.40858E-02 7.01154E-16 5.15855E-13
 -1        29 2.09193E+01-1.15554E-02-1.13628E-02 2.45508E-02-5.86521E-15 3.60666E-13
 -1        30 2.18004E+01-9.60748E-03-1.26460E-02 2.78056E-02 1.34197E-15 3.03178E-13
 -1        31 2.28340E+01-6.44554E-03-1.13519E-02 3.32558E-02 3.05463E-15 1.73259E-13
 -1        32 2.39864E+01-4.30639E-04-4.50905E-03 3.94899E-02-3.51091E-14 3.29216E-14
 -1        33 2.51677E+01 1.00282E-02 1.23872E-02 4.29046E-02 6.95096E-14 7.96741E-14
 -1        34 2.61907E+01 2.53753E-02 4.33831E-02 3.60388E-02-3.30790E-15 1.29589E-13
 -1        35 2.67396E+01 4.25791E-02 8.60629E-02 7.22637E-03 2.08167E-16 4.77361E-14
 -1        36 2.64029E+01 5.27358E-02 1.21684E-01-5.39800E-02 1.83534E-15 1.81855E-13
 -1        37 2.48566E+01 4.22160E-02 1.10261E-01-1.40140E-01-3.51511E-14 2.84057E-13
 -1        38 2.22306E+01 3.65636E-03 1.75441E-02-2.05901E-01 4.38879E-14 3.02279E-13
 -1        39 1.94224E+01-4.91095E-02-1.31109E-01-1.81040E-01-6.04781E-14 2.09228E-13
 -1        40 1.78423E+01-8.22968E-02-2.31926E-01-4.36937E-02-2.77261E-14-2.08743E-13
 -1        41 1.84377E+01-7.04882E-02-1.94885E-01 1.24419E-01 1.28673E-14-5.05328E-13
 -1        42 2.08644E+01-2.30334E-02-5.48255E-02 2.09000E-01-5.26107E-14-7.33989E-13
 -1        43 2.38040E+01 2.58607E-02 7.45671E-02 1.81130E-01-1.02804E-15-8.56128E-13
 -1        44 2.60215E+01 5.03223E-02 1.24139E-01 9.71903E-02 8.45808E-14-3.46577E-13
 -1        45 2.70204E+01 4.87326E-02 1.05947E-01 2.08103E-02-1.21556E-14-1.31315E-13
 -1        46 2.69523E+01 3.34205E-02 6.26197E-02-2.29868E-02-1.45743E-14-1.29876E-13
 -1        47 2.62239E+01 1.64119E-02 2.42849E-02-3.83746E-02 4.12466E-14 4.55226E-14
 -1        48 2.52130E+01 3.56701E-03 3.99319E-04-3.77066E-02 2.38903E-14 2.32750E-13
 -1        49 2.41699E+01-4.09442E-03-1.09133E-02-3.07289E-02 2.66782E-14 7.23380E-15
 -1        50 2.32255E+01-7.68917E-03-1.44125E-02-2.27153E-02-4.82176E-14-3.88006E-13
 -1        51 2.24304E+01-8.70916E-03-1.40068E-02-1.57987E-02 4.38699E-14-2.26185E-13
 -1        52 2.17904E+01-8.33798E-03-1.20615E-02-1.05013E-02-4.73738E-14-2.03788E-13
 -1        53 2.12910E+01-7.34000E-03-9.76901E-03-6.69332E-03 4.71647E-14-4.54049E-13
 -1        54 2.09101E+01-6.14996E-03-7.63945E-03-4.06000E-03 4.90482E-14-3.47552E-13
 -1        55 2.06251E+01-4.98912E-03-5.84189E-03-2.28884E-03-3.89982E-14-5.49150E-13
 -1        56 2.04156E+01-3.95498E-03-4.39517E-03-1.12702E-03 3.73393E-14-6.00332E-13
 -1        57 2.02645E+01-3.07897E-03-3.26144E-03-3.86501E-04 3.73499E-14-1.03970E-12
 -1        58 2.01577E+01-2.36001E-03-2.38782E-03 6.70645E-05 4.92759E-14-9.57509E-13
 -1        59 2.00841E+01-1.78284E-03-1.72303E-03 3.27899E-04-3.37015E-15-6.11025E-13
 -1        60 2.00351E+01-1.32736E-03-1.22279E-03 4.61553E-04-1.20443E-13-5.03003E-13
 -1        61 2.00039E+01-9.73101E-04-8.50752E-04 5.13477E-04 1.38904E-13-1.96650E-13
 -1        62 1.99854E+01-7.01229E-04-5.77682E-04 5.15098E-04-2.60163E-14-1.58861E-13
 -1        63 1.99760E+01-4.95167E-04-3.80285E-04 4.88037E-04-8.26702E-14-4.15911E-13
 -1        64 1.99726E+01-3.40673E-04-2.39970E-04 4.47023E-04 7.24588E-14-6.12855E-13
 -1        65 1.99733E+01-2.25587E-04-1.41686E-04 4.01875E-04-1.15758E-13-2.51608E-13
 -1        66 1.99766E+01-1.39452E-04-7.26760E-05 3.58746E-04-1.77800E-14-1.73326E-13
 -1        67 1.99814E+01-7.30724E-05-2.08233E-05 3.20685E-04 5.14461E-14 2.77137E-13
 -1        68 1.99868E+01-1.80687E-05 2.78757E-05 2.87231E-04 1.00373E-13 5.99445E-13
 -1        69 1.99922E+01 3.19930E-05 9.03301E-05 2.50332E-04-5.61995E-16 4.67697E-13
 -1        70 1.99968E+01 6.56116E-05 1.62824E-04 1.72646E-04-5.61939E-14 1.77996E-13
 -1        71 1.99996E+01-1.37612E-05 1.40558E-04 3.36365E-05-5.40591E-14-1.59467E-14
 -1        72 2.10960E+01-4.03144E-01-9.82110E-01-3.22451E-01 2.00326E-14 2.06683E-12
 -1        73 1.96388E+01-6.60107E-02-2.86639E-01-5.67595E-02 1.31960E-14 1.66315E-12
 -1        74 1.92141E+01-2.17108E-02-6.38047E-02-2.13250E-02-6.09918E-15 1.35092E-12
 -1        75 1.92421E+01-1.16091E-02-1.19049E-02-1.62162E-02 1.16384E-14 1.15440E-12
 -1        76 1.95195E+01-6.99219E-03-3.46263E-03-1.40617E-02 6.09192E-15 9.78001E-13
 -1        77 1.99463E+01-4.02539E-03-2.73504E-03-1.36243E-02-1.74531E-14 9.11915E-13
 -1        78 2.04665E+01-1.45976E-03-1.63104E-03-1.45389E-02-1.88027E-14 9.54816E-13
 -1        79 2.10357E+01 1.35422E-03 1.28921E-03-1.64087E-02 3.51607E-14 8.05897E-13
 -1        80 2.16035E+01 4.73948E-03 6.53357E-03-1.86382E-02-2.09923E-14 5.68102E-13
 -1        81 2.21025E+01 8.63952E-03 1.44450E-02-2.01052E-02 3.42832E-14 5.41176E-13
 -1        82 2.24425E+01 1.24290E-02 2.46094E-02-1.89030E-02 1.12410E-15 5.06693E-13
 -1        83 2.25147E+01 1.47572E-02 3.48826E-02-1.24399E-02 2.37837E-14 5.31282E-13
 -1        84 2.22144E+01 1.37378E-02 4.06687E-02 1.62816E-03 1.43248E-14 4.11535E-13
 -1        85 2.14864E+01 7.83799E-03 3.56372E-02 2.32716E-02 8.41059E-15 3.76621E-13
 -1        86 2.03876E+01-2.63239E-03 1.50852E-02 4.75227E-02 6.81996E-15 1.25663E-13
 -1        87 1.91315E+01-1.44744E-02-1.87030E-02 6.39892E-02-1.80685E-14 1.50109E-13
 -1        88 1.80650E+01-2.25830E-02-5.35290E-02 6.13471E-02-9.01969E-15 3.14882E-13
 -1        89 1.75472E+01-2.30665E-02-7.22412E-02 3.59468E-02 2.22931E-14 9.73058E-14
 -1        90 1.77746E+01-1.59652E-02-6.42768E-02-2.97242E-03-6.31656E-16 2.69437E-14
 -1        91 1.86738E+01-4.98155E-03-3.43544E-02-3.83344E-02-5.00881E-14 1.12563E-13
 -1        92 1.99439E+01 5.22313E-03 1.51620E-03-5.68795E-02 3.59814E-15 1.64476E-13
 -1        93 2.12161E+01 1.15865E-02 2.82422E-02-5.62437E-02 4.45255E-15 4.76806E-14
 -1        94 2.22092E+01 1.34570E-02 3.92977E-02-4.28239E-02 2.34337E-14-1.19392E-13
 -1        95 2.27990E+01 1.19605E-02 3.69286E-02-2.53542E-02-3.53563E-14 5.47132E-14
 -1        96 2.29986E+01 8.78123E-03 2.75103E-02-1.00765E-02 2.01809E-14 1.19601E-13
 -1        97 2.28980E+01 5.30062E-03 1.66431E-02 5.34301E-04-2.72048E-15 7.74508E-14
 -1        98 2.26069E+01 2.33396E-03 7.49502E-03 6.54406E-03 3.89608E-14 2.60031E-14
 -1        99 2.22221E+01 1.81317E-04 1.12082E-03 9.06739E-03 1.29663E-14-3.50239E-13
 -1       100 2.18144E+01-1.17407E-03-2.65652E-03 9.37287E-03-1.31872E-14-1.95921E-13
 -1       101 2.14284E+01-1.88886E-03-4.48046E-03 8.48307E-03 1.60945E-14-7.80816E-14
 -1       102 2.10881E+01-2.15044E-03-5.02685E-03 7.08757E-03 1.70735E-14 7.06635E-14
 -1       103 2.08028E+01-2.12390E-03-4.83327E-03 5.59568E-03-9.31256E-15 1.60155E-13
 -1       104 2.05729E+01-1.93488E-03-4.27056E-03 4.22089E-03 2.84402E-14 4.69594E-14
 -1       105 2.03937E+01-1.67027E-03-3.57077E-03 3.05444E-03 2.32271E-14-1.34999E-13
 -1       106 2.02581E+01-1.38561E-03-2.86695E-03 2.11796E-03-1.08662E-13 6.49481E-14
 -1       107 2.01586E+01-1.11348E-03-2.22754E-03 1.39718E-03 8.99586E-14-6.60355E-13
 -1       108 2.00878E+01-8.70788E-04-1.68150E-03 8.62127E-04 8.27610E-14-1.42722E-12
 -1       109 2.00394E+01-6.64392E-04-1.23506E-03 4.78352E-04 1.96738E-14-1.53486E-12
 -1       110 2.00078E+01-4.95014E-04-8.82300E-04 2.12739E-04-1.98539E-14-1.17636E-12
 -1       111 1.99886E+01-3.59923E-04-6.11623E-04 3.61185E-05 3.78694E-14-9.58725E-13
 -1       112 1.99784E+01-2.54642E-04-4.09423E-04-7.58892E-05-1.49508E-13-8.29353E-13
 -1       113 1.99744E+01-1.73993E-04-2.62103E-04-1.42954E-04 1.15519E-13-7.23926E-13
 -1       114 1.99746E+01-1.12667E-04-1.56973E-04-1.80550E-04-2.21901E-15-1.08907E-12
 -1       115 1.99775E+01-6.54305E-05-8.22112E-05-2.00672E-04-8.42467E-14-6.90887E-13
 -1       116 1.99820E+01-2.71900E-05-2.56495E-05-2.12392E-04 9.16221E-14-2.91390E-13
 -1       117 1.99873E+01 6.93600E-06 2.74292E-05-2.21603E-04 3.92367E-14-9.14032E-13
 -1       118 1.99925E+01 3.99374E-05 9.39856E-05-2.28799E-04 1.01230E-14-8.55904E-13
 -1       119 1.99970E+01 6.99484E-05 1.75172E-04-2.14202E-04-1.51684E-13-8.22100E-13
 -1       120 1.99996E+01-4.70188E-05 1.09066E-04-8.54781E-05 1.79344E-13-8.62989E-13
 -1       121 1.99998E+01-3.72067E-04 9.39933E-05-5.57245E-05-8.58112E-13-1.58253E-13
 -1       122 1.99999E+01-2.90820E-03 1.25006E-04-1.74194E-04-6.82009E-13-1.68432E-13
 -1       123 1.99998E+01-6.89286E-03 2.23338E-05-1.99521E-04-7.95169E-13-9.57573E-14
 -1       124 1.99998E+01-1.10900E-02-4.69359E-05-1.73658E-04-1.23935E-12 9.34922E-14
 -1       125 1.99998E+01-1.48179E-02-7.80616E-05-1.31683E-04-1.12467E-12 1.21496E-13
 -1       126 1.99997E+01-1.77064E-02-8.87137E-05-9.13249E-05-1.36964E-12-3.20079E-15
 -1       127 1.99997E+01-1.97089E-02-8.89835E-05-5.30366E-05-7.94574E-13 2.02492E-13
 -1       128 1.99997E+01-2.07354E-02-8.80806E-05-1.84916E-05-1.12019E-12-2.03539E-13
 -1       129 1.99997E+01-2.07789E-02-8.92130E-05 1.49025E-05-5.81708E-13 2.75151E-13
 -1       130 1.99997E+01-1.98277E-02-9.21471E-05 5.04423E-05 9.57852E-14-1.83696E-13
 -1       131 1.99997E+01-1.78687E-02-9.23565E-05 9.20536E-05-1.32772E-12-2.68407E-13
 -1       132 1.99998E+01-1.49816E-02-8.29129E-05 1.33673E-04-1.48674E-12 3.56419E-13
 -1       133 1.99998E+01-1.12086E-02-4.97400E-05 1.77422E-04-1.29041E-12-8.85877E-14
 -1       134 1.99998E+01-6.93403E-03 2.81312E-05 2.15072E-04-7.50573E-13-6.99590E-15
 -1       135 1.99999E+01-2.97093E-03 1.07640E-04 2.46695E-04-2.41722E-14-7.15872E-14
 -1       136 1.99999E+01-4.50732E-04 8.60122E-05 1.72451E-05-1.02075E-13-8.54238E-14
 -1       137-1.35035E+00-1.95991E+01-3.03904E+00-3.76824E+00 1.48215E-12 3.05068E-13
 -1       138-1.45017E+00-8.23839E+00-2.22181E+00-2.80159E+00 2.06773E-12 9.34253E-13
 -1       139 3.29199E+00 3.88052E+00-1.01215E+00 3.89127E+00 2.86599E-12 2.23810E-12
 -1       140 1.58359E+01 1.06260E+01 4.35832E-01 1.28406E+01 2.80015E-12 3.23297E-12
 -1       141 3.56795E+01 9.85379E+00 1.87864E+00 1.80036E+01 1.65767E-12 3.00798E-12
 -1       142 5.48754E+01 4.90106E+00 2.95555E+00 1.49290E+01 6.81621E-13 2.01461E-12
 -1       143 6.52027E+01 1.05955E+00 3.45777E+00 4.30553E+00 1.18600E-13 6.24709E-13
 -1       144 6.25990E+01 2.21558E+00 3.33926E+00-8.99102E+00 1.46049E-13-6.41182E-13
 -1       145 4.64821E+01 7.40840E+00 2.50341E+00-1.75651E+01 7.87564E-13-1.83081E-12
 -1       146 2.69591E+01 1.10855E+01 1.31099E+00-1.69543E+01 1.72290E-12-2.48307E-12
 -1       147 1.10497E+01 9.06883E+00-2.78600E-02-1.00264E+01 2.45032E-12-2.42067E-12
 -1       148 6.46546E-01-5.26413E-01-1.49097E+00-6.63795E-01 2.46353E-12-1.60671E-12
 -1       149-1.77928E+00-1.35801E+01-2.64795E+00 4.07705E+00 1.70053E-12-5.75526E-13
 -1       150-9.89752E-01-2.29444E+01-3.27760E+00 2.51347E+00 7.09988E-13-1.19016E-13
 -1       151-9.23806E-01-2.42311E+01-3.37871E+00-1.91416E+00-8.76826E-13-2.05870E-13
 -1       152-1.87820E+00-1.66447E+01-2.93332E+00-4.48704E+00-2.22905E-12-6.70991E-13
 -1       153-7.26479E-01-4.04323E+00-1.97073E+00-1.33529E+00-2.94681E-12-1.72901E-12
 -1       154 6.40797E+00 6.55173E+00-6.74814E-01 6.63009E+00-3.12239E-12-2.72649E-12
 -1       155 2.12682E+01 1.10190E+01 7.92579E-01 1.51517E+01-2.46880E-12-3.36869E-12
 -1       156 4.21271E+01 8.81230E+00 2.28766E+00 1.86269E+01-1.55082E-12-3.09786E-12
 -1       157 6.06766E+01 3.59626E+00 3.42713E+00 1.28364E+01-4.43943E-13-1.92801E-12
 -1       158 6.21556E+01 3.01186E+00 3.48120E+00-1.15976E+01-2.59584E-13 1.20126E-12
 -1       159 4.56207E+01 7.80295E+00 2.49187E+00-1.80254E+01-1.19585E-12 2.62923E-12
 -1       160 2.59569E+01 1.08096E+01 1.13114E+00-1.64848E+01-2.32986E-12 3.31007E-12
 -1       161 1.02081E+01 8.39722E+00-2.58037E-01-9.30023E+00-3.05456E-12 3.16641E-12
 -1       162 1.10439E+00 4.54416E-01-1.51543E+00-1.24572E+00-3.58474E-12 2.45515E-12
 -1       163-1.91957E+00-1.11779E+01-2.55014E+00 3.95197E+00-2.65205E-12 1.24564E-12
 -1       164-1.36846E+00-2.10107E+01-3.18168E+00 3.81731E+00-1.26224E-12 3.12476E-13
 -1       165 2.12575E+01 3.65934E+00-5.38038E-02-3.35274E+00-2.63583E-13 1.72851E-13
 -1       166 2.02211E+01 4.21709E+00-4.34964E-02-2.51555E+00-2.48402E-13-1.16261E-13
 -1       167 1.96531E+01 4.52345E+00-2.98746E-02-1.88991E+00-1.99983E-13-2.88563E-13
 -1       168 1.92891E+01 4.69398E+00-2.21054E-02-1.38707E+00-1.37591E-13-3.90422E-13
 -1       169 1.90376E+01 4.79912E+00-1.78681E-02-9.78879E-01-8.85969E-14-4.36447E-13
 -1       170 1.88624E+01 4.86528E+00-1.54991E-02-6.24371E-01-4.26206E-14-4.55673E-13
 -1       171 1.87617E+01 4.89974E+00-1.43017E-02-3.07931E-01 3.10028E-15-4.52106E-13
 -1       172 1.87335E+01 4.90689E+00-1.39788E-02-7.94527E-03 5.25633E-14-4.41557E-13
 -1       173 1.87760E+01 4.88879E+00-1.44429E-02 2.95895E-01 8.98864E-14-4.21121E-13
 -1       174 1.88865E+01 4.84529E+00-1.57639E-02 6.22957E-01 1.31594E-13-3.81810E-13
 -1       175 1.90604E+01 4.77461E+00-1.82793E-02 9.85628E-01 1.84136E-13-3.29492E-13
 -1       176 1.93108E+01 4.66495E+00-2.28777E-02 1.41656E+00 2.36733E-13-2.53807E-13
 -1       177 1.96663E+01 4.49250E+00-3.16546E-02 1.93568E+00 2.77456E-13-1.27330E-13
 -1       178 2.02321E+01 4.18605E+00-4.51436E-02 2.57296E+00 2.97018E-13 9.93129E-14
 -1       179 2.13578E+01 3.43523E+00-5.68630E-02 3.30358E+00 2.65139E-13 4.85625E-13
 -1       180 2.25818E+01 1.11624E+00-3.31465E-01 2.84309E+00 1.73697E-13 9.90194E-13
 -1       181 2.22249E+01 8.40703E-01 1.46400E-03-1.76678E+00-2.19394E-13 5.23331E-13
 -1       182 2.08731E+01 1.92589E-01-8.51940E-03-5.68999E-01-1.88898E-13 4.14859E-13
 -1       183 2.03052E+01 1.16447E-01 1.48032E-02-6.54436E-02-1.35701E-13 3.36699E-13
 -1       184 2.02162E+01 7.17788E-02 1.12647E-02 2.04138E-01-9.85162E-14 2.28899E-13
 -1       185 2.03985E+01 5.59520E-02 6.63263E-03 3.86114E-01-3.90595E-14 1.67197E-13
 -1       186 2.07747E+01 5.05622E-02 3.99375E-03 5.33502E-01-6.88249E-14 1.54836E-13
 -1       187 2.13035E+01 4.82238E-02 2.46737E-03 6.65778E-01-2.40931E-14 1.33619E-13
 -1       188 2.19592E+01 4.28842E-02 1.10316E-03 7.84473E-01-7.42901E-14 1.07292E-13
 -1       189 2.27138E+01 2.66959E-02-6.17015E-04 8.73488E-01-7.55466E-14 9.94875E-14
 -1       190 2.35218E+01-1.12290E-02-2.78767E-03 8.94193E-01-9.61481E-15 7.09042E-14
 -1       191 2.43034E+01-8.30334E-02-4.96017E-03 7.81182E-01 1.31527E-14-6.97172E-14
 -1       192 2.49308E+01-1.93000E-01-6.04905E-03 4.50478E-01 9.95471E-15-4.57763E-14
 -1       193 2.52298E+01-3.16427E-01-4.86154E-03-1.58088E-01 8.46233E-14 9.88214E-14
 -1       194 2.50184E+01-3.72873E-01-1.49296E-03-9.84223E-01 5.91992E-14 2.33680E-13
 -1       195 2.42146E+01-2.38425E-01-5.40456E-04-1.72768E+00-5.14293E-14 3.27165E-13
 -1       196 2.30121E+01 1.35343E-01-5.55357E-03-1.87231E+00-1.33088E-13 1.60857E-13
 -1       197 2.19690E+01 5.53459E-01-1.43792E-02-1.05984E+00-2.71084E-13-5.73023E-14
 -1       198 2.17338E+01 6.64409E-01-1.75575E-02 4.04864E-01-2.26447E-13-2.42760E-13
 -1       199 2.24840E+01 3.61325E-01-1.01475E-02 1.63244E+00-2.18889E-13-4.44009E-13
 -1       200 2.37427E+01-7.31793E-02-1.27497E-03 1.95767E+00-5.73212E-14-4.96395E-13
 -1       201 2.48467E+01-3.33994E-01-2.01275E-05 1.45183E+00 1.76755E-13-5.26367E-13
 -1       202 2.54148E+01-3.57662E-01-3.00922E-03 6.18573E-01 1.61520E-13-4.69344E-13
 -1       203 2.54147E+01-2.52847E-01-5.60115E-03-1.11019E-01 1.16141E-13-1.82991E-13
 -1       204 2.49982E+01-1.29112E-01-5.63978E-03-5.67612E-01 1.11026E-13-7.45398E-14
 -1       205 2.43528E+01-3.71272E-02-3.90137E-03-7.67349E-01 5.64130E-14 3.80967E-14
 -1       206 2.36300E+01 1.59836E-02-1.73514E-03-7.92729E-01-1.64478E-13-1.09752E-13
 -1       207 2.29282E+01 4.00278E-02 8.68153E-06-7.23717E-01-2.66155E-13-3.37600E-13
 -1       208 2.23003E+01 4.66864E-02 1.08696E-03-6.15867E-01 6.13088E-14-4.17603E-13
 -1       209 2.17671E+01 4.45273E-02 1.58791E-03-5.01230E-01 5.87797E-14-2.48954E-13
 -1       210 2.13306E+01 3.87047E-02 1.69989E-03-3.95567E-01-1.49156E-13-1.09518E-13
 -1       211 2.09829E+01 3.19450E-02 1.59412E-03-3.05031E-01 1.50327E-14-8.62223E-14
 -1       212 2.07118E+01 2.55251E-02 1.38989E-03-2.30747E-01-2.11861E-13-8.41457E-14
 -1       213 2.05043E+01 1.99435E-02 1.15812E-03-1.71508E-01-5.68619E-14-2.53848E-13
 -1       214 2.03482E+01 1.53163E-02 9.35801E-04-1.25230E-01-9.73200E-14-2.93098E-13
 -1       215 2.02329E+01 1.15898E-02 7.39251E-04-8.96714E-02 1.44096E-14-4.25745E-13
 -1       216 2.01492E+01 8.64738E-03 5.73500E-04-6.27461E-02 9.16306E-14-4.62755E-13
 -1       217 2.00899E+01 6.35918E-03 4.37921E-04-4.26459E-02 7.66202E-14-4.01772E-13
 -1       218 2.00489E+01 4.60328E-03 3.29401E-04-2.78606E-02 4.74284E-14-1.40598E-13
 -1       219 2.00216E+01 3.27306E-03 2.43980E-04-1.71585E-02 5.02438E-15-4.97428E-13
 -1       220 2.00043E+01 2.27844E-03 1.77649E-04-9.55315E-03 1.59109E-14-4.30097E-13
 -1       221 1.99942E+01 1.54450E-03 1.26683E-04-4.26624E-03 2.08687E-14-3.18104E-13
 -1       222 1.99891E+01 1.00920E-03 8.77578E-05-6.94526E-04 3.02017E-13-2.13244E-13
 -1       223 1.99875E+01 6.20511E-04 5.79599E-05 1.61830E-03 1.35993E-13 1.49459E-13
 -1       224 1.99882E+01 3.33434E-04 3.48634E-05 3.00319E-03 3.65552E-13 5.04900E-13
 -1       225 1.99902E+01 1.06652E-04 1.68329E-05 3.68039E-03 3.15315E-13 6.06794E-13
 -1       226 1.99929E+01-1.03928E-04 4.08790E-06 3.76605E-03-1.52753E-13 2.43359E-13
 -1       227 1.99956E+01-3.53040E-04-2.64257E-06 3.27092E-03-3.35568E-13-9.18270E-14
 -1       228 1.99980E+01-6.79541E-04 9.04129E-07 2.15173E-03-2.31450E-14-1.39231E-13
 -1       229 2.12633E+01 2.71533E-01-4.91333E-02 1.01387E+00 1.98969E-13 8.66562E-13
 -1       230 2.03415E+01 1.29002E-01 9.08909E-03 2.94125E-01 1.53264E-13 7.09027E-13
 -1       231 2.00281E+01 6.52487E-02 1.29165E-02-1.48050E-02 1.22618E-13 5.52604E-13
 -1       232 2.00398E+01 3.78132E-02 7.61934E-03-1.80859E-01 7.64827E-14 4.94860E-13
 -1       233 2.02453E+01 2.38632E-02 3.68206E-03-2.81407E-01 1.05777E-14 4.57140E-13
 -1       234 2.05690E+01 1.38286E-02 1.57432E-03-3.42396E-01 1.03202E-14 4.20024E-13
 -1       235 2.09581E+01 3.35627E-03 4.30480E-04-3.69858E-01 1.04558E-13 3.50208E-13
 -1       236 2.13647E+01-1.02777E-02-2.36269E-04-3.59148E-01 8.37689E-14 2.85803E-13
 -1       237 2.17355E+01-2.87185E-02-5.21815E-04-2.99153E-01 1.65439E-14 1.95382E-13
 -1       238 2.20074E+01-5.17578E-02-3.47087E-04-1.76862E-01 1.68450E-14 2.89789E-13
 -1       239 2.21100E+01-7.57210E-02 3.27413E-04 1.47030E-02 2.92578E-14 2.58409E-13
 -1       240 2.19785E+01-9.18390E-02 1.29168E-03 2.64083E-01 8.18963E-14 2.65603E-13
 -1       241 2.15796E+01-8.67853E-02 1.93926E-03 5.27514E-01 3.67033E-14 7.49366E-14
 -1       242 2.09454E+01-4.84638E-02 1.45237E-03 7.24248E-01 4.11326E-14 1.36596E-13
 -1       243 2.01995E+01 2.27439E-02-4.76154E-04 7.56767E-01-3.40266E-14 2.36398E-13
 -1       244 1.95465E+01 1.04417E-01-2.95907E-03 5.61839E-01-1.35308E-15 9.65287E-14
 -1       245 1.92060E+01 1.57900E-01-4.20974E-03 1.67897E-01 1.37610E-13 2.47849E-14
 -1       246 1.93094E+01 1.53480E-01-2.98298E-03-2.94175E-01-1.02791E-14-3.11209E-14
 -1       247 1.98277E+01 9.44683E-02-6.14992E-05-6.55644E-01-8.29131E-14 1.36054E-14
 -1       248 2.05884E+01 1.38786E-02 2.46593E-03-8.05594E-01-4.25381E-14 6.80627E-14
 -1       249 2.13684E+01-5.18488E-02 3.26111E-03-7.38477E-01 4.69882E-14 1.73419E-13
 -1       250 2.19889E+01-8.42590E-02 2.32847E-03-5.29040E-01 1.14634E-13 6.76419E-14
 -1       251 2.23621E+01-8.53770E-02 6.67124E-04-2.73805E-01-5.75980E-14-1.90148E-13
 -1       252 2.24846E+01-6.79166E-02-6.78894E-04-4.56451E-02-8.26190E-14-1.61491E-13
 -1       253 2.24042E+01-4.45953E-02-1.34010E-03 1.20667E-01-3.57221E-14 1.53550E-13
 -1       254 2.21871E+01-2.32679E-02-1.39853E-03 2.20260E-01 3.86242E-14 2.07358E-13
 -1       255 2.18961E+01-7.20239E-03-1.09679E-03 2.64217E-01 1.02770E-13 2.67852E-13
 -1       256 2.15805E+01 3.24044E-03-6.71858E-04 2.68762E-01-8.68206E-14 2.34341E-13
 -1       257 2.12740E+01 9.04799E-03-2.75559E-04 2.49124E-01-1.11889E-13 3.51892E-13
 -1       258 2.09967E+01 1.15487E-02 2.56492E-05 2.17107E-01-3.88134E-14 2.45234E-13
 -1       259 2.07580E+01 1.19347E-02 2.20599E-04 1.80801E-01-6.94188E-14 2.54350E-13
 -1       260 2.05605E+01 1.11110E-02 3.25018E-04 1.45196E-01 1.97289E-13 1.66949E-13
 -1       261 2.04023E+01 9.69823E-03 3.62987E-04 1.13011E-01 1.10377E-13 4.85629E-14
 -1       262 2.02791E+01 8.08989E-03 3.57474E-04 8.54463E-02-7.41022E-14 1.02437E-14
 -1       263 2.01858E+01 6.51593E-03 3.26747E-04 6.27589E-02 5.09625E-13-3.19049E-13
 -1       264 2.01171E+01 5.09694E-03 2.83852E-04 4.46721E-02 2.99856E-13-6.21654E-13
 -1       265 2.00679E+01 3.88420E-03 2.37356E-04 3.06428E-02 3.38309E-14-7.77597E-13
 -1       266 2.00339E+01 2.88754E-03 1.92423E-04 2.00307E-02-1.50119E-13-7.69735E-13
 -1       267 2.00115E+01 2.09371E-03 1.51818E-04 1.21969E-02-1.72212E-13-5.61691E-13
 -1       268 1.99977E+01 1.47799E-03 1.16701E-04 6.55810E-03-4.10469E-14-3.77630E-13
 -1       269 1.99901E+01 1.01116E-03 8.72147E-05 2.61186E-03 1.44875E-13-5.56439E-13
 -1       270 1.99869E+01 6.63371E-04 6.28898E-05-5.46596E-05-1.07436E-13-5.14163E-13
 -1       271 1.99866E+01 4.05929E-04 4.29794E-05-1.76497E-03-1.02904E-13-4.08356E-13
 -1       272 1.99882E+01 2.10922E-04 2.69920E-05-2.75644E-03 3.19157E-14-6.94500E-13
 -1       273 1.99909E+01 4.93905E-05 1.57794E-05-3.18109E-03 1.71272E-13-5.50488E-13
 -1       274 1.99939E+01-1.08955E-04 1.26749E-05-3.10318E-03-1.08711E-13-4.87342E-13
 -1       275 1.99967E+01-3.14548E-04 1.47180E-05-2.49574E-03 3.38657E-14-4.58558E-13
 -1       276 1.99988E+01-5.53401E-04 1.45244E-05-1.31370E-03-6.07648E-14-4.57952E-13
 -1       277 1.99992E+01-1.91156E-03-2.69095E-06-2.08478E-03-3.63594E-13 3.78242E-14
 -1       278 1.99996E+01-4.08698E-03-3.22514E-06-2.92823E-03-1.46975E-13-9.05501E-14
 -1       279 1.99999E+01-6.52769E-03-2.03597E-06-3.07678E-03-3.03368E-13 7.11879E-14
 -1       280 2.00000E+01-8.88189E-03 2.42010E-06-2.75278E-03-3.71275E-13 3.17295E-14
 -1       281 2.00001E+01-1.08531E-02 6.96196E-06-2.18297E-03-5.67286E-13-1.26203E-13
 -1       282 2.00001E+01-1.23605E-02 1.01920E-05-1.49350E-03-6.37117E-13 1.67355E-13
 -1       283 2.00001E+01-1.32928E-02 1.20350E-05-7.68065E-04-5.53867E-13-1.07122E-13
 -1       284 2.00001E+01-1.36260E-02 1.26688E-05-3.33931E-05-3.06244E-13 1.99432E-13
 -1       285 2.00001E+01-1.33501E-02 1.22229E-05 7.09949E-04-4.48117E-13 1.57487E-13
 -1       286 2.00001E+01-1.24613E-02 1.04576E-05 1.45977E-03-4.37861E-13-6.45298E-13
 -1       287 2.00001E+01-1.10047E-02 6.95621E-06 2.17131E-03-5.90644E-14-3.49054E-14
 -1       288 2.00000E+01-8.99468E-03 2.46881E-06 2.78198E-03-3.87441E-14 2.74010E-13
 -1       289 1.99999E+01-6.61466E-03-3.20657E-06 3.12994E-03-5.54991E-15 1.26637E-13
 -1       290 1.99996E+01-4.11073E-03-5.95125E-06 2.92359E-03-2.28581E-13 5.06446E-13
 -1       291 1.99990E+01-2.21969E-03-1.16862E-05 2.96971E-03-2.74069E-13 5.49200E-14
 -1       292-8.19568E-01-1.08129E+01-9.65011E-01 1.35167E+00 1.59303E-13 6.94042E-13
 -1       293 2.85228E+00-8.23857E+00-7.29907E-01 3.79367E+00 7.40713E-13 8.18914E-13
 -1       294 1.00245E+01-4.97476E+00-4.14027E-01 6.01121E+00 1.03298E-12 1.28070E-12
 -1       295 1.84453E+01-6.87221E-01-9.54227E-02 7.32004E+00 1.16310E-12 1.46400E-12
 -1       296 2.92955E+01 2.13646E+00 2.87915E-01 7.05033E+00 1.24221E-12 1.23987E-12
 -1       297 3.75163E+01 4.72885E+00 4.76536E-01 4.41311E+00 1.03093E-12 9.36307E-13
 -1       298 4.49871E+01 6.39819E+00 9.35394E-01 3.09761E+00 9.46146E-13 7.48956E-13
 -1       299 4.59186E+01 6.89406E+00 9.41322E-01-6.39387E-01 6.46511E-13 2.80980E-13
 -1       300 4.12429E+01 6.09271E+00 6.56445E-01-3.47245E+00 6.73059E-13-5.80924E-14
 -1       301 3.46640E+01 4.03091E+00 5.19414E-01-6.78567E+00 7.48429E-13-5.61107E-13
 -1       302 2.54562E+01 1.12158E+00 1.61957E-01-7.44933E+00 8.89899E-13-6.06654E-13
 -1       303 1.68491E+01-3.41709E+00-1.46831E-01-6.96371E+00 5.40012E-13-7.20993E-13
 -1       304 6.24158E+00-6.45950E+00-6.28111E-01-4.80709E+00 6.42514E-13-9.19941E-13
 -1       305 7.98236E-01-9.84010E+00-9.11604E-01-2.56955E+00 2.98456E-13-6.06126E-13
 -1       306-1.17722E+00-1.02502E+01-8.45620E-01-4.87822E-01-1.88165E-13-8.05189E-13
 -1       307 1.41930E-01-1.00572E+01-8.74344E-01 1.92712E+00-6.41792E-13-8.53304E-13
 -1       308 5.02288E+00-7.60048E+00-7.02308E-01 4.21978E+00-1.00334E-12-1.00781E-12
 -1       309 1.25029E+01-3.83214E+00-4.20192E-01 6.02858E+00-1.24989E-12-1.31403E-12
 -1       310 2.22981E+01-5.76791E-02 3.66206E-03 7.35956E+00-1.30784E-12-1.52836E-12
 -1       311 3.29483E+01 3.15313E+00 4.75793E-01 7.29701E+00-1.25848E-12-1.43940E-12
 -1       312 4.22043E+01 5.38517E+00 8.85310E-01 5.42154E+00-1.10628E-12-1.07006E-12
 -1       313 4.58747E+01 6.90601E+00 9.37846E-01 1.58714E+00-8.84987E-13-3.73840E-13
 -1       314 4.74131E+01 6.59789E+00 1.07799E+00-1.58817E+00-8.54455E-13 1.02668E-13
 -1       315 4.25468E+01 5.59047E+00 8.34695E-01-4.23158E+00-1.04081E-12 4.80421E-13
 -1       316 3.50066E+01 3.46953E+00 5.31753E-01-6.73822E+00-1.13444E-12 9.31255E-13
 -1       317 2.55647E+01 3.26351E-01 1.11880E-01-7.03896E+00-1.09937E-12 1.08358E-12
 -1       318 1.57467E+01-2.54369E+00-2.70958E-01-6.53288E+00-1.22150E-12 1.08116E-12
 -1       319 7.56794E+00-6.14720E+00-6.38659E-01-4.82003E+00-1.03006E-12 1.17439E-12
 -1       320 1.90733E+00-9.21576E+00-8.55725E-01-2.75787E+00-6.57280E-13 1.15408E-12
 -1       321-9.79476E-01-1.04594E+01-9.16875E-01-8.40441E-01-2.63331E-13 8.42437E-13
 -1       322 2.03423E+01 3.05768E+00-2.16666E-02-1.74898E+00-2.49420E-13-1.26832E-13
 -1       323 2.10515E+01 2.20992E+00-1.64961E-02-2.05167E+00-2.66095E-13 5.12888E-14
 -1       324 1.94957E+01 3.87658E+00-1.44234E-02-1.01409E+00-1.37933E-13-3.04509E-13
 -1       325 1.92353E+01 4.08272E+00-1.20355E-02-6.93114E-01-8.45641E-14-3.44223E-13
 -1       326 1.90680E+01 4.20415E+00-1.06883E-02-4.08035E-01-1.64122E-14-3.36320E-13
 -1       327 1.89916E+01 4.25513E+00-1.01073E-02-1.43492E-01 4.31837E-14-3.39509E-13
 -1       328 1.90038E+01 4.24268E+00-1.01836E-02 1.17980E-01 8.44746E-14-3.22757E-13
 -1       329 1.91014E+01 4.16904E+00-1.08899E-02 3.93058E-01 1.27880E-13-2.96161E-13
 -1       330 1.92768E+01 4.03398E+00-1.23154E-02 6.90936E-01 1.86634E-13-2.45213E-13
 -1       331 1.95364E+01 3.82022E+00-1.47045E-02 1.03199E+00 2.58902E-13-1.85765E-13
 -1       332 1.98910E+01 3.49609E+00-1.83475E-02 1.41254E+00 3.06030E-13-1.09779E-13
 -1       333 2.03834E+01 2.98818E+00-2.23156E-02 1.80603E+00 3.26175E-13 3.75186E-14
 -1       334 2.10248E+01 2.12378E+00-2.95235E-02 2.04078E+00 3.23215E-13 2.83169E-13
 -1       335 2.13919E+01 1.17522E+00-2.33776E-02 1.69043E+00 2.73222E-13 5.02650E-13
 -1       336 2.08087E+01 4.98655E-01 8.96613E-03 6.82356E-01 2.37226E-13 4.10280E-13
 -1       337 2.09003E+01 7.22049E-01 1.34872E-02-6.72615E-01-1.99925E-13 1.22463E-13
 -1       338 2.06333E+01 4.19441E-01 8.15426E-03-3.00974E-02-1.64493E-13 1.03381E-13
 -1       339 2.05727E+01 2.92290E-01 5.35449E-03 3.87469E-01-1.06216E-13 7.98322E-14
 -1       340 2.06768E+01 2.36182E-01 3.40676E-03 6.98531E-01-7.52106E-14 2.38172E-14
 -1       341 2.09131E+01 2.10093E-01 2.43515E-03 9.56011E-01-6.30243E-14 1.22983E-14
 -1       342 2.12583E+01 1.88065E-01 1.73079E-03 1.18088E+00-3.47787E-14 6.95375E-15
 -1       343 2.16970E+01 1.44459E-01 7.46600E-04 1.36870E+00-2.05404E-14 3.18664E-14
 -1       344 2.22201E+01 4.65649E-02-9.03525E-04 1.48750E+00-5.72541E-14 4.32814E-14
 -1       345 2.28220E+01-1.45492E-01-3.41450E-03 1.47175E+00-3.67293E-14 1.29795E-14
 -1       346 2.34958E+01-4.63630E-01-6.59600E-03 1.22032E+00 5.15948E-14 8.15295E-14
 -1       347 2.42137E+01-8.85489E-01-9.57120E-03 6.16041E-01 9.62052E-14 1.10790E-13
 -1       348 2.48847E+01-1.25127E+00-1.11598E-02-3.99245E-01 1.72631E-13 1.51576E-13
 -1       349 2.53063E+01-1.20020E+00-1.08787E-02-1.66202E+00 8.00141E-16 2.64612E-13
 -1       350 2.52110E+01-3.32153E-01-1.89297E-02-2.59051E+00-1.51109E-13 2.20953E-13
 -1       351 2.46308E+01 1.19155E+00-3.17498E-02-2.30739E+00-3.56427E-13 9.74962E-14
 -1       352 2.41399E+01 2.29195E+00-4.09201E-02-5.33482E-01-4.31082E-13-9.31033E-14
 -1       353 2.43399E+01 1.89623E+00-3.97011E-02 1.65331E+00-2.98655E-13-2.39543E-13
 -1       354 2.50192E+01 4.00395E-01-2.38605E-02 2.72639E+00-2.38479E-13-2.42509E-13
 -1       355 2.54290E+01-8.71822E-01-1.31875E-02 2.31574E+00 1.66622E-14-2.77437E-13
 -1       356 2.52791E+01-1.29736E+00-1.03362E-02 1.12642E+00 2.97659E-13-2.45980E-13
 -1       357 2.47393E+01-1.08155E+00-1.02218E-02-4.59742E-02 2.96491E-13-2.17311E-13
 -1       358 2.40686E+01-6.52204E-01-8.14050E-03-8.44323E-01 1.27710E-13-2.64367E-13
 -1       359 2.34106E+01-2.71351E-01-4.91891E-03-1.24339E+00 1.32903E-13-2.89470E-13
 -1       360 2.28161E+01-1.99699E-02-1.95353E-03-1.34871E+00-1.21400E-13-4.20564E-13
 -1       361 2.22943E+01 1.13874E-01 7.64580E-05-1.27903E+00-2.14076E-13-3.76220E-13
 -1       362 2.18433E+01 1.67957E-01 1.18968E-03-1.12445E+00-6.04474E-14-6.40831E-14
 -1       363 2.14592E+01 1.76336E-01 1.64189E-03-9.41997E-01 1.57120E-13-2.09677E-13
 -1       364 2.11374E+01 1.62211E-01 1.69643E-03-7.63211E-01 9.87858E-14-3.43102E-13
 -1       365 2.08725E+01 1.39241E-01 1.54881E-03-6.03110E-01-8.44345E-14-1.62468E-13
 -1       366 2.06582E+01 1.14638E-01 1.32135E-03-4.67070E-01 7.81153E-14-2.42561E-13
 -1       367 2.04879E+01 9.17921E-02 1.08091E-03-3.55352E-01-1.31293E-14 1.48251E-13
 -1       368 2.03547E+01 7.20147E-02 8.59407E-04-2.65808E-01-1.82907E-13 1.21951E-13
 -1       369 2.02523E+01 5.55740E-02 6.69073E-04-1.95379E-01-1.13753E-13 3.53607E-14
 -1       370 2.01749E+01 4.22616E-02 5.12066E-04-1.40861E-01 2.08041E-14-5.76595E-14
 -1       371 2.01174E+01 3.16849E-02 3.85964E-04-9.92724E-02 1.99860E-13 1.86360E-14
 -1       372 2.00756E+01 2.34096E-02 2.86625E-04-6.80002E-02 3.00961E-13 2.38922E-13
 -1       373 2.00459E+01 1.70230E-02 2.09575E-04-4.48333E-02-5.49602E-14 2.42615E-13
 -1       374 2.00254E+01 1.21582E-02 1.50619E-04-2.79465E-02 3.96749E-14 3.06991E-13
 -1       375 2.00118E+01 8.49971E-03 1.06053E-04-1.58626E-02-5.08152E-14 2.72871E-13
 -1       376 2.00033E+01 5.78067E-03 7.26899E-05-7.40695E-03 5.29230E-14 1.40473E-13
 -1       377 1.99984E+01 3.77593E-03 4.78073E-05-1.66548E-03 4.31179E-13 5.27334E-14
 -1       378 1.99960E+01 2.29302E-03 2.90568E-05 2.05330E-03 4.47775E-13 1.50317E-13
 -1       379 1.99954E+01 1.16308E-03 1.44403E-05 4.24833E-03 3.83983E-13-2.13946E-14
 -1       380 1.99958E+01 2.32416E-04 3.33484E-06 5.25026E-03-1.30540E-13 1.01384E-13
 -1       381 1.99968E+01-6.53715E-04-7.04336E-06 5.25874E-03-3.58918E-13 2.44811E-13
 -1       382 1.99978E+01-1.43611E-03-1.75487E-05 4.44812E-03-2.46809E-13 2.92541E-13
 -1       383 2.04571E+01 2.52902E-01 1.11507E-02 1.23159E-01 1.83300E-13 3.71054E-13
 -1       384 2.03470E+01 1.48752E-01 6.59684E-03-1.99578E-01 1.10861E-13 3.04244E-13
 -1       385 2.04199E+01 9.29108E-02 3.19086E-03-3.98774E-01 7.04666E-14 2.38386E-13
 -1       386 2.06156E+01 5.37194E-02 1.33299E-03-5.21535E-01 1.52622E-14 2.04252E-13
 -1       387 2.08890E+01 1.54866E-02 1.43749E-04-5.83213E-01 1.04549E-13 2.08539E-13
 -1       388 2.12014E+01-3.12939E-02-9.03809E-04-5.80841E-01 1.07014E-13 2.30906E-13
 -1       389 2.15139E+01-9.20876E-02-1.96623E-03-5.00452E-01 5.86248E-14 1.85669E-13
 -1       390 2.17827E+01-1.66282E-01-2.95219E-03-3.24159E-01-1.81305E-14 2.11256E-13
 -1       391 2.19576E+01-2.42573E-01-3.60115E-03-4.15189E-02 6.47902E-14 2.45224E-13
 -1       392 2.19862E+01-2.94279E-01-3.58023E-03 3.32846E-01 1.11750E-13 2.05649E-13
 -1       393 2.18263E+01-2.80569E-01-2.60074E-03 7.38415E-01 1.80639E-13 2.12331E-13
 -1       394 2.14714E+01-1.63205E-01-8.08900E-04 1.05835E+00-2.05906E-14 2.19218E-13
 -1       395 2.09818E+01 5.95093E-02 1.27932E-03 1.14351E+00-7.16890E-14 2.24759E-13
 -1       396 2.04992E+01 3.21420E-01 3.18721E-03 8.85158E-01 1.16238E-13 1.03070E-13
 -1       397 2.02085E+01 5.01153E-01 4.45390E-03 3.08313E-01 1.58109E-13-3.04051E-14
 -1       398 2.02432E+01 4.98593E-01 5.03267E-03-3.96642E-01 6.44276E-14 2.25325E-14
 -1       399 2.05968E+01 3.16314E-01 4.55325E-03-9.64742E-01-6.10989E-14 2.14778E-14
 -1       400 2.11280E+01 5.68930E-02 2.70100E-03-1.21278E+00-4.64604E-14-5.91497E-15
 -1       401 2.16534E+01-1.60636E-01 1.42501E-04-1.12325E+00 5.56434E-15-2.68572E-14
 -1       402 2.20387E+01-2.72529E-01-2.31348E-03-8.07957E-01 2.38336E-13-1.45251E-13
 -1       403 2.22310E+01-2.81695E-01-3.78578E-03-4.15775E-01 2.62995E-14-1.28700E-13
 -1       404 2.22428E+01-2.27730E-01-3.90214E-03-6.06327E-02-1.87146E-13-1.53633E-13
 -1       405 2.21176E+01-1.52124E-01-3.18370E-03 2.02033E-01-1.49901E-13-9.74578E-14
 -1       406 2.19047E+01-8.12968E-02-2.14750E-03 3.62501E-01-3.27017E-15 4.14637E-14
 -1       407 2.16476E+01-2.68903E-02-1.12981E-03 4.36012E-01 7.45114E-14 2.42978E-13
 -1       408 2.13793E+01 9.18932E-03-3.20243E-04 4.46585E-01-7.83458E-14 3.61999E-13
 -1       409 2.11222E+01 2.97722E-02 2.29221E-04 4.17483E-01-3.92166E-14 3.79807E-13
 -1       410 2.08896E+01 3.90637E-02 5.46497E-04 3.67212E-01-1.88477E-14 4.43227E-13
 -1       411 2.06881E+01 4.09803E-02 6.88218E-04 3.08803E-01-3.35372E-14 3.42166E-13
 -1       412 2.05195E+01 3.85710E-02 7.12358E-04 2.50544E-01 1.72369E-13 3.22052E-13
 -1       413 2.03824E+01 3.39725E-02 6.66482E-04 1.97140E-01 1.04572E-13 3.23340E-13
 -1       414 2.02739E+01 2.85674E-02 5.85052E-04 1.50828E-01 1.06747E-13 1.88077E-13
 -1       415 2.01901E+01 2.31832E-02 4.90815E-04 1.12262E-01 5.58181E-13 1.02748E-13
 -1       416 2.01269E+01 1.82680E-02 3.97535E-04 8.11663E-02 4.12678E-13-7.52595E-14
 -1       417 2.00805E+01 1.40248E-02 3.12681E-04 5.67704E-02 1.86861E-13-3.56762E-14
 -1       418 2.00474E+01 1.05069E-02 2.39595E-04 3.80986E-02-1.11268E-13-2.14628E-13
 -1       419 2.00245E+01 7.68164E-03 1.79076E-04 2.41420E-02-2.99335E-13-2.70012E-13
 -1       420 2.00095E+01 5.47210E-03 1.30451E-04 1.39578E-02-6.66155E-14-1.76044E-13
 -1       421 2.00003E+01 3.78229E-03 9.22723E-05 6.71918E-03 6.22904E-14-1.89793E-13
 -1       422 1.99952E+01 2.51166E-03 6.27369E-05 1.73673E-03-5.45213E-15-3.71647E-14
 -1       423 1.99930E+01 1.56241E-03 3.99141E-05-1.53841E-03 7.38603E-15-3.25681E-13
 -1       424 1.99928E+01 8.40593E-04 2.19730E-05-3.51898E-03 1.56036E-13-3.21398E-13
 -1       425 1.99938E+01 2.51241E-04 8.14089E-06-4.48679E-03-4.14220E-14-2.64300E-13
 -1       426 1.99954E+01-2.95418E-04-1.73885E-06-4.59494E-03-2.58166E-14-2.42492E-13
 -1       427 1.99972E+01-8.95511E-04-6.36262E-06-3.89552E-03-6.00979E-14-3.69765E-13
 -1       428 1.99983E+01-1.40937E-03-1.04749E-05-3.13284E-03-9.74173E-14-2.39318E-13
 -1       429 2.00003E+01-4.74453E-03 2.38955E-06-4.50025E-03-7.56148E-14-7.15819E-14
 -1       430 1.99996E+01-3.48706E-03-7.95170E-06-4.72936E-03-8.93555E-14-2.23153E-13
 -1       431 1.99989E+01-2.53724E-03-1.45022E-05-4.23154E-03-1.40870E-13 1.22935E-13
 -1       432 2.00007E+01-5.75910E-03 7.52071E-06-3.77600E-03-2.56536E-13-4.38216E-13
 -1       433 2.00009E+01-6.53753E-03 1.03723E-05-2.79340E-03-2.46250E-13 1.69122E-13
 -1       434 2.00009E+01-7.05380E-03 1.20134E-05-1.71543E-03-2.72170E-13 2.73140E-13
 -1       435 2.00009E+01-7.32084E-03 1.27565E-05-6.13023E-04-3.84199E-13 4.32065E-14
 -1       436 2.00009E+01-7.34793E-03 1.29090E-05 5.00323E-04-4.82651E-13 1.96039E-13
 -1       437 2.00009E+01-7.13009E-03 1.24421E-05 1.63027E-03-4.42419E-13-2.89952E-13
 -1       438 2.00009E+01-6.65814E-03 1.08453E-05 2.73910E-03-2.89528E-14-1.15666E-13
 -1       439 2.00008E+01-5.89604E-03 6.86692E-06 3.77964E-03 1.87605E-13 4.16173E-13
 -1       440 2.00004E+01-4.85085E-03 2.29018E-06 4.56715E-03 2.67163E-13 1.17385E-13
 -1       441 1.99996E+01-3.59482E-03-9.14317E-06 4.87626E-03-4.19258E-14-5.47076E-14
 -1       442 1.03330E+01-5.35859E+00-2.05242E-02 7.06582E+00 2.29067E-13 8.96942E-13
 -1       443 1.69289E+00-3.53009E+00 4.03060E-02 6.12777E-01 7.19910E-16 9.17405E-13
 -1       444 3.60960E+00-4.30481E+00 3.53025E-03 4.31006E+00 6.18325E-14 9.11549E-13
 -1       445 1.96334E+01-5.21249E+00 1.30084E-02 6.70278E+00 1.55834E-13 7.54376E-13
 -1       446 2.61872E+01-3.44209E+00-2.00247E-02 4.55782E+00 4.69763E-13 5.88529E-13
 -1       447 1.98564E+01 3.55596E+00-1.80731E-02-1.37559E+00-1.93661E-13-2.20025E-13
 -1       448 3.40659E+01 5.89149E+00 2.69887E-03-4.75042E-01 9.76969E-13 1.68227E-13
 -1       449 3.47318E+01 7.97266E+00-8.70026E-03-2.37946E-01 9.32227E-13 2.88134E-13
 -1       450 3.48026E+01 7.44643E+00-2.77011E-02 1.76817E-01 5.75706E-13 3.87364E-13
 -1       451 3.38129E+01 3.52317E+00 2.37355E-02-9.00292E-01 5.78426E-13 3.37091E-13
 -1       452 3.02711E+01-7.00097E-01 2.38757E-02-2.88653E+00 4.22135E-13 9.91152E-14
 -1       453 2.47728E+01-4.01691E+00-6.02358E-03-5.15268E+00 1.35184E-13 6.96387E-14
 -1       454 1.49636E+01-5.57422E+00-1.05492E-03-7.27612E+00-2.13565E-13-4.96479E-13
 -1       455 7.75539E+00-5.40963E+00-4.54276E-02-6.49281E+00-1.48895E-13-6.21572E-13
 -1       456 2.60775E+00-4.28259E+00-9.72594E-03-3.33644E+00-1.59067E-13-7.55243E-13
 -1       457 1.47405E+00-4.75799E+00-7.62008E-02 1.69707E+00-2.05301E-13-1.00503E-12
 -1       458 6.05814E+00-5.18808E+00-4.33467E-02 5.53774E+00-1.92610E-13-7.83526E-13
 -1       459 1.35785E+01-5.98520E+00-7.12739E-02 6.90427E+00-2.98594E-13-7.71300E-13
 -1       460 2.21000E+01-5.16193E+00-3.44746E-02 5.93302E+00-2.88686E-13-6.20629E-13
 -1       461 2.94038E+01-2.32411E+00 1.40632E-02 3.40380E+00-5.37494E-13-5.02820E-13
 -1       462 3.43853E+01 2.00904E+00 7.27805E-02 8.67521E-01-9.02854E-13-1.33810E-13
 -1       463 3.67332E+01 6.02460E+00 1.04173E-01-2.19157E-01-1.03233E-12-1.19030E-13
 -1       464 3.56054E+01 7.95527E+00 1.43588E-02 8.09807E-02-1.03792E-12 6.90220E-14
 -1       465 3.58015E+01 6.65405E+00 2.19188E-02 8.06487E-01-9.57387E-13 3.04201E-14
 -1       466 3.37490E+01 2.20596E+00-4.42975E-02 4.37554E-01-8.23619E-13-2.47802E-13
 -1       467 3.14740E+01-1.38129E+00 1.11420E-02-1.61185E+00-5.19586E-13-6.01880E-14
 -1       468 2.43392E+01-4.65010E+00-3.49158E-02-5.14302E+00-1.55126E-13 2.42431E-13
 -1       469 1.72282E+01-5.68592E+00-5.08803E-02-6.61200E+00-2.60902E-15 3.92568E-13
 -1       470 9.61290E+00-5.44063E+00-9.22932E-03-6.52425E+00 4.07355E-13 7.07233E-13
 -1       471 4.08417E+00-4.70905E+00-1.05349E-02-4.29998E+00 1.36030E-13 7.79835E-13
 -1       472 3.16373E+01 6.52660E-01-8.89037E-03 1.44796E+00 7.19170E-13 3.09641E-13
 -1       473 2.14149E+01-5.64410E+00 4.32259E-02-6.01864E+00-3.18572E-13-2.36790E-15
 -1       474 3.14177E+01 5.18852E+00-1.10534E-01 1.40621E+00 4.95173E-13 5.33781E-13
 -1       475 2.07520E+01 8.85314E-01 4.13189E-03 6.04820E-01 2.30257E-13 1.42918E-13
 -1       476 1.93594E+01 3.48426E+00-4.61760E-03-4.15745E-01-4.74526E-14-2.92117E-13
 -1       477 1.95974E+01 3.25317E+00-5.43493E-03-6.27914E-01-1.03190E-13-2.82720E-13
 -1       478 1.91911E+01 3.63212E+00-4.08750E-03-2.77999E-02 4.99274E-14-2.96995E-13
 -1       479 1.92589E+01 3.56750E+00-4.23935E-03 1.72027E-01 9.73716E-14-2.83319E-13
 -1       480 1.94165E+01 3.41713E+00-4.70123E-03 3.86743E-01 1.41061E-13-2.31186E-13
 -1       481 1.96610E+01 3.16955E+00-5.44311E-03 6.27371E-01 2.12729E-13-1.55776E-13
 -1       482 1.99829E+01 2.80788E+00-6.26896E-03 8.80697E-01 2.59681E-13-1.15216E-13
 -1       483 2.03878E+01 2.28803E+00-5.62749E-03 1.11801E+00 2.94267E-13-3.10962E-14
 -1       484 2.05979E+01 5.31383E-01 5.34362E-03 3.65438E-02 1.61206E-13 1.21893E-13
 -1       485 2.06842E+01 1.11671E+00 3.14074E-03-4.54376E-01-1.68974E-13-7.27196E-14
 -1       486 3.02001E+01 1.46904E-01-1.03225E-01 4.76164E-01 3.53374E-13 5.76234E-13
 -1       487 2.06015E+01 7.54071E-01 2.91874E-03 1.36732E-01-1.46130E-13-5.45737E-14
 -1       488 2.05646E+01 5.70891E-01 1.57776E-03 5.92340E-01-1.24905E-13-5.33365E-14
 -1       489 2.05975E+01 4.81326E-01 1.17110E-03 9.60856E-01-7.03145E-14-5.70110E-14
 -1       490 2.06990E+01 4.28086E-01 9.19901E-04 1.27786E+00-7.72714E-14-4.93137E-14
 -1       491 2.08680E+01 3.66320E-01 6.38723E-04 1.55797E+00-4.24816E-14-1.25662E-13
 -1       492 2.11149E+01 2.44741E-01 1.24754E-04 1.79399E+00-3.51372E-14-1.30694E-13
 -1       493 2.14724E+01-2.06673E-03-7.37051E-04 1.95208E+00-1.93855E-14-5.21413E-14
 -1       494 2.20046E+01-4.47738E-01-1.90688E-03 1.96261E+00 6.98382E-14 8.79215E-14
 -1       495 2.28051E+01-1.13574E+00-3.30261E-03 1.70783E+00 1.43294E-13 9.83900E-14
 -1       496 2.39497E+01-1.97176E+00-5.19596E-03 1.02267E+00 1.73440E-13 1.86421E-13
 -1       497 2.53588E+01-2.53895E+00-1.19417E-02-2.27571E-01 1.60311E-13 1.93697E-13
 -1       498 2.66453E+01-2.00774E+00-3.00761E-02-1.85623E+00-8.14846E-14 3.42576E-13
 -1       499 2.71178E+01 4.28767E-01-7.87619E-02-2.93139E+00-4.37168E-13 3.06893E-13
 -1       500 2.68668E+01 3.52242E+00-1.13899E-01-1.95877E+00-6.28678E-13-6.91548E-14
 -1       501 2.66465E+01 4.47125E+00-1.42842E-01 7.79153E-01-5.13346E-13-3.91307E-13
 -1       502 2.69346E+01 2.12104E+00-1.32755E-01 2.92622E+00-3.42684E-13-6.37494E-13
 -1       503 2.70834E+01-9.81621E-01-4.81722E-02 2.71154E+00-5.02341E-14-4.79552E-13
 -1       504 2.61299E+01-2.46539E+00-1.67836E-02 1.16088E+00 2.52164E-13-3.53969E-13
 -1       505 2.47291E+01-2.31523E+00-5.72204E-03-3.40289E-01 2.76959E-13-2.88815E-13
 -1       506 2.34362E+01-1.52487E+00-4.41553E-03-1.28774E+00 1.79903E-13-3.09563E-13
 -1       507 2.24867E+01-7.32694E-01-3.04386E-03-1.71957E+00 7.71745E-14-2.83638E-13
 -1       508 2.18494E+01-1.68249E-01-1.38892E-03-1.80973E+00-1.06405E-14-3.07267E-13
 -1       509 2.14265E+01 1.58279E-01-2.06074E-04-1.70751E+00-8.81622E-14-1.39270E-13
 -1       510 2.11317E+01 3.10948E-01 4.51837E-04-1.51255E+00-1.87322E-14 4.99711E-14
 -1       511 2.09104E+01 3.56611E-01 7.34221E-04-1.28512E+00-5.01813E-14-4.15975E-14
 -1       512 2.07335E+01 3.44581E-01 7.93057E-04-1.05939E+00 9.35738E-14-1.98740E-13
 -1       513 2.05868E+01 3.06002E-01 7.37428E-04-8.53003E-01 7.04394E-14-9.65894E-14
 -1       514 2.04637E+01 2.58605E-01 6.35047E-04-6.73515E-01-4.58856E-14 1.02768E-13
 -1       515 2.03610E+01 2.11578E-01 5.22276E-04-5.22640E-01 2.17618E-13 1.34580E-13
 -1       516 2.02763E+01 1.69125E-01 4.16674E-04-3.98964E-01-1.09758E-13 1.85144E-13
 -1       517 2.02077E+01 1.32750E-01 3.25207E-04-2.99583E-01-1.49888E-13 2.96758E-13
 -1       518 2.01530E+01 1.02588E-01 2.49422E-04-2.21065E-01-7.65774E-14 4.13055E-13
 -1       519 2.01103E+01 7.81412E-02 1.88387E-04-1.59971E-01 2.30915E-13 5.10528E-13
 -1       520 2.00775E+01 5.86745E-02 1.40209E-04-1.13124E-01 2.79572E-13 1.54694E-13
 -1       521 2.00529E+01 4.34039E-02 1.02780E-04-7.77233E-02 6.60998E-15-8.16900E-14
 -1       522 2.00348E+01 3.15884E-02 7.41018E-05-5.13786E-02 1.08440E-14 9.53102E-14
 -1       523 2.00219E+01 2.25653E-02 5.24082E-05-3.20974E-02 1.21554E-13 1.32057E-13
 -1       524 2.00128E+01 1.57590E-02 3.61919E-05-1.82538E-02-1.03357E-13 4.49857E-13
 -1       525 2.00068E+01 1.06769E-02 2.41480E-05-8.54789E-03 5.08591E-14 1.88490E-13
 -1       526 2.00029E+01 6.89813E-03 1.51925E-05-1.96426E-03 4.20222E-13-1.85101E-13
 -1       527 2.00006E+01 4.05808E-03 8.28945E-06 2.26581E-03 3.59322E-13 7.61993E-14
 -1       528 1.99995E+01 1.83815E-03 3.63538E-06 4.69451E-03 2.10478E-13-4.15497E-14
 -1       529 1.99990E+01-5.17687E-05-8.07964E-07 5.69533E-03-2.22465E-13-3.09472E-13
 -1       530 2.05905E+01 2.11081E-01 1.22813E-03-5.92854E-01 7.19168E-14 8.58547E-14
 -1       531 2.07216E+01 1.09548E-01 3.73973E-04-7.51077E-01 2.72593E-14 5.10123E-14
 -1       532 2.09206E+01 1.81894E-03-2.88111E-04-8.23967E-01 6.89144E-14 1.14810E-13
 -1       533 2.11717E+01-1.30768E-01-9.70143E-04-8.02567E-01 6.57734E-14 1.81208E-13
 -1       534 2.14584E+01-2.95918E-01-1.70972E-03-6.66444E-01-2.28929E-15 2.50804E-13
 -1       535 2.17575E+01-4.82664E-01-2.36072E-03-3.92779E-01 5.49629E-14 2.01540E-13
 -1       536 2.20322E+01-6.49647E-01-2.66551E-03 2.71809E-02 1.09137E-13 1.51947E-13
 -1       537 2.22246E+01-7.16930E-01-2.36885E-03 5.61598E-01 1.07135E-13 2.59124E-13
 -1       538 2.22631E+01-5.80199E-01-1.17484E-03 1.10523E+00 2.29440E-14 3.47932E-13
 -1       539 2.20980E+01-1.71560E-01 2.68931E-04 1.46662E+00 1.34300E-15 2.64752E-13
 -1       540 2.17652E+01 4.46824E-01 1.16473E-03 1.42217E+00 1.09844E-13 1.88513E-13
 -1       541 2.14264E+01 1.02993E+00 1.70856E-03 8.58104E-01 2.35084E-13 1.12681E-13
 -1       542 2.12953E+01 1.26207E+00 1.93933E-03-7.73825E-02 9.69014E-14 1.44621E-13
 -1       543 2.14710E+01 9.99313E-01 1.38373E-03-9.98246E-01-1.82081E-14 7.13383E-15
 -1       544 2.18401E+01 4.09335E-01 9.00983E-04-1.53043E+00-1.44080E-14-3.55703E-14
 -1       545 2.21893E+01-1.92692E-01 7.64640E-04-1.55024E+00 3.18542E-14-2.18111E-14
 -1       546 2.23663E+01-5.77559E-01-8.68495E-04-1.18239E+00 1.02517E-13-9.56767E-14
 -1       547 2.23427E+01-6.93369E-01-2.65818E-03-6.50862E-01 9.09796E-14 2.61101E-14
 -1       548 2.21716E+01-6.12756E-01-2.85691E-03-1.41544E-01-7.46589E-14 2.56762E-14
 -1       549 2.19245E+01-4.44351E-01-2.37432E-03 2.50557E-01-9.76702E-14-1.52736E-13
 -1       550 2.16530E+01-2.65394E-01-1.67779E-03 5.02417E-01-8.64200E-14-1.72814E-13
 -1       551 2.13878E+01-1.16468E-01-9.45938E-04 6.29521E-01-7.94354E-14-1.56441E-13
 -1       552 2.11443E+01-1.04501E-02-3.42458E-04 6.62783E-01-1.10948E-13-8.13877E-14
 -1       553 2.09284E+01 5.53803E-02 7.50489E-05 6.33997E-01-1.47270E-13 2.59810E-15
 -1       554 2.07414E+01 8.98030E-02 3.23452E-04 5.69512E-01-1.10475E-13 1.85563E-13
 -1       555 2.05826E+01 1.02376E-01 4.42478E-04 4.88692E-01-1.28898E-14 2.80763E-13
 -1       556 2.04503E+01 1.01190E-01 4.73546E-04 4.04502E-01 2.01601E-14 4.36178E-13
 -1       557 2.03418E+01 9.22761E-02 4.51056E-04 3.24832E-01 1.21628E-14 5.36384E-13
 -1       558 2.02545E+01 7.97645E-02 4.00325E-04 2.53897E-01 2.30969E-13 5.78449E-13
 -1       559 2.01855E+01 6.62810E-02 3.38300E-04 1.93429E-01 4.58096E-13 4.33680E-13
 -1       560 2.01319E+01 5.33665E-02 2.75398E-04 1.43597E-01 5.50265E-13 5.48710E-13
 -1       561 2.00912E+01 4.18257E-02 2.17404E-04 1.03668E-01 3.84646E-13 6.26486E-13
 -1       562 2.00608E+01 3.19888E-02 1.67035E-04 7.24552E-02 1.29513E-13 5.62749E-13
 -1       563 2.00387E+01 2.38980E-02 1.25106E-04 4.86086E-02-5.50356E-14 3.78516E-13
 -1       564 2.00230E+01 1.74318E-02 9.13243E-05 3.07949E-02-1.10501E-13 1.92505E-13
 -1       565 2.00123E+01 1.23863E-02 6.47986E-05 1.77960E-02-4.98142E-16 2.53807E-13
 -1       566 2.00054E+01 8.52418E-03 4.43627E-05 8.55963E-03 9.63343E-14 1.29673E-13
 -1       567 2.00011E+01 5.60337E-03 2.87668E-05 2.21817E-03 1.94842E-13-6.35648E-14
 -1       568 1.99989E+01 3.39164E-03 1.66603E-05-1.91247E-03 9.23862E-14-1.12930E-13
 -1       569 1.99979E+01 1.66625E-03 7.53668E-06-4.34294E-03 6.60394E-14 1.29656E-13
 -1       570 1.99978E+01 2.08159E-04-1.65018E-06-5.43830E-03 1.38544E-14-4.42330E-14
 -1       571 1.99982E+01-1.16914E-03-7.24268E-06-5.40660E-03-7.45179E-14 1.61432E-13
 -1       572 2.00017E+01-1.80659E-03 4.02105E-06-3.58440E-03 1.70015E-13-1.01900E-13
 -1       573 2.00019E+01-1.64997E-03 4.79793E-06-2.41734E-03 3.53988E-14 4.07575E-13
 -1       574 2.00003E+01-1.79270E-03-3.77915E-06-5.37862E-03-1.86288E-13-3.05859E-14
 -1       575 2.00013E+01-1.88987E-03 2.84740E-06-4.63264E-03-8.55819E-14-2.14554E-13
 -1       576 2.00019E+01-1.51945E-03 5.43822E-06-1.24381E-03-5.12400E-14 2.10272E-14
 -1       577 2.00019E+01-1.48822E-03 5.73931E-06-8.34012E-05-6.11252E-14 5.37145E-14
 -1       578 2.00020E+01-1.57992E-03 5.85766E-06 1.09493E-03-1.61099E-13 1.20807E-13
 -1       579 2.00020E+01-1.75807E-03 5.59969E-06 2.29959E-03 2.07744E-13-4.35664E-14
 -1       580 2.00019E+01-1.95185E-03 3.73366E-06 3.54811E-03 3.22507E-13 2.99565E-13
 -1       581 2.00014E+01-2.00590E-03 3.31500E-06 4.65446E-03 1.86687E-13 2.31991E-13
 -1       582 2.00004E+01-1.86297E-03-2.44958E-06 5.45591E-03-1.00517E-13-3.72495E-13
 -1       583 1.74275E+01-5.10020E+00 8.52333E-02 6.84527E+00-2.33022E-13 6.01762E-13
 -1       584 5.66906E+00-1.36089E+00 1.83682E-01-2.37897E+00 1.68421E-13 7.00995E-13
 -1       585 2.05445E+01 3.35401E-01 2.75775E-03-3.40993E-01 1.32837E-13 9.81543E-14
 -1       586 5.30779E+00-1.53343E+00 1.70992E-01 2.77676E+00 2.99517E-14 8.74953E-13
 -1       587 2.43102E+01-5.20863E+00 1.39778E-02 4.50799E+00-4.00097E-14 3.92953E-13
 -1       588 1.72194E+01-5.18306E+00 1.03480E-01-6.40215E+00 5.98313E-13 1.52590E-13
 -1       589 3.07421E+01 6.17775E+00-1.65991E-01-1.36908E+00-1.00206E-12 1.53311E-13
 -1       590 1.92236E+01 3.60641E+00-4.20397E-03-2.19422E-01 2.09324E-14-3.08257E-13
 -1       591 2.94486E+01 6.31825E+00-1.64272E-01-1.37582E+00 7.94004E-13-1.38896E-13
 -1       592 4.37221E+00-1.50760E+00 1.64521E-01-5.86181E-01-1.86924E-13-8.76299E-13
 -1       593 3.00689E+01 2.25681E+00-1.26652E-01-1.60270E+00 5.54758E-13-3.21868E-13
 -1       594 2.98539E+01 7.36937E+00-1.90259E-01 2.70520E-01 6.25458E-13 1.51202E-13
 -1       595 2.77585E+01-3.60842E+00-5.72680E-02-2.09618E+00-2.67217E-14 3.55743E-13
 -1       596 1.36557E+01-4.44966E+00 1.26734E-01-7.02685E+00-4.72240E-13-4.09436E-13
 -1       597 7.79246E+00-2.70449E+00 1.57766E-01-5.37747E+00-3.24074E-13-5.28910E-13
 -1       598 6.69619E+00-2.05966E+00 1.79117E-01 3.90798E+00 5.52093E-14-8.24410E-13
 -1       599 1.32653E+01-4.46411E+00 1.24127E-01 6.71004E+00 1.09697E-13-5.45841E-13
 -1       600 2.04499E+01-5.82855E+00 5.55608E-02 5.95730E+00 1.58241E-13-2.83389E-13
 -1       601 2.68384E+01-5.18449E+00-4.81568E-02 2.99853E+00 1.38209E-13-1.20133E-13
 -1       602 3.07933E+01-1.58653E+00-6.13858E-02-3.38385E-01-4.03401E-13 1.43663E-13
 -1       603 3.14559E+01 2.80500E+00-1.41737E-01-2.09388E+00-7.64278E-13 2.28539E-13
 -1       604 3.04345E+01 6.24328E+00-1.88191E-01 1.18668E+00-8.08645E-13-3.18964E-13
 -1       605 3.10081E+01 3.63750E+00-1.42095E-01 2.40805E+00-6.41077E-13-4.41321E-13
 -1       606 3.00396E+01-1.09470E+00-1.13364E-01 1.80489E+00-1.72272E-13-6.54858E-13
 -1       607 2.83070E+01-4.35350E+00-3.81135E-02-1.42195E+00 2.19949E-13-4.05009E-13
 -1       608 2.23323E+01-5.86888E+00 2.13599E-02-5.11887E+00 5.70391E-13-1.94116E-14
 -1       609 9.71396E+00-3.08125E+00 1.40205E-01 6.18771E+00-3.08691E-13 7.19799E-13
 -1       610 8.51146E+00-2.58472E+00 1.62316E-01-4.99385E+00 4.81046E-13 4.38094E-13
 -1       611 2.06475E+01 1.85378E+00-5.04974E-03-1.11245E+00-2.05666E-13-8.87228E-14
 -1       612 2.09100E+01 1.32673E+00-8.91895E-04 1.22968E+00 2.89054E-13 1.98622E-13
 -1       613 2.82202E+01-3.05887E+00-6.34050E-02 8.21642E-01 7.91025E-14-3.55750E-13
 -1       614 1.99273E+01 2.89656E+00-6.09879E-03-8.51196E-01-1.58121E-13-2.16033E-13
 -1       615 1.99990E+01-1.26953E-03-3.80482E-06 5.70357E-03-3.21862E-13-3.33371E-14
 -1       616 2.49892E+01-5.08977E+00 7.70298E-03-3.61103E+00-2.73732E-13 3.94153E-13
 -1       617 2.02748E+01 2.44890E+00-5.60548E-03-1.01620E+00-1.97809E-13-1.67309E-13
 -1       618 2.82353E+01 5.91466E+00-1.58214E-01 1.35514E+00 4.50494E-13 1.16945E-13
 -1       619 1.42626E+01-3.20118E+00 1.16357E-01-5.83060E+00 5.64999E-13 2.87628E-13
 -1       620 1.87716E+01-4.98373E+00 8.24045E-02-6.29539E+00-5.16039E-13-1.17220E-13
 -1       621 1.94827E+01 2.90446E+00-1.34664E-03 1.26438E-01 9.96645E-14-2.11367E-13
 -1       622 1.93517E+01 3.03886E+00-1.22772E-03 4.13853E-03 5.62819E-14-2.75912E-13
 -1       623 1.99898E+01 2.32578E+00-1.46610E-03 4.15116E-01 2.01036E-13-9.76708E-14
 -1       624 2.03131E+01 1.86232E+00-2.05133E-03 5.37339E-01 2.21765E-13-4.53164E-14
 -1       625 2.05777E+01 1.16754E+00 2.75938E-03 3.67048E-01 2.04093E-13 2.96632E-15
 -1       626 9.58583E+00-1.02624E+00 1.33895E-01 4.27559E+00-2.14759E-13 5.38902E-13
 -1       627 2.04337E+01 1.66304E+00 1.35267E-03-4.80263E-01-1.74800E-13-1.41741E-13
 -1       628 2.03842E+01 1.05295E+00 7.51251E-04 3.34672E-01-1.37646E-13-1.32442E-13
 -1       629 2.03185E+01 8.54305E-01 3.65868E-04 7.67983E-01-8.76945E-14-1.12835E-13
 -1       630 2.02573E+01 7.45636E-01 3.26190E-04 1.14247E+00-7.90389E-14-9.58077E-14
 -1       631 2.02125E+01 6.65580E-01 2.92579E-04 1.48016E+00-8.20654E-14-1.57434E-13
 -1       632 2.01999E+01 5.53857E-01 2.14077E-04 1.79585E+00-3.94397E-14-1.55305E-13
 -1       633 2.02562E+01 3.34924E-01 6.77802E-05 2.09330E+00 5.98898E-14-9.84294E-14
 -1       634 2.04584E+01-8.86758E-02 1.91953E-04 2.35964E+00 8.03871E-14-4.84557E-14
 -1       635 2.09484E+01-8.27177E-01 1.58854E-03 2.54943E+00 1.29750E-13-1.39643E-14
 -1       636 2.19468E+01-1.94610E+00 4.98849E-03 2.53789E+00 1.62725E-13-1.55069E-14
 -1       637 2.36999E+01-3.27185E+00 1.26611E-02 2.05538E+00 1.79117E-13-3.41670E-14
 -1       638 2.62065E+01-3.95705E+00 4.40492E-03 6.83564E-01 2.45302E-13 3.16067E-14
 -1       639 2.86537E+01-2.15055E+00-6.91959E-02-1.65230E+00-1.69809E-13 3.10134E-13
 -1       640 2.48422E+01-3.79677E+00 1.16365E-02-1.38754E+00 3.71001E-13-3.80582E-13
 -1       641 2.27197E+01-2.57540E+00 7.86097E-03-2.24010E+00 3.18298E-13-2.26291E-13
 -1       642 2.13781E+01-1.29946E+00 6.34380E-04-2.42316E+00 1.84413E-13-1.34797E-13
 -1       643 2.06659E+01-3.71736E-01 1.24315E-04-2.29879E+00-6.41348E-14-1.01782E-13
 -1       644 2.03352E+01 1.81991E-01 9.09359E-05-2.05550E+00-3.19275E-15-1.41528E-13
 -1       645 2.02039E+01 4.58731E-01 2.29409E-04-1.77924E+00 7.99114E-14 4.79076E-15
 -1       646 2.01620E+01 5.59822E-01 2.99422E-04-1.50492E+00 2.84499E-14 9.66002E-14
 -1       647 2.01523E+01 5.61059E-01 3.03692E-04-1.24854E+00-8.88661E-14 1.26952E-13
 -1       648 2.01488E+01 5.12099E-01 2.71784E-04-1.01793E+00 9.55542E-14 1.62719E-13
 -1       649 2.01422E+01 4.42709E-01 2.28976E-04-8.16452E-01 1.35059E-13 3.34062E-13
 -1       650 2.01306E+01 3.69391E-01 1.85839E-04-6.44653E-01 1.65279E-13 3.38167E-13
 -1       651 2.01153E+01 3.00507E-01 1.47144E-04-5.01197E-01 2.06819E-14 3.25152E-13
 -1       652 2.00983E+01 2.39709E-01 1.14425E-04-3.83609E-01-1.74222E-13 2.34485E-13
 -1       653 2.00813E+01 1.88080E-01 8.76639E-05-2.88836E-01 3.84422E-14 2.79374E-13
 -1       654 2.00654E+01 1.45385E-01 6.62455E-05-2.13641E-01-1.14744E-13 1.43084E-13
 -1       655 2.00513E+01 1.10780E-01 4.93778E-05-1.54873E-01-4.46074E-14-1.93357E-13
 -1       656 2.00394E+01 8.31927E-02 3.62734E-05-1.09622E-01 6.93269E-14-6.04427E-13
 -1       657 2.00295E+01 6.15221E-02 2.62210E-05-7.53052E-02 1.50566E-15-6.09188E-13
 -1       658 2.00217E+01 4.47319E-02 1.86083E-05-4.96919E-02 1.00351E-13-4.55873E-13
 -1       659 2.00155E+01 3.18905E-02 1.29107E-05-3.09069E-02 4.82386E-14-3.12169E-13
 -1       660 2.00108E+01 2.21823E-02 8.69192E-06-1.74087E-02-2.09920E-14-2.56805E-13
 -1       661 2.00073E+01 1.49038E-02 5.49730E-06-7.95802E-03 9.71211E-14-6.45055E-14
 -1       662 2.00047E+01 9.44668E-03 3.11863E-06-1.58185E-03 4.32100E-13-2.81329E-13
 -1       663 2.00028E+01 5.27722E-03 9.54717E-07 2.45200E-03 2.10744E-13-1.63542E-13
 -1       664 2.00015E+01 1.95807E-03-6.42034E-06 4.67012E-03-2.11457E-13-3.38498E-13
 -1       665 2.06651E+01 1.45825E-01 2.34850E-05-9.43139E-01 4.57862E-14-3.58245E-14
 -1       666 7.72603E+00-2.86533E-01 1.59742E-01 1.44455E+00-3.40257E-14-7.19730E-13
 -1       667 2.05617E+01 3.23511E-01 2.38810E-04-7.67634E-01 7.26716E-14-1.63639E-14
 -1       668 2.11005E+01-3.07615E-01-4.87131E-04-1.00617E+00-3.20319E-14 1.44945E-13
 -1       669 2.14505E+01-6.13809E-01-8.22651E-04-8.49216E-01 4.32126E-14 1.21200E-13
 -1       670 2.18857E+01-9.42766E-01-9.96718E-04-5.22496E-01 4.91765E-14 1.81824E-13
 -1       671 2.23682E+01-1.20358E+00-9.60045E-04-4.49637E-03 4.22653E-14 2.10754E-13
 -1       672 2.28030E+01-1.23058E+00-1.13236E-03 6.72589E-01-3.31994E-14 3.61451E-13
 -1       673 2.30445E+01-8.25226E-01-1.14906E-03 1.35848E+00 4.79423E-15 4.17573E-13
 -1       674 2.29747E+01 9.08429E-02-3.19005E-03 1.75382E+00 5.80315E-14 3.64466E-13
 -1       675 2.26392E+01 1.28578E+00-7.43014E-03 1.51108E+00 1.93897E-13 3.24947E-13
 -1       676 2.23350E+01 2.14665E+00-6.37825E-03 5.46558E-01 1.76620E-13 3.12692E-13
 -1       677 2.23516E+01 2.11569E+00-6.89987E-03-7.33754E-01 1.78405E-13 2.79745E-13
 -1       678 2.26819E+01 1.21226E+00-8.91622E-03-1.65284E+00 9.38217E-14 6.10802E-14
 -1       679 2.30195E+01 3.13245E-02-2.65701E-03-1.84921E+00 1.48530E-15 3.13983E-14
 -1       680 2.30769E+01-8.45392E-01 2.21861E-04-1.43443E+00 1.16068E-13-3.40347E-14
 -1       681 2.28214E+01-1.20577E+00-2.35241E-03-7.59228E-01 1.26136E-13-1.02836E-13
 -1       682 2.23849E+01-1.14496E+00-1.58546E-03-1.07920E-01 1.48625E-15-5.28640E-14
 -1       683 2.19134E+01-8.77977E-01-9.62218E-04 3.77060E-01 2.49802E-14-1.45882E-13
 -1       684 2.14878E+01-5.60458E-01-7.73753E-04 6.80314E-01-8.50668E-14-6.00244E-14
 -1       685 2.11402E+01-2.79919E-01-4.95479E-04 8.28028E-01-1.63744E-13 3.27176E-14
 -1       686 2.08714E+01-7.06847E-02-2.22221E-04 8.62805E-01-8.84964E-14 8.34770E-14
 -1       687 2.06678E+01 6.63026E-02-3.46680E-05 8.24373E-01-1.68948E-13 9.57555E-14
 -1       688 2.05137E+01 1.43996E-01 7.74370E-05 7.43786E-01-1.23084E-13 2.11556E-14
 -1       689 2.03962E+01 1.78588E-01 1.35320E-04 6.43418E-01-1.12946E-13-2.54174E-15
 -1       690 2.03054E+01 1.84695E-01 1.57108E-04 5.38319E-01-6.83033E-14 9.99964E-14
 -1       691 2.02346E+01 1.73739E-01 1.56201E-04 4.37871E-01-3.05390E-14 9.46784E-14
 -1       692 2.01789E+01 1.53879E-01 1.42559E-04 3.47326E-01 9.94246E-14-1.80191E-13
 -1       693 2.01351E+01 1.30542E-01 1.22987E-04 2.69078E-01 2.32620E-13 1.41889E-13
 -1       694 2.01007E+01 1.07092E-01 1.01816E-04 2.03648E-01 3.80047E-13 4.47781E-13
 -1       695 2.00740E+01 8.54341E-02 8.15680E-05 1.50414E-01 4.17172E-13 4.15889E-13
 -1       696 2.00534E+01 6.64950E-02 6.35421E-05 1.08128E-01 3.44529E-13 3.72050E-13
 -1       697 2.00377E+01 5.05769E-02 4.82479E-05 7.52714E-02 2.02910E-13 1.83760E-13
 -1       698 2.00259E+01 3.76075E-02 3.57372E-05 5.02749E-02 3.65839E-14 8.67771E-14
 -1       699 2.00173E+01 2.73076E-02 2.58053E-05 3.16612E-02-3.83615E-14 1.44019E-14
 -1       700 2.00110E+01 1.92990E-02 1.80981E-05 1.81173E-02 2.15987E-13 4.08806E-14
 -1       701 2.00067E+01 1.31685E-02 1.21777E-05 8.52926E-03 2.18554E-13-2.51935E-14
 -1       702 2.00037E+01 8.50763E-03 7.36505E-06 1.99371E-03 1.59213E-13-2.60366E-13
 -1       703 2.00018E+01 4.93794E-03 4.47867E-06-2.19948E-03 1.72423E-13-2.17499E-13
 -1       704 2.00007E+01 2.08158E-03 6.91167E-06-4.57357E-03-4.55916E-14-1.27411E-13
 -1       705 2.00005E+01 2.23480E-04 1.41015E-06-5.31811E-03-1.13104E-13-4.72830E-14
 -1       706 2.00029E+01 4.51572E-03 1.48855E-06-5.54370E-04 2.15152E-13-9.48155E-14
 -1       707 2.00009E+01-4.34313E-05-1.54677E-06 5.35916E-03-3.00366E-14-2.93566E-13
 -1       708 2.00029E+01 3.20573E-03 2.27282E-07-2.49954E-03 3.65525E-13 1.63381E-13
 -1       709 2.00029E+01 4.47907E-03 1.98649E-06 3.32288E-04 2.20368E-13 4.42516E-14
 -1       710 2.00029E+01 4.05751E-03 8.11210E-07-1.47304E-03 2.60299E-13 1.49402E-13
 -1       711 2.05215E+01 5.16010E-01 7.39432E-04-5.01824E-01 1.19825E-13-2.10050E-14
 -1       712 2.00030E+01 3.96337E-03 2.15895E-06 1.28000E-03 2.42870E-13 1.76109E-13
 -1       713 2.00031E+01 3.05656E-03 2.39421E-06 2.39252E-03 3.75462E-13 5.28744E-14
 -1       714 2.00028E+01 1.97106E-03 2.47788E-06 3.63188E-03 1.92336E-13 2.03898E-13
 -1       715 1.00662E+01-6.91099E-01 1.44981E-01-3.53275E+00 2.01119E-13 3.86961E-13
 -1       716 2.93502E+01-4.35218E-01-1.23478E-01-2.27909E+00-4.98091E-13 3.64798E-13
 -1       717 2.53912E+01-5.00959E+00 1.30987E-02-2.45139E+00 5.20625E-13-4.11133E-13
 -1       718 2.08414E+01-5.61845E-02-2.04915E-04-1.02786E+00-1.28714E-14 3.57716E-14
 -1       719 2.04286E+01 1.28342E+00-1.17190E-03-5.09569E-02-1.18174E-13-1.49752E-13
 -1       720 1.97022E+01 2.66792E+00-1.47004E-03 2.66615E-01 1.60002E-13-1.38194E-13
 -1       721 1.96055E+01 2.78303E+00-1.51925E-03-2.99431E-01-5.11257E-14-2.61911E-13
 -1       722 7.89943E+00 1.58972E-01 1.46827E-01 3.31069E-01 5.78561E-14 7.64958E-13
 -1       723 2.75669E+01-7.68085E-01-1.13609E-01-1.48851E+00 1.06283E-13-4.87128E-13
 -1       724 2.05326E+01 7.72476E-01 1.20155E-03-1.32621E-01 1.62588E-13-8.60752E-15
 -1       725 1.56278E+01-3.04444E+00 9.59215E-02 5.91034E+00-2.86784E-13 4.97474E-13
 -1       726 1.21191E+01-2.12074E+00 1.12451E-01 5.21812E+00 2.19935E-13-5.32338E-13
 -1       727 2.63937E+01 5.89502E+00-1.55655E-01-5.26369E-01 5.89029E-13 3.37165E-15
 -1       728 1.32475E+01-2.33284E+00 1.29368E-01-5.69874E+00-4.26204E-13-2.17274E-13
 -1       729 2.79501E+01-2.21883E+00-8.47830E-02 3.40891E-01 7.15730E-14 5.00416E-13
 -1       730 8.55181E+00-5.88751E-01 1.52920E-01-3.16638E+00-2.85104E-13-5.88363E-13
 -1       731 1.85344E+01-4.31301E+00 8.65133E-02 5.69160E+00 2.52309E-13-2.39333E-13
 -1       732 2.44184E+01-5.56417E+00-3.54304E-02 3.57624E+00 2.28085E-13-2.40502E-14
 -1       733 2.86184E+01 2.25427E+00-1.26535E-01 2.00804E+00 3.58436E-13 2.39336E-13
 -1       734 2.78380E+01-3.54060E+00-3.50709E-02 4.50912E-01 2.80459E-13-6.79951E-13
 -1       735 2.04028E+01-4.95941E+00 6.36538E-02-5.21151E+00 7.04700E-13-1.91167E-14
 -1       736 2.19667E+01-4.95084E+00 4.51845E-02 4.76589E+00-2.97803E-13 2.31939E-13
 -1       737 2.55632E+01-4.39887E+00-1.11710E-02 2.03895E+00-2.03603E-13-3.72749E-13
 -1       738 2.72822E+01 3.39880E+00-1.23972E-01-2.25435E+00 4.20122E-13-3.34201E-13
 -1       739 1.99019E+01 2.44900E+00-4.96772E-04-4.04127E-01-1.21927E-13-2.00067E-13
 -1       740 1.93252E+01 3.06730E+00-1.22321E-03-1.01683E-01 1.14164E-14-2.78864E-13
 -1       741 2.00025E+01 2.12805E-03-6.65175E-07-3.60110E-03 1.79610E-13 4.56796E-14
 -1       742 2.00018E+01 1.05324E-03-6.99818E-07-4.55734E-03-1.69992E-13-1.91741E-13
 -1       743 2.80745E+01-3.86511E+00 6.18981E-02 6.21847E-01 7.90242E-14 6.29635E-14
 -1       744 2.63900E+01-3.93039E+00-2.69273E-02-1.21366E+00-1.38741E-13 2.73353E-13
 -1       745 2.24002E+01-5.00370E+00 3.26525E-02-4.55653E+00-4.10788E-13 2.42821E-13
 -1       746 1.14139E+01-4.65155E-01 9.81496E-02 3.44353E+00 1.31435E-13-5.60961E-13
 -1       747 1.94109E+01 2.98412E+00-1.31343E-03-1.99643E-01-1.20395E-14-2.55334E-13
 -1       748 1.68892E+01-3.24909E+00 7.25051E-02-5.61678E+00-5.05481E-13-1.57641E-13
 -1       749 2.62429E+01-2.69545E+00-2.40908E-02-3.77342E-01-8.65931E-14-4.33180E-13
 -1       750 2.92209E+01 2.87042E+00-1.42055E-01-2.57601E+00-7.48006E-13 3.14707E-13
 -1       751 2.02269E+01 1.58309E+00 7.90969E-04 9.09136E-02 1.73487E-13-6.05793E-14
 -1       752 1.99162E+01 1.11320E+00 3.29565E-05 8.61990E-01-7.20407E-14-1.24632E-13
 -1       753 1.97329E+01 9.99039E-01 7.14811E-05 1.20618E+00-1.01521E-13-1.02235E-13
 -1       754 1.95176E+01 9.01177E-01 6.55854E-05 1.53586E+00-7.13565E-14-9.79161E-14
 -1       755 1.92901E+01 7.50912E-01-1.31102E-05 1.87689E+00 1.67756E-14-1.10462E-13
 -1       756 1.90955E+01 4.56501E-01-9.93431E-06 2.26053E+00 8.52471E-14-1.81027E-13
 -1       757 1.90305E+01-1.02640E-01 2.19865E-03 2.72116E+00 1.55081E-13-1.24282E-13
 -1       758 1.92860E+01-1.08327E+00 1.14958E-02 3.28314E+00 1.81540E-13-1.19100E-13
 -1       759 2.01997E+01-2.63312E+00 1.97798E-02 3.85542E+00 1.77309E-13-1.02932E-13
 -1       760 1.22978E+01-6.22549E-01 8.86265E-02-3.88246E+00-3.10793E-13-2.69711E-13
 -1       761 2.64713E+01-2.71844E-01-5.66410E-02 1.86902E+00 1.40566E-13 1.44608E-13
 -1       762 1.95786E+01-1.72437E+00 1.92703E-02-3.41205E+00 3.52006E-13 8.17678E-14
 -1       763 1.90101E+01-4.75751E-01 2.78592E-03-2.84054E+00 6.49135E-14 6.04434E-14
 -1       764 1.89343E+01 2.58273E-01 9.51075E-04-2.31692E+00-8.01984E-14 4.22414E-14
 -1       765 1.90565E+01 6.31199E-01 2.51069E-04-1.90581E+00-2.85017E-14-1.35700E-13
 -1       766 1.92440E+01 7.77801E-01 1.48448E-04-1.57510E+00-1.12777E-14-2.48619E-13
 -1       767 1.94317E+01 7.92115E-01 1.24968E-04-1.30072E+00 5.45920E-15-1.19102E-13
 -1       768 1.95929E+01 7.36000E-01 9.69690E-05-1.06750E+00 1.14559E-13 1.47719E-13
 -1       769 1.97203E+01 6.47791E-01 7.47539E-05-8.67341E-01 1.30872E-13 1.76306E-13
 -1       770 1.98157E+01 5.49951E-01 5.65101E-05-6.96002E-01 7.89408E-14 2.75485E-13
 -1       771 1.98843E+01 4.54800E-01 4.22396E-05-5.50807E-01 8.63880E-14 1.43493E-13
 -1       772 1.99318E+01 3.68454E-01 3.15081E-05-4.29464E-01-7.31042E-14 4.97151E-14
 -1       773 1.99637E+01 2.93386E-01 2.34573E-05-3.29602E-01-1.41523E-15 9.88179E-14
 -1       774 1.99843E+01 2.30024E-01 1.73778E-05-2.48707E-01-2.28130E-13-1.97657E-13
 -1       775 1.99971E+01 1.77726E-01 1.27630E-05-1.84200E-01-2.47064E-13 3.05783E-15
 -1       776 2.00045E+01 1.35342E-01 9.25711E-06-1.33562E-01-2.07721E-13-2.16470E-14
 -1       777 2.00083E+01 1.01536E-01 6.60331E-06-9.44312E-02 2.85286E-14-1.26043E-13
 -1       778 2.00098E+01 7.49658E-02 4.61329E-06-6.46760E-02 1.14573E-13-1.93334E-13
 -1       779 2.00099E+01 5.43691E-02 3.14676E-06-4.24311E-02 2.30638E-13-1.82510E-13
 -1       780 2.00091E+01 3.86038E-02 2.04982E-06-2.61101E-02-4.01355E-14-1.88915E-13
 -1       781 2.00079E+01 2.66635E-02 1.02322E-06-1.44008E-02 1.07189E-13-3.35283E-13
 -1       782 2.00065E+01 1.76769E-02 6.27869E-07-6.23917E-03 2.98108E-13-1.75173E-13
 -1       783 2.00050E+01 1.08801E-02 2.47727E-06-7.92957E-04 2.76610E-13-1.72447E-13
 -1       784 2.00036E+01 5.58028E-03 5.88737E-06 2.57292E-03-6.38699E-14-2.97826E-13
 -1       785 2.00036E+01 1.08196E-02-3.77572E-06 1.30866E-04 3.86553E-13 1.53039E-13
 -1       786 2.14412E+01-1.01989E+00-4.44350E-04-1.14469E+00-2.72493E-14 1.25283E-13
 -1       787 2.09686E+01-5.44781E-01-2.27879E-04-1.26795E+00-2.48061E-15 5.44301E-14
 -1       788 2.28874E+01-1.88114E+00 4.57964E-04-2.20853E-01-1.17804E-13 2.79155E-13
 -1       789 2.36639E+01-1.80673E+00-2.33751E-03 6.45862E-01-8.88289E-14 3.17168E-13
 -1       790 2.41417E+01-9.56008E-01-2.62668E-03 1.55714E+00 3.03765E-14 3.89574E-13
 -1       791 2.40672E+01 8.00062E-01-2.48092E-02 2.01845E+00 2.31924E-13 3.71712E-13
 -1       792 2.36814E+01 2.71931E+00-3.84938E-02 1.42868E+00 2.26299E-13 2.39458E-13
 -1       793 2.35051E+01 3.52890E+00-3.20087E-02-1.08077E-01 1.69214E-13 1.34640E-13
 -1       794 2.36455E+01 2.62238E+00-3.40742E-02-1.63272E+00 2.91941E-13-7.44188E-14
 -1       795 2.40957E+01 6.48417E-01-1.06811E-02-2.10935E+00 2.63392E-14-1.38985E-13
 -1       796 2.41321E+01-1.00286E+00-1.54060E-02-1.65793E+00 2.49267E-13-2.13395E-13
 -1       797 2.36341E+01-1.78206E+00-4.83966E-03-7.35686E-01-1.27294E-14-8.97654E-14
 -1       798 2.28125E+01-1.78873E+00 2.39618E-03 1.12774E-01-7.04139E-14 1.47773E-13
 -1       799 2.20138E+01-1.42524E+00 9.74028E-04 6.80844E-01-3.21138E-14 3.28542E-13
 -1       800 2.13580E+01-9.40492E-01-2.62962E-04 9.84254E-01-4.51166E-15 3.44541E-13
 -1       801 2.08783E+01-4.97749E-01-2.66916E-04 1.09669E+00-9.81487E-14 2.04844E-13
 -1       802 2.05540E+01-1.61114E-01-9.76428E-05 1.08816E+00-7.51745E-14 3.82915E-14
 -1       803 2.03460E+01 6.52207E-02 1.97552E-07 1.01070E+00-6.45981E-14-4.68438E-14
 -1       804 2.02178E+01 1.99365E-01 3.86671E-05 8.97922E-01-1.47565E-13-1.75549E-13
 -1       805 2.01409E+01 2.64929E-01 5.05600E-05 7.71510E-01-3.95755E-15-2.41943E-13
 -1       806 2.00956E+01 2.83802E-01 5.28012E-05 6.45050E-01-2.61404E-13-3.35795E-13
 -1       807 2.00688E+01 2.73538E-01 4.98752E-05 5.26666E-01-8.31534E-14-3.03225E-13
 -1       808 2.00526E+01 2.47035E-01 4.43019E-05 4.20770E-01 4.59357E-14-2.30486E-13
 -1       809 2.00421E+01 2.13153E-01 3.76145E-05 3.29266E-01 3.08158E-14-1.33929E-13
 -1       810 2.00347E+01 1.77606E-01 3.08271E-05 2.52403E-01 1.67009E-13-2.05451E-13
 -1       811 2.00290E+01 1.43811E-01 2.45363E-05 1.89390E-01 2.19574E-13-6.93251E-14
 -1       812 2.00243E+01 1.13587E-01 1.90346E-05 1.38845E-01 3.20534E-13 2.91701E-13
 -1       813 2.00202E+01 8.76988E-02 1.44169E-05 9.91137E-02 2.85866E-13 4.26306E-13
 -1       814 2.00167E+01 6.62479E-02 1.06363E-05 6.84869E-02 2.65984E-13 3.56175E-13
 -1       815 2.00135E+01 4.89467E-02 7.64197E-06 4.53358E-02 6.87372E-14-2.67787E-14
 -1       816 2.00107E+01 3.53044E-02 5.37641E-06 2.81925E-02-8.20121E-15-1.31676E-13
 -1       817 2.00083E+01 2.47416E-02 3.81880E-06 1.57870E-02 1.24616E-13-1.47417E-13
 -1       818 2.00062E+01 1.66550E-02 3.08773E-06 7.06447E-03 1.97833E-13 1.21695E-13
 -1       819 2.00045E+01 1.04880E-02 1.80041E-06 1.20872E-03 2.29552E-13 1.65065E-13
 -1       820 2.00030E+01 5.69378E-03 1.67616E-06-2.45811E-03 3.43863E-13-1.81236E-13
 -1       821 2.00023E+01 3.32268E-03-8.57879E-06-3.78743E-03-3.99105E-15-3.43622E-13
 -1       822 1.94716E+01 2.48341E+00-2.84448E-04-6.44724E-02 6.40127E-14-2.02052E-13
 -1       823 2.03637E+01 6.63510E-01-5.67768E-06-6.66275E-01 8.28797E-14 1.05662E-14
 -1       824 2.00034E+01 1.13342E-02-2.31655E-07-1.52574E-04 2.23744E-13 1.85911E-13
 -1       825 2.00040E+01 7.46816E-03-4.89927E-06 1.53587E-03 3.27561E-13-3.68808E-14
 -1       826 2.00039E+01 9.44895E-03-5.24598E-06 6.41445E-04 3.91081E-13 2.63066E-13
 -1       827 2.01717E+01 2.08866E+00 8.44739E-04-4.58572E-01-1.70489E-13-1.55888E-13
 -1       828 2.20941E+01-1.51860E+00-1.68096E-05-8.18293E-01 2.83686E-15 2.08828E-13
 -1       829 2.52025E+01 4.62945E+00-9.27111E-02 1.02137E+00 3.88536E-13 1.83495E-13
 -1       830 2.16875E+01-3.66549E+00 3.22549E-02-3.58351E+00 5.31842E-13-1.15046E-13
 -1       831 1.05931E+01 3.03196E-01 8.89054E-02 2.26517E+00-1.65912E-13 5.22648E-13
 -1       832 1.01455E+01 5.20554E-01 9.29333E-02-6.55868E-01-1.61327E-13-5.74860E-13
 -1       833 2.00542E+01 1.30429E+00 1.07336E-04 4.82839E-01-1.05087E-13-1.31505E-13
 -1       834 1.66889E+01-2.14091E+00 6.71928E-02 4.81808E+00 2.83216E-13-2.79868E-13
 -1       835 2.60363E+01 2.73523E+00-8.26063E-02 2.14443E+00 2.84148E-13 1.87898E-13
 -1       836 1.08790E+01 5.78014E-01 8.27978E-02-1.41096E+00 8.73086E-14 4.23547E-13
 -1       837 2.04102E+01 1.16180E+00 7.30016E-05-9.07303E-03 1.66295E-13-1.20548E-14
 -1       838 2.21051E+01-4.17996E+00 2.75457E-02 3.88182E+00 2.62184E-13 3.51195E-14
 -1       839 1.44249E+01-1.39128E+00 6.67526E-02-4.39281E+00 3.29929E-13-5.11396E-15
 -1       840 1.36083E+01-1.02165E+00 7.18003E-02 4.37452E+00-2.96159E-13 5.09873E-13
 -1       841 1.99080E+01-3.38865E+00 2.95037E-02 4.35872E+00-2.73849E-13 8.61759E-14
 -1       842 2.28656E+01-4.03259E+00 4.71701E-03 2.96726E+00-2.65599E-13-3.37083E-13
 -1       843 2.03928E+01 4.12311E-01 8.13103E-06-9.34097E-01 3.43596E-14 1.39718E-14
 -1       844 1.93744E+01 2.58188E+00-1.85169E-04-8.10326E-02 1.88901E-14-2.51499E-13
 -1       845 1.99321E+01 1.97528E+00-2.12891E-04 3.42497E-02 1.35404E-13-7.56879E-14
 -1       846 2.62548E+01-2.09352E+00-4.58588E-02 9.23473E-01 1.02475E-13 2.79991E-13
 -1       847 2.00037E+01 7.67547E-03-1.69929E-06-1.63724E-03 1.73681E-13 4.01772E-13
 -1       848 2.01307E+01 1.51535E+00-1.99741E-04 1.59902E-01-1.07146E-13-1.42480E-13
 -1       849 2.06610E+01-1.53839E-01-1.01726E-04-1.24860E+00-7.97441E-14 6.84386E-14
 -1       850 1.96666E+01 2.27846E+00-3.08691E-04-2.42740E-02 1.07540E-13-1.33692E-13
 -1       851 2.00036E+01 9.62227E-03 5.44146E-07-8.82607E-04 3.39303E-13 1.37382E-13
 -1       852 2.00035E+01 1.09039E-02 2.30904E-07-4.21057E-04 3.03402E-13-2.80791E-13
 -1       853 1.99910E+01-3.78757E+00 3.45177E-02-4.72104E+00-4.42322E-13 1.94393E-14
 -1       854 2.44826E+01-4.40335E+00 7.25258E-03-2.47332E+00-2.25149E-13 1.93889E-13
 -1       855 1.19365E+01 6.45303E-01 5.83854E-02 1.36354E+00 4.08695E-14-4.43265E-13
 -1       856 2.04813E+01 1.54978E-01 6.67149E-06-1.13001E+00-3.88184E-14 1.03785E-13
 -1       857 2.44570E+01-3.47338E+00-7.84930E-03 9.26560E-01-2.18374E-13-1.73854E-13
 -1       858 1.75508E+01-1.89470E+00 2.52421E-02 4.19035E+00-3.63541E-13 3.13554E-13
 -1       859 1.49047E+01-1.52523E+00 5.77031E-02-4.60683E+00-3.25056E-13-1.30760E-13
 -1       860 2.03880E+01 8.78422E-01-2.68414E-04-3.68885E-01 1.56391E-13-3.30838E-14
 -1       861 2.59047E+01-7.86095E-01-3.50031E-02-1.78677E+00 7.60590E-14-4.26243E-13
 -1       862 1.36400E+01 1.29185E-01 4.64524E-02-2.85961E+00 2.34916E-13 1.41233E-13
 -1       863 1.95346E+01 2.41998E+00-3.93310E-04-6.73198E-02-1.88464E-14-2.25152E-13
 -1       864 1.80841E+01-2.75310E+00 5.31053E-02-4.64867E+00 5.48837E-13-3.14072E-14
 -1       865 1.97821E+01 2.14780E+00-1.24030E-03-5.52264E-02-8.25993E-14-1.74328E-13
 -1       866 1.26252E+01 1.00997E+00 3.63032E-02 5.20188E-01 3.92828E-15 3.97451E-13
 -1       867 1.90930E+01 1.21919E+00-3.23618E-05 1.11314E+00-4.48655E-14-6.90579E-14
 -1       868 1.86739E+01 1.12160E+00-1.14793E-04 1.40135E+00-4.88080E-14-5.64384E-14
 -1       869 1.81662E+01 9.68677E-01-3.84011E-04 1.73926E+00 2.25075E-14-1.04273E-13
 -1       870 1.75838E+01 6.66198E-01-7.32367E-04 2.18894E+00 9.98169E-14-1.57354E-13
 -1       871 1.69649E+01 8.75705E-02 6.72672E-03 2.86010E+00 1.44720E-13-2.67571E-13
 -1       872 1.66107E+01-7.78558E-01 2.04370E-02 3.70439E+00 1.98983E-13-3.11568E-13
 -1       873 1.65348E+01-2.59442E-01 2.23713E-02-3.18570E+00 2.32092E-13-2.36811E-13
 -1       874 1.71060E+01 4.74442E-01 3.34771E-03-2.35444E+00 2.12970E-15-3.92063E-14
 -1       875 1.76774E+01 8.57700E-01 2.69900E-04-1.80994E+00-5.46822E-14 1.60796E-13
 -1       876 1.81899E+01 1.00685E+00-1.13645E-04-1.44505E+00-1.21344E-13 1.32236E-13
 -1       877 1.86190E+01 1.01882E+00-6.60470E-05-1.18110E+00 7.32887E-14 1.13747E-13
 -1       878 1.89651E+01 9.53934E-01-4.12236E-05-9.74528E-01 1.49086E-13 4.64707E-14
 -1       879 1.92373E+01 8.50756E-01-1.97114E-05-8.03122E-01 1.74647E-13-1.01398E-14
 -1       880 1.94470E+01 7.33317E-01-9.83132E-06-6.56522E-01 1.60694E-13 1.24658E-15
 -1       881 1.96057E+01 6.15960E-01-5.98200E-06-5.30186E-01 1.65154E-13 8.25822E-16
 -1       882 1.97242E+01 5.06681E-01-3.63182E-06-4.21998E-01-8.03105E-14 5.78647E-14
 -1       883 1.98113E+01 4.09407E-01-1.84551E-06-3.30579E-01 9.17082E-14 1.24730E-14
 -1       884 1.98744E+01 3.25537E-01-5.21587E-07-2.54585E-01-2.01003E-13 1.61253E-14
 -1       885 1.99194E+01 2.54971E-01 3.64320E-07-1.92499E-01-4.23300E-14 2.59142E-13
 -1       886 1.99509E+01 1.96780E-01 8.79926E-07-1.42656E-01-3.78425E-13 3.62145E-13
 -1       887 1.99725E+01 1.49625E-01 1.11425E-06-1.03330E-01-1.12427E-13 2.70705E-13
 -1       888 1.99868E+01 1.12016E-01 1.14887E-06-7.28334E-02 9.02290E-14 1.15352E-13
 -1       889 1.99960E+01 8.24620E-02 1.12695E-06-4.95962E-02 9.87863E-14-8.10702E-14
 -1       890 2.00014E+01 5.95584E-02 1.00128E-06-3.22137E-02 3.16025E-14-3.17521E-13
 -1       891 2.00043E+01 4.20183E-02 5.33464E-07-1.94725E-02 1.17275E-13-2.99245E-13
 -1       892 2.00054E+01 2.87220E-02-4.30722E-08-1.03785E-02 2.87893E-13-1.64213E-13
 -1       893 2.00054E+01 1.86940E-02 3.29305E-06-4.10737E-03 2.98419E-13-2.42343E-13
 -1       894 2.00048E+01 1.26134E-02 1.62148E-06-7.07001E-04 1.40192E-13-2.07527E-13
 -1       895 2.42669E+01 4.14661E+00-6.84686E-02-4.97875E-01 3.29594E-13-6.34302E-14
 -1       896 2.47518E+01-2.49710E+00-3.84853E-03 3.96295E-01-3.71786E-14 1.88283E-13
 -1       897 2.34797E+01-2.71121E+00-6.22405E-04-7.32708E-01-7.69442E-14 1.92737E-13
 -1       898 2.20581E+01-2.06038E+00-5.33050E-03 1.28011E+00-1.34679E-13 1.30087E-13
 -1       899 2.11423E+01-1.35823E+00 1.29795E-03 1.48837E+00-8.94979E-15 5.21077E-14
 -1       900 2.05168E+01-7.25957E-01-5.67699E-04 1.48688E+00 9.42107E-15 9.73251E-14
 -1       901 2.01428E+01-2.49466E-01-4.50742E-05 1.36931E+00-9.97883E-14 6.85215E-14
 -1       902 1.99393E+01 7.17960E-02 5.30178E-05 1.20905E+00-1.48829E-13 1.56028E-13
 -1       903 1.98462E+01 2.65312E-01 7.04522E-05 1.03779E+00-1.47866E-15 1.56786E-13
 -1       904 1.98186E+01 3.63861E-01 4.64586E-05 8.71973E-01 1.49773E-14-8.39522E-14
 -1       905 1.98267E+01 3.96954E-01 3.03876E-05 7.19404E-01 6.66732E-14-1.45125E-13
 -1       906 1.98515E+01 3.88234E-01 2.07229E-05 5.83574E-01-1.81408E-13-1.72508E-13
 -1       907 1.98818E+01 3.55275E-01 1.48190E-05 4.65634E-01-1.15414E-13-3.91203E-13
 -1       908 1.99115E+01 3.10401E-01 1.07745E-05 3.65400E-01-6.51103E-14-1.65275E-13
 -1       909 1.99375E+01 2.61794E-01 7.81577E-06 2.81864E-01-8.99506E-14 3.09448E-14
 -1       910 1.99587E+01 2.14542E-01 5.61388E-06 2.13511E-01 1.07927E-13 1.61004E-13
 -1       911 1.99750E+01 1.71518E-01 3.97896E-06 1.58561E-01 2.30285E-13 2.89080E-13
 -1       912 1.99869E+01 1.34088E-01 2.77147E-06 1.15137E-01 2.01133E-13 2.23540E-13
 -1       913 1.99952E+01 1.02630E-01 1.88159E-06 8.14023E-02 1.81933E-13 2.10249E-13
 -1       914 2.00006E+01 7.69184E-02 1.11438E-06 5.56450E-02 2.36246E-13 4.98826E-13
 -1       915 2.00037E+01 5.63895E-02 5.84072E-07 3.63354E-02 1.08537E-13 4.94594E-13
 -1       916 2.00052E+01 4.03234E-02 1.73571E-07 2.21513E-02 1.06589E-13 1.60473E-13
 -1       917 2.00056E+01 2.79226E-02-4.82150E-07 1.19720E-02 3.50869E-14 2.17145E-13
 -1       918 2.00052E+01 1.83789E-02-1.53680E-05 4.86295E-03 1.19192E-13 2.11393E-13
 -1       919 2.00044E+01 1.12058E-02 8.20431E-06 1.69459E-04 3.48170E-13 2.41466E-13
 -1       920 2.00032E+01 5.35930E-03 2.96350E-06-2.68160E-03 1.01592E-13 4.50492E-13
 -1       921 1.36193E+01 3.99777E-01 3.58626E-02 2.46586E+00-6.62636E-14 3.38684E-13
 -1       922 2.01038E+01 7.79029E-01-2.84334E-04-8.14715E-01 3.55181E-14-3.17959E-14
 -1       923 1.93938E+01 2.56325E+00-2.50546E-04-7.74676E-02-1.77159E-14-2.70407E-13
 -1       924 1.27036E+01 4.85130E-01 4.28532E-02-1.96972E+00-1.68203E-13-3.52055E-13
 -1       925 1.96643E+01 1.49861E+00-2.12820E-04 5.33150E-01-8.83952E-14-9.56232E-14
 -1       926 2.00033E+01 1.91633E-02-2.73102E-06-6.15700E-04 5.39506E-13 2.79817E-13
 -1       927 1.39827E+01 1.16269E-02 4.72672E-02 3.02912E+00 1.54868E-13-3.38082E-13
 -1       928 2.07003E+01-7.98811E-01-1.77272E-04-1.64521E+00-8.40929E-14-4.36993E-14
 -1       929 1.94236E+01 1.32659E+00-8.23568E-05 8.31466E-01-6.10577E-14-8.94210E-14
 -1       930 2.14618E+01-3.02047E+00 9.55548E-03 2.86893E+00-2.29496E-13-3.03162E-13
 -1       931 2.22596E+01-2.19109E+00-9.79148E-04-1.37424E+00-1.00273E-13 1.79118E-13
 -1       932 2.01029E+01 1.37868E+00-2.51357E-04-2.68369E-01 1.22212E-13-4.85280E-14
 -1       933 2.03425E+01-2.59255E-01-1.72317E-04-1.52105E+00-3.32552E-14-8.14676E-14
 -1       934 2.00043E+01 1.57092E-02-3.52152E-06-1.17599E-03 3.47695E-13-2.21773E-14
 -1       935 1.97921E+01 1.69534E+00 1.66168E-04 2.87175E-01-8.48886E-14-1.29424E-13
 -1       936 1.95905E+01 1.94358E+00 9.02181E-04 1.70386E-01-5.85533E-14-1.34898E-13
 -1       937 2.26825E+01-2.57206E+00-3.05978E-03 1.24610E+00-2.02640E-13 4.10262E-16
 -1       938 1.62536E+01-4.31339E-01 9.37873E-04 3.18641E+00-1.20241E-13 4.54310E-13
 -1       939 2.00032E+01 1.92052E-02-7.42381E-06 1.72183E-04 5.63189E-13-1.68256E-13
 -1       940 2.01043E+01 4.84001E-01 1.32845E-04-1.09067E+00-1.31026E-14-3.04228E-14
 -1       941 1.95553E+01 1.97272E+00-2.21326E-04-2.35614E-01 5.28681E-14-1.62749E-13
 -1       942 2.00037E+01 1.78227E-02-1.35338E-06-1.08148E-03 6.84809E-13 6.05371E-14
 -1       943 1.76152E+01-2.33986E+00 2.98364E-02-4.57657E+00-3.55904E-13-1.17103E-13
 -1       944 2.23299E+01-3.95799E+00 1.02230E-02-3.32691E+00-2.91938E-13 7.75582E-14
 -1       945 1.37498E+01 1.01197E+00 2.24922E-02-1.04604E+00 7.16633E-14 2.41934E-13
 -1       946 1.95649E+01-2.00412E+00 1.19815E-02 3.28843E+00-2.60742E-13-1.23753E-13
 -1       947 2.13199E+01-1.47038E+00-1.86230E-03-1.62936E+00-1.05067E-13 6.89926E-14
 -1       948 1.30683E+01 9.83222E-01 1.68200E-02-2.06569E-01 1.45515E-14-2.98202E-13
 -1       949 1.41596E+01-9.60781E-02 3.76919E-02-3.05057E+00-2.10034E-13-2.30808E-13
 -1       950 2.01521E+01 1.02614E+00 1.71176E-04-5.39344E-01 8.68046E-14-1.61167E-14
 -1       951 1.93891E+01 2.13653E+00 4.11003E-04 4.44692E-02-3.93525E-16-2.31861E-13
 -1       952 2.00043E+01 1.52617E-02-6.57749E-06 1.08750E-03 6.09771E-14 4.38026E-13
 -1       953 1.93794E+01 2.14290E+00 3.14231E-05-1.69708E-01 2.87442E-14-1.87875E-13
 -1       954 2.51721E+01-1.99252E+00 4.36665E-02-9.31358E-01 4.56076E-14-2.07050E-13
 -1       955 2.48930E+01-3.56907E+00-1.97559E-04-9.52539E-01-1.66478E-13 1.55214E-13
 -1       956 1.84179E+01 1.37868E+00-8.05085E-05 8.23772E-01-6.21596E-14-1.13428E-13
 -1       957 1.77703E+01 1.29759E+00-1.63101E-04 1.01419E+00-2.97217E-14-1.55199E-13
 -1       958 1.69192E+01 1.18795E+00 1.83712E-03 1.28093E+00-5.78331E-15-2.08238E-13
 -1       959 1.57925E+01 9.71761E-01 1.01856E-02 1.69365E+00 3.55139E-14-3.12449E-13
 -1       960 1.49440E+01 5.93112E-01 2.29467E-02 2.23225E+00 1.73207E-13-3.39546E-13
 -1       961 1.48837E+01 8.25793E-01 9.95884E-03-1.80923E+00 1.88998E-13 1.01848E-14
 -1       962 1.99047E+01-8.93798E-01 4.25742E-04 2.02253E+00-9.28828E-14-7.15133E-14
 -1       963 1.61582E+01 1.11085E+00 1.07562E-03-1.30923E+00 5.99256E-14 4.73663E-14
 -1       964 1.70930E+01 1.21304E+00-7.52366E-04-1.02270E+00 1.07721E-13 1.63490E-13
 -1       965 1.77982E+01 1.20634E+00-4.32194E-04-8.41212E-01-1.12212E-13 3.68706E-13
 -1       966 1.83364E+01 1.13288E+00-2.85482E-04-7.10874E-01 3.29054E-14 4.05445E-13
 -1       967 1.87503E+01 1.02210E+00-1.68271E-04-6.04683E-01 2.18462E-14 3.70350E-13
 -1       968 1.90691E+01 8.94343E-01-1.00082E-04-5.11160E-01 1.85842E-13 2.88928E-13
 -1       969 1.93139E+01 7.63341E-01-6.85044E-05-4.26358E-01 8.71137E-14 8.14197E-14
 -1       970 1.95008E+01 6.37953E-01-5.04110E-05-3.49682E-01 1.20390E-13-6.40809E-14
 -1       971 1.96424E+01 5.23387E-01-3.77898E-05-2.81551E-01-2.92168E-14 1.84285E-13
 -1       972 1.97485E+01 4.22233E-01-2.81794E-05-2.22370E-01 3.79196E-14 3.44343E-13
 -1       973 1.98272E+01 3.35293E-01-2.06699E-05-1.72166E-01 6.21620E-14 3.41426E-13
 -1       974 1.98847E+01 2.62222E-01-1.47960E-05-1.30544E-01-1.79578E-13 5.15404E-13
 -1       975 1.99260E+01 2.01988E-01-1.02535E-05-9.67814E-02-2.32919E-13 7.17970E-13
 -1       976 1.99551E+01 1.53197E-01-6.81903E-06-6.99549E-02-3.00128E-13 2.22276E-13
 -1       977 1.99751E+01 1.14310E-01-4.09057E-06-4.90629E-02 1.03521E-14-9.61772E-14
 -1       978 1.99883E+01 8.37808E-02-2.15669E-06-3.31117E-02 6.51364E-14 1.09288E-14
 -1       979 1.99966E+01 6.01751E-02 6.25334E-06-2.11771E-02-1.51398E-14 2.04384E-13
 -1       980 2.00014E+01 4.20134E-02-1.34506E-05-1.24766E-02 1.61458E-13-1.42809E-13
 -1       981 2.00037E+01 2.84170E-02 4.12899E-06-6.30043E-03 2.53812E-13-5.38395E-14
 -1       982 2.00042E+01 2.16311E-02 4.87347E-06-3.30653E-03 2.87631E-13-1.14199E-13
 -1       983 2.00036E+01 1.80885E-02 3.61827E-07 9.92168E-04 1.94214E-13 3.63697E-14
 -1       984 1.98114E+01 1.71160E+00-2.45951E-04-2.65010E-01 8.15157E-14-8.03469E-14
 -1       985 1.43240E+01 9.63990E-01 1.26709E-02 1.23197E+00-6.33645E-14 3.39388E-13
 -1       986 2.13116E+01-2.08788E+00 5.43842E-03 2.05733E+00-2.53907E-14-1.56226E-13
 -1       987 1.93983E+01 1.20710E-01 1.49828E-04 1.41581E+00-4.19338E-14 6.30431E-14
 -1       988 1.93774E+01 3.61408E-01 1.80973E-04 1.15736E+00 5.94728E-14-5.47488E-14
 -1       989 1.94237E+01 4.84608E-01 7.97881E-05 9.37556E-01-6.91453E-14 8.60337E-14
 -1       990 1.95018E+01 5.26655E-01 3.64028E-05 7.53487E-01 1.29414E-13 1.07204E-13
 -1       991 1.95895E+01 5.16461E-01 1.70528E-05 6.00431E-01-1.24911E-13 3.53456E-14
 -1       992 1.96747E+01 4.75334E-01 9.04336E-06 4.73803E-01-1.35216E-13 1.35095E-13
 -1       993 1.97508E+01 4.18369E-01 5.25590E-06 3.69705E-01-2.86990E-13 1.55013E-13
 -1       994 1.98153E+01 3.55812E-01 3.12759E-06 2.84839E-01-2.62097E-13 2.36141E-13
 -1       995 1.98677E+01 2.94227E-01 1.81742E-06 2.16340E-01-1.98982E-15 3.78590E-13
 -1       996 1.99089E+01 2.37480E-01 9.98254E-07 1.61678E-01 4.85074E-14 1.87334E-13
 -1       997 1.99401E+01 1.87540E-01 4.97207E-07 1.18597E-01 3.23799E-13 1.29267E-13
 -1       998 1.99631E+01 1.45099E-01 1.92938E-07 8.50940E-02 2.12470E-13 3.98233E-13
 -1       999 1.99794E+01 1.10035E-01-5.78894E-08 5.94077E-02-6.68215E-15 3.45653E-13
 -1      1000 1.99905E+01 8.17457E-02-6.05109E-07 4.00126E-02 8.87379E-14 3.60472E-13
 -1      1001 1.99976E+01 5.93721E-02-1.71384E-06 2.56242E-02 2.07743E-13 4.38335E-13
 -1      1002 2.00017E+01 4.19943E-02 1.35919E-06 1.51956E-02 4.39467E-14 7.32746E-13
 -1      1003 2.00038E+01 2.86305E-02 1.73564E-05 7.76431E-03 1.90240E-13 4.56318E-13
 -1      1004 2.01662E+01 1.54865E-01 3.18908E-05-1.32762E+00-6.05685E-14-5.43446E-14
 -1      1005 1.92635E+01 1.62309E+00 2.44866E-04 4.51773E-01-5.57793E-14-8.20583E-14
 -1      1006 1.95497E+01-2.86482E-01-6.30655E-04 1.71018E+00-1.27009E-13 9.41584E-14
 -1      1007 1.93161E+01 2.20127E+00-1.37448E-04-7.40911E-02 1.05332E-14-2.63433E-13
 -1      1008 1.89085E+01 1.47146E+00-5.68040E-05 6.44634E-01-5.13433E-14-6.99078E-14
 -1      1009 1.97987E+01-3.14541E-01-4.92243E-04-1.85050E+00-5.90735E-14-8.73584E-14
 -1      1010 2.00989E+01-2.98256E+00 1.20975E-02-3.90163E+00-2.83103E-13-6.96056E-14
 -1      1011 1.98433E+01 1.34179E+00 3.53656E-04-5.09843E-01 7.43503E-14-3.01545E-14
 -1      1012 1.93601E+01 1.73777E+00 1.70769E-04-3.65320E-01 6.88521E-15-1.84131E-13
 -1      1013 1.60103E+01 3.97890E-01 5.50987E-04 2.20932E+00-3.64151E-14 2.80068E-13
 -1      1014 2.00019E+01 2.92812E-02 6.24622E-06-2.49720E-04 6.86704E-13 3.12026E-13
 -1      1015 2.00017E+01 3.35809E-02-1.83844E-05 5.74341E-03 4.02905E-13 7.56013E-14
 -1      1016 1.60538E+01-8.36872E-01 2.23683E-02-3.64949E+00-2.13284E-13-4.11528E-14
 -1      1017 1.95825E+01 1.56420E+00 8.25411E-04-4.58707E-01 4.23259E-14-1.32710E-13
 -1      1018 2.00023E+01 2.83122E-02 7.31097E-06-2.00967E-03 6.26799E-13 2.79343E-13
 -1      1019 1.46258E+01 1.22409E+00 7.76219E-03-6.14856E-02 2.42630E-14 2.04202E-13
 -1      1020 2.01484E+01-9.96633E-01 5.20350E-04-2.16850E+00-1.47352E-13-1.32526E-13
 -1      1021 1.48069E+01 7.31304E-01 1.44232E-02-1.67081E+00-7.76683E-14-1.94478E-13
 -1      1022 1.94556E+01 1.75750E+00 2.21263E-04 3.23533E-01-5.94888E-14-9.71700E-14
 -1      1023 2.25548E+01-3.23298E+00 1.20767E-02-2.34831E+00-1.59393E-13-2.62894E-14
 -1      1024 1.37574E+01 9.00238E-01 3.19880E-02 1.11747E+00 1.03636E-13-3.32956E-13
 -1      1025 1.97484E+01 8.81329E-01 1.54461E-04-9.26727E-01 4.33849E-14-4.17058E-14
 -1      1026 1.49366E+01 1.17987E+00 1.40645E-02-9.95678E-02-3.24864E-14-2.11377E-13
 -1      1027 2.00014E+01 3.23406E-02-3.23865E-06 2.36828E-03 3.82065E-13 2.98069E-13
 -1      1028 1.69843E+01 1.35305E+00-3.08024E-03 3.09193E-01-5.40106E-14-2.02000E-13
 -1      1029 1.54130E+01 1.21626E+00 1.64778E-03-7.57033E-01 1.15351E-13 1.31489E-13
 -1      1030 1.65681E+01 1.28611E+00-1.21269E-03-6.07010E-01 5.86136E-14 1.38705E-13
 -1      1031 1.74086E+01 1.27257E+00 2.02063E-04-5.33253E-01 1.94403E-14 2.31842E-13
 -1      1032 1.80360E+01 1.19856E+00-2.49325E-04-4.78288E-01 3.72351E-14 4.56342E-13
 -1      1033 1.85154E+01 1.08850E+00-1.00090E-04-4.28466E-01-1.87021E-14 3.31076E-13
 -1      1034 1.88837E+01 9.60584E-01-3.67754E-05-3.78477E-01 1.74417E-14 3.73408E-13
 -1      1035 1.91678E+01 8.27262E-01-1.94471E-05-3.27272E-01 2.52571E-14 2.60904E-13
 -1      1036 1.93865E+01 6.97451E-01-1.58149E-05-2.76442E-01-8.17997E-15-7.19633E-14
 -1      1037 1.95539E+01 5.76952E-01-1.49923E-05-2.28047E-01 1.30716E-13-8.52888E-14
 -1      1038 1.96811E+01 4.69048E-01-1.44624E-05-1.83801E-01 1.14728E-13 1.79425E-13
 -1      1039 1.97766E+01 3.75153E-01-1.37053E-05-1.44791E-01 2.11140E-14 2.38883E-13
 -1      1040 1.98474E+01 2.95378E-01-1.26515E-05-1.11477E-01-1.21205E-13 7.73741E-14
 -1      1041 1.98992E+01 2.28992E-01-1.13733E-05-8.38161E-02-7.53838E-14 2.59944E-13
 -1      1042 1.99363E+01 1.74766E-01-9.98298E-06-6.14207E-02-5.96494E-13 2.21155E-13
 -1      1043 1.99622E+01 1.31222E-01-8.55858E-06-4.37058E-02-1.66309E-13 1.03119E-13
 -1      1044 1.99799E+01 9.68143E-02-5.53269E-06-2.99943E-02 1.61775E-14-1.90546E-13
 -1      1045 1.99914E+01 7.00072E-02-5.27545E-06-1.96338E-02 6.99348E-14-3.20257E-13
 -1      1046 1.99984E+01 4.94108E-02-7.13217E-06-1.18954E-02-2.97792E-14-4.75662E-13
 -1      1047 2.00022E+01 3.38546E-02 8.23198E-06-6.40091E-03 1.91019E-13-4.19790E-13
 -1      1048 1.78252E+01 1.42794E+00-2.80829E-04 3.08988E-01-7.26216E-14-1.79220E-13
 -1      1049 1.91245E+01 6.77070E-01 1.06208E-04 7.32572E-01-2.76595E-14 1.30821E-13
 -1      1050 1.87821E+01 5.11687E-01 1.06968E-04 1.22815E+00-7.09187E-14-6.52791E-14
 -1      1051 1.92915E+01 6.57621E-01 4.67359E-05 5.66156E-01-9.40662E-14 2.73210E-13
 -1      1052 1.94412E+01 6.04059E-01 1.85656E-05 4.36415E-01-1.55042E-13 2.24511E-13
 -1      1053 1.95700E+01 5.32758E-01 5.22475E-06 3.34748E-01-2.31713E-13 3.16875E-13
 -1      1054 1.96771E+01 4.55091E-01-1.87786E-06 2.54926E-01-3.24065E-13 2.18882E-13
 -1      1055 1.97637E+01 3.78543E-01-5.65977E-06 1.92319E-01-2.67692E-13 1.33095E-13
 -1      1056 1.98319E+01 3.07661E-01-7.39720E-06 1.43394E-01-3.46147E-14 2.42754E-13
 -1      1057 1.98843E+01 2.44862E-01-7.83622E-06 1.05389E-01 1.56521E-13 3.96659E-13
 -1      1058 1.99236E+01 1.91083E-01-7.50124E-06 7.61025E-02 1.50303E-13 6.13417E-13
 -1      1059 1.99522E+01 1.46288E-01-6.50076E-06 5.37566E-02 5.01253E-14 6.57401E-13
 -1      1060 1.99725E+01 1.09858E-01-6.64910E-06 3.69049E-02 1.44235E-14 7.39368E-13
 -1      1061 1.99862E+01 8.07906E-02-1.01341E-05 2.43393E-02 3.94355E-14 9.00054E-13
 -1      1062 1.99950E+01 5.80835E-02-1.37470E-07 1.52212E-02 2.65817E-14 6.23428E-13
 -1      1063 1.99990E+01 4.48060E-02-3.04125E-06 9.88971E-03 1.83090E-13 3.67958E-13
 -1      1064 1.86011E+01-8.71834E-01 5.54381E-03 2.76404E+00-1.40588E-13 1.80856E-13
 -1      1065 1.84535E+01 1.51680E+00-2.97126E-04 2.82692E-01-8.00779E-14-1.69343E-13
 -1      1066 1.96802E+01 1.83969E-01 2.51849E-04-1.53037E+00-1.34399E-14-8.56650E-14
 -1      1067 2.00032E+01 2.52669E-02 1.59625E-06-3.01065E-03 4.28404E-13-3.89242E-13
 -1      1068 2.09026E+01-2.12825E+00 3.52872E-03-2.60375E+00-1.60806E-13-1.31346E-13
 -1      1069 1.89490E+01 6.39211E-01 2.40093E-04 9.47754E-01-1.55088E-13 2.34610E-13
 -1      1070 1.89127E+01 1.65163E+00-1.10358E-04 2.30968E-01-2.90698E-14-1.94299E-13
 -1      1071 1.92051E+01 1.84990E+00-4.11474E-04 1.51544E-01-3.18230E-14-2.10987E-13
 -1      1072 1.91949E+01 1.88002E+00-5.57185E-05-1.88959E-01 1.56074E-14-2.02132E-13
 -1      1073 1.96872E+01 5.62202E-01 4.16304E-04-1.22425E+00-1.59026E-14-7.42290E-14
 -1      1074 1.59056E+01 2.20520E-01 1.46716E-02-2.42730E+00-1.29289E-13-1.73644E-13
 -1      1075 1.92985E+01 9.88006E-01-2.95816E-04-9.69111E-01 3.86886E-14-8.63427E-14
 -1      1076 1.81459E+01-1.63942E+00 1.37271E-02-3.74225E+00-2.45570E-13-1.18732E-13
 -1      1077 1.57616E+01 1.05377E+00 5.46421E-03 1.02921E+00-1.31996E-14 1.57254E-13
 -1      1078 1.86680E+01 2.51633E-01 5.06606E-05 1.59854E+00-3.30673E-14-8.45608E-14
 -1      1079 1.84711E+01-1.53251E-01-5.47837E-04 2.10957E+00-6.30776E-14 1.35803E-13
 -1      1080 1.89469E+01 2.87986E-01-8.08425E-05-1.71255E+00-3.05130E-14-1.33388E-13
 -1      1081 1.93095E+01 1.36443E+00-3.68487E-04-6.38503E-01 3.00583E-14-1.11012E-13
 -1      1082 1.99991E+01 4.12159E-02-1.78017E-05-2.15636E-03 3.38178E-13 2.37008E-13
 -1      1083 1.90388E+01 1.57570E+00 3.26347E-04-4.04447E-01 1.07351E-14-1.85181E-13
 -1      1084 1.66446E+01 1.21873E+00-1.79273E-03-5.49596E-01-5.71435E-14-1.84319E-13
 -1      1085 1.99975E+01 4.63028E-02 2.90268E-05 2.06558E-03 5.20649E-13 5.01839E-13
 -1      1086 1.89127E+01-2.55075E-01-1.90989E-03-2.21081E+00-7.89749E-14-1.10622E-13
 -1      1087 1.99978E+01 4.64252E-02 3.99443E-05 6.01351E-03 3.72843E-13 4.31102E-13
 -1      1088 1.72391E+01-4.09130E-01 6.86846E-03-2.87608E+00-1.36879E-13-4.06413E-14
 -1      1089 1.91083E+01 6.76772E-01 2.40565E-04-1.30355E+00 2.23996E-14-1.19718E-13
 -1      1090 1.60128E+01 1.30442E+00 1.91036E-03-1.11575E-01 1.47124E-13 1.65913E-13
 -1      1091 1.68543E+01 1.26194E+00 3.38624E-04 1.79299E-01 1.19956E-13 2.20075E-13
 -1      1092 1.75983E+01 1.22230E+00-7.25748E-04 5.29786E-02 4.68313E-14 2.41678E-13
 -1      1093 1.81613E+01 1.14356E+00-1.71416E-04-3.04870E-02-5.77263E-15 1.44259E-13
 -1      1094 1.85954E+01 1.03496E+00-3.58858E-05-7.76623E-02 5.19101E-14 1.15146E-13
 -1      1095 1.89338E+01 9.11961E-01-1.59621E-05-1.00064E-01-5.50388E-14 7.29820E-14
 -1      1096 1.91983E+01 7.84858E-01-1.46113E-05-1.05681E-01-7.48293E-14 1.23759E-14
 -1      1097 1.94046E+01 6.61378E-01-1.43187E-05-1.00679E-01-8.25988E-14-2.12120E-14
 -1      1098 1.95644E+01 5.46712E-01-1.31312E-05-8.97197E-02 4.78671E-14-2.83001E-13
 -1      1099 1.96870E+01 4.43925E-01-1.14994E-05-7.61200E-02 1.09147E-13-2.03105E-13
 -1      1100 1.97800E+01 3.54412E-01-9.74726E-06-6.20741E-02-1.03432E-13-3.01290E-13
 -1      1101 1.98494E+01 2.78349E-01-8.04359E-06-4.89064E-02-1.06781E-13-2.36396E-13
 -1      1102 1.99004E+01 2.15093E-01-6.49493E-06-3.73114E-02-2.68954E-13-4.08329E-13
 -1      1103 1.99371E+01 1.63496E-01-5.68809E-06-2.75540E-02-3.97182E-13-2.00184E-14
 -1      1104 1.99628E+01 1.22133E-01-1.21094E-06-1.96489E-02-2.76262E-13-9.58749E-14
 -1      1105 1.99803E+01 8.95047E-02 6.06586E-06-1.33746E-02-5.45211E-14-3.86248E-13
 -1      1106 1.99915E+01 6.43187E-02 1.40317E-05-8.59077E-03 5.22362E-14-3.31307E-13
 -1      1107 1.69945E+01 6.31719E-01-1.41127E-05 1.65055E+00 7.91257E-14 1.55160E-13
 -1      1108 1.91949E+01 7.37033E-01-1.13578E-04 3.41547E-01-1.80172E-13-8.24543E-14
 -1      1109 1.88771E+01 1.27016E+00-1.22502E-04-7.10920E-01 4.18807E-14-1.47499E-13
 -1      1110 1.89698E+01 8.08838E-01-1.44760E-04 4.63529E-01 1.35620E-14-1.91274E-13
 -1      1111 1.95341E+01 5.54438E-01-5.30886E-05 1.85366E-01-1.85041E-13 3.39746E-13
 -1      1112 1.96560E+01 4.62600E-01-3.27668E-05 1.35998E-01-1.39778E-13 1.63843E-14
 -1      1113 1.97518E+01 3.77696E-01-1.81156E-05 9.92009E-02-5.45561E-14-2.65081E-13
 -1      1114 1.98256E+01 3.02315E-01-7.91782E-06 7.17450E-02 6.44294E-14-2.12305E-13
 -1      1115 1.98814E+01 2.37489E-01-1.10389E-06 5.12771E-02-1.53994E-13-2.94627E-14
 -1      1116 1.99225E+01 1.83198E-01 2.91958E-06 3.60649E-02 4.75082E-14 4.09765E-13
 -1      1117 1.99522E+01 1.38731E-01-9.71324E-07 2.48167E-02-1.00110E-13 6.00475E-13
 -1      1118 1.99730E+01 1.03182E-01 8.85777E-05 1.68054E-02-1.38768E-13 8.45949E-13
 -1      1119 1.99866E+01 7.50168E-02 5.54882E-06 1.10207E-02 2.73317E-13 9.72756E-13
 -1      1120 1.86751E+01 1.56800E+00-9.93519E-05-1.31378E-01-7.50494E-15-1.99038E-13
 -1      1121 1.68410E+01 5.68600E-01 2.23394E-03-1.83998E+00-1.07651E-13-8.19956E-14
 -1      1122 1.87037E+01 8.48412E-01-4.52082E-05 6.30081E-01-6.43611E-14-1.17433E-13
 -1      1123 1.75390E+01 1.33293E+00 9.64085E-04-3.30906E-01-8.00366E-14-1.30648E-13
 -1      1124 1.81918E+01 1.43488E+00 1.02940E-03-2.06056E-01-6.39191E-14-1.32553E-13
 -1      1125 1.75518E+01 9.20574E-01-8.71457E-04-1.25697E+00-7.42678E-14-2.32200E-14
 -1      1126 1.93817E+01 6.48459E-01-8.01196E-05 2.51786E-01-3.82826E-13 1.01883E-13
 -1      1127 1.83921E+01 8.35007E-01-7.11709E-04 8.64046E-01-1.82693E-13 1.57005E-14
 -1      1128 1.68010E+01 1.11154E+00 6.43677E-04 7.73237E-01 1.41731E-13 9.49542E-14
 -1      1129 1.80666E+01 7.25620E-01-7.72541E-04 1.19325E+00 8.31277E-15 2.70107E-15
 -1      1130 1.99932E+01 5.92949E-02-1.21486E-05 8.23520E-03 3.82358E-13 8.35848E-13
 -1      1131 1.89783E+01-1.00053E+00 5.92901E-03-2.80758E+00-1.46630E-13-1.23663E-13
 -1      1132 1.99872E+01 7.27117E-02-2.10475E-05-7.29543E-04 1.77458E-13-5.95155E-15
 -1      1133 1.89036E+01 1.68637E+00 1.07297E-04-4.69522E-02-1.69512E-14-2.19600E-13
 -1      1134 1.83278E+01 1.09212E+00 4.97563E-04-9.44932E-01-2.44350E-14-1.03890E-13
 -1      1135 1.80207E+01 1.06149E+00 8.72512E-04 4.65951E-01-4.87883E-14 9.23386E-14
 -1      1136 1.84445E+01 1.01562E+00-1.32279E-04 3.00235E-01-5.98809E-14 5.97525E-14
 -1      1137 1.87957E+01 9.28224E-01 1.19654E-04 1.90425E-01 2.15567E-14 3.63677E-14
 -1      1138 1.90767E+01 8.22142E-01 1.14010E-04 1.17907E-01-2.14119E-13 5.91379E-14
 -1      1139 1.93011E+01 7.09354E-01 9.51163E-05 7.08129E-02-2.41781E-13-1.78357E-13
 -1      1140 1.94789E+01 5.98147E-01 7.69348E-05 4.08896E-02-1.40331E-13-5.19120E-13
 -1      1141 1.96182E+01 4.94068E-01 6.04601E-05 2.23897E-02 1.54053E-13-4.53702E-13
 -1      1142 1.97259E+01 4.00415E-01 4.60901E-05 1.13304E-02 5.35685E-15-4.27510E-13
 -1      1143 1.98080E+01 3.18754E-01 3.40270E-05 4.99598E-03-8.24678E-14-4.82490E-13
 -1      1144 1.98695E+01 2.49400E-01 2.42209E-05 1.57362E-03-2.05687E-13-3.45645E-13
 -1      1145 1.99146E+01 1.91828E-01 1.65141E-05-1.18376E-04-2.07000E-13-4.28973E-13
 -1      1146 1.99470E+01 1.45019E-01 1.39047E-05-8.42426E-04-2.72283E-13-2.42995E-13
 -1      1147 1.99695E+01 1.07428E-01-3.90431E-05-7.55228E-04-2.04792E-13-2.59763E-13
 -1      1148 1.85826E+01 1.37231E+00-1.98387E-03-5.18764E-01 2.92689E-14-1.62995E-13
 -1      1149 1.76543E+01 1.05568E+00 9.65688E-04 6.75877E-01 7.11512E-14 5.08509E-14
 -1      1150 2.78422E+01 9.03731E+00 2.28193E+00-6.54155E+00-3.00870E-14 1.15430E-12
 -1      1151 2.07180E+01 6.28413E+00 2.29001E-01-3.68806E+00-1.74860E-14 2.44194E-13
 -1      1152 1.96288E+01 5.91545E+00 8.93700E-02-2.61640E+00-1.38084E-14-1.57823E-13
 -1      1153 1.91653E+01 5.76932E+00 6.57106E-02-1.93928E+00-8.07687E-15-3.60116E-13
 -1      1154 1.88896E+01 5.68348E+00 5.53146E-02-1.41682E+00-4.62477E-15-4.63179E-13
 -1      1155 1.87003E+01 5.62412E+00 4.67436E-02-9.93454E-01-4.23619E-15-5.13913E-13
 -1      1156 1.85711E+01 5.58347E+00 4.04939E-02-6.33981E-01-1.57860E-15-5.36612E-13
 -1      1157 1.84947E+01 5.55942E+00 3.66812E-02-3.11054E-01 3.46945E-18-5.32749E-13
 -1      1158 1.84721E+01 5.55237E+00 3.57885E-02-5.74540E-03 1.66664E-15-5.20249E-13
 -1      1159 1.85022E+01 5.56201E+00 3.77859E-02 3.03084E-01 2.71658E-15-4.96474E-13
 -1      1160 1.85832E+01 5.58768E+00 4.23993E-02 6.35794E-01 4.29518E-15-4.59865E-13
 -1      1161 1.87130E+01 5.62867E+00 4.92718E-02 1.00911E+00 7.20257E-15-4.01644E-13
 -1      1162 1.88970E+01 5.68628E+00 5.72253E-02 1.44782E+00 8.59382E-15-3.16933E-13
 -1      1163 1.91651E+01 5.76938E+00 6.61037E-02 1.98508E+00 1.17822E-14-1.66337E-13
 -1      1164 1.96145E+01 5.90923E+00 8.29335E-02 2.67227E+00 1.41970E-14 8.70987E-14
 -1      1165 2.06154E+01 6.23642E+00 1.72660E-01 3.67865E+00 1.38778E-14 5.57721E-13
 -1      1166 2.51686E+01 7.97339E+00 1.40926E+00 5.70550E+00 2.52021E-14 1.48009E-12
 -1      1167 2.85839E+01 3.52713E+00 1.19393E+00-4.11329E+00-1.24734E-13 1.73966E-12
 -1      1168 2.03914E+01-1.81554E-01-6.18845E-01-9.01135E-02-3.92256E-14 1.45114E-12
 -1      1169 1.92662E+01-9.94580E-02-2.35381E-01 6.62655E-02-1.50244E-14 1.03596E-12
 -1      1170 1.91828E+01-5.41209E-02-6.53590E-02 4.31361E-02-3.60822E-15 7.41990E-13
 -1      1171 1.94253E+01-3.37796E-02-2.65517E-02 3.07712E-02 2.78076E-15 5.81112E-13
 -1      1172 1.98867E+01-2.50713E-02-2.09621E-02 2.56760E-02-4.47992E-16 5.34284E-13
 -1      1173 2.05255E+01-2.09970E-02-2.14383E-02 2.46881E-02-7.40879E-15 4.62377E-13
 -1      1174 2.13284E+01-1.85254E-02-2.21461E-02 2.66765E-02 7.03192E-15 3.29702E-13
 -1      1175 2.22906E+01-1.53189E-02-2.05261E-02 3.09984E-02 1.25182E-15 2.38688E-13
 -1      1176 2.33955E+01-8.74584E-03-1.28832E-02 3.66252E-02-1.26213E-14 9.62494E-14
 -1      1177 2.45878E+01 4.40528E-03 6.43380E-03 4.10283E-02 1.26691E-14 1.19627E-14
 -1      1178 2.57353E+01 2.72363E-02 4.36417E-02 3.87410E-02 2.34621E-14 1.71675E-13
 -1      1179 2.65868E+01 6.00595E-02 9.99401E-02 2.04316E-02 8.76035E-16 7.09103E-14
 -1      1180 2.67604E+01 9.47528E-02 1.60114E-01-2.46934E-02 6.05072E-15 1.11175E-13
 -1      1181 2.58402E+01 1.08855E-01 1.81034E-01-9.82598E-02-7.04992E-15 2.40086E-13
 -1      1182 2.36655E+01 6.84497E-02 1.04698E-01-1.74605E-01 6.67955E-15 2.85022E-13
 -1      1183 2.07385E+01-3.78665E-02-8.03567E-02-1.95814E-01 1.96349E-14 3.34927E-13
 -1      1184 1.83242E+01-1.55718E-01-2.76342E-01-1.14141E-01-3.59400E-14 2.03587E-14
 -1      1185 1.77748E+01-1.87236E-01-3.27163E-01 4.10555E-02-7.92248E-15-4.36547E-13
 -1      1186 1.94425E+01-1.01801E-01-1.87081E-01 1.69102E-01 1.64799E-16-5.34961E-13
 -1      1187 2.23612E+01 2.14431E-02 2.22163E-02 1.97108E-01-3.37889E-14-8.56537E-13
 -1      1188 2.50941E+01 9.64326E-02 1.57063E-01 1.40533E-01 4.86529E-14-6.17964E-13
 -1      1189 2.67288E+01 1.05482E-01 1.77935E-01 6.03149E-02 3.08946E-14-1.42539E-13
 -1      1190 2.71414E+01 7.70001E-02 1.29744E-01 2.98983E-04-1.30607E-14-1.36760E-13
 -1      1191 2.66722E+01 4.12027E-02 6.74448E-02-2.96001E-02-4.52503E-15-4.22440E-14
 -1      1192 2.57461E+01 1.30852E-02 1.97934E-02-3.75078E-02 1.28409E-14 1.12757E-13
 -1      1193 2.46847E+01-4.20098E-03-7.77861E-03-3.41932E-02 4.55561E-14 2.46740E-13
 -1      1194 2.36744E+01-1.27412E-02-1.99961E-02-2.70263E-02-1.37843E-14-2.70138E-13
 -1      1195 2.27992E+01-1.56545E-02-2.31073E-02-1.97104E-02 7.71692E-15-3.30520E-13
 -1      1196 2.20823E+01-1.54689E-02-2.17476E-02-1.36287E-02 3.32594E-14-2.23590E-13
 -1      1197 2.15158E+01-1.38337E-02-1.86497E-02-9.03417E-03-4.80067E-14-3.16129E-13
 -1      1198 2.10798E+01-1.16955E-02-1.52010E-02-5.74438E-03 4.03961E-14-3.26652E-13
 -1      1199 2.07508E+01-9.54225E-03-1.20109E-02-3.46855E-03 4.07070E-14-5.56289E-13
 -1      1200 2.05072E+01-7.59534E-03-9.29169E-03-1.93504E-03 4.78769E-14-5.63299E-13
 -1      1201 2.03299E+01-5.93267E-03-7.07228E-03-9.27493E-04-1.13099E-15-7.66840E-13
 -1      1202 2.02034E+01-4.56121E-03-5.30737E-03-2.85214E-04 5.05045E-14-1.03408E-12
 -1      1203 2.01151E+01-3.45625E-03-3.92840E-03 1.07175E-04 1.98362E-14-8.78541E-13
 -1      1204 2.00553E+01-2.58165E-03-2.86572E-03 3.31190E-04-2.05304E-14-5.45128E-13
 -1      1205 2.00163E+01-1.89958E-03-2.05687E-03 4.43985E-04 1.51548E-14-3.36635E-13
 -1      1206 1.99924E+01-1.37481E-03-1.44886E-03 4.85473E-04 4.22379E-14-7.77221E-14
 -1      1207 1.99791E+01-9.76252E-04-9.97800E-04 4.83402E-04-5.48431E-14-2.13326E-13
 -1      1208 1.99732E+01-6.77233E-04-6.67784E-04 4.56921E-04 1.60681E-15-5.56460E-13
 -1      1209 1.99723E+01-4.55115E-04-4.29379E-04 4.19057E-04 1.53167E-14-5.45629E-13
 -1      1210 1.99745E+01-2.90638E-04-2.58007E-04 3.78351E-04-4.72693E-14-1.52052E-13
 -1      1211 1.99788E+01-1.67138E-04-1.32021E-04 3.39783E-04-7.28646E-15 5.48709E-15
 -1      1212 1.99840E+01-6.97982E-05-3.01619E-05 3.04866E-04 4.75282E-14 5.74647E-13
 -1      1213 1.99896E+01 1.49072E-05 7.09893E-05 2.69853E-04 9.70220E-14 3.92795E-13
 -1      1214 1.99947E+01 9.72885E-05 1.87846E-04 2.16352E-04 4.30117E-15 4.17985E-13
 -1      1215 1.99986E+01 1.83888E-04 2.83886E-04 1.05165E-04-6.73936E-14-4.13896E-14
 -1      1216 1.99999E+01-2.36572E-05-4.74215E-06-4.30254E-05 8.30478E-14 3.20603E-14
 -1      1217 2.76047E+01 5.17322E-01 3.23800E-01 1.93525E+00-2.63400E-14 2.21917E-12
 -1      1218 2.02650E+01-6.87293E-02-5.73417E-01 1.22233E-01 9.44383E-15 1.89521E-12
 -1      1219 1.93209E+01-4.36769E-02-1.92597E-01 1.75769E-02 2.99760E-15 1.51241E-12
 -1      1220 1.91629E+01-2.55626E-02-5.41598E-02 1.41250E-03 2.80288E-15 1.27633E-12
 -1      1221 1.93375E+01-1.72511E-02-1.99177E-02-3.87625E-03 1.51702E-15 1.07964E-12
 -1      1222 1.97011E+01-1.22323E-02-1.24314E-02-6.21044E-03-3.61690E-16 9.38583E-13
 -1      1223 2.01823E+01-8.03733E-03-9.17286E-03-8.32496E-03-1.54883E-14 9.38652E-13
 -1      1224 2.07344E+01-3.34301E-03-4.67672E-03-1.10250E-02-2.48082E-15 9.26214E-13
 -1      1225 2.13124E+01 2.75867E-03 2.64724E-03-1.44490E-02 1.55384E-14 7.02036E-13
 -1      1226 2.18594E+01 1.07337E-02 1.37022E-02-1.82072E-02 2.41961E-15 5.69288E-13
 -1      1227 2.22975E+01 2.02069E-02 2.85748E-02-2.11523E-02 1.07650E-14 4.85605E-13
 -1      1228 2.25258E+01 2.93675E-02 4.53853E-02-2.11709E-02 1.27862E-14 5.57324E-13
 -1      1229 2.24330E+01 3.46113E-02 5.90575E-02-1.54191E-02 1.72280E-14 4.92660E-13
 -1      1230 2.19300E+01 3.12627E-02 6.13269E-02-1.55081E-03-1.06360E-14 3.90792E-13
 -1      1231 2.10070E+01 1.61559E-02 4.37742E-02 1.99171E-02 7.93419E-15 2.85036E-13
 -1      1232 1.97935E+01-8.62696E-03 4.31425E-03 4.33258E-02 7.88418E-15 6.48509E-14
 -1      1233 1.85767E+01-3.40910E-02-4.66292E-02 5.83695E-02-2.08401E-14 2.71921E-13
 -1      1234 1.77306E+01-4.83361E-02-8.76016E-02 5.53356E-02 1.90182E-14 2.29799E-13
 -1      1235 1.75571E+01-4.47758E-02-9.82901E-02 3.25695E-02 4.27436E-15 5.25751E-14
 -1      1236 1.81288E+01-2.70848E-02-7.42482E-02-8.66173E-04-1.09162E-14 4.93494E-14
 -1      1237 1.92494E+01-5.40704E-03-2.99220E-02-3.08062E-02-1.46801E-14 1.63314E-13
 -1      1238 2.05637E+01 1.13311E-02 1.31843E-02-4.69769E-02 1.27714E-14 1.13999E-13
 -1      1239 2.17296E+01 1.94917E-02 4.02035E-02-4.76902E-02 9.38681E-15-3.74006E-14
 -1      1240 2.25379E+01 2.01984E-02 4.80064E-02-3.78210E-02 3.99680E-15-7.03188E-14
 -1      1241 2.29353E+01 1.65935E-02 4.20470E-02-2.40361E-02-1.27281E-14 1.39609E-13
 -1      1242 2.29791E+01 1.14762E-02 2.99962E-02-1.12984E-02 1.11981E-14 4.20337E-14
 -1      1243 2.27744E+01 6.58458E-03 1.75307E-02-1.85940E-03 6.89856E-15 8.11001E-14
 -1      1244 2.24279E+01 2.71051E-03 7.50128E-03 3.98925E-03 7.52031E-14-2.22686E-13
 -1      1245 2.20247E+01 1.96831E-05 6.52067E-04 6.90726E-03-9.04890E-15-2.62014E-13
 -1      1246 2.16230E+01-1.63133E-03-3.38268E-03 7.80878E-03 4.48747E-15-1.74628E-13
 -1      1247 2.12568E+01-2.48931E-03-5.33769E-03 7.50517E-03 1.37048E-14-2.54345E-14
 -1      1248 2.09423E+01-2.79929E-03-5.93096E-03 6.59069E-03-1.40862E-14 6.65561E-14
 -1      1249 2.06840E+01-2.76284E-03-5.72378E-03 5.45017E-03 1.09490E-14 1.14995E-13
 -1      1250 2.04793E+01-2.52938E-03-5.10514E-03 4.30780E-03 2.35437E-14-8.92671E-14
 -1      1251 2.03221E+01-2.20184E-03-4.32286E-03 3.27868E-03-4.35275E-14-8.34922E-15
 -1      1252 2.02049E+01-1.84666E-03-3.52325E-03 2.40998E-03 1.90621E-14-1.96540E-13
 -1      1253 2.01203E+01-1.50368E-03-2.78508E-03 1.70970E-03 5.49279E-14-1.13587E-12
 -1      1254 2.00612E+01-1.19446E-03-2.14453E-03 1.16536E-03 8.56171E-14-1.55194E-12
 -1      1255 2.00217E+01-9.28447E-04-1.61231E-03 7.55338E-04-6.92797E-15-1.35117E-12
 -1      1256 1.99967E+01-7.07552E-04-1.18477E-03 4.55374E-04-2.85208E-15-1.03138E-12
 -1      1257 1.99824E+01-5.29152E-04-8.50900E-04 2.42088E-04-3.30578E-14-9.49365E-13
 -1      1258 1.99755E+01-3.88117E-04-5.96479E-04 9.45944E-05-3.30998E-14-5.80937E-13
 -1      1259 1.99739E+01-2.78020E-04-4.06374E-04-4.94164E-06 4.66742E-14-9.56362E-13
 -1      1260 1.99756E+01-1.91708E-04-2.65460E-04-7.13795E-05 4.15485E-14-9.51846E-13
 -1      1261 1.99794E+01-1.21246E-04-1.58083E-04-1.16988E-04-6.11374E-14-4.58195E-13
 -1      1262 1.99844E+01-5.76043E-05-6.61698E-05-1.51605E-04 2.86677E-14-4.82389E-13
 -1      1263 1.99898E+01 9.65914E-06 3.24021E-05-1.81931E-04 1.69938E-14-1.01123E-12
 -1      1264 1.99948E+01 8.86768E-05 1.55375E-04-2.05356E-04-2.33240E-14-7.53905E-13
 -1      1265 1.99986E+01 1.55895E-04 2.55789E-04-1.81695E-04 5.80678E-14-9.89318E-13
 -1      1266 1.99999E+01-2.75135E-05-8.24589E-06 3.17350E-05 1.43061E-14-5.60579E-13
 -1      1267 1.99998E+01 7.57375E-05-1.45232E-05 1.63585E-05-6.43803E-13-9.91004E-14
 -1      1268 1.99999E+01-1.27835E-03 2.24836E-04-8.80940E-05-8.27468E-13-2.12626E-13
 -1      1269 1.99999E+01-4.77138E-03 1.08894E-04-1.87650E-04-6.71514E-13-1.73942E-13
 -1      1270 1.99998E+01-9.01881E-03-2.26364E-05-1.87575E-04-1.04599E-12 6.51305E-14
 -1      1271 1.99997E+01-1.30762E-02-1.00430E-04-1.54307E-04-1.00062E-12 1.02874E-13
 -1      1272 1.99997E+01-1.64284E-02-1.35461E-04-1.11827E-04-1.59119E-12-5.25274E-14
 -1      1273 1.99997E+01-1.88910E-02-1.45009E-04-7.35732E-05-9.74777E-13 1.01932E-13
 -1      1274 1.99997E+01-2.04107E-02-1.46406E-04-3.65042E-05-9.75990E-13-1.16828E-13
 -1      1275 1.99997E+01-2.09477E-02-1.47135E-04-1.76857E-06-1.02228E-12 7.78562E-15
 -1      1276 1.99997E+01-2.04961E-02-1.49859E-04 3.35365E-05-2.18323E-14 1.68870E-13
 -1      1277 1.99997E+01-1.90387E-02-1.50802E-04 7.21828E-05-6.05139E-13-2.72769E-13
 -1      1278 1.99997E+01-1.65969E-02-1.41442E-04 1.14673E-04-1.48931E-12 6.42719E-14
 -1      1279 1.99997E+01-1.32238E-02-1.06458E-04 1.57200E-04-1.51388E-12 3.00771E-14
 -1      1280 1.99998E+01-9.09940E-03-2.24695E-05 1.94504E-04-1.10102E-12-1.09361E-14
 -1      1281 1.99999E+01-4.71888E-03 1.38250E-04 2.26810E-04-3.01376E-13 4.42919E-14
 -1      1282 2.00000E+01-1.30570E-03 2.38965E-04 9.38757E-05 4.44467E-14-1.67201E-13
 -1      1283 1.99997E+01 7.25433E-05-3.16520E-05-7.16350E-06 5.56718E-14 4.53977E-14
 -1      1284-1.00390E+00-2.39134E+01-3.67495E+00-2.15797E+00 9.66671E-13 2.29344E-13
 -1      1285-1.71809E+00-1.49958E+01-3.00503E+00-3.93846E+00 1.78013E-12 6.32883E-13
 -1      1286 3.39375E-01-2.39529E+00-1.82776E+00-1.68505E-02 2.45648E-12 1.56186E-12
 -1      1287 9.08706E+00 7.83285E+00-2.51045E-01 8.33681E+00 3.05267E-12 2.90656E-12
 -1      1288 2.61613E+01 1.12027E+01 1.55338E+00 1.61430E+01 2.29550E-12 3.25362E-12
 -1      1289 4.66101E+01 8.11467E+00 2.98288E+00 1.72796E+01 1.15363E-12 2.56661E-12
 -1      1290 6.24259E+01 3.13723E+00 3.92144E+00 1.02249E+01 3.35079E-13 1.29596E-12
 -1      1291 6.65030E+01 1.72831E+00 4.14426E+00-2.45246E+00 7.46070E-14-4.70457E-15
 -1      1292 5.65160E+01 5.22036E+00 3.56339E+00-1.40869E+01 4.57995E-13-1.28675E-12
 -1      1293 3.76086E+01 1.00799E+01 2.40452E+00-1.81182E+01 1.29186E-12-2.26996E-12
 -1      1294 1.89292E+01 1.08632E+01 8.36265E-01-1.38825E+01 2.16938E-12-2.60236E-12
 -1      1295 5.29718E+00 4.68230E+00-7.86617E-01-5.13544E+00 2.56195E-12-2.15228E-12
 -1      1296-1.00030E+00-7.57161E+00-2.30690E+00 2.43026E+00 2.15894E-12-1.10034E-12
 -1      1297-1.54828E+00-1.97410E+01-3.41471E+00 3.86082E+00 1.25511E-12-3.57187E-13
 -1      1298-1.02105E+00-2.54236E+01-3.83447E+00 3.58611E-01-4.81698E-14-1.43364E-13
 -1      1299-1.54716E+00-2.21500E+01-3.66391E+00-3.70989E+00-1.64857E-12-4.96866E-13
 -1      1300-1.76969E+00-1.11849E+01-2.80133E+00-3.61959E+00-2.62590E-12-1.21753E-12
 -1      1301 2.24129E+00 1.30645E+00-1.47052E+00 2.22298E+00-3.15881E-12-2.35834E-12
 -1      1302 1.35129E+01 9.40569E+00 1.49506E-01 1.10130E+01-2.86882E-12-3.10307E-12
 -1      1303 3.21289E+01 1.06620E+01 1.86842E+00 1.75936E+01-2.11364E-12-3.40283E-12
 -1      1304 5.31347E+01 6.64309E+00 3.46426E+00 1.66564E+01-9.86322E-13-2.54330E-12
 -1      1305 6.69069E+01 2.51594E+00 4.36868E+00 6.89378E+00-2.22461E-13-1.20604E-12
 -1      1306 6.77954E+01 2.17627E+00 4.45817E+00-6.00452E+00-1.39305E-13 4.32099E-13
 -1      1307 5.56054E+01 5.90739E+00 3.60134E+00-1.55644E+01-7.18037E-13 1.98574E-12
 -1      1308 3.64797E+01 1.00392E+01 2.21479E+00-1.80391E+01-1.84119E-12 3.17990E-12
 -1      1309 1.79455E+01 1.03018E+01 6.01494E-01-1.31400E+01-2.74269E-12 3.31446E-12
 -1      1310 5.15246E+00 4.72308E+00-9.36536E-01-5.05750E+00-3.52518E-12 2.91145E-12
 -1      1311-9.47501E-01-5.78219E+00-2.29144E+00 1.93025E+00-3.21232E-12 1.88660E-12
 -1      1312-1.93544E+00-1.73319E+01-3.28642E+00 4.49751E+00-1.97675E-12 7.57339E-13
 -1      1313-1.16858E+00-2.44821E+01-3.76131E+00 2.18889E+00-4.72344E-13 2.27124E-13
 -1      1314 2.23409E+01 1.84585E+00-7.14429E-01-2.67553E+00-4.35485E-14 9.69558E-13
 -1      1315 2.05763E+01 4.69498E+00-4.27861E-02-3.06366E+00-1.39042E-13 5.46160E-14
 -1      1316 2.10638E+01 4.80022E+00-1.01405E-01-3.93722E+00-1.73112E-13 2.66648E-13
 -1      1317 1.97301E+01 5.01726E+00-1.77286E-02-2.36586E+00-1.37300E-13-2.46657E-13
 -1      1318 2.00504E+01 5.11854E+00 8.77924E-03-2.77337E+00-1.57672E-13-1.13895E-13
 -1      1319 2.07643E+01 3.94799E+00-2.17935E-02-2.80350E+00-2.40703E-13 5.36654E-14
 -1      1320 1.93005E+01 5.11760E+00-4.77606E-03-1.77098E+00-1.10779E-13-4.02716E-13
 -1      1321 1.94967E+01 5.18633E+00 1.59741E-02-2.06527E+00-1.27100E-13-3.32456E-13
 -1      1322 1.99435E+01 4.39934E+00-2.08725E-02-2.18990E+00-2.12840E-13-1.95233E-13
 -1      1323 1.90160E+01 5.16799E+00-2.85219E-05-1.28750E+00-7.57675E-14-4.89130E-13
 -1      1324 1.91507E+01 5.21422E+00 1.54062E-02-1.52222E+00-8.73711E-14-4.49692E-13
 -1      1325 1.94759E+01 4.62039E+00-1.74822E-02-1.63326E+00-1.60506E-13-3.33868E-13
 -1      1326 1.88179E+01 5.19761E+00 1.86901E-03-8.92067E-01-4.54949E-14-5.27989E-13
 -1      1327 1.89118E+01 5.22929E+00 1.29281E-02-1.08478E+00-5.88522E-14-5.08437E-13
 -1      1328 1.91667E+01 4.75271E+00-1.43971E-02-1.17969E+00-1.10086E-13-4.06661E-13
 -1      1329 1.86827E+01 5.21600E+00 3.02401E-03-5.45340E-01-2.17951E-14-5.39594E-13
 -1      1330 1.87444E+01 5.23636E+00 1.00649E-02-7.15792E-01-2.92995E-14-5.36555E-13
 -1      1331 1.89523E+01 4.83613E+00-1.24322E-02-7.99447E-01-6.17011E-14-4.44887E-13
 -1      1332 1.86111E+01 5.22700E+00 4.39116E-03-2.31882E-01 6.94757E-15-5.37530E-13
 -1      1333 1.86401E+01 5.23646E+00 7.47373E-03-3.88295E-01-2.33147E-15-5.38250E-13
 -1      1334 1.88138E+01 4.88505E+00-1.14219E-02-4.64992E-01-1.96082E-14-4.49141E-13
 -1      1335 1.86020E+01 5.23236E+00 6.18459E-03 6.98587E-02 3.10589E-14-5.23331E-13
 -1      1336 1.85989E+01 5.23129E+00 5.46875E-03-8.32067E-02 2.45791E-14-5.32494E-13
 -1      1337 1.87490E+01 4.90514E+00-1.10451E-02-1.57696E-01 3.00492E-14-4.41916E-13
 -1      1338 1.86535E+01 5.23288E+00 8.43254E-03 3.80324E-01 5.71539E-14-4.95057E-13
 -1      1339 1.86194E+01 5.22162E+00 4.09084E-03 2.20447E-01 4.68575E-14-5.10425E-13
 -1      1340 1.87561E+01 4.89958E+00-1.11583E-02 1.43355E-01 6.14331E-14-4.28352E-13
 -1      1341 1.87635E+01 5.22825E+00 1.09512E-02 7.19266E-01 8.29319E-14-4.50905E-13
 -1      1342 1.86996E+01 5.20717E+00 3.19107E-03 5.42617E-01 7.33805E-14-4.75803E-13
 -1      1343 1.88328E+01 4.86939E+00-1.17492E-02 4.57966E-01 1.06231E-13-4.00218E-13
 -1      1344 1.89285E+01 5.21818E+00 1.35398E-02 1.09949E+00 1.12216E-13-3.92032E-13
 -1      1345 1.88358E+01 5.18661E+00 2.29488E-03 8.99625E-01 1.02727E-13-4.26893E-13
 -1      1346 1.89760E+01 4.81366E+00-1.28096E-02 8.02077E-01 1.51882E-13-3.50407E-13
 -1      1347 1.91634E+01 5.20045E+00 1.54925E-02 1.55631E+00 1.43968E-13-2.94424E-13
 -1      1348 1.90320E+01 5.15487E+00 3.30619E-04 1.31372E+00 1.31095E-13-3.51613E-13
 -1      1349 1.91888E+01 4.72607E+00-1.49402E-02 1.19772E+00 1.98067E-13-2.85952E-13
 -1      1350 1.95015E+01 5.17216E+00 1.51721E-02 2.11410E+00 1.72820E-13-1.38448E-13
 -1      1351 1.93087E+01 5.10318E+00-5.15246E-03 1.81298E+00 1.55390E-13-2.32786E-13
 -1      1352 1.94938E+01 4.59060E+00-1.84502E-02 1.67092E+00 2.45253E-13-1.87288E-13
 -1      1353 2.00628E+01 5.12219E+00 1.37172E-02 2.82908E+00 1.86628E-13 1.39090E-13
 -1      1354 1.97322E+01 5.00396E+00-1.83648E-02 2.42448E+00 1.68816E-13-2.69368E-14
 -1      1355 1.99562E+01 4.36769E+00-2.21643E-02 2.24489E+00 2.73019E-13-6.34215E-15
 -1      1356 2.12756E+01 4.89526E+00 1.52721E-02 3.85293E+00 1.46688E-13 6.41723E-13
 -1      1357 2.05393E+01 4.73645E+00-4.22761E-02 3.18722E+00 1.48659E-13 3.39069E-13
 -1      1358 2.07887E+01 3.90858E+00-1.84179E-02 2.92443E+00 2.68421E-13 3.00190E-13
 -1      1359 2.71429E+01 3.16744E+00 8.96017E-01 4.45079E+00 5.60524E-14 1.53361E-12
 -1      1360 2.21480E+01 3.51048E+00-1.75717E-01 3.72115E+00 6.27554E-14 9.22734E-13
 -1      1361 2.23027E+01 2.53994E+00-2.81064E-02 3.24817E+00 2.36229E-13 7.52398E-13
 -1      1362 2.15448E+01 3.49693E-01-7.57283E-01 1.08833E+00 1.11251E-13 1.51068E-12
 -1      1363 2.21628E+01 1.24632E-01-3.97119E-01-1.17044E+00-1.30285E-13 1.01372E-12
 -1      1364 2.09660E+01 2.99603E-01-1.59113E-01-7.07609E-01-1.25192E-13 8.57578E-13
 -1      1365 2.04508E+01 1.54393E-01-7.10073E-02-3.02746E-01-9.70057E-14 7.86971E-13
 -1      1366 2.01046E+01 9.42112E-02-1.23837E-02-2.31133E-01-9.87266E-14 6.33396E-13
 -1      1367 2.13080E+01 3.62715E-01-1.03407E-01-1.08068E+00-2.17999E-13 4.80747E-13
 -1      1368 1.98521E+01 7.07973E-02 4.04605E-03-2.57480E-02-7.56947E-14 5.82742E-13
 -1      1369 1.98351E+01 4.95066E-02 1.45032E-02-4.13143E-03-6.53436E-14 4.82340E-13
 -1      1370 2.04433E+01 1.39266E-01-3.68246E-02-2.97779E-01-1.67918E-13 3.85804E-13
 -1      1371 1.98018E+01 4.25721E-02 1.32899E-02 1.06917E-01-4.59914E-14 4.31929E-13
 -1      1372 1.99515E+01 3.18855E-02 1.18264E-02 1.22529E-01-4.95715E-14 3.62686E-13
 -1      1373 2.01919E+01 7.07410E-02-1.12919E-02 7.50915E-02-1.21091E-13 2.93087E-13
 -1      1374 2.00538E+01 3.14301E-02 8.26429E-03 1.97292E-01-1.07171E-14 3.46168E-13
 -1      1375 2.03125E+01 2.53708E-02 6.92304E-03 2.10389E-01-2.04203E-14 3.24293E-13
 -1      1376 2.02608E+01 4.74825E-02-7.49937E-03 2.97390E-01-6.20684E-14 1.99194E-13
 -1      1377 2.05109E+01 2.72298E-02 3.57062E-03 2.71124E-01-3.41775E-14 3.16719E-13
 -1      1378 2.08580E+01 2.28143E-02 3.72112E-03 2.83511E-01-4.41444E-14 2.50031E-13
 -1      1379 2.05515E+01 4.01177E-02-7.27297E-03 4.60984E-01-6.02582E-14 1.59003E-13
 -1      1380 2.11330E+01 2.55612E-02 5.16111E-04 3.38234E-01-7.67572E-15 2.44235E-13
 -1      1381 2.15606E+01 2.09674E-02 1.59206E-03 3.50501E-01-1.02340E-14 2.08994E-13
 -1      1382 2.10104E+01 3.79844E-02-7.29019E-03 6.00509E-01-4.35129E-14 1.65577E-13
 -1      1383 2.19001E+01 2.34361E-02-1.64319E-03 3.99712E-01-4.70511E-14 2.10320E-13
 -1      1384 2.24004E+01 1.68525E-02-1.34429E-04 4.11150E-01-4.50024E-14 1.40860E-13
 -1      1385 2.16080E+01 3.55361E-02-7.06901E-03 7.26382E-01-5.16392E-14 1.13674E-13
 -1      1386 2.27909E+01 1.73367E-02-3.15176E-03 4.47923E-01-4.02777E-14 1.29709E-13
 -1      1387 2.33440E+01 6.60307E-03-1.41349E-03 4.55923E-01-6.62208E-14 6.26860E-14
 -1      1388 2.23205E+01 2.69500E-02-6.15968E-03 8.31505E-01-6.84223E-14 9.61297E-14
 -1      1389 2.37624E+01 2.39767E-03-3.34002E-03 4.63777E-01-2.76552E-14 5.49526E-14
 -1      1390 2.43211E+01-1.47475E-02-1.37519E-03 4.62852E-01 2.71167E-14 5.54556E-14
 -1      1391 2.31147E+01 4.23565E-03-3.59535E-03 8.88831E-01-5.28089E-14 6.91495E-14
 -1      1392 2.47259E+01-2.72517E-02-5.93421E-04 4.13959E-01 5.48485E-14 1.80515E-14
 -1      1393 2.51978E+01-5.16874E-02 1.57243E-03 3.95035E-01-1.23556E-15 6.50174E-15
 -1      1394 2.39309E+01-4.24811E-02 2.12106E-03 8.46470E-01 1.73295E-14 1.47937E-14
 -1      1395 2.55207E+01-7.52811E-02 7.04455E-03 2.53867E-01-1.80359E-14 1.70350E-14
 -1      1396 2.57581E+01-1.02889E-01 8.74452E-03 2.05739E-01-1.99753E-14-2.11389E-14
 -1      1397 2.46667E+01-1.20026E-01 1.25242E-02 6.28857E-01-1.00848E-14-7.94911E-14
 -1      1398 2.59048E+01-1.34679E-01 1.95776E-02-5.25454E-02 5.50220E-14 6.61242E-14
 -1      1399 2.57266E+01-1.51077E-01 1.85293E-02-1.35886E-01 3.70311E-14 1.25157E-13
 -1      1400 2.51662E+01-2.18647E-01 2.74741E-02 1.60626E-01 6.10241E-14 1.96653E-14
 -1      1401 2.55974E+01-1.74811E-01 3.10050E-02-4.84034E-01 5.73135E-14 2.02935E-13
 -1      1402 2.48767E+01-1.54426E-01 2.26239E-02-5.87144E-01 8.47412E-15 2.37810E-13
 -1      1403 2.52358E+01-2.91585E-01 4.17013E-02-5.64846E-01 6.93421E-14 1.70896E-13
 -1      1404 2.44256E+01-1.40231E-01 2.68338E-02-8.96336E-01-5.55528E-14 3.06852E-13
 -1      1405 2.32462E+01-6.32353E-02 8.31220E-03-9.66879E-01-3.45305E-14 2.90018E-13
 -1      1406 2.47155E+01-2.49959E-01 4.15035E-02-1.37351E+00-2.62464E-15 2.95337E-13
 -1      1407 2.25785E+01 6.67005E-03-3.22653E-03-1.02135E+00-1.07501E-14 2.29983E-13
 -1      1408 2.13467E+01 1.18319E-01-2.73456E-02-9.88240E-01-1.07032E-13 1.52350E-13
 -1      1409 2.36365E+01-2.98718E-02 9.18843E-03-1.84882E+00-6.95759E-14 2.77250E-13
 -1      1410 2.07692E+01 2.05149E-01-4.66373E-02-6.43758E-01-1.71682E-13 3.33900E-14
 -1      1411 2.00861E+01 2.78352E-01-6.20229E-02-4.90167E-01-1.70228E-13-1.50411E-13
 -1      1412 2.23942E+01 2.98013E-01-4.97812E-02-1.52160E+00-2.14214E-13 3.97911E-14
 -1      1413 1.99552E+01 3.02157E-01-6.79218E-02 1.22669E-01-1.43108E-13-2.19657E-13
 -1      1414 2.02147E+01 2.75685E-01-6.20441E-02 3.08671E-01-1.16129E-13-3.85109E-13
 -1      1415 2.16731E+01 5.09734E-01-9.32733E-02-3.42459E-01-2.56392E-13-1.38839E-13
 -1      1416 2.06277E+01 2.11399E-01-4.70817E-02 8.24140E-01-7.53425E-14-4.55434E-13
 -1      1417 2.16871E+01 1.08480E-01-2.49712E-02 9.21950E-01-1.36596E-13-5.93955E-13
 -1      1418 2.19601E+01 4.32134E-01-7.79428E-02 1.05919E+00-1.96509E-13-3.58043E-13
 -1      1419 2.23822E+01 2.18829E-02-7.17834E-03 1.06421E+00-7.07773E-14-6.55892E-13
 -1      1420 2.36888E+01-7.88471E-02 1.56565E-02 1.03867E+00-2.39231E-14-7.04159E-13
 -1      1421 2.30776E+01 1.34175E-01-1.84682E-02 1.85232E+00-1.68544E-13-4.98736E-13
 -1      1422 2.43016E+01-1.21389E-01 1.87621E-02 8.31411E-01 7.22651E-14-6.31481E-13
 -1      1423 2.53162E+01-1.69481E-01 3.21307E-02 7.36337E-01 1.41304E-13-4.48169E-13
 -1      1424 2.43631E+01-1.59888E-01 3.02191E-02 1.73867E+00 5.31797E-14-4.94764E-13
 -1      1425 2.56373E+01-1.60401E-01 2.21038E-02 3.87074E-01 1.31381E-13-3.95489E-13
 -1      1426 2.61193E+01-1.58957E-01 2.63457E-02 2.90476E-01 5.22429E-14-3.05020E-13
 -1      1427 2.52419E+01-2.88712E-01 4.45354E-02 1.03884E+00 2.03455E-13-5.23031E-13
 -1      1428 2.61321E+01-1.27634E-01 1.35054E-02-1.82074E-02 5.09627E-14-1.81239E-13
 -1      1429 2.61249E+01-1.03102E-01 1.29211E-02-8.31308E-02 4.99809E-14-1.69461E-13
 -1      1430 2.55151E+01-2.60446E-01 3.50657E-02 2.41654E-01 1.11406E-13-2.84424E-13
 -1      1431 2.59134E+01-7.38362E-02 4.27679E-03-2.77495E-01 4.70908E-14-1.34793E-13
 -1      1432 2.55886E+01-4.70048E-02 2.37349E-03-3.08467E-01 8.59686E-14-2.62360E-14
 -1      1433 2.52727E+01-1.65056E-01 1.91177E-02-3.53799E-01 9.14251E-14-1.47425E-13
 -1      1434 2.52550E+01-2.85836E-02-9.34454E-04-3.94146E-01 6.71793E-14 2.26624E-14
 -1      1435 2.47842E+01-8.22894E-03-2.79458E-03-4.01375E-01 2.99526E-14 1.18416E-13
 -1      1436 2.47069E+01-7.31752E-02 6.13861E-03-6.78426E-01 1.10365E-13-2.46435E-14
 -1      1437 2.44100E+01 1.09290E-04-2.44845E-03-4.13015E-01-6.35371E-14 6.23356E-14
 -1      1438 2.39134E+01 1.28658E-02-4.06077E-03-4.07301E-01-9.16980E-14-4.69624E-14
 -1      1439 2.39969E+01-1.10763E-02-1.67241E-03-7.86618E-01-5.61393E-14 4.48599E-15
 -1      1440 2.35510E+01 1.46854E-02-2.01342E-03-3.78815E-01-1.04046E-13-2.28397E-13
 -1      1441 2.30946E+01 2.15902E-02-3.47242E-03-3.67677E-01-1.33707E-13-3.60793E-13
 -1      1442 2.32689E+01 2.19017E-02-5.34344E-03-7.61500E-01-2.27458E-13-2.23455E-13
 -1      1443 2.27715E+01 2.00793E-02-1.01359E-03-3.22674E-01 1.52677E-14-4.00308E-13
 -1      1444 2.23830E+01 2.32254E-02-2.37136E-03-3.10363E-01 6.04165E-14-3.56602E-13
 -1      1445 2.25965E+01 3.49671E-02-6.48658E-03-6.71039E-01-9.79074E-14-3.76495E-13
 -1      1446 2.21097E+01 2.04298E-02-1.28156E-04-2.62451E-01-6.16087E-15-2.13711E-13
 -1      1447 2.17944E+01 2.14191E-02-1.36888E-03-2.51006E-01-2.03557E-14-2.21716E-13
 -1      1448 2.20137E+01 3.68759E-02-6.33284E-03-5.58707E-01 6.03081E-14-3.37298E-13
 -1      1449 2.15714E+01 1.84283E-02 4.46126E-04-2.06858E-01-8.48254E-14-1.96202E-13
 -1      1450 2.13238E+01 1.82935E-02-6.41512E-04-1.97057E-01-3.86401E-14-2.67833E-13
 -1      1451 2.15296E+01 3.35385E-02-5.62268E-03-4.48049E-01-3.47075E-14-2.18266E-13
 -1      1452 2.11468E+01 1.55951E-02 7.34115E-04-1.59267E-01 6.14955E-14-2.90087E-13
 -1      1453 2.09568E+01 1.49408E-02-1.77568E-04-1.51254E-01 1.43258E-14-1.63581E-13
 -1      1454 2.11397E+01 2.83168E-02-4.74409E-03-3.49760E-01-4.92705E-14-7.07062E-14
 -1      1455 2.08193E+01 1.26973E-02 8.23518E-04-1.20285E-01-8.88577E-14-1.97749E-13
 -1      1456 2.06765E+01 1.18546E-02 8.92596E-05-1.13924E-01-1.23414E-13-2.98908E-13
 -1      1457 2.08329E+01 2.28932E-02-3.87966E-03-2.67321E-01-1.23166E-13-4.34925E-14
 -1      1458 2.05715E+01 1.00741E-02 7.96786E-04-8.92596E-02-4.55187E-14-3.94789E-13
 -1      1459 2.04661E+01 9.21337E-03 2.25026E-04-8.43110E-02 8.34424E-15-4.93914E-13
 -1      1460 2.05962E+01 1.79964E-02-3.10500E-03-2.00602E-01-1.20679E-13-1.68746E-13
 -1      1461 2.03874E+01 7.84149E-03 7.12597E-04-6.50691E-02-4.85326E-14-4.79575E-13
 -1      1462 2.03110E+01 7.04363E-03 2.79950E-04-6.12812E-02-1.96223E-14-6.19151E-13
 -1      1463 2.04168E+01 1.38656E-02-2.44374E-03-1.47914E-01-1.03778E-13-3.79591E-13
 -1      1464 2.02530E+01 6.00869E-03 6.07141E-04-4.65152E-02-4.50399E-15-7.69801E-13
 -1      1465 2.01987E+01 5.30672E-03 2.88029E-04-4.36566E-02 1.66050E-14-6.68133E-13
 -1      1466 2.02831E+01 1.05122E-02-1.89573E-03-1.07070E-01-4.43099E-14-3.41878E-13
 -1      1467 2.01568E+01 4.53922E-03 5.00484E-04-3.24902E-02 1.07678E-13-7.04504E-13
 -1      1468 2.01192E+01 3.94147E-03 2.70849E-04-3.03624E-02 7.28587E-14-5.81468E-13
 -1      1469 2.01853E+01 7.85517E-03-1.45080E-03-7.58982E-02 5.01473E-14-4.56534E-13
 -1      1470 2.00896E+01 3.38136E-03 4.02530E-04-2.20373E-02 6.62608E-14-4.58106E-13
 -1      1471 2.00643E+01 2.88390E-03 2.41552E-04-2.04763E-02-3.89289E-14-4.80990E-13
 -1      1472 2.01152E+01 5.78599E-03-1.09529E-03-5.24470E-02 1.14611E-13-4.43607E-13
 -1      1473 2.00439E+01 2.48206E-03 3.17286E-04-1.43607E-02-6.73981E-14-2.92196E-13
 -1      1474 2.00276E+01 2.07535E-03 2.07846E-04-1.32335E-02 1.42233E-13-3.22432E-13
 -1      1475 2.00661E+01 4.19704E-03-8.15195E-04-3.50563E-02-3.08635E-14-2.18813E-13
 -1      1476 2.00141E+01 1.79279E-03 2.45551E-04-8.81322E-03 7.04648E-14-3.50819E-13
 -1      1477 2.00044E+01 1.46507E-03 1.74051E-04-8.01404E-03-9.03373E-14-4.42078E-13
 -1      1478 2.00328E+01 2.99252E-03-5.97389E-04-2.23558E-02 1.06641E-13-3.29223E-13
 -1      1479 1.99959E+01 1.27133E-03 1.86515E-04-4.87768E-03 1.02689E-14-3.25275E-13
 -1      1480 1.99907E+01 1.01042E-03 1.42403E-04-4.32322E-03-7.44569E-14-4.32207E-13
 -1      1481 2.00112E+01 2.09117E-03-4.30208E-04-1.32372E-02 3.60212E-14-4.99207E-13
 -1      1482 1.99858E+01 8.81924E-04 1.38635E-04-2.14682E-03-4.08727E-14-4.38892E-13
 -1      1483 1.99837E+01 6.76009E-04 1.13869E-04-1.77246E-03 4.62019E-14-4.09174E-13
 -1      1484 1.99980E+01 1.42569E-03-3.03530E-04-6.81918E-03-4.58619E-14-4.28905E-13
 -1      1485 1.99814E+01 5.94529E-04 1.00139E-04-3.05236E-04 1.88088E-13-3.46132E-13
 -1      1486 1.99814E+01 4.32527E-04 8.86647E-05-6.17832E-05 8.83190E-14-2.48952E-13
 -1      1487 1.99908E+01 9.40729E-04-2.08711E-04-2.41185E-03 1.58315E-13-2.11716E-13
 -1      1488 1.99808E+01 3.83805E-04 6.93222E-05 8.85702E-04-4.15119E-14 3.66162E-15
 -1      1489 1.99822E+01 2.55355E-04 6.66854E-05 1.03457E-03 4.65972E-14 2.83132E-14
 -1      1490 1.99877E+01 5.90541E-04-1.38392E-04 5.13769E-04 2.13055E-13-5.59435E-14
 -1      1491 1.99827E+01 2.27830E-04 4.48884E-05 1.59943E-03 1.67513E-13 1.02845E-13
 -1      1492 1.99848E+01 1.23160E-04 4.80850E-05 1.67890E-03 2.05878E-13 3.58505E-13
 -1      1493 1.99875E+01 3.36347E-04-8.62046E-05 2.35074E-03 2.82211E-13 2.03332E-13
 -1      1494 1.99860E+01 1.06705E-04 2.66163E-05 1.95200E-03 2.03187E-13 4.52251E-13
 -1      1495 1.99885E+01 1.62640E-05 3.42474E-05 1.97701E-03 1.69163E-13 5.83814E-13
 -1      1496 1.99890E+01 1.43524E-04-4.63166E-05 3.37432E-03 3.44591E-13 6.81346E-13
 -1      1497 1.99899E+01 4.34015E-07 1.67347E-05 2.00535E-03-3.24142E-14 4.49973E-13
 -1      1498 1.99925E+01-8.54194E-05 2.90860E-05 1.97945E-03-9.80549E-14 3.49505E-13
 -1      1499 1.99915E+01-2.24302E-05-1.28288E-05 3.75310E-03 5.92118E-14 4.16632E-13
 -1      1500 1.99939E+01-1.14176E-04 2.03694E-05 1.76591E-03-1.50719E-13 2.63862E-13
 -1      1501 1.99960E+01-2.03226E-04 3.24927E-05 1.67724E-03-1.66743E-13 6.56861E-14
 -1      1502 1.99943E+01-2.02062E-04 1.91307E-05 3.54826E-03-2.68186E-13 7.51084E-14
 -1      1503 1.99973E+01-2.63630E-04 3.56244E-05 1.18247E-03-4.48153E-14 2.28439E-14
 -1      1504 1.99986E+01-3.18549E-04 3.62530E-05 1.03269E-03 3.00052E-15 6.21404E-16
 -1      1505 1.99969E+01-4.51577E-04 4.88048E-05 2.73669E-03-1.36642E-13-1.54743E-13
 -1      1506 1.99996E+01-2.34150E-04 6.82621E-05 1.20302E-04-9.08078E-14 3.88195E-14
 -1      1507 1.99991E+01-7.35248E-04 5.15131E-05 1.08034E-03-3.42409E-14-9.35327E-14
 -1      1508 2.05642E+01 7.40334E-02-1.47707E-01 4.05778E-01 1.15626E-13 1.25764E-12
 -1      1509 2.17128E+01 2.16125E-01-2.27777E-01 6.37543E-01 9.78245E-14 1.43012E-12
 -1      1510 2.19430E+01 8.60525E-01-8.84159E-02 1.90525E+00 1.87392E-13 9.73790E-13
 -1      1511 1.98320E+01 3.36782E-02-1.97711E-02 1.09230E-01 8.38669E-14 1.01876E-12
 -1      1512 2.01442E+01 1.15255E-01-6.00061E-02 1.61948E-01 8.56294E-14 1.15386E-12
 -1      1513 2.06835E+01 1.83323E-01-5.59575E-02 6.38093E-01 1.75443E-13 8.02516E-13
 -1      1514 1.96630E+01 1.79883E-02 5.51991E-03-3.16873E-02 7.14350E-14 8.47284E-13
 -1      1515 1.96870E+01 5.60759E-02 2.27767E-03-2.19656E-03 5.36125E-14 9.38194E-13
 -1      1516 2.01210E+01 7.43187E-02-1.36543E-02 1.43442E-01 1.34247E-13 6.45001E-13
 -1      1517 1.97968E+01 1.08198E-02 6.07384E-03-1.08434E-01 4.56423E-14 7.29222E-13
 -1      1518 1.96801E+01 3.22986E-02 1.15326E-02-8.92958E-02 4.09460E-14 8.01140E-13
 -1      1519 1.99916E+01 3.72135E-02-4.66446E-03-9.34426E-02 9.65981E-14 5.33341E-13
 -1      1520 2.01072E+01 6.88603E-03 3.66289E-03-1.55351E-01-3.75654E-15 6.81058E-13
 -1      1521 1.99098E+01 2.11509E-02 8.60813E-03-1.41667E-01 1.04433E-14 7.01994E-13
 -1      1522 2.01125E+01 2.10768E-02-4.21361E-03-2.27586E-01 4.83012E-14 4.81352E-13
 -1      1523 2.05250E+01 3.63555E-03 2.37374E-03-1.83820E-01 7.82187E-15 6.75586E-13
 -1      1524 2.02787E+01 1.40413E-02 5.30393E-03-1.73927E-01-3.95799E-15 6.61990E-13
 -1      1525 2.03852E+01 1.18566E-02-4.28024E-03-3.09277E-01-1.89627E-15 4.51545E-13
 -1      1526 2.10000E+01-1.67423E-04 2.31066E-03-1.95804E-01 7.19690E-14 5.71786E-13
 -1      1527 2.07288E+01 7.49783E-03 3.31242E-03-1.89755E-01 3.20603E-14 6.41336E-13
 -1      1528 2.07483E+01 4.01692E-03-3.55405E-03-3.54561E-01 5.68723E-14 3.97465E-13
 -1      1529 2.14822E+01-5.31366E-03 3.31022E-03-1.88118E-01 4.59734E-14 4.27490E-13
 -1      1530 2.12118E+01-4.91891E-04 2.29046E-03-1.87172E-01 6.92527E-14 5.29736E-13
 -1      1531 2.11536E+01-5.27445E-03-1.88985E-03-3.64296E-01 9.44510E-14 3.31052E-13
 -1      1532 2.19107E+01-1.21991E-02 5.39554E-03-1.54354E-01 1.99615E-14 3.70074E-13
 -1      1533 2.16744E+01-1.12195E-02 1.95841E-03-1.60720E-01-1.25969E-14 3.65721E-13
 -1      1534 2.15517E+01-1.77857E-02 8.85408E-04-3.30722E-01 4.44111E-14 2.38995E-13
 -1      1535 2.22090E+01-2.04595E-02 8.47986E-03-8.72411E-02 2.09819E-14 3.90973E-13
 -1      1536 2.20502E+01-2.50179E-02 2.25997E-03-1.03548E-01 3.12307E-14 4.03943E-13
 -1      1537 2.18850E+01-3.41601E-02 4.91015E-03-2.41721E-01 2.60534E-14 2.40707E-13
 -1      1538 2.22889E+01-2.83765E-02 1.19015E-02 1.70291E-02 3.90703E-14 3.79923E-13
 -1      1539 2.22586E+01-4.04262E-02 3.12521E-03-1.10546E-02 9.67455E-15 3.82541E-13
 -1      1540 2.20862E+01-5.29427E-02 9.91586E-03-8.69131E-02 1.90429E-14 2.81113E-13
 -1      1541 2.20684E+01-3.24312E-02 1.40008E-02 1.51951E-01 5.02480E-14 3.42372E-13
 -1      1542 2.22140E+01-5.31979E-02 4.16197E-03 1.13141E-01 3.85421E-14 3.77549E-13
 -1      1543 2.20849E+01-6.92002E-02 1.47962E-02 1.32277E-01 4.80232E-14 2.77725E-13
 -1      1544 2.15071E+01-2.78744E-02 1.21897E-02 2.93154E-01 3.69843E-15 2.30312E-13
 -1      1545 2.18512E+01-5.61991E-02 4.41888E-03 2.50011E-01 1.63680E-14 2.42327E-13
 -1      1546 2.18273E+01-7.38301E-02 1.74400E-02 3.89345E-01 8.48419E-14 1.82384E-13
 -1      1547 2.06519E+01-1.12808E-02 4.16405E-03 3.96180E-01 3.39845E-14 1.52642E-13
 -1      1548 2.11649E+01-4.18304E-02 2.55117E-03 3.61362E-01 4.41565E-14 2.45307E-13
 -1      1549 2.13070E+01-5.58474E-02 1.53087E-02 6.22745E-01 2.24742E-14 8.89271E-14
 -1      1550 1.96702E+01 1.53948E-02-9.66306E-03 4.08196E-01-3.04561E-14 1.62349E-13
 -1      1551 2.02514E+01-7.58944E-03-2.24734E-03 3.97358E-01-1.77961E-15 1.48673E-13
 -1      1552 2.05987E+01-9.27749E-03 7.16833E-03 7.42702E-01 1.48061E-14 1.91770E-13
 -1      1553 1.88314E+01 4.24825E-02-2.43208E-02 2.96387E-01-1.59404E-14 1.98012E-13
 -1      1554 1.93213E+01 3.80888E-02-8.89251E-03 3.19896E-01-2.55056E-14 1.37945E-13
 -1      1555 1.98698E+01 5.74668E-02-4.97474E-03 6.66412E-01-3.05719E-14 1.55799E-13
 -1      1556 1.84157E+01 5.64424E-02-3.19498E-02 7.87654E-02 9.54957E-14 5.41000E-14
 -1      1557 1.86515E+01 7.62642E-02-1.40717E-02 1.32803E-01 7.83297E-14 1.35496E-13
 -1      1558 1.93431E+01 1.18191E-01-1.59799E-02 3.73559E-01 5.34572E-14 6.39506E-14
 -1      1559 1.85810E+01 4.94181E-02-2.71753E-02-1.71560E-01-4.44002E-14 5.50601E-15
 -1      1560 1.84741E+01 8.81173E-02-1.41358E-02-1.05979E-01-6.79838E-15-4.57902E-15
 -1      1561 1.92061E+01 1.41212E-01-2.06260E-02-5.69412E-02 9.59892E-14-2.34751E-14
 -1      1562 1.92771E+01 2.57100E-02-1.21109E-02-3.63015E-01-7.08305E-14 5.74020E-14
 -1      1563 1.88608E+01 6.86495E-02-8.20369E-03-3.09855E-01-2.11333E-14 4.65877E-14
 -1      1564 1.95161E+01 1.12123E-01-1.76224E-02-4.73041E-01-4.07330E-14 3.11903E-14
 -1      1565 2.02744E+01-1.99108E-03 5.16585E-03-4.37597E-01-3.22107E-14 1.18773E-13
 -1      1566 1.96852E+01 3.00070E-02 6.72457E-04-4.12198E-01-5.81648E-14 8.34124E-14
 -1      1567 2.01691E+01 4.64540E-02-1.00630E-02-7.31970E-01-7.02945E-14 1.64643E-14
 -1      1568 2.12847E+01-2.20989E-02 1.71280E-02-3.95314E-01 3.25109E-14 1.07601E-13
 -1      1569 2.06912E+01-8.69540E-03 8.02467E-03-3.98447E-01 3.18669E-14 1.67429E-13
 -1      1570 2.09591E+01-2.26686E-02-2.23054E-03-7.74355E-01 3.89532E-15 1.32748E-13
 -1      1571 2.20824E+01-3.01828E-02 2.08359E-02-2.78802E-01 3.41840E-14-1.93283E-14
 -1      1572 2.16152E+01-3.38744E-02 1.11974E-02-3.00785E-01 3.74093E-14 7.69662E-14
 -1      1573 2.16772E+01-6.84160E-02 3.08473E-03-6.35523E-01 9.14694E-14 1.61995E-13
 -1      1574 2.25616E+01-2.83388E-02 1.79647E-02-1.40768E-01-5.22598E-14-6.72934E-14
 -1      1575 2.22807E+01-4.23368E-02 1.02374E-02-1.69397E-01-1.09834E-14-1.24206E-13
 -1      1576 2.21860E+01-8.27757E-02 5.30454E-03-4.02293E-01 4.19526E-14-6.84296E-14
 -1      1577 2.27251E+01-2.13035E-02 1.21702E-02-1.97517E-02-2.59012E-14 4.12387E-15
 -1      1578 2.26270E+01-3.83957E-02 6.98123E-03-4.59924E-02-5.92738E-14-3.72358E-14
 -1      1579 2.24392E+01-7.31917E-02 5.34453E-03-1.60033E-01-7.46174E-14-1.92746E-13
 -1      1580 2.26391E+01-1.31723E-02 6.34462E-03 6.68183E-02-2.71818E-14 9.33489E-14
 -1      1581 2.26840E+01-2.84930E-02 3.41867E-03 4.72317E-02-8.89913E-15 7.47561E-14
 -1      1582 2.24606E+01-5.24378E-02 4.31828E-03 3.73877E-02-5.51755E-14-4.80150E-15
 -1      1583 2.23898E+01-6.21325E-03 1.90252E-03 1.17458E-01 3.81617E-15 1.07083E-13
 -1      1584 2.25268E+01-1.75980E-02 6.69329E-04 1.05224E-01-1.62220E-14 1.35097E-13
 -1      1585 2.23092E+01-3.05522E-02 2.99594E-03 1.70359E-01 3.51715E-15 2.09550E-13
 -1      1586 2.20558E+01-1.21545E-03-8.69705E-04 1.38789E-01 3.47593E-14-2.44197E-14
 -1      1587 2.22394E+01-8.37867E-03-9.62543E-04 1.32753E-01 1.00459E-13 9.88602E-14
 -1      1588 2.20513E+01-1.26984E-02 1.80584E-03 2.42125E-01 1.23869E-13 1.85632E-13
 -1      1589 2.16969E+01 1.88528E-03-2.26397E-03 1.39765E-01-4.20938E-14 4.53353E-14
 -1      1590 2.18932E+01-1.73082E-03-1.65016E-03 1.38179E-01-5.00587E-14-4.52902E-14
 -1      1591 2.17442E+01-3.75743E-04 8.98762E-04 2.66398E-01-5.36197E-14 2.80477E-13
 -1      1592 2.13525E+01 3.50269E-03-2.72738E-03 1.28523E-01-2.16985E-14 1.80603E-13
 -1      1593 2.15395E+01 2.45838E-03-1.72440E-03 1.29740E-01-6.50494E-14 1.09206E-13
 -1      1594 2.14300E+01 6.92385E-03 2.74577E-04 2.58905E-01-1.03544E-13 3.10469E-13
 -1      1595 2.10447E+01 4.10225E-03-2.65246E-03 1.11236E-01-3.36446E-14 1.91177E-13
 -1      1596 2.12105E+01 4.71028E-03-1.48324E-03 1.13973E-01-2.32947E-14 1.02821E-13
 -1      1597 2.11358E+01 1.04438E-02-1.20114E-04 2.33144E-01-4.08772E-14 2.81097E-13
 -1      1598 2.07831E+01 4.07441E-03-2.31666E-03 9.20526E-02-2.95563E-14 2.25939E-13
 -1      1599 2.09228E+01 5.60896E-03-1.13031E-03 9.54205E-02-2.61347E-14 1.69836E-13
 -1      1600 2.08763E+01 1.14550E-02-3.46510E-04 1.99045E-01-5.45820E-14 2.45295E-13
 -1      1601 2.05694E+01 3.70389E-03-1.89102E-03 7.34800E-02 9.92005E-14 9.42857E-14
 -1      1602 2.06826E+01 5.65155E-03-7.80133E-04 7.69192E-02 7.67409E-14 1.63597E-13
 -1      1603 2.06574E+01 1.09785E-02-4.56985E-04 1.63136E-01 5.27790E-14 2.27060E-13
 -1      1604 2.04005E+01 3.18010E-03-1.46931E-03 5.68476E-02 7.70901E-14-4.88721E-14
 -1      1605 2.04891E+01 5.20852E-03-4.84468E-04 6.00400E-02 8.31236E-14 4.97198E-14
 -1      1606 2.04791E+01 9.73641E-03-4.91504E-04 1.29270E-01 1.73072E-13 1.22361E-13
 -1      1607 2.02708E+01 2.61962E-03-1.09605E-03 4.27100E-02-1.15448E-13 5.49086E-14
 -1      1608 2.03381E+01 4.53288E-03-2.58161E-04 4.55015E-02-3.18170E-14-2.11840E-14
 -1      1609 2.03383E+01 8.19540E-03-4.78940E-04 9.94063E-02 7.62942E-15 3.38615E-14
 -1      1610 2.01740E+01 2.08832E-03-7.87181E-04 3.11507E-02 3.12929E-13-4.42313E-13
 -1      1611 2.02237E+01 3.78544E-03-9.75414E-05 3.34906E-02 1.97834E-13-1.21491E-13
 -1      1612 2.02302E+01 6.63340E-03-4.39505E-04 7.42781E-02 2.09816E-13-1.49507E-13
 -1      1613 2.01039E+01 1.61888E-03-5.43355E-04 2.19916E-02 1.88266E-13-1.04102E-12
 -1      1614 2.01394E+01 3.06078E-03 8.50821E-06 2.38900E-02 1.88452E-13-7.07534E-13
 -1      1615 2.01494E+01 5.20000E-03-3.86961E-04 5.38799E-02 3.95906E-13-4.35861E-13
 -1      1616 2.00548E+01 1.22342E-03-3.57985E-04 1.49294E-02 2.67671E-14-1.17956E-12
 -1      1617 2.00793E+01 2.40885E-03 7.26922E-05 1.64285E-02 7.45038E-14-1.07325E-12
 -1      1618 2.00907E+01 3.96288E-03-3.30360E-04 3.78053E-02 2.19158E-13-6.95785E-13
 -1      1619 2.00218E+01 9.02081E-04-2.21740E-04 9.61941E-03-6.64542E-14-9.81042E-13
 -1      1620 2.00379E+01 1.85093E-03 1.06610E-04 1.07757E-02-7.95715E-14-1.12111E-12
 -1      1621 2.00494E+01 2.94052E-03-2.75363E-04 2.54656E-02-8.79622E-14-8.15985E-13
 -1      1622 2.00008E+01 6.48544E-04-1.24933E-04 5.72452E-03-7.74638E-14-7.58805E-13
 -1      1623 2.00107E+01 1.39091E-03 1.19777E-04 6.59756E-03-9.20092E-14-8.96700E-13
 -1      1624 2.00215E+01 2.12379E-03-2.25229E-04 1.62234E-02-1.40934E-13-7.15892E-13
 -1      1625 1.99886E+01 4.53481E-04-5.86757E-05 2.94052E-03-7.07798E-14-6.75740E-13
 -1      1626 1.99940E+01 1.02275E-03 1.19496E-04 3.58651E-03 3.19126E-14-6.87948E-13
 -1      1627 2.00037E+01 1.48968E-03-1.81546E-04 9.46893E-03-1.01885E-13-3.90109E-13
 -1      1628 1.99826E+01 3.06559E-04-1.53325E-05 1.00779E-03 1.21685E-13-6.03634E-13
 -1      1629 1.99849E+01 7.35254E-04 1.11087E-04 1.47639E-03-4.85554E-14-6.31359E-13
 -1      1630 1.99932E+01 1.00953E-03-1.44756E-04 4.65993E-03 1.62185E-14-5.33556E-13
 -1      1631 1.99810E+01 1.97525E-04 1.14158E-05-2.85320E-04-9.11434E-14-8.50452E-13
 -1      1632 1.99812E+01 5.14981E-04 9.82404E-05 4.74443E-05 2.50192E-14-7.11809E-13
 -1      1633 1.99879E+01 6.53770E-04-1.14524E-04 1.33901E-03 8.59560E-14-5.09175E-13
 -1      1634 1.99823E+01 1.16604E-04 2.68374E-05-1.10337E-03-1.20602E-13-5.45160E-13
 -1      1635 1.99810E+01 3.47742E-04 8.34136E-05-8.73538E-04-4.80224E-14-6.91600E-13
 -1      1636 1.99863E+01 3.94147E-04-8.99287E-05-8.62239E-04-1.05720E-13-4.57287E-13
 -1      1637 1.99852E+01 5.42177E-05 3.59814E-05-1.56566E-03 4.30021E-14-5.46577E-13
 -1      1638 1.99832E+01 2.18899E-04 6.84034E-05-1.41499E-03-8.60388E-14-6.58808E-13
 -1      1639 1.99871E+01 2.04319E-04-6.93157E-05-2.22496E-03-5.94161E-14-5.67357E-13
 -1      1640 1.99891E+01 4.61852E-07 4.51535E-05-1.74647E-03 1.36113E-13-7.23783E-13
 -1      1641 1.99867E+01 1.12645E-04 5.53885E-05-1.66143E-03 1.95279E-13-4.61815E-13
 -1      1642 1.99893E+01 5.87945E-05-4.95927E-05-2.94510E-03 1.28673E-13-6.54108E-13
 -1      1643 1.99932E+01-5.55655E-05 6.15966E-05-1.67282E-03-6.01960E-14-6.34793E-13
 -1      1644 1.99908E+01 1.10346E-05 4.80297E-05-1.65221E-03-2.18793E-14-6.53926E-13
 -1      1645 1.99923E+01-6.96674E-05-2.57217E-05-3.13265E-03 1.25143E-14-5.19629E-13
 -1      1646 1.99968E+01-1.26919E-04 8.31728E-05-1.31849E-03-1.16108E-13-5.45933E-13
 -1      1647 1.99947E+01-1.08095E-04 4.92420E-05-1.38064E-03 8.14416E-15-6.14902E-13
 -1      1648 1.99952E+01-2.13030E-04 6.82783E-06-2.80865E-03-3.70504E-14-5.20962E-13
 -1      1649 1.99991E+01-2.31155E-04 4.90176E-05-6.59296E-04-1.68993E-14-6.54861E-13
 -1      1650 1.99978E+01-2.50734E-04 5.14869E-05-8.08920E-04-6.71470E-14-7.21311E-13
 -1      1651 1.99978E+01-4.18660E-04 4.09551E-05-1.92767E-03 7.03180E-14-5.14323E-13
 -1      1652 1.99996E+01-2.61194E-04 5.25543E-05-1.49491E-04-3.46747E-13-4.58146E-13
 -1      1653 1.99996E+01-2.48530E-03 3.34623E-05-1.15644E-03-5.38568E-13-4.56731E-14
 -1      1654 1.99995E+01-1.25525E-03 1.65233E-05-9.78628E-04-5.81776E-13-5.68984E-14
 -1      1655 1.99998E+01-5.48301E-03 9.27251E-07-1.56236E-03-5.02154E-13-1.50390E-13
 -1      1656 1.99997E+01-3.63189E-03 1.95426E-05-1.51658E-03-3.65773E-13-1.04184E-13
 -1      1657 1.99994E+01-2.89980E-03 3.27456E-05-2.54086E-03-2.39812E-13-2.83142E-14
 -1      1658 1.99999E+01-8.73972E-03-1.45885E-05-1.60417E-03-7.85588E-13 3.49682E-14
 -1      1659 1.99998E+01-6.76942E-03 2.21507E-06-1.62504E-03-5.62987E-13-1.99135E-14
 -1      1660 1.99997E+01-5.28637E-03 3.57428E-06-3.03392E-03-2.56774E-13-7.77153E-14
 -1      1661 1.99999E+01-1.17523E-02-1.70839E-05-1.41351E-03-6.17200E-13 4.68398E-14
 -1      1662 1.99999E+01-9.98051E-03-5.54902E-06-1.46926E-03-7.48929E-13 6.75992E-14
 -1      1663 1.99999E+01-7.75091E-03-1.94921E-05-2.93450E-03-3.48265E-13 1.26931E-13
 -1      1664 1.99999E+01-1.41722E-02-1.40571E-05-1.10583E-03-9.41263E-13 1.28523E-14
 -1      1665 1.99999E+01-1.27859E-02-5.20402E-06-1.17408E-03-8.95019E-13-8.43726E-15
 -1      1666 2.00000E+01-9.95929E-03-3.20020E-05-2.47681E-03-5.41936E-13-1.60303E-13
 -1      1667 1.99999E+01-1.59301E-02-9.56443E-06-7.42189E-04-7.68022E-13 1.95390E-13
 -1      1668 1.99999E+01-1.49631E-02-3.99839E-06-8.15685E-04-9.55051E-13 8.78864E-14
 -1      1669 2.00000E+01-1.17219E-02-3.53403E-05-1.84276E-03-5.92584E-13 1.02851E-13
 -1      1670 1.99999E+01-1.69148E-02-5.64461E-06-3.63459E-04-8.06977E-13-2.50218E-13
 -1      1671 1.99999E+01-1.64176E-02-2.77029E-06-4.36770E-04-7.18552E-13 4.13861E-14
 -1      1672 2.00000E+01-1.29509E-02-3.58194E-05-1.13234E-03-6.56567E-13 1.46799E-13
 -1      1673 1.99999E+01-1.71089E-02-3.39003E-06 1.93922E-05-4.96844E-13 2.26594E-13
 -1      1674 1.99999E+01-1.70888E-02-3.34126E-06-5.40649E-05-6.69073E-13-1.51225E-14
 -1      1675 2.00000E+01-1.35872E-02-3.55127E-05-4.01341E-04-4.11234E-13-8.76641E-14
 -1      1676 1.99999E+01-1.65022E-02-2.98859E-06 4.07554E-04-2.93834E-13-1.69447E-14
 -1      1677 1.99999E+01-1.69647E-02-5.87155E-06 3.32432E-04-4.41792E-13 2.51598E-13
 -1      1678 2.00000E+01-1.36174E-02-3.60051E-05 3.38052E-04-3.23486E-13 2.84421E-13
 -1      1679 1.99999E+01-1.50906E-02-4.27890E-06 7.99708E-04-7.83319E-13-5.62990E-13
 -1      1680 1.99999E+01-1.60374E-02-1.02615E-05 7.23084E-04-1.98069E-13-4.72625E-13
 -1      1681 2.00001E+01-1.30342E-02-3.71315E-05 1.08577E-03-5.18135E-13-2.50997E-13
 -1      1682 1.99999E+01-1.29427E-02-6.33277E-06 1.17089E-03-6.71974E-13 1.86621E-13
 -1      1683 1.99999E+01-1.43270E-02-1.50419E-05 1.09972E-03-5.84284E-13-1.92094E-13
 -1      1684 2.00000E+01-1.18512E-02-3.73817E-05 1.81954E-03-2.57289E-13-4.17323E-13
 -1      1685 1.99999E+01-1.00937E-02-5.93667E-06 1.48641E-03-6.89424E-13-3.64231E-15
 -1      1686 1.99999E+01-1.18863E-02-1.81863E-05 1.42747E-03-7.21616E-13 3.02631E-13
 -1      1687 2.00000E+01-1.00966E-02-3.34633E-05 2.48673E-03-8.74226E-14 2.37741E-13
 -1      1688 1.99998E+01-6.84314E-03-4.28654E-07 1.65899E-03-4.80921E-13 6.94426E-14
 -1      1689 1.99999E+01-8.83886E-03-1.51497E-05 1.63132E-03-6.02632E-13 3.99737E-14
 -1      1690 1.99999E+01-7.85341E-03-2.09902E-05 2.97496E-03-7.10670E-14 9.74230E-14
 -1      1691 1.99997E+01-3.71026E-03 1.72358E-06 1.53170E-03-2.36733E-13 2.68816E-13
 -1      1692 1.99998E+01-5.54020E-03-2.14018E-06 1.57623E-03-4.23671E-13 2.71672E-13
 -1      1693 1.99997E+01-5.33739E-03 1.36976E-06 3.08469E-03-1.49583E-13 3.06900E-13
 -1      1694 1.99994E+01-1.50982E-03-1.39752E-05 1.36353E-03-1.88677E-13-1.68420E-13
 -1      1695 1.99995E+01-2.73573E-03-2.96788E-06 1.63408E-03-8.28693E-14-5.30878E-14
 -1      1696 1.99994E+01-3.01631E-03 6.65349E-05 2.94530E-03-2.31781E-13 3.62004E-13
 -1      1697 1.99985E+01-1.34251E-03 2.77322E-05 2.56033E-03-2.07938E-13-1.43682E-13
 -1      1698-6.10844E-01-1.47541E+01-1.70049E+00-9.28111E-01 7.83873E-13 4.46532E-13
 -1      1699-6.13788E-01-1.70095E+01-1.90200E+00 4.00129E-01 2.36672E-13 3.92797E-13
 -1      1700 1.36025E+00-8.03471E+00-1.18146E+00 6.03671E-01 1.39477E-12 8.67084E-13
 -1      1701 6.26024E-01-1.30779E+01-1.69786E+00 6.12330E-03 1.07081E-12 5.18939E-13
 -1      1702 7.24071E+00-5.92974E-01-4.95082E-01 4.76239E+00 1.91136E-12 1.72262E-12
 -1      1703 4.18285E+00-6.04331E+00-1.22695E+00 1.97286E+00 1.54698E-12 1.15091E-12
 -1      1704 1.69730E+01 5.13331E+00 2.17022E-01 9.67244E+00 2.02560E-12 2.28750E-12
 -1      1705 1.05915E+01 1.69684E+00-6.52094E-01 5.96304E+00 2.00417E-12 1.87328E-12
 -1      1706 3.15982E+01 6.00942E+00 8.74530E-01 1.21090E+01 1.49292E-12 2.06934E-12
 -1      1707 2.24857E+01 5.72233E+00 8.38207E-02 1.01672E+01 1.90736E-12 2.16938E-12
 -1      1708 4.49502E+01 4.88512E+00 1.40568E+00 9.43713E+00 9.21388E-13 1.46327E-12
 -1      1709 3.64886E+01 6.25763E+00 7.77454E-01 1.09358E+01 1.27204E-12 1.90958E-12
 -1      1710 5.40230E+01 3.62287E+00 1.84895E+00 4.05471E+00 5.43066E-13 6.59972E-13
 -1      1711 4.92549E+01 4.90515E+00 1.49426E+00 8.69420E+00 7.64139E-13 1.34670E-12
 -1      1712 5.33267E+01 3.93221E+00 1.66148E+00-4.32693E+00 3.89744E-13-1.46216E-13
 -1      1713 5.45754E+01 3.59613E+00 1.78335E+00 1.36377E+00 4.02678E-13 4.44006E-13
 -1      1714 4.35254E+01 5.86049E+00 1.15334E+00-1.01863E+01 6.83439E-13-8.95062E-13
 -1      1715 5.06044E+01 4.17001E+00 1.61672E+00-6.45510E+00 4.50195E-13-3.60934E-13
 -1      1716 3.05890E+01 6.80561E+00 5.79211E-01-1.18683E+01 1.15546E-12-1.47482E-12
 -1      1717 3.94630E+01 5.82056E+00 1.25337E+00-1.19240E+01 7.99361E-13-1.16085E-12
 -1      1718 1.81502E+01 4.80485E+00-1.04502E-01-9.05532E+00 1.58673E-12-1.52023E-12
 -1      1719 2.58038E+01 6.23870E+00 7.01288E-01-1.17669E+01 1.33604E-12-1.50324E-12
 -1      1720 8.74270E+00-1.73265E+00-8.15795E-01-4.39688E+00 1.44063E-12-1.19593E-12
 -1      1721 1.41469E+01 2.63246E+00-1.34580E-02-8.03766E+00 1.46994E-12-1.45728E-12
 -1      1722 1.90489E+00-9.38341E+00-1.56906E+00-4.45363E-01 1.16240E-12-7.57006E-13
 -1      1723 3.85500E+00-3.41987E+00-8.65999E-01-2.57739E+00 1.54809E-12-1.18461E-12
 -1      1724-7.59172E-02-1.54906E+01-1.83575E+00 1.41241E-01 4.97491E-13-3.43253E-13
 -1      1725 1.35747E-01-1.13933E+01-1.46937E+00 5.51379E-01 9.64340E-13-5.38347E-13
 -1      1726-7.28035E-01-1.64177E+01-1.76341E+00-8.64901E-01-4.85820E-13-4.68903E-13
 -1      1727-7.07947E-01-1.58786E+01-1.72032E+00 6.29969E-01 2.21156E-13-4.31100E-13
 -1      1728-2.62557E-01-1.28875E+01-1.55820E+00-9.65489E-01-1.41409E-12-7.07073E-13
 -1      1729-3.22288E-01-1.61906E+01-1.83191E+00-1.68117E-01-7.84262E-13-5.55805E-13
 -1      1730 2.82403E+00-5.70872E+00-1.05598E+00 1.46712E+00-1.93401E-12-1.30213E-12
 -1      1731 1.43476E+00-1.12788E+01-1.63955E+00 6.75548E-03-1.58384E-12-8.45324E-13
 -1      1732 9.79853E+00 1.42845E+00-3.76106E-01 6.05181E+00-2.17804E-12-1.95310E-12
 -1      1733 5.70688E+00-3.53024E+00-1.17183E+00 2.70759E+00-2.06524E-12-1.53888E-12
 -1      1734 2.15952E+01 5.59251E+00 4.28047E-01 1.08270E+01-1.89659E-12-2.36100E-12
 -1      1735 1.42542E+01 3.06161E+00-4.70378E-01 7.37515E+00-2.15228E-12-2.09743E-12
 -1      1736 3.67266E+01 6.18070E+00 1.24303E+00 1.26858E+01-1.43885E-12-2.25353E-12
 -1      1737 2.70197E+01 6.43734E+00 3.63463E-01 1.13918E+01-1.77414E-12-2.39142E-12
 -1      1738 5.01543E+01 4.50749E+00 1.80351E+00 9.21976E+00-7.93806E-13-1.52145E-12
 -1      1739 4.18437E+01 6.26192E+00 1.20107E+00 1.17998E+01-1.26635E-12-2.01217E-12
 -1      1740 5.57901E+01 3.64966E+00 1.93175E+00 1.37682E+00-4.94993E-13-4.35540E-13
 -1      1741 5.25313E+01 4.55774E+00 1.72426E+00 6.66505E+00-6.44707E-13-1.07292E-12
 -1      1742 5.39540E+01 4.17850E+00 1.82445E+00-6.16678E+00-5.39874E-13 5.83811E-13
 -1      1743 5.66280E+01 3.45257E+00 2.00880E+00-1.07596E+00-4.48364E-13-7.25670E-14
 -1      1744 4.37366E+01 5.76807E+00 1.23901E+00-1.08251E+01-1.03639E-12 1.44984E-12
 -1      1745 5.11516E+01 4.27382E+00 1.81385E+00-8.00837E+00-6.62644E-13 8.63754E-13
 -1      1746 3.02358E+01 6.50295E+00 5.23201E-01-1.17231E+01-1.60982E-12 2.10232E-12
 -1      1747 3.93820E+01 5.86534E+00 1.34031E+00-1.22141E+01-1.18827E-12 1.75460E-12
 -1      1748 1.78874E+01 3.96580E+00-2.39162E-01-8.51132E+00-1.96809E-12 2.08344E-12
 -1      1749 2.54489E+01 5.60837E+00 5.98580E-01-1.13169E+01-1.72651E-12 2.06546E-12
 -1      1750 8.26433E+00-8.94296E-01-9.36135E-01-4.26155E+00-2.33302E-12 1.75993E-12
 -1      1751 1.31306E+01 2.95890E+00-1.58928E-01-7.58436E+00-2.15605E-12 2.05647E-12
 -1      1752 2.64419E+00-8.04568E+00-1.49782E+00-6.35493E-01-1.85463E-12 1.26055E-12
 -1      1753 4.88117E+00-2.76660E+00-8.47054E-01-2.90417E+00-2.25020E-12 1.77347E-12
 -1      1754 1.94083E-01-1.42951E+01-1.80974E+00 5.90155E-01-9.65450E-13 7.23789E-13
 -1      1755 6.19339E-01-9.90993E+00-1.39473E+00 4.25608E-01-1.62981E-12 1.16689E-12
 -1      1756-6.20416E-01-1.67693E+01-1.84136E+00-8.61440E-02-2.74919E-14 4.86500E-13
 -1      1757-6.51407E-01-1.51606E+01-1.70549E+00 1.16018E+00-7.27751E-13 5.79592E-13
 -1      1758 2.43246E+01 1.07011E+00 3.10853E-01 7.44698E+00 1.25433E-12 1.40421E-12
 -1      1759 1.40449E+01-3.09473E+00-3.55054E-01 6.51473E+00 1.12010E-12 1.41531E-12
 -1      1760 1.99994E+01-5.75392E-04 6.86283E-05-6.77316E-04-4.79132E-13-3.36594E-13
 -1      1761 1.99990E+01-1.16730E-03 3.69688E-05-1.68957E-03-2.33117E-13-1.23150E-13
 -1      1762 5.31289E-01-1.03394E+01-1.19594E+00 2.53158E+00 4.35929E-13 6.86617E-13
 -1      1763 6.12669E+00-7.05759E+00-7.82104E-01 4.85742E+00 9.48575E-13 1.14984E-12
 -1      1764-1.41794E+00-1.16182E+01-1.34553E+00 2.44377E-01-9.31893E-15 8.25340E-13
 -1      1765 3.44177E+01 3.92591E+00 7.88150E-01 5.95378E+00 1.14959E-12 1.15363E-12
 -1      1766 4.21192E+01 6.29146E+00 1.16749E+00 3.86845E+00 1.00958E-12 8.80629E-13
 -1      1767 4.69607E+01 7.35809E+00 1.55168E+00 1.27241E+00 7.99250E-13 4.96853E-13
 -1      1768 4.48524E+01 7.12180E+00 1.30694E+00-2.19847E+00 6.54199E-13 8.85958E-14
 -1      1769 3.91785E+01 5.58036E+00 1.04572E+00-5.41733E+00 7.26398E-13-3.34732E-13
 -1      1770 3.05715E+01 2.98621E+00 6.00702E-01-7.28113E+00 8.59646E-13-6.13953E-13
 -1      1771 2.10191E+01-1.23779E+00-2.68092E-02-7.03404E+00 7.38853E-13-7.26641E-13
 -1      1772 1.14273E+01-4.78054E+00-3.87308E-01-6.14210E+00 6.74349E-13-9.20458E-13
 -1      1773 3.07506E+00-8.82613E+00-1.06303E+00-3.53075E+00 4.90941E-13-7.84456E-13
 -1      1774-6.84321E-01-1.09829E+01-1.26062E+00-1.49008E+00 5.02376E-14-7.14429E-13
 -1      1775-1.01515E+00-1.11024E+01-1.24570E+00 6.84302E-01-4.08423E-13-9.00946E-13
 -1      1776 2.10941E+00-9.55359E+00-1.11122E+00 2.99687E+00-8.63976E-13-9.14852E-13
 -1      1777 8.45082E+00-6.18114E+00-7.60353E-01 4.99598E+00-1.15730E-12-1.22335E-12
 -1      1778 1.73784E+01-1.95925E+00-2.12132E-01 6.71232E+00-1.32616E-12-1.45395E-12
 -1      1779 2.79948E+01 1.82965E+00 4.25784E-01 7.45523E+00-1.29274E-12-1.54543E-12
 -1      1780 3.84531E+01 4.80834E+00 1.07455E+00 6.53720E+00-1.23661E-12-1.29163E-12
 -1      1781 4.54696E+01 6.75815E+00 1.46368E+00 3.61405E+00-9.78440E-13-7.15872E-13
 -1      1782 4.80671E+01 7.55663E+00 1.63037E+00 4.27966E-02-8.76244E-13-1.45231E-13
 -1      1783 4.63594E+01 6.82006E+00 1.54890E+00-3.03766E+00-9.66283E-13 3.25961E-13
 -1      1784 3.98853E+01 5.11923E+00 1.15487E+00-5.71338E+00-1.11290E-12 7.53397E-13
 -1      1785 3.07054E+01 2.25350E+00 5.52542E-01-6.95630E+00-1.13476E-12 1.07769E-12
 -1      1786 2.08010E+01-9.66418E-01 6.60095E-03-6.91438E+00-1.22991E-12 1.18650E-12
 -1      1787 1.14105E+01-4.57027E+00-5.79526E-01-5.58811E+00-1.14997E-12 1.13853E-12
 -1      1788 4.31366E+00-8.28969E+00-1.02546E+00-3.69653E+00-9.03388E-13 1.20962E-12
 -1      1789-3.98861E-02-1.07747E+01-1.27688E+00-1.65253E+00-4.56357E-13 1.00142E-12
 -1      1790 2.29937E+01 1.95962E+00-2.60497E-02-2.55698E+00-1.65319E-13 7.98667E-13
 -1      1791 1.99907E+01 3.76694E+00-3.63904E-02-1.82991E+00-2.18809E-13-1.73483E-13
 -1      1792 2.02737E+01 3.59498E+00-3.96052E-02-2.12030E+00-2.55490E-13-9.23983E-14
 -1      1793 2.06223E+01 3.18415E+00-4.55141E-02-2.28620E+00-2.51977E-13 1.11855E-14
 -1      1794 2.08640E+01 2.79639E+00-1.36622E-01-2.57141E+00-2.68431E-13 1.48298E-13
 -1      1795 2.06853E+01 2.72346E+00-8.67242E-04-1.89050E+00-2.54795E-13-3.43128E-14
 -1      1796 1.92574E+01 4.33024E+00-2.08878E-02-9.99968E-01-1.14984E-13-3.36614E-13
 -1      1797 1.93985E+01 4.28205E+00-1.45385E-02-1.20008E+00-1.38534E-13-3.13916E-13
 -1      1798 1.90427E+01 4.46899E+00-1.66535E-02-6.61137E-01-6.09280E-14-3.60425E-13
 -1      1799 1.91414E+01 4.43976E+00-1.17941E-02-8.35592E-01-8.75875E-14-3.54411E-13
 -1      1800 1.93708E+01 3.99396E+00-7.15870E-03-8.51581E-01-1.17076E-13-3.29388E-13
 -1      1801 1.89116E+01 4.54895E+00-1.37403E-02-3.59493E-01-9.26158E-15-3.52312E-13
 -1      1802 1.89681E+01 4.53398E+00-1.10131E-02-5.15803E-01-2.94099E-14-3.58494E-13
 -1      1803 1.91558E+01 4.15368E+00-6.67730E-03-5.49266E-01-4.61528E-14-3.40339E-13
 -1      1804 1.88620E+01 4.57955E+00-1.18109E-02-7.65260E-02 5.08076E-14-3.49875E-13
 -1      1805 1.88772E+01 4.57629E+00-1.13460E-02-2.25051E-01 2.20652E-14-3.55053E-13
 -1      1806 1.90332E+01 4.23781E+00-6.46687E-03-2.75252E-01 1.21073E-14-3.38221E-13
 -1      1807 1.88918E+01 4.56535E+00-1.07534E-02 2.06636E-01 9.19579E-14-3.31280E-13
 -1      1808 1.88668E+01 4.57282E+00-1.24623E-02 5.61021E-02 6.87094E-14-3.39399E-13
 -1      1809 1.90007E+01 4.25624E+00-6.54056E-03-1.30216E-02 5.90773E-14-3.34180E-13
 -1      1810 1.89978E+01 4.50715E+00-1.06633E-02 5.07986E-01 1.31392E-13-2.99616E-13
 -1      1811 1.89344E+01 4.52586E+00-1.42832E-02 3.46142E-01 1.13104E-13-3.21708E-13
 -1      1812 1.90556E+01 4.21352E+00-6.89381E-03 2.54560E-01 1.05295E-13-3.13271E-13
 -1      1813 1.91739E+01 4.40383E+00-1.17551E-02 8.38166E-01 1.90962E-13-2.47871E-13
 -1      1814 1.90750E+01 4.43477E+00-1.70081E-02 6.59354E-01 1.55944E-13-2.74867E-13
 -1      1815 1.91929E+01 4.11076E+00-7.32219E-03 5.40481E-01 1.48251E-13-2.69344E-13
 -1      1816 1.94298E+01 4.23945E+00-1.49262E-02 1.22361E+00 2.50269E-13-1.90374E-13
 -1      1817 1.92889E+01 4.29028E+00-2.11562E-02 1.01217E+00 2.19194E-13-2.23200E-13
 -1      1818 1.94112E+01 3.94046E+00-7.91863E-03 8.59451E-01 2.22755E-13-2.13997E-13
 -1      1819 1.97828E+01 3.98152E+00-2.29147E-02 1.67130E+00 2.93372E-13-8.91370E-14
 -1      1820 1.95885E+01 4.06839E+00-2.79556E-02 1.41949E+00 2.69884E-13-1.53263E-13
 -1      1821 1.97208E+01 3.68030E+00-7.88991E-03 1.22019E+00 2.76913E-13-1.46170E-13
 -1      1822 2.02903E+01 3.54072E+00-4.26378E-02 2.17477E+00 3.14070E-13 9.21381E-14
 -1      1823 2.00054E+01 3.71366E+00-4.04137E-02 1.87828E+00 2.95937E-13-1.41484E-14
 -1      1824 2.01473E+01 3.28335E+00-4.90441E-03 1.60947E+00 3.10274E-13-3.17732E-14
 -1      1825 2.11727E+01 2.66651E+00-5.48930E-02 2.60153E+00 2.94408E-13 3.98126E-13
 -1      1826 2.06575E+01 3.09302E+00-4.99983E-02 2.33910E+00 3.03235E-13 2.18763E-13
 -1      1827 2.07562E+01 2.62418E+00 3.30055E-03 1.94239E+00 3.18331E-13 1.59591E-13
 -1      1828 2.19614E+01 1.19650E+00-1.19624E-01 2.13233E+00 2.36228E-13 7.69718E-13
 -1      1829 2.15242E+01 2.24074E+00-2.73484E-04 2.50968E+00 2.66674E-13 5.23942E-13
 -1      1830 2.12274E+01 1.67804E+00-2.01834E-02 1.88186E+00 2.99344E-13 3.90517E-13
 -1      1831 2.12560E+01 7.70548E-01-5.87633E-02 1.32942E+00 2.42473E-13 6.90958E-13
 -1      1832 2.20330E+01 2.42598E+00 8.82221E-02-2.81713E+00-2.28808E-13 3.82305E-13
 -1      1833 2.05515E+01 3.05194E-01-6.34351E-03 4.57891E-01 1.95760E-13 5.69971E-13
 -1      1834 2.10157E+01 4.42163E-01-1.09267E-02 8.38779E-01 2.10283E-13 6.38694E-13
 -1      1835 2.10945E+01 8.41512E-01 7.63765E-04 1.17826E+00 2.49179E-13 4.63190E-13
 -1      1836 2.17805E+01 1.73246E+00 7.83008E-02-2.07960E+00-2.42792E-13 2.87381E-13
 -1      1837 2.09590E+01 5.22893E-01 3.33487E-02-6.50217E-01-1.85539E-13 2.66478E-13
 -1      1838 2.06347E+01 3.88220E-01 1.24274E-02-3.41831E-01-1.59052E-13 2.25723E-13
 -1      1839 2.05142E+01 3.03836E-01 2.80542E-02-6.90712E-02-1.47257E-13 2.20858E-13
 -1      1840 2.04517E+01 2.37223E-01 1.54036E-02 9.97573E-02-1.31918E-13 1.65350E-13
 -1      1841 2.07105E+01 5.44618E-01-8.16984E-03-3.34436E-01-1.83974E-13 1.23229E-13
 -1      1842 2.04242E+01 2.01216E-01 1.74845E-02 2.81870E-01-9.53239E-14 1.56231E-13
 -1      1843 2.05055E+01 1.73406E-01 1.27522E-02 3.96377E-01-6.71399E-14 1.22960E-13
 -1      1844 2.05582E+01 3.39206E-01-7.97941E-03 1.84823E-01-1.39723E-13 8.31848E-14
 -1      1845 2.05580E+01 1.57016E-01 9.84761E-03 5.32744E-01-6.29631E-14 1.00025E-13
 -1      1846 2.07414E+01 1.45686E-01 1.06553E-02 6.23821E-01-6.30624E-14 9.94031E-14
 -1      1847 2.05908E+01 2.51536E-01-7.08488E-03 5.46049E-01-9.63574E-14 5.23867E-14
 -1      1848 2.08588E+01 1.37436E-01 5.53266E-03 7.37482E-01-5.81956E-14 9.34684E-14
 -1      1849 2.11210E+01 1.31863E-01 9.21677E-03 8.17434E-01-3.58316E-14 8.37919E-14
 -1      1850 2.07687E+01 2.13086E-01-6.20547E-03 8.28846E-01-6.62905E-14 1.69523E-14
 -1      1851 2.12924E+01 1.24387E-01 3.06410E-03 9.17428E-01-3.54051E-14 6.94945E-14
 -1      1852 2.16182E+01 1.16031E-01 7.33422E-03 9.87813E-01-3.37968E-14 6.68719E-14
 -1      1853 2.10649E+01 1.90804E-01-5.44115E-03 1.06972E+00-5.68391E-14 1.18219E-14
 -1      1854 2.18370E+01 1.01848E-01 1.50137E-03 1.07172E+00-4.77012E-14 7.65033E-14
 -1      1855 2.22100E+01 8.05730E-02 3.85280E-03 1.12405E+00-4.21017E-14 8.06000E-14
 -1      1856 2.14612E+01 1.59461E-01-5.04297E-03 1.27688E+00-2.59085E-14 2.90962E-14
 -1      1857 2.24732E+01 4.99445E-02 5.46298E-04 1.17673E+00-6.90092E-14 9.39552E-14
 -1      1858 2.28680E+01 2.53731E-03-2.31263E-03 1.19022E+00-3.53312E-14 7.64762E-14
 -1      1859 2.19462E+01 9.02502E-02-5.17990E-03 1.43238E+00-4.46590E-14 3.93956E-14
 -1      1860 2.31750E+01-5.65653E-02 3.43407E-04 1.18071E+00-1.65410E-14 5.70394E-14
 -1      1861 2.35488E+01-1.44262E-01-1.17843E-02 1.12043E+00-8.91951E-15 1.77653E-14
 -1      1862 2.25129E+01-5.29244E-02-5.90406E-03 1.48785E+00-4.07953E-14 5.15516E-15
 -1      1863 2.38982E+01-2.41590E-01 1.08798E-03 1.00081E+00 2.02754E-14 2.09372E-14
 -1      1864 2.41858E+01-3.74293E-01-2.36263E-02 8.22278E-01 4.87952E-14 3.21570E-14
 -1      1865 2.31554E+01-3.05944E-01-6.87032E-03 1.35997E+00 1.42330E-14 3.91792E-14
 -1      1866 2.45639E+01-5.03062E-01 2.07856E-03 5.37466E-01 8.51558E-14 5.32959E-14
 -1      1867 2.46822E+01-6.52198E-01-3.35913E-02 2.08478E-01 8.26162E-14 9.99001E-14
 -1      1868 2.38579E+01-6.73384E-01-6.65341E-03 9.38061E-01 7.70087E-14 9.71835E-14
 -1      1869 2.50375E+01-7.63018E-01 1.74235E-04-2.66570E-01 1.51365E-13 1.20819E-13
 -1      1870 2.49107E+01-8.36330E-01-3.30931E-02-7.16474E-01 1.16060E-13 2.09881E-13
 -1      1871 2.45648E+01-1.06247E+00-2.46007E-03 1.29194E-01 1.32401E-13 8.97966E-14
 -1      1872 2.51273E+01-8.16596E-01-9.54230E-03-1.29868E+00 1.89883E-14 2.51210E-13
 -1      1873 2.47411E+01-6.67972E-01-1.48080E-02-1.71397E+00-1.33539E-14 2.75809E-13
 -1      1874 2.51320E+01-1.21181E+00 6.94330E-03-1.02522E+00 7.07524E-14 2.25390E-13
 -1      1875 2.46704E+01-3.93098E-01-3.05454E-02-2.12508E+00-5.68122E-14 2.64750E-13
 -1      1876 2.41378E+01 4.06968E-02 1.09322E-02-2.22434E+00-1.43583E-13 2.34306E-13
 -1      1877 2.53151E+01-7.36502E-01 1.28753E-02-2.16504E+00-6.64152E-14 2.30836E-13
 -1      1878 2.37993E+01 5.21329E-01-4.38085E-02-2.07384E+00-2.60195E-13 1.51795E-13
 -1      1879 2.33607E+01 1.01446E+00 1.68482E-02-1.64414E+00-3.24997E-13 5.23557E-14
 -1      1880 2.49562E+01 4.46572E-01-1.24863E-02-2.53379E+00-2.49360E-13 1.72297E-13
 -1      1881 2.30786E+01 1.35983E+00-2.88273E-02-8.24579E-01-3.18752E-13-7.20292E-14
 -1      1882 2.29864E+01 1.49245E+00-1.07705E-02-2.08870E-02-2.99066E-13-1.59543E-13
 -1      1883 2.43657E+01 1.73401E+00-5.18762E-02-1.49115E+00-4.13378E-13 8.16664E-15
 -1      1884 2.30991E+01 1.36508E+00 3.74409E-03 9.80312E-01-2.45338E-13-2.73663E-13
 -1      1885 2.34154E+01 1.00698E+00-4.08375E-02 1.64853E+00-2.56229E-13-2.89943E-13
 -1      1886 2.42067E+01 2.07194E+00-6.53744E-02 5.81749E-01-3.54689E-13-2.08456E-13
 -1      1887 2.37988E+01 5.38158E-01 1.81415E-02 2.15567E+00-2.51063E-13-3.13714E-13
 -1      1888 2.43437E+01 2.95879E-02-3.83956E-02 2.31367E+00-1.20179E-13-3.14446E-13
 -1      1889 2.46924E+01 1.14968E+00-3.27475E-02 2.28230E+00-2.90268E-13-2.33675E-13
 -1      1890 2.45881E+01-3.72795E-01-6.03214E-04 2.14533E+00-1.56384E-14-3.49470E-13
 -1      1891 2.50972E+01-6.70882E-01-1.84657E-02 1.85277E+00 9.64784E-14-4.21817E-13
 -1      1892 2.52732E+01-2.09665E-01 3.73843E-03 2.58605E+00-9.61176E-14-2.85068E-13
 -1      1893 2.50294E+01-8.07783E-01-2.59332E-02 1.31282E+00 2.18462E-13-4.44375E-13
 -1      1894 2.53201E+01-8.26776E-01-2.49124E-03 8.54829E-01 2.39319E-13-3.90840E-13
 -1      1895 2.54021E+01-1.06265E+00 1.21279E-02 1.73425E+00 1.36788E-13-2.52750E-13
 -1      1896 2.50349E+01-7.63161E-01-3.52223E-02 3.09555E-01 2.26701E-13-3.26776E-13
 -1      1897 2.50643E+01-6.34536E-01 2.65081E-03-8.56415E-02 2.02751E-13-2.01417E-13
 -1      1898 2.50340E+01-1.17993E+00 2.25788E-03 5.23915E-01 3.24354E-13-2.09583E-13
 -1      1899 2.47078E+01-5.03855E-01-2.94627E-02-4.60967E-01 1.14112E-13-2.45568E-13
 -1      1900 2.45295E+01-3.54809E-01 2.34415E-03-7.07415E-01 1.21308E-13-1.57529E-13
 -1      1901 2.44118E+01-8.64307E-01-5.34555E-03-4.66852E-01 1.63850E-13-2.28441E-13
 -1      1902 2.41842E+01-2.38591E-01-1.78478E-02-8.96280E-01 1.51811E-13-1.31548E-13
 -1      1903 2.38830E+01-1.27297E-01 1.15054E-03-1.00390E+00 7.67125E-14-1.33428E-13
 -1      1904 2.37387E+01-4.62203E-01-7.18891E-03-1.06097E+00 1.97406E-13-2.17344E-13
 -1      1905 2.35765E+01-5.03775E-02-7.01160E-03-1.05503E+00-5.71778E-14-1.74874E-13
 -1      1906 2.32274E+01 1.46663E-02 6.57595E-04-1.06769E+00-1.29713E-13-2.25736E-13
 -1      1907 2.31078E+01-1.48094E-01-6.28468E-03-1.30679E+00-2.90360E-14-4.17080E-13
 -1      1908 2.29629E+01 5.60059E-02 5.49356E-04-1.03710E+00-1.85733E-13-2.68195E-13
 -1      1909 2.26174E+01 8.58635E-02 7.87030E-04-9.97574E-01-2.63792E-13-3.35478E-13
 -1      1910 2.25465E+01 4.30083E-02-4.93729E-03-1.31950E+00-1.79302E-13-4.24348E-13
 -1      1911 2.23917E+01 1.03128E-01 4.79673E-03-9.27693E-01-2.03452E-13-2.15371E-13
 -1      1912 2.20787E+01 1.11407E-01 1.13341E-03-8.66127E-01-2.41077E-14-2.37118E-13
 -1      1913 2.20580E+01 1.36006E-01-3.95644E-03-1.20403E+00-1.26898E-13-1.88306E-13
 -1      1914 2.18881E+01 1.14872E-01 6.59454E-03-7.83548E-01 1.21570E-13-2.45228E-13
 -1      1915 2.16200E+01 1.11860E-01 1.42304E-03-7.17713E-01 1.69990E-13-2.28763E-13
 -1      1916 2.16393E+01 1.66847E-01-3.34965E-03-1.03361E+00 6.01294E-14-1.66013E-13
 -1      1917 2.14612E+01 1.08479E-01 6.87320E-03-6.36974E-01 1.12363E-13-2.79583E-13
 -1      1918 2.12404E+01 1.00575E-01 1.56124E-03-5.75840E-01-4.71578E-14-2.08972E-13
 -1      1919 2.12862E+01 1.64054E-01-2.94976E-03-8.52026E-01 1.15195E-13-2.59198E-13
 -1      1920 2.11101E+01 9.44247E-02 6.34626E-03-5.03752E-01-1.44573E-13-1.47444E-13
 -1      1921 2.09333E+01 8.51487E-02 1.55604E-03-4.50980E-01-3.54126E-14-1.48514E-13
 -1      1922 2.09935E+01 1.45898E-01-2.62813E-03-6.82185E-01 3.44668E-15-2.48650E-13
 -1      1923 2.08281E+01 7.83814E-02 5.47617E-03-3.89907E-01 6.60149E-15-1.74849E-13
 -1      1924 2.06898E+01 6.94566E-02 1.45091E-03-3.46302E-01-5.45790E-14-1.74264E-13
 -1      1925 2.07551E+01 1.22671E-01-2.32299E-03-5.34023E-01-4.05442E-14-1.59505E-13
 -1      1926 2.06063E+01 6.30924E-02 4.52775E-03-2.96289E-01-1.44404E-13-6.18322E-15
 -1      1927 2.05001E+01 5.52385E-02 1.29027E-03-2.61286E-01-3.62958E-14 3.87752E-14
 -1      1928 2.05641E+01 9.95658E-02-2.01784E-03-4.10203E-01 3.90012E-14-8.59170E-14
 -1      1929 2.04348E+01 4.96835E-02 3.63510E-03-2.21304E-01-1.53192E-13 2.35466E-15
 -1      1930 2.03547E+01 4.31029E-02 1.10794E-03-1.93792E-01-1.52116E-13-6.67284E-14
 -1      1931 2.04138E+01 7.88646E-02-1.71741E-03-3.09693E-01-8.31797E-14 1.77861E-13
 -1      1932 2.03045E+01 3.84547E-02 2.85501E-03-1.62421E-01-1.32913E-13-1.08839E-13
 -1      1933 2.02452E+01 3.31067E-02 9.26038E-04-1.41158E-01 2.23302E-15-1.99231E-13
 -1      1934 2.02973E+01 6.13175E-02-1.43227E-03-2.29846E-01-1.82006E-13 3.63258E-14
 -1      1935 2.02073E+01 2.93208E-02 2.20253E-03-1.16929E-01 4.27340E-14-2.33511E-13
 -1      1936 2.01641E+01 2.50655E-02 7.57347E-04-1.00738E-01 2.65944E-14-1.92329E-13
 -1      1937 2.02086E+01 4.69357E-02-1.17174E-03-1.67506E-01-1.52909E-14-6.37479E-14
 -1      1938 2.01360E+01 2.20407E-02 1.67225E-03-8.22952E-02 5.84512E-14-1.90680E-13
 -1      1939 2.01052E+01 1.87098E-02 6.08163E-04-7.01413E-02 1.19170E-13-2.17160E-13
 -1      1940 2.01422E+01 3.54129E-02-9.41552E-04-1.19572E-01 1.12842E-13 1.88066E-14
 -1      1941 2.00848E+01 1.63300E-02 1.25014E-03-5.63031E-02 2.33284E-13-3.07624E-14
 -1      1942 2.00634E+01 1.37593E-02 4.80615E-04-4.73119E-02 1.57924E-13 2.15299E-13
 -1      1943 2.00934E+01 2.63380E-02-7.43868E-04-8.32450E-02 2.72964E-13 3.82209E-14
 -1      1944 2.00489E+01 1.19122E-02 9.19583E-04-3.70827E-02 7.11071E-15 7.24229E-14
 -1      1945 2.00346E+01 9.95461E-03 3.74314E-04-3.05355E-02 3.49102E-14-1.53287E-14
 -1      1946 2.00584E+01 1.92933E-02-5.78129E-04-5.61112E-02 3.38062E-14 2.16379E-13
 -1      1947 2.00246E+01 8.53919E-03 6.64357E-04-2.30962E-02 7.65916E-14-3.70211E-14
 -1      1948 2.00155E+01 7.06827E-03 2.87441E-04-1.84129E-02 9.14874E-14 3.57967E-14
 -1      1949 2.00339E+01 1.38972E-02-4.41992E-04-3.61545E-02 4.53692E-14 2.48854E-13
 -1      1950 2.00089E+01 5.99699E-03 4.69840E-04-1.31026E-02 8.22872E-15-7.18783E-14
 -1      1951 2.00034E+01 4.90617E-03 2.17419E-04-9.82277E-03 4.13976E-14 1.91871E-15
 -1      1952 2.00173E+01 9.81677E-03-3.32118E-04-2.17254E-02-1.15728E-14 2.78166E-13
 -1      1953 1.99993E+01 4.10432E-03 3.23407E-04-6.11717E-03 1.65242E-15-6.83267E-14
 -1      1954 1.99965E+01 3.30463E-03 1.61292E-04-3.88208E-03 1.52175E-13-5.95689E-14
 -1      1955 2.00066E+01 6.76938E-03-2.44757E-04-1.15000E-02 2.71370E-15 1.72287E-13
 -1      1956 1.99941E+01 2.70861E-03 2.14446E-04-1.37404E-03 3.97159E-13-1.58222E-13
 -1      1957 1.99932E+01 2.12526E-03 1.15906E-04 8.92721E-05 3.37712E-13 6.94910E-14
 -1      1958 2.00001E+01 4.51664E-03-1.76165E-04-4.43555E-03 2.43300E-13 1.08247E-13
 -1      1959 1.99920E+01 1.68025E-03 1.34223E-04 1.70691E-03 3.62926E-13 1.96012E-13
 -1      1960 1.99922E+01 1.24904E-03 7.80719E-05 2.59783E-03 4.68852E-13 4.64965E-13
 -1      1961 1.99967E+01 2.85662E-03-1.22858E-04 2.69300E-04 4.53715E-13 1.26426E-13
 -1      1962 1.99920E+01 9.06382E-04 7.58122E-05 3.54592E-03 3.56573E-13 3.95902E-13
 -1      1963 1.99929E+01 5.70143E-04 4.48634E-05 3.99913E-03 3.28945E-13 4.24066E-13
 -1      1964 1.99954E+01 1.61482E-03-8.17035E-05 3.20867E-03 4.21561E-13 4.36969E-14
 -1      1965 1.99931E+01 2.84832E-04 3.43484E-05 4.42319E-03 1.05565E-13 2.12216E-13
 -1      1966 1.99944E+01-7.60927E-06 1.66120E-05 4.51329E-03-1.03520E-13 1.30859E-13
 -1      1967 1.99954E+01 6.35331E-04-4.98517E-05 4.79739E-03 1.18358E-13-3.54597E-14
 -1      1968 1.99949E+01-2.91085E-04 4.90222E-06 4.50312E-03-2.47258E-13 7.21683E-14
 -1      1969 1.99962E+01-5.85815E-04-7.13160E-06 4.24346E-03-3.77666E-13 8.69706E-14
 -1      1970 1.99962E+01-2.17067E-04-2.49348E-05 5.29550E-03-2.71915E-13 1.72534E-13
 -1      1971 1.99967E+01-8.35510E-04-5.08924E-06 3.85317E-03-2.68428E-13 7.75460E-14
 -1      1972 1.99978E+01-1.16272E-03-2.82601E-05 3.25292E-03-1.10346E-13-1.80845E-14
 -1      1973 1.99984E+01-1.78846E-03-6.21882E-06 3.74185E-03-2.73042E-13 2.08316E-13
 -1      1974 1.99973E+01-1.06490E-03-1.13677E-05 4.87802E-03-2.67682E-13 3.01395E-13
 -1      1975 2.02399E+01 1.59196E-01 9.69414E-03 3.71366E-02 1.65210E-13 4.60354E-13
 -1      1976 2.04141E+01 2.17954E-01 1.74577E-02 2.22477E-01 1.63175E-13 5.36843E-13
 -1      1977 2.05896E+01 3.65266E-01-2.98545E-03 3.95694E-01 2.07983E-13 3.95206E-13
 -1      1978 2.01972E+01 9.46506E-02 8.46699E-03-2.01548E-01 9.65998E-14 3.97313E-13
 -1      1979 2.02008E+01 1.23249E-01 1.51216E-02-9.48793E-02 1.12853E-13 4.21918E-13
 -1      1980 2.03614E+01 1.91759E-01-3.51711E-03-4.05323E-02 1.46150E-13 3.51297E-13
 -1      1981 2.03378E+01 5.96069E-02 5.63041E-03-3.48039E-01 4.00366E-14 3.50504E-13
 -1      1982 2.02404E+01 7.64632E-02 9.23868E-03-2.80092E-01 6.58371E-14 3.75495E-13
 -1      1983 2.03542E+01 1.12570E-01-4.42204E-03-3.00064E-01 9.41890E-14 2.73788E-13
 -1      1984 2.05970E+01 3.41143E-02 3.45466E-03-4.37536E-01 1.36076E-14 3.09093E-13
 -1      1985 2.04390E+01 4.69349E-02 5.04446E-03-3.93879E-01 1.41918E-14 3.33812E-13
 -1      1986 2.04972E+01 6.67297E-02-4.46949E-03-4.60624E-01 3.89144E-14 2.24526E-13
 -1      1987 2.09263E+01 8.37425E-03 1.52724E-03-4.79919E-01 1.10365E-13 2.82231E-13
 -1      1988 2.07356E+01 2.11250E-02 2.31493E-03-4.57177E-01 5.07930E-14 3.10541E-13
 -1      1989 2.07387E+01 2.98042E-02-3.86614E-03-5.53198E-01 5.73252E-14 2.03204E-13
 -1      1990 2.12825E+01-2.36020E-02-5.65803E-04-4.70848E-01 8.28612E-14 2.45305E-13
 -1      1991 2.10840E+01-8.60147E-03 2.19971E-04-4.71951E-01 1.04878E-13 2.72271E-13
 -1      1992 2.10381E+01-1.06957E-02-2.93404E-03-5.83797E-01 1.11095E-13 2.20915E-13
 -1      1993 2.16198E+01-6.50862E-02-2.86262E-03-3.97444E-01 3.03650E-14 1.78896E-13
 -1      1994 2.14403E+01-4.69485E-02-1.70870E-03-4.29298E-01 5.13801E-14 2.14077E-13
 -1      1995 2.13576E+01-6.19904E-02-1.68940E-03-5.43850E-01 7.57014E-14 2.14158E-13
 -1      1996 2.18851E+01-1.15035E-01-4.99645E-03-2.44199E-01-1.40738E-14 2.46126E-13
 -1      1997 2.17557E+01-9.51432E-02-3.58304E-03-3.14988E-01 1.67422E-14 1.87854E-13
 -1      1998 2.16562E+01-1.26294E-01 2.88582E-05-4.17162E-01 2.85826E-14 1.91877E-13
 -1      1999 2.20197E+01-1.64927E-01-6.22940E-03-2.83455E-03 4.67061E-14 2.60779E-13
 -1      2000 2.19736E+01-1.48259E-01-5.24476E-03-1.17222E-01 2.85440E-14 2.72223E-13
 -1      2001 2.18867E+01-1.97643E-01 2.37724E-03-1.88950E-01 3.06933E-14 2.47389E-13
 -1      2002 2.19671E+01-1.95912E-01-5.68612E-03 3.12440E-01 9.76320E-14 2.48693E-13
 -1      2003 2.20333E+01-1.91781E-01-6.33458E-03 1.60891E-01 5.32682E-14 2.45756E-13
 -1      2004 2.19965E+01-2.57483E-01 5.25837E-03 1.39776E-01 6.85164E-14 2.33469E-13
 -1      2005 2.16916E+01-1.80627E-01-2.98067E-03 6.47588E-01 1.19812E-13 1.47269E-13
 -1      2006 2.18832E+01-2.00610E-01-6.34031E-03 4.85023E-01 1.46930E-13 2.33475E-13
 -1      2007 2.19357E+01-2.73310E-01 7.99218E-03 5.32744E-01 1.80578E-13 1.94644E-13
 -1      2008 2.12057E+01-9.57161E-02 8.98347E-04 9.01991E-01 3.32460E-15 1.54703E-13
 -1      2009 2.15058E+01-1.46570E-01-4.79247E-03 7.77257E-01 7.97539E-15 1.27553E-13
 -1      2010 2.16764E+01-2.07773E-01 9.08020E-03 9.01754E-01 5.71492E-14 2.21467E-13
 -1      2011 2.05972E+01 5.53901E-02 3.58727E-03 9.52156E-01-4.08432E-14 2.46615E-13
 -1      2012 2.09493E+01-1.80368E-02-1.45158E-03 9.24423E-01-1.88080E-14 1.81039E-13
 -1      2013 2.12425E+01-4.33442E-02 6.66794E-03 1.11195E+00-4.33108E-14 2.22985E-13
 -1      2014 2.00336E+01 2.24383E-01 2.99972E-03 7.15026E-01 5.12940E-14 1.08424E-13
 -1      2015 2.03461E+01 1.56354E-01 3.41886E-03 8.22389E-01 6.99527E-15 1.94411E-13
 -1      2016 2.07367E+01 1.87473E-01 4.54096E-04 1.02971E+00 1.40873E-14 1.47212E-13
 -1      2017 1.97146E+01 3.31425E-01-4.17495E-04 2.22265E-01 1.09995E-13 3.27700E-16
 -1      2018 1.98875E+01 3.04376E-01 8.48737E-03 4.47155E-01 8.18200E-14 4.13315E-14
 -1      2019 2.03300E+01 3.95957E-01-6.53769E-03 6.08558E-01 1.50485E-13 5.51178E-14
 -1      2020 1.97766E+01 3.17374E-01-3.25128E-03-3.62212E-01 4.11303E-14 1.88564E-14
 -1      2021 1.97445E+01 3.48709E-01 1.15587E-02-9.75097E-02 1.15652E-13 3.34309E-14
 -1      2022 2.01922E+01 4.79384E-01-9.48854E-03-4.30332E-02 1.16927E-13-2.68030E-14
 -1      2023 2.02088E+01 1.91648E-01-2.68794E-03-8.22586E-01-1.01665E-13 6.06459E-15
 -1      2024 1.99758E+01 2.65052E-01 1.07469E-02-6.15157E-01-2.46626E-14 5.50861E-15
 -1      2025 2.03912E+01 3.92783E-01-6.31643E-03-6.90184E-01 4.45477E-15 6.11967E-15
 -1      2026 2.08570E+01 2.35886E-02 6.65451E-04-1.01506E+00-4.32662E-14 1.62891E-15
 -1      2027 2.04962E+01 1.02043E-01 6.14467E-03-9.26051E-01-8.08637E-14-3.90417E-14
 -1      2028 2.08476E+01 1.83037E-01-5.97399E-04-1.10201E+00-5.50003E-14 2.76168E-14
 -1      2029 2.15153E+01-1.12062E-01 4.21003E-03-9.30913E-01 1.59759E-14 4.63457E-14
 -1      2030 2.11313E+01-5.95382E-02-3.40540E-05-9.61725E-01-1.31904E-14 3.07532E-14
 -1      2031 2.13900E+01-4.65983E-02 3.28898E-03-1.17795E+00-3.33391E-14-2.07837E-14
 -1      2032 2.20227E+01-1.78334E-01 5.73774E-03-6.64734E-01 1.84737E-13-6.42134E-14
 -1      2033 2.17063E+01-1.61614E-01-5.22609E-03-7.73722E-01 1.34942E-13 4.50603E-14
 -1      2034 2.18544E+01-2.08153E-01 3.74348E-03-9.69318E-01 1.40406E-13-4.67343E-14
 -1      2035 2.23067E+01-1.80082E-01 5.03634E-03-3.39325E-01-2.38377E-14-1.57504E-13
 -1      2036 2.21075E+01-1.91187E-01-7.98928E-03-4.74296E-01 8.72176E-14-8.09019E-14
 -1      2037 2.21468E+01-2.69618E-01 2.12713E-03-6.10456E-01 1.27789E-13-2.01663E-13
 -1      2038 2.23722E+01-1.43467E-01 3.25226E-03-4.75664E-02-1.46045E-13-1.86510E-13
 -1      2039 2.22975E+01-1.68004E-01-8.22099E-03-1.69558E-01-1.40320E-13-2.02449E-13
 -1      2040 2.22489E+01-2.49555E-01 4.64776E-04-2.34352E-01-8.63389E-14-8.38448E-14
 -1      2041 2.22665E+01-9.45487E-02 1.40410E-03 1.66013E-01-1.06883E-13 5.60858E-14
 -1      2042 2.22956E+01-1.20799E-01-6.78211E-03 7.57730E-02-1.31095E-13-1.15138E-13
 -1      2043 2.21904E+01-1.86901E-01-3.79907E-04 7.48294E-02-1.57408E-13-9.97613E-14
 -1      2044 2.20485E+01-4.95262E-02 4.38794E-05 2.94704E-01 2.83131E-14 1.60200E-13
 -1      2045 2.21496E+01-7.12221E-02-4.67282E-03 2.39394E-01-3.66547E-15 1.20627E-13
 -1      2046 2.20187E+01-1.15324E-01-6.39576E-04 2.85629E-01-5.54912E-14-6.96123E-14
 -1      2047 2.17721E+01-1.53136E-02-7.08118E-04 3.52088E-01 1.19999E-13 2.72031E-13
 -1      2048 2.19136E+01-3.04471E-02-2.57007E-03 3.26383E-01 8.38474E-14 2.39253E-13
 -1      2049 2.17808E+01-5.38142E-02-5.99389E-04 4.01543E-01 1.46304E-14 1.46567E-13
 -1      2050 2.14788E+01 7.17219E-03-9.77907E-04 3.58514E-01-1.13203E-13 2.92594E-13
 -1      2051 2.16351E+01-1.83157E-03-8.42949E-04 3.54179E-01-2.23026E-14 2.99264E-13
 -1      2052 2.15155E+01-9.28318E-03-4.80423E-04 4.42614E-01 1.70336E-14 2.82868E-13
 -1      2053 2.11963E+01 1.98625E-02-9.50896E-04 3.33309E-01-1.24125E-13 3.40071E-13
 -1      2054 2.13498E+01 1.55825E-02 3.83300E-04 3.42427E-01-9.93138E-14 2.89307E-13
 -1      2055 2.12507E+01 1.86065E-02-3.96093E-04 4.32630E-01-8.70047E-14 3.79889E-13
 -1      2056 2.09412E+01 2.54677E-02-7.81222E-04 2.91621E-01-1.89887E-14 3.00709E-13
 -1      2057 2.10811E+01 2.43924E-02 1.13666E-03 3.07926E-01-8.03813E-14 2.97825E-13
 -1      2058 2.10043E+01 3.32955E-02-3.66004E-04 3.92477E-01-7.27771E-15 3.95350E-13
 -1      2059 2.07212E+01 2.64721E-02-5.69540E-04 2.43959E-01-6.38364E-14 2.40241E-13
 -1      2060 2.08423E+01 2.73364E-02 1.51272E-03 2.63059E-01-1.51983E-14 2.62802E-13
 -1      2061 2.07863E+01 3.87928E-02-3.70717E-04 3.37869E-01 7.60893E-16 4.43941E-13
 -1      2062 2.05384E+01 2.47952E-02-3.70253E-04 1.96899E-01 2.20682E-13 2.19396E-13
 -1      2063 2.06390E+01 2.66764E-02 1.62114E-03 2.16012E-01 3.07982E-14 2.65776E-13
 -1      2064 2.06008E+01 3.85420E-02-3.85925E-04 2.79406E-01 3.15659E-14 2.94915E-13
 -1      2065 2.03911E+01 2.17760E-02-2.06623E-04 1.54096E-01 1.04318E-13 1.31094E-13
 -1      2066 2.04719E+01 2.40603E-02 1.55907E-03 1.71645E-01 1.89644E-13 2.30174E-13
 -1      2067 2.04478E+01 3.51037E-02-3.95009E-04 2.23532E-01 1.86940E-13 3.56131E-13
 -1      2068 2.02756E+01 1.82775E-02-8.40333E-05 1.17222E-01 2.30067E-14 6.52888E-14
 -1      2069 2.03387E+01 2.05893E-02 1.40163E-03 1.32457E-01 4.61894E-14 1.48276E-13
 -1      2070 2.03251E+01 3.02110E-02-3.90547E-04 1.73682E-01 6.27423E-14 2.60069E-13
 -1      2071 2.01873E+01 1.48146E-02 9.35833E-07 8.66993E-02 5.70983E-13-1.57035E-13
 -1      2072 2.02352E+01 1.69454E-02 1.20165E-03 9.93967E-02 2.56963E-13-9.37382E-15
 -1      2073 2.02293E+01 2.49478E-02-3.71802E-04 1.31277E-01 2.92132E-13 1.51490E-13
 -1      2074 2.01215E+01 1.16642E-02 5.51254E-05 6.22262E-02 2.72594E-13-3.21411E-13
 -1      2075 2.01569E+01 1.35161E-02 9.93328E-04 7.24747E-02 4.31901E-13-2.25870E-13
 -1      2076 2.01561E+01 1.99361E-02-3.41648E-04 9.64894E-02 5.44805E-13 2.42129E-14
 -1      2077 2.00739E+01 8.95043E-03 8.59512E-05 4.31321E-02 6.34143E-14-3.90112E-13
 -1      2078 2.00993E+01 1.04935E-02 7.96863E-04 5.11825E-02 2.80789E-13-3.83371E-13
 -1      2079 2.01017E+01 1.54907E-02-3.04238E-04 6.87880E-02 3.37161E-13-6.88746E-14
 -1      2080 2.00405E+01 6.70366E-03 1.00076E-04 2.86000E-02-1.39537E-13-3.93715E-13
 -1      2081 2.00581E+01 7.94782E-03 6.22698E-04 3.47720E-02-9.37504E-14-4.18644E-13
 -1      2082 2.00623E+01 1.17329E-02-2.63597E-04 4.72952E-02-3.44475E-14-1.53481E-13
 -1      2083 2.00179E+01 4.90101E-03 1.02912E-04 1.78015E-02-2.50653E-13-3.75096E-13
 -1      2084 2.00296E+01 5.87683E-03 4.74868E-04 2.24261E-02-2.22541E-13-4.94574E-13
 -1      2085 2.00346E+01 8.66940E-03-2.22974E-04 3.10164E-02-1.63834E-13-2.45453E-13
 -1      2086 2.00036E+01 3.49206E-03 9.85369E-05 9.97192E-03-6.98052E-14-1.77165E-13
 -1      2087 2.00108E+01 4.23908E-03 3.53460E-04 1.33587E-02-1.10170E-13-2.88329E-13
 -1      2088 2.00160E+01 6.24429E-03-1.84649E-04 1.89750E-02-2.28410E-13-2.05211E-13
 -1      2089 1.99952E+01 2.41464E-03 8.97967E-05 4.44717E-03 9.37621E-14-4.06385E-13
 -1      2090 1.99992E+01 2.97444E-03 2.56300E-04 6.86750E-03 6.07248E-16-3.22995E-13
 -1      2091 2.00041E+01 4.37144E-03-1.50002E-04 1.02865E-02 5.89292E-14-2.74572E-13
 -1      2092 1.99911E+01 1.60387E-03 7.84635E-05 6.77499E-04-5.50776E-14-1.81726E-13
 -1      2093 1.99929E+01 2.01631E-03 1.80062E-04 2.35743E-03 7.88510E-14-2.38394E-13
 -1      2094 1.99971E+01 2.95398E-03-1.19660E-04 4.19321E-03-6.56446E-15-1.02863E-13
 -1      2095 1.99899E+01 9.96465E-04 6.53712E-05-1.77111E-03-7.93286E-14-3.98080E-13
 -1      2096 1.99901E+01 1.29820E-03 1.20957E-04-6.52433E-04-1.21304E-13-4.19466E-13
 -1      2097 1.99937E+01 1.89486E-03-9.36994E-05 7.65204E-05 1.87755E-15-2.53858E-13
 -1      2098 1.99906E+01 5.30951E-04 5.06793E-05-3.22103E-03 9.32063E-14-5.19032E-13
 -1      2099 1.99899E+01 7.55922E-04 7.52559E-05-2.53109E-03 7.72602E-14-4.49657E-13
 -1      2100 1.99926E+01 1.10056E-03-7.18598E-05-2.54393E-03 1.11854E-13-2.58451E-13
 -1      2101 1.99924E+01 1.45224E-04 3.51258E-05-3.88601E-03 3.57649E-14-3.35862E-13
 -1      2102 1.99911E+01 3.25769E-04 3.99498E-05-3.53969E-03 5.80311E-15-4.53459E-13
 -1      2103 1.99931E+01 4.80025E-04-5.31913E-05-4.01574E-03-5.95611E-15-2.69935E-13
 -1      2104 1.99947E+01-2.23400E-04 2.01774E-05-3.87213E-03-1.20599E-13-4.29022E-13
 -1      2105 1.99932E+01-5.62283E-05 1.39097E-05-3.83363E-03 1.87588E-14-3.95127E-13
 -1      2106 1.99945E+01-5.73195E-05-3.54203E-05-4.55485E-03 1.65169E-14-2.23809E-13
 -1      2107 1.99969E+01-6.40047E-04 5.23199E-06-3.17900E-03 2.00024E-14-4.63401E-13
 -1      2108 1.99956E+01-4.51155E-04-3.97939E-07-3.47782E-03-7.18739E-14-4.70501E-13
 -1      2109 1.99963E+01-6.02491E-04-1.83005E-05-4.27554E-03-1.56050E-14-3.09613E-13
 -1      2110 1.99985E+01-1.05076E-03-1.22312E-05-2.18115E-03-4.99845E-14-3.27351E-13
 -1      2111 1.99974E+01-8.30843E-04-6.37109E-06-2.80537E-03 3.38727E-14-3.80106E-13
 -1      2112 1.99977E+01-1.10419E-03 2.56014E-06-3.51725E-03-7.43078E-14-3.36499E-13
 -1      2113 1.99988E+01-1.64775E-03 1.10310E-05-2.60966E-03-2.78755E-13-1.02410E-13
 -1      2114 2.00002E+01-6.78412E-03 4.48387E-06-3.60927E-03-1.73687E-13-7.08861E-14
 -1      2115 2.00000E+01-5.63644E-03 5.85139E-06-3.79112E-03-1.56931E-13 1.52187E-13
 -1      2116 1.99998E+01-4.98208E-03 2.63697E-06-3.90187E-03-1.43011E-13-1.54057E-13
 -1      2117 1.99995E+01-3.81496E-03-9.63968E-06-3.81464E-03-9.10342E-14-1.79794E-13
 -1      2118 2.00000E+01-4.12983E-03-1.08422E-05-4.65623E-03-9.92500E-14-4.95638E-14
 -1      2119 1.99993E+01-3.32443E-03 1.06100E-06-3.57031E-03-1.03992E-13 4.01190E-14
 -1      2120 1.99990E+01-2.26752E-03-1.81023E-05-3.11887E-03-2.61214E-13 7.53484E-15
 -1      2121 1.99986E+01-1.99572E-03-1.72981E-05-3.67035E-03-1.63339E-13-4.33821E-14
 -1      2122 1.99993E+01-3.04345E-03-1.29634E-05-4.50612E-03-1.27132E-13 5.07987E-15
 -1      2123 2.00004E+01-8.27004E-03 8.61666E-06-2.95901E-03-4.49730E-13-2.96707E-13
 -1      2124 2.00003E+01-7.29360E-03 2.33647E-05-3.27857E-03-3.99403E-13-1.83934E-13
 -1      2125 2.00005E+01-5.28767E-03-1.11019E-05-4.15280E-03-2.09619E-13-4.00979E-13
 -1      2126 2.00005E+01-9.40824E-03 1.39055E-05-2.12117E-03-3.95399E-13 1.19872E-13
 -1      2127 2.00005E+01-8.65687E-03 3.13939E-05-2.51022E-03-4.26208E-13 3.83308E-14
 -1      2128 2.00008E+01-6.19649E-03-1.07685E-05-3.29199E-03-2.38804E-13-4.71345E-16
 -1      2129 2.00005E+01-1.01291E-02 1.98229E-05-1.21854E-03-4.11501E-13 1.46142E-13
 -1      2130 2.00005E+01-9.66091E-03 3.32588E-05-1.62882E-03-4.54607E-13 2.82535E-13
 -1      2131 2.00009E+01-6.84838E-03-9.32599E-06-2.25642E-03-2.79397E-13 1.73103E-13
 -1      2132 2.00005E+01-1.04262E-02 2.60611E-05-2.98982E-04-3.75750E-13 1.16676E-14
 -1      2133 2.00005E+01-1.02592E-02 3.05159E-05-7.15060E-04-4.52751E-13-6.03773E-14
 -1      2134 2.00009E+01-7.24115E-03-7.74130E-06-1.16461E-03-2.78193E-13 1.07759E-13
 -1      2135 2.00005E+01-1.02997E-02 3.17005E-05 6.30561E-04-4.02027E-13 1.85345E-13
 -1      2136 2.00005E+01-1.04404E-02 2.54982E-05 2.09505E-04-3.98250E-13 2.92675E-13
 -1      2137 2.00009E+01-7.38881E-03-7.25009E-06-5.70030E-05-4.37315E-13 1.41192E-13
 -1      2138 2.00005E+01-9.74744E-03 3.48448E-05 1.57053E-03-4.86586E-13-3.86243E-13
 -1      2139 2.00005E+01-1.01953E-02 1.98055E-05 1.14647E-03-5.10342E-13-4.77099E-14
 -1      2140 2.00009E+01-7.29473E-03-8.19962E-06 1.06451E-03-5.06929E-13-1.06046E-13
 -1      2141 2.00005E+01-8.78978E-03 3.24663E-05 2.47797E-03-7.77519E-14-6.43860E-14
 -1      2142 2.00005E+01-9.51833E-03 1.44927E-05 2.07700E-03-3.21549E-13-2.62939E-13
 -1      2143 2.00009E+01-6.94906E-03-1.00040E-05 2.18565E-03-2.44160E-13-2.77763E-13
 -1      2144 2.00004E+01-7.41920E-03 2.30737E-05 3.29644E-03 1.15875E-13 4.02741E-13
 -1      2145 2.00005E+01-8.41135E-03 9.36354E-06 2.95319E-03 1.00851E-14 2.38250E-13
 -1      2146 2.00008E+01-6.32879E-03-1.27789E-05 3.26638E-03 8.47563E-14 1.46209E-13
 -1      2147 2.00001E+01-5.73105E-03 5.08403E-06 3.84788E-03 1.96712E-13 6.35507E-14
 -1      2148 2.00002E+01-6.89104E-03 5.69012E-06 3.65439E-03 1.06709E-13 2.29227E-13
 -1      2149 2.00005E+01-5.41313E-03-1.33069E-05 4.19055E-03 2.23256E-13 3.14361E-13
 -1      2150 1.99995E+01-3.88084E-03-2.11138E-05 3.92927E-03-6.99747E-14 2.18811E-13
 -1      2151 1.99999E+01-5.06604E-03 1.09113E-05 3.97238E-03-2.20595E-14 7.04300E-14
 -1      2152 2.00000E+01-4.21940E-03-4.80575E-06 4.73079E-03 8.29308E-14-7.67283E-14
 -1      2153 1.02936E+01-5.05281E+00-1.22369E-01 6.64902E+00 6.39933E-13 1.02392E-12
 -1      2154 6.59345E+00-6.58509E+00-3.64394E-01 5.37871E+00 4.79228E-13 9.67032E-13
 -1      2155 6.12280E-01-6.72381E+00-3.10642E-01 1.22772E+00 8.07687E-14 8.33611E-13
 -1      2156 4.64654E-01-6.56130E+00-2.93929E-01-3.31514E-01-1.28952E-13 8.78020E-13
 -1      2157 3.35014E+00-6.07152E+00-2.36934E-01 4.27002E+00 3.79696E-13 8.75300E-13
 -1      2158 1.48231E+00-7.12254E+00-3.76727E-01 2.73275E+00 5.67602E-14 7.97640E-13
 -1      2159 2.50156E+00-4.27471E+00-1.25654E-01 2.45024E+00 3.36814E-14 8.52873E-13
 -1      2160 1.92256E+01-3.08431E+00 2.33710E-02 6.99868E+00 6.66134E-13 1.08902E-12
 -1      2161 1.48210E+01-5.01568E+00-2.46603E-01 6.37015E+00 5.53946E-13 9.50462E-13
 -1      2162 2.73745E+01-6.83795E-01 8.98195E-02 5.78658E+00 8.99725E-13 8.89289E-13
 -1      2163 2.24019E+01-2.34971E+00-1.68203E-01 5.90973E+00 7.26474E-13 1.02729E-12
 -1      2164 2.30962E+01-4.30726E+00 6.34419E-02 5.63507E+00 2.99594E-13 7.68774E-13
 -1      2165 1.95616E+01 4.11377E+00-2.70020E-02-1.38633E+00-1.63691E-13-2.73743E-13
 -1      2166 1.97594E+01 4.02821E+00-2.16236E-02-1.63077E+00-2.00368E-13-2.21278E-13
 -1      2167 2.01111E+01 3.34555E+00-6.45073E-03-1.56131E+00-2.18845E-13-1.73138E-13
 -1      2168 1.96831E+01 3.73886E+00-7.69713E-03-1.19247E+00-1.57685E-13-2.63164E-13
 -1      2169 3.89854E+01 6.13428E+00 3.69423E-01 1.41849E+00 9.90541E-13 5.01432E-13
 -1      2170 3.54997E+01 5.08537E+00 5.42929E-02 1.73196E+00 9.71223E-13 5.38403E-13
 -1      2171 3.96829E+01 7.28833E+00 2.55841E-01-1.27655E-01 7.88702E-13 2.97578E-13
 -1      2172 3.93382E+01 6.91214E+00 2.41443E-01 1.01971E+00 9.24982E-13 5.05068E-13
 -1      2173 3.48812E+01 7.32824E+00 2.58500E-01-3.61362E-01 9.49019E-13 2.38948E-13
 -1      2174 3.78213E+01 6.57946E+00 1.82768E-01-1.37368E+00 6.18616E-13 2.08278E-13
 -1      2175 4.00548E+01 7.22891E+00 3.98085E-01-5.64848E-01 6.14064E-13 3.06352E-13
 -1      2176 3.43110E+01 3.50915E+00 1.79264E-01-3.55725E+00 6.42930E-13-1.13021E-13
 -1      2177 3.70255E+01 4.84878E+00 2.57070E-01-2.28733E+00 6.36657E-13 1.14020E-13
 -1      2178 2.78299E+01-6.72857E-02-4.74114E-02-5.09255E+00 6.30052E-13-2.11609E-13
 -1      2179 3.21857E+01 1.68754E+00 2.56119E-01-4.85687E+00 6.28067E-13-2.38476E-13
 -1      2180 2.08556E+01-3.51464E+00-6.65072E-02-6.14694E+00 3.11307E-13-3.45945E-13
 -1      2181 2.51749E+01-1.35075E+00 1.76758E-01-6.38002E+00 5.41289E-13-2.75890E-13
 -1      2182 1.06532E+01-6.06365E+00-3.69675E-01-6.04560E+00 1.90514E-13-7.22214E-13
 -1      2183 1.56158E+01-4.62793E+00-1.34556E-01-7.00151E+00 1.73195E-13-5.52447E-13
 -1      2184 4.21869E+00-7.26557E+00-4.36001E-01-4.50275E+00 8.83738E-14-6.37823E-13
 -1      2185 7.26952E+00-5.85709E+00-2.18698E-01-5.81324E+00 2.36033E-13-7.27210E-13
 -1      2186 1.13701E+01-5.61906E+00-5.20911E-02-6.92478E+00-1.50213E-13-6.10040E-13
 -1      2187 8.00232E-01-6.88212E+00-3.24648E-01-1.76248E+00-1.83575E-13-7.79599E-13
 -1      2188 1.93132E+00-6.84853E+00-3.43697E-01-3.25820E+00 7.93809E-14-6.78513E-13
 -1      2189 9.81954E-01-7.23186E+00-3.83683E-01 2.03587E+00-4.21135E-13-9.17599E-13
 -1      2190 1.94829E-01-7.24439E+00-3.88864E-01 4.29401E-01-2.01230E-13-9.13492E-13
 -1      2191 5.79546E+00-6.27761E+00-2.47202E-01 5.08105E+00-6.06459E-13-8.56204E-13
 -1      2192 3.11893E+00-7.32213E+00-4.17345E-01 3.63736E+00-4.08118E-13-8.08242E-13
 -1      2193 1.32437E+01-4.86306E+00-1.39346E-01 6.54448E+00-7.88591E-13-1.03348E-12
 -1      2194 9.21162E+00-6.59624E+00-4.03580E-01 5.52748E+00-6.30829E-13-9.05005E-13
 -1      2195 2.22144E+01-2.60989E+00 4.32419E-02 6.62517E+00-8.05356E-13-1.06448E-12
 -1      2196 1.72824E+01-4.56722E+00-3.14196E-01 6.00512E+00-7.40408E-13-9.64451E-13
 -1      2197 3.09268E+01 4.05601E-01 2.29069E-01 5.30008E+00-9.25371E-13-9.27036E-13
 -1      2198 2.58274E+01-1.46685E+00-1.33571E-01 5.29567E+00-8.82960E-13-1.02096E-12
 -1      2199 3.77638E+01 3.68291E+00 3.79416E-01 3.23692E+00-1.02510E-12-5.81313E-13
 -1      2200 3.35672E+01 2.20913E+00 9.62032E-02 3.84251E+00-1.04978E-12-7.64833E-13
 -1      2201 4.07220E+01 6.32869E+00 3.36049E-01 9.17851E-01-9.35918E-13-2.75002E-13
 -1      2202 3.92953E+01 5.40584E+00 3.49567E-01 2.22709E+00-1.03403E-12-5.75873E-13
 -1      2203 4.09362E+01 7.07670E+00 3.51484E-01-3.79189E-01-9.13603E-13 3.93852E-14
 -1      2204 4.01899E+01 7.25111E+00 2.72973E-01 4.71920E-01-9.10938E-13-1.86184E-13
 -1      2205 3.87160E+01 5.86557E+00 1.89075E-01-1.34902E+00-1.00892E-12 1.96176E-13
 -1      2206 4.09324E+01 6.51483E+00 3.64545E-01-5.67763E-01-9.35252E-13 2.81164E-14
 -1      2207 3.63077E+01 7.71699E+00 3.22063E-01 4.50499E-01-1.00597E-12 5.62883E-14
 -1      2208 3.42362E+01 2.34860E+00 2.56332E-02-2.79466E+00-9.64569E-13 3.10973E-13
 -1      2209 3.75092E+01 3.85354E+00 2.54095E-01-1.91504E+00-9.75608E-13 1.06526E-13
 -1      2210 2.85552E+01-8.03755E-01-8.63782E-02-4.20962E+00-7.72465E-13 5.32352E-13
 -1      2211 3.29667E+01 9.37164E-01 2.17058E-01-4.06385E+00-8.91537E-13 4.18221E-13
 -1      2212 3.30505E+01 6.66886E-01 1.90018E-01-5.94224E-01-6.84029E-13-1.30673E-13
 -1      2213 1.99813E+01-3.78014E+00-2.71209E-01-5.82438E+00-6.44984E-13 6.75238E-13
 -1      2214 2.47786E+01-2.14992E+00 4.34425E-02-6.06773E+00-6.50591E-13 6.81344E-13
 -1      2215 1.22748E+01-5.75806E+00-3.84155E-01-5.77261E+00-4.89830E-13 7.28917E-13
 -1      2216 1.66503E+01-3.97553E+00-5.15564E-02-6.60626E+00-6.26832E-13 7.00551E-13
 -1      2217 2.08955E+01-5.15516E+00-8.50471E-03-5.95930E+00-9.74221E-14 3.21632E-13
 -1      2218 5.78304E+00-6.93586E+00-3.66123E-01-4.68515E+00-1.26288E-13 9.12603E-13
 -1      2219 8.90545E+00-5.72941E+00-1.68616E-01-5.86118E+00-3.27516E-13 9.02577E-13
 -1      2220 1.49258E+00-7.14922E+00-3.76016E-01-2.48609E+00-9.66727E-14 7.73603E-13
 -1      2221 3.31206E+00-6.68329E+00-2.76476E-01-3.77853E+00-2.73337E-13 9.19903E-13
 -1      2222 6.61420E+00-5.35844E+00-1.58116E-01-5.44687E+00 2.50244E-13 7.69329E-13
 -1      2223 3.41016E+01 2.67117E+00 1.37499E-01 3.08942E+00 8.66543E-13 6.39933E-13
 -1      2224 3.04777E+01 1.07521E+00 1.92535E-02 3.99314E+00 9.37181E-13 7.86260E-13
 -1      2225 2.93892E+01-1.26390E+00 1.54263E-01 3.06678E+00 6.66356E-13 5.00600E-13
 -1      2226 2.10949E+01 1.11301E+00-1.76914E-02-1.35371E+00-2.27752E-13 2.29589E-13
 -1      2227 3.25140E+01 1.62379E+00 1.97618E-01-1.89723E+00 5.26482E-13 1.92846E-13
 -1      2228 3.34770E+01 3.46713E+00 1.61615E-01 4.99908E-01 8.47544E-13 2.37810E-13
 -1      2229 2.09796E+01 1.35220E+00-2.09235E-02-1.34548E+00-2.33960E-13 9.61384E-14
 -1      2230 6.75276E+00-5.11634E+00-9.61408E-02 5.75352E+00 1.90847E-13 1.06304E-12
 -1      2231 1.49947E+01-5.48402E+00-3.80215E-02 6.97971E+00 1.96787E-13 7.76003E-13
 -1      2232 1.99992E+01-2.99121E-03-1.71218E-05 3.94661E-03-1.47146E-13 1.35368E-13
 -1      2233 2.48163E+00-4.52978E+00-1.40671E-01-1.83066E+00 4.39510E-14 8.84071E-13
 -1      2234 1.31689E+01-5.98343E+00-1.55363E-01-6.51598E+00 1.66311E-13 6.29836E-13
 -1      2235 2.83906E+01-2.94308E+00 1.15868E-01-3.50110E+00-3.52912E-13 1.55709E-13
 -1      2236 3.54869E+01 4.76738E+00 2.38928E-01 6.13097E-01-9.10050E-13-8.08242E-14
 -1      2237 3.69395E+01 7.35977E+00 3.09816E-01-5.65812E-02-1.03273E-12-3.13222E-14
 -1      2238 3.61527E+01 4.37504E+00 3.47612E-01 3.11610E-01-9.99728E-13-1.15075E-13
 -1      2239 3.23495E+01 1.75738E-03 2.02874E-01 2.16983E+00-7.32296E-13-3.29736E-13
 -1      2240 2.60140E+01-3.73823E+00 6.83919E-02 4.70750E+00-4.17999E-13-6.39711E-13
 -1      2241 1.78920E+01-5.68736E+00-6.33610E-02 6.48814E+00-3.29126E-13-7.28279E-13
 -1      2242 9.66901E+00-5.90257E+00-1.43197E-01 6.21443E+00-2.50189E-13-8.13349E-13
 -1      2243 3.57959E+00-5.25195E+00-1.70598E-01 3.67115E+00-2.00590E-13-8.97726E-13
 -1      2244 4.95233E+00-5.22091E+00-1.60042E-01-4.92908E+00-1.38889E-13-7.11209E-13
 -1      2245 1.94670E+01-4.72182E+00-1.66595E-02-6.46640E+00 7.93254E-14-3.32845E-13
 -1      2246 2.27607E+01-5.19203E+00-1.41914E-01-5.50490E+00-1.35059E-13 2.44527E-14
 -1      2247 1.85482E+01-5.37956E+00 1.64166E-01-6.78979E+00-2.45914E-13-2.24475E-13
 -1      2248 2.76862E+01-2.37095E+00 5.38400E-02-4.06071E+00 3.18745E-13 6.07847E-14
 -1      2249 3.55500E+01 8.10764E+00 2.56844E-01-1.94174E-02 7.59670E-13 3.22624E-13
 -1      2250 3.57792E+01 5.59241E+00 1.82443E-01-6.96917E-01 5.95468E-13 2.91767E-13
 -1      2251 3.29445E+01 6.29257E+00-9.19317E-02 8.07136E-01 5.35016E-13 4.88803E-13
 -1      2252 3.28099E+01 4.53949E+00 5.02580E-02 3.51955E-01 5.27939E-13 4.36484E-13
 -1      2253 1.72113E+00-4.83021E+00-1.65889E-01-8.52305E-01-1.87739E-13-9.44744E-13
 -1      2254 2.06234E+01 5.48171E-01 6.00998E-03 3.54215E-01 2.04713E-13 2.54731E-13
 -1      2255 2.08154E+01 7.30783E-01 2.08058E-02 6.64135E-01 2.33754E-13 2.74142E-13
 -1      2256 1.92092E+01 3.83684E+00-1.11744E-02-4.15295E-01-2.84577E-14-3.16826E-13
 -1      2257 1.92985E+01 3.77771E+00-8.78690E-03-5.51595E-01-6.78648E-14-3.24485E-13
 -1      2258 1.94098E+01 3.65825E+00-1.36723E-02-6.64887E-01-9.18342E-14-3.14704E-13
 -1      2259 1.95467E+01 3.55628E+00-1.08932E-02-8.17042E-01-1.27898E-13-2.87929E-13
 -1      2260 1.94853E+01 3.38708E+00 2.12527E-03-5.20597E-01-7.20119E-14-2.89563E-13
 -1      2261 1.90973E+01 3.93309E+00-8.12279E-03 4.29863E-02 6.74632E-14-3.11501E-13
 -1      2262 1.90894E+01 3.93849E+00-8.89832E-03-8.31632E-02 4.17884E-14-3.19389E-13
 -1      2263 1.91814E+01 3.86423E+00-7.76494E-03 2.80599E-01 1.15022E-13-2.94606E-13
 -1      2264 1.91276E+01 3.89919E+00-9.95124E-03 1.47764E-01 8.82808E-14-3.05981E-13
 -1      2265 1.92299E+01 3.61224E+00 1.00380E-03 7.14621E-02 7.58305E-14-2.90541E-13
 -1      2266 1.93485E+01 3.72057E+00-8.42297E-03 5.36470E-01 1.64193E-13-2.39612E-13
 -1      2267 1.92538E+01 3.78561E+00-1.15275E-02 3.93024E-01 1.30246E-13-2.66969E-13
 -1      2268 1.93431E+01 3.50553E+00 9.68397E-04 2.78362E-01 1.14871E-13-2.62164E-13
 -1      2269 1.95993E+01 3.48658E+00-1.07334E-02 8.26022E-01 2.41599E-13-1.75978E-13
 -1      2270 1.94627E+01 3.59227E+00-1.36567E-02 6.63183E-01 1.93722E-13-2.06804E-13
 -1      2271 1.95446E+01 3.30978E+00 1.19198E-03 5.05949E-01 1.72014E-13-1.87018E-13
 -1      2272 1.99317E+01 3.13528E+00-1.60543E-02 1.13977E+00 2.89764E-13-1.13905E-13
 -1      2273 1.97543E+01 3.30052E+00-1.63204E-02 9.61829E-01 2.56781E-13-1.51429E-13
 -1      2274 1.98300E+01 3.01113E+00 2.34737E-03 7.53667E-01 2.36630E-13-1.38059E-13
 -1      2275 2.03532E+01 2.61187E+00-2.64747E-02 1.44315E+00 3.15976E-13 9.19403E-16
 -1      2276 2.01320E+01 2.87469E+00-1.83988E-02 1.26736E+00 2.99231E-13-7.29833E-14
 -1      2277 2.01896E+01 2.58513E+00 5.72051E-03 9.96021E-01 2.76546E-13-7.38810E-14
 -1      2278 2.04896E+01 3.25893E-01 7.06748E-03-9.06190E-02 1.39169E-13 2.15792E-13
 -1      2279 2.05603E+01 4.18570E-01 2.03374E-02 9.14081E-02 1.65354E-13 2.46725E-13
 -1      2280 2.06381E+01 6.98029E-01-4.03484E-03 3.08071E-01 2.01470E-13 1.34072E-13
 -1      2281 2.07973E+01 9.47006E-01 1.31303E-02-5.83435E-01-1.80463E-13 2.90215E-14
 -1      2282 2.06660E+01 7.46505E-01 4.64449E-04-2.33649E-01-1.62592E-13 2.33480E-14
 -1      2283 3.02942E+01-2.38464E-01-3.83881E-02-1.08701E+00 3.60677E-13 3.54772E-13
 -1      2284 3.18274E+01 1.72460E+00-8.73770E-02-3.58998E-01 4.69777E-13 4.86722E-13
 -1      2285 2.06380E+01 6.10779E-01 1.49970E-02 4.00477E-02-1.56849E-13 3.41780E-14
 -1      2286 2.05990E+01 5.11962E-01 4.91675E-03 2.69433E-01-1.31818E-13 1.56813E-14
 -1      2287 2.06241E+01 9.20137E-01-3.34993E-03-1.50236E-01-1.62610E-13-5.65867E-14
 -1      2288 2.05867E+01 4.47911E-01 1.00276E-02 4.80163E-01-1.20284E-13 2.91265E-14
 -1      2289 2.06318E+01 4.00181E-01 6.00070E-03 6.50910E-01-1.02865E-13-1.53807E-14
 -1      2290 2.05612E+01 6.50804E-01-5.01608E-03 3.69679E-01-1.37324E-13-5.42942E-14
 -1      2291 2.06504E+01 3.68881E-01 5.75950E-03 8.22616E-01-7.19736E-14-1.77170E-14
 -1      2292 2.07649E+01 3.45312E-01 6.42364E-03 9.62798E-01-7.04395E-14-2.07251E-14
 -1      2293 2.05621E+01 5.18679E-01-4.75271E-03 7.79431E-01-9.74780E-14-5.83173E-14
 -1      2294 2.08159E+01 3.26182E-01 3.19124E-03 1.11157E+00-7.33521E-14-2.74351E-14
 -1      2295 2.09867E+01 3.07867E-01 6.22251E-03 1.23269E+00-5.12394E-14-3.12118E-14
 -1      2296 2.06331E+01 4.48933E-01-4.11871E-03 1.12106E+00-7.87688E-14-4.91438E-14
 -1      2297 2.10714E+01 2.84451E-01 2.09810E-03 1.36491E+00-4.04614E-14-5.58576E-14
 -1      2298 2.12890E+01 2.52476E-01 5.04591E-03 1.46563E+00-1.76205E-14-4.84360E-14
 -1      2299 2.07709E+01 3.92565E-01-3.85562E-03 1.41946E+00-6.23030E-14-6.86330E-14
 -1      2300 2.14149E+01 2.05760E-01 2.50197E-03 1.57670E+00-1.54049E-14-5.70946E-14
 -1      2301 2.16725E+01 1.36421E-01 2.32237E-03 1.64212E+00-3.50496E-14-4.92885E-14
 -1      2302 2.09787E+01 3.01194E-01-4.65448E-03 1.67837E+00-3.07755E-14-1.49754E-13
 -1      2303 2.18589E+01 4.20642E-02 4.83727E-03 1.71356E+00-4.33508E-14-3.26903E-14
 -1      2304 2.21508E+01-9.38559E-02-2.65120E-03 1.71285E+00-4.71537E-14-2.01643E-14
 -1      2305 2.12763E+01 1.15801E-01-7.31839E-03 1.87761E+00-2.69185E-14-9.03023E-14
 -1      2306 2.24336E+01-2.62643E-01 9.64184E-03 1.70726E+00 2.60469E-14 4.78443E-14
 -1      2307 2.27521E+01-4.91289E-01-1.05759E-02 1.59294E+00 7.70469E-14 6.18559E-14
 -1      2308 2.17095E+01-2.34327E-01-1.26154E-02 1.96598E+00 2.47775E-14 2.55457E-14
 -1      2309 2.31804E+01-7.47800E-01 1.64025E-02 1.44845E+00 9.78037E-14 8.60531E-14
 -1      2310 2.35075E+01-1.06248E+00-2.13471E-02 1.16476E+00 1.17207E-13 1.03292E-13
 -1      2311 2.23564E+01-8.09110E-01-2.05113E-02 1.85072E+00 1.07790E-13 8.42375E-14
 -1      2312 2.41157E+01-1.36502E+00 2.09846E-02 7.99438E-01 1.25590E-13 1.74466E-13
 -1      2313 2.44082E+01-1.66463E+00-3.15697E-02 3.14339E-01 1.42561E-13 1.77072E-13
 -1      2314 2.33082E+01-1.58294E+00-2.83354E-02 1.39038E+00 1.54786E-13 1.46979E-13
 -1      2315 2.51404E+01-1.85087E+00 1.18999E-02-3.24777E-01 1.38005E-13 1.94197E-13
 -1      2316 2.53178E+01-1.87562E+00-3.24723E-02-9.46202E-01 7.36312E-14 2.45186E-13
 -1      2317 2.45841E+01-2.29148E+00-2.99738E-02 4.29187E-01 1.66949E-13 1.84384E-13
 -1      2318 2.59508E+01-1.64284E+00-2.40058E-02-1.74321E+00-2.61453E-14 3.13524E-13
 -1      2319 2.59242E+01-1.04996E+00-1.85526E-02-2.24177E+00-1.69365E-13 2.84819E-13
 -1      2320 2.59771E+01-2.30572E+00-2.39893E-02-1.02447E+00 5.88063E-14 2.47934E-13
 -1      2321 2.60927E+01-1.30364E-01-8.83530E-02-2.70539E+00-2.99982E-13 2.44952E-13
 -1      2322 2.58809E+01 1.02417E+00-1.63217E-02-2.60915E+00-3.92755E-13 1.52410E-13
 -1      2323 2.69417E+01-8.19578E-01-3.16557E-02-2.45800E+00-2.73816E-13 3.54647E-13
 -1      2324 2.56580E+01 2.17352E+00-1.17602E-01-2.10750E+00-4.70228E-13 8.93079E-15
 -1      2325 2.54868E+01 3.06500E+00-4.34916E-02-1.24516E+00-5.59081E-13-7.13492E-14
 -1      2326 2.70632E+01 1.99759E+00-7.99689E-02-2.54114E+00-5.60663E-13 1.22166E-13
 -1      2327 2.53491E+01 3.36120E+00-9.55594E-02 1.32610E-01-4.91676E-13-2.48364E-13
 -1      2328 2.54744E+01 3.06146E+00-1.01612E-01 1.20446E+00-4.02026E-13-3.02059E-13
 -1      2329 2.68207E+01 4.18102E+00-1.02651E-01-6.61041E-01-5.98827E-13-2.46459E-13
 -1      2330 2.56779E+01 2.17939E+00-4.04778E-02 2.25167E+00-3.24032E-13-3.82171E-13
 -1      2331 2.59545E+01 1.01288E+00-1.14942E-01 2.73926E+00-2.81580E-13-3.71166E-13
 -1      2332 2.69865E+01 3.37317E+00-6.86980E-02 1.88319E+00-3.99736E-13-5.09995E-13
 -1      2333 2.60381E+01-1.07634E-01-1.22386E-02 2.70859E+00-1.58928E-13-3.83009E-13
 -1      2334 2.61914E+01-1.03809E+00-5.42772E-02 2.46459E+00 8.17402E-15-3.43290E-13
 -1      2335 2.71515E+01 5.97634E-01-4.99727E-02 2.92382E+00-2.26999E-13-5.47333E-13
 -1      2336 2.57696E+01-1.61695E+00-2.57081E-02 1.74016E+00 1.41154E-13-3.17930E-13
 -1      2337 2.57003E+01-1.86432E+00-1.62505E-03 1.14009E+00 2.94382E-13-2.62429E-13
 -1      2338 2.66222E+01-1.75429E+00-2.12367E-02 1.96428E+00 1.10236E-13-4.06078E-13
 -1      2339 2.49906E+01-1.84417E+00-3.30656E-02 3.92422E-01 2.97490E-13-2.52853E-13
 -1      2340 2.47630E+01-1.63719E+00 2.04425E-02-1.74412E-01 3.10668E-13-2.66199E-13
 -1      2341 2.53699E+01-2.41538E+00-2.55398E-02 3.85094E-01 2.57639E-13-3.06428E-13
 -1      2342 2.40825E+01-1.36021E+00-2.74581E-02-6.70179E-01 2.29901E-13-2.82910E-13
 -1      2343 2.37864E+01-1.02867E+00 1.98639E-02-1.04747E+00 1.25566E-13-2.84793E-13
 -1      2344 2.40073E+01-1.95458E+00-2.99748E-02-8.44930E-01 2.56384E-13-2.77605E-13
 -1      2345 2.32779E+01-7.36770E-01-1.62642E-02-1.28405E+00 1.47141E-13-2.92857E-13
 -1      2346 2.29736E+01-4.59354E-01 1.30006E-02-1.46901E+00 1.31724E-13-2.67369E-13
 -1      2347 2.29025E+01-1.15199E+00-2.51186E-02-1.52360E+00 1.32041E-13-2.99847E-13
 -1      2348 2.26325E+01-2.46912E-01-6.67025E-03-1.52755E+00 2.11172E-14-3.74772E-13
 -1      2349 2.23479E+01-6.88359E-02 6.87894E-03-1.57193E+00-5.41524E-14-3.56589E-13
 -1      2350 2.21313E+01-4.62989E-01-1.62987E-02-1.77616E+00 8.69151E-15-3.01010E-13
 -1      2351 2.21248E+01 5.58670E-02-1.99211E-04-1.52890E+00-8.40433E-14-3.24227E-13
 -1      2352 2.18688E+01 1.48870E-01 2.93951E-03-1.48904E+00-1.29227E-13-2.27235E-13
 -1      2353 2.16180E+01-1.12900E-02-8.97515E-03-1.76447E+00-2.61141E-14-2.76177E-13
 -1      2354 2.17173E+01 2.08262E-01 3.49107E-03-1.39704E+00-6.64407E-14-1.69811E-13
 -1      2355 2.14922E+01 2.44555E-01 8.55941E-04-1.31579E+00 2.94949E-14 1.54827E-14
 -1      2356 2.12684E+01 2.31201E-01-4.53366E-03-1.61251E+00-7.45348E-14-3.37916E-14
 -1      2357 2.13819E+01 2.63501E-01 5.23464E-03-1.20661E+00-6.49221E-14-7.89978E-14
 -1      2358 2.11878E+01 2.67328E-01-5.81616E-05-1.11153E+00 4.90597E-14-2.07915E-13
 -1      2359 2.10145E+01 3.31463E-01-2.30999E-03-1.39936E+00-4.98363E-14 6.95916E-14
 -1      2360 2.11018E+01 2.64432E-01 5.73917E-03-1.00292E+00 1.17072E-13-2.14501E-13
 -1      2361 2.09377E+01 2.52171E-01-3.50710E-04-9.09604E-01 1.19709E-13-3.24730E-13
 -1      2362 2.08169E+01 3.48587E-01-1.37888E-03-1.17172E+00 5.11057E-14-1.43823E-13
 -1      2363 2.08676E+01 2.39186E-01 5.52644E-03-8.10503E-01 9.48551E-14-3.28716E-13
 -1      2364 2.07316E+01 2.20563E-01-3.60985E-04-7.26561E-01 3.73683E-14-1.40380E-13
 -1      2365 2.06555E+01 3.23333E-01-1.07032E-03-9.55160E-01 6.44855E-14-2.27281E-13
 -1      2366 2.06734E+01 2.04151E-01 4.95149E-03-6.40671E-01-7.12225E-14-6.40262E-14
 -1      2367 2.05628E+01 1.84389E-01-2.69990E-04-5.68966E-01 8.70213E-15-3.85453E-14
 -1      2368 2.05207E+01 2.80377E-01-1.00049E-03-7.62050E-01 2.29772E-14 5.48075E-14
 -1      2369 2.05144E+01 1.67979E-01 4.23709E-03-4.97039E-01 1.86621E-13-1.10106E-13
 -1      2370 2.04261E+01 1.49594E-01-1.62916E-04-4.37838E-01 1.50092E-13 1.28970E-13
 -1      2371 2.04080E+01 2.33253E-01-9.85432E-04-5.96879E-01 6.10268E-14 1.34929E-13
 -1      2372 2.03863E+01 1.34745E-01 3.51150E-03-3.79092E-01-4.16930E-14 1.86650E-13
 -1      2373 2.03170E+01 1.18747E-01-7.31385E-05-3.31396E-01-1.09049E-13 1.79422E-13
 -1      2374 2.03146E+01 1.88662E-01-9.54356E-04-4.59705E-01 6.97069E-14 1.84559E-13
 -1      2375 2.02848E+01 1.06017E-01 2.84114E-03-2.84352E-01-1.63755E-13 1.53206E-13
 -1      2376 2.02312E+01 9.26371E-02-9.07922E-06-2.46654E-01-1.24110E-13 2.08535E-13
 -1      2377 2.02383E+01 1.49439E-01-8.91139E-04-3.48317E-01-1.43845E-13 1.88958E-13
 -1      2378 2.02056E+01 8.20826E-02 2.25476E-03-2.09604E-01-1.07406E-13 2.16381E-13
 -1      2379 2.01650E+01 7.11822E-02 3.13120E-05-1.80286E-01-3.74397E-14 1.31071E-13
 -1      2380 2.01772E+01 1.16380E-01-8.01629E-04-2.59516E-01-1.25383E-13 3.54446E-13
 -1      2381 2.01450E+01 6.26298E-02 1.75975E-03-1.51544E-01 8.33327E-14 1.84356E-13
 -1      2382 2.01147E+01 5.39201E-02 5.34262E-05-1.29079E-01 2.54464E-13 3.11604E-13
 -1      2383 2.01290E+01 8.92830E-02-6.97590E-04-1.89851E-01 7.37721E-14 4.80602E-13
 -1      2384 2.00994E+01 4.71108E-02 1.35229E-03-1.07101E-01 2.46944E-13 1.43387E-13
 -1      2385 2.00773E+01 4.02604E-02 6.28273E-05-9.01342E-02 2.36789E-13 1.92273E-13
 -1      2386 2.00917E+01 6.75211E-02-5.89960E-04-1.36007E-01 2.64768E-13 2.97368E-13
 -1      2387 2.00658E+01 3.49187E-02 1.02339E-03-7.35731E-02 1.29979E-13 8.16724E-14
 -1      2388 2.00500E+01 2.96061E-02 6.40752E-05-6.09473E-02-7.64194E-14 1.29360E-13
 -1      2389 2.00634E+01 5.03265E-02-4.86714E-04-9.49933E-02 1.41661E-13 3.56961E-15
 -1      2390 2.00415E+01 2.54723E-02 7.62204E-04-4.86571E-02 2.33867E-14 1.41026E-13
 -1      2391 2.00306E+01 2.14071E-02 6.04627E-05-3.94111E-02 9.13174E-14 1.60034E-13
 -1      2392 2.00424E+01 3.69340E-02-3.92743E-04-6.42130E-02-4.69431E-14-1.50239E-14
 -1      2393 2.00245E+01 1.82490E-02 5.57814E-04-3.04422E-02 5.52851E-14 1.94068E-13
 -1      2394 2.00172E+01 1.51782E-02 5.41276E-05-2.37928E-02 1.96963E-14 2.30420E-13
 -1      2395 2.00272E+01 2.66414E-02-3.10439E-04-4.14762E-02 7.04493E-14 9.37103E-14
 -1      2396 2.00130E+01 1.27947E-02 4.00120E-04-1.73732E-02-9.73718E-14 3.16502E-13
 -1      2397 2.00083E+01 1.05024E-02 4.62766E-05-1.26946E-02 5.96803E-14 2.57878E-13
 -1      2398 2.00165E+01 1.88312E-02-2.40406E-04-2.49752E-02 1.88149E-15 3.08635E-13
 -1      2399 2.00055E+01 8.72111E-03 2.80190E-04-8.20911E-03 1.36643E-13 1.70515E-13
 -1      2400 2.00027E+01 7.02421E-03 3.73794E-05-5.01179E-03 2.32084E-13 9.85334E-14
 -1      2401 2.00092E+01 1.29718E-02-1.82137E-04-1.32491E-02 8.59151E-15 3.62532E-13
 -1      2402 2.00010E+01 5.69763E-03 1.90464E-04-1.98147E-03 3.76432E-13-4.09302E-14
 -1      2403 1.99996E+01 4.43937E-03 2.72941E-05 1.06870E-04 3.90021E-13-1.19008E-13
 -1      2404 2.00044E+01 8.60936E-03-1.34623E-04-5.14179E-03 1.70764E-13-5.84250E-15
 -1      2405 1.99986E+01 3.43917E-03 1.24669E-04 2.04296E-03 3.01294E-13-6.16291E-14
 -1      2406 1.99981E+01 2.48323E-03 1.55102E-05 3.29303E-03 3.75211E-13-2.92620E-14
 -1      2407 2.00014E+01 5.35372E-03-9.66797E-05 2.37375E-04 3.89009E-13-1.17910E-13
 -1      2408 1.99976E+01 1.69613E-03 7.76609E-05 4.39342E-03 3.49569E-13-4.64741E-14
 -1      2409 1.99977E+01 9.26137E-04 4.40214E-06 4.98732E-03 6.52450E-14 4.16969E-14
 -1      2410 1.99998E+01 2.86669E-03-6.65783E-05 3.54884E-03 3.25858E-13 6.81259E-14
 -1      2411 1.99975E+01 2.28643E-04 4.02291E-05 5.43160E-03-1.77032E-13 1.51710E-14
 -1      2412 1.99979E+01-4.28135E-04-1.06982E-06 5.46687E-03-3.36373E-13 1.02213E-13
 -1      2413 1.99991E+01 8.62748E-04-4.18160E-05 5.25648E-03-1.08012E-14-2.05467E-13
 -1      2414 2.06094E+01 1.26317E-01 3.29657E-03-5.62423E-01 3.06946E-14 1.41469E-13
 -1      2415 2.05203E+01 1.64671E-01 7.62292E-03-4.90965E-01 7.07579E-14 1.57245E-13
 -1      2416 2.08073E+01 5.57493E-02 1.15440E-03-6.70276E-01 5.88102E-14 1.30439E-13
 -1      2417 2.06782E+01 9.22250E-02 4.62340E-03-6.32977E-01 1.27115E-14 1.18428E-13
 -1      2418 2.06397E+01 1.54014E-01-4.87607E-03-6.75615E-01 5.15248E-14 5.79918E-14
 -1      2419 2.10587E+01-2.39363E-02-1.50699E-03-7.03113E-01 9.04485E-14 1.89803E-13
 -1      2420 2.09103E+01 1.91422E-02 2.95239E-03-7.01158E-01 8.91932E-14 1.67955E-13
 -1      2421 2.08096E+01 5.11996E-02-4.12672E-03-7.91275E-01 4.64113E-14 9.26697E-14
 -1      2422 2.13360E+01-1.24026E-01-4.81363E-03-6.49309E-01 7.51361E-14 2.02291E-13
 -1      2423 2.11886E+01-6.93322E-02 1.99200E-03-6.89752E-01 8.90004E-14 2.26770E-13
 -1      2424 2.10389E+01-6.73998E-02-3.43308E-03-8.17779E-01 7.04477E-14 1.45647E-13
 -1      2425 2.16093E+01-2.46791E-01-8.49354E-03-4.89723E-01-7.26589E-15 2.29758E-13
 -1      2426 2.14848E+01-1.80743E-01 1.31579E-03-5.81746E-01 5.10089E-14 2.25402E-13
 -1      2427 2.13119E+01-2.14737E-01-2.70126E-03-7.40143E-01 4.19767E-14 2.19765E-13
 -1      2428 2.18427E+01-3.78859E-01-1.16869E-02-2.08103E-01 5.71362E-14 2.10725E-13
 -1      2429 2.17652E+01-3.10888E-01 5.21514E-04-3.57088E-01 1.54330E-14 2.11613E-13
 -1      2430 2.16093E+01-3.88892E-01-1.55503E-03-5.36234E-01 1.99886E-14 2.33124E-13
 -1      2431 2.19931E+01-4.82982E-01-1.28310E-02 1.91739E-01 1.11713E-13 1.72304E-13
 -1      2432 2.19859E+01-4.35845E-01-9.05729E-04-6.68294E-03 9.58248E-14 1.89311E-13
 -1      2433 2.19021E+01-5.63327E-01 5.74681E-04-1.89344E-01 9.19601E-14 1.81664E-13
 -1      2434 2.20129E+01-4.95771E-01-9.91240E-03 6.62066E-01 1.63741E-13 2.31755E-13
 -1      2435 2.20920E+01-5.05040E-01-3.49812E-03 4.45584E-01 1.40286E-13 2.17177E-13
 -1      2436 2.21431E+01-6.76913E-01 4.13029E-03 2.90485E-01 1.08281E-13 1.94294E-13
 -1      2437 2.18648E+01-3.46806E-01-1.89908E-03 1.08979E+00 8.96939E-15 2.76740E-13
 -1      2438 2.20281E+01-4.46815E-01-7.08390E-03 9.16754E-01 9.82812E-14 3.11614E-13
 -1      2439 2.22658E+01-6.38004E-01 8.49208E-03 8.36398E-01 6.66832E-14 3.36598E-13
 -1      2440 2.15533E+01-9.98907E-03 9.03130E-03 1.30394E+00-2.89765E-14 2.51430E-13
 -1      2441 2.17691E+01-2.03713E-01-1.02633E-02 1.25424E+00 3.91397E-16 2.88331E-13
 -1      2442 2.22043E+01-3.63033E-01 1.08992E-02 1.29985E+00 5.83778E-15 2.94327E-13
 -1      2443 2.11603E+01 4.34744E-01 1.69917E-02 1.14101E+00 1.40497E-13 1.36898E-13
 -1      2444 2.13667E+01 2.05396E-01-9.89916E-03 1.27484E+00 1.11573E-14 2.30899E-13
 -1      2445 2.19454E+01 1.46468E-01 7.20643E-03 1.46884E+00 5.67181E-14 2.15540E-13
 -1      2446 2.08492E+01 7.93370E-01 1.61084E-02 5.64286E-01 2.11707E-13 5.28752E-14
 -1      2447 2.09725E+01 6.37650E-01-2.95970E-03 8.69481E-01 1.95132E-13 9.86381E-14
 -1      2448 2.15879E+01 7.34015E-01-3.45610E-03 1.16520E+00 1.65529E-13 1.22806E-13
 -1      2449 2.07897E+01 8.67421E-01 6.66428E-03-2.51268E-01 6.09443E-14 3.93680E-14
 -1      2450 2.07781E+01 8.74852E-01 8.44080E-03 1.21472E-01 1.47861E-13 5.29518E-14
 -1      2451 2.13343E+01 1.13009E+00-1.26690E-02 4.00763E-01 1.85929E-13 1.56159E-13
 -1      2452 2.10346E+01 6.13039E-01-4.20299E-03-9.83384E-01-1.57842E-14-1.24033E-15
 -1      2453 2.08887E+01 7.77636E-01 1.69552E-02-6.87746E-01 2.34630E-14 3.41426E-14
 -1      2454 2.13573E+01 1.11488E+00-1.25235E-02-5.49909E-01 9.55703E-15 6.24297E-14
 -1      2455 2.14678E+01 1.81950E-01-9.56343E-03-1.36370E+00-3.70151E-14 2.86221E-14
 -1      2456 2.12402E+01 4.08231E-01 1.64409E-02-1.24075E+00-4.41535E-14 1.44511E-14
 -1      2457 2.16493E+01 7.00488E-01-3.03863E-03-1.28959E+00-2.36556E-14-7.48861E-14
 -1      2458 2.18980E+01-2.12311E-01-8.34187E-03-1.32642E+00 7.89429E-15-4.47177E-14
 -1      2459 2.16617E+01-2.91506E-02 8.00670E-03-1.38019E+00 1.38716E-15 2.60720E-14
 -1      2460 2.20293E+01 1.17477E-01 7.75066E-03-1.56367E+00 2.54973E-14 1.71240E-14
 -1      2461 2.21807E+01-4.37873E-01-4.75182E-03-9.87794E-01 1.76604E-13-1.37027E-13
 -1      2462 2.19966E+01-3.49196E-01-2.75969E-03-1.15580E+00 7.14880E-14-1.06933E-13
 -1      2463 2.23013E+01-3.72217E-01 1.12759E-02-1.37897E+00 7.53388E-14-1.03900E-13
 -1      2464 2.22706E+01-4.82487E-01-1.64116E-03-5.29933E-01 6.97957E-14-6.45356E-14
 -1      2465 2.21694E+01-4.81098E-01-1.03856E-02-7.34245E-01 1.76362E-13-8.13731E-14
 -1      2466 2.23749E+01-6.26046E-01 7.66395E-03-9.18751E-01 1.03396E-13-3.09793E-14
 -1      2467 2.21973E+01-4.06735E-01 3.76571E-04-1.00427E-01-1.30227E-13-4.73185E-14
 -1      2468 2.21798E+01-4.56488E-01-1.27657E-02-2.83365E-01-2.92574E-14-3.09211E-14
 -1      2469 2.22700E+01-6.47675E-01 3.00727E-03-3.91838E-01-1.45457E-15 5.79060E-14
 -1      2470 2.20164E+01-2.83185E-01 1.20507E-03 2.25711E-01-1.46657E-13-1.05994E-13
 -1      2471 2.20665E+01-3.49059E-01-1.12910E-02 9.10255E-02-1.67132E-13-1.12863E-13
 -1      2472 2.20545E+01-5.25986E-01 7.74192E-05 6.08153E-02-9.52105E-14-7.04245E-14
 -1      2473 2.17780E+01-1.60472E-01 1.32566E-03 4.31447E-01-7.27480E-14-5.79162E-14
 -1      2474 2.18739E+01-2.21153E-01-8.21784E-03 3.49457E-01-9.37657E-14-1.52480E-13
 -1      2475 2.17908E+01-3.54313E-01-1.45031E-03 3.82584E-01-5.18301E-14-1.84016E-13
 -1      2476 2.15193E+01-6.22714E-02 1.19563E-03 5.31696E-01-1.82170E-14 4.56536E-15
 -1      2477 2.16403E+01-1.08573E-01-4.89795E-03 4.94442E-01-3.58231E-14-2.86951E-14
 -1      2478 2.15196E+01-1.91552E-01-1.97208E-03 5.70799E-01-1.03023E-13-1.42490E-13
 -1      2479 2.12649E+01 5.44111E-03 1.02567E-03 5.53649E-01-8.22281E-14 1.54513E-13
 -1      2480 2.13942E+01-2.51939E-02-2.08153E-03 5.48846E-01-1.60176E-14 5.62749E-14
 -1      2481 2.12636E+01-6.47629E-02-1.96161E-03 6.49499E-01-6.73876E-14-1.63686E-13
 -1      2482 2.10291E+01 4.60074E-02 8.84061E-04 5.24737E-01-8.75734E-14 2.18508E-13
 -1      2483 2.11551E+01 2.85571E-02-3.90663E-05 5.40506E-01-1.08746E-13 2.36774E-13
 -1      2484 2.10327E+01 2.07468E-02-1.78716E-03 6.50448E-01-1.46375E-13-2.83054E-14
 -1      2485 2.08195E+01 6.60068E-02 7.77645E-04 4.67382E-01-7.44714E-14 4.10751E-13
 -1      2486 2.09348E+01 5.81948E-02 1.25695E-03 4.94222E-01-3.19366E-14 3.51399E-13
 -1      2487 2.08306E+01 7.06517E-02-1.59930E-03 6.02831E-01-1.31047E-13 7.05097E-14
 -1      2488 2.06392E+01 7.20616E-02 6.93662E-04 3.97797E-01 6.03635E-15 3.16246E-13
 -1      2489 2.07401E+01 7.05911E-02 1.95242E-03 4.28964E-01-4.32336E-15 3.92431E-13
 -1      2490 2.06575E+01 9.40790E-02-1.43419E-03 5.29498E-01-5.62288E-14 2.92158E-13
 -1      2491 2.04884E+01 6.95727E-02 6.19768E-04 3.26620E-01 6.24988E-14 3.67744E-13
 -1      2492 2.05734E+01 7.18582E-02 2.21656E-03 3.57779E-01-9.36284E-15 3.98254E-13
 -1      2493 2.05119E+01 9.98195E-02-1.28813E-03 4.46561E-01 8.12881E-16 3.27629E-13
 -1      2494 2.03652E+01 6.24677E-02 5.49088E-04 2.60151E-01 9.19074E-14 4.68864E-13
 -1      2495 2.04348E+01 6.66768E-02 2.19975E-03 2.88809E-01 1.25215E-13 4.24327E-13
 -1      2496 2.03917E+01 9.49017E-02-1.15080E-03 3.64383E-01 6.10845E-15 4.46871E-13
 -1      2497 2.02668E+01 5.33787E-02 4.79564E-04 2.01611E-01 1.72293E-13 3.43540E-13
 -1      2498 2.03222E+01 5.83098E-02 2.01907E-03 2.26559E-01 1.28234E-13 4.49572E-13
 -1      2499 2.02942E+01 8.43754E-02-1.01592E-03 2.88961E-01 1.30739E-13 5.77635E-13
 -1      2500 2.01899E+01 4.39437E-02 4.11857E-04 1.52187E-01 4.40870E-13 2.90530E-13
 -1      2501 2.02330E+01 4.88667E-02 1.75788E-03 1.73047E-01 2.88537E-13 3.45618E-13
 -1      2502 2.02165E+01 7.15910E-02-8.82436E-04 2.23223E-01 3.21334E-13 5.35675E-13
 -1      2503 2.01311E+01 3.50975E-02 3.47633E-04 1.11818E-01 5.04970E-13 2.67135E-13
 -1      2504 2.01637E+01 3.96095E-02 1.47123E-03 1.28712E-01 5.40239E-13 3.82350E-13
 -1      2505 2.01557E+01 5.86111E-02-7.52623E-04 1.68087E-01 5.06650E-13 4.25359E-13
 -1      2506 2.00872E+01 2.73055E-02 2.88537E-04 7.97480E-02 2.72712E-13 3.39391E-13
 -1      2507 2.01113E+01 3.12189E-02 1.19270E-03 9.30624E-02 4.30777E-13 2.91143E-13
 -1      2508 2.01091E+01 4.65934E-02-6.29885E-04 1.23247E-01 4.87312E-13 5.38673E-13
 -1      2509 2.00551E+01 2.07363E-02 2.35713E-04 5.48905E-02 1.43499E-14 9.06461E-14
 -1      2510 2.00724E+01 2.39972E-02 9.40670E-04 6.51312E-02 1.88212E-13 3.41676E-13
 -1      2511 2.00739E+01 3.60962E-02-5.17321E-04 8.77293E-02 2.67458E-13 6.51108E-13
 -1      2512 2.00324E+01 1.53811E-02 1.89666E-04 3.60645E-02-2.22209E-13 7.41740E-14
 -1      2513 2.00444E+01 1.80141E-02 7.23408E-04 4.37604E-02-8.25238E-14 5.04155E-14
 -1      2514 2.00481E+01 2.73007E-02-4.17036E-04 6.02551E-02 3.83138E-14 3.75137E-13
 -1      2515 2.00168E+01 1.11341E-02 1.50299E-04 2.21307E-02-1.15436E-13-2.64516E-14
 -1      2516 2.00248E+01 1.32050E-02 5.42787E-04 2.77805E-02-2.37572E-13-2.16379E-14
 -1      2517 2.00296E+01 2.01656E-02-3.29985E-04 3.94778E-02-1.49872E-13 3.86878E-13
 -1      2518 2.00067E+01 7.84199E-03 1.16976E-04 1.20671E-02 2.39085E-14 7.40107E-14
 -1      2519 2.00117E+01 9.43572E-03 3.96944E-04 1.61106E-02-2.41503E-14-4.81651E-14
 -1      2520 2.00167E+01 1.45291E-02-2.56133E-04 2.41184E-02-2.56839E-14 1.27169E-13
 -1      2521 2.00006E+01 5.33513E-03 8.86499E-05 5.00374E-03 2.16967E-14-2.52198E-14
 -1      2522 2.00034E+01 6.54167E-03 2.82058E-04 7.81013E-03 5.00162E-14 3.05649E-14
 -1      2523 2.00081E+01 1.01724E-02-1.94717E-04 1.30404E-02 3.83472E-14 3.14816E-13
 -1      2524 1.99973E+01 3.44394E-03 6.40175E-05 2.34054E-04 1.97098E-13-1.85197E-13
 -1      2525 1.99986E+01 4.35130E-03 1.93486E-04 2.09836E-03 1.73807E-13-3.29955E-14
 -1      2526 2.00027E+01 6.85907E-03-1.44447E-04 5.28336E-03 1.61774E-13-3.21268E-14
 -1      2527 1.99959E+01 2.00575E-03 4.14348E-05-2.78874E-03 1.24672E-13-1.76792E-13
 -1      2528 1.99962E+01 2.69804E-03 1.26479E-04-1.64318E-03 7.76563E-14-1.60541E-13
 -1      2529 1.99996E+01 4.35520E-03-1.03877E-04 7.19494E-05 1.28097E-13-1.69578E-13
 -1      2530 1.99959E+01 8.65408E-04 2.15798E-05-4.45821E-03-2.18341E-14-8.81458E-14
 -1      2531 1.99955E+01 1.42159E-03 7.67935E-05-3.87811E-03 1.15258E-13-4.99742E-14
 -1      2532 1.99981E+01 2.43603E-03-7.17667E-05-3.19179E-03 1.16469E-13 4.93250E-14
 -1      2533 1.99966E+01-1.39541E-04 1.92963E-06-5.03113E-03 2.05459E-14-4.82056E-14
 -1      2534 1.99959E+01 3.57833E-04 3.83904E-05-4.93078E-03 2.01032E-15-1.14793E-13
 -1      2535 1.99977E+01 8.99269E-04-4.47976E-05-4.93813E-03-1.39000E-14 9.67435E-14
 -1      2536 1.99977E+01-1.11951E-03-1.80058E-05-4.63890E-03-7.21732E-14-1.04078E-13
 -1      2537 1.99969E+01-6.12924E-04 1.90818E-05-4.96266E-03 1.52897E-14-5.95118E-14
 -1      2538 1.99979E+01-5.25163E-04-2.73696E-05-5.47072E-03 2.27023E-14 4.90607E-14
 -1      2539 1.99981E+01-1.62682E-03 3.02554E-06-4.06058E-03-1.47728E-13-1.13370E-13
 -1      2540 2.00013E+01-4.16497E-03 9.79079E-07-3.18248E-03-5.42360E-14 1.00745E-13
 -1      2541 2.00012E+01-3.77484E-03 1.88914E-05-3.68229E-03 5.05002E-14-2.60511E-13
 -1      2542 2.00014E+01-4.34753E-03 2.24681E-06-2.06228E-03-1.43718E-13 3.06021E-13
 -1      2543 2.00014E+01-4.08192E-03 2.07957E-05-2.60916E-03-1.22013E-13 1.63196E-13
 -1      2544 2.00018E+01-1.71870E-03 5.85279E-06-3.00292E-03 8.64846E-14 6.61056E-14
 -1      2545 2.00004E+01-3.24289E-03 7.97806E-06-4.91934E-03-1.37477E-13-3.11211E-14
 -1      2546 1.99999E+01-2.62994E-03-1.15903E-05-5.05164E-03-1.12708E-13-3.33922E-14
 -1      2547 2.00010E+01-3.81106E-03 2.58005E-06-4.19444E-03-1.00436E-13-3.80921E-13
 -1      2548 2.00008E+01-3.31075E-03 1.08785E-05-4.56148E-03-1.58207E-13-1.88270E-13
 -1      2549 2.00008E+01-1.84357E-03-2.40185E-06-5.00988E-03-2.33571E-13-2.53301E-13
 -1      2550 2.00015E+01-1.84872E-03-4.49952E-07-4.11657E-03 1.55872E-13-1.74396E-13
 -1      2551 2.00014E+01-4.41511E-03 6.89712E-06-9.25380E-04-1.64444E-13 4.33573E-14
 -1      2552 2.00014E+01-4.27628E-03 1.78761E-05-1.48318E-03-1.35983E-13 1.57536E-13
 -1      2553 2.00019E+01-1.56576E-03 1.14251E-05-1.82954E-03-6.02701E-14 3.17283E-13
 -1      2554 2.00014E+01-4.40959E-03 1.35050E-05 2.11970E-04-2.63902E-13 1.18442E-13
 -1      2555 2.00014E+01-4.39764E-03 1.20575E-05-3.50967E-04-2.58639E-13 1.52809E-13
 -1      2556 2.00020E+01-1.47961E-03 1.46530E-05-6.63453E-04-6.21098E-14 4.43228E-14
 -1      2557 2.00015E+01-4.34296E-03 1.98000E-05 1.36729E-03-2.84591E-13-7.50541E-14
 -1      2558 2.00015E+01-4.45952E-03 6.10181E-06 7.94993E-04-3.71950E-13 9.17270E-14
 -1      2559 2.00020E+01-1.51022E-03 1.45690E-05 5.04036E-04-7.28647E-14 3.67084E-14
 -1      2560 2.00015E+01-4.19372E-03 2.28795E-05 2.52387E-03 9.73482E-14-6.68017E-14
 -1      2561 2.00015E+01-4.44075E-03 2.15115E-06 1.96136E-03-7.08372E-14-1.94673E-13
 -1      2562 2.00020E+01-1.65119E-03 1.16427E-05 1.69472E-03-6.83881E-15-6.18010E-14
 -1      2563 2.00013E+01-3.91593E-03 1.66149E-05 3.66898E-03 2.70924E-13 3.86235E-13
 -1      2564 2.00014E+01-4.29417E-03 2.06747E-06 3.13564E-03 2.34111E-13 1.05836E-13
 -1      2565 2.00019E+01-1.84750E-03 5.01143E-06 2.92258E-03 2.96004E-13 1.23604E-13
 -1      2566 2.00008E+01-3.45483E-03 3.37693E-06 4.61430E-03 2.17542E-13 2.55587E-13
 -1      2567 2.00011E+01-3.93850E-03 6.98340E-06 4.21156E-03 2.29603E-13 3.85264E-13
 -1      2568 2.00016E+01-1.98852E-03-8.12491E-06 4.12660E-03 2.23917E-13 2.92967E-13
 -1      2569 1.99999E+01-2.74237E-03-8.69022E-06 5.12703E-03-1.16434E-13-3.12988E-13
 -1      2570 2.00004E+01-3.34750E-03 8.41522E-06 5.00380E-03 8.83877E-14-1.51870E-13
 -1      2571 2.00009E+01-1.97331E-03-5.05075E-06 5.07794E-03 8.75328E-14-6.12960E-14
 -1      2572 1.82780E+01-5.28765E+00-2.21469E-02 6.83658E+00-4.32432E-14 6.31564E-13
 -1      2573 1.40927E+01-5.09719E+00 7.18944E-02 6.88879E+00-2.89768E-14 5.90361E-13
 -1      2574 1.99988E+01-2.41525E-03 8.19898E-06 4.69319E-03-1.65182E-13 2.01007E-13
 -1      2575 3.62888E+00-2.40423E+00 1.06899E-01-8.84603E-01 8.04599E-14 7.98139E-13
 -1      2576 4.90475E+00-3.02191E+00 9.45140E-02-3.38878E+00 1.71474E-13 7.13207E-13
 -1      2577 2.04933E+01 2.06175E-01 5.26982E-03-3.77095E-01 1.02729E-13 1.67402E-13
 -1      2578 2.04682E+01 2.59702E-01 1.28313E-02-2.62980E-01 1.18407E-13 1.95002E-13
 -1      2579 2.05453E+01 2.64622E-01-5.42983E-03-4.71325E-01 1.04575E-13 9.72640E-14
 -1      2580 4.49410E+00-2.90578E+00 7.45201E-02 3.60666E+00 8.46823E-14 8.08797E-13
 -1      2581 3.56507E+00-2.50130E+00 1.03483E-01 1.62352E+00 2.56045E-14 8.95284E-13
 -1      2582 2.49795E+01-4.42625E+00-7.90398E-02 4.59588E+00 2.07806E-13 4.80227E-13
 -1      2583 2.20437E+01-5.11589E+00 2.46248E-02 5.45418E+00 5.58165E-14 6.20823E-13
 -1      2584 1.34938E+01-5.19932E+00 5.54592E-02-6.54050E+00 4.53332E-13 4.62949E-13
 -1      2585 1.72612E+01-5.53326E+00 4.09977E-02-6.57928E+00 2.98983E-13 2.48045E-13
 -1      2586 3.29373E+01 6.97583E+00-1.69629E-01-5.25595E-01-1.03950E-12 9.19265E-14
 -1      2587 3.36032E+01 6.01631E+00-8.84098E-02-9.77846E-01-9.97036E-13 2.49245E-14
 -1      2588 1.91053E+01 3.92529E+00-9.30681E-03-1.84059E-01 3.33555E-14-3.29238E-13
 -1      2589 1.91457E+01 3.90032E+00-8.41933E-03-3.11280E-01-1.18444E-15-3.24770E-13
 -1      2590 1.92972E+01 3.55996E+00 1.57088E-03-3.17067E-01-1.25577E-14-2.93659E-13
 -1      2591 1.92125E+01 3.63213E+00 1.24307E-03-1.23678E-01 3.36564E-14-3.08388E-13
 -1      2592 3.18948E+01 6.97953E+00-1.44273E-01-6.71607E-01 8.61922E-13 1.01197E-13
 -1      2593 3.15925E+01 6.10450E+00-1.10720E-01-1.07615E+00 8.46101E-13-8.93730E-15
 -1      2594 2.96489E+00-3.04925E+00 5.62504E-02 6.27621E-01-1.92603E-13-9.44966E-13
 -1      2595 3.37934E+00-2.85291E+00 5.57686E-02-1.98856E+00-1.81410E-13-8.03357E-13
 -1      2596 3.17870E+01 3.90794E+00-1.61719E-01-9.17929E-01 7.81986E-13-6.73905E-14
 -1      2597 3.09058E+01 1.57311E+00-4.70762E-02-2.51712E-01 6.35159E-13-4.92939E-14
 -1      2598 3.22543E+01 7.33871E+00-1.45674E-01 3.78516E-01 5.73930E-13 2.98234E-13
 -1      2599 3.22226E+01 7.65039E+00-1.23457E-01-9.79016E-02 7.66498E-13 2.12021E-13
 -1      2600 2.63743E+01-3.73323E+00-1.90725E-02-3.59801E+00 5.64548E-14 2.65399E-13
 -1      2601 2.88627E+01-2.23920E+00-4.29072E-02-2.59201E+00 1.75429E-13 2.40752E-13
 -1      2602 1.08434E+01-4.89717E+00 5.21205E-02-6.67516E+00-3.30791E-13-5.01904E-13
 -1      2603 1.41074E+01-5.10527E+00 7.60363E-03-7.14805E+00-3.44780E-13-4.72206E-13
 -1      2604 5.29742E+00-3.39520E+00 1.00327E-01-4.28420E+00-2.53575E-13-6.16673E-13
 -1      2605 7.69529E+00-4.11921E+00 3.06834E-02-6.00823E+00-2.28872E-13-5.48034E-13
 -1      2606 1.07542E+01-3.68768E+00 1.45589E-01-6.27940E+00-3.77365E-13-4.61658E-13
 -1      2607 6.25729E+00-3.57615E+00 5.87530E-02 4.79881E+00-7.78821E-14-7.63944E-13
 -1      2608 4.16814E+00-3.23639E+00 8.70695E-02 2.73211E+00-5.89806E-14-8.80518E-13
 -1      2609 1.33723E+01-5.29717E+00 5.76076E-03 6.88641E+00-9.37028E-14-6.40432E-13
 -1      2610 9.73447E+00-4.68552E+00 6.45198E-02 6.09040E+00-4.48253E-14-6.79123E-13
 -1      2611 2.10857E+01-5.63070E+00-4.27928E-02 6.01085E+00-8.35443E-14-4.00555E-13
 -1      2612 1.71834E+01-5.80827E+00 1.08846E-02 6.37753E+00-3.28626E-14-4.89176E-13
 -1      2613 2.78835E+01-3.91836E+00-8.18567E-02 3.24355E+00-1.73306E-13-3.03035E-13
 -1      2614 2.46682E+01-5.09136E+00-1.60022E-02 4.32811E+00-3.73590E-14-3.43475E-13
 -1      2615 3.22695E+01 6.09057E-02-8.74119E-02 3.52671E-01-6.66509E-13-2.66454E-15
 -1      2616 3.01156E+01-1.86050E+00-2.44737E-02 1.40274E+00-4.36557E-13-1.48881E-13
 -1      2617 3.36788E+01 4.26487E+00-1.24276E-01-1.07225E+00-8.99752E-13 5.61495E-14
 -1      2618 3.28883E+01 2.42831E+00-5.85493E-02-8.42047E-01-8.17735E-13 3.15858E-14
 -1      2619 3.29559E+01 6.33064E+00-1.44959E-01 1.12458E+00-8.53595E-13-8.29337E-14
 -1      2620 3.28599E+01 6.98345E+00-1.43259E-01 4.65879E-01-9.53182E-13-6.76507E-14
 -1      2621 3.22947E+01 3.02816E+00-1.19550E-01 1.51636E+00-7.36605E-13-3.04978E-13
 -1      2622 3.32052E+01 5.06630E+00-1.04789E-01 1.43843E+00-7.94143E-13-1.49158E-13
 -1      2623 3.06700E+01-1.26046E+00-8.14027E-02 2.58650E-01-3.11480E-13-3.86191E-13
 -1      2624 3.15577E+01 2.99819E-01-1.75019E-01 9.69557E-01-4.89789E-13-4.42368E-13
 -1      2625 2.65641E+01-4.46886E+00-1.76573E-02-3.12996E+00 4.10783E-14-7.07490E-14
 -1      2626 2.95106E+01-3.01540E+00-1.16021E-01-1.55035E+00-1.35801E-13-2.49634E-13
 -1      2627 2.94182E+01-2.69082E+00-1.47055E-02 1.13453E-01 2.29556E-14-5.10925E-13
 -1      2628 1.99046E+01-5.75282E+00-1.31217E-02-5.78231E+00 3.08836E-13 1.85546E-13
 -1      2629 2.30813E+01-5.41194E+00-7.17060E-02-5.18210E+00 2.04281E-13 8.75688E-14
 -1      2630 1.98533E+01-5.56475E+00 8.31039E-02-5.78460E+00 6.07236E-13 5.66283E-14
 -1      2631 9.85559E+00-4.26926E+00 1.55093E-02 6.71266E+00-2.45359E-14 7.65471E-13
 -1      2632 6.74559E+00-3.56540E+00 9.96319E-02 5.18861E+00-7.67164E-14 8.64919E-13
 -1      2633 6.45091E+00-3.64204E+00 8.07744E-02-4.52842E+00 3.77698E-13 6.27220E-13
 -1      2634 8.89004E+00-3.99999E+00 5.52852E-02-5.72202E+00 4.89331E-13 5.46230E-13
 -1      2635 7.21587E+00-2.12793E+00 1.64963E-01-3.70105E+00 3.25462E-13 5.40457E-13
 -1      2636 2.08287E+01 2.00664E+00-1.18782E-02-1.54457E+00-2.26267E-13-2.75197E-14
 -1      2637 2.07658E+01 1.29313E+00-2.79030E-03-9.00544E-01-2.07899E-13 1.00185E-14
 -1      2638 2.06626E+01 1.48834E+00-5.47772E-04-7.83933E-01-1.85776E-13-7.54175E-14
 -1      2639 2.05101E+01 2.43941E+00-1.06860E-02-1.45008E+00-2.22264E-13-9.79425E-14
 -1      2640 2.08658E+01 8.92936E-01-4.68496E-03 9.44295E-01 2.65930E-13 2.97215E-13
 -1      2641 2.11541E+01 1.26210E+00-5.14314E-03 1.45505E+00 2.74777E-13 3.39012E-13
 -1      2642 2.09447E+01 1.72387E+00-1.58386E-02 1.62282E+00 3.07425E-13 2.41845E-13
 -1      2643 2.07989E+01 1.09487E+00-1.00210E-02 8.99806E-01 2.61024E-13 1.80838E-13
 -1      2644 2.95401E+01-1.46808E+00-1.50652E-01 1.22644E+00 4.08316E-13-2.75335E-14
 -1      2645 2.74050E+01-3.18754E+00-1.82525E-02 2.55591E+00 2.85869E-13 1.08247E-13
 -1      2646 3.00020E+01 4.41248E+00-8.64474E-02-1.50314E+00 6.78346E-13-2.41251E-13
 -1      2647 1.97702E+01 3.09970E+00 2.85014E-03-7.39629E-01-1.33227E-13-2.50102E-13
 -1      2648 1.97066E+01 3.37355E+00-1.60915E-02-9.39156E-01-1.43169E-13-2.63852E-13
 -1      2649 1.98888E+01 3.20913E+00-1.54707E-02-1.10755E+00-1.74419E-13-2.23569E-13
 -1      2650 2.05433E+01 4.21764E-01-5.08852E-03-1.58760E-01 1.49672E-13 1.03182E-13
 -1      2651 2.06838E+01 2.14297E+00-1.26693E-02 1.55278E+00 3.05770E-13 1.18126E-13
 -1      2652 2.93988E+01-4.61433E-01-4.33004E-02-4.52162E-01 3.00593E-13-3.48666E-13
 -1      2653 3.09421E+01 5.07764E+00-6.78014E-02 1.73325E+00-7.13374E-13-4.04482E-13
 -1      2654 3.14000E+01 4.64054E+00-5.47541E-02-1.76439E+00-8.79213E-13 2.42917E-13
 -1      2655 3.14967E+01 7.28254E-01-3.07616E-03-1.27655E+00-6.19671E-13 1.57846E-13
 -1      2656 3.10384E+01 2.69378E+00-7.26406E-02 1.00223E+00 4.27020E-13 5.31991E-13
 -1      2657 2.89084E+01-3.43589E+00-3.25758E-02 1.32976E+00-1.23138E-13 2.02061E-14
 -1      2658 2.38540E+01-5.61136E+00 3.33003E-02 4.52949E+00 1.21236E-13-2.49745E-13
 -1      2659 1.69685E+01-5.22042E+00 1.08668E-01 6.38122E+00 1.50158E-13-4.11809E-13
 -1      2660 1.99985E+01-1.81248E-03-1.70410E-05-4.84099E-03-1.01988E-13 1.42834E-13
 -1      2661 1.99991E+01-2.23652E-03 1.12664E-05-5.04634E-03-1.29577E-13 1.93244E-14
 -1      2662 5.92175E+00-2.13604E+00 1.62740E-01-3.05551E+00-2.72476E-13-7.26919E-13
 -1      2663 1.36539E+01-4.17650E+00 1.36893E-01 6.63863E+00-2.79415E-13 5.71612E-13
 -1      2664 2.09982E+01-5.24988E+00 8.61975E-02 5.71527E+00-1.20792E-13 6.03351E-13
 -1      2665 1.99983E+01-1.41381E-03-1.42785E-05 5.06547E-03-2.57728E-13 1.47929E-13
 -1      2666 1.99994E+01-2.39966E-03-8.01410E-06 5.33005E-03-1.81130E-13-1.90067E-14
 -1      2667 1.99997E+01-1.51091E-03 1.45325E-05 5.57918E-03-2.74589E-13-6.71376E-14
 -1      2668 1.99979E+01-8.85917E-04 1.27033E-05 5.44577E-03-2.93460E-13 1.44591E-13
 -1      2669 5.47187E+00-1.82981E+00 1.73084E-01 1.68648E+00-6.74807E-14-8.87707E-13
 -1      2670 5.28465E+00-1.47095E+00 1.72505E-01 1.76193E-01 7.17031E-14 9.09550E-13
 -1      2671 2.06781E+01 1.86683E+00 1.20311E-02 1.20756E+00 2.85799E-13 8.56476E-14
 -1      2672 7.47810E+00-2.33645E+00 1.65705E-01 4.52939E+00-1.01544E-13 8.19317E-13
 -1      2673 2.50127E+01-4.73008E+00 8.05038E-03-4.33641E+00-1.00947E-13 2.47719E-13
 -1      2674 2.62700E+01-4.47207E+00-6.33995E-02-2.82516E+00-1.53814E-13 3.69996E-13
 -1      2675 2.33291E+01-5.15459E+00 9.73208E-02-4.90075E+00-2.96138E-13 2.10984E-13
 -1      2676 2.00673E+01 2.98268E+00-1.70422E-02-1.20544E+00-1.91722E-13-1.91432E-13
 -1      2677 2.02936E+01 2.72598E+00-2.08336E-02-1.36925E+00-2.22701E-13-1.55707E-13
 -1      2678 2.04721E+01 2.19105E+00 6.67831E-03-1.06951E+00-2.06195E-13-1.25524E-13
 -1      2679 2.01150E+01 2.70407E+00 5.63481E-03-9.34275E-01-1.74780E-13-1.86132E-13
 -1      2680 2.56214E+01-5.16102E+00 5.67265E-02-3.33466E+00 3.76033E-13-1.72820E-13
 -1      2681 3.07401E+01 1.41773E+00-4.38269E-02 2.26766E+00-4.15473E-13-5.23720E-13
 -1      2682 3.13512E+01 6.51523E+00-1.14530E-01 8.44537E-01 4.91357E-13 2.60292E-13
 -1      2683 2.90651E+01 6.70865E+00-1.40017E-01 8.13141E-01 5.20639E-13 1.55209E-13
 -1      2684 2.97753E+01 5.64350E+00-1.26126E-01 1.33652E+00 4.43312E-13 3.17482E-13
 -1      2685 3.09343E+01 6.50050E+00-6.22235E-02-1.21357E-01-9.10938E-13-9.00460E-14
 -1      2686 1.23148E+01-4.20257E+00 1.25697E-01-6.16879E+00 5.69655E-13 5.09370E-13
 -1      2687 1.54972E+01-4.35730E+00 9.68642E-03-6.10218E+00 5.93109E-13 2.56295E-13
 -1      2688 1.14107E+01-2.82317E+00 1.50092E-01-5.51439E+00 4.96492E-13 4.29157E-13
 -1      2689 2.65645E+01-4.06180E+00 4.55051E-02 2.72771E+00 4.18138E-14 2.11775E-14
 -1      2690 2.92127E+01-1.77786E+00-3.36708E-02-8.32592E-01 1.73977E-13 3.96405E-13
 -1      2691 1.71543E+01-5.26594E+00 9.40531E-02-6.81704E+00-3.91076E-13-3.18971E-13
 -1      2692 1.97674E+01-5.47345E+00-5.45887E-02-6.06600E+00-4.24244E-13-6.75068E-14
 -1      2693 1.63835E+01-4.66866E+00 1.51562E-01-6.76404E+00-4.83613E-13-2.92488E-13
 -1      2694 2.98842E+01 6.97957E+00-9.75297E-02-5.75713E-01 7.52176E-13 1.39541E-14
 -1      2695 9.77553E+00-3.36844E+00 1.30801E-01 5.44018E+00 6.85563E-14-6.98441E-13
 -1      2696 1.99993E+01-1.46621E-03-1.06260E-06-5.43865E-03-1.74583E-13 1.19742E-13
 -1      2697 1.99989E+01-7.12841E-04-3.46599E-05 5.71003E-03-3.09388E-13-3.23584E-13
 -1      2698 1.94494E+01 3.15392E+00-4.70249E-03 2.53440E-01 1.22833E-13-2.21803E-13
 -1      2699 1.93657E+01 3.22728E+00-6.89645E-03 1.53142E-01 9.27061E-14-2.44719E-13
 -1      2700 1.93047E+01 3.29678E+00-4.62404E-03 8.49323E-02 8.01053E-14-2.81640E-13
 -1      2701 1.92673E+01 3.32746E+00-6.20585E-03-8.16331E-03 5.94531E-14-2.85853E-13
 -1      2702 1.94233E+01 2.98733E+00 5.01871E-03 6.43864E-02 6.71260E-14-2.48433E-13
 -1      2703 1.99793E+01 2.55327E+00-8.56000E-03 6.41491E-01 2.33311E-13-1.12312E-13
 -1      2704 1.98220E+01 2.73624E+00-7.86961E-03 5.26501E-01 2.09885E-13-1.29254E-13
 -1      2705 2.03356E+01 2.05443E+00-9.93683E-03 8.11385E-01 2.59912E-13-4.82342E-14
 -1      2706 2.01522E+01 2.32483E+00-6.36067E-03 7.18705E-01 2.41184E-13-8.08455E-14
 -1      2707 2.01605E+01 2.11889E+00 6.19909E-03 4.79418E-01 2.10017E-13-6.93874E-14
 -1      2708 2.05889E+01 8.33495E-01-1.23272E-03 1.95743E-01 1.80901E-13 6.59501E-14
 -1      2709 2.06760E+01 1.04338E+00 9.42320E-03 4.91925E-01 2.07400E-13 7.53479E-14
 -1      2710 9.46093E+00-2.12804E+00 5.83091E-02 5.24687E+00-2.62346E-13 6.18228E-13
 -1      2711 7.51822E+00-1.26211E+00 1.54272E-01 3.48112E+00-8.45157E-14 6.36546E-13
 -1      2712 2.06036E+01 1.57804E+00-1.04805E-03 8.86839E-01 2.57911E-13 6.07691E-14
 -1      2713 2.05279E+01 1.74641E+00-7.33242E-03-7.82309E-01-1.88881E-13-1.21039E-13
 -1      2714 2.05527E+01 1.40489E+00 2.63265E-03-4.67176E-01-1.78678E-13-1.16715E-13
 -1      2715 2.03601E+01 2.04210E+00-3.01298E-03-7.54772E-01-1.79565E-13-1.48857E-13
 -1      2716 2.05014E+01 9.15796E-01 5.57895E-03 2.29127E-01-1.31666E-13-1.03817E-13
 -1      2717 2.04777E+01 8.03586E-01 6.52174E-04 4.66300E-01-1.27456E-13-1.11105E-13
 -1      2718 2.04505E+01 7.23140E-01 4.13696E-03 6.74857E-01-1.04718E-13-9.09021E-14
 -1      2719 2.04624E+01 6.63692E-01 2.23887E-03 8.66640E-01-8.00020E-14-1.06141E-13
 -1      2720 2.03443E+01 9.47846E-01-1.42660E-03 5.54887E-01-1.18213E-13-1.11105E-13
 -1      2721 2.04342E+01 6.20370E-01 2.05680E-03 1.04785E+00-7.36683E-14-7.73539E-14
 -1      2722 2.04826E+01 5.85066E-01 3.51558E-03 1.21179E+00-8.02562E-14-7.04903E-14
 -1      2723 2.02816E+01 7.97475E-01-1.38004E-03 9.57386E-01-8.64366E-14-1.08424E-13
 -1      2724 2.04610E+01 5.51635E-01 6.73935E-04 1.37621E+00-7.16225E-14-8.47369E-14
 -1      2725 2.05450E+01 5.14849E-01 4.36857E-03 1.52027E+00-6.34650E-14-1.19608E-13
 -1      2726 2.02301E+01 7.04074E-01-1.26137E-03 1.31255E+00-7.50686E-14-1.37464E-13
 -1      2727 2.05398E+01 4.65299E-01 5.48413E-04 1.67418E+00-5.40743E-14-1.36307E-13
 -1      2728 2.06639E+01 3.97132E-01 4.92631E-03 1.79631E+00-4.37111E-14-1.47634E-13
 -1      2729 2.02012E+01 6.08564E-01-1.82145E-03 1.63880E+00-7.37281E-14-1.40294E-13
 -1      2730 2.06959E+01 2.99063E-01 2.36077E-03 1.93926E+00 5.81309E-15-1.05024E-13
 -1      2731 2.08750E+01 1.60900E-01 5.23786E-03 2.02561E+00 3.75006E-14-7.18452E-14
 -1      2732 2.02180E+01 4.42110E-01-4.13350E-03 1.94544E+00 1.40680E-14-1.33895E-13
 -1      2733 2.09864E+01-2.64897E-02 7.42869E-03 2.14671E+00 4.67004E-14-4.72897E-14
 -1      2734 2.12505E+01-2.81052E-01 5.05221E-03 2.16810E+00 6.86066E-14 2.23662E-14
 -1      2735 2.03332E+01 1.16739E-01-9.47610E-03 2.22821E+00 7.12436E-14-6.79765E-14
 -1      2736 2.15168E+01-5.99966E-01 1.77117E-02 2.23670E+00 8.31978E-14 5.05909E-14
 -1      2737 2.19072E+01-1.00961E+00 2.87048E-03 2.14320E+00 1.26096E-13 4.49747E-14
 -1      2738 2.06500E+01-4.73830E-01-1.90793E-02 2.45894E+00 9.97876E-14-2.11714E-14
 -1      2739 2.24420E+01-1.47300E+00 3.37410E-02 2.08648E+00 1.66910E-13 6.17904E-14
 -1      2740 2.29873E+01-2.01281E+00-4.87742E-03 1.80497E+00 1.80768E-13 6.94729E-14
 -1      2741 2.13446E+01-1.41947E+00-3.26239E-02 2.55582E+00 1.47398E-13-1.57183E-14
 -1      2742 2.39071E+01-2.52553E+00 4.75824E-02 1.47987E+00 1.98875E-13 4.78151E-14
 -1      2743 2.45599E+01-2.98528E+00-2.41630E-02 9.38663E-01 1.81384E-13 8.55774E-14
 -1      2744 2.26595E+01-2.67182E+00-4.67923E-02 2.32507E+00 1.65689E-13-4.88689E-14
 -1      2745 2.58272E+01-3.15747E+00 3.60554E-02 1.76334E-01 2.02751E-13 1.05610E-13
 -1      2746 2.63991E+01-3.00068E+00-5.10345E-02-5.48738E-01 8.33552E-14 1.77035E-13
 -1      2747 2.47336E+01-3.75606E+00-6.39753E-02 1.43938E+00 2.13562E-13 2.00482E-14
 -1      2748 2.76331E+01-2.08866E+00-2.01602E-02-1.79360E+00-1.25455E-13 3.70134E-13
 -1      2749 2.78227E+01-6.93503E-01-7.49353E-02-2.31652E+00-3.45550E-13 3.90243E-13
 -1      2750 2.86572E+01 8.34481E-01-8.87131E-02 2.48730E+00-2.89838E-13-7.04520E-13
 -1      2751 2.85123E+01-1.10172E+00-9.51274E-02 2.29037E+00-1.18690E-13-6.34492E-13
 -1      2752 2.55512E+01-3.18766E+00-2.11074E-02-1.27153E-01 3.01925E-13-3.66387E-13
 -1      2753 2.48912E+01-2.95763E+00 4.68430E-02-8.06797E-01 3.15663E-13-3.29735E-13
 -1      2754 2.37669E+01-2.51083E+00-1.07748E-02-1.31311E+00 3.09221E-13-2.59726E-13
 -1      2755 2.31630E+01-1.96490E+00 4.34321E-02-1.71430E+00 2.74731E-13-2.99010E-13
 -1      2756 2.36176E+01-3.23375E+00-4.23675E-02-1.85564E+00 3.14579E-13-2.75689E-13
 -1      2757 2.24420E+01-1.45286E+00-1.97691E-03-1.87510E+00 1.78513E-13-2.54607E-13
 -1      2758 2.19866E+01-9.65150E-01 2.44513E-02-2.04512E+00 1.06242E-13-1.67952E-13
 -1      2759 2.19233E+01-1.99063E+00-4.23429E-02-2.35465E+00 2.64776E-13-2.33349E-13
 -1      2760 2.15999E+01-5.71314E-01 3.42877E-03-2.01953E+00-6.62838E-15-1.85403E-13
 -1      2761 2.12860E+01-2.44143E-01 1.13183E-02-2.04151E+00-1.59277E-14-1.69947E-13
 -1      2762 2.09485E+01-8.60441E-01-2.68536E-02-2.36833E+00 3.76093E-14-7.23206E-14
 -1      2763 2.11058E+01-8.07364E-04 4.95457E-03-1.93683E+00 8.11634E-16-2.20872E-13
 -1      2764 2.08935E+01 1.81057E-01 3.72493E-03-1.87630E+00-6.84193E-14-1.48498E-13
 -1      2765 2.04662E+01-1.04217E-01-1.32395E-02-2.17938E+00-1.56294E-14-1.43597E-13
 -1      2766 2.08223E+01 3.06650E-01 5.04721E-03-1.74478E+00-3.06921E-14-6.86475E-14
 -1      2767 2.06720E+01 3.87839E-01-1.08870E-04-1.64426E+00 7.14932E-15 5.93614E-15
 -1      2768 2.02573E+01 3.17729E-01-5.29617E-03-1.91772E+00 3.40369E-15-9.45064E-14
 -1      2769 2.06508E+01 4.36732E-01 4.79674E-03-1.50919E+00-1.29596E-14 9.18484E-14
 -1      2770 2.05365E+01 4.57168E-01-1.78978E-03-1.39483E+00-4.85525E-15 9.02499E-14
 -1      2771 2.01808E+01 5.09469E-01-1.29678E-03-1.64160E+00 8.59949E-14 7.72906E-14
 -1      2772 2.05342E+01 4.61993E-01 4.47169E-03-1.26721E+00-4.04131E-14 8.55072E-14
 -1      2773 2.04418E+01 4.49893E-01-2.32043E-03-1.15421E+00 9.28714E-15-1.02181E-14
 -1      2774 2.01587E+01 5.61457E-01 3.53462E-04-1.37582E+00-3.88358E-14 1.06336E-13
 -1      2775 2.04437E+01 4.32423E-01 4.09997E-03-1.03925E+00 8.64742E-14-3.05381E-14
 -1      2776 2.03665E+01 4.05445E-01-2.28508E-03-9.35725E-01 5.16652E-14 3.79714E-14
 -1      2777 2.01527E+01 5.37538E-01 7.95227E-04-1.13209E+00 2.79850E-14 7.63916E-14
 -1      2778 2.03671E+01 3.78760E-01 3.68216E-03-8.35552E-01 1.06241E-13 2.10584E-13
 -1      2779 2.03018E+01 3.47019E-01-2.00645E-03-7.45127E-01 6.98035E-14 2.79330E-13
 -1      2780 2.01471E+01 4.78013E-01 7.12638E-04-9.15955E-01 1.01062E-13 1.98220E-13
 -1      2781 2.02998E+01 3.18326E-01 3.23222E-03-6.60059E-01 5.90156E-14 2.69398E-13
 -1      2782 2.02450E+01 2.87133E-01-1.65519E-03-5.83664E-01 1.79672E-13 2.33660E-13
 -1      2783 2.01372E+01 4.06287E-01 4.63208E-04-7.29332E-01 1.02870E-13 3.70305E-13
 -1      2784 2.02407E+01 2.60049E-01 2.77368E-03-5.12946E-01 8.04084E-14 2.42917E-13
 -1      2785 2.01954E+01 2.31886E-01-1.31328E-03-4.50003E-01-7.31775E-14 2.09382E-13
 -1      2786 2.01230E+01 3.34893E-01 2.09838E-04-5.71784E-01 1.28571E-13 3.07108E-13
 -1      2787 2.01897E+01 2.07976E-01 2.33034E-03-3.92289E-01-1.37171E-13 1.57685E-13
 -1      2788 2.01528E+01 1.83753E-01-1.01454E-03-3.41461E-01-1.05815E-13 2.47681E-13
 -1      2789 2.01063E+01 2.69859E-01 1.24144E-05-4.41379E-01-1.46626E-13 2.61589E-13
 -1      2790 2.01466E+01 1.63479E-01 1.92028E-03-2.95134E-01-6.13674E-14 3.05817E-13
 -1      2791 2.01171E+01 1.43291E-01-7.68227E-04-2.54790E-01-2.39649E-15 3.51919E-13
 -1      2792 2.00890E+01 2.13540E-01-1.18326E-04-3.35332E-01-7.01997E-15 2.35396E-13
 -1      2793 2.01110E+01 1.26559E-01 1.55441E-03-2.18170E-01-6.16095E-14 3.65474E-13
 -1      2794 2.00879E+01 1.10109E-01-5.72123E-04-1.86641E-01 9.33321E-14 3.98172E-13
 -1      2795 2.00724E+01 1.66338E-01-1.91583E-04-2.50483E-01-2.76183E-14 2.30580E-13
 -1      2796 2.00824E+01 9.65764E-02 1.23740E-03-1.58122E-01 1.03006E-13 1.82252E-13
 -1      2797 2.00645E+01 8.34088E-02-4.19549E-04-1.33844E-01 1.50132E-13-3.74705E-14
 -1      2798 2.00574E+01 1.27691E-01-2.22145E-04-1.83629E-01-1.02276E-13-5.52055E-14
 -1      2799 2.00597E+01 7.26425E-02 9.69303E-04-1.11958E-01 1.84095E-13-1.91729E-13
 -1      2800 2.00463E+01 6.22622E-02-3.02804E-04-9.35365E-02 4.33055E-14-3.69015E-13
 -1      2801 2.00444E+01 9.66249E-02-2.24143E-04-1.31736E-01 1.92365E-14-3.69703E-13
 -1      2802 2.00423E+01 5.38205E-02 7.47219E-04-7.69912E-02 1.77899E-14-3.67494E-13
 -1      2803 2.00323E+01 4.57516E-02-2.14716E-04-6.32262E-02-1.42989E-14-1.94661E-13
 -1      2804 2.00336E+01 7.20394E-02-2.08889E-04-9.20537E-02 4.82671E-14-6.95093E-13
 -1      2805 2.00291E+01 3.92220E-02 5.66626E-04-5.09167E-02 3.14627E-14-1.20449E-13
 -1      2806 2.00219E+01 3.30328E-02-1.49217E-04-4.07999E-02 1.10975E-13-1.29173E-13
 -1      2807 2.00249E+01 5.28571E-02-1.84575E-04-6.21746E-02 5.87268E-14-5.27922E-13
 -1      2808 2.00193E+01 2.80463E-02 4.22296E-04-3.18015E-02 6.40053E-14-4.42756E-14
 -1      2809 2.00143E+01 2.33578E-02-1.01419E-04-2.45054E-02-1.80317E-14 1.64009E-14
 -1      2810 2.00180E+01 3.80889E-02-1.56708E-04-4.00470E-02 2.20135E-14-2.82277E-13
 -1      2811 2.00123E+01 1.95930E-02 3.08910E-04-1.80619E-02-9.60822E-14 1.29219E-13
 -1      2812 2.00089E+01 1.60782E-02-6.74690E-05-1.29215E-02-2.91431E-14-2.00063E-14
 -1      2813 2.00127E+01 2.68583E-02-1.28694E-04-2.39636E-02 8.57818E-14-3.37331E-13
 -1      2814 2.00074E+01 1.32582E-02 2.21419E-04-8.42726E-03-3.30232E-15 1.03772E-14
 -1      2815 2.00052E+01 1.06365E-02-4.44348E-05-4.92053E-03 2.60537E-13-6.99848E-14
 -1      2816 2.00087E+01 1.84044E-02-1.02535E-04-1.25354E-02-3.84290E-16-1.96845E-13
 -1      2817 2.00041E+01 8.52228E-03 1.55604E-04-1.90219E-03 5.12124E-13-2.13885E-13
 -1      2818 2.00027E+01 6.54996E-03-3.05454E-05 3.68746E-04 4.55305E-13-5.75350E-14
 -1      2819 2.00057E+01 1.20704E-02-7.96344E-05-4.65768E-03 2.81496E-13-1.51473E-13
 -1      2820 2.00019E+01 4.93104E-03 1.07365E-04 2.26623E-03 2.72179E-13 5.82383E-15
 -1      2821 2.00012E+01 3.40146E-03-2.13710E-05 3.58796E-03 1.62554E-13-8.07902E-14
 -1      2822 2.00035E+01 7.28309E-03-6.12641E-05 5.23288E-04 3.32124E-13-2.29143E-13
 -1      2823 2.00006E+01 2.07376E-03 6.70683E-05 4.62811E-03-2.05131E-14-2.20967E-13
 -1      2824 2.00003E+01 8.42838E-04-8.75210E-06 5.18869E-03-1.82807E-13-3.07234E-13
 -1      2825 2.00020E+01 3.56637E-03-4.56125E-05 3.64140E-03-1.74680E-14-2.53827E-13
 -1      2826 2.07956E+01 6.50355E-02-4.43580E-04-8.84831E-01 4.82204E-14 4.01641E-14
 -1      2827 2.07037E+01 1.40847E-01 5.03118E-03-8.41904E-01 3.99468E-14 2.46724E-14
 -1      2828 7.09146E+00-1.20723E+00 1.22043E-01 2.63155E+00 1.74236E-14-7.88064E-13
 -1      2829 6.05794E+00-9.05985E-01 1.53759E-01 4.26956E-01-9.45199E-14-7.99194E-13
 -1      2830 2.06459E+01 2.08781E-01 5.79105E-04-7.61436E-01 5.77338E-14 1.74255E-14
 -1      2831 2.05880E+01 2.81308E-01 6.07684E-03-6.74094E-01 8.23524E-14 4.10998E-14
 -1      2832 2.05996E+01 2.29380E-01-4.73317E-03-8.59160E-01 6.05938E-14-2.60113E-14
 -1      2833 2.12781E+01-3.17254E-01-4.96919E-03-8.36176E-01-2.07813E-14 1.97922E-13
 -1      2834 2.11464E+01-2.02076E-01 5.86894E-03-8.99317E-01 1.56513E-14 1.59024E-13
 -1      2835 2.15999E+01-5.67421E-01-8.18400E-03-6.20100E-01 4.87015E-14 1.72766E-13
 -1      2836 2.14653E+01-4.34524E-01 7.00832E-03-7.52430E-01-1.12280E-15 1.95824E-13
 -1      2837 2.12597E+01-4.67165E-01-6.60878E-03-9.34443E-01-2.46298E-15 1.36765E-13
 -1      2838 2.19516E+01-8.16240E-01-1.10548E-02-2.45782E-01 7.29401E-14 1.78629E-13
 -1      2839 2.18317E+01-6.91129E-01 7.57576E-03-4.52485E-01 7.01554E-14 1.78776E-13
 -1      2840 2.16522E+01-7.85323E-01-6.56387E-03-6.94232E-01 5.71603E-14 1.43198E-13
 -1      2841 2.22864E+01-9.73245E-01-1.16797E-02 2.81842E-01 5.70089E-14 2.33912E-13
 -1      2842 2.22058E+01-9.09822E-01 5.95452E-03 1.42021E-02 7.03823E-14 1.96498E-13
 -1      2843 2.21154E+01-1.07921E+00-4.27623E-03-2.72608E-01 4.86294E-14 2.21487E-13
 -1      2844 2.25245E+01-8.97739E-01-7.11220E-03 8.93429E-01 5.63048E-15 3.51343E-13
 -1      2845 2.25091E+01-9.73424E-01-1.10466E-05 6.14010E-01 3.05422E-14 2.89994E-13
 -1      2846 2.25862E+01-1.21821E+00 1.43423E-03 3.27917E-01-4.99492E-16 2.52698E-13
 -1      2847 2.25712E+01-4.57564E-01 3.83062E-03 1.41517E+00 5.44061E-15 3.07250E-13
 -1      2848 2.26341E+01-7.32474E-01-1.03924E-02 1.21952E+00 1.74786E-14 3.64021E-13
 -1      2849 2.29431E+01-1.01933E+00 9.56507E-03 1.01999E+00-8.31813E-15 4.35545E-13
 -1      2850 2.23848E+01 3.40180E-01 1.62529E-02 1.58392E+00 8.44247E-14 2.91503E-13
 -1      2851 2.25044E+01-1.03730E-01-2.19841E-02 1.59006E+00 2.86711E-14 3.15961E-13
 -1      2852 2.30431E+01-3.48819E-01 1.41665E-02 1.57852E+00 3.69427E-14 3.48439E-13
 -1      2853 2.20568E+01 1.22325E+00 1.87360E-02 1.17209E+00 2.35367E-13 2.40002E-13
 -1      2854 2.21734E+01 7.89167E-01-2.58687E-02 1.45033E+00 1.41520E-13 2.72632E-13
 -1      2855 2.28356E+01 7.02811E-01 5.02801E-03 1.67238E+00 1.09624E-13 3.44219E-13
 -1      2856 2.18285E+01 1.71954E+00 6.98307E-03 2.22945E-01 1.40375E-13 2.51631E-13
 -1      2857 2.18713E+01 1.54316E+00-1.27420E-02 7.01382E-01 2.06711E-13 2.00645E-13
 -1      2858 2.24934E+01 1.71617E+00-1.06480E-02 1.06079E+00 1.96785E-13 2.96168E-13
 -1      2859 2.19020E+01 1.50761E+00-1.41027E-02-8.64144E-01 6.74912E-14 1.48423E-13
 -1      2860 2.18374E+01 1.70701E+00 7.23610E-03-3.92716E-01 1.26500E-13 2.30250E-13
 -1      2861 2.23368E+01 2.12753E+00-1.62668E-02-9.30810E-02 1.65976E-13 3.17795E-13
 -1      2862 2.22320E+01 7.33639E-01-2.66633E-02-1.57495E+00 5.50831E-14-9.74915E-16
 -1      2863 2.21009E+01 1.17159E+00 1.76462E-02-1.31353E+00 5.48710E-14 5.63675E-14
 -1      2864 2.25270E+01 1.66111E+00-1.10519E-02-1.22670E+00 1.30232E-13 1.66281E-13
 -1      2865 2.25725E+01-1.39498E-01-2.00155E-02-1.67999E+00 1.56492E-14-1.01707E-14
 -1      2866 2.24422E+01 2.90325E-01 1.50690E-02-1.68682E+00 2.86368E-14-2.78864E-14
 -1      2867 2.28798E+01 6.38337E-01 5.66121E-03-1.79126E+00 5.30483E-14 1.51632E-14
 -1      2868 2.27035E+01-7.35352E-01-7.54304E-03-1.29642E+00 7.61453E-14 1.04612E-14
 -1      2869 2.26303E+01-4.79188E-01 3.43920E-03-1.49649E+00 4.98696E-14-1.84553E-14
 -1      2870 2.30782E+01-3.86944E-01 1.45629E-02-1.66246E+00 5.08657E-14-1.98056E-14
 -1      2871 2.25785E+01-9.45102E-01 8.58509E-04-7.01410E-01 8.67914E-14-8.69197E-14
 -1      2872 2.25832E+01-8.84558E-01-8.38141E-03-9.74779E-01 1.11993E-13-8.52930E-14
 -1      2873 2.29627E+01-1.02318E+00 6.11253E-03-1.09850E+00 1.60592E-13-6.31774E-14
 -1      2874 2.22839E+01-8.60947E-01 6.12869E-03-1.27561E-01-4.60061E-14-4.37040E-14
 -1      2875 2.23533E+01-9.33059E-01-1.25990E-02-3.82143E-01 2.62325E-14-4.51172E-14
 -1      2876 2.26013E+01-1.17942E+00-1.19947E-03-4.25462E-01 4.07500E-14-8.96889E-14
 -1      2877 2.19282E+01-6.40221E-01 7.51108E-03 3.09167E-01-1.83703E-14-1.70962E-13
 -1      2878 2.20349E+01-7.64610E-01-1.11608E-02 1.15713E-01-9.71901E-15-7.27230E-14
 -1      2879 2.21380E+01-1.01662E+00-4.41696E-03 1.43248E-01 7.63249E-15-1.01963E-13
 -1      2880 2.15795E+01-3.94382E-01 6.52014E-03 5.86789E-01-9.49579E-14-1.45151E-13
 -1      2881 2.17015E+01-5.20389E-01-8.24033E-03 4.64210E-01-5.47847E-14-1.37868E-13
 -1      2882 2.16867E+01-7.25573E-01-5.98115E-03 5.36592E-01-2.50534E-14-1.23760E-13
 -1      2883 2.12715E+01-1.84266E-01 4.80014E-03 7.25077E-01-1.37909E-13-6.48125E-14
 -1      2884 2.13944E+01-2.86463E-01-5.06264E-03 6.64650E-01-8.76044E-14-1.00699E-13
 -1      2885 2.13011E+01-4.25624E-01-5.72219E-03 7.60166E-01-1.05318E-13-2.97573E-14
 -1      2886 2.10134E+01-3.12365E-02 3.15249E-03 7.60038E-01-9.06816E-14-5.97179E-16
 -1      2887 2.11292E+01-1.02748E-01-2.37129E-03 7.46050E-01-7.74477E-14-1.98095E-14
 -1      2888 2.09957E+01-1.79349E-01-4.53105E-03 8.49423E-01-1.25749E-13 9.28722E-14
 -1      2889 2.08019E+01 6.64455E-02 1.86065E-03 7.27172E-01-1.27190E-13 4.57362E-14
 -1      2890 2.09068E+01 2.26871E-02-4.29647E-04 7.43865E-01-1.25446E-13 6.12496E-14
 -1      2891 2.07621E+01-5.14933E-03-3.31147E-03 8.46029E-01-1.45497E-13 7.12776E-14
 -1      2892 2.06303E+01 1.19793E-01 9.63543E-04 6.55163E-01-1.13074E-13-5.90252E-15
 -1      2893 2.07226E+01 9.74124E-02 8.32669E-04 6.89512E-01-1.05633E-13 9.00436E-15
 -1      2894 2.05852E+01 1.02949E-01-2.36013E-03 7.85366E-01-1.34649E-13 8.94342E-14
 -1      2895 2.04913E+01 1.41558E-01 3.95877E-04 5.64928E-01-7.66806E-14 1.29368E-13
 -1      2896 2.05709E+01 1.33961E-01 1.56058E-03 6.07330E-01-1.08759E-13 2.40921E-14
 -1      2897 2.04508E+01 1.59579E-01-1.70044E-03 6.94092E-01-1.29787E-13-3.43715E-15
 -1      2898 2.03792E+01 1.42894E-01 6.78754E-05 4.70530E-01-3.49253E-14 2.38598E-13
 -1      2899 2.04464E+01 1.44583E-01 1.89873E-03 5.14516E-01-5.98301E-14 2.16363E-13
 -1      2900 2.03474E+01 1.80240E-01-1.26778E-03 5.90844E-01-6.15443E-14 6.69307E-14
 -1      2901 2.02892E+01 1.32330E-01-1.00975E-04 3.80646E-01-2.13956E-14 2.79656E-13
 -1      2902 2.03448E+01 1.39218E-01 1.97114E-03 4.22253E-01 3.01984E-14 2.87183E-13
 -1      2903 2.02671E+01 1.78026E-01-9.87393E-04 4.87766E-01-6.73567E-14 5.92678E-14
 -1      2904 2.02175E+01 1.15847E-01-1.71500E-04 3.00039E-01 1.99252E-13 2.26287E-13
 -1      2905 2.02627E+01 1.25132E-01 1.87601E-03 3.37128E-01 3.92623E-14 2.25963E-13
 -1      2906 2.02042E+01 1.62777E-01-7.99773E-04 3.92114E-01 4.38432E-14-7.86404E-14
 -1      2907 2.01610E+01 9.73518E-02-1.85641E-04 2.30786E-01 3.68049E-13 2.76842E-13
 -1      2908 2.01970E+01 1.07241E-01 1.68651E-03 2.62467E-01 2.73909E-13 3.45799E-13
 -1      2909 2.01548E+01 1.41313E-01-6.65146E-04 3.07661E-01 1.55470E-13-2.39812E-14
 -1      2910 2.01169E+01 7.92087E-02-1.70488E-04 1.73242E-01 4.68758E-13 4.95891E-13
 -1      2911 2.01450E+01 8.86452E-02 1.45410E-03 1.99416E-01 4.52339E-13 4.80794E-13
 -1      2912 2.01160E+01 1.18042E-01-5.60060E-04 2.35828E-01 2.86531E-13 3.76563E-13
 -1      2913 2.00830E+01 6.27142E-02-1.42599E-04 1.26733E-01 4.02381E-13 4.29066E-13
 -1      2914 2.01046E+01 7.11426E-02 1.21287E-03 1.47766E-01 5.38556E-13 4.83802E-13
 -1      2915 2.00857E+01 9.56029E-02-4.72088E-04 1.76538E-01 4.60931E-13 4.35629E-13
 -1      2916 2.00574E+01 4.84588E-02-1.11514E-04 9.00461E-02 2.42199E-13 4.33569E-13
 -1      2917 2.00736E+01 5.56504E-02 9.83779E-04 1.06539E-01 3.88161E-13 5.10499E-13
 -1      2918 2.00623E+01 7.54107E-02-3.95337E-04 1.28839E-01 3.24543E-13 3.44522E-13
 -1      2919 2.00385E+01 3.65913E-02-8.23286E-05 6.17463E-02 1.45942E-13 2.13962E-13
 -1      2920 2.00503E+01 4.25182E-02 7.78321E-04 7.43896E-02 1.77262E-13 3.17711E-13
 -1      2921 2.00444E+01 5.80791E-02-3.27358E-04 9.13345E-02 2.93126E-13 2.63463E-13
 -1      2922 2.00247E+01 2.70014E-02-5.74437E-05 4.03848E-02-5.17634E-14 1.52788E-13
 -1      2923 2.00332E+01 3.17505E-02 6.01547E-04 4.98647E-02 3.67725E-14 2.50056E-13
 -1      2924 2.00308E+01 4.37219E-02-2.67250E-04 6.24729E-02 1.07942E-13 1.35955E-13
 -1      2925 2.00150E+01 1.94406E-02-3.77494E-05 2.46148E-02-5.20076E-15 1.47317E-13
 -1      2926 2.00208E+01 2.31575E-02 4.54352E-04 3.15609E-02-4.92092E-14 8.50255E-14
 -1      2927 2.00208E+01 3.21630E-02-2.14626E-04 4.07273E-02-2.74239E-14 3.20218E-14
 -1      2928 2.00084E+01 1.35979E-02-2.34508E-05 1.32546E-02 1.78090E-13 6.95735E-14
 -1      2929 2.00122E+01 1.64524E-02 3.35182E-04 1.82131E-02 1.49315E-13 1.71370E-13
 -1      2930 2.00136E+01 2.30736E-02-1.69231E-04 2.47000E-02 1.12312E-13 1.05054E-13
 -1      2931 2.00040E+01 9.14502E-03-1.43872E-05 5.31486E-03 1.25126E-13-2.18453E-14
 -1      2932 2.00064E+01 1.13108E-02 2.41173E-04 8.73794E-03 1.64367E-13-6.25843E-15
 -1      2933 2.00084E+01 1.60585E-02-1.30768E-04 1.31767E-02 1.80588E-13-5.75107E-14
 -1      2934 2.00014E+01 5.76346E-03-1.01156E-05 2.67844E-06 1.50926E-13-1.98932E-13
 -1      2935 2.00027E+01 7.40557E-03 1.68741E-04 2.24818E-03 1.23796E-13-1.48314E-13
 -1      2936 2.00049E+01 1.07087E-02-9.85312E-05 5.14848E-03 2.10912E-13-1.07635E-13
 -1      2937 1.99999E+01 3.15575E-03-8.40678E-06-3.29151E-03 1.39429E-13-1.28509E-13
 -1      2938 2.00005E+01 4.42723E-03 1.14397E-04-1.95405E-03 1.78765E-13-1.68778E-13
 -1      2939 2.00025E+01 6.63013E-03-7.23317E-05-1.90320E-04 1.90015E-13-3.02347E-13
 -1      2940 1.99993E+01 1.06035E-03 4.07184E-06-4.98612E-03-4.72727E-14-2.99806E-14
 -1      2941 1.99994E+01 2.05634E-03 6.85230E-05-4.39411E-03-8.87870E-15 9.67344E-14
 -1      2942 2.00010E+01 3.46720E-03-4.62078E-05-3.46395E-03 2.15801E-14-1.58588E-13
 -1      2943 1.99993E+01-5.87470E-04-6.37453E-06-5.38916E-03-6.71782E-14 8.44627E-14
 -1      2944 1.99992E+01 3.27921E-04 2.67913E-05-5.35617E-03-6.69086E-15-1.02837E-13
 -1      2945 2.00005E+01 1.10753E-03-3.51709E-05-4.97491E-03-5.79460E-14-2.66102E-14
 -1      2946 2.00004E+01-8.18842E-04-1.05280E-05-5.36649E-03-1.70133E-13 1.40686E-14
 -1      2947 2.00024E+01 1.48169E-03-9.32590E-06-3.36242E-04 6.54358E-14-4.49214E-14
 -1      2948 2.00024E+01 1.47137E-03-1.94393E-06-8.82732E-04 1.11409E-13-8.35281E-14
 -1      2949 2.00000E+01 5.19725E-05 4.24436E-05 5.46969E-03-1.30437E-13-2.93183E-13
 -1      2950 1.99999E+01-7.13863E-04-8.53530E-08 5.51340E-03-1.56532E-13-1.61448E-13
 -1      2951 2.00011E+01 9.07306E-04-3.73484E-05 5.05207E-03-1.65224E-13-3.00808E-13
 -1      2952 2.00024E+01 7.47970E-04-1.80233E-05-2.47254E-03 2.18791E-13 2.83834E-13
 -1      2953 2.00023E+01 6.88305E-04 1.17247E-05-3.03371E-03 2.09669E-13-5.85250E-14
 -1      2954 2.00024E+01 1.42404E-03 9.28028E-08 6.98730E-04 9.85059E-14 1.26504E-13
 -1      2955 2.00024E+01 1.46181E-03-1.07474E-05 1.43252E-04 1.15048E-13 5.49553E-14
 -1      2956 2.00029E+01 4.60277E-03 4.07880E-05-1.11805E-04 1.37278E-13 6.65498E-14
 -1      2957 2.00024E+01 1.23470E-03-1.63063E-05-1.37575E-03 3.09564E-14 8.08255E-14
 -1      2958 2.00024E+01 1.18552E-03 6.28367E-06-1.93297E-03 1.58870E-13 4.18887E-13
 -1      2959 2.00029E+01 3.71059E-03 2.78466E-05-1.98160E-03 3.32219E-13 2.74317E-13
 -1      2960 2.00029E+01 4.38557E-03 3.75678E-05-1.01014E-03 1.98574E-13-3.16990E-14
 -1      2961 2.05618E+01 3.53889E-01 8.55845E-04-5.50458E-01 9.56149E-14 4.22771E-14
 -1      2962 2.05467E+01 4.41833E-01 8.11049E-03-4.14115E-01 1.20818E-13 5.52395E-14
 -1      2963 2.05276E+01 4.13094E-01-4.34045E-03-6.38718E-01 9.92674E-14-2.24584E-14
 -1      2964 2.00025E+01 1.08737E-03 9.12534E-06 1.77753E-03 2.47565E-13 3.88431E-14
 -1      2965 2.00025E+01 1.15520E-03-1.68908E-05 1.20460E-03 4.81681E-14 1.93826E-13
 -1      2966 2.00030E+01 4.31844E-03 3.81323E-05 8.00303E-04 2.12958E-13 1.48390E-13
 -1      2967 2.00025E+01 5.45678E-04 1.30047E-05 2.95916E-03 3.00861E-13 9.37883E-14
 -1      2968 2.00025E+01 6.21474E-04-1.74004E-05 2.35667E-03 2.86923E-13 5.07139E-14
 -1      2969 2.00031E+01 3.59102E-03 3.01768E-05 1.82667E-03 3.09809E-13 1.05158E-13
 -1      2970 2.00020E+01-6.39604E-05-8.60641E-06 4.16926E-03 1.24893E-13 1.83521E-13
 -1      2971 2.00023E+01-8.84877E-06-1.80800E-06 3.58484E-03 1.96223E-13 2.46512E-13
 -1      2972 2.00029E+01 2.57202E-03 2.25210E-05 2.99752E-03 2.90452E-13 1.04094E-13
 -1      2973 2.00005E+01-9.53319E-04-2.36364E-05 5.42581E-03-5.02556E-15-3.69847E-13
 -1      2974 7.97557E+00-9.81324E-01 1.73370E-01-2.93566E+00 1.78878E-13 4.41369E-13
 -1      2975 9.30669E+00-1.62716E+00 1.54442E-01-4.30778E+00 2.95167E-13 3.22076E-13
 -1      2976 2.87906E+01 2.67487E+00-2.20762E-01 2.69815E+00-4.80144E-13-6.46122E-13
 -1      2977 3.01667E+01 1.01656E+00-2.08370E-01-2.06764E+00-6.39919E-13 2.78000E-13
 -1      2978 3.03450E+01-8.61589E-01 1.00165E-02-1.44440E+00-4.39343E-13 2.07695E-13
 -1      2979 2.41307E+01-5.28116E+00 9.00169E-02-3.67931E+00 5.75762E-13-1.91680E-13
 -1      2980 2.65646E+01-4.80994E+00-9.16354E-02-2.01012E+00 3.86441E-13-3.84054E-13
 -1      2981 2.10075E+01-1.05043E-01-2.29203E-03-9.15764E-01 2.07864E-14 9.15197E-14
 -1      2982 2.08909E+01-1.28448E-02 5.04209E-03-9.21045E-01 3.56745E-14 5.92335E-14
 -1      2983 2.07397E+01 3.96343E-02-5.12971E-03-9.89623E-01 2.08271E-14-1.29206E-14
 -1      2984 2.09565E+01-1.87525E-01-5.84230E-03-1.02217E+00-1.87790E-14 1.04153E-13
 -1      2985 2.05599E+01 1.20780E+00 3.49244E-03-2.50560E-01-1.43568E-13-1.27971E-13
 -1      2986 2.05137E+01 1.01965E+00-4.98193E-04 4.49924E-02-1.30669E-13-1.10750E-13
 -1      2987 2.03976E+01 1.17631E+00 1.13726E-04 1.43239E-01-1.27281E-13-1.32042E-13
 -1      2988 2.04271E+01 1.46775E+00-2.34265E-03-2.64271E-01-1.49519E-13-1.42290E-13
 -1      2989 1.96797E+01 2.90970E+00-5.89314E-03 4.42723E-01 1.87140E-13-1.44853E-13
 -1      2990 1.95540E+01 3.03282E+00-7.57536E-03 3.31142E-01 1.50853E-13-1.86659E-13
 -1      2991 1.95989E+01 2.80295E+00 5.08018E-03 1.95698E-01 1.34904E-13-1.73693E-13
 -1      2992 1.98534E+01 2.51656E+00 5.75152E-03 3.40697E-01 1.79185E-13-1.11512E-13
 -1      2993 1.94777E+01 3.12319E+00-7.61480E-03-3.62450E-01-4.72724E-14-2.80644E-13
 -1      2994 1.95990E+01 3.00761E+00-6.62226E-03-4.58345E-01-7.94600E-14-2.75039E-13
 -1      2995 6.57011E+00-6.59976E-01 1.41956E-01 1.54439E+00 3.84415E-15 8.35498E-13
 -1      2996 6.69562E+00-6.02000E-01 1.30381E-01-9.98809E-01 1.33477E-13 7.40658E-13
 -1      2997 2.86901E+01 5.49550E-01-1.70285E-01-1.43493E+00 2.94952E-13-4.25826E-13
 -1      2998 2.79779E+01-1.71691E+00-4.69194E-02-4.04940E-01 9.07469E-14-4.61214E-13
 -1      2999 2.05455E+01 5.40814E-01 4.62318E-04-2.40003E-01 1.55531E-13 4.39264E-14
 -1      3000 2.05794E+01 6.71511E-01 1.05278E-02-3.91134E-02 1.57988E-13 5.59137E-14
 -1      3001 2.05427E+01 9.64465E-01-9.35346E-04 1.09465E-01 1.87378E-13 4.32895E-16
 -1      3002 2.05135E+01 6.36929E-01-3.38408E-03-3.21412E-01 1.39128E-13-1.73685E-14
 -1      3003 2.83969E+01 5.28311E+00-2.04799E-01 1.07045E+00-6.40488E-13-3.92249E-13
 -1      3004 2.85458E+01 5.48541E+00-1.60497E-01-2.99189E-01-7.79710E-13-1.23014E-13
 -1      3005 1.62063E+01-4.16368E+00-1.33757E-03 6.45187E+00-2.57003E-13 5.82659E-13
 -1      3006 1.29245E+01-2.93482E+00 1.81340E-01 5.99797E+00-3.46043E-13 5.85781E-13
 -1      3007 1.24690E+01-3.34272E+00 6.00273E-02 5.99403E+00 1.48270E-13-5.28910E-13
 -1      3008 9.50349E+00-2.02818E+00 1.65910E-01 4.60731E+00 1.31867E-13-6.76292E-13
 -1      3009 2.81211E+01 6.47912E+00-2.07992E-01-5.67420E-02 6.09318E-13 6.68458E-14
 -1      3010 2.79154E+01 6.20285E+00-1.35824E-01-1.03069E+00 7.05380E-13-7.87842E-14
 -1      3011 1.07033E+01-2.46055E+00 1.66911E-01-5.50864E+00-3.81181E-13-3.81112E-13
 -1      3012 1.33125E+01-3.43899E+00 8.23840E-02-6.36832E+00-4.39551E-13-2.98983E-13
 -1      3013 2.79222E+01-2.80099E+00-4.25339E-02-8.42088E-01 3.78291E-14 4.02886E-13
 -1      3014 2.89121E+01-1.23875E+00-1.63885E-01 2.93960E-01 2.29386E-13 5.16476E-13
 -1      3015 2.86232E+01 4.62015E+00-1.99261E-01-1.59132E+00-7.94670E-13 3.56798E-14
 -1      3016 6.46507E+00-1.00458E+00 1.52975E-01-1.90263E+00-2.55039E-13-7.29972E-13
 -1      3017 8.05174E+00-1.69227E+00 9.90478E-02-4.27598E+00-3.02203E-13-5.63216E-13
 -1      3018 1.09509E+01-1.49111E+00 1.67208E-01-4.53010E+00-3.37688E-13-4.01068E-13
 -1      3019 1.92047E+01-5.17458E+00-2.44655E-02 5.88918E+00 2.01505E-13-2.61902E-13
 -1      3020 1.61133E+01-4.27945E+00 1.49948E-01 6.10617E+00 1.91513E-13-3.55632E-13
 -1      3021 2.53891E+01-5.49732E+00-1.03411E-01 3.40155E+00 1.40499E-13-5.43871E-14
 -1      3022 2.26118E+01-5.35890E+00 1.35707E-01 4.60562E+00 1.73944E-13-1.47956E-13
 -1      3023 2.94931E+01 1.41945E+00-5.57959E-02 1.32605E+00 3.62974E-13 4.41897E-13
 -1      3024 2.98739E+01 3.56984E+00-1.88309E-01 1.53025E+00 4.28269E-13 3.70731E-13
 -1      3025 2.81771E+01-3.82667E+00 1.89081E-02-3.97267E-01 2.69168E-13-5.74402E-13
 -1      3026 2.88297E+01-2.36036E+00-8.42915E-02 1.11416E+00 4.92176E-14-6.72962E-13
 -1      3027 2.66765E+01-4.40062E+00-3.22568E-02-1.07115E+00 3.82666E-13-5.46382E-13
 -1      3028 1.89708E+01-4.98996E+00 1.41057E-01-5.69609E+00 6.79651E-13 4.27228E-14
 -1      3029 2.11191E+01-5.50143E+00-4.69034E-02-5.21547E+00 6.45789E-13-6.86985E-14
 -1      3030 2.30512E+01-5.06160E+00 3.67600E-02-3.88369E+00 6.39711E-13-1.92988E-13
 -1      3031 1.73269E+01-4.13171E+00 1.02239E-01-5.63091E+00 5.95135E-13 1.01232E-13
 -1      3032 2.28792E+01-5.22241E+00-5.65941E-02 4.70148E+00-1.70516E-13 2.89230E-13
 -1      3033 1.98711E+01-4.90751E+00 1.10514E-01 5.69949E+00-2.81580E-13 5.14040E-13
 -1      3034 2.66109E+01-3.80647E+00-1.04322E-01 1.48400E+00-2.23814E-14-3.44461E-13
 -1      3035 2.51276E+01-4.69591E+00 5.10308E-02 3.14343E+00-1.28397E-13-5.36932E-14
 -1      3036 2.39250E+01-4.73607E+00 3.42089E-02 3.42954E+00-2.30843E-13-1.13437E-13
 -1      3037 2.82772E+01 4.80990E+00-1.94894E-01-1.71328E+00 6.11372E-13-2.21684E-13
 -1      3038 2.87357E+01 3.03059E+00-8.09798E-02-1.99434E+00 4.77646E-13-3.66804E-13
 -1      3039 2.84324E+01 4.12787E+00-1.73474E-01 2.09392E+00-5.66658E-13-5.63605E-13
 -1      3040 2.75158E+01-2.19467E+00-5.61246E-02 1.58760E+00 8.16604E-14-5.65881E-13
 -1      3041 1.97435E+01 2.84180E+00-8.05315E-03-5.20896E-01-1.08912E-13-2.44956E-13
 -1      3042 1.99059E+01 2.65749E+00-9.39475E-03-6.18577E-01-1.46488E-13-2.06545E-13
 -1      3043 1.97607E+01 2.64446E+00 8.22023E-03-3.52102E-01-8.23802E-14-2.28020E-13
 -1      3044 1.93448E+01 3.06891E+00 5.28510E-03-4.93592E-02 4.29553E-14-2.68442E-13
 -1      3045 1.92563E+01 3.34265E+00-5.27245E-03-6.81965E-02 3.76281E-14-2.85582E-13
 -1      3046 1.92716E+01 3.32904E+00-5.70514E-03-1.56893E-01 1.55724E-14-2.96816E-13
 -1      3047 8.70143E+00-3.78624E-01 1.79734E-01 2.29317E+00-1.15269E-13 6.67966E-13
 -1      3048 2.04891E+01 1.70284E+00-2.77913E-03 7.42206E-01 2.48313E-13-3.74267E-15
 -1      3049 2.86561E+01-1.51179E+00-2.60907E-01-1.82660E+00-3.66207E-13 3.68386E-13
 -1      3050 2.82202E+01 2.22641E-01-4.11536E-02-2.68389E+00-4.57856E-13 3.73229E-13
 -1      3051 2.72853E+01-3.28616E+00-1.12883E-01-4.54115E-01 6.61814E-14 1.68657E-13
 -1      3052 2.70080E+01-3.00591E+00-7.37898E-03 8.30602E-01 2.39937E-13-5.16157E-13
 -1      3053 2.00027E+01 2.72052E-03 1.22034E-05-3.04962E-03 2.64371E-13-5.96414E-14
 -1      3054 2.00021E+01 1.50398E-04-1.40878E-05-3.60511E-03 1.96017E-13-1.22535E-13
 -1      3055 2.00019E+01 1.13954E-04 1.40200E-05-4.11406E-03 9.19986E-14-6.52478E-14
 -1      3056 7.98367E+00-3.75345E-01 1.88123E-01-8.75785E-01-1.81161E-13-6.95111E-13
 -1      3057 1.19687E+01-1.98256E+00 1.15136E-01-4.71023E+00 3.62474E-13 3.05422E-13
 -1      3058 2.00015E+01-4.31203E-04-1.00457E-05-4.60450E-03-1.15755E-13-1.67597E-13
 -1      3059 2.00010E+01-3.96056E-04 8.72283E-06-4.95190E-03-2.20330E-13-1.72991E-13
 -1      3060 2.00011E+01 6.91969E-04 1.30080E-05-4.91909E-03-2.53906E-13-2.15359E-13
 -1      3061 2.00022E+01 1.62844E-03 8.51305E-06-4.07872E-03 5.88479E-14 9.15572E-14
 -1      3062 2.84991E+01-2.00762E-02-7.02889E-02 1.24100E+00 2.28643E-13 4.12254E-13
 -1      3063 2.00013E+01-9.49596E-04 2.08240E-05 4.97326E-03 8.09800E-14-9.04160E-14
 -1      3064 2.00019E+01 8.86047E-04-9.76438E-06 4.50625E-03 3.04851E-14 5.05661E-14
 -1      3065 2.76399E+01 1.30509E+00-9.45656E-02-1.91833E+00 2.72490E-13-4.36276E-13
 -1      3066 2.73409E+01-4.38128E+00 1.55387E-02 1.79111E+00 1.08490E-13 9.99201E-15
 -1      3067 2.59774E+01-5.20547E+00-2.00528E-01 2.28248E+00 1.62384E-13 2.45637E-15
 -1      3068 2.91386E+01-3.01083E+00-1.16931E-01 2.70314E-01-1.50820E-13 1.34559E-13
 -1      3069 1.54241E+01-3.23757E+00 1.45199E-01 5.56771E+00 2.23349E-13-3.76685E-13
 -1      3070 2.70756E+01-3.85323E+00-4.50346E-02-1.68008E+00-8.95395E-14 3.29903E-13
 -1      3071 2.71770E+01-3.05510E+00-3.37348E-02-4.27806E-01-4.86122E-14 3.75255E-13
 -1      3072 2.57381E+01-4.41944E+00 7.23816E-03-2.43968E+00-1.95052E-13 3.29861E-13
 -1      3073 2.73889E+01 6.03629E+00-1.46200E-01 3.76927E-01 5.19251E-13 7.85448E-14
 -1      3074 2.20096E+01-5.26719E+00 7.12675E-02-5.26058E+00-3.78114E-13 1.43247E-13
 -1      3075 2.35228E+01-5.14531E+00-4.29169E-02-4.03549E+00-3.58942E-13 3.39499E-13
 -1      3076 2.06870E+01-4.92266E+00 9.38749E-02-5.50803E+00-4.34167E-13 8.13759E-14
 -1      3077 8.91638E+00-2.39359E-01 1.71044E-01-1.65157E+00 1.81022E-13 5.88640E-13
 -1      3078 9.39371E+00-1.21369E+00 1.75518E-01 3.63362E+00 1.09177E-13-6.91142E-13
 -1      3079 9.62796E+00-3.63957E-01 1.30933E-01 2.54272E+00 3.96766E-14-6.20518E-13
 -1      3080 1.15970E+01-1.36009E+00 3.33958E-02 4.30490E+00 1.88786E-13-5.48395E-13
 -1      3081 2.85737E+01 4.11652E+00-1.28442E-01 1.74221E+00 4.08840E-13 1.31770E-13
 -1      3082 1.93136E+01 3.28681E+00-6.36439E-03-2.13560E-01 7.65451E-15-2.78578E-13
 -1      3083 1.93831E+01 3.22588E+00-5.66304E-03-3.03733E-01-2.99726E-14-2.67533E-13
 -1      3084 1.95161E+01 2.90266E+00 6.27240E-03-2.49309E-01-3.23439E-14-2.61206E-13
 -1      3085 1.93750E+01 3.04272E+00 5.72424E-03-1.50687E-01-5.14443E-15-2.73959E-13
 -1      3086 2.61999E+01-3.79274E+00-3.32339E-02-5.15737E-01 3.45300E-13-5.31790E-13
 -1      3087 2.91026E+01-2.13033E+00 5.39973E-02-8.99318E-01-2.10446E-13 1.73278E-13
 -1      3088 1.54787E+01-3.80438E+00 1.27654E-01-6.26188E+00-5.06706E-13-2.73559E-13
 -1      3089 1.76288E+01-4.16346E+00 2.44016E-02-5.90964E+00-5.36640E-13-1.30659E-13
 -1      3090 1.51244E+01-2.84409E+00 9.27685E-02-5.69762E+00-4.58113E-13-1.87655E-13
 -1      3091 2.04467E+01 1.52521E+00 2.72463E-03 4.58149E-01 2.18815E-13-2.45669E-14
 -1      3092 2.68477E+01-1.72148E+00-6.71075E-02-9.78783E-01 3.65506E-14-4.38025E-13
 -1      3093 2.72168E+01-2.88584E+00-3.33896E-02 1.93769E-01-1.97477E-14-4.16625E-13
 -1      3094 2.59700E+01-3.52045E+00-1.33119E-02 8.61506E-01-1.34879E-13-3.94726E-13
 -1      3095 1.88241E+01-4.10532E+00 9.01959E-02 5.45988E+00-3.04701E-13 4.48135E-13
 -1      3096 1.26316E+01-2.01643E+00 1.40781E-01 5.21924E+00-2.69992E-13 5.70710E-13
 -1      3097 2.69832E+01 4.82453E+00-1.04616E-01-1.43055E+00 5.39041E-13-1.31194E-13
 -1      3098 2.80046E+01 3.37643E+00-9.70655E-02-2.26314E+00-6.95499E-13 1.40388E-13
 -1      3099 2.99799E+01 4.49930E+00-1.54279E-01-2.01954E+00-8.58591E-13 2.61249E-13
 -1      3100 2.15524E+01-4.82466E+00 1.10774E-01 4.68041E+00 2.29650E-13-1.47837E-13
 -1      3101 3.03790E+01 2.86502E+00-1.17586E-01-2.36305E+00-7.40158E-13 2.63678E-13
 -1      3102 2.93328E+01 1.20047E+00-1.17311E-01-2.42528E+00-6.31606E-13 3.33594E-13
 -1      3103 2.80268E+01 1.43280E+00-1.76521E-01-2.69098E+00-6.06210E-13 3.13263E-13
 -1      3104 2.02601E+01 1.71294E+00-5.77355E-03 3.06501E-01 1.91240E-13-5.24275E-14
 -1      3105 2.01081E+01 1.94829E+00-2.29198E-03 2.58768E-01 1.85711E-13-7.33272E-14
 -1      3106 2.51966E+01-4.30080E+00 7.62245E-02-1.86572E+00 4.16969E-13-4.18093E-13
 -1      3107 2.01192E+01 9.89006E-01 3.65983E-04 8.13483E-01-8.06678E-14-1.08452E-13
 -1      3108 2.00860E+01 9.25592E-01 4.12103E-04 1.00166E+00-8.34588E-14-1.08105E-13
 -1      3109 1.99956E+01 8.74879E-01-1.02151E-03 1.17378E+00-9.56172E-14-9.59833E-14
 -1      3110 1.99727E+01 8.30913E-01 2.07341E-03 1.34236E+00-9.89586E-14-1.42467E-13
 -1      3111 1.98295E+01 1.05805E+00 2.16799E-03 1.03536E+00-9.20269E-14-1.14731E-13
 -1      3112 1.98647E+01 7.83385E-01-2.23765E-03 1.50823E+00-8.47749E-14-1.37617E-13
 -1      3113 1.98608E+01 7.28661E-01 4.10999E-03 1.66521E+00-4.27162E-14-1.33554E-13
 -1      3114 1.96314E+01 9.52938E-01 2.24660E-03 1.37125E+00-8.66898E-14-9.64483E-14
 -1      3115 1.97461E+01 6.50798E-01-2.69003E-03 1.83643E+00-7.07851E-15-1.44512E-13
 -1      3116 1.97800E+01 5.46914E-01 7.08893E-03 1.98584E+00 2.49157E-14-1.20602E-13
 -1      3117 1.94095E+01 8.29271E-01 1.54776E-03 1.70532E+00-2.66402E-14-1.06367E-13
 -1      3118 1.96833E+01 3.94807E-01-1.37046E-03 2.17476E+00 6.96637E-14-1.47102E-13
 -1      3119 1.97945E+01 1.91030E-01 1.20257E-02 2.31461E+00 8.73542E-14-1.35855E-13
 -1      3120 1.91923E+01 6.05768E-01-1.11284E-03 2.06611E+00 4.30001E-14-1.41896E-13
 -1      3121 1.97674E+01-9.08112E-02 4.59918E-03 2.53186E+00 1.01683E-13-9.28112E-14
 -1      3122 2.00267E+01-4.56867E-01 2.06017E-02 2.64798E+00 1.36372E-13-8.69279E-14
 -1      3123 1.90444E+01 1.74093E-01-6.82454E-03 2.48655E+00 1.24657E-13-1.59569E-13
 -1      3124 2.01736E+01-9.35404E-01 1.96943E-02 2.89111E+00 1.56207E-13-6.41653E-14
 -1      3125 2.06908E+01-1.51945E+00 3.27621E-02 2.93301E+00 1.60117E-13-6.47139E-14
 -1      3126 1.91008E+01-6.03527E-01-1.46274E-02 2.99704E+00 1.55492E-13-1.14229E-13
 -1      3127 2.11954E+01-2.23199E+00 4.66888E-02 3.14337E+00 1.78042E-13-3.68369E-14
 -1      3128 2.20814E+01-3.00268E+00 3.70831E-02 2.99134E+00 1.67821E-13-5.70753E-14
 -1      3129 1.96263E+01-1.86376E+00-1.67498E-02 3.56993E+00 1.96813E-13-1.19710E-13
 -1      3130 1.05725E+01-5.88759E-01 1.46199E-01-3.53783E+00-2.81074E-13-4.14307E-13
 -1      3131 1.26082E+01-1.53806E+00 5.75969E-02-4.77984E+00-3.78281E-13-2.12205E-13
 -1      3132 2.72938E+01-1.10105E+00-4.92760E-02 1.16519E+00 1.03646E-13 3.58255E-13
 -1      3133 2.73944E+01 8.47428E-01-1.48651E-01 1.88295E+00 2.21947E-13 2.06106E-13
 -1      3134 2.11818E+01-2.19572E+00 1.44558E-02-2.88271E+00 3.47118E-13-8.61432E-14
 -1      3135 2.05674E+01-1.45973E+00 3.91008E-02-2.87854E+00 3.01938E-13-7.50702E-14
 -1      3136 2.02416E+01-8.92420E-01 1.96541E-02-2.65378E+00 1.10893E-13-2.45337E-14
 -1      3137 1.98768E+01-4.12236E-01 1.04340E-02-2.55426E+00-3.49719E-14 7.95273E-15
 -1      3138 1.92133E+01-1.15779E+00-2.91281E-02-3.13408E+00 2.12691E-13 8.77258E-14
 -1      3139 1.98258E+01-4.76663E-02 1.56202E-02-2.31546E+00-5.49957E-14-2.15848E-15
 -1      3140 1.96465E+01 2.18881E-01 2.05177E-04-2.18266E+00-3.93210E-15-1.79007E-14
 -1      3141 1.89400E+01-1.14073E-01-1.07264E-02-2.57005E+00-1.26908E-14 4.34817E-14
 -1      3142 1.97062E+01 4.13757E-01 9.42034E-03-1.98240E+00-1.12010E-14-1.47385E-13
 -1      3143 1.96309E+01 5.40014E-01-3.37112E-03-1.84325E+00 4.82820E-15-3.78564E-14
 -1      3144 1.89910E+01 4.45914E-01-2.36022E-03-2.10711E+00-4.62528E-14-7.20355E-14
 -1      3145 1.97271E+01 6.23360E-01 5.87457E-03-1.67648E+00 5.35368E-14-9.76151E-14
 -1      3146 1.96992E+01 6.63020E-01-4.35518E-03-1.54222E+00 2.68465E-14-2.73137E-14
 -1      3147 1.91573E+01 7.08632E-01 1.65469E-03-1.73764E+00-2.51573E-14-1.83482E-13
 -1      3148 1.97970E+01 6.79867E-01 3.93284E-03-1.40145E+00-7.30416E-15-3.12328E-14
 -1      3149 1.97870E+01 6.70888E-01-4.32403E-03-1.27705E+00-6.54997E-14 3.21386E-14
 -1      3150 1.93482E+01 7.89594E-01 3.13935E-03-1.43601E+00 2.54149E-14-2.19633E-13
 -1      3151 1.98719E+01 6.51960E-01 2.92722E-03-1.15677E+00 5.86434E-15 1.24970E-13
 -1      3152 1.98661E+01 6.18745E-01-3.90132E-03-1.04483E+00 1.19247E-13 2.02878E-13
 -1      3153 1.95224E+01 7.68193E-01 3.29206E-03-1.18267E+00 3.92975E-14 6.25389E-15
 -1      3154 1.99341E+01 5.83247E-01 2.40067E-03-9.41782E-01 8.03835E-14 1.81015E-13
 -1      3155 1.99272E+01 5.40453E-01-3.34381E-03-8.43581E-01 1.40076E-13 2.51382E-13
 -1      3156 1.96650E+01 6.95202E-01 2.86805E-03-9.66196E-01 9.53946E-14 1.36580E-13
 -1      3157 1.99789E+01 4.99574E-01 2.08562E-03-7.55791E-01 7.12775E-14 3.29872E-13
 -1      3158 1.99700E+01 4.55430E-01-2.77456E-03-6.71590E-01 1.09615E-13 3.75330E-13
 -1      3159 1.97744E+01 6.01332E-01 2.26949E-03-7.80557E-01 1.37317E-13 2.15099E-13
 -1      3160 2.00078E+01 4.15225E-01 1.84633E-03-5.97632E-01 1.27877E-13 2.56753E-13
 -1      3161 1.99974E+01 3.73981E-01-2.24928E-03-5.26911E-01 9.01205E-14 2.35800E-13
 -1      3162 1.98545E+01 5.04109E-01 1.68607E-03-6.22375E-01 7.10391E-14 2.63669E-13
 -1      3163 2.00242E+01 3.37407E-01 1.62692E-03-4.65465E-01-2.56956E-16 2.20320E-13
 -1      3164 2.00133E+01 3.00960E-01-1.79057E-03-4.07171E-01-2.05278E-13 2.06095E-13
 -1      3165 1.99111E+01 4.12790E-01 1.19347E-03-4.89193E-01 2.39432E-14 3.31255E-14
 -1      3166 2.00319E+01 2.69198E-01 1.41149E-03-3.56880E-01-1.32750E-13 1.75913E-13
 -1      3167 2.00212E+01 2.38126E-01-1.40388E-03-3.09650E-01 1.24414E-14 1.01207E-13
 -1      3168 1.99497E+01 3.31660E-01 8.09420E-04-3.78689E-01-6.92579E-14 1.50996E-13
 -1      3169 2.00337E+01 2.11383E-01 1.20104E-03-2.69114E-01-1.12518E-13 6.64709E-14
 -1      3170 2.00239E+01 1.85563E-01-1.08585E-03-2.31458E-01-1.70448E-13-4.73313E-15
 -1      3171 1.99752E+01 2.62145E-01 5.25522E-04-2.88415E-01-1.01590E-13-1.13662E-13
 -1      3172 2.00321E+01 1.63553E-01 1.00162E-03-1.99281E-01-2.02101E-13-9.60488E-15
 -1      3173 2.00236E+01 1.42520E-01-8.29061E-04-1.69719E-01-1.26865E-13-8.01682E-14
 -1      3174 1.99914E+01 2.04112E-01 3.24054E-04-2.15821E-01-2.23307E-13-1.65446E-13
 -1      3175 2.00287E+01 1.24734E-01 8.19060E-04-1.44564E-01-1.40009E-13-1.22157E-13
 -1      3176 2.00215E+01 1.07885E-01-6.24769E-04-1.21704E-01-8.97974E-14-3.49441E-13
 -1      3177 2.00011E+01 1.56638E-01 1.86075E-04-1.58351E-01-2.36851E-13 1.12013E-13
 -1      3178 2.00246E+01 9.37382E-02 6.57203E-04-1.02341E-01 2.38087E-14-4.39464E-13
 -1      3179 2.00186E+01 8.04414E-02-4.64350E-04-8.49335E-02-4.65919E-15-5.10397E-13
 -1      3180 2.00065E+01 1.18461E-01 9.48716E-05-1.13561E-01-9.34582E-14-7.93036E-14
 -1      3181 2.00203E+01 6.93511E-02 5.17716E-04-7.02638E-02 1.81728E-14-4.01238E-13
 -1      3182 2.00156E+01 5.90048E-02-3.39970E-04-5.72187E-02 1.12763E-13-4.58216E-13
 -1      3183 2.00090E+01 8.82252E-02 3.69959E-05-7.92021E-02 7.13070E-14-1.37645E-13
 -1      3184 2.00163E+01 5.04276E-02 4.00537E-04-4.62917E-02 1.73202E-13-3.09201E-13
 -1      3185 2.00126E+01 4.24829E-02-2.44913E-04-3.66848E-02 1.29695E-13-1.64110E-13
 -1      3186 2.00097E+01 6.46174E-02 2.20102E-06-5.32744E-02 1.84128E-13-2.75946E-13
 -1      3187 2.00127E+01 3.59316E-02 3.04390E-04-2.86974E-02 1.06693E-14-2.35449E-13
 -1      3188 2.00099E+01 2.99024E-02-1.73509E-04-2.17643E-02 3.66732E-14-2.20872E-13
 -1      3189 2.00094E+01 4.64267E-02-1.71386E-05-3.40520E-02 4.15767E-14-1.35838E-13
 -1      3190 2.00097E+01 2.49500E-02 2.27167E-04-1.60560E-02 3.44926E-14-3.38143E-13
 -1      3191 2.00076E+01 2.04147E-02-1.20978E-04-1.11791E-02 1.11520E-13-2.04012E-13
 -1      3192 2.00084E+01 3.25738E-02-2.62426E-05-2.00862E-02 8.41753E-14-3.33543E-13
 -1      3193 2.00071E+01 1.66928E-02 1.66771E-04-7.21712E-03 2.13121E-13-1.34077E-13
 -1      3194 2.00056E+01 1.32854E-02-8.30121E-05-3.90808E-03 3.09260E-13-2.58900E-13
 -1      3195 2.00070E+01 2.21151E-02-2.95134E-05-1.01902E-02 1.85993E-13-2.91232E-13
 -1      3196 2.00050E+01 1.04750E-02 1.23016E-04-1.27329E-03 3.09968E-13-1.56956E-13
 -1      3197 2.00039E+01 7.86472E-03-5.84887E-05 8.46329E-04 3.12304E-13-2.19165E-13
 -1      3198 2.00056E+01 1.42266E-02-3.19327E-05-3.41862E-03 2.76924E-13-1.36205E-13
 -1      3199 2.00033E+01 5.66906E-03 8.98102E-05 2.43825E-03 6.23401E-14-2.17903E-13
 -1      3200 2.00026E+01 3.68176E-03-1.95160E-05 3.60323E-03-1.89012E-13-2.31505E-13
 -1      3201 2.00041E+01 8.13237E-03-4.75712E-05 9.85532E-04 1.31539E-13-2.95029E-13
 -1      3202 2.00033E+01 7.34122E-03-6.08361E-06 6.79313E-04 2.99344E-13 1.76974E-13
 -1      3203 2.00032E+01 7.57586E-03-3.37598E-05 2.74671E-04 3.18166E-13 9.37807E-14
 -1      3204 2.16667E+01-1.00226E+00-6.35729E-03-8.37497E-01 3.00996E-15 1.45510E-13
 -1      3205 2.14668E+01-7.89231E-01 1.22120E-02-9.86201E-01 2.08648E-14 1.15856E-13
 -1      3206 2.12146E+01-5.94923E-01-3.02361E-03-1.06208E+00 1.99797E-14 8.43586E-14
 -1      3207 2.10517E+01-4.05278E-01 9.16888E-03-1.12860E+00-2.48233E-14 9.67156E-14
 -1      3208 2.11723E+01-7.95480E-01-1.23676E-02-1.21392E+00-1.05333E-14 8.92800E-14
 -1      3209 2.28376E+01-1.57378E+00-1.29131E-02 2.25921E-01-9.85748E-14 3.20361E-13
 -1      3210 2.26438E+01-1.51331E+00 1.31231E-02-1.02325E-01-3.71825E-14 2.28162E-13
 -1      3211 2.33454E+01-1.30068E+00-8.25875E-03 1.00697E+00-5.15832E-14 4.22497E-13
 -1      3212 2.32298E+01-1.51305E+00 1.64057E-03 6.57831E-01-8.60865E-14 3.59812E-13
 -1      3213 2.32608E+01-1.85159E+00-1.63665E-03 2.00337E-01-1.22839E-13 2.84501E-13
 -1      3214 2.35653E+01-3.53813E-01 6.01312E-03 1.65720E+00 5.52427E-14 4.03375E-13
 -1      3215 2.35592E+01-9.24432E-01-2.07321E-02 1.43709E+00 2.32531E-14 4.27434E-13
 -1      3216 2.39215E+01-1.35863E+00 8.06435E-03 1.11300E+00-1.55455E-14 3.42353E-13
 -1      3217 2.33904E+01 1.15357E+00 1.31715E-02 1.75318E+00 1.90896E-13 3.55776E-13
 -1      3218 2.34828E+01 3.42722E-01-4.71000E-02 1.84997E+00 1.04288E-13 3.70114E-13
 -1      3219 2.41728E+01-7.47565E-02 9.23971E-03 1.83979E+00 1.09176E-13 3.94051E-13
 -1      3220 2.30328E+01 2.50466E+00 3.60872E-03 9.71956E-01 2.12197E-13 2.70464E-13
 -1      3221 2.31232E+01 1.89394E+00-5.25274E-02 1.44214E+00 2.13097E-13 2.74223E-13
 -1      3222 2.39539E+01 1.76641E+00-1.25576E-02 1.77937E+00 2.51930E-13 3.24565E-13
 -1      3223 2.29192E+01 2.80380E+00-1.67302E-02-4.19034E-01 1.86316E-13 2.15432E-13
 -1      3224 2.28899E+01 2.81467E+00-2.48673E-02 2.15690E-01 1.61523E-13 2.60807E-13
 -1      3225 2.36142E+01 3.17426E+00-2.97181E-02 6.83302E-01 1.70950E-13 1.76919E-13
 -1      3226 2.31533E+01 1.79507E+00-5.74925E-02-1.60214E+00 1.45904E-13-7.28584E-15
 -1      3227 2.30347E+01 2.42794E+00-6.59080E-03-1.16018E+00 2.47122E-13 9.70157E-14
 -1      3228 2.36464E+01 3.14250E+00-2.54531E-02-8.72474E-01 2.87482E-13 8.79678E-15
 -1      3229 2.35173E+01 2.57103E-01-4.48395E-02-1.95055E+00 1.89744E-14-2.48920E-14
 -1      3230 2.34177E+01 1.05515E+00 1.13500E-02-1.87766E+00 8.70259E-14-4.47828E-14
 -1      3231 2.39656E+01 1.60819E+00-4.06100E-03-1.92710E+00 1.14200E-13-9.35831E-14
 -1      3232 2.35988E+01-9.48592E-01-2.15103E-03-1.52426E+00 1.77544E-13-1.98734E-13
 -1      3233 2.35663E+01-4.09394E-01 6.37474E-03-1.73960E+00 1.15809E-13-4.66424E-14
 -1      3234 2.41487E+01-1.51804E-01 1.40332E-03-1.90439E+00 1.38512E-13-1.75235E-13
 -1      3235 2.32140E+01-1.46533E+00 1.01772E-02-7.38765E-01 8.73104E-14-7.52163E-14
 -1      3236 2.33133E+01-1.29878E+00-1.13618E-02-1.05409E+00 1.02179E-13-1.11705E-13
 -1      3237 2.38779E+01-1.43271E+00-2.24050E-02-1.18571E+00 1.02865E-13-2.41285E-13
 -1      3238 2.26056E+01-1.44012E+00 1.24585E-02-1.17724E-04-2.75285E-14 8.37752E-14
 -1      3239 2.27985E+01-1.52863E+00-1.73583E-02-3.06809E-01 1.44325E-14 5.09404E-14
 -1      3240 2.31556E+01-1.85507E+00-3.05169E-02-2.85464E-01-4.25467E-14 1.35798E-14
 -1      3241 2.19834E+01-1.12034E+00 1.44211E-02 5.17050E-01-2.55906E-14 1.22035E-13
 -1      3242 2.21979E+01-1.30843E+00-9.89267E-03 2.89334E-01 1.65482E-14 1.69155E-13
 -1      3243 2.23654E+01-1.62696E+00-1.28850E-02 4.08117E-01-2.28680E-14 1.94718E-13
 -1      3244 2.14421E+01-7.25225E-01 1.15581E-02 8.22297E-01-4.92145E-14 1.39459E-13
 -1      3245 2.16385E+01-9.29568E-01-6.33256E-03 6.83914E-01 2.53636E-14 1.30992E-13
 -1      3246 2.16495E+01-1.19804E+00-1.24572E-02 8.42849E-01-1.98828E-14 3.72995E-13
 -1      3247 2.10236E+01-3.71161E-01 7.96517E-03 9.55315E-01-1.55711E-13 9.07092E-14
 -1      3248 2.11872E+01-5.43162E-01-2.98404E-03 8.91587E-01-7.14684E-14 1.11376E-13
 -1      3249 2.10888E+01-7.31492E-01-1.14726E-02 1.04719E+00-7.26872E-14 2.72690E-13
 -1      3250 2.07222E+01-1.04782E-01 4.89592E-03 9.70946E-01-8.61213E-14 7.85228E-14
 -1      3251 2.08512E+01-2.29002E-01-6.83510E-04 9.60248E-01-1.34075E-13 8.92407E-14
 -1      3252 2.06955E+01-3.37307E-01-8.28145E-03 1.09626E+00-7.99017E-14 1.09146E-13
 -1      3253 2.05127E+01 7.20859E-02 2.61945E-03 9.14788E-01-1.34975E-13-8.24854E-14
 -1      3254 2.06121E+01-7.26446E-03 6.09931E-04 9.38209E-01-8.73476E-14-1.92108E-14
 -1      3255 2.04368E+01-5.29059E-02-5.46762E-03 1.05153E+00-8.46863E-14-3.46896E-15
 -1      3256 2.03690E+01 1.74711E-01 1.08124E-03 8.19277E-01-1.66947E-13-7.78979E-14
 -1      3257 2.04455E+01 1.31026E-01 1.29641E-03 8.62168E-01-1.61258E-13-9.89554E-14
 -1      3258 2.02739E+01 1.29357E-01-3.39190E-03 9.55281E-01-7.43529E-14-1.52921E-13
 -1      3259 2.02702E+01 2.22651E-01 1.27795E-04 7.06605E-01-6.60096E-14-1.37956E-13
 -1      3260 2.03296E+01 2.04462E-01 1.62469E-03 7.58441E-01-5.52088E-14-1.17395E-13
 -1      3261 2.01748E+01 2.30468E-01-2.01090E-03 8.34969E-01-9.79477E-14-1.86444E-13
 -1      3262 2.02012E+01 2.33841E-01-4.05508E-04 5.91239E-01-1.48973E-13-7.83864E-14
 -1      3263 2.02479E+01 2.32328E-01 1.73758E-03 6.44926E-01-1.80460E-13-1.00689E-13
 -1      3264 2.01157E+01 2.73418E-01-1.15112E-03 7.08090E-01-1.60759E-13-2.67488E-13
 -1      3265 2.01519E+01 2.22514E-01-6.59186E-04 4.82049E-01-6.40044E-14-6.72194E-14
 -1      3266 2.01890E+01 2.30895E-01 1.71499E-03 5.33144E-01-4.56773E-14-2.85870E-14
 -1      3267 2.00807E+01 2.78119E-01-6.47166E-04 5.85412E-01-1.38921E-13-3.14880E-13
 -1      3268 2.01157E+01 1.99005E-01-7.38089E-04 3.83943E-01 9.30980E-14-1.99291E-13
 -1      3269 2.01452E+01 2.12461E-01 1.60682E-03 4.29949E-01 4.29561E-15-4.13425E-14
 -1      3270 2.00598E+01 2.59937E-01-3.68659E-04 4.73143E-01-3.02005E-14-3.46311E-13
 -1      3271 2.00884E+01 1.70316E-01-7.15430E-04 2.99120E-01 9.98099E-14-2.86602E-14
 -1      3272 2.01120E+01 1.85646E-01 1.44789E-03 3.38898E-01 8.00532E-14-1.00546E-13
 -1      3273 2.00467E+01 2.29840E-01-2.23848E-04 3.74401E-01 5.57544E-14-1.34567E-13
 -1      3274 2.00675E+01 1.40887E-01-6.39860E-04 2.27995E-01 2.55470E-13 5.49541E-14
 -1      3275 2.00863E+01 1.56104E-01 1.26385E-03 2.61304E-01 1.98578E-13-5.96195E-15
 -1      3276 2.00379E+01 1.95167E-01-1.53315E-04 2.90232E-01 6.71283E-14-1.71994E-13
 -1      3277 2.00514E+01 1.13310E-01-5.42278E-04 1.69877E-01 3.44406E-13 2.54389E-13
 -1      3278 2.00661E+01 1.27291E-01 1.07350E-03 1.97032E-01 3.26516E-13 1.74644E-13
 -1      3279 2.00314E+01 1.60516E-01-1.20961E-04 2.20341E-01 2.13721E-13-1.83662E-13
 -1      3280 2.00387E+01 8.89124E-02-4.41280E-04 1.23462E-01 2.96810E-13 4.01201E-13
 -1      3281 2.00502E+01 1.01114E-01 8.89932E-04 1.45084E-01 3.41572E-13 4.01973E-13
 -1      3282 2.00262E+01 1.28519E-01-1.06174E-04 1.63627E-01 2.81656E-13 8.59747E-14
 -1      3283 2.00289E+01 6.81997E-02-3.47247E-04 8.71671E-02 2.21506E-13 3.41987E-13
 -1      3284 2.00377E+01 7.84526E-02 7.21494E-04 1.04014E-01 3.09710E-13 3.98280E-13
 -1      3285 2.00219E+01 1.00475E-01-9.79997E-05 1.18561E-01 2.89690E-13 3.48363E-13
 -1      3286 2.00212E+01 5.11685E-02-2.65270E-04 5.93550E-02 1.21956E-13 2.11401E-13
 -1      3287 2.00279E+01 5.95293E-02 5.72742E-04 7.22107E-02 1.74058E-13 2.86295E-13
 -1      3288 2.00181E+01 7.68194E-02-9.12032E-05 8.34528E-02 2.59026E-13 4.66681E-13
 -1      3289 2.00153E+01 3.75267E-02-1.97086E-04 3.84736E-02-4.05112E-14-9.06448E-14
 -1      3290 2.00203E+01 4.41767E-02 4.45461E-04 4.80789E-02 6.65343E-14 3.42460E-14
 -1      3291 2.00147E+01 5.74598E-02-8.36764E-05 5.66293E-02 1.98097E-13 2.02075E-13
 -1      3292 2.00109E+01 2.68355E-02-1.42540E-04 2.31325E-02 1.17304E-13-2.37967E-14
 -1      3293 2.00145E+01 3.20163E-02 3.39527E-04 3.01478E-02-1.04934E-14-4.12292E-14
 -1      3294 2.00118E+01 4.20062E-02-7.47931E-05 3.65398E-02-2.86694E-14-9.53264E-14
 -1      3295 2.00075E+01 1.85969E-02-1.00866E-04 1.21395E-02 1.41345E-13-1.20179E-13
 -1      3296 2.00100E+01 2.25715E-02 2.53764E-04 1.71273E-02 1.29249E-13-9.43235E-14
 -1      3297 2.00092E+01 2.99222E-02-6.50406E-05 2.18145E-02 1.10273E-13-1.81837E-13
 -1      3298 2.00050E+01 1.23057E-02-7.04353E-05 4.51706E-03 2.10300E-13-9.11361E-14
 -1      3299 2.00067E+01 1.53339E-02 1.86010E-04 7.93475E-03 3.02974E-13-2.65267E-14
 -1      3300 2.00070E+01 2.06163E-02-5.44075E-05 1.12906E-02 1.73976E-13-5.77650E-14
 -1      3301 2.00031E+01 7.50421E-03-4.80411E-05-5.07596E-04 1.71435E-13-2.67839E-14
 -1      3302 2.00043E+01 9.81583E-03 1.32837E-04 1.70274E-03 1.71018E-13-4.57794E-14
 -1      3303 2.00052E+01 1.35130E-02-4.03610E-05 4.03264E-03 2.02682E-13 2.07594E-13
 -1      3304 2.00019E+01 3.77640E-03-1.07813E-05-3.51490E-03 1.08357E-13-3.06575E-13
 -1      3305 2.00026E+01 5.53791E-03 8.78541E-05-2.26777E-03 1.77468E-13-1.23103E-13
 -1      3306 2.00036E+01 8.04380E-03-3.53392E-05-7.25701E-04 2.68813E-13-1.21453E-14
 -1      3307 2.00014E+01 1.73724E-03 9.49138E-06-4.53275E-03-1.00374E-13-3.00709E-13
 -1      3308 2.00016E+01 2.80112E-03 3.34274E-05-4.14772E-03 4.86946E-14-3.62018E-13
 -1      3309 2.00026E+01 4.50785E-03-2.62161E-05-3.13553E-03 2.03733E-13-2.12869E-13
 -1      3310 2.00020E+01 2.13146E-03-2.59342E-05-4.17583E-03-1.84276E-13-3.48591E-13
 -1      3311 1.94766E+01 2.68669E+00-2.99802E-03 2.74904E-02 8.15045E-14-2.08459E-13
 -1      3312 1.94059E+01 2.75169E+00-5.18195E-03-2.56354E-02 5.18968E-14-2.45371E-13
 -1      3313 2.04654E+01 4.85386E-01-4.12476E-04-7.19144E-01 7.30741E-14-9.93528E-15
 -1      3314 2.04512E+01 6.01377E-01 4.47905E-03-5.79080E-01 1.10947E-13-1.97483E-14
 -1      3315 2.00031E+01 7.83956E-03-2.14137E-05 5.30523E-05 2.22315E-13 4.36310E-14
 -1      3316 2.00031E+01 7.85537E-03-2.30372E-05-3.14270E-04 2.11006E-13 6.47984E-14
 -1      3317 2.00036E+01 1.12663E-02 6.57862E-05-1.52002E-05 3.23178E-13 1.60396E-13
 -1      3318 2.00033E+01 4.69664E-03-5.46283E-07 2.56069E-03 3.10079E-13-5.51478E-15
 -1      3319 2.00035E+01 5.20425E-03-4.23020E-05 2.00794E-03 4.46693E-13 3.35510E-14
 -1      3320 2.00035E+01 6.22390E-03 6.61701E-06 1.49645E-03 4.28095E-13 1.44849E-13
 -1      3321 2.00034E+01 6.64305E-03-4.05706E-05 1.00902E-03 3.56686E-13 1.93090E-13
 -1      3322 2.00038E+01 1.03163E-02 6.01839E-05 3.66852E-04 3.98038E-13 2.08689E-13
 -1      3323 2.00040E+01 8.62388E-03 6.15128E-05 1.05243E-03 3.60986E-13 1.69263E-13
 -1      3324 2.00477E+01 2.47676E+00-7.32656E-03-6.61106E-01-1.58058E-13-1.79936E-13
 -1      3325 2.02107E+01 2.25308E+00-9.43042E-03-7.28326E-01-1.81765E-13-1.61718E-13
 -1      3326 2.03111E+01 1.90088E+00 9.32083E-03-4.73003E-01-1.73250E-13-1.47045E-13
 -1      3327 2.00523E+01 2.28764E+00 9.75471E-03-4.32277E-01-1.49604E-13-1.77806E-13
 -1      3328 2.22303E+01-1.38622E+00-1.03666E-02-4.14209E-01 2.34231E-14 2.07143E-13
 -1      3329 2.20125E+01-1.19822E+00 1.46839E-02-6.57700E-01 1.96109E-14 1.91845E-13
 -1      3330 2.17290E+01-1.28629E+00-1.40260E-02-9.91984E-01-2.06511E-14 1.68783E-13
 -1      3331 2.24556E+01-1.71653E+00-1.06432E-02-5.33501E-01-3.42056E-14 2.34526E-13
 -1      3332 2.66755E+01 5.20499E+00-1.36081E-01 1.20761E+00 4.42979E-13 1.38917E-13
 -1      3333 2.57968E+01 5.35386E+00-1.14676E-01 3.41578E-01 5.21153E-13 1.15932E-13
 -1      3334 2.32936E+01-3.83057E+00-1.96314E-03-2.55293E+00 4.29774E-13-2.70619E-13
 -1      3335 2.23354E+01-2.99726E+00 7.82166E-02-2.85047E+00 4.02822E-13-1.45412E-13
 -1      3336 2.04358E+01-2.70569E+00-2.79950E-02-3.51482E+00 4.31389E-13-2.89768E-14
 -1      3337 2.33161E+01-4.41310E+00-1.83813E-02-3.06004E+00 5.32619E-13-3.04635E-13
 -1      3338 9.99279E+00-4.04148E-01 6.70090E-02 3.25265E+00-2.07577E-13 4.90691E-13
 -1      3339 9.18700E+00 1.87164E-01 8.39008E-02 1.31268E+00-1.10382E-13 6.30135E-13
 -1      3340 8.91880E+00 1.11472E-01 1.15211E-01 3.52203E-01-9.64021E-14-6.46150E-13
 -1      3341 9.19414E+00-4.71489E-02 8.10966E-02-1.86569E+00-2.22069E-13-5.96551E-13
 -1      3342 2.02211E+01 1.18380E+00 1.11912E-03 4.06777E-01-1.22913E-13-1.32925E-13
 -1      3343 2.01853E+01 1.07330E+00-7.50348E-04 6.24846E-01-8.99780E-14-1.23890E-13
 -1      3344 1.99893E+01 1.20797E+00 1.89203E-03 6.74607E-01-8.37865E-14-1.23987E-13
 -1      3345 1.73307E+01-3.31825E+00-2.17484E-02 5.28029E+00 2.57350E-13-2.46130E-13
 -1      3346 1.46849E+01-2.04602E+00 1.62139E-01 4.97607E+00 2.78243E-13-3.95961E-13
 -1      3347 2.73039E+01 2.59623E+00-7.91322E-02 2.13160E+00 3.11473E-13 1.82035E-13
 -1      3348 2.70285E+01 4.24868E+00-1.47345E-01 1.75513E+00 3.88856E-13 1.33213E-13
 -1      3349 2.57034E+01 3.71448E+00-7.41415E-02 1.59320E+00 3.24553E-13 2.02657E-13
 -1      3350 2.64175E+01 1.21857E+00-4.60965E-02 2.07119E+00 2.01644E-13 1.46647E-13
 -1      3351 2.48428E+01 4.14541E+00-1.14056E-01-1.12418E+00 4.38247E-13-4.27388E-14
 -1      3352 2.52952E+01 3.08959E+00-7.17378E-02-1.96234E+00 3.38903E-13-1.87364E-13
 -1      3353 9.42778E+00 3.83363E-01 1.23873E-01-5.79669E-01 1.17840E-13 5.74180E-13
 -1      3354 1.03676E+01-8.64222E-02 7.27627E-02-2.43113E+00 1.73968E-13 5.19154E-13
 -1      3355 2.04889E+01 1.16537E+00-2.75757E-04 1.78407E-01 1.87481E-13-1.97338E-14
 -1      3356 2.03669E+01 1.51225E+00 2.68501E-03 2.65227E-01 1.90744E-13-2.42315E-14
 -1      3357 2.03246E+01 1.37983E+00 4.51895E-03 4.44182E-02 1.70075E-13-3.44293E-14
 -1      3358 2.04660E+01 9.65081E-01-2.31068E-03-7.40161E-02 1.63096E-13-1.12898E-14
 -1      3359 2.28648E+01-4.98793E+00-1.27777E-01 3.84925E+00 2.33757E-13 2.85535E-14
 -1      3360 2.04734E+01-4.12731E+00 1.14616E-01 4.67458E+00 2.78708E-13-1.10238E-13
 -1      3361 1.22297E+01-1.08711E+00 8.19804E-02-4.02392E+00 2.67140E-13 2.27540E-13
 -1      3362 1.42242E+01-2.27814E+00 6.61166E-02-5.10244E+00 4.28303E-13 1.20765E-13
 -1      3363 1.43484E+01-2.07021E+00 1.60838E-02 5.10950E+00-2.80491E-13 5.03347E-13
 -1      3364 1.17775E+01-9.60069E-01 1.51837E-01 4.33915E+00-2.57867E-13 5.72625E-13
 -1      3365 2.07523E+01-4.21969E+00-4.46004E-03 4.61409E+00-3.06005E-13 2.10491E-13
 -1      3366 1.79128E+01-3.21589E+00 7.25142E-02 5.12318E+00-2.76820E-13 3.45148E-13
 -1      3367 2.40447E+01-4.26232E+00-3.35674E-02 2.53135E+00-2.55521E-13-3.70429E-13
 -1      3368 2.25289E+01-4.38046E+00 6.50906E-02 3.75274E+00-2.51053E-13-1.15340E-13
 -1      3369 2.15024E+01-3.78236E+00 3.48609E-02 3.69485E+00-2.69708E-13-1.41030E-13
 -1      3370 2.05328E+01 2.71867E-01 1.81499E-04-9.40456E-01 5.47536E-14-1.11291E-14
 -1      3371 2.04871E+01 3.80057E-01 4.74831E-03-8.45907E-01 5.90857E-14 5.31530E-15
 -1      3372 2.03680E+01 5.33340E-01-3.41637E-03-8.03727E-01 5.16123E-14 2.08657E-14
 -1      3373 1.93620E+01 2.80278E+00-3.26038E-03-4.20238E-02 4.13490E-14-2.54679E-13
 -1      3374 1.93447E+01 2.81523E+00-4.92946E-03-8.68002E-02 9.91071E-15-2.57510E-13
 -1      3375 1.94299E+01 2.54937E+00 6.65351E-03-7.37509E-02 4.54669E-14-2.28692E-13
 -1      3376 2.56418E+01-4.55954E+00 9.48426E-02 1.98849E+00 2.60385E-13-5.32907E-15
 -1      3377 2.43866E+01-4.14798E+00 5.80847E-02 2.30474E+00 2.49304E-13 1.76040E-14
 -1      3378 1.06104E+01 5.25871E-01 1.17110E-01 3.98938E-01-5.17017E-14 4.74593E-13
 -1      3379 1.40189E+01-1.34779E+00 7.81424E-02 4.25638E+00 2.23932E-13-4.25854E-13
 -1      3380 1.99561E+01 2.14058E+00-4.61289E-03 2.19449E-01 1.73118E-13-8.22016E-14
 -1      3381 1.98134E+01 2.31183E+00-4.57761E-03 1.55193E-01 1.47291E-13-1.03587E-13
 -1      3382 2.00852E+01 1.79759E+00 5.82180E-03 6.35319E-02 1.60784E-13-7.23241E-14
 -1      3383 2.70532E+01-3.86137E+00 2.87622E-02 8.04599E-01 1.05832E-13 4.75175E-14
 -1      3384 2.09466E+01-3.50249E+00-5.34473E-02 3.90937E+00 2.04441E-13-2.82933E-14
 -1      3385 2.31106E+01-3.60849E+00 9.49078E-02 2.88893E+00 2.04056E-13 2.79941E-15
 -1      3386 2.70519E+01-2.17463E+00-8.16085E-02 6.02362E-01 9.03028E-14 3.58283E-13
 -1      3387 2.63982E+01-1.13306E+00-2.79791E-02 1.39560E+00 1.33102E-13 2.08819E-13
 -1      3388 2.63703E+01-2.92235E+00-2.95732E-02-9.41344E-02 1.66126E-14 2.83325E-13
 -1      3389 2.54862E+01 1.78067E+00-8.65796E-02-2.15096E+00 1.66693E-13-2.46379E-13
 -1      3390 2.00032E+01 5.38756E-03-3.57867E-05-2.10036E-03 2.82946E-13 2.08440E-13
 -1      3391 2.00031E+01 4.86810E-03 9.08189E-06-2.62320E-03 1.95692E-13 1.71044E-13
 -1      3392 2.02856E+01 1.41399E+00 4.11115E-03 5.54418E-02-1.12045E-13-1.44854E-13
 -1      3393 2.02542E+01 1.28733E+00-9.98113E-04 2.48492E-01-1.26029E-13-1.41347E-13
 -1      3394 2.00915E+01 1.41844E+00 2.01467E-03 3.23115E-01-1.06839E-13-1.37801E-13
 -1      3395 2.02983E+01 1.67429E+00-3.87199E-03-2.58406E-01-1.47880E-13-1.45431E-13
 -1      3396 2.07902E+01-3.58778E-01-9.44293E-03-1.26321E+00-3.55770E-14 6.11609E-14
 -1      3397 2.08858E+01-2.41677E-01-8.81454E-04-1.13011E+00-6.52347E-14 9.08413E-14
 -1      3398 2.07645E+01-8.92255E-02 6.67123E-03-1.13177E+00-6.21299E-14 5.60851E-14
 -1      3399 1.95692E+01 2.58178E+00-5.17522E-03 5.55442E-02 1.09158E-13-1.75049E-13
 -1      3400 1.95756E+01 2.39704E+00 6.13409E-03-4.54799E-02 8.77408E-14-1.56962E-13
 -1      3401 1.96828E+01 2.46515E+00-3.44730E-03 1.17222E-01 1.36748E-13-1.43225E-13
 -1      3402 2.00032E+01 6.75977E-03-3.99372E-05-1.20867E-03 3.76400E-13 2.36074E-13
 -1      3403 2.00033E+01 6.37867E-03 5.57710E-06-1.66648E-03 3.96614E-13 3.80138E-13
 -1      3404 2.00037E+01 8.76920E-03 3.52773E-05-1.24221E-03 2.05954E-13 3.11259E-13
 -1      3405 2.00023E+01 2.15755E-03 4.16785E-05 4.10091E-03 1.17553E-15-2.05065E-14
 -1      3406 2.00032E+01 3.77279E-03-3.37581E-05 3.16924E-03 1.13784E-13-2.97506E-14
 -1      3407 2.00039E+01 6.71045E-03 6.22493E-05 2.02088E-03 1.38211E-13-2.19989E-13
 -1      3408 2.00031E+01 7.63563E-03-3.37600E-05-5.24457E-04 2.30805E-13-1.37559E-13
 -1      3409 2.00032E+01 7.42625E-03-9.78316E-06-9.09654E-04 2.79090E-13-7.12246E-14
 -1      3410 2.00036E+01 1.04244E-02 6.17466E-05-6.41897E-04 3.44364E-13-1.02264E-13
 -1      3411 2.00035E+01 1.13139E-02 7.30814E-05-2.83286E-04 2.27040E-13-8.60814E-14
 -1      3412 1.21480E+01-3.56460E-01 1.12262E-01 3.40709E+00-2.18259E-13 4.99774E-13
 -1      3413 1.84681E+01-3.53674E+00 5.07579E-02-5.23011E+00-4.63463E-13-8.67154E-14
 -1      3414 1.94756E+01-4.34142E+00 8.10177E-02-5.44622E+00-4.93668E-13-1.93734E-14
 -1      3415 2.10435E+01-4.43999E+00-4.26368E-03-4.61015E+00-4.34455E-13 1.18698E-13
 -1      3416 2.47792E+01-4.72823E+00 2.13433E-02-3.01918E+00-2.48711E-13 2.99386E-13
 -1      3417 2.54130E+01-4.20835E+00-1.59641E-02-1.80905E+00-1.96742E-13 2.03927E-13
 -1      3418 2.34728E+01-4.67790E+00 2.18006E-02-3.56467E+00-3.03570E-13 2.25780E-13
 -1      3419 2.12266E+01-4.18377E+00 1.18461E-01-4.29889E+00 6.41001E-13-1.91513E-14
 -1      3420 1.11295E+01-6.49483E-04 1.17845E-01-2.34285E+00-2.27072E-13-4.55053E-13
 -1      3421 1.00911E+01 2.24764E-01 1.40259E-01 1.39801E+00 5.22672E-15-5.60330E-13
 -1      3422 1.10642E+01 5.63956E-01 6.85914E-02 4.61091E-01-4.66311E-14-4.75842E-13
 -1      3423 1.15108E+01 7.28272E-02 3.04658E-02 2.31172E+00 7.84043E-14-5.14991E-13
 -1      3424 2.06659E+01 4.12172E-02 9.56657E-05-1.08108E+00-3.23580E-14 6.69850E-14
 -1      3425 2.05842E+01 1.63313E-01 5.22421E-03-1.03125E+00 9.68232E-15 2.40048E-14
 -1      3426 2.04236E+01 2.78673E-01-4.87940E-03-1.03513E+00 7.03314E-15 4.30506E-14
 -1      3427 2.05532E+01-6.14205E-03-6.81130E-03-1.19290E+00-6.96950E-14 8.38560E-14
 -1      3428 2.50021E+01-3.89268E+00 1.22433E-02 1.47077E+00-2.27198E-13-3.54725E-13
 -1      3429 2.36891E+01-3.72437E+00 1.66770E-02 1.99805E+00-2.11098E-13-2.82867E-13
 -1      3430 2.51754E+01-3.15782E+00-5.94445E-02 3.11382E-01-1.85503E-13-3.47396E-13
 -1      3431 1.67661E+01-2.43524E+00 8.30664E-02 4.98130E+00-2.87152E-13 3.37834E-13
 -1      3432 1.56015E+01-1.49519E+00 2.95802E-02 4.38445E+00-3.06206E-13 4.31939E-13
 -1      3433 1.87191E+01-2.61988E+00 3.87743E-02 4.21752E+00-3.28044E-13 1.65493E-13
 -1      3434 1.42298E+01-1.89085E+00 1.35666E-01-5.08294E+00-3.86628E-13-1.74902E-13
 -1      3435 1.57876E+01-2.40728E+00 4.65430E-02-5.09482E+00-4.17465E-13-1.37813E-13
 -1      3436 1.35732E+01-1.13312E+00 4.42521E-02-4.29714E+00-3.24102E-13-1.87607E-13
 -1      3437 2.04548E+01 6.93982E-01-7.19866E-04-4.36715E-01 1.44369E-13-3.89626E-14
 -1      3438 2.04653E+01 8.38064E-01 4.11198E-03-2.45622E-01 1.53842E-13-3.03600E-14
 -1      3439 2.03911E+01 1.01228E+00-3.99592E-03-1.92048E-01 1.64093E-13-2.07091E-14
 -1      3440 2.03673E+01 7.70992E-01-2.39069E-03-5.20847E-01 1.25581E-13-7.03075E-15
 -1      3441 1.94281E+01-3.17020E+00 7.93146E-02 4.43544E+00 2.67272E-13-1.31430E-13
 -1      3442 2.67793E+01-7.98556E-01-6.00484E-02-1.68291E+00 8.32424E-14-4.28754E-13
 -1      3443 2.61205E+01-1.71347E+00-3.06097E-02-1.04927E+00 1.63099E-14-4.13915E-13
 -1      3444 1.22733E+01 2.95104E-01 4.49062E-02-2.23383E+00 1.67470E-13 3.30722E-13
 -1      3445 1.20910E+01-2.64210E-01 1.21307E-01-3.14158E+00 2.26080E-13 3.54702E-13
 -1      3446 1.39569E+01-5.86079E-01 5.02156E-02-3.55894E+00 2.80199E-13 7.48013E-14
 -1      3447 2.65945E+01 1.14444E+00-8.22190E-02-2.12329E+00 2.43139E-13-4.02331E-13
 -1      3448 1.94691E+01 2.69190E+00-4.85055E-03-1.38361E-01-1.13451E-14-2.46339E-13
 -1      3449 1.95664E+01 2.59108E+00-4.85359E-03-1.78646E-01-3.68232E-14-2.47240E-13
 -1      3450 1.63307E+01-2.85020E+00 1.34025E-01-5.16353E+00 5.44786E-13 5.20348E-14
 -1      3451 1.90480E+01-3.90494E+00 1.33287E-02-4.94942E+00 6.02851E-13-1.53072E-14
 -1      3452 1.99331E+01-3.31283E+00 2.24272E-02-4.19399E+00 5.18037E-13-3.98778E-14
 -1      3453 1.62788E+01-2.12451E+00 5.60313E-02-4.58681E+00 4.53353E-13-4.81767E-14
 -1      3454 1.96654E+01 2.30398E+00 6.69190E-03-6.05160E-02-5.37721E-14-1.96399E-13
 -1      3455 1.96917E+01 2.45380E+00-5.20159E-03-1.83472E-01-6.08555E-14-2.12177E-13
 -1      3456 1.98363E+01 2.28294E+00-6.48554E-03-2.28187E-01-9.80971E-14-1.91016E-13
 -1      3457 2.49605E+01 4.03195E-02-9.91276E-03-1.95508E+00 5.19446E-14-3.00266E-13
 -1      3458 1.15865E+01 6.87811E-01 5.62079E-02 1.34406E+00-7.58109E-14 4.95014E-13
 -1      3459 1.16744E+01 7.84210E-01 3.47590E-02-3.76872E-01 1.00046E-14 3.48686E-13
 -1      3460 2.87741E+01-2.75055E+00 1.49421E-01-6.25968E-01-4.47212E-14 1.28758E-13
 -1      3461 1.85210E+01-2.40008E+00 4.97995E-02 4.31573E+00 1.99889E-13-1.95993E-13
 -1      3462 1.94068E+01 1.10673E+00-4.01837E-03 1.16247E+00-7.53190E-14-9.66829E-14
 -1      3463 1.93001E+01 1.05984E+00 8.46234E-04 1.32107E+00-5.56534E-14-7.70610E-14
 -1      3464 1.90873E+01 1.00439E+00-6.22868E-03 1.47277E+00-6.29696E-14-5.76221E-14
 -1      3465 1.89785E+01 9.41068E-01 3.68524E-03 1.63566E+00-1.42710E-14-6.27778E-14
 -1      3466 1.89035E+01 1.17824E+00 6.80489E-03 1.25643E+00-3.95347E-14-4.41292E-14
 -1      3467 1.87189E+01 8.46250E-01-8.87063E-03 1.81301E+00 1.76815E-14-8.13719E-14
 -1      3468 1.86329E+01 7.24580E-01 8.50212E-03 1.99765E+00 3.45741E-14-1.28084E-13
 -1      3469 1.84448E+01 1.05498E+00 7.75798E-03 1.56663E+00-1.91040E-14-7.15108E-14
 -1      3470 1.83332E+01 5.41013E-01-1.10606E-02 2.23072E+00 8.02921E-14-1.57595E-13
 -1      3471 1.83208E+01 3.06746E-01 1.84808E-02 2.45831E+00 1.38345E-13-1.51804E-13
 -1      3472 1.79027E+01 8.29652E-01 8.00489E-03 1.95782E+00 4.92150E-14-1.45339E-13
 -1      3473 1.80095E+01-3.26856E-02-6.89764E-03 2.79351E+00 1.63663E-13-2.04340E-13
 -1      3474 1.81591E+01-4.54693E-01 3.98016E-02 3.08718E+00 1.67928E-13-1.96497E-13
 -1      3475 1.72960E+01 3.84561E-01 5.38473E-03 2.51311E+00 1.36971E-13-2.34014E-13
 -1      3476 1.79771E+01-9.69981E-01 3.70382E-03 3.49698E+00 2.03844E-13-2.19217E-13
 -1      3477 1.84503E+01-1.65073E+00 6.65598E-02 3.81482E+00 1.90761E-13-2.29596E-13
 -1      3478 1.66643E+01-1.42257E+00 5.34620E-02 4.21464E+00 2.27249E-13-3.08434E-13
 -1      3479 1.68124E+01-3.24081E-01 2.01411E-02 3.25884E+00 1.57974E-13-2.65917E-13
 -1      3480 1.80308E+01-1.02672E+00 2.15300E-02-3.36951E+00 2.68910E-13-6.31830E-14
 -1      3481 1.77998E+01-3.71352E-01 1.28047E-02-3.01079E+00 1.58145E-13-5.28319E-14
 -1      3482 1.80811E+01 2.97604E-02 2.59841E-02-2.59929E+00 4.66648E-14-2.63975E-14
 -1      3483 1.80168E+01 3.41160E-01-9.70790E-03-2.33931E+00-4.69006E-14-2.07026E-14
 -1      3484 1.68469E+01 1.01908E-01 1.35664E-02-2.74733E+00 9.50177E-14-1.21543E-13
 -1      3485 1.83117E+01 5.77326E-01 1.32834E-02-2.06228E+00-8.09515E-14 7.15902E-14
 -1      3486 1.83561E+01 7.25211E-01-1.04726E-02-1.86446E+00-6.07117E-14 1.89657E-14
 -1      3487 1.74187E+01 6.78486E-01 9.35947E-03-2.07150E+00-5.55198E-15 9.67391E-14
 -1      3488 1.86211E+01 8.29459E-01 6.37005E-03-1.67202E+00-8.09936E-14-6.08668E-14
 -1      3489 1.87051E+01 8.78855E-01-8.69135E-03-1.51631E+00-1.00263E-13-7.10372E-14
 -1      3490 1.79619E+01 9.43447E-01 8.54734E-03-1.62203E+00-1.02439E-13 1.28563E-13
 -1      3491 1.89267E+01 9.03601E-01 3.03881E-03-1.37429E+00 4.13585E-14-1.09627E-13
 -1      3492 1.90146E+01 8.95891E-01-6.87621E-03-1.24619E+00 1.11229E-13 1.44778E-14
 -1      3493 1.84291E+01 1.02242E+00 7.68043E-03-1.31017E+00-4.20665E-14 1.18919E-13
 -1      3494 1.91933E+01 8.75886E-01 1.52436E-03-1.13422E+00 7.30110E-14-1.18964E-14
 -1      3495 1.92701E+01 8.37802E-01-5.46887E-03-1.02525E+00 1.35449E-13 1.26864E-13
 -1      3496 1.88122E+01 9.94137E-01 6.51295E-03-1.07617E+00 1.22064E-13 3.05954E-14
 -1      3497 1.94108E+01 7.95318E-01 9.21660E-04-9.32601E-01 1.15910E-13 5.83710E-14
 -1      3498 1.94716E+01 7.43601E-01-4.38523E-03-8.38531E-01 1.33346E-13 8.60473E-14
 -1      3499 1.91171E+01 9.08448E-01 5.29372E-03-8.87762E-01 1.70546E-13 4.46880E-14
 -1      3500 1.95804E+01 6.92274E-01 7.40947E-04-7.59943E-01 1.37647E-13 5.94672E-14
 -1      3501 1.96257E+01 6.36949E-01-3.53624E-03-6.78785E-01 1.35895E-13 4.41061E-14
 -1      3502 1.93543E+01 7.96710E-01 4.17240E-03-7.29001E-01 1.63762E-13 1.31225E-14
 -1      3503 1.97085E+01 5.84700E-01 7.17852E-04-6.11731E-01 1.09472E-13 7.01528E-14
 -1      3504 1.97407E+01 5.31425E-01-2.85194E-03-5.42397E-01 1.19050E-13 3.54672E-14
 -1      3505 1.95355E+01 6.78142E-01 3.20977E-03-5.92628E-01 1.61426E-13 1.45046E-14
 -1      3506 1.98028E+01 4.82534E-01 7.28082E-04-4.85534E-01 2.31555E-14 7.67522E-14
 -1      3507 1.98247E+01 4.34212E-01-2.28928E-03-4.27146E-01-4.96248E-14 1.20352E-14
 -1      3508 1.96717E+01 5.63897E-01 2.42088E-03-4.75413E-01 7.99045E-15 5.22295E-15
 -1      3509 1.98708E+01 3.90712E-01 7.22282E-04-3.79516E-01 1.80040E-14 5.70761E-14
 -1      3510 1.98850E+01 3.48564E-01-1.82342E-03-3.31133E-01 6.48782E-14 1.32494E-13
 -1      3511 1.97726E+01 4.59906E-01 1.79536E-03-3.75652E-01 3.05013E-14 5.22951E-14
 -1      3512 1.99187E+01 3.11158E-01 6.88153E-04-2.91841E-01-1.03748E-13 7.55725E-14
 -1      3513 1.99275E+01 2.75415E-01-1.43841E-03-2.52405E-01-2.36008E-13-9.94522E-14
 -1      3514 1.98463E+01 3.68793E-01 1.31133E-03-2.91997E-01-6.69366E-14 3.76124E-15
 -1      3515 1.99518E+01 2.44051E-01 6.29535E-04-2.20518E-01-1.41737E-13 2.10209E-14
 -1      3516 1.99569E+01 2.14400E-01-1.12236E-03-1.88897E-01-1.18920E-13 9.23283E-14
 -1      3517 1.98993E+01 2.91174E-01 9.43846E-04-2.23018E-01-1.47019E-13 1.33795E-13
 -1      3518 1.99741E+01 1.88627E-01 5.55427E-04-1.63446E-01-3.37899E-13 2.01558E-13
 -1      3519 1.99767E+01 1.64478E-01-8.65354E-04-1.38498E-01-2.83754E-13 1.90780E-13
 -1      3520 1.99368E+01 2.26504E-01 6.69170E-04-1.67121E-01-1.47408E-13 3.00397E-13
 -1      3521 1.99887E+01 1.43664E-01 4.74859E-04-1.18521E-01-2.03330E-13 7.84619E-14
 -1      3522 1.99897E+01 1.24315E-01-6.58626E-04-9.91531E-02-7.72605E-14 3.38444E-14
 -1      3523 1.99628E+01 1.73621E-01 4.66644E-04-1.22604E-01-2.76441E-13 4.02634E-13
 -1      3524 1.99978E+01 1.07765E-01 3.94946E-04-8.37354E-02 6.81687E-14 1.37418E-14
 -1      3525 1.99978E+01 9.24931E-02-4.94316E-04-6.89424E-02 1.30434E-13-5.00850E-14
 -1      3526 1.99803E+01 1.31090E-01 3.19255E-04-8.77583E-02 5.35598E-15 1.63129E-13
 -1      3527 2.00032E+01 7.95242E-02 3.20541E-04-5.72475E-02 1.31153E-13-1.03979E-13
 -1      3528 2.00026E+01 6.76406E-02-3.65324E-04-4.61405E-02 1.81294E-13-1.00966E-13
 -1      3529 1.99918E+01 9.74052E-02 2.13393E-04-6.09513E-02 1.26046E-13-8.02346E-14
 -1      3530 2.00059E+01 5.76148E-02 2.54535E-04-3.74301E-02 1.17543E-13-2.50045E-13
 -1      3531 2.00050E+01 4.84865E-02-2.65848E-04-2.92452E-02-4.04500E-14-2.20659E-13
 -1      3532 1.99989E+01 7.11068E-02 1.38600E-04-4.06944E-02 7.08042E-14-1.52887E-13
 -1      3533 2.00069E+01 4.08266E-02 1.98102E-04-2.28899E-02-1.01043E-14-2.33461E-13
 -1      3534 2.00059E+01 3.38894E-02-1.90685E-04-1.69912E-02 9.00084E-14-2.27096E-13
 -1      3535 2.00030E+01 5.08375E-02 8.55887E-05-2.56766E-02 6.21019E-14-3.41118E-13
 -1      3536 2.00068E+01 2.80943E-02 1.51152E-04-1.24728E-02 1.77303E-13-2.34916E-13
 -1      3537 2.00058E+01 2.28626E-02-1.33122E-04-8.34045E-03 2.98611E-13-1.06551E-13
 -1      3538 2.00049E+01 3.53899E-02 5.02958E-05-1.47955E-02 1.72721E-13-2.96966E-13
 -1      3539 2.00061E+01 1.84879E-02 1.16415E-04-5.21864E-03 3.28220E-13-2.02710E-13
 -1      3540 2.00051E+01 1.45560E-02-7.52015E-05-2.46418E-03 2.97299E-13-2.21026E-13
 -1      3541 2.00054E+01 2.36868E-02 1.55849E-05-7.13014E-03 2.71257E-13-1.45807E-13
 -1      3542 2.00050E+01 1.20088E-02 9.91750E-05-8.17680E-04 2.04629E-13-2.69224E-13
 -1      3543 2.00042E+01 8.91048E-03-3.60103E-05 9.27750E-04 4.97268E-14-2.84008E-13
 -1      3544 2.00043E+01 9.87577E-03-6.98633E-05 4.93588E-04 1.80654E-13-9.26855E-14
 -1      3545 2.00050E+01 1.55656E-02-5.16230E-05-2.31154E-03 2.43454E-13-2.99161E-13
 -1      3546 2.47258E+01 4.47578E+00-7.42919E-02 2.44769E-01 3.65652E-13 5.38024E-14
 -1      3547 2.52589E+01 4.94686E+00-1.12430E-01-5.00253E-01 4.69902E-13-1.83863E-14
 -1      3548 2.44675E+01-1.70896E+00-6.61139E-03 9.85831E-01-1.79128E-14 2.33878E-13
 -1      3549 2.42216E+01-2.13813E+00-5.15019E-03 5.26471E-01-6.60687E-14 2.43238E-13
 -1      3550 2.35926E+01-2.28636E+00-1.30163E-02-3.85133E-02-7.22278E-14 2.53642E-13
 -1      3551 2.32210E+01-2.24794E+00 2.05182E-02-4.57827E-01-9.90244E-14 2.73258E-13
 -1      3552 2.41101E+01-2.58153E+00 6.48526E-03-1.71043E-01-5.50809E-14 1.83192E-13
 -1      3553 2.48215E+01 2.83405E+00-4.37420E-02 1.78618E+00 2.64636E-13 2.43333E-13
 -1      3554 2.49405E+01 1.60397E+00-1.00394E-01 2.02771E+00 2.84571E-13 2.63727E-13
 -1      3555 2.49368E+01-9.75042E-01-4.84520E-02-1.64245E+00 1.58313E-13-2.64944E-13
 -1      3556 2.41163E+01-2.49084E+00 1.90054E-02-2.99798E-02-1.34545E-13-3.81292E-14
 -1      3557 2.45150E+01-2.17117E+00 6.06941E-04-5.26422E-01 1.95688E-14-1.38792E-13
 -1      3558 2.20919E+01-1.71009E+00 2.11693E-02 9.65162E-01-1.00256E-13 2.05226E-13
 -1      3559 2.25088E+01-1.94284E+00 8.63322E-03 6.80663E-01-1.15869E-13 1.46351E-13
 -1      3560 2.12865E+01-1.11962E+00 1.70073E-02 1.21961E+00-2.17829E-14 2.01527E-13
 -1      3561 2.15980E+01-1.41230E+00-5.01782E-04 1.08963E+00-3.37501E-14 1.98082E-13
 -1      3562 2.15510E+01-1.69926E+00-9.47342E-03 1.39167E+00-7.09567E-14 4.90450E-14
 -1      3563 2.07201E+01-5.91766E-01 1.03309E-02 1.28111E+00-6.46106E-14 1.30445E-13
 -1      3564 2.09508E+01-8.46502E-01 2.47767E-04 1.24403E+00-2.53079E-14 1.90375E-13
 -1      3565 2.07838E+01-1.07000E+00-1.96580E-02 1.49869E+00-1.55343E-14 7.21706E-14
 -1      3566 2.03617E+01-1.94385E-01 5.70974E-03 1.22244E+00-7.86085E-14 2.50765E-14
 -1      3567 2.05215E+01-3.78423E-01 2.69990E-03 1.23816E+00-7.28860E-14 1.23476E-13
 -1      3568 2.02975E+01-4.99158E-01-1.25935E-02 1.43029E+00-9.49842E-15 7.67196E-14
 -1      3569 2.01501E+01 7.36613E-02 2.68112E-03 1.10646E+00-9.20374E-14 1.10538E-13
 -1      3570 2.02542E+01-4.60938E-02 2.97858E-03 1.15179E+00-1.02816E-13 6.70360E-14
 -1      3571 2.00219E+01-9.56656E-02-7.67383E-03 1.29013E+00-1.44428E-13 6.18173E-14
 -1      3572 2.00355E+01 2.34062E-01 7.80683E-04 9.66255E-01-7.09427E-14 4.68574E-14
 -1      3573 2.01011E+01 1.65699E-01 2.76801E-03 1.02607E+00-3.81380E-14 1.22171E-13
 -1      3574 1.98825E+01 1.65025E-01-4.29658E-03 1.12340E+00-6.06798E-14 1.32067E-13
 -1      3575 1.99810E+01 3.14120E-01-3.36059E-04 8.21191E-01-1.10136E-14-1.23957E-13
 -1      3576 2.00214E+01 2.82998E-01 2.38853E-03 8.85957E-01-7.31530E-14-6.40032E-14
 -1      3577 1.98277E+01 3.13014E-01-2.18315E-03 9.54445E-01 3.95490E-15 5.70953E-14
 -1      3578 1.99610E+01 3.39000E-01-9.23240E-04 6.82242E-01-8.54248E-14-2.93669E-13
 -1      3579 1.99859E+01 3.32815E-01 2.02927E-03 7.46015E-01 4.98585E-14-1.61220E-13
 -1      3580 1.98211E+01 3.79960E-01-9.12089E-04 7.95046E-01 3.38006E-14-1.22899E-13
 -1      3581 1.99594E+01 3.28968E-01-1.17490E-03 5.55405E-01-1.70789E-13-3.03611E-13
 -1      3582 1.99750E+01 3.38117E-01 1.72822E-03 6.14651E-01-2.19000E-13-3.93975E-13
 -1      3583 1.98392E+01 3.92718E-01-1.97422E-04 6.50762E-01-3.33739E-14-1.82759E-13
 -1      3584 1.99662E+01 2.99050E-01-1.22273E-03 4.43586E-01-6.50308E-14-3.28082E-13
 -1      3585 1.99764E+01 3.16563E-01 1.47880E-03 4.96399E-01-1.22461E-13-3.84668E-13
 -1      3586 1.98675E+01 3.72126E-01 1.66171E-04 5.23860E-01-1.54382E-13-2.89593E-13
 -1      3587 1.99758E+01 2.59702E-01-1.15379E-03 3.47723E-01 3.80253E-15-1.37114E-13
 -1      3588 1.99829E+01 2.80817E-01 1.26578E-03 3.93307E-01 2.16228E-14-2.40759E-13
 -1      3589 1.98977E+01 3.33274E-01 3.18970E-04 4.14799E-01-6.91194E-14-3.27176E-13
 -1      3590 1.99852E+01 2.17783E-01-1.02468E-03 2.67482E-01 1.70545E-14-5.79523E-14
 -1      3591 1.99906E+01 2.39434E-01 1.07766E-03 3.05784E-01-2.43881E-14-1.14723E-13
 -1      3592 1.99255E+01 2.86505E-01 3.52561E-04 3.22966E-01-1.10382E-13-1.61629E-14
 -1      3593 1.99931E+01 1.77482E-01-8.71542E-04 2.01741E-01 1.88965E-13 1.29440E-14
 -1      3594 1.99974E+01 1.97844E-01 9.08512E-04 2.33178E-01 1.85636E-13-4.70435E-14
 -1      3595 1.99489E+01 2.38505E-01 3.24792E-04 2.47090E-01 3.68865E-14 8.84461E-14
 -1      3596 1.99990E+01 1.41106E-01-7.16600E-04 1.48931E-01 2.38206E-13 1.89807E-13
 -1      3597 2.00026E+01 1.59217E-01 7.56137E-04 1.74193E-01 1.64795E-13 7.49729E-14
 -1      3598 1.99674E+01 1.93287E-01 2.70647E-04 1.85515E-01 1.44258E-13 2.30727E-13
 -1      3599 2.00031E+01 1.09693E-01-5.72605E-04 1.07298E-01 2.28044E-13 2.40135E-13
 -1      3600 2.00062E+01 1.25164E-01 6.20140E-04 1.27200E-01 2.53316E-13 2.14079E-13
 -1      3601 1.99814E+01 1.52985E-01 2.10095E-04 1.36406E-01 2.36315E-13 2.66508E-13
 -1      3602 2.00056E+01 8.34658E-02-4.46063E-04 7.50701E-02 2.48128E-13 3.05068E-13
 -1      3603 2.00082E+01 9.62727E-02 5.00639E-04 9.04512E-02 2.46436E-13 3.65163E-13
 -1      3604 1.99913E+01 1.18478E-01 1.53599E-04 9.79012E-02 1.83350E-13 1.44094E-13
 -1      3605 2.00068E+01 6.21601E-02-3.39491E-04 5.05781E-02 2.00218E-13 2.74850E-13
 -1      3606 2.00090E+01 7.24904E-02 3.97549E-04 6.22392E-02 3.50614E-13 3.76142E-13
 -1      3607 1.99980E+01 8.98436E-02 1.05701E-04 6.82233E-02 2.12163E-13 4.00183E-13
 -1      3608 2.00070E+01 4.52452E-02-2.52503E-04 3.23233E-02 3.51464E-15 1.98215E-13
 -1      3609 2.00089E+01 5.33972E-02 3.10426E-04 4.09865E-02 7.95995E-14 2.61835E-13
 -1      3610 2.00022E+01 6.66873E-02 6.77213E-05 4.57493E-02 1.61141E-13 4.98838E-13
 -1      3611 2.00066E+01 3.20715E-02-1.83711E-04 1.90065E-02 8.05748E-14 1.32349E-14
 -1      3612 2.00083E+01 3.83898E-02 2.38550E-04 2.52985E-02 6.53761E-14 1.66777E-14
 -1      3613 2.00045E+01 4.83644E-02 3.94373E-05 2.90533E-02 1.48919E-13 3.28312E-13
 -1      3614 2.00058E+01 2.19486E-02-1.29416E-04 9.54203E-03 1.18039E-13 1.96366E-13
 -1      3615 2.00072E+01 2.67865E-02 1.81138E-04 1.39802E-02 1.39477E-13 7.95500E-14
 -1      3616 2.00054E+01 3.41122E-02 1.58803E-05 1.69073E-02 3.72094E-14 1.12249E-13
 -1      3617 2.00048E+01 1.41738E-02-9.23797E-05 3.08720E-03 1.85283E-13 1.27077E-13
 -1      3618 2.00059E+01 1.78564E-02 1.25208E-04 6.04812E-03 9.75105E-14 2.19066E-13
 -1      3619 2.00054E+01 2.31517E-02 1.01610E-06 8.28823E-03 7.77393E-14 2.80612E-13
 -1      3620 2.00037E+01 8.26175E-03-4.11258E-05-1.14108E-03 3.86019E-13 2.43372E-14
 -1      3621 2.00045E+01 1.10965E-02 8.95699E-05 7.61150E-04 3.15023E-13 1.83677E-13
 -1      3622 2.00048E+01 1.48876E-02 2.50386E-05 2.48153E-03 2.43268E-13 2.44099E-13
 -1      3623 2.00029E+01 3.67791E-03-2.45344E-05-3.14060E-03 9.60594E-14 3.46785E-13
 -1      3624 2.00025E+01 3.13953E-03 5.19920E-06-3.61800E-03-2.32394E-14 1.88585E-13
 -1      3625 2.00028E+01 4.33537E-03-1.31828E-06-3.21357E-03 4.25659E-14 1.04050E-13
 -1      3626 2.00034E+01 6.54174E-03-3.02183E-06-2.16807E-03 1.75441E-13 4.05264E-13
 -1      3627 1.34483E+01-3.34393E-01 7.45994E-03 3.37042E+00-1.88599E-13 3.51316E-13
 -1      3628 1.22005E+01 3.70788E-01 7.34410E-02 2.35932E+00-7.09519E-14 4.58175E-13
 -1      3629 1.31355E+01 7.20211E-01 6.16824E-02 1.51156E+00-1.25260E-14 4.89140E-13
 -1      3630 2.02507E+01 5.91308E-01 1.15310E-04-8.75867E-01 2.98148E-14-9.24816E-15
 -1      3631 2.02404E+01 7.29510E-01 2.62119E-03-7.37725E-01 5.64435E-14 3.58177E-15
 -1      3632 2.01502E+01 1.77960E+00-3.85885E-03-1.43258E-01-1.41314E-13-1.44241E-13
 -1      3633 1.89389E+01-2.13307E+00 8.31087E-02-3.95402E+00 4.40580E-13 3.78413E-14
 -1      3634 1.93571E+01 2.80650E+00-4.03781E-03-9.38962E-02-9.20093E-15-2.77824E-13
 -1      3635 1.93986E+01 2.76409E+00-4.64183E-03-1.34029E-01-1.98744E-14-2.66811E-13
 -1      3636 1.94719E+01 2.51043E+00 7.31979E-03-7.22877E-02-1.55136E-14-2.41963E-13
 -1      3637 1.14324E+01 5.15083E-01 6.93507E-02-1.37720E+00-1.78571E-13-4.58557E-13
 -1      3638 1.24224E+01-7.48599E-02 4.89249E-02-2.89573E+00-2.32470E-13-3.15574E-13
 -1      3639 1.98558E+01 1.40280E+00-1.71169E-03 5.08318E-01-9.52280E-14-1.21624E-13
 -1      3640 1.97852E+01 1.30140E+00-1.68395E-03 6.94294E-01-6.82947E-14-1.22212E-13
 -1      3641 2.00034E+01 1.48886E-02-3.17902E-05-2.77932E-04 4.37808E-13 1.45712E-13
 -1      3642 2.00033E+01 1.51404E-02-4.72809E-05-3.13437E-04 3.68507E-13 2.29103E-13
 -1      3643 2.52436E+01 4.06745E-01-2.42957E-02 1.96025E+00 2.18200E-13 2.37712E-13
 -1      3644 2.52183E+01-7.41383E-01-4.65567E-02 1.67242E+00 6.55569E-14 2.49686E-13
 -1      3645 1.51389E+01-1.04775E+00 3.20438E-02 3.92217E+00 2.19566E-13-3.11966E-13
 -1      3646 1.28521E+01-1.33956E-01 1.35146E-01 3.22053E+00 1.40003E-13-4.79644E-13
 -1      3647 1.28896E+01 2.55425E-01 2.08439E-02 2.26931E+00 9.60777E-14-4.28123E-13
 -1      3648 1.51544E+01-4.50823E-01-2.37087E-02 3.39285E+00 1.71353E-13-2.98605E-13
 -1      3649 2.10853E+01-9.23602E-01 4.35249E-04-1.40368E+00-5.43012E-14 4.09992E-14
 -1      3650 2.08591E+01-6.48353E-01 1.16078E-02-1.44425E+00-4.17344E-14 2.18025E-14
 -1      3651 1.96657E+01 1.22050E+00-2.47342E-03 8.48349E-01-6.06968E-14-1.14478E-13
 -1      3652 1.95727E+01 1.15934E+00-9.32348E-04 1.01577E+00-7.84699E-14-1.09172E-13
 -1      3653 1.92743E+01 1.27911E+00 5.88617E-03 9.72914E-01-5.90837E-14-9.02565E-14
 -1      3654 2.20727E+01-3.58652E+00-2.80421E-02 2.96188E+00-2.49835E-13-2.70091E-13
 -1      3655 2.07264E+01-3.13731E+00 3.43781E-02 3.56608E+00-2.13095E-13-1.25707E-13
 -1      3656 2.25812E+01-2.07113E+00-1.01065E-02-8.06054E-01-1.00703E-13 2.56712E-13
 -1      3657 2.22174E+01-1.80833E+00 2.33936E-02-1.07738E+00-4.80823E-14 2.20264E-13
 -1      3658 2.28056E+01-2.44688E+00-1.38659E-02-1.06668E+00-9.09225E-14 1.92416E-13
 -1      3659 2.01613E+01 1.47360E+00-2.63246E-03-9.22888E-02 1.49377E-13-6.32561E-14
 -1      3660 2.00152E+01 1.66964E+00-2.21091E-03-1.12378E-01 1.22021E-13-7.53818E-14
 -1      3661 2.04850E+01-5.42836E-01-1.38912E-02-1.58667E+00-5.89839E-14-4.23501E-14
 -1      3662 2.06674E+01-4.09342E-01 2.29868E-03-1.40028E+00-2.50431E-14-2.03787E-14
 -1      3663 2.05184E+01-1.91591E-01 7.20601E-03-1.37682E+00-5.20122E-14-4.00748E-16
 -1      3664 2.00047E+01 1.44189E-02 9.48392E-05-1.01648E-03 2.48770E-13-5.06283E-14
 -1      3665 2.00042E+01 1.14643E-02-1.91375E-05 1.51141E-04 2.56283E-13 1.73403E-14
 -1      3666 2.00040E+01 1.24146E-02-6.90080E-05-2.01672E-04 3.05592E-13 9.74388E-14
 -1      3667 1.70947E+01-1.45538E+00 7.63284E-03-3.88282E+00 4.22148E-13-1.67470E-13
 -1      3668 1.99538E+01 1.60646E+00-3.52172E-03 2.23443E-01-9.22634E-14-1.38141E-13
 -1      3669 1.99180E+01 1.49939E+00-1.51980E-03 3.83862E-01-1.04099E-13-1.29267E-13
 -1      3670 1.97357E+01 1.60167E+00 3.73108E-03 4.11553E-01-8.92379E-14-1.09517E-13
 -1      3671 1.95595E+01 2.17095E+00-3.47852E-03 4.77583E-02-3.60313E-14-1.76183E-13
 -1      3672 1.96823E+01 2.03641E+00-4.18955E-03 6.27333E-02-7.24265E-14-1.59912E-13
 -1      3673 2.00198E+01 1.96162E+00-2.44957E-03-1.30959E-01-1.15278E-13-1.60537E-13
 -1      3674 2.29800E+01-3.32862E+00 1.68492E-02 2.02411E+00-2.20561E-13-2.59938E-13
 -1      3675 1.98058E+01 2.14328E+00 5.92714E-03 4.47856E-03 1.15289E-13-1.01773E-13
 -1      3676 2.43694E+01 3.58360E+00-9.63586E-02 1.18582E+00 2.59903E-13 1.95339E-13
 -1      3677 2.43312E+01 4.13718E+00-4.44261E-02 4.37230E-01 2.58557E-13 1.35328E-13
 -1      3678 2.32992E+01-2.23091E+00 1.06778E-02 2.33846E-01-1.22940E-13 2.46244E-14
 -1      3679 2.34027E+01-3.06056E+00-3.89134E-02 1.15182E+00-2.25753E-13-8.18286E-14
 -1      3680 2.21008E+01-2.77837E+00 8.32413E-03 2.03560E+00-2.06278E-13-2.11195E-13
 -1      3681 2.28524E+01-2.13623E+00 3.10425E-02 6.46345E-01-1.43054E-13 1.16962E-13
 -1      3682 2.23045E+01-2.33802E+00-2.75822E-02 1.27938E+00-1.63863E-13 8.36978E-14
 -1      3683 2.00040E+01 9.40585E-03-2.43512E-05-7.31590E-04 2.72578E-13 3.49216E-13
 -1      3684 2.00038E+01 8.22749E-03 5.55949E-07-1.30227E-03 2.23281E-13 3.24406E-13
 -1      3685 2.00032E+01 5.66512E-03 3.76736E-05-2.52027E-03 2.79869E-13 1.01263E-13
 -1      3686 1.51328E+01-6.70679E-01 7.29338E-02 3.71539E+00-2.54763E-13 4.25385E-13
 -1      3687 1.49772E+01-7.32048E-03 2.68589E-02 2.88936E+00-9.64784E-14 2.60706E-13
 -1      3688 1.67285E+01-1.20651E+00-3.80500E-02 3.67905E+00-2.93553E-13 4.69973E-13
 -1      3689 1.93917E+01 2.59049E+00 7.29924E-03-7.99454E-02-6.21343E-15-2.53611E-13
 -1      3690 2.00032E+01 1.51849E-02-4.23651E-05-2.21135E-05 3.93292E-13 8.79648E-14
 -1      3691 2.00033E+01 1.49477E-02-4.03512E-05-3.87343E-05 4.15383E-13-3.42283E-13
 -1      3692 2.00033E+01 1.95267E-02 1.10030E-04-2.22661E-04 6.21638E-13 1.45153E-13
 -1      3693 2.40191E+01 3.42492E+00-2.11364E-02-1.04997E+00 3.45446E-13-6.05037E-14
 -1      3694 2.02567E+01 4.56950E-01 3.43591E-03-1.00846E+00 9.29432E-16 1.40738E-15
 -1      3695 2.00960E+01 6.29703E-01-2.64414E-03-9.55025E-01 1.67196E-14-3.97268E-14
 -1      3696 2.02980E+01 3.15394E-01 1.55098E-03-1.11258E+00-2.53287E-14 4.39916E-14
 -1      3697 1.96114E+01 2.11904E+00-2.07820E-03-1.32657E-01 8.41513E-14-1.38394E-13
 -1      3698 1.95069E+01 2.21864E+00-4.71495E-03-1.45273E-01 5.92553E-14-1.76103E-13
 -1      3699 2.00038E+01 1.35316E-02-2.44845E-05-2.53164E-04 5.29520E-13 1.50817E-13
 -1      3700 2.00036E+01 1.41864E-02-5.78668E-05-4.13373E-04 4.88894E-13 1.10011E-13
 -1      3701 2.00036E+01 1.87421E-02 9.81721E-05-8.63460E-04 5.40612E-13 2.75711E-13
 -1      3702 2.00041E+01 1.70160E-02 9.82030E-05-1.16693E-03 5.30576E-13-3.76812E-14
 -1      3703 1.73256E+01-2.73398E+00 8.65926E-02-5.07452E+00-4.15321E-13-1.38195E-13
 -1      3704 1.87318E+01-3.07734E+00 2.10174E-02-4.64187E+00-3.99330E-13-5.81445E-14
 -1      3705 1.62220E+01-1.98980E+00 1.34624E-02-4.63554E+00-3.34340E-13-1.26302E-13
 -1      3706 2.24116E+01-4.41968E+00 4.83788E-02-3.88358E+00-3.46431E-13 1.41811E-13
 -1      3707 2.33021E+01-4.27240E+00-3.49616E-02-2.93176E+00-2.43531E-13 1.49248E-13
 -1      3708 2.11382E+01-3.84548E+00 1.68641E-02-4.05568E+00-3.62481E-13 5.25656E-14
 -1      3709 1.31661E+01 1.00377E+00 2.54666E-02-3.36813E-01 6.50313E-14 2.60410E-13
 -1      3710 1.24916E+01 8.31961E-01 8.42753E-02-1.19721E+00 5.71097E-14 3.28279E-13
 -1      3711 1.36100E+01 5.77388E-01 2.51890E-02-1.90382E+00 1.13389E-13 2.18013E-13
 -1      3712 2.05056E+01-2.45361E+00 2.79386E-02 3.02672E+00-2.73781E-13-2.50347E-13
 -1      3713 1.96996E+01-2.67617E+00 1.08750E-02 3.80365E+00-2.25318E-13-6.44415E-14
 -1      3714 1.86208E+01-1.93541E+00 4.07425E-02 3.73074E+00-3.00172E-13 1.47816E-13
 -1      3715 2.14129E+01-1.20709E+00 1.77837E-02-1.37248E+00-6.90097E-14 1.06804E-13
 -1      3716 2.09522E+01-1.15749E+00-2.14532E-02-1.64621E+00-7.96560E-14-6.55444E-15
 -1      3717 2.17203E+01-1.51591E+00-3.02385E-03-1.23881E+00-6.66953E-14 1.47219E-13
 -1      3718 1.18277E+01 7.71819E-01 9.35380E-02-4.49913E-01-7.74181E-14-4.23432E-13
 -1      3719 1.28909E+01 7.22829E-01 3.16293E-02-1.07314E+00-8.16439E-14-3.62925E-13
 -1      3720 1.24374E+01 8.13234E-01 2.45036E-02 5.27668E-01 2.11896E-14-3.36092E-13
 -1      3721 1.95572E+01 1.41563E+00 4.74850E-03 6.83561E-01-7.45833E-14-7.37835E-14
 -1      3722 1.33631E+01-3.13887E-01 9.96364E-02-3.40959E+00-2.61621E-13-2.44790E-13
 -1      3723 1.44391E+01-8.09751E-01 3.08514E-02-3.80836E+00-2.49334E-13-1.69885E-13
 -1      3724 1.34263E+01 1.62110E-01 3.26698E-02-2.56518E+00-1.89839E-13-2.86736E-13
 -1      3725 2.02596E+01 8.40948E-01-3.56629E-04-6.02309E-01 8.89354E-14 1.34452E-15
 -1      3726 2.02733E+01 9.56958E-01 4.20555E-04-4.51826E-01 1.24626E-13-2.23728E-14
 -1      3727 2.01257E+01 8.99811E-01-1.09580E-03-6.79173E-01 5.96776E-14-9.81200E-15
 -1      3728 1.94599E+01 2.26954E+00-3.29811E-03-5.96270E-03-9.00658E-15-2.32717E-13
 -1      3729 1.94873E+01 2.05439E+00 4.18754E-03 1.07781E-01-2.65244E-14-1.70308E-13
 -1      3730 1.93903E+01 2.33816E+00-3.70275E-03-1.88305E-02-5.91647E-15-2.65047E-13
 -1      3731 2.00040E+01 1.15255E-02 1.26989E-05-2.50156E-04 1.28009E-13 5.30867E-13
 -1      3732 2.00042E+01 1.33798E-02-1.48891E-05 6.56349E-04 2.03703E-13 3.49328E-13
 -1      3733 1.94731E+01 2.07309E+00 6.11383E-03-2.04464E-01 3.98712E-14-1.76553E-13
 -1      3734 1.94257E+01 2.30618E+00-2.20467E-03-1.20548E-01 4.95594E-14-2.01345E-13
 -1      3735 1.93708E+01 2.35253E+00-4.72330E-03-1.20366E-01 2.45123E-14-2.32104E-13
 -1      3736 2.55368E+01-1.43554E+00-6.10138E-04-1.32856E+00 6.74599E-14-3.36332E-13
 -1      3737 2.57071E+01-2.30838E+00 2.36686E-02-6.58461E-01-3.37612E-14-3.39104E-13
 -1      3738 2.56259E+01-1.56512E+00-2.32523E-02 1.11863E+00 4.48617E-14 1.61513E-13
 -1      3739 2.00038E+01 1.23704E-02-8.11645E-05 2.51720E-05 1.81437E-13 1.69520E-13
 -1      3740 2.55743E+01-3.78751E+00-3.54450E-02-1.08455E+00-1.54213E-13 2.03827E-13
 -1      3741 2.56129E+01-2.85511E+00-1.42102E-02 2.45295E-02-4.00149E-14 2.38073E-13
 -1      3742 1.87417E+01 1.29230E+00-6.82003E-03 9.74793E-01-4.68454E-14-8.75644E-14
 -1      3743 1.85329E+01 1.24923E+00-1.63680E-03 1.10569E+00-4.81308E-14-1.00768E-13
 -1      3744 2.03084E+01 1.22175E+00 6.93551E-04-1.39491E-01 1.61677E-13-4.17463E-14
 -1      3745 2.02514E+01 1.13295E+00 2.19831E-03-3.17091E-01 1.43428E-13-3.57015E-14
 -1      3746 1.82023E+01 1.19570E+00-1.07937E-02 1.21709E+00-4.01208E-14-1.18005E-13
 -1      3747 1.79528E+01 1.13929E+00 6.33693E-04 1.36713E+00 3.72922E-15-1.18871E-13
 -1      3748 1.81313E+01 1.35235E+00 1.27636E-02 9.18301E-01-5.33390E-14-1.29661E-13
 -1      3749 1.75168E+01 1.04344E+00-1.73413E-02 1.51458E+00 2.27621E-14-1.61299E-13
 -1      3750 1.72341E+01 9.30938E-01 2.77641E-03 1.71112E+00 5.34312E-14-1.72233E-13
 -1      3751 1.74080E+01 1.26350E+00 2.26980E-02 1.14163E+00-1.98462E-14-1.82530E-13
 -1      3752 1.66419E+01 7.80800E-01-2.12420E-02 1.93803E+00 7.34869E-14-2.22741E-13
 -1      3753 1.63293E+01 5.51083E-01 1.21236E-02 2.25917E+00 8.72088E-14-2.94417E-13
 -1      3754 1.64221E+01 1.10415E+00 2.86143E-02 1.47821E+00 1.68554E-14-2.61999E-13
 -1      3755 1.58698E+01 2.99382E-01-1.94034E-02 2.55691E+00 1.54537E-13-2.96835E-13
 -1      3756 1.57006E+01-4.07396E-02 2.83318E-02 2.95891E+00 1.87247E-13-3.08035E-13
 -1      3757 1.45729E+01 3.68655E-01 7.97143E-02 2.58525E+00 1.63003E-13-3.21694E-13
 -1      3758 1.53957E+01 7.82448E-01 1.76241E-02 1.93998E+00 9.92336E-14-3.36565E-13
 -1      3759 1.56846E+01 2.92428E-01 2.62933E-02-2.50229E+00 2.15686E-13-4.41964E-14
 -1      3760 1.59491E+01 6.06504E-01-1.98792E-02-2.11729E+00 1.00555E-13-1.28205E-14
 -1      3761 2.02409E+01-7.82048E-01 1.32537E-02 1.73621E+00-3.37180E-14 8.37085E-14
 -1      3762 2.05174E+01-1.15020E+00-4.68827E-03 1.78354E+00-1.68416E-14 1.76942E-15
 -1      3763 1.99612E+01 1.84661E+00 4.52667E-03 4.59729E-02-9.95824E-14-1.56817E-13
 -1      3764 1.65988E+01 8.20238E-01 9.36478E-03-1.82739E+00 4.13796E-14 3.89649E-14
 -1      3765 1.68777E+01 9.55409E-01-1.84495E-02-1.58184E+00 1.08793E-14 1.04825E-13
 -1      3766 1.55855E+01 9.82133E-01 1.97832E-02-1.54190E+00 1.34500E-13 8.78182E-15
 -1      3767 1.73595E+01 1.04841E+00 1.67511E-03-1.41133E+00 1.48674E-14 1.45720E-13
 -1      3768 1.76118E+01 1.09249E+00-1.34310E-02-1.24881E+00 4.09102E-15 2.21604E-13
 -1      3769 1.66710E+01 1.17352E+00 1.22678E-02-1.15686E+00 5.93245E-14 9.67993E-14
 -1      3770 1.79744E+01 1.11232E+00-5.05698E-04-1.13840E+00-7.95563E-14 3.33090E-13
 -1      3771 1.81868E+01 1.10213E+00-9.20162E-03-1.02159E+00-7.04750E-14 3.24696E-13
 -1      3772 1.74778E+01 1.22031E+00 8.95574E-03-9.27223E-01 2.89999E-14 2.60534E-13
 -1      3773 1.84626E+01 1.07799E+00-1.23254E-03-9.41974E-01 1.41782E-14 2.49832E-13
 -1      3774 1.86347E+01 1.03688E+00-6.54743E-03-8.50264E-01 1.11055E-13 1.83993E-13
 -1      3775 1.80905E+01 1.17761E+00 6.72643E-03-7.73385E-01-9.98969E-14 3.43645E-13
 -1      3776 1.88462E+01 9.88744E-01-1.28665E-03-7.86447E-01 5.01726E-14 2.41280E-13
 -1      3777 1.89818E+01 9.31999E-01-4.83274E-03-7.09543E-01 1.04638E-13 1.27690E-13
 -1      3778 1.85604E+01 1.08370E+00 5.15819E-03-6.56212E-01 5.22228E-14 4.61699E-13
 -1      3779 1.91445E+01 8.72900E-01-1.06314E-03-6.54787E-01 1.75906E-13 9.35303E-14
 -1      3780 1.92491E+01 8.10493E-01-3.70079E-03-5.88137E-01 1.89314E-13 1.79987E-13
 -1      3781 1.89224E+01 9.62943E-01 3.98118E-03-5.56874E-01 1.20687E-13 2.81180E-13
 -1      3782 1.93740E+01 7.48756E-01-7.65961E-04-5.39767E-01 1.23806E-13 6.44984E-14
 -1      3783 1.94531E+01 6.86912E-01-2.90966E-03-4.81587E-01 1.46576E-13 8.73049E-14
 -1      3784 1.92011E+01 8.32414E-01 3.07541E-03-4.67953E-01 1.21481E-13 2.15871E-13
 -1      3785 1.95486E+01 6.27583E-01-4.86660E-04-4.38800E-01 1.37805E-13 1.85192E-14
 -1      3786 1.96075E+01 5.69959E-01-2.31749E-03-3.88411E-01-8.74737E-15 1.80971E-14
 -1      3787 1.94146E+01 7.03321E-01 2.36666E-03-3.87341E-01 1.12839E-13-2.75958E-14
 -1      3788 1.96799E+01 5.15837E-01-2.60747E-04-3.51047E-01-3.28891E-14 1.00969E-13
 -1      3789 1.97231E+01 4.64333E-01-1.85155E-03-3.08058E-01 5.07464E-14 6.51459E-14
 -1      3790 1.95770E+01 5.82648E-01 1.81217E-03-3.15019E-01 5.33674E-14 5.16640E-14
 -1      3791 1.97775E+01 4.16726E-01-9.63354E-05-2.76039E-01 5.06975E-14 1.04166E-13
 -1      3792 1.98087E+01 3.72085E-01-1.47414E-03-2.40014E-01-5.66510E-14 1.21085E-13
 -1      3793 1.96995E+01 4.74254E-01 1.37880E-03-2.51431E-01 2.00315E-14 2.62524E-13
 -1      3794 1.98491E+01 3.31347E-01 1.24014E-05-2.13142E-01-5.88758E-14 2.00434E-13
 -1      3795 1.98713E+01 2.93584E-01-1.16464E-03-1.83509E-01-2.85389E-14 3.30635E-13
 -1      3796 1.97909E+01 3.79801E-01 1.04091E-03-1.96805E-01 3.60270E-14 3.69372E-13
 -1      3797 1.99009E+01 2.59493E-01 7.67744E-05-1.61421E-01-9.42805E-14 4.14710E-13
 -1      3798 1.99163E+01 2.28194E-01-9.10571E-04-1.37491E-01-2.41034E-13 4.57575E-13
 -1      3799 1.98581E+01 2.99490E-01 7.78617E-04-1.50957E-01-3.39873E-14 4.16673E-13
 -1      3800 1.99377E+01 2.00205E-01 1.08812E-04-1.19702E-01-3.80638E-13 5.21933E-13
 -1      3801 1.99482E+01 1.74723E-01-7.03240E-04-1.00722E-01-1.51176E-13 5.45213E-13
 -1      3802 1.99069E+01 2.32612E-01 5.76227E-04-1.13329E-01-2.11333E-13 5.55939E-13
 -1      3803 1.99634E+01 1.52133E-01 1.19001E-04-8.66735E-02-1.16403E-13 3.28003E-13
 -1      3804 1.99702E+01 1.31725E-01-5.35746E-04-7.18858E-02-1.02403E-13 2.00452E-13
 -1      3805 1.99417E+01 1.77934E-01 4.21214E-04-8.30938E-02-2.52872E-13 5.91221E-13
 -1      3806 1.99807E+01 1.13779E-01 1.15666E-04-6.10040E-02 3.49578E-14 4.34248E-14
 -1      3807 1.99850E+01 9.76820E-02-4.02067E-04-4.96861E-02 6.26289E-14-1.53920E-13
 -1      3808 1.99659E+01 1.33975E-01 3.03715E-04-5.92880E-02-1.49831E-13-8.52112E-14
 -1      3809 1.99920E+01 8.36331E-02 1.04896E-04-4.14195E-02 2.42565E-14-6.26101E-14
 -1      3810 1.99945E+01 7.11172E-02-2.96569E-04-3.29172E-02 4.22321E-14-1.33896E-13
 -1      3811 1.99823E+01 9.91846E-02 2.15608E-04-4.09127E-02 2.51783E-14-7.23594E-14
 -1      3812 1.99990E+01 6.02728E-02 9.20291E-05-2.67642E-02 5.03217E-15-1.34342E-13
 -1      3813 2.00002E+01 5.06573E-02-2.16077E-04-2.05020E-02 1.28109E-13-9.02450E-14
 -1      3814 1.99929E+01 7.20485E-02 1.51858E-04-2.70143E-02 3.72991E-14 1.06090E-13
 -1      3815 2.00029E+01 4.23555E-02 7.40544E-05-1.60255E-02 1.67742E-13-2.22366E-13
 -1      3816 2.00033E+01 3.50436E-02-1.59012E-04-1.15457E-02 2.30265E-13-1.38478E-13
 -1      3817 1.99993E+01 5.11478E-02 1.04927E-04-1.67059E-02 6.58524E-14 2.70454E-14
 -1      3818 2.00046E+01 2.87982E-02 6.99796E-05-8.37356E-03 3.06451E-13-1.21269E-13
 -1      3819 2.00045E+01 2.33342E-02-8.27311E-05-5.29675E-03 2.45192E-13-1.71404E-13
 -1      3820 2.00027E+01 3.51878E-02 5.65340E-05-9.29805E-03 2.41267E-13-1.21484E-13
 -1      3821 2.00049E+01 2.04023E-02 8.14599E-05-3.79685E-03 2.38357E-13-1.99992E-13
 -1      3822 2.00045E+01 1.69772E-02-2.99952E-05-2.07925E-03 2.10453E-13-1.45700E-13
 -1      3823 2.00042E+01 1.84875E-02-7.26236E-05-2.19769E-03 4.01470E-13-5.32756E-14
 -1      3824 2.00040E+01 2.50498E-02 1.21247E-05-4.75218E-03 2.43537E-13-1.12626E-13
 -1      3825 2.00036E+01 1.38252E-02-1.34983E-06 1.26095E-04 2.72597E-13-3.44701E-14
 -1      3826 2.00042E+01 1.69980E-02 1.50998E-04 1.11121E-03 9.80749E-14 2.23445E-13
 -1      3827 2.00034E+01 1.44524E-02-5.21557E-05 2.25255E-04 2.99449E-13-8.91203E-14
 -1      3828 1.98706E+01 1.83640E+00-2.44325E-03-1.18190E-01 1.05595E-13-7.44342E-14
 -1      3829 1.97339E+01 1.98640E+00-3.80137E-03-1.39800E-01 8.59035E-14-1.07727E-13
 -1      3830 1.96887E+01 1.85571E+00 5.08252E-03-2.51673E-01 6.92254E-14-1.26357E-13
 -1      3831 1.99630E+01 1.55643E+00 4.13220E-03-2.67239E-01 1.03172E-13-5.27194E-14
 -1      3832 2.38897E+01 3.82445E+00-5.77592E-02-3.10275E-01 2.32869E-13 1.04187E-14
 -1      3833 1.39104E+01 6.47443E-01-1.14508E-03 1.83031E+00-6.56314E-14 3.49172E-13
 -1      3834 1.34758E+01 9.64899E-01 1.58639E-02 8.85942E-01-2.00480E-14 4.22093E-13
 -1      3835 2.16606E+01-2.06977E+00-6.46396E-03 1.64632E+00-4.94800E-14-6.46304E-15
 -1      3836 2.19839E+01-2.29713E+00 9.14668E-03 1.63308E+00-1.19045E-13-1.01534E-13
 -1      3837 2.13949E+01-2.56100E+00-3.48483E-03 2.43851E+00-1.50902E-13-2.25931E-13
 -1      3838 2.12375E+01-1.66949E+00 2.11444E-02 1.73323E+00-2.34432E-14-1.03515E-14
 -1      3839 1.96763E+01 9.73711E-02 1.36598E-03 1.30918E+00-1.27845E-13 8.83264E-14
 -1      3840 1.97831E+01-6.00627E-02 6.63105E-03 1.39758E+00-8.72149E-14 1.39631E-13
 -1      3841 1.96143E+01 3.11831E-01-4.43840E-04 1.09650E+00 7.71485E-15 3.71686E-14
 -1      3842 1.96657E+01 2.21162E-01 5.03056E-03 1.18575E+00-6.98184E-14 6.39189E-14
 -1      3843 1.93781E+01 2.37934E-01-4.15424E-03 1.28477E+00-1.82860E-14-9.63481E-14
 -1      3844 1.96211E+01 4.21501E-01-1.37608E-03 9.04891E-01 9.30035E-15-2.10825E-14
 -1      3845 1.96391E+01 3.78982E-01 3.64801E-03 9.88862E-01 2.82240E-15 9.76709E-14
 -1      3846 1.93974E+01 4.22237E-01-1.64584E-03 1.04585E+00-1.78176E-14 2.35474E-14
 -1      3847 1.96628E+01 4.58666E-01-1.75900E-03 7.37147E-01 4.91448E-14 1.33680E-14
 -1      3848 1.96623E+01 4.48665E-01 2.62360E-03 8.13131E-01 6.65495E-14 3.67011E-14
 -1      3849 1.94633E+01 5.06116E-01-2.15309E-04 8.44121E-01 3.37199E-14 1.17743E-13
 -1      3850 1.97185E+01 4.49194E-01-1.83652E-03 5.92925E-01-1.37838E-13-2.20495E-14
 -1      3851 1.97091E+01 4.59579E-01 1.91177E-03 6.59926E-01-4.00455E-14-4.26759E-14
 -1      3852 1.95479E+01 5.22608E-01 5.36966E-04 6.75777E-01 1.15311E-14 6.91407E-14
 -1      3853 1.97761E+01 4.12331E-01-1.74940E-03 4.70669E-01-1.05615E-13-9.28218E-14
 -1      3854 1.97635E+01 4.34240E-01 1.43189E-03 5.28535E-01-1.33928E-13 5.46892E-14
 -1      3855 1.96350E+01 4.97138E-01 8.79401E-04 5.36114E-01-1.20876E-13 2.19357E-14
 -1      3856 1.98292E+01 3.61690E-01-1.57798E-03 3.68431E-01-2.04706E-13 6.09894E-15
 -1      3857 1.98165E+01 3.88952E-01 1.10500E-03 4.17479E-01-1.73838E-13-1.03575E-13
 -1      3858 1.97157E+01 4.48073E-01 9.80089E-04 4.20897E-01-1.97751E-13 1.12690E-13
 -1      3859 1.98746E+01 3.06433E-01-1.36951E-03 2.84112E-01-1.52361E-13 1.34521E-13
 -1      3860 1.98635E+01 3.34963E-01 8.74261E-04 3.24953E-01-1.72728E-13 1.10692E-13
 -1      3861 1.97857E+01 3.88185E-01 9.43774E-04 3.26539E-01-2.75795E-13 2.51796E-13
 -1      3862 1.99117E+01 2.52352E-01-1.15296E-03 2.15555E-01 3.53409E-14 2.37941E-13
 -1      3863 1.99027E+01 2.79623E-01 7.03661E-04 2.48984E-01-1.78512E-14 1.82803E-13
 -1      3864 1.98438E+01 3.25942E-01 8.37681E-04 2.49967E-01-1.17515E-13 2.64382E-13
 -1      3865 1.99407E+01 2.02795E-01-9.45897E-04 1.60622E-01 1.60925E-13 2.20797E-13
 -1      3866 1.99338E+01 2.27399E-01 5.71405E-04 1.87528E-01 1.87932E-14 1.93578E-13
 -1      3867 1.98901E+01 2.66596E-01 7.03822E-04 1.88484E-01-5.74772E-15 2.94915E-13
 -1      3868 1.99626E+01 1.59414E-01-7.58332E-04 1.17256E-01 2.96469E-13 2.90899E-13
 -1      3869 1.99576E+01 1.80710E-01 4.64788E-04 1.38556E-01 3.66378E-13 2.48980E-13
 -1      3870 1.99259E+01 2.13085E-01 5.67144E-04 1.39700E-01 2.16369E-13 1.08823E-13
 -1      3871 1.99784E+01 1.22736E-01-5.95004E-04 8.35408E-02 1.91570E-13 2.80957E-13
 -1      3872 1.99751E+01 1.40583E-01 3.76571E-04 1.00127E-01 1.98784E-13 4.26531E-13
 -1      3873 1.99527E+01 1.66750E-01 4.41302E-04 1.01486E-01 2.26063E-13 3.05776E-13
 -1      3874 1.99894E+01 9.25830E-02-4.57502E-04 5.77407E-02 7.17167E-14 3.75708E-13
 -1      3875 1.99874E+01 1.07149E-01 3.02676E-04 7.04388E-02 1.01692E-13 2.88131E-13
 -1      3876 1.99720E+01 1.27879E-01 3.32736E-04 7.19589E-02 1.29163E-13 3.80220E-13
 -1      3877 1.99967E+01 6.83695E-02-3.45339E-04 3.83269E-02 8.31936E-14 4.14743E-13
 -1      3878 1.99957E+01 7.99956E-02 2.40734E-04 4.78766E-02 1.37564E-13 4.31991E-13
 -1      3879 1.99855E+01 9.61068E-02 2.42552E-04 4.94768E-02 3.66630E-14 3.71271E-13
 -1      3880 2.00011E+01 4.93080E-02-2.57716E-04 2.39911E-02 2.07491E-13 3.47867E-13
 -1      3881 2.00008E+01 5.84155E-02 1.89798E-04 3.10331E-02 2.36925E-13 4.28392E-13
 -1      3882 1.99944E+01 7.07036E-02 1.70628E-04 3.26335E-02 1.68132E-13 3.32933E-13
 -1      3883 2.00035E+01 3.45542E-02-1.88371E-04 1.36071E-02-5.31719E-15 4.37532E-13
 -1      3884 2.00036E+01 4.16136E-02 1.59562E-04 1.87178E-02 7.90004E-14 4.34722E-13
 -1      3885 1.99999E+01 5.07420E-02 1.03086E-04 2.02657E-02 4.69610E-14 6.11005E-13
 -1      3886 2.00043E+01 2.32313E-02-1.39988E-04 6.22778E-03 1.90733E-13 2.54531E-13
 -1      3887 2.00048E+01 2.86925E-02 1.42434E-04 9.93464E-03 9.17151E-14 3.11104E-13
 -1      3888 2.00028E+01 3.52203E-02 6.21548E-06 1.13847E-02 1.44170E-13 6.49808E-13
 -1      3889 2.00048E+01 1.71368E-02 7.02194E-05 2.98720E-03 1.13365E-13 3.12786E-13
 -1      3890 2.47526E+01-3.88916E+00 3.92682E-02-1.68153E+00-1.99734E-13 1.48548E-13
 -1      3891 2.01236E+01 1.20304E+00-6.89502E-04-4.02864E-01 1.06002E-13-2.57189E-14
 -1      3892 2.00040E+01 2.15846E-02-7.99994E-05 4.18187E-03 1.44101E-13 4.42101E-13
 -1      3893 1.96912E+01 1.82449E+00 1.97595E-03 2.27551E-01-7.42603E-14-1.37707E-13
 -1      3894 1.97913E+01 1.92192E+00 1.45856E-03 1.12955E-01-8.32368E-14-1.49090E-13
 -1      3895 2.04219E+01-4.03401E-03 2.36275E-03-1.29181E+00-7.12051E-14 1.75281E-14
 -1      3896 2.03351E+01 1.65393E-01 4.69112E-03-1.22343E+00-6.18679E-14 3.86986E-14
 -1      3897 2.02314E+01-6.03211E-02-8.73201E-03-1.42637E+00-4.14699E-14-7.05204E-14
 -1      3898 1.94581E+01 1.55975E+00-2.78397E-03 4.96137E-01-7.69974E-14-8.83427E-14
 -1      3899 1.93347E+01 1.46930E+00-2.98979E-03 6.36289E-01-6.39150E-14-7.18443E-14
 -1      3900 1.50611E+01-1.46947E-01-4.60291E-03-3.07058E+00 2.37445E-13-6.21586E-14
 -1      3901 1.56465E+01-7.33154E-01 9.55318E-02-3.70422E+00 2.98253E-13-1.83263E-13
 -1      3902 1.98604E+01-2.59643E-01 4.58555E-03 1.53277E+00-1.15695E-13 1.56802E-13
 -1      3903 2.00529E+01-5.03368E-01 7.88327E-03 1.60716E+00-2.57572E-14 1.55511E-13
 -1      3904 1.96865E+01-6.09998E-01-1.82412E-02 1.85936E+00-1.15473E-13-1.98539E-15
 -1      3905 1.94496E+01-8.86631E-02-9.10670E-03 1.56152E+00-5.83454E-14 1.53382E-13
 -1      3906 1.93441E+01 2.38287E+00-3.18128E-03-8.09273E-02 1.01006E-14-2.58620E-13
 -1      3907 1.93495E+01 2.37345E+00-4.47678E-03-6.94005E-02-2.48083E-15-2.69403E-13
 -1      3908 1.93586E+01 2.18367E+00 6.29165E-03-1.33274E-02 1.02782E-14-2.60724E-13
 -1      3909 1.93583E+01 2.18894E+00 8.00097E-03-1.22691E-01 1.45679E-14-2.06628E-13
 -1      3910 1.91563E+01 1.39666E+00-4.43912E-03 7.42569E-01-5.66840E-14-7.87865E-14
 -1      3911 1.89895E+01 1.34116E+00-2.79686E-03 8.73143E-01-4.85472E-14-7.76903E-14
 -1      3912 1.86908E+01 1.43526E+00 9.73519E-03 7.34534E-01-5.63419E-14-8.23882E-14
 -1      3913 2.36711E+01-3.85554E+00-8.21854E-03-2.19026E+00-2.29473E-13 9.51374E-14
 -1      3914 1.91080E+01 1.55390E+00 7.90547E-03 5.49140E-01-5.33680E-14-6.17888E-14
 -1      3915 2.02716E+01-5.57489E-01 7.73024E-03-1.75710E+00-7.61491E-14-6.97437E-14
 -1      3916 2.00896E+01-2.77548E-01 5.60908E-03-1.67704E+00-4.12898E-14-6.44564E-14
 -1      3917 2.00035E+01 1.90643E-02 1.38706E-04 5.95243E-04 3.47251E-13-1.15834E-13
 -1      3918 2.05025E+01-1.50967E+00-2.14850E-02 2.07300E+00-5.50933E-14-1.12351E-13
 -1      3919 1.87861E+01-2.70029E+00-1.17568E-02-4.26896E+00-3.25500E-13-8.13603E-14
 -1      3920 2.00780E+01-3.31889E+00 5.39677E-02-4.30177E+00-3.65877E-13-1.37668E-14
 -1      3921 2.11298E+01-3.46863E+00-4.32395E-03-3.62886E+00-2.97193E-13 5.17902E-15
 -1      3922 1.99743E+01 1.36096E+00-8.67602E-04-3.91198E-01 9.59107E-14-2.60012E-14
 -1      3923 1.98233E+01 1.52210E+00-2.61416E-03-3.85059E-01 7.54743E-14-4.87256E-14
 -1      3924 1.99983E+01 1.19041E+00 2.01771E-03-5.25499E-01 7.19327E-14-2.30883E-14
 -1      3925 2.46402E+01-1.45418E+00 8.13436E-03-1.30491E+00 1.67874E-13-1.43880E-13
 -1      3926 1.94597E+01 1.85069E+00-1.08089E-03-3.02763E-01 3.25662E-14-1.79687E-13
 -1      3927 1.93612E+01 1.93128E+00-4.86021E-03-2.62748E-01 1.92094E-14-1.86595E-13
 -1      3928 1.49560E+01 4.24636E-01 4.68283E-02 2.30630E+00-9.48553E-14 2.87514E-13
 -1      3929 1.51700E+01 6.89038E-01 1.11450E-02 1.75394E+00-8.82523E-14 2.69820E-13
 -1      3930 1.59968E+01-7.73340E-02-5.23505E-02 2.68625E+00-9.55312E-15 3.40208E-13
 -1      3931 2.04996E+01-2.04794E+00 1.64770E-02 2.64188E+00-1.60418E-13-1.81592E-13
 -1      3932 1.43066E+01 5.15784E-01 5.07935E-02-2.30935E+00 1.97687E-13 9.02403E-14
 -1      3933 1.79138E+01-1.23306E+00 2.39265E-02 3.31385E+00-1.89734E-13 2.94653E-13
 -1      3934 2.00025E+01 2.40842E-02-5.05278E-05-4.87440E-04 6.60742E-13 2.59786E-13
 -1      3935 2.00024E+01 2.39198E-02-1.29904E-04 3.00887E-05 6.60167E-13 1.24341E-13
 -1      3936 2.00027E+01 2.54118E-02-1.00547E-04 3.22025E-03 2.71402E-13 9.59712E-14
 -1      3937 2.00031E+01 2.39348E-02-7.09925E-05 3.51932E-03 2.26124E-13 3.26675E-13
 -1      3938 2.00030E+01 3.15497E-02 1.86791E-04 6.88008E-03 2.78265E-13 3.61123E-13
 -1      3939 2.01213E+01 3.14530E-01-5.13266E-03-1.21071E+00-4.02941E-14-5.80030E-14
 -1      3940 1.55758E+01-1.11603E+00 7.88600E-02-4.09736E+00-2.59889E-13-9.26169E-14
 -1      3941 1.67632E+01-1.57946E+00 1.85802E-02-4.10752E+00-2.78085E-13-9.10730E-14
 -1      3942 1.50654E+01-5.07001E-01 8.78313E-03-3.39544E+00-2.15591E-13-1.35414E-13
 -1      3943 1.96980E+01 1.63534E+00-1.01287E-03-3.65089E-01 5.92301E-14-1.18084E-13
 -1      3944 1.95635E+01 1.75977E+00-3.99035E-03-3.44709E-01 4.19561E-14-1.52307E-13
 -1      3945 1.94802E+01 1.66167E+00 5.90082E-03-4.15267E-01 2.70578E-14-1.52562E-13
 -1      3946 1.97125E+01 1.46083E+00 2.86309E-03-4.86145E-01 5.84356E-14-8.87486E-14
 -1      3947 2.00030E+01 2.29255E-02-3.27206E-05-1.56831E-03 6.80529E-13 1.78596E-13
 -1      3948 2.00027E+01 2.35001E-02-7.66880E-05-1.25195E-03 6.64466E-13 3.57041E-13
 -1      3949 2.00022E+01 2.91528E-02 1.52561E-04-1.17527E-03 7.29020E-13 2.65602E-13
 -1      3950 1.37116E+01 1.13632E+00 4.02777E-02 2.22859E-01 4.66357E-14 2.56760E-13
 -1      3951 1.41551E+01 1.08796E+00-1.44552E-03-5.44166E-01 8.53822E-14 1.99573E-13
 -1      3952 1.44460E+01 1.09467E+00 7.71378E-03 5.46158E-01-1.07145E-14 3.02987E-13
 -1      3953 2.04600E+01-8.76593E-01 1.32782E-02-1.89045E+00-1.12360E-13-8.06091E-14
 -1      3954 1.99290E+01-6.73261E-01-1.70804E-02-2.01002E+00-8.96923E-14-8.98715E-14
 -1      3955 2.07727E+01-1.24452E+00 8.58643E-03-1.91080E+00-1.23360E-13-4.47949E-14
 -1      3956 1.42447E+01 8.81207E-01-1.18706E-02-1.44152E+00 9.07555E-14 1.28748E-13
 -1      3957 2.17213E+01-1.85773E+00-2.55629E-02-1.51653E+00-1.09287E-13 1.22663E-13
 -1      3958 1.38723E+01 6.54716E-01 6.68635E-02-1.81271E+00-1.19522E-13-2.59962E-13
 -1      3959 1.44310E+01 3.10798E-01 9.10799E-03-2.32355E+00-1.55645E-13-2.20161E-13
 -1      3960 1.99700E+01 1.05527E+00-7.32212E-04-6.60479E-01 5.34216E-14-2.91429E-14
 -1      3961 2.48036E+01-2.93104E+00 3.30526E-03-2.55520E-01-6.71355E-14 1.95362E-13
 -1      3962 2.41737E+01-3.12762E+00 1.04664E-02-8.48547E-01-1.14248E-13 1.72817E-13
 -1      3963 1.96213E+01 1.72405E+00-2.09085E-03 3.10752E-01-6.24695E-14-1.16946E-13
 -1      3964 1.95522E+01 1.62622E+00-2.78090E-03 4.27364E-01-7.15413E-14-9.27431E-14
 -1      3965 1.93726E+01 1.70111E+00 7.10320E-03 3.89275E-01-5.73144E-14-9.19658E-14
 -1      3966 1.95292E+01 1.85161E+00 2.52067E-03 2.48293E-01-6.34837E-14-1.18944E-13
 -1      3967 2.25345E+01-3.50736E+00 6.02227E-02-2.83413E+00-2.30734E-13 3.59435E-14
 -1      3968 2.36430E+01-3.47330E+00-1.39947E-02-1.69617E+00-1.65894E-13 7.02225E-14
 -1      3969 2.30118E+01-3.00487E+00-1.43481E-02-1.54357E+00-1.19129E-13 6.23104E-14
 -1      3970 2.13766E+01-3.17676E+00-3.37489E-03-3.16511E+00-2.15675E-13-4.21655E-14
 -1      3971 1.37932E+01 4.66204E-01 2.91200E-02 2.04317E+00 1.33345E-13-3.57082E-13
 -1      3972 1.29124E+01 8.17608E-01 7.74917E-02 1.20275E+00 6.26747E-14-3.96072E-13
 -1      3973 1.32916E+01 9.05571E-01-1.67737E-02 4.97692E-01 5.49166E-14-2.85119E-13
 -1      3974 1.43213E+01 7.15941E-01 9.92381E-03 1.70325E+00 1.39633E-13-3.44602E-13
 -1      3975 1.38919E+01 8.06890E-01-1.61702E-03-1.03365E+00-2.87843E-14-2.60798E-13
 -1      3976 2.24695E+01-2.65154E+00 3.30034E-02-1.81088E+00-1.24060E-13 5.00598E-14
 -1      3977 1.94110E+01 1.94070E+00-4.19235E-03 1.76076E-01-3.75150E-14-1.58929E-13
 -1      3978 1.99311E+01 6.81725E-01 1.75323E-03-1.00894E+00 6.15523E-15-4.31302E-14
 -1      3979 1.99313E+01 8.34444E-01 1.14016E-03-8.69339E-01 2.20424E-14-5.00930E-14
 -1      3980 2.48592E+01-2.79864E+00-3.58475E-03-8.25683E-04-1.05172E-13-1.60035E-13
 -1      3981 1.97980E+01 1.10671E+00 2.13454E-04-7.16982E-01 6.58612E-14-4.13657E-14
 -1      3982 1.40927E+01 1.11938E+00 5.12790E-02-1.50976E-01 1.05905E-15-2.55991E-13
 -1      3983 1.48313E+01 9.58559E-01 1.44165E-02-8.80957E-01-4.57321E-14-2.04668E-13
 -1      3984 2.00023E+01 2.55380E-02-4.89479E-05 1.15489E-03 4.32318E-13-1.33887E-14
 -1      3985 2.00024E+01 2.47845E-02-1.32143E-04 1.75449E-03 2.88129E-13 1.30318E-13
 -1      3986 2.00017E+01 3.35374E-02 1.93594E-04 4.06880E-03 4.07045E-13 1.30852E-13
 -1      3987 2.00019E+01 3.12558E-02 1.91337E-04 1.01211E-03 4.91374E-13 3.17014E-13
 -1      3988 1.73295E+01 1.31405E+00-1.51659E-02 6.74204E-01-3.96496E-14-2.00121E-13
 -1      3989 1.69015E+01 1.27456E+00-1.09837E-02 7.83370E-01-4.01502E-14-2.16768E-13
 -1      3990 1.58694E+01 1.17243E+00-1.29036E-02 6.44596E-01-2.01297E-14-2.23175E-13
 -1      3991 1.52671E+01 1.08596E+00 3.99252E-03 7.90085E-01 2.91390E-15-2.66710E-13
 -1      3992 2.54572E+01-2.38040E+00-3.37752E-02 6.20175E-01 1.59313E-14 2.56080E-13
 -1      3993 1.51373E+01 1.02812E+00 4.34598E-03-1.24600E+00 1.44386E-13 6.20216E-14
 -1      3994 1.57516E+01 1.14137E+00-1.32622E-02-1.04959E+00 8.83954E-14 8.24240E-14
 -1      3995 1.46602E+01 1.12822E+00 3.17218E-02-8.84312E-01 9.51794E-14 1.67499E-13
 -1      3996 1.63639E+01 1.19994E+00 8.64308E-05-9.39458E-01 5.20907E-14 1.02836E-13
 -1      3997 1.68119E+01 1.23340E+00-1.09522E-02-8.31324E-01 8.63164E-14 1.55168E-13
 -1      3998 1.60400E+01 1.26504E+00 1.47024E-02-6.73372E-01 1.00844E-13 1.44617E-13
 -1      3999 1.72512E+01 1.24062E+00-1.69823E-03-7.61261E-01 8.15217E-14 1.96630E-13
 -1      4000 1.75955E+01 1.22636E+00-6.63223E-03-6.94515E-01-4.34285E-14 2.78172E-13
 -1      4001 1.70238E+01 1.29965E+00 1.33976E-02-5.67117E-01 3.55905E-14 1.59253E-13
 -1      4002 1.79174E+01 1.19840E+00-2.04200E-03-6.48394E-01-5.96149E-14 3.73054E-13
 -1      4003 1.81825E+01 1.15701E+00-4.17106E-03-5.99708E-01 1.43351E-14 4.81087E-13
 -1      4004 1.77523E+01 1.24742E+00 1.02669E-02-5.05082E-01 1.22969E-14 3.34169E-13
 -1      4005 1.84258E+01 1.10665E+00-1.78436E-03-5.61296E-01 2.30494E-14 4.36056E-13
 -1      4006 1.86304E+01 1.04967E+00-2.69571E-03-5.20342E-01 3.95353E-14 3.83485E-13
 -1      4007 1.82976E+01 1.15186E+00 7.29641E-03-4.52656E-01-1.86564E-16 4.40061E-13
 -1      4008 1.88167E+01 9.87602E-01-1.49243E-03-4.85198E-01 6.63323E-14 3.44098E-13
 -1      4009 1.89746E+01 9.23706E-01-1.85660E-03-4.47611E-01 1.35006E-13 3.31655E-13
 -1      4010 1.87156E+01 1.03056E+00 5.41280E-03-4.03094E-01 3.37369E-14 3.23350E-13
 -1      4011 1.91180E+01 8.57620E-01-1.18465E-03-4.14235E-01 7.53477E-14 2.56283E-13
 -1      4012 1.92393E+01 7.92695E-01-1.38543E-03-3.78895E-01 3.88786E-14 2.12543E-13
 -1      4013 1.90377E+01 8.98397E-01 4.11928E-03-3.52588E-01 1.09649E-14 2.60232E-13
 -1      4014 1.93499E+01 7.27824E-01-9.07573E-04-3.47484E-01 4.86597E-14 2.50108E-14
 -1      4015 1.94422E+01 6.65834E-01-1.09345E-03-3.14608E-01 4.45525E-14-1.04689E-13
 -1      4016 1.92862E+01 7.65747E-01 3.17775E-03-3.01598E-01-1.52395E-14 1.19064E-13
 -1      4017 1.95271E+01 6.05451E-01-6.70961E-04-2.85787E-01 1.41671E-13-9.74465E-14
 -1      4018 1.95968E+01 5.48796E-01-8.89868E-04-2.55942E-01 1.66969E-14 6.85007E-14
 -1      4019 1.94771E+01 6.39802E-01 2.46768E-03-2.51989E-01 9.47602E-14-1.47783E-13
 -1      4020 1.96615E+01 4.94707E-01-4.80210E-04-2.30272E-01 4.34616E-14 2.04593E-13
 -1      4021 1.97136E+01 4.44615E-01-7.31557E-04-2.03924E-01 1.07830E-13 3.02628E-13
 -1      4022 1.96228E+01 5.25006E-01 1.91774E-03-2.05672E-01 1.08259E-13 8.96244E-14
 -1      4023 1.97624E+01 3.97578E-01-3.33921E-04-1.81720E-01 1.71435E-15 3.98625E-13
 -1      4024 1.98008E+01 3.54453E-01-5.99202E-04-1.59087E-01 2.14304E-14 3.22663E-13
 -1      4025 1.97328E+01 4.23645E-01 1.48455E-03-1.64054E-01 6.57071E-14 2.29704E-13
 -1      4026 1.98372E+01 3.14528E-01-2.26178E-04-1.40399E-01 3.84573E-14 2.04451E-13
 -1      4027 1.98651E+01 2.78224E-01-4.85008E-04-1.21448E-01-1.40671E-13 3.12598E-13
 -1      4028 1.98150E+01 3.36449E-01 1.14084E-03-1.27912E-01-2.82578E-14 1.99191E-13
 -1      4029 1.98919E+01 2.45031E-01-1.49397E-04-1.06107E-01-2.10467E-13 3.84558E-13
 -1      4030 1.99118E+01 2.15064E-01-3.86239E-04-9.06080E-02-9.96111E-14 4.88503E-13
 -1      4031 1.98755E+01 2.63084E-01 8.68142E-04-9.74507E-02-1.56944E-13 1.76510E-13
 -1      4032 1.99311E+01 1.87971E-01-9.61363E-05-7.83034E-02-3.77723E-13 5.09615E-13
 -1      4033 1.99451E+01 1.63672E-01-3.02031E-04-6.59026E-02-4.45763E-13 2.06687E-13
 -1      4034 1.99193E+01 2.02554E-01 6.52862E-04-7.24512E-02-3.18925E-13 2.78789E-13
 -1      4035 1.99587E+01 1.41927E-01-6.01079E-05-5.62473E-02-2.67636E-13 7.50841E-14
 -1      4036 1.99682E+01 1.22546E-01-2.31319E-04-4.65312E-02-8.02901E-14-4.46090E-14
 -1      4037 1.99504E+01 1.53494E-01 4.84204E-04-5.24242E-02-3.60935E-13 1.55986E-13
 -1      4038 1.99775E+01 1.05369E-01-3.60000E-05-3.91125E-02-2.49699E-14-7.01038E-14
 -1      4039 1.99837E+01 9.01429E-02-1.72429E-04-3.16508E-02 1.90301E-14-6.82654E-14
 -1      4040 1.99719E+01 1.14387E-01 3.55615E-04-3.67397E-02-8.92156E-14-9.74491E-14
 -1      4041 1.99899E+01 7.67655E-02-2.12691E-05-2.60743E-02 1.05070E-13-7.58326E-14
 -1      4042 1.99937E+01 6.49844E-02-1.26267E-04-2.04670E-02-1.76944E-14 9.88295E-15
 -1      4043 1.99862E+01 8.36886E-02 2.60250E-04-2.47255E-02 1.10270E-13-2.47852E-13
 -1      4044 1.99976E+01 5.46933E-02-2.62626E-07-1.63636E-02-1.86321E-14-5.12686E-14
 -1      4045 1.99997E+01 4.55750E-02-1.23787E-04-1.22848E-02 1.22515E-13-3.21155E-13
 -1      4046 1.99953E+01 5.98913E-02 1.99914E-04-1.56858E-02-6.14422E-14-3.98049E-13
 -1      4047 2.00018E+01 3.78552E-02-1.77377E-05-9.30685E-03 2.23265E-13-2.19417E-13
 -1      4048 2.00028E+01 3.10331E-02-5.30345E-05-6.32599E-03 2.25564E-13-1.36234E-13
 -1      4049 2.00005E+01 4.18391E-02 1.30037E-04-9.14671E-03 1.44947E-13-4.87065E-13
 -1      4050 1.80992E+01 1.39732E+00-8.20233E-03 5.76031E-01-6.80859E-14-1.54265E-13
 -1      4051 1.77711E+01 1.35701E+00-7.10494E-03 6.52405E-01-4.76988E-14-1.76835E-13
 -1      4052 1.74482E+01 1.40900E+00 1.60565E-02 3.06408E-01-6.17054E-14-1.92746E-13
 -1      4053 1.93095E+01 5.95902E-01-3.09082E-03 7.44780E-01 8.92327E-14 7.31559E-14
 -1      4054 1.92757E+01 5.86060E-01 3.21811E-03 8.34970E-01-6.64997E-14 1.77615E-13
 -1      4055 1.90797E+01 4.28763E-01-3.08816E-03 1.19317E+00 3.58737E-15-3.28120E-14
 -1      4056 1.90993E+01 3.25620E-01 7.44850E-03 1.32406E+00-7.96885E-14-2.60152E-14
 -1      4057 1.94368E+01 5.82059E-01-2.76150E-03 5.85051E-01-1.32780E-13 2.09389E-13
 -1      4058 1.93968E+01 5.95909E-01 2.05788E-03 6.59299E-01 2.38703E-14 1.34866E-13
 -1      4059 1.92143E+01 6.69975E-01 1.98777E-03 6.47562E-01-5.53658E-14 1.55302E-13
 -1      4060 1.95545E+01 5.35551E-01-2.39525E-03 4.56733E-01-1.88216E-13 1.88999E-13
 -1      4061 1.95149E+01 5.63052E-01 1.33463E-03 5.17748E-01-1.30161E-13 1.43951E-13
 -1      4062 1.93724E+01 6.33328E-01 2.00192E-03 4.99939E-01-8.10830E-14 2.58365E-13
 -1      4063 1.96573E+01 4.72126E-01-2.03609E-03 3.53650E-01-2.69166E-13 2.74990E-13
 -1      4064 1.96216E+01 5.06184E-01 8.86208E-04 4.03595E-01-2.34807E-13 2.51080E-13
 -1      4065 1.95111E+01 5.70627E-01 1.86740E-03 3.84551E-01-2.21194E-13 2.51656E-13
 -1      4066 1.97436E+01 4.02618E-01-1.70121E-03 2.71083E-01-3.31374E-13 2.41231E-13
 -1      4067 1.97131E+01 4.38419E-01 6.06251E-04 3.11707E-01-3.15816E-13 2.10471E-13
 -1      4068 1.96282E+01 4.95820E-01 1.65393E-03 2.94037E-01-2.82746E-13 2.75372E-13
 -1      4069 1.98135E+01 3.34066E-01-1.39827E-03 2.05313E-01-1.52682E-13 2.58578E-13
 -1      4070 1.97888E+01 3.68545E-01 4.30132E-04 2.38074E-01-3.00651E-13 1.39953E-13
 -1      4071 1.97242E+01 4.18382E-01 1.40845E-03 2.22995E-01-2.87803E-13 1.99193E-13
 -1      4072 1.98686E+01 2.70691E-01-1.13073E-03 1.53320E-01-2.40273E-15 2.60825E-13
 -1      4073 1.98492E+01 3.02068E-01 3.17312E-04 1.79472E-01-4.43961E-14 3.00548E-13
 -1      4074 1.98009E+01 3.44358E-01 1.16160E-03 1.67360E-01-1.69622E-13 1.35507E-13
 -1      4075 1.99108E+01 2.14694E-01-8.99551E-04 1.12604E-01 1.99405E-13 1.98835E-13
 -1      4076 1.98961E+01 2.42101E-01 2.42653E-04 1.33241E-01 1.18578E-13 2.48365E-13
 -1      4077 1.98605E+01 2.77243E-01 9.31822E-04 1.23997E-01 8.42274E-14 3.53483E-13
 -1      4078 1.99423E+01 1.66897E-01-7.04020E-04 8.10633E-02 1.57970E-13 4.44699E-13
 -1      4079 1.99315E+01 1.90082E-01 1.90908E-04 9.71437E-02 1.77646E-13 3.11875E-13
 -1      4080 1.99058E+01 2.18720E-01 7.28868E-04 9.04338E-02 1.29353E-13 5.09715E-13
 -1      4081 1.99650E+01 1.27229E-01-5.41609E-04 5.69286E-02 9.96342E-16 5.33884E-13
 -1      4082 1.99575E+01 1.46329E-01 1.53079E-04 6.92883E-02 1.51114E-13 5.16990E-13
 -1      4083 1.99393E+01 1.69240E-01 5.56478E-04 6.46828E-02 1.11897E-13 6.70306E-13
 -1      4084 1.99809E+01 9.50796E-02-4.11828E-04 3.87071E-02 3.04291E-14 5.57128E-13
 -1      4085 1.99758E+01 1.10466E-01 1.24406E-04 4.80697E-02-1.53255E-14 5.81580E-13
 -1      4086 1.99634E+01 1.28470E-01 4.13904E-04 4.51383E-02 4.41131E-14 6.66666E-13
 -1      4087 1.99915E+01 6.95282E-02-3.09806E-04 2.51641E-02 8.88585E-14 6.72348E-13
 -1      4088 1.99883E+01 8.16979E-02 1.02789E-04 3.21315E-02 9.97836E-14 5.61944E-13
 -1      4089 1.99800E+01 9.55800E-02 2.89046E-04 3.04630E-02 4.07984E-14 7.65896E-13
 -1      4090 1.99981E+01 4.96618E-02-2.00211E-04 1.53114E-02 6.38233E-15 6.83429E-13
 -1      4091 1.99963E+01 5.90951E-02 9.90525E-05 2.03646E-02 2.52220E-14 6.62321E-13
 -1      4092 1.99911E+01 6.95799E-02 1.89409E-04 1.96379E-02-1.83496E-14 8.69702E-13
 -1      4093 2.00014E+01 3.64027E-02-9.53150E-05 9.03014E-03 1.97503E-13 5.46819E-13
 -1      4094 2.00005E+01 4.37688E-02 1.25037E-04 1.26020E-02 1.90348E-13 6.63790E-13
 -1      4095 1.99971E+01 5.14910E-02 4.50592E-05 1.24341E-02 1.45742E-13 4.60052E-13
 -1      4096 2.00003E+01 3.90107E-02-9.47640E-05 7.72558E-03 2.80199E-13 1.60561E-13
 -1      4097 1.99606E+01-1.51152E+00 9.36259E-03 2.48227E+00-5.93388E-14-2.94556E-14
 -1      4098 1.89585E+01-1.50307E+00-3.99485E-02 3.03712E+00-2.20690E-13 1.32342E-14
 -1      4099 1.75235E+01-6.11452E-01 4.02773E-02 2.96543E+00-1.23152E-13 3.53153E-13
 -1      4100 1.93024E+01-8.72280E-01 1.35032E-02 2.36836E+00-1.05942E-13 7.69671E-14
 -1      4101 1.86664E+01 1.49070E+00-5.53873E-03 4.70414E-01-6.85546E-14-1.28526E-13
 -1      4102 1.84177E+01 1.44058E+00-5.87779E-03 5.45482E-01-7.68565E-14-1.42414E-13
 -1      4103 1.81751E+01 1.48516E+00 1.20258E-02 2.96873E-01-8.08558E-14-1.71473E-13
 -1      4104 2.00250E+01-3.59846E-02 6.18321E-03-1.53097E+00-1.86372E-14-6.93748E-14
 -1      4105 1.99336E+01 1.73858E-01 2.67103E-03-1.42399E+00-3.13726E-14-6.89495E-14
 -1      4106 1.97162E+01-7.17167E-02-8.58746E-03-1.68906E+00-3.62357E-14-6.65851E-14
 -1      4107 2.00037E+01 2.03420E-02-3.05037E-05-2.13575E-03 4.23444E-13-1.92718E-13
 -1      4108 2.00034E+01 2.13387E-02-8.18430E-05-2.02068E-03 6.47593E-13-2.32562E-13
 -1      4109 2.00026E+01 2.69277E-02 9.98341E-06-2.51203E-03 4.84090E-13-9.55115E-14
 -1      4110 2.00037E+01 2.35338E-02 3.00132E-05-3.18844E-03 3.58191E-13-1.63044E-13
 -1      4111 2.16147E+01-2.69664E+00-1.94908E-02-2.48161E+00-1.57206E-13-8.88161E-14
 -1      4112 2.16038E+01-2.19637E+00-5.31467E-03-2.00236E+00-1.14508E-13-1.58392E-14
 -1      4113 1.91835E+01 5.55016E-01-3.26328E-03 9.44125E-01-1.63123E-13 1.73424E-13
 -1      4114 1.91673E+01 5.07598E-01 5.03812E-03 1.05344E+00-7.14735E-15 1.07437E-13
 -1      4115 1.90423E+01 6.60726E-01 1.67992E-03 8.37760E-01-1.19280E-13 2.14432E-13
 -1      4116 1.90773E+01 1.63695E+00-3.43118E-03 3.44427E-01-3.13918E-14-1.40056E-13
 -1      4117 1.88969E+01 1.55583E+00-4.69225E-03 4.29861E-01-3.78694E-14-1.36062E-13
 -1      4118 1.87104E+01 1.59240E+00 9.15289E-03 2.57464E-01-5.41242E-14-1.66830E-13
 -1      4119 1.93248E+01 1.80629E+00-8.60285E-04 2.39488E-01-5.66541E-14-1.47309E-13
 -1      4120 1.92235E+01 1.72769E+00-5.26807E-03 2.98117E-01-4.97787E-14-1.45497E-13
 -1      4121 1.90810E+01 1.75300E+00 6.24013E-03 1.97524E-01-2.77421E-14-1.93755E-13
 -1      4122 1.93083E+01 1.98802E+00 1.52073E-03 9.71372E-02-1.97131E-14-2.14581E-13
 -1      4123 1.92867E+01 1.82212E+00 6.77200E-03-2.78876E-01 1.28563E-15-1.84933E-13
 -1      4124 1.92889E+01 2.00287E+00-2.39443E-03-1.81111E-01 2.26208E-14-1.89162E-13
 -1      4125 1.92512E+01 2.03219E+00-3.86075E-03-1.25566E-01 1.49636E-14-2.34206E-13
 -1      4126 1.99341E+01 3.59500E-01 4.09142E-03-1.27850E+00-3.72962E-14-7.06531E-14
 -1      4127 1.99013E+01 5.26442E-01 1.43147E-03-1.15446E+00-1.26720E-14-6.01779E-14
 -1      4128 1.97137E+01 7.20456E-01-1.87517E-03-1.07532E+00 1.54237E-14-5.58832E-14
 -1      4129 2.11552E+01-1.74824E+00 2.07016E-02-2.06801E+00-1.20111E-13-2.96240E-14
 -1      4130 1.53725E+01 4.61113E-01 1.85637E-02-2.05807E+00-1.06333E-13-2.01067E-13
 -1      4131 1.51137E+01 9.56782E-02 4.77068E-02-2.70627E+00-1.71724E-13-2.08797E-13
 -1      4132 1.59062E+01-3.05559E-01-2.40932E-04-3.01914E+00-1.80912E-13-9.47705E-14
 -1      4133 1.96506E+01 1.21658E+00-2.64472E-03-6.87753E-01 5.24062E-14-8.23379E-14
 -1      4134 1.60603E+01 1.26679E+00 1.43496E-02 1.13408E-01-4.18351E-14-2.12041E-13
 -1      4135 1.43819E+01 9.73226E-01-3.53089E-03 8.51389E-01 4.69616E-14-2.88453E-13
 -1      4136 1.94986E+01 7.80855E-01 4.35358E-03-1.09377E+00 1.18170E-14-8.56478E-14
 -1      4137 1.95287E+01 9.34892E-01-7.97425E-05-9.47699E-01 4.27842E-14-7.13782E-14
 -1      4138 1.79543E+01-1.91951E+00 6.30834E-02-4.13798E+00-3.04607E-13-1.23943E-13
 -1      4139 1.90483E+01-2.29516E+00 4.71674E-03-3.83499E+00-2.69654E-13-1.02523E-13
 -1      4140 1.70475E+01-1.28713E+00-6.81980E-03-3.72583E+00-2.20145E-13-9.33750E-14
 -1      4141 1.50037E+01 1.20133E+00-4.02449E-03-4.46004E-01 5.39924E-14 1.55084E-13
 -1      4142 1.96722E+01 3.69920E-01-3.94141E-03-1.37622E+00-1.99150E-14-9.74725E-14
 -1      4143 2.00035E+01 2.69482E-02 2.12414E-05-4.62431E-03 2.88633E-13-1.25266E-13
 -1      4144 1.73251E+01-2.00840E-01 2.90056E-02 2.54452E+00-4.24535E-14 2.46198E-13
 -1      4145 2.06267E+01-2.50106E+00 4.44659E-02-3.20363E+00-2.19763E-13-8.90286E-14
 -1      4146 1.58116E+01 7.23156E-01-1.08194E-02 1.57662E+00-7.51977E-14 1.63615E-13
 -1      4147 1.51405E+01 1.05711E+00 4.53646E-02 1.13651E+00-6.25476E-14 1.93475E-13
 -1      4148 1.87221E+01 3.84310E-01 1.73333E-04 1.40873E+00-6.98824E-14-1.59669E-13
 -1      4149 1.90346E+01 1.80180E-01-1.69542E-03 1.50190E+00-1.26195E-14-3.25061E-14
 -1      4150 1.91285E+01-1.80934E-03 1.30978E-02 1.65501E+00-5.68715E-14 9.50433E-15
 -1      4151 1.92550E+01 2.02116E+00-2.82089E-03 2.44418E-02-8.80955E-16-2.55987E-13
 -1      4152 1.92393E+01-5.05109E-01 2.35199E-02 2.07171E+00-9.78704E-14-1.09683E-14
 -1      4153 1.84633E+01-5.46280E-01-3.09615E-02 2.42744E+00-7.92840E-14 1.81628E-13
 -1      4154 1.90226E+01-2.21926E-01 1.75861E-04 1.90078E+00-1.34692E-13 1.90884E-14
 -1      4155 1.94036E+01-4.55541E-03 1.14973E-02-1.77310E+00-5.16195E-14-1.21454E-13
 -1      4156 1.93244E+01 2.23860E-01-4.37647E-03-1.61357E+00-2.19527E-14-1.24013E-13
 -1      4157 1.95241E+01 1.13040E+00 2.19534E-03-7.89041E-01 4.58037E-14-8.39200E-14
 -1      4158 1.94517E+01 1.46122E+00 7.58986E-04-5.48729E-01 3.96601E-14-1.26781E-13
 -1      4159 1.93246E+01 1.54093E+00-5.96756E-03-4.97484E-01 1.41703E-14-1.50902E-13
 -1      4160 1.92913E+01 1.16931E+00-5.68925E-03-8.05202E-01 3.50048E-14-8.52496E-14
 -1      4161 1.51456E+01 1.12221E+00-8.18499E-03 5.22354E-01-3.06396E-15 1.89159E-13
 -1      4162 2.00008E+01 3.48794E-02 4.86130E-05-2.19082E-03 4.91953E-13 1.68816E-13
 -1      4163 2.00002E+01 3.48232E-02-2.09107E-04-1.12082E-03 5.08225E-13 3.00356E-13
 -1      4164 2.04385E+01-1.55637E+00-1.42044E-02-2.39087E+00-1.58079E-13-1.50906E-13
 -1      4165 1.88692E+01 5.77109E-01 6.35774E-04 1.08455E+00-1.09608E-13 5.77053E-14
 -1      4166 1.92034E+01 1.65145E+00-6.97983E-04-3.86113E-01 2.34842E-15-1.93184E-13
 -1      4167 1.91095E+01 1.71758E+00-5.03995E-03-2.92243E-01 4.10436E-15-1.89761E-13
 -1      4168 1.91793E+01 1.48028E+00 4.65484E-03-5.22582E-01 1.46859E-14-1.48751E-13
 -1      4169 1.57892E+01 1.16782E+00-1.65565E-02-3.50532E-01-5.46794E-14-1.89747E-13
 -1      4170 1.57769E+01 1.00019E+00 1.30335E-02-1.08634E+00-6.39976E-14-1.97985E-13
 -1      4171 1.68338E+01 1.28707E+00 4.53263E-03-9.78241E-02-6.09643E-14-1.72023E-13
 -1      4172 1.99987E+01 4.40966E-02 2.30567E-04-2.27616E-04 4.47775E-13 3.14697E-13
 -1      4173 1.99997E+01 3.77183E-02 2.36088E-05 6.91808E-04 5.72896E-13 4.28329E-13
 -1      4174 1.99992E+01 3.90369E-02-1.43034E-04 2.27203E-03 4.28795E-13 5.63057E-13
 -1      4175 2.00028E+01 2.96937E-02 7.74496E-05-4.65201E-03 2.62731E-13-4.45850E-13
 -1      4176 1.95544E+01-6.16143E-01 1.25121E-02-2.19078E+00-1.02535E-13-1.05557E-13
 -1      4177 1.93590E+01-2.86394E-01-3.43293E-03-2.01590E+00-6.93083E-14-1.12365E-13
 -1      4178 1.89275E+01 4.15227E-02 7.77001E-03-1.94997E+00-6.20338E-14-1.33611E-13
 -1      4179 1.99995E+01 3.91879E-02-4.34365E-05 4.05406E-03 3.83638E-13 4.05293E-13
 -1      4180 1.99996E+01 3.97494E-02-1.33244E-04 5.90440E-03 3.75937E-13 1.68266E-13
 -1      4181 1.99984E+01 4.59071E-02 1.03214E-04 8.03492E-03 2.50243E-13 2.17273E-13
 -1      4182 1.99977E+01 4.68193E-02 1.78259E-04 4.05265E-03 4.22355E-13 6.11646E-13
 -1      4183 1.65045E+01-1.10144E-01-7.00945E-03-2.68589E+00-1.33674E-13-9.77183E-14
 -1      4184 1.67210E+01-5.67793E-01 4.61306E-02-3.23212E+00-1.70184E-13-3.62930E-14
 -1      4185 1.76053E+01-1.02086E+00-5.66649E-03-3.28380E+00-1.85707E-13-6.56836E-14
 -1      4186 1.94035E+01 6.10978E-01-2.86008E-03-1.26209E+00 1.00565E-15-1.05732E-13
 -1      4187 1.92132E+01 8.40928E-01 4.46685E-03-1.13212E+00 4.11553E-14-9.80143E-14
 -1      4188 1.94091E+01 4.36603E-01 7.22023E-03-1.41294E+00-2.71818E-15-1.28706E-13
 -1      4189 1.48884E+01 9.45138E-01 4.38620E-02 1.43890E+00 7.59410E-14-3.15793E-13
 -1      4190 1.57077E+01 1.24947E+00-3.46089E-03-4.17923E-01 1.18080E-13 1.33021E-13
 -1      4191 1.62611E+01 1.27060E+00-1.48764E-02-3.72782E-01 9.51483E-14 1.51258E-13
 -1      4192 1.53957E+01 1.29007E+00 2.82814E-02-8.39578E-02 7.47737E-14 1.71270E-13
 -1      4193 1.66917E+01 1.27390E+00-1.61331E-03-2.01750E-01 9.34239E-14 1.53836E-13
 -1      4194 1.71021E+01 1.25933E+00-8.08366E-03-1.99480E-01 9.18295E-14 2.36581E-13
 -1      4195 1.74754E+01 1.24163E+00-7.48604E-03-2.33523E-01 3.20900E-14 2.34431E-13
 -1      4196 1.77962E+01 1.20934E+00-5.52005E-03-2.24087E-01 4.60951E-14 3.37166E-13
 -1      4197 1.72644E+01 1.25796E+00 1.20400E-02 1.14014E-01 1.02081E-13 2.40656E-13
 -1      4198 1.80777E+01 1.16386E+00-6.49254E-03-2.48450E-01 1.18592E-14 2.81215E-13
 -1      4199 1.83234E+01 1.11374E+00-4.19729E-03-2.36788E-01-3.24534E-14 2.41194E-13
 -1      4200 1.79141E+01 1.19523E+00 1.08302E-02 8.54441E-03 1.83226E-14 1.96213E-13
 -1      4201 1.85405E+01 1.05642E+00-4.55299E-03-2.48656E-01 2.11115E-14 2.10329E-13
 -1      4202 1.87287E+01 9.96118E-01-3.10457E-03-2.33424E-01 2.10376E-14 2.84302E-13
 -1      4203 1.84031E+01 1.09832E+00 8.27572E-03-5.52738E-02 3.59631E-14 1.34037E-13
 -1      4204 1.88978E+01 9.32458E-01-3.29957E-03-2.36004E-01-3.01585E-14 2.75421E-13
 -1      4205 1.90427E+01 8.68243E-01-2.42197E-03-2.17767E-01 5.93390E-14 1.86374E-13
 -1      4206 1.87830E+01 9.80392E-01 6.30394E-03-8.96807E-02-2.81310E-15 9.88429E-14
 -1      4207 1.91749E+01 8.03413E-01-2.41611E-03-2.14074E-01-3.21909E-14 1.62681E-13
 -1      4208 1.92863E+01 7.39905E-01-1.95641E-03-1.94267E-01-6.58335E-14 4.00089E-14
 -1      4209 1.90799E+01 8.53708E-01 4.83706E-03-1.03403E-01-4.88730E-14-1.54917E-14
 -1      4210 1.93894E+01 6.77663E-01-1.76476E-03-1.86806E-01-4.85469E-14-6.89881E-15
 -1      4211 1.94747E+01 6.17980E-01-1.60548E-03-1.66894E-01 1.63117E-14-1.03705E-13
 -1      4212 1.93120E+01 7.27197E-01 3.74567E-03-1.03493E-01-9.88183E-14 2.60157E-14
 -1      4213 1.95546E+01 5.60745E-01-1.27952E-03-1.57614E-01 1.49891E-13-1.68061E-13
 -1      4214 1.96193E+01 5.06765E-01-1.32028E-03-1.38761E-01 1.35598E-13-8.66254E-14
 -1      4215 1.94926E+01 6.07189E-01 2.91188E-03-9.53524E-02-2.03354E-15-1.57301E-13
 -1      4216 1.96807E+01 4.55871E-01-9.19120E-04-1.29053E-01 7.19448E-14-2.88436E-14
 -1      4217 1.97292E+01 4.08516E-01-1.07860E-03-1.12029E-01 6.62607E-14-2.84929E-14
 -1      4218 1.96319E+01 4.97733E-01 2.26008E-03-8.29648E-02 1.04044E-13-2.66424E-13
 -1      4219 1.97758E+01 3.64487E-01-6.53326E-04-1.02794E-01-2.06108E-14-1.10927E-13
 -1      4220 1.98117E+01 3.23986E-01-8.70881E-04-8.80008E-02-1.19071E-13-1.57144E-13
 -1      4221 1.97381E+01 4.01009E-01 1.74409E-03-6.90748E-02-3.17651E-14-2.47076E-13
 -1      4222 1.98466E+01 2.86775E-01-4.59014E-04-7.97499E-02-1.75484E-13-1.36502E-13
 -1      4223 1.98728E+01 2.52889E-01-6.92942E-04-6.73038E-02-7.35861E-14-1.11669E-14
 -1      4224 1.98182E+01 3.17769E-01 1.33418E-03-5.54309E-02-7.56105E-14-2.29802E-13
 -1      4225 1.98985E+01 2.22078E-01-3.18311E-04-6.02646E-02-1.58865E-13-5.55045E-14
 -1      4226 1.99173E+01 1.94276E-01-5.42307E-04-5.00805E-02-4.41422E-13-1.80166E-14
 -1      4227 1.98775E+01 2.47756E-01 1.00944E-03-4.30332E-02-1.82161E-13-2.84898E-13
 -1      4228 1.99357E+01 1.69233E-01-2.17463E-04-4.42904E-02-4.95124E-13 1.22746E-13
 -1      4229 1.99489E+01 1.46825E-01-4.18101E-04-3.61619E-02-2.74321E-13 1.15607E-13
 -1      4230 1.99206E+01 1.90055E-01 7.53894E-04-3.23547E-02-3.28810E-13-2.56290E-13
 -1      4231 1.99619E+01 1.26812E-01-1.46383E-04-3.15508E-02-2.46241E-13-2.93885E-15
 -1      4232 1.99708E+01 1.09069E-01-3.07757E-04-2.52192E-02-1.26860E-13-1.52905E-13
 -1      4233 1.99513E+01 1.43365E-01 5.54701E-04-2.35192E-02-3.44846E-13-2.83173E-14
 -1      4234 1.99796E+01 9.32835E-02-1.10741E-04-2.16167E-02 1.75629E-14-3.43162E-13
 -1      4235 1.99855E+01 7.94403E-02-2.14810E-04-1.68165E-02 7.24046E-14-3.95631E-13
 -1      4236 1.99725E+01 1.06312E-01 4.28111E-04-1.64661E-02-1.65997E-13-2.61401E-13
 -1      4237 1.99911E+01 6.73280E-02-7.16228E-05-1.41124E-02 2.79537E-14-4.27728E-13
 -1      4238 1.99946E+01 5.65322E-02-2.02835E-04-1.02755E-02-3.31549E-14-3.66339E-13
 -1      4239 1.99865E+01 7.72252E-02 2.87790E-04-1.10496E-02 6.72180E-15-4.01616E-13
 -1      4240 1.99984E+01 4.57652E-02-6.36656E-06-6.88998E-03 1.18545E-13-2.01057E-13
 -1      4241 2.00004E+01 3.78967E-02-2.35265E-05-4.42054E-03 2.67649E-13-2.44070E-13
 -1      4242 1.65237E+01 5.18443E-01 4.46216E-03 1.91345E+00-1.32511E-14 2.37823E-13
 -1      4243 1.63072E+01 8.16814E-01-2.17137E-02 1.34973E+00-3.78430E-15 2.14800E-13
 -1      4244 1.93137E+01 6.64292E-01-3.30038E-03 3.92533E-01-1.31463E-13 1.12062E-13
 -1      4245 1.92420E+01 6.99618E-01 8.61262E-04 4.52619E-01-6.93968E-14 7.45129E-14
 -1      4246 1.90726E+01 1.12977E+00-3.09485E-03-8.47329E-01 4.82713E-14-1.10468E-13
 -1      4247 1.91090E+01 1.32053E+00 3.79646E-03-6.73524E-01 4.08039E-14-1.18779E-13
 -1      4248 1.89546E+01 1.41257E+00-4.56003E-03-5.50248E-01 1.73055E-14-1.60807E-13
 -1      4249 1.91256E+01 7.24899E-01-4.22424E-03 5.19163E-01-6.04451E-14 6.88807E-14
 -1      4250 1.90467E+01 7.46423E-01 1.64741E-03 5.96519E-01-5.65380E-14 3.49841E-14
 -1      4251 1.90963E+01 7.79679E-01 5.05858E-03 3.99623E-01-7.23205E-14-2.10635E-13
 -1      4252 1.96026E+01 5.01202E-01-2.00970E-03 2.22452E-01-2.36580E-13 2.85865E-13
 -1      4253 1.95504E+01 5.44654E-01 1.22876E-04 2.59335E-01-1.77322E-13 3.49465E-13
 -1      4254 1.97074E+01 4.17875E-01-1.56002E-03 1.65979E-01-2.19518E-13 1.61459E-13
 -1      4255 1.96650E+01 4.59597E-01-1.91304E-05 1.94943E-01-2.59992E-13 1.71603E-13
 -1      4256 1.96017E+01 5.11181E-01 2.38961E-03 1.59730E-01-1.97022E-13 2.19071E-13
 -1      4257 1.97899E+01 3.40640E-01-1.20285E-03 1.22713E-01-1.10362E-13 2.54024E-14
 -1      4258 1.97564E+01 3.78677E-01-8.47452E-05 1.45405E-01-1.70572E-13 2.20139E-14
 -1      4259 1.97091E+01 4.22041E-01 1.83223E-03 1.16957E-01-3.68495E-14-1.42835E-13
 -1      4260 1.98535E+01 2.72051E-01-9.19221E-04 8.96504E-02 1.49370E-13 1.28621E-13
 -1      4261 1.98277E+01 3.05418E-01-1.05877E-04 1.07341E-01 3.83945E-14 9.45956E-14
 -1      4262 1.97926E+01 3.41321E-01 1.38782E-03 8.50455E-02-4.93893E-14-2.38090E-13
 -1      4263 1.99014E+01 2.13133E-01-6.94866E-04 6.45049E-02 1.14917E-14 3.12092E-13
 -1      4264 1.98820E+01 2.41518E-01-1.02870E-04 7.81999E-02 4.80271E-14 2.12322E-13
 -1      4265 1.98564E+01 2.70790E-01 1.03638E-03 6.12322E-02 1.65834E-14-2.27244E-13
 -1      4266 1.99366E+01 1.63883E-01-5.18349E-04 4.55108E-02 5.97383E-14 5.32636E-13
 -1      4267 1.99224E+01 1.87420E-01-8.81971E-05 5.60176E-02 1.16977E-13 5.41091E-13
 -1      4268 1.99041E+01 2.10920E-01 7.61017E-04 4.34935E-02-1.19139E-13 2.22852E-13
 -1      4269 1.99617E+01 1.23652E-01-3.90098E-04 3.12820E-02-5.44494E-14 7.32028E-13
 -1      4270 1.99517E+01 1.42756E-01-6.78844E-05 3.92624E-02-3.42902E-14 6.06119E-13
 -1      4271 1.99389E+01 1.61319E-01 5.41050E-04 3.03369E-02 7.14695E-15 4.09873E-13
 -1      4272 1.99789E+01 9.14710E-02-3.24987E-04 2.07071E-02-2.78842E-14 8.70454E-13
 -1      4273 1.99723E+01 1.06765E-01-1.53654E-05 2.67677E-02-8.63952E-15 8.47727E-13
 -1      4274 1.99635E+01 1.20924E-01 3.10389E-04 2.06839E-02-1.18293E-13 7.88653E-13
 -1      4275 1.99905E+01 6.63095E-02-1.84729E-04 1.32037E-02 2.14393E-13 7.09611E-13
 -1      4276 1.99863E+01 7.81355E-02 4.31809E-05 1.75230E-02 1.75670E-13 9.28196E-13
 -1      4277 1.99804E+01 8.87495E-02 1.21954E-04 1.38553E-02 1.81469E-15 8.61332E-13
 -1      4278 1.87840E+01 1.60879E+00-2.93853E-03 5.52403E-02-2.76041E-14-2.05661E-13
 -1      4279 1.85499E+01 1.53243E+00-6.59928E-03 6.66194E-02-4.63083E-14-1.91349E-13
 -1      4280 1.67231E+01 9.19400E-01 9.19636E-03-1.16552E+00-6.39124E-14-1.34915E-13
 -1      4281 1.58556E+01 6.25667E-01-1.46427E-03-1.75320E+00-9.45257E-14-1.39277E-13
 -1      4282 1.72948E+01 1.10745E-01 3.59898E-03 2.20333E+00-1.02799E-14 2.03879E-13
 -1      4283 1.99954E+01 5.22527E-02-8.26912E-05-5.12290E-03 1.99399E-13 8.16048E-14
 -1      4284 1.64256E+01 3.97977E-01 2.15721E-02-2.12402E+00-1.24238E-13-1.32040E-13
 -1      4285 1.96048E+01-1.96371E+00-7.56121E-03-3.21298E+00-2.15645E-13-1.18807E-13
 -1      4286 1.89082E+01 7.51604E-01-5.37477E-03 6.86614E-01-6.99469E-14 4.73447E-14
 -1      4287 1.88276E+01 7.49383E-01 3.12722E-03 7.87255E-01-1.11085E-13 1.45353E-13
 -1      4288 1.88544E+01 8.37454E-01 6.47288E-03 5.42675E-01-9.11757E-15-1.18145E-13
 -1      4289 1.58305E+01 1.17258E+00-9.14001E-03 4.31794E-01 9.97041E-14 2.00898E-13
 -1      4290 1.72360E+01 1.31626E+00-1.38309E-02-2.66438E-02-6.39558E-14-1.44387E-13
 -1      4291 1.71521E+01 1.29579E+00 2.38784E-02-4.38477E-01-6.71791E-14-1.64488E-13
 -1      4292 1.76670E+01 1.37397E+00-5.27124E-03 1.97577E-03-7.58094E-14-1.36021E-13
 -1      4293 1.83097E+01 1.47417E+00-3.73269E-03 4.35390E-02-6.69852E-14-1.56670E-13
 -1      4294 1.79875E+01 1.41745E+00-9.40838E-03 3.81051E-02-7.37717E-14-1.51360E-13
 -1      4295 1.79031E+01 1.39997E+00 1.49095E-02-2.66286E-01-7.72360E-14-1.13717E-13
 -1      4296 1.84669E+01 1.50841E+00 1.05953E-02-1.66240E-01-3.22976E-14-1.66563E-13
 -1      4297 1.70334E+01 1.03166E+00-2.66928E-02-9.19312E-01-5.18400E-14-1.23048E-13
 -1      4298 1.72455E+01 7.96450E-01 2.89839E-02-1.53313E+00-8.43174E-14-5.13042E-14
 -1      4299 1.91902E+01 1.88882E+00 4.80379E-03-2.23259E-02 8.60924E-15-2.26584E-13
 -1      4300 1.90445E+01 5.01437E-01 9.26581E-03-1.50022E+00-1.03650E-14-1.28425E-13
 -1      4301 1.94722E+01 5.85895E-01-2.57792E-03 2.96148E-01-2.81460E-13 1.92760E-13
 -1      4302 1.94100E+01 6.27795E-01 3.90824E-04 3.43140E-01-2.63448E-13 2.07406E-13
 -1      4303 1.94665E+01 6.05125E-01 3.08572E-03 2.17183E-01-3.09287E-13 2.55618E-13
 -1      4304 1.86649E+01 7.22136E-01-6.81022E-03 9.11256E-01-2.21390E-13 1.31353E-13
 -1      4305 1.85904E+01 6.78933E-01 4.04132E-03 1.04536E+00-1.41906E-13 6.17768E-15
 -1      4306 1.85690E+01 8.52683E-01 7.63442E-03 7.38903E-01-1.71841E-13-6.66759E-14
 -1      4307 1.69583E+01 6.23616E-02-1.75786E-02-2.36542E+00-1.37471E-13-6.99718E-14
 -1      4308 1.77557E+01 2.57626E-01 1.58826E-02 1.89474E+00 4.62626E-14 1.51820E-13
 -1      4309 1.92993E+01 6.97750E-01 3.95676E-03 2.94646E-01-2.46570E-13 7.15577E-14
 -1      4310 1.89594E+01 9.76725E-01-5.16308E-03-1.00778E+00 3.98873E-14-1.17715E-13
 -1      4311 1.75176E+01 1.12905E+00-6.25491E-03-7.72586E-01-7.26803E-14-9.98535E-14
 -1      4312 1.78489E+01 1.16233E-01-1.71356E-02-2.09187E+00-1.08819E-13-8.71805E-14
 -1      4313 1.81915E+01-3.20197E-01 2.22644E-02-2.51218E+00-1.11878E-13-7.75170E-14
 -1      4314 1.64869E+01 1.30347E+00 2.16303E-02 4.32906E-02 1.12280E-13 1.87842E-13
 -1      4315 1.68432E+01 8.89180E-01-5.84529E-03 1.18740E+00 1.04540E-13 8.84851E-14
 -1      4316 1.63554E+01 1.11926E+00 3.14652E-02 8.91133E-01 1.01160E-13 1.32880E-13
 -1      4317 1.84062E+01 6.04613E-01-8.78505E-03 1.20603E+00 5.21908E-16-6.36252E-14
 -1      4318 1.83596E+01 5.05599E-01 4.59994E-03 1.38740E+00-9.24521E-15-6.58549E-14
 -1      4319 1.82490E+01 7.84748E-01 5.96871E-03 1.02467E+00-8.40317E-14 1.33444E-15
 -1      4320 1.85474E+01 3.75612E-02-1.09166E-02 1.84445E+00-4.29786E-14 8.61240E-14
 -1      4321 1.81648E+01 3.43679E-01-1.86757E-03-1.77835E+00-8.92170E-14-5.88859E-14
 -1      4322 1.99960E+01 5.18399E-02-9.82451E-05 9.17822E-03 2.63942E-13 4.15308E-13
 -1      4323 1.99940E+01 5.89341E-02 2.86242E-05 1.17771E-02 2.60193E-13 5.32503E-13
 -1      4324 1.99901E+01 6.76852E-02 1.99988E-04 9.50391E-03 3.64503E-13 9.26298E-13
 -1      4325 1.99956E+01 5.26385E-02-8.01861E-06 7.13201E-03 3.66637E-13 6.40309E-13
 -1      4326 2.00020E+01 3.10475E-02-9.50159E-05-4.19555E-03 2.94376E-13-1.23239E-13
 -1      4327 1.99163E+01-1.56838E+00 7.74817E-03-2.73698E+00-1.78710E-13-1.28546E-13
 -1      4328 1.95575E+01-1.00026E+00-1.71708E-03-2.46608E+00-1.54370E-13-1.50276E-13
 -1      4329 1.99937E+01 5.63908E-02 1.29060E-05-1.65061E-03 3.17523E-13 2.33409E-13
 -1      4330 1.99925E+01 5.88262E-02-1.26093E-04 8.97169E-04 4.03833E-13 1.61360E-13
 -1      4331 1.99895E+01 6.87882E-02 1.05636E-04-4.87417E-03 1.84212E-13-1.68514E-13
 -1      4332 1.90519E+01 1.77851E+00-7.94020E-04-1.24166E-01 4.54220E-15-2.16304E-13
 -1      4333 1.90467E+01 1.76404E+00-4.28054E-03 6.20585E-02-2.13393E-14-2.16279E-13
 -1      4334 1.82099E+01 5.68636E-01-1.89225E-02-1.52194E+00-5.13259E-14-6.53039E-14
 -1      4335 1.89706E+01 1.64288E+00 4.71222E-03-2.29499E-01 6.57634E-15-2.00032E-13
 -1      4336 1.63655E+01 1.19388E+00-9.94462E-03 3.48023E-01 1.62641E-13 1.55181E-13
 -1      4337 1.85862E+01 6.95448E-01-6.51063E-03-1.33932E+00-1.85508E-14-9.60850E-14
 -1      4338 1.86848E+01 8.66596E-01-1.22757E-02-1.13722E+00 2.77691E-15-1.00860E-13
 -1      4339 1.86403E+01 1.19008E+00 1.05800E-02-8.13618E-01 1.66403E-14-1.37620E-13
 -1      4340 1.80158E+01 1.02995E+00 2.35501E-02-1.08876E+00-5.28221E-14-5.57041E-14
 -1      4341 1.88962E+01 1.66597E+00-4.03282E-03 9.07229E-02-3.20437E-14-2.12127E-13
 -1      4342 1.87978E+01 1.63532E+00 4.79263E-03-8.52928E-02-1.08073E-14-2.03532E-13
 -1      4343 1.67864E+01 1.16705E+00-1.53947E-02 4.67697E-01 1.09546E-13 1.58693E-13
 -1      4344 1.75935E+01 6.86554E-01 1.10976E-02 1.41083E+00 7.88448E-14 3.48797E-14
 -1      4345 1.74227E+01 8.94554E-01-1.19625E-02 1.00892E+00 4.89903E-14 7.96573E-14
 -1      4346 1.77870E+01 1.12950E+00-9.07106E-03 2.66862E-01 1.18514E-14 1.84191E-13
 -1      4347 1.80760E+01 1.10811E+00-1.49193E-03 2.09337E-01-2.24746E-14 1.36245E-13
 -1      4348 1.82894E+01 1.06608E+00-7.69290E-03 1.44006E-01-2.05145E-14 1.03641E-13
 -1      4349 1.85133E+01 1.02345E+00-2.14806E-03 1.06576E-01 9.18048E-15 8.16621E-14
 -1      4350 1.82568E+01 1.05235E+00 9.80011E-03 3.77978E-01-5.72055E-14 7.82735E-14
 -1      4351 1.86858E+01 9.72143E-01-5.21956E-03 6.37577E-02 3.13566E-14 7.94059E-14
 -1      4352 1.88593E+01 9.18124E-01-1.85047E-03 4.21384E-02-5.04806E-14 6.05523E-14
 -1      4353 1.86463E+01 9.84186E-01 9.96936E-03 2.40754E-01-2.71513E-14 4.25544E-14
 -1      4354 1.89981E+01 8.60324E-01-3.73061E-03 1.45343E-02-1.84620E-13 7.73740E-14
 -1      4355 1.91330E+01 8.01744E-01-1.61207E-03 3.98317E-03-1.30582E-13 4.12981E-14
 -1      4356 1.89561E+01 8.84251E-01 7.68151E-03 1.50950E-01-9.28030E-14 6.84396E-14
 -1      4357 1.92443E+01 7.42372E-01-2.67614E-03-1.31720E-02-1.35818E-13-9.32359E-14
 -1      4358 1.93491E+01 6.83801E-01-1.41335E-03-1.64524E-02-1.19140E-13-1.24700E-13
 -1      4359 1.92039E+01 7.72392E-01 5.80243E-03 9.21928E-02-2.15851E-13-6.20199E-14
 -1      4360 1.94377E+01 6.26481E-01-1.91725E-03-2.66601E-02-7.86315E-14-2.29195E-13
 -1      4361 1.95185E+01 5.71045E-01-1.22930E-03-2.54946E-02-1.22042E-13-3.80332E-13
 -1      4362 1.94013E+01 6.58602E-01 4.39104E-03 5.44248E-02-2.12708E-13-2.91999E-13
 -1      4363 1.95883E+01 5.18157E-01-1.36602E-03-3.12210E-02 1.24983E-14-3.10212E-13
 -1      4364 1.96500E+01 4.67795E-01-1.05217E-03-2.76224E-02 1.42872E-13-3.38427E-13
 -1      4365 1.95571E+01 5.49634E-01 3.32028E-03 3.07355E-02 2.37908E-14-4.66706E-13
 -1      4366 1.97043E+01 4.20684E-01-9.65165E-04-3.05625E-02 4.19405E-14-2.80535E-13
 -1      4367 1.97509E+01 3.76394E-01-8.83045E-04-2.58924E-02-8.19478E-14-3.47420E-13
 -1      4368 1.96785E+01 4.49784E-01 2.49870E-03 1.63190E-02 8.71563E-14-4.55700E-13
 -1      4369 1.97924E+01 3.35621E-01-6.74660E-04-2.71796E-02-9.74203E-14-3.46523E-13
 -1      4370 1.98271E+01 2.97708E-01-7.25813E-04-2.23032E-02-9.77477E-14-3.96218E-13
 -1      4371 1.97718E+01 3.61396E-01 1.86533E-03 7.86834E-03-6.17404E-14-3.64842E-13
 -1      4372 1.98583E+01 2.63274E-01-4.65448E-04-2.26705E-02-1.55941E-13-3.06434E-13
 -1      4373 1.98836E+01 2.31566E-01-5.84298E-04-1.80925E-02-2.54691E-13-3.81995E-13
 -1      4374 1.98423E+01 2.85350E-01 1.37751E-03 3.15156E-03-8.54725E-14-4.71262E-13
 -1      4375 1.99067E+01 2.03104E-01-3.16148E-04-1.79962E-02-2.44058E-13-4.78671E-13
 -1      4376 1.99248E+01 1.77126E-01-4.61418E-04-1.39724E-02-2.19799E-13-3.01124E-13
 -1      4377 1.98946E+01 2.21492E-01 1.00368E-03 6.95977E-04-3.34857E-13-3.77711E-13
 -1      4378 1.99414E+01 1.54060E-01-2.10515E-04-1.36823E-02-3.27037E-13-1.75256E-13
 -1      4379 1.99541E+01 1.33175E-01-3.49714E-04-1.03058E-02-3.06913E-13-1.21304E-13
 -1      4380 1.99326E+01 1.69006E-01 7.19036E-04-4.48405E-04-1.41951E-13-4.06633E-13
 -1      4381 1.99657E+01 1.14675E-01-1.74216E-04-9.94775E-03-2.58565E-13-1.81890E-13
 -1      4382 1.99746E+01 9.83407E-02-1.47787E-04-7.23878E-03-1.74855E-13-3.25409E-13
 -1      4383 1.99594E+01 1.26687E-01 4.78926E-04-8.55261E-04-2.86610E-13-1.84108E-13
 -1      4384 1.99833E+01 8.08155E-02-2.46333E-04-6.84850E-03 4.70458E-14-1.81733E-13
 -1      4385 1.78597E+01 4.16977E-01-5.23426E-03 1.64734E+00 4.73128E-14 1.96444E-14
 -1      4386 1.87413E+01 1.31573E+00-3.29621E-04-6.23431E-01 3.16093E-14-1.74481E-13
 -1      4387 1.88328E+01 1.47594E+00 4.74842E-03-4.58397E-01 2.62548E-14-1.61505E-13
 -1      4388 1.84663E+01 1.23907E+00 3.58578E-03-7.20096E-01 1.79349E-15-1.54614E-13
 -1      4389 1.91231E+01 7.75315E-01-4.15842E-03 2.33123E-01-2.16810E-13-1.27258E-13
 -1      4390 1.90102E+01 8.15317E-01-3.27111E-03 2.87692E-01-6.81302E-14-1.36088E-13
 -1      4391 1.88509E+01 1.56696E+00-3.02831E-03-2.79527E-01 1.56590E-14-1.81398E-13
 -1      4392 1.97353E+01 3.88780E-01-9.48943E-04 5.60751E-02 1.84646E-14-4.11218E-13
 -1      4393 1.96871E+01 4.30439E-01-1.34304E-03 7.15278E-02 9.06655E-15-3.89210E-13
 -1      4394 1.96321E+01 4.77558E-01-1.40046E-03 8.03784E-02 4.06473E-14-3.36177E-13
 -1      4395 1.95709E+01 5.23194E-01-1.69400E-03 1.01436E-01-2.24756E-15-1.54152E-13
 -1      4396 1.98736E+01 2.43656E-01-4.06325E-04 2.67731E-02-1.88817E-13-1.55045E-13
 -1      4397 1.98455E+01 2.74959E-01-8.14643E-04 3.51429E-02-3.85758E-14-2.64883E-13
 -1      4398 1.99173E+01 1.87812E-01-2.51343E-04 1.81874E-02-7.49736E-14 2.19692E-14
 -1      4399 1.98966E+01 2.13886E-01-6.20453E-04 2.43439E-02-2.87472E-13-1.01315E-13
 -1      4400 1.99487E+01 1.42207E-01-1.37180E-04 1.21078E-02-1.41819E-13 1.75463E-13
 -1      4401 1.99338E+01 1.63462E-01-4.59622E-04 1.66255E-02-6.37456E-14 1.30362E-13
 -1      4402 1.99708E+01 1.05756E-01 1.51526E-05 8.12199E-03-1.75836E-13 2.81508E-13
 -1      4403 1.99602E+01 1.22836E-01-2.69633E-04 1.10657E-02-1.39434E-13 2.86047E-13
 -1      4404 1.99779E+01 9.07924E-02-1.74932E-04 5.91533E-03-8.94902E-15 3.70107E-13
 -1      4405 1.72855E+01 1.09081E+00 1.54639E-02 7.26977E-01 8.20073E-14 9.10379E-14
 -1      4406 1.72382E+01 1.14722E+00-8.63967E-03 4.46636E-01 1.05283E-13 8.70635E-14
 -1      4407 1.76073E+01 1.13926E+00-2.38727E-03 3.60947E-01 7.73776E-14 1.05514E-13
 -1      4408 1.78373E+01 8.93376E-01-2.40107E-03 9.34404E-01 1.10459E-15 8.70881E-14
 -1      4409 1.93321E+01 6.76245E-01-2.92079E-03 1.63713E-01-3.33001E-13-1.19576E-13
 -1      4410 1.92384E+01 7.22528E-01-2.63815E-03 2.03262E-01-2.49528E-13-1.43873E-13
 -1      4411 1.88655E+01 8.61974E-01-5.86865E-03 3.31766E-01 5.11235E-14-1.14960E-13
 -1      4412 1.87322E+01 8.88933E-01-3.88302E-03 4.07226E-01-4.63271E-15-7.60805E-14
 -1      4413 1.86271E+01-1.29162E+00 2.78277E-02-3.25587E+00-1.97803E-13-1.04743E-13
 -1      4414 1.89020E+01-6.55683E-01-2.32822E-02-2.48613E+00-8.93508E-14-1.12157E-13
 -1      4415 1.79036E+01 1.19202E+00-1.32023E-02-6.64628E-01-6.36388E-14-1.21344E-13
 -1      4416 1.94997E+01 5.74754E-01-2.03440E-03 1.14830E-01-1.59647E-13-2.10105E-13
 -1      4417 1.94232E+01 6.22363E-01-2.11906E-03 1.43626E-01-3.19301E-13-2.34829E-13
 -1      4418 1.85519E+01 9.22392E-01-7.91054E-03 4.72074E-01-8.49121E-14-9.34606E-14
 -1      4419 1.83992E+01 9.32685E-01-2.04247E-03 5.74541E-01-1.04956E-13 5.06360E-14
 -1      4420 1.98142E+01 3.10569E-01-6.29716E-04 3.89101E-02-1.94353E-14-3.40006E-13
 -1      4421 1.97771E+01 3.47221E-01-1.05299E-03 5.02771E-02-5.69315E-14-3.78580E-13
 -1      4422 1.86201E+01 1.47074E+00-3.15651E-03-3.17622E-01 1.92487E-14-1.60234E-13
 -1      4423 1.81482E+01-7.29603E-01 8.21074E-03-2.87452E+00-1.32354E-13-7.26285E-14
 -1      4424 1.80137E+01 9.36575E-01-6.17160E-03 7.72458E-01-1.79965E-14 4.23043E-14
 -1      4425 1.99900E+01 6.63411E-02-5.53173E-06 3.94102E-03 2.62054E-13 5.26643E-13
 -1      4426 1.99867E+01 7.43851E-02 3.32916E-05 5.11135E-03 1.34836E-13 5.03408E-13
 -1      4427 1.78525E+01 1.05990E+00 5.39336E-03 5.71602E-01 2.00293E-14 7.76355E-14
 -1      4428 1.99792E+01 8.99982E-02 1.97771E-04-6.10339E-04-4.60282E-14-2.04987E-13
 -1      4429 1.83690E+01 1.39390E+00-7.74073E-03-3.64293E-01-1.84657E-14-1.51672E-13
 -1      4430 1.82297E+01 1.26665E+00-3.89631E-03-5.76274E-01-5.18817E-14-1.24245E-13
 -1      4431 1.99951E+01 5.25068E-02-1.28367E-04 5.12746E-03 4.56548E-13 7.04735E-13
 -1      4432 1.81912E+01 9.42944E-01-4.36182E-03 6.71668E-01-7.37393E-14 2.83155E-14
 -3
    1PSTEP                         3           1           1          
  100CL  101 1.000000000        4432                     0    1           1
 -4  TOSTRAIN    6    1
 -5  EXX         1    4    1    1
 -5  EYY         1    4    2    2
 -5  EZZ         1    4    3    3
 -5  EXY         1    4    1    2
 -5  EYZ         1    4    2    3
 -5  EZX         1    4    3    1
 -1         1 3.18097E-04-9.85269E-05-8.05277E-05 1.77656E-06-2.72824E-19-2.44564E-18
 -1         2 3.67630E-05-1.11760E-04 2.01994E-05 3.97992E-07 1.79444E-18 5.21481E-19
 -1         3 9.52380E-05-2.85702E-05-2.85723E-05 1.36153E-09-1.68463E-18-1.56839E-18
 -1         4 9.52380E-05-2.85703E-05-2.85723E-05-1.20293E-09 1.70229E-18 2.35602E-19
 -1         5 1.42039E-04-2.11563E-05-4.24074E-05 3.79562E-05-1.83012E-19 1.34619E-17
 -1         6 1.43729E-04 2.57441E-10-4.40085E-05-5.25501E-05-6.79320E-19 1.18580E-17
 -1         7 9.12633E-05-6.03677E-07-3.91940E-05-2.81479E-05-1.01326E-19 2.68345E-18
 -1         8 8.60026E-05 3.93748E-08-3.66388E-05-1.87350E-05-1.55245E-19-2.44028E-19
 -1         9 8.35761E-05 5.00696E-08-3.56392E-05-1.38431E-05-1.28034E-19-1.87541E-18
 -1        10 8.22014E-05 2.73288E-08-3.50587E-05-1.02399E-05-7.96343E-20-2.70987E-18
 -1        11 8.12624E-05 2.00117E-08-3.46778E-05-7.35297E-06-6.24025E-20-3.15114E-18
 -1        12 8.06065E-05 1.78155E-08-3.44179E-05-4.98311E-06-2.84947E-20-3.35126E-18
 -1        13 8.01697E-05 1.86866E-08-3.42467E-05-2.88951E-06-1.63120E-20-3.38367E-18
 -1        14 7.99608E-05 1.92866E-08-3.41645E-05-9.72004E-07 7.13112E-21-3.35540E-18
 -1        15 7.99782E-05 1.87972E-08-3.41697E-05 9.03205E-07 3.73439E-20-3.21787E-18
 -1        16 8.02150E-05 1.73932E-08-3.42601E-05 2.86375E-06 5.43391E-20-3.04868E-18
 -1        17 8.06623E-05 1.53989E-08-3.44332E-05 5.03461E-06 8.10306E-20-2.76661E-18
 -1        18 8.13061E-05 1.77538E-08-3.46881E-05 7.49522E-06 1.04628E-19-2.35069E-18
 -1        19 8.22156E-05 2.76061E-08-3.50604E-05 1.04795E-05 1.20940E-19-1.67165E-18
 -1        20 8.35568E-05 5.71442E-08-3.56350E-05 1.41653E-05 1.64258E-19-5.47608E-19
 -1        21 8.59152E-05 1.23105E-07-3.66580E-05 1.90423E-05 1.84680E-19 1.48675E-18
 -1        22 9.21418E-05-1.74471E-07-3.88661E-05 2.69855E-05 3.49401E-21 5.38298E-18
 -1        23 1.13073E-04-3.81759E-05-3.54415E-05-4.10196E-06-4.04326E-19 9.51970E-18
 -1        24 9.42868E-05-2.81535E-05-2.94221E-05 4.24721E-07-1.22413E-19 7.46206E-18
 -1        25 9.17828E-05-2.76609E-05-2.77248E-05 3.87505E-07-5.87811E-20 5.32154E-18
 -1        26 9.19804E-05-2.76880E-05-2.75933E-05 2.20214E-07 5.77389E-20 3.97174E-18
 -1        27 9.36179E-05-2.81511E-05-2.80795E-05 1.68227E-07 1.39115E-20 3.29157E-18
 -1        28 9.62245E-05-2.89105E-05-2.88802E-05 1.49103E-07 4.34187E-21 3.19332E-18
 -1        29 9.96484E-05-2.99235E-05-2.99223E-05 1.51981E-07-3.63070E-20 2.23270E-18
 -1        30 1.03843E-04-3.11711E-05-3.11899E-05 1.72130E-07 8.30820E-21 1.87683E-18
 -1        31 1.08759E-04-3.26344E-05-3.26648E-05 2.05869E-07 1.89104E-20 1.07257E-18
 -1        32 1.14228E-04-3.42618E-05-3.42871E-05 2.44461E-07-2.17342E-19 2.03778E-19
 -1        33 1.19814E-04-3.59238E-05-3.59092E-05 2.65600E-07 4.30301E-19 4.93185E-19
 -1        34 1.24619E-04-3.73564E-05-3.72449E-05 2.23097E-07-2.04793E-20 8.02213E-19
 -1        35 1.27148E-04-3.81196E-05-3.78504E-05 4.47347E-08 1.28213E-21 2.95512E-19
 -1        36 1.25479E-04-3.76412E-05-3.72143E-05-3.34162E-07 1.13721E-20 1.12579E-18
 -1        37 1.18147E-04-3.54659E-05-3.50447E-05-8.67534E-07-2.17615E-19 1.75849E-18
 -1        38 1.05830E-04-3.17657E-05-3.16797E-05-1.27462E-06 2.71688E-19 1.87147E-18
 -1        39 9.27451E-05-2.77928E-05-2.83005E-05-1.12072E-06-3.74379E-19 1.29533E-18
 -1        40 8.54122E-05-2.55496E-05-2.64758E-05-2.70485E-07-1.71643E-19-1.29229E-18
 -1        41 8.81779E-05-2.63969E-05-2.71670E-05 7.70215E-07 7.96707E-20-3.12825E-18
 -1        42 9.94657E-05-2.98377E-05-3.00345E-05 1.29381E-06-3.25685E-19-4.54391E-18
 -1        43 1.13209E-04-3.39891E-05-3.36876E-05 1.12128E-06-6.35275E-21-5.29983E-18
 -1        44 1.23663E-04-3.71113E-05-3.66543E-05 6.01654E-07 5.23609E-19-2.14543E-18
 -1        45 1.28448E-04-3.85198E-05-3.81657E-05 1.28825E-07-7.52437E-20-8.12940E-19
 -1        46 1.28207E-04-3.84336E-05-3.82529E-05-1.42299E-07-9.02222E-20-8.03990E-19
 -1        47 1.24818E-04-3.74193E-05-3.73705E-05-2.37557E-07 2.55335E-19 2.81824E-19
 -1        48 1.20056E-04-3.60021E-05-3.60217E-05-2.33422E-07 1.47892E-19 1.44083E-18
 -1        49 1.15116E-04-3.45323E-05-3.45746E-05-1.90226E-07 1.65151E-19 4.47869E-20
 -1        50 1.10629E-04-3.31954E-05-3.32370E-05-1.40618E-07-2.98491E-19-2.40191E-18
 -1        51 1.06844E-04-3.20648E-05-3.20976E-05-9.78013E-08 2.71575E-19-1.40019E-18
 -1        52 1.03793E-04-3.11516E-05-3.11746E-05-6.50077E-08-2.93266E-19-1.26154E-18
 -1        53 1.01410E-04-3.04366E-05-3.04517E-05-4.14349E-08 2.91973E-19-2.81079E-18
 -1        54 9.95914E-05-2.98899E-05-2.98991E-05-2.51333E-08 3.03631E-19-2.15151E-18
 -1        55 9.82301E-05-2.94798E-05-2.94851E-05-1.41690E-08-2.41418E-19-3.39950E-18
 -1        56 9.72292E-05-2.91777E-05-2.91805E-05-6.97680E-09 2.31148E-19-3.71634E-18
 -1        57 9.65067E-05-2.89593E-05-2.89604E-05-2.39263E-09 2.31214E-19-6.43625E-18
 -1        58 9.59958E-05-2.88045E-05-2.88047E-05 4.15161E-10 3.05042E-19-5.92744E-18
 -1        59 9.56437E-05-2.86976E-05-2.86973E-05 2.02985E-09-2.08628E-20-3.78254E-18
 -1        60 9.54087E-05-2.86261E-05-2.86255E-05 2.85723E-09-7.45602E-19-3.11383E-18
 -1        61 9.52591E-05-2.85804E-05-2.85796E-05 3.17867E-09 8.59881E-19-1.21736E-18
 -1        62 9.51706E-05-2.85531E-05-2.85524E-05 3.18870E-09-1.61053E-19-9.83426E-19
 -1        63 9.51249E-05-2.85389E-05-2.85382E-05 3.02118E-09-5.11768E-19-2.57469E-18
 -1        64 9.51085E-05-2.85336E-05-2.85330E-05 2.76728E-09 4.48555E-19-3.79386E-18
 -1        65 9.51116E-05-2.85342E-05-2.85337E-05 2.48780E-09-7.16594E-19-1.55758E-18
 -1        66 9.51271E-05-2.85386E-05-2.85382E-05 2.22081E-09-1.10066E-19-1.07297E-18
 -1        67 9.51497E-05-2.85452E-05-2.85449E-05 1.98519E-09 3.18476E-19 1.71561E-18
 -1        68 9.51754E-05-2.85528E-05-2.85525E-05 1.77810E-09 6.21356E-19 3.71085E-18
 -1        69 9.52009E-05-2.85603E-05-2.85599E-05 1.54968E-09-3.47900E-21 2.89527E-18
 -1        70 9.52226E-05-2.85668E-05-2.85662E-05 1.06876E-09-3.47867E-19 1.10188E-18
 -1        71 9.52360E-05-2.85711E-05-2.85702E-05 2.08226E-10-3.34652E-19-9.87179E-20
 -1        72 1.02436E-04-3.06538E-05-3.42379E-05-1.99613E-06 1.24011E-19 1.27943E-17
 -1        73 9.40219E-05-2.79603E-05-2.93261E-05-3.51368E-07 8.16990E-20 1.02957E-17
 -1        74 9.16179E-05-2.74609E-05-2.77215E-05-1.32012E-07-3.77600E-20 8.36290E-18
 -1        75 9.16626E-05-2.75270E-05-2.75288E-05-1.00386E-07 7.20491E-20 7.14631E-18
 -1        76 9.29650E-05-2.79134E-05-2.78915E-05-8.70489E-08 3.77145E-20 6.05435E-18
 -1        77 9.49918E-05-2.85099E-05-2.85019E-05-8.43409E-08-1.08043E-19 5.64518E-18
 -1        78 9.74639E-05-2.92425E-05-2.92435E-05-9.00025E-08-1.16398E-19 5.91073E-18
 -1        79 1.00166E-04-3.00464E-05-3.00468E-05-1.01578E-07 2.17661E-19 4.98886E-18
 -1        80 1.02858E-04-3.08489E-05-3.08378E-05-1.15379E-07-1.29954E-19 3.51682E-18
 -1        81 1.05217E-04-3.15545E-05-3.15186E-05-1.24461E-07 2.12230E-19 3.35014E-18
 -1        82 1.06816E-04-3.20367E-05-3.19613E-05-1.17019E-07 6.96114E-21 3.13667E-18
 -1        83 1.07142E-04-3.21434E-05-3.20188E-05-7.70090E-08 1.47231E-19 3.28889E-18
 -1        84 1.05705E-04-3.17275E-05-3.15608E-05 1.00791E-08 8.86804E-20 2.54760E-18
 -1        85 1.02254E-04-3.07085E-05-3.05364E-05 1.44062E-07 5.20611E-20 2.33146E-18
 -1        86 9.70661E-05-2.91592E-05-2.90496E-05 2.94188E-07 4.22191E-20 7.77947E-19
 -1        87 9.11496E-05-2.73729E-05-2.73991E-05 3.96123E-07-1.11853E-19 9.29288E-19
 -1        88 8.61327E-05-2.58383E-05-2.60298E-05 3.79768E-07-5.58314E-20 1.94927E-18
 -1        89 8.36940E-05-2.50740E-05-2.53784E-05 2.22528E-07 1.38010E-19 6.02369E-19
 -1        90 8.47558E-05-2.53765E-05-2.56756E-05-1.84007E-08-3.90926E-21 1.66779E-19
 -1        91 8.89790E-05-2.66515E-05-2.68333E-05-2.37308E-07-3.10072E-19 6.96830E-19
 -1        92 9.49613E-05-2.84686E-05-2.84915E-05-3.52111E-07 2.22749E-20 1.01816E-18
 -1        93 1.00972E-04-3.02938E-05-3.01907E-05-3.48175E-07 2.75637E-20 2.95138E-19
 -1        94 1.05683E-04-3.17194E-05-3.15595E-05-2.65100E-07 1.45068E-19-7.39076E-19
 -1        95 1.08497E-04-3.25658E-05-3.24112E-05-1.56955E-07-2.18878E-19 3.38740E-19
 -1        96 1.09466E-04-3.28527E-05-3.27368E-05-6.23784E-08 1.24930E-19 7.40385E-19
 -1        97 1.09007E-04-3.27099E-05-3.26397E-05 3.30758E-09-1.68406E-20 4.79457E-19
 -1        98 1.07638E-04-3.22952E-05-3.22632E-05 4.05109E-08 2.41186E-19 1.60976E-19
 -1        99 1.05818E-04-3.17466E-05-3.17408E-05 5.61315E-08 8.02675E-20-2.16815E-18
 -1       100 1.03883E-04-3.11652E-05-3.11743E-05 5.80226E-08-8.16348E-20-1.21285E-18
 -1       101 1.02049E-04-3.06146E-05-3.06306E-05 5.25142E-08 9.96320E-20-4.83358E-19
 -1       102 1.00430E-04-3.01289E-05-3.01467E-05 4.38754E-08 1.05693E-19 4.37445E-19
 -1       103 9.90711E-05-2.97215E-05-2.97383E-05 3.46399E-08-5.76492E-20 9.91440E-19
 -1       104 9.79752E-05-2.93930E-05-2.94075E-05 2.61293E-08 1.76058E-19 2.90702E-19
 -1       105 9.71202E-05-2.91367E-05-2.91484E-05 1.89085E-08 1.43787E-19-8.35710E-19
 -1       106 9.64732E-05-2.89426E-05-2.89518E-05 1.31112E-08-6.72668E-19 4.02059E-19
 -1       107 9.59979E-05-2.88001E-05-2.88070E-05 8.64922E-09 5.56886E-19-4.08791E-18
 -1       108 9.56599E-05-2.86986E-05-2.87036E-05 5.33698E-09 5.12329E-19-8.83516E-18
 -1       109 9.54283E-05-2.86291E-05-2.86326E-05 2.96122E-09 1.21791E-19-9.50151E-18
 -1       110 9.52772E-05-2.85837E-05-2.85861E-05 1.31695E-09-1.22905E-19-7.28222E-18
 -1       111 9.51854E-05-2.85560E-05-2.85576E-05 2.23591E-10 2.34429E-19-5.93497E-18
 -1       112 9.51363E-05-2.85412E-05-2.85422E-05-4.69790E-10-9.25527E-19-5.13409E-18
 -1       113 9.51169E-05-2.85353E-05-2.85359E-05-8.84954E-10 7.15119E-19-4.48145E-18
 -1       114 9.51177E-05-2.85355E-05-2.85358E-05-1.11769E-09-1.37368E-20-6.74188E-18
 -1       115 9.51314E-05-2.85395E-05-2.85396E-05-1.24226E-09-5.21527E-19-4.27692E-18
 -1       116 9.51527E-05-2.85459E-05-2.85459E-05-1.31481E-09 5.67185E-19-1.80384E-18
 -1       117 9.51775E-05-2.85533E-05-2.85531E-05-1.37183E-09 2.42894E-19-5.65829E-18
 -1       118 9.52023E-05-2.85607E-05-2.85604E-05-1.41637E-09 6.26662E-20-5.29845E-18
 -1       119 9.52234E-05-2.85671E-05-2.85664E-05-1.32601E-09-9.38996E-19-5.08919E-18
 -1       120 9.52360E-05-2.85712E-05-2.85702E-05-5.29150E-10 1.11022E-18-5.34231E-18
 -1       121 9.52376E-05-2.85731E-05-2.85702E-05-3.44961E-10-5.31212E-18-9.79659E-19
 -1       122 9.52414E-05-2.85853E-05-2.85665E-05-1.07834E-09-4.22196E-18-1.04268E-18
 -1       123 9.52470E-05-2.86040E-05-2.85612E-05-1.23513E-09-4.92248E-18-5.92784E-19
 -1       124 9.52530E-05-2.86239E-05-2.85555E-05-1.07503E-09-7.67219E-18 5.78762E-19
 -1       125 9.52582E-05-2.86415E-05-2.85503E-05-8.15179E-10-6.96225E-18 7.52120E-19
 -1       126 9.52623E-05-2.86553E-05-2.85462E-05-5.65345E-10-8.47872E-18-1.98144E-20
 -1       127 9.52652E-05-2.86648E-05-2.85433E-05-3.28322E-10-4.91879E-18 1.25352E-18
 -1       128 9.52666E-05-2.86697E-05-2.85419E-05-1.14472E-10-6.93452E-18-1.26000E-18
 -1       129 9.52667E-05-2.86699E-05-2.85418E-05 9.22535E-11-3.60105E-18 1.70332E-18
 -1       130 9.52653E-05-2.86653E-05-2.85432E-05 3.12262E-10 5.92956E-19-1.13717E-18
 -1       131 9.52625E-05-2.86560E-05-2.85460E-05 5.69855E-10-8.21923E-18-1.66156E-18
 -1       132 9.52585E-05-2.86423E-05-2.85501E-05 8.27497E-10-9.20365E-18 2.20641E-18
 -1       133 9.52531E-05-2.86244E-05-2.85553E-05 1.09833E-09-7.98828E-18-5.48400E-19
 -1       134 9.52471E-05-2.86042E-05-2.85611E-05 1.33140E-09-4.64640E-18-4.33080E-20
 -1       135 9.52415E-05-2.85855E-05-2.85665E-05 1.52716E-09-1.49637E-19-4.43159E-19
 -1       136 9.52380E-05-2.85735E-05-2.85702E-05 1.06755E-10-6.31895E-19-5.28814E-19
 -1       137 2.59100E-05-8.70586E-05 1.54562E-05-2.33272E-05 9.17548E-18 1.88849E-18
 -1       138 8.03754E-06-3.39847E-05 3.26077E-06-1.73432E-05 1.28021E-17 5.78354E-18
 -1       139 1.15785E-05 1.52218E-05-1.50662E-05 2.40888E-05 1.77428E-17 1.38545E-17
 -1       140 5.96066E-05 2.73547E-05-3.57274E-05 7.94895E-05 1.73345E-17 2.00128E-17
 -1       141 1.53142E-04-6.73161E-06-5.61016E-05 1.11451E-04 1.02616E-17 1.86216E-17
 -1       142 2.50088E-04-5.92773E-05-7.13210E-05 9.24174E-05 4.21934E-18 1.24726E-17
 -1       143 3.04036E-04-9.30409E-05-7.81948E-05 2.66533E-05 7.33901E-19 3.86766E-18
 -1       144 2.90155E-04-8.36471E-05-7.66910E-05-5.56587E-05 9.04118E-19-3.96877E-18
 -1       145 2.07184E-04-3.47012E-05-6.50655E-05-1.08737E-04 4.87531E-18-1.13346E-17
 -1       146 1.10667E-04 1.24024E-05-4.81066E-05-1.04955E-04 1.06658E-17-1.53711E-17
 -1       147 3.97019E-05 2.74394E-05-2.88734E-05-6.20684E-05 1.51695E-17-1.49853E-17
 -1       148 5.96076E-06-1.30041E-06-7.27146E-06-4.10920E-06 1.52500E-17-9.94713E-18
 -1       149 1.47101E-05-5.83424E-05 9.33266E-06 2.52389E-05 1.05257E-17-3.56251E-18
 -1       150 3.27468E-05-1.03163E-04 1.85840E-05 1.55596E-05 4.39483E-18-7.36770E-19
 -1       151 3.50436E-05-1.09240E-04 1.98466E-05-1.18496E-05-5.42726E-18-1.27461E-18
 -1       152 1.90247E-05-7.23867E-05 1.24930E-05-2.77769E-05-1.37990E-17-4.15380E-18
 -1       153 5.13194E-06-1.54003E-05-2.57055E-06-8.26611E-06-1.82421E-17-1.07031E-17
 -1       154 2.21185E-05 2.30085E-05-2.17273E-05 4.10434E-05-1.93314E-17-1.68759E-17
 -1       155 8.44032E-05 2.09562E-05-4.23504E-05 9.37963E-05-1.52826E-17-2.08548E-17
 -1       156 1.84748E-04-2.14864E-05-6.18770E-05 1.15309E-04-9.60027E-18-1.91777E-17
 -1       157 2.78903E-04-7.44516E-05-7.54986E-05 7.94637E-05-2.74801E-18-1.19364E-17
 -1       158 2.86703E-04-7.94246E-05-7.65192E-05-7.17949E-05-1.60709E-18 7.43504E-18
 -1       159 2.02535E-04-3.15754E-05-6.44535E-05-1.11586E-04-7.40286E-18 1.62783E-17
 -1       160 1.06546E-04 1.27770E-05-4.71372E-05-1.02049E-04-1.44233E-17 2.04918E-17
 -1       161 3.69828E-05 2.57723E-05-2.78078E-05-5.75729E-05-1.89092E-17 1.96029E-17
 -1       162 6.77475E-06 2.75109E-06-9.44322E-06-7.71159E-06-2.21927E-17 1.51985E-17
 -1       163 1.04707E-05-4.68428E-05 6.56713E-06 2.44645E-05-1.64185E-17 7.71149E-18
 -1       164 2.80440E-05-9.35505E-05 1.68193E-05 2.36310E-05-7.81409E-18 1.93449E-18
 -1       165 9.60755E-05-1.28656E-05-3.58517E-05-2.07551E-05-1.63170E-18 1.06999E-18
 -1       166 9.03288E-05-8.74381E-06-3.51189E-05-1.55725E-05-1.53770E-18-7.19647E-19
 -1       167 8.71667E-05-6.49291E-06-3.46801E-05-1.16994E-05-1.23800E-18-1.78635E-18
 -1       168 8.51786E-05-5.17197E-06-3.43668E-05-8.58660E-06-8.51751E-19-2.41688E-18
 -1       169 8.38247E-05-4.31802E-06-3.41375E-05-6.05972E-06-5.48457E-19-2.70181E-18
 -1       170 8.28929E-05-3.75618E-06-3.39705E-05-3.86515E-06-2.63842E-19-2.82085E-18
 -1       171 8.23623E-05-3.44990E-06-3.38702E-05-1.90624E-06 1.91910E-20-2.79876E-18
 -1       172 8.22174E-05-3.37608E-06-3.38386E-05-4.91850E-08 3.25392E-19-2.73342E-18
 -1       173 8.24462E-05-3.52225E-06-3.38756E-05 1.83173E-06 5.56442E-19-2.60694E-18
 -1       174 8.30365E-05-3.88541E-06-3.39776E-05 3.85640E-06 8.14635E-19-2.36359E-18
 -1       175 8.39690E-05-4.46678E-06-3.41371E-05 6.10151E-06 1.13989E-18-2.03970E-18
 -1       176 8.53245E-05-5.34008E-06-3.43600E-05 8.76920E-06 1.46550E-18-1.57115E-18
 -1       177 8.72762E-05-6.65655E-06-3.46633E-05 1.19828E-05 1.71759E-18-7.88230E-19
 -1       178 9.04278E-05-8.90497E-06-3.50981E-05 1.59279E-05 1.83869E-18 6.14787E-19
 -1       179 9.68777E-05-1.40717E-05-3.56894E-05 2.04507E-05 1.64138E-18 3.00641E-18
 -1       180 1.06411E-04-2.64708E-05-3.54328E-05 1.76001E-05 1.07518E-18 6.12987E-18
 -1       181 1.04630E-04-2.77486E-05-3.29439E-05-1.09372E-05-1.35811E-18 3.23974E-18
 -1       182 9.91328E-05-2.88895E-05-3.01344E-05-3.52238E-06-1.16938E-18 2.56817E-18
 -1       183 9.65040E-05-2.84741E-05-2.91033E-05-4.05127E-07-8.40055E-19 2.08432E-18
 -1       184 9.61490E-05-2.85546E-05-2.89292E-05 1.26371E-06-6.09850E-19 1.41699E-18
 -1       185 9.70463E-05-2.88837E-05-2.91891E-05 2.39023E-06-2.41795E-19 1.03503E-18
 -1       186 9.88490E-05-2.94430E-05-2.97313E-05 3.30263E-06-4.26051E-19 9.58510E-19
 -1       187 1.01373E-04-3.02075E-05-3.04908E-05 4.12148E-06-1.49147E-19 8.27170E-19
 -1       188 1.04505E-04-3.11677E-05-3.14263E-05 4.85626E-06-4.59889E-19 6.64195E-19
 -1       189 1.08124E-04-3.23203E-05-3.24894E-05 5.40731E-06-4.67669E-19 6.15876E-19
 -1       190 1.12029E-04-3.36521E-05-3.35998E-05 5.53548E-06-5.95202E-20 4.38929E-19
 -1       191 1.15856E-04-3.51074E-05-3.46241E-05 4.83589E-06 8.14210E-20-4.31593E-19
 -1       192 1.19002E-04-3.65258E-05-3.53685E-05 2.78867E-06 6.16183E-20-2.83376E-19
 -1       193 1.20601E-04-3.75424E-05-3.56136E-05-9.78641E-07 5.23867E-19 6.11753E-19
 -1       194 1.19670E-04-3.75141E-05-3.52151E-05-6.09281E-06 3.66474E-19 1.44661E-18
 -1       195 1.15649E-04-3.57268E-05-3.42542E-05-1.06952E-05-3.18379E-19 2.02528E-18
 -1       196 1.09396E-04-3.22220E-05-3.30942E-05-1.15905E-05-8.23879E-19 9.95753E-19
 -1       197 1.03844E-04-2.87282E-05-3.22434E-05-6.56089E-06-1.67814E-18-3.54715E-19
 -1       198 1.02570E-04-2.78593E-05-3.20810E-05 2.50630E-06-1.40180E-18-1.50280E-18
 -1       199 1.06565E-04-3.03848E-05-3.26844E-05 1.01056E-05-1.35504E-18-2.74864E-18
 -1       200 1.13167E-04-3.42647E-05-3.38196E-05 1.21189E-05-3.54846E-19-3.07293E-18
 -1       201 1.18795E-04-3.70857E-05-3.50182E-05 8.98754E-06 1.09420E-18-3.25844E-18
 -1       202 1.21538E-04-3.80058E-05-3.58103E-05 3.82926E-06 9.99909E-19-2.90547E-18
 -1       203 1.21391E-04-3.75027E-05-3.59721E-05-6.87259E-07 7.18962E-19-1.13280E-18
 -1       204 1.19232E-04-3.63185E-05-3.55542E-05-3.51379E-06 6.87306E-19-4.61428E-19
 -1       205 1.16025E-04-3.49610E-05-3.47553E-05-4.75025E-06 3.49222E-19 2.35842E-19
 -1       206 1.12503E-04-3.36786E-05-3.37883E-05-4.90737E-06-1.01820E-18-6.79425E-19
 -1       207 1.09125E-04-3.25640E-05-3.28118E-05-4.48015E-06-1.64763E-18-2.08990E-18
 -1       208 1.06124E-04-3.16368E-05-3.19191E-05-3.81251E-06 3.79531E-19-2.58516E-18
 -1       209 1.03587E-04-3.08861E-05-3.11519E-05-3.10285E-06 3.63873E-19-1.54115E-18
 -1       210 1.01517E-04-3.02905E-05-3.05195E-05-2.44875E-06-9.23349E-19-6.77966E-19
 -1       211 9.98706E-05-2.98257E-05-3.00136E-05-1.88829E-06 9.30586E-20-5.33757E-19
 -1       212 9.85890E-05-2.94687E-05-2.96181E-05-1.42843E-06-1.31152E-18-5.20902E-19
 -1       213 9.76093E-05-2.91985E-05-2.93148E-05-1.06171E-06-3.52001E-19-1.57144E-18
 -1       214 9.68731E-05-2.89973E-05-2.90863E-05-7.75235E-07-6.02458E-19-1.81442E-18
 -1       215 9.63295E-05-2.88500E-05-2.89172E-05-5.55109E-07 8.92017E-20-2.63556E-18
 -1       216 9.59356E-05-2.87443E-05-2.87943E-05-3.88428E-07 5.67236E-19-2.86467E-18
 -1       217 9.56565E-05-2.86702E-05-2.87069E-05-2.63999E-07 4.74316E-19-2.48716E-18
 -1       218 9.54640E-05-2.86199E-05-2.86463E-05-1.72470E-07 2.93604E-19-8.70367E-19
 -1       219 9.53359E-05-2.85870E-05-2.86058E-05-1.06219E-07 3.11034E-20-3.07931E-18
 -1       220 9.52549E-05-2.85669E-05-2.85799E-05-5.91386E-08 9.84959E-20-2.66250E-18
 -1       221 9.52079E-05-2.85559E-05-2.85647E-05-2.64100E-08 1.29187E-19-1.96922E-18
 -1       222 9.51847E-05-2.85512E-05-2.85569E-05-4.29945E-09 1.86963E-18-1.32008E-18
 -1       223 9.51777E-05-2.85507E-05-2.85542E-05 1.00181E-08 8.41859E-19 9.25224E-19
 -1       224 9.51814E-05-2.85530E-05-2.85549E-05 1.85912E-08 2.26294E-18 3.12557E-18
 -1       225 9.51914E-05-2.85570E-05-2.85576E-05 2.27834E-08 1.95195E-18 3.75635E-18
 -1       226 9.52045E-05-2.85618E-05-2.85611E-05 2.33137E-08-9.45611E-19 1.50651E-18
 -1       227 9.52178E-05-2.85669E-05-2.85647E-05 2.02486E-08-2.07733E-18-5.68453E-19
 -1       228 9.52294E-05-2.85718E-05-2.85676E-05 1.33202E-08-1.43279E-19-8.61905E-19
 -1       229 1.00936E-04-2.90130E-05-3.09980E-05 6.27637E-06 1.23171E-18 5.36440E-18
 -1       230 9.66669E-05-2.84579E-05-2.92002E-05 1.82078E-06 9.48796E-19 4.38922E-18
 -1       231 9.52601E-05-2.83193E-05-2.86432E-05-9.16500E-08 7.59057E-19 3.42087E-18
 -1       232 9.53629E-05-2.84592E-05-2.86461E-05-1.11960E-06 4.73463E-19 3.06343E-18
 -1       233 9.63668E-05-2.88135E-05-2.89384E-05-1.74205E-06 6.54788E-20 2.82991E-18
 -1       234 9.79256E-05-2.93207E-05-2.93966E-05-2.11959E-06 6.38865E-20 2.60015E-18
 -1       235 9.97951E-05-2.99248E-05-2.99429E-05-2.28960E-06 6.47266E-19 2.16796E-18
 -1       236 1.01752E-04-3.05696E-05-3.05075E-05-2.22330E-06 5.18568E-19 1.76926E-18
 -1       237 1.03544E-04-3.11868E-05-3.10122E-05-1.85190E-06 1.02411E-19 1.20951E-18
 -1       238 1.04872E-04-3.16851E-05-3.13669E-05-1.09486E-06 1.04281E-19 1.79393E-18
 -1       239 1.05393E-04-3.19467E-05-3.14759E-05 9.10184E-08 1.81115E-19 1.59967E-18
 -1       240 1.04789E-04-3.18370E-05-3.12605E-05 1.63480E-06 5.06977E-19 1.64420E-18
 -1       241 1.02881E-04-3.12440E-05-3.06948E-05 3.26557E-06 2.27203E-19 4.63893E-19
 -1       242 9.98072E-05-3.01549E-05-2.98459E-05 4.48344E-06 2.54629E-19 8.45587E-19
 -1       243 9.61561E-05-2.87474E-05-2.88911E-05 4.68475E-06-2.10645E-19 1.46343E-18
 -1       244 9.29336E-05-2.74221E-05-2.80868E-05 3.47805E-06-8.37769E-21 5.97572E-19
 -1       245 9.12376E-05-2.66792E-05-2.76828E-05 1.03936E-06 8.51877E-19 1.53431E-19
 -1       246 9.17346E-05-2.68498E-05-2.78183E-05-1.82108E-06-6.36300E-20-1.92647E-19
 -1       247 9.42825E-05-2.78753E-05-2.84605E-05-4.05875E-06-5.13272E-19 8.42235E-20
 -1       248 9.80166E-05-2.93494E-05-2.94201E-05-4.98701E-06-2.63331E-19 4.21326E-19
 -1       249 1.01824E-04-3.07778E-05-3.04366E-05-4.57153E-06 2.90875E-19 1.07353E-18
 -1       250 1.04826E-04-3.18173E-05-3.12812E-05-3.27501E-06 7.09642E-19 4.18730E-19
 -1       251 1.06607E-04-3.23534E-05-3.18207E-05-1.69498E-06-3.56558E-19-1.17711E-18
 -1       252 1.07167E-04-3.24433E-05-3.20270E-05-2.82565E-07-5.11452E-19-9.99707E-19
 -1       253 1.06752E-04-3.22165E-05-3.19487E-05 7.46985E-07-2.21138E-19 9.50548E-19
 -1       254 1.05688E-04-3.18047E-05-3.16693E-05 1.36351E-06 2.39103E-19 1.28365E-18
 -1       255 1.04279E-04-3.13129E-05-3.12751E-05 1.63563E-06 6.36197E-19 1.65813E-18
 -1       256 1.02760E-04-3.08128E-05-3.08371E-05 1.66377E-06-5.37461E-19 1.45068E-18
 -1       257 1.01292E-04-3.03480E-05-3.04057E-05 1.54220E-06-6.92645E-19 2.17838E-18
 -1       258 9.99676E-05-2.99403E-05-3.00116E-05 1.34400E-06-2.40274E-19 1.51811E-18
 -1       259 9.88304E-05-2.95978E-05-2.96703E-05 1.11924E-06-4.29736E-19 1.57455E-18
 -1       260 9.78910E-05-2.93198E-05-2.93865E-05 8.98833E-07 1.22131E-18 1.03349E-18
 -1       261 9.71395E-05-2.91005E-05-2.91583E-05 6.99593E-07 6.83289E-19 3.00627E-19
 -1       262 9.65553E-05-2.89322E-05-2.89801E-05 5.28953E-07-4.58727E-19 6.34134E-20
 -1       263 9.61132E-05-2.88063E-05-2.88447E-05 3.88508E-07 3.15482E-18-1.97507E-18
 -1       264 9.57878E-05-2.87148E-05-2.87446E-05 2.76542E-07 1.85625E-18-3.84833E-18
 -1       265 9.55554E-05-2.86502E-05-2.86728E-05 1.89694E-07 2.09429E-19-4.81370E-18
 -1       266 9.53952E-05-2.86064E-05-2.86231E-05 1.24000E-07-9.29310E-19-4.76503E-18
 -1       267 9.52898E-05-2.85781E-05-2.85902E-05 7.55046E-08-1.06607E-18-3.47713E-18
 -1       268 9.52250E-05-2.85613E-05-2.85697E-05 4.05978E-08-2.54100E-19-2.33771E-18
 -1       269 9.51895E-05-2.85526E-05-2.85583E-05 1.61687E-08 8.96847E-19-3.44462E-18
 -1       270 9.51746E-05-2.85496E-05-2.85534E-05-3.38369E-10-6.65078E-19-3.18291E-18
 -1       271 9.51737E-05-2.85504E-05-2.85527E-05-1.09260E-08-6.37026E-19-2.52792E-18
 -1       272 9.51817E-05-2.85536E-05-2.85548E-05-1.70637E-08 1.97573E-19-4.29929E-18
 -1       273 9.51946E-05-2.85582E-05-2.85584E-05-1.96925E-08 1.06026E-18-3.40779E-18
 -1       274 9.52092E-05-2.85632E-05-2.85625E-05-1.92102E-08-6.72974E-19-3.01688E-18
 -1       275 9.52227E-05-2.85682E-05-2.85662E-05-1.54498E-08 2.09645E-19-2.83869E-18
 -1       276 9.52329E-05-2.85723E-05-2.85688E-05-8.13242E-09-3.76163E-19-2.83494E-18
 -1       277 9.52371E-05-2.85794E-05-2.85676E-05-1.29058E-08-2.25082E-18 2.34150E-19
 -1       278 9.52420E-05-2.85903E-05-2.85650E-05-1.81272E-08-9.09848E-19-5.60548E-19
 -1       279 9.52468E-05-2.86023E-05-2.85619E-05-1.90467E-08-1.87799E-18 4.40687E-19
 -1       280 9.52508E-05-2.86137E-05-2.85587E-05-1.70410E-08-2.29837E-18 1.96421E-19
 -1       281 9.52539E-05-2.86232E-05-2.85560E-05-1.35136E-08-3.51177E-18-7.81256E-19
 -1       282 9.52562E-05-2.86304E-05-2.85539E-05-9.24547E-09-3.94406E-18 1.03601E-18
 -1       283 9.52575E-05-2.86349E-05-2.85525E-05-4.75469E-09-3.42870E-18-6.63134E-19
 -1       284 9.52580E-05-2.86365E-05-2.85520E-05-2.06719E-10-1.89579E-18 1.23458E-18
 -1       285 9.52577E-05-2.86352E-05-2.85524E-05 4.39492E-09-2.77406E-18 9.74917E-19
 -1       286 9.52564E-05-2.86309E-05-2.85537E-05 9.03669E-09-2.71057E-18-3.99470E-18
 -1       287 9.52542E-05-2.86240E-05-2.85558E-05 1.34414E-08-3.65637E-19-2.16081E-19
 -1       288 9.52510E-05-2.86143E-05-2.85586E-05 1.72218E-08-2.39844E-19 1.69625E-18
 -1       289 9.52469E-05-2.86027E-05-2.85618E-05 1.93758E-08-3.43565E-20 7.83941E-19
 -1       290 9.52419E-05-2.85904E-05-2.85650E-05 1.80984E-08-1.41502E-18 3.13514E-18
 -1       291 9.52364E-05-2.85805E-05-2.85669E-05 1.83839E-08-1.69662E-18 3.39981E-19
 -1       292 1.29228E-05-4.89405E-05 1.20225E-05 8.36748E-06 9.86264E-19 4.29657E-18
 -1       293 2.63944E-05-4.22632E-05 4.21895E-06 2.34846E-05 4.58520E-18 5.06933E-18
 -1       294 5.54339E-05-3.74186E-05-9.18547E-06 3.72123E-05 6.39489E-18 7.92828E-18
 -1       295 8.89528E-05-2.94866E-05-2.58231E-05 4.53145E-05 7.20042E-18 9.06368E-18
 -1       296 1.36039E-04-3.20884E-05-4.35318E-05 4.36449E-05 7.68968E-18 7.67475E-18
 -1       297 1.71213E-04-3.17571E-05-5.80810E-05 2.73192E-05 6.38186E-18 5.79688E-18
 -1       298 2.03748E-04-3.51360E-05-6.89533E-05 1.91757E-05 5.85734E-18 4.63655E-18
 -1       299 2.07466E-04-3.41138E-05-7.09641E-05-3.95811E-06 4.00202E-18 1.73938E-18
 -1       300 1.86753E-04-3.08432E-05-6.44963E-05-2.14961E-05 4.16656E-18-3.59777E-19
 -1       301 1.58566E-04-3.10673E-05-5.28051E-05-4.20065E-05 4.63322E-18-3.47411E-18
 -1       302 1.19387E-04-3.12566E-05-3.71971E-05-4.61149E-05 5.50889E-18-3.75617E-18
 -1       303 8.53252E-05-4.01323E-05-1.98878E-05-4.31087E-05 3.34282E-18-4.46355E-18
 -1       304 3.98470E-05-3.87788E-05-2.67969E-06-2.97582E-05 3.97661E-18-5.69489E-18
 -1       305 1.91607E-05-4.66956E-05 8.57597E-06-1.59068E-05 1.84801E-18-3.75183E-18
 -1       306 1.02454E-05-4.59208E-05 1.22981E-05-3.01985E-06-1.16486E-18-4.98437E-18
 -1       307 1.62923E-05-4.68450E-05 1.00011E-05 1.19298E-05-3.97301E-18-5.28242E-18
 -1       308 3.57796E-05-4.23650E-05 3.37974E-07 2.61225E-05-6.21108E-18-6.23882E-18
 -1       309 6.56122E-05-3.55092E-05-1.43877E-05 3.73198E-05-7.73680E-18-8.13438E-18
 -1       310 1.06259E-04-3.21343E-05-3.17546E-05 4.55592E-05-8.09636E-18-9.46093E-18
 -1       311 1.51712E-04-3.27338E-05-4.93078E-05 4.51720E-05-7.79037E-18-8.91079E-18
 -1       312 1.92015E-04-3.59130E-05-6.37692E-05 3.35619E-05-6.84834E-18-6.62401E-18
 -1       313 2.07245E-04-3.39893E-05-7.09351E-05 9.82518E-06-5.47850E-18-2.31420E-18
 -1       314 2.14811E-04-3.78545E-05-7.20253E-05-9.83151E-06-5.28972E-18 6.35751E-19
 -1       315 1.93425E-04-3.53522E-05-6.47927E-05-2.61955E-05-6.44322E-18 2.97393E-18
 -1       316 1.60982E-04-3.42475E-05-5.24337E-05-4.17128E-05-7.02254E-18 5.76491E-18
 -1       317 1.21111E-04-3.51268E-05-3.64545E-05-4.35745E-05-6.80570E-18 6.70787E-18
 -1       318 7.90054E-05-3.42211E-05-2.01518E-05-4.04416E-05-7.56189E-18 6.69283E-18
 -1       319 4.57319E-05-3.91714E-05-5.07086E-06-2.98383E-05-6.37625E-18 7.27008E-18
 -1       320 2.34703E-05-4.53868E-05 6.36573E-06-1.70725E-05-4.06893E-18 7.14441E-18
 -1       321 1.15876E-05-4.70974E-05 1.19751E-05-5.20273E-06-1.63011E-18 5.21529E-18
 -1       322 9.25310E-05-1.44691E-05-3.35317E-05-1.08270E-05-1.54402E-18-7.85160E-19
 -1       323 9.71119E-05-1.95266E-05-3.33092E-05-1.27008E-05-1.64725E-18 3.17465E-19
 -1       324 8.73195E-05-9.37052E-06-3.34577E-05-6.27769E-06-8.53872E-19-1.88506E-18
 -1       325 8.57815E-05-8.02032E-06-3.33688E-05-4.29071E-06-5.23493E-19-2.13090E-18
 -1       326 8.48096E-05-7.20505E-06-3.32969E-05-2.52593E-06-1.01601E-19-2.08196E-18
 -1       327 8.43717E-05-6.85385E-06-3.32577E-05-8.88284E-07 2.67328E-19-2.10172E-18
 -1       328 8.44479E-05-6.93053E-06-3.32578E-05 7.30353E-07 5.22937E-19-1.99802E-18
 -1       329 8.50187E-05-7.41954E-06-3.32953E-05 2.43322E-06 7.91639E-19-1.83337E-18
 -1       330 8.60490E-05-8.31125E-06-3.33597E-05 4.27722E-06 1.15535E-18-1.51799E-18
 -1       331 8.75942E-05-9.69666E-06-3.34367E-05 6.38849E-06 1.60273E-18-1.14998E-18
 -1       332 8.97507E-05-1.17414E-05-3.34975E-05 8.74431E-06 1.89447E-18-6.79572E-19
 -1       333 9.28270E-05-1.48579E-05-3.34943E-05 1.11802E-05 2.01918E-18 2.32259E-19
 -1       334 9.71265E-05-1.98801E-05-3.32100E-05 1.26334E-05 2.00085E-18 1.75294E-18
 -1       335 1.00221E-04-2.49301E-05-3.23500E-05 1.04646E-05 1.69137E-18 3.11162E-18
 -1       336 9.83638E-05-2.73650E-05-3.03964E-05 4.22411E-06 1.46854E-18 2.53984E-18
 -1       337 9.84742E-05-2.64384E-05-3.08248E-05-4.16381E-06-1.23763E-18 7.58110E-19
 -1       338 9.76427E-05-2.74904E-05-3.00364E-05-1.86317E-07-1.01829E-18 6.39973E-19
 -1       339 9.75400E-05-2.80054E-05-2.97816E-05 2.39861E-06-6.57525E-19 4.94199E-19
 -1       340 9.81187E-05-2.84185E-05-2.98595E-05 4.32424E-06-4.65588E-19 1.47439E-19
 -1       341 9.92828E-05-2.88789E-05-3.01644E-05 5.91816E-06-3.90148E-19 7.61336E-20
 -1       342 1.00959E-04-2.94759E-05-3.06294E-05 7.31022E-06-2.15296E-19 4.30463E-20
 -1       343 1.03112E-04-3.03089E-05-3.11986E-05 8.47292E-06-1.27155E-19 1.97269E-19
 -1       344 1.05745E-04-3.15199E-05-3.18138E-05 9.20835E-06-3.54429E-19 2.67934E-19
 -1       345 1.08889E-04-3.32908E-05-3.24113E-05 9.11085E-06-2.27372E-19 8.03515E-20
 -1       346 1.12556E-04-3.57637E-05-3.29345E-05 7.55436E-06 3.19394E-19 5.04707E-19
 -1       347 1.16582E-04-3.87940E-05-3.33716E-05 3.81359E-06 5.95550E-19 6.85846E-19
 -1       348 1.20302E-04-4.14920E-05-3.38151E-05-2.47152E-06 1.06866E-18 9.38327E-19
 -1       349 1.22236E-04-4.18515E-05-3.44891E-05-1.02887E-05 4.95647E-21 1.63807E-18
 -1       350 1.20554E-04-3.75703E-05-3.56313E-05-1.60365E-05-9.35432E-19 1.36781E-18
 -1       351 1.15633E-04-2.94675E-05-3.70403E-05-1.42838E-05-2.20647E-18 6.03549E-19
 -1       352 1.11736E-04-2.35130E-05-3.79546E-05-3.30251E-06-2.66855E-18-5.76355E-19
 -1       353 1.13252E-04-2.56849E-05-3.76692E-05 1.02348E-05-1.84878E-18-1.48288E-18
 -1       354 1.18601E-04-3.38010E-05-3.64273E-05 1.68776E-05-1.47631E-18-1.50126E-18
 -1       355 1.22355E-04-4.04598E-05-3.51445E-05 1.43355E-05 1.03144E-19-1.71746E-18
 -1       356 1.22245E-04-4.22761E-05-3.43088E-05 6.97305E-06 1.84266E-18-1.52273E-18
 -1       357 1.19366E-04-4.04776E-05-3.38455E-05-2.84602E-07 1.83542E-18-1.34526E-18
 -1       358 1.15556E-04-3.74778E-05-3.34907E-05-5.22676E-06 7.90586E-19-1.63656E-18
 -1       359 1.11874E-04-3.47289E-05-3.30795E-05-7.69719E-06 8.22730E-19-1.79196E-18
 -1       360 1.08679E-04-3.26867E-05-3.25752E-05-8.34916E-06-7.51523E-19-2.60349E-18
 -1       361 1.06001E-04-3.13069E-05-3.20114E-05-7.91778E-06-1.32523E-18-2.32898E-18
 -1       362 1.03774E-04-3.04067E-05-3.14390E-05-6.96091E-06-3.74197E-19-3.96705E-19
 -1       363 1.01932E-04-2.98186E-05-3.09001E-05-5.83141E-06 9.72649E-19-1.29800E-18
 -1       364 1.00420E-04-2.94262E-05-3.04199E-05-4.72464E-06 6.11531E-19-2.12397E-18
 -1       365 9.91916E-05-2.91570E-05-3.00094E-05-3.73354E-06-5.22690E-19-1.00575E-18
 -1       366 9.82068E-05-2.89677E-05-2.96692E-05-2.89139E-06 4.83572E-19-1.50157E-18
 -1       367 9.74286E-05-2.88328E-05-2.93944E-05-2.19980E-06-8.12767E-20 9.17742E-19
 -1       368 9.68230E-05-2.87364E-05-2.91769E-05-1.64548E-06-1.13228E-18 7.54933E-19
 -1       369 9.63591E-05-2.86682E-05-2.90080E-05-1.20949E-06-7.04184E-19 2.18900E-19
 -1       370 9.60097E-05-2.86207E-05-2.88792E-05-8.71996E-07 1.28787E-19-3.56940E-19
 -1       371 9.57513E-05-2.85888E-05-2.87826E-05-6.14544E-07 1.23723E-18 1.15366E-19
 -1       372 9.55642E-05-2.85684E-05-2.87115E-05-4.20954E-07 1.86309E-18 1.47904E-18
 -1       373 9.54320E-05-2.85562E-05-2.86603E-05-2.77539E-07-3.40230E-19 1.50190E-18
 -1       374 9.53414E-05-2.85500E-05-2.86244E-05-1.73002E-07 2.45607E-19 1.90042E-18
 -1       375 9.52819E-05-2.85479E-05-2.85999E-05-9.81967E-08-3.14570E-19 1.68920E-18
 -1       376 9.52452E-05-2.85486E-05-2.85840E-05-4.58525E-08 3.27619E-19 8.69595E-19
 -1       377 9.52248E-05-2.85512E-05-2.85742E-05-1.03101E-08 2.66920E-18 3.26445E-19
 -1       378 9.52158E-05-2.85548E-05-2.85689E-05 1.27109E-08 2.77194E-18 9.30534E-19
 -1       379 9.52143E-05-2.85593E-05-2.85664E-05 2.62992E-08 2.37704E-18-1.32443E-19
 -1       380 9.52177E-05-2.85643E-05-2.85657E-05 3.25016E-08-8.08105E-19 6.27617E-19
 -1       381 9.52236E-05-2.85699E-05-2.85659E-05 3.25541E-08-2.22187E-18 1.51550E-18
 -1       382 9.52295E-05-2.85751E-05-2.85663E-05 2.75360E-08-1.52786E-18 1.81097E-18
 -1       383 9.70375E-05-2.80361E-05-2.95326E-05 7.62410E-07 1.13472E-18 2.29701E-18
 -1       384 9.66686E-05-2.83682E-05-2.92482E-05-1.23549E-06 6.86280E-19 1.88342E-18
 -1       385 9.71003E-05-2.87334E-05-2.92888E-05-2.46860E-06 4.36222E-19 1.47572E-18
 -1       386 9.80911E-05-2.91970E-05-2.95213E-05-3.22855E-06 9.44810E-20 1.26442E-18
 -1       387 9.94491E-05-2.97679E-05-2.98629E-05-3.61036E-06 6.47207E-19 1.29096E-18
 -1       388 1.01005E-04-3.04354E-05-3.02473E-05-3.59569E-06 6.62467E-19 1.42942E-18
 -1       389 1.02581E-04-3.11698E-05-3.06119E-05-3.09804E-06 3.62915E-19 1.14938E-18
 -1       390 1.03969E-04-3.19057E-05-3.08946E-05-2.00670E-06-1.12238E-19 1.30777E-18
 -1       391 1.04912E-04-3.25180E-05-3.10387E-05-2.57022E-07 4.01078E-19 1.51805E-18
 -1       392 1.05122E-04-3.28051E-05-3.10055E-05 2.06047E-06 6.91781E-19 1.27306E-18
 -1       393 1.04339E-04-3.25128E-05-3.07921E-05 4.57114E-06 1.11824E-18 1.31443E-18
 -1       394 1.02479E-04-3.14495E-05-3.04442E-05 6.55168E-06-1.27469E-19 1.35706E-18
 -1       395 9.98266E-05-2.96925E-05-3.00529E-05 7.07885E-06-4.43788E-19 1.39137E-18
 -1       396 9.71514E-05-2.77585E-05-2.97285E-05 5.47955E-06 7.19571E-19 6.38054E-19
 -1       397 9.55084E-05-2.64891E-05-2.95639E-05 1.90861E-06 9.78776E-19-1.88223E-19
 -1       398 9.56766E-05-2.65517E-05-2.96071E-05-2.45540E-06 3.98840E-19 1.39489E-19
 -1       399 9.76218E-05-2.79243E-05-2.98543E-05-5.97221E-06-3.78235E-19 1.32963E-19
 -1       400 1.00524E-04-2.99158E-05-3.02512E-05-7.50770E-06-2.87611E-19-3.66209E-20
 -1       401 1.03341E-04-3.16986E-05-3.07033E-05-6.95343E-06 3.44455E-20-1.66265E-19
 -1       402 1.05339E-04-3.27783E-05-3.11055E-05-5.00164E-06 1.47541E-18-8.99174E-19
 -1       403 1.06270E-04-3.30945E-05-3.13741E-05-2.57385E-06 1.62802E-19-7.96713E-19
 -1       404 1.06249E-04-3.28543E-05-3.14687E-05-3.75345E-07-1.15852E-18-9.51062E-19
 -1       405 1.05544E-04-3.23164E-05-3.13944E-05 1.25068E-06-9.27958E-19-6.03310E-19
 -1       406 1.04427E-04-3.16765E-05-3.11865E-05 2.24405E-06-2.02432E-20 2.56681E-19
 -1       407 1.03124E-04-3.10516E-05-3.08921E-05 2.69912E-06 4.61262E-19 1.50415E-18
 -1       408 1.01794E-04-3.04977E-05-3.05565E-05 2.76458E-06-4.84998E-19 2.24095E-18
 -1       409 1.00539E-04-3.00331E-05-3.02160E-05 2.58442E-06-2.42769E-19 2.35118E-18
 -1       410 9.94178E-05-2.96571E-05-2.98955E-05 2.27321E-06-1.16677E-19 2.74379E-18
 -1       411 9.84553E-05-2.93603E-05-2.96097E-05 1.91164E-06-2.07611E-19 2.11817E-18
 -1       412 9.76557E-05-2.91309E-05-2.93652E-05 1.55099E-06 1.06705E-18 1.99365E-18
 -1       413 9.70096E-05-2.89569E-05-2.91631E-05 1.22039E-06 6.47350E-19 2.00163E-18
 -1       414 9.65007E-05-2.88275E-05-2.90007E-05 9.33696E-07 6.60815E-19 1.16428E-18
 -1       415 9.61094E-05-2.87333E-05-2.88738E-05 6.94958E-07 3.45541E-18 6.36059E-19
 -1       416 9.58157E-05-2.86663E-05-2.87769E-05 5.02458E-07 2.55467E-18-4.65892E-19
 -1       417 9.56009E-05-2.86201E-05-2.87050E-05 3.51436E-07 1.15676E-18-2.20853E-19
 -1       418 9.54483E-05-2.85894E-05-2.86530E-05 2.35848E-07-6.88801E-19-1.32865E-18
 -1       419 9.53437E-05-2.85701E-05-2.86166E-05 1.49451E-07-1.85303E-18-1.67151E-18
 -1       420 9.52753E-05-2.85591E-05-2.85922E-05 8.64052E-08-4.12382E-19-1.08980E-18
 -1       421 9.52338E-05-2.85539E-05-2.85768E-05 4.15949E-08 3.85607E-19-1.17491E-18
 -1       422 9.52115E-05-2.85527E-05-2.85678E-05 1.07512E-08-3.37513E-20-2.30067E-19
 -1       423 9.52026E-05-2.85541E-05-2.85635E-05-9.52350E-09 4.57231E-20-2.01612E-18
 -1       424 9.52027E-05-2.85572E-05-2.85623E-05-2.17842E-08 9.65935E-19-1.98960E-18
 -1       425 9.52083E-05-2.85614E-05-2.85629E-05-2.77754E-08-2.56422E-19-1.63614E-18
 -1       426 9.52167E-05-2.85663E-05-2.85645E-05-2.84449E-08-1.59817E-19-1.50114E-18
 -1       427 9.52260E-05-2.85717E-05-2.85662E-05-2.41151E-08-3.72035E-19-2.28902E-18
 -1       428 9.52320E-05-2.85757E-05-2.85670E-05-1.93938E-08-6.03060E-19-1.48149E-18
 -1       429 9.52464E-05-2.85945E-05-2.85651E-05-2.78587E-08-4.68092E-19-4.43126E-19
 -1       430 9.52414E-05-2.85875E-05-2.85660E-05-2.92770E-08-5.53153E-19-1.38142E-18
 -1       431 9.52367E-05-2.85820E-05-2.85663E-05-2.61952E-08-8.72051E-19 7.61028E-19
 -1       432 9.52496E-05-2.85999E-05-2.85642E-05-2.33753E-08-1.58808E-18-2.71277E-18
 -1       433 9.52515E-05-2.86038E-05-2.85633E-05-1.72925E-08-1.52440E-18 1.04694E-18
 -1       434 9.52525E-05-2.86063E-05-2.85626E-05-1.06193E-08-1.68486E-18 1.69086E-18
 -1       435 9.52529E-05-2.86076E-05-2.85622E-05-3.79490E-09-2.37837E-18 2.67469E-19
 -1       436 9.52530E-05-2.86078E-05-2.85622E-05 3.09724E-09-2.98784E-18 1.21358E-18
 -1       437 9.52528E-05-2.86068E-05-2.85625E-05 1.00921E-08-2.73879E-18-1.79494E-18
 -1       438 9.52519E-05-2.86045E-05-2.85632E-05 1.69564E-08-1.79232E-19-7.16026E-19
 -1       439 9.52501E-05-2.86006E-05-2.85640E-05 2.33977E-08 1.16136E-18 2.57631E-18
 -1       440 9.52468E-05-2.85951E-05-2.85650E-05 2.82728E-08 1.65387E-18 7.26670E-19
 -1       441 9.52415E-05-2.85880E-05-2.85658E-05 3.01864E-08-2.59541E-19-3.38666E-19
 -1       442 5.68890E-05-4.02492E-05-7.20398E-06 4.37408E-05 1.41825E-18 5.55241E-18
 -1       443 1.30468E-05-1.92860E-05 2.81651E-06 3.79338E-06 4.46678E-21 5.67936E-18
 -1       444 2.33333E-05-2.56607E-05 1.00997E-06 2.66813E-05 3.82647E-19 5.64293E-18
 -1       445 1.00920E-04-5.28878E-05-2.05394E-05 4.14934E-05 9.64771E-19 4.66993E-18
 -1       446 1.29647E-04-5.37726E-05-3.25884E-05 2.82151E-05 2.90786E-18 3.64298E-18
 -1       447 8.95001E-05-1.14073E-05-3.35323E-05-8.51557E-06-1.19885E-18-1.36207E-18
 -1       448 1.53798E-04-2.06147E-05-5.70691E-05-2.94074E-06 6.04760E-18 1.04143E-18
 -1       449 1.54012E-04-1.16394E-05-6.10478E-05-1.47300E-06 5.77041E-18 1.78356E-18
 -1       450 1.55128E-04-1.42192E-05-6.04877E-05 1.09458E-06 3.56421E-18 2.39811E-18
 -1       451 1.55947E-04-3.15611E-05-5.32243E-05-5.57323E-06 3.58078E-18 2.08635E-18
 -1       452 1.45114E-04-4.66124E-05-4.21307E-05-1.78690E-05 2.61312E-18 6.13146E-19
 -1       453 1.23713E-04-5.45093E-05-2.96800E-05-3.18976E-05 8.36657E-19 4.30928E-19
 -1       454 7.92198E-05-4.79190E-05-1.34184E-05-4.50427E-05-1.32201E-18-3.07348E-18
 -1       455 4.47234E-05-3.67744E-05-3.56741E-06-4.01936E-05-9.21360E-19-3.84786E-18
 -1       456 1.85498E-05-2.41048E-05 2.34631E-06-2.06542E-05-9.84464E-19-4.67520E-18
 -1       457 1.39253E-05-2.46540E-05 4.32848E-06 1.05057E-05-1.27087E-18-6.22135E-18
 -1       458 3.63217E-05-3.32977E-05-1.44936E-06 3.42813E-05-1.19230E-18-4.85064E-18
 -1       459 7.33119E-05-4.77970E-05-1.11870E-05 4.27407E-05-1.84823E-18-4.77465E-18
 -1       460 1.12662E-04-5.61028E-05-2.43614E-05 3.67282E-05-1.78692E-18-3.84177E-18
 -1       461 1.43318E-04-5.30926E-05-3.86182E-05 2.10711E-05-3.32725E-18-3.11263E-18
 -1       462 1.60765E-04-3.96590E-05-5.16453E-05 5.37037E-06-5.58915E-18-8.28504E-19
 -1       463 1.66165E-04-2.39362E-05-6.05865E-05-1.35669E-06-6.39023E-18-7.37342E-19
 -1       464 1.58164E-04-1.30031E-05-6.21612E-05 5.01309E-07-6.42559E-18 4.27239E-19
 -1       465 1.60946E-04-1.94904E-05-6.05465E-05 4.99254E-06-5.92648E-18 1.88306E-19
 -1       466 1.57622E-04-3.76451E-05-5.15752E-05 2.70867E-06-5.09866E-18-1.53451E-18
 -1       467 1.51834E-04-5.15564E-05-4.29366E-05-9.97811E-06-3.21651E-18-3.72377E-19
 -1       468 1.22594E-04-5.68638E-05-2.82936E-05-3.18377E-05-9.60006E-19 1.50031E-18
 -1       469 9.02344E-05-5.16148E-05-1.67312E-05-4.09314E-05-1.57760E-20 2.43016E-18
 -1       470 5.35612E-05-3.96273E-05-6.00432E-06-4.03882E-05 2.52193E-18 4.37810E-18
 -1       471 2.61907E-05-2.82435E-05 8.42519E-07-2.66189E-05 8.42163E-19 4.82788E-18
 -1       472 1.49734E-04-4.20755E-05-4.61708E-05 8.96355E-06 4.45199E-18 1.91684E-18
 -1       473 1.09977E-04-5.75311E-05-2.23238E-05-3.72582E-05-1.97232E-18-1.46246E-20
 -1       474 1.42354E-04-2.00173E-05-5.28209E-05 8.70510E-06 3.06520E-18 3.30443E-18
 -1       475 9.75485E-05-2.54359E-05-3.08908E-05 3.74413E-06 1.42539E-18 8.84732E-19
 -1       476 8.72169E-05-1.10580E-05-3.26559E-05-2.57366E-06-2.93755E-19-1.80835E-18
 -1       477 8.86815E-05-1.24973E-05-3.26696E-05-3.88709E-06-6.38797E-19-1.75018E-18
 -1       478 8.62035E-05-1.01143E-05-3.26241E-05-1.72094E-07 3.09074E-19-1.83854E-18
 -1       479 8.66188E-05-1.05186E-05-3.26294E-05 1.06493E-06 6.02776E-19-1.75388E-18
 -1       480 8.75845E-05-1.14590E-05-3.26418E-05 2.39412E-06 8.73234E-19-1.43115E-18
 -1       481 8.91037E-05-1.29863E-05-3.26410E-05 3.88373E-06 1.31689E-18-9.64330E-19
 -1       482 9.11543E-05-1.51672E-05-3.25881E-05 5.45194E-06 1.60755E-18-7.13245E-19
 -1       483 9.38241E-05-1.82220E-05-3.24208E-05 6.92102E-06 1.82165E-18-1.92503E-19
 -1       484 9.73187E-05-2.69029E-05-3.01593E-05 2.26224E-07 9.97940E-19 7.54574E-19
 -1       485 9.68966E-05-2.42357E-05-3.11292E-05-2.81280E-06-1.04603E-18-4.50168E-19
 -1       486 1.43748E-04-4.22960E-05-4.38444E-05 2.94768E-06 2.18754E-18 3.56717E-18
 -1       487 9.70207E-05-2.58440E-05-3.04940E-05 8.46436E-07-9.04611E-19-3.37837E-19
 -1       488 9.71087E-05-2.66617E-05-3.01860E-05 3.66687E-06-7.73220E-19-3.30178E-19
 -1       489 9.73940E-05-2.71346E-05-3.01070E-05 5.94816E-06-4.35280E-19-3.52925E-19
 -1       490 9.79538E-05-2.75328E-05-3.01772E-05 7.91055E-06-4.78347E-19-3.05275E-19
 -1       491 9.88472E-05-2.80680E-05-3.03317E-05 9.64457E-06-2.62981E-19-7.77907E-19
 -1       492 1.00197E-04-2.89989E-05-3.05132E-05 1.11057E-05-2.17517E-19-8.09055E-19
 -1       493 1.02253E-04-3.06836E-05-3.06753E-05 1.20843E-05-1.20005E-19-3.22779E-19
 -1       494 1.05426E-04-3.35645E-05-3.08046E-05 1.21495E-05 4.32331E-19 5.44276E-19
 -1       495 1.10223E-04-3.79824E-05-3.09720E-05 1.05723E-05 8.87057E-19 6.09076E-19
 -1       496 1.16870E-04-4.35958E-05-3.14218E-05 6.33081E-06 1.07367E-18 1.15403E-18
 -1       497 1.24400E-04-4.83001E-05-3.26567E-05-1.40877E-06 9.92402E-19 1.19909E-18
 -1       498 1.29793E-04-4.75824E-05-3.53397E-05-1.14910E-05-5.04425E-19 2.12069E-18
 -1       499 1.28633E-04-3.65855E-05-3.97274E-05-1.81467E-05-2.70630E-18 1.89987E-18
 -1       500 1.23068E-04-2.14450E-05-4.39556E-05-1.21257E-05-3.89188E-18-4.28122E-19
 -1       501 1.20705E-04-1.65707E-05-4.51342E-05 4.82333E-06-3.17788E-18-2.42240E-18
 -1       502 1.25420E-04-2.81882E-05-4.21402E-05 1.81147E-05-2.12150E-18-3.94641E-18
 -1       503 1.30440E-04-4.32961E-05-3.75176E-05 1.67857E-05-3.10967E-19-2.96863E-18
 -1       504 1.27974E-04-4.90444E-05-3.38863E-05 7.18638E-06 1.56101E-18-2.19125E-18
 -1       505 1.21073E-04-4.63440E-05-3.20470E-05-2.10655E-06 1.71450E-18-1.78790E-18
 -1       506 1.13786E-04-4.07353E-05-3.13230E-05-7.97172E-06 1.11369E-18-1.91634E-18
 -1       507 1.08131E-04-3.56086E-05-3.10917E-05-1.06449E-05 4.77746E-19-1.75586E-18
 -1       508 1.04287E-04-3.20127E-05-3.09797E-05-1.12031E-05-6.58687E-20-1.90213E-18
 -1       509 1.01805E-04-2.98553E-05-3.08364E-05-1.05703E-05-5.45766E-19-8.62147E-19
 -1       510 1.00182E-04-2.87080E-05-3.06301E-05-9.36340E-06-1.15961E-19 3.09345E-19
 -1       511 9.90628E-05-2.81749E-05-3.03779E-05-7.95549E-06-3.10645E-19-2.57509E-19
 -1       512 9.82374E-05-2.79795E-05-3.01077E-05-6.55812E-06 5.79267E-19-1.23029E-18
 -1       513 9.75941E-05-2.79536E-05-2.98433E-05-5.28050E-06 4.36054E-19-5.97934E-19
 -1       514 9.70760E-05-2.80034E-05-2.96003E-05-4.16938E-06-2.84054E-19 6.36183E-19
 -1       515 9.66541E-05-2.80804E-05-2.93869E-05-3.23539E-06 1.34716E-18 8.33113E-19
 -1       516 9.63117E-05-2.81614E-05-2.92058E-05-2.46978E-06-6.79453E-19 1.14613E-18
 -1       517 9.60369E-05-2.82364E-05-2.90562E-05-1.85456E-06-9.27879E-19 1.83707E-18
 -1       518 9.58198E-05-2.83019E-05-2.89354E-05-1.36850E-06-4.74051E-19 2.55701E-18
 -1       519 9.56514E-05-2.83572E-05-2.88397E-05-9.90297E-07 1.42948E-18 3.16041E-18
 -1       520 9.55233E-05-2.84030E-05-2.87654E-05-7.00290E-07 1.73068E-18 9.57630E-19
 -1       521 9.54280E-05-2.84405E-05-2.87086E-05-4.81144E-07 4.09189E-20-5.05700E-19
 -1       522 9.53587E-05-2.84709E-05-2.86660E-05-3.18058E-07 6.71297E-20 5.90015E-19
 -1       523 9.53099E-05-2.84953E-05-2.86346E-05-1.98698E-07 7.52478E-19 8.17498E-19
 -1       524 9.52766E-05-2.85148E-05-2.86121E-05-1.12999E-07-6.39829E-19 2.78483E-18
 -1       525 9.52550E-05-2.85303E-05-2.85962E-05-5.29155E-08 3.14842E-19 1.16685E-18
 -1       526 9.52421E-05-2.85428E-05-2.85854E-05-1.21597E-08 2.60137E-18-1.14586E-18
 -1       527 9.52353E-05-2.85530E-05-2.85781E-05 1.40265E-08 2.22438E-18 4.71710E-19
 -1       528 9.52329E-05-2.85619E-05-2.85733E-05 2.90612E-08 1.30296E-18-2.57212E-19
 -1       529 9.52335E-05-2.85703E-05-2.85700E-05 3.52568E-08-1.37717E-18-1.91578E-18
 -1       530 9.77467E-05-2.84116E-05-2.97107E-05-3.67005E-06 4.45199E-19 5.31481E-19
 -1       531 9.85173E-05-2.90812E-05-2.97570E-05-4.64953E-06 1.68749E-19 3.15790E-19
 -1       532 9.96197E-05-2.98775E-05-2.98905E-05-5.10075E-06 4.26613E-19 7.10731E-19
 -1       533 1.01006E-04-3.08667E-05-3.00631E-05-4.96827E-06 4.07168E-19 1.12177E-18
 -1       534 1.02608E-04-3.20615E-05-3.02402E-05-4.12561E-06-1.41708E-20 1.55260E-18
 -1       535 1.04300E-04-3.33772E-05-3.04039E-05-2.43149E-06 3.40245E-19 1.24763E-18
 -1       536 1.05847E-04-3.45643E-05-3.05592E-05 1.68263E-07 6.75611E-19 9.40627E-19
 -1       537 1.06859E-04-3.51600E-05-3.07366E-05 3.47656E-06 6.63214E-19 1.60410E-18
 -1       538 1.06845E-04-3.45656E-05-3.09812E-05 6.84189E-06 1.42034E-19 2.15386E-18
 -1       539 1.05473E-04-3.23859E-05-3.13222E-05 9.07908E-06 8.31482E-21 1.63895E-18
 -1       540 1.03004E-04-2.89671E-05-3.17260E-05 8.80390E-06 6.79981E-19 1.16699E-18
 -1       541 1.00557E-04-2.57072E-05-3.20723E-05 5.31207E-06 1.45529E-18 6.97551E-19
 -1       542 9.96006E-05-2.44148E-05-3.22156E-05-4.79035E-07 5.99868E-19 8.95271E-19
 -1       543 1.00813E-04-2.59162E-05-3.20939E-05-6.17962E-06-1.12717E-19 4.41615E-20
 -1       544 1.03414E-04-2.92522E-05-3.17806E-05-9.47407E-06-8.91928E-20-2.20196E-19
 -1       545 1.05937E-04-3.26177E-05-3.14201E-05-9.59672E-06 1.97194E-19-1.35019E-19
 -1       546 1.07333E-04-3.47009E-05-3.11309E-05-7.31958E-06 6.34627E-19-5.92285E-19
 -1       547 1.07388E-04-3.52161E-05-3.09403E-05-4.02915E-06 5.63207E-19 1.61634E-19
 -1       548 1.06458E-04-3.45875E-05-3.08119E-05-8.76226E-07-4.62174E-19 1.58948E-19
 -1       549 1.05041E-04-3.34333E-05-3.06972E-05 1.55107E-06-6.04625E-19-9.45507E-19
 -1       550 1.03491E-04-3.21942E-05-3.05617E-05 3.11020E-06-5.34979E-19-1.06980E-18
 -1       551 1.02015E-04-3.11073E-05-3.03922E-05 3.89704E-06-4.91742E-19-9.68446E-19
 -1       552 1.00703E-04-3.02554E-05-3.01929E-05 4.10294E-06-6.86823E-19-5.03828E-19
 -1       553 9.95796E-05-2.96340E-05-2.99764E-05 3.92474E-06-9.11672E-19 1.60834E-20
 -1       554 9.86397E-05-2.92034E-05-2.97573E-05 3.52555E-06-6.83890E-19 1.14872E-18
 -1       555 9.78656E-05-2.89169E-05-2.95479E-05 3.02523E-06-7.97937E-20 1.73806E-18
 -1       556 9.72369E-05-2.87335E-05-2.93570E-05 2.50406E-06 1.24801E-19 2.70015E-18
 -1       557 9.67333E-05-2.86210E-05-2.91894E-05 2.01086E-06 7.52935E-20 3.32047E-18
 -1       558 9.63355E-05-2.85558E-05-2.90471E-05 1.57174E-06 1.42981E-18 3.58087E-18
 -1       559 9.60263E-05-2.85213E-05-2.89295E-05 1.19742E-06 2.83583E-18 2.68469E-18
 -1       560 9.57898E-05-2.85062E-05-2.88348E-05 8.88936E-07 3.40640E-18 3.39678E-18
 -1       561 9.56122E-05-2.85028E-05-2.87604E-05 6.41757E-07 2.38114E-18 3.87824E-18
 -1       562 9.54816E-05-2.85062E-05-2.87032E-05 4.48532E-07 8.01747E-19 3.48368E-18
 -1       563 9.53880E-05-2.85131E-05-2.86602E-05 3.00911E-07-3.40696E-19 2.34320E-18
 -1       564 9.53228E-05-2.85215E-05-2.86288E-05 1.90635E-07-6.84051E-19 1.19170E-18
 -1       565 9.52791E-05-2.85302E-05-2.86065E-05 1.10166E-07-3.08373E-21 1.57118E-18
 -1       566 9.52515E-05-2.85386E-05-2.85911E-05 5.29882E-08 5.96355E-19 8.02737E-19
 -1       567 9.52355E-05-2.85464E-05-2.85809E-05 1.37315E-08 1.20617E-18-3.93497E-19
 -1       568 9.52278E-05-2.85537E-05-2.85746E-05-1.18391E-08 5.71915E-19-6.99089E-19
 -1       569 9.52257E-05-2.85605E-05-2.85708E-05-2.68848E-08 4.08816E-19 8.02631E-19
 -1       570 9.52273E-05-2.85673E-05-2.85686E-05-3.36656E-08 8.57651E-20-2.73824E-19
 -1       571 9.52314E-05-2.85745E-05-2.85673E-05-3.34694E-08-4.61301E-19 9.99339E-19
 -1       572 9.52490E-05-2.85825E-05-2.85713E-05-2.21891E-08 1.05248E-18-6.30810E-19
 -1       573 9.52495E-05-2.85820E-05-2.85718E-05-1.49645E-08 2.19136E-19 2.52308E-18
 -1       574 9.52423E-05-2.85804E-05-2.85694E-05-3.32962E-08-1.15321E-18-1.89341E-19
 -1       575 9.52469E-05-2.85823E-05-2.85706E-05-2.86783E-08-5.29793E-19-1.32819E-18
 -1       576 9.52495E-05-2.85814E-05-2.85720E-05-7.69976E-09-3.17200E-19 1.30168E-19
 -1       577 9.52495E-05-2.85813E-05-2.85721E-05-5.16293E-10-3.78394E-19 3.32519E-19
 -1       578 9.52498E-05-2.85818E-05-2.85720E-05 6.77813E-09-9.97278E-19 7.47854E-19
 -1       579 9.52501E-05-2.85827E-05-2.85718E-05 1.42356E-08 1.28604E-18-2.69697E-19
 -1       580 9.52498E-05-2.85834E-05-2.85713E-05 2.19645E-08 1.99647E-18 1.85445E-18
 -1       581 9.52476E-05-2.85830E-05-2.85706E-05 2.88133E-08 1.15568E-18 1.43614E-18
 -1       582 9.52425E-05-2.85808E-05-2.85693E-05 3.37747E-08-6.22251E-19-2.30592E-18
 -1       583 9.01523E-05-4.93048E-05-1.72045E-05 4.23755E-05-1.44244E-18 3.72517E-18
 -1       584 2.86773E-05-1.48415E-05-5.27986E-06-1.47270E-05 1.04253E-18 4.33988E-18
 -1       585 9.73477E-05-2.77560E-05-2.98152E-05-2.11091E-06 8.22323E-19 6.07621E-19
 -1       586 2.72215E-05-1.51289E-05-4.57770E-06 1.71894E-05 1.85474E-19 5.41614E-18
 -1       587 1.23184E-04-5.95518E-05-2.72214E-05 2.79066E-05-2.47810E-19 2.43265E-18
 -1       588 8.92537E-05-4.94282E-05-1.67020E-05-3.96324E-05 3.70381E-18 9.44759E-19
 -1       589 1.37803E-04-1.42623E-05-5.35331E-05-8.47529E-06-6.20335E-18 9.48968E-19
 -1       590 8.63950E-05-1.02829E-05-3.26343E-05-1.35833E-06 1.29581E-19-1.90826E-18
 -1       591 1.31440E-04-1.17479E-05-5.18777E-05-8.51699E-06 4.91517E-18-8.59871E-19
 -1       592 2.27387E-05-1.36601E-05-3.30886E-06-3.62874E-06-1.15714E-18-5.42450E-18
 -1       593 1.40142E-04-3.20279E-05-4.67826E-05-9.92147E-06 3.43408E-18-1.99249E-18
 -1       594 1.31906E-04-7.28438E-06-5.40821E-05 1.67465E-06 3.87200E-18 9.36024E-19
 -1       595 1.37420E-04-5.67561E-05-3.47728E-05-1.29764E-05-1.65317E-19 2.20223E-18
 -1       596 7.12026E-05-4.08780E-05-1.25479E-05-4.34995E-05-2.92338E-18-2.53464E-18
 -1       597 4.07451E-05-2.42360E-05-6.51727E-06-3.32891E-05-2.00625E-18-3.27410E-18
 -1       598 3.45731E-05-1.96298E-05-5.77068E-06 2.41923E-05 3.41857E-19-5.10359E-18
 -1       599 6.93679E-05-4.03853E-05-1.19820E-05 4.15383E-05 6.79320E-19-3.37881E-18
 -1       600 1.05628E-04-5.70485E-05-2.06230E-05 3.68786E-05 9.79647E-19-1.75432E-18
 -1       601 1.35277E-04-6.29599E-05-3.11635E-05 1.85623E-05 8.55450E-19-7.43642E-19
 -1       602 1.48989E-04-5.14576E-05-4.20162E-05-2.09476E-06-2.49732E-18 8.89596E-19
 -1       603 1.45986E-04-3.13775E-05-4.96191E-05-1.29621E-05-4.73131E-18 1.41465E-18
 -1       604 1.36276E-04-1.34791E-05-5.32930E-05 7.34611E-06-5.00618E-18-1.97454E-18
 -1       605 1.42664E-04-2.67729E-05-5.01704E-05 1.49070E-05-3.96861E-18-2.73221E-18
 -1       606 1.44771E-04-4.79646E-05-4.18897E-05 1.11731E-05-1.06644E-18-4.05390E-18
 -1       607 1.41069E-04-6.11150E-05-3.44007E-05-8.80255E-06 1.36162E-18-2.50732E-18
 -1       608 1.14698E-04-5.98808E-05-2.34174E-05-3.16882E-05 3.53102E-18-1.20173E-19
 -1       609 5.04585E-05-2.87500E-05-8.80766E-06 3.83049E-05-1.91085E-18 4.45603E-18
 -1       610 4.39913E-05-2.46993E-05-7.69384E-06-3.09143E-05 2.97780E-18 2.71225E-18
 -1       611 9.56804E-05-2.06617E-05-3.21687E-05-6.88659E-06-1.27317E-18-5.49236E-19
 -1       612 9.76774E-05-2.35524E-05-3.17710E-05 7.61233E-06 1.78938E-18 1.22956E-18
 -1       613 1.38842E-04-5.47900E-05-3.62466E-05 5.08635E-06 4.89678E-19-2.20218E-18
 -1       614 9.07625E-05-1.46657E-05-3.26345E-05-5.26931E-06-9.78845E-19-1.33735E-18
 -1       615 9.52351E-05-2.85760E-05-2.85682E-05 3.53078E-08-1.99248E-18-2.06373E-19
 -1       616 1.26256E-04-5.99468E-05-2.83910E-05-2.23540E-05-1.69454E-18 2.44001E-18
 -1       617 9.30562E-05-1.72946E-05-3.24891E-05-6.29078E-06-1.22453E-18-1.03572E-18
 -1       618 1.26230E-04-1.19451E-05-4.95391E-05 8.38897E-06 2.78896E-18 7.23962E-19
 -1       619 7.23240E-05-3.57850E-05-1.52479E-05-3.60942E-05 3.49761E-18 1.78060E-18
 -1       620 9.63903E-05-5.06663E-05-1.93045E-05-3.89715E-05-3.19453E-18-7.25682E-19
 -1       621 8.86274E-05-1.39997E-05-3.19880E-05 7.82714E-07 6.16971E-19-1.30847E-18
 -1       622 8.78115E-05-1.31728E-05-3.19924E-05 2.56194E-08 3.48411E-19-1.70802E-18
 -1       623 9.18692E-05-1.74796E-05-3.18864E-05 2.56977E-06 1.24451E-18-6.04629E-19
 -1       624 9.40714E-05-2.01475E-05-3.16889E-05 3.32638E-06 1.37283E-18-2.80530E-19
 -1       625 9.63172E-05-2.38409E-05-3.10515E-05 2.27220E-06 1.26344E-18 1.83634E-20
 -1       626 4.69216E-05-1.87722E-05-1.15904E-05 2.64680E-05-1.32951E-18 3.33609E-18
 -1       627 9.49259E-05-2.12738E-05-3.15604E-05-2.97306E-06-1.08209E-18-8.77441E-19
 -1       628 9.55622E-05-2.41072E-05-3.06209E-05 2.07178E-06-8.52094E-19-8.19882E-19
 -1       629 9.55336E-05-2.49588E-05-3.02451E-05 4.75418E-06-5.42871E-19-6.98502E-19
 -1       630 9.53976E-05-2.53888E-05-3.00026E-05 7.07242E-06-4.89288E-19-5.93095E-19
 -1       631 9.52986E-05-2.57059E-05-2.98244E-05 9.16291E-06-5.08024E-19-9.74590E-19
 -1       632 9.53986E-05-2.62199E-05-2.96473E-05 1.11171E-05-2.44151E-19-9.61411E-19
 -1       633 9.59796E-05-2.73427E-05-2.94156E-05 1.29585E-05 3.70746E-19-6.09324E-19
 -1       634 9.75475E-05-2.96489E-05-2.90987E-05 1.46073E-05 4.97632E-19-2.99964E-19
 -1       635 1.00933E-04-3.38674E-05-2.87370E-05 1.57822E-05 8.03218E-19-8.64495E-20
 -1       636 1.07282E-04-4.06268E-05-2.85487E-05 1.57108E-05 1.00735E-18-9.59885E-20
 -1       637 1.17513E-04-4.94553E-05-2.91226E-05 1.27238E-05 1.10882E-18-2.11504E-19
 -1       638 1.30440E-04-5.62873E-05-3.17640E-05 4.23159E-06 1.51852E-18 1.95718E-19
 -1       639 1.39617E-04-5.10757E-05-3.81911E-05-1.02285E-05-1.05121E-18 1.91988E-18
 -1       640 1.23704E-04-5.35853E-05-3.00095E-05-8.58953E-06 2.29666E-18-2.35598E-18
 -1       641 1.11857E-04-4.47318E-05-2.87401E-05-1.38673E-05 1.97041E-18-1.40085E-18
 -1       642 1.03656E-04-3.67289E-05-2.86807E-05-1.50005E-05 1.14161E-18-8.34454E-19
 -1       643 9.89399E-05-3.12931E-05-2.89911E-05-1.42306E-05-3.97026E-19-6.30080E-19
 -1       644 9.65740E-05-2.81837E-05-2.93098E-05-1.27245E-05-1.97652E-20-8.76124E-19
 -1       645 9.55535E-05-2.66786E-05-2.95170E-05-1.10143E-05 4.94690E-19 2.96573E-20
 -1       646 9.52094E-05-2.61375E-05-2.96012E-05-9.31618E-06 1.76118E-19 5.98001E-19
 -1       647 9.51613E-05-2.61177E-05-2.95891E-05-7.72908E-06-5.50123E-19 7.85894E-19
 -1       648 9.52149E-05-2.63459E-05-2.95143E-05-6.30145E-06 5.91526E-19 1.00731E-18
 -1       649 9.52824E-05-2.66667E-05-2.94059E-05-5.05423E-06 8.36081E-19 2.06800E-18
 -1       650 9.53321E-05-2.69993E-05-2.92848E-05-3.99071E-06 1.02315E-18 2.09341E-18
 -1       651 9.53578E-05-2.73054E-05-2.91648E-05-3.10265E-06 1.28031E-19 2.01285E-18
 -1       652 9.53636E-05-2.75706E-05-2.90538E-05-2.37472E-06-1.07851E-18 1.45157E-18
 -1       653 9.53563E-05-2.77920E-05-2.89558E-05-1.78803E-06 2.37976E-19 1.72946E-18
 -1       654 9.53416E-05-2.79726E-05-2.88722E-05-1.32254E-06-7.10319E-19 8.85756E-19
 -1       655 9.53241E-05-2.81173E-05-2.88027E-05-9.58735E-07-2.76141E-19-1.19697E-18
 -1       656 9.53066E-05-2.82316E-05-2.87463E-05-6.78615E-07 4.29166E-19-3.74169E-18
 -1       657 9.52908E-05-2.83207E-05-2.87014E-05-4.66175E-07 9.32073E-21-3.77116E-18
 -1       658 9.52773E-05-2.83894E-05-2.86662E-05-3.07617E-07 6.21220E-19-2.82207E-18
 -1       659 9.52664E-05-2.84417E-05-2.86391E-05-1.91328E-07 2.98620E-19-1.93247E-18
 -1       660 9.52578E-05-2.84812E-05-2.86185E-05-1.07768E-07-1.29950E-19-1.58974E-18
 -1       661 9.52514E-05-2.85109E-05-2.86031E-05-4.92640E-08 6.01226E-19-3.99320E-19
 -1       662 9.52469E-05-2.85331E-05-2.85916E-05-9.79239E-09 2.67491E-18-1.74156E-18
 -1       663 9.52440E-05-2.85503E-05-2.85830E-05 1.51790E-08 1.30461E-18-1.01240E-18
 -1       664 9.52426E-05-2.85643E-05-2.85764E-05 2.89103E-08-1.30902E-18-2.09546E-18
 -1       665 9.81970E-05-2.88272E-05-2.97298E-05-5.83848E-06 2.83438E-19-2.21771E-19
 -1       666 3.69717E-05-1.26298E-05-9.86717E-06 8.94243E-06-2.10627E-19-4.45550E-18
 -1       667 9.74501E-05-2.78336E-05-2.98348E-05-4.75202E-06 4.49871E-19-1.01300E-19
 -1       668 1.00919E-04-3.16077E-05-2.97065E-05-6.22867E-06-1.98293E-19 8.97277E-19
 -1       669 1.03023E-04-3.35652E-05-2.97706E-05-5.25705E-06 2.67507E-19 7.50285E-19
 -1       670 1.05566E-04-3.57532E-05-2.99232E-05-3.23450E-06 3.04427E-19 1.12558E-18
 -1       671 1.08236E-04-3.76845E-05-3.02397E-05-2.78347E-08 2.61643E-19 1.30467E-18
 -1       672 1.10345E-04-3.84340E-05-3.08231E-05 4.16364E-06-2.05520E-19 2.23755E-18
 -1       673 1.10916E-04-3.68487E-05-3.17472E-05 8.40961E-06 2.96792E-20 2.58498E-18
 -1       674 1.09278E-04-3.23839E-05-3.29660E-05 1.08570E-05 3.59238E-19 2.25622E-18
 -1       675 1.05980E-04-2.62084E-05-3.42140E-05 9.35431E-06 1.20032E-18 2.01158E-18
 -1       676 1.03300E-04-2.16759E-05-3.50041E-05 3.38345E-06 1.09337E-18 1.93571E-18
 -1       677 1.03424E-04-2.18463E-05-3.49862E-05-4.54229E-06 1.10442E-18 1.73176E-18
 -1       678 1.06290E-04-2.66172E-05-3.41769E-05-1.02319E-05 5.80797E-19 3.78114E-19
 -1       679 1.09576E-04-3.27320E-05-3.29424E-05-1.14475E-05 9.19204E-21 1.94371E-19
 -1       680 1.11097E-04-3.69930E-05-3.17582E-05-8.87982E-06 7.18519E-19-2.10693E-19
 -1       681 1.10399E-04-3.83404E-05-3.08907E-05-4.69998E-06 7.80841E-19-6.36604E-19
 -1       682 1.08233E-04-3.74284E-05-3.03504E-05-6.68075E-07 9.19993E-21-3.27254E-19
 -1       683 1.05605E-04-3.54843E-05-3.00551E-05 2.33418E-06 1.54639E-19-9.03079E-19
 -1       684 1.03124E-04-3.33645E-05-2.98998E-05 4.21147E-06-5.26604E-19-3.71580E-19
 -1       685 1.01068E-04-3.15325E-05-2.98028E-05 5.12589E-06-1.01365E-18 2.02537E-19
 -1       686 9.94889E-05-3.01526E-05-2.97164E-05 5.34118E-06-5.47835E-19 5.16763E-19
 -1       687 9.83233E-05-2.92096E-05-2.96203E-05 5.10326E-06-1.04587E-18 5.92772E-19
 -1       688 9.74787E-05-2.86198E-05-2.95107E-05 4.60439E-06-7.61946E-19 1.30963E-19
 -1       689 9.68695E-05-2.82872E-05-2.93919E-05 3.98306E-06-6.99187E-19-1.57345E-20
 -1       690 9.64284E-05-2.81285E-05-2.92709E-05 3.33245E-06-4.22830E-19 6.19026E-19
 -1       691 9.61066E-05-2.80794E-05-2.91540E-05 2.71063E-06-1.89051E-19 5.86105E-19
 -1       692 9.58699E-05-2.80944E-05-2.90461E-05 2.15011E-06 6.15485E-19-1.11547E-18
 -1       693 9.56947E-05-2.81430E-05-2.89503E-05 1.66572E-06 1.44003E-18 8.78359E-19
 -1       694 9.55647E-05-2.82055E-05-2.88678E-05 1.26068E-06 2.35267E-18 2.77198E-18
 -1       695 9.54682E-05-2.82704E-05-2.87988E-05 9.31133E-07 2.58249E-18 2.57455E-18
 -1       696 9.53971E-05-2.83311E-05-2.87423E-05 6.69367E-07 2.13280E-18 2.30317E-18
 -1       697 9.53451E-05-2.83845E-05-2.86972E-05 4.65966E-07 1.25611E-18 1.13756E-18
 -1       698 9.53077E-05-2.84294E-05-2.86620E-05 3.11225E-07 2.26472E-19 5.37191E-19
 -1       699 9.52812E-05-2.84661E-05-2.86350E-05 1.95998E-07-2.37476E-19 8.91544E-20
 -1       700 9.52631E-05-2.84953E-05-2.86147E-05 1.12154E-07 1.33706E-18 2.53071E-19
 -1       701 9.52511E-05-2.85183E-05-2.85997E-05 5.28002E-08 1.35295E-18-1.55960E-19
 -1       702 9.52437E-05-2.85362E-05-2.85889E-05 1.23420E-08 9.85607E-19-1.61179E-18
 -1       703 9.52396E-05-2.85505E-05-2.85810E-05-1.36158E-08 1.06738E-18-1.34642E-18
 -1       704 9.52382E-05-2.85625E-05-2.85753E-05-2.83126E-08-2.82234E-19-7.88734E-19
 -1       705 9.52401E-05-2.85711E-05-2.85724E-05-3.29216E-08-7.00166E-19-2.92704E-19
 -1       706 9.52453E-05-2.85540E-05-2.85820E-05-3.43181E-09 1.33189E-18-5.86953E-19
 -1       707 9.52424E-05-2.85729E-05-2.85726E-05 3.31758E-08-1.85941E-19-1.81731E-18
 -1       708 9.52471E-05-2.85602E-05-2.85801E-05-1.54734E-08 2.26277E-18 1.01141E-18
 -1       709 9.52455E-05-2.85543E-05-2.85820E-05 2.05702E-09 1.36418E-18 2.73938E-19
 -1       710 9.52461E-05-2.85562E-05-2.85813E-05-9.11881E-09 1.61138E-18 9.24870E-19
 -1       711 9.69833E-05-2.68603E-05-3.00501E-05-3.10653E-06 7.41774E-19-1.30031E-19
 -1       712 9.52468E-05-2.85569E-05-2.85814E-05 7.92381E-09 1.50348E-18 1.09020E-18
 -1       713 9.52483E-05-2.85612E-05-2.85801E-05 1.48108E-08 2.32429E-18 3.27318E-19
 -1       714 9.52487E-05-2.85661E-05-2.85782E-05 2.24830E-08 1.19065E-18 1.26222E-18
 -1       715 4.87144E-05-1.78783E-05-1.27026E-05-2.18694E-05 1.24510E-18 2.39538E-18
 -1       716 1.40561E-04-4.38249E-05-4.18951E-05-1.41086E-05-3.08341E-18 2.25840E-18
 -1       717 1.28048E-04-6.01470E-05-2.90542E-05-1.51753E-05 3.22289E-18-2.54512E-18
 -1       718 9.93253E-05-3.00407E-05-2.96942E-05-6.36294E-06-7.96803E-20 2.21444E-19
 -1       719 9.54472E-05-2.30705E-05-3.10227E-05-3.15447E-07-7.31554E-19-9.27034E-19
 -1       720 9.00108E-05-1.54395E-05-3.19643E-05 1.65047E-06 9.90487E-19-8.55484E-19
 -1       721 8.93862E-05-1.47532E-05-3.19909E-05-1.85362E-06-3.16492E-19-1.62135E-18
 -1       722 3.71795E-05-1.07376E-05-1.08128E-05 2.04947E-06 3.58146E-19 4.73539E-18
 -1       723 1.32531E-04-4.28765E-05-3.88250E-05-9.21458E-06 6.58006E-19-3.01554E-18
 -1       724 9.66688E-05-2.56555E-05-3.04300E-05-8.20986E-07 1.00650E-18-5.32848E-20
 -1       725 7.86302E-05-3.69598E-05-1.75195E-05 3.65878E-05-1.77535E-18 3.07952E-18
 -1       726 6.05791E-05-2.75725E-05-1.37479E-05 3.23026E-05 1.36153E-18-3.29543E-18
 -1       727 1.17485E-04-9.41145E-06-4.68680E-05-3.25848E-06 3.64627E-18 2.08565E-20
 -1       728 6.62312E-05-3.02186E-05-1.49763E-05-3.52779E-05-2.63843E-18-1.34506E-18
 -1       729 1.36387E-04-5.03735E-05-3.71627E-05 2.11028E-06 4.43064E-19 3.09781E-18
 -1       730 4.13455E-05-1.52389E-05-1.06476E-05-1.96014E-05-1.76493E-18-3.64240E-18
 -1       731 9.42971E-05-4.71395E-05-1.99044E-05 3.52337E-05 1.56190E-18-1.48163E-18
 -1       732 1.24277E-04-6.13289E-05-2.71033E-05 2.21386E-05 1.41187E-18-1.48919E-19
 -1       733 1.33239E-04-2.99681E-05-4.47064E-05 1.24307E-05 2.21896E-18 1.48162E-18
 -1       734 1.37670E-04-5.65785E-05-3.48776E-05 2.79136E-06 1.73616E-18-4.20920E-18
 -1       735 1.04150E-04-5.28541E-05-2.17589E-05-3.22617E-05 4.36238E-18-1.18366E-19
 -1       736 1.11611E-04-5.50209E-05-2.40932E-05 2.95031E-05-1.84349E-18 1.43579E-18
 -1       737 1.28030E-04-5.74499E-05-3.02880E-05 1.26221E-05-1.26042E-18-2.30748E-18
 -1       738 1.25237E-04-2.26127E-05-4.44204E-05-1.39555E-05 2.60084E-18-2.06890E-18
 -1       739 9.12730E-05-1.67687E-05-3.19322E-05-2.50174E-06-7.54785E-19-1.23851E-18
 -1       740 8.76446E-05-1.29995E-05-3.19951E-05-6.29467E-07 7.06731E-20-1.72630E-18
 -1       741 9.52471E-05-2.85649E-05-2.85781E-05-2.22925E-08 1.11187E-18 2.82779E-19
 -1       742 9.52450E-05-2.85689E-05-2.85755E-05-2.82121E-08-1.05233E-18-1.18697E-18
 -1       743 1.39121E-04-5.86001E-05-3.42901E-05 3.84953E-06 4.89183E-19 3.89688E-19
 -1       744 1.31320E-04-5.63777E-05-3.22134E-05-7.51314E-06-8.58872E-19 1.69219E-18
 -1       745 1.13769E-04-5.58741E-05-2.46967E-05-2.82071E-05-2.54295E-18 1.50319E-18
 -1       746 5.48763E-05-1.86608E-05-1.51737E-05 2.13171E-05 8.13674E-19-3.47270E-18
 -1       747 8.81715E-05-1.35178E-05-3.19991E-05-1.23589E-06-7.45302E-20-1.58064E-18
 -1       748 8.49628E-05-3.97029E-05-1.91406E-05-3.47705E-05-3.12916E-18-9.75875E-19
 -1       749 1.28851E-04-5.02910E-05-3.37540E-05-2.33593E-06-5.36073E-19-2.68163E-18
 -1       750 1.35249E-04-2.78725E-05-4.65212E-05-1.59467E-05-4.63036E-18 1.94823E-18
 -1       751 9.40558E-05-2.13581E-05-3.11533E-05 5.62798E-07 1.07396E-18-3.75015E-19
 -1       752 9.32487E-05-2.31508E-05-3.00418E-05 5.33613E-06-4.45966E-19-7.71532E-19
 -1       753 9.25388E-05-2.34326E-05-2.96167E-05 7.46680E-06-6.28463E-19-6.32881E-19
 -1       754 9.16533E-05-2.35910E-05-2.91693E-05 9.50773E-06-4.41731E-19-6.06147E-19
 -1       755 9.07848E-05-2.39815E-05-2.86300E-05 1.16189E-05 1.03849E-19-6.83813E-19
 -1       756 9.02789E-05-2.51055E-05-2.79315E-05 1.39937E-05 5.27720E-19-1.12064E-18
 -1       757 9.07649E-05-2.76783E-05-2.70293E-05 1.68453E-05 9.60027E-19-7.69359E-19
 -1       758 9.33690E-05-3.27262E-05-2.59491E-05 2.03242E-05 1.12382E-18-7.37276E-19
 -1       759 9.99222E-05-4.14236E-05-2.50009E-05 2.38669E-05 1.09762E-18-6.37167E-19
 -1       760 5.93237E-05-2.06594E-05-1.62569E-05-2.40342E-05-1.92397E-18-1.66958E-18
 -1       761 1.26523E-04-3.90297E-05-3.76975E-05 1.15701E-05 8.70154E-19 8.95201E-19
 -1       762 9.56671E-05-3.62082E-05-2.54142E-05-2.11222E-05 2.17908E-18 5.06181E-19
 -1       763 9.11999E-05-2.94267E-05-2.64644E-05-1.75843E-05 4.01845E-19 3.74178E-19
 -1       764 8.97932E-05-2.58205E-05-2.74135E-05-1.43428E-05-4.96466E-19 2.61495E-19
 -1       765 8.98433E-05-2.42183E-05-2.81241E-05-1.17979E-05-1.76439E-19-8.40046E-19
 -1       766 9.05269E-05-2.37879E-05-2.86019E-05-9.75061E-06-6.98136E-20-1.53907E-18
 -1       767 9.14003E-05-2.39878E-05-2.88906E-05-8.05209E-06 3.37950E-20-7.37296E-19
 -1       768 9.22480E-05-2.44853E-05-2.90408E-05-6.60833E-06 7.09172E-19 9.14449E-19
 -1       769 9.29809E-05-2.50873E-05-2.90970E-05-5.36925E-06 8.10161E-19 1.09142E-18
 -1       770 9.35749E-05-2.56895E-05-2.90936E-05-4.30858E-06 4.88681E-19 1.70538E-18
 -1       771 9.40372E-05-2.62404E-05-2.90556E-05-3.40976E-06 5.34783E-19 8.88288E-19
 -1       772 9.43869E-05-2.67195E-05-2.90002E-05-2.65858E-06-4.52550E-19 3.07760E-19
 -1       773 9.46461E-05-2.71225E-05-2.89386E-05-2.04039E-06-8.76101E-21 6.11730E-19
 -1       774 9.48349E-05-2.74537E-05-2.88776E-05-1.53961E-06-1.41224E-18-1.22359E-18
 -1       775 9.49704E-05-2.77210E-05-2.88211E-05-1.14029E-06-1.52944E-18 1.89294E-20
 -1       776 9.50662E-05-2.79334E-05-2.87712E-05-8.26812E-07-1.28589E-18-1.34005E-19
 -1       777 9.51327E-05-2.80998E-05-2.87283E-05-5.84574E-07 1.76606E-19-7.80268E-19
 -1       778 9.51778E-05-2.82285E-05-2.86926E-05-4.00375E-07 7.09259E-19-1.19683E-18
 -1       779 9.52076E-05-2.83267E-05-2.86632E-05-2.62669E-07 1.42776E-18-1.12983E-18
 -1       780 9.52265E-05-2.84007E-05-2.86396E-05-1.61634E-07-2.48458E-19-1.16947E-18
 -1       781 9.52377E-05-2.84558E-05-2.86208E-05-8.91475E-08 6.63554E-19-2.07556E-18
 -1       782 9.52436E-05-2.84965E-05-2.86059E-05-3.86234E-08 1.84543E-18-1.08440E-18
 -1       783 9.52463E-05-2.85267E-05-2.85941E-05-4.90878E-09 1.71235E-18-1.06753E-18
 -1       784 9.52473E-05-2.85500E-05-2.85845E-05 1.59276E-08-3.95385E-19-1.84368E-18
 -1       785 9.52396E-05-2.85250E-05-2.85920E-05 8.10125E-10 2.39295E-18 9.47383E-19
 -1       786 1.03559E-04-3.54863E-05-2.91754E-05-7.08617E-06-1.68685E-19 7.75563E-19
 -1       787 1.00629E-04-3.25491E-05-2.91780E-05-7.84919E-06-1.53567E-20 3.36948E-19
 -1       788 1.11674E-04-4.16547E-05-3.00067E-05-1.36718E-06-7.29260E-19 1.72810E-18
 -1       789 1.15270E-04-4.24057E-05-3.12357E-05 3.99819E-06-5.49894E-19 1.96342E-18
 -1       790 1.16330E-04-3.90368E-05-3.31349E-05 9.63943E-06 1.88048E-19 2.41165E-18
 -1       791 1.13498E-04-3.05365E-05-3.56429E-05 1.24952E-05 1.43572E-18 2.30109E-18
 -1       792 1.08939E-04-2.08265E-05-3.78986E-05 8.84418E-06 1.40090E-18 1.48236E-18
 -1       793 1.06933E-04-1.67287E-05-3.87724E-05-6.69050E-07 1.04751E-18 8.33485E-19
 -1       794 1.08900E-04-2.12431E-05-3.76878E-05-1.01073E-05 1.80723E-18-4.60687E-19
 -1       795 1.13830E-04-3.13195E-05-3.53996E-05-1.30579E-05 1.63046E-19-8.60400E-19
 -1       796 1.16370E-04-3.92280E-05-3.31152E-05-1.02634E-05 1.54309E-18-1.32103E-18
 -1       797 1.15096E-04-4.22420E-05-3.12402E-05-4.55425E-06-7.88038E-20-5.55703E-19
 -1       798 1.11183E-04-4.11104E-05-3.00225E-05 6.98124E-07-4.35899E-19 9.14777E-19
 -1       799 1.06862E-04-3.82366E-05-2.94076E-05 4.21475E-06-1.98802E-19 2.03383E-18
 -1       800 1.03049E-04-3.49896E-05-2.91692E-05 6.09300E-06-2.79295E-20 2.13287E-18
 -1       801 1.00132E-04-3.21960E-05-2.91164E-05 6.78906E-06-6.07589E-19 1.26808E-18
 -1       802 9.81065E-05-3.01299E-05-2.91332E-05 6.73625E-06-4.65366E-19 2.37042E-19
 -1       803 9.67927E-05-2.87552E-05-2.91589E-05 6.25672E-06-3.99893E-19-2.89986E-19
 -1       804 9.59903E-05-2.79332E-05-2.91672E-05 5.55857E-06-9.13496E-19-1.08673E-18
 -1       805 9.55307E-05-2.75113E-05-2.91510E-05 4.77601E-06-2.44991E-20-1.49774E-18
 -1       806 9.52879E-05-2.73567E-05-2.91132E-05 3.99317E-06-1.61822E-18-2.07873E-18
 -1       807 9.51750E-05-2.73673E-05-2.90603E-05 3.26031E-06-5.14759E-19-1.87711E-18
 -1       808 9.51355E-05-2.74702E-05-2.89992E-05 2.60476E-06 2.84364E-19-1.42682E-18
 -1       809 9.51340E-05-2.76166E-05-2.89359E-05 2.03831E-06 1.90765E-19-8.29082E-19
 -1       810 9.51497E-05-2.77753E-05-2.88746E-05 1.56250E-06 1.03386E-18-1.27184E-18
 -1       811 9.51709E-05-2.79281E-05-2.88182E-05 1.17241E-06 1.35927E-18-4.29156E-19
 -1       812 9.51917E-05-2.80653E-05-2.87684E-05 8.59514E-07 1.98426E-18 1.80577E-18
 -1       813 9.52092E-05-2.81828E-05-2.87256E-05 6.13561E-07 1.76965E-18 2.63904E-18
 -1       814 9.52227E-05-2.82798E-05-2.86898E-05 4.23967E-07 1.64657E-18 2.20489E-18
 -1       815 9.52323E-05-2.83576E-05-2.86606E-05 2.80650E-07 4.25516E-19-1.65773E-19
 -1       816 9.52386E-05-2.84186E-05-2.86371E-05 1.74525E-07-5.07694E-20-8.15138E-19
 -1       817 9.52422E-05-2.84655E-05-2.86186E-05 9.77289E-08 7.71434E-19-9.12584E-19
 -1       818 9.52439E-05-2.85010E-05-2.86041E-05 4.37324E-08 1.22468E-18 7.53348E-19
 -1       819 9.52444E-05-2.85279E-05-2.85928E-05 7.48252E-09 1.42104E-18 1.02183E-18
 -1       820 9.52444E-05-2.85486E-05-2.85839E-05-1.52169E-08 2.12868E-18-1.12194E-18
 -1       821 9.52445E-05-2.85589E-05-2.85795E-05-2.34460E-08-2.47065E-20-2.12718E-18
 -1       822 8.91745E-05-1.59904E-05-3.13656E-05-3.99115E-07 3.96269E-19-1.25080E-18
 -1       823 9.60221E-05-2.59314E-05-3.00389E-05-4.12456E-06 5.13064E-19 6.54102E-20
 -1       824 9.52381E-05-2.85223E-05-2.85925E-05-9.44508E-10 1.38508E-18 1.15088E-18
 -1       825 9.52464E-05-2.85416E-05-2.85878E-05 9.50776E-09 2.02776E-18-2.28310E-19
 -1       826 9.52430E-05-2.85320E-05-2.85905E-05 3.97085E-09 2.42098E-18 1.62850E-18
 -1       827 9.30707E-05-1.88719E-05-3.17965E-05-2.83878E-06-1.05541E-18-9.65022E-19
 -1       828 1.07380E-04-3.87944E-05-2.93937E-05-5.06563E-06 1.75621E-20 1.29275E-18
 -1       829 1.13531E-04-1.38262E-05-4.30586E-05 6.32274E-06 2.40523E-18 1.13590E-18
 -1       830 1.08464E-04-4.84829E-05-2.55922E-05-2.21836E-05 3.29235E-18-7.12179E-19
 -1       831 4.98832E-05-1.38162E-05-1.51428E-05 1.40225E-05-1.02707E-18 3.23537E-18
 -1       832 4.74353E-05-1.21474E-05-1.47946E-05-4.06013E-06-9.98687E-19-3.55870E-18
 -1       833 9.36326E-05-2.24381E-05-3.05116E-05 2.98900E-06-6.50541E-19-8.14080E-19
 -1       834 8.24333E-05-3.41321E-05-2.04629E-05 2.98262E-05 1.75323E-18-1.73253E-18
 -1       835 1.20193E-04-2.40518E-05-4.14956E-05 1.32751E-05 1.75902E-18 1.16321E-18
 -1       836 5.08609E-05-1.29073E-05-1.59729E-05-8.73451E-06 5.40473E-19 2.62199E-18
 -1       837 9.55315E-05-2.36251E-05-3.08167E-05-5.61664E-08 1.02945E-18-7.46246E-20
 -1       838 1.11194E-04-5.15227E-05-2.54762E-05 2.40303E-05 1.62303E-18 2.17426E-19
 -1       839 7.05822E-05-2.73275E-05-1.83016E-05-2.71936E-05 2.04236E-18-3.16711E-20
 -1       840 6.61584E-05-2.44080E-05-1.76390E-05 2.70804E-05-1.83336E-18 3.15638E-18
 -1       841 9.95986E-05-4.46185E-05-2.34585E-05 2.69826E-05-1.69526E-18 5.33512E-19
 -1       842 1.14638E-04-5.18746E-05-2.68818E-05 1.83687E-05-1.64418E-18-2.08670E-18
 -1       843 9.65198E-05-2.71693E-05-2.97216E-05-5.78251E-06 2.12703E-19 8.64920E-20
 -1       844 8.85709E-05-1.53828E-05-3.13670E-05-5.01630E-07 1.16939E-19-1.55690E-18
 -1       845 9.20931E-05-1.90680E-05-3.12972E-05 2.12022E-07 8.38215E-19-4.68544E-19
 -1       846 1.28079E-04-4.74105E-05-3.47344E-05 5.71674E-06 6.34370E-19 1.73331E-18
 -1       847 9.52446E-05-2.85401E-05-2.85877E-05-1.01353E-08 1.07517E-18 2.48716E-18
 -1       848 9.36958E-05-2.15419E-05-3.09238E-05 9.89867E-07-6.63283E-19-8.82022E-19
 -1       849 9.86056E-05-3.02481E-05-2.92964E-05-7.72945E-06-4.93654E-19 4.23668E-19
 -1       850 9.03962E-05-1.72450E-05-3.13516E-05-1.50268E-07 6.65723E-19-8.27618E-19
 -1       851 9.52417E-05-2.85308E-05-2.85904E-05-5.46376E-09 2.10045E-18 8.50461E-19
 -1       852 9.52390E-05-2.85244E-05-2.85919E-05-2.60654E-09 1.87820E-18-1.73823E-18
 -1       853 1.00557E-04-4.66439E-05-2.29833E-05-2.92255E-05-2.73820E-18 1.20345E-19
 -1       854 1.22864E-04-5.59538E-05-2.86501E-05-1.53110E-05-1.39378E-18 1.20026E-18
 -1       855 5.58350E-05-1.40626E-05-1.76959E-05 8.44094E-06 2.53018E-19-2.74403E-18
 -1       856 9.73088E-05-2.85211E-05-2.94804E-05-6.99531E-06-2.40304E-19 6.42478E-19
 -1       857 1.21435E-04-5.14673E-05-3.00140E-05 5.73585E-06-1.35183E-18-1.07623E-18
 -1       858 8.62459E-05-3.41310E-05-2.22457E-05 2.59402E-05-2.25049E-18 1.94107E-18
 -1       859 7.30714E-05-2.86379E-05-1.88388E-05-2.85184E-05-2.01223E-18-8.09446E-19
 -1       860 9.58310E-05-2.49423E-05-3.03818E-05-2.28357E-06 9.68134E-19-2.04805E-19
 -1       861 1.24529E-04-4.07000E-05-3.60504E-05-1.10609E-05 4.70798E-19-2.63864E-18
 -1       862 6.47016E-05-1.89369E-05-1.94491E-05-1.77024E-05 1.45424E-18 8.74277E-19
 -1       863 8.95653E-05-1.63823E-05-3.13655E-05-4.16741E-07-1.16669E-19-1.39380E-18
 -1       864 8.99718E-05-3.90202E-05-2.16485E-05-2.87775E-05 3.39756E-18-1.94460E-19
 -1       865 9.11337E-05-1.80307E-05-3.13343E-05-3.41877E-07-5.11328E-19-1.07918E-18
 -1       866 5.86254E-05-1.32785E-05-1.93060E-05 3.22021E-06 2.43224E-20 2.46046E-18
 -1       867 8.91775E-05-2.14700E-05-2.90176E-05 6.89086E-06-2.77738E-19-4.27501E-19
 -1       868 8.73213E-05-2.13359E-05-2.82799E-05 8.67500E-06-3.02144E-19-3.49380E-19
 -1       869 8.51224E-05-2.13384E-05-2.73374E-05 1.07668E-05 1.39331E-19-6.45504E-19
 -1       870 8.27817E-05-2.19463E-05-2.60749E-05 1.35506E-05 6.17913E-19-9.74097E-19
 -1       871 8.06504E-05-2.38281E-05-2.43286E-05 1.77054E-05 8.95883E-19-1.65639E-18
 -1       872 8.01814E-05-2.74661E-05-2.25200E-05 2.29320E-05 1.23178E-18-1.92874E-18
 -1       873 7.90757E-05-2.48885E-05-2.31440E-05-1.97210E-05 1.43675E-18-1.46598E-18
 -1       874 8.07747E-05-2.21827E-05-2.50990E-05-1.45751E-05 1.31820E-20-2.42710E-19
 -1       875 8.29524E-05-2.11695E-05-2.64774E-05-1.12044E-05-3.38507E-19 9.95404E-19
 -1       876 8.51804E-05-2.11909E-05-2.74245E-05-8.94554E-06-7.51180E-19 8.18607E-19
 -1       877 8.72064E-05-2.17469E-05-2.80543E-05-7.31158E-06 4.53691E-19 7.04149E-19
 -1       878 8.89475E-05-2.25505E-05-2.84560E-05-6.03279E-06 9.22915E-19 2.87676E-19
 -1       879 9.03908E-05-2.34306E-05-2.86973E-05-4.97171E-06 1.08115E-18-6.27698E-20
 -1       880 9.15570E-05-2.42894E-05-2.88290E-05-4.06418E-06 9.94770E-19 7.71708E-21
 -1       881 9.24808E-05-2.50751E-05-2.88882E-05-3.28210E-06 1.02238E-18 5.11221E-21
 -1       882 9.32009E-05-2.57646E-05-2.89013E-05-2.61237E-06-4.97161E-19 3.58210E-19
 -1       883 9.37545E-05-2.63523E-05-2.88867E-05-2.04644E-06 5.67718E-19 7.72141E-20
 -1       884 9.41748E-05-2.68418E-05-2.88570E-05-1.57600E-06-1.24430E-18 9.98235E-20
 -1       885 9.44899E-05-2.72421E-05-2.88205E-05-1.19166E-06-2.62043E-19 1.60421E-18
 -1       886 9.47231E-05-2.75642E-05-2.87824E-05-8.83112E-07-2.34263E-18 2.24185E-18
 -1       887 9.48933E-05-2.78196E-05-2.87459E-05-6.39662E-07-6.95977E-19 1.67579E-18
 -1       888 9.50153E-05-2.80192E-05-2.87126E-05-4.50873E-07 5.58560E-19 7.14084E-19
 -1       889 9.51010E-05-2.81730E-05-2.86835E-05-3.07024E-07 6.11534E-19-5.01863E-19
 -1       890 9.51597E-05-2.82898E-05-2.86585E-05-1.99418E-07 1.95634E-19-1.96561E-18
 -1       891 9.51984E-05-2.83774E-05-2.86376E-05-1.20544E-07 7.25987E-19-1.85247E-18
 -1       892 9.52227E-05-2.84424E-05-2.86202E-05-6.42476E-08 1.78219E-18-1.01656E-18
 -1       893 9.52369E-05-2.84901E-05-2.86058E-05-2.54266E-08 1.84736E-18-1.50022E-18
 -1       894 9.52430E-05-2.85182E-05-2.85963E-05-4.37667E-09 8.67854E-19-1.28469E-18
 -1       895 1.09731E-04-1.48233E-05-4.09167E-05-3.08208E-06 2.04036E-18-3.92626E-19
 -1       896 1.21438E-04-4.72452E-05-3.18107E-05 2.45325E-06-2.30151E-19 1.16556E-18
 -1       897 1.15682E-04-4.64521E-05-2.96723E-05-4.53581E-06-4.76317E-19 1.19313E-18
 -1       898 1.07989E-04-4.13152E-05-2.85935E-05 7.92446E-06-8.33735E-19 8.05298E-19
 -1       899 1.02616E-04-3.66729E-05-2.82568E-05 9.21370E-06-5.54022E-20 3.22572E-19
 -1       900 9.87367E-05-3.27658E-05-2.82753E-05 9.20452E-06 5.83200E-20 6.02488E-19
 -1       901 9.62745E-05-2.99633E-05-2.84192E-05 8.47669E-06-6.17738E-19 4.24181E-19
 -1       902 9.48462E-05-2.81429E-05-2.85870E-05 7.48459E-06-9.21324E-19 9.65886E-19
 -1       903 9.41266E-05-2.70884E-05-2.87304E-05 6.42444E-06-9.15363E-21 9.70582E-19
 -1       904 9.38545E-05-2.65797E-05-2.88319E-05 5.39793E-06 9.27164E-20-5.19704E-19
 -1       905 9.38457E-05-2.64336E-05-2.88908E-05 4.45345E-06 4.12739E-19-8.98390E-19
 -1       906 9.39764E-05-2.65106E-05-2.89138E-05 3.61260E-06-1.12300E-18-1.06791E-18
 -1       907 9.41679E-05-2.67109E-05-2.89101E-05 2.88250E-06-7.14469E-19-2.42173E-18
 -1       908 9.43733E-05-2.69669E-05-2.88884E-05 2.26200E-06-4.03064E-19-1.02313E-18
 -1       909 9.45664E-05-2.72355E-05-2.88561E-05 1.74487E-06-5.56837E-19 1.91563E-19
 -1       910 9.47348E-05-2.74908E-05-2.88188E-05 1.32174E-06 6.68119E-19 9.96694E-19
 -1       911 9.48739E-05-2.77189E-05-2.87807E-05 9.81565E-07 1.42558E-18 1.78954E-18
 -1       912 9.49842E-05-2.79142E-05-2.87443E-05 7.12752E-07 1.24511E-18 1.38382E-18
 -1       913 9.50686E-05-2.80759E-05-2.87112E-05 5.03919E-07 1.12625E-18 1.30154E-18
 -1       914 9.51309E-05-2.82060E-05-2.86821E-05 3.44469E-07 1.46247E-18 3.08797E-18
 -1       915 9.51752E-05-2.83082E-05-2.86573E-05 2.24933E-07 6.71898E-19 3.06177E-18
 -1       916 9.52054E-05-2.83869E-05-2.86365E-05 1.37127E-07 6.59834E-19 9.93405E-19
 -1       917 9.52249E-05-2.84465E-05-2.86193E-05 7.41127E-08 2.17204E-19 1.34423E-18
 -1       918 9.52368E-05-2.84914E-05-2.86052E-05 3.01039E-08 7.37854E-19 1.30863E-18
 -1       919 9.52429E-05-2.85243E-05-2.85936E-05 1.04903E-09 2.15534E-18 1.49479E-18
 -1       920 9.52459E-05-2.85505E-05-2.85837E-05-1.66004E-08 6.28900E-19 2.78876E-18
 -1       921 6.42313E-05-1.76036E-05-1.98564E-05 1.52648E-05-4.10202E-19 2.09660E-18
 -1       922 9.46201E-05-2.50097E-05-2.98340E-05-5.04347E-06 2.19874E-19-1.96832E-19
 -1       923 8.86900E-05-1.54991E-05-3.13684E-05-4.79561E-07-1.09670E-19-1.67395E-18
 -1       924 5.97393E-05-1.58991E-05-1.86370E-05-1.21935E-05-1.04126E-18-2.17940E-18
 -1       925 9.14990E-05-2.09553E-05-3.02338E-05 3.30045E-06-5.47208E-19-5.91954E-19
 -1       926 9.52264E-05-2.84849E-05-2.86035E-05-3.81148E-09 3.33980E-18 1.73220E-18
 -1       927 6.65004E-05-1.99875E-05-1.97669E-05 1.87517E-05 9.58699E-19-2.09289E-18
 -1       928 9.97144E-05-3.33755E-05-2.84316E-05-1.01846E-05-5.20576E-19-2.70519E-19
 -1       929 9.05982E-05-2.14308E-05-2.96435E-05 5.14717E-06-3.77976E-19-5.53558E-19
 -1       930 1.06500E-04-4.50565E-05-2.62992E-05 1.77600E-05-1.42069E-18-1.87672E-18
 -1       931 1.09130E-04-4.22318E-05-2.86740E-05-8.50717E-06-6.20738E-19 1.10883E-18
 -1       932 9.37588E-05-2.21529E-05-3.06891E-05-1.66133E-06 7.56552E-19-3.00412E-19
 -1       933 9.72396E-05-3.02950E-05-2.86911E-05-9.41602E-06-2.05865E-19-5.04322E-19
 -1       934 9.52360E-05-2.85027E-05-2.86000E-05-7.27991E-09 2.15240E-18-1.37288E-19
 -1       935 9.18260E-05-2.02016E-05-3.06956E-05 1.77775E-06-5.25501E-19-8.01196E-19
 -1       936 9.05104E-05-1.87326E-05-3.07587E-05 1.05477E-06-3.62473E-19-8.35080E-19
 -1       937 1.11691E-04-4.46472E-05-2.87438E-05 7.71394E-06-1.25443E-18 2.54937E-21
 -1       938 7.80130E-05-2.52748E-05-2.25988E-05 1.97254E-05-7.44353E-19 2.81239E-18
 -1       939 9.52258E-05-2.84845E-05-2.86034E-05 1.06590E-09 3.48641E-18-1.04158E-18
 -1       940 9.50433E-05-2.64159E-05-2.94113E-05-6.75175E-06-8.11115E-20-1.88332E-19
 -1       941 9.03028E-05-1.85420E-05-3.07554E-05-1.45856E-06 3.27279E-19-1.00749E-18
 -1       942 9.52303E-05-2.84919E-05-2.86022E-05-6.69490E-09 4.23930E-18 3.74754E-19
 -1       943 8.71818E-05-3.63493E-05-2.16798E-05-2.83312E-05-2.20321E-18-7.24915E-19
 -1       944 1.11973E-04-5.07621E-05-2.61969E-05-2.05951E-05-1.80722E-18 4.80130E-19
 -1       945 6.39972E-05-1.48557E-05-2.09811E-05-6.47548E-06 4.43624E-19 1.49768E-18
 -1       946 9.60122E-05-3.75104E-05-2.50298E-05 2.03569E-05-1.61412E-18-7.66092E-19
 -1       947 1.03627E-04-3.74561E-05-2.83653E-05-1.00865E-05-6.50415E-19 4.27096E-19
 -1       948 6.08014E-05-1.40110E-05-1.99935E-05-1.27876E-06 9.00899E-20-1.84604E-18
 -1       949 6.75100E-05-2.07393E-05-1.99112E-05-1.88845E-05-1.30021E-18-1.42880E-18
 -1       950 9.44961E-05-2.39026E-05-3.02538E-05-3.33880E-06 5.37362E-19-9.97699E-20
 -1       951 8.92764E-05-1.75254E-05-3.07490E-05 2.75286E-07-2.43574E-21-1.43533E-18
 -1       952 9.52367E-05-2.85049E-05-2.85994E-05 6.73212E-09 3.77477E-19 2.71159E-18
 -1       953 8.92216E-05-1.74806E-05-3.07460E-05-1.05057E-06 1.77940E-19-1.16304E-18
 -1       954 1.22651E-04-4.55107E-05-3.29058E-05-5.76555E-06 2.82353E-19-1.28173E-18
 -1       955 1.23637E-04-5.25568E-05-3.04638E-05-5.89667E-06-1.03058E-18 9.60833E-19
 -1       956 8.57351E-05-1.97461E-05-2.82813E-05 5.09954E-06-3.84797E-19-7.02172E-19
 -1       957 8.27671E-05-1.92069E-05-2.72406E-05 6.27829E-06-1.83991E-19-9.60753E-19
 -1       958 7.88681E-05-1.85161E-05-2.58587E-05 7.92958E-06-3.58024E-20-1.28909E-18
 -1       959 7.37997E-05-1.79479E-05-2.39005E-05 1.04845E-05 2.19847E-19-1.93421E-18
 -1       960 7.02817E-05-1.85570E-05-2.20866E-05 1.38187E-05 1.07223E-18-2.10195E-18
 -1       961 6.96810E-05-1.73443E-05-2.23947E-05-1.12000E-05 1.16998E-18 6.30527E-20
 -1       962 9.60606E-05-3.26921E-05-2.71564E-05 1.25204E-05-5.74990E-19-4.42701E-19
 -1       963 7.53553E-05-1.77949E-05-2.46649E-05-8.10475E-06 3.70968E-19 2.93221E-19
 -1       964 7.96634E-05-1.86411E-05-2.61551E-05-6.33100E-06 6.66845E-19 1.01208E-18
 -1       965 8.30305E-05-1.96809E-05-2.71514E-05-5.20750E-06-6.94648E-19 2.28246E-18
 -1       966 8.56981E-05-2.07997E-05-2.78146E-05-4.40065E-06 2.03700E-19 2.50990E-18
 -1       967 8.78272E-05-2.19187E-05-2.82471E-05-3.74328E-06 1.35239E-19 2.29264E-18
 -1       968 8.95276E-05-2.29826E-05-2.85196E-05-3.16432E-06 1.15045E-18 1.78860E-18
 -1       969 9.08806E-05-2.39563E-05-2.86821E-05-2.63936E-06 5.39275E-19 5.04027E-19
 -1       970 9.19499E-05-2.48204E-05-2.87699E-05-2.16470E-06 7.45272E-19-3.96691E-19
 -1       971 9.27876E-05-2.55682E-05-2.88084E-05-1.74293E-06-1.80866E-19 1.14081E-18
 -1       972 9.34375E-05-2.62015E-05-2.88155E-05-1.37657E-06 2.34740E-19 2.13165E-18
 -1       973 9.39362E-05-2.67279E-05-2.88036E-05-1.06579E-06 3.84813E-19 2.11359E-18
 -1       974 9.43144E-05-2.71580E-05-2.87814E-05-8.08130E-07-1.11167E-18 3.19060E-18
 -1       975 9.45972E-05-2.75039E-05-2.87543E-05-5.99123E-07-1.44188E-18 4.44458E-18
 -1       976 9.48056E-05-2.77778E-05-2.87262E-05-4.33054E-07-1.85794E-18 1.37600E-18
 -1       977 9.49563E-05-2.79915E-05-2.86992E-05-3.03723E-07 6.40842E-20-5.95383E-19
 -1       978 9.50629E-05-2.81558E-05-2.86745E-05-2.04977E-07 4.03225E-19 6.76547E-20
 -1       979 9.51361E-05-2.82801E-05-2.86526E-05-1.31096E-07-9.37227E-20 1.26523E-18
 -1       980 9.51849E-05-2.83734E-05-2.86336E-05-7.72361E-08 9.99499E-19-8.84057E-19
 -1       981 9.52153E-05-2.84414E-05-2.86173E-05-3.90027E-08 1.57122E-18-3.33292E-19
 -1       982 9.52273E-05-2.84745E-05-2.86083E-05-2.04690E-08 1.78058E-18-7.06946E-19
 -1       983 9.52295E-05-2.84905E-05-2.86025E-05 6.14199E-09 1.20228E-18 2.25146E-19
 -1       984 9.18954E-05-2.01512E-05-3.07483E-05-1.64054E-06 5.04621E-19-4.97385E-19
 -1       985 6.68142E-05-1.58905E-05-2.17796E-05 7.62649E-06-3.92256E-19 2.10098E-18
 -1       986 1.04459E-04-4.03951E-05-2.74365E-05 1.27358E-05-1.57181E-19-9.67110E-19
 -1       987 9.22004E-05-2.71373E-05-2.78836E-05 8.76453E-06-2.59591E-19 3.90267E-19
 -1       988 9.17565E-05-2.59612E-05-2.81974E-05 7.16461E-06 3.68165E-19-3.38921E-19
 -1       989 9.18016E-05-2.54406E-05-2.84401E-05 5.80392E-06-4.28042E-19 5.32590E-19
 -1       990 9.21132E-05-2.53519E-05-2.86119E-05 4.66444E-06 8.01133E-19 6.63643E-19
 -1       991 9.25457E-05-2.55257E-05-2.87228E-05 3.71696E-06-7.73259E-19 2.18806E-19
 -1       992 9.30097E-05-2.58432E-05-2.87856E-05 2.93306E-06-8.37053E-19 8.36304E-19
 -1       993 9.34537E-05-2.62232E-05-2.88131E-05 2.28865E-06-1.77660E-18 9.59603E-19
 -1       994 9.38502E-05-2.66132E-05-2.88158E-05 1.76329E-06-1.62250E-18 1.46183E-18
 -1       995 9.41879E-05-2.69814E-05-2.88028E-05 1.33925E-06-1.23180E-20 2.34365E-18
 -1       996 9.44648E-05-2.73104E-05-2.87805E-05 1.00087E-06 3.00284E-19 1.15968E-18
 -1       997 9.46850E-05-2.75928E-05-2.87538E-05 7.34174E-07 2.00447E-18 8.00226E-19
 -1       998 9.48551E-05-2.78278E-05-2.87260E-05 5.26772E-07 1.31529E-18 2.46525E-18
 -1       999 9.49828E-05-2.80180E-05-2.86992E-05 3.67762E-07-4.13657E-20 2.13976E-18
 -1      1000 9.50759E-05-2.81686E-05-2.86746E-05 2.47697E-07 5.49330E-19 2.23149E-18
 -1      1001 9.51417E-05-2.82852E-05-2.86528E-05 1.58626E-07 1.28603E-18 2.71350E-18
 -1      1002 9.51864E-05-2.83740E-05-2.86339E-05 9.40682E-08 2.72051E-19 4.53605E-18
 -1      1003 9.52153E-05-2.84406E-05-2.86177E-05 4.80648E-08 1.17768E-18 2.82482E-18
 -1      1004 9.58082E-05-2.80715E-05-2.90299E-05-8.21862E-06-3.74948E-19-3.36419E-19
 -1      1005 8.94117E-05-1.97906E-05-2.98368E-05 2.79669E-06-3.45300E-19-5.07980E-19
 -1      1006 9.35038E-05-2.92914E-05-2.75218E-05 1.05868E-05-7.86245E-19 5.82886E-19
 -1      1007 8.88371E-05-1.71120E-05-3.07398E-05-4.58659E-07 6.52052E-20-1.63078E-18
 -1      1008 8.79387E-05-2.00051E-05-2.91146E-05 3.99059E-06-3.17840E-19-4.32762E-19
 -1      1009 9.47296E-05-2.97810E-05-2.78369E-05-1.14555E-05-3.65691E-19-5.40790E-19
 -1      1010 9.99524E-05-4.29326E-05-2.43942E-05-2.41529E-05-1.75256E-18-4.30891E-19
 -1      1011 9.25746E-05-2.19586E-05-3.02627E-05-3.15617E-06 4.60264E-19-1.86670E-19
 -1      1012 8.97082E-05-1.93825E-05-3.01390E-05-2.26151E-06 4.26232E-20-1.13986E-18
 -1      1013 7.56703E-05-2.09779E-05-2.34376E-05 1.36768E-05-2.25421E-19 1.73376E-18
 -1      1014 9.52051E-05-2.84347E-05-2.86159E-05-1.54589E-09 4.25103E-18 1.93159E-18
 -1      1015 9.51984E-05-2.84140E-05-2.86220E-05 3.55544E-08 2.49417E-18 4.68008E-19
 -1      1016 7.76105E-05-2.69511E-05-2.16320E-05-2.25921E-05-1.32033E-18-2.54758E-19
 -1      1017 9.10143E-05-2.05276E-05-3.02056E-05-2.83962E-06 2.62017E-19-8.21540E-19
 -1      1018 9.52085E-05-2.84399E-05-2.86151E-05-1.24408E-08 3.88019E-18 1.72927E-18
 -1      1019 6.78868E-05-1.50761E-05-2.26057E-05-3.80625E-07 1.50202E-19 1.26411E-18
 -1      1020 9.73678E-05-3.35300E-05-2.73572E-05-1.34241E-05-9.12178E-19-8.20394E-19
 -1      1021 6.94436E-05-1.76909E-05-2.21287E-05-1.03431E-05-4.80804E-19-1.20392E-18
 -1      1022 9.01349E-05-1.94250E-05-3.03034E-05 2.00282E-06-3.68264E-19-6.01529E-19
 -1      1023 1.12005E-04-4.76336E-05-2.75451E-05-1.45372E-05-9.86715E-19-1.62743E-19
 -1      1024 6.41799E-05-1.54123E-05-2.07872E-05 6.91768E-06 6.41556E-19-2.06115E-18
 -1      1025 9.27807E-05-2.40154E-05-2.94703E-05-5.73688E-06 2.68573E-19-2.58179E-19
 -1      1026 6.94209E-05-1.57396E-05-2.29565E-05-6.16372E-07-2.01114E-19-1.30852E-18
 -1      1027 9.51983E-05-2.84194E-05-2.86196E-05 1.46608E-08 2.36517E-18 1.84519E-18
 -1      1028 7.89490E-05-1.78158E-05-2.62109E-05 1.91405E-06-3.34355E-19-1.25048E-18
 -1      1029 7.16554E-05-1.62292E-05-2.37482E-05-4.68639E-06 7.14076E-19 8.13982E-19
 -1      1030 7.70600E-05-1.75426E-05-2.55118E-05-3.75768E-06 3.62845E-19 8.58651E-19
 -1      1031 8.10797E-05-1.88098E-05-2.66864E-05-3.30109E-06 1.20346E-19 1.43521E-18
 -1      1032 8.41739E-05-2.00580E-05-2.74792E-05-2.96083E-06 2.30502E-19 2.82498E-18
 -1      1033 8.66139E-05-2.12672E-05-2.80061E-05-2.65241E-06-1.15775E-19 2.04952E-18
 -1      1034 8.85502E-05-2.24025E-05-2.83492E-05-2.34295E-06 1.07972E-19 2.31157E-18
 -1      1035 9.00934E-05-2.34432E-05-2.85644E-05-2.02597E-06 1.56353E-19 1.61512E-18
 -1      1036 9.13203E-05-2.43738E-05-2.86914E-05-1.71131E-06-5.06380E-20-4.45487E-19
 -1      1037 9.22898E-05-2.51868E-05-2.87585E-05-1.41172E-06 8.09191E-19-5.27978E-19
 -1      1038 9.30493E-05-2.58822E-05-2.87860E-05-1.13781E-06 7.10220E-19 1.11073E-18
 -1      1039 9.36383E-05-2.64658E-05-2.87883E-05-8.96323E-07 1.30706E-19 1.47880E-18
 -1      1040 9.40896E-05-2.69469E-05-2.87755E-05-6.90095E-07-7.50318E-19 4.78982E-19
 -1      1041 9.44308E-05-2.73369E-05-2.87546E-05-5.18862E-07-4.66662E-19 1.60918E-18
 -1      1042 9.46849E-05-2.76481E-05-2.87301E-05-3.80223E-07-3.69258E-18 1.36906E-18
 -1      1043 9.48708E-05-2.78926E-05-2.87050E-05-2.70559E-07-1.02953E-18 6.38356E-19
 -1      1044 9.50040E-05-2.80817E-05-2.86810E-05-1.85679E-07 1.00146E-19-1.17957E-18
 -1      1045 9.50970E-05-2.82257E-05-2.86591E-05-1.21543E-07 4.32929E-19-1.98254E-18
 -1      1046 9.51598E-05-2.83338E-05-2.86397E-05-7.36381E-08-1.84348E-19-2.94457E-18
 -1      1047 9.52000E-05-2.84133E-05-2.86228E-05-3.96247E-08 1.18250E-18-2.59870E-18
 -1      1048 8.28425E-05-1.86645E-05-2.75059E-05 1.91279E-06-4.49562E-19-1.10946E-18
 -1      1049 9.01014E-05-2.40967E-05-2.82874E-05 4.53497E-06-1.71226E-19 8.09844E-19
 -1      1050 8.87074E-05-2.43951E-05-2.75620E-05 7.60283E-06-4.39021E-19-4.04109E-19
 -1      1051 9.09249E-05-2.44279E-05-2.84986E-05 3.50477E-06-5.82315E-19 1.69130E-18
 -1      1052 9.17144E-05-2.48968E-05-2.86361E-05 2.70162E-06-9.59786E-19 1.38983E-18
 -1      1053 9.24293E-05-2.54202E-05-2.87182E-05 2.07225E-06-1.43441E-18 1.96161E-18
 -1      1054 9.30502E-05-2.59430E-05-2.87602E-05 1.57811E-06-2.00612E-18 1.35499E-18
 -1      1055 9.35718E-05-2.64312E-05-2.87746E-05 1.19055E-06-1.65714E-18 8.23923E-19
 -1      1056 9.39980E-05-2.68662E-05-2.87708E-05 8.87675E-07-2.14281E-19 1.50277E-18
 -1      1057 9.43374E-05-2.72401E-05-2.87560E-05 6.52407E-07 9.68938E-19 2.45551E-18
 -1      1058 9.46013E-05-2.75524E-05-2.87353E-05 4.71111E-07 9.30447E-19 3.79735E-18
 -1      1059 9.48017E-05-2.78066E-05-2.87122E-05 3.32779E-07 3.10300E-19 4.06963E-18
 -1      1060 9.49500E-05-2.80089E-05-2.86890E-05 2.28459E-07 8.92882E-20 4.57704E-18
 -1      1061 9.50569E-05-2.81670E-05-2.86672E-05 1.50672E-07 2.44125E-19 5.57176E-18
 -1      1062 9.51314E-05-2.82877E-05-2.86473E-05 9.42266E-08 1.64554E-19 3.85931E-18
 -1      1063 9.51695E-05-2.83567E-05-2.86341E-05 6.12220E-08 1.13342E-18 2.27783E-18
 -1      1064 8.98145E-05-3.07326E-05-2.53012E-05 1.71107E-05-8.70301E-19 1.11959E-18
 -1      1065 8.57073E-05-1.91388E-05-2.85304E-05 1.75000E-06-4.95720E-19-1.04831E-18
 -1      1066 9.34522E-05-2.72389E-05-2.83762E-05-9.47371E-06-8.31994E-20-5.30306E-19
 -1      1067 9.52172E-05-2.84557E-05-2.86121E-05-1.86374E-08 2.65202E-18-2.40959E-18
 -1      1068 1.02572E-04-4.00005E-05-2.68038E-05-1.61185E-05-9.95467E-19-8.13094E-19
 -1      1069 8.93200E-05-2.40265E-05-2.79821E-05 5.86705E-06-9.60071E-19 1.45235E-18
 -1      1070 8.77012E-05-1.91531E-05-2.93782E-05 1.42980E-06-1.79956E-19-1.20281E-18
 -1      1071 8.88109E-05-1.86263E-05-3.00806E-05 9.38129E-07-1.97000E-19-1.30611E-18
 -1      1072 8.87184E-05-1.84687E-05-3.01072E-05-1.16974E-06 9.66172E-20-1.25129E-18
 -1      1073 9.29447E-05-2.54480E-05-2.89257E-05-7.57867E-06-9.84442E-20-4.59513E-19
 -1      1074 7.54050E-05-2.16932E-05-2.29675E-05-1.50261E-05-8.00355E-19-1.07494E-18
 -1      1075 9.04867E-05-2.28641E-05-2.89822E-05-5.99926E-06 2.39501E-19-5.34502E-19
 -1      1076 8.87316E-05-3.37491E-05-2.35154E-05-2.31663E-05-1.52020E-18-7.35006E-19
 -1      1077 7.35420E-05-1.75064E-05-2.39959E-05 6.37131E-06-8.17151E-20 9.73482E-19
 -1      1078 8.85356E-05-2.54704E-05-2.70278E-05 9.89572E-06-2.04703E-19-5.23472E-19
 -1      1079 8.81775E-05-2.71163E-05-2.61710E-05 1.30593E-05-3.90483E-19 8.40682E-19
 -1      1080 8.98123E-05-2.56956E-05-2.74789E-05-1.06015E-05-1.88889E-19-8.25735E-19
 -1      1081 9.00013E-05-2.10872E-05-2.95359E-05-3.95264E-06 1.86074E-19-6.87215E-19
 -1      1082 9.51750E-05-2.83739E-05-2.86291E-05-1.33489E-08 2.09349E-18 1.46719E-18
 -1      1083 8.84097E-05-1.96955E-05-2.94478E-05-2.50372E-06 6.64555E-20-1.14636E-18
 -1      1084 7.75215E-05-1.79719E-05-2.55276E-05-3.40226E-06-3.53744E-19-1.14102E-18
 -1      1085 9.51598E-05-2.83474E-05-2.86338E-05 1.27869E-08 3.22307E-18 3.10662E-18
 -1      1086 9.04276E-05-2.82300E-05-2.66628E-05-1.36860E-05-4.88890E-19-6.84802E-19
 -1      1087 9.51612E-05-2.83472E-05-2.86344E-05 3.72265E-08 2.30808E-18 2.66873E-18
 -1      1088 8.26656E-05-2.65853E-05-2.40101E-05-1.78043E-05-8.47346E-19-2.51588E-19
 -1      1089 9.00248E-05-2.40752E-05-2.82633E-05-8.06958E-06 1.38664E-19-7.41109E-19
 -1      1090 7.43854E-05-1.66667E-05-2.47298E-05-6.90705E-07 9.10768E-19 1.02708E-18
 -1      1091 7.84555E-05-1.80689E-05-2.58788E-05 1.10995E-06 7.42588E-19 1.36237E-18
 -1      1092 8.20562E-05-1.93189E-05-2.68900E-05 3.27963E-07 2.89907E-19 1.49610E-18
 -1      1093 8.48489E-05-2.04989E-05-2.75792E-05-1.88729E-07-3.57353E-20 8.93034E-19
 -1      1094 8.70711E-05-2.16364E-05-2.80436E-05-4.80767E-07 3.21348E-19 7.12812E-19
 -1      1095 8.88581E-05-2.27056E-05-2.83511E-05-6.19445E-07-3.40717E-19 4.51793E-19
 -1      1096 9.02994E-05-2.36887E-05-2.85475E-05-6.54215E-07-4.63229E-19 7.66123E-20
 -1      1097 9.14581E-05-2.45714E-05-2.86658E-05-6.23252E-07-5.11325E-19-1.31313E-19
 -1      1098 9.23828E-05-2.53457E-05-2.87302E-05-5.55408E-07 2.96320E-19-1.75191E-18
 -1      1099 9.31136E-05-2.60104E-05-2.87585E-05-4.71219E-07 6.75672E-19-1.25731E-18
 -1      1100 9.36840E-05-2.65694E-05-2.87634E-05-3.84269E-07-6.40291E-19-1.86513E-18
 -1      1101 9.41233E-05-2.70308E-05-2.87540E-05-3.02754E-07-6.61024E-19-1.46340E-18
 -1      1102 9.44565E-05-2.74049E-05-2.87364E-05-2.30976E-07-1.66495E-18-2.52775E-18
 -1      1103 9.47049E-05-2.77030E-05-2.87151E-05-1.70573E-07-2.45874E-18-1.23924E-19
 -1      1104 9.48866E-05-2.79367E-05-2.86928E-05-1.21636E-07-1.71019E-18-5.93511E-19
 -1      1105 9.50165E-05-2.81171E-05-2.86711E-05-8.27951E-08-3.37511E-19-2.39106E-18
 -1      1106 9.51058E-05-2.82530E-05-2.86511E-05-5.31810E-08 3.23367E-19-2.05095E-18
 -1      1107 8.00239E-05-2.12697E-05-2.51804E-05 1.02177E-05 4.89827E-19 9.60512E-19
 -1      1108 9.03515E-05-2.39114E-05-2.84747E-05 2.11434E-06-1.11535E-18-5.10431E-19
 -1      1109 8.80767E-05-2.09187E-05-2.87824E-05-4.40093E-06 2.59262E-19-9.13090E-19
 -1      1110 8.91773E-05-2.32480E-05-2.82559E-05 2.86947E-06 8.39555E-20-1.18408E-18
 -1      1111 9.22274E-05-2.52656E-05-2.86981E-05 1.14750E-06-1.14549E-18 2.10319E-18
 -1      1112 9.29392E-05-2.58771E-05-2.87410E-05 8.41891E-07-8.65292E-19 1.01427E-19
 -1      1113 9.35167E-05-2.64183E-05-2.87565E-05 6.14101E-07-3.37728E-19-1.64097E-18
 -1      1114 9.39759E-05-2.68827E-05-2.87543E-05 4.44136E-07 3.98849E-19-1.31427E-18
 -1      1115 9.43340E-05-2.72711E-05-2.87413E-05 3.17430E-07-9.53297E-19-1.82388E-19
 -1      1116 9.46075E-05-2.75884E-05-2.87225E-05 2.23259E-07 2.94098E-19 2.53664E-18
 -1      1117 9.48121E-05-2.78424E-05-2.87013E-05 1.53627E-07-6.19728E-19 3.71722E-18
 -1      1118 9.49621E-05-2.80417E-05-2.86799E-05 1.04033E-07-8.59042E-19 5.23683E-18
 -1      1119 9.50672E-05-2.81951E-05-2.86595E-05 6.82232E-08 1.69196E-18 6.02182E-18
 -1      1120 8.66894E-05-1.92120E-05-2.89192E-05-8.13295E-07-4.64598E-20-1.23214E-18
 -1      1121 7.93798E-05-2.13542E-05-2.48602E-05-1.13904E-05-6.66420E-19-5.07593E-19
 -1      1122 8.78533E-05-2.26794E-05-2.79318E-05 3.90050E-06-3.98425E-19-7.26963E-19
 -1      1123 8.16136E-05-1.87098E-05-2.69553E-05-2.04846E-06-4.95466E-19-8.08774E-19
 -1      1124 8.45764E-05-1.91570E-05-2.80333E-05-1.27559E-06-3.95691E-19-8.20565E-19
 -1      1125 8.22660E-05-2.06890E-05-2.63932E-05-7.78124E-06-4.59755E-19-1.43741E-19
 -1      1126 9.13677E-05-2.46002E-05-2.86150E-05 1.55868E-06-2.36988E-18 6.30707E-19
 -1      1127 8.63898E-05-2.22973E-05-2.74708E-05 5.34886E-06-1.13096E-18 9.71940E-20
 -1      1128 7.84160E-05-1.87093E-05-2.55863E-05 4.78670E-06 8.77383E-19 5.87811E-19
 -1      1129 8.49962E-05-2.23531E-05-2.68498E-05 7.38680E-06 5.14596E-20 1.67210E-20
 -1      1130 9.51210E-05-2.82793E-05-2.86465E-05 5.09798E-08 2.36698E-18 5.17430E-18
 -1      1131 9.17939E-05-3.18848E-05-2.56544E-05-1.73803E-05-9.07705E-19-7.65532E-19
 -1      1132 9.50735E-05-2.82069E-05-2.86572E-05-4.51622E-09 1.09855E-18-3.68429E-20
 -1      1133 8.76080E-05-1.89750E-05-2.94138E-05-2.90656E-07-1.04936E-19-1.35943E-18
 -1      1134 8.57143E-05-2.09827E-05-2.77404E-05-5.84958E-06-1.51263E-19-6.43125E-19
 -1      1135 8.42953E-05-2.06904E-05-2.72562E-05 2.88446E-06-3.02023E-19 5.71621E-19
 -1      1136 8.63802E-05-2.15128E-05-2.78008E-05 1.85860E-06-3.70692E-19 3.69896E-19
 -1      1137 8.81769E-05-2.24310E-05-2.81764E-05 1.17882E-06 1.33446E-19 2.25134E-19
 -1      1138 8.96670E-05-2.33377E-05-2.84264E-05 7.29898E-07-1.32550E-18 3.66092E-19
 -1      1139 9.08966E-05-2.41953E-05-2.85859E-05 4.38366E-07-1.49674E-18-1.10412E-18
 -1      1140 9.19020E-05-2.49788E-05-2.86811E-05 2.53126E-07-8.68714E-19-3.21360E-18
 -1      1141 9.27141E-05-2.56734E-05-2.87315E-05 1.38603E-07 9.53664E-19-2.80863E-18
 -1      1142 9.33610E-05-2.62733E-05-2.87517E-05 7.01408E-08 3.31614E-20-2.64649E-18
 -1      1143 9.38686E-05-2.67794E-05-2.87524E-05 3.09275E-08-5.10515E-19-2.98684E-18
 -1      1144 9.42604E-05-2.71974E-05-2.87412E-05 9.74143E-09-1.27330E-18-2.13971E-18
 -1      1145 9.45575E-05-2.75360E-05-2.87234E-05-7.32806E-10-1.28143E-18-2.65555E-18
 -1      1146 9.47783E-05-2.78051E-05-2.87028E-05-5.21502E-09-1.68556E-18-1.50425E-18
 -1      1147 9.49394E-05-2.80162E-05-2.86815E-05-4.67522E-09-1.26776E-18-1.60806E-18
 -1      1148 8.65310E-05-2.00089E-05-2.85165E-05-3.21140E-06 1.81189E-19-1.00902E-18
 -1      1149 8.25587E-05-2.01948E-05-2.67240E-05 4.18400E-06 4.40459E-19 3.14793E-19
 -1      1150 1.16412E-04 2.57441E-10-4.18187E-05-4.04953E-05-1.85500E-19 7.14557E-18
 -1      1151 8.93529E-05 7.48077E-11-3.74840E-05-2.28308E-05-1.08103E-19 1.51158E-18
 -1      1152 8.48920E-05 4.32216E-11-3.60662E-05-1.61968E-05-8.54444E-20-9.77000E-19
 -1      1153 8.29278E-05 3.21106E-11-3.53081E-05-1.20051E-05-5.00544E-20-2.22927E-18
 -1      1154 8.17521E-05 2.56754E-11-3.48410E-05-8.77081E-06-2.86138E-20-2.86730E-18
 -1      1155 8.09479E-05 2.14403E-11-3.45266E-05-6.14995E-06-2.62051E-20-3.18136E-18
 -1      1156 8.03994E-05 1.86527E-11-3.43137E-05-3.92465E-06-9.79382E-21-3.32188E-18
 -1      1157 8.00756E-05 1.71183E-11-3.41883E-05-1.92557E-06 1.98523E-23-3.29797E-18
 -1      1158 7.99793E-05 1.67496E-11-3.41502E-05-3.55667E-08 1.03183E-20-3.22059E-18
 -1      1159 8.01062E-05 1.74876E-11-3.41976E-05 1.87624E-06 1.68083E-20-3.07342E-18
 -1      1160 8.04483E-05 1.93112E-11-3.43279E-05 3.93587E-06 2.65889E-20-2.84678E-18
 -1      1161 8.09980E-05 2.22245E-11-3.45391E-05 6.24689E-06 4.46016E-20-2.48637E-18
 -1      1162 8.17808E-05 2.65193E-11-3.48465E-05 8.96269E-06 5.32307E-20-1.96197E-18
 -1      1163 8.29261E-05 3.28890E-11-3.53060E-05 1.22886E-05 7.30037E-20-1.02971E-18
 -1      1164 8.48420E-05 4.37535E-11-3.60675E-05 1.65426E-05 8.78797E-20 5.39163E-19
 -1      1165 8.90125E-05 6.96700E-11-3.75375E-05 2.27726E-05 8.60797E-20 3.45256E-18
 -1      1166 1.06447E-04 1.66060E-10-4.06349E-05 3.53198E-05 1.55431E-19 9.16225E-18
 -1      1167 1.29369E-04-2.57439E-05-4.01875E-05-2.54632E-05-7.71647E-19 1.07688E-17
 -1      1168 9.82453E-05-2.91110E-05-3.18181E-05-5.57845E-07-2.42860E-19 8.98331E-18
 -1      1169 9.22223E-05-2.76605E-05-2.85020E-05 4.10215E-07-9.30148E-20 6.41303E-18
 -1      1170 9.15175E-05-2.75684E-05-2.76380E-05 2.67033E-07-2.23273E-20 4.59322E-18
 -1      1171 9.25878E-05-2.78734E-05-2.78287E-05 1.90489E-07 1.72087E-20 3.59735E-18
 -1      1172 9.47645E-05-2.84991E-05-2.84736E-05 1.58947E-07-2.77933E-21 3.30748E-18
 -1      1173 9.78009E-05-2.93914E-05-2.93942E-05 1.52831E-07-4.58605E-20 2.86228E-18
 -1      1174 1.01622E-04-3.05257E-05-3.05482E-05 1.65140E-07 4.35329E-20 2.04098E-18
 -1      1175 1.06197E-04-3.18873E-05-3.19196E-05 1.91895E-07 7.74820E-21 1.47760E-18
 -1      1176 1.11438E-04-3.34453E-05-3.34709E-05 2.26728E-07-7.81318E-20 5.95808E-19
 -1      1177 1.17069E-04-3.51136E-05-3.51010E-05 2.53985E-07 7.84291E-20 7.40095E-20
 -1      1178 1.22448E-04-3.66974E-05-3.65958E-05 2.39825E-07 1.45245E-19 1.06274E-18
 -1      1179 1.26375E-04-3.78379E-05-3.75910E-05 1.26482E-07 5.41969E-21 4.38975E-19
 -1      1180 1.27066E-04-3.80066E-05-3.76020E-05-1.52864E-07 3.74547E-20 6.88241E-19
 -1      1181 1.22634E-04-3.66548E-05-3.62080E-05-6.08275E-07-4.36420E-20 1.48644E-18
 -1      1182 1.12446E-04-3.36315E-05-3.34071E-05-1.08089E-06 4.13425E-20 1.76479E-18
 -1      1183 9.89235E-05-2.96919E-05-2.99550E-05-1.21218E-06 1.21559E-19 2.07343E-18
 -1      1184 8.78753E-05-2.65242E-05-2.72709E-05-7.06586E-07-2.22492E-19 1.25996E-19
 -1      1185 8.53769E-05-2.58168E-05-2.66831E-05 2.54153E-07-4.90485E-20-2.70249E-18
 -1      1186 9.29958E-05-2.79924E-05-2.85204E-05 1.04682E-06 1.01247E-21-3.31179E-18
 -1      1187 1.06420E-04-3.18742E-05-3.18694E-05 1.22019E-06-2.09170E-19-5.30285E-18
 -1      1188 1.19134E-04-3.56139E-05-3.52385E-05 8.69966E-07 3.01193E-19-3.82520E-18
 -1      1189 1.26875E-04-3.79358E-05-3.74873E-05 3.73378E-07 1.91264E-19-8.82450E-19
 -1      1190 1.28949E-04-3.85921E-05-3.82656E-05 1.85085E-09-8.08453E-20-8.46629E-19
 -1      1191 1.26855E-04-3.80032E-05-3.78408E-05-1.83238E-07-2.80150E-20-2.61495E-19
 -1      1192 1.22553E-04-3.67461E-05-3.67046E-05-2.32191E-07 7.94904E-20 6.98035E-19
 -1      1193 1.17563E-04-3.52728E-05-3.52949E-05-2.11672E-07 2.82014E-19 1.52736E-18
 -1      1194 1.12782E-04-3.38527E-05-3.38976E-05-1.67305E-07-8.53320E-20-1.67228E-18
 -1      1195 1.08623E-04-3.26119E-05-3.26580E-05-1.22017E-07 4.77713E-20-2.04606E-18
 -1      1196 1.05207E-04-3.15887E-05-3.16275E-05-8.43681E-08 2.05890E-19-1.38416E-18
 -1      1197 1.02503E-04-3.07761E-05-3.08059E-05-5.59258E-08-2.97184E-19-1.95699E-18
 -1      1198 1.00418E-04-3.01479E-05-3.01696E-05-3.55605E-08 2.50073E-19-2.02214E-18
 -1      1199 9.88443E-05-2.96723E-05-2.96876E-05-2.14720E-08 2.51995E-19-3.44369E-18
 -1      1200 9.76774E-05-2.93189E-05-2.93294E-05-1.19788E-08 2.96379E-19-3.48709E-18
 -1      1201 9.68276E-05-2.90608E-05-2.90679E-05-5.74162E-09-7.00126E-21-4.74710E-18
 -1      1202 9.62206E-05-2.88761E-05-2.88807E-05-1.76561E-09 3.12647E-19-6.40148E-18
 -1      1203 9.57967E-05-2.87467E-05-2.87496E-05 6.63467E-10 1.22796E-19-5.43859E-18
 -1      1204 9.55092E-05-2.86586E-05-2.86604E-05 2.05022E-09-1.27092E-19-3.37460E-18
 -1      1205 9.53215E-05-2.86009E-05-2.86019E-05 2.74848E-09 9.38153E-20-2.08393E-18
 -1      1206 9.52060E-05-2.85651E-05-2.85655E-05 3.00531E-09 2.61473E-19-4.81137E-19
 -1      1207 9.51415E-05-2.85448E-05-2.85450E-05 2.99249E-09-3.39505E-19-1.32059E-18
 -1      1208 9.51125E-05-2.85354E-05-2.85354E-05 2.82856E-09 9.94685E-21-3.44475E-18
 -1      1209 9.51073E-05-2.85334E-05-2.85332E-05 2.59416E-09 9.48179E-20-3.37770E-18
 -1      1210 9.51176E-05-2.85361E-05-2.85359E-05 2.34217E-09-2.92620E-19-9.41274E-19
 -1      1211 9.51374E-05-2.85417E-05-2.85415E-05 2.10342E-09-4.51067E-20 3.39673E-20
 -1      1212 9.51622E-05-2.85489E-05-2.85487E-05 1.88726E-09 2.94222E-19 3.55734E-18
 -1      1213 9.51884E-05-2.85566E-05-2.85562E-05 1.67052E-09 6.00613E-19 2.43159E-18
 -1      1214 9.52126E-05-2.85637E-05-2.85632E-05 1.33932E-09 2.66263E-20 2.58752E-18
 -1      1215 9.52306E-05-2.85689E-05-2.85683E-05 6.51020E-10-4.17198E-19-2.56221E-19
 -1      1216 9.52377E-05-2.85714E-05-2.85713E-05-2.66348E-10 5.14106E-19 1.98469E-19
 -1      1217 1.30249E-04-3.74345E-05-3.86325E-05 1.19801E-05-1.62895E-19 1.37376E-17
 -1      1218 9.74173E-05-2.84581E-05-3.15824E-05 7.56679E-07 5.83923E-20 1.17321E-17
 -1      1219 9.23418E-05-2.75341E-05-2.84560E-05 1.08809E-07 1.85752E-20 9.36251E-18
 -1      1220 9.13660E-05-2.74200E-05-2.75970E-05 8.74402E-09 1.73476E-20 7.90115E-18
 -1      1221 9.21367E-05-2.76788E-05-2.76953E-05-2.39958E-08 9.39181E-21 6.68351E-18
 -1      1222 9.38502E-05-2.81850E-05-2.81862E-05-3.84456E-08-2.23918E-21 5.81030E-18
 -1      1223 9.61307E-05-2.88570E-05-2.88640E-05-5.15355E-08-9.58802E-20 5.81070E-18
 -1      1224 9.87466E-05-2.96298E-05-2.96380E-05-6.82501E-08-1.53578E-20 5.73362E-18
 -1      1225 1.01480E-04-3.04370E-05-3.04377E-05-8.94461E-08 9.61898E-20 4.34593E-18
 -1      1226 1.04058E-04-3.11962E-05-3.11778E-05-1.12711E-07 1.49761E-20 3.52415E-18
 -1      1227 1.06109E-04-3.17981E-05-3.17463E-05-1.30943E-07 6.66426E-20 3.00615E-18
 -1      1228 1.07159E-04-3.21047E-05-3.20056E-05-1.31058E-07 7.91579E-20 3.45011E-18
 -1      1229 1.06690E-04-3.19666E-05-3.18153E-05-9.54516E-08 1.06647E-19 3.04980E-18
 -1      1230 1.04296E-04-3.12672E-05-3.10811E-05-9.60024E-09-6.58403E-20 2.41918E-18
 -1      1231 9.99478E-05-2.99956E-05-2.98247E-05 1.23296E-07 4.91163E-20 1.76458E-18
 -1      1232 9.42611E-05-2.83237E-05-2.82436E-05 2.68207E-07 4.88066E-20 4.01547E-19
 -1      1233 8.85759E-05-2.66339E-05-2.67115E-05 3.61335E-07-1.29010E-19 1.68337E-18
 -1      1234 8.46254E-05-2.54344E-05-2.56775E-05 3.42554E-07 1.17734E-19 1.42259E-18
 -1      1235 8.38096E-05-2.51544E-05-2.54856E-05 2.01621E-07 2.64698E-20 3.25466E-19
 -1      1236 8.64725E-05-2.59212E-05-2.62132E-05-5.36202E-09-6.75740E-20 3.05461E-19
 -1      1237 9.17142E-05-2.74821E-05-2.76339E-05-1.90705E-07-9.08790E-20 1.01104E-18
 -1      1238 9.78872E-05-2.93416E-05-2.93301E-05-2.90809E-07 7.90615E-20 7.05684E-19
 -1      1239 1.03389E-04-3.10069E-05-3.08787E-05-2.95225E-07 5.81111E-20-2.31558E-19
 -1      1240 1.07226E-04-3.21694E-05-3.19973E-05-2.34130E-07 2.47410E-20-4.35296E-19
 -1      1241 1.09132E-04-3.27457E-05-3.25881E-05-1.48795E-07-7.87972E-20 8.64265E-19
 -1      1242 1.09365E-04-3.28154E-05-3.27008E-05-6.99423E-08 6.93260E-20 2.60207E-19
 -1      1243 1.08415E-04-3.25286E-05-3.24608E-05-1.15106E-08 4.27049E-20 5.02046E-19
 -1      1244 1.06785E-04-3.20376E-05-3.20080E-05 2.46953E-08 4.65543E-19-1.37852E-18
 -1      1245 1.04879E-04-3.14647E-05-3.14608E-05 4.27592E-08-5.60171E-20-1.62202E-18
 -1      1246 1.02974E-04-3.08929E-05-3.09038E-05 4.83401E-08 2.77799E-20-1.08102E-18
 -1      1247 1.01234E-04-3.03711E-05-3.03887E-05 4.64606E-08 8.48383E-20-1.57449E-19
 -1      1248 9.97377E-05-2.99224E-05-2.99418E-05 4.07995E-08-8.72001E-20 4.12015E-19
 -1      1249 9.85072E-05-2.95535E-05-2.95718E-05 3.37392E-08 6.77790E-20 7.11878E-19
 -1      1250 9.75312E-05-2.92608E-05-2.92768E-05 2.66673E-08 1.45747E-19-5.52603E-19
 -1      1251 9.67811E-05-2.90358E-05-2.90490E-05 2.02966E-08-2.69456E-19-5.16856E-20
 -1      1252 9.62217E-05-2.88680E-05-2.88783E-05 1.49189E-08 1.18002E-19-1.21668E-18
 -1      1253 9.58171E-05-2.87465E-05-2.87544E-05 1.05838E-08 3.40030E-19-7.03155E-18
 -1      1254 9.55343E-05-2.86615E-05-2.86674E-05 7.21416E-09 5.30010E-19-9.60724E-18
 -1      1255 9.53448E-05-2.86045E-05-2.86087E-05 4.67590E-09-4.28874E-20-8.36436E-18
 -1      1256 9.52251E-05-2.85684E-05-2.85713E-05 2.81898E-09-1.76555E-20-6.38472E-18
 -1      1257 9.51560E-05-2.85475E-05-2.85495E-05 1.49864E-09-2.04643E-19-5.87702E-18
 -1      1258 9.51229E-05-2.85375E-05-2.85387E-05 5.85584E-10-2.04904E-19-3.59628E-18
 -1      1259 9.51146E-05-2.85348E-05-2.85356E-05-3.05911E-11 2.88936E-19-5.92034E-18
 -1      1260 9.51225E-05-2.85371E-05-2.85375E-05-4.41873E-10 2.57205E-19-5.89238E-18
 -1      1261 9.51405E-05-2.85424E-05-2.85426E-05-7.24209E-10-3.78470E-19-2.83645E-18
 -1      1262 9.51641E-05-2.85493E-05-2.85494E-05-9.38505E-10 1.77466E-19-2.98621E-18
 -1      1263 9.51894E-05-2.85568E-05-2.85567E-05-1.12624E-09 1.05200E-19-6.26000E-18
 -1      1264 9.52130E-05-2.85638E-05-2.85634E-05-1.27125E-09-1.44386E-19-4.66703E-18
 -1      1265 9.52308E-05-2.85690E-05-2.85684E-05-1.12478E-09 3.59467E-19-6.12435E-18
 -1      1266 9.52376E-05-2.85714E-05-2.85713E-05 1.96455E-10 8.85616E-20-3.47025E-18
 -1      1267 9.52369E-05-2.85707E-05-2.85713E-05 1.01267E-10-3.98544E-18-6.13479E-19
 -1      1268 9.52393E-05-2.85777E-05-2.85684E-05-5.45344E-10-5.12242E-18-1.31625E-18
 -1      1269 9.52441E-05-2.85941E-05-2.85639E-05-1.16165E-09-4.15699E-18-1.07679E-18
 -1      1270 9.52500E-05-2.86140E-05-2.85583E-05-1.16118E-09-6.47521E-18 4.03189E-19
 -1      1271 9.52557E-05-2.86332E-05-2.85528E-05-9.55233E-10-6.19432E-18 6.36841E-19
 -1      1272 9.52604E-05-2.86491E-05-2.85482E-05-6.92264E-10-9.85025E-18-3.25170E-19
 -1      1273 9.52639E-05-2.86608E-05-2.85447E-05-4.55453E-10-6.03433E-18 6.31008E-19
 -1      1274 9.52660E-05-2.86680E-05-2.85425E-05-2.25978E-10-6.04184E-18-7.23221E-19
 -1      1275 9.52668E-05-2.86705E-05-2.85418E-05-1.09483E-11-6.32842E-18 4.81967E-20
 -1      1276 9.52661E-05-2.86684E-05-2.85424E-05 2.07607E-10-1.35153E-19 1.04539E-18
 -1      1277 9.52641E-05-2.86614E-05-2.85445E-05 4.46846E-10-3.74610E-18-1.68857E-18
 -1      1278 9.52606E-05-2.86498E-05-2.85480E-05 7.09883E-10-9.21956E-18 3.97873E-19
 -1      1279 9.52559E-05-2.86339E-05-2.85527E-05 9.73141E-10-9.37165E-18 1.86192E-19
 -1      1280 9.52501E-05-2.86144E-05-2.85582E-05 1.20407E-09-6.81585E-18-6.76994E-20
 -1      1281 9.52441E-05-2.85939E-05-2.85639E-05 1.40406E-09-1.86566E-18 2.74188E-19
 -1      1282 9.52395E-05-2.85780E-05-2.85684E-05 5.81135E-10 2.75146E-19-1.03505E-18
 -1      1283 9.52368E-05-2.85707E-05-2.85713E-05-4.43455E-11 3.44635E-19 2.81034E-19
 -1      1284 3.46315E-05-1.07189E-04 1.80964E-05-1.33588E-05 5.98513E-18 1.41971E-18
 -1      1285 1.75340E-05-6.46612E-05 9.56729E-06-2.43809E-05 1.10207E-17 3.91859E-18
 -1      1286 7.64900E-06-9.27986E-06-5.76662E-06-1.04312E-07 1.52059E-17 9.66888E-18
 -1      1287 3.24405E-05 2.46764E-05-2.53668E-05 5.16088E-05 1.88990E-17 1.79901E-17
 -1      1288 1.06355E-04 1.37537E-05-4.59801E-05 9.99329E-05 1.42107E-17 2.01424E-17
 -1      1289 2.06099E-04-3.22059E-05-6.39741E-05 1.06969E-04 7.14091E-18 1.58903E-17
 -1      1290 2.87182E-04-7.98427E-05-7.49881E-05 6.32973E-05 2.07417E-18 8.02310E-18
 -1      1291 3.08292E-04-9.26946E-05-7.77388E-05-1.51819E-05 4.61527E-19-2.90109E-20
 -1      1292 2.56576E-04-6.09688E-05-7.12263E-05-8.72049E-05 2.83523E-18-7.96550E-18
 -1      1293 1.61254E-04-9.16224E-06-5.66764E-05-1.12160E-04 7.99684E-18-1.40540E-17
 -1      1294 7.34255E-05 2.34931E-05-3.85783E-05-8.59390E-05 1.34280E-17-1.61072E-17
 -1      1295 1.96594E-05 1.58530E-05-1.80022E-05-3.17908E-05 1.58598E-17-1.33264E-17
 -1      1296 9.34881E-06-3.13307E-05 1.26035E-06 1.50445E-05 1.33645E-17-6.81184E-18
 -1      1297 2.57069E-05-8.69149E-05 1.41527E-05 2.39003E-05 7.76899E-18-2.21097E-18
 -1      1298 3.69351E-05-1.14128E-04 1.95187E-05 2.21998E-06-2.98367E-19-8.87426E-19
 -1      1299 2.95095E-05-9.80316E-05 1.64058E-05-2.29660E-05-1.02051E-17-3.07589E-18
 -1      1300 1.15532E-05-4.67313E-05 5.16684E-06-2.24070E-05-1.62537E-17-7.53690E-18
 -1      1301 1.09072E-05 5.12007E-06-1.20707E-05 1.37613E-05-1.95597E-17-1.45978E-17
 -1      1302 5.06969E-05 2.52713E-05-3.20289E-05 6.81756E-05-1.77589E-17-1.92090E-17
 -1      1303 1.35094E-04 2.20395E-06-5.22327E-05 1.08913E-04-1.30858E-17-2.10657E-17
 -1      1304 2.38584E-04-4.92219E-05-6.89004E-05 1.03111E-04-6.10584E-18-1.57455E-17
 -1      1305 3.08769E-04-8.98415E-05-7.83722E-05 4.26758E-05-1.37717E-18-7.46575E-18
 -1      1306 3.13358E-04-9.28562E-05-7.87302E-05-3.71709E-05-8.62438E-19 2.67451E-18
 -1      1307 2.51204E-04-5.64506E-05-7.07261E-05-9.63513E-05-4.44502E-18 1.22938E-17
 -1      1308 1.56207E-04-7.47190E-06-5.59089E-05-1.11670E-04-1.13977E-17 1.96850E-17
 -1      1309 6.98788E-05 2.25604E-05-3.74890E-05-8.13427E-05-1.69762E-17 2.05185E-17
 -1      1310 1.91262E-05 1.64681E-05-1.85676E-05-3.13084E-05-2.18230E-17 1.80266E-17
 -1      1311 7.02185E-06-2.29072E-05-1.29779E-06 1.19492E-05-1.98849E-17 1.16797E-17
 -1      1312 2.02384E-05-7.50731E-05 1.18752E-05 2.78417E-05-1.22388E-17 4.68875E-18
 -1      1313 3.47831E-05-1.09539E-04 1.87329E-05 1.35503E-05-2.92417E-18 1.40602E-18
 -1      1314 1.04769E-04-2.21052E-05-3.79545E-05-1.65628E-05-2.69251E-19 6.00250E-18
 -1      1315 9.13365E-05-6.97657E-06-3.63056E-05-1.89655E-05-8.60638E-19 3.38072E-19
 -1      1316 9.35912E-05-7.08809E-06-3.74315E-05-2.43732E-05-1.07150E-18 1.65071E-18
 -1      1317 8.68108E-05-4.26887E-06-3.54378E-05-1.46458E-05-8.49945E-19-1.52694E-18
 -1      1318 8.81534E-05-4.28196E-06-3.59138E-05-1.71685E-05-9.75994E-19-7.05076E-19
 -1      1319 9.32686E-05-1.08322E-05-3.54070E-05-1.73550E-05-1.49004E-18 3.32249E-19
 -1      1320 8.46029E-05-3.19572E-06-3.49057E-05-1.09632E-05-6.85753E-19-2.49299E-18
 -1      1321 8.54097E-05-3.17847E-06-3.51854E-05-1.27850E-05-7.86814E-19-2.05808E-18
 -1      1322 8.87140E-05-7.51160E-06-3.48748E-05-1.35565E-05-1.31759E-18-1.20853E-18
 -1      1323 8.31694E-05-2.55612E-06-3.45486E-05-7.97026E-06-4.69018E-19-3.02794E-18
 -1      1324 8.37229E-05-2.55051E-06-3.47337E-05-9.42325E-06-5.40831E-19-2.78380E-18
 -1      1325 8.61666E-05-5.79580E-06-3.45065E-05-1.01106E-05-9.93609E-19-2.06681E-18
 -1      1326 8.21810E-05-2.13478E-06-3.42989E-05-5.52232E-06-2.81619E-19-3.26849E-18
 -1      1327 8.25672E-05-2.13394E-06-3.44257E-05-6.71529E-06-3.64290E-19-3.14747E-18
 -1      1328 8.45011E-05-4.72854E-06-3.42392E-05-7.30282E-06-6.81488E-19-2.51743E-18
 -1      1329 8.15097E-05-1.85583E-06-3.41267E-05-3.37592E-06-1.34923E-19-3.34033E-18
 -1      1330 8.17642E-05-1.85708E-06-3.42103E-05-4.43110E-06-1.81384E-19-3.32153E-18
 -1      1331 8.33582E-05-4.02782E-06-3.40427E-05-4.94896E-06-3.81966E-19-2.75406E-18
 -1      1332 8.11509E-05-1.70309E-06-3.40335E-05-1.43546E-06 4.30084E-20-3.32756E-18
 -1      1333 8.12712E-05-1.70390E-06-3.40738E-05-2.40373E-06-1.44393E-20-3.33203E-18
 -1      1334 8.26272E-05-3.59839E-06-3.39099E-05-2.87852E-06-1.21385E-19-2.78039E-18
 -1      1335 8.10971E-05-1.66704E-06-3.40196E-05 4.32458E-07 1.92267E-19-3.23964E-18
 -1      1336 8.10850E-05-1.66674E-06-3.40171E-05-5.15089E-07 1.52157E-19-3.29639E-18
 -1      1337 8.22894E-05-3.41069E-06-3.38442E-05-9.76212E-07 1.86018E-19-2.73566E-18
 -1      1338 8.13388E-05-1.74147E-06-3.40833E-05 2.35439E-06 3.53815E-19-3.06464E-18
 -1      1339 8.11987E-05-1.74021E-06-3.40392E-05 1.36467E-06 2.90069E-19-3.15978E-18
 -1      1340 8.23313E-05-3.44714E-06-3.38470E-05 8.87438E-07 3.80300E-19-2.65169E-18
 -1      1341 8.18656E-05-1.92426E-06-3.42218E-05 4.45260E-06 5.13388E-19-2.79132E-18
 -1      1342 8.16023E-05-1.92220E-06-3.41373E-05 3.35906E-06 4.54268E-19-2.94548E-18
 -1      1343 8.27404E-05-3.69960E-06-3.39162E-05 2.83502E-06 6.57622E-19-2.47754E-18
 -1      1344 8.26620E-05-2.21164E-06-3.44308E-05 6.80638E-06 6.94673E-19-2.42684E-18
 -1      1345 8.22817E-05-2.21345E-06-3.43068E-05 5.56911E-06 6.35943E-19-2.64268E-18
 -1      1346 8.35033E-05-4.16801E-06-3.40462E-05 4.96524E-06 9.40223E-19-2.16917E-18
 -1      1347 8.38028E-05-2.63432E-06-3.47317E-05 9.63431E-06 8.91211E-19-1.82262E-18
 -1      1348 8.32639E-05-2.64201E-06-3.45511E-05 8.13254E-06 8.11550E-19-2.17665E-18
 -1      1349 8.46451E-05-4.88614E-06-3.42353E-05 7.41444E-06 1.22614E-18-1.77019E-18
 -1      1350 8.54537E-05-3.25158E-06-3.51758E-05 1.30873E-05 1.06986E-18-8.57039E-19
 -1      1351 8.46634E-05-3.27566E-06-3.48987E-05 1.12232E-05 9.61965E-19-1.44104E-18
 -1      1352 8.62958E-05-5.96190E-06-3.44941E-05 1.03438E-05 1.51823E-18-1.15938E-18
 -1      1353 8.82003E-05-4.28939E-06-3.59133E-05 1.75133E-05 1.15519E-18 8.61062E-19
 -1      1354 8.68404E-05-4.33420E-06-3.54248E-05 1.50087E-05 1.04511E-18-1.66786E-19
 -1      1355 8.88216E-05-7.67866E-06-3.48540E-05 1.38969E-05 1.69012E-18-3.92282E-20
 -1      1356 9.42973E-05-7.10475E-06-3.73142E-05 2.38515E-05 9.08019E-19 3.97258E-18
 -1      1357 9.11002E-05-6.72692E-06-3.63095E-05 1.97304E-05 9.20195E-19 2.09900E-18
 -1      1358 9.34362E-05-1.10595E-05-3.53695E-05 1.81036E-05 1.66164E-18 1.85828E-18
 -1      1359 1.23447E-04-2.49726E-05-3.90338E-05 2.75525E-05 3.46966E-19 9.49376E-18
 -1      1360 1.00703E-04-1.46724E-05-3.74917E-05 2.30357E-05 3.88047E-19 5.71239E-18
 -1      1361 1.02615E-04-1.97260E-05-3.56234E-05 2.01077E-05 1.46234E-18 4.65783E-18
 -1      1362 1.03176E-04-2.80312E-05-3.48839E-05 6.73725E-06 6.88744E-19 9.35167E-18
 -1      1363 1.05927E-04-3.05004E-05-3.37303E-05-7.24556E-06-8.06587E-19 6.27556E-18
 -1      1364 9.96374E-05-2.82974E-05-3.11371E-05-4.38043E-06-7.74982E-19 5.30888E-18
 -1      1365 9.72658E-05-2.83788E-05-2.97742E-05-1.87414E-06-6.00520E-19 4.87173E-18
 -1      1366 9.56193E-05-2.82545E-05-2.89144E-05-1.43082E-06-6.11134E-19 3.92099E-18
 -1      1367 1.01096E-04-2.85651E-05-3.14506E-05-6.68990E-06-1.34948E-18 2.97608E-18
 -1      1368 9.44269E-05-2.80288E-05-2.84420E-05-1.59393E-07-4.68588E-19 3.60749E-18
 -1      1369 9.43614E-05-2.81208E-05-2.83375E-05-2.55755E-08-4.04511E-19 2.98590E-18
 -1      1370 9.72028E-05-2.84890E-05-2.95791E-05-1.84339E-06-1.03947E-18 2.38829E-18
 -1      1371 9.42144E-05-2.81045E-05-2.82858E-05 6.61866E-07-2.84702E-19 2.67382E-18
 -1      1372 9.49449E-05-2.83673E-05-2.84914E-05 7.58511E-07-3.06871E-19 2.24518E-18
 -1      1373 9.60670E-05-2.84926E-05-2.90004E-05 4.64852E-07-7.49611E-19 1.81434E-18
 -1      1374 9.54374E-05-2.85104E-05-2.86538E-05 1.22133E-06-6.63399E-20 2.14297E-18
 -1      1375 9.66799E-05-2.89069E-05-2.90211E-05 1.30241E-06-1.26410E-19 2.00752E-18
 -1      1376 9.64227E-05-2.87071E-05-2.90475E-05 1.84098E-06-3.84229E-19 1.23312E-18
 -1      1377 9.76267E-05-2.91767E-05-2.93231E-05 1.67839E-06-2.11570E-19 1.96060E-18
 -1      1378 9.92860E-05-2.96938E-05-2.98120E-05 1.75507E-06-2.73271E-19 1.54782E-18
 -1      1379 9.78174E-05-2.91579E-05-2.94512E-05 2.85371E-06-3.73019E-19 9.84305E-19
 -1      1380 1.00596E-04-3.00690E-05-3.02240E-05 2.09383E-06-4.75166E-20 1.51195E-18
 -1      1381 1.02638E-04-3.07034E-05-3.08233E-05 2.16977E-06-6.33538E-20 1.29380E-18
 -1      1382 1.00006E-04-2.98236E-05-3.01039E-05 3.71743E-06-2.69370E-19 1.02500E-18
 -1      1383 1.04255E-04-3.11719E-05-3.13271E-05 2.47441E-06-2.91268E-19 1.30198E-18
 -1      1384 1.06645E-04-3.19201E-05-3.20253E-05 2.54522E-06-2.78585E-19 8.72034E-19
 -1      1385 1.02854E-04-3.06892E-05-3.09529E-05 4.49665E-06-3.19666E-19 7.03699E-19
 -1      1386 1.08508E-04-3.24713E-05-3.25982E-05 2.77285E-06-2.49338E-19 8.03000E-19
 -1      1387 1.11154E-04-3.33151E-05-3.33647E-05 2.82238E-06-4.09937E-19 3.88073E-19
 -1      1388 1.06258E-04-3.17493E-05-3.19542E-05 5.14741E-06-4.23563E-19 5.95090E-19
 -1      1389 1.13156E-04-3.39301E-05-3.39657E-05 2.87100E-06-1.71200E-19 3.40163E-19
 -1      1390 1.15838E-04-3.48127E-05-3.47300E-05 2.86527E-06 1.67867E-19 3.43260E-19
 -1      1391 1.10069E-04-3.29956E-05-3.30441E-05 5.50229E-06-3.26913E-19 4.28083E-19
 -1      1392 1.17782E-04-3.54516E-05-3.52865E-05 2.56261E-06 3.39541E-19 1.11755E-19
 -1      1393 1.20061E-04-3.62452E-05-3.59155E-05 2.44545E-06-7.64977E-21 4.02208E-20
 -1      1394 1.14014E-04-3.43923E-05-3.41162E-05 5.24005E-06 1.07279E-19 9.15656E-20
 -1      1395 1.21625E-04-3.68267E-05-3.63171E-05 1.57156E-06-1.11643E-19 1.05482E-19
 -1      1396 1.22792E-04-3.72998E-05-3.66087E-05 1.27362E-06-1.23654E-19-1.30865E-19
 -1      1397 1.17614E-04-3.58276E-05-3.50070E-05 3.89292E-06-6.24290E-20-4.92080E-19
 -1      1398 1.23521E-04-3.76762E-05-3.67213E-05-3.25281E-07 3.40613E-19 4.09349E-19
 -1      1399 1.22697E-04-3.74982E-05-3.64482E-05-8.41197E-07 2.29242E-19 7.74823E-19
 -1      1400 1.20112E-04-3.70322E-05-3.55086E-05 9.94352E-07 3.77790E-19 1.21738E-19
 -1      1401 1.22098E-04-3.74444E-05-3.61703E-05-2.99640E-06 3.54801E-19 1.25626E-18
 -1      1402 1.18649E-04-3.63058E-05-3.52098E-05-3.63470E-06 5.24366E-20 1.47220E-18
 -1      1403 1.20528E-04-3.74993E-05-3.54361E-05-3.49667E-06 4.29274E-19 1.05793E-18
 -1      1404 1.16474E-04-3.55998E-05-3.45655E-05-5.54875E-06-3.43909E-19 1.89958E-18
 -1      1405 1.10775E-04-3.35219E-05-3.30790E-05-5.98544E-06-2.13757E-19 1.79560E-18
 -1      1406 1.17991E-04-3.65574E-05-3.47532E-05-8.50268E-06-1.62524E-20 1.82827E-18
 -1      1407 1.07512E-04-3.22187E-05-3.22799E-05-6.32264E-06-6.65384E-20 1.42365E-18
 -1      1408 1.01521E-04-2.98928E-05-3.07945E-05-6.11768E-06-6.62585E-19 9.43171E-19
 -1      1409 1.12584E-04-3.39218E-05-3.36800E-05-1.14451E-05-4.30701E-19 1.71630E-18
 -1      1410 9.86746E-05-2.86268E-05-3.01855E-05-3.98517E-06-1.06281E-18 2.06676E-19
 -1      1411 9.53392E-05-2.72804E-05-2.93875E-05-3.03437E-06-1.05379E-18-9.31127E-19
 -1      1412 1.06285E-04-3.05015E-05-3.26545E-05-9.41946E-06-1.32610E-18 2.46354E-19
 -1      1413 9.46903E-05-2.69716E-05-2.92626E-05 7.59380E-07-8.85917E-19-1.35979E-18
 -1      1414 9.59552E-05-2.74767E-05-2.95674E-05 1.91082E-06-7.18866E-19-2.38403E-18
 -1      1415 1.02610E-04-2.84010E-05-3.21339E-05-2.11999E-06-1.58713E-18-8.59464E-19
 -1      1416 9.79926E-05-2.83943E-05-2.99944E-05 5.10182E-06-4.66411E-19-2.81946E-18
 -1      1417 1.03152E-04-3.04293E-05-3.12554E-05 5.70731E-06-8.45577E-19-3.67697E-18
 -1      1418 1.04066E-04-2.92024E-05-3.23600E-05 6.55692E-06-1.21650E-18-2.21647E-18
 -1      1419 1.06561E-04-3.18601E-05-3.20400E-05 6.58797E-06-4.38142E-19-4.06025E-18
 -1      1420 1.12894E-04-3.42390E-05-3.36540E-05 6.42989E-06-1.48093E-19-4.35915E-18
 -1      1421 1.09728E-04-3.23027E-05-3.32476E-05 1.14667E-05-1.04338E-18-3.08738E-18
 -1      1422 1.15868E-04-3.53214E-05-3.44538E-05 5.14683E-06 4.47379E-19-3.90916E-18
 -1      1423 1.20750E-04-3.70190E-05-3.57709E-05 4.55828E-06 8.74747E-19-2.77435E-18
 -1      1424 1.16200E-04-3.56090E-05-3.44321E-05 1.07632E-05 3.29205E-19-3.06282E-18
 -1      1425 1.22280E-04-3.74200E-05-3.62902E-05 2.39617E-06 8.13324E-19-2.44830E-18
 -1      1426 1.24567E-04-3.81078E-05-3.69607E-05 1.79818E-06 3.23408E-19-1.88822E-18
 -1      1427 1.20548E-04-3.74983E-05-3.54353E-05 6.43094E-06 1.25947E-18-3.23782E-18
 -1      1428 1.24602E-04-3.79586E-05-3.70849E-05-1.12713E-07 3.15493E-19-1.12195E-18
 -1      1429 1.24533E-04-3.78308E-05-3.71125E-05-5.14619E-07 3.09418E-19-1.04904E-18
 -1      1430 1.21823E-04-3.77405E-05-3.59111E-05 1.49595E-06 6.89670E-19-1.76071E-18
 -1      1431 1.23497E-04-3.73769E-05-3.68934E-05-1.71782E-06 2.91512E-19-8.34420E-19
 -1      1432 1.21914E-04-3.67824E-05-3.64767E-05-1.90956E-06 5.32188E-19-1.62419E-19
 -1      1433 1.20555E-04-3.69172E-05-3.57771E-05-2.19019E-06 5.65937E-19-9.12625E-19
 -1      1434 1.20304E-04-3.62133E-05-3.60422E-05-2.43995E-06 4.15870E-19 1.40263E-19
 -1      1435 1.18036E-04-3.54412E-05-3.54075E-05-2.48470E-06 1.85419E-19 7.33054E-19
 -1      1436 1.17748E-04-3.56528E-05-3.51618E-05-4.19978E-06 6.83211E-19-1.52559E-19
 -1      1437 1.16242E-04-3.48675E-05-3.48833E-05-2.55676E-06-3.93324E-19 3.85876E-19
 -1      1438 1.13861E-04-3.40949E-05-3.41997E-05-2.52139E-06-5.67654E-19-2.90731E-19
 -1      1439 1.14289E-04-3.43316E-05-3.42734E-05-4.86954E-06-3.47532E-19 2.77800E-20
 -1      1440 1.12130E-04-3.35715E-05-3.36749E-05-2.34505E-06-6.44092E-19-1.41386E-18
 -1      1441 1.09948E-04-3.28845E-05-3.30397E-05-2.27610E-06-8.27712E-19-2.23347E-18
 -1      1442 1.10781E-04-3.31294E-05-3.32981E-05-4.71405E-06-1.40807E-18-1.38330E-18
 -1      1443 1.08408E-04-3.24336E-05-3.25642E-05-1.99750E-06 9.45103E-20-2.47807E-18
 -1      1444 1.06556E-04-3.18617E-05-3.20201E-05-1.92129E-06 3.74006E-19-2.20753E-18
 -1      1445 1.07562E-04-3.21050E-05-3.23616E-05-4.15405E-06-6.06092E-19-2.33068E-18
 -1      1446 1.05255E-04-3.14878E-05-3.16150E-05-1.62470E-06-3.81363E-20-1.32297E-18
 -1      1447 1.03754E-04-3.10309E-05-3.11719E-05-1.55384E-06-1.26009E-19-1.37252E-18
 -1      1448 1.04784E-04-3.12635E-05-3.15310E-05-3.45867E-06 3.73336E-19-2.08804E-18
 -1      1449 1.02694E-04-3.07292E-05-3.08405E-05-1.28055E-06-5.25107E-19-1.21457E-18
 -1      1450 1.01517E-04-3.03745E-05-3.04917E-05-1.21988E-06-2.39201E-19-1.65802E-18
 -1      1451 1.02482E-04-3.05889E-05-3.08313E-05-2.77364E-06-2.14855E-19-1.35117E-18
 -1      1452 1.00676E-04-3.01364E-05-3.02284E-05-9.85938E-07 3.80685E-19-1.79578E-18
 -1      1453 9.97733E-05-2.98669E-05-2.99605E-05-9.36335E-07 8.86853E-20-1.01264E-18
 -1      1454 1.00631E-04-3.00579E-05-3.02626E-05-2.16518E-06-3.05008E-19-4.37706E-19
 -1      1455 9.91201E-05-2.96825E-05-2.97560E-05-7.44624E-07-5.50073E-19-1.22416E-18
 -1      1456 9.84423E-05-2.94815E-05-2.95543E-05-7.05242E-07-7.63990E-19-1.85038E-18
 -1      1457 9.91769E-05-2.96467E-05-2.98124E-05-1.65484E-06-7.62460E-19-2.69239E-19
 -1      1458 9.79441E-05-2.93411E-05-2.93985E-05-5.52560E-07-2.81783E-19-2.44393E-18
 -1      1459 9.74441E-05-2.91937E-05-2.92494E-05-5.21925E-07 5.16558E-20-3.05756E-18
 -1      1460 9.80557E-05-2.93330E-05-2.94636E-05-1.24182E-06-7.47063E-19-1.04462E-18
 -1      1461 9.70707E-05-2.90885E-05-2.91327E-05-4.02809E-07-3.00440E-19-2.96880E-18
 -1      1462 9.67084E-05-2.89825E-05-2.90244E-05-3.79360E-07-1.21471E-19-3.83284E-18
 -1      1463 9.72063E-05-2.90973E-05-2.91982E-05-9.15656E-07-6.42433E-19-2.34985E-18
 -1      1464 9.64334E-05-2.89051E-05-2.89385E-05-2.87951E-07-2.78818E-20-4.76543E-18
 -1      1465 9.61763E-05-2.88304E-05-2.88615E-05-2.70255E-07 1.02792E-19-4.13606E-18
 -1      1466 9.65739E-05-2.89231E-05-2.89999E-05-6.62816E-07-2.74301E-19-2.11639E-18
 -1      1467 9.59776E-05-2.87745E-05-2.87995E-05-2.01130E-07 6.66579E-19-4.36121E-18
 -1      1468 9.57995E-05-2.87233E-05-2.87460E-05-1.87958E-07 4.51031E-19-3.59957E-18
 -1      1469 9.61113E-05-2.87967E-05-2.88543E-05-4.69846E-07 3.10434E-19-2.82616E-18
 -1      1470 9.56591E-05-2.86838E-05-2.87023E-05-1.36422E-07 4.10186E-19-2.83589E-18
 -1      1471 9.55396E-05-2.86498E-05-2.86662E-05-1.26758E-07-2.40988E-19-2.97755E-18
 -1      1472 9.57799E-05-2.87069E-05-2.87495E-05-3.24672E-07 7.09494E-19-2.74614E-18
 -1      1473 9.54432E-05-2.86228E-05-2.86362E-05-8.88996E-08-4.17226E-19-1.80883E-18
 -1      1474 9.53664E-05-2.86013E-05-2.86129E-05-8.19218E-08 8.80489E-19-1.99601E-18
 -1      1475 9.55481E-05-2.86447E-05-2.86758E-05-2.17015E-07-1.91059E-19-1.35456E-18
 -1      1476 9.53026E-05-2.85835E-05-2.85930E-05-5.45581E-08 4.36211E-19-2.17174E-18
 -1      1477 9.52565E-05-2.85709E-05-2.85789E-05-4.96107E-08-5.59231E-19-2.73668E-18
 -1      1478 9.53909E-05-2.86032E-05-2.86254E-05-1.38393E-07 6.60158E-19-2.03805E-18
 -1      1479 9.52164E-05-2.85598E-05-2.85665E-05-3.01952E-08 6.35695E-20-2.01361E-18
 -1      1480 9.51920E-05-2.85535E-05-2.85589E-05-2.67628E-08-4.60923E-19-2.67557E-18
 -1      1481 9.52889E-05-2.85768E-05-2.85924E-05-8.19448E-08 2.22988E-19-3.09033E-18
 -1      1482 9.51690E-05-2.85471E-05-2.85517E-05-1.32898E-08-2.53021E-19-2.71695E-18
 -1      1483 9.51595E-05-2.85451E-05-2.85486E-05-1.09724E-08 2.86012E-19-2.53298E-18
 -1      1484 9.52267E-05-2.85613E-05-2.85720E-05-4.22140E-08-2.83907E-19-2.65513E-18
 -1      1485 9.51485E-05-2.85422E-05-2.85452E-05-1.88956E-09 1.16436E-18-2.14272E-18
 -1      1486 9.51489E-05-2.85430E-05-2.85451E-05-3.82467E-10 5.46736E-19-1.54113E-18
 -1      1487 9.51930E-05-2.85534E-05-2.85606E-05-1.49305E-08 9.80043E-19-1.31062E-18
 -1      1488 9.51460E-05-2.85423E-05-2.85442E-05 5.48291E-09-2.56978E-19 2.26670E-20
 -1      1489 9.51527E-05-2.85448E-05-2.85460E-05 6.40447E-09 2.88459E-19 1.75272E-19
 -1      1490 9.51790E-05-2.85509E-05-2.85554E-05 3.18047E-09 1.31892E-18-3.46317E-19
 -1      1491 9.51551E-05-2.85456E-05-2.85468E-05 9.90124E-09 1.03698E-18 6.36658E-19
 -1      1492 9.51656E-05-2.85492E-05-2.85497E-05 1.03932E-08 1.27448E-18 2.21932E-18
 -1      1493 9.51782E-05-2.85518E-05-2.85545E-05 1.45522E-08 1.74702E-18 1.25872E-18
 -1      1494 9.51711E-05-2.85509E-05-2.85514E-05 1.20838E-08 1.25782E-18 2.79965E-18
 -1      1495 9.51832E-05-2.85550E-05-2.85548E-05 1.22386E-08 1.04720E-18 3.61409E-18
 -1      1496 9.51857E-05-2.85550E-05-2.85562E-05 2.08886E-08 2.13318E-18 4.21786E-18
 -1      1497 9.51901E-05-2.85571E-05-2.85570E-05 1.24141E-08-2.00659E-19 2.78555E-18
 -1      1498 9.52022E-05-2.85611E-05-2.85604E-05 1.22537E-08-6.07007E-19 2.16361E-18
 -1      1499 9.51977E-05-2.85594E-05-2.85593E-05 2.32335E-08 3.66549E-19 2.57915E-18
 -1      1500 9.52092E-05-2.85633E-05-2.85625E-05 1.09318E-08-9.33025E-19 1.63343E-18
 -1      1501 9.52195E-05-2.85668E-05-2.85653E-05 1.03829E-08-1.03222E-18 4.06628E-19
 -1      1502 9.52113E-05-2.85643E-05-2.85629E-05 2.19654E-08-1.66020E-18 4.64957E-19
 -1      1503 9.52254E-05-2.85688E-05-2.85670E-05 7.32004E-09-2.77428E-19 1.41415E-19
 -1      1504 9.52319E-05-2.85710E-05-2.85688E-05 6.39283E-09 1.85746E-20 3.84680E-21
 -1      1505 9.52240E-05-2.85692E-05-2.85661E-05 1.69414E-08-8.45882E-19-9.57932E-19
 -1      1506 9.52366E-05-2.85721E-05-2.85702E-05 7.44724E-10-5.62144E-19 2.40311E-19
 -1      1507 9.52349E-05-2.85738E-05-2.85689E-05 6.68783E-09-2.11968E-19-5.79012E-19
 -1      1508 9.80302E-05-2.88139E-05-3.01866E-05 2.51196E-06 7.15769E-19 7.78537E-18
 -1      1509 1.03411E-04-2.96637E-05-3.24117E-05 3.94670E-06 6.05576E-19 8.85287E-18
 -1      1510 1.03388E-04-2.71232E-05-3.29975E-05 1.17944E-05 1.16001E-18 6.02802E-18
 -1      1511 9.44181E-05-2.81428E-05-2.84736E-05 6.76184E-07 5.19191E-19 6.30664E-18
 -1      1512 9.58457E-05-2.81428E-05-2.92278E-05 1.00254E-06 5.30110E-19 7.14296E-18
 -1      1513 9.83107E-05-2.85949E-05-3.00762E-05 3.95010E-06 1.08611E-18 4.96795E-18
 -1      1514 9.35996E-05-2.80122E-05-2.80894E-05-1.96159E-07 4.42224E-19 5.24509E-18
 -1      1515 9.36644E-05-2.78606E-05-2.81936E-05-1.35978E-08 3.31878E-19 5.80792E-18
 -1      1516 9.57274E-05-2.83708E-05-2.89154E-05 8.87974E-07 8.31045E-19 3.99287E-18
 -1      1517 9.42466E-05-2.82384E-05-2.82677E-05-6.71260E-07 2.82548E-19 4.51426E-18
 -1      1518 9.36522E-05-2.79771E-05-2.81057E-05-5.52784E-07 2.53478E-19 4.95948E-18
 -1      1519 9.51518E-05-2.83756E-05-2.86349E-05-5.78454E-07 5.97985E-19 3.30164E-18
 -1      1520 9.57333E-05-2.86970E-05-2.87169E-05-9.61699E-07-2.32537E-20 4.21608E-18
 -1      1521 9.47660E-05-2.83541E-05-2.84318E-05-8.76989E-07 6.46491E-20 4.34573E-18
 -1      1522 9.57495E-05-2.86257E-05-2.87823E-05-1.40887E-06 2.98996E-19 2.97980E-18
 -1      1523 9.77294E-05-2.93075E-05-2.93153E-05-1.13793E-06 4.84198E-20 4.18221E-18
 -1      1524 9.65375E-05-2.89102E-05-2.89643E-05-1.07669E-06-2.45011E-20 4.09804E-18
 -1      1525 9.70613E-05-2.90591E-05-2.91590E-05-1.91457E-06-1.17393E-20 2.79527E-18
 -1      1526 9.99970E-05-3.00041E-05-2.99888E-05-1.21212E-06 4.45522E-19 3.53962E-18
 -1      1527 9.86929E-05-2.95815E-05-2.96074E-05-1.17468E-06 1.98469E-19 3.97018E-18
 -1      1528 9.88009E-05-2.96163E-05-2.96631E-05-2.19490E-06 3.52066E-19 2.46050E-18
 -1      1529 1.02299E-04-3.07189E-05-3.06655E-05-1.16454E-06 2.84596E-19 2.64637E-18
 -1      1530 1.01006E-04-3.03082E-05-3.02909E-05-1.15868E-06 4.28706E-19 3.27931E-18
 -1      1531 1.00742E-04-3.02418E-05-3.02209E-05-2.25517E-06 5.84696E-19 2.04937E-18
 -1      1532 1.04346E-04-3.13667E-05-3.12578E-05-9.55526E-07 1.23569E-19 2.29092E-18
 -1      1533 1.03225E-04-3.10197E-05-3.09381E-05-9.94936E-07-7.79849E-20 2.26399E-18
 -1      1534 1.02651E-04-3.08741E-05-3.07585E-05-2.04733E-06 2.74923E-19 1.47950E-18
 -1      1535 1.05774E-04-3.18366E-05-3.16575E-05-5.40064E-07 1.29887E-19 2.42030E-18
 -1      1536 1.05034E-04-3.16227E-05-3.14539E-05-6.41013E-07 1.93335E-19 2.50060E-18
 -1      1537 1.04256E-04-3.14340E-05-3.11922E-05-1.49637E-06 1.61287E-19 1.49010E-18
 -1      1538 1.06161E-04-3.19934E-05-3.17440E-05 1.05418E-07 2.41868E-19 2.35190E-18
 -1      1539 1.06046E-04-3.19949E-05-3.17253E-05-6.84330E-08 5.98879E-20 2.36811E-18
 -1      1540 1.05234E-04-3.18180E-05-3.14288E-05-5.38033E-07 1.17883E-19 1.74022E-18
 -1      1541 1.05114E-04-3.17008E-05-3.14133E-05 9.40648E-07 3.11060E-19 2.11945E-18
 -1      1542 1.05851E-04-3.19935E-05-3.16384E-05 7.00399E-07 2.38599E-19 2.33719E-18
 -1      1543 1.05244E-04-3.19005E-05-3.13805E-05 8.18860E-07 2.97282E-19 1.71925E-18
 -1      1544 1.02437E-04-3.08746E-05-3.06266E-05 1.81476E-06 2.28897E-20 1.42577E-18
 -1      1545 1.04127E-04-3.14899E-05-3.11146E-05 1.54769E-06 1.01330E-19 1.50014E-18
 -1      1546 1.04020E-04-3.15583E-05-3.09933E-05 2.41023E-06 5.25227E-19 1.12904E-18
 -1      1547 9.83525E-05-2.95624E-05-2.94668E-05 2.45254E-06 2.10380E-19 9.44918E-19
 -1      1548 1.00841E-04-3.04384E-05-3.01637E-05 2.23700E-06 2.73350E-19 1.51860E-18
 -1      1549 1.01520E-04-3.07264E-05-3.02859E-05 3.85509E-06 1.39128E-19 5.50505E-19
 -1      1550 9.36592E-05-2.80131E-05-2.81682E-05 2.52693E-06-1.88540E-19 1.00500E-18
 -1      1551 9.64491E-05-2.89634E-05-2.89304E-05 2.45984E-06-1.10180E-20 9.20407E-19
 -1      1552 9.80920E-05-2.94811E-05-2.93793E-05 4.59768E-06 9.16529E-20 1.18714E-18
 -1      1553 8.96475E-05-2.66650E-05-2.70785E-05 1.83478E-06-9.86860E-20 1.22579E-18
 -1      1554 9.19645E-05-2.74078E-05-2.76986E-05 1.98031E-06-1.57892E-19 8.53942E-19
 -1      1555 9.45432E-05-2.81047E-05-2.84912E-05 4.12540E-06-1.89252E-19 9.64493E-19
 -1      1556 8.76588E-05-2.59937E-05-2.65409E-05 4.87596E-07 5.91163E-19 3.34896E-19
 -1      1557 8.87278E-05-2.62617E-05-2.68210E-05 8.22114E-07 4.84900E-19 8.38774E-19
 -1      1558 9.19638E-05-2.70473E-05-2.78779E-05 2.31251E-06 3.30925E-19 3.95882E-19
 -1      1559 8.84493E-05-2.62702E-05-2.67443E-05-1.06204E-06-2.74869E-19 3.40666E-20
 -1      1560 8.78661E-05-2.59517E-05-2.65847E-05-6.56062E-07-4.20803E-20-2.83458E-20
 -1      1561 9.12853E-05-2.67354E-05-2.77372E-05-3.52493E-07 5.94207E-19-1.45322E-19
 -1      1562 9.17763E-05-2.73990E-05-2.76331E-05-2.24724E-06-4.38482E-19 3.55330E-19
 -1      1563 8.97272E-05-2.66054E-05-2.70812E-05-1.91815E-06-1.30820E-19 2.88362E-19
 -1      1564 9.27986E-05-2.73210E-05-2.81242E-05-2.92835E-06-2.52151E-19 1.93090E-19
 -1      1565 9.65404E-05-2.89803E-05-2.89360E-05-2.70894E-06-1.99401E-19 7.35225E-19
 -1      1566 9.36954E-05-2.79798E-05-2.81614E-05-2.55170E-06-3.60068E-19 5.16372E-19
 -1      1567 9.59912E-05-2.85774E-05-2.89273E-05-4.53124E-06-4.35157E-19 1.01895E-19
 -1      1568 1.01363E-04-3.05365E-05-3.02936E-05-2.44718E-06 2.01258E-19 6.66086E-19
 -1      1569 9.85305E-05-2.96117E-05-2.95082E-05-2.46657E-06 1.97269E-19 1.03645E-18
 -1      1570 9.98406E-05-3.00463E-05-2.99197E-05-4.79362E-06 2.41123E-20 8.21781E-19
 -1      1571 1.05168E-04-3.17198E-05-3.14040E-05-1.72592E-06 2.11616E-19-1.19643E-19
 -1      1572 1.02962E-04-3.10561E-05-3.07771E-05-1.86200E-06 2.31584E-19 4.76456E-19
 -1      1573 1.03318E-04-3.12976E-05-3.08550E-05-3.93419E-06 5.66235E-19 1.00281E-18
 -1      1574 1.07451E-04-3.23915E-05-3.21049E-05-8.71421E-07-3.23510E-19-4.16575E-19
 -1      1575 1.06144E-04-3.20457E-05-3.17203E-05-1.04865E-06-6.79909E-20-7.68907E-19
 -1      1576 1.05758E-04-3.20960E-05-3.15508E-05-2.49039E-06 2.59708E-19-4.23619E-19
 -1      1577 1.08228E-04-3.25833E-05-3.23761E-05-1.22273E-07-1.60341E-19 2.55251E-20
 -1      1578 1.07793E-04-3.25171E-05-3.22362E-05-2.84715E-07-3.66934E-19-2.30499E-19
 -1      1579 1.06950E-04-3.24122E-05-3.19260E-05-9.90681E-07-4.61918E-19-1.19318E-18
 -1      1580 1.07815E-04-3.24134E-05-3.22926E-05 4.13637E-07-1.68268E-19 5.77875E-19
 -1      1581 1.08055E-04-3.25462E-05-3.23487E-05 2.92387E-07-5.50836E-20 4.62778E-19
 -1      1582 1.07024E-04-3.23424E-05-3.19911E-05 2.31447E-07-3.41569E-19-2.97272E-20
 -1      1583 1.06624E-04-3.20177E-05-3.19674E-05 7.27119E-07 2.36259E-20 6.62896E-19
 -1      1584 1.07295E-04-3.22659E-05-3.21528E-05 6.51384E-07-1.00418E-19 8.36313E-19
 -1      1585 1.06274E-04-3.20200E-05-3.18124E-05 1.05460E-06 2.17714E-20 1.29721E-18
 -1      1586 1.05030E-04-3.15128E-05-3.15107E-05 8.59172E-07 2.15175E-19-1.51162E-19
 -1      1587 1.05915E-04-3.18091E-05-3.17631E-05 8.21804E-07 6.21887E-19 6.11995E-19
 -1      1588 1.05022E-04-3.15649E-05-3.14751E-05 1.49887E-06 7.66810E-19 1.14916E-18
 -1      1589 1.03319E-04-3.09834E-05-3.10091E-05 8.65211E-07-2.60580E-19 2.80646E-19
 -1      1590 1.04258E-04-3.12818E-05-3.12813E-05 8.55395E-07-3.09887E-19-2.80381E-19
 -1      1591 1.03543E-04-3.10662E-05-3.10583E-05 1.64913E-06-3.31932E-19 1.73629E-18
 -1      1592 1.01678E-04-3.04830E-05-3.05216E-05 7.95619E-07-1.34325E-19 1.11802E-18
 -1      1593 1.02568E-04-3.07566E-05-3.07825E-05 8.03155E-07-4.02688E-19 6.76038E-19
 -1      1594 1.02037E-04-3.05817E-05-3.06229E-05 1.60274E-06-6.40986E-19 1.92195E-18
 -1      1595 1.00211E-04-3.00405E-05-3.00823E-05 6.88604E-07-2.08277E-19 1.18348E-18
 -1      1596 1.00998E-04-3.02762E-05-3.03145E-05 7.05547E-07-1.44207E-19 6.36509E-19
 -1      1597 1.00632E-04-3.01441E-05-3.02095E-05 1.44327E-06-2.53049E-19 1.74012E-18
 -1      1598 9.89647E-05-2.96674E-05-2.97070E-05 5.69849E-07-1.82969E-19 1.39867E-18
 -1      1599 9.96261E-05-2.98614E-05-2.99031E-05 5.90698E-07-1.61787E-19 1.05137E-18
 -1      1600 9.93951E-05-2.97683E-05-2.98413E-05 1.23218E-06-3.37888E-19 1.51849E-18
 -1      1601 9.79470E-05-2.93645E-05-2.93992E-05 4.54876E-07 6.14098E-19 5.83675E-19
 -1      1602 9.84814E-05-2.95185E-05-2.95583E-05 4.76166E-07 4.75064E-19 1.01275E-18
 -1      1603 9.83534E-05-2.94576E-05-2.95284E-05 1.00989E-06 3.26727E-19 1.40561E-18
 -1      1604 9.71427E-05-2.91263E-05-2.91551E-05 3.51914E-07 4.77224E-19-3.02543E-19
 -1      1605 9.75603E-05-2.92446E-05-2.92799E-05 3.71676E-07 5.14574E-19 3.07791E-19
 -1      1606 9.75064E-05-2.92088E-05-2.92721E-05 8.00241E-07 1.07140E-18 7.57472E-19
 -1      1607 9.65253E-05-2.89442E-05-2.89672E-05 2.64395E-07-7.14676E-19 3.39910E-19
 -1      1608 9.68421E-05-2.90325E-05-2.90622E-05 2.81676E-07-1.96962E-19-1.31140E-19
 -1      1609 9.68383E-05-2.90151E-05-2.90688E-05 6.15372E-07 4.72304E-20 2.09619E-19
 -1      1610 9.60649E-05-2.88089E-05-2.88267E-05 1.92838E-07 1.93718E-18-2.73813E-18
 -1      1611 9.62981E-05-2.88728E-05-2.88969E-05 2.07323E-07 1.22469E-18-7.52088E-19
 -1      1612 9.63256E-05-2.88681E-05-2.89119E-05 4.59817E-07 1.29886E-18-9.25517E-19
 -1      1613 9.57314E-05-2.87114E-05-2.87248E-05 1.36139E-07 1.16546E-18-6.44438E-18
 -1      1614 9.58977E-05-2.87561E-05-2.87750E-05 1.47890E-07 1.16661E-18-4.37998E-18
 -1      1615 9.59427E-05-2.87596E-05-2.87942E-05 3.33542E-07 2.45085E-18-2.69819E-18
 -1      1616 9.54978E-05-2.86434E-05-2.86532E-05 9.24200E-08 1.65701E-19-7.30203E-18
 -1      1617 9.56121E-05-2.86733E-05-2.86878E-05 1.01700E-07 4.61214E-19-6.64391E-18
 -1      1618 9.56649E-05-2.86817E-05-2.87083E-05 2.34033E-07 1.35669E-18-4.30724E-18
 -1      1619 9.53407E-05-2.85979E-05-2.86049E-05 5.95488E-08-4.11383E-19-6.07312E-18
 -1      1620 9.54157E-05-2.86169E-05-2.86277E-05 6.67069E-08-4.92585E-19-6.94023E-18
 -1      1621 9.54697E-05-2.86276E-05-2.86476E-05 1.57644E-07-5.44528E-19-5.05134E-18
 -1      1622 9.52410E-05-2.85693E-05-2.85741E-05 3.54375E-08-4.79538E-19-4.69736E-18
 -1      1623 9.52869E-05-2.85803E-05-2.85881E-05 4.08420E-08-5.69581E-19-5.55100E-18
 -1      1624 9.53379E-05-2.85917E-05-2.86063E-05 1.00431E-07-8.72446E-19-4.43172E-18
 -1      1625 9.51831E-05-2.85529E-05-2.85560E-05 1.82032E-08-4.38160E-19-4.18316E-18
 -1      1626 9.52080E-05-2.85582E-05-2.85638E-05 2.22022E-08 1.97554E-19-4.25872E-18
 -1      1627 9.52537E-05-2.85693E-05-2.85797E-05 5.86172E-08-6.30715E-19-2.41496E-18
 -1      1628 9.51550E-05-2.85452E-05-2.85471E-05 6.23870E-09 7.53290E-19-3.73678E-18
 -1      1629 9.51652E-05-2.85466E-05-2.85504E-05 9.13955E-09-3.00581E-19-3.90841E-18
 -1      1630 9.52043E-05-2.85566E-05-2.85638E-05 2.88472E-08 1.00400E-19-3.30297E-18
 -1      1631 9.51474E-05-2.85434E-05-2.85445E-05-1.76627E-09-5.64221E-19-5.26470E-18
 -1      1632 9.51477E-05-2.85423E-05-2.85448E-05 2.93703E-10 1.54881E-19-4.40644E-18
 -1      1633 9.51798E-05-2.85509E-05-2.85557E-05 8.28914E-09 5.32108E-19-3.15204E-18
 -1      1634 9.51534E-05-2.85456E-05-2.85461E-05-6.83037E-09-7.46585E-19-3.37480E-18
 -1      1635 9.51472E-05-2.85428E-05-2.85444E-05-5.40762E-09-2.97282E-19-4.28133E-18
 -1      1636 9.51725E-05-2.85499E-05-2.85529E-05-5.33767E-09-6.54457E-19-2.83082E-18
 -1      1637 9.51677E-05-2.85501E-05-2.85503E-05-9.69216E-09 2.66203E-19-3.38357E-18
 -1      1638 9.51577E-05-2.85465E-05-2.85474E-05-8.75948E-09-5.32621E-19-4.07833E-18
 -1      1639 9.51764E-05-2.85519E-05-2.85536E-05-1.37736E-08-3.67814E-19-3.51221E-18
 -1      1640 9.51863E-05-2.85560E-05-2.85557E-05-1.08115E-08 8.42606E-19-4.48056E-18
 -1      1641 9.51745E-05-2.85520E-05-2.85523E-05-1.02851E-08 1.20887E-18-2.85885E-18
 -1      1642 9.51872E-05-2.85558E-05-2.85565E-05-1.82316E-08 7.96548E-19-4.04924E-18
 -1      1643 9.52057E-05-2.85621E-05-2.85613E-05-1.03556E-08-3.72642E-19-3.92967E-18
 -1      1644 9.51940E-05-2.85582E-05-2.85580E-05-1.02280E-08-1.35443E-19-4.04811E-18
 -1      1645 9.52013E-05-2.85607E-05-2.85604E-05-1.93926E-08 7.74694E-20-3.21675E-18
 -1      1646 9.52227E-05-2.85675E-05-2.85662E-05-8.16208E-09-7.18765E-19-3.37958E-18
 -1      1647 9.52129E-05-2.85644E-05-2.85634E-05-8.54684E-09 5.04162E-20-3.80654E-18
 -1      1648 9.52158E-05-2.85657E-05-2.85643E-05-1.73869E-08-2.29359E-19-3.22500E-18
 -1      1649 9.52338E-05-2.85712E-05-2.85695E-05-4.08135E-09-1.04615E-19-4.05390E-18
 -1      1650 9.52281E-05-2.85696E-05-2.85677E-05-5.00760E-09-4.15672E-19-4.46526E-18
 -1      1651 9.52281E-05-2.85703E-05-2.85675E-05-1.19332E-08 4.35302E-19-3.18391E-18
 -1      1652 9.52365E-05-2.85722E-05-2.85702E-05-9.25418E-10-2.14653E-18-2.83614E-18
 -1      1653 9.52397E-05-2.85827E-05-2.85671E-05-7.15894E-09-3.33399E-18-2.82738E-19
 -1      1654 9.52375E-05-2.85767E-05-2.85689E-05-6.05817E-09-3.60147E-18-3.52228E-19
 -1      1655 9.52447E-05-2.85972E-05-2.85632E-05-9.67175E-09-3.10857E-18-9.30986E-19
 -1      1656 9.52417E-05-2.85883E-05-2.85657E-05-9.38833E-09-2.26431E-18-6.44950E-19
 -1      1657 9.52395E-05-2.85845E-05-2.85663E-05-1.57292E-08-1.48455E-18-1.75278E-19
 -1      1658 9.52499E-05-2.86128E-05-2.85588E-05-9.93059E-09-4.86316E-18 2.16470E-19
 -1      1659 9.52468E-05-2.86034E-05-2.85615E-05-1.00598E-08-3.48516E-18-1.23274E-19
 -1      1660 9.52444E-05-2.85962E-05-2.85635E-05-1.87814E-08-1.58955E-18-4.81095E-19
 -1      1661 9.52545E-05-2.86272E-05-2.85546E-05-8.75029E-09-3.82076E-18 2.89961E-19
 -1      1662 9.52518E-05-2.86188E-05-2.85570E-05-9.09543E-09-4.63623E-18 4.18471E-19
 -1      1663 9.52488E-05-2.86082E-05-2.85603E-05-1.81660E-08-2.15593E-18 7.85765E-19
 -1      1664 9.52581E-05-2.86388E-05-2.85512E-05-6.84562E-09-5.82687E-18 7.95621E-20
 -1      1665 9.52560E-05-2.86322E-05-2.85531E-05-7.26808E-09-5.54059E-18-5.22307E-20
 -1      1666 9.52524E-05-2.86188E-05-2.85573E-05-1.53326E-08-3.35484E-18-9.92354E-19
 -1      1667 9.52606E-05-2.86472E-05-2.85486E-05-4.59451E-09-4.75442E-18 1.20956E-18
 -1      1668 9.52592E-05-2.86426E-05-2.85500E-05-5.04948E-09-5.91222E-18 5.44059E-19
 -1      1669 9.52551E-05-2.86272E-05-2.85549E-05-1.14076E-08-3.66838E-18 6.36696E-19
 -1      1670 9.52620E-05-2.86519E-05-2.85472E-05-2.24998E-09-4.99557E-18-1.54897E-18
 -1      1671 9.52613E-05-2.86495E-05-2.85479E-05-2.70381E-09-4.44818E-18 2.56200E-19
 -1      1672 9.52569E-05-2.86331E-05-2.85532E-05-7.00970E-09-4.06446E-18 9.08755E-19
 -1      1673 9.52623E-05-2.86528E-05-2.85469E-05 1.20047E-10-3.07570E-18 1.40272E-18
 -1      1674 9.52622E-05-2.86527E-05-2.85469E-05-3.34687E-10-4.14188E-18-9.36156E-20
 -1      1675 9.52578E-05-2.86361E-05-2.85523E-05-2.48449E-09-2.54574E-18-5.42682E-19
 -1      1676 9.52614E-05-2.86499E-05-2.85478E-05 2.52295E-09-1.81898E-18-1.04896E-19
 -1      1677 9.52621E-05-2.86521E-05-2.85471E-05 2.05791E-09-2.73491E-18 1.55751E-18
 -1      1678 9.52578E-05-2.86363E-05-2.85522E-05 2.09270E-09-2.00253E-18 1.76070E-18
 -1      1679 9.52594E-05-2.86432E-05-2.85498E-05 4.95058E-09-4.84912E-18-3.48517E-18
 -1      1680 9.52608E-05-2.86477E-05-2.85485E-05 4.47623E-09-1.22614E-18-2.92578E-18
 -1      1681 9.52570E-05-2.86335E-05-2.85531E-05 6.72143E-09-3.20750E-18-1.55379E-18
 -1      1682 9.52562E-05-2.86329E-05-2.85529E-05 7.24840E-09-4.15984E-18 1.15527E-18
 -1      1683 9.52583E-05-2.86395E-05-2.85510E-05 6.80782E-09-3.61700E-18-1.18916E-18
 -1      1684 9.52553E-05-2.86279E-05-2.85547E-05 1.12638E-08-1.59274E-18-2.58343E-18
 -1      1685 9.52519E-05-2.86193E-05-2.85569E-05 9.20160E-09-4.26786E-18-2.25476E-20
 -1      1686 9.52547E-05-2.86279E-05-2.85544E-05 8.83671E-09-4.46715E-18 1.87343E-18
 -1      1687 9.52526E-05-2.86195E-05-2.85572E-05 1.53941E-08-5.41188E-19 1.47173E-18
 -1      1688 9.52469E-05-2.86037E-05-2.85614E-05 1.02699E-08-2.97713E-18 4.29883E-19
 -1      1689 9.52501E-05-2.86133E-05-2.85587E-05 1.00986E-08-3.73058E-18 2.47456E-19
 -1      1690 9.52490E-05-2.86087E-05-2.85602E-05 1.84164E-08-4.39939E-19 6.03095E-19
 -1      1691 9.52418E-05-2.85886E-05-2.85656E-05 9.48193E-09-1.46549E-18 1.66410E-18
 -1      1692 9.52448E-05-2.85975E-05-2.85632E-05 9.75763E-09-2.62272E-18 1.68178E-18
 -1      1693 9.52444E-05-2.85965E-05-2.85634E-05 1.90957E-08-9.25990E-19 1.89986E-18
 -1      1694 9.52373E-05-2.85777E-05-2.85684E-05 8.44088E-09-1.16800E-18-1.04260E-18
 -1      1695 9.52394E-05-2.85837E-05-2.85668E-05 1.01158E-08-5.13001E-19-3.28639E-19
 -1      1696 9.52394E-05-2.85850E-05-2.85659E-05 1.82328E-08-1.43484E-18 2.24098E-18
 -1      1697 9.52328E-05-2.85757E-05-2.85672E-05 1.58497E-08-1.28724E-18-8.89461E-19
 -1      1698 2.05978E-05-6.69557E-05 1.38523E-05-5.74545E-06 4.85265E-18 2.76408E-18
 -1      1699 2.40937E-05-7.74038E-05 1.61190E-05 2.47699E-06 1.46516E-18 2.43183E-18
 -1      1700 1.96433E-05-3.85160E-05 3.90896E-06 3.73701E-06 8.63635E-18 5.36733E-18
 -1      1701 2.40893E-05-6.07447E-05 9.70339E-06 3.79061E-08 6.62888E-18 3.21250E-18
 -1      1702 3.60339E-05-1.24603E-05-1.18543E-05 2.94815E-05 1.18331E-17 1.06637E-17
 -1      1703 3.03044E-05-3.30004E-05-3.18480E-06 1.22129E-05 9.57825E-18 7.12482E-18
 -1      1704 7.31803E-05-1.12799E-07-3.05470E-05 5.98770E-05 1.25403E-17 1.41607E-17
 -1      1705 4.89434E-05-6.11903E-06-2.06600E-05 3.69141E-05 1.24073E-17 1.15959E-17
 -1      1706 1.40633E-04-1.77733E-05-4.95607E-05 7.49605E-05 9.24198E-18 1.28097E-17
 -1      1707 9.87803E-05-4.99297E-06-3.98980E-05 6.29401E-05 1.18093E-17 1.34289E-17
 -1      1708 2.05062E-04-4.29602E-05-6.44996E-05 5.84203E-05 5.70366E-18 9.05986E-18
 -1      1709 1.63705E-04-2.34390E-05-5.73639E-05 6.76979E-05 7.87423E-18 1.18220E-17
 -1      1710 2.49435E-04-6.25653E-05-7.35467E-05 2.51006E-05 3.36209E-18 4.08609E-18
 -1      1711 2.25405E-04-4.91409E-05-7.02560E-05 5.38212E-05 4.73047E-18 8.33650E-18
 -1      1712 2.45946E-04-5.98297E-05-7.38866E-05-2.67858E-05 2.41299E-18-9.04843E-19
 -1      1713 2.52198E-04-6.33881E-05-7.46101E-05 8.44236E-06 2.49282E-18 2.74873E-18
 -1      1714 1.97244E-04-3.59198E-05-6.50592E-05-6.30582E-05 4.23104E-18-5.54129E-18
 -1      1715 2.32707E-04-5.47444E-05-7.05505E-05-3.99602E-05 2.78695E-18-2.23405E-18
 -1      1716 1.35112E-04-1.21184E-05-5.06627E-05-7.34707E-05 7.15319E-18-9.13017E-18
 -1      1717 1.77813E-04-3.04493E-05-5.87224E-05-7.38152E-05 4.94837E-18-7.18707E-18
 -1      1718 7.97149E-05-2.89937E-06-3.32906E-05-5.60567E-05 9.82389E-18-9.40969E-18
 -1      1719 1.12961E-04-8.15629E-06-4.24355E-05-7.28424E-05 8.27128E-18-9.30381E-18
 -1      1720 4.52725E-05-1.95749E-05-1.38991E-05-2.72188E-05 8.91926E-18-7.40307E-18
 -1      1721 6.36246E-05-7.65505E-06-2.40346E-05-4.97570E-05 9.09967E-18-9.02090E-18
 -1      1722 2.47173E-05-4.51627E-05 3.21188E-06-2.75701E-06 7.19385E-18-4.68600E-18
 -1      1723 2.44798E-05-2.05551E-05-4.74541E-06-1.59553E-05 9.58333E-18-7.33361E-18
 -1      1724 2.43905E-05-7.10339E-05 1.34962E-05 8.74350E-07 3.07981E-18-2.12478E-18
 -1      1725 1.90216E-05-5.23485E-05 9.08520E-06 3.41330E-06 5.96904E-18-3.33228E-18
 -1      1726 2.25061E-05-7.46202E-05 1.60967E-05-5.35415E-06-3.00739E-18-2.90321E-18
 -1      1727 2.17702E-05-7.21435E-05 1.55031E-05 3.89981E-06 1.36859E-18-2.66879E-18
 -1      1728 1.93864E-05-5.87678E-05 1.13657E-05-5.97684E-06-8.75324E-18-4.37704E-18
 -1      1729 2.42117E-05-7.40207E-05 1.48665E-05-1.04073E-06-4.85477E-18-3.44065E-18
 -1      1730 2.31116E-05-2.97102E-05-9.07484E-07 9.08217E-06-1.19703E-17-8.06121E-18
 -1      1731 2.52869E-05-5.34158E-05 6.25549E-06 4.18196E-08-9.80441E-18-5.23297E-18
 -1      1732 4.51563E-05-6.65847E-06-1.78295E-05 3.74636E-05-1.34831E-17-1.20897E-17
 -1      1733 3.38929E-05-2.32893E-05-8.68965E-06 1.67613E-05-1.27843E-17-9.52573E-18
 -1      1734 9.42336E-05-4.83080E-06-3.68013E-05 6.70243E-05-1.17407E-17-1.46164E-17
 -1      1735 6.41752E-05-5.11204E-06-2.69767E-05 4.56557E-05-1.33238E-17-1.29833E-17
 -1      1736 1.64283E-04-2.48104E-05-5.53769E-05 7.85309E-05-8.90697E-18-1.39523E-17
 -1      1737 1.18950E-04-8.46488E-06-4.60651E-05 7.05208E-05-1.09826E-17-1.48036E-17
 -1      1738 2.29814E-04-5.27612E-05-6.95001E-05 5.70747E-05-4.91382E-18-9.41985E-18
 -1      1739 1.88594E-04-3.16739E-05-6.30029E-05 7.30463E-05-7.83887E-18-1.24582E-17
 -1      1740 2.57694E-04-6.50805E-05-7.57152E-05 8.52319E-06-3.06372E-18-2.69600E-18
 -1      1741 2.41175E-04-5.58044E-05-7.33449E-05 4.12598E-05-3.99058E-18-6.64243E-18
 -1      1742 2.48348E-04-5.97859E-05-7.43585E-05-3.81753E-05-3.34239E-18 3.61344E-18
 -1      1743 2.61855E-04-6.73261E-05-7.62637E-05-6.66069E-06-2.77594E-18-4.48927E-19
 -1      1744 1.98259E-04-3.67839E-05-6.48209E-05-6.70123E-05-6.41585E-18 8.97516E-18
 -1      1745 2.34882E-04-5.53134E-05-7.05418E-05-4.95756E-05-4.10207E-18 5.34647E-18
 -1      1746 1.33943E-04-1.29750E-05-4.99925E-05-7.25719E-05-9.96661E-18 1.30155E-17
 -1      1747 1.77240E-04-3.02445E-05-5.82566E-05-7.56108E-05-7.35606E-18 1.08632E-17
 -1      1748 7.98545E-05-6.32707E-06-3.23578E-05-5.26891E-05-1.21837E-17 1.28978E-17
 -1      1749 1.12318E-04-1.05042E-05-4.15172E-05-7.00570E-05-1.06879E-17 1.27868E-17
 -1      1750 4.19688E-05-1.47274E-05-1.49864E-05-2.63810E-05-1.44436E-17 1.08945E-17
 -1      1751 5.85269E-05-4.44099E-06-2.37419E-05-4.69508E-05-1.33475E-17 1.27309E-17
 -1      1752 2.62250E-05-3.99504E-05 5.83920E-07-3.93400E-06-1.14824E-17 7.80371E-18
 -1      1753 2.84060E-05-1.89373E-05-7.05440E-06-1.79782E-05-1.39295E-17 1.09784E-17
 -1      1754 2.39311E-05-6.57639E-05 1.15265E-05 3.65334E-06-5.97624E-18 4.48080E-18
 -1      1755 1.90987E-05-4.60824E-05 6.63070E-06 2.63471E-06-1.00899E-17 7.22381E-18
 -1      1756 2.36323E-05-7.63369E-05 1.60741E-05-5.33273E-07-1.70042E-19 3.01205E-18
 -1      1757 2.09924E-05-6.88262E-05 1.44672E-05 7.18208E-06-4.50452E-18 3.58803E-18
 -1      1758 1.13858E-04-3.00977E-05-3.47978E-05 4.61003E-05 7.76560E-18 8.69395E-18
 -1      1759 7.18088E-05-3.42937E-05-1.73338E-05 4.03293E-05 6.93296E-18 8.76213E-18
 -1      1760 9.52361E-05-2.85734E-05-2.85695E-05-4.19291E-09-2.96605E-18-2.08368E-18
 -1      1761 9.52350E-05-2.85756E-05-2.85682E-05-1.04593E-08-1.44311E-18-7.62360E-19
 -1      1762 1.90090E-05-4.82858E-05 8.31662E-06 1.56717E-05 2.69865E-18 4.25105E-18
 -1      1763 4.03743E-05-4.12427E-05-2.39445E-06 3.00697E-05 5.87248E-18 7.11815E-18
 -1      1764 1.17675E-05-5.13770E-05 1.22158E-05 1.51281E-06-5.77571E-20 5.10930E-18
 -1      1765 1.57159E-04-3.15992E-05-5.10234E-05 3.68568E-05 7.11624E-18 7.14049E-18
 -1      1766 1.89912E-04-3.18789E-05-6.35987E-05 2.39475E-05 6.24983E-18 5.45193E-18
 -1      1767 2.10894E-04-3.42648E-05-7.02093E-05 7.87685E-06 4.94837E-18 3.07611E-18
 -1      1768 2.01542E-04-3.20285E-05-6.80253E-05-1.36096E-05 4.04966E-18 5.48454E-19
 -1      1769 1.77098E-04-3.08900E-05-5.89616E-05-3.35358E-05 4.49674E-18-2.07269E-18
 -1      1770 1.40455E-04-3.03117E-05-4.50791E-05-4.50737E-05 5.32191E-18-3.80148E-18
 -1      1771 1.01898E-04-3.58833E-05-2.83867E-05-4.35441E-05 4.57355E-18-4.49859E-18
 -1      1772 6.17982E-05-3.85359E-05-1.13397E-05-3.80225E-05 4.17333E-18-5.69820E-18
 -1      1773 2.87705E-05-4.49035E-05 3.15378E-06-2.18570E-05 3.03915E-18-4.85604E-18
 -1      1774 1.42321E-05-4.95211E-05 1.06645E-05-9.22431E-06 3.10861E-19-4.42321E-18
 -1      1775 1.28061E-05-4.96389E-05 1.13789E-05 4.23616E-06-2.52882E-18-5.57686E-18
 -1      1776 2.52802E-05-4.69193E-05 5.34302E-06 1.85521E-05-5.34817E-18-5.66326E-18
 -1      1777 5.01584E-05-4.04204E-05-6.86313E-06 3.09275E-05-7.16336E-18-7.57290E-18
 -1      1778 8.58561E-05-3.38530E-05-2.30374E-05 4.15525E-05-8.20775E-18-9.00057E-18
 -1      1779 1.30087E-04-3.18883E-05-4.05789E-05 4.61514E-05-8.00234E-18-9.56724E-18
 -1      1780 1.74706E-04-3.35712E-05-5.66851E-05 4.04684E-05-7.65495E-18-7.99514E-18
 -1      1781 2.04776E-04-3.48658E-05-6.76411E-05 2.23727E-05-6.05692E-18-4.43125E-18
 -1      1782 2.15767E-04-3.50124E-05-7.16987E-05 2.64931E-07-5.42482E-18-8.98967E-19
 -1      1783 2.08804E-04-3.59640E-05-6.85950E-05-1.88046E-05-5.98111E-18 2.01806E-18
 -1      1784 1.80967E-04-3.42515E-05-5.87928E-05-3.53686E-05-6.88940E-18 4.66461E-18
 -1      1785 1.42207E-04-3.39232E-05-4.44530E-05-4.30628E-05-7.02444E-18 6.66954E-18
 -1      1786 1.00423E-04-3.43271E-05-2.83036E-05-4.28033E-05-7.61398E-18 7.34420E-18
 -1      1787 6.16925E-05-3.72360E-05-1.25314E-05-3.45930E-05-7.11762E-18 7.04774E-18
 -1      1788 3.38486E-05-4.41721E-05 7.96907E-07-2.28833E-05-5.59211E-18 7.48814E-18
 -1      1789 1.70266E-05-4.94269E-05 9.36898E-06-1.02299E-05-2.82570E-18 6.19922E-18
 -1      1790 1.06731E-04-2.34794E-05-3.57716E-05-1.58289E-05-1.02340E-18 4.94392E-18
 -1      1791 8.98647E-05-1.05684E-05-3.41128E-05-1.13280E-05-1.35454E-18-1.07393E-18
 -1      1792 9.14623E-05-1.17869E-05-3.42867E-05-1.31257E-05-1.58162E-18-5.71959E-19
 -1      1793 9.37177E-05-1.42328E-05-3.42260E-05-1.41527E-05-1.55985E-18 6.92714E-20
 -1      1794 9.55525E-05-1.62943E-05-3.44511E-05-1.59182E-05-1.66171E-18 9.17972E-19
 -1      1795 9.46120E-05-1.65803E-05-3.34452E-05-1.17031E-05-1.57730E-18-2.12394E-19
 -1      1796 8.55455E-05-6.86049E-06-3.37960E-05-6.19028E-06-7.11805E-19-2.08381E-18
 -1      1797 8.62773E-05-7.30062E-06-3.38986E-05-7.42904E-06-8.57584E-19-1.94329E-18
 -1      1798 8.43189E-05-5.89912E-06-3.36674E-05-4.09276E-06-3.77175E-19-2.23120E-18
 -1      1799 8.48237E-05-6.18627E-06-3.37435E-05-5.17271E-06-5.42210E-19-2.19397E-18
 -1      1800 8.65462E-05-8.64340E-06-3.34123E-05-5.27169E-06-7.24754E-19-2.03905E-18
 -1      1801 8.35765E-05-5.33533E-06-3.35806E-05-2.22543E-06-5.73352E-20-2.18098E-18
 -1      1802 8.38630E-05-5.49119E-06-3.36269E-05-3.19307E-06-1.82061E-19-2.21925E-18
 -1      1803 8.52938E-05-7.57645E-06-3.33311E-05-3.40022E-06-2.85707E-19-2.10684E-18
 -1      1804 8.32938E-05-5.12150E-06-3.35442E-05-4.73732E-07 3.14524E-19-2.16588E-18
 -1      1805 8.33699E-05-5.15927E-06-3.35590E-05-1.39318E-06 1.36594E-19-2.19794E-18
 -1      1806 8.45894E-05-7.00099E-06-3.32751E-05-1.70394E-06 7.49500E-20-2.09375E-18
 -1      1807 8.34543E-05-5.23316E-06-3.35614E-05 1.27918E-06 5.69263E-19-2.05080E-18
 -1      1808 8.33269E-05-5.15936E-06-3.35445E-05 3.47299E-07 4.25344E-19-2.10104E-18
 -1      1809 8.44087E-05-6.86677E-06-3.32554E-05-8.06100E-08 3.65717E-19-2.06872E-18
 -1      1810 8.40421E-05-5.66183E-06-3.36293E-05 3.14468E-06 8.13375E-19-1.85478E-18
 -1      1811 8.37185E-05-5.47698E-06-3.35826E-05 2.14279E-06 7.00168E-19-1.99151E-18
 -1      1812 8.47314E-05-7.14801E-06-3.32744E-05 1.57585E-06 6.51823E-19-1.93929E-18
 -1      1813 8.50301E-05-6.40392E-06-3.37385E-05 5.18865E-06 1.18215E-18-1.53443E-18
 -1      1814 8.45222E-05-6.10772E-06-3.36664E-05 4.08172E-06 9.65368E-19-1.70154E-18
 -1      1815 8.55329E-05-7.83298E-06-3.33259E-05 3.34584E-06 9.17745E-19-1.66737E-18
 -1      1816 8.64876E-05-7.54764E-06-3.38842E-05 7.57470E-06 1.54929E-18-1.17849E-18
 -1      1817 8.57533E-05-7.09548E-06-3.37854E-05 6.26583E-06 1.35692E-18-1.38171E-18
 -1      1818 8.68166E-05-8.95495E-06-3.33973E-05 5.32041E-06 1.37896E-18-1.32475E-18
 -1      1819 8.85484E-05-9.26871E-06-3.40581E-05 1.03462E-05 1.81611E-18-5.51763E-19
 -1      1820 8.75067E-05-8.57043E-06-3.39287E-05 8.78735E-06 1.67072E-18-9.48717E-19
 -1      1821 8.86623E-05-1.06361E-05-3.34677E-05 7.55355E-06 1.71422E-18-9.04843E-19
 -1      1822 9.16233E-05-1.20647E-05-3.42474E-05 1.34629E-05 1.94423E-18 5.70371E-19
 -1      1823 9.00165E-05-1.08374E-05-3.40769E-05 1.16275E-05 1.83200E-18-8.75885E-20
 -1      1824 9.12560E-05-1.31398E-05-3.34957E-05 9.96336E-06 1.92074E-18-1.96670E-19
 -1      1825 9.70917E-05-1.74707E-05-3.43175E-05 1.61047E-05 1.82253E-18 2.46460E-18
 -1      1826 9.40217E-05-1.47106E-05-3.41674E-05 1.44801E-05 1.87717E-18 1.35419E-18
 -1      1827 9.50854E-05-1.71603E-05-3.33848E-05 1.20243E-05 1.97062E-18 9.87932E-19
 -1      1828 1.03040E-04-2.55049E-05-3.36524E-05 1.32002E-05 1.46240E-18 4.76477E-18
 -1      1829 9.92955E-05-2.00783E-05-3.39512E-05 1.55361E-05 1.65085E-18 3.24345E-18
 -1      1830 9.87145E-05-2.23053E-05-3.28182E-05 1.16496E-05 1.85308E-18 2.41751E-18
 -1      1831 1.00202E-04-2.66124E-05-3.17463E-05 8.22975E-06 1.50097E-18 4.27734E-18
 -1      1832 1.01327E-04-2.00495E-05-3.45213E-05-1.74394E-05-1.41640E-18 2.36661E-18
 -1      1833 9.74373E-05-2.78969E-05-2.98255E-05 2.83456E-06 1.21184E-18 3.52842E-18
 -1      1834 9.94588E-05-2.79013E-05-3.07061E-05 5.19244E-06 1.30181E-18 3.95381E-18
 -1      1835 9.92469E-05-2.61289E-05-3.13336E-05 7.29402E-06 1.54255E-18 2.86735E-18
 -1      1836 1.01130E-04-2.29770E-05-3.32171E-05-1.28737E-05-1.50293E-18 1.77903E-18
 -1      1837 9.90102E-05-2.74991E-05-3.05296E-05-4.02515E-06-1.14858E-18 1.64962E-18
 -1      1838 9.76881E-05-2.76472E-05-2.99736E-05-2.11610E-06-9.84610E-19 1.39733E-18
 -1      1839 9.72124E-05-2.78992E-05-2.96064E-05-4.27584E-07-9.11599E-19 1.36721E-18
 -1      1840 9.70280E-05-2.81091E-05-2.94822E-05 6.17545E-07-8.16639E-19 1.02359E-18
 -1      1841 9.78552E-05-2.69814E-05-3.04034E-05-2.07032E-06-1.13888E-18 7.62846E-19
 -1      1842 9.69457E-05-2.82442E-05-2.93816E-05 1.74491E-06-5.90097E-19 9.67146E-19
 -1      1843 9.73791E-05-2.84860E-05-2.94805E-05 2.45377E-06-4.15622E-19 7.61178E-19
 -1      1844 9.74231E-05-2.77422E-05-2.98915E-05 1.14415E-06-8.64956E-19 5.14953E-19
 -1      1845 9.76568E-05-2.86349E-05-2.95460E-05 3.29794E-06-3.89774E-19 6.19201E-19
 -1      1846 9.85450E-05-2.89520E-05-2.97879E-05 3.86175E-06-3.90380E-19 6.15355E-19
 -1      1847 9.77024E-05-2.82076E-05-2.98085E-05 3.38031E-06-5.96500E-19 3.24298E-19
 -1      1848 9.91234E-05-2.91517E-05-2.99683E-05 4.56536E-06-3.60257E-19 5.78615E-19
 -1      1849 1.00375E-04-2.95581E-05-3.03173E-05 5.06031E-06-2.21817E-19 5.18713E-19
 -1      1850 9.86030E-05-2.86460E-05-3.00035E-05 5.13095E-06-4.10368E-19 1.04944E-19
 -1      1851 1.01210E-04-2.98298E-05-3.05808E-05 5.67932E-06-2.19170E-19 4.30203E-19
 -1      1852 1.02767E-04-3.03410E-05-3.10139E-05 6.11503E-06-2.09214E-19 4.13966E-19
 -1      1853 1.00044E-04-2.91763E-05-3.03912E-05 6.62209E-06-3.51859E-19 7.31832E-20
 -1      1854 1.03838E-04-3.07129E-05-3.13341E-05 6.63448E-06-2.95292E-19 4.73591E-19
 -1      1855 1.05641E-04-3.13504E-05-3.18254E-05 6.95840E-06-2.60630E-19 4.98949E-19
 -1      1856 1.01976E-04-2.98923E-05-3.09107E-05 7.90448E-06-1.60385E-19 1.80119E-19
 -1      1857 1.06943E-04-3.18675E-05-3.21733E-05 7.28454E-06-4.27199E-19 5.81627E-19
 -1      1858 1.08895E-04-3.26532E-05-3.26832E-05 7.36801E-06-2.18717E-19 4.73435E-19
 -1      1859 1.04384E-04-3.09145E-05-3.15052E-05 8.86712E-06-2.76459E-19 2.43878E-19
 -1      1860 1.10437E-04-3.33770E-05-3.30247E-05 7.30914E-06-1.02395E-19 3.53104E-19
 -1      1861 1.12360E-04-3.43113E-05-3.34912E-05 6.93598E-06-5.52127E-20 1.09972E-19
 -1      1862 1.07288E-04-3.24048E-05-3.21137E-05 9.21051E-06-2.52541E-19 3.19159E-20
 -1      1863 1.14144E-04-3.52922E-05-3.37899E-05 6.19551E-06 1.25520E-19 1.29609E-19
 -1      1864 1.15739E-04-3.62998E-05-3.41290E-05 5.09029E-06 3.02060E-19 1.99069E-19
 -1      1865 1.10711E-04-3.45262E-05-3.26748E-05 8.41887E-06 8.81113E-20 2.42536E-19
 -1      1866 1.17687E-04-3.74898E-05-3.43628E-05 3.32717E-06 5.27159E-19 3.29939E-19
 -1      1867 1.18514E-04-3.83180E-05-3.44885E-05 1.29058E-06 5.11436E-19 6.18428E-19
 -1      1868 1.14581E-04-3.72799E-05-3.31525E-05 5.80704E-06 4.76721E-19 6.01615E-19
 -1      1869 1.20316E-04-3.94016E-05-3.46770E-05-1.65019E-06 9.37017E-19 7.47925E-19
 -1      1870 1.19864E-04-3.95220E-05-3.45495E-05-4.43532E-06 7.18496E-19 1.29928E-18
 -1      1871 1.18496E-04-4.01484E-05-3.35864E-05 7.99774E-07 8.19623E-19 5.55884E-19
 -1      1872 1.20834E-04-3.97711E-05-3.47750E-05-8.03942E-06 1.17546E-19 1.55511E-18
 -1      1873 1.18790E-04-3.85041E-05-3.44607E-05-1.06103E-05-8.26717E-20 1.70738E-18
 -1      1874 1.21397E-04-4.16833E-05-3.41386E-05-6.34663E-06 4.37989E-19 1.39527E-18
 -1      1875 1.18083E-04-3.70717E-05-3.48274E-05-1.31553E-05-3.51696E-19 1.63893E-18
 -1      1876 1.14868E-04-3.43044E-05-3.44887E-05-1.37697E-05-8.88842E-19 1.45045E-18
 -1      1877 1.21582E-04-3.96899E-05-3.50509E-05-1.34026E-05-4.11139E-19 1.42899E-18
 -1      1878 1.12648E-04-3.14540E-05-3.49524E-05-1.28381E-05-1.61077E-18 9.39717E-19
 -1      1879 1.09768E-04-2.85658E-05-3.47414E-05-1.01780E-05-2.01192E-18 3.24122E-19
 -1      1880 1.18219E-04-3.35074E-05-3.63492E-05-1.56854E-05-1.54364E-18 1.06661E-18
 -1      1881 1.07997E-04-2.64528E-05-3.50493E-05-5.10453E-06-1.97316E-18-4.45897E-19
 -1      1882 1.07342E-04-2.57154E-05-3.50210E-05-1.29301E-07-1.85124E-18-9.87654E-19
 -1      1883 1.13624E-04-2.64768E-05-3.75323E-05-9.23092E-06-2.55897E-18 5.05573E-20
 -1      1884 1.08040E-04-2.65037E-05-3.49310E-05 6.06860E-06-1.51884E-18-1.69411E-18
 -1      1885 1.10122E-04-2.85972E-05-3.50836E-05 1.02052E-05-1.58618E-18-1.79489E-18
 -1      1886 1.12403E-04-2.46212E-05-3.78522E-05 3.60131E-06-2.19572E-18-1.29045E-18
 -1      1887 1.12533E-04-3.14615E-05-3.46807E-05 1.33446E-05-1.55425E-18-1.94201E-18
 -1      1888 1.15935E-04-3.45810E-05-3.50019E-05 1.43227E-05-7.43966E-19-1.94657E-18
 -1      1889 1.15987E-04-2.97534E-05-3.70732E-05 1.41285E-05-1.79687E-18-1.44657E-18
 -1      1890 1.17619E-04-3.69002E-05-3.45961E-05 1.32806E-05-9.68091E-20-2.16339E-18
 -1      1891 1.20495E-04-3.90215E-05-3.49827E-05 1.14696E-05 5.97244E-19-2.61124E-18
 -1      1892 1.20643E-04-3.71083E-05-3.57872E-05 1.60089E-05-5.95034E-19-1.76469E-18
 -1      1893 1.20378E-04-3.95658E-05-3.47257E-05 8.12699E-06 1.35238E-18-2.75087E-18
 -1      1894 1.21757E-04-4.01051E-05-3.50024E-05 5.29180E-06 1.48151E-18-2.41949E-18
 -1      1895 1.22463E-04-4.13662E-05-3.47128E-05 1.07358E-05 8.46781E-19-1.56464E-18
 -1      1896 1.20355E-04-3.93480E-05-3.48417E-05 1.91629E-06 1.40337E-18-2.02290E-18
 -1      1897 1.20257E-04-3.88316E-05-3.48871E-05-5.30162E-07 1.25514E-18-1.24686E-18
 -1      1898 1.20892E-04-4.13848E-05-3.40665E-05 3.24328E-06 2.00791E-18-1.29742E-18
 -1      1899 1.18418E-04-3.76541E-05-3.47174E-05-2.85360E-06 7.06392E-19-1.52018E-18
 -1      1900 1.17311E-04-3.67351E-05-3.45241E-05-4.37924E-06 7.50961E-19-9.75173E-19
 -1      1901 1.17489E-04-3.89821E-05-3.36647E-05-2.89004E-06 1.01432E-18-1.41416E-18
 -1      1902 1.15529E-04-3.56596E-05-3.42931E-05-5.54840E-06 9.39786E-19-8.14343E-19
 -1      1903 1.13909E-04-3.47264E-05-3.39313E-05-6.21459E-06 4.74884E-19-8.25989E-19
 -1      1904 1.13712E-04-3.61031E-05-3.32864E-05-6.56791E-06 1.22204E-18-1.34546E-18
 -1      1905 1.12351E-04-3.39106E-05-3.36422E-05-6.53114E-06-3.53959E-19-1.08255E-18
 -1      1906 1.10585E-04-3.31131E-05-3.31998E-05-6.60953E-06-8.02987E-19-1.39741E-18
 -1      1907 1.10258E-04-3.37074E-05-3.28295E-05-8.08968E-06-1.79743E-19-2.58193E-18
 -1      1908 1.09267E-04-3.25383E-05-3.28816E-05-6.42017E-06-1.14978E-18-1.66026E-18
 -1      1909 1.07578E-04-3.19028E-05-3.24295E-05-6.17546E-06-1.63300E-18-2.07677E-18
 -1      1910 1.07310E-04-3.19975E-05-3.22943E-05-8.16831E-06-1.10997E-18-2.62692E-18
 -1      1911 1.06473E-04-3.15039E-05-3.21127E-05-5.74286E-06-1.25946E-18-1.33325E-18
 -1      1912 1.04976E-04-3.10121E-05-3.16947E-05-5.36174E-06-1.49237E-19-1.46788E-18
 -1      1913 1.04849E-04-3.08581E-05-3.17245E-05-7.45353E-06-7.85557E-19-1.16570E-18
 -1      1914 1.04056E-04-3.07311E-05-3.14014E-05-4.85054E-06 7.52574E-19-1.51808E-18
 -1      1915 1.02791E-04-3.03551E-05-3.10388E-05-4.44298E-06 1.05232E-18-1.41615E-18
 -1      1916 1.02811E-04-3.01140E-05-3.11676E-05-6.39853E-06 3.72230E-19-1.02770E-18
 -1      1917 1.02032E-04-3.01521E-05-3.07811E-05-3.94317E-06 6.95579E-19-1.73075E-18
 -1      1918 1.00999E-04-2.98667E-05-3.04797E-05-3.56472E-06-2.91929E-19-1.29364E-18
 -1      1919 1.01133E-04-2.96235E-05-3.06573E-05-5.27444E-06 7.13111E-19-1.60456E-18
 -1      1920 1.00380E-04-2.97167E-05-3.02620E-05-3.11846E-06-8.94980E-19-9.12749E-19
 -1      1921 9.95587E-05-2.95015E-05-3.00190E-05-2.79178E-06-2.19224E-19-9.19370E-19
 -1      1922 9.97645E-05-2.92923E-05-3.02117E-05-4.22305E-06 2.13363E-20-1.53926E-18
 -1      1923 9.90618E-05-2.93891E-05-2.98404E-05-2.41371E-06 4.08677E-20-1.08240E-18
 -1      1924 9.84217E-05-2.92282E-05-2.96492E-05-2.14377E-06-3.37872E-19-1.07877E-18
 -1      1925 9.86618E-05-2.90627E-05-2.98364E-05-3.30586E-06-2.50987E-19-9.87412E-19
 -1      1926 9.80285E-05-2.91436E-05-2.95061E-05-1.83417E-06-8.93935E-19-3.82771E-20
 -1      1927 9.75387E-05-2.90246E-05-2.93586E-05-1.61749E-06-2.24686E-19 2.40037E-19
 -1      1928 9.77852E-05-2.89003E-05-2.95292E-05-2.53935E-06 2.41436E-19-5.31867E-19
 -1      1929 9.72324E-05-2.89612E-05-2.92462E-05-1.36998E-06-9.48331E-19 1.45766E-20
 -1      1930 9.68640E-05-2.88745E-05-2.91345E-05-1.19967E-06-9.41671E-19-4.13081E-19
 -1      1931 9.70983E-05-2.87846E-05-2.92834E-05-1.91715E-06-5.14922E-19 1.10104E-18
 -1      1932 9.66293E-05-2.88274E-05-2.90478E-05-1.00546E-06-8.22797E-19-6.73765E-19
 -1      1933 9.63570E-05-2.87653E-05-2.89646E-05-8.73835E-07 1.38247E-20-1.23334E-18
 -1      1934 9.65684E-05-2.87021E-05-2.90906E-05-1.42285E-06-1.12670E-18 2.24874E-19
 -1      1935 9.61800E-05-2.87310E-05-2.88989E-05-7.23844E-07 2.64544E-19-1.44554E-18
 -1      1936 9.59826E-05-2.86876E-05-2.88380E-05-6.23616E-07 1.64631E-19-1.19061E-18
 -1      1937 9.61661E-05-2.86443E-05-2.89421E-05-1.03694E-06-9.46584E-20-3.94630E-19
 -1      1938 9.58516E-05-2.86631E-05-2.87892E-05-5.09447E-07 3.61841E-19-1.18040E-18
 -1      1939 9.57115E-05-2.86335E-05-2.87456E-05-4.34208E-07 7.37720E-19-1.34432E-18
 -1      1940 9.58660E-05-2.86046E-05-2.88296E-05-7.40211E-07 6.98543E-19 1.16422E-19
 -1      1941 9.56166E-05-2.86165E-05-2.87099E-05-3.48543E-07 1.44414E-18-1.90434E-19
 -1      1942 9.55198E-05-2.85972E-05-2.86794E-05-2.92883E-07 9.77626E-19 1.33280E-18
 -1      1943 9.56464E-05-2.85784E-05-2.87461E-05-5.15326E-07 1.68978E-18 2.36606E-19
 -1      1944 9.54527E-05-2.85859E-05-2.86540E-05-2.29559E-07 4.40188E-20 4.48332E-19
 -1      1945 9.53882E-05-2.85740E-05-2.86333E-05-1.89029E-07 2.16110E-19-9.48922E-20
 -1      1946 9.54893E-05-2.85621E-05-2.86851E-05-3.47355E-07 2.09276E-19 1.33949E-18
 -1      1947 9.53422E-05-2.85669E-05-2.86156E-05-1.42977E-07 4.74139E-19-2.29178E-19
 -1      1948 9.53013E-05-2.85603E-05-2.86023E-05-1.13985E-07 5.66350E-19 2.21598E-19
 -1      1949 9.53801E-05-2.85530E-05-2.86417E-05-2.23814E-07 2.80857E-19 1.54053E-18
 -1      1950 9.52710E-05-2.85562E-05-2.85904E-05-8.11111E-08 5.09396E-20-4.44961E-19
 -1      1951 9.52472E-05-2.85533E-05-2.85823E-05-6.08076E-08 2.56271E-19 1.18777E-20
 -1      1952 9.53067E-05-2.85489E-05-2.86117E-05-1.34491E-07-7.16411E-20 1.72198E-18
 -1      1953 9.52284E-05-2.85513E-05-2.85747E-05-3.78682E-08 1.02292E-20-4.22975E-19
 -1      1954 9.52165E-05-2.85509E-05-2.85704E-05-2.40319E-08 9.42037E-19-3.68760E-19
 -1      1955 9.52600E-05-2.85482E-05-2.85916E-05-7.11904E-08 1.67991E-20 1.06654E-18
 -1      1956 9.52060E-05-2.85505E-05-2.85659E-05-8.50596E-09 2.45860E-18-9.79470E-19
 -1      1957 9.52023E-05-2.85517E-05-2.85641E-05 5.52637E-10 2.09060E-18 4.30182E-19
 -1      1958 9.52324E-05-2.85498E-05-2.85789E-05-2.74582E-08 1.50614E-18 6.70103E-19
 -1      1959 9.51976E-05-2.85523E-05-2.85618E-05 1.05666E-08 2.24668E-18 1.21341E-18
 -1      1960 9.51993E-05-2.85545E-05-2.85618E-05 1.60818E-08 2.90242E-18 2.87835E-18
 -1      1961 9.52185E-05-2.85530E-05-2.85714E-05 1.66709E-09 2.80871E-18 7.82638E-19
 -1      1962 9.51984E-05-2.85557E-05-2.85609E-05 2.19509E-08 2.20736E-18 2.45082E-18
 -1      1963 9.52033E-05-2.85586E-05-2.85618E-05 2.47565E-08 2.03633E-18 2.62517E-18
 -1      1964 9.52139E-05-2.85570E-05-2.85675E-05 1.98632E-08 2.60967E-18 2.70504E-19
 -1      1965 9.52048E-05-2.85603E-05-2.85618E-05 2.73816E-08 6.53495E-19 1.31372E-18
 -1      1966 9.52112E-05-2.85634E-05-2.85633E-05 2.79394E-08-6.40837E-19 8.10078E-19
 -1      1967 9.52153E-05-2.85618E-05-2.85660E-05 2.96981E-08 7.32690E-19-2.19512E-19
 -1      1968 9.52141E-05-2.85655E-05-2.85637E-05 2.78764E-08-1.53065E-18 4.46756E-19
 -1      1969 9.52207E-05-2.85687E-05-2.85652E-05 2.62690E-08-2.33793E-18 5.38389E-19
 -1      1970 9.52203E-05-2.85670E-05-2.85658E-05 3.27817E-08-1.68329E-18 1.06807E-18
 -1      1971 9.52236E-05-2.85707E-05-2.85656E-05 2.38530E-08-1.66170E-18 4.80047E-19
 -1      1972 9.52294E-05-2.85738E-05-2.85668E-05 2.01371E-08-6.83092E-19-1.11951E-19
 -1      1973 9.52328E-05-2.85776E-05-2.85666E-05 2.31638E-08-1.69026E-18 1.28957E-18
 -1      1974 9.52266E-05-2.85726E-05-2.85661E-05 3.01973E-08-1.65708E-18 1.86578E-18
 -1      1975 9.61391E-05-2.81699E-05-2.90954E-05 2.29893E-07 1.02273E-18 2.84982E-18
 -1      1976 9.68739E-05-2.81501E-05-2.93913E-05 1.37724E-06 1.01013E-18 3.32332E-18
 -1      1977 9.75281E-05-2.76701E-05-2.99497E-05 2.44954E-06 1.28750E-18 2.44651E-18
 -1      1978 9.60300E-05-2.84146E-05-2.89481E-05-1.24768E-06 5.98009E-19 2.45955E-18
 -1      1979 9.59966E-05-2.82930E-05-2.89623E-05-5.87348E-07 6.98617E-19 2.61187E-18
 -1      1980 9.66901E-05-2.81695E-05-2.93784E-05-2.50914E-07 9.04724E-19 2.17470E-18
 -1      1981 9.67535E-05-2.87782E-05-2.91123E-05-2.15453E-06 2.47850E-19 2.16979E-18
 -1      1982 9.62605E-05-2.85640E-05-2.89801E-05-1.73391E-06 4.07562E-19 2.32449E-18
 -1      1983 9.67702E-05-2.85350E-05-2.92593E-05-1.85754E-06 5.83073E-19 1.69489E-18
 -1      1984 9.80271E-05-2.92667E-05-2.94565E-05-2.70856E-06 8.42351E-20 1.91343E-18
 -1      1985 9.72542E-05-2.89823E-05-2.92416E-05-2.43830E-06 8.78549E-20 2.06646E-18
 -1      1986 9.75166E-05-2.89575E-05-2.93983E-05-2.85148E-06 2.40898E-19 1.38992E-18
 -1      1987 9.96348E-05-2.98570E-05-2.98994E-05-2.97093E-06 6.83209E-19 1.74714E-18
 -1      1988 9.87074E-05-2.95250E-05-2.96414E-05-2.83014E-06 3.14432E-19 1.92239E-18
 -1      1989 9.87187E-05-2.94793E-05-2.96877E-05-3.42456E-06 3.54872E-19 1.25793E-18
 -1      1990 1.01380E-04-3.05152E-05-3.03726E-05-2.91477E-06 5.12950E-19 1.51855E-18
 -1      1991 1.00412E-04-3.01612E-05-3.01066E-05-2.92160E-06 6.49244E-19 1.68549E-18
 -1      1992 1.00201E-04-3.01012E-05-3.00531E-05-3.61398E-06 6.87731E-19 1.36757E-18
 -1      1993 1.03048E-04-3.11912E-05-3.08060E-05-2.46037E-06 1.87973E-19 1.10745E-18
 -1      1994 1.02166E-04-3.08501E-05-3.05701E-05-2.65756E-06 3.18064E-19 1.32524E-18
 -1      1995 1.01794E-04-3.08036E-05-3.04303E-05-3.36669E-06 4.68629E-19 1.32574E-18
 -1      1996 1.04386E-04-3.18051E-05-3.11239E-05-1.51171E-06-8.71220E-20 1.52364E-18
 -1      1997 1.03739E-04-3.15275E-05-3.09607E-05-1.94992E-06 1.03642E-19 1.16290E-18
 -1      1998 1.03305E-04-3.15388E-05-3.07568E-05-2.58243E-06 1.76937E-19 1.18781E-18
 -1      1999 1.05100E-04-3.22331E-05-3.12507E-05-1.75472E-08 2.89136E-19 1.61435E-18
 -1      2000 1.04855E-04-3.20893E-05-3.12040E-05-7.25658E-07 1.76706E-19 1.68519E-18
 -1      2001 1.04501E-04-3.22113E-05-3.09731E-05-1.16969E-06 1.90007E-19 1.53146E-18
 -1      2002 1.04893E-04-3.23064E-05-3.11288E-05 1.93415E-06 6.04391E-19 1.53953E-18
 -1      2003 1.05203E-04-3.23803E-05-3.12323E-05 9.95991E-07 3.29754E-19 1.52135E-18
 -1      2004 1.05106E-04-3.26573E-05-3.10308E-05 8.65279E-07 4.24139E-19 1.44528E-18
 -1      2005 1.03556E-04-3.18439E-05-3.07442E-05 4.00888E-06 7.41683E-19 9.11659E-19
 -1      2006 1.04501E-04-3.22080E-05-3.10053E-05 3.00252E-06 9.09568E-19 1.44532E-18
 -1      2007 1.04835E-04-3.26497E-05-3.09083E-05 3.29794E-06 1.11786E-18 1.20494E-18
 -1      2008 1.01115E-04-3.07509E-05-3.01528E-05 5.58375E-06 2.05836E-20 9.57690E-19
 -1      2009 1.02625E-04-3.14137E-05-3.05361E-05 4.81159E-06 4.93529E-20 7.89613E-19
 -1      2010 1.03505E-04-3.19686E-05-3.06262E-05 5.58229E-06 3.53782E-19 1.37098E-18
 -1      2011 9.79977E-05-2.91660E-05-2.94866E-05 5.89430E-06-2.52836E-19 1.52667E-18
 -1      2012 9.97866E-05-3.00114E-05-2.99088E-05 5.72262E-06-1.16431E-19 1.12072E-18
 -1      2013 1.01207E-04-3.05624E-05-3.02528E-05 6.88349E-06-2.68114E-19 1.38039E-18
 -1      2014 9.50733E-05-2.75552E-05-2.89257E-05 4.42635E-06 3.17535E-19 6.71207E-19
 -1      2015 9.66578E-05-2.83262E-05-2.92729E-05 5.09098E-06 4.33013E-20 1.20352E-18
 -1      2016 9.84776E-05-2.87317E-05-2.98895E-05 6.37439E-06 8.72047E-20 9.11315E-19
 -1      2017 9.34062E-05-2.65849E-05-2.86392E-05 1.37592E-06 6.80915E-19 2.02618E-21
 -1      2018 9.42553E-05-2.69734E-05-2.88051E-05 2.76810E-06 5.06512E-19 2.55864E-19
 -1      2019 9.62533E-05-2.71480E-05-2.96397E-05 3.76726E-06 9.31571E-19 3.41205E-19
 -1      2020 9.37258E-05-2.67364E-05-2.87212E-05-2.24227E-06 2.54613E-19 1.16718E-19
 -1      2021 9.35069E-05-2.65625E-05-2.86496E-05-6.03631E-07 7.15941E-19 2.06956E-19
 -1      2022 9.54821E-05-2.65497E-05-2.95760E-05-2.66396E-07 7.23816E-19-1.65923E-19
 -1      2023 9.59625E-05-2.79533E-05-2.91563E-05-5.09220E-06-6.29362E-19 3.75474E-20
 -1      2024 9.47287E-05-2.72900E-05-2.88643E-05-3.80811E-06-1.52678E-19 3.41063E-20
 -1      2025 9.65489E-05-2.72509E-05-2.97215E-05-4.27257E-06 2.75881E-20 3.78783E-20
 -1      2026 9.92843E-05-2.96843E-05-2.98262E-05-6.28370E-06-2.67839E-19 1.00718E-20
 -1      2027 9.74462E-05-2.88031E-05-2.93967E-05-5.73270E-06-5.00587E-19-2.41682E-19
 -1      2028 9.90134E-05-2.89098E-05-3.00465E-05-6.82199E-06-3.40481E-19 1.70962E-19
 -1      2029 1.02608E-04-3.12757E-05-3.05559E-05-5.76279E-06 9.88944E-20 2.86906E-19
 -1      2030 1.00710E-04-3.04711E-05-3.01027E-05-5.95354E-06-8.16543E-20 1.90377E-19
 -1      2031 1.01919E-04-3.07837E-05-3.04749E-05-7.29205E-06-2.06388E-19-1.28663E-19
 -1      2032 1.05116E-04-3.23184E-05-3.11789E-05-4.11502E-06 1.14361E-18-3.97510E-19
 -1      2033 1.03602E-04-3.17711E-05-3.08030E-05-4.78971E-06 8.35347E-19 2.78939E-19
 -1      2034 1.04361E-04-3.22171E-05-3.09054E-05-6.00054E-06 8.69178E-19-2.89308E-19
 -1      2035 1.06473E-04-3.27315E-05-3.15855E-05-2.10058E-06-1.47562E-19-9.75021E-19
 -1      2036 1.05558E-04-3.24811E-05-3.13471E-05-2.93612E-06 5.39917E-19-5.00821E-19
 -1      2037 1.05843E-04-3.29252E-05-3.12430E-05-3.77901E-06 7.91079E-19-1.24839E-18
 -1      2038 1.06735E-04-3.26481E-05-3.17399E-05-2.94459E-07-9.04085E-19-1.15459E-18
 -1      2039 1.06430E-04-3.26418E-05-3.16527E-05-1.04964E-06-8.68646E-19-1.25326E-18
 -1      2040 1.06303E-04-3.29732E-05-3.14254E-05-1.45075E-06-5.34488E-19-5.19040E-19
 -1      2041 1.06164E-04-3.22615E-05-3.16675E-05 1.02770E-06-6.61655E-19 3.47194E-19
 -1      2042 1.06352E-04-3.24164E-05-3.17106E-05 4.69071E-07-8.11537E-19-7.12763E-19
 -1      2043 1.05936E-04-3.25901E-05-3.14354E-05 4.63230E-07-9.74432E-19-6.17568E-19
 -1      2044 1.05063E-04-3.17337E-05-3.14269E-05 1.82436E-06 1.75271E-19 9.91720E-19
 -1      2045 1.05583E-04-3.19748E-05-3.15628E-05 1.48196E-06-2.26846E-20 7.46737E-19
 -1      2046 1.05017E-04-3.20035E-05-3.12936E-05 1.76818E-06-3.43517E-19-4.30931E-19
 -1      2047 1.03700E-04-3.11750E-05-3.10845E-05 2.17959E-06 7.42853E-19 1.68400E-18
 -1      2048 1.04398E-04-3.14465E-05-3.12739E-05 2.02047E-06 5.19056E-19 1.48109E-18
 -1      2049 1.03796E-04-3.13708E-05-3.10414E-05 2.48574E-06 9.05721E-20 9.07323E-19
 -1      2050 1.02271E-04-3.06484E-05-3.06989E-05 2.21937E-06-7.00778E-19 1.81130E-18
 -1      2051 1.03028E-04-3.09148E-05-3.09087E-05 2.19254E-06-1.38064E-19 1.85259E-18
 -1      2052 1.02469E-04-3.07799E-05-3.07254E-05 2.73999E-06 1.05446E-19 1.75109E-18
 -1      2053 1.00908E-04-3.01845E-05-3.03133E-05 2.06334E-06-7.68392E-19 2.10520E-18
 -1      2054 1.01643E-04-3.04261E-05-3.05201E-05 2.11979E-06-6.14800E-19 1.79095E-18
 -1      2055 1.01168E-04-3.02689E-05-3.03865E-05 2.67819E-06-5.38601E-19 2.35169E-18
 -1      2056 9.96846E-05-2.97936E-05-2.99561E-05 1.80527E-06-1.17551E-19 1.86153E-18
 -1      2057 1.00350E-04-3.00013E-05-3.01453E-05 1.90621E-06-4.97599E-19 1.84368E-18
 -1      2058 9.99733E-05-2.98470E-05-3.00554E-05 2.42962E-06-4.50532E-20 2.44740E-18
 -1      2059 9.86355E-05-2.94749E-05-2.96423E-05 1.51022E-06-3.95177E-19 1.48720E-18
 -1      2060 9.92076E-05-2.96466E-05-2.98065E-05 1.62846E-06-9.40835E-20 1.62687E-18
 -1      2061 9.89275E-05-2.95094E-05-2.97519E-05 2.09157E-06 4.70997E-21 2.74821E-18
 -1      2062 9.77671E-05-2.92220E-05-2.93778E-05 1.21890E-06 1.36613E-18 1.35817E-18
 -1      2063 9.82405E-05-2.93596E-05-2.95147E-05 1.33722E-06 1.90655E-19 1.64528E-18
 -1      2064 9.80443E-05-2.92456E-05-2.94865E-05 1.72966E-06 1.95407E-19 1.82567E-18
 -1      2065 9.70696E-05-2.90261E-05-2.91622E-05 9.53930E-07 6.45780E-19 8.11535E-19
 -1      2066 9.74488E-05-2.91333E-05-2.92726E-05 1.06256E-06 1.17398E-18 1.42489E-18
 -1      2067 9.73209E-05-2.90434E-05-2.92632E-05 1.38377E-06 1.15725E-18 2.20462E-18
 -1      2068 9.65243E-05-2.88779E-05-2.89916E-05 7.25663E-07 1.42423E-19 4.04168E-19
 -1      2069 9.68194E-05-2.89592E-05-2.90780E-05 8.19969E-07 2.85935E-19 9.17898E-19
 -1      2070 9.67438E-05-2.88915E-05-2.90809E-05 1.07518E-06 3.88405E-19 1.60995E-18
 -1      2071 9.61087E-05-2.87684E-05-2.88601E-05 5.36710E-07 3.53465E-18-9.72121E-19
 -1      2072 9.63322E-05-2.88285E-05-2.89259E-05 6.15313E-07 1.59073E-18-5.80285E-20
 -1      2073 9.62947E-05-2.87796E-05-2.89364E-05 8.12665E-07 1.80844E-18 9.37793E-19
 -1      2074 9.58000E-05-2.86895E-05-2.87614E-05 3.85210E-07 1.68749E-18-1.98969E-18
 -1      2075 9.59647E-05-2.87327E-05-2.88102E-05 4.48653E-07 2.67367E-18-1.39824E-18
 -1      2076 9.59535E-05-2.86990E-05-2.88245E-05 5.97315E-07 3.37260E-18 1.49889E-19
 -1      2077 9.55770E-05-2.86345E-05-2.86893E-05 2.67008E-07 3.92564E-19-2.41498E-18
 -1      2078 9.56948E-05-2.86644E-05-2.87245E-05 3.16844E-07 1.73822E-18-2.37325E-18
 -1      2079 9.57006E-05-2.86425E-05-2.87403E-05 4.25830E-07 2.08719E-18-4.26367E-19
 -1      2080 9.54211E-05-2.85975E-05-2.86383E-05 1.77047E-07-8.63801E-19-2.43728E-18
 -1      2081 9.55024E-05-2.86174E-05-2.86628E-05 2.15255E-07-5.80360E-19-2.59160E-18
 -1      2082 9.55182E-05-2.86041E-05-2.86784E-05 2.92780E-07-2.13246E-19-9.50120E-19
 -1      2083 9.53164E-05-2.85739E-05-2.86036E-05 1.10199E-07-1.55166E-18-2.32202E-18
 -1      2084 9.53700E-05-2.85864E-05-2.86199E-05 1.38828E-07-1.37763E-18-3.06165E-18
 -1      2085 9.53909E-05-2.85793E-05-2.86343E-05 1.92006E-07-1.01421E-18-1.51947E-18
 -1      2086 9.52501E-05-2.85601E-05-2.85811E-05 6.17309E-08-4.32128E-19-1.09674E-18
 -1      2087 9.52831E-05-2.85672E-05-2.85913E-05 8.26969E-08-6.82004E-19-1.78489E-18
 -1      2088 9.53055E-05-2.85642E-05-2.86040E-05 1.17464E-07-1.41397E-18-1.27035E-18
 -1      2089 9.52117E-05-2.85532E-05-2.85676E-05 2.75301E-08 5.80432E-19-2.51572E-18
 -1      2090 9.52299E-05-2.85566E-05-2.85734E-05 4.25131E-08 3.75902E-21-1.99949E-18
 -1      2091 9.52515E-05-2.85562E-05-2.85842E-05 6.36784E-08 3.64800E-19-1.69973E-18
 -1      2092 9.51933E-05-2.85512E-05-2.85606E-05 4.19404E-09-3.40957E-19-1.12497E-18
 -1      2093 9.52010E-05-2.85519E-05-2.85633E-05 1.45936E-08 4.88125E-19-1.47577E-18
 -1      2094 9.52203E-05-2.85531E-05-2.85721E-05 2.59580E-08-4.06370E-20-6.36770E-19
 -1      2095 9.51884E-05-2.85523E-05-2.85581E-05-1.09640E-08-4.91082E-19-2.46431E-18
 -1      2096 9.51891E-05-2.85513E-05-2.85586E-05-4.03887E-09-7.50930E-19-2.59670E-18
 -1      2097 9.52053E-05-2.85532E-05-2.85655E-05 4.73698E-10 1.16229E-20-1.57150E-18
 -1      2098 9.51925E-05-2.85555E-05-2.85585E-05-1.99397E-08 5.76991E-19-3.21306E-18
 -1      2099 9.51886E-05-2.85534E-05-2.85577E-05-1.56686E-08 4.78278E-19-2.78359E-18
 -1      2100 9.52015E-05-2.85555E-05-2.85628E-05-1.57481E-08 6.92429E-19-1.59994E-18
 -1      2101 9.52017E-05-2.85599E-05-2.85606E-05-2.40562E-08 2.21402E-19-2.07915E-18
 -1      2102 9.51953E-05-2.85573E-05-2.85590E-05-2.19123E-08 3.59240E-20-2.80713E-18
 -1      2103 9.52047E-05-2.85592E-05-2.85625E-05-2.48593E-08-3.68711E-20-1.67103E-18
 -1      2104 9.52131E-05-2.85649E-05-2.85634E-05-2.39703E-08-7.46566E-19-2.65585E-18
 -1      2105 9.52059E-05-2.85620E-05-2.85616E-05-2.37320E-08 1.16126E-19-2.44602E-18
 -1      2106 9.52121E-05-2.85638E-05-2.85637E-05-2.81967E-08 1.02248E-19-1.38549E-18
 -1      2107 9.52244E-05-2.85701E-05-2.85661E-05-1.96795E-08 1.23824E-19-2.86867E-18
 -1      2108 9.52177E-05-2.85673E-05-2.85645E-05-2.15294E-08-4.44934E-19-2.91263E-18
 -1      2109 9.52212E-05-2.85689E-05-2.85653E-05-2.64676E-08-9.66025E-20-1.91665E-18
 -1      2110 9.52324E-05-2.85743E-05-2.85678E-05-1.35024E-08-3.09428E-19-2.02646E-18
 -1      2111 9.52271E-05-2.85717E-05-2.85666E-05-1.73666E-08 2.09688E-19-2.35303E-18
 -1      2112 9.52289E-05-2.85735E-05-2.85666E-05-2.17735E-08-4.60001E-19-2.08309E-18
 -1      2113 9.52346E-05-2.85775E-05-2.85673E-05-1.61550E-08-1.72563E-18-6.33969E-19
 -1      2114 9.52488E-05-2.86041E-05-2.85620E-05-2.23431E-08-1.07520E-18-4.38819E-19
 -1      2115 9.52464E-05-2.85983E-05-2.85634E-05-2.34688E-08-9.71480E-19 9.42112E-19
 -1      2116 9.52444E-05-2.85949E-05-2.85640E-05-2.41544E-08-8.85306E-19-9.53688E-19
 -1      2117 9.52414E-05-2.85889E-05-2.85654E-05-2.36144E-08-5.63545E-19-1.11301E-18
 -1      2118 9.52439E-05-2.85910E-05-2.85655E-05-2.88243E-08-6.14405E-19-3.06824E-19
 -1      2119 9.52396E-05-2.85863E-05-2.85657E-05-2.21019E-08-6.43759E-19 2.48356E-19
 -1      2120 9.52365E-05-2.85807E-05-2.85668E-05-1.93073E-08-1.61704E-18 4.66442E-20
 -1      2121 9.52343E-05-2.85789E-05-2.85667E-05-2.27212E-08-1.01115E-18-2.68556E-19
 -1      2122 9.52392E-05-2.85849E-05-2.85662E-05-2.78950E-08-7.87006E-19 3.14468E-20
 -1      2123 9.52519E-05-2.86114E-05-2.85602E-05-1.83177E-08-2.78404E-18-1.83676E-18
 -1      2124 9.52501E-05-2.86067E-05-2.85614E-05-2.02959E-08-2.47250E-18-1.13864E-18
 -1      2125 9.52480E-05-2.85973E-05-2.85646E-05-2.57078E-08-1.29764E-18-2.48225E-18
 -1      2126 9.52539E-05-2.86170E-05-2.85586E-05-1.31310E-08-2.44771E-18 7.42063E-19
 -1      2127 9.52527E-05-2.86134E-05-2.85596E-05-1.55395E-08-2.63843E-18 2.37286E-19
 -1      2128 9.52506E-05-2.86020E-05-2.85637E-05-2.03790E-08-1.47831E-18-2.91787E-21
 -1      2129 9.52550E-05-2.86204E-05-2.85576E-05-7.54336E-09-2.54739E-18 9.04688E-19
 -1      2130 9.52543E-05-2.86182E-05-2.85582E-05-1.00832E-08-2.81423E-18 1.74903E-18
 -1      2131 9.52520E-05-2.86053E-05-2.85629E-05-1.39683E-08-1.72960E-18 1.07159E-18
 -1      2132 9.52555E-05-2.86219E-05-2.85572E-05-1.85084E-09-2.32607E-18 7.22283E-20
 -1      2133 9.52552E-05-2.86211E-05-2.85574E-05-4.42656E-09-2.80274E-18-3.73764E-19
 -1      2134 9.52527E-05-2.86072E-05-2.85624E-05-7.20948E-09-1.72215E-18 6.67078E-19
 -1      2135 9.52553E-05-2.86213E-05-2.85573E-05 3.90347E-09-2.48874E-18 1.14738E-18
 -1      2136 9.52555E-05-2.86219E-05-2.85572E-05 1.29694E-09-2.46536E-18 1.81179E-18
 -1      2137 9.52530E-05-2.86079E-05-2.85622E-05-3.52876E-10-2.70719E-18 8.74044E-19
 -1      2138 9.52546E-05-2.86187E-05-2.85581E-05 9.72236E-09-3.01220E-18-2.39103E-18
 -1      2139 9.52552E-05-2.86208E-05-2.85575E-05 7.09719E-09-3.15926E-18-2.95347E-19
 -1      2140 9.52529E-05-2.86075E-05-2.85624E-05 6.58982E-09-3.13813E-18-6.56472E-19
 -1      2141 9.52530E-05-2.86141E-05-2.85594E-05 1.53398E-08-4.81321E-19-3.98580E-19
 -1      2142 9.52542E-05-2.86175E-05-2.85585E-05 1.28576E-08-1.99054E-18-1.62772E-18
 -1      2143 9.52524E-05-2.86058E-05-2.85628E-05 1.35302E-08-1.51147E-18-1.71949E-18
 -1      2144 9.52504E-05-2.86073E-05-2.85612E-05 2.04065E-08 7.17324E-19 2.49316E-18
 -1      2145 9.52522E-05-2.86121E-05-2.85600E-05 1.82817E-08 6.24317E-20 1.47488E-18
 -1      2146 9.52510E-05-2.86027E-05-2.85636E-05 2.02205E-08 5.24682E-19 9.05106E-19
 -1      2147 9.52466E-05-2.85988E-05-2.85633E-05 2.38202E-08 1.21774E-18 3.93409E-19
 -1      2148 9.52491E-05-2.86046E-05-2.85619E-05 2.26224E-08 6.60582E-19 1.41902E-18
 -1      2149 9.52484E-05-2.85980E-05-2.85645E-05 2.59415E-08 1.38206E-18 1.94604E-18
 -1      2150 9.52412E-05-2.85891E-05-2.85652E-05 2.43241E-08-4.33176E-19 1.35454E-18
 -1      2151 9.52446E-05-2.85954E-05-2.85639E-05 2.45909E-08-1.36559E-19 4.35995E-19
 -1      2152 9.52442E-05-2.85915E-05-2.85654E-05 2.92859E-08 5.13381E-19-4.74985E-19
 -1      2153 5.64102E-05-3.85913E-05-8.06955E-06 4.11606E-05 3.96284E-18 6.33856E-18
 -1      2154 4.13252E-05-4.02562E-05-1.74715E-06 3.32968E-05 2.96631E-18 5.98662E-18
 -1      2155 1.29648E-05-3.24490E-05 7.25150E-06 7.60016E-06 5.00173E-19 5.16012E-18
 -1      2156 1.20058E-05-3.14882E-05 7.30982E-06-2.05223E-06-7.98329E-19 5.43626E-18
 -1      2157 2.49651E-05-3.33595E-05 2.75944E-06 2.64335E-05 2.34967E-18 5.41868E-18
 -1      2158 1.77719E-05-3.54963E-05 6.26354E-06 1.69171E-05 3.51307E-19 4.93736E-18
 -1      2159 1.81984E-05-2.37499E-05 1.93473E-06 1.51682E-05 2.08476E-19 5.27998E-18
 -1      2160 9.59233E-05-4.21857E-05-2.29477E-05 4.33252E-05 4.12336E-18 6.74154E-18
 -1      2161 7.80938E-05-4.47048E-05-1.51819E-05 3.94342E-05 3.42964E-18 5.88391E-18
 -1      2162 1.31203E-04-4.24909E-05-3.77019E-05 3.58217E-05 5.57009E-18 5.50571E-18
 -1      2163 1.10273E-04-4.29516E-05-2.94470E-05 3.65840E-05 4.49732E-18 6.35910E-18
 -1      2164 1.16045E-04-5.35960E-05-2.65393E-05 3.48838E-05 1.85416E-18 4.75884E-18
 -1      2165 8.73123E-05-8.31720E-06-3.39506E-05-8.58205E-06-1.01333E-18-1.69457E-18
 -1      2166 8.83688E-05-9.01493E-06-3.40853E-05-1.00952E-05-1.24037E-18-1.36984E-18
 -1      2167 9.09970E-05-1.27897E-05-3.35402E-05-9.66523E-06-1.35475E-18-1.07179E-18
 -1      2168 8.83990E-05-1.03037E-05-3.34966E-05-7.38195E-06-9.76146E-19-1.62911E-18
 -1      2169 1.76354E-04-2.70103E-05-6.26975E-05 8.78114E-06 6.13210E-18 3.10438E-18
 -1      2170 1.61704E-04-2.65753E-05-5.77201E-05 1.07217E-05 6.01224E-18 3.33223E-18
 -1      2171 1.78189E-04-2.23490E-05-6.58835E-05-7.90247E-07 4.88314E-18 1.84210E-18
 -1      2172 1.77105E-04-2.36274E-05-6.49222E-05 6.31251E-06 5.72594E-18 3.12661E-18
 -1      2173 1.55263E-04-1.53032E-05-5.90682E-05-2.23700E-06 5.87417E-18 1.47934E-18
 -1      2174 1.70441E-04-2.29608E-05-6.25594E-05-8.50375E-06 3.82944E-18 1.28918E-18
 -1      2175 1.79841E-04-2.33664E-05-6.56525E-05-3.49668E-06 3.80106E-18 1.89651E-18
 -1      2176 1.58117E-04-3.25616E-05-5.31752E-05-2.20210E-05 3.98010E-18-7.01343E-19
 -1      2177 1.69018E-04-3.01713E-05-5.85962E-05-1.41596E-05 3.94103E-18 7.05578E-19
 -1      2178 1.32687E-04-4.00097E-05-3.98867E-05-3.15253E-05 3.90037E-18-1.31036E-18
 -1      2179 1.50489E-04-3.83095E-05-4.71707E-05-3.00663E-05 3.88809E-18-1.47680E-18
 -1      2180 1.04428E-04-4.64351E-05-2.50895E-05-3.80525E-05 1.92742E-18-2.14172E-18
 -1      2181 1.21558E-04-4.26489E-05-3.31929E-05-3.94954E-05 3.35044E-18-1.70762E-18
 -1      2182 5.99200E-05-4.35653E-05-8.31685E-06-3.74252E-05 1.17738E-18-4.47096E-18
 -1      2183 8.11643E-05-4.41538E-05-1.63376E-05-4.33427E-05 1.07150E-18-3.42021E-18
 -1      2184 3.10912E-05-4.00018E-05 2.27649E-06-2.78742E-05 5.48454E-19-3.94844E-18
 -1      2185 4.32965E-05-3.79635E-05-3.05918E-06-3.59867E-05 1.46028E-18-4.50166E-18
 -1      2186 6.22452E-05-4.29261E-05-8.46388E-06-4.28677E-05-9.30042E-19-3.77639E-18
 -1      2187 1.41060E-05-3.34514E-05 7.14247E-06-1.09106E-05-1.13651E-18-4.82555E-18
 -1      2188 1.94714E-05-3.48801E-05 5.38792E-06-2.01698E-05 4.90856E-19-4.19959E-18
 -1      2189 1.55553E-05-3.52921E-05 7.10138E-06 1.26030E-05-2.60674E-18-5.68020E-18
 -1      2190 1.18324E-05-3.42199E-05 8.21906E-06 2.65819E-06-1.24571E-18-5.65479E-18
 -1      2191 3.69186E-05-3.78194E-05-4.88374E-07 3.14541E-05-3.75490E-18-5.30031E-18
 -1      2192 2.59084E-05-3.87267E-05 4.01722E-06 2.25170E-05-2.52670E-18-5.00385E-18
 -1      2193 7.02116E-05-4.18779E-05-1.26359E-05 4.05135E-05-4.88230E-18-6.39775E-18
 -1      2194 5.38646E-05-4.39936E-05-5.65807E-06 3.42177E-05-3.90482E-18-5.60234E-18
 -1      2195 1.09449E-04-4.42247E-05-2.78005E-05 4.10130E-05-4.98648E-18-6.58907E-18
 -1      2196 8.92707E-05-4.59890E-05-1.96608E-05 3.71745E-05-4.58287E-18-5.97074E-18
 -1      2197 1.46364E-04-4.25769E-05-4.36697E-05 3.28100E-05-5.72848E-18-5.73950E-18
 -1      2198 1.25274E-04-4.36904E-05-3.54368E-05 3.27827E-05-5.46590E-18-6.31844E-18
 -1      2199 1.74024E-04-3.69526E-05-5.74028E-05 2.00381E-05-6.34576E-18-3.59777E-18
 -1      2200 1.56550E-04-3.75709E-05-5.06509E-05 2.37870E-05-6.49865E-18-4.73491E-18
 -1      2201 1.84393E-04-2.85178E-05-6.56151E-05 5.68193E-06-5.79328E-18-1.70211E-18
 -1      2202 1.78899E-04-3.08935E-05-6.21942E-05 1.37868E-05-6.40124E-18-3.56431E-18
 -1      2203 1.84323E-04-2.52838E-05-6.69161E-05-2.34736E-06-5.65606E-18 2.43734E-19
 -1      2204 1.80632E-04-2.32750E-05-6.64730E-05 2.92141E-06-5.63955E-18-1.15271E-18
 -1      2205 1.75712E-04-2.76474E-05-6.27876E-05-8.35107E-06-6.24560E-18 1.21380E-18
 -1      2206 1.85089E-04-2.79727E-05-6.60459E-05-3.51472E-06-5.78947E-18 1.74701E-19
 -1      2207 1.61409E-04-1.55806E-05-6.13587E-05 2.78880E-06-6.22781E-18 3.48236E-19
 -1      2208 1.59638E-04-3.77616E-05-5.21419E-05-1.73003E-05-5.97111E-18 1.92446E-18
 -1      2209 1.72747E-04-3.55974E-05-5.78796E-05-1.18550E-05-6.03934E-18 6.58992E-19
 -1      2210 1.37249E-04-4.44972E-05-4.00563E-05-2.60595E-05-4.78150E-18 3.29665E-18
 -1      2211 1.55336E-04-4.29427E-05-4.74005E-05-2.51572E-05-5.51884E-18 2.58896E-18
 -1      2212 1.56159E-04-4.43107E-05-4.72628E-05-3.67853E-06-4.23442E-18-8.08916E-19
 -1      2213 1.00937E-04-4.61580E-05-2.44360E-05-3.60557E-05-3.99291E-18 4.18011E-18
 -1      2214 1.21003E-04-4.56978E-05-3.21199E-05-3.75621E-05-4.02637E-18 4.21695E-18
 -1      2215 6.72258E-05-4.44059E-05-1.11389E-05-3.57352E-05-3.03153E-18 4.51225E-18
 -1      2216 8.50400E-05-4.26436E-05-1.83523E-05-4.08959E-05-3.87941E-18 4.33681E-18
 -1      2217 1.06879E-04-5.43869E-05-2.25267E-05-3.68909E-05-6.02240E-19 1.99095E-18
 -1      2218 3.79697E-05-4.07664E-05-9.65464E-08-2.90033E-05-7.80964E-19 5.64950E-18
 -1      2219 5.08327E-05-3.97641E-05-5.34014E-06-3.62835E-05-2.02695E-18 5.58729E-18
 -1      2220 1.78579E-05-3.56390E-05 6.29036E-06-1.53901E-05-5.98217E-19 4.78955E-18
 -1      2221 2.57142E-05-3.61617E-05 3.49948E-06-2.33909E-05-1.69195E-18 5.69481E-18
 -1      2222 3.93770E-05-3.47393E-05-2.54688E-06-3.37187E-05 1.54901E-18 4.76265E-18
 -1      2223 1.58376E-04-3.61931E-05-5.18777E-05 1.91250E-05 5.36421E-18 3.96157E-18
 -1      2224 1.43568E-04-3.84470E-05-4.49839E-05 2.47194E-05 5.80133E-18 4.86747E-18
 -1      2225 1.41534E-04-4.82235E-05-3.94444E-05 1.89848E-05 4.12526E-18 3.09887E-18
 -1      2226 9.88871E-05-2.48102E-05-3.18098E-05-8.38010E-06-1.40991E-18 1.42124E-18
 -1      2227 1.52226E-04-3.89985E-05-4.78272E-05-1.17448E-05 3.25912E-18 1.19305E-18
 -1      2228 1.54230E-04-3.15450E-05-5.20078E-05 3.09467E-06 5.24652E-18 1.47214E-18
 -1      2229 9.80010E-05-2.35019E-05-3.20022E-05-8.32917E-06-1.44833E-18 5.95133E-19
 -1      2230 3.96024E-05-3.38730E-05-2.79555E-06 3.56170E-05 1.18182E-18 6.58102E-18
 -1      2231 7.92918E-05-4.74810E-05-1.37677E-05 4.32077E-05 1.21888E-18 4.80379E-18
 -1      2232 9.52388E-05-2.85846E-05-2.85662E-05 2.44314E-08-9.10906E-19 8.37993E-19
 -1      2233 1.84894E-05-2.49146E-05 2.25607E-06-1.13327E-05 2.72215E-19 5.47226E-18
 -1      2234 7.14787E-05-4.70833E-05-1.10048E-05-4.03370E-05 1.02957E-18 3.89903E-18
 -1      2235 1.39232E-04-5.47382E-05-3.58018E-05-2.16735E-05-2.18450E-18 9.64347E-19
 -1      2236 1.61833E-04-2.83351E-05-5.63683E-05 3.79536E-06-5.63362E-18-5.00173E-19
 -1      2237 1.64946E-04-1.81668E-05-6.18094E-05-3.50265E-07-6.39298E-18-1.94076E-19
 -1      2238 1.65409E-04-3.13098E-05-5.62415E-05 1.92902E-06-6.18885E-18-7.13202E-19
 -1      2239 1.53753E-04-4.64951E-05-4.52501E-05 1.34323E-05-4.53332E-18-2.04135E-18
 -1      2240 1.29119E-04-5.50617E-05-3.14969E-05 2.91417E-05-2.58769E-18-3.95988E-18
 -1      2241 9.34151E-05-5.25521E-05-1.77369E-05 4.01647E-05-2.03669E-18-4.50823E-18
 -1      2242 5.46797E-05-4.17158E-05-6.06252E-06 3.84703E-05-1.54880E-18-5.03466E-18
 -1      2243 2.47922E-05-2.98793E-05 1.57671E-06 2.27262E-05-1.24175E-18-5.55738E-18
 -1      2244 3.12696E-05-3.17076E-05-3.78424E-07-3.05133E-05-8.59315E-19-4.40288E-18
 -1      2245 9.94693E-05-5.02710E-05-2.11439E-05-4.00301E-05 4.90856E-19-2.06041E-18
 -1      2246 1.16004E-04-5.70365E-05-2.57739E-05-3.40780E-05-8.36022E-19 1.51195E-19
 -1      2247 9.57753E-05-5.23489E-05-1.80306E-05-4.20321E-05-1.52212E-18-1.38964E-18
 -1      2248 1.35149E-04-5.09189E-05-3.59083E-05-2.51377E-05 1.97359E-18 3.76083E-19
 -1      2249 1.57336E-04-1.25448E-05-6.11450E-05-1.20203E-07 4.70273E-18 1.99720E-18
 -1      2250 1.62127E-04-2.47433E-05-5.82335E-05-4.31425E-06 3.68650E-18 1.80609E-18
 -1      2251 1.48021E-04-1.69677E-05-5.64908E-05 4.99656E-06 3.31190E-18 3.02581E-18
 -1      2252 1.49681E-04-2.53264E-05-5.31169E-05 2.17877E-06 3.26806E-18 2.70225E-18
 -1      2253 1.53331E-05-2.52228E-05 3.65159E-06-5.27617E-06-1.16197E-18-5.84834E-18
 -1      2254 9.74149E-05-2.68602E-05-3.02165E-05 2.19276E-06 1.26728E-18 1.57690E-18
 -1      2255 9.80471E-05-2.62861E-05-3.06811E-05 4.11131E-06 1.44704E-18 1.69707E-18
 -1      2256 8.60072E-05-9.15508E-06-3.29762E-05-2.57087E-06-1.76167E-19-1.96130E-18
 -1      2257 8.65135E-05-9.56767E-06-3.30079E-05-3.41464E-06-4.20116E-19-2.00872E-18
 -1      2258 8.72212E-05-1.02885E-05-3.30195E-05-4.11597E-06-5.68496E-19-1.94816E-18
 -1      2259 8.80147E-05-1.09736E-05-3.30561E-05-5.05788E-06-7.91746E-19-1.78242E-18
 -1      2260 8.79454E-05-1.17102E-05-3.26647E-05-3.22274E-06-4.45789E-19-1.79253E-18
 -1      2261 8.53325E-05-8.54126E-06-3.29393E-05 2.66105E-07 4.17629E-19-1.92834E-18
 -1      2262 8.52883E-05-8.50317E-06-3.29394E-05-5.14820E-07 2.58690E-19-1.97716E-18
 -1      2263 8.58310E-05-8.98989E-06-3.29594E-05 1.73704E-06 7.12039E-19-1.82375E-18
 -1      2264 8.55279E-05-8.74338E-06-3.29428E-05 9.14728E-07 5.46500E-19-1.89416E-18
 -1      2265 8.64092E-05-1.02716E-05-3.26269E-05 4.42385E-07 4.69427E-19-1.79859E-18
 -1      2266 8.68326E-05-9.91164E-06-3.29959E-05 3.32100E-06 1.01643E-18-1.48331E-18
 -1      2267 8.62931E-05-9.46220E-06-3.29683E-05 2.43301E-06 8.06287E-19-1.65265E-18
 -1      2268 8.71009E-05-1.09414E-05-3.26363E-05 1.72320E-06 7.11104E-19-1.62292E-18
 -1      2269 8.83643E-05-1.13809E-05-3.30309E-05 5.11347E-06 1.49562E-18-1.08940E-18
 -1      2270 8.75671E-05-1.06783E-05-3.30006E-05 4.10542E-06 1.19923E-18-1.28022E-18
 -1      2271 8.83397E-05-1.21617E-05-3.26435E-05 3.13207E-06 1.06485E-18-1.15773E-18
 -1      2272 9.04567E-05-1.35210E-05-3.30292E-05 7.05573E-06 1.79377E-18-7.05135E-19
 -1      2273 8.93763E-05-1.24803E-05-3.30132E-05 5.95418E-06 1.58959E-18-9.37427E-19
 -1      2274 9.01238E-05-1.39933E-05-3.26191E-05 4.66556E-06 1.46485E-18-8.54646E-19
 -1      2275 9.32267E-05-1.66008E-05-3.29334E-05 8.93379E-06 1.95604E-18 5.69762E-21
 -1      2276 9.17861E-05-1.50447E-05-3.29543E-05 7.84553E-06 1.85238E-18-4.51793E-19
 -1      2277 9.24396E-05-1.65403E-05-3.25081E-05 6.16585E-06 1.71195E-18-4.57358E-19
 -1      2278 9.70937E-05-2.77290E-05-2.97027E-05-5.60975E-07 8.61522E-19 1.33586E-18
 -1      2279 9.72792E-05-2.74077E-05-2.98730E-05 5.65859E-07 1.02362E-18 1.52735E-18
 -1      2280 9.72850E-05-2.61532E-05-3.04993E-05 1.90711E-06 1.24719E-18 8.29973E-19
 -1      2281 9.76630E-05-2.52196E-05-3.10007E-05-3.61174E-06-1.11715E-18 1.79657E-19
 -1      2282 9.73423E-05-2.59687E-05-3.05870E-05-1.44640E-06-1.00652E-18 1.44533E-19
 -1      2283 1.44653E-04-4.43581E-05-4.31195E-05-6.72913E-06 2.23275E-18 2.19593E-18
 -1      2284 1.49220E-04-3.71306E-05-4.83475E-05-2.22237E-06 2.90829E-18 3.01290E-18
 -1      2285 9.73823E-05-2.65958E-05-3.02840E-05 2.47915E-07-9.70974E-19 2.11578E-19
 -1      2286 9.73523E-05-2.69963E-05-3.01352E-05 1.66792E-06-8.16017E-19 9.70738E-20
 -1      2287 9.69005E-05-2.50767E-05-3.07935E-05-9.30034E-07-1.00663E-18-3.50298E-19
 -1      2288 9.73775E-05-2.72909E-05-3.00016E-05 2.97244E-06-7.44615E-19 1.80308E-19
 -1      2289 9.76664E-05-2.75769E-05-3.00171E-05 4.02944E-06-6.36783E-19-9.52143E-20
 -1      2290 9.69880E-05-2.62669E-05-3.03268E-05 2.28849E-06-8.50098E-19-3.36107E-19
 -1      2291 9.78002E-05-2.77523E-05-3.00002E-05 5.09238E-06-4.45550E-19-1.09677E-19
 -1      2292 9.83782E-05-2.80290E-05-3.01269E-05 5.96018E-06-4.36053E-19-1.28298E-19
 -1      2293 9.71807E-05-2.68978E-05-3.01381E-05 4.82505E-06-6.03433E-19-3.61012E-19
 -1      2294 9.86529E-05-2.81884E-05-3.01878E-05 6.88113E-06-4.54084E-19-1.69836E-19
 -1      2295 9.94881E-05-2.85239E-05-3.03912E-05 7.63094E-06-3.17198E-19-1.93216E-19
 -1      2296 9.76174E-05-2.73322E-05-3.01368E-05 6.93992E-06-4.87617E-19-3.04223E-19
 -1      2297 9.99306E-05-2.87505E-05-3.04984E-05 8.44946E-06-2.50476E-19-3.45786E-19
 -1      2298 1.01008E-04-2.92178E-05-3.07495E-05 9.07292E-06-1.09079E-19-2.99841E-19
 -1      2299 9.83536E-05-2.77978E-05-3.02518E-05 8.78711E-06-3.85685E-19-4.24872E-19
 -1      2300 1.01678E-04-2.96165E-05-3.08747E-05 9.76052E-06-9.53640E-20-3.53442E-19
 -1      2301 1.03004E-04-3.03144E-05-3.11445E-05 1.01655E-05-2.16974E-19-3.05120E-19
 -1      2302 9.94750E-05-2.85287E-05-3.04220E-05 1.03899E-05-1.90515E-19-9.27047E-19
 -1      2303 1.04023E-04-3.10337E-05-3.12641E-05 1.06078E-05-2.68362E-19-2.02366E-19
 -1      2304 1.05618E-04-3.20871E-05-3.15225E-05 1.06033E-05-2.91903E-19-1.24823E-19
 -1      2305 1.01161E-04-2.98328E-05-3.05950E-05 1.16233E-05-1.66639E-19-5.59014E-19
 -1      2306 1.07188E-04-3.33124E-05-3.16269E-05 1.05687E-05 1.61244E-19 2.96180E-19
 -1      2307 1.09060E-04-3.48273E-05-3.18515E-05 9.86107E-06 4.76959E-19 3.82918E-19
 -1      2308 1.03731E-04-3.21114E-05-3.07389E-05 1.21703E-05 1.53387E-19 1.58140E-19
 -1      2309 1.11428E-04-3.66992E-05-3.19684E-05 8.96657E-06 6.05453E-19 5.32711E-19
 -1      2310 1.13489E-04-3.86111E-05-3.21660E-05 7.21040E-06 7.25570E-19 6.39427E-19
 -1      2311 1.07644E-04-3.57614E-05-3.08796E-05 1.14568E-05 6.67270E-19 5.21471E-19
 -1      2312 1.16757E-04-4.09811E-05-3.24010E-05 4.94890E-06 7.77457E-19 1.08003E-18
 -1      2313 1.18653E-04-4.27505E-05-3.26411E-05 1.94591E-06 8.82516E-19 1.09616E-18
 -1      2314 1.13293E-04-4.07948E-05-3.11711E-05 8.60711E-06 9.58199E-19 9.09869E-19
 -1      2315 1.22343E-04-4.47455E-05-3.32141E-05-2.01052E-06 8.54316E-19 1.20217E-18
 -1      2316 1.23287E-04-4.50534E-05-3.36434E-05-5.85744E-06 4.55816E-19 1.51782E-18
 -1      2317 1.20383E-04-4.59891E-05-3.19893E-05 2.65687E-06 1.03349E-18 1.14143E-18
 -1      2318 1.25956E-04-4.48613E-05-3.48400E-05-1.07913E-05-1.61853E-19 1.94086E-18
 -1      2319 1.24975E-04-4.20078E-05-3.56229E-05-1.38776E-05-1.04843E-18 1.76317E-18
 -1      2320 1.27029E-04-4.80555E-05-3.39305E-05-6.34196E-06 3.64045E-19 1.53484E-18
 -1      2321 1.24563E-04-3.77698E-05-3.75097E-05-1.67476E-05-1.85707E-18 1.51639E-18
 -1      2322 1.21803E-04-3.20725E-05-3.85136E-05-1.61519E-05-2.43136E-18 9.43482E-19
 -1      2323 1.29510E-04-4.23457E-05-3.74680E-05-1.52162E-05-1.69502E-18 2.19546E-18
 -1      2324 1.19244E-04-2.61362E-05-4.03193E-05-1.30464E-05-2.91093E-18 5.52755E-20
 -1      2325 1.17049E-04-2.17523E-05-4.09953E-05-7.70813E-06-3.46092E-18-4.41688E-19
 -1      2326 1.26133E-04-2.90352E-05-4.18962E-05-1.57308E-05-3.47066E-18 7.56295E-19
 -1      2327 1.16045E-04-2.00708E-05-4.14698E-05 8.20920E-07-3.04381E-18-1.53750E-18
 -1      2328 1.17079E-04-2.16685E-05-4.12495E-05 7.45618E-06-2.48879E-18-1.86987E-18
 -1      2329 1.21891E-04-1.82590E-05-4.47770E-05-4.09216E-06-3.70725E-18-1.52574E-18
 -1      2330 1.19220E-04-2.62468E-05-3.99888E-05 1.39389E-05-2.00577E-18-2.36580E-18
 -1      2331 1.22310E-04-3.20905E-05-3.90722E-05 1.69573E-05-1.74317E-18-2.29773E-18
 -1      2332 1.23786E-04-2.23913E-05-4.36980E-05 1.16578E-05-2.47471E-18-3.15710E-18
 -1      2333 1.24162E-04-3.76924E-05-3.71018E-05 1.67675E-05-9.83829E-19-2.37100E-18
 -1      2334 1.26281E-04-4.22820E-05-3.61917E-05 1.52570E-05 5.06102E-20-2.12511E-18
 -1      2335 1.28510E-04-3.58705E-05-3.98795E-05 1.80998E-05-1.40523E-18-3.38821E-18
 -1      2336 1.25059E-04-4.44768E-05-3.46262E-05 1.07724E-05 8.73810E-19-1.96813E-18
 -1      2337 1.25048E-04-4.55901E-05-3.40591E-05 7.05771E-06 1.82236E-18-1.62454E-18
 -1      2338 1.29309E-04-4.63551E-05-3.56267E-05 1.21599E-05 6.82404E-19-2.51381E-18
 -1      2339 1.21684E-04-4.44353E-05-3.32237E-05 2.42928E-06 1.84162E-18-1.56528E-18
 -1      2340 1.20228E-04-4.32010E-05-3.29395E-05-1.07969E-06 1.92318E-18-1.64790E-18
 -1      2341 1.24296E-04-4.77080E-05-3.29138E-05 2.38391E-06 1.59490E-18-1.89694E-18
 -1      2342 1.16661E-04-4.08416E-05-3.25912E-05-4.14873E-06 1.42321E-18-1.75135E-18
 -1      2343 1.14710E-04-3.89074E-05-3.24165E-05-6.48435E-06 7.77307E-19-1.76300E-18
 -1      2344 1.17155E-04-4.35608E-05-3.16466E-05-5.23052E-06 1.58713E-18-1.71851E-18
 -1      2345 1.11923E-04-3.67393E-05-3.22791E-05-7.94887E-06 9.10871E-19-1.81292E-18
 -1      2346 1.10036E-04-3.50254E-05-3.21013E-05-9.09384E-06 8.15431E-19-1.65514E-18
 -1      2347 1.10741E-04-3.81677E-05-3.11918E-05-9.43183E-06 8.17393E-19-1.85619E-18
 -1      2348 1.08136E-04-3.34983E-05-3.20111E-05-9.45625E-06 1.30729E-19-2.32002E-18
 -1      2349 1.06507E-04-3.22631E-05-3.17944E-05-9.73097E-06-3.35229E-19-2.20746E-18
 -1      2350 1.06072E-04-3.37976E-05-3.10324E-05-1.09953E-05 5.38040E-20-1.86340E-18
 -1      2351 1.05277E-04-3.13405E-05-3.16876E-05-9.46463E-06-5.20268E-19-2.00712E-18
 -1      2352 1.03920E-04-3.05364E-05-3.14398E-05-9.21787E-06-7.99977E-19-1.40670E-18
 -1      2353 1.02972E-04-3.09238E-05-3.09095E-05-1.09229E-05-1.61659E-19-1.70967E-18
 -1      2354 1.03113E-04-3.00380E-05-3.13057E-05-8.64833E-06-4.11299E-19-1.05121E-18
 -1      2355 1.01993E-04-2.95398E-05-3.10484E-05-8.14537E-06 1.82587E-19 9.58457E-20
 -1      2356 1.00954E-04-2.92760E-05-3.07353E-05-9.98219E-06-4.61406E-19-2.09186E-19
 -1      2357 1.01435E-04-2.92984E-05-3.08971E-05-7.46948E-06-4.01898E-19-4.89034E-19
 -1      2358 1.00512E-04-2.89952E-05-3.06504E-05-6.88093E-06 3.03703E-19-1.28709E-18
 -1      2359 9.95990E-05-2.84391E-05-3.05053E-05-8.66270E-06-3.08510E-19 4.30805E-19
 -1      2360 1.00099E-04-2.88945E-05-3.04959E-05-6.20857E-06 7.24729E-19-1.32786E-18
 -1      2361 9.93435E-05-2.87097E-05-3.02729E-05-5.63088E-06 7.41055E-19-2.01024E-18
 -1      2362 9.86322E-05-2.80765E-05-3.02430E-05-7.25350E-06 3.16369E-19-8.90331E-19
 -1      2363 9.90201E-05-2.86798E-05-3.01263E-05-5.01740E-06 5.87199E-19-2.03491E-18
 -1      2364 9.84073E-05-2.85657E-05-2.99334E-05-4.49776E-06 2.31328E-19-8.69017E-19
 -1      2365 9.78991E-05-2.79666E-05-2.99749E-05-5.91290E-06 3.99196E-19-1.40698E-18
 -1      2366 9.81460E-05-2.85684E-05-2.98015E-05-3.96606E-06-4.40900E-19-3.96352E-19
 -1      2367 9.76549E-05-2.84970E-05-2.96401E-05-3.52217E-06 5.38701E-20-2.38614E-19
 -1      2368 9.73187E-05-2.79788E-05-2.97206E-05-4.71745E-06 1.42239E-19 3.39284E-19
 -1      2369 9.74417E-05-2.85125E-05-2.95261E-05-3.07691E-06 1.15527E-18-6.81610E-19
 -1      2370 9.70535E-05-2.84675E-05-2.93946E-05-2.71042E-06 9.29142E-19 7.98385E-19
 -1      2371 9.68492E-05-2.80422E-05-2.94922E-05-3.69496E-06 3.77785E-19 8.35275E-19
 -1      2372 9.68802E-05-2.84867E-05-2.92991E-05-2.34676E-06-2.58100E-19 1.15545E-18
 -1      2373 9.65779E-05-2.84587E-05-2.91942E-05-2.05150E-06-6.75068E-19 1.11071E-18
 -1      2374 9.64680E-05-2.81211E-05-2.92949E-05-2.84579E-06 4.31519E-19 1.14251E-18
 -1      2375 9.64386E-05-2.84774E-05-2.91162E-05-1.76028E-06-1.01372E-18 9.48420E-19
 -1      2376 9.62069E-05-2.84606E-05-2.90342E-05-1.52690E-06-7.68298E-19 1.29093E-18
 -1      2377 9.61608E-05-2.81990E-05-2.91296E-05-2.15625E-06-8.90468E-19 1.16974E-18
 -1      2378 9.60967E-05-2.84775E-05-2.89717E-05-1.29755E-06-6.64892E-19 1.33950E-18
 -1      2379 9.59221E-05-2.84682E-05-2.89087E-05-1.11606E-06-2.31770E-19 8.11392E-19
 -1      2380 9.59166E-05-2.82692E-05-2.89946E-05-1.60653E-06-7.76180E-19 2.19419E-18
 -1      2381 9.58366E-05-2.84828E-05-2.88597E-05-9.38127E-07 5.15869E-19 1.14125E-18
 -1      2382 9.57073E-05-2.84786E-05-2.88121E-05-7.99058E-07 1.57525E-18 1.92898E-18
 -1      2383 9.57256E-05-2.83295E-05-2.88865E-05-1.17527E-06 4.56684E-19 2.97515E-18
 -1      2384 9.56422E-05-2.84910E-05-2.87743E-05-6.63009E-07 1.52870E-18 8.87631E-19
 -1      2385 9.55485E-05-2.84902E-05-2.87390E-05-5.57974E-07 1.46584E-18 1.19026E-18
 -1      2386 9.55791E-05-2.83800E-05-2.88017E-05-8.41951E-07 1.63904E-18 1.84085E-18
 -1      2387 9.54999E-05-2.85006E-05-2.87104E-05-4.55453E-07 8.04632E-19 5.05591E-19
 -1      2388 9.54337E-05-2.85019E-05-2.86848E-05-3.77293E-07-4.73072E-19 8.00798E-19
 -1      2389 9.54689E-05-2.84217E-05-2.87362E-05-5.88054E-07 8.76948E-19 2.20976E-20
 -1      2390 9.53984E-05-2.85105E-05-2.86635E-05-3.01211E-07 1.44775E-19 8.73019E-19
 -1      2391 9.53529E-05-2.85132E-05-2.86454E-05-2.43974E-07 5.65298E-19 9.90686E-19
 -1      2392 9.53880E-05-2.84556E-05-2.86867E-05-3.97509E-07-2.90600E-19-9.30049E-20
 -1      2393 9.53279E-05-2.85203E-05-2.86299E-05-1.88452E-07 3.42241E-19 1.20137E-18
 -1      2394 9.52980E-05-2.85237E-05-2.86174E-05-1.47289E-07 1.21930E-19 1.42641E-18
 -1      2395 9.53301E-05-2.84830E-05-2.86499E-05-2.56757E-07 4.36115E-19 5.80111E-19
 -1      2396 9.52810E-05-2.85296E-05-2.86063E-05-1.07548E-07-6.02778E-19 1.95930E-18
 -1      2397 9.52625E-05-2.85333E-05-2.85981E-05-7.85857E-08 3.69449E-19 1.59639E-18
 -1      2398 9.52900E-05-2.85050E-05-2.86230E-05-1.54609E-07 1.16473E-20 1.91060E-18
 -1      2399 9.52514E-05-2.85381E-05-2.85904E-05-5.08183E-08 8.45885E-19 1.05557E-18
 -1      2400 9.52411E-05-2.85420E-05-2.85852E-05-3.10254E-08 1.43671E-18 6.09968E-19
 -1      2401 9.52634E-05-2.85225E-05-2.86039E-05-8.20182E-08 5.31855E-20 2.24425E-18
 -1      2402 9.52343E-05-2.85460E-05-2.85801E-05-1.22662E-08 2.33029E-18-2.53377E-19
 -1      2403 9.52297E-05-2.85497E-05-2.85770E-05 6.61578E-10 2.41441E-18-7.36717E-19
 -1      2404 9.52468E-05-2.85365E-05-2.85906E-05-3.18301E-08 1.05711E-18-3.61679E-20
 -1      2405 9.52262E-05-2.85532E-05-2.85737E-05 1.26469E-08 1.86515E-18-3.81514E-19
 -1      2406 9.52253E-05-2.85569E-05-2.85721E-05 2.03854E-08 2.32274E-18-1.81146E-19
 -1      2407 9.52374E-05-2.85479E-05-2.85816E-05 1.46947E-09 2.40815E-18-7.29917E-19
 -1      2408 9.52240E-05-2.85600E-05-2.85700E-05 2.71974E-08 2.16400E-18-2.87697E-19
 -1      2409 9.52256E-05-2.85637E-05-2.85694E-05 3.08739E-08 4.03898E-19 2.58123E-19
 -1      2410 9.52333E-05-2.85574E-05-2.85756E-05 2.19690E-08 2.01721E-18 4.21732E-19
 -1      2411 9.52258E-05-2.85668E-05-2.85680E-05 3.36242E-08-1.09591E-18 9.39160E-20
 -1      2412 9.52287E-05-2.85705E-05-2.85678E-05 3.38425E-08-2.08231E-18 6.32748E-19
 -1      2413 9.52326E-05-2.85660E-05-2.85716E-05 3.25401E-08-6.68648E-20-1.27194E-18
 -1      2414 9.79548E-05-2.88452E-05-2.96067E-05-3.48167E-06 1.90013E-19 8.75762E-19
 -1      2415 9.74694E-05-2.85414E-05-2.95136E-05-3.03931E-06 4.38025E-19 9.73420E-19
 -1      2416 9.90010E-05-2.94609E-05-2.97988E-05-4.14933E-06 3.64064E-19 8.07481E-19
 -1      2417 9.83295E-05-2.91078E-05-2.96501E-05-3.91843E-06 7.86909E-20 7.33124E-19
 -1      2418 9.80710E-05-2.87449E-05-2.97285E-05-4.18238E-06 3.18964E-19 3.58996E-19
 -1      2419 1.00316E-04-3.01956E-05-3.00568E-05-4.35261E-06 5.59919E-19 1.17497E-18
 -1      2420 9.95413E-05-2.97849E-05-2.98851E-05-4.34050E-06 5.52149E-19 1.03972E-18
 -1      2421 9.90262E-05-2.94783E-05-2.98208E-05-4.89837E-06 2.87308E-19 5.73669E-19
 -1      2422 1.01784E-04-3.10637E-05-3.03258E-05-4.01953E-06 4.65128E-19 1.25228E-18
 -1      2423 1.00994E-04-3.06024E-05-3.01609E-05-4.26989E-06 5.50956E-19 1.40381E-18
 -1      2424 1.00287E-04-3.03717E-05-2.99757E-05-5.06244E-06 4.36105E-19 9.01623E-19
 -1      2425 1.03266E-04-3.20335E-05-3.05583E-05-3.03162E-06-4.49788E-20 1.42231E-18
 -1      2426 1.02565E-04-3.15552E-05-3.04281E-05-3.60129E-06 3.15770E-19 1.39534E-18
 -1      2427 1.01796E-04-3.14642E-05-3.01516E-05-4.58184E-06 2.59857E-19 1.36045E-18
 -1      2428 1.04571E-04-3.29913E-05-3.07183E-05-1.28826E-06 3.53702E-19 1.30449E-18
 -1      2429 1.04087E-04-3.25743E-05-3.06466E-05-2.21054E-06 9.55394E-20 1.30999E-18
 -1      2430 1.03459E-04-3.27201E-05-3.03223E-05-3.31954E-06 1.23738E-19 1.44315E-18
 -1      2431 1.05437E-04-3.37003E-05-3.07898E-05 1.18696E-06 6.91549E-19 1.06665E-18
 -1      2432 1.05319E-04-3.34826E-05-3.07901E-05-4.13706E-08 5.93201E-19 1.17193E-18
 -1      2433 1.05100E-04-3.39720E-05-3.04812E-05-1.17213E-06 5.69276E-19 1.12458E-18
 -1      2434 1.05546E-04-3.37937E-05-3.07860E-05 4.09850E-06 1.01364E-18 1.43468E-18
 -1      2435 1.05927E-04-3.39600E-05-3.08552E-05 2.75838E-06 8.68444E-19 1.34443E-18
 -1      2436 1.06404E-04-3.48623E-05-3.06463E-05 1.79824E-06 6.70312E-19 1.20277E-18
 -1      2437 1.04616E-04-3.28842E-05-3.07490E-05 6.74632E-06 5.55237E-20 1.71315E-18
 -1      2438 1.05544E-04-3.35862E-05-3.08641E-05 5.67514E-06 6.08411E-19 1.92904E-18
 -1      2439 1.06927E-04-3.48586E-05-3.08565E-05 5.17770E-06 4.12803E-19 2.08370E-18
 -1      2440 1.02636E-04-3.08508E-05-3.07331E-05 8.07201E-06-1.79378E-19 1.55647E-18
 -1      2441 1.03968E-04-3.20541E-05-3.08565E-05 7.76434E-06 2.42364E-21 1.78491E-18
 -1      2442 1.06238E-04-3.34648E-05-3.11500E-05 8.04669E-06 3.61370E-20 1.82203E-18
 -1      2443 1.00118E-04-2.81831E-05-3.07692E-05 7.06340E-06 8.69741E-19 8.47466E-19
 -1      2444 1.01467E-04-2.95316E-05-3.08644E-05 7.89185E-06 6.90696E-20 1.42937E-18
 -1      2445 1.04282E-04-3.06634E-05-3.15255E-05 9.09283E-06 3.51112E-19 1.33430E-18
 -1      2446 9.81257E-05-2.60297E-05-3.08413E-05 3.49320E-06 1.31057E-18 3.27322E-19
 -1      2447 9.89622E-05-2.69200E-05-3.08857E-05 5.38250E-06 1.20796E-18 6.10615E-19
 -1      2448 1.01756E-04-2.73397E-05-3.19050E-05 7.21315E-06 1.02471E-18 7.60227E-19
 -1      2449 9.77500E-05-2.55785E-05-3.09070E-05-1.55547E-06 3.77274E-19 2.43707E-19
 -1      2450 9.76814E-05-2.55291E-05-3.08926E-05 7.51970E-07 9.15332E-19 3.27798E-19
 -1      2451 9.99957E-05-2.50781E-05-3.21523E-05 2.48092E-06 1.15100E-18 9.66697E-19
 -1      2452 9.92950E-05-2.71242E-05-3.09452E-05-6.08761E-06-9.77165E-20-7.67624E-21
 -1      2453 9.83346E-05-2.61621E-05-3.08711E-05-4.25747E-06 1.45253E-19 2.11358E-19
 -1      2454 1.00127E-04-2.51837E-05-3.21628E-05-3.40420E-06 5.91633E-20 3.86471E-19
 -1      2455 1.01981E-04-2.97882E-05-3.09738E-05-8.44194E-06-2.29141E-19 1.77182E-19
 -1      2456 1.00537E-04-2.84227E-05-3.08481E-05-7.68084E-06-2.73334E-19 8.94612E-20
 -1      2457 1.02096E-04-2.75876E-05-3.19428E-05-7.98315E-06-1.46437E-19-4.63580E-19
 -1      2458 1.04591E-04-3.22820E-05-3.10193E-05-8.21115E-06 4.88698E-20-2.76828E-19
 -1      2459 1.03181E-04-3.10955E-05-3.08655E-05-8.54401E-06 8.58779E-21 1.61393E-19
 -1      2460 1.04723E-04-3.09221E-05-3.16014E-05-9.67988E-06 1.57840E-19 1.06007E-19
 -1      2461 1.06254E-04-3.37650E-05-3.10837E-05-6.11492E-06 1.09326E-18-8.48262E-19
 -1      2462 1.05248E-04-3.30825E-05-3.09379E-05-7.15493E-06 4.42545E-19-6.61966E-19
 -1      2463 1.06712E-04-3.36475E-05-3.12735E-05-8.53650E-06 4.66381E-19-6.43190E-19
 -1      2464 1.06742E-04-3.41104E-05-3.11338E-05-3.28054E-06 4.32070E-19-3.99506E-19
 -1      2465 1.06271E-04-3.39467E-05-3.10328E-05-4.54533E-06 1.09177E-18-5.03738E-19
 -1      2466 1.07431E-04-3.49563E-05-3.10333E-05-5.68750E-06 6.40069E-19-1.91779E-19
 -1      2467 1.06282E-04-3.36478E-05-3.11276E-05-6.21689E-07-8.06164E-19-2.92922E-19
 -1      2468 1.06288E-04-3.38410E-05-3.10941E-05-1.75416E-06-1.81123E-19-1.91416E-19
 -1      2469 1.06969E-04-3.49027E-05-3.08747E-05-2.42566E-06-9.00303E-21 3.58466E-19
 -1      2470 1.05243E-04-3.28022E-05-3.10417E-05 1.39726E-06-9.07879E-19-6.56152E-19
 -1      2471 1.05594E-04-3.31697E-05-3.10787E-05 5.63491E-07-1.03462E-18-6.98677E-19
 -1      2472 1.05773E-04-3.40113E-05-3.07547E-05 3.76475E-07-5.89398E-19-4.35961E-19
 -1      2473 1.03932E-04-3.18774E-05-3.08758E-05 2.67086E-06-4.50345E-19-3.58528E-19
 -1      2474 1.04489E-04-3.22898E-05-3.09716E-05 2.16331E-06-5.80457E-19-9.43922E-19
 -1      2475 1.04274E-04-3.28148E-05-3.06304E-05 2.36838E-06-3.20852E-19-1.13914E-18
 -1      2476 1.02560E-04-3.10401E-05-3.06472E-05 3.29145E-06-1.12771E-19 2.82619E-20
 -1      2477 1.03211E-04-3.14247E-05-3.07829E-05 3.06083E-06-2.21762E-19-1.77637E-19
 -1      2478 1.02751E-04-3.16517E-05-3.04781E-05 3.53351E-06-6.37760E-19-8.82081E-19
 -1      2479 1.01252E-04-3.03540E-05-3.03813E-05 3.42735E-06-5.09032E-19 9.56508E-19
 -1      2480 1.01916E-04-3.06802E-05-3.05371E-05 3.39762E-06-9.91566E-20 3.48368E-19
 -1      2481 1.01350E-04-3.06821E-05-3.02934E-05 4.02071E-06-4.17161E-19-1.01330E-18
 -1      2482 1.00071E-04-2.98237E-05-3.01030E-05 3.24837E-06-5.42121E-19 1.35267E-18
 -1      2483 1.00698E-04-3.00855E-05-3.02625E-05 3.34599E-06-6.73191E-19 1.46574E-18
 -1      2484 1.00129E-04-2.99454E-05-3.00849E-05 4.02658E-06-9.06129E-19-1.75223E-19
 -1      2485 9.90450E-05-2.94289E-05-2.98327E-05 2.89332E-06-4.61013E-19 2.54274E-18
 -1      2486 9.96047E-05-2.96316E-05-2.99841E-05 3.05947E-06-1.97703E-19 2.17533E-18
 -1      2487 9.90948E-05-2.94193E-05-2.98666E-05 3.73181E-06-8.11241E-19 4.36488E-19
 -1      2488 9.81781E-05-2.91425E-05-2.95843E-05 2.46255E-06 3.73679E-20 1.95771E-18
 -1      2489 9.86587E-05-2.92953E-05-2.97202E-05 2.65549E-06-2.67643E-20 2.42934E-18
 -1      2490 9.82366E-05-2.90606E-05-2.96519E-05 3.27785E-06-3.48083E-19 1.80860E-18
 -1      2491 9.74635E-05-2.89387E-05-2.93656E-05 2.02193E-06 3.86897E-19 2.27651E-18
 -1      2492 9.78629E-05-2.90516E-05-2.94827E-05 2.21482E-06-5.79601E-20 2.46538E-18
 -1      2493 9.75350E-05-2.88255E-05-2.94515E-05 2.76442E-06 5.03174E-21 2.02818E-18
 -1      2494 9.68871E-05-2.87964E-05-2.91798E-05 1.61046E-06 5.68950E-19 2.90249E-18
 -1      2495 9.72100E-05-2.88781E-05-2.92773E-05 1.78787E-06 7.75139E-19 2.62679E-18
 -1      2496 9.69694E-05-2.86775E-05-2.92721E-05 2.25571E-06 3.78146E-20 2.76635E-18
 -1      2497 9.64317E-05-2.86991E-05-2.90266E-05 1.24807E-06 1.06658E-18 2.12668E-18
 -1      2498 9.66862E-05-2.87569E-05-2.91054E-05 1.40251E-06 7.93827E-19 2.78307E-18
 -1      2499 9.65200E-05-2.85885E-05-2.91171E-05 1.78881E-06 8.09335E-19 3.57584E-18
 -1      2500 9.60792E-05-2.86341E-05-2.89036E-05 9.42109E-07 2.72920E-18 1.79852E-18
 -1      2501 9.62751E-05-2.86740E-05-2.89657E-05 1.07125E-06 1.78618E-18 2.13954E-18
 -1      2502 9.61681E-05-2.85386E-05-2.89872E-05 1.38186E-06 1.98921E-18 3.31608E-18
 -1      2503 9.58119E-05-2.85921E-05-2.88073E-05 6.92209E-07 3.12601E-18 1.65369E-18
 -1      2504 9.59591E-05-2.86188E-05-2.88549E-05 7.96786E-07 3.34434E-18 2.36693E-18
 -1      2505 9.58970E-05-2.85137E-05-2.88812E-05 1.04054E-06 3.13640E-18 2.63317E-18
 -1      2506 9.56138E-05-2.85664E-05-2.87336E-05 4.93678E-07 1.68821E-18 2.10099E-18
 -1      2507 9.57216E-05-2.85834E-05-2.87693E-05 5.76101E-07 2.66672E-18 1.80231E-18
 -1      2508 9.56917E-05-2.85044E-05-2.87968E-05 7.62959E-07 3.01669E-18 3.33464E-18
 -1      2509 9.54706E-05-2.85517E-05-2.86787E-05 3.39798E-07 8.88328E-20 5.61143E-19
 -1      2510 9.55472E-05-2.85619E-05-2.87047E-05 4.03193E-07 1.16512E-18 2.11513E-18
 -1      2511 9.55394E-05-2.85044E-05-2.87311E-05 5.43086E-07 1.65569E-18 4.03067E-18
 -1      2512 9.53700E-05-2.85447E-05-2.86388E-05 2.23256E-07-1.37558E-18 4.59173E-19
 -1      2513 9.54227E-05-2.85501E-05-2.86571E-05 2.70898E-07-5.10862E-19 3.12096E-19
 -1      2514 9.54288E-05-2.85095E-05-2.86811E-05 3.73008E-07 2.37181E-19 2.32227E-18
 -1      2515 9.53022E-05-2.85427E-05-2.86107E-05 1.36999E-07-7.14606E-19-1.63748E-19
 -1      2516 9.53367E-05-2.85448E-05-2.86232E-05 1.71974E-07-1.47068E-18-1.33949E-19
 -1      2517 9.53506E-05-2.85172E-05-2.86441E-05 2.44386E-07-9.27778E-19 2.39496E-18
 -1      2518 9.52586E-05-2.85438E-05-2.85917E-05 7.47009E-08 1.48005E-19 4.58161E-19
 -1      2519 9.52797E-05-2.85438E-05-2.85997E-05 9.97326E-08-1.49502E-19-2.98165E-19
 -1      2520 9.52973E-05-2.85257E-05-2.86173E-05 1.49304E-07-1.58995E-19 7.87237E-19
 -1      2521 9.52330E-05-2.85469E-05-2.85794E-05 3.09755E-08 1.34313E-19-1.56123E-19
 -1      2522 9.52444E-05-2.85455E-05-2.85842E-05 4.83484E-08 3.09624E-19 1.89211E-19
 -1      2523 9.52625E-05-2.85343E-05-2.85985E-05 8.07262E-08 2.37387E-19 1.94886E-18
 -1      2524 9.52201E-05-2.85512E-05-2.85721E-05 1.44891E-09 1.22013E-18-1.14646E-18
 -1      2525 9.52247E-05-2.85489E-05-2.85747E-05 1.29899E-08 1.07595E-18-2.04258E-19
 -1      2526 9.52415E-05-2.85425E-05-2.85858E-05 3.27065E-08 1.00146E-18-1.98880E-19
 -1      2527 9.52158E-05-2.85561E-05-2.85683E-05-1.72636E-08 7.71779E-19-1.09442E-18
 -1      2528 9.52160E-05-2.85533E-05-2.85693E-05-1.01721E-08 4.80729E-19-9.93825E-19
 -1      2529 9.52302E-05-2.85500E-05-2.85776E-05 4.45401E-10 7.92981E-19-1.04977E-18
 -1      2530 9.52173E-05-2.85615E-05-2.85667E-05-2.75984E-08-1.35164E-19-5.45665E-19
 -1      2531 9.52146E-05-2.85584E-05-2.85667E-05-2.40073E-08 7.13504E-19-3.09364E-19
 -1      2532 9.52258E-05-2.85570E-05-2.85726E-05-1.97587E-08 7.21002E-19 3.05345E-19
 -1      2533 9.52222E-05-2.85673E-05-2.85664E-05-3.11451E-08 1.27189E-19-2.98416E-19
 -1      2534 9.52180E-05-2.85639E-05-2.85659E-05-3.05239E-08 1.24448E-20-7.10626E-19
 -1      2535 9.52259E-05-2.85638E-05-2.85696E-05-3.05694E-08-8.60479E-20 5.98888E-19
 -1      2536 9.52286E-05-2.85734E-05-2.85666E-05-2.87170E-08-4.46786E-19-6.44293E-19
 -1      2537 9.52240E-05-2.85699E-05-2.85660E-05-3.07212E-08 9.46504E-20-3.68406E-19
 -1      2538 9.52291E-05-2.85710E-05-2.85679E-05-3.38663E-08 1.40538E-19 3.03709E-19
 -1      2539 9.52313E-05-2.85764E-05-2.85664E-05-2.51369E-08-9.14507E-19-7.01812E-19
 -1      2540 9.52503E-05-2.85931E-05-2.85674E-05-1.97010E-08-3.35746E-19 6.23659E-19
 -1      2541 9.52492E-05-2.85912E-05-2.85677E-05-2.27951E-08 3.12620E-19-1.61269E-18
 -1      2542 9.52510E-05-2.85941E-05-2.85672E-05-1.27665E-08-8.89683E-19 1.89442E-18
 -1      2543 9.52505E-05-2.85929E-05-2.85675E-05-1.61519E-08-7.55319E-19 1.01026E-18
 -1      2544 9.52493E-05-2.85822E-05-2.85716E-05-1.85895E-08 5.35381E-19 4.09225E-19
 -1      2545 9.52447E-05-2.85875E-05-2.85673E-05-3.04530E-08-8.51049E-19-1.92654E-19
 -1      2546 9.52415E-05-2.85838E-05-2.85676E-05-3.12721E-08-6.97715E-19-2.06714E-19
 -1      2547 9.52484E-05-2.85910E-05-2.85674E-05-2.59656E-08-6.21744E-19-2.35808E-18
 -1      2548 9.52465E-05-2.85883E-05-2.85678E-05-2.82378E-08-9.79378E-19-1.16548E-18
 -1      2549 9.52447E-05-2.85814E-05-2.85700E-05-3.10136E-08-1.44591E-18-1.56805E-18
 -1      2550 9.52480E-05-2.85824E-05-2.85710E-05-2.54835E-08 9.64923E-19-1.07960E-18
 -1      2551 9.52512E-05-2.85945E-05-2.85671E-05-5.72854E-09-1.01799E-18 2.68402E-19
 -1      2552 9.52510E-05-2.85939E-05-2.85673E-05-9.18159E-09-8.41799E-19 9.75225E-19
 -1      2553 9.52495E-05-2.85817E-05-2.85719E-05-1.13257E-08-3.73100E-19 1.96413E-18
 -1      2554 9.52513E-05-2.85945E-05-2.85671E-05 1.31220E-09-1.63368E-18 7.33214E-19
 -1      2555 9.52512E-05-2.85944E-05-2.85671E-05-2.17265E-09-1.60110E-18 9.45963E-19
 -1      2556 9.52495E-05-2.85813E-05-2.85720E-05-4.10709E-09-3.84489E-19 2.74379E-19
 -1      2557 9.52513E-05-2.85942E-05-2.85672E-05 8.46420E-09-1.76176E-18-4.64621E-19
 -1      2558 9.52514E-05-2.85948E-05-2.85671E-05 4.92139E-09-2.30255E-18 5.67834E-19
 -1      2559 9.52497E-05-2.85815E-05-2.85720E-05 3.12022E-09-4.51067E-19 2.27242E-19
 -1      2560 9.52510E-05-2.85935E-05-2.85674E-05 1.56240E-08 6.02632E-19-4.13534E-19
 -1      2561 9.52515E-05-2.85947E-05-2.85672E-05 1.21418E-08-4.38516E-19-1.20512E-18
 -1      2562 9.52500E-05-2.85822E-05-2.85719E-05 1.04911E-08-4.23355E-20-3.82578E-19
 -1      2563 9.52498E-05-2.85919E-05-2.85676E-05 2.27127E-08 1.67715E-18 2.39098E-18
 -1      2564 9.52509E-05-2.85939E-05-2.85673E-05 1.94111E-08 1.44926E-18 6.55174E-19
 -1      2565 9.52500E-05-2.85830E-05-2.85715E-05 1.80922E-08 1.83240E-18 7.65170E-19
 -1      2566 9.52470E-05-2.85891E-05-2.85677E-05 2.85647E-08 1.34669E-18 1.58221E-18
 -1      2567 9.52490E-05-2.85918E-05-2.85674E-05 2.60715E-08 1.42135E-18 2.38496E-18
 -1      2568 9.52486E-05-2.85832E-05-2.85709E-05 2.55456E-08 1.38615E-18 1.81361E-18
 -1      2569 9.52417E-05-2.85844E-05-2.85675E-05 3.17388E-08-7.20781E-19-1.93755E-18
 -1      2570 9.52450E-05-2.85880E-05-2.85672E-05 3.09759E-08 5.47162E-19-9.40145E-19
 -1      2571 9.52454E-05-2.85822E-05-2.85700E-05 3.14349E-08 5.41870E-19-3.79451E-19
 -1      2572 9.46236E-05-5.12591E-05-1.86631E-05 4.23217E-05-2.67874E-19 3.90961E-18
 -1      2573 7.42869E-05-4.45074E-05-1.25083E-05 4.26449E-05-1.79571E-19 3.65447E-18
 -1      2574 9.52357E-05-2.85812E-05-2.85662E-05 2.90531E-08-1.02255E-18 1.24433E-18
 -1      2575 2.05623E-05-1.67855E-05-1.24046E-06-5.47611E-06 4.98082E-19 4.94117E-18
 -1      2576 2.75380E-05-2.15318E-05-2.23971E-06-2.09781E-05 1.06144E-18 4.41495E-18
 -1      2577 9.72852E-05-2.83019E-05-2.95456E-05-2.33440E-06 6.35940E-19 1.03630E-18
 -1      2578 9.70784E-05-2.80220E-05-2.95502E-05-1.62797E-06 7.32998E-19 1.20716E-18
 -1      2579 9.74644E-05-2.80825E-05-2.97543E-05-2.91772E-06 6.47365E-19 6.02111E-19
 -1      2580 2.54451E-05-2.03637E-05-1.91416E-06 2.23269E-05 5.24313E-19 5.00681E-18
 -1      2581 2.04020E-05-1.71517E-05-1.02690E-06 1.00504E-05 1.58501E-19 5.54214E-18
 -1      2582 1.25386E-04-5.66495E-05-2.97382E-05 2.84507E-05 1.28664E-18 2.97287E-18
 -1      2583 1.12243E-04-5.58875E-05-2.40653E-05 3.37640E-05 3.45589E-19 3.84320E-18
 -1      2584 7.16048E-05-4.41148E-05-1.15852E-05-4.04888E-05 2.80664E-18 2.86583E-18
 -1      2585 9.00424E-05-5.10663E-05-1.65590E-05-4.07289E-05 1.85119E-18 1.53547E-18
 -1      2586 1.47121E-04-1.35928E-05-5.78266E-05-3.25369E-06-6.43533E-18 5.68994E-19
 -1      2587 1.51547E-04-1.92291E-05-5.70202E-05-6.05333E-06-6.17169E-18 1.53948E-19
 -1      2588 8.53835E-05-8.58817E-06-3.29452E-05-1.13941E-06 2.06486E-19-2.03813E-18
 -1      2589 8.56101E-05-8.76602E-06-3.29630E-05-1.92697E-06-7.33234E-21-2.01047E-18
 -1      2590 8.68037E-05-1.06175E-05-3.26457E-05-1.96280E-06-7.77380E-20-1.81789E-18
 -1      2591 8.62977E-05-1.01524E-05-3.26293E-05-7.65624E-07 2.08349E-19-1.90907E-18
 -1      2592 1.42116E-04-1.21221E-05-5.62218E-05-4.15757E-06 5.33610E-18 6.26487E-19
 -1      2593 1.41878E-04-1.59049E-05-5.43801E-05-6.66185E-06 5.23763E-18-5.52689E-20
 -1      2594 1.83942E-05-1.88361E-05 3.88364E-07 3.88527E-06-1.19230E-18-5.84919E-18
 -1      2595 2.00880E-05-1.84926E-05-4.86479E-07-1.23101E-05-1.12295E-18-4.97293E-18
 -1      2596 1.46015E-04-2.65697E-05-5.17629E-05-5.68242E-06 4.84037E-18-4.17164E-19
 -1      2597 1.44990E-04-3.65928E-05-4.66226E-05-1.55821E-06 3.93182E-18-3.05355E-19
 -1      2598 1.43316E-04-1.09233E-05-5.72552E-05 2.34320E-06 3.55330E-18 1.84627E-18
 -1      2599 1.42688E-04-9.42555E-06-5.75494E-05-6.06058E-07 4.74508E-18 1.31248E-18
 -1      2600 1.30952E-04-5.54276E-05-3.24353E-05-2.22734E-05 3.49613E-19 1.64282E-18
 -1      2601 1.40701E-04-5.18340E-05-3.82379E-05-1.60458E-05 1.08606E-18 1.49035E-18
 -1      2602 5.85567E-05-3.88849E-05-8.24639E-06-4.13224E-05-2.04728E-18-3.10681E-18
 -1      2603 7.44604E-05-4.44751E-05-1.28240E-05-4.42499E-05-2.13410E-18-2.92311E-18
 -1      2604 2.99328E-05-2.38787E-05-2.23972E-06-2.65212E-05-1.56955E-18-3.81779E-18
 -1      2605 4.24850E-05-3.06524E-05-4.96257E-06-3.71938E-05-1.41666E-18-3.39258E-18
 -1      2606 5.62705E-05-3.31315E-05-9.40170E-06-3.88724E-05-2.33612E-18-2.85789E-18
 -1      2607 3.48215E-05-2.60522E-05-3.55043E-06 2.97069E-05-4.82174E-19-4.72962E-18
 -1      2608 2.43473E-05-2.14903E-05-9.16454E-07 1.69131E-05-3.64965E-19-5.45108E-18
 -1      2609 7.12370E-05-4.43362E-05-1.15085E-05 4.26302E-05-5.79794E-19-3.96433E-18
 -1      2610 5.29560E-05-3.63106E-05-6.90555E-06 3.77025E-05-2.77403E-19-4.20425E-18
 -1      2611 1.08513E-04-5.68742E-05-2.22823E-05 3.72100E-05-5.16902E-19-2.47953E-18
 -1      2612 9.01076E-05-5.22217E-05-1.61983E-05 3.94800E-05-2.03076E-19-3.02830E-18
 -1      2613 1.38493E-04-5.83754E-05-3.46256E-05 2.00791E-05-1.07298E-18-1.87575E-18
 -1      2614 1.24764E-04-5.94621E-05-2.80432E-05 2.67931E-05-2.31664E-19-2.12605E-18
 -1      2615 1.53702E-04-4.56844E-05-4.66026E-05 2.18320E-06-4.12606E-18-1.65171E-20
 -1      2616 1.46100E-04-5.18468E-05-4.04809E-05 8.68362E-06-2.70251E-18-9.21148E-19
 -1      2617 1.54460E-04-2.76261E-05-5.47970E-05-6.63772E-06-5.56967E-18 3.47495E-19
 -1      2618 1.53226E-04-3.53363E-05-5.07311E-05-5.21267E-06-5.06229E-18 1.95241E-19
 -1      2619 1.48096E-04-1.67269E-05-5.68139E-05 6.96169E-06-5.28422E-18-5.13408E-19
 -1      2620 1.46704E-04-1.34835E-05-5.76012E-05 2.88401E-06-5.90128E-18-4.18778E-19
 -1      2621 1.49629E-04-3.15447E-05-5.10306E-05 9.38696E-06-4.56000E-18-1.88782E-18
 -1      2622 1.51032E-04-2.31611E-05-5.51726E-05 8.90456E-06-4.91576E-18-9.23689E-19
 -1      2623 1.47964E-04-4.97001E-05-4.24012E-05 1.60117E-06-1.92822E-18-2.39075E-18
 -1      2624 1.50097E-04-4.34047E-05-4.63442E-05 6.00202E-06-3.03206E-18-2.73867E-18
 -1      2625 1.32905E-04-5.92038E-05-3.16487E-05-1.93760E-05 2.54322E-19-4.38340E-19
 -1      2626 1.45000E-04-5.63514E-05-3.84028E-05-9.59739E-06-8.40733E-19-1.54499E-18
 -1      2627 1.43952E-04-5.48185E-05-3.82521E-05 7.02331E-07 1.42090E-19-3.16282E-18
 -1      2628 1.03021E-04-5.58107E-05-2.02792E-05-3.57953E-05 1.91175E-18 1.14868E-18
 -1      2629 1.17745E-04-5.86420E-05-2.55833E-05-3.20796E-05 1.26483E-18 5.42313E-19
 -1      2630 1.02370E-04-5.49794E-05-2.00165E-05-3.58094E-05 3.75913E-18 3.50539E-19
 -1      2631 5.30082E-05-3.44314E-05-7.90661E-06 4.15546E-05-1.51619E-19 4.73830E-18
 -1      2632 3.70730E-05-2.67570E-05-4.06869E-06 3.21200E-05-4.74974E-19 5.35431E-18
 -1      2633 3.58062E-05-2.66741E-05-3.62803E-06-2.80331E-05 2.33823E-18 3.88322E-18
 -1      2634 4.79688E-05-3.18266E-05-6.72252E-06-3.54220E-05 3.02920E-18 3.38157E-18
 -1      2635 3.71655E-05-2.06771E-05-6.48293E-06-2.29112E-05 2.01477E-18 3.34599E-18
 -1      2636 9.63348E-05-2.01829E-05-3.26785E-05-9.56164E-06-1.40069E-18-1.70373E-19
 -1      2637 9.70413E-05-2.35037E-05-3.15260E-05-5.57480E-06-1.28701E-18 6.20237E-20
 -1      2638 9.62680E-05-2.24299E-05-3.16468E-05-4.85292E-06-1.15004E-18-4.66864E-19
 -1      2639 9.41974E-05-1.76686E-05-3.28359E-05-8.97668E-06-1.37592E-18-6.06317E-19
 -1      2640 9.80920E-05-2.55495E-05-3.11062E-05 5.84564E-06 1.64625E-18 1.83990E-18
 -1      2641 9.89382E-05-2.42028E-05-3.20477E-05 9.00745E-06 1.70100E-18 2.09863E-18
 -1      2642 9.72964E-05-2.16894E-05-3.24590E-05 1.00460E-05 1.90311E-18 1.49713E-18
 -1      2643 9.74926E-05-2.44847E-05-3.13245E-05 5.57023E-06 1.61585E-18 1.11947E-18
 -1      2644 1.42979E-04-4.89757E-05-4.08202E-05 7.59227E-06 2.52768E-18-1.70677E-19
 -1      2645 1.35080E-04-5.43027E-05-3.46833E-05 1.58223E-05 1.76982E-18 6.70215E-19
 -1      2646 1.36687E-04-2.17248E-05-4.95753E-05-9.30515E-06 4.19917E-18-1.49342E-18
 -1      2647 8.97116E-05-1.34867E-05-3.26577E-05-4.57866E-06-8.24741E-19-1.54825E-18
 -1      2648 8.90447E-05-1.20648E-05-3.30483E-05-5.81383E-06-8.86282E-19-1.63338E-18
 -1      2649 9.01463E-05-1.31089E-05-3.30707E-05-6.85626E-06-1.07973E-18-1.38401E-18
 -1      2650 9.72301E-05-2.73319E-05-2.99744E-05-9.82802E-07 9.26545E-19 6.38746E-19
 -1      2651 9.54510E-05-1.93256E-05-3.26700E-05 9.61243E-06 1.89286E-18 7.31228E-19
 -1      2652 1.40715E-04-4.41337E-05-4.15453E-05-2.79910E-06 1.86072E-18-2.15866E-18
 -1      2653 1.40187E-04-1.99270E-05-5.17797E-05 1.07297E-05-4.41622E-18-2.50425E-18
 -1      2654 1.42973E-04-2.26812E-05-5.17473E-05-1.09224E-05-5.44282E-18 1.50348E-18
 -1      2655 1.48948E-04-4.15230E-05-4.60503E-05-7.90247E-06-3.83621E-18 9.77688E-19
 -1      2656 1.44058E-04-3.14093E-05-4.85348E-05 6.20427E-06 2.64327E-18 3.29326E-18
 -1      2657 1.42614E-04-5.76125E-05-3.65444E-05 8.23187E-06-7.62277E-19 1.24726E-19
 -1      2658 1.21559E-04-6.08455E-05-2.59023E-05 2.80397E-05 7.50259E-19-1.54599E-18
 -1      2659 8.81048E-05-4.92551E-05-1.62655E-05 3.95028E-05 9.29619E-19-2.54925E-18
 -1      2660 9.52338E-05-2.85779E-05-2.85668E-05-2.99680E-08-6.31352E-19 8.84209E-19
 -1      2661 9.52369E-05-2.85808E-05-2.85669E-05-3.12393E-08-8.02146E-19 1.19628E-19
 -1      2662 3.10178E-05-1.88637E-05-4.63321E-06-1.89151E-05-1.68676E-18-4.49986E-18
 -1      2663 7.07894E-05-3.95892E-05-1.28873E-05 4.10963E-05-1.72943E-18 3.53859E-18
 -1      2664 1.07368E-04-5.51200E-05-2.20872E-05 3.53803E-05-7.47718E-19 3.73504E-18
 -1      2665 9.52322E-05-2.85758E-05-2.85671E-05 3.13577E-08-1.59546E-18 9.15752E-19
 -1      2666 9.52385E-05-2.85819E-05-2.85671E-05 3.29955E-08-1.12128E-18-1.17660E-19
 -1      2667 9.52389E-05-2.85782E-05-2.85688E-05 3.45378E-08-1.69984E-18-4.15614E-19
 -1      2668 9.52292E-05-2.85726E-05-2.85671E-05 3.37119E-08-1.81666E-18 8.95088E-19
 -1      2669 2.84233E-05-1.67776E-05-4.37872E-06 1.04401E-05-4.17799E-19-5.49513E-18
 -1      2670 2.70199E-05-1.48005E-05-4.62668E-06 1.09072E-06 4.43832E-19 5.63086E-18
 -1      2671 9.57832E-05-2.06677E-05-3.21498E-05 7.47537E-06 1.76922E-18 5.30196E-19
 -1      2672 3.87111E-05-2.20457E-05-6.55614E-06 2.80391E-05-6.28604E-19 5.07203E-18
 -1      2673 1.25854E-04-5.82681E-05-2.89368E-05-2.68445E-05-6.25110E-19 1.53324E-18
 -1      2674 1.31574E-04-5.87336E-05-3.14418E-05-1.74891E-05-9.52171E-19 2.29017E-18
 -1      2675 1.18316E-04-5.80120E-05-2.55002E-05-3.03380E-05-1.83330E-18 1.30612E-18
 -1      2676 9.13218E-05-1.44400E-05-3.30097E-05-7.46224E-06-1.18685E-18-1.18506E-18
 -1      2677 9.27718E-05-1.59803E-05-3.29844E-05-8.47632E-06-1.37863E-18-9.63910E-19
 -1      2678 9.43465E-05-1.88218E-05-3.23441E-05-6.62080E-06-1.27644E-18-7.77053E-19
 -1      2679 9.19146E-05-1.58672E-05-3.25718E-05-5.78361E-06-1.08197E-18-1.15224E-18
 -1      2680 1.29299E-04-6.12593E-05-2.89590E-05-2.06431E-05 2.32775E-18-1.06980E-18
 -1      2681 1.44419E-04-3.71007E-05-4.61485E-05 1.40379E-05-2.57212E-18-3.24223E-18
 -1      2682 1.40147E-04-1.35989E-05-5.46402E-05 5.22809E-06 3.04191E-18 1.61127E-18
 -1      2683 1.29022E-04-9.37565E-06-5.17722E-05 5.03373E-06 3.22296E-18 9.60853E-19
 -1      2684 1.33905E-04-1.54822E-05-5.11989E-05 8.27369E-06 2.74439E-18 1.96533E-18
 -1      2685 1.38109E-04-1.31482E-05-5.37746E-05-7.51258E-07-5.63912E-18-5.57454E-19
 -1      2686 6.44659E-05-3.77843E-05-1.09903E-05-3.81877E-05 3.52641E-18 3.15319E-18
 -1      2687 8.00069E-05-4.29017E-05-1.58680E-05-3.77754E-05 3.67178E-18 1.58660E-18
 -1      2688 5.81552E-05-2.99590E-05-1.15531E-05-3.41367E-05 3.07346E-18 2.65651E-18
 -1      2689 1.32235E-04-5.73561E-05-3.19300E-05 1.68858E-05 2.58769E-19 1.31078E-19
 -1      2690 1.41696E-04-5.01503E-05-3.93529E-05-5.15414E-06 1.07709E-18 2.45364E-18
 -1      2691 8.90754E-05-4.97164E-05-1.65354E-05-4.22007E-05-2.42124E-18-1.97461E-18
 -1      2692 1.02028E-04-5.42252E-05-2.06798E-05-3.75514E-05-2.62633E-18-4.17958E-19
 -1      2693 8.44697E-05-4.58532E-05-1.60138E-05-4.18726E-05-2.99394E-18-1.81059E-18
 -1      2694 1.32474E-04-9.31634E-06-5.31270E-05-3.56394E-06 4.65656E-18 8.63444E-20
 -1      2695 5.11754E-05-3.01921E-05-8.53012E-06 3.36773E-05 4.24787E-19-4.32368E-18
 -1      2696 9.52370E-05-2.85775E-05-2.85684E-05-3.36678E-08-1.08075E-18 7.41258E-19
 -1      2697 9.52341E-05-2.85732E-05-2.85690E-05 3.53478E-08-1.91526E-18-2.00314E-18
 -1      2698 8.81172E-05-1.27595E-05-3.23128E-05 1.56892E-06 7.60397E-19-1.37307E-18
 -1      2699 8.76171E-05-1.22874E-05-3.23085E-05 9.48022E-07 5.73895E-19-1.51493E-18
 -1      2700 8.72240E-05-1.18726E-05-3.23098E-05 5.25771E-07 4.95890E-19-1.74349E-18
 -1      2701 8.70045E-05-1.16708E-05-3.23078E-05-5.05348E-08 3.68043E-19-1.76957E-18
 -1      2702 8.82173E-05-1.35294E-05-3.19913E-05 3.98583E-07 4.15542E-19-1.53792E-18
 -1      2703 9.15041E-05-1.63712E-05-3.22301E-05 3.97114E-06 1.44430E-18-6.95265E-19
 -1      2704 9.04928E-05-1.52762E-05-3.22635E-05 3.25929E-06 1.29929E-18-8.00140E-19
 -1      2705 9.39153E-05-1.92536E-05-3.20330E-05 5.02286E-06 1.60898E-18-2.98592E-19
 -1      2706 9.26507E-05-1.77091E-05-3.21403E-05 4.44912E-06 1.49305E-18-5.00471E-19
 -1      2707 9.29665E-05-1.87196E-05-3.17982E-05 2.96782E-06 1.30010E-18-4.29542E-19
 -1      2708 9.68534E-05-2.54419E-05-3.06093E-05 1.21174E-06 1.11986E-18 4.08263E-19
 -1      2709 9.69530E-05-2.45821E-05-3.09828E-05 3.04525E-06 1.28390E-18 4.66441E-19
 -1      2710 4.80088E-05-2.37324E-05-1.01979E-05 3.24806E-05-1.62419E-18 3.82711E-18
 -1      2711 3.73837E-05-1.69707E-05-8.20268E-06 2.15498E-05-5.23202E-19 3.94061E-18
 -1      2712 9.58593E-05-2.19177E-05-3.16930E-05 5.48995E-06 1.59659E-18 3.76185E-19
 -1      2713 9.52673E-05-2.09988E-05-3.18553E-05-4.84286E-06-1.16926E-18-7.49290E-19
 -1      2714 9.58591E-05-2.26748E-05-3.13554E-05-2.89204E-06-1.10611E-18-7.22517E-19
 -1      2715 9.40399E-05-1.93573E-05-3.20175E-05-4.67240E-06-1.11159E-18-9.21494E-19
 -1      2716 9.63092E-05-2.49347E-05-3.05694E-05 1.41840E-06-8.15073E-19-6.42678E-19
 -1      2717 9.63641E-05-2.54282E-05-3.03988E-05 2.88662E-06-7.89016E-19-6.87793E-19
 -1      2718 9.63443E-05-2.57774E-05-3.02283E-05 4.17769E-06-6.48255E-19-5.62727E-19
 -1      2719 9.64885E-05-2.60747E-05-3.01694E-05 5.36492E-06-4.95250E-19-6.57065E-19
 -1      2720 9.55254E-05-2.45476E-05-3.04241E-05 3.43502E-06-7.31793E-19-6.87791E-19
 -1      2721 9.64163E-05-2.62404E-05-3.00681E-05 6.48668E-06-4.56041E-19-4.78857E-19
 -1      2722 9.66954E-05-2.64799E-05-3.00799E-05 7.50156E-06-4.96823E-19-4.36369E-19
 -1      2723 9.54419E-05-2.51743E-05-3.01196E-05 5.92667E-06-5.35083E-19-6.71195E-19
 -1      2724 9.66441E-05-2.66041E-05-3.00148E-05 8.51942E-06-4.43378E-19-5.24562E-19
 -1      2725 9.70918E-05-2.69046E-05-3.00648E-05 9.41122E-06-3.92878E-19-7.40433E-19
 -1      2726 9.53300E-05-2.55457E-05-2.99120E-05 8.12529E-06-4.64711E-19-8.50969E-19
 -1      2727 9.71431E-05-2.71276E-05-3.00047E-05 1.03640E-05-3.34746E-19-8.43804E-19
 -1      2728 9.78250E-05-2.76357E-05-3.00637E-05 1.11200E-05-2.70594E-19-9.13926E-19
 -1      2729 9.53293E-05-2.59583E-05-2.97369E-05 1.01450E-05-4.56412E-19-8.68489E-19
 -1      2730 9.81212E-05-2.81448E-05-2.99815E-05 1.20049E-05 3.59856E-20-6.50151E-19
 -1      2731 9.91676E-05-2.90628E-05-3.00264E-05 1.25395E-05 2.32147E-19-4.44756E-19
 -1      2732 9.56507E-05-2.67717E-05-2.95342E-05 1.20432E-05 8.70874E-20-8.28875E-19
 -1      2733 9.99627E-05-3.01174E-05-2.99074E-05 1.32892E-05 2.89097E-19-2.92746E-19
 -1      2734 1.01587E-04-3.17034E-05-2.99323E-05 1.34216E-05 4.24704E-19 1.38458E-19
 -1      2735 9.66715E-05-2.84780E-05-2.92593E-05 1.37937E-05 4.41032E-19-4.20806E-19
 -1      2736 1.03293E-04-3.36206E-05-2.97969E-05 1.38462E-05 5.15033E-19 3.13183E-19
 -1      2737 1.05758E-04-3.61078E-05-2.98400E-05 1.32674E-05 7.80597E-19 2.78409E-19
 -1      2738 9.90373E-05-3.17290E-05-2.89139E-05 1.52220E-05 6.17730E-19-1.31062E-19
 -1      2739 1.08923E-04-3.91225E-05-2.97951E-05 1.29163E-05 1.03325E-18 3.82504E-19
 -1      2740 1.12346E-04-4.24168E-05-2.99867E-05 1.11736E-05 1.11904E-18 4.30061E-19
 -1      2741 1.03715E-04-3.72050E-05-2.86198E-05 1.58217E-05 9.12470E-19-9.73029E-20
 -1      2742 1.17383E-04-4.62473E-05-3.03186E-05 9.16112E-06 1.23113E-18 2.95985E-19
 -1      2743 1.21251E-04-4.92667E-05-3.09359E-05 5.81077E-06 1.12286E-18 5.29766E-19
 -1      2744 1.11786E-04-4.50268E-05-2.87767E-05 1.43933E-05 1.02570E-18-3.02516E-19
 -1      2745 1.27446E-04-5.19831E-05-3.22137E-05 1.09159E-06 1.25512E-18 6.53790E-19
 -1      2746 1.30069E-04-5.19290E-05-3.36693E-05-3.39695E-06 5.16009E-19 1.09593E-18
 -1      2747 1.23236E-04-5.31282E-05-3.02725E-05 8.91042E-06 1.32203E-18 1.24110E-19
 -1      2748 1.34599E-04-4.93930E-05-3.65880E-05-1.11032E-05-7.76610E-19 2.29128E-18
 -1      2749 1.33587E-04-4.29421E-05-3.91129E-05-1.43404E-05-2.13918E-18 2.41576E-18
 -1      2750 1.35397E-04-3.68383E-05-4.25534E-05 1.53976E-05-1.79402E-18-4.36137E-18
 -1      2751 1.37483E-04-4.58423E-05-3.96110E-05 1.41785E-05-7.34748E-19-3.92790E-18
 -1      2752 1.26257E-04-5.16509E-05-3.20485E-05-7.87137E-07 1.86906E-18-2.26813E-18
 -1      2753 1.22688E-04-4.97097E-05-3.11106E-05-4.99446E-06 1.95411E-18-2.04122E-18
 -1      2754 1.16778E-04-4.58936E-05-3.04171E-05-8.12877E-06 1.91422E-18-1.60783E-18
 -1      2755 1.13045E-04-4.25087E-05-3.00761E-05-1.06123E-05 1.70072E-18-1.85100E-18
 -1      2756 1.17145E-04-4.90777E-05-2.93216E-05-1.14873E-05 1.94738E-18-1.70663E-18
 -1      2757 1.08945E-04-3.89756E-05-2.99940E-05-1.16078E-05 1.10508E-18-1.57613E-18
 -1      2758 1.06042E-04-3.60404E-05-2.99143E-05-1.26603E-05 6.57687E-19-1.03970E-18
 -1      2759 1.07301E-04-4.07377E-05-2.86768E-05-1.45764E-05 1.63909E-18-1.44455E-18
 -1      2760 1.03668E-04-3.35825E-05-3.00245E-05-1.25019E-05-4.10348E-20-1.14773E-18
 -1      2761 1.01695E-04-3.15874E-05-3.00059E-05-1.26379E-05-9.86001E-20-1.05205E-18
 -1      2762 1.01022E-04-3.39855E-05-2.88252E-05-1.46611E-05 2.32818E-19-4.47700E-19
 -1      2763 1.00498E-04-3.01621E-05-3.01264E-05-1.19899E-05 5.02264E-21-1.36730E-18
 -1      2764 9.92289E-05-2.89910E-05-3.00888E-05-1.16152E-05-4.23548E-19-9.19274E-19
 -1      2765 9.76259E-05-2.97148E-05-2.91516E-05-1.34914E-05-9.67528E-20-8.88933E-19
 -1      2766 9.87085E-05-2.82931E-05-3.01602E-05-1.08010E-05-1.89999E-19-4.24960E-19
 -1      2767 9.78841E-05-2.76844E-05-3.00860E-05-1.01787E-05 4.42576E-20 3.67475E-20
 -1      2768 9.60168E-05-2.74184E-05-2.94181E-05-1.18716E-05 2.10704E-20-5.85040E-19
 -1      2769 9.77064E-05-2.74283E-05-3.01022E-05-9.34264E-06-8.02258E-20 5.68585E-19
 -1      2770 9.71423E-05-2.71583E-05-2.99995E-05-8.63465E-06-3.00563E-20 5.58689E-19
 -1      2771 9.53730E-05-2.64018E-05-2.95637E-05-1.01623E-05 5.32349E-19 4.78466E-19
 -1      2772 9.71154E-05-2.71409E-05-2.99732E-05-7.84463E-06-2.50176E-19 5.29330E-19
 -1      2773 9.67024E-05-2.70569E-05-2.98563E-05-7.14510E-06 5.74919E-20-6.32554E-20
 -1      2774 9.51911E-05-2.61250E-05-2.95985E-05-8.51695E-06-2.40412E-19 6.58272E-19
 -1      2775 9.67275E-05-2.71520E-05-2.98036E-05-6.43346E-06 5.35317E-19-1.89046E-19
 -1      2776 9.64072E-05-2.71610E-05-2.96850E-05-5.79258E-06 3.19832E-19 2.35061E-19
 -1      2777 9.51964E-05-2.62311E-05-2.95538E-05-7.00816E-06 1.73240E-19 4.72900E-19
 -1      2778 9.64397E-05-2.72975E-05-2.96194E-05-5.17247E-06 6.57685E-19 1.30361E-18
 -1      2779 9.61826E-05-2.73473E-05-2.95079E-05-4.61269E-06 4.32117E-19 1.72918E-18
 -1      2780 9.52549E-05-2.65064E-05-2.94611E-05-5.67020E-06 6.25621E-19 1.22708E-18
 -1      2781 9.62063E-05-2.74885E-05-2.94391E-05-4.08608E-06 3.65335E-19 1.66770E-18
 -1      2782 9.59971E-05-2.75518E-05-2.93395E-05-3.61316E-06 1.11225E-18 1.44647E-18
 -1      2783 9.53103E-05-2.68334E-05-2.93456E-05-4.51491E-06 6.36815E-19 2.29237E-18
 -1      2784 9.60089E-05-2.76809E-05-2.92736E-05-3.17538E-06 4.97766E-19 1.50377E-18
 -1      2785 9.58390E-05-2.77444E-05-2.91880E-05-2.78573E-06-4.53004E-19 1.29618E-18
 -1      2786 9.53451E-05-2.71527E-05-2.92246E-05-3.53962E-06 7.95916E-19 1.90114E-18
 -1      2787 9.58409E-05-2.78554E-05-2.91284E-05-2.42845E-06-8.49155E-19 9.76144E-19
 -1      2788 9.57045E-05-2.79132E-05-2.90570E-05-2.11381E-06-6.55047E-19 1.53326E-18
 -1      2789 9.53589E-05-2.74383E-05-2.91088E-05-2.73235E-06-9.07682E-19 1.61936E-18
 -1      2790 9.56999E-05-2.80051E-05-2.90052E-05-1.82702E-06-3.79894E-19 1.89315E-18
 -1      2791 9.55920E-05-2.80553E-05-2.89470E-05-1.57727E-06-1.48355E-20 2.17855E-18
 -1      2792 9.53570E-05-2.76815E-05-2.90042E-05-2.07586E-06-4.34571E-20 1.45721E-18
 -1      2793 9.55838E-05-2.81296E-05-2.89034E-05-1.35058E-06-3.81392E-19 2.26246E-18
 -1      2794 9.55001E-05-2.81718E-05-2.88570E-05-1.15540E-06 5.77770E-19 2.46487E-18
 -1      2795 9.53454E-05-2.78825E-05-2.89134E-05-1.55061E-06-1.70970E-19 1.42740E-18
 -1      2796 9.54905E-05-2.82310E-05-2.88212E-05-9.78852E-07 6.37654E-19 1.12823E-18
 -1      2797 9.54268E-05-2.82658E-05-2.87848E-05-8.28559E-07 9.29391E-19-2.31960E-19
 -1      2798 9.53292E-05-2.80450E-05-2.88369E-05-1.13675E-06-6.33140E-19-3.41748E-19
 -1      2799 9.54174E-05-2.83122E-05-2.87559E-05-6.93071E-07 1.13963E-18-1.18690E-18
 -1      2800 9.53699E-05-2.83406E-05-2.87279E-05-5.79035E-07 2.68081E-19-2.28438E-18
 -1      2801 9.53119E-05-2.81745E-05-2.87740E-05-8.15509E-07 1.19083E-19-2.28864E-18
 -1      2802 9.53614E-05-2.83766E-05-2.87051E-05-4.76612E-07 1.10128E-19-2.27496E-18
 -1      2803 9.53269E-05-2.83994E-05-2.86840E-05-3.91400E-07-8.85168E-20-1.20504E-18
 -1      2804 9.52956E-05-2.82761E-05-2.87234E-05-5.69856E-07 2.98797E-19-4.30296E-18
 -1      2805 9.53197E-05-2.84270E-05-2.86663E-05-3.15198E-07 1.94769E-19-7.45637E-19
 -1      2806 9.52953E-05-2.84452E-05-2.86506E-05-2.52571E-07 6.86986E-19-7.99645E-19
 -1      2807 9.52814E-05-2.83550E-05-2.86834E-05-3.84890E-07 3.63547E-19-3.26809E-18
 -1      2808 9.52895E-05-2.84661E-05-2.86371E-05-1.96867E-07 3.96223E-19-2.74087E-19
 -1      2809 9.52728E-05-2.84804E-05-2.86257E-05-1.51700E-07-1.11625E-19 1.01529E-19
 -1      2810 9.52696E-05-2.84156E-05-2.86523E-05-2.47910E-07 1.36274E-19-1.74743E-18
 -1      2811 9.52683E-05-2.84961E-05-2.86155E-05-1.11812E-07-5.94795E-19 7.99929E-19
 -1      2812 9.52574E-05-2.85074E-05-2.86074E-05-7.99904E-08-1.80410E-19-1.23848E-19
 -1      2813 9.52603E-05-2.84615E-05-2.86285E-05-1.48346E-07 5.31030E-19-2.08824E-18
 -1      2814 9.52540E-05-2.85192E-05-2.85999E-05-5.21688E-08-2.04430E-20 6.42397E-20
 -1      2815 9.52475E-05-2.85281E-05-2.85942E-05-3.04604E-08 1.61285E-18-4.33239E-19
 -1      2816 9.52533E-05-2.84960E-05-2.86106E-05-7.75999E-08-2.37894E-21-1.21856E-18
 -1      2817 9.52451E-05-2.85369E-05-2.85887E-05-1.17755E-08 3.17029E-18-1.32405E-18
 -1      2818 9.52416E-05-2.85440E-05-2.85848E-05 2.28271E-09 2.81856E-18-3.56169E-19
 -1      2819 9.52481E-05-2.85220E-05-2.85972E-05-2.88332E-08 1.74259E-18-9.37691E-19
 -1      2820 9.52401E-05-2.85508E-05-2.85807E-05 1.40291E-08 1.68491E-18 3.60523E-20
 -1      2821 9.52388E-05-2.85569E-05-2.85781E-05 2.22112E-08 1.00629E-18-5.00130E-19
 -1      2822 9.52446E-05-2.85417E-05-2.85872E-05 3.23940E-09 2.05601E-18-1.41850E-18
 -1      2823 9.52380E-05-2.85625E-05-2.85750E-05 2.86502E-08-1.26986E-19-1.36789E-18
 -1      2824 9.52383E-05-2.85678E-05-2.85731E-05 3.21205E-08-1.13166E-18-1.90192E-18
 -1      2825 9.52426E-05-2.85573E-05-2.85796E-05 2.25420E-08-1.08135E-19-1.57131E-18
 -1      2826 9.89342E-05-2.93976E-05-2.98030E-05-5.47753E-06 2.98507E-19 2.48636E-19
 -1      2827 9.83808E-05-2.89133E-05-2.97540E-05-5.21179E-06 2.47289E-19 1.52734E-19
 -1      2828 3.53191E-05-1.60537E-05-7.82489E-06 1.62905E-05 1.07891E-19-4.87849E-18
 -1      2829 2.99219E-05-1.31881E-05-6.62775E-06 2.64306E-06-5.85121E-19-4.94710E-18
 -1      2830 9.80146E-05-2.85007E-05-2.97896E-05-4.71365E-06 3.57400E-19 1.07872E-19
 -1      2831 9.76278E-05-2.80806E-05-2.97844E-05-4.17296E-06 5.09801E-19 2.54427E-19
 -1      2832 9.77723E-05-2.83289E-05-2.97782E-05-5.31861E-06 3.75104E-19-1.61023E-19
 -1      2833 1.01785E-04-3.19010E-05-2.99678E-05-5.17633E-06-1.28646E-19 1.22523E-18
 -1      2834 1.00978E-04-3.11798E-05-2.98926E-05-5.56720E-06 9.68889E-20 9.84437E-19
 -1      2835 1.03679E-04-3.35473E-05-3.00854E-05-3.83872E-06 3.01484E-19 1.06950E-18
 -1      2836 1.02826E-04-3.27439E-05-3.00106E-05-4.65790E-06-6.94997E-21 1.21224E-18
 -1      2837 1.01913E-04-3.25861E-05-2.97351E-05-5.78465E-06-1.52476E-20 8.46643E-19
 -1      2838 1.05713E-04-3.52305E-05-3.02460E-05-1.52151E-06 4.51536E-19 1.10580E-18
 -1      2839 1.04937E-04-3.44901E-05-3.01648E-05-2.80110E-06 4.34295E-19 1.10671E-18
 -1      2840 1.04237E-04-3.46620E-05-2.98411E-05-4.29763E-06 3.53849E-19 8.86462E-19
 -1      2841 1.07533E-04-3.64556E-05-3.05030E-05 1.74474E-06 3.52910E-19 1.44802E-18
 -1      2842 1.07033E-04-3.60635E-05-3.03944E-05 8.79176E-08 4.35702E-19 1.21641E-18
 -1      2843 1.06859E-04-3.67264E-05-3.00720E-05-1.68757E-06 3.01041E-19 1.37111E-18
 -1      2844 1.08552E-04-3.64427E-05-3.09293E-05 5.53075E-06 3.48566E-20 2.17498E-18
 -1      2845 1.08577E-04-3.67912E-05-3.07653E-05 3.80101E-06 1.89071E-19 1.79520E-18
 -1      2846 1.09291E-04-3.80690E-05-3.05188E-05 2.02996E-06-3.09241E-21 1.56432E-18
 -1      2847 1.08130E-04-3.44290E-05-3.15727E-05 8.76055E-06 3.36799E-20 1.90202E-18
 -1      2848 1.08843E-04-3.58075E-05-3.13375E-05 7.54941E-06 1.08199E-19 2.25346E-18
 -1      2849 1.10695E-04-3.76435E-05-3.12741E-05 6.31421E-06-5.14934E-20 2.69623E-18
 -1      2850 1.06085E-04-3.03816E-05-3.23869E-05 9.80522E-06 5.22628E-19 1.80455E-18
 -1      2851 1.07343E-04-3.26116E-05-3.21056E-05 9.84325E-06 1.77488E-19 1.95595E-18
 -1      2852 1.10207E-04-3.46000E-05-3.23529E-05 9.77176E-06 2.28691E-19 2.15700E-18
 -1      2853 1.03258E-04-2.57115E-05-3.31680E-05 7.25582E-06 1.45705E-18 1.48573E-18
 -1      2854 1.04497E-04-2.78814E-05-3.29268E-05 8.97821E-06 8.76080E-19 1.68772E-18
 -1      2855 1.07730E-04-2.92827E-05-3.36023E-05 1.03528E-05 6.78609E-19 2.13089E-18
 -1      2856 1.01479E-04-2.30052E-05-3.36068E-05 1.38013E-06 8.68996E-19 1.55772E-18
 -1      2857 1.01963E-04-2.38781E-05-3.35098E-05 4.34189E-06 1.27964E-18 1.24209E-18
 -1      2858 1.04675E-04-2.39459E-05-3.46357E-05 6.56677E-06 1.21820E-18 1.83342E-18
 -1      2859 1.02162E-04-2.40893E-05-3.35094E-05-5.34946E-06 4.17799E-19 9.18806E-19
 -1      2860 1.01539E-04-2.30780E-05-3.36004E-05-2.43110E-06 7.83108E-19 1.42536E-18
 -1      2861 1.03350E-04-2.17554E-05-3.50265E-05-5.76216E-07 1.02747E-18 1.96730E-18
 -1      2862 1.04857E-04-2.82284E-05-3.29350E-05-9.74967E-06 3.40997E-19-6.03180E-21
 -1      2863 1.03543E-04-2.60189E-05-3.31624E-05-8.13136E-06 3.39667E-19 3.48940E-19
 -1      2864 1.04914E-04-2.42555E-05-3.46070E-05-7.59388E-06 8.06197E-19 1.02936E-18
 -1      2865 1.07716E-04-3.28821E-05-3.21425E-05-1.03999E-05 9.68794E-20-6.29600E-20
 -1      2866 1.06432E-04-3.06994E-05-3.24033E-05-1.04422E-05 1.77271E-19-1.72629E-19
 -1      2867 1.08031E-04-2.96538E-05-3.35704E-05-1.10888E-05 3.28387E-19 9.38685E-20
 -1      2868 1.09173E-04-3.59245E-05-3.14190E-05-8.02547E-06 4.71374E-19 6.47608E-20
 -1      2869 1.08443E-04-3.46157E-05-3.16280E-05-9.26401E-06 3.08720E-19-1.14245E-19
 -1      2870 1.10428E-04-3.48323E-05-3.23468E-05-1.02914E-05 3.14885E-19-1.22605E-19
 -1      2871 1.08865E-04-3.67567E-05-3.09007E-05-4.34206E-06 5.37279E-19-5.38074E-19
 -1      2872 1.08815E-04-3.64619E-05-3.10380E-05-6.03434E-06 6.93288E-19-5.28005E-19
 -1      2873 1.10799E-04-3.76848E-05-3.13130E-05-6.80022E-06 9.94139E-19-3.91098E-19
 -1      2874 1.07335E-04-3.59427E-05-3.05751E-05-7.89665E-07-2.84800E-19-2.70549E-19
 -1      2875 1.07795E-04-3.63584E-05-3.06603E-05-2.36565E-06 1.62392E-19-2.79297E-19
 -1      2876 1.09312E-04-3.79021E-05-3.06084E-05-2.63381E-06 2.52262E-19-5.55217E-19
 -1      2877 1.05324E-04-3.43854E-05-3.03756E-05 1.91389E-06-1.13722E-19-1.05834E-18
 -1      2878 1.06036E-04-3.51034E-05-3.04392E-05 7.16318E-07-6.01675E-20-4.50191E-19
 -1      2879 1.06877E-04-3.64604E-05-3.01944E-05 8.86774E-07 4.72475E-20-6.31198E-19
 -1      2880 1.03314E-04-3.27152E-05-3.02334E-05 3.63250E-06-5.87834E-19-8.98557E-19
 -1      2881 1.04096E-04-3.34684E-05-3.02980E-05 2.87368E-06-3.39144E-19-8.53469E-19
 -1      2882 1.04315E-04-3.44275E-05-2.99729E-05 3.32176E-06-1.55093E-19-7.66135E-19
 -1      2883 1.01549E-04-3.12721E-05-3.01017E-05 4.48857E-06-8.53719E-19-4.01220E-19
 -1      2884 1.02295E-04-3.19203E-05-3.01783E-05 4.11450E-06-5.42313E-19-6.23373E-19
 -1      2885 1.02050E-04-3.24488E-05-2.98494E-05 4.70579E-06-6.51966E-19-1.84212E-19
 -1      2886 1.00104E-04-3.01723E-05-2.99594E-05 4.70500E-06-5.61363E-19-3.69688E-21
 -1      2887 1.00765E-04-3.06705E-05-3.00491E-05 4.61841E-06-4.79437E-19-1.22630E-19
 -1      2888 1.00242E-04-3.08414E-05-2.97592E-05 5.25833E-06-7.78447E-19 5.74923E-19
 -1      2889 9.89592E-05-2.94033E-05-2.98031E-05 4.50154E-06-7.87368E-19 2.83129E-19
 -1      2890 9.95245E-05-2.97583E-05-2.99014E-05 4.60488E-06-7.76572E-19 3.79165E-19
 -1      2891 9.88794E-05-2.96800E-05-2.96686E-05 5.23732E-06-9.00697E-19 4.41242E-19
 -1      2892 9.80668E-05-2.89027E-05-2.96383E-05 4.05577E-06-6.99984E-19-3.65393E-20
 -1      2893 9.85389E-05-2.91411E-05-2.97390E-05 4.26841E-06-6.53916E-19 5.57411E-20
 -1      2894 9.78813E-05-2.89139E-05-2.95658E-05 4.86179E-06-8.33539E-19 5.53640E-19
 -1      2895 9.73749E-05-2.85998E-05-2.94737E-05 3.49718E-06-4.74689E-19 8.00850E-19
 -1      2896 9.77630E-05-2.87513E-05-2.95709E-05 3.75966E-06-6.73270E-19 1.49142E-19
 -1      2897 9.71590E-05-2.84530E-05-2.94514E-05 4.29676E-06-8.03443E-19-2.12775E-20
 -1      2898 9.68398E-05-2.84328E-05-2.93170E-05 2.91280E-06-2.16204E-19 1.47703E-18
 -1      2899 9.71545E-05-2.85233E-05-2.94066E-05 3.18510E-06-3.70377E-19 1.33939E-18
 -1      2900 9.66368E-05-2.82076E-05-2.93313E-05 3.65761E-06-3.80989E-19 4.14333E-19
 -1      2901 9.64266E-05-2.83544E-05-2.91742E-05 2.35638E-06-1.32449E-19 1.73120E-18
 -1      2902 9.66785E-05-2.84039E-05-2.92535E-05 2.61395E-06 1.86942E-19 1.77780E-18
 -1      2903 9.62572E-05-2.81039E-05-2.92121E-05 3.01951E-06-4.16970E-19 3.66896E-19
 -1      2904 9.61088E-05-2.83303E-05-2.90485E-05 1.85738E-06 1.23346E-18 1.40082E-18
 -1      2905 9.63075E-05-2.83535E-05-2.91165E-05 2.08698E-06 2.43052E-19 1.39882E-18
 -1      2906 9.59793E-05-2.80869E-05-2.90995E-05 2.42737E-06 2.71410E-19-4.86822E-19
 -1      2907 9.58658E-05-2.83375E-05-2.89414E-05 1.42868E-06 2.27840E-18 1.71378E-18
 -1      2908 9.60204E-05-2.83445E-05-2.89980E-05 1.62479E-06 1.69563E-18 2.14066E-18
 -1      2909 9.57744E-05-2.81187E-05-2.89976E-05 1.90457E-06 9.62434E-19-1.48455E-19
 -1      2910 9.56818E-05-2.83610E-05-2.88524E-05 1.07245E-06 2.90184E-18 3.06980E-18
 -1      2911 9.58000E-05-2.83586E-05-2.88983E-05 1.23448E-06 2.80019E-18 2.97634E-18
 -1      2912 9.56227E-05-2.81743E-05-2.89085E-05 1.45989E-06 1.77376E-18 2.33110E-18
 -1      2913 9.55441E-05-2.83912E-05-2.87803E-05 7.84541E-07 2.49093E-18 2.65612E-18
 -1      2914 9.56328E-05-2.83838E-05-2.88167E-05 9.14739E-07 3.33392E-18 2.99497E-18
 -1      2915 9.55104E-05-2.82380E-05-2.88327E-05 1.09286E-06 2.85338E-18 2.69675E-18
 -1      2916 9.54426E-05-2.84226E-05-2.87233E-05 5.57428E-07 1.49933E-18 2.68400E-18
 -1      2917 9.55078E-05-2.84130E-05-2.87514E-05 6.59525E-07 2.40290E-18 3.16023E-18
 -1      2918 9.54275E-05-2.83007E-05-2.87700E-05 7.97575E-07 2.00907E-18 2.13275E-18
 -1      2919 9.53691E-05-2.84520E-05-2.86791E-05 3.82239E-07 9.03452E-19 1.32453E-18
 -1      2920 9.54160E-05-2.84420E-05-2.87004E-05 4.60507E-07 1.09734E-18 1.96678E-18
 -1      2921 9.53668E-05-2.83578E-05-2.87193E-05 5.65404E-07 1.81459E-18 1.63096E-18
 -1      2922 9.53173E-05-2.84781E-05-2.86456E-05 2.50001E-07-3.20440E-19 9.45828E-19
 -1      2923 9.53499E-05-2.84685E-05-2.86613E-05 3.08686E-07 2.27639E-19 1.54796E-18
 -1      2924 9.53229E-05-2.84069E-05-2.86792E-05 3.86737E-07 6.68213E-19 8.41628E-19
 -1      2925 9.52818E-05-2.85002E-05-2.86208E-05 1.52377E-07-3.21952E-20 9.11961E-19
 -1      2926 9.53037E-05-2.84916E-05-2.86321E-05 1.95377E-07-3.04628E-19 5.26348E-19
 -1      2927 9.52916E-05-2.84477E-05-2.86481E-05 2.52121E-07-1.69767E-19 1.98230E-19
 -1      2928 9.52585E-05-2.85186E-05-2.86029E-05 8.20523E-08 1.10246E-18 4.30693E-19
 -1      2929 9.52724E-05-2.85110E-05-2.86108E-05 1.12748E-07 9.24331E-19 1.06086E-18
 -1      2930 9.52699E-05-2.84807E-05-2.86246E-05 1.52905E-07 6.95264E-19 6.50337E-19
 -1      2931 9.52442E-05-2.85336E-05-2.85903E-05 3.29015E-08 7.74588E-19-1.35233E-19
 -1      2932 9.52522E-05-2.85271E-05-2.85956E-05 5.40920E-08 1.01751E-18-3.87427E-20
 -1      2933 9.52554E-05-2.85068E-05-2.86070E-05 8.15699E-08 1.11793E-18-3.56019E-19
 -1      2934 9.52364E-05-2.85459E-05-2.85817E-05 1.65808E-11 9.34307E-19-1.23148E-18
 -1      2935 9.52403E-05-2.85403E-05-2.85851E-05 1.39173E-08 7.66358E-19-9.18134E-19
 -1      2936 9.52461E-05-2.85272E-05-2.85941E-05 3.18716E-08 1.30565E-18-6.66309E-19
 -1      2937 9.52331E-05-2.85562E-05-2.85758E-05-2.03760E-08 8.63134E-19-7.95531E-19
 -1      2938 9.52342E-05-2.85513E-05-2.85780E-05-1.20965E-08 1.10664E-18-1.04482E-18
 -1      2939 9.52407E-05-2.85433E-05-2.85848E-05-1.17817E-09 1.17629E-18-1.87167E-18
 -1      2940 9.52330E-05-2.85653E-05-2.85719E-05-3.08665E-08-2.92640E-19-1.85594E-19
 -1      2941 9.52322E-05-2.85609E-05-2.85732E-05-2.72016E-08-5.49634E-20 5.98832E-19
 -1      2942 9.52382E-05-2.85563E-05-2.85781E-05-2.14435E-08 1.33591E-19-9.81738E-19
 -1      2943 9.52357E-05-2.85733E-05-2.85697E-05-3.33615E-08-4.15865E-19 5.22865E-19
 -1      2944 9.52338E-05-2.85688E-05-2.85706E-05-3.31573E-08-4.14196E-20-6.36609E-19
 -1      2945 9.52390E-05-2.85668E-05-2.85739E-05-3.07971E-08-3.58713E-19-1.64730E-19
 -1      2946 9.52413E-05-2.85759E-05-2.85709E-05-3.32211E-08-1.05320E-18 8.70914E-20
 -1      2947 9.52474E-05-2.85678E-05-2.85770E-05-2.08150E-09 4.05079E-19-2.78085E-19
 -1      2948 9.52474E-05-2.85678E-05-2.85770E-05-5.46453E-09 6.89676E-19-5.17078E-19
 -1      2949 9.52380E-05-2.85713E-05-2.85713E-05 3.38600E-08-8.07469E-19-1.81494E-18
 -1      2950 9.52387E-05-2.85747E-05-2.85703E-05 3.41306E-08-9.69009E-19-9.99442E-19
 -1      2951 9.52422E-05-2.85687E-05-2.85745E-05 3.12747E-08-1.02282E-18-1.86214E-18
 -1      2952 9.52483E-05-2.85712E-05-2.85760E-05-1.53062E-08 1.35442E-18 1.75707E-18
 -1      2953 9.52481E-05-2.85715E-05-2.85756E-05-1.87801E-08 1.29795E-18-3.62298E-19
 -1      2954 9.52477E-05-2.85681E-05-2.85770E-05 4.32547E-09 6.09799E-19 7.83123E-19
 -1      2955 9.52475E-05-2.85679E-05-2.85770E-05 8.86796E-10 7.12204E-19 3.40200E-19
 -1      2956 9.52454E-05-2.85538E-05-2.85820E-05-6.92127E-10 8.49813E-19 4.11975E-19
 -1      2957 9.52477E-05-2.85689E-05-2.85767E-05-8.51653E-09 1.91635E-19 5.00349E-19
 -1      2958 9.52478E-05-2.85692E-05-2.85765E-05-1.19660E-08 9.83482E-19 2.59311E-18
 -1      2959 9.52466E-05-2.85580E-05-2.85807E-05-1.22670E-08 2.05659E-18 1.69815E-18
 -1      2960 9.52457E-05-2.85548E-05-2.85817E-05-6.25327E-09 1.22927E-18-1.96232E-19
 -1      2961 9.74065E-05-2.76900E-05-2.98755E-05-3.40760E-06 5.91901E-19 2.61716E-19
 -1      2962 9.71989E-05-2.72601E-05-2.99451E-05-2.56357E-06 7.47917E-19 3.41960E-19
 -1      2963 9.71665E-05-2.73518E-05-2.99359E-05-3.95397E-06 6.14512E-19-1.39029E-19
 -1      2964 9.52485E-05-2.85699E-05-2.85765E-05 1.10037E-08 1.53254E-18 2.40458E-19
 -1      2965 9.52483E-05-2.85694E-05-2.85767E-05 7.45702E-09 2.98183E-19 1.19987E-18
 -1      2966 9.52462E-05-2.85552E-05-2.85817E-05 4.95426E-09 1.31831E-18 9.18606E-19
 -1      2967 9.52490E-05-2.85724E-05-2.85757E-05 1.83186E-08 1.86247E-18 5.80594E-19
 -1      2968 9.52492E-05-2.85720E-05-2.85760E-05 1.45889E-08 1.77619E-18 3.13943E-19
 -1      2969 9.52475E-05-2.85588E-05-2.85808E-05 1.13080E-08 1.91786E-18 6.50975E-19
 -1      2970 9.52478E-05-2.85746E-05-2.85743E-05 2.58097E-08 7.73148E-19 1.13608E-18
 -1      2971 9.52493E-05-2.85748E-05-2.85748E-05 2.21919E-08 1.21471E-18 1.52603E-18
 -1      2972 9.52483E-05-2.85634E-05-2.85792E-05 1.85561E-08 1.79803E-18 6.44394E-19
 -1      2973 9.52421E-05-2.85767E-05-2.85710E-05 3.35884E-08-3.11106E-20-2.28953E-18
 -1      2974 3.91331E-05-1.63143E-05-9.16621E-06-1.81731E-05 1.10739E-18 2.73232E-18
 -1      2975 4.64215E-05-2.12643E-05-1.02353E-05-2.66672E-05 1.82716E-18 1.99370E-18
 -1      2976 1.33592E-04-2.80766E-05-4.60020E-05 1.67028E-05-2.97245E-18-4.00011E-18
 -1      2977 1.42497E-04-3.79569E-05-4.55398E-05-1.27997E-05-3.96136E-18 1.72107E-18
 -1      2978 1.45717E-04-4.74672E-05-4.20715E-05-8.94153E-06-2.71977E-18 1.28580E-18
 -1      2979 1.22324E-04-5.97495E-05-2.64993E-05-2.27767E-05 3.56431E-18-1.18669E-18
 -1      2980 1.33500E-04-6.07229E-05-3.15144E-05-1.24436E-05 2.39229E-18-2.37752E-18
 -1      2981 1.00189E-04-3.05076E-05-2.98715E-05-5.66901E-06 1.28678E-19 5.66551E-19
 -1      2982 9.94915E-05-2.99125E-05-2.98017E-05-5.70171E-06 2.20842E-19 3.66684E-19
 -1      2983 9.87111E-05-2.94321E-05-2.97092E-05-6.12624E-06 1.28929E-19-7.99842E-20
 -1      2984 1.00069E-04-3.08225E-05-2.96978E-05-6.32774E-06-1.16251E-19 6.44758E-19
 -1      2985 9.61739E-05-2.36249E-05-3.10801E-05-1.55109E-06-8.88753E-19-7.92201E-19
 -1      2986 9.62283E-05-2.44491E-05-3.07643E-05 2.78525E-07-8.08902E-19-6.85598E-19
 -1      2987 9.54509E-05-2.35381E-05-3.08194E-05 8.86719E-07-7.87933E-19-8.17402E-19
 -1      2988 9.51785E-05-2.21889E-05-3.12895E-05-1.63596E-06-9.25594E-19-8.80840E-19
 -1      2989 8.95645E-05-1.42497E-05-3.22986E-05 2.74067E-06 1.15849E-18-8.96710E-19
 -1      2990 8.87927E-05-1.34815E-05-3.23030E-05 2.04993E-06 9.33852E-19-1.15551E-18
 -1      2991 8.93166E-05-1.46583E-05-3.19785E-05 1.21146E-06 8.35119E-19-1.07524E-18
 -1      2992 9.09369E-05-1.63867E-05-3.19298E-05 2.10908E-06 1.10924E-18-6.90314E-19
 -1      2993 8.83003E-05-1.29421E-05-3.23233E-05-2.24374E-06-2.92639E-19-1.73732E-18
 -1      2994 8.90416E-05-1.36672E-05-3.23267E-05-2.83737E-06-4.91895E-19-1.70262E-18
 -1      2995 3.20262E-05-1.27314E-05-7.76706E-06 9.56051E-06 2.38228E-20 5.17219E-18
 -1      2996 3.25576E-05-1.26181E-05-8.08431E-06-6.18310E-06 8.26254E-19 4.58499E-18
 -1      2997 1.36078E-04-3.81257E-05-4.25818E-05-8.88287E-06 1.82594E-18-2.63597E-18
 -1      2998 1.35748E-04-4.80772E-05-3.77391E-05-2.50677E-06 5.61795E-19-2.85514E-18
 -1      2999 9.70626E-05-2.67761E-05-3.01211E-05-1.48574E-06 9.62808E-19 2.71924E-19
 -1      3000 9.70230E-05-2.62166E-05-3.03084E-05-2.42131E-07 9.78019E-19 3.46132E-19
 -1      3001 9.64458E-05-2.47526E-05-3.07289E-05 6.77641E-07 1.15996E-18 2.67944E-21
 -1      3002 9.67784E-05-2.62672E-05-3.02311E-05-1.98969E-06 8.61269E-19-1.07519E-19
 -1      3003 1.27969E-04-1.51168E-05-4.90896E-05 6.62660E-06-3.96496E-18-2.42818E-18
 -1      3004 1.28325E-04-1.44294E-05-4.93803E-05-1.85212E-06-4.82661E-18-7.61555E-19
 -1      3005 8.31229E-05-4.29770E-05-1.72101E-05 3.99401E-05-1.59115E-18 3.60683E-18
 -1      3006 6.54789E-05-3.26980E-05-1.34075E-05 3.71303E-05-2.14204E-18 3.62647E-18
 -1      3007 6.40659E-05-3.38164E-05-1.27517E-05 3.71059E-05 9.17972E-19-3.27389E-18
 -1      3008 4.79151E-05-2.34714E-05-9.88895E-06 2.85215E-05 8.16328E-19-4.18646E-18
 -1      3009 1.24951E-04-9.02297E-06-5.04194E-05-3.51260E-07 3.77184E-18 4.13776E-19
 -1      3010 1.24263E-04-1.01478E-05-4.93871E-05-6.38045E-06 4.36645E-18-4.87759E-19
 -1      3011 5.42447E-05-2.72458E-05-1.09805E-05-3.41011E-05-2.35962E-18-2.35930E-18
 -1      3012 6.81882E-05-3.55118E-05-1.37127E-05-3.94229E-05-2.72099E-18-1.85077E-18
 -1      3013 1.37025E-04-5.31661E-05-3.60900E-05-5.21292E-06 2.34244E-19 2.49398E-18
 -1      3014 1.39680E-04-4.69677E-05-4.03138E-05 1.81975E-06 1.41992E-18 3.19734E-18
 -1      3015 1.29985E-04-1.86049E-05-4.84393E-05-9.85103E-06-4.91957E-18 2.20864E-19
 -1      3016 3.20026E-05-1.42381E-05-7.07225E-06-1.17782E-05-1.57882E-18-4.51913E-18
 -1      3017 4.06177E-05-1.97024E-05-8.61330E-06-2.64703E-05-1.87078E-18-3.48702E-18
 -1      3018 5.40386E-05-2.29836E-05-1.27178E-05-2.80435E-05-2.09042E-18-2.48276E-18
 -1      3019 9.88783E-05-5.20412E-05-2.01596E-05 3.64568E-05 1.24779E-18-1.62133E-18
 -1      3020 8.26294E-05-4.36116E-05-1.61915E-05 3.78001E-05 1.18585E-18-2.20139E-18
 -1      3021 1.28901E-04-6.23001E-05-2.89092E-05 2.10572E-05 8.69691E-19-3.36643E-19
 -1      3022 1.15137E-04-5.80151E-05-2.40008E-05 2.85110E-05 1.07700E-18-9.15907E-19
 -1      3023 1.38495E-04-3.52940E-05-4.44265E-05 8.20888E-06 2.24697E-18 2.73549E-18
 -1      3024 1.37426E-04-2.54087E-05-4.86735E-05 9.47297E-06 2.65100E-18 2.29493E-18
 -1      3025 1.39616E-04-5.85022E-05-3.46963E-05-2.45927E-06 1.66629E-18-3.55584E-18
 -1      3026 1.40777E-04-5.23047E-05-3.82148E-05 6.89715E-06 3.04667E-19-4.16592E-18
 -1      3027 1.33364E-04-5.90185E-05-3.19763E-05-6.63093E-06 2.36883E-18-3.38231E-18
 -1      3028 9.72642E-05-5.10644E-05-1.93009E-05-3.52615E-05 4.20732E-18 2.64433E-19
 -1      3029 1.08493E-04-5.63005E-05-2.25343E-05-3.22863E-05 3.99757E-18-4.25263E-19
 -1      3030 1.16946E-04-5.70856E-05-2.55244E-05-2.40419E-05 3.95988E-18-1.19469E-18
 -1      3031 8.82654E-05-4.45736E-05-1.83634E-05-3.48580E-05 3.68396E-18 6.26593E-19
 -1      3032 1.16490E-04-5.74724E-05-2.54936E-05 2.91044E-05-1.05572E-18 1.79039E-18
 -1      3033 1.01477E-04-5.19142E-05-2.08502E-05 3.52825E-05-1.74298E-18 3.18214E-18
 -1      3034 1.32306E-04-5.59926E-05-3.30745E-05 9.18668E-06-1.38583E-19-2.13219E-18
 -1      3035 1.26291E-04-5.83310E-05-2.89452E-05 1.94593E-05-7.94940E-19-3.32302E-19
 -1      3036 1.20645E-04-5.67801E-05-2.72498E-05 2.12305E-05-1.42905E-18-7.02217E-19
 -1      3037 1.28060E-04-1.72133E-05-4.81953E-05-1.06060E-05 3.78412E-18-1.37235E-18
 -1      3038 1.32623E-04-2.65039E-05-4.57660E-05-1.23459E-05 2.95699E-18-2.27079E-18
 -1      3039 1.29743E-04-2.07133E-05-4.73407E-05 1.29624E-05-3.50799E-18-3.48903E-18
 -1      3040 1.34243E-04-4.96789E-05-3.64403E-05 9.82800E-06 5.05520E-19-3.50306E-18
 -1      3041 8.99683E-05-1.46611E-05-3.23030E-05-3.22460E-06-6.74218E-19-1.51639E-18
 -1      3042 9.10071E-05-1.57689E-05-3.22782E-05-3.82929E-06-9.06829E-19-1.27861E-18
 -1      3043 9.03092E-05-1.56487E-05-3.19683E-05-2.17968E-06-5.09972E-19-1.41155E-18
 -1      3044 8.77265E-05-1.30292E-05-3.19944E-05-3.05557E-07 2.65914E-19-1.66178E-18
 -1      3045 8.69288E-05-1.15840E-05-3.23092E-05-4.22169E-07 2.32936E-19-1.76789E-18
 -1      3046 8.70219E-05-1.16701E-05-3.23138E-05-9.71245E-07 9.64006E-20-1.83743E-18
 -1      3047 4.17195E-05-1.44903E-05-1.10338E-05 1.41958E-05-7.13599E-19 4.13490E-18
 -1      3048 9.51385E-05-2.11574E-05-3.17160E-05 4.59461E-06 1.53718E-18-2.31710E-20
 -1      3049 1.38990E-04-4.77636E-05-4.00201E-05-1.13075E-05-2.26708E-18 2.28053E-18
 -1      3050 1.34122E-04-3.91955E-05-4.08285E-05-1.66146E-05-2.83438E-18 2.31055E-18
 -1      3051 1.34786E-04-5.44662E-05-3.48221E-05-2.81119E-06 4.09673E-19 1.04407E-18
 -1      3052 1.32914E-04-5.28861E-05-3.43238E-05 5.14182E-06 1.48532E-18-3.19522E-18
 -1      3053 9.52471E-05-2.85624E-05-2.85791E-05-1.88786E-08 1.63658E-18-3.69209E-19
 -1      3054 9.52481E-05-2.85738E-05-2.85748E-05-2.23173E-08 1.21344E-18-7.58549E-19
 -1      3055 9.52470E-05-2.85736E-05-2.85742E-05-2.54680E-08 5.69515E-19-4.03915E-19
 -1      3056 3.82849E-05-1.34613E-05-9.97321E-06-5.42153E-06-1.12147E-18-4.30314E-18
 -1      3057 5.96616E-05-2.67034E-05-1.37177E-05-2.91585E-05 2.24390E-18 1.89079E-18
 -1      3058 9.52460E-05-2.85757E-05-2.85731E-05-2.85040E-08-7.16579E-19-1.03751E-18
 -1      3059 9.52436E-05-2.85748E-05-2.85723E-05-3.06546E-08-1.36395E-18-1.07090E-18
 -1      3060 9.52425E-05-2.85698E-05-2.85740E-05-3.04515E-08-1.57180E-18-1.33317E-18
 -1      3061 9.52461E-05-2.85668E-05-2.85768E-05-2.52492E-08 3.64297E-19 5.66783E-19
 -1      3062 1.35839E-04-4.07081E-05-4.10190E-05 7.68236E-06 1.41539E-18 2.55211E-18
 -1      3063 9.52455E-05-2.85778E-05-2.85718E-05 3.07868E-08 5.01305E-19-5.59718E-19
 -1      3064 9.52460E-05-2.85700E-05-2.85755E-05 2.78958E-08 1.88717E-19 3.13028E-19
 -1      3065 1.29889E-04-3.31358E-05-4.18003E-05-1.18754E-05 1.68687E-18-2.70076E-18
 -1      3066 1.36431E-04-5.99439E-05-3.27254E-05 1.10878E-05 6.71591E-19 6.18334E-20
 -1      3067 1.31425E-04-6.16121E-05-3.06291E-05 1.41296E-05 1.00516E-18 1.50878E-20
 -1      3068 1.43223E-04-5.57968E-05-3.78821E-05 1.67337E-06-9.33675E-19 8.33057E-19
 -1      3069 7.78658E-05-3.76589E-05-1.67179E-05 3.44668E-05 1.38257E-18-2.33167E-18
 -1      3070 1.34501E-04-5.69639E-05-3.33893E-05-1.04005E-05-5.54304E-19 2.04220E-18
 -1      3071 1.33827E-04-5.33242E-05-3.46206E-05-2.64832E-06-3.00895E-19 2.32299E-18
 -1      3072 1.28866E-04-5.78240E-05-3.04207E-05-1.51028E-05-1.20739E-18 2.04196E-18
 -1      3073 1.22009E-04-1.01739E-05-4.84464E-05 2.33336E-06 3.21449E-18 4.86223E-19
 -1      3074 1.12230E-04-5.66259E-05-2.35783E-05-3.25655E-05-2.34056E-18 8.86764E-19
 -1      3075 1.19425E-04-5.80442E-05-2.64580E-05-2.49816E-05-2.22198E-18 2.10167E-18
 -1      3076 1.05408E-04-5.31282E-05-2.20735E-05-3.40974E-05-2.68764E-18 5.03720E-19
 -1      3077 4.25566E-05-1.41218E-05-1.15813E-05-1.02240E-05 1.12062E-18 3.64383E-18
 -1      3078 4.62151E-05-1.94498E-05-1.08499E-05 2.24938E-05 6.75826E-19-4.27858E-18
 -1      3079 4.61803E-05-1.56744E-05-1.26108E-05 1.57406E-05 2.45613E-19-3.84129E-18
 -1      3080 5.71189E-05-2.30914E-05-1.44651E-05 2.66494E-05 1.16872E-18-3.39491E-18
 -1      3081 1.30368E-04-2.10336E-05-4.73120E-05 1.07851E-05 2.53104E-18 8.15693E-19
 -1      3082 8.72833E-05-1.19303E-05-3.23166E-05-1.32204E-06 4.73850E-20-1.72453E-18
 -1      3083 8.77003E-05-1.23207E-05-3.23255E-05-1.88025E-06-1.85545E-19-1.65615E-18
 -1      3084 8.87782E-05-1.40669E-05-3.19969E-05-1.54334E-06-2.00223E-19-1.61699E-18
 -1      3085 8.79070E-05-1.31976E-05-3.19981E-05-9.32822E-07-3.18465E-20-1.69594E-18
 -1      3086 1.30227E-04-5.54416E-05-3.21684E-05-3.19266E-06 2.13757E-18-3.29203E-18
 -1      3087 1.41550E-04-5.17967E-05-3.82746E-05-5.56721E-06-1.30279E-18 1.07266E-18
 -1      3088 7.89604E-05-4.04108E-05-1.60697E-05-3.87640E-05-3.13688E-18-1.69354E-18
 -1      3089 8.98598E-05-4.50449E-05-1.91201E-05-3.65835E-05-3.32206E-18-8.08864E-19
 -1      3090 7.59516E-05-3.52821E-05-1.71016E-05-3.52710E-05-2.83597E-18-1.16165E-18
 -1      3091 9.51826E-05-2.19506E-05-3.13755E-05 2.83616E-06 1.35457E-18-1.52079E-19
 -1      3092 1.30401E-04-4.64555E-05-3.62142E-05-6.05913E-06 2.26264E-19-2.71156E-18
 -1      3093 1.33774E-04-5.25755E-05-3.49175E-05 1.19952E-06-1.22274E-19-2.57911E-18
 -1      3094 1.28715E-04-5.38451E-05-3.21342E-05 5.33313E-06-8.34986E-19-2.44358E-18
 -1      3095 9.53746E-05-4.65696E-05-2.05974E-05 3.37993E-05-1.88618E-18 2.77409E-18
 -1      3096 6.28302E-05-2.78484E-05-1.44942E-05 3.23096E-05-1.67135E-18 3.53297E-18
 -1      3097 1.21749E-04-1.54240E-05-4.59377E-05-8.85582E-06 3.33699E-18-8.12146E-19
 -1      3098 1.28670E-04-2.37897E-05-4.52923E-05-1.40099E-05-4.30557E-18 8.69003E-19
 -1      3099 1.36554E-04-2.11828E-05-4.99907E-05-1.25019E-05-5.31513E-18 1.61720E-18
 -1      3100 1.09364E-04-5.39219E-05-2.33692E-05 2.89740E-05 1.42174E-18-9.15193E-19
 -1      3101 1.40737E-04-2.95876E-05-4.80514E-05-1.46284E-05-4.58160E-18 1.63234E-18
 -1      3102 1.38133E-04-3.60199E-05-4.41776E-05-1.50137E-05-3.90969E-18 2.06528E-18
 -1      3103 1.31666E-04-3.29632E-05-4.29257E-05-1.66585E-05-3.75257E-18 1.93923E-18
 -1      3104 9.40381E-05-2.07779E-05-3.14176E-05 1.89738E-06 1.18387E-18-3.24551E-19
 -1      3105 9.29728E-05-1.94450E-05-3.15200E-05 1.60190E-06 1.14964E-18-4.53931E-19
 -1      3106 1.26019E-04-5.65841E-05-2.94882E-05-1.15497E-05 2.58117E-18-2.58816E-18
 -1      3107 9.43924E-05-2.40327E-05-3.01529E-05 5.03585E-06-4.99372E-19-6.71368E-19
 -1      3108 9.43247E-05-2.42873E-05-3.00146E-05 6.20073E-06-5.16650E-19-6.69219E-19
 -1      3109 9.39688E-05-2.43976E-05-2.98198E-05 7.26624E-06-5.91916E-19-5.94182E-19
 -1      3110 9.39182E-05-2.45787E-05-2.97096E-05 8.30984E-06-6.12602E-19-8.81940E-19
 -1      3111 9.29114E-05-2.32925E-05-2.98290E-05 6.40938E-06-5.69690E-19-7.10240E-19
 -1      3112 9.34778E-05-2.46445E-05-2.95079E-05 9.33667E-06-5.24797E-19-8.51915E-19
 -1      3113 9.35282E-05-2.49086E-05-2.93939E-05 1.03084E-05-2.64433E-19-8.26761E-19
 -1      3114 9.21185E-05-2.35103E-05-2.93956E-05 8.48871E-06-5.36651E-19-5.97061E-19
 -1      3115 9.31032E-05-2.51058E-05-2.91513E-05 1.13684E-05-4.38191E-20-8.94596E-19
 -1      3116 9.33992E-05-2.56630E-05-2.90047E-05 1.22933E-05 1.54240E-19-7.46582E-19
 -1      3117 9.12391E-05-2.37811E-05-2.89051E-05 1.05567E-05-1.64915E-19-6.58460E-19
 -1      3118 9.31677E-05-2.62369E-05-2.86895E-05 1.34628E-05 4.31252E-19-9.10629E-19
 -1      3119 9.39694E-05-2.73854E-05-2.84935E-05 1.43285E-05 5.40765E-19-8.41005E-19
 -1      3120 9.05281E-05-2.45314E-05-2.82883E-05 1.27902E-05 2.66191E-19-8.78404E-19
 -1      3121 9.42536E-05-2.86781E-05-2.80875E-05 1.56734E-05 6.29465E-19-5.74547E-19
 -1      3122 9.59883E-05-3.08145E-05-2.78588E-05 1.63923E-05 8.44206E-19-5.38124E-19
 -1      3123 9.04489E-05-2.63676E-05-2.74876E-05 1.53929E-05 7.71684E-19-9.87808E-19
 -1      3124 9.73731E-05-3.33019E-05-2.73894E-05 1.78973E-05 9.67004E-19-3.97212E-19
 -1      3125 1.00651E-04-3.68406E-05-2.72316E-05 1.81567E-05 9.91201E-19-4.00613E-19
 -1      3126 9.18394E-05-3.01399E-05-2.64944E-05 1.85531E-05 9.62570E-19-7.07120E-19
 -1      3127 1.04052E-04-4.09744E-05-2.68683E-05 1.94589E-05 1.10216E-18-2.28037E-19
 -1      3128 1.09386E-04-4.58964E-05-2.70788E-05 1.85178E-05 1.03887E-18-3.53293E-19
 -1      3129 9.61449E-05-3.68886E-05-2.54548E-05 2.20995E-05 1.21837E-18-7.41035E-19
 -1      3130 5.09774E-05-1.81160E-05-1.35663E-05-2.19008E-05-1.74004E-18-2.56482E-18
 -1      3131 6.21540E-05-2.54181E-05-1.55402E-05-2.95895E-05-2.34165E-18-1.31375E-18
 -1      3132 1.31614E-04-4.41639E-05-3.76529E-05 7.21311E-06 6.41575E-19 2.21785E-18
 -1      3133 1.29451E-04-3.48871E-05-4.10534E-05 1.16564E-05 1.37394E-18 1.27590E-18
 -1      3134 1.03982E-04-4.07362E-05-2.70542E-05-1.78454E-05 2.14883E-18-5.33264E-19
 -1      3135 9.99692E-05-3.63889E-05-2.71104E-05-1.78196E-05 1.86914E-18-4.64722E-19
 -1      3136 9.76355E-05-3.31943E-05-2.75481E-05-1.64282E-05 6.86477E-19-1.51872E-19
 -1      3137 9.52256E-05-3.03734E-05-2.77569E-05-1.58121E-05-2.16494E-19 4.92321E-20
 -1      3138 9.31875E-05-3.29193E-05-2.59323E-05-1.94015E-05 1.31665E-18 5.43067E-19
 -1      3139 9.44544E-05-2.85719E-05-2.81801E-05-1.43338E-05-3.40450E-19-1.33610E-20
 -1      3140 9.32420E-05-2.70245E-05-2.83782E-05-1.35117E-05-2.43416E-20-1.10814E-19
 -1      3141 9.03689E-05-2.75851E-05-2.69453E-05-1.59098E-05-7.85623E-20 2.69171E-19
 -1      3142 9.32346E-05-2.61949E-05-2.86980E-05-1.22720E-05-6.93401E-20-9.12386E-19
 -1      3143 9.27137E-05-2.54678E-05-2.88316E-05-1.14106E-05 2.98891E-20-2.34349E-19
 -1      3144 8.97998E-05-2.50033E-05-2.77783E-05-1.30440E-05-2.86327E-19-4.45935E-19
 -1      3145 9.30395E-05-2.52215E-05-2.90441E-05-1.03782E-05 3.31418E-19-6.04284E-19
 -1      3146 9.28649E-05-2.49783E-05-2.91097E-05-9.54708E-06 1.66193E-19-1.69084E-19
 -1      3147 9.02105E-05-2.39955E-05-2.83720E-05-1.07568E-05-1.55735E-19-1.13584E-18
 -1      3148 9.32944E-05-2.50495E-05-2.92339E-05-8.67567E-06-4.52162E-20-1.93346E-19
 -1      3149 9.32716E-05-2.50663E-05-2.92461E-05-7.90554E-06-4.05474E-19 1.98953E-19
 -1      3150 9.10020E-05-2.38848E-05-2.87534E-05-8.88961E-06 1.57330E-19-1.35964E-18
 -1      3151 9.36927E-05-2.52881E-05-2.93059E-05-7.16098E-06 3.63025E-20 7.73625E-19
 -1      3152 9.37220E-05-2.54281E-05-2.92826E-05-6.46802E-06 7.38193E-19 1.25591E-18
 -1      3153 9.18615E-05-2.42357E-05-2.89708E-05-7.32131E-06 2.43270E-19 3.87143E-20
 -1      3154 9.40875E-05-2.57033E-05-2.92990E-05-5.83008E-06 4.97612E-19 1.12057E-18
 -1      3155 9.41241E-05-2.58891E-05-2.92554E-05-5.22217E-06 8.67138E-19 1.55618E-18
 -1      3156 9.26456E-05-2.47865E-05-2.90723E-05-5.98121E-06 5.90537E-19 8.45496E-19
 -1      3157 9.44209E-05-2.61653E-05-2.92450E-05-4.67871E-06 4.41242E-19 2.04207E-18
 -1      3158 9.44484E-05-2.63558E-05-2.91923E-05-4.15746E-06 6.78572E-19 2.32347E-18
 -1      3159 9.33015E-05-2.53889E-05-2.90974E-05-4.83202E-06 8.50056E-19 1.33156E-18
 -1      3160 9.46794E-05-2.66079E-05-2.91670E-05-3.69963E-06 7.91622E-19 1.58942E-18
 -1      3161 9.46944E-05-2.67836E-05-2.91126E-05-3.26183E-06 5.57889E-19 1.45972E-18
 -1      3162 9.38229E-05-2.59655E-05-2.90758E-05-3.85280E-06 4.39766E-19 1.63224E-18
 -1      3163 9.48692E-05-2.70017E-05-2.90803E-05-2.88145E-06-1.59077E-21 1.36389E-18
 -1      3164 9.48739E-05-2.71547E-05-2.90288E-05-2.52058E-06-1.27077E-18 1.27582E-18
 -1      3165 9.42234E-05-2.64805E-05-2.90285E-05-3.02834E-06 1.48220E-19 2.05063E-19
 -1      3166 9.50032E-05-2.73371E-05-2.89948E-05-2.20926E-06-8.21785E-19 1.08898E-18
 -1      3167 9.50008E-05-2.74658E-05-2.89486E-05-1.91688E-06 7.70182E-20 6.26520E-19
 -1      3168 9.45238E-05-2.69214E-05-2.89696E-05-2.34426E-06-4.28740E-19 9.34735E-19
 -1      3169 9.50950E-05-2.76147E-05-2.89159E-05-1.66594E-06-6.96539E-19 4.11487E-19
 -1      3170 9.50886E-05-2.77205E-05-2.88759E-05-1.43284E-06-1.05515E-18-2.93003E-20
 -1      3171 9.47448E-05-2.72885E-05-2.89080E-05-1.78543E-06-6.28890E-19-7.03622E-19
 -1      3172 9.51560E-05-2.78399E-05-2.88462E-05-1.23364E-06-1.25110E-18-5.94588E-20
 -1      3173 9.51480E-05-2.79253E-05-2.88127E-05-1.05064E-06-7.85357E-19-4.96280E-19
 -1      3174 9.49050E-05-2.75876E-05-2.88492E-05-1.33604E-06-1.38237E-18-1.02419E-18
 -1      3175 9.51955E-05-2.80197E-05-2.87868E-05-8.94918E-07-8.66723E-19-7.56207E-19
 -1      3176 9.51873E-05-2.80875E-05-2.87592E-05-7.53408E-07-5.55889E-19-2.16321E-18
 -1      3177 9.50193E-05-2.78274E-05-2.87959E-05-9.80270E-07-1.46622E-18 6.93413E-19
 -1      3178 9.52202E-05-2.81611E-05-2.87373E-05-6.33538E-07 1.47387E-19-2.72049E-18
 -1      3179 9.52126E-05-2.82143E-05-2.87152E-05-5.25779E-07-2.88426E-20-3.15960E-18
 -1      3180 9.50996E-05-2.80167E-05-2.87495E-05-7.02998E-07-5.78551E-19-4.90927E-19
 -1      3181 9.52350E-05-2.82709E-05-2.86970E-05-4.34967E-07 1.12498E-19-2.48386E-18
 -1      3182 9.52284E-05-2.83122E-05-2.86796E-05-3.54211E-07 6.98057E-19-2.83658E-18
 -1      3183 9.51549E-05-2.81642E-05-2.87102E-05-4.90299E-07 4.41424E-19-8.52085E-19
 -1      3184 9.52431E-05-2.83552E-05-2.86648E-05-2.86568E-07 1.07220E-18-1.91410E-18
 -1      3185 9.52377E-05-2.83868E-05-2.86513E-05-2.27096E-07 8.02872E-19-1.01592E-18
 -1      3186 9.51922E-05-2.82776E-05-2.86776E-05-3.29794E-07 1.13984E-18-1.70824E-18
 -1      3187 9.52470E-05-2.84190E-05-2.86395E-05-1.77651E-07 6.60479E-20-1.45754E-18
 -1      3188 9.52428E-05-2.84429E-05-2.86291E-05-1.34732E-07 2.27025E-19-1.36730E-18
 -1      3189 9.52164E-05-2.83637E-05-2.86512E-05-2.10798E-07 2.57380E-19-8.40904E-19
 -1      3190 9.52482E-05-2.84668E-05-2.86198E-05-9.93941E-08 2.13525E-19-2.09326E-18
 -1      3191 9.52451E-05-2.84848E-05-2.86120E-05-6.92039E-08 6.90360E-19-1.26293E-18
 -1      3192 9.52314E-05-2.84282E-05-2.86300E-05-1.24343E-07 5.21085E-19-2.06479E-18
 -1      3193 9.52479E-05-2.85024E-05-2.86047E-05-4.46774E-08 1.31932E-18-8.29998E-19
 -1      3194 9.52457E-05-2.85160E-05-2.85987E-05-2.41929E-08 1.91447E-18-1.60272E-18
 -1      3195 9.52401E-05-2.84761E-05-2.86132E-05-6.30824E-08 1.15139E-18-1.80287E-18
 -1      3196 9.52469E-05-2.85289E-05-2.85930E-05-7.88228E-09 1.91885E-18-9.71635E-19
 -1      3197 9.52454E-05-2.85394E-05-2.85885E-05 5.23918E-09 1.93331E-18-1.35673E-18
 -1      3198 9.52444E-05-2.85116E-05-2.85999E-05-2.11629E-08 1.71429E-18-8.43172E-19
 -1      3199 9.52458E-05-2.85493E-05-2.85839E-05 1.50939E-08 3.85915E-19-1.34892E-18
 -1      3200 9.52451E-05-2.85575E-05-2.85805E-05 2.23057E-08-1.17007E-18-1.43313E-18
 -1      3201 9.52463E-05-2.85386E-05-2.85892E-05 6.10091E-09 8.14287E-19-1.82637E-18
 -1      3202 9.52433E-05-2.85412E-05-2.85867E-05 4.20527E-09 1.85308E-18 1.09556E-18
 -1      3203 9.52425E-05-2.85399E-05-2.85870E-05 1.70035E-09 1.96960E-18 5.80547E-19
 -1      3204 1.04616E-04-3.57160E-05-2.95509E-05-5.18451E-06 1.86331E-20 9.00779E-19
 -1      3205 1.03333E-04-3.44425E-05-2.94812E-05-6.10506E-06 1.29163E-19 7.17206E-19
 -1      3206 1.01876E-04-3.31352E-05-2.94710E-05-6.57478E-06 1.23683E-19 5.22219E-19
 -1      3207 1.00812E-04-3.20168E-05-2.94512E-05-6.98656E-06-1.53669E-19 5.98715E-19
 -1      3208 1.01974E-04-3.40164E-05-2.91686E-05-7.51472E-06-6.52066E-20 5.52687E-19
 -1      3209 1.11017E-04-4.01009E-05-3.04384E-05 1.39856E-06-6.10224E-19 1.98319E-18
 -1      3210 1.09971E-04-3.95733E-05-3.01240E-05-6.33441E-07-2.30178E-19 1.41243E-18
 -1      3211 1.13039E-04-3.95325E-05-3.15318E-05 6.23363E-06-3.19326E-19 2.61546E-18
 -1      3212 1.12777E-04-4.03927E-05-3.10161E-05 4.07229E-06-5.32918E-19 2.22741E-18
 -1      3213 1.13413E-04-4.20445E-05-3.05924E-05 1.24018E-06-7.60431E-19 1.76120E-18
 -1      3214 1.12713E-04-3.53582E-05-3.31307E-05 1.02589E-05 3.41976E-19 2.49708E-18
 -1      3215 1.13537E-04-3.80284E-05-3.24341E-05 8.89630E-06 1.43951E-19 2.64602E-18
 -1      3216 1.15841E-04-4.06547E-05-3.21942E-05 6.89001E-06-9.62342E-20 2.11934E-18
 -1      3217 1.09716E-04-2.79406E-05-3.50001E-05 1.08530E-05 1.18174E-18 2.20243E-18
 -1      3218 1.11400E-04-3.18476E-05-3.42607E-05 1.14522E-05 6.45581E-19 2.29117E-18
 -1      3219 1.15202E-04-3.49018E-05-3.43818E-05 1.13892E-05 6.75873E-19 2.43935E-18
 -1      3220 1.06097E-04-2.09822E-05-3.64649E-05 6.01687E-06 1.31363E-18 1.67429E-18
 -1      3221 1.07480E-04-2.39394E-05-3.59889E-05 8.92752E-06 1.31918E-18 1.69758E-18
 -1      3222 1.11561E-04-2.57905E-05-3.68031E-05 1.10151E-05 1.55957E-18 2.00923E-18
 -1      3223 1.05158E-04-1.93664E-05-3.68269E-05-2.59402E-06 1.15338E-18 1.33363E-18
 -1      3224 1.05014E-04-1.92611E-05-3.68392E-05 1.33523E-06 9.99903E-19 1.61451E-18
 -1      3225 1.07956E-04-1.85765E-05-3.84107E-05 4.22996E-06 1.05825E-18 1.09521E-18
 -1      3226 1.07772E-04-2.44461E-05-3.59143E-05-9.91801E-06 9.03228E-19-4.51045E-20
 -1      3227 1.06230E-04-2.13358E-05-3.64066E-05-7.18207E-06 1.52979E-18 6.00590E-19
 -1      3228 1.08149E-04-1.87799E-05-3.83910E-05-5.40103E-06 1.77964E-18 5.44682E-20
 -1      3229 1.11684E-04-3.23078E-05-3.41770E-05-1.20748E-05 1.17456E-19-1.54090E-19
 -1      3230 1.09989E-04-2.84456E-05-3.49072E-05-1.16236E-05 5.38726E-19-2.77235E-19
 -1      3231 1.11831E-04-2.65728E-05-3.65534E-05-1.19297E-05 7.06948E-19-5.79304E-19
 -1      3232 1.13734E-04-3.82266E-05-3.23677E-05-9.43591E-06 1.09908E-18-1.23026E-18
 -1      3233 1.12796E-04-3.56248E-05-3.30510E-05-1.07689E-05 7.16915E-19-2.88736E-19
 -1      3234 1.15208E-04-3.52230E-05-3.42745E-05-1.17891E-05 8.57462E-19-1.08479E-18
 -1      3235 1.12622E-04-4.01552E-05-3.10211E-05-4.57331E-06 5.40500E-19-4.65627E-19
 -1      3236 1.12887E-04-3.94732E-05-3.15035E-05-6.52532E-06 6.32540E-19-6.91510E-19
 -1      3237 1.15783E-04-4.09018E-05-3.21713E-05-7.34009E-06 6.36783E-19-1.49367E-18
 -1      3238 1.09685E-04-3.91693E-05-3.01771E-05-7.28770E-10-1.70416E-19 5.18608E-19
 -1      3239 1.10773E-04-3.98237E-05-3.04682E-05-1.89930E-06 8.93428E-20 3.15345E-19
 -1      3240 1.12959E-04-4.18696E-05-3.05747E-05-1.76716E-06-2.63391E-19 8.40581E-20
 -1      3241 1.06263E-04-3.67604E-05-2.97357E-05 3.20079E-06-1.58419E-19 7.55451E-19
 -1      3242 1.07588E-04-3.79278E-05-2.98893E-05 1.79112E-06 1.02440E-19 1.04715E-18
 -1      3243 1.08845E-04-3.96797E-05-2.96878E-05 2.52644E-06-1.41567E-19 1.20539E-18
 -1      3244 1.03125E-04-3.41015E-05-2.95405E-05 5.09041E-06-3.04661E-19 8.63316E-19
 -1      3245 1.04377E-04-3.53296E-05-2.96143E-05 4.23376E-06 1.57015E-19 8.10900E-19
 -1      3246 1.04822E-04-3.66150E-05-2.92757E-05 5.21764E-06-1.23085E-19 2.30902E-18
 -1      3247 1.00631E-04-3.18125E-05-2.94655E-05 5.91385E-06-9.63923E-19 5.61532E-19
 -1      3248 1.01672E-04-3.28497E-05-2.95057E-05 5.51935E-06-4.42424E-19 6.89469E-19
 -1      3249 1.01484E-04-3.35938E-05-2.91365E-05 6.48261E-06-4.49970E-19 1.68808E-18
 -1      3250 9.88200E-05-3.01091E-05-2.94302E-05 6.01062E-06-5.33132E-19 4.86093E-19
 -1      3251 9.96196E-05-3.08769E-05-2.94635E-05 5.94439E-06-8.29989E-19 5.52442E-19
 -1      3252 9.90435E-05-3.11593E-05-2.91225E-05 6.78638E-06-4.94630E-19 6.75667E-19
 -1      3253 9.75728E-05-2.89643E-05-2.93944E-05 5.66297E-06-8.35558E-19-5.10624E-19
 -1      3254 9.81624E-05-2.94813E-05-2.94326E-05 5.80796E-06-5.40723E-19-1.18924E-19
 -1      3255 9.74014E-05-2.94395E-05-2.91459E-05 6.50946E-06-5.24248E-19-2.14748E-20
 -1      3256 9.67441E-05-2.82682E-05-2.93430E-05 5.07172E-06-1.03348E-18-4.82225E-19
 -1      3257 9.71706E-05-2.85858E-05-2.93889E-05 5.33723E-06-9.98263E-19-6.12581E-19
 -1      3258 9.63626E-05-2.83419E-05-2.91637E-05 5.91365E-06-4.60280E-19-9.46656E-19
 -1      3259 9.62065E-05-2.78974E-05-2.92749E-05 4.37422E-06-4.08631E-19-8.54012E-19
 -1      3260 9.65134E-05-2.80710E-05-2.93267E-05 4.69511E-06-3.41769E-19-7.26729E-19
 -1      3261 9.57440E-05-2.77208E-05-2.91599E-05 5.16885E-06-6.06343E-19-1.15418E-18
 -1      3262 9.58627E-05-2.77447E-05-2.91948E-05 3.66005E-06-9.22211E-19-4.85249E-19
 -1      3263 9.60843E-05-2.78218E-05-2.92492E-05 3.99240E-06-1.11713E-18-6.23311E-19
 -1      3264 9.54001E-05-2.74331E-05-2.91328E-05 4.38341E-06-9.95177E-19-1.65588E-18
 -1      3265 9.56443E-05-2.77278E-05-2.91094E-05 2.98411E-06-3.96218E-19-4.16120E-19
 -1      3266 9.58056E-05-2.77443E-05-2.91630E-05 3.30041E-06-2.82765E-19-1.76967E-19
 -1      3267 9.52262E-05-2.73615E-05-2.90872E-05 3.62398E-06-8.59985E-19-1.94926E-18
 -1      3268 9.55056E-05-2.77879E-05-2.90245E-05 2.37679E-06 5.76321E-19-1.23370E-18
 -1      3269 9.56239E-05-2.77695E-05-2.90748E-05 2.66159E-06 2.65919E-20-2.55930E-19
 -1      3270 9.51520E-05-2.74185E-05-2.90299E-05 2.92898E-06-1.86956E-19-2.14383E-18
 -1      3271 9.54168E-05-2.78857E-05-2.89445E-05 1.85170E-06 6.17871E-19-1.77420E-19
 -1      3272 9.55043E-05-2.78495E-05-2.89898E-05 2.09794E-06 4.95567E-19-6.22427E-19
 -1      3273 9.51324E-05-2.75433E-05-2.89675E-05 2.31772E-06 3.45146E-19-8.33036E-19
 -1      3274 9.53594E-05-2.79961E-05-2.88722E-05 1.41140E-06 1.58148E-18 3.40192E-19
 -1      3275 9.54242E-05-2.79532E-05-2.89117E-05 1.61760E-06 1.22929E-18-3.69073E-20
 -1      3276 9.51399E-05-2.76960E-05-2.89051E-05 1.79667E-06 4.15556E-19-1.06473E-18
 -1      3277 9.53215E-05-2.81044E-05-2.88092E-05 1.05162E-06 2.13204E-18 1.57479E-18
 -1      3278 9.53695E-05-2.80613E-05-2.88426E-05 1.21972E-06 2.02129E-18 1.08113E-18
 -1      3279 9.51585E-05-2.78518E-05-2.88462E-05 1.36402E-06 1.32304E-18-1.13695E-18
 -1      3280 9.52961E-05-2.82027E-05-2.87559E-05 7.64291E-07 1.83740E-18 2.48363E-18
 -1      3281 9.53315E-05-2.81629E-05-2.87834E-05 8.98139E-07 2.11449E-18 2.48840E-18
 -1      3282 9.51796E-05-2.79968E-05-2.87930E-05 1.01293E-06 1.74358E-18 5.32224E-19
 -1      3283 9.52787E-05-2.82874E-05-2.87118E-05 5.39606E-07 1.37123E-18 2.11706E-18
 -1      3284 9.53045E-05-2.82527E-05-2.87339E-05 6.43896E-07 1.91726E-18 2.46554E-18
 -1      3285 9.51988E-05-2.81241E-05-2.87467E-05 7.33947E-07 1.79332E-18 2.15653E-18
 -1      3286 9.52665E-05-2.83577E-05-2.86761E-05 3.67436E-07 7.54966E-19 1.30867E-18
 -1      3287 9.52851E-05-2.83286E-05-2.86936E-05 4.47019E-07 1.07750E-18 1.77230E-18
 -1      3288 9.52145E-05-2.82313E-05-2.87074E-05 5.16612E-07 1.60349E-18 2.88898E-18
 -1      3289 9.52578E-05-2.84144E-05-2.86479E-05 2.38170E-07-2.50784E-19-5.61134E-19
 -1      3290 9.52710E-05-2.83907E-05-2.86614E-05 2.97631E-07 4.11879E-19 2.11999E-19
 -1      3291 9.52262E-05-2.83187E-05-2.86749E-05 3.50562E-07 1.22632E-18 1.25094E-18
 -1      3292 9.52517E-05-2.84590E-05-2.86260E-05 1.43201E-07 7.26169E-19-1.47313E-19
 -1      3293 9.52607E-05-2.84401E-05-2.86362E-05 1.86629E-07-6.49591E-20-2.55229E-19
 -1      3294 9.52343E-05-2.83881E-05-2.86486E-05 2.26199E-07-1.77478E-19-5.90116E-19
 -1      3295 9.52473E-05-2.84934E-05-2.86092E-05 7.51493E-08 8.74992E-19-7.43964E-19
 -1      3296 9.52533E-05-2.84787E-05-2.86168E-05 1.06026E-07 8.00113E-19-5.83907E-19
 -1      3297 9.52394E-05-2.84420E-05-2.86277E-05 1.35042E-07 6.82641E-19-1.12566E-18
 -1      3298 9.52443E-05-2.85198E-05-2.85965E-05 2.79628E-08 1.30186E-18-5.64176E-19
 -1      3299 9.52480E-05-2.85083E-05-2.86021E-05 4.91199E-08 1.87555E-18-1.64213E-19
 -1      3300 9.52422E-05-2.84832E-05-2.86112E-05 6.98939E-08 1.07700E-18-3.57593E-19
 -1      3301 9.52424E-05-2.85401E-05-2.85869E-05-3.14226E-09 1.06126E-18-1.65805E-19
 -1      3302 9.52445E-05-2.85310E-05-2.85910E-05 1.05408E-08 1.05868E-18-2.83396E-19
 -1      3303 9.52435E-05-2.85144E-05-2.85983E-05 2.49639E-08 1.25470E-18 1.28511E-18
 -1      3304 9.52415E-05-2.85561E-05-2.85795E-05-2.17589E-08 6.70779E-19-1.89784E-18
 -1      3305 9.52423E-05-2.85489E-05-2.85826E-05-1.40386E-08 1.09861E-18-7.62067E-19
 -1      3306 9.52439E-05-2.85382E-05-2.85882E-05-4.49244E-09 1.66408E-18-7.51853E-20
 -1      3307 9.52424E-05-2.85652E-05-2.85759E-05-2.80599E-08-6.21362E-19-1.86153E-18
 -1      3308 9.52415E-05-2.85604E-05-2.85775E-05-2.56764E-08 3.01443E-19-2.24106E-18
 -1      3309 9.52441E-05-2.85537E-05-2.85817E-05-1.94104E-08 1.26120E-18-1.31776E-18
 -1      3310 9.52447E-05-2.85641E-05-2.85775E-05-2.58504E-08-1.14076E-18-2.15795E-18
 -1      3311 8.89119E-05-1.50257E-05-3.16761E-05 1.70178E-07 5.04552E-19-1.29046E-18
 -1      3312 8.84855E-05-1.46120E-05-3.16784E-05-1.58696E-07 3.21266E-19-1.51896E-18
 -1      3313 9.67614E-05-2.69243E-05-2.99316E-05-4.45184E-06 4.52364E-19-6.15041E-20
 -1      3314 9.65210E-05-2.63586E-05-3.00537E-05-3.58478E-06 6.86814E-19-1.22251E-19
 -1      3315 9.52418E-05-2.85385E-05-2.85872E-05 3.28419E-10 1.37624E-18 2.70097E-19
 -1      3316 9.52417E-05-2.85384E-05-2.85872E-05-1.94548E-09 1.30623E-18 4.01133E-19
 -1      3317 9.52388E-05-2.85229E-05-2.85923E-05-9.40964E-11 2.00062E-18 9.92927E-19
 -1      3318 9.52473E-05-2.85538E-05-2.85829E-05 1.58519E-08 1.91954E-18-3.41391E-20
 -1      3319 9.52472E-05-2.85515E-05-2.85840E-05 1.24301E-08 2.76524E-18 2.07697E-19
 -1      3320 9.52458E-05-2.85468E-05-2.85853E-05 9.26371E-09 2.65011E-18 8.96682E-19
 -1      3321 9.52448E-05-2.85446E-05-2.85859E-05 6.24630E-09 2.20806E-18 1.19532E-18
 -1      3322 9.52413E-05-2.85278E-05-2.85913E-05 2.27099E-09 2.46404E-18 1.29188E-18
 -1      3323 9.52449E-05-2.85362E-05-2.85892E-05 6.51507E-09 2.23468E-18 1.04782E-18
 -1      3324 9.19377E-05-1.68351E-05-3.22128E-05-4.09256E-06-9.78457E-19-1.11389E-18
 -1      3325 9.30361E-05-1.81300E-05-3.21360E-05-4.50868E-06-1.12521E-18-1.00112E-18
 -1      3326 9.39906E-05-1.99774E-05-3.16870E-05-2.92812E-06-1.07250E-18-9.10276E-19
 -1      3327 9.22051E-05-1.77666E-05-3.18677E-05-2.67600E-06-9.26120E-19-1.10070E-18
 -1      3328 1.07854E-04-3.83438E-05-2.98266E-05-2.56415E-06 1.45000E-19 1.28231E-18
 -1      3329 1.06512E-04-3.71733E-05-2.96648E-05-4.07148E-06 1.21402E-19 1.18762E-18
 -1      3330 1.05329E-04-3.71465E-05-2.92706E-05-6.14085E-06-1.27838E-19 1.04484E-18
 -1      3331 1.09399E-04-4.02381E-05-2.96779E-05-3.30263E-06-2.11747E-19 1.45183E-18
 -1      3332 1.19785E-04-1.31278E-05-4.61916E-05 7.47569E-06 2.74227E-18 8.59924E-19
 -1      3333 1.15357E-04-1.11942E-05-4.50470E-05 2.11453E-06 3.22624E-18 7.17649E-19
 -1      3334 1.16397E-04-5.15145E-05-2.78136E-05-1.58039E-05 2.66050E-18-1.67526E-18
 -1      3335 1.10529E-04-4.62921E-05-2.72535E-05-1.76458E-05 2.49365E-18-9.00168E-19
 -1      3336 1.01218E-04-4.20382E-05-2.54620E-05-2.17584E-05 2.67053E-18-1.79346E-19
 -1      3337 1.17360E-04-5.42972E-05-2.70918E-05-1.89431E-05 3.29721E-18-1.88583E-18
 -1      3338 4.80664E-05-1.62957E-05-1.33790E-05 2.01354E-05-1.28500E-18 3.03757E-18
 -1      3339 4.33604E-05-1.23529E-05-1.29921E-05 8.12611E-06-6.83331E-19 3.90080E-18
 -1      3340 4.21467E-05-1.23749E-05-1.23518E-05 2.18031E-06-5.96774E-19-3.99990E-18
 -1      3341 4.37331E-05-1.34749E-05-1.26810E-05-1.15495E-05-1.37476E-18-3.69317E-18
 -1      3342 9.45983E-05-2.32518E-05-3.05731E-05 2.51815E-06-7.60889E-19-8.22868E-19
 -1      3343 9.45881E-05-2.37241E-05-3.03730E-05 3.86810E-06-5.57006E-19-7.66939E-19
 -1      3344 9.34587E-05-2.28066E-05-3.02728E-05 4.17614E-06-5.18678E-19-7.67540E-19
 -1      3345 8.72985E-05-4.05282E-05-2.01213E-05 3.26875E-05 1.59300E-18-1.52371E-18
 -1      3346 7.26195E-05-3.09531E-05-1.72835E-05 3.08042E-05 1.72249E-18-2.45121E-18
 -1      3347 1.26423E-04-2.65295E-05-4.30913E-05 1.31956E-05 1.92827E-18 1.12677E-18
 -1      3348 1.22848E-04-1.81699E-05-4.53834E-05 1.08651E-05 2.40706E-18 8.24692E-19
 -1      3349 1.17197E-04-1.89252E-05-4.23786E-05 9.86265E-06 2.00922E-18 1.25461E-18
 -1      3350 1.24123E-04-3.18707E-05-3.96996E-05 1.28216E-05 1.24837E-18 9.07861E-19
 -1      3351 1.12540E-04-1.55868E-05-4.19549E-05-6.95921E-06 2.71294E-18-2.64585E-19
 -1      3352 1.16142E-04-2.13211E-05-4.08913E-05-1.21478E-05 2.09789E-18-1.15985E-18
 -1      3353 4.41696E-05-1.18197E-05-1.34260E-05-3.58843E-06 7.29476E-19 3.55436E-18
 -1      3354 4.93892E-05-1.53264E-05-1.43410E-05-1.50499E-05 1.07692E-18 3.21364E-18
 -1      3355 9.59016E-05-2.37200E-05-3.09359E-05 1.10442E-06 1.16060E-18-1.22162E-19
 -1      3356 9.48210E-05-2.18982E-05-3.12431E-05 1.64188E-06 1.18079E-18-1.50004E-19
 -1      3357 9.48062E-05-2.24710E-05-3.09848E-05 2.74970E-07 1.05285E-18-2.13133E-19
 -1      3358 9.60817E-05-2.46382E-05-3.06268E-05-4.58195E-07 1.00964E-18-6.98891E-20
 -1      3359 1.16188E-04-5.62335E-05-2.61469E-05 2.38287E-05 1.44710E-18 1.76765E-19
 -1      3360 1.03225E-04-4.90653E-05-2.28058E-05 2.89379E-05 1.72535E-18-6.82364E-19
 -1      3361 5.96724E-05-2.27648E-05-1.55275E-05-2.49100E-05 1.65378E-18 1.40862E-18
 -1      3362 7.08945E-05-3.12631E-05-1.67510E-05-3.15865E-05 2.65142E-18 7.47612E-19
 -1      3363 7.12602E-05-3.03789E-05-1.74637E-05 3.16303E-05-1.73636E-18 3.11592E-18
 -1      3364 5.72378E-05-2.16136E-05-1.47304E-05 2.68614E-05-1.59634E-18 3.54489E-18
 -1      3365 1.04855E-04-4.97336E-05-2.36393E-05 2.85634E-05-1.89423E-18 1.30308E-18
 -1      3366 8.97898E-05-4.10071E-05-2.06503E-05 3.17149E-05-1.71365E-18 2.13659E-18
 -1      3367 1.20636E-04-5.45984E-05-2.84204E-05 1.56703E-05-1.58178E-18-2.29312E-18
 -1      3368 1.13445E-04-5.31364E-05-2.56163E-05 2.32312E-05-1.55415E-18-7.14002E-19
 -1      3369 1.07746E-04-4.87788E-05-2.51483E-05 2.28729E-05-1.66961E-18-8.73053E-19
 -1      3370 9.73864E-05-2.80382E-05-2.97200E-05-5.82187E-06 3.38951E-19-6.88947E-20
 -1      3371 9.70078E-05-2.74643E-05-2.97876E-05-5.23657E-06 3.65769E-19 3.29042E-20
 -1      3372 9.62333E-05-2.65525E-05-2.98753E-05-4.97545E-06 3.19505E-19 1.29168E-19
 -1      3373 8.82005E-05-1.43087E-05-3.16795E-05-2.60147E-07 2.55970E-19-1.57658E-18
 -1      3374 8.81028E-05-1.42224E-05-3.16805E-05-5.37335E-07 6.13520E-20-1.59411E-18
 -1      3375 8.88717E-05-1.56266E-05-3.13672E-05-4.56553E-07 2.81462E-19-1.41571E-18
 -1      3376 1.28482E-04-5.84788E-05-2.96659E-05 1.23097E-05 1.61185E-18-3.29284E-20
 -1      3377 1.21969E-04-5.46732E-05-2.86357E-05 1.42674E-05 1.54332E-18 1.09055E-19
 -1      3378 4.96074E-05-1.28209E-05-1.53514E-05 2.46962E-06-3.20069E-19 2.93804E-18
 -1      3379 6.85703E-05-2.65566E-05-1.77294E-05 2.63490E-05 1.38617E-18-2.63628E-18
 -1      3380 9.19777E-05-1.83089E-05-3.15887E-05 1.35849E-06 1.07169E-18-5.08867E-19
 -1      3381 9.10535E-05-1.72896E-05-3.16293E-05 9.60722E-07 9.11803E-19-6.41252E-19
 -1      3382 9.30676E-05-2.01415E-05-3.12334E-05 3.93293E-07 9.95328E-19-4.47721E-19
 -1      3383 1.34300E-04-5.70760E-05-3.29942E-05 4.98085E-06 6.55127E-19 2.94238E-19
 -1      3384 1.04825E-04-4.65259E-05-2.51746E-05 2.42009E-05 1.26557E-18-1.75098E-19
 -1      3385 1.15070E-04-5.03340E-05-2.74082E-05 1.78838E-05 1.26318E-18 1.73410E-20
 -1      3386 1.32042E-04-4.88844E-05-3.59275E-05 3.72891E-06 5.58989E-19 2.21796E-18
 -1      3387 1.27365E-04-4.30673E-05-3.62263E-05 8.63942E-06 8.23898E-19 1.29270E-18
 -1      3388 1.29790E-04-5.15456E-05-3.36379E-05-5.82737E-07 1.02838E-19 1.75386E-18
 -1      3389 1.18943E-04-2.78058E-05-3.93650E-05-1.33155E-05 1.03184E-18-1.52527E-18
 -1      3390 9.52458E-05-2.85503E-05-2.85839E-05-1.30022E-08 1.75157E-18 1.29035E-18
 -1      3391 9.52460E-05-2.85527E-05-2.85828E-05-1.62389E-08 1.21143E-18 1.05884E-18
 -1      3392 9.45723E-05-2.22520E-05-3.09799E-05 3.43211E-07-6.93616E-19-8.96714E-19
 -1      3393 9.46112E-05-2.28031E-05-3.07784E-05 1.53828E-06-7.80181E-19-8.75006E-19
 -1      3394 9.36447E-05-2.19506E-05-3.07189E-05 2.00024E-06-6.61386E-19-8.53052E-19
 -1      3395 9.42722E-05-2.10192E-05-3.14078E-05-1.59966E-06-9.15447E-19-9.00285E-19
 -1      3396 9.95272E-05-3.13953E-05-2.92328E-05-7.81990E-06-2.20238E-19 3.78616E-19
 -1      3397 9.98029E-05-3.09865E-05-2.94959E-05-6.99591E-06-4.03833E-19 5.62351E-19
 -1      3398 9.89967E-05-3.00981E-05-2.95044E-05-7.00617E-06-3.84614E-19 3.47194E-19
 -1      3399 8.95058E-05-1.56544E-05-3.16689E-05 3.43845E-07 6.75739E-19-1.08364E-18
 -1      3400 8.97841E-05-1.65594E-05-3.13603E-05-2.81542E-07 5.43158E-19-9.71670E-19
 -1      3401 9.02108E-05-1.63745E-05-3.16563E-05 7.25658E-07 8.46538E-19-8.86635E-19
 -1      3402 9.52438E-05-2.85438E-05-2.85859E-05-7.48227E-09 2.33009E-18 1.46141E-18
 -1      3403 9.52445E-05-2.85457E-05-2.85852E-05-1.03163E-08 2.45523E-18 2.35323E-18
 -1      3404 9.52431E-05-2.85350E-05-2.85891E-05-7.68989E-09 1.27495E-18 1.92684E-18
 -1      3405 9.52460E-05-2.85645E-05-2.85776E-05 2.53866E-08 7.27708E-21-1.26945E-19
 -1      3406 9.52478E-05-2.85579E-05-2.85815E-05 1.96191E-08 7.04377E-19-1.84170E-19
 -1      3407 9.52469E-05-2.85451E-05-2.85863E-05 1.25102E-08 8.55590E-19-1.36184E-18
 -1      3408 9.52420E-05-2.85395E-05-2.85869E-05-3.24664E-09 1.42879E-18-8.51558E-19
 -1      3409 9.52426E-05-2.85406E-05-2.85866E-05-5.63119E-09 1.72770E-18-4.40914E-19
 -1      3410 9.52404E-05-2.85271E-05-2.85912E-05-3.97365E-09 2.13178E-18-6.33062E-19
 -1      3411 9.52385E-05-2.85227E-05-2.85923E-05-1.75367E-09 1.40549E-18-5.32885E-19
 -1      3412 5.81964E-05-1.92121E-05-1.63105E-05 2.10915E-05-1.35115E-18 3.09379E-18
 -1      3413 9.29231E-05-4.32971E-05-2.10887E-05-3.23769E-05-2.86911E-18-5.36834E-19
 -1      3414 9.88272E-05-4.86115E-05-2.12345E-05-3.37147E-05-3.05599E-18-1.19882E-19
 -1      3415 1.06556E-04-5.11988E-05-2.37396E-05-2.85390E-05-2.68949E-18 7.34828E-19
 -1      3416 1.24720E-04-5.79447E-05-2.85426E-05-1.86902E-05-1.53964E-18 1.85333E-18
 -1      3417 1.27049E-04-5.63213E-05-3.03684E-05-1.11989E-05-1.21794E-18 1.26240E-18
 -1      3418 1.18427E-04-5.58394E-05-2.67460E-05-2.20670E-05-1.87927E-18 1.39768E-18
 -1      3419 1.06887E-04-5.04157E-05-2.37828E-05-2.66122E-05 3.96814E-18-1.18558E-19
 -1      3420 5.28303E-05-1.60708E-05-1.53372E-05-1.45033E-05-1.40570E-18-2.81713E-18
 -1      3421 4.75314E-05-1.35459E-05-1.40691E-05 8.65436E-06 3.23990E-20-3.46855E-18
 -1      3422 5.17829E-05-1.32184E-05-1.62850E-05 2.85437E-06-2.88653E-19-2.94566E-18
 -1      3423 5.46658E-05-1.61407E-05-1.64030E-05 1.43106E-05 4.85356E-19-3.18797E-18
 -1      3424 9.83499E-05-2.93265E-05-2.95811E-05-6.69238E-06-2.00311E-19 4.14669E-19
 -1      3425 9.77791E-05-2.86357E-05-2.96144E-05-6.38391E-06 5.99384E-20 1.48601E-19
 -1      3426 9.68641E-05-2.78426E-05-2.95979E-05-6.40797E-06 4.35380E-20 2.66504E-19
 -1      3427 9.78910E-05-2.93813E-05-2.93854E-05-7.38461E-06-4.31445E-19 5.19108E-19
 -1      3428 1.24601E-04-5.42713E-05-3.00980E-05 9.10476E-06-1.40647E-18-2.19592E-18
 -1      3429 1.18102E-04-5.16006E-05-2.84417E-05 1.23689E-05-1.30680E-18-1.75109E-18
 -1      3430 1.24479E-04-5.09172E-05-3.17368E-05 1.92760E-06-1.14834E-18-2.15058E-18
 -1      3431 8.31990E-05-3.56667E-05-2.00772E-05 3.08366E-05-1.77760E-18 2.09135E-18
 -1      3432 7.63867E-05-2.94501E-05-2.00111E-05 2.71418E-05-1.89557E-18 2.67395E-18
 -1      3433 9.28258E-05-3.92726E-05-2.28142E-05 2.61085E-05-2.03076E-18 1.02446E-18
 -1      3434 7.02685E-05-2.95262E-05-1.69811E-05-3.14658E-05-2.39337E-18-1.08283E-18
 -1      3435 7.85517E-05-3.40835E-05-1.88932E-05-3.15393E-05-2.58427E-18-8.53068E-19
 -1      3436 6.61898E-05-2.48493E-05-1.75608E-05-2.66013E-05-2.00633E-18-1.16128E-18
 -1      3437 9.64137E-05-2.59155E-05-3.02160E-05-2.70347E-06 8.93711E-19-2.41198E-19
 -1      3438 9.62509E-05-2.52513E-05-3.04139E-05-1.52052E-06 9.52355E-19-1.87943E-19
 -1      3439 9.56600E-05-2.43040E-05-3.05953E-05-1.18887E-06 1.01581E-18-1.28199E-19
 -1      3440 9.58893E-05-2.54214E-05-3.02090E-05-3.22429E-06 7.77405E-19-4.35236E-20
 -1      3441 9.69305E-05-4.29640E-05-2.28479E-05 2.74575E-05 1.65457E-18-8.13628E-19
 -1      3442 1.28747E-04-4.19730E-05-3.74013E-05-1.04180E-05 5.15314E-19-2.65428E-18
 -1      3443 1.26875E-04-4.54306E-05-3.50129E-05-6.49550E-06 1.00929E-19-2.56233E-18
 -1      3444 5.79587E-05-1.61922E-05-1.77411E-05-1.38285E-05 1.03670E-18 2.04738E-18
 -1      3445 5.77805E-05-1.87043E-05-1.63178E-05-1.94479E-05 1.39955E-18 2.19572E-18
 -1      3446 6.72271E-05-2.28011E-05-1.88621E-05-2.20315E-05 1.73455E-18 4.63062E-19
 -1      3447 1.25123E-04-3.24249E-05-4.00186E-05-1.31442E-05 1.50512E-18-2.49065E-18
 -1      3448 8.88712E-05-1.49875E-05-3.16816E-05-8.56520E-07-7.02308E-20-1.52495E-18
 -1      3449 8.94788E-05-1.56066E-05-3.16767E-05-1.10590E-06-2.27953E-19-1.53053E-18
 -1      3450 8.16456E-05-3.70935E-05-1.86197E-05-3.19647E-05 3.37246E-18 3.22190E-19
 -1      3451 9.62641E-05-4.58254E-05-2.15694E-05-3.06393E-05 3.73171E-18-9.47618E-20
 -1      3452 9.96201E-05-4.42833E-05-2.36365E-05-2.59628E-05 3.20689E-18-2.46857E-19
 -1      3453 8.04731E-05-3.34522E-05-1.99536E-05-2.83946E-05 2.80646E-18-2.98314E-19
 -1      3454 9.03439E-05-1.71317E-05-3.13530E-05-3.74623E-07-3.32875E-19-1.21580E-18
 -1      3455 9.02722E-05-1.64389E-05-3.16613E-05-1.13578E-06-3.76724E-19-1.31348E-18
 -1      3456 9.12067E-05-1.74572E-05-3.16299E-05-1.41258E-06-6.07267E-19-1.18248E-18
 -1      3457 1.18816E-04-3.54517E-05-3.57626E-05-1.21029E-05 3.21528E-19-1.85883E-18
 -1      3458 5.41107E-05-1.33571E-05-1.72670E-05 8.32034E-06-4.69316E-19 3.06435E-18
 -1      3459 5.44225E-05-1.29931E-05-1.76325E-05-2.33302E-06 6.19260E-20 2.15866E-18
 -1      3460 1.40736E-04-5.44172E-05-3.64650E-05-3.87504E-06-2.76874E-19 7.96846E-19
 -1      3461 9.15528E-05-3.79587E-05-2.27928E-05 2.67164E-05 1.23741E-18-1.21324E-18
 -1      3462 9.08378E-05-2.24481E-05-2.93241E-05 7.19626E-06-4.66260E-19-5.98513E-19
 -1      3463 9.03899E-05-2.25259E-05-2.90816E-05 8.17808E-06-3.44521E-19-4.77044E-19
 -1      3464 8.94659E-05-2.24759E-05-2.87320E-05 9.11716E-06-3.89812E-19-3.56708E-19
 -1      3465 8.90244E-05-2.26362E-05-2.84390E-05 1.01255E-05-8.83441E-20-3.88625E-19
 -1      3466 8.83236E-05-2.14040E-05-2.86557E-05 7.77791E-06-2.44739E-19-2.73181E-19
 -1      3467 8.79413E-05-2.26988E-05-2.79924E-05 1.12234E-05 1.09457E-19-5.03732E-19
 -1      3468 8.76806E-05-2.31801E-05-2.76130E-05 1.23664E-05 2.14029E-19-7.92903E-19
 -1      3469 8.63143E-05-2.13371E-05-2.78199E-05 9.69818E-06-1.18263E-19-4.42686E-19
 -1      3470 8.65441E-05-2.35983E-05-2.70159E-05 1.38092E-05 4.97046E-19-9.75590E-19
 -1      3471 8.67772E-05-2.47382E-05-2.65227E-05 1.52181E-05 8.56419E-19-9.39738E-19
 -1      3472 8.40542E-05-2.16360E-05-2.67224E-05 1.21198E-05 3.04665E-19-8.99719E-19
 -1      3473 8.58159E-05-2.58736E-05-2.57140E-05 1.72932E-05 1.01315E-18-1.26495E-18
 -1      3474 8.70647E-05-2.81637E-05-2.51025E-05 1.91111E-05 1.03955E-18-1.21640E-18
 -1      3475 8.18050E-05-2.28851E-05-2.52324E-05 1.55573E-05 8.47915E-19-1.44866E-18
 -1      3476 8.69856E-05-3.03058E-05-2.42782E-05 2.16480E-05 1.26189E-18-1.35705E-18
 -1      3477 9.01215E-05-3.43132E-05-2.36824E-05 2.36155E-05 1.18090E-18-1.42129E-18
 -1      3478 8.13098E-05-3.06567E-05-2.15194E-05 2.60907E-05 1.40674E-18-1.90934E-18
 -1      3479 8.04934E-05-2.55898E-05-2.34589E-05 2.01738E-05 9.77939E-19-1.64615E-18
 -1      3480 8.72967E-05-3.06781E-05-2.41890E-05-2.08589E-05 1.66468E-18-3.91124E-19
 -1      3481 8.52731E-05-2.72149E-05-2.48368E-05-1.86382E-05 9.78991E-19-3.27061E-19
 -1      3482 8.60206E-05-2.57255E-05-2.57489E-05-1.60908E-05 2.88875E-19-1.63414E-19
 -1      3483 8.53209E-05-2.40999E-05-2.62719E-05-1.44815E-05-2.90336E-19-1.28160E-19
 -1      3484 8.00586E-05-2.36012E-05-2.41480E-05-1.70073E-05 5.88198E-19-7.52403E-19
 -1      3485 8.63547E-05-2.34293E-05-2.69210E-05-1.27665E-05-5.01128E-19 4.43179E-19
 -1      3486 8.63892E-05-2.27547E-05-2.73090E-05-1.15419E-05-3.75834E-19 1.17406E-19
 -1      3487 8.19635E-05-2.16663E-05-2.58085E-05-1.28236E-05-3.43694E-20 5.98860E-19
 -1      3488 8.74779E-05-2.26609E-05-2.77562E-05-1.03506E-05-5.01388E-19-3.76794E-19
 -1      3489 8.78286E-05-2.25241E-05-2.80184E-05-9.38671E-06-6.20672E-19-4.39754E-19
 -1      3490 8.41730E-05-2.11795E-05-2.69670E-05-1.00411E-05-6.34146E-19 7.95867E-19
 -1      3491 8.88318E-05-2.27396E-05-2.83145E-05-8.50750E-06 2.56029E-19-6.78642E-19
 -1      3492 8.92759E-05-2.28878E-05-2.84764E-05-7.71448E-06 6.88561E-19 8.96236E-20
 -1      3493 8.62860E-05-2.14695E-05-2.77513E-05-8.11055E-06-2.60412E-19 7.36163E-19
 -1      3494 9.01435E-05-2.32504E-05-2.86631E-05-7.02135E-06 4.51973E-19-7.36447E-20
 -1      3495 9.05733E-05-2.35314E-05-2.87516E-05-6.34677E-06 8.38496E-19 7.85351E-19
 -1      3496 8.81524E-05-2.21499E-05-2.82638E-05-6.66200E-06 7.55634E-19 1.89400E-19
 -1      3497 9.12948E-05-2.39438E-05-2.88615E-05-5.77324E-06 7.17537E-19 3.61345E-19
 -1      3498 9.16661E-05-2.42694E-05-2.88998E-05-5.19091E-06 8.25475E-19 5.32674E-19
 -1      3499 8.97284E-05-2.29917E-05-2.85827E-05-5.49567E-06 1.05576E-18 2.76640E-19
 -1      3500 9.22500E-05-2.46765E-05-2.89574E-05-4.70441E-06 8.52098E-19 3.68131E-19
 -1      3501 9.25509E-05-2.49986E-05-2.89635E-05-4.20200E-06 8.41254E-19 2.73038E-19
 -1      3502 9.10191E-05-2.38611E-05-2.87673E-05-4.51286E-06 1.01376E-18 8.12341E-20
 -1      3503 9.30137E-05-2.53718E-05-2.89869E-05-3.78691E-06 6.77687E-19 4.34279E-19
 -1      3504 9.32480E-05-2.56663E-05-2.89737E-05-3.35770E-06 7.36974E-19 2.19559E-19
 -1      3505 9.20527E-05-2.46831E-05-2.88613E-05-3.66865E-06 9.99301E-19 8.97902E-20
 -1      3506 9.36088E-05-2.59930E-05-2.89756E-05-3.00568E-06 1.43344E-19 4.75133E-19
 -1      3507 9.37863E-05-2.62500E-05-2.89522E-05-2.64424E-06-3.07201E-19 7.45033E-20
 -1      3508 9.28656E-05-2.54206E-05-2.88964E-05-2.94303E-06 4.94645E-20 3.23324E-20
 -1      3509 9.40636E-05-2.65273E-05-2.89416E-05-2.34939E-06 1.11454E-19 3.53328E-19
 -1      3510 9.41951E-05-2.67447E-05-2.89138E-05-2.04987E-06 4.01627E-19 8.20203E-19
 -1      3511 9.34956E-05-2.60591E-05-2.88950E-05-2.32546E-06 1.88817E-19 3.23732E-19
 -1      3512 9.44056E-05-2.69746E-05-2.88966E-05-1.80664E-06-6.42252E-19 4.67830E-19
 -1      3513 9.45015E-05-2.71543E-05-2.88682E-05-1.56251E-06-1.46100E-18-6.15657E-19
 -1      3514 9.39773E-05-2.65975E-05-2.88724E-05-1.80760E-06-4.14370E-19 2.32840E-20
 -1      3515 9.46592E-05-2.73414E-05-2.88483E-05-1.36511E-06-8.77419E-19 1.30129E-19
 -1      3516 9.47281E-05-2.74873E-05-2.88215E-05-1.16936E-06-7.36172E-19 5.71556E-19
 -1      3517 9.43411E-05-2.70423E-05-2.88390E-05-1.38059E-06-9.10116E-19 8.28252E-19
 -1      3518 9.48447E-05-2.76371E-05-2.88013E-05-1.01181E-06-2.09176E-18 1.24774E-18
 -1      3519 9.48934E-05-2.77537E-05-2.87772E-05-8.57370E-07-1.75658E-18 1.18102E-18
 -1      3520 9.46124E-05-2.74035E-05-2.88015E-05-1.03456E-06-9.12523E-19 1.85960E-18
 -1      3521 9.49785E-05-2.78719E-05-2.87583E-05-7.33704E-07-1.25871E-18 4.85717E-19
 -1      3522 9.50123E-05-2.79638E-05-2.87374E-05-6.13805E-07-4.78279E-19 2.09513E-19
 -1      3523 9.48121E-05-2.76921E-05-2.87640E-05-7.58979E-07-1.71130E-18 2.49250E-18
 -1      3524 9.50733E-05-2.80557E-05-2.87204E-05-5.18362E-07 4.21997E-19 8.50681E-20
 -1      3525 9.50963E-05-2.81272E-05-2.87028E-05-4.26786E-07 8.07447E-19-3.10050E-19
 -1      3526 9.49568E-05-2.79196E-05-2.87291E-05-5.43265E-07 3.31561E-20 1.00985E-18
 -1      3527 9.51391E-05-2.81977E-05-2.86880E-05-3.54389E-07 8.11902E-19-6.43677E-19
 -1      3528 9.51543E-05-2.82525E-05-2.86735E-05-2.85631E-07 1.12230E-18-6.25026E-19
 -1      3529 9.50597E-05-2.80962E-05-2.86979E-05-3.77317E-07 7.80283E-19-4.96690E-19
 -1      3530 9.51835E-05-2.83059E-05-2.86610E-05-2.31710E-07 7.27644E-19-1.54790E-18
 -1      3531 9.51932E-05-2.83474E-05-2.86492E-05-1.81042E-07-2.50405E-19-1.36598E-18
 -1      3532 9.51312E-05-2.82315E-05-2.86708E-05-2.51918E-07 4.38312E-19-9.46442E-19
 -1      3533 9.52125E-05-2.83872E-05-2.86387E-05-1.41699E-07-6.25505E-20-1.44524E-18
 -1      3534 9.52182E-05-2.84183E-05-2.86292E-05-1.05184E-07 5.57195E-19-1.40583E-18
 -1      3535 9.51795E-05-2.83337E-05-2.86479E-05-1.58950E-07 3.84440E-19-2.11168E-18
 -1      3536 9.52303E-05-2.84476E-05-2.86206E-05-7.72126E-08 1.09759E-18-1.45424E-18
 -1      3537 9.52334E-05-2.84707E-05-2.86130E-05-5.16314E-08 1.84854E-18-6.59603E-19
 -1      3538 9.52107E-05-2.84100E-05-2.86287E-05-9.15914E-08 1.06923E-18-1.83836E-18
 -1      3539 9.52404E-05-2.84922E-05-2.86060E-05-3.23059E-08 2.03184E-18-1.25487E-18
 -1      3540 9.52418E-05-2.85093E-05-2.85999E-05-1.52545E-08 1.84042E-18-1.36826E-18
 -1      3541 9.52297E-05-2.84663E-05-2.86128E-05-4.41390E-08 1.67921E-18-9.02612E-19
 -1      3542 9.52448E-05-2.85216E-05-2.85953E-05-5.06183E-09 1.26675E-18-1.66663E-18
 -1      3543 9.52454E-05-2.85349E-05-2.85903E-05 5.74321E-09 3.07832E-19-1.75814E-18
 -1      3544 9.52446E-05-2.85304E-05-2.85920E-05 3.05555E-09 1.11834E-18-5.73768E-19
 -1      3545 9.52396E-05-2.85043E-05-2.86010E-05-1.43096E-08 1.50710E-18-1.85195E-18
 -1      3546 1.11454E-04-1.39032E-05-4.20703E-05 1.51523E-06 2.26359E-18 3.33069E-19
 -1      3547 1.13374E-04-1.23671E-05-4.36865E-05-3.09680E-06 2.90892E-18-1.13807E-19
 -1      3548 1.18963E-04-4.30820E-05-3.25437E-05 6.10276E-06-1.10892E-19 1.44782E-18
 -1      3549 1.18403E-04-4.47766E-05-3.15724E-05 3.25911E-06-4.08991E-19 1.50577E-18
 -1      3550 1.15631E-04-4.45726E-05-3.04995E-05-2.38416E-07-4.47124E-19 1.57017E-18
 -1      3551 1.13758E-04-4.39067E-05-2.98639E-05-2.83417E-06-6.13010E-19 1.69160E-18
 -1      3552 1.18489E-04-4.67453E-05-3.07243E-05-1.05884E-06-3.40980E-19 1.13404E-18
 -1      3553 1.14212E-04-2.19014E-05-3.97163E-05 1.10573E-05 1.63827E-18 1.50639E-18
 -1      3554 1.16616E-04-2.78478E-05-3.83987E-05 1.25525E-05 1.76164E-18 1.63266E-18
 -1      3555 1.20209E-04-4.01978E-05-3.44617E-05-1.01675E-05 9.80024E-19-1.64013E-18
 -1      3556 1.18371E-04-4.63402E-05-3.08031E-05-1.85589E-07-8.32911E-19-2.36057E-19
 -1      3557 1.19839E-04-4.53611E-05-3.19168E-05-3.25880E-06 1.21139E-19-8.59183E-19
 -1      3558 1.07612E-04-3.97334E-05-2.90161E-05 5.97481E-06-6.20634E-19 1.27045E-18
 -1      3559 1.09948E-04-4.14194E-05-2.93389E-05 4.21363E-06-7.17291E-19 9.05970E-19
 -1      3560 1.02939E-04-3.57650E-05-2.87288E-05 7.54999E-06-1.34848E-19 1.24755E-18
 -1      3561 1.04866E-04-3.75788E-05-2.88391E-05 6.74531E-06-2.08933E-19 1.22622E-18
 -1      3562 1.05065E-04-3.88654E-05-2.84048E-05 8.61511E-06-4.39256E-19 3.03605E-19
 -1      3563 9.94977E-05-3.24328E-05-2.87055E-05 7.93068E-06-3.99972E-19 8.07517E-19
 -1      3564 1.00975E-04-3.39610E-05-2.87192E-05 7.70114E-06-1.56668E-19 1.17851E-18
 -1      3565 1.00527E-04-3.47583E-05-2.82562E-05 9.27758E-06-9.61647E-20 4.46769E-19
 -1      3566 9.72302E-05-3.00220E-05-2.87833E-05 7.56749E-06-4.86624E-19 1.55235E-19
 -1      3567 9.82583E-05-3.11223E-05-2.87630E-05 7.66481E-06-4.51200E-19 7.64376E-19
 -1      3568 9.73859E-05-3.13554E-05-2.83433E-05 8.85417E-06-5.88001E-20 4.74931E-19
 -1      3569 9.58437E-05-2.84389E-05-2.88783E-05 6.84954E-06-5.69755E-19 6.84285E-19
 -1      3570 9.65103E-05-2.91584E-05-2.88546E-05 7.13013E-06-6.36482E-19 4.14985E-19
 -1      3571 9.54898E-05-2.90472E-05-2.85025E-05 7.98653E-06-8.94075E-19 3.82679E-19
 -1      3572 9.50718E-05-2.75087E-05-2.89528E-05 5.98158E-06-4.39169E-19 2.90069E-19
 -1      3573 9.54788E-05-2.79308E-05-2.89394E-05 6.35189E-06-2.36092E-19 7.56293E-19
 -1      3574 9.44490E-05-2.76116E-05-2.86598E-05 6.95441E-06-3.75637E-19 8.17560E-19
 -1      3575 9.46992E-05-2.70480E-05-2.89946E-05 5.08356E-06-6.81794E-20-7.67355E-19
 -1      3576 9.49323E-05-2.72578E-05-2.89949E-05 5.48449E-06-4.52852E-19-3.96210E-19
 -1      3577 9.39734E-05-2.68316E-05-2.87828E-05 5.90847E-06 2.44826E-20 3.53447E-19
 -1      3578 9.45696E-05-2.69002E-05-2.90045E-05 4.22341E-06-5.28820E-19-1.81795E-18
 -1      3579 9.46926E-05-2.69693E-05-2.90171E-05 4.61819E-06 3.08648E-19-9.98030E-19
 -1      3580 9.38445E-05-2.65052E-05-2.88629E-05 4.92171E-06 2.09242E-19-7.60805E-19
 -1      3581 9.45766E-05-2.69453E-05-2.89890E-05 3.43822E-06-1.05726E-18-1.87949E-18
 -1      3582 9.46335E-05-2.69281E-05-2.90105E-05 3.80498E-06-1.35572E-18-2.43889E-18
 -1      3583 9.39114E-05-2.64713E-05-2.89036E-05 4.02853E-06-2.06600E-19-1.13137E-18
 -1      3584 9.46517E-05-2.70974E-05-2.89562E-05 2.74601E-06-4.02572E-19-2.03098E-18
 -1      3585 9.46715E-05-2.70324E-05-2.89829E-05 3.07295E-06-7.58090E-19-2.38128E-18
 -1      3586 9.40752E-05-2.66103E-05-2.89129E-05 3.24295E-06-9.55696E-19-1.79272E-18
 -1      3587 9.47534E-05-2.72985E-05-2.89133E-05 2.15257E-06 2.35395E-20-8.48798E-19
 -1      3588 9.47538E-05-2.72116E-05-2.89422E-05 2.43476E-06 1.33856E-19-1.49041E-18
 -1      3589 9.42744E-05-2.68387E-05-2.88999E-05 2.56780E-06-4.27882E-19-2.02538E-18
 -1      3590 9.48578E-05-2.75117E-05-2.88662E-05 1.65584E-06 1.05575E-19-3.58752E-19
 -1      3591 9.48496E-05-2.74193E-05-2.88949E-05 1.89295E-06-1.50974E-19-7.10191E-19
 -1      3592 9.44735E-05-2.71012E-05-2.88726E-05 1.99931E-06-6.83315E-19-1.00056E-19
 -1      3593 9.49527E-05-2.77151E-05-2.88192E-05 1.24887E-06 1.16978E-18 8.01298E-20
 -1      3594 9.49417E-05-2.76269E-05-2.88460E-05 1.44348E-06 1.14918E-18-2.91221E-19
 -1      3595 9.46536E-05-2.73632E-05-2.88376E-05 1.52961E-06 2.28345E-19 5.47524E-19
 -1      3596 9.50328E-05-2.78971E-05-2.87750E-05 9.21956E-07 1.47461E-18 1.17499E-18
 -1      3597 9.50221E-05-2.78181E-05-2.87990E-05 1.07834E-06 1.02016E-18 4.64118E-19
 -1      3598 9.48066E-05-2.76049E-05-2.87998E-05 1.14843E-06 8.93025E-19 1.42831E-18
 -1      3599 9.50969E-05-2.80527E-05-2.87353E-05 6.64226E-07 1.41170E-18 1.48655E-18
 -1      3600 9.50878E-05-2.79851E-05-2.87561E-05 7.87426E-07 1.56815E-18 1.32525E-18
 -1      3601 9.49306E-05-2.78166E-05-2.87624E-05 8.44417E-07 1.46290E-18 1.64981E-18
 -1      3602 9.51459E-05-2.81813E-05-2.87007E-05 4.64720E-07 1.53603E-18 1.88852E-18
 -1      3603 9.51389E-05-2.81254E-05-2.87183E-05 5.59936E-07 1.52556E-18 2.26053E-18
 -1      3604 9.50274E-05-2.79951E-05-2.87276E-05 6.06055E-07 1.13503E-18 8.92010E-19
 -1      3605 9.51819E-05-2.82846E-05-2.86715E-05 3.13103E-07 1.23944E-18 1.70145E-18
 -1      3606 9.51769E-05-2.82397E-05-2.86860E-05 3.85291E-07 2.17047E-18 2.32850E-18
 -1      3607 9.51003E-05-2.81410E-05-2.86965E-05 4.22335E-07 1.31339E-18 2.47732E-18
 -1      3608 9.52072E-05-2.83656E-05-2.86473E-05 2.00097E-07 2.17573E-20 1.22704E-18
 -1      3609 9.52040E-05-2.83304E-05-2.86590E-05 2.53726E-07 4.92759E-19 1.62088E-18
 -1      3610 9.51533E-05-2.82571E-05-2.86695E-05 2.83210E-07 9.97539E-19 3.08804E-18
 -1      3611 9.52241E-05-2.84279E-05-2.86276E-05 1.17659E-07 4.98797E-19 8.19306E-20
 -1      3612 9.52222E-05-2.84008E-05-2.86369E-05 1.56610E-07 4.04709E-19 1.03243E-19
 -1      3613 9.51903E-05-2.83476E-05-2.86467E-05 1.79854E-07 9.21877E-19 2.03241E-18
 -1      3614 9.52347E-05-2.84751E-05-2.86117E-05 5.90697E-08 7.30718E-19 1.21560E-18
 -1      3615 9.52338E-05-2.84544E-05-2.86191E-05 8.65438E-08 8.63430E-19 4.92453E-19
 -1      3616 9.52150E-05-2.84167E-05-2.86278E-05 1.04664E-07 2.30344E-19 6.94874E-19
 -1      3617 9.52409E-05-2.85107E-05-2.85990E-05 1.91112E-08 1.14699E-18 7.86666E-19
 -1      3618 9.52406E-05-2.84950E-05-2.86048E-05 3.74407E-08 6.03636E-19 1.35612E-18
 -1      3619 9.52306E-05-2.84689E-05-2.86122E-05 5.13081E-08 4.81243E-19 1.73712E-18
 -1      3620 9.52439E-05-2.85373E-05-2.85887E-05-7.06381E-09 2.38964E-18 1.50659E-19
 -1      3621 9.52437E-05-2.85252E-05-2.85933E-05 4.71188E-09 1.95014E-18 1.13705E-18
 -1      3622 9.52395E-05-2.85074E-05-2.85994E-05 1.53619E-08 1.50594E-18 1.51109E-18
 -1      3623 9.52465E-05-2.85580E-05-2.85809E-05-1.94418E-08 5.94653E-19 2.14676E-18
 -1      3624 9.52456E-05-2.85601E-05-2.85795E-05-2.23972E-08-1.43863E-19 1.16743E-18
 -1      3625 9.52453E-05-2.85548E-05-2.85817E-05-1.98935E-08 2.63503E-19 6.44120E-19
 -1      3626 9.52451E-05-2.85452E-05-2.85857E-05-1.34214E-08 1.08606E-18 2.50878E-18
 -1      3627 6.45063E-05-2.08148E-05-1.86986E-05 2.08645E-05-1.16751E-18 2.17484E-18
 -1      3628 5.74628E-05-1.57685E-05-1.76092E-05 1.46053E-05-4.39208E-19 2.83634E-18
 -1      3629 6.14331E-05-1.54236E-05-1.95002E-05 9.35729E-06-7.75399E-20 3.02801E-18
 -1      3630 9.55872E-05-2.61140E-05-2.97738E-05-5.42203E-06 1.84568E-19-5.72504E-20
 -1      3631 9.53368E-05-2.54447E-05-2.99445E-05-4.56687E-06 3.49412E-19 2.21728E-20
 -1      3632 9.34166E-05-2.03062E-05-3.13467E-05-8.86838E-07-8.74803E-19-8.92919E-19
 -1      3633 9.31140E-05-3.73318E-05-2.36126E-05-2.44773E-05 2.72740E-18 2.34231E-19
 -1      3634 8.81729E-05-1.42829E-05-3.16815E-05-5.81262E-07-5.69582E-20-1.71986E-18
 -1      3635 8.84321E-05-1.45433E-05-3.16831E-05-8.29701E-07-1.23032E-19-1.65169E-18
 -1      3636 8.91265E-05-1.58730E-05-3.13685E-05-4.47496E-07-9.60365E-20-1.49786E-18
 -1      3637 5.36052E-05-1.39783E-05-1.67376E-05-8.52550E-06-1.10543E-18-2.83878E-18
 -1      3638 5.91913E-05-1.81727E-05-1.74064E-05-1.79260E-05-1.43910E-18-1.95358E-18
 -1      3639 9.25499E-05-2.16830E-05-3.03776E-05 3.14673E-06-5.89507E-19-7.52912E-19
 -1      3640 9.23584E-05-2.20650E-05-3.01317E-05 4.29801E-06-4.22777E-19-7.56551E-19
 -1      3641 9.52331E-05-2.85054E-05-2.85977E-05-1.72053E-09 2.71024E-18 9.02024E-19
 -1      3642 9.52322E-05-2.85040E-05-2.85980E-05-1.94032E-09 2.28123E-18 1.41826E-18
 -1      3643 1.19661E-04-3.40907E-05-3.67591E-05 1.21349E-05 1.35081E-18 1.47159E-18
 -1      3644 1.21213E-04-3.94901E-05-3.51888E-05 1.03531E-05 4.05802E-19 1.54566E-18
 -1      3645 7.35412E-05-2.66621E-05-1.99777E-05 2.42801E-05 1.35918E-18-1.93113E-18
 -1      3646 6.11988E-05-1.91911E-05-1.75252E-05 1.99366E-05 8.66700E-19-2.96917E-18
 -1      3647 6.09845E-05-1.72272E-05-1.86794E-05 1.40481E-05 5.94763E-19-2.65029E-18
 -1      3648 7.28417E-05-2.37620E-05-2.11180E-05 2.10034E-05 1.06075E-18-1.84846E-18
 -1      3649 1.01725E-04-3.45206E-05-2.88004E-05-8.68945E-06-3.36150E-19 2.53805E-19
 -1      3650 1.00239E-04-3.29027E-05-2.88172E-05-8.94057E-06-2.58357E-19 1.34968E-19
 -1      3651 9.19060E-05-2.22784E-05-2.98492E-05 5.25168E-06-3.75743E-19-7.08674E-19
 -1      3652 9.15484E-05-2.24390E-05-2.96216E-05 6.28813E-06-4.85766E-19-6.75826E-19
 -1      3653 8.99469E-05-2.14522E-05-2.93340E-05 6.02280E-06-3.65756E-19-5.58730E-19
 -1      3654 1.10272E-04-4.85711E-05-2.65424E-05 1.83354E-05-1.54660E-18-1.67200E-18
 -1      3655 1.03130E-04-4.45978E-05-2.49635E-05 2.20757E-05-1.31916E-18-7.78185E-19
 -1      3656 1.10503E-04-4.21070E-05-2.93483E-05-4.98986E-06-6.23400E-19 1.58917E-18
 -1      3657 1.08347E-04-4.03836E-05-2.90444E-05-6.66947E-06-2.97653E-19 1.36354E-18
 -1      3658 1.12114E-04-4.42115E-05-2.91500E-05-6.60327E-06-5.62852E-19 1.19115E-18
 -1      3659 9.39050E-05-2.17810E-05-3.09196E-05-5.71311E-07 9.24713E-19-3.91586E-19
 -1      3660 9.29283E-05-2.06393E-05-3.09888E-05-6.95676E-07 7.55366E-19-4.66650E-19
 -1      3661 9.83429E-05-3.18294E-05-2.85549E-05-9.82224E-06-3.65138E-19-2.62167E-19
 -1      3662 9.89975E-05-3.14773E-05-2.89291E-05-8.66842E-06-1.55029E-19-1.26154E-19
 -1      3663 9.79701E-05-3.02347E-05-2.90040E-05-8.52316E-06-3.21980E-19-2.48009E-21
 -1      3664 9.52396E-05-2.85096E-05-2.85982E-05-6.29252E-09 1.54000E-18-3.13413E-19
 -1      3665 9.52416E-05-2.85228E-05-2.85938E-05 9.35634E-10 1.58651E-18 1.07345E-19
 -1      3666 9.52395E-05-2.85179E-05-2.85952E-05-1.24845E-09 1.89176E-18 6.03193E-19
 -1      3667 8.34714E-05-3.13622E-05-2.23055E-05-2.40365E-05 2.61329E-18-1.03672E-18
 -1      3668 9.27281E-05-2.08506E-05-3.08171E-05 1.38322E-06-5.71154E-19-8.55159E-19
 -1      3669 9.27077E-05-2.13121E-05-3.06035E-05 2.37629E-06-6.44420E-19-8.00223E-19
 -1      3670 9.16862E-05-2.05722E-05-3.04642E-05 2.54771E-06-5.52425E-19-6.77962E-19
 -1      3671 9.00441E-05-1.75993E-05-3.10601E-05 2.95647E-07-2.23051E-19-1.09065E-18
 -1      3672 9.08221E-05-1.84144E-05-3.10467E-05 3.88349E-07-4.48355E-19-9.89935E-19
 -1      3673 9.25334E-05-1.92551E-05-3.14136E-05-8.10697E-07-7.13622E-19-9.93800E-19
 -1      3674 1.14160E-04-4.87032E-05-2.79932E-05 1.25302E-05-1.36537E-18-1.60915E-18
 -1      3675 9.12433E-05-1.80964E-05-3.13277E-05 2.77244E-08 7.13695E-19-6.30023E-19
 -1      3676 1.11063E-04-1.76110E-05-4.03917E-05 7.34082E-06 1.60894E-18 1.20925E-18
 -1      3677 1.10016E-04-1.49946E-05-4.08807E-05 2.70666E-06 1.60052E-18 8.37737E-19
 -1      3678 1.14120E-04-4.39231E-05-3.00467E-05 1.44762E-06-7.61066E-19 1.52426E-19
 -1      3679 1.15869E-04-4.79509E-05-2.92455E-05 7.13031E-06-1.39754E-18-5.06539E-19
 -1      3680 1.09199E-04-4.48148E-05-2.75638E-05 1.26013E-05-1.27696E-18-1.30740E-18
 -1      3681 1.11828E-04-4.28631E-05-2.94466E-05 4.00118E-06-8.85580E-19 7.24041E-19
 -1      3682 1.09591E-04-4.29576E-05-2.86548E-05 7.91998E-06-1.01439E-18 5.18133E-19
 -1      3683 9.52437E-05-2.85323E-05-2.85907E-05-4.52889E-09 1.68739E-18 2.16181E-18
 -1      3684 9.52444E-05-2.85377E-05-2.85886E-05-8.06167E-09 1.38221E-18 2.00823E-18
 -1      3685 9.52452E-05-2.85491E-05-2.85839E-05-1.56017E-08 1.73252E-18 6.26865E-19
 -1      3686 7.29151E-05-2.49162E-05-2.03129E-05 2.30000E-05-1.57710E-18 2.63335E-18
 -1      3687 7.12922E-05-2.14693E-05-2.12577E-05 1.78865E-05-5.97244E-19 1.61390E-18
 -1      3688 8.14377E-05-2.95888E-05-2.23555E-05 2.27751E-05-1.81725E-18 2.90936E-18
 -1      3689 8.86303E-05-1.53772E-05-3.13684E-05-4.94900E-07-3.84636E-20-1.56997E-18
 -1      3690 9.52319E-05-2.85037E-05-2.85979E-05-1.36893E-10 2.43466E-18 5.44544E-19
 -1      3691 9.52324E-05-2.85049E-05-2.85977E-05-2.39784E-10 2.57142E-18-2.11890E-18
 -1      3692 9.52259E-05-2.84834E-05-2.86036E-05-1.37838E-09 3.84824E-18 8.98568E-19
 -1      3693 1.09514E-04-1.79737E-05-3.93065E-05-6.49980E-06 2.13849E-18-3.74574E-19
 -1      3694 9.58026E-05-2.67671E-05-2.95745E-05-6.24285E-06 5.75335E-21 8.71238E-21
 -1      3695 9.47995E-05-2.57062E-05-2.96207E-05-5.91206E-06 1.03502E-19-2.45928E-19
 -1      3696 9.62042E-05-2.74974E-05-2.94403E-05-6.88737E-06-1.56797E-19 2.72329E-19
 -1      3697 9.03634E-05-1.79227E-05-3.10534E-05-8.21208E-07 5.20937E-19-8.56728E-19
 -1      3698 8.97273E-05-1.72953E-05-3.10590E-05-8.99306E-07 3.66819E-19-1.09016E-18
 -1      3699 9.52369E-05-2.85124E-05-2.85963E-05-1.56720E-09 3.27798E-18 9.33627E-19
 -1      3700 9.52349E-05-2.85089E-05-2.85971E-05-2.55897E-09 3.02648E-18 6.81018E-19
 -1      3701 9.52284E-05-2.84875E-05-2.86029E-05-5.34523E-09 3.34665E-18 1.70678E-18
 -1      3702 9.52332E-05-2.84964E-05-2.86012E-05-7.22388E-09 3.28452E-18-2.33265E-19
 -1      3703 8.62850E-05-3.78936E-05-2.04329E-05-3.14137E-05-2.57104E-18-8.55450E-19
 -1      3704 9.35653E-05-4.14438E-05-2.22635E-05-2.87354E-05-2.47207E-18-3.59949E-19
 -1      3705 8.00708E-05-3.26687E-05-2.02676E-05-2.86962E-05-2.06970E-18-7.81811E-19
 -1      3706 1.12967E-04-5.31318E-05-2.54724E-05-2.40412E-05-2.14458E-18 8.77886E-19
 -1      3707 1.17116E-04-5.35835E-05-2.73518E-05-1.81490E-05-1.50760E-18 9.23914E-19
 -1      3708 1.06127E-04-4.85333E-05-2.46235E-05-2.51066E-05-2.24390E-18 3.25413E-19
 -1      3709 6.12252E-05-1.40652E-05-2.01213E-05-2.08503E-06 4.02572E-19 1.61209E-18
 -1      3710 5.81749E-05-1.40038E-05-1.86324E-05-7.41132E-06 3.53527E-19 2.03219E-18
 -1      3711 6.39486E-05-1.67293E-05-2.01477E-05-1.17856E-05 7.01926E-19 1.34959E-18
 -1      3712 1.01111E-04-4.10175E-05-2.56555E-05 1.87369E-05-1.69484E-18-1.54977E-18
 -1      3713 9.76152E-05-4.09015E-05-2.42674E-05 2.35464E-05-1.39483E-18-3.98926E-19
 -1      3714 9.13772E-05-3.58756E-05-2.36423E-05 2.30951E-05-1.85820E-18 9.15060E-19
 -1      3715 1.03665E-04-3.63633E-05-2.87807E-05-8.49629E-06-4.27200E-19 6.61167E-19
 -1      3716 1.01457E-04-3.54130E-05-2.83803E-05-1.01908E-05-4.93108E-19-4.05740E-20
 -1      3717 1.05600E-04-3.82433E-05-2.88779E-05-7.66885E-06-4.12876E-19 9.11357E-19
 -1      3718 5.50861E-05-1.33550E-05-1.75539E-05-2.78517E-06-4.79229E-19-2.62125E-18
 -1      3719 6.03074E-05-1.50187E-05-1.92975E-05-6.64327E-06-5.05414E-19-2.24670E-18
 -1      3720 5.80289E-05-1.39302E-05-1.88128E-05 3.26652E-06 1.31184E-19-2.08066E-18
 -1      3721 9.11003E-05-2.12045E-05-2.99385E-05 4.23157E-06-4.61707E-19-4.56755E-19
 -1      3722 6.39400E-05-2.07272E-05-1.81673E-05-2.11070E-05-1.61955E-18-1.51542E-18
 -1      3723 6.98703E-05-2.45273E-05-1.93236E-05-2.35756E-05-1.54348E-18-1.05159E-18
 -1      3724 6.36563E-05-1.84551E-05-1.92564E-05-1.58797E-05-1.17521E-18-1.77506E-18
 -1      3725 9.52735E-05-2.49373E-05-3.01453E-05-3.72858E-06 5.50552E-19 8.32325E-21
 -1      3726 9.51720E-05-2.44056E-05-3.03270E-05-2.79702E-06 7.71492E-19-1.38499E-19
 -1      3727 9.45529E-05-2.44646E-05-3.00417E-05-4.20440E-06 3.69432E-19-6.07408E-20
 -1      3728 8.94287E-05-1.69878E-05-3.10577E-05-3.69120E-08-5.57553E-20-1.44063E-18
 -1      3729 8.98556E-05-1.80621E-05-3.07538E-05 6.67214E-07-1.64199E-19-1.05429E-18
 -1      3730 8.90000E-05-1.65611E-05-3.10584E-05-1.16570E-07-3.66259E-20-1.64077E-18
 -1      3731 9.52405E-05-2.85222E-05-2.85935E-05-1.54859E-09 7.92438E-19 3.28632E-18
 -1      3732 9.52391E-05-2.85137E-05-2.85967E-05 4.06311E-09 1.26102E-18 2.16251E-18
 -1      3733 8.97589E-05-1.79556E-05-3.07512E-05-1.26573E-06 2.46822E-19-1.09295E-18
 -1      3734 8.92118E-05-1.67660E-05-3.10560E-05-7.46248E-07 3.06796E-19-1.24642E-18
 -1      3735 8.88879E-05-1.64633E-05-3.10558E-05-7.45126E-07 1.51743E-19-1.43683E-18
 -1      3736 1.23656E-04-4.33162E-05-3.44333E-05-8.22443E-06 4.17653E-19-2.08206E-18
 -1      3737 1.25679E-04-4.77506E-05-3.33141E-05-4.07619E-06-2.08979E-19-2.09921E-18
 -1      3738 1.24297E-04-4.40281E-05-3.44832E-05 6.92488E-06 2.77708E-19 9.99817E-19
 -1      3739 9.52387E-05-2.85179E-05-2.85949E-05 1.55826E-10 1.12318E-18 1.04941E-18
 -1      3740 1.27244E-04-5.45198E-05-3.12927E-05-6.71387E-06-9.54659E-19 1.26177E-18
 -1      3741 1.26065E-04-5.01654E-05-3.25788E-05 1.51849E-07-2.47708E-19 1.47378E-18
 -1      3742 8.74100E-05-2.06104E-05-2.86525E-05 6.03443E-06-2.89996E-19-5.42066E-19
 -1      3743 8.64695E-05-2.05245E-05-2.82679E-05 6.84474E-06-2.97952E-19-6.23804E-19
 -1      3744 9.49602E-05-2.31951E-05-3.07540E-05-8.63516E-07 1.00086E-18-2.58428E-19
 -1      3745 9.48137E-05-2.35387E-05-3.05386E-05-1.96295E-06 8.87888E-19-2.21010E-19
 -1      3746 8.49847E-05-2.02940E-05-2.77628E-05 7.53439E-06-2.48366E-19-7.30506E-19
 -1      3747 8.38612E-05-2.02226E-05-2.72714E-05 8.46317E-06 2.30866E-20-7.35868E-19
 -1      3748 8.43896E-05-1.94804E-05-2.77731E-05 5.68472E-06-3.30192E-19-8.02660E-19
 -1      3749 8.19474E-05-2.00304E-05-2.65972E-05 9.37598E-06 1.40908E-19-9.98515E-19
 -1      3750 8.07334E-05-2.01911E-05-2.59369E-05 1.05927E-05 3.30763E-19-1.06620E-18
 -1      3751 8.10580E-05-1.88844E-05-2.65655E-05 7.06723E-06-1.22858E-19-1.12995E-18
 -1      3752 7.81622E-05-2.00257E-05-2.49908E-05 1.19973E-05 4.54919E-19-1.37887E-18
 -1      3753 7.69541E-05-2.07207E-05-2.40571E-05 1.39853E-05 5.39864E-19-1.82258E-18
 -1      3754 7.65822E-05-1.82432E-05-2.49012E-05 9.15082E-06 1.04341E-19-1.62190E-18
 -1      3755 7.51707E-05-2.12179E-05-2.31913E-05 1.58285E-05 9.56664E-19-1.83755E-18
 -1      3756 7.47823E-05-2.26638E-05-2.22362E-05 1.83171E-05 1.15914E-18-1.90688E-18
 -1      3757 6.87545E-05-1.91769E-05-2.09656E-05 1.60039E-05 1.00906E-18-1.99145E-18
 -1      3758 7.21697E-05-1.82930E-05-2.30276E-05 1.20094E-05 6.14297E-19-2.08350E-18
 -1      3759 7.42334E-05-2.10517E-05-2.26992E-05-1.54903E-05 1.33520E-18-2.73605E-19
 -1      3760 7.51100E-05-1.98679E-05-2.37455E-05-1.31070E-05 6.22483E-19-7.93663E-20
 -1      3761 9.74834E-05-3.26585E-05-2.77352E-05 1.07480E-05-2.08732E-19 5.18195E-19
 -1      3762 9.93519E-05-3.47811E-05-2.76898E-05 1.10409E-05-1.04255E-19 1.09544E-20
 -1      3763 9.24088E-05-1.97291E-05-3.11324E-05 2.84594E-07-6.16463E-19-9.70773E-19
 -1      3764 7.78568E-05-1.98201E-05-2.48398E-05-1.13124E-05 2.56158E-19 2.41205E-19
 -1      3765 7.90316E-05-1.95351E-05-2.55637E-05-9.79237E-06 6.73507E-20 6.48916E-19
 -1      3766 7.27852E-05-1.76164E-05-2.35738E-05-9.54507E-06 8.32623E-19 5.43673E-20
 -1      3767 8.11641E-05-1.98092E-05-2.62890E-05-8.73681E-06 9.20371E-20 9.02075E-19
 -1      3768 8.23241E-05-1.99382E-05-2.67844E-05-7.73072E-06 2.53266E-20 1.37184E-18
 -1      3769 7.76916E-05-1.82450E-05-2.54337E-05-7.16151E-06 3.67245E-19 5.99229E-19
 -1      3770 8.40039E-05-2.03802E-05-2.72691E-05-7.04722E-06-4.92490E-19 2.06199E-18
 -1      3771 8.50424E-05-2.07197E-05-2.75994E-05-6.32416E-06-4.36274E-19 2.01002E-18
 -1      3772 8.14713E-05-1.91700E-05-2.66689E-05-5.73995E-06 1.79523E-19 1.61283E-18
 -1      3773 8.63787E-05-2.12400E-05-2.79209E-05-5.83127E-06 8.77697E-20 1.54658E-18
 -1      3774 8.72646E-05-2.16741E-05-2.81334E-05-5.26354E-06 6.87485E-19 1.13900E-18
 -1      3775 8.44533E-05-2.02455E-05-2.74938E-05-4.78762E-06-6.18411E-19 2.12733E-18
 -1      3776 8.83331E-05-2.22130E-05-2.83417E-05-4.86848E-06 3.10592E-19 1.49364E-18
 -1      3777 8.90651E-05-2.26719E-05-2.84713E-05-4.39241E-06 6.47760E-19 7.90460E-19
 -1      3778 8.68274E-05-2.13618E-05-2.80384E-05-4.06227E-06 3.23284E-19 2.85814E-18
 -1      3779 8.99187E-05-2.31911E-05-2.86013E-05-4.05344E-06 1.08894E-18 5.78997E-19
 -1      3780 9.05096E-05-2.36339E-05-2.86741E-05-3.64085E-06 1.17194E-18 1.11421E-18
 -1      3781 8.87254E-05-2.24523E-05-2.83887E-05-3.44731E-06 7.47113E-19 1.74064E-18
 -1      3782 9.11885E-05-2.41105E-05-2.87504E-05-3.34141E-06 7.66419E-19 3.99276E-19
 -1      3783 9.16568E-05-2.45150E-05-2.87853E-05-2.98125E-06 9.07373E-19 5.40459E-19
 -1      3784 9.02401E-05-2.34706E-05-2.86046E-05-2.89685E-06 7.52023E-19 1.33634E-18
 -1      3785 9.21926E-05-2.49374E-05-2.88254E-05-2.71638E-06 8.53081E-19 1.14643E-19
 -1      3786 9.25581E-05-2.52933E-05-2.88360E-05-2.40445E-06-5.41506E-20 1.12029E-19
 -1      3787 9.14423E-05-2.43894E-05-2.87286E-05-2.39783E-06 6.98529E-19-1.70831E-19
 -1      3788 9.29773E-05-2.56574E-05-2.88523E-05-2.17315E-06-2.03599E-19 6.25048E-19
 -1      3789 9.32588E-05-2.59621E-05-2.88480E-05-1.90702E-06 3.14144E-19 4.03284E-19
 -1      3790 9.23891E-05-2.51953E-05-2.87909E-05-1.95012E-06 3.30370E-19 3.19825E-19
 -1      3791 9.35835E-05-2.62691E-05-2.88494E-05-1.70882E-06 3.13842E-19 6.44836E-19
 -1      3792 9.37976E-05-2.65242E-05-2.88367E-05-1.48580E-06-3.50696E-19 7.49571E-19
 -1      3793 9.31278E-05-2.58858E-05-2.88131E-05-1.55648E-06 1.24005E-19 1.62515E-18
 -1      3794 9.40464E-05-2.67781E-05-2.88292E-05-1.31945E-06-3.64469E-19 1.24078E-18
 -1      3795 9.42073E-05-2.69878E-05-2.88125E-05-1.13601E-06-1.76669E-19 2.04679E-18
 -1      3796 9.36982E-05-2.64656E-05-2.88103E-05-1.21831E-06 2.23025E-19 2.28659E-18
 -1      3797 9.43955E-05-2.71943E-05-2.88002E-05-9.99274E-07-5.83641E-19 2.56725E-18
 -1      3798 9.45149E-05-2.73639E-05-2.87822E-05-8.51137E-07-1.49211E-18 2.83260E-18
 -1      3799 9.41336E-05-2.69437E-05-2.87929E-05-9.34498E-07-2.10398E-19 2.57941E-18
 -1      3800 9.46554E-05-2.75293E-05-2.87680E-05-7.41010E-07-2.35633E-18 3.23101E-18
 -1      3801 9.47428E-05-2.76644E-05-2.87504E-05-6.23519E-07-9.35850E-19 3.37513E-18
 -1      3802 9.44619E-05-2.73316E-05-2.87681E-05-7.01560E-07-1.30825E-18 3.44152E-18
 -1      3803 9.48461E-05-2.77948E-05-2.87358E-05-5.36550E-07-7.20591E-19 2.03050E-18
 -1      3804 9.49090E-05-2.79009E-05-2.87196E-05-4.45007E-07-6.33926E-19 1.24089E-18
 -1      3805 9.47057E-05-2.76415E-05-2.87403E-05-5.14390E-07-1.56540E-18 3.65994E-18
 -1      3806 9.49835E-05-2.80022E-05-2.87059E-05-3.77644E-07 2.16406E-19 2.68820E-19
 -1      3807 9.50278E-05-2.80843E-05-2.86915E-05-3.07581E-07 3.87703E-19-9.52841E-19
 -1      3808 9.48840E-05-2.78852E-05-2.87127E-05-3.67021E-07-9.27524E-19-5.27498E-19
 -1      3809 9.50804E-05-2.81619E-05-2.86790E-05-2.56406E-07 1.50159E-19-3.87586E-19
 -1      3810 9.51109E-05-2.82245E-05-2.86666E-05-2.03773E-07 2.61437E-19-8.28877E-19
 -1      3811 9.50117E-05-2.80741E-05-2.86868E-05-2.53269E-07 1.55866E-19-4.47939E-19
 -1      3812 9.51469E-05-2.82831E-05-2.86556E-05-1.65683E-07 3.11516E-20-8.31640E-19
 -1      3813 9.51671E-05-2.83302E-05-2.86452E-05-1.26917E-07 7.93054E-19-5.58659E-19
 -1      3814 9.51010E-05-2.82184E-05-2.86634E-05-1.67231E-07 2.30899E-19 6.56750E-19
 -1      3815 9.51911E-05-2.83739E-05-2.86357E-05-9.92052E-08 1.03840E-18-1.37655E-18
 -1      3816 9.52038E-05-2.84090E-05-2.86269E-05-7.14731E-08 1.42545E-18-8.57242E-19
 -1      3817 9.51615E-05-2.83270E-05-2.86430E-05-1.03417E-07 4.07658E-19 1.67424E-19
 -1      3818 9.52188E-05-2.84410E-05-2.86188E-05-5.18363E-08 1.89708E-18-7.50713E-19
 -1      3819 9.52262E-05-2.84666E-05-2.86116E-05-3.27894E-08 1.51785E-18-1.06107E-18
 -1      3820 9.52008E-05-2.84079E-05-2.86253E-05-5.75593E-08 1.49356E-18-7.52043E-19
 -1      3821 9.52321E-05-2.84814E-05-2.86072E-05-2.35043E-08 1.47555E-18-1.23804E-18
 -1      3822 9.52355E-05-2.84970E-05-2.86023E-05-1.28716E-08 1.30281E-18-9.01954E-19
 -1      3823 9.52316E-05-2.84892E-05-2.86041E-05-1.36047E-08 2.48529E-18-3.29801E-19
 -1      3824 9.52212E-05-2.84578E-05-2.86128E-05-2.94183E-08 1.50761E-18-6.97206E-19
 -1      3825 9.52357E-05-2.85108E-05-2.85964E-05 7.80588E-10 1.68750E-18-2.13386E-19
 -1      3826 9.52336E-05-2.84967E-05-2.86010E-05 6.87893E-09 6.07130E-19 1.38323E-18
 -1      3827 9.52339E-05-2.85074E-05-2.85972E-05 1.39444E-09 1.85373E-18-5.51697E-19
 -1      3828 9.20020E-05-1.96383E-05-3.10216E-05-7.31650E-07 6.53686E-19-4.60783E-19
 -1      3829 9.11388E-05-1.87269E-05-3.10471E-05-8.65429E-07 5.31784E-19-6.66883E-19
 -1      3830 9.10973E-05-1.92972E-05-3.07535E-05-1.55798E-06 4.28538E-19-7.82212E-19
 -1      3831 9.28323E-05-2.11129E-05-3.07223E-05-1.65434E-06 6.38686E-19-3.26358E-19
 -1      3832 1.08379E-04-1.58339E-05-3.98666E-05-1.92075E-06 1.44157E-18 6.45069E-20
 -1      3833 6.53165E-05-1.67872E-05-2.08023E-05 1.13305E-05-4.06288E-19 2.16154E-18
 -1      3834 6.27694E-05-1.46790E-05-2.05540E-05 5.48440E-06-1.24104E-19 2.61296E-18
 -1      3835 1.06112E-04-4.07905E-05-2.80177E-05 1.01915E-05-3.06303E-19-4.00157E-20
 -1      3836 1.07954E-04-4.23573E-05-2.80804E-05 1.01095E-05-7.36943E-19-6.28538E-19
 -1      3837 1.05544E-04-4.27544E-05-2.69221E-05 1.50956E-05-9.34152E-19-1.39863E-18
 -1      3838 1.03486E-04-3.83194E-05-2.78536E-05 1.07295E-05-1.45121E-19-6.40817E-20
 -1      3839 9.35557E-05-2.76473E-05-2.82416E-05 8.10447E-06-7.91420E-19 5.46782E-19
 -1      3840 9.42817E-05-2.85571E-05-2.81442E-05 8.65167E-06-5.39902E-19 8.64379E-19
 -1      3841 9.29568E-05-2.65350E-05-2.84681E-05 6.78788E-06 4.77585E-20 2.30091E-19
 -1      3842 9.33229E-05-2.70478E-05-2.83858E-05 7.34038E-06-4.32210E-19 3.95688E-19
 -1      3843 9.19429E-05-2.65441E-05-2.80427E-05 7.95331E-06-1.13199E-19-5.96440E-19
 -1      3844 9.28337E-05-2.60210E-05-2.86389E-05 5.60171E-06 5.75735E-20-1.30511E-19
 -1      3845 9.29728E-05-2.62564E-05-2.85799E-05 6.12153E-06 1.74718E-20 6.04629E-19
 -1      3846 9.17678E-05-2.56976E-05-2.83216E-05 6.47433E-06-1.10300E-19 1.45769E-19
 -1      3847 9.29798E-05-2.59031E-05-2.87534E-05 4.56329E-06 3.04230E-19 8.27540E-20
 -1      3848 9.29855E-05-2.59563E-05-2.87175E-05 5.03367E-06 4.11973E-19 2.27197E-19
 -1      3849 9.19597E-05-2.53943E-05-2.85288E-05 5.22551E-06 2.08743E-19 7.28885E-19
 -1      3850 9.32587E-05-2.60277E-05-2.88198E-05 3.67049E-06-8.53280E-19-1.36497E-19
 -1      3851 9.31937E-05-2.59702E-05-2.88033E-05 4.08526E-06-2.47901E-19-2.64184E-19
 -1      3852 9.23381E-05-2.54378E-05-2.86697E-05 4.18338E-06 7.13834E-20 4.28014E-19
 -1      3853 9.35856E-05-2.62857E-05-2.88490E-05 2.91367E-06-6.53809E-19-5.74611E-19
 -1      3854 9.34896E-05-2.61678E-05-2.88471E-05 3.27188E-06-8.29077E-19 3.38552E-19
 -1      3855 9.27886E-05-2.56839E-05-2.87560E-05 3.31880E-06-7.48278E-19 1.35792E-19
 -1      3856 9.39102E-05-2.66028E-05-2.88516E-05 2.28077E-06-1.26723E-18 3.77553E-20
 -1      3857 9.38070E-05-2.64587E-05-2.88596E-05 2.58439E-06-1.07614E-18-6.41178E-19
 -1      3858 9.32426E-05-2.60330E-05-2.88007E-05 2.60555E-06-1.22418E-18 6.97603E-19
 -1      3859 9.42054E-05-2.69312E-05-2.88366E-05 1.75879E-06-9.43188E-19 8.32751E-19
 -1      3860 9.41082E-05-2.67826E-05-2.88507E-05 2.01162E-06-1.06927E-18 6.85237E-19
 -1      3861 9.36618E-05-2.64182E-05-2.88154E-05 2.02143E-06-1.70730E-18 1.55873E-18
 -1      3862 9.44589E-05-2.72420E-05-2.88113E-05 1.33439E-06 2.18777E-19 1.47297E-18
 -1      3863 9.43741E-05-2.71018E-05-2.88285E-05 1.54133E-06-1.10507E-19 1.13163E-18
 -1      3864 9.40274E-05-2.67973E-05-2.88099E-05 1.54741E-06-7.27476E-19 1.63665E-18
 -1      3865 9.46675E-05-2.75197E-05-2.87810E-05 9.94325E-07 9.96204E-19 1.36684E-18
 -1      3866 9.45974E-05-2.73949E-05-2.87990E-05 1.16089E-06 1.16339E-19 1.19834E-18
 -1      3867 9.43330E-05-2.71460E-05-2.87920E-05 1.16681E-06-3.55811E-20 1.82566E-18
 -1      3868 9.48333E-05-2.77578E-05-2.87493E-05 7.25869E-07 1.83528E-18 1.80080E-18
 -1      3869 9.47776E-05-2.76511E-05-2.87669E-05 8.57730E-07 2.26805E-18 1.54130E-18
 -1      3870 9.45801E-05-2.74517E-05-2.87673E-05 8.64811E-07 1.33942E-18 6.73664E-19
 -1      3871 9.49609E-05-2.79553E-05-2.87188E-05 5.17157E-07 1.18591E-18 1.73926E-18
 -1      3872 9.49183E-05-2.78670E-05-2.87349E-05 6.19831E-07 1.23057E-18 2.64043E-18
 -1      3873 9.47739E-05-2.77104E-05-2.87399E-05 6.28244E-07 1.39944E-18 1.89290E-18
 -1      3874 9.50562E-05-2.81148E-05-2.86908E-05 3.57442E-07 4.43961E-19 2.32581E-18
 -1      3875 9.50248E-05-2.80437E-05-2.87051E-05 4.36050E-07 6.29520E-19 1.78367E-18
 -1      3876 9.49217E-05-2.79230E-05-2.87125E-05 4.45460E-07 7.99578E-19 2.35374E-18
 -1      3877 9.51252E-05-2.82407E-05-2.86660E-05 2.37262E-07 5.15008E-19 2.56745E-18
 -1      3878 9.51028E-05-2.81846E-05-2.86784E-05 2.96379E-07 8.51586E-19 2.67423E-18
 -1      3879 9.50313E-05-2.80934E-05-2.86868E-05 3.06285E-07 2.26961E-19 2.29834E-18
 -1      3880 9.51734E-05-2.83379E-05-2.86447E-05 1.48517E-07 1.28447E-18 2.15346E-18
 -1      3881 9.51581E-05-2.82947E-05-2.86551E-05 1.92109E-07 1.46668E-18 2.65195E-18
 -1      3882 9.51101E-05-2.82270E-05-2.86636E-05 2.02017E-07 1.04081E-18 2.06101E-18
 -1      3883 9.52055E-05-2.84116E-05-2.86266E-05 8.42344E-08-3.29159E-20 2.70853E-18
 -1      3884 9.51957E-05-2.83787E-05-2.86353E-05 1.15872E-07 4.89050E-19 2.69113E-18
 -1      3885 9.51648E-05-2.83298E-05-2.86432E-05 1.25455E-07 2.90711E-19 3.78241E-18
 -1      3886 9.52256E-05-2.84668E-05-2.86114E-05 3.85529E-08 1.18073E-18 1.57567E-18
 -1      3887 9.52199E-05-2.84419E-05-2.86186E-05 6.15001E-08 5.67760E-19 1.92588E-18
 -1      3888 9.52011E-05-2.84077E-05-2.86257E-05 7.04770E-08 8.92483E-19 4.02262E-18
 -1      3889 9.52365E-05-2.84968E-05-2.86025E-05 1.84922E-08 7.01781E-19 1.93630E-18
 -1      3890 1.23370E-04-5.39368E-05-2.96180E-05-1.04095E-05-1.23645E-18 9.19560E-19
 -1      3891 9.41092E-05-2.30183E-05-3.04700E-05-2.49392E-06 6.56204E-19-1.59212E-19
 -1      3892 9.52263E-05-2.84742E-05-2.86083E-05 2.58877E-08 8.92053E-19 2.73682E-18
 -1      3893 9.11586E-05-1.94451E-05-3.07274E-05 1.40865E-06-4.59706E-19-8.52474E-19
 -1      3894 9.14966E-05-1.91234E-05-3.10119E-05 6.99246E-07-5.15276E-19-9.22939E-19
 -1      3895 9.72495E-05-2.91967E-05-2.91571E-05-7.99690E-06-4.40793E-19 1.08507E-19
 -1      3896 9.65908E-05-2.82692E-05-2.92641E-05-7.57363E-06-3.82992E-19 2.39563E-19
 -1      3897 9.64387E-05-2.91768E-05-2.88574E-05-8.82990E-06-2.56719E-19-4.36555E-19
 -1      3898 9.04332E-05-2.03659E-05-3.00387E-05 3.07132E-06-4.76650E-19-5.46883E-19
 -1      3899 8.99752E-05-2.06201E-05-2.97342E-05 3.93893E-06-3.95664E-19-4.44751E-19
 -1      3900 7.19362E-05-2.22091E-05-2.13279E-05-1.90083E-05 1.46991E-18-3.84831E-19
 -1      3901 7.54182E-05-2.59799E-05-2.08499E-05-2.29309E-05 1.84632E-18-1.13452E-18
 -1      3902 9.49379E-05-2.96150E-05-2.79793E-05 9.48860E-06-7.16209E-19 9.70678E-19
 -1      3903 9.61976E-05-3.10552E-05-2.78903E-05 9.94910E-06-1.59451E-19 9.62691E-19
 -1      3904 9.46427E-05-3.10023E-05-2.73390E-05 1.15103E-05-7.14837E-19-1.22902E-20
 -1      3905 9.27570E-05-2.81944E-05-2.77019E-05 9.66657E-06-3.61186E-19 9.49506E-19
 -1      3906 8.87154E-05-1.62829E-05-3.10537E-05-5.00979E-07 6.25278E-20-1.60098E-18
 -1      3907 8.87563E-05-1.63336E-05-3.10541E-05-4.29622E-07-1.53570E-20-1.66773E-18
 -1      3908 8.90555E-05-1.72658E-05-3.07448E-05-8.25028E-08 6.36268E-20-1.61401E-18
 -1      3909 8.90441E-05-1.72427E-05-3.07437E-05-7.59516E-07 9.01822E-20-1.27912E-18
 -1      3910 8.92317E-05-2.07091E-05-2.93826E-05 4.59686E-06-3.50901E-19-4.87726E-19
 -1      3911 8.85144E-05-2.07374E-05-2.90572E-05 5.40517E-06-3.00531E-19-4.80941E-19
 -1      3912 8.69397E-05-1.98805E-05-2.87052E-05 4.54711E-06-3.48784E-19-5.10022E-19
 -1      3913 1.18239E-04-5.21638E-05-2.83471E-05-1.35587E-05-1.42058E-18 5.88953E-19
 -1      3914 8.87592E-05-1.99089E-05-2.94793E-05 3.39944E-06-3.30373E-19-3.82502E-19
 -1      3915 9.73166E-05-3.16251E-05-2.81261E-05-1.08773E-05-4.71398E-19-4.31749E-19
 -1      3916 9.60533E-05-3.00291E-05-2.82762E-05-1.03817E-05-2.55603E-19-3.99015E-19
 -1      3917 9.52275E-05-2.84859E-05-2.86031E-05 3.68484E-09 2.14965E-18-7.17066E-19
 -1      3918 9.98181E-05-3.64475E-05-2.72349E-05 1.28328E-05-3.41058E-19-6.95503E-19
 -1      3919 9.33319E-05-3.96790E-05-2.30357E-05-2.64269E-05-2.01501E-18-5.03654E-19
 -1      3920 1.00274E-04-4.45642E-05-2.36846E-05-2.66300E-05-2.26497E-18-8.52261E-20
 -1      3921 1.05579E-04-4.66965E-05-2.52508E-05-2.24644E-05-1.83977E-18 3.20590E-20
 -1      3922 9.31726E-05-2.20527E-05-3.04830E-05-2.42170E-06 5.93733E-19-1.60959E-19
 -1      3923 9.22262E-05-2.10672E-05-3.05059E-05-2.38370E-06 4.67222E-19-3.01635E-19
 -1      3924 9.35266E-05-2.29033E-05-3.02600E-05-3.25309E-06 4.45298E-19-1.42927E-19
 -1      3925 1.19400E-04-4.21366E-05-3.30842E-05-8.07801E-06 1.03922E-18-8.90668E-19
 -1      3926 9.00228E-05-1.89852E-05-3.04485E-05-1.87425E-06 2.01600E-19-1.11235E-18
 -1      3927 8.94440E-05-1.84553E-05-3.04409E-05-1.62654E-06 1.18915E-19-1.15511E-18
 -1      3928 7.05453E-05-1.94105E-05-2.17493E-05 1.42771E-05-5.87200E-19 1.77985E-18
 -1      3929 7.12378E-05-1.84062E-05-2.26027E-05 1.08577E-05-5.46323E-19 1.67032E-18
 -1      3930 7.63605E-05-2.31460E-05-2.29914E-05 1.66292E-05-5.91302E-20 2.10605E-18
 -1      3931 1.00519E-04-3.90608E-05-2.62810E-05 1.63545E-05-9.93063E-19-1.12414E-18
 -1      3932 6.73174E-05-1.80545E-05-2.09330E-05-1.42960E-05 1.22377E-18 5.58618E-19
 -1      3933 8.70312E-05-3.14970E-05-2.37157E-05 2.05143E-05-1.17454E-18 1.82404E-18
 -1      3934 9.52158E-05-2.84603E-05-2.86097E-05-3.01748E-09 4.09030E-18 1.60820E-18
 -1      3935 9.52154E-05-2.84607E-05-2.86096E-05 1.86263E-10 4.08675E-18 7.69733E-19
 -1      3936 9.52146E-05-2.84541E-05-2.86120E-05 1.99349E-08 1.68011E-18 5.94107E-19
 -1      3937 9.52188E-05-2.84618E-05-2.86104E-05 2.17863E-08 1.39982E-18 2.02228E-18
 -1      3938 9.52072E-05-2.84258E-05-2.86199E-05 4.25910E-08 1.72259E-18 2.23552E-18
 -1      3939 9.53738E-05-2.72397E-05-2.92185E-05-7.49486E-06-2.49440E-19-3.59067E-19
 -1      3940 7.56522E-05-2.76782E-05-2.02813E-05-2.53646E-05-1.60885E-18-5.73335E-19
 -1      3941 8.20546E-05-3.14952E-05-2.16026E-05-2.54275E-05-1.72150E-18-5.63753E-19
 -1      3942 7.24519E-05-2.39489E-05-2.07559E-05-2.10194E-05-1.33462E-18-8.38271E-19
 -1      3943 9.14655E-05-2.03513E-05-3.04811E-05-2.26007E-06 3.66662E-19-7.30999E-19
 -1      3944 9.06513E-05-1.95623E-05-3.04808E-05-2.13391E-06 2.59728E-19-9.42850E-19
 -1      3945 9.03807E-05-1.99246E-05-3.01746E-05-2.57070E-06 1.67500E-19-9.44430E-19
 -1      3946 9.17778E-05-2.12084E-05-3.02339E-05-3.00947E-06 3.61744E-19-5.49396E-19
 -1      3947 9.52195E-05-2.84665E-05-2.86086E-05-9.70859E-09 4.21280E-18 1.10560E-18
 -1      3948 9.52176E-05-2.84633E-05-2.86092E-05-7.75015E-09 4.11336E-18 2.21026E-18
 -1      3949 9.52069E-05-2.84360E-05-2.86155E-05-7.27551E-09 4.51298E-18 1.64420E-18
 -1      3950 6.36127E-05-1.42345E-05-2.10196E-05 1.37960E-06 2.88699E-19 1.58947E-18
 -1      3951 6.58532E-05-1.50388E-05-2.17827E-05-3.36864E-06 5.28558E-19 1.23544E-18
 -1      3952 6.72155E-05-1.54354E-05-2.21642E-05 3.38098E-06-6.63267E-20 1.87564E-18
 -1      3953 9.86618E-05-3.34218E-05-2.79130E-05-1.17028E-05-6.95559E-19-4.99009E-19
 -1      3954 9.58863E-05-3.16516E-05-2.75896E-05-1.24430E-05-5.55238E-19-5.56348E-19
 -1      3955 1.00683E-04-3.56139E-05-2.78565E-05-1.18287E-05-7.63653E-19-2.77305E-19
 -1      3956 6.65901E-05-1.61364E-05-2.16650E-05-8.92367E-06 5.61821E-19 7.97012E-19
 -1      3957 1.06125E-04-3.98402E-05-2.84983E-05-9.38803E-06-6.76541E-19 7.59340E-19
 -1      3958 6.50276E-05-1.67953E-05-2.04344E-05-1.12215E-05-7.39903E-19-1.60934E-18
 -1      3959 6.82622E-05-1.91488E-05-2.10164E-05-1.43839E-05-9.63517E-19-1.36292E-18
 -1      3960 9.35886E-05-2.35024E-05-3.00395E-05-4.08868E-06 3.30704E-19-1.80409E-19
 -1      3961 1.22295E-04-4.93957E-05-3.12307E-05-1.58179E-06-4.15609E-19 1.20938E-18
 -1      3962 1.19566E-04-4.94422E-05-3.00159E-05-5.25291E-06-7.07239E-19 1.06982E-18
 -1      3963 9.09749E-05-1.98177E-05-3.05034E-05 1.92370E-06-3.86716E-19-7.23951E-19
 -1      3964 9.07867E-05-2.01839E-05-3.02682E-05 2.64559E-06-4.42875E-19-5.74124E-19
 -1      3965 8.98104E-05-1.95848E-05-3.00715E-05 2.40979E-06-3.54804E-19-5.69312E-19
 -1      3966 9.03475E-05-1.90853E-05-3.05320E-05 1.53705E-06-3.92995E-19-7.36321E-19
 -1      3967 1.12232E-04-4.89800E-05-2.68949E-05-1.75446E-05-1.42836E-18 2.22498E-19
 -1      3968 1.17568E-04-5.02952E-05-2.88805E-05-1.05001E-05-1.02697E-18 4.34716E-19
 -1      3969 1.13893E-04-4.71624E-05-2.86496E-05-9.55543E-06-7.37461E-19 3.85731E-19
 -1      3970 1.06336E-04-4.56606E-05-2.60158E-05-1.95936E-05-1.33514E-18-2.61018E-19
 -1      3971 6.49741E-05-1.75261E-05-2.02319E-05 1.26482E-05 8.25472E-19-2.21053E-18
 -1      3972 6.02091E-05-1.46637E-05-1.92454E-05 7.44561E-06 3.87991E-19-2.45190E-18
 -1      3973 6.20236E-05-1.46518E-05-2.03615E-05 3.08095E-06 3.39958E-19-1.76504E-18
 -1      3974 6.71597E-05-1.70639E-05-2.14345E-05 1.05439E-05 8.64384E-19-2.13326E-18
 -1      3975 6.50016E-05-1.60010E-05-2.10060E-05-6.39878E-06-1.78195E-19-1.61444E-18
 -1      3976 1.10738E-04-4.47728E-05-2.81542E-05-1.12102E-05-7.67994E-19 3.09895E-19
 -1      3977 8.96668E-05-1.84825E-05-3.05224E-05 1.08999E-06-2.32235E-19-9.83845E-19
 -1      3978 9.39337E-05-2.52292E-05-2.94386E-05-6.24583E-06 3.81039E-20-2.66997E-19
 -1      3979 9.37172E-05-2.45014E-05-2.96599E-05-5.38163E-06 1.36453E-19-3.10100E-19
 -1      3980 1.22381E-04-4.88349E-05-3.15322E-05-5.11137E-09-6.51057E-19-9.90711E-19
 -1      3981 9.26950E-05-2.30132E-05-2.98629E-05-4.43846E-06 4.07712E-19-2.56073E-19
 -1      3982 6.54358E-05-1.48753E-05-2.14874E-05-9.34612E-07 6.55458E-21-1.58474E-18
 -1      3983 6.92353E-05-1.66436E-05-2.24883E-05-5.45354E-06-2.83109E-19-1.26698E-18
 -1      3984 9.52126E-05-2.84530E-05-2.86114E-05 7.14934E-09 2.67626E-18-8.28823E-20
 -1      3985 9.52143E-05-2.84566E-05-2.86109E-05 1.08611E-08 1.78366E-18 8.06732E-19
 -1      3986 9.51981E-05-2.84145E-05-2.86209E-05 2.51878E-08 2.51980E-18 8.10035E-19
 -1      3987 9.52020E-05-2.84255E-05-2.86178E-05 6.26546E-09 3.04184E-18 1.96247E-18
 -1      3988 8.06657E-05-1.84773E-05-2.67058E-05 4.17365E-06-2.45449E-19-1.23884E-18
 -1      3989 7.86782E-05-1.80599E-05-2.60181E-05 4.84943E-06-2.48548E-19-1.34190E-18
 -1      3990 7.39121E-05-1.70691E-05-2.44069E-05 3.99036E-06-1.24610E-19-1.38156E-18
 -1      3991 7.11432E-05-1.66446E-05-2.33424E-05 4.89100E-06 1.80408E-20-1.65106E-18
 -1      3992 1.24674E-04-4.76544E-05-3.31277E-05 3.83918E-06 9.86396E-20 1.58525E-18
 -1      3993 7.06076E-05-1.67352E-05-2.30728E-05-7.71334E-06 8.93817E-19 3.83947E-19
 -1      3994 7.33959E-05-1.70482E-05-2.41959E-05-6.49749E-06 5.47210E-19 5.10247E-19
 -1      3995 6.81536E-05-1.56160E-05-2.24039E-05-5.47431E-06 5.89206E-19 1.03690E-18
 -1      3996 7.62090E-05-1.76631E-05-2.50908E-05-5.81569E-06 3.22466E-19 6.36603E-19
 -1      3997 7.83104E-05-1.81281E-05-2.58312E-05-5.14629E-06 5.34339E-19 9.60564E-19
 -1      3998 7.45527E-05-1.69112E-05-2.46515E-05-4.16850E-06 6.24269E-19 8.95248E-19
 -1      3999 8.03788E-05-1.87345E-05-2.64250E-05-4.71257E-06 5.04657E-19 1.21723E-18
 -1      4000 8.20455E-05-1.92871E-05-2.69199E-05-4.29938E-06-2.68844E-19 1.72202E-18
 -1      4001 7.91897E-05-1.81500E-05-2.61125E-05-3.51072E-06 2.20322E-19 9.85855E-19
 -1      4002 8.36119E-05-1.98867E-05-2.73180E-05-4.01387E-06-3.69045E-19 2.30938E-18
 -1      4003 8.49363E-05-2.04595E-05-2.76477E-05-3.71248E-06 8.87408E-20 2.97816E-18
 -1      4004 8.27383E-05-1.94350E-05-2.70936E-05-3.12670E-06 7.61232E-20 2.06867E-18
 -1      4005 8.61634E-05-2.10502E-05-2.79120E-05-3.47469E-06 1.42686E-19 2.69940E-18
 -1      4006 8.72207E-05-2.16126E-05-2.81273E-05-3.22116E-06 2.44742E-19 2.37395E-18
 -1      4007 8.54757E-05-2.06649E-05-2.77503E-05-2.80216E-06-1.15536E-21 2.72419E-18
 -1      4008 8.81944E-05-2.21759E-05-2.82989E-05-3.00360E-06 4.10629E-19 2.13013E-18
 -1      4009 8.90383E-05-2.27053E-05-2.84350E-05-2.77092E-06 8.35751E-19 2.05310E-18
 -1      4010 8.76418E-05-2.18368E-05-2.81830E-05-2.49535E-06 2.08848E-19 2.00169E-18
 -1      4011 8.98148E-05-2.32259E-05-2.85423E-05-2.56431E-06 4.66438E-19 1.58652E-18
 -1      4012 9.04852E-05-2.37080E-05-2.86237E-05-2.34554E-06 2.40677E-19 1.31574E-18
 -1      4013 8.93665E-05-2.29245E-05-2.84605E-05-2.18269E-06 6.78774E-20 1.61096E-18
 -1      4014 9.11037E-05-2.41755E-05-2.86867E-05-2.15109E-06 3.01226E-19 1.54829E-19
 -1      4015 9.16325E-05-2.46024E-05-2.87310E-05-1.94758E-06 2.75801E-19-6.48072E-19
 -1      4016 9.07406E-05-2.39099E-05-2.86305E-05-1.86703E-06-9.43398E-20 7.37061E-19
 -1      4017 9.21223E-05-2.50118E-05-2.87640E-05-1.76916E-06 8.77011E-19-6.03240E-19
 -1      4018 9.25356E-05-2.53809E-05-2.87837E-05-1.58440E-06 1.03362E-19 4.24052E-19
 -1      4019 9.18307E-05-2.47813E-05-2.87267E-05-1.55993E-06 5.86611E-19-9.14844E-19
 -1      4020 9.29204E-05-2.57315E-05-2.87969E-05-1.42549E-06 2.69048E-19 1.26653E-18
 -1      4021 9.32401E-05-2.60440E-05-2.88009E-05-1.26239E-06 6.67519E-19 1.87341E-18
 -1      4022 9.26889E-05-2.55352E-05-2.87734E-05-1.27321E-06 6.70173E-19 5.54818E-19
 -1      4023 9.35394E-05-2.63384E-05-2.88016E-05-1.12493E-06 1.06127E-20 2.46768E-18
 -1      4024 9.37841E-05-2.65981E-05-2.87961E-05-9.84826E-07 1.32665E-19 1.99744E-18
 -1      4025 9.33584E-05-2.61745E-05-2.87878E-05-1.01558E-06 4.06758E-19 1.42198E-18
 -1      4026 9.40140E-05-2.68408E-05-2.87893E-05-8.69136E-07 2.38069E-19 1.26565E-18
 -1      4027 9.41991E-05-2.70532E-05-2.87785E-05-7.51819E-07-8.70822E-19 1.93513E-18
 -1      4028 9.38748E-05-2.67066E-05-2.87823E-05-7.91838E-07-1.74929E-19 1.23309E-18
 -1      4029 9.43734E-05-2.72500E-05-2.87677E-05-6.56852E-07-1.30289E-18 2.38060E-18
 -1      4030 9.45115E-05-2.74208E-05-2.87545E-05-5.60907E-07-6.16640E-19 3.02407E-18
 -1      4031 9.42682E-05-2.71420E-05-2.87653E-05-6.03266E-07-9.71557E-19 1.09268E-18
 -1      4032 9.46417E-05-2.75778E-05-2.87420E-05-4.84735E-07-2.33829E-18 3.15476E-18
 -1      4033 9.47431E-05-2.77131E-05-2.87282E-05-4.07969E-07-2.75949E-18 1.27949E-18
 -1      4034 9.45636E-05-2.74926E-05-2.87424E-05-4.48507E-07-1.97429E-18 1.72584E-18
 -1      4035 9.48387E-05-2.78365E-05-2.87154E-05-3.48198E-07-1.65679E-18 4.64807E-19
 -1      4036 9.49118E-05-2.79421E-05-2.87021E-05-2.88050E-07-4.97034E-19-2.76151E-19
 -1      4037 9.47820E-05-2.77704E-05-2.87176E-05-3.24531E-07-2.23436E-18 9.65628E-19
 -1      4038 9.49805E-05-2.80375E-05-2.86900E-05-2.42125E-07-1.54576E-19-4.33976E-19
 -1      4039 9.50320E-05-2.81187E-05-2.86778E-05-1.95934E-07 1.17806E-19-4.22595E-19
 -1      4040 9.49403E-05-2.79871E-05-2.86930E-05-2.27436E-07-5.52287E-19-6.03256E-19
 -1      4041 9.50802E-05-2.81914E-05-2.86667E-05-1.61413E-07 6.50431E-19-4.69440E-19
 -1      4042 9.51154E-05-2.82528E-05-2.86559E-05-1.26701E-07-1.09537E-19 6.11802E-20
 -1      4043 9.50524E-05-2.81536E-05-2.86700E-05-1.53063E-07 6.82626E-19-1.53432E-18
 -1      4044 9.51483E-05-2.83075E-05-2.86461E-05-1.01299E-07-1.15341E-19-3.17377E-19
 -1      4045 9.51715E-05-2.83537E-05-2.86366E-05-7.60487E-08 7.58426E-19-1.98810E-18
 -1      4046 9.51300E-05-2.82798E-05-2.86493E-05-9.71025E-08-3.80356E-19-2.46411E-18
 -1      4047 9.51925E-05-2.83937E-05-2.86281E-05-5.76138E-08 1.38211E-18-1.35830E-18
 -1      4048 9.52073E-05-2.84276E-05-2.86201E-05-3.91609E-08 1.39635E-18-8.43356E-19
 -1      4049 9.51803E-05-2.83730E-05-2.86312E-05-5.66225E-08 8.97288E-19-3.01516E-18
 -1      4050 8.42024E-05-1.91904E-05-2.78913E-05 3.56590E-06-4.21484E-19-9.54977E-19
 -1      4051 8.26958E-05-1.89152E-05-2.73597E-05 4.03870E-06-2.95277E-19-1.09469E-18
 -1      4052 8.10509E-05-1.82394E-05-2.68624E-05 1.89681E-06-3.81985E-19-1.19319E-18
 -1      4053 9.11030E-05-2.47429E-05-2.84510E-05 4.61054E-06 5.52393E-19 4.52870E-19
 -1      4054 9.09471E-05-2.47505E-05-2.83586E-05 5.16886E-06-4.11664E-19 1.09952E-18
 -1      4055 9.02475E-05-2.52105E-05-2.78839E-05 7.38630E-06 2.22076E-20-2.03122E-19
 -1      4056 9.04734E-05-2.57448E-05-2.77145E-05 8.19657E-06-4.93310E-19-1.61046E-19
 -1      4057 9.17286E-05-2.49912E-05-2.86115E-05 3.62175E-06-8.21974E-19 1.29622E-18
 -1      4058 9.15117E-05-2.48751E-05-2.85513E-05 4.08138E-06 1.47768E-19 8.34887E-19
 -1      4059 9.05367E-05-2.42615E-05-2.83966E-05 4.00872E-06-3.42740E-19 9.61395E-19
 -1      4060 9.23548E-05-2.53813E-05-2.87114E-05 2.82739E-06-1.16515E-18 1.16999E-18
 -1      4061 9.21219E-05-2.51991E-05-2.86764E-05 3.20511E-06-8.05761E-19 8.91124E-19
 -1      4062 9.13421E-05-2.46619E-05-2.85701E-05 3.09486E-06-5.01943E-19 1.59940E-18
 -1      4063 9.29346E-05-2.58307E-05-2.87660E-05 2.18926E-06-1.66627E-18 1.70232E-18
 -1      4064 9.27116E-05-2.56217E-05-2.87497E-05 2.49844E-06-1.45357E-18 1.55431E-18
 -1      4065 9.20920E-05-2.51583E-05-2.86792E-05 2.38056E-06-1.36930E-18 1.55787E-18
 -1      4066 9.34442E-05-2.62854E-05-2.87884E-05 1.67814E-06-2.05136E-18 1.49333E-18
 -1      4067 9.32449E-05-2.60748E-05-2.87851E-05 1.92961E-06-1.95505E-18 1.30292E-18
 -1      4068 9.27570E-05-2.56816E-05-2.87407E-05 1.82023E-06-1.75034E-18 1.70468E-18
 -1      4069 9.38749E-05-2.67122E-05-2.87889E-05 1.27098E-06-9.45172E-19 1.60072E-18
 -1      4070 9.37051E-05-2.65153E-05-2.87941E-05 1.47379E-06-1.86117E-18 8.66377E-19
 -1      4071 9.33252E-05-2.61872E-05-2.87685E-05 1.38044E-06-1.78164E-18 1.23310E-18
 -1      4072 9.42274E-05-2.70931E-05-2.87758E-05 9.49125E-07-1.48741E-20 1.61463E-18
 -1      4073 9.40881E-05-2.69181E-05-2.87860E-05 1.11102E-06-2.74833E-19 1.86053E-18
 -1      4074 9.37963E-05-2.66488E-05-2.87734E-05 1.03604E-06-1.05004E-18 8.38853E-19
 -1      4075 9.45081E-05-2.74204E-05-2.87551E-05 6.97071E-07 1.23441E-18 1.23089E-18
 -1      4076 9.43973E-05-2.72705E-05-2.87678E-05 8.24824E-07 7.34056E-19 1.53750E-18
 -1      4077 9.41766E-05-2.70533E-05-2.87638E-05 7.67604E-07 5.21408E-19 2.18823E-18
 -1      4078 9.47259E-05-2.76932E-05-2.87308E-05 5.01820E-07 9.77911E-19 2.75290E-18
 -1      4079 9.46403E-05-2.75687E-05-2.87443E-05 6.01366E-07 1.09972E-18 1.93066E-18
 -1      4080 9.44761E-05-2.73964E-05-2.87459E-05 5.59828E-07 8.00759E-19 3.15538E-18
 -1      4081 9.48906E-05-2.79148E-05-2.87058E-05 3.52415E-07 6.16786E-21 3.30500E-18
 -1      4082 9.48262E-05-2.78141E-05-2.87190E-05 4.28928E-07 9.35471E-19 3.20042E-18
 -1      4083 9.47065E-05-2.76796E-05-2.87238E-05 4.00418E-07 6.92693E-19 4.14951E-18
 -1      4084 9.50118E-05-2.80908E-05-2.86819E-05 2.39616E-07 1.88370E-19 3.44889E-18
 -1      4085 9.49649E-05-2.80110E-05-2.86941E-05 2.97574E-07-9.48720E-20 3.60026E-18
 -1      4086 9.48795E-05-2.79079E-05-2.87006E-05 2.79428E-07 2.73081E-19 4.12698E-18
 -1      4087 9.50985E-05-2.82277E-05-2.86600E-05 1.55778E-07 5.50076E-19 4.16215E-18
 -1      4088 9.50654E-05-2.81658E-05-2.86709E-05 1.98909E-07 6.17708E-19 3.47870E-18
 -1      4089 9.50060E-05-2.80882E-05-2.86781E-05 1.88580E-07 2.52562E-19 4.74126E-18
 -1      4090 9.51585E-05-2.83320E-05-2.86406E-05 9.47849E-08 3.95097E-20 4.23075E-18
 -1      4091 9.51359E-05-2.82849E-05-2.86501E-05 1.26066E-07 1.56136E-19 4.10008E-18
 -1      4092 9.50958E-05-2.82276E-05-2.86572E-05 1.21568E-07-1.13593E-19 5.38387E-18
 -1      4093 9.51929E-05-2.84000E-05-2.86259E-05 5.59009E-08 1.22264E-18 3.38507E-18
 -1      4094 9.51778E-05-2.83639E-05-2.86341E-05 7.80126E-08 1.17835E-18 4.10918E-18
 -1      4095 9.51507E-05-2.83222E-05-2.86406E-05 7.69728E-08 9.02214E-19 2.84794E-18
 -1      4096 9.51838E-05-2.83859E-05-2.86280E-05 4.78250E-08 1.73457E-18 9.93950E-19
 -1      4097 9.71966E-05-3.57263E-05-2.63113E-05 1.53664E-05-3.67328E-19-1.82342E-19
 -1      4098 9.24831E-05-3.41841E-05-2.51266E-05 1.88012E-05-1.36616E-18 8.19107E-20
 -1      4099 8.42613E-05-2.80028E-05-2.39683E-05 1.83574E-05-7.62369E-19 2.18618E-18
 -1      4100 9.31430E-05-3.17479E-05-2.62644E-05 1.46613E-05-6.55833E-19 4.76463E-19
 -1      4101 8.67658E-05-1.95598E-05-2.88222E-05 2.91208E-06-4.24387E-19-7.95637E-19
 -1      4102 8.56539E-05-1.94427E-05-2.83970E-05 3.37679E-06-4.75779E-19-8.81613E-19
 -1      4103 8.44094E-05-1.89095E-05-2.80289E-05 1.83779E-06-5.00535E-19-1.06150E-18
 -1      4104 9.53997E-05-2.87873E-05-2.85263E-05-9.47746E-06-1.15373E-19-4.29462E-19
 -1      4105 9.46696E-05-2.76525E-05-2.87122E-05-8.81516E-06-1.94211E-19-4.26831E-19
 -1      4106 9.40015E-05-2.84953E-05-2.81045E-05-1.04561E-05-2.24316E-19-4.12194E-19
 -1      4107 9.52269E-05-2.84799E-05-2.86060E-05-1.32213E-08 2.62132E-18-1.19302E-18
 -1      4108 9.52237E-05-2.84745E-05-2.86071E-05-1.25090E-08 4.00891E-18-1.43967E-18
 -1      4109 9.52122E-05-2.84470E-05-2.86136E-05-1.55507E-08 2.99675E-18-5.91262E-19
 -1      4110 9.52222E-05-2.84647E-05-2.86102E-05-1.97379E-08 2.21738E-18-1.00932E-18
 -1      4111 1.06807E-04-4.36915E-05-2.71186E-05-1.53623E-05-9.73181E-19-5.49810E-19
 -1      4112 1.06021E-04-4.13139E-05-2.77502E-05-1.23956E-05-7.08864E-19-9.80532E-20
 -1      4113 9.05616E-05-2.47573E-05-2.82134E-05 5.84458E-06-1.00981E-18 1.07357E-18
 -1      4114 9.05406E-05-2.49719E-05-2.80830E-05 6.52127E-06-4.42456E-20 6.65087E-19
 -1      4115 8.97315E-05-2.40594E-05-2.81392E-05 5.18613E-06-7.38399E-19 1.32744E-18
 -1      4116 8.85106E-05-1.94534E-05-2.96081E-05 2.13217E-06-1.94330E-19-8.67011E-19
 -1      4117 8.77693E-05-1.95801E-05-2.92405E-05 2.66104E-06-2.34431E-19-8.42287E-19
 -1      4118 8.68094E-05-1.91594E-05-2.89605E-05 1.59382E-06-3.35055E-19-1.03276E-18
 -1      4119 8.94437E-05-1.90042E-05-3.01914E-05 1.48254E-06-3.50716E-19-9.11913E-19
 -1      4120 8.90798E-05-1.92275E-05-2.99554E-05 1.84549E-06-3.08153E-19-9.00699E-19
 -1      4121 8.83487E-05-1.89199E-05-2.97331E-05 1.22277E-06-1.71738E-19-1.19944E-18
 -1      4122 8.91022E-05-1.81187E-05-3.04161E-05 6.01325E-07-1.22033E-19-1.32836E-18
 -1      4123 8.92286E-05-1.88853E-05-3.01232E-05-1.72637E-06 7.95882E-21-1.14483E-18
 -1      4124 8.89940E-05-1.80147E-05-3.04282E-05-1.12117E-06 1.40034E-19-1.17100E-18
 -1      4125 8.87747E-05-1.78191E-05-3.04232E-05-7.77312E-07 9.26320E-20-1.44985E-18
 -1      4126 9.44047E-05-2.67712E-05-2.89713E-05-7.91452E-06-2.30881E-19-4.37376E-19
 -1      4127 9.40139E-05-2.59256E-05-2.91756E-05-7.14667E-06-7.84457E-20-3.72530E-19
 -1      4128 9.28480E-05-2.47290E-05-2.92005E-05-6.65677E-06 9.54798E-20-3.45944E-19
 -1      4129 1.03207E-04-3.85762E-05-2.76257E-05-1.28020E-05-7.43543E-19-1.83388E-19
 -1      4130 7.25171E-05-1.97914E-05-2.25310E-05-1.27405E-05-6.58264E-19-1.24471E-18
 -1      4131 7.17654E-05-2.12036E-05-2.15006E-05-1.67531E-05-1.06306E-18-1.29255E-18
 -1      4132 7.61809E-05-2.41779E-05-2.22878E-05-1.86899E-05-1.11993E-18-5.86676E-19
 -1      4133 9.18401E-05-2.22753E-05-2.98228E-05-4.25752E-06 3.24419E-19-5.09711E-19
 -1      4134 7.46473E-05-1.69314E-05-2.46846E-05 7.02052E-07-2.58983E-19-1.31264E-18
 -1      4135 6.71000E-05-1.59061E-05-2.19527E-05 5.27050E-06 2.90718E-19-1.78566E-18
 -1      4136 9.17286E-05-2.41429E-05-2.89499E-05-6.77098E-06 7.31528E-20-5.30201E-19
 -1      4137 9.16584E-05-2.34462E-05-2.92341E-05-5.86671E-06 2.64855E-19-4.41865E-19
 -1      4138 8.81485E-05-3.48796E-05-2.26064E-05-2.56160E-05-1.88567E-18-7.67266E-19
 -1      4139 9.39784E-05-3.81480E-05-2.39106E-05-2.37404E-05-1.66929E-18-6.34666E-19
 -1      4140 8.30270E-05-3.04730E-05-2.25473E-05-2.30647E-05-1.36280E-18-5.78034E-19
 -1      4141 6.97357E-05-1.57075E-05-2.31692E-05-2.76098E-06 3.34239E-19 9.60039E-19
 -1      4142 9.31545E-05-2.63360E-05-2.86504E-05-8.51945E-06-1.23283E-19-6.03401E-19
 -1      4143 9.52161E-05-2.84481E-05-2.86148E-05-2.86267E-08 1.78677E-18-7.75457E-19
 -1      4144 8.27459E-05-2.57479E-05-2.43251E-05 1.57518E-05-2.62805E-19 1.52408E-18
 -1      4145 1.01732E-04-4.14401E-05-2.56821E-05-1.98320E-05-1.36044E-18-5.51124E-19
 -1      4146 7.42755E-05-1.91289E-05-2.36725E-05 9.76005E-06-4.65507E-19 1.01286E-18
 -1      4147 7.05227E-05-1.66602E-05-2.29234E-05 7.03553E-06-3.87205E-19 1.19770E-18
 -1      4148 8.86037E-05-2.49161E-05-2.72941E-05 8.72068E-06-4.32606E-19-9.88428E-19
 -1      4149 9.03860E-05-2.63319E-05-2.74578E-05 9.29748E-06-7.81210E-20-2.01230E-19
 -1      4150 9.10720E-05-2.73538E-05-2.72615E-05 1.02453E-05-3.52062E-19 5.88374E-20
 -1      4151 8.88072E-05-1.78786E-05-3.04080E-05 1.51306E-07-5.45350E-21-1.58468E-18
 -1      4152 9.23038E-05-2.99236E-05-2.66512E-05 1.28248E-05-6.05868E-19-6.78983E-20
 -1      4153 8.87452E-05-2.89333E-05-2.57432E-05 1.50270E-05-4.90809E-19 1.12436E-18
 -1      4154 9.09006E-05-2.82322E-05-2.68573E-05 1.17667E-05-8.33808E-19 1.18166E-19
 -1      4155 9.23881E-05-2.77575E-05-2.76581E-05-1.09763E-05-3.19547E-19-7.51858E-19
 -1      4156 9.17073E-05-2.65340E-05-2.79469E-05-9.98876E-06-1.35897E-19-7.67697E-19
 -1      4157 9.13538E-05-2.25118E-05-2.94959E-05-4.88454E-06 2.83547E-19-5.19505E-19
 -1      4158 9.05387E-05-2.08311E-05-2.98720E-05-3.39690E-06 2.45514E-19-7.84838E-19
 -1      4159 8.98291E-05-2.02603E-05-2.98363E-05-3.07966E-06 8.77208E-20-9.34153E-19
 -1      4160 9.02010E-05-2.19827E-05-2.92565E-05-4.98458E-06 2.16697E-19-5.27736E-19
 -1      4161 7.05303E-05-1.62810E-05-2.32787E-05 3.23362E-06-1.89722E-20 1.17100E-18
 -1      4162 9.51918E-05-2.84065E-05-2.86221E-05-1.35622E-08 3.04543E-18 1.04505E-18
 -1      4163 9.51896E-05-2.84056E-05-2.86225E-05-6.93843E-09 3.14616E-18 1.85935E-18
 -1      4164 9.95697E-05-3.65888E-05-2.70421E-05-1.48006E-05-9.78585E-19-9.34178E-19
 -1      4165 8.90279E-05-2.42088E-05-2.77774E-05 6.71390E-06-6.78527E-19 3.57224E-19
 -1      4166 8.90864E-05-1.95683E-05-2.97959E-05-2.39022E-06 1.45384E-20-1.19590E-18
 -1      4167 8.85512E-05-1.91132E-05-2.97770E-05-1.80912E-06 2.54077E-20-1.17471E-18
 -1      4168 8.92086E-05-2.03566E-05-2.94915E-05-3.23503E-06 9.09122E-20-9.20838E-19
 -1      4169 7.35420E-05-1.69713E-05-2.43032E-05-2.16996E-06-3.38496E-19-1.17462E-18
 -1      4170 7.36806E-05-1.77942E-05-2.39052E-05-6.72498E-06-3.96167E-19-1.22562E-18
 -1      4171 7.83159E-05-1.79259E-05-2.58654E-05-6.05578E-07-3.77400E-19-1.06491E-18
 -1      4172 9.51687E-05-2.83600E-05-2.86315E-05-1.40905E-09 2.77194E-18 1.94812E-18
 -1      4173 9.51828E-05-2.83915E-05-2.86248E-05 4.28262E-09 3.54650E-18 2.65156E-18
 -1      4174 9.51785E-05-2.83841E-05-2.86267E-05 1.40649E-08 2.65445E-18 3.48559E-18
 -1      4175 9.52088E-05-2.84341E-05-2.86174E-05-2.87982E-08 1.62643E-18-2.76002E-18
 -1      4176 9.39785E-05-3.08867E-05-2.69951E-05-1.35619E-05-6.34742E-19-6.53449E-19
 -1      4177 9.25998E-05-2.90146E-05-2.72629E-05-1.24794E-05-4.29049E-19-6.95594E-19
 -1      4178 9.00604E-05-2.68526E-05-2.70616E-05-1.20712E-05-3.84015E-19-8.27118E-19
 -1      4179 9.51799E-05-2.83841E-05-2.86269E-05 2.50965E-08 2.37490E-18 2.50896E-18
 -1      4180 9.51794E-05-2.83813E-05-2.86282E-05 3.65511E-08 2.32723E-18 1.04165E-18
 -1      4181 9.51648E-05-2.83507E-05-2.86343E-05 4.97400E-08 1.54912E-18 1.34502E-18
 -1      4182 9.51600E-05-2.83454E-05-2.86342E-05 2.50878E-08 2.61458E-18 3.78638E-18
 -1      4183 7.87603E-05-2.40923E-05-2.34539E-05-1.66269E-05-8.27505E-19-6.04922E-19
 -1      4184 8.03691E-05-2.66568E-05-2.28563E-05-2.00084E-05-1.05352E-18-2.24682E-19
 -1      4185 8.53014E-05-3.00036E-05-2.37191E-05-2.03283E-05-1.14961E-18-4.06616E-19
 -1      4186 9.15289E-05-2.48058E-05-2.86057E-05-7.81293E-06 6.22536E-21-6.54529E-19
 -1      4187 9.02839E-05-2.34495E-05-2.86275E-05-7.00838E-06 2.54770E-19-6.06755E-19
 -1      4188 9.17904E-05-2.56586E-05-2.83167E-05-8.74678E-06-1.68267E-20-7.96751E-19
 -1      4189 6.94844E-05-1.68312E-05-2.24105E-05 8.90745E-06 4.70107E-19-1.95491E-18
 -1      4190 7.30183E-05-1.64847E-05-2.42409E-05-2.58714E-06 7.30975E-19 8.23462E-19
 -1      4191 7.56397E-05-1.71584E-05-2.51161E-05-2.30770E-06 5.89012E-19 9.36358E-19
 -1      4192 7.14297E-05-1.58911E-05-2.37022E-05-5.19739E-07 4.62884E-19 1.06024E-18
 -1      4193 7.76670E-05-1.77769E-05-2.56729E-05-1.24893E-06 5.78337E-19 9.52318E-19
 -1      4194 7.96513E-05-1.84233E-05-2.62692E-05-1.23487E-06 5.68468E-19 1.46455E-18
 -1      4195 8.14531E-05-1.90416E-05-2.67742E-05-1.44562E-06 1.98653E-19 1.45124E-18
 -1      4196 8.30240E-05-1.96565E-05-2.71770E-05-1.38720E-06 2.85350E-19 2.08722E-18
 -1      4197 8.03970E-05-1.86903E-05-2.64031E-05 7.05802E-07 6.31930E-19 1.48977E-18
 -1      4198 8.44308E-05-2.02738E-05-2.75188E-05-1.53803E-06 7.34139E-20 1.74085E-18
 -1      4199 8.56693E-05-2.08668E-05-2.77874E-05-1.46583E-06-2.00902E-19 1.49310E-18
 -1      4200 8.35823E-05-1.99155E-05-2.72475E-05 5.28939E-08 1.13426E-19 1.21465E-18
 -1      4201 8.67854E-05-2.14494E-05-2.80173E-05-1.53930E-06 1.30690E-19 1.30204E-18
 -1      4202 8.77657E-05-2.20074E-05-2.81931E-05-1.44500E-06 1.30232E-19 1.75996E-18
 -1      4203 8.60529E-05-2.10718E-05-2.78198E-05-3.42171E-07 2.22629E-19 8.29751E-19
 -1      4204 8.86621E-05-2.25518E-05-2.83446E-05-1.46098E-06-1.86696E-19 1.70499E-18
 -1      4205 8.94428E-05-2.30659E-05-2.84558E-05-1.34808E-06 3.67337E-19 1.15375E-18
 -1      4206 8.80332E-05-2.21733E-05-2.82034E-05-5.55166E-07-1.74142E-20 6.11884E-19
 -1      4207 9.01647E-05-2.35635E-05-2.85519E-05-1.32522E-06-1.99277E-19 1.00707E-18
 -1      4208 9.07855E-05-2.40258E-05-2.86182E-05-1.20260E-06-4.07541E-19 2.47674E-19
 -1      4209 8.96303E-05-2.31987E-05-2.84536E-05-6.40117E-07-3.02547E-19-9.59013E-20
 -1      4210 9.13651E-05-2.44697E-05-2.86757E-05-1.15642E-06-3.00528E-19-4.27067E-20
 -1      4211 9.18560E-05-2.48759E-05-2.87114E-05-1.03315E-06 1.00977E-19-6.41980E-19
 -1      4212 9.09178E-05-2.41311E-05-2.86096E-05-6.40668E-07-6.11732E-19 1.61049E-19
 -1      4213 9.23180E-05-2.52631E-05-2.87423E-05-9.75707E-07 9.27898E-19-1.04038E-18
 -1      4214 9.27030E-05-2.56125E-05-2.87578E-05-8.58996E-07 8.39415E-19-5.36253E-19
 -1      4215 9.19502E-05-2.49593E-05-2.87001E-05-5.90277E-07-1.25883E-20-9.73766E-19
 -1      4216 9.30676E-05-2.59431E-05-2.87709E-05-7.98902E-07 4.45373E-19-1.78556E-19
 -1      4217 9.33664E-05-2.62377E-05-2.87733E-05-6.93510E-07 4.10185E-19-1.76385E-19
 -1      4218 9.27707E-05-2.56786E-05-2.87458E-05-5.13592E-07 6.44080E-19-1.64929E-18
 -1      4219 9.36507E-05-2.65145E-05-2.87749E-05-6.36343E-07-1.27591E-19-6.86692E-19
 -1      4220 9.38800E-05-2.67584E-05-2.87695E-05-5.44767E-07-7.37108E-19-9.72796E-19
 -1      4221 9.34158E-05-2.62903E-05-2.87619E-05-4.27606E-07-1.96641E-19-1.52952E-18
 -1      4222 9.40986E-05-2.69860E-05-2.87642E-05-4.93690E-07-1.08633E-18-8.45013E-19
 -1      4223 9.42722E-05-2.71845E-05-2.87543E-05-4.16642E-07-4.55533E-19-6.91282E-20
 -1      4224 9.39163E-05-2.68004E-05-2.87593E-05-3.43144E-07-4.68065E-19-1.42258E-18
 -1      4225 9.44379E-05-2.73684E-05-2.87452E-05-3.73067E-07-9.83451E-19-3.43599E-19
 -1      4226 9.45673E-05-2.75273E-05-2.87333E-05-3.10022E-07-2.73261E-18-1.11531E-19
 -1      4227 9.42992E-05-2.72180E-05-2.87455E-05-2.66396E-07-1.12766E-18-1.76365E-18
 -1      4228 9.46907E-05-2.76735E-05-2.87224E-05-2.74179E-07-3.06505E-18 7.59859E-19
 -1      4229 9.47855E-05-2.77986E-05-2.87101E-05-2.23859E-07-1.69817E-18 7.15665E-19
 -1      4230 9.45874E-05-2.75541E-05-2.87259E-05-2.00291E-07-2.03549E-18-1.58656E-18
 -1      4231 9.48757E-05-2.79129E-05-2.86988E-05-1.95315E-07-1.52435E-18-1.81929E-20
 -1      4232 9.49437E-05-2.80099E-05-2.86870E-05-1.56119E-07-7.85321E-19-9.46552E-19
 -1      4233 9.48005E-05-2.78199E-05-2.87040E-05-1.45595E-07-2.13476E-18-1.75297E-19
 -1      4234 9.50080E-05-2.80980E-05-2.86761E-05-1.33818E-07 1.08723E-19-2.12434E-18
 -1      4235 9.50559E-05-2.81721E-05-2.86652E-05-1.04102E-07 4.48219E-19-2.44915E-18
 -1      4236 9.49546E-05-2.80265E-05-2.86820E-05-1.01933E-07-1.02760E-18-1.61820E-18
 -1      4237 9.50995E-05-2.82380E-05-2.86552E-05-8.73624E-08 1.73047E-19-2.64784E-18
 -1      4238 9.51320E-05-2.82943E-05-2.86455E-05-6.36105E-08-2.05245E-19-2.26781E-18
 -1      4239 9.50631E-05-2.81848E-05-2.86611E-05-6.84021E-08 4.16111E-20-2.48619E-18
 -1      4240 9.51653E-05-2.83513E-05-2.86346E-05-4.26522E-08 7.33848E-19-1.24464E-18
 -1      4241 9.51859E-05-2.83915E-05-2.86262E-05-2.73653E-08 1.65687E-18-1.51091E-18
 -1      4242 7.79374E-05-2.11429E-05-2.43247E-05 1.18452E-05-8.20315E-20 1.47224E-18
 -1      4243 7.65173E-05-1.93753E-05-2.45662E-05 8.35546E-06-2.34274E-20 1.32972E-18
 -1      4244 9.10256E-05-2.44230E-05-2.85557E-05 2.42997E-06-8.13821E-19 6.93716E-19
 -1      4245 9.06279E-05-2.41583E-05-2.84839E-05 2.80193E-06-4.29599E-19 4.61270E-19
 -1      4246 8.92122E-05-2.18622E-05-2.88752E-05-5.24537E-06 2.98822E-19-6.83852E-19
 -1      4247 8.91032E-05-2.10157E-05-2.91669E-05-4.16943E-06 2.52596E-19-7.35295E-19
 -1      4248 8.82485E-05-2.03449E-05-2.91177E-05-3.40629E-06 1.07129E-19-9.95471E-19
 -1      4249 9.00446E-05-2.38643E-05-2.83779E-05 3.21387E-06-3.74184E-19 4.26404E-19
 -1      4250 8.96300E-05-2.36576E-05-2.82681E-05 3.69274E-06-3.49997E-19 2.16569E-19
 -1      4251 8.98139E-05-2.35750E-05-2.83702E-05 2.47386E-06-4.47698E-19-1.30393E-18
 -1      4252 9.26323E-05-2.56141E-05-2.87292E-05 1.37708E-06-1.46454E-18 1.76964E-18
 -1      4253 9.23190E-05-2.53358E-05-2.87067E-05 1.60541E-06-1.09771E-18 2.16335E-18
 -1      4254 9.32501E-05-2.61613E-05-2.87578E-05 1.02749E-06-1.35892E-18 9.99509E-19
 -1      4255 9.29865E-05-2.59043E-05-2.87496E-05 1.20679E-06-1.60947E-18 1.06231E-18
 -1      4256 9.26080E-05-2.55717E-05-2.87214E-05 9.88807E-07-1.21966E-18 1.35615E-18
 -1      4257 9.37529E-05-2.66475E-05-2.87637E-05 7.59652E-07-6.83192E-19 1.57253E-19
 -1      4258 9.35374E-05-2.64201E-05-2.87648E-05 9.00123E-07-1.05592E-18 1.36277E-19
 -1      4259 9.32472E-05-2.61487E-05-2.87500E-05 7.24019E-07-2.28116E-19-8.84214E-19
 -1      4260 9.41532E-05-2.70654E-05-2.87552E-05 5.54979E-07 9.24671E-19 7.96226E-19
 -1      4261 9.39813E-05-2.68707E-05-2.87621E-05 6.64493E-07 2.37680E-19 5.85592E-19
 -1      4262 9.37611E-05-2.66518E-05-2.87562E-05 5.26472E-07-3.05743E-19-1.47389E-18
 -1      4263 9.44650E-05-2.74146E-05-2.87383E-05 3.99316E-07 7.11389E-20 1.93200E-18
 -1      4264 9.43312E-05-2.72526E-05-2.87483E-05 4.84094E-07 2.97311E-19 1.31438E-18
 -1      4265 9.41661E-05-2.70783E-05-2.87482E-05 3.79056E-07 1.02659E-19-1.40675E-18
 -1      4266 9.47026E-05-2.76997E-05-2.87174E-05 2.81733E-07 3.69809E-19 3.29727E-18
 -1      4267 9.46009E-05-2.75679E-05-2.87287E-05 3.46776E-07 7.24143E-19 3.34961E-18
 -1      4268 9.44791E-05-2.74311E-05-2.87321E-05 2.69246E-07-7.37525E-19 1.37956E-18
 -1      4269 9.48796E-05-2.79273E-05-2.86952E-05 1.93650E-07-3.37068E-19 4.53160E-18
 -1      4270 9.48042E-05-2.78225E-05-2.87067E-05 2.43053E-07-2.12272E-19 3.75216E-18
 -1      4271 9.47158E-05-2.77167E-05-2.87120E-05 1.87800E-07 4.42430E-20 2.53731E-18
 -1      4272 9.50075E-05-2.81053E-05-2.86735E-05 1.28187E-07-1.72617E-19 5.38852E-18
 -1      4273 9.49536E-05-2.80234E-05-2.86844E-05 1.65705E-07-5.34828E-20 5.24784E-18
 -1      4274 9.48912E-05-2.79439E-05-2.86906E-05 1.28043E-07-7.32287E-19 4.88214E-18
 -1      4275 9.50982E-05-2.82418E-05-2.86534E-05 8.17373E-08 1.32720E-18 4.39283E-18
 -1      4276 9.50613E-05-2.81799E-05-2.86633E-05 1.08476E-07 1.08748E-18 5.74597E-18
 -1      4277 9.50176E-05-2.81209E-05-2.86696E-05 8.57711E-08 1.12338E-20 5.33205E-18
 -1      4278 8.71538E-05-1.91693E-05-2.91466E-05 3.41964E-07-1.70882E-19-1.27314E-18
 -1      4279 8.61529E-05-1.91931E-05-2.87204E-05 4.12406E-07-2.86671E-19-1.18454E-18
 -1      4280 7.83074E-05-1.95252E-05-2.51598E-05-7.21512E-06-3.95644E-19-8.35188E-19
 -1      4281 7.46113E-05-1.96695E-05-2.35517E-05-1.08531E-05-5.85159E-19-8.62200E-19
 -1      4282 8.21931E-05-2.41847E-05-2.48480E-05 1.36397E-05-6.36362E-20 1.26211E-18
 -1      4283 9.51418E-05-2.83160E-05-2.86399E-05-3.17132E-08 1.23437E-18 5.05173E-19
 -1      4284 7.76179E-05-2.16009E-05-2.39310E-05-1.31487E-05-7.69102E-19-8.17393E-19
 -1      4285 9.61725E-05-3.73471E-05-2.52376E-05-1.98899E-05-1.33494E-18-7.35473E-19
 -1      4286 8.89730E-05-2.34250E-05-2.81110E-05 4.25047E-06-4.33005E-19 2.93086E-19
 -1      4287 8.85801E-05-2.33325E-05-2.79522E-05 4.87348E-06-6.87667E-19 8.99809E-19
 -1      4288 8.85774E-05-2.29563E-05-2.81005E-05 3.35942E-06-5.64425E-20-7.31374E-19
 -1      4289 7.37215E-05-1.70183E-05-2.43337E-05 2.67301E-06 6.17216E-19 1.24366E-18
 -1      4290 8.02155E-05-1.83352E-05-2.65690E-05-1.64938E-07-3.95918E-19-8.93823E-19
 -1      4291 7.97913E-05-1.83667E-05-2.62404E-05-2.71438E-06-4.15873E-19-1.01826E-18
 -1      4292 8.21735E-05-1.86884E-05-2.72265E-05 1.22310E-08-4.69297E-19-8.42038E-19
 -1      4293 8.50884E-05-1.91315E-05-2.82804E-05 2.69527E-07-4.14671E-19-9.69861E-19
 -1      4294 8.36433E-05-1.89332E-05-2.77662E-05 2.35889E-07-4.56683E-19-9.36990E-19
 -1      4295 8.32315E-05-1.89306E-05-2.75048E-05-1.64844E-06-4.78129E-19-7.03963E-19
 -1      4296 8.57676E-05-1.92135E-05-2.84857E-05-1.02911E-06-1.99937E-19-1.03111E-18
 -1      4297 7.96758E-05-1.93826E-05-2.59344E-05-5.69098E-06-3.20920E-19-7.61723E-19
 -1      4298 8.09423E-05-2.08852E-05-2.56362E-05-9.49083E-06-5.21968E-19-3.17595E-19
 -1      4299 8.86767E-05-1.84270E-05-3.00900E-05-1.38208E-07 5.32952E-20-1.40266E-18
 -1      4300 8.99587E-05-2.48319E-05-2.78787E-05-9.28706E-06-6.41652E-20-7.95013E-19
 -1      4301 9.18913E-05-2.50237E-05-2.86667E-05 1.83330E-06-1.74237E-18 1.19327E-18
 -1      4302 9.15310E-05-2.47396E-05-2.86235E-05 2.12420E-06-1.63087E-18 1.28394E-18
 -1      4303 9.18289E-05-2.49322E-05-2.86591E-05 1.34447E-06-1.91463E-18 1.58240E-18
 -1      4304 8.78584E-05-2.32156E-05-2.77281E-05 5.64111E-06-1.37051E-18 8.13138E-19
 -1      4305 8.75502E-05-2.33305E-05-2.75084E-05 6.47125E-06-8.78469E-19 3.82426E-20
 -1      4306 8.71950E-05-2.24777E-05-2.77090E-05 4.57416E-06-1.06378E-18-4.12755E-19
 -1      4307 8.06897E-05-2.39040E-05-2.43989E-05-1.46431E-05-8.51017E-19-4.33158E-19
 -1      4308 8.41603E-05-2.41612E-05-2.56577E-05 1.17293E-05 2.86388E-19 9.39839E-19
 -1      4309 9.08992E-05-2.42535E-05-2.85484E-05 1.82400E-06-1.52638E-18 4.42977E-19
 -1      4310 8.88950E-05-2.24264E-05-2.85048E-05-6.23865E-06 2.46922E-19-7.28709E-19
 -1      4311 8.18131E-05-1.96397E-05-2.66678E-05-4.78267E-06-4.49927E-19-6.18140E-19
 -1      4312 8.48531E-05-2.49204E-05-2.57460E-05-1.29497E-05-6.73639E-19-5.39686E-19
 -1      4313 8.70520E-05-2.75445E-05-2.54245E-05-1.55516E-05-6.92578E-19-4.79861E-19
 -1      4314 7.66160E-05-1.73766E-05-2.53118E-05 2.67989E-07 6.95069E-19 1.16283E-18
 -1      4315 7.89437E-05-1.98192E-05-2.53598E-05 7.35055E-06 6.47157E-19 5.47765E-19
 -1      4316 7.62391E-05-1.80800E-05-2.48140E-05 5.51654E-06 6.26233E-19 8.22591E-19
 -1      4317 8.67973E-05-2.34029E-05-2.72001E-05 7.46592E-06 3.23138E-21-3.93871E-19
 -1      4318 8.66980E-05-2.38270E-05-2.69285E-05 8.58870E-06-5.72343E-20-4.07675E-19
 -1      4319 8.57702E-05-2.23416E-05-2.71626E-05 6.34321E-06-5.20196E-19 8.26105E-21
 -1      4320 8.82828E-05-2.63018E-05-2.66019E-05 1.14180E-05-2.66060E-19 5.33151E-19
 -1      4321 8.60106E-05-2.43104E-05-2.64495E-05-1.10089E-05-5.52294E-19-3.64534E-19
 -1      4322 9.51452E-05-2.83187E-05-2.86403E-05 5.68176E-08 1.63392E-18 2.57096E-18
 -1      4323 9.51254E-05-2.82823E-05-2.86469E-05 7.29061E-08 1.61072E-18 3.29645E-18
 -1      4324 9.50938E-05-2.82352E-05-2.86530E-05 5.88337E-08 2.25644E-18 5.73423E-18
 -1      4325 9.51420E-05-2.83145E-05-2.86404E-05 4.41505E-08 2.26966E-18 3.96382E-18
 -1      4326 9.52033E-05-2.84263E-05-2.86191E-05-2.59724E-08 1.82233E-18-7.62909E-19
 -1      4327 9.70688E-05-3.59313E-05-2.61744E-05-1.69432E-05-1.10630E-18-7.95764E-19
 -1      4328 9.45622E-05-3.26999E-05-2.65185E-05-1.52662E-05-9.55627E-19-9.30274E-19
 -1      4329 9.51274E-05-2.82939E-05-2.86429E-05-1.02181E-08 1.96562E-18 1.44491E-18
 -1      4330 9.51185E-05-2.82804E-05-2.86453E-05 5.55391E-09 2.49992E-18 9.98896E-19
 -1      4331 9.50897E-05-2.82290E-05-2.86542E-05-3.01734E-08 1.14036E-18-1.04318E-18
 -1      4332 8.81836E-05-1.87467E-05-2.97615E-05-7.68648E-07 2.81183E-20-1.33903E-18
 -1      4333 8.81847E-05-1.88033E-05-2.97500E-05 3.84172E-07-1.32101E-19-1.33887E-18
 -1      4334 8.59286E-05-2.32793E-05-2.69166E-05-9.42151E-06-3.17733E-19-4.04263E-19
 -1      4335 8.79823E-05-1.92843E-05-2.94253E-05-1.42071E-06 4.07107E-20-1.23830E-18
 -1      4336 7.62398E-05-1.76800E-05-2.51323E-05 2.15443E-06 1.00683E-18 9.60647E-19
 -1      4337 8.75214E-05-2.32307E-05-2.75762E-05-8.29106E-06-1.14839E-19-5.94812E-19
 -1      4338 8.77550E-05-2.25485E-05-2.79891E-05-7.03993E-06 1.71909E-20-6.24372E-19
 -1      4339 8.70481E-05-2.09771E-05-2.82787E-05-5.03668E-06 1.03010E-19-8.51940E-19
 -1      4340 8.42846E-05-2.08660E-05-2.70961E-05-6.73996E-06-3.26994E-19-3.44835E-19
 -1      4341 8.76077E-05-1.90556E-05-2.93937E-05 5.61618E-07-1.98366E-19-1.31317E-18
 -1      4342 8.71703E-05-1.90736E-05-2.91674E-05-5.28003E-07-6.69024E-20-1.25996E-18
 -1      4343 7.82899E-05-1.84012E-05-2.57211E-05 2.89526E-06 6.78145E-19 9.82381E-19
 -1      4344 8.27817E-05-2.18801E-05-2.60615E-05 8.73370E-06 4.88086E-19 2.15927E-19
 -1      4345 8.17045E-05-2.06127E-05-2.62245E-05 6.24568E-06 3.03273E-19 4.93114E-19
 -1      4346 8.30993E-05-2.00184E-05-2.70667E-05 1.65200E-06 7.33660E-20 1.14023E-18
 -1      4347 8.44955E-05-2.05441E-05-2.74131E-05 1.29590E-06-1.39128E-19 8.43420E-19
 -1      4348 8.55803E-05-2.10401E-05-2.76873E-05 8.91463E-07-1.26994E-19 6.41586E-19
 -1      4349 8.66996E-05-2.15709E-05-2.79199E-05 6.59758E-07 5.68323E-20 5.05528E-19
 -1      4350 8.54197E-05-2.10839E-05-2.75378E-05 2.33986E-06-3.54130E-19 4.84549E-19
 -1      4351 8.75989E-05-2.20574E-05-2.81077E-05 3.94690E-07 1.94112E-19 4.91561E-19
 -1      4352 8.84970E-05-2.25671E-05-2.82622E-05 2.60857E-07-3.12499E-19 3.74848E-19
 -1      4353 8.73717E-05-2.19652E-05-2.79961E-05 1.49038E-06-1.68080E-19 2.63432E-19
 -1      4354 8.92432E-05-2.30380E-05-2.83869E-05 8.99744E-08-1.14288E-18 4.78982E-19
 -1      4355 8.99666E-05-2.35128E-05-2.84859E-05 2.46577E-08-8.08362E-19 2.55655E-19
 -1      4356 8.89928E-05-2.28803E-05-2.83067E-05 9.34450E-07-5.74495E-19 4.23674E-19
 -1      4357 9.05830E-05-2.39530E-05-2.85652E-05-8.15411E-08-8.40777E-19-5.77175E-19
 -1      4358 9.11637E-05-2.43834E-05-2.86252E-05-1.01848E-07-7.37533E-19-7.71954E-19
 -1      4359 9.03354E-05-2.37644E-05-2.85099E-05 5.70717E-07-1.33622E-18-3.83933E-19
 -1      4360 9.16683E-05-2.47822E-05-2.86723E-05-1.65039E-07-4.86766E-19-1.41882E-18
 -1      4361 9.21313E-05-2.51626E-05-2.87052E-05-1.57824E-07-7.55498E-19-2.35444E-18
 -1      4362 9.14401E-05-2.45863E-05-2.86361E-05 3.36915E-07-1.31676E-18-1.80761E-18
 -1      4363 9.25394E-05-2.55139E-05-2.87300E-05-1.93273E-07 7.73704E-20-1.92036E-18
 -1      4364 9.29048E-05-2.58424E-05-2.87448E-05-1.70996E-07 8.84446E-19-2.09502E-18
 -1      4365 9.23391E-05-2.53262E-05-2.87081E-05 1.90268E-07 1.47276E-19-2.88913E-18
 -1      4366 9.32303E-05-2.61443E-05-2.87545E-05-1.89197E-07 2.59632E-19-1.73665E-18
 -1      4367 9.35153E-05-2.64219E-05-2.87574E-05-1.60286E-07-5.07296E-19-2.15070E-18
 -1      4368 9.30611E-05-2.59739E-05-2.87428E-05 1.01022E-07 5.39539E-19-2.82100E-18
 -1      4369 9.37710E-05-2.66757E-05-2.87575E-05-1.68255E-07-6.03078E-19-2.14514E-18
 -1      4370 9.39903E-05-2.69057E-05-2.87531E-05-1.38067E-07-6.05105E-19-2.45278E-18
 -1      4371 9.36325E-05-2.65272E-05-2.87528E-05 4.87088E-08-3.82203E-19-2.25854E-18
 -1      4372 9.41879E-05-2.71146E-05-2.87473E-05-1.40341E-07-9.65349E-19-1.89697E-18
 -1      4373 9.43540E-05-2.73017E-05-2.87388E-05-1.12001E-07-1.57666E-18-2.36473E-18
 -1      4374 9.40776E-05-2.69893E-05-2.87472E-05 1.95097E-08-5.29115E-19-2.91734E-18
 -1      4375 9.45041E-05-2.74705E-05-2.87298E-05-1.11405E-07-1.51083E-18-2.96320E-18
 -1      4376 9.46278E-05-2.76199E-05-2.87193E-05-8.64955E-08-1.36066E-18-1.86410E-18
 -1      4377 9.44185E-05-2.73676E-05-2.87325E-05 4.30843E-09-2.07292E-18-2.33821E-18
 -1      4378 9.47395E-05-2.77539E-05-2.87089E-05-8.46998E-08-2.02451E-18-1.08492E-18
 -1      4379 9.48299E-05-2.78712E-05-2.86978E-05-6.37976E-08-1.89994E-18-7.50929E-19
 -1      4380 9.46748E-05-2.76714E-05-2.87132E-05-2.77584E-09-8.78743E-19-2.51725E-18
 -1      4381 9.49114E-05-2.79762E-05-2.86871E-05-6.15813E-08-1.60064E-18-1.12598E-18
 -1      4382 9.49770E-05-2.80667E-05-2.86764E-05-4.48115E-08-1.08244E-18-2.01444E-18
 -1      4383 9.48632E-05-2.79109E-05-2.86922E-05-5.29447E-09-1.77425E-18-1.13971E-18
 -1      4384 9.50434E-05-2.81624E-05-2.86642E-05-4.23955E-08 2.91236E-19-1.12502E-18
 -1      4385 8.44578E-05-2.35207E-05-2.61344E-05 1.01978E-05 2.92889E-19 1.21609E-19
 -1      4386 8.73650E-05-2.05074E-05-2.86544E-05-3.85933E-06 1.95677E-19-1.08012E-18
 -1      4387 8.75648E-05-1.98825E-05-2.89899E-05-2.83769E-06 1.62530E-19-9.99795E-19
 -1      4388 8.61594E-05-2.04852E-05-2.81334E-05-4.45774E-06 1.11024E-20-9.57133E-19
 -1      4389 8.99609E-05-2.36208E-05-2.84462E-05 1.44314E-06-1.34216E-18-7.87787E-19
 -1      4390 8.93648E-05-2.32703E-05-2.83378E-05 1.78095E-06-4.21759E-19-8.42446E-19
 -1      4391 8.75320E-05-1.94638E-05-2.91828E-05-1.73041E-06 9.69377E-20-1.12294E-18
 -1      4392 9.34234E-05-2.63405E-05-2.87531E-05 3.47132E-07 1.14305E-19-2.54563E-18
 -1      4393 9.31351E-05-2.60728E-05-2.87457E-05 4.42791E-07 5.61263E-20-2.40940E-18
 -1      4394 9.28060E-05-2.57698E-05-2.87348E-05 4.97581E-07 2.51626E-19-2.08110E-18
 -1      4395 9.24496E-05-2.54646E-05-2.87139E-05 6.27935E-07-1.39137E-20-9.54273E-19
 -1      4396 9.42886E-05-2.72300E-05-2.87409E-05 1.65738E-07-1.16887E-18-9.59803E-19
 -1      4397 9.41109E-05-2.70403E-05-2.87474E-05 2.17551E-07-2.38803E-19-1.63975E-18
 -1      4398 9.45763E-05-2.75586E-05-2.87228E-05 1.12588E-07-4.64122E-19 1.36000E-19
 -1      4399 9.44408E-05-2.74043E-05-2.87322E-05 1.50700E-07-1.77959E-18-6.27190E-19
 -1      4400 9.47909E-05-2.78208E-05-2.87020E-05 7.49529E-08-8.77927E-19 1.08620E-18
 -1      4401 9.46898E-05-2.76977E-05-2.87125E-05 1.02920E-07-3.94616E-19 8.07003E-19
 -1      4402 9.49479E-05-2.80261E-05-2.86807E-05 5.02790E-08-1.08851E-18 1.74267E-18
 -1      4403 9.48735E-05-2.79293E-05-2.86913E-05 6.85017E-08-8.63162E-19 1.77077E-18
 -1      4404 9.50036E-05-2.81073E-05-2.86704E-05 3.66187E-08-5.53987E-20 2.29114E-18
 -1      4405 8.07317E-05-1.95214E-05-2.61783E-05 4.50033E-06 5.07664E-19 5.63568E-19
 -1      4406 8.04601E-05-1.91507E-05-2.63060E-05 2.76489E-06 6.51750E-19 5.38964E-19
 -1      4407 8.22204E-05-1.97249E-05-2.67922E-05 2.23444E-06 4.79004E-19 6.53179E-19
 -1      4408 8.36666E-05-2.12242E-05-2.67695E-05 5.78441E-06 6.83789E-21 5.39117E-19
 -1      4409 9.10959E-05-2.43929E-05-2.85973E-05 1.01346E-06-2.06143E-18-7.40229E-19
 -1      4410 9.05829E-05-2.40390E-05-2.85281E-05 1.25829E-06-1.54470E-18-8.90640E-19
 -1      4411 8.86127E-05-2.28377E-05-2.82100E-05 2.05379E-06 3.16479E-19-7.11657E-19
 -1      4412 8.79368E-05-2.25218E-05-2.80487E-05 2.52092E-06-2.86784E-20-4.70975E-19
 -1      4413 9.05061E-05-3.28005E-05-2.46325E-05-2.01554E-05-1.22449E-18-6.48412E-19
 -1      4414 9.09796E-05-3.00919E-05-2.61771E-05-1.53903E-05-5.53122E-19-6.94309E-19
 -1      4415 8.35714E-05-1.98815E-05-2.73424E-05-4.11437E-06-3.93955E-19-7.51180E-19
 -1      4416 9.20373E-05-2.51168E-05-2.86874E-05 7.10850E-07-9.88291E-19-1.30065E-18
 -1      4417 9.16053E-05-2.47808E-05-2.86466E-05 8.89111E-07-1.97662E-18-1.45371E-18
 -1      4418 8.70361E-05-2.20991E-05-2.78581E-05 2.92236E-06-5.25646E-19-5.78566E-19
 -1      4419 8.62860E-05-2.18404E-05-2.76268E-05 3.55668E-06-6.49731E-19 3.13461E-19
 -1      4420 9.39107E-05-2.68262E-05-2.87527E-05 2.40872E-07-1.20314E-19-2.10480E-18
 -1      4421 9.36821E-05-2.65981E-05-2.87540E-05 3.11239E-07-3.52433E-19-2.34359E-18
 -1      4422 8.65708E-05-1.95922E-05-2.87163E-05-1.96623E-06 1.19158E-19-9.91925E-19
 -1      4423 8.74503E-05-2.94120E-05-2.48445E-05-1.77946E-05-8.19336E-19-4.49606E-19
 -1      4424 8.44502E-05-2.12651E-05-2.71012E-05 4.78188E-06-1.11407E-19 2.61885E-19
 -1      4425 9.50957E-05-2.82412E-05-2.86519E-05 2.43968E-08 1.62224E-18 3.26017E-18
 -1      4426 9.50682E-05-2.81982E-05-2.86585E-05 3.16417E-08 8.34699E-19 3.11633E-18
 -1      4427 8.34900E-05-2.04641E-05-2.69920E-05 3.53849E-06 1.23991E-19 4.80602E-19
 -1      4428 9.50101E-05-2.81134E-05-2.86693E-05-3.77829E-09-2.84936E-19-1.26897E-18
 -1      4429 8.54910E-05-1.95927E-05-2.82695E-05-2.25515E-06-1.14311E-19-9.38919E-19
 -1      4430 8.50040E-05-2.00052E-05-2.78704E-05-3.56741E-06-3.21173E-19-7.69135E-19
 -1      4431 9.51401E-05-2.83143E-05-2.86401E-05 3.17414E-08 2.82625E-18 4.36264E-18
 -1      4432 8.52840E-05-2.14910E-05-2.73553E-05 4.15794E-06-4.56481E-19 1.75288E-19
 -3
    1PSTEP                         4           1           1          
  100CL  101 1.000000000        4432                     0    1           1
 -4  ERROR       1    1
 -5  STR(%)      1    1    0    0
 -1         1 1.27176E+01
 -1         2 2.44657E+01
 -1         3 6.87305E-04
 -1         4 7.37511E-04
 -1         5 1.37586E+01
 -1         6 1.28422E+01
 -1         7 1.28422E+01
 -1         8 3.53072E+00
 -1         9 1.82310E+00
 -1        10 1.32062E+00
 -1        11 1.05009E+00
 -1        12 8.67554E-01
 -1        13 7.33293E-01
 -1        14 6.39205E-01
 -1        15 6.56225E-01
 -1        16 7.55925E-01
 -1        17 8.83322E-01
 -1        18 1.07179E+00
 -1        19 1.34526E+00
 -1        20 1.83435E+00
 -1        21 3.39054E+00
 -1        22 8.35163E+00
 -1        23 1.28422E+01
 -1        24 4.23713E+00
 -1        25 3.14736E+00
 -1        26 1.93174E+00
 -1        27 1.44118E+00
 -1        28 1.10476E+00
 -1        29 9.70940E-01
 -1        30 1.06109E+00
 -1        31 1.17108E+00
 -1        32 1.56306E+00
 -1        33 1.92088E+00
 -1        34 2.07224E+00
 -1        35 2.07224E+00
 -1        36 1.97485E+00
 -1        37 2.38394E+00
 -1        38 4.15810E+00
 -1        39 5.81873E+00
 -1        40 5.84835E+00
 -1        41 5.84835E+00
 -1        42 5.22604E+00
 -1        43 2.85792E+00
 -1        44 2.05555E+00
 -1        45 2.05555E+00
 -1        46 2.04280E+00
 -1        47 2.04280E+00
 -1        48 1.78858E+00
 -1        49 1.43014E+00
 -1        50 1.13757E+00
 -1        51 8.72464E-01
 -1        52 6.96228E-01
 -1        53 5.68424E-01
 -1        54 4.49902E-01
 -1        55 3.47208E-01
 -1        56 2.62086E-01
 -1        57 1.93717E-01
 -1        58 1.40119E-01
 -1        59 1.09445E-01
 -1        60 8.92464E-02
 -1        61 7.13437E-02
 -1        62 5.59161E-02
 -1        63 4.28927E-02
 -1        64 3.20606E-02
 -1        65 2.34321E-02
 -1        66 1.90765E-02
 -1        67 1.47900E-02
 -1        68 1.06193E-02
 -1        69 6.68455E-03
 -1        70 5.35135E-03
 -1        71 3.53757E-03
 -1        72 1.37586E+01
 -1        73 3.36913E+00
 -1        74 2.32572E+00
 -1        75 1.54718E+00
 -1        76 1.27099E+00
 -1        77 1.04418E+00
 -1        78 8.33427E-01
 -1        79 6.17161E-01
 -1        80 5.89733E-01
 -1        81 5.92705E-01
 -1        82 6.65522E-01
 -1        83 8.54936E-01
 -1        84 9.70212E-01
 -1        85 1.16965E+00
 -1        86 1.35649E+00
 -1        87 1.94348E+00
 -1        88 2.47741E+00
 -1        89 2.71943E+00
 -1        90 2.90957E+00
 -1        91 2.90957E+00
 -1        92 2.43060E+00
 -1        93 1.60549E+00
 -1        94 1.05293E+00
 -1        95 7.19940E-01
 -1        96 7.73105E-01
 -1        97 8.36924E-01
 -1        98 8.36924E-01
 -1        99 7.92490E-01
 -1       100 6.89834E-01
 -1       101 5.79453E-01
 -1       102 4.73102E-01
 -1       103 3.69064E-01
 -1       104 2.75922E-01
 -1       105 2.18223E-01
 -1       106 1.69794E-01
 -1       107 1.28088E-01
 -1       108 9.36529E-02
 -1       109 6.61762E-02
 -1       110 4.53507E-02
 -1       111 3.83433E-02
 -1       112 3.14511E-02
 -1       113 2.50378E-02
 -1       114 1.92675E-02
 -1       115 1.69338E-02
 -1       116 1.43234E-02
 -1       117 1.12765E-02
 -1       118 7.88188E-03
 -1       119 5.14119E-03
 -1       120 3.33813E-03
 -1       121 1.56294E-03
 -1       122 1.16018E-03
 -1       123 4.60339E-04
 -1       124 4.82110E-04
 -1       125 6.13866E-04
 -1       126 6.53171E-04
 -1       127 6.54499E-04
 -1       128 6.54499E-04
 -1       129 6.68745E-04
 -1       130 6.74030E-04
 -1       131 6.74030E-04
 -1       132 6.42257E-04
 -1       133 5.09321E-04
 -1       134 5.29386E-04
 -1       135 1.56472E-03
 -1       136 2.40584E-03
 -1       137 2.45178E+01
 -1       138 4.69753E+01
 -1       139 4.69753E+01
 -1       140 2.04133E+01
 -1       141 1.29440E+01
 -1       142 1.29440E+01
 -1       143 1.20207E+01
 -1       144 1.31033E+01
 -1       145 1.31033E+01
 -1       146 1.19753E+01
 -1       147 2.94598E+01
 -1       148 3.20011E+01
 -1       149 2.85927E+01
 -1       150 2.48552E+01
 -1       151 2.51459E+01
 -1       152 2.51459E+01
 -1       153 4.13190E+01
 -1       154 4.13190E+01
 -1       155 1.54386E+01
 -1       156 1.22371E+01
 -1       157 1.27176E+01
 -1       158 1.24252E+01
 -1       159 1.24252E+01
 -1       160 1.23742E+01
 -1       161 2.76622E+01
 -1       162 2.91182E+01
 -1       163 2.82308E+01
 -1       164 2.46331E+01
 -1       165 5.84429E+00
 -1       166 2.30697E+00
 -1       167 1.55535E+00
 -1       168 1.18675E+00
 -1       169 9.59017E-01
 -1       170 8.04162E-01
 -1       171 6.91562E-01
 -1       172 6.28335E-01
 -1       173 7.10730E-01
 -1       174 8.22794E-01
 -1       175 9.82300E-01
 -1       176 1.20957E+00
 -1       177 1.58070E+00
 -1       178 2.29671E+00
 -1       179 3.81460E+00
 -1       180 1.37586E+01
 -1       181 4.23713E+00
 -1       182 3.14736E+00
 -1       183 1.93174E+00
 -1       184 1.44118E+00
 -1       185 1.10476E+00
 -1       186 8.52688E-01
 -1       187 9.70940E-01
 -1       188 1.06109E+00
 -1       189 1.23480E+00
 -1       190 1.56306E+00
 -1       191 1.92088E+00
 -1       192 2.07224E+00
 -1       193 1.97485E+00
 -1       194 1.86156E+00
 -1       195 2.38394E+00
 -1       196 4.15810E+00
 -1       197 5.81873E+00
 -1       198 5.84835E+00
 -1       199 5.22604E+00
 -1       200 3.10110E+00
 -1       201 1.99842E+00
 -1       202 2.05555E+00
 -1       203 1.99231E+00
 -1       204 2.04280E+00
 -1       205 1.78858E+00
 -1       206 1.47670E+00
 -1       207 1.27217E+00
 -1       208 1.07258E+00
 -1       209 8.58055E-01
 -1       210 6.58879E-01
 -1       211 4.88798E-01
 -1       212 3.51327E-01
 -1       213 2.69093E-01
 -1       214 2.05088E-01
 -1       215 1.53324E-01
 -1       216 1.12391E-01
 -1       217 8.92464E-02
 -1       218 7.13437E-02
 -1       219 5.59161E-02
 -1       220 4.28927E-02
 -1       221 3.20606E-02
 -1       222 2.42109E-02
 -1       223 1.90765E-02
 -1       224 1.47900E-02
 -1       225 1.06193E-02
 -1       226 7.20912E-03
 -1       227 5.35135E-03
 -1       228 3.53757E-03
 -1       229 3.36913E+00
 -1       230 2.32572E+00
 -1       231 1.54718E+00
 -1       232 1.27099E+00
 -1       233 1.04418E+00
 -1       234 8.33427E-01
 -1       235 6.17161E-01
 -1       236 5.89733E-01
 -1       237 5.45049E-01
 -1       238 5.92705E-01
 -1       239 6.65522E-01
 -1       240 8.54936E-01
 -1       241 9.70212E-01
 -1       242 1.16965E+00
 -1       243 1.43536E+00
 -1       244 1.94348E+00
 -1       245 2.47741E+00
 -1       246 2.71943E+00
 -1       247 2.90957E+00
 -1       248 2.43060E+00
 -1       249 1.60549E+00
 -1       250 1.05293E+00
 -1       251 6.71855E-01
 -1       252 7.19940E-01
 -1       253 7.73105E-01
 -1       254 8.36924E-01
 -1       255 7.92490E-01
 -1       256 6.89834E-01
 -1       257 5.79453E-01
 -1       258 4.80578E-01
 -1       259 3.86994E-01
 -1       260 2.98969E-01
 -1       261 2.21990E-01
 -1       262 1.69794E-01
 -1       263 1.28088E-01
 -1       264 9.41043E-02
 -1       265 6.85113E-02
 -1       266 4.82460E-02
 -1       267 3.83433E-02
 -1       268 3.14511E-02
 -1       269 2.50378E-02
 -1       270 1.92675E-02
 -1       271 1.69338E-02
 -1       272 1.43234E-02
 -1       273 1.12765E-02
 -1       274 7.88188E-03
 -1       275 5.14119E-03
 -1       276 3.33813E-03
 -1       277 1.18098E-03
 -1       278 9.40989E-04
 -1       279 8.03319E-04
 -1       280 1.03292E-03
 -1       281 1.11530E-03
 -1       282 1.12057E-03
 -1       283 1.12057E-03
 -1       284 1.14008E-03
 -1       285 1.16071E-03
 -1       286 1.16933E-03
 -1       287 1.16933E-03
 -1       288 1.09264E-03
 -1       289 8.36289E-04
 -1       290 7.90412E-04
 -1       291 2.23897E-03
 -1       292 3.25353E+01
 -1       293 2.81524E+01
 -1       294 4.69753E+01
 -1       295 2.10121E+01
 -1       296 1.14761E+01
 -1       297 1.29440E+01
 -1       298 1.20207E+01
 -1       299 1.19628E+01
 -1       300 1.31033E+01
 -1       301 1.18767E+01
 -1       302 1.19753E+01
 -1       303 3.20011E+01
 -1       304 3.20011E+01
 -1       305 2.52308E+01
 -1       306 2.72309E+01
 -1       307 2.72309E+01
 -1       308 3.61649E+01
 -1       309 4.13190E+01
 -1       310 1.56353E+01
 -1       311 1.09613E+01
 -1       312 1.22371E+01
 -1       313 1.27176E+01
 -1       314 1.21248E+01
 -1       315 1.24252E+01
 -1       316 1.12339E+01
 -1       317 1.23742E+01
 -1       318 2.91182E+01
 -1       319 3.31288E+01
 -1       320 3.31288E+01
 -1       321 3.25353E+01
 -1       322 1.11954E+00
 -1       323 2.38421E+00
 -1       324 8.14781E-01
 -1       325 6.86314E-01
 -1       326 5.86200E-01
 -1       327 5.07236E-01
 -1       328 5.26191E-01
 -1       329 6.05363E-01
 -1       330 7.08307E-01
 -1       331 8.32137E-01
 -1       332 9.86081E-01
 -1       333 1.20071E+00
 -1       334 1.33266E+00
 -1       335 2.02589E+00
 -1       336 1.68785E+00
 -1       337 1.49822E+00
 -1       338 9.54700E-01
 -1       339 7.19681E-01
 -1       340 5.52019E-01
 -1       341 6.75087E-01
 -1       342 8.54409E-01
 -1       343 1.08352E+00
 -1       344 1.24912E+00
 -1       345 1.46044E+00
 -1       346 1.54155E+00
 -1       347 1.56837E+00
 -1       348 1.70133E+00
 -1       349 1.86687E+00
 -1       350 2.37478E+00
 -1       351 3.15784E+00
 -1       352 4.02028E+00
 -1       353 3.78263E+00
 -1       354 2.74005E+00
 -1       355 2.07384E+00
 -1       356 1.80762E+00
 -1       357 1.56809E+00
 -1       358 1.66727E+00
 -1       359 1.59864E+00
 -1       360 1.46040E+00
 -1       361 1.32791E+00
 -1       362 1.17041E+00
 -1       363 9.76013E-01
 -1       364 7.80846E-01
 -1       365 6.04602E-01
 -1       366 4.55438E-01
 -1       367 3.34613E-01
 -1       368 2.39848E-01
 -1       369 1.67410E-01
 -1       370 1.13267E-01
 -1       371 8.06264E-02
 -1       372 5.81460E-02
 -1       373 4.30659E-02
 -1       374 3.52706E-02
 -1       375 2.81029E-02
 -1       376 2.17022E-02
 -1       377 1.60972E-02
 -1       378 1.21160E-02
 -1       379 9.53996E-03
 -1       380 6.82644E-03
 -1       381 4.66005E-03
 -1       382 3.02092E-03
 -1       383 1.01271E+00
 -1       384 6.71332E-01
 -1       385 6.25849E-01
 -1       386 5.46008E-01
 -1       387 4.61846E-01
 -1       388 4.54007E-01
 -1       389 4.41344E-01
 -1       390 4.02740E-01
 -1       391 3.52534E-01
 -1       392 3.73015E-01
 -1       393 7.51720E-01
 -1       394 1.16602E+00
 -1       395 1.50934E+00
 -1       396 1.59468E+00
 -1       397 1.59468E+00
 -1       398 1.60129E+00
 -1       399 1.79637E+00
 -1       400 1.66900E+00
 -1       401 1.22996E+00
 -1       402 8.05745E-01
 -1       403 5.23422E-01
 -1       404 4.35421E-01
 -1       405 5.48074E-01
 -1       406 5.92535E-01
 -1       407 6.08466E-01
 -1       408 5.65655E-01
 -1       409 5.05763E-01
 -1       410 4.39084E-01
 -1       411 3.62929E-01
 -1       412 2.87758E-01
 -1       413 2.19698E-01
 -1       414 1.62560E-01
 -1       415 1.25471E-01
 -1       416 9.41043E-02
 -1       417 6.85113E-02
 -1       418 4.82460E-02
 -1       419 3.26199E-02
 -1       420 2.38580E-02
 -1       421 2.00362E-02
 -1       422 1.61406E-02
 -1       423 1.23940E-02
 -1       424 9.00177E-03
 -1       425 7.59186E-03
 -1       426 5.74124E-03
 -1       427 4.27209E-03
 -1       428 2.88728E-03
 -1       429 1.39952E-03
 -1       430 1.84935E-03
 -1       431 2.26666E-03
 -1       432 1.41971E-03
 -1       433 1.41971E-03
 -1       434 1.34859E-03
 -1       435 1.28889E-03
 -1       436 1.33765E-03
 -1       437 1.40215E-03
 -1       438 1.52474E-03
 -1       439 1.52474E-03
 -1       440 1.49417E-03
 -1       441 2.55095E-03
 -1       442 2.81524E+01
 -1       443 3.25353E+01
 -1       444 2.93037E+01
 -1       445 1.62883E+01
 -1       446 9.19975E+00
 -1       447 9.62811E-01
 -1       448 1.03285E+01
 -1       449 1.10208E+01
 -1       450 1.05310E+01
 -1       451 7.98412E+00
 -1       452 6.79848E+00
 -1       453 1.10568E+01
 -1       454 2.06513E+01
 -1       455 2.30761E+01
 -1       456 3.57878E+01
 -1       457 3.57878E+01
 -1       458 2.78037E+01
 -1       459 2.45855E+01
 -1       460 1.43321E+01
 -1       461 7.91289E+00
 -1       462 8.12965E+00
 -1       463 9.46039E+00
 -1       464 1.14266E+01
 -1       465 1.08922E+01
 -1       466 8.93526E+00
 -1       467 6.94607E+00
 -1       468 1.15905E+01
 -1       469 2.05542E+01
 -1       470 3.31288E+01
 -1       471 3.18144E+01
 -1       472 6.76873E+00
 -1       473 1.12048E+01
 -1       474 8.50532E+00
 -1       475 8.18803E-01
 -1       476 4.75010E-01
 -1       477 5.40305E-01
 -1       478 3.61437E-01
 -1       479 4.26712E-01
 -1       480 4.97181E-01
 -1       481 5.55960E-01
 -1       482 5.80034E-01
 -1       483 7.75451E-01
 -1       484 5.94806E-01
 -1       485 6.00387E-01
 -1       486 3.83284E+00
 -1       487 4.04517E-01
 -1       488 3.51170E-01
 -1       489 5.24174E-01
 -1       490 7.41804E-01
 -1       491 9.83056E-01
 -1       492 1.22318E+00
 -1       493 1.42707E+00
 -1       494 1.71128E+00
 -1       495 2.11671E+00
 -1       496 2.49040E+00
 -1       497 2.92732E+00
 -1       498 3.42658E+00
 -1       499 2.91598E+00
 -1       500 4.45070E+00
 -1       501 6.27791E+00
 -1       502 5.19411E+00
 -1       503 2.94783E+00
 -1       504 3.46577E+00
 -1       505 2.73607E+00
 -1       506 2.41377E+00
 -1       507 2.01814E+00
 -1       508 1.64741E+00
 -1       509 1.47369E+00
 -1       510 1.27284E+00
 -1       511 1.05739E+00
 -1       512 8.52351E-01
 -1       513 6.70460E-01
 -1       514 5.16419E-01
 -1       515 3.90211E-01
 -1       516 2.89399E-01
 -1       517 2.10536E-01
 -1       518 1.49967E-01
 -1       519 1.04252E-01
 -1       520 7.03507E-02
 -1       521 4.56837E-02
 -1       522 2.91659E-02
 -1       523 1.97100E-02
 -1       524 1.68420E-02
 -1       525 1.38110E-02
 -1       526 1.07683E-02
 -1       527 7.88334E-03
 -1       528 5.68967E-03
 -1       529 4.15005E-03
 -1       530 3.26758E-01
 -1       531 3.32866E-01
 -1       532 3.42185E-01
 -1       533 4.07488E-01
 -1       534 4.34202E-01
 -1       535 5.26387E-01
 -1       536 6.14107E-01
 -1       537 7.46081E-01
 -1       538 1.00867E+00
 -1       539 1.30537E+00
 -1       540 1.50934E+00
 -1       541 1.60775E+00
 -1       542 1.47131E+00
 -1       543 1.60129E+00
 -1       544 1.49136E+00
 -1       545 1.27122E+00
 -1       546 9.47721E-01
 -1       547 6.39938E-01
 -1       548 5.95893E-01
 -1       549 5.22108E-01
 -1       550 5.79938E-01
 -1       551 5.74566E-01
 -1       552 5.40016E-01
 -1       553 4.94411E-01
 -1       554 4.39147E-01
 -1       555 3.74289E-01
 -1       556 3.06120E-01
 -1       557 2.41554E-01
 -1       558 1.84408E-01
 -1       559 1.36280E-01
 -1       560 9.73242E-02
 -1       561 6.68542E-02
 -1       562 4.51952E-02
 -1       563 3.16671E-02
 -1       564 2.38580E-02
 -1       565 2.00362E-02
 -1       566 1.61406E-02
 -1       567 1.23940E-02
 -1       568 8.93193E-03
 -1       569 6.98131E-03
 -1       570 5.07263E-03
 -1       571 3.46168E-03
 -1       572 1.71958E-03
 -1       573 1.46293E-03
 -1       574 2.86550E-03
 -1       575 1.94955E-03
 -1       576 1.28889E-03
 -1       577 1.28863E-03
 -1       578 1.33981E-03
 -1       579 1.55665E-03
 -1       580 2.12121E-03
 -1       581 2.12121E-03
 -1       582 2.02604E-03
 -1       583 1.31267E+01
 -1       584 3.18144E+01
 -1       585 4.26432E-01
 -1       586 2.93037E+01
 -1       587 8.52156E+00
 -1       588 1.47145E+01
 -1       589 8.02361E+00
 -1       590 4.04362E-01
 -1       591 7.30045E+00
 -1       592 3.57878E+01
 -1       593 4.96578E+00
 -1       594 7.51083E+00
 -1       595 4.91019E+00
 -1       596 1.44947E+01
 -1       597 2.30761E+01
 -1       598 2.78037E+01
 -1       599 1.78956E+01
 -1       600 1.13837E+01
 -1       601 7.74910E+00
 -1       602 4.47545E+00
 -1       603 6.15455E+00
 -1       604 7.66308E+00
 -1       605 6.04046E+00
 -1       606 3.64434E+00
 -1       607 7.12548E+00
 -1       608 8.59336E+00
 -1       609 2.10811E+01
 -1       610 1.82888E+01
 -1       611 8.61701E-01
 -1       612 1.16201E+00
 -1       613 5.29444E+00
 -1       614 5.40305E-01
 -1       615 2.71513E-03
 -1       616 5.84264E+00
 -1       617 5.81578E-01
 -1       618 6.67061E+00
 -1       619 1.38477E+01
 -1       620 9.71629E+00
 -1       621 3.51354E-01
 -1       622 2.88898E-01
 -1       623 4.28458E-01
 -1       624 4.73522E-01
 -1       625 4.28023E-01
 -1       626 1.48616E+01
 -1       627 4.36266E-01
 -1       628 4.22559E-01
 -1       629 4.84508E-01
 -1       630 6.12885E-01
 -1       631 8.35639E-01
 -1       632 1.12481E+00
 -1       633 1.48626E+00
 -1       634 1.91957E+00
 -1       635 2.38775E+00
 -1       636 3.16271E+00
 -1       637 4.25591E+00
 -1       638 5.21240E+00
 -1       639 5.88318E+00
 -1       640 4.46128E+00
 -1       641 3.95534E+00
 -1       642 2.75727E+00
 -1       643 2.25702E+00
 -1       644 1.82122E+00
 -1       645 1.43755E+00
 -1       646 1.13395E+00
 -1       647 8.85241E-01
 -1       648 6.83956E-01
 -1       649 5.27829E-01
 -1       650 4.03532E-01
 -1       651 3.04982E-01
 -1       652 2.27431E-01
 -1       653 1.67009E-01
 -1       654 1.20487E-01
 -1       655 8.51410E-02
 -1       656 5.86879E-02
 -1       657 3.92270E-02
 -1       658 2.51960E-02
 -1       659 1.53260E-02
 -1       660 9.53104E-03
 -1       661 8.07088E-03
 -1       662 6.80541E-03
 -1       663 5.30075E-03
 -1       664 3.78248E-03
 -1       665 3.77599E-01
 -1       666 1.55409E+01
 -1       667 3.03602E-01
 -1       668 5.60134E-01
 -1       669 6.26476E-01
 -1       670 7.96014E-01
 -1       671 1.00287E+00
 -1       672 1.07961E+00
 -1       673 1.37738E+00
 -1       674 1.41838E+00
 -1       675 1.94978E+00
 -1       676 2.08657E+00
 -1       677 2.02145E+00
 -1       678 1.94712E+00
 -1       679 1.37462E+00
 -1       680 1.48987E+00
 -1       681 1.12135E+00
 -1       682 9.74447E-01
 -1       683 7.92165E-01
 -1       684 7.46747E-01
 -1       685 6.90062E-01
 -1       686 6.07128E-01
 -1       687 5.32720E-01
 -1       688 4.74291E-01
 -1       689 4.05821E-01
 -1       690 3.35371E-01
 -1       691 2.68962E-01
 -1       692 2.09913E-01
 -1       693 1.59628E-01
 -1       694 1.18260E-01
 -1       695 8.52193E-02
 -1       696 5.95311E-02
 -1       697 4.00758E-02
 -1       698 2.57369E-02
 -1       699 1.58147E-02
 -1       700 1.11661E-02
 -1       701 9.75479E-03
 -1       702 7.97411E-03
 -1       703 6.05631E-03
 -1       704 4.20113E-03
 -1       705 3.36568E-03
 -1       706 1.17587E-03
 -1       707 3.07893E-03
 -1       708 1.58603E-03
 -1       709 1.23620E-03
 -1       710 1.25552E-03
 -1       711 2.30896E-01
 -1       712 1.33981E-03
 -1       713 1.61732E-03
 -1       714 3.07893E-03
 -1       715 1.33127E+01
 -1       716 3.32720E+00
 -1       717 6.49298E+00
 -1       718 4.68800E-01
 -1       719 4.12725E-01
 -1       720 3.99150E-01
 -1       721 3.66987E-01
 -1       722 1.24034E+01
 -1       723 2.10015E+00
 -1       724 2.94506E-01
 -1       725 1.17407E+01
 -1       726 1.49321E+01
 -1       727 5.49034E+00
 -1       728 1.19226E+01
 -1       729 2.28828E+00
 -1       730 1.72075E+01
 -1       731 1.00120E+01
 -1       732 7.07120E+00
 -1       733 3.63618E+00
 -1       734 3.86369E+00
 -1       735 9.36464E+00
 -1       736 8.04948E+00
 -1       737 4.90876E+00
 -1       738 4.98128E+00
 -1       739 4.65513E-01
 -1       740 2.54394E-01
 -1       741 1.98917E-03
 -1       742 2.38013E-03
 -1       743 5.88318E+00
 -1       744 3.66460E+00
 -1       745 6.14883E+00
 -1       746 1.10308E+01
 -1       747 3.13146E-01
 -1       748 6.93612E+00
 -1       749 3.21614E+00
 -1       750 4.45070E+00
 -1       751 3.87563E-01
 -1       752 6.21417E-01
 -1       753 7.96886E-01
 -1       754 1.05974E+00
 -1       755 1.39531E+00
 -1       756 1.91906E+00
 -1       757 2.83085E+00
 -1       758 4.18946E+00
 -1       759 5.49310E+00
 -1       760 9.14631E+00
 -1       761 2.80891E+00
 -1       762 4.46938E+00
 -1       763 3.54982E+00
 -1       764 2.39752E+00
 -1       765 1.75352E+00
 -1       766 1.35191E+00
 -1       767 1.06868E+00
 -1       768 8.31627E-01
 -1       769 6.37334E-01
 -1       770 4.81663E-01
 -1       771 3.58968E-01
 -1       772 2.63557E-01
 -1       773 1.90293E-01
 -1       774 1.34748E-01
 -1       775 9.45792E-02
 -1       776 6.54395E-02
 -1       777 4.40460E-02
 -1       778 2.92697E-02
 -1       779 1.93049E-02
 -1       780 1.22301E-02
 -1       781 7.35708E-03
 -1       782 4.60115E-03
 -1       783 4.03966E-03
 -1       784 3.43347E-03
 -1       785 1.22540E-03
 -1       786 9.64979E-01
 -1       787 8.00586E-01
 -1       788 1.56153E+00
 -1       789 1.64227E+00
 -1       790 2.53964E+00
 -1       791 2.80891E+00
 -1       792 3.43820E+00
 -1       793 2.48007E+00
 -1       794 4.98128E+00
 -1       795 3.04190E+00
 -1       796 2.33936E+00
 -1       797 1.69038E+00
 -1       798 1.18014E+00
 -1       799 1.18995E+00
 -1       800 1.06088E+00
 -1       801 8.96027E-01
 -1       802 7.32652E-01
 -1       803 6.24018E-01
 -1       804 5.32257E-01
 -1       805 4.43618E-01
 -1       806 3.58806E-01
 -1       807 2.83452E-01
 -1       808 2.20895E-01
 -1       809 1.69018E-01
 -1       810 1.26908E-01
 -1       811 9.33911E-02
 -1       812 6.72166E-02
 -1       813 4.71664E-02
 -1       814 3.21189E-02
 -1       815 2.10795E-02
 -1       816 1.31930E-02
 -1       817 7.74282E-03
 -1       818 5.27556E-03
 -1       819 4.80511E-03
 -1       820 3.93155E-03
 -1       821 2.76539E-03
 -1       822 2.48001E-01
 -1       823 3.35810E-01
 -1       824 1.22485E-03
 -1       825 1.87582E-03
 -1       826 1.40444E-03
 -1       827 4.26214E-01
 -1       828 1.15616E+00
 -1       829 4.38593E+00
 -1       830 5.08616E+00
 -1       831 8.56962E+00
 -1       832 9.82684E+00
 -1       833 5.06638E-01
 -1       834 1.00408E+01
 -1       835 3.63618E+00
 -1       836 8.56962E+00
 -1       837 3.03568E-01
 -1       838 6.64624E+00
 -1       839 9.15581E+00
 -1       840 8.43038E+00
 -1       841 6.78245E+00
 -1       842 3.82560E+00
 -1       843 4.05567E-01
 -1       844 1.59542E-01
 -1       845 3.77629E-01
 -1       846 2.28828E+00
 -1       847 2.11317E-03
 -1       848 4.65513E-01
 -1       849 6.33221E-01
 -1       850 3.29558E-01
 -1       851 1.28216E-03
 -1       852 1.22485E-03
 -1       853 5.04734E+00
 -1       854 3.78247E+00
 -1       855 9.82684E+00
 -1       856 4.93837E-01
 -1       857 3.23911E+00
 -1       858 6.49193E+00
 -1       859 5.54741E+00
 -1       860 3.81764E-01
 -1       861 3.04190E+00
 -1       862 6.56643E+00
 -1       863 3.05953E-01
 -1       864 7.03335E+00
 -1       865 4.65513E-01
 -1       866 6.43411E+00
 -1       867 1.01246E+00
 -1       868 1.39531E+00
 -1       869 1.91906E+00
 -1       870 2.68453E+00
 -1       871 3.34500E+00
 -1       872 5.49747E+00
 -1       873 4.95249E+00
 -1       874 3.33229E+00
 -1       875 2.35776E+00
 -1       876 1.75352E+00
 -1       877 1.31179E+00
 -1       878 9.87794E-01
 -1       879 7.47332E-01
 -1       880 5.65411E-01
 -1       881 4.26114E-01
 -1       882 3.18767E-01
 -1       883 2.35981E-01
 -1       884 1.72379E-01
 -1       885 1.23868E-01
 -1       886 8.72373E-02
 -1       887 6.02590E-02
 -1       888 4.12807E-02
 -1       889 2.73608E-02
 -1       890 1.73543E-02
 -1       891 1.04140E-02
 -1       892 5.71626E-03
 -1       893 3.16912E-03
 -1       894 2.67182E-03
 -1       895 2.97817E+00
 -1       896 2.53964E+00
 -1       897 2.72828E+00
 -1       898 1.56924E+00
 -1       899 1.74108E+00
 -1       900 1.18277E+00
 -1       901 9.59715E-01
 -1       902 7.83801E-01
 -1       903 6.20779E-01
 -1       904 4.94116E-01
 -1       905 3.94298E-01
 -1       906 3.19412E-01
 -1       907 2.56937E-01
 -1       908 2.00954E-01
 -1       909 1.53071E-01
 -1       910 1.13554E-01
 -1       911 8.19056E-02
 -1       912 5.76616E-02
 -1       913 3.99212E-02
 -1       914 2.66071E-02
 -1       915 1.68766E-02
 -1       916 1.00328E-02
 -1       917 5.81400E-03
 -1       918 3.42943E-03
 -1       919 2.72721E-03
 -1       920 2.11387E-03
 -1       921 6.43411E+00
 -1       922 4.20944E-01
 -1       923 1.92783E-01
 -1       924 6.20886E+00
 -1       925 5.40025E-01
 -1       926 2.71946E-03
 -1       927 6.79972E+00
 -1       928 1.14422E+00
 -1       929 7.36369E-01
 -1       930 3.13497E+00
 -1       931 2.11350E+00
 -1       932 3.81764E-01
 -1       933 8.73085E-01
 -1       934 2.26355E-03
 -1       935 4.48037E-01
 -1       936 3.52626E-01
 -1       937 2.87673E+00
 -1       938 4.87021E+00
 -1       939 3.84428E-03
 -1       940 5.37094E-01
 -1       941 3.15320E-01
 -1       942 2.57648E-03
 -1       943 4.61216E+00
 -1       944 3.50719E+00
 -1       945 5.58483E+00
 -1       946 4.75207E+00
 -1       947 1.49619E+00
 -1       948 6.20886E+00
 -1       949 3.61816E+00
 -1       950 3.90400E-01
 -1       951 2.79518E-01
 -1       952 4.84623E-03
 -1       953 2.67827E-01
 -1       954 2.47822E+00
 -1       955 3.36128E+00
 -1       956 1.14568E+00
 -1       957 1.63242E+00
 -1       958 3.60975E+00
 -1       959 5.74998E+00
 -1       960 3.60887E+00
 -1       961 4.32337E+00
 -1       962 2.49521E+00
 -1       963 3.20849E+00
 -1       964 2.11734E+00
 -1       965 1.46744E+00
 -1       966 1.05448E+00
 -1       967 7.81092E-01
 -1       968 5.88018E-01
 -1       969 4.45655E-01
 -1       970 3.37566E-01
 -1       971 2.54195E-01
 -1       972 1.89542E-01
 -1       973 1.39483E-01
 -1       974 1.00974E-01
 -1       975 7.16458E-02
 -1       976 4.95968E-02
 -1       977 3.37406E-02
 -1       978 2.25908E-02
 -1       979 1.44893E-02
 -1       980 8.78832E-03
 -1       981 4.86764E-03
 -1       982 2.71868E-03
 -1       983 4.84623E-03
 -1       984 3.55448E-01
 -1       985 4.05963E+00
 -1       986 3.27012E+00
 -1       987 1.00736E+00
 -1       988 7.51331E-01
 -1       989 5.96946E-01
 -1       990 4.84067E-01
 -1       991 3.94298E-01
 -1       992 3.14322E-01
 -1       993 2.45713E-01
 -1       994 1.88448E-01
 -1       995 1.41724E-01
 -1       996 1.04373E-01
 -1       997 7.50928E-02
 -1       998 5.25854E-02
 -1       999 3.60257E-02
 -1      1000 2.42657E-02
 -1      1001 1.56707E-02
 -1      1002 9.55125E-03
 -1      1003 6.86066E-03
 -1      1004 6.93118E-01
 -1      1005 5.81578E-01
 -1      1006 1.52040E+00
 -1      1007 2.67827E-01
 -1      1008 8.08841E-01
 -1      1009 1.33048E+00
 -1      1010 3.56238E+00
 -1      1011 3.99453E-01
 -1      1012 4.38972E-01
 -1      1013 4.15295E+00
 -1      1014 6.94533E-03
 -1      1015 6.86066E-03
 -1      1016 3.61816E+00
 -1      1017 4.85644E-01
 -1      1018 5.27545E-03
 -1      1019 3.92450E+00
 -1      1020 2.17584E+00
 -1      1021 4.11373E+00
 -1      1022 4.39560E-01
 -1      1023 3.12963E+00
 -1      1024 5.74998E+00
 -1      1025 5.95593E-01
 -1      1026 4.30308E+00
 -1      1027 6.94533E-03
 -1      1028 3.27857E+00
 -1      1029 2.86149E+00
 -1      1030 1.87793E+00
 -1      1031 1.29086E+00
 -1      1032 9.06477E-01
 -1      1033 6.65139E-01
 -1      1034 4.95741E-01
 -1      1035 3.76606E-01
 -1      1036 2.91531E-01
 -1      1037 2.24292E-01
 -1      1038 1.70819E-01
 -1      1039 1.28393E-01
 -1      1040 9.49898E-02
 -1      1041 6.89822E-02
 -1      1042 4.90067E-02
 -1      1043 3.46348E-02
 -1      1044 2.40960E-02
 -1      1045 1.62196E-02
 -1      1046 1.07927E-02
 -1      1047 5.97466E-03
 -1      1048 1.23652E+00
 -1      1049 5.96946E-01
 -1      1050 9.31120E-01
 -1      1051 4.67633E-01
 -1      1052 3.63116E-01
 -1      1053 2.79314E-01
 -1      1054 2.12521E-01
 -1      1055 1.59670E-01
 -1      1056 1.18209E-01
 -1      1057 8.60157E-02
 -1      1058 6.13209E-02
 -1      1059 4.26426E-02
 -1      1060 2.87578E-02
 -1      1061 1.93837E-02
 -1      1062 1.26055E-02
 -1      1063 8.20899E-03
 -1      1064 4.15295E+00
 -1      1065 8.68006E-01
 -1      1066 9.59631E-01
 -1      1067 2.26355E-03
 -1      1068 3.43833E+00
 -1      1069 7.51331E-01
 -1      1070 5.98600E-01
 -1      1071 4.37376E-01
 -1      1072 4.38972E-01
 -1      1073 6.89402E-01
 -1      1074 2.87818E+00
 -1      1075 6.89402E-01
 -1      1076 3.43833E+00
 -1      1077 2.64515E+00
 -1      1078 2.02943E+00
 -1      1079 3.25529E+00
 -1      1080 2.03104E+00
 -1      1081 5.95593E-01
 -1      1082 1.60003E-02
 -1      1083 5.97294E-01
 -1      1084 3.27857E+00
 -1      1085 1.60003E-02
 -1      1086 3.17793E+00
 -1      1087 6.60353E-03
 -1      1088 3.17793E+00
 -1      1089 1.17652E+00
 -1      1090 2.35618E+00
 -1      1091 1.52250E+00
 -1      1092 1.11992E+00
 -1      1093 8.11427E-01
 -1      1094 6.04374E-01
 -1      1095 4.57397E-01
 -1      1096 3.48398E-01
 -1      1097 2.65370E-01
 -1      1098 2.01214E-01
 -1      1099 1.51413E-01
 -1      1100 1.13458E-01
 -1      1101 8.38430E-02
 -1      1102 6.09021E-02
 -1      1103 4.33036E-02
 -1      1104 2.99983E-02
 -1      1105 2.03821E-02
 -1      1106 1.30482E-02
 -1      1107 3.25529E+00
 -1      1108 3.91727E-01
 -1      1109 8.31437E-01
 -1      1110 5.23614E-01
 -1      1111 2.18451E-01
 -1      1112 1.62009E-01
 -1      1113 1.19115E-01
 -1      1114 8.97807E-02
 -1      1115 6.65582E-02
 -1      1116 4.82064E-02
 -1      1117 3.39589E-02
 -1      1118 2.35082E-02
 -1      1119 2.14362E-02
 -1      1120 6.51828E-01
 -1      1121 3.17793E+00
 -1      1122 7.08978E-01
 -1      1123 1.39628E+00
 -1      1124 9.64197E-01
 -1      1125 2.52938E+00
 -1      1126 2.92922E-01
 -1      1127 1.09149E+00
 -1      1128 2.06931E+00
 -1      1129 2.06931E+00
 -1      1130 1.10438E-02
 -1      1131 2.55764E+00
 -1      1132 2.08239E-02
 -1      1133 4.63203E-01
 -1      1134 1.54965E+00
 -1      1135 1.03316E+00
 -1      1136 6.10767E-01
 -1      1137 4.69644E-01
 -1      1138 3.67581E-01
 -1      1139 2.87591E-01
 -1      1140 2.23565E-01
 -1      1141 1.73255E-01
 -1      1142 1.32809E-01
 -1      1143 1.00332E-01
 -1      1144 7.45208E-02
 -1      1145 5.42600E-02
 -1      1146 3.85756E-02
 -1      1147 2.64369E-02
 -1      1148 6.91426E-01
 -1      1149 1.58582E+00
 -1      1150 1.28422E+01
 -1      1151 8.18645E+00
 -1      1152 2.67691E+00
 -1      1153 1.57186E+00
 -1      1154 1.18536E+00
 -1      1155 9.58823E-01
 -1      1156 8.00424E-01
 -1      1157 6.86249E-01
 -1      1158 6.47715E-01
 -1      1159 7.06075E-01
 -1      1160 8.19624E-01
 -1      1161 9.77557E-01
 -1      1162 1.20853E+00
 -1      1163 1.58981E+00
 -1      1164 2.61245E+00
 -1      1165 5.87108E+00
 -1      1166 1.10551E+01
 -1      1167 1.28422E+01
 -1      1168 8.53966E+00
 -1      1169 3.69225E+00
 -1      1170 2.53955E+00
 -1      1171 1.68646E+00
 -1      1172 1.27297E+00
 -1      1173 1.03785E+00
 -1      1174 1.01602E+00
 -1      1175 1.11609E+00
 -1      1176 1.36707E+00
 -1      1177 1.74197E+00
 -1      1178 1.99656E+00
 -1      1179 2.07224E+00
 -1      1180 2.02354E+00
 -1      1181 2.17940E+00
 -1      1182 3.27102E+00
 -1      1183 4.98842E+00
 -1      1184 5.83354E+00
 -1      1185 5.84835E+00
 -1      1186 5.53720E+00
 -1      1187 4.04198E+00
 -1      1188 2.45673E+00
 -1      1189 2.05555E+00
 -1      1190 2.04917E+00
 -1      1191 2.04280E+00
 -1      1192 1.91569E+00
 -1      1193 1.60936E+00
 -1      1194 1.28385E+00
 -1      1195 1.00502E+00
 -1      1196 7.84346E-01
 -1      1197 6.32326E-01
 -1      1198 5.09163E-01
 -1      1199 3.98555E-01
 -1      1200 3.04647E-01
 -1      1201 2.27901E-01
 -1      1202 1.66918E-01
 -1      1203 1.24782E-01
 -1      1204 9.93458E-02
 -1      1205 8.02950E-02
 -1      1206 6.36299E-02
 -1      1207 4.94044E-02
 -1      1208 3.74766E-02
 -1      1209 2.77463E-02
 -1      1210 2.12543E-02
 -1      1211 1.69333E-02
 -1      1212 1.27047E-02
 -1      1213 8.65193E-03
 -1      1214 6.01795E-03
 -1      1215 4.44446E-03
 -1      1216 2.13754E-03
 -1      1217 1.37586E+01
 -1      1218 8.56388E+00
 -1      1219 2.84743E+00
 -1      1220 1.93645E+00
 -1      1221 1.40909E+00
 -1      1222 1.15759E+00
 -1      1223 9.38805E-01
 -1      1224 7.25294E-01
 -1      1225 6.03447E-01
 -1      1226 5.91219E-01
 -1      1227 6.29114E-01
 -1      1228 7.60229E-01
 -1      1229 9.12574E-01
 -1      1230 1.06993E+00
 -1      1231 1.26307E+00
 -1      1232 1.64998E+00
 -1      1233 2.21044E+00
 -1      1234 2.59842E+00
 -1      1235 2.81450E+00
 -1      1236 2.90957E+00
 -1      1237 2.67008E+00
 -1      1238 2.01805E+00
 -1      1239 1.32921E+00
 -1      1240 8.86435E-01
 -1      1241 7.46522E-01
 -1      1242 8.05015E-01
 -1      1243 8.36924E-01
 -1      1244 8.14707E-01
 -1      1245 7.41162E-01
 -1      1246 6.34644E-01
 -1      1247 5.26278E-01
 -1      1248 4.21083E-01
 -1      1249 3.22493E-01
 -1      1250 2.47072E-01
 -1      1251 1.94008E-01
 -1      1252 1.48941E-01
 -1      1253 1.10870E-01
 -1      1254 7.99145E-02
 -1      1255 5.57634E-02
 -1      1256 4.18470E-02
 -1      1257 3.48972E-02
 -1      1258 2.82444E-02
 -1      1259 2.21526E-02
 -1      1260 1.81006E-02
 -1      1261 1.56286E-02
 -1      1262 1.27999E-02
 -1      1263 9.57917E-03
 -1      1264 6.51153E-03
 -1      1265 4.23966E-03
 -1      1266 2.01272E-03
 -1      1267 1.12512E-03
 -1      1268 1.36156E-03
 -1      1269 8.10261E-04
 -1      1270 4.71225E-04
 -1      1271 5.47988E-04
 -1      1272 6.33518E-04
 -1      1273 6.53835E-04
 -1      1274 6.54499E-04
 -1      1275 6.61622E-04
 -1      1276 6.71388E-04
 -1      1277 6.74030E-04
 -1      1278 6.58143E-04
 -1      1279 5.75789E-04
 -1      1280 5.19354E-04
 -1      1281 1.04705E-03
 -1      1282 1.98528E-03
 -1      1283 1.57167E-03
 -1      1284 2.44917E+01
 -1      1285 3.57465E+01
 -1      1286 4.69753E+01
 -1      1287 3.36943E+01
 -1      1288 1.66786E+01
 -1      1289 1.29440E+01
 -1      1290 1.24823E+01
 -1      1291 1.25620E+01
 -1      1292 1.31033E+01
 -1      1293 1.25393E+01
 -1      1294 2.07175E+01
 -1      1295 3.07305E+01
 -1      1296 3.02969E+01
 -1      1297 2.67239E+01
 -1      1298 2.50005E+01
 -1      1299 2.51459E+01
 -1      1300 3.32324E+01
 -1      1301 4.13190E+01
 -1      1302 2.83788E+01
 -1      1303 1.38379E+01
 -1      1304 1.24774E+01
 -1      1305 1.27176E+01
 -1      1306 1.25714E+01
 -1      1307 1.24252E+01
 -1      1308 1.23997E+01
 -1      1309 2.00182E+01
 -1      1310 2.83902E+01
 -1      1311 2.86745E+01
 -1      1312 2.64320E+01
 -1      1313 2.45494E+01
 -1      1314 1.28422E+01
 -1      1315 4.68750E+00
 -1      1316 9.34323E+00
 -1      1317 2.06503E+00
 -1      1318 2.91884E+00
 -1      1319 4.07563E+00
 -1      1320 1.43798E+00
 -1      1321 1.68922E+00
 -1      1322 1.93116E+00
 -1      1323 1.11842E+00
 -1      1324 1.25369E+00
 -1      1325 1.37105E+00
 -1      1326 9.13285E-01
 -1      1327 1.00455E+00
 -1      1328 1.07288E+00
 -1      1329 7.68727E-01
 -1      1330 8.35858E-01
 -1      1331 8.81589E-01
 -1      1332 6.65383E-01
 -1      1333 7.12428E-01
 -1      1334 7.47862E-01
 -1      1335 6.42280E-01
 -1      1336 6.33770E-01
 -1      1337 6.59949E-01
 -1      1338 7.33328E-01
 -1      1339 6.83477E-01
 -1      1340 6.69533E-01
 -1      1341 8.53058E-01
 -1      1342 7.89360E-01
 -1      1343 7.66762E-01
 -1      1344 1.02705E+00
 -1      1345 9.32811E-01
 -1      1346 9.02547E-01
 -1      1347 1.27742E+00
 -1      1348 1.14068E+00
 -1      1349 1.09594E+00
 -1      1350 1.70752E+00
 -1      1351 1.46298E+00
 -1      1352 1.39513E+00
 -1      1353 2.84363E+00
 -1      1354 2.06553E+00
 -1      1355 1.93870E+00
 -1      1356 6.08312E+00
 -1      1357 3.60257E+00
 -1      1358 3.05566E+00
 -1      1359 1.37586E+01
 -1      1360 1.10551E+01
 -1      1361 8.78661E+00
 -1      1362 1.37586E+01
 -1      1363 8.53966E+00
 -1      1364 4.23713E+00
 -1      1365 3.69225E+00
 -1      1366 3.14736E+00
 -1      1367 3.69225E+00
 -1      1368 2.53955E+00
 -1      1369 1.93174E+00
 -1      1370 2.53955E+00
 -1      1371 1.68646E+00
 -1      1372 1.44118E+00
 -1      1373 1.68646E+00
 -1      1374 1.27297E+00
 -1      1375 1.10476E+00
 -1      1376 1.27297E+00
 -1      1377 9.78726E-01
 -1      1378 9.11814E-01
 -1      1379 9.78726E-01
 -1      1380 9.70940E-01
 -1      1381 1.01602E+00
 -1      1382 9.11814E-01
 -1      1383 1.06109E+00
 -1      1384 1.11609E+00
 -1      1385 1.01602E+00
 -1      1386 1.20294E+00
 -1      1387 1.39893E+00
 -1      1388 1.14794E+00
 -1      1389 1.56306E+00
 -1      1390 1.74197E+00
 -1      1391 1.39893E+00
 -1      1392 1.92088E+00
 -1      1393 1.99656E+00
 -1      1394 1.74197E+00
 -1      1395 2.07224E+00
 -1      1396 2.07224E+00
 -1      1397 1.99656E+00
 -1      1398 2.02354E+00
 -1      1399 1.97485E+00
 -1      1400 2.02354E+00
 -1      1401 1.91821E+00
 -1      1402 2.12275E+00
 -1      1403 1.91821E+00
 -1      1404 2.38394E+00
 -1      1405 3.27102E+00
 -1      1406 2.12275E+00
 -1      1407 4.15810E+00
 -1      1408 4.98842E+00
 -1      1409 3.27102E+00
 -1      1410 5.81873E+00
 -1      1411 5.83354E+00
 -1      1412 4.98842E+00
 -1      1413 5.84835E+00
 -1      1414 5.84835E+00
 -1      1415 5.83354E+00
 -1      1416 5.53720E+00
 -1      1417 5.22604E+00
 -1      1418 5.53720E+00
 -1      1419 4.16357E+00
 -1      1420 2.97951E+00
 -1      1421 4.16357E+00
 -1      1422 2.42817E+00
 -1      1423 2.02698E+00
 -1      1424 2.54976E+00
 -1      1425 2.05555E+00
 -1      1426 2.05555E+00
 -1      1427 2.02698E+00
 -1      1428 2.02393E+00
 -1      1429 2.01755E+00
 -1      1430 2.02393E+00
 -1      1431 2.04280E+00
 -1      1432 2.04280E+00
 -1      1433 2.01755E+00
 -1      1434 1.91569E+00
 -1      1435 1.78858E+00
 -1      1436 1.91569E+00
 -1      1437 1.63264E+00
 -1      1438 1.45342E+00
 -1      1439 1.63264E+00
 -1      1440 1.35116E+00
 -1      1441 1.20487E+00
 -1      1442 1.37443E+00
 -1      1443 1.10507E+00
 -1      1444 9.72520E-01
 -1      1445 1.17237E+00
 -1      1446 8.65260E-01
 -1      1447 7.77141E-01
 -1      1448 9.65315E-01
 -1      1449 6.77554E-01
 -1      1450 6.13652E-01
 -1      1451 7.58467E-01
 -1      1452 5.28611E-01
 -1      1453 4.69350E-01
 -1      1454 5.73839E-01
 -1      1455 4.00615E-01
 -1      1456 3.49268E-01
 -1      1457 4.20063E-01
 -1      1458 3.08151E-01
 -1      1459 2.65589E-01
 -1      1460 3.10210E-01
 -1      1461 2.33587E-01
 -1      1462 1.99402E-01
 -1      1463 2.37091E-01
 -1      1464 1.73520E-01
 -1      1465 1.46722E-01
 -1      1466 1.79206E-01
 -1      1467 1.26255E-01
 -1      1468 1.10918E-01
 -1      1469 1.32858E-01
 -1      1470 9.93458E-02
 -1      1471 8.92464E-02
 -1      1472 1.00819E-01
 -1      1473 8.02950E-02
 -1      1474 7.13437E-02
 -1      1475 8.02950E-02
 -1      1476 6.36299E-02
 -1      1477 5.59161E-02
 -1      1478 6.36299E-02
 -1      1479 4.94044E-02
 -1      1480 4.28927E-02
 -1      1481 4.94044E-02
 -1      1482 3.74766E-02
 -1      1483 3.20606E-02
 -1      1484 3.74766E-02
 -1      1485 2.81357E-02
 -1      1486 2.38215E-02
 -1      1487 2.81357E-02
 -1      1488 2.12543E-02
 -1      1489 1.90765E-02
 -1      1490 2.16437E-02
 -1      1491 1.69333E-02
 -1      1492 1.47900E-02
 -1      1493 1.69333E-02
 -1      1494 1.27047E-02
 -1      1495 1.06193E-02
 -1      1496 1.27047E-02
 -1      1497 8.91422E-03
 -1      1498 6.94683E-03
 -1      1499 8.91422E-03
 -1      1500 6.01795E-03
 -1      1501 5.35135E-03
 -1      1502 6.28024E-03
 -1      1503 4.44446E-03
 -1      1504 3.53757E-03
 -1      1505 4.44446E-03
 -1      1506 2.97170E-03
 -1      1507 2.97170E-03
 -1      1508 3.36913E+00
 -1      1509 8.56388E+00
 -1      1510 8.56388E+00
 -1      1511 2.32572E+00
 -1      1512 2.84743E+00
 -1      1513 2.84743E+00
 -1      1514 1.54718E+00
 -1      1515 1.93645E+00
 -1      1516 1.93645E+00
 -1      1517 1.27099E+00
 -1      1518 1.40909E+00
 -1      1519 1.40909E+00
 -1      1520 1.04418E+00
 -1      1521 1.15759E+00
 -1      1522 1.15759E+00
 -1      1523 8.33427E-01
 -1      1524 9.38805E-01
 -1      1525 9.38805E-01
 -1      1526 6.17161E-01
 -1      1527 7.25294E-01
 -1      1528 7.25294E-01
 -1      1529 5.89733E-01
 -1      1530 6.03447E-01
 -1      1531 6.03447E-01
 -1      1532 5.68877E-01
 -1      1533 5.67391E-01
 -1      1534 5.67391E-01
 -1      1535 6.29114E-01
 -1      1536 5.92705E-01
 -1      1537 5.68877E-01
 -1      1538 7.60229E-01
 -1      1539 6.65522E-01
 -1      1540 6.29114E-01
 -1      1541 9.12574E-01
 -1      1542 8.54936E-01
 -1      1543 7.60229E-01
 -1      1544 1.06993E+00
 -1      1545 9.70212E-01
 -1      1546 9.12574E-01
 -1      1547 1.26307E+00
 -1      1548 1.16965E+00
 -1      1549 1.06993E+00
 -1      1550 1.68942E+00
 -1      1551 1.39592E+00
 -1      1552 1.30250E+00
 -1      1553 2.21044E+00
 -1      1554 1.94348E+00
 -1      1555 1.68942E+00
 -1      1556 2.59842E+00
 -1      1557 2.47741E+00
 -1      1558 2.21044E+00
 -1      1559 2.81450E+00
 -1      1560 2.71943E+00
 -1      1561 2.59842E+00
 -1      1562 2.90957E+00
 -1      1563 2.90957E+00
 -1      1564 2.81450E+00
 -1      1565 2.43060E+00
 -1      1566 2.67008E+00
 -1      1567 2.67008E+00
 -1      1568 1.60549E+00
 -1      1569 2.01805E+00
 -1      1570 2.01805E+00
 -1      1571 1.05293E+00
 -1      1572 1.32921E+00
 -1      1573 1.32921E+00
 -1      1574 6.95897E-01
 -1      1575 8.62393E-01
 -1      1576 8.62393E-01
 -1      1577 7.46522E-01
 -1      1578 7.19940E-01
 -1      1579 6.95897E-01
 -1      1580 8.05015E-01
 -1      1581 7.73105E-01
 -1      1582 7.46522E-01
 -1      1583 8.36924E-01
 -1      1584 8.36924E-01
 -1      1585 8.05015E-01
 -1      1586 7.92490E-01
 -1      1587 8.14707E-01
 -1      1588 8.14707E-01
 -1      1589 6.89834E-01
 -1      1590 7.41162E-01
 -1      1591 7.41162E-01
 -1      1592 5.79453E-01
 -1      1593 6.34644E-01
 -1      1594 6.34644E-01
 -1      1595 4.76840E-01
 -1      1596 5.30016E-01
 -1      1597 5.30016E-01
 -1      1598 3.78029E-01
 -1      1599 4.30048E-01
 -1      1600 4.33786E-01
 -1      1601 2.87446E-01
 -1      1602 3.34017E-01
 -1      1603 3.42982E-01
 -1      1604 2.20106E-01
 -1      1605 2.48956E-01
 -1      1606 2.60480E-01
 -1      1607 1.69794E-01
 -1      1608 1.94008E-01
 -1      1609 1.95892E-01
 -1      1610 1.28088E-01
 -1      1611 1.48941E-01
 -1      1612 1.48941E-01
 -1      1613 9.38786E-02
 -1      1614 1.11096E-01
 -1      1615 1.11096E-01
 -1      1616 6.73437E-02
 -1      1617 8.10821E-02
 -1      1618 8.13078E-02
 -1      1619 4.67983E-02
 -1      1620 5.72111E-02
 -1      1621 5.83786E-02
 -1      1622 3.83433E-02
 -1      1623 4.18470E-02
 -1      1624 4.32946E-02
 -1      1625 3.14511E-02
 -1      1626 3.48972E-02
 -1      1627 3.48972E-02
 -1      1628 2.50378E-02
 -1      1629 2.82444E-02
 -1      1630 2.82444E-02
 -1      1631 1.92675E-02
 -1      1632 2.21526E-02
 -1      1633 2.21526E-02
 -1      1634 1.69338E-02
 -1      1635 1.81006E-02
 -1      1636 1.81006E-02
 -1      1637 1.43234E-02
 -1      1638 1.56286E-02
 -1      1639 1.56286E-02
 -1      1640 1.12765E-02
 -1      1641 1.27999E-02
 -1      1642 1.27999E-02
 -1      1643 7.88188E-03
 -1      1644 9.57917E-03
 -1      1645 9.57917E-03
 -1      1646 5.14119E-03
 -1      1647 6.51153E-03
 -1      1648 6.51153E-03
 -1      1649 3.33813E-03
 -1      1650 4.23966E-03
 -1      1651 4.23966E-03
 -1      1652 2.45053E-03
 -1      1653 1.17058E-03
 -1      1654 1.37196E-03
 -1      1655 7.00664E-04
 -1      1656 1.05059E-03
 -1      1657 1.06099E-03
 -1      1658 6.42714E-04
 -1      1659 6.31829E-04
 -1      1660 8.72154E-04
 -1      1661 8.23393E-04
 -1      1662 7.57515E-04
 -1      1663 9.18120E-04
 -1      1664 8.84238E-04
 -1      1665 8.64585E-04
 -1      1666 1.07411E-03
 -1      1667 8.87534E-04
 -1      1668 8.86870E-04
 -1      1669 1.11794E-03
 -1      1670 8.87534E-04
 -1      1671 8.87534E-04
 -1      1672 1.12057E-03
 -1      1673 9.04411E-04
 -1      1674 8.97288E-04
 -1      1675 1.13032E-03
 -1      1676 9.17368E-04
 -1      1677 9.14726E-04
 -1      1678 1.15039E-03
 -1      1679 9.21680E-04
 -1      1680 9.21680E-04
 -1      1681 1.16502E-03
 -1      1682 9.05793E-04
 -1      1683 9.21680E-04
 -1      1684 1.16933E-03
 -1      1685 8.00980E-04
 -1      1686 8.67448E-04
 -1      1687 1.13098E-03
 -1      1688 6.82838E-04
 -1      1689 6.72805E-04
 -1      1690 9.64464E-04
 -1      1691 1.17756E-03
 -1      1692 6.59899E-04
 -1      1693 8.13350E-04
 -1      1694 2.32240E-03
 -1      1695 1.90184E-03
 -1      1696 1.51469E-03
 -1      1697 2.88827E-03
 -1      1698 2.85265E+01
 -1      1699 2.85005E+01
 -1      1700 3.75638E+01
 -1      1701 2.63351E+01
 -1      1702 4.69753E+01
 -1      1703 4.69753E+01
 -1      1704 2.07127E+01
 -1      1705 3.39937E+01
 -1      1706 1.22100E+01
 -1      1707 1.59447E+01
 -1      1708 1.29440E+01
 -1      1709 1.29440E+01
 -1      1710 1.20207E+01
 -1      1711 1.24823E+01
 -1      1712 1.25331E+01
 -1      1713 1.19918E+01
 -1      1714 1.31033E+01
 -1      1715 1.31033E+01
 -1      1716 1.19260E+01
 -1      1717 1.24900E+01
 -1      1718 2.07175E+01
 -1      1719 1.19753E+01
 -1      1720 3.20011E+01
 -1      1721 3.07305E+01
 -1      1722 3.02969E+01
 -1      1723 3.20011E+01
 -1      1724 2.50430E+01
 -1      1725 2.69118E+01
 -1      1726 2.61884E+01
 -1      1727 2.60431E+01
 -1      1728 2.61884E+01
 -1      1729 2.61884E+01
 -1      1730 3.87420E+01
 -1      1731 3.06554E+01
 -1      1732 4.13190E+01
 -1      1733 4.13190E+01
 -1      1734 1.55370E+01
 -1      1735 2.84771E+01
 -1      1736 1.15992E+01
 -1      1737 1.32000E+01
 -1      1738 1.24774E+01
 -1      1739 1.22371E+01
 -1      1740 1.27176E+01
 -1      1741 1.27176E+01
 -1      1742 1.22750E+01
 -1      1743 1.24212E+01
 -1      1744 1.24252E+01
 -1      1745 1.24252E+01
 -1      1746 1.18041E+01
 -1      1747 1.18296E+01
 -1      1748 2.00182E+01
 -1      1749 1.23742E+01
 -1      1750 2.91182E+01
 -1      1751 2.83902E+01
 -1      1752 3.06798E+01
 -1      1753 3.11235E+01
 -1      1754 2.88809E+01
 -1      1755 3.06798E+01
 -1      1756 2.85005E+01
 -1      1757 2.85842E+01
 -1      1758 1.62441E+01
 -1      1759 3.39937E+01
 -1      1760 2.45053E-03
 -1      1761 2.25956E-03
 -1      1762 3.03438E+01
 -1      1763 3.75638E+01
 -1      1764 3.25353E+01
 -1      1765 1.22100E+01
 -1      1766 1.24823E+01
 -1      1767 1.19918E+01
 -1      1768 1.25331E+01
 -1      1769 1.24900E+01
 -1      1770 1.19260E+01
 -1      1771 2.19882E+01
 -1      1772 3.20011E+01
 -1      1773 2.86160E+01
 -1      1774 2.62309E+01
 -1      1775 2.72309E+01
 -1      1776 3.16979E+01
 -1      1777 3.87420E+01
 -1      1778 2.84771E+01
 -1      1779 1.32983E+01
 -1      1780 1.15992E+01
 -1      1781 1.24774E+01
 -1      1782 1.24212E+01
 -1      1783 1.22750E+01
 -1      1784 1.18296E+01
 -1      1785 1.18041E+01
 -1      1786 2.07462E+01
 -1      1787 3.11235E+01
 -1      1788 3.31288E+01
 -1      1789 3.28320E+01
 -1      1790 9.34323E+00
 -1      1791 1.33744E+00
 -1      1792 1.71326E+00
 -1      1793 2.34559E+00
 -1      1794 4.11425E+00
 -1      1795 1.75187E+00
 -1      1796 8.86899E-01
 -1      1797 1.00077E+00
 -1      1798 7.45238E-01
 -1      1799 8.22666E-01
 -1      1800 7.50548E-01
 -1      1801 6.38881E-01
 -1      1802 6.95181E-01
 -1      1803 6.36257E-01
 -1      1804 5.67785E-01
 -1      1805 5.99399E-01
 -1      1806 5.46718E-01
 -1      1807 6.18460E-01
 -1      1808 5.77263E-01
 -1      1809 5.16713E-01
 -1      1810 7.14078E-01
 -1      1811 6.58046E-01
 -1      1812 5.65777E-01
 -1      1813 8.45303E-01
 -1      1814 7.65550E-01
 -1      1815 6.56835E-01
 -1      1816 1.02086E+00
 -1      1817 9.07218E-01
 -1      1818 7.70222E-01
 -1      1819 1.28339E+00
 -1      1820 1.09783E+00
 -1      1821 9.09109E-01
 -1      1822 1.74871E+00
 -1      1823 1.39070E+00
 -1      1824 1.09340E+00
 -1      1825 2.57363E+00
 -1      1826 1.81469E+00
 -1      1827 1.26669E+00
 -1      1828 7.89225E+00
 -1      1829 2.92024E+00
 -1      1830 1.67927E+00
 -1      1831 2.69751E+00
 -1      1832 5.04071E+00
 -1      1833 2.00678E+00
 -1      1834 2.52849E+00
 -1      1835 1.85687E+00
 -1      1836 3.31067E+00
 -1      1837 2.32279E+00
 -1      1838 1.71498E+00
 -1      1839 1.44322E+00
 -1      1840 1.19794E+00
 -1      1841 1.22646E+00
 -1      1842 1.08043E+00
 -1      1843 9.12223E-01
 -1      1844 8.37191E-01
 -1      1845 8.28392E-01
 -1      1846 7.02353E-01
 -1      1847 6.35850E-01
 -1      1848 7.63888E-01
 -1      1849 8.23014E-01
 -1      1850 6.13553E-01
 -1      1851 9.12674E-01
 -1      1852 9.57751E-01
 -1      1853 7.64748E-01
 -1      1854 1.07230E+00
 -1      1855 1.15916E+00
 -1      1856 9.68962E-01
 -1      1857 1.24196E+00
 -1      1858 1.40609E+00
 -1      1859 1.16632E+00
 -1      1860 1.51175E+00
 -1      1861 1.69066E+00
 -1      1862 1.35478E+00
 -1      1863 1.73121E+00
 -1      1864 1.80689E+00
 -1      1865 1.50099E+00
 -1      1866 1.82030E+00
 -1      1867 1.77161E+00
 -1      1868 1.55496E+00
 -1      1869 1.83809E+00
 -1      1870 1.78144E+00
 -1      1871 1.63485E+00
 -1      1872 1.86421E+00
 -1      1873 2.12541E+00
 -1      1874 1.78410E+00
 -1      1875 2.37936E+00
 -1      1876 3.26644E+00
 -1      1877 2.12083E+00
 -1      1878 3.65797E+00
 -1      1879 4.48828E+00
 -1      1880 2.76631E+00
 -1      1881 4.91950E+00
 -1      1882 4.93431E+00
 -1      1883 3.58906E+00
 -1      1884 4.81549E+00
 -1      1885 4.50433E+00
 -1      1886 3.90145E+00
 -1      1887 3.98305E+00
 -1      1888 2.92058E+00
 -1      1889 3.26134E+00
 -1      1890 2.58747E+00
 -1      1891 2.03613E+00
 -1      1892 2.40695E+00
 -1      1893 1.90302E+00
 -1      1894 1.93158E+00
 -1      1895 1.94073E+00
 -1      1896 1.81182E+00
 -1      1897 1.78020E+00
 -1      1898 1.68786E+00
 -1      1899 1.82979E+00
 -1      1900 1.85503E+00
 -1      1901 1.61768E+00
 -1      1902 1.82072E+00
 -1      1903 1.69361E+00
 -1      1904 1.63295E+00
 -1      1905 1.62449E+00
 -1      1906 1.46855E+00
 -1      1907 1.52952E+00
 -1      1908 1.40231E+00
 -1      1909 1.30004E+00
 -1      1910 1.39416E+00
 -1      1911 1.22129E+00
 -1      1912 1.12149E+00
 -1      1913 1.24916E+00
 -1      1914 1.02429E+00
 -1      1915 9.17034E-01
 -1      1916 1.07321E+00
 -1      1917 8.19450E-01
 -1      1918 7.19863E-01
 -1      1919 8.78429E-01
 -1      1920 6.31741E-01
 -1      1921 5.46700E-01
 -1      1922 6.92724E-01
 -1      1923 4.72118E-01
 -1      1924 4.03383E-01
 -1      1925 5.30020E-01
 -1      1926 3.42970E-01
 -1      1927 3.01853E-01
 -1      1928 3.95025E-01
 -1      1929 2.54471E-01
 -1      1930 2.22468E-01
 -1      1931 2.87230E-01
 -1      1932 1.86249E-01
 -1      1933 1.60367E-01
 -1      1934 2.03629E-01
 -1      1935 1.33295E-01
 -1      1936 1.12829E-01
 -1      1937 1.40339E-01
 -1      1938 9.65088E-02
 -1      1939 8.49364E-02
 -1      1940 9.69465E-02
 -1      1941 7.36962E-02
 -1      1942 6.47448E-02
 -1      1943 6.93862E-02
 -1      1944 5.72048E-02
 -1      1945 4.94910E-02
 -1      1946 5.06059E-02
 -1      1947 4.55933E-02
 -1      1948 3.90816E-02
 -1      1949 3.91683E-02
 -1      1950 3.54978E-02
 -1      1951 3.00818E-02
 -1      1952 3.16868E-02
 -1      1953 2.68814E-02
 -1      1954 2.29565E-02
 -1      1955 2.49026E-02
 -1      1956 2.01540E-02
 -1      1957 1.75868E-02
 -1      1958 1.88997E-02
 -1      1959 1.55963E-02
 -1      1960 1.34530E-02
 -1      1961 1.41066E-02
 -1      1962 1.21650E-02
 -1      1963 1.00796E-02
 -1      1964 1.08280E-02
 -1      1965 8.72288E-03
 -1      1966 7.01778E-03
 -1      1967 8.18320E-03
 -1      1968 5.93458E-03
 -1      1969 5.00570E-03
 -1      1970 5.74325E-03
 -1      1971 4.18614E-03
 -1      1972 3.27925E-03
 -1      1973 2.62995E-03
 -1      1974 3.84049E-03
 -1      1975 1.27994E+00
 -1      1976 1.66921E+00
 -1      1977 1.35028E+00
 -1      1978 9.71163E-01
 -1      1979 1.10925E+00
 -1      1980 8.42021E-01
 -1      1981 8.35015E-01
 -1      1982 9.48421E-01
 -1      1983 6.48590E-01
 -1      1984 6.89718E-01
 -1      1985 7.95095E-01
 -1      1986 5.85929E-01
 -1      1987 5.39504E-01
 -1      1988 6.47637E-01
 -1      1989 5.03927E-01
 -1      1990 5.21870E-01
 -1      1991 5.35584E-01
 -1      1992 4.57927E-01
 -1      1993 4.93197E-01
 -1      1994 5.15538E-01
 -1      1995 4.47676E-01
 -1      1996 4.97722E-01
 -1      1997 4.73894E-01
 -1      1998 4.22042E-01
 -1      1999 5.09028E-01
 -1      2000 4.72620E-01
 -1      2001 3.77637E-01
 -1      2002 6.13976E-01
 -1      2003 5.19269E-01
 -1      2004 3.62775E-01
 -1      2005 8.60966E-01
 -1      2006 8.03328E-01
 -1      2007 5.62368E-01
 -1      2008 1.16783E+00
 -1      2009 1.06812E+00
 -1      2010 9.58871E-01
 -1      2011 1.47235E+00
 -1      2012 1.33950E+00
 -1      2013 1.33768E+00
 -1      2014 1.76908E+00
 -1      2015 1.51502E+00
 -1      2016 1.55201E+00
 -1      2017 2.03605E+00
 -1      2018 1.76908E+00
 -1      2019 1.59468E+00
 -1      2020 2.16036E+00
 -1      2021 2.03935E+00
 -1      2022 1.59798E+00
 -1      2023 2.35297E+00
 -1      2024 2.25790E+00
 -1      2025 1.69883E+00
 -1      2026 2.04980E+00
 -1      2027 2.28929E+00
 -1      2028 1.73269E+00
 -1      2029 1.41772E+00
 -1      2030 1.83028E+00
 -1      2031 1.44948E+00
 -1      2032 9.29338E-01
 -1      2033 1.20562E+00
 -1      2034 1.01785E+00
 -1      2035 5.97639E-01
 -1      2036 7.88177E-01
 -1      2037 6.64584E-01
 -1      2038 5.77680E-01
 -1      2039 5.53638E-01
 -1      2040 4.79422E-01
 -1      2041 6.60590E-01
 -1      2042 6.34007E-01
 -1      2043 4.91748E-01
 -1      2044 7.14729E-01
 -1      2045 6.82820E-01
 -1      2046 5.70305E-01
 -1      2047 7.00478E-01
 -1      2048 7.22695E-01
 -1      2049 6.00500E-01
 -1      2050 6.27745E-01
 -1      2051 6.79073E-01
 -1      2052 5.87060E-01
 -1      2053 5.42608E-01
 -1      2054 5.97799E-01
 -1      2055 5.35709E-01
 -1      2056 4.59831E-01
 -1      2057 5.09269E-01
 -1      2058 4.72424E-01
 -1      2059 3.74961E-01
 -1      2060 4.21753E-01
 -1      2061 4.01007E-01
 -1      2062 2.93364E-01
 -1      2063 3.37376E-01
 -1      2064 3.25344E-01
 -1      2065 2.20844E-01
 -1      2066 2.59334E-01
 -1      2067 2.53728E-01
 -1      2068 1.66177E-01
 -1      2069 1.92275E-01
 -1      2070 1.91129E-01
 -1      2071 1.26780E-01
 -1      2072 1.47633E-01
 -1      2073 1.44016E-01
 -1      2074 9.41043E-02
 -1      2075 1.11096E-01
 -1      2076 1.09788E-01
 -1      2077 6.85113E-02
 -1      2078 8.13078E-02
 -1      2079 8.13078E-02
 -1      2080 4.82460E-02
 -1      2081 5.83786E-02
 -1      2082 5.83786E-02
 -1      2083 3.54816E-02
 -1      2084 4.04329E-02
 -1      2085 4.04329E-02
 -1      2086 2.76545E-02
 -1      2087 3.11007E-02
 -1      2088 2.82389E-02
 -1      2089 2.25370E-02
 -1      2090 2.57436E-02
 -1      2091 2.19471E-02
 -1      2092 1.77040E-02
 -1      2093 2.05892E-02
 -1      2094 1.80884E-02
 -1      2095 1.46639E-02
 -1      2096 1.58307E-02
 -1      2097 1.42673E-02
 -1      2098 1.16626E-02
 -1      2099 1.29678E-02
 -1      2100 1.06979E-02
 -1      2101 9.43416E-03
 -1      2102 1.09576E-02
 -1      2103 8.29682E-03
 -1      2104 6.81156E-03
 -1      2105 8.50885E-03
 -1      2106 6.66655E-03
 -1      2107 4.70664E-03
 -1      2108 6.07699E-03
 -1      2109 5.00667E-03
 -1      2110 3.11270E-03
 -1      2111 4.01423E-03
 -1      2112 3.57969E-03
 -1      2113 2.03413E-03
 -1      2114 1.21622E-03
 -1      2115 1.10142E-03
 -1      2116 1.32634E-03
 -1      2117 1.39517E-03
 -1      2118 1.62444E-03
 -1      2119 1.60382E-03
 -1      2120 1.72382E-03
 -1      2121 2.57697E-03
 -1      2122 2.05801E-03
 -1      2123 1.26751E-03
 -1      2124 1.22631E-03
 -1      2125 1.40962E-03
 -1      2126 1.27014E-03
 -1      2127 1.26751E-03
 -1      2128 1.41971E-03
 -1      2129 1.23458E-03
 -1      2130 1.23458E-03
 -1      2131 1.38415E-03
 -1      2132 1.21448E-03
 -1      2133 1.20473E-03
 -1      2134 1.31874E-03
 -1      2135 1.24918E-03
 -1      2136 1.23887E-03
 -1      2137 1.31327E-03
 -1      2138 1.28574E-03
 -1      2139 1.28143E-03
 -1      2140 1.36990E-03
 -1      2141 1.34704E-03
 -1      2142 1.34704E-03
 -1      2143 1.46344E-03
 -1      2144 1.30869E-03
 -1      2145 1.34704E-03
 -1      2146 1.52474E-03
 -1      2147 1.16523E-03
 -1      2148 1.29341E-03
 -1      2149 1.50946E-03
 -1      2150 1.67068E-03
 -1      2151 1.69362E-03
 -1      2152 2.02256E-03
 -1      2153 3.75638E+01
 -1      2154 2.81524E+01
 -1      2155 3.25353E+01
 -1      2156 3.25353E+01
 -1      2157 2.87280E+01
 -1      2158 3.09195E+01
 -1      2159 3.09195E+01
 -1      2160 1.86502E+01
 -1      2161 3.16318E+01
 -1      2162 1.03379E+01
 -1      2163 1.51059E+01
 -1      2164 1.27440E+01
 -1      2165 1.07478E+00
 -1      2166 1.25908E+00
 -1      2167 1.04118E+00
 -1      2168 8.88796E-01
 -1      2169 1.11746E+01
 -1      2170 1.16362E+01
 -1      2171 1.14918E+01
 -1      2172 1.15208E+01
 -1      2173 1.06747E+01
 -1      2174 1.18172E+01
 -1      2175 1.12469E+01
 -1      2176 9.93040E+00
 -1      2177 1.05437E+01
 -1      2178 9.38688E+00
 -1      2179 9.33758E+00
 -1      2180 2.15289E+01
 -1      2181 1.15160E+01
 -1      2182 2.63262E+01
 -1      2183 2.63262E+01
 -1      2184 2.41534E+01
 -1      2185 2.75386E+01
 -1      2186 2.18637E+01
 -1      2187 3.15093E+01
 -1      2188 3.05093E+01
 -1      2189 3.15093E+01
 -1      2190 3.15093E+01
 -1      2191 3.19843E+01
 -1      2192 2.75173E+01
 -1      2193 3.29522E+01
 -1      2194 3.03752E+01
 -1      2195 1.49837E+01
 -1      2196 2.78256E+01
 -1      2197 9.43710E+00
 -1      2198 1.17741E+01
 -1      2199 1.01834E+01
 -1      2200 9.54548E+00
 -1      2201 1.10890E+01
 -1      2202 1.08488E+01
 -1      2203 1.17757E+01
 -1      2204 1.20721E+01
 -1      2205 1.16587E+01
 -1      2206 1.15085E+01
 -1      2207 1.11594E+01
 -1      2208 1.00846E+01
 -1      2209 1.06802E+01
 -1      2210 9.66015E+00
 -1      2211 9.09000E+00
 -1      2212 7.94066E+00
 -1      2213 2.03543E+01
 -1      2214 1.19824E+01
 -1      2215 2.68415E+01
 -1      2216 2.48362E+01
 -1      2217 1.60724E+01
 -1      2218 3.31288E+01
 -1      2219 3.31288E+01
 -1      2220 3.21749E+01
 -1      2221 3.24716E+01
 -1      2222 3.24716E+01
 -1      2223 9.85635E+00
 -1      2224 9.12242E+00
 -1      2225 7.98424E+00
 -1      2226 2.76578E+00
 -1      2227 7.39130E+00
 -1      2228 8.54861E+00
 -1      2229 1.94121E+00
 -1      2230 2.87280E+01
 -1      2231 2.22203E+01
 -1      2232 2.39496E-03
 -1      2233 3.21749E+01
 -1      2234 2.68415E+01
 -1      2235 9.26828E+00
 -1      2236 9.91375E+00
 -1      2237 1.04435E+01
 -1      2238 8.79502E+00
 -1      2239 8.02127E+00
 -1      2240 1.11225E+01
 -1      2241 1.94588E+01
 -1      2242 2.61946E+01
 -1      2243 3.17957E+01
 -1      2244 2.94319E+01
 -1      2245 2.16030E+01
 -1      2246 1.11308E+01
 -1      2247 1.59281E+01
 -1      2248 8.92762E+00
 -1      2249 1.07759E+01
 -1      2250 1.08043E+01
 -1      2251 9.51818E+00
 -1      2252 8.24472E+00
 -1      2253 3.57878E+01
 -1      2254 9.15756E-01
 -1      2255 1.25333E+00
 -1      2256 5.30605E-01
 -1      2257 5.80662E-01
 -1      2258 6.13309E-01
 -1      2259 6.77543E-01
 -1      2260 5.07658E-01
 -1      2261 4.43814E-01
 -1      2262 4.34336E-01
 -1      2263 5.16038E-01
 -1      2264 4.76452E-01
 -1      2265 3.94075E-01
 -1      2266 6.02744E-01
 -1      2267 5.51272E-01
 -1      2268 4.61947E-01
 -1      2269 6.94049E-01
 -1      2270 6.32133E-01
 -1      2271 5.26571E-01
 -1      2272 7.83058E-01
 -1      2273 7.06086E-01
 -1      2274 5.67997E-01
 -1      2275 9.88083E-01
 -1      2276 8.80766E-01
 -1      2277 6.77743E-01
 -1      2278 6.33069E-01
 -1      2279 8.03758E-01
 -1      2280 7.06805E-01
 -1      2281 1.04931E+00
 -1      2282 7.77543E-01
 -1      2283 5.31566E+00
 -1      2284 5.90848E+00
 -1      2285 6.79608E-01
 -1      2286 5.62099E-01
 -1      2287 5.02452E-01
 -1      2288 5.35426E-01
 -1      2289 4.51595E-01
 -1      2290 3.77844E-01
 -1      2291 5.38096E-01
 -1      2292 5.99630E-01
 -1      2293 4.37672E-01
 -1      2294 7.08445E-01
 -1      2295 7.98106E-01
 -1      2296 6.32989E-01
 -1      2297 9.18733E-01
 -1      2298 1.03329E+00
 -1      2299 8.62430E-01
 -1      2300 1.15335E+00
 -1      2301 1.23615E+00
 -1      2302 1.10312E+00
 -1      2303 1.33809E+00
 -1      2304 1.44375E+00
 -1      2305 1.32512E+00
 -1      2306 1.58586E+00
 -1      2307 1.62641E+00
 -1      2308 1.56918E+00
 -1      2309 1.82913E+00
 -1      2310 1.84254E+00
 -1      2311 1.91400E+00
 -1      2312 2.02938E+00
 -1      2313 2.09586E+00
 -1      2314 2.30355E+00
 -1      2315 2.31432E+00
 -1      2316 2.39710E+00
 -1      2317 2.70886E+00
 -1      2318 2.64673E+00
 -1      2319 2.90068E+00
 -1      2320 3.17695E+00
 -1      2321 2.64538E+00
 -1      2322 3.03691E+00
 -1      2323 3.17128E+00
 -1      2324 3.80427E+00
 -1      2325 4.23549E+00
 -1      2326 3.68334E+00
 -1      2327 5.14909E+00
 -1      2328 5.03027E+00
 -1      2329 5.36431E+00
 -1      2330 4.48837E+00
 -1      2331 3.96708E+00
 -1      2332 5.73601E+00
 -1      2333 2.84394E+00
 -1      2334 2.51083E+00
 -1      2335 4.07097E+00
 -1      2336 2.76980E+00
 -1      2337 2.63669E+00
 -1      2338 3.20680E+00
 -1      2339 2.27184E+00
 -1      2340 2.15208E+00
 -1      2341 3.10092E+00
 -1      2342 1.99093E+00
 -1      2343 2.04052E+00
 -1      2344 2.57492E+00
 -1      2345 1.84271E+00
 -1      2346 1.80839E+00
 -1      2347 2.21596E+00
 -1      2348 1.62302E+00
 -1      2349 1.55391E+00
 -1      2350 1.83278E+00
 -1      2351 1.46705E+00
 -1      2352 1.40080E+00
 -1      2353 1.56055E+00
 -1      2354 1.30038E+00
 -1      2355 1.22162E+00
 -1      2356 1.37326E+00
 -1      2357 1.11390E+00
 -1      2358 1.01670E+00
 -1      2359 1.16512E+00
 -1      2360 9.14182E-01
 -1      2361 8.16598E-01
 -1      2362 9.54871E-01
 -1      2363 7.25653E-01
 -1      2364 6.37531E-01
 -1      2365 7.61406E-01
 -1      2366 5.60511E-01
 -1      2367 4.85928E-01
 -1      2368 5.93440E-01
 -1      2369 4.22825E-01
 -1      2370 3.62412E-01
 -1      2371 4.53315E-01
 -1      2372 3.12006E-01
 -1      2373 2.64624E-01
 -1      2374 3.39805E-01
 -1      2375 2.25192E-01
 -1      2376 1.88973E-01
 -1      2377 2.49968E-01
 -1      2378 1.58689E-01
 -1      2379 1.31617E-01
 -1      2380 1.80252E-01
 -1      2381 1.08760E-01
 -1      2382 9.24393E-02
 -1      2383 1.27110E-01
 -1      2384 7.54885E-02
 -1      2385 6.42483E-02
 -1      2386 8.73015E-02
 -1      2387 5.19148E-02
 -1      2388 4.43748E-02
 -1      2389 5.80172E-02
 -1      2390 3.61159E-02
 -1      2391 3.22183E-02
 -1      2392 3.74248E-02
 -1      2393 2.74903E-02
 -1      2394 2.39064E-02
 -1      2395 2.44379E-02
 -1      2396 2.24725E-02
 -1      2397 1.92721E-02
 -1      2398 1.82760E-02
 -1      2399 1.77566E-02
 -1      2400 1.49541E-02
 -1      2401 1.53265E-02
 -1      2402 1.34328E-02
 -1      2403 1.14422E-02
 -1      2404 1.22896E-02
 -1      2405 9.99969E-03
 -1      2406 8.71165E-03
 -1      2407 9.32584E-03
 -1      2408 7.61482E-03
 -1      2409 6.25806E-03
 -1      2410 6.78651E-03
 -1      2411 5.48825E-03
 -1      2412 4.40505E-03
 -1      2413 4.91986E-03
 -1      2414 4.36383E-01
 -1      2415 4.76303E-01
 -1      2416 3.97356E-01
 -1      2417 4.39437E-01
 -1      2418 3.29812E-01
 -1      2419 3.98096E-01
 -1      2420 4.02015E-01
 -1      2421 3.37525E-01
 -1      2422 4.24416E-01
 -1      2423 4.30748E-01
 -1      2424 3.74836E-01
 -1      2425 4.18471E-01
 -1      2426 4.37773E-01
 -1      2427 4.20845E-01
 -1      2428 4.39460E-01
 -1      2429 4.64563E-01
 -1      2430 4.80294E-01
 -1      2431 4.93561E-01
 -1      2432 4.83321E-01
 -1      2433 5.70247E-01
 -1      2434 7.48901E-01
 -1      2435 5.59548E-01
 -1      2436 6.80094E-01
 -1      2437 1.08734E+00
 -1      2438 8.80193E-01
 -1      2439 8.77374E-01
 -1      2440 1.40736E+00
 -1      2441 1.23569E+00
 -1      2442 1.15702E+00
 -1      2443 1.55201E+00
 -1      2444 1.50934E+00
 -1      2445 1.40736E+00
 -1      2446 1.60122E+00
 -1      2447 1.60122E+00
 -1      2448 1.55855E+00
 -1      2449 1.53630E+00
 -1      2450 1.53300E+00
 -1      2451 1.53953E+00
 -1      2452 1.69883E+00
 -1      2453 1.60129E+00
 -1      2454 1.53630E+00
 -1      2455 1.58018E+00
 -1      2456 1.64386E+00
 -1      2457 1.54632E+00
 -1      2458 1.25059E+00
 -1      2459 1.47011E+00
 -1      2460 1.38129E+00
 -1      2461 8.76733E-01
 -1      2462 1.08884E+00
 -1      2463 1.10947E+00
 -1      2464 5.81680E-01
 -1      2465 7.22842E-01
 -1      2466 7.93830E-01
 -1      2467 5.15657E-01
 -1      2468 5.59658E-01
 -1      2469 6.17916E-01
 -1      2470 5.35091E-01
 -1      2471 4.78765E-01
 -1      2472 5.59001E-01
 -1      2473 5.86237E-01
 -1      2474 5.64006E-01
 -1      2475 5.51023E-01
 -1      2476 5.91516E-01
 -1      2477 5.83551E-01
 -1      2478 5.77252E-01
 -1      2479 5.52835E-01
 -1      2480 5.74241E-01
 -1      2481 5.57291E-01
 -1      2482 5.00087E-01
 -1      2483 5.30033E-01
 -1      2484 5.17213E-01
 -1      2485 4.39116E-01
 -1      2486 4.72455E-01
 -1      2487 4.66779E-01
 -1      2488 3.68609E-01
 -1      2489 4.06687E-01
 -1      2490 4.06718E-01
 -1      2491 2.96939E-01
 -1      2492 3.34525E-01
 -1      2493 3.40205E-01
 -1      2494 2.30626E-01
 -1      2495 2.64656E-01
 -1      2496 2.73837E-01
 -1      2497 1.73484E-01
 -1      2498 2.02053E-01
 -1      2499 2.12981E-01
 -1      2500 1.30876E-01
 -1      2501 1.49420E-01
 -1      2502 1.60344E-01
 -1      2503 9.57143E-02
 -1      2504 1.11398E-01
 -1      2505 1.16802E-01
 -1      2506 6.76827E-02
 -1      2507 8.04792E-02
 -1      2508 8.20892E-02
 -1      2509 4.67206E-02
 -1      2510 5.68533E-02
 -1      2511 5.60247E-02
 -1      2512 3.21435E-02
 -1      2513 3.99565E-02
 -1      2514 3.84311E-02
 -1      2515 2.38580E-02
 -1      2516 2.82389E-02
 -1      2517 2.77625E-02
 -1      2518 2.00362E-02
 -1      2519 2.19471E-02
 -1      2520 2.19471E-02
 -1      2521 1.61406E-02
 -1      2522 1.80884E-02
 -1      2523 1.80884E-02
 -1      2524 1.23940E-02
 -1      2525 1.42673E-02
 -1      2526 1.42673E-02
 -1      2527 8.96685E-03
 -1      2528 1.06629E-02
 -1      2529 1.06629E-02
 -1      2530 7.28659E-03
 -1      2531 7.99154E-03
 -1      2532 7.95662E-03
 -1      2533 5.40694E-03
 -1      2534 6.33225E-03
 -1      2535 6.02697E-03
 -1      2536 3.86689E-03
 -1      2537 4.60146E-03
 -1      2538 4.26716E-03
 -1      2539 3.26938E-03
 -1      2540 1.56964E-03
 -1      2541 1.56964E-03
 -1      2542 1.40576E-03
 -1      2543 1.44132E-03
 -1      2544 1.59125E-03
 -1      2545 2.13251E-03
 -1      2546 2.35743E-03
 -1      2547 1.68463E-03
 -1      2548 1.67454E-03
 -1      2549 2.40752E-03
 -1      2550 1.83456E-03
 -1      2551 1.28889E-03
 -1      2552 1.31874E-03
 -1      2553 1.37591E-03
 -1      2554 1.31314E-03
 -1      2555 1.28876E-03
 -1      2556 1.28876E-03
 -1      2557 1.37098E-03
 -1      2558 1.33873E-03
 -1      2559 1.31422E-03
 -1      2560 1.54070E-03
 -1      2561 1.47940E-03
 -1      2562 1.44823E-03
 -1      2563 1.82298E-03
 -1      2564 1.82298E-03
 -1      2565 1.83893E-03
 -1      2566 1.80769E-03
 -1      2567 1.82298E-03
 -1      2568 2.12121E-03
 -1      2569 2.28849E-03
 -1      2570 1.76010E-03
 -1      2571 2.07362E-03
 -1      2572 1.47075E+01
 -1      2573 2.06395E+01
 -1      2574 2.78594E-03
 -1      2575 3.21749E+01
 -1      2576 3.18144E+01
 -1      2577 5.26140E-01
 -1      2578 5.48882E-01
 -1      2579 3.76595E-01
 -1      2580 2.93037E+01
 -1      2581 3.09195E+01
 -1      2582 8.86065E+00
 -1      2583 1.24049E+01
 -1      2584 2.39216E+01
 -1      2585 1.76344E+01
 -1      2586 9.72511E+00
 -1      2587 8.74200E+00
 -1      2588 4.55799E-01
 -1      2589 4.95281E-01
 -1      2590 4.39686E-01
 -1      2591 3.82899E-01
 -1      2592 9.16064E+00
 -1      2593 8.81447E+00
 -1      2594 3.57878E+01
 -1      2595 3.57878E+01
 -1      2596 7.64714E+00
 -1      2597 5.86725E+00
 -1      2598 9.02093E+00
 -1      2599 9.26583E+00
 -1      2600 7.98348E+00
 -1      2601 5.85434E+00
 -1      2602 1.87854E+01
 -1      2603 1.75730E+01
 -1      2604 2.94319E+01
 -1      2605 2.30761E+01
 -1      2606 1.87854E+01
 -1      2607 2.78037E+01
 -1      2608 3.17957E+01
 -1      2609 2.12405E+01
 -1      2610 2.28496E+01
 -1      2611 1.28579E+01
 -1      2612 1.79846E+01
 -1      2613 7.83099E+00
 -1      2614 1.10406E+01
 -1      2615 6.30255E+00
 -1      2616 6.19417E+00
 -1      2617 7.80747E+00
 -1      2618 7.14210E+00
 -1      2619 9.27766E+00
 -1      2620 9.54485E+00
 -1      2621 7.48786E+00
 -1      2622 8.46635E+00
 -1      2623 5.29520E+00
 -1      2624 6.28980E+00
 -1      2625 9.35799E+00
 -1      2626 7.03578E+00
 -1      2627 5.38491E+00
 -1      2628 1.45738E+01
 -1      2629 1.00919E+01
 -1      2630 1.16539E+01
 -1      2631 2.46167E+01
 -1      2632 2.51924E+01
 -1      2633 2.50516E+01
 -1      2634 2.57088E+01
 -1      2635 2.50516E+01
 -1      2636 1.62295E+00
 -1      2637 1.17996E+00
 -1      2638 7.31044E-01
 -1      2639 9.90622E-01
 -1      2640 1.42493E+00
 -1      2641 1.59395E+00
 -1      2642 1.24733E+00
 -1      2643 9.90404E-01
 -1      2644 6.03159E+00
 -1      2645 7.24710E+00
 -1      2646 6.13311E+00
 -1      2647 5.40305E-01
 -1      2648 6.77543E-01
 -1      2649 7.51558E-01
 -1      2650 5.10619E-01
 -1      2651 1.18136E+00
 -1      2652 5.13011E+00
 -1      2653 6.85177E+00
 -1      2654 7.08908E+00
 -1      2655 5.31500E+00
 -1      2656 6.16908E+00
 -1      2657 6.11228E+00
 -1      2658 9.56638E+00
 -1      2659 1.46396E+01
 -1      2660 2.86417E-03
 -1      2661 2.65552E-03
 -1      2662 2.94319E+01
 -1      2663 1.71039E+01
 -1      2664 1.08241E+01
 -1      2665 2.86802E-03
 -1      2666 2.63304E-03
 -1      2667 2.37058E-03
 -1      2668 3.68759E-03
 -1      2669 3.17957E+01
 -1      2670 3.05590E+01
 -1      2671 9.68728E-01
 -1      2672 2.51924E+01
 -1      2673 8.44970E+00
 -1      2674 5.37642E+00
 -1      2675 8.52374E+00
 -1      2676 7.72195E-01
 -1      2677 8.50561E-01
 -1      2678 7.21639E-01
 -1      2679 5.60941E-01
 -1      2680 7.85942E+00
 -1      2681 4.84240E+00
 -1      2682 8.60082E+00
 -1      2683 7.09072E+00
 -1      2684 7.58796E+00
 -1      2685 7.84334E+00
 -1      2686 2.34882E+01
 -1      2687 1.42811E+01
 -1      2688 1.60682E+01
 -1      2689 6.90800E+00
 -1      2690 4.37152E+00
 -1      2691 1.51838E+01
 -1      2692 1.04606E+01
 -1      2693 1.21055E+01
 -1      2694 7.40564E+00
 -1      2695 2.28496E+01
 -1      2696 3.16359E-03
 -1      2697 3.43259E-03
 -1      2698 4.24267E-01
 -1      2699 3.89033E-01
 -1      2700 3.57805E-01
 -1      2701 3.25167E-01
 -1      2702 3.20126E-01
 -1      2703 5.04246E-01
 -1      2704 4.92209E-01
 -1      2705 6.24487E-01
 -1      2706 5.26778E-01
 -1      2707 4.50990E-01
 -1      2708 5.11415E-01
 -1      2709 6.23413E-01
 -1      2710 1.79713E+01
 -1      2711 2.20826E+01
 -1      2712 7.97127E-01
 -1      2713 6.48983E-01
 -1      2714 5.18327E-01
 -1      2715 5.08922E-01
 -1      2716 4.13538E-01
 -1      2717 3.86865E-01
 -1      2718 4.17839E-01
 -1      2719 5.04341E-01
 -1      2720 4.53534E-01
 -1      2721 5.68529E-01
 -1      2722 6.77344E-01
 -1      2723 5.48696E-01
 -1      2724 7.88721E-01
 -1      2725 9.09348E-01
 -1      2726 7.24262E-01
 -1      2727 1.05393E+00
 -1      2728 1.17399E+00
 -1      2729 9.80225E-01
 -1      2730 1.35472E+00
 -1      2731 1.45666E+00
 -1      2732 1.30553E+00
 -1      2733 1.67332E+00
 -1      2734 1.81543E+00
 -1      2735 1.70292E+00
 -1      2736 2.04952E+00
 -1      2737 2.25223E+00
 -1      2738 2.15366E+00
 -1      2739 2.63971E+00
 -1      2740 2.82655E+00
 -1      2741 2.77523E+00
 -1      2742 3.37315E+00
 -1      2743 3.59162E+00
 -1      2744 3.70931E+00
 -1      2745 4.06986E+00
 -1      2746 4.31949E+00
 -1      2747 4.73416E+00
 -1      2748 4.65488E+00
 -1      2749 4.39958E+00
 -1      2750 4.41922E+00
 -1      2751 3.29608E+00
 -1      2752 3.96353E+00
 -1      2753 3.59867E+00
 -1      2754 3.34570E+00
 -1      2755 3.18455E+00
 -1      2756 4.20831E+00
 -1      2757 2.58552E+00
 -1      2758 2.38771E+00
 -1      2759 3.35631E+00
 -1      2760 2.13758E+00
 -1      2761 1.95222E+00
 -1      2762 2.50715E+00
 -1      2763 1.73432E+00
 -1      2764 1.64746E+00
 -1      2765 2.03912E+00
 -1      2766 1.45562E+00
 -1      2767 1.35520E+00
 -1      2768 1.62939E+00
 -1      2769 1.20339E+00
 -1      2770 1.09567E+00
 -1      2771 1.28575E+00
 -1      2772 9.71316E-01
 -1      2773 8.68796E-01
 -1      2774 1.00959E+00
 -1      2775 7.68154E-01
 -1      2776 6.77208E-01
 -1      2777 7.84599E-01
 -1      2778 5.99144E-01
 -1      2779 5.22124E-01
 -1      2780 6.05892E-01
 -1      2781 4.59975E-01
 -1      2782 3.96871E-01
 -1      2783 4.65680E-01
 -1      2784 3.47597E-01
 -1      2785 2.97191E-01
 -1      2786 3.54257E-01
 -1      2787 2.58415E-01
 -1      2788 2.18983E-01
 -1      2789 2.66206E-01
 -1      2790 1.88773E-01
 -1      2791 1.58488E-01
 -1      2792 1.97220E-01
 -1      2793 1.35227E-01
 -1      2794 1.12369E-01
 -1      2795 1.43748E-01
 -1      2796 9.46966E-02
 -1      2797 7.77459E-02
 -1      2798 1.02814E-01
 -1      2799 6.45193E-02
 -1      2800 5.21858E-02
 -1      2801 7.19144E-02
 -1      2802 4.24553E-02
 -1      2803 3.41964E-02
 -1      2804 4.89574E-02
 -1      2805 2.71809E-02
 -1      2806 2.24530E-02
 -1      2807 3.22115E-02
 -1      2808 1.75180E-02
 -1      2809 1.60840E-02
 -1      2810 2.02610E-02
 -1      2811 1.31865E-02
 -1      2812 1.16710E-02
 -1      2813 1.24285E-02
 -1      2814 1.09409E-02
 -1      2815 9.41961E-03
 -1      2816 8.80096E-03
 -1      2817 8.78687E-03
 -1      2818 7.34437E-03
 -1      2819 7.43814E-03
 -1      2820 6.59205E-03
 -1      2821 5.49521E-03
 -1      2822 6.05308E-03
 -1      2823 4.73608E-03
 -1      2824 3.96627E-03
 -1      2825 4.54162E-03
 -1      2826 3.59892E-01
 -1      2827 3.55232E-01
 -1      2828 2.16723E+01
 -1      2829 2.56643E+01
 -1      2830 3.18234E-01
 -1      2831 3.15180E-01
 -1      2832 3.40600E-01
 -1      2833 4.97168E-01
 -1      2834 4.83811E-01
 -1      2835 5.76431E-01
 -1      2836 5.30339E-01
 -1      2837 5.93305E-01
 -1      2838 7.05060E-01
 -1      2839 6.61200E-01
 -1      2840 7.11245E-01
 -1      2841 8.74476E-01
 -1      2842 8.08489E-01
 -1      2843 8.99442E-01
 -1      2844 1.04414E+00
 -1      2845 9.12846E-01
 -1      2846 1.04124E+00
 -1      2847 1.34137E+00
 -1      2848 1.19302E+00
 -1      2849 1.22850E+00
 -1      2850 1.46386E+00
 -1      2851 1.36187E+00
 -1      2852 1.39788E+00
 -1      2853 1.77876E+00
 -1      2854 1.72956E+00
 -1      2855 1.68408E+00
 -1      2856 1.77894E+00
 -1      2857 1.84716E+00
 -1      2858 2.01817E+00
 -1      2859 1.81137E+00
 -1      2860 1.74638E+00
 -1      2861 2.05401E+00
 -1      2862 1.71924E+00
 -1      2863 1.77420E+00
 -1      2864 1.98428E+00
 -1      2865 1.32292E+00
 -1      2866 1.43299E+00
 -1      2867 1.66087E+00
 -1      2868 1.21879E+00
 -1      2869 1.38054E+00
 -1      2870 1.43224E+00
 -1      2871 8.80647E-01
 -1      2872 1.03454E+00
 -1      2873 1.30561E+00
 -1      2874 7.85170E-01
 -1      2875 8.07193E-01
 -1      2876 1.04790E+00
 -1      2877 6.57136E-01
 -1      2878 6.94029E-01
 -1      2879 8.83306E-01
 -1      2880 6.63343E-01
 -1      2881 6.34428E-01
 -1      2882 7.69456E-01
 -1      2883 6.32314E-01
 -1      2884 6.35000E-01
 -1      2885 7.18404E-01
 -1      2886 5.73572E-01
 -1      2887 5.90847E-01
 -1      2888 6.48595E-01
 -1      2889 5.13566E-01
 -1      2890 5.36368E-01
 -1      2891 5.69924E-01
 -1      2892 4.56719E-01
 -1      2893 4.84351E-01
 -1      2894 5.03506E-01
 -1      2895 3.90055E-01
 -1      2896 4.22484E-01
 -1      2897 4.40056E-01
 -1      2898 3.20746E-01
 -1      2899 3.54830E-01
 -1      2900 3.70596E-01
 -1      2901 2.55258E-01
 -1      2902 2.87541E-01
 -1      2903 3.02166E-01
 -1      2904 1.97161E-01
 -1      2905 2.25733E-01
 -1      2906 2.39437E-01
 -1      2907 1.47954E-01
 -1      2908 1.72018E-01
 -1      2909 1.84770E-01
 -1      2910 1.07792E-01
 -1      2911 1.27270E-01
 -1      2912 1.38944E-01
 -1      2913 7.60367E-02
 -1      2914 9.12718E-02
 -1      2915 1.01740E-01
 -1      2916 5.23632E-02
 -1      2917 6.31926E-02
 -1      2918 7.23752E-02
 -1      2919 3.58714E-02
 -1      2920 4.26355E-02
 -1      2921 4.98035E-02
 -1      2922 2.47975E-02
 -1      2923 2.87020E-02
 -1      2924 3.29064E-02
 -1      2925 1.79255E-02
 -1      2926 1.98364E-02
 -1      2927 2.07758E-02
 -1      2928 1.36533E-02
 -1      2929 1.56012E-02
 -1      2930 1.34904E-02
 -1      2931 1.10744E-02
 -1      2932 1.29477E-02
 -1      2933 1.04605E-02
 -1      2934 8.45302E-03
 -1      2935 1.01840E-02
 -1      2936 8.86445E-03
 -1      2937 6.51881E-03
 -1      2938 7.49412E-03
 -1      2939 7.01521E-03
 -1      2940 4.63688E-03
 -1      2941 5.59122E-03
 -1      2942 5.12872E-03
 -1      2943 3.41368E-03
 -1      2944 4.21916E-03
 -1      2945 3.78340E-03
 -1      2946 3.11559E-03
 -1      2947 1.23225E-03
 -1      2948 1.23238E-03
 -1      2949 3.61449E-03
 -1      2950 2.89703E-03
 -1      2951 3.43071E-03
 -1      2952 1.52448E-03
 -1      2953 1.65280E-03
 -1      2954 1.28801E-03
 -1      2955 1.26242E-03
 -1      2956 1.20603E-03
 -1      2957 1.27221E-03
 -1      2958 1.35923E-03
 -1      2959 1.42077E-03
 -1      2960 1.21570E-03
 -1      2961 2.78827E-01
 -1      2962 3.28664E-01
 -1      2963 2.67249E-01
 -1      2964 1.44823E-03
 -1      2965 1.33981E-03
 -1      2966 1.28801E-03
 -1      2967 1.86926E-03
 -1      2968 1.58699E-03
 -1      2969 1.47857E-03
 -1      2970 2.60007E-03
 -1      2971 2.60007E-03
 -1      2972 2.34812E-03
 -1      2973 2.55248E-03
 -1      2974 2.25636E+01
 -1      2975 1.58008E+01
 -1      2976 5.61728E+00
 -1      2977 4.74088E+00
 -1      2978 3.90133E+00
 -1      2979 7.54317E+00
 -1      2980 6.80923E+00
 -1      2981 4.38144E-01
 -1      2982 4.05492E-01
 -1      2983 4.23200E-01
 -1      2984 5.14467E-01
 -1      2985 5.06556E-01
 -1      2986 4.08621E-01
 -1      2987 4.17642E-01
 -1      2988 4.24496E-01
 -1      2989 4.77555E-01
 -1      2990 4.48165E-01
 -1      2991 3.75252E-01
 -1      2992 4.13804E-01
 -1      2993 4.20999E-01
 -1      2994 4.53646E-01
 -1      2995 2.08536E+01
 -1      2996 2.21089E+01
 -1      2997 3.53297E+00
 -1      2998 3.69730E+00
 -1      2999 3.60469E-01
 -1      3000 4.44656E-01
 -1      3001 3.61265E-01
 -1      3002 2.62701E-01
 -1      3003 6.97050E+00
 -1      3004 7.15076E+00
 -1      3005 1.24337E+01
 -1      3006 1.64109E+01
 -1      3007 1.64138E+01
 -1      3008 2.13679E+01
 -1      3009 6.50059E+00
 -1      3010 6.39539E+00
 -1      3011 1.74993E+01
 -1      3012 1.32087E+01
 -1      3013 3.59924E+00
 -1      3014 3.06056E+00
 -1      3015 6.23715E+00
 -1      3016 2.64976E+01
 -1      3017 2.01418E+01
 -1      3018 1.45651E+01
 -1      3019 1.06978E+01
 -1      3020 1.39538E+01
 -1      3021 7.41015E+00
 -1      3022 9.22743E+00
 -1      3023 3.73451E+00
 -1      3024 6.07075E+00
 -1      3025 5.49459E+00
 -1      3026 3.75401E+00
 -1      3027 5.17833E+00
 -1      3028 1.20396E+01
 -1      3029 8.97900E+00
 -1      3030 7.92881E+00
 -1      3031 1.16061E+01
 -1      3032 8.28552E+00
 -1      3033 1.05881E+01
 -1      3034 5.10160E+00
 -1      3035 6.71516E+00
 -1      3036 6.47912E+00
 -1      3037 6.14086E+00
 -1      3038 4.97353E+00
 -1      3039 6.42859E+00
 -1      3040 3.40576E+00
 -1      3041 5.02909E-01
 -1      3042 5.02909E-01
 -1      3043 4.16250E-01
 -1      3044 2.71646E-01
 -1      3045 3.07915E-01
 -1      3046 3.29378E-01
 -1      3047 1.36325E+01
 -1      3048 6.01737E-01
 -1      3049 4.60519E+00
 -1      3050 3.12159E+00
 -1      3051 5.54779E+00
 -1      3052 3.66473E+00
 -1      3053 1.78760E-03
 -1      3054 1.85437E-03
 -1      3055 1.96936E-03
 -1      3056 1.63742E+01
 -1      3057 1.35802E+01
 -1      3058 2.16484E-03
 -1      3059 2.62281E-03
 -1      3060 2.87290E-03
 -1      3061 2.18465E-03
 -1      3062 2.96223E+00
 -1      3063 2.60007E-03
 -1      3064 3.07893E-03
 -1      3065 3.54071E+00
 -1      3066 6.81614E+00
 -1      3067 6.47719E+00
 -1      3068 5.17932E+00
 -1      3069 1.24721E+01
 -1      3070 4.28740E+00
 -1      3071 2.97644E+00
 -1      3072 4.75362E+00
 -1      3073 6.08047E+00
 -1      3074 8.67684E+00
 -1      3075 5.99573E+00
 -1      3076 7.93256E+00
 -1      3077 1.28581E+01
 -1      3078 1.94172E+01
 -1      3079 1.32858E+01
 -1      3080 1.29815E+01
 -1      3081 5.15340E+00
 -1      3082 3.58754E-01
 -1      3083 3.94078E-01
 -1      3084 3.40067E-01
 -1      3085 2.83770E-01
 -1      3086 4.16248E+00
 -1      3087 4.60519E+00
 -1      3088 1.07154E+01
 -1      3089 8.32620E+00
 -1      3090 9.42937E+00
 -1      3091 4.50773E-01
 -1      3092 2.65814E+00
 -1      3093 4.25529E+00
 -1      3094 4.06245E+00
 -1      3095 9.89508E+00
 -1      3096 1.33011E+01
 -1      3097 5.23581E+00
 -1      3098 4.45070E+00
 -1      3099 6.23715E+00
 -1      3100 8.54161E+00
 -1      3101 5.30263E+00
 -1      3102 3.88895E+00
 -1      3103 3.68334E+00
 -1      3104 4.30543E-01
 -1      3105 4.08010E-01
 -1      3106 5.47713E+00
 -1      3107 5.52963E-01
 -1      3108 6.17151E-01
 -1      3109 7.04886E-01
 -1      3110 8.16263E-01
 -1      3111 7.09152E-01
 -1      3112 9.47688E-01
 -1      3113 1.09227E+00
 -1      3114 9.28312E-01
 -1      3115 1.26006E+00
 -1      3116 1.44078E+00
 -1      3117 1.22753E+00
 -1      3118 1.70266E+00
 -1      3119 1.91932E+00
 -1      3120 1.65719E+00
 -1      3121 2.37521E+00
 -1      3122 2.60930E+00
 -1      3123 2.37495E+00
 -1      3124 3.28860E+00
 -1      3125 3.67609E+00
 -1      3126 3.51015E+00
 -1      3127 4.32791E+00
 -1      3128 4.87451E+00
 -1      3129 4.84128E+00
 -1      3130 1.31769E+01
 -1      3131 1.05345E+01
 -1      3132 2.54860E+00
 -1      3133 3.22255E+00
 -1      3134 4.21236E+00
 -1      3135 3.61333E+00
 -1      3136 3.15355E+00
 -1      3137 2.90342E+00
 -1      3138 4.00960E+00
 -1      3139 2.32727E+00
 -1      3140 2.10937E+00
 -1      3141 2.97367E+00
 -1      3142 1.78737E+00
 -1      3143 1.59554E+00
 -1      3144 2.07552E+00
 -1      3145 1.39473E+00
 -1      3146 1.24293E+00
 -1      3147 1.55272E+00
 -1      3148 1.10132E+00
 -1      3149 9.76963E-01
 -1      3150 1.21030E+00
 -1      3151 8.58434E-01
 -1      3152 7.57791E-01
 -1      3153 9.50155E-01
 -1      3154 6.60645E-01
 -1      3155 5.82581E-01
 -1      3156 7.34480E-01
 -1      3157 5.04746E-01
 -1      3158 4.42597E-01
 -1      3159 5.59498E-01
 -1      3160 3.81250E-01
 -1      3161 3.31975E-01
 -1      3162 4.20315E-01
 -1      3163 2.84270E-01
 -1      3164 2.45494E-01
 -1      3165 3.11263E-01
 -1      3166 2.08862E-01
 -1      3167 1.78651E-01
 -1      3168 2.26925E-01
 -1      3169 1.50878E-01
 -1      3170 1.27617E-01
 -1      3171 1.62520E-01
 -1      3172 1.07533E-01
 -1      3173 8.98601E-02
 -1      3174 1.14663E-01
 -1      3175 7.52903E-02
 -1      3176 6.20637E-02
 -1      3177 8.00094E-02
 -1      3178 5.13669E-02
 -1      3179 4.16365E-02
 -1      3180 5.47427E-02
 -1      3181 3.42483E-02
 -1      3182 2.72328E-02
 -1      3183 3.66578E-02
 -1      3184 2.22505E-02
 -1      3185 1.73155E-02
 -1      3186 2.42873E-02
 -1      3187 1.37781E-02
 -1      3188 1.08806E-02
 -1      3189 1.57675E-02
 -1      3190 8.44406E-03
 -1      3191 7.71398E-03
 -1      3192 9.79361E-03
 -1      3193 6.33601E-03
 -1      3194 5.70328E-03
 -1      3195 5.97911E-03
 -1      3196 5.42253E-03
 -1      3197 4.67021E-03
 -1      3198 4.32040E-03
 -1      3199 4.36711E-03
 -1      3200 3.60798E-03
 -1      3201 3.73657E-03
 -1      3202 1.28261E-03
 -1      3203 1.23080E-03
 -1      3204 8.80496E-01
 -1      3205 7.95727E-01
 -1      3206 7.13531E-01
 -1      3207 6.80360E-01
 -1      3208 8.82782E-01
 -1      3209 1.32057E+00
 -1      3210 1.28220E+00
 -1      3211 1.50983E+00
 -1      3212 1.36094E+00
 -1      3213 1.60190E+00
 -1      3214 1.97901E+00
 -1      3215 1.95851E+00
 -1      3216 2.09095E+00
 -1      3217 2.37935E+00
 -1      3218 2.11365E+00
 -1      3219 2.67428E+00
 -1      3220 2.76238E+00
 -1      3221 2.69399E+00
 -1      3222 3.12356E+00
 -1      3223 2.25076E+00
 -1      3224 2.28332E+00
 -1      3225 2.95913E+00
 -1      3226 3.46420E+00
 -1      3227 3.50136E+00
 -1      3228 3.73067E+00
 -1      3229 2.20826E+00
 -1      3230 2.49451E+00
 -1      3231 4.01159E+00
 -1      3232 1.91462E+00
 -1      3233 1.85699E+00
 -1      3234 2.69063E+00
 -1      3235 1.40587E+00
 -1      3236 1.59012E+00
 -1      3237 2.01487E+00
 -1      3238 1.07729E+00
 -1      3239 1.15075E+00
 -1      3240 1.43526E+00
 -1      3241 9.91057E-01
 -1      3242 1.08220E+00
 -1      3243 1.18504E+00
 -1      3244 9.03815E-01
 -1      3245 9.26524E-01
 -1      3246 1.12542E+00
 -1      3247 7.93044E-01
 -1      3248 8.21387E-01
 -1      3249 9.78455E-01
 -1      3250 6.69890E-01
 -1      3251 7.11357E-01
 -1      3252 8.14339E-01
 -1      3253 5.78369E-01
 -1      3254 6.15573E-01
 -1      3255 6.78335E-01
 -1      3256 5.03274E-01
 -1      3257 5.32489E-01
 -1      3258 5.78137E-01
 -1      3259 4.24720E-01
 -1      3260 4.58955E-01
 -1      3261 4.87937E-01
 -1      3262 3.47089E-01
 -1      3263 3.82314E-01
 -1      3264 4.01212E-01
 -1      3265 2.76207E-01
 -1      3266 3.09411E-01
 -1      3267 3.21129E-01
 -1      3268 2.15404E-01
 -1      3269 2.44928E-01
 -1      3270 2.52174E-01
 -1      3271 1.64323E-01
 -1      3272 1.89465E-01
 -1      3273 1.94956E-01
 -1      3274 1.22584E-01
 -1      3275 1.43268E-01
 -1      3276 1.47963E-01
 -1      3277 8.93052E-02
 -1      3278 1.05826E-01
 -1      3279 1.10149E-01
 -1      3280 6.33739E-02
 -1      3281 7.62179E-02
 -1      3282 8.03038E-02
 -1      3283 4.36211E-02
 -1      3284 5.33488E-02
 -1      3285 5.71915E-02
 -1      3286 2.89279E-02
 -1      3287 3.60974E-02
 -1      3288 3.96426E-02
 -1      3289 1.84471E-02
 -1      3290 2.34082E-02
 -1      3291 2.65992E-02
 -1      3292 1.21795E-02
 -1      3293 1.45039E-02
 -1      3294 1.71362E-02
 -1      3295 8.74880E-03
 -1      3296 9.45447E-03
 -1      3297 1.04679E-02
 -1      3298 6.62483E-03
 -1      3299 7.51517E-03
 -1      3300 6.50919E-03
 -1      3301 5.43071E-03
 -1      3302 6.38961E-03
 -1      3303 5.04033E-03
 -1      3304 4.06634E-03
 -1      3305 4.99393E-03
 -1      3306 4.36833E-03
 -1      3307 3.06553E-03
 -1      3308 3.48326E-03
 -1      3309 3.34847E-03
 -1      3310 2.57276E-03
 -1      3311 2.99677E-01
 -1      3312 2.68449E-01
 -1      3313 3.19706E-01
 -1      3314 2.83353E-01
 -1      3315 1.23052E-03
 -1      3316 1.20036E-03
 -1      3317 1.22513E-03
 -1      3318 2.47737E-03
 -1      3319 1.74657E-03
 -1      3320 1.51088E-03
 -1      3321 1.37213E-03
 -1      3322 1.31492E-03
 -1      3323 1.64013E-03
 -1      3324 4.83260E-01
 -1      3325 5.03896E-01
 -1      3326 4.31240E-01
 -1      3327 4.45864E-01
 -1      3328 1.07952E+00
 -1      3329 9.76087E-01
 -1      3330 1.06057E+00
 -1      3331 1.35885E+00
 -1      3332 5.52827E+00
 -1      3333 4.93813E+00
 -1      3334 4.77372E+00
 -1      3335 4.52075E+00
 -1      3336 4.77777E+00
 -1      3337 5.78957E+00
 -1      3338 1.17156E+01
 -1      3339 1.04865E+01
 -1      3340 1.26839E+01
 -1      3341 1.35172E+01
 -1      3342 4.64598E-01
 -1      3343 4.95573E-01
 -1      3344 5.64027E-01
 -1      3345 1.00264E+01
 -1      3346 1.24864E+01
 -1      3347 3.63618E+00
 -1      3348 5.15340E+00
 -1      3349 4.01106E+00
 -1      3350 3.22255E+00
 -1      3351 5.23581E+00
 -1      3352 4.98128E+00
 -1      3353 1.04865E+01
 -1      3354 1.09412E+01
 -1      3355 3.65796E-01
 -1      3356 3.88545E-01
 -1      3357 3.45566E-01
 -1      3358 2.99037E-01
 -1      3359 6.85872E+00
 -1      3360 8.32912E+00
 -1      3361 1.12343E+01
 -1      3362 1.15017E+01
 -1      3363 1.00855E+01
 -1      3364 1.16460E+01
 -1      3365 7.41596E+00
 -1      3366 9.26156E+00
 -1      3367 4.36718E+00
 -1      3368 5.93754E+00
 -1      3369 5.30402E+00
 -1      3370 3.91583E-01
 -1      3371 3.54585E-01
 -1      3372 3.70688E-01
 -1      3373 2.24220E-01
 -1      3374 2.06968E-01
 -1      3375 2.03771E-01
 -1      3376 6.14180E+00
 -1      3377 5.92932E+00
 -1      3378 8.56962E+00
 -1      3379 1.05358E+01
 -1      3380 4.03044E-01
 -1      3381 3.88389E-01
 -1      3382 3.82596E-01
 -1      3383 6.47719E+00
 -1      3384 6.06967E+00
 -1      3385 5.45107E+00
 -1      3386 2.28828E+00
 -1      3387 2.54860E+00
 -1      3388 2.97644E+00
 -1      3389 4.01159E+00
 -1      3390 1.84960E-03
 -1      3391 2.05117E-03
 -1      3392 4.39119E-01
 -1      3393 4.44036E-01
 -1      3394 4.86075E-01
 -1      3395 4.19470E-01
 -1      3396 7.16904E-01
 -1      3397 5.96678E-01
 -1      3398 5.51011E-01
 -1      3399 3.40456E-01
 -1      3400 2.88779E-01
 -1      3401 3.64354E-01
 -1      3402 1.26884E-03
 -1      3403 1.43409E-03
 -1      3404 1.69767E-03
 -1      3405 3.43071E-03
 -1      3406 3.25620E-03
 -1      3407 2.65465E-03
 -1      3408 1.20036E-03
 -1      3409 1.24019E-03
 -1      3410 1.25351E-03
 -1      3411 1.22485E-03
 -1      3412 8.50000E+00
 -1      3413 5.99173E+00
 -1      3414 7.38181E+00
 -1      3415 5.59808E+00
 -1      3416 4.81255E+00
 -1      3417 3.72353E+00
 -1      3418 4.96565E+00
 -1      3419 7.22540E+00
 -1      3420 9.48658E+00
 -1      3421 1.26839E+01
 -1      3422 9.82684E+00
 -1      3423 1.04288E+01
 -1      3424 4.81319E-01
 -1      3425 4.35718E-01
 -1      3426 4.49702E-01
 -1      3427 5.63529E-01
 -1      3428 4.07393E+00
 -1      3429 3.53235E+00
 -1      3430 3.22762E+00
 -1      3431 9.11630E+00
 -1      3432 7.46115E+00
 -1      3433 6.63719E+00
 -1      3434 8.73501E+00
 -1      3435 6.24176E+00
 -1      3436 7.34686E+00
 -1      3437 3.06330E-01
 -1      3438 3.38135E-01
 -1      3439 3.42666E-01
 -1      3440 3.58787E-01
 -1      3441 8.34350E+00
 -1      3442 2.57103E+00
 -1      3443 3.12902E+00
 -1      3444 7.56802E+00
 -1      3445 9.93959E+00
 -1      3446 7.86112E+00
 -1      3447 4.01159E+00
 -1      3448 3.09550E-01
 -1      3449 3.36470E-01
 -1      3450 1.04405E+01
 -1      3451 8.19899E+00
 -1      3452 6.05975E+00
 -1      3453 8.09458E+00
 -1      3454 3.85733E-01
 -1      3455 4.16250E-01
 -1      3456 4.65513E-01
 -1      3457 3.04190E+00
 -1      3458 7.50186E+00
 -1      3459 7.50186E+00
 -1      3460 5.88318E+00
 -1      3461 7.76693E+00
 -1      3462 9.04672E-01
 -1      3463 1.03610E+00
 -1      3464 1.22753E+00
 -1      3465 1.39531E+00
 -1      3466 1.20389E+00
 -1      3467 1.65719E+00
 -1      3468 1.91906E+00
 -1      3469 1.65719E+00
 -1      3470 2.30179E+00
 -1      3471 2.75769E+00
 -1      3472 2.30179E+00
 -1      3473 3.08792E+00
 -1      3474 3.76723E+00
 -1      3475 3.01476E+00
 -1      3476 4.84347E+00
 -1      3477 5.49529E+00
 -1      3478 7.76911E+00
 -1      3479 4.42124E+00
 -1      3480 4.71094E+00
 -1      3481 4.25116E+00
 -1      3482 3.44106E+00
 -1      3483 2.86490E+00
 -1      3484 4.14239E+00
 -1      3485 2.37764E+00
 -1      3486 2.05564E+00
 -1      3487 2.84502E+00
 -1      3488 1.75352E+00
 -1      3489 1.55272E+00
 -1      3490 2.05564E+00
 -1      3491 1.33185E+00
 -1      3492 1.19024E+00
 -1      3493 1.53266E+00
 -1      3494 1.02824E+00
 -1      3495 9.09710E-01
 -1      3496 1.14979E+00
 -1      3497 7.89479E-01
 -1      3498 6.92333E-01
 -1      3499 8.67563E-01
 -1      3500 6.01372E-01
 -1      3501 5.23537E-01
 -1      3502 6.56372E-01
 -1      3503 4.53888E-01
 -1      3504 3.92541E-01
 -1      3505 4.95763E-01
 -1      3506 3.38867E-01
 -1      3507 2.91162E-01
 -1      3508 3.72440E-01
 -1      3509 2.49769E-01
 -1      3510 2.13137E-01
 -1      3511 2.77374E-01
 -1      3512 1.81336E-01
 -1      3513 1.53563E-01
 -1      3514 2.04180E-01
 -1      3515 1.29308E-01
 -1      3516 1.09224E-01
 -1      3517 1.48124E-01
 -1      3518 9.09083E-02
 -1      3519 7.63384E-02
 -1      3520 1.05553E-01
 -1      3521 6.28493E-02
 -1      3522 5.21525E-02
 -1      3523 7.37482E-02
 -1      3524 4.26633E-02
 -1      3525 3.52752E-02
 -1      3526 5.07698E-02
 -1      3527 2.83152E-02
 -1      3528 2.33329E-02
 -1      3529 3.43207E-02
 -1      3530 1.83296E-02
 -1      3531 1.47922E-02
 -1      3532 2.23575E-02
 -1      3533 1.13221E-02
 -1      3534 8.88555E-03
 -1      3535 1.38841E-02
 -1      3536 6.53667E-03
 -1      3537 5.15870E-03
 -1      3538 8.06514E-03
 -1      3539 3.88514E-03
 -1      3540 3.60439E-03
 -1      3541 4.44269E-03
 -1      3542 3.35574E-03
 -1      3543 3.05265E-03
 -1      3544 2.27382E-03
 -1      3545 2.92047E-03
 -1      3546 3.68205E+00
 -1      3547 4.23425E+00
 -1      3548 2.53964E+00
 -1      3549 2.09095E+00
 -1      3550 2.18527E+00
 -1      3551 2.14490E+00
 -1      3552 2.63396E+00
 -1      3553 3.53719E+00
 -1      3554 3.22255E+00
 -1      3555 2.69063E+00
 -1      3556 2.46474E+00
 -1      3557 2.78924E+00
 -1      3558 1.37960E+00
 -1      3559 1.37469E+00
 -1      3560 1.40098E+00
 -1      3561 1.46551E+00
 -1      3562 1.65516E+00
 -1      3563 1.03940E+00
 -1      3564 1.12183E+00
 -1      3565 1.46192E+00
 -1      3566 8.46183E-01
 -1      3567 9.27871E-01
 -1      3568 1.07124E+00
 -1      3569 7.03910E-01
 -1      3570 7.58227E-01
 -1      3571 8.71758E-01
 -1      3572 5.76518E-01
 -1      3573 6.22398E-01
 -1      3574 7.02290E-01
 -1      3575 4.68867E-01
 -1      3576 5.13186E-01
 -1      3577 5.57447E-01
 -1      3578 3.76552E-01
 -1      3579 4.18958E-01
 -1      3580 4.44207E-01
 -1      3581 3.01432E-01
 -1      3582 3.39109E-01
 -1      3583 3.56855E-01
 -1      3584 2.38916E-01
 -1      3585 2.70195E-01
 -1      3586 2.88175E-01
 -1      3587 1.84986E-01
 -1      3588 2.10925E-01
 -1      3589 2.28946E-01
 -1      3590 1.39989E-01
 -1      3591 1.61044E-01
 -1      3592 1.77012E-01
 -1      3593 1.03472E-01
 -1      3594 1.20231E-01
 -1      3595 1.33312E-01
 -1      3596 7.45611E-02
 -1      3597 8.76483E-02
 -1      3598 9.77297E-02
 -1      3599 5.24140E-02
 -1      3600 6.24391E-02
 -1      3601 6.97836E-02
 -1      3602 3.60200E-02
 -1      3603 4.35438E-02
 -1      3604 4.87914E-02
 -1      3605 2.38433E-02
 -1      3606 2.93630E-02
 -1      3607 3.32641E-02
 -1      3608 1.50348E-02
 -1      3609 1.89781E-02
 -1      3610 2.17419E-02
 -1      3611 8.88779E-03
 -1      3612 1.16129E-02
 -1      3613 1.34547E-02
 -1      3614 5.54478E-03
 -1      3615 6.77841E-03
 -1      3616 7.92338E-03
 -1      3617 4.11727E-03
 -1      3618 4.35249E-03
 -1      3619 4.62172E-03
 -1      3620 3.32938E-03
 -1      3621 3.76616E-03
 -1      3622 3.07832E-03
 -1      3623 2.05152E-03
 -1      3624 2.24700E-03
 -1      3625 2.43963E-03
 -1      3626 2.11352E-03
 -1      3627 7.43224E+00
 -1      3628 7.50186E+00
 -1      3629 6.43411E+00
 -1      3630 4.13256E-01
 -1      3631 3.78377E-01
 -1      3632 4.45864E-01
 -1      3633 5.75136E+00
 -1      3634 2.23588E-01
 -1      3635 2.52964E-01
 -1      3636 2.49368E-01
 -1      3637 8.01785E+00
 -1      3638 7.67759E+00
 -1      3639 5.23331E-01
 -1      3640 5.80721E-01
 -1      3641 1.97243E-03
 -1      3642 1.97216E-03
 -1      3643 2.80891E+00
 -1      3644 2.67428E+00
 -1      3645 8.42024E+00
 -1      3646 8.91526E+00
 -1      3647 8.31328E+00
 -1      3648 6.14859E+00
 -1      3649 1.05460E+00
 -1      3650 9.72405E-01
 -1      3651 6.78893E-01
 -1      3652 7.66628E-01
 -1      3653 8.74414E-01
 -1      3654 3.48028E+00
 -1      3655 4.95871E+00
 -1      3656 1.83752E+00
 -1      3657 1.63483E+00
 -1      3658 2.42089E+00
 -1      3659 3.84664E-01
 -1      3660 3.79697E-01
 -1      3661 1.00865E+00
 -1      3662 8.36836E-01
 -1      3663 7.53153E-01
 -1      3664 2.46768E-03
 -1      3665 2.06968E-03
 -1      3666 1.83399E-03
 -1      3667 5.99292E+00
 -1      3668 4.56775E-01
 -1      3669 4.77337E-01
 -1      3670 4.94031E-01
 -1      3671 3.29290E-01
 -1      3672 4.09070E-01
 -1      3673 4.65513E-01
 -1      3674 3.18704E+00
 -1      3675 3.53593E-01
 -1      3676 3.91206E+00
 -1      3677 3.43300E+00
 -1      3678 2.28355E+00
 -1      3679 3.05792E+00
 -1      3680 3.00585E+00
 -1      3681 2.02843E+00
 -1      3682 2.22298E+00
 -1      3683 2.42019E-03
 -1      3684 2.42054E-03
 -1      3685 3.02271E-03
 -1      3686 6.65029E+00
 -1      3687 5.65216E+00
 -1      3688 5.68107E+00
 -1      3689 1.76162E-01
 -1      3690 2.53457E-03
 -1      3691 2.53457E-03
 -1      3692 3.28187E-03
 -1      3693 3.97972E+00
 -1      3694 4.71331E-01
 -1      3695 4.79019E-01
 -1      3696 5.15466E-01
 -1      3697 3.22439E-01
 -1      3698 2.81661E-01
 -1      3699 1.99046E-03
 -1      3700 1.90094E-03
 -1      3701 2.64797E-03
 -1      3702 2.42001E-03
 -1      3703 5.77414E+00
 -1      3704 4.82975E+00
 -1      3705 5.07978E+00
 -1      3706 4.82801E+00
 -1      3707 3.64483E+00
 -1      3708 4.27727E+00
 -1      3709 6.00947E+00
 -1      3710 7.07722E+00
 -1      3711 6.07563E+00
 -1      3712 3.94352E+00
 -1      3713 5.76726E+00
 -1      3714 5.62200E+00
 -1      3715 1.23058E+00
 -1      3716 1.32021E+00
 -1      3717 1.32617E+00
 -1      3718 8.01785E+00
 -1      3719 6.20886E+00
 -1      3720 8.01785E+00
 -1      3721 6.38197E-01
 -1      3722 6.38224E+00
 -1      3723 4.58279E+00
 -1      3724 4.91351E+00
 -1      3725 3.63105E-01
 -1      3726 3.86082E-01
 -1      3727 4.05672E-01
 -1      3728 2.92735E-01
 -1      3729 3.16072E-01
 -1      3730 2.36150E-01
 -1      3731 3.47970E-03
 -1      3732 3.78672E-03
 -1      3733 2.91574E-01
 -1      3734 2.57914E-01
 -1      3735 2.13684E-01
 -1      3736 2.76006E+00
 -1      3737 2.84718E+00
 -1      3738 2.67428E+00
 -1      3739 3.06419E-03
 -1      3740 3.51294E+00
 -1      3741 2.82478E+00
 -1      3742 1.07907E+00
 -1      3743 1.27050E+00
 -1      3744 3.84664E-01
 -1      3745 3.81764E-01
 -1      3746 1.51387E+00
 -1      3747 1.77574E+00
 -1      3748 1.38905E+00
 -1      3749 2.76440E+00
 -1      3750 3.14714E+00
 -1      3751 2.62108E+00
 -1      3752 4.21725E+00
 -1      3753 4.54749E+00
 -1      3754 4.67986E+00
 -1      3755 3.47693E+00
 -1      3756 4.55317E+00
 -1      3757 5.20429E+00
 -1      3758 4.67942E+00
 -1      3759 4.63793E+00
 -1      3760 3.82783E+00
 -1      3761 1.83899E+00
 -1      3762 2.11814E+00
 -1      3763 4.65513E-01
 -1      3764 3.27039E+00
 -1      3765 2.78312E+00
 -1      3766 3.76593E+00
 -1      3767 2.23755E+00
 -1      3768 1.93543E+00
 -1      3769 2.66291E+00
 -1      3770 1.61048E+00
 -1      3771 1.38962E+00
 -1      3772 1.79239E+00
 -1      3773 1.18314E+00
 -1      3774 1.02114E+00
 -1      3775 1.26096E+00
 -1      3776 8.84443E-01
 -1      3777 7.64212E-01
 -1      3778 9.17788E-01
 -1      3779 6.67675E-01
 -1      3780 5.76715E-01
 -1      3781 6.84555E-01
 -1      3782 5.05533E-01
 -1      3783 4.35885E-01
 -1      3784 5.16837E-01
 -1      3785 3.81840E-01
 -1      3786 3.28166E-01
 -1      3787 3.91611E-01
 -1      3788 2.86481E-01
 -1      3789 2.45088E-01
 -1      3790 2.95880E-01
 -1      3791 2.12761E-01
 -1      3792 1.80960E-01
 -1      3793 2.21868E-01
 -1      3794 1.55931E-01
 -1      3795 1.31676E-01
 -1      3796 1.64512E-01
 -1      3797 1.12421E-01
 -1      3798 9.41057E-02
 -1      3799 1.20229E-01
 -1      3800 7.94416E-02
 -1      3801 6.59524E-02
 -1      3802 8.63100E-02
 -1      3803 5.49279E-02
 -1      3804 4.54387E-02
 -1      3805 6.06213E-02
 -1      3806 3.75106E-02
 -1      3807 3.05507E-02
 -1      3808 4.16687E-02
 -1      3809 2.49758E-02
 -1      3810 1.99725E-02
 -1      3811 2.81657E-02
 -1      3812 1.59218E-02
 -1      3813 1.24516E-02
 -1      3814 1.85400E-02
 -1      3815 9.60118E-03
 -1      3816 7.25229E-03
 -1      3817 1.16388E-02
 -1      3818 5.29195E-03
 -1      3819 4.01838E-03
 -1      3820 6.82798E-03
 -1      3821 2.94390E-03
 -1      3822 2.69525E-03
 -1      3823 2.49111E-03
 -1      3824 3.79316E-03
 -1      3825 3.06419E-03
 -1      3826 4.84623E-03
 -1      3827 3.03554E-03
 -1      3828 3.66539E-01
 -1      3829 3.42503E-01
 -1      3830 3.35384E-01
 -1      3831 3.68606E-01
 -1      3832 2.72912E+00
 -1      3833 5.24687E+00
 -1      3834 5.24687E+00
 -1      3835 2.41968E+00
 -1      3836 3.07342E+00
 -1      3837 3.20254E+00
 -1      3838 2.50560E+00
 -1      3839 8.95582E-01
 -1      3840 9.83539E-01
 -1      3841 6.86055E-01
 -1      3842 7.67566E-01
 -1      3843 8.79347E-01
 -1      3844 5.45531E-01
 -1      3845 6.08862E-01
 -1      3846 6.74139E-01
 -1      3847 4.39183E-01
 -1      3848 4.89092E-01
 -1      3849 5.40507E-01
 -1      3850 3.56855E-01
 -1      3851 3.94298E-01
 -1      3852 4.39183E-01
 -1      3853 2.85630E-01
 -1      3854 3.16867E-01
 -1      3855 3.54310E-01
 -1      3856 2.23334E-01
 -1      3857 2.51325E-01
 -1      3858 2.80018E-01
 -1      3859 1.70759E-01
 -1      3860 1.94701E-01
 -1      3861 2.17081E-01
 -1      3862 1.27639E-01
 -1      3863 1.47398E-01
 -1      3864 1.65086E-01
 -1      3865 9.31393E-02
 -1      3866 1.08963E-01
 -1      3867 1.23049E-01
 -1      3868 6.63772E-02
 -1      3869 7.84992E-02
 -1      3870 8.97329E-02
 -1      3871 4.62533E-02
 -1      3872 5.51235E-02
 -1      3873 6.38391E-02
 -1      3874 3.13164E-02
 -1      3875 3.79734E-02
 -1      3876 4.43055E-02
 -1      3877 2.05712E-02
 -1      3878 2.54364E-02
 -1      3879 3.01457E-02
 -1      3880 1.28517E-02
 -1      3881 1.62737E-02
 -1      3882 1.99682E-02
 -1      3883 7.68263E-03
 -1      3884 9.79201E-03
 -1      3885 1.26110E-02
 -1      3886 5.14505E-03
 -1      3887 6.33733E-03
 -1      3888 8.20596E-03
 -1      3889 4.13783E-03
 -1      3890 3.57187E+00
 -1      3891 3.86082E-01
 -1      3892 5.85345E-03
 -1      3893 4.00332E-01
 -1      3894 4.56775E-01
 -1      3895 6.63170E-01
 -1      3896 5.93478E-01
 -1      3897 7.83102E-01
 -1      3898 5.60802E-01
 -1      3899 6.58974E-01
 -1      3900 5.75946E+00
 -1      3901 7.05415E+00
 -1      3902 1.24006E+00
 -1      3903 1.35159E+00
 -1      3904 2.00780E+00
 -1      3905 1.26388E+00
 -1      3906 2.13684E-01
 -1      3907 2.30305E-01
 -1      3908 2.73672E-01
 -1      3909 2.67827E-01
 -1      3910 7.72605E-01
 -1      3911 9.10650E-01
 -1      3912 9.77262E-01
 -1      3913 3.43424E+00
 -1      3914 6.95210E-01
 -1      3915 1.23735E+00
 -1      3916 1.10178E+00
 -1      3917 4.34525E-03
 -1      3918 2.88266E+00
 -1      3919 4.08727E+00
 -1      3920 4.30486E+00
 -1      3921 3.53479E+00
 -1      3922 3.90609E-01
 -1      3923 3.77450E-01
 -1      3924 3.94927E-01
 -1      3925 2.40879E+00
 -1      3926 3.77146E-01
 -1      3927 3.53399E-01
 -1      3928 5.29353E+00
 -1      3929 4.10629E+00
 -1      3930 4.51158E+00
 -1      3931 4.01109E+00
 -1      3932 5.44490E+00
 -1      3933 4.81114E+00
 -1      3934 4.83240E-03
 -1      3935 5.39480E-03
 -1      3936 5.85345E-03
 -1      3937 5.85345E-03
 -1      3938 6.86066E-03
 -1      3939 6.15106E-01
 -1      3940 4.58279E+00
 -1      3941 4.11516E+00
 -1      3942 3.61816E+00
 -1      3943 4.20546E-01
 -1      3944 4.00482E-01
 -1      3945 4.62308E-01
 -1      3946 4.42548E-01
 -1      3947 3.92597E-03
 -1      3948 3.99746E-03
 -1      3949 6.11039E-03
 -1      3950 5.17931E+00
 -1      3951 4.75467E+00
 -1      3952 3.99207E+00
 -1      3953 1.66003E+00
 -1      3954 1.75316E+00
 -1      3955 1.83601E+00
 -1      3956 4.95410E+00
 -1      3957 1.80484E+00
 -1      3958 5.16129E+00
 -1      3959 3.86595E+00
 -1      3960 4.10199E-01
 -1      3961 2.95046E+00
 -1      3962 3.04478E+00
 -1      3963 4.43798E-01
 -1      3964 4.89792E-01
 -1      3965 5.10569E-01
 -1      3966 3.96093E-01
 -1      3967 3.31841E+00
 -1      3968 3.24545E+00
 -1      3969 2.92895E+00
 -1      3970 3.34601E+00
 -1      3971 6.27485E+00
 -1      3972 7.78841E+00
 -1      3973 5.97942E+00
 -1      3974 4.67942E+00
 -1      3975 5.16129E+00
 -1      3976 2.62156E+00
 -1      3977 3.59539E-01
 -1      3978 5.66344E-01
 -1      3979 5.08269E-01
 -1      3980 2.85866E+00
 -1      3981 4.97523E-01
 -1      3982 5.25597E+00
 -1      3983 4.20840E+00
 -1      3984 5.39480E-03
 -1      3985 5.89578E-03
 -1      3986 6.90300E-03
 -1      3987 6.94533E-03
 -1      3988 2.45550E+00
 -1      3989 3.44416E+00
 -1      3990 3.95641E+00
 -1      3991 5.02653E+00
 -1      3992 2.41396E+00
 -1      3993 3.59243E+00
 -1      3994 3.03499E+00
 -1      3995 4.22316E+00
 -1      3996 2.54321E+00
 -1      3997 1.99764E+00
 -1      3998 2.36971E+00
 -1      3999 1.70410E+00
 -1      4000 1.37915E+00
 -1      4001 1.58440E+00
 -1      4002 1.18696E+00
 -1      4003 9.80480E-01
 -1      4004 1.09867E+00
 -1      4005 8.59811E-01
 -1      4006 7.23116E-01
 -1      4007 7.85808E-01
 -1      4008 6.38416E-01
 -1      4009 5.41879E-01
 -1      4010 5.80440E-01
 -1      4011 4.82312E-01
 -1      4012 4.11131E-01
 -1      4013 4.36173E-01
 -1      4014 3.68593E-01
 -1      4015 3.14548E-01
 -1      4016 3.34069E-01
 -1      4017 2.80929E-01
 -1      4018 2.39244E-01
 -1      4019 2.57912E-01
 -1      4020 2.12507E-01
 -1      4021 1.80181E-01
 -1      4022 1.97556E-01
 -1      4023 1.58967E-01
 -1      4024 1.33938E-01
 -1      4025 1.49606E-01
 -1      4026 1.17236E-01
 -1      4027 9.79819E-02
 -1      4028 1.11691E-01
 -1      4029 8.49782E-02
 -1      4030 7.03140E-02
 -1      4031 8.19860E-02
 -1      4032 6.03262E-02
 -1      4033 4.93017E-02
 -1      4034 5.89945E-02
 -1      4035 4.21158E-02
 -1      4036 3.41877E-02
 -1      4037 4.18207E-02
 -1      4038 2.89183E-02
 -1      4039 2.33434E-02
 -1      4040 2.93654E-02
 -1      4041 1.94052E-02
 -1      4042 1.53544E-02
 -1      4043 2.01578E-02
 -1      4044 1.26410E-02
 -1      4045 9.79051E-03
 -1      4046 1.35061E-02
 -1      4047 7.38149E-03
 -1      4048 5.42115E-03
 -1      4049 8.38368E-03
 -1      4050 1.19110E+00
 -1      4051 1.43447E+00
 -1      4052 2.25754E+00
 -1      4053 5.40507E-01
 -1      4054 5.96946E-01
 -1      4055 8.41225E-01
 -1      4056 9.69242E-01
 -1      4057 4.30966E-01
 -1      4058 4.75850E-01
 -1      4059 5.32290E-01
 -1      4060 3.38719E-01
 -1      4061 3.78707E-01
 -1      4062 4.15375E-01
 -1      4063 2.62513E-01
 -1      4064 2.96818E-01
 -1      4065 3.21215E-01
 -1      4066 2.00485E-01
 -1      4067 2.29117E-01
 -1      4068 2.45917E-01
 -1      4069 1.50697E-01
 -1      4070 1.74059E-01
 -1      4071 1.86096E-01
 -1      4072 1.11291E-01
 -1      4073 1.29966E-01
 -1      4074 1.38939E-01
 -1      4075 8.05542E-02
 -1      4076 9.51944E-02
 -1      4077 1.02112E-01
 -1      4078 5.69531E-02
 -1      4079 6.82068E-02
 -1      4080 7.36683E-02
 -1      4081 3.93341E-02
 -1      4082 4.76140E-02
 -1      4083 5.19817E-02
 -1      4084 2.65117E-02
 -1      4085 3.23917E-02
 -1      4086 3.57002E-02
 -1      4087 1.75272E-02
 -1      4088 2.18247E-02
 -1      4089 2.40708E-02
 -1      4090 1.10784E-02
 -1      4091 1.41381E-02
 -1      4092 1.59946E-02
 -1      4093 7.53482E-03
 -1      4094 8.88012E-03
 -1      4095 1.04072E-02
 -1      4096 7.53482E-03
 -1      4097 3.71153E+00
 -1      4098 4.45251E+00
 -1      4099 4.51158E+00
 -1      4100 3.32408E+00
 -1      4101 8.38424E-01
 -1      4102 1.00685E+00
 -1      4103 1.05226E+00
 -1      4104 9.16358E-01
 -1      4105 8.26375E-01
 -1      4106 1.14505E+00
 -1      4107 2.26355E-03
 -1      4108 2.42001E-03
 -1      4109 3.76950E-03
 -1      4110 2.49111E-03
 -1      4111 3.28398E+00
 -1      4112 2.77592E+00
 -1      4113 6.74139E-01
 -1      4114 7.51331E-01
 -1      4115 6.74139E-01
 -1      4116 5.90089E-01
 -1      4117 7.03721E-01
 -1      4118 7.33303E-01
 -1      4119 4.38468E-01
 -1      4120 5.09477E-01
 -1      4121 5.17988E-01
 -1      4122 3.58447E-01
 -1      4123 4.38972E-01
 -1      4124 3.53399E-01
 -1      4125 3.53399E-01
 -1      4126 6.91260E-01
 -1      4127 6.13248E-01
 -1      4128 6.42497E-01
 -1      4129 2.46726E+00
 -1      4130 3.49595E+00
 -1      4131 3.24817E+00
 -1      4132 3.24817E+00
 -1      4133 5.40618E-01
 -1      4134 3.79082E+00
 -1      4135 5.97942E+00
 -1      4136 6.89402E-01
 -1      4137 6.42497E-01
 -1      4138 4.02525E+00
 -1      4139 3.50036E+00
 -1      4140 3.52825E+00
 -1      4141 3.39299E+00
 -1      4142 8.24516E-01
 -1      4143 3.56559E-03
 -1      4144 4.15295E+00
 -1      4145 3.50036E+00
 -1      4146 3.39905E+00
 -1      4147 3.35239E+00
 -1      4148 1.48028E+00
 -1      4149 1.51840E+00
 -1      4150 1.77492E+00
 -1      4151 3.52602E-01
 -1      4152 2.87525E+00
 -1      4153 3.70412E+00
 -1      4154 2.38784E+00
 -1      4155 1.68076E+00
 -1      4156 1.49534E+00
 -1      4157 5.95593E-01
 -1      4158 5.40618E-01
 -1      4159 5.17282E-01
 -1      4160 6.42497E-01
 -1      4161 3.28483E+00
 -1      4162 1.06379E-02
 -1      4163 1.14728E-02
 -1      4164 2.80709E+00
 -1      4165 8.41225E-01
 -1      4166 5.18133E-01
 -1      4167 5.18133E-01
 -1      4168 5.96444E-01
 -1      4169 3.79082E+00
 -1      4170 3.69615E+00
 -1      4171 3.27857E+00
 -1      4172 1.60003E-02
 -1      4173 1.14728E-02
 -1      4174 1.14728E-02
 -1      4175 4.11910E-03
 -1      4176 2.67688E+00
 -1      4177 2.25420E+00
 -1      4178 2.60449E+00
 -1      4179 6.77443E-03
 -1      4180 6.73210E-03
 -1      4181 7.40626E-03
 -1      4182 1.13019E-02
 -1      4183 3.02805E+00
 -1      4184 3.39805E+00
 -1      4185 3.30813E+00
 -1      4186 9.32961E-01
 -1      4187 9.32961E-01
 -1      4188 1.06808E+00
 -1      4189 5.74998E+00
 -1      4190 2.60883E+00
 -1      4191 2.11706E+00
 -1      4192 3.14034E+00
 -1      4193 1.70022E+00
 -1      4194 1.40668E+00
 -1      4195 1.20539E+00
 -1      4196 1.01320E+00
 -1      4197 1.32121E+00
 -1      4198 8.58952E-01
 -1      4199 7.38283E-01
 -1      4200 9.65673E-01
 -1      4201 6.34757E-01
 -1      4202 5.50057E-01
 -1      4203 7.07901E-01
 -1      4204 4.76569E-01
 -1      4205 4.17002E-01
 -1      4206 5.30886E-01
 -1      4207 3.62502E-01
 -1      4208 3.19965E-01
 -1      4209 4.02898E-01
 -1      4210 2.78450E-01
 -1      4211 2.44831E-01
 -1      4212 3.06884E-01
 -1      4213 2.12753E-01
 -1      4214 1.86017E-01
 -1      4215 2.33292E-01
 -1      4216 1.61116E-01
 -1      4217 1.39903E-01
 -1      4218 1.76314E-01
 -1      4219 1.20926E-01
 -1      4220 1.04224E-01
 -1      4221 1.32436E-01
 -1      4222 8.94164E-02
 -1      4223 7.64126E-02
 -1      4224 9.86507E-02
 -1      4225 6.49422E-02
 -1      4226 5.49544E-02
 -1      4227 7.23726E-02
 -1      4228 4.61551E-02
 -1      4229 3.89692E-02
 -1      4230 5.21028E-02
 -1      4231 3.23165E-02
 -1      4232 2.70471E-02
 -1      4233 3.66509E-02
 -1      4234 2.22390E-02
 -1      4235 1.83008E-02
 -1      4236 2.51902E-02
 -1      4237 1.46339E-02
 -1      4238 1.19204E-02
 -1      4239 1.67152E-02
 -1      4240 1.33965E-02
 -1      4241 1.09875E-02
 -1      4242 3.70412E+00
 -1      4243 2.95022E+00
 -1      4244 3.77422E-01
 -1      4245 4.29680E-01
 -1      4246 7.60419E-01
 -1      4247 7.13515E-01
 -1      4248 7.14365E-01
 -1      4249 4.95624E-01
 -1      4250 5.60280E-01
 -1      4251 4.57670E-01
 -1      4252 2.15486E-01
 -1      4253 2.48882E-01
 -1      4254 1.60840E-01
 -1      4255 1.87265E-01
 -1      4256 1.90230E-01
 -1      4257 1.18662E-01
 -1      4258 1.39393E-01
 -1      4259 1.40562E-01
 -1      4260 8.78982E-02
 -1      4261 1.03995E-01
 -1      4262 1.04448E-01
 -1      4263 6.39395E-02
 -1      4264 7.62870E-02
 -1      4265 7.81695E-02
 -1      4266 4.54245E-02
 -1      4267 5.47636E-02
 -1      4268 5.73823E-02
 -1      4269 3.13583E-02
 -1      4270 3.83007E-02
 -1      4271 4.10826E-02
 -1      4272 2.14460E-02
 -1      4273 2.61330E-02
 -1      4274 2.87336E-02
 -1      4275 1.70208E-02
 -1      4276 2.04100E-02
 -1      4277 2.24722E-02
 -1      4278 6.25214E-01
 -1      4279 7.59917E-01
 -1      4280 3.22825E+00
 -1      4281 3.64583E+00
 -1      4282 3.70412E+00
 -1      4283 1.45243E-02
 -1      4284 3.02805E+00
 -1      4285 3.43833E+00
 -1      4286 6.52962E-01
 -1      4287 7.30155E-01
 -1      4288 6.16296E-01
 -1      4289 2.50066E+00
 -1      4290 2.33743E+00
 -1      4291 2.33743E+00
 -1      4292 1.31640E+00
 -1      4293 9.16102E-01
 -1      4294 1.10036E+00
 -1      4295 1.18024E+00
 -1      4296 8.08013E-01
 -1      4297 2.90398E+00
 -1      4298 2.85365E+00
 -1      4299 4.38174E-01
 -1      4300 1.60378E+00
 -1      4301 2.86118E-01
 -1      4302 3.28019E-01
 -1      4303 2.55686E-01
 -1      4304 9.21409E-01
 -1      4305 1.01130E+00
 -1      4306 9.00232E-01
 -1      4307 3.17793E+00
 -1      4308 3.25529E+00
 -1      4309 3.42324E-01
 -1      4310 1.00398E+00
 -1      4311 1.96283E+00
 -1      4312 3.17793E+00
 -1      4313 3.17793E+00
 -1      4314 1.93934E+00
 -1      4315 2.66230E+00
 -1      4316 2.35723E+00
 -1      4317 1.50021E+00
 -1      4318 2.04937E+00
 -1      4319 1.58040E+00
 -1      4320 2.64236E+00
 -1      4321 2.85365E+00
 -1      4322 9.62639E-03
 -1      4323 1.18246E-02
 -1      4324 1.62400E-02
 -1      4325 8.82366E-03
 -1      4326 5.62506E-03
 -1      4327 2.99799E+00
 -1      4328 2.36674E+00
 -1      4329 1.84121E-02
 -1      4330 1.84121E-02
 -1      4331 1.69361E-02
 -1      4332 4.51087E-01
 -1      4333 4.50290E-01
 -1      4334 2.28021E+00
 -1      4335 5.30249E-01
 -1      4336 2.21274E+00
 -1      4337 1.79035E+00
 -1      4338 1.36309E+00
 -1      4339 1.19055E+00
 -1      4340 2.03952E+00
 -1      4341 5.30901E-01
 -1      4342 5.57516E-01
 -1      4343 1.79590E+00
 -1      4344 2.66230E+00
 -1      4345 2.06931E+00
 -1      4346 1.07654E+00
 -1      4347 9.22294E-01
 -1      4348 7.11097E-01
 -1      4349 6.07570E-01
 -1      4350 8.21964E-01
 -1      4351 5.37009E-01
 -1      4352 4.63521E-01
 -1      4353 5.40205E-01
 -1      4354 4.12489E-01
 -1      4355 3.57989E-01
 -1      4356 4.18612E-01
 -1      4357 3.17995E-01
 -1      4358 2.76480E-01
 -1      4359 3.27586E-01
 -1      4360 2.44467E-01
 -1      4361 2.12390E-01
 -1      4362 2.55578E-01
 -1      4363 1.87235E-01
 -1      4364 1.62334E-01
 -1      4365 1.98410E-01
 -1      4366 1.42111E-01
 -1      4367 1.23134E-01
 -1      4368 1.53032E-01
 -1      4369 1.06895E-01
 -1      4370 9.20875E-02
 -1      4371 1.16570E-01
 -1      4372 7.91819E-02
 -1      4373 6.77115E-02
 -1      4374 8.74263E-02
 -1      4375 5.75810E-02
 -1      4376 4.87818E-02
 -1      4377 6.43904E-02
 -1      4378 4.09396E-02
 -1      4379 3.42869E-02
 -1      4380 4.64178E-02
 -1      4381 2.82176E-02
 -1      4382 2.34095E-02
 -1      4383 3.25062E-02
 -1      4384 2.06030E-02
 -1      4385 2.64236E+00
 -1      4386 7.61432E-01
 -1      4387 6.44360E-01
 -1      4388 1.12054E+00
 -1      4389 3.79654E-01
 -1      4390 4.45597E-01
 -1      4391 6.24561E-01
 -1      4392 1.25962E-01
 -1      4393 1.47409E-01
 -1      4394 1.67632E-01
 -1      4395 1.95853E-01
 -1      4396 7.05395E-02
 -1      4397 8.21508E-02
 -1      4398 5.12332E-02
 -1      4399 6.04091E-02
 -1      4400 3.62672E-02
 -1      4401 4.33910E-02
 -1      4402 2.49726E-02
 -1      4403 3.01979E-02
 -1      4404 2.39365E-02
 -1      4405 1.82756E+00
 -1      4406 1.55416E+00
 -1      4407 1.35287E+00
 -1      4408 1.82756E+00
 -1      4409 2.90256E-01
 -1      4410 3.39659E-01
 -1      4411 4.96629E-01
 -1      4412 5.89311E-01
 -1      4413 2.99799E+00
 -1      4414 2.86778E+00
 -1      4415 1.47297E+00
 -1      4416 2.21008E-01
 -1      4417 2.58243E-01
 -1      4418 6.59873E-01
 -1      4419 8.51127E-01
 -1      4420 9.50563E-02
 -1      4421 1.09724E-01
 -1      4422 6.71627E-01
 -1      4423 2.86778E+00
 -1      4424 1.33865E+00
 -1      4425 1.59339E-02
 -1      4426 2.11301E-02
 -1      4427 1.30949E+00
 -1      4428 2.36304E-02
 -1      4429 8.27812E-01
 -1      4430 1.25693E+00
 -1      4431 1.35221E-02
 -1      4432 1.06232E+00
 -3
 9999
