    1C
    1UUSER                                                              
    1UDATE              27.october.2022                                 
    1UTIME              00:14:39                                        
    1UHOST                                                              
    1UPGM               CalculiX                                        
    1UVERSION           Version 2.17                             
    1UCOMPILETIME       Thu Jul 23 21:43:50 CEST 2020                    
    1UDIR                                                               
    1UDBN                                                               
    1UMAT    1SOLIDMATERIAL                                             
    2C                          4284                                     1
 -1         1 8.42863E+01 3.82315E+01 0.00000E+00
 -1         2 9.78989E+01 3.59350E+01 0.00000E+00
 -1         3 1.50000E+02 0.00000E+00 0.00000E+00
 -1         4 1.50000E+02 5.00000E+01 0.00000E+00
 -1         5 0.00000E+00 0.00000E+00 0.00000E+00
 -1         6 0.00000E+00 5.00000E+01 0.00000E+00
 -1         7 0.00000E+00 4.70500E+01 0.00000E+00
 -1         8 0.00000E+00 4.41000E+01 0.00000E+00
 -1         9 0.00000E+00 4.11500E+01 0.00000E+00
 -1        10 0.00000E+00 3.82000E+01 0.00000E+00
 -1        11 0.00000E+00 3.52500E+01 0.00000E+00
 -1        12 0.00000E+00 3.23500E+01 0.00000E+00
 -1        13 0.00000E+00 2.94000E+01 0.00000E+00
 -1        14 0.00000E+00 2.64500E+01 0.00000E+00
 -1        15 0.00000E+00 2.35000E+01 0.00000E+00
 -1        16 0.00000E+00 2.05500E+01 0.00000E+00
 -1        17 0.00000E+00 1.76000E+01 0.00000E+00
 -1        18 0.00000E+00 1.47000E+01 0.00000E+00
 -1        19 0.00000E+00 1.17500E+01 0.00000E+00
 -1        20 0.00000E+00 8.80000E+00 0.00000E+00
 -1        21 0.00000E+00 5.85000E+00 0.00000E+00
 -1        22 0.00000E+00 2.90000E+00 0.00000E+00
 -1        23 3.00000E+00 5.00000E+01 0.00000E+00
 -1        24 6.00000E+00 5.00000E+01 0.00000E+00
 -1        25 9.00000E+00 5.00000E+01 0.00000E+00
 -1        26 1.20000E+01 5.00000E+01 0.00000E+00
 -1        27 1.50000E+01 5.00000E+01 0.00000E+00
 -1        28 1.80000E+01 5.00000E+01 0.00000E+00
 -1        29 2.10000E+01 5.00000E+01 0.00000E+00
 -1        30 2.40000E+01 5.00000E+01 0.00000E+00
 -1        31 2.70000E+01 5.00000E+01 0.00000E+00
 -1        32 3.00000E+01 5.00000E+01 0.00000E+00
 -1        33 3.30000E+01 5.00000E+01 0.00000E+00
 -1        34 3.60000E+01 5.00000E+01 0.00000E+00
 -1        35 3.90000E+01 5.00000E+01 0.00000E+00
 -1        36 4.20000E+01 5.00000E+01 0.00000E+00
 -1        37 4.50000E+01 5.00000E+01 0.00000E+00
 -1        38 4.80000E+01 5.00000E+01 0.00000E+00
 -1        39 5.10000E+01 5.00000E+01 0.00000E+00
 -1        40 5.40000E+01 5.00000E+01 0.00000E+00
 -1        41 5.70000E+01 5.00000E+01 0.00000E+00
 -1        42 6.00000E+01 5.00000E+01 0.00000E+00
 -1        43 6.30000E+01 5.00000E+01 0.00000E+00
 -1        44 6.60000E+01 5.00000E+01 0.00000E+00
 -1        45 6.90000E+01 5.00000E+01 0.00000E+00
 -1        46 7.20000E+01 5.00000E+01 0.00000E+00
 -1        47 7.50000E+01 5.00000E+01 0.00000E+00
 -1        48 7.80000E+01 5.00000E+01 0.00000E+00
 -1        49 8.10000E+01 5.00000E+01 0.00000E+00
 -1        50 8.38500E+01 5.00000E+01 0.00000E+00
 -1        51 8.67000E+01 5.00000E+01 0.00000E+00
 -1        52 8.91000E+01 5.00000E+01 0.00000E+00
 -1        53 9.15000E+01 5.00000E+01 0.00000E+00
 -1        54 9.37500E+01 5.00000E+01 0.00000E+00
 -1        55 9.63000E+01 5.00000E+01 0.00000E+00
 -1        56 9.91500E+01 5.00000E+01 0.00000E+00
 -1        57 1.02150E+02 5.00000E+01 0.00000E+00
 -1        58 1.05150E+02 5.00000E+01 0.00000E+00
 -1        59 1.08150E+02 5.00000E+01 0.00000E+00
 -1        60 1.11150E+02 5.00000E+01 0.00000E+00
 -1        61 1.14150E+02 5.00000E+01 0.00000E+00
 -1        62 1.17150E+02 5.00000E+01 0.00000E+00
 -1        63 1.20150E+02 5.00000E+01 0.00000E+00
 -1        64 1.23150E+02 5.00000E+01 0.00000E+00
 -1        65 1.26150E+02 5.00000E+01 0.00000E+00
 -1        66 1.29150E+02 5.00000E+01 0.00000E+00
 -1        67 1.32150E+02 5.00000E+01 0.00000E+00
 -1        68 1.35150E+02 5.00000E+01 0.00000E+00
 -1        69 1.38150E+02 5.00000E+01 0.00000E+00
 -1        70 1.41150E+02 5.00000E+01 0.00000E+00
 -1        71 1.44150E+02 5.00000E+01 0.00000E+00
 -1        72 1.47150E+02 5.00000E+01 0.00000E+00
 -1        73 3.15000E+00 0.00000E+00 0.00000E+00
 -1        74 6.15000E+00 0.00000E+00 0.00000E+00
 -1        75 9.15000E+00 0.00000E+00 0.00000E+00
 -1        76 1.21500E+01 0.00000E+00 0.00000E+00
 -1        77 1.51500E+01 0.00000E+00 0.00000E+00
 -1        78 1.81500E+01 0.00000E+00 0.00000E+00
 -1        79 2.11500E+01 0.00000E+00 0.00000E+00
 -1        80 2.41500E+01 0.00000E+00 0.00000E+00
 -1        81 2.71500E+01 0.00000E+00 0.00000E+00
 -1        82 3.01500E+01 0.00000E+00 0.00000E+00
 -1        83 3.31500E+01 0.00000E+00 0.00000E+00
 -1        84 3.61500E+01 0.00000E+00 0.00000E+00
 -1        85 3.91500E+01 0.00000E+00 0.00000E+00
 -1        86 4.21500E+01 0.00000E+00 0.00000E+00
 -1        87 4.51500E+01 0.00000E+00 0.00000E+00
 -1        88 4.81500E+01 0.00000E+00 0.00000E+00
 -1        89 5.11500E+01 0.00000E+00 0.00000E+00
 -1        90 5.41500E+01 0.00000E+00 0.00000E+00
 -1        91 5.71500E+01 0.00000E+00 0.00000E+00
 -1        92 6.01500E+01 0.00000E+00 0.00000E+00
 -1        93 6.31500E+01 0.00000E+00 0.00000E+00
 -1        94 6.61500E+01 0.00000E+00 0.00000E+00
 -1        95 6.91500E+01 0.00000E+00 0.00000E+00
 -1        96 7.21500E+01 0.00000E+00 0.00000E+00
 -1        97 7.51500E+01 0.00000E+00 0.00000E+00
 -1        98 7.81500E+01 0.00000E+00 0.00000E+00
 -1        99 8.11500E+01 0.00000E+00 0.00000E+00
 -1       100 8.41500E+01 0.00000E+00 0.00000E+00
 -1       101 8.71500E+01 0.00000E+00 0.00000E+00
 -1       102 9.01500E+01 0.00000E+00 0.00000E+00
 -1       103 9.31500E+01 0.00000E+00 0.00000E+00
 -1       104 9.61500E+01 0.00000E+00 0.00000E+00
 -1       105 9.91500E+01 0.00000E+00 0.00000E+00
 -1       106 1.02150E+02 0.00000E+00 0.00000E+00
 -1       107 1.05150E+02 0.00000E+00 0.00000E+00
 -1       108 1.08150E+02 0.00000E+00 0.00000E+00
 -1       109 1.11150E+02 0.00000E+00 0.00000E+00
 -1       110 1.14150E+02 0.00000E+00 0.00000E+00
 -1       111 1.17150E+02 0.00000E+00 0.00000E+00
 -1       112 1.20150E+02 0.00000E+00 0.00000E+00
 -1       113 1.23150E+02 0.00000E+00 0.00000E+00
 -1       114 1.26150E+02 0.00000E+00 0.00000E+00
 -1       115 1.29150E+02 0.00000E+00 0.00000E+00
 -1       116 1.32150E+02 0.00000E+00 0.00000E+00
 -1       117 1.35150E+02 0.00000E+00 0.00000E+00
 -1       118 1.38150E+02 0.00000E+00 0.00000E+00
 -1       119 1.41150E+02 0.00000E+00 0.00000E+00
 -1       120 1.44150E+02 0.00000E+00 0.00000E+00
 -1       121 1.47150E+02 0.00000E+00 0.00000E+00
 -1       122 1.50000E+02 2.95000E+00 0.00000E+00
 -1       123 1.50000E+02 5.90000E+00 0.00000E+00
 -1       124 1.50000E+02 8.85000E+00 0.00000E+00
 -1       125 1.50000E+02 1.18000E+01 0.00000E+00
 -1       126 1.50000E+02 1.47500E+01 0.00000E+00
 -1       127 1.50000E+02 1.76500E+01 0.00000E+00
 -1       128 1.50000E+02 2.06000E+01 0.00000E+00
 -1       129 1.50000E+02 2.35500E+01 0.00000E+00
 -1       130 1.50000E+02 2.65000E+01 0.00000E+00
 -1       131 1.50000E+02 2.94500E+01 0.00000E+00
 -1       132 1.50000E+02 3.24000E+01 0.00000E+00
 -1       133 1.50000E+02 3.53000E+01 0.00000E+00
 -1       134 1.50000E+02 3.82500E+01 0.00000E+00
 -1       135 1.50000E+02 4.12000E+01 0.00000E+00
 -1       136 1.50000E+02 4.41500E+01 0.00000E+00
 -1       137 1.50000E+02 4.71000E+01 0.00000E+00
 -1       138 9.77262E+01 3.43895E+01 0.00000E+00
 -1       139 9.72286E+01 3.29457E+01 0.00000E+00
 -1       140 9.63990E+01 3.16049E+01 0.00000E+00
 -1       141 9.53214E+01 3.05090E+01 0.00000E+00
 -1       142 9.39435E+01 2.96318E+01 0.00000E+00
 -1       143 9.25872E+01 2.91416E+01 0.00000E+00
 -1       144 9.09435E+01 2.89351E+01 0.00000E+00
 -1       145 8.94663E+01 2.90831E+01 0.00000E+00
 -1       146 8.80034E+01 2.95619E+01 0.00000E+00
 -1       147 8.67591E+01 3.02903E+01 0.00000E+00
 -1       148 8.56738E+01 3.12769E+01 0.00000E+00
 -1       149 8.48176E+01 3.24683E+01 0.00000E+00
 -1       150 8.42045E+01 3.38892E+01 0.00000E+00
 -1       151 8.39260E+01 3.53198E+01 0.00000E+00
 -1       152 8.39508E+01 3.67854E+01 0.00000E+00
 -1       153 8.49252E+01 3.95839E+01 0.00000E+00
 -1       154 8.58436E+01 4.07768E+01 0.00000E+00
 -1       155 8.70378E+01 4.17738E+01 0.00000E+00
 -1       156 8.83379E+01 4.24496E+01 0.00000E+00
 -1       157 8.98196E+01 4.28512E+01 0.00000E+00
 -1       158 9.13790E+01 4.29185E+01 0.00000E+00
 -1       159 9.27856E+01 4.26759E+01 0.00000E+00
 -1       160 9.42257E+01 4.20939E+01 0.00000E+00
 -1       161 9.54065E+01 4.12905E+01 0.00000E+00
 -1       162 9.64447E+01 4.02063E+01 0.00000E+00
 -1       163 9.72421E+01 3.88955E+01 0.00000E+00
 -1       164 9.77347E+01 3.74422E+01 0.00000E+00
 -1       165 2.59800E+00 4.55750E+01 0.00000E+00
 -1       166 2.59800E+00 4.26250E+01 0.00000E+00
 -1       167 2.59800E+00 3.96750E+01 0.00000E+00
 -1       168 2.59800E+00 3.67250E+01 0.00000E+00
 -1       169 2.59800E+00 3.38250E+01 0.00000E+00
 -1       170 2.59800E+00 3.08750E+01 0.00000E+00
 -1       171 2.59800E+00 2.79250E+01 0.00000E+00
 -1       172 2.59800E+00 2.49750E+01 0.00000E+00
 -1       173 2.59800E+00 2.20250E+01 0.00000E+00
 -1       174 2.59800E+00 1.90750E+01 0.00000E+00
 -1       175 2.59800E+00 1.61750E+01 0.00000E+00
 -1       176 2.59800E+00 1.32250E+01 0.00000E+00
 -1       177 2.59800E+00 1.02750E+01 0.00000E+00
 -1       178 2.59800E+00 7.32500E+00 0.00000E+00
 -1       179 2.59800E+00 4.37500E+00 0.00000E+00
 -1       180 2.87400E+00 2.18750E+00 0.00000E+00
 -1       181 4.50000E+00 4.74020E+01 0.00000E+00
 -1       182 7.50000E+00 4.74020E+01 0.00000E+00
 -1       183 1.05000E+01 4.74020E+01 0.00000E+00
 -1       184 1.35000E+01 4.74020E+01 0.00000E+00
 -1       185 1.65000E+01 4.74020E+01 0.00000E+00
 -1       186 1.95000E+01 4.74020E+01 0.00000E+00
 -1       187 2.25000E+01 4.74020E+01 0.00000E+00
 -1       188 2.55000E+01 4.74020E+01 0.00000E+00
 -1       189 2.85000E+01 4.74020E+01 0.00000E+00
 -1       190 3.15000E+01 4.74020E+01 0.00000E+00
 -1       191 3.45000E+01 4.74020E+01 0.00000E+00
 -1       192 3.75000E+01 4.74020E+01 0.00000E+00
 -1       193 4.05000E+01 4.74020E+01 0.00000E+00
 -1       194 4.35000E+01 4.74020E+01 0.00000E+00
 -1       195 4.65000E+01 4.74020E+01 0.00000E+00
 -1       196 4.95000E+01 4.74020E+01 0.00000E+00
 -1       197 5.25000E+01 4.74020E+01 0.00000E+00
 -1       198 5.55000E+01 4.74020E+01 0.00000E+00
 -1       199 5.85000E+01 4.74020E+01 0.00000E+00
 -1       200 6.15000E+01 4.74020E+01 0.00000E+00
 -1       201 6.45000E+01 4.74020E+01 0.00000E+00
 -1       202 6.75000E+01 4.74020E+01 0.00000E+00
 -1       203 7.05000E+01 4.74020E+01 0.00000E+00
 -1       204 7.35000E+01 4.74020E+01 0.00000E+00
 -1       205 7.65000E+01 4.74020E+01 0.00000E+00
 -1       206 7.95000E+01 4.74020E+01 0.00000E+00
 -1       207 8.23500E+01 4.74020E+01 0.00000E+00
 -1       208 8.52000E+01 4.74020E+01 0.00000E+00
 -1       209 8.76000E+01 4.74020E+01 0.00000E+00
 -1       210 9.00000E+01 4.74020E+01 0.00000E+00
 -1       211 9.50250E+01 4.77822E+01 0.00000E+00
 -1       212 9.78750E+01 4.77822E+01 0.00000E+00
 -1       213 1.00875E+02 4.77822E+01 0.00000E+00
 -1       214 1.03875E+02 4.77822E+01 0.00000E+00
 -1       215 1.06875E+02 4.77822E+01 0.00000E+00
 -1       216 1.09875E+02 4.77822E+01 0.00000E+00
 -1       217 1.12875E+02 4.77822E+01 0.00000E+00
 -1       218 1.15875E+02 4.77822E+01 0.00000E+00
 -1       219 1.18875E+02 4.77822E+01 0.00000E+00
 -1       220 1.21875E+02 4.77822E+01 0.00000E+00
 -1       221 1.24875E+02 4.77822E+01 0.00000E+00
 -1       222 1.27875E+02 4.77822E+01 0.00000E+00
 -1       223 1.30875E+02 4.77822E+01 0.00000E+00
 -1       224 1.33875E+02 4.77822E+01 0.00000E+00
 -1       225 1.36875E+02 4.77822E+01 0.00000E+00
 -1       226 1.39875E+02 4.77822E+01 0.00000E+00
 -1       227 1.42875E+02 4.77822E+01 0.00000E+00
 -1       228 1.45875E+02 4.77822E+01 0.00000E+00
 -1       229 1.47938E+02 4.74411E+01 0.00000E+00
 -1       230 5.87400E+00 2.18750E+00 0.00000E+00
 -1       231 8.87400E+00 2.18750E+00 0.00000E+00
 -1       232 1.18740E+01 2.18750E+00 0.00000E+00
 -1       233 1.48740E+01 2.18750E+00 0.00000E+00
 -1       234 1.78740E+01 2.18750E+00 0.00000E+00
 -1       235 2.08740E+01 2.18750E+00 0.00000E+00
 -1       236 2.38740E+01 2.18750E+00 0.00000E+00
 -1       237 2.68740E+01 2.18750E+00 0.00000E+00
 -1       238 2.98740E+01 2.18750E+00 0.00000E+00
 -1       239 3.28740E+01 2.18750E+00 0.00000E+00
 -1       240 3.58740E+01 2.18750E+00 0.00000E+00
 -1       241 3.88740E+01 2.18750E+00 0.00000E+00
 -1       242 4.18740E+01 2.18750E+00 0.00000E+00
 -1       243 4.48740E+01 2.18750E+00 0.00000E+00
 -1       244 4.78740E+01 2.18750E+00 0.00000E+00
 -1       245 5.08740E+01 2.18750E+00 0.00000E+00
 -1       246 5.38740E+01 2.18750E+00 0.00000E+00
 -1       247 5.68740E+01 2.18750E+00 0.00000E+00
 -1       248 5.98740E+01 2.18750E+00 0.00000E+00
 -1       249 6.28740E+01 2.18750E+00 0.00000E+00
 -1       250 6.58740E+01 2.18750E+00 0.00000E+00
 -1       251 6.88740E+01 2.18750E+00 0.00000E+00
 -1       252 7.18740E+01 2.18750E+00 0.00000E+00
 -1       253 7.48740E+01 2.18750E+00 0.00000E+00
 -1       254 7.78740E+01 2.18750E+00 0.00000E+00
 -1       255 8.08740E+01 2.18750E+00 0.00000E+00
 -1       256 8.38740E+01 2.18750E+00 0.00000E+00
 -1       257 8.68740E+01 2.18750E+00 0.00000E+00
 -1       258 8.98740E+01 2.18750E+00 0.00000E+00
 -1       259 9.28740E+01 2.18750E+00 0.00000E+00
 -1       260 9.58740E+01 2.18750E+00 0.00000E+00
 -1       261 9.88740E+01 2.18750E+00 0.00000E+00
 -1       262 1.01874E+02 2.18750E+00 0.00000E+00
 -1       263 1.04874E+02 2.18750E+00 0.00000E+00
 -1       264 1.07874E+02 2.18750E+00 0.00000E+00
 -1       265 1.10874E+02 2.18750E+00 0.00000E+00
 -1       266 1.13874E+02 2.18750E+00 0.00000E+00
 -1       267 1.16874E+02 2.18750E+00 0.00000E+00
 -1       268 1.19874E+02 2.18750E+00 0.00000E+00
 -1       269 1.22874E+02 2.18750E+00 0.00000E+00
 -1       270 1.25874E+02 2.18750E+00 0.00000E+00
 -1       271 1.28874E+02 2.18750E+00 0.00000E+00
 -1       272 1.31874E+02 2.18750E+00 0.00000E+00
 -1       273 1.34874E+02 2.18750E+00 0.00000E+00
 -1       274 1.37874E+02 2.18750E+00 0.00000E+00
 -1       275 1.40874E+02 2.18750E+00 0.00000E+00
 -1       276 1.43874E+02 2.18750E+00 0.00000E+00
 -1       277 1.46874E+02 2.18750E+00 0.00000E+00
 -1       278 1.47402E+02 4.42500E+00 0.00000E+00
 -1       279 1.47402E+02 7.37500E+00 0.00000E+00
 -1       280 1.47402E+02 1.03250E+01 0.00000E+00
 -1       281 1.47402E+02 1.32750E+01 0.00000E+00
 -1       282 1.47402E+02 1.61750E+01 0.00000E+00
 -1       283 1.47402E+02 1.91250E+01 0.00000E+00
 -1       284 1.47402E+02 2.20750E+01 0.00000E+00
 -1       285 1.47402E+02 2.50250E+01 0.00000E+00
 -1       286 1.47402E+02 2.79750E+01 0.00000E+00
 -1       287 1.47402E+02 3.09250E+01 0.00000E+00
 -1       288 1.47402E+02 3.38250E+01 0.00000E+00
 -1       289 1.47402E+02 3.67750E+01 0.00000E+00
 -1       290 1.47402E+02 3.97250E+01 0.00000E+00
 -1       291 1.47402E+02 4.26750E+01 0.00000E+00
 -1       292 1.47670E+02 4.50580E+01 0.00000E+00
 -1       293 9.90174E+01 3.50276E+01 0.00000E+00
 -1       294 9.86236E+01 3.32725E+01 0.00000E+00
 -1       295 9.81298E+01 3.14611E+01 0.00000E+00
 -1       296 9.67845E+01 3.01482E+01 0.00000E+00
 -1       297 9.52836E+01 2.90476E+01 0.00000E+00
 -1       298 9.36774E+01 2.82465E+01 0.00000E+00
 -1       299 9.19582E+01 2.75029E+01 0.00000E+00
 -1       300 9.00589E+01 2.75527E+01 0.00000E+00
 -1       301 8.83317E+01 2.80906E+01 0.00000E+00
 -1       302 8.67687E+01 2.88798E+01 0.00000E+00
 -1       303 8.53446E+01 2.98245E+01 0.00000E+00
 -1       304 8.40570E+01 3.10184E+01 0.00000E+00
 -1       305 8.33209E+01 3.26652E+01 0.00000E+00
 -1       306 8.28752E+01 3.43729E+01 0.00000E+00
 -1       307 8.27262E+01 3.60731E+01 0.00000E+00
 -1       308 8.28559E+01 3.78014E+01 0.00000E+00
 -1       309 8.35095E+01 3.94255E+01 0.00000E+00
 -1       310 8.44237E+01 4.09200E+01 0.00000E+00
 -1       311 8.56637E+01 4.22060E+01 0.00000E+00
 -1       312 8.71286E+01 4.31874E+01 0.00000E+00
 -1       313 8.87616E+01 4.38206E+01 0.00000E+00
 -1       314 9.05399E+01 4.42636E+01 0.00000E+00
 -1       315 9.22883E+01 4.39920E+01 0.00000E+00
 -1       316 9.40227E+01 4.36643E+01 0.00000E+00
 -1       317 9.54981E+01 4.26946E+01 0.00000E+00
 -1       318 9.68013E+01 4.15869E+01 0.00000E+00
 -1       319 9.80939E+01 4.03116E+01 0.00000E+00
 -1       320 9.87160E+01 3.85850E+01 0.00000E+00
 -1       321 9.91054E+01 3.68289E+01 0.00000E+00
 -1       322 9.27750E+01 4.77822E+01 0.00000E+00
 -1       323 5.19600E+00 4.11500E+01 0.00000E+00
 -1       324 5.19600E+00 4.41000E+01 0.00000E+00
 -1       325 5.19600E+00 3.52750E+01 0.00000E+00
 -1       326 5.19600E+00 3.23250E+01 0.00000E+00
 -1       327 5.19600E+00 2.93750E+01 0.00000E+00
 -1       328 5.19600E+00 2.64250E+01 0.00000E+00
 -1       329 5.19600E+00 2.34750E+01 0.00000E+00
 -1       330 5.19600E+00 2.05250E+01 0.00000E+00
 -1       331 5.19600E+00 1.76250E+01 0.00000E+00
 -1       332 5.19600E+00 1.46750E+01 0.00000E+00
 -1       333 5.19600E+00 1.17250E+01 0.00000E+00
 -1       334 5.19600E+00 8.77500E+00 0.00000E+00
 -1       335 5.19600E+00 5.82500E+00 0.00000E+00
 -1       336 5.53500E+00 4.00625E+00 0.00000E+00
 -1       337 8.53500E+00 4.00625E+00 0.00000E+00
 -1       338 9.16203E+01 4.58929E+01 0.00000E+00
 -1       339 9.00000E+00 4.48040E+01 0.00000E+00
 -1       340 1.20000E+01 4.48040E+01 0.00000E+00
 -1       341 1.50000E+01 4.48040E+01 0.00000E+00
 -1       342 1.80000E+01 4.48040E+01 0.00000E+00
 -1       343 2.10000E+01 4.48040E+01 0.00000E+00
 -1       344 2.40000E+01 4.48040E+01 0.00000E+00
 -1       345 2.70000E+01 4.48040E+01 0.00000E+00
 -1       346 3.00000E+01 4.48040E+01 0.00000E+00
 -1       347 3.30000E+01 4.48040E+01 0.00000E+00
 -1       348 3.60000E+01 4.48040E+01 0.00000E+00
 -1       349 3.90000E+01 4.48040E+01 0.00000E+00
 -1       350 4.20000E+01 4.48040E+01 0.00000E+00
 -1       351 4.50000E+01 4.48040E+01 0.00000E+00
 -1       352 4.80000E+01 4.48040E+01 0.00000E+00
 -1       353 5.10000E+01 4.48040E+01 0.00000E+00
 -1       354 5.40000E+01 4.48040E+01 0.00000E+00
 -1       355 5.70000E+01 4.48040E+01 0.00000E+00
 -1       356 6.00000E+01 4.48040E+01 0.00000E+00
 -1       357 6.30000E+01 4.48040E+01 0.00000E+00
 -1       358 6.60000E+01 4.48040E+01 0.00000E+00
 -1       359 6.90000E+01 4.48040E+01 0.00000E+00
 -1       360 7.20000E+01 4.48040E+01 0.00000E+00
 -1       361 7.50000E+01 4.48040E+01 0.00000E+00
 -1       362 7.80000E+01 4.48040E+01 0.00000E+00
 -1       363 8.08500E+01 4.48040E+01 0.00000E+00
 -1       364 8.37000E+01 4.48040E+01 0.00000E+00
 -1       365 8.88000E+01 4.56869E+01 0.00000E+00
 -1       366 9.84794E+01 2.97570E+01 0.00000E+00
 -1       367 9.93750E+01 4.53968E+01 0.00000E+00
 -1       368 1.02375E+02 4.53968E+01 0.00000E+00
 -1       369 1.05375E+02 4.53968E+01 0.00000E+00
 -1       370 1.08375E+02 4.53968E+01 0.00000E+00
 -1       371 1.11375E+02 4.53968E+01 0.00000E+00
 -1       372 1.14375E+02 4.53968E+01 0.00000E+00
 -1       373 1.17375E+02 4.53968E+01 0.00000E+00
 -1       374 1.20375E+02 4.53968E+01 0.00000E+00
 -1       375 1.23375E+02 4.53968E+01 0.00000E+00
 -1       376 1.26375E+02 4.53968E+01 0.00000E+00
 -1       377 1.29375E+02 4.53968E+01 0.00000E+00
 -1       378 1.32375E+02 4.53968E+01 0.00000E+00
 -1       379 1.35375E+02 4.53968E+01 0.00000E+00
 -1       380 1.38375E+02 4.53968E+01 0.00000E+00
 -1       381 1.41375E+02 4.53968E+01 0.00000E+00
 -1       382 1.44375E+02 4.53968E+01 0.00000E+00
 -1       383 1.33740E+01 4.78550E+00 0.00000E+00
 -1       384 1.63740E+01 4.78550E+00 0.00000E+00
 -1       385 1.93740E+01 4.78550E+00 0.00000E+00
 -1       386 2.23740E+01 4.78550E+00 0.00000E+00
 -1       387 2.53740E+01 4.78550E+00 0.00000E+00
 -1       388 2.83740E+01 4.78550E+00 0.00000E+00
 -1       389 3.13740E+01 4.78550E+00 0.00000E+00
 -1       390 3.43740E+01 4.78550E+00 0.00000E+00
 -1       391 3.73740E+01 4.78550E+00 0.00000E+00
 -1       392 4.03740E+01 4.78550E+00 0.00000E+00
 -1       393 4.33740E+01 4.78550E+00 0.00000E+00
 -1       394 4.63740E+01 4.78550E+00 0.00000E+00
 -1       395 4.93740E+01 4.78550E+00 0.00000E+00
 -1       396 5.23740E+01 4.78550E+00 0.00000E+00
 -1       397 5.53740E+01 4.78550E+00 0.00000E+00
 -1       398 5.83740E+01 4.78550E+00 0.00000E+00
 -1       399 6.13740E+01 4.78550E+00 0.00000E+00
 -1       400 6.43740E+01 4.78550E+00 0.00000E+00
 -1       401 6.73740E+01 4.78550E+00 0.00000E+00
 -1       402 7.03740E+01 4.78550E+00 0.00000E+00
 -1       403 7.33740E+01 4.78550E+00 0.00000E+00
 -1       404 7.63740E+01 4.78550E+00 0.00000E+00
 -1       405 7.93740E+01 4.78550E+00 0.00000E+00
 -1       406 8.23740E+01 4.78550E+00 0.00000E+00
 -1       407 8.53740E+01 4.78550E+00 0.00000E+00
 -1       408 8.83740E+01 4.78550E+00 0.00000E+00
 -1       409 9.13740E+01 4.78550E+00 0.00000E+00
 -1       410 9.43740E+01 4.78550E+00 0.00000E+00
 -1       411 9.73740E+01 4.78550E+00 0.00000E+00
 -1       412 1.00374E+02 4.78550E+00 0.00000E+00
 -1       413 1.03374E+02 4.78550E+00 0.00000E+00
 -1       414 1.06374E+02 4.78550E+00 0.00000E+00
 -1       415 1.09374E+02 4.78550E+00 0.00000E+00
 -1       416 1.12374E+02 4.78550E+00 0.00000E+00
 -1       417 1.15374E+02 4.78550E+00 0.00000E+00
 -1       418 1.18374E+02 4.78550E+00 0.00000E+00
 -1       419 1.21374E+02 4.78550E+00 0.00000E+00
 -1       420 1.24374E+02 4.78550E+00 0.00000E+00
 -1       421 1.27374E+02 4.78550E+00 0.00000E+00
 -1       422 1.30374E+02 4.78550E+00 0.00000E+00
 -1       423 1.33374E+02 4.78550E+00 0.00000E+00
 -1       424 1.36374E+02 4.78550E+00 0.00000E+00
 -1       425 1.39374E+02 4.78550E+00 0.00000E+00
 -1       426 1.42374E+02 4.78550E+00 0.00000E+00
 -1       427 1.44888E+02 4.60525E+00 0.00000E+00
 -1       428 1.44804E+02 1.18000E+01 0.00000E+00
 -1       429 1.44804E+02 8.85000E+00 0.00000E+00
 -1       430 1.44804E+02 1.47000E+01 0.00000E+00
 -1       431 1.44804E+02 1.76500E+01 0.00000E+00
 -1       432 1.44804E+02 2.06000E+01 0.00000E+00
 -1       433 1.44804E+02 2.35500E+01 0.00000E+00
 -1       434 1.44804E+02 2.65000E+01 0.00000E+00
 -1       435 1.44804E+02 2.94500E+01 0.00000E+00
 -1       436 1.44804E+02 3.23500E+01 0.00000E+00
 -1       437 1.44804E+02 3.53000E+01 0.00000E+00
 -1       438 1.44804E+02 3.82500E+01 0.00000E+00
 -1       439 1.44804E+02 4.12000E+01 0.00000E+00
 -1       440 1.09545E+01 4.39587E+00 0.00000E+00
 -1       441 9.98697E+01 3.19598E+01 0.00000E+00
 -1       442 9.69987E+01 2.82824E+01 0.00000E+00
 -1       443 1.00356E+02 3.58651E+01 0.00000E+00
 -1       444 9.38703E+01 4.58929E+01 0.00000E+00
 -1       445 5.19600E+00 3.82125E+01 0.00000E+00
 -1       446 9.65250E+01 4.53968E+01 0.00000E+00
 -1       447 9.50965E+01 2.74122E+01 0.00000E+00
 -1       448 9.33773E+01 2.66686E+01 0.00000E+00
 -1       449 9.09746E+01 2.62320E+01 0.00000E+00
 -1       450 8.87351E+01 2.63441E+01 0.00000E+00
 -1       451 8.68904E+01 2.71786E+01 0.00000E+00
 -1       452 8.52939E+01 2.82022E+01 0.00000E+00
 -1       453 8.37625E+01 2.94095E+01 0.00000E+00
 -1       454 8.24291E+01 3.12787E+01 0.00000E+00
 -1       455 8.16818E+01 3.31493E+01 0.00000E+00
 -1       456 8.14260E+01 3.51025E+01 0.00000E+00
 -1       457 8.12478E+01 3.70531E+01 0.00000E+00
 -1       458 8.19803E+01 3.90974E+01 0.00000E+00
 -1       459 8.26465E+01 4.09803E+01 0.00000E+00
 -1       460 8.40503E+01 4.25208E+01 0.00000E+00
 -1       461 8.56281E+01 4.38432E+01 0.00000E+00
 -1       462 8.74159E+01 4.48688E+01 0.00000E+00
 -1       463 9.55184E+01 4.43326E+01 0.00000E+00
 -1       464 9.70434E+01 4.31922E+01 0.00000E+00
 -1       465 9.85345E+01 4.20509E+01 0.00000E+00
 -1       466 9.96244E+01 3.98876E+01 0.00000E+00
 -1       467 1.00422E+02 3.80420E+01 0.00000E+00
 -1       468 1.00264E+02 3.37148E+01 0.00000E+00
 -1       469 1.00219E+02 3.02558E+01 0.00000E+00
 -1       470 1.44589E+02 4.32984E+01 0.00000E+00
 -1       471 1.00065E+02 4.16269E+01 0.00000E+00
 -1       472 9.23936E+01 2.53978E+01 0.00000E+00
 -1       473 7.79400E+00 3.08500E+01 0.00000E+00
 -1       474 7.79400E+00 3.38000E+01 0.00000E+00
 -1       475 7.79400E+00 2.49500E+01 0.00000E+00
 -1       476 7.79400E+00 2.20000E+01 0.00000E+00
 -1       477 7.79400E+00 1.91000E+01 0.00000E+00
 -1       478 7.79400E+00 1.61500E+01 0.00000E+00
 -1       479 7.79400E+00 1.32000E+01 0.00000E+00
 -1       480 7.79400E+00 1.02500E+01 0.00000E+00
 -1       481 7.79400E+00 7.30000E+00 0.00000E+00
 -1       482 8.16450E+00 5.65312E+00 0.00000E+00
 -1       483 1.05000E+01 4.22060E+01 0.00000E+00
 -1       484 9.67611E+01 2.62876E+01 0.00000E+00
 -1       485 1.35000E+01 4.22060E+01 0.00000E+00
 -1       486 1.65000E+01 4.22060E+01 0.00000E+00
 -1       487 1.95000E+01 4.22060E+01 0.00000E+00
 -1       488 2.25000E+01 4.22060E+01 0.00000E+00
 -1       489 2.55000E+01 4.22060E+01 0.00000E+00
 -1       490 2.85000E+01 4.22060E+01 0.00000E+00
 -1       491 3.15000E+01 4.22060E+01 0.00000E+00
 -1       492 3.45000E+01 4.22060E+01 0.00000E+00
 -1       493 3.75000E+01 4.22060E+01 0.00000E+00
 -1       494 4.05000E+01 4.22060E+01 0.00000E+00
 -1       495 4.35000E+01 4.22060E+01 0.00000E+00
 -1       496 4.65000E+01 4.22060E+01 0.00000E+00
 -1       497 4.95000E+01 4.22060E+01 0.00000E+00
 -1       498 5.25000E+01 4.22060E+01 0.00000E+00
 -1       499 5.55000E+01 4.22060E+01 0.00000E+00
 -1       500 5.85000E+01 4.22060E+01 0.00000E+00
 -1       501 6.15000E+01 4.22060E+01 0.00000E+00
 -1       502 6.45000E+01 4.22060E+01 0.00000E+00
 -1       503 6.75000E+01 4.22060E+01 0.00000E+00
 -1       504 7.05000E+01 4.22060E+01 0.00000E+00
 -1       505 7.35000E+01 4.22060E+01 0.00000E+00
 -1       506 7.65000E+01 4.22060E+01 0.00000E+00
 -1       507 7.93500E+01 4.22060E+01 0.00000E+00
 -1       508 8.22750E+01 4.27537E+01 0.00000E+00
 -1       509 8.64000E+01 4.55193E+01 0.00000E+00
 -1       510 7.84800E+00 4.16780E+01 0.00000E+00
 -1       511 1.03875E+02 4.31790E+01 0.00000E+00
 -1       512 1.06875E+02 4.30114E+01 0.00000E+00
 -1       513 1.09875E+02 4.30114E+01 0.00000E+00
 -1       514 1.12875E+02 4.30114E+01 0.00000E+00
 -1       515 1.15875E+02 4.30114E+01 0.00000E+00
 -1       516 1.18875E+02 4.30114E+01 0.00000E+00
 -1       517 1.21875E+02 4.30114E+01 0.00000E+00
 -1       518 1.24875E+02 4.30114E+01 0.00000E+00
 -1       519 1.27875E+02 4.30114E+01 0.00000E+00
 -1       520 1.30875E+02 4.30114E+01 0.00000E+00
 -1       521 1.33875E+02 4.30114E+01 0.00000E+00
 -1       522 1.36875E+02 4.30114E+01 0.00000E+00
 -1       523 1.39875E+02 4.30114E+01 0.00000E+00
 -1       524 1.42232E+02 4.31549E+01 0.00000E+00
 -1       525 2.08740E+01 7.38350E+00 0.00000E+00
 -1       526 1.78740E+01 7.38350E+00 0.00000E+00
 -1       527 1.48740E+01 7.38350E+00 0.00000E+00
 -1       528 2.38740E+01 7.38350E+00 0.00000E+00
 -1       529 2.68740E+01 7.38350E+00 0.00000E+00
 -1       530 2.98740E+01 7.38350E+00 0.00000E+00
 -1       531 3.28740E+01 7.38350E+00 0.00000E+00
 -1       532 3.58740E+01 7.38350E+00 0.00000E+00
 -1       533 3.88740E+01 7.38350E+00 0.00000E+00
 -1       534 4.18740E+01 7.38350E+00 0.00000E+00
 -1       535 4.48740E+01 7.38350E+00 0.00000E+00
 -1       536 4.78740E+01 7.38350E+00 0.00000E+00
 -1       537 5.08740E+01 7.38350E+00 0.00000E+00
 -1       538 5.38740E+01 7.38350E+00 0.00000E+00
 -1       539 5.68740E+01 7.38350E+00 0.00000E+00
 -1       540 5.98740E+01 7.38350E+00 0.00000E+00
 -1       541 6.28740E+01 7.38350E+00 0.00000E+00
 -1       542 6.58740E+01 7.38350E+00 0.00000E+00
 -1       543 6.88740E+01 7.38350E+00 0.00000E+00
 -1       544 7.18740E+01 7.38350E+00 0.00000E+00
 -1       545 7.48740E+01 7.38350E+00 0.00000E+00
 -1       546 7.78740E+01 7.38350E+00 0.00000E+00
 -1       547 8.08740E+01 7.38350E+00 0.00000E+00
 -1       548 8.38740E+01 7.38350E+00 0.00000E+00
 -1       549 8.68740E+01 7.38350E+00 0.00000E+00
 -1       550 8.98740E+01 7.38350E+00 0.00000E+00
 -1       551 9.28740E+01 7.38350E+00 0.00000E+00
 -1       552 9.58740E+01 7.38350E+00 0.00000E+00
 -1       553 9.88740E+01 7.38350E+00 0.00000E+00
 -1       554 1.01874E+02 7.38350E+00 0.00000E+00
 -1       555 1.04874E+02 7.38350E+00 0.00000E+00
 -1       556 1.07874E+02 7.38350E+00 0.00000E+00
 -1       557 1.10874E+02 7.38350E+00 0.00000E+00
 -1       558 1.13874E+02 7.38350E+00 0.00000E+00
 -1       559 1.16874E+02 7.38350E+00 0.00000E+00
 -1       560 1.19874E+02 7.38350E+00 0.00000E+00
 -1       561 1.22874E+02 7.38350E+00 0.00000E+00
 -1       562 1.25874E+02 7.38350E+00 0.00000E+00
 -1       563 1.28874E+02 7.38350E+00 0.00000E+00
 -1       564 1.31874E+02 7.38350E+00 0.00000E+00
 -1       565 1.34874E+02 7.38350E+00 0.00000E+00
 -1       566 1.37874E+02 7.38350E+00 0.00000E+00
 -1       567 1.40874E+02 7.38350E+00 0.00000E+00
 -1       568 1.42206E+02 1.61750E+01 0.00000E+00
 -1       569 1.42206E+02 1.32750E+01 0.00000E+00
 -1       570 1.42206E+02 1.03250E+01 0.00000E+00
 -1       571 1.02023E+02 3.47162E+01 0.00000E+00
 -1       572 1.42206E+02 1.91250E+01 0.00000E+00
 -1       573 1.42206E+02 2.20750E+01 0.00000E+00
 -1       574 1.42206E+02 2.50250E+01 0.00000E+00
 -1       575 1.42206E+02 2.79750E+01 0.00000E+00
 -1       576 1.42206E+02 3.08750E+01 0.00000E+00
 -1       577 1.42206E+02 3.38250E+01 0.00000E+00
 -1       578 1.42206E+02 3.67750E+01 0.00000E+00
 -1       579 1.42206E+02 3.97250E+01 0.00000E+00
 -1       580 9.88311E+01 2.79232E+01 0.00000E+00
 -1       581 1.02067E+02 3.23884E+01 0.00000E+00
 -1       582 1.00875E+02 4.31790E+01 0.00000E+00
 -1       583 1.02103E+02 3.69020E+01 0.00000E+00
 -1       584 7.79400E+00 2.79000E+01 0.00000E+00
 -1       585 8.97817E+01 2.48261E+01 0.00000E+00
 -1       586 9.50418E+01 2.55440E+01 0.00000E+00
 -1       587 8.71059E+01 2.51987E+01 0.00000E+00
 -1       588 8.50760E+01 2.61054E+01 0.00000E+00
 -1       589 8.35447E+01 2.73128E+01 0.00000E+00
 -1       590 8.16995E+01 2.93481E+01 0.00000E+00
 -1       591 8.06962E+01 3.16710E+01 0.00000E+00
 -1       592 8.01856E+01 3.39467E+01 0.00000E+00
 -1       593 8.00075E+01 3.58974E+01 0.00000E+00
 -1       594 8.03149E+01 3.85407E+01 0.00000E+00
 -1       595 8.08545E+01 4.05551E+01 0.00000E+00
 -1       596 9.87296E+01 4.38504E+01 0.00000E+00
 -1       597 1.01367E+02 3.95452E+01 0.00000E+00
 -1       598 7.79400E+00 3.67375E+01 0.00000E+00
 -1       599 1.05840E+01 6.04275E+00 0.00000E+00
 -1       600 7.82100E+00 3.92077E+01 0.00000E+00
 -1       601 1.00571E+02 2.84219E+01 0.00000E+00
 -1       602 1.27290E+01 6.71313E+00 0.00000E+00
 -1       603 7.90746E+01 3.73850E+01 0.00000E+00
 -1       604 9.12007E+01 2.39919E+01 0.00000E+00
 -1       605 1.03048E+02 3.84051E+01 0.00000E+00
 -1       606 9.40582E+01 2.42732E+01 0.00000E+00
 -1       607 1.03920E+01 2.05500E+01 0.00000E+00
 -1       608 1.03920E+01 2.35000E+01 0.00000E+00
 -1       609 1.03920E+01 1.46750E+01 0.00000E+00
 -1       610 1.03920E+01 1.17250E+01 0.00000E+00
 -1       611 1.02135E+01 7.68962E+00 0.00000E+00
 -1       612 1.50000E+01 3.96080E+01 0.00000E+00
 -1       613 1.80000E+01 3.96080E+01 0.00000E+00
 -1       614 2.10000E+01 3.96080E+01 0.00000E+00
 -1       615 2.40000E+01 3.96080E+01 0.00000E+00
 -1       616 2.70000E+01 3.96080E+01 0.00000E+00
 -1       617 3.00000E+01 3.96080E+01 0.00000E+00
 -1       618 3.30000E+01 3.96080E+01 0.00000E+00
 -1       619 3.60000E+01 3.96080E+01 0.00000E+00
 -1       620 3.90000E+01 3.96080E+01 0.00000E+00
 -1       621 4.20000E+01 3.96080E+01 0.00000E+00
 -1       622 4.50000E+01 3.96080E+01 0.00000E+00
 -1       623 4.80000E+01 3.96080E+01 0.00000E+00
 -1       624 5.10000E+01 3.96080E+01 0.00000E+00
 -1       625 5.40000E+01 3.96080E+01 0.00000E+00
 -1       626 5.70000E+01 3.96080E+01 0.00000E+00
 -1       627 6.00000E+01 3.96080E+01 0.00000E+00
 -1       628 6.30000E+01 3.96080E+01 0.00000E+00
 -1       629 6.60000E+01 3.96080E+01 0.00000E+00
 -1       630 6.90000E+01 3.96080E+01 0.00000E+00
 -1       631 7.20000E+01 3.96080E+01 0.00000E+00
 -1       632 7.50000E+01 3.96080E+01 0.00000E+00
 -1       633 7.79250E+01 4.01558E+01 0.00000E+00
 -1       634 1.08375E+02 4.06260E+01 0.00000E+00
 -1       635 1.39206E+02 1.03250E+01 0.00000E+00
 -1       636 1.11375E+02 4.06260E+01 0.00000E+00
 -1       637 1.14375E+02 4.06260E+01 0.00000E+00
 -1       638 1.17375E+02 4.06260E+01 0.00000E+00
 -1       639 1.20375E+02 4.06260E+01 0.00000E+00
 -1       640 1.23375E+02 4.06260E+01 0.00000E+00
 -1       641 1.26375E+02 4.06260E+01 0.00000E+00
 -1       642 1.29375E+02 4.06260E+01 0.00000E+00
 -1       643 1.32375E+02 4.06260E+01 0.00000E+00
 -1       644 1.35375E+02 4.06260E+01 0.00000E+00
 -1       645 1.38375E+02 4.06260E+01 0.00000E+00
 -1       646 1.93740E+01 9.98150E+00 0.00000E+00
 -1       647 2.23740E+01 9.98150E+00 0.00000E+00
 -1       648 1.63740E+01 9.98150E+00 0.00000E+00
 -1       649 2.83740E+01 9.98150E+00 0.00000E+00
 -1       650 3.13740E+01 9.98150E+00 0.00000E+00
 -1       651 3.43740E+01 9.98150E+00 0.00000E+00
 -1       652 3.73740E+01 9.98150E+00 0.00000E+00
 -1       653 4.03740E+01 9.98150E+00 0.00000E+00
 -1       654 4.33740E+01 9.98150E+00 0.00000E+00
 -1       655 4.63740E+01 9.98150E+00 0.00000E+00
 -1       656 4.93740E+01 9.98150E+00 0.00000E+00
 -1       657 5.23740E+01 9.98150E+00 0.00000E+00
 -1       658 5.53740E+01 9.98150E+00 0.00000E+00
 -1       659 5.83740E+01 9.98150E+00 0.00000E+00
 -1       660 6.13740E+01 9.98150E+00 0.00000E+00
 -1       661 6.43740E+01 9.98150E+00 0.00000E+00
 -1       662 6.73740E+01 9.98150E+00 0.00000E+00
 -1       663 7.03740E+01 9.98150E+00 0.00000E+00
 -1       664 7.33740E+01 9.98150E+00 0.00000E+00
 -1       665 7.63740E+01 9.98150E+00 0.00000E+00
 -1       666 7.93740E+01 9.98150E+00 0.00000E+00
 -1       667 8.23740E+01 9.98150E+00 0.00000E+00
 -1       668 8.53740E+01 9.98150E+00 0.00000E+00
 -1       669 8.83740E+01 9.98150E+00 0.00000E+00
 -1       670 9.13740E+01 9.98150E+00 0.00000E+00
 -1       671 9.43740E+01 9.98150E+00 0.00000E+00
 -1       672 9.73740E+01 9.98150E+00 0.00000E+00
 -1       673 1.00374E+02 9.98150E+00 0.00000E+00
 -1       674 1.03374E+02 9.98150E+00 0.00000E+00
 -1       675 1.06374E+02 9.98150E+00 0.00000E+00
 -1       676 1.09374E+02 9.98150E+00 0.00000E+00
 -1       677 1.12374E+02 9.98150E+00 0.00000E+00
 -1       678 1.15374E+02 9.98150E+00 0.00000E+00
 -1       679 1.18374E+02 9.98150E+00 0.00000E+00
 -1       680 1.21374E+02 9.98150E+00 0.00000E+00
 -1       681 1.24374E+02 9.98150E+00 0.00000E+00
 -1       682 1.27374E+02 9.98150E+00 0.00000E+00
 -1       683 1.30374E+02 9.98150E+00 0.00000E+00
 -1       684 1.33374E+02 9.98150E+00 0.00000E+00
 -1       685 1.36290E+02 1.01532E+01 0.00000E+00
 -1       686 1.39608E+02 1.47250E+01 0.00000E+00
 -1       687 1.39608E+02 2.06000E+01 0.00000E+00
 -1       688 1.39608E+02 1.76625E+01 0.00000E+00
 -1       689 2.53740E+01 9.98150E+00 0.00000E+00
 -1       690 1.39608E+02 2.65000E+01 0.00000E+00
 -1       691 1.39608E+02 2.94000E+01 0.00000E+00
 -1       692 1.39608E+02 3.23500E+01 0.00000E+00
 -1       693 1.39608E+02 3.53000E+01 0.00000E+00
 -1       694 1.39608E+02 3.82500E+01 0.00000E+00
 -1       695 8.81610E+01 2.29818E+01 0.00000E+00
 -1       696 7.88491E+01 3.24517E+01 0.00000E+00
 -1       697 1.04263E+02 3.35940E+01 0.00000E+00
 -1       698 1.39608E+02 2.35500E+01 0.00000E+00
 -1       699 1.20000E+01 3.96080E+01 0.00000E+00
 -1       700 1.03920E+01 1.76125E+01 0.00000E+00
 -1       701 1.02375E+02 4.12963E+01 0.00000E+00
 -1       702 1.04342E+02 3.57798E+01 0.00000E+00
 -1       703 1.03920E+01 3.23250E+01 0.00000E+00
 -1       704 9.65823E+01 2.43416E+01 0.00000E+00
 -1       705 1.02440E+02 3.01990E+01 0.00000E+00
 -1       706 8.52547E+01 2.37801E+01 0.00000E+00
 -1       707 7.96234E+01 2.98294E+01 0.00000E+00
 -1       708 8.30409E+01 2.50991E+01 0.00000E+00
 -1       709 8.12273E+01 2.70660E+01 0.00000E+00
 -1       710 7.82216E+01 3.47508E+01 0.00000E+00
 -1       711 9.88594E+01 2.57596E+01 0.00000E+00
 -1       712 9.91050E+00 3.94079E+01 0.00000E+00
 -1       713 1.05375E+02 4.07936E+01 0.00000E+00
 -1       714 1.03920E+01 2.64500E+01 0.00000E+00
 -1       715 1.33741E+01 9.98153E+00 0.00000E+00
 -1       716 1.00599E+02 2.62584E+01 0.00000E+00
 -1       717 8.95801E+01 2.21475E+01 0.00000E+00
 -1       718 7.72887E+01 3.62384E+01 0.00000E+00
 -1       719 7.91511E+01 2.75473E+01 0.00000E+00
 -1       720 1.03920E+01 3.52625E+01 0.00000E+00
 -1       721 9.28653E+01 2.28673E+01 0.00000E+00
 -1       722 1.03920E+01 2.93875E+01 0.00000E+00
 -1       723 1.04635E+02 3.14046E+01 0.00000E+00
 -1       724 1.29900E+01 2.20250E+01 0.00000E+00
 -1       725 1.29900E+01 1.32000E+01 0.00000E+00
 -1       726 7.68399E+01 3.78667E+01 0.00000E+00
 -1       727 1.01512E+01 3.73352E+01 0.00000E+00
 -1       728 1.95000E+01 3.70100E+01 0.00000E+00
 -1       729 2.25000E+01 3.70100E+01 0.00000E+00
 -1       730 2.55000E+01 3.70100E+01 0.00000E+00
 -1       731 2.85000E+01 3.70100E+01 0.00000E+00
 -1       732 3.15000E+01 3.70100E+01 0.00000E+00
 -1       733 3.45000E+01 3.70100E+01 0.00000E+00
 -1       734 3.75000E+01 3.70100E+01 0.00000E+00
 -1       735 4.05000E+01 3.70100E+01 0.00000E+00
 -1       736 4.35000E+01 3.70100E+01 0.00000E+00
 -1       737 4.65000E+01 3.70100E+01 0.00000E+00
 -1       738 4.95000E+01 3.70100E+01 0.00000E+00
 -1       739 5.25000E+01 3.70100E+01 0.00000E+00
 -1       740 5.55000E+01 3.70100E+01 0.00000E+00
 -1       741 5.85000E+01 3.70100E+01 0.00000E+00
 -1       742 6.15000E+01 3.70100E+01 0.00000E+00
 -1       743 6.45000E+01 3.70100E+01 0.00000E+00
 -1       744 6.75000E+01 3.70100E+01 0.00000E+00
 -1       745 7.05000E+01 3.70100E+01 0.00000E+00
 -1       746 7.35000E+01 3.70100E+01 0.00000E+00
 -1       747 1.48741E+01 1.25795E+01 0.00000E+00
 -1       748 1.09875E+02 3.80280E+01 0.00000E+00
 -1       749 1.12875E+02 3.80280E+01 0.00000E+00
 -1       750 1.15875E+02 3.80280E+01 0.00000E+00
 -1       751 1.18875E+02 3.80280E+01 0.00000E+00
 -1       752 1.21875E+02 3.80280E+01 0.00000E+00
 -1       753 1.24875E+02 3.80280E+01 0.00000E+00
 -1       754 1.27875E+02 3.80280E+01 0.00000E+00
 -1       755 1.30875E+02 3.80280E+01 0.00000E+00
 -1       756 1.33875E+02 3.80280E+01 0.00000E+00
 -1       757 1.36742E+02 3.81390E+01 0.00000E+00
 -1       758 1.36692E+02 1.45533E+01 0.00000E+00
 -1       759 2.08740E+01 1.25795E+01 0.00000E+00
 -1       760 1.78740E+01 1.25795E+01 0.00000E+00
 -1       761 3.28740E+01 1.25795E+01 0.00000E+00
 -1       762 2.98740E+01 1.25795E+01 0.00000E+00
 -1       763 3.88740E+01 1.25795E+01 0.00000E+00
 -1       764 4.18740E+01 1.25795E+01 0.00000E+00
 -1       765 4.48740E+01 1.25795E+01 0.00000E+00
 -1       766 4.78740E+01 1.25795E+01 0.00000E+00
 -1       767 5.08740E+01 1.25795E+01 0.00000E+00
 -1       768 5.38740E+01 1.25795E+01 0.00000E+00
 -1       769 5.68740E+01 1.25795E+01 0.00000E+00
 -1       770 5.98740E+01 1.25795E+01 0.00000E+00
 -1       771 6.28740E+01 1.25795E+01 0.00000E+00
 -1       772 6.58740E+01 1.25795E+01 0.00000E+00
 -1       773 6.88740E+01 1.25795E+01 0.00000E+00
 -1       774 7.18740E+01 1.25795E+01 0.00000E+00
 -1       775 7.48740E+01 1.25795E+01 0.00000E+00
 -1       776 7.78740E+01 1.25795E+01 0.00000E+00
 -1       777 8.08740E+01 1.25795E+01 0.00000E+00
 -1       778 8.38740E+01 1.25795E+01 0.00000E+00
 -1       779 8.68740E+01 1.25795E+01 0.00000E+00
 -1       780 8.98740E+01 1.25795E+01 0.00000E+00
 -1       781 9.28740E+01 1.25795E+01 0.00000E+00
 -1       782 9.58740E+01 1.25795E+01 0.00000E+00
 -1       783 9.88740E+01 1.25795E+01 0.00000E+00
 -1       784 1.01874E+02 1.25795E+01 0.00000E+00
 -1       785 1.04874E+02 1.25795E+01 0.00000E+00
 -1       786 1.07874E+02 1.25795E+01 0.00000E+00
 -1       787 1.10874E+02 1.25795E+01 0.00000E+00
 -1       788 1.13874E+02 1.25795E+01 0.00000E+00
 -1       789 1.16874E+02 1.25795E+01 0.00000E+00
 -1       790 1.19874E+02 1.25795E+01 0.00000E+00
 -1       791 1.22874E+02 1.25795E+01 0.00000E+00
 -1       792 1.25874E+02 1.25795E+01 0.00000E+00
 -1       793 1.28874E+02 1.25795E+01 0.00000E+00
 -1       794 1.31874E+02 1.25795E+01 0.00000E+00
 -1       795 1.35000E+01 3.70100E+01 0.00000E+00
 -1       796 1.37010E+02 2.20750E+01 0.00000E+00
 -1       797 1.37010E+02 3.38250E+01 0.00000E+00
 -1       798 1.37010E+02 2.79500E+01 0.00000E+00
 -1       799 8.02242E+01 2.43214E+01 0.00000E+00
 -1       800 8.30126E+01 2.25343E+01 0.00000E+00
 -1       801 8.62092E+01 2.15655E+01 0.00000E+00
 -1       802 9.87160E+01 2.34525E+01 0.00000E+00
 -1       803 1.06875E+02 3.81956E+01 0.00000E+00
 -1       804 7.74306E+01 3.06075E+01 0.00000E+00
 -1       805 1.06519E+02 3.46060E+01 0.00000E+00
 -1       806 1.37010E+02 2.50125E+01 0.00000E+00
 -1       807 1.03034E+02 2.77034E+01 0.00000E+00
 -1       808 9.53668E+01 2.25929E+01 0.00000E+00
 -1       809 3.58740E+01 1.25795E+01 0.00000E+00
 -1       810 7.68031E+01 3.29066E+01 0.00000E+00
 -1       811 1.37010E+02 3.08875E+01 0.00000E+00
 -1       812 1.65000E+01 3.70100E+01 0.00000E+00
 -1       813 1.29900E+01 1.61375E+01 0.00000E+00
 -1       814 1.00456E+02 2.39512E+01 0.00000E+00
 -1       815 1.29900E+01 1.90812E+01 0.00000E+00
 -1       816 1.06891E+02 3.24166E+01 0.00000E+00
 -1       817 1.29900E+01 2.49750E+01 0.00000E+00
 -1       818 7.58702E+01 3.43941E+01 0.00000E+00
 -1       819 1.36692E+02 1.74907E+01 0.00000E+00
 -1       820 2.38740E+01 1.25795E+01 0.00000E+00
 -1       821 2.68740E+01 1.25795E+01 0.00000E+00
 -1       822 1.34283E+02 1.35664E+01 0.00000E+00
 -1       823 1.36851E+02 1.97829E+01 0.00000E+00
 -1       824 8.76283E+01 2.07312E+01 0.00000E+00
 -1       825 1.05229E+02 2.89091E+01 0.00000E+00
 -1       826 7.69584E+01 2.83253E+01 0.00000E+00
 -1       827 1.29900E+01 3.37938E+01 0.00000E+00
 -1       828 9.12447E+01 2.10229E+01 0.00000E+00
 -1       829 9.75005E+01 2.17038E+01 0.00000E+00
 -1       830 1.29900E+01 3.08563E+01 0.00000E+00
 -1       831 2.10000E+01 3.44120E+01 0.00000E+00
 -1       832 1.48741E+01 1.55170E+01 0.00000E+00
 -1       833 2.40000E+01 3.44120E+01 0.00000E+00
 -1       834 2.70000E+01 3.44120E+01 0.00000E+00
 -1       835 3.00000E+01 3.44120E+01 0.00000E+00
 -1       836 3.30000E+01 3.44120E+01 0.00000E+00
 -1       837 3.60000E+01 3.44120E+01 0.00000E+00
 -1       838 3.90000E+01 3.44120E+01 0.00000E+00
 -1       839 4.20000E+01 3.44120E+01 0.00000E+00
 -1       840 4.50000E+01 3.44120E+01 0.00000E+00
 -1       841 4.80000E+01 3.44120E+01 0.00000E+00
 -1       842 5.10000E+01 3.44120E+01 0.00000E+00
 -1       843 5.40000E+01 3.44120E+01 0.00000E+00
 -1       844 5.70000E+01 3.44120E+01 0.00000E+00
 -1       845 6.00000E+01 3.44120E+01 0.00000E+00
 -1       846 6.30000E+01 3.44120E+01 0.00000E+00
 -1       847 6.60000E+01 3.44120E+01 0.00000E+00
 -1       848 6.90000E+01 3.44120E+01 0.00000E+00
 -1       849 7.20000E+01 3.44120E+01 0.00000E+00
 -1       850 1.14375E+02 3.54300E+01 0.00000E+00
 -1       851 1.17375E+02 3.54300E+01 0.00000E+00
 -1       852 1.20375E+02 3.54300E+01 0.00000E+00
 -1       853 1.23375E+02 3.54300E+01 0.00000E+00
 -1       854 1.26375E+02 3.54300E+01 0.00000E+00
 -1       855 1.29375E+02 3.54300E+01 0.00000E+00
 -1       856 1.32375E+02 3.54300E+01 0.00000E+00
 -1       857 1.34693E+02 3.46275E+01 0.00000E+00
 -1       858 3.13740E+01 1.51775E+01 0.00000E+00
 -1       859 4.33740E+01 1.51775E+01 0.00000E+00
 -1       860 4.03740E+01 1.51775E+01 0.00000E+00
 -1       861 4.93740E+01 1.51775E+01 0.00000E+00
 -1       862 5.23740E+01 1.51775E+01 0.00000E+00
 -1       863 5.53740E+01 1.51775E+01 0.00000E+00
 -1       864 5.83740E+01 1.51775E+01 0.00000E+00
 -1       865 6.13740E+01 1.51775E+01 0.00000E+00
 -1       866 6.43740E+01 1.51775E+01 0.00000E+00
 -1       867 6.73740E+01 1.51775E+01 0.00000E+00
 -1       868 7.03740E+01 1.51775E+01 0.00000E+00
 -1       869 7.33740E+01 1.51775E+01 0.00000E+00
 -1       870 7.63740E+01 1.51775E+01 0.00000E+00
 -1       871 7.93740E+01 1.51775E+01 0.00000E+00
 -1       872 8.23740E+01 1.51775E+01 0.00000E+00
 -1       873 8.53740E+01 1.51775E+01 0.00000E+00
 -1       874 8.83740E+01 1.51775E+01 0.00000E+00
 -1       875 9.13740E+01 1.51775E+01 0.00000E+00
 -1       876 9.43740E+01 1.51775E+01 0.00000E+00
 -1       877 9.73740E+01 1.51775E+01 0.00000E+00
 -1       878 1.00374E+02 1.51775E+01 0.00000E+00
 -1       879 1.03374E+02 1.51775E+01 0.00000E+00
 -1       880 1.06374E+02 1.51775E+01 0.00000E+00
 -1       881 1.09374E+02 1.51775E+01 0.00000E+00
 -1       882 1.12374E+02 1.51775E+01 0.00000E+00
 -1       883 1.15374E+02 1.51775E+01 0.00000E+00
 -1       884 1.18374E+02 1.51775E+01 0.00000E+00
 -1       885 1.21374E+02 1.51775E+01 0.00000E+00
 -1       886 1.24374E+02 1.51775E+01 0.00000E+00
 -1       887 1.27374E+02 1.51775E+01 0.00000E+00
 -1       888 1.30374E+02 1.51775E+01 0.00000E+00
 -1       889 7.51390E+01 3.12172E+01 0.00000E+00
 -1       890 1.09519E+02 3.44384E+01 0.00000E+00
 -1       891 8.02409E+01 2.12784E+01 0.00000E+00
 -1       892 7.72652E+01 2.51285E+01 0.00000E+00
 -1       893 4.63740E+01 1.51775E+01 0.00000E+00
 -1       894 1.11947E+02 3.49342E+01 0.00000E+00
 -1       895 1.02949E+02 2.50737E+01 0.00000E+00
 -1       896 8.39190E+01 1.97671E+01 0.00000E+00
 -1       897 1.29900E+01 2.79188E+01 0.00000E+00
 -1       898 9.37461E+01 2.07485E+01 0.00000E+00
 -1       899 1.59900E+01 3.37938E+01 0.00000E+00
 -1       900 1.00197E+02 2.15699E+01 0.00000E+00
 -1       901 1.55880E+01 2.35000E+01 0.00000E+00
 -1       902 7.42061E+01 3.27048E+01 0.00000E+00
 -1       903 1.34693E+02 3.16900E+01 0.00000E+00
 -1       904 1.93740E+01 1.51775E+01 0.00000E+00
 -1       905 2.83740E+01 1.51775E+01 0.00000E+00
 -1       906 3.73740E+01 1.51775E+01 0.00000E+00
 -1       907 1.71240E+01 1.53473E+01 0.00000E+00
 -1       908 1.32783E+02 1.61644E+01 0.00000E+00
 -1       909 1.34339E+02 2.11087E+01 0.00000E+00
 -1       910 1.05144E+02 2.62794E+01 0.00000E+00
 -1       911 1.34412E+02 2.64813E+01 0.00000E+00
 -1       912 7.72819E+01 2.20856E+01 0.00000E+00
 -1       913 1.84950E+01 3.41029E+01 0.00000E+00
 -1       914 8.53381E+01 1.89328E+01 0.00000E+00
 -1       915 7.46667E+01 2.89351E+01 0.00000E+00
 -1       916 8.92928E+01 1.96066E+01 0.00000E+00
 -1       917 2.23740E+01 1.51775E+01 0.00000E+00
 -1       918 1.07485E+02 2.99210E+01 0.00000E+00
 -1       919 9.58799E+01 1.98594E+01 0.00000E+00
 -1       920 1.55880E+01 2.05562E+01 0.00000E+00
 -1       921 1.34552E+02 2.90856E+01 0.00000E+00
 -1       922 1.34375E+02 2.37950E+01 0.00000E+00
 -1       923 3.43740E+01 1.51775E+01 0.00000E+00
 -1       924 1.34738E+02 1.68276E+01 0.00000E+00
 -1       925 1.55880E+01 2.64438E+01 0.00000E+00
 -1       926 1.52310E+01 1.80366E+01 0.00000E+00
 -1       927 7.26516E+01 3.06936E+01 0.00000E+00
 -1       928 2.25000E+01 3.18140E+01 0.00000E+00
 -1       929 2.55000E+01 3.18140E+01 0.00000E+00
 -1       930 2.85000E+01 3.18140E+01 0.00000E+00
 -1       931 3.15000E+01 3.18140E+01 0.00000E+00
 -1       932 3.45000E+01 3.18140E+01 0.00000E+00
 -1       933 3.75000E+01 3.18140E+01 0.00000E+00
 -1       934 4.05000E+01 3.18140E+01 0.00000E+00
 -1       935 4.35000E+01 3.18140E+01 0.00000E+00
 -1       936 4.65000E+01 3.18140E+01 0.00000E+00
 -1       937 4.95000E+01 3.18140E+01 0.00000E+00
 -1       938 5.25000E+01 3.18140E+01 0.00000E+00
 -1       939 5.55000E+01 3.18140E+01 0.00000E+00
 -1       940 5.85000E+01 3.18140E+01 0.00000E+00
 -1       941 6.15000E+01 3.18140E+01 0.00000E+00
 -1       942 6.45000E+01 3.18140E+01 0.00000E+00
 -1       943 6.75000E+01 3.18140E+01 0.00000E+00
 -1       944 7.08530E+01 3.22594E+01 0.00000E+00
 -1       945 1.34538E+02 1.89681E+01 0.00000E+00
 -1       946 8.10925E+01 1.81197E+01 0.00000E+00
 -1       947 1.18875E+02 3.28320E+01 0.00000E+00
 -1       948 1.21875E+02 3.28320E+01 0.00000E+00
 -1       949 1.24875E+02 3.28320E+01 0.00000E+00
 -1       950 1.27875E+02 3.28320E+01 0.00000E+00
 -1       951 1.30875E+02 3.28320E+01 0.00000E+00
 -1       952 1.32784E+02 3.22610E+01 0.00000E+00
 -1       953 5.38740E+01 1.77755E+01 0.00000E+00
 -1       954 5.08740E+01 1.77755E+01 0.00000E+00
 -1       955 5.98740E+01 1.77755E+01 0.00000E+00
 -1       956 6.28740E+01 1.77755E+01 0.00000E+00
 -1       957 6.58740E+01 1.77755E+01 0.00000E+00
 -1       958 6.88740E+01 1.77755E+01 0.00000E+00
 -1       959 7.18740E+01 1.77755E+01 0.00000E+00
 -1       960 7.48740E+01 1.77755E+01 0.00000E+00
 -1       961 7.78740E+01 1.77755E+01 0.00000E+00
 -1       962 8.98740E+01 1.77755E+01 0.00000E+00
 -1       963 9.28740E+01 1.77755E+01 0.00000E+00
 -1       964 1.01874E+02 1.77755E+01 0.00000E+00
 -1       965 1.04874E+02 1.77755E+01 0.00000E+00
 -1       966 1.07874E+02 1.77755E+01 0.00000E+00
 -1       967 1.10874E+02 1.77755E+01 0.00000E+00
 -1       968 1.13874E+02 1.77755E+01 0.00000E+00
 -1       969 1.16874E+02 1.77755E+01 0.00000E+00
 -1       970 1.19874E+02 1.77755E+01 0.00000E+00
 -1       971 1.22874E+02 1.77755E+01 0.00000E+00
 -1       972 1.25874E+02 1.77755E+01 0.00000E+00
 -1       973 1.28874E+02 1.77755E+01 0.00000E+00
 -1       974 1.02690E+02 2.26924E+01 0.00000E+00
 -1       975 1.63076E+01 3.04687E+01 0.00000E+00
 -1       976 2.53740E+01 1.51775E+01 0.00000E+00
 -1       977 7.49735E+01 2.57382E+01 0.00000E+00
 -1       978 1.10113E+02 3.19429E+01 0.00000E+00
 -1       979 5.68740E+01 1.77755E+01 0.00000E+00
 -1       980 9.85765E+01 1.97255E+01 0.00000E+00
 -1       981 1.15875E+02 3.28320E+01 0.00000E+00
 -1       982 4.18740E+01 1.77755E+01 0.00000E+00
 -1       983 1.99950E+01 3.15049E+01 0.00000E+00
 -1       984 2.98740E+01 1.77755E+01 0.00000E+00
 -1       985 3.88740E+01 1.77755E+01 0.00000E+00
 -1       986 1.03782E+02 2.02339E+01 0.00000E+00
 -1       987 1.74810E+01 1.78669E+01 0.00000E+00
 -1       988 1.13447E+02 3.23362E+01 0.00000E+00
 -1       989 4.78740E+01 1.77755E+01 0.00000E+00
 -1       990 1.04885E+02 2.38981E+01 0.00000E+00
 -1       991 1.31283E+02 1.87624E+01 0.00000E+00
 -1       992 2.05520E+01 1.80176E+01 0.00000E+00
 -1       993 1.81860E+01 2.49719E+01 0.00000E+00
 -1       994 1.07400E+02 2.72914E+01 0.00000E+00
 -1       995 1.31796E+02 2.51735E+01 0.00000E+00
 -1       996 1.31759E+02 2.24873E+01 0.00000E+00
 -1       997 7.49903E+01 2.26953E+01 0.00000E+00
 -1       998 4.48740E+01 1.77755E+01 0.00000E+00
 -1       999 1.81860E+01 2.20281E+01 0.00000E+00
 -1      1000 3.28740E+01 1.77755E+01 0.00000E+00
 -1      1001 1.31936E+02 2.77779E+01 0.00000E+00
 -1      1002 2.70000E+01 2.92160E+01 0.00000E+00
 -1      1003 3.00000E+01 2.92160E+01 0.00000E+00
 -1      1004 3.30000E+01 2.92160E+01 0.00000E+00
 -1      1005 3.60000E+01 2.92160E+01 0.00000E+00
 -1      1006 3.90000E+01 2.92160E+01 0.00000E+00
 -1      1007 4.20000E+01 2.92160E+01 0.00000E+00
 -1      1008 4.50000E+01 2.92160E+01 0.00000E+00
 -1      1009 4.80000E+01 2.92160E+01 0.00000E+00
 -1      1010 5.10000E+01 2.92160E+01 0.00000E+00
 -1      1011 5.40000E+01 2.92160E+01 0.00000E+00
 -1      1012 5.70000E+01 2.92160E+01 0.00000E+00
 -1      1013 6.00000E+01 2.92160E+01 0.00000E+00
 -1      1014 6.30000E+01 2.92160E+01 0.00000E+00
 -1      1015 6.60000E+01 2.92160E+01 0.00000E+00
 -1      1016 6.95186E+01 2.94613E+01 0.00000E+00
 -1      1017 1.20375E+02 3.02340E+01 0.00000E+00
 -1      1018 5.83740E+01 2.03735E+01 0.00000E+00
 -1      1019 1.23375E+02 3.02340E+01 0.00000E+00
 -1      1020 1.26375E+02 3.02340E+01 0.00000E+00
 -1      1021 1.29375E+02 3.02340E+01 0.00000E+00
 -1      1022 5.23740E+01 2.03735E+01 0.00000E+00
 -1      1023 6.43740E+01 2.03735E+01 0.00000E+00
 -1      1024 6.13740E+01 2.03735E+01 0.00000E+00
 -1      1025 7.03740E+01 2.03735E+01 0.00000E+00
 -1      1026 1.12374E+02 2.03735E+01 0.00000E+00
 -1      1027 1.15374E+02 2.03735E+01 0.00000E+00
 -1      1028 1.18374E+02 2.03735E+01 0.00000E+00
 -1      1029 1.21374E+02 2.03735E+01 0.00000E+00
 -1      1030 1.24374E+02 2.03735E+01 0.00000E+00
 -1      1031 1.27374E+02 2.03735E+01 0.00000E+00
 -1      1032 1.29567E+02 2.14304E+01 0.00000E+00
 -1      1033 1.29603E+02 2.41167E+01 0.00000E+00
 -1      1034 2.68740E+01 1.77755E+01 0.00000E+00
 -1      1035 1.90905E+01 2.82384E+01 0.00000E+00
 -1      1036 7.22340E+01 2.70884E+01 0.00000E+00
 -1      1037 1.32360E+02 3.00195E+01 0.00000E+00
 -1      1038 5.53740E+01 2.03735E+01 0.00000E+00
 -1      1039 1.09374E+02 2.03735E+01 0.00000E+00
 -1      1040 1.06578E+02 2.03037E+01 0.00000E+00
 -1      1041 3.58740E+01 1.77755E+01 0.00000E+00
 -1      1042 4.33740E+01 2.03735E+01 0.00000E+00
 -1      1043 6.73740E+01 2.03735E+01 0.00000E+00
 -1      1044 1.10384E+02 2.88729E+01 0.00000E+00
 -1      1045 1.17375E+02 3.02340E+01 0.00000E+00
 -1      1046 2.36497E+01 1.80004E+01 0.00000E+00
 -1      1047 2.40000E+01 2.92160E+01 0.00000E+00
 -1      1048 1.29744E+02 2.67210E+01 0.00000E+00
 -1      1049 4.03740E+01 2.03735E+01 0.00000E+00
 -1      1050 4.93740E+01 2.03735E+01 0.00000E+00
 -1      1051 1.07141E+02 2.49100E+01 0.00000E+00
 -1      1052 1.13717E+02 2.92663E+01 0.00000E+00
 -1      1053 2.15452E+01 2.87272E+01 0.00000E+00
 -1      1054 7.38099E+01 2.11976E+01 0.00000E+00
 -1      1055 3.13740E+01 2.03735E+01 0.00000E+00
 -1      1056 7.22507E+01 2.40455E+01 0.00000E+00
 -1      1057 4.63740E+01 2.03735E+01 0.00000E+00
 -1      1058 2.83740E+01 2.03735E+01 0.00000E+00
 -1      1059 2.12837E+01 2.20109E+01 0.00000E+00
 -1      1060 2.06408E+01 2.54607E+01 0.00000E+00
 -1      1061 1.15546E+02 2.97502E+01 0.00000E+00
 -1      1062 1.27411E+02 2.30598E+01 0.00000E+00
 -1      1063 3.15000E+01 2.66180E+01 0.00000E+00
 -1      1064 3.45000E+01 2.66180E+01 0.00000E+00
 -1      1065 3.75000E+01 2.66180E+01 0.00000E+00
 -1      1066 4.05000E+01 2.66180E+01 0.00000E+00
 -1      1067 4.35000E+01 2.66180E+01 0.00000E+00
 -1      1068 4.65000E+01 2.66180E+01 0.00000E+00
 -1      1069 4.95000E+01 2.66180E+01 0.00000E+00
 -1      1070 5.25000E+01 2.66180E+01 0.00000E+00
 -1      1071 5.55000E+01 2.66180E+01 0.00000E+00
 -1      1072 5.85000E+01 2.66180E+01 0.00000E+00
 -1      1073 6.15000E+01 2.66180E+01 0.00000E+00
 -1      1074 6.45000E+01 2.66180E+01 0.00000E+00
 -1      1075 6.79400E+01 2.67470E+01 0.00000E+00
 -1      1076 5.38740E+01 2.29715E+01 0.00000E+00
 -1      1077 1.24875E+02 2.76360E+01 0.00000E+00
 -1      1078 3.73740E+01 2.03735E+01 0.00000E+00
 -1      1079 1.18875E+02 2.76360E+01 0.00000E+00
 -1      1080 5.68740E+01 2.29715E+01 0.00000E+00
 -1      1081 1.16874E+02 2.29715E+01 0.00000E+00
 -1      1082 1.13874E+02 2.29715E+01 0.00000E+00
 -1      1083 1.22874E+02 2.29715E+01 0.00000E+00
 -1      1084 1.25142E+02 2.30156E+01 0.00000E+00
 -1      1085 5.98740E+01 2.29715E+01 0.00000E+00
 -1      1086 2.85000E+01 2.66180E+01 0.00000E+00
 -1      1087 1.10109E+02 2.57868E+01 0.00000E+00
 -1      1088 2.47043E+01 2.13257E+01 0.00000E+00
 -1      1089 1.19874E+02 2.29715E+01 0.00000E+00
 -1      1090 2.40614E+01 2.47755E+01 0.00000E+00
 -1      1091 1.10874E+02 2.29715E+01 0.00000E+00
 -1      1092 6.28740E+01 2.29715E+01 0.00000E+00
 -1      1093 6.88740E+01 2.29715E+01 0.00000E+00
 -1      1094 6.58740E+01 2.29715E+01 0.00000E+00
 -1      1095 3.43740E+01 2.03735E+01 0.00000E+00
 -1      1096 1.21875E+02 2.76360E+01 0.00000E+00
 -1      1097 4.48740E+01 2.29715E+01 0.00000E+00
 -1      1098 1.13443E+02 2.61801E+01 0.00000E+00
 -1      1099 4.18740E+01 2.29715E+01 0.00000E+00
 -1      1100 5.08740E+01 2.29715E+01 0.00000E+00
 -1      1101 1.27875E+02 2.76360E+01 0.00000E+00
 -1      1102 1.17046E+02 2.71522E+01 0.00000E+00
 -1      1103 1.27443E+02 2.48683E+01 0.00000E+00
 -1      1104 4.78740E+01 2.29715E+01 0.00000E+00
 -1      1105 2.98740E+01 2.29715E+01 0.00000E+00
 -1      1106 3.28740E+01 2.29715E+01 0.00000E+00
 -1      1107 3.60000E+01 2.40200E+01 0.00000E+00
 -1      1108 3.90000E+01 2.40200E+01 0.00000E+00
 -1      1109 1.15374E+02 2.55695E+01 0.00000E+00
 -1      1110 1.20375E+02 2.50380E+01 0.00000E+00
 -1      1111 2.81022E+01 2.39719E+01 0.00000E+00
 -1      1112 1.15296E+02 2.69966E+01 0.00000E+00
 -1      1113 0.00000E+00 4.85250E+01 0.00000E+00
 -1      1114 0.00000E+00 4.55750E+01 0.00000E+00
 -1      1115 0.00000E+00 4.26250E+01 0.00000E+00
 -1      1116 0.00000E+00 3.96750E+01 0.00000E+00
 -1      1117 0.00000E+00 3.67250E+01 0.00000E+00
 -1      1118 0.00000E+00 3.38000E+01 0.00000E+00
 -1      1119 0.00000E+00 3.08750E+01 0.00000E+00
 -1      1120 0.00000E+00 2.79250E+01 0.00000E+00
 -1      1121 0.00000E+00 2.49750E+01 0.00000E+00
 -1      1122 0.00000E+00 2.20250E+01 0.00000E+00
 -1      1123 0.00000E+00 1.90750E+01 0.00000E+00
 -1      1124 0.00000E+00 1.61500E+01 0.00000E+00
 -1      1125 0.00000E+00 1.32250E+01 0.00000E+00
 -1      1126 0.00000E+00 1.02750E+01 0.00000E+00
 -1      1127 0.00000E+00 7.32500E+00 0.00000E+00
 -1      1128 0.00000E+00 4.37500E+00 0.00000E+00
 -1      1129 0.00000E+00 1.45000E+00 0.00000E+00
 -1      1130 1.50000E+00 5.00000E+01 0.00000E+00
 -1      1131 4.50000E+00 5.00000E+01 0.00000E+00
 -1      1132 7.50000E+00 5.00000E+01 0.00000E+00
 -1      1133 1.05000E+01 5.00000E+01 0.00000E+00
 -1      1134 1.35000E+01 5.00000E+01 0.00000E+00
 -1      1135 1.65000E+01 5.00000E+01 0.00000E+00
 -1      1136 1.95000E+01 5.00000E+01 0.00000E+00
 -1      1137 2.25000E+01 5.00000E+01 0.00000E+00
 -1      1138 2.55000E+01 5.00000E+01 0.00000E+00
 -1      1139 2.85000E+01 5.00000E+01 0.00000E+00
 -1      1140 3.15000E+01 5.00000E+01 0.00000E+00
 -1      1141 3.45000E+01 5.00000E+01 0.00000E+00
 -1      1142 3.75000E+01 5.00000E+01 0.00000E+00
 -1      1143 4.05000E+01 5.00000E+01 0.00000E+00
 -1      1144 4.35000E+01 5.00000E+01 0.00000E+00
 -1      1145 4.65000E+01 5.00000E+01 0.00000E+00
 -1      1146 4.95000E+01 5.00000E+01 0.00000E+00
 -1      1147 5.25000E+01 5.00000E+01 0.00000E+00
 -1      1148 5.55000E+01 5.00000E+01 0.00000E+00
 -1      1149 5.85000E+01 5.00000E+01 0.00000E+00
 -1      1150 6.15000E+01 5.00000E+01 0.00000E+00
 -1      1151 6.45000E+01 5.00000E+01 0.00000E+00
 -1      1152 6.75000E+01 5.00000E+01 0.00000E+00
 -1      1153 7.05000E+01 5.00000E+01 0.00000E+00
 -1      1154 7.35000E+01 5.00000E+01 0.00000E+00
 -1      1155 7.65000E+01 5.00000E+01 0.00000E+00
 -1      1156 7.95000E+01 5.00000E+01 0.00000E+00
 -1      1157 8.24250E+01 5.00000E+01 0.00000E+00
 -1      1158 8.52750E+01 5.00000E+01 0.00000E+00
 -1      1159 8.79000E+01 5.00000E+01 0.00000E+00
 -1      1160 9.03000E+01 5.00000E+01 0.00000E+00
 -1      1161 9.26250E+01 5.00000E+01 0.00000E+00
 -1      1162 9.50250E+01 5.00000E+01 0.00000E+00
 -1      1163 9.77250E+01 5.00000E+01 0.00000E+00
 -1      1164 1.00650E+02 5.00000E+01 0.00000E+00
 -1      1165 1.03650E+02 5.00000E+01 0.00000E+00
 -1      1166 1.06650E+02 5.00000E+01 0.00000E+00
 -1      1167 1.09650E+02 5.00000E+01 0.00000E+00
 -1      1168 1.12650E+02 5.00000E+01 0.00000E+00
 -1      1169 1.15650E+02 5.00000E+01 0.00000E+00
 -1      1170 1.18650E+02 5.00000E+01 0.00000E+00
 -1      1171 1.21650E+02 5.00000E+01 0.00000E+00
 -1      1172 1.24650E+02 5.00000E+01 0.00000E+00
 -1      1173 1.27650E+02 5.00000E+01 0.00000E+00
 -1      1174 1.30650E+02 5.00000E+01 0.00000E+00
 -1      1175 1.33650E+02 5.00000E+01 0.00000E+00
 -1      1176 1.36650E+02 5.00000E+01 0.00000E+00
 -1      1177 1.39650E+02 5.00000E+01 0.00000E+00
 -1      1178 1.42650E+02 5.00000E+01 0.00000E+00
 -1      1179 1.45650E+02 5.00000E+01 0.00000E+00
 -1      1180 1.48575E+02 5.00000E+01 0.00000E+00
 -1      1181 1.57500E+00 0.00000E+00 0.00000E+00
 -1      1182 4.65000E+00 0.00000E+00 0.00000E+00
 -1      1183 7.65000E+00 0.00000E+00 0.00000E+00
 -1      1184 1.06500E+01 0.00000E+00 0.00000E+00
 -1      1185 1.36500E+01 0.00000E+00 0.00000E+00
 -1      1186 1.66500E+01 0.00000E+00 0.00000E+00
 -1      1187 1.96500E+01 0.00000E+00 0.00000E+00
 -1      1188 2.26500E+01 0.00000E+00 0.00000E+00
 -1      1189 2.56500E+01 0.00000E+00 0.00000E+00
 -1      1190 2.86500E+01 0.00000E+00 0.00000E+00
 -1      1191 3.16500E+01 0.00000E+00 0.00000E+00
 -1      1192 3.46500E+01 0.00000E+00 0.00000E+00
 -1      1193 3.76500E+01 0.00000E+00 0.00000E+00
 -1      1194 4.06500E+01 0.00000E+00 0.00000E+00
 -1      1195 4.36500E+01 0.00000E+00 0.00000E+00
 -1      1196 4.66500E+01 0.00000E+00 0.00000E+00
 -1      1197 4.96500E+01 0.00000E+00 0.00000E+00
 -1      1198 5.26500E+01 0.00000E+00 0.00000E+00
 -1      1199 5.56500E+01 0.00000E+00 0.00000E+00
 -1      1200 5.86500E+01 0.00000E+00 0.00000E+00
 -1      1201 6.16500E+01 0.00000E+00 0.00000E+00
 -1      1202 6.46500E+01 0.00000E+00 0.00000E+00
 -1      1203 6.76500E+01 0.00000E+00 0.00000E+00
 -1      1204 7.06500E+01 0.00000E+00 0.00000E+00
 -1      1205 7.36500E+01 0.00000E+00 0.00000E+00
 -1      1206 7.66500E+01 0.00000E+00 0.00000E+00
 -1      1207 7.96500E+01 0.00000E+00 0.00000E+00
 -1      1208 8.26500E+01 0.00000E+00 0.00000E+00
 -1      1209 8.56500E+01 0.00000E+00 0.00000E+00
 -1      1210 8.86500E+01 0.00000E+00 0.00000E+00
 -1      1211 9.16500E+01 0.00000E+00 0.00000E+00
 -1      1212 9.46500E+01 0.00000E+00 0.00000E+00
 -1      1213 9.76500E+01 0.00000E+00 0.00000E+00
 -1      1214 1.00650E+02 0.00000E+00 0.00000E+00
 -1      1215 1.03650E+02 0.00000E+00 0.00000E+00
 -1      1216 1.06650E+02 0.00000E+00 0.00000E+00
 -1      1217 1.09650E+02 0.00000E+00 0.00000E+00
 -1      1218 1.12650E+02 0.00000E+00 0.00000E+00
 -1      1219 1.15650E+02 0.00000E+00 0.00000E+00
 -1      1220 1.18650E+02 0.00000E+00 0.00000E+00
 -1      1221 1.21650E+02 0.00000E+00 0.00000E+00
 -1      1222 1.24650E+02 0.00000E+00 0.00000E+00
 -1      1223 1.27650E+02 0.00000E+00 0.00000E+00
 -1      1224 1.30650E+02 0.00000E+00 0.00000E+00
 -1      1225 1.33650E+02 0.00000E+00 0.00000E+00
 -1      1226 1.36650E+02 0.00000E+00 0.00000E+00
 -1      1227 1.39650E+02 0.00000E+00 0.00000E+00
 -1      1228 1.42650E+02 0.00000E+00 0.00000E+00
 -1      1229 1.45650E+02 0.00000E+00 0.00000E+00
 -1      1230 1.48575E+02 0.00000E+00 0.00000E+00
 -1      1231 1.50000E+02 1.47500E+00 0.00000E+00
 -1      1232 1.50000E+02 4.42500E+00 0.00000E+00
 -1      1233 1.50000E+02 7.37500E+00 0.00000E+00
 -1      1234 1.50000E+02 1.03250E+01 0.00000E+00
 -1      1235 1.50000E+02 1.32750E+01 0.00000E+00
 -1      1236 1.50000E+02 1.62000E+01 0.00000E+00
 -1      1237 1.50000E+02 1.91250E+01 0.00000E+00
 -1      1238 1.50000E+02 2.20750E+01 0.00000E+00
 -1      1239 1.50000E+02 2.50250E+01 0.00000E+00
 -1      1240 1.50000E+02 2.79750E+01 0.00000E+00
 -1      1241 1.50000E+02 3.09250E+01 0.00000E+00
 -1      1242 1.50000E+02 3.38500E+01 0.00000E+00
 -1      1243 1.50000E+02 3.67750E+01 0.00000E+00
 -1      1244 1.50000E+02 3.97250E+01 0.00000E+00
 -1      1245 1.50000E+02 4.26750E+01 0.00000E+00
 -1      1246 1.50000E+02 4.56250E+01 0.00000E+00
 -1      1247 1.50000E+02 4.85500E+01 0.00000E+00
 -1      1248 9.78556E+01 3.51574E+01 0.00000E+00
 -1      1249 9.75169E+01 3.36540E+01 0.00000E+00
 -1      1250 9.68516E+01 3.22519E+01 0.00000E+00
 -1      1251 9.58904E+01 3.10273E+01 0.00000E+00
 -1      1252 9.46582E+01 3.00300E+01 0.00000E+00
 -1      1253 9.32780E+01 2.93517E+01 0.00000E+00
 -1      1254 9.17714E+01 2.89896E+01 0.00000E+00
 -1      1255 9.02009E+01 2.89698E+01 0.00000E+00
 -1      1256 8.87216E+01 2.92822E+01 0.00000E+00
 -1      1257 8.73624E+01 2.98940E+01 0.00000E+00
 -1      1258 8.61905E+01 3.07551E+01 0.00000E+00
 -1      1259 8.52144E+01 3.18501E+01 0.00000E+00
 -1      1260 8.44717E+01 3.31618E+01 0.00000E+00
 -1      1261 8.40279E+01 3.45973E+01 0.00000E+00
 -1      1262 8.38999E+01 3.60533E+01 0.00000E+00
 -1      1263 8.40801E+01 3.75173E+01 0.00000E+00
 -1      1264 8.45696E+01 3.89248E+01 0.00000E+00
 -1      1265 8.53522E+01 4.02051E+01 0.00000E+00
 -1      1266 8.64129E+01 4.13086E+01 0.00000E+00
 -1      1267 8.76701E+01 4.21458E+01 0.00000E+00
 -1      1268 8.90677E+01 4.26912E+01 0.00000E+00
 -1      1269 9.05974E+01 4.29285E+01 0.00000E+00
 -1      1270 9.20885E+01 4.28331E+01 0.00000E+00
 -1      1271 9.35219E+01 4.24250E+01 0.00000E+00
 -1      1272 9.48366E+01 4.17224E+01 0.00000E+00
 -1      1273 9.59547E+01 4.07763E+01 0.00000E+00
 -1      1274 9.68794E+01 3.95728E+01 0.00000E+00
 -1      1275 9.75283E+01 3.81824E+01 0.00000E+00
 -1      1276 9.78577E+01 3.66930E+01 0.00000E+00
 -1      1277 1.50000E+00 4.85250E+01 0.00000E+00
 -1      1278 1.29900E+00 4.48375E+01 0.00000E+00
 -1      1279 1.29900E+00 4.63125E+01 0.00000E+00
 -1      1280 1.29900E+00 4.18875E+01 0.00000E+00
 -1      1281 1.29900E+00 4.33625E+01 0.00000E+00
 -1      1282 2.59800E+00 4.41000E+01 0.00000E+00
 -1      1283 1.29900E+00 3.89375E+01 0.00000E+00
 -1      1284 1.29900E+00 4.04125E+01 0.00000E+00
 -1      1285 2.59800E+00 4.11500E+01 0.00000E+00
 -1      1286 1.29900E+00 3.59875E+01 0.00000E+00
 -1      1287 1.29900E+00 3.74625E+01 0.00000E+00
 -1      1288 2.59800E+00 3.82000E+01 0.00000E+00
 -1      1289 1.29900E+00 3.30875E+01 0.00000E+00
 -1      1290 1.29900E+00 3.45375E+01 0.00000E+00
 -1      1291 2.59800E+00 3.52750E+01 0.00000E+00
 -1      1292 1.29900E+00 3.01375E+01 0.00000E+00
 -1      1293 1.29900E+00 3.16125E+01 0.00000E+00
 -1      1294 2.59800E+00 3.23500E+01 0.00000E+00
 -1      1295 1.29900E+00 2.71875E+01 0.00000E+00
 -1      1296 1.29900E+00 2.86625E+01 0.00000E+00
 -1      1297 2.59800E+00 2.94000E+01 0.00000E+00
 -1      1298 1.29900E+00 2.42375E+01 0.00000E+00
 -1      1299 1.29900E+00 2.57125E+01 0.00000E+00
 -1      1300 2.59800E+00 2.64500E+01 0.00000E+00
 -1      1301 1.29900E+00 2.12875E+01 0.00000E+00
 -1      1302 1.29900E+00 2.27625E+01 0.00000E+00
 -1      1303 2.59800E+00 2.35000E+01 0.00000E+00
 -1      1304 1.29900E+00 1.83375E+01 0.00000E+00
 -1      1305 1.29900E+00 1.98125E+01 0.00000E+00
 -1      1306 2.59800E+00 2.05500E+01 0.00000E+00
 -1      1307 1.29900E+00 1.54375E+01 0.00000E+00
 -1      1308 1.29900E+00 1.68875E+01 0.00000E+00
 -1      1309 2.59800E+00 1.76250E+01 0.00000E+00
 -1      1310 1.29900E+00 1.24875E+01 0.00000E+00
 -1      1311 1.29900E+00 1.39625E+01 0.00000E+00
 -1      1312 2.59800E+00 1.47000E+01 0.00000E+00
 -1      1313 1.29900E+00 9.53750E+00 0.00000E+00
 -1      1314 1.29900E+00 1.10125E+01 0.00000E+00
 -1      1315 2.59800E+00 1.17500E+01 0.00000E+00
 -1      1316 1.29900E+00 6.58750E+00 0.00000E+00
 -1      1317 1.29900E+00 8.06250E+00 0.00000E+00
 -1      1318 2.59800E+00 8.80000E+00 0.00000E+00
 -1      1319 1.29900E+00 3.63750E+00 0.00000E+00
 -1      1320 1.29900E+00 5.11250E+00 0.00000E+00
 -1      1321 2.59800E+00 5.85000E+00 0.00000E+00
 -1      1322 1.43700E+00 1.09375E+00 0.00000E+00
 -1      1323 1.43700E+00 2.54375E+00 0.00000E+00
 -1      1324 2.73600E+00 3.28125E+00 0.00000E+00
 -1      1325 3.01200E+00 1.09375E+00 0.00000E+00
 -1      1326 3.75000E+00 4.87010E+01 0.00000E+00
 -1      1327 5.25000E+00 4.87010E+01 0.00000E+00
 -1      1328 6.75000E+00 4.87010E+01 0.00000E+00
 -1      1329 8.25000E+00 4.87010E+01 0.00000E+00
 -1      1330 6.00000E+00 4.74020E+01 0.00000E+00
 -1      1331 9.75000E+00 4.87010E+01 0.00000E+00
 -1      1332 1.12500E+01 4.87010E+01 0.00000E+00
 -1      1333 9.00000E+00 4.74020E+01 0.00000E+00
 -1      1334 1.27500E+01 4.87010E+01 0.00000E+00
 -1      1335 1.42500E+01 4.87010E+01 0.00000E+00
 -1      1336 1.20000E+01 4.74020E+01 0.00000E+00
 -1      1337 1.57500E+01 4.87010E+01 0.00000E+00
 -1      1338 1.72500E+01 4.87010E+01 0.00000E+00
 -1      1339 1.50000E+01 4.74020E+01 0.00000E+00
 -1      1340 1.87500E+01 4.87010E+01 0.00000E+00
 -1      1341 2.02500E+01 4.87010E+01 0.00000E+00
 -1      1342 1.80000E+01 4.74020E+01 0.00000E+00
 -1      1343 2.17500E+01 4.87010E+01 0.00000E+00
 -1      1344 2.32500E+01 4.87010E+01 0.00000E+00
 -1      1345 2.10000E+01 4.74020E+01 0.00000E+00
 -1      1346 2.47500E+01 4.87010E+01 0.00000E+00
 -1      1347 2.62500E+01 4.87010E+01 0.00000E+00
 -1      1348 2.40000E+01 4.74020E+01 0.00000E+00
 -1      1349 2.77500E+01 4.87010E+01 0.00000E+00
 -1      1350 2.92500E+01 4.87010E+01 0.00000E+00
 -1      1351 2.70000E+01 4.74020E+01 0.00000E+00
 -1      1352 3.07500E+01 4.87010E+01 0.00000E+00
 -1      1353 3.22500E+01 4.87010E+01 0.00000E+00
 -1      1354 3.00000E+01 4.74020E+01 0.00000E+00
 -1      1355 3.37500E+01 4.87010E+01 0.00000E+00
 -1      1356 3.52500E+01 4.87010E+01 0.00000E+00
 -1      1357 3.30000E+01 4.74020E+01 0.00000E+00
 -1      1358 3.67500E+01 4.87010E+01 0.00000E+00
 -1      1359 3.82500E+01 4.87010E+01 0.00000E+00
 -1      1360 3.60000E+01 4.74020E+01 0.00000E+00
 -1      1361 3.97500E+01 4.87010E+01 0.00000E+00
 -1      1362 4.12500E+01 4.87010E+01 0.00000E+00
 -1      1363 3.90000E+01 4.74020E+01 0.00000E+00
 -1      1364 4.27500E+01 4.87010E+01 0.00000E+00
 -1      1365 4.42500E+01 4.87010E+01 0.00000E+00
 -1      1366 4.20000E+01 4.74020E+01 0.00000E+00
 -1      1367 4.57500E+01 4.87010E+01 0.00000E+00
 -1      1368 4.72500E+01 4.87010E+01 0.00000E+00
 -1      1369 4.50000E+01 4.74020E+01 0.00000E+00
 -1      1370 4.87500E+01 4.87010E+01 0.00000E+00
 -1      1371 5.02500E+01 4.87010E+01 0.00000E+00
 -1      1372 4.80000E+01 4.74020E+01 0.00000E+00
 -1      1373 5.17500E+01 4.87010E+01 0.00000E+00
 -1      1374 5.32500E+01 4.87010E+01 0.00000E+00
 -1      1375 5.10000E+01 4.74020E+01 0.00000E+00
 -1      1376 5.47500E+01 4.87010E+01 0.00000E+00
 -1      1377 5.62500E+01 4.87010E+01 0.00000E+00
 -1      1378 5.40000E+01 4.74020E+01 0.00000E+00
 -1      1379 5.77500E+01 4.87010E+01 0.00000E+00
 -1      1380 5.92500E+01 4.87010E+01 0.00000E+00
 -1      1381 5.70000E+01 4.74020E+01 0.00000E+00
 -1      1382 6.07500E+01 4.87010E+01 0.00000E+00
 -1      1383 6.22500E+01 4.87010E+01 0.00000E+00
 -1      1384 6.00000E+01 4.74020E+01 0.00000E+00
 -1      1385 6.37500E+01 4.87010E+01 0.00000E+00
 -1      1386 6.52500E+01 4.87010E+01 0.00000E+00
 -1      1387 6.30000E+01 4.74020E+01 0.00000E+00
 -1      1388 6.67500E+01 4.87010E+01 0.00000E+00
 -1      1389 6.82500E+01 4.87010E+01 0.00000E+00
 -1      1390 6.60000E+01 4.74020E+01 0.00000E+00
 -1      1391 6.97500E+01 4.87010E+01 0.00000E+00
 -1      1392 7.12500E+01 4.87010E+01 0.00000E+00
 -1      1393 6.90000E+01 4.74020E+01 0.00000E+00
 -1      1394 7.27500E+01 4.87010E+01 0.00000E+00
 -1      1395 7.42500E+01 4.87010E+01 0.00000E+00
 -1      1396 7.20000E+01 4.74020E+01 0.00000E+00
 -1      1397 7.57500E+01 4.87010E+01 0.00000E+00
 -1      1398 7.72500E+01 4.87010E+01 0.00000E+00
 -1      1399 7.50000E+01 4.74020E+01 0.00000E+00
 -1      1400 7.87500E+01 4.87010E+01 0.00000E+00
 -1      1401 8.02500E+01 4.87010E+01 0.00000E+00
 -1      1402 7.80000E+01 4.74020E+01 0.00000E+00
 -1      1403 8.16750E+01 4.87010E+01 0.00000E+00
 -1      1404 8.31000E+01 4.87010E+01 0.00000E+00
 -1      1405 8.09250E+01 4.74020E+01 0.00000E+00
 -1      1406 8.45250E+01 4.87010E+01 0.00000E+00
 -1      1407 8.59500E+01 4.87010E+01 0.00000E+00
 -1      1408 8.37750E+01 4.74020E+01 0.00000E+00
 -1      1409 8.71500E+01 4.87010E+01 0.00000E+00
 -1      1410 8.83500E+01 4.87010E+01 0.00000E+00
 -1      1411 8.64000E+01 4.74020E+01 0.00000E+00
 -1      1412 8.95500E+01 4.87010E+01 0.00000E+00
 -1      1413 9.07500E+01 4.87010E+01 0.00000E+00
 -1      1414 8.88000E+01 4.74020E+01 0.00000E+00
 -1      1415 9.43875E+01 4.88911E+01 0.00000E+00
 -1      1416 9.56625E+01 4.88911E+01 0.00000E+00
 -1      1417 9.70875E+01 4.88911E+01 0.00000E+00
 -1      1418 9.85125E+01 4.88911E+01 0.00000E+00
 -1      1419 9.64500E+01 4.77822E+01 0.00000E+00
 -1      1420 1.00012E+02 4.88911E+01 0.00000E+00
 -1      1421 1.01512E+02 4.88911E+01 0.00000E+00
 -1      1422 9.93750E+01 4.77822E+01 0.00000E+00
 -1      1423 1.03012E+02 4.88911E+01 0.00000E+00
 -1      1424 1.04512E+02 4.88911E+01 0.00000E+00
 -1      1425 1.02375E+02 4.77822E+01 0.00000E+00
 -1      1426 1.06012E+02 4.88911E+01 0.00000E+00
 -1      1427 1.07512E+02 4.88911E+01 0.00000E+00
 -1      1428 1.05375E+02 4.77822E+01 0.00000E+00
 -1      1429 1.09012E+02 4.88911E+01 0.00000E+00
 -1      1430 1.10512E+02 4.88911E+01 0.00000E+00
 -1      1431 1.08375E+02 4.77822E+01 0.00000E+00
 -1      1432 1.12012E+02 4.88911E+01 0.00000E+00
 -1      1433 1.13512E+02 4.88911E+01 0.00000E+00
 -1      1434 1.11375E+02 4.77822E+01 0.00000E+00
 -1      1435 1.15012E+02 4.88911E+01 0.00000E+00
 -1      1436 1.16512E+02 4.88911E+01 0.00000E+00
 -1      1437 1.14375E+02 4.77822E+01 0.00000E+00
 -1      1438 1.18012E+02 4.88911E+01 0.00000E+00
 -1      1439 1.19512E+02 4.88911E+01 0.00000E+00
 -1      1440 1.17375E+02 4.77822E+01 0.00000E+00
 -1      1441 1.21012E+02 4.88911E+01 0.00000E+00
 -1      1442 1.22512E+02 4.88911E+01 0.00000E+00
 -1      1443 1.20375E+02 4.77822E+01 0.00000E+00
 -1      1444 1.24012E+02 4.88911E+01 0.00000E+00
 -1      1445 1.25512E+02 4.88911E+01 0.00000E+00
 -1      1446 1.23375E+02 4.77822E+01 0.00000E+00
 -1      1447 1.27012E+02 4.88911E+01 0.00000E+00
 -1      1448 1.28512E+02 4.88911E+01 0.00000E+00
 -1      1449 1.26375E+02 4.77822E+01 0.00000E+00
 -1      1450 1.30012E+02 4.88911E+01 0.00000E+00
 -1      1451 1.31512E+02 4.88911E+01 0.00000E+00
 -1      1452 1.29375E+02 4.77822E+01 0.00000E+00
 -1      1453 1.33012E+02 4.88911E+01 0.00000E+00
 -1      1454 1.34512E+02 4.88911E+01 0.00000E+00
 -1      1455 1.32375E+02 4.77822E+01 0.00000E+00
 -1      1456 1.36012E+02 4.88911E+01 0.00000E+00
 -1      1457 1.37512E+02 4.88911E+01 0.00000E+00
 -1      1458 1.35375E+02 4.77822E+01 0.00000E+00
 -1      1459 1.39012E+02 4.88911E+01 0.00000E+00
 -1      1460 1.40512E+02 4.88911E+01 0.00000E+00
 -1      1461 1.38375E+02 4.77822E+01 0.00000E+00
 -1      1462 1.42012E+02 4.88911E+01 0.00000E+00
 -1      1463 1.43512E+02 4.88911E+01 0.00000E+00
 -1      1464 1.41375E+02 4.77822E+01 0.00000E+00
 -1      1465 1.45012E+02 4.88911E+01 0.00000E+00
 -1      1466 1.46512E+02 4.88911E+01 0.00000E+00
 -1      1467 1.44375E+02 4.77822E+01 0.00000E+00
 -1      1468 1.47544E+02 4.87205E+01 0.00000E+00
 -1      1469 1.48969E+02 4.87205E+01 0.00000E+00
 -1      1470 1.48969E+02 4.72705E+01 0.00000E+00
 -1      1471 1.46906E+02 4.76116E+01 0.00000E+00
 -1      1472 6.01200E+00 1.09375E+00 0.00000E+00
 -1      1473 4.51200E+00 1.09375E+00 0.00000E+00
 -1      1474 4.37400E+00 2.18750E+00 0.00000E+00
 -1      1475 9.01200E+00 1.09375E+00 0.00000E+00
 -1      1476 7.51200E+00 1.09375E+00 0.00000E+00
 -1      1477 7.37400E+00 2.18750E+00 0.00000E+00
 -1      1478 1.20120E+01 1.09375E+00 0.00000E+00
 -1      1479 1.05120E+01 1.09375E+00 0.00000E+00
 -1      1480 1.03740E+01 2.18750E+00 0.00000E+00
 -1      1481 1.50120E+01 1.09375E+00 0.00000E+00
 -1      1482 1.35120E+01 1.09375E+00 0.00000E+00
 -1      1483 1.33740E+01 2.18750E+00 0.00000E+00
 -1      1484 1.80120E+01 1.09375E+00 0.00000E+00
 -1      1485 1.65120E+01 1.09375E+00 0.00000E+00
 -1      1486 1.63740E+01 2.18750E+00 0.00000E+00
 -1      1487 2.10120E+01 1.09375E+00 0.00000E+00
 -1      1488 1.95120E+01 1.09375E+00 0.00000E+00
 -1      1489 1.93740E+01 2.18750E+00 0.00000E+00
 -1      1490 2.40120E+01 1.09375E+00 0.00000E+00
 -1      1491 2.25120E+01 1.09375E+00 0.00000E+00
 -1      1492 2.23740E+01 2.18750E+00 0.00000E+00
 -1      1493 2.70120E+01 1.09375E+00 0.00000E+00
 -1      1494 2.55120E+01 1.09375E+00 0.00000E+00
 -1      1495 2.53740E+01 2.18750E+00 0.00000E+00
 -1      1496 3.00120E+01 1.09375E+00 0.00000E+00
 -1      1497 2.85120E+01 1.09375E+00 0.00000E+00
 -1      1498 2.83740E+01 2.18750E+00 0.00000E+00
 -1      1499 3.30120E+01 1.09375E+00 0.00000E+00
 -1      1500 3.15120E+01 1.09375E+00 0.00000E+00
 -1      1501 3.13740E+01 2.18750E+00 0.00000E+00
 -1      1502 3.60120E+01 1.09375E+00 0.00000E+00
 -1      1503 3.45120E+01 1.09375E+00 0.00000E+00
 -1      1504 3.43740E+01 2.18750E+00 0.00000E+00
 -1      1505 3.90120E+01 1.09375E+00 0.00000E+00
 -1      1506 3.75120E+01 1.09375E+00 0.00000E+00
 -1      1507 3.73740E+01 2.18750E+00 0.00000E+00
 -1      1508 4.20120E+01 1.09375E+00 0.00000E+00
 -1      1509 4.05120E+01 1.09375E+00 0.00000E+00
 -1      1510 4.03740E+01 2.18750E+00 0.00000E+00
 -1      1511 4.50120E+01 1.09375E+00 0.00000E+00
 -1      1512 4.35120E+01 1.09375E+00 0.00000E+00
 -1      1513 4.33740E+01 2.18750E+00 0.00000E+00
 -1      1514 4.80120E+01 1.09375E+00 0.00000E+00
 -1      1515 4.65120E+01 1.09375E+00 0.00000E+00
 -1      1516 4.63740E+01 2.18750E+00 0.00000E+00
 -1      1517 5.10120E+01 1.09375E+00 0.00000E+00
 -1      1518 4.95120E+01 1.09375E+00 0.00000E+00
 -1      1519 4.93740E+01 2.18750E+00 0.00000E+00
 -1      1520 5.40120E+01 1.09375E+00 0.00000E+00
 -1      1521 5.25120E+01 1.09375E+00 0.00000E+00
 -1      1522 5.23740E+01 2.18750E+00 0.00000E+00
 -1      1523 5.70120E+01 1.09375E+00 0.00000E+00
 -1      1524 5.55120E+01 1.09375E+00 0.00000E+00
 -1      1525 5.53740E+01 2.18750E+00 0.00000E+00
 -1      1526 6.00120E+01 1.09375E+00 0.00000E+00
 -1      1527 5.85120E+01 1.09375E+00 0.00000E+00
 -1      1528 5.83740E+01 2.18750E+00 0.00000E+00
 -1      1529 6.30120E+01 1.09375E+00 0.00000E+00
 -1      1530 6.15120E+01 1.09375E+00 0.00000E+00
 -1      1531 6.13740E+01 2.18750E+00 0.00000E+00
 -1      1532 6.60120E+01 1.09375E+00 0.00000E+00
 -1      1533 6.45120E+01 1.09375E+00 0.00000E+00
 -1      1534 6.43740E+01 2.18750E+00 0.00000E+00
 -1      1535 6.90120E+01 1.09375E+00 0.00000E+00
 -1      1536 6.75120E+01 1.09375E+00 0.00000E+00
 -1      1537 6.73740E+01 2.18750E+00 0.00000E+00
 -1      1538 7.20120E+01 1.09375E+00 0.00000E+00
 -1      1539 7.05120E+01 1.09375E+00 0.00000E+00
 -1      1540 7.03740E+01 2.18750E+00 0.00000E+00
 -1      1541 7.50120E+01 1.09375E+00 0.00000E+00
 -1      1542 7.35120E+01 1.09375E+00 0.00000E+00
 -1      1543 7.33740E+01 2.18750E+00 0.00000E+00
 -1      1544 7.80120E+01 1.09375E+00 0.00000E+00
 -1      1545 7.65120E+01 1.09375E+00 0.00000E+00
 -1      1546 7.63740E+01 2.18750E+00 0.00000E+00
 -1      1547 8.10120E+01 1.09375E+00 0.00000E+00
 -1      1548 7.95120E+01 1.09375E+00 0.00000E+00
 -1      1549 7.93740E+01 2.18750E+00 0.00000E+00
 -1      1550 8.40120E+01 1.09375E+00 0.00000E+00
 -1      1551 8.25120E+01 1.09375E+00 0.00000E+00
 -1      1552 8.23740E+01 2.18750E+00 0.00000E+00
 -1      1553 8.70120E+01 1.09375E+00 0.00000E+00
 -1      1554 8.55120E+01 1.09375E+00 0.00000E+00
 -1      1555 8.53740E+01 2.18750E+00 0.00000E+00
 -1      1556 9.00120E+01 1.09375E+00 0.00000E+00
 -1      1557 8.85120E+01 1.09375E+00 0.00000E+00
 -1      1558 8.83740E+01 2.18750E+00 0.00000E+00
 -1      1559 9.30120E+01 1.09375E+00 0.00000E+00
 -1      1560 9.15120E+01 1.09375E+00 0.00000E+00
 -1      1561 9.13740E+01 2.18750E+00 0.00000E+00
 -1      1562 9.60120E+01 1.09375E+00 0.00000E+00
 -1      1563 9.45120E+01 1.09375E+00 0.00000E+00
 -1      1564 9.43740E+01 2.18750E+00 0.00000E+00
 -1      1565 9.90120E+01 1.09375E+00 0.00000E+00
 -1      1566 9.75120E+01 1.09375E+00 0.00000E+00
 -1      1567 9.73740E+01 2.18750E+00 0.00000E+00
 -1      1568 1.02012E+02 1.09375E+00 0.00000E+00
 -1      1569 1.00512E+02 1.09375E+00 0.00000E+00
 -1      1570 1.00374E+02 2.18750E+00 0.00000E+00
 -1      1571 1.05012E+02 1.09375E+00 0.00000E+00
 -1      1572 1.03512E+02 1.09375E+00 0.00000E+00
 -1      1573 1.03374E+02 2.18750E+00 0.00000E+00
 -1      1574 1.08012E+02 1.09375E+00 0.00000E+00
 -1      1575 1.06512E+02 1.09375E+00 0.00000E+00
 -1      1576 1.06374E+02 2.18750E+00 0.00000E+00
 -1      1577 1.11012E+02 1.09375E+00 0.00000E+00
 -1      1578 1.09512E+02 1.09375E+00 0.00000E+00
 -1      1579 1.09374E+02 2.18750E+00 0.00000E+00
 -1      1580 1.14012E+02 1.09375E+00 0.00000E+00
 -1      1581 1.12512E+02 1.09375E+00 0.00000E+00
 -1      1582 1.12374E+02 2.18750E+00 0.00000E+00
 -1      1583 1.17012E+02 1.09375E+00 0.00000E+00
 -1      1584 1.15512E+02 1.09375E+00 0.00000E+00
 -1      1585 1.15374E+02 2.18750E+00 0.00000E+00
 -1      1586 1.20012E+02 1.09375E+00 0.00000E+00
 -1      1587 1.18512E+02 1.09375E+00 0.00000E+00
 -1      1588 1.18374E+02 2.18750E+00 0.00000E+00
 -1      1589 1.23012E+02 1.09375E+00 0.00000E+00
 -1      1590 1.21512E+02 1.09375E+00 0.00000E+00
 -1      1591 1.21374E+02 2.18750E+00 0.00000E+00
 -1      1592 1.26012E+02 1.09375E+00 0.00000E+00
 -1      1593 1.24512E+02 1.09375E+00 0.00000E+00
 -1      1594 1.24374E+02 2.18750E+00 0.00000E+00
 -1      1595 1.29012E+02 1.09375E+00 0.00000E+00
 -1      1596 1.27512E+02 1.09375E+00 0.00000E+00
 -1      1597 1.27374E+02 2.18750E+00 0.00000E+00
 -1      1598 1.32012E+02 1.09375E+00 0.00000E+00
 -1      1599 1.30512E+02 1.09375E+00 0.00000E+00
 -1      1600 1.30374E+02 2.18750E+00 0.00000E+00
 -1      1601 1.35012E+02 1.09375E+00 0.00000E+00
 -1      1602 1.33512E+02 1.09375E+00 0.00000E+00
 -1      1603 1.33374E+02 2.18750E+00 0.00000E+00
 -1      1604 1.38012E+02 1.09375E+00 0.00000E+00
 -1      1605 1.36512E+02 1.09375E+00 0.00000E+00
 -1      1606 1.36374E+02 2.18750E+00 0.00000E+00
 -1      1607 1.41012E+02 1.09375E+00 0.00000E+00
 -1      1608 1.39512E+02 1.09375E+00 0.00000E+00
 -1      1609 1.39374E+02 2.18750E+00 0.00000E+00
 -1      1610 1.44012E+02 1.09375E+00 0.00000E+00
 -1      1611 1.42512E+02 1.09375E+00 0.00000E+00
 -1      1612 1.42374E+02 2.18750E+00 0.00000E+00
 -1      1613 1.47012E+02 1.09375E+00 0.00000E+00
 -1      1614 1.45512E+02 1.09375E+00 0.00000E+00
 -1      1615 1.45374E+02 2.18750E+00 0.00000E+00
 -1      1616 1.48575E+02 1.47500E+00 0.00000E+00
 -1      1617 1.48701E+02 5.16250E+00 0.00000E+00
 -1      1618 1.48701E+02 3.68750E+00 0.00000E+00
 -1      1619 1.48701E+02 8.11250E+00 0.00000E+00
 -1      1620 1.48701E+02 6.63750E+00 0.00000E+00
 -1      1621 1.47402E+02 5.90000E+00 0.00000E+00
 -1      1622 1.48701E+02 1.10625E+01 0.00000E+00
 -1      1623 1.48701E+02 9.58750E+00 0.00000E+00
 -1      1624 1.47402E+02 8.85000E+00 0.00000E+00
 -1      1625 1.48701E+02 1.40125E+01 0.00000E+00
 -1      1626 1.48701E+02 1.25375E+01 0.00000E+00
 -1      1627 1.47402E+02 1.18000E+01 0.00000E+00
 -1      1628 1.48701E+02 1.69125E+01 0.00000E+00
 -1      1629 1.48701E+02 1.54625E+01 0.00000E+00
 -1      1630 1.47402E+02 1.47250E+01 0.00000E+00
 -1      1631 1.48701E+02 1.98625E+01 0.00000E+00
 -1      1632 1.48701E+02 1.83875E+01 0.00000E+00
 -1      1633 1.47402E+02 1.76500E+01 0.00000E+00
 -1      1634 1.48701E+02 2.28125E+01 0.00000E+00
 -1      1635 1.48701E+02 2.13375E+01 0.00000E+00
 -1      1636 1.47402E+02 2.06000E+01 0.00000E+00
 -1      1637 1.48701E+02 2.57625E+01 0.00000E+00
 -1      1638 1.48701E+02 2.42875E+01 0.00000E+00
 -1      1639 1.47402E+02 2.35500E+01 0.00000E+00
 -1      1640 1.48701E+02 2.87125E+01 0.00000E+00
 -1      1641 1.48701E+02 2.72375E+01 0.00000E+00
 -1      1642 1.47402E+02 2.65000E+01 0.00000E+00
 -1      1643 1.48701E+02 3.16625E+01 0.00000E+00
 -1      1644 1.48701E+02 3.01875E+01 0.00000E+00
 -1      1645 1.47402E+02 2.94500E+01 0.00000E+00
 -1      1646 1.48701E+02 3.45625E+01 0.00000E+00
 -1      1647 1.48701E+02 3.31125E+01 0.00000E+00
 -1      1648 1.47402E+02 3.23750E+01 0.00000E+00
 -1      1649 1.48701E+02 3.75125E+01 0.00000E+00
 -1      1650 1.48701E+02 3.60375E+01 0.00000E+00
 -1      1651 1.47402E+02 3.53000E+01 0.00000E+00
 -1      1652 1.48701E+02 4.04625E+01 0.00000E+00
 -1      1653 1.48701E+02 3.89875E+01 0.00000E+00
 -1      1654 1.47402E+02 3.82500E+01 0.00000E+00
 -1      1655 1.48701E+02 4.34125E+01 0.00000E+00
 -1      1656 1.48701E+02 4.19375E+01 0.00000E+00
 -1      1657 1.47402E+02 4.12000E+01 0.00000E+00
 -1      1658 1.48835E+02 4.60790E+01 0.00000E+00
 -1      1659 1.48835E+02 4.46040E+01 0.00000E+00
 -1      1660 1.47536E+02 4.38665E+01 0.00000E+00
 -1      1661 1.47804E+02 4.62496E+01 0.00000E+00
 -1      1662 9.83718E+01 3.47085E+01 0.00000E+00
 -1      1663 9.84582E+01 3.54813E+01 0.00000E+00
 -1      1664 9.79261E+01 3.31091E+01 0.00000E+00
 -1      1665 9.81749E+01 3.38310E+01 0.00000E+00
 -1      1666 9.72644E+01 3.15330E+01 0.00000E+00
 -1      1667 9.76792E+01 3.22034E+01 0.00000E+00
 -1      1668 9.60529E+01 3.03286E+01 0.00000E+00
 -1      1669 9.65917E+01 3.08765E+01 0.00000E+00
 -1      1670 9.46136E+01 2.93397E+01 0.00000E+00
 -1      1671 9.53025E+01 2.97783E+01 0.00000E+00
 -1      1672 9.31323E+01 2.86940E+01 0.00000E+00
 -1      1673 9.38105E+01 2.89391E+01 0.00000E+00
 -1      1674 9.14508E+01 2.82190E+01 0.00000E+00
 -1      1675 9.22727E+01 2.83222E+01 0.00000E+00
 -1      1676 8.97626E+01 2.83179E+01 0.00000E+00
 -1      1677 9.05012E+01 2.82439E+01 0.00000E+00
 -1      1678 8.81675E+01 2.88263E+01 0.00000E+00
 -1      1679 8.88990E+01 2.85869E+01 0.00000E+00
 -1      1680 8.67639E+01 2.95851E+01 0.00000E+00
 -1      1681 8.73861E+01 2.92209E+01 0.00000E+00
 -1      1682 8.55092E+01 3.05507E+01 0.00000E+00
 -1      1683 8.60518E+01 3.00574E+01 0.00000E+00
 -1      1684 8.44373E+01 3.17433E+01 0.00000E+00
 -1      1685 8.48654E+01 3.11476E+01 0.00000E+00
 -1      1686 8.37627E+01 3.32772E+01 0.00000E+00
 -1      1687 8.40693E+01 3.25667E+01 0.00000E+00
 -1      1688 8.34006E+01 3.48463E+01 0.00000E+00
 -1      1689 8.35399E+01 3.41310E+01 0.00000E+00
 -1      1690 8.33385E+01 3.64292E+01 0.00000E+00
 -1      1691 8.33261E+01 3.56965E+01 0.00000E+00
 -1      1692 8.35711E+01 3.80165E+01 0.00000E+00
 -1      1693 8.34033E+01 3.72934E+01 0.00000E+00
 -1      1694 8.42174E+01 3.95047E+01 0.00000E+00
 -1      1695 8.38979E+01 3.88285E+01 0.00000E+00
 -1      1696 8.51337E+01 4.08484E+01 0.00000E+00
 -1      1697 8.46745E+01 4.02520E+01 0.00000E+00
 -1      1698 8.63507E+01 4.19899E+01 0.00000E+00
 -1      1699 8.57537E+01 4.14914E+01 0.00000E+00
 -1      1700 8.77332E+01 4.28185E+01 0.00000E+00
 -1      1701 8.70832E+01 4.24806E+01 0.00000E+00
 -1      1702 8.92906E+01 4.33359E+01 0.00000E+00
 -1      1703 8.85497E+01 4.31351E+01 0.00000E+00
 -1      1704 9.09594E+01 4.35910E+01 0.00000E+00
 -1      1705 9.01797E+01 4.35574E+01 0.00000E+00
 -1      1706 9.25369E+01 4.33339E+01 0.00000E+00
 -1      1707 9.18337E+01 4.34552E+01 0.00000E+00
 -1      1708 9.41242E+01 4.28791E+01 0.00000E+00
 -1      1709 9.34042E+01 4.31701E+01 0.00000E+00
 -1      1710 9.54523E+01 4.19925E+01 0.00000E+00
 -1      1711 9.48619E+01 4.23942E+01 0.00000E+00
 -1      1712 9.66230E+01 4.08966E+01 0.00000E+00
 -1      1713 9.61039E+01 4.14387E+01 0.00000E+00
 -1      1714 9.76680E+01 3.96035E+01 0.00000E+00
 -1      1715 9.72693E+01 4.02589E+01 0.00000E+00
 -1      1716 9.82253E+01 3.80136E+01 0.00000E+00
 -1      1717 9.79790E+01 3.87402E+01 0.00000E+00
 -1      1718 9.85021E+01 3.63820E+01 0.00000E+00
 -1      1719 9.84201E+01 3.71356E+01 0.00000E+00
 -1      1720 9.32625E+01 4.88911E+01 0.00000E+00
 -1      1721 9.39000E+01 4.77822E+01 0.00000E+00
 -1      1722 9.21375E+01 4.88911E+01 0.00000E+00
 -1      1723 9.74571E+01 3.08046E+01 0.00000E+00
 -1      1724 9.90614E+01 3.59282E+01 0.00000E+00
 -1      1725 1.48437E+02 2.56875E+00 0.00000E+00
 -1      1726 1.47138E+02 3.30625E+00 0.00000E+00
 -1      1727 9.88205E+01 3.41500E+01 0.00000E+00
 -1      1728 9.83767E+01 3.23668E+01 0.00000E+00
 -1      1729 9.60340E+01 2.95979E+01 0.00000E+00
 -1      1730 9.44805E+01 2.86470E+01 0.00000E+00
 -1      1731 9.28178E+01 2.78747E+01 0.00000E+00
 -1      1732 9.10086E+01 2.75278E+01 0.00000E+00
 -1      1733 8.91953E+01 2.78216E+01 0.00000E+00
 -1      1734 8.75502E+01 2.84852E+01 0.00000E+00
 -1      1735 8.60566E+01 2.93521E+01 0.00000E+00
 -1      1736 8.47008E+01 3.04214E+01 0.00000E+00
 -1      1737 8.36890E+01 3.18418E+01 0.00000E+00
 -1      1738 8.30981E+01 3.35190E+01 0.00000E+00
 -1      1739 8.28007E+01 3.52230E+01 0.00000E+00
 -1      1740 8.27910E+01 3.69373E+01 0.00000E+00
 -1      1741 8.31827E+01 3.86135E+01 0.00000E+00
 -1      1742 8.39666E+01 4.01728E+01 0.00000E+00
 -1      1743 8.50437E+01 4.15630E+01 0.00000E+00
 -1      1744 8.63961E+01 4.26967E+01 0.00000E+00
 -1      1745 8.79451E+01 4.35040E+01 0.00000E+00
 -1      1746 8.96507E+01 4.40421E+01 0.00000E+00
 -1      1747 9.14141E+01 4.41278E+01 0.00000E+00
 -1      1748 9.31555E+01 4.38281E+01 0.00000E+00
 -1      1749 9.47604E+01 4.31795E+01 0.00000E+00
 -1      1750 9.61497E+01 4.21408E+01 0.00000E+00
 -1      1751 9.74476E+01 4.09493E+01 0.00000E+00
 -1      1752 9.84049E+01 3.94483E+01 0.00000E+00
 -1      1753 9.89107E+01 3.77070E+01 0.00000E+00
 -1      1754 2.79900E+00 4.77875E+01 0.00000E+00
 -1      1755 9.13875E+01 4.75921E+01 0.00000E+00
 -1      1756 3.89700E+00 4.04125E+01 0.00000E+00
 -1      1757 3.89700E+00 4.18875E+01 0.00000E+00
 -1      1758 3.89700E+00 4.33625E+01 0.00000E+00
 -1      1759 3.89700E+00 4.48375E+01 0.00000E+00
 -1      1760 5.19600E+00 4.26250E+01 0.00000E+00
 -1      1761 3.89700E+00 3.45500E+01 0.00000E+00
 -1      1762 3.89700E+00 3.60000E+01 0.00000E+00
 -1      1763 3.89700E+00 3.16000E+01 0.00000E+00
 -1      1764 3.89700E+00 3.30750E+01 0.00000E+00
 -1      1765 5.19600E+00 3.38000E+01 0.00000E+00
 -1      1766 3.89700E+00 2.86500E+01 0.00000E+00
 -1      1767 3.89700E+00 3.01250E+01 0.00000E+00
 -1      1768 5.19600E+00 3.08500E+01 0.00000E+00
 -1      1769 3.89700E+00 2.57000E+01 0.00000E+00
 -1      1770 3.89700E+00 2.71750E+01 0.00000E+00
 -1      1771 5.19600E+00 2.79000E+01 0.00000E+00
 -1      1772 3.89700E+00 2.27500E+01 0.00000E+00
 -1      1773 3.89700E+00 2.42250E+01 0.00000E+00
 -1      1774 5.19600E+00 2.49500E+01 0.00000E+00
 -1      1775 3.89700E+00 1.98000E+01 0.00000E+00
 -1      1776 3.89700E+00 2.12750E+01 0.00000E+00
 -1      1777 5.19600E+00 2.20000E+01 0.00000E+00
 -1      1778 3.89700E+00 1.69000E+01 0.00000E+00
 -1      1779 3.89700E+00 1.83500E+01 0.00000E+00
 -1      1780 5.19600E+00 1.90750E+01 0.00000E+00
 -1      1781 3.89700E+00 1.39500E+01 0.00000E+00
 -1      1782 3.89700E+00 1.54250E+01 0.00000E+00
 -1      1783 5.19600E+00 1.61500E+01 0.00000E+00
 -1      1784 3.89700E+00 1.10000E+01 0.00000E+00
 -1      1785 3.89700E+00 1.24750E+01 0.00000E+00
 -1      1786 5.19600E+00 1.32000E+01 0.00000E+00
 -1      1787 3.89700E+00 8.05000E+00 0.00000E+00
 -1      1788 3.89700E+00 9.52500E+00 0.00000E+00
 -1      1789 5.19600E+00 1.02500E+01 0.00000E+00
 -1      1790 3.89700E+00 5.10000E+00 0.00000E+00
 -1      1791 3.89700E+00 6.57500E+00 0.00000E+00
 -1      1792 5.19600E+00 7.30000E+00 0.00000E+00
 -1      1793 4.20450E+00 3.09687E+00 0.00000E+00
 -1      1794 4.06650E+00 4.19063E+00 0.00000E+00
 -1      1795 5.36550E+00 4.91563E+00 0.00000E+00
 -1      1796 5.70450E+00 3.09687E+00 0.00000E+00
 -1      1797 3.54900E+00 4.64885E+01 0.00000E+00
 -1      1798 8.70450E+00 3.09687E+00 0.00000E+00
 -1      1799 7.20450E+00 3.09687E+00 0.00000E+00
 -1      1800 7.03500E+00 4.00625E+00 0.00000E+00
 -1      1801 9.08102E+01 4.66474E+01 0.00000E+00
 -1      1802 9.21976E+01 4.68375E+01 0.00000E+00
 -1      1803 8.25000E+00 4.61030E+01 0.00000E+00
 -1      1804 9.75000E+00 4.61030E+01 0.00000E+00
 -1      1805 1.12500E+01 4.61030E+01 0.00000E+00
 -1      1806 1.27500E+01 4.61030E+01 0.00000E+00
 -1      1807 1.05000E+01 4.48040E+01 0.00000E+00
 -1      1808 1.42500E+01 4.61030E+01 0.00000E+00
 -1      1809 1.57500E+01 4.61030E+01 0.00000E+00
 -1      1810 1.35000E+01 4.48040E+01 0.00000E+00
 -1      1811 1.72500E+01 4.61030E+01 0.00000E+00
 -1      1812 1.87500E+01 4.61030E+01 0.00000E+00
 -1      1813 1.65000E+01 4.48040E+01 0.00000E+00
 -1      1814 2.02500E+01 4.61030E+01 0.00000E+00
 -1      1815 2.17500E+01 4.61030E+01 0.00000E+00
 -1      1816 1.95000E+01 4.48040E+01 0.00000E+00
 -1      1817 2.32500E+01 4.61030E+01 0.00000E+00
 -1      1818 2.47500E+01 4.61030E+01 0.00000E+00
 -1      1819 2.25000E+01 4.48040E+01 0.00000E+00
 -1      1820 2.62500E+01 4.61030E+01 0.00000E+00
 -1      1821 2.77500E+01 4.61030E+01 0.00000E+00
 -1      1822 2.55000E+01 4.48040E+01 0.00000E+00
 -1      1823 2.92500E+01 4.61030E+01 0.00000E+00
 -1      1824 3.07500E+01 4.61030E+01 0.00000E+00
 -1      1825 2.85000E+01 4.48040E+01 0.00000E+00
 -1      1826 3.22500E+01 4.61030E+01 0.00000E+00
 -1      1827 3.37500E+01 4.61030E+01 0.00000E+00
 -1      1828 3.15000E+01 4.48040E+01 0.00000E+00
 -1      1829 3.52500E+01 4.61030E+01 0.00000E+00
 -1      1830 3.67500E+01 4.61030E+01 0.00000E+00
 -1      1831 3.45000E+01 4.48040E+01 0.00000E+00
 -1      1832 3.82500E+01 4.61030E+01 0.00000E+00
 -1      1833 3.97500E+01 4.61030E+01 0.00000E+00
 -1      1834 3.75000E+01 4.48040E+01 0.00000E+00
 -1      1835 4.12500E+01 4.61030E+01 0.00000E+00
 -1      1836 4.27500E+01 4.61030E+01 0.00000E+00
 -1      1837 4.05000E+01 4.48040E+01 0.00000E+00
 -1      1838 4.42500E+01 4.61030E+01 0.00000E+00
 -1      1839 4.57500E+01 4.61030E+01 0.00000E+00
 -1      1840 4.35000E+01 4.48040E+01 0.00000E+00
 -1      1841 4.72500E+01 4.61030E+01 0.00000E+00
 -1      1842 4.87500E+01 4.61030E+01 0.00000E+00
 -1      1843 4.65000E+01 4.48040E+01 0.00000E+00
 -1      1844 5.02500E+01 4.61030E+01 0.00000E+00
 -1      1845 5.17500E+01 4.61030E+01 0.00000E+00
 -1      1846 4.95000E+01 4.48040E+01 0.00000E+00
 -1      1847 5.32500E+01 4.61030E+01 0.00000E+00
 -1      1848 5.47500E+01 4.61030E+01 0.00000E+00
 -1      1849 5.25000E+01 4.48040E+01 0.00000E+00
 -1      1850 5.62500E+01 4.61030E+01 0.00000E+00
 -1      1851 5.77500E+01 4.61030E+01 0.00000E+00
 -1      1852 5.55000E+01 4.48040E+01 0.00000E+00
 -1      1853 5.92500E+01 4.61030E+01 0.00000E+00
 -1      1854 6.07500E+01 4.61030E+01 0.00000E+00
 -1      1855 5.85000E+01 4.48040E+01 0.00000E+00
 -1      1856 6.22500E+01 4.61030E+01 0.00000E+00
 -1      1857 6.37500E+01 4.61030E+01 0.00000E+00
 -1      1858 6.15000E+01 4.48040E+01 0.00000E+00
 -1      1859 6.52500E+01 4.61030E+01 0.00000E+00
 -1      1860 6.67500E+01 4.61030E+01 0.00000E+00
 -1      1861 6.45000E+01 4.48040E+01 0.00000E+00
 -1      1862 6.82500E+01 4.61030E+01 0.00000E+00
 -1      1863 6.97500E+01 4.61030E+01 0.00000E+00
 -1      1864 6.75000E+01 4.48040E+01 0.00000E+00
 -1      1865 7.12500E+01 4.61030E+01 0.00000E+00
 -1      1866 7.27500E+01 4.61030E+01 0.00000E+00
 -1      1867 7.05000E+01 4.48040E+01 0.00000E+00
 -1      1868 7.42500E+01 4.61030E+01 0.00000E+00
 -1      1869 7.57500E+01 4.61030E+01 0.00000E+00
 -1      1870 7.35000E+01 4.48040E+01 0.00000E+00
 -1      1871 7.72500E+01 4.61030E+01 0.00000E+00
 -1      1872 7.87500E+01 4.61030E+01 0.00000E+00
 -1      1873 7.65000E+01 4.48040E+01 0.00000E+00
 -1      1874 8.01750E+01 4.61030E+01 0.00000E+00
 -1      1875 8.16000E+01 4.61030E+01 0.00000E+00
 -1      1876 7.94250E+01 4.48040E+01 0.00000E+00
 -1      1877 8.30250E+01 4.61030E+01 0.00000E+00
 -1      1878 8.44500E+01 4.61030E+01 0.00000E+00
 -1      1879 8.22750E+01 4.48040E+01 0.00000E+00
 -1      1880 8.82000E+01 4.65444E+01 0.00000E+00
 -1      1881 8.94000E+01 4.65444E+01 0.00000E+00
 -1      1882 9.76320E+01 2.99526E+01 0.00000E+00
 -1      1883 9.83046E+01 3.06091E+01 0.00000E+00
 -1      1884 4.84800E+00 4.57510E+01 0.00000E+00
 -1      1885 9.86250E+01 4.65895E+01 0.00000E+00
 -1      1886 1.00125E+02 4.65895E+01 0.00000E+00
 -1      1887 1.01625E+02 4.65895E+01 0.00000E+00
 -1      1888 1.03125E+02 4.65895E+01 0.00000E+00
 -1      1889 1.00875E+02 4.53968E+01 0.00000E+00
 -1      1890 1.04625E+02 4.65895E+01 0.00000E+00
 -1      1891 1.06125E+02 4.65895E+01 0.00000E+00
 -1      1892 1.03875E+02 4.53968E+01 0.00000E+00
 -1      1893 1.07625E+02 4.65895E+01 0.00000E+00
 -1      1894 1.09125E+02 4.65895E+01 0.00000E+00
 -1      1895 1.06875E+02 4.53968E+01 0.00000E+00
 -1      1896 1.10625E+02 4.65895E+01 0.00000E+00
 -1      1897 1.12125E+02 4.65895E+01 0.00000E+00
 -1      1898 1.09875E+02 4.53968E+01 0.00000E+00
 -1      1899 1.13625E+02 4.65895E+01 0.00000E+00
 -1      1900 1.15125E+02 4.65895E+01 0.00000E+00
 -1      1901 1.12875E+02 4.53968E+01 0.00000E+00
 -1      1902 1.16625E+02 4.65895E+01 0.00000E+00
 -1      1903 1.18125E+02 4.65895E+01 0.00000E+00
 -1      1904 1.15875E+02 4.53968E+01 0.00000E+00
 -1      1905 1.19625E+02 4.65895E+01 0.00000E+00
 -1      1906 1.21125E+02 4.65895E+01 0.00000E+00
 -1      1907 1.18875E+02 4.53968E+01 0.00000E+00
 -1      1908 1.22625E+02 4.65895E+01 0.00000E+00
 -1      1909 1.24125E+02 4.65895E+01 0.00000E+00
 -1      1910 1.21875E+02 4.53968E+01 0.00000E+00
 -1      1911 1.25625E+02 4.65895E+01 0.00000E+00
 -1      1912 1.27125E+02 4.65895E+01 0.00000E+00
 -1      1913 1.24875E+02 4.53968E+01 0.00000E+00
 -1      1914 1.28625E+02 4.65895E+01 0.00000E+00
 -1      1915 1.30125E+02 4.65895E+01 0.00000E+00
 -1      1916 1.27875E+02 4.53968E+01 0.00000E+00
 -1      1917 1.31625E+02 4.65895E+01 0.00000E+00
 -1      1918 1.33125E+02 4.65895E+01 0.00000E+00
 -1      1919 1.30875E+02 4.53968E+01 0.00000E+00
 -1      1920 1.34625E+02 4.65895E+01 0.00000E+00
 -1      1921 1.36125E+02 4.65895E+01 0.00000E+00
 -1      1922 1.33875E+02 4.53968E+01 0.00000E+00
 -1      1923 1.37625E+02 4.65895E+01 0.00000E+00
 -1      1924 1.39125E+02 4.65895E+01 0.00000E+00
 -1      1925 1.36875E+02 4.53968E+01 0.00000E+00
 -1      1926 1.40625E+02 4.65895E+01 0.00000E+00
 -1      1927 1.42125E+02 4.65895E+01 0.00000E+00
 -1      1928 1.39875E+02 4.53968E+01 0.00000E+00
 -1      1929 1.43625E+02 4.65895E+01 0.00000E+00
 -1      1930 1.45125E+02 4.65895E+01 0.00000E+00
 -1      1931 1.42875E+02 4.53968E+01 0.00000E+00
 -1      1932 1.46772E+02 4.64201E+01 0.00000E+00
 -1      1933 1.41240E+01 3.48650E+00 0.00000E+00
 -1      1934 1.26240E+01 3.48650E+00 0.00000E+00
 -1      1935 1.71240E+01 3.48650E+00 0.00000E+00
 -1      1936 1.56240E+01 3.48650E+00 0.00000E+00
 -1      1937 1.48740E+01 4.78550E+00 0.00000E+00
 -1      1938 2.01240E+01 3.48650E+00 0.00000E+00
 -1      1939 1.86240E+01 3.48650E+00 0.00000E+00
 -1      1940 1.78740E+01 4.78550E+00 0.00000E+00
 -1      1941 2.31240E+01 3.48650E+00 0.00000E+00
 -1      1942 2.16240E+01 3.48650E+00 0.00000E+00
 -1      1943 2.08740E+01 4.78550E+00 0.00000E+00
 -1      1944 2.61240E+01 3.48650E+00 0.00000E+00
 -1      1945 2.46240E+01 3.48650E+00 0.00000E+00
 -1      1946 2.38740E+01 4.78550E+00 0.00000E+00
 -1      1947 2.91240E+01 3.48650E+00 0.00000E+00
 -1      1948 2.76240E+01 3.48650E+00 0.00000E+00
 -1      1949 2.68740E+01 4.78550E+00 0.00000E+00
 -1      1950 3.21240E+01 3.48650E+00 0.00000E+00
 -1      1951 3.06240E+01 3.48650E+00 0.00000E+00
 -1      1952 2.98740E+01 4.78550E+00 0.00000E+00
 -1      1953 3.51240E+01 3.48650E+00 0.00000E+00
 -1      1954 3.36240E+01 3.48650E+00 0.00000E+00
 -1      1955 3.28740E+01 4.78550E+00 0.00000E+00
 -1      1956 3.81240E+01 3.48650E+00 0.00000E+00
 -1      1957 3.66240E+01 3.48650E+00 0.00000E+00
 -1      1958 3.58740E+01 4.78550E+00 0.00000E+00
 -1      1959 4.11240E+01 3.48650E+00 0.00000E+00
 -1      1960 3.96240E+01 3.48650E+00 0.00000E+00
 -1      1961 3.88740E+01 4.78550E+00 0.00000E+00
 -1      1962 4.41240E+01 3.48650E+00 0.00000E+00
 -1      1963 4.26240E+01 3.48650E+00 0.00000E+00
 -1      1964 4.18740E+01 4.78550E+00 0.00000E+00
 -1      1965 4.71240E+01 3.48650E+00 0.00000E+00
 -1      1966 4.56240E+01 3.48650E+00 0.00000E+00
 -1      1967 4.48740E+01 4.78550E+00 0.00000E+00
 -1      1968 5.01240E+01 3.48650E+00 0.00000E+00
 -1      1969 4.86240E+01 3.48650E+00 0.00000E+00
 -1      1970 4.78740E+01 4.78550E+00 0.00000E+00
 -1      1971 5.31240E+01 3.48650E+00 0.00000E+00
 -1      1972 5.16240E+01 3.48650E+00 0.00000E+00
 -1      1973 5.08740E+01 4.78550E+00 0.00000E+00
 -1      1974 5.61240E+01 3.48650E+00 0.00000E+00
 -1      1975 5.46240E+01 3.48650E+00 0.00000E+00
 -1      1976 5.38740E+01 4.78550E+00 0.00000E+00
 -1      1977 5.91240E+01 3.48650E+00 0.00000E+00
 -1      1978 5.76240E+01 3.48650E+00 0.00000E+00
 -1      1979 5.68740E+01 4.78550E+00 0.00000E+00
 -1      1980 6.21240E+01 3.48650E+00 0.00000E+00
 -1      1981 6.06240E+01 3.48650E+00 0.00000E+00
 -1      1982 5.98740E+01 4.78550E+00 0.00000E+00
 -1      1983 6.51240E+01 3.48650E+00 0.00000E+00
 -1      1984 6.36240E+01 3.48650E+00 0.00000E+00
 -1      1985 6.28740E+01 4.78550E+00 0.00000E+00
 -1      1986 6.81240E+01 3.48650E+00 0.00000E+00
 -1      1987 6.66240E+01 3.48650E+00 0.00000E+00
 -1      1988 6.58740E+01 4.78550E+00 0.00000E+00
 -1      1989 7.11240E+01 3.48650E+00 0.00000E+00
 -1      1990 6.96240E+01 3.48650E+00 0.00000E+00
 -1      1991 6.88740E+01 4.78550E+00 0.00000E+00
 -1      1992 7.41240E+01 3.48650E+00 0.00000E+00
 -1      1993 7.26240E+01 3.48650E+00 0.00000E+00
 -1      1994 7.18740E+01 4.78550E+00 0.00000E+00
 -1      1995 7.71240E+01 3.48650E+00 0.00000E+00
 -1      1996 7.56240E+01 3.48650E+00 0.00000E+00
 -1      1997 7.48740E+01 4.78550E+00 0.00000E+00
 -1      1998 8.01240E+01 3.48650E+00 0.00000E+00
 -1      1999 7.86240E+01 3.48650E+00 0.00000E+00
 -1      2000 7.78740E+01 4.78550E+00 0.00000E+00
 -1      2001 8.31240E+01 3.48650E+00 0.00000E+00
 -1      2002 8.16240E+01 3.48650E+00 0.00000E+00
 -1      2003 8.08740E+01 4.78550E+00 0.00000E+00
 -1      2004 8.61240E+01 3.48650E+00 0.00000E+00
 -1      2005 8.46240E+01 3.48650E+00 0.00000E+00
 -1      2006 8.38740E+01 4.78550E+00 0.00000E+00
 -1      2007 8.91240E+01 3.48650E+00 0.00000E+00
 -1      2008 8.76240E+01 3.48650E+00 0.00000E+00
 -1      2009 8.68740E+01 4.78550E+00 0.00000E+00
 -1      2010 9.21240E+01 3.48650E+00 0.00000E+00
 -1      2011 9.06240E+01 3.48650E+00 0.00000E+00
 -1      2012 8.98740E+01 4.78550E+00 0.00000E+00
 -1      2013 9.51240E+01 3.48650E+00 0.00000E+00
 -1      2014 9.36240E+01 3.48650E+00 0.00000E+00
 -1      2015 9.28740E+01 4.78550E+00 0.00000E+00
 -1      2016 9.81240E+01 3.48650E+00 0.00000E+00
 -1      2017 9.66240E+01 3.48650E+00 0.00000E+00
 -1      2018 9.58740E+01 4.78550E+00 0.00000E+00
 -1      2019 1.01124E+02 3.48650E+00 0.00000E+00
 -1      2020 9.96240E+01 3.48650E+00 0.00000E+00
 -1      2021 9.88740E+01 4.78550E+00 0.00000E+00
 -1      2022 1.04124E+02 3.48650E+00 0.00000E+00
 -1      2023 1.02624E+02 3.48650E+00 0.00000E+00
 -1      2024 1.01874E+02 4.78550E+00 0.00000E+00
 -1      2025 1.07124E+02 3.48650E+00 0.00000E+00
 -1      2026 1.05624E+02 3.48650E+00 0.00000E+00
 -1      2027 1.04874E+02 4.78550E+00 0.00000E+00
 -1      2028 1.10124E+02 3.48650E+00 0.00000E+00
 -1      2029 1.08624E+02 3.48650E+00 0.00000E+00
 -1      2030 1.07874E+02 4.78550E+00 0.00000E+00
 -1      2031 1.13124E+02 3.48650E+00 0.00000E+00
 -1      2032 1.11624E+02 3.48650E+00 0.00000E+00
 -1      2033 1.10874E+02 4.78550E+00 0.00000E+00
 -1      2034 1.16124E+02 3.48650E+00 0.00000E+00
 -1      2035 1.14624E+02 3.48650E+00 0.00000E+00
 -1      2036 1.13874E+02 4.78550E+00 0.00000E+00
 -1      2037 1.19124E+02 3.48650E+00 0.00000E+00
 -1      2038 1.17624E+02 3.48650E+00 0.00000E+00
 -1      2039 1.16874E+02 4.78550E+00 0.00000E+00
 -1      2040 1.22124E+02 3.48650E+00 0.00000E+00
 -1      2041 1.20624E+02 3.48650E+00 0.00000E+00
 -1      2042 1.19874E+02 4.78550E+00 0.00000E+00
 -1      2043 1.25124E+02 3.48650E+00 0.00000E+00
 -1      2044 1.23624E+02 3.48650E+00 0.00000E+00
 -1      2045 1.22874E+02 4.78550E+00 0.00000E+00
 -1      2046 1.28124E+02 3.48650E+00 0.00000E+00
 -1      2047 1.26624E+02 3.48650E+00 0.00000E+00
 -1      2048 1.25874E+02 4.78550E+00 0.00000E+00
 -1      2049 1.31124E+02 3.48650E+00 0.00000E+00
 -1      2050 1.29624E+02 3.48650E+00 0.00000E+00
 -1      2051 1.28874E+02 4.78550E+00 0.00000E+00
 -1      2052 1.34124E+02 3.48650E+00 0.00000E+00
 -1      2053 1.32624E+02 3.48650E+00 0.00000E+00
 -1      2054 1.31874E+02 4.78550E+00 0.00000E+00
 -1      2055 1.37124E+02 3.48650E+00 0.00000E+00
 -1      2056 1.35624E+02 3.48650E+00 0.00000E+00
 -1      2057 1.34874E+02 4.78550E+00 0.00000E+00
 -1      2058 1.40124E+02 3.48650E+00 0.00000E+00
 -1      2059 1.38624E+02 3.48650E+00 0.00000E+00
 -1      2060 1.37874E+02 4.78550E+00 0.00000E+00
 -1      2061 1.43124E+02 3.48650E+00 0.00000E+00
 -1      2062 1.41624E+02 3.48650E+00 0.00000E+00
 -1      2063 1.40874E+02 4.78550E+00 0.00000E+00
 -1      2064 1.45881E+02 3.39637E+00 0.00000E+00
 -1      2065 1.44381E+02 3.39637E+00 0.00000E+00
 -1      2066 1.43631E+02 4.69537E+00 0.00000E+00
 -1      2067 1.46145E+02 4.51512E+00 0.00000E+00
 -1      2068 1.46103E+02 1.25375E+01 0.00000E+00
 -1      2069 1.46103E+02 1.10625E+01 0.00000E+00
 -1      2070 1.46103E+02 9.58750E+00 0.00000E+00
 -1      2071 1.46103E+02 8.11250E+00 0.00000E+00
 -1      2072 1.44804E+02 1.03250E+01 0.00000E+00
 -1      2073 1.46145E+02 5.99013E+00 0.00000E+00
 -1      2074 1.46103E+02 1.54375E+01 0.00000E+00
 -1      2075 1.46103E+02 1.39875E+01 0.00000E+00
 -1      2076 1.44804E+02 1.32500E+01 0.00000E+00
 -1      2077 1.46103E+02 1.83875E+01 0.00000E+00
 -1      2078 1.46103E+02 1.69125E+01 0.00000E+00
 -1      2079 1.44804E+02 1.61750E+01 0.00000E+00
 -1      2080 1.46103E+02 2.13375E+01 0.00000E+00
 -1      2081 1.46103E+02 1.98625E+01 0.00000E+00
 -1      2082 1.44804E+02 1.91250E+01 0.00000E+00
 -1      2083 1.46103E+02 2.42875E+01 0.00000E+00
 -1      2084 1.46103E+02 2.28125E+01 0.00000E+00
 -1      2085 1.44804E+02 2.20750E+01 0.00000E+00
 -1      2086 1.46103E+02 2.72375E+01 0.00000E+00
 -1      2087 1.46103E+02 2.57625E+01 0.00000E+00
 -1      2088 1.44804E+02 2.50250E+01 0.00000E+00
 -1      2089 1.46103E+02 3.01875E+01 0.00000E+00
 -1      2090 1.46103E+02 2.87125E+01 0.00000E+00
 -1      2091 1.44804E+02 2.79750E+01 0.00000E+00
 -1      2092 1.46103E+02 3.30875E+01 0.00000E+00
 -1      2093 1.46103E+02 3.16375E+01 0.00000E+00
 -1      2094 1.44804E+02 3.09000E+01 0.00000E+00
 -1      2095 1.46103E+02 3.60375E+01 0.00000E+00
 -1      2096 1.46103E+02 3.45625E+01 0.00000E+00
 -1      2097 1.44804E+02 3.38250E+01 0.00000E+00
 -1      2098 1.46103E+02 3.89875E+01 0.00000E+00
 -1      2099 1.46103E+02 3.75125E+01 0.00000E+00
 -1      2100 1.44804E+02 3.67750E+01 0.00000E+00
 -1      2101 1.46103E+02 4.19375E+01 0.00000E+00
 -1      2102 1.46103E+02 4.04625E+01 0.00000E+00
 -1      2103 1.44804E+02 3.97250E+01 0.00000E+00
 -1      2104 1.14143E+01 3.29169E+00 0.00000E+00
 -1      2105 9.91425E+00 3.29169E+00 0.00000E+00
 -1      2106 9.74475E+00 4.20106E+00 0.00000E+00
 -1      2107 1.21643E+01 4.59069E+00 0.00000E+00
 -1      2108 9.89998E+01 3.17104E+01 0.00000E+00
 -1      2109 9.92467E+01 3.26162E+01 0.00000E+00
 -1      2110 9.61411E+01 2.86650E+01 0.00000E+00
 -1      2111 9.68916E+01 2.92153E+01 0.00000E+00
 -1      2112 9.96867E+01 3.54463E+01 0.00000E+00
 -1      2113 9.97307E+01 3.63470E+01 0.00000E+00
 -1      2114 9.33226E+01 4.68375E+01 0.00000E+00
 -1      2115 9.44476E+01 4.68375E+01 0.00000E+00
 -1      2116 9.27453E+01 4.58929E+01 0.00000E+00
 -1      2117 3.89700E+00 3.74688E+01 0.00000E+00
 -1      2118 3.89700E+00 3.89437E+01 0.00000E+00
 -1      2119 5.19600E+00 3.96813E+01 0.00000E+00
 -1      2120 5.19600E+00 3.67438E+01 0.00000E+00
 -1      2121 9.57750E+01 4.65895E+01 0.00000E+00
 -1      2122 9.72000E+01 4.65895E+01 0.00000E+00
 -1      2123 9.79500E+01 4.53968E+01 0.00000E+00
 -1      2124 9.43869E+01 2.78293E+01 0.00000E+00
 -1      2125 9.51900E+01 2.82299E+01 0.00000E+00
 -1      2126 9.26677E+01 2.70857E+01 0.00000E+00
 -1      2127 9.35273E+01 2.74575E+01 0.00000E+00
 -1      2128 9.42369E+01 2.70404E+01 0.00000E+00
 -1      2129 9.05167E+01 2.68923E+01 0.00000E+00
 -1      2130 9.14664E+01 2.68675E+01 0.00000E+00
 -1      2131 8.85334E+01 2.72174E+01 0.00000E+00
 -1      2132 8.93970E+01 2.69484E+01 0.00000E+00
 -1      2133 8.68296E+01 2.80292E+01 0.00000E+00
 -1      2134 8.76110E+01 2.76346E+01 0.00000E+00
 -1      2135 8.53192E+01 2.90133E+01 0.00000E+00
 -1      2136 8.60313E+01 2.85410E+01 0.00000E+00
 -1      2137 8.39098E+01 3.02140E+01 0.00000E+00
 -1      2138 8.45535E+01 2.96170E+01 0.00000E+00
 -1      2139 8.28750E+01 3.19720E+01 0.00000E+00
 -1      2140 8.32431E+01 3.11486E+01 0.00000E+00
 -1      2141 8.22785E+01 3.37611E+01 0.00000E+00
 -1      2142 8.25014E+01 3.29073E+01 0.00000E+00
 -1      2143 8.20761E+01 3.55878E+01 0.00000E+00
 -1      2144 8.21506E+01 3.47377E+01 0.00000E+00
 -1      2145 8.20519E+01 3.74273E+01 0.00000E+00
 -1      2146 8.19870E+01 3.65631E+01 0.00000E+00
 -1      2147 8.27449E+01 3.92615E+01 0.00000E+00
 -1      2148 8.24181E+01 3.84494E+01 0.00000E+00
 -1      2149 8.35351E+01 4.09501E+01 0.00000E+00
 -1      2150 8.30780E+01 4.02029E+01 0.00000E+00
 -1      2151 8.48570E+01 4.23634E+01 0.00000E+00
 -1      2152 8.42370E+01 4.17204E+01 0.00000E+00
 -1      2153 8.63783E+01 4.35153E+01 0.00000E+00
 -1      2154 8.56459E+01 4.30246E+01 0.00000E+00
 -1      2155 8.80887E+01 4.43447E+01 0.00000E+00
 -1      2156 8.72722E+01 4.40281E+01 0.00000E+00
 -1      2157 8.96699E+01 4.49752E+01 0.00000E+00
 -1      2158 8.87808E+01 4.47538E+01 0.00000E+00
 -1      2159 9.19543E+01 4.49424E+01 0.00000E+00
 -1      2160 9.10801E+01 4.50782E+01 0.00000E+00
 -1      2161 9.39465E+01 4.47786E+01 0.00000E+00
 -1      2162 9.30793E+01 4.49424E+01 0.00000E+00
 -1      2163 9.55083E+01 4.35136E+01 0.00000E+00
 -1      2164 9.47706E+01 4.39985E+01 0.00000E+00
 -1      2165 9.69223E+01 4.23896E+01 0.00000E+00
 -1      2166 9.62708E+01 4.29434E+01 0.00000E+00
 -1      2167 9.83142E+01 4.11812E+01 0.00000E+00
 -1      2168 9.76679E+01 4.18189E+01 0.00000E+00
 -1      2169 9.91702E+01 3.92363E+01 0.00000E+00
 -1      2170 9.88592E+01 4.00996E+01 0.00000E+00
 -1      2171 9.97634E+01 3.74355E+01 0.00000E+00
 -1      2172 9.95687E+01 3.83135E+01 0.00000E+00
 -1      2173 9.94436E+01 3.34937E+01 0.00000E+00
 -1      2174 9.96405E+01 3.43712E+01 0.00000E+00
 -1      2175 1.00067E+02 3.28373E+01 0.00000E+00
 -1      2176 1.46022E+02 4.52274E+01 0.00000E+00
 -1      2177 6.34800E+00 4.57510E+01 0.00000E+00
 -1      2178 7.09800E+00 4.44520E+01 0.00000E+00
 -1      2179 9.91746E+01 3.08584E+01 0.00000E+00
 -1      2180 1.00045E+02 3.11078E+01 0.00000E+00
 -1      2181 9.93494E+01 3.00064E+01 0.00000E+00
 -1      2182 9.02102E+01 4.57899E+01 0.00000E+00
 -1      2183 8.46640E+01 4.43236E+01 0.00000E+00
 -1      2184 8.54140E+01 4.56226E+01 0.00000E+00
 -1      2185 9.60476E+01 2.78473E+01 0.00000E+00
 -1      2186 1.44846E+02 6.72762E+00 0.00000E+00
 -1      2187 1.00310E+02 3.47899E+01 0.00000E+00
 -1      2188 1.46130E+02 4.41782E+01 0.00000E+00
 -1      2189 1.45996E+02 4.29867E+01 0.00000E+00
 -1      2190 1.44697E+02 4.22492E+01 0.00000E+00
 -1      2191 1.44482E+02 4.43476E+01 0.00000E+00
 -1      2192 9.77391E+01 2.90197E+01 0.00000E+00
 -1      2193 1.00389E+02 3.69535E+01 0.00000E+00
 -1      2194 9.51976E+01 4.56448E+01 0.00000E+00
 -1      2195 1.00023E+02 3.89648E+01 0.00000E+00
 -1      2196 9.90794E+01 4.09692E+01 0.00000E+00
 -1      2197 9.92997E+01 4.18389E+01 0.00000E+00
 -1      2198 9.98447E+01 4.07573E+01 0.00000E+00
 -1      2199 9.77889E+01 4.26216E+01 0.00000E+00
 -1      2200 9.62809E+01 4.37624E+01 0.00000E+00
 -1      2201 8.81079E+01 4.52778E+01 0.00000E+00
 -1      2202 8.65220E+01 4.43560E+01 0.00000E+00
 -1      2203 8.48392E+01 4.31820E+01 0.00000E+00
 -1      2204 8.33484E+01 4.17506E+01 0.00000E+00
 -1      2205 8.23134E+01 4.00389E+01 0.00000E+00
 -1      2206 8.16141E+01 3.80753E+01 0.00000E+00
 -1      2207 8.13369E+01 3.60778E+01 0.00000E+00
 -1      2208 8.15539E+01 3.41259E+01 0.00000E+00
 -1      2209 8.20555E+01 3.22140E+01 0.00000E+00
 -1      2210 8.30958E+01 3.03441E+01 0.00000E+00
 -1      2211 8.45282E+01 2.88059E+01 0.00000E+00
 -1      2212 8.60921E+01 2.76904E+01 0.00000E+00
 -1      2213 8.78128E+01 2.67614E+01 0.00000E+00
 -1      2214 9.21759E+01 2.64503E+01 0.00000E+00
 -1      2215 9.28855E+01 2.60332E+01 0.00000E+00
 -1      2216 9.16841E+01 2.58149E+01 0.00000E+00
 -1      2217 8.98548E+01 2.62881E+01 0.00000E+00
 -1      2218 6.49500E+00 3.01125E+01 0.00000E+00
 -1      2219 6.49500E+00 3.15875E+01 0.00000E+00
 -1      2220 6.49500E+00 3.30625E+01 0.00000E+00
 -1      2221 6.49500E+00 3.45375E+01 0.00000E+00
 -1      2222 7.79400E+00 3.23250E+01 0.00000E+00
 -1      2223 6.49500E+00 2.42125E+01 0.00000E+00
 -1      2224 6.49500E+00 2.56875E+01 0.00000E+00
 -1      2225 6.49500E+00 2.12625E+01 0.00000E+00
 -1      2226 6.49500E+00 2.27375E+01 0.00000E+00
 -1      2227 7.79400E+00 2.34750E+01 0.00000E+00
 -1      2228 6.49500E+00 1.83625E+01 0.00000E+00
 -1      2229 6.49500E+00 1.98125E+01 0.00000E+00
 -1      2230 7.79400E+00 2.05500E+01 0.00000E+00
 -1      2231 6.49500E+00 1.54125E+01 0.00000E+00
 -1      2232 6.49500E+00 1.68875E+01 0.00000E+00
 -1      2233 7.79400E+00 1.76250E+01 0.00000E+00
 -1      2234 6.49500E+00 1.24625E+01 0.00000E+00
 -1      2235 6.49500E+00 1.39375E+01 0.00000E+00
 -1      2236 7.79400E+00 1.46750E+01 0.00000E+00
 -1      2237 6.49500E+00 9.51250E+00 0.00000E+00
 -1      2238 6.49500E+00 1.09875E+01 0.00000E+00
 -1      2239 7.79400E+00 1.17250E+01 0.00000E+00
 -1      2240 6.49500E+00 6.56250E+00 0.00000E+00
 -1      2241 6.49500E+00 8.03750E+00 0.00000E+00
 -1      2242 7.79400E+00 8.77500E+00 0.00000E+00
 -1      2243 6.84975E+00 4.82969E+00 0.00000E+00
 -1      2244 6.68025E+00 5.73906E+00 0.00000E+00
 -1      2245 7.97925E+00 6.47656E+00 0.00000E+00
 -1      2246 8.34975E+00 4.82969E+00 0.00000E+00
 -1      2247 9.75000E+00 4.35050E+01 0.00000E+00
 -1      2248 1.12500E+01 4.35050E+01 0.00000E+00
 -1      2249 9.59288E+01 2.68499E+01 0.00000E+00
 -1      2250 9.68799E+01 2.72850E+01 0.00000E+00
 -1      2251 1.27500E+01 4.35050E+01 0.00000E+00
 -1      2252 1.42500E+01 4.35050E+01 0.00000E+00
 -1      2253 1.20000E+01 4.22060E+01 0.00000E+00
 -1      2254 1.57500E+01 4.35050E+01 0.00000E+00
 -1      2255 1.72500E+01 4.35050E+01 0.00000E+00
 -1      2256 1.50000E+01 4.22060E+01 0.00000E+00
 -1      2257 1.87500E+01 4.35050E+01 0.00000E+00
 -1      2258 2.02500E+01 4.35050E+01 0.00000E+00
 -1      2259 1.80000E+01 4.22060E+01 0.00000E+00
 -1      2260 2.17500E+01 4.35050E+01 0.00000E+00
 -1      2261 2.32500E+01 4.35050E+01 0.00000E+00
 -1      2262 2.10000E+01 4.22060E+01 0.00000E+00
 -1      2263 2.47500E+01 4.35050E+01 0.00000E+00
 -1      2264 2.62500E+01 4.35050E+01 0.00000E+00
 -1      2265 2.40000E+01 4.22060E+01 0.00000E+00
 -1      2266 2.77500E+01 4.35050E+01 0.00000E+00
 -1      2267 2.92500E+01 4.35050E+01 0.00000E+00
 -1      2268 2.70000E+01 4.22060E+01 0.00000E+00
 -1      2269 3.07500E+01 4.35050E+01 0.00000E+00
 -1      2270 3.22500E+01 4.35050E+01 0.00000E+00
 -1      2271 3.00000E+01 4.22060E+01 0.00000E+00
 -1      2272 3.37500E+01 4.35050E+01 0.00000E+00
 -1      2273 3.52500E+01 4.35050E+01 0.00000E+00
 -1      2274 3.30000E+01 4.22060E+01 0.00000E+00
 -1      2275 3.67500E+01 4.35050E+01 0.00000E+00
 -1      2276 3.82500E+01 4.35050E+01 0.00000E+00
 -1      2277 3.60000E+01 4.22060E+01 0.00000E+00
 -1      2278 3.97500E+01 4.35050E+01 0.00000E+00
 -1      2279 4.12500E+01 4.35050E+01 0.00000E+00
 -1      2280 3.90000E+01 4.22060E+01 0.00000E+00
 -1      2281 4.27500E+01 4.35050E+01 0.00000E+00
 -1      2282 4.42500E+01 4.35050E+01 0.00000E+00
 -1      2283 4.20000E+01 4.22060E+01 0.00000E+00
 -1      2284 4.57500E+01 4.35050E+01 0.00000E+00
 -1      2285 4.72500E+01 4.35050E+01 0.00000E+00
 -1      2286 4.50000E+01 4.22060E+01 0.00000E+00
 -1      2287 4.87500E+01 4.35050E+01 0.00000E+00
 -1      2288 5.02500E+01 4.35050E+01 0.00000E+00
 -1      2289 4.80000E+01 4.22060E+01 0.00000E+00
 -1      2290 5.17500E+01 4.35050E+01 0.00000E+00
 -1      2291 5.32500E+01 4.35050E+01 0.00000E+00
 -1      2292 5.10000E+01 4.22060E+01 0.00000E+00
 -1      2293 5.47500E+01 4.35050E+01 0.00000E+00
 -1      2294 5.62500E+01 4.35050E+01 0.00000E+00
 -1      2295 5.40000E+01 4.22060E+01 0.00000E+00
 -1      2296 5.77500E+01 4.35050E+01 0.00000E+00
 -1      2297 5.92500E+01 4.35050E+01 0.00000E+00
 -1      2298 5.70000E+01 4.22060E+01 0.00000E+00
 -1      2299 6.07500E+01 4.35050E+01 0.00000E+00
 -1      2300 6.22500E+01 4.35050E+01 0.00000E+00
 -1      2301 6.00000E+01 4.22060E+01 0.00000E+00
 -1      2302 6.37500E+01 4.35050E+01 0.00000E+00
 -1      2303 6.52500E+01 4.35050E+01 0.00000E+00
 -1      2304 6.30000E+01 4.22060E+01 0.00000E+00
 -1      2305 6.67500E+01 4.35050E+01 0.00000E+00
 -1      2306 6.82500E+01 4.35050E+01 0.00000E+00
 -1      2307 6.60000E+01 4.22060E+01 0.00000E+00
 -1      2308 6.97500E+01 4.35050E+01 0.00000E+00
 -1      2309 7.12500E+01 4.35050E+01 0.00000E+00
 -1      2310 6.90000E+01 4.22060E+01 0.00000E+00
 -1      2311 7.27500E+01 4.35050E+01 0.00000E+00
 -1      2312 7.42500E+01 4.35050E+01 0.00000E+00
 -1      2313 7.20000E+01 4.22060E+01 0.00000E+00
 -1      2314 7.57500E+01 4.35050E+01 0.00000E+00
 -1      2315 7.72500E+01 4.35050E+01 0.00000E+00
 -1      2316 7.50000E+01 4.22060E+01 0.00000E+00
 -1      2317 7.86750E+01 4.35050E+01 0.00000E+00
 -1      2318 8.01000E+01 4.35050E+01 0.00000E+00
 -1      2319 7.79250E+01 4.22060E+01 0.00000E+00
 -1      2320 8.15625E+01 4.37789E+01 0.00000E+00
 -1      2321 8.29875E+01 4.37789E+01 0.00000E+00
 -1      2322 8.75079E+01 4.61354E+01 0.00000E+00
 -1      2323 8.58000E+01 4.64607E+01 0.00000E+00
 -1      2324 8.70000E+01 4.64607E+01 0.00000E+00
 -1      2325 8.69079E+01 4.51940E+01 0.00000E+00
 -1      2326 8.38752E+01 4.36624E+01 0.00000E+00
 -1      2327 6.52200E+00 4.28890E+01 0.00000E+00
 -1      2328 8.42400E+00 4.32410E+01 0.00000E+00
 -1      2329 9.17400E+00 4.19420E+01 0.00000E+00
 -1      2330 6.52200E+00 4.14140E+01 0.00000E+00
 -1      2331 1.03125E+02 4.42879E+01 0.00000E+00
 -1      2332 1.04625E+02 4.42879E+01 0.00000E+00
 -1      2333 1.06125E+02 4.42041E+01 0.00000E+00
 -1      2334 1.07625E+02 4.42041E+01 0.00000E+00
 -1      2335 1.09125E+02 4.42041E+01 0.00000E+00
 -1      2336 1.10625E+02 4.42041E+01 0.00000E+00
 -1      2337 1.08375E+02 4.30114E+01 0.00000E+00
 -1      2338 1.12125E+02 4.42041E+01 0.00000E+00
 -1      2339 1.13625E+02 4.42041E+01 0.00000E+00
 -1      2340 1.11375E+02 4.30114E+01 0.00000E+00
 -1      2341 1.15125E+02 4.42041E+01 0.00000E+00
 -1      2342 1.16625E+02 4.42041E+01 0.00000E+00
 -1      2343 1.14375E+02 4.30114E+01 0.00000E+00
 -1      2344 1.18125E+02 4.42041E+01 0.00000E+00
 -1      2345 1.19625E+02 4.42041E+01 0.00000E+00
 -1      2346 1.17375E+02 4.30114E+01 0.00000E+00
 -1      2347 1.21125E+02 4.42041E+01 0.00000E+00
 -1      2348 1.22625E+02 4.42041E+01 0.00000E+00
 -1      2349 1.20375E+02 4.30114E+01 0.00000E+00
 -1      2350 1.24125E+02 4.42041E+01 0.00000E+00
 -1      2351 1.25625E+02 4.42041E+01 0.00000E+00
 -1      2352 1.23375E+02 4.30114E+01 0.00000E+00
 -1      2353 1.27125E+02 4.42041E+01 0.00000E+00
 -1      2354 1.28625E+02 4.42041E+01 0.00000E+00
 -1      2355 1.26375E+02 4.30114E+01 0.00000E+00
 -1      2356 1.30125E+02 4.42041E+01 0.00000E+00
 -1      2357 1.31625E+02 4.42041E+01 0.00000E+00
 -1      2358 1.29375E+02 4.30114E+01 0.00000E+00
 -1      2359 1.33125E+02 4.42041E+01 0.00000E+00
 -1      2360 1.34625E+02 4.42041E+01 0.00000E+00
 -1      2361 1.32375E+02 4.30114E+01 0.00000E+00
 -1      2362 1.36125E+02 4.42041E+01 0.00000E+00
 -1      2363 1.37625E+02 4.42041E+01 0.00000E+00
 -1      2364 1.35375E+02 4.30114E+01 0.00000E+00
 -1      2365 1.39125E+02 4.42041E+01 0.00000E+00
 -1      2366 1.40625E+02 4.42041E+01 0.00000E+00
 -1      2367 1.38375E+02 4.30114E+01 0.00000E+00
 -1      2368 1.41804E+02 4.42758E+01 0.00000E+00
 -1      2369 1.43304E+02 4.42758E+01 0.00000E+00
 -1      2370 1.43411E+02 4.32266E+01 0.00000E+00
 -1      2371 1.41054E+02 4.30831E+01 0.00000E+00
 -1      2372 2.16240E+01 6.08450E+00 0.00000E+00
 -1      2373 2.01240E+01 6.08450E+00 0.00000E+00
 -1      2374 1.86240E+01 6.08450E+00 0.00000E+00
 -1      2375 1.71240E+01 6.08450E+00 0.00000E+00
 -1      2376 1.93740E+01 7.38350E+00 0.00000E+00
 -1      2377 1.56240E+01 6.08450E+00 0.00000E+00
 -1      2378 1.41240E+01 6.08450E+00 0.00000E+00
 -1      2379 1.63740E+01 7.38350E+00 0.00000E+00
 -1      2380 2.46240E+01 6.08450E+00 0.00000E+00
 -1      2381 2.31240E+01 6.08450E+00 0.00000E+00
 -1      2382 2.23740E+01 7.38350E+00 0.00000E+00
 -1      2383 2.76240E+01 6.08450E+00 0.00000E+00
 -1      2384 2.61240E+01 6.08450E+00 0.00000E+00
 -1      2385 2.53740E+01 7.38350E+00 0.00000E+00
 -1      2386 3.06240E+01 6.08450E+00 0.00000E+00
 -1      2387 2.91240E+01 6.08450E+00 0.00000E+00
 -1      2388 2.83740E+01 7.38350E+00 0.00000E+00
 -1      2389 3.36240E+01 6.08450E+00 0.00000E+00
 -1      2390 3.21240E+01 6.08450E+00 0.00000E+00
 -1      2391 3.13740E+01 7.38350E+00 0.00000E+00
 -1      2392 3.66240E+01 6.08450E+00 0.00000E+00
 -1      2393 3.51240E+01 6.08450E+00 0.00000E+00
 -1      2394 3.43740E+01 7.38350E+00 0.00000E+00
 -1      2395 3.96240E+01 6.08450E+00 0.00000E+00
 -1      2396 3.81240E+01 6.08450E+00 0.00000E+00
 -1      2397 3.73740E+01 7.38350E+00 0.00000E+00
 -1      2398 4.26240E+01 6.08450E+00 0.00000E+00
 -1      2399 4.11240E+01 6.08450E+00 0.00000E+00
 -1      2400 4.03740E+01 7.38350E+00 0.00000E+00
 -1      2401 4.56240E+01 6.08450E+00 0.00000E+00
 -1      2402 4.41240E+01 6.08450E+00 0.00000E+00
 -1      2403 4.33740E+01 7.38350E+00 0.00000E+00
 -1      2404 4.86240E+01 6.08450E+00 0.00000E+00
 -1      2405 4.71240E+01 6.08450E+00 0.00000E+00
 -1      2406 4.63740E+01 7.38350E+00 0.00000E+00
 -1      2407 5.16240E+01 6.08450E+00 0.00000E+00
 -1      2408 5.01240E+01 6.08450E+00 0.00000E+00
 -1      2409 4.93740E+01 7.38350E+00 0.00000E+00
 -1      2410 5.46240E+01 6.08450E+00 0.00000E+00
 -1      2411 5.31240E+01 6.08450E+00 0.00000E+00
 -1      2412 5.23740E+01 7.38350E+00 0.00000E+00
 -1      2413 5.76240E+01 6.08450E+00 0.00000E+00
 -1      2414 5.61240E+01 6.08450E+00 0.00000E+00
 -1      2415 5.53740E+01 7.38350E+00 0.00000E+00
 -1      2416 6.06240E+01 6.08450E+00 0.00000E+00
 -1      2417 5.91240E+01 6.08450E+00 0.00000E+00
 -1      2418 5.83740E+01 7.38350E+00 0.00000E+00
 -1      2419 6.36240E+01 6.08450E+00 0.00000E+00
 -1      2420 6.21240E+01 6.08450E+00 0.00000E+00
 -1      2421 6.13740E+01 7.38350E+00 0.00000E+00
 -1      2422 6.66240E+01 6.08450E+00 0.00000E+00
 -1      2423 6.51240E+01 6.08450E+00 0.00000E+00
 -1      2424 6.43740E+01 7.38350E+00 0.00000E+00
 -1      2425 6.96240E+01 6.08450E+00 0.00000E+00
 -1      2426 6.81240E+01 6.08450E+00 0.00000E+00
 -1      2427 6.73740E+01 7.38350E+00 0.00000E+00
 -1      2428 7.26240E+01 6.08450E+00 0.00000E+00
 -1      2429 7.11240E+01 6.08450E+00 0.00000E+00
 -1      2430 7.03740E+01 7.38350E+00 0.00000E+00
 -1      2431 7.56240E+01 6.08450E+00 0.00000E+00
 -1      2432 7.41240E+01 6.08450E+00 0.00000E+00
 -1      2433 7.33740E+01 7.38350E+00 0.00000E+00
 -1      2434 7.86240E+01 6.08450E+00 0.00000E+00
 -1      2435 7.71240E+01 6.08450E+00 0.00000E+00
 -1      2436 7.63740E+01 7.38350E+00 0.00000E+00
 -1      2437 8.16240E+01 6.08450E+00 0.00000E+00
 -1      2438 8.01240E+01 6.08450E+00 0.00000E+00
 -1      2439 7.93740E+01 7.38350E+00 0.00000E+00
 -1      2440 8.46240E+01 6.08450E+00 0.00000E+00
 -1      2441 8.31240E+01 6.08450E+00 0.00000E+00
 -1      2442 8.23740E+01 7.38350E+00 0.00000E+00
 -1      2443 8.76240E+01 6.08450E+00 0.00000E+00
 -1      2444 8.61240E+01 6.08450E+00 0.00000E+00
 -1      2445 8.53740E+01 7.38350E+00 0.00000E+00
 -1      2446 9.06240E+01 6.08450E+00 0.00000E+00
 -1      2447 8.91240E+01 6.08450E+00 0.00000E+00
 -1      2448 8.83740E+01 7.38350E+00 0.00000E+00
 -1      2449 9.36240E+01 6.08450E+00 0.00000E+00
 -1      2450 9.21240E+01 6.08450E+00 0.00000E+00
 -1      2451 9.13740E+01 7.38350E+00 0.00000E+00
 -1      2452 9.66240E+01 6.08450E+00 0.00000E+00
 -1      2453 9.51240E+01 6.08450E+00 0.00000E+00
 -1      2454 9.43740E+01 7.38350E+00 0.00000E+00
 -1      2455 9.96240E+01 6.08450E+00 0.00000E+00
 -1      2456 9.81240E+01 6.08450E+00 0.00000E+00
 -1      2457 9.73740E+01 7.38350E+00 0.00000E+00
 -1      2458 1.02624E+02 6.08450E+00 0.00000E+00
 -1      2459 1.01124E+02 6.08450E+00 0.00000E+00
 -1      2460 1.00374E+02 7.38350E+00 0.00000E+00
 -1      2461 1.05624E+02 6.08450E+00 0.00000E+00
 -1      2462 1.04124E+02 6.08450E+00 0.00000E+00
 -1      2463 1.03374E+02 7.38350E+00 0.00000E+00
 -1      2464 1.08624E+02 6.08450E+00 0.00000E+00
 -1      2465 1.07124E+02 6.08450E+00 0.00000E+00
 -1      2466 1.06374E+02 7.38350E+00 0.00000E+00
 -1      2467 1.11624E+02 6.08450E+00 0.00000E+00
 -1      2468 1.10124E+02 6.08450E+00 0.00000E+00
 -1      2469 1.09374E+02 7.38350E+00 0.00000E+00
 -1      2470 1.14624E+02 6.08450E+00 0.00000E+00
 -1      2471 1.13124E+02 6.08450E+00 0.00000E+00
 -1      2472 1.12374E+02 7.38350E+00 0.00000E+00
 -1      2473 1.17624E+02 6.08450E+00 0.00000E+00
 -1      2474 1.16124E+02 6.08450E+00 0.00000E+00
 -1      2475 1.15374E+02 7.38350E+00 0.00000E+00
 -1      2476 1.20624E+02 6.08450E+00 0.00000E+00
 -1      2477 1.19124E+02 6.08450E+00 0.00000E+00
 -1      2478 1.18374E+02 7.38350E+00 0.00000E+00
 -1      2479 1.23624E+02 6.08450E+00 0.00000E+00
 -1      2480 1.22124E+02 6.08450E+00 0.00000E+00
 -1      2481 1.21374E+02 7.38350E+00 0.00000E+00
 -1      2482 1.26624E+02 6.08450E+00 0.00000E+00
 -1      2483 1.25124E+02 6.08450E+00 0.00000E+00
 -1      2484 1.24374E+02 7.38350E+00 0.00000E+00
 -1      2485 1.29624E+02 6.08450E+00 0.00000E+00
 -1      2486 1.28124E+02 6.08450E+00 0.00000E+00
 -1      2487 1.27374E+02 7.38350E+00 0.00000E+00
 -1      2488 1.32624E+02 6.08450E+00 0.00000E+00
 -1      2489 1.31124E+02 6.08450E+00 0.00000E+00
 -1      2490 1.30374E+02 7.38350E+00 0.00000E+00
 -1      2491 1.35624E+02 6.08450E+00 0.00000E+00
 -1      2492 1.34124E+02 6.08450E+00 0.00000E+00
 -1      2493 1.33374E+02 7.38350E+00 0.00000E+00
 -1      2494 1.38624E+02 6.08450E+00 0.00000E+00
 -1      2495 1.37124E+02 6.08450E+00 0.00000E+00
 -1      2496 1.36374E+02 7.38350E+00 0.00000E+00
 -1      2497 1.41624E+02 6.08450E+00 0.00000E+00
 -1      2498 1.40124E+02 6.08450E+00 0.00000E+00
 -1      2499 1.39374E+02 7.38350E+00 0.00000E+00
 -1      2500 1.43589E+02 6.81775E+00 0.00000E+00
 -1      2501 1.43505E+02 1.69125E+01 0.00000E+00
 -1      2502 1.43505E+02 1.54375E+01 0.00000E+00
 -1      2503 1.43505E+02 1.39875E+01 0.00000E+00
 -1      2504 1.43505E+02 1.25375E+01 0.00000E+00
 -1      2505 1.42206E+02 1.47250E+01 0.00000E+00
 -1      2506 1.43505E+02 1.10625E+01 0.00000E+00
 -1      2507 1.43505E+02 9.58750E+00 0.00000E+00
 -1      2508 1.42206E+02 1.18000E+01 0.00000E+00
 -1      2509 1.01143E+02 3.42155E+01 0.00000E+00
 -1      2510 1.01190E+02 3.52906E+01 0.00000E+00
 -1      2511 1.43505E+02 1.98625E+01 0.00000E+00
 -1      2512 1.43505E+02 1.83875E+01 0.00000E+00
 -1      2513 1.42206E+02 1.76500E+01 0.00000E+00
 -1      2514 1.43505E+02 2.28125E+01 0.00000E+00
 -1      2515 1.43505E+02 2.13375E+01 0.00000E+00
 -1      2516 1.42206E+02 2.06000E+01 0.00000E+00
 -1      2517 1.43505E+02 2.57625E+01 0.00000E+00
 -1      2518 1.43505E+02 2.42875E+01 0.00000E+00
 -1      2519 1.42206E+02 2.35500E+01 0.00000E+00
 -1      2520 1.43505E+02 2.87125E+01 0.00000E+00
 -1      2521 1.43505E+02 2.72375E+01 0.00000E+00
 -1      2522 1.42206E+02 2.65000E+01 0.00000E+00
 -1      2523 1.43505E+02 3.16125E+01 0.00000E+00
 -1      2524 1.43505E+02 3.01625E+01 0.00000E+00
 -1      2525 1.42206E+02 2.94250E+01 0.00000E+00
 -1      2526 1.43505E+02 3.45625E+01 0.00000E+00
 -1      2527 1.43505E+02 3.30875E+01 0.00000E+00
 -1      2528 1.42206E+02 3.23500E+01 0.00000E+00
 -1      2529 1.43505E+02 3.75125E+01 0.00000E+00
 -1      2530 1.43505E+02 3.60375E+01 0.00000E+00
 -1      2531 1.42206E+02 3.53000E+01 0.00000E+00
 -1      2532 1.43505E+02 4.04625E+01 0.00000E+00
 -1      2533 1.43505E+02 3.89875E+01 0.00000E+00
 -1      2534 1.42206E+02 3.82500E+01 0.00000E+00
 -1      2535 9.79149E+01 2.81028E+01 0.00000E+00
 -1      2536 9.86553E+01 2.88401E+01 0.00000E+00
 -1      2537 1.00968E+02 3.21741E+01 0.00000E+00
 -1      2538 1.01165E+02 3.30516E+01 0.00000E+00
 -1      2539 9.46943E+01 4.51127E+01 0.00000E+00
 -1      2540 1.00125E+02 4.42879E+01 0.00000E+00
 -1      2541 1.01625E+02 4.42879E+01 0.00000E+00
 -1      2542 1.01230E+02 3.63835E+01 0.00000E+00
 -1      2543 1.01262E+02 3.74720E+01 0.00000E+00
 -1      2544 6.49500E+00 2.71625E+01 0.00000E+00
 -1      2545 6.49500E+00 2.86375E+01 0.00000E+00
 -1      2546 7.79400E+00 2.93750E+01 0.00000E+00
 -1      2547 7.79400E+00 2.64250E+01 0.00000E+00
 -1      2548 8.92584E+01 2.55851E+01 0.00000E+00
 -1      2549 9.03781E+01 2.55291E+01 0.00000E+00
 -1      2550 9.42096E+01 2.61063E+01 0.00000E+00
 -1      2551 9.50692E+01 2.64781E+01 0.00000E+00
 -1      2552 9.59015E+01 2.59158E+01 0.00000E+00
 -1      2553 8.69981E+01 2.61886E+01 0.00000E+00
 -1      2554 8.79205E+01 2.57714E+01 0.00000E+00
 -1      2555 8.51849E+01 2.71538E+01 0.00000E+00
 -1      2556 8.59832E+01 2.66420E+01 0.00000E+00
 -1      2557 8.36536E+01 2.83612E+01 0.00000E+00
 -1      2558 8.44193E+01 2.77575E+01 0.00000E+00
 -1      2559 8.43103E+01 2.67091E+01 0.00000E+00
 -1      2560 8.20643E+01 3.03134E+01 0.00000E+00
 -1      2561 8.27310E+01 2.93788E+01 0.00000E+00
 -1      2562 8.11890E+01 3.24102E+01 0.00000E+00
 -1      2563 8.15626E+01 3.14748E+01 0.00000E+00
 -1      2564 8.08058E+01 3.45246E+01 0.00000E+00
 -1      2565 8.09337E+01 3.35480E+01 0.00000E+00
 -1      2566 8.06277E+01 3.64753E+01 0.00000E+00
 -1      2567 8.07167E+01 3.54999E+01 0.00000E+00
 -1      2568 8.00965E+01 3.49220E+01 0.00000E+00
 -1      2569 8.11476E+01 3.88191E+01 0.00000E+00
 -1      2570 8.07814E+01 3.77969E+01 0.00000E+00
 -1      2571 8.17505E+01 4.07677E+01 0.00000E+00
 -1      2572 8.14174E+01 3.98263E+01 0.00000E+00
 -1      2573 8.31627E+01 4.26373E+01 0.00000E+00
 -1      2574 8.24608E+01 4.18670E+01 0.00000E+00
 -1      2575 9.86320E+01 4.29507E+01 0.00000E+00
 -1      2576 9.78865E+01 4.35213E+01 0.00000E+00
 -1      2577 1.00894E+02 3.87936E+01 0.00000E+00
 -1      2578 1.00496E+02 3.97164E+01 0.00000E+00
 -1      2579 1.42839E+02 8.11675E+00 0.00000E+00
 -1      2580 9.60217E+01 4.48647E+01 0.00000E+00
 -1      2581 9.67842E+01 4.42945E+01 0.00000E+00
 -1      2582 9.76273E+01 4.46236E+01 0.00000E+00
 -1      2583 7.79400E+00 3.52687E+01 0.00000E+00
 -1      2584 6.49500E+00 3.60062E+01 0.00000E+00
 -1      2585 6.49500E+00 3.74750E+01 0.00000E+00
 -1      2586 1.02375E+02 4.31790E+01 0.00000E+00
 -1      2587 9.55950E+00 5.02450E+00 0.00000E+00
 -1      2588 9.37425E+00 5.84794E+00 0.00000E+00
 -1      2589 1.07692E+01 5.21931E+00 0.00000E+00
 -1      2590 8.84438E+01 2.50124E+01 0.00000E+00
 -1      2591 1.01143E+02 3.13221E+01 0.00000E+00
 -1      2592 6.50850E+00 3.87101E+01 0.00000E+00
 -1      2593 6.50850E+00 4.01789E+01 0.00000E+00
 -1      2594 7.83450E+00 4.04429E+01 0.00000E+00
 -1      2595 7.80750E+00 3.79726E+01 0.00000E+00
 -1      2596 9.77961E+01 2.71054E+01 0.00000E+00
 -1      2597 9.90523E+01 4.46236E+01 0.00000E+00
 -1      2598 8.08125E+01 4.24799E+01 0.00000E+00
 -1      2599 8.60140E+01 4.46812E+01 0.00000E+00
 -1      2600 1.05375E+02 4.30952E+01 0.00000E+00
 -1      2601 1.02063E+02 3.58091E+01 0.00000E+00
 -1      2602 1.02045E+02 3.35523E+01 0.00000E+00
 -1      2603 9.97011E+01 2.81725E+01 0.00000E+00
 -1      2604 9.95252E+01 2.90895E+01 0.00000E+00
 -1      2605 1.00395E+02 2.93388E+01 0.00000E+00
 -1      2606 9.98023E+01 4.35147E+01 0.00000E+00
 -1      2607 1.30515E+01 5.74931E+00 0.00000E+00
 -1      2608 1.18418E+01 5.55450E+00 0.00000E+00
 -1      2609 1.16565E+01 6.37794E+00 0.00000E+00
 -1      2610 1.38015E+01 7.04831E+00 0.00000E+00
 -1      2611 1.41540E+02 8.85425E+00 0.00000E+00
 -1      2612 1.00716E+02 4.05860E+01 0.00000E+00
 -1      2613 9.97047E+01 4.26149E+01 0.00000E+00
 -1      2614 8.15647E+01 4.16544E+01 0.00000E+00
 -1      2615 8.01612E+01 3.72190E+01 0.00000E+00
 -1      2616 7.95410E+01 3.66412E+01 0.00000E+00
 -1      2617 7.96947E+01 3.79628E+01 0.00000E+00
 -1      2618 8.04409E+01 3.28088E+01 0.00000E+00
 -1      2619 8.26221E+01 2.83305E+01 0.00000E+00
 -1      2620 9.10877E+01 2.51119E+01 0.00000E+00
 -1      2621 9.17972E+01 2.46948E+01 0.00000E+00
 -1      2622 9.04912E+01 2.44090E+01 0.00000E+00
 -1      2623 1.01735E+02 3.82236E+01 0.00000E+00
 -1      2624 1.02208E+02 3.89752E+01 0.00000E+00
 -1      2625 1.02576E+02 3.76536E+01 0.00000E+00
 -1      2626 9.37178E+01 2.54709E+01 0.00000E+00
 -1      2627 9.45500E+01 2.49086E+01 0.00000E+00
 -1      2628 9.32259E+01 2.48355E+01 0.00000E+00
 -1      2629 8.60909E+01 2.56521E+01 0.00000E+00
 -1      2630 8.11979E+01 3.05095E+01 0.00000E+00
 -1      2631 8.05847E+01 3.95479E+01 0.00000E+00
 -1      2632 1.43518E+02 4.21774E+01 0.00000E+00
 -1      2633 1.42219E+02 4.14399E+01 0.00000E+00
 -1      2634 9.09300E+00 1.98250E+01 0.00000E+00
 -1      2635 9.09300E+00 2.12750E+01 0.00000E+00
 -1      2636 9.09300E+00 2.27500E+01 0.00000E+00
 -1      2637 9.09300E+00 2.42250E+01 0.00000E+00
 -1      2638 1.03920E+01 2.20250E+01 0.00000E+00
 -1      2639 9.09300E+00 1.39375E+01 0.00000E+00
 -1      2640 9.09300E+00 1.54125E+01 0.00000E+00
 -1      2641 9.09300E+00 1.09875E+01 0.00000E+00
 -1      2642 9.09300E+00 1.24625E+01 0.00000E+00
 -1      2643 1.03920E+01 1.32000E+01 0.00000E+00
 -1      2644 9.18900E+00 6.67137E+00 0.00000E+00
 -1      2645 9.00375E+00 7.49481E+00 0.00000E+00
 -1      2646 1.03988E+01 6.86619E+00 0.00000E+00
 -1      2647 1.42500E+01 4.09070E+01 0.00000E+00
 -1      2648 1.57500E+01 4.09070E+01 0.00000E+00
 -1      2649 1.72500E+01 4.09070E+01 0.00000E+00
 -1      2650 1.87500E+01 4.09070E+01 0.00000E+00
 -1      2651 1.65000E+01 3.96080E+01 0.00000E+00
 -1      2652 2.02500E+01 4.09070E+01 0.00000E+00
 -1      2653 2.17500E+01 4.09070E+01 0.00000E+00
 -1      2654 1.95000E+01 3.96080E+01 0.00000E+00
 -1      2655 2.32500E+01 4.09070E+01 0.00000E+00
 -1      2656 2.47500E+01 4.09070E+01 0.00000E+00
 -1      2657 2.25000E+01 3.96080E+01 0.00000E+00
 -1      2658 2.62500E+01 4.09070E+01 0.00000E+00
 -1      2659 2.77500E+01 4.09070E+01 0.00000E+00
 -1      2660 2.55000E+01 3.96080E+01 0.00000E+00
 -1      2661 2.92500E+01 4.09070E+01 0.00000E+00
 -1      2662 3.07500E+01 4.09070E+01 0.00000E+00
 -1      2663 2.85000E+01 3.96080E+01 0.00000E+00
 -1      2664 3.22500E+01 4.09070E+01 0.00000E+00
 -1      2665 3.37500E+01 4.09070E+01 0.00000E+00
 -1      2666 3.15000E+01 3.96080E+01 0.00000E+00
 -1      2667 3.52500E+01 4.09070E+01 0.00000E+00
 -1      2668 3.67500E+01 4.09070E+01 0.00000E+00
 -1      2669 3.45000E+01 3.96080E+01 0.00000E+00
 -1      2670 3.82500E+01 4.09070E+01 0.00000E+00
 -1      2671 3.97500E+01 4.09070E+01 0.00000E+00
 -1      2672 3.75000E+01 3.96080E+01 0.00000E+00
 -1      2673 4.12500E+01 4.09070E+01 0.00000E+00
 -1      2674 4.27500E+01 4.09070E+01 0.00000E+00
 -1      2675 4.05000E+01 3.96080E+01 0.00000E+00
 -1      2676 4.42500E+01 4.09070E+01 0.00000E+00
 -1      2677 4.57500E+01 4.09070E+01 0.00000E+00
 -1      2678 4.35000E+01 3.96080E+01 0.00000E+00
 -1      2679 4.72500E+01 4.09070E+01 0.00000E+00
 -1      2680 4.87500E+01 4.09070E+01 0.00000E+00
 -1      2681 4.65000E+01 3.96080E+01 0.00000E+00
 -1      2682 5.02500E+01 4.09070E+01 0.00000E+00
 -1      2683 5.17500E+01 4.09070E+01 0.00000E+00
 -1      2684 4.95000E+01 3.96080E+01 0.00000E+00
 -1      2685 5.32500E+01 4.09070E+01 0.00000E+00
 -1      2686 5.47500E+01 4.09070E+01 0.00000E+00
 -1      2687 5.25000E+01 3.96080E+01 0.00000E+00
 -1      2688 5.62500E+01 4.09070E+01 0.00000E+00
 -1      2689 5.77500E+01 4.09070E+01 0.00000E+00
 -1      2690 5.55000E+01 3.96080E+01 0.00000E+00
 -1      2691 5.92500E+01 4.09070E+01 0.00000E+00
 -1      2692 6.07500E+01 4.09070E+01 0.00000E+00
 -1      2693 5.85000E+01 3.96080E+01 0.00000E+00
 -1      2694 6.22500E+01 4.09070E+01 0.00000E+00
 -1      2695 6.37500E+01 4.09070E+01 0.00000E+00
 -1      2696 6.15000E+01 3.96080E+01 0.00000E+00
 -1      2697 6.52500E+01 4.09070E+01 0.00000E+00
 -1      2698 6.67500E+01 4.09070E+01 0.00000E+00
 -1      2699 6.45000E+01 3.96080E+01 0.00000E+00
 -1      2700 6.82500E+01 4.09070E+01 0.00000E+00
 -1      2701 6.97500E+01 4.09070E+01 0.00000E+00
 -1      2702 6.75000E+01 3.96080E+01 0.00000E+00
 -1      2703 7.12500E+01 4.09070E+01 0.00000E+00
 -1      2704 7.27500E+01 4.09070E+01 0.00000E+00
 -1      2705 7.05000E+01 3.96080E+01 0.00000E+00
 -1      2706 7.42500E+01 4.09070E+01 0.00000E+00
 -1      2707 7.57500E+01 4.09070E+01 0.00000E+00
 -1      2708 7.35000E+01 3.96080E+01 0.00000E+00
 -1      2709 7.72125E+01 4.11809E+01 0.00000E+00
 -1      2710 7.86375E+01 4.11809E+01 0.00000E+00
 -1      2711 1.07625E+02 4.18187E+01 0.00000E+00
 -1      2712 1.09125E+02 4.18187E+01 0.00000E+00
 -1      2713 1.41040E+02 4.13682E+01 0.00000E+00
 -1      2714 1.40706E+02 1.03250E+01 0.00000E+00
 -1      2715 1.40040E+02 8.85425E+00 0.00000E+00
 -1      2716 1.38540E+02 8.85425E+00 0.00000E+00
 -1      2717 1.10625E+02 4.18187E+01 0.00000E+00
 -1      2718 1.12125E+02 4.18187E+01 0.00000E+00
 -1      2719 1.09875E+02 4.06260E+01 0.00000E+00
 -1      2720 1.13625E+02 4.18187E+01 0.00000E+00
 -1      2721 1.15125E+02 4.18187E+01 0.00000E+00
 -1      2722 1.12875E+02 4.06260E+01 0.00000E+00
 -1      2723 1.16625E+02 4.18187E+01 0.00000E+00
 -1      2724 1.18125E+02 4.18187E+01 0.00000E+00
 -1      2725 1.15875E+02 4.06260E+01 0.00000E+00
 -1      2726 1.19625E+02 4.18187E+01 0.00000E+00
 -1      2727 1.21125E+02 4.18187E+01 0.00000E+00
 -1      2728 1.18875E+02 4.06260E+01 0.00000E+00
 -1      2729 1.22625E+02 4.18187E+01 0.00000E+00
 -1      2730 1.24125E+02 4.18187E+01 0.00000E+00
 -1      2731 1.21875E+02 4.06260E+01 0.00000E+00
 -1      2732 1.25625E+02 4.18187E+01 0.00000E+00
 -1      2733 1.27125E+02 4.18187E+01 0.00000E+00
 -1      2734 1.24875E+02 4.06260E+01 0.00000E+00
 -1      2735 1.28625E+02 4.18187E+01 0.00000E+00
 -1      2736 1.30125E+02 4.18187E+01 0.00000E+00
 -1      2737 1.27875E+02 4.06260E+01 0.00000E+00
 -1      2738 1.31625E+02 4.18187E+01 0.00000E+00
 -1      2739 1.33125E+02 4.18187E+01 0.00000E+00
 -1      2740 1.30875E+02 4.06260E+01 0.00000E+00
 -1      2741 1.34625E+02 4.18187E+01 0.00000E+00
 -1      2742 1.36125E+02 4.18187E+01 0.00000E+00
 -1      2743 1.33875E+02 4.06260E+01 0.00000E+00
 -1      2744 1.37625E+02 4.18187E+01 0.00000E+00
 -1      2745 1.39125E+02 4.18187E+01 0.00000E+00
 -1      2746 1.36875E+02 4.06260E+01 0.00000E+00
 -1      2747 2.01240E+01 8.68250E+00 0.00000E+00
 -1      2748 1.86240E+01 8.68250E+00 0.00000E+00
 -1      2749 2.31240E+01 8.68250E+00 0.00000E+00
 -1      2750 2.16240E+01 8.68250E+00 0.00000E+00
 -1      2751 2.08740E+01 9.98150E+00 0.00000E+00
 -1      2752 1.71240E+01 8.68250E+00 0.00000E+00
 -1      2753 1.56240E+01 8.68250E+00 0.00000E+00
 -1      2754 1.78740E+01 9.98150E+00 0.00000E+00
 -1      2755 2.91240E+01 8.68250E+00 0.00000E+00
 -1      2756 2.76240E+01 8.68250E+00 0.00000E+00
 -1      2757 3.21240E+01 8.68250E+00 0.00000E+00
 -1      2758 3.06240E+01 8.68250E+00 0.00000E+00
 -1      2759 2.98740E+01 9.98150E+00 0.00000E+00
 -1      2760 3.51240E+01 8.68250E+00 0.00000E+00
 -1      2761 3.36240E+01 8.68250E+00 0.00000E+00
 -1      2762 3.28740E+01 9.98150E+00 0.00000E+00
 -1      2763 3.81240E+01 8.68250E+00 0.00000E+00
 -1      2764 3.66240E+01 8.68250E+00 0.00000E+00
 -1      2765 3.58740E+01 9.98150E+00 0.00000E+00
 -1      2766 4.11240E+01 8.68250E+00 0.00000E+00
 -1      2767 3.96240E+01 8.68250E+00 0.00000E+00
 -1      2768 3.88740E+01 9.98150E+00 0.00000E+00
 -1      2769 4.41240E+01 8.68250E+00 0.00000E+00
 -1      2770 4.26240E+01 8.68250E+00 0.00000E+00
 -1      2771 4.18740E+01 9.98150E+00 0.00000E+00
 -1      2772 4.71240E+01 8.68250E+00 0.00000E+00
 -1      2773 4.56240E+01 8.68250E+00 0.00000E+00
 -1      2774 4.48740E+01 9.98150E+00 0.00000E+00
 -1      2775 5.01240E+01 8.68250E+00 0.00000E+00
 -1      2776 4.86240E+01 8.68250E+00 0.00000E+00
 -1      2777 4.78740E+01 9.98150E+00 0.00000E+00
 -1      2778 5.31240E+01 8.68250E+00 0.00000E+00
 -1      2779 5.16240E+01 8.68250E+00 0.00000E+00
 -1      2780 5.08740E+01 9.98150E+00 0.00000E+00
 -1      2781 5.61240E+01 8.68250E+00 0.00000E+00
 -1      2782 5.46240E+01 8.68250E+00 0.00000E+00
 -1      2783 5.38740E+01 9.98150E+00 0.00000E+00
 -1      2784 5.91240E+01 8.68250E+00 0.00000E+00
 -1      2785 5.76240E+01 8.68250E+00 0.00000E+00
 -1      2786 5.68740E+01 9.98150E+00 0.00000E+00
 -1      2787 6.21240E+01 8.68250E+00 0.00000E+00
 -1      2788 6.06240E+01 8.68250E+00 0.00000E+00
 -1      2789 5.98740E+01 9.98150E+00 0.00000E+00
 -1      2790 6.51240E+01 8.68250E+00 0.00000E+00
 -1      2791 6.36240E+01 8.68250E+00 0.00000E+00
 -1      2792 6.28740E+01 9.98150E+00 0.00000E+00
 -1      2793 6.81240E+01 8.68250E+00 0.00000E+00
 -1      2794 6.66240E+01 8.68250E+00 0.00000E+00
 -1      2795 6.58740E+01 9.98150E+00 0.00000E+00
 -1      2796 7.11240E+01 8.68250E+00 0.00000E+00
 -1      2797 6.96240E+01 8.68250E+00 0.00000E+00
 -1      2798 6.88740E+01 9.98150E+00 0.00000E+00
 -1      2799 7.41240E+01 8.68250E+00 0.00000E+00
 -1      2800 7.26240E+01 8.68250E+00 0.00000E+00
 -1      2801 7.18740E+01 9.98150E+00 0.00000E+00
 -1      2802 7.71240E+01 8.68250E+00 0.00000E+00
 -1      2803 7.56240E+01 8.68250E+00 0.00000E+00
 -1      2804 7.48740E+01 9.98150E+00 0.00000E+00
 -1      2805 8.01240E+01 8.68250E+00 0.00000E+00
 -1      2806 7.86240E+01 8.68250E+00 0.00000E+00
 -1      2807 7.78740E+01 9.98150E+00 0.00000E+00
 -1      2808 8.31240E+01 8.68250E+00 0.00000E+00
 -1      2809 8.16240E+01 8.68250E+00 0.00000E+00
 -1      2810 8.08740E+01 9.98150E+00 0.00000E+00
 -1      2811 8.61240E+01 8.68250E+00 0.00000E+00
 -1      2812 8.46240E+01 8.68250E+00 0.00000E+00
 -1      2813 8.38740E+01 9.98150E+00 0.00000E+00
 -1      2814 8.91240E+01 8.68250E+00 0.00000E+00
 -1      2815 8.76240E+01 8.68250E+00 0.00000E+00
 -1      2816 8.68740E+01 9.98150E+00 0.00000E+00
 -1      2817 9.21240E+01 8.68250E+00 0.00000E+00
 -1      2818 9.06240E+01 8.68250E+00 0.00000E+00
 -1      2819 8.98740E+01 9.98150E+00 0.00000E+00
 -1      2820 9.51240E+01 8.68250E+00 0.00000E+00
 -1      2821 9.36240E+01 8.68250E+00 0.00000E+00
 -1      2822 9.28740E+01 9.98150E+00 0.00000E+00
 -1      2823 9.81240E+01 8.68250E+00 0.00000E+00
 -1      2824 9.66240E+01 8.68250E+00 0.00000E+00
 -1      2825 9.58740E+01 9.98150E+00 0.00000E+00
 -1      2826 1.01124E+02 8.68250E+00 0.00000E+00
 -1      2827 9.96240E+01 8.68250E+00 0.00000E+00
 -1      2828 9.88740E+01 9.98150E+00 0.00000E+00
 -1      2829 1.04124E+02 8.68250E+00 0.00000E+00
 -1      2830 1.02624E+02 8.68250E+00 0.00000E+00
 -1      2831 1.01874E+02 9.98150E+00 0.00000E+00
 -1      2832 1.07124E+02 8.68250E+00 0.00000E+00
 -1      2833 1.05624E+02 8.68250E+00 0.00000E+00
 -1      2834 1.04874E+02 9.98150E+00 0.00000E+00
 -1      2835 1.10124E+02 8.68250E+00 0.00000E+00
 -1      2836 1.08624E+02 8.68250E+00 0.00000E+00
 -1      2837 1.07874E+02 9.98150E+00 0.00000E+00
 -1      2838 1.13124E+02 8.68250E+00 0.00000E+00
 -1      2839 1.11624E+02 8.68250E+00 0.00000E+00
 -1      2840 1.10874E+02 9.98150E+00 0.00000E+00
 -1      2841 1.16124E+02 8.68250E+00 0.00000E+00
 -1      2842 1.14624E+02 8.68250E+00 0.00000E+00
 -1      2843 1.13874E+02 9.98150E+00 0.00000E+00
 -1      2844 1.19124E+02 8.68250E+00 0.00000E+00
 -1      2845 1.17624E+02 8.68250E+00 0.00000E+00
 -1      2846 1.16874E+02 9.98150E+00 0.00000E+00
 -1      2847 1.22124E+02 8.68250E+00 0.00000E+00
 -1      2848 1.20624E+02 8.68250E+00 0.00000E+00
 -1      2849 1.19874E+02 9.98150E+00 0.00000E+00
 -1      2850 1.25124E+02 8.68250E+00 0.00000E+00
 -1      2851 1.23624E+02 8.68250E+00 0.00000E+00
 -1      2852 1.22874E+02 9.98150E+00 0.00000E+00
 -1      2853 1.28124E+02 8.68250E+00 0.00000E+00
 -1      2854 1.26624E+02 8.68250E+00 0.00000E+00
 -1      2855 1.25874E+02 9.98150E+00 0.00000E+00
 -1      2856 1.31124E+02 8.68250E+00 0.00000E+00
 -1      2857 1.29624E+02 8.68250E+00 0.00000E+00
 -1      2858 1.28874E+02 9.98150E+00 0.00000E+00
 -1      2859 1.34124E+02 8.68250E+00 0.00000E+00
 -1      2860 1.32624E+02 8.68250E+00 0.00000E+00
 -1      2861 1.31874E+02 9.98150E+00 0.00000E+00
 -1      2862 1.37082E+02 8.76838E+00 0.00000E+00
 -1      2863 1.35582E+02 8.76838E+00 0.00000E+00
 -1      2864 1.34832E+02 1.00674E+01 0.00000E+00
 -1      2865 1.37748E+02 1.02391E+01 0.00000E+00
 -1      2866 1.40907E+02 1.54500E+01 0.00000E+00
 -1      2867 1.40907E+02 1.40000E+01 0.00000E+00
 -1      2868 1.40907E+02 2.13375E+01 0.00000E+00
 -1      2869 1.40907E+02 1.98625E+01 0.00000E+00
 -1      2870 1.40706E+02 1.18000E+01 0.00000E+00
 -1      2871 1.40907E+02 1.83937E+01 0.00000E+00
 -1      2872 1.40907E+02 1.69188E+01 0.00000E+00
 -1      2873 1.39608E+02 1.61938E+01 0.00000E+00
 -1      2874 1.39608E+02 1.91313E+01 0.00000E+00
 -1      2875 2.61240E+01 8.68250E+00 0.00000E+00
 -1      2876 2.46240E+01 8.68250E+00 0.00000E+00
 -1      2877 2.38740E+01 9.98150E+00 0.00000E+00
 -1      2878 2.68740E+01 9.98150E+00 0.00000E+00
 -1      2879 1.40907E+02 2.72375E+01 0.00000E+00
 -1      2880 1.40907E+02 2.57625E+01 0.00000E+00
 -1      2881 1.40907E+02 3.01375E+01 0.00000E+00
 -1      2882 1.40907E+02 2.86875E+01 0.00000E+00
 -1      2883 1.39608E+02 2.79500E+01 0.00000E+00
 -1      2884 1.40907E+02 3.30875E+01 0.00000E+00
 -1      2885 1.40907E+02 3.16125E+01 0.00000E+00
 -1      2886 1.39608E+02 3.08750E+01 0.00000E+00
 -1      2887 1.40907E+02 3.60375E+01 0.00000E+00
 -1      2888 1.40907E+02 3.45625E+01 0.00000E+00
 -1      2889 1.39608E+02 3.38250E+01 0.00000E+00
 -1      2890 1.40907E+02 3.89875E+01 0.00000E+00
 -1      2891 1.40907E+02 3.75125E+01 0.00000E+00
 -1      2892 1.39608E+02 3.67750E+01 0.00000E+00
 -1      2893 8.76334E+01 2.40902E+01 0.00000E+00
 -1      2894 8.89714E+01 2.39039E+01 0.00000E+00
 -1      2895 7.95174E+01 3.31992E+01 0.00000E+00
 -1      2896 7.97726E+01 3.20613E+01 0.00000E+00
 -1      2897 1.03165E+02 3.29912E+01 0.00000E+00
 -1      2898 1.03143E+02 3.41551E+01 0.00000E+00
 -1      2899 1.40907E+02 2.42875E+01 0.00000E+00
 -1      2900 1.40907E+02 2.28125E+01 0.00000E+00
 -1      2901 1.39608E+02 2.50250E+01 0.00000E+00
 -1      2902 1.12500E+01 4.09070E+01 0.00000E+00
 -1      2903 1.27500E+01 4.09070E+01 0.00000E+00
 -1      2904 1.35000E+01 3.96080E+01 0.00000E+00
 -1      2905 9.09300E+00 1.68813E+01 0.00000E+00
 -1      2906 9.09300E+00 1.83563E+01 0.00000E+00
 -1      2907 1.03920E+01 1.90812E+01 0.00000E+00
 -1      2908 1.03920E+01 1.61437E+01 0.00000E+00
 -1      2909 1.01625E+02 4.22376E+01 0.00000E+00
 -1      2910 1.03125E+02 4.22376E+01 0.00000E+00
 -1      2911 1.03183E+02 3.52480E+01 0.00000E+00
 -1      2912 1.03223E+02 3.63409E+01 0.00000E+00
 -1      2913 1.04303E+02 3.46869E+01 0.00000E+00
 -1      2914 9.09300E+00 3.15875E+01 0.00000E+00
 -1      2915 9.09300E+00 3.30625E+01 0.00000E+00
 -1      2916 9.58121E+01 2.49428E+01 0.00000E+00
 -1      2917 9.66717E+01 2.53146E+01 0.00000E+00
 -1      2918 1.01329E+02 3.02274E+01 0.00000E+00
 -1      2919 1.02253E+02 3.12937E+01 0.00000E+00
 -1      2920 8.51654E+01 2.49428E+01 0.00000E+00
 -1      2921 8.61803E+01 2.44894E+01 0.00000E+00
 -1      2922 8.01598E+01 3.07502E+01 0.00000E+00
 -1      2923 8.06614E+01 2.95888E+01 0.00000E+00
 -1      2924 8.32928E+01 2.62060E+01 0.00000E+00
 -1      2925 8.40585E+01 2.56023E+01 0.00000E+00
 -1      2926 7.93897E+01 4.03554E+01 0.00000E+00
 -1      2927 7.91200E+01 3.93482E+01 0.00000E+00
 -1      2928 8.14634E+01 2.82070E+01 0.00000E+00
 -1      2929 8.23860E+01 2.71894E+01 0.00000E+00
 -1      2930 7.91146E+01 3.53241E+01 0.00000E+00
 -1      2931 7.92036E+01 3.43488E+01 0.00000E+00
 -1      2932 9.78102E+01 2.60236E+01 0.00000E+00
 -1      2933 9.88452E+01 2.68414E+01 0.00000E+00
 -1      2934 8.87925E+00 4.05429E+01 0.00000E+00
 -1      2935 1.02052E+01 4.08069E+01 0.00000E+00
 -1      2936 1.09552E+01 3.95079E+01 0.00000E+00
 -1      2937 8.86575E+00 3.93078E+01 0.00000E+00
 -1      2938 1.04625E+02 4.19863E+01 0.00000E+00
 -1      2939 1.06125E+02 4.19025E+01 0.00000E+00
 -1      2940 1.06875E+02 4.07098E+01 0.00000E+00
 -1      2941 1.01871E+02 4.04207E+01 0.00000E+00
 -1      2942 1.01220E+02 4.14616E+01 0.00000E+00
 -1      2943 8.01022E+01 4.13805E+01 0.00000E+00
 -1      2944 1.00470E+02 4.24029E+01 0.00000E+00
 -1      2945 1.40290E+02 4.01755E+01 0.00000E+00
 -1      2946 1.03920E+01 2.49750E+01 0.00000E+00
 -1      2947 9.09300E+00 2.57000E+01 0.00000E+00
 -1      2948 9.09300E+00 2.71750E+01 0.00000E+00
 -1      2949 9.00375E+00 8.96981E+00 0.00000E+00
 -1      2950 7.64625E+01 3.98819E+01 0.00000E+00
 -1      2951 1.38992E+02 3.94380E+01 0.00000E+00
 -1      2952 1.03875E+02 4.10449E+01 0.00000E+00
 -1      2953 1.48740E+01 9.98151E+00 0.00000E+00
 -1      2954 1.41240E+01 8.68251E+00 0.00000E+00
 -1      2955 1.39407E+02 1.25250E+01 0.00000E+00
 -1      2956 1.39608E+02 2.20750E+01 0.00000E+00
 -1      2957 9.77208E+01 2.50506E+01 0.00000E+00
 -1      2958 9.97152E+01 2.70908E+01 0.00000E+00
 -1      2959 1.00585E+02 2.73401E+01 0.00000E+00
 -1      2960 9.97293E+01 2.60090E+01 0.00000E+00
 -1      2961 7.85354E+01 3.36013E+01 0.00000E+00
 -1      2962 8.88706E+01 2.25646E+01 0.00000E+00
 -1      2963 8.96809E+01 2.34868E+01 0.00000E+00
 -1      2964 9.03904E+01 2.30697E+01 0.00000E+00
 -1      2965 8.67079E+01 2.33809E+01 0.00000E+00
 -1      2966 7.86481E+01 3.60679E+01 0.00000E+00
 -1      2967 7.77552E+01 3.54946E+01 0.00000E+00
 -1      2968 7.81816E+01 3.68117E+01 0.00000E+00
 -1      2969 1.03027E+01 9.70731E+00 0.00000E+00
 -1      2970 1.30515E+01 8.34733E+00 0.00000E+00
 -1      2971 7.92362E+01 3.11406E+01 0.00000E+00
 -1      2972 8.04253E+01 2.84477E+01 0.00000E+00
 -1      2973 8.01892E+01 2.73066E+01 0.00000E+00
 -1      2974 7.93872E+01 2.86883E+01 0.00000E+00
 -1      2975 1.01505E+02 2.93104E+01 0.00000E+00
 -1      2976 8.21341E+01 2.60825E+01 0.00000E+00
 -1      2977 9.09300E+00 3.45313E+01 0.00000E+00
 -1      2978 9.09300E+00 3.60000E+01 0.00000E+00
 -1      2979 1.03920E+01 3.37938E+01 0.00000E+00
 -1      2980 8.41478E+01 2.44396E+01 0.00000E+00
 -1      2981 9.53203E+01 2.43074E+01 0.00000E+00
 -1      2982 9.20330E+01 2.34296E+01 0.00000E+00
 -1      2983 9.26295E+01 2.41325E+01 0.00000E+00
 -1      2984 9.34618E+01 2.35702E+01 0.00000E+00
 -1      2985 1.03695E+02 3.70925E+01 0.00000E+00
 -1      2986 9.09300E+00 2.86437E+01 0.00000E+00
 -1      2987 9.09300E+00 3.01187E+01 0.00000E+00
 -1      2988 1.03920E+01 3.08563E+01 0.00000E+00
 -1      2989 1.03920E+01 2.79188E+01 0.00000E+00
 -1      2990 1.03537E+02 3.08018E+01 0.00000E+00
 -1      2991 1.03351E+02 3.18965E+01 0.00000E+00
 -1      2992 1.04449E+02 3.24993E+01 0.00000E+00
 -1      2993 1.02712E+02 3.98507E+01 0.00000E+00
 -1      2994 1.16910E+01 2.12875E+01 0.00000E+00
 -1      2995 1.16910E+01 2.27625E+01 0.00000E+00
 -1      2996 1.16910E+01 1.24625E+01 0.00000E+00
 -1      2997 1.16910E+01 1.39375E+01 0.00000E+00
 -1      2998 1.14712E+01 7.20138E+00 0.00000E+00
 -1      2999 7.59199E+01 3.87373E+01 0.00000E+00
 -1      3000 7.73824E+01 3.90112E+01 0.00000E+00
 -1      3001 8.97262E+00 3.70363E+01 0.00000E+00
 -1      3002 8.98612E+00 3.82715E+01 0.00000E+00
 -1      3003 1.00309E+01 3.83715E+01 0.00000E+00
 -1      3004 1.02716E+01 3.62988E+01 0.00000E+00
 -1      3005 1.87500E+01 3.83090E+01 0.00000E+00
 -1      3006 2.02500E+01 3.83090E+01 0.00000E+00
 -1      3007 2.17500E+01 3.83090E+01 0.00000E+00
 -1      3008 2.32500E+01 3.83090E+01 0.00000E+00
 -1      3009 2.10000E+01 3.70100E+01 0.00000E+00
 -1      3010 2.47500E+01 3.83090E+01 0.00000E+00
 -1      3011 2.62500E+01 3.83090E+01 0.00000E+00
 -1      3012 2.40000E+01 3.70100E+01 0.00000E+00
 -1      3013 2.77500E+01 3.83090E+01 0.00000E+00
 -1      3014 2.92500E+01 3.83090E+01 0.00000E+00
 -1      3015 2.70000E+01 3.70100E+01 0.00000E+00
 -1      3016 3.07500E+01 3.83090E+01 0.00000E+00
 -1      3017 3.22500E+01 3.83090E+01 0.00000E+00
 -1      3018 3.00000E+01 3.70100E+01 0.00000E+00
 -1      3019 3.37500E+01 3.83090E+01 0.00000E+00
 -1      3020 3.52500E+01 3.83090E+01 0.00000E+00
 -1      3021 3.30000E+01 3.70100E+01 0.00000E+00
 -1      3022 3.67500E+01 3.83090E+01 0.00000E+00
 -1      3023 3.82500E+01 3.83090E+01 0.00000E+00
 -1      3024 3.60000E+01 3.70100E+01 0.00000E+00
 -1      3025 3.97500E+01 3.83090E+01 0.00000E+00
 -1      3026 4.12500E+01 3.83090E+01 0.00000E+00
 -1      3027 3.90000E+01 3.70100E+01 0.00000E+00
 -1      3028 4.27500E+01 3.83090E+01 0.00000E+00
 -1      3029 4.42500E+01 3.83090E+01 0.00000E+00
 -1      3030 4.20000E+01 3.70100E+01 0.00000E+00
 -1      3031 4.57500E+01 3.83090E+01 0.00000E+00
 -1      3032 4.72500E+01 3.83090E+01 0.00000E+00
 -1      3033 4.50000E+01 3.70100E+01 0.00000E+00
 -1      3034 4.87500E+01 3.83090E+01 0.00000E+00
 -1      3035 5.02500E+01 3.83090E+01 0.00000E+00
 -1      3036 4.80000E+01 3.70100E+01 0.00000E+00
 -1      3037 5.17500E+01 3.83090E+01 0.00000E+00
 -1      3038 5.32500E+01 3.83090E+01 0.00000E+00
 -1      3039 5.10000E+01 3.70100E+01 0.00000E+00
 -1      3040 5.47500E+01 3.83090E+01 0.00000E+00
 -1      3041 5.62500E+01 3.83090E+01 0.00000E+00
 -1      3042 5.40000E+01 3.70100E+01 0.00000E+00
 -1      3043 5.77500E+01 3.83090E+01 0.00000E+00
 -1      3044 5.92500E+01 3.83090E+01 0.00000E+00
 -1      3045 5.70000E+01 3.70100E+01 0.00000E+00
 -1      3046 6.07500E+01 3.83090E+01 0.00000E+00
 -1      3047 6.22500E+01 3.83090E+01 0.00000E+00
 -1      3048 6.00000E+01 3.70100E+01 0.00000E+00
 -1      3049 6.37500E+01 3.83090E+01 0.00000E+00
 -1      3050 6.52500E+01 3.83090E+01 0.00000E+00
 -1      3051 6.30000E+01 3.70100E+01 0.00000E+00
 -1      3052 6.67500E+01 3.83090E+01 0.00000E+00
 -1      3053 6.82500E+01 3.83090E+01 0.00000E+00
 -1      3054 6.60000E+01 3.70100E+01 0.00000E+00
 -1      3055 6.97500E+01 3.83090E+01 0.00000E+00
 -1      3056 7.12500E+01 3.83090E+01 0.00000E+00
 -1      3057 6.90000E+01 3.70100E+01 0.00000E+00
 -1      3058 7.27500E+01 3.83090E+01 0.00000E+00
 -1      3059 7.42500E+01 3.83090E+01 0.00000E+00
 -1      3060 7.20000E+01 3.70100E+01 0.00000E+00
 -1      3061 1.56240E+01 1.12805E+01 0.00000E+00
 -1      3062 1.41241E+01 1.12805E+01 0.00000E+00
 -1      3063 1.09125E+02 3.93270E+01 0.00000E+00
 -1      3064 1.10625E+02 3.93270E+01 0.00000E+00
 -1      3065 1.12125E+02 3.93270E+01 0.00000E+00
 -1      3066 1.13625E+02 3.93270E+01 0.00000E+00
 -1      3067 1.11375E+02 3.80280E+01 0.00000E+00
 -1      3068 1.15125E+02 3.93270E+01 0.00000E+00
 -1      3069 1.16625E+02 3.93270E+01 0.00000E+00
 -1      3070 1.14375E+02 3.80280E+01 0.00000E+00
 -1      3071 1.18125E+02 3.93270E+01 0.00000E+00
 -1      3072 1.19625E+02 3.93270E+01 0.00000E+00
 -1      3073 1.17375E+02 3.80280E+01 0.00000E+00
 -1      3074 1.21125E+02 3.93270E+01 0.00000E+00
 -1      3075 1.22625E+02 3.93270E+01 0.00000E+00
 -1      3076 1.20375E+02 3.80280E+01 0.00000E+00
 -1      3077 1.24125E+02 3.93270E+01 0.00000E+00
 -1      3078 1.25625E+02 3.93270E+01 0.00000E+00
 -1      3079 1.23375E+02 3.80280E+01 0.00000E+00
 -1      3080 1.27125E+02 3.93270E+01 0.00000E+00
 -1      3081 1.28625E+02 3.93270E+01 0.00000E+00
 -1      3082 1.26375E+02 3.80280E+01 0.00000E+00
 -1      3083 1.30125E+02 3.93270E+01 0.00000E+00
 -1      3084 1.31625E+02 3.93270E+01 0.00000E+00
 -1      3085 1.29375E+02 3.80280E+01 0.00000E+00
 -1      3086 1.33125E+02 3.93270E+01 0.00000E+00
 -1      3087 1.34625E+02 3.93270E+01 0.00000E+00
 -1      3088 1.32375E+02 3.80280E+01 0.00000E+00
 -1      3089 1.36058E+02 3.93825E+01 0.00000E+00
 -1      3090 1.37558E+02 3.93825E+01 0.00000E+00
 -1      3091 1.38175E+02 3.81945E+01 0.00000E+00
 -1      3092 1.35308E+02 3.80835E+01 0.00000E+00
 -1      3093 1.38150E+02 1.46391E+01 0.00000E+00
 -1      3094 1.37949E+02 1.24391E+01 0.00000E+00
 -1      3095 1.36491E+02 1.23532E+01 0.00000E+00
 -1      3096 2.16240E+01 1.12805E+01 0.00000E+00
 -1      3097 2.01240E+01 1.12805E+01 0.00000E+00
 -1      3098 1.86240E+01 1.12805E+01 0.00000E+00
 -1      3099 1.71240E+01 1.12805E+01 0.00000E+00
 -1      3100 1.63741E+01 1.25795E+01 0.00000E+00
 -1      3101 1.93740E+01 1.25795E+01 0.00000E+00
 -1      3102 3.36240E+01 1.12805E+01 0.00000E+00
 -1      3103 3.21240E+01 1.12805E+01 0.00000E+00
 -1      3104 3.06240E+01 1.12805E+01 0.00000E+00
 -1      3105 2.91240E+01 1.12805E+01 0.00000E+00
 -1      3106 3.13740E+01 1.25795E+01 0.00000E+00
 -1      3107 3.96240E+01 1.12805E+01 0.00000E+00
 -1      3108 3.81240E+01 1.12805E+01 0.00000E+00
 -1      3109 4.26240E+01 1.12805E+01 0.00000E+00
 -1      3110 4.11240E+01 1.12805E+01 0.00000E+00
 -1      3111 4.03740E+01 1.25795E+01 0.00000E+00
 -1      3112 4.56240E+01 1.12805E+01 0.00000E+00
 -1      3113 4.41240E+01 1.12805E+01 0.00000E+00
 -1      3114 4.33740E+01 1.25795E+01 0.00000E+00
 -1      3115 4.86240E+01 1.12805E+01 0.00000E+00
 -1      3116 4.71240E+01 1.12805E+01 0.00000E+00
 -1      3117 4.63740E+01 1.25795E+01 0.00000E+00
 -1      3118 5.16240E+01 1.12805E+01 0.00000E+00
 -1      3119 5.01240E+01 1.12805E+01 0.00000E+00
 -1      3120 4.93740E+01 1.25795E+01 0.00000E+00
 -1      3121 5.46240E+01 1.12805E+01 0.00000E+00
 -1      3122 5.31240E+01 1.12805E+01 0.00000E+00
 -1      3123 5.23740E+01 1.25795E+01 0.00000E+00
 -1      3124 5.76240E+01 1.12805E+01 0.00000E+00
 -1      3125 5.61240E+01 1.12805E+01 0.00000E+00
 -1      3126 5.53740E+01 1.25795E+01 0.00000E+00
 -1      3127 6.06240E+01 1.12805E+01 0.00000E+00
 -1      3128 5.91240E+01 1.12805E+01 0.00000E+00
 -1      3129 5.83740E+01 1.25795E+01 0.00000E+00
 -1      3130 6.36240E+01 1.12805E+01 0.00000E+00
 -1      3131 6.21240E+01 1.12805E+01 0.00000E+00
 -1      3132 6.13740E+01 1.25795E+01 0.00000E+00
 -1      3133 6.66240E+01 1.12805E+01 0.00000E+00
 -1      3134 6.51240E+01 1.12805E+01 0.00000E+00
 -1      3135 6.43740E+01 1.25795E+01 0.00000E+00
 -1      3136 6.96240E+01 1.12805E+01 0.00000E+00
 -1      3137 6.81240E+01 1.12805E+01 0.00000E+00
 -1      3138 6.73740E+01 1.25795E+01 0.00000E+00
 -1      3139 7.26240E+01 1.12805E+01 0.00000E+00
 -1      3140 7.11240E+01 1.12805E+01 0.00000E+00
 -1      3141 7.03740E+01 1.25795E+01 0.00000E+00
 -1      3142 7.56240E+01 1.12805E+01 0.00000E+00
 -1      3143 7.41240E+01 1.12805E+01 0.00000E+00
 -1      3144 7.33740E+01 1.25795E+01 0.00000E+00
 -1      3145 7.86240E+01 1.12805E+01 0.00000E+00
 -1      3146 7.71240E+01 1.12805E+01 0.00000E+00
 -1      3147 7.63740E+01 1.25795E+01 0.00000E+00
 -1      3148 8.16240E+01 1.12805E+01 0.00000E+00
 -1      3149 8.01240E+01 1.12805E+01 0.00000E+00
 -1      3150 7.93740E+01 1.25795E+01 0.00000E+00
 -1      3151 8.46240E+01 1.12805E+01 0.00000E+00
 -1      3152 8.31240E+01 1.12805E+01 0.00000E+00
 -1      3153 8.23740E+01 1.25795E+01 0.00000E+00
 -1      3154 8.76240E+01 1.12805E+01 0.00000E+00
 -1      3155 8.61240E+01 1.12805E+01 0.00000E+00
 -1      3156 8.53740E+01 1.25795E+01 0.00000E+00
 -1      3157 9.06240E+01 1.12805E+01 0.00000E+00
 -1      3158 8.91240E+01 1.12805E+01 0.00000E+00
 -1      3159 8.83740E+01 1.25795E+01 0.00000E+00
 -1      3160 9.36240E+01 1.12805E+01 0.00000E+00
 -1      3161 9.21240E+01 1.12805E+01 0.00000E+00
 -1      3162 9.13740E+01 1.25795E+01 0.00000E+00
 -1      3163 9.66240E+01 1.12805E+01 0.00000E+00
 -1      3164 9.51240E+01 1.12805E+01 0.00000E+00
 -1      3165 9.43740E+01 1.25795E+01 0.00000E+00
 -1      3166 9.96240E+01 1.12805E+01 0.00000E+00
 -1      3167 9.81240E+01 1.12805E+01 0.00000E+00
 -1      3168 9.73740E+01 1.25795E+01 0.00000E+00
 -1      3169 1.02624E+02 1.12805E+01 0.00000E+00
 -1      3170 1.01124E+02 1.12805E+01 0.00000E+00
 -1      3171 1.00374E+02 1.25795E+01 0.00000E+00
 -1      3172 1.05624E+02 1.12805E+01 0.00000E+00
 -1      3173 1.04124E+02 1.12805E+01 0.00000E+00
 -1      3174 1.03374E+02 1.25795E+01 0.00000E+00
 -1      3175 1.08624E+02 1.12805E+01 0.00000E+00
 -1      3176 1.07124E+02 1.12805E+01 0.00000E+00
 -1      3177 1.06374E+02 1.25795E+01 0.00000E+00
 -1      3178 1.11624E+02 1.12805E+01 0.00000E+00
 -1      3179 1.10124E+02 1.12805E+01 0.00000E+00
 -1      3180 1.09374E+02 1.25795E+01 0.00000E+00
 -1      3181 1.14624E+02 1.12805E+01 0.00000E+00
 -1      3182 1.13124E+02 1.12805E+01 0.00000E+00
 -1      3183 1.12374E+02 1.25795E+01 0.00000E+00
 -1      3184 1.17624E+02 1.12805E+01 0.00000E+00
 -1      3185 1.16124E+02 1.12805E+01 0.00000E+00
 -1      3186 1.15374E+02 1.25795E+01 0.00000E+00
 -1      3187 1.20624E+02 1.12805E+01 0.00000E+00
 -1      3188 1.19124E+02 1.12805E+01 0.00000E+00
 -1      3189 1.18374E+02 1.25795E+01 0.00000E+00
 -1      3190 1.23624E+02 1.12805E+01 0.00000E+00
 -1      3191 1.22124E+02 1.12805E+01 0.00000E+00
 -1      3192 1.21374E+02 1.25795E+01 0.00000E+00
 -1      3193 1.26624E+02 1.12805E+01 0.00000E+00
 -1      3194 1.25124E+02 1.12805E+01 0.00000E+00
 -1      3195 1.24374E+02 1.25795E+01 0.00000E+00
 -1      3196 1.29624E+02 1.12805E+01 0.00000E+00
 -1      3197 1.28124E+02 1.12805E+01 0.00000E+00
 -1      3198 1.27374E+02 1.25795E+01 0.00000E+00
 -1      3199 1.32624E+02 1.12805E+01 0.00000E+00
 -1      3200 1.31124E+02 1.12805E+01 0.00000E+00
 -1      3201 1.30374E+02 1.25795E+01 0.00000E+00
 -1      3202 1.27500E+01 3.83090E+01 0.00000E+00
 -1      3203 1.42500E+01 3.83090E+01 0.00000E+00
 -1      3204 1.38309E+02 2.28125E+01 0.00000E+00
 -1      3205 1.38309E+02 2.13375E+01 0.00000E+00
 -1      3206 1.38309E+02 3.45625E+01 0.00000E+00
 -1      3207 1.38309E+02 3.30875E+01 0.00000E+00
 -1      3208 1.38309E+02 2.86750E+01 0.00000E+00
 -1      3209 1.38309E+02 2.72250E+01 0.00000E+00
 -1      3210 1.38175E+02 3.67195E+01 0.00000E+00
 -1      3211 7.84998E+01 3.87704E+01 0.00000E+00
 -1      3212 8.07257E+01 2.56937E+01 0.00000E+00
 -1      3213 8.16326E+01 2.47102E+01 0.00000E+00
 -1      3214 8.30268E+01 2.38167E+01 0.00000E+00
 -1      3215 8.41337E+01 2.31572E+01 0.00000E+00
 -1      3216 8.57319E+01 2.26728E+01 0.00000E+00
 -1      3217 8.71851E+01 2.22736E+01 0.00000E+00
 -1      3218 1.17938E+01 8.83558E+00 0.00000E+00
 -1      3219 9.76492E+01 2.38971E+01 0.00000E+00
 -1      3220 9.87877E+01 2.46061E+01 0.00000E+00
 -1      3221 1.06125E+02 3.94946E+01 0.00000E+00
 -1      3222 1.07625E+02 3.94108E+01 0.00000E+00
 -1      3223 1.08375E+02 3.81118E+01 0.00000E+00
 -1      3224 7.81399E+01 3.15296E+01 0.00000E+00
 -1      3225 7.85270E+01 3.02184E+01 0.00000E+00
 -1      3226 1.05391E+02 3.41000E+01 0.00000E+00
 -1      3227 1.05431E+02 3.51929E+01 0.00000E+00
 -1      3228 1.05609E+02 3.69877E+01 0.00000E+00
 -1      3229 1.04962E+02 3.83004E+01 0.00000E+00
 -1      3230 1.38309E+02 2.57563E+01 0.00000E+00
 -1      3231 1.38309E+02 2.42813E+01 0.00000E+00
 -1      3232 1.37010E+02 2.35438E+01 0.00000E+00
 -1      3233 1.37010E+02 2.64813E+01 0.00000E+00
 -1      3234 1.01802E+02 2.80626E+01 0.00000E+00
 -1      3235 1.02737E+02 2.89512E+01 0.00000E+00
 -1      3236 9.47125E+01 2.34331E+01 0.00000E+00
 -1      3237 9.59745E+01 2.34673E+01 0.00000E+00
 -1      3238 3.66240E+01 1.12805E+01 0.00000E+00
 -1      3239 3.51240E+01 1.12805E+01 0.00000E+00
 -1      3240 3.43740E+01 1.25795E+01 0.00000E+00
 -1      3241 3.73740E+01 1.25795E+01 0.00000E+00
 -1      3242 7.75124E+01 3.38287E+01 0.00000E+00
 -1      3243 7.78261E+01 3.26791E+01 0.00000E+00
 -1      3244 7.71169E+01 3.17570E+01 0.00000E+00
 -1      3245 1.38309E+02 3.16187E+01 0.00000E+00
 -1      3246 1.38309E+02 3.01437E+01 0.00000E+00
 -1      3247 1.37010E+02 2.94188E+01 0.00000E+00
 -1      3248 1.37010E+02 3.23563E+01 0.00000E+00
 -1      3249 1.57500E+01 3.83090E+01 0.00000E+00
 -1      3250 1.72500E+01 3.83090E+01 0.00000E+00
 -1      3251 1.80000E+01 3.70100E+01 0.00000E+00
 -1      3252 1.50000E+01 3.70100E+01 0.00000E+00
 -1      3253 1.18830E+01 1.08533E+01 0.00000E+00
 -1      3254 1.29900E+01 1.46687E+01 0.00000E+00
 -1      3255 1.16910E+01 1.54063E+01 0.00000E+00
 -1      3256 1.16910E+01 1.68750E+01 0.00000E+00
 -1      3257 9.95860E+01 2.37019E+01 0.00000E+00
 -1      3258 9.96577E+01 2.48554E+01 0.00000E+00
 -1      3259 1.00528E+02 2.51048E+01 0.00000E+00
 -1      3260 7.51699E+01 3.74383E+01 0.00000E+00
 -1      3261 1.16910E+01 1.83469E+01 0.00000E+00
 -1      3262 1.16910E+01 1.98156E+01 0.00000E+00
 -1      3263 1.29900E+01 2.05531E+01 0.00000E+00
 -1      3264 1.29900E+01 1.76094E+01 0.00000E+00
 -1      3265 1.05763E+02 3.19106E+01 0.00000E+00
 -1      3266 1.05577E+02 3.30053E+01 0.00000E+00
 -1      3267 1.06705E+02 3.35113E+01 0.00000E+00
 -1      3268 1.16910E+01 2.42375E+01 0.00000E+00
 -1      3269 1.16910E+01 2.57125E+01 0.00000E+00
 -1      3270 1.29900E+01 2.35000E+01 0.00000E+00
 -1      3271 1.39320E+01 1.28898E+01 0.00000E+00
 -1      3272 1.31820E+01 1.15908E+01 0.00000E+00
 -1      3273 7.70459E+01 3.45725E+01 0.00000E+00
 -1      3274 7.63367E+01 3.36504E+01 0.00000E+00
 -1      3275 7.65795E+01 3.53163E+01 0.00000E+00
 -1      3276 1.38150E+02 1.75766E+01 0.00000E+00
 -1      3277 1.38150E+02 1.61079E+01 0.00000E+00
 -1      3278 1.36692E+02 1.60220E+01 0.00000E+00
 -1      3279 7.79572E+01 3.76258E+01 0.00000E+00
 -1      3280 2.31240E+01 1.12805E+01 0.00000E+00
 -1      3281 2.23740E+01 1.25795E+01 0.00000E+00
 -1      3282 2.46240E+01 1.12805E+01 0.00000E+00
 -1      3283 2.83740E+01 1.25795E+01 0.00000E+00
 -1      3284 2.76240E+01 1.12805E+01 0.00000E+00
 -1      3285 2.61240E+01 1.12805E+01 0.00000E+00
 -1      3286 1.35286E+02 1.18598E+01 0.00000E+00
 -1      3287 1.33829E+02 1.17739E+01 0.00000E+00
 -1      3288 1.33079E+02 1.30729E+01 0.00000E+00
 -1      3289 1.35488E+02 1.40598E+01 0.00000E+00
 -1      3290 1.38230E+02 2.01914E+01 0.00000E+00
 -1      3291 1.38230E+02 1.87227E+01 0.00000E+00
 -1      3292 1.36771E+02 1.86368E+01 0.00000E+00
 -1      3293 1.36930E+02 2.09289E+01 0.00000E+00
 -1      3294 1.06697E+02 3.64008E+01 0.00000E+00
 -1      3295 8.78946E+01 2.18565E+01 0.00000E+00
 -1      3296 8.86042E+01 2.14393E+01 0.00000E+00
 -1      3297 8.69187E+01 2.11484E+01 0.00000E+00
 -1      3298 1.04131E+02 2.83062E+01 0.00000E+00
 -1      3299 1.03834E+02 2.95540E+01 0.00000E+00
 -1      3300 1.04932E+02 3.01568E+01 0.00000E+00
 -1      3301 1.36876E+02 3.59820E+01 0.00000E+00
 -1      3302 8.16184E+01 2.34279E+01 0.00000E+00
 -1      3303 7.70643E+01 3.70525E+01 0.00000E+00
 -1      3304 1.04212E+02 3.95994E+01 0.00000E+00
 -1      3305 8.46109E+01 2.20499E+01 0.00000E+00
 -1      3306 7.82909E+01 2.90774E+01 0.00000E+00
 -1      3307 7.80547E+01 2.79363E+01 0.00000E+00
 -1      3308 7.71945E+01 2.94664E+01 0.00000E+00
 -1      3309 1.01817E+02 2.69809E+01 0.00000E+00
 -1      3310 1.16910E+01 3.30594E+01 0.00000E+00
 -1      3311 1.16910E+01 3.45281E+01 0.00000E+00
 -1      3312 7.96876E+01 2.59343E+01 0.00000E+00
 -1      3313 9.12227E+01 2.25074E+01 0.00000E+00
 -1      3314 9.20550E+01 2.19451E+01 0.00000E+00
 -1      3315 9.04124E+01 2.15852E+01 0.00000E+00
 -1      3316 9.70414E+01 2.30227E+01 0.00000E+00
 -1      3317 9.81083E+01 2.25782E+01 0.00000E+00
 -1      3318 9.64336E+01 2.21484E+01 0.00000E+00
 -1      3319 9.41160E+01 2.27301E+01 0.00000E+00
 -1      3320 1.16910E+01 3.01219E+01 0.00000E+00
 -1      3321 1.16910E+01 3.15906E+01 0.00000E+00
 -1      3322 1.29900E+01 3.23250E+01 0.00000E+00
 -1      3323 1.10756E+01 3.84716E+01 0.00000E+00
 -1      3324 1.18256E+01 3.71726E+01 0.00000E+00
 -1      3325 1.19460E+01 3.61362E+01 0.00000E+00
 -1      3326 2.02500E+01 3.57110E+01 0.00000E+00
 -1      3327 2.17500E+01 3.57110E+01 0.00000E+00
 -1      3328 1.48741E+01 1.40483E+01 0.00000E+00
 -1      3329 1.39320E+01 1.43585E+01 0.00000E+00
 -1      3330 1.39320E+01 1.58273E+01 0.00000E+00
 -1      3331 2.32500E+01 3.57110E+01 0.00000E+00
 -1      3332 2.47500E+01 3.57110E+01 0.00000E+00
 -1      3333 2.25000E+01 3.44120E+01 0.00000E+00
 -1      3334 2.62500E+01 3.57110E+01 0.00000E+00
 -1      3335 2.77500E+01 3.57110E+01 0.00000E+00
 -1      3336 2.55000E+01 3.44120E+01 0.00000E+00
 -1      3337 2.92500E+01 3.57110E+01 0.00000E+00
 -1      3338 3.07500E+01 3.57110E+01 0.00000E+00
 -1      3339 2.85000E+01 3.44120E+01 0.00000E+00
 -1      3340 3.22500E+01 3.57110E+01 0.00000E+00
 -1      3341 3.37500E+01 3.57110E+01 0.00000E+00
 -1      3342 3.15000E+01 3.44120E+01 0.00000E+00
 -1      3343 3.52500E+01 3.57110E+01 0.00000E+00
 -1      3344 3.67500E+01 3.57110E+01 0.00000E+00
 -1      3345 3.45000E+01 3.44120E+01 0.00000E+00
 -1      3346 3.82500E+01 3.57110E+01 0.00000E+00
 -1      3347 3.97500E+01 3.57110E+01 0.00000E+00
 -1      3348 3.75000E+01 3.44120E+01 0.00000E+00
 -1      3349 4.12500E+01 3.57110E+01 0.00000E+00
 -1      3350 4.27500E+01 3.57110E+01 0.00000E+00
 -1      3351 4.05000E+01 3.44120E+01 0.00000E+00
 -1      3352 4.42500E+01 3.57110E+01 0.00000E+00
 -1      3353 4.57500E+01 3.57110E+01 0.00000E+00
 -1      3354 4.35000E+01 3.44120E+01 0.00000E+00
 -1      3355 4.72500E+01 3.57110E+01 0.00000E+00
 -1      3356 4.87500E+01 3.57110E+01 0.00000E+00
 -1      3357 4.65000E+01 3.44120E+01 0.00000E+00
 -1      3358 5.02500E+01 3.57110E+01 0.00000E+00
 -1      3359 5.17500E+01 3.57110E+01 0.00000E+00
 -1      3360 4.95000E+01 3.44120E+01 0.00000E+00
 -1      3361 5.32500E+01 3.57110E+01 0.00000E+00
 -1      3362 5.47500E+01 3.57110E+01 0.00000E+00
 -1      3363 5.25000E+01 3.44120E+01 0.00000E+00
 -1      3364 5.62500E+01 3.57110E+01 0.00000E+00
 -1      3365 5.77500E+01 3.57110E+01 0.00000E+00
 -1      3366 5.55000E+01 3.44120E+01 0.00000E+00
 -1      3367 5.92500E+01 3.57110E+01 0.00000E+00
 -1      3368 6.07500E+01 3.57110E+01 0.00000E+00
 -1      3369 5.85000E+01 3.44120E+01 0.00000E+00
 -1      3370 6.22500E+01 3.57110E+01 0.00000E+00
 -1      3371 6.37500E+01 3.57110E+01 0.00000E+00
 -1      3372 6.15000E+01 3.44120E+01 0.00000E+00
 -1      3373 6.52500E+01 3.57110E+01 0.00000E+00
 -1      3374 6.67500E+01 3.57110E+01 0.00000E+00
 -1      3375 6.45000E+01 3.44120E+01 0.00000E+00
 -1      3376 6.82500E+01 3.57110E+01 0.00000E+00
 -1      3377 6.97500E+01 3.57110E+01 0.00000E+00
 -1      3378 6.75000E+01 3.44120E+01 0.00000E+00
 -1      3379 7.12500E+01 3.57110E+01 0.00000E+00
 -1      3380 7.27500E+01 3.57110E+01 0.00000E+00
 -1      3381 7.05000E+01 3.44120E+01 0.00000E+00
 -1      3382 1.13625E+02 3.67290E+01 0.00000E+00
 -1      3383 1.15125E+02 3.67290E+01 0.00000E+00
 -1      3384 1.16625E+02 3.67290E+01 0.00000E+00
 -1      3385 1.18125E+02 3.67290E+01 0.00000E+00
 -1      3386 1.15875E+02 3.54300E+01 0.00000E+00
 -1      3387 1.19625E+02 3.67290E+01 0.00000E+00
 -1      3388 1.21125E+02 3.67290E+01 0.00000E+00
 -1      3389 1.18875E+02 3.54300E+01 0.00000E+00
 -1      3390 1.22625E+02 3.67290E+01 0.00000E+00
 -1      3391 1.24125E+02 3.67290E+01 0.00000E+00
 -1      3392 1.21875E+02 3.54300E+01 0.00000E+00
 -1      3393 1.25625E+02 3.67290E+01 0.00000E+00
 -1      3394 1.27125E+02 3.67290E+01 0.00000E+00
 -1      3395 1.24875E+02 3.54300E+01 0.00000E+00
 -1      3396 1.28625E+02 3.67290E+01 0.00000E+00
 -1      3397 1.30125E+02 3.67290E+01 0.00000E+00
 -1      3398 1.27875E+02 3.54300E+01 0.00000E+00
 -1      3399 1.31625E+02 3.67290E+01 0.00000E+00
 -1      3400 1.33125E+02 3.67290E+01 0.00000E+00
 -1      3401 1.30875E+02 3.54300E+01 0.00000E+00
 -1      3402 1.34284E+02 3.63278E+01 0.00000E+00
 -1      3403 1.35717E+02 3.63833E+01 0.00000E+00
 -1      3404 1.35851E+02 3.42263E+01 0.00000E+00
 -1      3405 1.33534E+02 3.50288E+01 0.00000E+00
 -1      3406 3.21240E+01 1.38785E+01 0.00000E+00
 -1      3407 3.06240E+01 1.38785E+01 0.00000E+00
 -1      3408 4.41240E+01 1.38785E+01 0.00000E+00
 -1      3409 4.26240E+01 1.38785E+01 0.00000E+00
 -1      3410 4.11240E+01 1.38785E+01 0.00000E+00
 -1      3411 3.96240E+01 1.38785E+01 0.00000E+00
 -1      3412 4.18740E+01 1.51775E+01 0.00000E+00
 -1      3413 5.01240E+01 1.38785E+01 0.00000E+00
 -1      3414 4.86240E+01 1.38785E+01 0.00000E+00
 -1      3415 5.31240E+01 1.38785E+01 0.00000E+00
 -1      3416 5.16240E+01 1.38785E+01 0.00000E+00
 -1      3417 5.08740E+01 1.51775E+01 0.00000E+00
 -1      3418 5.61240E+01 1.38785E+01 0.00000E+00
 -1      3419 5.46240E+01 1.38785E+01 0.00000E+00
 -1      3420 5.38740E+01 1.51775E+01 0.00000E+00
 -1      3421 5.91240E+01 1.38785E+01 0.00000E+00
 -1      3422 5.76240E+01 1.38785E+01 0.00000E+00
 -1      3423 5.68740E+01 1.51775E+01 0.00000E+00
 -1      3424 6.21240E+01 1.38785E+01 0.00000E+00
 -1      3425 6.06240E+01 1.38785E+01 0.00000E+00
 -1      3426 5.98740E+01 1.51775E+01 0.00000E+00
 -1      3427 6.51240E+01 1.38785E+01 0.00000E+00
 -1      3428 6.36240E+01 1.38785E+01 0.00000E+00
 -1      3429 6.28740E+01 1.51775E+01 0.00000E+00
 -1      3430 6.81240E+01 1.38785E+01 0.00000E+00
 -1      3431 6.66240E+01 1.38785E+01 0.00000E+00
 -1      3432 6.58740E+01 1.51775E+01 0.00000E+00
 -1      3433 7.11240E+01 1.38785E+01 0.00000E+00
 -1      3434 6.96240E+01 1.38785E+01 0.00000E+00
 -1      3435 6.88740E+01 1.51775E+01 0.00000E+00
 -1      3436 7.41240E+01 1.38785E+01 0.00000E+00
 -1      3437 7.26240E+01 1.38785E+01 0.00000E+00
 -1      3438 7.18740E+01 1.51775E+01 0.00000E+00
 -1      3439 7.71240E+01 1.38785E+01 0.00000E+00
 -1      3440 7.56240E+01 1.38785E+01 0.00000E+00
 -1      3441 7.48740E+01 1.51775E+01 0.00000E+00
 -1      3442 8.01240E+01 1.38785E+01 0.00000E+00
 -1      3443 7.86240E+01 1.38785E+01 0.00000E+00
 -1      3444 7.78740E+01 1.51775E+01 0.00000E+00
 -1      3445 8.31240E+01 1.38785E+01 0.00000E+00
 -1      3446 8.16240E+01 1.38785E+01 0.00000E+00
 -1      3447 8.08740E+01 1.51775E+01 0.00000E+00
 -1      3448 8.61240E+01 1.38785E+01 0.00000E+00
 -1      3449 8.46240E+01 1.38785E+01 0.00000E+00
 -1      3450 8.38740E+01 1.51775E+01 0.00000E+00
 -1      3451 8.91240E+01 1.38785E+01 0.00000E+00
 -1      3452 8.76240E+01 1.38785E+01 0.00000E+00
 -1      3453 8.68740E+01 1.51775E+01 0.00000E+00
 -1      3454 9.21240E+01 1.38785E+01 0.00000E+00
 -1      3455 9.06240E+01 1.38785E+01 0.00000E+00
 -1      3456 8.98740E+01 1.51775E+01 0.00000E+00
 -1      3457 9.51240E+01 1.38785E+01 0.00000E+00
 -1      3458 9.36240E+01 1.38785E+01 0.00000E+00
 -1      3459 9.28740E+01 1.51775E+01 0.00000E+00
 -1      3460 9.81240E+01 1.38785E+01 0.00000E+00
 -1      3461 9.66240E+01 1.38785E+01 0.00000E+00
 -1      3462 9.58740E+01 1.51775E+01 0.00000E+00
 -1      3463 1.01124E+02 1.38785E+01 0.00000E+00
 -1      3464 9.96240E+01 1.38785E+01 0.00000E+00
 -1      3465 9.88740E+01 1.51775E+01 0.00000E+00
 -1      3466 1.04124E+02 1.38785E+01 0.00000E+00
 -1      3467 1.02624E+02 1.38785E+01 0.00000E+00
 -1      3468 1.01874E+02 1.51775E+01 0.00000E+00
 -1      3469 1.07124E+02 1.38785E+01 0.00000E+00
 -1      3470 1.05624E+02 1.38785E+01 0.00000E+00
 -1      3471 1.04874E+02 1.51775E+01 0.00000E+00
 -1      3472 1.10124E+02 1.38785E+01 0.00000E+00
 -1      3473 1.08624E+02 1.38785E+01 0.00000E+00
 -1      3474 1.07874E+02 1.51775E+01 0.00000E+00
 -1      3475 1.13124E+02 1.38785E+01 0.00000E+00
 -1      3476 1.11624E+02 1.38785E+01 0.00000E+00
 -1      3477 1.10874E+02 1.51775E+01 0.00000E+00
 -1      3478 1.16124E+02 1.38785E+01 0.00000E+00
 -1      3479 1.14624E+02 1.38785E+01 0.00000E+00
 -1      3480 1.13874E+02 1.51775E+01 0.00000E+00
 -1      3481 1.19124E+02 1.38785E+01 0.00000E+00
 -1      3482 1.17624E+02 1.38785E+01 0.00000E+00
 -1      3483 1.16874E+02 1.51775E+01 0.00000E+00
 -1      3484 1.22124E+02 1.38785E+01 0.00000E+00
 -1      3485 1.20624E+02 1.38785E+01 0.00000E+00
 -1      3486 1.19874E+02 1.51775E+01 0.00000E+00
 -1      3487 1.25124E+02 1.38785E+01 0.00000E+00
 -1      3488 1.23624E+02 1.38785E+01 0.00000E+00
 -1      3489 1.22874E+02 1.51775E+01 0.00000E+00
 -1      3490 1.28124E+02 1.38785E+01 0.00000E+00
 -1      3491 1.26624E+02 1.38785E+01 0.00000E+00
 -1      3492 1.25874E+02 1.51775E+01 0.00000E+00
 -1      3493 1.31124E+02 1.38785E+01 0.00000E+00
 -1      3494 1.29624E+02 1.38785E+01 0.00000E+00
 -1      3495 1.28874E+02 1.51775E+01 0.00000E+00
 -1      3496 1.32450E+01 3.54019E+01 0.00000E+00
 -1      3497 7.59711E+01 3.20619E+01 0.00000E+00
 -1      3498 7.62848E+01 3.09123E+01 0.00000E+00
 -1      3499 1.08019E+02 3.45222E+01 0.00000E+00
 -1      3500 1.08197E+02 3.63170E+01 0.00000E+00
 -1      3501 1.09697E+02 3.62332E+01 0.00000E+00
 -1      3502 8.02325E+01 2.27999E+01 0.00000E+00
 -1      3503 8.16268E+01 2.19064E+01 0.00000E+00
 -1      3504 7.82081E+01 2.63379E+01 0.00000E+00
 -1      3505 7.87447E+01 2.47249E+01 0.00000E+00
 -1      3506 4.71240E+01 1.38785E+01 0.00000E+00
 -1      3507 4.56240E+01 1.38785E+01 0.00000E+00
 -1      3508 4.48740E+01 1.51775E+01 0.00000E+00
 -1      3509 4.78740E+01 1.51775E+01 0.00000E+00
 -1      3510 1.10911E+02 3.64811E+01 0.00000E+00
 -1      3511 1.12411E+02 3.64811E+01 0.00000E+00
 -1      3512 1.13161E+02 3.51821E+01 0.00000E+00
 -1      3513 1.10733E+02 3.46863E+01 0.00000E+00
 -1      3514 1.01774E+02 2.56660E+01 0.00000E+00
 -1      3515 1.02991E+02 2.63885E+01 0.00000E+00
 -1      3516 8.34658E+01 2.11507E+01 0.00000E+00
 -1      3517 8.50641E+01 2.06663E+01 0.00000E+00
 -1      3518 1.16910E+01 2.71844E+01 0.00000E+00
 -1      3519 1.16910E+01 2.86531E+01 0.00000E+00
 -1      3520 1.29900E+01 2.93875E+01 0.00000E+00
 -1      3521 9.33057E+01 2.18079E+01 0.00000E+00
 -1      3522 9.45564E+01 2.16707E+01 0.00000E+00
 -1      3523 9.24954E+01 2.08857E+01 0.00000E+00
 -1      3524 1.44900E+01 3.37938E+01 0.00000E+00
 -1      3525 1.47450E+01 3.54019E+01 0.00000E+00
 -1      3526 1.62450E+01 3.54019E+01 0.00000E+00
 -1      3527 9.94566E+01 2.25112E+01 0.00000E+00
 -1      3528 1.00327E+02 2.27606E+01 0.00000E+00
 -1      3529 1.42890E+01 2.27625E+01 0.00000E+00
 -1      3530 1.42890E+01 2.42375E+01 0.00000E+00
 -1      3531 7.50381E+01 3.35495E+01 0.00000E+00
 -1      3532 7.55046E+01 3.28057E+01 0.00000E+00
 -1      3533 7.46725E+01 3.19610E+01 0.00000E+00
 -1      3534 1.01702E+02 2.45125E+01 0.00000E+00
 -1      3535 2.53740E+01 1.25795E+01 0.00000E+00
 -1      3536 1.34693E+02 3.31588E+01 0.00000E+00
 -1      3537 1.35851E+02 3.27575E+01 0.00000E+00
 -1      3538 1.35851E+02 3.12888E+01 0.00000E+00
 -1      3539 2.01240E+01 1.38785E+01 0.00000E+00
 -1      3540 1.86240E+01 1.38785E+01 0.00000E+00
 -1      3541 2.91240E+01 1.38785E+01 0.00000E+00
 -1      3542 2.76240E+01 1.38785E+01 0.00000E+00
 -1      3543 2.98740E+01 1.51775E+01 0.00000E+00
 -1      3544 3.81240E+01 1.38785E+01 0.00000E+00
 -1      3545 3.66240E+01 1.38785E+01 0.00000E+00
 -1      3546 3.88740E+01 1.51775E+01 0.00000E+00
 -1      3547 1.74990E+01 1.39634E+01 0.00000E+00
 -1      3548 1.59991E+01 1.39634E+01 0.00000E+00
 -1      3549 1.59991E+01 1.54321E+01 0.00000E+00
 -1      3550 1.82490E+01 1.52624E+01 0.00000E+00
 -1      3551 9.88488E+01 2.16368E+01 0.00000E+00
 -1      3552 1.32329E+02 1.43719E+01 0.00000E+00
 -1      3553 1.31579E+02 1.56709E+01 0.00000E+00
 -1      3554 1.33533E+02 1.48654E+01 0.00000E+00
 -1      3555 1.08205E+02 3.34275E+01 0.00000E+00
 -1      3556 1.35674E+02 2.15919E+01 0.00000E+00
 -1      3557 1.35595E+02 2.04458E+01 0.00000E+00
 -1      3558 1.04046E+02 2.56766E+01 0.00000E+00
 -1      3559 1.04089E+02 2.69914E+01 0.00000E+00
 -1      3560 1.05187E+02 2.75942E+01 0.00000E+00
 -1      3561 1.35711E+02 2.72156E+01 0.00000E+00
 -1      3562 1.35711E+02 2.57469E+01 0.00000E+00
 -1      3563 7.87530E+01 2.32035E+01 0.00000E+00
 -1      3564 7.87614E+01 2.16820E+01 0.00000E+00
 -1      3565 7.72735E+01 2.36070E+01 0.00000E+00
 -1      3566 1.74975E+01 3.55564E+01 0.00000E+00
 -1      3567 1.89975E+01 3.55564E+01 0.00000E+00
 -1      3568 1.97475E+01 3.42574E+01 0.00000E+00
 -1      3569 1.72425E+01 3.39483E+01 0.00000E+00
 -1      3570 7.38530E+01 3.48574E+01 0.00000E+00
 -1      3571 7.55230E+01 3.52857E+01 0.00000E+00
 -1      3572 8.57736E+01 2.02491E+01 0.00000E+00
 -1      3573 8.64832E+01 1.98320E+01 0.00000E+00
 -1      3574 8.46285E+01 1.93499E+01 0.00000E+00
 -1      3575 1.29900E+01 2.64469E+01 0.00000E+00
 -1      3576 7.60487E+01 2.97713E+01 0.00000E+00
 -1      3577 7.58125E+01 2.86302E+01 0.00000E+00
 -1      3578 7.49028E+01 3.00761E+01 0.00000E+00
 -1      3579 7.71118E+01 2.67269E+01 0.00000E+00
 -1      3580 8.94365E+01 2.08771E+01 0.00000E+00
 -1      3581 9.02688E+01 2.03148E+01 0.00000E+00
 -1      3582 8.84605E+01 2.01689E+01 0.00000E+00
 -1      3583 2.31240E+01 1.38785E+01 0.00000E+00
 -1      3584 2.16240E+01 1.38785E+01 0.00000E+00
 -1      3585 2.08740E+01 1.51775E+01 0.00000E+00
 -1      3586 8.20799E+01 2.05227E+01 0.00000E+00
 -1      3587 1.06357E+02 2.94150E+01 0.00000E+00
 -1      3588 1.06060E+02 3.06628E+01 0.00000E+00
 -1      3589 1.07188E+02 3.11688E+01 0.00000E+00
 -1      3590 9.56233E+01 2.12262E+01 0.00000E+00
 -1      3591 9.66902E+01 2.07816E+01 0.00000E+00
 -1      3592 9.48130E+01 2.03040E+01 0.00000E+00
 -1      3593 1.42890E+01 2.12906E+01 0.00000E+00
 -1      3594 1.55880E+01 2.20281E+01 0.00000E+00
 -1      3595 1.42890E+01 1.98188E+01 0.00000E+00
 -1      3596 1.35781E+02 2.99866E+01 0.00000E+00
 -1      3597 1.35781E+02 2.85178E+01 0.00000E+00
 -1      3598 1.34482E+02 2.77834E+01 0.00000E+00
 -1      3599 1.34622E+02 3.03878E+01 0.00000E+00
 -1      3600 1.35693E+02 2.44037E+01 0.00000E+00
 -1      3601 1.35693E+02 2.29350E+01 0.00000E+00
 -1      3602 1.34357E+02 2.24519E+01 0.00000E+00
 -1      3603 1.34394E+02 2.51381E+01 0.00000E+00
 -1      3604 1.44900E+01 3.23250E+01 0.00000E+00
 -1      3605 3.51240E+01 1.38785E+01 0.00000E+00
 -1      3606 3.36240E+01 1.38785E+01 0.00000E+00
 -1      3607 3.28740E+01 1.51775E+01 0.00000E+00
 -1      3608 3.58740E+01 1.51775E+01 0.00000E+00
 -1      3609 7.31030E+01 3.35584E+01 0.00000E+00
 -1      3610 1.35715E+02 1.56904E+01 0.00000E+00
 -1      3611 1.34510E+02 1.51970E+01 0.00000E+00
 -1      3612 1.33760E+02 1.64960E+01 0.00000E+00
 -1      3613 1.35715E+02 1.71592E+01 0.00000E+00
 -1      3614 1.55880E+01 2.49719E+01 0.00000E+00
 -1      3615 1.42890E+01 2.57094E+01 0.00000E+00
 -1      3616 1.42890E+01 2.71812E+01 0.00000E+00
 -1      3617 1.41105E+01 1.70871E+01 0.00000E+00
 -1      3618 1.41105E+01 1.85589E+01 0.00000E+00
 -1      3619 1.54095E+01 1.92964E+01 0.00000E+00
 -1      3620 1.50525E+01 1.67768E+01 0.00000E+00
 -1      3621 7.34288E+01 3.16992E+01 0.00000E+00
 -1      3622 7.38953E+01 3.09554E+01 0.00000E+00
 -1      3623 2.17500E+01 3.31130E+01 0.00000E+00
 -1      3624 2.32500E+01 3.31130E+01 0.00000E+00
 -1      3625 2.47500E+01 3.31130E+01 0.00000E+00
 -1      3626 2.62500E+01 3.31130E+01 0.00000E+00
 -1      3627 2.40000E+01 3.18140E+01 0.00000E+00
 -1      3628 2.77500E+01 3.31130E+01 0.00000E+00
 -1      3629 2.92500E+01 3.31130E+01 0.00000E+00
 -1      3630 2.70000E+01 3.18140E+01 0.00000E+00
 -1      3631 3.07500E+01 3.31130E+01 0.00000E+00
 -1      3632 3.22500E+01 3.31130E+01 0.00000E+00
 -1      3633 3.00000E+01 3.18140E+01 0.00000E+00
 -1      3634 3.37500E+01 3.31130E+01 0.00000E+00
 -1      3635 3.52500E+01 3.31130E+01 0.00000E+00
 -1      3636 3.30000E+01 3.18140E+01 0.00000E+00
 -1      3637 3.67500E+01 3.31130E+01 0.00000E+00
 -1      3638 3.82500E+01 3.31130E+01 0.00000E+00
 -1      3639 3.60000E+01 3.18140E+01 0.00000E+00
 -1      3640 3.97500E+01 3.31130E+01 0.00000E+00
 -1      3641 4.12500E+01 3.31130E+01 0.00000E+00
 -1      3642 3.90000E+01 3.18140E+01 0.00000E+00
 -1      3643 4.27500E+01 3.31130E+01 0.00000E+00
 -1      3644 4.42500E+01 3.31130E+01 0.00000E+00
 -1      3645 4.20000E+01 3.18140E+01 0.00000E+00
 -1      3646 4.57500E+01 3.31130E+01 0.00000E+00
 -1      3647 4.72500E+01 3.31130E+01 0.00000E+00
 -1      3648 4.50000E+01 3.18140E+01 0.00000E+00
 -1      3649 4.87500E+01 3.31130E+01 0.00000E+00
 -1      3650 5.02500E+01 3.31130E+01 0.00000E+00
 -1      3651 4.80000E+01 3.18140E+01 0.00000E+00
 -1      3652 5.17500E+01 3.31130E+01 0.00000E+00
 -1      3653 5.32500E+01 3.31130E+01 0.00000E+00
 -1      3654 5.10000E+01 3.18140E+01 0.00000E+00
 -1      3655 5.47500E+01 3.31130E+01 0.00000E+00
 -1      3656 5.62500E+01 3.31130E+01 0.00000E+00
 -1      3657 5.40000E+01 3.18140E+01 0.00000E+00
 -1      3658 5.77500E+01 3.31130E+01 0.00000E+00
 -1      3659 5.92500E+01 3.31130E+01 0.00000E+00
 -1      3660 5.70000E+01 3.18140E+01 0.00000E+00
 -1      3661 6.07500E+01 3.31130E+01 0.00000E+00
 -1      3662 6.22500E+01 3.31130E+01 0.00000E+00
 -1      3663 6.00000E+01 3.18140E+01 0.00000E+00
 -1      3664 6.37500E+01 3.31130E+01 0.00000E+00
 -1      3665 6.52500E+01 3.31130E+01 0.00000E+00
 -1      3666 6.30000E+01 3.18140E+01 0.00000E+00
 -1      3667 6.67500E+01 3.31130E+01 0.00000E+00
 -1      3668 6.82500E+01 3.31130E+01 0.00000E+00
 -1      3669 6.60000E+01 3.18140E+01 0.00000E+00
 -1      3670 6.99265E+01 3.33357E+01 0.00000E+00
 -1      3671 7.14265E+01 3.33357E+01 0.00000E+00
 -1      3672 7.25295E+01 3.24821E+01 0.00000E+00
 -1      3673 6.91765E+01 3.20367E+01 0.00000E+00
 -1      3674 1.35695E+02 1.93755E+01 0.00000E+00
 -1      3675 1.35615E+02 1.82294E+01 0.00000E+00
 -1      3676 1.34638E+02 1.78979E+01 0.00000E+00
 -1      3677 1.34438E+02 2.00384E+01 0.00000E+00
 -1      3678 8.06667E+01 1.96991E+01 0.00000E+00
 -1      3679 8.25058E+01 1.89434E+01 0.00000E+00
 -1      3680 1.18125E+02 3.41310E+01 0.00000E+00
 -1      3681 1.19625E+02 3.41310E+01 0.00000E+00
 -1      3682 1.21125E+02 3.41310E+01 0.00000E+00
 -1      3683 1.22625E+02 3.41310E+01 0.00000E+00
 -1      3684 1.20375E+02 3.28320E+01 0.00000E+00
 -1      3685 1.24125E+02 3.41310E+01 0.00000E+00
 -1      3686 1.25625E+02 3.41310E+01 0.00000E+00
 -1      3687 1.23375E+02 3.28320E+01 0.00000E+00
 -1      3688 1.27125E+02 3.41310E+01 0.00000E+00
 -1      3689 1.28625E+02 3.41310E+01 0.00000E+00
 -1      3690 1.26375E+02 3.28320E+01 0.00000E+00
 -1      3691 1.30125E+02 3.41310E+01 0.00000E+00
 -1      3692 1.31625E+02 3.41310E+01 0.00000E+00
 -1      3693 1.29375E+02 3.28320E+01 0.00000E+00
 -1      3694 1.32579E+02 3.38455E+01 0.00000E+00
 -1      3695 1.33738E+02 3.34443E+01 0.00000E+00
 -1      3696 1.33738E+02 3.19755E+01 0.00000E+00
 -1      3697 1.31829E+02 3.25465E+01 0.00000E+00
 -1      3698 5.46240E+01 1.64765E+01 0.00000E+00
 -1      3699 5.31240E+01 1.64765E+01 0.00000E+00
 -1      3700 5.16240E+01 1.64765E+01 0.00000E+00
 -1      3701 5.01240E+01 1.64765E+01 0.00000E+00
 -1      3702 5.23740E+01 1.77755E+01 0.00000E+00
 -1      3703 6.06240E+01 1.64765E+01 0.00000E+00
 -1      3704 5.91240E+01 1.64765E+01 0.00000E+00
 -1      3705 6.36240E+01 1.64765E+01 0.00000E+00
 -1      3706 6.21240E+01 1.64765E+01 0.00000E+00
 -1      3707 6.13740E+01 1.77755E+01 0.00000E+00
 -1      3708 6.66240E+01 1.64765E+01 0.00000E+00
 -1      3709 6.51240E+01 1.64765E+01 0.00000E+00
 -1      3710 6.43740E+01 1.77755E+01 0.00000E+00
 -1      3711 6.96240E+01 1.64765E+01 0.00000E+00
 -1      3712 6.81240E+01 1.64765E+01 0.00000E+00
 -1      3713 6.73740E+01 1.77755E+01 0.00000E+00
 -1      3714 7.26240E+01 1.64765E+01 0.00000E+00
 -1      3715 7.11240E+01 1.64765E+01 0.00000E+00
 -1      3716 7.03740E+01 1.77755E+01 0.00000E+00
 -1      3717 7.56240E+01 1.64765E+01 0.00000E+00
 -1      3718 7.41240E+01 1.64765E+01 0.00000E+00
 -1      3719 7.33740E+01 1.77755E+01 0.00000E+00
 -1      3720 7.86240E+01 1.64765E+01 0.00000E+00
 -1      3721 7.71240E+01 1.64765E+01 0.00000E+00
 -1      3722 7.63740E+01 1.77755E+01 0.00000E+00
 -1      3723 8.17333E+01 1.66486E+01 0.00000E+00
 -1      3724 8.02333E+01 1.66486E+01 0.00000E+00
 -1      3725 8.53560E+01 1.70552E+01 0.00000E+00
 -1      3726 8.38560E+01 1.70552E+01 0.00000E+00
 -1      3727 8.68560E+01 1.70552E+01 0.00000E+00
 -1      3728 9.06240E+01 1.64765E+01 0.00000E+00
 -1      3729 8.91240E+01 1.64765E+01 0.00000E+00
 -1      3730 9.36240E+01 1.64765E+01 0.00000E+00
 -1      3731 9.21240E+01 1.64765E+01 0.00000E+00
 -1      3732 9.13740E+01 1.77755E+01 0.00000E+00
 -1      3733 9.66269E+01 1.75185E+01 0.00000E+00
 -1      3734 9.51269E+01 1.75185E+01 0.00000E+00
 -1      3735 1.02624E+02 1.64765E+01 0.00000E+00
 -1      3736 1.01124E+02 1.64765E+01 0.00000E+00
 -1      3737 1.05624E+02 1.64765E+01 0.00000E+00
 -1      3738 1.04124E+02 1.64765E+01 0.00000E+00
 -1      3739 1.03374E+02 1.77755E+01 0.00000E+00
 -1      3740 1.08624E+02 1.64765E+01 0.00000E+00
 -1      3741 1.07124E+02 1.64765E+01 0.00000E+00
 -1      3742 1.06374E+02 1.77755E+01 0.00000E+00
 -1      3743 1.11624E+02 1.64765E+01 0.00000E+00
 -1      3744 1.10124E+02 1.64765E+01 0.00000E+00
 -1      3745 1.09374E+02 1.77755E+01 0.00000E+00
 -1      3746 1.14624E+02 1.64765E+01 0.00000E+00
 -1      3747 1.13124E+02 1.64765E+01 0.00000E+00
 -1      3748 1.12374E+02 1.77755E+01 0.00000E+00
 -1      3749 1.17624E+02 1.64765E+01 0.00000E+00
 -1      3750 1.16124E+02 1.64765E+01 0.00000E+00
 -1      3751 1.15374E+02 1.77755E+01 0.00000E+00
 -1      3752 1.20624E+02 1.64765E+01 0.00000E+00
 -1      3753 1.19124E+02 1.64765E+01 0.00000E+00
 -1      3754 1.18374E+02 1.77755E+01 0.00000E+00
 -1      3755 1.23624E+02 1.64765E+01 0.00000E+00
 -1      3756 1.22124E+02 1.64765E+01 0.00000E+00
 -1      3757 1.21374E+02 1.77755E+01 0.00000E+00
 -1      3758 1.26624E+02 1.64765E+01 0.00000E+00
 -1      3759 1.25124E+02 1.64765E+01 0.00000E+00
 -1      3760 1.24374E+02 1.77755E+01 0.00000E+00
 -1      3761 1.29624E+02 1.64765E+01 0.00000E+00
 -1      3762 1.28124E+02 1.64765E+01 0.00000E+00
 -1      3763 1.27374E+02 1.77755E+01 0.00000E+00
 -1      3764 1.01573E+02 2.33218E+01 0.00000E+00
 -1      3765 1.02819E+02 2.38831E+01 0.00000E+00
 -1      3766 1.01443E+02 2.21311E+01 0.00000E+00
 -1      3767 1.46488E+01 3.06625E+01 0.00000E+00
 -1      3768 1.61488E+01 3.21312E+01 0.00000E+00
 -1      3769 2.61240E+01 1.38785E+01 0.00000E+00
 -1      3770 2.46240E+01 1.38785E+01 0.00000E+00
 -1      3771 2.38740E+01 1.51775E+01 0.00000E+00
 -1      3772 2.68740E+01 1.51775E+01 0.00000E+00
 -1      3773 1.46488E+01 2.91937E+01 0.00000E+00
 -1      3774 9.20593E+01 1.93992E+01 0.00000E+00
 -1      3775 9.33101E+01 1.92620E+01 0.00000E+00
 -1      3776 7.59659E+01 2.70318E+01 0.00000E+00
 -1      3777 7.61194E+01 2.54334E+01 0.00000E+00
 -1      3778 7.48201E+01 2.73366E+01 0.00000E+00
 -1      3779 1.08502E+02 3.21797E+01 0.00000E+00
 -1      3780 1.09816E+02 3.31907E+01 0.00000E+00
 -1      3781 1.08799E+02 3.09319E+01 0.00000E+00
 -1      3782 5.76240E+01 1.64765E+01 0.00000E+00
 -1      3783 5.61240E+01 1.64765E+01 0.00000E+00
 -1      3784 5.53740E+01 1.77755E+01 0.00000E+00
 -1      3785 9.80385E+01 2.07147E+01 0.00000E+00
 -1      3786 9.93868E+01 2.06477E+01 0.00000E+00
 -1      3787 9.72282E+01 1.97925E+01 0.00000E+00
 -1      3788 1.15125E+02 3.41310E+01 0.00000E+00
 -1      3789 1.16625E+02 3.41310E+01 0.00000E+00
 -1      3790 1.17375E+02 3.28320E+01 0.00000E+00
 -1      3791 4.26240E+01 1.64765E+01 0.00000E+00
 -1      3792 4.11240E+01 1.64765E+01 0.00000E+00
 -1      3793 1.61775E+01 1.66919E+01 0.00000E+00
 -1      3794 2.04975E+01 3.29584E+01 0.00000E+00
 -1      3795 2.12475E+01 3.16594E+01 0.00000E+00
 -1      3796 1.92450E+01 3.28039E+01 0.00000E+00
 -1      3797 7.17523E+01 3.14765E+01 0.00000E+00
 -1      3798 7.36592E+01 2.98144E+01 0.00000E+00
 -1      3799 3.06240E+01 1.64765E+01 0.00000E+00
 -1      3800 2.91240E+01 1.64765E+01 0.00000E+00
 -1      3801 4.03740E+01 1.77755E+01 0.00000E+00
 -1      3802 3.96240E+01 1.64765E+01 0.00000E+00
 -1      3803 3.81240E+01 1.64765E+01 0.00000E+00
 -1      3804 1.00225E+02 1.87505E+01 0.00000E+00
 -1      3805 1.01036E+02 1.96727E+01 0.00000E+00
 -1      3806 5.83740E+01 1.77755E+01 0.00000E+00
 -1      3807 1.11030E+02 3.34385E+01 0.00000E+00
 -1      3808 1.59478E+01 2.84562E+01 0.00000E+00
 -1      3809 1.02828E+02 1.90047E+01 0.00000E+00
 -1      3810 1.01989E+02 2.09019E+01 0.00000E+00
 -1      3811 1.03236E+02 2.14632E+01 0.00000E+00
 -1      3812 1.04328E+02 1.90047E+01 0.00000E+00
 -1      3813 1.84275E+01 1.65222E+01 0.00000E+00
 -1      3814 1.73025E+01 1.66071E+01 0.00000E+00
 -1      3815 1.63560E+01 1.79518E+01 0.00000E+00
 -1      3816 1.12697E+02 3.36352E+01 0.00000E+00
 -1      3817 1.13911E+02 3.38831E+01 0.00000E+00
 -1      3818 1.14661E+02 3.25841E+01 0.00000E+00
 -1      3819 4.93740E+01 1.77755E+01 0.00000E+00
 -1      3820 4.86240E+01 1.64765E+01 0.00000E+00
 -1      3821 4.71240E+01 1.64765E+01 0.00000E+00
 -1      3822 7.94833E+01 1.79476E+01 0.00000E+00
 -1      3823 8.76060E+01 1.83542E+01 0.00000E+00
 -1      3824 9.79752E+01 1.74515E+01 0.00000E+00
 -1      3825 9.94752E+01 1.74515E+01 0.00000E+00
 -1      3826 1.03787E+02 2.32952E+01 0.00000E+00
 -1      3827 1.03917E+02 2.44859E+01 0.00000E+00
 -1      3828 1.05015E+02 2.50887E+01 0.00000E+00
 -1      3829 1.30829E+02 1.69699E+01 0.00000E+00
 -1      3830 1.30079E+02 1.82689E+01 0.00000E+00
 -1      3831 1.32033E+02 1.74634E+01 0.00000E+00
 -1      3832 1.99630E+01 1.65975E+01 0.00000E+00
 -1      3833 1.90165E+01 1.79422E+01 0.00000E+00
 -1      3834 1.68870E+01 2.42359E+01 0.00000E+00
 -1      3835 1.68870E+01 2.57078E+01 0.00000E+00
 -1      3836 1.06272E+02 2.67854E+01 0.00000E+00
 -1      3837 1.06315E+02 2.81002E+01 0.00000E+00
 -1      3838 1.07443E+02 2.86062E+01 0.00000E+00
 -1      3839 9.43769E+01 1.88175E+01 0.00000E+00
 -1      3840 1.33104E+02 2.58274E+01 0.00000E+00
 -1      3841 1.33086E+02 2.44843E+01 0.00000E+00
 -1      3842 1.74013E+01 3.22858E+01 0.00000E+00
 -1      3843 1.33067E+02 2.31411E+01 0.00000E+00
 -1      3844 1.33049E+02 2.17980E+01 0.00000E+00
 -1      3845 1.31778E+02 2.38304E+01 0.00000E+00
 -1      3846 7.61277E+01 2.39119E+01 0.00000E+00
 -1      3847 7.61361E+01 2.23904E+01 0.00000E+00
 -1      3848 7.49819E+01 2.42168E+01 0.00000E+00
 -1      3849 1.31521E+02 2.06248E+01 0.00000E+00
 -1      3850 1.32811E+02 1.99355E+01 0.00000E+00
 -1      3851 4.56240E+01 1.64765E+01 0.00000E+00
 -1      3852 4.41240E+01 1.64765E+01 0.00000E+00
 -1      3853 4.63740E+01 1.77755E+01 0.00000E+00
 -1      3854 2.14630E+01 1.65975E+01 0.00000E+00
 -1      3855 1.32911E+02 1.88653E+01 0.00000E+00
 -1      3856 1.68870E+01 2.12922E+01 0.00000E+00
 -1      3857 1.68870E+01 2.27641E+01 0.00000E+00
 -1      3858 1.81860E+01 2.35000E+01 0.00000E+00
 -1      3859 3.36240E+01 1.64765E+01 0.00000E+00
 -1      3860 3.21240E+01 1.64765E+01 0.00000E+00
 -1      3861 3.13740E+01 1.77755E+01 0.00000E+00
 -1      3862 7.63551E+01 3.61304E+01 0.00000E+00
 -1      3863 1.33244E+02 2.84318E+01 0.00000E+00
 -1      3864 1.33174E+02 2.71296E+01 0.00000E+00
 -1      3865 1.31866E+02 2.64757E+01 0.00000E+00
 -1      3866 7.90574E+01 1.95270E+01 0.00000E+00
 -1      3867 4.33740E+01 1.77755E+01 0.00000E+00
 -1      3868 7.75779E+01 1.99305E+01 0.00000E+00
 -1      3869 1.33010E+02 1.77950E+01 0.00000E+00
 -1      3870 2.62500E+01 3.05150E+01 0.00000E+00
 -1      3871 2.77500E+01 3.05150E+01 0.00000E+00
 -1      3872 2.92500E+01 3.05150E+01 0.00000E+00
 -1      3873 3.07500E+01 3.05150E+01 0.00000E+00
 -1      3874 2.85000E+01 2.92160E+01 0.00000E+00
 -1      3875 3.22500E+01 3.05150E+01 0.00000E+00
 -1      3876 3.37500E+01 3.05150E+01 0.00000E+00
 -1      3877 3.15000E+01 2.92160E+01 0.00000E+00
 -1      3878 3.52500E+01 3.05150E+01 0.00000E+00
 -1      3879 3.67500E+01 3.05150E+01 0.00000E+00
 -1      3880 3.45000E+01 2.92160E+01 0.00000E+00
 -1      3881 3.82500E+01 3.05150E+01 0.00000E+00
 -1      3882 3.97500E+01 3.05150E+01 0.00000E+00
 -1      3883 3.75000E+01 2.92160E+01 0.00000E+00
 -1      3884 4.12500E+01 3.05150E+01 0.00000E+00
 -1      3885 4.27500E+01 3.05150E+01 0.00000E+00
 -1      3886 4.05000E+01 2.92160E+01 0.00000E+00
 -1      3887 4.42500E+01 3.05150E+01 0.00000E+00
 -1      3888 4.57500E+01 3.05150E+01 0.00000E+00
 -1      3889 4.35000E+01 2.92160E+01 0.00000E+00
 -1      3890 4.72500E+01 3.05150E+01 0.00000E+00
 -1      3891 4.87500E+01 3.05150E+01 0.00000E+00
 -1      3892 4.65000E+01 2.92160E+01 0.00000E+00
 -1      3893 5.02500E+01 3.05150E+01 0.00000E+00
 -1      3894 5.17500E+01 3.05150E+01 0.00000E+00
 -1      3895 4.95000E+01 2.92160E+01 0.00000E+00
 -1      3896 5.32500E+01 3.05150E+01 0.00000E+00
 -1      3897 5.47500E+01 3.05150E+01 0.00000E+00
 -1      3898 5.25000E+01 2.92160E+01 0.00000E+00
 -1      3899 5.62500E+01 3.05150E+01 0.00000E+00
 -1      3900 5.77500E+01 3.05150E+01 0.00000E+00
 -1      3901 5.55000E+01 2.92160E+01 0.00000E+00
 -1      3902 5.92500E+01 3.05150E+01 0.00000E+00
 -1      3903 6.07500E+01 3.05150E+01 0.00000E+00
 -1      3904 5.85000E+01 2.92160E+01 0.00000E+00
 -1      3905 6.22500E+01 3.05150E+01 0.00000E+00
 -1      3906 6.37500E+01 3.05150E+01 0.00000E+00
 -1      3907 6.15000E+01 2.92160E+01 0.00000E+00
 -1      3908 6.52500E+01 3.05150E+01 0.00000E+00
 -1      3909 6.67500E+01 3.05150E+01 0.00000E+00
 -1      3910 6.45000E+01 2.92160E+01 0.00000E+00
 -1      3911 6.85093E+01 3.06377E+01 0.00000E+00
 -1      3912 7.01858E+01 3.08604E+01 0.00000E+00
 -1      3913 1.19625E+02 3.15330E+01 0.00000E+00
 -1      3914 1.21125E+02 3.15330E+01 0.00000E+00
 -1      3915 5.91240E+01 1.90745E+01 0.00000E+00
 -1      3916 5.76240E+01 1.90745E+01 0.00000E+00
 -1      3917 1.22625E+02 3.15330E+01 0.00000E+00
 -1      3918 1.24125E+02 3.15330E+01 0.00000E+00
 -1      3919 1.21875E+02 3.02340E+01 0.00000E+00
 -1      3920 1.25625E+02 3.15330E+01 0.00000E+00
 -1      3921 1.27125E+02 3.15330E+01 0.00000E+00
 -1      3922 1.24875E+02 3.02340E+01 0.00000E+00
 -1      3923 1.28625E+02 3.15330E+01 0.00000E+00
 -1      3924 1.30125E+02 3.15330E+01 0.00000E+00
 -1      3925 1.27875E+02 3.02340E+01 0.00000E+00
 -1      3926 5.31240E+01 1.90745E+01 0.00000E+00
 -1      3927 5.16240E+01 1.90745E+01 0.00000E+00
 -1      3928 6.51240E+01 1.90745E+01 0.00000E+00
 -1      3929 6.36240E+01 1.90745E+01 0.00000E+00
 -1      3930 6.21240E+01 1.90745E+01 0.00000E+00
 -1      3931 6.06240E+01 1.90745E+01 0.00000E+00
 -1      3932 6.28740E+01 2.03735E+01 0.00000E+00
 -1      3933 7.11240E+01 1.90745E+01 0.00000E+00
 -1      3934 6.96240E+01 1.90745E+01 0.00000E+00
 -1      3935 7.60779E+01 1.99305E+01 0.00000E+00
 -1      3936 8.32153E+01 1.85263E+01 0.00000E+00
 -1      3937 1.65345E+01 1.92116E+01 0.00000E+00
 -1      3938 1.13124E+02 1.90745E+01 0.00000E+00
 -1      3939 1.11624E+02 1.90745E+01 0.00000E+00
 -1      3940 1.16124E+02 1.90745E+01 0.00000E+00
 -1      3941 1.14624E+02 1.90745E+01 0.00000E+00
 -1      3942 1.13874E+02 2.03735E+01 0.00000E+00
 -1      3943 1.19124E+02 1.90745E+01 0.00000E+00
 -1      3944 1.17624E+02 1.90745E+01 0.00000E+00
 -1      3945 1.16874E+02 2.03735E+01 0.00000E+00
 -1      3946 1.22124E+02 1.90745E+01 0.00000E+00
 -1      3947 1.20624E+02 1.90745E+01 0.00000E+00
 -1      3948 1.19874E+02 2.03735E+01 0.00000E+00
 -1      3949 1.25124E+02 1.90745E+01 0.00000E+00
 -1      3950 1.23624E+02 1.90745E+01 0.00000E+00
 -1      3951 1.22874E+02 2.03735E+01 0.00000E+00
 -1      3952 1.28124E+02 1.90745E+01 0.00000E+00
 -1      3953 1.26624E+02 1.90745E+01 0.00000E+00
 -1      3954 1.25874E+02 2.03735E+01 0.00000E+00
 -1      3955 1.30425E+02 2.00964E+01 0.00000E+00
 -1      3956 1.29220E+02 1.96029E+01 0.00000E+00
 -1      3957 1.28470E+02 2.09019E+01 0.00000E+00
 -1      3958 1.30663E+02 2.19588E+01 0.00000E+00
 -1      3959 1.78335E+01 1.99475E+01 0.00000E+00
 -1      3960 1.81513E+01 3.09868E+01 0.00000E+00
 -1      3961 1.30700E+02 2.46451E+01 0.00000E+00
 -1      3962 1.30681E+02 2.33020E+01 0.00000E+00
 -1      3963 1.29585E+02 2.27735E+01 0.00000E+00
 -1      3964 8.87511E+01 1.92534E+01 0.00000E+00
 -1      3965 2.83740E+01 1.77755E+01 0.00000E+00
 -1      3966 2.76240E+01 1.64765E+01 0.00000E+00
 -1      3967 2.61240E+01 1.64765E+01 0.00000E+00
 -1      3968 7.10851E+01 3.00775E+01 0.00000E+00
 -1      3969 1.73393E+01 2.73411E+01 0.00000E+00
 -1      3970 1.76991E+01 2.93535E+01 0.00000E+00
 -1      3971 1.95427E+01 2.98716E+01 0.00000E+00
 -1      3972 1.86383E+01 2.66051E+01 0.00000E+00
 -1      3973 7.34504E+01 2.80117E+01 0.00000E+00
 -1      3974 7.36038E+01 2.64133E+01 0.00000E+00
 -1      3975 9.10834E+01 1.86911E+01 0.00000E+00
 -1      3976 7.24428E+01 2.88910E+01 0.00000E+00
 -1      3977 1.33526E+02 3.08547E+01 0.00000E+00
 -1      3978 1.33456E+02 2.95525E+01 0.00000E+00
 -1      3979 1.32148E+02 2.88987E+01 0.00000E+00
 -1      3980 1.32572E+02 3.11402E+01 0.00000E+00
 -1      3981 5.61240E+01 1.90745E+01 0.00000E+00
 -1      3982 5.46240E+01 1.90745E+01 0.00000E+00
 -1      3983 5.38740E+01 2.03735E+01 0.00000E+00
 -1      3984 1.10124E+02 1.90745E+01 0.00000E+00
 -1      3985 1.08624E+02 1.90745E+01 0.00000E+00
 -1      3986 1.10874E+02 2.03735E+01 0.00000E+00
 -1      3987 1.07226E+02 1.90396E+01 0.00000E+00
 -1      3988 1.05726E+02 1.90396E+01 0.00000E+00
 -1      3989 1.05180E+02 2.02688E+01 0.00000E+00
 -1      3990 1.07976E+02 2.03386E+01 0.00000E+00
 -1      3991 3.66240E+01 1.64765E+01 0.00000E+00
 -1      3992 3.51240E+01 1.64765E+01 0.00000E+00
 -1      3993 3.73740E+01 1.77755E+01 0.00000E+00
 -1      3994 4.41240E+01 1.90745E+01 0.00000E+00
 -1      3995 4.26240E+01 1.90745E+01 0.00000E+00
 -1      3996 6.81240E+01 1.90745E+01 0.00000E+00
 -1      3997 6.66240E+01 1.90745E+01 0.00000E+00
 -1      3998 6.88740E+01 2.03735E+01 0.00000E+00
 -1      3999 1.08935E+02 2.93970E+01 0.00000E+00
 -1      4000 1.10248E+02 3.04079E+01 0.00000E+00
 -1      4001 1.11780E+02 3.21395E+01 0.00000E+00
 -1      4002 1.16625E+02 3.15330E+01 0.00000E+00
 -1      4003 1.18125E+02 3.15330E+01 0.00000E+00
 -1      4004 1.18875E+02 3.02340E+01 0.00000E+00
 -1      4005 1.93690E+01 2.00229E+01 0.00000E+00
 -1      4006 2.30119E+01 1.65889E+01 0.00000E+00
 -1      4007 2.21008E+01 1.80090E+01 0.00000E+00
 -1      4008 2.32500E+01 3.05150E+01 0.00000E+00
 -1      4009 2.47500E+01 3.05150E+01 0.00000E+00
 -1      4010 2.55000E+01 2.92160E+01 0.00000E+00
 -1      4011 1.30840E+02 2.72495E+01 0.00000E+00
 -1      4012 1.30770E+02 2.59473E+01 0.00000E+00
 -1      4013 1.29673E+02 2.54188E+01 0.00000E+00
 -1      4014 4.11240E+01 1.90745E+01 0.00000E+00
 -1      4015 3.96240E+01 1.90745E+01 0.00000E+00
 -1      4016 4.18740E+01 2.03735E+01 0.00000E+00
 -1      4017 6.77593E+01 2.93387E+01 0.00000E+00
 -1      4018 5.08740E+01 2.03735E+01 0.00000E+00
 -1      4019 5.01240E+01 1.90745E+01 0.00000E+00
 -1      4020 4.86240E+01 1.90745E+01 0.00000E+00
 -1      4021 5.68740E+01 2.03735E+01 0.00000E+00
 -1      4022 1.06143E+02 2.55947E+01 0.00000E+00
 -1      4023 1.07271E+02 2.61007E+01 0.00000E+00
 -1      4024 1.06013E+02 2.44041E+01 0.00000E+00
 -1      4025 3.43740E+01 1.77755E+01 0.00000E+00
 -1      4026 1.31617E+02 3.14257E+01 0.00000E+00
 -1      4027 1.12051E+02 2.90696E+01 0.00000E+00
 -1      4028 1.11915E+02 3.06046E+01 0.00000E+00
 -1      4029 1.13582E+02 3.08013E+01 0.00000E+00
 -1      4030 2.07701E+01 3.01160E+01 0.00000E+00
 -1      4031 2.20226E+01 3.02706E+01 0.00000E+00
 -1      4032 2.27726E+01 2.89716E+01 0.00000E+00
 -1      4033 2.03179E+01 2.84828E+01 0.00000E+00
 -1      4034 5.98740E+01 2.03735E+01 0.00000E+00
 -1      4035 7.55459E+01 2.16416E+01 0.00000E+00
 -1      4036 7.43419E+01 1.94866E+01 0.00000E+00
 -1      4037 7.28419E+01 1.94866E+01 0.00000E+00
 -1      4038 3.21240E+01 1.90745E+01 0.00000E+00
 -1      4039 3.06240E+01 1.90745E+01 0.00000E+00
 -1      4040 7.22424E+01 2.55670E+01 0.00000E+00
 -1      4041 7.36121E+01 2.48919E+01 0.00000E+00
 -1      4042 7.36205E+01 2.33704E+01 0.00000E+00
 -1      4043 1.08892E+02 2.80822E+01 0.00000E+00
 -1      4044 4.71240E+01 1.90745E+01 0.00000E+00
 -1      4045 4.56240E+01 1.90745E+01 0.00000E+00
 -1      4046 4.78740E+01 2.03735E+01 0.00000E+00
 -1      4047 2.91240E+01 1.90745E+01 0.00000E+00
 -1      4048 2.76240E+01 1.90745E+01 0.00000E+00
 -1      4049 2.98740E+01 2.03735E+01 0.00000E+00
 -1      4050 2.45119E+01 1.65889E+01 0.00000E+00
 -1      4051 2.24667E+01 2.00057E+01 0.00000E+00
 -1      4052 2.09178E+01 2.00143E+01 0.00000E+00
 -1      4053 1.97349E+01 2.20195E+01 0.00000E+00
 -1      4054 1.94134E+01 2.52163E+01 0.00000E+00
 -1      4055 1.98656E+01 2.68495E+01 0.00000E+00
 -1      4056 2.10930E+01 2.70939E+01 0.00000E+00
 -1      4057 7.08763E+01 2.82749E+01 0.00000E+00
 -1      4058 1.30867E+02 3.01267E+01 0.00000E+00
 -1      4059 1.97349E+01 2.34914E+01 0.00000E+00
 -1      4060 4.48740E+01 2.03735E+01 0.00000E+00
 -1      4061 6.58740E+01 2.03735E+01 0.00000E+00
 -1      4062 1.04334E+02 2.20660E+01 0.00000E+00
 -1      4063 1.14497E+02 3.10432E+01 0.00000E+00
 -1      4064 1.15711E+02 3.12911E+01 0.00000E+00
 -1      4065 1.16461E+02 2.99921E+01 0.00000E+00
 -1      4066 1.14632E+02 2.95082E+01 0.00000E+00
 -1      4067 2.09622E+01 2.37358E+01 0.00000E+00
 -1      4068 7.20919E+01 2.07856E+01 0.00000E+00
 -1      4069 1.28507E+02 2.35882E+01 0.00000E+00
 -1      4070 1.28489E+02 2.22451E+01 0.00000E+00
 -1      4071 1.27392E+02 2.17166E+01 0.00000E+00
 -1      4072 3.07500E+01 2.79170E+01 0.00000E+00
 -1      4073 3.22500E+01 2.79170E+01 0.00000E+00
 -1      4074 3.37500E+01 2.79170E+01 0.00000E+00
 -1      4075 3.52500E+01 2.79170E+01 0.00000E+00
 -1      4076 3.30000E+01 2.66180E+01 0.00000E+00
 -1      4077 3.67500E+01 2.79170E+01 0.00000E+00
 -1      4078 3.82500E+01 2.79170E+01 0.00000E+00
 -1      4079 3.60000E+01 2.66180E+01 0.00000E+00
 -1      4080 3.97500E+01 2.79170E+01 0.00000E+00
 -1      4081 4.12500E+01 2.79170E+01 0.00000E+00
 -1      4082 3.90000E+01 2.66180E+01 0.00000E+00
 -1      4083 4.27500E+01 2.79170E+01 0.00000E+00
 -1      4084 4.42500E+01 2.79170E+01 0.00000E+00
 -1      4085 4.20000E+01 2.66180E+01 0.00000E+00
 -1      4086 4.57500E+01 2.79170E+01 0.00000E+00
 -1      4087 4.72500E+01 2.79170E+01 0.00000E+00
 -1      4088 4.50000E+01 2.66180E+01 0.00000E+00
 -1      4089 4.87500E+01 2.79170E+01 0.00000E+00
 -1      4090 5.02500E+01 2.79170E+01 0.00000E+00
 -1      4091 4.80000E+01 2.66180E+01 0.00000E+00
 -1      4092 5.17500E+01 2.79170E+01 0.00000E+00
 -1      4093 5.32500E+01 2.79170E+01 0.00000E+00
 -1      4094 5.10000E+01 2.66180E+01 0.00000E+00
 -1      4095 5.47500E+01 2.79170E+01 0.00000E+00
 -1      4096 5.62500E+01 2.79170E+01 0.00000E+00
 -1      4097 5.40000E+01 2.66180E+01 0.00000E+00
 -1      4098 5.77500E+01 2.79170E+01 0.00000E+00
 -1      4099 5.92500E+01 2.79170E+01 0.00000E+00
 -1      4100 5.70000E+01 2.66180E+01 0.00000E+00
 -1      4101 6.07500E+01 2.79170E+01 0.00000E+00
 -1      4102 6.22500E+01 2.79170E+01 0.00000E+00
 -1      4103 6.00000E+01 2.66180E+01 0.00000E+00
 -1      4104 6.37500E+01 2.79170E+01 0.00000E+00
 -1      4105 6.52500E+01 2.79170E+01 0.00000E+00
 -1      4106 6.30000E+01 2.66180E+01 0.00000E+00
 -1      4107 6.69700E+01 2.79815E+01 0.00000E+00
 -1      4108 6.87293E+01 2.81041E+01 0.00000E+00
 -1      4109 5.46240E+01 2.16725E+01 0.00000E+00
 -1      4110 5.31240E+01 2.16725E+01 0.00000E+00
 -1      4111 1.24125E+02 2.89350E+01 0.00000E+00
 -1      4112 1.25625E+02 2.89350E+01 0.00000E+00
 -1      4113 7.00870E+01 2.69177E+01 0.00000E+00
 -1      4114 3.81240E+01 1.90745E+01 0.00000E+00
 -1      4115 3.66240E+01 1.90745E+01 0.00000E+00
 -1      4116 3.88740E+01 2.03735E+01 0.00000E+00
 -1      4117 1.18125E+02 2.89350E+01 0.00000E+00
 -1      4118 1.19625E+02 2.89350E+01 0.00000E+00
 -1      4119 5.76240E+01 2.16725E+01 0.00000E+00
 -1      4120 5.61240E+01 2.16725E+01 0.00000E+00
 -1      4121 5.53740E+01 2.29715E+01 0.00000E+00
 -1      4122 2.52619E+01 1.78879E+01 0.00000E+00
 -1      4123 1.17624E+02 2.16725E+01 0.00000E+00
 -1      4124 1.16124E+02 2.16725E+01 0.00000E+00
 -1      4125 1.14624E+02 2.16725E+01 0.00000E+00
 -1      4126 1.13124E+02 2.16725E+01 0.00000E+00
 -1      4127 1.15374E+02 2.29715E+01 0.00000E+00
 -1      4128 1.23624E+02 2.16725E+01 0.00000E+00
 -1      4129 1.22124E+02 2.16725E+01 0.00000E+00
 -1      4130 1.26258E+02 2.16946E+01 0.00000E+00
 -1      4131 1.24758E+02 2.16946E+01 0.00000E+00
 -1      4132 1.24008E+02 2.29936E+01 0.00000E+00
 -1      4133 1.26276E+02 2.30377E+01 0.00000E+00
 -1      4134 6.06240E+01 2.16725E+01 0.00000E+00
 -1      4135 5.91240E+01 2.16725E+01 0.00000E+00
 -1      4136 5.83740E+01 2.29715E+01 0.00000E+00
 -1      4137 2.77500E+01 2.79170E+01 0.00000E+00
 -1      4138 2.92500E+01 2.79170E+01 0.00000E+00
 -1      4139 3.00000E+01 2.66180E+01 0.00000E+00
 -1      4140 1.08755E+02 2.65391E+01 0.00000E+00
 -1      4141 1.10246E+02 2.73298E+01 0.00000E+00
 -1      4142 2.41770E+01 1.96631E+01 0.00000E+00
 -1      4143 2.29940E+01 2.16683E+01 0.00000E+00
 -1      4144 1.20624E+02 2.16725E+01 0.00000E+00
 -1      4145 1.19124E+02 2.16725E+01 0.00000E+00
 -1      4146 1.21374E+02 2.29715E+01 0.00000E+00
 -1      4147 2.26725E+01 2.33932E+01 0.00000E+00
 -1      4148 2.23511E+01 2.51181E+01 0.00000E+00
 -1      4149 2.43829E+01 2.30506E+01 0.00000E+00
 -1      4150 1.11624E+02 2.16725E+01 0.00000E+00
 -1      4151 1.10124E+02 2.16725E+01 0.00000E+00
 -1      4152 1.12374E+02 2.29715E+01 0.00000E+00
 -1      4153 6.36240E+01 2.16725E+01 0.00000E+00
 -1      4154 6.21240E+01 2.16725E+01 0.00000E+00
 -1      4155 6.13740E+01 2.29715E+01 0.00000E+00
 -1      4156 1.30656E+02 2.90060E+01 0.00000E+00
 -1      4157 6.96240E+01 2.16725E+01 0.00000E+00
 -1      4158 6.81240E+01 2.16725E+01 0.00000E+00
 -1      4159 6.66240E+01 2.16725E+01 0.00000E+00
 -1      4160 6.51240E+01 2.16725E+01 0.00000E+00
 -1      4161 6.73740E+01 2.29715E+01 0.00000E+00
 -1      4162 2.57892E+01 1.95506E+01 0.00000E+00
 -1      4163 1.05732E+02 2.21009E+01 0.00000E+00
 -1      4164 3.51240E+01 1.90745E+01 0.00000E+00
 -1      4165 3.36240E+01 1.90745E+01 0.00000E+00
 -1      4166 3.28740E+01 2.03735E+01 0.00000E+00
 -1      4167 3.58740E+01 2.03735E+01 0.00000E+00
 -1      4168 1.21125E+02 2.89350E+01 0.00000E+00
 -1      4169 1.22625E+02 2.89350E+01 0.00000E+00
 -1      4170 1.20375E+02 2.76360E+01 0.00000E+00
 -1      4171 4.56240E+01 2.16725E+01 0.00000E+00
 -1      4172 4.41240E+01 2.16725E+01 0.00000E+00
 -1      4173 2.40307E+01 2.69957E+01 0.00000E+00
 -1      4174 2.55307E+01 2.69957E+01 0.00000E+00
 -1      4175 1.29559E+02 2.84775E+01 0.00000E+00
 -1      4176 1.11776E+02 2.59834E+01 0.00000E+00
 -1      4177 1.11913E+02 2.75265E+01 0.00000E+00
 -1      4178 1.13580E+02 2.77232E+01 0.00000E+00
 -1      4179 4.26240E+01 2.16725E+01 0.00000E+00
 -1      4180 4.11240E+01 2.16725E+01 0.00000E+00
 -1      4181 4.33740E+01 2.29715E+01 0.00000E+00
 -1      4182 5.16240E+01 2.16725E+01 0.00000E+00
 -1      4183 5.01240E+01 2.16725E+01 0.00000E+00
 -1      4184 5.23740E+01 2.29715E+01 0.00000E+00
 -1      4185 6.62200E+01 2.66825E+01 0.00000E+00
 -1      4186 2.65392E+01 2.08496E+01 0.00000E+00
 -1      4187 1.06860E+02 2.26069E+01 0.00000E+00
 -1      4188 6.84070E+01 2.48592E+01 0.00000E+00
 -1      4189 7.05540E+01 2.50300E+01 0.00000E+00
 -1      4190 1.27125E+02 2.89350E+01 0.00000E+00
 -1      4191 1.28625E+02 2.89350E+01 0.00000E+00
 -1      4192 1.17211E+02 2.86931E+01 0.00000E+00
 -1      4193 1.17961E+02 2.73941E+01 0.00000E+00
 -1      4194 1.16296E+02 2.84512E+01 0.00000E+00
 -1      4195 7.44001E+01 2.19465E+01 0.00000E+00
 -1      4196 1.28523E+02 2.44925E+01 0.00000E+00
 -1      4197 1.27427E+02 2.39640E+01 0.00000E+00
 -1      4198 1.26293E+02 2.39420E+01 0.00000E+00
 -1      4199 1.28593E+02 2.57947E+01 0.00000E+00
 -1      4200 1.18374E+02 2.29715E+01 0.00000E+00
 -1      4201 8.95834E+01 1.86911E+01 0.00000E+00
 -1      4202 7.30303E+01 2.26216E+01 0.00000E+00
 -1      4203 1.23375E+02 2.76360E+01 0.00000E+00
 -1      4204 2.62807E+01 2.56967E+01 0.00000E+00
 -1      4205 4.86240E+01 2.16725E+01 0.00000E+00
 -1      4206 4.71240E+01 2.16725E+01 0.00000E+00
 -1      4207 4.93740E+01 2.29715E+01 0.00000E+00
 -1      4208 3.06240E+01 2.16725E+01 0.00000E+00
 -1      4209 2.91240E+01 2.16725E+01 0.00000E+00
 -1      4210 1.08625E+02 2.53484E+01 0.00000E+00
 -1      4211 7.13124E+01 2.22095E+01 0.00000E+00
 -1      4212 3.36240E+01 2.16725E+01 0.00000E+00
 -1      4213 3.21240E+01 2.16725E+01 0.00000E+00
 -1      4214 3.13740E+01 2.29715E+01 0.00000E+00
 -1      4215 6.43740E+01 2.29715E+01 0.00000E+00
 -1      4216 1.08258E+02 2.26418E+01 0.00000E+00
 -1      4217 7.05624E+01 2.35085E+01 0.00000E+00
 -1      4218 2.28033E+01 2.67513E+01 0.00000E+00
 -1      4219 4.63740E+01 2.29715E+01 0.00000E+00
 -1      4220 1.26375E+02 2.76360E+01 0.00000E+00
 -1      4221 3.52500E+01 2.53190E+01 0.00000E+00
 -1      4222 3.67500E+01 2.53190E+01 0.00000E+00
 -1      4223 3.82500E+01 2.53190E+01 0.00000E+00
 -1      4224 3.97500E+01 2.53190E+01 0.00000E+00
 -1      4225 3.75000E+01 2.40200E+01 0.00000E+00
 -1      4226 4.11870E+01 2.47948E+01 0.00000E+00
 -1      4227 4.26870E+01 2.47948E+01 0.00000E+00
 -1      4228 4.41870E+01 2.47948E+01 0.00000E+00
 -1      4229 4.56870E+01 2.47948E+01 0.00000E+00
 -1      4230 4.71870E+01 2.47948E+01 0.00000E+00
 -1      4231 4.86870E+01 2.47948E+01 0.00000E+00
 -1      4232 5.01870E+01 2.47948E+01 0.00000E+00
 -1      4233 5.16870E+01 2.47948E+01 0.00000E+00
 -1      4234 5.31870E+01 2.47948E+01 0.00000E+00
 -1      4235 5.46870E+01 2.47948E+01 0.00000E+00
 -1      4236 5.61870E+01 2.47948E+01 0.00000E+00
 -1      4237 5.76870E+01 2.47948E+01 0.00000E+00
 -1      4238 5.91870E+01 2.47948E+01 0.00000E+00
 -1      4239 6.06870E+01 2.47948E+01 0.00000E+00
 -1      4240 6.21870E+01 2.47948E+01 0.00000E+00
 -1      4241 6.36870E+01 2.47948E+01 0.00000E+00
 -1      4242 6.69070E+01 2.48592E+01 0.00000E+00
 -1      4243 6.51870E+01 2.47948E+01 0.00000E+00
 -1      4244 3.21870E+01 2.47948E+01 0.00000E+00
 -1      4245 3.36870E+01 2.47948E+01 0.00000E+00
 -1      4246 1.28809E+02 2.71785E+01 0.00000E+00
 -1      4247 3.96870E+01 2.21968E+01 0.00000E+00
 -1      4248 3.81870E+01 2.21968E+01 0.00000E+00
 -1      4249 1.16124E+02 2.42705E+01 0.00000E+00
 -1      4250 1.14624E+02 2.42705E+01 0.00000E+00
 -1      4251 1.19625E+02 2.63370E+01 0.00000E+00
 -1      4252 1.21125E+02 2.63370E+01 0.00000E+00
 -1      4253 1.18460E+02 2.50618E+01 0.00000E+00
 -1      4254 1.16960E+02 2.50618E+01 0.00000E+00
 -1      4255 1.09008E+02 2.39408E+01 0.00000E+00
 -1      4256 1.10491E+02 2.43791E+01 0.00000E+00
 -1      4257 2.60818E+01 2.43737E+01 0.00000E+00
 -1      4258 2.83011E+01 2.52949E+01 0.00000E+00
 -1      4259 2.98011E+01 2.52949E+01 0.00000E+00
 -1      4260 2.64032E+01 2.26488E+01 0.00000E+00
 -1      4261 1.13658E+02 2.45758E+01 0.00000E+00
 -1      4262 1.12158E+02 2.45758E+01 0.00000E+00
 -1      4263 1.22374E+02 2.53038E+01 0.00000E+00
 -1      4264 1.23874E+02 2.53038E+01 0.00000E+00
 -1      4265 3.66870E+01 2.21968E+01 0.00000E+00
 -1      4266 3.51870E+01 2.21968E+01 0.00000E+00
 -1      4267 1.27659E+02 2.62522E+01 0.00000E+00
 -1      4268 4.04370E+01 2.34958E+01 0.00000E+00
 -1      4269 1.21624E+02 2.40048E+01 0.00000E+00
 -1      4270 1.14408E+02 2.58748E+01 0.00000E+00
 -1      4271 3.44370E+01 2.34958E+01 0.00000E+00
 -1      4272 2.82381E+01 2.21727E+01 0.00000E+00
 -1      4273 1.26159E+02 2.62522E+01 0.00000E+00
 -1      4274 1.20124E+02 2.40048E+01 0.00000E+00
 -1      4275 2.89881E+01 2.34717E+01 0.00000E+00
 -1      4276 1.25009E+02 2.53258E+01 0.00000E+00
 -1      4277 1.14507E+02 2.81315E+01 0.00000E+00
 -1      4278 1.15421E+02 2.83734E+01 0.00000E+00
 -1      4279 1.16171E+02 2.70744E+01 0.00000E+00
 -1      4280 1.15335E+02 2.62831E+01 0.00000E+00
 -1      4281 1.14370E+02 2.65884E+01 0.00000E+00
 -1      4282 3.06870E+01 2.47948E+01 0.00000E+00
 -1      4283 1.16210E+02 2.63608E+01 0.00000E+00
 -1      4284 1.18711E+02 2.60951E+01 0.00000E+00
 -3
    3C                          2060                                     1
 -1       165    8    0    1
 -2         6         7        23      1113      1277      1130
 -1       166    8    0    1
 -2         7         8       165      1114      1278      1279
 -1       167    8    0    1
 -2         8         9       166      1115      1280      1281
 -1       168    8    0    1
 -2         8       166       165      1281      1282      1278
 -1       169    8    0    1
 -2         9        10       167      1116      1283      1284
 -1       170    8    0    1
 -2         9       167       166      1284      1285      1280
 -1       171    8    0    1
 -2        10        11       168      1117      1286      1287
 -1       172    8    0    1
 -2        10       168       167      1287      1288      1283
 -1       173    8    0    1
 -2        11        12       169      1118      1289      1290
 -1       174    8    0    1
 -2        11       169       168      1290      1291      1286
 -1       175    8    0    1
 -2        12        13       170      1119      1292      1293
 -1       176    8    0    1
 -2        12       170       169      1293      1294      1289
 -1       177    8    0    1
 -2        13        14       171      1120      1295      1296
 -1       178    8    0    1
 -2        13       171       170      1296      1297      1292
 -1       179    8    0    1
 -2        14        15       172      1121      1298      1299
 -1       180    8    0    1
 -2        14       172       171      1299      1300      1295
 -1       181    8    0    1
 -2        15        16       173      1122      1301      1302
 -1       182    8    0    1
 -2        15       173       172      1302      1303      1298
 -1       183    8    0    1
 -2        16        17       174      1123      1304      1305
 -1       184    8    0    1
 -2        16       174       173      1305      1306      1301
 -1       185    8    0    1
 -2        17        18       175      1124      1307      1308
 -1       186    8    0    1
 -2        17       175       174      1308      1309      1304
 -1       187    8    0    1
 -2        18        19       176      1125      1310      1311
 -1       188    8    0    1
 -2        18       176       175      1311      1312      1307
 -1       189    8    0    1
 -2        19        20       177      1126      1313      1314
 -1       190    8    0    1
 -2        19       177       176      1314      1315      1310
 -1       191    8    0    1
 -2        20        21       178      1127      1316      1317
 -1       192    8    0    1
 -2        20       178       177      1317      1318      1313
 -1       193    8    0    1
 -2        21        22       179      1128      1319      1320
 -1       194    8    0    1
 -2        21       179       178      1320      1321      1316
 -1       195    8    0    1
 -2        22         5       180      1129      1322      1323
 -1       196    8    0    1
 -2       179        22       180      1319      1323      1324
 -1       197    8    0    1
 -2         5        73       180      1181      1325      1322
 -1       198    8    0    1
 -2        24        23       181      1131      1326      1327
 -1       199    8    0    1
 -2        25        24       182      1132      1328      1329
 -1       200    8    0    1
 -2        24       181       182      1327      1330      1328
 -1       201    8    0    1
 -2        26        25       183      1133      1331      1332
 -1       202    8    0    1
 -2        25       182       183      1329      1333      1331
 -1       203    8    0    1
 -2        27        26       184      1134      1334      1335
 -1       204    8    0    1
 -2        26       183       184      1332      1336      1334
 -1       205    8    0    1
 -2        28        27       185      1135      1337      1338
 -1       206    8    0    1
 -2        27       184       185      1335      1339      1337
 -1       207    8    0    1
 -2        29        28       186      1136      1340      1341
 -1       208    8    0    1
 -2        28       185       186      1338      1342      1340
 -1       209    8    0    1
 -2        30        29       187      1137      1343      1344
 -1       210    8    0    1
 -2        29       186       187      1341      1345      1343
 -1       211    8    0    1
 -2        31        30       188      1138      1346      1347
 -1       212    8    0    1
 -2        30       187       188      1344      1348      1346
 -1       213    8    0    1
 -2        32        31       189      1139      1349      1350
 -1       214    8    0    1
 -2        31       188       189      1347      1351      1349
 -1       215    8    0    1
 -2        33        32       190      1140      1352      1353
 -1       216    8    0    1
 -2        32       189       190      1350      1354      1352
 -1       217    8    0    1
 -2        34        33       191      1141      1355      1356
 -1       218    8    0    1
 -2        33       190       191      1353      1357      1355
 -1       219    8    0    1
 -2        35        34       192      1142      1358      1359
 -1       220    8    0    1
 -2        34       191       192      1356      1360      1358
 -1       221    8    0    1
 -2        36        35       193      1143      1361      1362
 -1       222    8    0    1
 -2        35       192       193      1359      1363      1361
 -1       223    8    0    1
 -2        37        36       194      1144      1364      1365
 -1       224    8    0    1
 -2        36       193       194      1362      1366      1364
 -1       225    8    0    1
 -2        38        37       195      1145      1367      1368
 -1       226    8    0    1
 -2        37       194       195      1365      1369      1367
 -1       227    8    0    1
 -2        39        38       196      1146      1370      1371
 -1       228    8    0    1
 -2        38       195       196      1368      1372      1370
 -1       229    8    0    1
 -2        40        39       197      1147      1373      1374
 -1       230    8    0    1
 -2        39       196       197      1371      1375      1373
 -1       231    8    0    1
 -2        41        40       198      1148      1376      1377
 -1       232    8    0    1
 -2        40       197       198      1374      1378      1376
 -1       233    8    0    1
 -2        42        41       199      1149      1379      1380
 -1       234    8    0    1
 -2        41       198       199      1377      1381      1379
 -1       235    8    0    1
 -2        43        42       200      1150      1382      1383
 -1       236    8    0    1
 -2        42       199       200      1380      1384      1382
 -1       237    8    0    1
 -2        44        43       201      1151      1385      1386
 -1       238    8    0    1
 -2        43       200       201      1383      1387      1385
 -1       239    8    0    1
 -2        45        44       202      1152      1388      1389
 -1       240    8    0    1
 -2        44       201       202      1386      1390      1388
 -1       241    8    0    1
 -2        46        45       203      1153      1391      1392
 -1       242    8    0    1
 -2        45       202       203      1389      1393      1391
 -1       243    8    0    1
 -2        47        46       204      1154      1394      1395
 -1       244    8    0    1
 -2        46       203       204      1392      1396      1394
 -1       245    8    0    1
 -2        48        47       205      1155      1397      1398
 -1       246    8    0    1
 -2        47       204       205      1395      1399      1397
 -1       247    8    0    1
 -2        49        48       206      1156      1400      1401
 -1       248    8    0    1
 -2        48       205       206      1398      1402      1400
 -1       249    8    0    1
 -2        50        49       207      1157      1403      1404
 -1       250    8    0    1
 -2        49       206       207      1401      1405      1403
 -1       251    8    0    1
 -2        51        50       208      1158      1406      1407
 -1       252    8    0    1
 -2        50       207       208      1404      1408      1406
 -1       253    8    0    1
 -2        52        51       209      1159      1409      1410
 -1       254    8    0    1
 -2        51       208       209      1407      1411      1409
 -1       255    8    0    1
 -2        53        52       210      1160      1412      1413
 -1       256    8    0    1
 -2        52       209       210      1410      1414      1412
 -1       257    8    0    1
 -2        55        54       211      1162      1415      1416
 -1       258    8    0    1
 -2        56        55       212      1163      1417      1418
 -1       259    8    0    1
 -2        55       211       212      1416      1419      1417
 -1       260    8    0    1
 -2        57        56       213      1164      1420      1421
 -1       261    8    0    1
 -2        56       212       213      1418      1422      1420
 -1       262    8    0    1
 -2        58        57       214      1165      1423      1424
 -1       263    8    0    1
 -2        57       213       214      1421      1425      1423
 -1       264    8    0    1
 -2        59        58       215      1166      1426      1427
 -1       265    8    0    1
 -2        58       214       215      1424      1428      1426
 -1       266    8    0    1
 -2        60        59       216      1167      1429      1430
 -1       267    8    0    1
 -2        59       215       216      1427      1431      1429
 -1       268    8    0    1
 -2        61        60       217      1168      1432      1433
 -1       269    8    0    1
 -2        60       216       217      1430      1434      1432
 -1       270    8    0    1
 -2        62        61       218      1169      1435      1436
 -1       271    8    0    1
 -2        61       217       218      1433      1437      1435
 -1       272    8    0    1
 -2        63        62       219      1170      1438      1439
 -1       273    8    0    1
 -2        62       218       219      1436      1440      1438
 -1       274    8    0    1
 -2        64        63       220      1171      1441      1442
 -1       275    8    0    1
 -2        63       219       220      1439      1443      1441
 -1       276    8    0    1
 -2        65        64       221      1172      1444      1445
 -1       277    8    0    1
 -2        64       220       221      1442      1446      1444
 -1       278    8    0    1
 -2        66        65       222      1173      1447      1448
 -1       279    8    0    1
 -2        65       221       222      1445      1449      1447
 -1       280    8    0    1
 -2        67        66       223      1174      1450      1451
 -1       281    8    0    1
 -2        66       222       223      1448      1452      1450
 -1       282    8    0    1
 -2        68        67       224      1175      1453      1454
 -1       283    8    0    1
 -2        67       223       224      1451      1455      1453
 -1       284    8    0    1
 -2        69        68       225      1176      1456      1457
 -1       285    8    0    1
 -2        68       224       225      1454      1458      1456
 -1       286    8    0    1
 -2        70        69       226      1177      1459      1460
 -1       287    8    0    1
 -2        69       225       226      1457      1461      1459
 -1       288    8    0    1
 -2        71        70       227      1178      1462      1463
 -1       289    8    0    1
 -2        70       226       227      1460      1464      1462
 -1       290    8    0    1
 -2        72        71       228      1179      1465      1466
 -1       291    8    0    1
 -2        71       227       228      1463      1467      1465
 -1       292    8    0    1
 -2         4        72       229      1180      1468      1469
 -1       293    8    0    1
 -2       137         4       229      1247      1469      1470
 -1       294    8    0    1
 -2        72       228       229      1466      1471      1468
 -1       295    8    0    1
 -2        73        74       230      1182      1472      1473
 -1       296    8    0    1
 -2        73       230       180      1473      1474      1325
 -1       297    8    0    1
 -2        74        75       231      1183      1475      1476
 -1       298    8    0    1
 -2        74       231       230      1476      1477      1472
 -1       299    8    0    1
 -2        75        76       232      1184      1478      1479
 -1       300    8    0    1
 -2        75       232       231      1479      1480      1475
 -1       301    8    0    1
 -2        76        77       233      1185      1481      1482
 -1       302    8    0    1
 -2        76       233       232      1482      1483      1478
 -1       303    8    0    1
 -2        77        78       234      1186      1484      1485
 -1       304    8    0    1
 -2        77       234       233      1485      1486      1481
 -1       305    8    0    1
 -2        78        79       235      1187      1487      1488
 -1       306    8    0    1
 -2        78       235       234      1488      1489      1484
 -1       307    8    0    1
 -2        79        80       236      1188      1490      1491
 -1       308    8    0    1
 -2        79       236       235      1491      1492      1487
 -1       309    8    0    1
 -2        80        81       237      1189      1493      1494
 -1       310    8    0    1
 -2        80       237       236      1494      1495      1490
 -1       311    8    0    1
 -2        81        82       238      1190      1496      1497
 -1       312    8    0    1
 -2        81       238       237      1497      1498      1493
 -1       313    8    0    1
 -2        82        83       239      1191      1499      1500
 -1       314    8    0    1
 -2        82       239       238      1500      1501      1496
 -1       315    8    0    1
 -2        83        84       240      1192      1502      1503
 -1       316    8    0    1
 -2        83       240       239      1503      1504      1499
 -1       317    8    0    1
 -2        84        85       241      1193      1505      1506
 -1       318    8    0    1
 -2        84       241       240      1506      1507      1502
 -1       319    8    0    1
 -2        85        86       242      1194      1508      1509
 -1       320    8    0    1
 -2        85       242       241      1509      1510      1505
 -1       321    8    0    1
 -2        86        87       243      1195      1511      1512
 -1       322    8    0    1
 -2        86       243       242      1512      1513      1508
 -1       323    8    0    1
 -2        87        88       244      1196      1514      1515
 -1       324    8    0    1
 -2        87       244       243      1515      1516      1511
 -1       325    8    0    1
 -2        88        89       245      1197      1517      1518
 -1       326    8    0    1
 -2        88       245       244      1518      1519      1514
 -1       327    8    0    1
 -2        89        90       246      1198      1520      1521
 -1       328    8    0    1
 -2        89       246       245      1521      1522      1517
 -1       329    8    0    1
 -2        90        91       247      1199      1523      1524
 -1       330    8    0    1
 -2        90       247       246      1524      1525      1520
 -1       331    8    0    1
 -2        91        92       248      1200      1526      1527
 -1       332    8    0    1
 -2        91       248       247      1527      1528      1523
 -1       333    8    0    1
 -2        92        93       249      1201      1529      1530
 -1       334    8    0    1
 -2        92       249       248      1530      1531      1526
 -1       335    8    0    1
 -2        93        94       250      1202      1532      1533
 -1       336    8    0    1
 -2        93       250       249      1533      1534      1529
 -1       337    8    0    1
 -2        94        95       251      1203      1535      1536
 -1       338    8    0    1
 -2        94       251       250      1536      1537      1532
 -1       339    8    0    1
 -2        95        96       252      1204      1538      1539
 -1       340    8    0    1
 -2        95       252       251      1539      1540      1535
 -1       341    8    0    1
 -2        96        97       253      1205      1541      1542
 -1       342    8    0    1
 -2        96       253       252      1542      1543      1538
 -1       343    8    0    1
 -2        97        98       254      1206      1544      1545
 -1       344    8    0    1
 -2        97       254       253      1545      1546      1541
 -1       345    8    0    1
 -2        98        99       255      1207      1547      1548
 -1       346    8    0    1
 -2        98       255       254      1548      1549      1544
 -1       347    8    0    1
 -2        99       100       256      1208      1550      1551
 -1       348    8    0    1
 -2        99       256       255      1551      1552      1547
 -1       349    8    0    1
 -2       100       101       257      1209      1553      1554
 -1       350    8    0    1
 -2       100       257       256      1554      1555      1550
 -1       351    8    0    1
 -2       101       102       258      1210      1556      1557
 -1       352    8    0    1
 -2       101       258       257      1557      1558      1553
 -1       353    8    0    1
 -2       102       103       259      1211      1559      1560
 -1       354    8    0    1
 -2       102       259       258      1560      1561      1556
 -1       355    8    0    1
 -2       103       104       260      1212      1562      1563
 -1       356    8    0    1
 -2       103       260       259      1563      1564      1559
 -1       357    8    0    1
 -2       104       105       261      1213      1565      1566
 -1       358    8    0    1
 -2       104       261       260      1566      1567      1562
 -1       359    8    0    1
 -2       105       106       262      1214      1568      1569
 -1       360    8    0    1
 -2       105       262       261      1569      1570      1565
 -1       361    8    0    1
 -2       106       107       263      1215      1571      1572
 -1       362    8    0    1
 -2       106       263       262      1572      1573      1568
 -1       363    8    0    1
 -2       107       108       264      1216      1574      1575
 -1       364    8    0    1
 -2       107       264       263      1575      1576      1571
 -1       365    8    0    1
 -2       108       109       265      1217      1577      1578
 -1       366    8    0    1
 -2       108       265       264      1578      1579      1574
 -1       367    8    0    1
 -2       109       110       266      1218      1580      1581
 -1       368    8    0    1
 -2       109       266       265      1581      1582      1577
 -1       369    8    0    1
 -2       110       111       267      1219      1583      1584
 -1       370    8    0    1
 -2       110       267       266      1584      1585      1580
 -1       371    8    0    1
 -2       111       112       268      1220      1586      1587
 -1       372    8    0    1
 -2       111       268       267      1587      1588      1583
 -1       373    8    0    1
 -2       112       113       269      1221      1589      1590
 -1       374    8    0    1
 -2       112       269       268      1590      1591      1586
 -1       375    8    0    1
 -2       113       114       270      1222      1592      1593
 -1       376    8    0    1
 -2       113       270       269      1593      1594      1589
 -1       377    8    0    1
 -2       114       115       271      1223      1595      1596
 -1       378    8    0    1
 -2       114       271       270      1596      1597      1592
 -1       379    8    0    1
 -2       115       116       272      1224      1598      1599
 -1       380    8    0    1
 -2       115       272       271      1599      1600      1595
 -1       381    8    0    1
 -2       116       117       273      1225      1601      1602
 -1       382    8    0    1
 -2       116       273       272      1602      1603      1598
 -1       383    8    0    1
 -2       117       118       274      1226      1604      1605
 -1       384    8    0    1
 -2       117       274       273      1605      1606      1601
 -1       385    8    0    1
 -2       118       119       275      1227      1607      1608
 -1       386    8    0    1
 -2       118       275       274      1608      1609      1604
 -1       387    8    0    1
 -2       119       120       276      1228      1610      1611
 -1       388    8    0    1
 -2       119       276       275      1611      1612      1607
 -1       389    8    0    1
 -2       120       121       277      1229      1613      1614
 -1       390    8    0    1
 -2       120       277       276      1614      1615      1610
 -1       391    8    0    1
 -2       121         3       122      1230      1231      1616
 -1       392    8    0    1
 -2       122       123       278      1232      1617      1618
 -1       393    8    0    1
 -2       123       124       279      1233      1619      1620
 -1       394    8    0    1
 -2       123       279       278      1620      1621      1617
 -1       395    8    0    1
 -2       124       125       280      1234      1622      1623
 -1       396    8    0    1
 -2       124       280       279      1623      1624      1619
 -1       397    8    0    1
 -2       125       126       281      1235      1625      1626
 -1       398    8    0    1
 -2       125       281       280      1626      1627      1622
 -1       399    8    0    1
 -2       126       127       282      1236      1628      1629
 -1       400    8    0    1
 -2       126       282       281      1629      1630      1625
 -1       401    8    0    1
 -2       127       128       283      1237      1631      1632
 -1       402    8    0    1
 -2       127       283       282      1632      1633      1628
 -1       403    8    0    1
 -2       128       129       284      1238      1634      1635
 -1       404    8    0    1
 -2       128       284       283      1635      1636      1631
 -1       405    8    0    1
 -2       129       130       285      1239      1637      1638
 -1       406    8    0    1
 -2       129       285       284      1638      1639      1634
 -1       407    8    0    1
 -2       130       131       286      1240      1640      1641
 -1       408    8    0    1
 -2       130       286       285      1641      1642      1637
 -1       409    8    0    1
 -2       131       132       287      1241      1643      1644
 -1       410    8    0    1
 -2       131       287       286      1644      1645      1640
 -1       411    8    0    1
 -2       132       133       288      1242      1646      1647
 -1       412    8    0    1
 -2       132       288       287      1647      1648      1643
 -1       413    8    0    1
 -2       133       134       289      1243      1649      1650
 -1       414    8    0    1
 -2       133       289       288      1650      1651      1646
 -1       415    8    0    1
 -2       134       135       290      1244      1652      1653
 -1       416    8    0    1
 -2       134       290       289      1653      1654      1649
 -1       417    8    0    1
 -2       135       136       291      1245      1655      1656
 -1       418    8    0    1
 -2       135       291       290      1656      1657      1652
 -1       419    8    0    1
 -2       136       137       292      1246      1658      1659
 -1       420    8    0    1
 -2       291       136       292      1655      1659      1660
 -1       421    8    0    1
 -2       137       229       292      1470      1661      1658
 -1       422    8    0    1
 -2         2       138       293      1248      1662      1663
 -1       423    8    0    1
 -2       138       139       294      1249      1664      1665
 -1       424    8    0    1
 -2       139       140       295      1250      1666      1667
 -1       425    8    0    1
 -2       140       141       296      1251      1668      1669
 -1       426    8    0    1
 -2       141       142       297      1252      1670      1671
 -1       427    8    0    1
 -2       142       143       298      1253      1672      1673
 -1       428    8    0    1
 -2       143       144       299      1254      1674      1675
 -1       429    8    0    1
 -2       144       145       300      1255      1676      1677
 -1       430    8    0    1
 -2       145       146       301      1256      1678      1679
 -1       431    8    0    1
 -2       146       147       302      1257      1680      1681
 -1       432    8    0    1
 -2       147       148       303      1258      1682      1683
 -1       433    8    0    1
 -2       148       149       304      1259      1684      1685
 -1       434    8    0    1
 -2       149       150       305      1260      1686      1687
 -1       435    8    0    1
 -2       150       151       306      1261      1688      1689
 -1       436    8    0    1
 -2       151       152       307      1262      1690      1691
 -1       437    8    0    1
 -2       152         1       308      1263      1692      1693
 -1       438    8    0    1
 -2         1       153       309      1264      1694      1695
 -1       439    8    0    1
 -2       153       154       310      1265      1696      1697
 -1       440    8    0    1
 -2       154       155       311      1266      1698      1699
 -1       441    8    0    1
 -2       155       156       312      1267      1700      1701
 -1       442    8    0    1
 -2       156       157       313      1268      1702      1703
 -1       443    8    0    1
 -2       157       158       314      1269      1704      1705
 -1       444    8    0    1
 -2       158       159       315      1270      1706      1707
 -1       445    8    0    1
 -2       159       160       316      1271      1708      1709
 -1       446    8    0    1
 -2       160       161       317      1272      1710      1711
 -1       447    8    0    1
 -2       161       162       318      1273      1712      1713
 -1       448    8    0    1
 -2       162       163       319      1274      1714      1715
 -1       449    8    0    1
 -2       163       164       320      1275      1716      1717
 -1       450    8    0    1
 -2       164         2       321      1276      1718      1719
 -1       451    8    0    1
 -2       211        54       322      1415      1720      1721
 -1       452    8    0    1
 -2        54        53       322      1161      1722      1720
 -1       453    8    0    1
 -2       295       140       296      1666      1669      1723
 -1       454    8    0    1
 -2         2       293       321      1663      1724      1718
 -1       455    8    0    1
 -2       121       122       277      1616      1725      1613
 -1       456    8    0    1
 -2       122       278       277      1618      1726      1725
 -1       457    8    0    1
 -2       293       138       294      1662      1665      1727
 -1       458    8    0    1
 -2       294       139       295      1664      1667      1728
 -1       459    8    0    1
 -2       141       297       296      1671      1729      1668
 -1       460    8    0    1
 -2       142       298       297      1673      1730      1670
 -1       461    8    0    1
 -2       143       299       298      1675      1731      1672
 -1       462    8    0    1
 -2       144       300       299      1677      1732      1674
 -1       463    8    0    1
 -2       145       301       300      1679      1733      1676
 -1       464    8    0    1
 -2       146       302       301      1681      1734      1678
 -1       465    8    0    1
 -2       147       303       302      1683      1735      1680
 -1       466    8    0    1
 -2       148       304       303      1685      1736      1682
 -1       467    8    0    1
 -2       149       305       304      1687      1737      1684
 -1       468    8    0    1
 -2       150       306       305      1689      1738      1686
 -1       469    8    0    1
 -2       151       307       306      1691      1739      1688
 -1       470    8    0    1
 -2       152       308       307      1693      1740      1690
 -1       471    8    0    1
 -2         1       309       308      1695      1741      1692
 -1       472    8    0    1
 -2       153       310       309      1697      1742      1694
 -1       473    8    0    1
 -2       154       311       310      1699      1743      1696
 -1       474    8    0    1
 -2       155       312       311      1701      1744      1698
 -1       475    8    0    1
 -2       156       313       312      1703      1745      1700
 -1       476    8    0    1
 -2       157       314       313      1705      1746      1702
 -1       477    8    0    1
 -2       158       315       314      1707      1747      1704
 -1       478    8    0    1
 -2       159       316       315      1709      1748      1706
 -1       479    8    0    1
 -2       160       317       316      1711      1749      1708
 -1       480    8    0    1
 -2       161       318       317      1713      1750      1710
 -1       481    8    0    1
 -2       162       319       318      1715      1751      1712
 -1       482    8    0    1
 -2       163       320       319      1717      1752      1714
 -1       483    8    0    1
 -2       164       321       320      1719      1753      1716
 -1       484    8    0    1
 -2        23         7       165      1277      1279      1754
 -1       485    8    0    1
 -2       322        53       210      1722      1413      1755
 -1       486    8    0    1
 -2       166       167       323      1285      1756      1757
 -1       487    8    0    1
 -2       165       166       324      1282      1758      1759
 -1       488    8    0    1
 -2       166       323       324      1757      1760      1758
 -1       489    8    0    1
 -2       168       169       325      1291      1761      1762
 -1       490    8    0    1
 -2       169       170       326      1294      1763      1764
 -1       491    8    0    1
 -2       169       326       325      1764      1765      1761
 -1       492    8    0    1
 -2       170       171       327      1297      1766      1767
 -1       493    8    0    1
 -2       170       327       326      1767      1768      1763
 -1       494    8    0    1
 -2       171       172       328      1300      1769      1770
 -1       495    8    0    1
 -2       171       328       327      1770      1771      1766
 -1       496    8    0    1
 -2       172       173       329      1303      1772      1773
 -1       497    8    0    1
 -2       172       329       328      1773      1774      1769
 -1       498    8    0    1
 -2       173       174       330      1306      1775      1776
 -1       499    8    0    1
 -2       173       330       329      1776      1777      1772
 -1       500    8    0    1
 -2       174       175       331      1309      1778      1779
 -1       501    8    0    1
 -2       174       331       330      1779      1780      1775
 -1       502    8    0    1
 -2       175       176       332      1312      1781      1782
 -1       503    8    0    1
 -2       175       332       331      1782      1783      1778
 -1       504    8    0    1
 -2       176       177       333      1315      1784      1785
 -1       505    8    0    1
 -2       176       333       332      1785      1786      1781
 -1       506    8    0    1
 -2       177       178       334      1318      1787      1788
 -1       507    8    0    1
 -2       177       334       333      1788      1789      1784
 -1       508    8    0    1
 -2       178       179       335      1321      1790      1791
 -1       509    8    0    1
 -2       178       335       334      1791      1792      1787
 -1       510    8    0    1
 -2       179       180       336      1324      1793      1794
 -1       511    8    0    1
 -2       335       179       336      1790      1794      1795
 -1       512    8    0    1
 -2       180       230       336      1474      1796      1793
 -1       513    8    0    1
 -2       181        23       165      1326      1754      1797
 -1       514    8    0    1
 -2       230       231       337      1477      1798      1799
 -1       515    8    0    1
 -2       230       337       336      1799      1800      1796
 -1       516    8    0    1
 -2       322       210       338      1755      1801      1802
 -1       517    8    0    1
 -2       183       182       339      1333      1803      1804
 -1       518    8    0    1
 -2       184       183       340      1336      1805      1806
 -1       519    8    0    1
 -2       183       339       340      1804      1807      1805
 -1       520    8    0    1
 -2       185       184       341      1339      1808      1809
 -1       521    8    0    1
 -2       184       340       341      1806      1810      1808
 -1       522    8    0    1
 -2       186       185       342      1342      1811      1812
 -1       523    8    0    1
 -2       185       341       342      1809      1813      1811
 -1       524    8    0    1
 -2       187       186       343      1345      1814      1815
 -1       525    8    0    1
 -2       186       342       343      1812      1816      1814
 -1       526    8    0    1
 -2       188       187       344      1348      1817      1818
 -1       527    8    0    1
 -2       187       343       344      1815      1819      1817
 -1       528    8    0    1
 -2       189       188       345      1351      1820      1821
 -1       529    8    0    1
 -2       188       344       345      1818      1822      1820
 -1       530    8    0    1
 -2       190       189       346      1354      1823      1824
 -1       531    8    0    1
 -2       189       345       346      1821      1825      1823
 -1       532    8    0    1
 -2       191       190       347      1357      1826      1827
 -1       533    8    0    1
 -2       190       346       347      1824      1828      1826
 -1       534    8    0    1
 -2       192       191       348      1360      1829      1830
 -1       535    8    0    1
 -2       191       347       348      1827      1831      1829
 -1       536    8    0    1
 -2       193       192       349      1363      1832      1833
 -1       537    8    0    1
 -2       192       348       349      1830      1834      1832
 -1       538    8    0    1
 -2       194       193       350      1366      1835      1836
 -1       539    8    0    1
 -2       193       349       350      1833      1837      1835
 -1       540    8    0    1
 -2       195       194       351      1369      1838      1839
 -1       541    8    0    1
 -2       194       350       351      1836      1840      1838
 -1       542    8    0    1
 -2       196       195       352      1372      1841      1842
 -1       543    8    0    1
 -2       195       351       352      1839      1843      1841
 -1       544    8    0    1
 -2       197       196       353      1375      1844      1845
 -1       545    8    0    1
 -2       196       352       353      1842      1846      1844
 -1       546    8    0    1
 -2       198       197       354      1378      1847      1848
 -1       547    8    0    1
 -2       197       353       354      1845      1849      1847
 -1       548    8    0    1
 -2       199       198       355      1381      1850      1851
 -1       549    8    0    1
 -2       198       354       355      1848      1852      1850
 -1       550    8    0    1
 -2       200       199       356      1384      1853      1854
 -1       551    8    0    1
 -2       199       355       356      1851      1855      1853
 -1       552    8    0    1
 -2       201       200       357      1387      1856      1857
 -1       553    8    0    1
 -2       200       356       357      1854      1858      1856
 -1       554    8    0    1
 -2       202       201       358      1390      1859      1860
 -1       555    8    0    1
 -2       201       357       358      1857      1861      1859
 -1       556    8    0    1
 -2       203       202       359      1393      1862      1863
 -1       557    8    0    1
 -2       202       358       359      1860      1864      1862
 -1       558    8    0    1
 -2       204       203       360      1396      1865      1866
 -1       559    8    0    1
 -2       203       359       360      1863      1867      1865
 -1       560    8    0    1
 -2       205       204       361      1399      1868      1869
 -1       561    8    0    1
 -2       204       360       361      1866      1870      1868
 -1       562    8    0    1
 -2       206       205       362      1402      1871      1872
 -1       563    8    0    1
 -2       205       361       362      1869      1873      1871
 -1       564    8    0    1
 -2       207       206       363      1405      1874      1875
 -1       565    8    0    1
 -2       206       362       363      1872      1876      1874
 -1       566    8    0    1
 -2       208       207       364      1408      1877      1878
 -1       567    8    0    1
 -2       207       363       364      1875      1879      1877
 -1       568    8    0    1
 -2       210       209       365      1414      1880      1881
 -1       569    8    0    1
 -2       295       296       366      1723      1882      1883
 -1       570    8    0    1
 -2       181       165       324      1797      1759      1884
 -1       571    8    0    1
 -2       213       212       367      1422      1885      1886
 -1       572    8    0    1
 -2       214       213       368      1425      1887      1888
 -1       573    8    0    1
 -2       213       367       368      1886      1889      1887
 -1       574    8    0    1
 -2       215       214       369      1428      1890      1891
 -1       575    8    0    1
 -2       214       368       369      1888      1892      1890
 -1       576    8    0    1
 -2       216       215       370      1431      1893      1894
 -1       577    8    0    1
 -2       215       369       370      1891      1895      1893
 -1       578    8    0    1
 -2       217       216       371      1434      1896      1897
 -1       579    8    0    1
 -2       216       370       371      1894      1898      1896
 -1       580    8    0    1
 -2       218       217       372      1437      1899      1900
 -1       581    8    0    1
 -2       217       371       372      1897      1901      1899
 -1       582    8    0    1
 -2       219       218       373      1440      1902      1903
 -1       583    8    0    1
 -2       218       372       373      1900      1904      1902
 -1       584    8    0    1
 -2       220       219       374      1443      1905      1906
 -1       585    8    0    1
 -2       219       373       374      1903      1907      1905
 -1       586    8    0    1
 -2       221       220       375      1446      1908      1909
 -1       587    8    0    1
 -2       220       374       375      1906      1910      1908
 -1       588    8    0    1
 -2       222       221       376      1449      1911      1912
 -1       589    8    0    1
 -2       221       375       376      1909      1913      1911
 -1       590    8    0    1
 -2       223       222       377      1452      1914      1915
 -1       591    8    0    1
 -2       222       376       377      1912      1916      1914
 -1       592    8    0    1
 -2       224       223       378      1455      1917      1918
 -1       593    8    0    1
 -2       223       377       378      1915      1919      1917
 -1       594    8    0    1
 -2       225       224       379      1458      1920      1921
 -1       595    8    0    1
 -2       224       378       379      1918      1922      1920
 -1       596    8    0    1
 -2       226       225       380      1461      1923      1924
 -1       597    8    0    1
 -2       225       379       380      1921      1925      1923
 -1       598    8    0    1
 -2       227       226       381      1464      1926      1927
 -1       599    8    0    1
 -2       226       380       381      1924      1928      1926
 -1       600    8    0    1
 -2       228       227       382      1467      1929      1930
 -1       601    8    0    1
 -2       227       381       382      1927      1931      1929
 -1       602    8    0    1
 -2       229       228       292      1471      1932      1661
 -1       603    8    0    1
 -2       232       233       383      1483      1933      1934
 -1       604    8    0    1
 -2       233       234       384      1486      1935      1936
 -1       605    8    0    1
 -2       233       384       383      1936      1937      1933
 -1       606    8    0    1
 -2       234       235       385      1489      1938      1939
 -1       607    8    0    1
 -2       234       385       384      1939      1940      1935
 -1       608    8    0    1
 -2       235       236       386      1492      1941      1942
 -1       609    8    0    1
 -2       235       386       385      1942      1943      1938
 -1       610    8    0    1
 -2       236       237       387      1495      1944      1945
 -1       611    8    0    1
 -2       236       387       386      1945      1946      1941
 -1       612    8    0    1
 -2       237       238       388      1498      1947      1948
 -1       613    8    0    1
 -2       237       388       387      1948      1949      1944
 -1       614    8    0    1
 -2       238       239       389      1501      1950      1951
 -1       615    8    0    1
 -2       238       389       388      1951      1952      1947
 -1       616    8    0    1
 -2       239       240       390      1504      1953      1954
 -1       617    8    0    1
 -2       239       390       389      1954      1955      1950
 -1       618    8    0    1
 -2       240       241       391      1507      1956      1957
 -1       619    8    0    1
 -2       240       391       390      1957      1958      1953
 -1       620    8    0    1
 -2       241       242       392      1510      1959      1960
 -1       621    8    0    1
 -2       241       392       391      1960      1961      1956
 -1       622    8    0    1
 -2       242       243       393      1513      1962      1963
 -1       623    8    0    1
 -2       242       393       392      1963      1964      1959
 -1       624    8    0    1
 -2       243       244       394      1516      1965      1966
 -1       625    8    0    1
 -2       243       394       393      1966      1967      1962
 -1       626    8    0    1
 -2       244       245       395      1519      1968      1969
 -1       627    8    0    1
 -2       244       395       394      1969      1970      1965
 -1       628    8    0    1
 -2       245       246       396      1522      1971      1972
 -1       629    8    0    1
 -2       245       396       395      1972      1973      1968
 -1       630    8    0    1
 -2       246       247       397      1525      1974      1975
 -1       631    8    0    1
 -2       246       397       396      1975      1976      1971
 -1       632    8    0    1
 -2       247       248       398      1528      1977      1978
 -1       633    8    0    1
 -2       247       398       397      1978      1979      1974
 -1       634    8    0    1
 -2       248       249       399      1531      1980      1981
 -1       635    8    0    1
 -2       248       399       398      1981      1982      1977
 -1       636    8    0    1
 -2       249       250       400      1534      1983      1984
 -1       637    8    0    1
 -2       249       400       399      1984      1985      1980
 -1       638    8    0    1
 -2       250       251       401      1537      1986      1987
 -1       639    8    0    1
 -2       250       401       400      1987      1988      1983
 -1       640    8    0    1
 -2       251       252       402      1540      1989      1990
 -1       641    8    0    1
 -2       251       402       401      1990      1991      1986
 -1       642    8    0    1
 -2       252       253       403      1543      1992      1993
 -1       643    8    0    1
 -2       252       403       402      1993      1994      1989
 -1       644    8    0    1
 -2       253       254       404      1546      1995      1996
 -1       645    8    0    1
 -2       253       404       403      1996      1997      1992
 -1       646    8    0    1
 -2       254       255       405      1549      1998      1999
 -1       647    8    0    1
 -2       254       405       404      1999      2000      1995
 -1       648    8    0    1
 -2       255       256       406      1552      2001      2002
 -1       649    8    0    1
 -2       255       406       405      2002      2003      1998
 -1       650    8    0    1
 -2       256       257       407      1555      2004      2005
 -1       651    8    0    1
 -2       256       407       406      2005      2006      2001
 -1       652    8    0    1
 -2       257       258       408      1558      2007      2008
 -1       653    8    0    1
 -2       257       408       407      2008      2009      2004
 -1       654    8    0    1
 -2       258       259       409      1561      2010      2011
 -1       655    8    0    1
 -2       258       409       408      2011      2012      2007
 -1       656    8    0    1
 -2       259       260       410      1564      2013      2014
 -1       657    8    0    1
 -2       259       410       409      2014      2015      2010
 -1       658    8    0    1
 -2       260       261       411      1567      2016      2017
 -1       659    8    0    1
 -2       260       411       410      2017      2018      2013
 -1       660    8    0    1
 -2       261       262       412      1570      2019      2020
 -1       661    8    0    1
 -2       261       412       411      2020      2021      2016
 -1       662    8    0    1
 -2       262       263       413      1573      2022      2023
 -1       663    8    0    1
 -2       262       413       412      2023      2024      2019
 -1       664    8    0    1
 -2       263       264       414      1576      2025      2026
 -1       665    8    0    1
 -2       263       414       413      2026      2027      2022
 -1       666    8    0    1
 -2       264       265       415      1579      2028      2029
 -1       667    8    0    1
 -2       264       415       414      2029      2030      2025
 -1       668    8    0    1
 -2       265       266       416      1582      2031      2032
 -1       669    8    0    1
 -2       265       416       415      2032      2033      2028
 -1       670    8    0    1
 -2       266       267       417      1585      2034      2035
 -1       671    8    0    1
 -2       266       417       416      2035      2036      2031
 -1       672    8    0    1
 -2       267       268       418      1588      2037      2038
 -1       673    8    0    1
 -2       267       418       417      2038      2039      2034
 -1       674    8    0    1
 -2       268       269       419      1591      2040      2041
 -1       675    8    0    1
 -2       268       419       418      2041      2042      2037
 -1       676    8    0    1
 -2       269       270       420      1594      2043      2044
 -1       677    8    0    1
 -2       269       420       419      2044      2045      2040
 -1       678    8    0    1
 -2       270       271       421      1597      2046      2047
 -1       679    8    0    1
 -2       270       421       420      2047      2048      2043
 -1       680    8    0    1
 -2       271       272       422      1600      2049      2050
 -1       681    8    0    1
 -2       271       422       421      2050      2051      2046
 -1       682    8    0    1
 -2       272       273       423      1603      2052      2053
 -1       683    8    0    1
 -2       272       423       422      2053      2054      2049
 -1       684    8    0    1
 -2       273       274       424      1606      2055      2056
 -1       685    8    0    1
 -2       273       424       423      2056      2057      2052
 -1       686    8    0    1
 -2       274       275       425      1609      2058      2059
 -1       687    8    0    1
 -2       274       425       424      2059      2060      2055
 -1       688    8    0    1
 -2       275       276       426      1612      2061      2062
 -1       689    8    0    1
 -2       275       426       425      2062      2063      2058
 -1       690    8    0    1
 -2       276       277       427      1615      2064      2065
 -1       691    8    0    1
 -2       426       276       427      2061      2065      2066
 -1       692    8    0    1
 -2       277       278       427      1726      2067      2064
 -1       693    8    0    1
 -2       280       281       428      1627      2068      2069
 -1       694    8    0    1
 -2       279       280       429      1624      2070      2071
 -1       695    8    0    1
 -2       280       428       429      2069      2072      2070
 -1       696    8    0    1
 -2       278       279       427      1621      2073      2067
 -1       697    8    0    1
 -2       281       282       430      1630      2074      2075
 -1       698    8    0    1
 -2       281       430       428      2075      2076      2068
 -1       699    8    0    1
 -2       282       283       431      1633      2077      2078
 -1       700    8    0    1
 -2       282       431       430      2078      2079      2074
 -1       701    8    0    1
 -2       283       284       432      1636      2080      2081
 -1       702    8    0    1
 -2       283       432       431      2081      2082      2077
 -1       703    8    0    1
 -2       284       285       433      1639      2083      2084
 -1       704    8    0    1
 -2       284       433       432      2084      2085      2080
 -1       705    8    0    1
 -2       285       286       434      1642      2086      2087
 -1       706    8    0    1
 -2       285       434       433      2087      2088      2083
 -1       707    8    0    1
 -2       286       287       435      1645      2089      2090
 -1       708    8    0    1
 -2       286       435       434      2090      2091      2086
 -1       709    8    0    1
 -2       287       288       436      1648      2092      2093
 -1       710    8    0    1
 -2       287       436       435      2093      2094      2089
 -1       711    8    0    1
 -2       288       289       437      1651      2095      2096
 -1       712    8    0    1
 -2       288       437       436      2096      2097      2092
 -1       713    8    0    1
 -2       289       290       438      1654      2098      2099
 -1       714    8    0    1
 -2       289       438       437      2099      2100      2095
 -1       715    8    0    1
 -2       290       291       439      1657      2101      2102
 -1       716    8    0    1
 -2       290       439       438      2102      2103      2098
 -1       717    8    0    1
 -2       231       232       440      1480      2104      2105
 -1       718    8    0    1
 -2       337       231       440      1798      2105      2106
 -1       719    8    0    1
 -2       232       383       440      1934      2107      2104
 -1       720    8    0    1
 -2       294       295       441      1728      2108      2109
 -1       721    8    0    1
 -2       296       297       442      1729      2110      2111
 -1       722    8    0    1
 -2       321       293       443      1724      2112      2113
 -1       723    8    0    1
 -2       211       322       444      1721      2114      2115
 -1       724    8    0    1
 -2       322       338       444      1802      2116      2114
 -1       725    8    0    1
 -2       167       168       445      1288      2117      2118
 -1       726    8    0    1
 -2       323       167       445      1756      2118      2119
 -1       727    8    0    1
 -2       168       325       445      1762      2120      2117
 -1       728    8    0    1
 -2       212       211       446      1419      2121      2122
 -1       729    8    0    1
 -2       212       446       367      2122      2123      1885
 -1       730    8    0    1
 -2       297       298       447      1730      2124      2125
 -1       731    8    0    1
 -2       298       299       448      1731      2126      2127
 -1       732    8    0    1
 -2       298       448       447      2127      2128      2124
 -1       733    8    0    1
 -2       299       300       449      1732      2129      2130
 -1       734    8    0    1
 -2       300       301       450      1733      2131      2132
 -1       735    8    0    1
 -2       301       302       451      1734      2133      2134
 -1       736    8    0    1
 -2       302       303       452      1735      2135      2136
 -1       737    8    0    1
 -2       303       304       453      1736      2137      2138
 -1       738    8    0    1
 -2       304       305       454      1737      2139      2140
 -1       739    8    0    1
 -2       305       306       455      1738      2141      2142
 -1       740    8    0    1
 -2       306       307       456      1739      2143      2144
 -1       741    8    0    1
 -2       307       308       457      1740      2145      2146
 -1       742    8    0    1
 -2       308       309       458      1741      2147      2148
 -1       743    8    0    1
 -2       309       310       459      1742      2149      2150
 -1       744    8    0    1
 -2       310       311       460      1743      2151      2152
 -1       745    8    0    1
 -2       311       312       461      1744      2153      2154
 -1       746    8    0    1
 -2       312       313       462      1745      2155      2156
 -1       747    8    0    1
 -2       313       314       365      1746      2157      2158
 -1       748    8    0    1
 -2       314       315       338      1747      2159      2160
 -1       749    8    0    1
 -2       315       316       444      1748      2161      2162
 -1       750    8    0    1
 -2       316       317       463      1749      2163      2164
 -1       751    8    0    1
 -2       317       318       464      1750      2165      2166
 -1       752    8    0    1
 -2       318       319       465      1751      2167      2168
 -1       753    8    0    1
 -2       319       320       466      1752      2169      2170
 -1       754    8    0    1
 -2       320       321       467      1753      2171      2172
 -1       755    8    0    1
 -2       293       294       468      1727      2173      2174
 -1       756    8    0    1
 -2       294       441       468      2109      2175      2173
 -1       757    8    0    1
 -2       292       228       382      1932      1930      2176
 -1       758    8    0    1
 -2       339       182       324      1803      2177      2178
 -1       759    8    0    1
 -2       441       295       469      2108      2179      2180
 -1       760    8    0    1
 -2       295       366       469      1883      2181      2179
 -1       761    8    0    1
 -2       338       210       365      1801      1881      2182
 -1       762    8    0    1
 -2       182       181       324      1330      1884      2177
 -1       763    8    0    1
 -2       208       364       461      1878      2183      2184
 -1       764    8    0    1
 -2       297       447       442      2125      2185      2110
 -1       765    8    0    1
 -2       427       279       429      2073      2071      2186
 -1       766    8    0    1
 -2       443       293       468      2112      2174      2187
 -1       767    8    0    1
 -2       291       292       470      1660      2188      2189
 -1       768    8    0    1
 -2       439       291       470      2101      2189      2190
 -1       769    8    0    1
 -2       292       382       470      2176      2191      2188
 -1       770    8    0    1
 -2       296       442       366      2111      2192      1882
 -1       771    8    0    1
 -2       321       443       467      2113      2193      2171
 -1       772    8    0    1
 -2       211       444       446      2115      2194      2121
 -1       773    8    0    1
 -2       466       320       467      2169      2172      2195
 -1       774    8    0    1
 -2       465       319       471      2167      2196      2197
 -1       775    8    0    1
 -2       319       466       471      2170      2198      2196
 -1       776    8    0    1
 -2       464       318       465      2165      2168      2199
 -1       777    8    0    1
 -2       463       317       464      2163      2166      2200
 -1       778    8    0    1
 -2       338       315       444      2159      2162      2116
 -1       779    8    0    1
 -2       365       314       338      2157      2160      2182
 -1       780    8    0    1
 -2       462       313       365      2155      2158      2201
 -1       781    8    0    1
 -2       461       312       462      2153      2156      2202
 -1       782    8    0    1
 -2       460       311       461      2151      2154      2203
 -1       783    8    0    1
 -2       459       310       460      2149      2152      2204
 -1       784    8    0    1
 -2       458       309       459      2147      2150      2205
 -1       785    8    0    1
 -2       457       308       458      2145      2148      2206
 -1       786    8    0    1
 -2       456       307       457      2143      2146      2207
 -1       787    8    0    1
 -2       455       306       456      2141      2144      2208
 -1       788    8    0    1
 -2       454       305       455      2139      2142      2209
 -1       789    8    0    1
 -2       453       304       454      2137      2140      2210
 -1       790    8    0    1
 -2       452       303       453      2135      2138      2211
 -1       791    8    0    1
 -2       451       302       452      2133      2136      2212
 -1       792    8    0    1
 -2       450       301       451      2131      2134      2213
 -1       793    8    0    1
 -2       448       299       472      2126      2214      2215
 -1       794    8    0    1
 -2       299       449       472      2130      2216      2214
 -1       795    8    0    1
 -2       449       300       450      2129      2132      2217
 -1       796    8    0    1
 -2       326       327       473      1768      2218      2219
 -1       797    8    0    1
 -2       325       326       474      1765      2220      2221
 -1       798    8    0    1
 -2       326       473       474      2219      2222      2220
 -1       799    8    0    1
 -2       328       329       475      1774      2223      2224
 -1       800    8    0    1
 -2       329       330       476      1777      2225      2226
 -1       801    8    0    1
 -2       329       476       475      2226      2227      2223
 -1       802    8    0    1
 -2       330       331       477      1780      2228      2229
 -1       803    8    0    1
 -2       330       477       476      2229      2230      2225
 -1       804    8    0    1
 -2       331       332       478      1783      2231      2232
 -1       805    8    0    1
 -2       331       478       477      2232      2233      2228
 -1       806    8    0    1
 -2       332       333       479      1786      2234      2235
 -1       807    8    0    1
 -2       332       479       478      2235      2236      2231
 -1       808    8    0    1
 -2       333       334       480      1789      2237      2238
 -1       809    8    0    1
 -2       333       480       479      2238      2239      2234
 -1       810    8    0    1
 -2       334       335       481      1792      2240      2241
 -1       811    8    0    1
 -2       334       481       480      2241      2242      2237
 -1       812    8    0    1
 -2       335       336       482      1795      2243      2244
 -1       813    8    0    1
 -2       481       335       482      2240      2244      2245
 -1       814    8    0    1
 -2       336       337       482      1800      2246      2243
 -1       815    8    0    1
 -2       340       339       483      1807      2247      2248
 -1       816    8    0    1
 -2       442       447       484      2185      2249      2250
 -1       817    8    0    1
 -2       341       340       485      1810      2251      2252
 -1       818    8    0    1
 -2       340       483       485      2248      2253      2251
 -1       819    8    0    1
 -2       342       341       486      1813      2254      2255
 -1       820    8    0    1
 -2       341       485       486      2252      2256      2254
 -1       821    8    0    1
 -2       343       342       487      1816      2257      2258
 -1       822    8    0    1
 -2       342       486       487      2255      2259      2257
 -1       823    8    0    1
 -2       344       343       488      1819      2260      2261
 -1       824    8    0    1
 -2       343       487       488      2258      2262      2260
 -1       825    8    0    1
 -2       345       344       489      1822      2263      2264
 -1       826    8    0    1
 -2       344       488       489      2261      2265      2263
 -1       827    8    0    1
 -2       346       345       490      1825      2266      2267
 -1       828    8    0    1
 -2       345       489       490      2264      2268      2266
 -1       829    8    0    1
 -2       347       346       491      1828      2269      2270
 -1       830    8    0    1
 -2       346       490       491      2267      2271      2269
 -1       831    8    0    1
 -2       348       347       492      1831      2272      2273
 -1       832    8    0    1
 -2       347       491       492      2270      2274      2272
 -1       833    8    0    1
 -2       349       348       493      1834      2275      2276
 -1       834    8    0    1
 -2       348       492       493      2273      2277      2275
 -1       835    8    0    1
 -2       350       349       494      1837      2278      2279
 -1       836    8    0    1
 -2       349       493       494      2276      2280      2278
 -1       837    8    0    1
 -2       351       350       495      1840      2281      2282
 -1       838    8    0    1
 -2       350       494       495      2279      2283      2281
 -1       839    8    0    1
 -2       352       351       496      1843      2284      2285
 -1       840    8    0    1
 -2       351       495       496      2282      2286      2284
 -1       841    8    0    1
 -2       353       352       497      1846      2287      2288
 -1       842    8    0    1
 -2       352       496       497      2285      2289      2287
 -1       843    8    0    1
 -2       354       353       498      1849      2290      2291
 -1       844    8    0    1
 -2       353       497       498      2288      2292      2290
 -1       845    8    0    1
 -2       355       354       499      1852      2293      2294
 -1       846    8    0    1
 -2       354       498       499      2291      2295      2293
 -1       847    8    0    1
 -2       356       355       500      1855      2296      2297
 -1       848    8    0    1
 -2       355       499       500      2294      2298      2296
 -1       849    8    0    1
 -2       357       356       501      1858      2299      2300
 -1       850    8    0    1
 -2       356       500       501      2297      2301      2299
 -1       851    8    0    1
 -2       358       357       502      1861      2302      2303
 -1       852    8    0    1
 -2       357       501       502      2300      2304      2302
 -1       853    8    0    1
 -2       359       358       503      1864      2305      2306
 -1       854    8    0    1
 -2       358       502       503      2303      2307      2305
 -1       855    8    0    1
 -2       360       359       504      1867      2308      2309
 -1       856    8    0    1
 -2       359       503       504      2306      2310      2308
 -1       857    8    0    1
 -2       361       360       505      1870      2311      2312
 -1       858    8    0    1
 -2       360       504       505      2309      2313      2311
 -1       859    8    0    1
 -2       362       361       506      1873      2314      2315
 -1       860    8    0    1
 -2       361       505       506      2312      2316      2314
 -1       861    8    0    1
 -2       363       362       507      1876      2317      2318
 -1       862    8    0    1
 -2       362       506       507      2315      2319      2317
 -1       863    8    0    1
 -2       364       363       508      1879      2320      2321
 -1       864    8    0    1
 -2       365       209       462      1880      2322      2201
 -1       865    8    0    1
 -2       209       208       509      1411      2323      2324
 -1       866    8    0    1
 -2       462       209       509      2322      2324      2325
 -1       867    8    0    1
 -2       461       364       460      2183      2326      2203
 -1       868    8    0    1
 -2       339       324       510      2178      2327      2328
 -1       869    8    0    1
 -2       483       339       510      2247      2328      2329
 -1       870    8    0    1
 -2       324       323       510      1760      2330      2327
 -1       871    8    0    1
 -2       369       368       511      1892      2331      2332
 -1       872    8    0    1
 -2       370       369       512      1895      2333      2334
 -1       873    8    0    1
 -2       371       370       513      1898      2335      2336
 -1       874    8    0    1
 -2       370       512       513      2334      2337      2335
 -1       875    8    0    1
 -2       372       371       514      1901      2338      2339
 -1       876    8    0    1
 -2       371       513       514      2336      2340      2338
 -1       877    8    0    1
 -2       373       372       515      1904      2341      2342
 -1       878    8    0    1
 -2       372       514       515      2339      2343      2341
 -1       879    8    0    1
 -2       374       373       516      1907      2344      2345
 -1       880    8    0    1
 -2       373       515       516      2342      2346      2344
 -1       881    8    0    1
 -2       375       374       517      1910      2347      2348
 -1       882    8    0    1
 -2       374       516       517      2345      2349      2347
 -1       883    8    0    1
 -2       376       375       518      1913      2350      2351
 -1       884    8    0    1
 -2       375       517       518      2348      2352      2350
 -1       885    8    0    1
 -2       377       376       519      1916      2353      2354
 -1       886    8    0    1
 -2       376       518       519      2351      2355      2353
 -1       887    8    0    1
 -2       378       377       520      1919      2356      2357
 -1       888    8    0    1
 -2       377       519       520      2354      2358      2356
 -1       889    8    0    1
 -2       379       378       521      1922      2359      2360
 -1       890    8    0    1
 -2       378       520       521      2357      2361      2359
 -1       891    8    0    1
 -2       380       379       522      1925      2362      2363
 -1       892    8    0    1
 -2       379       521       522      2360      2364      2362
 -1       893    8    0    1
 -2       381       380       523      1928      2365      2366
 -1       894    8    0    1
 -2       380       522       523      2363      2367      2365
 -1       895    8    0    1
 -2       382       381       524      1931      2368      2369
 -1       896    8    0    1
 -2       470       382       524      2191      2369      2370
 -1       897    8    0    1
 -2       381       523       524      2366      2371      2368
 -1       898    8    0    1
 -2       385       386       525      1943      2372      2373
 -1       899    8    0    1
 -2       384       385       526      1940      2374      2375
 -1       900    8    0    1
 -2       385       525       526      2373      2376      2374
 -1       901    8    0    1
 -2       383       384       527      1937      2377      2378
 -1       902    8    0    1
 -2       384       526       527      2375      2379      2377
 -1       903    8    0    1
 -2       386       387       528      1946      2380      2381
 -1       904    8    0    1
 -2       386       528       525      2381      2382      2372
 -1       905    8    0    1
 -2       387       388       529      1949      2383      2384
 -1       906    8    0    1
 -2       387       529       528      2384      2385      2380
 -1       907    8    0    1
 -2       388       389       530      1952      2386      2387
 -1       908    8    0    1
 -2       388       530       529      2387      2388      2383
 -1       909    8    0    1
 -2       389       390       531      1955      2389      2390
 -1       910    8    0    1
 -2       389       531       530      2390      2391      2386
 -1       911    8    0    1
 -2       390       391       532      1958      2392      2393
 -1       912    8    0    1
 -2       390       532       531      2393      2394      2389
 -1       913    8    0    1
 -2       391       392       533      1961      2395      2396
 -1       914    8    0    1
 -2       391       533       532      2396      2397      2392
 -1       915    8    0    1
 -2       392       393       534      1964      2398      2399
 -1       916    8    0    1
 -2       392       534       533      2399      2400      2395
 -1       917    8    0    1
 -2       393       394       535      1967      2401      2402
 -1       918    8    0    1
 -2       393       535       534      2402      2403      2398
 -1       919    8    0    1
 -2       394       395       536      1970      2404      2405
 -1       920    8    0    1
 -2       394       536       535      2405      2406      2401
 -1       921    8    0    1
 -2       395       396       537      1973      2407      2408
 -1       922    8    0    1
 -2       395       537       536      2408      2409      2404
 -1       923    8    0    1
 -2       396       397       538      1976      2410      2411
 -1       924    8    0    1
 -2       396       538       537      2411      2412      2407
 -1       925    8    0    1
 -2       397       398       539      1979      2413      2414
 -1       926    8    0    1
 -2       397       539       538      2414      2415      2410
 -1       927    8    0    1
 -2       398       399       540      1982      2416      2417
 -1       928    8    0    1
 -2       398       540       539      2417      2418      2413
 -1       929    8    0    1
 -2       399       400       541      1985      2419      2420
 -1       930    8    0    1
 -2       399       541       540      2420      2421      2416
 -1       931    8    0    1
 -2       400       401       542      1988      2422      2423
 -1       932    8    0    1
 -2       400       542       541      2423      2424      2419
 -1       933    8    0    1
 -2       401       402       543      1991      2425      2426
 -1       934    8    0    1
 -2       401       543       542      2426      2427      2422
 -1       935    8    0    1
 -2       402       403       544      1994      2428      2429
 -1       936    8    0    1
 -2       402       544       543      2429      2430      2425
 -1       937    8    0    1
 -2       403       404       545      1997      2431      2432
 -1       938    8    0    1
 -2       403       545       544      2432      2433      2428
 -1       939    8    0    1
 -2       404       405       546      2000      2434      2435
 -1       940    8    0    1
 -2       404       546       545      2435      2436      2431
 -1       941    8    0    1
 -2       405       406       547      2003      2437      2438
 -1       942    8    0    1
 -2       405       547       546      2438      2439      2434
 -1       943    8    0    1
 -2       406       407       548      2006      2440      2441
 -1       944    8    0    1
 -2       406       548       547      2441      2442      2437
 -1       945    8    0    1
 -2       407       408       549      2009      2443      2444
 -1       946    8    0    1
 -2       407       549       548      2444      2445      2440
 -1       947    8    0    1
 -2       408       409       550      2012      2446      2447
 -1       948    8    0    1
 -2       408       550       549      2447      2448      2443
 -1       949    8    0    1
 -2       409       410       551      2015      2449      2450
 -1       950    8    0    1
 -2       409       551       550      2450      2451      2446
 -1       951    8    0    1
 -2       410       411       552      2018      2452      2453
 -1       952    8    0    1
 -2       410       552       551      2453      2454      2449
 -1       953    8    0    1
 -2       411       412       553      2021      2455      2456
 -1       954    8    0    1
 -2       411       553       552      2456      2457      2452
 -1       955    8    0    1
 -2       412       413       554      2024      2458      2459
 -1       956    8    0    1
 -2       412       554       553      2459      2460      2455
 -1       957    8    0    1
 -2       413       414       555      2027      2461      2462
 -1       958    8    0    1
 -2       413       555       554      2462      2463      2458
 -1       959    8    0    1
 -2       414       415       556      2030      2464      2465
 -1       960    8    0    1
 -2       414       556       555      2465      2466      2461
 -1       961    8    0    1
 -2       415       416       557      2033      2467      2468
 -1       962    8    0    1
 -2       415       557       556      2468      2469      2464
 -1       963    8    0    1
 -2       416       417       558      2036      2470      2471
 -1       964    8    0    1
 -2       416       558       557      2471      2472      2467
 -1       965    8    0    1
 -2       417       418       559      2039      2473      2474
 -1       966    8    0    1
 -2       417       559       558      2474      2475      2470
 -1       967    8    0    1
 -2       418       419       560      2042      2476      2477
 -1       968    8    0    1
 -2       418       560       559      2477      2478      2473
 -1       969    8    0    1
 -2       419       420       561      2045      2479      2480
 -1       970    8    0    1
 -2       419       561       560      2480      2481      2476
 -1       971    8    0    1
 -2       420       421       562      2048      2482      2483
 -1       972    8    0    1
 -2       420       562       561      2483      2484      2479
 -1       973    8    0    1
 -2       421       422       563      2051      2485      2486
 -1       974    8    0    1
 -2       421       563       562      2486      2487      2482
 -1       975    8    0    1
 -2       422       423       564      2054      2488      2489
 -1       976    8    0    1
 -2       422       564       563      2489      2490      2485
 -1       977    8    0    1
 -2       423       424       565      2057      2491      2492
 -1       978    8    0    1
 -2       423       565       564      2492      2493      2488
 -1       979    8    0    1
 -2       424       425       566      2060      2494      2495
 -1       980    8    0    1
 -2       424       566       565      2495      2496      2491
 -1       981    8    0    1
 -2       425       426       567      2063      2497      2498
 -1       982    8    0    1
 -2       425       567       566      2498      2499      2494
 -1       983    8    0    1
 -2       426       427       429      2066      2186      2500
 -1       984    8    0    1
 -2       430       431       568      2079      2501      2502
 -1       985    8    0    1
 -2       428       430       569      2076      2503      2504
 -1       986    8    0    1
 -2       430       568       569      2502      2505      2503
 -1       987    8    0    1
 -2       429       428       570      2072      2506      2507
 -1       988    8    0    1
 -2       428       569       570      2504      2508      2506
 -1       989    8    0    1
 -2       443       468       571      2187      2509      2510
 -1       990    8    0    1
 -2       431       432       572      2082      2511      2512
 -1       991    8    0    1
 -2       431       572       568      2512      2513      2501
 -1       992    8    0    1
 -2       432       433       573      2085      2514      2515
 -1       993    8    0    1
 -2       432       573       572      2515      2516      2511
 -1       994    8    0    1
 -2       433       434       574      2088      2517      2518
 -1       995    8    0    1
 -2       433       574       573      2518      2519      2514
 -1       996    8    0    1
 -2       434       435       575      2091      2520      2521
 -1       997    8    0    1
 -2       434       575       574      2521      2522      2517
 -1       998    8    0    1
 -2       435       436       576      2094      2523      2524
 -1       999    8    0    1
 -2       435       576       575      2524      2525      2520
 -1      1000    8    0    1
 -2       436       437       577      2097      2526      2527
 -1      1001    8    0    1
 -2       436       577       576      2527      2528      2523
 -1      1002    8    0    1
 -2       437       438       578      2100      2529      2530
 -1      1003    8    0    1
 -2       437       578       577      2530      2531      2526
 -1      1004    8    0    1
 -2       438       439       579      2103      2532      2533
 -1      1005    8    0    1
 -2       438       579       578      2533      2534      2529
 -1      1006    8    0    1
 -2       366       442       580      2192      2535      2536
 -1      1007    8    0    1
 -2       468       441       581      2175      2537      2538
 -1      1008    8    0    1
 -2       444       316       463      2161      2164      2539
 -1      1009    8    0    1
 -2       368       367       582      1889      2540      2541
 -1      1010    8    0    1
 -2       467       443       583      2193      2542      2543
 -1      1011    8    0    1
 -2       327       328       584      1771      2544      2545
 -1      1012    8    0    1
 -2       473       327       584      2218      2545      2546
 -1      1013    8    0    1
 -2       328       475       584      2224      2547      2544
 -1      1014    8    0    1
 -2       449       450       585      2217      2548      2549
 -1      1015    8    0    1
 -2       447       448       586      2128      2550      2551
 -1      1016    8    0    1
 -2       447       586       484      2551      2552      2249
 -1      1017    8    0    1
 -2       450       451       587      2213      2553      2554
 -1      1018    8    0    1
 -2       451       452       588      2212      2555      2556
 -1      1019    8    0    1
 -2       452       453       589      2211      2557      2558
 -1      1020    8    0    1
 -2       452       589       588      2558      2559      2555
 -1      1021    8    0    1
 -2       453       454       590      2210      2560      2561
 -1      1022    8    0    1
 -2       454       455       591      2209      2562      2563
 -1      1023    8    0    1
 -2       455       456       592      2208      2564      2565
 -1      1024    8    0    1
 -2       456       457       593      2207      2566      2567
 -1      1025    8    0    1
 -2       456       593       592      2567      2568      2564
 -1      1026    8    0    1
 -2       457       458       594      2206      2569      2570
 -1      1027    8    0    1
 -2       458       459       595      2205      2571      2572
 -1      1028    8    0    1
 -2       459       460       508      2204      2573      2574
 -1      1029    8    0    1
 -2       464       465       596      2199      2575      2576
 -1      1030    8    0    1
 -2       466       467       597      2195      2577      2578
 -1      1031    8    0    1
 -2       460       364       508      2326      2321      2573
 -1      1032    8    0    1
 -2       426       429       567      2500      2579      2497
 -1      1033    8    0    1
 -2       444       463       446      2539      2580      2194
 -1      1034    8    0    1
 -2       446       463       464      2580      2200      2581
 -1      1035    8    0    1
 -2       446       464       596      2581      2576      2582
 -1      1036    8    0    1
 -2       325       474       598      2221      2583      2584
 -1      1037    8    0    1
 -2       325       598       445      2584      2585      2120
 -1      1038    8    0    1
 -2       511       368       582      2331      2541      2586
 -1      1039    8    0    1
 -2       482       337       599      2246      2587      2588
 -1      1040    8    0    1
 -2       337       440       599      2106      2589      2587
 -1      1041    8    0    1
 -2       450       587       585      2554      2590      2548
 -1      1042    8    0    1
 -2       441       469       581      2180      2591      2537
 -1      1043    8    0    1
 -2       323       445       600      2119      2592      2593
 -1      1044    8    0    1
 -2       510       323       600      2330      2593      2594
 -1      1045    8    0    1
 -2       445       598       600      2585      2595      2592
 -1      1046    8    0    1
 -2       442       484       580      2250      2596      2535
 -1      1047    8    0    1
 -2       367       446       596      2123      2582      2597
 -1      1048    8    0    1
 -2       363       507       508      2318      2598      2320
 -1      1049    8    0    1
 -2       462       509       461      2325      2599      2202
 -1      1050    8    0    1
 -2       512       369       511      2333      2332      2600
 -1      1051    8    0    1
 -2       443       571       583      2510      2601      2542
 -1      1052    8    0    1
 -2       571       468       581      2509      2538      2602
 -1      1053    8    0    1
 -2       366       580       601      2536      2603      2604
 -1      1054    8    0    1
 -2       366       601       469      2604      2605      2181
 -1      1055    8    0    1
 -2       367       596       582      2597      2606      2540
 -1      1056    8    0    1
 -2       440       383       602      2107      2607      2608
 -1      1057    8    0    1
 -2       599       440       602      2589      2608      2609
 -1      1058    8    0    1
 -2       383       527       602      2378      2610      2607
 -1      1059    8    0    1
 -2       429       570       567      2507      2611      2579
 -1      1060    8    0    1
 -2       471       466       597      2198      2578      2612
 -1      1061    8    0    1
 -2       596       465       582      2575      2613      2606
 -1      1062    8    0    1
 -2       595       459       508      2571      2574      2614
 -1      1063    8    0    1
 -2       593       457       603      2566      2615      2616
 -1      1064    8    0    1
 -2       457       594       603      2570      2617      2615
 -1      1065    8    0    1
 -2       591       455       592      2562      2565      2618
 -1      1066    8    0    1
 -2       589       453       590      2557      2561      2619
 -1      1067    8    0    1
 -2       472       449       604      2216      2620      2621
 -1      1068    8    0    1
 -2       449       585       604      2549      2622      2620
 -1      1069    8    0    1
 -2       597       467       605      2577      2623      2624
 -1      1070    8    0    1
 -2       467       583       605      2543      2625      2623
 -1      1071    8    0    1
 -2       586       448       606      2550      2626      2627
 -1      1072    8    0    1
 -2       448       472       606      2215      2628      2626
 -1      1073    8    0    1
 -2       587       451       588      2553      2556      2629
 -1      1074    8    0    1
 -2       590       454       591      2560      2563      2630
 -1      1075    8    0    1
 -2       594       458       595      2569      2572      2631
 -1      1076    8    0    1
 -2       439       470       524      2190      2370      2632
 -1      1077    8    0    1
 -2       439       524       579      2632      2633      2532
 -1      1078    8    0    1
 -2       208       461       509      2184      2599      2323
 -1      1079    8    0    1
 -2       476       477       607      2230      2634      2635
 -1      1080    8    0    1
 -2       475       476       608      2227      2636      2637
 -1      1081    8    0    1
 -2       476       607       608      2635      2638      2636
 -1      1082    8    0    1
 -2       478       479       609      2236      2639      2640
 -1      1083    8    0    1
 -2       479       480       610      2239      2641      2642
 -1      1084    8    0    1
 -2       479       610       609      2642      2643      2639
 -1      1085    8    0    1
 -2       481       482       611      2245      2644      2645
 -1      1086    8    0    1
 -2       482       599       611      2588      2646      2644
 -1      1087    8    0    1
 -2       486       485       612      2256      2647      2648
 -1      1088    8    0    1
 -2       487       486       613      2259      2649      2650
 -1      1089    8    0    1
 -2       486       612       613      2648      2651      2649
 -1      1090    8    0    1
 -2       488       487       614      2262      2652      2653
 -1      1091    8    0    1
 -2       487       613       614      2650      2654      2652
 -1      1092    8    0    1
 -2       489       488       615      2265      2655      2656
 -1      1093    8    0    1
 -2       488       614       615      2653      2657      2655
 -1      1094    8    0    1
 -2       490       489       616      2268      2658      2659
 -1      1095    8    0    1
 -2       489       615       616      2656      2660      2658
 -1      1096    8    0    1
 -2       491       490       617      2271      2661      2662
 -1      1097    8    0    1
 -2       490       616       617      2659      2663      2661
 -1      1098    8    0    1
 -2       492       491       618      2274      2664      2665
 -1      1099    8    0    1
 -2       491       617       618      2662      2666      2664
 -1      1100    8    0    1
 -2       493       492       619      2277      2667      2668
 -1      1101    8    0    1
 -2       492       618       619      2665      2669      2667
 -1      1102    8    0    1
 -2       494       493       620      2280      2670      2671
 -1      1103    8    0    1
 -2       493       619       620      2668      2672      2670
 -1      1104    8    0    1
 -2       495       494       621      2283      2673      2674
 -1      1105    8    0    1
 -2       494       620       621      2671      2675      2673
 -1      1106    8    0    1
 -2       496       495       622      2286      2676      2677
 -1      1107    8    0    1
 -2       495       621       622      2674      2678      2676
 -1      1108    8    0    1
 -2       497       496       623      2289      2679      2680
 -1      1109    8    0    1
 -2       496       622       623      2677      2681      2679
 -1      1110    8    0    1
 -2       498       497       624      2292      2682      2683
 -1      1111    8    0    1
 -2       497       623       624      2680      2684      2682
 -1      1112    8    0    1
 -2       499       498       625      2295      2685      2686
 -1      1113    8    0    1
 -2       498       624       625      2683      2687      2685
 -1      1114    8    0    1
 -2       500       499       626      2298      2688      2689
 -1      1115    8    0    1
 -2       499       625       626      2686      2690      2688
 -1      1116    8    0    1
 -2       501       500       627      2301      2691      2692
 -1      1117    8    0    1
 -2       500       626       627      2689      2693      2691
 -1      1118    8    0    1
 -2       502       501       628      2304      2694      2695
 -1      1119    8    0    1
 -2       501       627       628      2692      2696      2694
 -1      1120    8    0    1
 -2       503       502       629      2307      2697      2698
 -1      1121    8    0    1
 -2       502       628       629      2695      2699      2697
 -1      1122    8    0    1
 -2       504       503       630      2310      2700      2701
 -1      1123    8    0    1
 -2       503       629       630      2698      2702      2700
 -1      1124    8    0    1
 -2       505       504       631      2313      2703      2704
 -1      1125    8    0    1
 -2       504       630       631      2701      2705      2703
 -1      1126    8    0    1
 -2       506       505       632      2316      2706      2707
 -1      1127    8    0    1
 -2       505       631       632      2704      2708      2706
 -1      1128    8    0    1
 -2       507       506       633      2319      2709      2710
 -1      1129    8    0    1
 -2       513       512       634      2337      2711      2712
 -1      1130    8    0    1
 -2       579       524       523      2633      2371      2713
 -1      1131    8    0    1
 -2       567       570       635      2611      2714      2715
 -1      1132    8    0    1
 -2       567       635       566      2715      2716      2499
 -1      1133    8    0    1
 -2       514       513       636      2340      2717      2718
 -1      1134    8    0    1
 -2       513       634       636      2712      2719      2717
 -1      1135    8    0    1
 -2       515       514       637      2343      2720      2721
 -1      1136    8    0    1
 -2       514       636       637      2718      2722      2720
 -1      1137    8    0    1
 -2       516       515       638      2346      2723      2724
 -1      1138    8    0    1
 -2       515       637       638      2721      2725      2723
 -1      1139    8    0    1
 -2       517       516       639      2349      2726      2727
 -1      1140    8    0    1
 -2       516       638       639      2724      2728      2726
 -1      1141    8    0    1
 -2       518       517       640      2352      2729      2730
 -1      1142    8    0    1
 -2       517       639       640      2727      2731      2729
 -1      1143    8    0    1
 -2       519       518       641      2355      2732      2733
 -1      1144    8    0    1
 -2       518       640       641      2730      2734      2732
 -1      1145    8    0    1
 -2       520       519       642      2358      2735      2736
 -1      1146    8    0    1
 -2       519       641       642      2733      2737      2735
 -1      1147    8    0    1
 -2       521       520       643      2361      2738      2739
 -1      1148    8    0    1
 -2       520       642       643      2736      2740      2738
 -1      1149    8    0    1
 -2       522       521       644      2364      2741      2742
 -1      1150    8    0    1
 -2       521       643       644      2739      2743      2741
 -1      1151    8    0    1
 -2       523       522       645      2367      2744      2745
 -1      1152    8    0    1
 -2       522       644       645      2742      2746      2744
 -1      1153    8    0    1
 -2       526       525       646      2376      2747      2748
 -1      1154    8    0    1
 -2       525       528       647      2382      2749      2750
 -1      1155    8    0    1
 -2       525       647       646      2750      2751      2747
 -1      1156    8    0    1
 -2       527       526       648      2379      2752      2753
 -1      1157    8    0    1
 -2       526       646       648      2748      2754      2752
 -1      1158    8    0    1
 -2       529       530       649      2388      2755      2756
 -1      1159    8    0    1
 -2       530       531       650      2391      2757      2758
 -1      1160    8    0    1
 -2       530       650       649      2758      2759      2755
 -1      1161    8    0    1
 -2       531       532       651      2394      2760      2761
 -1      1162    8    0    1
 -2       531       651       650      2761      2762      2757
 -1      1163    8    0    1
 -2       532       533       652      2397      2763      2764
 -1      1164    8    0    1
 -2       532       652       651      2764      2765      2760
 -1      1165    8    0    1
 -2       533       534       653      2400      2766      2767
 -1      1166    8    0    1
 -2       533       653       652      2767      2768      2763
 -1      1167    8    0    1
 -2       534       535       654      2403      2769      2770
 -1      1168    8    0    1
 -2       534       654       653      2770      2771      2766
 -1      1169    8    0    1
 -2       535       536       655      2406      2772      2773
 -1      1170    8    0    1
 -2       535       655       654      2773      2774      2769
 -1      1171    8    0    1
 -2       536       537       656      2409      2775      2776
 -1      1172    8    0    1
 -2       536       656       655      2776      2777      2772
 -1      1173    8    0    1
 -2       537       538       657      2412      2778      2779
 -1      1174    8    0    1
 -2       537       657       656      2779      2780      2775
 -1      1175    8    0    1
 -2       538       539       658      2415      2781      2782
 -1      1176    8    0    1
 -2       538       658       657      2782      2783      2778
 -1      1177    8    0    1
 -2       539       540       659      2418      2784      2785
 -1      1178    8    0    1
 -2       539       659       658      2785      2786      2781
 -1      1179    8    0    1
 -2       540       541       660      2421      2787      2788
 -1      1180    8    0    1
 -2       540       660       659      2788      2789      2784
 -1      1181    8    0    1
 -2       541       542       661      2424      2790      2791
 -1      1182    8    0    1
 -2       541       661       660      2791      2792      2787
 -1      1183    8    0    1
 -2       542       543       662      2427      2793      2794
 -1      1184    8    0    1
 -2       542       662       661      2794      2795      2790
 -1      1185    8    0    1
 -2       543       544       663      2430      2796      2797
 -1      1186    8    0    1
 -2       543       663       662      2797      2798      2793
 -1      1187    8    0    1
 -2       544       545       664      2433      2799      2800
 -1      1188    8    0    1
 -2       544       664       663      2800      2801      2796
 -1      1189    8    0    1
 -2       545       546       665      2436      2802      2803
 -1      1190    8    0    1
 -2       545       665       664      2803      2804      2799
 -1      1191    8    0    1
 -2       546       547       666      2439      2805      2806
 -1      1192    8    0    1
 -2       546       666       665      2806      2807      2802
 -1      1193    8    0    1
 -2       547       548       667      2442      2808      2809
 -1      1194    8    0    1
 -2       547       667       666      2809      2810      2805
 -1      1195    8    0    1
 -2       548       549       668      2445      2811      2812
 -1      1196    8    0    1
 -2       548       668       667      2812      2813      2808
 -1      1197    8    0    1
 -2       549       550       669      2448      2814      2815
 -1      1198    8    0    1
 -2       549       669       668      2815      2816      2811
 -1      1199    8    0    1
 -2       550       551       670      2451      2817      2818
 -1      1200    8    0    1
 -2       550       670       669      2818      2819      2814
 -1      1201    8    0    1
 -2       551       552       671      2454      2820      2821
 -1      1202    8    0    1
 -2       551       671       670      2821      2822      2817
 -1      1203    8    0    1
 -2       552       553       672      2457      2823      2824
 -1      1204    8    0    1
 -2       552       672       671      2824      2825      2820
 -1      1205    8    0    1
 -2       553       554       673      2460      2826      2827
 -1      1206    8    0    1
 -2       553       673       672      2827      2828      2823
 -1      1207    8    0    1
 -2       554       555       674      2463      2829      2830
 -1      1208    8    0    1
 -2       554       674       673      2830      2831      2826
 -1      1209    8    0    1
 -2       555       556       675      2466      2832      2833
 -1      1210    8    0    1
 -2       555       675       674      2833      2834      2829
 -1      1211    8    0    1
 -2       556       557       676      2469      2835      2836
 -1      1212    8    0    1
 -2       556       676       675      2836      2837      2832
 -1      1213    8    0    1
 -2       557       558       677      2472      2838      2839
 -1      1214    8    0    1
 -2       557       677       676      2839      2840      2835
 -1      1215    8    0    1
 -2       558       559       678      2475      2841      2842
 -1      1216    8    0    1
 -2       558       678       677      2842      2843      2838
 -1      1217    8    0    1
 -2       559       560       679      2478      2844      2845
 -1      1218    8    0    1
 -2       559       679       678      2845      2846      2841
 -1      1219    8    0    1
 -2       560       561       680      2481      2847      2848
 -1      1220    8    0    1
 -2       560       680       679      2848      2849      2844
 -1      1221    8    0    1
 -2       561       562       681      2484      2850      2851
 -1      1222    8    0    1
 -2       561       681       680      2851      2852      2847
 -1      1223    8    0    1
 -2       562       563       682      2487      2853      2854
 -1      1224    8    0    1
 -2       562       682       681      2854      2855      2850
 -1      1225    8    0    1
 -2       563       564       683      2490      2856      2857
 -1      1226    8    0    1
 -2       563       683       682      2857      2858      2853
 -1      1227    8    0    1
 -2       564       565       684      2493      2859      2860
 -1      1228    8    0    1
 -2       564       684       683      2860      2861      2856
 -1      1229    8    0    1
 -2       565       566       685      2496      2862      2863
 -1      1230    8    0    1
 -2       684       565       685      2859      2863      2864
 -1      1231    8    0    1
 -2       566       635       685      2716      2865      2862
 -1      1232    8    0    1
 -2       569       568       686      2505      2866      2867
 -1      1233    8    0    1
 -2       572       573       687      2516      2868      2869
 -1      1234    8    0    1
 -2       570       569       635      2508      2870      2714
 -1      1235    8    0    1
 -2       568       572       688      2513      2871      2872
 -1      1236    8    0    1
 -2       686       568       688      2866      2872      2873
 -1      1237    8    0    1
 -2       572       687       688      2869      2874      2871
 -1      1238    8    0    1
 -2       528       529       689      2385      2875      2876
 -1      1239    8    0    1
 -2       647       528       689      2749      2876      2877
 -1      1240    8    0    1
 -2       529       649       689      2756      2878      2875
 -1      1241    8    0    1
 -2       574       575       690      2522      2879      2880
 -1      1242    8    0    1
 -2       575       576       691      2525      2881      2882
 -1      1243    8    0    1
 -2       575       691       690      2882      2883      2879
 -1      1244    8    0    1
 -2       576       577       692      2528      2884      2885
 -1      1245    8    0    1
 -2       576       692       691      2885      2886      2881
 -1      1246    8    0    1
 -2       577       578       693      2531      2887      2888
 -1      1247    8    0    1
 -2       577       693       692      2888      2889      2884
 -1      1248    8    0    1
 -2       578       579       694      2534      2890      2891
 -1      1249    8    0    1
 -2       578       694       693      2891      2892      2887
 -1      1250    8    0    1
 -2       585       587       695      2590      2893      2894
 -1      1251    8    0    1
 -2       591       592       696      2618      2895      2896
 -1      1252    8    0    1
 -2       571       581       697      2602      2897      2898
 -1      1253    8    0    1
 -2       573       574       698      2519      2899      2900
 -1      1254    8    0    1
 -2       574       690       698      2880      2901      2899
 -1      1255    8    0    1
 -2       485       483       699      2253      2902      2903
 -1      1256    8    0    1
 -2       485       699       612      2903      2904      2647
 -1      1257    8    0    1
 -2       477       478       700      2233      2905      2906
 -1      1258    8    0    1
 -2       607       477       700      2634      2906      2907
 -1      1259    8    0    1
 -2       478       609       700      2640      2908      2905
 -1      1260    8    0    1
 -2       511       582       701      2586      2909      2910
 -1      1261    8    0    1
 -2       583       571       702      2601      2911      2912
 -1      1262    8    0    1
 -2       571       697       702      2898      2913      2911
 -1      1263    8    0    1
 -2       474       473       703      2222      2914      2915
 -1      1264    8    0    1
 -2       484       586       704      2552      2916      2917
 -1      1265    8    0    1
 -2       581       469       705      2591      2918      2919
 -1      1266    8    0    1
 -2       587       588       706      2629      2920      2921
 -1      1267    8    0    1
 -2       590       591       707      2630      2922      2923
 -1      1268    8    0    1
 -2       588       589       708      2559      2924      2925
 -1      1269    8    0    1
 -2       594       595       633      2631      2926      2927
 -1      1270    8    0    1
 -2       589       590       709      2619      2928      2929
 -1      1271    8    0    1
 -2       592       593       710      2568      2930      2931
 -1      1272    8    0    1
 -2       580       484       711      2596      2932      2933
 -1      1273    8    0    1
 -2       483       510       712      2329      2934      2935
 -1      1274    8    0    1
 -2       699       483       712      2902      2935      2936
 -1      1275    8    0    1
 -2       510       600       712      2594      2937      2934
 -1      1276    8    0    1
 -2       512       511       713      2600      2938      2939
 -1      1277    8    0    1
 -2       512       713       634      2939      2940      2711
 -1      1278    8    0    1
 -2       471       597       701      2612      2941      2942
 -1      1279    8    0    1
 -2       508       507       595      2598      2943      2614
 -1      1280    8    0    1
 -2       582       465       471      2613      2197      2944
 -1      1281    8    0    1
 -2       582       471       701      2944      2942      2909
 -1      1282    8    0    1
 -2       579       523       645      2713      2745      2945
 -1      1283    8    0    1
 -2       595       507       633      2943      2710      2926
 -1      1284    8    0    1
 -2       475       608       714      2637      2946      2947
 -1      1285    8    0    1
 -2       475       714       584      2947      2948      2547
 -1      1286    8    0    1
 -2       481       611       480      2645      2949      2242
 -1      1287    8    0    1
 -2       633       506       632      2709      2707      2950
 -1      1288    8    0    1
 -2       579       645       694      2945      2951      2890
 -1      1289    8    0    1
 -2       511       701       713      2910      2952      2938
 -1      1290    8    0    1
 -2       527       648       715      2753      2953      2954
 -1      1291    8    0    1
 -2       569       686       635      2867      2955      2870
 -1      1292    8    0    1
 -2       687       573       698      2868      2900      2956
 -1      1293    8    0    1
 -2       711       484       704      2932      2917      2957
 -1      1294    8    0    1
 -2       601       580       716      2603      2958      2959
 -1      1295    8    0    1
 -2       580       711       716      2933      2960      2958
 -1      1296    8    0    1
 -2       696       592       710      2895      2931      2961
 -1      1297    8    0    1
 -2       585       695       717      2894      2962      2963
 -1      1298    8    0    1
 -2       585       717       604      2963      2964      2622
 -1      1299    8    0    1
 -2       695       587       706      2893      2921      2965
 -1      1300    8    0    1
 -2       710       593       718      2930      2966      2967
 -1      1301    8    0    1
 -2       593       603       718      2616      2968      2966
 -1      1302    8    0    1
 -2       610       480       611      2641      2949      2969
 -1      1303    8    0    1
 -2       602       527       715      2610      2954      2970
 -1      1304    8    0    1
 -2       591       696       707      2896      2971      2922
 -1      1305    8    0    1
 -2       709       590       719      2928      2972      2973
 -1      1306    8    0    1
 -2       590       707       719      2923      2974      2972
 -1      1307    8    0    1
 -2       469       601       705      2605      2975      2918
 -1      1308    8    0    1
 -2       708       589       709      2924      2929      2976
 -1      1309    8    0    1
 -2       598       474       720      2583      2977      2978
 -1      1310    8    0    1
 -2       474       703       720      2915      2979      2977
 -1      1311    8    0    1
 -2       706       588       708      2920      2925      2980
 -1      1312    8    0    1
 -2       704       586       606      2916      2627      2981
 -1      1313    8    0    1
 -2       472       604       721      2621      2982      2983
 -1      1314    8    0    1
 -2       472       721       606      2983      2984      2628
 -1      1315    8    0    1
 -2       605       583       702      2625      2912      2985
 -1      1316    8    0    1
 -2       473       584       722      2546      2986      2987
 -1      1317    8    0    1
 -2       703       473       722      2914      2987      2988
 -1      1318    8    0    1
 -2       584       714       722      2948      2989      2986
 -1      1319    8    0    1
 -2       581       705       723      2919      2990      2991
 -1      1320    8    0    1
 -2       581       723       697      2991      2992      2897
 -1      1321    8    0    1
 -2       597       605       701      2624      2993      2941
 -1      1322    8    0    1
 -2       608       607       724      2638      2994      2995
 -1      1323    8    0    1
 -2       609       610       725      2643      2996      2997
 -1      1324    8    0    1
 -2       611       599       602      2646      2609      2998
 -1      1325    8    0    1
 -2       633       632       726      2950      2999      3000
 -1      1326    8    0    1
 -2       600       598       727      2595      3001      3002
 -1      1327    8    0    1
 -2       712       600       727      2937      3002      3003
 -1      1328    8    0    1
 -2       598       720       727      2978      3004      3001
 -1      1329    8    0    1
 -2       614       613       728      2654      3005      3006
 -1      1330    8    0    1
 -2       615       614       729      2657      3007      3008
 -1      1331    8    0    1
 -2       614       728       729      3006      3009      3007
 -1      1332    8    0    1
 -2       616       615       730      2660      3010      3011
 -1      1333    8    0    1
 -2       615       729       730      3008      3012      3010
 -1      1334    8    0    1
 -2       617       616       731      2663      3013      3014
 -1      1335    8    0    1
 -2       616       730       731      3011      3015      3013
 -1      1336    8    0    1
 -2       618       617       732      2666      3016      3017
 -1      1337    8    0    1
 -2       617       731       732      3014      3018      3016
 -1      1338    8    0    1
 -2       619       618       733      2669      3019      3020
 -1      1339    8    0    1
 -2       618       732       733      3017      3021      3019
 -1      1340    8    0    1
 -2       620       619       734      2672      3022      3023
 -1      1341    8    0    1
 -2       619       733       734      3020      3024      3022
 -1      1342    8    0    1
 -2       621       620       735      2675      3025      3026
 -1      1343    8    0    1
 -2       620       734       735      3023      3027      3025
 -1      1344    8    0    1
 -2       622       621       736      2678      3028      3029
 -1      1345    8    0    1
 -2       621       735       736      3026      3030      3028
 -1      1346    8    0    1
 -2       623       622       737      2681      3031      3032
 -1      1347    8    0    1
 -2       622       736       737      3029      3033      3031
 -1      1348    8    0    1
 -2       624       623       738      2684      3034      3035
 -1      1349    8    0    1
 -2       623       737       738      3032      3036      3034
 -1      1350    8    0    1
 -2       625       624       739      2687      3037      3038
 -1      1351    8    0    1
 -2       624       738       739      3035      3039      3037
 -1      1352    8    0    1
 -2       626       625       740      2690      3040      3041
 -1      1353    8    0    1
 -2       625       739       740      3038      3042      3040
 -1      1354    8    0    1
 -2       627       626       741      2693      3043      3044
 -1      1355    8    0    1
 -2       626       740       741      3041      3045      3043
 -1      1356    8    0    1
 -2       628       627       742      2696      3046      3047
 -1      1357    8    0    1
 -2       627       741       742      3044      3048      3046
 -1      1358    8    0    1
 -2       629       628       743      2699      3049      3050
 -1      1359    8    0    1
 -2       628       742       743      3047      3051      3049
 -1      1360    8    0    1
 -2       630       629       744      2702      3052      3053
 -1      1361    8    0    1
 -2       629       743       744      3050      3054      3052
 -1      1362    8    0    1
 -2       631       630       745      2705      3055      3056
 -1      1363    8    0    1
 -2       630       744       745      3053      3057      3055
 -1      1364    8    0    1
 -2       632       631       746      2708      3058      3059
 -1      1365    8    0    1
 -2       631       745       746      3056      3060      3058
 -1      1366    8    0    1
 -2       715       648       747      2953      3061      3062
 -1      1367    8    0    1
 -2       636       634       748      2719      3063      3064
 -1      1368    8    0    1
 -2       637       636       749      2722      3065      3066
 -1      1369    8    0    1
 -2       636       748       749      3064      3067      3065
 -1      1370    8    0    1
 -2       638       637       750      2725      3068      3069
 -1      1371    8    0    1
 -2       637       749       750      3066      3070      3068
 -1      1372    8    0    1
 -2       639       638       751      2728      3071      3072
 -1      1373    8    0    1
 -2       638       750       751      3069      3073      3071
 -1      1374    8    0    1
 -2       640       639       752      2731      3074      3075
 -1      1375    8    0    1
 -2       639       751       752      3072      3076      3074
 -1      1376    8    0    1
 -2       641       640       753      2734      3077      3078
 -1      1377    8    0    1
 -2       640       752       753      3075      3079      3077
 -1      1378    8    0    1
 -2       642       641       754      2737      3080      3081
 -1      1379    8    0    1
 -2       641       753       754      3078      3082      3080
 -1      1380    8    0    1
 -2       643       642       755      2740      3083      3084
 -1      1381    8    0    1
 -2       642       754       755      3081      3085      3083
 -1      1382    8    0    1
 -2       644       643       756      2743      3086      3087
 -1      1383    8    0    1
 -2       643       755       756      3084      3088      3086
 -1      1384    8    0    1
 -2       645       644       757      2746      3089      3090
 -1      1385    8    0    1
 -2       694       645       757      2951      3090      3091
 -1      1386    8    0    1
 -2       644       756       757      3087      3092      3089
 -1      1387    8    0    1
 -2       635       686       758      2955      3093      3094
 -1      1388    8    0    1
 -2       635       758       685      3094      3095      2865
 -1      1389    8    0    1
 -2       646       647       759      2751      3096      3097
 -1      1390    8    0    1
 -2       648       646       760      2754      3098      3099
 -1      1391    8    0    1
 -2       747       648       760      3061      3099      3100
 -1      1392    8    0    1
 -2       646       759       760      3097      3101      3098
 -1      1393    8    0    1
 -2       650       651       761      2762      3102      3103
 -1      1394    8    0    1
 -2       649       650       762      2759      3104      3105
 -1      1395    8    0    1
 -2       650       761       762      3103      3106      3104
 -1      1396    8    0    1
 -2       652       653       763      2768      3107      3108
 -1      1397    8    0    1
 -2       653       654       764      2771      3109      3110
 -1      1398    8    0    1
 -2       653       764       763      3110      3111      3107
 -1      1399    8    0    1
 -2       654       655       765      2774      3112      3113
 -1      1400    8    0    1
 -2       654       765       764      3113      3114      3109
 -1      1401    8    0    1
 -2       655       656       766      2777      3115      3116
 -1      1402    8    0    1
 -2       655       766       765      3116      3117      3112
 -1      1403    8    0    1
 -2       656       657       767      2780      3118      3119
 -1      1404    8    0    1
 -2       656       767       766      3119      3120      3115
 -1      1405    8    0    1
 -2       657       658       768      2783      3121      3122
 -1      1406    8    0    1
 -2       657       768       767      3122      3123      3118
 -1      1407    8    0    1
 -2       658       659       769      2786      3124      3125
 -1      1408    8    0    1
 -2       658       769       768      3125      3126      3121
 -1      1409    8    0    1
 -2       659       660       770      2789      3127      3128
 -1      1410    8    0    1
 -2       659       770       769      3128      3129      3124
 -1      1411    8    0    1
 -2       660       661       771      2792      3130      3131
 -1      1412    8    0    1
 -2       660       771       770      3131      3132      3127
 -1      1413    8    0    1
 -2       661       662       772      2795      3133      3134
 -1      1414    8    0    1
 -2       661       772       771      3134      3135      3130
 -1      1415    8    0    1
 -2       662       663       773      2798      3136      3137
 -1      1416    8    0    1
 -2       662       773       772      3137      3138      3133
 -1      1417    8    0    1
 -2       663       664       774      2801      3139      3140
 -1      1418    8    0    1
 -2       663       774       773      3140      3141      3136
 -1      1419    8    0    1
 -2       664       665       775      2804      3142      3143
 -1      1420    8    0    1
 -2       664       775       774      3143      3144      3139
 -1      1421    8    0    1
 -2       665       666       776      2807      3145      3146
 -1      1422    8    0    1
 -2       665       776       775      3146      3147      3142
 -1      1423    8    0    1
 -2       666       667       777      2810      3148      3149
 -1      1424    8    0    1
 -2       666       777       776      3149      3150      3145
 -1      1425    8    0    1
 -2       667       668       778      2813      3151      3152
 -1      1426    8    0    1
 -2       667       778       777      3152      3153      3148
 -1      1427    8    0    1
 -2       668       669       779      2816      3154      3155
 -1      1428    8    0    1
 -2       668       779       778      3155      3156      3151
 -1      1429    8    0    1
 -2       669       670       780      2819      3157      3158
 -1      1430    8    0    1
 -2       669       780       779      3158      3159      3154
 -1      1431    8    0    1
 -2       670       671       781      2822      3160      3161
 -1      1432    8    0    1
 -2       670       781       780      3161      3162      3157
 -1      1433    8    0    1
 -2       671       672       782      2825      3163      3164
 -1      1434    8    0    1
 -2       671       782       781      3164      3165      3160
 -1      1435    8    0    1
 -2       672       673       783      2828      3166      3167
 -1      1436    8    0    1
 -2       672       783       782      3167      3168      3163
 -1      1437    8    0    1
 -2       673       674       784      2831      3169      3170
 -1      1438    8    0    1
 -2       673       784       783      3170      3171      3166
 -1      1439    8    0    1
 -2       674       675       785      2834      3172      3173
 -1      1440    8    0    1
 -2       674       785       784      3173      3174      3169
 -1      1441    8    0    1
 -2       675       676       786      2837      3175      3176
 -1      1442    8    0    1
 -2       675       786       785      3176      3177      3172
 -1      1443    8    0    1
 -2       676       677       787      2840      3178      3179
 -1      1444    8    0    1
 -2       676       787       786      3179      3180      3175
 -1      1445    8    0    1
 -2       677       678       788      2843      3181      3182
 -1      1446    8    0    1
 -2       677       788       787      3182      3183      3178
 -1      1447    8    0    1
 -2       678       679       789      2846      3184      3185
 -1      1448    8    0    1
 -2       678       789       788      3185      3186      3181
 -1      1449    8    0    1
 -2       679       680       790      2849      3187      3188
 -1      1450    8    0    1
 -2       679       790       789      3188      3189      3184
 -1      1451    8    0    1
 -2       680       681       791      2852      3190      3191
 -1      1452    8    0    1
 -2       680       791       790      3191      3192      3187
 -1      1453    8    0    1
 -2       681       682       792      2855      3193      3194
 -1      1454    8    0    1
 -2       681       792       791      3194      3195      3190
 -1      1455    8    0    1
 -2       682       683       793      2858      3196      3197
 -1      1456    8    0    1
 -2       682       793       792      3197      3198      3193
 -1      1457    8    0    1
 -2       683       684       794      2861      3199      3200
 -1      1458    8    0    1
 -2       683       794       793      3200      3201      3196
 -1      1459    8    0    1
 -2       612       699       795      2904      3202      3203
 -1      1460    8    0    1
 -2       687       698       796      2956      3204      3205
 -1      1461    8    0    1
 -2       692       693       797      2889      3206      3207
 -1      1462    8    0    1
 -2       690       691       798      2883      3208      3209
 -1      1463    8    0    1
 -2       693       694       757      2892      3091      3210
 -1      1464    8    0    1
 -2       603       594       633      2617      2927      3211
 -1      1465    8    0    1
 -2       708       709       799      2976      3212      3213
 -1      1466    8    0    1
 -2       706       708       800      2980      3214      3215
 -1      1467    8    0    1
 -2       695       706       801      2965      3216      3217
 -1      1468    8    0    1
 -2       602       715       611      2970      3218      2998
 -1      1469    8    0    1
 -2       711       704       802      2957      3219      3220
 -1      1470    8    0    1
 -2       634       713       803      2940      3221      3222
 -1      1471    8    0    1
 -2       634       803       748      3222      3223      3063
 -1      1472    8    0    1
 -2       707       696       804      2971      3224      3225
 -1      1473    8    0    1
 -2       702       697       805      2913      3226      3227
 -1      1474    8    0    1
 -2       605       702       803      2985      3228      3229
 -1      1475    8    0    1
 -2       698       690       806      2901      3230      3231
 -1      1476    8    0    1
 -2       796       698       806      3204      3231      3232
 -1      1477    8    0    1
 -2       690       798       806      3209      3233      3230
 -1      1478    8    0    1
 -2       705       601       807      2975      3234      3235
 -1      1479    8    0    1
 -2       704       606       808      2981      3236      3237
 -1      1480    8    0    1
 -2       651       652       809      2765      3238      3239
 -1      1481    8    0    1
 -2       761       651       809      3102      3239      3240
 -1      1482    8    0    1
 -2       652       763       809      3108      3241      3238
 -1      1483    8    0    1
 -2       696       710       810      2961      3242      3243
 -1      1484    8    0    1
 -2       696       810       804      3243      3244      3224
 -1      1485    8    0    1
 -2       691       692       811      2886      3245      3246
 -1      1486    8    0    1
 -2       798       691       811      3208      3246      3247
 -1      1487    8    0    1
 -2       692       797       811      3207      3248      3245
 -1      1488    8    0    1
 -2       613       612       812      2651      3249      3250
 -1      1489    8    0    1
 -2       728       613       812      3005      3250      3251
 -1      1490    8    0    1
 -2       612       795       812      3203      3252      3249
 -1      1491    8    0    1
 -2       610       611       715      2969      3218      3253
 -1      1492    8    0    1
 -2       609       725       813      2997      3254      3255
 -1      1493    8    0    1
 -2       609       813       700      3255      3256      2908
 -1      1494    8    0    1
 -2       711       802       814      3220      3257      3258
 -1      1495    8    0    1
 -2       711       814       716      3258      3259      2960
 -1      1496    8    0    1
 -2       726       632       746      2999      3059      3260
 -1      1497    8    0    1
 -2       607       700       815      2907      3261      3262
 -1      1498    8    0    1
 -2       724       607       815      2994      3262      3263
 -1      1499    8    0    1
 -2       700       813       815      3256      3264      3261
 -1      1500    8    0    1
 -2       697       723       816      2992      3265      3266
 -1      1501    8    0    1
 -2       697       816       805      3266      3267      3226
 -1      1502    8    0    1
 -2       714       608       817      2946      3268      3269
 -1      1503    8    0    1
 -2       608       724       817      2995      3270      3268
 -1      1504    8    0    1
 -2       715       747       725      3062      3271      3272
 -1      1505    8    0    1
 -2       810       710       818      3242      3273      3274
 -1      1506    8    0    1
 -2       710       718       818      2967      3275      3273
 -1      1507    8    0    1
 -2       686       688       819      2873      3276      3277
 -1      1508    8    0    1
 -2       686       819       758      3277      3278      3093
 -1      1509    8    0    1
 -2       603       633       726      3211      3000      3279
 -1      1510    8    0    1
 -2       759       647       820      3096      3280      3281
 -1      1511    8    0    1
 -2       647       689       820      2877      3282      3280
 -1      1512    8    0    1
 -2       649       762       821      3105      3283      3284
 -1      1513    8    0    1
 -2       649       821       689      3284      3285      2878
 -1      1514    8    0    1
 -2       610       715       725      3253      3272      2996
 -1      1515    8    0    1
 -2       684       685       822      2864      3286      3287
 -1      1516    8    0    1
 -2       794       684       822      3199      3287      3288
 -1      1517    8    0    1
 -2       685       758       822      3095      3289      3286
 -1      1518    8    0    1
 -2       688       687       823      2874      3290      3291
 -1      1519    8    0    1
 -2       819       688       823      3276      3291      3292
 -1      1520    8    0    1
 -2       687       796       823      3205      3293      3290
 -1      1521    8    0    1
 -2       803       702       805      3228      3227      3294
 -1      1522    8    0    1
 -2       717       695       824      2962      3295      3296
 -1      1523    8    0    1
 -2       695       801       824      3217      3297      3295
 -1      1524    8    0    1
 -2       705       807       825      3235      3298      3299
 -1      1525    8    0    1
 -2       705       825       723      3299      3300      2990
 -1      1526    8    0    1
 -2       693       757       797      3210      3301      3206
 -1      1527    8    0    1
 -2       800       708       799      3214      3213      3302
 -1      1528    8    0    1
 -2       718       603       726      2968      3279      3303
 -1      1529    8    0    1
 -2       803       713       605      3221      3304      3229
 -1      1530    8    0    1
 -2       801       706       800      3216      3215      3305
 -1      1531    8    0    1
 -2       719       707       826      2974      3306      3307
 -1      1532    8    0    1
 -2       707       804       826      3225      3308      3306
 -1      1533    8    0    1
 -2       807       601       716      3234      2959      3309
 -1      1534    8    0    1
 -2       720       703       827      2979      3310      3311
 -1      1535    8    0    1
 -2       709       719       799      2973      3312      3212
 -1      1536    8    0    1
 -2       721       604       828      2982      3313      3314
 -1      1537    8    0    1
 -2       604       717       828      2964      3315      3313
 -1      1538    8    0    1
 -2       802       704       829      3219      3316      3317
 -1      1539    8    0    1
 -2       704       808       829      3237      3318      3316
 -1      1540    8    0    1
 -2       606       721       808      2984      3319      3236
 -1      1541    8    0    1
 -2       703       722       830      2988      3320      3321
 -1      1542    8    0    1
 -2       703       830       827      3321      3322      3310
 -1      1543    8    0    1
 -2       701       605       713      2993      3304      2952
 -1      1544    8    0    1
 -2       699       712       727      2936      3003      3323
 -1      1545    8    0    1
 -2       699       727       795      3323      3324      3202
 -1      1546    8    0    1
 -2       795       727       720      3324      3004      3325
 -1      1547    8    0    1
 -2       729       728       831      3009      3326      3327
 -1      1548    8    0    1
 -2       725       747       832      3271      3328      3329
 -1      1549    8    0    1
 -2       725       832       813      3329      3330      3254
 -1      1550    8    0    1
 -2       730       729       833      3012      3331      3332
 -1      1551    8    0    1
 -2       729       831       833      3327      3333      3331
 -1      1552    8    0    1
 -2       731       730       834      3015      3334      3335
 -1      1553    8    0    1
 -2       730       833       834      3332      3336      3334
 -1      1554    8    0    1
 -2       732       731       835      3018      3337      3338
 -1      1555    8    0    1
 -2       731       834       835      3335      3339      3337
 -1      1556    8    0    1
 -2       733       732       836      3021      3340      3341
 -1      1557    8    0    1
 -2       732       835       836      3338      3342      3340
 -1      1558    8    0    1
 -2       734       733       837      3024      3343      3344
 -1      1559    8    0    1
 -2       733       836       837      3341      3345      3343
 -1      1560    8    0    1
 -2       735       734       838      3027      3346      3347
 -1      1561    8    0    1
 -2       734       837       838      3344      3348      3346
 -1      1562    8    0    1
 -2       736       735       839      3030      3349      3350
 -1      1563    8    0    1
 -2       735       838       839      3347      3351      3349
 -1      1564    8    0    1
 -2       737       736       840      3033      3352      3353
 -1      1565    8    0    1
 -2       736       839       840      3350      3354      3352
 -1      1566    8    0    1
 -2       738       737       841      3036      3355      3356
 -1      1567    8    0    1
 -2       737       840       841      3353      3357      3355
 -1      1568    8    0    1
 -2       739       738       842      3039      3358      3359
 -1      1569    8    0    1
 -2       738       841       842      3356      3360      3358
 -1      1570    8    0    1
 -2       740       739       843      3042      3361      3362
 -1      1571    8    0    1
 -2       739       842       843      3359      3363      3361
 -1      1572    8    0    1
 -2       741       740       844      3045      3364      3365
 -1      1573    8    0    1
 -2       740       843       844      3362      3366      3364
 -1      1574    8    0    1
 -2       742       741       845      3048      3367      3368
 -1      1575    8    0    1
 -2       741       844       845      3365      3369      3367
 -1      1576    8    0    1
 -2       743       742       846      3051      3370      3371
 -1      1577    8    0    1
 -2       742       845       846      3368      3372      3370
 -1      1578    8    0    1
 -2       744       743       847      3054      3373      3374
 -1      1579    8    0    1
 -2       743       846       847      3371      3375      3373
 -1      1580    8    0    1
 -2       745       744       848      3057      3376      3377
 -1      1581    8    0    1
 -2       744       847       848      3374      3378      3376
 -1      1582    8    0    1
 -2       746       745       849      3060      3379      3380
 -1      1583    8    0    1
 -2       745       848       849      3377      3381      3379
 -1      1584    8    0    1
 -2       750       749       850      3070      3382      3383
 -1      1585    8    0    1
 -2       751       750       851      3073      3384      3385
 -1      1586    8    0    1
 -2       750       850       851      3383      3386      3384
 -1      1587    8    0    1
 -2       752       751       852      3076      3387      3388
 -1      1588    8    0    1
 -2       751       851       852      3385      3389      3387
 -1      1589    8    0    1
 -2       753       752       853      3079      3390      3391
 -1      1590    8    0    1
 -2       752       852       853      3388      3392      3390
 -1      1591    8    0    1
 -2       754       753       854      3082      3393      3394
 -1      1592    8    0    1
 -2       753       853       854      3391      3395      3393
 -1      1593    8    0    1
 -2       755       754       855      3085      3396      3397
 -1      1594    8    0    1
 -2       754       854       855      3394      3398      3396
 -1      1595    8    0    1
 -2       756       755       856      3088      3399      3400
 -1      1596    8    0    1
 -2       755       855       856      3397      3401      3399
 -1      1597    8    0    1
 -2       757       756       857      3092      3402      3403
 -1      1598    8    0    1
 -2       797       757       857      3301      3403      3404
 -1      1599    8    0    1
 -2       756       856       857      3400      3405      3402
 -1      1600    8    0    1
 -2       762       761       858      3106      3406      3407
 -1      1601    8    0    1
 -2       764       765       859      3114      3408      3409
 -1      1602    8    0    1
 -2       763       764       860      3111      3410      3411
 -1      1603    8    0    1
 -2       764       859       860      3409      3412      3410
 -1      1604    8    0    1
 -2       766       767       861      3120      3413      3414
 -1      1605    8    0    1
 -2       767       768       862      3123      3415      3416
 -1      1606    8    0    1
 -2       767       862       861      3416      3417      3413
 -1      1607    8    0    1
 -2       768       769       863      3126      3418      3419
 -1      1608    8    0    1
 -2       768       863       862      3419      3420      3415
 -1      1609    8    0    1
 -2       769       770       864      3129      3421      3422
 -1      1610    8    0    1
 -2       769       864       863      3422      3423      3418
 -1      1611    8    0    1
 -2       770       771       865      3132      3424      3425
 -1      1612    8    0    1
 -2       770       865       864      3425      3426      3421
 -1      1613    8    0    1
 -2       771       772       866      3135      3427      3428
 -1      1614    8    0    1
 -2       771       866       865      3428      3429      3424
 -1      1615    8    0    1
 -2       772       773       867      3138      3430      3431
 -1      1616    8    0    1
 -2       772       867       866      3431      3432      3427
 -1      1617    8    0    1
 -2       773       774       868      3141      3433      3434
 -1      1618    8    0    1
 -2       773       868       867      3434      3435      3430
 -1      1619    8    0    1
 -2       774       775       869      3144      3436      3437
 -1      1620    8    0    1
 -2       774       869       868      3437      3438      3433
 -1      1621    8    0    1
 -2       775       776       870      3147      3439      3440
 -1      1622    8    0    1
 -2       775       870       869      3440      3441      3436
 -1      1623    8    0    1
 -2       776       777       871      3150      3442      3443
 -1      1624    8    0    1
 -2       776       871       870      3443      3444      3439
 -1      1625    8    0    1
 -2       777       778       872      3153      3445      3446
 -1      1626    8    0    1
 -2       777       872       871      3446      3447      3442
 -1      1627    8    0    1
 -2       778       779       873      3156      3448      3449
 -1      1628    8    0    1
 -2       778       873       872      3449      3450      3445
 -1      1629    8    0    1
 -2       779       780       874      3159      3451      3452
 -1      1630    8    0    1
 -2       779       874       873      3452      3453      3448
 -1      1631    8    0    1
 -2       780       781       875      3162      3454      3455
 -1      1632    8    0    1
 -2       780       875       874      3455      3456      3451
 -1      1633    8    0    1
 -2       781       782       876      3165      3457      3458
 -1      1634    8    0    1
 -2       781       876       875      3458      3459      3454
 -1      1635    8    0    1
 -2       782       783       877      3168      3460      3461
 -1      1636    8    0    1
 -2       782       877       876      3461      3462      3457
 -1      1637    8    0    1
 -2       783       784       878      3171      3463      3464
 -1      1638    8    0    1
 -2       783       878       877      3464      3465      3460
 -1      1639    8    0    1
 -2       784       785       879      3174      3466      3467
 -1      1640    8    0    1
 -2       784       879       878      3467      3468      3463
 -1      1641    8    0    1
 -2       785       786       880      3177      3469      3470
 -1      1642    8    0    1
 -2       785       880       879      3470      3471      3466
 -1      1643    8    0    1
 -2       786       787       881      3180      3472      3473
 -1      1644    8    0    1
 -2       786       881       880      3473      3474      3469
 -1      1645    8    0    1
 -2       787       788       882      3183      3475      3476
 -1      1646    8    0    1
 -2       787       882       881      3476      3477      3472
 -1      1647    8    0    1
 -2       788       789       883      3186      3478      3479
 -1      1648    8    0    1
 -2       788       883       882      3479      3480      3475
 -1      1649    8    0    1
 -2       789       790       884      3189      3481      3482
 -1      1650    8    0    1
 -2       789       884       883      3482      3483      3478
 -1      1651    8    0    1
 -2       790       791       885      3192      3484      3485
 -1      1652    8    0    1
 -2       790       885       884      3485      3486      3481
 -1      1653    8    0    1
 -2       791       792       886      3195      3487      3488
 -1      1654    8    0    1
 -2       791       886       885      3488      3489      3484
 -1      1655    8    0    1
 -2       792       793       887      3198      3490      3491
 -1      1656    8    0    1
 -2       792       887       886      3491      3492      3487
 -1      1657    8    0    1
 -2       793       794       888      3201      3493      3494
 -1      1658    8    0    1
 -2       793       888       887      3494      3495      3490
 -1      1659    8    0    1
 -2       795       720       827      3325      3311      3496
 -1      1660    8    0    1
 -2       804       810       889      3244      3497      3498
 -1      1661    8    0    1
 -2       803       805       890      3294      3499      3500
 -1      1662    8    0    1
 -2       803       890       748      3500      3501      3223
 -1      1663    8    0    1
 -2       800       799       891      3302      3502      3503
 -1      1664    8    0    1
 -2       799       719       892      3312      3504      3505
 -1      1665    8    0    1
 -2       765       766       893      3117      3506      3507
 -1      1666    8    0    1
 -2       859       765       893      3408      3507      3508
 -1      1667    8    0    1
 -2       766       861       893      3414      3509      3506
 -1      1668    8    0    1
 -2       749       748       894      3067      3510      3511
 -1      1669    8    0    1
 -2       850       749       894      3382      3511      3512
 -1      1670    8    0    1
 -2       748       890       894      3501      3513      3510
 -1      1671    8    0    1
 -2       807       716       895      3309      3514      3515
 -1      1672    8    0    1
 -2       801       800       896      3305      3516      3517
 -1      1673    8    0    1
 -2       722       714       897      2989      3518      3519
 -1      1674    8    0    1
 -2       722       897       830      3519      3520      3320
 -1      1675    8    0    1
 -2       808       721       898      3319      3521      3522
 -1      1676    8    0    1
 -2       721       828       898      3314      3523      3521
 -1      1677    8    0    1
 -2       795       827       899      3496      3524      3525
 -1      1678    8    0    1
 -2       795       899       812      3525      3526      3252
 -1      1679    8    0    1
 -2       814       802       900      3257      3527      3528
 -1      1680    8    0    1
 -2       817       724       901      3270      3529      3530
 -1      1681    8    0    1
 -2       810       818       902      3274      3531      3532
 -1      1682    8    0    1
 -2       810       902       889      3532      3533      3497
 -1      1683    8    0    1
 -2       895       716       814      3514      3259      3534
 -1      1684    8    0    1
 -2       820       689       821      3282      3285      3535
 -1      1685    8    0    1
 -2       797       857       903      3404      3536      3537
 -1      1686    8    0    1
 -2       797       903       811      3537      3538      3248
 -1      1687    8    0    1
 -2       760       759       904      3101      3539      3540
 -1      1688    8    0    1
 -2       821       762       905      3283      3541      3542
 -1      1689    8    0    1
 -2       762       858       905      3407      3543      3541
 -1      1690    8    0    1
 -2       809       763       906      3241      3544      3545
 -1      1691    8    0    1
 -2       763       860       906      3411      3546      3544
 -1      1692    8    0    1
 -2       747       760       907      3100      3547      3548
 -1      1693    8    0    1
 -2       832       747       907      3328      3548      3549
 -1      1694    8    0    1
 -2       760       904       907      3540      3550      3547
 -1      1695    8    0    1
 -2       900       802       829      3527      3317      3551
 -1      1696    8    0    1
 -2       888       794       908      3493      3552      3553
 -1      1697    8    0    1
 -2       794       822       908      3288      3554      3552
 -1      1698    8    0    1
 -2       890       805       816      3499      3267      3555
 -1      1699    8    0    1
 -2       823       796       909      3293      3556      3557
 -1      1700    8    0    1
 -2       807       895       910      3515      3558      3559
 -1      1701    8    0    1
 -2       807       910       825      3559      3560      3298
 -1      1702    8    0    1
 -2       806       798       911      3233      3561      3562
 -1      1703    8    0    1
 -2       891       799       912      3502      3563      3564
 -1      1704    8    0    1
 -2       799       892       912      3505      3565      3563
 -1      1705    8    0    1
 -2       728       812       913      3251      3566      3567
 -1      1706    8    0    1
 -2       831       728       913      3326      3567      3568
 -1      1707    8    0    1
 -2       812       899       913      3526      3569      3566
 -1      1708    8    0    1
 -2       726       746       902      3260      3570      3571
 -1      1709    8    0    1
 -2       824       801       914      3297      3572      3573
 -1      1710    8    0    1
 -2       801       896       914      3517      3574      3572
 -1      1711    8    0    1
 -2       714       817       897      3269      3575      3518
 -1      1712    8    0    1
 -2       826       804       915      3308      3576      3577
 -1      1713    8    0    1
 -2       804       889       915      3498      3578      3576
 -1      1714    8    0    1
 -2       892       719       826      3504      3307      3579
 -1      1715    8    0    1
 -2       828       717       916      3315      3580      3581
 -1      1716    8    0    1
 -2       717       824       916      3296      3582      3580
 -1      1717    8    0    1
 -2       759       820       917      3281      3583      3584
 -1      1718    8    0    1
 -2       759       917       904      3584      3585      3539
 -1      1719    8    0    1
 -2       896       800       891      3516      3503      3586
 -1      1720    8    0    1
 -2       723       825       918      3300      3587      3588
 -1      1721    8    0    1
 -2       723       918       816      3588      3589      3265
 -1      1722    8    0    1
 -2       829       808       919      3318      3590      3591
 -1      1723    8    0    1
 -2       808       898       919      3522      3592      3590
 -1      1724    8    0    1
 -2       901       724       920      3529      3593      3594
 -1      1725    8    0    1
 -2       724       815       920      3263      3595      3593
 -1      1726    8    0    1
 -2       798       811       921      3247      3596      3597
 -1      1727    8    0    1
 -2       911       798       921      3561      3597      3598
 -1      1728    8    0    1
 -2       811       903       921      3538      3599      3596
 -1      1729    8    0    1
 -2       796       806       922      3232      3600      3601
 -1      1730    8    0    1
 -2       909       796       922      3556      3601      3602
 -1      1731    8    0    1
 -2       806       911       922      3562      3603      3600
 -1      1732    8    0    1
 -2       827       830       899      3322      3604      3524
 -1      1733    8    0    1
 -2       761       809       923      3240      3605      3606
 -1      1734    8    0    1
 -2       858       761       923      3406      3606      3607
 -1      1735    8    0    1
 -2       809       906       923      3545      3608      3605
 -1      1736    8    0    1
 -2       746       849       902      3380      3609      3570
 -1      1737    8    0    1
 -2       822       758       924      3289      3610      3611
 -1      1738    8    0    1
 -2       908       822       924      3554      3611      3612
 -1      1739    8    0    1
 -2       758       819       924      3278      3613      3610
 -1      1740    8    0    1
 -2       817       901       925      3530      3614      3615
 -1      1741    8    0    1
 -2       817       925       897      3615      3616      3575
 -1      1742    8    0    1
 -2       815       813       926      3264      3617      3618
 -1      1743    8    0    1
 -2       920       815       926      3595      3618      3619
 -1      1744    8    0    1
 -2       813       832       926      3330      3620      3617
 -1      1745    8    0    1
 -2       889       902       927      3533      3621      3622
 -1      1746    8    0    1
 -2       833       831       928      3333      3623      3624
 -1      1747    8    0    1
 -2       834       833       929      3336      3625      3626
 -1      1748    8    0    1
 -2       833       928       929      3624      3627      3625
 -1      1749    8    0    1
 -2       835       834       930      3339      3628      3629
 -1      1750    8    0    1
 -2       834       929       930      3626      3630      3628
 -1      1751    8    0    1
 -2       836       835       931      3342      3631      3632
 -1      1752    8    0    1
 -2       835       930       931      3629      3633      3631
 -1      1753    8    0    1
 -2       837       836       932      3345      3634      3635
 -1      1754    8    0    1
 -2       836       931       932      3632      3636      3634
 -1      1755    8    0    1
 -2       838       837       933      3348      3637      3638
 -1      1756    8    0    1
 -2       837       932       933      3635      3639      3637
 -1      1757    8    0    1
 -2       839       838       934      3351      3640      3641
 -1      1758    8    0    1
 -2       838       933       934      3638      3642      3640
 -1      1759    8    0    1
 -2       840       839       935      3354      3643      3644
 -1      1760    8    0    1
 -2       839       934       935      3641      3645      3643
 -1      1761    8    0    1
 -2       841       840       936      3357      3646      3647
 -1      1762    8    0    1
 -2       840       935       936      3644      3648      3646
 -1      1763    8    0    1
 -2       842       841       937      3360      3649      3650
 -1      1764    8    0    1
 -2       841       936       937      3647      3651      3649
 -1      1765    8    0    1
 -2       843       842       938      3363      3652      3653
 -1      1766    8    0    1
 -2       842       937       938      3650      3654      3652
 -1      1767    8    0    1
 -2       844       843       939      3366      3655      3656
 -1      1768    8    0    1
 -2       843       938       939      3653      3657      3655
 -1      1769    8    0    1
 -2       845       844       940      3369      3658      3659
 -1      1770    8    0    1
 -2       844       939       940      3656      3660      3658
 -1      1771    8    0    1
 -2       846       845       941      3372      3661      3662
 -1      1772    8    0    1
 -2       845       940       941      3659      3663      3661
 -1      1773    8    0    1
 -2       847       846       942      3375      3664      3665
 -1      1774    8    0    1
 -2       846       941       942      3662      3666      3664
 -1      1775    8    0    1
 -2       848       847       943      3378      3667      3668
 -1      1776    8    0    1
 -2       847       942       943      3665      3669      3667
 -1      1777    8    0    1
 -2       849       848       944      3381      3670      3671
 -1      1778    8    0    1
 -2       902       849       944      3609      3671      3672
 -1      1779    8    0    1
 -2       848       943       944      3668      3673      3670
 -1      1780    8    0    1
 -2       819       823       945      3292      3674      3675
 -1      1781    8    0    1
 -2       924       819       945      3613      3675      3676
 -1      1782    8    0    1
 -2       823       909       945      3557      3677      3674
 -1      1783    8    0    1
 -2       896       891       946      3586      3678      3679
 -1      1784    8    0    1
 -2       852       851       947      3389      3680      3681
 -1      1785    8    0    1
 -2       853       852       948      3392      3682      3683
 -1      1786    8    0    1
 -2       852       947       948      3681      3684      3682
 -1      1787    8    0    1
 -2       854       853       949      3395      3685      3686
 -1      1788    8    0    1
 -2       853       948       949      3683      3687      3685
 -1      1789    8    0    1
 -2       855       854       950      3398      3688      3689
 -1      1790    8    0    1
 -2       854       949       950      3686      3690      3688
 -1      1791    8    0    1
 -2       856       855       951      3401      3691      3692
 -1      1792    8    0    1
 -2       855       950       951      3689      3693      3691
 -1      1793    8    0    1
 -2       857       856       952      3405      3694      3695
 -1      1794    8    0    1
 -2       903       857       952      3536      3695      3696
 -1      1795    8    0    1
 -2       856       951       952      3692      3697      3694
 -1      1796    8    0    1
 -2       862       863       953      3420      3698      3699
 -1      1797    8    0    1
 -2       861       862       954      3417      3700      3701
 -1      1798    8    0    1
 -2       862       953       954      3699      3702      3700
 -1      1799    8    0    1
 -2       864       865       955      3426      3703      3704
 -1      1800    8    0    1
 -2       865       866       956      3429      3705      3706
 -1      1801    8    0    1
 -2       865       956       955      3706      3707      3703
 -1      1802    8    0    1
 -2       866       867       957      3432      3708      3709
 -1      1803    8    0    1
 -2       866       957       956      3709      3710      3705
 -1      1804    8    0    1
 -2       867       868       958      3435      3711      3712
 -1      1805    8    0    1
 -2       867       958       957      3712      3713      3708
 -1      1806    8    0    1
 -2       868       869       959      3438      3714      3715
 -1      1807    8    0    1
 -2       868       959       958      3715      3716      3711
 -1      1808    8    0    1
 -2       869       870       960      3441      3717      3718
 -1      1809    8    0    1
 -2       869       960       959      3718      3719      3714
 -1      1810    8    0    1
 -2       870       871       961      3444      3720      3721
 -1      1811    8    0    1
 -2       870       961       960      3721      3722      3717
 -1      1812    8    0    1
 -2       871       872       946      3447      3723      3724
 -1      1813    8    0    1
 -2       872       873       914      3450      3725      3726
 -1      1814    8    0    1
 -2       873       874       914      3453      3727      3725
 -1      1815    8    0    1
 -2       874       875       962      3456      3728      3729
 -1      1816    8    0    1
 -2       875       876       963      3459      3730      3731
 -1      1817    8    0    1
 -2       875       963       962      3731      3732      3728
 -1      1818    8    0    1
 -2       876       877       919      3462      3733      3734
 -1      1819    8    0    1
 -2       878       879       964      3468      3735      3736
 -1      1820    8    0    1
 -2       879       880       965      3471      3737      3738
 -1      1821    8    0    1
 -2       879       965       964      3738      3739      3735
 -1      1822    8    0    1
 -2       880       881       966      3474      3740      3741
 -1      1823    8    0    1
 -2       880       966       965      3741      3742      3737
 -1      1824    8    0    1
 -2       881       882       967      3477      3743      3744
 -1      1825    8    0    1
 -2       881       967       966      3744      3745      3740
 -1      1826    8    0    1
 -2       882       883       968      3480      3746      3747
 -1      1827    8    0    1
 -2       882       968       967      3747      3748      3743
 -1      1828    8    0    1
 -2       883       884       969      3483      3749      3750
 -1      1829    8    0    1
 -2       883       969       968      3750      3751      3746
 -1      1830    8    0    1
 -2       884       885       970      3486      3752      3753
 -1      1831    8    0    1
 -2       884       970       969      3753      3754      3749
 -1      1832    8    0    1
 -2       885       886       971      3489      3755      3756
 -1      1833    8    0    1
 -2       885       971       970      3756      3757      3752
 -1      1834    8    0    1
 -2       886       887       972      3492      3758      3759
 -1      1835    8    0    1
 -2       886       972       971      3759      3760      3755
 -1      1836    8    0    1
 -2       887       888       973      3495      3761      3762
 -1      1837    8    0    1
 -2       887       973       972      3762      3763      3758
 -1      1838    8    0    1
 -2       895       814       974      3534      3764      3765
 -1      1839    8    0    1
 -2       814       900       974      3528      3766      3764
 -1      1840    8    0    1
 -2       899       830       975      3604      3767      3768
 -1      1841    8    0    1
 -2       820       821       976      3535      3769      3770
 -1      1842    8    0    1
 -2       917       820       976      3583      3770      3771
 -1      1843    8    0    1
 -2       821       905       976      3542      3772      3769
 -1      1844    8    0    1
 -2       830       897       975      3520      3773      3767
 -1      1845    8    0    1
 -2       898       828       963      3523      3774      3775
 -1      1846    8    0    1
 -2       892       826       977      3579      3776      3777
 -1      1847    8    0    1
 -2       826       915       977      3577      3778      3776
 -1      1848    8    0    1
 -2       890       816       978      3555      3779      3780
 -1      1849    8    0    1
 -2       816       918       978      3589      3781      3779
 -1      1850    8    0    1
 -2       863       864       979      3423      3782      3783
 -1      1851    8    0    1
 -2       863       979       953      3783      3784      3698
 -1      1852    8    0    1
 -2       900       829       980      3551      3785      3786
 -1      1853    8    0    1
 -2       829       919       980      3591      3787      3785
 -1      1854    8    0    1
 -2       851       850       981      3386      3788      3789
 -1      1855    8    0    1
 -2       851       981       947      3789      3790      3680
 -1      1856    8    0    1
 -2       860       859       982      3412      3791      3792
 -1      1857    8    0    1
 -2       926       832       907      3620      3549      3793
 -1      1858    8    0    1
 -2       928       831       983      3623      3794      3795
 -1      1859    8    0    1
 -2       831       913       983      3568      3796      3794
 -1      1860    8    0    1
 -2       902       944       927      3672      3797      3621
 -1      1861    8    0    1
 -2       889       927       915      3622      3798      3578
 -1      1862    8    0    1
 -2       905       858       984      3543      3799      3800
 -1      1863    8    0    1
 -2       860       982       985      3792      3801      3802
 -1      1864    8    0    1
 -2       860       985       906      3802      3803      3546
 -1      1865    8    0    1
 -2       900       980       964      3786      3804      3805
 -1      1866    8    0    1
 -2       864       955       979      3704      3806      3782
 -1      1867    8    0    1
 -2       894       890       978      3513      3780      3807
 -1      1868    8    0    1
 -2       975       897       925      3773      3616      3808
 -1      1869    8    0    1
 -2       900       964       986      3805      3809      3810
 -1      1870    8    0    1
 -2       974       900       986      3766      3810      3811
 -1      1871    8    0    1
 -2       964       965       986      3739      3812      3809
 -1      1872    8    0    1
 -2       907       904       987      3550      3813      3814
 -1      1873    8    0    1
 -2       907       987       926      3814      3815      3793
 -1      1874    8    0    1
 -2       850       894       988      3512      3816      3817
 -1      1875    8    0    1
 -2       850       988       981      3817      3818      3788
 -1      1876    8    0    1
 -2       861       954       989      3701      3819      3820
 -1      1877    8    0    1
 -2       861       989       893      3820      3821      3509
 -1      1878    8    0    1
 -2       871       946       961      3724      3822      3720
 -1      1879    8    0    1
 -2       914       874       962      3727      3729      3823
 -1      1880    8    0    1
 -2       919       877       980      3733      3824      3787
 -1      1881    8    0    1
 -2       878       964       980      3736      3804      3825
 -1      1882    8    0    1
 -2       877       878       980      3465      3825      3824
 -1      1883    8    0    1
 -2       895       974       990      3765      3826      3827
 -1      1884    8    0    1
 -2       895       990       910      3827      3828      3558
 -1      1885    8    0    1
 -2       973       888       991      3761      3829      3830
 -1      1886    8    0    1
 -2       888       908       991      3553      3831      3829
 -1      1887    8    0    1
 -2       987       904       992      3813      3832      3833
 -1      1888    8    0    1
 -2       925       901       993      3614      3834      3835
 -1      1889    8    0    1
 -2       825       910       994      3560      3836      3837
 -1      1890    8    0    1
 -2       825       994       918      3837      3838      3587
 -1      1891    8    0    1
 -2       898       963       919      3775      3839      3592
 -1      1892    8    0    1
 -2       922       911       995      3603      3840      3841
 -1      1893    8    0    1
 -2       913       899       975      3569      3768      3842
 -1      1894    8    0    1
 -2       909       922       996      3602      3843      3844
 -1      1895    8    0    1
 -2       922       995       996      3841      3845      3843
 -1      1896    8    0    1
 -2       912       892       997      3565      3846      3847
 -1      1897    8    0    1
 -2       892       977       997      3777      3848      3846
 -1      1898    8    0    1
 -2       909       996       991      3844      3849      3850
 -1      1899    8    0    1
 -2       859       893       998      3508      3851      3852
 -1      1900    8    0    1
 -2       893       989       998      3821      3853      3851
 -1      1901    8    0    1
 -2       904       917       992      3585      3854      3832
 -1      1902    8    0    1
 -2       909       991       945      3850      3855      3677
 -1      1903    8    0    1
 -2       901       920       999      3594      3856      3857
 -1      1904    8    0    1
 -2       901       999       993      3857      3858      3834
 -1      1905    8    0    1
 -2       858       923      1000      3607      3859      3860
 -1      1906    8    0    1
 -2       858      1000       984      3860      3861      3799
 -1      1907    8    0    1
 -2       718       726       818      3303      3862      3275
 -1      1908    8    0    1
 -2       911       921      1001      3598      3863      3864
 -1      1909    8    0    1
 -2       911      1001       995      3864      3865      3840
 -1      1910    8    0    1
 -2       946       891       961      3678      3866      3822
 -1      1911    8    0    1
 -2       982       859       998      3791      3852      3867
 -1      1912    8    0    1
 -2       961       891       912      3866      3564      3868
 -1      1913    8    0    1
 -2       924       945       991      3676      3855      3869
 -1      1914    8    0    1
 -2       930       929      1002      3630      3870      3871
 -1      1915    8    0    1
 -2       931       930      1003      3633      3872      3873
 -1      1916    8    0    1
 -2       930      1002      1003      3871      3874      3872
 -1      1917    8    0    1
 -2       932       931      1004      3636      3875      3876
 -1      1918    8    0    1
 -2       931      1003      1004      3873      3877      3875
 -1      1919    8    0    1
 -2       933       932      1005      3639      3878      3879
 -1      1920    8    0    1
 -2       932      1004      1005      3876      3880      3878
 -1      1921    8    0    1
 -2       934       933      1006      3642      3881      3882
 -1      1922    8    0    1
 -2       933      1005      1006      3879      3883      3881
 -1      1923    8    0    1
 -2       935       934      1007      3645      3884      3885
 -1      1924    8    0    1
 -2       934      1006      1007      3882      3886      3884
 -1      1925    8    0    1
 -2       936       935      1008      3648      3887      3888
 -1      1926    8    0    1
 -2       935      1007      1008      3885      3889      3887
 -1      1927    8    0    1
 -2       937       936      1009      3651      3890      3891
 -1      1928    8    0    1
 -2       936      1008      1009      3888      3892      3890
 -1      1929    8    0    1
 -2       938       937      1010      3654      3893      3894
 -1      1930    8    0    1
 -2       937      1009      1010      3891      3895      3893
 -1      1931    8    0    1
 -2       939       938      1011      3657      3896      3897
 -1      1932    8    0    1
 -2       938      1010      1011      3894      3898      3896
 -1      1933    8    0    1
 -2       940       939      1012      3660      3899      3900
 -1      1934    8    0    1
 -2       939      1011      1012      3897      3901      3899
 -1      1935    8    0    1
 -2       941       940      1013      3663      3902      3903
 -1      1936    8    0    1
 -2       940      1012      1013      3900      3904      3902
 -1      1937    8    0    1
 -2       942       941      1014      3666      3905      3906
 -1      1938    8    0    1
 -2       941      1013      1014      3903      3907      3905
 -1      1939    8    0    1
 -2       943       942      1015      3669      3908      3909
 -1      1940    8    0    1
 -2       942      1014      1015      3906      3910      3908
 -1      1941    8    0    1
 -2       944       943      1016      3673      3911      3912
 -1      1942    8    0    1
 -2       948       947      1017      3684      3913      3914
 -1      1943    8    0    1
 -2       979       955      1018      3806      3915      3916
 -1      1944    8    0    1
 -2       949       948      1019      3687      3917      3918
 -1      1945    8    0    1
 -2       948      1017      1019      3914      3919      3917
 -1      1946    8    0    1
 -2       950       949      1020      3690      3920      3921
 -1      1947    8    0    1
 -2       949      1019      1020      3918      3922      3920
 -1      1948    8    0    1
 -2       951       950      1021      3693      3923      3924
 -1      1949    8    0    1
 -2       950      1020      1021      3921      3925      3923
 -1      1950    8    0    1
 -2       954       953      1022      3702      3926      3927
 -1      1951    8    0    1
 -2       956       957      1023      3710      3928      3929
 -1      1952    8    0    1
 -2       955       956      1024      3707      3930      3931
 -1      1953    8    0    1
 -2       956      1023      1024      3929      3932      3930
 -1      1954    8    0    1
 -2       958       959      1025      3716      3933      3934
 -1      1955    8    0    1
 -2       960       961       912      3722      3868      3935
 -1      1956    8    0    1
 -2       946       872       914      3723      3726      3936
 -1      1957    8    0    1
 -2       876       919       963      3734      3839      3730
 -1      1958    8    0    1
 -2       926       987       920      3815      3937      3619
 -1      1959    8    0    1
 -2       967       968      1026      3748      3938      3939
 -1      1960    8    0    1
 -2       968       969      1027      3751      3940      3941
 -1      1961    8    0    1
 -2       968      1027      1026      3941      3942      3938
 -1      1962    8    0    1
 -2       969       970      1028      3754      3943      3944
 -1      1963    8    0    1
 -2       969      1028      1027      3944      3945      3940
 -1      1964    8    0    1
 -2       970       971      1029      3757      3946      3947
 -1      1965    8    0    1
 -2       970      1029      1028      3947      3948      3943
 -1      1966    8    0    1
 -2       971       972      1030      3760      3949      3950
 -1      1967    8    0    1
 -2       971      1030      1029      3950      3951      3946
 -1      1968    8    0    1
 -2       972       973      1031      3763      3952      3953
 -1      1969    8    0    1
 -2       972      1031      1030      3953      3954      3949
 -1      1970    8    0    1
 -2       973       991      1032      3830      3955      3956
 -1      1971    8    0    1
 -2      1031       973      1032      3952      3956      3957
 -1      1972    8    0    1
 -2       991       996      1032      3849      3958      3955
 -1      1973    8    0    1
 -2       920       987       999      3937      3959      3856
 -1      1974    8    0    1
 -2       913       975       983      3842      3960      3796
 -1      1975    8    0    1
 -2       996       995      1033      3845      3961      3962
 -1      1976    8    0    1
 -2       996      1033      1032      3962      3963      3958
 -1      1977    8    0    1
 -2       824       914       962      3573      3823      3964
 -1      1978    8    0    1
 -2       905       984      1034      3800      3965      3966
 -1      1979    8    0    1
 -2       905      1034       976      3966      3967      3772
 -1      1980    8    0    1
 -2       927       944      1016      3797      3912      3968
 -1      1981    8    0    1
 -2       975       925      1035      3808      3969      3970
 -1      1982    8    0    1
 -2       983       975      1035      3960      3970      3971
 -1      1983    8    0    1
 -2       925       993      1035      3835      3972      3969
 -1      1984    8    0    1
 -2       977       915      1036      3778      3973      3974
 -1      1985    8    0    1
 -2       828       916       963      3581      3975      3774
 -1      1986    8    0    1
 -2       915       927      1036      3798      3976      3973
 -1      1987    8    0    1
 -2       921       903      1037      3599      3977      3978
 -1      1988    8    0    1
 -2      1001       921      1037      3863      3978      3979
 -1      1989    8    0    1
 -2       903       952      1037      3696      3980      3977
 -1      1990    8    0    1
 -2       953       979      1038      3784      3981      3982
 -1      1991    8    0    1
 -2       953      1038      1022      3982      3983      3926
 -1      1992    8    0    1
 -2       966       967      1039      3745      3984      3985
 -1      1993    8    0    1
 -2       967      1026      1039      3939      3986      3984
 -1      1994    8    0    1
 -2       965       966      1040      3742      3987      3988
 -1      1995    8    0    1
 -2       986       965      1040      3812      3988      3989
 -1      1996    8    0    1
 -2       966      1039      1040      3985      3990      3987
 -1      1997    8    0    1
 -2       923       906      1041      3608      3991      3992
 -1      1998    8    0    1
 -2       906       985      1041      3803      3993      3991
 -1      1999    8    0    1
 -2       982       998      1042      3867      3994      3995
 -1      2000    8    0    1
 -2       957       958      1043      3713      3996      3997
 -1      2001    8    0    1
 -2       958      1025      1043      3934      3998      3996
 -1      2002    8    0    1
 -2       978       918      1044      3781      3999      4000
 -1      2003    8    0    1
 -2       894       978       988      3807      4001      3816
 -1      2004    8    0    1
 -2       947       981      1045      3790      4002      4003
 -1      2005    8    0    1
 -2       947      1045      1017      4003      4004      3913
 -1      2006    8    0    1
 -2       987       992       999      3833      4005      3959
 -1      2007    8    0    1
 -2       992       917      1046      3854      4006      4007
 -1      2008    8    0    1
 -2       929       928      1047      3627      4008      4009
 -1      2009    8    0    1
 -2       929      1047      1002      4009      4010      3870
 -1      2010    8    0    1
 -2       908       924       991      3612      3869      3831
 -1      2011    8    0    1
 -2       995      1001      1048      3865      4011      4012
 -1      2012    8    0    1
 -2       995      1048      1033      4012      4013      3961
 -1      2013    8    0    1
 -2       985       982      1049      3801      4014      4015
 -1      2014    8    0    1
 -2       982      1042      1049      3995      4016      4014
 -1      2015    8    0    1
 -2       943      1015      1016      3909      4017      3911
 -1      2016    8    0    1
 -2       954      1022      1050      3927      4018      4019
 -1      2017    8    0    1
 -2       954      1050       989      4019      4020      3819
 -1      2018    8    0    1
 -2       979      1018      1038      3916      4021      3981
 -1      2019    8    0    1
 -2       994       910      1051      3836      4022      4023
 -1      2020    8    0    1
 -2       910       990      1051      3828      4024      4022
 -1      2021    8    0    1
 -2       923      1041      1000      3992      4025      3859
 -1      2022    8    0    1
 -2       952       951      1037      3697      4026      3980
 -1      2023    8    0    1
 -2       978      1044      1052      4000      4027      4028
 -1      2024    8    0    1
 -2       978      1052       988      4028      4029      4001
 -1      2025    8    0    1
 -2       928       983      1053      3795      4030      4031
 -1      2026    8    0    1
 -2      1047       928      1053      4008      4031      4032
 -1      2027    8    0    1
 -2       983      1035      1053      3971      4033      4030
 -1      2028    8    0    1
 -2       955      1024      1018      3931      4034      3915
 -1      2029    8    0    1
 -2       960       912      1054      3935      4035      4036
 -1      2030    8    0    1
 -2       959       960      1054      3719      4036      4037
 -1      2031    8    0    1
 -2       984      1000      1055      3861      4038      4039
 -1      2032    8    0    1
 -2       977      1036      1056      3974      4040      4041
 -1      2033    8    0    1
 -2       977      1056       997      4041      4042      3848
 -1      2034    8    0    1
 -2       918       994      1044      3838      4043      3999
 -1      2035    8    0    1
 -2       998       989      1057      3853      4044      4045
 -1      2036    8    0    1
 -2       989      1050      1057      4020      4046      4044
 -1      2037    8    0    1
 -2      1034       984      1058      3965      4047      4048
 -1      2038    8    0    1
 -2       984      1055      1058      4039      4049      4047
 -1      2039    8    0    1
 -2       917       976      1046      3771      4050      4006
 -1      2040    8    0    1
 -2       992      1046      1059      4007      4051      4052
 -1      2041    8    0    1
 -2       992      1059       999      4052      4053      4005
 -1      2042    8    0    1
 -2      1035       993      1060      3972      4054      4055
 -1      2043    8    0    1
 -2      1035      1060      1053      4055      4056      4033
 -1      2044    8    0    1
 -2       927      1016      1036      3968      4057      3976
 -1      2045    8    0    1
 -2      1037       951      1021      4026      3924      4058
 -1      2046    8    0    1
 -2       993       999      1059      3858      4053      4059
 -1      2047    8    0    1
 -2      1042       998      1057      3994      4045      4060
 -1      2048    8    0    1
 -2       957      1043      1023      3997      4061      3928
 -1      2049    8    0    1
 -2       990       974       986      3826      3811      4062
 -1      2050    8    0    1
 -2       981       988      1061      3818      4063      4064
 -1      2051    8    0    1
 -2      1045       981      1061      4002      4064      4065
 -1      2052    8    0    1
 -2       988      1052      1061      4029      4066      4063
 -1      2053    8    0    1
 -2       993      1059      1060      4059      4067      4054
 -1      2054    8    0    1
 -2       959      1054      1025      4037      4068      3933
 -1      2055    8    0    1
 -2      1032      1033      1062      3963      4069      4070
 -1      2056    8    0    1
 -2      1032      1062      1031      4070      4071      3957
 -1      2057    8    0    1
 -2      1004      1003      1063      3877      4072      4073
 -1      2058    8    0    1
 -2      1005      1004      1064      3880      4074      4075
 -1      2059    8    0    1
 -2      1004      1063      1064      4073      4076      4074
 -1      2060    8    0    1
 -2      1006      1005      1065      3883      4077      4078
 -1      2061    8    0    1
 -2      1005      1064      1065      4075      4079      4077
 -1      2062    8    0    1
 -2      1007      1006      1066      3886      4080      4081
 -1      2063    8    0    1
 -2      1006      1065      1066      4078      4082      4080
 -1      2064    8    0    1
 -2      1008      1007      1067      3889      4083      4084
 -1      2065    8    0    1
 -2      1007      1066      1067      4081      4085      4083
 -1      2066    8    0    1
 -2      1009      1008      1068      3892      4086      4087
 -1      2067    8    0    1
 -2      1008      1067      1068      4084      4088      4086
 -1      2068    8    0    1
 -2      1010      1009      1069      3895      4089      4090
 -1      2069    8    0    1
 -2      1009      1068      1069      4087      4091      4089
 -1      2070    8    0    1
 -2      1011      1010      1070      3898      4092      4093
 -1      2071    8    0    1
 -2      1010      1069      1070      4090      4094      4092
 -1      2072    8    0    1
 -2      1012      1011      1071      3901      4095      4096
 -1      2073    8    0    1
 -2      1011      1070      1071      4093      4097      4095
 -1      2074    8    0    1
 -2      1013      1012      1072      3904      4098      4099
 -1      2075    8    0    1
 -2      1012      1071      1072      4096      4100      4098
 -1      2076    8    0    1
 -2      1014      1013      1073      3907      4101      4102
 -1      2077    8    0    1
 -2      1013      1072      1073      4099      4103      4101
 -1      2078    8    0    1
 -2      1015      1014      1074      3910      4104      4105
 -1      2079    8    0    1
 -2      1014      1073      1074      4102      4106      4104
 -1      2080    8    0    1
 -2      1016      1015      1075      4017      4107      4108
 -1      2081    8    0    1
 -2      1022      1038      1076      3983      4109      4110
 -1      2082    8    0    1
 -2      1020      1019      1077      3922      4111      4112
 -1      2083    8    0    1
 -2      1036      1016      1075      4057      4108      4113
 -1      2084    8    0    1
 -2      1041       985      1078      3993      4114      4115
 -1      2085    8    0    1
 -2       985      1049      1078      4015      4116      4114
 -1      2086    8    0    1
 -2      1017      1045      1079      4004      4117      4118
 -1      2087    8    0    1
 -2      1038      1018      1080      4021      4119      4120
 -1      2088    8    0    1
 -2      1038      1080      1076      4120      4121      4109
 -1      2089    8    0    1
 -2       976      1034      1046      3967      4122      4050
 -1      2090    8    0    1
 -2      1027      1028      1081      3945      4123      4124
 -1      2091    8    0    1
 -2      1026      1027      1082      3942      4125      4126
 -1      2092    8    0    1
 -2      1027      1081      1082      4124      4127      4125
 -1      2093    8    0    1
 -2      1029      1030      1083      3951      4128      4129
 -1      2094    8    0    1
 -2      1030      1031      1084      3954      4130      4131
 -1      2095    8    0    1
 -2      1083      1030      1084      4128      4131      4132
 -1      2096    8    0    1
 -2      1031      1062      1084      4071      4133      4130
 -1      2097    8    0    1
 -2      1018      1024      1085      4034      4134      4135
 -1      2098    8    0    1
 -2      1018      1085      1080      4135      4136      4119
 -1      2099    8    0    1
 -2      1003      1002      1086      3874      4137      4138
 -1      2100    8    0    1
 -2      1003      1086      1063      4138      4139      4072
 -1      2101    8    0    1
 -2      1044       994      1087      4043      4140      4141
 -1      2102    8    0    1
 -2       914       896       946      3574      3679      3936
 -1      2103    8    0    1
 -2      1059      1046      1088      4051      4142      4143
 -1      2104    8    0    1
 -2      1028      1029      1089      3948      4144      4145
 -1      2105    8    0    1
 -2      1029      1083      1089      4129      4146      4144
 -1      2106    8    0    1
 -2      1060      1059      1090      4067      4147      4148
 -1      2107    8    0    1
 -2      1059      1088      1090      4143      4149      4147
 -1      2108    8    0    1
 -2      1039      1026      1091      3986      4150      4151
 -1      2109    8    0    1
 -2      1026      1082      1091      4126      4152      4150
 -1      2110    8    0    1
 -2      1024      1023      1092      3932      4153      4154
 -1      2111    8    0    1
 -2      1024      1092      1085      4154      4155      4134
 -1      2112    8    0    1
 -2      1037      1021      1001      4058      4156      3979
 -1      2113    8    0    1
 -2      1043      1025      1093      3998      4157      4158
 -1      2114    8    0    1
 -2      1023      1043      1094      4061      4159      4160
 -1      2115    8    0    1
 -2      1043      1093      1094      4158      4161      4159
 -1      2116    8    0    1
 -2      1046      1034      1088      4122      4162      4142
 -1      2117    8    0    1
 -2       990       986      1040      4062      3989      4163
 -1      2118    8    0    1
 -2      1000      1041      1095      4025      4164      4165
 -1      2119    8    0    1
 -2      1055      1000      1095      4038      4165      4166
 -1      2120    8    0    1
 -2      1041      1078      1095      4115      4167      4164
 -1      2121    8    0    1
 -2      1019      1017      1096      3919      4168      4169
 -1      2122    8    0    1
 -2      1017      1079      1096      4118      4170      4168
 -1      2123    8    0    1
 -2      1042      1057      1097      4060      4171      4172
 -1      2124    8    0    1
 -2      1002      1047      1090      4010      4173      4174
 -1      2125    8    0    1
 -2      1001      1021      1048      4156      4175      4011
 -1      2126    8    0    1
 -2      1044      1087      1098      4141      4176      4177
 -1      2127    8    0    1
 -2      1044      1098      1052      4177      4178      4027
 -1      2128    8    0    1
 -2      1049      1042      1099      4016      4179      4180
 -1      2129    8    0    1
 -2      1042      1097      1099      4172      4181      4179
 -1      2130    8    0    1
 -2       818       726       902      3862      3571      3531
 -1      2131    8    0    1
 -2      1050      1022      1100      4018      4182      4183
 -1      2132    8    0    1
 -2      1022      1076      1100      4110      4184      4182
 -1      2133    8    0    1
 -2      1015      1074      1075      4105      4185      4107
 -1      2134    8    0    1
 -2      1034      1058      1088      4048      4186      4162
 -1      2135    8    0    1
 -2      1051       990      1040      4024      4163      4187
 -1      2136    8    0    1
 -2      1036      1075      1093      4113      4188      4189
 -1      2137    8    0    1
 -2      1021      1020      1101      3925      4190      4191
 -1      2138    8    0    1
 -2      1079      1045      1102      4117      4192      4193
 -1      2139    8    0    1
 -2      1045      1061      1102      4065      4194      4192
 -1      2140    8    0    1
 -2      1054       912       997      4035      3847      4195
 -1      2141    8    0    1
 -2      1062      1033      1103      4069      4196      4197
 -1      2142    8    0    1
 -2      1084      1062      1103      4133      4197      4198
 -1      2143    8    0    1
 -2      1033      1048      1103      4013      4199      4196
 -1      2144    8    0    1
 -2      1081      1028      1089      4123      4145      4200
 -1      2145    8    0    1
 -2       962       963       916      3732      3975      4201
 -1      2146    8    0    1
 -2       997      1056      1054      4042      4202      4195
 -1      2147    8    0    1
 -2      1019      1096      1077      4169      4203      4111
 -1      2148    8    0    1
 -2       824       962       916      3964      4201      3582
 -1      2149    8    0    1
 -2      1086      1002      1090      4137      4174      4204
 -1      2150    8    0    1
 -2      1057      1050      1104      4046      4205      4206
 -1      2151    8    0    1
 -2      1050      1100      1104      4183      4207      4205
 -1      2152    8    0    1
 -2      1058      1055      1105      4049      4208      4209
 -1      2153    8    0    1
 -2      1087       994      1051      4140      4023      4210
 -1      2154    8    0    1
 -2      1025      1054      1056      4068      4202      4211
 -1      2155    8    0    1
 -2      1055      1095      1106      4166      4212      4213
 -1      2156    8    0    1
 -2      1055      1106      1105      4213      4214      4208
 -1      2157    8    0    1
 -2      1092      1023      1094      4153      4160      4215
 -1      2158    8    0    1
 -2      1040      1039      1051      3990      4216      4187
 -1      2159    8    0    1
 -2      1093      1025      1056      4157      4211      4217
 -1      2160    8    0    1
 -2      1047      1053      1090      4032      4218      4173
 -1      2161    8    0    1
 -2      1097      1057      1104      4171      4206      4219
 -1      2162    8    0    1
 -2      1060      1090      1053      4148      4218      4056
 -1      2163    8    0    1
 -2      1101      1020      1077      4190      4112      4220
 -1      2164    8    0    1
 -2      1065      1064      1107      4079      4221      4222
 -1      2165    8    0    1
 -2      1066      1065      1108      4082      4223      4224
 -1      2166    8    0    1
 -2      1065      1107      1108      4222      4225      4223
 -1      2167    8    0    1
 -2      1067      1066      1099      4085      4226      4227
 -1      2168    8    0    1
 -2      1068      1067      1097      4088      4228      4229
 -1      2169    8    0    1
 -2      1069      1068      1104      4091      4230      4231
 -1      2170    8    0    1
 -2      1070      1069      1100      4094      4232      4233
 -1      2171    8    0    1
 -2      1071      1070      1076      4097      4234      4235
 -1      2172    8    0    1
 -2      1072      1071      1080      4100      4236      4237
 -1      2173    8    0    1
 -2      1073      1072      1085      4103      4238      4239
 -1      2174    8    0    1
 -2      1074      1073      1092      4106      4240      4241
 -1      2175    8    0    1
 -2      1093      1075      1094      4188      4242      4161
 -1      2176    8    0    1
 -2      1075      1074      1094      4185      4243      4242
 -1      2177    8    0    1
 -2      1064      1063      1106      4076      4244      4245
 -1      2178    8    0    1
 -2      1021      1101      1048      4191      4246      4175
 -1      2179    8    0    1
 -2      1078      1049      1108      4116      4247      4248
 -1      2180    8    0    1
 -2      1076      1080      1071      4121      4236      4235
 -1      2181    8    0    1
 -2      1082      1081      1109      4127      4249      4250
 -1      2182    8    0    1
 -2      1080      1085      1072      4136      4238      4237
 -1      2183    8    0    1
 -2      1096      1079      1110      4170      4251      4252
 -1      2184    8    0    1
 -2      1085      1092      1073      4155      4240      4239
 -1      2185    8    0    1
 -2      1081      1089      1102      4200      4253      4254
 -1      2186    8    0    1
 -2      1092      1094      1074      4215      4243      4241
 -1      2187    8    0    1
 -2      1087      1051      1091      4210      4255      4256
 -1      2188    8    0    1
 -2      1039      1091      1051      4151      4255      4216
 -1      2189    8    0    1
 -2      1086      1090      1111      4204      4257      4258
 -1      2190    8    0    1
 -2      1063      1086      1111      4139      4258      4259
 -1      2191    8    0    1
 -2      1090      1088      1111      4149      4260      4257
 -1      2192    8    0    1
 -2      1091      1082      1098      4152      4261      4262
 -1      2193    8    0    1
 -2      1036      1093      1056      4189      4217      4040
 -1      2194    8    0    1
 -2      1076      1070      1100      4234      4233      4184
 -1      2195    8    0    1
 -2      1077      1096      1083      4203      4263      4264
 -1      2196    8    0    1
 -2      1095      1078      1107      4167      4265      4266
 -1      2197    8    0    1
 -2      1097      1104      1068      4219      4230      4229
 -1      2198    8    0    1
 -2      1097      1067      1099      4228      4227      4181
 -1      2199    8    0    1
 -2      1069      1104      1100      4231      4207      4232
 -1      2200    8    0    1
 -2      1087      1091      1098      4256      4262      4176
 -1      2201    8    0    1
 -2      1048      1101      1103      4246      4267      4199
 -1      2202    8    0    1
 -2      1066      1108      1099      4224      4268      4226
 -1      2203    8    0    1
 -2      1083      1096      1110      4263      4252      4269
 -1      2204    8    0    1
 -2      1082      1109      1098      4250      4270      4261
 -1      2205    8    0    1
 -2      1064      1106      1107      4245      4271      4221
 -1      2206    8    0    1
 -2      1088      1058      1111      4186      4272      4260
 -1      2207    8    0    1
 -2      1108      1049      1099      4247      4180      4268
 -1      2208    8    0    1
 -2      1103      1101      1077      4267      4220      4273
 -1      2209    8    0    1
 -2      1089      1083      1110      4146      4269      4274
 -1      2210    8    0    1
 -2      1106      1095      1107      4212      4266      4271
 -1      2211    8    0    1
 -2      1058      1105      1111      4209      4275      4272
 -1      2212    8    0    1
 -2      1077      1083      1084      4264      4132      4276
 -1      2213    8    0    1
 -2      1107      1078      1108      4265      4248      4225
 -1      2214    8    0    1
 -2      1061      1052      1112      4066      4277      4278
 -1      2215    8    0    1
 -2      1061      1112      1102      4278      4279      4194
 -1      2216    8    0    1
 -2      1077      1084      1103      4276      4198      4273
 -1      2217    8    0    1
 -2      1098      1109      1112      4270      4280      4281
 -1      2218    8    0    1
 -2      1106      1063      1105      4244      4282      4214
 -1      2219    8    0    1
 -2      1098      1112      1052      4281      4277      4178
 -1      2220    8    0    1
 -2      1063      1111      1105      4259      4275      4282
 -1      2221    8    0    1
 -2      1081      1102      1109      4254      4283      4249
 -1      2222    8    0    1
 -2      1079      1102      1110      4193      4284      4251
 -1      2223    8    0    1
 -2      1112      1109      1102      4280      4283      4279
 -1      2224    8    0    1
 -2      1102      1089      1110      4253      4274      4284
 -3
    1PSTEP                         1           1           1          
  100CL  101 1.000000000        4284                     0    1           1
 -4  DISP        4    1
 -5  D1          1    2    1    0
 -5  D2          1    2    2    0
 -5  D3          1    2    3    0
 -5  ALL         1    2    0    0    1ALL
 -1         1 7.15427E-03-9.51010E-04-3.47659E-14
 -1         2 1.18874E-02-1.02877E-03-4.54852E-14
 -1         3 1.38670E-02-2.68664E-03-9.09814E-14
 -1         4 1.67361E-02-4.08905E-03-9.50555E-14
 -1         5 0.00000E+00 0.00000E+00 0.00000E+00
 -1         6 0.00000E+00 0.00000E+00 0.00000E+00
 -1         7 0.00000E+00 0.00000E+00 0.00000E+00
 -1         8 0.00000E+00 0.00000E+00 0.00000E+00
 -1         9 0.00000E+00 0.00000E+00 0.00000E+00
 -1        10 0.00000E+00 0.00000E+00 0.00000E+00
 -1        11 0.00000E+00 0.00000E+00 0.00000E+00
 -1        12 0.00000E+00 0.00000E+00 0.00000E+00
 -1        13 0.00000E+00 0.00000E+00 0.00000E+00
 -1        14 0.00000E+00 0.00000E+00 0.00000E+00
 -1        15 0.00000E+00 0.00000E+00 0.00000E+00
 -1        16 0.00000E+00 0.00000E+00 0.00000E+00
 -1        17 0.00000E+00 0.00000E+00 0.00000E+00
 -1        18 0.00000E+00 0.00000E+00 0.00000E+00
 -1        19 0.00000E+00 0.00000E+00 0.00000E+00
 -1        20 0.00000E+00 0.00000E+00 0.00000E+00
 -1        21 0.00000E+00 0.00000E+00 0.00000E+00
 -1        22 0.00000E+00 0.00000E+00 0.00000E+00
 -1        23 3.95063E-04-2.52019E-04 2.89008E-17
 -1        24 6.89296E-04-3.95093E-04-5.02562E-17
 -1        25 9.59735E-04-4.94090E-04-2.39070E-16
 -1        26 1.22422E-03-5.63802E-04-5.36944E-16
 -1        27 1.48758E-03-6.13613E-04-9.43205E-16
 -1        28 1.75202E-03-6.49004E-04-1.45688E-15
 -1        29 2.01852E-03-6.73720E-04-2.07710E-15
 -1        30 2.28751E-03-6.90468E-04-2.80301E-15
 -1        31 2.55906E-03-7.01260E-04-3.63542E-15
 -1        32 2.83311E-03-7.07600E-04-4.56700E-15
 -1        33 3.10949E-03-7.10606E-04-5.59192E-15
 -1        34 3.38802E-03-7.11097E-04-6.70512E-15
 -1        35 3.66858E-03-7.09653E-04-7.90705E-15
 -1        36 3.95112E-03-7.06669E-04-9.19054E-15
 -1        37 4.23570E-03-7.02404E-04-1.05558E-14
 -1        38 4.52259E-03-6.97023E-04-1.20075E-14
 -1        39 4.81231E-03-6.90648E-04-1.35419E-14
 -1        40 5.10577E-03-6.83437E-04-1.51532E-14
 -1        41 5.40443E-03-6.75703E-04-1.68385E-14
 -1        42 5.71058E-03-6.68137E-04-1.85992E-14
 -1        43 6.02773E-03-6.62220E-04-2.04203E-14
 -1        44 6.36112E-03-6.60994E-04-2.22976E-14
 -1        45 6.71831E-03-6.70469E-04-2.42309E-14
 -1        46 7.10932E-03-7.02016E-04-2.62189E-14
 -1        47 7.54524E-03-7.75843E-04-2.82515E-14
 -1        48 8.03239E-03-9.23847E-04-3.03275E-14
 -1        49 8.55837E-03-1.18476E-03-3.24599E-14
 -1        50 9.04909E-03-1.55246E-03-3.45464E-14
 -1        51 9.45927E-03-1.98095E-03-3.66935E-14
 -1        52 9.70840E-03-2.27454E-03-3.85604E-14
 -1        53 9.90246E-03-2.39636E-03-4.04778E-14
 -1        54 1.00991E-02-2.32560E-03-4.23246E-14
 -1        55 1.04085E-02-2.11043E-03-4.44585E-14
 -1        56 1.08614E-02-1.85736E-03-4.68782E-14
 -1        57 1.13904E-02-1.69601E-03-4.94572E-14
 -1        58 1.19023E-02-1.66237E-03-5.20648E-14
 -1        59 1.23662E-02-1.72424E-03-5.47088E-14
 -1        60 1.27805E-02-1.84440E-03-5.73844E-14
 -1        61 1.31548E-02-1.99634E-03-6.00902E-14
 -1        62 1.35002E-02-2.16428E-03-6.28164E-14
 -1        63 1.38255E-02-2.33959E-03-6.55797E-14
 -1        64 1.41373E-02-2.51783E-03-6.83962E-14
 -1        65 1.44400E-02-2.69676E-03-7.12574E-14
 -1        66 1.47367E-02-2.87531E-03-7.41652E-14
 -1        67 1.50292E-02-3.05301E-03-7.70958E-14
 -1        68 1.53189E-02-3.22967E-03-8.00464E-14
 -1        69 1.56067E-02-3.40522E-03-8.30388E-14
 -1        70 1.58933E-02-3.57967E-03-8.60497E-14
 -1        71 1.61791E-02-3.75306E-03-8.91045E-14
 -1        72 1.64647E-02-3.92557E-03-9.21600E-14
 -1        73 4.13669E-04 2.61356E-04 5.51351E-17
 -1        74 7.02893E-04 4.03517E-04 1.74184E-17
 -1        75 9.73525E-04 4.99820E-04-1.13089E-16
 -1        76 1.23817E-03 5.68293E-04-3.39531E-16
 -1        77 1.50170E-03 6.17324E-04-6.64077E-16
 -1        78 1.76632E-03 6.52197E-04-1.08710E-15
 -1        79 2.03303E-03 6.76584E-04-1.60831E-15
 -1        80 2.30224E-03 6.93156E-04-2.22526E-15
 -1        81 2.57404E-03 7.03908E-04-2.93890E-15
 -1        82 2.84835E-03 7.10354E-04-3.75162E-15
 -1        83 3.12502E-03 7.13642E-04-4.65914E-15
 -1        84 3.40385E-03 7.14652E-04-5.65105E-15
 -1        85 3.68469E-03 7.14062E-04-6.72614E-15
 -1        86 3.96740E-03 7.12419E-04-7.88900E-15
 -1        87 4.25188E-03 7.10189E-04-9.14283E-15
 -1        88 4.53808E-03 7.07807E-04-1.04874E-14
 -1        89 4.82594E-03 7.05726E-04-1.19158E-14
 -1        90 5.11535E-03 7.04435E-04-1.34245E-14
 -1        91 5.40610E-03 7.04473E-04-1.50037E-14
 -1        92 5.69779E-03 7.06393E-04-1.66585E-14
 -1        93 5.98968E-03 7.10677E-04-1.83924E-14
 -1        94 6.28062E-03 7.17571E-04-2.02103E-14
 -1        95 6.56897E-03 7.26836E-04-2.21003E-14
 -1        96 6.85264E-03 7.37430E-04-2.40512E-14
 -1        97 7.12925E-03 7.47166E-04-2.60571E-14
 -1        98 7.39654E-03 7.52484E-04-2.81121E-14
 -1        99 7.65296E-03 7.48480E-04-3.02235E-14
 -1       100 7.89829E-03 7.29362E-04-3.23886E-14
 -1       101 8.13414E-03 6.89366E-04-3.46186E-14
 -1       102 8.36395E-03 6.23963E-04-3.69173E-14
 -1       103 8.59247E-03 5.30965E-04-3.92609E-14
 -1       104 8.82474E-03 4.11111E-04-4.16440E-14
 -1       105 9.06496E-03 2.67864E-04-4.40710E-14
 -1       106 9.31569E-03 1.06515E-04-4.65426E-14
 -1       107 9.57760E-03-6.70332E-05-4.90625E-14
 -1       108 9.84973E-03-2.47358E-04-5.16350E-14
 -1       109 1.01301E-02-4.30211E-04-5.42590E-14
 -1       110 1.04163E-02-6.12751E-04-5.69237E-14
 -1       111 1.07062E-02-7.93417E-04-5.96274E-14
 -1       112 1.09979E-02-9.71629E-04-6.23737E-14
 -1       113 1.12899E-02-1.14745E-03-6.51677E-14
 -1       114 1.15815E-02-1.32127E-03-6.79943E-14
 -1       115 1.18722E-02-1.49365E-03-7.08424E-14
 -1       116 1.21617E-02-1.66512E-03-7.37147E-14
 -1       117 1.24501E-02-1.83617E-03-7.65890E-14
 -1       118 1.27375E-02-2.00720E-03-7.94855E-14
 -1       119 1.30240E-02-2.17851E-03-8.24013E-14
 -1       120 1.33100E-02-2.35030E-03-8.53093E-14
 -1       121 1.35957E-02-2.52263E-03-8.82163E-14
 -1       122 1.40369E-02-2.77098E-03-9.12920E-14
 -1       123 1.42070E-02-2.85530E-03-9.16226E-14
 -1       124 1.43776E-02-2.93934E-03-9.19424E-14
 -1       125 1.45487E-02-3.02284E-03-9.22601E-14
 -1       126 1.47199E-02-3.10567E-03-9.25712E-14
 -1       127 1.48881E-02-3.18639E-03-9.28794E-14
 -1       128 1.50588E-02-3.26783E-03-9.31768E-14
 -1       129 1.52288E-02-3.34877E-03-9.34444E-14
 -1       130 1.53981E-02-3.42945E-03-9.37036E-14
 -1       131 1.55665E-02-3.51017E-03-9.39283E-14
 -1       132 1.57342E-02-3.59127E-03-9.41241E-14
 -1       133 1.58986E-02-3.67163E-03-9.43126E-14
 -1       134 1.60656E-02-3.75420E-03-9.44912E-14
 -1       135 1.62330E-02-3.83763E-03-9.46273E-14
 -1       136 1.64010E-02-3.92171E-03-9.47523E-14
 -1       137 1.65698E-02-4.00612E-03-9.48968E-14
 -1       138 1.17493E-02-8.30244E-04-4.52956E-14
 -1       139 1.15125E-02-6.41184E-04-4.48393E-14
 -1       140 1.11756E-02-4.58458E-04-4.41167E-14
 -1       141 1.07722E-02-2.96647E-04-4.32013E-14
 -1       142 1.02819E-02-1.52111E-04-4.20559E-14
 -1       143 9.81416E-03-5.43468E-05-4.09476E-14
 -1       144 9.26604E-03 1.77832E-05-3.96282E-14
 -1       145 8.78190E-03 4.21270E-05-3.84711E-14
 -1       146 8.30808E-03 2.64873E-05-3.73529E-14
 -1       147 7.90974E-03-2.50988E-05-3.64224E-14
 -1       148 7.56598E-03-1.11772E-04-3.56260E-14
 -1       149 7.29702E-03-2.28584E-04-3.50148E-14
 -1       150 7.10598E-03-3.81481E-04-3.45922E-14
 -1       151 7.02198E-03-5.49813E-04-3.44189E-14
 -1       152 7.03626E-03-7.40005E-04-3.44783E-14
 -1       153 7.37820E-03-1.18201E-03-3.52766E-14
 -1       154 7.70743E-03-1.42695E-03-3.59968E-14
 -1       155 8.14998E-03-1.67995E-03-3.69384E-14
 -1       156 8.64743E-03-1.89321E-03-3.79673E-14
 -1       157 9.22868E-03-2.05530E-03-3.91429E-14
 -1       158 9.83841E-03-2.12141E-03-4.03812E-14
 -1       159 1.03797E-02-2.08680E-03-4.14982E-14
 -1       160 1.09025E-02-1.96579E-03-4.26450E-14
 -1       161 1.13015E-02-1.80878E-03-4.35834E-14
 -1       162 1.16172E-02-1.62105E-03-4.44006E-14
 -1       163 1.18246E-02-1.42377E-03-4.50207E-14
 -1       164 1.19133E-02-1.22421E-03-4.53883E-14
 -1       165 2.40286E-04-1.25515E-04-2.11724E-17
 -1       166 2.25244E-04-9.46306E-05-3.59210E-17
 -1       167 2.19532E-04-7.27979E-05-4.37340E-17
 -1       168 2.16741E-04-5.51138E-05-4.75253E-17
 -1       169 2.15261E-04-3.99694E-05-4.89822E-17
 -1       170 2.14435E-04-2.59155E-05-4.91144E-17
 -1       171 2.14020E-04-1.26457E-05-4.85756E-17
 -1       172 2.13898E-04 2.67242E-07-4.78811E-17
 -1       173 2.14036E-04 1.31916E-05-4.65462E-17
 -1       174 2.14471E-04 2.64982E-05-4.46861E-17
 -1       175 2.15303E-04 4.03756E-05-4.18095E-17
 -1       176 2.16836E-04 5.58935E-05-3.75134E-17
 -1       177 2.19677E-04 7.37948E-05-3.07100E-17
 -1       178 2.25414E-04 9.59988E-05-1.97122E-17
 -1       179 2.39274E-04 1.27561E-04-1.56871E-18
 -1       180 2.97609E-04 1.85450E-04 1.82078E-17
 -1       181 4.53367E-04-2.56546E-04-5.24246E-17
 -1       182 7.52095E-04-3.77081E-04-2.08011E-16
 -1       183 1.03633E-03-4.61280E-04-4.66170E-16
 -1       184 1.31384E-03-5.20832E-04-8.28076E-16
 -1       185 1.58844E-03-5.62925E-04-1.29453E-15
 -1       186 1.86228E-03-5.92312E-04-1.86511E-15
 -1       187 2.13653E-03-6.12320E-04-2.53958E-15
 -1       188 2.41184E-03-6.25372E-04-3.31788E-15
 -1       189 2.68853E-03-6.33260E-04-4.19673E-15
 -1       190 2.96672E-03-6.37313E-04-5.17072E-15
 -1       191 3.24645E-03-6.38497E-04-6.23490E-15
 -1       192 3.52773E-03-6.37500E-04-7.38685E-15
 -1       193 3.81057E-03-6.34789E-04-8.62392E-15
 -1       194 4.09506E-03-6.30658E-04-9.94343E-15
 -1       195 4.38140E-03-6.25273E-04-1.13455E-14
 -1       196 4.66991E-03-6.18715E-04-1.28319E-14
 -1       197 4.96116E-03-6.11032E-04-1.43971E-14
 -1       198 5.25603E-03-6.02325E-04-1.60376E-14
 -1       199 5.55578E-03-5.92896E-04-1.77521E-14
 -1       200 5.86230E-03-5.83527E-04-1.95350E-14
 -1       201 6.17820E-03-5.76028E-04-2.13773E-14
 -1       202 6.50702E-03-5.74260E-04-2.32773E-14
 -1       203 6.85334E-03-5.86025E-04-2.52347E-14
 -1       204 7.22254E-03-6.26194E-04-2.72410E-14
 -1       205 7.62001E-03-7.20860E-04-2.92924E-14
 -1       206 8.04915E-03-9.09213E-04-3.13983E-14
 -1       207 8.48365E-03-1.21221E-03-3.34550E-14
 -1       208 8.92959E-03-1.63455E-03-3.55743E-14
 -1       209 9.29942E-03-2.00865E-03-3.74081E-14
 -1       210 9.65131E-03-2.26967E-03-3.92894E-14
 -1       211 1.03702E-02-2.13934E-03-4.33786E-14
 -1       212 1.08066E-02-1.85386E-03-4.57646E-14
 -1       213 1.12768E-02-1.63495E-03-4.83176E-14
 -1       214 1.17299E-02-1.55666E-03-5.09086E-14
 -1       215 1.21522E-02-1.59305E-03-5.35336E-14
 -1       216 1.25423E-02-1.70154E-03-5.61905E-14
 -1       217 1.29044E-02-1.84951E-03-5.88780E-14
 -1       218 1.32445E-02-2.01715E-03-6.15945E-14
 -1       219 1.35684E-02-2.19364E-03-6.43420E-14
 -1       220 1.38804E-02-2.37347E-03-6.71332E-14
 -1       221 1.41842E-02-2.55398E-03-6.99698E-14
 -1       222 1.44821E-02-2.73394E-03-7.28521E-14
 -1       223 1.47759E-02-2.91284E-03-7.57679E-14
 -1       224 1.50668E-02-3.09051E-03-7.87076E-14
 -1       225 1.53558E-02-3.26691E-03-8.16766E-14
 -1       226 1.56433E-02-3.44208E-03-8.46738E-14
 -1       227 1.59299E-02-3.61606E-03-8.76997E-14
 -1       228 1.62160E-02-3.78899E-03-9.07453E-14
 -1       229 1.63929E-02-3.89766E-03-9.28208E-14
 -1       230 6.04363E-04 3.30907E-04-3.66765E-17
 -1       231 8.93359E-04 4.32406E-04-1.78751E-16
 -1       232 1.17214E-03 5.03937E-04-4.13291E-16
 -1       233 1.44641E-03 5.54747E-04-7.43434E-16
 -1       234 1.71916E-03 5.90614E-04-1.17009E-15
 -1       235 1.99203E-03 6.15510E-04-1.69404E-15
 -1       236 2.26589E-03 6.32287E-04-2.31365E-15
 -1       237 2.54118E-03 6.43054E-04-3.02930E-15
 -1       238 2.81808E-03 6.49397E-04-3.84016E-15
 -1       239 3.09663E-03 6.52510E-04-4.74431E-15
 -1       240 3.37679E-03 6.53298E-04-5.73565E-15
 -1       241 3.65851E-03 6.52456E-04-6.81090E-15
 -1       242 3.94172E-03 6.50533E-04-7.97318E-15
 -1       243 4.22638E-03 6.47993E-04-9.22390E-15
 -1       244 4.51244E-03 6.45272E-04-1.05627E-14
 -1       245 4.79984E-03 6.42820E-04-1.19859E-14
 -1       246 5.08850E-03 6.41137E-04-1.34882E-14
 -1       247 5.37824E-03 6.40785E-04-1.50632E-14
 -1       248 5.66874E-03 6.42366E-04-1.67115E-14
 -1       249 5.95943E-03 6.46442E-04-1.84424E-14
 -1       250 6.24950E-03 6.53376E-04-2.02533E-14
 -1       251 6.53777E-03 6.63084E-04-2.21356E-14
 -1       252 6.82278E-03 6.74691E-04-2.40784E-14
 -1       253 7.10288E-03 6.86161E-04-2.60799E-14
 -1       254 7.37651E-03 6.94006E-04-2.81358E-14
 -1       255 7.64258E-03 6.93251E-04-3.02458E-14
 -1       256 7.90090E-03 6.77846E-04-3.24089E-14
 -1       257 8.15249E-03 6.41599E-04-3.46334E-14
 -1       258 8.39966E-03 5.79473E-04-3.69205E-14
 -1       259 8.64561E-03 4.88844E-04-3.92601E-14
 -1       260 8.89385E-03 3.70220E-04-4.16428E-14
 -1       261 9.14736E-03 2.27097E-04-4.40715E-14
 -1       262 9.40806E-03 6.50173E-05-4.65448E-14
 -1       263 9.67657E-03-1.09758E-04-4.90650E-14
 -1       264 9.95237E-03-2.91459E-04-5.16335E-14
 -1       265 1.02342E-02-4.75580E-04-5.42474E-14
 -1       266 1.05204E-02-6.59132E-04-5.69014E-14
 -1       267 1.08094E-02-8.40505E-04-5.96007E-14
 -1       268 1.10999E-02-1.01914E-03-6.23394E-14
 -1       269 1.13908E-02-1.19514E-03-6.51228E-14
 -1       270 1.16815E-02-1.36898E-03-6.79449E-14
 -1       271 1.19714E-02-1.54125E-03-7.07926E-14
 -1       272 1.22606E-02-1.71255E-03-7.36560E-14
 -1       273 1.25489E-02-1.88340E-03-7.65304E-14
 -1       274 1.28363E-02-2.05423E-03-7.94258E-14
 -1       275 1.31231E-02-2.22536E-03-8.23383E-14
 -1       276 1.34093E-02-2.39701E-03-8.52582E-14
 -1       277 1.36952E-02-2.56925E-03-8.81741E-14
 -1       278 1.38744E-02-2.66348E-03-8.89220E-14
 -1       279 1.40449E-02-2.74745E-03-8.92321E-14
 -1       280 1.42159E-02-2.83105E-03-8.95413E-14
 -1       281 1.43872E-02-2.91415E-03-8.98460E-14
 -1       282 1.45557E-02-2.99531E-03-9.01402E-14
 -1       283 1.47268E-02-3.07733E-03-9.04282E-14
 -1       284 1.48973E-02-3.15890E-03-9.06993E-14
 -1       285 1.50670E-02-3.24015E-03-9.09570E-14
 -1       286 1.52359E-02-3.32130E-03-9.11903E-14
 -1       287 1.54038E-02-3.40258E-03-9.13956E-14
 -1       288 1.55682E-02-3.48282E-03-9.15789E-14
 -1       289 1.57351E-02-3.56499E-03-9.17472E-14
 -1       290 1.59021E-02-3.64779E-03-9.18994E-14
 -1       291 1.60696E-02-3.73121E-03-9.20409E-14
 -1       292 1.62310E-02-3.81431E-03-9.24302E-14
 -1       293 1.18478E-02-1.02480E-03-4.64023E-14
 -1       294 1.16027E-02-8.96081E-04-4.60104E-14
 -1       295 1.12182E-02-7.60746E-04-4.55293E-14
 -1       296 1.07954E-02-5.25729E-04-4.43685E-14
 -1       297 1.03346E-02-2.89649E-04-4.30996E-14
 -1       298 9.88392E-03-8.97655E-05-4.17713E-14
 -1       299 9.43377E-03 6.20106E-05-4.03640E-14
 -1       300 9.03068E-03 1.20288E-04-3.88709E-14
 -1       301 8.63794E-03 8.19088E-05-3.75551E-14
 -1       302 8.24283E-03-1.67423E-05-3.63929E-14
 -1       303 7.87369E-03-1.50518E-04-3.53545E-14
 -1       304 7.53091E-03-2.98695E-04-3.44376E-14
 -1       305 7.22862E-03-4.17510E-04-3.39399E-14
 -1       306 7.03985E-03-5.21599E-04-3.36567E-14
 -1       307 6.98749E-03-6.20056E-04-3.35899E-14
 -1       308 7.07946E-03-7.28524E-04-3.37244E-14
 -1       309 7.31552E-03-8.92749E-04-3.42365E-14
 -1       310 7.67743E-03-1.11385E-03-3.49416E-14
 -1       311 8.13580E-03-1.40603E-03-3.58954E-14
 -1       312 8.62963E-03-1.72896E-03-3.70301E-14
 -1       313 9.11635E-03-2.01714E-03-3.83082E-14
 -1       314 9.60192E-03-2.20146E-03-3.97160E-14
 -1       315 1.00426E-02-2.19204E-03-4.11128E-14
 -1       316 1.04768E-02-2.04294E-03-4.25111E-14
 -1       317 1.09317E-02-1.81494E-03-4.36977E-14
 -1       318 1.13325E-02-1.58822E-03-4.47449E-14
 -1       319 1.16588E-02-1.37674E-03-4.57900E-14
 -1       320 1.18814E-02-1.24179E-03-4.62630E-14
 -1       321 1.19458E-02-1.13327E-03-4.65364E-14
 -1       322 1.00474E-02-2.30656E-03-4.15253E-14
 -1       323 4.55292E-04-1.64751E-04-1.50108E-16
 -1       324 4.74230E-04-2.13058E-04-1.26221E-16
 -1       325 4.40520E-04-9.39950E-05-1.69989E-16
 -1       326 4.37577E-04-6.48920E-05-1.72425E-16
 -1       327 4.35965E-04-3.78944E-05-1.72358E-16
 -1       328 4.35258E-04-1.20206E-05-1.70755E-16
 -1       329 4.35285E-04 1.35151E-05-1.67862E-16
 -1       330 4.36053E-04 3.94429E-05-1.63054E-16
 -1       331 4.37704E-04 6.60845E-05-1.56044E-16
 -1       332 4.40734E-04 9.53502E-05-1.45998E-16
 -1       333 4.46083E-04 1.28256E-04-1.31443E-16
 -1       334 4.55962E-04 1.67234E-04-1.10223E-16
 -1       335 4.75790E-04 2.16888E-04-7.85572E-17
 -1       336 5.31844E-04 2.69846E-04-6.29684E-17
 -1       337 8.24260E-04 3.73229E-04-2.11765E-16
 -1       338 9.86444E-03-2.27851E-03-4.05847E-14
 -1       339 8.48765E-04-3.53240E-04-3.84665E-16
 -1       340 1.13525E-03-4.22900E-04-7.06307E-16
 -1       341 1.41813E-03-4.72631E-04-1.12905E-15
 -1       342 1.69891E-03-5.07604E-04-1.65314E-15
 -1       343 1.97873E-03-5.31643E-04-2.27857E-15
 -1       344 2.25840E-03-5.47577E-04-3.00537E-15
 -1       345 2.53843E-03-5.57509E-04-3.83225E-15
 -1       346 2.81911E-03-5.63000E-04-4.75545E-15
 -1       347 3.10062E-03-5.65196E-04-5.77136E-15
 -1       348 3.38307E-03-5.64918E-04-6.87461E-15
 -1       349 3.66653E-03-5.62734E-04-8.06421E-15
 -1       350 3.95106E-03-5.59009E-04-9.33719E-15
 -1       351 4.23678E-03-5.53959E-04-1.06922E-14
 -1       352 4.52384E-03-5.47686E-04-1.21310E-14
 -1       353 4.81247E-03-5.40233E-04-1.36508E-14
 -1       354 5.10297E-03-5.31643E-04-1.52478E-14
 -1       355 5.39577E-03-5.22071E-04-1.69187E-14
 -1       356 5.69138E-03-5.11980E-04-1.86593E-14
 -1       357 5.99041E-03-5.02498E-04-2.04649E-14
 -1       358 6.29357E-03-4.96088E-04-2.23299E-14
 -1       359 6.60176E-03-4.97734E-04-2.42551E-14
 -1       360 6.91651E-03-5.16919E-04-2.62341E-14
 -1       361 7.24138E-03-5.70681E-04-2.82613E-14
 -1       362 7.58505E-03-6.87542E-04-3.03398E-14
 -1       363 7.94532E-03-8.96052E-04-3.23661E-14
 -1       364 8.35731E-03-1.24036E-03-3.44495E-14
 -1       365 9.34908E-03-2.10194E-03-3.83440E-14
 -1       366 1.08918E-02-7.26158E-04-4.57385E-14
 -1       367 1.11984E-02-1.59057E-03-4.69940E-14
 -1       368 1.16187E-02-1.46334E-03-4.95606E-14
 -1       369 1.19937E-02-1.46744E-03-5.21612E-14
 -1       370 1.23411E-02-1.55660E-03-5.47986E-14
 -1       371 1.26716E-02-1.69427E-03-5.74638E-14
 -1       372 1.29909E-02-1.85721E-03-6.01624E-14
 -1       373 1.33020E-02-2.03218E-03-6.28899E-14
 -1       374 1.36067E-02-2.21209E-03-6.56579E-14
 -1       375 1.39064E-02-2.39338E-03-6.84704E-14
 -1       376 1.42023E-02-2.57437E-03-7.13257E-14
 -1       377 1.44953E-02-2.75433E-03-7.42176E-14
 -1       378 1.47860E-02-2.93300E-03-7.71407E-14
 -1       379 1.50751E-02-3.11031E-03-8.00875E-14
 -1       380 1.53630E-02-3.28631E-03-8.30656E-14
 -1       381 1.56500E-02-3.46103E-03-8.60698E-14
 -1       382 1.59363E-02-3.63457E-03-8.91013E-14
 -1       383 1.27140E-03 4.60594E-04-6.71328E-16
 -1       384 1.55230E-03 5.03153E-04-1.06630E-15
 -1       385 1.83166E-03 5.32880E-04-1.55607E-15
 -1       386 2.11058E-03 5.53100E-04-2.14126E-15
 -1       387 2.38972E-03 5.66290E-04-2.82164E-15
 -1       388 2.66947E-03 5.74309E-04-3.59566E-15
 -1       389 2.95007E-03 5.78549E-04-4.46306E-15
 -1       390 3.23163E-03 5.80060E-04-5.41949E-15
 -1       391 3.51418E-03 5.79631E-04-6.46095E-15
 -1       392 3.79776E-03 5.77872E-04-7.58897E-15
 -1       393 4.08237E-03 5.75275E-04-8.80317E-15
 -1       394 4.36801E-03 5.72274E-04-1.01041E-14
 -1       395 4.65469E-03 5.69300E-04-1.14888E-14
 -1       396 4.94240E-03 5.66822E-04-1.29551E-14
 -1       397 5.23111E-03 5.65376E-04-1.44966E-14
 -1       398 5.52073E-03 5.65575E-04-1.61120E-14
 -1       399 5.81106E-03 5.68059E-04-1.78062E-14
 -1       400 6.10174E-03 5.73393E-04-1.95776E-14
 -1       401 6.39221E-03 5.81866E-04-2.14238E-14
 -1       402 6.68162E-03 5.93186E-04-2.33357E-14
 -1       403 6.96890E-03 6.06086E-04-2.53091E-14
 -1       404 7.25277E-03 6.17917E-04-2.73411E-14
 -1       405 7.53203E-03 6.24379E-04-2.94260E-14
 -1       406 7.80582E-03 6.19623E-04-3.15666E-14
 -1       407 8.07412E-03 5.96911E-04-3.37610E-14
 -1       408 8.33799E-03 5.49883E-04-3.60175E-14
 -1       409 8.59957E-03 4.74114E-04-3.83310E-14
 -1       410 8.86159E-03 3.68368E-04-4.06941E-14
 -1       411 9.12667E-03 2.34974E-04-4.31056E-14
 -1       412 9.39663E-03 7.91247E-05-4.55606E-14
 -1       413 9.67219E-03-9.25482E-05-4.80622E-14
 -1       414 9.95302E-03-2.73493E-04-5.06091E-14
 -1       415 1.02381E-02-4.58324E-04-5.31987E-14
 -1       416 1.05262E-02-6.43294E-04-5.58291E-14
 -1       417 1.08161E-02-8.26249E-04-5.85053E-14
 -1       418 1.11068E-02-1.00630E-03-6.12194E-14
 -1       419 1.13976E-02-1.18339E-03-6.39767E-14
 -1       420 1.16880E-02-1.35797E-03-6.67814E-14
 -1       421 1.19778E-02-1.53064E-03-6.96158E-14
 -1       422 1.22668E-02-1.70205E-03-7.24697E-14
 -1       423 1.25551E-02-1.87280E-03-7.53382E-14
 -1       424 1.28426E-02-2.04337E-03-7.82245E-14
 -1       425 1.31296E-02-2.21413E-03-8.11334E-14
 -1       426 1.34160E-02-2.38535E-03-8.40529E-14
 -1       427 1.36453E-02-2.52418E-03-8.64893E-14
 -1       428 1.40544E-02-2.72340E-03-8.71311E-14
 -1       429 1.38830E-02-2.64004E-03-8.68328E-14
 -1       430 1.42230E-02-2.80488E-03-8.74172E-14
 -1       431 1.43945E-02-2.88726E-03-8.76958E-14
 -1       432 1.45655E-02-2.96917E-03-8.79629E-14
 -1       433 1.47358E-02-3.05070E-03-8.82185E-14
 -1       434 1.49051E-02-3.13199E-03-8.84568E-14
 -1       435 1.50735E-02-3.21322E-03-8.86683E-14
 -1       436 1.52381E-02-3.29323E-03-8.88526E-14
 -1       437 1.54049E-02-3.37499E-03-8.90222E-14
 -1       438 1.55715E-02-3.45730E-03-8.91763E-14
 -1       439 1.57384E-02-3.54025E-03-8.93268E-14
 -1       440 1.04869E-03 4.24335E-04-4.09415E-16
 -1       441 1.14301E-02-9.63320E-04-4.69949E-14
 -1       442 1.04268E-02-4.78154E-04-4.44513E-14
 -1       443 1.19286E-02-1.12176E-03-4.75641E-14
 -1       444 1.02585E-02-2.16354E-03-4.24137E-14
 -1       445 4.45723E-04-1.26477E-04-1.63213E-16
 -1       446 1.07458E-02-1.85293E-03-4.45984E-14
 -1       447 9.99638E-03-2.13536E-04-4.28668E-14
 -1       448 9.62139E-03-1.78441E-05-4.14504E-14
 -1       449 9.18583E-03 1.31518E-04-3.95270E-14
 -1       450 8.81287E-03 1.38678E-04-3.77909E-14
 -1       451 8.46770E-03 4.57133E-05-3.64232E-14
 -1       452 8.11802E-03-9.26166E-05-3.52676E-14
 -1       453 7.75590E-03-2.48919E-04-3.41800E-14
 -1       454 7.36487E-03-4.05026E-04-3.32675E-14
 -1       455 7.10712E-03-4.97770E-04-3.27789E-14
 -1       456 6.97977E-03-5.58046E-04-3.26434E-14
 -1       457 7.00022E-03-6.04207E-04-3.25606E-14
 -1       458 7.20752E-03-7.12371E-04-3.31242E-14
 -1       459 7.55120E-03-8.60962E-04-3.36382E-14
 -1       460 8.00523E-03-1.13938E-03-3.46909E-14
 -1       461 8.51164E-03-1.49154E-03-3.58889E-14
 -1       462 9.00278E-03-1.86531E-03-3.72644E-14
 -1       463 1.06737E-02-1.90379E-03-4.37471E-14
 -1       464 1.10769E-02-1.64934E-03-4.49877E-14
 -1       465 1.14375E-02-1.43465E-03-4.62100E-14
 -1       466 1.17982E-02-1.26099E-03-4.70727E-14
 -1       467 1.19520E-02-1.18285E-03-4.76939E-14
 -1       468 1.17214E-02-1.05441E-03-4.74021E-14
 -1       469 1.11621E-02-9.11556E-04-4.72068E-14
 -1       470 1.58371E-02-3.58727E-03-8.92135E-14
 -1       471 1.16469E-02-1.32864E-03-4.74962E-14
 -1       472 9.37298E-03 7.54542E-05-4.06044E-14
 -1       473 6.65988E-04-7.50839E-05-3.69374E-16
 -1       474 6.69928E-04-1.15823E-04-3.66796E-16
 -1       475 6.63323E-04 1.08713E-06-3.63973E-16
 -1       476 6.64033E-04 3.87093E-05-3.56570E-16
 -1       477 6.66154E-04 7.67257E-05-3.45484E-16
 -1       478 6.70217E-04 1.17605E-04-3.29326E-16
 -1       479 6.77176E-04 1.62200E-04-3.07236E-16
 -1       480 6.88957E-04 2.12556E-04-2.76627E-16
 -1       481 7.09696E-04 2.71584E-04-2.34364E-16
 -1       482 7.63362E-04 3.20294E-04-2.27272E-16
 -1       483 9.61985E-04-3.25224E-04-5.80065E-16
 -1       484 1.01056E-02-3.54828E-04-4.41548E-14
 -1       485 1.24791E-03-3.80707E-04-9.60955E-16
 -1       486 1.53298E-03-4.20800E-04-1.44096E-15
 -1       487 1.81718E-03-4.48926E-04-2.01994E-15
 -1       488 2.10080E-03-4.67982E-04-2.69797E-15
 -1       489 2.38419E-03-4.80249E-04-3.47406E-15
 -1       490 2.66761E-03-4.87473E-04-4.34704E-15
 -1       491 2.95126E-03-4.90961E-04-5.31426E-15
 -1       492 3.23525E-03-4.91670E-04-6.36995E-15
 -1       493 3.51968E-03-4.90280E-04-7.51247E-15
 -1       494 3.80458E-03-4.87249E-04-8.73786E-15
 -1       495 4.09000E-03-4.82871E-04-1.00466E-14
 -1       496 4.37594E-03-4.77319E-04-1.14382E-14
 -1       497 4.66239E-03-4.70694E-04-1.29134E-14
 -1       498 4.94927E-03-4.63087E-04-1.44661E-14
 -1       499 5.23639E-03-4.54670E-04-1.60946E-14
 -1       500 5.52338E-03-4.45834E-04-1.77948E-14
 -1       501 5.80959E-03-4.37433E-04-1.95604E-14
 -1       502 6.09389E-03-4.31180E-04-2.13885E-14
 -1       503 6.37468E-03-4.30280E-04-2.32802E-14
 -1       504 6.65001E-03-4.40370E-04-2.52289E-14
 -1       505 6.91861E-03-4.70823E-04-2.72310E-14
 -1       506 7.18295E-03-5.36999E-04-2.92834E-14
 -1       507 7.44068E-03-6.57635E-04-3.12820E-14
 -1       508 7.82791E-03-9.20540E-04-3.33880E-14
 -1       509 8.90601E-03-1.73027E-03-3.64864E-14
 -1       510 7.05604E-04-2.49813E-04-3.30184E-16
 -1       511 1.19079E-02-1.36464E-03-5.08044E-14
 -1       512 1.22064E-02-1.43195E-03-5.34128E-14
 -1       513 1.24903E-02-1.55681E-03-5.60531E-14
 -1       514 1.27752E-02-1.71064E-03-5.87303E-14
 -1       515 1.30626E-02-1.87989E-03-6.14421E-14
 -1       516 1.33517E-02-2.05667E-03-6.41867E-14
 -1       517 1.36415E-02-2.23650E-03-6.69737E-14
 -1       518 1.39312E-02-2.41704E-03-6.98077E-14
 -1       519 1.42205E-02-2.59711E-03-7.26772E-14
 -1       520 1.45091E-02-2.77617E-03-7.55755E-14
 -1       521 1.47970E-02-2.95402E-03-7.85085E-14
 -1       522 1.50843E-02-3.13062E-03-8.14628E-14
 -1       523 1.53711E-02-3.30598E-03-8.44500E-14
 -1       524 1.56042E-02-3.44698E-03-8.68215E-14
 -1       525 1.95087E-03 4.71859E-04-1.95900E-15
 -1       526 1.66753E-03 4.47927E-04-1.40804E-15
 -1       527 1.38337E-03 4.13381E-04-9.50717E-16
 -1       528 2.23380E-03 4.87815E-04-2.60462E-15
 -1       529 2.51667E-03 4.97852E-04-3.34321E-15
 -1       530 2.79973E-03 5.03539E-04-4.17428E-15
 -1       531 3.08313E-03 5.06062E-04-5.09570E-15
 -1       532 3.36699E-03 5.06313E-04-6.10429E-15
 -1       533 3.65138E-03 5.04967E-04-7.19802E-15
 -1       534 3.93635E-03 5.02546E-04-8.37790E-15
 -1       535 4.22195E-03 4.99485E-04-9.64229E-15
 -1       536 4.50826E-03 4.96184E-04-1.09904E-14
 -1       537 4.79535E-03 4.93060E-04-1.24206E-14
 -1       538 5.08333E-03 4.90587E-04-1.39289E-14
 -1       539 5.37232E-03 4.89324E-04-1.55136E-14
 -1       540 5.66244E-03 4.89912E-04-1.71724E-14
 -1       541 5.95373E-03 4.93021E-04-1.89065E-14
 -1       542 6.24616E-03 4.99227E-04-2.07153E-14
 -1       543 6.53947E-03 5.08781E-04-2.25946E-14
 -1       544 6.83309E-03 5.21249E-04-2.45368E-14
 -1       545 7.12603E-03 5.35048E-04-2.65427E-14
 -1       546 7.41693E-03 5.46945E-04-2.86030E-14
 -1       547 7.70430E-03 5.51754E-04-3.07189E-14
 -1       548 7.98700E-03 5.42536E-04-3.28906E-14
 -1       549 8.26493E-03 5.11608E-04-3.51148E-14
 -1       550 8.53935E-03 4.52344E-04-3.73983E-14
 -1       551 8.81278E-03 3.61169E-04-3.97404E-14
 -1       552 9.08809E-03 2.38777E-04-4.21316E-14
 -1       553 9.36746E-03 8.98950E-05-4.45706E-14
 -1       554 9.65171E-03-7.83024E-05-4.70534E-14
 -1       555 9.94035E-03-2.58222E-04-4.95796E-14
 -1       556 1.02321E-02-4.43429E-04-5.21479E-14
 -1       557 1.05254E-02-6.29380E-04-5.47569E-14
 -1       558 1.08190E-02-8.13432E-04-5.74069E-14
 -1       559 1.11122E-02-9.94439E-04-6.01014E-14
 -1       560 1.14043E-02-1.17225E-03-6.28377E-14
 -1       561 1.16954E-02-1.34729E-03-6.56207E-14
 -1       562 1.19854E-02-1.52018E-03-6.84394E-14
 -1       563 1.22744E-02-1.69163E-03-7.12841E-14
 -1       564 1.25625E-02-1.86225E-03-7.41467E-14
 -1       565 1.28500E-02-2.03256E-03-7.70288E-14
 -1       566 1.31369E-02-2.20296E-03-7.99263E-14
 -1       567 1.34233E-02-2.37375E-03-8.28438E-14
 -1       568 1.40619E-02-2.69769E-03-8.49859E-14
 -1       569 1.38930E-02-2.61640E-03-8.47154E-14
 -1       570 1.37212E-02-2.53320E-03-8.44298E-14
 -1       571 1.18799E-02-1.15644E-03-4.89340E-14
 -1       572 1.42335E-02-2.77985E-03-8.52498E-14
 -1       573 1.44044E-02-2.86152E-03-8.54997E-14
 -1       574 1.45745E-02-2.94278E-03-8.57348E-14
 -1       575 1.47434E-02-3.02380E-03-8.59488E-14
 -1       576 1.49083E-02-3.10342E-03-8.61384E-14
 -1       577 1.50752E-02-3.18464E-03-8.63082E-14
 -1       578 1.52414E-02-3.26634E-03-8.64694E-14
 -1       579 1.54077E-02-3.34871E-03-8.66247E-14
 -1       580 1.06196E-02-6.60169E-04-4.59359E-14
 -1       581 1.16251E-02-1.10747E-03-4.88676E-14
 -1       582 1.15839E-02-1.38529E-03-4.82249E-14
 -1       583 1.19955E-02-1.18771E-03-4.90864E-14
 -1       584 6.63933E-04-3.65017E-05-3.68371E-16
 -1       585 8.97538E-03 1.66036E-04-3.85285E-14
 -1       586 9.77635E-03-1.46646E-04-4.27255E-14
 -1       587 8.59105E-03 1.14139E-04-3.65007E-14
 -1       588 8.26004E-03-8.54604E-06-3.50233E-14
 -1       589 7.95704E-03-1.44958E-04-3.39478E-14
 -1       590 7.52655E-03-3.27426E-04-3.26831E-14
 -1       591 7.19509E-03-4.49314E-04-3.20368E-14
 -1       592 6.99600E-03-5.12536E-04-3.17362E-14
 -1       593 6.94695E-03-5.41733E-04-3.16562E-14
 -1       594 7.08570E-03-5.95823E-04-3.19247E-14
 -1       595 7.34817E-03-6.85342E-04-3.23390E-14
 -1       596 1.12420E-02-1.53649E-03-4.64171E-14
 -1       597 1.19149E-02-1.22672E-03-4.85455E-14
 -1       598 6.76684E-04-1.59998E-04-3.58769E-16
 -1       599 9.90281E-04 3.72557E-04-4.24062E-16
 -1       600 6.88393E-04-2.01987E-04-3.48493E-16
 -1       601 1.09106E-02-8.39670E-04-4.74066E-14
 -1       602 1.18666E-03 3.97850E-04-6.61191E-16
 -1       603 6.96590E-03-5.31032E-04-3.10277E-14
 -1       604 9.14869E-03 1.42428E-04-3.95906E-14
 -1       605 1.20303E-02-1.22934E-03-4.99470E-14
 -1       606 9.54411E-03-2.79253E-05-4.18685E-14
 -1       607 8.99951E-04 7.39836E-05-6.09240E-16
 -1       608 8.97880E-04 2.51213E-05-6.23928E-16
 -1       609 9.11942E-04 1.77982E-04-5.59299E-16
 -1       610 9.24246E-04 2.36448E-04-5.20851E-16
 -1       611 9.36568E-04 3.23224E-04-4.30330E-16
 -1       612 1.36909E-03-3.34664E-04-1.23102E-15
 -1       613 1.65530E-03-3.65740E-04-1.76521E-15
 -1       614 1.94155E-03-3.87432E-04-2.39615E-15
 -1       615 2.22765E-03-4.01883E-04-3.12337E-15
 -1       616 2.51358E-03-4.10859E-04-3.94646E-15
 -1       617 2.79938E-03-4.15750E-04-4.86350E-15
 -1       618 3.08510E-03-4.17608E-04-5.87252E-15
 -1       619 3.37077E-03-4.17205E-04-6.96764E-15
 -1       620 3.65640E-03-4.15089E-04-8.14782E-15
 -1       621 3.94196E-03-4.11640E-04-9.41014E-15
 -1       622 4.22737E-03-4.07113E-04-1.07555E-14
 -1       623 4.51247E-03-4.01700E-04-1.21836E-14
 -1       624 4.79697E-03-3.95586E-04-1.36932E-14
 -1       625 5.08037E-03-3.89031E-04-1.52783E-14
 -1       626 5.36186E-03-3.82487E-04-1.69355E-14
 -1       627 5.64018E-03-3.76774E-04-1.86628E-14
 -1       628 5.91338E-03-3.73320E-04-2.04537E-14
 -1       629 6.17863E-03-3.74498E-04-2.23098E-14
 -1       630 6.43203E-03-3.84011E-04-2.42269E-14
 -1       631 6.66866E-03-4.07258E-04-2.62004E-14
 -1       632 6.88218E-03-4.51423E-04-2.82270E-14
 -1       633 7.11198E-03-5.34877E-04-3.02592E-14
 -1       634 1.23487E-02-1.44154E-03-5.46506E-14
 -1       635 1.34354E-02-2.36232E-03-8.15037E-14
 -1       636 1.25901E-02-1.58291E-03-5.73044E-14
 -1       637 1.28466E-02-1.74197E-03-5.99940E-14
 -1       638 1.31142E-02-1.91151E-03-6.27199E-14
 -1       639 1.33893E-02-2.08666E-03-6.54858E-14
 -1       640 1.36693E-02-2.26439E-03-6.82914E-14
 -1       641 1.39522E-02-2.44291E-03-7.11446E-14
 -1       642 1.42366E-02-2.62125E-03-7.40233E-14
 -1       643 1.45220E-02-2.79890E-03-7.69337E-14
 -1       644 1.48077E-02-2.97561E-03-7.98719E-14
 -1       645 1.50936E-02-3.15128E-03-8.28357E-14
 -1       646 1.78978E-03 3.89666E-04-1.76961E-15
 -1       647 2.07561E-03 4.08173E-04-2.38065E-15
 -1       648 1.50375E-03 3.62673E-04-1.25182E-15
 -1       649 2.64671E-03 4.27482E-04-3.88016E-15
 -1       650 2.93212E-03 4.31190E-04-4.76635E-15
 -1       651 3.21754E-03 4.32325E-04-5.74141E-15
 -1       652 3.50305E-03 4.31613E-04-6.80186E-15
 -1       653 3.78871E-03 4.29603E-04-7.94727E-15
 -1       654 4.07459E-03 4.26725E-04-9.17591E-15
 -1       655 4.36079E-03 4.23341E-04-1.04891E-14
 -1       656 4.64747E-03 4.19799E-04-1.18844E-14
 -1       657 4.93482E-03 4.16480E-04-1.33596E-14
 -1       658 5.22310E-03 4.13837E-04-1.49121E-14
 -1       659 5.51268E-03 4.12428E-04-1.65391E-14
 -1       660 5.80395E-03 4.12914E-04-1.82387E-14
 -1       661 6.09735E-03 4.16023E-04-2.00123E-14
 -1       662 6.39321E-03 4.22424E-04-2.18568E-14
 -1       663 6.69157E-03 4.32483E-04-2.37663E-14
 -1       664 6.99197E-03 4.45825E-04-2.57413E-14
 -1       665 7.29321E-03 4.60716E-04-2.77776E-14
 -1       666 7.59334E-03 4.73330E-04-2.98687E-14
 -1       667 7.89011E-03 4.77256E-04-3.20147E-14
 -1       668 8.18182E-03 4.63816E-04-3.42141E-14
 -1       669 8.46845E-03 4.23704E-04-3.64672E-14
 -1       670 8.75215E-03 3.49932E-04-3.87824E-14
 -1       671 9.03642E-03 2.40437E-04-4.11504E-14
 -1       672 9.32453E-03 9.90509E-05-4.35694E-14
 -1       673 9.61794E-03-6.61570E-05-4.60335E-14
 -1       674 9.91601E-03-2.45845E-04-4.85428E-14
 -1       675 1.02168E-02-4.31952E-04-5.10926E-14
 -1       676 1.05179E-02-6.18918E-04-5.36786E-14
 -1       677 1.08178E-02-8.03669E-04-5.63084E-14
 -1       678 1.11154E-02-9.84997E-04-5.89827E-14
 -1       679 1.14105E-02-1.16284E-03-6.17015E-14
 -1       680 1.17032E-02-1.33772E-03-6.44638E-14
 -1       681 1.19940E-02-1.51038E-03-6.72657E-14
 -1       682 1.22832E-02-1.68153E-03-7.00970E-14
 -1       683 1.25712E-02-1.85182E-03-7.29514E-14
 -1       684 1.28585E-02-2.02177E-03-7.58267E-14
 -1       685 1.31471E-02-2.19190E-03-7.86527E-14
 -1       686 1.37305E-02-2.50925E-03-8.23043E-14
 -1       687 1.40729E-02-2.67284E-03-8.28107E-14
 -1       688 1.39019E-02-2.59135E-03-8.25645E-14
 -1       689 2.36123E-03 4.20233E-04-3.08405E-15
 -1       690 1.44135E-02-2.83482E-03-8.32542E-14
 -1       691 1.45790E-02-2.91393E-03-8.34442E-14
 -1       692 1.47461E-02-2.99442E-03-8.36247E-14
 -1       693 1.49121E-02-3.07528E-03-8.37870E-14
 -1       694 1.50776E-02-3.15681E-03-8.39437E-14
 -1       695 8.73989E-03 1.81322E-04-3.71914E-14
 -1       696 7.01951E-03-4.55159E-04-3.07515E-14
 -1       697 1.18704E-02-1.21625E-03-5.07975E-14
 -1       698 1.42438E-02-2.75407E-03-8.30404E-14
 -1       699 1.08357E-03-2.91863E-04-7.94073E-16
 -1       700 9.04371E-04 1.24425E-04-5.88105E-16
 -1       701 1.18731E-02-1.28590E-03-4.94595E-14
 -1       702 1.20260E-02-1.24307E-03-5.09607E-14
 -1       703 9.04042E-04-1.22079E-04-6.36437E-16
 -1       704 9.89433E-03-2.55951E-04-4.39030E-14
 -1       705 1.13557E-02-1.04725E-03-4.90740E-14
 -1       706 8.35922E-03 9.15373E-05-3.50480E-14
 -1       707 7.27217E-03-3.70139E-04-3.12160E-14
 -1       708 8.02014E-03-4.56782E-05-3.34835E-14
 -1       709 7.66819E-03-2.08221E-04-3.22571E-14
 -1       710 6.90108E-03-4.82356E-04-3.03733E-14
 -1       711 1.03445E-02-5.40688E-04-4.58451E-14
 -1       712 8.84735E-04-2.49808E-04-5.48674E-16
 -1       713 1.21210E-02-1.33227E-03-5.20362E-14
 -1       714 8.97826E-04-2.31433E-05-6.33354E-16
 -1       715 1.21785E-03 3.24839E-04-8.25776E-16
 -1       716 1.06324E-02-7.18922E-04-4.73176E-14
 -1       717 8.89951E-03 1.89998E-04-3.82321E-14
 -1       718 6.86910E-03-4.71852E-04-2.97546E-14
 -1       719 7.38893E-03-2.59360E-04-3.07965E-14
 -1       720 9.11390E-04-1.75441E-04-6.28614E-16
 -1       721 9.31916E-03 7.38263E-05-4.08399E-14
 -1       722 8.99770E-04-7.17474E-05-6.37575E-16
 -1       723 1.16744E-02-1.18389E-03-5.10085E-14
 -1       724 1.13848E-03 5.89087E-05-9.46156E-16
 -1       725 1.16167E-03 2.43207E-04-8.42408E-16
 -1       726 6.89720E-03-4.72247E-04-2.94708E-14
 -1       727 8.96721E-04-2.11887E-04-5.90629E-16
 -1       728 1.78313E-03-3.07476E-04-2.10104E-15
 -1       729 2.07078E-03-3.23346E-04-2.78136E-15
 -1       730 2.35854E-03-3.33679E-04-3.55550E-15
 -1       731 2.64618E-03-3.39799E-04-4.42365E-15
 -1       732 2.93355E-03-3.42767E-04-5.38369E-15
 -1       733 3.22058E-03-3.43397E-04-6.43305E-15
 -1       734 3.50720E-03-3.42294E-04-7.56755E-15
 -1       735 3.79332E-03-3.39902E-04-8.78447E-15
 -1       736 4.07880E-03-3.36551E-04-1.00831E-14
 -1       737 4.36342E-03-3.32513E-04-1.14644E-14
 -1       738 4.64681E-03-3.28064E-04-1.29279E-14
 -1       739 4.92839E-03-3.23561E-04-1.44700E-14
 -1       740 5.20727E-03-3.19544E-04-1.60847E-14
 -1       741 5.48208E-03-3.16873E-04-1.77707E-14
 -1       742 5.75082E-03-3.16905E-04-1.95250E-14
 -1       743 6.01060E-03-3.21698E-04-2.13447E-14
 -1       744 6.25734E-03-3.34168E-04-2.32274E-14
 -1       745 6.48539E-03-3.58089E-04-2.51708E-14
 -1       746 6.68801E-03-3.97977E-04-2.71701E-14
 -1       747 1.34373E-03 2.80124E-04-1.08991E-15
 -1       748 1.24129E-02-1.47384E-03-5.58745E-14
 -1       749 1.26356E-02-1.61801E-03-5.85445E-14
 -1       750 1.28789E-02-1.77558E-03-6.12492E-14
 -1       751 1.31366E-02-1.94194E-03-6.39932E-14
 -1       752 1.34043E-02-2.11361E-03-6.67763E-14
 -1       753 1.36786E-02-2.28816E-03-6.96059E-14
 -1       754 1.39572E-02-2.46402E-03-7.24682E-14
 -1       755 1.42385E-02-2.64021E-03-7.53528E-14
 -1       756 1.45216E-02-2.81617E-03-7.82761E-14
 -1       757 1.47993E-02-2.98680E-03-8.10936E-14
 -1       758 1.34432E-02-2.33910E-03-7.94479E-14
 -1       759 1.91741E-03 3.28546E-04-2.15118E-15
 -1       760 1.63016E-03 3.08452E-04-1.57475E-15
 -1       761 3.06663E-03 3.57640E-04-5.37340E-15
 -1       762 2.77961E-03 3.55562E-04-4.43287E-15
 -1       763 3.63996E-03 3.56288E-04-7.51167E-15
 -1       764 3.92635E-03 3.53828E-04-8.70597E-15
 -1       765 4.21268E-03 3.50636E-04-9.98394E-15
 -1       766 4.49910E-03 3.46983E-04-1.13456E-14
 -1       767 4.78584E-03 3.43136E-04-1.27885E-14
 -1       768 5.07324E-03 3.39406E-04-1.43080E-14
 -1       769 5.36180E-03 3.36192E-04-1.59035E-14
 -1       770 5.65216E-03 3.34028E-04-1.75721E-14
 -1       771 5.94510E-03 3.33612E-04-1.93125E-14
 -1       772 6.24151E-03 3.35812E-04-2.11216E-14
 -1       773 6.54216E-03 3.41572E-04-2.29993E-14
 -1       774 6.84741E-03 3.51657E-04-2.49410E-14
 -1       775 7.15679E-03 3.66101E-04-2.69491E-14
 -1       776 7.46855E-03 3.83242E-04-2.90164E-14
 -1       777 7.77967E-03 3.98462E-04-3.11380E-14
 -1       778 8.08663E-03 4.03261E-04-3.33132E-14
 -1       779 8.38707E-03 3.85876E-04-3.55397E-14
 -1       780 8.68180E-03 3.34285E-04-3.78232E-14
 -1       781 8.97476E-03 2.41594E-04-4.01659E-14
 -1       782 9.27101E-03 1.09138E-04-4.25613E-14
 -1       783 9.57359E-03-5.39798E-05-4.50059E-14
 -1       784 9.88220E-03-2.35367E-04-4.74963E-14
 -1       785 1.01939E-02-4.24098E-04-5.00282E-14
 -1       786 1.05052E-02-6.12932E-04-5.26000E-14
 -1       787 1.08134E-02-7.98349E-04-5.52091E-14
 -1       788 1.11172E-02-9.79366E-04-5.78641E-14
 -1       789 1.14164E-02-1.15635E-03-6.05664E-14
 -1       790 1.17116E-02-1.33018E-03-6.33094E-14
 -1       791 1.20035E-02-1.50182E-03-6.60925E-14
 -1       792 1.22931E-02-1.67210E-03-6.89103E-14
 -1       793 1.25811E-02-1.84168E-03-7.17539E-14
 -1       794 1.28680E-02-2.01106E-03-7.46208E-14
 -1       795 1.21049E-03-2.52800E-04-1.02683E-15
 -1       796 1.39129E-02-2.56606E-03-8.03715E-14
 -1       797 1.45838E-02-2.88463E-03-8.11298E-14
 -1       798 1.42516E-02-2.72590E-03-8.07811E-14
 -1       799 7.67981E-03-7.63989E-05-3.14144E-14
 -1       800 8.08190E-03 7.35676E-05-3.33348E-14
 -1       801 8.48592E-03 1.81948E-04-3.56439E-14
 -1       802 1.01121E-02-4.13152E-04-4.55994E-14
 -1       803 1.22232E-02-1.34933E-03-5.32508E-14
 -1       804 7.03146E-03-3.77334E-04-2.97007E-14
 -1       805 1.20631E-02-1.30579E-03-5.27907E-14
 -1       806 1.40830E-02-2.64629E-03-8.05859E-14
 -1       807 1.10945E-02-9.63878E-04-4.94462E-14
 -1       808 9.61904E-03-9.60390E-05-4.28208E-14
 -1       809 3.35340E-03 3.57697E-04-6.40057E-15
 -1       810 6.88035E-03-4.21862E-04-2.93363E-14
 -1       811 1.44185E-02-2.80521E-03-8.09620E-14
 -1       812 1.49607E-03-2.84508E-04-1.51636E-15
 -1       813 1.14997E-03 1.78763E-04-8.87006E-16
 -1       814 1.03810E-02-5.83000E-04-4.70714E-14
 -1       815 1.14257E-03 1.17681E-04-9.20979E-16
 -1       816 1.19238E-02-1.28894E-03-5.30092E-14
 -1       817 1.13712E-03 1.17057E-06-9.63469E-16
 -1       818 6.79579E-03-4.21017E-04-2.87320E-14
 -1       819 1.36153E-02-2.42132E-03-7.97001E-14
 -1       820 2.20490E-03 3.42129E-04-2.82010E-15
 -1       821 2.49235E-03 3.50717E-04-3.58077E-15
 -1       822 1.31559E-02-2.17509E-03-7.70268E-14
 -1       823 1.37644E-02-2.49393E-03-8.00409E-14
 -1       824 8.64406E-03 2.14017E-04-3.66643E-14
 -1       825 1.14513E-02-1.12745E-03-5.13893E-14
 -1       826 7.11560E-03-2.87113E-04-2.92882E-14
 -1       827 1.14946E-03-1.75858E-04-9.70744E-16
 -1       828 9.06312E-03 1.63098E-04-3.94595E-14
 -1       829 9.83688E-03-2.40968E-04-4.45016E-14
 -1       830 1.14227E-03-1.15017E-04-9.76036E-16
 -1       831 1.91531E-03-2.46008E-04-2.44931E-15
 -1       832 1.33009E-03 2.10039E-04-1.14540E-15
 -1       833 2.20399E-03-2.56815E-04-3.17532E-15
 -1       834 2.49289E-03-2.63632E-04-3.99455E-15
 -1       835 2.78163E-03-2.67409E-04-4.90598E-15
 -1       836 3.06994E-03-2.68919E-04-5.90754E-15
 -1       837 3.35766E-03-2.68767E-04-6.99531E-15
 -1       838 3.64461E-03-2.67419E-04-8.16804E-15
 -1       839 3.93063E-03-2.65243E-04-9.42037E-15
 -1       840 4.21547E-03-2.62564E-04-1.07564E-14
 -1       841 4.49878E-03-2.59714E-04-1.21733E-14
 -1       842 4.78004E-03-2.57109E-04-1.36715E-14
 -1       843 5.05846E-03-2.55341E-04-1.52426E-14
 -1       844 5.33290E-03-2.55282E-04-1.68863E-14
 -1       845 5.60177E-03-2.58229E-04-1.86009E-14
 -1       846 5.86281E-03-2.66042E-04-2.03854E-14
 -1       847 6.11300E-03-2.81254E-04-2.22332E-14
 -1       848 6.34815E-03-3.07011E-04-2.41429E-14
 -1       849 6.56226E-03-3.46737E-04-2.61104E-14
 -1       850 1.26408E-02-1.65387E-03-5.97822E-14
 -1       851 1.28846E-02-1.80845E-03-6.25045E-14
 -1       852 1.31415E-02-1.97140E-03-6.52671E-14
 -1       853 1.34077E-02-2.13977E-03-6.80721E-14
 -1       854 1.36803E-02-2.31139E-03-7.09167E-14
 -1       855 1.39573E-02-2.48479E-03-7.37830E-14
 -1       856 1.42373E-02-2.65898E-03-7.66803E-14
 -1       857 1.44104E-02-2.77211E-03-7.88978E-14
 -1       858 2.91514E-03 2.82421E-04-5.00163E-15
 -1       859 4.06438E-03 2.77920E-04-9.47682E-15
 -1       860 3.77774E-03 2.80657E-04-8.23277E-15
 -1       861 4.63690E-03 2.70546E-04-1.22124E-14
 -1       862 4.92333E-03 2.66210E-04-1.37010E-14
 -1       863 5.21048E-03 2.61689E-04-1.52639E-14
 -1       864 5.49907E-03 2.57288E-04-1.69022E-14
 -1       865 5.79009E-03 2.53500E-04-1.86120E-14
 -1       866 6.08480E-03 2.51104E-04-2.03896E-14
 -1       867 6.38464E-03 2.51242E-04-2.22350E-14
 -1       868 6.69098E-03 2.55423E-04-2.41454E-14
 -1       869 7.00463E-03 2.65280E-04-2.61224E-14
 -1       870 7.32505E-03 2.81793E-04-2.81630E-14
 -1       871 7.64965E-03 3.03668E-04-3.02613E-14
 -1       872 7.97349E-03 3.24944E-04-3.24115E-14
 -1       873 8.29185E-03 3.33181E-04-3.46122E-14
 -1       874 8.60060E-03 3.10544E-04-3.68677E-14
 -1       875 8.90426E-03 2.42373E-04-3.91801E-14
 -1       876 9.20912E-03 1.22800E-04-4.15500E-14
 -1       877 9.52094E-03-3.84888E-05-4.39722E-14
 -1       878 9.84117E-03-2.24642E-04-4.64409E-14
 -1       879 1.01661E-02-4.19310E-04-4.89574E-14
 -1       880 1.04898E-02-6.12013E-04-5.15116E-14
 -1       881 1.08082E-02-7.98619E-04-5.41059E-14
 -1       882 1.11195E-02-9.78800E-04-5.67418E-14
 -1       883 1.14236E-02-1.15387E-03-5.94245E-14
 -1       884 1.17215E-02-1.32548E-03-6.21562E-14
 -1       885 1.20147E-02-1.49508E-03-6.49230E-14
 -1       886 1.23046E-02-1.66369E-03-6.77189E-14
 -1       887 1.25923E-02-1.83200E-03-7.05480E-14
 -1       888 1.28786E-02-2.00045E-03-7.34073E-14
 -1       889 6.83051E-03-3.52070E-04-2.81382E-14
 -1       890 1.22352E-02-1.41876E-03-5.54071E-14
 -1       891 7.74986E-03 7.19727E-05-3.12662E-14
 -1       892 7.29482E-03-1.43239E-04-2.93662E-14
 -1       893 4.35069E-03 2.74500E-04-1.08030E-14
 -1       894 1.24316E-02-1.53041E-03-5.75823E-14
 -1       895 1.07987E-02-8.24205E-04-4.92278E-14
 -1       896 8.19846E-03 1.95428E-04-3.38412E-14
 -1       897 1.13832E-03-5.64061E-05-9.73444E-16
 -1       898 9.33949E-03 5.13013E-05-4.14151E-14
 -1       899 1.43329E-03-2.01164E-04-1.44756E-15
 -1       900 1.01650E-02-4.50043E-04-4.67160E-14
 -1       901 1.38124E-03 3.39798E-05-1.35539E-15
 -1       902 6.72614E-03-3.63791E-04-2.75488E-14
 -1       903 1.42461E-02-2.69361E-03-7.87339E-14
 -1       904 1.76117E-03 2.50609E-04-1.91889E-15
 -1       905 2.62672E-03 2.79554E-04-4.09469E-15
 -1       906 3.49069E-03 2.82518E-04-7.07168E-15
 -1       907 1.54504E-03 2.31992E-04-1.50696E-15
 -1       908 1.31663E-02-2.16377E-03-7.58014E-14
 -1       909 1.36044E-02-2.38863E-03-7.76943E-14
 -1       910 1.11684E-02-1.01325E-03-5.11690E-14
 -1       911 1.39234E-02-2.53854E-03-7.81414E-14
 -1       912 7.38328E-03 1.01227E-06-2.92258E-14
 -1       913 1.67369E-03-2.25184E-04-1.91565E-15
 -1       914 8.35376E-03 2.37636E-04-3.48382E-14
 -1       915 6.87641E-03-2.80091E-04-2.77369E-14
 -1       916 8.80759E-03 2.23144E-04-3.78638E-14
 -1       917 2.04938E-03 2.64644E-04-2.55251E-15
 -1       918 1.17475E-02-1.25474E-03-5.33986E-14
 -1       919 9.54845E-03-6.59936E-05-4.30713E-14
 -1       920 1.38437E-03 9.96778E-05-1.32741E-15
 -1       921 1.40856E-02-2.61617E-03-7.84421E-14
 -1       922 1.37646E-02-2.46401E-03-7.79249E-14
 -1       923 3.20315E-03 2.83233E-04-5.99384E-15
 -1       924 1.33910E-02-2.29245E-03-7.77449E-14
 -1       925 1.38118E-03-3.11900E-05-1.37364E-15
 -1       926 1.35590E-03 1.54810E-04-1.23865E-15
 -1       927 6.65591E-03-2.94487E-04-2.64401E-14
 -1       928 2.05118E-03-1.81407E-04-2.80728E-15
 -1       929 2.34065E-03-1.88018E-04-3.57768E-15
 -1       930 2.63028E-03-1.92014E-04-4.44023E-15
 -1       931 2.91963E-03-1.94024E-04-5.39312E-15
 -1       932 3.20837E-03-1.94582E-04-6.43380E-15
 -1       933 3.49627E-03-1.94118E-04-7.55888E-15
 -1       934 3.78310E-03-1.92990E-04-8.76677E-15
 -1       935 4.06863E-03-1.91524E-04-1.00559E-14
 -1       936 4.35256E-03-1.90065E-04-1.14280E-14
 -1       937 4.63447E-03-1.89037E-04-1.28802E-14
 -1       938 4.91379E-03-1.89017E-04-1.44100E-14
 -1       939 5.18972E-03-1.90824E-04-1.60120E-14
 -1       940 5.46120E-03-1.95620E-04-1.76853E-14
 -1       941 5.72686E-03-2.05006E-04-1.94309E-14
 -1       942 5.98501E-03-2.21068E-04-2.12424E-14
 -1       943 6.23371E-03-2.46273E-04-2.31166E-14
 -1       944 6.49292E-03-2.96548E-04-2.52957E-14
 -1       945 1.34978E-02-2.34081E-03-7.77242E-14
 -1       946 7.85998E-03 2.13658E-04-3.16853E-14
 -1       947 1.28736E-02-1.83627E-03-6.37620E-14
 -1       948 1.31348E-02-1.99721E-03-6.65454E-14
 -1       949 1.34030E-02-2.16336E-03-6.93674E-14
 -1       950 1.36765E-02-2.33287E-03-7.22185E-14
 -1       951 1.39537E-02-2.50438E-03-7.50943E-14
 -1       952 1.40996E-02-2.59907E-03-7.69090E-14
 -1       953 5.05972E-03 1.89102E-04-1.46210E-14
 -1       954 4.77412E-03 1.94205E-04-1.30887E-14
 -1       955 5.63404E-03 1.76903E-04-1.79083E-14
 -1       956 5.92508E-03 1.70402E-04-1.96571E-14
 -1       957 6.22098E-03 1.64676E-04-2.14727E-14
 -1       958 6.52394E-03 1.61333E-04-2.33533E-14
 -1       959 6.83618E-03 1.62873E-04-2.52983E-14
 -1       960 7.15941E-03 1.72498E-04-2.73103E-14
 -1       961 7.49307E-03 1.93022E-04-2.93805E-14
 -1       962 8.82320E-03 2.39085E-04-3.81937E-14
 -1       963 9.13859E-03 1.42224E-04-4.05374E-14
 -1       964 1.01366E-02-4.16280E-04-4.78775E-14
 -1       965 1.04753E-02-6.16429E-04-5.04157E-14
 -1       966 1.08059E-02-8.05504E-04-5.29954E-14
 -1       967 1.11255E-02-9.84416E-04-5.56150E-14
 -1       968 1.14345E-02-1.15632E-03-5.82787E-14
 -1       969 1.17348E-02-1.32430E-03-6.09903E-14
 -1       970 1.20288E-02-1.49057E-03-6.37443E-14
 -1       971 1.23183E-02-1.65652E-03-6.65283E-14
 -1       972 1.26052E-02-1.82286E-03-6.93392E-14
 -1       973 1.28906E-02-1.98994E-03-7.21826E-14
 -1       974 1.05562E-02-6.86966E-04-4.88723E-14
 -1       975 1.45431E-03-1.24632E-04-1.50909E-15
 -1       976 2.33805E-03 2.73928E-04-3.27815E-15
 -1       977 7.02363E-03-1.63993E-04-2.78137E-14
 -1       978 1.21152E-02-1.40532E-03-5.58121E-14
 -1       979 5.34604E-03 1.83281E-04-1.62278E-14
 -1       980 9.85774E-03-2.54756E-04-4.52624E-14
 -1       981 1.26220E-02-1.68302E-03-6.10202E-14
 -1       982 3.91639E-03 2.05037E-04-8.96653E-15
 -1       983 1.80926E-03-1.65319E-04-2.23446E-15
 -1       984 2.76397E-03 2.07021E-04-4.62625E-15
 -1       985 3.62931E-03 2.07121E-04-7.75588E-15
 -1       986 1.05063E-02-6.47857E-04-4.96483E-14
 -1       987 1.57040E-03 1.71890E-04-1.61665E-15
 -1       988 1.23971E-02-1.55770E-03-5.88049E-14
 -1       989 4.48861E-03 1.98556E-04-1.16334E-14
 -1       990 1.09174E-02-8.88066E-04-5.08093E-14
 -1       991 1.31776E-02-2.15224E-03-7.45664E-14
 -1       992 1.86433E-03 1.81603E-04-2.22089E-15
 -1       993 1.62770E-03 1.51282E-06-1.83626E-15
 -1       994 1.14954E-02-1.16605E-03-5.31786E-14
 -1       995 1.36028E-02-2.35589E-03-7.55222E-14
 -1       996 1.34423E-02-2.28141E-03-7.53023E-14
 -1       997 7.10988E-03-3.39826E-05-2.76776E-14
 -1       998 4.20278E-03 2.02167E-04-1.02594E-14
 -1       999 1.62943E-03 7.29641E-05-1.80734E-15
 -1      1000 3.05303E-03 2.08378E-04-5.58488E-15
 -1      1001 1.37665E-02-2.43294E-03-7.58254E-14
 -1      1002 2.48035E-03-1.17226E-04-3.98792E-15
 -1      1003 2.77037E-03-1.19132E-04-4.89175E-15
 -1      1004 3.05994E-03-1.19980E-04-5.88346E-15
 -1      1005 3.34871E-03-1.20098E-04-6.96082E-15
 -1      1006 3.63643E-03-1.19777E-04-8.12249E-15
 -1      1007 3.92287E-03-1.19294E-04-9.36539E-15
 -1      1008 4.20777E-03-1.18954E-04-1.06908E-14
 -1      1009 4.49085E-03-1.19135E-04-1.20981E-14
 -1      1010 4.77173E-03-1.20343E-04-1.35838E-14
 -1      1011 5.04996E-03-1.23278E-04-1.51439E-14
 -1      1012 5.32498E-03-1.28899E-04-1.67761E-14
 -1      1013 5.59617E-03-1.38478E-04-1.84822E-14
 -1      1014 5.86297E-03-1.53594E-04-2.02569E-14
 -1      1015 6.12507E-03-1.76016E-04-2.20948E-14
 -1      1016 6.42336E-03-2.19466E-04-2.43374E-14
 -1      1017 1.28545E-02-1.85810E-03-6.50185E-14
 -1      1018 5.47916E-03 1.04361E-04-1.71989E-14
 -1      1019 1.31216E-02-2.01868E-03-6.78171E-14
 -1      1020 1.33935E-02-2.18386E-03-7.06503E-14
 -1      1021 1.36690E-02-2.35217E-03-7.35100E-14
 -1      1022 4.91056E-03 1.18230E-04-1.39746E-14
 -1      1023 6.05502E-03 8.46261E-05-2.07070E-14
 -1      1024 5.76539E-03 9.51130E-05-1.89192E-14
 -1      1025 6.65497E-03 6.52761E-05-2.44749E-14
 -1      1026 1.14532E-02-1.16435E-03-5.71270E-14
 -1      1027 1.17543E-02-1.32694E-03-5.98214E-14
 -1      1028 1.20474E-02-1.48837E-03-6.25597E-14
 -1      1029 1.23354E-02-1.65051E-03-6.53277E-14
 -1      1030 1.26205E-02-1.81410E-03-6.81249E-14
 -1      1031 1.29041E-02-1.97933E-03-7.09537E-14
 -1      1032 1.31738E-02-2.13015E-03-7.31203E-14
 -1      1033 1.33361E-02-2.20500E-03-7.33438E-14
 -1      1034 2.47452E-03 2.03777E-04-3.75526E-15
 -1      1035 1.71621E-03-7.96911E-05-2.03681E-15
 -1      1036 6.71345E-03-1.87763E-04-2.60266E-14
 -1      1037 1.39338E-02-2.51595E-03-7.63701E-14
 -1      1038 5.19459E-03 1.12050E-04-1.55491E-14
 -1      1039 1.11406E-02-9.97139E-04-5.44790E-14
 -1      1040 1.08303E-02-8.29701E-04-5.20443E-14
 -1      1041 3.34152E-03 2.08304E-04-6.62882E-15
 -1      1042 4.05581E-03 1.29752E-04-9.71193E-15
 -1      1043 6.35051E-03 7.39401E-05-2.25586E-14
 -1      1044 1.19022E-02-1.34724E-03-5.58864E-14
 -1      1045 1.25930E-02-1.70403E-03-6.22580E-14
 -1      1046 2.16276E-03 1.91353E-04-2.92516E-15
 -1      1047 2.19033E-03-1.13898E-04-3.17453E-15
 -1      1048 1.35014E-02-2.28187E-03-7.36536E-14
 -1      1049 3.76917E-03 1.31844E-04-8.45279E-15
 -1      1050 4.62633E-03 1.23099E-04-1.24744E-14
 -1      1051 1.12543E-02-1.05951E-03-5.28157E-14
 -1      1052 1.22170E-02-1.50594E-03-5.88895E-14
 -1      1053 1.95273E-03-9.68821E-05-2.57437E-15
 -1      1054 7.00803E-03 2.93030E-05-2.67957E-14
 -1      1055 2.90378E-03 1.33427E-04-5.17349E-15
 -1      1056 6.78899E-03-7.99695E-05-2.59012E-14
 -1      1057 4.34149E-03 1.26877E-04-1.10527E-14
 -1      1058 2.61394E-03 1.31956E-04-4.24997E-15
 -1      1059 1.92665E-03 7.89356E-05-2.45070E-15
 -1      1060 1.86303E-03-1.09464E-05-2.34863E-15
 -1      1061 1.24056E-02-1.60341E-03-6.05685E-14
 -1      1062 1.30685E-02-2.05509E-03-7.11814E-14
 -1      1063 2.91287E-03-4.53368E-05-5.34651E-15
 -1      1064 3.20234E-03-4.56029E-05-6.37490E-15
 -1      1065 3.49086E-03-4.57528E-05-7.48849E-15
 -1      1066 3.77820E-03-4.59626E-05-8.68495E-15
 -1      1067 4.06416E-03-4.64464E-05-9.96411E-15
 -1      1068 4.34855E-03-4.74908E-05-1.13230E-14
 -1      1069 4.63116E-03-4.94891E-05-1.27651E-14
 -1      1070 4.91180E-03-5.29800E-05-1.42836E-14
 -1      1071 5.19030E-03-5.86855E-05-1.58729E-14
 -1      1072 5.46657E-03-6.75273E-05-1.75370E-14
 -1      1073 5.74077E-03-8.05921E-05-1.92740E-14
 -1      1074 6.01354E-03-9.89953E-05-2.10767E-14
 -1      1075 6.32464E-03-1.31162E-04-2.32251E-14
 -1      1076 5.04602E-03 4.30517E-05-1.48684E-14
 -1      1077 1.31059E-02-2.03631E-03-6.90808E-14
 -1      1078 3.48157E-03 1.33196E-04-7.27637E-15
 -1      1079 1.25626E-02-1.71843E-03-6.34901E-14
 -1      1080 5.32751E-03 3.55383E-05-1.64855E-14
 -1      1081 1.20730E-02-1.48803E-03-6.13657E-14
 -1      1082 1.17838E-02-1.33320E-03-5.86440E-14
 -1      1083 1.26387E-02-1.80525E-03-6.69089E-14
 -1      1084 1.28536E-02-1.92946E-03-6.90345E-14
 -1      1085 5.60894E-03 2.54666E-05-1.81759E-14
 -1      1086 2.62277E-03-4.47931E-05-4.40313E-15
 -1      1087 1.16275E-02-1.23992E-03-5.54656E-14
 -1      1088 2.25765E-03 1.01892E-04-3.26116E-15
 -1      1089 1.23572E-02-1.64513E-03-6.41219E-14
 -1      1090 2.19288E-03 7.09685E-06-3.15127E-15
 -1      1091 1.14851E-02-1.17834E-03-5.59678E-14
 -1      1092 5.89150E-03 1.24664E-05-1.99367E-14
 -1      1093 6.46912E-03-2.08705E-05-2.36492E-14
 -1      1094 6.17714E-03-3.34779E-06-2.17614E-14
 -1      1095 3.19306E-03 1.33767E-04-6.18280E-15
 -1      1096 1.28329E-02-1.87483E-03-6.62668E-14
 -1      1097 4.19594E-03 5.51463E-05-1.04686E-14
 -1      1098 1.19724E-02-1.41141E-03-5.84600E-14
 -1      1099 3.91014E-03 5.70239E-05-9.16172E-15
 -1      1100 4.76379E-03 4.85129E-05-1.33252E-14
 -1      1101 1.33815E-02-2.20153E-03-7.19270E-14
 -1      1102 1.23673E-02-1.61394E-03-6.17875E-14
 -1      1103 1.31791E-02-2.10528E-03-7.13351E-14
 -1      1104 4.48048E-03 5.24097E-05-1.18565E-14
 -1      1105 2.75600E-03 5.87771E-05-4.76146E-15
 -1      1106 3.04585E-03 5.91264E-05-5.73533E-15
 -1      1107 3.34661E-03 2.88194E-05-6.86719E-15
 -1      1108 3.63470E-03 2.82552E-05-8.01539E-15
 -1      1109 1.21079E-02-1.48821E-03-6.01690E-14
 -1      1110 1.25351E-02-1.72872E-03-6.47176E-14
 -1      1111 2.58403E-03 3.00601E-05-4.24540E-15
 -1      1112 1.21991E-02-1.52362E-03-6.01853E-14
 -1      1113 0.00000E+00 0.00000E+00 0.00000E+00
 -1      1114 0.00000E+00 0.00000E+00 0.00000E+00
 -1      1115 0.00000E+00 0.00000E+00 0.00000E+00
 -1      1116 0.00000E+00 0.00000E+00 0.00000E+00
 -1      1117 0.00000E+00 0.00000E+00 0.00000E+00
 -1      1118 0.00000E+00 0.00000E+00 0.00000E+00
 -1      1119 0.00000E+00 0.00000E+00 0.00000E+00
 -1      1120 0.00000E+00 0.00000E+00 0.00000E+00
 -1      1121 0.00000E+00 0.00000E+00 0.00000E+00
 -1      1122 0.00000E+00 0.00000E+00 0.00000E+00
 -1      1123 0.00000E+00 0.00000E+00 0.00000E+00
 -1      1124 0.00000E+00 0.00000E+00 0.00000E+00
 -1      1125 0.00000E+00 0.00000E+00 0.00000E+00
 -1      1126 0.00000E+00 0.00000E+00 0.00000E+00
 -1      1127 0.00000E+00 0.00000E+00 0.00000E+00
 -1      1128 0.00000E+00 0.00000E+00 0.00000E+00
 -1      1129 0.00000E+00 0.00000E+00 0.00000E+00
 -1      1130 2.02683E-04-1.43025E-04 1.13977E-17
 -1      1131 5.36818E-04-3.30220E-04-2.54923E-17
 -1      1132 8.19476E-04-4.53967E-04-1.57426E-16
 -1      1133 1.08923E-03-5.36991E-04-4.01629E-16
 -1      1134 1.35459E-03-5.94994E-04-7.53941E-16
 -1      1135 1.61923E-03-6.36085E-04-1.21432E-15
 -1      1136 1.88507E-03-6.64988E-04-1.78190E-15
 -1      1137 2.15300E-03-6.84851E-04-2.45508E-15
 -1      1138 2.42338E-03-6.97958E-04-3.23393E-15
 -1      1139 2.69624E-03-7.06018E-04-4.11494E-15
 -1      1140 2.97149E-03-7.10307E-04-5.09316E-15
 -1      1141 3.24897E-03-7.11769E-04-6.16148E-15
 -1      1142 3.52854E-03-7.11078E-04-7.31823E-15
 -1      1143 3.81011E-03-7.08705E-04-8.56089E-15
 -1      1144 4.09372E-03-7.04956E-04-9.88468E-15
 -1      1145 4.37952E-03-7.00016E-04-1.12933E-14
 -1      1146 4.66794E-03-6.93997E-04-1.27874E-14
 -1      1147 4.95969E-03-6.86987E-04-1.43604E-14
 -1      1148 5.25597E-03-6.79134E-04-1.60067E-14
 -1      1149 5.55867E-03-6.70789E-04-1.77286E-14
 -1      1150 5.87069E-03-6.62780E-04-1.95174E-14
 -1      1151 6.19635E-03-6.56940E-04-2.13672E-14
 -1      1152 6.54186E-03-6.57146E-04-2.32731E-14
 -1      1153 6.91572E-03-6.71299E-04-2.52313E-14
 -1      1154 7.32818E-03-7.14789E-04-2.72432E-14
 -1      1155 7.78836E-03-8.15242E-04-2.92994E-14
 -1      1156 8.29554E-03-1.01423E-03-3.14048E-14
 -1      1157 8.80919E-03-1.34116E-03-3.35149E-14
 -1      1158 9.26791E-03-1.77442E-03-3.56270E-14
 -1      1159 9.59468E-03-2.17403E-03-3.76345E-14
 -1      1160 9.80792E-03-2.40320E-03-3.95273E-14
 -1      1161 9.99292E-03-2.41944E-03-4.14108E-14
 -1      1162 1.02397E-02-2.24904E-03-4.34022E-14
 -1      1163 1.06237E-02-1.97381E-03-4.56753E-14
 -1      1164 1.11229E-02-1.73982E-03-4.81750E-14
 -1      1165 1.16470E-02-1.64003E-03-5.07671E-14
 -1      1166 1.21343E-02-1.66329E-03-5.33916E-14
 -1      1167 1.25721E-02-1.76475E-03-5.60548E-14
 -1      1168 1.29657E-02-1.90877E-03-5.87447E-14
 -1      1169 1.33255E-02-2.07387E-03-6.14572E-14
 -1      1170 1.36612E-02-2.24856E-03-6.42014E-14
 -1      1171 1.39801E-02-2.42707E-03-6.69916E-14
 -1      1172 1.42877E-02-2.60660E-03-6.98343E-14
 -1      1173 1.45876E-02-2.78586E-03-7.27190E-14
 -1      1174 1.48824E-02-2.96426E-03-7.56342E-14
 -1      1175 1.51737E-02-3.14158E-03-7.85719E-14
 -1      1176 1.54625E-02-3.31775E-03-8.15461E-14
 -1      1177 1.57498E-02-3.49277E-03-8.45480E-14
 -1      1178 1.60361E-02-3.66666E-03-8.75778E-14
 -1      1179 1.63218E-02-3.83954E-03-9.06367E-14
 -1      1180 1.66003E-02-4.00742E-03-9.36138E-14
 -1      1181 2.28338E-04 1.60663E-04 2.80131E-17
 -1      1182 5.53576E-04 3.42032E-04 2.60073E-17
 -1      1183 8.34008E-04 4.60960E-04-5.91026E-17
 -1      1184 1.10340E-03 5.41974E-04-2.39229E-16
 -1      1185 1.36869E-03 5.98960E-04-5.15741E-16
 -1      1186 1.63343E-03 6.39432E-04-8.89751E-16
 -1      1187 1.89945E-03 6.67930E-04-1.36235E-15
 -1      1188 2.16760E-03 6.87548E-04-1.92999E-15
 -1      1189 2.43822E-03 7.00549E-04-2.59515E-15
 -1      1190 2.71133E-03 7.08637E-04-3.35795E-15
 -1      1191 2.98685E-03 7.13107E-04-4.21801E-15
 -1      1192 3.26461E-03 7.14944E-04-5.16813E-15
 -1      1193 3.54446E-03 7.14905E-04-6.20173E-15
 -1      1194 3.82623E-03 7.13581E-04-7.32064E-15
 -1      1195 4.10982E-03 7.11459E-04-8.52825E-15
 -1      1196 4.39515E-03 7.08975E-04-9.82810E-15
 -1      1197 4.68216E-03 7.06565E-04-1.12138E-14
 -1      1198 4.97076E-03 7.04695E-04-1.26805E-14
 -1      1199 5.26079E-03 7.03892E-04-1.42252E-14
 -1      1200 5.55194E-03 7.04726E-04-1.58447E-14
 -1      1201 5.84363E-03 7.07766E-04-1.75388E-14
 -1      1202 6.13493E-03 7.13450E-04-1.93130E-14
 -1      1203 6.42446E-03 7.21878E-04-2.11644E-14
 -1      1204 6.71035E-03 7.32510E-04-2.30832E-14
 -1      1205 6.99041E-03 7.43810E-04-2.50623E-14
 -1      1206 7.26233E-03 7.52911E-04-2.70922E-14
 -1      1207 7.52422E-03 7.55475E-04-2.91734E-14
 -1      1208 7.77520E-03 7.45911E-04-3.13145E-14
 -1      1209 8.01593E-03 7.18091E-04-3.35116E-14
 -1      1210 8.24892E-03 6.66500E-04-3.57763E-14
 -1      1211 8.47826E-03 5.87518E-04-3.80954E-14
 -1      1212 8.70882E-03 4.80366E-04-4.04600E-14
 -1      1213 8.94521E-03 3.47319E-04-4.28637E-14
 -1      1214 9.19081E-03 1.93090E-04-4.53129E-14
 -1      1215 9.44719E-03 2.36515E-05-4.78067E-14
 -1      1216 9.71422E-03-1.55032E-04-5.03506E-14
 -1      1217 9.99042E-03-3.37955E-04-5.29495E-14
 -1      1218 1.02736E-02-5.21534E-04-5.55959E-14
 -1      1219 1.05616E-02-7.03621E-04-5.82822E-14
 -1      1220 1.08522E-02-8.83245E-04-6.10042E-14
 -1      1221 1.11440E-02-1.06025E-03-6.37760E-14
 -1      1222 1.14357E-02-1.23495E-03-6.65899E-14
 -1      1223 1.17268E-02-1.40789E-03-6.94210E-14
 -1      1224 1.20169E-02-1.57964E-03-7.22789E-14
 -1      1225 1.23058E-02-1.75075E-03-7.51528E-14
 -1      1226 1.25937E-02-1.92166E-03-7.80408E-14
 -1      1227 1.28807E-02-2.09274E-03-8.09474E-14
 -1      1228 1.31669E-02-2.26425E-03-8.38549E-14
 -1      1229 1.34528E-02-2.43632E-03-8.67591E-14
 -1      1230 1.37313E-02-2.60455E-03-8.96019E-14
 -1      1231 1.39519E-02-2.72874E-03-9.11351E-14
 -1      1232 1.41218E-02-2.81308E-03-9.14590E-14
 -1      1233 1.42922E-02-2.89727E-03-9.17846E-14
 -1      1234 1.44631E-02-2.98104E-03-9.20992E-14
 -1      1235 1.46343E-02-3.06420E-03-9.24158E-14
 -1      1236 1.48040E-02-3.14597E-03-9.27241E-14
 -1      1237 1.49736E-02-3.22707E-03-9.30303E-14
 -1      1238 1.51440E-02-3.30828E-03-9.33060E-14
 -1      1239 1.53137E-02-3.38910E-03-9.35738E-14
 -1      1240 1.54825E-02-3.46982E-03-9.38162E-14
 -1      1241 1.56505E-02-3.55075E-03-9.40200E-14
 -1      1242 1.58165E-02-3.63150E-03-9.42116E-14
 -1      1243 1.59821E-02-3.71297E-03-9.44003E-14
 -1      1244 1.61492E-02-3.79597E-03-9.45606E-14
 -1      1245 1.63168E-02-3.87973E-03-9.46903E-14
 -1      1246 1.64852E-02-3.96400E-03-9.48291E-14
 -1      1247 1.66528E-02-4.04768E-03-9.49775E-14
 -1      1248 1.18748E-02-9.45925E-04-4.54226E-14
 -1      1249 1.16648E-02-7.73801E-04-4.50986E-14
 -1      1250 1.13478E-02-5.92645E-04-4.45143E-14
 -1      1251 1.09497E-02-4.06179E-04-4.36945E-14
 -1      1252 1.04892E-02-2.24988E-04-4.26630E-14
 -1      1253 1.00132E-02-7.57133E-05-4.15271E-14
 -1      1254 9.52468E-03 2.77752E-05-4.03053E-14
 -1      1255 9.03399E-03 7.64999E-05-3.90613E-14
 -1      1256 8.57527E-03 6.55029E-05-3.79179E-14
 -1      1257 8.14724E-03 5.42206E-06-3.68854E-14
 -1      1258 7.76656E-03-8.97897E-05-3.60122E-14
 -1      1259 7.43736E-03-2.08831E-04-3.53002E-14
 -1      1260 7.17632E-03-3.44409E-04-3.47741E-14
 -1      1261 7.01460E-03-4.89615E-04-3.44743E-14
 -1      1262 6.96811E-03-6.42247E-04-3.44164E-14
 -1      1263 7.04006E-03-8.14626E-04-3.45954E-14
 -1      1264 7.23225E-03-1.01649E-03-3.50000E-14
 -1      1265 7.53903E-03-1.25388E-03-3.56200E-14
 -1      1266 7.95157E-03-1.52574E-03-3.64607E-14
 -1      1267 8.43558E-03-1.79825E-03-3.74604E-14
 -1      1268 8.96704E-03-2.02590E-03-3.85696E-14
 -1      1269 9.54003E-03-2.16030E-03-3.97830E-14
 -1      1270 1.00893E-02-2.16662E-03-4.09597E-14
 -1      1271 1.06075E-02-2.05670E-03-4.20962E-14
 -1      1272 1.10707E-02-1.87718E-03-4.31406E-14
 -1      1273 1.14502E-02-1.67455E-03-4.40219E-14
 -1      1274 1.17421E-02-1.47115E-03-4.47408E-14
 -1      1275 1.19172E-02-1.28439E-03-4.52318E-14
 -1      1276 1.19613E-02-1.11334E-03-4.54656E-14
 -1      1277 1.58670E-04-1.05114E-04-3.55076E-18
 -1      1278 1.12479E-04-5.69543E-05-2.19686E-17
 -1      1279 1.17517E-04-6.74931E-05-1.70084E-17
 -1      1280 1.08408E-04-4.35046E-05-2.99240E-17
 -1      1281 1.10263E-04-4.96076E-05-2.74981E-17
 -1      1282 2.26258E-04-1.07632E-04-6.49708E-17
 -1      1283 1.06852E-04-3.36361E-05-3.40575E-17
 -1      1284 1.07690E-04-3.83614E-05-3.28378E-17
 -1      1285 2.19090E-04-8.24968E-05-7.91061E-17
 -1      1286 1.06083E-04-2.53611E-05-3.64427E-17
 -1      1287 1.06511E-04-2.93954E-05-3.59684E-17
 -1      1288 2.15900E-04-6.33049E-05-8.70208E-17
 -1      1289 1.05682E-04-1.80991E-05-3.72830E-17
 -1      1290 1.05909E-04-2.16685E-05-3.72152E-17
 -1      1291 2.14250E-04-4.72007E-05-9.11136E-17
 -1      1292 1.05466E-04-1.12439E-05-3.76489E-17
 -1      1293 1.05588E-04-1.46300E-05-3.77709E-17
 -1      1294 2.13343E-04-3.27611E-05-9.27942E-17
 -1      1295 1.05368E-04-4.69230E-06-3.74592E-17
 -1      1296 1.05420E-04-7.94565E-06-3.75947E-17
 -1      1297 2.12853E-04-1.91949E-05-9.30788E-17
 -1      1298 1.05357E-04 1.74022E-06-3.69171E-17
 -1      1299 1.05355E-04-1.47277E-06-3.70797E-17
 -1      1300 2.12641E-04-6.16497E-06-9.22656E-17
 -1      1301 1.05427E-04 8.22208E-06-3.59549E-17
 -1      1302 1.05372E-04 4.96275E-06-3.62666E-17
 -1      1303 2.12648E-04 6.70229E-06-9.07071E-17
 -1      1304 1.05601E-04 1.49299E-05-3.45454E-17
 -1      1305 1.05476E-04 1.15301E-05-3.50197E-17
 -1      1306 2.12875E-04 1.97562E-05-8.80914E-17
 -1      1307 1.05928E-04 2.19497E-05-3.22957E-17
 -1      1308 1.05697E-04 1.83585E-05-3.29191E-17
 -1      1309 2.13377E-04 3.32578E-05-8.40663E-17
 -1      1310 1.06543E-04 2.98171E-05-2.90973E-17
 -1      1311 1.06108E-04 2.57404E-05-3.02221E-17
 -1      1312 2.14304E-04 4.77859E-05-7.81168E-17
 -1      1313 1.07730E-04 3.89158E-05-2.44081E-17
 -1      1314 1.06883E-04 3.41207E-05-2.62784E-17
 -1      1315 2.15995E-04 6.41960E-05-7.01208E-17
 -1      1316 1.10251E-04 5.03513E-05-1.69949E-17
 -1      1317 1.08424E-04 4.41699E-05-2.02068E-17
 -1      1318 2.19212E-04 8.37033E-05-5.82217E-17
 -1      1319 1.16896E-04 6.76093E-05-5.40746E-18
 -1      1320 1.12154E-04 5.77690E-05-1.09775E-17
 -1      1321 2.26265E-04 1.09434E-04-4.05492E-17
 -1      1322 1.57518E-04 1.09831E-04 1.25361E-17
 -1      1323 1.35614E-04 8.60734E-05 1.59920E-18
 -1      1324 2.55951E-04 1.52058E-04-1.92446E-17
 -1      1325 3.34953E-04 2.20672E-04 1.08827E-17
 -1      1326 4.05959E-04-2.53570E-04-3.77167E-17
 -1      1327 5.59524E-04-3.30129E-04-8.13558E-17
 -1      1328 7.07113E-04-3.91873E-04-1.53862E-16
 -1      1329 8.50578E-04-4.42056E-04-2.53256E-16
 -1      1330 5.97035E-04-3.24916E-04-1.45527E-16
 -1      1331 9.90788E-04-4.83793E-04-3.78468E-16
 -1      1332 1.12874E-03-5.18284E-04-5.30744E-16
 -1      1333 8.90734E-04-4.27278E-04-3.52162E-16
 -1      1334 1.26528E-03-5.47443E-04-7.09339E-16
 -1      1335 1.40093E-03-5.71759E-04-9.14443E-16
 -1      1336 1.17344E-03-4.97733E-04-6.62326E-16
 -1      1337 1.53614E-03-5.92319E-04-1.14618E-15
 -1      1338 1.67119E-03-6.09459E-04-1.40430E-15
 -1      1339 1.45046E-03-5.47088E-04-1.07675E-15
 -1      1340 1.80631E-03-6.23819E-04-1.68879E-15
 -1      1341 1.94163E-03-6.35691E-04-1.99995E-15
 -1      1342 1.72514E-03-5.81630E-04-1.59559E-15
 -1      1343 2.07729E-03-6.45480E-04-2.33675E-15
 -1      1344 2.21332E-03-6.53435E-04-2.69979E-15
 -1      1345 1.99941E-03-6.05391E-04-2.21829E-15
 -1      1346 2.34979E-03-6.59829E-04-3.08853E-15
 -1      1347 2.48671E-03-6.64866E-04-3.50304E-15
 -1      1348 2.27431E-03-6.21195E-04-2.94411E-15
 -1      1349 2.62412E-03-6.68736E-04-3.94280E-15
 -1      1350 2.76200E-03-6.71602E-04-4.40669E-15
 -1      1351 2.55037E-03-6.31105E-04-3.77190E-15
 -1      1352 2.90036E-03-6.73595E-04-4.89451E-15
 -1      1353 3.03919E-03-6.74841E-04-5.40510E-15
 -1      1354 2.82784E-03-6.36646E-04-4.69758E-15
 -1      1355 3.17849E-03-6.75430E-04-5.93800E-15
 -1      1356 3.31825E-03-6.75457E-04-6.49316E-15
 -1      1357 3.10682E-03-6.38938E-04-5.71643E-15
 -1      1358 3.45846E-03-6.74977E-04-7.07008E-15
 -1      1359 3.59913E-03-6.74065E-04-7.66887E-15
 -1      1360 3.38733E-03-6.38786E-04-6.82389E-15
 -1      1361 3.74025E-03-6.72746E-04-8.28859E-15
 -1      1362 3.88183E-03-6.71079E-04-8.92868E-15
 -1      1363 3.66941E-03-6.36748E-04-8.01769E-15
 -1      1364 4.02388E-03-6.69065E-04-9.59007E-15
 -1      1365 4.16644E-03-6.66755E-04-1.02715E-14
 -1      1366 3.95311E-03-6.33185E-04-9.29630E-15
 -1      1367 4.30954E-03-6.64128E-04-1.09741E-14
 -1      1368 4.45322E-03-6.61233E-04-1.16988E-14
 -1      1369 4.23858E-03-6.28305E-04-1.06571E-14
 -1      1370 4.59756E-03-6.58029E-04-1.24432E-14
 -1      1371 4.74263E-03-6.54578E-04-1.32083E-14
 -1      1372 4.52610E-03-6.22203E-04-1.21018E-14
 -1      1373 4.88855E-03-6.50817E-04-1.39923E-14
 -1      1374 5.03544E-03-6.46836E-04-1.47954E-14
 -1      1375 4.81612E-03-6.14903E-04-1.36272E-14
 -1      1376 5.18347E-03-6.42555E-04-1.56172E-14
 -1      1377 5.33285E-03-6.38120E-04-1.64577E-14
 -1      1378 5.10938E-03-6.06414E-04-1.52297E-14
 -1      1379 5.48383E-03-6.33444E-04-1.73160E-14
 -1      1380 5.63672E-03-6.28770E-04-1.81916E-14
 -1      1381 5.40699E-03-5.96829E-04-1.69063E-14
 -1      1382 5.79187E-03-6.24038E-04-1.90841E-14
 -1      1383 5.94974E-03-6.19660E-04-1.99918E-14
 -1      1384 5.71053E-03-5.86503E-04-1.86530E-14
 -1      1385 6.11082E-03-6.15689E-04-2.09151E-14
 -1      1386 6.27576E-03-6.12818E-04-2.18532E-14
 -1      1387 6.02225E-03-5.76420E-04-2.04654E-14
 -1      1388 6.44521E-03-6.11408E-04-2.28043E-14
 -1      1389 6.62001E-03-6.12631E-04-2.37685E-14
 -1      1390 6.34515E-03-5.68918E-04-2.23362E-14
 -1      1391 6.80096E-03-6.17554E-04-2.47474E-14
 -1      1392 6.98902E-03-6.28160E-04-2.57392E-14
 -1      1393 6.68307E-03-5.69115E-04-2.42644E-14
 -1      1394 7.18500E-03-6.46897E-04-2.67423E-14
 -1      1395 7.38971E-03-6.77095E-04-2.77592E-14
 -1      1396 7.04059E-03-5.87560E-04-2.62455E-14
 -1      1397 7.60369E-03-7.23337E-04-2.87873E-14
 -1      1398 7.82688E-03-7.90864E-04-2.98264E-14
 -1      1399 7.42266E-03-6.44577E-04-2.82752E-14
 -1      1400 8.05894E-03-8.86123E-04-3.08798E-14
 -1      1401 8.29758E-03-1.01528E-03-3.19485E-14
 -1      1402 7.83414E-03-7.75318E-04-3.03559E-14
 -1      1403 8.52863E-03-1.17335E-03-3.29778E-14
 -1      1404 8.75811E-03-1.36690E-03-3.40205E-14
 -1      1405 8.26637E-03-1.02008E-03-3.24390E-14
 -1      1406 8.98351E-03-1.58950E-03-3.50788E-14
 -1      1407 9.19618E-03-1.82662E-03-3.61506E-14
 -1      1408 8.71170E-03-1.40184E-03-3.45260E-14
 -1      1409 9.36409E-03-2.02225E-03-3.70700E-14
 -1      1410 9.51934E-03-2.19198E-03-3.80032E-14
 -1      1411 9.12520E-03-1.84219E-03-3.65045E-14
 -1      1412 9.66269E-03-2.32206E-03-3.89460E-14
 -1      1413 9.80103E-03-2.39352E-03-3.99008E-14
 -1      1414 9.48373E-03-2.20151E-03-3.83630E-14
 -1      1415 1.02282E-02-2.26855E-03-4.28678E-14
 -1      1416 1.04006E-02-2.13964E-03-4.39302E-14
 -1      1417 1.06110E-02-1.98407E-03-4.51257E-14
 -1      1418 1.08340E-02-1.84039E-03-4.63298E-14
 -1      1419 1.05804E-02-2.00056E-03-4.45782E-14
 -1      1420 1.10776E-02-1.71974E-03-4.76092E-14
 -1      1421 1.13227E-02-1.63658E-03-4.88985E-14
 -1      1422 1.10400E-02-1.71011E-03-4.70476E-14
 -1      1423 1.15645E-02-1.59239E-03-5.01948E-14
 -1      1424 1.17995E-02-1.58190E-03-5.14965E-14
 -1      1425 1.15040E-02-1.55347E-03-4.96211E-14
 -1      1426 1.20256E-02-1.59922E-03-5.28076E-14
 -1      1427 1.22421E-02-1.63819E-03-5.41298E-14
 -1      1428 1.19403E-02-1.54044E-03-5.22273E-14
 -1      1429 1.24491E-02-1.69307E-03-5.54587E-14
 -1      1430 1.26468E-02-1.75972E-03-5.67986E-14
 -1      1431 1.23449E-02-1.62398E-03-5.48673E-14
 -1      1432 1.28363E-02-1.83451E-03-5.81429E-14
 -1      1433 1.30184E-02-1.91503E-03-5.94907E-14
 -1      1434 1.27203E-02-1.76124E-03-5.75388E-14
 -1      1435 1.31941E-02-1.99939E-03-6.08484E-14
 -1      1436 1.33642E-02-2.08626E-03-6.22142E-14
 -1      1437 1.30716E-02-1.92512E-03-6.02415E-14
 -1      1438 1.35298E-02-2.17480E-03-6.35871E-14
 -1      1439 1.36913E-02-2.26424E-03-6.49712E-14
 -1      1440 1.34042E-02-2.10091E-03-6.29726E-14
 -1      1441 1.38495E-02-2.35428E-03-6.63668E-14
 -1      1442 1.40050E-02-2.44448E-03-6.77734E-14
 -1      1443 1.37227E-02-2.28124E-03-6.57419E-14
 -1      1444 1.41582E-02-2.53475E-03-6.91944E-14
 -1      1445 1.43095E-02-2.62486E-03-7.06292E-14
 -1      1446 1.40311E-02-2.46263E-03-6.85583E-14
 -1      1447 1.44592E-02-2.71482E-03-7.20697E-14
 -1      1448 1.46076E-02-2.80449E-03-7.35174E-14
 -1      1449 1.43323E-02-2.64354E-03-7.14186E-14
 -1      1450 1.47549E-02-2.89390E-03-7.49723E-14
 -1      1451 1.49013E-02-2.98299E-03-7.64350E-14
 -1      1452 1.46284E-02-2.82334E-03-7.43143E-14
 -1      1453 1.50470E-02-3.07179E-03-7.79061E-14
 -1      1454 1.51921E-02-3.16026E-03-7.93844E-14
 -1      1455 1.49210E-02-3.00182E-03-7.72400E-14
 -1      1456 1.53366E-02-3.24843E-03-8.08695E-14
 -1      1457 1.54807E-02-3.33629E-03-8.23628E-14
 -1      1458 1.52110E-02-3.17896E-03-8.01937E-14
 -1      1459 1.56245E-02-3.42385E-03-8.38623E-14
 -1      1460 1.57680E-02-3.51110E-03-8.53689E-14
 -1      1461 1.54993E-02-3.35479E-03-8.31773E-14
 -1      1462 1.59113E-02-3.59807E-03-8.68837E-14
 -1      1463 1.60544E-02-3.68476E-03-8.84053E-14
 -1      1464 1.57865E-02-3.52938E-03-8.61887E-14
 -1      1465 1.61973E-02-3.77120E-03-8.99295E-14
 -1      1466 1.63402E-02-3.85742E-03-9.14548E-14
 -1      1467 1.60728E-02-3.70279E-03-8.92274E-14
 -1      1468 1.64287E-02-3.91173E-03-9.24946E-14
 -1      1469 1.65644E-02-3.99344E-03-9.39421E-14
 -1      1470 1.64812E-02-3.95200E-03-9.38645E-14
 -1      1471 1.63043E-02-3.84347E-03-9.17881E-14
 -1      1472 6.42817E-04 3.71872E-04-3.44912E-17
 -1      1473 4.92754E-04 3.03589E-04-3.11708E-19
 -1      1474 4.44718E-04 2.65807E-04-2.27005E-17
 -1      1475 9.28280E-04 4.71716E-04-1.73106E-16
 -1      1476 7.87489E-04 4.26295E-04-9.21165E-17
 -1      1477 7.44480E-04 3.90534E-04-1.20292E-16
 -1      1478 1.20304E-03 5.40900E-04-4.04597E-16
 -1      1479 1.06644E-03 5.09335E-04-2.76715E-16
 -1      1480 1.03041E-03 4.75790E-04-3.09540E-16
 -1      1481 1.47349E-03 5.89809E-04-7.32460E-16
 -1      1482 1.33849E-03 5.67493E-04-5.56480E-16
 -1      1483 1.30823E-03 5.35349E-04-5.92408E-16
 -1      1484 1.74294E-03 6.24328E-04-1.15768E-15
 -1      1485 1.60817E-03 6.08623E-04-9.32726E-16
 -1      1486 1.58240E-03 5.77322E-04-9.71296E-16
 -1      1487 2.01310E-03 6.48297E-04-1.67956E-15
 -1      1488 1.87784E-03 6.37458E-04-1.40673E-15
 -1      1489 1.85553E-03 6.06626E-04-1.44662E-15
 -1      1490 2.28480E-03 6.64443E-04-2.29695E-15
 -1      1491 2.14872E-03 6.57218E-04-1.97638E-15
 -1      1492 2.12905E-03 6.26621E-04-2.01786E-15
 -1      1493 2.55841E-03 6.74787E-04-3.01167E-15
 -1      1494 2.42135E-03 6.70241E-04-2.64190E-15
 -1      1495 2.40371E-03 6.39737E-04-2.68500E-15
 -1      1496 2.83401E-03 6.80854E-04-3.82303E-15
 -1      1497 2.69595E-03 6.78279E-04-3.40545E-15
 -1      1498 2.67984E-03 6.47779E-04-3.44787E-15
 -1      1499 3.11158E-03 6.83795E-04-4.72689E-15
 -1      1500 2.97255E-03 6.82657E-04-4.26376E-15
 -1      1501 2.95758E-03 6.52105E-04-4.30545E-15
 -1      1502 3.39104E-03 6.84486E-04-5.71823E-15
 -1      1503 3.25109E-03 6.84377E-04-5.21169E-15
 -1      1504 3.23694E-03 6.53740E-04-5.25251E-15
 -1      1505 3.67229E-03 6.83600E-04-6.79438E-15
 -1      1506 3.53145E-03 6.84204E-04-6.24555E-15
 -1      1507 3.51787E-03 6.53460E-04-6.28553E-15
 -1      1508 3.95521E-03 6.81669E-04-7.95670E-15
 -1      1509 3.81354E-03 6.82734E-04-7.36475E-15
 -1      1510 3.80033E-03 6.51866E-04-7.40425E-15
 -1      1511 4.23975E-03 6.79150E-04-9.20919E-15
 -1      1512 4.09728E-03 6.80455E-04-8.57154E-15
 -1      1513 4.08426E-03 6.49448E-04-8.61090E-15
 -1      1514 4.52584E-03 6.76471E-04-1.05495E-14
 -1      1515 4.38261E-03 6.77803E-04-9.86864E-15
 -1      1516 4.36960E-03 6.46643E-04-9.90564E-15
 -1      1517 4.81341E-03 6.74078E-04-1.19745E-14
 -1      1518 4.66945E-03 6.75209E-04-1.12520E-14
 -1      1519 4.65631E-03 6.43881E-04-1.12864E-14
 -1      1520 5.10235E-03 6.72471E-04-1.34764E-14
 -1      1521 4.95772E-03 6.73146E-04-1.27163E-14
 -1      1522 4.94431E-03 6.41635E-04-1.27482E-14
 -1      1523 5.39243E-03 6.72215E-04-1.50567E-14
 -1      1524 5.24726E-03 6.72146E-04-1.42572E-14
 -1      1525 5.23346E-03 6.40444E-04-1.42875E-14
 -1      1526 5.68325E-03 6.73915E-04-1.67115E-14
 -1      1527 5.53777E-03 6.72799E-04-1.58742E-14
 -1      1528 5.52350E-03 6.40914E-04-1.59014E-14
 -1      1529 5.97415E-03 6.78135E-04-1.84419E-14
 -1      1530 5.82874E-03 6.75706E-04-1.75664E-14
 -1      1531 5.81398E-03 6.43672E-04-1.75913E-14
 -1      1532 6.26414E-03 6.85237E-04-2.02529E-14
 -1      1533 6.11933E-03 6.81353E-04-1.93377E-14
 -1      1534 6.10422E-03 6.49249E-04-1.93596E-14
 -1      1535 6.55183E-03 6.95122E-04-2.21348E-14
 -1      1536 6.40837E-03 6.89910E-04-2.11860E-14
 -1      1537 6.39322E-03 6.57877E-04-2.12043E-14
 -1      1538 6.83552E-03 7.06889E-04-2.40805E-14
 -1      1539 6.69430E-03 7.00920E-04-2.31006E-14
 -1      1540 6.67969E-03 6.69177E-04-2.31153E-14
 -1      1541 7.11332E-03 7.18447E-04-2.60848E-14
 -1      1542 6.97528E-03 7.12928E-04-2.50756E-14
 -1      1543 6.96211E-03 6.81775E-04-2.50874E-14
 -1      1544 7.38347E-03 7.26232E-04-2.81381E-14
 -1      1545 7.24946E-03 7.23128E-04-2.71047E-14
 -1      1546 7.23889E-03 6.92931E-04-2.71150E-14
 -1      1547 7.64480E-03 7.25184E-04-3.02486E-14
 -1      1548 7.51529E-03 7.27185E-04-2.91868E-14
 -1      1549 7.50875E-03 6.98326E-04-2.91966E-14
 -1      1550 7.89719E-03 7.09186E-04-3.24174E-14
 -1      1551 7.77208E-03 7.19427E-04-3.13259E-14
 -1      1552 7.77105E-03 6.92228E-04-3.13354E-14
 -1      1553 8.14195E-03 6.72030E-04-3.46443E-14
 -1      1554 8.02040E-03 6.93550E-04-3.35219E-14
 -1      1555 8.02620E-03 6.68178E-04-3.35286E-14
 -1      1556 8.38179E-03 6.08728E-04-3.69322E-14
 -1      1557 8.26227E-03 6.43793E-04-3.57818E-14
 -1      1558 8.27583E-03 6.20190E-04-3.57850E-14
 -1      1559 8.62042E-03 5.16771E-04-3.92737E-14
 -1      1560 8.50100E-03 5.66283E-04-3.80972E-14
 -1      1561 8.52268E-03 5.44152E-04-3.80972E-14
 -1      1562 8.86184E-03 3.96817E-04-4.16557E-14
 -1      1563 8.74054E-03 4.60061E-04-4.04596E-14
 -1      1564 8.77005E-03 4.38925E-04-4.04576E-14
 -1      1565 9.10943E-03 2.52500E-04-4.40847E-14
 -1      1566 8.98468E-03 3.27343E-04-4.28647E-14
 -1      1567 9.02117E-03 3.06659E-04-4.28633E-14
 -1      1568 9.36536E-03 8.94631E-05-4.65554E-14
 -1      1569 9.23626E-03 1.72917E-04-4.53136E-14
 -1      1570 9.27845E-03 1.52191E-04-4.53128E-14
 -1      1571 9.63032E-03-8.59888E-05-4.90755E-14
 -1      1572 9.49671E-03 2.91765E-06-4.78100E-14
 -1      1573 9.54313E-03-1.82026E-05-4.78084E-14
 -1      1574 9.90373E-03-2.68096E-04-5.16438E-14
 -1      1575 9.76604E-03-1.76499E-04-5.03538E-14
 -1      1576 9.81526E-03-1.98200E-04-5.03531E-14
 -1      1577 1.01841E-02-4.52401E-04-5.42619E-14
 -1      1578 1.00432E-02-3.60164E-04-5.29467E-14
 -1      1579 1.00940E-02-3.82481E-04-5.29436E-14
 -1      1580 1.04696E-02-6.35978E-04-5.69240E-14
 -1      1581 1.03264E-02-5.44380E-04-5.55873E-14
 -1      1582 1.03778E-02-5.67248E-04-5.55777E-14
 -1      1583 1.07585E-02-8.17285E-04-5.96259E-14
 -1      1584 1.06138E-02-7.26948E-04-5.82706E-14
 -1      1585 1.06653E-02-7.50244E-04-5.82572E-14
 -1      1586 1.10491E-02-9.95814E-04-6.23680E-14
 -1      1587 1.09037E-02-9.06887E-04-6.09928E-14
 -1      1588 1.09549E-02-9.30474E-04-6.09760E-14
 -1      1589 1.13403E-02-1.17171E-03-6.51599E-14
 -1      1590 1.11947E-02-1.08406E-03-6.37577E-14
 -1      1591 1.12454E-02-1.10781E-03-6.37399E-14
 -1      1592 1.16312E-02-1.34547E-03-6.79778E-14
 -1      1593 1.14858E-02-1.25882E-03-6.65641E-14
 -1      1594 1.15361E-02-1.28264E-03-6.65411E-14
 -1      1595 1.19214E-02-1.51769E-03-7.08221E-14
 -1      1596 1.17764E-02-1.43173E-03-6.93979E-14
 -1      1597 1.18264E-02-1.45554E-03-6.93723E-14
 -1      1598 1.22108E-02-1.68897E-03-7.36869E-14
 -1      1599 1.20662E-02-1.60342E-03-7.22539E-14
 -1      1600 1.21159E-02-1.62717E-03-7.22279E-14
 -1      1601 1.24991E-02-1.85983E-03-7.65696E-14
 -1      1602 1.23551E-02-1.77443E-03-7.51263E-14
 -1      1603 1.24046E-02-1.79810E-03-7.50982E-14
 -1      1604 1.27866E-02-2.03068E-03-7.94638E-14
 -1      1605 1.26430E-02-1.94524E-03-7.80139E-14
 -1      1606 1.26925E-02-1.96882E-03-7.79858E-14
 -1      1607 1.30733E-02-2.20186E-03-8.23726E-14
 -1      1608 1.29301E-02-2.11622E-03-8.09174E-14
 -1      1609 1.29796E-02-2.13970E-03-8.08892E-14
 -1      1610 1.33595E-02-2.37356E-03-8.52816E-14
 -1      1611 1.32165E-02-2.28764E-03-8.38269E-14
 -1      1612 1.32661E-02-2.31104E-03-8.38000E-14
 -1      1613 1.36453E-02-2.54586E-03-8.81929E-14
 -1      1614 1.35025E-02-2.45964E-03-8.67371E-14
 -1      1615 1.35522E-02-2.48297E-03-8.67153E-14
 -1      1616 1.38161E-02-2.64669E-03-8.97527E-14
 -1      1617 1.40406E-02-2.75923E-03-9.02722E-14
 -1      1618 1.39556E-02-2.71715E-03-9.01128E-14
 -1      1619 1.42112E-02-2.84318E-03-9.05859E-14
 -1      1620 1.41258E-02-2.80125E-03-9.04290E-14
 -1      1621 1.39595E-02-2.70541E-03-8.90799E-14
 -1      1622 1.43823E-02-2.92669E-03-9.08965E-14
 -1      1623 1.42967E-02-2.88500E-03-9.07389E-14
 -1      1624 1.41303E-02-2.78919E-03-8.93838E-14
 -1      1625 1.45536E-02-3.00966E-03-9.12056E-14
 -1      1626 1.44679E-02-2.96825E-03-9.10548E-14
 -1      1627 1.43015E-02-2.87253E-03-8.96913E-14
 -1      1628 1.47220E-02-3.09063E-03-9.15060E-14
 -1      1629 1.46378E-02-3.05021E-03-9.13551E-14
 -1      1630 1.44715E-02-2.95466E-03-8.99920E-14
 -1      1631 1.48929E-02-3.17243E-03-9.17971E-14
 -1      1632 1.48075E-02-3.13160E-03-9.16560E-14
 -1      1633 1.46413E-02-3.03626E-03-9.02849E-14
 -1      1634 1.50632E-02-3.25378E-03-9.20663E-14
 -1      1635 1.49782E-02-3.21315E-03-9.19320E-14
 -1      1636 1.48122E-02-3.11807E-03-9.05629E-14
 -1      1637 1.52328E-02-3.33485E-03-9.23225E-14
 -1      1638 1.51481E-02-3.29433E-03-9.21965E-14
 -1      1639 1.49824E-02-3.19950E-03-9.08236E-14
 -1      1640 1.54013E-02-3.41589E-03-9.25512E-14
 -1      1641 1.53172E-02-3.37536E-03-9.24410E-14
 -1      1642 1.51517E-02-3.28073E-03-9.10682E-14
 -1      1643 1.55691E-02-3.49716E-03-9.27516E-14
 -1      1644 1.54853E-02-3.45648E-03-9.26547E-14
 -1      1645 1.53201E-02-3.36197E-03-9.12858E-14
 -1      1646 1.57334E-02-3.57750E-03-9.29347E-14
 -1      1647 1.56513E-02-3.53726E-03-9.28446E-14
 -1      1648 1.54862E-02-3.44275E-03-9.14787E-14
 -1      1649 1.59003E-02-3.65987E-03-9.31134E-14
 -1      1650 1.58169E-02-3.61860E-03-9.30258E-14
 -1      1651 1.56517E-02-3.52397E-03-9.16580E-14
 -1      1652 1.60674E-02-3.74293E-03-9.32656E-14
 -1      1653 1.59838E-02-3.70131E-03-9.31957E-14
 -1      1654 1.58185E-02-3.60645E-03-9.18257E-14
 -1      1655 1.62351E-02-3.82661E-03-9.34032E-14
 -1      1656 1.61512E-02-3.78470E-03-9.33332E-14
 -1      1657 1.59856E-02-3.68956E-03-9.19752E-14
 -1      1658 1.64002E-02-3.91029E-03-9.36668E-14
 -1      1659 1.63159E-02-3.86821E-03-9.35943E-14
 -1      1660 1.61501E-02-3.77284E-03-9.22393E-14
 -1      1661 1.63117E-02-3.85607E-03-9.26289E-14
 -1      1662 1.18406E-02-9.72046E-04-4.58469E-14
 -1      1663 1.19215E-02-1.02760E-03-4.59434E-14
 -1      1664 1.15693E-02-8.31363E-04-4.54242E-14
 -1      1665 1.17100E-02-8.99873E-04-4.56530E-14
 -1      1666 1.11684E-02-6.73948E-04-4.48293E-14
 -1      1667 1.13598E-02-7.62567E-04-4.51912E-14
 -1      1668 1.07349E-02-4.43224E-04-4.37956E-14
 -1      1669 1.09434E-02-5.43615E-04-4.42556E-14
 -1      1670 1.02599E-02-2.12114E-04-4.25934E-14
 -1      1671 1.04865E-02-3.17079E-04-4.31663E-14
 -1      1672 9.81988E-03-3.14964E-05-4.13762E-14
 -1      1673 1.00132E-02-1.07148E-04-4.19303E-14
 -1      1674 9.36283E-03 9.93662E-05-4.00132E-14
 -1      1675 9.56610E-03 4.97295E-05-4.06718E-14
 -1      1676 8.95597E-03 1.28714E-04-3.86924E-14
 -1      1677 9.13423E-03 1.26729E-04-3.92662E-14
 -1      1678 8.54393E-03 7.16232E-05-3.74743E-14
 -1      1679 8.73336E-03 1.06280E-04-3.80313E-14
 -1      1680 8.14576E-03-3.74977E-05-3.64215E-14
 -1      1681 8.32398E-03 1.77297E-05-3.68866E-14
 -1      1682 7.77124E-03-1.77403E-04-3.55020E-14
 -1      1683 7.94415E-03-1.11216E-04-3.58966E-14
 -1      1684 7.43331E-03-3.25301E-04-3.47310E-14
 -1      1685 7.58569E-03-2.61874E-04-3.50361E-14
 -1      1686 7.14455E-03-4.46171E-04-3.42684E-14
 -1      1687 7.26447E-03-3.88666E-04-3.44772E-14
 -1      1688 6.98220E-03-5.52483E-04-3.40357E-14
 -1      1689 7.04033E-03-5.04591E-04-3.41233E-14
 -1      1690 6.95695E-03-6.58357E-04-3.40320E-14
 -1      1691 6.95112E-03-6.08644E-04-3.40023E-14
 -1      1692 7.07770E-03-7.82808E-04-3.42481E-14
 -1      1693 7.00347E-03-7.20733E-04-3.41046E-14
 -1      1694 7.33929E-03-9.63722E-04-3.47619E-14
 -1      1695 7.20115E-03-8.74911E-04-3.45091E-14
 -1      1696 7.72120E-03-1.20530E-03-3.54775E-14
 -1      1697 7.53151E-03-1.08484E-03-3.51186E-14
 -1      1698 8.19575E-03-1.51469E-03-3.64310E-14
 -1      1699 7.96659E-03-1.36375E-03-3.59611E-14
 -1      1700 8.69048E-03-1.83286E-03-3.75171E-14
 -1      1701 8.46431E-03-1.68865E-03-3.70061E-14
 -1      1702 9.19089E-03-2.10180E-03-3.87490E-14
 -1      1703 8.95814E-03-1.98850E-03-3.81618E-14
 -1      1704 9.68783E-03-2.23771E-03-4.00690E-14
 -1      1705 9.46611E-03-2.19826E-03-3.94524E-14
 -1      1706 1.01439E-02-2.19094E-03-4.13204E-14
 -1      1707 9.93869E-03-2.22991E-03-4.07618E-14
 -1      1708 1.06049E-02-2.00790E-03-4.25912E-14
 -1      1709 1.03862E-02-2.10846E-03-4.20145E-14
 -1      1710 1.10545E-02-1.77397E-03-4.36514E-14
 -1      1711 1.08602E-02-1.88338E-03-4.31802E-14
 -1      1712 1.14506E-02-1.54363E-03-4.45799E-14
 -1      1713 1.12737E-02-1.64836E-03-4.41696E-14
 -1      1714 1.17570E-02-1.33890E-03-4.54071E-14
 -1      1715 1.16240E-02-1.42037E-03-4.50974E-14
 -1      1716 1.19452E-02-1.20339E-03-4.58184E-14
 -1      1717 1.18788E-02-1.26390E-03-4.56357E-14
 -1      1718 1.19732E-02-1.08989E-03-4.60050E-14
 -1      1719 1.19799E-02-1.13940E-03-4.59565E-14
 -1      1720 1.00886E-02-2.35886E-03-4.19394E-14
 -1      1721 1.02002E-02-2.26950E-03-4.24628E-14
 -1      1722 9.95826E-03-2.40732E-03-4.10186E-14
 -1      1723 1.09929E-02-6.85917E-04-4.49573E-14
 -1      1724 1.19577E-02-1.08294E-03-4.64669E-14
 -1      1725 1.38660E-02-2.67000E-03-8.97338E-14
 -1      1726 1.37847E-02-2.61629E-03-8.85480E-14
 -1      1727 1.17715E-02-9.91688E-04-4.62071E-14
 -1      1728 1.14275E-02-8.72916E-04-4.57738E-14
 -1      1729 1.05285E-02-4.26438E-04-4.37469E-14
 -1      1730 1.00663E-02-1.77695E-04-4.24512E-14
 -1      1731 9.62194E-03 2.43143E-05-4.10830E-14
 -1      1732 9.23252E-03 1.41112E-04-3.96336E-14
 -1      1733 8.86444E-03 1.40336E-04-3.82299E-14
 -1      1734 8.48377E-03 4.80924E-05-3.69884E-14
 -1      1735 8.09853E-03-9.66506E-05-3.58841E-14
 -1      1736 7.72532E-03-2.62294E-04-3.49017E-14
 -1      1737 7.37434E-03-4.04786E-04-3.41911E-14
 -1      1738 7.09770E-03-5.07519E-04-3.37979E-14
 -1      1739 6.95757E-03-5.85629E-04-3.36216E-14
 -1      1740 6.97362E-03-6.59518E-04-3.36589E-14
 -1      1741 7.15216E-03-7.65573E-04-3.39860E-14
 -1      1742 7.47887E-03-9.45687E-04-3.45970E-14
 -1      1743 7.92059E-03-1.21146E-03-3.54283E-14
 -1      1744 8.42071E-03-1.55192E-03-3.64777E-14
 -1      1745 8.91407E-03-1.90362E-03-3.76895E-14
 -1      1746 9.38609E-03-2.17668E-03-3.90329E-14
 -1      1747 9.80698E-03-2.26978E-03-4.04315E-14
 -1      1748 1.02271E-02-2.16557E-03-4.18231E-14
 -1      1749 1.06592E-02-1.93221E-03-4.31147E-14
 -1      1750 1.11038E-02-1.66628E-03-4.42288E-14
 -1      1751 1.14974E-02-1.42414E-03-4.52707E-14
 -1      1752 1.18051E-02-1.25843E-03-4.60234E-14
 -1      1753 1.19701E-02-1.15804E-03-4.63925E-14
 -1      1754 2.77504E-04-1.72076E-04-3.66189E-17
 -1      1755 9.85308E-03-2.37337E-03-4.04166E-14
 -1      1756 3.32151E-04-1.16812E-04-1.25645E-16
 -1      1757 3.36230E-04-1.33022E-04-1.18083E-16
 -1      1758 3.42163E-04-1.52029E-04-1.08515E-16
 -1      1759 3.51685E-04-1.74049E-04-9.50032E-17
 -1      1760 4.58271E-04-1.88098E-04-1.71589E-16
 -1      1761 3.24622E-04-6.53799E-05-1.40160E-16
 -1      1762 3.25758E-04-7.66769E-05-1.38317E-16
 -1      1763 3.23151E-04-4.38831E-05-1.42193E-16
 -1      1764 3.23795E-04-5.43726E-05-1.41434E-16
 -1      1765 4.36595E-04-7.92686E-05-2.08248E-16
 -1      1766 3.22376E-04-2.37689E-05-1.41922E-16
 -1      1767 3.22704E-04-3.36795E-05-1.42180E-16
 -1      1768 4.34620E-04-5.12992E-05-2.10010E-16
 -1      1769 3.22085E-04-4.34301E-06-1.40485E-16
 -1      1770 3.22182E-04-1.39905E-05-1.41380E-16
 -1      1771 4.33609E-04-2.49177E-05-2.09319E-16
 -1      1772 3.22204E-04 1.49643E-05-1.37734E-16
 -1      1773 3.22092E-04 5.30732E-06-1.39347E-16
 -1      1774 4.33313E-04 7.45753E-07-2.06825E-16
 -1      1775 3.22760E-04 3.47029E-05-1.33370E-16
 -1      1776 3.22414E-04 2.47620E-05-1.35756E-16
 -1      1777 4.33662E-04 2.64362E-05-2.02271E-16
 -1      1778 3.23872E-04 5.51325E-05-1.26757E-16
 -1      1779 3.23218E-04 4.47735E-05-1.30565E-16
 -1      1780 4.34723E-04 5.26735E-05-1.95387E-16
 -1      1781 3.25902E-04 7.77787E-05-1.17636E-16
 -1      1782 3.24719E-04 6.62003E-05-1.22786E-16
 -1      1783 4.36754E-04 8.05394E-05-1.85643E-16
 -1      1784 3.29562E-04 1.03609E-04-1.04680E-16
 -1      1785 3.27424E-04 9.02658E-05-1.11917E-16
 -1      1786 4.40361E-04 1.11503E-04-1.71711E-16
 -1      1787 3.36602E-04 1.35089E-04-8.52589E-17
 -1      1788 3.32453E-04 1.18564E-04-9.61145E-17
 -1      1789 4.46821E-04 1.47270E-04-1.51951E-16
 -1      1790 3.52179E-04 1.77522E-04-5.68393E-17
 -1      1791 3.42735E-04 1.54690E-04-7.26822E-17
 -1      1792 4.59231E-04 1.91355E-04-1.23382E-16
 -1      1793 4.07543E-04 2.33604E-04-3.58329E-17
 -1      1794 3.77964E-04 2.02601E-04-4.92770E-17
 -1      1795 4.95726E-04 2.43914E-04-9.71987E-17
 -1      1796 5.58345E-04 3.02384E-04-7.49455E-17
 -1      1797 3.32371E-04-1.87235E-04-6.62583E-17
 -1      1798 8.53328E-04 4.06853E-04-2.22153E-16
 -1      1799 7.06940E-04 3.59170E-04-1.37274E-16
 -1      1800 6.73236E-04 3.28625E-04-1.51517E-16
 -1      1801 9.74246E-03-2.33879E-03-3.99547E-14
 -1      1802 9.95910E-03-2.34546E-03-4.10710E-14
 -1      1803 7.92510E-04-3.69472E-04-3.22767E-16
 -1      1804 9.37928E-04-4.11297E-04-4.55270E-16
 -1      1805 1.08088E-03-4.46487E-04-6.13252E-16
 -1      1806 1.22265E-03-4.75767E-04-7.96848E-16
 -1      1807 9.89413E-04-3.94224E-04-5.62443E-16
 -1      1808 1.36311E-03-5.00538E-04-1.00609E-15
 -1      1809 1.50284E-03-5.21104E-04-1.24106E-15
 -1      1810 1.27524E-03-4.52937E-04-9.34298E-16
 -1      1811 1.64203E-03-5.38399E-04-1.50170E-15
 -1      1812 1.78089E-03-5.52661E-04-1.78827E-15
 -1      1813 1.55775E-03-4.94271E-04-1.40761E-15
 -1      1814 1.91962E-03-5.64504E-04-2.10032E-15
 -1      1815 2.05829E-03-5.74130E-04-2.43776E-15
 -1      1816 1.83844E-03-5.22890E-04-1.98240E-15
 -1      1817 2.19706E-03-5.81960E-04-2.80105E-15
 -1      1818 2.33594E-03-5.88161E-04-3.18903E-15
 -1      1819 2.11841E-03-5.42151E-04-2.65834E-15
 -1      1820 2.47505E-03-5.93026E-04-3.60255E-15
 -1      1821 2.61435E-03-5.96694E-04-4.04054E-15
 -1      1822 2.39840E-03-5.54504E-04-3.43470E-15
 -1      1823 2.75394E-03-5.99369E-04-4.50218E-15
 -1      1824 2.89378E-03-6.01162E-04-4.98759E-15
 -1      1825 2.67883E-03-5.61758E-04-4.30877E-15
 -1      1826 3.03394E-03-6.02214E-04-5.49589E-15
 -1      1827 3.17438E-03-6.02609E-04-6.02636E-15
 -1      1828 2.95999E-03-5.65245E-04-5.27718E-15
 -1      1829 3.31515E-03-6.02441E-04-6.57922E-15
 -1      1830 3.45622E-03-6.01775E-04-7.15353E-15
 -1      1831 3.24201E-03-5.65930E-04-6.33578E-15
 -1      1832 3.59763E-03-6.00664E-04-7.74913E-15
 -1      1833 3.73936E-03-5.99160E-04-8.36564E-15
 -1      1834 3.52500E-03-5.64486E-04-7.48245E-15
 -1      1835 3.88145E-03-5.97285E-04-9.00414E-15
 -1      1836 4.02390E-03-5.95080E-04-9.66282E-15
 -1      1837 3.80904E-03-5.61363E-04-8.71352E-15
 -1      1838 4.16674E-03-5.92539E-04-1.03414E-14
 -1      1839 4.31000E-03-5.89699E-04-1.10415E-14
 -1      1840 4.09422E-03-5.56832E-04-1.00279E-14
 -1      1841 4.45370E-03-5.86534E-04-1.17622E-14
 -1      1842 4.59792E-03-5.83080E-04-1.25032E-14
 -1      1843 4.38068E-03-5.51025E-04-1.14243E-14
 -1      1844 4.74266E-03-5.79294E-04-1.32645E-14
 -1      1845 4.88806E-03-5.75220E-04-1.40447E-14
 -1      1846 4.66862E-03-5.43982E-04-1.29038E-14
 -1      1847 5.03411E-03-5.70807E-04-1.48441E-14
 -1      1848 5.18102E-03-5.66118E-04-1.56628E-14
 -1      1849 4.95833E-03-5.35694E-04-1.44612E-14
 -1      1850 5.32875E-03-5.61110E-04-1.64998E-14
 -1      1851 5.47765E-03-5.55884E-04-1.73530E-14
 -1      1852 5.25017E-03-5.26180E-04-1.60947E-14
 -1      1853 5.62758E-03-5.50443E-04-1.82250E-14
 -1      1854 5.77910E-03-5.44953E-04-1.91129E-14
 -1      1855 5.54461E-03-5.15614E-04-1.77996E-14
 -1      1856 5.93192E-03-5.39546E-04-2.00176E-14
 -1      1857 6.08688E-03-5.34505E-04-2.09372E-14
 -1      1858 5.84219E-03-5.04576E-04-1.95729E-14
 -1      1859 6.24347E-03-5.30252E-04-2.18713E-14
 -1      1860 6.40287E-03-5.27291E-04-2.28196E-14
 -1      1861 6.14350E-03-4.94526E-04-2.14073E-14
 -1      1862 6.56435E-03-5.26622E-04-2.37814E-14
 -1      1863 6.72941E-03-5.29201E-04-2.47580E-14
 -1      1864 6.44917E-03-4.88685E-04-2.33010E-14
 -1      1865 6.89722E-03-5.37036E-04-2.57476E-14
 -1      1866 7.06948E-03-5.52056E-04-2.67494E-14
 -1      1867 6.76006E-03-4.93627E-04-2.52506E-14
 -1      1868 7.24591E-03-5.77692E-04-2.77642E-14
 -1      1869 7.42785E-03-6.17953E-04-2.87918E-14
 -1      1870 7.07834E-03-5.21916E-04-2.72548E-14
 -1      1871 7.61712E-03-6.77421E-04-2.98318E-14
 -1      1872 7.81344E-03-7.64001E-04-3.08853E-14
 -1      1873 7.41038E-03-5.96174E-04-2.93081E-14
 -1      1874 8.01236E-03-8.74356E-04-3.18997E-14
 -1      1875 8.21833E-03-1.02266E-03-3.29284E-14
 -1      1876 7.76244E-03-7.48772E-04-3.13621E-14
 -1      1877 8.44224E-03-1.20536E-03-3.39723E-14
 -1      1878 8.67112E-03-1.42860E-03-3.50296E-14
 -1      1879 8.15632E-03-1.02234E-03-3.34177E-14
 -1      1880 9.33571E-03-2.09312E-03-3.78967E-14
 -1      1881 9.52707E-03-2.24042E-03-3.88367E-14
 -1      1882 1.08086E-02-6.71111E-04-4.50637E-14
 -1      1883 1.10306E-02-7.89639E-04-4.56446E-14
 -1      1884 4.51480E-04-2.33500E-04-1.20008E-16
 -1      1885 1.09924E-02-1.70229E-03-4.63915E-14
 -1      1886 1.12235E-02-1.58677E-03-4.76665E-14
 -1      1887 1.14494E-02-1.51585E-03-4.89514E-14
 -1      1888 1.16604E-02-1.48134E-03-5.02453E-14
 -1      1889 1.14088E-02-1.48037E-03-4.82838E-14
 -1      1890 1.18644E-02-1.48120E-03-5.15461E-14
 -1      1891 1.20587E-02-1.50643E-03-5.28553E-14
 -1      1892 1.18089E-02-1.42638E-03-5.08663E-14
 -1      1893 1.22465E-02-1.55183E-03-5.41734E-14
 -1      1894 1.24284E-02-1.61197E-03-5.55009E-14
 -1      1895 1.21683E-02-1.48461E-03-5.34829E-14
 -1      1896 1.26046E-02-1.68254E-03-5.68373E-14
 -1      1897 1.27769E-02-1.76067E-03-5.81795E-14
 -1      1898 1.25054E-02-1.60785E-03-5.61346E-14
 -1      1899 1.29445E-02-1.84371E-03-5.95275E-14
 -1      1900 1.31091E-02-1.93023E-03-6.08856E-14
 -1      1901 1.28296E-02-1.76508E-03-5.88163E-14
 -1      1902 1.32702E-02-2.01884E-03-6.22510E-14
 -1      1903 1.34289E-02-2.10878E-03-6.36249E-14
 -1      1904 1.31447E-02-1.93849E-03-6.15289E-14
 -1      1905 1.35849E-02-2.19945E-03-6.50110E-14
 -1      1906 1.37391E-02-2.29043E-03-6.64062E-14
 -1      1907 1.34528E-02-2.11867E-03-6.42785E-14
 -1      1908 1.38913E-02-2.38149E-03-6.78130E-14
 -1      1909 1.40422E-02-2.47240E-03-6.92328E-14
 -1      1910 1.37553E-02-2.30090E-03-6.70704E-14
 -1      1911 1.41916E-02-2.56312E-03-7.06598E-14
 -1      1912 1.43400E-02-2.65352E-03-7.20977E-14
 -1      1913 1.40534E-02-2.48298E-03-6.99032E-14
 -1      1914 1.44874E-02-2.74361E-03-7.35472E-14
 -1      1915 1.46341E-02-2.83332E-03-7.49983E-14
 -1      1916 1.43481E-02-2.66400E-03-7.27766E-14
 -1      1917 1.47800E-02-2.92271E-03-7.64591E-14
 -1      1918 1.49254E-02-3.01171E-03-7.79306E-14
 -1      1919 1.46402E-02-2.84361E-03-7.56833E-14
 -1      1920 1.50703E-02-3.10038E-03-7.94057E-14
 -1      1921 1.52148E-02-3.18870E-03-8.08878E-14
 -1      1922 1.49302E-02-3.02178E-03-7.86173E-14
 -1      1923 1.53589E-02-3.27669E-03-8.23783E-14
 -1      1924 1.55027E-02-3.36434E-03-8.38741E-14
 -1      1925 1.52188E-02-3.19853E-03-8.15803E-14
 -1      1926 1.56463E-02-3.45168E-03-8.53801E-14
 -1      1927 1.57897E-02-3.53871E-03-8.68922E-14
 -1      1928 1.55063E-02-3.37393E-03-8.45722E-14
 -1      1929 1.59329E-02-3.62546E-03-8.84070E-14
 -1      1930 1.60760E-02-3.71192E-03-8.99276E-14
 -1      1931 1.57930E-02-3.54807E-03-8.75908E-14
 -1      1932 1.62233E-02-3.80178E-03-9.15899E-14
 -1      1933 1.35802E-03 5.11457E-04-7.36038E-16
 -1      1934 1.21801E-03 4.86535E-04-5.66306E-16
 -1      1935 1.63585E-03 5.49988E-04-1.14680E-15
 -1      1936 1.49719E-03 5.32514E-04-9.29337E-16
 -1      1937 1.41084E-03 4.86633E-04-8.84153E-16
 -1      1938 1.91247E-03 5.76670E-04-1.65316E-15
 -1      1939 1.77423E-03 5.64632E-04-1.38794E-15
 -1      1940 1.69147E-03 5.21783E-04-1.32629E-15
 -1      1941 2.18908E-03 5.94632E-04-2.25500E-15
 -1      1942 2.05074E-03 5.86605E-04-1.94232E-15
 -1      1943 1.97090E-03 5.45924E-04-1.86362E-15
 -1      1944 2.46637E-03 6.06170E-04-2.95213E-15
 -1      1945 2.32763E-03 6.01100E-04-2.59176E-15
 -1      1946 2.25010E-03 5.61956E-04-2.49582E-15
 -1      1947 2.74469E-03 6.12992E-04-3.74448E-15
 -1      1948 2.60540E-03 6.10091E-04-3.33652E-15
 -1      1949 2.52964E-03 5.72023E-04-3.22278E-15
 -1      1950 3.02422E-03 6.16378E-04-4.62878E-15
 -1      1951 2.88431E-03 6.15053E-04-4.17532E-15
 -1      1952 2.80988E-03 5.77726E-04-4.04319E-15
 -1      1953 3.30501E-03 6.17290E-04-5.60134E-15
 -1      1954 3.16446E-03 6.17096E-04-5.10433E-15
 -1      1955 3.09099E-03 5.80263E-04-4.95444E-15
 -1      1956 3.58708E-03 6.16456E-04-6.66054E-15
 -1      1957 3.44589E-03 6.17054E-04-6.12019E-15
 -1      1958 3.37306E-03 5.80532E-04-5.95299E-15
 -1      1959 3.87041E-03 6.14445E-04-7.80513E-15
 -1      1960 3.72860E-03 6.15567E-04-7.22213E-15
 -1      1961 3.65614E-03 5.79216E-04-7.03806E-15
 -1      1962 4.15498E-03 6.11723E-04-9.03735E-15
 -1      1963 4.01255E-03 6.13146E-04-8.41010E-15
 -1      1964 3.94023E-03 5.76847E-04-8.20855E-15
 -1      1965 4.44076E-03 6.08720E-04-1.03560E-14
 -1      1966 4.29772E-03 6.10232E-04-9.68606E-15
 -1      1967 4.22534E-03 5.73875E-04-9.46542E-15
 -1      1968 4.72772E-03 6.05873E-04-1.17600E-14
 -1      1969 4.58410E-03 6.07251E-04-1.10480E-14
 -1      1970 4.51149E-03 5.70720E-04-1.08090E-14
 -1      1971 5.01580E-03 6.03672E-04-1.32423E-14
 -1      1972 4.87163E-03 6.04663E-04-1.24920E-14
 -1      1973 4.79865E-03 5.67827E-04-1.22340E-14
 -1      1974 5.30489E-03 6.02682E-04-1.48019E-14
 -1      1975 5.16024E-03 6.02994E-04-1.40121E-14
 -1      1976 5.08682E-03 5.65700E-04-1.37380E-14
 -1      1977 5.59476E-03 6.03537E-04-1.64364E-14
 -1      1978 5.44976E-03 6.02847E-04-1.56091E-14
 -1      1979 5.37593E-03 5.64929E-04-1.53176E-14
 -1      1980 5.88503E-03 6.06884E-04-1.81473E-14
 -1      1981 5.73989E-03 6.04872E-04-1.72825E-14
 -1      1982 5.66582E-03 5.66172E-04-1.69732E-14
 -1      1983 6.17511E-03 6.13242E-04-1.99356E-14
 -1      1984 6.03017E-03 6.09674E-04-1.90316E-14
 -1      1985 5.95623E-03 5.70084E-04-1.87047E-14
 -1      1986 6.46417E-03 6.22778E-04-2.17962E-14
 -1      1987 6.31987E-03 6.17632E-04-2.08573E-14
 -1      1988 6.24671E-03 5.77170E-04-2.05116E-14
 -1      1989 6.75110E-03 6.34959E-04-2.37233E-14
 -1      1990 6.60802E-03 6.28610E-04-2.27521E-14
 -1      1991 6.53657E-03 5.87520E-04-2.23895E-14
 -1      1992 7.03461E-03 6.48152E-04-2.57105E-14
 -1      1993 6.89342E-03 6.41577E-04-2.47089E-14
 -1      1994 6.82488E-03 6.00451E-04-2.43313E-14
 -1      1995 7.31337E-03 6.59244E-04-2.77520E-14
 -1      1996 7.17470E-03 6.54202E-04-2.67248E-14
 -1      1997 7.11048E-03 6.14066E-04-2.63332E-14
 -1      1998 7.58630E-03 6.63470E-04-2.98495E-14
 -1      1999 7.45063E-03 6.62545E-04-2.87932E-14
 -1      2000 7.39213E-03 6.24873E-04-2.83898E-14
 -1      2001 7.85291E-03 6.54679E-04-3.20032E-14
 -1      2002 7.72038E-03 6.61087E-04-3.09194E-14
 -1      2003 7.66877E-03 6.27657E-04-3.05029E-14
 -1      2004 8.11368E-03 6.26176E-04-3.42133E-14
 -1      2005 7.98390E-03 6.43265E-04-3.31005E-14
 -1      2006 7.93992E-03 6.15844E-04-3.26712E-14
 -1      2007 8.37020E-03 5.72071E-04-3.64832E-14
 -1      2008 8.24225E-03 6.02598E-04-3.53421E-14
 -1      2009 8.20606E-03 5.82509E-04-3.48980E-14
 -1      2010 8.62498E-03 4.88754E-04-3.88093E-14
 -1      2011 8.49753E-03 5.34164E-04-3.76396E-14
 -1      2012 8.46879E-03 5.21901E-04-3.71826E-14
 -1      2013 8.88094E-03 3.75901E-04-4.11808E-14
 -1      2014 8.75254E-03 4.35915E-04-3.99885E-14
 -1      2015 8.73057E-03 4.30991E-04-3.95196E-14
 -1      2016 9.14074E-03 2.36571E-04-4.36008E-14
 -1      2017 9.01016E-03 3.09268E-04-4.23838E-14
 -1      2018 8.99413E-03 3.10363E-04-4.19048E-14
 -1      2019 9.40617E-03 7.63332E-05-4.60644E-14
 -1      2020 9.27265E-03 1.58691E-04-4.48278E-14
 -1      2021 9.26173E-03 1.64045E-04-4.43388E-14
 -1      2022 9.67790E-03-9.81683E-05-4.85750E-14
 -1      2023 9.54124E-03-9.52037E-06-4.73127E-14
 -1      2024 9.53461E-03-1.67308E-06-4.68168E-14
 -1      2025 9.95562E-03-2.80621E-04-5.11310E-14
 -1      2026 9.81609E-03-1.88730E-04-4.98473E-14
 -1      2027 9.81291E-03-1.79846E-04-4.93397E-14
 -1      2028 1.02383E-02-4.65992E-04-5.37308E-14
 -1      2029 1.00965E-02-3.73181E-04-5.24254E-14
 -1      2030 1.00959E-02-3.64268E-04-5.19069E-14
 -1      2031 1.05248E-02-6.50885E-04-5.63754E-14
 -1      2032 1.03812E-02-5.58645E-04-5.50482E-14
 -1      2033 1.03825E-02-5.50273E-04-5.45182E-14
 -1      2034 1.08136E-02-8.33442E-04-5.90617E-14
 -1      2035 1.06690E-02-7.42526E-04-5.77129E-14
 -1      2036 1.06715E-02-7.34926E-04-5.71700E-14
 -1      2037 1.11037E-02-1.01298E-03-6.17920E-14
 -1      2038 1.09586E-02-9.23607E-04-6.04230E-14
 -1      2039 1.09617E-02-9.16781E-04-5.98677E-14
 -1      2040 1.13942E-02-1.18960E-03-6.45652E-14
 -1      2041 1.12489E-02-1.10164E-03-6.31726E-14
 -1      2042 1.12524E-02-1.09547E-03-6.26071E-14
 -1      2043 1.16845E-02-1.36378E-03-6.73703E-14
 -1      2044 1.15394E-02-1.27696E-03-6.59634E-14
 -1      2045 1.15429E-02-1.27126E-03-6.53871E-14
 -1      2046 1.19743E-02-1.53618E-03-7.02085E-14
 -1      2047 1.18295E-02-1.45017E-03-6.87863E-14
 -1      2048 1.18329E-02-1.44477E-03-6.82015E-14
 -1      2049 1.22633E-02-1.70745E-03-7.30656E-14
 -1      2050 1.21189E-02-1.62193E-03-7.16359E-14
 -1      2051 1.21223E-02-1.61667E-03-7.10438E-14
 -1      2052 1.25516E-02-1.87817E-03-7.59411E-14
 -1      2053 1.24076E-02-1.79285E-03-7.45000E-14
 -1      2054 1.24109E-02-1.78761E-03-7.39061E-14
 -1      2055 1.28392E-02-2.04879E-03-7.88342E-14
 -1      2056 1.26955E-02-1.96347E-03-7.73853E-14
 -1      2057 1.26988E-02-1.95814E-03-7.67850E-14
 -1      2058 1.31261E-02-2.21968E-03-8.17399E-14
 -1      2059 1.29827E-02-2.13419E-03-8.02864E-14
 -1      2060 1.29860E-02-2.12870E-03-7.96832E-14
 -1      2061 1.34125E-02-2.39109E-03-8.46568E-14
 -1      2062 1.32693E-02-2.30531E-03-8.31987E-14
 -1      2063 1.32727E-02-2.29962E-03-8.25955E-14
 -1      2064 1.36701E-02-2.54661E-03-8.73331E-14
 -1      2065 1.35272E-02-2.46052E-03-8.58724E-14
 -1      2066 1.35306E-02-2.45463E-03-8.52730E-14
 -1      2067 1.37598E-02-2.59369E-03-8.77081E-14
 -1      2068 1.42208E-02-2.81858E-03-8.84884E-14
 -1      2069 1.41351E-02-2.77703E-03-8.83364E-14
 -1      2070 1.40494E-02-2.73536E-03-8.81847E-14
 -1      2071 1.39639E-02-2.69359E-03-8.80357E-14
 -1      2072 1.39686E-02-2.68169E-03-8.69857E-14
 -1      2073 1.38450E-02-2.63569E-03-8.78582E-14
 -1      2074 1.43894E-02-2.89990E-03-8.87747E-14
 -1      2075 1.43051E-02-2.85930E-03-8.86309E-14
 -1      2076 1.41387E-02-2.76410E-03-8.72760E-14
 -1      2077 1.45607E-02-2.98214E-03-8.90626E-14
 -1      2078 1.44751E-02-2.94108E-03-8.89202E-14
 -1      2079 1.43088E-02-2.84604E-03-8.75580E-14
 -1      2080 1.47315E-02-3.06393E-03-8.93299E-14
 -1      2081 1.46462E-02-3.02308E-03-8.91996E-14
 -1      2082 1.44802E-02-2.92820E-03-8.78347E-14
 -1      2083 1.49016E-02-3.14538E-03-8.95808E-14
 -1      2084 1.48167E-02-3.10468E-03-8.94567E-14
 -1      2085 1.46509E-02-3.00992E-03-8.80933E-14
 -1      2086 1.50706E-02-3.22667E-03-8.98161E-14
 -1      2087 1.49862E-02-3.18603E-03-8.97018E-14
 -1      2088 1.48207E-02-3.09134E-03-8.83365E-14
 -1      2089 1.52387E-02-3.30800E-03-9.00247E-14
 -1      2090 1.51548E-02-3.26731E-03-8.99247E-14
 -1      2091 1.49896E-02-3.17261E-03-8.85625E-14
 -1      2092 1.54032E-02-3.38818E-03-9.02103E-14
 -1      2093 1.53210E-02-3.34804E-03-9.01194E-14
 -1      2094 1.51560E-02-3.25323E-03-8.87622E-14
 -1      2095 1.55700E-02-3.47018E-03-9.03830E-14
 -1      2096 1.54866E-02-3.42911E-03-9.02975E-14
 -1      2097 1.53216E-02-3.33412E-03-8.89407E-14
 -1      2098 1.57367E-02-3.55274E-03-9.05410E-14
 -1      2099 1.56533E-02-3.51138E-03-9.04610E-14
 -1      2100 1.54882E-02-3.41616E-03-8.91037E-14
 -1      2101 1.59038E-02-3.63591E-03-9.06924E-14
 -1      2102 1.58202E-02-3.59426E-03-9.06189E-14
 -1      2103 1.56548E-02-3.49879E-03-8.92597E-14
 -1      2104 1.10768E-03 4.68214E-04-4.39671E-16
 -1      2105 9.65341E-04 4.33941E-04-3.13104E-16
 -1      2106 9.33159E-04 4.04511E-04-3.28811E-16
 -1      2107 1.15795E-03 4.47456E-04-5.59191E-16
 -1      2108 1.13245E-02-9.16627E-04-4.62676E-14
 -1      2109 1.15233E-02-9.76074E-04-4.65082E-14
 -1      2110 1.03316E-02-4.01908E-04-4.37895E-14
 -1      2111 1.05544E-02-5.35643E-04-4.44243E-14
 -1      2112 1.19316E-02-1.09414E-03-4.69825E-14
 -1      2113 1.19832E-02-1.11507E-03-4.70477E-14
 -1      2114 1.01258E-02-2.27987E-03-4.19840E-14
 -1      2115 1.03023E-02-2.17683E-03-4.29067E-14
 -1      2116 1.00470E-02-2.28630E-03-4.15097E-14
 -1      2117 3.27243E-04-8.89860E-05-1.35281E-16
 -1      2118 3.29334E-04-1.02168E-04-1.31053E-16
 -1      2119 4.46360E-04-1.45131E-04-1.91402E-16
 -1      2120 4.40101E-04-1.09942E-04-2.02475E-16
 -1      2121 1.05270E-02-2.01081E-03-4.40018E-14
 -1      2122 1.07590E-02-1.84508E-03-4.51905E-14
 -1      2123 1.09607E-02-1.68924E-03-4.58013E-14
 -1      2124 9.90020E-03-1.35512E-04-4.23341E-14
 -1      2125 1.01008E-02-2.55334E-04-4.29992E-14
 -1      2126 9.51229E-03 5.98796E-05-4.09230E-14
 -1      2127 9.69900E-03-2.92221E-05-4.16274E-14
 -1      2128 9.77018E-03-9.40124E-05-4.21726E-14
 -1      2129 9.12777E-03 1.68450E-04-3.92169E-14
 -1      2130 9.28852E-03 1.39619E-04-3.99614E-14
 -1      2131 8.77708E-03 1.38398E-04-3.76938E-14
 -1      2132 8.93256E-03 1.68635E-04-3.83486E-14
 -1      2133 8.42053E-03 1.54359E-05-3.64241E-14
 -1      2134 8.58969E-03 8.31082E-05-3.70036E-14
 -1      2135 8.05275E-03-1.48069E-04-3.53245E-14
 -1      2136 8.22849E-03-6.51872E-05-3.58411E-14
 -1      2137 7.67707E-03-3.18779E-04-3.43145E-14
 -1      2138 7.85449E-03-2.38600E-04-3.47725E-14
 -1      2139 7.29961E-03-4.60936E-04-3.36066E-14
 -1      2140 7.45956E-03-4.05828E-04-3.38538E-14
 -1      2141 7.04664E-03-5.42504E-04-3.32191E-14
 -1      2142 7.15201E-03-5.11068E-04-3.33596E-14
 -1      2143 6.93954E-03-5.90719E-04-3.31165E-14
 -1      2144 6.97125E-03-5.72311E-04-3.31499E-14
 -1      2145 6.99770E-03-6.33413E-04-3.31446E-14
 -1      2146 6.94819E-03-6.12735E-04-3.30764E-14
 -1      2147 7.23995E-03-7.43541E-04-3.36866E-14
 -1      2148 7.10821E-03-6.87759E-04-3.34321E-14
 -1      2149 7.62368E-03-9.18723E-04-3.42974E-14
 -1      2150 7.42802E-03-8.21253E-04-3.39484E-14
 -1      2151 8.10649E-03-1.22293E-03-3.53039E-14
 -1      2152 7.86984E-03-1.07089E-03-3.48291E-14
 -1      2153 8.61754E-03-1.60037E-03-3.64754E-14
 -1      2154 8.38088E-03-1.41727E-03-3.59095E-14
 -1      2155 9.09338E-03-1.97691E-03-3.78063E-14
 -1      2156 8.88326E-03-1.80615E-03-3.71687E-14
 -1      2157 9.47054E-03-2.21847E-03-3.90488E-14
 -1      2158 9.28302E-03-2.10433E-03-3.83496E-14
 -1      2159 9.91165E-03-2.29532E-03-4.08669E-14
 -1      2160 9.74933E-03-2.30496E-03-4.01690E-14
 -1      2161 1.03021E-02-2.12949E-03-4.24752E-14
 -1      2162 1.01310E-02-2.22860E-03-4.17720E-14
 -1      2163 1.07375E-02-1.84421E-03-4.37345E-14
 -1      2164 1.05340E-02-1.98258E-03-4.31379E-14
 -1      2165 1.11598E-02-1.57219E-03-4.48776E-14
 -1      2166 1.09597E-02-1.69926E-03-4.43519E-14
 -1      2167 1.15375E-02-1.34993E-03-4.60070E-14
 -1      2168 1.13570E-02-1.44944E-03-4.54832E-14
 -1      2169 1.18626E-02-1.20767E-03-4.66659E-14
 -1      2170 1.17399E-02-1.25682E-03-4.64333E-14
 -1      2171 1.19919E-02-1.14328E-03-4.71114E-14
 -1      2172 1.19514E-02-1.16538E-03-4.69740E-14
 -1      2173 1.16857E-02-1.02390E-03-4.67066E-14
 -1      2174 1.18203E-02-1.06173E-03-4.69065E-14
 -1      2175 1.16010E-02-1.04532E-03-4.72058E-14
 -1      2176 1.60836E-02-3.72470E-03-9.07693E-14
 -1      2177 6.00410E-04-2.95389E-04-1.97243E-16
 -1      2178 6.56261E-04-2.89932E-04-2.67500E-16
 -1      2179 1.11661E-02-8.93720E-04-4.63772E-14
 -1      2180 1.12921E-02-9.76063E-04-4.71135E-14
 -1      2181 1.10170E-02-8.61282E-04-4.64836E-14
 -1      2182 9.61714E-03-2.28323E-03-3.94766E-14
 -1      2183 8.46450E-03-1.33854E-03-3.51842E-14
 -1      2184 8.77589E-03-1.56002E-03-3.57537E-14
 -1      2185 1.01729E-02-3.50080E-04-4.36719E-14
 -1      2186 1.37639E-02-2.58212E-03-8.66630E-14
 -1      2187 1.18773E-02-1.10539E-03-4.74868E-14
 -1      2188 1.60339E-02-3.70100E-03-9.08275E-14
 -1      2189 1.59533E-02-3.65948E-03-9.06337E-14
 -1      2190 1.57876E-02-3.56383E-03-8.92806E-14
 -1      2191 1.58865E-02-3.61101E-03-8.91653E-14
 -1      2192 1.06306E-02-6.31347E-04-4.51068E-14
 -1      2193 1.19987E-02-1.14175E-03-4.76295E-14
 -1      2194 1.04767E-02-2.02735E-03-4.35112E-14
 -1      2195 1.19173E-02-1.18013E-03-4.73856E-14
 -1      2196 1.16385E-02-1.28746E-03-4.66460E-14
 -1      2197 1.15415E-02-1.32788E-03-4.68588E-14
 -1      2198 1.17291E-02-1.24832E-03-4.72888E-14
 -1      2199 1.12420E-02-1.49424E-03-4.56083E-14
 -1      2200 1.08392E-02-1.75706E-03-4.43787E-14
 -1      2201 9.21162E-03-2.02251E-03-3.78236E-14
 -1      2202 8.79557E-03-1.68342E-03-3.65924E-14
 -1      2203 8.28445E-03-1.27958E-03-3.53024E-14
 -1      2204 7.77622E-03-9.43541E-04-3.41742E-14
 -1      2205 7.35111E-03-7.36577E-04-3.33907E-14
 -1      2206 7.05019E-03-6.25323E-04-3.28473E-14
 -1      2207 6.93506E-03-5.82790E-04-3.26040E-14
 -1      2208 7.00005E-03-5.53893E-04-3.27126E-14
 -1      2209 7.21621E-03-4.93912E-04-3.30245E-14
 -1      2210 7.56833E-03-3.69847E-04-3.37262E-14
 -1      2211 7.96970E-03-1.95621E-04-3.47300E-14
 -1      2212 8.33606E-03-2.29181E-05-3.58573E-14
 -1      2213 8.67796E-03 1.18211E-04-3.71217E-14
 -1      2214 9.38406E-03 1.06835E-04-4.05002E-14
 -1      2215 9.46679E-03 5.93266E-05-4.10413E-14
 -1      2216 9.27768E-03 1.40140E-04-4.00795E-14
 -1      2217 9.01110E-03 1.80048E-04-3.86719E-14
 -1      2218 5.47920E-04-5.52753E-05-2.98887E-16
 -1      2219 5.48950E-04-7.19848E-05-2.98643E-16
 -1      2220 5.50359E-04-8.93037E-05-2.97451E-16
 -1      2221 5.52210E-04-1.07280E-04-2.95052E-16
 -1      2222 6.65435E-04-9.54331E-05-4.04516E-16
 -1      2223 5.46541E-04 8.83525E-06-2.93141E-16
 -1      2224 5.46523E-04-6.98920E-06-2.95594E-16
 -1      2225 5.47287E-04 4.08197E-05-2.86229E-16
 -1      2226 5.46792E-04 2.47584E-05-2.90133E-16
 -1      2227 6.61498E-04 1.98933E-05-3.96398E-16
 -1      2228 5.49096E-04 7.34175E-05-2.76295E-16
 -1      2229 5.48043E-04 5.69366E-05-2.81838E-16
 -1      2230 6.62811E-04 5.77099E-05-3.86599E-16
 -1      2231 5.52461E-04 1.08871E-04-2.61496E-16
 -1      2232 5.50552E-04 9.08048E-05-2.69438E-16
 -1      2233 6.65651E-04 9.71430E-05-3.72044E-16
 -1      2234 5.58293E-04 1.48199E-04-2.41316E-16
 -1      2235 5.55003E-04 1.27975E-04-2.52335E-16
 -1      2236 6.70709E-04 1.39883E-04-3.51647E-16
 -1      2237 5.68593E-04 1.93770E-04-2.13127E-16
 -1      2238 5.62731E-04 1.70078E-04-2.28536E-16
 -1      2239 6.79287E-04 1.87414E-04-3.23946E-16
 -1      2240 5.87945E-04 2.49372E-04-1.73256E-16
 -1      2241 5.76850E-04 2.20121E-04-1.94953E-16
 -1      2242 6.94204E-04 2.42323E-04-2.85850E-16
 -1      2243 6.42009E-04 3.01146E-04-1.59852E-16
 -1      2244 6.14319E-04 2.73660E-04-1.68932E-16
 -1      2245 7.31424E-04 2.97608E-04-2.58596E-16
 -1      2246 7.88421E-04 3.49467E-04-2.46683E-16
 -1      2247 9.00703E-04-3.42568E-04-5.10049E-16
 -1      2248 1.04483E-03-3.76320E-04-6.73520E-16
 -1      2249 1.00130E-02-2.86208E-04-4.35246E-14
 -1      2250 1.02165E-02-4.26693E-04-4.43190E-14
 -1      2251 1.18813E-03-4.05044E-04-8.61588E-16
 -1      2252 1.33099E-03-4.29180E-04-1.07499E-15
 -1      2253 1.10260E-03-3.57413E-04-7.88622E-16
 -1      2254 1.47321E-03-4.49582E-04-1.31317E-15
 -1      2255 1.61503E-03-4.66526E-04-1.57658E-15
 -1      2256 1.38899E-03-4.04661E-04-1.21877E-15
 -1      2257 1.75649E-03-4.80687E-04-1.86499E-15
 -1      2258 1.89771E-03-4.92282E-04-2.17839E-15
 -1      2259 1.67419E-03-4.38092E-04-1.74800E-15
 -1      2260 2.03878E-03-5.01807E-04-2.51668E-15
 -1      2261 2.17975E-03-5.09436E-04-2.88003E-15
 -1      2262 1.95846E-03-4.61045E-04-2.37615E-15
 -1      2263 2.32071E-03-5.15527E-04-3.26812E-15
 -1      2264 2.46168E-03-5.20221E-04-3.68049E-15
 -1      2265 2.24220E-03-4.76159E-04-3.10289E-15
 -1      2266 2.60273E-03-5.23775E-04-4.11710E-15
 -1      2267 2.74385E-03-5.26303E-04-4.57719E-15
 -1      2268 2.52577E-03-4.85452E-04-3.92678E-15
 -1      2269 2.88511E-03-5.27985E-04-5.06046E-15
 -1      2270 3.02649E-03-5.28909E-04-5.56669E-15
 -1      2271 2.80941E-03-4.90443E-04-4.84554E-15
 -1      2272 3.16804E-03-5.29201E-04-6.09533E-15
 -1      2273 3.30974E-03-5.28925E-04-6.64582E-15
 -1      2274 3.09331E-03-4.92252E-04-5.85649E-15
 -1      2275 3.45162E-03-5.28162E-04-7.21741E-15
 -1      2276 3.59369E-03-5.26962E-04-7.81061E-15
 -1      2277 3.37758E-03-4.91680E-04-6.95461E-15
 -1      2278 3.73596E-03-5.25369E-04-8.42496E-15
 -1      2279 3.87842E-03-5.23421E-04-9.06042E-15
 -1      2280 3.66231E-03-4.89283E-04-8.13866E-15
 -1      2281 4.02110E-03-5.21136E-04-9.71586E-15
 -1      2282 4.16401E-03-5.18539E-04-1.03920E-14
 -1      2283 3.94753E-03-4.85418E-04-9.40556E-15
 -1      2284 4.30714E-03-5.15630E-04-1.10896E-14
 -1      2285 4.45054E-03-5.12430E-04-1.18076E-14
 -1      2286 4.23327E-03-4.80296E-04-1.07563E-14
 -1      2287 4.59417E-03-5.08923E-04-1.25450E-14
 -1      2288 4.73810E-03-5.05130E-04-1.33033E-14
 -1      2289 4.51955E-03-4.74028E-04-1.21891E-14
 -1      2290 4.88228E-03-5.01033E-04-1.40804E-14
 -1      2291 5.02681E-03-4.96655E-04-1.48767E-14
 -1      2292 4.80631E-03-4.66670E-04-1.37017E-14
 -1      2293 5.17156E-03-4.91996E-04-1.56921E-14
 -1      2294 5.31673E-03-4.87087E-04-1.65258E-14
 -1      2295 5.09343E-03-4.58295E-04-1.52915E-14
 -1      2296 5.46207E-03-4.81982E-04-1.73764E-14
 -1      2297 5.60786E-03-4.76728E-04-1.82443E-14
 -1      2298 5.38063E-03-4.49095E-04-1.69548E-14
 -1      2299 5.75371E-03-4.71499E-04-1.91284E-14
 -1      2300 5.90003E-03-4.66375E-04-2.00286E-14
 -1      2301 5.66734E-03-4.39556E-04-1.86870E-14
 -1      2302 6.04620E-03-4.61769E-04-2.09451E-14
 -1      2303 6.19279E-03-4.57826E-04-2.18765E-14
 -1      2304 5.95262E-03-4.30757E-04-2.04838E-14
 -1      2305 6.33893E-03-4.55388E-04-2.28215E-14
 -1      2306 6.48544E-03-4.54756E-04-2.37816E-14
 -1      2307 6.23491E-03-4.24860E-04-2.23434E-14
 -1      2308 6.63115E-03-4.57440E-04-2.47565E-14
 -1      2309 6.77736E-03-4.64147E-04-2.57443E-14
 -1      2310 6.51213E-03-4.25885E-04-2.42626E-14
 -1      2311 6.92285E-03-4.77234E-04-2.67444E-14
 -1      2312 7.06978E-03-4.98502E-04-2.77592E-14
 -1      2313 6.78222E-03-4.40763E-04-2.62371E-14
 -1      2314 7.21765E-03-5.31061E-04-2.87862E-14
 -1      2315 7.37020E-03-5.79564E-04-2.98261E-14
 -1      2316 7.04537E-03-4.80774E-04-2.82637E-14
 -1      2317 7.52107E-03-6.42774E-04-3.08260E-14
 -1      2318 7.68228E-03-7.33272E-04-3.18385E-14
 -1      2319 7.30311E-03-5.62069E-04-3.02900E-14
 -1      2320 7.90538E-03-8.72224E-04-3.28930E-14
 -1      2321 8.10521E-03-1.04073E-03-3.39343E-14
 -1      2322 9.19009E-03-1.96486E-03-3.73588E-14
 -1      2323 8.94022E-03-1.68550E-03-3.60491E-14
 -1      2324 9.13607E-03-1.89494E-03-3.69666E-14
 -1      2325 8.98541E-03-1.81058E-03-3.68943E-14
 -1      2326 8.22124E-03-1.15501E-03-3.45885E-14
 -1      2327 5.84942E-04-2.36802E-04-2.48770E-16
 -1      2328 7.70456E-04-3.01670E-04-3.90326E-16
 -1      2329 8.30022E-04-2.90767E-04-4.77401E-16
 -1      2330 5.75459E-04-2.09068E-04-2.63678E-16
 -1      2331 1.17721E-02-1.37790E-03-5.01917E-14
 -1      2332 1.19435E-02-1.38999E-03-5.14895E-14
 -1      2333 1.21091E-02-1.42289E-03-5.27953E-14
 -1      2334 1.22668E-02-1.47466E-03-5.41097E-14
 -1      2335 1.24211E-02-1.53876E-03-5.54338E-14
 -1      2336 1.25743E-02-1.61179E-03-5.67671E-14
 -1      2337 1.23510E-02-1.47480E-03-5.47355E-14
 -1      2338 1.27258E-02-1.69089E-03-5.81071E-14
 -1      2339 1.28771E-02-1.77469E-03-5.94534E-14
 -1      2340 1.26332E-02-1.62136E-03-5.73967E-14
 -1      2341 1.30273E-02-1.86129E-03-6.08097E-14
 -1      2342 1.31774E-02-1.95007E-03-6.21746E-14
 -1      2343 1.29183E-02-1.78761E-03-6.00913E-14
 -1      2344 1.33265E-02-2.03996E-03-6.35467E-14
 -1      2345 1.34754E-02-2.13065E-03-6.49320E-14
 -1      2346 1.32062E-02-1.96369E-03-6.28191E-14
 -1      2347 1.36234E-02-2.22161E-03-6.63304E-14
 -1      2348 1.37711E-02-2.31268E-03-6.77361E-14
 -1      2349 1.34956E-02-2.14392E-03-6.55880E-14
 -1      2350 1.39180E-02-2.40363E-03-6.91485E-14
 -1      2351 1.40646E-02-2.49437E-03-7.05745E-14
 -1      2352 1.37855E-02-2.32530E-03-6.83965E-14
 -1      2353 1.42106E-02-2.58484E-03-7.20106E-14
 -1      2354 1.43563E-02-2.67498E-03-7.34546E-14
 -1      2355 1.40752E-02-2.50632E-03-7.12464E-14
 -1      2356 1.45015E-02-2.76478E-03-7.49073E-14
 -1      2357 1.46464E-02-2.85421E-03-7.63658E-14
 -1      2358 1.43643E-02-2.68631E-03-7.41312E-14
 -1      2359 1.47910E-02-2.94330E-03-7.78303E-14
 -1      2360 1.49353E-02-3.03202E-03-7.93024E-14
 -1      2361 1.46527E-02-2.86503E-03-7.70469E-14
 -1      2362 1.50793E-02-3.12041E-03-8.07855E-14
 -1      2363 1.52231E-02-3.20846E-03-8.22722E-14
 -1      2364 1.49404E-02-3.04241E-03-7.99904E-14
 -1      2365 1.53667E-02-3.29618E-03-8.37648E-14
 -1      2366 1.55102E-02-3.38358E-03-8.52684E-14
 -1      2367 1.52275E-02-3.21847E-03-8.29629E-14
 -1      2368 1.56268E-02-3.45408E-03-8.64574E-14
 -1      2369 1.57700E-02-3.54092E-03-8.79683E-14
 -1      2370 1.57205E-02-3.51732E-03-8.80266E-14
 -1      2371 1.54875E-02-3.37665E-03-8.56431E-14
 -1      2372 2.03078E-03 5.14364E-04-2.07843E-15
 -1      2373 1.89005E-03 5.04630E-04-1.78275E-15
 -1      2374 1.74915E-03 4.92664E-04-1.51075E-15
 -1      2375 1.60800E-03 4.78264E-04-1.26236E-15
 -1      2376 1.80854E-03 4.62870E-04-1.69966E-15
 -1      2377 1.46651E-03 4.60838E-04-1.03723E-15
 -1      2378 1.32450E-03 4.40142E-04-8.35730E-16
 -1      2379 1.52434E-03 4.34321E-04-1.19566E-15
 -1      2380 2.31210E-03 5.28580E-04-2.74066E-15
 -1      2381 2.17146E-03 5.22293E-04-2.39788E-15
 -1      2382 2.09196E-03 4.82192E-04-2.29749E-15
 -1      2383 2.59356E-03 5.37291E-04-3.49670E-15
 -1      2384 2.45280E-03 5.33536E-04-3.10673E-15
 -1      2385 2.37505E-03 4.94667E-04-2.98916E-15
 -1      2386 2.87545E-03 5.41982E-04-4.34468E-15
 -1      2387 2.73445E-03 5.40072E-04-3.90916E-15
 -1      2388 2.65813E-03 5.02102E-04-3.77342E-15
 -1      2389 3.15794E-03 5.43766E-04-5.28230E-15
 -1      2390 3.01662E-03 5.43186E-04-4.80246E-15
 -1      2391 2.94144E-03 5.05861E-04-4.64895E-15
 -1      2392 3.44113E-03 5.43479E-04-6.30748E-15
 -1      2393 3.29945E-03 5.43842E-04-5.78433E-15
 -1      2394 3.22512E-03 5.06969E-04-5.61357E-15
 -1      2395 3.72508E-03 5.41752E-04-7.41852E-15
 -1      2396 3.58301E-03 5.42764E-04-6.85223E-15
 -1      2397 3.50928E-03 5.06192E-04-6.66496E-15
 -1      2398 4.00983E-03 5.39088E-04-8.61476E-15
 -1      2399 3.86736E-03 5.40512E-04-8.00569E-15
 -1      2400 3.79397E-03 5.04117E-04-7.80167E-15
 -1      2401 4.29540E-03 5.35915E-04-9.89615E-15
 -1      2402 4.15251E-03 5.37542E-04-9.24471E-15
 -1      2403 4.07925E-03 5.01207E-04-9.02254E-15
 -1      2404 4.58184E-03 5.32644E-04-1.12629E-14
 -1      2405 4.43851E-03 5.34268E-04-1.05693E-14
 -1      2406 4.36520E-03 4.97868E-04-1.03288E-14
 -1      2407 4.86918E-03 5.29722E-04-1.27097E-14
 -1      2408 4.72540E-03 5.31113E-04-1.19761E-14
 -1      2409 4.65187E-03 4.94502E-04-1.17180E-14
 -1      2410 5.15746E-03 5.27666E-04-1.42348E-14
 -1      2411 5.01321E-03 5.28554E-04-1.34632E-14
 -1      2412 4.93937E-03 4.91551E-04-1.31877E-14
 -1      2413 5.44669E-03 5.27083E-04-1.58358E-14
 -1      2414 5.30197E-03 5.27154E-04-1.50256E-14
 -1      2415 5.22780E-03 4.89539E-04-1.47342E-14
 -1      2416 5.73683E-03 5.28647E-04-1.75119E-14
 -1      2417 5.59167E-03 5.27558E-04-1.66634E-14
 -1      2418 5.51728E-03 4.89084E-04-1.63551E-14
 -1      2419 6.02775E-03 5.33027E-04-1.92626E-14
 -1      2420 5.88223E-03 5.30451E-04-1.83781E-14
 -1      2421 5.80792E-03 4.90877E-04-1.80509E-14
 -1      2422 6.31915E-03 5.40712E-04-2.10884E-14
 -1      2423 6.17345E-03 5.36440E-04-2.01675E-14
 -1      2424 6.09973E-03 4.95600E-04-1.98229E-14
 -1      2425 6.61051E-03 5.51738E-04-2.29817E-14
 -1      2426 6.46493E-03 5.45830E-04-2.20264E-14
 -1      2427 6.39260E-03 5.03746E-04-2.16660E-14
 -1      2428 6.90102E-03 5.65290E-04-2.49390E-14
 -1      2429 6.75599E-03 5.58288E-04-2.39531E-14
 -1      2430 6.68614E-03 5.15322E-04-2.35744E-14
 -1      2431 7.18956E-03 5.79236E-04-2.69566E-14
 -1      2432 7.04566E-03 5.72401E-04-2.59412E-14
 -1      2433 6.97960E-03 5.29416E-04-2.55482E-14
 -1      2434 7.47484E-03 5.89714E-04-2.90288E-14
 -1      2435 7.33272E-03 5.85212E-04-2.79863E-14
 -1      2436 7.27178E-03 5.43678E-04-2.75814E-14
 -1      2437 7.75566E-03 5.91027E-04-3.11570E-14
 -1      2438 7.61586E-03 5.91927E-04-3.00855E-14
 -1      2439 7.56118E-03 5.53862E-04-2.96688E-14
 -1      2440 8.03144E-03 5.76107E-04-3.33406E-14
 -1      2441 7.89414E-03 5.86058E-04-3.22406E-14
 -1      2442 7.84640E-03 5.53713E-04-3.18110E-14
 -1      2443 8.30265E-03 5.37724E-04-3.55819E-14
 -1      2444 8.16745E-03 5.60257E-04-3.44550E-14
 -1      2445 8.12666E-03 5.35556E-04-3.40099E-14
 -1      2446 8.57098E-03 4.70255E-04-3.78798E-14
 -1      2447 8.43691E-03 5.07865E-04-3.67240E-14
 -1      2448 8.40253E-03 4.91786E-04-3.62651E-14
 -1      2449 8.83905E-03 3.71320E-04-4.02294E-14
 -1      2450 8.70476E-03 4.24711E-04-3.90480E-14
 -1      2451 8.67599E-03 4.16936E-04-3.85760E-14
 -1      2452 9.10953E-03 2.42574E-04-4.26300E-14
 -1      2453 8.97375E-03 3.10422E-04-4.14236E-14
 -1      2454 8.94993E-03 3.09455E-04-4.09406E-14
 -1      2455 9.38435E-03 8.91426E-05-4.50767E-14
 -1      2456 9.24627E-03 1.68529E-04-4.38472E-14
 -1      2457 9.22704E-03 1.72260E-04-4.33552E-14
 -1      2458 9.66423E-03-8.19069E-05-4.75686E-14
 -1      2459 9.52365E-03 5.36271E-06-4.63180E-14
 -1      2460 9.50888E-03 1.17172E-05-4.58144E-14
 -1      2461 9.94873E-03-2.63383E-04-5.01033E-14
 -1      2462 9.80598E-03-1.71745E-04-4.88295E-14
 -1      2463 9.79554E-03-1.64352E-04-4.83197E-14
 -1      2464 1.02368E-02-4.49292E-04-5.26814E-14
 -1      2465 1.00924E-02-3.56079E-04-5.13881E-14
 -1      2466 1.00860E-02-3.48624E-04-5.08658E-14
 -1      2467 1.05270E-02-6.35452E-04-5.53025E-14
 -1      2468 1.03818E-02-5.42522E-04-5.39870E-14
 -1      2469 1.03788E-02-5.35468E-04-5.34560E-14
 -1      2470 1.08184E-02-8.19457E-04-5.79647E-14
 -1      2471 1.06727E-02-7.27810E-04-5.66292E-14
 -1      2472 1.06724E-02-7.21292E-04-5.60852E-14
 -1      2473 1.11099E-02-1.00031E-03-6.06728E-14
 -1      2474 1.09642E-02-9.10298E-04-5.93125E-14
 -1      2475 1.09658E-02-9.04277E-04-5.87601E-14
 -1      2476 1.14011E-02-1.17794E-03-6.34222E-14
 -1      2477 1.12556E-02-1.08951E-03-6.20425E-14
 -1      2478 1.12585E-02-1.08388E-03-6.14768E-14
 -1      2479 1.16916E-02-1.35282E-03-6.62106E-14
 -1      2480 1.15465E-02-1.26569E-03-6.48123E-14
 -1      2481 1.15501E-02-1.26032E-03-6.42374E-14
 -1      2482 1.19814E-02-1.52561E-03-6.90329E-14
 -1      2483 1.18366E-02-1.43943E-03-6.76177E-14
 -1      2484 1.18405E-02-1.43421E-03-6.70344E-14
 -1      2485 1.22703E-02-1.69700E-03-7.18799E-14
 -1      2486 1.21260E-02-1.61144E-03-7.04548E-14
 -1      2487 1.21300E-02-1.60626E-03-6.98646E-14
 -1      2488 1.25585E-02-1.86763E-03-7.47483E-14
 -1      2489 1.24145E-02-1.78238E-03-7.33121E-14
 -1      2490 1.24185E-02-1.77717E-03-7.27171E-14
 -1      2491 1.28460E-02-2.03800E-03-7.76326E-14
 -1      2492 1.27024E-02-1.95282E-03-7.61862E-14
 -1      2493 1.27063E-02-1.94751E-03-7.55903E-14
 -1      2494 1.31330E-02-2.20853E-03-8.05353E-14
 -1      2495 1.29896E-02-2.12323E-03-7.90820E-14
 -1      2496 1.29934E-02-2.11776E-03-7.84790E-14
 -1      2497 1.34195E-02-2.37949E-03-8.34521E-14
 -1      2498 1.32763E-02-2.29394E-03-8.19925E-14
 -1      2499 1.32801E-02-2.28827E-03-8.13891E-14
 -1      2500 1.36493E-02-2.51268E-03-8.54430E-14
 -1      2501 1.42283E-02-2.79234E-03-8.63399E-14
 -1      2502 1.41425E-02-2.75113E-03-8.62010E-14
 -1      2503 1.40581E-02-2.71050E-03-8.60654E-14
 -1      2504 1.39736E-02-2.66975E-03-8.59273E-14
 -1      2505 1.39775E-02-2.65705E-03-8.48558E-14
 -1      2506 1.38878E-02-2.62817E-03-8.57816E-14
 -1      2507 1.38020E-02-2.58648E-03-8.56353E-14
 -1      2508 1.38071E-02-2.57480E-03-8.45780E-14
 -1      2509 1.18327E-02-1.13246E-03-4.81718E-14
 -1      2510 1.19370E-02-1.14421E-03-4.82520E-14
 -1      2511 1.43996E-02-2.87440E-03-8.66055E-14
 -1      2512 1.43140E-02-2.83343E-03-8.64733E-14
 -1      2513 1.41478E-02-2.73878E-03-8.51216E-14
 -1      2514 1.45702E-02-2.95602E-03-8.68556E-14
 -1      2515 1.44850E-02-2.91525E-03-8.67345E-14
 -1      2516 1.43192E-02-2.82070E-03-8.53792E-14
 -1      2517 1.47399E-02-3.03733E-03-8.70916E-14
 -1      2518 1.46552E-02-2.99670E-03-8.69753E-14
 -1      2519 1.44897E-02-2.90216E-03-8.56220E-14
 -1      2520 1.49085E-02-3.11849E-03-8.73081E-14
 -1      2521 1.48243E-02-3.07791E-03-8.72022E-14
 -1      2522 1.46592E-02-2.98329E-03-8.58469E-14
 -1      2523 1.50732E-02-3.19835E-03-8.74946E-14
 -1      2524 1.49910E-02-3.15839E-03-8.74039E-14
 -1      2525 1.48260E-02-3.06360E-03-8.60493E-14
 -1      2526 1.52400E-02-3.27988E-03-8.76697E-14
 -1      2527 1.51567E-02-3.23906E-03-8.75849E-14
 -1      2528 1.49919E-02-3.14400E-03-8.62327E-14
 -1      2529 1.54063E-02-3.36192E-03-8.78280E-14
 -1      2530 1.53232E-02-3.32083E-03-8.77500E-14
 -1      2531 1.51583E-02-3.22544E-03-8.64008E-14
 -1      2532 1.55729E-02-3.44462E-03-8.79837E-14
 -1      2533 1.54895E-02-3.40319E-03-8.79038E-14
 -1      2534 1.53244E-02-3.30748E-03-8.65586E-14
 -1      2535 1.04924E-02-5.94810E-04-4.52079E-14
 -1      2536 1.07208E-02-7.23244E-04-4.58526E-14
 -1      2537 1.15409E-02-1.07609E-03-4.79369E-14
 -1      2538 1.16866E-02-1.10991E-03-4.81416E-14
 -1      2539 1.04178E-02-2.05603E-03-4.30911E-14
 -1      2540 1.13890E-02-1.44778E-03-4.76183E-14
 -1      2541 1.15881E-02-1.39234E-03-4.89009E-14
 -1      2542 1.19969E-02-1.15583E-03-4.83270E-14
 -1      2543 1.20116E-02-1.16204E-03-4.83927E-14
 -1      2544 5.46737E-04-2.28968E-05-2.97356E-16
 -1      2545 5.47193E-04-3.89265E-05-2.98440E-16
 -1      2546 6.62678E-04-5.57798E-05-4.05627E-16
 -1      2547 6.61451E-04-1.77036E-05-4.02713E-16
 -1      2548 8.92124E-03 1.84282E-04-3.81795E-14
 -1      2549 9.07839E-03 1.84192E-04-3.90438E-14
 -1      2550 9.67295E-03-6.32204E-05-4.21031E-14
 -1      2551 9.83766E-03-1.70776E-04-4.28125E-14
 -1      2552 9.90805E-03-2.43212E-04-4.34545E-14
 -1      2553 8.57665E-03 9.34691E-05-3.64775E-14
 -1      2554 8.72401E-03 1.48703E-04-3.71596E-14
 -1      2555 8.24232E-03-5.89143E-05-3.51595E-14
 -1      2556 8.39941E-03 1.91294E-05-3.57342E-14
 -1      2557 7.89938E-03-2.23462E-04-3.40713E-14
 -1      2558 8.07459E-03-1.39744E-04-3.46147E-14
 -1      2559 8.14102E-03-8.45489E-05-3.44928E-14
 -1      2560 7.46334E-03-4.05008E-04-3.29807E-14
 -1      2561 7.65961E-03-3.28285E-04-3.34344E-14
 -1      2562 7.14092E-03-5.07428E-04-3.24127E-14
 -1      2563 7.27506E-03-4.70797E-04-3.26545E-14
 -1      2564 6.95814E-03-5.50696E-04-3.21915E-14
 -1      2565 7.02529E-03-5.37389E-04-3.22588E-14
 -1      2566 6.93455E-03-5.63259E-04-3.21106E-14
 -1      2567 6.92829E-03-5.60866E-04-3.21516E-14
 -1      2568 6.92999E-03-5.38982E-04-3.17005E-14
 -1      2569 7.11845E-03-6.14485E-04-3.25304E-14
 -1      2570 7.00668E-03-5.82504E-04-3.22479E-14
 -1      2571 7.43780E-03-7.19648E-04-3.29966E-14
 -1      2572 7.26288E-03-6.59037E-04-3.27421E-14
 -1      2573 7.93156E-03-9.78866E-04-3.40507E-14
 -1      2574 7.69819E-03-8.44108E-04-3.35273E-14
 -1      2575 1.13166E-02-1.44422E-03-4.63232E-14
 -1      2576 1.11326E-02-1.55214E-03-4.57111E-14
 -1      2577 1.19613E-02-1.17654E-03-4.81237E-14
 -1      2578 1.18759E-02-1.19709E-03-4.78141E-14
 -1      2579 1.36532E-02-2.50670E-03-8.48375E-14
 -1      2580 1.06737E-02-1.87130E-03-4.41822E-14
 -1      2581 1.08647E-02-1.73119E-03-4.48063E-14
 -1      2582 1.09750E-02-1.66497E-03-4.55149E-14
 -1      2583 6.70329E-04-1.37902E-04-3.98404E-16
 -1      2584 5.54669E-04-1.26185E-04-2.91244E-16
 -1      2585 5.57857E-04-1.46162E-04-2.85904E-16
 -1      2586 1.17529E-02-1.32966E-03-4.95167E-14
 -1      2587 9.02426E-04 3.77649E-04-3.37878E-16
 -1      2588 8.73331E-04 3.51279E-04-3.44587E-16
 -1      2589 1.01604E-03 4.01414E-04-4.44713E-16
 -1      2590 8.80367E-03 1.75810E-04-3.75238E-14
 -1      2591 1.14166E-02-1.05123E-03-4.80466E-14
 -1      2592 5.62618E-04-1.64491E-04-2.81459E-16
 -1      2593 5.68008E-04-1.87511E-04-2.72474E-16
 -1      2594 6.92578E-04-2.26300E-04-3.72979E-16
 -1      2595 6.79047E-04-1.81221E-04-3.88171E-16
 -1      2596 1.03306E-02-5.19664E-04-4.50592E-14
 -1      2597 1.12007E-02-1.53389E-03-4.67160E-14
 -1      2598 7.62254E-03-7.32730E-04-3.23417E-14
 -1      2599 8.75243E-03-1.60851E-03-3.62062E-14
 -1      2600 1.20643E-02-1.36746E-03-5.21107E-14
 -1      2601 1.19834E-02-1.17444E-03-4.90174E-14
 -1      2602 1.17862E-02-1.15292E-03-4.89098E-14
 -1      2603 1.07501E-02-7.77303E-04-4.66875E-14
 -1      2604 1.08738E-02-8.21716E-04-4.65855E-14
 -1      2605 1.10202E-02-9.05621E-04-4.73244E-14
 -1      2606 1.14126E-02-1.41319E-03-4.73263E-14
 -1      2607 1.22671E-03 4.31963E-04-6.95055E-16
 -1      2608 1.11394E-03 4.14991E-04-5.57795E-16
 -1      2609 1.08590E-03 3.89284E-04-5.63501E-16
 -1      2610 1.28312E-03 4.09138E-04-8.27029E-16
 -1      2611 1.35722E-02-2.45348E-03-8.36401E-14
 -1      2612 1.18113E-02-1.22809E-03-4.80277E-14
 -1      2613 1.14947E-02-1.35707E-03-4.72221E-14
 -1      2614 7.56882E-03-7.51132E-04-3.28754E-14
 -1      2615 6.95634E-03-5.53448E-04-3.17959E-14
 -1      2616 6.92188E-03-5.32172E-04-3.13466E-14
 -1      2617 6.99335E-03-5.42162E-04-3.14816E-14
 -1      2618 7.06497E-03-5.11116E-04-3.18920E-14
 -1      2619 7.76051E-03-2.64256E-04-3.33205E-14
 -1      2620 9.16744E-03 1.68866E-04-3.95752E-14
 -1      2621 9.24661E-03 1.40306E-04-4.01098E-14
 -1      2622 9.06947E-03 1.85830E-04-3.90752E-14
 -1      2623 1.20118E-02-1.17897E-03-4.88220E-14
 -1      2624 1.20021E-02-1.19755E-03-4.92549E-14
 -1      2625 1.20427E-02-1.19564E-03-4.95237E-14
 -1      2626 9.55069E-03-1.91900E-06-4.16748E-14
 -1      2627 9.63000E-03-6.90350E-05-4.23116E-14
 -1      2628 9.44536E-03 4.90762E-05-4.12479E-14
 -1      2629 8.45815E-03 6.50049E-05-3.57714E-14
 -1      2630 7.35523E-03-4.25395E-04-3.23663E-14
 -1      2631 7.18329E-03-6.04609E-04-3.21418E-14
 -1      2632 1.56712E-02-3.49379E-03-8.80832E-14
 -1      2633 1.55056E-02-3.39779E-03-8.67339E-14
 -1      2634 7.80359E-04 7.72204E-05-5.02108E-16
 -1      2635 7.79109E-04 5.53845E-05-5.09507E-16
 -1      2636 7.78270E-04 3.34997E-05-5.15904E-16
 -1      2637 7.77853E-04 1.18630E-05-5.21000E-16
 -1      2638 8.96692E-04 4.95855E-05-6.51050E-16
 -1      2639 7.91628E-04 1.72927E-04-4.55338E-16
 -1      2640 7.87645E-04 1.47535E-04-4.69812E-16
 -1      2641 8.03401E-04 2.28107E-04-4.18963E-16
 -1      2642 7.96848E-04 1.99719E-04-4.38695E-16
 -1      2643 9.14925E-04 2.07538E-04-5.72296E-16
 -1      2644 8.45655E-04 3.25864E-04-3.49465E-16
 -1      2645 8.19515E-04 3.01298E-04-3.52393E-16
 -1      2646 9.59828E-04 3.50072E-04-4.55839E-16
 -1      2647 1.30584E-03-3.60172E-04-1.12479E-15
 -1      2648 1.44909E-03-3.79307E-04-1.36603E-15
 -1      2649 1.59215E-03-3.95474E-04-1.63191E-15
 -1      2650 1.73512E-03-4.08903E-04-1.92225E-15
 -1      2651 1.51074E-03-3.53121E-04-1.51681E-15
 -1      2652 1.87792E-03-4.20060E-04-2.23684E-15
 -1      2653 2.02062E-03-4.29134E-04-2.57597E-15
 -1      2654 1.79746E-03-3.79047E-04-2.09880E-15
 -1      2655 2.16322E-03-4.36496E-04-2.93918E-15
 -1      2656 2.30574E-03-4.42298E-04-3.32675E-15
 -1      2657 2.08398E-03-3.96662E-04-2.77745E-15
 -1      2658 2.44821E-03-4.46825E-04-3.73859E-15
 -1      2659 2.59065E-03-4.50195E-04-4.17384E-15
 -1      2660 2.37023E-03-4.07967E-04-3.55214E-15
 -1      2661 2.73309E-03-4.52620E-04-4.63284E-15
 -1      2662 2.87552E-03-4.54191E-04-5.11456E-15
 -1      2663 2.65627E-03-4.14555E-04-4.42180E-15
 -1      2664 3.01798E-03-4.55060E-04-5.61903E-15
 -1      2665 3.16046E-03-4.55297E-04-6.14583E-15
 -1      2666 2.94215E-03-4.17643E-04-5.38419E-15
 -1      2667 3.30299E-03-4.55006E-04-6.69388E-15
 -1      2668 3.44556E-03-4.54238E-04-7.26308E-15
 -1      2669 3.22795E-03-4.18135E-04-6.43494E-15
 -1      2670 3.58818E-03-4.53061E-04-7.85377E-15
 -1      2671 3.73085E-03-4.51511E-04-8.46552E-15
 -1      2672 3.51368E-03-4.16682E-04-7.57195E-15
 -1      2673 3.87357E-03-4.49630E-04-9.09814E-15
 -1      2674 4.01635E-03-4.47442E-04-9.75142E-15
 -1      2675 3.79934E-03-4.13731E-04-8.79239E-15
 -1      2676 4.15915E-03-4.44970E-04-1.04250E-14
 -1      2677 4.30201E-03-4.42230E-04-1.11201E-14
 -1      2678 4.08490E-03-4.09583E-04-1.00971E-14
 -1      2679 4.44486E-03-4.39237E-04-1.18354E-14
 -1      2680 4.58773E-03-4.35999E-04-1.25702E-14
 -1      2681 4.37023E-03-4.04440E-04-1.14831E-14
 -1      2682 4.73053E-03-4.32538E-04-1.33259E-14
 -1      2683 4.87331E-03-4.28855E-04-1.41004E-14
 -1      2684 4.65510E-03-3.98460E-04-1.29518E-14
 -1      2685 5.01590E-03-4.24998E-04-1.48928E-14
 -1      2686 5.15835E-03-4.20965E-04-1.57050E-14
 -1      2687 4.93914E-03-3.91825E-04-1.44970E-14
 -1      2688 5.30043E-03-4.16861E-04-1.65354E-14
 -1      2689 5.44219E-03-4.12680E-04-1.73828E-14
 -1      2690 5.22166E-03-3.84835E-04-1.61171E-14
 -1      2691 5.58326E-03-4.08640E-04-1.82470E-14
 -1      2692 5.72371E-03-4.04725E-04-1.91273E-14
 -1      2693 5.50161E-03-3.78045E-04-1.78086E-14
 -1      2694 5.86297E-03-4.01359E-04-2.00248E-14
 -1      2695 6.00115E-03-3.98506E-04-2.09382E-14
 -1      2696 5.77731E-03-3.72469E-04-1.95675E-14
 -1      2697 6.13740E-03-3.96925E-04-2.18675E-14
 -1      2698 6.27190E-03-3.96549E-04-2.28106E-14
 -1      2699 6.04621E-03-3.69866E-04-2.13914E-14
 -1      2700 6.40347E-03-3.98650E-04-2.37688E-14
 -1      2701 6.53249E-03-4.03104E-04-2.47428E-14
 -1      2702 6.30469E-03-3.73096E-04-2.32773E-14
 -1      2703 6.65738E-03-4.11866E-04-2.57283E-14
 -1      2704 6.77908E-03-4.24756E-04-2.67273E-14
 -1      2705 6.54789E-03-3.86465E-04-2.52201E-14
 -1      2706 6.89562E-03-4.44404E-04-2.77414E-14
 -1      2707 7.00961E-03-4.70932E-04-2.87687E-14
 -1      2708 6.76983E-03-4.15881E-04-2.72199E-14
 -1      2709 7.14123E-03-5.12661E-04-2.97833E-14
 -1      2710 7.25151E-03-5.60921E-04-3.07818E-14
 -1      2711 1.22921E-02-1.41752E-03-5.40385E-14
 -1      2712 1.24198E-02-1.48451E-03-5.53593E-14
 -1      2713 1.53892E-02-3.32739E-03-8.55437E-14
 -1      2714 1.35783E-02-2.44764E-03-8.29671E-14
 -1      2715 1.34292E-02-2.36802E-03-8.21760E-14
 -1      2716 1.32860E-02-2.28270E-03-8.07182E-14
 -1      2717 1.25490E-02-1.55767E-03-5.66881E-14
 -1      2718 1.26814E-02-1.63640E-03-5.80264E-14
 -1      2719 1.24725E-02-1.49981E-03-5.59812E-14
 -1      2720 1.28157E-02-1.71853E-03-5.93712E-14
 -1      2721 1.29526E-02-1.80380E-03-6.07263E-14
 -1      2722 1.27193E-02-1.65423E-03-5.86529E-14
 -1      2723 1.30908E-02-1.89076E-03-6.20920E-14
 -1      2724 1.32308E-02-1.97931E-03-6.34648E-14
 -1      2725 1.29802E-02-1.82144E-03-6.13637E-14
 -1      2726 1.33716E-02-2.06856E-03-6.48455E-14
 -1      2727 1.35135E-02-2.15845E-03-6.62419E-14
 -1      2728 1.32512E-02-1.99576E-03-6.41098E-14
 -1      2729 1.36558E-02-2.24852E-03-6.76480E-14
 -1      2730 1.37986E-02-2.33872E-03-6.90607E-14
 -1      2731 1.35287E-02-2.17350E-03-6.68944E-14
 -1      2732 1.39417E-02-2.42881E-03-7.04834E-14
 -1      2733 1.40850E-02-2.51877E-03-7.19176E-14
 -1      2734 1.38101E-02-2.35248E-03-6.97256E-14
 -1      2735 1.42284E-02-2.60849E-03-7.33593E-14
 -1      2736 1.43719E-02-2.69797E-03-7.48078E-14
 -1      2737 1.40939E-02-2.53145E-03-7.25883E-14
 -1      2738 1.45153E-02-2.78716E-03-7.62630E-14
 -1      2739 1.46587E-02-2.87605E-03-7.77257E-14
 -1      2740 1.43789E-02-2.70979E-03-7.54819E-14
 -1      2741 1.48021E-02-2.96464E-03-7.91960E-14
 -1      2742 1.49455E-02-3.05292E-03-8.06752E-14
 -1      2743 1.46646E-02-2.88718E-03-7.84058E-14
 -1      2744 1.50887E-02-3.14090E-03-8.21610E-14
 -1      2745 1.52319E-02-3.22857E-03-8.36514E-14
 -1      2746 1.49504E-02-3.06350E-03-8.13578E-14
 -1      2747 1.86956E-03 4.32349E-04-1.89321E-15
 -1      2748 1.72695E-03 4.20903E-04-1.61449E-15
 -1      2749 2.15440E-03 4.49378E-04-2.52116E-15
 -1      2750 2.01204E-03 4.41784E-04-2.19552E-15
 -1      2751 1.93194E-03 4.01218E-04-2.09174E-15
 -1      2752 1.58419E-03 4.07006E-04-1.35905E-15
 -1      2753 1.44121E-03 3.90446E-04-1.12650E-15
 -1      2754 1.64560E-03 3.78963E-04-1.52752E-15
 -1      2755 2.72338E-03 4.66455E-04-4.05406E-15
 -1      2756 2.58116E-03 4.63828E-04-3.63644E-15
 -1      2757 3.00788E-03 4.69371E-04-4.95654E-15
 -1      2758 2.86562E-03 4.68274E-04-4.49410E-15
 -1      2759 2.78926E-03 4.30450E-04-4.33860E-15
 -1      2760 3.29257E-03 4.69884E-04-5.94781E-15
 -1      2761 3.15020E-03 4.69886E-04-5.44119E-15
 -1      2762 3.07477E-03 4.32598E-04-5.26799E-15
 -1      2763 3.57753E-03 4.68691E-04-7.02484E-15
 -1      2764 3.43502E-03 4.69469E-04-6.47534E-15
 -1      2765 3.36030E-03 4.32585E-04-6.28524E-15
 -1      2766 3.86283E-03 4.66327E-04-8.18711E-15
 -1      2767 3.72014E-03 4.67631E-04-7.59578E-15
 -1      2768 3.64592E-03 4.31036E-04-7.38804E-15
 -1      2769 4.14855E-03 4.63217E-04-9.43294E-15
 -1      2770 4.00564E-03 4.64844E-04-8.79949E-15
 -1      2771 3.93170E-03 4.28431E-04-8.57506E-15
 -1      2772 4.43478E-03 4.59741E-04-1.07636E-14
 -1      2773 4.29160E-03 4.61504E-04-1.00877E-14
 -1      2774 4.21774E-03 4.25154E-04-9.84560E-15
 -1      2775 4.72163E-03 4.56282E-04-1.21750E-14
 -1      2776 4.57812E-03 4.57986E-04-1.14589E-14
 -1      2777 4.50416E-03 4.21553E-04-1.11998E-14
 -1      2778 5.00926E-03 4.53274E-04-1.36673E-14
 -1      2779 4.86534E-03 4.54693E-04-1.29116E-14
 -1      2780 4.79113E-03 4.17987E-04-1.26348E-14
 -1      2781 5.29788E-03 4.51238E-04-1.52350E-14
 -1      2782 5.15344E-03 4.52099E-04-1.44416E-14
 -1      2783 5.07889E-03 4.14870E-04-1.41486E-14
 -1      2784 5.58774E-03 4.50799E-04-1.68765E-14
 -1      2785 5.44265E-03 4.50776E-04-1.60464E-14
 -1      2786 5.36775E-03 4.12717E-04-1.57375E-14
 -1      2787 5.87909E-03 4.52665E-04-1.85927E-14
 -1      2788 5.73324E-03 4.51396E-04-1.77258E-14
 -1      2789 5.65811E-03 4.12154E-04-1.73998E-14
 -1      2790 6.17215E-03 4.57545E-04-2.03840E-14
 -1      2791 6.02543E-03 4.54682E-04-1.94792E-14
 -1      2792 5.95041E-03 4.13913E-04-1.91368E-14
 -1      2793 6.46697E-03 4.65964E-04-2.22422E-14
 -1      2794 6.31939E-03 4.61285E-04-2.13053E-14
 -1      2795 6.24507E-03 4.18753E-04-2.09454E-14
 -1      2796 6.76329E-03 4.77952E-04-2.41689E-14
 -1      2797 6.61503E-03 4.71531E-04-2.31970E-14
 -1      2798 6.54231E-03 4.27278E-04-2.28211E-14
 -1      2799 7.06036E-03 4.92559E-04-2.61586E-14
 -1      2800 6.91185E-03 4.85034E-04-2.51563E-14
 -1      2801 6.84198E-03 4.39604E-04-2.47637E-14
 -1      2802 7.35681E-03 5.07257E-04-2.82051E-14
 -1      2803 7.20881E-03 5.00133E-04-2.71745E-14
 -1      2804 7.14325E-03 4.54808E-04-2.67689E-14
 -1      2805 7.65082E-03 5.17389E-04-3.03082E-14
 -1      2806 7.50426E-03 5.13291E-04-2.92504E-14
 -1      2807 7.44447E-03 4.70200E-04-2.88308E-14
 -1      2808 7.94061E-03 5.16019E-04-3.24659E-14
 -1      2809 7.79632E-03 5.18678E-04-3.13802E-14
 -1      2810 7.74337E-03 4.80618E-04-3.09493E-14
 -1      2811 8.22525E-03 4.94670E-04-3.46799E-14
 -1      2812 8.08351E-03 5.08420E-04-3.35655E-14
 -1      2813 8.03772E-03 4.78238E-04-3.31222E-14
 -1      2814 8.50543E-03 4.45206E-04-3.69497E-14
 -1      2815 8.36567E-03 4.73903E-04-3.58086E-14
 -1      2816 8.32645E-03 4.53528E-04-3.53501E-14
 -1      2817 8.78366E-03 3.62332E-04-3.92720E-14
 -1      2818 8.64446E-03 4.08103E-04-3.81035E-14
 -1      2819 8.61068E-03 3.97706E-04-3.76318E-14
 -1      2820 9.06323E-03 2.45558E-04-4.16516E-14
 -1      2821 8.92296E-03 3.07985E-04-4.04558E-14
 -1      2822 8.89358E-03 3.05855E-04-3.99703E-14
 -1      2823 9.34689E-03 9.93855E-05-4.40797E-14
 -1      2824 9.20437E-03 1.75676E-04-4.28603E-14
 -1      2825 9.17897E-03 1.78936E-04-4.23637E-14
 -1      2826 9.63571E-03-6.83803E-05-4.65536E-14
 -1      2827 9.49064E-03 1.76260E-05-4.53101E-14
 -1      2828 9.46947E-03 2.34110E-05-4.48051E-14
 -1      2829 9.92905E-03-2.49172E-04-4.90689E-14
 -1      2830 9.78193E-03-1.57669E-04-4.78068E-14
 -1      2831 9.76545E-03-1.51387E-04-4.72896E-14
 -1      2832 1.02252E-02-4.35685E-04-5.16272E-14
 -1      2833 1.00769E-02-3.42089E-04-5.03429E-14
 -1      2834 1.00654E-02-3.36290E-04-4.98189E-14
 -1      2835 1.05223E-02-6.22848E-04-5.42284E-14
 -1      2836 1.03738E-02-5.29405E-04-5.29237E-14
 -1      2837 1.03668E-02-5.24284E-04-5.23885E-14
 -1      2838 1.08188E-02-8.07795E-04-5.68698E-14
 -1      2839 1.06707E-02-7.15694E-04-5.55437E-14
 -1      2840 1.06678E-02-7.11066E-04-5.50007E-14
 -1      2841 1.11140E-02-9.89357E-04-5.95546E-14
 -1      2842 1.09667E-02-8.99014E-04-5.82066E-14
 -1      2843 1.09667E-02-8.94609E-04-5.76535E-14
 -1      2844 1.14075E-02-1.16745E-03-6.22832E-14
 -1      2845 1.12610E-02-1.07881E-03-6.09116E-14
 -1      2846 1.12632E-02-1.07441E-03-6.03496E-14
 -1      2847 1.16993E-02-1.34256E-03-6.50539E-14
 -1      2848 1.15536E-02-1.25533E-03-6.36650E-14
 -1      2849 1.15571E-02-1.25081E-03-6.30902E-14
 -1      2850 1.19896E-02-1.51540E-03-6.78583E-14
 -1      2851 1.18446E-02-1.42921E-03-6.64527E-14
 -1      2852 1.18488E-02-1.42452E-03-6.58708E-14
 -1      2853 1.22786E-02-1.68671E-03-7.06943E-14
 -1      2854 1.21342E-02-1.60121E-03-6.92733E-14
 -1      2855 1.21387E-02-1.59632E-03-6.86837E-14
 -1      2856 1.25667E-02-1.85715E-03-7.35553E-14
 -1      2857 1.24227E-02-1.77200E-03-7.21224E-14
 -1      2858 1.24273E-02-1.76692E-03-7.15267E-14
 -1      2859 1.28540E-02-2.02723E-03-7.64318E-14
 -1      2860 1.27104E-02-1.94221E-03-7.49909E-14
 -1      2861 1.27149E-02-1.93693E-03-7.43908E-14
 -1      2862 1.31418E-02-2.19745E-03-7.92956E-14
 -1      2863 1.29985E-02-2.11235E-03-7.78440E-14
 -1      2864 1.30028E-02-2.10688E-03-7.72414E-14
 -1      2865 1.32913E-02-2.27707E-03-8.00795E-14
 -1      2866 1.38963E-02-2.60338E-03-8.36445E-14
 -1      2867 1.38117E-02-2.56272E-03-8.35125E-14
 -1      2868 1.42388E-02-2.76708E-03-8.41526E-14
 -1      2869 1.41532E-02-2.72627E-03-8.40297E-14
 -1      2870 1.36643E-02-2.48934E-03-8.31083E-14
 -1      2871 1.40678E-02-2.68551E-03-8.39059E-14
 -1      2872 1.39819E-02-2.64443E-03-8.37756E-14
 -1      2873 1.38163E-02-2.55036E-03-8.24367E-14
 -1      2874 1.39876E-02-2.63215E-03-8.26881E-14
 -1      2875 2.43894E-03 4.60204E-04-3.24140E-15
 -1      2876 2.29670E-03 4.55473E-04-2.86975E-15
 -1      2877 2.21794E-03 4.16044E-04-2.74889E-15
 -1      2878 2.50368E-03 4.25303E-04-3.49791E-15
 -1      2879 1.45785E-02-2.92921E-03-8.46025E-14
 -1      2880 1.44940E-02-2.88880E-03-8.44974E-14
 -1      2881 1.47437E-02-3.00859E-03-8.47927E-14
 -1      2882 1.46612E-02-2.96890E-03-8.46996E-14
 -1      2883 1.44965E-02-2.87436E-03-8.33572E-14
 -1      2884 1.49105E-02-3.08947E-03-8.49710E-14
 -1      2885 1.48272E-02-3.04899E-03-8.48829E-14
 -1      2886 1.46627E-02-2.95412E-03-8.35429E-14
 -1      2887 1.50766E-02-3.17079E-03-8.51369E-14
 -1      2888 1.49936E-02-3.13005E-03-8.50558E-14
 -1      2889 1.48292E-02-3.03474E-03-8.37160E-14
 -1      2890 1.52424E-02-3.25281E-03-8.52910E-14
 -1      2891 1.51595E-02-3.21170E-03-8.52145E-14
 -1      2892 1.49948E-02-3.11591E-03-8.38783E-14
 -1      2893 8.69586E-03 1.70222E-04-3.68606E-14
 -1      2894 8.86517E-03 1.97626E-04-3.78742E-14
 -1      2895 6.99115E-03-5.03493E-04-3.12495E-14
 -1      2896 7.09077E-03-4.81926E-04-3.13993E-14
 -1      2897 1.17717E-02-1.18333E-03-4.98375E-14
 -1      2898 1.18915E-02-1.19694E-03-4.98700E-14
 -1      2899 1.44092E-02-2.84832E-03-8.43864E-14
 -1      2900 1.43241E-02-2.80775E-03-8.42735E-14
 -1      2901 1.43289E-02-2.79447E-03-8.31540E-14
 -1      2902 1.01940E-03-3.11145E-04-7.16102E-16
 -1      2903 1.16264E-03-3.37534E-04-9.08426E-16
 -1      2904 1.22418E-03-3.16516E-04-1.03205E-15
 -1      2905 7.84520E-04 1.23300E-04-4.82090E-16
 -1      2906 7.82150E-04 9.98865E-05-4.93014E-16
 -1      2907 8.99782E-04 9.92848E-05-6.32320E-16
 -1      2908 9.05483E-04 1.51365E-04-6.06516E-16
 -1      2909 1.17455E-02-1.29250E-03-4.88498E-14
 -1      2910 1.18903E-02-1.29578E-03-5.01388E-14
 -1      2911 1.19781E-02-1.20621E-03-4.99491E-14
 -1      2912 1.20360E-02-1.20789E-03-5.00266E-14
 -1      2913 1.19783E-02-1.23582E-03-5.08859E-14
 -1      2914 7.81912E-04-9.78855E-05-5.29782E-16
 -1      2915 7.84210E-04-1.21226E-04-5.27681E-16
 -1      2916 9.80994E-03-1.94894E-04-4.33306E-14
 -1      2917 9.96395E-03-3.02075E-04-4.40464E-14
 -1      2918 1.12583E-02-1.01377E-03-4.81502E-14
 -1      2919 1.14984E-02-1.10299E-03-4.89821E-14
 -1      2920 8.34704E-03 4.71128E-05-3.50492E-14
 -1      2921 8.49741E-03 1.11356E-04-3.57848E-14
 -1      2922 7.23671E-03-4.38136E-04-3.16352E-14
 -1      2923 7.39973E-03-3.81594E-04-3.19542E-14
 -1      2924 8.02394E-03-1.05346E-04-3.37251E-14
 -1      2925 8.16527E-03-3.49723E-05-3.42616E-14
 -1      2926 7.21189E-03-5.68371E-04-3.13046E-14
 -1      2927 7.08728E-03-5.39228E-04-3.10995E-14
 -1      2928 7.62234E-03-2.90840E-04-3.24797E-14
 -1      2929 7.83073E-03-2.00038E-04-3.31064E-14
 -1      2930 6.89864E-03-5.14773E-04-3.10196E-14
 -1      2931 6.92314E-03-5.12879E-04-3.10587E-14
 -1      2932 1.02001E-02-4.58023E-04-4.50132E-14
 -1      2933 1.04470E-02-6.13922E-04-4.59093E-14
 -1      2934 7.91479E-04-2.53157E-04-4.65462E-16
 -1      2935 9.19155E-04-2.88071E-04-5.97585E-16
 -1      2936 9.81345E-04-2.73036E-04-6.97914E-16
 -1      2937 7.83169E-04-2.27745E-04-4.75748E-16
 -1      2938 1.20350E-02-1.31743E-03-5.14277E-14
 -1      2939 1.21654E-02-1.36118E-03-5.27291E-14
 -1      2940 1.22426E-02-1.36699E-03-5.33463E-14
 -1      2941 1.19066E-02-1.22419E-03-4.90109E-14
 -1      2942 1.17719E-02-1.25873E-03-4.84820E-14
 -1      2943 7.39313E-03-6.35347E-04-3.18225E-14
 -1      2944 1.16092E-02-1.31674E-03-4.78663E-14
 -1      2945 1.52506E-02-3.25025E-03-8.47337E-14
 -1      2946 8.95681E-04 9.89219E-07-6.63613E-16
 -1      2947 7.77827E-04-9.72717E-06-5.24849E-16
 -1      2948 7.78191E-04-3.13488E-05-5.27830E-16
 -1      2949 8.07487E-04 2.68093E-04-3.80067E-16
 -1      2950 6.98260E-03-4.70218E-04-2.92490E-14
 -1      2951 1.50855E-02-3.15400E-03-8.34008E-14
 -1      2952 1.20126E-02-1.27446E-03-5.07510E-14
 -1      2953 1.35905E-03 3.46978E-04-1.05599E-15
 -1      2954 1.29810E-03 3.70684E-04-9.17384E-16
 -1      2955 1.35829E-02-2.43593E-03-8.19071E-14
 -1      2956 1.41586E-02-2.71350E-03-8.29281E-14
 -1      2957 1.00918E-02-3.97457E-04-4.48881E-14
 -1      2958 1.05997E-02-7.10423E-04-4.66417E-14
 -1      2959 1.07498E-02-7.97566E-04-4.73797E-14
 -1      2960 1.04716E-02-6.43363E-04-4.65953E-14
 -1      2961 6.92769E-03-4.85988E-04-3.05718E-14
 -1      2962 8.83125E-03 2.08500E-04-3.77256E-14
 -1      2963 8.94713E-03 2.00693E-04-3.84010E-14
 -1      2964 9.02133E-03 1.92466E-04-3.89253E-14
 -1      2965 8.57196E-03 1.59464E-04-3.61262E-14
 -1      2966 6.88836E-03-5.05022E-04-3.07081E-14
 -1      2967 6.85791E-03-4.79892E-04-3.00731E-14
 -1      2968 6.89148E-03-4.92061E-04-3.03964E-14
 -1      2969 9.25318E-04 2.80015E-04-5.07935E-16
 -1      2970 1.19871E-03 3.63122E-04-7.72995E-16
 -1      2971 7.12867E-03-4.41374E-04-3.09937E-14
 -1      2972 7.47692E-03-3.20302E-04-3.17459E-14
 -1      2973 7.53543E-03-2.54612E-04-3.15344E-14
 -1      2974 7.34048E-03-3.35132E-04-3.10183E-14
 -1      2975 1.11367E-02-9.74988E-04-4.82532E-14
 -1      2976 7.86659E-03-1.39417E-04-3.28787E-14
 -1      2977 7.87242E-04-1.45361E-04-5.24239E-16
 -1      2978 7.91087E-04-1.70526E-04-5.18479E-16
 -1      2979 9.05058E-04-1.48914E-04-6.67733E-16
 -1      2980 8.21563E-03 2.66783E-05-3.42732E-14
 -1      2981 9.69782E-03-1.25638E-04-4.28974E-14
 -1      2982 9.23124E-03 1.34747E-04-4.02276E-14
 -1      2983 9.33201E-03 9.78935E-05-4.07368E-14
 -1      2984 9.41233E-03 4.62689E-05-4.13668E-14
 -1      2985 1.20705E-02-1.22360E-03-5.04624E-14
 -1      2986 7.78969E-04-5.31090E-05-5.29633E-16
 -1      2987 7.80183E-04-7.52770E-05-5.30188E-16
 -1      2988 8.99533E-04-9.69901E-05-6.72354E-16
 -1      2989 8.96578E-04-4.74781E-05-6.70565E-16
 -1      2990 1.15295E-02-1.13893E-03-5.00506E-14
 -1      2991 1.16545E-02-1.16571E-03-4.99459E-14
 -1      2992 1.17901E-02-1.21443E-03-5.09136E-14
 -1      2993 1.19899E-02-1.22523E-03-4.97144E-14
 -1      2994 1.01677E-03 6.80626E-05-8.01727E-16
 -1      2995 1.01561E-03 4.11280E-05-8.11065E-16
 -1      2996 1.04036E-03 2.42939E-04-7.02224E-16
 -1      2997 1.03376E-03 2.11214E-04-7.25155E-16
 -1      2998 1.05896E-03 3.64087E-04-5.67309E-16
 -1      2999 6.87706E-03-4.48298E-04-2.88596E-14
 -1      3000 6.97300E-03-4.83896E-04-2.98773E-14
 -1      3001 7.83368E-04-1.86987E-04-5.01308E-16
 -1      3002 7.89430E-04-2.10116E-04-4.95236E-16
 -1      3003 8.87661E-04-2.31809E-04-6.02857E-16
 -1      3004 9.01370E-04-1.94405E-04-6.43501E-16
 -1      3005 1.71748E-03-3.38327E-04-1.96234E-15
 -1      3006 1.86116E-03-3.48481E-04-2.27799E-15
 -1      3007 2.00483E-03-3.56853E-04-2.61752E-15
 -1      3008 2.14849E-03-3.63599E-04-2.98066E-15
 -1      3009 1.92597E-03-3.17239E-04-2.45965E-15
 -1      3010 2.29211E-03-3.68992E-04-3.36799E-15
 -1      3011 2.43567E-03-3.73154E-04-3.77888E-15
 -1      3012 2.21400E-03-3.30015E-04-3.18609E-15
 -1      3013 2.57917E-03-3.76304E-04-4.21303E-15
 -1      3014 2.72261E-03-3.78536E-04-4.67049E-15
 -1      3015 2.50194E-03-3.37940E-04-4.00690E-15
 -1      3016 2.86600E-03-3.80017E-04-5.15111E-15
 -1      3017 3.00931E-03-3.80818E-04-5.65372E-15
 -1      3018 2.78962E-03-3.42223E-04-4.92039E-15
 -1      3019 3.15257E-03-3.81062E-04-6.17839E-15
 -1      3020 3.29576E-03-3.80801E-04-6.72490E-15
 -1      3021 3.07696E-03-3.43800E-04-5.92441E-15
 -1      3022 3.43889E-03-3.80123E-04-7.29207E-15
 -1      3023 3.58194E-03-3.79064E-04-7.88050E-15
 -1      3024 3.36389E-03-3.43376E-04-7.01498E-15
 -1      3025 3.72491E-03-3.77686E-04-8.48999E-15
 -1      3026 3.86779E-03-3.76013E-04-9.12015E-15
 -1      3027 3.65035E-03-3.41464E-04-8.19010E-15
 -1      3028 4.01057E-03-3.74092E-04-9.77091E-15
 -1      3029 4.15322E-03-3.71936E-04-1.04421E-14
 -1      3030 3.93622E-03-3.38438E-04-9.44748E-15
 -1      3031 4.29570E-03-3.69587E-04-1.11342E-14
 -1      3032 4.43801E-03-3.67052E-04-1.18467E-14
 -1      3033 4.22134E-03-3.34583E-04-1.07874E-14
 -1      3034 4.58005E-03-3.64380E-04-1.25796E-14
 -1      3035 4.72181E-03-3.61574E-04-1.33320E-14
 -1      3036 4.50541E-03-3.30151E-04-1.22098E-14
 -1      3037 4.86316E-03-3.58711E-04-1.41037E-14
 -1      3038 5.00405E-03-3.55788E-04-1.48932E-14
 -1      3039 4.78796E-03-3.25431E-04-1.37117E-14
 -1      3040 5.14429E-03-3.52940E-04-1.57018E-14
 -1      3041 5.28381E-03-3.50157E-04-1.65284E-14
 -1      3042 5.06823E-03-3.20837E-04-1.52889E-14
 -1      3043 5.42229E-03-3.47679E-04-1.73733E-14
 -1      3044 5.55964E-03-3.45476E-04-1.82338E-14
 -1      3045 5.34507E-03-3.17026E-04-1.69385E-14
 -1      3046 5.69540E-03-3.43963E-04-1.91121E-14
 -1      3047 5.82939E-03-3.43073E-04-2.00073E-14
 -1      3048 5.61675E-03-3.15056E-04-1.86589E-14
 -1      3049 5.96097E-03-3.43492E-04-2.09174E-14
 -1      3050 6.08987E-03-3.45062E-04-2.18445E-14
 -1      3051 5.88071E-03-3.16589E-04-2.04451E-14
 -1      3052 6.21518E-03-3.48880E-04-2.27859E-14
 -1      3053 6.33656E-03-3.54587E-04-2.37421E-14
 -1      3054 6.13326E-03-3.24092E-04-2.22951E-14
 -1      3055 6.45274E-03-3.63873E-04-2.47134E-14
 -1      3056 6.56339E-03-3.75944E-04-2.56985E-14
 -1      3057 6.36917E-03-3.40954E-04-2.42067E-14
 -1      3058 6.66664E-03-3.93401E-04-2.66987E-14
 -1      3059 6.76247E-03-4.14448E-04-2.77122E-14
 -1      3060 6.58143E-03-3.71224E-04-2.61776E-14
 -1      3061 1.42157E-03 3.22336E-04-1.20036E-15
 -1      3062 1.27831E-03 3.04561E-04-9.83954E-16
 -1      3063 1.23976E-02-1.44705E-03-5.52727E-14
 -1      3064 1.25076E-02-1.51860E-03-5.65988E-14
 -1      3065 1.26228E-02-1.59357E-03-5.79338E-14
 -1      3066 1.27437E-02-1.67279E-03-5.92778E-14
 -1      3067 1.25274E-02-1.53873E-03-5.72145E-14
 -1      3068 1.28685E-02-1.75424E-03-6.06341E-14
 -1      3069 1.29972E-02-1.83833E-03-6.19982E-14
 -1      3070 1.27584E-02-1.69167E-03-5.99044E-14
 -1      3071 1.31287E-02-1.92374E-03-6.33689E-14
 -1      3072 1.32627E-02-2.01063E-03-6.47493E-14
 -1      3073 1.30079E-02-1.85524E-03-6.26300E-14
 -1      3074 1.33986E-02-2.09818E-03-6.61436E-14
 -1      3075 1.35362E-02-2.18647E-03-6.75484E-14
 -1      3076 1.32702E-02-2.02543E-03-6.53933E-14
 -1      3077 1.36749E-02-2.27501E-03-6.89610E-14
 -1      3078 1.38146E-02-2.36383E-03-7.03824E-14
 -1      3079 1.35410E-02-2.19938E-03-6.81982E-14
 -1      3080 1.39551E-02-2.45267E-03-7.18131E-14
 -1      3081 1.40962E-02-2.54152E-03-7.32523E-14
 -1      3082 1.38174E-02-2.37517E-03-7.10408E-14
 -1      3083 1.42377E-02-2.63025E-03-7.46998E-14
 -1      3084 1.43797E-02-2.71885E-03-7.61516E-14
 -1      3085 1.40975E-02-2.55160E-03-7.39147E-14
 -1      3086 1.45218E-02-2.80726E-03-7.76116E-14
 -1      3087 1.46642E-02-2.89547E-03-7.90791E-14
 -1      3088 1.43798E-02-2.72793E-03-7.68185E-14
 -1      3089 1.48034E-02-2.98107E-03-8.04897E-14
 -1      3090 1.49461E-02-3.06883E-03-8.19710E-14
 -1      3091 1.49383E-02-3.07184E-03-8.25231E-14
 -1      3092 1.46602E-02-2.90139E-03-7.96882E-14
 -1      3093 1.35869E-02-2.42410E-03-8.08747E-14
 -1      3094 1.34390E-02-2.35075E-03-8.04784E-14
 -1      3095 1.32951E-02-2.26571E-03-7.90555E-14
 -1      3096 1.99560E-03 3.69437E-04-2.29507E-15
 -1      3097 1.85205E-03 3.60748E-04-1.98652E-15
 -1      3098 1.70851E-03 3.50150E-04-1.70148E-15
 -1      3099 1.56497E-03 3.37462E-04-1.43933E-15
 -1      3100 1.48530E-03 2.96673E-04-1.35017E-15
 -1      3101 1.77262E-03 3.20575E-04-1.88045E-15
 -1      3102 3.14213E-03 3.95553E-04-5.58307E-15
 -1      3103 2.99898E-03 3.95111E-04-5.09388E-15
 -1      3104 2.85579E-03 3.94088E-04-4.62632E-15
 -1      3105 2.71256E-03 3.92420E-04-4.18144E-15
 -1      3106 2.92292E-03 3.57451E-04-4.91855E-15
 -1      3107 3.71446E-03 3.93247E-04-7.75423E-15
 -1      3108 3.57140E-03 3.94315E-04-7.17934E-15
 -1      3109 4.00060E-03 3.90448E-04-8.96554E-15
 -1      3110 3.85752E-03 3.91948E-04-8.34979E-15
 -1      3111 3.78316E-03 3.55378E-04-8.12288E-15
 -1      3112 4.28685E-03 3.87032E-04-1.02611E-14
 -1      3113 4.14370E-03 3.88801E-04-9.60300E-15
 -1      3114 4.06953E-03 3.52423E-04-9.35951E-15
 -1      3115 4.57338E-03 3.83307E-04-1.16382E-14
 -1      3116 4.43007E-03 3.85191E-04-1.09393E-14
 -1      3117 4.35589E-03 3.48882E-04-1.06782E-14
 -1      3118 4.86041E-03 3.79597E-04-1.30965E-14
 -1      3119 4.71682E-03 3.81428E-04-1.23571E-14
 -1      3120 4.64243E-03 3.45016E-04-1.20792E-14
 -1      3121 5.14826E-03 3.76293E-04-1.46318E-14
 -1      3122 5.00421E-03 3.77866E-04-1.38547E-14
 -1      3123 4.92945E-03 3.41109E-04-1.35598E-14
 -1      3124 5.43738E-03 3.73889E-04-1.62416E-14
 -1      3125 5.29264E-03 3.74939E-04-1.54278E-14
 -1      3126 5.21736E-03 3.37513E-04-1.51169E-14
 -1      3127 5.72832E-03 3.73014E-04-1.79257E-14
 -1      3128 5.58259E-03 3.73208E-04-1.70742E-14
 -1      3129 5.50673E-03 3.34697E-04-1.67483E-14
 -1      3130 6.02173E-03 3.74431E-04-1.96816E-14
 -1      3131 5.87469E-03 3.73372E-04-1.87943E-14
 -1      3132 5.79832E-03 3.33292E-04-1.84522E-14
 -1      3133 6.31825E-03 3.78980E-04-2.15081E-14
 -1      3134 6.16959E-03 3.76245E-04-2.05871E-14
 -1      3135 6.09300E-03 3.34112E-04-2.02278E-14
 -1      3136 6.61831E-03 3.87405E-04-2.34002E-14
 -1      3137 6.46787E-03 3.82654E-04-2.24455E-14
 -1      3138 6.39165E-03 3.38124E-04-2.20713E-14
 -1      3139 6.92184E-03 3.99997E-04-2.53593E-14
 -1      3140 6.76973E-03 3.93179E-04-2.43718E-14
 -1      3141 6.69491E-03 3.46294E-04-2.39811E-14
 -1      3142 7.22791E-03 4.15950E-04-2.73796E-14
 -1      3143 7.07472E-03 4.07669E-04-2.63624E-14
 -1      3144 7.00281E-03 3.59197E-04-2.59557E-14
 -1      3145 7.53447E-03 4.32447E-04-2.94579E-14
 -1      3146 7.38135E-03 4.24436E-04-2.84109E-14
 -1      3147 7.31420E-03 3.76242E-04-2.79926E-14
 -1      3148 7.83865E-03 4.43722E-04-3.15905E-14
 -1      3149 7.68708E-03 4.39285E-04-3.05179E-14
 -1      3150 7.62653E-03 3.94467E-04-3.00853E-14
 -1      3151 8.13767E-03 4.40761E-04-3.37774E-14
 -1      3152 7.98891E-03 4.44758E-04-3.26771E-14
 -1      3153 7.93617E-03 4.07251E-04-3.22327E-14
 -1      3154 8.43028E-03 4.12659E-04-3.60206E-14
 -1      3155 8.28463E-03 4.30641E-04-3.48913E-14
 -1      3156 8.23969E-03 4.04044E-04-3.44347E-14
 -1      3157 8.71834E-03 3.49714E-04-3.83161E-14
 -1      3158 8.57452E-03 3.85991E-04-3.71622E-14
 -1      3159 8.53603E-03 3.71878E-04-3.66888E-14
 -1      3160 9.00591E-03 2.47675E-04-4.06696E-14
 -1      3161 8.86172E-03 3.03558E-04-3.94859E-14
 -1      3162 8.82797E-03 3.00471E-04-3.90021E-14
 -1      3163 9.29744E-03 1.09467E-04-4.30757E-14
 -1      3164 9.15085E-03 1.82542E-04-4.18662E-14
 -1      3165 9.12080E-03 1.86580E-04-4.13688E-14
 -1      3166 9.59520E-03-5.59053E-05-4.55292E-14
 -1      3167 9.44547E-03 2.94209E-05-4.42961E-14
 -1      3168 9.41930E-03 3.61132E-05-4.37872E-14
 -1      3169 9.89856E-03-2.37533E-04-4.80274E-14
 -1      3170 9.74633E-03-1.45424E-04-4.67733E-14
 -1      3171 9.72501E-03-1.39187E-04-4.62538E-14
 -1      3172 1.02049E-02-4.25822E-04-5.05676E-14
 -1      3173 1.00516E-02-3.31350E-04-4.92923E-14
 -1      3174 1.00359E-02-3.26858E-04-4.87646E-14
 -1      3175 1.05113E-02-6.14419E-04-5.31480E-14
 -1      3176 1.03583E-02-5.20351E-04-5.18519E-14
 -1      3177 1.03483E-02-5.17418E-04-5.13158E-14
 -1      3178 1.08154E-02-8.00049E-04-5.57725E-14
 -1      3179 1.06638E-02-7.07697E-04-5.44555E-14
 -1      3180 1.06588E-02-7.05568E-04-5.39086E-14
 -1      3181 1.11161E-02-9.81634E-04-5.84371E-14
 -1      3182 1.09663E-02-8.91337E-04-5.70988E-14
 -1      3183 1.09653E-02-8.89273E-04-5.65438E-14
 -1      3184 1.14133E-02-1.15934E-03-6.11462E-14
 -1      3185 1.12652E-02-1.07092E-03-5.97871E-14
 -1      3186 1.12671E-02-1.06843E-03-5.92214E-14
 -1      3187 1.17073E-02-1.33389E-03-6.38979E-14
 -1      3188 1.15607E-02-1.24694E-03-6.25158E-14
 -1      3189 1.15643E-02-1.24383E-03-6.19443E-14
 -1      3190 1.19986E-02-1.50615E-03-6.66871E-14
 -1      3191 1.18532E-02-1.42024E-03-6.52889E-14
 -1      3192 1.18579E-02-1.41647E-03-6.47059E-14
 -1      3193 1.22880E-02-1.67691E-03-6.95086E-14
 -1      3194 1.21435E-02-1.59167E-03-6.80951E-14
 -1      3195 1.21486E-02-1.58732E-03-6.75048E-14
 -1      3196 1.25760E-02-1.84686E-03-7.23571E-14
 -1      3197 1.24321E-02-1.76195E-03-7.09279E-14
 -1      3198 1.24373E-02-1.75714E-03-7.03319E-14
 -1      3199 1.28631E-02-2.01650E-03-7.52266E-14
 -1      3200 1.27196E-02-1.93169E-03-7.37908E-14
 -1      3201 1.27247E-02-1.92651E-03-7.31871E-14
 -1      3202 1.14435E-03-2.74447E-04-9.40383E-16
 -1      3203 1.28720E-03-2.94397E-04-1.15969E-15
 -1      3204 1.40785E-02-2.65995E-03-8.17074E-14
 -1      3205 1.39929E-02-2.61941E-03-8.15904E-14
 -1      3206 1.47478E-02-2.97979E-03-8.24646E-14
 -1      3207 1.46650E-02-2.93957E-03-8.23801E-14
 -1      3208 1.44153E-02-2.81975E-03-8.21160E-14
 -1      3209 1.43325E-02-2.78037E-03-8.20220E-14
 -1      3210 1.48558E-02-3.03113E-03-8.24482E-14
 -1      3211 7.00924E-03-5.13508E-04-3.06537E-14
 -1      3212 7.69852E-03-1.52715E-04-3.18471E-14
 -1      3213 7.86298E-03-7.31328E-05-3.24537E-14
 -1      3214 8.07758E-03 1.48718E-05-3.34221E-14
 -1      3215 8.23672E-03 8.35121E-05-3.42002E-14
 -1      3216 8.44667E-03 1.50072E-04-3.53584E-14
 -1      3217 8.62409E-03 1.95371E-04-3.64279E-14
 -1      3218 1.07412E-03 3.29104E-04-6.41482E-16
 -1      3219 9.98505E-03-3.35443E-04-4.47644E-14
 -1      3220 1.01997E-02-4.78585E-04-4.57394E-14
 -1      3221 1.21990E-02-1.32242E-03-5.26513E-14
 -1      3222 1.22961E-02-1.38247E-03-5.39580E-14
 -1      3223 1.23248E-02-1.40215E-03-5.45663E-14
 -1      3224 7.02023E-03-4.34226E-04-3.02359E-14
 -1      3225 7.14245E-03-3.97705E-04-3.04652E-14
 -1      3226 1.19844E-02-1.26688E-03-5.17984E-14
 -1      3227 1.20601E-02-1.27419E-03-5.18804E-14
 -1      3228 1.21451E-02-1.28856E-03-5.21094E-14
 -1      3229 1.21373E-02-1.27002E-03-5.16010E-14
 -1      3230 1.42483E-02-2.74041E-03-8.19220E-14
 -1      3231 1.41634E-02-2.70016E-03-8.18162E-14
 -1      3232 1.39982E-02-2.60624E-03-8.04849E-14
 -1      3233 1.41676E-02-2.68611E-03-8.06915E-14
 -1      3234 1.09941E-02-9.25888E-04-4.84401E-14
 -1      3235 1.12164E-02-1.02569E-03-4.92746E-14
 -1      3236 9.56468E-03-4.87315E-05-4.23578E-14
 -1      3237 9.73090E-03-1.62147E-04-4.33777E-14
 -1      3238 3.42833E-03 3.95088E-04-6.62606E-15
 -1      3239 3.28524E-03 3.95529E-04-6.09395E-15
 -1      3240 3.20992E-03 3.58310E-04-5.90146E-15
 -1      3241 3.49665E-03 3.57460E-04-6.97005E-15
 -1      3242 6.87212E-03-4.60976E-04-2.98634E-14
 -1      3243 6.93478E-03-4.53786E-04-3.00500E-14
 -1      3244 6.93823E-03-4.16076E-04-2.95303E-14
 -1      3245 1.45822E-02-2.89964E-03-8.22978E-14
 -1      3246 1.44988E-02-2.85960E-03-8.22090E-14
 -1      3247 1.43353E-02-2.76551E-03-8.08816E-14
 -1      3248 1.45014E-02-2.84479E-03-8.10554E-14
 -1      3249 1.43039E-03-3.11540E-04-1.40317E-15
 -1      3250 1.57388E-03-3.26077E-04-1.67097E-15
 -1      3251 1.63820E-03-2.98138E-04-1.82795E-15
 -1      3252 1.35132E-03-2.71028E-04-1.29175E-15
 -1      3253 1.06772E-03 2.82295E-04-6.94906E-16
 -1      3254 1.15319E-03 2.11408E-04-8.96730E-16
 -1      3255 1.02845E-03 1.80868E-04-7.44752E-16
 -1      3256 1.02430E-03 1.51569E-04-7.62153E-16
 -1      3257 1.02312E-02-5.01785E-04-4.63477E-14
 -1      3258 1.03418E-02-5.70429E-04-4.64726E-14
 -1      3259 1.04847E-02-6.58407E-04-4.72103E-14
 -1      3260 6.78208E-03-4.25609E-04-2.83250E-14
 -1      3261 1.02102E-03 1.23067E-04-7.77359E-16
 -1      3262 1.01856E-03 9.53367E-05-7.90451E-16
 -1      3263 1.13834E-03 8.84157E-05-9.66986E-16
 -1      3264 1.14392E-03 1.48457E-04-9.36425E-16
 -1      3265 1.18133E-02-1.24764E-03-5.20184E-14
 -1      3266 1.19045E-02-1.25998E-03-5.19092E-14
 -1      3267 1.20104E-02-1.30322E-03-5.29110E-14
 -1      3268 1.01502E-03 1.44011E-05-8.18491E-16
 -1      3269 1.01499E-03-1.22266E-05-8.24319E-16
 -1      3270 1.13570E-03 3.00776E-05-9.88765E-16
 -1      3271 1.25062E-03 2.63084E-04-9.92181E-16
 -1      3272 1.18659E-03 2.84448E-04-8.66291E-16
 -1      3273 6.83469E-03-4.55936E-04-2.95580E-14
 -1      3274 6.81834E-03-4.28180E-04-2.90442E-14
 -1      3275 6.81111E-03-4.47267E-04-2.92526E-14
 -1      3276 1.37587E-02-2.50625E-03-8.11313E-14
 -1      3277 1.36728E-02-2.46526E-03-8.10059E-14
 -1      3278 1.35293E-02-2.38032E-03-7.95785E-14
 -1      3279 6.91436E-03-4.88974E-04-3.02551E-14
 -1      3280 2.13910E-03 3.76529E-04-2.62651E-15
 -1      3281 2.06036E-03 3.37067E-04-2.50285E-15
 -1      3282 2.28255E-03 3.82165E-04-2.98074E-15
 -1      3283 2.63564E-03 3.54240E-04-4.02303E-15
 -1      3284 2.56928E-03 3.89954E-04-3.75875E-15
 -1      3285 2.42594E-03 3.86602E-04-3.35799E-15
 -1      3286 1.31513E-02-2.18355E-03-7.78457E-14
 -1      3287 1.30072E-02-2.09865E-03-7.64303E-14
 -1      3288 1.30121E-02-2.09318E-03-7.58245E-14
 -1      3289 1.32996E-02-2.25712E-03-7.82384E-14
 -1      3290 1.39187E-02-2.58329E-03-8.14215E-14
 -1      3291 1.38331E-02-2.54261E-03-8.13043E-14
 -1      3292 1.36900E-02-2.45770E-03-7.98745E-14
 -1      3293 1.38388E-02-2.53005E-03-8.02094E-14
 -1      3294 1.21766E-02-1.32518E-03-5.30320E-14
 -1      3295 8.70356E-03 2.11815E-04-3.69416E-14
 -1      3296 8.77683E-03 2.20300E-04-3.74595E-14
 -1      3297 8.57730E-03 2.12802E-04-3.61640E-14
 -1      3298 1.12780E-02-1.06431E-03-5.04298E-14
 -1      3299 1.13996E-02-1.10534E-03-5.02411E-14
 -1      3300 1.15672E-02-1.17083E-03-5.12141E-14
 -1      3301 1.46917E-02-2.93541E-03-8.11210E-14
 -1      3302 7.89795E-03-4.80065E-06-3.23811E-14
 -1      3303 6.85934E-03-4.65287E-04-2.96239E-14
 -1      3304 1.20852E-02-1.25895E-03-5.09969E-14
 -1      3305 8.30236E-03 1.39162E-04-3.44937E-14
 -1      3306 7.20075E-03-3.47518E-04-3.02606E-14
 -1      3307 7.25025E-03-2.91177E-04-3.00520E-14
 -1      3308 7.07269E-03-3.47747E-04-2.95093E-14
 -1      3309 1.08591E-02-8.63403E-04-4.83929E-14
 -1      3310 1.02388E-03-1.48923E-04-8.29076E-16
 -1      3311 1.02791E-03-1.78139E-04-8.24170E-16
 -1      3312 7.55270E-03-1.80810E-04-3.11191E-14
 -1      3313 9.10403E-03 1.72843E-04-3.95441E-14
 -1      3314 9.18128E-03 1.42283E-04-4.01648E-14
 -1      3315 8.98567E-03 1.99545E-04-3.88623E-14
 -1      3316 9.84267E-03-2.43848E-04-4.42186E-14
 -1      3317 9.95401E-03-3.21361E-04-4.50652E-14
 -1      3318 9.71454E-03-1.60600E-04-4.36725E-14
 -1      3319 9.45652E-03 1.09811E-05-4.18410E-14
 -1      3320 1.01832E-03-9.28631E-05-8.32261E-16
 -1      3321 1.02070E-03-1.20541E-04-8.31705E-16
 -1      3322 1.14352E-03-1.45671E-04-1.00775E-15
 -1      3323 9.86643E-04-2.52147E-04-7.22268E-16
 -1      3324 1.05081E-03-2.35360E-04-8.26406E-16
 -1      3325 1.05765E-03-2.14685E-04-8.49350E-16
 -1      3326 1.84767E-03-2.78080E-04-2.30411E-15
 -1      3327 1.99187E-03-2.85310E-04-2.64380E-15
 -1      3328 1.33455E-03 2.45699E-04-1.14921E-15
 -1      3329 1.24362E-03 2.28704E-04-1.01912E-15
 -1      3330 1.23795E-03 1.95267E-04-1.04268E-15
 -1      3331 2.13615E-03-2.91207E-04-3.00697E-15
 -1      3332 2.28047E-03-2.95895E-04-3.39349E-15
 -1      3333 2.05870E-03-2.52712E-04-2.83049E-15
 -1      3334 2.42476E-03-2.99570E-04-3.80371E-15
 -1      3335 2.56902E-03-3.02325E-04-4.23679E-15
 -1      3336 2.34778E-03-2.61294E-04-3.60287E-15
 -1      3337 2.71320E-03-3.04320E-04-4.69289E-15
 -1      3338 2.85728E-03-3.05629E-04-5.17169E-15
 -1      3339 2.63683E-03-2.66375E-04-4.46819E-15
 -1      3340 3.00125E-03-3.06376E-04-5.67227E-15
 -1      3341 3.14509E-03-3.06615E-04-6.19512E-15
 -1      3342 2.92553E-03-2.68826E-04-5.42322E-15
 -1      3343 3.28880E-03-3.06444E-04-6.73973E-15
 -1      3344 3.43235E-03-3.05897E-04-7.30502E-15
 -1      3345 3.21368E-03-2.69336E-04-6.46648E-15
 -1      3346 3.57573E-03-3.05052E-04-7.89130E-15
 -1      3347 3.71893E-03-3.03932E-04-8.49921E-15
 -1      3348 3.50112E-03-2.68437E-04-7.59557E-15
 -1      3349 3.86192E-03-3.02599E-04-9.12708E-15
 -1      3350 4.00468E-03-3.01068E-04-9.77498E-15
 -1      3351 3.78770E-03-2.66537E-04-8.80804E-15
 -1      3352 4.14717E-03-2.99399E-04-1.04434E-14
 -1      3353 4.28936E-03-2.97599E-04-1.11331E-14
 -1      3354 4.07320E-03-2.63968E-04-1.01020E-14
 -1      3355 4.43118E-03-2.95740E-04-1.18428E-14
 -1      3356 4.57259E-03-2.93825E-04-1.25725E-14
 -1      3357 4.35734E-03-2.61045E-04-1.14780E-14
 -1      3358 4.71349E-03-2.91952E-04-1.33217E-14
 -1      3359 4.85380E-03-2.90125E-04-1.40906E-14
 -1      3360 4.63967E-03-2.58125E-04-1.29343E-14
 -1      3361 4.99337E-03-2.88492E-04-1.48779E-14
 -1      3362 5.13209E-03-2.87056E-04-1.56826E-14
 -1      3363 4.91953E-03-2.55690E-04-1.44685E-14
 -1      3364 5.26974E-03-2.86051E-04-1.65059E-14
 -1      3365 5.40615E-03-2.85477E-04-1.73473E-14
 -1      3366 5.19594E-03-2.54452E-04-1.60757E-14
 -1      3367 5.54101E-03-2.85706E-04-1.82055E-14
 -1      3368 5.67404E-03-2.86714E-04-1.90814E-14
 -1      3369 5.46749E-03-2.55478E-04-1.77547E-14
 -1      3370 5.80484E-03-2.89084E-04-1.99737E-14
 -1      3371 5.93299E-03-2.92734E-04-2.08818E-14
 -1      3372 5.73218E-03-2.60350E-04-1.95037E-14
 -1      3373 6.05797E-03-2.98555E-04-2.18060E-14
 -1      3374 6.17910E-03-3.06300E-04-2.27460E-14
 -1      3375 5.98726E-03-2.71313E-04-2.13183E-14
 -1      3376 6.29578E-03-3.17297E-04-2.37011E-14
 -1      3377 6.40686E-03-3.30935E-04-2.46710E-14
 -1      3378 6.22894E-03-2.91372E-04-2.31959E-14
 -1      3379 6.51184E-03-3.49136E-04-2.56549E-14
 -1      3380 6.60849E-03-3.70278E-04-2.66538E-14
 -1      3381 6.45206E-03-3.24176E-04-2.51336E-14
 -1      3382 1.26464E-02-1.63320E-03-5.91717E-14
 -1      3383 1.27642E-02-1.71063E-03-6.05272E-14
 -1      3384 1.28866E-02-1.79007E-03-6.18887E-14
 -1      3385 1.30128E-02-1.87199E-03-6.32587E-14
 -1      3386 1.27636E-02-1.72807E-03-6.11484E-14
 -1      3387 1.31420E-02-1.95527E-03-6.46413E-14
 -1      3388 1.32738E-02-2.04008E-03-6.60357E-14
 -1      3389 1.30133E-02-1.88763E-03-6.38918E-14
 -1      3390 1.34077E-02-2.12570E-03-6.74367E-14
 -1      3391 1.35434E-02-2.21220E-03-6.88476E-14
 -1      3392 1.32745E-02-2.05396E-03-6.66756E-14
 -1      3393 1.36804E-02-2.29911E-03-7.02677E-14
 -1      3394 1.38187E-02-2.38645E-03-7.16959E-14
 -1      3395 1.35438E-02-2.22448E-03-6.94968E-14
 -1      3396 1.39578E-02-2.47397E-03-7.31326E-14
 -1      3397 1.40977E-02-2.56164E-03-7.45753E-14
 -1      3398 1.38185E-02-2.39739E-03-7.23520E-14
 -1      3399 1.42382E-02-2.64932E-03-7.60285E-14
 -1      3400 1.43792E-02-2.73700E-03-7.74852E-14
 -1      3401 1.40971E-02-2.57147E-03-7.52365E-14
 -1      3402 1.44662E-02-2.79385E-03-7.85939E-14
 -1      3403 1.46046E-02-2.87889E-03-8.00019E-14
 -1      3404 1.44971E-02-2.82830E-03-8.00174E-14
 -1      3405 1.43239E-02-2.71539E-03-7.77953E-14
 -1      3406 2.99065E-03 3.20547E-04-5.21366E-15
 -1      3407 2.84675E-03 3.19660E-04-4.74131E-15
 -1      3408 4.13850E-03 3.14376E-04-9.75514E-15
 -1      3409 3.99529E-03 3.16004E-04-9.11428E-15
 -1      3410 3.85202E-03 3.17453E-04-8.49456E-15
 -1      3411 3.70868E-03 3.18709E-04-7.89508E-15
 -1      3412 3.92104E-03 2.79523E-04-8.86894E-15
 -1      3413 4.71132E-03 3.06687E-04-1.25228E-14
 -1      3414 4.56806E-03 3.08737E-04-1.18006E-14
 -1      3415 4.99824E-03 3.02512E-04-1.40263E-14
 -1      3416 4.85470E-03 3.04600E-04-1.32648E-14
 -1      3417 4.78002E-03 2.68334E-04-1.29689E-14
 -1      3418 5.28613E-03 2.98497E-04-1.56046E-14
 -1      3419 5.14202E-03 3.00457E-04-1.48062E-14
 -1      3420 5.06673E-03 2.63800E-04-1.44943E-14
 -1      3421 5.57571E-03 2.95078E-04-1.72568E-14
 -1      3422 5.43066E-03 2.96669E-04-1.64211E-14
 -1      3423 5.35451E-03 2.59214E-04-1.60937E-14
 -1      3424 5.86793E-03 2.92886E-04-1.89807E-14
 -1      3425 5.72143E-03 2.93763E-04-1.81102E-14
 -1      3426 5.64422E-03 2.54969E-04-1.77670E-14
 -1      3427 6.16391E-03 2.92803E-04-2.07751E-14
 -1      3428 6.01539E-03 2.92491E-04-1.98690E-14
 -1      3429 5.93702E-03 2.51700E-04-1.95107E-14
 -1      3430 6.46483E-03 2.95974E-04-2.26351E-14
 -1      3431 6.31372E-03 2.93871E-04-2.16971E-14
 -1      3432 6.23434E-03 2.50388E-04-2.13230E-14
 -1      3433 6.77160E-03 3.03676E-04-2.45629E-14
 -1      3434 6.61750E-03 2.99146E-04-2.35906E-14
 -1      3435 6.53766E-03 2.52422E-04-2.32011E-14
 -1      3436 7.08432E-03 3.16915E-04-2.65538E-14
 -1      3437 6.92733E-03 3.09552E-04-2.55505E-14
 -1      3438 6.84821E-03 2.59533E-04-2.51455E-14
 -1      3439 7.40166E-03 3.35458E-04-2.86059E-14
 -1      3440 7.24265E-03 3.25644E-04-2.75726E-14
 -1      3441 7.16621E-03 2.73333E-04-2.71529E-14
 -1      3442 7.72041E-03 3.56186E-04-3.07128E-14
 -1      3443 7.56121E-03 3.45957E-04-2.96521E-14
 -1      3444 7.49007E-03 2.94060E-04-2.92200E-14
 -1      3445 8.03602E-03 3.71393E-04-3.28765E-14
 -1      3446 7.87898E-03 3.65271E-04-3.17888E-14
 -1      3447 7.81577E-03 3.18393E-04-3.13435E-14
 -1      3448 8.34412E-03 3.68559E-04-3.50900E-14
 -1      3449 8.19109E-03 3.73415E-04-3.39763E-14
 -1      3450 8.13740E-03 3.37064E-04-3.35193E-14
 -1      3451 8.64407E-03 3.31735E-04-3.73611E-14
 -1      3452 8.49472E-03 3.55300E-04-3.62185E-14
 -1      3453 8.45008E-03 3.34696E-04-3.57476E-14
 -1      3454 8.93998E-03 2.50245E-04-3.96867E-14
 -1      3455 8.79188E-03 2.97005E-04-3.85170E-14
 -1      3456 8.75365E-03 2.91597E-04-3.80315E-14
 -1      3457 9.23881E-03 1.22437E-04-4.20675E-14
 -1      3458 9.08848E-03 1.91594E-04-4.08705E-14
 -1      3459 9.05459E-03 1.97189E-04-4.03722E-14
 -1      3460 9.54510E-03-4.15691E-05-4.44993E-14
 -1      3461 9.39071E-03 4.39315E-05-4.32779E-14
 -1      3462 9.36068E-03 5.35286E-05-4.27671E-14
 -1      3463 9.85950E-03-2.26749E-04-4.69798E-14
 -1      3464 9.70154E-03-1.32588E-04-4.57332E-14
 -1      3465 9.67639E-03-1.24733E-04-4.52122E-14
 -1      3466 1.01780E-02-4.19507E-04-4.94998E-14
 -1      3467 1.00186E-02-3.22964E-04-4.82340E-14
 -1      3468 1.00000E-02-3.18901E-04-4.77030E-14
 -1      3469 1.04959E-02-6.11006E-04-5.20645E-14
 -1      3470 1.03374E-02-5.15753E-04-5.07784E-14
 -1      3471 1.03257E-02-5.14983E-04-5.02363E-14
 -1      3472 1.08096E-02-7.97549E-04-5.46697E-14
 -1      3473 1.06535E-02-7.04965E-04-5.33606E-14
 -1      3474 1.06480E-02-7.05801E-04-5.28133E-14
 -1      3475 1.11175E-02-9.78534E-04-5.73155E-14
 -1      3476 1.09644E-02-8.88668E-04-5.59870E-14
 -1      3477 1.09637E-02-8.89585E-04-5.54285E-14
 -1      3478 1.14194E-02-1.15483E-03-6.00087E-14
 -1      3479 1.12692E-02-1.06716E-03-5.86567E-14
 -1      3480 1.12718E-02-1.06720E-03-5.80903E-14
 -1      3481 1.17162E-02-1.32774E-03-6.27422E-14
 -1      3482 1.15684E-02-1.24160E-03-6.13695E-14
 -1      3483 1.15730E-02-1.24039E-03-6.07942E-14
 -1      3484 1.20089E-02-1.49848E-03-6.55150E-14
 -1      3485 1.18630E-02-1.41330E-03-6.41245E-14
 -1      3486 1.18686E-02-1.41081E-03-6.35416E-14
 -1      3487 1.22987E-02-1.66799E-03-6.83207E-14
 -1      3488 1.21541E-02-1.58333E-03-6.69147E-14
 -1      3489 1.21600E-02-1.57975E-03-6.63231E-14
 -1      3490 1.25865E-02-1.83696E-03-7.11546E-14
 -1      3491 1.24428E-02-1.75250E-03-6.97356E-14
 -1      3492 1.24487E-02-1.74808E-03-6.91358E-14
 -1      3493 1.28732E-02-2.00585E-03-7.40173E-14
 -1      3494 1.27300E-02-1.92139E-03-7.25818E-14
 -1      3495 1.27356E-02-1.91635E-03-7.19774E-14
 -1      3496 1.17716E-03-2.14307E-04-1.03314E-15
 -1      3497 6.84836E-03-3.95798E-04-2.87482E-14
 -1      3498 6.92098E-03-3.77658E-04-2.89285E-14
 -1      3499 1.21562E-02-1.36101E-03-5.41016E-14
 -1      3500 1.22563E-02-1.38060E-03-5.43365E-14
 -1      3501 1.23456E-02-1.44314E-03-5.56512E-14
 -1      3502 7.73405E-03-3.00097E-06-3.13544E-14
 -1      3503 7.92537E-03 6.94547E-05-3.23076E-14
 -1      3504 7.35510E-03-2.12267E-04-3.00925E-14
 -1      3505 7.49050E-03-1.23332E-04-3.03962E-14
 -1      3506 4.42486E-03 3.10718E-04-1.10982E-14
 -1      3507 4.28169E-03 3.12609E-04-1.04169E-14
 -1      3508 4.20752E-03 2.76349E-04-1.01535E-14
 -1      3509 4.49376E-03 2.72572E-04-1.15214E-14
 -1      3510 1.24374E-02-1.49903E-03-5.67375E-14
 -1      3511 1.25443E-02-1.57023E-03-5.80745E-14
 -1      3512 1.25393E-02-1.58900E-03-5.86897E-14
 -1      3513 1.23389E-02-1.47237E-03-5.64996E-14
 -1      3514 1.07042E-02-7.85467E-04-4.82870E-14
 -1      3515 1.09334E-02-9.06441E-04-4.93541E-14
 -1      3516 8.15969E-03 1.42759E-04-3.36018E-14
 -1      3517 8.35172E-03 1.94272E-04-3.47508E-14
 -1      3518 1.01551E-03-3.88839E-05-8.28412E-16
 -1      3519 1.01660E-03-6.56753E-05-8.31163E-16
 -1      3520 1.13814E-03-8.58283E-05-1.00900E-15
 -1      3521 9.32129E-03 7.82784E-05-4.11421E-14
 -1      3522 9.46204E-03-2.83008E-06-4.21306E-14
 -1      3523 9.19679E-03 1.30889E-04-4.04487E-14
 -1      3524 1.28914E-03-1.90073E-04-1.22995E-15
 -1      3525 1.31940E-03-2.29743E-04-1.26261E-15
 -1      3526 1.46239E-03-2.43124E-04-1.51559E-15
 -1      3527 1.01238E-02-4.33020E-04-4.61711E-14
 -1      3528 1.02549E-02-5.16567E-04-4.69079E-14
 -1      3529 1.25769E-03 4.77052E-05-1.17452E-15
 -1      3530 1.25696E-03 1.67162E-05-1.18471E-15
 -1      3531 6.74686E-03-3.95536E-04-2.81505E-14
 -1      3532 6.79372E-03-3.97845E-04-2.84493E-14
 -1      3533 6.76574E-03-3.65873E-04-2.78567E-14
 -1      3534 1.05806E-02-7.14694E-04-4.81617E-14
 -1      3535 2.34809E-03 3.47819E-04-3.21717E-15
 -1      3536 1.43285E-02-2.73264E-03-7.88250E-14
 -1      3537 1.44149E-02-2.78877E-03-7.99383E-14
 -1      3538 1.43323E-02-2.74934E-03-7.98546E-14
 -1      3539 1.83789E-03 2.90229E-04-2.06448E-15
 -1      3540 1.69392E-03 2.81018E-04-1.77336E-15
 -1      3541 2.70276E-03 3.18162E-04-4.29169E-15
 -1      3542 2.55870E-03 3.15991E-04-3.86357E-15
 -1      3543 2.77057E-03 2.81787E-04-4.56388E-15
 -1      3544 3.56526E-03 3.19720E-04-7.31652E-15
 -1      3545 3.42176E-03 3.20468E-04-6.75907E-15
 -1      3546 3.63416E-03 2.81929E-04-7.66631E-15
 -1      3547 1.58569E-03 2.70757E-04-1.57224E-15
 -1      3548 1.44221E-03 2.58370E-04-1.32121E-15
 -1      3549 1.43579E-03 2.22303E-04-1.35016E-15
 -1      3550 1.65167E-03 2.42548E-04-1.73651E-15
 -1      3551 9.98948E-03-3.43940E-04-4.56178E-14
 -1      3552 1.30172E-02-2.08770E-03-7.52164E-14
 -1      3553 1.30226E-02-2.08222E-03-7.46037E-14
 -1      3554 1.31610E-02-2.16951E-03-7.64190E-14
 -1      3555 1.20952E-02-1.35672E-03-5.42151E-14
 -1      3556 1.37588E-02-2.47725E-03-7.90325E-14
 -1      3557 1.36844E-02-2.44125E-03-7.88680E-14
 -1      3558 1.09817E-02-9.31660E-04-5.02121E-14
 -1      3559 1.11249E-02-1.00076E-03-5.03211E-14
 -1      3560 1.13073E-02-1.08298E-03-5.12959E-14
 -1      3561 1.40876E-02-2.63200E-03-7.94648E-14
 -1      3562 1.40032E-02-2.59240E-03-7.93681E-14
 -1      3563 7.54062E-03-4.44167E-05-3.03264E-14
 -1      3564 7.57271E-03 3.13957E-05-3.02520E-14
 -1      3565 7.35066E-03-7.59406E-05-2.93114E-14
 -1      3566 1.58286E-03-2.56742E-04-1.74383E-15
 -1      3567 1.72670E-03-2.66795E-04-2.04008E-15
 -1      3568 1.79324E-03-2.36777E-04-2.20510E-15
 -1      3569 1.55184E-03-2.14358E-04-1.70527E-15
 -1      3570 6.66965E-03-3.83209E-04-2.73777E-14
 -1      3571 6.76213E-03-4.19471E-04-2.85256E-14
 -1      3572 8.43099E-03 2.17767E-04-3.52546E-14
 -1      3573 8.50556E-03 2.36394E-04-3.57602E-14
 -1      3574 8.28602E-03 2.24973E-04-3.43503E-14
 -1      3575 1.13563E-03-2.76540E-05-1.00253E-15
 -1      3576 6.95646E-03-3.39592E-04-2.87259E-14
 -1      3577 6.99055E-03-2.95530E-04-2.85230E-14
 -1      3578 6.84841E-03-3.26326E-04-2.79523E-14
 -1      3579 7.21234E-03-2.28241E-04-2.93446E-14
 -1      3580 8.85845E-03 2.21853E-04-3.80670E-14
 -1      3581 8.93475E-03 2.12806E-04-3.86766E-14
 -1      3582 8.73361E-03 2.35937E-04-3.72768E-14
 -1      3583 2.12617E-03 3.04085E-04-2.71552E-15
 -1      3584 1.98199E-03 2.97874E-04-2.37860E-15
 -1      3585 1.90414E-03 2.59112E-04-2.25381E-15
 -1      3586 7.98866E-03 1.38704E-04-3.25568E-14
 -1      3587 1.16079E-02-1.20282E-03-5.24045E-14
 -1      3588 1.17114E-02-1.22889E-03-5.22113E-14
 -1      3589 1.18445E-02-1.28118E-03-5.32168E-14
 -1      3590 9.56907E-03-7.10527E-05-4.29618E-14
 -1      3591 9.67646E-03-1.41109E-04-4.38002E-14
 -1      3592 9.43646E-03 6.14304E-06-4.22544E-14
 -1      3593 1.25913E-03 7.88463E-05-1.16183E-15
 -1      3594 1.38084E-03 6.69397E-05-1.37471E-15
 -1      3595 1.26133E-03 1.10321E-04-1.14679E-15
 -1      3596 1.42521E-02-2.71041E-03-7.97087E-14
 -1      3597 1.41686E-02-2.67099E-03-7.96175E-14
 -1      3598 1.40048E-02-2.57733E-03-7.83006E-14
 -1      3599 1.41662E-02-2.65477E-03-7.85990E-14
 -1      3600 1.39239E-02-2.55500E-03-7.92578E-14
 -1      3601 1.38387E-02-2.51503E-03-7.91510E-14
 -1      3602 1.36848E-02-2.42644E-03-7.78148E-14
 -1      3603 1.38443E-02-2.50134E-03-7.80405E-14
 -1      3604 1.28481E-03-1.57003E-04-1.23434E-15
 -1      3605 3.27815E-03 3.20884E-04-6.22281E-15
 -1      3606 3.13445E-03 3.20941E-04-5.70781E-15
 -1      3607 3.05893E-03 2.83446E-04-5.51252E-15
 -1      3608 3.34680E-03 2.83343E-04-6.54747E-15
 -1      3609 6.63144E-03-3.57032E-04-2.68395E-14
 -1      3610 1.34170E-02-2.31580E-03-7.86006E-14
 -1      3611 1.32735E-02-2.23396E-03-7.73922E-14
 -1      3612 1.32787E-02-2.22815E-03-7.67748E-14
 -1      3613 1.35032E-02-2.35689E-03-7.87250E-14
 -1      3614 1.37926E-03 1.39544E-06-1.39842E-15
 -1      3615 1.25692E-03-1.41430E-05-1.19280E-15
 -1      3616 1.25757E-03-4.50638E-05-1.19879E-15
 -1      3617 1.25081E-03 1.68734E-04-1.08667E-15
 -1      3618 1.24705E-03 1.36487E-04-1.10586E-15
 -1      3619 1.36821E-03 1.27741E-04-1.31497E-15
 -1      3620 1.34096E-03 1.83093E-04-1.22318E-15
 -1      3621 6.68434E-03-3.34545E-04-2.70054E-14
 -1      3622 6.73902E-03-3.28994E-04-2.72969E-14
 -1      3623 1.98183E-03-2.14732E-04-2.65709E-15
 -1      3624 2.12645E-03-2.19456E-04-3.01961E-15
 -1      3625 2.27117E-03-2.23256E-04-3.40526E-15
 -1      3626 2.41594E-03-2.26218E-04-3.81439E-15
 -1      3627 2.19501E-03-1.85569E-04-3.21085E-15
 -1      3628 2.56068E-03-2.28480E-04-4.24593E-15
 -1      3629 2.70536E-03-2.30103E-04-4.70027E-15
 -1      3630 2.48484E-03-1.90719E-04-4.02703E-15
 -1      3631 2.84994E-03-2.31206E-04-5.17743E-15
 -1      3632 2.99438E-03-2.31835E-04-5.67596E-15
 -1      3633 2.77454E-03-1.93571E-04-4.93395E-15
 -1      3634 3.13865E-03-2.32086E-04-6.19645E-15
 -1      3635 3.28273E-03-2.31992E-04-6.73864E-15
 -1      3636 3.06376E-03-1.94720E-04-5.92957E-15
 -1      3637 3.42660E-03-2.31633E-04-7.30193E-15
 -1      3638 3.57024E-03-2.31030E-04-7.88592E-15
 -1      3639 3.35221E-03-1.94644E-04-7.01082E-15
 -1      3640 3.71361E-03-2.30253E-04-8.49115E-15
 -1      3641 3.85670E-03-2.29316E-04-9.11695E-15
 -1      3642 3.63968E-03-1.93733E-04-8.17685E-15
 -1      3643 3.99946E-03-2.28287E-04-9.76264E-15
 -1      3644 4.14187E-03-2.27177E-04-1.04289E-14
 -1      3645 3.92594E-03-1.92321E-04-9.42531E-15
 -1      3646 4.28387E-03-2.26061E-04-1.11153E-14
 -1      3647 4.42541E-03-2.24952E-04-1.18226E-14
 -1      3648 4.21073E-03-1.90733E-04-1.07554E-14
 -1      3649 4.56643E-03-2.23948E-04-1.25495E-14
 -1      3650 4.70685E-03-2.23064E-04-1.32958E-14
 -1      3651 4.49368E-03-1.89342E-04-1.21662E-14
 -1      3652 4.84657E-03-2.22441E-04-1.40616E-14
 -1      3653 4.98548E-03-2.22100E-04-1.48458E-14
 -1      3654 4.77431E-03-1.88639E-04-1.36567E-14
 -1      3655 5.12344E-03-2.22250E-04-1.56477E-14
 -1      3656 5.26029E-03-2.22919E-04-1.64677E-14
 -1      3657 5.05190E-03-1.89313E-04-1.52220E-14
 -1      3658 5.39585E-03-2.24416E-04-1.73061E-14
 -1      3659 5.52989E-03-2.26772E-04-1.81620E-14
 -1      3660 5.32550E-03-1.92355E-04-1.68590E-14
 -1      3661 5.66218E-03-2.30441E-04-1.90341E-14
 -1      3662 5.79237E-03-2.35440E-04-1.99244E-14
 -1      3663 5.59385E-03-1.99170E-04-1.85674E-14
 -1      3664 5.92025E-03-2.42413E-04-2.08325E-14
 -1      3665 6.04525E-03-2.51334E-04-2.17543E-14
 -1      3666 5.85533E-03-2.11667E-04-2.03459E-14
 -1      3667 6.16723E-03-2.63101E-04-2.26915E-14
 -1      3668 6.28533E-03-2.77540E-04-2.36447E-14
 -1      3669 6.10800E-03-2.32329E-04-2.21888E-14
 -1      3670 6.41180E-03-3.01589E-04-2.47325E-14
 -1      3671 6.51964E-03-3.23474E-04-2.57163E-14
 -1      3672 6.60561E-03-3.30710E-04-2.64258E-14
 -1      3673 6.36166E-03-2.70372E-04-2.42112E-14
 -1      3674 1.36312E-02-2.41733E-03-7.88820E-14
 -1      3675 1.35566E-02-2.38106E-03-7.87144E-14
 -1      3676 1.34445E-02-2.31673E-03-7.77383E-14
 -1      3677 1.35513E-02-2.36482E-03-7.77132E-14
 -1      3678 7.81998E-03 1.47464E-04-3.14904E-14
 -1      3679 8.03531E-03 2.06526E-04-3.27699E-14
 -1      3680 1.28825E-02-1.82195E-03-6.31426E-14
 -1      3681 1.30101E-02-1.90219E-03-6.45247E-14
 -1      3682 1.31403E-02-1.98389E-03-6.59164E-14
 -1      3683 1.32726E-02-2.06708E-03-6.73166E-14
 -1      3684 1.30045E-02-1.91528E-03-6.51563E-14
 -1      3685 1.34067E-02-2.15121E-03-6.87295E-14
 -1      3686 1.35424E-02-2.23627E-03-7.01474E-14
 -1      3687 1.32689E-02-2.07918E-03-6.79590E-14
 -1      3688 1.36792E-02-2.32187E-03-7.15710E-14
 -1      3689 1.38172E-02-2.40799E-03-7.30055E-14
 -1      3690 1.35396E-02-2.24734E-03-7.07944E-14
 -1      3691 1.39560E-02-2.49440E-03-7.44470E-14
 -1      3692 1.40956E-02-2.58107E-03-7.58961E-14
 -1      3693 1.38149E-02-2.41811E-03-7.36578E-14
 -1      3694 1.41689E-02-2.62876E-03-7.68061E-14
 -1      3695 1.42550E-02-2.68512E-03-7.79089E-14
 -1      3696 1.41729E-02-2.64619E-03-7.78295E-14
 -1      3697 1.40267E-02-2.55150E-03-7.60099E-14
 -1      3698 5.13489E-03 2.24988E-04-1.49636E-14
 -1      3699 4.99161E-03 2.27534E-04-1.41806E-14
 -1      3700 4.84852E-03 2.29977E-04-1.34170E-14
 -1      3701 4.70553E-03 2.32290E-04-1.26720E-14
 -1      3702 4.91677E-03 1.91637E-04-1.38669E-14
 -1      3703 5.71205E-03 2.14359E-04-1.82783E-14
 -1      3704 5.56687E-03 2.16966E-04-1.74222E-14
 -1      3705 6.00526E-03 2.09695E-04-2.00422E-14
 -1      3706 5.85811E-03 2.11863E-04-1.91518E-14
 -1      3707 5.77905E-03 1.73187E-04-1.87917E-14
 -1      3708 6.30376E-03 2.06776E-04-2.18717E-14
 -1      3709 6.15375E-03 2.07886E-04-2.09485E-14
 -1      3710 6.07245E-03 1.66768E-04-2.05739E-14
 -1      3711 6.60944E-03 2.07302E-04-2.37672E-14
 -1      3712 6.45562E-03 2.06425E-04-2.28113E-14
 -1      3713 6.37194E-03 1.61828E-04-2.24217E-14
 -1      3714 6.92389E-03 2.13585E-04-2.57290E-14
 -1      3715 6.76555E-03 2.09502E-04-2.47403E-14
 -1      3716 6.67988E-03 1.60479E-04-2.43353E-14
 -1      3717 7.24764E-03 2.28064E-04-2.77527E-14
 -1      3718 7.08477E-03 2.19659E-04-2.67332E-14
 -1      3719 6.99843E-03 1.65819E-04-2.63136E-14
 -1      3720 7.57895E-03 2.51659E-04-2.98343E-14
 -1      3721 7.41282E-03 2.38800E-04-2.87868E-14
 -1      3722 7.32851E-03 1.81370E-04-2.83529E-14
 -1      3723 7.92667E-03 2.76090E-04-3.20632E-14
 -1      3724 7.75957E-03 2.60882E-04-3.09859E-14
 -1      3725 8.33060E-03 2.93166E-04-3.47419E-14
 -1      3726 8.16698E-03 2.83906E-04-3.36354E-14
 -1      3727 8.49152E-03 2.94605E-04-3.58640E-14
 -1      3728 8.86586E-03 2.52259E-04-3.87021E-14
 -1      3729 8.71260E-03 2.84517E-04-3.75472E-14
 -1      3730 9.17199E-03 1.41418E-04-4.10570E-14
 -1      3731 9.01778E-03 2.04081E-04-3.98726E-14
 -1      3732 8.98005E-03 2.11084E-04-3.93731E-14
 -1      3733 9.52773E-03-4.75196E-05-4.35389E-14
 -1      3734 9.36494E-03 4.27943E-05-4.23284E-14
 -1      3735 1.01470E-02-4.15858E-04-4.84258E-14
 -1      3736 9.98025E-03-3.15058E-04-4.71704E-14
 -1      3737 1.04791E-02-6.13127E-04-5.09730E-14
 -1      3738 1.03138E-02-5.15526E-04-4.96935E-14
 -1      3739 1.03021E-02-5.16705E-04-4.91505E-14
 -1      3740 1.08045E-02-8.01456E-04-5.35604E-14
 -1      3741 1.06430E-02-7.08423E-04-5.22612E-14
 -1      3742 1.06389E-02-7.12695E-04-5.17083E-14
 -1      3743 1.11207E-02-9.81324E-04-5.61899E-14
 -1      3744 1.09639E-02-8.92265E-04-5.48700E-14
 -1      3745 1.09654E-02-8.96779E-04-5.43087E-14
 -1      3746 1.14279E-02-1.15500E-03-5.88659E-14
 -1      3747 1.12754E-02-1.06872E-03-5.75224E-14
 -1      3748 1.12803E-02-1.07185E-03-5.69530E-14
 -1      3749 1.17274E-02-1.32492E-03-6.15819E-14
 -1      3750 1.15785E-02-1.24026E-03-6.02188E-14
 -1      3751 1.15853E-02-1.24134E-03-5.96401E-14
 -1      3752 1.20213E-02-1.49293E-03-6.43398E-14
 -1      3753 1.18750E-02-1.40904E-03-6.29560E-14
 -1      3754 1.18824E-02-1.40809E-03-6.23700E-14
 -1      3755 1.23112E-02-1.66024E-03-6.71302E-14
 -1      3756 1.21666E-02-1.57660E-03-6.57316E-14
 -1      3757 1.21740E-02-1.57393E-03-6.51374E-14
 -1      3758 1.25986E-02-1.82757E-03-6.99501E-14
 -1      3759 1.24551E-02-1.74386E-03-6.85369E-14
 -1      3760 1.24621E-02-1.73989E-03-6.79353E-14
 -1      3761 1.28845E-02-1.99532E-03-7.27992E-14
 -1      3762 1.27417E-02-1.91138E-03-7.13716E-14
 -1      3763 1.27481E-02-1.90647E-03-7.07631E-14
 -1      3764 1.04587E-02-6.41590E-04-4.79826E-14
 -1      3765 1.06641E-02-7.60756E-04-4.90662E-14
 -1      3766 1.03505E-02-5.71548E-04-4.78032E-14
 -1      3767 1.29599E-03-1.21216E-04-1.26129E-15
 -1      3768 1.44164E-03-1.63377E-04-1.51235E-15
 -1      3769 2.41456E-03 3.12994E-04-3.45824E-15
 -1      3770 2.27037E-03 3.09089E-04-3.07541E-15
 -1      3771 2.19291E-03 2.70532E-04-2.93298E-15
 -1      3772 2.48184E-03 2.77752E-04-3.70336E-15
 -1      3773 1.29355E-03-8.91832E-05-1.26003E-15
 -1      3774 9.10156E-03 1.66873E-04-4.00155E-14
 -1      3775 9.23075E-03 1.11004E-04-4.09913E-14
 -1      3776 7.07762E-03-2.34138E-04-2.85651E-14
 -1      3777 7.15893E-03-1.63685E-04-2.85998E-14
 -1      3778 6.95032E-03-2.33253E-04-2.77921E-14
 -1      3779 1.20235E-02-1.34957E-03-5.44169E-14
 -1      3780 1.21863E-02-1.41518E-03-5.56203E-14
 -1      3781 1.19445E-02-1.33674E-03-5.46139E-14
 -1      3782 5.42238E-03 2.19669E-04-1.65854E-14
 -1      3783 5.27844E-03 2.22346E-04-1.57657E-14
 -1      3784 5.20262E-03 1.86078E-04-1.54356E-14
 -1      3785 9.83567E-03-2.43682E-04-4.48967E-14
 -1      3786 9.99730E-03-3.47130E-04-4.60014E-14
 -1      3787 9.69364E-03-1.51647E-04-4.41757E-14
 -1      3788 1.26366E-02-1.66814E-03-6.04107E-14
 -1      3789 1.27577E-02-1.74398E-03-6.17728E-14
 -1      3790 1.27486E-02-1.75787E-03-6.23962E-14
 -1      3791 3.99022E-03 2.41614E-04-9.24604E-15
 -1      3792 3.84686E-03 2.42968E-04-8.62232E-15
 -1      3793 1.44824E-03 1.93213E-04-1.40187E-15
 -1      3794 1.86073E-03-2.05888E-04-2.37275E-15
 -1      3795 1.92905E-03-1.74115E-04-2.54306E-15
 -1      3796 1.73982E-03-1.96430E-04-2.10498E-15
 -1      3797 6.56571E-03-2.98891E-04-2.58788E-14
 -1      3798 6.75634E-03-2.96021E-04-2.70991E-14
 -1      3799 2.83906E-03 2.45126E-04-4.84039E-15
 -1      3800 2.69453E-03 2.43906E-04-4.38596E-15
 -1      3801 3.77279E-03 2.06321E-04-8.37458E-15
 -1      3802 3.70335E-03 2.44110E-04-8.01887E-15
 -1      3803 3.55968E-03 2.45039E-04-7.43641E-15
 -1      3804 9.99248E-03-3.35300E-04-4.65752E-14
 -1      3805 1.01390E-02-4.31332E-04-4.73098E-14
 -1      3806 5.48966E-03 1.79838E-04-1.70781E-14
 -1      3807 1.22871E-02-1.46894E-03-5.67086E-14
 -1      3808 1.41537E-03-7.73372E-05-1.47515E-15
 -1      3809 1.03109E-02-5.30376E-04-4.87716E-14
 -1      3810 1.03309E-02-5.53942E-04-4.81862E-14
 -1      3811 1.05212E-02-6.68796E-04-4.92719E-14
 -1      3812 1.04843E-02-6.31862E-04-5.00420E-14
 -1      3813 1.66394E-03 2.11326E-04-1.79643E-15
 -1      3814 1.55591E-03 2.02636E-04-1.59307E-15
 -1      3815 1.46140E-03 1.64234E-04-1.45237E-15
 -1      3816 1.24213E-02-1.54472E-03-5.82034E-14
 -1      3817 1.25277E-02-1.60522E-03-5.93034E-14
 -1      3818 1.25122E-02-1.61897E-03-5.99188E-14
 -1      3819 4.63129E-03 1.96434E-04-1.23742E-14
 -1      3820 4.56257E-03 2.34466E-04-1.19461E-14
 -1      3821 4.41960E-03 2.36497E-04-1.12407E-14
 -1      3822 7.68092E-03 2.03445E-04-3.05382E-14
 -1      3823 8.59932E-03 2.67178E-04-3.65153E-14
 -1      3824 9.67388E-03-1.34809E-04-4.46328E-14
 -1      3825 9.84197E-03-2.36427E-04-4.58676E-14
 -1      3826 1.07312E-02-7.94656E-04-4.98531E-14
 -1      3827 1.08515E-02-8.63704E-04-5.00343E-14
 -1      3828 1.10358E-02-9.58418E-04-5.10067E-14
 -1      3829 1.30283E-02-2.07673E-03-7.39904E-14
 -1      3830 1.30344E-02-2.07119E-03-7.33775E-14
 -1      3831 1.31719E-02-2.15812E-03-7.51880E-14
 -1      3832 1.81109E-03 2.17125E-04-2.09889E-15
 -1      3833 1.71583E-03 1.77968E-04-1.93747E-15
 -1      3834 1.50258E-03 1.86218E-05-1.61893E-15
 -1      3835 1.50254E-03-1.57054E-05-1.62949E-15
 -1      3836 1.13354E-02-1.10057E-03-5.21856E-14
 -1      3837 1.14710E-02-1.15529E-03-5.22969E-14
 -1      3838 1.16249E-02-1.22034E-03-5.33029E-14
 -1      3839 9.33153E-03 5.97810E-05-4.18132E-14
 -1      3840 1.37633E-02-2.44700E-03-7.68330E-14
 -1      3841 1.36837E-02-2.40991E-03-7.67253E-14
 -1      3842 1.56157E-03-1.74166E-04-1.74042E-15
 -1      3843 1.36037E-02-2.37259E-03-7.66140E-14
 -1      3844 1.35234E-02-2.33499E-03-7.64996E-14
 -1      3845 1.35230E-02-2.31881E-03-7.54156E-14
 -1      3846 7.20986E-03-9.33648E-05-2.85334E-14
 -1      3847 7.24903E-03-2.18783E-05-2.84613E-14
 -1      3848 7.07331E-03-1.04937E-04-2.77632E-14
 -1      3849 1.33104E-02-2.21718E-03-7.49397E-14
 -1      3850 1.33915E-02-2.27048E-03-7.61317E-14
 -1      3851 4.27657E-03 2.38368E-04-1.05557E-14
 -1      3852 4.13346E-03 2.40081E-04-9.89053E-15
 -1      3853 4.34565E-03 2.00476E-04-1.09595E-14
 -1      3854 1.95543E-03 2.23363E-04-2.41617E-15
 -1      3855 1.33378E-02-2.24645E-03-7.61442E-14
 -1      3856 1.50506E-03 8.75634E-05-1.58972E-15
 -1      3857 1.50341E-03 5.30077E-05-1.60600E-15
 -1      3858 1.62679E-03 3.73108E-05-1.85481E-15
 -1      3859 3.12775E-03 2.46163E-04-5.81538E-15
 -1      3860 2.98347E-03 2.45866E-04-5.31679E-15
 -1      3861 2.90816E-03 2.08241E-04-5.12113E-15
 -1      3862 6.81009E-03-4.45166E-04-2.91154E-14
 -1      3863 1.39261E-02-2.52424E-03-7.71371E-14
 -1      3864 1.38450E-02-2.48569E-03-7.69861E-14
 -1      3865 1.36851E-02-2.39447E-03-7.56791E-14
 -1      3866 7.63011E-03 1.32620E-04-3.03361E-14
 -1      3867 4.05955E-03 2.03776E-04-9.62659E-15
 -1      3868 7.45332E-03 9.91537E-05-2.93216E-14
 -1      3869 1.32842E-02-2.22227E-03-7.61569E-14
 -1      3870 2.40942E-03-1.53206E-04-3.81136E-15
 -1      3871 2.55448E-03-1.54815E-04-4.24118E-15
 -1      3872 2.69947E-03-1.56003E-04-4.69371E-15
 -1      3873 2.84437E-03-1.56801E-04-5.16870E-15
 -1      3874 2.62478E-03-1.18568E-04-4.45679E-15
 -1      3875 2.98912E-03-1.57294E-04-5.66509E-15
 -1      3876 3.13369E-03-1.57505E-04-6.18299E-15
 -1      3877 2.91478E-03-1.19850E-04-5.40381E-15
 -1      3878 3.27804E-03-1.57508E-04-6.72299E-15
 -1      3879 3.42214E-03-1.57318E-04-7.28339E-15
 -1      3880 3.20411E-03-1.20247E-04-6.43740E-15
 -1      3881 3.56596E-03-1.57001E-04-7.86469E-15
 -1      3882 3.70948E-03-1.56569E-04-8.46744E-15
 -1      3883 3.49248E-03-1.20063E-04-7.55601E-15
 -1      3884 3.85267E-03-1.56087E-04-9.09006E-15
 -1      3885 3.99549E-03-1.55565E-04-9.73366E-15
 -1      3886 3.77965E-03-1.19577E-04-8.75743E-15
 -1      3887 4.13791E-03-1.55077E-04-1.03974E-14
 -1      3888 4.27988E-03-1.54636E-04-1.10811E-14
 -1      3889 4.06538E-03-1.19075E-04-1.00415E-14
 -1      3890 4.42137E-03-1.54333E-04-1.17859E-14
 -1      3891 4.56231E-03-1.54188E-04-1.25103E-14
 -1      3892 4.34940E-03-1.18892E-04-1.14071E-14
 -1      3893 4.70263E-03-1.54323E-04-1.32537E-14
 -1      3894 4.84227E-03-1.54771E-04-1.40165E-14
 -1      3895 4.63139E-03-1.19464E-04-1.28530E-14
 -1      3896 4.98115E-03-1.55701E-04-1.47970E-14
 -1      3897 5.11914E-03-1.57161E-04-1.55960E-14
 -1      3898 4.91091E-03-1.21393E-04-1.43745E-14
 -1      3899 5.25618E-03-1.59389E-04-1.64143E-14
 -1      3900 5.39208E-03-1.62447E-04-1.72501E-14
 -1      3901 5.18743E-03-1.25519E-04-1.59702E-14
 -1      3902 5.52681E-03-1.66664E-04-1.81029E-14
 -1      3903 5.66009E-03-1.72115E-04-1.89729E-14
 -1      3904 5.46035E-03-1.32983E-04-1.76394E-14
 -1      3905 5.79195E-03-1.79232E-04-1.98606E-14
 -1      3906 5.92201E-03-1.88088E-04-2.07660E-14
 -1      3907 5.72902E-03-1.45281E-04-1.93784E-14
 -1      3908 6.05043E-03-1.99213E-04-2.16865E-14
 -1      3909 6.17668E-03-2.12682E-04-2.26214E-14
 -1      3910 5.99292E-03-1.64212E-04-2.11840E-14
 -1      3911 6.32128E-03-2.34827E-04-2.37419E-14
 -1      3912 6.45356E-03-2.61677E-04-2.48314E-14
 -1      3913 1.28661E-02-1.84749E-03-6.43995E-14
 -1      3914 1.29969E-02-1.92705E-03-6.57896E-14
 -1      3915 5.55616E-03 1.39789E-04-1.75721E-14
 -1      3916 5.41279E-03 1.43581E-04-1.67325E-14
 -1      3917 1.31296E-02-2.00803E-03-6.71902E-14
 -1      3918 1.32637E-02-2.09035E-03-6.86004E-14
 -1      3919 1.29884E-02-1.93750E-03-6.64212E-14
 -1      3920 1.33992E-02-2.17361E-03-7.00147E-14
 -1      3921 1.35358E-02-2.25776E-03-7.14370E-14
 -1      3922 1.32576E-02-2.10054E-03-6.92355E-14
 -1      3923 1.36734E-02-2.34250E-03-7.28685E-14
 -1      3924 1.38118E-02-2.42777E-03-7.43089E-14
 -1      3925 1.35312E-02-2.26747E-03-7.20820E-14
 -1      3926 4.98474E-03 1.53361E-04-1.43188E-14
 -1      3927 4.84232E-03 1.56067E-04-1.35524E-14
 -1      3928 6.13811E-03 1.22983E-04-2.11069E-14
 -1      3929 5.99083E-03 1.27184E-04-2.01982E-14
 -1      3930 5.84495E-03 1.31529E-04-1.93067E-14
 -1      3931 5.70013E-03 1.35725E-04-1.84307E-14
 -1      3932 5.90952E-03 8.93324E-05-1.98223E-14
 -1      3933 6.74809E-03 1.11831E-04-2.49047E-14
 -1      3934 6.59173E-03 1.12910E-04-2.39302E-14
 -1      3935 7.28098E-03 8.78980E-05-2.82828E-14
 -1      3936 8.11342E-03 2.31226E-04-3.32609E-14
 -1      3937 1.47527E-03 1.35301E-04-1.50144E-15
 -1      3938 1.14420E-02-1.16073E-03-5.77166E-14
 -1      3939 1.12875E-02-1.07665E-03-5.63827E-14
 -1      3940 1.17435E-02-1.32597E-03-6.04176E-14
 -1      3941 1.15938E-02-1.24360E-03-5.90621E-14
 -1      3942 1.16046E-02-1.24721E-03-5.84798E-14
 -1      3943 1.20374E-02-1.48978E-03-6.31560E-14
 -1      3944 1.18912E-02-1.40788E-03-6.17818E-14
 -1      3945 1.19017E-02-1.40852E-03-6.11932E-14
 -1      3946 1.23265E-02-1.65377E-03-6.59327E-14
 -1      3947 1.21825E-02-1.57166E-03-6.45399E-14
 -1      3948 1.21921E-02-1.56985E-03-6.39427E-14
 -1      3949 1.26127E-02-1.81870E-03-6.87388E-14
 -1      3950 1.24699E-02-1.73608E-03-6.73322E-14
 -1      3951 1.24784E-02-1.73246E-03-6.67262E-14
 -1      3952 1.28973E-02-1.98481E-03-7.15752E-14
 -1      3953 1.27551E-02-1.90160E-03-7.01545E-14
 -1      3954 1.27626E-02-1.89672E-03-6.95418E-14
 -1      3955 1.31757E-02-2.14135E-03-7.38495E-14
 -1      3956 1.30326E-02-2.06053E-03-7.26606E-14
 -1      3957 1.30393E-02-2.05483E-03-7.20423E-14
 -1      3958 1.33084E-02-2.20577E-03-7.42141E-14
 -1      3959 1.59763E-03 1.23029E-04-1.74479E-15
 -1      3960 1.62990E-03-1.45568E-04-1.88579E-15
 -1      3961 1.34697E-02-2.28032E-03-7.44363E-14
 -1      3962 1.33892E-02-2.24323E-03-7.43259E-14
 -1      3963 1.32553E-02-2.16785E-03-7.32409E-14
 -1      3964 8.74457E-03 2.46565E-04-3.74422E-14
 -1      3965 2.61872E-03 2.06083E-04-4.20735E-15
 -1      3966 2.54992E-03 2.42095E-04-3.95329E-15
 -1      3967 2.40524E-03 2.39643E-04-3.54313E-15
 -1      3968 6.53891E-03-2.58966E-04-2.53947E-14
 -1      3969 1.54649E-03-5.46534E-05-1.72171E-15
 -1      3970 1.58335E-03-1.03844E-04-1.79628E-15
 -1      3971 1.76091E-03-1.22325E-04-2.16754E-15
 -1      3972 1.67004E-03-3.86409E-05-1.96844E-15
 -1      3973 6.79670E-03-2.39228E-04-2.68924E-14
 -1      3974 6.86333E-03-1.84816E-04-2.69300E-14
 -1      3975 8.97725E-03 2.08160E-04-3.92060E-14
 -1      3976 6.68063E-03-2.49929E-04-2.62510E-14
 -1      3977 1.40900E-02-2.60440E-03-7.75568E-14
 -1      3978 1.40098E-02-2.56596E-03-7.74111E-14
 -1      3979 1.38505E-02-2.47433E-03-7.61032E-14
 -1      3980 1.40170E-02-2.55729E-03-7.66477E-14
 -1      3981 5.26987E-03 1.47129E-04-1.59097E-14
 -1      3982 5.12722E-03 1.50380E-04-1.51048E-14
 -1      3983 5.05238E-03 1.15185E-04-1.47736E-14
 -1      3984 1.11300E-02-9.91183E-04-5.50583E-14
 -1      3985 1.09693E-02-9.03347E-04-5.37456E-14
 -1      3986 1.12974E-02-1.08330E-03-5.58095E-14
 -1      3987 1.08137E-02-8.17818E-04-5.25299E-14
 -1      3988 1.06462E-02-7.24113E-04-5.12380E-14
 -1      3989 1.06654E-02-7.42418E-04-5.08515E-14
 -1      3990 1.09848E-02-9.16832E-04-5.32671E-14
 -1      3991 3.41586E-03 2.45706E-04-6.87513E-15
 -1      3992 3.27188E-03 2.46103E-04-6.33478E-15
 -1      3993 3.48530E-03 2.08036E-04-7.20631E-15
 -1      3994 4.12902E-03 1.66041E-04-1.00099E-14
 -1      3995 3.98587E-03 1.67416E-04-9.36149E-15
 -1      3996 6.43816E-03 1.15555E-04-2.29724E-14
 -1      3997 6.28710E-03 1.18934E-04-2.20319E-14
 -1      3998 6.50203E-03 6.77860E-05-2.35247E-14
 -1      3999 1.18261E-02-1.30511E-03-5.46489E-14
 -1      4000 1.20165E-02-1.38254E-03-5.58622E-14
 -1      4001 1.22597E-02-1.48044E-03-5.73120E-14
 -1      4002 1.26103E-02-1.69429E-03-6.16492E-14
 -1      4003 1.27370E-02-1.76989E-03-6.30190E-14
 -1      4004 1.27244E-02-1.78013E-03-6.36422E-14
 -1      4005 1.74459E-03 1.26275E-04-2.04378E-15
 -1      4006 2.10470E-03 2.28901E-04-2.76687E-15
 -1      4007 2.01242E-03 1.87478E-04-2.59115E-15
 -1      4008 2.11945E-03-1.48393E-04-3.01937E-15
 -1      4009 2.26439E-03-1.51080E-04-3.40407E-15
 -1      4010 2.33450E-03-1.16020E-04-3.59919E-15
 -1      4011 1.36342E-02-2.35716E-03-7.47423E-14
 -1      4012 1.35522E-02-2.31888E-03-7.45897E-14
 -1      4013 1.34193E-02-2.24360E-03-7.35050E-14
 -1      4014 3.84250E-03 1.68589E-04-8.73391E-15
 -1      4015 3.69892E-03 1.69578E-04-8.12677E-15
 -1      4016 3.91244E-03 1.30970E-04-9.09606E-15
 -1      4017 6.27274E-03-1.97499E-04-2.32217E-14
 -1      4018 4.76834E-03 1.20757E-04-1.32369E-14
 -1      4019 4.69989E-03 1.58517E-04-1.28048E-14
 -1      4020 4.55738E-03 1.60727E-04-1.20755E-14
 -1      4021 5.33654E-03 1.08158E-04-1.63850E-14
 -1      4022 1.12077E-02-1.04303E-03-5.20060E-14
 -1      4023 1.13733E-02-1.12057E-03-5.30120E-14
 -1      4024 1.10849E-02-9.81899E-04-5.18254E-14
 -1      4025 3.19707E-03 2.08763E-04-6.12136E-15
 -1      4026 1.39442E-02-2.51017E-03-7.57407E-14
 -1      4027 1.20633E-02-1.42820E-03-5.73882E-14
 -1      4028 1.21648E-02-1.45700E-03-5.73523E-14
 -1      4029 1.23129E-02-1.53479E-03-5.88557E-14
 -1      4030 1.87942E-03-1.32017E-04-2.43435E-15
 -1      4031 2.00046E-03-1.39162E-04-2.72201E-15
 -1      4032 2.07046E-03-1.05711E-04-2.89718E-15
 -1      4033 1.83312E-03-8.85508E-05-2.32939E-15
 -1      4034 5.62177E-03 9.95155E-05-1.80691E-14
 -1      4035 7.19664E-03 1.03101E-05-2.80151E-14
 -1      4036 7.09083E-03 9.94822E-05-2.70712E-14
 -1      4037 6.92725E-03 9.61537E-05-2.60637E-14
 -1      4038 2.97786E-03 1.71152E-04-5.40534E-15
 -1      4039 2.83311E-03 1.70633E-04-4.92477E-15
 -1      4040 6.75201E-03-1.39759E-04-2.59829E-14
 -1      4041 6.90888E-03-1.26036E-04-2.68677E-14
 -1      4042 6.94818E-03-6.35622E-05-2.67993E-14
 -1      4043 1.17074E-02-1.26484E-03-5.45394E-14
 -1      4044 4.41476E-03 1.62707E-04-1.13668E-14
 -1      4045 4.27198E-03 1.64479E-04-1.06785E-14
 -1      4046 4.48387E-03 1.25109E-04-1.17768E-14
 -1      4047 2.68823E-03 1.69732E-04-4.46594E-15
 -1      4048 2.54326E-03 1.68415E-04-4.02921E-15
 -1      4049 2.75838E-03 1.33094E-04-4.72837E-15
 -1      4050 2.24936E-03 2.33005E-04-3.13047E-15
 -1      4051 2.04288E-03 1.34622E-04-2.71679E-15
 -1      4052 1.89353E-03 1.30831E-04-2.36814E-15
 -1      4053 1.77652E-03 7.64159E-05-2.14793E-15
 -1      4054 1.74389E-03-4.51843E-06-2.11594E-15
 -1      4055 1.78794E-03-4.60718E-05-2.22295E-15
 -1      4056 1.90621E-03-5.36571E-05-2.49327E-15
 -1      4057 6.55937E-03-2.09934E-04-2.51942E-14
 -1      4058 1.38013E-02-2.43372E-03-7.49411E-14
 -1      4059 1.77521E-03 3.90852E-05-2.16586E-15
 -1      4060 4.19862E-03 1.28459E-04-1.03958E-14
 -1      4061 6.20196E-03 7.82226E-05-2.16415E-14
 -1      4062 1.06979E-02-7.70547E-04-5.02436E-14
 -1      4063 1.24037E-02-1.58189E-03-5.96908E-14
 -1      4064 1.25192E-02-1.64468E-03-6.08032E-14
 -1      4065 1.25013E-02-1.65379E-03-6.14174E-14
 -1      4066 1.23139E-02-1.55550E-03-5.97322E-14
 -1      4067 1.89309E-03 3.37718E-05-2.43268E-15
 -1      4068 6.83137E-03 4.45859E-05-2.56405E-14
 -1      4069 1.32027E-02-2.13000E-03-7.22668E-14
 -1      4070 1.31211E-02-2.09266E-03-7.21558E-14
 -1      4071 1.29866E-02-2.01759E-03-7.10752E-14
 -1      4072 2.84084E-03-8.24618E-05-5.14591E-15
 -1      4073 2.98577E-03-8.27478E-05-5.63959E-15
 -1      4074 3.13052E-03-8.29138E-05-6.15525E-15
 -1      4075 3.27504E-03-8.29673E-05-6.69206E-15
 -1      4076 3.05729E-03-4.55438E-05-5.87628E-15
 -1      4077 3.41930E-03-8.29602E-05-7.24998E-15
 -1      4078 3.56326E-03-8.28948E-05-7.82828E-15
 -1      4079 3.34642E-03-4.57141E-05-6.94688E-15
 -1      4080 3.70691E-03-8.28278E-05-8.42791E-15
 -1      4081 3.85021E-03-8.27618E-05-9.04817E-15
 -1      4082 3.63445E-03-4.58487E-05-8.10131E-15
 -1      4083 3.99314E-03-8.27621E-05-9.68846E-15
 -1      4084 4.13567E-03-8.28353E-05-1.03492E-14
 -1      4085 3.92117E-03-4.61411E-05-9.33844E-15
 -1      4086 4.27776E-03-8.30610E-05-1.10314E-14
 -1      4087 4.41939E-03-8.34536E-05-1.17330E-14
 -1      4088 4.20638E-03-4.68437E-05-1.06576E-14
 -1      4089 4.56051E-03-8.41166E-05-1.24541E-14
 -1      4090 4.70108E-03-8.50753E-05-1.31949E-14
 -1      4091 4.48989E-03-4.82927E-05-1.20572E-14
 -1      4092 4.84108E-03-8.64678E-05-1.39540E-14
 -1      4093 4.98043E-03-8.83335E-05-1.47311E-14
 -1      4094 4.77148E-03-5.09559E-05-1.35352E-14
 -1      4095 5.11912E-03-9.08563E-05-1.55286E-14
 -1      4096 5.25706E-03-9.40916E-05-1.63444E-14
 -1      4097 5.05096E-03-5.54743E-05-1.50889E-14
 -1      4098 5.39429E-03-9.82771E-05-1.71775E-14
 -1      4099 5.53065E-03-1.03484E-04-1.80283E-14
 -1      4100 5.32818E-03-6.26956E-05-1.67164E-14
 -1      4101 5.66629E-03-1.10002E-04-1.88960E-14
 -1      4102 5.80102E-03-1.17910E-04-1.97816E-14
 -1      4103 5.60316E-03-7.36794E-05-1.84154E-14
 -1      4104 5.93514E-03-1.27516E-04-2.06831E-14
 -1      4105 6.06838E-03-1.38879E-04-2.16009E-14
 -1      4106 5.87626E-03-8.96201E-05-2.01836E-14
 -1      4107 6.22013E-03-1.56039E-04-2.26750E-14
 -1      4108 6.37331E-03-1.78016E-04-2.37960E-14
 -1      4109 5.11966E-03 7.71966E-05-1.52297E-14
 -1      4110 4.97821E-03 8.04165E-05-1.44409E-14
 -1      4111 1.31146E-02-2.02777E-03-6.84580E-14
 -1      4112 1.32509E-02-2.10988E-03-6.98704E-14
 -1      4113 6.51671E-03-1.61057E-04-2.46254E-14
 -1      4114 3.55512E-03 1.70358E-04-7.54091E-15
 -1      4115 3.41110E-03 1.70934E-04-6.97573E-15
 -1      4116 3.62527E-03 1.32727E-04-7.87868E-15
 -1      4117 1.25790E-02-1.71226E-03-6.28837E-14
 -1      4118 1.27113E-02-1.78877E-03-6.42616E-14
 -1      4119 5.40256E-03 6.92914E-05-1.68622E-14
 -1      4120 5.26106E-03 7.34931E-05-1.60370E-14
 -1      4121 5.18654E-03 3.94478E-05-1.56874E-14
 -1      4122 2.31786E-03 1.98405E-04-3.35643E-15
 -1      4123 1.20595E-02-1.48887E-03-6.19681E-14
 -1      4124 1.19144E-02-1.40976E-03-6.06035E-14
 -1      4125 1.17676E-02-1.33099E-03-5.92453E-14
 -1      4126 1.16184E-02-1.25192E-03-5.78977E-14
 -1      4127 1.19295E-02-1.41166E-03-6.00101E-14
 -1      4128 1.26295E-02-1.81003E-03-6.75233E-14
 -1      4129 1.24879E-02-1.72887E-03-6.61227E-14
 -1      4130 1.28787E-02-1.95452E-03-7.00031E-14
 -1      4131 1.27376E-02-1.87238E-03-6.85891E-14
 -1      4132 1.27465E-02-1.86738E-03-6.79779E-14
 -1      4133 1.29613E-02-1.99223E-03-7.01137E-14
 -1      4134 5.68629E-03 5.91861E-05-1.85674E-14
 -1      4135 5.54422E-03 6.45073E-05-1.77062E-14
 -1      4136 5.46783E-03 3.05678E-05-1.73420E-14
 -1      4137 2.55058E-03-8.13626E-05-4.22366E-15
 -1      4138 2.69575E-03-8.20022E-05-4.67395E-15
 -1      4139 2.76732E-03-4.51683E-05-4.89135E-15
 -1      4140 1.15600E-02-1.20722E-03-5.43325E-14
 -1      4141 1.17677E-02-1.30039E-03-5.56889E-14
 -1      4142 2.20877E-03 1.47213E-04-3.12287E-15
 -1      4143 2.09102E-03 9.07042E-05-2.87189E-15
 -1      4144 1.23459E-02-1.64831E-03-6.47284E-14
 -1      4145 1.22032E-02-1.56828E-03-6.33439E-14
 -1      4146 1.24986E-02-1.72527E-03-6.55154E-14
 -1      4147 2.05825E-03 4.39930E-05-2.82113E-15
 -1      4148 2.02666E-03-2.19565E-06-2.76587E-15
 -1      4149 2.22383E-03 5.44248E-05-3.23838E-15
 -1      4150 1.14665E-02-1.17256E-03-5.65621E-14
 -1      4151 1.13111E-02-1.09174E-03-5.52352E-14
 -1      4152 1.16358E-02-1.25797E-03-5.73144E-14
 -1      4153 5.97243E-03 4.68149E-05-2.03384E-14
 -1      4154 5.82891E-03 5.32328E-05-1.94435E-14
 -1      4155 5.74960E-03 1.88112E-05-1.90654E-14
 -1      4156 1.37179E-02-2.39264E-03-7.46721E-14
 -1      4157 6.56256E-03 1.87415E-05-2.40783E-14
 -1      4158 6.41164E-03 2.54649E-05-2.31200E-14
 -1      4159 6.26336E-03 3.27327E-05-2.21762E-14
 -1      4160 6.11708E-03 3.98515E-05-2.12495E-14
 -1      4161 6.32194E-03-1.36517E-05-2.27131E-14
 -1      4162 2.36486E-03 1.52809E-04-3.53636E-15
 -1      4163 1.08630E-02-8.60140E-04-5.14426E-14
 -1      4164 3.26688E-03 1.71268E-04-6.43095E-15
 -1      4165 3.12246E-03 1.71360E-04-5.90744E-15
 -1      4166 3.04811E-03 1.33922E-04-5.69331E-15
 -1      4167 3.33713E-03 1.33739E-04-6.74429E-15
 -1      4168 1.28447E-02-1.86699E-03-6.56513E-14
 -1      4169 1.29791E-02-1.94678E-03-6.70506E-14
 -1      4170 1.26984E-02-1.79620E-03-6.48812E-14
 -1      4171 4.26835E-03 9.10698E-05-1.07845E-14
 -1      4172 4.12563E-03 9.23879E-05-1.01124E-14
 -1      4173 2.18976E-03-5.35015E-05-3.19688E-15
 -1      4174 2.33489E-03-5.43681E-05-3.59031E-15
 -1      4175 1.35861E-02-2.31720E-03-7.35892E-14
 -1      4176 1.18031E-02-1.32888E-03-5.69684E-14
 -1      4177 1.19348E-02-1.38129E-03-5.71805E-14
 -1      4178 1.20980E-02-1.46282E-03-5.86855E-14
 -1      4179 3.98262E-03 9.34953E-05-9.46118E-15
 -1      4180 3.83933E-03 9.44285E-05-8.83037E-15
 -1      4181 4.05302E-03 5.62192E-05-9.82874E-15
 -1      4182 4.83666E-03 8.32185E-05-1.36710E-14
 -1      4183 4.69492E-03 8.56415E-05-1.29203E-14
 -1      4184 4.90480E-03 4.59551E-05-1.41082E-14
 -1      4185 6.16776E-03-1.15208E-04-2.21559E-14
 -1      4186 2.43506E-03 1.17268E-04-3.76903E-15
 -1      4187 1.10303E-02-9.49125E-04-5.24454E-14
 -1      4188 6.39535E-03-8.11190E-05-2.34571E-14
 -1      4189 6.59861E-03-1.05760E-04-2.48487E-14
 -1      4190 1.33881E-02-2.19285E-03-7.12919E-14
 -1      4191 1.35260E-02-2.27657E-03-7.27224E-14
 -1      4192 1.24834E-02-1.66088E-03-6.20311E-14
 -1      4193 1.24663E-02-1.66661E-03-6.26416E-14
 -1      4194 1.23875E-02-1.61022E-03-6.11816E-14
 -1      4195 7.06246E-03-4.97295E-06-2.72509E-14
 -1      4196 1.32577E-02-2.15508E-03-7.23447E-14
 -1      4197 1.31242E-02-2.08039E-03-7.12642E-14
 -1      4198 1.30172E-02-2.01748E-03-7.01908E-14
 -1      4199 1.33408E-02-2.19343E-03-7.24983E-14
 -1      4200 1.22159E-02-1.56702E-03-6.27446E-14
 -1      4201 8.81897E-03 2.44329E-04-3.80468E-14
 -1      4202 6.90071E-03-3.07699E-05-2.63650E-14
 -1      4203 1.29698E-02-1.95508E-03-6.76766E-14
 -1      4204 2.40686E-03-1.84374E-05-3.78094E-15
 -1      4205 4.55298E-03 8.77308E-05-1.21891E-14
 -1      4206 4.41080E-03 8.95315E-05-1.14768E-14
 -1      4207 4.62210E-03 5.06252E-05-1.26030E-14
 -1      4208 2.82916E-03 9.62030E-05-4.99445E-15
 -1      4209 2.68408E-03 9.57003E-05-4.53154E-15
 -1      4210 1.14444E-02-1.15676E-03-5.41496E-14
 -1      4211 6.72769E-03-8.60530E-06-2.52055E-14
 -1      4212 3.11889E-03 9.65772E-05-5.98488E-15
 -1      4213 2.97411E-03 9.64973E-05-5.47916E-15
 -1      4214 2.90051E-03 5.91250E-05-5.26467E-15
 -1      4215 6.03343E-03 3.92290E-06-2.08563E-14
 -1      4216 1.11857E-02-1.02933E-03-5.36628E-14
 -1      4217 6.62896E-03-5.25212E-05-2.47821E-14
 -1      4218 2.07094E-03-4.60503E-05-2.89016E-15
 -1      4219 4.33820E-03 5.39252E-05-1.11757E-14
 -1      4220 1.32439E-02-2.11844E-03-7.05033E-14
 -1      4221 3.27392E-03-8.37987E-06-6.64629E-15
 -1      4222 3.41826E-03-8.50314E-06-7.20103E-15
 -1      4223 3.56232E-03-8.68754E-06-7.77702E-15
 -1      4224 3.70607E-03-8.92534E-06-8.37340E-15
 -1      4225 3.49052E-03 2.86323E-05-7.45561E-15
 -1      4226 3.84355E-03 5.61954E-06-8.95090E-15
 -1      4227 3.98666E-03 5.10877E-06-9.58629E-15
 -1      4228 4.12942E-03 4.42876E-06-1.02422E-14
 -1      4229 4.27181E-03 3.58208E-06-1.09198E-14
 -1      4230 4.41381E-03 2.48878E-06-1.16168E-14
 -1      4231 4.55541E-03 1.13809E-06-1.23329E-14
 -1      4232 4.69662E-03-5.67939E-07-1.30695E-14
 -1      4233 4.83741E-03-2.65653E-06-1.38241E-14
 -1      4234 4.97782E-03-5.24498E-06-1.45982E-14
 -1      4235 5.11781E-03-8.38075E-06-1.53916E-14
 -1      4236 5.25749E-03-1.21955E-05-1.62027E-14
 -1      4237 5.39681E-03-1.67604E-05-1.70321E-14
 -1      4238 5.53596E-03-2.22025E-05-1.78802E-14
 -1      4239 5.67489E-03-2.86199E-05-1.87445E-14
 -1      4240 5.81395E-03-3.60865E-05-1.96248E-14
 -1      4241 5.95309E-03-4.47243E-05-2.05232E-14
 -1      4242 6.25326E-03-6.90959E-05-2.25084E-14
 -1      4243 6.09291E-03-5.44792E-05-2.14376E-14
 -1      4244 2.97841E-03 6.84322E-06-5.56957E-15
 -1      4245 3.12325E-03 6.79711E-06-6.08072E-15
 -1      4246 1.34417E-02-2.24159E-03-7.27922E-14
 -1      4247 3.70135E-03 8.01626E-05-8.26150E-15
 -1      4248 3.55752E-03 8.07271E-05-7.67015E-15
 -1      4249 1.20900E-02-1.48930E-03-6.07753E-14
 -1      4250 1.19478E-02-1.41384E-03-5.94157E-14
 -1      4251 1.25492E-02-1.72443E-03-6.41102E-14
 -1      4252 1.26858E-02-1.80256E-03-6.55004E-14
 -1      4253 1.23604E-02-1.63056E-03-6.29562E-14
 -1      4254 1.22215E-02-1.55415E-03-6.15857E-14
 -1      4255 1.13678E-02-1.12149E-03-5.44004E-14
 -1      4256 1.15540E-02-1.21268E-03-5.57326E-14
 -1      4257 2.38759E-03 1.84560E-05-3.70805E-15
 -1      4258 2.60245E-03-7.33676E-06-4.35428E-15
 -1      4259 2.74767E-03-7.39650E-06-4.80948E-15
 -1      4260 2.41970E-03 6.67601E-05-3.76782E-15
 -1      4261 1.18775E-02-1.37533E-03-5.85668E-14
 -1      4262 1.17330E-02-1.30148E-03-5.72243E-14
 -1      4263 1.27367E-02-1.84170E-03-6.66000E-14
 -1      4264 1.28750E-02-1.92209E-03-6.80019E-14
 -1      4265 3.41342E-03 8.11248E-05-7.09915E-15
 -1      4266 3.26907E-03 8.13936E-05-6.54900E-15
 -1      4267 1.32811E-02-2.15362E-03-7.16365E-14
 -1      4268 3.77229E-03 4.28018E-05-8.60469E-15
 -1      4269 1.25867E-02-1.76707E-03-6.58174E-14
 -1      4270 1.20410E-02-1.45115E-03-5.93216E-14
 -1      4271 3.19594E-03 4.40976E-05-6.31468E-15
 -1      4272 2.59780E-03 8.10996E-05-4.27959E-15
 -1      4273 1.31425E-02-2.07101E-03-7.02138E-14
 -1      4274 1.24470E-02-1.68787E-03-6.44252E-14
 -1      4275 2.66939E-03 4.44586E-05-4.52824E-15
 -1      4276 1.29811E-02-1.98406E-03-6.90707E-14
 -1      4277 1.22088E-02-1.51665E-03-5.95423E-14
 -1      4278 1.23056E-02-1.56603E-03-6.03831E-14
 -1      4279 1.22846E-02-1.56965E-03-6.09886E-14
 -1      4280 1.21548E-02-1.50761E-03-6.01830E-14
 -1      4281 1.20881E-02-1.46943E-03-5.93285E-14
 -1      4282 2.83339E-03 6.88031E-06-5.07993E-15
 -1      4283 1.22399E-02-1.55263E-03-6.09830E-14
 -1      4284 1.24505E-02-1.67117E-03-6.32514E-14
 -3
    1PSTEP                         2           1           1          
  100CL  101 1.000000000        4284                     0    1           1
 -4  STRESS      6    1
 -5  SXX         1    4    1    1
 -5  SYY         1    4    2    2
 -5  SZZ         1    4    3    3
 -5  SXY         1    4    1    2
 -5  SYZ         1    4    2    3
 -5  SZX         1    4    3    1
 -1         1-2.70453E+00-1.96291E+01-3.38488E+00-6.18029E+00-1.43574E-12-4.26922E-13
 -1         2-7.24402E-01-2.70056E+01-3.50179E+00 1.76652E-01 9.42593E-13-7.64527E-14
 -1         3 1.99988E+01-1.09322E-03 4.07124E-03-1.10947E-03-5.78260E-13-6.51350E-13
 -1         4 1.99983E+01-1.74386E-03 5.91042E-03 1.31959E-03 5.82154E-14-3.02118E-13
 -1         5 3.27547E+01 6.14006E+00 2.74110E+00 6.22238E+00-3.25018E-14 2.36203E-12
 -1         6 3.59287E+01 1.23440E+01 5.21786E+00-8.75491E+00-1.23623E-13 2.05513E-12
 -1         7 2.07137E+01 6.10332E+00-1.46346E-01-4.69653E+00-1.77497E-14 3.48114E-13
 -1         8 1.96683E+01 5.93536E+00 5.06736E-02-3.27313E+00-2.64372E-14-1.53067E-13
 -1         9 1.91362E+01 5.77193E+00 4.90486E-02-2.52751E+00-2.19495E-14-4.18814E-13
 -1        10 1.88974E+01 5.69273E+00 5.13316E-02-1.95215E+00-1.01438E-14-5.48455E-13
 -1        11 1.87770E+01 5.65228E+00 5.04992E-02-1.45666E+00-8.19397E-15-5.96912E-13
 -1        12 1.87146E+01 5.63091E+00 4.88620E-02-1.01552E+00-1.72150E-15-6.01367E-13
 -1        13 1.86818E+01 5.61968E+00 4.74788E-02-5.95568E-01 8.90564E-16-5.86958E-13
 -1        14 1.86680E+01 5.61494E+00 4.67387E-02-1.91363E-01 4.91713E-16-5.68989E-13
 -1        15 1.86684E+01 5.61507E+00 4.67748E-02 2.08040E-01 7.76110E-15-5.54605E-13
 -1        16 1.86831E+01 5.62009E+00 4.76003E-02 6.13007E-01 8.41601E-15-5.28299E-13
 -1        17 1.87169E+01 5.63153E+00 4.91271E-02 1.03480E+00 1.51272E-14-4.85173E-13
 -1        18 1.87804E+01 5.65317E+00 5.08662E-02 1.47891E+00 1.68806E-14-4.27066E-13
 -1        19 1.89021E+01 5.69413E+00 5.17176E-02 1.98003E+00 2.41474E-14-3.14566E-13
 -1        20 1.91420E+01 5.77423E+00 4.91803E-02 2.56395E+00 2.82743E-14-1.18737E-13
 -1        21 1.96628E+01 5.94827E+00 4.58069E-02 3.30874E+00 3.13916E-14 2.41774E-13
 -1        22 2.11941E+01 6.37931E+00 1.39366E-01 4.52222E+00 5.14866E-15 9.15596E-13
 -1        23 2.32582E+01-1.30520E+00-9.17490E-01-8.33662E-01-8.49286E-14 1.61499E-12
 -1        24 1.94187E+01-1.08859E-01-3.30041E-01 6.48461E-02-2.56939E-14 1.24219E-12
 -1        25 1.86864E+01-5.84368E-02-7.50901E-02 6.20762E-02-1.17001E-14 8.33198E-13
 -1        26 1.84684E+01-2.29608E-02-7.88748E-03 3.36034E-02-1.48557E-15 5.46931E-13
 -1        27 1.84723E+01-1.22359E-02 1.35200E-03 2.28676E-02-9.77159E-15 3.13350E-13
 -1        28 1.85835E+01-6.54379E-03 1.70956E-03 1.64042E-02-1.24306E-14 1.28686E-13
 -1        29 1.87436E+01-3.35491E-03 1.62433E-03 1.21520E-02 5.09765E-16 1.64773E-14
 -1        30 1.89210E+01-1.52547E-03 1.74930E-03 9.11791E-03-1.61779E-14-1.60420E-13
 -1        31 1.90983E+01-5.05300E-04 1.82879E-03 6.83131E-03-3.07371E-15-2.67517E-13
 -1        32 1.92670E+01-7.80135E-06 1.74039E-03 5.05538E-03-4.28830E-16-3.65982E-13
 -1        33 1.94237E+01 1.23066E-04 1.47130E-03 3.65978E-03-4.66435E-15-3.61122E-13
 -1        34 1.95696E+01-3.10281E-05 1.03072E-03 2.56686E-03 1.19170E-14-4.07089E-13
 -1        35 1.97086E+01-4.39045E-04 4.09381E-04 1.73083E-03-5.08586E-14-3.99541E-13
 -1        36 1.98482E+01-1.11280E-03-4.38946E-04 1.13352E-03 2.32956E-14-3.57452E-13
 -1        37 1.99991E+01-2.10822E-03-1.61536E-03 7.92122E-04-4.33659E-14-5.57404E-13
 -1        38 2.01768E+01-3.53247E-03-3.30413E-03 7.81367E-04-9.71507E-15-7.31074E-13
 -1        39 2.04033E+01-5.55396E-03-5.82029E-03 1.27901E-03 3.72224E-14-6.58473E-13
 -1        40 2.07109E+01-8.40782E-03-9.68638E-03 2.65304E-03-3.91286E-14-5.58449E-13
 -1        41 2.11471E+01-1.23776E-02-1.57411E-02 5.62297E-03-1.29021E-14-5.58122E-13
 -1        42 2.17818E+01-1.77031E-02-2.52326E-02 1.15444E-02-6.95125E-15-5.98292E-13
 -1        43 2.27164E+01-2.42979E-02-3.96393E-02 2.28632E-02-4.00960E-15-6.97666E-13
 -1        44 2.40912E+01-3.10357E-02-5.93186E-02 4.36610E-02 6.02680E-14-6.68327E-13
 -1        45 2.60787E+01-3.42291E-02-7.86981E-02 7.95750E-02 3.31454E-14-3.98008E-13
 -1        46 2.88279E+01-2.52957E-02-7.48391E-02 1.34093E-01-4.99772E-14-5.16080E-13
 -1        47 3.22789E+01 9.51351E-03 6.52935E-03 1.92680E-01 2.08702E-14-2.65669E-13
 -1        48 3.57291E+01 7.90423E-02 2.30372E-01 1.83600E-01-7.50199E-14 9.18918E-14
 -1        49 3.72052E+01 1.33756E-01 5.09435E-01-8.44825E-02 6.17006E-14 2.07438E-13
 -1        50 3.40784E+01 8.60497E-02 4.31729E-01-6.57836E-01 5.50428E-15 5.78287E-13
 -1        51 2.58036E+01 1.80215E-02-4.43759E-01-1.10781E+00-4.50317E-14 3.88301E-14
 -1        52 1.83973E+01-1.40364E-01-1.44275E+00-6.68143E-01-9.13609E-14-6.70908E-13
 -1        53 1.62996E+01-3.01777E-01-1.80713E+00 3.26432E-01-7.96585E-15-1.27887E-12
 -1        54 2.11439E+01-6.32088E-02-1.04663E+00 7.84814E-01 4.63692E-15-1.79928E-12
 -1        55 2.97727E+01 4.76601E-02 4.06379E-02 7.75950E-01 5.35301E-14-1.32488E-12
 -1        56 3.62332E+01 1.11047E-01 5.70791E-01 3.04211E-01-1.24225E-13-1.14377E-12
 -1        57 3.70430E+01 8.57880E-02 4.03997E-01-6.47232E-02 1.44064E-13-6.23343E-13
 -1        58 3.42606E+01 3.02363E-02 1.08946E-01-1.58751E-01-2.75983E-14-4.25562E-13
 -1        59 3.06276E+01-9.47766E-03-4.70033E-02-1.32456E-01-1.10908E-14-9.12499E-13
 -1        60 2.74548E+01-2.49643E-02-8.44560E-02-8.57267E-02 9.15405E-14-5.02209E-13
 -1        61 2.50672E+01-2.60905E-02-7.27224E-02-4.97293E-02-5.97712E-14 8.37108E-14
 -1        62 2.33877E+01-2.17269E-02-5.13955E-02-2.73241E-02-1.02522E-15-3.11985E-13
 -1        63 2.22426E+01-1.63863E-02-3.36228E-02-1.45541E-02-3.53005E-15-4.89260E-13
 -1        64 2.14714E+01-1.17732E-02-2.13981E-02-7.57846E-03-1.02714E-13-4.38189E-13
 -1        65 2.09533E+01-8.26168E-03-1.35554E-02-3.86403E-03-3.10260E-14-7.05754E-13
 -1        66 2.06041E+01-5.75103E-03-8.65138E-03-1.92954E-03 5.92703E-14-1.47679E-13
 -1        67 2.03675E+01-4.02409E-03-5.63257E-03-9.48669E-04 5.00264E-14-1.24039E-14
 -1        68 2.02068E+01-2.87671E-03-3.84987E-03-4.59338E-04-5.52546E-14-4.00798E-13
 -1        69 2.00991E+01-2.14593E-03-2.93790E-03-1.77951E-04 3.56167E-14-5.01266E-13
 -1        70 2.00307E+01-1.68491E-03-2.62654E-03 1.40398E-04-4.01164E-14-7.30237E-13
 -1        71 1.99955E+01-1.36709E-03-2.26966E-03 7.90850E-04 6.32377E-15-1.19496E-12
 -1        72 1.99905E+01-3.11880E-04 5.30778E-04 2.71070E-03-1.02238E-14-8.07085E-13
 -1        73 2.10317E+01-4.04970E-01-9.80336E-01-3.11410E-01 2.26728E-14 2.19774E-12
 -1        74 1.93206E+01-6.65871E-02-2.90754E-01-5.38036E-02 2.16099E-14 1.71961E-12
 -1        75 1.86768E+01-2.12576E-02-6.37113E-02-2.09604E-02 9.56711E-15 1.38452E-12
 -1        76 1.84750E+01-1.05197E-02-9.10372E-03-1.59768E-02 1.47966E-14 1.17531E-12
 -1        77 1.84867E+01-5.44360E-03 5.38771E-04-1.25982E-02-2.12065E-15 1.05725E-12
 -1        78 1.86015E+01-2.71044E-03 1.60365E-03-1.00486E-02 3.52412E-15 9.53558E-13
 -1        79 1.87634E+01-1.19457E-03 1.76073E-03-8.15272E-03-1.84252E-14 9.69500E-13
 -1        80 1.89419E+01-3.44107E-04 1.89223E-03-6.63236E-03 1.17460E-14 8.13648E-13
 -1        81 1.91202E+01 1.10379E-04 1.92704E-03-5.35539E-03-3.28952E-15 6.40205E-13
 -1        82 1.92898E+01 3.18242E-04 1.80752E-03-4.27551E-03 3.10039E-14 4.42653E-13
 -1        83 1.94473E+01 3.73748E-04 1.55141E-03-3.38220E-03 1.18182E-14 3.27861E-13
 -1        84 1.95924E+01 3.44359E-04 1.20692E-03-2.68113E-03-2.52575E-14 3.98372E-13
 -1        85 1.97271E+01 2.85457E-04 8.31082E-04-2.18718E-03 3.16854E-14 3.87658E-13
 -1        86 1.98540E+01 2.49208E-04 4.89070E-04-1.92127E-03-1.40353E-14 3.32113E-13
 -1        87 1.99758E+01 2.89988E-04 2.61549E-04-1.90624E-03 2.58485E-15 1.42640E-13
 -1        88 2.00938E+01 4.66544E-04 2.53155E-04-2.15847E-03-2.52966E-14 7.58435E-14
 -1        89 2.02070E+01 8.39477E-04 5.97364E-04-2.67168E-03-1.85127E-14 1.35523E-13
 -1        90 2.03101E+01 1.46139E-03 1.45109E-03-3.39027E-03 2.97298E-14-4.84638E-14
 -1        91 2.03921E+01 2.35654E-03 2.96881E-03-4.17120E-03-2.91597E-14-1.40675E-13
 -1        92 2.04351E+01 3.48790E-03 5.24332E-03-4.73961E-03-5.51127E-16 1.14519E-13
 -1        93 2.04127E+01 4.71456E-03 8.20289E-03-4.65553E-03 5.18518E-14 3.59677E-13
 -1        94 2.02925E+01 5.75249E-03 1.14714E-02-3.32740E-03-3.92896E-14 2.81281E-13
 -1        95 2.00398E+01 6.16824E-03 1.42371E-02-1.26447E-04 8.39389E-15 2.54057E-13
 -1        96 1.96267E+01 5.44931E-03 1.52367E-02 5.34774E-03 4.00686E-14 1.14480E-13
 -1        97 1.90460E+01 3.18629E-03 1.30060E-02 1.28622E-02 1.19635E-14 2.27847E-13
 -1        98 1.83253E+01-6.52978E-04 6.49472E-03 2.11607E-02-4.93095E-15 2.18783E-13
 -1        99 1.75376E+01-5.48073E-03-4.08003E-03 2.79067E-02 4.93704E-15-1.80828E-14
 -1       100 1.67977E+01-1.00883E-02-1.66220E-02 3.03010E-02 1.67828E-14 1.85407E-14
 -1       101 1.62404E+01-1.30323E-02-2.74494E-02 2.63559E-02 2.17398E-14-1.49355E-13
 -1       102 1.59817E+01-1.32777E-02-3.27384E-02 1.61777E-02-1.03094E-14-2.21916E-13
 -1       103 1.60791E+01-1.07245E-02-3.04307E-02 2.30945E-03-6.66626E-14-1.20084E-13
 -1       104 1.65104E+01-6.25934E-03-2.14050E-02-1.12823E-02-2.04264E-14 1.22464E-13
 -1       105 1.71821E+01-1.28654E-03-8.96613E-03-2.10487E-02 3.21260E-14 1.47408E-13
 -1       106 1.79628E+01 2.90421E-03 2.89247E-03-2.52908E-02 1.02083E-14 1.18676E-13
 -1       107 1.87250E+01 5.57438E-03 1.12904E-02-2.44040E-02-9.78673E-14-1.94705E-14
 -1       108 1.93752E+01 6.61420E-03 1.52349E-02-2.01149E-02-3.36840E-15-4.55670E-13
 -1       109 1.98662E+01 6.35746E-03 1.53432E-02-1.44390E-02 2.68883E-14-6.56108E-13
 -1       110 2.01915E+01 5.31268E-03 1.30124E-02-8.94340E-03-8.67072E-14-6.36501E-13
 -1       111 2.03719E+01 3.95514E-03 9.66240E-03-4.49667E-03 3.59890E-14-5.46823E-13
 -1       112 2.04408E+01 2.62315E-03 6.32386E-03-1.36369E-03 6.30568E-14-1.01220E-12
 -1       113 2.04337E+01 1.50192E-03 3.55307E-03 5.68919E-04-4.21770E-14-8.14555E-13
 -1       114 2.03809E+01 6.54649E-04 1.52829E-03 1.58107E-03 2.10015E-14-1.41166E-13
 -1       115 2.03061E+01 6.70862E-05 1.95847E-04 1.97742E-03-9.72791E-14-8.75533E-14
 -1       116 2.02253E+01-3.13684E-04-6.09195E-04 2.01489E-03 6.20131E-14-3.31676E-13
 -1       117 2.01491E+01-5.50834E-04-1.08994E-03 1.87401E-03 7.14185E-14-5.51419E-13
 -1       118 2.00838E+01-6.97174E-04-1.44729E-03 1.64358E-03-1.01803E-13-8.93791E-13
 -1       119 2.00340E+01-7.58399E-04-1.81087E-03 1.30793E-03-4.90046E-14-4.37197E-13
 -1       120 2.00035E+01-6.29696E-04-1.84921E-03 5.71730E-04 5.57515E-14-5.24693E-13
 -1       121 1.99955E+01 7.09709E-04 1.90520E-04-1.11040E-03 2.51731E-13-1.11464E-12
 -1       122 1.99998E+01-3.58578E-03 1.19176E-04-1.68884E-03-1.13437E-12 1.63468E-13
 -1       123 1.99989E+01 4.84606E-03-1.75767E-03-1.03079E-04-9.44959E-13 1.71875E-14
 -1       124 1.99990E+01 3.46531E-02-1.44467E-03 9.96370E-04-3.86733E-13 1.35100E-13
 -1       125 1.99994E+01 7.87262E-02-6.93076E-04 1.43130E-03-6.88591E-13 8.45861E-14
 -1       126 1.99998E+01 1.29618E-01 8.50152E-06 1.58438E-03-6.44576E-13-1.76067E-13
 -1       127 2.00003E+01 1.79210E-01 6.65735E-04 1.48819E-03-1.06234E-12-8.69999E-14
 -1       128 2.00007E+01 2.21846E-01 1.26751E-03 1.14998E-03-2.91878E-13 2.80740E-13
 -1       129 2.00011E+01 2.49882E-01 1.75580E-03 5.85290E-04-7.28578E-13-1.64314E-13
 -1       130 2.00012E+01 2.57881E-01 2.02866E-03-1.61472E-04-7.11624E-13 1.20834E-13
 -1       131 2.00012E+01 2.42899E-01 1.97293E-03-9.91954E-04-1.17717E-13-2.60264E-13
 -1       132 2.00008E+01 2.05682E-01 1.49015E-03-1.76936E-03-1.58001E-13-2.73933E-13
 -1       133 2.00003E+01 1.52405E-01 5.84408E-04-2.21093E-03-2.65881E-13 2.59008E-13
 -1       134 1.99996E+01 9.08875E-02-7.15211E-04-2.18107E-03 1.85253E-13-1.62670E-13
 -1       135 1.99989E+01 3.50205E-02-2.05463E-03-1.38845E-03 1.02902E-12-4.10053E-14
 -1       136 1.99990E+01-1.52854E-03-2.43419E-03 7.20435E-04 9.73030E-13-1.31173E-13
 -1       137 1.99991E+01-9.82347E-03 7.16651E-06 2.99155E-03 8.96230E-13 1.57468E-13
 -1       138-1.34360E+00-1.93740E+01-2.96132E+00-3.85330E+00 1.29924E-12 4.37962E-13
 -1       139-8.68040E-01-5.70307E+00-1.93995E+00-1.78464E+00 1.57713E-12 7.63195E-13
 -1       140 5.83920E+00 6.79430E+00-5.99194E-01 6.56598E+00 1.14941E-12 7.73215E-13
 -1       141 2.07042E+01 1.25658E+01 8.61045E-01 1.59990E+01 4.78562E-13 6.36102E-13
 -1       142 4.28630E+01 9.90755E+00 2.25001E+00 1.99477E+01-5.37903E-14-2.58571E-13
 -1       143 6.09566E+01 4.12034E+00 3.13871E+00 1.40538E+01-3.11001E-13-1.21769E-12
 -1       144 6.91683E+01 1.13785E+00 3.50974E+00 5.85994E-01 4.69208E-14-1.61698E-12
 -1       145 6.30679E+01 3.41285E+00 3.25929E+00-1.24468E+01 4.11667E-13-1.71865E-12
 -1       146 4.53870E+01 9.14932E+00 2.39299E+00-1.96450E+01 1.02604E-12-2.04281E-12
 -1       147 2.52589E+01 1.25686E+01 1.18135E+00-1.75433E+01 1.35647E-12-1.84469E-12
 -1       148 9.16679E+00 9.21333E+00-1.99997E-01-9.28173E+00 1.52622E-12-1.32921E-12
 -1       149 5.25532E-01-9.67723E-01-1.51469E+00-5.01756E-01 1.25538E-12-7.40352E-13
 -1       150-1.60235E+00-1.50052E+01-2.65219E+00 3.94920E+00 9.12548E-13-2.69854E-13
 -1       151-7.87215E-01-2.50920E+01-3.32234E+00 1.90386E+00-8.21843E-14-4.84560E-14
 -1       152-1.11811E+00-2.68589E+01-3.57259E+00-3.22011E+00-1.17586E-12-1.76963E-13
 -1       153-2.16101E+00-6.82628E+00-2.71135E+00-3.27317E+00-1.38300E-12-8.71636E-13
 -1       154 6.18617E+00 5.01685E+00-1.41698E+00 5.91684E+00-1.64613E-12-1.65290E-12
 -1       155 2.66200E+01 1.03383E+01 7.15624E-01 1.64256E+01-1.51934E-12-2.14040E-12
 -1       156 5.34525E+01 7.94310E+00 3.18464E+00 1.96898E+01-5.43066E-13-1.52678E-12
 -1       157 7.69722E+01 2.82694E+00 5.38379E+00 1.09330E+01-7.87963E-14-7.18980E-13
 -1       158 8.14764E+01 1.69231E+00 5.82208E+00-4.89848E+00-1.77657E-13 6.89726E-13
 -1       159 6.55759E+01 5.57892E+00 4.33554E+00-1.72553E+01-2.60736E-13 1.26033E-12
 -1       160 3.80171E+01 9.86923E+00 1.78503E+00-1.88359E+01-6.82010E-13 1.26221E-12
 -1       161 1.46278E+01 8.60727E+00-4.80881E-01-1.13254E+01-9.48353E-13 1.12133E-12
 -1       162 9.64051E-01-6.59899E-01-2.14314E+00-9.14963E-01-1.04483E-12 9.32421E-13
 -1       163-3.04374E+00-1.37389E+01-3.10321E+00 5.57351E+00-7.89480E-13 3.77948E-13
 -1       164-1.82996E+00-2.45912E+01-3.55242E+00 5.07320E+00 4.16917E-13 1.20844E-13
 -1       165 2.10052E+01 3.70111E+00-5.20756E-02-3.62347E+00-2.96554E-13 9.52016E-14
 -1       166 1.99878E+01 4.20930E+00-4.55405E-02-2.80965E+00-2.66239E-13-2.12282E-13
 -1       167 1.95108E+01 4.47636E+00-3.13060E-02-2.19681E+00-2.07916E-13-4.01066E-13
 -1       168 1.92703E+01 4.61548E+00-2.34960E-02-1.67509E+00-1.53515E-13-4.69140E-13
 -1       169 1.91412E+01 4.69777E+00-1.95308E-02-1.21922E+00-1.04111E-13-4.91170E-13
 -1       170 1.90683E+01 4.74928E+00-1.74269E-02-7.92090E-01-5.07014E-14-4.86427E-13
 -1       171 1.90315E+01 4.77751E+00-1.64115E-02-3.86920E-01 8.59209E-15-4.69401E-13
 -1       172 1.90207E+01 4.78619E+00-1.61179E-02 8.11624E-03 6.69793E-14-4.59278E-13
 -1       173 1.90330E+01 4.77630E+00-1.64500E-02 4.03459E-01 1.03172E-13-4.41889E-13
 -1       174 1.90715E+01 4.74647E+00-1.75029E-02 8.09594E-01 1.48705E-13-4.09770E-13
 -1       175 1.91450E+01 4.69362E+00-1.96684E-02 1.23107E+00 1.93533E-13-3.63404E-13
 -1       176 1.92789E+01 4.60611E+00-2.39689E-02 1.69773E+00 2.51230E-13-2.85006E-13
 -1       177 1.95242E+01 4.45968E+00-3.26002E-02 2.22523E+00 2.92704E-13-1.53459E-13
 -1       178 2.00100E+01 4.18356E+00-4.71522E-02 2.84742E+00 3.23635E-13 8.99315E-14
 -1       179 2.11289E+01 3.46283E+00-6.00493E-02 3.53568E+00 2.99821E-13 5.14519E-13
 -1       180 2.24107E+01 1.14343E+00-3.36477E-01 3.01429E+00 2.16120E-13 1.04426E-12
 -1       181 2.20268E+01 9.23568E-01-6.76623E-04-2.03522E+00-2.40818E-13 4.82135E-13
 -1       182 2.04879E+01 2.08765E-01-1.11218E-02-8.02050E-01-2.25833E-13 3.63001E-13
 -1       183 1.96892E+01 1.05659E-01 1.32239E-02-3.01224E-01-1.73041E-13 2.68133E-13
 -1       184 1.93359E+01 4.90902E-02 1.01928E-02-7.52578E-02-1.45549E-13 1.42900E-13
 -1       185 1.91998E+01 2.37275E-02 5.34277E-03 3.64438E-02-1.17808E-13 5.29921E-14
 -1       186 1.91845E+01 1.04598E-02 2.56077E-03 9.21212E-02-8.68208E-14-2.95145E-14
 -1       187 1.92349E+01 3.09816E-03 1.23372E-03 1.17266E-01-9.66364E-14-7.35354E-14
 -1       188 1.93194E+01-9.06478E-04 6.05164E-04 1.25292E-01-5.57187E-14-1.22257E-13
 -1       189 1.94199E+01-2.78701E-03 2.97313E-04 1.24148E-01-4.80697E-14-1.33750E-13
 -1       190 1.95264E+01-3.20310E-03 1.58456E-04 1.19013E-01-5.17070E-14-1.99422E-13
 -1       191 1.96345E+01-2.51063E-03 1.29592E-04 1.13575E-01-2.09526E-14-2.44423E-13
 -1       192 1.97438E+01-8.62254E-04 1.88185E-04 1.10753E-01-1.62578E-15-2.49603E-13
 -1       193 1.98569E+01 1.76360E-03 3.29842E-04 1.13223E-01-4.15437E-14-3.06097E-13
 -1       194 1.99797E+01 5.57521E-03 5.63577E-04 1.23896E-01-1.13459E-13-3.39669E-13
 -1       195 2.01215E+01 1.10144E-02 9.11067E-04 1.46450E-01-4.76027E-14-2.72535E-13
 -1       196 2.02953E+01 1.88392E-02 1.40557E-03 1.86001E-01 3.50184E-14-2.16071E-13
 -1       197 2.05198E+01 3.02412E-02 2.08512E-03 2.49981E-01 5.38470E-14-2.16992E-13
 -1       198 2.08208E+01 4.69730E-02 2.96816E-03 3.49253E-01 9.16595E-14-1.10562E-13
 -1       199 2.12335E+01 7.13810E-02 3.98853E-03 4.99304E-01-4.59854E-14-5.19952E-14
 -1       200 2.18049E+01 1.06008E-01 4.85965E-03 7.20826E-01-1.08197E-13-1.00689E-13
 -1       201 2.25932E+01 1.51831E-01 4.88939E-03 1.03755E+00-3.71413E-14-1.96104E-13
 -1       202 2.36630E+01 2.02756E-01 2.99959E-03 1.46568E+00 1.37787E-13-2.59320E-13
 -1       203 2.50682E+01 2.31352E-01-1.25006E-03 1.98205E+00-1.86955E-14-3.07364E-13
 -1       204 2.68167E+01 1.60198E-01-4.72018E-03 2.44846E+00 7.29832E-14-1.43913E-13
 -1       205 2.88169E+01-1.67316E-01 1.73919E-03 2.48031E+00 1.92567E-13-1.89794E-13
 -1       206 3.08091E+01-9.07985E-01 2.10483E-02 1.36638E+00 1.91515E-13 1.53905E-13
 -1       207 3.22650E+01-1.72304E+00 1.67662E-02-1.33369E+00 4.56440E-14 2.21041E-13
 -1       208 3.26723E+01-1.45239E+00-1.31761E-01-4.76537E+00-2.30926E-13 2.45652E-13
 -1       209 3.17370E+01 8.21500E-01-2.22858E-01-5.24482E+00-5.10356E-13 1.05719E-13
 -1       210 3.09254E+01 2.98768E+00-2.69328E-01-1.80605E+00-5.25413E-13-4.42054E-14
 -1       211 3.11330E+01-9.73918E-02-2.10239E-01 5.02516E+00 2.01998E-13-6.09564E-13
 -1       212 3.26114E+01-1.39392E+00 2.72684E-03 3.11586E+00 4.29613E-14-5.95114E-13
 -1       213 3.22544E+01-1.04247E+00 5.78580E-02-8.53875E-02 1.64598E-13-4.91153E-13
 -1       214 3.05534E+01-3.53084E-01 2.25832E-02-1.87927E+00 1.07490E-13-7.54384E-13
 -1       215 2.83809E+01 3.80421E-02-5.03620E-03-2.26696E+00-7.66648E-14-3.31048E-13
 -1       216 2.63033E+01 1.63705E-01-9.32034E-03-1.97374E+00 2.07766E-13-1.12656E-13
 -1       217 2.45721E+01 1.66275E-01-4.45493E-03-1.50459E+00 1.57072E-13-2.41065E-13
 -1       218 2.32386E+01 1.31311E-01 1.15913E-05-1.07631E+00-1.20555E-13-1.92967E-13
 -1       219 2.22576E+01 9.40085E-02 2.15271E-03-7.46615E-01-1.08297E-13-1.35755E-13
 -1       220 2.15548E+01 6.43785E-02 2.61915E-03-5.11015E-01-4.17483E-15-5.40347E-13
 -1       221 2.10583E+01 4.32378E-02 2.33196E-03-3.48471E-01 4.83357E-14-2.86110E-13
 -1       222 2.07096E+01 2.88843E-02 1.84148E-03-2.38012E-01 2.57756E-13 1.76757E-13
 -1       223 2.04652E+01 1.94071E-02 1.37951E-03-1.63116E-01-1.97544E-13-5.74441E-14
 -1       224 2.02943E+01 1.33131E-02 1.00838E-03-1.11816E-01-1.58194E-13-6.86193E-13
 -1       225 2.01754E+01 9.58539E-03 7.11692E-04-7.56518E-02-8.14958E-14-5.28780E-13
 -1       226 2.00947E+01 7.58790E-03 4.51578E-04-4.85929E-02-1.83020E-13-5.87125E-13
 -1       227 2.00428E+01 6.78804E-03 2.42206E-04-2.64290E-02-3.17115E-13-5.43107E-13
 -1       228 2.00137E+01 6.00268E-03 3.67749E-04-7.72520E-03 1.48687E-13-6.76896E-13
 -1       229 2.00035E+01 3.02952E-03 1.81951E-04 6.99128E-04 4.24284E-13-3.77289E-13
 -1       230 2.09559E+01 2.77994E-01-5.08006E-02 1.16512E+00 2.32352E-13 9.11491E-13
 -1       231 1.98666E+01 1.30625E-01 1.00238E-02 4.46865E-01 1.68551E-13 7.47414E-13
 -1       232 1.93623E+01 5.64434E-02 1.34314E-02 1.48521E-01 1.08690E-13 6.20768E-13
 -1       233 1.91512E+01 2.28201E-02 7.35468E-03 6.01992E-03 6.21382E-14 5.36178E-13
 -1       234 1.91009E+01 1.01982E-02 3.60943E-03-6.33654E-02 4.49868E-14 4.93972E-13
 -1       235 1.91387E+01 3.67154E-03 1.76473E-03-9.62474E-02 4.48473E-14 3.96384E-13
 -1       236 1.92226E+01 1.05904E-04 9.12277E-04-1.09213E-01 6.85857E-14 3.34338E-13
 -1       237 1.93283E+01-1.74955E-03 4.86386E-04-1.11095E-01 8.57707E-14 2.96423E-13
 -1       238 1.94419E+01-2.52240E-03 2.50600E-04-1.07213E-01 8.40442E-14 2.41224E-13
 -1       239 1.95558E+01-2.59647E-03 1.10870E-04-1.00937E-01 5.78631E-14 2.43771E-13
 -1       240 1.96666E+01-2.24091E-03 2.51366E-05-9.43963E-02 8.54778E-15 1.41925E-13
 -1       241 1.97732E+01-1.67328E-03-3.09051E-05-8.88230E-02 3.10371E-14 7.02446E-14
 -1       242 1.98760E+01-1.09857E-03-7.46018E-05-8.46947E-02 5.45596E-14 5.31215E-14
 -1       243 1.99754E+01-7.38859E-04-1.19430E-04-8.17541E-02 4.54145E-16 8.26687E-14
 -1       244 2.00716E+01-8.55788E-04-1.75352E-04-7.89402E-02 3.92088E-14 1.60840E-13
 -1       245 2.01628E+01-1.76102E-03-2.47630E-04-7.42686E-02 1.00572E-14 5.31058E-14
 -1       246 2.02446E+01-3.80289E-03-3.34494E-04-6.47194E-02 8.66375E-14 2.31554E-14
 -1       247 2.03087E+01-7.31014E-03-4.24376E-04-4.62412E-02 8.45970E-15-3.82420E-15
 -1       248 2.03421E+01-1.24686E-02-4.94416E-04-1.40365E-02-1.43365E-13 4.58733E-14
 -1       249 2.03269E+01-1.91125E-02-5.13079E-04 3.66407E-02-4.37869E-14 8.01597E-14
 -1       250 2.02416E+01-2.64417E-02-4.49798E-04 1.08947E-01-2.55153E-14 1.34651E-13
 -1       251 2.00639E+01-3.27487E-02-2.93152E-04 2.02093E-01 5.56393E-14 1.76461E-13
 -1       252 1.97768E+01-3.53572E-02-7.13903E-05 3.08516E-01 1.03029E-13 1.22076E-13
 -1       253 1.93771E+01-3.10730E-02 1.41805E-04 4.11689E-01-7.46131E-14 3.97651E-14
 -1       254 1.88841E+01-1.73997E-02 2.52457E-04 4.86466E-01 6.44097E-14 1.80086E-14
 -1       255 1.83459E+01 5.64600E-03 2.11155E-04 5.04009E-01 1.15036E-13-1.15510E-13
 -1       256 1.78374E+01 3.40042E-02 7.25410E-05 4.41770E-01-4.63171E-16-3.62646E-14
 -1       257 1.74468E+01 5.98077E-02-2.71353E-06 2.95486E-01 2.82760E-16 2.41794E-14
 -1       258 1.72517E+01 7.42448E-02 1.43414E-04 8.65433E-02 1.92264E-14 8.05503E-14
 -1       259 1.72938E+01 7.18641E-02 5.38190E-04-1.41610E-01-5.17756E-14 7.11847E-14
 -1       260 1.75636E+01 5.35923E-02 1.00444E-03-3.38316E-01-5.05852E-14-3.20677E-14
 -1       261 1.80044E+01 2.62442E-02 1.28846E-03-4.64628E-01 4.12146E-14 8.90303E-15
 -1       262 1.85317E+01-1.22283E-03 1.21492E-03-5.05812E-01 1.02641E-13-8.02743E-14
 -1       263 1.90604E+01-2.18522E-02 8.04889E-04-4.71748E-01 6.86419E-15-2.24656E-13
 -1       264 1.95244E+01-3.27744E-02 2.24794E-04-3.87698E-01 1.99900E-13-1.52588E-13
 -1       265 1.98865E+01-3.48243E-02-3.20546E-04-2.82366E-01 2.66519E-14-3.14745E-13
 -1       266 2.01365E+01-3.08310E-02-6.93603E-04-1.79074E-01-9.29325E-14-5.05108E-13
 -1       267 2.02840E+01-2.39128E-02-8.52606E-04-9.21170E-02 2.83615E-14-5.39289E-13
 -1       268 2.03489E+01-1.64836E-02-8.30077E-04-2.72537E-02 1.48068E-13-2.40463E-13
 -1       269 2.03544E+01-9.96987E-03-6.92055E-04 1.57877E-02-1.48963E-13-2.48205E-13
 -1       270 2.03221E+01-4.95305E-03-5.04517E-04 4.05279E-02-2.90397E-13-3.36062E-13
 -1       271 2.02692E+01-1.45645E-03-3.16124E-04 5.15597E-02 2.73392E-15-2.25627E-13
 -1       272 2.02087E+01 7.89301E-04-1.56239E-04 5.31984E-02 2.79795E-13-3.65123E-13
 -1       273 2.01493E+01 2.16689E-03-4.22099E-05 4.88197E-02 1.03350E-13-6.05430E-13
 -1       274 2.00966E+01 3.06732E-03 1.03734E-05 4.06553E-02-1.46231E-13-2.30765E-13
 -1       275 2.00543E+01 3.77427E-03-1.17322E-05 2.99232E-02-1.86393E-13-1.56523E-13
 -1       276 2.00242E+01 4.57668E-03-7.74711E-06 1.71120E-02 2.53666E-13-2.39609E-13
 -1       277 2.00066E+01 4.09357E-03 2.72705E-04 4.16900E-03 6.34095E-14-3.30078E-13
 -1       278 2.00060E+01 1.44485E-02 1.67125E-04 1.17861E-02-1.30990E-13 1.59907E-14
 -1       279 2.00051E+01 3.63971E-02 6.49746E-05 2.52746E-02-1.72293E-13 9.22689E-14
 -1       280 2.00030E+01 6.73259E-02 6.52322E-05 3.52689E-02-4.62264E-13-1.80975E-14
 -1       281 2.00008E+01 1.03945E-01 1.59050E-05 4.03048E-02-3.90411E-13-7.81284E-14
 -1       282 1.99985E+01 1.41566E-01-6.62271E-05 3.98147E-02-4.40678E-13-2.57208E-13
 -1       283 1.99963E+01 1.76707E-01-1.47542E-04 3.37096E-02-2.32200E-13 1.70469E-13
 -1       284 1.99943E+01 2.03783E-01-2.15885E-04 2.23414E-02-3.97054E-13-2.44058E-13
 -1       285 1.99930E+01 2.18477E-01-2.53970E-04 6.76821E-03-3.15934E-13-1.09069E-13
 -1       286 1.99925E+01 2.17767E-01-2.53163E-04-1.10794E-02-2.30015E-13 1.93923E-13
 -1       287 1.99934E+01 2.00731E-01-2.10328E-04-2.84002E-02-9.70432E-14 2.17109E-13
 -1       288 1.99957E+01 1.69833E-01-1.33585E-04-4.16196E-02 2.42073E-13-1.17738E-14
 -1       289 1.99992E+01 1.28592E-01-5.72633E-05-4.78786E-02 6.61573E-13 3.38574E-13
 -1       290 2.00036E+01 8.43881E-02-4.03741E-06-4.45397E-02 6.33317E-13 1.80277E-13
 -1       291 2.00074E+01 4.50522E-02 3.43929E-05-3.12081E-02 5.21392E-13-6.55088E-14
 -1       292 2.00072E+01 1.92753E-02 2.13881E-05-1.34643E-02 6.81725E-13 2.77301E-14
 -1       293-7.82847E-01-1.16491E+01-1.00843E+00 2.31870E+00 3.54453E-13 3.53093E-13
 -1       294 3.62445E+00-8.18275E+00-7.36075E-01 4.55557E+00 5.03764E-13 1.75304E-13
 -1       295 1.32578E+01-4.43399E+00-2.32396E-01 7.49589E+00 1.05915E-13-2.34646E-13
 -1       296 2.20488E+01 3.91608E-01 2.98668E-02 8.28220E+00 1.36224E-13-2.26652E-13
 -1       297 3.31078E+01 4.36356E+00 4.88970E-01 8.70555E+00 1.02821E-13-6.05960E-13
 -1       298 4.28416E+01 6.18448E+00 8.13185E-01 6.64958E+00 8.24132E-14-6.79290E-13
 -1       299 4.52680E+01 7.70153E+00 6.46303E-01 1.76642E+00 1.86628E-13-7.64611E-13
 -1       300 4.63031E+01 7.62157E+00 7.26562E-01-1.61453E+00 2.06252E-13-8.40876E-13
 -1       301 4.33609E+01 6.36217E+00 7.80747E-01-5.68185E+00 4.58189E-13-9.26287E-13
 -1       302 3.49562E+01 4.67580E+00 5.39876E-01-8.42248E+00 4.99670E-13-9.42135E-13
 -1       303 2.47758E+01 1.38125E+00 1.26580E-01-8.39169E+00 5.30714E-13-7.81958E-13
 -1       304 1.56623E+01-2.98032E+00-1.85745E-01-7.63420E+00 2.79415E-13-6.78929E-13
 -1       305 6.22576E+00-6.61137E+00-5.66548E-01-5.58726E+00 3.51358E-13-4.02638E-13
 -1       306 4.59806E-01-1.05597E+01-9.06563E-01-3.11047E+00 8.22953E-14-5.03611E-13
 -1       307-1.65777E+00-1.24251E+01-1.04943E+00-1.23936E+00-2.80498E-13-5.16698E-13
 -1       308-3.33582E-01-1.13507E+01-9.84786E-01 9.44609E-01-4.09964E-13-2.55435E-13
 -1       309 4.39763E+00-9.23669E+00-9.78129E-01 2.92644E+00-6.88782E-13-4.44924E-13
 -1       310 1.35198E+01-5.57146E+00-6.96702E-01 5.18341E+00-5.68934E-13-9.64950E-13
 -1       311 2.64440E+01-1.73360E+00-1.54164E-01 6.30801E+00-6.56974E-13-9.42413E-13
 -1       312 4.01560E+01 1.80250E+00 6.05475E-01 5.31433E+00-9.23497E-13-6.85063E-13
 -1       313 5.07287E+01 5.05845E+00 1.35929E+00 2.93858E+00-5.74762E-13-2.38032E-13
 -1       314 5.31897E+01 7.53438E+00 1.56296E+00 2.22044E-01-5.64049E-13 1.03327E-13
 -1       315 5.31278E+01 6.42987E+00 1.58582E+00-1.66937E+00-2.91184E-13 1.81383E-13
 -1       316 4.48106E+01 2.85399E+00 8.29575E-01-2.94160E+00-2.34994E-13 2.40419E-13
 -1       317 3.28968E+01-1.93484E-01 1.69327E-01-6.12143E+00-3.59518E-13 4.71623E-13
 -1       318 1.96012E+01-3.75913E+00-4.62515E-01-5.93440E+00-1.54987E-13 3.28210E-13
 -1       319 1.01373E+01-7.51395E+00-6.04139E-01-4.97874E+00 1.58401E-13 2.07855E-13
 -1       320 1.55550E+00-1.04392E+01-9.49717E-01-2.06710E+00 2.19547E-13 5.01599E-13
 -1       321-1.51711E+00-1.18693E+01-9.90179E-01 3.41716E-01 2.40533E-13 3.14665E-13
 -1       322 2.95502E+01 1.75695E+00-3.53663E-01 3.36313E+00-2.57336E-13-5.44818E-13
 -1       323 2.01365E+01 2.99942E+00-2.20159E-02-2.09743E+00-2.68990E-13-2.27046E-13
 -1       324 2.07493E+01 2.20728E+00-1.79295E-02-2.36527E+00-2.93544E-13-2.17153E-14
 -1       325 1.95871E+01 3.69244E+00-1.56199E-02-1.31668E+00-1.63133E-13-3.61304E-13
 -1       326 1.94650E+01 3.85020E+00-1.37180E-02-9.23096E-01-1.00920E-13-3.66152E-13
 -1       327 1.93965E+01 3.94176E+00-1.27178E-02-5.43458E-01-2.62477E-14-3.39210E-13
 -1       328 1.93661E+01 3.98349E+00-1.22919E-02-1.73161E-01 5.19594E-14-3.32121E-13
 -1       329 1.93673E+01 3.98196E+00-1.23078E-02 1.94099E-01 1.13255E-13-3.32434E-13
 -1       330 1.94002E+01 3.93684E+00-1.27553E-02 5.64693E-01 1.60175E-13-3.09163E-13
 -1       331 1.94703E+01 3.84303E+00-1.37671E-02 9.38359E-01 2.07602E-13-2.78303E-13
 -1       332 1.95961E+01 3.67992E+00-1.56810E-02 1.33247E+00 2.54320E-13-2.25799E-13
 -1       333 1.98092E+01 3.41068E+00-1.90512E-02 1.73861E+00 3.21602E-13-1.18218E-13
 -1       334 2.01742E+01 2.95120E+00-2.32691E-02 2.12294E+00 3.48456E-13 3.48532E-14
 -1       335 2.07554E+01 2.10597E+00-2.94810E-02 2.30653E+00 3.49346E-13 3.05681E-13
 -1       336 2.10868E+01 1.18615E+00-2.41184E-02 1.91424E+00 3.06833E-13 5.49252E-13
 -1       337 2.03762E+01 4.93875E-01 7.81676E-03 9.24828E-01 2.41046E-13 4.53750E-13
 -1       338 3.81315E+01 5.85329E+00-3.10879E-02 1.41980E+00-4.69902E-13 8.90329E-14
 -1       339 2.04743E+01 7.02082E-01 1.18566E-02-1.06065E+00-2.43264E-13 2.74969E-14
 -1       340 2.00490E+01 3.48887E-01 7.26142E-03-4.77439E-01-2.13535E-13 4.73124E-15
 -1       341 1.97897E+01 1.83350E-01 4.23759E-03-1.58300E-01-1.70509E-13 6.58924E-15
 -1       342 1.96518E+01 9.54010E-02 1.98138E-03 1.97573E-02-1.52517E-13-3.25948E-14
 -1       343 1.95967E+01 4.58612E-02 8.59124E-04 1.16620E-01-1.13617E-13-5.87298E-14
 -1       344 1.95947E+01 1.74403E-02 3.40487E-04 1.65600E-01-8.87502E-14-4.62950E-14
 -1       345 1.96254E+01 1.83128E-03 9.77414E-05 1.86579E-01-5.64704E-14-5.22614E-14
 -1       346 1.96754E+01-5.34280E-03-7.95247E-06 1.92281E-01-5.08847E-14-4.81620E-14
 -1       347 1.97370E+01-6.50632E-03-3.01365E-05 1.91427E-01-7.09861E-14-4.87523E-14
 -1       348 1.98060E+01-2.94130E-03 1.07585E-05 1.90472E-01-6.80650E-14-8.83612E-14
 -1       349 1.98814E+01 4.88948E-03 1.09381E-04 1.94718E-01-3.53841E-14-1.99870E-13
 -1       350 1.99644E+01 1.72560E-02 2.71085E-04 2.09165E-01-8.06046E-14-1.81896E-13
 -1       351 2.00581E+01 3.52215E-02 5.12220E-04 2.39305E-01-4.71408E-14-1.95144E-13
 -1       352 2.01677E+01 6.08183E-02 8.62072E-04 2.91973E-01-1.34446E-14-1.77315E-13
 -1       353 2.02997E+01 9.73177E-02 1.36460E-03 3.76339E-01 7.49643E-14-1.38721E-13
 -1       354 2.04621E+01 1.49521E-01 2.07574E-03 5.05047E-01 8.42946E-14-8.79029E-14
 -1       355 2.06640E+01 2.23829E-01 3.04554E-03 6.95356E-01 4.49852E-14-1.54970E-13
 -1       356 2.09138E+01 3.27399E-01 4.26366E-03 9.69729E-01-8.52140E-15-8.78035E-14
 -1       357 2.12182E+01 4.64587E-01 5.54268E-03 1.35441E+00-1.18481E-13 1.56230E-14
 -1       358 2.15802E+01 6.26581E-01 6.38618E-03 1.87281E+00 4.02304E-14 1.38658E-13
 -1       359 2.20041E+01 7.65682E-01 6.14976E-03 2.52766E+00 5.36815E-14 6.08542E-14
 -1       360 2.25247E+01 7.40965E-01 5.45234E-03 3.26140E+00 5.26725E-14 1.11575E-13
 -1       361 2.32922E+01 2.39080E-01 9.12745E-03 3.87652E+00 2.04391E-13 1.43180E-14
 -1       362 2.47237E+01-1.22237E+00 2.23345E-02 3.92468E+00 2.96329E-13-1.64504E-14
 -1       363 2.73948E+01-3.59223E+00 4.18480E-02 2.72470E+00 2.60968E-13-2.09693E-14
 -1       364 3.16778E+01-4.99555E+00-4.38946E-02-7.75308E-02 4.31599E-15 5.98063E-14
 -1       365 3.84849E+01 4.26951E+00 1.75739E-02-3.31481E+00-6.43735E-13-1.71807E-14
 -1       366 2.24476E+01-4.67569E+00 8.07052E-03 7.03137E+00-2.45012E-13-6.42021E-13
 -1       367 3.04061E+01-4.07903E+00 1.21966E-02-4.61198E-01 9.06150E-14-4.35499E-13
 -1       368 2.70502E+01-2.04871E+00 2.41000E-02-2.97703E+00 1.09739E-13-3.05607E-13
 -1       369 2.49923E+01-3.04735E-01 1.00002E-02-3.70508E+00 3.18469E-13 9.30623E-14
 -1       370 2.37482E+01 4.70939E-01 3.16335E-03-3.40014E+00 7.51200E-14 1.05344E-13
 -1       371 2.28881E+01 6.48546E-01 5.10127E-03-2.73409E+00 2.08685E-14-1.08908E-13
 -1       372 2.22191E+01 5.77898E-01 6.43691E-03-2.05318E+00-9.91013E-14-3.37348E-13
 -1       373 2.16796E+01 4.44546E-01 6.32680E-03-1.48514E+00-8.95356E-15-2.99246E-13
 -1       374 2.12488E+01 3.19816E-01 5.26443E-03-1.05286E+00-2.63787E-13-3.17153E-13
 -1       375 2.09123E+01 2.22685E-01 3.97278E-03-7.39247E-01 1.18617E-13-3.02543E-13
 -1       376 2.06546E+01 1.52818E-01 2.84306E-03-5.17353E-01 3.39624E-13-4.25919E-13
 -1       377 2.04604E+01 1.04616E-01 1.98711E-03-3.62062E-01-3.04410E-14-3.83268E-13
 -1       378 2.03156E+01 7.22766E-02 1.38403E-03-2.53356E-01-5.05284E-13-2.69219E-13
 -1       379 2.02089E+01 5.12662E-02 9.76495E-04-1.76296E-01-2.00101E-13-4.65013E-13
 -1       380 2.01310E+01 3.83479E-02 6.89840E-04-1.19975E-01 8.26112E-14-6.09501E-13
 -1       381 2.00752E+01 3.12778E-02 5.52702E-04-7.66210E-02-1.25233E-13-4.95076E-13
 -1       382 2.00356E+01 2.66672E-02 3.71044E-04-4.13819E-02-2.28332E-13-9.23225E-14
 -1       383 1.98379E+01 2.26027E-01 6.88434E-03 2.73665E-01 1.45437E-13 2.86795E-13
 -1       384 1.96455E+01 1.13963E-01 3.32326E-03 4.47455E-02 1.08178E-13 2.20609E-13
 -1       385 1.95579E+01 5.72155E-02 1.51943E-03-7.93980E-02 1.27049E-13 1.53923E-13
 -1       386 1.95394E+01 2.48477E-02 6.45643E-04-1.44161E-01 9.69821E-14 9.58497E-14
 -1       387 1.95632E+01 6.43812E-03 2.27782E-04-1.74021E-01 9.66285E-14 6.36114E-14
 -1       388 1.96115E+01-3.42788E-03 2.27329E-05-1.83686E-01 9.47047E-14 6.77399E-14
 -1       389 1.96731E+01-7.83657E-03-7.43552E-05-1.82457E-01 8.40057E-14 1.32739E-13
 -1       390 1.97413E+01-8.77234E-03-1.10788E-04-1.76339E-01 9.69522E-14 1.39524E-13
 -1       391 1.98124E+01-7.68032E-03-1.14241E-04-1.69090E-01 5.12153E-14 1.07560E-13
 -1       392 1.98845E+01-5.76692E-03-1.05817E-04-1.62747E-01 3.32287E-14-5.17314E-15
 -1       393 1.99569E+01-4.19360E-03-1.04756E-04-1.57844E-01-5.29863E-14-9.91778E-15
 -1       394 2.00292E+01-4.21284E-03-1.30429E-04-1.53426E-01-3.97769E-14-7.98559E-14
 -1       395 2.01006E+01-7.24649E-03-2.02673E-04-1.46927E-01 3.97706E-14-6.95357E-14
 -1       396 2.01695E+01-1.48723E-02-3.40293E-04-1.34014E-01 2.54229E-14 2.06143E-14
 -1       397 2.02322E+01-2.86512E-02-5.56927E-04-1.08523E-01 9.18767E-14 4.36557E-14
 -1       398 2.02829E+01-4.97024E-02-8.53698E-04-6.27330E-02-7.29811E-14 6.36903E-14
 -1       399 2.03126E+01-7.79368E-02-1.20896E-03 1.17124E-02-1.75515E-13 3.63261E-14
 -1       400 2.03091E+01-1.10942E-01-1.56732E-03 1.21824E-01-1.00714E-13 1.31547E-13
 -1       401 2.02578E+01-1.42728E-01-1.83199E-03 2.69941E-01 7.94270E-15 4.45405E-14
 -1       402 2.01433E+01-1.62976E-01-1.87371E-03 4.49182E-01 2.45734E-14 1.85887E-13
 -1       403 1.99535E+01-1.57910E-01-1.56485E-03 6.38754E-01 3.49804E-14 1.93003E-13
 -1       404 1.96861E+01-1.14111E-01-8.31236E-04 8.01674E-01 9.20844E-14 6.08072E-14
 -1       405 1.93561E+01-2.56119E-02 2.82515E-04 8.88632E-01 1.83970E-13 1.72898E-15
 -1       406 1.90017E+01 9.80218E-02 1.59684E-03 8.51048E-01-2.60711E-14-1.10782E-14
 -1       407 1.86828E+01 2.28126E-01 2.81374E-03 6.62035E-01-1.34255E-13 9.27328E-14
 -1       408 1.84673E+01 3.24157E-01 3.63659E-03 3.36434E-01 3.26347E-14 1.33855E-13
 -1       409 1.84080E+01 3.51491E-01 3.85448E-03-6.43285E-02 3.85104E-14 1.68530E-13
 -1       410 1.85203E+01 2.99519E-01 3.39865E-03-4.50320E-01 1.69309E-15 1.92454E-13
 -1       411 1.87753E+01 1.88012E-01 2.38838E-03-7.37304E-01-6.58177E-14 6.27589E-14
 -1       412 1.91127E+01 5.58949E-02 1.06777E-03-8.77888E-01 1.21229E-13 7.66990E-14
 -1       413 1.94651E+01-5.86118E-02-2.31048E-04-8.72131E-01 1.17731E-13 6.63399E-14
 -1       414 1.97787E+01-1.32783E-01-1.24172E-03-7.56257E-01 4.86137E-14 2.77171E-14
 -1       415 2.00232E+01-1.62667E-01-1.81364E-03-5.81146E-01 2.00871E-13 3.01508E-14
 -1       416 2.01901E+01-1.57493E-01-1.96039E-03-3.93294E-01 1.85075E-13-5.55112E-14
 -1       417 2.02860E+01-1.31408E-01-1.79045E-03-2.24794E-01 6.12185E-14-5.19161E-13
 -1       418 2.03249E+01-9.73185E-02-1.44268E-03-9.18439E-02-6.72543E-14-4.88207E-13
 -1       419 2.03228E+01-6.41285E-02-1.03840E-03 1.84187E-03-2.37127E-14-1.96298E-13
 -1       420 2.02944E+01-3.65114E-02-6.60085E-04 6.01884E-02-1.41565E-13-2.25716E-13
 -1       421 2.02515E+01-1.59218E-02-3.49376E-04 9.05180E-02-1.35830E-13-5.43713E-13
 -1       422 2.02029E+01-1.85845E-03-1.16562E-04 1.00654E-01 2.75521E-13-6.60657E-13
 -1       423 2.01546E+01 7.10758E-03 4.50224E-05 9.73319E-02 5.27194E-14-4.51680E-13
 -1       424 2.01104E+01 1.26788E-02 1.48604E-04 8.55571E-02-1.13322E-13-2.96744E-13
 -1       425 2.00725E+01 1.63643E-02 2.16007E-04 6.86040E-02-2.56009E-13-3.76673E-13
 -1       426 2.00418E+01 1.88563E-02 2.60285E-04 4.87077E-02-9.50906E-14-4.00615E-13
 -1       427 2.00212E+01 1.83822E-02 1.99426E-04 2.95676E-02 1.65140E-13-1.91314E-13
 -1       428 2.00075E+01 8.50653E-02 7.44371E-05 6.85040E-02-2.96861E-13-1.75241E-13
 -1       429 2.00153E+01 5.42860E-02 1.64183E-04 5.75198E-02-8.24744E-14-2.06988E-14
 -1       430 1.99990E+01 1.17235E-01-1.57158E-05 7.19290E-02-2.78959E-13-3.04931E-13
 -1       431 1.99901E+01 1.49492E-01-1.00655E-04 6.62641E-02-1.13745E-13 1.54195E-13
 -1       432 1.99817E+01 1.77838E-01-1.79812E-04 5.13838E-02-2.85274E-13-1.23649E-13
 -1       433 1.99750E+01 1.98601E-01-2.37609E-04 2.82049E-02-4.73842E-13-3.22359E-13
 -1       434 1.99712E+01 2.08395E-01-2.62908E-04-9.32439E-04-4.74101E-13 3.83480E-13
 -1       435 1.99718E+01 2.04842E-01-2.44879E-04-3.21306E-02 1.29844E-14 4.69255E-14
 -1       436 1.99777E+01 1.87714E-01-1.80673E-04-5.97312E-02-1.13801E-13 2.68068E-13
 -1       437 1.99890E+01 1.57967E-01-8.22947E-05-7.90152E-02 2.85805E-13 8.22692E-13
 -1       438 2.00041E+01 1.19560E-01 3.25733E-05-8.46274E-02 4.73039E-13 1.78538E-13
 -1       439 2.00196E+01 7.81617E-02 1.54478E-04-7.39907E-02 2.56360E-13-5.88895E-14
 -1       440 2.00355E+01 3.29269E-01 1.05041E-02 5.36214E-01 1.92292E-13 3.57394E-13
 -1       441 1.14900E+01-5.09265E+00 7.48807E-03 8.14681E+00-2.47982E-13-5.29875E-13
 -1       442 2.96439E+01-1.89787E+00-4.17939E-04 4.20957E+00-6.27137E-14-6.52436E-13
 -1       443 5.09694E-01-5.01568E+00-1.03558E-01 1.87524E+00 1.23224E-13 7.00551E-14
 -1       444 3.68543E+01 2.11726E+00-9.38426E-02 4.72004E+00-2.16244E-13 1.54737E-14
 -1       445 1.97926E+01 3.43317E+00-1.87200E-02-1.71952E+00-2.32278E-13-3.27229E-13
 -1       446 3.47517E+01-3.26180E+00-7.30885E-02 3.05497E+00 7.47839E-14-2.08181E-13
 -1       447 3.47822E+01 2.88757E+00 5.48669E-02 2.09114E+00 1.47223E-13-3.63570E-13
 -1       448 3.67918E+01 6.60083E+00 3.07056E-02 3.28439E-01 1.67991E-13-3.69135E-13
 -1       449 3.71533E+01 8.89844E+00-3.74336E-03 5.83840E-02 1.36613E-13-2.35952E-13
 -1       450 3.61985E+01 7.24063E+00-5.76724E-03 9.91094E-02 2.84911E-13-2.43930E-13
 -1       451 3.49405E+01 3.37392E+00 2.58637E-02-1.48186E+00 1.98744E-13-1.95316E-13
 -1       452 3.09332E+01-6.73428E-01 3.24606E-02-4.03217E+00 1.27676E-15-3.83277E-13
 -1       453 2.43790E+01-3.98713E+00 1.58042E-02-6.57953E+00-2.22017E-13-2.91211E-13
 -1       454 1.47223E+01-5.39856E+00-2.65925E-02-8.20187E+00-1.01280E-13-2.76250E-13
 -1       455 6.64030E+00-5.07650E+00-2.84505E-02-7.04781E+00-1.98550E-13-4.06009E-13
 -1       456 1.42863E+00-4.88548E+00-7.07101E-02-3.56113E+00-1.91056E-13-6.80733E-13
 -1       457 1.40572E+00-4.23210E+00-8.34727E-03 8.78661E-01-1.10741E-13-3.57270E-13
 -1       458 5.80656E+00-5.98858E+00-1.35772E-01 4.78703E+00-2.23849E-13-3.81958E-13
 -1       459 1.51880E+01-6.61340E+00-9.56640E-02 6.35568E+00-1.12271E-13-4.18346E-13
 -1       460 2.55891E+01-6.49071E+00-1.08840E-01 4.53534E+00-1.12493E-13-4.61353E-13
 -1       461 3.50711E+01-3.65774E+00 5.27436E-02 2.35357E-01-4.07341E-13-8.89566E-14
 -1       462 3.98961E+01 1.07001E+00 1.69231E-01-2.83563E+00-7.21659E-13 6.17839E-14
 -1       463 3.71997E+01-2.04623E+00-7.67446E-03 9.56703E-01-4.57741E-14 6.13121E-14
 -1       464 3.03062E+01-5.41625E+00-7.07695E-02-2.76313E+00-5.97855E-14 1.80994E-13
 -1       465 2.18602E+01-6.83289E+00-7.17813E-02-5.44918E+00 2.81719E-13 3.48645E-13
 -1       466 9.19033E+00-5.98854E+00-1.09722E-01-5.74678E+00 4.63296E-13-9.52849E-14
 -1       467 3.15313E+00-4.48408E+00-1.47360E-04-3.07010E+00 2.90497E-13 2.43860E-13
 -1       468 4.77079E+00-4.79266E+00-1.00276E-02 6.26444E+00-1.71460E-13 2.95597E-13
 -1       469 1.87357E+01-5.27367E+00 8.78040E-02 7.83219E+00-3.74159E-13-4.56470E-13
 -1       470 2.00296E+01 5.13641E-02 3.08991E-04-6.04012E-02-8.24898E-15-4.47531E-13
 -1       471 1.82964E+01-5.47571E+00 9.57163E-02-6.20462E+00 2.88491E-13 3.03334E-13
 -1       472 3.30151E+01 7.89884E+00-1.44517E-01-7.77602E-01 4.94466E-14-2.57870E-13
 -1       473 1.97376E+01 3.10729E+00-5.42452E-03-6.32737E-01-4.24539E-14-2.98952E-13
 -1       474 1.98333E+01 2.93290E+00-5.98918E-03-9.49172E-01-1.14537E-13-3.08597E-13
 -1       475 1.96701E+01 3.23101E+00-5.02529E-03 8.80218E-03 7.64612E-14-2.83261E-13
 -1       476 1.96882E+01 3.19795E+00-5.10500E-03 3.29743E-01 1.24222E-13-2.87375E-13
 -1       477 1.97415E+01 3.10070E+00-5.42002E-03 6.44536E-01 1.75802E-13-2.57037E-13
 -1       478 1.98393E+01 2.92218E+00-5.94035E-03 9.59594E-01 2.18339E-13-2.22310E-13
 -1       479 1.99942E+01 2.63517E+00-6.56109E-03 1.25441E+00 2.57346E-13-1.28224E-13
 -1       480 2.02227E+01 2.19499E+00-5.81262E-03 1.48841E+00 3.05723E-13-3.43395E-14
 -1       481 2.04760E+01 1.54649E+00-3.25273E-03 1.54124E+00 3.11079E-13 1.23486E-13
 -1       482 2.05296E+01 9.90896E-01 3.20273E-03 1.29708E+00 2.92254E-13 2.84541E-13
 -1       483 2.03499E+01 1.00248E+00 2.59630E-03-9.67749E-01-2.32483E-13-1.30659E-13
 -1       484 3.08552E+01-6.07453E-01-7.26103E-02 3.59848E-01 1.12889E-13-1.42004E-13
 -1       485 2.01801E+01 5.61268E-01 1.93904E-03-4.83546E-01-2.01941E-13-1.33597E-13
 -1       486 2.00324E+01 3.15911E-01 1.08497E-03-1.73440E-01-1.76461E-13-1.41510E-13
 -1       487 1.99318E+01 1.72036E-01 4.80501E-04 1.58443E-02-1.37958E-13-1.07081E-13
 -1       488 1.98748E+01 8.60704E-02 1.87266E-04 1.26151E-01-6.79021E-14-7.29163E-14
 -1       489 1.98512E+01 3.54529E-02 5.28023E-05 1.86148E-01-5.50143E-14-2.02338E-14
 -1       490 1.98512E+01 7.84484E-03-7.25054E-06 2.15526E-01-7.45399E-14-5.95116E-15
 -1       491 1.98674E+01-3.82070E-03-2.70564E-05 2.28088E-01-8.11257E-14-5.86883E-14
 -1       492 1.98946E+01-3.61256E-03-1.90338E-05 2.33895E-01-7.74503E-14-6.67728E-14
 -1       493 1.99295E+01 6.37397E-03 1.27941E-05 2.40719E-01-1.07172E-13-4.31310E-14
 -1       494 1.99702E+01 2.55945E-02 6.89116E-05 2.55119E-01-1.21693E-13-3.28442E-14
 -1       495 2.00157E+01 5.49687E-02 1.54095E-04 2.83328E-01-8.26636E-15-3.56287E-14
 -1       496 2.00651E+01 9.70146E-02 2.78228E-04 3.32061E-01-7.24865E-14-1.99405E-14
 -1       497 2.01168E+01 1.56140E-01 4.57552E-04 4.09315E-01 3.99795E-14-5.39300E-14
 -1       498 2.01671E+01 2.38995E-01 7.15305E-04 5.25161E-01 9.87091E-14-1.54820E-13
 -1       499 2.02086E+01 3.54618E-01 1.07867E-03 6.92424E-01 2.62376E-14-1.14779E-13
 -1       500 2.02272E+01 5.13705E-01 1.56505E-03 9.27018E-01 3.12278E-14-8.98692E-14
 -1       501 2.01984E+01 7.25382E-01 2.15181E-03 1.24745E+00-2.78857E-14-1.03046E-13
 -1       502 2.00854E+01 9.87932E-01 2.74589E-03 1.67285E+00-2.77949E-14-5.86068E-14
 -1       503 1.98410E+01 1.26697E+00 3.38283E-03 2.21934E+00 3.46750E-14-1.22462E-13
 -1       504 1.94273E+01 1.45042E+00 5.29878E-03 2.89841E+00 1.32787E-13-1.25578E-13
 -1       505 1.88894E+01 1.25991E+00 1.57253E-02 3.72416E+00 1.07011E-13-7.23935E-14
 -1       506 1.85273E+01 1.39840E-01 5.33454E-02 4.66682E+00 1.45550E-13-7.42705E-14
 -1       507 1.90216E+01-2.45240E+00 1.07342E-01 5.50484E+00 2.38042E-13-2.30899E-13
 -1       508 2.36227E+01-6.02913E+00 3.86524E-02 4.91567E+00 2.16077E-13-3.30096E-13
 -1       509 3.59809E+01-1.10355E+00-9.54821E-02-3.36340E+00-5.25031E-13 1.28939E-13
 -1       510 2.03883E+01 1.78379E+00-5.32553E-03-1.54048E+00-2.63308E-13-1.71676E-13
 -1       511 2.10042E+01-1.13933E+00 5.93457E-02-4.82717E+00 3.03672E-13 2.74392E-13
 -1       512 2.00859E+01 6.50495E-01 2.03443E-02-4.18526E+00 1.57257E-13 4.09716E-14
 -1       513 2.01894E+01 1.21451E+00 8.53335E-03-3.35456E+00-6.21678E-14 1.54415E-13
 -1       514 2.03706E+01 1.19472E+00 4.63240E-03-2.58539E+00-1.53880E-13 1.26102E-13
 -1       515 2.04752E+01 9.76961E-01 3.81823E-03-1.94014E+00-6.81164E-14-4.36958E-14
 -1       516 2.04918E+01 7.34947E-01 3.19121E-03-1.42862E+00-1.10559E-14-4.34857E-13
 -1       517 2.04510E+01 5.29570E-01 2.45464E-03-1.03899E+00-1.71301E-13-3.02553E-13
 -1       518 2.03828E+01 3.73231E-01 1.76965E-03-7.50261E-01 1.14637E-13-2.00557E-13
 -1       519 2.03075E+01 2.60670E-01 1.23304E-03-5.39816E-01 2.65256E-13-4.16724E-13
 -1       520 2.02362E+01 1.82315E-01 8.52072E-04-3.87530E-01-2.58312E-13-4.14944E-13
 -1       521 2.01739E+01 1.29223E-01 5.91851E-04-2.77112E-01-3.75179E-13-2.62063E-13
 -1       522 2.01221E+01 9.44872E-02 4.44196E-04-1.96100E-01-2.41737E-13-3.38859E-13
 -1       523 2.00796E+01 7.29767E-02 2.93016E-04-1.35244E-01-2.10461E-13-6.28702E-13
 -1       524 2.00531E+01 6.06357E-02 3.31308E-04-9.48905E-02 7.02293E-14-7.75906E-13
 -1       525 1.98577E+01 1.12929E-01 4.14531E-04-8.29492E-02 1.51393E-13 7.18136E-14
 -1       526 1.99361E+01 2.15778E-01 9.91341E-04 5.91176E-02 1.45672E-13 5.76709E-14
 -1       527 2.00671E+01 3.90008E-01 1.13852E-03 3.01276E-01 1.68109E-13 8.39856E-14
 -1       528 1.98208E+01 5.16671E-02 1.53708E-04-1.62251E-01 1.07049E-13 2.59032E-14
 -1       529 1.98134E+01 1.59785E-02 3.35836E-05-2.02229E-01 1.14182E-13 4.71865E-15
 -1       530 1.98259E+01-3.25481E-03-2.39352E-05-2.18557E-01 4.39256E-14 2.87049E-14
 -1       531 1.98512E+01-1.17513E-02-4.80960E-05-2.21815E-01 5.82144E-14-1.38766E-14
 -1       532 1.98847E+01-1.34737E-02-5.30528E-05-2.19039E-01 9.72130E-14 7.78298E-14
 -1       533 1.99237E+01-1.14888E-02-4.85319E-05-2.14627E-01 8.22956E-14 9.78290E-14
 -1       534 1.99668E+01-8.49517E-03-4.30260E-05-2.10828E-01 7.09998E-15 1.82117E-13
 -1       535 2.00135E+01-7.18564E-03-4.51184E-05-2.07929E-01 6.60139E-14 3.47360E-14
 -1       536 2.00641E+01-1.04909E-02-6.38708E-05-2.04231E-01 5.01478E-14-1.00972E-13
 -1       537 2.01189E+01-2.16723E-02-1.08746E-04-1.95885E-01-2.87157E-14-6.92187E-14
 -1       538 2.01781E+01-4.41661E-02-1.88501E-04-1.76726E-01 3.92090E-14-8.06737E-14
 -1       539 2.02413E+01-8.10144E-02-3.08707E-04-1.38263E-01-1.16505E-14 6.30467E-14
 -1       540 2.03066E+01-1.33684E-01-4.67431E-04-7.01726E-02-1.24556E-13 3.75576E-14
 -1       541 2.03695E+01-2.00128E-01-6.49464E-04 3.82802E-02-1.77356E-13-6.45320E-14
 -1       542 2.04219E+01-2.72203E-01-8.19776E-04 1.95336E-01-7.23890E-14 5.42513E-14
 -1       543 2.04504E+01-3.33155E-01-9.13696E-04 4.01911E-01-3.57203E-14 1.52245E-13
 -1       544 2.04366E+01-3.56938E-01-8.52317E-04 6.44989E-01 1.58117E-14 1.06552E-13
 -1       545 2.03601E+01-3.12204E-01-5.86700E-04 8.90904E-01 6.37495E-14 1.37336E-13
 -1       546 2.02070E+01-1.73670E-01-1.16625E-04 1.08273E+00 8.16647E-14 2.86316E-13
 -1       547 1.99821E+01 5.98441E-02 4.69619E-04 1.14822E+00 1.46087E-13 4.25442E-13
 -1       548 1.97212E+01 3.48737E-01 1.06315E-03 1.02319E+00-1.14354E-13 3.02664E-13
 -1       549 1.94908E+01 6.12333E-01 1.53248E-03 6.86626E-01-2.36101E-14 1.90539E-13
 -1       550 1.93652E+01 7.58329E-01 1.84074E-03 1.88685E-01 2.12208E-14 3.59524E-13
 -1       551 1.93898E+01 7.29667E-01 1.78879E-03-3.56432E-01-1.01821E-14 3.37525E-13
 -1       552 1.95557E+01 5.37587E-01 1.53116E-03-8.13351E-01 1.13652E-13 2.81354E-13
 -1       553 1.98041E+01 2.55970E-01 9.86125E-04-1.08482E+00 1.46815E-13 2.49913E-14
 -1       554 2.00597E+01-2.18679E-02 3.34036E-04-1.14514E+00 1.89290E-13 2.34367E-13
 -1       555 2.02647E+01-2.26947E-01-2.98156E-04-1.03268E+00 1.38749E-13 1.33799E-13
 -1       556 2.03938E+01-3.33459E-01-7.16088E-04-8.17713E-01 2.20862E-13 3.95357E-14
 -1       557 2.04497E+01-3.52239E-01-8.98993E-04-5.69612E-01 3.00845E-13-1.21036E-13
 -1       558 2.04499E+01-3.12137E-01-8.89430E-04-3.38362E-01 3.39125E-13-8.79378E-14
 -1       559 2.04150E+01-2.43556E-01-7.57823E-04-1.50770E-01-2.78501E-14-1.72802E-13
 -1       560 2.03620E+01-1.69660E-01-5.72480E-04-1.50028E-02-2.35598E-13-9.78304E-14
 -1       561 2.03030E+01-1.04185E-01-3.85021E-04 7.24479E-02-1.58219E-13 8.59837E-14
 -1       562 2.02452E+01-5.29206E-02-2.24353E-04 1.20619E-01 3.71833E-14-2.39465E-14
 -1       563 2.01925E+01-1.63929E-02-1.01023E-04 1.39864E-01 2.60832E-13-2.63844E-13
 -1       564 2.01463E+01 7.64913E-03-9.47546E-06 1.39489E-01-4.40931E-15-2.01107E-13
 -1       565 2.01070E+01 2.25664E-02 5.94643E-05 1.26829E-01-2.70460E-13-1.43975E-13
 -1       566 2.00742E+01 3.16863E-02 9.41247E-05 1.06954E-01-2.21642E-13-9.94234E-14
 -1       567 2.00467E+01 3.76235E-02 1.20407E-04 8.30715E-02 3.01738E-14-1.47006E-13
 -1       568 1.99890E+01 1.28830E-01-2.04515E-05 9.84175E-02-1.50407E-13 8.47347E-14
 -1       569 2.00068E+01 9.72075E-02 9.22375E-05 9.96147E-02-1.85412E-13-2.68613E-13
 -1       570 2.00228E+01 6.65644E-02 2.71122E-05 9.01576E-02-9.02166E-14-2.45628E-13
 -1       571 5.34151E+00-1.17332E+00 1.98865E-01 4.16434E+00-1.32932E-13 2.59986E-13
 -1       572 1.99708E+01 1.60303E-01-6.24200E-05 8.55092E-02-1.90906E-13-1.60813E-14
 -1       573 1.99542E+01 1.88077E-01-9.61781E-05 6.05184E-02-2.92519E-13-3.62817E-13
 -1       574 1.99422E+01 2.08336E-01-1.14422E-04 2.50364E-02-7.52115E-14 4.15186E-14
 -1       575 1.99378E+01 2.17312E-01-1.18601E-04-1.72194E-02 7.56678E-14 7.75677E-13
 -1       576 1.99436E+01 2.12310E-01-1.03746E-04-5.95690E-02 2.67815E-13-5.20343E-14
 -1       577 1.99609E+01 1.92053E-01-6.25809E-05-9.59916E-02 2.74811E-13 5.66262E-13
 -1       578 1.99882E+01 1.57935E-01-4.10793E-05-1.17988E-01 8.29946E-14 5.31320E-13
 -1       579 2.00205E+01 1.14177E-01 6.13915E-05-1.20162E-01-6.98385E-15 1.36341E-14
 -1       580 2.68247E+01-4.51562E+00-2.82303E-02 4.18194E+00-1.34170E-13-2.99247E-13
 -1       581 1.11427E+01-2.59193E+00 1.73938E-01 7.26962E+00-3.03264E-13-5.64396E-13
 -1       582 2.33893E+01-4.47258E+00 7.61858E-02-4.73607E+00 2.88165E-13 3.84963E-13
 -1       583 4.55863E+00-6.48737E-01 1.95658E-01-4.78299E-01-7.75569E-14 1.04083E-14
 -1       584 1.96857E+01 3.20212E+00-5.12777E-03-3.12214E-01 1.73653E-14-2.94097E-13
 -1       585 3.15439E+01 7.95497E+00-1.87711E-01 7.81703E-01 2.33549E-13-1.50921E-13
 -1       586 3.16722E+01 3.24116E+00-1.54031E-01-1.10992E+00 1.28703E-13-4.12330E-13
 -1       587 3.13777E+01 4.06633E+00-1.61218E-01 1.52486E+00 6.24986E-14-2.37241E-14
 -1       588 3.07087E+01-4.44436E-01-1.07157E-01-3.96412E-02-1.62530E-13 1.04042E-13
 -1       589 2.85732E+01-3.65409E+00-1.89493E-02-2.92269E+00-4.49602E-13-4.46448E-14
 -1       590 2.18845E+01-5.37817E+00 5.63822E-02-6.87552E+00-3.11681E-13-3.99264E-14
 -1       591 1.31453E+01-4.10512E+00 1.15357E-01-8.06688E+00-2.94348E-13-2.13461E-13
 -1       592 6.21495E+00-2.27196E+00 1.48874E-01-5.66333E+00-2.76772E-13-4.11504E-13
 -1       593 3.75282E+00-1.23125E+00 1.79882E-01-1.74814E+00-9.90336E-14-5.47631E-13
 -1       594 6.52335E+00-2.17541E+00 1.51068E-01 3.86861E+00 3.30985E-14-3.12472E-13
 -1       595 1.33052E+01-3.93873E+00 1.22118E-01 6.20906E+00 1.41775E-13-2.11817E-13
 -1       596 2.86357E+01-5.88922E+00-4.97361E-03-2.36551E+00 7.73340E-14 2.45151E-14
 -1       597 9.52153E+00-2.76363E+00 1.53782E-01-5.31405E+00 3.24143E-13 1.64507E-13
 -1       598 1.99814E+01 2.65450E+00-6.75363E-03-1.24255E+00-2.04857E-13-3.04020E-13
 -1       599 2.02638E+01 6.55124E-01 6.23687E-03 7.94842E-01 2.27803E-13 1.98255E-13
 -1       600 2.01615E+01 2.29571E+00-6.26190E-03-1.44036E+00-2.35517E-13-2.77988E-13
 -1       601 2.33992E+01-5.11809E+00 4.66670E-02 5.71391E+00-9.76753E-14-3.69314E-13
 -1       602 2.01380E+01 5.02465E-01 3.55486E-03 5.15526E-01 1.82793E-13 1.49155E-13
 -1       603 6.44417E+00 1.94456E-02 1.84858E-01 1.42130E+00 2.09902E-15-1.35308E-13
 -1       604 2.94546E+01 7.80632E+00-1.86461E-01-2.32986E-01 1.16920E-13-3.90736E-13
 -1       605 8.61429E+00 7.96837E-02 1.73404E-01-3.11033E+00-4.93008E-15 1.08802E-14
 -1       606 2.98310E+01 5.09594E+00-1.56812E-01-1.86947E+00 1.63758E-15-4.15237E-13
 -1       607 1.99639E+01 2.45564E+00-1.60480E-03 3.92667E-01 1.34041E-13-2.17889E-13
 -1       608 1.99325E+01 2.53092E+00-1.51411E-03 1.35357E-01 8.99221E-14-2.66760E-13
 -1       609 2.01220E+01 2.05078E+00-1.78897E-03 8.48156E-01 2.18842E-13-1.47799E-13
 -1       610 2.02419E+01 1.68592E+00-2.00054E-03 9.99244E-01 2.48311E-13-5.80391E-14
 -1       611 2.03623E+01 1.02706E+00 3.46695E-03 1.00848E+00 2.49937E-13 9.73200E-14
 -1       612 2.02463E+01 6.94963E-01 3.80176E-04-4.03928E-01-1.74250E-13-1.62480E-13
 -1       613 2.01750E+01 4.09725E-01 1.76517E-04-1.42206E-01-1.48009E-13-1.35945E-13
 -1       614 2.01109E+01 2.29752E-01 7.22456E-05 2.79599E-02-7.65456E-14-1.03036E-13
 -1       615 2.00623E+01 1.17714E-01 1.79068E-05 1.32094E-01-4.02346E-14-5.00552E-14
 -1       616 2.00297E+01 5.09334E-02-4.45462E-06 1.91796E-01-6.69750E-14-7.39239E-14
 -1       617 2.00106E+01 1.55378E-02-1.22550E-05 2.23728E-01-9.12871E-14-5.76416E-14
 -1       618 2.00017E+01 2.96332E-03-1.21832E-05 2.40551E-01-1.07765E-13-5.48241E-14
 -1       619 2.00000E+01 8.12536E-03-5.44464E-06 2.51941E-01-3.40637E-14-5.29853E-15
 -1       620 2.00024E+01 2.85065E-02 7.74102E-06 2.65548E-01-3.47678E-14 2.37745E-14
 -1       621 2.00059E+01 6.37707E-02 2.81545E-05 2.87796E-01-3.50801E-14 7.39875E-14
 -1       622 2.00062E+01 1.15706E-01 5.77385E-05 3.24529E-01-3.49006E-14-3.47227E-14
 -1       623 1.99975E+01 1.88377E-01 1.00010E-04 3.81532E-01 3.29838E-15 5.83370E-14
 -1       624 1.99702E+01 2.88375E-01 1.60356E-04 4.64877E-01-5.98365E-15 8.02521E-14
 -1       625 1.99094E+01 4.24942E-01 2.45204E-04 5.81023E-01 8.61299E-14 4.49173E-14
 -1       626 1.97908E+01 6.09472E-01 3.57543E-04 7.36540E-01-4.06069E-14 2.29396E-14
 -1       627 1.95776E+01 8.53328E-01 4.87909E-04 9.37412E-01-5.10806E-14-9.61033E-14
 -1       628 1.92145E+01 1.16183E+00 6.27454E-04 1.18827E+00-1.40387E-14-1.83944E-13
 -1       629 1.86249E+01 1.52040E+00 8.86339E-04 1.49315E+00 5.36667E-14-2.56188E-14
 -1       630 1.77116E+01 1.86720E+00 2.52323E-03 1.86083E+00 2.63893E-14 1.46793E-14
 -1       631 1.63518E+01 2.05972E+00 1.14389E-02 2.32426E+00 1.01887E-13-5.71050E-14
 -1       632 1.44040E+01 1.75670E+00 4.18030E-02 3.04949E+00 1.28410E-13-1.99962E-13
 -1       633 1.33832E+01 8.37931E-02 1.57633E-01 4.66721E+00 2.10096E-13-1.76283E-13
 -1       634 1.67236E+01 1.74230E+00 2.31209E-02-3.18806E+00 4.77058E-14 8.76747E-14
 -1       635 2.00396E+01 6.01450E-02 3.31511E-05 1.19923E-01-2.22064E-13-1.25325E-13
 -1       636 1.79489E+01 1.81599E+00 5.75909E-03-2.46074E+00-8.98441E-14-2.44906E-14
 -1       637 1.88178E+01 1.55617E+00 1.88902E-03-1.91822E+00-1.80977E-13 1.91702E-14
 -1       638 1.93806E+01 1.21990E+00 1.26800E-03-1.48285E+00-3.50995E-13 8.77662E-14
 -1       639 1.97208E+01 9.10458E-01 1.03995E-03-1.13204E+00-1.07185E-13-1.60028E-13
 -1       640 1.99121E+01 6.60765E-01 8.00772E-04-8.54882E-01-9.79230E-14-2.58770E-13
 -1       641 2.00101E+01 4.72658E-01 5.72171E-04-6.40100E-01 2.06415E-13-4.24105E-13
 -1       642 2.00531E+01 3.36540E-01 4.01186E-04-4.76131E-01 1.31775E-13-3.09799E-13
 -1       643 2.00653E+01 2.40919E-01 2.67255E-04-3.51959E-01-2.16589E-13-3.67488E-13
 -1       644 2.00619E+01 1.75164E-01 1.66731E-04-2.57805E-01-2.96926E-13-2.48241E-13
 -1       645 2.00497E+01 1.32480E-01 1.26455E-04-1.85771E-01-4.30050E-13-1.26973E-13
 -1       646 2.01145E+01 2.93511E-01 1.94586E-04 4.39753E-02 1.55847E-13-4.20030E-14
 -1       647 2.00551E+01 1.57494E-01 6.18887E-05-8.97770E-02 1.50151E-13-6.32950E-14
 -1       648 2.01913E+01 5.10787E-01 5.26719E-04 2.58898E-01 1.51887E-13-7.94008E-15
 -1       649 1.99911E+01 2.41746E-02-8.36034E-06-2.09926E-01 3.07830E-14-5.07647E-14
 -1       650 1.99804E+01-2.13602E-03-1.73188E-05-2.29343E-01 4.38652E-14 1.19338E-14
 -1       651 1.99796E+01-1.31447E-02-1.98137E-05-2.36366E-01 2.85586E-14-3.79652E-14
 -1       652 1.99864E+01-1.46690E-02-1.84017E-05-2.37861E-01 2.75694E-14-2.64030E-14
 -1       653 1.99998E+01-1.14986E-02-1.52640E-05-2.38154E-01 3.67806E-14-3.86750E-14
 -1       654 2.00194E+01-8.07492E-03-1.31612E-05-2.39365E-01 9.38374E-14-4.42004E-14
 -1       655 2.00461E+01-8.98391E-03-1.50013E-05-2.41516E-01 1.37810E-13-3.60030E-14
 -1       656 2.00818E+01-1.92673E-02-2.40725E-05-2.42430E-01-3.77409E-15-7.88782E-14
 -1       657 2.01294E+01-4.44609E-02-4.39166E-05-2.37486E-01-3.99366E-14-1.24384E-14
 -1       658 2.01927E+01-9.01625E-02-7.79797E-05-2.19330E-01 1.07914E-14 3.52626E-14
 -1       659 2.02757E+01-1.60832E-01-1.28726E-04-1.77727E-01-3.63893E-14 3.76903E-14
 -1       660 2.03816E+01-2.57487E-01-1.95375E-04-9.99323E-02-9.36250E-14-5.04454E-15
 -1       661 2.05101E+01-3.74088E-01-2.71094E-04 2.78225E-02-2.14333E-13-4.40184E-14
 -1       662 2.06543E+01-4.92913E-01-3.36352E-04 2.16864E-01-1.56932E-13-3.83192E-14
 -1       663 2.07967E+01-5.80400E-01-3.24795E-04 4.69589E-01-7.58190E-14-1.64179E-14
 -1       664 2.09067E+01-5.87117E-01-1.79022E-04 7.69512E-01 9.63423E-14 2.77863E-14
 -1       665 2.09447E+01-4.57658E-01 3.31898E-05 1.06986E+00 4.16659E-14-3.27181E-14
 -1       666 2.08766E+01-1.55790E-01 2.27623E-04 1.28822E+00-4.53585E-14-1.46130E-14
 -1       667 2.06991E+01 2.99277E-01 2.68089E-04 1.32003E+00 6.51078E-14 1.79652E-13
 -1       668 2.04619E+01 8.05746E-01 3.77904E-04 1.08034E+00-5.30745E-14 1.20275E-13
 -1       669 2.02665E+01 1.19152E+00 6.25140E-04 5.65528E-01-1.38800E-13 3.25239E-13
 -1       670 2.02071E+01 1.30548E+00 8.18519E-04-1.09131E-01-3.86268E-14 2.72866E-13
 -1       671 2.03174E+01 1.09352E+00 6.99510E-04-7.52564E-01 8.50597E-14 1.24283E-13
 -1       672 2.05385E+01 6.49583E-01 6.46649E-04-1.18678E+00 2.19220E-13 7.26290E-14
 -1       673 2.07655E+01 1.44712E-01 4.68428E-04-1.33582E+00 8.46532E-14 1.03313E-13
 -1       674 2.09118E+01-2.68270E-01 3.14512E-05-1.23484E+00 1.83410E-13 1.86355E-13
 -1       675 2.09447E+01-5.13356E-01-2.07802E-04-9.80919E-01 2.53109E-13 5.81291E-14
 -1       676 2.08802E+01-5.92723E-01-3.23098E-04-6.75391E-01 4.24906E-13 3.66324E-14
 -1       677 2.07569E+01-5.52530E-01-3.49775E-04-3.89822E-01 2.64480E-13 8.47260E-14
 -1       678 2.06126E+01-4.47960E-01-3.13371E-04-1.60454E-01 1.11644E-13 1.39460E-13
 -1       679 2.04738E+01-3.23724E-01-2.41997E-04 3.06066E-03-1.97079E-13 1.88334E-13
 -1       680 2.03544E+01-2.07996E-01-1.65500E-04 1.06508E-01-5.90871E-14 5.32939E-14
 -1       681 2.02589E+01-1.14135E-01-9.97961E-05 1.62169E-01 2.51664E-14-1.14879E-13
 -1       682 2.01859E+01-4.52912E-02-5.06843E-05 1.83333E-01 1.58607E-13-8.75646E-14
 -1       683 2.01318E+01 1.12496E-03-4.92160E-07 1.81670E-01-5.92192E-14 2.50317E-13
 -1       684 2.00925E+01 3.00934E-02 6.56786E-05 1.66229E-01 1.39278E-13 2.52861E-13
 -1       685 2.00624E+01 4.82708E-02 5.58398E-05 1.45120E-01-2.02607E-13 5.41369E-14
 -1       686 1.99979E+01 1.07814E-01-4.78459E-05 1.29565E-01-1.10488E-13-2.18760E-13
 -1       687 1.99383E+01 1.78098E-01-5.05697E-05 1.01611E-01-1.33576E-13-1.26452E-13
 -1       688 1.99681E+01 1.42735E-01-4.39787E-05 1.22881E-01-3.04887E-13 3.37231E-13
 -1       689 2.00148E+01 7.36022E-02 1.23569E-05-1.68086E-01 1.18008E-13-7.32790E-14
 -1       690 1.98963E+01 2.33658E-01-4.12586E-05 1.58302E-02 2.97281E-13 4.58697E-13
 -1       691 1.98948E+01 2.43200E-01-5.86675E-05-4.00271E-02 5.03253E-14 1.20394E-13
 -1       692 1.99120E+01 2.35207E-01-4.76010E-05-9.59079E-02 1.24493E-13 1.44846E-13
 -1       693 1.99480E+01 2.07856E-01 4.00450E-06-1.39919E-01-3.69365E-14 5.37688E-13
 -1       694 1.99997E+01 1.63532E-01 2.28619E-04-1.63070E-01-1.23283E-13 1.35983E-13
 -1       695 2.78187E+01 5.32187E+00-1.42870E-01 1.81927E+00 7.66817E-14-9.29205E-14
 -1       696 1.15341E+01-1.72753E+00 1.39772E-01-6.57576E+00-2.82666E-13-2.29906E-13
 -1       697 1.04438E+01 1.83450E-01 1.43032E-01 4.52662E+00-3.47564E-13-6.00214E-14
 -1       698 1.99126E+01 2.10185E-01-3.20810E-05 6.52228E-02 3.50767E-13 1.55329E-14
 -1       699 2.02952E+01 1.14664E+00-3.13942E-04-7.81260E-01-2.00989E-13-2.07825E-13
 -1       700 2.00273E+01 2.30026E+00-1.71589E-03 6.35651E-01 1.66427E-13-2.01590E-13
 -1       701 1.61252E+01-2.17272E+00 1.50424E-01-5.77095E+00 2.47059E-13 2.26756E-13
 -1       702 8.40346E+00 1.37723E+00 1.68773E-01 1.42183E+00-3.72619E-14 8.97338E-14
 -1       703 2.00236E+01 2.30940E+00-1.65961E-03-6.27166E-01-6.86310E-14-2.40479E-13
 -1       704 2.91424E+01 7.39943E-01-1.08205E-01-1.52918E+00 9.12118E-14-4.41657E-13
 -1       705 1.74014E+01-3.67445E+00 8.76858E-02 7.08399E+00-2.01585E-13-3.21708E-13
 -1       706 2.85579E+01 1.07814E+00-9.90725E-02 1.79768E+00-3.97425E-14-2.94556E-14
 -1       707 1.84925E+01-3.98225E+00 9.30989E-02-6.97710E+00-1.87780E-13-2.16459E-13
 -1       708 2.81640E+01-2.59744E+00-5.03397E-02-3.92859E-01-2.63982E-13-2.02824E-13
 -1       709 2.53277E+01-4.65313E+00-1.47083E-02-3.80139E+00-3.81799E-13-9.13436E-14
 -1       710 7.99471E+00 3.31332E-01 1.58267E-01-3.30126E+00-1.23372E-13-2.99996E-13
 -1       711 2.81165E+01-3.11518E+00-6.23003E-02 1.13608E+00 1.97824E-13-1.04756E-13
 -1       712 2.02691E+01 1.65266E+00 5.66048E-04-1.10205E+00-2.31602E-13-2.33988E-13
 -1       713 1.55781E+01 7.74347E-01 7.08857E-02-4.28157E+00 9.91312E-14 2.33109E-13
 -1       714 1.99319E+01 2.53227E+00-1.50649E-03-1.26059E-01 5.36216E-14-2.43832E-13
 -1       715 2.02756E+01 8.58888E-01 1.72620E-03 5.81521E-01 1.91148E-13-1.16597E-14
 -1       716 2.60063E+01-4.29920E+00 9.44250E-04 2.88872E+00 2.65287E-13 1.89983E-13
 -1       717 2.65432E+01 6.10600E+00-1.26221E-01 9.56831E-01-1.55154E-14-1.36242E-13
 -1       718 8.43197E+00 1.46316E+00 4.08878E-02-5.98161E-01 1.34909E-13-3.08933E-13
 -1       719 2.25347E+01-4.23320E+00 2.07588E-02-4.86240E+00-2.33858E-14-2.42562E-14
 -1       720 2.01203E+01 2.06210E+00-6.78517E-04-8.41448E-01-1.36501E-13-2.26593E-13
 -1       721 2.75814E+01 6.08535E+00-1.33392E-01-1.41389E+00 5.09454E-14-1.90091E-13
 -1       722 1.99617E+01 2.46073E+00-1.58781E-03-3.82539E-01-7.84127E-15-2.29328E-13
 -1       723 1.45846E+01-1.17970E+00 8.28841E-02 5.75754E+00-1.24850E-13-5.13142E-13
 -1       724 2.01418E+01 1.89845E+00-3.17079E-04 1.97827E-01 1.08742E-13-1.94732E-13
 -1       725 2.02668E+01 1.31421E+00-6.82294E-04 6.26912E-01 1.90927E-13-6.62722E-14
 -1       726 1.01007E+01 1.62495E+00 6.68345E-02 1.49595E+00 2.16061E-13-8.21183E-14
 -1       727 2.01894E+01 1.88618E+00-1.41997E-04-9.88471E-01-1.95429E-13-2.51570E-13
 -1       728 2.02681E+01 4.58237E-01 1.09909E-04-9.14908E-02-9.42897E-14-5.50396E-14
 -1       729 2.02286E+01 2.60355E-01-1.74257E-05 4.68259E-02-2.90711E-14-5.96906E-14
 -1       730 2.01873E+01 1.34984E-01-4.50651E-06 1.34049E-01-5.33876E-14-1.95003E-14
 -1       731 2.01491E+01 6.07432E-02-5.60213E-06 1.85839E-01-6.93029E-14-5.92944E-14
 -1       732 2.01153E+01 2.37087E-02-5.43339E-06 2.15325E-01-6.60336E-14-4.68161E-14
 -1       733 2.00855E+01 1.48141E-02-4.32020E-06 2.32871E-01-4.63074E-14 4.21139E-15
 -1       734 2.00574E+01 2.85519E-02-2.49404E-06 2.46557E-01-5.28492E-14-1.70602E-14
 -1       735 2.00280E+01 6.22830E-02 1.45271E-07 2.62631E-01 1.86844E-14-2.28551E-14
 -1       736 1.99923E+01 1.15920E-01 3.65008E-06 2.85912E-01-6.04779E-14-1.87212E-14
 -1       737 1.99432E+01 1.91837E-01 8.06927E-06 3.20021E-01 1.28934E-14-4.60833E-14
 -1       738 1.98699E+01 2.94879E-01 1.35137E-05 3.67360E-01 4.48221E-15-1.51124E-13
 -1       739 1.97559E+01 4.32292E-01 1.93731E-05 4.28719E-01 1.16193E-13-4.03705E-14
 -1       740 1.95767E+01 6.13232E-01 2.11501E-05 5.02407E-01 4.05037E-14-8.04211E-14
 -1       741 1.92962E+01 8.47203E-01 4.06917E-06 5.82821E-01-1.07959E-13-7.23485E-14
 -1       742 1.88615E+01 1.14036E+00-4.85802E-05 6.58689E-01-5.05766E-14 5.65127E-14
 -1       743 1.81966E+01 1.48805E+00-1.73619E-05 7.12211E-01-1.27468E-14 1.33901E-13
 -1       744 1.71938E+01 1.86046E+00 7.70480E-04 7.22841E-01 7.64355E-14-4.89162E-14
 -1       745 1.57037E+01 2.16926E+00 4.16307E-03 6.84362E-01 3.83723E-14-8.78526E-14
 -1       746 1.35391E+01 2.25712E+00 4.69592E-02 5.65826E-01 6.22028E-15-1.95315E-13
 -1       747 2.02897E+01 9.36130E-01 5.06322E-04 4.39478E-01 1.73149E-13-5.33086E-14
 -1       748 1.52105E+01 2.25983E+00 1.47371E-02-1.32479E+00-1.35512E-13-1.13486E-13
 -1       749 1.69084E+01 2.00810E+00-2.89212E-04-1.19011E+00-1.70770E-13-3.30677E-13
 -1       750 1.80472E+01 1.65041E+00-5.51893E-04-1.03718E+00-7.75833E-14-1.20523E-13
 -1       751 1.87957E+01 1.28225E+00-4.30584E-05-8.83067E-01-2.11468E-13 8.96908E-14
 -1       752 1.92770E+01 9.64767E-01 1.00728E-04-7.32377E-01-2.01812E-13 8.71958E-14
 -1       753 1.95802E+01 7.12241E-01 1.13702E-04-5.92596E-01 2.52483E-14 2.55391E-13
 -1       754 1.97667E+01 5.20660E-01 8.97776E-05-4.70010E-01 9.89264E-14 2.21736E-13
 -1       755 1.98788E+01 3.79849E-01 6.30963E-05-3.66817E-01-1.04383E-13 2.79664E-13
 -1       756 1.99436E+01 2.79891E-01 1.24266E-04-2.83099E-01-3.43905E-13 2.61998E-13
 -1       757 1.99805E+01 2.11023E-01 8.16480E-05-2.18714E-01-2.17688E-13 1.67850E-13
 -1       758 2.00037E+01 9.63604E-02 7.15248E-05 1.64544E-01-5.30031E-14-1.49804E-13
 -1       759 2.02302E+01 3.36827E-01-4.47666E-05 1.44864E-02 1.68072E-13-4.58830E-14
 -1       760 2.02699E+01 5.75805E-01 1.66376E-04 1.87930E-01 1.73439E-13-5.82641E-14
 -1       761 2.00850E+01-2.89709E-04-5.01892E-06-2.22723E-01 4.51632E-14-3.37418E-14
 -1       762 2.01122E+01 2.88751E-02-5.49327E-06-2.03217E-01 1.86380E-14-9.26941E-15
 -1       763 2.00500E+01-1.07782E-02-3.93055E-06-2.38736E-01 7.44562E-14-1.30912E-13
 -1       764 2.00426E+01-5.81373E-03-2.37052E-06-2.45327E-01 4.84513E-14-9.75481E-14
 -1       765 2.00433E+01-2.39134E-03-1.28485E-06-2.54320E-01 9.29855E-14-7.94084E-15
 -1       766 2.00549E+01-7.14211E-03-1.62951E-06-2.65792E-01 4.09743E-14 6.74433E-14
 -1       767 2.00818E+01-2.74635E-02-4.41021E-06-2.77672E-01-1.13823E-14 4.76188E-14
 -1       768 2.01304E+01-7.14725E-02-1.11386E-05-2.85294E-01-2.52094E-14-5.46093E-14
 -1       769 2.02092E+01-1.47226E-01-2.40831E-05-2.80766E-01-3.92234E-14 2.31412E-14
 -1       770 2.03280E+01-2.60736E-01-4.67335E-05-2.52287E-01-1.15285E-13 2.93401E-14
 -1       771 2.04959E+01-4.12226E-01-8.16816E-05-1.83798E-01-1.54756E-13 6.08896E-14
 -1       772 2.07173E+01-5.90230E-01-1.30186E-04-5.58353E-02-1.79209E-13-2.63372E-14
 -1       773 2.09853E+01-7.63901E-01-1.74118E-04 1.50870E-01-8.05744E-14 7.90225E-14
 -1       774 2.12737E+01-8.75760E-01-3.79749E-05 4.46475E-01-7.22781E-14-4.93349E-14
 -1       775 2.15307E+01-8.42134E-01 3.25566E-04 8.15508E-01 5.01541E-14 1.69687E-14
 -1       776 2.16844E+01-5.72323E-01 3.77735E-04 1.19427E+00-1.43662E-15 7.41107E-14
 -1       777 2.16733E+01-2.10801E-02-7.05184E-05 1.45847E+00-4.61726E-14 3.36247E-14
 -1       778 2.14885E+01 7.47361E-01-1.17269E-03 1.44778E+00-5.08831E-14 1.78698E-13
 -1       779 2.12267E+01 1.51381E+00 1.82812E-04 1.03947E+00-9.38848E-14 1.76377E-13
 -1       780 2.10543E+01 1.95306E+00 7.62249E-05 2.98570E-01-4.29146E-14 5.17471E-14
 -1       781 2.10902E+01 1.86637E+00 7.79191E-04-5.58076E-01-9.86490E-14 1.13610E-13
 -1       782 2.13078E+01 1.29091E+00-4.32729E-04-1.21190E+00 9.20983E-14 2.16065E-13
 -1       783 2.15627E+01 4.92872E-01 2.25155E-04-1.48855E+00 2.64565E-13 1.84630E-14
 -1       784 2.16969E+01-2.21605E-01-2.60197E-04-1.39827E+00 6.09523E-14-1.52823E-13
 -1       785 2.16536E+01-6.84781E-01-2.14401E-04-1.08121E+00 2.96044E-13-1.21186E-13
 -1       786 2.14587E+01-8.68850E-01-1.51646E-04-6.96369E-01 2.30767E-13-7.39398E-14
 -1       787 2.11849E+01-8.43864E-01-1.35313E-04-3.49174E-01 2.78463E-13 2.54409E-14
 -1       788 2.08988E+01-7.01467E-01-1.33035E-04-8.50235E-02 1.73671E-13 1.67764E-13
 -1       789 2.06439E+01-5.17419E-01-1.00641E-04 9.03524E-02 2.41231E-14 1.38975E-13
 -1       790 2.04392E+01-3.40292E-01-6.32698E-05 1.91015E-01-2.77855E-13 2.54546E-13
 -1       791 2.02872E+01-1.93809E-01-3.55154E-05 2.36730E-01-1.06730E-13 3.31038E-13
 -1       792 2.01812E+01-8.47161E-02-1.67765E-05 2.45776E-01 7.89616E-14 4.66252E-13
 -1       793 2.01112E+01-1.02831E-02 1.19486E-05 2.32577E-01 1.38451E-13 2.86928E-13
 -1       794 2.00672E+01 3.61184E-02 5.58669E-06 2.07420E-01-1.66712E-14-8.67627E-14
 -1       795 2.02827E+01 1.19444E+00-5.85417E-04-5.77757E-01-1.32329E-13-1.80573E-13
 -1       796 1.98905E+01 2.05708E-01-8.61587E-06 1.18252E-01-1.74089E-13 3.33399E-13
 -1       797 1.98795E+01 2.72077E-01-3.66257E-05-1.45437E-01-5.65351E-14 2.52063E-13
 -1       798 1.98364E+01 2.75322E-01-2.17272E-05 1.46727E-03 1.56114E-13 2.35868E-13
 -1       799 2.56807E+01-3.52018E+00-1.00781E-02-1.43989E+00-1.74402E-13-3.26420E-13
 -1       800 2.67607E+01-1.05469E+00-3.90426E-02 1.21409E+00-4.38668E-14 1.10918E-13
 -1       801 2.63439E+01 2.65755E+00-6.72068E-02 2.15952E+00-8.48766E-14 2.20188E-14
 -1       802 2.72859E+01-1.41301E+00-5.09907E-02-7.83867E-01 3.04057E-13-2.36518E-13
 -1       803 1.27572E+01 2.19006E+00 5.08011E-02-1.77450E+00-7.47943E-14-1.23816E-13
 -1       804 1.60256E+01-1.86713E+00 8.02499E-02-6.01165E+00-1.77325E-13-3.54439E-13
 -1       805 1.18575E+01 1.57956E+00 8.21370E-02 2.23182E+00-2.85443E-13-2.07601E-13
 -1       806 1.98550E+01 2.46149E-01-1.54471E-05 6.81384E-02 1.49465E-13 2.90814E-13
 -1       807 2.18521E+01-3.99287E+00 2.89711E-02 5.03319E+00 4.97189E-14 3.84593E-13
 -1       808 2.73347E+01 3.00155E+00-1.04634E-01-2.14291E+00 7.18939E-14-8.93417E-14
 -1       809 2.00643E+01-1.10668E-02-5.20069E-06-2.32524E-01 4.86162E-14-5.33869E-14
 -1       810 1.22550E+01 1.15865E-01 1.34578E-01-4.81668E+00-1.04170E-13-2.17073E-13
 -1       811 1.98432E+01 2.85508E-01-4.73597E-05-7.36906E-02 1.13717E-13 1.93418E-13
 -1       812 2.02932E+01 7.58358E-01 2.07947E-04-2.95718E-01-1.18867E-13-1.19160E-13
 -1       813 2.02199E+01 1.59125E+00-5.64484E-04 5.29473E-01 1.67870E-13-1.62199E-13
 -1       814 2.64461E+01-2.93229E+00-1.75910E-02 5.67220E-01 3.05052E-13-2.11204E-13
 -1       815 2.01730E+01 1.78473E+00-5.12729E-04 3.77887E-01 1.45805E-13-1.85649E-13
 -1       816 1.40083E+01 5.80810E-01 3.64925E-02 3.81524E+00-1.69188E-13 1.00787E-15
 -1       817 2.01303E+01 1.93705E+00-2.82860E-04 3.45193E-03 5.87094E-14-2.17101E-13
 -1       818 1.16552E+01 1.33258E+00 1.96518E-01-2.69876E+00 2.36963E-14-1.78328E-13
 -1       819 1.99588E+01 1.36446E-01 1.92793E-05 1.62336E-01-3.58372E-14 1.79893E-13
 -1       820 2.01865E+01 1.82460E-01-1.43472E-05-9.77570E-02 1.57926E-13-3.30489E-14
 -1       821 2.01462E+01 8.56553E-02-5.67575E-06-1.65400E-01 7.42027E-14-1.23050E-14
 -1       822 2.00284E+01 7.01430E-02 1.33530E-06 1.89828E-01-5.70420E-14-5.96039E-14
 -1       823 1.99231E+01 1.71220E-01-1.65900E-05 1.46010E-01-1.26310E-13 1.44280E-13
 -1       824 2.53545E+01 4.06852E+00-4.02543E-02 1.75615E+00-1.03063E-13-2.33779E-13
 -1       825 1.87266E+01-2.29522E+00 3.44179E-02 5.18259E+00 8.91596E-14 3.30042E-13
 -1       826 1.97557E+01-2.78444E+00 2.33418E-02-5.05480E+00-4.87319E-14-2.40979E-13
 -1       827 2.02186E+01 1.60210E+00 1.65998E-04-5.26160E-01-9.73804E-14-1.66348E-13
 -1       828 2.53439E+01 5.71444E+00-7.73011E-02-2.28476E-01 5.75269E-14-3.10509E-14
 -1       829 2.63912E+01 5.39867E-01-4.63541E-02-1.89221E+00 2.49739E-13 1.02604E-13
 -1       830 2.01754E+01 1.78874E+00 5.38836E-05-3.75735E-01-5.18330E-14-1.95178E-13
 -1       831 2.03330E+01 4.63735E-01 2.99018E-05-4.00714E-02-5.89120E-14-1.16341E-13
 -1       832 2.02899E+01 1.19850E+00 8.74320E-04 4.02064E-01 1.69672E-13-1.26699E-13
 -1       833 2.03062E+01 2.63865E-01-2.60647E-05 6.24414E-02-2.04044E-14-1.28026E-13
 -1       834 2.02670E+01 1.37275E-01 4.46309E-06 1.27896E-01-5.48091E-14-1.56544E-13
 -1       835 2.02222E+01 6.42578E-02 5.67854E-07 1.67614E-01-6.65440E-14-8.80947E-14
 -1       836 2.01753E+01 3.16308E-02-7.27625E-07 1.90964E-01-7.42576E-14-7.09169E-14
 -1       837 2.01265E+01 3.04068E-02-1.81832E-06 2.05517E-01-6.70688E-14-5.63532E-14
 -1       838 2.00744E+01 5.49536E-02-2.62780E-06 2.16935E-01-2.48265E-14-4.28811E-14
 -1       839 2.00150E+01 1.02506E-01-3.53073E-06 2.29021E-01-1.63093E-14-7.15583E-14
 -1       840 1.99423E+01 1.72836E-01-5.21000E-06 2.43712E-01-3.87531E-14-3.32199E-14
 -1       841 1.98466E+01 2.67971E-01-8.23505E-06 2.60809E-01-1.61090E-14-9.03310E-15
 -1       842 1.97144E+01 3.91834E-01-1.33204E-05 2.77312E-01 1.45201E-14-7.90211E-14
 -1       843 1.95257E+01 5.49538E-01-2.37550E-05 2.86242E-01 3.27640E-14-1.77458E-13
 -1       844 1.92527E+01 7.45928E-01-4.86499E-05 2.74802E-01-1.59879E-14-2.03339E-13
 -1       845 1.88565E+01 9.82665E-01-1.00305E-04 2.21856E-01 6.25295E-14-1.37321E-13
 -1       846 1.82840E+01 1.25300E+00-9.56561E-05 9.48119E-02 7.78742E-14-1.75600E-14
 -1       847 1.74615E+01 1.53421E+00 8.85903E-04-1.54166E-01-8.50050E-15 1.03770E-13
 -1       848 1.62876E+01 1.78037E+00 6.97927E-03-5.87326E-01-2.98812E-14 4.55577E-14
 -1       849 1.44804E+01 1.86614E+00-1.76586E-03-1.30756E+00-1.30682E-13-6.90056E-14
 -1       850 1.69667E+01 1.78922E+00 2.36192E-03-5.50173E-02 5.34815E-14-4.57208E-16
 -1       851 1.79871E+01 1.47043E+00-2.29092E-04-2.60858E-01-6.36626E-14 1.60411E-14
 -1       852 1.86766E+01 1.16276E+00-9.22472E-05-3.45218E-01-5.32071E-14 1.08682E-13
 -1       853 1.91424E+01 8.95588E-01-2.84185E-05-3.59735E-01 5.69254E-14 3.44825E-13
 -1       854 1.94535E+01 6.78668E-01-1.52689E-05-3.35762E-01-5.83979E-15-3.55182E-14
 -1       855 1.96588E+01 5.10106E-01-2.85986E-05-2.93776E-01 1.55738E-13-3.65011E-13
 -1       856 1.97915E+01 3.84048E-01-1.88553E-04-2.46976E-01 6.18104E-15 5.03894E-14
 -1       857 1.98387E+01 3.21383E-01-1.42592E-04-1.90837E-01-6.65966E-14 8.26311E-14
 -1       858 2.01884E+01 3.00233E-02 2.71387E-06-1.84260E-01 6.53944E-14 4.54222E-15
 -1       859 2.00542E+01 7.83620E-03 1.50561E-06-2.40736E-01 2.69670E-14-1.95426E-14
 -1       860 2.00791E+01-1.49346E-04 2.03786E-07-2.25941E-01 7.68255E-14-2.18411E-14
 -1       861 2.00382E+01 2.90779E-03 2.68938E-06-2.87515E-01 2.63187E-14-4.64475E-15
 -1       862 2.00593E+01-2.85491E-02 2.81718E-06-3.19173E-01 2.69802E-14-2.40415E-14
 -1       863 2.01127E+01-9.37025E-02 1.52178E-06-3.52213E-01-4.57964E-14 2.55023E-14
 -1       864 2.02129E+01-2.03731E-01-3.76110E-06-3.78934E-01-1.49729E-13 2.13511E-14
 -1       865 2.03769E+01-3.67155E-01-2.16050E-05-3.85888E-01-1.31074E-13 2.10920E-15
 -1       866 2.06222E+01-5.84355E-01-6.05052E-05-3.51956E-01-1.75688E-13 2.74444E-14
 -1       867 2.09604E+01-8.38510E-01-1.52714E-04-2.47439E-01-1.98026E-13-8.50968E-14
 -1       868 2.13867E+01-1.08300E+00-2.78316E-04-3.68869E-02-8.06325E-14-7.74989E-14
 -1       869 2.18630E+01-1.22568E+00 2.04902E-04 3.08168E-01-1.26696E-14 5.10899E-14
 -1       870 2.23083E+01-1.13131E+00 1.06728E-03 7.80998E-01-2.92945E-14 1.50083E-13
 -1       871 2.25952E+01-6.48766E-01 5.06999E-04 1.29093E+00-3.41111E-14 1.92309E-13
 -1       872 2.26036E+01 2.69174E-01 5.55241E-04 1.62294E+00-1.14678E-13 1.51082E-13
 -1       873 2.24005E+01 1.48759E+00 3.35130E-03 1.57251E+00-1.07103E-13 2.08599E-13
 -1       874 2.20523E+01 2.54209E+00-1.01366E-02 8.76756E-01-1.61496E-13 3.80476E-13
 -1       875 2.19635E+01 2.83741E+00-4.53149E-04-1.78390E-01-5.95140E-15 3.49960E-13
 -1       876 2.21318E+01 2.26434E+00-4.15467E-03-1.16019E+00-5.45711E-15 8.43274E-14
 -1       877 2.24452E+01 1.11128E+00-1.84339E-03-1.64185E+00 3.03739E-13-8.68240E-15
 -1       878 2.26497E+01-5.65532E-02 4.77541E-03-1.56552E+00 2.71032E-13 1.85697E-13
 -1       879 2.25326E+01-8.50201E-01-1.16448E-03-1.13539E+00 2.23932E-13-7.27628E-14
 -1       880 2.21781E+01-1.19036E+00-3.36665E-04-6.22403E-01 2.47815E-13-2.99029E-13
 -1       881 2.17118E+01-1.18984E+00 7.76425E-05-1.88033E-01 1.33916E-13-1.73489E-13
 -1       882 2.12441E+01-9.99193E-01-2.88858E-05 1.10202E-01 1.16896E-13-7.39463E-14
 -1       883 2.08422E+01-7.39463E-01-4.51211E-05 2.79781E-01 8.96832E-14-1.27019E-13
 -1       884 2.05322E+01-4.87574E-01-2.57353E-05 3.53169E-01-1.70092E-13 5.56514E-14
 -1       885 2.03117E+01-2.79302E-01-1.26582E-05 3.64756E-01-1.02988E-13-2.77259E-13
 -1       886 2.01660E+01-1.24434E-01-3.92574E-06 3.41436E-01-6.06978E-14-3.33240E-13
 -1       887 2.00768E+01-1.89847E-02 2.99642E-05 3.01383E-01 2.41207E-13-2.63789E-13
 -1       888 2.00272E+01 4.63064E-02 2.73990E-05 2.56128E-01 5.53516E-14-1.99781E-13
 -1       889 1.53426E+01-2.76878E-01 2.97959E-02-4.42483E+00-1.65841E-13-2.92950E-13
 -1       890 1.43140E+01 1.93480E+00 2.31648E-02 1.37389E+00 1.22693E-14-1.51722E-13
 -1       891 2.50790E+01-2.06700E+00-1.03516E-02 4.24238E-01 2.74208E-14-2.21491E-13
 -1       892 2.30429E+01-3.26802E+00 1.26116E-02-2.93386E+00-1.21335E-13-1.98757E-13
 -1       893 2.00390E+01 1.17364E-02 2.22918E-06-2.61003E-01 2.48425E-14-1.33574E-14
 -1       894 1.57846E+01 1.96556E+00 1.61580E-02 5.01296E-01-1.33755E-13-4.81121E-14
 -1       895 2.42372E+01-3.70204E+00-6.63350E-04 2.63079E+00 1.71770E-13-9.69003E-15
 -1       896 2.50094E+01 6.44311E-01-1.24305E-02 1.89756E+00-3.30096E-14-1.86415E-13
 -1       897 2.01429E+01 1.90010E+00-8.77677E-05-1.92655E-01 2.04517E-14-1.97059E-13
 -1       898 2.53250E+01 4.35734E+00-7.05181E-02-1.64674E+00 2.35523E-14 1.68761E-13
 -1       899 2.03177E+01 1.06507E+00-8.93420E-05-3.10317E-01-6.33978E-14-1.45526E-13
 -1       900 2.56690E+01-1.58288E+00-1.94435E-02-8.45818E-01 3.17088E-13 1.01764E-13
 -1       901 2.02766E+01 1.42050E+00 2.68073E-05 6.82588E-02 7.01869E-14-1.51064E-13
 -1       902 1.39459E+01 1.05465E+00 5.54716E-02-3.39172E+00-6.96795E-14-2.95259E-14
 -1       903 1.97831E+01 3.38394E-01-8.68787E-05-9.85918E-02 1.48459E-13 2.00544E-15
 -1       904 2.03285E+01 5.86216E-01-2.91959E-04 1.14963E-01 1.66532E-13-8.24398E-14
 -1       905 2.02310E+01 8.70636E-02 8.17456E-06-1.53506E-01 3.16763E-14 5.83373E-15
 -1       906 2.01109E+01-4.36650E-03 2.28033E-07-2.14338E-01 7.83200E-14-2.79895E-14
 -1       907 2.03254E+01 8.49974E-01-2.16015E-04 2.45386E-01 1.56100E-13-9.49699E-14
 -1       908 1.99836E+01 9.32714E-02-2.43308E-04 2.24615E-01 6.91928E-14-1.18967E-13
 -1       909 1.98734E+01 1.97020E-01 1.95976E-04 1.76979E-01-8.21421E-15 3.88644E-13
 -1       910 2.17662E+01-3.03675E+00 1.04655E-02 3.77100E+00 2.00256E-13 2.79974E-13
 -1       911 1.97779E+01 2.98795E-01 3.63484E-05 6.95896E-02 1.32629E-13 2.60001E-13
 -1       912 2.37794E+01-2.67720E+00-9.48538E-04-1.03162E+00-1.22738E-13-3.11627E-13
 -1       913 2.03433E+01 7.17248E-01-4.45571E-04-1.61217E-01-5.99013E-14-1.16225E-13
 -1       914 2.43121E+01 1.82717E+00-1.78233E-02 2.00878E+00-1.95777E-13-1.65104E-13
 -1       915 1.82077E+01-1.32185E+00 1.00060E-02-4.31506E+00-1.26414E-13-3.47107E-13
 -1       916 2.43163E+01 4.52856E+00-5.15938E-02 8.74561E-01 1.18339E-13-3.46420E-13
 -1       917 2.03088E+01 3.45345E-01-6.91722E-05-1.56538E-02 1.27302E-13-7.54867E-14
 -1       918 1.70411E+01-6.50491E-01 1.12044E-02 4.22169E+00 1.99593E-14 3.17489E-14
 -1       919 2.48777E+01 2.37189E+00-2.75807E-02-2.02784E+00 1.38528E-13 2.87726E-14
 -1       920 2.02874E+01 1.35201E+00 2.22828E-04 1.94403E-01 1.25402E-13-1.38792E-13
 -1       921 1.97650E+01 3.29730E-01 1.68412E-05-1.14860E-02 2.09519E-13 1.12686E-13
 -1       922 1.98187E+01 2.50485E-01-1.09103E-06 1.34403E-01-1.68986E-14 6.09913E-13
 -1       923 2.01478E+01 2.88574E-03 6.69510E-07-2.02204E-01 1.15284E-13-4.97682E-14
 -1       924 1.99672E+01 1.18769E-01 3.61870E-05 1.92851E-01 6.37264E-14-5.18491E-14
 -1       925 2.02767E+01 1.42047E+00-3.80183E-04-6.47988E-02 4.08644E-15-1.74997E-13
 -1       926 2.02876E+01 1.30020E+00 2.44767E-04 3.05604E-01 1.28831E-13-2.09661E-13
 -1       927 1.65365E+01 2.59732E-01 1.29553E-02-3.32041E+00-5.56608E-15-2.85568E-13
 -1       928 2.03781E+01 4.33826E-01-8.33160E-05-7.87776E-04-5.00348E-14-1.51635E-13
 -1       929 2.03537E+01 2.44527E-01-6.63474E-05 6.66697E-02-2.40358E-14-1.52840E-13
 -1       930 2.03113E+01 1.26932E-01 3.53899E-05 1.09721E-01-3.09413E-15-1.03121E-13
 -1       931 2.02586E+01 6.22644E-02 1.05385E-05 1.35655E-01-3.47445E-14-7.39182E-14
 -1       932 2.01992E+01 3.86358E-02 1.96648E-06 1.50461E-01-5.41595E-14-5.78250E-14
 -1       933 2.01340E+01 4.72886E-02-1.68907E-06 1.58646E-01-7.65748E-15-5.34477E-14
 -1       934 2.00615E+01 8.24130E-02-2.59791E-06 1.62949E-01-1.68056E-14-4.52055E-14
 -1       935 1.99775E+01 1.40788E-01-3.56170E-06 1.64069E-01 1.44640E-14-3.55452E-15
 -1       936 1.98756E+01 2.21223E-01-6.11400E-06 1.60309E-01 1.23702E-14 8.04004E-15
 -1       937 1.97459E+01 3.23924E-01-8.53537E-06 1.46822E-01-1.74784E-14 4.54876E-15
 -1       938 1.95752E+01 4.49551E-01-1.19614E-05 1.14449E-01-6.13156E-15 4.90062E-14
 -1       939 1.93461E+01 5.97648E-01-2.09588E-05 4.79985E-02 4.35971E-14 4.33801E-14
 -1       940 1.90361E+01 7.63950E-01-5.20858E-05-7.60948E-02 2.52021E-14-4.31294E-14
 -1       941 1.86183E+01 9.35873E-01-1.35380E-04-2.92703E-01 1.35858E-13-1.40303E-13
 -1       942 1.80617E+01 1.08510E+00-2.11715E-04-6.51812E-01 5.87964E-14-2.02995E-13
 -1       943 1.73390E+01 1.15983E+00 1.16745E-03-1.21769E+00 2.97456E-14-1.33922E-13
 -1       944 1.61004E+01 1.17108E+00 3.62132E-03-2.02406E+00-7.65061E-14-1.05141E-13
 -1       945 1.99210E+01 1.54776E-01-2.87951E-04 1.91271E-01-7.11953E-14 2.16807E-13
 -1       946 2.38715E+01-7.06078E-01-2.08443E-02 1.41222E+00 5.00290E-14 4.87639E-14
 -1       947 1.83035E+01 1.14843E+00 2.79312E-04 2.58180E-01 1.47792E-14 3.49858E-14
 -1       948 1.88234E+01 9.46112E-01 6.28755E-05 3.89275E-02 6.82170E-14-4.54605E-14
 -1       949 1.91963E+01 7.56259E-01 5.59117E-06-7.69867E-02-1.64020E-13-7.00481E-14
 -1       950 1.94600E+01 5.93619E-01-2.67290E-05-1.29425E-01-9.35404E-14 2.74929E-14
 -1       951 1.96438E+01 4.61799E-01-1.04689E-05-1.43596E-01 3.06298E-13-1.23392E-13
 -1       952 1.97214E+01 3.94506E-01 4.65053E-04-1.19623E-01 2.62441E-13-8.42136E-14
 -1       953 2.00039E+01-1.21914E-02 8.25425E-06-3.73233E-01-8.12692E-14 1.34279E-13
 -1       954 1.99910E+01 2.82916E-02 4.69514E-06-3.11240E-01 1.99099E-14 2.89311E-14
 -1       955 2.01770E+01-2.41874E-01 1.95716E-05-5.27621E-01-6.03724E-14 4.59559E-14
 -1       956 2.03856E+01-4.60184E-01-8.74187E-07-5.98849E-01-1.14971E-13-1.04353E-13
 -1       957 2.07148E+01-7.55651E-01-8.06680E-05-6.33272E-01-1.13679E-13-1.92912E-13
 -1       958 2.11924E+01-1.10964E+00-1.21325E-04-5.84241E-01-1.55023E-13-2.08061E-13
 -1       959 2.18225E+01-1.45904E+00-1.76158E-03-3.81794E-01-1.62779E-13-1.76543E-13
 -1       960 2.25653E+01-1.65373E+00 7.22850E-04 3.86029E-02-2.13242E-13-1.74315E-14
 -1       961 2.32611E+01-1.47686E+00-3.18575E-04 6.73449E-01-1.13451E-14 1.30902E-13
 -1       962 2.31155E+01 3.84650E+00-4.40225E-02 5.09320E-01 4.63501E-14-1.06427E-13
 -1       963 2.31451E+01 3.65607E+00-2.61028E-02-9.02700E-01 1.57450E-13-1.38675E-13
 -1       964 2.35923E+01-1.01456E+00-4.55795E-03-1.16408E+00 3.55496E-13-5.81498E-14
 -1       965 2.30589E+01-1.58786E+00 1.95781E-03-4.36556E-01 3.87740E-13 6.76063E-14
 -1       966 2.23148E+01-1.60898E+00 1.51636E-03 1.36154E-01 1.87017E-13-1.23877E-13
 -1       967 2.16054E+01-1.34321E+00 2.35400E-04 4.66874E-01 9.67906E-14-2.78679E-13
 -1       968 2.10198E+01-9.76314E-01-1.02900E-06 6.05742E-01 2.00314E-13-2.29688E-13
 -1       969 2.05903E+01-6.30718E-01 2.18553E-05 6.17868E-01-1.15714E-13-2.60703E-13
 -1       970 2.02985E+01-3.51012E-01 3.46464E-06 5.63043E-01 4.14969E-15-1.59151E-13
 -1       971 2.01165E+01-1.48011E-01 6.63499E-06 4.80798E-01 4.73096E-14-1.74011E-13
 -1       972 2.00132E+01-1.21985E-02 4.73362E-05 3.94376E-01-4.81667E-14-1.39230E-13
 -1       973 1.99633E+01 6.96054E-02 9.88251E-05 3.15552E-01 1.48030E-13-1.52018E-15
 -1       974 2.48161E+01-2.86099E+00 1.60221E-03 7.80405E-01 2.78276E-13 2.68995E-14
 -1       975 2.03209E+01 1.19088E+00-6.55165E-05-2.05849E-01-6.55980E-14-1.33916E-13
 -1       976 2.02731E+01 1.86274E-01-3.26973E-05-1.01057E-01 7.65588E-14-1.01004E-14
 -1       977 2.12387E+01-2.38502E+00 5.22112E-03-3.27170E+00-1.66871E-13-9.15839E-14
 -1       978 1.58976E+01 1.00176E+00 4.36970E-03 2.48360E+00 1.11254E-14-8.48207E-14
 -1       979 2.00588E+01-9.70213E-02 1.40991E-05-4.47476E-01-8.90586E-14 1.02272E-13
 -1       980 2.48694E+01 1.58518E-01-2.13852E-02-1.76356E+00 2.10751E-13-8.20025E-15
 -1       981 1.75819E+01 1.32950E+00 9.12858E-05 6.43495E-01 4.21798E-14 1.01902E-13
 -1       982 2.00769E+01 1.94110E-02 5.55585E-07-2.02423E-01 3.93491E-14-6.73085E-14
 -1       983 2.03816E+01 6.70168E-01 2.10402E-04-7.93875E-02-7.77879E-14-1.39178E-13
 -1       984 2.02789E+01 8.00034E-02 1.83467E-05-1.30907E-01 9.96453E-14-6.19796E-14
 -1       985 2.01243E+01 8.62453E-03-7.15204E-06-1.84452E-01 6.79151E-14-8.30110E-14
 -1       986 2.39293E+01-2.12650E+00 1.91787E-03 1.44660E-02 3.84441E-13 7.10760E-14
 -1       987 2.03453E+01 9.46783E-01 3.71726E-05 1.93271E-01 1.13168E-13-1.79622E-13
 -1       988 1.69348E+01 1.30253E+00-3.01231E-04 1.29222E+00-6.21799E-14-6.78525E-15
 -1       989 2.00050E+01 3.90425E-02 3.05148E-06-2.63027E-01 1.65137E-14 3.12597E-14
 -1       990 2.33169E+01-3.00903E+00 3.89118E-03 2.14279E+00 2.92315E-13 1.36201E-13
 -1       991 1.99175E+01 1.30953E-01 2.10067E-04 2.61096E-01-3.75070E-14 1.62359E-13
 -1       992 2.03783E+01 5.95233E-01 1.32900E-04 6.40024E-02 1.10685E-13-8.08363E-14
 -1       993 2.03679E+01 1.01759E+00-1.92082E-04 4.33228E-03 4.00512E-14-8.00064E-14
 -1       994 1.97253E+01-1.77607E+00 6.71431E-03 3.80856E+00 4.26985E-14 7.17062E-13
 -1       995 1.97281E+01 3.05203E-01-3.26827E-05 1.61615E-01 2.19200E-13 7.07580E-13
 -1       996 1.98033E+01 2.30941E-01-1.85023E-06 2.20762E-01-7.24567E-15 4.78894E-13
 -1       997 2.25704E+01-2.40230E+00 8.50854E-03-1.73948E+00-1.73519E-13-3.33864E-13
 -1       998 2.00358E+01 3.25806E-02 2.89952E-06-2.27557E-01-1.16872E-14-2.45707E-14
 -1       999 2.03677E+01 9.91139E-01 2.58259E-04 7.94082E-02 6.21553E-14-1.27593E-13
 -1      1000 2.02278E+01 2.92697E-02 6.69477E-06-1.53773E-01 8.00801E-14-8.75900E-14
 -1      1001 1.96813E+01 3.65794E-01-1.50851E-04 7.39790E-02 3.06373E-13 4.13384E-13
 -1      1002 2.03770E+01 2.07487E-01-2.16313E-04 5.37253E-02-7.05090E-16-2.37025E-14
 -1      1003 2.03266E+01 1.07294E-01 7.65910E-06 7.72913E-02-2.53528E-15-4.60543E-14
 -1      1004 2.02655E+01 5.59611E-02-1.50879E-06 8.96055E-02-1.87436E-14-4.25496E-14
 -1      1005 2.01956E+01 4.38433E-02-1.04344E-06 9.46748E-02-5.31425E-14 2.27065E-14
 -1      1006 2.01182E+01 6.21253E-02-3.23552E-06 9.39775E-02-1.42581E-14-1.78970E-14
 -1      1007 2.00318E+01 1.04658E-01-8.42830E-06 8.71722E-02 3.27668E-14 5.51056E-14
 -1      1008 1.99329E+01 1.67285E-01-1.12414E-05 7.18013E-02 2.29509E-14 5.06954E-14
 -1      1009 1.98160E+01 2.46750E-01-1.22557E-05 4.25753E-02-9.78106E-15-1.57173E-14
 -1      1010 1.96739E+01 3.39814E-01-1.15833E-05-9.57526E-03 8.69282E-14 5.16224E-14
 -1      1011 1.94983E+01 4.41602E-01-8.42368E-06-9.88166E-02 3.08894E-14 1.99362E-13
 -1      1012 1.92805E+01 5.43131E-01-8.28393E-06-2.46022E-01-4.87856E-14 1.21791E-13
 -1      1013 1.90135E+01 6.27555E-01-3.71081E-05-4.80570E-01 2.46526E-14 7.62694E-14
 -1      1014 1.86960E+01 6.64412E-01-2.56890E-04-8.41373E-01 2.59762E-14-1.18484E-13
 -1      1015 1.83429E+01 6.00791E-01-1.03043E-03-1.37662E+00 3.95895E-14-2.51500E-14
 -1      1016 1.78335E+01 3.64089E-01 4.38252E-03-2.27583E+00-9.57031E-14-1.38604E-13
 -1      1017 1.87435E+01 8.06155E-01 6.42775E-04 5.26679E-01 1.54774E-14 1.49330E-13
 -1      1018 1.99425E+01-6.22590E-02 8.01352E-05-5.73042E-01-4.12667E-14-8.34894E-14
 -1      1019 1.90792E+01 7.08287E-01 2.38807E-04 2.64162E-01-1.17294E-13 1.65005E-13
 -1      1020 1.93399E+01 5.95342E-01-1.11172E-04 1.05526E-01-1.58141E-14 1.22608E-13
 -1      1021 1.95370E+01 4.87643E-01-3.23019E-04 1.67048E-02 5.83598E-14 8.87240E-14
 -1      1022 1.99053E+01 7.83779E-02 2.07774E-05-3.37196E-01-6.31905E-14 3.93108E-14
 -1      1023 2.02980E+01-5.11994E-01 1.52127E-04-9.04665E-01-1.22697E-13-7.26229E-14
 -1      1024 2.00615E+01-2.37119E-01 1.35470E-04-7.32679E-01-4.29977E-14-1.28331E-13
 -1      1025 2.13358E+01-1.39022E+00-2.19130E-04-1.11475E+00-1.72265E-13-1.32211E-13
 -1      1026 2.10972E+01-1.20505E+00 3.07323E-04 1.10490E+00 2.03309E-13 1.51909E-14
 -1      1027 2.05471E+01-7.42314E-01 3.86556E-04 1.00617E+00-9.88470E-15 2.08678E-13
 -1      1028 2.01960E+01-3.81244E-01-3.82020E-05 8.41863E-01-2.23601E-13 2.05278E-13
 -1      1029 1.99973E+01-1.32813E-01-2.62757E-06 6.66630E-01-4.43755E-15 2.39331E-13
 -1      1030 1.98976E+01 2.76509E-02 2.08133E-04 5.10759E-01-1.83104E-14 3.81968E-13
 -1      1031 1.98616E+01 1.18479E-01 4.64636E-05 3.81050E-01 1.54172E-13 2.99224E-13
 -1      1032 1.98162E+01 1.88529E-01-6.31631E-05 3.01908E-01 8.15534E-14 3.95286E-13
 -1      1033 1.97057E+01 2.86279E-01 2.40810E-05 2.58644E-01-2.63179E-14 1.09490E-12
 -1      1034 2.03258E+01 1.72215E-01-1.08769E-04-9.41340E-02 4.65273E-14-1.98955E-14
 -1      1035 2.03877E+01 8.64347E-01 1.91757E-05-6.33431E-02-3.75086E-14-9.83743E-14
 -1      1036 1.93641E+01-1.04625E+00 6.79677E-03-3.10648E+00-1.68089E-13-1.46985E-13
 -1      1037 1.96846E+01 3.92440E-01 6.37836E-05-2.18463E-02 2.38322E-13 7.67754E-14
 -1      1038 1.99001E+01 3.54302E-02 4.22524E-05-4.40329E-01-4.94494E-14 3.34119E-15
 -1      1039 2.19152E+01-1.73232E+00-3.79936E-03 1.02771E+00 6.83238E-14 2.78070E-14
 -1      1040 2.29105E+01-2.12408E+00-6.68522E-04 6.77316E-01 3.80103E-13 1.21348E-13
 -1      1041 2.01753E+01 8.88080E-03-2.13777E-06-1.69767E-01 6.22392E-14 1.07956E-14
 -1      1042 2.00464E+01 5.03882E-02 1.21534E-05-1.69644E-01 3.68278E-15-2.38302E-14
 -1      1043 2.07024E+01-8.99602E-01 2.24201E-04-1.05364E+00-1.77119E-13-1.15062E-13
 -1      1044 1.80463E+01-1.93270E-01 6.90550E-03 2.98831E+00-8.48720E-14 4.15650E-13
 -1      1045 1.83193E+01 8.52028E-01 4.13386E-05 9.46212E-01 1.57605E-13-4.67141E-14
 -1      1046 2.03676E+01 3.44644E-01-1.71465E-05-2.81576E-02 6.64722E-14-2.30424E-14
 -1      1047 2.04034E+01 3.81773E-01 1.16340E-04 1.81788E-02 8.70955E-15-2.73708E-14
 -1      1048 1.96195E+01 3.78675E-01 3.32635E-04 1.73926E-01 1.65087E-13 6.00910E-13
 -1      1049 2.01087E+01 3.01689E-02-2.35373E-05-1.44743E-01 1.04440E-14 3.49662E-14
 -1      1050 1.99387E+01 8.55846E-02 9.31874E-06-2.60931E-01-1.97784E-14-1.62738E-14
 -1      1051 2.16034E+01-2.34507E+00 5.50253E-03 2.80491E+00 3.05124E-13 3.36752E-13
 -1      1052 1.81014E+01 4.80950E-01-7.07526E-04 1.88821E+00-2.35282E-13 1.48271E-13
 -1      1053 2.04116E+01 5.88283E-01 3.08110E-06-2.19856E-02-1.39892E-15-5.57940E-14
 -1      1054 2.22825E+01-2.03180E+00 4.51356E-03-1.23051E+00-1.55779E-13-3.12036E-13
 -1      1055 2.02964E+01 6.79330E-02-9.04057E-07-9.62474E-02 4.94106E-14-3.24657E-14
 -1      1056 2.09969E+01-1.67981E+00-4.69626E-03-2.26866E+00-7.74185E-14-2.59482E-13
 -1      1057 1.99882E+01 7.22432E-02 3.16909E-06-2.06782E-01 1.69824E-14-8.00675E-14
 -1      1058 2.03493E+01 1.49096E-01 2.01523E-04-7.38145E-02 7.31914E-14-1.15361E-13
 -1      1059 2.04156E+01 6.20787E-01-1.45387E-04 2.58303E-02 3.87649E-14-1.30468E-13
 -1      1060 2.04126E+01 7.15811E-01 3.03404E-04-4.98885E-03 5.36325E-14-5.28155E-14
 -1      1061 1.81560E+01 7.20910E-01-9.63794E-04 1.38024E+00 2.25972E-13-2.69085E-13
 -1      1062 1.97152E+01 2.32110E-01-4.65553E-04 3.70756E-01 1.48891E-13 5.16627E-13
 -1      1063 2.03187E+01 8.19773E-02-1.56770E-05 2.95178E-02-6.49860E-15 3.17374E-15
 -1      1064 2.02497E+01 4.71461E-02-4.79003E-05 3.10133E-02-3.76220E-15 3.34232E-15
 -1      1065 2.01734E+01 4.60694E-02-5.33843E-06 2.66244E-02 2.50821E-14 7.62134E-14
 -1      1066 2.00902E+01 7.14391E-02 1.78335E-05 1.58091E-02 6.02596E-14 1.60159E-13
 -1      1067 1.99993E+01 1.15702E-01-1.33863E-05-4.33818E-03 1.68089E-14 7.94850E-14
 -1      1068 1.98984E+01 1.73323E-01-3.39387E-05-3.86486E-02-3.01493E-15 1.18571E-13
 -1      1069 1.97855E+01 2.38036E-01-5.66746E-05-9.50914E-02 2.63908E-15 1.14492E-13
 -1      1070 1.96587E+01 3.01963E-01-9.11909E-05-1.85186E-01 6.65611E-14-9.48273E-15
 -1      1071 1.95183E+01 3.53385E-01-1.42417E-04-3.24942E-01-6.87496E-15-1.12423E-13
 -1      1072 1.93697E+01 3.73830E-01-2.22273E-04-5.35409E-01-5.60532E-14-4.05889E-14
 -1      1073 1.92282E+01 3.33989E-01-3.58361E-04-8.42219E-01-4.59159E-14-2.96840E-14
 -1      1074 1.91265E+01 1.91446E-01-1.70861E-04-1.27300E+00 5.40786E-14-1.40250E-13
 -1      1075 1.90890E+01-1.52907E-01-6.82450E-04-1.94743E+00-4.60053E-14-1.33883E-13
 -1      1076 1.97721E+01 1.63250E-01 9.79935E-05-3.60676E-01-2.91479E-14-1.23220E-14
 -1      1077 1.93431E+01 4.95197E-01-3.91960E-04 3.72873E-01-1.74085E-13 6.34071E-13
 -1      1078 2.01733E+01 2.00882E-02 1.55025E-05-1.27089E-01 8.79541E-14-4.06481E-14
 -1      1079 1.89620E+01 4.58956E-01-3.04006E-03 9.74220E-01 2.11880E-13 3.03687E-13
 -1      1080 1.97295E+01 1.29568E-01 1.49659E-04-5.14103E-01 2.31804E-16-7.04749E-14
 -1      1081 1.99390E+01-3.36022E-01 7.74827E-04 1.19908E+00-8.68912E-14 6.89245E-13
 -1      1082 2.02944E+01-7.80244E-01-5.17281E-04 1.54095E+00-9.76742E-14 5.61984E-13
 -1      1083 1.96976E+01 1.21340E-01 7.90823E-06 6.47358E-01 6.82327E-14 2.40489E-13
 -1      1084 1.96977E+01 1.92808E-01 6.12519E-04 4.93795E-01 1.01340E-14 3.57046E-13
 -1      1085 1.97318E+01 3.23908E-02 2.21994E-04-7.22001E-01-2.80416E-14-1.91744E-14
 -1      1086 2.03746E+01 1.64399E-01 5.05965E-04 2.36617E-02-2.77944E-16-1.50785E-14
 -1      1087 1.99806E+01-1.19243E+00 1.97592E-03 2.68136E+00 4.93556E-14 6.77356E-13
 -1      1088 2.04064E+01 3.35284E-01 1.88311E-04-2.41892E-02 5.76405E-14-1.15234E-13
 -1      1089 1.97663E+01-5.24451E-02-1.03721E-03 8.88511E-01-1.01146E-13 5.21055E-13
 -1      1090 2.04282E+01 4.00391E-01-3.13028E-04-1.25979E-03 2.42658E-14-5.08647E-14
 -1      1091 2.09621E+01-1.40067E+00 4.08553E-03 1.84338E+00 8.30911E-14 3.04718E-13
 -1      1092 1.98146E+01-1.60251E-01 1.57522E-04-9.89873E-01-9.40503E-14-2.99734E-14
 -1      1093 2.04986E+01-9.84830E-01-3.19047E-03-1.62585E+00-1.91081E-13-3.02122E-13
 -1      1094 2.00376E+01-4.88719E-01-9.93111E-04-1.30841E+00-3.52287E-14-1.49693E-13
 -1      1095 2.02365E+01 2.93371E-02 8.01046E-06-1.12294E-01 4.41444E-14-1.92548E-14
 -1      1096 1.91608E+01 5.10762E-01-4.56588E-04 6.18431E-01 2.63066E-14 4.26824E-13
 -1      1097 1.99907E+01 9.54105E-02 2.97850E-05-1.27578E-01 3.70391E-14 2.46303E-14
 -1      1098 1.93257E+01-3.42181E-01-3.11173E-03 2.01333E+00-3.40956E-13 9.31655E-13
 -1      1099 2.00689E+01 6.18633E-02 2.74899E-05-9.51878E-02 3.99329E-14-1.25673E-14
 -1      1100 1.98372E+01 1.57699E-01 6.37990E-05-2.51867E-01-8.58150E-14-1.28761E-14
 -1      1101 1.95102E+01 4.45053E-01 3.02631E-04 2.05923E-01-1.91526E-13 3.48273E-13
 -1      1102 1.89970E+01 2.77919E-01-3.95872E-04 1.30247E+00 2.27055E-13 5.12829E-13
 -1      1103 1.96135E+01 3.22177E-01-4.17972E-04 3.29686E-01-1.78045E-13 8.68915E-13
 -1      1104 1.99123E+01 1.30725E-01 4.18851E-05-1.77247E-01-8.21411E-15 2.25309E-15
 -1      1105 2.03476E+01 1.16824E-01-3.07777E-04-3.85970E-02 5.69872E-15 5.71662E-15
 -1      1106 2.02883E+01 5.59815E-02 6.91684E-05-5.05346E-02 3.78854E-14 2.08956E-14
 -1      1107 2.02179E+01 3.66408E-02-8.98789E-06-3.62823E-02 4.52064E-14 5.85772E-14
 -1      1108 2.01412E+01 4.45673E-02-2.01463E-05-4.85247E-02 3.19494E-14 1.52180E-14
 -1      1109 1.94130E+01-1.59797E-01-1.45976E-03 1.58407E+00-1.97513E-13 1.11789E-12
 -1      1110 1.94714E+01 1.95543E-01 3.90500E-03 8.63816E-01 2.40162E-13 3.20450E-13
 -1      1111 2.03833E+01 1.78226E-01 1.84185E-04-1.81368E-02 2.49302E-14 3.52702E-15
 -1      1112 1.89736E+01 1.02548E-01-3.07534E-03 1.63235E+00-1.09100E-13 6.10976E-13
 -1      1113 2.79174E+01 9.07262E+00 2.32449E+00-6.71355E+00-3.05311E-14 1.17606E-12
 -1      1114 2.05346E+01 6.22266E+00 2.07554E-01-3.89716E+00-2.10665E-14 1.52232E-13
 -1      1115 1.94320E+01 5.85208E+00 7.48899E-02-2.88818E+00-1.33227E-14-2.75257E-13
 -1      1116 1.90263E+01 5.72599E+00 6.03358E-02-2.23633E+00-8.91648E-15-4.66974E-13
 -1      1117 1.88425E+01 5.67012E+00 5.79019E-02-1.70231E+00-5.20937E-15-5.63850E-13
 -1      1118 1.87498E+01 5.64165E+00 5.56611E-02-1.23473E+00-1.93942E-15-5.86250E-13
 -1      1119 1.87019E+01 5.62672E+00 5.38620E-02-8.04704E-01-1.43678E-15-5.83737E-13
 -1      1120 1.86784E+01 5.61929E+00 5.25996E-02-3.93065E-01 3.90746E-16-5.67628E-13
 -1      1121 1.86716E+01 5.61715E+00 5.21921E-02 8.32056E-03 1.13668E-15-5.48852E-13
 -1      1122 1.86792E+01 5.61959E+00 5.27038E-02 4.10081E-01 2.94404E-15-5.30995E-13
 -1      1123 1.87037E+01 5.62734E+00 5.40974E-02 8.22964E-01 5.65260E-15-4.95429E-13
 -1      1124 1.87532E+01 5.64287E+00 5.63021E-02 1.25545E+00 7.96758E-15-4.44142E-13
 -1      1125 1.88469E+01 5.67165E+00 5.85498E-02 1.72728E+00 9.66414E-15-3.57033E-13
 -1      1126 1.90318E+01 5.72778E+00 6.07325E-02 2.26845E+00 1.22784E-14-2.05188E-13
 -1      1127 1.94287E+01 5.84947E+00 6.94542E-02 2.92885E+00 1.61954E-14 7.35956E-14
 -1      1128 2.04473E+01 6.18007E+00 1.52844E-01 3.87831E+00 1.69031E-14 5.82243E-13
 -1      1129 2.52076E+01 7.99118E+00 1.42954E+00 5.84504E+00 3.13083E-14 1.58845E-12
 -1      1130 2.91062E+01 3.74518E+00 1.36917E+00-4.36776E+00-1.45384E-13 1.85019E-12
 -1      1131 2.03813E+01-1.70603E-01-6.24007E-01-1.49082E-01-4.92106E-14 1.52184E-12
 -1      1132 1.88538E+01-9.81535E-02-2.50120E-01 6.27593E-02-2.21038E-14 1.04136E-12
 -1      1133 1.84967E+01-4.97235E-02-6.41185E-02 4.12906E-02-1.24449E-14 6.89421E-13
 -1      1134 1.84316E+01-2.54797E-02-1.64462E-02 2.71635E-02-7.91728E-15 4.36401E-13
 -1      1135 1.85088E+01-1.36124E-02-5.42548E-03 1.92315E-02-1.37707E-14 2.14197E-13
 -1      1136 1.86545E+01-7.05905E-03-1.80306E-03 1.41677E-02-6.62426E-15 6.08524E-14
 -1      1137 1.88289E+01-3.29317E-03 1.90950E-04 1.06559E-02-1.01199E-14-6.58813E-14
 -1      1138 1.90093E+01-1.14644E-03 1.39280E-03 8.05524E-03-1.10494E-14-2.18763E-13
 -1      1139 1.91838E+01-1.97477E-05 1.94665E-03 6.05064E-03-9.19291E-15-3.31039E-13
 -1      1140 1.93470E+01 4.13994E-04 1.96270E-03 4.47731E-03-7.80449E-16-3.70258E-13
 -1      1141 1.94979E+01 3.34313E-04 1.53388E-03 3.24173E-03-5.40238E-15-3.79941E-13
 -1      1142 1.96393E+01-1.72903E-04 7.03575E-04 2.28934E-03-1.43653E-14-4.39118E-13
 -1      1143 1.97769E+01-1.09485E-03-5.52411E-04 1.59454E-03-5.41708E-16-3.94202E-13
 -1      1144 1.99197E+01-2.48924E-03-2.34334E-03 1.16414E-03-7.17013E-15-4.11435E-13
 -1      1145 2.00803E+01-4.49376E-03-4.89302E-03 1.05366E-03-2.77121E-14-6.90959E-13
 -1      1146 2.02772E+01-7.34438E-03-8.58984E-03 1.40241E-03 1.76110E-14-7.21057E-13
 -1      1147 2.05368E+01-1.13976E-02-1.40641E-02 2.50053E-03 2.24658E-15-5.90057E-13
 -1      1148 2.08978E+01-1.71410E-02-2.22912E-02 4.91201E-03-2.79293E-14-5.45316E-13
 -1      1149 2.14176E+01-2.51501E-02-3.46748E-02 9.69066E-03-1.34693E-14-6.15716E-13
 -1      1150 2.21806E+01-3.58808E-02-5.28963E-02 1.87279E-02 7.46105E-15-6.26568E-13
 -1      1151 2.33079E+01-4.90442E-02-7.78073E-02 3.52013E-02 1.83820E-14-7.27432E-13
 -1      1152 2.49613E+01-6.20402E-02-1.05450E-01 6.37204E-02 3.07011E-14-4.78659E-13
 -1      1153 2.73209E+01-6.65782E-02-1.16820E-01 1.08410E-01-1.81365E-15-4.76841E-13
 -1      1154 3.04801E+01-4.31575E-02-6.11428E-02 1.63645E-01 4.82340E-15-4.61187E-13
 -1      1155 3.41414E+01 4.12189E-02 1.44296E-01 1.87645E-01-3.46077E-15-2.52853E-14
 -1      1156 3.70141E+01 2.04132E-01 5.11336E-01 5.78190E-02-2.52472E-14 1.48513E-13
 -1      1157 3.64778E+01 3.63333E-01 7.25016E-01-3.59410E-01 8.30586E-14 3.93630E-13
 -1      1158 3.03436E+01 2.29615E-01 1.44174E-01-9.27407E-01-3.84276E-14 3.87912E-13
 -1      1159 2.13900E+01-1.83672E-01-1.15709E+00-8.92902E-01 6.80012E-14-4.13447E-13
 -1      1160 1.61429E+01-6.79464E-01-2.04222E+00-1.44143E-01-2.26485E-14-8.94965E-13
 -1      1161 1.76623E+01-4.71961E-01-1.78710E+00 5.38220E-01-6.70367E-14-1.65501E-12
 -1      1162 2.53204E+01-1.58040E-02-5.27125E-01 8.17838E-01 2.96672E-14-1.57785E-12
 -1      1163 3.36191E+01 3.04157E-01 5.04890E-01 5.64982E-01 2.51804E-14-1.25355E-12
 -1      1164 3.72814E+01 2.25063E-01 6.54134E-01 1.41518E-01 2.05495E-14-9.46299E-13
 -1      1165 3.59313E+01 7.26555E-02 3.13267E-01-9.58705E-02 4.14486E-14-2.92905E-13
 -1      1166 3.24651E+01-1.66376E-02 2.46219E-02-1.41247E-01-4.29209E-14-7.40602E-13
 -1      1167 2.89605E+01-4.70467E-02-9.22466E-02-1.13037E-01 1.56437E-14-8.11018E-13
 -1      1168 2.61643E+01-4.83612E-02-1.06053E-01-7.45400E-02 4.37528E-14-1.20626E-13
 -1      1169 2.41458E+01-3.97752E-02-8.44987E-02-4.50174E-02-7.14520E-14-1.34878E-13
 -1      1170 2.27543E+01-2.97581E-02-5.91894E-02-2.60401E-02 3.88474E-14-3.20841E-13
 -1      1171 2.18142E+01-2.12649E-02-3.93558E-02-1.47302E-02-2.99517E-14-4.49193E-13
 -1      1172 2.11830E+01-1.48528E-02-2.57006E-02-8.23762E-03-6.92625E-14-6.78768E-13
 -1      1173 2.07588E+01-1.02824E-02-1.67621E-02-4.58661E-03 8.06538E-15-4.02558E-13
 -1      1174 2.04722E+01-7.13508E-03-1.10449E-02-2.56246E-03 5.55790E-14-1.24955E-13
 -1      1175 2.02778E+01-5.03045E-03-7.47773E-03-1.44846E-03 3.67661E-14-1.65217E-13
 -1      1176 2.01461E+01-3.68191E-03-5.39130E-03-8.12681E-04-2.27117E-14-6.02035E-13
 -1      1177 2.00595E+01-2.87966E-03-4.35777E-03-3.51374E-04 3.83994E-14-5.39460E-13
 -1      1178 2.00083E+01-2.41581E-03-3.81814E-03 2.46098E-04-6.84128E-14-1.10038E-12
 -1      1179 1.99889E+01-1.56755E-03-2.12081E-03 1.34301E-03 8.79501E-15-1.09003E-12
 -1      1180 1.99956E+01-1.17672E-03 3.27497E-03 2.06494E-03 6.00070E-14-5.19995E-13
 -1      1181 2.77806E+01 5.25497E-01 3.76687E-01 1.96610E+00-2.87687E-14 2.39986E-12
 -1      1182 2.00745E+01-6.66302E-02-5.73535E-01 1.29533E-01 1.39472E-14 1.98785E-12
 -1      1183 1.88962E+01-4.19738E-02-1.93182E-01 1.93648E-02 9.33281E-15 1.55398E-12
 -1      1184 1.85173E+01-2.26941E-02-5.04677E-02 1.24419E-03 1.36150E-14 1.29521E-12
 -1      1185 1.84469E+01-1.37885E-02-1.37941E-02-4.28334E-03-2.59580E-15 1.13520E-12
 -1      1186 1.85234E+01-8.02312E-03-5.03621E-03-5.49553E-03 7.50257E-15 9.96807E-13
 -1      1187 1.86695E+01-4.62038E-03-2.20311E-03-5.57223E-03-1.22730E-14 9.68496E-13
 -1      1188 1.88445E+01-2.53406E-03-6.20016E-04-5.19895E-03-1.44405E-15 9.21409E-13
 -1      1189 1.90260E+01-1.27208E-03 3.85794E-04-4.63091E-03 6.41371E-15 7.37681E-13
 -1      1190 1.92019E+01-5.53468E-04 9.18498E-04-3.97895E-03 2.00421E-14 5.52658E-13
 -1      1191 1.93666E+01-1.99649E-04 1.06448E-03-3.31700E-03 1.15635E-14 3.83514E-13
 -1      1192 1.95185E+01-8.31961E-05 9.30462E-04-2.70334E-03 2.52493E-15 3.35381E-13
 -1      1193 1.96586E+01-1.00594E-04 6.27160E-04-2.18951E-03-5.60070E-16 4.16971E-13
 -1      1194 1.97893E+01-1.54654E-04 2.69410E-04-1.82583E-03-1.88452E-14 3.81548E-13
 -1      1195 1.99136E+01-1.41559E-04-1.20351E-05-1.66465E-03 1.07153E-14 2.30403E-13
 -1      1196 2.00336E+01 5.81757E-05-5.58118E-05-1.75942E-03-2.94811E-15 1.06257E-13
 -1      1197 2.01497E+01 5.82697E-04 3.41099E-04-2.15722E-03-2.20672E-14 1.17864E-13
 -1      1198 2.02590E+01 1.58078E-03 1.42256E-03-2.88106E-03 1.57114E-14 3.56980E-14
 -1      1199 2.03540E+01 3.18516E-03 3.44774E-03-3.89828E-03 1.34109E-14-9.85418E-14
 -1      1200 2.04203E+01 5.45862E-03 6.62331E-03-5.07398E-03 7.74988E-15-4.30541E-14
 -1      1201 2.04361E+01 8.30824E-03 1.09764E-02-6.11606E-03-1.62434E-14 2.97248E-13
 -1      1202 2.03716E+01 1.13780E-02 1.61666E-02-6.53322E-03 3.33927E-14 3.18537E-13
 -1      1203 2.01925E+01 1.39588E-02 2.12782E-02-5.65036E-03-1.54336E-14 2.66730E-13
 -1      1204 1.98657E+01 1.49972E-02 2.47076E-02-2.74346E-03 2.09617E-14 2.01410E-13
 -1      1205 1.93713E+01 1.33106E-02 2.43405E-02 2.65656E-03 9.71597E-15 1.03372E-13
 -1      1206 1.87168E+01 8.06699E-03 1.82037E-02 1.03234E-02-8.78280E-15 2.98518E-13
 -1      1207 1.79509E+01-5.70101E-04 5.57280E-03 1.89519E-02 5.07710E-15 5.71834E-14
 -1      1208 1.71685E+01-1.09944E-02-1.19192E-02 2.61713E-02-1.65065E-14-1.29896E-14
 -1      1209 1.64982E+01-2.03768E-02-3.00210E-02 2.92446E-02 1.93994E-14-6.06182E-14
 -1      1210 1.60712E+01-2.57452E-02-4.31436E-02 2.63127E-02 1.37312E-14-2.34580E-13
 -1      1211 1.59802E+01-2.54000E-02-4.68331E-02 1.75148E-02-5.35943E-15-1.81142E-13
 -1      1212 1.62453E+01-1.97814E-02-4.00412E-02 5.16850E-03-5.23184E-14 2.93515E-14
 -1      1213 1.68072E+01-1.11419E-02-2.56152E-02-7.21756E-03-5.95054E-15 1.09763E-13
 -1      1214 1.75489E+01-2.31405E-03-8.68160E-03-1.65296E-02 2.10986E-16 1.27991E-13
 -1      1215 1.83359E+01 4.54105E-03 5.87807E-03-2.11997E-02-3.78360E-14 8.67292E-14
 -1      1216 1.90541E+01 8.50444E-03 1.52363E-02-2.13998E-02-4.14871E-14-1.11584E-13
 -1      1217 1.96318E+01 9.75824E-03 1.89730E-02-1.84440E-02-1.31548E-14-6.91577E-13
 -1      1218 2.00426E+01 9.08136E-03 1.83287E-02-1.39677E-02 4.17178E-14-6.97961E-13
 -1      1219 2.02949E+01 7.36652E-03 1.51367E-02-9.32179E-03-4.23704E-14-4.85533E-13
 -1      1220 2.04173E+01 5.33389E-03 1.10350E-02-5.33259E-03 2.89471E-14-8.38068E-13
 -1      1221 2.04453E+01 3.43868E-03 7.12095E-03-2.33488E-03 1.97628E-14-1.03094E-12
 -1      1222 2.04126E+01 1.89659E-03 3.93957E-03-3.26214E-04-2.94488E-14-4.39665E-13
 -1      1223 2.03466E+01 7.54664E-04 1.62875E-03 8.70090E-04-3.25816E-14-7.22538E-14
 -1      1224 2.02671E+01-3.81876E-05 8.64688E-05 1.48475E-03-4.52730E-15-2.81620E-13
 -1      1225 2.01873E+01-5.78912E-04-9.03419E-04 1.73165E-03-4.37059E-14-4.18672E-13
 -1      1226 2.01156E+01-9.71978E-04-1.59268E-03 1.76829E-03 3.71266E-14-7.23913E-13
 -1      1227 2.00572E+01-1.29457E-03-2.19581E-03 1.66978E-03-7.81373E-14-7.03796E-13
 -1      1228 2.00161E+01-1.49455E-03-2.65267E-03 1.32765E-03 2.08985E-14-3.71195E-13
 -1      1229 1.99962E+01-1.02458E-03-1.87814E-03 3.34077E-04 1.04168E-13-7.90252E-13
 -1      1230 1.99972E+01 9.19130E-04 2.33549E-03-9.32656E-04-2.08520E-14-9.69307E-13
 -1      1231 2.00007E+01-2.73733E-03 2.20561E-03-9.30535E-04-9.62565E-13-8.11031E-14
 -1      1232 1.99983E+01-3.26068E-03-1.98273E-03-9.54545E-04-1.21432E-12 1.86991E-14
 -1      1233 1.99981E+01 1.65427E-02-2.60955E-03 4.68835E-04-6.73864E-13 1.34859E-13
 -1      1234 1.99987E+01 5.47180E-02-1.66336E-03 1.19605E-03-5.16625E-13-1.04573E-13
 -1      1235 1.99995E+01 1.03596E-01-5.15656E-04 1.49402E-03-5.36454E-13 7.20821E-14
 -1      1236 2.00003E+01 1.55266E-01 6.12625E-04 1.51086E-03-1.01236E-12-1.16234E-13
 -1      1237 2.00011E+01 2.02760E-01 1.67562E-03 1.30209E-03-7.23835E-13 1.64573E-14
 -1      1238 2.00018E+01 2.39321E-01 2.61328E-03 8.48760E-04-2.75366E-13-1.35533E-14
 -1      1239 2.00023E+01 2.58177E-01 3.26551E-03 1.96175E-04-8.28583E-13-1.02286E-13
 -1      1240 2.00024E+01 2.54917E-01 3.45398E-03-5.86779E-04-3.64418E-13 4.16637E-15
 -1      1241 2.00021E+01 2.28242E-01 3.00901E-03-1.37124E-03-5.49773E-14-2.75701E-13
 -1      1242 2.00013E+01 1.81534E-01 1.87893E-03-1.98071E-03-2.53337E-13 1.30822E-14
 -1      1243 2.00001E+01 1.22005E-01 9.76112E-05-2.17708E-03-2.72580E-13 6.28518E-14
 -1      1244 1.99987E+01 6.07258E-02-2.02194E-03-1.75210E-03 7.58158E-13-7.64051E-14
 -1      1245 1.99978E+01 1.26408E-02-3.50533E-03-3.87069E-04 1.18644E-12 5.27005E-14
 -1      1246 1.99979E+01-9.92400E-03-2.61257E-03 2.03368E-03 8.84773E-13-2.90465E-14
 -1      1247 1.99984E+01-4.56153E-03 3.01355E-03 1.85893E-03 4.62401E-13-1.59852E-13
 -1      1248-9.94134E-01-2.49076E+01-3.67605E+00-2.21696E+00 1.12499E-12 1.89786E-13
 -1      1249-1.38847E+00-1.34308E+01-2.75529E+00-3.56620E+00 1.46905E-12 6.63747E-13
 -1      1250 1.89206E+00 6.05129E-01-1.40217E+00 1.92706E+00 1.49658E-12 8.84293E-13
 -1      1251 1.27952E+01 1.03551E+01 1.83366E-01 1.13315E+01 7.75158E-13 7.34524E-13
 -1      1252 3.22221E+01 1.20091E+01 1.87977E+00 1.88158E+01 2.75668E-13 2.93765E-13
 -1      1253 5.37351E+01 7.52448E+00 3.36324E+00 1.79352E+01-1.93345E-13-7.03437E-13
 -1      1254 6.77018E+01 2.91208E+00 4.11645E+00 7.73912E+00-1.63827E-13-1.55947E-12
 -1      1255 6.88688E+01 2.65999E+00 4.27177E+00-6.26141E+00 2.51032E-13-1.65623E-12
 -1      1256 5.61679E+01 6.73264E+00 3.49267E+00-1.69647E+01 7.34690E-13-1.90403E-12
 -1      1257 3.59832E+01 1.16513E+01 2.19844E+00-1.93924E+01 1.22180E-12-2.02749E-12
 -1      1258 1.69707E+01 1.16440E+01 6.29674E-01-1.36853E+01 1.48348E-12-1.62381E-12
 -1      1259 4.29822E+00 4.43053E+00-9.18999E-01-4.59820E+00 1.38245E-12-1.12865E-12
 -1      1260-9.80033E-01-8.54014E+00-2.33729E+00 2.42540E+00 1.11910E-12-4.80394E-13
 -1      1261-1.30147E+00-2.14795E+01-3.40121E+00 3.44589E+00 5.37348E-13-1.76414E-13
 -1      1262-9.17126E-01-2.78335E+01-3.93949E+00-6.45222E-01-7.50205E-13-9.23567E-14
 -1      1263-2.09695E+00-2.48645E+01-3.96309E+00-5.20593E+00-1.36169E-12-3.23117E-13
 -1      1264-2.92191E+00-1.42583E+01-3.45212E+00-5.58297E+00-1.44462E-12-6.87894E-13
 -1      1265 1.18812E+00-1.02705E+00-2.30810E+00 6.88457E-01-1.53744E-12-1.24012E-12
 -1      1266 1.57657E+01 8.29012E+00-3.47460E-01 1.12746E+01-1.60805E-12-2.04836E-12
 -1      1267 4.05710E+01 9.94043E+00 2.32372E+00 1.89019E+01-1.06559E-12-1.82832E-12
 -1      1268 6.78336E+01 5.76667E+00 5.10947E+00 1.64987E+01-3.49720E-13-1.27720E-12
 -1      1269 8.29506E+01 2.61431E+00 6.71691E+00 3.22263E+00-9.20097E-14 1.23235E-14
 -1      1270 7.70582E+01 3.92690E+00 6.15366E+00-1.20154E+01-2.44887E-13 1.14286E-12
 -1      1271 5.31393E+01 8.57240E+00 3.65794E+00-1.90789E+01-4.77618E-13 1.30007E-12
 -1      1272 2.62034E+01 1.00740E+01 8.68996E-01-1.56094E+01-7.91145E-13 1.20792E-12
 -1      1273 6.83175E+00 4.19143E+00-1.51829E+00-5.73051E+00-1.15130E-12 1.12998E-12
 -1      1274-1.82979E+00-7.80767E+00-2.99352E+00 3.10189E+00-8.94174E-13 6.27054E-13
 -1      1275-2.75242E+00-2.07284E+01-3.82726E+00 6.15026E+00-3.29181E-13 3.12972E-13
 -1      1276-1.30576E+00-2.76599E+01-4.03508E+00 2.88101E+00 8.82239E-13-9.05526E-15
 -1      1277 2.23266E+01 1.89117E+00-7.17475E-01-2.85193E+00-5.05984E-14 9.59788E-13
 -1      1278 2.03549E+01 4.69559E+00-4.72705E-02-3.31103E+00-1.53655E-13-4.64490E-14
 -1      1279 2.08505E+01 4.85126E+00-9.83484E-02-4.16732E+00-1.97981E-13 1.78073E-13
 -1      1280 1.95297E+01 4.99454E+00-1.93914E-02-2.65576E+00-1.47105E-13-3.60701E-13
 -1      1281 1.98276E+01 5.09208E+00 9.55562E-04-3.04558E+00-1.71252E-13-2.26305E-13
 -1      1282 2.05238E+01 3.95365E+00-2.48714E-02-3.07900E+00-2.62651E-13-2.95458E-14
 -1      1283 1.91861E+01 5.08434E+00-3.32137E-03-2.07181E+00-1.11019E-13-5.19987E-13
 -1      1284 1.93330E+01 5.13934E+00 1.05904E-02-2.36513E+00-1.33067E-13-4.52065E-13
 -1      1285 1.97540E+01 4.36701E+00-2.37688E-02-2.49188E+00-2.25459E-13-2.98539E-13
 -1      1286 1.90121E+01 5.13157E+00 3.50102E-03-1.56520E+00-8.15858E-14-5.79262E-13
 -1      1287 1.90893E+01 5.16104E+00 1.28490E-02-1.81530E+00-9.40515E-14-5.51399E-13
 -1      1288 1.93946E+01 4.55510E+00-1.94783E-02-1.93210E+00-1.73788E-13-4.29597E-13
 -1      1289 1.89198E+01 5.16170E+00 6.58490E-03-1.11740E+00-5.11184E-14-5.93275E-13
 -1      1290 1.89616E+01 5.17789E+00 1.28087E-02-1.33895E+00-6.55552E-14-5.88054E-13
 -1      1291 1.92091E+01 4.66205E+00-1.60246E-02-1.44506E+00-1.24076E-13-4.74360E-13
 -1      1292 1.88692E+01 5.18186E+00 8.20417E-03-6.94001E-01-2.15424E-14-5.82251E-13
 -1      1293 1.88918E+01 5.19061E+00 1.20357E-02-9.04267E-01-3.11478E-14-5.89837E-13
 -1      1294 1.91074E+01 4.72797E+00-1.39703E-02-1.00438E+00-7.23505E-14-4.88793E-13
 -1      1295 1.88457E+01 5.19401E+00 9.29799E-03-2.89297E-01 9.44939E-15-5.64094E-13
 -1      1296 1.88554E+01 5.19779E+00 1.10927E-02-4.91407E-01 2.66280E-15-5.73652E-13
 -1      1297 1.90524E+01 4.76737E+00-1.28926E-02-5.88824E-01-2.03552E-14-4.69472E-13
 -1      1298 1.88419E+01 5.19901E+00 1.02330E-02 1.08041E-01 4.18857E-14-5.52952E-13
 -1      1299 1.88416E+01 5.19890E+00 1.01673E-02-9.15909E-02 3.24056E-14-5.61074E-13
 -1      1300 1.90285E+01 4.78563E+00-1.24408E-02-1.89196E-01 3.75811E-14-4.59990E-13
 -1      1301 1.88569E+01 5.19743E+00 1.11779E-02 5.08395E-01 6.44554E-14-5.26332E-13
 -1      1302 1.88465E+01 5.19339E+00 9.23838E-03 3.05897E-01 5.55062E-14-5.41085E-13
 -1      1303 1.90292E+01 4.78503E+00-1.24575E-02 2.05549E-01 7.68562E-14-4.45585E-13
 -1      1304 1.88946E+01 5.18947E+00 1.21209E-02 9.22623E-01 9.16515E-14-4.92056E-13
 -1      1305 1.88713E+01 5.18057E+00 8.14719E-03 7.11463E-01 8.06256E-14-5.13785E-13
 -1      1306 1.90547E+01 4.76541E+00-1.29434E-02 6.05803E-01 1.23310E-13-4.20532E-13
 -1      1307 1.89653E+01 5.17607E+00 1.29207E-02 1.35587E+00 1.18631E-13-4.32789E-13
 -1      1308 1.89227E+01 5.15953E+00 6.47040E-03 1.13297E+00 1.09679E-13-4.67728E-13
 -1      1309 1.91112E+01 4.72462E+00-1.39681E-02 1.01905E+00 1.61845E-13-3.84276E-13
 -1      1310 1.90963E+01 5.15720E+00 1.29210E-02 1.84051E+00 1.52735E-13-3.37258E-13
 -1      1311 1.90177E+01 5.12708E+00 3.17441E-03 1.58772E+00 1.39985E-13-3.95279E-13
 -1      1312 1.92153E+01 4.65582E+00-1.61225E-02 1.46217E+00 2.12042E-13-3.16001E-13
 -1      1313 1.93437E+01 5.13305E+00 1.04551E-02 2.39753E+00 1.82049E-13-1.69958E-13
 -1      1314 1.91942E+01 5.07652E+00-4.15154E-03 2.10020E+00 1.66048E-13-2.71443E-13
 -1      1315 1.94061E+01 4.54287E+00-1.98913E-02 1.95757E+00 2.57612E-13-2.15852E-13
 -1      1316 1.98511E+01 5.09858E+00 6.01596E-03 3.08410E+00 2.02463E-13 1.31464E-13
 -1      1317 1.95416E+01 4.98411E+00-2.02158E-02 2.69696E+00 1.81549E-13-4.89574E-14
 -1      1318 1.97726E+01 4.34552E+00-2.47611E-02 2.52790E+00 2.93515E-13-2.35992E-14
 -1      1319 2.10960E+01 4.90524E+00 7.93565E-03 4.05328E+00 1.72473E-13 6.75265E-13
 -1      1320 2.03285E+01 4.73300E+00-4.80677E-02 3.41587E+00 1.65618E-13 3.50137E-13
 -1      1321 2.05584E+01 3.91529E+00-2.28645E-02 3.17841E+00 2.96319E-13 3.10210E-13
 -1      1322 2.71916E+01 3.20423E+00 9.28460E-01 4.58120E+00 7.52315E-14 1.64596E-12
 -1      1323 2.20117E+01 3.52127E+00-1.82083E-01 3.88442E+00 8.28226E-14 9.74110E-13
 -1      1324 2.21054E+01 2.56112E+00-3.25551E-02 3.45636E+00 2.77920E-13 7.97418E-13
 -1      1325 2.14169E+01 3.59594E-01-7.63507E-01 1.18377E+00 1.38077E-13 1.59944E-12
 -1      1326 2.21182E+01 1.95680E-01-4.01925E-01-1.36913E+00-1.56694E-13 1.03226E-12
 -1      1327 2.07328E+01 3.28747E-01-1.78592E-01-8.47654E-01-1.44884E-13 8.50382E-13
 -1      1328 2.01341E+01 1.61022E-01-8.03920E-02-4.21078E-01-1.25074E-13 7.79071E-13
 -1      1329 1.96396E+01 9.40706E-02-1.86736E-02-3.46254E-01-1.20057E-13 5.98133E-13
 -1      1330 2.10259E+01 4.15846E-01-1.02802E-01-1.33514E+00-2.49301E-13 4.28244E-13
 -1      1331 1.92690E+01 6.73981E-02 1.32435E-03-1.43188E-01-9.11328E-14 5.40162E-13
 -1      1332 1.91048E+01 4.28219E-02 1.27019E-02-1.24760E-01-8.88456E-14 4.02015E-13
 -1      1333 1.99493E+01 1.41372E-01-3.69102E-02-5.30072E-01-1.97585E-13 3.33920E-13
 -1      1334 1.89376E+01 3.27075E-02 1.31568E-02-3.17416E-02-7.13761E-14 3.39714E-13
 -1      1335 1.89137E+01 2.02150E-02 1.12213E-02-2.20079E-02-7.97201E-14 2.21198E-13
 -1      1336 1.94527E+01 5.79349E-02-9.19641E-03-1.81376E-01-1.62930E-13 2.19647E-13
 -1      1337 1.88544E+01 1.66808E-02 8.98582E-03 2.34597E-02-6.47887E-14 1.76388E-13
 -1      1338 1.88950E+01 9.62041E-03 6.62648E-03 2.83358E-02-5.81447E-14 9.01640E-14
 -1      1339 1.92345E+01 2.55693E-02-3.71706E-03-1.62682E-02-1.41555E-13 8.87406E-14
 -1      1340 1.88940E+01 8.35519E-03 4.84993E-03 5.07467E-02-4.76919E-14 5.48901E-14
 -1      1341 1.89644E+01 3.97566E-03 3.78784E-03 5.28495E-02-4.60765E-14-1.41501E-14
 -1      1342 1.91737E+01 1.09649E-02-2.34727E-03 6.60883E-02-9.55902E-14 1.41215E-14
 -1      1343 1.89947E+01 3.66902E-03 2.57569E-03 6.27687E-02-5.21066E-14-3.44091E-14
 -1      1344 1.90768E+01 8.47086E-04 2.33827E-03 6.32637E-02-6.10354E-14-1.23040E-13
 -1      1345 1.91998E+01 3.46332E-03-1.46249E-03 1.05784E-01-9.02822E-14-6.06429E-14
 -1      1346 1.91229E+01 1.00887E-03 1.44940E-03 6.62101E-02-3.42850E-14-1.36357E-13
 -1      1347 1.92071E+01-8.09967E-04 1.57560E-03 6.58129E-02-2.35436E-14-1.90155E-13
 -1      1348 1.92722E+01-5.18052E-04-7.31261E-04 1.21943E-01-8.73386E-14-8.88454E-14
 -1      1349 1.92603E+01-3.95633E-04 8.71053E-04 6.50498E-02-2.26406E-14-1.93113E-13
 -1      1350 1.93416E+01-1.51708E-03 1.13746E-03 6.42379E-02-1.64875E-14-2.35734E-13
 -1      1351 1.93675E+01-2.47005E-03-2.24255E-04 1.25103E-01-4.94322E-14-1.52882E-13
 -1      1352 1.93971E+01-9.53003E-04 5.56743E-04 6.18905E-02-2.88029E-14-2.71167E-13
 -1      1353 1.94735E+01-1.55811E-03 8.77117E-04 6.10035E-02-1.83499E-14-2.77277E-13
 -1      1354 1.94724E+01-3.11023E-03 5.05414E-05 1.21763E-01-6.29087E-14-1.60023E-13
 -1      1355 1.95292E+01-8.87249E-04 3.87886E-04 5.85837E-02-6.55969E-16-2.90407E-13
 -1      1356 1.96011E+01-1.08419E-03 7.37285E-04 5.78830E-02-3.17149E-16-3.21359E-13
 -1      1357 1.95802E+01-2.81209E-03 1.27936E-04 1.16323E-01-2.40919E-14-2.15305E-13
 -1      1358 1.96568E+01-3.07304E-04 3.12143E-04 5.65904E-02 6.99961E-16-3.24284E-13
 -1      1359 1.97260E+01-1.52961E-04 6.94974E-04 5.63027E-02-2.13104E-14-3.26447E-13
 -1      1360 1.96887E+01-1.75350E-03 4.30777E-05 1.12063E-01-2.27194E-14-2.69104E-13
 -1      1361 1.97835E+01 7.68491E-04 3.02288E-04 5.72415E-02-4.46689E-14-3.21241E-13
 -1      1362 1.98536E+01 1.26131E-03 7.42171E-04 5.75987E-02-4.23806E-15-3.38647E-13
 -1      1363 1.97990E+01 3.43908E-05-1.84761E-04 1.11763E-01-1.62864E-14-2.65035E-13
 -1      1364 1.99156E+01 2.41190E-03 3.39978E-04 6.19775E-02-4.95790E-14-3.46696E-13
 -1      1365 1.99920E+01 3.27533E-03 8.78387E-04 6.32614E-02-8.81395E-14-4.26277E-13
 -1      1366 1.99154E+01 2.66462E-03-5.56377E-04 1.18196E-01-6.96014E-14-3.57911E-13
 -1      1367 2.00634E+01 4.80214E-03 4.06082E-04 7.26170E-02-4.89910E-14-4.26727E-13
 -1      1368 2.01538E+01 6.11927E-03 1.10426E-03 7.52158E-02-3.01517E-14-4.89407E-13
 -1      1369 2.00454E+01 6.42366E-03-1.09512E-03 1.34632E-01-8.12930E-14-2.96656E-13
 -1      1370 2.02414E+01 8.26037E-03 4.68423E-04 9.16974E-02 1.63497E-14-4.73978E-13
 -1      1371 2.03570E+01 1.01734E-02 1.40904E-03 9.61837E-02 4.78014E-14-4.54840E-13
 -1      1372 2.02000E+01 1.18315E-02-1.85168E-03 1.65437E-01-1.11356E-14-2.39677E-13
 -1      1373 2.04703E+01 1.33014E-02 4.58570E-04 1.22928E-01 4.85959E-14-4.48452E-13
 -1      1374 2.06272E+01 1.60140E-02 1.74167E-03 1.30169E-01 1.31739E-14-4.13510E-13
 -1      1375 2.03946E+01 1.97344E-02-2.91322E-03 2.16846E-01 4.59498E-14-2.38665E-13
 -1      1376 2.07797E+01 2.06948E-02 2.24469E-04 1.71778E-01 2.23424E-14-3.45331E-13
 -1      1377 2.10016E+01 2.44474E-02 1.94733E-03 1.83089E-01 3.87203E-14-3.26170E-13
 -1      1378 2.06511E+01 3.14220E-02-4.41968E-03 2.97954E-01 7.38476E-14-1.69767E-13
 -1      1379 2.12117E+01 3.14981E-02-5.60582E-04 2.46150E-01-3.84532E-14-2.61399E-13
 -1      1380 2.15331E+01 3.64592E-02 1.64929E-03 2.63475E-01-3.76530E-14-3.15984E-13
 -1      1381 2.09995E+01 4.87148E-02-6.59002E-03 4.21889E-01 2.10678E-14-3.71281E-14
 -1      1382 2.18257E+01 4.69420E-02-2.54036E-03 3.56824E-01-7.06319E-14-3.34516E-13
 -1      1383 2.22958E+01 5.28742E-02 1.00481E-04 3.82879E-01-6.45551E-14-4.22719E-13
 -1      1384 2.14807E+01 7.38308E-02-9.75136E-03 6.06741E-01-7.16649E-14-7.86331E-14
 -1      1385 2.27023E+01 6.78217E-02-6.77059E-03 5.16693E-01-2.39166E-14-4.58961E-13
 -1      1386 2.33869E+01 7.31969E-02-3.75660E-03 5.54777E-01 2.51656E-14-4.51882E-13
 -1      1387 2.21476E+01 1.08460E-01-1.43073E-02 8.74915E-01-8.73893E-14-1.85082E-13
 -1      1388 2.39431E+01 9.25040E-02-1.42801E-02 7.36036E-01 8.52235E-14-4.45855E-13
 -1      1389 2.49186E+01 9.24046E-02-1.02042E-02 7.88632E-01 6.68736E-14-3.40769E-13
 -1      1390 2.30642E+01 1.50535E-01-2.03965E-02 1.24714E+00 7.31776E-14-2.20239E-13
 -1      1391 2.56553E+01 1.11545E-01-2.37348E-02 1.00725E+00 2.28732E-14-3.56694E-13
 -1      1392 2.69764E+01 9.35580E-02-1.50973E-02 1.07099E+00-3.84432E-14-4.02470E-13
 -1      1393 2.42959E+01 1.85188E-01-2.66211E-02 1.72218E+00 5.93969E-14-2.73276E-13
 -1      1394 2.78987E+01 9.60179E-02-2.53657E-02 1.26663E+00 1.20190E-14-3.33608E-13
 -1      1395 2.95063E+01 3.55960E-02-3.73871E-03 1.31859E+00 5.73140E-14-2.58876E-13
 -1      1396 2.58854E+01 1.64782E-01-2.70930E-02 2.22469E+00 5.03937E-15-2.30926E-13
 -1      1397 3.05583E+01-1.77531E-02 5.92544E-03 1.32292E+00 1.28019E-13-2.42806E-13
 -1      1398 3.20907E+01-1.49316E-01 4.71591E-02 1.29464E+00 4.98004E-14-1.11106E-13
 -1      1399 2.78057E+01-1.80233E-02-8.52390E-03 2.50262E+00 1.72007E-13-1.77348E-13
 -1      1400 3.31079E+01-3.08448E-01 9.70375E-02 7.99299E-01 5.45501E-14 9.39665E-14
 -1      1401 3.36872E+01-4.98487E-01 1.22064E-01 5.60878E-01 1.05617E-13 1.99826E-13
 -1      1402 2.98854E+01-5.08776E-01 4.10101E-02 2.00917E+00 1.65312E-13-8.50188E-14
 -1      1403 3.43211E+01-6.84046E-01 1.94427E-01-6.28438E-01 9.45737E-14 1.87489E-13
 -1      1404 3.29059E+01-7.48298E-01 9.98167E-02-1.07202E+00 8.66668E-15 3.49359E-13
 -1      1405 3.16711E+01-1.24360E+00 8.67898E-02 1.16035E-01 1.46279E-13 2.16262E-13
 -1      1406 3.28338E+01-6.78684E-01 9.88101E-02-2.48828E+00-1.08427E-13 3.59157E-13
 -1      1407 2.94403E+01-3.48036E-01-1.82148E-01-2.79740E+00-1.68865E-13 1.37668E-13
 -1      1408 3.24254E+01-1.52617E+00-2.02969E-02-3.06186E+00-1.04312E-13 2.32654E-13
 -1      1409 2.87677E+01 1.38571E-01-3.04809E-01-3.10077E+00-2.42750E-13 7.21645E-14
 -1      1410 2.57605E+01 6.31275E-01-5.81453E-01-2.79992E+00-3.23852E-13-3.12472E-13
 -1      1411 3.22179E+01-3.66622E-01-1.49693E-01-5.14375E+00-3.16080E-13 2.30295E-13
 -1      1412 2.51191E+01 1.19555E+00-6.86667E-01-1.33498E+00-3.33011E-13-3.56631E-13
 -1      1413 2.42282E+01 1.31928E+00-7.98017E-01-5.60106E-01-2.44582E-13-6.92470E-13
 -1      1414 3.11816E+01 1.78559E+00-3.32175E-01-3.71219E+00-5.55556E-13 4.57065E-14
 -1      1415 2.64975E+01 2.04377E-01-4.78859E-01 2.82182E+00 1.29591E-13-1.12599E-12
 -1      1416 3.01729E+01-2.44583E-01-1.25624E-01 2.81353E+00 1.30035E-13-9.46687E-13
 -1      1417 3.11897E+01-4.58765E-01 1.83198E-03 1.99190E+00 4.17552E-14-9.07829E-13
 -1      1418 3.40590E+01-6.27002E-01 2.24616E-01 1.56777E+00-2.81320E-14-8.34527E-13
 -1      1419 3.19619E+01-6.73352E-01-4.98958E-02 4.28998E+00 1.21375E-13-5.85483E-13
 -1      1420 3.40141E+01-5.01124E-01 1.90876E-01 2.06807E-01 1.48076E-14-7.63639E-13
 -1      1421 3.44539E+01-3.69588E-01 2.04541E-01-1.47520E-01 1.64799E-13-5.83374E-13
 -1      1422 3.26170E+01-1.12233E+00 1.11857E-01 1.48163E+00 1.21653E-13-5.35134E-13
 -1      1423 3.35761E+01-2.50571E-01 1.14514E-01-9.05819E-01 1.30170E-13-6.68833E-13
 -1      1424 3.23673E+01-7.72882E-02 6.59299E-02-1.02804E+00 5.63542E-14-5.06692E-13
 -1      1425 3.15373E+01-6.40477E-01 9.25558E-02-1.07162E+00 1.37231E-13-6.36921E-13
 -1      1426 3.12173E+01-4.64794E-02 1.72956E-02-1.18874E+00-1.01241E-13-4.89150E-13
 -1      1427 2.95414E+01 5.83414E-02-1.56709E-02-1.17960E+00-6.95494E-14-5.91430E-13
 -1      1428 2.95088E+01-1.54348E-01 2.08487E-02-2.12703E+00 1.13329E-14-5.37057E-13
 -1      1429 2.84487E+01 4.55592E-02-2.26194E-02-1.05446E+00 9.19117E-14-5.33795E-13
 -1      1430 2.69347E+01 8.92138E-02-3.53119E-02-1.00352E+00 1.44390E-13-3.17329E-13
 -1      1431 2.73180E+01 7.92727E-02-1.91928E-02-2.14052E+00 5.07530E-14-1.92894E-13
 -1      1432 2.60344E+01 6.74879E-02-2.50133E-02-8.06579E-01 1.69528E-13-3.12847E-13
 -1      1433 2.48692E+01 7.87637E-02-2.87942E-02-7.54398E-01 7.57545E-14-6.12566E-14
 -1      1434 2.53850E+01 1.37934E-01-2.79134E-02-1.74344E+00 2.21059E-13-1.54758E-13
 -1      1435 2.41826E+01 6.06439E-02-1.63887E-02-5.76019E-01-1.23726E-13-5.59969E-14
 -1      1436 2.33505E+01 5.89010E-02-1.81758E-02-5.34717E-01-1.22125E-13-2.06418E-13
 -1      1437 2.38492E+01 1.24311E-01-2.35161E-02-1.28919E+00-6.51562E-15-2.16596E-13
 -1      1438 2.28494E+01 4.65607E-02-8.53052E-03-3.98226E-01 8.84362E-15-2.08746E-13
 -1      1439 2.22762E+01 4.10684E-02-1.02314E-02-3.68560E-01-8.24401E-14-3.21076E-13
 -1      1440 2.26998E+01 9.32397E-02-1.67997E-02-9.09017E-01-6.71338E-14-7.22061E-14
 -1      1441 2.19195E+01 3.33576E-02-3.73433E-03-2.71510E-01 2.80193E-14-5.39114E-13
 -1      1442 2.15308E+01 2.77358E-02-5.45451E-03-2.51102E-01-3.16674E-14-4.93753E-13
 -1      1443 2.18686E+01 6.47132E-02-1.13420E-02-6.26596E-01-9.19950E-14-3.10149E-13
 -1      1444 2.12800E+01 2.31316E-02-1.30471E-03-1.84433E-01-9.91837E-14-4.29823E-13
 -1      1445 2.10176E+01 1.84941E-02-2.83034E-03-1.70652E-01-2.83016E-14-5.12749E-13
 -1      1446 2.12787E+01 4.33627E-02-7.57004E-03-4.28060E-01-1.02600E-14-4.79058E-13
 -1      1447 2.08422E+01 1.58220E-02-2.19382E-04-1.25519E-01 1.41809E-13-1.86565E-13
 -1      1448 2.06647E+01 1.23199E-02-1.44077E-03-1.16260E-01 1.55757E-13 1.12048E-13
 -1      1449 2.08639E+01 2.86480E-02-5.08482E-03-2.92057E-01 2.27954E-13-6.37893E-14
 -1      1450 2.05421E+01 1.08117E-02 2.01813E-04-8.57618E-02-6.05232E-14-3.75802E-14
 -1      1451 2.04217E+01 8.28686E-03-7.21093E-04-7.95097E-02-7.52211E-14-7.84968E-14
 -1      1452 2.05732E+01 1.89110E-02-3.46018E-03-1.99764E-01-1.55600E-14 1.71880E-13
 -1      1453 2.03361E+01 7.48424E-03 3.12275E-04-5.86810E-02-3.36945E-14-3.14790E-13
 -1      1454 2.02543E+01 5.71687E-03-3.76809E-04-5.43780E-02-7.80152E-14-4.75614E-13
 -1      1455 2.03696E+01 1.26436E-02-2.40220E-03-1.36947E-01-2.11819E-13-4.76389E-13
 -1      1456 2.01949E+01 5.37258E-03 2.59109E-04-3.97272E-02-1.13670E-13-4.77822E-13
 -1      1457 2.01400E+01 4.15477E-03-2.77028E-04-3.66280E-02-3.71840E-14-4.21728E-13
 -1      1458 2.02276E+01 8.76006E-03-1.73509E-03-9.34227E-02-1.24863E-13-7.04583E-13
 -1      1459 2.00998E+01 4.16898E-03 8.47879E-05-2.56751E-02-4.64776E-14-4.93734E-13
 -1      1460 2.00649E+01 3.29515E-03-3.50767E-04-2.32204E-02-1.01716E-13-6.14217E-13
 -1      1461 2.01296E+01 6.55982E-03-1.35826E-03-6.19739E-02-4.11182E-14-4.80368E-13
 -1      1462 2.00393E+01 3.64262E-03-1.57406E-04-1.42407E-02-1.43438E-13-6.93710E-13
 -1      1463 2.00209E+01 2.84844E-03-3.65455E-04-1.20022E-02-1.02915E-13-7.98520E-13
 -1      1464 2.00645E+01 5.55976E-03-1.17193E-03-3.74743E-02-2.88437E-13-6.69731E-13
 -1      1465 2.00068E+01 3.05951E-03-2.01519E-04-4.37381E-03 3.13521E-14-8.79367E-13
 -1      1466 2.00028E+01 2.58808E-03 7.05366E-04-2.33383E-03 1.17867E-13-7.26483E-13
 -1      1467 2.00249E+01 5.03501E-03-9.24911E-04-1.68804E-02-1.58191E-13-5.57007E-13
 -1      1468 1.99984E+01 1.81562E-03 6.79659E-04 1.58034E-03 1.91963E-13-5.89428E-13
 -1      1469 2.00010E+01 6.32708E-04 3.05680E-03 9.47373E-04 2.24882E-13-3.08076E-13
 -1      1470 2.00014E+01-2.27070E-03 3.64021E-04 1.54667E-03 6.41097E-13-8.29366E-14
 -1      1471 2.00077E+01 4.35288E-03-9.49699E-05-3.26890E-03 3.39448E-13-6.32852E-13
 -1      1472 2.02494E+01 7.58284E-02-1.51741E-01 4.83693E-01 1.37126E-13 1.30331E-12
 -1      1473 2.15202E+01 2.16040E-01-2.29231E-01 7.21159E-01 1.14658E-13 1.50818E-12
 -1      1474 2.17202E+01 8.82125E-01-8.52464E-02 2.06511E+00 2.25785E-13 1.03073E-12
 -1      1475 1.93195E+01 3.41670E-02-2.07789E-02 1.85388E-01 9.57429E-14 1.05377E-12
 -1      1476 1.97426E+01 1.14134E-01-6.19565E-02 2.39087E-01 9.14477E-14 1.19573E-12
 -1      1477 2.02948E+01 1.86282E-01-5.54885E-02 7.88283E-01 1.95621E-13 8.41093E-13
 -1      1478 1.89391E+01 1.66713E-02 6.06970E-03 5.25555E-02 6.51207E-14 8.85327E-13
 -1      1479 1.90794E+01 5.14076E-02 1.68523E-03 7.99763E-02 5.82919E-14 9.84261E-13
 -1      1480 1.95463E+01 6.68553E-02-1.53503E-02 2.97306E-01 1.39715E-13 7.01907E-13
 -1      1481 1.88298E+01 8.62066E-03 7.17130E-03-9.19616E-03 3.26002E-14 7.92352E-13
 -1      1482 1.88462E+01 2.54427E-02 1.15270E-02 5.85972E-03 3.65975E-14 8.40217E-13
 -1      1483 1.92119E+01 2.12044E-02-6.94840E-03 7.62293E-02 8.23161E-14 5.81769E-13
 -1      1484 1.88578E+01 3.90434E-03 4.80377E-03-3.99387E-02 2.79464E-14 7.20203E-13
 -1      1485 1.88141E+01 1.36151E-02 8.54207E-03-3.16160E-02 2.61635E-14 7.58917E-13
 -1      1486 1.90971E+01 7.14116E-03-4.70998E-03-2.89224E-02 5.61812E-14 5.14418E-13
 -1      1487 1.89552E+01 1.32986E-03 3.25492E-03-5.39712E-02 8.92819E-15 6.75088E-13
 -1      1488 1.88834E+01 7.34077E-03 5.31528E-03-4.94432E-02 1.31776E-14 6.77724E-13
 -1      1489 1.91024E+01 1.19689E-03-3.27872E-03-7.97450E-02 4.38902E-14 4.65035E-13
 -1      1490 1.90849E+01-8.42097E-05 2.41715E-03-5.88356E-02 4.70136E-14 5.73710E-13
 -1      1491 1.90020E+01 3.75204E-03 3.39783E-03-5.65873E-02 3.42551E-14 6.32808E-13
 -1      1492 1.91703E+01-1.60163E-03-2.17742E-03-1.02593E-01 6.18627E-14 3.69759E-13
 -1      1493 1.92259E+01-8.12490E-04 1.90520E-03-5.86355E-02 4.54306E-14 4.53224E-13
 -1      1494 1.91413E+01 1.63691E-03 2.30188E-03-5.77459E-02 3.85689E-14 5.29657E-13
 -1      1495 1.92694E+01-2.89859E-03-1.34116E-03-1.09984E-01 6.97978E-14 3.34211E-13
 -1      1496 1.93669E+01-1.10700E-03 1.52267E-03-5.58791E-02 5.65020E-14 3.28294E-13
 -1      1497 1.92854E+01 4.48340E-04 1.62705E-03-5.57469E-02 4.33086E-14 4.19926E-13
 -1      1498 1.93816E+01-3.32573E-03-7.69947E-04-1.08970E-01 8.84180E-14 2.77184E-13
 -1      1499 1.95023E+01-1.12498E-03 1.19820E-03-5.21682E-02 3.55877E-14 2.97929E-13
 -1      1500 1.94259E+01-1.28243E-04 1.17004E-03-5.23866E-02 4.24575E-14 3.44470E-13
 -1      1501 1.94970E+01-3.21629E-03-4.22371E-04-1.03881E-01 6.72411E-14 2.41520E-13
 -1      1502 1.96301E+01-9.77862E-04 9.10462E-04-4.85170E-02-1.05213E-14 2.58762E-13
 -1      1503 1.95592E+01-3.00194E-04 8.39437E-04-4.88124E-02 8.60912E-15 2.30104E-13
 -1      1504 1.96102E+01-2.78491E-03-2.43293E-04-9.74645E-02 4.30048E-14 1.95441E-13
 -1      1505 1.97507E+01-7.55741E-04 6.55210E-04-4.55054E-02 4.63247E-14 2.30264E-13
 -1      1506 1.96846E+01-2.24788E-04 5.90727E-04-4.57061E-02 1.06827E-14 2.28647E-13
 -1      1507 1.97193E+01-2.19504E-03-1.81183E-04-9.14038E-02 1.50110E-14 1.01129E-13
 -1      1508 1.98656E+01-5.42687E-04 4.35816E-04-4.33413E-02 1.65678E-14 1.94338E-13
 -1      1509 1.98031E+01-4.09941E-05 3.98157E-04-4.33668E-02 3.08333E-14 2.20030E-13
 -1      1510 1.98241E+01-1.59369E-03-1.89938E-04-8.65611E-02 3.52077E-14 8.09533E-14
 -1      1511 1.99761E+01-4.28021E-04 2.62602E-04-4.18628E-02 4.98726E-15 1.08571E-13
 -1      1512 1.99163E+01 1.08242E-04 2.45032E-04-4.17277E-02 1.44773E-14 1.82634E-13
 -1      1513 1.99253E+01-1.13532E-03-2.24238E-04-8.30582E-02 3.74121E-14 6.25804E-14
 -1      1514 2.00830E+01-5.14189E-04 1.54988E-04-4.04961E-02 6.35966E-15 1.18889E-13
 -1      1515 2.00252E+01 5.87862E-05 1.21161E-04-4.03268E-02 3.68543E-14 1.64760E-13
 -1      1516 2.00233E+01-9.99942E-04-2.33549E-04-8.02526E-02 3.02916E-14 1.43416E-13
 -1      1517 2.01848E+01-9.19210E-04 1.44007E-04-3.81859E-02-2.21501E-14 9.80290E-14
 -1      1518 2.01298E+01-3.85609E-04 2.30772E-05-3.82474E-02-3.21341E-14 7.88326E-14
 -1      1519 2.01175E+01-1.40356E-03-1.56713E-04-7.66428E-02 8.66494E-16 1.02975E-13
 -1      1520 2.02764E+01-1.76912E-03 2.72955E-04-3.33303E-02 4.36224E-14-1.83649E-14
 -1      1521 2.02270E+01-1.45223E-03-4.46274E-05-3.40554E-02 4.89767E-14 7.95540E-14
 -1      1522 2.02050E+01-2.59355E-03 8.12297E-05-6.97500E-02 7.17599E-14 3.66925E-14
 -1      1523 2.03481E+01-3.17336E-03 5.92569E-04-2.37755E-02-1.40968E-14-9.03229E-14
 -1      1524 2.03098E+01-3.37582E-03-6.83512E-05-2.57814E-02 2.53240E-14-2.85503E-14
 -1      1525 2.02797E+01-4.81614E-03 5.66969E-04-5.60571E-02 4.72245E-14 7.10976E-15
 -1      1526 2.03843E+01-5.17468E-03 1.14536E-03-6.96060E-03-3.69955E-14 2.87097E-14
 -1      1527 2.03660E+01-6.33802E-03-2.72742E-05-1.10278E-02-6.79824E-14-4.64145E-14
 -1      1528 2.03311E+01-8.23895E-03 1.38665E-03-3.11416E-02-7.52315E-14 2.86362E-14
 -1      1529 2.03631E+01-7.66851E-03 1.93334E-03 1.96616E-02 1.01481E-15 1.77441E-13
 -1      1530 2.03774E+01-1.03560E-02 9.85313E-05 1.26889E-02-5.20152E-14 1.05759E-13
 -1      1531 2.03439E+01-1.28135E-02 2.59693E-03 9.80195E-03-1.13468E-13 7.05041E-14
 -1      1532 2.02576E+01-1.02992E-02 2.86729E-03 5.78016E-02-3.38974E-14 2.02035E-13
 -1      1533 2.03198E+01-1.51196E-02 3.10167E-04 4.72381E-02 2.74531E-14 2.31910E-13
 -1      1534 2.02981E+01-1.80796E-02 4.17430E-03 7.08164E-02-1.05220E-14 7.83399E-14
 -1      1535 2.00399E+01-1.23690E-02 3.70890E-03 1.07058E-01 1.38396E-14 2.18099E-13
 -1      1536 2.01661E+01-1.98111E-02 5.61689E-04 9.27539E-02-1.46879E-14 2.36579E-13
 -1      1537 2.01711E+01-2.29589E-02 5.94543E-03 1.53248E-01 9.54358E-15 1.53875E-13
 -1      1538 1.96886E+01-1.28396E-02 4.04247E-03 1.63382E-01 8.38581E-14 1.25528E-13
 -1      1539 1.98908E+01-2.30063E-02 7.31519E-04 1.46213E-01 6.11720E-14 2.01405E-13
 -1      1540 1.99422E+01-2.56613E-02 7.52059E-03 2.53141E-01 8.60002E-14 1.83098E-13
 -1      1541 1.91993E+01-1.05363E-02 3.33807E-03 2.17876E-01-9.46530E-15 1.00565E-13
 -1      1542 1.94797E+01-2.28213E-02 6.20027E-04 2.00183E-01-1.66304E-14 4.05370E-14
 -1      1543 1.95999E+01-2.39069E-02 8.28386E-03 3.58655E-01 5.19116E-15 5.71535E-14
 -1      1544 1.85962E+01-4.63923E-03 1.16200E-03 2.56999E-01 3.09555E-14 1.31169E-13
 -1      1545 1.89403E+01-1.74738E-02 7.34749E-06 2.42641E-01 1.09442E-14 1.16436E-13
 -1      1546 1.91503E+01-1.56526E-02 7.51602E-03 4.49008E-01-2.47361E-14 4.15371E-14
 -1      1547 1.79396E+01 4.63059E-03-2.48567E-03 2.65287E-01 6.29931E-14-2.84286E-14
 -1      1548 1.83124E+01-6.25349E-03-1.20941E-03 2.58931E-01 5.31173E-14 2.34049E-14
 -1      1549 1.86264E+01-2.99540E-04 4.69719E-03 4.96967E-01 1.03298E-13-5.72424E-14
 -1      1550 1.73233E+01 1.54897E-02-6.88118E-03 2.30827E-01-6.04183E-15 6.05072E-15
 -1      1551 1.76708E+01 9.47291E-03-2.85083E-03 2.36346E-01-1.55034E-14-6.22835E-14
 -1      1552 1.80901E+01 2.01130E-02-7.73049E-05 4.76259E-01 5.55962E-14-7.49236E-14
 -1      1553 1.68566E+01 2.47988E-02-1.06204E-02 1.51758E-01-2.72911E-14-5.67792E-14
 -1      1554 1.71168E+01 2.59858E-02-4.38615E-03 1.70244E-01-1.69257E-14 8.66321E-15
 -1      1555 1.76254E+01 4.06453E-02-5.81818E-03 3.72773E-01-1.96657E-14 1.88434E-14
 -1      1556 1.66343E+01 2.92604E-02-1.21726E-02 4.00820E-02 3.24263E-15-6.50669E-14
 -1      1557 1.67543E+01 3.83027E-02-5.10322E-03 6.86212E-02 5.61426E-14-3.43649E-14
 -1      1558 1.73193E+01 5.48846E-02-1.08257E-02 1.94645E-01 4.22024E-14 9.72581E-14
 -1      1559 1.67048E+01 2.70779E-02-1.06910E-02-8.05572E-02-6.63089E-14-7.47753E-15
 -1      1560 1.66584E+01 4.23696E-02-4.48215E-03-4.83060E-02-2.66939E-14-5.81278E-14
 -1      1561 1.72353E+01 5.76903E-02-1.34221E-02-2.55254E-02-2.04507E-14 3.96278E-14
 -1      1562 1.70526E+01 1.89853E-02-6.57437E-03-1.83127E-01-2.31386E-14 9.03392E-14
 -1      1563 1.68500E+01 3.70897E-02-2.54816E-03-1.54591E-01-6.10935E-14-2.96100E-14
 -1      1564 1.73918E+01 4.78212E-02-1.28186E-02-2.39952E-01-6.42082E-14 2.90679E-14
 -1      1565 1.76038E+01 7.88049E-03-1.27175E-03-2.47383E-01 3.25577E-14 7.45654E-14
 -1      1566 1.72877E+01 2.48200E-02 7.69453E-05-2.28195E-01-1.05875E-14 1.71876E-14
 -1      1567 1.77547E+01 2.86486E-02-9.51394E-03-4.02987E-01-2.25792E-14-4.17982E-14
 -1      1568 1.82522E+01-2.73482E-03 3.48595E-03-2.66303E-01 4.07860E-14 9.53057E-15
 -1      1569 1.78832E+01 9.97740E-03 2.50446E-03-2.58559E-01 5.01337E-14 4.64906E-15
 -1      1570 1.82507E+01 6.45279E-03-4.92198E-03-4.87337E-01 7.63133E-14 6.81746E-16
 -1      1571 1.88929E+01-1.03192E-02 6.51787E-03-2.45912E-01-6.71930E-14-1.31143E-13
 -1      1572 1.85303E+01-3.15274E-03 4.03075E-03-2.48261E-01 2.42596E-14-7.12486E-14
 -1      1573 1.87910E+01-1.25544E-02-5.63169E-04-4.90646E-01 7.47145E-14-1.55604E-13
 -1      1574 1.94469E+01-1.39845E-02 7.52415E-03-2.00073E-01 1.00072E-13-2.90696E-13
 -1      1575 1.91350E+01-1.19901E-02 4.42171E-03-2.09128E-01 5.96454E-14-1.58628E-13
 -1      1576 1.92972E+01-2.46194E-02 2.56750E-03-4.30879E-01 7.90795E-14-2.08316E-13
 -1      1577 1.98719E+01-1.42378E-02 6.92107E-03-1.44060E-01-7.73947E-15-4.93165E-13
 -1      1578 1.96340E+01-1.60015E-02 3.88127E-03-1.56065E-01 7.53737E-16-4.35901E-13
 -1      1579 1.97164E+01-2.90837E-02 4.18517E-03-3.35429E-01 1.39058E-13-1.77424E-13
 -1      1580 2.01593E+01-1.22725E-02 5.42190E-03-8.99876E-02-6.23559E-14-5.91170E-13
 -1      1581 1.99996E+01-1.61032E-02 2.83595E-03-1.01957E-01 4.87895E-14-5.12274E-13
 -1      1582 2.00249E+01-2.75575E-02 4.52348E-03-2.30556E-01-4.41140E-15-4.10503E-13
 -1      1583 2.03238E+01-9.31808E-03 3.68281E-03-4.50541E-02 7.95434E-14-5.15295E-13
 -1      1584 2.02333E+01-1.37847E-02 1.69989E-03-5.51926E-02-5.99850E-14-5.56321E-13
 -1      1585 2.02232E+01-2.25377E-02 4.03341E-03-1.35134E-01-9.84529E-14-6.06548E-13
 -1      1586 2.03916E+01-6.28687E-03 2.13227E-03-1.19605E-02 1.03919E-13-5.72202E-13
 -1      1587 2.03551E+01-1.04409E-02 7.45862E-04-1.95516E-02 1.08805E-13-4.47680E-13
 -1      1588 2.03274E+01-1.63084E-02 3.15430E-03-5.91421E-02 1.20416E-13-4.38104E-13
 -1      1589 2.03917E+01-3.69475E-03 9.60890E-04 9.68505E-03-1.06536E-13-5.54695E-13
 -1      1590 2.03927E+01-7.05900E-03 8.53339E-05 4.61814E-03-3.31546E-14-5.97662E-13
 -1      1591 2.03599E+01-1.04226E-02 2.20501E-03-5.24035E-03 2.40146E-14-1.84006E-13
 -1      1592 2.03501E+01-1.73293E-03 1.89508E-04 2.18780E-02-1.09918E-13-3.15773E-13
 -1      1593 2.03738E+01-4.17745E-03-2.87559E-04 1.89249E-02-1.88799E-13-4.94860E-13
 -1      1594 2.03438E+01-5.65960E-03 1.36674E-03 2.85435E-02-2.74716E-13-2.55440E-13
 -1      1595 2.02869E+01-3.85728E-04-2.51035E-04 2.70877E-02-4.63110E-14-1.89922E-13
 -1      1596 2.03220E+01-1.98436E-03-4.37888E-04 2.57159E-02-2.48830E-15-1.67055E-13
 -1      1597 2.02988E+01-2.21760E-03 7.11693E-04 4.63176E-02-1.40638E-13-3.27505E-13
 -1      1598 2.02167E+01 4.66083E-04-4.62214E-04 2.75773E-02 2.20605E-13-3.29927E-13
 -1      1599 2.02553E+01-4.46906E-04-4.46056E-04 2.72922E-02 9.11985E-14-1.83098E-13
 -1      1600 2.02403E+01 4.84844E-05 2.41913E-04 5.25642E-02 1.36707E-13-3.21175E-13
 -1      1601 2.01493E+01 9.77002E-04-5.48867E-04 2.50810E-02 7.58873E-14-6.20262E-13
 -1      1602 2.01861E+01 5.82597E-04-3.86156E-04 2.55061E-02 8.90245E-14-4.78507E-13
 -1      1603 2.01791E+01 1.43936E-03-7.95477E-05 5.11424E-02 2.27108E-13-4.85765E-13
 -1      1604 2.00908E+01 1.29583E-03-6.09077E-04 2.07109E-02-1.13948E-13-5.45998E-13
 -1      1605 2.01223E+01 1.29600E-03-3.21941E-04 2.16197E-02 1.30768E-14-4.12866E-13
 -1      1606 2.01222E+01 2.29220E-03-3.10074E-04 4.48623E-02-5.48307E-14-4.64051E-13
 -1      1607 2.00451E+01 1.53448E-03-7.02809E-04 1.50370E-02-1.06899E-13-3.40011E-13
 -1      1608 2.00692E+01 1.86765E-03-3.05202E-04 1.63370E-02-1.43511E-13-4.85212E-13
 -1      1609 2.00740E+01 2.89451E-03-5.11863E-04 3.54360E-02-1.38200E-13-1.25428E-13
 -1      1610 2.00150E+01 1.69977E-03-6.79140E-04 8.24142E-03 1.41843E-13-4.75193E-13
 -1      1611 2.00300E+01 2.40818E-03-3.21867E-04 9.98394E-03 7.81614E-14-3.72546E-13
 -1      1612 2.00374E+01 3.46814E-03-6.67937E-04 2.37543E-02 3.96260E-15-2.74270E-13
 -1      1613 2.00019E+01 1.61509E-03 2.79872E-04 1.36146E-03 7.76935E-14-7.07457E-13
 -1      1614 2.00066E+01 2.51965E-03-1.12602E-04 3.20336E-03 7.74458E-14-5.10798E-13
 -1      1615 2.00135E+01 3.78323E-03-5.36924E-04 1.07264E-02 2.09080E-13-3.18215E-13
 -1      1616 1.99992E+01 6.53382E-05 7.59600E-04-9.33970E-04-3.88155E-13-4.33008E-13
 -1      1617 2.00025E+01 1.12101E-02-3.44477E-04 6.29090E-03-5.11365E-13 4.23216E-14
 -1      1618 2.00026E+01 5.68086E-03 3.04504E-04 4.60813E-03-6.29753E-13 6.38737E-14
 -1      1619 2.00021E+01 3.67411E-02-2.48788E-04 1.34748E-02-3.20685E-13 1.86060E-13
 -1      1620 2.00025E+01 2.22656E-02-2.30787E-04 1.19757E-02-4.91978E-13 1.29412E-13
 -1      1621 2.00049E+01 2.36649E-02-5.37847E-04 1.85038E-02-1.39346E-13 2.33990E-14
 -1      1622 2.00010E+01 7.34349E-02-1.09302E-04 1.84917E-02-5.78157E-13-1.30393E-13
 -1      1623 2.00016E+01 5.24385E-02-2.00316E-04 1.76759E-02-4.48816E-13 1.43011E-14
 -1      1624 2.00032E+01 5.03005E-02-5.91896E-04 3.05313E-02-3.55052E-13 3.64783E-14
 -1      1625 1.99999E+01 1.16443E-01-3.17133E-05 2.08511E-02-4.81871E-13-9.34416E-14
 -1      1626 2.00006E+01 9.22297E-02-9.17500E-05 2.06080E-02-4.80567E-13 1.22232E-13
 -1      1627 2.00015E+01 8.48028E-02-2.87026E-04 3.80705E-02-3.64312E-13-8.65599E-14
 -1      1628 1.99988E+01 1.59342E-01-5.55301E-06 2.03319E-02-6.67598E-13-7.09533E-14
 -1      1629 1.99995E+01 1.35791E-01-4.12454E-05 2.06486E-02-5.52704E-13-2.19441E-13
 -1      1630 1.99997E+01 1.22912E-01 2.39817E-05 4.03350E-02-5.06852E-13-2.79643E-13
 -1      1631 1.99978E+01 1.97643E-01 8.21609E-06 1.69042E-02-3.42030E-13 2.46504E-13
 -1      1632 1.99984E+01 1.77452E-01-3.64150E-06 1.77863E-02-6.41981E-13 4.43122E-14
 -1      1633 1.99979E+01 1.60334E-01 3.41983E-04 3.70427E-02-3.40251E-13 2.97615E-14
 -1      1634 1.99970E+01 2.24784E-01 2.22328E-05 1.07843E-02-5.40075E-13-2.58687E-13
 -1      1635 1.99974E+01 2.11588E-01 3.12468E-05 1.21664E-02-3.64278E-13 1.19268E-13
 -1      1636 1.99962E+01 1.92436E-01 6.51333E-04 2.82684E-02-2.97426E-13 1.54542E-13
 -1      1637 1.99964E+01 2.35995E-01 4.05960E-05 2.55832E-03-4.83553E-13-1.16105E-14
 -1      1638 1.99967E+01 2.32332E-01 7.01351E-05 4.30138E-03-5.67423E-13-1.02649E-13
 -1      1639 1.99949E+01 2.14119E-01 9.10422E-04 1.47218E-02-3.79958E-13-3.10361E-13
 -1      1640 1.99964E+01 2.28379E-01 5.12644E-05-6.72736E-03-2.51560E-13 9.31975E-15
 -1      1641 1.99963E+01 2.35571E-01 1.02808E-04-4.86251E-03-4.90349E-13 3.03889E-13
 -1      1642 1.99943E+01 2.21543E-01 1.06646E-03-2.11128E-03-2.68574E-13 6.50299E-14
 -1      1643 1.99970E+01 2.01887E-01 3.38371E-05-1.55713E-02-1.09521E-13-6.93026E-14
 -1      1644 1.99965E+01 2.19508E-01 1.13965E-04-1.39162E-02-1.26165E-13-4.77241E-14
 -1      1645 1.99945E+01 2.12587E-01 1.06064E-03-1.98567E-02-1.46401E-13 1.29149E-13
 -1      1646 1.99983E+01 1.60791E-01-2.64679E-05-2.21068E-02 1.60772E-14 1.17982E-13
 -1      1647 1.99974E+01 1.85830E-01 6.37264E-05-2.10481E-02 1.08982E-13-1.79637E-13
 -1      1648 1.99958E+01 1.87890E-01 8.64922E-04-3.52960E-02 7.72556E-14 5.32519E-14
 -1      1649 2.00001E+01 1.10583E-01-1.68847E-04-2.48310E-02 3.28242E-13-4.95324E-15
 -1      1650 1.99990E+01 1.39407E-01-6.30466E-05-2.46584E-02 2.45735E-13 3.14067E-13
 -1      1651 1.99981E+01 1.50608E-01 4.50777E-04-4.51943E-02 3.97788E-13 3.00874E-13
 -1      1652 2.00021E+01 6.15979E-02-3.50385E-04-2.23829E-02 7.46855E-13 7.85909E-14
 -1      1653 2.00009E+01 8.77629E-02-2.94570E-04-2.33563E-02 4.97803E-13 6.81056E-14
 -1      1654 2.00013E+01 1.06275E-01-1.16930E-04-4.67352E-02 6.19842E-13 1.79255E-13
 -1      1655 2.00037E+01 2.38792E-02-3.94377E-04-1.46703E-02 7.63066E-13-7.14133E-14
 -1      1656 2.00028E+01 4.14163E-02-5.89062E-04-1.68006E-02 7.65917E-13-2.00260E-14
 -1      1657 2.00047E+01 6.29508E-02-6.82758E-04-3.83625E-02 5.30834E-13 5.40014E-14
 -1      1658 2.00031E+01 4.82806E-03 2.52882E-04-4.77344E-03 8.27239E-13 1.40793E-13
 -1      1659 2.00029E+01 1.07258E-02-7.38717E-04-6.93041E-03 7.99596E-13-5.35234E-14
 -1      1660 2.00062E+01 3.01185E-02-8.62401E-04-2.21585E-02 6.02330E-13-3.14147E-14
 -1      1661 2.00058E+01 9.99967E-03-3.56965E-05-6.45735E-03 6.47274E-13-1.57482E-13
 -1      1662-4.93286E-01-1.51013E+01-1.66408E+00-4.53143E-01 8.04690E-13 3.59351E-13
 -1      1663-6.19670E-01-1.85095E+01-1.98077E+00 9.54894E-01 6.32383E-13 8.34888E-14
 -1      1664 1.89986E+00-6.78893E+00-1.09100E+00 1.33785E+00 1.01874E-12 3.95517E-13
 -1      1665 8.32022E-01-1.30506E+01-1.74702E+00 2.70157E-01 9.16267E-13 3.10731E-13
 -1      1666 1.00235E+01 9.80550E-01-2.54207E-01 6.68937E+00 6.85452E-13 2.47913E-13
 -1      1667 6.06388E+00-4.53865E+00-1.02846E+00 3.38206E+00 8.35110E-13 3.35176E-13
 -1      1668 2.12517E+01 6.70758E+00 5.34226E-01 1.16767E+01 3.22520E-13 1.52212E-13
 -1      1669 1.37780E+01 3.57880E+00-3.94453E-01 7.83919E+00 5.93969E-13 2.76890E-13
 -1      1670 3.72153E+01 7.39603E+00 1.25483E+00 1.40843E+01 1.90958E-14-4.23217E-13
 -1      1671 2.67457E+01 7.82303E+00 3.77625E-01 1.25653E+01 2.61013E-13-3.30846E-14
 -1      1672 5.05362E+01 5.11702E+00 1.58863E+00 1.03825E+01-9.09550E-14-9.02833E-13
 -1      1673 4.24717E+01 7.19129E+00 1.12697E+00 1.30644E+01 4.03566E-14-5.56777E-13
 -1      1674 5.58100E+01 4.13164E+00 1.55870E+00 1.60965E+00 5.73985E-14-1.20287E-12
 -1      1675 5.23321E+01 5.24647E+00 1.41243E+00 7.34043E+00-7.37466E-14-1.06160E-12
 -1      1676 5.36755E+01 4.85874E+00 1.47428E+00-6.43976E+00 3.12805E-13-1.28964E-12
 -1      1677 5.62482E+01 3.99367E+00 1.56613E+00-9.27351E-01 1.56097E-13-1.20738E-12
 -1      1678 4.40084E+01 6.87607E+00 1.17185E+00-1.23994E+01 7.57783E-13-1.44551E-12
 -1      1679 5.18462E+01 4.83956E+00 1.61912E+00-9.18330E+00 4.63796E-13-1.30840E-12
 -1      1680 2.99032E+01 7.92377E+00 5.45143E-01-1.30988E+01 9.10494E-13-1.41109E-12
 -1      1681 3.92494E+01 7.10793E+00 1.28933E+00-1.38036E+01 7.58948E-13-1.46883E-12
 -1      1682 1.68950E+01 5.04530E+00-1.91118E-01-9.20304E+00 1.01608E-12-1.03084E-12
 -1      1683 2.47530E+01 7.10268E+00 6.63727E-01-1.25022E+01 9.41691E-13-1.25144E-12
 -1      1684 8.09457E+00-1.77119E+00-8.53786E-01-4.60467E+00 7.18980E-13-7.37854E-13
 -1      1685 1.28047E+01 2.91368E+00-7.19192E-02-8.08150E+00 8.57536E-13-9.84879E-13
 -1      1686 2.03128E+00-1.01095E+01-1.52003E+00-9.61501E-01 6.04072E-13-4.00402E-13
 -1      1687 3.91067E+00-3.75673E+00-8.18789E-01-2.95181E+00 8.27782E-13-5.30631E-13
 -1      1688-1.96183E-01-1.69969E+01-1.89454E+00-4.21021E-01 4.94049E-14-2.50633E-13
 -1      1689 5.09655E-02-1.24602E+01-1.46452E+00 1.96496E-01 4.91829E-13-3.44128E-13
 -1      1690-1.03927E+00-1.89088E+01-1.98560E+00-1.84642E+00-6.74630E-13-2.80775E-13
 -1      1691-8.54272E-01-1.81414E+01-1.87639E+00 1.06384E-02-2.15827E-13-2.45193E-13
 -1      1692-8.12704E-01-1.50170E+01-1.80897E+00-2.27762E+00-9.02611E-13-3.11084E-13
 -1      1693-6.80525E-01-1.81592E+01-1.99240E+00-1.32897E+00-7.44016E-13-2.16854E-13
 -1      1694 1.91778E+00-7.79986E+00-1.49096E+00-1.16238E-01-1.02673E-12-5.99409E-13
 -1      1695 6.72211E-01-1.35707E+01-2.00144E+00-1.51367E+00-1.05460E-12-4.12240E-13
 -1      1696 1.03685E+01-1.34028E-01-7.97558E-01 5.23718E+00-1.12621E-12-1.26199E-12
 -1      1697 5.42972E+00-5.70667E+00-1.67989E+00 1.36951E+00-9.65228E-13-9.14824E-13
 -1      1698 2.62649E+01 4.47552E+00 3.24308E-01 1.09116E+01-1.10156E-12-1.47327E-12
 -1      1699 1.62142E+01 1.52554E+00-9.13172E-01 6.65674E+00-1.12110E-12-1.30251E-12
 -1      1700 4.56466E+01 5.05917E+00 1.66967E+00 1.22469E+01-7.44738E-13-1.11822E-12
 -1      1701 3.33859E+01 5.32019E+00 3.68273E-01 1.11122E+01-1.18694E-12-1.37668E-12
 -1      1702 6.20729E+01 3.94236E+00 2.86016E+00 7.31341E+00-3.34760E-13-5.25913E-13
 -1      1703 5.17936E+01 5.63353E+00 1.85458E+00 1.10572E+01-5.38680E-13-9.62341E-13
 -1      1704 6.58010E+01 3.97862E+00 3.02416E+00-1.58859E+00-3.80529E-13 4.03469E-13
 -1      1705 6.38995E+01 4.35244E+00 2.83437E+00 4.73143E+00-3.22409E-13-1.97731E-13
 -1      1706 5.85641E+01 4.94393E+00 2.35211E+00-8.95120E+00-2.61499E-13 6.87006E-13
 -1      1707 6.56704E+01 3.73398E+00 3.11889E+00-3.85085E+00-2.91211E-13 4.17444E-13
 -1      1708 4.14352E+01 5.33342E+00 9.22546E-01-1.09034E+01-4.28824E-13 7.17870E-13
 -1      1709 5.35872E+01 4.38130E+00 2.20885E+00-1.00654E+01-2.62873E-13 6.36602E-13
 -1      1710 2.36584E+01 3.77427E+00-3.77114E-01-9.13686E+00-5.96412E-13 8.12239E-13
 -1      1711 3.46464E+01 5.00191E+00 8.52818E-01-1.20558E+01-5.26246E-13 8.87290E-13
 -1      1712 1.00762E+01-1.80782E+00-1.29959E+00-3.93083E+00-6.06848E-13 6.53144E-13
 -1      1713 1.72828E+01 2.68738E+00-2.80083E-01-8.23524E+00-6.03961E-13 7.08544E-13
 -1      1714 3.39857E+00-9.72023E+00-1.66443E+00-1.41030E-01-3.25628E-13 2.83495E-13
 -1      1715 6.34558E+00-4.04083E+00-1.03934E+00-2.80419E+00-3.93241E-13 5.92859E-13
 -1      1716-2.61858E-01-1.65234E+01-2.00672E+00 1.57620E+00 2.25819E-13 3.64375E-13
 -1      1717 1.27883E-02-1.17033E+01-1.64872E+00 1.54981E+00-2.97207E-13 4.20386E-13
 -1      1718-8.88462E-01-1.86272E+01-1.92980E+00 5.68124E-01 5.96800E-13 6.03406E-14
 -1      1719-1.13336E+00-1.75511E+01-1.89725E+00 2.28279E+00 3.66707E-13 2.46914E-13
 -1      1720 2.56118E+01 6.11922E-01-6.03601E-01 2.08706E+00-1.06831E-13-1.16396E-12
 -1      1721 3.02336E+01 7.33173E-01-3.38582E-01 4.38583E+00 4.05787E-14-5.47451E-13
 -1      1722 2.35619E+01 8.77069E-01-8.42385E-01 1.67658E+00-2.01894E-13-9.50004E-13
 -1      1723 1.73796E+01-2.36850E+00-2.37547E-01 7.64891E+00 1.64202E-13-2.35589E-13
 -1      1724-1.63573E+00-1.27888E+01-1.39773E+00 1.34109E+00 3.55244E-13 1.53932E-13
 -1      1725 2.00023E+01 1.22123E-03 6.01670E-05 9.50095E-04-4.49716E-13-1.25948E-13
 -1      1726 2.00064E+01 9.06544E-03 1.00394E-04 7.63807E-03-8.43729E-14-1.06974E-13
 -1      1727 9.67166E-01-1.07170E+01-1.19555E+00 3.30873E+00 4.74287E-13 3.71758E-13
 -1      1728 8.16974E+00-6.23346E+00-5.45708E-01 6.19237E+00 3.08753E-13 6.16313E-14
 -1      1729 2.78527E+01 2.65291E+00 4.15143E-01 8.57054E+00 1.60039E-13-4.47420E-13
 -1      1730 3.89003E+01 5.87350E+00 1.07055E+00 7.94790E+00 1.12604E-13-6.63469E-13
 -1      1731 4.55483E+01 7.53142E+00 1.27316E+00 4.33842E+00 1.07359E-13-7.56617E-13
 -1      1732 4.72764E+01 8.33641E+00 1.27178E+00 1.16642E-01 1.48936E-13-7.94254E-13
 -1      1733 4.62674E+01 7.75174E+00 1.36117E+00-3.74616E+00 3.43170E-13-9.24039E-13
 -1      1734 4.02624E+01 6.10797E+00 1.12554E+00-7.30535E+00 5.13527E-13-9.29590E-13
 -1      1735 3.02525E+01 3.40904E+00 5.56152E-01-8.52260E+00 5.44453E-13-8.72857E-13
 -1      1736 2.02106E+01-8.61175E-01-2.80967E-02-7.90821E+00 4.28768E-13-8.07354E-13
 -1      1737 1.08223E+01-4.91676E+00-4.49156E-01-6.69872E+00 3.48721E-13-5.05984E-13
 -1      1738 2.92115E+00-9.17797E+00-1.00507E+00-4.27519E+00 2.23599E-13-4.94910E-13
 -1      1739-1.07821E+00-1.24638E+01-1.36489E+00-2.13570E+00-1.13742E-13-5.27522E-13
 -1      1740-1.54074E+00-1.28235E+01-1.41605E+00-2.11985E-01-3.43545E-13-3.89688E-13
 -1      1741 1.50955E+00-1.11816E+01-1.35104E+00 1.75218E+00-6.12399E-13-3.64736E-13
 -1      1742 8.51517E+00-7.89038E+00-1.08053E+00 3.94881E+00-6.33049E-13-7.03243E-13
 -1      1743 1.98427E+01-3.75562E+00-4.82263E-01 5.78437E+00-6.16840E-13-1.00497E-12
 -1      1744 3.38389E+01 2.66393E-01 4.43879E-01 5.99199E+00-8.50653E-13-7.62501E-13
 -1      1745 4.68296E+01 4.08854E+00 1.54510E+00 4.24864E+00-7.29306E-13-5.74651E-13
 -1      1746 5.38889E+01 7.30452E+00 2.26251E+00 1.63888E+00-5.74374E-13 1.29896E-14
 -1      1747 5.54240E+01 8.06824E+00 2.49240E+00-7.34863E-01-4.88054E-13 1.57374E-13
 -1      1748 5.03052E+01 5.58306E+00 1.86696E+00-2.32974E+00-2.33008E-13 2.32037E-13
 -1      1749 4.00636E+01 1.78408E+00 9.41439E-01-4.87051E+00-2.75557E-13 4.36762E-13
 -1      1750 2.63375E+01-1.88637E+00-9.21176E-02-6.14399E+00-2.89990E-13 4.19220E-13
 -1      1751 1.42448E+01-6.31381E+00-8.53181E-01-5.13149E+00 5.56222E-14 3.20133E-13
 -1      1752 5.27767E+00-9.43089E+00-1.04457E+00-3.47728E+00 1.47549E-13 2.39059E-13
 -1      1753-5.53059E-01-1.20728E+01-1.36577E+00-7.48962E-01 2.04337E-13 5.43565E-13
 -1      1754 2.29137E+01 2.00734E+00-2.67783E-02-2.77976E+00-1.92006E-13 7.85511E-13
 -1      1755 2.98828E+01 2.30184E+00-4.56025E-01 9.16337E-01-4.48142E-13-3.61679E-13
 -1      1756 1.98225E+01 3.71745E+00-3.48881E-02-2.15584E+00-2.35182E-13-2.73150E-13
 -1      1757 2.00506E+01 3.56037E+00-4.24954E-02-2.44307E+00-2.71713E-13-1.81292E-13
 -1      1758 2.03633E+01 3.17963E+00-4.49927E-02-2.58653E+00-2.70045E-13-6.32480E-14
 -1      1759 2.05785E+01 2.81569E+00-1.39061E-01-2.86482E+00-2.95097E-13 8.05744E-14
 -1      1760 2.04287E+01 2.68578E+00-3.81829E-03-2.22168E+00-2.77712E-13-1.14089E-13
 -1      1761 1.93586E+01 4.18978E+00-2.02178E-02-1.27032E+00-1.36583E-13-3.82121E-13
 -1      1762 1.94312E+01 4.14978E+00-1.71824E-02-1.49485E+00-1.61644E-13-3.73004E-13
 -1      1763 1.92629E+01 4.29616E+00-1.68276E-02-8.59369E-01-7.64128E-14-3.82002E-13
 -1      1764 1.93052E+01 4.27197E+00-1.43638E-02-1.07017E+00-1.01618E-13-3.82723E-13
 -1      1765 1.95307E+01 3.78424E+00-9.29370E-03-1.11902E+00-1.32467E-13-3.66368E-13
 -1      1766 1.92118E+01 4.35711E+00-1.48232E-02-4.66593E-01-8.23820E-15-3.59348E-13
 -1      1767 1.92336E+01 4.34410E+00-1.33239E-02-6.66830E-01-4.07071E-14-3.67793E-13
 -1      1768 1.94344E+01 3.90535E+00-9.20285E-03-7.32670E-01-6.42422E-14-3.53523E-13
 -1      1769 1.91925E+01 4.38300E+00-1.36784E-02-8.36746E-02 6.35785E-14-3.49370E-13
 -1      1770 1.91990E+01 4.37901E+00-1.32197E-02-2.79006E-01 3.00891E-14-3.58756E-13
 -1      1771 1.93844E+01 3.97039E+00-9.13352E-03-3.58015E-01 1.22580E-14-3.34541E-13
 -1      1772 1.92004E+01 4.37771E+00-1.31737E-02 2.97791E-01 1.07428E-13-3.43970E-13
 -1      1773 1.91930E+01 4.38221E+00-1.37565E-02 1.02311E-01 9.06729E-14-3.51526E-13
 -1      1774 1.93697E+01 3.99004E+00-9.11523E-03 1.04574E-02 8.23411E-14-3.37544E-13
 -1      1775 1.92372E+01 4.34028E+00-1.33266E-02 6.86259E-01 1.55924E-13-3.12028E-13
 -1      1776 1.92143E+01 4.35410E+00-1.49239E-02 4.85567E-01 1.32572E-13-3.34427E-13
 -1      1777 1.93868E+01 3.96725E+00-9.15593E-03 3.79100E-01 1.31226E-13-3.20712E-13
 -1      1778 1.93099E+01 4.26643E+00-1.43940E-02 1.08375E+00 2.05245E-13-2.79558E-13
 -1      1779 1.92670E+01 4.29108E+00-1.69842E-02 8.75846E-01 1.76378E-13-2.97321E-13
 -1      1780 1.94391E+01 3.89939E+00-9.16593E-03 7.50912E-01 1.78218E-13-2.90139E-13
 -1      1781 1.94402E+01 4.13867E+00-1.74071E-02 1.51381E+00 2.57923E-13-2.18034E-13
 -1      1782 1.93645E+01 4.18142E+00-2.05109E-02 1.28428E+00 2.24672E-13-2.59128E-13
 -1      1783 1.95379E+01 3.77482E+00-9.22272E-03 1.13451E+00 2.29354E-13-2.56118E-13
 -1      1784 1.96667E+01 3.92189E+00-2.53134E-02 1.97892E+00 3.09901E-13-1.03702E-13
 -1      1785 1.95355E+01 3.99882E+00-2.69085E-02 1.72162E+00 2.82414E-13-1.67373E-13
 -1      1786 1.97096E+01 3.56694E+00-8.82599E-03 1.53447E+00 2.79764E-13-1.70582E-13
 -1      1787 2.00770E+01 3.52234E+00-4.42930E-02 2.47530E+00 3.38304E-13 8.86236E-14
 -1      1788 1.98404E+01 3.68396E+00-3.79414E-02 2.18040E+00 3.14417E-13-2.61596E-14
 -1      1789 2.00027E+01 3.22216E+00-6.25087E-03 1.93086E+00 3.30239E-13-3.87364E-14
 -1      1790 2.09138E+01 2.66922E+00-6.20998E-02 2.85472E+00 3.26857E-13 4.27144E-13
 -1      1791 2.04092E+01 3.10003E+00-4.96415E-02 2.61274E+00 3.31157E-13 2.25875E-13
 -1      1792 2.04957E+01 2.60877E+00-6.83078E-04 2.23781E+00 3.44396E-13 1.71807E-13
 -1      1793 2.17221E+01 1.21132E+00-1.23352E-01 2.32829E+00 2.72490E-13 8.19192E-13
 -1      1794 2.12711E+01 2.27214E+00 3.30420E-03 2.74110E+00 2.97184E-13 5.64923E-13
 -1      1795 2.09536E+01 1.68893E+00-1.37141E-02 2.14490E+00 3.31702E-13 4.34857E-13
 -1      1796 2.09524E+01 7.78635E-01-6.06063E-02 1.52320E+00 2.78257E-13 7.35387E-13
 -1      1797 2.18149E+01 2.48999E+00 9.18559E-02-3.08641E+00-2.54480E-13 3.33150E-13
 -1      1798 2.01129E+01 2.99660E-01-4.92778E-03 6.62445E-01 2.05586E-13 6.00710E-13
 -1      1799 2.06434E+01 4.38383E-01-1.42894E-02 1.03284E+00 2.28602E-13 6.79035E-13
 -1      1800 2.07422E+01 8.47083E-01 5.41254E-03 1.40831E+00 2.73843E-13 5.08317E-13
 -1      1801 3.44674E+01 4.51963E+00-1.63998E-01-1.84887E-01-4.93383E-13 3.66859E-14
 -1      1802 3.37175E+01 3.58431E+00-2.22361E-01 2.31398E+00-3.78253E-13-2.13878E-13
 -1      1803 2.05467E+01 5.24550E-01 3.09319E-02-9.60250E-01-2.16445E-13 1.93816E-13
 -1      1804 2.01071E+01 3.65924E-01 6.77898E-03-6.54643E-01-1.96934E-13 1.38588E-13
 -1      1805 1.99115E+01 2.66452E-01 2.77960E-02-4.09670E-01-1.96936E-13 1.24956E-13
 -1      1806 1.97133E+01 1.84448E-01 1.04713E-02-2.66558E-01-1.78191E-13 7.15617E-14
 -1      1807 2.02140E+01 5.01504E-01-6.19185E-03-7.49464E-01-2.34668E-13 1.71484E-14
 -1      1808 1.95889E+01 1.37665E-01 1.71214E-02-1.28662E-01-1.55653E-13 6.74729E-14
 -1      1809 1.95072E+01 9.68869E-02 7.15546E-03-5.51255E-02-1.43609E-13 3.41662E-14
 -1      1810 1.98828E+01 2.52908E-01-5.93084E-03-3.09926E-01-1.95541E-13 6.44190E-15
 -1      1811 1.94411E+01 7.16677E-02 9.00643E-03 2.13402E-02-1.30139E-13 1.95352E-14
 -1      1812 1.94255E+01 4.95907E-02 4.30956E-03 5.94039E-02-1.12143E-13-2.37527E-14
 -1      1813 1.96964E+01 1.30760E-01-4.76989E-03-6.48764E-02-1.63236E-13-1.19869E-14
 -1      1814 1.93996E+01 3.51293E-02 4.45919E-03 1.00504E-01-1.01260E-13-3.81431E-14
 -1      1815 1.94201E+01 2.27068E-02 2.64738E-03 1.18956E-01-8.43045E-14-6.29067E-14
 -1      1816 1.96087E+01 6.52281E-02-3.60385E-03 7.07584E-02-1.39932E-13-4.04501E-14
 -1      1817 1.94199E+01 1.42170E-02 2.03518E-03 1.39287E-01-9.16472E-14-4.39449E-14
 -1      1818 1.94596E+01 7.35523E-03 1.71432E-03 1.46571E-01-7.08430E-14-6.90128E-14
 -1      1819 1.95861E+01 2.83478E-02-2.50152E-03 1.42636E-01-9.71687E-14-6.65629E-14
 -1      1820 1.94751E+01 2.54479E-03 7.32164E-04 1.54825E-01-6.22163E-14-9.74198E-14
 -1      1821 1.95241E+01-8.21801E-04 1.19178E-03 1.55974E-01-4.61795E-14-1.14759E-13
 -1      1822 1.96042E+01 7.68346E-03-1.63390E-03 1.76969E-01-8.48068E-14-5.16563E-14
 -1      1823 1.95490E+01-3.17135E-03 3.71150E-05 1.57706E-01-6.88430E-14-1.01777E-13
 -1      1824 1.96018E+01-4.16236E-03 9.35687E-04 1.56007E-01-5.72274E-14-1.31975E-13
 -1      1825 1.96469E+01-2.87571E-03-1.03528E-03 1.89877E-01-5.03332E-14-7.05686E-14
 -1      1826 1.96323E+01-4.73726E-03-2.99495E-04 1.55022E-01-5.86393E-14-1.24567E-13
 -1      1827 1.96866E+01-3.96199E-03 8.88503E-04 1.52809E-01-4.90076E-14-1.38246E-13
 -1      1828 1.97040E+01-6.58533E-03-6.68807E-04 1.91991E-01-5.46090E-14-4.65559E-14
 -1      1829 1.97206E+01-3.13392E-03-4.07290E-04 1.51925E-01-6.07783E-14-1.82028E-13
 -1      1830 1.97759E+01-8.70818E-04 1.03462E-03 1.51032E-01-2.43895E-14-2.00363E-13
 -1      1831 1.97699E+01-5.20454E-03-4.84406E-04 1.90844E-01-7.75317E-14-5.97721E-14
 -1      1832 1.98130E+01 1.21766E-03-3.60217E-04 1.52575E-01-2.05659E-14-2.21172E-13
 -1      1833 1.98707E+01 4.95704E-03 1.38708E-03 1.54656E-01-4.21610E-14-2.44118E-13
 -1      1834 1.98421E+01 4.53076E-04-4.39946E-04 1.92276E-01-5.37520E-14-1.66624E-13
 -1      1835 1.99114E+01 8.37091E-03-2.03312E-04 1.60834E-01-7.08800E-14-2.62640E-13
 -1      1836 1.99745E+01 1.38420E-02 1.98759E-03 1.67648E-01-8.20810E-14-2.43728E-13
 -1      1837 1.99207E+01 1.03243E-02-5.03628E-04 2.01405E-01-6.12191E-14-2.13914E-13
 -1      1838 2.00203E+01 1.88725E-02 3.44878E-05 1.80912E-01-6.20980E-14-2.39031E-13
 -1      1839 2.00936E+01 2.66443E-02 2.91153E-03 1.94624E-01-3.93854E-14-2.39424E-13
 -1      1840 2.00081E+01 2.50887E-02-6.50093E-04 2.23442E-01-5.57256E-14-1.61749E-13
 -1      1841 2.01468E+01 3.38609E-02 3.31339E-04 2.18055E-01-4.01534E-14-2.10855E-13
 -1      1842 2.02371E+01 4.49026E-02 4.27438E-03 2.41613E-01 1.51849E-14-1.81297E-13
 -1      1843 2.01083E+01 4.62925E-02-8.53957E-04 2.64510E-01-4.32109E-14-1.87144E-13
 -1      1844 2.03009E+01 5.52321E-02 6.61801E-04 2.79388E-01 3.27815E-14-1.50376E-13
 -1      1845 2.04177E+01 7.10290E-02 6.23346E-03 3.16988E-01 5.13426E-14-1.50726E-13
 -1      1846 2.02272E+01 7.65769E-02-1.08075E-03 3.32563E-01 3.64785E-14-1.83111E-13
 -1      1847 2.04959E+01 8.58443E-02 9.78750E-04 3.74926E-01 7.15654E-14-1.03534E-13
 -1      1848 2.06526E+01 1.08496E-01 8.97120E-03 4.32581E-01 1.04217E-13-1.14200E-13
 -1      1849 2.03722E+01 1.19972E-01-1.27508E-03 4.38451E-01 9.04925E-14-9.99711E-14
 -1      1850 2.07492E+01 1.29645E-01 1.17956E-03 5.18718E-01 6.20641E-14-8.83697E-14
 -1      1851 2.09639E+01 1.61803E-01 1.26282E-02 6.04812E-01 1.26648E-14-9.13492E-14
 -1      1852 2.05518E+01 1.82101E-01-1.34944E-03 5.97071E-01 5.64626E-14-1.23099E-13
 -1      1853 2.10825E+01 1.91374E-01 1.04897E-03 7.29762E-01-4.13367E-14-7.39237E-14
 -1      1854 2.13789E+01 2.35610E-01 1.71304E-02 8.55180E-01-5.41026E-14-4.65332E-14
 -1      1855 2.07753E+01 2.69840E-01-1.18731E-03 8.28268E-01 2.19382E-14-1.12681E-13
 -1      1856 2.15223E+01 2.74901E-01 1.99185E-04 1.03164E+00-8.25884E-14-3.58793E-14
 -1      1857 2.19294E+01 3.31512E-01 2.18590E-02 1.20828E+00-7.09060E-14-4.19648E-14
 -1      1858 2.10510E+01 3.89199E-01-6.93576E-04 1.15651E+00-6.21937E-14-7.46919E-14
 -1      1859 2.20989E+01 3.77904E-01-1.82599E-03 1.44812E+00-1.38726E-14-2.31349E-14
 -1      1860 2.26475E+01 4.38879E-01 2.52394E-02 1.68295E+00 1.16702E-13-5.43107E-14
 -1      1861 2.13847E+01 5.38465E-01 5.92768E-05 1.60708E+00-5.03937E-14 5.09469E-14
 -1      1862 2.28469E+01 4.77844E-01-4.70270E-03 1.98884E+00 1.05627E-13-9.78597E-14
 -1      1863 2.35607E+01 5.12587E-01 2.46904E-02 2.26728E+00 1.67366E-14-1.15378E-13
 -1      1864 2.17802E+01 6.90247E-01 5.62120E-04 2.19419E+00 7.14047E-14 1.06516E-13
 -1      1865 2.38131E+01 5.00264E-01-4.50680E-03 2.61251E+00 1.05675E-14-1.04076E-13
 -1      1866 2.46898E+01 4.28808E-01 1.77680E-02 2.86217E+00 6.46852E-14 1.52812E-14
 -1      1867 2.22527E+01 7.50705E-01-5.10996E-04 2.89299E+00 3.78369E-14 7.47982E-14
 -1      1868 2.50860E+01 2.64801E-01 1.07975E-02 3.14728E+00 1.27933E-13-3.99993E-14
 -1      1869 2.60721E+01-6.36795E-02 5.73497E-03 3.17913E+00 1.77918E-13-1.26392E-14
 -1      1870 2.28775E+01 4.88522E-01-5.64788E-03 3.58178E+00 1.33092E-13 5.09843E-14
 -1      1871 2.68444E+01-5.44436E-01 5.57806E-02 3.16606E+00 2.18742E-13-2.24473E-14
 -1      1872 2.78170E+01-1.26826E+00-6.47083E-03 2.64246E+00 2.50230E-13 7.40406E-14
 -1      1873 2.38997E+01-4.98368E-01-1.79286E-02 3.94643E+00 2.17642E-13-3.66738E-14
 -1      1874 2.92625E+01-2.04692E+00 1.17866E-01 1.95595E+00 2.25910E-13 1.20008E-13
 -1      1875 2.99970E+01-2.83786E+00-3.96784E-03 6.85187E-01 1.24373E-13 1.75726E-13
 -1      1876 2.58209E+01-2.49058E+00-4.56167E-02 3.42718E+00 3.22561E-13-6.72379E-14
 -1      1877 3.22930E+01-3.35115E+00 1.04154E-01-8.07463E-01 3.70537E-15 1.94011E-13
 -1      1878 3.29202E+01-3.03383E+00 4.17096E-02-2.51408E+00-1.29678E-13 1.68240E-13
 -1      1879 2.91002E+01-4.45746E+00-9.35940E-02 1.40334E+00 1.00572E-13 8.79574E-14
 -1      1880 3.45948E+01 2.06424E+00-2.83525E-01-4.11908E+00-5.70488E-13 1.67089E-14
 -1      1881 3.46273E+01 3.86672E+00-1.48454E-01-2.64650E+00-5.72931E-13 4.07174E-14
 -1      1882 2.23674E+01-2.10127E+00 1.22280E-01 7.73183E+00-1.13298E-13-3.94018E-13
 -1      1883 1.78795E+01-4.24312E+00-7.94239E-02 7.36024E+00-1.20015E-13-4.77923E-13
 -1      1884 2.15285E+01 1.76899E+00 7.84399E-02-2.36957E+00-2.58345E-13 2.25570E-13
 -1      1885 3.15657E+01-2.79932E+00-5.59639E-02 1.37685E+00 2.01922E-14-5.25614E-13
 -1      1886 3.13930E+01-2.44063E+00 9.61449E-02-2.06981E-01 8.79435E-14-4.80695E-13
 -1      1887 2.96302E+01-1.75536E+00-2.26940E-02-1.52669E+00 1.32540E-13-4.90070E-13
 -1      1888 2.88638E+01-1.00991E+00 8.02562E-02-2.39883E+00 9.38416E-14-5.91777E-13
 -1      1889 2.85325E+01-3.13205E+00-2.39912E-02-1.83061E+00 9.95176E-14-4.14245E-13
 -1      1890 2.77512E+01-4.79918E-01-1.25669E-02-2.79108E+00 1.58262E-13-3.96291E-13
 -1      1891 2.67312E+01-2.39092E-02 2.71744E-02-2.96927E+00 1.52205E-13-2.32456E-13
 -1      1892 2.59005E+01-1.18856E+00-1.87859E-02-3.41697E+00 1.89453E-13 1.81886E-14
 -1      1893 2.60705E+01 1.93352E-01 2.20780E-03-2.83973E+00 7.02103E-14-6.16729E-14
 -1      1894 2.50574E+01 3.57637E-01 5.22627E-04-2.67547E+00 1.40404E-13-9.15067E-15
 -1      1895 2.43228E+01 7.29946E-02-1.30363E-02-3.58237E+00 2.20270E-13 6.43314E-14
 -1      1896 2.46199E+01 3.98654E-01 1.49598E-02-2.36633E+00 1.35905E-13-1.28220E-13
 -1      1897 2.37553E+01 4.13433E-01-3.78913E-03-2.10874E+00 7.06787E-14-1.51993E-13
 -1      1898 2.32940E+01 5.52811E-01-6.63541E-03-3.07350E+00 4.02564E-15-8.69877E-14
 -1      1899 2.34259E+01 3.86044E-01 2.05034E-02-1.79330E+00 9.86364E-15-3.34835E-13
 -1      1900 2.27496E+01 3.48573E-01-1.69499E-03-1.55502E+00-7.73227E-14-3.55467E-13
 -1      1901 2.25327E+01 6.03770E-01-3.34023E-03-2.39090E+00-3.75472E-14-1.80678E-13
 -1      1902 2.24877E+01 3.06652E-01 2.01863E-02-1.29403E+00-6.39818E-14-3.01305E-13
 -1      1903 2.19852E+01 2.61060E-01 5.78032E-04-1.10758E+00-1.05611E-13-3.04736E-13
 -1      1904 2.19280E+01 5.01347E-01-2.08442E-03-1.76399E+00-2.60720E-14-2.28001E-13
 -1      1905 2.17769E+01 2.23817E-01 1.69685E-02-9.10603E-01-2.22501E-13-1.95308E-13
 -1      1906 2.14146E+01 1.85047E-01 1.67471E-03-7.75307E-01-1.74096E-13-4.11306E-13
 -1      1907 2.14439E+01 3.73254E-01-1.75348E-03-1.26403E+00-1.78476E-13-3.02369E-13
 -1      1908 2.12519E+01 1.56842E-01 1.30405E-02-6.33425E-01 5.07372E-14-4.85919E-13
 -1      1909 2.09948E+01 1.27760E-01 1.91403E-03-5.38779E-01 1.41727E-13-2.98341E-13
 -1      1910 2.10629E+01 2.63877E-01-1.69919E-03-8.92074E-01-8.58137E-14-4.06002E-13
 -1      1911 2.08700E+01 1.07849E-01 9.51902E-03-4.39013E-01 2.44249E-13-2.83454E-13
 -1      1912 2.06891E+01 8.72944E-02 1.75917E-03-3.73886E-01 3.25122E-13-2.10651E-13
 -1      1913 2.07690E+01 1.81960E-01-1.63161E-03-6.25367E-01 2.42545E-13-3.11343E-13
 -1      1914 2.05948E+01 7.37450E-02 6.75725E-03-3.04439E-01 9.14598E-14-1.94875E-13
 -1      1915 2.04679E+01 5.97063E-02 1.49032E-03-2.59778E-01-1.46147E-13-1.33476E-13
 -1      1916 2.05462E+01 1.24294E-01-1.48269E-03-4.37642E-01 2.07488E-13-4.80670E-13
 -1      1917 2.03975E+01 5.07143E-02 4.73377E-03-2.11391E-01-3.71772E-13-1.98632E-13
 -1      1918 2.03087E+01 4.13971E-02 1.23463E-03-1.80495E-01-3.58159E-13-5.05698E-13
 -1      1919 2.03793E+01 8.51109E-02-1.27925E-03-3.06297E-01-3.20388E-13-3.04107E-13
 -1      1920 2.02566E+01 3.56156E-02 3.29824E-03-1.46322E-01-1.85260E-13-5.41111E-13
 -1      1921 2.01950E+01 2.96850E-02 1.03044E-03-1.24384E-01-1.21923E-13-5.89957E-13
 -1      1922 2.02557E+01 5.92580E-02-1.06216E-03-2.13892E-01-3.67787E-13-3.05430E-13
 -1      1923 2.01569E+01 2.61814E-02 2.27138E-03-9.94624E-02 4.15149E-14-5.33988E-13
 -1      1924 2.01151E+01 2.26969E-02 8.65160E-04-8.30513E-02-2.53222E-14-5.65998E-13
 -1      1925 2.01650E+01 4.29121E-02-8.61935E-04-1.47546E-01-3.80033E-14-5.77200E-13
 -1      1926 2.00875E+01 2.08348E-02 1.51795E-03-6.38442E-02-2.22307E-13-5.11947E-13
 -1      1927 2.00606E+01 1.89465E-02 7.25905E-04-5.06045E-02-2.39927E-13-4.36772E-13
 -1      1928 2.00994E+01 3.34148E-02-6.51373E-04-9.79659E-02-4.48531E-14-5.95395E-13
 -1      1929 2.00410E+01 1.78217E-02 9.71062E-04-3.48283E-02-3.24818E-13-2.99874E-13
 -1      1930 2.00254E+01 1.62421E-02 6.40055E-04-2.39640E-02-6.48447E-14-2.63971E-13
 -1      1931 2.00526E+01 2.79181E-02-5.48484E-04-5.86455E-02-1.42187E-13-3.25288E-13
 -1      1932 2.00114E+01 1.36781E-02 4.88028E-04-1.15606E-02 4.28752E-13-3.64573E-13
 -1      1933 1.95093E+01 1.13014E-01 9.68455E-03 1.26115E-01 9.94803E-14 4.14485E-13
 -1      1934 1.96244E+01 1.59384E-01 1.71670E-02 2.20167E-01 1.24050E-13 4.63110E-13
 -1      1935 1.93812E+01 5.84366E-02 6.18734E-03-1.60659E-02 7.30249E-14 3.57508E-13
 -1      1936 1.94161E+01 8.31903E-02 1.20148E-02 3.11008E-02 8.13186E-14 3.81510E-13
 -1      1937 1.97135E+01 1.55165E-01-4.71600E-03 1.51991E-01 1.26111E-13 2.46732E-13
 -1      1938 1.93524E+01 2.87371E-02 3.78150E-03-9.19621E-02 9.42746E-14 2.65157E-13
 -1      1939 1.93394E+01 4.24901E-02 6.29723E-03-6.81097E-02 8.16901E-14 3.23305E-13
 -1      1940 1.95815E+01 7.86925E-02-4.13265E-03-2.05479E-02 1.16089E-13 1.98341E-13
 -1      1941 1.93829E+01 1.17074E-02 2.38786E-03-1.29212E-01 7.41643E-14 2.14894E-13
 -1      1942 1.93442E+01 1.94515E-02 3.04165E-03-1.18365E-01 8.35429E-14 2.33322E-13
 -1      1943 1.95362E+01 3.67380E-02-2.97736E-03-1.13660E-01 1.24038E-13 1.27029E-13
 -1      1944 1.94463E+01 2.07826E-03 1.56712E-03-1.44064E-01 9.23552E-14 1.91168E-13
 -1      1945 1.93952E+01 6.27635E-03 1.28931E-03-1.40633E-01 7.22223E-14 2.05194E-13
 -1      1946 1.95438E+01 1.31089E-02-1.98200E-03-1.60206E-01 9.23451E-14 8.43894E-14
 -1      1947 1.95266E+01-2.93739E-03 1.06657E-03-1.46330E-01 8.65203E-14 1.72270E-13
 -1      1948 1.94705E+01-9.51844E-04 3.34938E-04-1.46927E-01 1.02750E-13 1.96529E-13
 -1      1949 1.95830E+01 9.70910E-05-1.24024E-03-1.79492E-01 1.04034E-13 7.27583E-14
 -1      1950 1.96141E+01-4.98307E-03 7.60974E-04-1.42215E-01 5.57518E-14 1.80503E-13
 -1      1951 1.95572E+01-4.40464E-03-1.78323E-04-1.44681E-01 8.49317E-14 1.96240E-13
 -1      1952 1.96400E+01-6.34707E-03-7.39276E-04-1.83399E-01 8.80531E-14 9.48209E-14
 -1      1953 1.97035E+01-5.15460E-03 5.78313E-04-1.35699E-01 5.45905E-14 1.40279E-13
 -1      1954 1.96479E+01-5.43719E-03-4.32540E-04-1.38653E-01 7.99033E-14 1.74596E-13
 -1      1955 1.97061E+01-8.62158E-03-4.26982E-04-1.79524E-01 9.36514E-14 1.31866E-13
 -1      1956 1.97923E+01-4.28210E-03 4.64472E-04-1.29206E-01 4.62943E-14 7.16205E-14
 -1      1957 1.97387E+01-5.00462E-03-5.31674E-04-1.31838E-01 5.91907E-14 1.13856E-13
 -1      1958 1.97764E+01-8.34275E-03-2.49133E-04-1.72718E-01 7.45621E-14 1.33005E-13
 -1      1959 1.98798E+01-3.08914E-03 3.69061E-04-1.23936E-01 3.74281E-14 1.66990E-14
 -1      1960 1.98281E+01-3.87578E-03-5.43474E-04-1.25907E-01 1.47041E-14 4.09411E-14
 -1      1961 1.98483E+01-6.76021E-03-1.59719E-04-1.65865E-01 4.95606E-14 3.99629E-14
 -1      1962 1.99656E+01-2.30027E-03 2.39060E-04-1.19965E-01-3.68736E-14 2.62344E-14
 -1      1963 1.99157E+01-2.76539E-03-5.17040E-04-1.21393E-01 1.56971E-14 2.87976E-14
 -1      1964 1.99207E+01-4.99347E-03-1.19978E-04-1.60249E-01 1.69515E-15 1.67817E-15
 -1      1965 2.00495E+01-2.71638E-03 1.61563E-05-1.16221E-01 1.13345E-15 3.48238E-14
 -1      1966 2.00016E+01-2.42656E-03-4.90865E-04-1.17716E-01-2.33008E-14 1.98604E-14
 -1      1967 1.99932E+01-4.18968E-03-9.50968E-05-1.55662E-01-6.42715E-14-5.22901E-14
 -1      1968 2.01303E+01-5.25126E-03-3.61969E-04-1.10355E-01 2.19638E-14-3.15178E-15
 -1      1969 2.00852E+01-3.71017E-03-4.96552E-04-1.13083E-01 1.94133E-14 2.71738E-14
 -1      1970 2.00654E+01-5.62597E-03-5.10245E-05-1.50350E-01 1.05966E-14-7.93794E-14
 -1      1971 2.02046E+01-1.09022E-02-9.54398E-04-9.86145E-02 3.84666E-14 4.13536E-14
 -1      1972 2.01648E+01-7.57495E-03-5.59846E-04-1.04357E-01 4.05454E-14 1.33455E-14
 -1      1973 2.01362E+01-1.07397E-02 4.79673E-05-1.40873E-01 3.50529E-14-4.66943E-14
 -1      1974 2.02667E+01-2.06075E-02-1.80095E-03-7.58231E-02 5.87736E-14 2.21859E-14
 -1      1975 2.02363E+01-1.50116E-02-6.99479E-04-8.69672E-02 1.09536E-13 2.56678E-14
 -1      1976 2.02031E+01-2.10368E-02 2.40514E-04-1.21980E-01 6.98170E-14 7.65958E-14
 -1      1977 2.03070E+01-3.49301E-02-2.89537E-03-3.56829E-02-1.12202E-13 6.89308E-14
 -1      1978 2.02926E+01-2.68258E-02-9.24115E-04-5.50423E-02-1.35179E-14 7.17008E-14
 -1      1979 2.02614E+01-3.78007E-02 5.67036E-04-8.67081E-02 8.94272E-15 6.93978E-14
 -1      1980 2.03123E+01-5.35188E-02-4.14909E-03 2.83245E-02-1.11639E-13 7.67610E-14
 -1      1981 2.03226E+01-4.32206E-02-1.22797E-03-2.01570E-03-1.96135E-13 6.87662E-14
 -1      1982 2.03038E+01-6.15128E-02 1.06399E-03-2.69583E-02-1.50012E-13 3.65269E-14
 -1      1983 2.02662E+01-7.43700E-02-5.35431E-03 1.21129E-01-7.23837E-14 1.13394E-13
 -1      1984 2.03116E+01-6.31536E-02-1.58572E-03 7.79960E-02-5.69969E-14 1.08213E-13
 -1      1985 2.03195E+01-9.09385E-02 1.74977E-03 6.50686E-02-1.34895E-13 7.82864E-14
 -1      1986 2.01510E+01-9.30792E-02-6.16799E-03 2.43179E-01 3.44425E-14 6.46198E-14
 -1      1987 2.02416E+01-8.35540E-02-1.94592E-03 1.87771E-01-1.15251E-15 9.47908E-14
 -1      1988 2.02950E+01-1.21985E-01 2.59787E-03 1.94231E-01-2.13612E-14 9.99316E-14
 -1      1989 1.99511E+01-1.02566E-01-6.15352E-03 3.86743E-01 6.97337E-14 1.68294E-13
 -1      1990 2.00945E+01-9.87194E-02-2.22337E-03 3.23546E-01 6.58302E-14 1.58943E-13
 -1      1991 2.02144E+01-1.46746E-01 3.49382E-03 3.58491E-01-3.40960E-15 8.07114E-14
 -1      1992 1.96598E+01-9.40393E-02-4.91412E-03 5.32541E-01-2.63622E-14 1.27257E-13
 -1      1993 1.98564E+01-1.00525E-01-2.28783E-03 4.71282E-01 6.51766E-14 1.60762E-13
 -1      1994 2.00632E+01-1.53606E-01 4.18123E-03 5.44217E-01 4.08306E-14 2.20933E-13
 -1      1995 1.92857E+01-5.99313E-02-2.31574E-03 6.48991E-01 7.70157E-14 3.31176E-14
 -1      1996 1.95251E+01-8.02676E-02-1.95038E-03 6.04441E-01-1.13993E-14 6.45074E-14
 -1      1997 1.98328E+01-1.29578E-01 4.24060E-03 7.22546E-01 5.74965E-14 1.20880E-13
 -1      1998 1.88596E+01 1.34569E-03 1.28793E-03 6.96954E-01 1.63605E-13-1.12990E-13
 -1      1999 1.91185E+01-3.26087E-02-9.79887E-04 6.86048E-01 1.57077E-13-9.08908E-15
 -1      2000 1.95287E+01-6.55984E-02 3.18132E-03 8.49972E-01 1.36873E-13 2.56639E-14
 -1      2001 1.84362E+01 8.07992E-02 5.00375E-03 6.41569E-01 8.54200E-15-2.68470E-14
 -1      2002 1.86792E+01 3.93522E-02 8.18137E-04 6.77565E-01 5.57037E-14-7.26728E-14
 -1      2003 1.91772E+01 3.62337E-02 7.06242E-04 8.76710E-01 1.02353E-13-1.80351E-14
 -1      2004 1.80870E+01 1.58177E-01 7.69139E-03 4.68762E-01-5.50601E-14 3.51299E-14
 -1      2005 1.82737E+01 1.20806E-01 3.40515E-03 5.54146E-01-6.48101E-14 6.88286E-14
 -1      2006 1.88287E+01 1.57327E-01-2.90095E-03 7.63896E-01-9.95053E-14 4.20167E-14
 -1      2007 1.78827E+01 2.08355E-01 8.53191E-03 1.98379E-01-7.67615E-15 9.56839E-14
 -1      2008 1.79777E+01 1.87840E-01 6.30700E-03 3.20493E-01 5.98618E-14 6.69048E-14
 -1      2009 1.85505E+01 2.64735E-01-6.54945E-03 5.04729E-01-3.18807E-14 1.25175E-13
 -1      2010 1.78699E+01 2.12993E-01 7.47381E-03-1.16090E-01 1.81539E-15 1.09423E-13
 -1      2011 1.78540E+01 2.17075E-01 8.59372E-03 1.71491E-02-4.42354E-15 8.32706E-14
 -1      2012 1.84068E+01 3.23129E-01-8.71249E-03 1.37636E-01 2.10413E-14 1.37373E-13
 -1      2013 1.80532E+01 1.70350E-01 5.19975E-03-4.04554E-01-3.01044E-14 1.64296E-14
 -1      2014 1.79296E+01 1.97454E-01 9.26053E-03-2.89884E-01-1.78694E-14 9.67668E-14
 -1      2015 1.84344E+01 3.11317E-01-8.40560E-03-2.60300E-01 2.16021E-14 1.99932E-13
 -1      2016 1.83921E+01 9.64213E-02 2.68215E-03-6.06742E-01 3.98986E-15-2.41456E-14
 -1      2017 1.81856E+01 1.36496E-01 7.78711E-03-5.33213E-01-5.27235E-14-4.26113E-14
 -1      2018 1.86258E+01 2.33697E-01-5.77685E-03-6.00156E-01-3.20889E-14 1.21150E-13
 -1      2019 1.88169E+01 1.60553E-02 6.21597E-04-6.93173E-01 1.29675E-13 1.74782E-14
 -1      2020 1.85654E+01 5.60620E-02 4.53259E-03-6.69049E-01 9.84456E-14 5.64423E-14
 -1      2021 1.89335E+01 1.17686E-01-2.12368E-03-8.15008E-01-8.48713E-16 5.89938E-14
 -1      2022 1.92526E+01-4.90616E-02-7.12483E-04-6.69909E-01 5.59544E-14-1.20609E-13
 -1      2023 1.89961E+01-1.91838E-02 5.48996E-04-6.89193E-01 1.36345E-13-7.67563E-14
 -1      2024 1.92896E+01-2.39568E-04 1.13769E-03-8.81323E-01 1.57641E-13 3.21219E-14
 -1      2025 1.96395E+01-8.78675E-02-1.39337E-03-5.68061E-01 8.51073E-14-6.90012E-14
 -1      2026 1.94102E+01-7.22458E-02-2.99208E-03-6.16052E-01 2.78983E-14-9.80951E-14
 -1      2027 1.96308E+01-9.09501E-02 3.16229E-03-8.18206E-01 8.26472E-14 6.13439E-14
 -1      2028 1.99433E+01-1.00328E-01-1.61017E-03-4.27242E-01 1.52529E-13-1.01344E-13
 -1      2029 1.97608E+01-9.77371E-02-5.31603E-03-4.87444E-01 2.12709E-13 4.59244E-14
 -1      2030 1.99141E+01-1.41353E-01 3.87565E-03-6.70284E-01 1.23924E-13 3.78874E-15
 -1      2031 2.01536E+01-9.32783E-02-1.54683E-03-2.81955E-01 2.94010E-14-2.57856E-13
 -1      2032 2.00246E+01-9.96062E-02-6.22768E-03-3.41056E-01 1.13421E-13-1.45302E-13
 -1      2033 2.01207E+01-1.53662E-01 3.65159E-03-4.86942E-01 2.07276E-13 1.53940E-14
 -1      2034 2.02777E+01-7.54837E-02-1.33135E-03-1.54979E-01 5.33341E-15-5.03957E-13
 -1      2035 2.01990E+01-8.61742E-02-5.97682E-03-2.04836E-01-6.96470E-14-4.80329E-13
 -1      2036 2.02507E+01-1.38929E-01 2.94889E-03-3.07687E-01 1.28783E-13-3.14928E-13
 -1      2037 2.03320E+01-5.43555E-02-1.04644E-03-5.69804E-02 3.52279E-15-3.51081E-13
 -1      2038 2.02948E+01-6.58452E-02-5.00335E-03-9.42884E-02-5.55452E-14-4.61260E-13
 -1      2039 2.03155E+01-1.10136E-01 2.11599E-03-1.56563E-01-5.67443E-14-5.06071E-13
 -1      2040 2.03358E+01-3.46983E-02-7.45723E-04 1.05178E-02-6.71211E-14-1.61727E-13
 -1      2041 2.03290E+01-4.48433E-02-3.73413E-03-1.43504E-02 8.09797E-14-2.12866E-13
 -1      2042 2.03311E+01-7.78202E-02 1.35229E-03-4.33014E-02-1.71180E-14-3.54589E-13
 -1      2043 2.03069E+01-1.88263E-02-4.63055E-04 5.13358E-02-2.29051E-13-2.68703E-13
 -1      2044 2.03202E+01-2.67200E-02-2.48026E-03 3.69505E-02-1.65779E-13-2.72664E-13
 -1      2045 2.03132E+01-4.85676E-02 7.39881E-04 3.24261E-02-8.88940E-14-1.43929E-13
 -1      2046 2.02601E+01-7.26670E-03-2.16007E-04 7.14597E-02-3.88037E-14-4.05468E-13
 -1      2047 2.02846E+01-1.28367E-02-1.41698E-03 6.49759E-02-1.81800E-13-4.24867E-13
 -1      2048 2.02754E+01-2.53645E-02 2.91326E-04 7.64060E-02-1.54981E-13-3.87104E-13
 -1      2049 2.02063E+01 4.81898E-04-9.31812E-06 7.69453E-02 2.67258E-13-5.60144E-13
 -1      2050 2.02353E+01-3.14112E-03-6.09381E-04 7.59203E-02 1.91423E-13-3.81555E-13
 -1      2051 2.02280E+01-8.68589E-03-1.30819E-05 9.63078E-02 8.31752E-14-5.71372E-13
 -1      2052 2.01529E+01 5.37450E-03 1.59461E-04 7.28150E-02 1.14815E-13-4.34192E-13
 -1      2053 2.01819E+01 3.14536E-03-5.41576E-05 7.53196E-02 1.72878E-13-4.04991E-13
 -1      2054 2.01785E+01 2.39715E-03-2.03723E-04 9.94544E-02 1.12944E-13-5.98444E-13
 -1      2055 2.01047E+01 8.45372E-03 2.89358E-04 6.26500E-02-1.68951E-13-3.21685E-13
 -1      2056 2.01307E+01 7.06298E-03 2.82575E-04 6.73870E-02-1.00878E-14-4.33615E-13
 -1      2057 2.01315E+01 9.39684E-03-3.11599E-04 9.17312E-02-4.91126E-14-2.83950E-13
 -1      2058 2.00647E+01 1.05708E-02 3.73250E-04 4.86495E-02-2.37038E-13-2.40668E-13
 -1      2059 2.00858E+01 9.61585E-03 4.40793E-04 5.48940E-02-2.20319E-13-3.68962E-13
 -1      2060 2.00901E+01 1.38671E-02-3.61143E-04 7.72641E-02-1.69752E-13-4.67040E-13
 -1      2061 2.00339E+01 1.22248E-02 3.90643E-04 3.20904E-02 5.81745E-14-2.16030E-13
 -1      2062 2.00492E+01 1.14610E-02 4.26497E-04 3.94685E-02-1.46356E-13-2.78056E-13
 -1      2063 2.00555E+01 1.68777E-02-4.45111E-04 5.87812E-02-1.44896E-13-3.22831E-13
 -1      2064 2.00140E+01 1.13550E-02 3.62123E-04 1.60588E-02 9.12936E-14-1.19945E-13
 -1      2065 2.00238E+01 1.16160E-02 3.45120E-04 2.31460E-02 2.06415E-13-1.38545E-13
 -1      2066 2.00307E+01 1.79080E-02-1.97467E-04 3.89110E-02-1.01628E-14-4.27720E-13
 -1      2067 2.00133E+01 1.64125E-02 1.11841E-04 2.03109E-02-2.41340E-15-2.51145E-14
 -1      2068 2.00034E+01 9.44414E-02-5.29398E-05 5.44137E-02-2.88047E-13-1.53292E-13
 -1      2069 2.00062E+01 7.67889E-02 3.65220E-04 5.15828E-02-3.75630E-13 4.18984E-14
 -1      2070 2.00086E+01 6.11969E-02 1.07780E-04 4.62791E-02-2.62461E-13 3.10516E-16
 -1      2071 2.00110E+01 4.58604E-02 3.38846E-04 4.07742E-02-1.70576E-13-8.27016E-14
 -1      2072 2.00110E+01 6.90606E-02-1.99033E-04 6.31203E-02-2.36652E-13-4.05328E-14
 -1      2073 2.00131E+01 2.78059E-02 2.39848E-04 2.81170E-02-1.18216E-14-7.76988E-14
 -1      2074 1.99978E+01 1.28928E-01-2.83985E-04 5.56495E-02-4.58325E-13-3.04438E-13
 -1      2075 2.00008E+01 1.10845E-01 1.83413E-04 5.59597E-02-4.47465E-13-1.79526E-13
 -1      2076 2.00031E+01 1.00912E-01-8.80489E-05 7.06072E-02-3.02223E-13-3.25246E-13
 -1      2077 1.99921E+01 1.62188E-01-5.32138E-04 4.95351E-02-1.90693E-13 1.16847E-14
 -1      2078 1.99951E+01 1.45419E-01-1.59632E-05 5.31179E-02-3.49657E-13-3.50884E-14
 -1      2079 1.99947E+01 1.33816E-01 1.01135E-04 6.95257E-02-1.94826E-13-4.19230E-14
 -1      2080 1.99869E+01 1.89523E-01-7.43814E-04 3.61949E-02-3.28229E-13-1.67697E-13
 -1      2081 1.99895E+01 1.76721E-01-2.27084E-04 4.28644E-02-1.83620E-13 6.66264E-15
 -1      2082 1.99864E+01 1.64873E-01 3.11258E-04 5.92420E-02-1.60303E-13-7.94636E-14
 -1      2083 1.99830E+01 2.07019E-01-8.66003E-04 1.66712E-02-3.75100E-13-2.70498E-13
 -1      2084 1.99848E+01 2.00225E-01-4.28780E-04 2.58242E-02-3.65942E-13-3.17605E-13
 -1      2085 1.99792E+01 1.90153E-01 5.29587E-04 4.01410E-02-3.91080E-13-1.58301E-13
 -1      2086 1.99812E+01 2.11546E-01-8.53428E-04-6.85762E-03-2.67931E-13 2.82400E-13
 -1      2087 1.99818E+01 2.12135E-01-5.98711E-04 3.65729E-03-4.37049E-13 1.76944E-13
 -1      2088 1.99742E+01 2.05995E-01 7.17118E-04 1.38380E-02-5.76872E-13-8.31486E-14
 -1      2089 1.99825E+01 2.01500E-01-6.82834E-04-3.10002E-02-6.83587E-15 1.66160E-13
 -1      2090 1.99814E+01 2.09824E-01-7.05537E-04-2.07612E-02-1.18748E-13 1.11567E-13
 -1      2091 1.99727E+01 2.09392E-01 8.27055E-04-1.65470E-02-2.14217E-13 3.00747E-13
 -1      2092 1.99872E+01 1.77982E-01-3.57367E-04-5.11525E-02 2.73714E-14 1.10265E-13
 -1      2093 1.99843E+01 1.92758E-01-7.35525E-04-4.32578E-02-1.64661E-13 3.40800E-13
 -1      2094 1.99760E+01 1.98881E-01 8.31953E-04-4.62081E-02-9.14346E-15 1.43093E-13
 -1      2095 1.99953E+01 1.43161E-01 5.68360E-05-6.35664E-02 4.74694E-13 6.34856E-13
 -1      2096 1.99908E+01 1.62684E-01-6.61596E-04-5.96527E-02 2.16081E-13 4.62757E-13
 -1      2097 1.99843E+01 1.74910E-01 6.82929E-04-6.99213E-02 8.07090E-14 4.85833E-13
 -1      2098 2.00054E+01 1.02510E-01 4.40083E-04-6.42941E-02 6.04040E-13 5.24061E-14
 -1      2099 2.00000E+01 1.23335E-01-4.98045E-04-6.58790E-02 5.99550E-13 3.03099E-13
 -1      2100 1.99970E+01 1.39921E-01 4.17021E-04-8.25728E-02 4.25562E-13 5.89552E-13
 -1      2101 2.00149E+01 6.23755E-02 6.19328E-04-5.19479E-02 4.09221E-13-2.27254E-14
 -1      2102 2.00104E+01 8.10568E-02-2.28281E-04-5.93773E-02 4.14706E-13 6.34341E-14
 -1      2103 2.00118E+01 9.88961E-02 6.22234E-05-8.01899E-02 3.05033E-13-3.19766E-14
 -1      2104 1.97196E+01 1.78898E-01 1.26498E-02 3.26359E-01 1.54803E-13 4.98528E-13
 -1      2105 1.99740E+01 2.56323E-01 1.69948E-02 5.04627E-01 1.72119E-13 5.56711E-13
 -1      2106 2.01724E+01 4.15519E-01-4.09109E-04 7.31533E-01 2.10748E-13 4.13983E-13
 -1      2107 1.99036E+01 2.64331E-01-3.80699E-03 4.01844E-01 1.73605E-13 3.33837E-13
 -1      2108 1.22573E+01-4.86423E+00-1.23013E-01 7.71492E+00-8.69860E-14-3.47881E-13
 -1      2109 7.63791E+00-6.66876E+00-4.19829E-01 6.35558E+00 6.01741E-14-1.27148E-13
 -1      2110 3.12002E+01 1.18452E+00 2.57151E-01 6.33337E+00 5.40956E-14-6.52589E-13
 -1      2111 2.59568E+01-1.04652E+00-1.16226E-01 6.22471E+00 4.05231E-15-4.67959E-13
 -1      2112-1.72905E-02-8.05342E+00-4.45128E-01 2.37020E+00 2.28345E-13 1.90736E-13
 -1      2113-3.79221E-01-8.13434E+00-4.37402E-01 8.79023E-01 1.84625E-13 1.48215E-13
 -1      2114 3.30443E+01 2.29435E+00-2.20884E-01 3.92678E+00-2.05225E-13-2.80470E-13
 -1      2115 3.39111E+01 5.13373E-01-2.32669E-01 4.69759E+00 1.88183E-14-3.60489E-13
 -1      2116 3.80093E+01 4.41402E+00 2.28978E-01 3.17313E+00-3.93574E-13 4.02456E-14
 -1      2117 1.95252E+01 4.01589E+00-2.56987E-02-1.70094E+00-1.89775E-13-3.55427E-13
 -1      2118 1.96526E+01 3.94226E+00-2.42831E-02-1.95635E+00-2.24138E-13-3.18422E-13
 -1      2119 1.99740E+01 3.25189E+00-8.22689E-03-1.90892E+00-2.51696E-13-2.77618E-13
 -1      2120 1.96964E+01 3.58328E+00-9.32779E-03-1.51711E+00-1.87752E-13-3.46934E-13
 -1      2121 3.30962E+01-1.24288E+00-1.19239E-01 4.21006E+00 1.35003E-13-4.20788E-13
 -1      2122 3.36193E+01-2.55739E+00-3.25981E-02 3.18348E+00 5.70759E-14-4.47503E-13
 -1      2123 3.22593E+01-3.90282E+00-7.42114E-02 1.22983E+00 1.93873E-14-3.47819E-13
 -1      2124 3.82980E+01 4.57959E+00 3.46752E-01 4.47460E+00 8.99558E-14-5.48728E-13
 -1      2125 3.38219E+01 3.20895E+00 6.93686E-02 5.16796E+00 1.55577E-13-5.14699E-13
 -1      2126 4.05505E+01 7.05630E+00 1.89568E-01 1.25643E+00 2.00506E-13-5.21749E-13
 -1      2127 3.99451E+01 6.16918E+00 3.67021E-01 3.11507E+00 6.88338E-14-4.48919E-13
 -1      2128 3.64942E+01 5.16870E+00 3.22970E-01 1.29755E+00 1.38611E-13-3.84637E-13
 -1      2129 4.16328E+01 8.21114E+00 3.16798E-01-4.44667E-01 9.96980E-14-4.78950E-13
 -1      2130 4.09382E+01 8.12597E+00 2.01667E-01 6.25108E-01 1.39333E-13-4.87985E-13
 -1      2131 3.95397E+01 6.47433E+00 2.25331E-01-2.33961E+00 2.82441E-13-5.71654E-13
 -1      2132 4.06894E+01 7.27731E+00 1.92433E-01-1.00447E+00 2.55740E-13-5.50615E-13
 -1      2133 3.48589E+01 3.56983E+00 8.55200E-02-4.66023E+00 3.07289E-13-5.74429E-13
 -1      2134 3.85242E+01 4.79968E+00 2.52639E-01-3.64841E+00 3.37452E-13-5.69489E-13
 -1      2135 2.77472E+01 8.63475E-02-8.49342E-02-6.15897E+00 2.39697E-13-5.68767E-13
 -1      2136 3.26701E+01 2.04537E+00 2.77135E-01-6.18832E+00 2.88408E-13-6.04850E-13
 -1      2137 1.99382E+01-3.48833E+00-1.66923E-01-7.04404E+00-5.10703E-15-4.45366E-13
 -1      2138 2.46103E+01-1.29331E+00 1.34486E-01-7.48982E+00 1.15019E-13-5.45564E-13
 -1      2139 1.05145E+01-5.94372E+00-3.26920E-01-6.87419E+00 1.19460E-13-3.11411E-13
 -1      2140 1.51200E+01-4.08809E+00-5.22638E-02-7.95741E+00 9.86988E-14-3.99403E-13
 -1      2141 3.54498E+00-7.51095E+00-4.35628E-01-5.02011E+00-9.37028E-14-5.06706E-13
 -1      2142 6.62201E+00-5.75912E+00-1.84967E-01-6.48419E+00 4.18554E-14-4.02511E-13
 -1      2143-4.47839E-02-8.25087E+00-4.53913E-01-2.21188E+00-2.42639E-13-6.53033E-13
 -1      2144 1.09895E+00-7.42634E+00-3.52994E-01-3.58164E+00-3.51386E-14-6.05849E-13
 -1      2145 7.48829E-01-7.46415E+00-3.40242E-01 1.18378E+00-2.42362E-13-2.92821E-13
 -1      2146-8.66891E-02-7.88510E+00-4.09170E-01-4.03361E-01-1.88780E-13-4.61020E-13
 -1      2147 5.44224E+00-7.47360E+00-4.10739E-01 4.06433E+00-4.79949E-13-4.38816E-13
 -1      2148 2.63772E+00-8.31424E+00-5.16713E-01 2.77263E+00-3.39784E-13-3.44724E-13
 -1      2149 1.47357E+01-6.10268E+00-2.39629E-01 5.87084E+00-3.33178E-13-6.81732E-13
 -1      2150 9.81049E+00-7.69478E+00-5.38525E-01 4.74300E+00-3.92575E-13-4.97533E-13
 -1      2151 2.59820E+01-4.06920E+00-5.69978E-02 5.42787E+00-4.03899E-13-7.01217E-13
 -1      2152 1.94853E+01-6.04256E+00-4.88939E-01 4.93681E+00-2.98650E-13-7.25087E-13
 -1      2153 3.67323E+01-1.07580E+00 1.26377E-01 2.97586E+00-7.19036E-13-3.05422E-13
 -1      2154 3.05719E+01-2.98991E+00-2.47634E-01 3.37686E+00-4.80060E-13-5.42011E-13
 -1      2155 4.41388E+01 2.76185E+00 4.33452E-01 1.27718E-01-6.68299E-13-7.33857E-14
 -1      2156 3.98891E+01 1.18812E+00 2.16128E-01 8.30438E-01-7.69267E-13-2.95541E-13
 -1      2157 4.47098E+01 5.74444E+00 4.56795E-01-1.26131E+00-5.52225E-13-4.40759E-14
 -1      2158 4.40154E+01 4.35080E+00 4.52971E-01-8.90774E-01-6.08180E-13-8.87068E-14
 -1      2159 4.48038E+01 5.96672E+00 4.90251E-01 4.49974E-01-3.40505E-13 8.75411E-14
 -1      2160 4.46522E+01 6.61541E+00 4.66801E-01 3.83479E-01-4.55858E-13 8.92342E-15
 -1      2161 4.01858E+01 2.08371E+00 1.90431E-02 1.61902E+00-2.48523E-13 1.13354E-13
 -1      2162 4.36810E+01 3.97057E+00 4.18332E-01 1.46835E+00-2.54852E-13 1.11466E-13
 -1      2163 3.50083E+01-1.47658E+00-8.12783E-02-2.17551E+00-2.00284E-13 1.68643E-13
 -1      2164 4.02303E+01 3.26469E-01 2.38956E-01-9.40603E-01-1.53983E-13 1.94511E-13
 -1      2165 2.49283E+01-4.77413E+00-3.90507E-01-4.39440E+00-3.97460E-14 3.17413E-13
 -1      2166 3.13696E+01-2.85109E+00 5.95652E-02-4.41697E+00-2.09832E-13 3.44613E-13
 -1      2167 1.61389E+01-6.75619E+00-2.56485E-01-5.42608E+00 2.55906E-13 2.71949E-13
 -1      2168 2.11248E+01-5.30669E+00-9.17354E-02-5.77904E+00 6.35048E-14 3.69316E-13
 -1      2169 5.29277E+00-8.13362E+00-5.77660E-01-3.79257E+00 3.83971E-13 1.14297E-13
 -1      2170 9.68425E+00-6.81472E+00-3.48411E-01-5.33454E+00 2.97873E-13-4.18832E-14
 -1      2171 7.72859E-01-7.78234E+00-4.16996E-01-1.18146E+00 2.65621E-13 3.14249E-13
 -1      2172 2.65603E+00-7.30689E+00-3.30762E-01-2.82833E+00 2.66787E-13 3.46279E-13
 -1      2173 4.46671E+00-6.36967E+00-2.41726E-01 5.64559E+00 1.58318E-13 1.84269E-13
 -1      2174 1.96352E+00-7.83738E+00-4.49742E-01 4.16090E+00 2.83662E-14 4.64739E-13
 -1      2175 8.18563E+00-5.20119E+00-6.04554E-02 7.26822E+00-1.54154E-13-1.73528E-13
 -1      2176 2.00199E+01 2.31709E-02-2.40213E-04-2.71140E-02 1.66411E-13-1.93948E-14
 -1      2177 2.07434E+01 1.12027E+00-2.41290E-02-1.63590E+00-2.55893E-13 1.53006E-13
 -1      2178 2.06331E+01 1.35009E+00-1.80293E-02-1.69825E+00-2.73963E-13 1.21431E-14
 -1      2179 1.64109E+01-5.02897E+00-5.03146E-02 7.70861E+00-2.01728E-13-4.51250E-13
 -1      2180 1.54121E+01-4.97103E+00 1.72056E-01 8.08486E+00-2.95763E-13-5.79273E-13
 -1      2181 2.02841E+01-5.28948E+00-1.07836E-01 7.31544E+00-2.80054E-13-6.10331E-13
 -1      2182 3.92119E+01 5.68734E+00 3.01529E-01-1.01343E+00-5.67435E-13 6.19921E-14
 -1      2183 3.28616E+01-4.70497E+00-1.75756E-01 2.33639E-02-1.92554E-13-4.57689E-14
 -1      2184 3.42526E+01-2.59794E+00-2.60225E-02-2.76018E+00-3.32262E-13 1.00919E-13
 -1      2185 3.25521E+01 6.70252E-01 1.79977E-01 3.09729E+00 4.96096E-14-5.06650E-13
 -1      2186 2.00186E+01 3.55045E-02 4.64338E-05 4.39509E-02 5.84251E-14-2.21077E-13
 -1      2187 2.30079E+00-5.30140E+00-2.15689E-01 4.13411E+00-1.28231E-14 2.78277E-13
 -1      2188 2.00189E+01 3.57725E-02 5.36138E-04-3.59119E-02 2.82631E-13-1.60561E-13
 -1      2189 2.00181E+01 4.85826E-02 1.42538E-04-4.58065E-02 3.50811E-13-1.91068E-13
 -1      2190 2.00237E+01 6.42211E-02-2.08123E-04-6.73002E-02 1.46698E-13-2.57410E-13
 -1      2191 2.00333E+01 3.91320E-02 4.93398E-04-5.10731E-02-1.12424E-13-3.27561E-13
 -1      2192 2.62126E+01-3.39208E+00 1.68980E-02 5.73220E+00-1.62981E-13-6.27720E-13
 -1      2193 1.44743E+00-5.13421E+00-2.05491E-01-6.21721E-01 2.10415E-13 1.83686E-13
 -1      2194 3.61016E+01-5.72362E-01-1.76084E-02 4.07998E+00 2.56739E-14-2.24820E-14
 -1      2195 5.97492E+00-5.67129E+00-1.76696E-01-4.41098E+00 3.83860E-13 1.16407E-13
 -1      2196 1.48246E+01-6.50893E+00-1.69699E-01-5.71518E+00 2.51965E-13 2.59209E-13
 -1      2197 1.97886E+01-6.46878E+00-1.59896E-01-5.68529E+00 3.90743E-13 2.50158E-13
 -1      2198 1.41352E+01-5.53996E+00 1.19944E-01-6.13961E+00 3.40672E-13 1.49630E-13
 -1      2199 2.59786E+01-6.36649E+00-1.25013E-01-4.08838E+00 9.41469E-14 3.20410E-13
 -1      2200 3.42784E+01-3.52976E+00 1.55372E-01-7.97620E-01-8.51541E-14 9.72555E-14
 -1      2201 3.99480E+01 3.15918E+00 4.73659E-01-3.14290E+00-6.90836E-13 3.15303E-14
 -1      2202 3.80541E+01-1.13282E+00 2.84973E-01-1.28881E+00-6.12198E-13-7.77156E-15
 -1      2203 3.08616E+01-5.03725E+00 1.51901E-01 2.64860E+00-2.58293E-13-3.21354E-13
 -1      2204 2.03812E+01-6.75678E+00-1.18049E-01 5.43637E+00-6.46150E-14-5.07761E-13
 -1      2205 1.03672E+01-6.52717E+00-2.08704E-01 5.67274E+00-1.98286E-13-3.66429E-13
 -1      2206 3.22282E+00-5.53433E+00-2.25017E-01 2.82495E+00-1.76498E-13-4.04676E-13
 -1      2207 1.08338E+00-4.96015E+00-2.05755E-01-1.34807E+00-1.71932E-13-5.59996E-13
 -1      2208 3.79089E+00-5.28083E+00-1.76686E-01-5.35872E+00-1.68199E-13-5.62717E-13
 -1      2209 1.06555E+01-5.42663E+00-6.10426E-02-7.68589E+00-1.14353E-13-3.34455E-13
 -1      2210 1.96853E+01-4.84167E+00 1.11411E-02-7.49365E+00-1.91847E-13-2.50688E-13
 -1      2211 2.78957E+01-2.28575E+00 1.05773E-01-5.27803E+00-7.73548E-14-4.15834E-13
 -1      2212 3.34742E+01 1.61703E+00 2.43539E-01-2.81954E+00 1.01565E-13-2.93376E-13
 -1      2213 3.62493E+01 5.65552E+00 2.76512E-01-7.24594E-01 2.44027E-13-2.09999E-13
 -1      2214 3.87484E+01 7.86560E+00 2.36705E-01 3.89396E-01 2.09832E-13-4.28851E-13
 -1      2215 3.50333E+01 7.34986E+00-5.44571E-03-2.04045E-01 1.69698E-13-2.97040E-13
 -1      2216 3.50932E+01 8.48091E+00-4.43880E-02-3.74075E-01 9.94760E-14-3.04146E-13
 -1      2217 3.73772E+01 8.43455E+00 2.33976E-01 4.56977E-02 2.42029E-13-2.45873E-13
 -1      2218 1.95648E+01 3.51886E+00-1.11686E-02-5.90765E-01-3.49004E-14-3.19769E-13
 -1      2219 1.96001E+01 3.47267E+00-1.05318E-02-7.75030E-01-7.83710E-14-3.34041E-13
 -1      2220 1.96465E+01 3.38409E+00-1.28288E-02-9.39491E-01-1.04376E-13-3.40888E-13
 -1      2221 1.97069E+01 3.30317E+00-1.28609E-02-1.12873E+00-1.39450E-13-3.37387E-13
 -1      2222 1.97913E+01 3.03619E+00 1.78235E-04-7.91024E-01-7.89031E-14-3.00261E-13
 -1      2223 1.95175E+01 3.60216E+00-9.63521E-03 9.92825E-02 9.90522E-14-3.14469E-13
 -1      2224 1.95169E+01 3.60294E+00-9.64195E-03-8.00010E-02 6.00185E-14-3.13637E-13
 -1      2225 1.95433E+01 3.56262E+00-9.73136E-03 4.44884E-01 1.48927E-13-3.02980E-13
 -1      2226 1.95261E+01 3.58529E+00-1.01549E-02 2.64249E-01 1.22422E-13-3.15316E-13
 -1      2227 1.96835E+01 3.22579E+00-8.65191E-04 1.69268E-01 1.04728E-13-2.93536E-13
 -1      2228 1.96046E+01 3.46561E+00-1.06221E-02 7.88492E-01 1.91785E-13-2.73111E-13
 -1      2229 1.95686E+01 3.51286E+00-1.12337E-02 6.07193E-01 1.70113E-13-2.93100E-13
 -1      2230 1.97199E+01 3.16201E+00-4.71204E-04 4.87124E-01 1.49187E-13-2.70813E-13
 -1      2231 1.97145E+01 3.29107E+00-1.29453E-02 1.14161E+00 2.39258E-13-2.24662E-13
 -1      2232 1.96522E+01 3.37478E+00-1.29117E-02 9.52379E-01 2.08437E-13-2.54033E-13
 -1      2233 1.97963E+01 3.02777E+00 2.93571E-04 8.02318E-01 1.89170E-13-2.37686E-13
 -1      2234 1.98926E+01 3.00448E+00-1.81383E-02 1.48860E+00 2.96877E-13-1.27265E-13
 -1      2235 1.97936E+01 3.14590E+00-1.52824E-02 1.29833E+00 2.52975E-13-1.81624E-13
 -1      2236 1.99249E+01 2.80171E+00 2.04090E-03 1.10813E+00 2.36050E-13-1.82139E-13
 -1      2237 2.01670E+01 2.53787E+00-2.87011E-02 1.78528E+00 3.34518E-13-2.47545E-15
 -1      2238 2.00153E+01 2.78442E+00-1.81039E-02 1.62075E+00 3.13355E-13-7.52107E-14
 -1      2239 2.01185E+01 2.44956E+00 5.83973E-03 1.37617E+00 2.77573E-13-7.51118E-14
 -1      2240 2.05817E+01 1.79510E+00-2.65627E-02 1.89000E+00 3.24197E-13 2.09584E-13
 -1      2241 2.03621E+01 2.22542E+00-1.08092E-02 1.85215E+00 3.23679E-13 8.00193E-14
 -1      2242 2.03871E+01 1.91259E+00 1.40369E-02 1.53103E+00 3.07386E-13 4.60066E-14
 -1      2243 2.07868E+01 1.06712E+00-1.78218E-02 1.59017E+00 2.92637E-13 4.12174E-13
 -1      2244 2.06743E+01 1.53582E+00 8.79971E-04 1.79129E+00 3.11595E-13 2.99649E-13
 -1      2245 2.05009E+01 1.28030E+00 4.60035E-04 1.41968E+00 3.05127E-13 2.01659E-13
 -1      2246 2.04445E+01 7.43684E-01-1.83404E-03 1.11093E+00 2.75504E-13 3.73333E-13
 -1      2247 2.04122E+01 8.81641E-01 1.26211E-02-1.03083E+00-2.34994E-13-4.72432E-14
 -1      2248 2.01987E+01 6.47623E-01-4.68832E-03-7.14291E-01-2.16111E-13-5.17242E-14
 -1      2249 3.25360E+01 9.72954E-01-7.94083E-02 1.28496E+00 1.10766E-13-2.20823E-13
 -1      2250 3.03117E+01-1.15315E+00-3.76205E-02 2.14886E+00 1.46272E-14-3.59157E-13
 -1      2251 2.01351E+01 4.84672E-01 1.64041E-02-4.93136E-01-2.00842E-13-4.59355E-14
 -1      2252 1.99911E+01 3.56415E-01-7.63188E-05-3.16202E-01-1.88829E-13-6.36291E-14
 -1      2253 2.02512E+01 7.68580E-01-2.15818E-03-7.14157E-01-2.18195E-13-1.21663E-13
 -1      2254 1.99279E+01 2.69353E-01 1.10794E-02-1.74550E-01-1.71035E-13-6.03485E-14
 -1      2255 1.98478E+01 1.96474E-01 7.58330E-04-7.36118E-02-1.69019E-13-9.00350E-14
 -1      2256 2.00881E+01 4.31053E-01-3.79064E-03-3.21805E-01-1.90038E-13-1.42244E-13
 -1      2257 1.98036E+01 1.46278E-01 6.56539E-03 1.20039E-02-1.50812E-13-5.94908E-14
 -1      2258 1.97686E+01 1.03639E-01 8.53038E-04 6.84258E-02-1.29956E-13-7.13674E-14
 -1      2259 1.99672E+01 2.38245E-01-3.74883E-03-7.46354E-02-1.60905E-13-1.16969E-13
 -1      2260 1.97436E+01 7.38195E-02 3.70228E-03 1.17606E-01-9.50328E-14-6.06949E-14
 -1      2261 1.97379E+01 4.87382E-02 8.22866E-04 1.47329E-01-6.32403E-14-5.98981E-14
 -1      2262 1.98923E+01 1.25004E-01-3.05911E-03 7.36499E-02-1.14355E-13-9.54609E-14
 -1      2263 1.97279E+01 3.11893E-02 1.94165E-03 1.73462E-01-7.57582E-14-3.23047E-14
 -1      2264 1.97405E+01 1.70785E-02 7.86081E-04 1.87328E-01-5.69911E-14-1.50857E-14
 -1      2265 1.98553E+01 5.79794E-02-2.27592E-03 1.57798E-01-5.63629E-14-4.77897E-14
 -1      2266 1.97413E+01 7.48909E-03 8.54480E-04 1.99551E-01-7.26442E-14-1.38850E-14
 -1      2267 1.97650E+01 6.95791E-04 7.84885E-04 2.04576E-01-5.87981E-14-1.19408E-14
 -1      2268 1.98459E+01 1.97735E-02-1.61682E-03 2.01801E-01-6.58989E-14-2.19514E-14
 -1      2269 1.97732E+01-3.37225E-03 1.83683E-04 2.09272E-01-5.85487E-14-4.38878E-14
 -1      2270 1.98036E+01-4.93913E-03 8.47040E-04 2.10293E-01-6.59850E-14-5.63034E-14
 -1      2271 1.98556E+01 7.46671E-04-1.13091E-03 2.22282E-01-7.76969E-14-3.25846E-14
 -1      2272 1.98168E+01-4.88136E-03-2.24183E-04 2.12109E-01-7.71220E-14-5.42325E-14
 -1      2273 1.98516E+01-2.36848E-03 9.96050E-04 2.12706E-01-5.93443E-14-5.39409E-14
 -1      2274 1.98784E+01-4.60175E-03-8.00264E-04 2.31102E-01-8.24441E-14-6.24095E-14
 -1      2275 1.98683E+01 1.10315E-03-4.69935E-04 2.15241E-01-9.76081E-14-4.94955E-14
 -1      2276 1.99070E+01 7.22733E-03 1.25718E-03 2.18332E-01-6.94700E-14-1.09950E-13
 -1      2277 1.99100E+01 7.01391E-04-5.89167E-04 2.37123E-01-9.45660E-14-7.82365E-14
 -1      2278 1.99261E+01 1.39424E-02-6.28205E-04 2.24645E-01-7.18480E-14-1.26018E-13
 -1      2279 1.99692E+01 2.37997E-02 1.66347E-03 2.32941E-01-1.02340E-13-1.30807E-13
 -1      2280 1.99481E+01 1.53829E-02-4.57965E-04 2.47472E-01-1.04087E-13-3.38438E-14
 -1      2281 1.99903E+01 3.41077E-02-7.62533E-04 2.45975E-01-5.81352E-14-1.18851E-13
 -1      2282 2.00394E+01 4.84321E-02 2.26087E-03 2.62388E-01-3.86949E-14-1.37466E-13
 -1      2283 1.99913E+01 3.96731E-02-3.62816E-04 2.68509E-01-6.65983E-14-4.57307E-14
 -1      2284 2.00618E+01 6.32611E-02-9.36497E-04 2.85370E-01-6.32201E-14-1.06839E-13
 -1      2285 2.01196E+01 8.35005E-02 3.11148E-03 3.13440E-01-4.50298E-14-9.35050E-14
 -1      2286 2.00388E+01 7.53373E-02-2.48697E-04 3.06673E-01-3.47211E-14-3.00317E-14
 -1      2287 2.01422E+01 1.04478E-01-1.22436E-03 3.50290E-01 7.47644E-15-1.23646E-13
 -1      2288 2.02123E+01 1.32950E-01 4.29320E-03 3.94660E-01 7.76926E-14-1.25308E-13
 -1      2289 2.00894E+01 1.25901E-01-3.71287E-05 3.69285E-01-3.99027E-14-3.35365E-14
 -1      2290 2.02330E+01 1.62552E-01-1.72273E-03 4.50418E-01 9.19848E-14-1.31199E-13
 -1      2291 2.03196E+01 2.02596E-01 5.89073E-03 5.17348E-01 8.57374E-14-1.19628E-13
 -1      2292 2.01409E+01 1.96990E-01 3.91528E-04 4.65343E-01 8.52822E-14-9.91946E-14
 -1      2293 2.03341E+01 2.44229E-01-2.56308E-03 5.98593E-01 3.39277E-14-1.30033E-13
 -1      2294 2.04420E+01 3.00175E-01 7.96764E-03 6.96424E-01 3.30827E-14-1.55976E-13
 -1      2295 2.01882E+01 2.96610E-01 1.21937E-03 6.06266E-01 7.18884E-14-1.70312E-13
 -1      2296 2.04425E+01 3.57937E-01-3.92075E-03 8.11566E-01 2.88398E-14-1.60473E-13
 -1      2297 2.05763E+01 4.34447E-01 1.05060E-02 9.50829E-01 3.99420E-14-1.01170E-13
 -1      2298 2.02213E+01 4.34895E-01 2.70590E-03 8.06418E-01 1.32722E-14-8.78831E-14
 -1      2299 2.05500E+01 5.11889E-01-5.99937E-03 1.11007E+00-8.18529E-15-1.25285E-13
 -1      2300 2.07130E+01 6.11603E-01 1.33123E-02 1.30252E+00-8.76482E-14-4.19526E-14
 -1      2301 2.02220E+01 6.22171E-01 5.16826E-03 1.08305E+00 5.33644E-15-9.81146E-14
 -1      2302 2.06412E+01 7.07986E-01-8.91911E-03 1.51708E+00-8.30612E-14-2.61687E-14
 -1      2303 2.08349E+01 8.25207E-01 1.59993E-02 1.77223E+00 2.89525E-14 5.08279E-14
 -1      2304 2.01607E+01 8.62718E-01 8.86956E-03 1.45513E+00-3.73575E-14-1.03845E-13
 -1      2305 2.06950E+01 9.26162E-01-1.22326E-02 2.05246E+00 4.44852E-14 2.93552E-14
 -1      2306 2.09219E+01 1.03243E+00 1.85630E-02 2.36908E+00 4.52936E-14-2.34383E-14
 -1      2307 1.99959E+01 1.13902E+00 1.37848E-02 1.94051E+00 2.18397E-14-1.20108E-13
 -1      2308 2.07002E+01 1.08964E+00-1.32783E-02 2.72225E+00 7.92996E-14-2.36638E-14
 -1      2309 2.09795E+01 1.10397E+00 2.34541E-02 3.07177E+00 9.39778E-14-1.68093E-14
 -1      2310 1.96824E+01 1.37812E+00 1.94608E-02 2.55273E+00 7.08973E-14-1.10458E-13
 -1      2311 2.07101E+01 9.98205E-01-2.18543E-03 3.49906E+00 6.62343E-14 4.32050E-14
 -1      2312 2.11175E+01 7.34856E-01 3.70345E-02 3.79970E+00 1.51552E-13 3.79818E-15
 -1      2313 1.92071E+01 1.38443E+00 2.50747E-02 3.30338E+00 1.25108E-13-1.00140E-13
 -1      2314 2.09833E+01 2.33675E-01 4.30943E-02 4.25765E+00 1.96163E-13-3.22693E-14
 -1      2315 2.17034E+01-6.00768E-01 6.79541E-02 4.34007E+00 2.08444E-13-5.62328E-14
 -1      2316 1.87036E+01 7.08563E-01 2.36733E-02 4.19046E+00 1.14984E-13-9.49102E-14
 -1      2317 2.21050E+01-1.69979E+00 1.29372E-01 4.64546E+00 2.67918E-13-1.41512E-13
 -1      2318 2.33314E+01-3.17924E+00 8.80805E-02 4.29237E+00 2.54616E-13-1.94060E-13
 -1      2319 1.86412E+01-1.19246E+00 1.63373E-02 5.09892E+00 1.83173E-13-1.71238E-13
 -1      2320 2.58915E+01-4.68957E+00 1.58338E-01 3.64747E+00 2.34590E-13-1.82798E-13
 -1      2321 2.80433E+01-5.60255E+00 4.67014E-02 2.50801E+00 9.98646E-14-1.15241E-13
 -1      2322 3.56656E+01 1.09376E+00-6.68381E-02-4.25484E+00-5.69711E-13 9.14269E-14
 -1      2323 3.37986E+01-1.73949E+00-3.38479E-01-4.22608E+00-3.58852E-13 2.06210E-13
 -1      2324 3.40162E+01 2.12737E-01-1.06233E-01-4.41552E+00-4.80449E-13 1.21764E-13
 -1      2325 3.79156E+01-2.28103E-01-4.01753E-03-2.97888E+00-6.30995E-13 6.11733E-14
 -1      2326 2.88650E+01-5.72315E+00-7.92983E-02 1.98719E+00-6.88061E-14-1.93512E-13
 -1      2327 2.05432E+01 1.96836E+00-1.44472E-02-1.91020E+00-2.65678E-13-1.06611E-13
 -1      2328 2.04172E+01 1.24511E+00-6.61870E-03-1.31472E+00-2.57036E-13-6.94021E-14
 -1      2329 2.03770E+01 1.40457E+00 4.20513E-03-1.25414E+00-2.52898E-13-1.38875E-13
 -1      2330 2.02859E+01 2.37844E+00-7.73486E-03-1.83407E+00-2.57429E-13-2.03679E-13
 -1      2331 2.41000E+01-1.73269E+00 3.82045E-02-3.95705E+00 2.63005E-13 8.89636E-14
 -1      2332 2.31215E+01-5.90789E-01 8.46062E-02-4.20834E+00 3.93366E-13 2.69448E-13
 -1      2333 2.25655E+01 1.04580E-01 2.49301E-02-3.96421E+00 3.34378E-13 2.64970E-14
 -1      2334 2.19555E+01 6.04798E-01 1.96507E-02-3.78506E+00 1.58552E-13 1.16156E-13
 -1      2335 2.19801E+01 8.29334E-01 2.15129E-02-3.37408E+00-7.65541E-14 3.74308E-14
 -1      2336 2.15394E+01 9.33241E-01-3.44325E-03-3.04614E+00-6.31455E-14-9.54694E-15
 -1      2337 2.01419E+01 9.45408E-01 1.15056E-02-3.76797E+00 1.71937E-14 1.98829E-13
 -1      2338 2.16353E+01 9.29799E-01 1.96801E-02-2.65712E+00-4.09265E-14 3.06782E-14
 -1      2339 2.12879E+01 8.73775E-01-7.99302E-03-2.32184E+00-1.64296E-13-6.44650E-14
 -1      2340 2.03056E+01 1.21813E+00 1.35017E-02-2.96595E+00-6.27897E-14 1.18589E-13
 -1      2341 2.13540E+01 7.93277E-01 1.81701E-02-1.99736E+00-3.57847E-14-1.55970E-13
 -1      2342 2.10715E+01 6.95727E-01-6.54405E-03-1.71359E+00 4.48990E-14-7.43060E-14
 -1      2343 2.04443E+01 1.09383E+00 1.06737E-02-2.25783E+00-1.25692E-13 5.13205E-14
 -1      2344 2.10939E+01 6.06422E-01 1.57280E-02-1.45967E+00-1.14873E-14-3.29872E-13
 -1      2345 2.08670E+01 5.14160E-01-4.34436E-03-1.24040E+00-1.66745E-13-3.12324E-13
 -1      2346 2.04953E+01 8.59436E-01 7.28371E-03-1.67952E+00-8.19501E-14-2.06112E-13
 -1      2347 2.08584E+01 4.39305E-01 1.26535E-02-1.04944E+00-1.74798E-13-3.07698E-13
 -1      2348 2.06805E+01 3.65869E-01-2.64186E-03-8.88117E-01-7.67806E-14-2.05830E-13
 -1      2349 2.04758E+01 6.33064E-01 4.36156E-03-1.22958E+00-1.25995E-13-3.56218E-13
 -1      2350 2.06553E+01 3.09634E-01 9.63570E-03-7.48164E-01 8.75797E-14-2.20936E-13
 -1      2351 2.05189E+01 2.55595E-01-1.51012E-03-6.32594E-01 1.90233E-13-3.21943E-13
 -1      2352 2.04168E+01 4.50811E-01 2.24605E-03-8.91272E-01 9.32132E-15-2.70701E-13
 -1      2353 2.04875E+01 2.15590E-01 7.08498E-03-5.31537E-01 3.22880E-13-4.35234E-13
 -1      2354 2.03847E+01 1.77493E-01-7.92759E-04-4.49752E-01 1.76751E-13-4.25657E-13
 -1      2355 2.03429E+01 3.15769E-01 9.08884E-04-6.42516E-01 1.17234E-13-2.78567E-13
 -1      2356 2.03535E+01 1.49943E-01 5.10283E-03-3.77199E-01-1.48191E-13-3.89854E-13
 -1      2357 2.02769E+01 1.23849E-01-3.44537E-04-3.19382E-01-4.07524E-13-3.44573E-13
 -1      2358 2.02688E+01 2.20165E-01 1.60834E-04-4.61845E-01 3.04925E-14-4.17666E-13
 -1      2359 2.02488E+01 1.05374E-01 3.62768E-03-2.67122E-01-3.84229E-13-2.30296E-13
 -1      2360 2.01924E+01 8.80326E-02-6.29605E-05-2.25804E-01-2.66992E-13-3.21564E-13
 -1      2361 2.02020E+01 1.54498E-01-2.10340E-04-3.31029E-01-3.54320E-13-3.12943E-13
 -1      2362 2.01684E+01 7.61171E-02 2.55583E-03-1.87615E-01-2.07605E-13-3.89761E-13
 -1      2363 2.01274E+01 6.51325E-02 1.22868E-04-1.57278E-01-1.31233E-13-4.78557E-13
 -1      2364 2.01452E+01 1.10757E-01-3.40644E-04-2.35696E-01-2.79863E-13-2.64484E-13
 -1      2365 2.01074E+01 5.77065E-02 1.67228E-03-1.28500E-01-5.48094E-14-6.98609E-13
 -1      2366 2.00783E+01 5.15527E-02 2.74239E-04-1.05387E-01-1.19622E-13-7.38335E-13
 -1      2367 2.00985E+01 8.27231E-02-4.08432E-04-1.64982E-01-2.47665E-13-4.83401E-13
 -1      2368 2.00660E+01 4.70235E-02 1.15873E-03-8.60361E-02 2.35979E-15-7.07191E-13
 -1      2369 2.00455E+01 4.33756E-02 5.75094E-04-6.74182E-02-8.92087E-14-5.39156E-13
 -1      2370 2.00412E+01 5.55560E-02 2.46391E-04-7.73209E-02-1.50425E-14-7.14007E-13
 -1      2371 2.00653E+01 6.69001E-02 6.50317E-05-1.14828E-01-3.53575E-14-6.68864E-13
 -1      2372 1.97024E+01 6.51426E-02 1.13152E-03-1.15386E-01 1.28044E-13 8.43539E-14
 -1      2373 1.97175E+01 9.49044E-02 5.04160E-03-7.64689E-02 1.48969E-13 1.14105E-13
 -1      2374 1.97524E+01 1.29943E-01 1.38963E-03-1.30001E-02 1.33287E-13 1.07723E-13
 -1      2375 1.98053E+01 1.80452E-01 8.86425E-03 5.92461E-02 1.29287E-13 1.45566E-13
 -1      2376 1.98834E+01 1.59280E-01-3.50509E-03-1.52789E-02 1.54820E-13 5.84347E-14
 -1      2377 1.98629E+01 2.41910E-01 1.79040E-03 1.67670E-01 1.33787E-13 1.40886E-13
 -1      2378 1.99657E+01 3.26529E-01 1.09632E-02 2.98084E-01 1.56598E-13 1.78904E-13
 -1      2379 1.99828E+01 2.95493E-01-4.28822E-03 1.73061E-01 1.55275E-13 7.16930E-14
 -1      2380 1.96946E+01 2.69668E-02 9.27538E-04-1.69287E-01 9.59479E-14 3.83934E-14
 -1      2381 1.96863E+01 4.43154E-02 2.70250E-03-1.50227E-01 9.14426E-14 5.38857E-14
 -1      2382 1.98297E+01 7.88687E-02-2.67530E-03-1.24678E-01 1.25511E-13 3.90810E-14
 -1      2383 1.97142E+01 5.22367E-03 7.77479E-04-1.93663E-01 9.56116E-14 1.62089E-14
 -1      2384 1.96921E+01 1.48011E-02 1.28990E-03-1.86299E-01 1.11122E-13 3.10225E-14
 -1      2385 1.98107E+01 3.15619E-02-1.89646E-03-1.83517E-01 1.16260E-13 3.39868E-14
 -1      2386 1.97507E+01-5.92632E-03 6.74481E-04-2.00936E-01 6.20168E-14 6.58065E-14
 -1      2387 1.97209E+01-1.36902E-03 4.36348E-04-2.00051E-01 6.42308E-14 3.51144E-14
 -1      2388 1.98155E+01 4.90966E-03-1.28963E-03-2.11134E-01 8.44020E-14 1.26664E-14
 -1      2389 1.97971E+01-1.02089E-02 6.08739E-04-1.99344E-01 8.31003E-14 8.05262E-14
 -1      2390 1.97633E+01-8.87327E-03-6.48969E-05-2.01547E-01 8.16678E-14 7.75591E-14
 -1      2391 1.98359E+01-8.41690E-03-8.59963E-04-2.20565E-01 5.19932E-14 1.70118E-14
 -1      2392 1.98491E+01-1.02726E-02 5.62695E-04-1.94241E-01 5.43609E-14 1.23166E-13
 -1      2393 1.98135E+01-1.08499E-02-3.34590E-04-1.97391E-01 1.13123E-13 1.32385E-13
 -1      2394 1.98662E+01-1.31868E-02-5.75818E-04-2.20569E-01 8.63849E-14 2.33129E-14
 -1      2395 1.99045E+01-8.24011E-03 5.10350E-04-1.88808E-01 6.95761E-14 5.56772E-14
 -1      2396 1.98682E+01-9.65216E-03-4.48168E-04-1.91721E-01 6.32690E-14 9.33243E-14
 -1      2397 1.99031E+01-1.28574E-02-4.02124E-04-2.16836E-01 9.37674E-14 7.15456E-14
 -1      2398 1.99621E+01-6.05564E-03 4.16951E-04-1.84405E-01-2.38823E-14 9.66639E-14
 -1      2399 1.99256E+01-7.28554E-03-4.54007E-04-1.86724E-01 5.17856E-15 9.42805E-14
 -1      2400 1.99445E+01-1.02646E-02-3.08739E-04-2.12678E-01 2.81378E-14 1.48488E-13
 -1      2401 2.00214E+01-5.72646E-03 2.38689E-04-1.80664E-01-1.43089E-14-4.16829E-14
 -1      2402 1.99852E+01-5.69953E-03-3.82888E-04-1.82843E-01-6.20153E-15 2.39355E-14
 -1      2403 1.99896E+01-8.06537E-03-2.71275E-04-2.09359E-01 4.79069E-14 1.23397E-13
 -1      2404 2.00821E+01-9.47485E-03-7.61137E-05-1.75421E-01 5.96980E-14-9.56416E-14
 -1      2405 2.00466E+01-6.98900E-03-2.53948E-04-1.78777E-01 1.45598E-14-1.02866E-13
 -1      2406 2.00384E+01-9.03811E-03-2.69566E-04-2.06178E-01 5.24459E-14-5.46095E-14
 -1      2407 2.01434E+01-1.97627E-02-5.82284E-04-1.64557E-01-2.71358E-14-7.33680E-14
 -1      2408 2.01098E+01-1.34937E-02-7.98595E-05-1.71345E-01 7.14253E-15-8.82298E-14
 -1      2409 2.00912E+01-1.62481E-02-2.85114E-04-2.00372E-01 2.55244E-14-8.11392E-14
 -1      2410 2.02035E+01-3.91005E-02-1.32637E-03-1.41884E-01 6.02434E-14-3.91438E-14
 -1      2411 2.01738E+01-2.77347E-02 1.26938E-04-1.55322E-01 5.69774E-14-6.86823E-14
 -1      2412 2.01484E+01-3.30133E-02-2.97059E-04-1.86940E-01-8.11970E-15-8.36499E-14
 -1      2413 2.02594E+01-6.95072E-02-2.32528E-03-9.92867E-02-5.29272E-14 4.71793E-14
 -1      2414 2.02368E+01-5.20765E-02 3.45484E-04-1.23412E-01 1.69708E-14 2.88821E-14
 -1      2415 2.02100E+01-6.25391E-02-2.76311E-04-1.58550E-01 1.42425E-14-1.47309E-14
 -1      2416 2.03056E+01-1.11477E-01-3.53271E-03-2.74438E-02-1.51363E-13 1.18299E-14
 -1      2417 2.02946E+01-8.79695E-02 5.34516E-04-6.66323E-02-1.27682E-13 1.82769E-14
 -1      2418 2.02749E+01-1.07039E-01-1.78163E-04-1.05759E-01-6.27487E-14 7.46668E-14
 -1      2419 2.03340E+01-1.62384E-01-4.79549E-03 8.24579E-02-1.55833E-13 5.27276E-14
 -1      2420 2.03405E+01-1.34648E-01 6.19476E-04 2.45098E-02-1.45472E-13 3.89418E-14
 -1      2421 2.03401E+01-1.66174E-01 6.38285E-05-1.79496E-02-1.51572E-13 4.31992E-15
 -1      2422 2.03334E+01-2.14527E-01-5.80979E-03 2.35587E-01-2.17800E-14 8.41838E-14
 -1      2423 2.03642E+01-1.87317E-01 4.85933E-04 1.57577E-01-4.91443E-14 1.02775E-13
 -1      2424 2.03993E+01-2.34794E-01 5.34782E-04 1.14531E-01-1.19555E-13-4.84710E-14
 -1      2425 2.02900E+01-2.53546E-01-6.10988E-03 4.28760E-01-2.21993E-14 1.83640E-13
 -1      2426 2.03516E+01-2.35229E-01-1.00582E-06 3.34143E-01-2.44637E-14 1.29350E-13
 -1      2427 2.04416E+01-3.00415E-01 1.31282E-03 2.96524E-01-5.43727E-14 1.29727E-13
 -1      2428 2.01892E+01-2.58775E-01-5.15386E-03 6.44787E-01 3.17682E-14 1.52556E-13
 -1      2429 2.02858E+01-2.60782E-01-9.37466E-04 5.44275E-01 3.68785E-14 1.72160E-13
 -1      2430 2.04512E+01-3.41680E-01 2.39429E-03 5.22316E-01-2.06132E-14 1.17288E-13
 -1      2431 2.00202E+01-2.07678E-01-2.56061E-03 8.48028E-01 7.63826E-14 1.54920E-13
 -1      2432 2.01508E+01-2.41540E-01-2.26352E-03 7.60930E-01 5.96858E-14 1.38327E-13
 -1      2433 2.04079E+01-3.30134E-01 3.54958E-03 7.68862E-01 7.16976E-14 7.89709E-14
 -1      2434 1.97835E+01-8.57721E-02 1.52452E-03 9.85168E-01 1.06239E-13 2.10717E-13
 -1      2435 1.99393E+01-1.57251E-01-3.59593E-03 9.37615E-01 9.21379E-14 2.06111E-13
 -1      2436 2.02933E+01-2.38069E-01 4.20099E-03 9.90855E-01 4.89697E-14 2.00690E-13
 -1      2437 1.94998E+01 9.99485E-02 6.12906E-03 9.96007E-01 6.48395E-14 2.18950E-13
 -1      2438 1.96623E+01-2.05079E-03-4.17774E-03 1.01425E+00 1.57226E-13 2.26543E-13
 -1      2439 2.01013E+01-5.31092E-02 3.54302E-03 1.12305E+00 1.27476E-13 3.61989E-13
 -1      2440 1.92150E+01 3.11581E-01 9.54528E-03 8.35846E-01-1.54180E-13 1.61696E-13
 -1      2441 1.93577E+01 2.02743E-01-3.07924E-03 9.35050E-01-1.26242E-13 1.39499E-13
 -1      2442 1.98515E+01 2.04875E-01 1.01245E-03 1.09576E+00 8.48616E-15 3.64076E-13
 -1      2443 1.89939E+01 4.85999E-01 1.01780E-02 5.03106E-01 1.93652E-14 2.39597E-13
 -1      2444 1.90887E+01 4.04947E-01 1.35239E-04 6.75977E-01-4.87436E-14 1.59930E-13
 -1      2445 1.95962E+01 4.76021E-01-2.98416E-03 8.64522E-01-6.40839E-14 2.23907E-13
 -1      2446 1.88989E+01 5.60875E-01 7.68754E-03 5.45659E-02 3.59326E-14 2.60120E-13
 -1      2447 1.89249E+01 5.37623E-01 4.73832E-03 2.68193E-01 5.52826E-14 2.65565E-13
 -1      2448 1.94101E+01 6.76431E-01-6.44655E-03 4.43118E-01 1.92316E-14 2.92711E-13
 -1      2449 1.89615E+01 5.06908E-01 3.22538E-03-4.07759E-01-3.70103E-15 3.19710E-13
 -1      2450 1.89125E+01 5.50783E-01 8.81428E-03-2.02167E-01 2.20015E-14 2.72988E-13
 -1      2451 1.93570E+01 7.33567E-01-7.57823E-03-8.49459E-02-3.16069E-14 3.38131E-13
 -1      2452 1.91653E+01 3.45309E-01-1.03663E-03-7.75604E-01 3.36298E-15 2.16938E-13
 -1      2453 1.90527E+01 4.39064E-01 1.04368E-02-6.23683E-01 6.46789E-14 2.87283E-13
 -1      2454 1.94569E+01 6.25874E-01-5.46646E-03-5.92069E-01 7.86176E-14 3.25490E-13
 -1      2455 1.94533E+01 1.35481E-01-3.58947E-03-9.78367E-01 1.18750E-13 5.54311E-14
 -1      2456 1.93013E+01 2.45476E-01 8.77955E-03-9.05240E-01 2.03323E-14 1.18346E-13
 -1      2457 1.96732E+01 3.93991E-01-1.51936E-03-9.59227E-01 1.08626E-13 1.68036E-13
 -1      2458 1.97551E+01-5.74628E-02-4.08411E-03-1.00412E+00 1.05265E-13 2.62703E-13
 -1      2459 1.95921E+01 3.64472E-02 4.75045E-03-1.00896E+00 1.62768E-13 1.79189E-13
 -1      2460 1.99343E+01 1.18858E-01 2.07794E-03-1.12445E+00 1.61475E-13 6.06367E-14
 -1      2461 2.00147E+01-1.90623E-01-3.18406E-03-8.90000E-01 1.04862E-13 1.39790E-13
 -1      2462 1.98650E+01-1.31267E-01 1.08332E-04-9.52783E-01 1.19909E-13 2.16422E-13
 -1      2463 2.01703E+01-1.20065E-01 3.94714E-03-1.09538E+00 1.58326E-13 2.04153E-13
 -1      2464 2.02031E+01-2.52177E-01-1.76906E-03-6.95879E-01 1.64666E-13 3.28647E-14
 -1      2465 2.00820E+01-2.29788E-01-3.59186E-03-7.89268E-01 1.46399E-13 7.69595E-14
 -1      2466 2.03392E+01-2.75375E-01 4.05924E-03-9.28132E-01 1.90618E-13 7.15088E-14
 -1      2467 2.03164E+01-2.53996E-01-5.09708E-04-4.79041E-01 2.40419E-13-7.06929E-14
 -1      2468 2.02300E+01-2.60228E-01-5.64529E-03-5.78510E-01 2.18074E-13-8.92900E-14
 -1      2469 2.04307E+01-3.38769E-01 3.15004E-03-6.93769E-01 2.56890E-13-8.30163E-14
 -1      2470 2.03661E+01-2.18069E-01 3.19966E-04-2.80158E-01 2.30457E-13-3.90494E-13
 -1      2471 2.03132E+01-2.40946E-01-6.13720E-03-3.69020E-01 2.59705E-13-1.62439E-13
 -1      2472 2.04567E+01-3.29248E-01 1.97264E-03-4.52399E-01 3.02515E-13-9.91629E-14
 -1      2473 2.03692E+01-1.65714E-01 7.23940E-04-1.20615E-01-4.49877E-14-4.51082E-13
 -1      2474 2.03444E+01-1.94624E-01-5.54440E-03-1.90563E-01 1.97521E-14-4.53220E-13
 -1      2475 2.04370E+01-2.75983E-01 9.63674E-04-2.42285E-01 1.80720E-13-6.99639E-14
 -1      2476 2.03423E+01-1.12334E-01 8.26505E-04-6.36873E-03-1.69230E-13-2.20596E-13
 -1      2477 2.03386E+01-1.40108E-01-4.39987E-03-5.55865E-02-9.09932E-14-3.38810E-13
 -1      2478 2.03912E+01-2.05587E-01 2.67692E-04-8.05897E-02-9.07091E-14-1.61052E-13
 -1      2479 2.02990E+01-6.65415E-02 7.64326E-04 6.62370E-02-1.15641E-13-9.12253E-15
 -1      2480 2.03095E+01-8.94961E-02-3.12085E-03 3.56307E-02-1.09404E-13-6.98457E-15
 -1      2481 2.03338E+01-1.36499E-01-1.40733E-04 3.06771E-02-2.69941E-13 2.22075E-14
 -1      2482 2.02489E+01-3.15349E-02 6.41197E-04 1.05319E-01-8.04787E-14-2.73956E-13
 -1      2483 2.02677E+01-4.85851E-02-1.96277E-03 8.94684E-02-1.40078E-14-1.07205E-13
 -1      2484 2.02744E+01-7.85280E-02-3.45931E-04 9.80229E-02-1.66638E-14 2.15077E-14
 -1      2485 2.01983E+01-7.08290E-03 5.20530E-04 1.19920E-01 2.38541E-13-4.83319E-13
 -1      2486 2.02209E+01-1.86962E-02-1.04235E-03 1.14719E-01 4.10778E-14-4.00124E-13
 -1      2487 2.02185E+01-3.48860E-02-4.26922E-04 1.31282E-01 1.22089E-13-1.17797E-13
 -1      2488 2.01511E+01 8.77200E-03 4.34470E-04 1.18027E-01-1.03487E-14-3.59464E-13
 -1      2489 2.01742E+01 1.41047E-03-3.83275E-04 1.19938E-01 1.41748E-13-4.53842E-13
 -1      2490 2.01686E+01-4.73952E-03-4.37740E-04 1.40344E-01 1.66856E-13-2.61266E-13
 -1      2491 2.01094E+01 1.85676E-02 3.85686E-04 1.05777E-01-2.22976E-13-2.05373E-13
 -1      2492 2.01309E+01 1.40824E-02 3.69774E-05 1.12152E-01-1.57546E-13-2.89192E-13
 -1      2493 2.01256E+01 1.46611E-02-4.17475E-04 1.33572E-01-2.17020E-13-8.43248E-14
 -1      2494 2.00740E+01 2.46981E-02 3.79155E-04 8.73828E-02-2.04241E-13-1.53661E-13
 -1      2495 2.00927E+01 2.18812E-02 2.75691E-04 9.64332E-02-1.21268E-13-1.43091E-13
 -1      2496 2.00895E+01 2.65963E-02-3.87396E-04 1.17128E-01-2.11320E-13-1.89876E-13
 -1      2497 2.00451E+01 2.87468E-02 5.20473E-04 6.56370E-02-2.15698E-14-3.51160E-13
 -1      2498 2.00604E+01 2.68751E-02 4.31019E-04 7.59232E-02-1.09751E-13-1.84232E-13
 -1      2499 2.00596E+01 3.41087E-02-3.22277E-04 9.50113E-02-6.18052E-14-5.93637E-14
 -1      2500 2.00284E+01 3.61545E-02 2.76215E-04 5.41652E-02-7.80921E-14-2.33117E-13
 -1      2501 1.99881E+01 1.38454E-01-5.50198E-04 8.20433E-02-9.62098E-14 1.68689E-13
 -1      2502 1.99952E+01 1.23409E-01 3.24927E-04 8.49929E-02-9.83441E-14-1.44256E-13
 -1      2503 2.00018E+01 1.06830E-01-2.95700E-04 8.55865E-02-1.87012E-13-2.87130E-13
 -1      2504 2.00084E+01 9.16608E-02 4.56057E-04 8.35880E-02-2.22270E-13-2.79701E-13
 -1      2505 1.99978E+01 1.12935E-01-4.29842E-05 9.96141E-02-1.73920E-13-8.86946E-14
 -1      2506 2.00142E+01 7.59426E-02-1.13143E-04 7.92394E-02-2.49487E-13-2.80741E-13
 -1      2507 2.00202E+01 6.12870E-02 5.42666E-04 7.32602E-02-7.15590E-14-1.15259E-13
 -1      2508 2.00140E+01 8.16460E-02-2.18234E-04 9.50922E-02-1.83318E-13-2.85492E-13
 -1      2509 4.90993E+00-2.96147E+00 8.12843E-02 5.27881E+00-1.75943E-13 2.41751E-13
 -1      2510 3.03107E+00-2.93294E+00 8.90623E-02 2.92501E+00-3.68455E-14 1.22236E-13
 -1      2511 1.99748E+01 1.68056E-01-7.43115E-04 6.79653E-02-2.21233E-13-1.86640E-13
 -1      2512 1.99816E+01 1.54993E-01 1.96225E-04 7.58598E-02-8.37229E-14 1.18453E-13
 -1      2513 1.99801E+01 1.45009E-01 1.19582E-04 9.25355E-02-1.77389E-13 2.22137E-13
 -1      2514 1.99632E+01 1.92084E-01-8.62418E-04 4.37398E-02-4.32564E-13-2.60476E-13
 -1      2515 1.99689E+01 1.82706E-01 1.21577E-05 5.61203E-02-3.54358E-13-1.76691E-13
 -1      2516 1.99629E+01 1.75224E-01 3.18075E-04 7.35500E-02-2.73252E-13-2.73397E-13
 -1      2517 1.99557E+01 2.07024E-01-8.58305E-04 1.13612E-02-3.18839E-13 1.60936E-13
 -1      2518 1.99590E+01 2.02817E-01-2.20047E-04 2.70076E-02-3.97222E-13-1.91644E-13
 -1      2519 1.99489E+01 1.99868E-01 5.55297E-04 4.31921E-02-2.42432E-13-1.79312E-13
 -1      2520 1.99544E+01 2.09856E-01-6.99318E-04-2.53199E-02 3.07305E-14 3.63825E-13
 -1      2521 1.99542E+01 2.11813E-01-4.77076E-04-8.46906E-03-2.02451E-13 5.69314E-13
 -1      2522 1.99410E+01 2.15041E-01 7.77524E-04 4.10368E-03 4.33010E-14 4.44859E-13
 -1      2523 1.99611E+01 1.99139E-01-3.72232E-04-6.01485E-02 1.43254E-13 1.35456E-13
 -1      2524 1.99566E+01 2.07201E-01-7.31390E-04-4.50998E-02 1.87704E-13-9.18755E-14
 -1      2525 1.99419E+01 2.17303E-01 9.23721E-04-3.85105E-02 1.59064E-13 3.02753E-13
 -1      2526 1.99763E+01 1.74644E-01 6.77246E-05-8.77376E-02 2.89433E-13 6.69826E-13
 -1      2527 1.99675E+01 1.88319E-01-9.12578E-04-7.70052E-02 1.36444E-13 3.62338E-13
 -1      2528 1.99534E+01 2.04677E-01 9.42909E-04-7.82650E-02 3.22209E-13 2.19629E-13
 -1      2529 1.99981E+01 1.38952E-01 4.85783E-04-1.01275E-01 2.69129E-13 3.93022E-13
 -1      2530 1.99862E+01 1.56452E-01-9.74891E-04-9.76969E-02 2.01340E-13 7.22253E-13
 -1      2531 1.99755E+01 1.77032E-01 7.66845E-04-1.07813E-01 1.87354E-13 6.02465E-13
 -1      2532 2.00224E+01 9.64102E-02 6.92320E-04-9.68692E-02 1.30897E-13-6.41769E-14
 -1      2533 2.00101E+01 1.15747E-01-7.79430E-04-1.01770E-01 1.02791E-13 6.70718E-14
 -1      2534 2.00049E+01 1.37510E-01 4.70118E-04-1.19929E-01-3.82261E-14 2.38110E-13
 -1      2535 2.80034E+01-3.29737E+00-6.13875E-02 4.34341E+00-1.02238E-13-4.98185E-13
 -1      2536 2.47553E+01-4.45406E+00 2.30961E-02 5.56362E+00-1.95788E-13-5.37070E-13
 -1      2537 1.12413E+01-3.85100E+00 9.93159E-02 7.84420E+00-3.18023E-13-6.28053E-13
 -1      2538 8.24434E+00-3.51244E+00 1.42556E-01 6.70230E+00-2.38642E-13-1.71585E-13
 -1      2539 3.79172E+01 6.06824E-01 2.56846E-01 2.82804E+00-1.30951E-13 1.07969E-13
 -1      2540 2.70630E+01-4.41221E+00 3.61971E-02-2.72611E+00 2.08722E-13-5.62987E-14
 -1      2541 2.54179E+01-3.03596E+00 1.39466E-01-3.72701E+00 1.77747E-13 3.98284E-14
 -1      2542 2.54826E+00-2.73042E+00 5.62561E-02 7.76195E-01 4.59702E-15 1.26010E-14
 -1      2543 3.80749E+00-2.44504E+00 1.13617E-01-1.75736E+00 1.47354E-13 1.23179E-13
 -1      2544 1.95242E+01 3.58815E+00-1.01249E-02-2.44972E-01 3.35072E-14-3.16774E-13
 -1      2545 1.95402E+01 3.56729E+00-9.68644E-03-4.25507E-01-6.30206E-15-3.20319E-13
 -1      2546 1.97164E+01 3.16732E+00-5.89143E-04-4.72462E-01-8.48952E-15-2.92876E-13
 -1      2547 1.96822E+01 3.22778E+00-8.94472E-04-1.51712E-01 4.18258E-14-2.90772E-13
 -1      2548 3.38552E+01 7.67667E+00-1.03547E-01 5.65078E-01 3.12306E-13-2.51549E-13
 -1      2549 3.41850E+01 8.33220E+00-1.65900E-01 2.35596E-01 2.61680E-13-1.52777E-13
 -1      2550 3.38566E+01 4.88612E+00-1.42188E-01-3.34185E-01 1.21764E-13-4.16334E-13
 -1      2551 3.31785E+01 3.00190E+00-9.64020E-02 2.86614E-01 1.25233E-13-3.02258E-13
 -1      2552 3.14921E+01 1.42349E+00-2.58226E-02-4.11916E-01 1.54515E-13-2.79304E-13
 -1      2553 3.31378E+01 3.66604E+00-9.16202E-02 1.98332E-01 1.00780E-13-9.19820E-14
 -1      2554 3.34513E+01 5.49085E+00-1.88535E-01 6.88682E-01 1.55598E-13-1.17517E-13
 -1      2555 3.08454E+01-6.21337E-01-8.18288E-02-1.86526E+00-1.30609E-13-1.34392E-13
 -1      2556 3.24515E+01 1.29036E+00-1.38632E-01-8.11448E-01 2.32037E-14 1.12965E-14
 -1      2557 2.66345E+01-3.74217E+00 5.99959E-03-4.60532E+00-2.88505E-13-2.23238E-13
 -1      2558 2.94937E+01-2.31765E+00-6.90790E-02-3.50796E+00-2.15258E-13-2.65427E-13
 -1      2559 2.98810E+01-1.98193E+00 1.39664E-02-1.47445E+00-2.96568E-13 3.64708E-14
 -1      2560 1.85456E+01-5.20579E+00 8.25541E-02-7.46261E+00-2.44194E-13-2.03053E-13
 -1      2561 2.28139E+01-4.87825E+00-5.84371E-02-6.81345E+00-2.60458E-13-1.98078E-13
 -1      2562 1.00857E+01-4.45369E+00 9.62141E-02-7.45515E+00-2.27485E-13-2.83301E-13
 -1      2563 1.37011E+01-4.83191E+00-2.65397E-02-8.21532E+00-1.96287E-13-2.70214E-13
 -1      2564 3.93990E+00-3.48958E+00 6.19108E-02-4.50891E+00-2.34729E-13-4.96603E-13
 -1      2565 6.28345E+00-3.68533E+00 2.84990E-02-6.41498E+00-2.24792E-13-3.97515E-13
 -1      2566 2.52235E+00-2.68157E+00 7.87903E-02-4.17552E-01-1.03556E-13-4.53138E-13
 -1      2567 2.58376E+00-3.06136E+00 5.66360E-02-2.73539E+00-1.60580E-13-6.04239E-13
 -1      2568 4.86505E+00-1.89391E+00 1.30956E-01-3.71288E+00-1.66811E-13-4.98657E-13
 -1      2569 6.12989E+00-4.12575E+00-1.71166E-03 4.41145E+00-7.64389E-14-3.32956E-13
 -1      2570 3.90950E+00-3.12584E+00 7.15693E-02 2.39137E+00-5.32491E-14-3.51719E-13
 -1      2571 1.40814E+01-5.38387E+00-4.16958E-02 6.35533E+00 1.22125E-15-2.32703E-13
 -1      2572 9.73203E+00-4.80618E+00 3.39567E-02 5.39107E+00 1.73750E-14-2.84578E-13
 -1      2573 2.44414E+01-6.44972E+00-1.15678E-01 4.73576E+00 5.41234E-14-3.69704E-13
 -1      2574 1.95087E+01-6.13425E+00 1.09210E-02 5.50225E+00 7.83817E-14-4.31289E-13
 -1      2575 2.52339E+01-6.17507E+00-2.88438E-02-3.88461E+00 1.68143E-13 3.03396E-13
 -1      2576 2.94479E+01-5.82516E+00-5.69763E-02-2.66294E+00-2.90878E-14 1.24900E-13
 -1      2577 6.37923E+00-3.48581E+00 8.22938E-02-4.22390E+00 3.01204E-13 1.66256E-13
 -1      2578 9.42305E+00-4.44113E+00 3.68135E-02-5.66758E+00 4.03511E-13 7.41074E-14
 -1      2579 2.00293E+01 4.58236E-02-2.20071E-04 7.06415E-02-4.45366E-14-9.03639E-14
 -1      2580 3.59501E+01-2.93398E+00-1.07824E-01 1.85680E+00 6.62109E-14-2.99760E-14
 -1      2581 3.29101E+01-4.13489E+00-1.54294E-02 2.04415E-01-4.17721E-14-6.78901E-14
 -1      2582 3.19910E+01-4.75318E+00-2.13618E-02 1.81772E-01-2.96291E-14-1.69614E-13
 -1      2583 1.99154E+01 2.81508E+00 1.15233E-03-1.09766E+00-1.52671E-13-3.04967E-13
 -1      2584 1.97850E+01 3.16261E+00-1.47399E-02-1.28586E+00-1.72328E-13-3.30617E-13
 -1      2585 1.98808E+01 3.02670E+00-1.69770E-02-1.47535E+00-2.20032E-13-3.23876E-13
 -1      2586 2.18808E+01-2.79983E+00-8.44870E-03-4.83324E+00 3.01009E-13 3.63813E-13
 -1      2587 2.03275E+01 5.90370E-01 9.13600E-03 8.70586E-01 2.32744E-13 3.28526E-13
 -1      2588 2.03897E+01 8.36320E-01 6.81489E-03 1.04659E+00 2.63307E-13 2.49262E-13
 -1      2589 2.01580E+01 4.89200E-01 7.92814E-03 6.61614E-01 2.11308E-13 2.77300E-13
 -1      2590 3.18141E+01 6.26057E+00-6.96096E-02 1.21640E+00 1.49047E-13-1.54904E-13
 -1      2591 1.47005E+01-4.19181E+00 8.46070E-02 7.61513E+00-3.66152E-13-5.40026E-13
 -1      2592 1.99862E+01 2.84609E+00-1.51632E-02-1.58850E+00-2.29597E-13-3.03209E-13
 -1      2593 2.01309E+01 2.62059E+00-2.19028E-02-1.75530E+00-2.48549E-13-2.59622E-13
 -1      2594 2.02773E+01 2.06952E+00 1.01881E-03-1.49548E+00-2.57560E-13-2.28596E-13
 -1      2595 2.00829E+01 2.49993E+00 2.43677E-03-1.34324E+00-2.28756E-13-2.92621E-13
 -1      2596 2.91277E+01-2.68733E+00-2.56408E-02 2.32650E+00-1.83048E-14-2.11164E-13
 -1      2597 2.98219E+01-4.93180E+00 1.06640E-01-1.31547E+00 1.14464E-13-3.25059E-13
 -1      2598 2.08464E+01-4.34757E+00-2.29945E-02 5.32875E+00 2.16910E-13-2.10096E-13
 -1      2599 3.63638E+01-2.08280E+00 2.33557E-01-1.91293E+00-4.84415E-13 2.80886E-14
 -1      2600 2.04357E+01-2.66988E-01-2.94009E-03-4.52883E+00 2.29670E-13 3.32373E-14
 -1      2601 4.87980E+00-1.08178E+00 1.69486E-01 1.83590E+00-1.32991E-13 1.15075E-13
 -1      2602 8.16065E+00-1.96150E+00 1.55303E-01 5.86369E+00-1.48381E-13-8.27116E-15
 -1      2603 2.49602E+01-4.87525E+00-2.54804E-02 4.89249E+00-7.69662E-14-3.29139E-13
 -1      2604 2.30505E+01-5.10733E+00 6.44884E-03 6.31795E+00-1.39500E-13-5.39790E-13
 -1      2605 2.11604E+01-4.94542E+00 1.27922E-01 6.78644E+00-2.77195E-13-4.03351E-13
 -1      2606 2.56889E+01-5.39918E+00-8.10320E-02-3.59216E+00 2.35006E-13 1.84325E-13
 -1      2607 2.00004E+01 3.66037E-01 8.29957E-03 3.91515E-01 1.61622E-13 2.11512E-13
 -1      2608 2.00941E+01 4.33698E-01 1.17132E-02 5.34359E-01 1.82870E-13 2.42742E-13
 -1      2609 2.01829E+01 5.66321E-01-3.12477E-03 6.51605E-01 2.01697E-13 1.69751E-13
 -1      2610 2.00839E+01 4.38849E-01-5.40883E-03 4.05403E-01 1.80824E-13 1.23214E-13
 -1      2611 2.00348E+01 5.17262E-02 4.69876E-05 8.69753E-02-1.05730E-14-1.85651E-13
 -1      2612 1.37970E+01-4.32753E+00 1.02763E-01-5.82151E+00 2.87659E-13 2.74503E-13
 -1      2613 2.27805E+01-5.80527E+00 6.72028E-03-4.99390E+00 3.00926E-13 3.68249E-13
 -1      2614 1.83836E+01-5.17293E+00 5.84766E-02 5.76751E+00 1.28009E-13-2.72685E-13
 -1      2615 4.27826E+00-1.96484E+00 1.57995E-01 1.12808E+00-7.39686E-14-2.49356E-13
 -1      2616 5.07362E+00-6.45661E-01 1.69530E-01-8.31830E-02-8.80962E-14-3.31568E-13
 -1      2617 6.27474E+00-1.07704E+00 1.10649E-01 2.60685E+00 4.01346E-14-2.32425E-13
 -1      2618 9.61611E+00-3.24332E+00 1.36639E-01-6.97581E+00-2.94986E-13-3.20105E-13
 -1      2619 2.54109E+01-4.69629E+00 2.50896E-02-4.98430E+00-4.04038E-13-5.71765E-14
 -1      2620 3.32196E+01 8.31060E+00-7.54334E-02-9.93382E-02 1.28453E-13-3.68190E-13
 -1      2621 3.11665E+01 7.84288E+00-2.09481E-01-4.74143E-01 1.78746E-14-3.75033E-13
 -1      2622 3.06219E+01 8.00305E+00-1.20472E-01 2.07662E-01 1.64924E-13-2.70887E-13
 -1      2623 6.28420E+00-2.01088E+00 1.63819E-01-3.04752E+00 1.52586E-13 9.90874E-14
 -1      2624 8.84552E+00-1.42122E+00 8.46758E-02-4.22004E+00 1.33615E-13 8.87068E-14
 -1      2625 6.47635E+00-3.09121E-01 1.40667E-01-1.81166E+00-1.36557E-14 3.14748E-14
 -1      2626 3.30814E+01 5.77777E+00-8.57715E-02-8.38825E-01 1.29924E-13-4.72344E-13
 -1      2627 3.09294E+01 4.35218E+00-6.09185E-02-1.49339E+00 6.64191E-14-4.35776E-13
 -1      2628 3.12104E+01 6.40506E+00-2.25456E-01-1.35958E+00 3.83027E-14-3.22325E-13
 -1      2629 3.13815E+01 1.88753E+00-2.36306E-02 7.52189E-01-2.53547E-14 1.18239E-14
 -1      2630 1.76412E+01-4.77112E+00 1.25864E-01-7.60170E+00-3.14415E-13-1.66228E-13
 -1      2631 9.90920E+00-3.14720E+00 1.32324E-01 5.09449E+00 8.72080E-14-2.70034E-13
 -1      2632 2.00349E+01 6.90986E-02-1.39191E-04-8.47251E-02 1.33339E-13-4.31279E-13
 -1      2633 2.00367E+01 8.73732E-02-4.69273E-05-1.08708E-01 1.10689E-13-3.23995E-13
 -1      2634 1.98490E+01 2.77004E+00-6.30649E-03 5.14875E-01 1.56567E-13-2.34964E-13
 -1      2635 1.98244E+01 2.81999E+00-5.73373E-03 3.64360E-01 1.21755E-13-2.52581E-13
 -1      2636 1.98076E+01 2.85770E+00-5.63392E-03 2.29312E-01 1.09108E-13-2.79695E-13
 -1      2637 1.97993E+01 2.87463E+00-5.45023E-03 7.50728E-02 8.53444E-14-2.66145E-13
 -1      2638 1.99537E+01 2.50762E+00 3.67209E-03 2.64314E-01 1.15538E-13-2.51800E-13
 -1      2639 2.00459E+01 2.32682E+00-1.09436E-02 1.04363E+00 2.41365E-13-1.40581E-13
 -1      2640 1.99821E+01 2.47690E+00-6.38882E-03 9.08336E-01 2.17315E-13-1.90378E-13
 -1      2641 2.02070E+01 1.91613E+00-1.64950E-02 1.23222E+00 2.74900E-13-5.29513E-14
 -1      2642 2.01264E+01 2.14910E+00-4.79636E-03 1.12995E+00 2.47462E-13-8.71308E-14
 -1      2643 2.01920E+01 1.89478E+00 7.80649E-03 9.25154E-01 2.41442E-13-9.67302E-14
 -1      2644 2.04410E+01 1.01369E+00 2.22440E-03 1.15307E+00 2.71489E-13 1.81859E-13
 -1      2645 2.03987E+01 1.27560E+00-7.16875E-03 1.26540E+00 2.86895E-13 1.06867E-13
 -1      2646 2.03117E+01 8.47338E-01 6.15701E-03 8.97480E-01 2.40473E-13 1.53962E-13
 -1      2647 2.02242E+01 6.47496E-01 8.59591E-03-4.50127E-01-1.86868E-13-1.56481E-13
 -1      2648 2.01395E+01 4.92419E-01-3.40187E-03-2.87131E-01-1.75386E-13-1.66371E-13
 -1      2649 2.01142E+01 3.77751E-01 6.66050E-03-1.63466E-01-1.56001E-13-1.46765E-13
 -1      2650 2.00552E+01 2.82078E-01-1.71478E-03-6.16754E-02-1.35950E-13-1.29766E-13
 -1      2651 2.02023E+01 5.48490E-01-1.72283E-03-2.68488E-01-1.58319E-13-1.54778E-13
 -1      2652 2.00297E+01 2.11516E-01 4.57800E-03 1.76385E-02-1.08330E-13-1.22874E-13
 -1      2653 1.99949E+01 1.52317E-01-7.04184E-04 7.83126E-02-7.38850E-14-1.03044E-13
 -1      2654 2.01345E+01 3.16310E-01-2.14796E-03-5.37356E-02-1.22277E-13-1.17469E-13
 -1      2655 1.99746E+01 1.09021E-01 2.91269E-03 1.26070E-01-5.28135E-14-6.00474E-14
 -1      2656 1.99586E+01 7.32474E-02-9.39466E-05 1.60123E-01-4.56410E-14-4.76754E-14
 -1      2657 2.00794E+01 1.70991E-01-1.97802E-03 8.23409E-02-5.56773E-14-6.35412E-14
 -1      2658 1.99446E+01 4.77051E-02 1.69830E-03 1.86864E-01-5.56794E-14-4.88186E-14
 -1      2659 1.99421E+01 2.76475E-02 2.90491E-04 2.04458E-01-5.83040E-14-4.69197E-14
 -1      2660 2.00404E+01 8.22461E-02-1.61291E-03 1.63440E-01-5.96203E-14-6.15362E-14
 -1      2661 1.99336E+01 1.42730E-02 8.33040E-04 2.18215E-01-8.20307E-14-3.36604E-14
 -1      2662 1.99405E+01 5.28432E-03 5.56315E-04 2.26569E-01-9.06564E-14-5.74066E-14
 -1      2663 2.00159E+01 3.16885E-02-1.23996E-03 2.08640E-01-7.75238E-14-7.43448E-14
 -1      2664 1.99362E+01 7.17577E-04 2.16274E-04 2.33408E-01-9.50018E-14-6.99121E-14
 -1      2665 1.99495E+01 4.03754E-06 7.72475E-04 2.37811E-01-8.56668E-14-7.40654E-14
 -1      2666 2.00030E+01 8.12043E-03-9.14918E-04 2.32554E-01-1.05913E-13-6.75403E-14
 -1      2667 1.99482E+01 2.29512E-03-2.39751E-04 2.42363E-01-7.63838E-14-3.47385E-14
 -1      2668 1.99661E+01 8.33437E-03 9.84473E-04 2.46896E-01-7.42787E-14-5.15664E-14
 -1      2669 1.99986E+01 4.73343E-03-6.42311E-04 2.46302E-01-7.68397E-14-2.17924E-14
 -1      2670 1.99663E+01 1.65589E-02-6.11056E-04 2.52842E-01-7.71854E-14 8.53765E-15
 -1      2671 1.99877E+01 2.88324E-02 1.22395E-03 2.60914E-01-9.44895E-14 1.59123E-14
 -1      2672 1.99997E+01 1.77596E-02-3.99674E-04 2.58510E-01-2.82020E-14-1.61640E-14
 -1      2673 1.99878E+01 4.29435E-02-9.69028E-04 2.71381E-01-8.40995E-14 5.27013E-14
 -1      2674 2.00123E+01 6.18585E-02 1.51460E-03 2.86168E-01-1.40841E-14 5.73839E-14
 -1      2675 2.00033E+01 4.58170E-02-1.47029E-04 2.76183E-01-4.04465E-14 4.20196E-14
 -1      2676 2.00101E+01 8.26819E-02-1.38798E-03 3.04072E-01-9.40583E-15 8.79619E-15
 -1      2677 2.00371E+01 1.09616E-01 1.87295E-03 3.28903E-01-4.77588E-14-9.05532E-15
 -1      2678 2.00060E+01 8.96916E-02 1.74636E-04 3.05430E-01-2.96060E-14 1.49530E-14
 -1      2679 2.00297E+01 1.38942E-01-1.95341E-03 3.57233E-01-5.11927E-14 1.86100E-14
 -1      2680 2.00584E+01 1.76366E-01 2.30450E-03 3.95950E-01 3.23464E-15 3.49399E-14
 -1      2681 2.00030E+01 1.52396E-01 6.52333E-04 3.52046E-01-1.50010E-14-1.09102E-14
 -1      2682 2.00406E+01 2.17091E-01-2.77097E-03 4.37993E-01 2.74046E-14 1.13496E-14
 -1      2683 2.00694E+01 2.68709E-01 2.79407E-03 4.95271E-01 6.01649E-14-4.73505E-14
 -1      2684 1.99869E+01 2.39386E-01 1.41627E-03 4.21947E-01-1.04498E-14 8.28456E-14
 -1      2685 2.00334E+01 3.24937E-01-3.97556E-03 5.54760E-01 8.62764E-14-7.18440E-14
 -1      2686 2.00584E+01 3.95687E-01 3.28968E-03 6.36329E-01 7.66139E-14-6.59217E-14
 -1      2687 1.99461E+01 3.58777E-01 2.66005E-03 5.21401E-01 3.54844E-14 8.23821E-14
 -1      2688 1.99917E+01 4.72565E-01-5.73977E-03 7.17448E-01-1.97555E-14-4.52553E-14
 -1      2689 2.00058E+01 5.68139E-01 3.68372E-03 8.30074E-01-6.03998E-15-6.98572E-14
 -1      2690 1.98617E+01 5.21185E-01 4.66173E-03 6.56946E-01 3.30518E-14 1.57374E-14
 -1      2691 1.98893E+01 6.70887E-01-8.27909E-03 9.37319E-01-1.02598E-14-9.47898E-14
 -1      2692 1.98802E+01 7.95998E-01 3.81922E-03 1.08833E+00-2.48419E-14-1.31832E-13
 -1      2693 1.97045E+01 7.38430E-01 7.79590E-03 8.34903E-01-4.70593E-14-2.25640E-14
 -1      2694 1.96861E+01 9.27000E-01-1.18347E-02 1.22636E+00-4.34298E-14-1.27356E-13
 -1      2695 1.96350E+01 1.08081E+00 3.60373E-03 1.42246E+00-5.05633E-14-9.50398E-14
 -1      2696 1.94300E+01 1.01947E+00 1.25256E-02 1.06062E+00-3.66294E-14-1.69485E-13
 -1      2697 1.93245E+01 1.23248E+00-1.65827E-02 1.59661E+00-2.26777E-15-3.77282E-14
 -1      2698 1.92080E+01 1.39835E+00 3.47069E-03 1.84223E+00 4.15857E-14-5.53656E-14
 -1      2699 1.89740E+01 1.36045E+00 1.93820E-02 1.33834E+00 4.11382E-14-1.55096E-13
 -1      2700 1.87324E+01 1.53832E+00-2.21158E-02 2.06078E+00 3.89821E-14-2.16910E-14
 -1      2701 1.85327E+01 1.66464E+00 6.26463E-03 2.35774E+00 7.42366E-14-6.27927E-14
 -1      2702 1.82509E+01 1.72363E+00 2.92091E-02 1.67424E+00 4.49625E-14 4.14595E-14
 -1      2703 1.78347E+01 1.71057E+00-2.52560E-02 2.64210E+00 9.24499E-14-9.63439E-14
 -1      2704 1.75870E+01 1.68099E+00 2.76703E-02 2.99342E+00 9.61483E-14-1.09066E-13
 -1      2705 1.71566E+01 2.00288E+00 4.52196E-02 2.08713E+00 6.04091E-14-8.69270E-15
 -1      2706 1.66011E+01 1.46466E+00-5.49185E-03 3.44060E+00 1.35386E-13-1.97901E-13
 -1      2707 1.64338E+01 9.64144E-01 7.74586E-02 3.87800E+00 1.45488E-13-1.97370E-13
 -1      2708 1.55302E+01 1.98599E+00 7.40145E-02 2.65977E+00 1.10043E-13-1.29253E-13
 -1      2709 1.59683E+01 9.85125E-02 8.97364E-02 4.59228E+00 1.70364E-13-1.04305E-13
 -1      2710 1.62045E+01-1.24851E+00 1.46167E-01 5.06430E+00 2.23058E-13-2.02824E-13
 -1      2711 1.84204E+01 1.20088E+00 4.59516E-02-3.66875E+00 6.81451E-14 1.39701E-13
 -1      2712 1.84342E+01 1.44983E+00-8.67368E-03-3.29134E+00 2.78319E-14 1.74893E-13
 -1      2713 2.00494E+01 9.49163E-02 6.46925E-04-1.28900E-01-6.87201E-14-2.05524E-13
 -1      2714 2.00308E+01 6.35113E-02 2.63676E-05 1.04965E-01-9.98568E-14-1.51977E-13
 -1      2715 2.00438E+01 4.96044E-02 2.75809E-04 1.01073E-01-8.00277E-14-4.70233E-14
 -1      2716 2.00574E+01 4.58377E-02 3.02588E-04 1.13481E-01-2.94279E-13-1.31726E-13
 -1      2717 1.90582E+01 1.52329E+00 1.88980E-02-2.88537E+00-6.29843E-14 9.76979E-14
 -1      2718 1.91298E+01 1.47697E+00-1.79282E-02-2.53984E+00-1.46308E-13 6.90368E-14
 -1      2719 1.74341E+01 1.82466E+00 4.46763E-02-2.81217E+00-2.86086E-14-2.08080E-15
 -1      2720 1.95811E+01 1.38184E+00 9.39883E-03-2.23676E+00-2.13597E-13 8.88307E-14
 -1      2721 1.96221E+01 1.24397E+00-1.53479E-02-1.94048E+00-1.59188E-13 1.49961E-14
 -1      2722 1.84621E+01 1.71531E+00 2.93243E-02-2.18547E+00-1.46103E-13 2.53135E-14
 -1      2723 1.99201E+01 1.10600E+00 7.52754E-03-1.70278E+00-2.74386E-13-7.60639E-14
 -1      2724 1.99190E+01 9.59530E-01-1.13398E-02-1.46258E+00-1.63958E-13-1.71903E-13
 -1      2725 1.91520E+01 1.40692E+00 1.94195E-02-1.69738E+00-2.49527E-13 3.39355E-14
 -1      2726 2.01033E+01 8.31002E-01 6.77414E-03-1.27591E+00 1.75756E-14-4.04234E-13
 -1      2727 2.00747E+01 7.06132E-01-7.95104E-03-1.08932E+00-1.07644E-13-4.04634E-13
 -1      2728 1.95836E+01 1.07706E+00 1.27819E-02-1.30454E+00-2.65013E-13 7.03739E-14
 -1      2729 2.01816E+01 6.03113E-01 5.84824E-03-9.45141E-01-1.24378E-13-3.93926E-13
 -1      2730 2.01405E+01 5.06638E-01-5.42896E-03-8.04471E-01 6.97330E-14-3.49328E-13
 -1      2731 1.98358E+01 7.92464E-01 8.02017E-03-9.90868E-01-8.98243E-14-2.51884E-13
 -1      2732 2.01981E+01 4.29865E-01 4.79361E-03-6.94825E-01 1.69307E-13-3.54074E-13
 -1      2733 2.01547E+01 3.59161E-01-3.63835E-03-5.90751E-01 1.90086E-13-4.32643E-13
 -1      2734 1.99717E+01 5.70426E-01 4.76487E-03-7.45305E-01 7.41773E-14-3.79452E-13
 -1      2735 2.01825E+01 3.04261E-01 3.77771E-03-5.08312E-01 1.92879E-13-3.57896E-13
 -1      2736 2.01424E+01 2.54140E-01-2.38617E-03-4.32029E-01-2.51757E-15-3.48157E-13
 -1      2737 2.00370E+01 4.06437E-01 2.67299E-03-5.56355E-01 1.46803E-13-3.81044E-13
 -1      2738 2.01530E+01 2.16012E-01 2.89301E-03-3.70345E-01-2.20209E-13-3.33559E-13
 -1      2739 2.01184E+01 1.81392E-01-1.54646E-03-3.14407E-01-3.69311E-13-2.47542E-13
 -1      2740 2.00616E+01 2.89482E-01 1.40341E-03-4.12708E-01 2.37237E-14-2.92891E-13
 -1      2741 2.01198E+01 1.55633E-01 2.17207E-03-2.68122E-01-3.65502E-13-2.16873E-13
 -1      2742 2.00915E+01 1.32487E-01-9.02126E-04-2.26714E-01-2.45896E-13-2.28495E-13
 -1      2743 2.00641E+01 2.08166E-01 5.93922E-04-3.03785E-01-3.00530E-13-3.15551E-13
 -1      2744 2.00879E+01 1.16024E-01 1.68443E-03-1.91455E-01-3.83013E-13-2.34252E-13
 -1      2745 2.00647E+01 1.01438E-01-3.40976E-04-1.59931E-01-3.85684E-13-3.02419E-13
 -1      2746 2.00555E+01 1.53607E-01 1.12024E-04-2.21183E-01-3.61944E-13-1.48983E-13
 -1      2747 1.99884E+01 1.96234E-01-8.90010E-04-2.09877E-02 1.45939E-13 1.91575E-14
 -1      2748 2.00353E+01 2.67567E-01 5.90063E-03 5.65938E-02 1.54143E-13 1.41909E-14
 -1      2749 1.99400E+01 1.00240E-01-2.35943E-04-1.27182E-01 1.24682E-13-9.58434E-15
 -1      2750 1.99637E+01 1.44050E-01 3.79203E-03-8.26530E-02 1.35577E-13 1.23736E-14
 -1      2751 2.00764E+01 2.22231E-01-2.25778E-03-2.57534E-02 1.48633E-13-5.96489E-14
 -1      2752 2.00660E+01 3.52645E-01-1.78218E-03 1.56907E-01 1.47880E-13 2.89553E-14
 -1      2753 2.01422E+01 4.65681E-01 7.96199E-03 2.84792E-01 1.61577E-13 4.23508E-14
 -1      2754 2.01433E+01 3.97980E-01-2.26979E-03 1.46967E-01 1.62329E-13-2.25825E-14
 -1      2755 1.99099E+01 9.14389E-03 3.81306E-04-2.14887E-01 2.50645E-14 2.77001E-15
 -1      2756 1.99057E+01 2.36588E-02 1.25675E-03-2.04354E-01 7.68592E-14-1.34166E-14
 -1      2757 1.99170E+01-7.43217E-03 5.13328E-04-2.26068E-01 5.61144E-14-3.20330E-15
 -1      2758 1.99053E+01-6.53450E-04 5.60650E-04-2.22830E-01 4.90448E-14 2.09747E-14
 -1      2759 1.99821E+01 9.71123E-03-1.09268E-03-2.20339E-01 3.43563E-14-1.73541E-14
 -1      2760 1.99331E+01-1.32619E-02 5.86438E-04-2.28085E-01 4.12655E-14 7.68039E-15
 -1      2761 1.99167E+01-1.14455E-02 1.14718E-04-2.28384E-01 3.16149E-14-4.36216E-14
 -1      2762 1.99774E+01-8.57774E-03-8.08968E-04-2.33208E-01 4.58453E-14 1.92907E-15
 -1      2763 1.99559E+01-1.27308E-02 6.14077E-04-2.26556E-01 5.48456E-14 3.60046E-14
 -1      2764 1.99363E+01-1.37193E-02-1.44299E-04-2.28012E-01 5.42694E-14 6.11215E-15
 -1      2765 1.99811E+01-1.45918E-02-6.13762E-04-2.37235E-01 2.56998E-14-4.04787E-14
 -1      2766 1.99840E+01-9.56310E-03 5.93414E-04-2.24749E-01 1.46603E-14 8.22248E-14
 -1      2767 1.99622E+01-1.14707E-02-2.56995E-04-2.26109E-01 3.24027E-14 3.18710E-14
 -1      2768 1.99916E+01-1.36148E-02-4.99743E-04-2.37994E-01 2.93318E-14-3.16625E-14
 -1      2769 2.00171E+01-7.33408E-03 5.08535E-04-2.23855E-01 8.93763E-14 2.50231E-14
 -1      2770 1.99934E+01-8.30077E-03-2.45344E-04-2.24880E-01 5.78760E-14 8.18402E-14
 -1      2771 2.00083E+01-1.02475E-02-4.60901E-04-2.38701E-01 5.88719E-14-1.87172E-14
 -1      2772 2.00555E+01-9.83073E-03 3.32573E-04-2.23018E-01 7.02078E-14-3.75810E-14
 -1      2773 2.00302E+01-7.85091E-03-1.16059E-04-2.24493E-01 1.17466E-13 9.99219E-16
 -1      2774 2.00315E+01-8.99432E-03-4.95021E-04-2.40426E-01 1.34958E-13-4.58424E-14
 -1      2775 2.01005E+01-2.12450E-02 2.93358E-05-2.19216E-01 3.48020E-15-6.12124E-14
 -1      2776 2.00735E+01-1.40901E-02 1.35317E-04-2.23015E-01 3.11134E-14-6.26049E-14
 -1      2777 2.00626E+01-1.46663E-02-6.03214E-04-2.42101E-01 6.48836E-14-3.54812E-14
 -1      2778 2.01536E+01-4.60991E-02-4.42752E-04-2.07043E-01 4.93251E-15-2.79752E-14
 -1      2779 2.01251E+01-3.13959E-02 5.17676E-04-2.16217E-01 3.25120E-15-3.71588E-14
 -1      2780 2.01039E+01-3.25523E-02-7.85895E-04-2.40340E-01-3.15371E-14-7.20852E-14
 -1      2781 2.02163E+01-8.87155E-02-1.12162E-03-1.78566E-01-1.08190E-14 5.51697E-14
 -1      2782 2.01869E+01-6.42876E-02 1.03242E-03-1.97345E-01 1.11601E-14 2.28750E-14
 -1      2783 2.01589E+01-6.82153E-02-1.03391E-03-2.29168E-01-5.05616E-15 1.77707E-14
 -1      2784 2.02898E+01-1.51978E-01-2.02329E-03-1.23497E-01-7.37050E-14 7.52044E-14
 -1      2785 2.02606E+01-1.16588E-01 1.65373E-03-1.57062E-01-2.94768E-14 7.67479E-14
 -1      2786 2.02314E+01-1.26663E-01-1.31362E-03-1.99793E-01-2.92349E-14 2.07863E-14
 -1      2787 2.03733E+01-2.35139E-01-3.10926E-03-3.00876E-02-1.44741E-13-8.12272E-14
 -1      2788 2.03467E+01-1.89750E-01 2.30001E-03-8.38980E-02-7.78458E-14 5.06441E-14
 -1      2789 2.03254E+01-2.10576E-01-1.54535E-03-1.40695E-01-4.68329E-14 5.12196E-14
 -1      2790 2.04627E+01-3.30620E-01-4.23586E-03 1.12667E-01-1.59145E-13-3.67640E-14
 -1      2791 2.04427E+01-2.80162E-01 2.79989E-03 3.42743E-02-1.72127E-13-9.61077E-14
 -1      2792 2.04425E+01-3.17317E-01-1.58065E-03-3.85270E-02-1.65210E-13-4.51467E-14
 -1      2793 2.05480E+01-4.20365E-01-5.08146E-03 3.10861E-01-8.97287E-14 5.80034E-14
 -1      2794 2.05405E+01-3.75628E-01 2.86957E-03 2.07034E-01-1.36500E-13 2.24613E-14
 -1      2795 2.05796E+01-4.34794E-01-1.19401E-03 1.19459E-01-1.98745E-13-4.94793E-14
 -1      2796 2.06118E+01-4.73449E-01-5.09974E-03 5.59075E-01-3.19432E-14 1.04156E-13
 -1      2797 2.06243E+01-4.52004E-01 2.15264E-03 4.35780E-01-5.15628E-14 1.14913E-13
 -1      2798 2.07250E+01-5.37089E-01-1.15193E-04 3.40487E-01-1.36285E-13-3.53145E-14
 -1      2799 2.06294E+01-4.48413E-01-3.63213E-03 8.31972E-01 6.41934E-14 9.57100E-14
 -1      2800 2.06693E+01-4.72574E-01 3.28419E-04 7.05571E-01 5.52281E-14 6.12292E-14
 -1      2801 2.08551E+01-5.82474E-01 1.81165E-03 6.18044E-01 4.93652E-14-2.12962E-15
 -1      2802 2.05747E+01-3.04814E-01-2.82690E-04 1.07725E+00 4.06687E-14 8.23687E-14
 -1      2803 2.06459E+01-3.94249E-01-2.64346E-03 9.76340E-01 3.32657E-14 6.07491E-14
 -1      2804 2.09340E+01-5.18630E-01 4.25586E-03 9.21061E-01 7.28417E-14 1.73579E-14
 -1      2805 2.04333E+01-2.60245E-02 4.52293E-03 1.21719E+00 4.18647E-14 1.80444E-13
 -1      2806 2.05312E+01-1.84688E-01-6.06745E-03 1.17922E+00 2.60217E-14 9.67219E-14
 -1      2807 2.09226E+01-3.00782E-01 6.05905E-03 1.18498E+00-7.78164E-15-5.84268E-14
 -1      2808 2.02200E+01 3.53668E-01 9.13427E-03 1.16763E+00 5.08924E-16 2.87534E-13
 -1      2809 2.03283E+01 1.51124E-01-8.38490E-03 1.22722E+00 9.87744E-14 3.16582E-13
 -1      2810 2.07994E+01 7.78714E-02 5.63403E-03 1.31518E+00-1.28025E-14 8.81232E-14
 -1      2811 1.99896E+01 7.36757E-01 1.08691E-02 8.76577E-01-3.81687E-14 1.51481E-13
 -1      2812 2.00823E+01 5.48144E-01-7.54243E-03 1.04704E+00-3.29246E-14 2.53059E-13
 -1      2813 2.05855E+01 5.55521E-01 2.08725E-03 1.21431E+00 2.18499E-14 1.06093E-13
 -1      2814 1.98273E+01 9.89570E-01 8.31368E-03 3.70304E-01-4.90053E-14 3.28161E-13
 -1      2815 1.98767E+01 8.83897E-01-2.69296E-03 6.26201E-01-5.75840E-14 2.14490E-13
 -1      2816 2.03584E+01 9.95248E-01-3.47176E-03 8.34275E-01-8.76564E-14 2.18587E-13
 -1      2817 1.98027E+01 1.01187E+00 2.05107E-03-2.36508E-01-4.55984E-14 2.98154E-13
 -1      2818 1.97931E+01 1.03262E+00 4.23432E-03 4.48186E-02-2.31835E-14 3.66189E-13
 -1      2819 2.02242E+01 1.24092E+00-6.97460E-03 2.31973E-01-1.09406E-13 3.22387E-13
 -1      2820 1.99320E+01 7.92718E-01-4.46293E-03-7.81396E-01 1.03262E-13 1.97208E-13
 -1      2821 1.98662E+01 9.31450E-01 9.69476E-03-5.47277E-01 5.36578E-14 2.44042E-13
 -1      2822 2.02511E+01 1.19296E+00-6.08745E-03-4.37508E-01 1.87378E-14 1.78938E-13
 -1      2823 2.01605E+01 4.22850E-01-8.03989E-03-1.13008E+00 2.12432E-13 4.79522E-14
 -1      2824 2.00598E+01 6.23239E-01 1.09726E-02-9.93971E-01 1.68300E-13 1.31097E-13
 -1      2825 2.04256E+01 8.70057E-01-1.55227E-03-9.82702E-01 1.54776E-13 2.06374E-14
 -1      2826 2.04006E+01 3.50983E-02-7.78079E-03-1.23355E+00 1.23852E-13 7.41955E-14
 -1      2827 2.02929E+01 2.28183E-01 7.96400E-03-1.20726E+00 1.01663E-13 9.44297E-15
 -1      2828 2.06595E+01 4.01612E-01 3.79763E-03-1.27477E+00 1.61602E-13 1.40884E-13
 -1      2829 2.05789E+01-2.64156E-01-5.06401E-03-1.12812E+00 1.48226E-13 1.38841E-13
 -1      2830 2.04880E+01-1.26560E-01 2.90690E-03-1.18973E+00 2.43834E-13 1.56575E-13
 -1      2831 2.08510E+01-5.54097E-02 6.09285E-03-1.29486E+00 1.33316E-13 1.19936E-13
 -1      2832 2.06642E+01-4.29517E-01-1.64355E-03-8.96097E-01 2.34092E-13 9.63586E-14
 -1      2833 2.06024E+01-3.62703E-01-1.64577E-03-1.00813E+00 1.50127E-13 1.31803E-13
 -1      2834 2.09394E+01-3.85436E-01 5.49085E-03-1.11221E+00 1.91716E-13 1.63424E-13
 -1      2835 2.06639E+01-4.70835E-01 1.05829E-03-6.21504E-01 4.06854E-13-1.66078E-14
 -1      2836 2.06326E+01-4.64255E-01-4.36931E-03-7.48363E-01 3.54412E-13 6.17391E-14
 -1      2837 2.09191E+01-5.50164E-01 3.31495E-03-8.28375E-01 3.45356E-13 5.37484E-14
 -1      2838 2.06050E+01-4.26416E-01 2.56883E-03-3.64552E-01 2.68572E-13 2.41243E-15
 -1      2839 2.05986E+01-4.58404E-01-5.25862E-03-4.81402E-01 2.82807E-13 1.01388E-15
 -1      2840 2.08204E+01-5.72013E-01 1.04158E-03-5.30524E-01 3.65709E-13 7.19063E-14
 -1      2841 2.05166E+01-3.38425E-01 3.03481E-03-1.56773E-01 8.19376E-14 3.50487E-14
 -1      2842 2.05273E+01-3.87758E-01-4.90345E-03-2.50736E-01 2.49131E-13 6.65418E-14
 -1      2843 2.06833E+01-5.01081E-01-5.83884E-04-2.72212E-01 1.62970E-13 1.00661E-13
 -1      2844 2.04210E+01-2.39741E-01 2.82673E-03-7.30062E-03-1.98883E-13 1.02168E-13
 -1      2845 2.04414E+01-2.91010E-01-3.93337E-03-7.47950E-02-1.19404E-13 1.11924E-13
 -1      2846 2.05401E+01-3.87330E-01-1.42246E-03-7.58345E-02-3.32343E-14 1.84058E-13
 -1      2847 2.03315E+01-1.50374E-01 2.29806E-03 8.82644E-02-1.69969E-13 4.78604E-14
 -1      2848 2.03563E+01-1.94872E-01-2.80952E-03 4.51468E-02-1.65824E-13 5.87505E-14
 -1      2849 2.04106E+01-2.67452E-01-1.65360E-03 5.71557E-02-1.12992E-13 9.13709E-14
 -1      2850 2.02542E+01-7.92639E-02 1.69644E-03 1.40402E-01-7.90860E-15-1.40085E-13
 -1      2851 2.02798E+01-1.13606E-01-1.79171E-03 1.16970E-01-6.09020E-14-1.05126E-13
 -1      2852 2.03033E+01-1.62489E-01-1.53618E-03 1.36105E-01-1.74874E-14-3.21607E-14
 -1      2853 2.01908E+01-2.79036E-02 1.15669E-03 1.60835E-01 2.39114E-13-2.07874E-13
 -1      2854 2.02151E+01-5.20770E-02-9.86619E-04 1.51843E-01 1.22621E-13-1.64785E-13
 -1      2855 2.02196E+01-8.08770E-02-1.27281E-03 1.73960E-01 6.46597E-14-1.27284E-13
 -1      2856 2.01402E+01 6.34054E-03 7.69750E-04 1.60002E-01-8.96033E-15 2.56411E-14
 -1      2857 2.01620E+01-9.41241E-03-4.11706E-04 1.60768E-01 1.24695E-13-7.40858E-14
 -1      2858 2.01566E+01-2.29903E-02-9.82089E-04 1.83242E-01 3.14019E-14 2.56247E-14
 -1      2859 2.01006E+01 2.76174E-02 5.54356E-04 1.45904E-01-5.92375E-14 1.37616E-14
 -1      2860 2.01193E+01 1.79527E-02-8.07010E-05 1.52756E-01 3.50456E-14-2.25729E-14
 -1      2861 2.01101E+01 1.50444E-02-7.76617E-04 1.74391E-01 7.80417E-15 3.12600E-13
 -1      2862 2.00689E+01 4.07808E-02 3.42404E-04 1.25444E-01-2.55761E-13-1.87590E-13
 -1      2863 2.00847E+01 3.50342E-02 1.32559E-04 1.35936E-01-1.52555E-13-8.45028E-14
 -1      2864 2.00754E+01 3.84208E-02-7.59105E-04 1.55979E-01 8.07390E-15 2.40829E-13
 -1      2865 2.00495E+01 5.33033E-02-6.85096E-04 1.32530E-01-2.83365E-13-9.64746E-14
 -1      2866 1.99914E+01 1.17934E-01-6.00990E-04 1.13512E-01-1.38218E-13-1.43189E-13
 -1      2867 2.00035E+01 1.03354E-01 5.73486E-04 1.14707E-01-1.28338E-13-2.49815E-13
 -1      2868 1.99444E+01 1.82076E-01-8.57769E-04 8.06276E-02-1.65158E-13-3.25931E-13
 -1      2869 1.99560E+01 1.69569E-01 4.24720E-04 9.35041E-02-1.48951E-13-1.63877E-13
 -1      2870 2.00212E+01 7.81995E-02-2.60963E-04 1.10097E-01-1.45767E-13-2.45178E-13
 -1      2871 1.99675E+01 1.50822E-01-7.12953E-04 1.03835E-01-2.77815E-13 1.76360E-13
 -1      2872 1.99800E+01 1.36393E-01 5.00129E-04 1.10541E-01-2.13462E-13 2.39217E-13
 -1      2873 1.99837E+01 1.25645E-01 2.89310E-04 1.26604E-01-1.72458E-13 1.04251E-13
 -1      2874 1.99536E+01 1.61017E-01 2.75835E-04 1.12902E-01-2.35059E-13 6.70578E-14
 -1      2875 1.99159E+01 4.22483E-02 1.54262E-04-1.86027E-01 1.09941E-13-1.31282E-14
 -1      2876 1.99229E+01 6.84167E-02 2.29306E-03-1.62599E-01 1.20075E-13-7.44253E-15
 -1      2877 2.00283E+01 1.13086E-01-1.88979E-03-1.30843E-01 1.41938E-13-7.04338E-14
 -1      2878 1.99980E+01 4.70733E-02-1.46387E-03-1.90215E-01 7.95072E-14-7.28173E-14
 -1      2879 1.99161E+01 2.24146E-01-8.10090E-04-1.35237E-03 2.37762E-13 6.79454E-13
 -1      2880 1.99198E+01 2.20474E-01-4.29164E-05 2.07741E-02 1.60779E-13 3.41296E-13
 -1      2881 1.99191E+01 2.26622E-01-5.36211E-04-5.03996E-02 9.15312E-14 1.20790E-14
 -1      2882 1.99159E+01 2.29155E-01-4.45410E-04-2.80241E-02 8.31439E-14 4.69258E-13
 -1      2883 1.98966E+01 2.40693E-01 9.42441E-04-1.19166E-02 2.53921E-13 3.31120E-13
 -1      2884 1.99376E+01 2.13011E-01-5.30370E-05-9.64324E-02 2.00981E-13 4.26639E-13
 -1      2885 1.99262E+01 2.22128E-01-8.67215E-04-7.68612E-02 1.66928E-13 1.40594E-13
 -1      2886 1.99046E+01 2.41985E-01 1.12297E-03-6.82007E-02 2.56160E-14 1.55869E-13
 -1      2887 1.99705E+01 1.82915E-01 4.88014E-04-1.28956E-01 2.30715E-14 5.00254E-13
 -1      2888 1.99523E+01 1.97753E-01-1.18402E-03-1.17033E-01 8.87271E-14 6.18909E-13
 -1      2889 1.99321E+01 2.24141E-01 1.26944E-03-1.18967E-01 8.95840E-14 3.56775E-13
 -1      2890 2.00119E+01 1.37773E-01 2.13090E-04-1.40646E-01-1.08043E-13 1.12166E-13
 -1      2891 1.99910E+01 1.58548E-01-1.23640E-03-1.40146E-01-3.74266E-14 3.01479E-13
 -1      2892 1.99719E+01 1.87339E-01 5.41733E-05-1.52621E-01-7.03964E-14 2.82388E-13
 -1      2893 2.95797E+01 4.89749E+00-1.25068E-01 1.76279E+00 1.07053E-13 4.74482E-14
 -1      2894 2.94817E+01 6.52680E+00-2.24584E-01 1.24363E+00 1.11355E-13-1.10342E-13
 -1      2895 9.03458E+00-1.90091E+00 1.87290E-01-6.06454E+00-2.95305E-13-3.17302E-13
 -1      2896 1.20134E+01-3.00461E+00 2.67444E-02-7.36322E+00-2.91545E-13-2.15744E-13
 -1      2897 1.05173E+01-1.18692E+00 9.76459E-02 5.82898E+00-2.95763E-13-2.46858E-13
 -1      2898 8.11791E+00-3.85785E-01 2.20520E-01 4.31330E+00-1.93429E-13 1.44468E-13
 -1      2899 1.99258E+01 2.07959E-01-9.07968E-04 4.45199E-02 1.53185E-13 3.06836E-14
 -1      2900 1.99346E+01 1.99109E-01 2.54521E-04 6.29160E-02 8.79542E-14-2.52170E-13
 -1      2901 1.99051E+01 2.23542E-01 6.52928E-04 4.10399E-02 2.44125E-13 1.89494E-13
 -1      2902 2.03256E+01 1.08999E+00 5.72988E-03-8.78422E-01-2.11619E-13-1.78210E-13
 -1      2903 2.02334E+01 8.39113E-01-5.73333E-03-6.31622E-01-1.96575E-13-1.81212E-13
 -1      2904 2.02658E+01 9.18793E-01 1.35748E-04-5.86071E-01-1.91210E-13-1.79346E-13
 -1      2905 1.99270E+01 2.60027E+00-7.87335E-03 7.92525E-01 1.97866E-13-2.11981E-13
 -1      2906 1.98834E+01 2.69266E+00-6.16866E-03 6.43834E-01 1.72751E-13-2.26536E-13
 -1      2907 2.00019E+01 2.39434E+00 4.30294E-03 5.14932E-01 1.48853E-13-2.13350E-13
 -1      2908 2.00825E+01 2.19556E+00 5.46848E-03 7.43553E-01 1.84094E-13-1.77566E-13
 -1      2909 1.97330E+01-3.42372E+00 1.01885E-01-5.30622E+00 2.41696E-13 2.62082E-13
 -1      2910 1.86841E+01-1.53842E+00 1.35055E-01-5.18036E+00 2.08777E-13 2.04559E-13
 -1      2911 6.81994E+00 1.15204E-01 1.47154E-01 2.77060E+00-4.73302E-14 2.54963E-13
 -1      2912 6.64148E+00 4.54206E-01 2.33963E-01 4.66869E-01-5.96537E-14 8.02136E-14
 -1      2913 9.48171E+00 6.67370E-01 1.61699E-01 3.01984E+00-1.02127E-13 1.04694E-13
 -1      2914 1.98795E+01 2.70057E+00-6.16486E-03-6.33635E-01-5.20488E-14-2.78252E-13
 -1      2915 1.99223E+01 2.61047E+00-7.74698E-03-7.82941E-01-9.65595E-14-2.77291E-13
 -1      2916 3.03170E+01 1.81351E+00-1.87483E-01-1.19919E+00 9.09550E-14-4.56135E-13
 -1      2917 3.00592E+01 2.39703E-01-3.76034E-02-6.84240E-01 8.11573E-14-2.90878E-13
 -1      2918 1.79068E+01-4.46418E+00 7.76329E-02 7.51084E+00-2.77861E-13-2.73656E-13
 -1      2919 1.42750E+01-3.12648E+00 1.19964E-01 7.23826E+00-2.68688E-13-5.08676E-13
 -1      2920 2.96783E+01 4.71846E-01-5.97610E-02 9.61418E-01-1.04333E-13 2.61458E-14
 -1      2921 2.97309E+01 2.36798E+00-2.12105E-01 1.56452E+00 2.68396E-14 2.75752E-14
 -1      2922 1.61157E+01-3.96321E+00 1.76019E-01-7.45403E+00-2.45359E-13-1.86948E-13
 -1      2923 1.98233E+01-4.76929E+00-1.82258E-02-6.93012E+00-2.69465E-13-9.12707E-14
 -1      2924 2.84756E+01-2.94182E+00 3.07454E-02-1.51016E+00-3.62306E-13-4.23134E-14
 -1      2925 2.91601E+01-1.67798E+00-1.67423E-01-3.15261E-01-2.31568E-13-3.70537E-14
 -1      2926 1.31452E+01-1.83499E+00 9.60047E-02 5.44511E+00 1.90625E-13-1.77663E-13
 -1      2927 1.03307E+01-8.76398E-01 2.44735E-01 4.25320E+00 1.35725E-13-2.26458E-13
 -1      2928 2.37729E+01-4.87246E+00 6.20889E-02-5.27874E+00-3.28057E-13-5.34989E-15
 -1      2929 2.66815E+01-4.32864E+00-9.49228E-02-3.48293E+00-4.46886E-13-4.93078E-14
 -1      2930 5.91069E+00-3.42290E-01 1.82958E-01-2.52403E+00-8.05814E-14-4.32543E-13
 -1      2931 6.99443E+00-8.94382E-01 1.40898E-01-4.49989E+00-1.87517E-13-3.49970E-13
 -1      2932 2.92872E+01-2.04576E+00-1.41329E-01 8.46932E-01 1.14958E-13-1.08857E-13
 -1      2933 2.76398E+01-3.69708E+00-1.15768E-03 2.59400E+00 1.96683E-14-7.87009E-14
 -1      2934 2.03140E+01 1.71408E+00-7.02598E-03-1.30993E+00-2.47702E-13-1.99924E-13
 -1      2935 2.03009E+01 1.33070E+00-2.95416E-03-1.04044E+00-2.35847E-13-1.92021E-13
 -1      2936 2.02818E+01 1.40313E+00 1.04644E-03-9.39862E-01-2.22524E-13-2.22401E-13
 -1      2937 2.02217E+01 1.97150E+00-8.67319E-04-1.27474E+00-2.31673E-13-2.49423E-13
 -1      2938 1.83040E+01-2.32185E-01 8.95087E-02-4.61007E+00 1.39597E-13 2.23654E-13
 -1      2939 1.78622E+01 7.15252E-01 4.17354E-02-4.22757E+00 9.44973E-14 1.24043E-13
 -1      2940 1.62199E+01 1.28155E+00 6.20929E-02-3.71270E+00 1.10507E-13 1.83097E-13
 -1      2941 1.30094E+01-2.37900E+00 2.16021E-01-5.50843E+00 3.07809E-13 2.17909E-13
 -1      2942 1.68867E+01-3.91138E+00 3.40458E-02-6.02675E+00 2.36505E-13 2.21531E-13
 -1      2943 1.63400E+01-3.02974E+00 1.78675E-01 5.75960E+00 1.96843E-13-2.10706E-13
 -1      2944 2.09774E+01-4.61998E+00 2.02199E-01-5.41886E+00 3.06810E-13 3.60031E-13
 -1      2945 2.00328E+01 1.22724E-01-3.43668E-04-1.51937E-01-1.55201E-13-4.02479E-14
 -1      2946 1.99375E+01 2.54533E+00 3.50979E-03 4.73615E-03 7.23449E-14-2.43985E-13
 -1      2947 1.97987E+01 2.87536E+00-5.51657E-03-6.16241E-02 6.51407E-14-2.56927E-13
 -1      2948 1.98061E+01 2.86060E+00-5.58300E-03-2.15981E-01 2.96640E-14-2.70686E-13
 -1      2949 2.03229E+01 1.60465E+00 1.62170E-03 1.26893E+00 2.78642E-13 3.02024E-14
 -1      2950 1.39249E+01 9.21179E-01 9.97790E-02 3.81719E+00 1.66277E-13-2.17215E-13
 -1      2951 2.00256E+01 1.49263E-01 8.28867E-04-1.74614E-01-2.00934E-13-3.04668E-14
 -1      2952 1.56631E+01-6.96386E-01 4.75783E-02-5.05691E+00 1.78899E-13 2.35853E-13
 -1      2953 2.02209E+01 6.79396E-01-1.89149E-03 4.13960E-01 1.70511E-13-7.78457E-16
 -1      2954 2.01794E+01 6.19919E-01 1.55353E-03 4.42780E-01 1.80701E-13 3.76371E-14
 -1      2955 2.00196E+01 8.37727E-02 2.53201E-04 1.26003E-01-1.33834E-13-1.74418E-13
 -1      2956 1.99257E+01 1.95097E-01 3.28150E-04 8.40660E-02 8.55465E-14-3.21510E-14
 -1      2957 2.88443E+01-1.25705E+00-6.19537E-02-1.91683E-01 1.43573E-13-3.17607E-13
 -1      2958 2.64380E+01-4.48737E+00-2.61386E-02 3.54334E+00 6.65995E-14 6.88893E-14
 -1      2959 2.47329E+01-4.60096E+00 3.31068E-02 4.29753E+00 1.42490E-13 4.02248E-14
 -1      2960 2.70478E+01-3.67071E+00-1.36913E-02 1.96831E+00 2.41013E-13-4.49640E-15
 -1      2961 9.70551E+00-7.00935E-01 1.75942E-01-4.97030E+00-2.22634E-13-2.01533E-13
 -1      2962 2.72697E+01 5.80326E+00-8.32091E-02 1.30864E+00 2.32869E-14-2.41543E-13
 -1      2963 2.88995E+01 6.92429E+00-1.67260E-01 8.98271E-01 2.00395E-14-1.24505E-13
 -1      2964 2.78708E+01 6.94949E+00-1.92780E-01 3.99366E-01 6.82787E-15-1.98480E-13
 -1      2965 2.83824E+01 3.33140E+00-7.09189E-02 1.91970E+00 5.19029E-14-1.24345E-14
 -1      2966 6.38626E+00 2.68275E-01 1.74007E-01-1.18976E+00 9.67629E-15-4.56107E-13
 -1      2967 8.22523E+00 8.35356E-01 8.67561E-02-1.81930E+00 2.04936E-14-3.73701E-13
 -1      2968 7.34894E+00 7.85923E-01 8.77007E-02 2.48391E-01 6.62179E-14-2.00256E-13
 -1      2969 2.03169E+01 1.39223E+00 8.87673E-03 1.02169E+00 2.48366E-13 1.75159E-14
 -1      2970 2.02102E+01 6.99950E-01 6.56295E-03 5.55665E-01 1.97730E-13 7.25585E-14
 -1      2971 1.50669E+01-2.91276E+00 1.43509E-01-6.93534E+00-2.39614E-13-2.57974E-13
 -1      2972 2.23287E+01-4.76056E+00 7.02096E-02-5.80067E+00-1.36918E-13 5.15196E-14
 -1      2973 2.37806E+01-4.52730E+00-4.95805E-02-4.33699E+00-2.33466E-13-1.21114E-14
 -1      2974 2.05538E+01-4.04336E+00 6.13557E-02-5.95101E+00-8.23161E-14-1.09961E-13
 -1      2975 2.04039E+01-4.54352E+00 6.52667E-02 6.43793E+00-1.88349E-13-3.18252E-13
 -1      2976 2.69728E+01-3.75908E+00-1.20712E-02-2.16178E+00-3.11095E-13-1.50512E-13
 -1      2977 1.99763E+01 2.49039E+00-6.03007E-03-9.00575E-01-1.26859E-13-2.69457E-13
 -1      2978 2.00406E+01 2.34635E+00-8.72923E-03-1.03324E+00-1.69618E-13-2.67720E-13
 -1      2979 2.00781E+01 2.20843E+00 6.03165E-03-7.37388E-01-1.08902E-13-2.30402E-13
 -1      2980 2.85378E+01-7.74970E-01-4.13220E-02 7.30824E-01-1.42567E-13-1.56028E-13
 -1      2981 2.95515E+01 2.91203E+00-1.35174E-01-1.75274E+00 2.89074E-14-4.06078E-13
 -1      2982 2.85195E+01 6.96028E+00-1.57315E-01-8.76188E-01 1.44829E-13-2.88422E-13
 -1      2983 3.02140E+01 6.87614E+00-1.48262E-01-1.11445E+00 3.61933E-14-2.46733E-13
 -1      2984 2.87769E+01 5.72216E+00-1.02226E-01-1.57164E+00 1.01308E-14-2.84363E-13
 -1      2985 8.29869E+00 7.59980E-01 1.66828E-01-6.84049E-01-4.51843E-14-1.71807E-14
 -1      2986 1.98218E+01 2.82469E+00-5.77626E-03-3.50564E-01 1.15731E-14-2.53522E-13
 -1      2987 1.98461E+01 2.77604E+00-6.23975E-03-5.03963E-01-2.46085E-14-2.63247E-13
 -1      2988 1.99991E+01 2.40137E+00 4.35359E-03-5.05590E-01-4.12094E-14-2.42319E-13
 -1      2989 1.99525E+01 2.51095E+00 3.77454E-03-2.54637E-01 1.94135E-14-2.40032E-13
 -1      2990 1.57966E+01-2.40009E+00 5.89084E-02 6.36521E+00-1.61503E-13-4.74648E-13
 -1      2991 1.31256E+01-1.79707E+00 1.76865E-01 6.43241E+00-2.06044E-13-5.40096E-13
 -1      2992 1.24805E+01-5.39947E-01 9.92403E-02 5.26523E+00-3.05790E-13-2.24584E-13
 -1      2993 1.22673E+01-1.07706E+00 1.91304E-01-4.62361E+00 1.40235E-13 2.07945E-13
 -1      2994 2.00483E+01 2.16858E+00-4.31655E-03 2.91272E-01 1.23272E-13-2.05720E-13
 -1      2995 2.00353E+01 2.20750E+00-3.34490E-03 1.70044E-01 9.61624E-14-2.41703E-13
 -1      2996 2.02376E+01 1.48001E+00-9.95475E-03 8.04216E-01 2.24461E-13-6.26056E-14
 -1      2997 2.02029E+01 1.67125E+00-1.39630E-03 7.41477E-01 2.04449E-13-1.00169E-13
 -1      2998 2.02573E+01 7.56420E-01 6.69333E-03 7.53512E-01 2.14907E-13 1.36186E-13
 -1      2999 1.21450E+01 1.57805E+00-4.04354E-02 2.41283E+00 1.37773E-13-7.81181E-14
 -1      3000 1.18156E+01 7.66024E-01 1.39670E-01 3.20206E+00 1.75158E-13-1.61038E-13
 -1      3001 2.00861E+01 2.25831E+00-6.32436E-03-1.11865E+00-2.00130E-13-2.72820E-13
 -1      3002 2.01627E+01 2.08183E+00-8.20060E-03-1.20448E+00-2.19923E-13-2.71436E-13
 -1      3003 2.02335E+01 1.78552E+00 5.34740E-03-1.04684E+00-2.20285E-13-2.52610E-13
 -1      3004 2.01682E+01 1.98979E+00 7.85313E-03-9.15698E-01-1.59162E-13-2.30314E-13
 -1      3005 2.02277E+01 4.44004E-01 3.98331E-03-1.20227E-01-1.27218E-13-7.94186E-14
 -1      3006 2.01895E+01 3.36294E-01-2.14566E-03-3.10387E-02-8.73136E-14-7.42935E-14
 -1      3007 2.01753E+01 2.53129E-01 3.11630E-03 3.44464E-02-5.20007E-14-6.32506E-14
 -1      3008 2.01461E+01 1.84071E-01-1.18404E-03 9.00902E-02-3.11465E-14-5.77669E-14
 -1      3009 2.02441E+01 3.56665E-01-9.13977E-04-1.96945E-02-6.92245E-14-5.44681E-14
 -1      3010 2.01292E+01 1.32104E-01 2.16166E-03 1.30815E-01-4.98436E-14-4.18141E-14
 -1      3011 2.01095E+01 8.99206E-02-4.52542E-04 1.63559E-01-6.25614E-14-3.56431E-14
 -1      3012 2.02036E+01 1.95997E-01-1.01477E-03 9.23047E-02-3.72083E-14-5.57400E-14
 -1      3013 2.00926E+01 5.95654E-02 1.31777E-03 1.87158E-01-7.03156E-14-6.38964E-14
 -1      3014 2.00809E+01 3.65596E-02 4.76225E-05 2.05389E-01-6.76431E-14-5.15259E-14
 -1      3015 2.01644E+01 9.64376E-02-9.56394E-04 1.61145E-01-7.13671E-14-3.10524E-14
 -1      3016 2.00651E+01 2.17472E-02 6.45212E-04 2.18370E-01-8.96326E-14-5.92575E-14
 -1      3017 2.00597E+01 1.28508E-02 3.87694E-04 2.28494E-01-9.29082E-14-2.94121E-14
 -1      3018 2.01291E+01 4.10826E-02-7.98346E-04 2.01287E-01-7.15028E-14-7.44715E-14
 -1      3019 2.00449E+01 9.74553E-03 1.04213E-04 2.35966E-01-7.92046E-14 1.00390E-14
 -1      3020 2.00438E+01 1.18137E-02 6.24340E-04 2.42901E-01-2.06137E-14 3.74146E-14
 -1      3021 2.00981E+01 1.84090E-02-5.89560E-04 2.24415E-01-4.95221E-14-1.84475E-14
 -1      3022 2.00292E+01 1.81694E-02-3.53670E-04 2.48850E-01-3.67607E-14 6.85044E-15
 -1      3023 2.00309E+01 2.95095E-02 7.91730E-04 2.56469E-01-2.99971E-14 7.16779E-15
 -1      3024 2.00699E+01 2.11288E-02-3.41984E-04 2.39731E-01-5.20662E-14-8.13818E-15
 -1      3025 2.00150E+01 4.43453E-02-7.83647E-04 2.64012E-01 1.44434E-14-1.51977E-14
 -1      3026 2.00176E+01 6.44969E-02 9.05095E-04 2.75510E-01-5.94463E-15-8.93762E-15
 -1      3027 2.00421E+01 4.51954E-02-3.68759E-05 2.54379E-01-4.16279E-15-2.16387E-14
 -1      3028 1.99981E+01 8.79726E-02-1.24592E-03 2.87119E-01-4.88046E-14-2.26627E-14
 -1      3029 1.99996E+01 1.17640E-01 9.59477E-04 3.05315E-01-5.75514E-14-6.46547E-14
 -1      3030 2.00107E+01 8.92943E-02 3.69425E-04 2.73877E-01-2.89380E-14-2.85667E-14
 -1      3031 1.99727E+01 1.51052E-01-1.80764E-03 3.22967E-01-2.39257E-14-6.76836E-14
 -1      3032 1.99699E+01 1.92127E-01 9.23949E-04 3.50515E-01 2.88171E-14-5.02422E-14
 -1      3033 1.99699E+01 1.54644E-01 9.48349E-04 3.02440E-01-3.55178E-14-1.90815E-14
 -1      3034 1.99302E+01 2.37968E-01-2.54670E-03 3.75738E-01 9.54809E-16-5.74965E-14
 -1      3035 1.99182E+01 2.93582E-01 7.30976E-04 4.15233E-01-1.80593E-14-5.50184E-14
 -1      3036 1.99111E+01 2.44970E-01 1.80882E-03 3.43085E-01 2.41807E-14-1.12597E-13
 -1      3037 1.98575E+01 3.55585E-01-3.55686E-03 4.48994E-01 4.36568E-14 2.74501E-14
 -1      3038 1.98285E+01 4.30064E-01 2.60726E-04 5.02913E-01 9.02597E-14 1.67784E-14
 -1      3039 1.98210E+01 3.66489E-01 3.11083E-03 3.97435E-01 5.88684E-14-1.08687E-13
 -1      3040 1.97343E+01 5.13060E-01-4.95594E-03 5.45304E-01 4.67757E-14 1.89316E-14
 -1      3041 1.96759E+01 6.11554E-01-6.76817E-04 6.15720E-01 1.41525E-14 2.22835E-14
 -1      3042 1.96799E+01 5.27652E-01 5.08196E-03 4.65092E-01 6.60050E-14-4.42919E-14
 -1      3043 1.95299E+01 7.20793E-01-6.90446E-03 6.65435E-01-7.39036E-14 2.85093E-14
 -1      3044 1.94230E+01 8.48113E-01-2.34733E-03 7.53450E-01-8.13828E-14-2.65778E-14
 -1      3045 1.94586E+01 7.38149E-01 8.03563E-03 5.42485E-01-1.79515E-14-1.06233E-13
 -1      3046 1.91986E+01 9.87373E-01-9.64785E-03 8.07167E-01-6.77890E-14-1.03413E-14
 -1      3047 1.90147E+01 1.14521E+00-5.01237E-03 9.12245E-01-2.41406E-14-6.77831E-14
 -1      3048 1.91139E+01 1.00631E+00 1.24025E-02 6.21277E-01-9.14928E-14-1.55265E-14
 -1      3049 1.86738E+01 1.31250E+00-1.35576E-02 9.64572E-01 5.73879E-15-9.30273E-15
 -1      3050 1.83737E+01 1.49355E+00-8.59967E-03 1.08457E+00 3.79724E-14-5.17311E-15
 -1      3051 1.85837E+01 1.33355E+00 1.88580E-02 6.86955E-01-2.36122E-14 1.21090E-13
 -1      3052 1.78613E+01 1.67227E+00-1.90970E-02 1.13044E+00 5.67662E-14-5.95509E-15
 -1      3053 1.73967E+01 1.84894E+00-1.15452E-02 1.26411E+00 3.86314E-14-3.33677E-14
 -1      3054 1.77793E+01 1.70389E+00 2.87420E-02 7.20082E-01 3.80020E-14 4.92575E-15
 -1      3055 1.66355E+01 1.98969E+00-2.59084E-02 1.30582E+00 1.74253E-14 6.15632E-15
 -1      3056 1.59370E+01 2.09143E+00-1.39664E-02 1.46248E+00 8.46515E-14-4.36170E-14
 -1      3057 1.65757E+01 2.06350E+00 4.52282E-02 7.04887E-01 5.52986E-14-6.11520E-14
 -1      3058 1.48439E+01 2.09363E+00-2.57199E-02 1.48720E+00 6.77132E-14-1.10982E-13
 -1      3059 1.39715E+01 2.06683E+00 6.35767E-02 1.66714E+00 6.25142E-14-1.12976E-13
 -1      3060 1.48529E+01 2.26412E+00 8.52656E-02 6.47373E-01 1.92867E-14-1.90866E-13
 -1      3061 2.02399E+01 7.12384E-01-3.13340E-03 3.48746E-01 1.56167E-13-3.55799E-14
 -1      3062 2.02811E+01 9.01977E-01 1.02756E-03 5.12905E-01 1.75495E-13-4.00859E-14
 -1      3063 1.59104E+01 2.02524E+00 2.02840E-02-2.20516E+00-8.76491E-14 1.64452E-15
 -1      3064 1.65166E+01 1.99465E+00-2.64430E-02-1.93662E+00-7.33523E-14-1.14933E-13
 -1      3065 1.73699E+01 1.90663E+00-7.18987E-03-1.79401E+00-5.74666E-14-1.41549E-13
 -1      3066 1.78183E+01 1.76064E+00-2.15700E-02-1.57645E+00-1.08181E-13-1.94054E-13
 -1      3067 1.62374E+01 2.18657E+00 5.98927E-02-1.25635E+00-1.41824E-13-2.32571E-13
 -1      3068 1.83916E+01 1.59598E+00-6.69027E-03-1.46025E+00-1.36177E-13-6.83779E-14
 -1      3069 1.86792E+01 1.41779E+00-1.64373E-02-1.27749E+00-1.82340E-13 2.61862E-15
 -1      3070 1.75862E+01 1.86456E+00 3.42042E-02-1.11463E+00-1.29080E-13-2.42235E-13
 -1      3071 1.90623E+01 1.24843E+00-3.38995E-03-1.17210E+00-2.17234E-13 1.49317E-13
 -1      3072 1.92349E+01 1.08361E+00-1.15261E-02-1.01891E+00-1.78782E-13 1.01123E-13
 -1      3073 1.84856E+01 1.48934E+00 2.17981E-02-9.59950E-01-1.33872E-13 2.33394E-14
 -1      3074 1.94834E+01 9.37617E-01-1.22890E-03-9.25970E-01-1.94708E-13 9.76012E-14
 -1      3075 1.95796E+01 8.03042E-01-8.03276E-03-8.00735E-01-1.33357E-13 8.97110E-15
 -1      3076 1.90772E+01 1.13800E+00 1.44131E-02-8.07542E-01-2.60919E-13 9.79937E-14
 -1      3077 1.97375E+01 6.88210E-01 1.43279E-04-7.20446E-01-8.80160E-14 1.07826E-13
 -1      3078 1.97857E+01 5.85009E-01-5.58757E-03-6.20734E-01 6.24275E-14-4.02703E-14
 -1      3079 1.94541E+01 8.47569E-01 9.31222E-03-6.61870E-01-3.83980E-14 7.99677E-14
 -1      3080 1.98841E+01 4.99118E-01 8.24647E-04-5.53517E-01 1.61586E-13-1.02227E-13
 -1      3081 1.99042E+01 4.22975E-01-3.86124E-03-4.75720E-01 1.15761E-13-1.13951E-13
 -1      3082 1.96890E+01 6.21974E-01 5.85934E-03-5.30501E-01 3.50070E-14 2.48784E-13
 -1      3083 1.99640E+01 3.60816E-01 1.08435E-03-4.20924E-01-2.24319E-14 2.53634E-14
 -1      3084 1.99685E+01 3.06143E-01-2.70642E-03-3.60943E-01-1.73637E-13-1.02804E-13
 -1      3085 1.98319E+01 4.53505E-01 3.57616E-03-4.17595E-01 5.39170E-14 3.22781E-13
 -1      3086 2.00041E+01 2.63038E-01 1.26436E-03-3.17327E-01-3.02588E-13-1.60921E-13
 -1      3087 2.00001E+01 2.24477E-01-1.94970E-03-2.70890E-01-2.77821E-13-9.67329E-14
 -1      3088 1.99167E+01 3.30932E-01 2.03793E-03-3.24013E-01-2.88089E-13 1.38683E-13
 -1      3089 2.00223E+01 1.94476E-01 1.02591E-03-2.37718E-01-2.90765E-13-8.32150E-14
 -1      3090 2.00154E+01 1.69162E-01-9.80405E-04-2.02215E-01-3.04625E-13-1.23753E-13
 -1      3091 1.99923E+01 1.87007E-01 8.11188E-04-1.89516E-01-1.40419E-13 2.11656E-14
 -1      3092 1.99646E+01 2.45515E-01 7.70518E-04-2.50216E-01-2.47165E-13 4.01419E-13
 -1      3093 1.99990E+01 1.01044E-01-8.46922E-04 1.46917E-01-8.80405E-14-1.60627E-13
 -1      3094 2.00238E+01 7.87403E-02 4.04427E-04 1.42014E-01-1.09989E-13-4.01677E-14
 -1      3095 2.00342E+01 7.19094E-02 3.55531E-04 1.55725E-01-1.56874E-13 6.36685E-14
 -1      3096 2.01431E+01 2.41013E-01-1.61205E-03-3.83032E-02 1.62753E-13-6.27566E-14
 -1      3097 2.01788E+01 3.24884E-01 3.81979E-03 3.26958E-02 1.58652E-13-4.76021E-14
 -1      3098 2.01921E+01 4.25257E-01-2.67178E-03 1.15206E-01 1.59521E-13-5.55026E-14
 -1      3099 2.02369E+01 5.54673E-01 4.56494E-03 2.26979E-01 1.56634E-13-4.20324E-14
 -1      3100 2.02784E+01 7.51826E-01 4.11598E-04 3.09276E-01 1.71747E-13-4.91055E-14
 -1      3101 2.02457E+01 4.52796E-01-1.03345E-03 9.80037E-02 1.72813E-13-4.25260E-14
 -1      3102 2.00334E+01-7.08821E-03 4.31094E-04-2.30031E-01 4.42486E-14-3.77523E-14
 -1      3103 2.00346E+01 5.73184E-04 5.20091E-04-2.25040E-01 3.18028E-14-1.78465E-14
 -1      3104 2.00474E+01 1.21681E-02 1.93374E-04-2.16829E-01 2.03695E-14-2.19997E-14
 -1      3105 2.00544E+01 2.96194E-02 1.05937E-03-2.05139E-01 3.13565E-14-3.50631E-14
 -1      3106 2.00957E+01 1.32165E-02-8.22210E-04-2.13539E-01 3.18643E-14-2.92719E-14
 -1      3107 2.00259E+01-1.06409E-02 6.60775E-04-2.38845E-01 6.63366E-14-1.08625E-13
 -1      3108 2.00190E+01-1.24365E-02-6.64251E-05-2.37842E-01 4.01029E-14-6.39877E-14
 -1      3109 2.00320E+01-6.34043E-03 6.88515E-04-2.42727E-01 6.18723E-14-9.66681E-14
 -1      3110 2.00218E+01-8.65101E-03-1.50845E-04-2.41400E-01 6.46186E-14-7.81616E-14
 -1      3111 2.00447E+01-8.90165E-03-5.58356E-04-2.41956E-01 6.46291E-14-1.27514E-13
 -1      3112 2.00457E+01-5.19334E-03 6.59151E-04-2.48298E-01 1.12497E-13-5.25736E-14
 -1      3113 2.00319E+01-5.21372E-03-1.00312E-04-2.46520E-01 8.91441E-14-6.62767E-14
 -1      3114 2.00413E+01-4.71011E-03-6.07892E-04-2.49702E-01 6.37092E-14-5.33837E-14
 -1      3115 2.00694E+01-1.30635E-02 5.57721E-04-2.54514E-01 2.21540E-14 2.83151E-14
 -1      3116 2.00513E+01-7.70991E-03 9.96914E-05-2.53243E-01 9.63794E-14 9.64307E-15
 -1      3117 2.00472E+01-5.48431E-03-7.61082E-04-2.59973E-01 6.76298E-14 3.20189E-14
 -1      3118 2.01066E+01-3.64659E-02 3.55020E-04-2.58031E-01-6.13202E-14 9.00059E-15
 -1      3119 2.00831E+01-2.23118E-02 4.75652E-04-2.59428E-01-2.49269E-14-2.30249E-14
 -1      3120 2.00659E+01-1.82679E-02-1.04426E-03-2.71786E-01 1.76343E-14 6.15879E-14
 -1      3121 2.01626E+01-8.23180E-02 6.01669E-06-2.52840E-01 1.22384E-14-4.07239E-14
 -1      3122 2.01320E+01-5.57867E-02 1.05856E-03-2.60411E-01-3.57341E-14-3.11341E-14
 -1      3123 2.01026E+01-5.08485E-02-1.47947E-03-2.81794E-01-1.39129E-14-5.93629E-15
 -1      3124 2.02434E+01-1.56927E-01-5.48698E-04-2.29865E-01-3.32409E-14 1.78244E-14
 -1      3125 2.02041E+01-1.14920E-01 1.86761E-03-2.48560E-01-5.75515E-15 2.78776E-14
 -1      3126 2.01648E+01-1.11335E-01-2.07038E-03-2.83753E-01-3.63251E-14-1.95759E-14
 -1      3127 2.03555E+01-2.63793E-01-1.37074E-03-1.76795E-01-1.06144E-13 1.20856E-14
 -1      3128 2.03064E+01-2.04981E-01 2.88023E-03-2.12879E-01-6.21865E-14 2.04846E-14
 -1      3129 2.02618E+01-2.06748E-01-2.77464E-03-2.67845E-01-8.12427E-14 2.26540E-14
 -1      3130 2.05030E+01-3.99826E-01-2.48867E-03-7.86426E-02-1.99147E-13 3.17774E-14
 -1      3131 2.04446E+01-3.26800E-01 3.98465E-03-1.39066E-01-1.36579E-13 5.90476E-14
 -1      3132 2.04033E+01-3.40112E-01-3.46186E-03-2.20149E-01-1.35192E-13 5.95611E-14
 -1      3133 2.06847E+01-5.49916E-01-3.82036E-03 8.00953E-02-1.38635E-13-9.75854E-15
 -1      3134 2.06204E+01-4.72165E-01 4.91427E-03-1.07283E-02-1.83233E-13 1.17401E-14
 -1      3135 2.05966E+01-5.05576E-01-3.86472E-03-1.22841E-01-1.64060E-13 7.71619E-15
 -1      3136 2.08883E+01-6.80740E-01-4.99651E-03 3.10374E-01-1.19280E-13-6.77150E-14
 -1      3137 2.08262E+01-6.17861E-01 5.19014E-03 1.87025E-01-1.07382E-13-1.13567E-15
 -1      3138 2.08415E+01-6.81546E-01-3.54190E-03 4.36596E-02-1.26244E-13 1.20745E-14
 -1      3139 2.10861E+01-7.37079E-01-5.21328E-03 6.08993E-01 2.62105E-14-5.47084E-14
 -1      3140 2.10390E+01-7.20074E-01 4.19883E-03 4.59906E-01-6.24075E-14-1.23801E-13
 -1      3141 2.11228E+01-8.23239E-01-1.87484E-03 2.94615E-01-8.05933E-14 2.93617E-14
 -1      3142 2.12335E+01-6.47326E-01-3.42331E-03 9.44491E-01 6.89019E-14-4.92011E-16
 -1      3143 2.12172E+01-7.14215E-01 1.26901E-03 7.91439E-01 9.49220E-14 1.26018E-15
 -1      3144 2.14025E+01-8.59436E-01 1.60325E-03 6.28277E-01-7.67846E-15-2.54548E-14
 -1      3145 2.12793E+01-3.47716E-01 9.22391E-04 1.24283E+00-1.34363E-14 3.45060E-14
 -1      3146 2.13053E+01-5.28068E-01-3.95673E-03 1.12658E+00 1.26147E-14 4.32635E-14
 -1      3147 2.16179E+01-7.02614E-01 6.26282E-03 1.00640E+00 6.14049E-15 7.51708E-14
 -1      3148 2.11906E+01 1.71486E-01 6.96597E-03 1.38848E+00 7.37881E-15 6.87568E-14
 -1      3149 2.12576E+01-1.17502E-01-1.01798E-02 1.36335E+00-2.06825E-14 1.16563E-14
 -1      3150 2.16972E+01-2.86860E-01 9.40698E-03 1.33479E+00 6.23595E-15 2.47633E-14
 -1      3151 2.09876E+01 8.17016E-01 1.20309E-02 1.26035E+00-9.35779E-14 1.13453E-13
 -1      3152 2.10746E+01 4.81431E-01-1.43119E-02 1.37242E+00 3.39866E-14 1.35228E-13
 -1      3153 2.16012E+01 3.72209E-01 7.63904E-03 1.46996E+00-3.82124E-14 8.96325E-14
 -1      3154 2.07597E+01 1.38202E+00 1.17160E-02 7.95382E-01-1.25843E-13 2.40898E-13
 -1      3155 2.08282E+01 1.12101E+00-1.19378E-02 1.05410E+00-1.10050E-13 1.65055E-13
 -1      3156 2.13682E+01 1.13858E+00 2.91401E-03 1.26449E+00-1.11050E-13 1.83831E-13
 -1      3157 2.06372E+01 1.63252E+00 4.43238E-03 8.89255E-02-4.93671E-14 1.26962E-13
 -1      3158 2.06583E+01 1.55341E+00-3.19379E-03 4.31919E-01-1.19165E-13 2.05366E-13
 -1      3159 2.11404E+01 1.73057E+00-3.94981E-03 6.82484E-01-7.40765E-14 8.45959E-14
 -1      3160 2.06970E+01 1.45314E+00-6.00813E-03-6.53170E-01-1.60346E-14 1.14892E-13
 -1      3161 2.06579E+01 1.59876E+00 7.62134E-03-3.26859E-01-2.54291E-14 1.05847E-13
 -1      3162 2.10665E+01 1.90196E+00-7.35992E-03-1.32373E-01-5.53622E-14 7.04266E-14
 -1      3163 2.09054E+01 9.28052E-01-1.33745E-02-1.19090E+00 1.35332E-13 1.76510E-13
 -1      3164 2.08267E+01 1.22721E+00 1.26852E-02-9.75608E-01 1.02302E-13 1.63027E-13
 -1      3165 2.12022E+01 1.57758E+00-2.14138E-03-9.01849E-01 4.71205E-15 1.32684E-13
 -1      3166 2.11439E+01 2.80551E-01-1.30445E-02-1.40099E+00 1.93692E-13 6.33327E-14
 -1      3167 2.10604E+01 6.10921E-01 1.13761E-02-1.33483E+00 2.00427E-13 9.72871E-14
 -1      3168 2.14494E+01 9.00605E-01 5.10155E-03-1.37138E+00 1.63635E-13 1.67464E-13
 -1      3169 2.12900E+01-2.69513E-01-8.47023E-03-1.30780E+00 8.15509E-14 1.23112E-14
 -1      3170 2.12340E+01-1.11788E-02 5.01420E-03-1.36744E+00 9.39829E-14-6.67749E-15
 -1      3171 2.16502E+01 1.47184E-01 9.48868E-03-1.45718E+00 1.93908E-13-1.16847E-13
 -1      3172 2.12925E+01-6.07085E-01-2.38877E-03-1.02710E+00 3.31579E-13-1.36395E-13
 -1      3173 2.12800E+01-4.64991E-01-1.10715E-03-1.15993E+00 2.73179E-13 2.30529E-14
 -1      3174 2.16924E+01-4.45329E-01 8.29059E-03-1.24592E+00 1.42549E-13-1.06049E-13
 -1      3175 2.11700E+01-7.27183E-01 2.30633E-03-6.85989E-01 2.77240E-13-6.29813E-14
 -1      3176 2.11972E+01-6.91917E-01-4.56513E-03-8.40226E-01 2.48485E-13-9.24920E-14
 -1      3177 2.15630E+01-7.74128E-01 4.21507E-03-8.88471E-01 2.39783E-13-9.86588E-14
 -1      3178 2.09759E+01-6.88797E-01 4.73786E-03-3.71974E-01 2.77219E-13 6.10985E-14
 -1      3179 2.10288E+01-7.25425E-01-5.40390E-03-5.12980E-01 3.47372E-13-4.63607E-14
 -1      3180 2.13194E+01-8.57961E-01 1.30869E-04-5.19391E-01 2.69301E-13-2.93910E-14
 -1      3181 2.07625E+01-5.63912E-01 5.31242E-03-1.26083E-01 1.43712E-13 1.25589E-13
 -1      3182 2.08257E+01-6.35888E-01-4.71854E-03-2.37355E-01 2.42383E-13 6.91762E-14
 -1      3183 2.10338E+01-7.76582E-01-2.57205E-03-2.12949E-01 2.19061E-13 1.10202E-13
 -1      3184 2.05655E+01-4.10869E-01 4.77986E-03 4.34760E-02-1.26599E-13 1.15440E-13
 -1      3185 2.06275E+01-4.90770E-01-3.45203E-03-3.45297E-02 4.44311E-14 9.03969E-14
 -1      3186 2.07612E+01-6.14011E-01-3.74425E-03 6.36195E-03 1.32097E-13 1.00413E-13
 -1      3187 2.04024E+01-2.66526E-01 3.77441E-03 1.46101E-01-1.02933E-13 1.17250E-13
 -1      3188 2.04568E+01-3.38265E-01-2.19266E-03 9.77123E-02-1.69081E-13 1.57843E-13
 -1      3189 2.05318E+01-4.33027E-01-3.78419E-03 1.43487E-01-1.61306E-13 2.23327E-13
 -1      3190 2.02773E+01-1.48528E-01 2.70573E-03 1.97465E-01 9.66416E-15 2.60920E-13
 -1      3191 2.03216E+01-2.05246E-01-1.19668E-03 1.72271E-01-3.25239E-14 2.61882E-13
 -1      3192 2.03551E+01-2.70411E-01-3.24496E-03 2.15793E-01-1.99310E-13 2.49390E-13
 -1      3193 2.01865E+01-6.14212E-02 1.77748E-03 2.13176E-01 5.49548E-14 3.23043E-13
 -1      3194 2.02209E+01-1.02157E-01-5.02055E-04 2.04532E-01 3.75121E-14 2.52472E-13
 -1      3195 2.02281E+01-1.41750E-01-2.51381E-03 2.42463E-01 4.74550E-15 3.56450E-13
 -1      3196 2.01235E+01-2.32474E-03 1.12371E-03 2.06209E-01-3.13980E-14 2.48207E-13
 -1      3197 2.01494E+01-2.92951E-02-6.23042E-05 2.08387E-01 1.33071E-13 1.54790E-13
 -1      3198 2.01418E+01-4.92308E-02-1.81076E-03 2.39832E-01 1.32077E-13 4.59387E-13
 -1      3199 2.00822E+01 3.48000E-02 1.07636E-03 1.86127E-01 7.66729E-14 1.04465E-13
 -1      3200 2.01002E+01 1.79584E-02 1.45525E-04 1.94602E-01-6.44149E-14 1.44174E-13
 -1      3201 2.00858E+01 1.21234E-02-1.28407E-03 2.20294E-01 5.32648E-15 8.19796E-14
 -1      3202 2.02948E+01 1.18485E+00 5.29805E-03-6.81353E-01-1.66147E-13-1.82920E-13
 -1      3203 2.02607E+01 9.35959E-01-4.76030E-03-4.91870E-01-1.54322E-13-1.62256E-13
 -1      3204 1.98994E+01 2.06754E-01-9.87962E-04 9.12918E-02 9.57273E-14 1.80271E-13
 -1      3205 1.99160E+01 1.92226E-01 4.71313E-04 1.09534E-01-1.65815E-13 1.68766E-13
 -1      3206 1.99163E+01 2.39561E-01 4.69260E-04-1.43540E-01-6.98745E-14 4.36277E-13
 -1      3207 1.98931E+01 2.51305E-01-1.30433E-03-1.19255E-01 7.35709E-14 8.81182E-14
 -1      3208 1.98647E+01 2.57685E-01-8.83834E-04-1.98599E-02 1.14547E-13 1.50933E-13
 -1      3209 1.98671E+01 2.53902E-01 3.57684E-05 9.01164E-03 2.50254E-13 3.76295E-13
 -1      3210 1.99590E+01 2.08627E-01-1.02831E-03-1.77279E-01-1.24095E-13 2.50615E-13
 -1      3211 9.81431E+00-2.72387E-02 1.31673E-01 3.25986E+00 1.11591E-13-1.66145E-13
 -1      3212 2.57598E+01-3.93584E+00 7.71271E-02-2.51309E+00-2.61787E-13-2.49991E-13
 -1      3213 2.66493E+01-3.24481E+00-1.26236E-01-1.01226E+00-2.20430E-13-3.15480E-13
 -1      3214 2.75639E+01-1.61413E+00 3.31542E-02 4.97445E-01-1.46966E-13-8.31071E-14
 -1      3215 2.74533E+01-2.02500E-01-1.62528E-01 1.39978E+00-3.87260E-14 4.56787E-14
 -1      3216 2.75244E+01 2.08323E+00-2.42841E-02 2.05130E+00-2.96568E-14 5.20417E-14
 -1      3217 2.69813E+01 3.85258E+00-1.60980E-01 1.94550E+00 1.79440E-14-3.69496E-15
 -1      3218 2.02899E+01 9.31729E-01-7.25388E-03 7.79083E-01 2.19251E-13 4.12166E-14
 -1      3219 2.81225E+01-4.39030E-01-1.07595E-01-1.11177E+00 2.14252E-13-3.93061E-13
 -1      3220 2.77852E+01-2.17225E+00-3.16625E-02 1.10340E-01 2.39780E-13-2.07709E-13
 -1      3221 1.42226E+01 1.46285E+00 8.52085E-02-2.98967E+00 8.98934E-15 3.28279E-14
 -1      3222 1.46669E+01 1.84356E+00-2.21157E-02-2.56080E+00-4.14929E-14-7.38645E-14
 -1      3223 1.42367E+01 2.29240E+00 1.06124E-01-1.49630E+00-1.29767E-13-9.74169E-14
 -1      3224 1.39395E+01-1.74092E+00 1.45540E-01-6.29231E+00-1.94733E-13-2.55518E-13
 -1      3225 1.70150E+01-3.01376E+00 2.04643E-02-6.51384E+00-1.66624E-13-2.70957E-13
 -1      3226 1.10407E+01 8.37344E-01 6.16189E-02 3.37742E+00-3.16518E-13-1.12063E-13
 -1      3227 1.02052E+01 1.43063E+00 1.14530E-01 1.75270E+00-1.89188E-13-8.08936E-14
 -1      3228 1.04558E+01 1.81768E+00 6.59406E-02-2.94512E-01-7.68031E-14-8.31418E-14
 -1      3229 1.09752E+01 1.25996E+00 1.48675E-01-2.44098E+00 2.90740E-15-6.81399E-14
 -1      3230 1.98737E+01 2.38495E-01-1.05478E-03 4.13294E-02 2.10439E-13 2.91294E-13
 -1      3231 1.98853E+01 2.28335E-01 4.52758E-04 6.66941E-02 2.30578E-13 1.46188E-13
 -1      3232 1.98733E+01 2.26945E-01 5.09000E-04 9.41397E-02-6.86210E-14 2.44295E-13
 -1      3233 1.98463E+01 2.62546E-01 7.87093E-04 3.53903E-02 2.27874E-13 3.16775E-13
 -1      3234 2.25202E+01-4.57301E+00 1.99898E-02 5.41836E+00-3.33067E-14-5.19064E-14
 -1      3235 1.97106E+01-3.81832E+00 4.90111E-02 6.06465E+00-7.90271E-14-2.06779E-14
 -1      3236 2.85707E+01 3.89745E+00-1.64630E-01-1.92208E+00-4.77257E-14-2.59473E-13
 -1      3237 2.82650E+01 2.02084E+00-7.77650E-02-1.82709E+00 2.08861E-14-2.32675E-13
 -1      3238 2.00264E+01-1.26885E-02 5.78264E-04-2.35629E-01 2.45012E-14-4.69653E-14
 -1      3239 2.00232E+01-1.12361E-02 1.52730E-04-2.33773E-01 4.40392E-14-5.31513E-14
 -1      3240 2.00723E+01-6.52962E-03-6.83556E-04-2.27885E-01 5.08946E-14-3.60334E-14
 -1      3241 2.00553E+01-1.16141E-02-5.89982E-04-2.35680E-01 6.02089E-14-8.77589E-14
 -1      3242 1.01372E+01 1.76247E-01 1.27407E-01-4.07890E+00-1.21125E-13-2.41265E-13
 -1      3243 1.17694E+01-8.47482E-01 8.69935E-02-5.67555E+00-1.74388E-13-2.39045E-13
 -1      3244 1.41315E+01-9.08236E-01 1.21099E-01-5.47574E+00-1.18211E-13-2.58293E-13
 -1      3245 1.98780E+01 2.58810E-01-5.32357E-04-8.51937E-02 1.38476E-13 1.01781E-13
 -1      3246 1.98684E+01 2.62983E-01-5.23231E-04-5.60000E-02 9.98137E-14 2.22626E-13
 -1      3247 1.98405E+01 2.82986E-01 1.00851E-03-3.58963E-02 1.27470E-13 1.74894E-13
 -1      3248 1.98625E+01 2.81690E-01 1.21653E-03-1.09486E-01 4.70310E-14 1.24768E-13
 -1      3249 2.02751E+01 7.37610E-01 4.33818E-03-3.53665E-01-1.38489E-13-1.29495E-13
 -1      3250 2.02332E+01 5.73479E-01-3.33211E-03-2.18765E-01-1.36480E-13-1.22643E-13
 -1      3251 2.02784E+01 6.05837E-01 1.14550E-04-1.90576E-01-1.10192E-13-8.07136E-14
 -1      3252 2.02871E+01 9.77684E-01 1.17220E-03-4.33374E-01-1.27632E-13-1.40195E-13
 -1      3253 2.02771E+01 1.26273E+00 3.48883E-03 7.96580E-01 2.14366E-13-3.01764E-14
 -1      3254 2.02495E+01 1.46630E+00 4.09515E-03 5.80532E-01 1.85460E-13-1.11570E-13
 -1      3255 2.01616E+01 1.80748E+00-6.75822E-03 6.83565E-01 1.90752E-13-1.58544E-13
 -1      3256 2.01269E+01 1.93648E+00-2.62324E-03 5.86746E-01 1.58093E-13-1.80227E-13
 -1      3257 2.69180E+01-2.13303E+00-7.88485E-03-1.59871E-01 3.08274E-13-2.27554E-13
 -1      3258 2.72177E+01-3.07579E+00-6.20726E-02 8.87824E-01 3.00010E-13-2.52617E-13
 -1      3259 2.62218E+01-3.53958E+00-9.55419E-03 1.69699E+00 2.86137E-13-1.02262E-13
 -1      3260 1.20576E+01 2.13557E+00 1.41251E-01 9.59623E-01 1.21889E-13-1.07078E-13
 -1      3261 2.00939E+01 2.03227E+00-5.22501E-03 5.02651E-01 1.56621E-13-1.92302E-13
 -1      3262 2.00688E+01 2.11236E+00-3.09111E-03 3.89293E-01 1.36606E-13-1.90278E-13
 -1      3263 2.01638E+01 1.85630E+00 5.04594E-03 2.88679E-01 1.22073E-13-1.83065E-13
 -1      3264 2.02025E+01 1.70268E+00 4.61197E-03 4.54782E-01 1.55630E-13-1.84126E-13
 -1      3265 1.41357E+01-3.37709E-01 1.06828E-02 4.76112E+00-1.77032E-13-1.87364E-13
 -1      3266 1.24521E+01 4.37915E-01 1.37007E-01 4.12886E+00-3.09305E-13-4.36734E-14
 -1      3267 1.28832E+01 1.03807E+00 3.44141E-02 3.12184E+00-1.96336E-13-6.79179E-14
 -1      3268 2.00283E+01 2.22649E+00-3.69460E-03 6.58319E-02 6.99556E-14-2.38352E-13
 -1      3269 2.00282E+01 2.22715E+00-3.63818E-03-5.75562E-02 6.00818E-14-2.29435E-13
 -1      3270 2.01419E+01 1.93245E+00 5.07074E-03 1.00836E-01 8.29645E-14-2.04194E-13
 -1      3271 2.02791E+01 1.13444E+00 2.82614E-03 5.37512E-01 1.80548E-13-5.64905E-14
 -1      3272 2.02822E+01 1.09904E+00 5.13691E-03 6.11793E-01 1.88349E-13-3.81158E-14
 -1      3273 1.00197E+01 7.52413E-01 1.64482E-01-2.99933E+00-6.93334E-14-2.23294E-13
 -1      3274 1.20332E+01 7.11186E-01 1.82732E-01-3.70472E+00-4.61853E-14-1.67179E-13
 -1      3275 9.89751E+00 1.31515E+00 6.62752E-02-1.64429E+00 6.90576E-14-2.32911E-13
 -1      3276 1.99619E+01 1.38600E-01-7.78363E-04 1.42206E-01-1.98609E-13 3.64017E-13
 -1      3277 1.99799E+01 1.22326E-01 2.61266E-04 1.45258E-01-1.18849E-13-1.41601E-14
 -1      3278 1.99822E+01 1.16669E-01 4.76537E-04 1.63799E-01-3.02699E-14-1.09726E-13
 -1      3279 8.84243E+00 9.19089E-01 2.81904E-01 1.46829E+00 9.89278E-14-1.01197E-13
 -1      3280 2.01260E+01 1.77155E-01 2.76365E-03-9.10779E-02 1.57478E-13-5.35803E-14
 -1      3281 2.02034E+01 2.57788E-01-1.16316E-03-4.39653E-02 1.64622E-13-4.35149E-14
 -1      3282 2.01015E+01 1.24023E-01-7.55472E-04-1.33570E-01 1.32806E-13-4.88275E-14
 -1      3283 2.01256E+01 5.59198E-02-9.81204E-04-1.85300E-01 5.16710E-14-1.40845E-14
 -1      3284 2.00697E+01 5.25312E-02-1.79004E-04-1.88276E-01 5.07844E-14-3.46603E-14
 -1      3285 2.00844E+01 8.45031E-02 1.80090E-03-1.64741E-01 9.10519E-14-5.01109E-14
 -1      3286 2.00478E+01 6.04023E-02 8.21382E-04 1.66954E-01-1.27691E-13 1.40886E-13
 -1      3287 2.00613E+01 4.91445E-02 1.39555E-04 1.78495E-01 6.43884E-14 1.53051E-13
 -1      3288 2.00448E+01 5.15622E-02-1.24153E-03 1.99192E-01-2.86142E-14-1.07896E-13
 -1      3289 2.00128E+01 8.22805E-02-1.08305E-03 1.77319E-01-6.77007E-14-8.70014E-14
 -1      3290 1.99290E+01 1.73577E-01-8.30190E-04 1.23469E-01-1.49330E-13 1.40762E-13
 -1      3291 1.99470E+01 1.57057E-01 2.61077E-04 1.34056E-01-2.39928E-13 3.14103E-13
 -1      3292 1.99416E+01 1.54299E-01 4.16331E-04 1.54695E-01-1.09554E-13 2.32668E-13
 -1      3293 1.99071E+01 1.88928E-01 2.78070E-04 1.32836E-01-1.33541E-13 2.60582E-13
 -1      3294 1.20083E+01 1.89469E+00 3.75385E-02 1.83034E-01-1.74831E-13-1.62939E-13
 -1      3295 2.65736E+01 4.55374E+00-1.03877E-01 1.77795E+00-2.22322E-14-2.27422E-13
 -1      3296 2.59010E+01 5.06252E+00-1.05238E-01 1.39002E+00 4.57967E-15-1.60583E-13
 -1      3297 2.58836E+01 3.32389E+00-5.40523E-02 1.86047E+00-1.23471E-13-1.37211E-13
 -1      3298 2.02052E+01-3.12165E+00 3.00011E-02 5.08913E+00 6.62751E-14 3.13648E-13
 -1      3299 1.82260E+01-2.90506E+00 1.00219E-01 6.08383E+00-7.92005E-14-1.25677E-13
 -1      3300 1.66493E+01-1.78502E+00 3.55670E-02 5.54306E+00 3.16969E-14-1.88904E-13
 -1      3301 1.99283E+01 2.45687E-01 8.08978E-04-1.84896E-01-1.68517E-13 2.45955E-13
 -1      3302 2.63393E+01-2.38141E+00-1.50259E-02-1.14491E-01-1.21446E-13-1.46355E-13
 -1      3303 9.20680E+00 1.46963E+00 2.79834E-02 4.62696E-01 1.82833E-13-1.47743E-13
 -1      3304 1.21580E+01 4.93560E-01 1.07617E-01-3.77269E+00 4.64802E-14 7.56617E-14
 -1      3305 2.66755E+01 8.58559E-01-2.40688E-02 1.79724E+00-5.35683E-14 1.28467E-13
 -1      3306 1.92935E+01-3.30929E+00 1.04921E-01-5.95849E+00-1.06297E-13-2.37997E-13
 -1      3307 2.09110E+01-3.54001E+00-3.18057E-02-4.94112E+00-6.13051E-15-1.28415E-13
 -1      3308 1.79133E+01-2.33655E+00 4.56169E-02-5.60132E+00-1.29660E-13-3.05780E-13
 -1      3309 2.39675E+01-4.25503E+00 2.76461E-02 4.00903E+00 1.55691E-13 2.69670E-13
 -1      3310 2.01247E+01 1.94521E+00-2.59242E-03-5.81026E-01-7.48790E-14-1.92682E-13
 -1      3311 2.01607E+01 1.81696E+00-6.42727E-03-6.80109E-01-1.22204E-13-2.02675E-13
 -1      3312 2.42862E+01-3.93257E+00 9.87898E-03-3.17743E+00-1.45575E-13-2.41885E-13
 -1      3313 2.73096E+01 6.64085E+00-1.45637E-01-2.20055E-01 1.34323E-13-9.45112E-14
 -1      3314 2.64398E+01 5.98896E+00-9.44560E-02-7.60003E-01 6.85285E-14-3.32546E-14
 -1      3315 2.60068E+01 5.98172E+00-7.49539E-02 3.11620E-01 3.29736E-14-5.66363E-14
 -1      3316 2.77134E+01 6.26492E-01-7.46553E-02-1.73048E+00 2.22662E-13-1.11189E-13
 -1      3317 2.68792E+01-4.32945E-01-4.49917E-02-1.31774E+00 3.46213E-13-4.76841E-14
 -1      3318 2.68316E+01 1.78632E+00-6.47087E-02-2.02769E+00 1.27821E-13-5.04735E-14
 -1      3319 2.75428E+01 4.56103E+00-1.12180E-01-1.86484E+00 5.31242E-14-1.30659E-13
 -1      3320 2.00668E+01 2.11734E+00-3.34965E-03-3.81983E-01-2.28325E-14-2.08077E-13
 -1      3321 2.00912E+01 2.03955E+00-5.36880E-03-4.95427E-01-6.43196E-14-2.15964E-13
 -1      3322 2.02043E+01 1.71154E+00 6.08254E-03-4.53299E-01-7.75222E-14-1.82557E-13
 -1      3323 2.02394E+01 1.50732E+00-5.18087E-03-8.89076E-01-2.03789E-13-2.31388E-13
 -1      3324 2.02334E+01 1.52849E+00-2.35698E-03-7.77970E-01-1.64457E-13-2.07748E-13
 -1      3325 2.02058E+01 1.61492E+00-2.56849E-03-7.14981E-01-1.27750E-13-2.07127E-13
 -1      3326 2.03033E+01 4.66487E-01 1.75282E-03-6.78558E-02-7.39711E-14-9.66197E-14
 -1      3327 2.02800E+01 3.56323E-01-1.88759E-03 3.79254E-03-4.60334E-14-9.49471E-14
 -1      3328 2.02857E+01 1.07253E+00-1.84244E-04 4.21055E-01 1.78266E-13-9.13883E-14
 -1      3329 2.02706E+01 1.25223E+00-3.48384E-03 5.10502E-01 1.81121E-13-1.05440E-13
 -1      3330 2.02572E+01 1.39299E+00 6.30323E-04 4.68078E-01 1.71410E-13-1.36471E-13
 -1      3331 2.02709E+01 2.67865E-01 1.98446E-03 5.27443E-02-2.36481E-14-9.38544E-14
 -1      3332 2.02467E+01 1.95479E-01-1.19490E-03 9.85152E-02-3.16941E-14-7.51548E-14
 -1      3333 2.03179E+01 3.62067E-01-5.05331E-05 1.33606E-02-3.70675E-14-1.13781E-13
 -1      3334 2.02301E+01 1.40358E-01 1.46144E-03 1.29398E-01-6.36561E-14-7.84691E-14
 -1      3335 2.02084E+01 9.65664E-02-5.29284E-04 1.57260E-01-6.65249E-14-1.00455E-13
 -1      3336 2.02841E+01 1.99655E-01-3.32393E-04 9.65334E-02-3.74035E-14-1.50855E-13
 -1      3337 2.01879E+01 6.52781E-02 8.95773E-04 1.75514E-01-7.26770E-14-7.31189E-14
 -1      3338 2.01695E+01 4.27127E-02-7.03903E-05 1.91897E-01-6.51521E-14-6.08660E-14
 -1      3339 2.02422E+01 9.98613E-02-4.45728E-04 1.48638E-01-5.98577E-14-1.20919E-13
 -1      3340 2.01468E+01 2.92249E-02 3.94809E-04 2.02289E-01-6.70064E-14-6.23033E-14
 -1      3341 2.01311E+01 2.28191E-02 2.25748E-04 2.12315E-01-6.33991E-14-5.84129E-14
 -1      3342 2.01967E+01 4.71834E-02-4.06548E-04 1.79805E-01-7.29882E-14-8.34708E-14
 -1      3343 2.01068E+01 2.31680E-02-4.59741E-05 2.18678E-01-7.60951E-14-5.11188E-14
 -1      3344 2.00926E+01 2.96705E-02 3.87680E-04 2.26339E-01-6.55650E-14-5.40930E-14
 -1      3345 2.01495E+01 3.04858E-02-2.55635E-04 1.98474E-01-6.46930E-14-4.84704E-14
 -1      3346 2.00659E+01 4.15003E-02-4.49989E-04 2.31564E-01-2.65037E-14-4.45389E-14
 -1      3347 2.00514E+01 5.91521E-02 4.26988E-04 2.39910E-01 7.51738E-15-1.51707E-14
 -1      3348 2.00999E+01 4.24574E-02-1.21804E-06 2.11258E-01-3.58998E-14-5.66913E-14
 -1      3349 2.00208E+01 8.14755E-02-8.50978E-04 2.46005E-01-6.76927E-15-1.67516E-14
 -1      3350 2.00033E+01 1.09829E-01 3.33261E-04 2.57308E-01-3.98519E-14 1.06842E-14
 -1      3351 2.00452E+01 7.89254E-02 3.75824E-04 2.22885E-01-1.53746E-14-5.93936E-14
 -1      3352 1.99656E+01 1.42903E-01-1.28650E-03 2.65424E-01-4.39253E-14 6.45650E-15
 -1      3353 1.99415E+01 1.82715E-01 6.64053E-05 2.81252E-01-7.52455E-15 2.42373E-14
 -1      3354 1.99807E+01 1.38440E-01 9.16958E-04 2.36229E-01-4.51371E-14-8.14499E-14
 -1      3355 1.98920E+01 2.27974E-01-1.79483E-03 2.91591E-01-4.73565E-15-8.37600E-16
 -1      3356 1.98554E+01 2.81120E-01-4.52994E-04 3.12746E-01 2.64600E-16-6.34257E-14
 -1      3357 1.98987E+01 2.21979E-01 1.69265E-03 2.52177E-01-2.09353E-14 1.13646E-14
 -1      3358 1.97874E+01 3.41096E-01-2.41396E-03 3.24299E-01 2.52977E-14-6.90117E-14
 -1      3359 1.97299E+01 4.10409E-01-1.35762E-03 3.50543E-01 8.83043E-14-6.16891E-14
 -1      3360 1.97879E+01 3.32636E-01 2.80781E-03 2.69168E-01 1.10647E-15-5.72591E-14
 -1      3361 1.96336E+01 4.88514E-01-3.18214E-03 3.60579E-01 5.13435E-14-9.74456E-14
 -1      3362 1.95422E+01 5.77384E-01-2.85200E-03 3.90090E-01 1.99962E-14-1.61390E-13
 -1      3363 1.96320E+01 4.75095E-01 4.40789E-03 2.82277E-01 2.02581E-14-1.11262E-13
 -1      3364 1.94040E+01 6.77330E-01-4.14542E-03 3.93368E-01-1.92863E-15-1.68343E-13
 -1      3365 1.92597E+01 7.88763E-01-5.23258E-03 4.21886E-01-6.82114E-14-1.86361E-13
 -1      3366 1.94077E+01 6.54565E-01 6.68626E-03 2.81714E-01 1.06093E-14-1.85521E-13
 -1      3367 1.90605E+01 9.13226E-01-5.38328E-03 4.09566E-01-5.63766E-14-1.13007E-13
 -1      3368 1.88356E+01 1.04792E+00-8.89693E-03 4.29307E-01-2.08229E-14-5.66562E-14
 -1      3369 1.90827E+01 8.74605E-01 9.89957E-03 2.50644E-01 2.36491E-14-1.83322E-13
 -1      3370 1.85489E+01 1.19583E+00-7.05456E-03 3.87661E-01 2.78529E-14 4.18996E-14
 -1      3371 1.82038E+01 1.34869E+00-1.42342E-02 3.86514E-01 3.26518E-14 8.31695E-14
 -1      3372 1.86121E+01 1.13309E+00 1.44509E-02 1.62373E-01 7.52919E-14-9.78975E-14
 -1      3373 1.77922E+01 1.51064E+00-9.35281E-03 2.95685E-01-1.24826E-14 1.26927E-13
 -1      3374 1.72711E+01 1.66556E+00-2.07784E-02 2.58082E-01 4.88962E-14 5.93612E-14
 -1      3375 1.79351E+01 1.41560E+00 2.13743E-02-2.29746E-02 3.71823E-14 1.16498E-14
 -1      3376 1.66750E+01 1.81402E+00-1.32236E-02 9.44621E-02 3.28396E-14 6.14396E-15
 -1      3377 1.59080E+01 1.93399E+00-2.45823E-02 7.12445E-03 1.16688E-14-2.32696E-14
 -1      3378 1.69635E+01 1.68918E+00 3.36276E-02-3.61575E-01 7.51894E-16 7.33772E-14
 -1      3379 1.50021E+01 2.02400E+00-1.82429E-02-2.42267E-01-5.20573E-14-1.08025E-13
 -1      3380 1.38077E+01 2.01345E+00-2.74057E-02-3.56359E-01-7.89906E-14-1.64563E-13
 -1      3381 1.55460E+01 1.87863E+00 5.16731E-02-9.26984E-01-8.76469E-14 2.51292E-14
 -1      3382 1.68419E+01 1.86589E+00-2.94273E-02-6.01641E-01-9.04361E-14-1.50000E-13
 -1      3383 1.74569E+01 1.71802E+00-1.45055E-02-5.69705E-01 4.20605E-15-8.55488E-14
 -1      3384 1.79721E+01 1.53912E+00-1.57305E-02-6.28567E-01-1.00635E-13 1.89477E-14
 -1      3385 1.83600E+01 1.37146E+00-1.07058E-02-5.85869E-01-2.03660E-13-1.62502E-14
 -1      3386 1.75624E+01 1.65537E+00 2.69780E-02-1.65196E-01-7.60188E-15 8.08366E-14
 -1      3387 1.87084E+01 1.20918E+00-9.35556E-03-6.01163E-01-2.21822E-13 6.51545E-14
 -1      3388 1.89565E+01 1.05935E+00-7.61786E-03-5.47926E-01-1.58108E-13 1.57018E-13
 -1      3389 1.83852E+01 1.33596E+00 1.83127E-02-3.06789E-01-7.77633E-14 1.30891E-14
 -1      3390 1.91924E+01 9.22603E-01-5.42034E-03-5.37926E-01-7.50339E-14 1.95662E-13
 -1      3391 1.93478E+01 7.99888E-01-5.57053E-03-4.82090E-01 8.22675E-14 2.29819E-13
 -1      3392 1.89449E+01 1.04198E+00 1.24451E-02-3.54671E-01 1.15105E-14 3.34993E-13
 -1      3393 1.95063E+01 6.91680E-01-2.92799E-03-4.59232E-01 4.75235E-14 1.06835E-13
 -1      3394 1.96012E+01 5.96084E-01-4.09578E-03-4.06705E-01-1.62386E-16 1.22762E-13
 -1      3395 1.93211E+01 7.95578E-01 8.35224E-03-3.48831E-01 2.74912E-14 1.11316E-13
 -1      3396 1.97066E+01 5.13929E-01-1.39964E-03-3.78998E-01 1.15808E-13 1.02007E-14
 -1      3397 1.97630E+01 4.41802E-01-3.02870E-03-3.32675E-01 8.28654E-14-3.72476E-14
 -1      3398 1.95712E+01 5.99836E-01 5.50097E-03-3.15229E-01 7.10448E-14-1.05456E-13
 -1      3399 1.98327E+01 3.82168E-01-2.18544E-04-3.04823E-01-6.33645E-14 1.24295E-13
 -1      3400 1.98638E+01 3.28755E-01-2.38804E-03-2.65459E-01-1.96397E-13 2.46433E-13
 -1      3401 1.97350E+01 4.49362E-01 3.19160E-03-2.70406E-01 6.83779E-14-3.16722E-13
 -1      3402 1.98905E+01 3.03429E-01 9.04159E-04-2.37510E-01-2.21413E-13 2.80104E-13
 -1      3403 1.99095E+01 2.65264E-01-1.04594E-03-2.08315E-01-1.75752E-13 3.36398E-13
 -1      3404 1.98593E+01 2.95024E-01-5.04094E-04-1.67399E-01-9.01453E-14 2.53533E-13
 -1      3405 1.98167E+01 3.53848E-01 8.23684E-04-2.17293E-01-1.61450E-14 5.05878E-14
 -1      3406 2.01376E+01 1.40062E-02 1.43389E-04-2.03962E-01 4.98052E-14 7.66023E-16
 -1      3407 2.01524E+01 3.17914E-02 7.68634E-04-1.92631E-01 3.53344E-14 3.42101E-14
 -1      3408 2.00500E+01 3.68100E-03 8.46169E-04-2.48036E-01 6.10755E-14 1.81934E-14
 -1      3409 2.00490E+01 8.00162E-04-1.46795E-04-2.42690E-01 3.23983E-14-2.09988E-14
 -1      3410 2.00620E+01-2.20470E-03 7.42077E-04-2.36106E-01 5.62987E-14-4.63282E-14
 -1      3411 2.00653E+01-5.42460E-03-9.10986E-05-2.31929E-01 7.91815E-14-7.09625E-14
 -1      3412 2.00650E+01 3.22043E-03-5.85131E-04-2.33145E-01 4.99585E-14-1.25031E-14
 -1      3413 2.00618E+01-1.14899E-02 9.71166E-04-2.83345E-01 9.94115E-15 3.81350E-14
 -1      3414 2.00477E+01-1.95781E-03 1.81923E-04-2.76097E-01 1.91184E-14 2.34282E-14
 -1      3415 2.00971E+01-4.96900E-02 9.53020E-04-3.03232E-01-3.37576E-14-3.63059E-14
 -1      3416 2.00725E+01-2.70786E-02 6.53010E-04-2.97504E-01 5.43149E-15 3.22587E-15
 -1      3417 2.00451E+01-1.42157E-02-1.51448E-03-3.03170E-01 3.15502E-14-2.09091E-14
 -1      3418 2.01638E+01-1.21020E-01 8.03894E-04-3.17832E-01-4.30520E-14 1.76847E-14
 -1      3419 2.01248E+01-8.03397E-02 1.40925E-03-3.17241E-01-4.03036E-14-2.52327E-14
 -1      3420 2.00805E+01-6.32554E-02-2.26039E-03-3.35739E-01-1.37362E-14 2.89358E-15
 -1      3421 2.02737E+01-2.34246E-01 4.09296E-04-3.17370E-01-1.48727E-13 3.35991E-14
 -1      3422 2.02160E+01-1.71211E-01 2.50889E-03-3.27470E-01-8.69655E-14 1.43474E-14
 -1      3423 2.01546E+01-1.51922E-01-3.28763E-03-3.66040E-01-7.75053E-14 3.85859E-14
 -1      3424 2.04399E+01-3.93896E-01-3.91074E-04-2.87012E-01-1.38128E-13 1.40622E-14
 -1      3425 2.03597E+01-3.06864E-01 3.96412E-03-3.15571E-01-1.24216E-13 6.42098E-14
 -1      3426 2.02833E+01-2.90078E-01-4.56123E-03-3.83591E-01-1.61487E-13 8.19356E-15
 -1      3427 2.06728E+01-5.94424E-01-1.76653E-03-2.06305E-01-1.84405E-13-3.30325E-14
 -1      3428 2.05687E+01-4.87707E-01 5.66909E-03-2.63073E-01-1.29853E-13 2.92700E-14
 -1      3429 2.04842E+01-4.82063E-01-5.91057E-03-3.71199E-01-1.27563E-13 4.20618E-14
 -1      3430 2.09743E+01-8.11500E-01-3.77376E-03-5.04999E-02-1.37925E-13 2.55165E-14
 -1      3431 2.08504E+01-7.00197E-01 7.27126E-03-1.45732E-01-2.05481E-13-5.21560E-14
 -1      3432 2.07728E+01-7.19353E-01-6.94400E-03-3.03481E-01-1.87050E-13-4.87359E-14
 -1      3433 2.13287E+01-9.91270E-01-5.89148E-03 2.03566E-01-7.70896E-14 1.86721E-15
 -1      3434 2.11974E+01-9.07036E-01 8.02986E-03 6.30700E-02-4.26668E-14 4.87216E-14
 -1      3435 2.11541E+01-9.69373E-01-6.92857E-03-1.47770E-01-1.35528E-13-1.02142E-13
 -1      3436 2.16920E+01-1.04316E+00-6.78206E-03 5.62508E-01 1.98794E-14 4.78622E-14
 -1      3437 2.15764E+01-1.03675E+00 7.05619E-03 3.81666E-01-3.83914E-14 3.49573E-14
 -1      3438 2.16098E+01-1.16226E+00-4.65073E-03 1.29109E-01-5.95308E-14-1.89686E-14
 -1      3439 2.19893E+01-8.48518E-01-4.64519E-03 9.90689E-01-6.97283E-15 1.14476E-13
 -1      3440 2.19183E+01-9.83017E-01 2.79631E-03 7.97649E-01 9.65807E-15 6.49437E-14
 -1      3441 2.20818E+01-1.18182E+00 1.23257E-03 5.38644E-01-1.80379E-14 6.96798E-14
 -1      3442 2.21328E+01-3.08301E-01 2.07696E-03 1.37832E+00-5.95836E-14 1.77725E-13
 -1      3443 2.21246E+01-6.27790E-01-6.55802E-03 1.23412E+00-1.02904E-14 1.00354E-13
 -1      3444 2.24654E+01-8.82223E-01 9.07250E-03 1.03732E+00-2.30237E-14 1.70395E-13
 -1      3445 2.20593E+01 5.60957E-01 9.36356E-03 1.53367E+00-9.07117E-14 2.12284E-13
 -1      3446 2.21138E+01 8.73020E-02-1.80654E-02 1.52768E+00-1.34317E-13 1.28562E-13
 -1      3447 2.26294E+01-1.59967E-01 1.40401E-02 1.48054E+00-9.16350E-14 1.40686E-13
 -1      3448 2.18178E+01 1.56920E+00 1.84432E-02 1.30277E+00-8.85117E-14 2.11622E-13
 -1      3449 2.19088E+01 1.05553E+00-2.18111E-02 1.49281E+00-5.95812E-14 2.73392E-13
 -1      3450 2.25305E+01 8.31883E-01 2.26048E-03 1.60785E+00-1.00688E-13 2.09966E-13
 -1      3451 2.15818E+01 2.24960E+00 9.00929E-03 5.78516E-01-1.19947E-13 2.49659E-13
 -1      3452 2.16121E+01 1.95375E+00-2.52976E-02 9.34547E-01-1.46961E-13 2.75472E-13
 -1      3453 2.22340E+01 2.09546E+00 1.16426E-02 1.25457E+00-1.58769E-13 1.96436E-13
 -1      3454 2.15218E+01 2.32724E+00-4.45206E-03-3.67593E-01-9.16490E-14 2.87311E-13
 -1      3455 2.15051E+01 2.38505E+00-1.31157E-03 6.55157E-02-1.93469E-14 2.54122E-13
 -1      3456 2.20384E+01 2.66682E+00-4.66832E-03 3.71281E-01-5.68558E-14 4.25778E-13
 -1      3457 2.16953E+01 1.70469E+00-2.61280E-02-1.16016E+00 1.66906E-14 1.72234E-13
 -1      3458 2.16449E+01 2.09174E+00 1.44277E-02-8.42460E-01-6.21224E-14 1.70287E-13
 -1      3459 2.20891E+01 2.54330E+00 1.03188E-03-6.88737E-01-1.07645E-15 1.89810E-13
 -1      3460 2.19808E+01 7.36868E-01-2.45183E-02-1.54518E+00 2.65301E-13 9.80524E-14
 -1      3461 2.19074E+01 1.25946E+00 1.70454E-02-1.42316E+00 1.63585E-13 1.25386E-13
 -1      3462 2.23360E+01 1.71039E+00 1.56475E-02-1.44478E+00 1.36828E-13-2.53703E-14
 -1      3463 2.21478E+01-1.71685E-01-1.32528E-02-1.46833E+00 1.95960E-13 3.50132E-14
 -1      3464 2.21060E+01 2.64158E-01 8.27844E-03-1.52761E+00 3.09052E-13 1.06159E-13
 -1      3465 2.25886E+01 5.57801E-01 1.81057E-02-1.63736E+00 3.13379E-13 1.26584E-13
 -1      3466 2.20829E+01-7.76236E-01-3.84525E-03-1.10246E+00 2.01523E-13-9.05345E-14
 -1      3467 2.21085E+01-5.18814E-01-2.51264E-03-1.27042E+00 1.35312E-13-7.90143E-14
 -1      3468 2.26161E+01-4.42804E-01 1.13056E-02-1.36103E+00 2.38726E-13 1.12644E-13
 -1      3469 2.18211E+01-1.02155E+00 4.04228E-03-6.60613E-01 2.60878E-13-1.42309E-13
 -1      3470 2.19094E+01-9.39922E-01-6.63323E-03-8.53840E-01 2.62282E-13-1.50561E-13
 -1      3471 2.23620E+01-1.01722E+00 4.86020E-03-8.76528E-01 2.25767E-13-2.93799E-13
 -1      3472 2.14579E+01-1.00139E+00 7.67636E-03-2.73788E-01 2.12012E-13-4.17127E-14
 -1      3473 2.15814E+01-1.04025E+00-6.92614E-03-4.42105E-01 2.25369E-13-1.24089E-13
 -1      3474 2.19371E+01-1.19494E+00-1.25765E-03-3.98905E-01 1.97686E-13-2.86182E-13
 -1      3475 2.10833E+01-8.34212E-01 8.09983E-03 6.35413E-03 1.20648E-13 7.96986E-14
 -1      3476 2.12140E+01-9.33370E-01-5.23661E-03-1.17888E-01 2.13084E-13 1.65481E-14
 -1      3477 2.14609E+01-1.10271E+00-5.38948E-03-3.25398E-02 1.13573E-13-7.56051E-14
 -1      3478 2.07541E+01-6.15153E-01 6.92210E-03 1.79422E-01 1.12111E-13 5.81473E-14
 -1      3479 2.08726E+01-7.29993E-01-3.11100E-03 9.97126E-02 1.30787E-13 9.06625E-14
 -1      3480 2.10236E+01-8.77981E-01-6.97301E-03 2.00076E-01 1.17997E-13-1.45404E-13
 -1      3481 2.04947E+01-4.04309E-01 5.21285E-03 2.67670E-01-3.04649E-13 1.81868E-13
 -1      3482 2.05912E+01-5.08846E-01-1.34287E-03 2.24093E-01-9.83507E-14 1.73656E-13
 -1      3483 2.06696E+01-6.20903E-01-6.60221E-03 3.19804E-01-7.71303E-14 9.93400E-15
 -1      3484 2.03060E+01-2.30223E-01 3.56540E-03 2.97601E-01-1.89363E-13 1.84374E-14
 -1      3485 2.03788E+01-3.13464E-01-2.06466E-04 2.79886E-01-2.48276E-13 6.56682E-15
 -1      3486 2.04079E+01-3.89167E-01-5.43307E-03 3.60910E-01-1.01081E-13-1.50221E-13
 -1      3487 2.01780E+01-1.00771E-01 2.23022E-03 2.91529E-01 3.65205E-14-2.15279E-14
 -1      3488 2.02296E+01-1.60900E-01 4.02772E-04 2.90629E-01-1.02474E-13-5.09080E-14
 -1      3489 2.02286E+01-2.05919E-01-4.04483E-03 3.54091E-01-9.04637E-14-2.62220E-13
 -1      3490 2.00968E+01-1.24778E-02 1.32798E-03 2.65682E-01 2.05791E-13 4.55690E-15
 -1      3491 2.01313E+01-5.24090E-02 6.59731E-04 2.74679E-01 1.92729E-13 4.79690E-14
 -1      3492 2.01144E+01-7.44147E-02-2.81310E-03 3.21764E-01 8.57160E-14-2.96581E-13
 -1      3493 2.00502E+01 4.31048E-02 1.28887E-03 2.30828E-01 2.55409E-14-5.50292E-14
 -1      3494 2.00707E+01 1.80653E-02 6.08901E-04 2.44657E-01 1.23008E-13 8.58141E-14
 -1      3495 2.00469E+01 1.24467E-02-1.89510E-03 2.78680E-01 1.16334E-13-2.72086E-13
 -1      3496 2.02509E+01 1.41122E+00 1.80485E-03-5.54692E-01-1.18598E-13-1.94399E-13
 -1      3497 1.38592E+01-1.80128E-02 1.05918E-01-4.63697E+00-1.51882E-13-2.24341E-13
 -1      3498 1.55536E+01-1.05321E+00 3.20011E-02-5.20718E+00-1.68495E-13-3.33233E-13
 -1      3499 1.33118E+01 1.86823E+00 1.32858E-01 1.79733E+00-1.06079E-13-2.02815E-13
 -1      3500 1.33053E+01 2.05437E+00-6.43042E-04-1.87950E-02-4.46553E-14-1.39229E-13
 -1      3501 1.45446E+01 2.06458E+00-2.51468E-02-8.54474E-03-5.24563E-14-1.73228E-13
 -1      3502 2.53920E+01-2.63414E+00 2.35601E-02-4.47139E-01-7.32019E-14-2.24758E-13
 -1      3503 2.57743E+01-1.76764E+00-1.04643E-01 7.39985E-01-5.70290E-16-3.76400E-14
 -1      3504 2.29489E+01-3.64375E+00 8.02238E-02-3.85399E+00-4.89851E-14-1.78127E-13
 -1      3505 2.42441E+01-3.44750E+00-2.26280E-02-2.23666E+00-1.35570E-13-2.76952E-13
 -1      3506 2.00485E+01 3.27147E-03 9.25095E-04-2.63992E-01 2.40742E-14 4.45068E-14
 -1      3507 2.00419E+01 4.48397E-03-6.72322E-05-2.57282E-01 7.27890E-14 2.67716E-14
 -1      3508 2.00447E+01 9.08211E-03-7.28799E-04-2.50608E-01 2.55624E-14-2.32890E-14
 -1      3509 2.00361E+01 6.37936E-03-1.02115E-03-2.73997E-01 3.19025E-14-8.81027E-15
 -1      3510 1.53151E+01 2.05750E+00-3.99452E-02-3.66788E-01-1.55734E-13-1.74093E-13
 -1      3511 1.62404E+01 1.97497E+00-1.84498E-02-3.73462E-01-1.76908E-13-2.50479E-13
 -1      3512 1.64946E+01 1.91279E+00 4.74070E-02 2.14443E-01 1.23829E-14 1.17996E-14
 -1      3513 1.52501E+01 2.03975E+00 9.96482E-02 9.23680E-01-8.01082E-14-1.53265E-13
 -1      3514 2.50327E+01-4.04627E+00-2.16531E-02 2.79345E+00 1.89269E-13 3.31367E-14
 -1      3515 2.30867E+01-3.86252E+00 2.25453E-04 3.82230E+00 1.18076E-13 2.17937E-13
 -1      3516 2.59551E+01 1.01515E-02 3.72881E-02 1.63206E+00-2.53478E-14-3.95066E-14
 -1      3517 2.55623E+01 1.53041E+00-8.64037E-02 2.00342E+00-7.05165E-14-1.45446E-13
 -1      3518 2.00336E+01 2.20986E+00-3.55144E-03-1.61775E-01 3.94789E-14-2.21247E-13
 -1      3519 2.00460E+01 2.17187E+00-4.72766E-03-2.81479E-01-7.00666E-16-2.16646E-13
 -1      3520 2.01686E+01 1.86094E+00 6.99654E-03-2.85620E-01-1.04305E-14-1.94929E-13
 -1      3521 2.64225E+01 5.11011E+00-1.31071E-01-1.48335E+00-1.47660E-14 3.40700E-14
 -1      3522 2.63334E+01 3.78150E+00-7.67874E-02-1.87881E+00 8.82211E-14 1.05176E-13
 -1      3523 2.54156E+01 5.02438E+00-7.23484E-02-9.96058E-01 6.77236E-14 5.17086E-14
 -1      3524 2.02687E+01 1.32755E+00-4.61083E-04-4.16285E-01-8.78367E-14-1.49564E-13
 -1      3525 2.02980E+01 1.13404E+00-2.99639E-04-4.38871E-01-1.01329E-13-1.71010E-13
 -1      3526 2.02988E+01 9.15296E-01-2.16317E-03-3.01532E-01-8.89789E-14-1.42081E-13
 -1      3527 2.64513E+01-1.55462E+00-5.35125E-02-7.88908E-01 3.10158E-13-4.73233E-15
 -1      3528 2.60705E+01-2.15175E+00-2.19431E-03-1.64167E-01 3.00992E-13-6.10761E-14
 -1      3529 2.02053E+01 1.65160E+00-3.22279E-03 1.29136E-01 8.89705E-14-1.76992E-13
 -1      3530 2.02010E+01 1.67123E+00-2.75731E-03 3.93902E-02 5.95978E-14-1.90960E-13
 -1      3531 1.30137E+01 1.37721E+00 2.45266E-01-3.19182E+00-1.97203E-14-1.05851E-13
 -1      3532 1.31167E+01 6.03972E-01 6.94461E-02-4.07993E+00-1.07220E-13-1.11473E-13
 -1      3533 1.46291E+01 2.16510E-01-2.51766E-02-3.73195E+00-1.70277E-13-1.71772E-13
 -1      3534 2.54187E+01-3.37428E+00 1.11420E-02 1.60889E+00 1.94039E-13-7.47059E-14
 -1      3535 2.01620E+01 1.32449E-01-1.11455E-03-1.33131E-01 1.12638E-13-1.22127E-14
 -1      3536 1.98122E+01 3.32482E-01 1.21646E-03-1.44688E-01 1.26015E-13 8.97610E-14
 -1      3537 1.98307E+01 3.03642E-01-9.51432E-04-1.22366E-01 3.97087E-14 1.24864E-13
 -1      3538 1.98135E+01 3.10776E-01-2.71557E-04-8.56394E-02 3.13430E-14 5.93431E-14
 -1      3539 2.02773E+01 4.55624E-01-2.55789E-03 6.39771E-02 1.64035E-13-7.07990E-14
 -1      3540 2.03026E+01 5.87950E-01 2.16916E-03 1.53797E-01 1.64850E-13-7.84655E-14
 -1      3541 2.01723E+01 5.60756E-02-2.52473E-04-1.78806E-01 3.17863E-14 1.06280E-14
 -1      3542 2.01914E+01 9.00592E-02 1.29170E-03-1.57987E-01 6.94164E-14-2.17286E-15
 -1      3543 2.02071E+01 5.75807E-02-5.90617E-04-1.69594E-01 3.95532E-14 3.17753E-15
 -1      3544 2.00816E+01-7.14309E-03 6.04806E-04-2.27002E-01 9.00589E-14-7.07777E-14
 -1      3545 2.00886E+01-7.17586E-03 8.23459E-05-2.22863E-01 8.20486E-14-4.42130E-14
 -1      3546 2.00933E+01-2.89927E-03-5.37789E-04-2.20073E-01 7.91825E-14-1.58837E-14
 -1      3547 2.02935E+01 7.11383E-01-2.41846E-03 2.15817E-01 1.69582E-13-8.06398E-14
 -1      3548 2.03065E+01 8.96061E-01 6.20238E-04 3.39473E-01 1.64399E-13-8.10370E-14
 -1      3549 2.03082E+01 1.02222E+00 5.68893E-04 3.23260E-01 1.59910E-13-1.12690E-13
 -1      3550 2.03245E+01 7.18565E-01-2.69984E-04 1.77804E-01 1.62846E-13-7.98366E-14
 -1      3551 2.60571E+01-5.39268E-01-2.59492E-02-1.39403E+00 3.08907E-13 1.83888E-13
 -1      3552 2.00262E+01 6.36613E-02 2.80582E-05 2.17300E-01 7.59089E-14-7.58831E-14
 -1      3553 2.00023E+01 6.79047E-02-1.46953E-03 2.41150E-01 6.82765E-14-1.56064E-13
 -1      3554 2.00088E+01 8.33493E-02 1.08950E-03 2.07037E-01 2.50852E-14-9.98650E-14
 -1      3555 1.40694E+01 1.25058E+00 3.95006E-03 2.49461E+00-3.75654E-14-1.54043E-14
 -1      3556 1.98802E+01 1.99827E-01-9.15538E-04 1.47140E-01-1.10605E-13 3.90522E-13
 -1      3557 1.99003E+01 1.84766E-01 7.63616E-04 1.60371E-01-2.92499E-14 1.62088E-13
 -1      3558 2.29991E+01-3.34816E+00 1.87576E-02 3.20354E+00 2.04830E-13 1.03880E-13
 -1      3559 2.18693E+01-3.46342E+00 4.26752E-02 4.37343E+00 1.55584E-13 4.02023E-13
 -1      3560 2.02339E+01-2.74324E+00-7.07910E-03 4.51114E+00 1.31031E-13 4.08090E-13
 -1      3561 1.98049E+01 2.85516E-01-1.21831E-03 3.47145E-02 1.86395E-13 2.57364E-13
 -1      3562 1.98182E+01 2.72586E-01 5.39342E-04 6.87963E-02 2.10850E-13 2.71011E-13
 -1      3563 2.46519E+01-3.11035E+00-1.17693E-02-1.28307E+00-1.22359E-13-2.46715E-13
 -1      3564 2.44738E+01-2.35015E+00 2.27155E-02-2.96517E-01-4.99939E-14-2.63478E-13
 -1      3565 2.33702E+01-2.97571E+00-1.33581E-02-1.98903E+00-1.25089E-13-2.59823E-13
 -1      3566 2.03194E+01 7.41623E-01 6.26496E-04-2.28513E-01-8.83020E-14-1.18965E-13
 -1      3567 2.03030E+01 5.84988E-01-2.36721E-03-1.26289E-01-7.16675E-14-9.03793E-14
 -1      3568 2.03371E+01 5.93971E-01 1.28597E-03-9.96683E-02-6.47731E-14-1.10332E-13
 -1      3569 2.03289E+01 8.95108E-01 8.87881E-04-2.32609E-01-5.84738E-14-1.23678E-13
 -1      3570 1.31784E+01 1.68248E+00-3.26231E-02-1.42512E+00-1.95590E-14-1.34743E-13
 -1      3571 1.15791E+01 1.49613E+00 4.76790E-02-1.29888E+00 9.55798E-14-1.05638E-13
 -1      3572 2.53027E+01 2.17021E+00-4.37587E-02 2.07590E+00-1.50345E-13-2.02730E-13
 -1      3573 2.47696E+01 2.84330E+00-7.44339E-02 1.87832E+00-1.73080E-13-2.14334E-13
 -1      3574 2.47140E+01 1.29392E+00 2.72818E-02 1.92055E+00-1.09670E-13-2.56303E-13
 -1      3575 2.01422E+01 1.93559E+00 5.84707E-03-9.49286E-02 4.31936E-14-2.05557E-13
 -1      3576 1.72895E+01-1.53160E+00 8.14068E-02-5.08532E+00-1.63454E-13-4.17739E-13
 -1      3577 1.88038E+01-2.08302E+00-3.42547E-02-4.67386E+00-1.09156E-13-3.07587E-13
 -1      3578 1.67586E+01-8.27978E-01 4.68010E-03-4.42147E+00-1.05407E-13-3.43881E-13
 -1      3579 2.14997E+01-3.10759E+00 1.20912E-02-4.04549E+00-5.84983E-14-1.94549E-13
 -1      3580 2.54601E+01 5.18896E+00-9.85472E-02 9.42341E-01 9.11285E-14-2.22761E-13
 -1      3581 2.48334E+01 5.20843E+00-4.35239E-02 3.53545E-01 5.65797E-14-2.62815E-13
 -1      3582 2.49375E+01 4.45452E+00 2.15435E-02 1.38129E+00 2.10665E-14-2.52777E-13
 -1      3583 2.02467E+01 2.59270E-01-1.69470E-03-5.71207E-02 1.46897E-13-6.48795E-14
 -1      3584 2.02739E+01 3.48664E-01 2.71191E-03 1.59033E-03 1.44755E-13-7.03071E-14
 -1      3585 2.03158E+01 4.64372E-01-4.34610E-04 4.61108E-02 1.53653E-13-8.12324E-14
 -1      3586 2.51802E+01-7.94460E-01-6.97222E-03 1.22330E+00 1.67297E-14-1.43311E-13
 -1      3587 1.77532E+01-1.49065E+00-1.13063E-02 4.68790E+00 1.18367E-13 1.97131E-13
 -1      3588 1.60183E+01-8.49329E-01 9.53318E-02 4.92078E+00-3.74319E-14-2.89560E-13
 -1      3589 1.54861E+01-1.08001E-01-8.49618E-03 4.10170E+00-9.99444E-14-3.61447E-14
 -1      3590 2.60863E+01 2.59427E+00-7.98367E-02-2.08262E+00 1.65173E-13-8.56953E-16
 -1      3591 2.56709E+01 1.49556E+00-3.30752E-02-1.94521E+00 1.55174E-13 1.20182E-14
 -1      3592 2.50986E+01 3.41073E+00-3.82549E-02-1.85490E+00 6.39905E-14 1.47021E-13
 -1      3593 2.02133E+01 1.61808E+00-2.15482E-03 1.99933E-01 1.11757E-13-1.58950E-13
 -1      3594 2.02882E+01 1.39963E+00 5.23190E-03 1.31922E-01 8.91938E-14-1.36064E-13
 -1      3595 2.02241E+01 1.56093E+00-3.42078E-03 2.81379E-01 1.40453E-13-1.63314E-13
 -1      3596 1.98024E+01 3.06288E-01-1.07616E-03-4.33445E-02 1.72953E-13 1.51947E-13
 -1      3597 1.98017E+01 3.02002E-01 1.63378E-04-4.67247E-03 2.01183E-13 1.96103E-13
 -1      3598 1.97726E+01 3.16281E-01 1.10670E-03 2.96957E-02 1.95580E-13 2.82925E-13
 -1      3599 1.97746E+01 3.36455E-01 9.94669E-04-5.47836E-02 1.44775E-13-4.18314E-14
 -1      3600 1.98343E+01 2.46628E-01-1.29416E-03 1.00726E-01 4.55297E-14 4.86526E-13
 -1      3601 1.98568E+01 2.28675E-01 7.17883E-04 1.26035E-01-1.41668E-13 4.45455E-13
 -1      3602 1.98465E+01 2.23316E-01 1.72989E-04 1.57155E-01-5.27418E-14 4.94138E-13
 -1      3603 1.97990E+01 2.75762E-01 6.80915E-04 1.03082E-01 9.46311E-14 4.64868E-13
 -1      3604 2.02490E+01 1.41541E+00-2.71005E-03-3.50356E-01-6.39239E-14-1.76756E-13
 -1      3605 2.01071E+01-4.19278E-03 4.14792E-04-2.17833E-01 8.66606E-14-3.46498E-14
 -1      3606 2.01179E+01 2.60186E-03 3.69425E-04-2.11660E-01 9.01744E-14-2.23346E-14
 -1      3607 2.01658E+01 1.56115E-02-5.78908E-04-1.93613E-01 9.37674E-14-8.70098E-15
 -1      3608 2.01274E+01-1.46190E-03-5.46503E-04-2.08391E-01 9.84919E-14-5.56981E-14
 -1      3609 1.43200E+01 1.57631E+00 9.95115E-02-2.33788E+00-7.29781E-14-3.48853E-14
 -1      3610 1.99871E+01 1.08607E-01 8.44132E-04 1.78643E-01 3.90466E-14-2.18839E-13
 -1      3611 1.99983E+01 9.43005E-02 2.67336E-04 1.92344E-01 5.72762E-14-1.42641E-13
 -1      3612 1.99738E+01 1.06307E-01-5.52404E-04 2.07996E-01 2.79856E-14-1.56057E-14
 -1      3613 1.99604E+01 1.26696E-01-8.98893E-04 1.77694E-01 5.76425E-14 2.14067E-14
 -1      3614 2.02824E+01 1.43570E+00 5.40408E-03 2.43502E-03 4.00171E-14-1.59895E-13
 -1      3615 2.02010E+01 1.67115E+00-2.86610E-03-3.31336E-02 3.60742E-14-1.98354E-13
 -1      3616 2.02053E+01 1.64914E+00-4.52581E-03-1.24980E-01 1.48562E-14-1.81690E-13
 -1      3617 2.02464E+01 1.44069E+00-3.40420E-03 4.11630E-01 1.49363E-13-1.85354E-13
 -1      3618 2.02304E+01 1.53686E+00-1.35552E-03 3.43303E-01 1.38692E-13-1.99405E-13
 -1      3619 2.02924E+01 1.33672E+00 4.46165E-03 2.51148E-01 1.27960E-13-1.76059E-13
 -1      3620 2.02911E+01 1.25720E+00 3.17254E-03 3.54995E-01 1.51060E-13-1.62314E-13
 -1      3621 1.53660E+01 4.99510E-01-3.99934E-03-3.27927E+00-3.36788E-14-1.80200E-13
 -1      3622 1.60566E+01 2.15710E-02 5.95066E-02-3.88130E+00-7.96854E-14-3.41685E-13
 -1      3623 2.03566E+01 4.51756E-01 6.79787E-04-2.13460E-02-4.97718E-14-1.26041E-13
 -1      3624 2.03411E+01 3.44777E-01-1.53451E-03 3.09525E-02-2.75368E-14-1.35903E-13
 -1      3625 2.03320E+01 2.58089E-01 1.14592E-03 6.33692E-02-2.90430E-14-1.43526E-13
 -1      3626 2.03100E+01 1.88148E-01-1.01197E-03 9.73060E-02-4.09603E-14-1.59220E-13
 -1      3627 2.03652E+01 3.37632E-01 1.43238E-04 3.44934E-02-3.67356E-14-1.48437E-13
 -1      3628 2.02910E+01 1.34996E-01 8.95593E-04 1.17751E-01-3.11465E-14-1.16597E-13
 -1      3629 2.02669E+01 9.38241E-02-4.74029E-04 1.38898E-01-3.65001E-14-9.78854E-14
 -1      3630 2.03311E+01 1.85417E-01 6.60921E-05 8.90871E-02-1.29480E-14-1.20082E-13
 -1      3631 2.02419E+01 6.51568E-02 5.26794E-04 1.50804E-01-4.95625E-14-8.95270E-14
 -1      3632 2.02173E+01 4.59831E-02-1.34921E-04 1.63592E-01-5.86415E-14-6.72927E-14
 -1      3633 2.02835E+01 9.40872E-02-8.26210E-05 1.23268E-01-1.93847E-14-1.03207E-13
 -1      3634 2.01882E+01 3.62037E-02 1.83880E-04 1.70133E-01-5.72001E-14-5.37648E-14
 -1      3635 2.01632E+01 3.41029E-02 4.72636E-05 1.78211E-01-4.86710E-14-5.70155E-14
 -1      3636 2.02277E+01 4.99961E-02-1.09528E-04 1.43420E-01-5.04989E-14-5.34667E-14
 -1      3637 2.01306E+01 3.92574E-02-1.31695E-04 1.81780E-01-3.57600E-14-4.55838E-14
 -1      3638 2.01042E+01 5.09512E-02 7.42046E-05 1.87850E-01-2.51748E-14-4.00991E-14
 -1      3639 2.01659E+01 4.27114E-02 1.59383E-05 1.54752E-01-3.16185E-14-5.92003E-14
 -1      3640 2.00676E+01 6.86098E-02-4.24378E-04 1.89951E-01-4.26776E-14-4.42947E-14
 -1      3641 2.00377E+01 9.22215E-02-6.35021E-05 1.95760E-01-5.45493E-15-5.91139E-14
 -1      3642 2.00980E+01 6.49334E-02 2.84529E-04 1.60919E-01-1.73413E-14-5.79950E-14
 -1      3643 1.99952E+01 1.21274E-01-7.04381E-04 1.96919E-01-1.15375E-14-4.84216E-14
 -1      3644 1.99584E+01 1.56128E-01-4.00547E-04 2.03225E-01-2.59341E-14-4.84505E-14
 -1      3645 2.00210E+01 1.12159E-01 7.03078E-04 1.63643E-01-1.38067E-15-3.88669E-15
 -1      3646 1.99069E+01 1.96577E-01-9.74558E-04 2.02832E-01-1.59533E-14-1.84196E-14
 -1      3647 1.98582E+01 2.42963E-01-1.00463E-03 2.09228E-01-6.90492E-15-5.22306E-15
 -1      3648 1.99298E+01 1.82213E-01 1.29546E-03 1.62448E-01 1.59822E-14 1.94410E-14
 -1      3649 1.97931E+01 2.95709E-01-1.22610E-03 2.05213E-01-2.51921E-14-1.73852E-14
 -1      3650 1.97252E+01 3.54591E-01-1.98437E-03 2.09750E-01-1.88035E-14-5.98863E-14
 -1      3651 1.98163E+01 2.74668E-01 2.11196E-03 1.54102E-01-1.29223E-14-7.47304E-15
 -1      3652 1.96401E+01 4.21092E-01-1.43237E-03 1.98044E-01-9.23342E-15-6.29371E-14
 -1      3653 1.95424E+01 4.93604E-01-3.50349E-03 1.96587E-01 3.66459E-14-8.43230E-14
 -1      3654 1.96693E+01 3.90037E-01 3.21599E-03 1.31664E-01-1.35863E-14 1.86514E-14
 -1      3655 1.94292E+01 5.75251E-01-1.54270E-03 1.70321E-01 7.04909E-14-8.24432E-14
 -1      3656 1.92869E+01 6.61786E-01-5.79367E-03 1.55562E-01 3.94137E-14-7.38129E-14
 -1      3657 1.94737E+01 5.28522E-01 4.67927E-03 8.30483E-02 1.42222E-14 5.36625E-14
 -1      3658 1.91350E+01 7.58742E-01-1.47995E-03 1.03973E-01 5.12188E-15-1.12351E-13
 -1      3659 1.89275E+01 8.57320E-01-9.16956E-03 6.40913E-02 6.02657E-14-1.00472E-13
 -1      3660 1.92098E+01 6.87878E-01 6.56753E-03-1.10028E-02 3.49459E-14-4.06196E-16
 -1      3661 1.87244E+01 9.66438E-01-1.13184E-03-2.88453E-02 1.17876E-13-1.14643E-13
 -1      3662 1.84236E+01 1.06989E+00-1.40167E-02-1.11829E-01 8.79528E-14-9.10515E-14
 -1      3663 1.88533E+01 8.59809E-01 8.92073E-03-1.79556E-01 8.88196E-14-1.10895E-13
 -1      3664 1.81548E+01 1.18109E+00-2.59361E-04-2.69058E-01 6.46230E-14-1.11853E-13
 -1      3665 1.77219E+01 1.27325E+00-2.03476E-02-4.21556E-01 2.47601E-14-5.04485E-14
 -1      3666 1.83754E+01 1.02401E+00 1.17945E-02-4.64694E-01 9.41075E-14-1.92828E-13
 -1      3667 1.73738E+01 1.36013E+00 1.40169E-03-6.75195E-01 5.74584E-15-1.47623E-14
 -1      3668 1.67675E+01 1.41422E+00-2.49465E-02-9.37007E-01-6.88945E-15-7.19130E-14
 -1      3669 1.77472E+01 1.13990E+00 1.65879E-02-9.24087E-01 4.82819E-14-1.70924E-13
 -1      3670 1.61650E+01 1.50135E+00 1.10346E-02-1.27954E+00-9.57452E-14-4.39943E-14
 -1      3671 1.52926E+01 1.44496E+00-2.52172E-02-1.71239E+00-9.95783E-14-1.12799E-13
 -1      3672 1.53250E+01 1.07667E+00 6.88045E-02-2.61064E+00-3.68421E-14-7.63014E-14
 -1      3673 1.67969E+01 1.20709E+00 3.15319E-02-1.61342E+00-5.44818E-14-1.10465E-13
 -1      3674 1.99201E+01 1.62733E-01-7.71599E-04 1.68326E-01-7.57754E-14 9.59704E-14
 -1      3675 1.99414E+01 1.46647E-01 5.85198E-04 1.76479E-01-3.83500E-15 1.52711E-13
 -1      3676 1.99453E+01 1.36423E-01 1.09383E-04 1.92175E-01-2.55277E-14 8.25611E-14
 -1      3677 1.98955E+01 1.75385E-01-5.98506E-04 1.84411E-01-4.81329E-14 3.06035E-13
 -1      3678 2.45271E+01-1.25504E+00 1.84890E-02 9.45302E-01 4.84578E-14-1.14368E-13
 -1      3679 2.43805E+01-1.99573E-01-6.99812E-02 1.63597E+00-4.88281E-15-4.75644E-14
 -1      3680 1.81105E+01 1.28209E+00-1.61825E-02 1.49905E-02-5.05918E-14 2.50347E-14
 -1      3681 1.84708E+01 1.16165E+00-2.99708E-03-5.28226E-02 1.36122E-15-2.05509E-14
 -1      3682 1.87264E+01 1.03633E+00-1.07161E-02-1.42101E-01 2.96710E-14-8.06917E-16
 -1      3683 1.89697E+01 9.23651E-01-2.81264E-03-1.66672E-01 6.52322E-14 1.51614E-13
 -1      3684 1.85987E+01 1.06048E+00 1.23473E-02 1.42970E-01 8.47583E-14-6.06579E-15
 -1      3685 1.91537E+01 8.14674E-01-6.77420E-03-2.11074E-01-3.84865E-14 5.61315E-14
 -1      3686 1.93157E+01 7.18377E-01-2.50470E-03-2.10700E-01-6.03618E-14-4.61346E-14
 -1      3687 1.90349E+01 8.60530E-01 8.86715E-03-2.23751E-02-5.64841E-14-1.63199E-13
 -1      3688 1.94466E+01 6.29395E-01-4.15867E-03-2.27865E-01-8.03950E-14-7.05288E-15
 -1      3689 1.95530E+01 5.51644E-01-2.14016E-03-2.14587E-01-8.58688E-16-1.44923E-13
 -1      3690 1.93456E+01 6.81406E-01 6.26031E-03-1.05247E-01-8.17302E-14 1.21343E-13
 -1      3691 1.96457E+01 4.82632E-01-2.15403E-03-2.15772E-01 2.51430E-13-2.97491E-13
 -1      3692 1.97132E+01 4.21380E-01-2.12090E-03-1.97741E-01 2.35851E-13-5.65443E-14
 -1      3693 1.95641E+01 5.31762E-01 4.25049E-03-1.37878E-01 7.87042E-14-4.86184E-14
 -1      3694 1.97543E+01 3.91395E-01 4.72257E-04-1.83283E-01 1.73214E-13-6.30688E-14
 -1      3695 1.97776E+01 3.55664E-01-1.49731E-03-1.55919E-01 1.43247E-13-6.18984E-14
 -1      3696 1.97531E+01 3.65065E-01-2.09114E-05-1.09161E-01 2.51521E-13 4.08979E-14
 -1      3697 1.96864E+01 4.30191E-01 2.01476E-03-1.30678E-01 2.74317E-13-1.13162E-13
 -1      3698 2.00621E+01-5.11436E-02 1.86052E-03-3.64355E-01-7.20706E-14 6.61968E-14
 -1      3699 2.00339E+01-2.01696E-02 5.47814E-04-3.45107E-01-1.16058E-14 3.87051E-14
 -1      3700 2.00279E+01 1.80305E-03 1.59660E-03-3.16350E-01 3.86936E-14-1.92789E-14
 -1      3701 2.00159E+01 1.50943E-02 4.09398E-05-2.98782E-01 3.47607E-14-2.90451E-14
 -1      3702 1.99928E+01 6.36077E-03-1.87918E-03-3.41638E-01-3.52717E-14 9.50028E-14
 -1      3703 2.02832E+01-3.04863E-01 1.87031E-03-4.59906E-01-1.33741E-13-8.71930E-15
 -1      3704 2.02016E+01-2.18692E-01 2.84246E-03-4.50037E-01-1.19671E-13 5.03047E-14
 -1      3705 2.05112E+01-5.25482E-01 1.09880E-03-4.79442E-01-1.76052E-13-1.46234E-14
 -1      3706 2.03915E+01-4.05637E-01 4.87402E-03-4.87325E-01-1.42025E-13-7.14495E-14
 -1      3707 2.02644E+01-3.57643E-01-6.55286E-03-5.63990E-01-1.06382E-13-6.22278E-14
 -1      3708 2.08448E+01-8.05014E-01-7.85525E-04-4.45092E-01-1.47746E-13-1.30641E-13
 -1      3709 2.06829E+01-6.56432E-01 7.50766E-03-4.85314E-01-1.52963E-13-9.89193E-14
 -1      3710 2.05267E+01-6.17382E-01-8.94980E-03-6.18315E-01-8.76133E-14-1.54664E-13
 -1      3711 2.12941E+01-1.10984E+00-3.94684E-03-3.15669E-01-1.63915E-13-1.46768E-13
 -1      3712 2.10940E+01-9.53391E-01 1.03780E-02-4.06456E-01-1.82357E-13-1.48600E-13
 -1      3713 2.09230E+01-9.45294E-01-1.12788E-02-6.13780E-01-1.21459E-13-1.93913E-13
 -1      3714 2.18408E+01-1.35955E+00-7.90086E-03-4.55529E-02-6.60110E-14-2.74388E-14
 -1      3715 2.16212E+01-1.24287E+00 1.21564E-02-2.02833E-01-1.15676E-13-1.13757E-13
 -1      3716 2.14678E+01-1.29995E+00-1.41321E-02-4.91765E-01-1.92882E-13-2.10655E-13
 -1      3717 2.24203E+01-1.41023E+00-1.08009E-02 3.98927E-01-1.35408E-13 9.80559E-14
 -1      3718 2.22241E+01-1.41374E+00 1.29624E-02 1.73388E-01-1.20590E-13 8.75927E-15
 -1      3719 2.21560E+01-1.57912E+00-1.42957E-02-1.83181E-01-1.68981E-13-1.37641E-13
 -1      3720 2.29193E+01-1.06282E+00-6.65989E-03 9.76458E-01 1.56038E-14 1.66982E-13
 -1      3721 2.27894E+01-1.29614E+00 6.50991E-03 7.19155E-01-1.28782E-14 1.63495E-13
 -1      3722 2.29013E+01-1.55648E+00 1.51779E-03 3.50521E-01-1.33069E-13 1.03112E-13
 -1      3723 2.32459E+01-1.47645E-01 6.05042E-03 1.52753E+00-6.93889E-15 9.57836E-14
 -1      3724 2.32159E+01-6.96493E-01-1.76285E-02 1.32943E+00 1.49056E-14 1.26812E-13
 -1      3725 2.32843E+01 1.65111E+00-2.25645E-02 1.73623E+00-1.51310E-13 4.79634E-14
 -1      3726 2.34055E+01 9.03800E-01-2.43997E-02 1.76998E+00-8.96310E-14 4.73527E-14
 -1      3727 2.31651E+01 2.40669E+00 4.81632E-03 1.45991E+00-2.06534E-13 1.25473E-13
 -1      3728 2.25602E+01 3.37514E+00 7.95261E-03 1.69346E-01 5.80061E-14 1.38280E-13
 -1      3729 2.25380E+01 3.13988E+00-4.60462E-02 6.94599E-01-2.86739E-14 2.07176E-13
 -1      3730 2.26171E+01 2.89259E+00-3.27998E-02-1.01295E+00 5.25118E-14-4.13298E-14
 -1      3731 2.25519E+01 3.24247E+00-1.19721E-02-5.52110E-01 7.18540E-14 5.34616E-14
 -1      3732 2.32082E+01 3.86774E+00 7.14467E-03-1.86298E-01 1.16122E-13-1.03674E-13
 -1      3733 2.35558E+01 1.62551E+00-4.39229E-02-1.77483E+00 2.25946E-13-9.09463E-14
 -1      3734 2.34170E+01 2.41323E+00-1.32665E-02-1.57242E+00 9.11320E-14-5.88635E-14
 -1      3735 2.30617E+01-9.40202E-01-5.60022E-03-1.13380E+00 3.05823E-13 6.15690E-14
 -1      3736 2.31149E+01-5.30869E-01-4.47677E-03-1.34545E+00 2.98250E-13 6.27135E-14
 -1      3737 2.26226E+01-1.36965E+00 8.73913E-03-5.33486E-01 2.83596E-13-8.87900E-14
 -1      3738 2.27823E+01-1.22206E+00-9.44485E-03-7.86497E-01 3.38835E-13 9.09141E-15
 -1      3739 2.33246E+01-1.31134E+00-4.10359E-03-7.95559E-01 3.73948E-13 2.25735E-14
 -1      3740 2.20308E+01-1.37324E+00 1.32559E-02-3.64838E-02 1.33840E-13-1.29598E-13
 -1      3741 2.22416E+01-1.42032E+00-1.01353E-02-2.41877E-01 1.87430E-13-1.91777E-13
 -1      3742 2.26660E+01-1.61607E+00-4.69768E-03-1.35347E-01 2.77427E-13-3.54194E-14
 -1      3743 2.14436E+01-1.14590E+00 1.22797E-02 2.78186E-01 7.56141E-14-1.49945E-13
 -1      3744 2.16602E+01-1.28329E+00-6.16834E-03 1.43335E-01 1.09027E-13-1.92394E-13
 -1      3745 2.19276E+01-1.49322E+00-1.03643E-02 3.10199E-01 1.67055E-13-2.15484E-13
 -1      3746 2.09482E+01-8.39710E-01 9.62378E-03 4.33870E-01 1.48978E-13-1.98149E-13
 -1      3747 2.11380E+01-9.99941E-01-2.66546E-03 3.62866E-01 1.87165E-13-1.72353E-13
 -1      3748 2.12786E+01-1.17398E+00-1.19205E-02 5.44044E-01 1.18515E-13-2.96013E-13
 -1      3749 2.05742E+01-5.47349E-01 6.70114E-03 4.79004E-01-9.07218E-14-1.94323E-13
 -1      3750 2.07235E+01-6.91401E-01-1.94367E-05 4.53300E-01-1.27793E-14-2.12122E-13
 -1      3751 2.07772E+01-8.14941E-01-1.03337E-02 6.15626E-01 5.36066E-14-1.62379E-13
 -1      3752 2.03141E+01-3.08443E-01 4.19586E-03 4.59498E-01 3.62513E-14-2.87397E-13
 -1      3753 2.04222E+01-4.21672E-01 1.31525E-03 4.61818E-01-9.84835E-15-1.74763E-13
 -1      3754 2.04233E+01-4.99316E-01-8.06137E-03 5.92278E-01-8.10988E-14-3.10140E-13
 -1      3755 2.01469E+01-1.32851E-01 2.37348E-03 4.08389E-01-4.74264E-14-2.97734E-13
 -1      3756 2.02197E+01-2.13610E-01 1.80751E-03 4.25534E-01-5.65332E-14-3.18624E-13
 -1      3757 2.01928E+01-2.55138E-01-5.71871E-03 5.22339E-01 4.65389E-14-1.32500E-13
 -1      3758 2.00484E+01-1.41545E-02 1.27212E-03 3.46265E-01 1.02684E-13-2.10653E-13
 -1      3759 2.00937E+01-6.71926E-02 1.77651E-03 3.69805E-01-4.85226E-14-3.09045E-13
 -1      3760 2.00552E+01-8.37888E-02-3.82821E-03 4.37394E-01 7.95311E-15-1.46995E-13
 -1      3761 1.99989E+01 5.94910E-02 1.42022E-03 2.84501E-01 9.12267E-14-1.67035E-13
 -1      3762 2.00226E+01 2.66404E-02 1.36854E-03 3.08814E-01 2.16924E-13-8.97645E-14
 -1      3763 1.99813E+01 2.70931E-02-2.54250E-03 3.54159E-01 3.94395E-14 2.53462E-14
 -1      3764 2.55466E+01-2.97210E+00-3.94997E-02 7.09643E-01 2.60135E-13-3.71491E-14
 -1      3765 2.45192E+01-3.24252E+00-3.21809E-03 1.68101E+00 2.29052E-13 2.89994E-14
 -1      3766 2.53018E+01-2.30108E+00-1.20085E-02-9.50418E-03 3.02242E-13 2.95215E-14
 -1      3767 2.02429E+01 1.47779E+00-3.78135E-03-2.85801E-01-6.35421E-14-1.62456E-13
 -1      3768 2.03243E+01 1.14235E+00 4.40148E-03-2.62679E-01-6.28135E-14-1.45184E-13
 -1      3769 2.02097E+01 1.32964E-01-8.34030E-04-1.33526E-01 7.73274E-14-9.86633E-15
 -1      3770 2.02334E+01 1.89983E-01 1.98995E-03-9.74449E-02 1.19658E-13-3.18067E-14
 -1      3771 2.02875E+01 2.64825E-01-6.36952E-04-6.04702E-02 1.04969E-13-5.18782E-14
 -1      3772 2.02490E+01 1.35965E-01-5.40759E-04-1.28447E-01 6.01186E-14 9.64151E-15
 -1      3773 2.02312E+01 1.53791E+00-2.22564E-03-2.05689E-01-2.00507E-14-1.64975E-13
 -1      3774 2.41708E+01 4.55555E+00-8.67806E-02-5.78967E-01 1.09503E-13-1.65417E-13
 -1      3775 2.42407E+01 4.01310E+00-3.18858E-02-1.28753E+00 1.53561E-13-6.16581E-14
 -1      3776 2.06686E+01-2.49940E+00 7.02239E-02-4.10792E+00-1.14188E-13-1.92615E-13
 -1      3777 2.20267E+01-2.85893E+00-2.53259E-02-3.11730E+00-1.61098E-13-1.23680E-13
 -1      3778 1.97760E+01-1.92167E+00 2.80743E-03-3.86228E+00-1.55865E-13-2.33016E-13
 -1      3779 1.51107E+01 8.82578E-01 8.01306E-02 3.09882E+00-6.98478E-14-8.46198E-14
 -1      3780 1.50117E+01 1.35284E+00-4.68101E-02 1.95729E+00 4.23923E-14-1.05480E-13
 -1      3781 1.63488E+01 1.93833E-01-5.27093E-03 3.32723E+00-2.57294E-14 3.02015E-14
 -1      3782 2.01408E+01-1.49204E-01 2.01874E-03-4.15512E-01-1.13106E-13 1.14680E-13
 -1      3783 2.00899E+01-9.37376E-02 1.43545E-03-3.97902E-01-6.65464E-14 7.97673E-14
 -1      3784 2.00240E+01-5.73575E-02-2.96052E-03-4.09877E-01-8.38238E-14 1.07110E-13
 -1      3785 2.56353E+01 2.84723E-01-5.21029E-02-1.78981E+00 2.22398E-13 6.06737E-14
 -1      3786 2.53261E+01-7.16290E-01-2.05543E-02-1.30113E+00 3.03103E-13 7.12520E-14
 -1      3787 2.49592E+01 1.27730E+00-1.70489E-04-1.95981E+00 1.63765E-13 6.61277E-15
 -1      3788 1.72292E+01 1.52096E+00-2.12996E-02 3.09886E-01 3.41498E-14 5.52310E-14
 -1      3789 1.77587E+01 1.41494E+00-2.02756E-03 1.71450E-01 1.42183E-14 3.76782E-14
 -1      3790 1.79891E+01 1.25731E+00 1.50484E-02 4.40890E-01-2.60877E-14 8.67557E-14
 -1      3791 2.00668E+01 1.48328E-02 8.71829E-04-2.22104E-01 3.44893E-14-3.09531E-14
 -1      3792 2.00785E+01 9.24350E-03-2.10873E-04-2.13871E-01 6.68324E-14-3.54754E-14
 -1      3793 2.03074E+01 1.07002E+00-1.60648E-03 2.80444E-01 1.42697E-13-1.49650E-13
 -1      3794 2.03552E+01 5.65407E-01-1.57901E-03-5.94412E-02-7.26246E-14-1.19720E-13
 -1      3795 2.03798E+01 5.53800E-01 1.09434E-03-3.93310E-02-6.90784E-14-1.35041E-13
 -1      3796 2.03620E+01 6.94975E-01-7.35703E-05-1.21163E-01-6.71965E-14-1.31225E-13
 -1      3797 1.62665E+01 7.44863E-01 4.20776E-03-2.62709E+00-5.53810E-15-1.67174E-13
 -1      3798 1.72273E+01-5.61801E-01-2.05545E-02-3.82509E+00-5.95860E-14-3.07188E-13
 -1      3799 2.02342E+01 5.37727E-02-1.78985E-04-1.57910E-01 8.30956E-14-5.86032E-14
 -1      3800 2.02568E+01 8.60533E-02 8.14224E-04-1.41159E-01 4.94901E-14-4.41123E-14
 -1      3801 2.00991E+01 1.34420E-02-4.69852E-04-1.93203E-01 5.44726E-14-8.73608E-14
 -1      3802 2.01028E+01 5.04083E-03 6.72256E-04-2.05671E-01 7.58259E-14-5.82855E-14
 -1      3803 2.01183E+01 2.21439E-03-6.49701E-05-1.98972E-01 6.47005E-14-5.20795E-14
 -1      3804 2.42066E+01-4.50141E-01-3.94183E-03-1.45119E+00 2.70318E-13-2.08466E-14
 -1      3805 2.46097E+01-1.24572E+00 3.03023E-03-1.03752E+00 3.33846E-13-3.36597E-14
 -1      3806 2.01065E+01-1.73806E-01-4.50882E-03-4.87454E-01-5.93092E-14 1.26035E-13
 -1      3807 1.57789E+01 1.49661E+00 9.01633E-03 1.46797E+00-3.14722E-14-1.77662E-14
 -1      3808 2.03025E+01 1.32519E+00 4.97654E-03-1.37573E-01-2.69188E-14-1.47134E-13
 -1      3809 2.37840E+01-1.60430E+00-1.20054E-02-5.86431E-01 3.88888E-13-3.95335E-14
 -1      3810 2.47036E+01-1.90750E+00-2.20991E-02-3.65824E-01 3.31755E-13 1.11470E-13
 -1      3811 2.44197E+01-2.43320E+00 3.10600E-02 3.81876E-01 3.39738E-13 5.99520E-14
 -1      3812 2.35409E+01-1.80787E+00 2.81956E-02-2.27238E-01 3.83442E-13 4.00079E-14
 -1      3813 2.03355E+01 7.58744E-01-2.74678E-03 1.55336E-01 1.39399E-13-1.15365E-13
 -1      3814 2.03397E+01 9.06312E-01 3.19968E-03 2.22268E-01 1.27905E-13-1.29749E-13
 -1      3815 2.03146E+01 1.11956E+00-9.14180E-04 2.47671E-01 1.22318E-13-2.07021E-13
 -1      3816 1.62931E+01 1.56426E+00-3.24555E-02 9.06964E-01-8.62786E-14 6.37268E-14
 -1      3817 1.69139E+01 1.57168E+00 6.40652E-03 6.04740E-01 2.72835E-14 1.71712E-14
 -1      3818 1.72772E+01 1.33052E+00 8.10480E-03 9.55025E-01 4.95172E-14 1.34194E-13
 -1      3819 1.99951E+01 3.26225E-02-1.17914E-03-2.86552E-01 3.56515E-14 1.38587E-14
 -1      3820 2.00237E+01 2.27773E-02 1.32566E-03-2.76093E-01 2.72370E-14 1.37633E-14
 -1      3821 2.00227E+01 2.46457E-02-2.02314E-04-2.61671E-01 2.47358E-14-3.21465E-15
 -1      3822 2.35913E+01-1.04759E+00 1.53756E-02 1.04434E+00 3.96688E-14 8.97364E-14
 -1      3823 2.37521E+01 3.04799E+00-1.05042E-02 1.34589E+00-1.52645E-13-9.91585E-14
 -1      3824 2.36052E+01 7.41230E-01-7.36043E-03-1.72155E+00 2.66516E-13-5.74410E-14
 -1      3825 2.36816E+01 2.31526E-02-1.90994E-02-1.65151E+00 2.16857E-13 2.89187E-14
 -1      3826 2.40837E+01-2.93514E+00 1.06393E-02 1.47256E+00 2.88778E-13 8.07358E-14
 -1      3827 2.37353E+01-3.33648E+00 1.75367E-03 2.40708E+00 2.61497E-13 8.53919E-14
 -1      3828 2.24647E+01-3.04212E+00-2.21815E-02 2.97121E+00 2.21760E-13 2.05992E-13
 -1      3829 1.99728E+01 8.71722E-02 1.01021E-04 2.60592E-01 9.47570E-15-9.62296E-14
 -1      3830 1.99352E+01 9.67891E-02-2.28979E-03 2.89285E-01 1.04759E-13 3.95990E-14
 -1      3831 1.99538E+01 1.11828E-01 6.48953E-04 2.42222E-01-5.88823E-14-9.75701E-14
 -1      3832 2.03581E+01 5.99195E-01 3.42481E-03 9.05144E-02 1.53927E-13-8.00875E-14
 -1      3833 2.03609E+01 7.67253E-01-2.07255E-04 1.24394E-01 1.17342E-13-1.29301E-13
 -1      3834 2.03191E+01 1.21146E+00-2.77196E-03 3.14294E-02 5.99092E-14-1.12002E-13
 -1      3835 2.03169E+01 1.21029E+00-3.84025E-03-2.87970E-02 1.13845E-14-1.30695E-13
 -1      3836 2.06798E+01-2.40953E+00-2.48698E-03 3.79678E+00 1.00473E-13 4.64114E-13
 -1      3837 1.93534E+01-1.95966E+00 6.91496E-02 4.43635E+00 4.04763E-14 6.08568E-13
 -1      3838 1.83432E+01-1.29930E+00-2.44964E-02 4.07698E+00 5.88002E-14 4.14720E-13
 -1      3839 2.40682E+01 3.09987E+00-1.53511E-02-1.47677E+00 1.52198E-13-3.68440E-14
 -1      3840 1.97500E+01 3.00527E-01-1.44515E-03 1.14394E-01 1.39607E-13 4.16751E-13
 -1      3841 1.97765E+01 2.78771E-01 1.03227E-03 1.47516E-01 1.37146E-13 6.89161E-13
 -1      3842 2.03360E+01 9.50735E-01-9.24615E-04-1.89020E-01-6.12840E-14-1.39749E-13
 -1      3843 1.98068E+01 2.39917E-01-1.52462E-03 1.76444E-01 9.47343E-15 5.13147E-13
 -1      3844 1.98414E+01 2.16244E-01 1.51609E-03 1.98802E-01-5.75000E-16 3.61164E-13
 -1      3845 1.97663E+01 2.68388E-01 3.90207E-04 1.92232E-01 1.02690E-13 7.77262E-13
 -1      3846 2.28335E+01-2.79884E+00 2.35382E-02-2.28662E+00-1.75295E-13-2.48943E-13
 -1      3847 2.31477E+01-2.55333E+00-1.46047E-03-1.41875E+00-1.45000E-13-3.01626E-13
 -1      3848 2.18789E+01-2.43757E+00-2.06029E-02-2.51765E+00-1.71554E-13-1.89430E-13
 -1      3849 1.98605E+01 1.79949E-01 1.52615E-04 2.43631E-01-3.08859E-14 3.55044E-13
 -1      3850 1.98903E+01 1.65118E-01-6.78189E-04 2.19497E-01-4.30531E-14 3.79026E-13
 -1      3851 2.00390E+01 2.37003E-02 1.08400E-03-2.44908E-01-1.08025E-15-3.00338E-14
 -1      3852 2.00455E+01 1.95360E-02-2.65851E-04-2.33882E-01 1.11314E-14-5.12633E-14
 -1      3853 2.00184E+01 3.51114E-02-7.63415E-04-2.44796E-01-1.09933E-15 2.87379E-14
 -1      3854 2.03408E+01 4.63742E-01-2.55331E-03 2.37638E-02 1.26367E-13-7.09722E-14
 -1      3855 1.99180E+01 1.45447E-01 2.45736E-04 2.24390E-01-1.03988E-13 2.55881E-13
 -1      3856 2.03240E+01 1.16734E+00-1.68465E-03 1.31565E-01 9.48437E-14-1.35542E-13
 -1      3857 2.03198E+01 1.19799E+00-2.13000E-03 7.62355E-02 7.03700E-14-1.32635E-13
 -1      3858 2.03742E+01 1.01492E+00 4.82171E-03 4.31753E-02 5.95339E-14-9.68055E-14
 -1      3859 2.01886E+01 1.56948E-02 1.80251E-04-1.78414E-01 8.64577E-14-7.64974E-14
 -1      3860 2.02095E+01 3.11645E-02 4.53237E-04-1.68219E-01 8.08306E-14-6.28761E-14
 -1      3861 2.02515E+01 5.39563E-02-3.16374E-04-1.42759E-01 9.84982E-14-7.67531E-14
 -1      3862 1.01402E+01 1.42248E+00-3.55160E-02-6.45898E-01 1.61739E-13-1.89807E-13
 -1      3863 1.97211E+01 3.46811E-01-1.17023E-03 2.95648E-02 2.18906E-13 2.38293E-13
 -1      3864 1.97315E+01 3.32230E-01 3.84580E-04 7.15632E-02 2.10088E-13 3.77955E-13
 -1      3865 1.97060E+01 3.37267E-01 9.85280E-04 1.18824E-01 2.78734E-13 5.31159E-13
 -1      3866 2.41241E+01-1.79214E+00-1.77942E-02 5.21045E-01-7.41356E-15-1.02310E-13
 -1      3867 2.00548E+01 2.54491E-02-5.43870E-04-2.14618E-01 1.14460E-14-3.53026E-14
 -1      3868 2.35763E+01-2.06828E+00-4.60321E-03-1.22484E-01-9.50858E-14-1.61540E-13
 -1      3869 1.99441E+01 1.25507E-01 3.59824E-04 2.24452E-01-7.48308E-14 3.89877E-14
 -1      3870 2.03671E+01 2.29362E-01 1.01526E-03 5.93892E-02-2.78147E-15-9.10462E-14
 -1      3871 2.03429E+01 1.66464E-01-7.18759E-04 8.19157E-02 8.86558E-15-7.51063E-14
 -1      3872 2.03202E+01 1.19060E-01 5.30684E-04 9.28475E-02 1.95062E-16-8.92757E-14
 -1      3873 2.02926E+01 8.36628E-02-3.82848E-04 1.06578E-01-1.47377E-14-6.57526E-14
 -1      3874 2.03497E+01 1.58424E-01 2.01747E-04 6.63705E-02 9.06759E-15-4.21733E-14
 -1      3875 2.02629E+01 6.03796E-02 2.65518E-04 1.12069E-01-2.74047E-14-4.94382E-14
 -1      3876 2.02324E+01 4.66020E-02-1.87573E-04 1.20181E-01-4.67572E-14-2.74391E-14
 -1      3877 2.02951E+01 8.12845E-02 2.73521E-05 8.37622E-02-1.17148E-14-5.19810E-14
 -1      3878 2.01979E+01 4.20215E-02 7.66984E-05 1.22181E-01-5.40140E-14-9.89606E-15
 -1      3879 2.01648E+01 4.50064E-02-1.50608E-04 1.26714E-01-1.84930E-14-1.05533E-14
 -1      3880 2.02298E+01 4.96279E-02 2.87421E-05 9.23675E-02-4.35524E-14-3.36048E-16
 -1      3881 2.01262E+01 5.52040E-02-8.68042E-05 1.26156E-01-2.86491E-15-5.76825E-14
 -1      3882 2.00894E+01 7.15592E-02-2.79551E-04 1.28294E-01-3.40633E-15-3.60560E-14
 -1      3883 2.01568E+01 5.29353E-02 1.75601E-04 9.45480E-02-3.54488E-14-5.93967E-16
 -1      3884 2.00463E+01 9.39526E-02-2.18501E-04 1.25169E-01-1.12386E-14-1.24598E-14
 -1      3885 2.00034E+01 1.21520E-01-5.96254E-04 1.25078E-01 2.36819E-14 9.92796E-15
 -1      3886 2.00757E+01 8.36382E-02 4.20431E-04 9.08639E-02 2.38341E-15 2.06986E-14
 -1      3887 1.99542E+01 1.54617E-01-2.97962E-04 1.18349E-01 1.96971E-14 1.90928E-14
 -1      3888 1.99019E+01 1.92081E-01-1.14899E-03 1.14978E-01 1.37568E-14 2.50814E-14
 -1      3889 1.99843E+01 1.36683E-01 8.01900E-04 7.99259E-02 3.89422E-14 7.79213E-14
 -1      3890 1.98442E+01 2.35076E-01-2.86525E-04 1.02219E-01 1.32521E-14-2.15321E-14
 -1      3891 1.97770E+01 2.81577E-01-2.00857E-03 9.28719E-02 4.35214E-15 7.15992E-15
 -1      3892 1.98779E+01 2.08323E-01 1.31538E-03 5.79226E-02-6.99184E-15-3.82425E-16
 -1      3893 1.97076E+01 3.33965E-01-1.20854E-04 6.98274E-02 4.15332E-14 3.31440E-14
 -1      3894 1.96184E+01 3.88509E-01-3.27757E-03 4.95796E-02 3.94045E-14 7.99061E-14
 -1      3895 1.97503E+01 2.95328E-01 1.95563E-03 1.77225E-02 4.26936E-14 3.08714E-14
 -1      3896 1.95337E+01 4.49385E-01 2.96812E-04 9.52038E-03 8.74425E-15 1.81676E-13
 -1      3897 1.94131E+01 5.09940E-01-5.08824E-03-2.96493E-02 1.51992E-14 1.47611E-13
 -1      3898 1.95938E+01 3.93648E-01 2.70665E-03-5.22275E-02 6.77447E-14 1.36899E-13
 -1      3899 1.93095E+01 5.76893E-01 1.11244E-03-9.67385E-02-1.26518E-14 1.13705E-13
 -1      3900 1.91454E+01 6.38939E-01-7.60023E-03-1.67097E-01 4.78860E-15 4.67616E-14
 -1      3901 1.93996E+01 4.96330E-01 3.51127E-03-1.69363E-01-1.27004E-14 1.72208E-13
 -1      3902 1.90205E+01 7.06281E-01 2.53048E-03-2.75437E-01 4.69957E-14 6.11848E-14
 -1      3903 1.87984E+01 7.60534E-01-1.09651E-02-3.94905E-01 1.09509E-13-7.91392E-15
 -1      3904 1.91598E+01 5.90367E-01 4.22026E-03-3.58710E-01-7.71266E-15 8.45197E-14
 -1      3905 1.86530E+01 8.16405E-01 4.83837E-03-5.63610E-01 7.32876E-14-1.16058E-13
 -1      3906 1.83560E+01 8.44819E-01-1.55149E-02-7.57131E-01 4.01821E-14-1.59382E-13
 -1      3907 1.88694E+01 6.52001E-01 4.50644E-03-6.54495E-01 2.96094E-14-4.45541E-14
 -1      3908 1.81982E+01 8.66224E-01 8.20811E-03-1.01233E+00 3.92985E-14-1.51234E-13
 -1      3909 1.78016E+01 8.37228E-01-2.39742E-02-1.31064E+00 5.04618E-14-1.00110E-13
 -1      3910 1.85345E+01 6.38227E-01 3.99228E-03-1.10042E+00 3.32541E-14-6.76388E-14
 -1      3911 1.75646E+01 7.83122E-01 7.92037E-03-1.74020E+00-3.74960E-14-1.47160E-13
 -1      3912 1.69397E+01 7.03069E-01-2.32190E-02-2.20369E+00-7.66973E-14-1.02913E-13
 -1      3913 1.85012E+01 9.52387E-01-1.25950E-02 4.03511E-01 6.85228E-14 5.78775E-14
 -1      3914 1.87753E+01 8.87450E-01 2.20325E-03 2.77920E-01 6.31438E-14 7.97659E-14
 -1      3915 2.00674E+01-1.48145E-01 3.78298E-03-5.53644E-01-3.63011E-14-3.62537E-15
 -1      3916 2.00050E+01-7.97114E-02 9.38108E-04-5.08179E-01-7.56295E-14-2.04660E-14
 -1      3917 1.89342E+01 8.09555E-01-9.32011E-03 1.59550E-01-1.51847E-14-3.50598E-15
 -1      3918 1.91315E+01 7.38912E-01 6.47328E-04 9.02736E-02-1.09142E-13-2.94145E-14
 -1      3919 1.89304E+01 7.65284E-01 7.01465E-03 3.89611E-01-7.92797E-14 1.18686E-13
 -1      3920 1.92564E+01 6.64128E-01-6.32322E-03 1.98446E-02-1.25703E-13 1.78260E-14
 -1      3921 1.93950E+01 5.98158E-01-3.22285E-04-1.44813E-02-3.57520E-14-7.63579E-15
 -1      3922 1.92245E+01 6.56960E-01 5.11260E-03 1.81271E-01-1.78212E-14 2.03671E-13
 -1      3923 1.94911E+01 5.34067E-01-3.87001E-03-5.35307E-02-3.23149E-14 4.19155E-14
 -1      3924 1.95870E+01 4.76642E-01-7.18087E-04-6.63080E-02 9.37433E-14-1.67890E-14
 -1      3925 1.94503E+01 5.45329E-01 3.74734E-03 5.82122E-02 8.27272E-15 6.95921E-14
 -1      3926 1.99584E+01 3.67183E-02 2.43758E-03-3.56698E-01-7.59433E-14 8.94408E-14
 -1      3927 1.99490E+01 5.15213E-02-4.34873E-04-3.23798E-01-3.35205E-14 5.53246E-14
 -1      3928 2.05188E+01-6.34895E-01 3.57095E-03-7.75403E-01-1.16556E-13-1.20753E-13
 -1      3929 2.03549E+01-4.77840E-01 5.44997E-03-7.45244E-01-1.05800E-13-8.31215E-14
 -1      3930 2.02337E+01-3.46178E-01 4.11023E-03-6.70514E-01-9.37120E-14-1.10324E-13
 -1      3931 2.01272E+01-2.36672E-01 2.65178E-03-6.26283E-01-3.06587E-14-6.97928E-14
 -1      3932 2.01574E+01-3.82942E-01-8.48745E-03-8.18456E-01-1.13452E-13-9.10218E-14
 -1      3933 2.16097E+01-1.43796E+00 3.78879E-03-7.58896E-01-1.89304E-13-1.78923E-13
 -1      3934 2.12912E+01-1.22058E+00 1.53391E-02-8.39321E-01-1.57432E-13-1.59037E-13
 -1      3935 2.31936E+01-2.10736E+00 1.30970E-02-4.35918E-01-1.86302E-13-2.23723E-13
 -1      3936 2.41741E+01 4.18583E-01-1.45778E-02 1.72680E+00-6.44842E-14-8.49737E-14
 -1      3937 2.03146E+01 1.14426E+00-2.45739E-03 1.97265E-01 1.26741E-13-1.69097E-13
 -1      3938 2.10843E+01-1.06696E+00 1.30855E-02 8.42061E-01 1.82407E-13-9.23278E-14
 -1      3939 2.13653E+01-1.29052E+00-9.32582E-04 7.95819E-01 1.46472E-13-8.84009E-14
 -1      3940 2.05862E+01-6.72692E-01 8.17181E-03 8.02790E-01-1.15675E-13 2.29512E-14
 -1      3941 2.07963E+01-8.64928E-01 2.26781E-03 8.13196E-01 7.28009E-14-7.43668E-15
 -1      3942 2.07816E+01-9.90344E-01-1.48007E-02 1.05882E+00 9.64506E-14 9.19373E-14
 -1      3943 2.02589E+01-3.60184E-01 4.39489E-03 6.96812E-01-1.74555E-13 6.19707E-14
 -1      3944 2.04051E+01-5.06475E-01 3.66669E-03 7.35535E-01-2.10420E-13-3.66463E-15
 -1      3945 2.03426E+01-5.73319E-01-1.09152E-02 9.25540E-01-1.15730E-13 2.29167E-13
 -1      3946 2.00634E+01-1.38280E-01 2.05273E-03 5.70700E-01 1.20514E-13 1.11665E-13
 -1      3947 2.01566E+01-2.38553E-01 3.86353E-03 6.18938E-01-1.17605E-14 1.78938E-13
 -1      3948 2.00779E+01-2.63589E-01-7.27083E-03 7.53101E-01-1.53118E-13 2.40490E-13
 -1      3949 1.99589E+01 7.37379E-03 7.95204E-04 4.50964E-01-5.75064E-15 1.23560E-13
 -1      3950 2.00128E+01-5.67019E-02 3.19849E-03 4.98608E-01 5.91223E-14 1.87007E-13
 -1      3951 1.99351E+01-5.65243E-02-4.61719E-03 5.87918E-01-8.31511E-15 2.83690E-13
 -1      3952 1.99166E+01 9.48210E-02 1.46185E-03 3.48267E-01 1.26428E-13 5.73292E-14
 -1      3953 1.99414E+01 5.64443E-02 2.51472E-03 3.89467E-01 6.42858E-14 5.81884E-14
 -1      3954 1.98718E+01 7.12850E-02-2.85107E-03 4.44139E-01 6.91116E-14 3.26463E-13
 -1      3955 1.98721E+01 1.61282E-01 2.00086E-03 2.81182E-01 5.28462E-14 2.07609E-13
 -1      3956 1.98913E+01 1.29118E-01 7.89063E-04 3.11031E-01 1.06812E-13 9.87543E-14
 -1      3957 1.98328E+01 1.50566E-01-2.54542E-03 3.41824E-01 1.54773E-13 3.47389E-13
 -1      3958 1.98044E+01 2.06742E-01-2.46172E-03 2.61704E-01-1.82199E-14 4.86832E-13
 -1      3959 2.03597E+01 9.82516E-01 3.28748E-03 1.38540E-01 8.60596E-14-1.51861E-13
 -1      3960 2.03555E+01 9.22912E-01 7.94934E-04-1.41994E-01-6.71788E-14-1.42843E-13
 -1      3961 1.97127E+01 2.93271E-01-2.00434E-03 2.10216E-01 8.85533E-14 8.99803E-13
 -1      3962 1.97598E+01 2.60336E-01 1.91333E-03 2.38509E-01 3.41361E-14 7.76366E-13
 -1      3963 1.97615E+01 2.37032E-01 1.55601E-04 2.81585E-01 7.04189E-14 7.52003E-13
 -1      3964 2.42265E+01 4.07068E+00-2.64077E-02 1.13242E+00-4.91482E-14-2.48109E-13
 -1      3965 2.03000E+01 1.26050E-01-2.42915E-04-1.13274E-01 6.96871E-14-3.79592E-14
 -1      3966 2.02780E+01 1.27846E-01-7.11881E-04-1.24009E-01 2.99520E-14-3.81063E-15
 -1      3967 2.03022E+01 1.83433E-01 1.45327E-03-9.62548E-02 5.79685E-14-6.06974E-15
 -1      3968 1.72895E+01 3.59455E-01 4.32888E-02-2.76950E+00-6.03580E-14-2.03867E-13
 -1      3969 2.03359E+01 1.13696E+00 1.58003E-04-6.97007E-02-1.73370E-14-1.38972E-13
 -1      3970 2.03490E+01 1.01871E+00-3.57441E-03-1.28293E-01-5.20815E-14-1.08093E-13
 -1      3971 2.03849E+01 7.72425E-01 1.15737E-03-7.19993E-02-6.03036E-14-1.24860E-13
 -1      3972 2.03831E+01 9.51683E-01 3.82484E-03-3.17049E-02 1.42165E-15-9.61702E-14
 -1      3973 1.88992E+01-1.11055E+00 5.82923E-02-3.70826E+00-1.84201E-13-2.36021E-13
 -1      3974 2.01758E+01-1.74870E+00-2.39574E-02-3.19330E+00-1.60580E-13-1.68383E-13
 -1      3975 2.36873E+01 4.17308E+00-4.98206E-02-8.84599E-02 1.36009E-13-2.25596E-13
 -1      3976 1.79375E+01-4.80356E-01-1.64803E-02-3.29805E+00-1.23238E-13-1.66602E-13
 -1      3977 1.97324E+01 3.64750E-01-8.93326E-04-6.10827E-02 2.19883E-13-3.01408E-15
 -1      3978 1.97262E+01 3.59752E-01-9.08167E-06-1.71127E-02 1.98728E-13 4.95050E-14
 -1      3979 1.96852E+01 3.81460E-01 1.34582E-03 2.46450E-02 2.60805E-13 2.39841E-13
 -1      3980 1.96997E+01 3.94466E-01-2.43530E-04-7.00357E-02 2.22622E-13-1.92242E-14
 -1      3981 1.99849E+01-2.67321E-02 3.12118E-03-4.46139E-01-6.74468E-14 1.00329E-14
 -1      3982 1.99541E+01 1.02257E-02 3.40034E-06-4.05773E-01-4.68590E-14 6.03444E-14
 -1      3983 1.98980E+01 5.53116E-02-1.91127E-03-3.87455E-01-4.65540E-14 1.52117E-14
 -1      3984 2.17813E+01-1.49606E+00 1.82802E-02 7.41464E-01 1.06823E-13-9.72344E-14
 -1      3985 2.21187E+01-1.69415E+00-5.50905E-03 6.05677E-01 1.41548E-13-3.10434E-14
 -1      3986 2.14300E+01-1.49476E+00-2.51703E-02 1.07842E+00 1.56716E-13 1.81157E-14
 -1      3987 2.26460E+01-1.81588E+00 2.86395E-02 3.94975E-01 3.34640E-13-2.55809E-14
 -1      3988 2.29647E+01-1.89469E+00-1.52023E-02 1.30978E-01 3.72329E-13 7.57198E-14
 -1      3989 2.33401E+01-2.14199E+00-2.21494E-02 3.63244E-01 3.85568E-13 1.09627E-13
 -1      3990 2.23617E+01-1.96471E+00-2.38817E-02 8.72870E-01 2.40228E-13 3.38874E-14
 -1      3991 2.01441E+01 2.55662E-03 4.55801E-04-1.92504E-01 5.88749E-14-2.04133E-14
 -1      3992 2.01626E+01 6.60931E-03 1.62151E-04-1.85400E-01 9.84770E-14-6.02874E-14
 -1      3993 2.01482E+01 8.16252E-03-4.32890E-04-1.77045E-01 6.02975E-14-2.27805E-14
 -1      3994 2.00425E+01 4.32746E-02 1.03973E-03-1.99134E-01-1.21602E-14-1.15921E-14
 -1      3995 2.00617E+01 3.39347E-02-4.21122E-04-1.85906E-01 2.04740E-14-5.97016E-14
 -1      3996 2.09625E+01-1.01184E+00 2.25092E-03-8.27064E-01-1.19207E-13-1.39633E-13
 -1      3997 2.07290E+01-8.10811E-01 9.65769E-03-8.33590E-01-1.36768E-13-1.24234E-13
 -1      3998 2.09625E+01-1.16332E+00-1.91540E-02-1.09076E+00-1.90905E-13-1.06203E-13
 -1      3999 1.76380E+01-3.18774E-01 6.42780E-02 3.57975E+00-3.96313E-14 2.01813E-13
 -1      4000 1.69729E+01 3.52297E-01-4.71309E-03 2.80286E+00-5.24008E-14 1.18364E-13
 -1      4001 1.64529E+01 1.16691E+00 7.88864E-03 1.85192E+00-6.86671E-14-1.00882E-13
 -1      4002 1.79394E+01 1.06807E+00-9.70791E-03 8.08684E-01 5.15198E-14 7.51764E-15
 -1      4003 1.83042E+01 1.01891E+00 4.94993E-03 5.89996E-01 6.67389E-14 5.46234E-14
 -1      4004 1.85499E+01 8.40718E-01 6.76392E-03 7.26607E-01 6.98614E-14 4.74324E-14
 -1      4005 2.03727E+01 7.86919E-01-2.71276E-03 7.67765E-02 6.95089E-14-1.10483E-13
 -1      4006 2.03420E+01 3.52023E-01 2.54549E-03-2.00719E-02 8.75525E-14-4.44523E-14
 -1      4007 2.03699E+01 4.68041E-01-4.76020E-04 1.42496E-02 8.88220E-14-4.51566E-14
 -1      4008 2.03910E+01 4.08083E-01-7.10009E-05 7.90812E-03-2.11931E-14-1.00016E-13
 -1      4009 2.03773E+01 3.09158E-01-1.39338E-03 4.33175E-02 5.43708E-15-1.06033E-13
 -1      4010 2.03903E+01 2.92104E-01-2.57574E-04 3.82561E-02-1.66403E-15-1.44747E-14
 -1      4011 1.96484E+01 3.68867E-01-1.58596E-03 1.24135E-01 3.03617E-13 5.35529E-13
 -1      4012 1.96777E+01 3.42315E-01 1.24756E-03 1.66692E-01 2.00566E-13 6.28071E-13
 -1      4013 1.96616E+01 3.31973E-01-8.42356E-05 2.17410E-01-2.85513E-14 8.88985E-13
 -1      4014 2.00938E+01 2.60497E-02 7.69808E-04-1.73907E-01 2.30815E-14-4.58076E-14
 -1      4015 2.01167E+01 1.88288E-02-3.08543E-04-1.64103E-01 4.49709E-14-3.70184E-14
 -1      4016 2.00764E+01 3.98400E-02-3.47289E-04-1.56796E-01 1.18381E-17-3.21551E-15
 -1      4017 1.81167E+01 4.92529E-01 9.10314E-03-1.80703E+00-2.88260E-14-9.66579E-14
 -1      4018 1.99194E+01 8.11386E-02-1.07517E-03-2.97969E-01-4.50816E-14 1.12292E-14
 -1      4019 1.99675E+01 5.99342E-02 1.85037E-03-2.87077E-01-3.75654E-15 1.13162E-14
 -1      4020 1.99721E+01 6.05684E-02-5.76315E-04-2.61830E-01 1.22571E-14-2.60967E-14
 -1      4021 1.99131E+01-1.63264E-02-3.28389E-03-5.05283E-01-6.55680E-14-3.33514E-14
 -1      4022 2.17215E+01-2.63331E+00 3.91596E-02 3.27805E+00 2.40617E-13 2.80393E-13
 -1      4023 2.06053E+01-2.11619E+00-2.39096E-02 3.34748E+00 1.81110E-13 5.15530E-13
 -1      4024 2.23892E+01-2.68902E+00-9.37561E-03 2.50748E+00 2.96719E-13 2.19088E-13
 -1      4025 2.01998E+01 1.84441E-02-3.91894E-04-1.61946E-01 7.05847E-14-4.32568E-14
 -1      4026 1.96603E+01 4.24592E-01-1.37555E-03-7.99930E-02 2.15026E-13-9.68104E-14
 -1      4027 1.79993E+01 1.19337E-01-2.98082E-02 2.42258E+00-1.95378E-13 2.71019E-13
 -1      4028 1.70972E+01 7.46004E-01 1.06786E-02 2.17176E+00-1.09965E-13-2.08878E-14
 -1      4029 1.75767E+01 8.92841E-01 1.74326E-02 1.60454E+00-1.08850E-13-3.22520E-14
 -1      4030 2.03947E+01 6.28666E-01-1.06395E-03-5.07485E-02-4.50030E-14-1.06507E-13
 -1      4031 2.03944E+01 5.11175E-01-5.89970E-04-1.17641E-02-3.57816E-14-1.04901E-13
 -1      4032 2.04084E+01 4.84836E-01 6.42152E-04-3.40470E-03 2.37582E-15-1.67700E-14
 -1      4033 2.03986E+01 7.30468E-01 1.49180E-03-4.32754E-02-2.16631E-14-8.18892E-14
 -1      4034 1.99881E+01-1.54738E-01-5.39484E-03-6.51667E-01-9.31286E-15-1.15958E-13
 -1      4035 2.29462E+01-2.34389E+00-5.95971E-03-1.16049E+00-1.69708E-13-2.86729E-13
 -1      4036 2.24655E+01-1.87230E+00-2.49838E-03-5.86673E-01-1.73949E-13-1.96211E-13
 -1      4037 2.20944E+01-1.70713E+00 1.74203E-02-7.68112E-01-1.76100E-13-2.25906E-13
 -1      4038 2.02626E+01 4.81110E-02-3.88375E-05-1.25356E-01 6.94704E-14-2.12270E-14
 -1      4039 2.02888E+01 7.53410E-02 3.68735E-04-1.12907E-01 8.36553E-14-2.90590E-14
 -1      4040 2.02309E+01-1.38614E+00 6.08906E-03-2.69706E+00-1.16510E-13-2.13642E-13
 -1      4041 2.11568E+01-1.97294E+00 3.08321E-02-2.76021E+00-1.35778E-13-1.46427E-13
 -1      4042 2.17362E+01-2.05836E+00-7.48597E-03-2.03427E+00-1.19701E-13-2.99061E-13
 -1      4043 1.87681E+01-9.74625E-01-1.00842E-02 3.40479E+00-3.30985E-15 6.03580E-13
 -1      4044 1.99985E+01 5.80032E-02 1.38855E-03-2.35602E-01-1.40409E-14-3.77223E-14
 -1      4045 2.00121E+01 5.09788E-02-5.51117E-04-2.17092E-01-7.87139E-15-5.71994E-14
 -1      4046 1.99620E+01 7.84435E-02-6.09158E-04-2.33003E-01-1.00085E-14-5.80491E-14
 -1      4047 2.03142E+01 1.13058E-01-3.32156E-04-1.02853E-01 8.72022E-14-5.73887E-14
 -1      4048 2.03384E+01 1.61637E-01 3.13024E-04-8.24472E-02 5.26675E-14-5.92173E-14
 -1      4049 2.03215E+01 1.07498E-01-7.84283E-05-8.59370E-02 7.22692E-14-1.02334E-13
 -1      4050 2.03188E+01 2.61609E-01-1.51261E-03-6.50578E-02 6.56830E-14-2.47693E-14
 -1      4051 2.03939E+01 4.79312E-01-1.16537E-03 1.80134E-03 5.13718E-14-6.83444E-14
 -1      4052 2.04008E+01 6.19033E-01 2.76886E-03 4.85587E-02 4.91920E-14-9.72919E-14
 -1      4053 2.03892E+01 8.00532E-01-1.24204E-03 4.94555E-02 4.86851E-14-1.30173E-13
 -1      4054 2.03903E+01 8.63766E-01-4.48803E-04-2.87298E-03 4.83230E-14-7.65493E-14
 -1      4055 2.03962E+01 7.86214E-01-2.72608E-03-3.33695E-02 1.08316E-14-8.11512E-14
 -1      4056 2.04116E+01 6.53193E-01-1.90949E-04-1.25868E-02 2.83233E-14-5.05460E-14
 -1      4057 1.85257E+01-3.18080E-01 6.73984E-03-2.72450E+00-1.42414E-13-9.16064E-14
 -1      4058 1.96171E+01 4.40039E-01 1.27234E-03-3.48385E-03 1.32146E-13 9.33547E-14
 -1      4059 2.03889E+01 8.14750E-01-1.98223E-03 2.08156E-02 4.76858E-14-1.06021E-13
 -1      4060 2.00162E+01 6.09674E-02-3.84484E-04-1.87574E-01 1.87487E-14-4.34633E-14
 -1      4061 2.04666E+01-7.19767E-01-1.27578E-02-9.81258E-01-1.18429E-13-9.47658E-14
 -1      4062 2.37305E+01-2.61530E+00-2.83395E-03 1.04140E+00 3.32574E-13 8.35174E-14
 -1      4063 1.75657E+01 1.00113E+00-1.24803E-03 1.34850E+00 5.96029E-14-1.65852E-13
 -1      4064 1.78808E+01 1.04303E+00 1.21345E-02 1.01842E+00 9.09615E-14-1.09005E-13
 -1      4065 1.82261E+01 7.77655E-01-6.16699E-03 1.15699E+00 1.86683E-13-2.52394E-13
 -1      4066 1.80808E+01 5.64745E-01-2.26436E-02 1.62899E+00 3.64459E-14-5.76360E-14
 -1      4067 2.04163E+01 6.77958E-01 2.98670E-03 1.11876E-02 5.52511E-14-9.74287E-14
 -1      4068 2.17388E+01-1.74014E+00-2.40139E-02-1.17778E+00-1.44777E-13-2.19432E-13
 -1      4069 1.97047E+01 2.58766E-01-2.04819E-03 3.14090E-01 5.01883E-14 8.37804E-13
 -1      4070 1.97716E+01 2.13508E-01 2.14893E-03 3.35039E-01 1.60844E-13 4.96435E-13
 -1      4071 1.97925E+01 1.74826E-01 9.17070E-04 3.77012E-01 1.62661E-13 5.22637E-13
 -1      4072 2.03232E+01 9.61737E-02 3.81888E-04 5.28976E-02-4.60696E-15-2.80902E-14
 -1      4073 2.02914E+01 6.90150E-02-2.19463E-04 6.02831E-02 3.48941E-15-3.38094E-14
 -1      4074 2.02581E+01 5.23242E-02 1.66519E-04 5.97518E-02-1.15408E-14-3.19409E-14
 -1      4075 2.02225E+01 4.49409E-02-2.32363E-04 6.29346E-02-2.80043E-14-1.60767E-15
 -1      4076 2.02824E+01 6.46458E-02-1.98474E-04 3.11321E-02 4.35139E-15 7.82361E-15
 -1      4077 2.01849E+01 4.57092E-02 1.15968E-04 6.03787E-02-1.87453E-14 4.72810E-14
 -1      4078 2.01455E+01 5.33014E-02-3.49662E-04 6.02345E-02-5.93162E-15 5.63302E-14
 -1      4079 2.02108E+01 4.63845E-02 3.07081E-05 2.90941E-02 1.15497E-14 1.05041E-14
 -1      4080 2.01044E+01 6.75822E-02 1.26061E-04 5.48349E-02 1.67274E-14 6.42220E-14
 -1      4081 2.00600E+01 8.66209E-02-6.58727E-04 5.12870E-02 7.14098E-14 1.03687E-13
 -1      4082 2.01318E+01 5.86435E-02 1.67682E-04 2.15228E-02 3.25671E-14 1.35283E-13
 -1      4083 2.00156E+01 1.11361E-01 2.38185E-04 4.16240E-02 5.89986E-14 9.03138E-14
 -1      4084 1.99642E+01 1.39242E-01-1.13874E-03 3.32450E-02 4.68160E-14 6.50687E-14
 -1      4085 2.00455E+01 9.36075E-02 3.14796E-04 6.35271E-03 4.67898E-14 1.24186E-13
 -1      4086 1.99156E+01 1.72149E-01 4.30898E-04 1.71354E-02-1.29844E-15 7.53432E-14
 -1      4087 1.98542E+01 2.06408E-01-1.86922E-03 1.08592E-03-3.16482E-14 3.94730E-14
 -1      4088 1.99506E+01 1.45025E-01 6.23729E-04-2.04777E-02 1.84213E-16 8.42254E-14
 -1      4089 1.98008E+01 2.45423E-01 8.30831E-04-2.52867E-02 7.43427E-15 5.34552E-14
 -1      4090 1.97252E+01 2.83351E-01-2.89234E-03-5.36557E-02 5.92813E-14 6.42163E-14
 -1      4091 1.98448E+01 2.06571E-01 9.13229E-04-6.53355E-02-3.10519E-15 1.45100E-13
 -1      4092 1.96666E+01 3.25827E-01 1.54869E-03-9.59425E-02 1.08921E-13 4.98924E-14
 -1      4093 1.95720E+01 3.63583E-01-4.26184E-03-1.43780E-01 8.98337E-14 7.39158E-14
 -1      4094 1.97259E+01 2.71171E-01 1.07306E-03-1.37860E-01 3.91209E-14 7.62281E-14
 -1      4095 1.95092E+01 4.05330E-01 2.74237E-03-2.09945E-01 1.54103E-14 5.07375E-14
 -1      4096 1.93905E+01 4.36707E-01-6.00485E-03-2.87634E-01-3.25222E-14 7.66680E-15
 -1      4097 1.95925E+01 3.28868E-01 9.24612E-04-2.51767E-01 3.39397E-14-5.89070E-14
 -1      4098 1.93273E+01 4.70511E-01 4.62089E-03-3.88332E-01-6.36725E-14 3.66421E-14
 -1      4099 1.91803E+01 4.85170E-01-8.07805E-03-5.10232E-01-3.87035E-14 2.73707E-15
 -1      4100 1.94467E+01 3.64304E-01 1.59518E-04-4.25570E-01-3.41774E-14-7.32935E-14
 -1      4101 1.91251E+01 4.98598E-01 7.43791E-03-6.58875E-01-5.00855E-14-2.36793E-14
 -1      4102 1.89486E+01 4.79471E-01-1.04121E-02-8.43631E-01-9.17498E-15-9.61350E-14
 -1      4103 1.92976E+01 3.53186E-01-1.73843E-03-6.82712E-01-4.45124E-14-1.86149E-14
 -1      4104 1.89186E+01 4.53819E-01 1.18243E-02-1.05575E+00 5.41825E-14-9.11895E-14
 -1      4105 1.87146E+01 3.69385E-01-1.47541E-02-1.32353E+00 5.56740E-14-5.91898E-14
 -1      4106 1.91675E+01 2.57934E-01-5.33623E-03-1.05054E+00 6.81898E-15-7.00457E-14
 -1      4107 1.87228E+01 2.64096E-01 1.75883E-02-1.65754E+00-2.66928E-14-7.91410E-14
 -1      4108 1.84080E+01 7.14780E-02-2.33338E-02-2.10201E+00-6.14855E-14-1.32408E-13
 -1      4109 1.98416E+01 1.05733E-01 3.82178E-03-4.01208E-01-4.85733E-14 5.06787E-14
 -1      4110 1.98377E+01 1.16754E-01-1.65280E-03-3.48225E-01-4.94409E-14 6.52703E-14
 -1      4111 1.91984E+01 5.87317E-01-8.21428E-03 3.20051E-01-1.75423E-13 4.46689E-13
 -1      4112 1.93409E+01 5.52954E-01 1.88637E-03 2.34543E-01-5.76687E-14 4.98149E-13
 -1      4113 1.91721E+01-5.86571E-01-8.98098E-03-2.50257E+00-8.20659E-14-1.32163E-13
 -1      4114 2.01496E+01 1.51583E-02 6.15475E-04-1.56145E-01 8.80973E-14-4.89292E-14
 -1      4115 2.01745E+01 1.45344E-02-8.74590E-05-1.47810E-01 8.10963E-14 8.07022E-16
 -1      4116 2.01396E+01 2.44051E-02-4.17732E-04-1.35647E-01 5.53376E-14 1.18436E-14
 -1      4117 1.86456E+01 6.42193E-01-4.48631E-03 9.71296E-01 1.87781E-13 1.30107E-13
 -1      4118 1.88576E+01 6.49754E-01 6.86054E-03 7.48634E-01 1.00595E-13 2.90416E-13
 -1      4119 1.98441E+01 4.17709E-02 5.24564E-03-5.44944E-01-3.00183E-14-6.82503E-14
 -1      4120 1.98146E+01 7.83680E-02-1.55763E-03-4.75619E-01-3.27214E-14-1.26156E-15
 -1      4121 1.97471E+01 1.45411E-01-1.51692E-03-4.34409E-01-9.04866E-15-1.88166E-14
 -1      4122 2.03438E+01 2.57208E-01-4.06350E-04-6.33158E-02 6.07884E-14-2.12866E-14
 -1      4123 2.00783E+01-3.55756E-01 3.26279E-03 1.00974E+00-1.16038E-13 3.88650E-13
 -1      4124 2.02548E+01-5.33723E-01 6.65925E-03 1.10505E+00-8.13238E-15 4.39416E-13
 -1      4125 2.04446E+01-7.49042E-01 8.21356E-03 1.26075E+00-4.96607E-14 3.63291E-13
 -1      4126 2.07242E+01-9.96809E-01 7.22069E-03 1.32740E+00 4.43195E-14 2.36513E-13
 -1      4127 2.00693E+01-5.60527E-01-1.38674E-02 1.36826E+00-8.41374E-14 5.96898E-13
 -1      4128 1.97997E+01 7.27401E-02-5.10115E-04 5.75233E-01-9.31491E-14 3.11865E-13
 -1      4129 1.98540E+01 7.14271E-04 4.11822E-03 6.57370E-01-5.99599E-14 1.34830E-13
 -1      4130 1.97859E+01 1.55156E-01 1.17806E-03 4.33568E-01 4.99410E-14 3.63132E-13
 -1      4131 1.98060E+01 1.13622E-01 3.72911E-03 5.00089E-01-1.43541E-14 3.48247E-13
 -1      4132 1.96935E+01 1.61228E-01 4.24200E-04 5.68124E-01 5.69450E-15 3.40559E-13
 -1      4133 1.97089E+01 2.14438E-01 1.05902E-03 4.30243E-01 6.19270E-14 4.03567E-13
 -1      4134 1.99080E+01-9.28147E-02 6.89834E-03-7.29864E-01-2.62164E-14-5.83818E-14
 -1      4135 1.98386E+01-1.79284E-02-8.66219E-04-6.44321E-01 3.70214E-15-7.03090E-14
 -1      4136 1.97218E+01 7.80467E-02-3.52449E-03-6.14380E-01-1.36723E-15-4.98171E-14
 -1      4137 2.03761E+01 1.86084E-01-1.08978E-04 3.76398E-02-9.62250E-16-2.43277E-14
 -1      4138 2.03497E+01 1.35210E-01-5.26884E-04 5.21876E-02 7.81244E-15-2.99344E-14
 -1      4139 2.03440E+01 1.19695E-01-1.12079E-03 2.89114E-02-5.97917E-15-1.76583E-14
 -1      4140 1.99342E+01-1.41071E+00 4.46381E-02 3.22368E+00 5.20827E-14 7.04485E-13
 -1      4141 1.90222E+01-7.49912E-01-7.57700E-03 2.87711E+00-1.71503E-14 6.31566E-13
 -1      4142 2.03883E+01 3.45173E-01 9.68614E-04-2.35413E-02 5.84404E-14-6.32867E-14
 -1      4143 2.04094E+01 4.75773E-01-1.69224E-04 5.86920E-04 5.41841E-14-1.22240E-13
 -1      4144 1.98854E+01-9.07181E-02 1.23277E-03 7.76502E-01-9.73592E-14 3.17581E-13
 -1      4145 1.99937E+01-2.05762E-01 7.89492E-03 8.73029E-01-1.65376E-13 3.09664E-13
 -1      4146 1.97119E+01 3.27917E-02-6.88399E-03 7.59407E-01 1.14324E-14 2.69292E-13
 -1      4147 2.04200E+01 5.06664E-01-1.65480E-03 7.55303E-03 4.57121E-14-1.00600E-13
 -1      4148 2.04204E+01 5.56367E-01 4.15594E-04 1.17335E-04 4.19234E-14-3.47378E-14
 -1      4149 2.04181E+01 3.76717E-01 2.23812E-03-1.44716E-02 5.19198E-14-9.73504E-14
 -1      4150 2.10700E+01-1.27620E+00 1.81404E-02 1.44872E+00 1.81834E-13 1.39967E-13
 -1      4151 2.14999E+01-1.57058E+00 1.30534E-02 1.41937E+00 8.21645E-14 1.09732E-13
 -1      4152 2.05791E+01-1.10601E+00-1.35739E-02 1.69766E+00 1.56754E-14 4.72050E-13
 -1      4153 2.00717E+01-3.26832E-01 8.25785E-03-9.51924E-01-1.17770E-13-7.19587E-14
 -1      4154 1.99432E+01-1.98112E-01 9.42820E-04-8.55334E-01-7.47044E-14-6.83853E-14
 -1      4155 1.97550E+01-7.04591E-02-7.11918E-03-8.51728E-01-8.35177E-14-8.29968E-15
 -1      4156 1.96112E+01 4.24490E-01-1.45970E-04 4.85247E-02 2.10312E-13 2.02751E-13
 -1      4157 2.09539E+01-1.17171E+00 1.68850E-02-1.38197E+00-2.16736E-13-2.02994E-13
 -1      4158 2.06185E+01-9.15943E-01 1.33589E-02-1.32770E+00-2.28635E-13-2.08410E-13
 -1      4159 2.03880E+01-6.87648E-01 8.31168E-03-1.19114E+00-1.15279E-13-1.21089E-13
 -1      4160 2.01788E+01-4.89532E-01 5.08970E-03-1.09671E+00-7.46283E-14-1.08164E-13
 -1      4161 2.02003E+01-7.72879E-01-2.78063E-02-1.47137E+00-1.00316E-13-2.31207E-13
 -1      4162 2.03679E+01 2.51035E-01-5.39835E-04-5.84712E-02 4.48018E-14-6.87497E-14
 -1      4163 2.32244E+01-2.50109E+00 3.87390E-02 1.35489E+00 3.38736E-13 1.37793E-13
 -1      4164 2.02067E+01 1.92605E-02 3.25536E-04-1.41520E-01 4.29296E-14 1.43941E-14
 -1      4165 2.02328E+01 3.00424E-02 1.56534E-04-1.32511E-01 6.29292E-14-2.67689E-14
 -1      4166 2.02648E+01 4.81792E-02-1.92959E-04-1.04400E-01 4.47306E-14 1.23358E-14
 -1      4167 2.02032E+01 2.41508E-02-3.64546E-04-1.19537E-01 6.64524E-14-4.98077E-14
 -1      4168 1.89412E+01 6.39770E-01-8.68496E-03 5.75031E-01 2.91749E-14 2.72259E-13
 -1      4169 1.91228E+01 6.23579E-01 5.53631E-03 4.34442E-01-7.73252E-14 3.58304E-13
 -1      4170 1.90689E+01 4.95585E-01 2.57122E-03 7.89133E-01 1.38676E-13 3.01507E-13
 -1      4171 1.99911E+01 8.63279E-02 1.33004E-03-1.67364E-01 2.64094E-14-1.05142E-14
 -1      4172 2.00179E+01 7.10058E-02-8.27153E-04-1.48453E-01 2.26928E-14-6.61943E-15
 -1      4173 2.04183E+01 4.00449E-01 1.28229E-03 8.01627E-03 7.90572E-15-3.00300E-14
 -1      4174 2.04051E+01 3.03579E-01-4.00779E-04 2.20839E-02 1.91474E-15-2.60217E-14
 -1      4175 1.95749E+01 4.32834E-01-3.83515E-04 9.87822E-02 2.20678E-13 2.80054E-13
 -1      4176 1.95808E+01-7.93608E-01-2.78013E-02 2.35582E+00-1.01778E-13 7.01592E-13
 -1      4177 1.87662E+01-2.42319E-01 1.84981E-02 2.45037E+00-1.79184E-13 6.66428E-13
 -1      4178 1.87419E+01 7.68208E-02 1.13868E-02 1.96732E+00-3.47449E-13 5.53382E-13
 -1      4179 2.00590E+01 5.77339E-02 9.58925E-04-1.32568E-01 2.88707E-14-1.95046E-14
 -1      4180 2.00891E+01 4.48982E-02-3.70766E-04-1.19884E-01 2.75406E-14 2.42488E-14
 -1      4181 2.00294E+01 7.85298E-02-3.67188E-05-1.10599E-01 4.36059E-14-2.53957E-15
 -1      4182 1.98750E+01 1.22842E-01 2.70961E-03-2.94889E-01-9.24171E-14 3.05575E-14
 -1      4183 1.98869E+01 1.18185E-01-1.46555E-03-2.56117E-01-5.04997E-14 1.24842E-14
 -1      4184 1.98036E+01 1.60383E-01-4.78101E-04-3.04003E-01-7.20429E-14-1.59017E-14
 -1      4185 1.90809E+01 1.43968E-02-1.05416E-02-1.59835E+00-4.49532E-15-1.54888E-13
 -1      4186 2.03774E+01 2.35823E-01-6.18542E-04-4.86523E-02 5.64577E-14-1.05250E-13
 -1      4187 2.23894E+01-2.30254E+00-4.06010E-04 1.71847E+00 3.14043E-13 2.47819E-13
 -1      4188 1.98625E+01-5.72552E-01 1.72342E-02-1.81379E+00-8.66555E-14-2.08521E-13
 -1      4189 2.00108E+01-1.00037E+00 8.21918E-03-2.30084E+00-1.22548E-13-2.32023E-13
 -1      4190 1.94168E+01 5.11805E-01-4.54362E-03 1.58165E-01-8.07683E-14 2.75463E-13
 -1      4191 1.95172E+01 4.69854E-01-6.36970E-04 1.09776E-01 1.73508E-15 2.23386E-13
 -1      4192 1.86609E+01 5.83119E-01 9.22737E-03 1.13639E+00 2.40432E-13 1.54309E-13
 -1      4193 1.89643E+01 3.73021E-01-4.41262E-03 1.12998E+00 1.87408E-13 3.08032E-13
 -1      4194 1.85881E+01 5.06154E-01 4.03933E-03 1.34307E+00 2.94125E-13 1.14621E-13
 -1      4195 2.24448E+01-2.17461E+00 3.11164E-02-1.49182E+00-1.71433E-13-3.59712E-13
 -1      4196 1.96644E+01 3.08177E-01 2.17498E-03 2.91933E-01-1.24464E-13 1.03786E-12
 -1      4197 1.96591E+01 2.76234E-01-2.04338E-03 3.51743E-01 1.96245E-14 6.61724E-13
 -1      4198 1.96459E+01 2.56238E-01-2.62255E-03 4.16564E-01-2.36077E-14 6.08358E-13
 -1      4199 1.96110E+01 3.50218E-01-1.79026E-03 2.49522E-01-9.11490E-14 7.33663E-13
 -1      4200 1.98312E+01-2.09387E-01-1.09741E-02 1.04346E+00-8.92296E-14 6.39740E-13
 -1      4201 2.36339E+01 4.07198E+00-1.04849E-01 6.26188E-01 8.84536E-14-2.73460E-13
 -1      4202 2.16694E+01-1.89103E+00 6.37439E-06-1.76462E+00-9.79000E-14-3.41147E-13
 -1      4203 1.92607E+01 5.11374E-01 3.92143E-03 4.88290E-01-8.22967E-14 5.01789E-13
 -1      4204 2.04010E+01 2.74758E-01-5.07234E-04 8.34589E-03 6.45451E-15-2.97210E-14
 -1      4205 1.99280E+01 1.11658E-01 1.89652E-03-2.19303E-01-2.75660E-14-4.39443E-15
 -1      4206 1.99493E+01 9.88025E-02-1.16932E-03-1.91884E-01 1.59674E-14-3.09347E-14
 -1      4207 1.98747E+01 1.44428E-01-2.69872E-05-2.12907E-01-4.30420E-14-6.81061E-15
 -1      4208 2.03224E+01 9.17099E-02-2.39432E-04-6.78758E-02 2.60615E-14-4.57544E-14
 -1      4209 2.03496E+01 1.33287E-01-1.09046E-04-5.68137E-02 4.86029E-14-8.36824E-14
 -1      4210 2.07246E+01-1.72271E+00 1.17298E-02 2.74789E+00 1.50645E-13 4.99073E-13
 -1      4211 2.11955E+01-1.51063E+00 5.08362E-03-1.64436E+00-1.17948E-13-2.38483E-13
 -1      4212 2.02629E+01 4.25124E-02 1.66598E-04-8.15963E-02 4.67512E-14-2.07050E-14
 -1      4213 2.02926E+01 6.24401E-02 1.02374E-04-7.26644E-02 4.20976E-14-2.34402E-14
 -1      4214 2.03166E+01 8.65610E-02 8.21289E-06-4.47654E-02 1.14600E-14 1.91957E-14
 -1      4215 1.98902E+01-3.37856E-01-1.40236E-02-1.14503E+00-6.58054E-14-9.10255E-14
 -1      4216 2.18696E+01-2.00984E+00 1.65827E-02 1.84377E+00 2.04418E-13 1.82044E-13
 -1      4217 2.06712E+01-1.35234E+00-3.52107E-02-1.93593E+00-1.45947E-13-2.80075E-13
 -1      4218 2.04209E+01 4.96055E-01-4.23133E-04-6.40331E-03 1.95206E-14-4.06011E-14
 -1      4219 1.99516E+01 1.13245E-01 8.38586E-05-1.51251E-01 1.49305E-14 2.70203E-14
 -1      4220 1.94340E+01 4.68960E-01 5.53121E-04 2.83037E-01-2.03479E-13 4.82683E-13
 -1      4221 2.02343E+01 4.22589E-02 1.31281E-04-2.71329E-03 1.81817E-14 7.10446E-14
 -1      4222 2.01952E+01 4.07258E-02-3.13313E-04-4.31107E-03 4.87567E-14 6.75507E-14
 -1      4223 2.01578E+01 4.61548E-02 3.40014E-04-1.10345E-02 2.76264E-14 5.81658E-14
 -1      4224 2.01155E+01 5.70643E-02-3.19345E-04-1.63291E-02 3.84451E-14 9.56627E-14
 -1      4225 2.01783E+01 4.00800E-02-2.19782E-04-4.18988E-02 4.04199E-14 3.75315E-14
 -1      4226 2.00799E+01 6.84234E-02 4.71045E-04-4.03962E-02 3.39347E-14 6.33599E-14
 -1      4227 2.00337E+01 8.69883E-02-7.07149E-04-5.08583E-02 1.23465E-14 4.29893E-14
 -1      4228 1.99951E+01 1.07812E-01 6.59749E-04-6.68186E-02 1.21233E-14 5.15090E-14
 -1      4229 1.99434E+01 1.31473E-01-1.16891E-03-8.47238E-02 4.53167E-14 7.21285E-14
 -1      4230 1.99051E+01 1.55239E-01 9.93683E-04-1.09175E-01 1.47027E-14 5.73964E-14
 -1      4231 1.98471E+01 1.80081E-01-1.67603E-03-1.38587E-01-1.67753E-14 5.35720E-14
 -1      4232 1.98111E+01 2.02485E-01 1.61908E-03-1.75395E-01-4.62124E-14 3.09024E-14
 -1      4233 1.97460E+01 2.23753E-01-2.19427E-03-2.21932E-01-3.10342E-14-2.25179E-14
 -1      4234 1.97160E+01 2.39151E-01 2.67837E-03-2.75988E-01-1.64797E-14-8.12941E-14
 -1      4235 1.96442E+01 2.50148E-01-2.59808E-03-3.47322E-01-6.53206E-15-1.13599E-13
 -1      4236 1.96269E+01 2.50492E-01 4.36985E-03-4.24361E-01-1.37774E-15-1.12093E-13
 -1      4237 1.95515E+01 2.41381E-01-2.63399E-03-5.30318E-01-1.43315E-14-8.77405E-14
 -1      4238 1.95584E+01 2.14990E-01 6.93642E-03-6.36187E-01-4.31803E-14-5.40170E-14
 -1      4239 1.94883E+01 1.71323E-01-1.82660E-03-7.88252E-01-4.02611E-14-2.80173E-14
 -1      4240 1.95380E+01 1.01675E-01 1.06390E-02-9.26966E-01-6.33772E-14-2.62901E-14
 -1      4241 1.94922E+01 3.41572E-03 9.38915E-04-1.13723E+00-2.85163E-14-8.24789E-14
 -1      4242 1.96200E+01-3.25606E-01 8.49822E-03-1.62776E+00-3.90944E-14-1.35247E-13
 -1      4243 1.96175E+01-1.32614E-01 1.59784E-02-1.30472E+00-8.05253E-15-1.62251E-13
 -1      4244 2.03047E+01 6.99861E-02-4.47452E-06-1.06164E-02 7.00778E-15 3.47340E-14
 -1      4245 2.02701E+01 5.15366E-02-1.55186E-04-9.70219E-03 1.49006E-14 4.73848E-14
 -1      4246 1.95697E+01 4.16446E-01 3.05227E-03 1.90871E-01 1.47015E-14 3.91873E-13
 -1      4247 2.01262E+01 3.88868E-02 5.93874E-04-9.75657E-02 1.98174E-14 1.70212E-14
 -1      4248 2.01586E+01 3.17585E-02-1.73354E-04-8.82234E-02 4.62422E-14-3.32580E-14
 -1      4249 1.97114E+01-2.41687E-01 1.03575E-02 1.39186E+00-1.70449E-13 8.71024E-13
 -1      4250 1.98785E+01-4.60879E-01 1.02396E-02 1.57102E+00-1.52961E-13 8.05968E-13
 -1      4251 1.92081E+01 3.15436E-01-6.63322E-03 9.21466E-01 2.47603E-13 3.17329E-13
 -1      4252 1.93026E+01 3.61419E-01 1.94690E-03 7.50109E-01 8.93970E-14 3.77729E-13
 -1      4253 1.94213E+01 9.91713E-02 1.86108E-03 1.09336E+00 7.20897E-14 6.78322E-13
 -1      4254 1.94907E+01-3.53034E-02 5.72941E-03 1.27246E+00 1.49496E-14 7.89561E-13
 -1      4255 2.12172E+01-1.85490E+00-1.00754E-02 2.30013E+00 1.84569E-13 2.72735E-13
 -1      4256 2.04532E+01-1.31014E+00-7.98982E-03 2.24864E+00 5.42127E-14 4.99542E-13
 -1      4257 2.04033E+01 2.80543E-01-1.53628E-03-6.52453E-03 2.10297E-14-3.00471E-14
 -1      4258 2.03824E+01 1.75921E-01 2.72217E-03 1.75958E-03 3.87357E-15-1.01881E-15
 -1      4259 2.03511E+01 1.28811E-01 1.05607E-05 3.53120E-03-4.34823E-15 1.36383E-14
 -1      4260 2.03944E+01 2.50382E-01-1.49274E-03-2.28904E-02 5.56231E-14-6.74361E-14
 -1      4261 1.98324E+01-5.68489E-01 2.57365E-03 1.78692E+00-1.86732E-13 7.85797E-13
 -1      4262 2.01286E+01-8.64359E-01 8.87550E-03 1.98402E+00-1.02953E-13 5.97818E-13
 -1      4263 1.94273E+01 2.95520E-01-6.15674E-03 6.48423E-01 9.78104E-14 4.54292E-13
 -1      4264 1.95099E+01 3.16199E-01 1.81231E-03 5.26620E-01 2.20302E-14 5.09636E-13
 -1      4265 2.01971E+01 2.94320E-02 4.62801E-04-8.24273E-02 4.48401E-14-4.33765E-14
 -1      4266 2.02286E+01 3.31892E-02-2.16271E-05-7.43231E-02 4.43980E-14-2.40142E-14
 -1      4267 1.95680E+01 3.84018E-01 1.95835E-03 2.68789E-01-2.56178E-13 6.46527E-13
 -1      4268 2.01034E+01 5.31969E-02-2.93552E-04-7.11653E-02 3.39297E-14-1.41663E-14
 -1      4269 1.95969E+01 1.61074E-01 6.03358E-03 7.49338E-01 1.77923E-13 2.26117E-13
 -1      4270 1.93688E+01-2.51068E-01-3.20600E-03 1.78198E+00-3.14928E-13 1.12557E-12
 -1      4271 2.02522E+01 4.54697E-02-1.04732E-04-4.37521E-02 4.65572E-14 5.64366E-14
 -1      4272 2.03676E+01 1.69712E-01 1.37712E-03-4.65903E-02 5.79561E-14-7.19444E-14
 -1      4273 1.94914E+01 4.05243E-01 1.64560E-03 3.51039E-01-1.85674E-13 7.49241E-13
 -1      4274 1.96298E+01 7.60162E-02 5.71815E-03 8.73827E-01 9.68217E-14 4.23220E-13
 -1      4275 2.03635E+01 1.47592E-01-8.51942E-04-2.77783E-02 1.73397E-14 1.19301E-14
 -1      4276 1.95136E+01 3.36846E-01-2.32067E-03 4.45958E-01-6.47777E-14 5.78253E-13
 -1      4277 1.85717E+01 3.01928E-01 1.22483E-02 1.76265E+00-2.65201E-13 4.86915E-13
 -1      4278 1.85961E+01 4.20787E-01 1.09989E-02 1.51586E+00 6.25389E-14 2.60996E-13
 -1      4279 1.89726E+01 1.92831E-01-3.62166E-03 1.46086E+00 1.14130E-13 4.28623E-13
 -1      4280 1.91588E+01-2.40874E-02-1.04521E-02 1.60793E+00-7.84210E-14 8.40013E-13
 -1      4281 1.91101E+01-1.33391E-01-1.70248E-02 1.81316E+00-3.03278E-13 8.41427E-13
 -1      4282 2.03355E+01 1.01873E-01 6.79846E-04-5.50559E-03-4.63144E-15 2.02401E-14
 -1      4283 1.91661E+01 4.94086E-02-1.28218E-02 1.45401E+00 2.00758E-14 8.18933E-13
 -1      4284 1.92455E+01 2.21851E-01-3.68412E-03 1.06666E+00 2.77702E-13 4.70602E-13
 -3
    1PSTEP                         3           1           1          
  100CL  101 1.000000000        4284                     0    1           1
 -4  TOSTRAIN    6    1
 -5  EXX         1    4    1    1
 -5  EYY         1    4    2    2
 -5  EZZ         1    4    3    3
 -5  EXY         1    4    1    2
 -5  EYZ         1    4    2    3
 -5  EZX         1    4    3    1
 -1         1 1.99984E-05-8.47728E-05 1.57867E-05-3.82589E-05-8.88770E-18-2.64306E-18
 -1         2 4.01324E-05-1.22560E-04 2.29391E-05 1.09356E-06 5.83468E-18-4.73412E-19
 -1         3 9.52281E-05-2.85807E-05-2.85487E-05-6.86814E-09-3.57970E-18-4.03217E-18
 -1         4 9.52240E-05-2.85857E-05-2.85384E-05 8.16892E-09 3.60381E-19-1.87026E-18
 -1         5 1.43287E-04-2.14699E-05-4.25111E-05 3.85195E-05-2.01223E-19 1.46221E-17
 -1         6 1.46001E-04 2.57022E-10-4.41141E-05-5.41971E-05-7.64871E-19 1.27225E-17
 -1         7 9.01265E-05-3.18443E-07-3.90069E-05-2.90738E-05-1.10326E-19 2.15497E-18
 -1         8 8.51069E-05 9.36970E-08-3.63353E-05-2.02622E-05-1.63583E-19-9.47552E-19
 -1         9 8.28090E-05 7.79019E-08-3.53494E-05-1.56465E-05-1.35883E-19-2.59264E-18
 -1        10 8.17816E-05 3.86911E-08-3.48843E-05-1.20848E-05-6.28260E-20-3.39518E-18
 -1        11 8.12674E-05 1.92291E-08-3.46585E-05-9.01741E-06-5.07293E-20-3.69516E-18
 -1        12 8.10031E-05 8.92495E-09-3.45466E-05-6.28657E-06-1.06607E-20-3.72275E-18
 -1        13 8.08649E-05 4.32347E-09-3.44903E-05-3.68685E-06 5.51150E-21-3.63355E-18
 -1        14 8.08070E-05 2.47887E-09-3.44673E-05-1.18463E-06 3.04382E-21-3.52231E-18
 -1        15 8.08087E-05 2.47080E-09-3.44679E-05 1.28787E-06 4.80441E-20-3.43327E-18
 -1        16 8.08702E-05 4.25722E-09-3.44921E-05 3.79480E-06 5.21025E-20-3.27043E-18
 -1        17 8.10131E-05 8.15866E-09-3.45496E-05 6.40588E-06 9.36418E-20-3.00345E-18
 -1        18 8.12821E-05 1.79839E-08-3.46629E-05 9.15518E-06 1.04499E-19-2.64375E-18
 -1        19 8.18015E-05 3.80726E-08-3.48911E-05 1.22573E-05 1.49462E-19-1.94732E-18
 -1        20 8.28332E-05 8.03503E-08-3.53604E-05 1.58721E-05 1.75058E-19-7.35031E-19
 -1        21 8.50696E-05 1.69920E-07-3.63692E-05 2.04827E-05 1.94394E-19 1.49670E-18
 -1        22 9.16119E-05-9.86825E-08-3.87269E-05 2.79947E-05 3.18696E-20 5.66791E-18
 -1        23 1.13929E-04-3.81305E-05-3.57304E-05-5.16077E-06-5.25637E-19 9.99721E-18
 -1        24 9.30970E-05-2.77879E-05-2.91571E-05 4.01428E-07-1.59044E-19 7.68982E-18
 -1        25 8.91738E-05-2.68659E-05-2.69690E-05 3.84281E-07-7.24213E-20 5.15786E-18
 -1        26 8.79887E-05-2.64814E-05-2.63881E-05 2.08021E-07-9.18832E-21 3.38574E-18
 -1        27 8.79788E-05-2.64492E-05-2.63651E-05 1.41561E-07-6.04917E-20 1.93978E-18
 -1        28 8.84997E-05-2.65815E-05-2.65304E-05 1.01550E-07-7.69530E-20 7.96615E-19
 -1        29 8.92576E-05-2.67948E-05-2.67640E-05 7.52268E-08 3.15559E-21 1.01998E-19
 -1        30 9.00995E-05-2.70397E-05-2.70194E-05 5.64442E-08-1.00149E-19-9.93073E-19
 -1        31 9.09426E-05-2.72884E-05-2.72739E-05 4.22891E-08-1.90278E-20-1.65606E-18
 -1        32 9.17450E-05-2.75268E-05-2.75160E-05 3.12952E-08-2.65464E-21-2.26560E-18
 -1        33 9.24917E-05-2.77497E-05-2.77414E-05 2.26557E-08-2.88746E-20-2.23551E-18
 -1        34 9.31870E-05-2.79581E-05-2.79516E-05 1.58901E-08 7.37720E-20-2.52008E-18
 -1        35 9.38506E-05-2.81579E-05-2.81526E-05 1.07147E-08-3.14839E-19-2.47335E-18
 -1        36 9.45175E-05-2.83593E-05-2.83551E-05 7.01702E-09 1.44211E-19-2.21279E-18
 -1        37 9.52392E-05-2.85779E-05-2.85748E-05 4.90361E-09-2.68456E-19-3.45060E-18
 -1        38 9.60896E-05-2.88360E-05-2.88346E-05 4.83704E-09-6.01416E-20-4.52570E-18
 -1        39 9.71748E-05-2.91657E-05-2.91674E-05 7.91771E-09 2.30425E-19-4.07626E-18
 -1        40 9.86494E-05-2.96133E-05-2.96212E-05 1.64236E-08-2.42222E-19-3.45706E-18
 -1        41 1.00741E-04-3.02466E-05-3.02674E-05 3.48089E-08-7.98693E-20-3.45505E-18
 -1        42 1.03784E-04-3.11651E-05-3.12117E-05 7.14655E-08-4.30357E-20-3.70371E-18
 -1        43 1.08265E-04-3.25111E-05-3.26060E-05 1.41534E-07-2.48196E-20-4.31890E-18
 -1        44 1.14849E-04-3.44790E-05-3.46541E-05 2.70283E-07 3.73095E-19-4.13731E-18
 -1        45 1.24346E-04-3.73058E-05-3.75811E-05 4.92607E-07 2.05174E-19-2.46381E-18
 -1        46 1.37419E-04-4.11963E-05-4.15029E-05 8.30099E-07-3.09367E-19-3.19443E-18
 -1        47 1.53686E-04-4.60767E-05-4.60952E-05 1.19278E-06 1.29199E-19-1.64451E-18
 -1        48 1.69697E-04-5.09943E-05-5.00575E-05 1.13657E-06-4.64406E-19 5.68836E-19
 -1        49 1.76249E-04-5.32412E-05-5.09155E-05-5.22987E-07 3.81932E-19 1.28426E-18
 -1        50 1.61538E-04-4.88904E-05-4.67505E-05-4.07232E-06 3.41063E-20 3.57977E-18
 -1        51 1.23483E-04-3.61426E-05-3.90012E-05-6.85785E-06-2.78766E-19 2.40981E-19
 -1        52 8.98677E-05-2.48892E-05-3.29516E-05-4.13613E-06-5.65580E-19-4.15321E-18
 -1        53 8.06300E-05-2.21406E-05-3.14594E-05 2.02077E-06-4.92603E-20-7.91674E-18
 -1        54 1.02271E-04-2.90115E-05-3.50993E-05 4.85837E-06 2.86006E-20-1.11378E-17
 -1        55 1.41649E-04-4.23636E-05-4.24070E-05 4.80350E-06 3.31352E-19-8.20267E-18
 -1        56 1.71565E-04-5.20484E-05-4.92024E-05 1.88321E-06-7.68974E-19-7.08045E-18
 -1        57 1.75695E-04-5.30872E-05-5.11173E-05-4.00667E-07 8.91820E-19-3.85872E-18
 -1        58 1.62947E-04-4.89553E-05-4.84681E-05-9.82742E-07-1.70844E-19-2.63448E-18
 -1        59 1.45926E-04-4.37316E-05-4.39639E-05-8.19964E-07-6.86568E-20-5.64870E-18
 -1        60 1.30894E-04-3.92194E-05-3.95877E-05-5.30689E-07 5.66686E-19-3.10874E-18
 -1        61 1.19509E-04-3.58306E-05-3.61192E-05-3.07848E-07-3.70013E-19 5.18067E-19
 -1        62 1.11475E-04-3.34411E-05-3.36247E-05-1.69149E-07-6.35192E-21-1.93139E-18
 -1        63 1.05988E-04-3.18051E-05-3.19118E-05-9.00968E-08-2.18549E-20-3.02876E-18
 -1        64 1.02292E-04-3.06989E-05-3.07585E-05-4.69143E-08-6.35848E-19-2.71260E-18
 -1        65 9.98087E-05-2.99532E-05-2.99860E-05-2.39202E-08-1.92065E-19-4.36895E-18
 -1        66 9.81352E-05-2.94494E-05-2.94674E-05-1.19448E-08 3.66910E-19-9.14200E-19
 -1        67 9.70018E-05-2.91075E-05-2.91175E-05-5.87271E-09 3.09688E-19-7.67855E-20
 -1        68 9.62327E-05-2.88751E-05-2.88811E-05-2.84352E-09-3.42052E-19-2.48113E-18
 -1        69 9.57171E-05-2.87190E-05-2.87239E-05-1.10160E-09 2.20484E-19-3.10308E-18
 -1        70 9.53905E-05-2.86196E-05-2.86254E-05 8.69128E-10-2.48340E-19-4.52052E-18
 -1        71 9.52216E-05-2.85682E-05-2.85738E-05 4.89574E-09 3.91470E-20-7.39739E-18
 -1        72 9.51927E-05-2.85602E-05-2.85549E-05 1.67806E-08-6.32903E-20-4.99624E-18
 -1        73 1.02130E-04-3.05733E-05-3.41351E-05-1.92778E-06 1.40396E-19 1.36049E-17
 -1        74 9.25134E-05-2.75026E-05-2.88903E-05-3.33070E-07 1.33801E-19 1.06452E-17
 -1        75 8.90585E-05-2.66914E-05-2.69542E-05-1.29755E-07 5.92195E-20 8.57082E-18
 -1        76 8.80042E-05-2.64299E-05-2.64212E-05-9.89040E-08 9.15995E-20 7.27574E-18
 -1        77 8.80390E-05-2.64363E-05-2.63993E-05-7.79889E-08-1.31274E-20 6.54486E-18
 -1        78 8.85803E-05-2.65888E-05-2.65621E-05-6.22053E-08 2.18161E-20 5.90299E-18
 -1        79 8.93488E-05-2.68131E-05-2.67948E-05-5.04692E-08-1.14060E-19 6.00166E-18
 -1        80 9.01971E-05-2.70641E-05-2.70503E-05-4.10575E-08 7.27129E-20 5.03686E-18
 -1        81 9.10456E-05-2.73168E-05-2.73055E-05-3.31524E-08-2.03638E-20 3.96318E-18
 -1        82 9.18532E-05-2.75579E-05-2.75487E-05-2.64675E-08 1.91929E-19 2.74023E-18
 -1        83 9.26033E-05-2.77823E-05-2.77750E-05-2.09375E-08 7.31604E-20 2.02962E-18
 -1        84 9.32951E-05-2.79893E-05-2.79839E-05-1.65975E-08-1.56356E-19 2.46610E-18
 -1        85 9.39371E-05-2.81814E-05-2.81780E-05-1.35397E-08 1.96148E-19 2.39979E-18
 -1        86 9.45419E-05-2.83624E-05-2.83609E-05-1.18935E-08-8.68851E-20 2.05594E-18
 -1        87 9.51220E-05-2.85358E-05-2.85360E-05-1.18005E-08 1.60015E-20 8.83012E-19
 -1        88 9.56837E-05-2.87036E-05-2.87049E-05-1.33619E-08-1.56598E-19 4.69511E-19
 -1        89 9.62215E-05-2.88639E-05-2.88654E-05-1.65390E-08-1.14603E-19 8.38950E-19
 -1        90 9.67104E-05-2.90095E-05-2.90095E-05-2.09874E-08 1.84042E-19-3.00014E-19
 -1        91 9.70979E-05-2.91247E-05-2.91209E-05-2.58217E-08-1.80512E-19-8.70840E-19
 -1        92 9.72974E-05-2.91838E-05-2.91730E-05-2.93404E-08-3.41212E-21 7.08927E-19
 -1        93 9.71851E-05-2.91503E-05-2.91287E-05-2.88200E-08 3.20986E-19 2.22657E-18
 -1        94 9.66065E-05-2.89783E-05-2.89429E-05-2.05982E-08-2.43220E-19 1.74125E-18
 -1        95 9.53984E-05-2.86192E-05-2.85693E-05-7.82766E-10 5.19627E-20 1.57273E-18
 -1        96 9.34311E-05-2.80340E-05-2.79734E-05 3.31051E-08 2.48045E-19 7.08656E-19
 -1        97 9.06722E-05-2.72120E-05-2.71512E-05 7.96234E-08 7.40598E-20 1.41048E-18
 -1        98 8.72550E-05-2.61914E-05-2.61472E-05 1.30995E-07-3.05247E-20 1.35439E-18
 -1        99 8.35258E-05-2.50739E-05-2.50652E-05 1.72756E-07 3.05617E-20-1.11954E-19
 -1       100 8.00273E-05-2.40210E-05-2.40615E-05 1.87578E-07 1.03894E-19 1.14753E-19
 -1       101 7.73932E-05-2.32235E-05-2.33127E-05 1.63156E-07 1.34579E-19-9.24583E-19
 -1       102 7.61689E-05-2.28474E-05-2.29679E-05 1.00148E-07-6.38178E-20-1.37376E-18
 -1       103 7.66258E-05-2.29777E-05-2.30997E-05 1.42966E-08-4.12675E-19-7.43391E-19
 -1       104 7.86606E-05-2.35856E-05-2.36793E-05-6.98429E-08-1.26449E-19 7.58121E-19
 -1       105 8.18343E-05-2.45392E-05-2.45868E-05-1.30301E-07 1.98875E-19 9.12552E-19
 -1       106 8.55290E-05-2.56515E-05-2.56516E-05-1.56562E-07 6.31943E-20 7.34682E-19
 -1       107 8.91423E-05-2.67395E-05-2.67041E-05-1.51072E-07-6.05846E-19-1.20537E-19
 -1       108 9.22316E-05-2.76691E-05-2.76158E-05-1.24521E-07-2.08524E-20-2.82082E-18
 -1       109 9.45700E-05-2.83720E-05-2.83163E-05-8.93843E-08 1.66453E-19-4.06163E-18
 -1       110 9.61239E-05-2.88383E-05-2.87906E-05-5.53639E-08-5.36759E-19-3.94025E-18
 -1       111 9.69895E-05-2.90976E-05-2.90623E-05-2.78365E-08 2.22788E-19-3.38510E-18
 -1       112 9.73245E-05-2.91977E-05-2.91748E-05-8.44188E-09 3.90352E-19-6.26598E-18
 -1       113 9.72959E-05-2.91889E-05-2.91762E-05 3.52188E-09-2.61096E-19-5.04248E-18
 -1       114 9.70489E-05-2.91147E-05-2.91093E-05 9.78759E-09 1.30009E-19-8.73887E-19
 -1       115 9.66951E-05-2.90086E-05-2.90078E-05 1.22412E-08-6.02204E-19-5.42001E-19
 -1       116 9.63122E-05-2.88939E-05-2.88957E-05 1.24731E-08 3.83891E-19-2.05323E-18
 -1       117 9.59502E-05-2.87854E-05-2.87888E-05 1.16010E-08 4.42115E-19-3.41355E-18
 -1       118 9.56404E-05-2.86925E-05-2.86971E-05 1.01745E-08-6.30206E-19-5.53299E-18
 -1       119 9.54038E-05-2.86211E-05-2.86276E-05 8.09672E-09-3.03362E-19-2.70645E-18
 -1       120 9.52583E-05-2.85768E-05-2.85843E-05 3.53928E-09 3.45128E-19-3.24810E-18
 -1       121 9.52156E-05-2.85619E-05-2.85652E-05-6.87392E-09 1.55834E-18-6.90015E-18
 -1       122 9.52423E-05-2.85884E-05-2.85655E-05-1.04547E-08-7.02227E-18 1.01195E-18
 -1       123 9.52284E-05-2.85442E-05-2.85851E-05-6.38111E-10-5.84974E-18 1.06399E-19
 -1       124 9.51860E-05-2.84029E-05-2.86264E-05 6.16800E-09-2.39406E-18 8.36333E-19
 -1       125 9.51239E-05-2.81947E-05-2.86864E-05 8.86041E-09-4.26271E-18 5.23628E-19
 -1       126 9.50522E-05-2.79540E-05-2.87563E-05 9.80808E-09-3.99023E-18-1.08994E-18
 -1       127 9.49826E-05-2.77194E-05-2.88247E-05 9.21258E-09-6.57637E-18-5.38571E-19
 -1       128 9.49228E-05-2.75179E-05-2.88833E-05 7.11891E-09-1.80686E-18 1.73791E-18
 -1       129 9.48836E-05-2.73855E-05-2.89215E-05 3.62322E-09-4.51024E-18-1.01718E-18
 -1       130 9.48726E-05-2.73481E-05-2.89319E-05-9.99591E-10-4.40529E-18 7.48022E-19
 -1       131 9.48939E-05-2.74193E-05-2.89107E-05-6.14067E-09-7.28723E-19-1.61116E-18
 -1       132 9.49462E-05-2.75953E-05-2.88594E-05-1.09532E-08-9.78098E-19-1.69577E-18
 -1       133 9.50210E-05-2.78470E-05-2.87868E-05-1.36867E-08-1.64593E-18 1.60338E-18
 -1       134 9.51073E-05-2.81370E-05-2.87041E-05-1.35019E-08 1.14681E-18-1.00701E-18
 -1       135 9.51856E-05-2.84001E-05-2.86296E-05-8.59514E-09 6.37010E-18-2.53842E-19
 -1       136 9.52392E-05-2.85739E-05-2.85795E-05 4.45984E-09 6.02352E-18-8.12021E-19
 -1       137 9.52479E-05-2.86170E-05-2.85561E-05 1.85191E-08 5.54809E-18 9.74799E-19
 -1       138 2.55095E-05-8.61072E-05 1.54950E-05-2.38537E-05 8.04512E-18 2.71125E-18
 -1       139 6.78507E-06-2.31460E-05 1.49433E-07-1.10478E-05 9.76417E-18 4.72539E-18
 -1       140 1.89555E-05 2.48681E-05-2.09012E-05 4.06465E-05 7.11465E-18 4.78616E-18
 -1       141 7.94103E-05 2.90295E-05-4.34283E-05 9.90415E-05 2.96292E-18 3.93743E-18
 -1       142 1.86742E-04-1.72684E-05-6.46722E-05 1.23486E-04-3.33096E-19-1.60174E-18
 -1       143 2.79899E-04-7.19440E-05-7.80208E-05 8.69995E-05-1.92531E-18-7.53817E-18
 -1       144 3.22733E-04-9.84074E-05-8.37243E-05 3.62758E-06 2.90612E-19-1.00098E-17
 -1       145 2.90792E-04-7.85015E-05-7.94521E-05-7.70517E-05 2.54838E-18-1.06392E-17
 -1       146 1.99640E-04-2.46890E-05-6.65138E-05-1.21612E-04 6.35169E-18-1.26454E-17
 -1       147 1.00638E-04 2.20786E-05-4.84138E-05-1.08601E-04 8.39833E-18-1.14193E-17
 -1       148 3.07752E-05 3.10633E-05-2.72097E-05-5.74583E-05 9.44908E-18-8.22935E-18
 -1       149 6.04883E-06-3.19513E-06-6.58109E-06-3.10611E-06 7.76899E-18-4.58308E-18
 -1       150 1.75947E-05-6.53756E-05 1.10957E-05 2.44474E-05 5.64844E-18-1.67056E-18
 -1       151 3.68433E-05-1.13615E-04 2.11496E-05 1.17858E-05-5.08643E-19-2.99922E-19
 -1       152 3.81492E-05-1.21198E-04 2.29548E-05-1.99340E-05-7.27930E-18-1.09532E-18
 -1       153 3.33466E-06-2.55456E-05-7.22126E-08-2.02625E-05-8.56011E-18-5.39666E-18
 -1       154 2.43153E-05 1.70766E-05-2.27518E-05 3.66281E-05-1.01923E-17-1.02326E-17
 -1       155 1.10971E-04 1.01789E-05-4.93898E-05 1.01683E-04-9.40376E-18-1.32493E-17
 -1       156 2.38639E-04-4.30859E-05-7.25430E-05 1.21889E-04-3.36230E-18-9.45373E-18
 -1       157 3.54805E-04-1.04190E-04-8.83617E-05 6.76804E-05-4.87884E-19-4.45158E-18
 -1       158 3.77248E-04-1.16654E-04-9.10883E-05-3.03239E-05-1.09985E-18 4.26979E-18
 -1       159 2.98103E-04-7.33071E-05-8.10043E-05-1.06818E-04-1.61434E-18 7.80033E-18
 -1       160 1.64385E-04-9.86387E-06-5.99089E-05-1.16603E-04-4.22119E-18 7.81811E-18
 -1       161 5.80471E-05 2.07771E-05-3.54829E-05-7.01094E-05-5.87036E-18 6.94144E-18
 -1       162 8.59507E-06-1.45796E-06-1.06399E-05-5.66406E-06-6.46837E-18 5.77338E-18
 -1       163 9.56619E-06-5.66421E-05 9.19804E-06 3.45027E-05-4.88738E-18 2.33993E-18
 -1       164 3.14911E-05-1.09412E-04 2.08282E-05 3.14055E-05 2.58049E-18 7.48109E-19
 -1       165 9.48119E-05-1.23087E-05-3.55427E-05-2.24310E-05-1.83586E-18 5.89297E-19
 -1       166 8.92316E-05-8.44461E-06-3.47841E-05-1.73931E-05-1.64811E-18-1.31415E-18
 -1       167 8.65583E-05-6.51179E-06-3.44164E-05-1.35993E-05-1.28711E-18-2.48279E-18
 -1       168 8.52035E-05-5.51700E-06-3.42345E-05-1.03696E-05-9.50326E-19-2.90421E-18
 -1       169 8.44653E-05-4.94632E-06-3.41487E-05-7.54758E-06-6.44501E-19-3.04060E-18
 -1       170 8.40416E-05-4.59991E-06-3.41081E-05-4.90341E-06-3.13864E-19-3.01122E-18
 -1       171 8.38248E-05-4.41444E-06-3.40911E-05-2.39522E-06 5.31900E-20-2.90581E-18
 -1       172 8.37605E-05-4.35806E-06-3.40866E-05 5.02434E-08 4.14634E-19-2.84316E-18
 -1       173 8.38336E-05-4.42220E-06-3.40916E-05 2.49761E-06 6.38685E-19-2.73552E-18
 -1       174 8.40612E-05-4.61779E-06-3.41091E-05 5.01177E-06 9.20552E-19-2.53666E-18
 -1       175 8.44896E-05-4.97134E-06-3.41488E-05 7.62089E-06 1.19806E-18-2.24965E-18
 -1       176 8.52583E-05-5.57320E-06-3.42356E-05 1.05098E-05 1.55524E-18-1.76431E-18
 -1       177 8.66478E-05-6.60851E-06-3.44179E-05 1.37753E-05 1.81198E-18-9.49974E-19
 -1       178 8.93765E-05-8.59662E-06-3.47867E-05 1.76269E-05 2.00344E-18 5.56699E-19
 -1       179 9.57529E-05-1.36088E-05-3.54170E-05 2.18875E-05 1.85602E-18 3.18527E-18
 -1       180 1.05565E-04-2.60897E-05-3.52510E-05 1.86599E-05 1.33788E-18 6.46424E-18
 -1       181 1.03571E-04-2.70679E-05-3.27894E-05-1.25990E-05-1.49080E-18 2.98463E-18
 -1       182 9.72788E-05-2.82583E-05-2.96196E-05-4.96507E-06-1.39799E-18 2.24715E-18
 -1       183 9.35885E-05-2.76432E-05-2.82155E-05-1.86472E-06-1.07120E-18 1.65989E-18
 -1       184 9.19911E-05-2.74035E-05-2.76443E-05-4.65882E-07-9.01011E-19 8.84627E-19
 -1       185 9.13860E-05-2.73229E-05-2.74367E-05 2.25604E-07-7.29288E-19 3.28043E-19
 -1       186 9.13362E-05-2.73603E-05-2.74092E-05 5.70274E-07-5.37463E-19-1.82709E-19
 -1       187 9.15886E-05-2.74654E-05-2.74770E-05 7.25930E-07-5.98226E-19-4.55219E-19
 -1       188 9.19977E-05-2.76044E-05-2.75950E-05 7.75618E-07-3.44926E-19-7.56827E-19
 -1       189 9.24793E-05-2.77564E-05-2.77373E-05 7.68534E-07-2.97575E-19-8.27977E-19
 -1       190 9.29873E-05-2.79104E-05-2.78896E-05 7.36748E-07-3.20091E-19-1.23452E-18
 -1       191 9.35012E-05-2.80615E-05-2.80451E-05 7.03082E-07-1.29707E-19-1.51309E-18
 -1       192 9.40188E-05-2.82097E-05-2.82032E-05 6.85611E-07-1.00643E-20-1.54516E-18
 -1       193 9.45536E-05-2.83590E-05-2.83679E-05 7.00902E-07-2.57175E-19-1.89489E-18
 -1       194 9.51328E-05-2.85167E-05-2.85478E-05 7.66974E-07-7.02363E-19-2.10271E-18
 -1       195 9.57994E-05-2.86938E-05-2.87563E-05 9.06595E-07-2.94684E-19-1.68712E-18
 -1       196 9.66153E-05-2.89056E-05-2.90135E-05 1.15143E-06 2.16780E-19-1.33758E-18
 -1       197 9.76671E-05-2.91730E-05-2.93473E-05 1.54750E-06 3.33338E-19-1.34328E-18
 -1       198 9.90752E-05-2.95245E-05-2.97969E-05 2.16204E-06 5.67412E-19-6.84433E-19
 -1       199 1.01004E-04-2.99994E-05-3.04166E-05 3.09093E-06-2.84678E-19-3.21877E-19
 -1       200 1.03674E-04-3.06520E-05-3.12781E-05 4.46225E-06-6.69800E-19-6.23315E-19
 -1       201 1.07363E-04-3.15599E-05-3.24696E-05 6.42291E-06-2.29920E-19-1.21397E-18
 -1       202 1.12387E-04-3.28431E-05-3.40796E-05 9.07325E-06 8.52969E-19-1.60532E-18
 -1       203 1.19044E-04-3.47083E-05-3.61482E-05 1.22698E-05-1.15742E-19-1.90274E-18
 -1       204 1.27476E-04-3.75399E-05-3.85609E-05 1.51572E-05 4.51803E-19-8.90880E-19
 -1       205 1.37460E-04-4.19662E-05-4.09197E-05 1.53543E-05 1.19206E-18-1.17486E-18
 -1       206 1.47977E-04-4.83668E-05-4.26156E-05 8.45856E-06 1.18555E-18 9.52747E-19
 -1       207 1.56080E-04-5.43217E-05-4.35515E-05-8.25615E-06 2.82538E-19 1.36842E-18
 -1       208 1.57846E-04-5.34027E-05-4.52273E-05-2.94999E-05-1.42963E-18 1.52074E-18
 -1       209 1.50273E-04-4.11083E-05-4.75734E-05-3.24679E-05-3.15943E-18 6.54485E-19
 -1       210 1.43381E-04-2.95674E-05-4.97298E-05-1.11803E-05-3.25239E-18-2.73688E-19
 -1       211 1.48692E-04-4.46391E-05-4.53377E-05 3.11081E-05 1.25049E-18-3.77345E-18
 -1       212 1.57280E-04-5.32293E-05-4.45834E-05 1.92887E-05 2.65957E-19-3.68409E-18
 -1       213 1.54999E-04-5.11246E-05-4.43130E-05-5.28589E-07 1.01891E-18-3.04047E-18
 -1       214 1.45965E-04-4.53614E-05-4.30358E-05-1.16336E-05 6.65404E-19-4.67001E-18
 -1       215 1.35100E-04-4.03558E-05-4.06225E-05-1.40336E-05-4.74587E-19-2.04932E-18
 -1       216 1.25033E-04-3.67833E-05-3.78544E-05-1.22184E-05 1.28617E-18-6.97413E-19
 -1       217 1.16779E-04-3.43049E-05-3.53618E-05-9.31410E-06 9.72354E-19-1.49230E-18
 -1       218 1.10472E-04-3.25727E-05-3.33855E-05-6.66287E-06-7.46299E-19-1.19455E-18
 -1       219 1.05851E-04-3.13521E-05-3.19207E-05-4.62190E-06-6.70413E-19-8.40389E-19
 -1       220 1.02546E-04-3.04898E-05-3.08721E-05-3.16343E-06-2.58395E-20-3.34501E-18
 -1       221 1.00212E-04-2.98807E-05-3.01339E-05-2.15720E-06 2.99219E-19-1.77115E-18
 -1       222 9.85731E-05-2.94502E-05-2.96176E-05-1.47341E-06 1.59564E-18 1.09421E-18
 -1       223 9.74237E-05-2.91456E-05-2.92572E-05-1.00976E-06-1.22289E-18-3.55606E-19
 -1       224 9.66188E-05-2.89298E-05-2.90060E-05-6.92193E-07-9.79298E-19-4.24786E-18
 -1       225 9.60588E-05-2.87774E-05-2.88324E-05-4.68320E-07-5.04497E-19-3.27340E-18
 -1       226 9.56775E-05-2.86712E-05-2.87154E-05-3.00813E-07-1.13298E-18-3.63459E-18
 -1       227 9.54320E-05-2.86006E-05-2.86411E-05-1.63608E-07-1.96309E-18-3.36209E-18
 -1       228 9.52941E-05-2.85629E-05-2.85978E-05-4.78226E-08 9.20440E-19-4.19031E-18
 -1       229 9.52504E-05-2.85623E-05-2.85799E-05 4.32793E-09 2.62652E-18-2.33560E-18
 -1       230 9.94655E-05-2.85407E-05-3.05761E-05 7.21262E-06 1.43846E-18 5.64257E-18
 -1       231 9.44020E-05-2.77732E-05-2.85197E-05 2.76631E-06 1.04340E-18 4.62686E-18
 -1       232 9.21016E-05-2.74108E-05-2.76771E-05 9.19417E-07 6.72835E-19 3.84285E-18
 -1       233 9.11530E-05-2.72607E-05-2.73564E-05 3.72662E-08 3.84670E-19 3.31919E-18
 -1       234 9.09369E-05-2.72436E-05-2.72844E-05-3.92262E-07 2.78489E-19 3.05792E-18
 -1       235 9.11289E-05-2.73261E-05-2.73379E-05-5.95817E-07 2.77626E-19 2.45380E-18
 -1       236 9.15349E-05-2.74617E-05-2.74567E-05-6.76081E-07 4.24578E-19 2.06971E-18
 -1       237 9.20415E-05-2.76209E-05-2.76071E-05-6.87729E-07 5.30961E-19 1.83500E-18
 -1       238 9.25837E-05-2.77865E-05-2.77694E-05-6.63702E-07 5.20273E-19 1.49329E-18
 -1       239 9.31266E-05-2.79494E-05-2.79327E-05-6.24849E-07 3.58200E-19 1.50906E-18
 -1       240 9.36538E-05-2.81059E-05-2.80919E-05-5.84358E-07 5.29147E-20 8.78584E-19
 -1       241 9.41608E-05-2.82554E-05-2.82453E-05-5.49856E-07 1.92134E-19 4.34847E-19
 -1       242 9.46492E-05-2.83994E-05-2.83930E-05-5.24300E-07 3.37750E-19 3.28848E-19
 -1       243 9.51223E-05-2.85397E-05-2.85358E-05-5.06097E-07 2.81135E-21 5.11758E-19
 -1       244 9.55805E-05-2.86775E-05-2.86733E-05-4.88678E-07 2.42721E-19 9.95675E-19
 -1       245 9.60162E-05-2.88120E-05-2.88027E-05-4.59758E-07 6.22591E-20 3.28750E-19
 -1       246 9.64087E-05-2.89385E-05-2.89170E-05-4.00644E-07 5.36327E-19 1.43342E-19
 -1       247 9.67190E-05-2.90466E-05-2.90040E-05-2.86255E-07 5.23692E-20-2.36737E-20
 -1       248 9.68856E-05-2.91188E-05-2.90447E-05-8.68925E-08-8.87500E-19 2.83976E-19
 -1       249 9.68230E-05-2.91288E-05-2.90136E-05 2.26824E-07-2.71059E-19 4.96227E-19
 -1       250 9.64270E-05-2.90418E-05-2.88809E-05 6.74435E-07-1.57954E-19 8.33552E-19
 -1       251 9.55894E-05-2.88182E-05-2.86173E-05 1.25105E-06 3.44436E-19 1.09238E-18
 -1       252 9.42259E-05-2.84209E-05-2.82024E-05 1.90986E-06 6.37802E-19 7.55708E-19
 -1       253 9.23162E-05-2.78298E-05-2.76365E-05 2.54855E-06-4.61893E-19 2.46162E-19
 -1       254 8.99489E-05-2.70605E-05-2.69513E-05 3.01146E-06 3.98727E-19 1.11487E-19
 -1       255 8.73530E-05-2.61818E-05-2.62155E-05 3.12006E-06 7.12126E-19-7.15055E-19
 -1       256 8.48912E-05-2.53201E-05-2.55302E-05 2.73477E-06-2.87114E-21-2.24482E-19
 -1       257 8.29944E-05-2.46391E-05-2.50094E-05 1.82920E-06 1.74535E-21 1.49685E-19
 -1       258 8.20446E-05-2.42919E-05-2.47506E-05 5.35744E-07 1.19018E-19 4.98645E-19
 -1       259 8.22478E-05-2.43639E-05-2.48055E-05-8.76632E-07-3.20509E-19 4.40671E-19
 -1       260 8.35583E-05-2.48371E-05-2.51627E-05-2.09434E-06-3.13146E-19-1.98513E-19
 -1       261 8.56957E-05-2.55974E-05-2.57519E-05-2.87627E-06 2.55136E-19 5.51084E-20
 -1       262 8.82464E-05-2.64815E-05-2.64664E-05-3.13122E-06 6.35395E-19-4.96934E-19
 -1       263 9.07939E-05-2.73343E-05-2.71941E-05-2.92035E-06 4.24914E-20-1.39074E-18
 -1       264 9.30198E-05-2.80484E-05-2.78441E-05-2.40003E-06 1.23748E-18-9.44593E-19
 -1       265 9.47477E-05-2.85746E-05-2.83610E-05-1.74798E-06 1.64988E-19-1.94842E-18
 -1       266 9.59331E-05-2.89123E-05-2.87257E-05-1.10856E-06-5.75298E-19-3.12686E-18
 -1       267 9.66257E-05-2.90897E-05-2.89470E-05-5.70248E-07 1.75571E-19-3.33846E-18
 -1       268 9.69242E-05-2.91471E-05-2.90502E-05-1.68713E-07 9.16612E-19-1.48858E-18
 -1       269 9.69411E-05-2.91242E-05-2.90668E-05 9.77336E-08-9.22149E-19-1.53651E-18
 -1       270 9.67795E-05-2.90544E-05-2.90268E-05 2.50887E-07-1.79770E-18-2.08038E-18
 -1       271 9.65224E-05-2.89625E-05-2.89554E-05 3.19179E-07 1.69245E-20-1.39674E-18
 -1       272 9.62308E-05-2.88655E-05-2.88714E-05 3.29323E-07 1.73206E-18-2.26028E-18
 -1       273 9.59459E-05-2.87743E-05-2.87880E-05 3.02217E-07 6.39787E-19-3.74790E-18
 -1       274 9.56939E-05-2.86949E-05-2.87138E-05 2.51676E-07-9.05241E-19-1.42854E-18
 -1       275 9.54914E-05-2.86310E-05-2.86545E-05 1.85239E-07-1.15386E-18-9.68951E-19
 -1       276 9.53467E-05-2.85842E-05-2.86126E-05 1.05931E-07 1.57032E-18-1.48329E-18
 -1       277 9.52634E-05-2.85618E-05-2.85855E-05 2.58081E-08 3.92535E-19-2.04334E-18
 -1       278 9.52458E-05-2.85114E-05-2.85998E-05 7.29617E-08-8.10890E-19 9.89899E-20
 -1       279 9.52105E-05-2.84056E-05-2.86305E-05 1.56462E-07-1.06658E-18 5.71188E-19
 -1       280 9.51560E-05-2.82552E-05-2.86716E-05 2.18331E-07-2.86163E-18-1.12032E-19
 -1       281 9.50932E-05-2.80776E-05-2.87209E-05 2.49506E-07-2.41683E-18-4.83652E-19
 -1       282 9.50288E-05-2.78951E-05-2.87718E-05 2.46472E-07-2.72801E-18-1.59224E-18
 -1       283 9.49682E-05-2.77244E-05-2.88193E-05 2.08679E-07-1.43743E-18 1.05528E-18
 -1       284 9.49203E-05-2.75926E-05-2.88555E-05 1.38304E-07-2.45796E-18-1.51084E-18
 -1       285 9.48928E-05-2.75206E-05-2.88747E-05 4.18985E-08-1.95578E-18-6.75189E-19
 -1       286 9.48918E-05-2.75234E-05-2.88731E-05-6.85868E-08-1.42390E-18 1.20048E-18
 -1       287 9.49203E-05-2.76059E-05-2.88498E-05-1.75811E-07-6.00743E-19 1.34401E-18
 -1       288 9.49751E-05-2.77563E-05-2.88085E-05-2.57645E-07 1.49855E-18-7.28856E-20
 -1       289 9.50509E-05-2.79579E-05-2.87543E-05-2.96392E-07 4.09545E-18 2.09594E-18
 -1       290 9.51345E-05-2.81747E-05-2.86971E-05-2.75722E-07 3.92053E-18 1.11600E-18
 -1       291 9.52089E-05-2.83675E-05-2.86462E-05-1.93193E-07 3.22767E-18-4.05531E-19
 -1       292 9.52446E-05-2.84899E-05-2.86091E-05-8.33507E-08 4.22021E-18 1.71662E-19
 -1       293 1.43543E-05-5.29128E-05 1.29579E-05 1.43538E-05 2.19403E-18 2.18598E-18
 -1       294 3.00005E-05-4.30917E-05 3.00675E-06 2.82011E-05 3.11793E-18 1.08521E-18
 -1       295 6.97987E-05-3.97220E-05-1.37121E-05 4.64031E-05 6.55604E-19-1.45245E-18
 -1       296 1.04392E-04-2.96761E-05-3.19155E-05 5.12708E-05 8.43645E-19-1.40311E-18
 -1       297 1.50724E-04-2.72165E-05-5.12021E-05 5.38915E-05 6.36439E-19-3.75172E-18
 -1       298 1.94011E-04-3.29141E-05-6.61650E-05 4.11641E-05 5.10152E-19-4.20510E-18
 -1       299 2.03637E-04-2.89180E-05-7.25932E-05 1.09350E-05 1.15535E-18-4.73317E-18
 -1       300 2.08565E-04-3.08921E-05-7.35755E-05-9.99473E-06 1.27627E-18-5.20544E-18
 -1       301 1.96276E-04-3.27635E-05-6.73151E-05-3.51734E-05 2.83629E-18-5.73399E-18
 -1       302 1.59007E-04-2.84430E-05-5.40463E-05-5.21392E-05 3.09342E-18-5.83267E-18
 -1       303 1.15826E-04-2.89974E-05-3.67644E-05-5.19486E-05 3.28585E-18-4.84016E-18
 -1       304 7.91055E-05-3.63014E-05-1.90017E-05-4.72594E-05 1.72943E-18-4.20308E-18
 -1       305 3.99006E-05-3.95673E-05-2.14697E-06-3.45878E-05 2.17560E-18-2.49241E-18
 -1       306 1.85699E-05-4.96459E-05 1.01114E-05-1.92553E-05 5.09279E-19-3.11772E-18
 -1       307 1.13552E-05-5.52997E-05 1.51211E-05-7.67224E-06-1.73639E-18-3.19840E-18
 -1       308 1.60337E-05-5.21677E-05 1.20024E-05 5.84758E-06-2.53750E-18-1.58099E-18
 -1       309 3.55337E-05-4.88692E-05 2.25518E-06 1.81160E-05-4.26460E-18-2.75433E-18
 -1       310 7.33345E-05-4.48495E-05-1.46724E-05 3.20878E-05-3.52175E-18-5.97402E-18
 -1       311 1.28621E-04-4.58122E-05-3.60347E-05 3.90496E-05-4.06682E-18-5.83352E-18
 -1       312 1.87779E-04-4.96473E-05-5.70575E-05 3.28982E-05-5.71694E-18-4.23982E-18
 -1       313 2.32397E-04-5.03235E-05-7.32231E-05 1.81912E-05-3.55844E-18-1.47405E-18
 -1       314 2.40288E-04-4.23400E-05-7.93060E-05 1.37456E-06-3.49105E-18 6.39563E-19
 -1       315 2.41538E-04-4.75439E-05-7.75308E-05-1.03342E-05-1.80249E-18 1.12338E-18
 -1       316 2.08122E-04-5.16099E-05-6.41420E-05-1.82099E-05-1.45483E-18 1.48739E-18
 -1       317 1.56686E-04-4.81586E-05-4.59127E-05-3.78946E-05-2.22579E-18 2.91972E-18
 -1       318 9.93698E-05-4.52415E-05-2.48339E-05-3.67368E-05-9.57994E-19 2.03140E-18
 -1       319 5.98701E-05-4.93995E-05-6.62449E-06-3.08208E-05 9.79805E-19 1.28675E-18
 -1       320 2.36770E-05-5.05757E-05 8.16849E-06-1.27963E-05 1.35928E-18 3.10512E-18
 -1       321 1.11463E-05-5.29385E-05 1.44083E-05 2.11539E-06 1.48906E-18 1.94849E-18
 -1       322 1.38710E-04-3.33429E-05-4.64086E-05 2.08194E-05-1.59295E-18-3.37273E-18
 -1       323 9.16345E-05-1.44520E-05-3.31561E-05-1.29841E-05-1.66517E-18-1.40551E-18
 -1       324 9.56786E-05-1.91054E-05-3.28805E-05-1.46421E-05-1.81717E-18-1.34433E-19
 -1       325 8.80195E-05-1.03763E-05-3.33309E-05-8.15090E-06-1.00987E-18-2.23664E-18
 -1       326 8.72096E-05-9.45320E-06-3.33727E-05-5.71440E-06-6.24743E-19-2.26667E-18
 -1       327 8.67512E-05-8.92081E-06-3.34009E-05-3.36426E-06-1.62486E-19-2.09987E-18
 -1       328 8.65463E-05-8.67928E-06-3.34150E-05-1.07195E-06 3.21654E-19-2.05597E-18
 -1       329 8.65541E-05-8.68822E-06-3.34146E-05 1.20157E-06 7.01105E-19-2.05792E-18
 -1       330 8.67761E-05-8.94953E-06-3.33994E-05 3.49572E-06 9.91561E-19-1.91387E-18
 -1       331 8.72454E-05-9.49491E-06-3.33703E-05 5.80889E-06 1.28516E-18-1.72284E-18
 -1       332 8.80801E-05-1.04486E-05-3.33261E-05 8.24862E-06 1.57436E-18-1.39781E-18
 -1       333 8.94843E-05-1.20303E-05-3.32620E-05 1.07628E-05 1.99087E-18-7.31827E-19
 -1       334 9.18849E-05-1.47337E-05-3.31471E-05 1.31420E-05 2.15711E-18 2.15742E-19
 -1       335 9.58687E-05-1.95800E-05-3.27994E-05 1.42785E-05 2.16262E-18 1.89229E-18
 -1       336 9.87534E-05-2.44412E-05-3.19334E-05 1.18501E-05 1.89946E-18 3.40015E-18
 -1       337 9.63128E-05-2.67682E-05-2.97772E-05 5.72512E-06 1.49217E-18 2.80893E-18
 -1       338 1.73261E-04-2.65563E-05-6.29835E-05 8.78926E-06-2.90871E-18 5.51101E-19
 -1       339 9.64767E-05-2.59227E-05-3.01955E-05-6.56593E-06-1.50593E-18 1.70218E-19
 -1       340 9.49628E-05-2.69905E-05-2.91053E-05-2.95558E-06-1.32189E-18 2.92905E-20
 -1       341 9.39689E-05-2.74040E-05-2.85128E-05-9.79950E-07-1.05553E-18 4.07916E-20
 -1       342 9.34408E-05-2.76225E-05-2.82008E-05 1.22307E-07-9.44152E-19-2.01776E-19
 -1       343 9.32510E-05-2.77782E-05-2.80568E-05 7.21936E-07-7.03340E-19-3.63564E-19
 -1       344 9.32829E-05-2.79099E-05-2.80158E-05 1.02514E-06-5.49406E-19-2.86589E-19
 -1       345 9.34514E-05-2.80277E-05-2.80384E-05 1.15501E-06-3.49579E-19-3.23523E-19
 -1       346 9.37001E-05-2.81332E-05-2.81001E-05 1.19031E-06-3.15001E-19-2.98146E-19
 -1       347 9.39949E-05-2.82266E-05-2.81865E-05 1.18503E-06-4.39438E-19-3.01800E-19
 -1       348 9.43185E-05-2.83083E-05-2.82900E-05 1.17911E-06-4.21355E-19-5.46998E-19
 -1       349 9.46662E-05-2.83789E-05-2.84085E-05 1.20540E-06-2.19044E-19-1.23729E-18
 -1       350 9.50434E-05-2.84387E-05-2.85439E-05 1.29483E-06-4.98981E-19-1.12603E-18
 -1       351 9.54639E-05-2.84875E-05-2.87024E-05 1.48141E-06-2.91824E-19-1.20804E-18
 -1       352 9.59485E-05-2.85226E-05-2.88938E-05 1.80745E-06-8.32288E-20-1.09766E-18
 -1       353 9.65241E-05-2.85381E-05-2.91321E-05 2.32972E-06 4.64066E-19-8.58749E-19
 -1       354 9.72221E-05-2.85226E-05-2.94353E-05 3.12648E-06 5.21824E-19-5.44161E-19
 -1       355 9.80758E-05-2.84585E-05-2.98252E-05 4.30459E-06 2.78479E-19-9.59337E-19
 -1       356 9.91159E-05-2.83240E-05-3.03243E-05 6.00309E-06-5.27518E-20-5.43545E-19
 -1       357 1.00368E-04-2.81074E-05-3.09491E-05 8.38445E-06-7.33453E-19 9.67140E-20
 -1       358 1.01858E-04-2.78542E-05-3.16935E-05 1.15936E-05 2.49041E-19 8.58360E-19
 -1       359 1.03679E-04-2.77971E-05-3.24990E-05 1.56474E-05 3.32315E-19 3.76717E-19
 -1       360 1.06194E-04-2.86575E-05-3.32107E-05 2.01896E-05 3.26068E-19 6.90705E-19
 -1       361 1.10561E-04-3.21491E-05-3.35727E-05 2.39975E-05 1.26528E-18 8.86291E-20
 -1       362 1.19446E-04-4.11722E-05-3.34669E-05 2.42956E-05 1.83442E-18-1.01823E-19
 -1       363 1.35523E-04-5.63011E-05-3.38044E-05 1.68672E-05 1.61537E-18-1.29808E-19
 -1       364 1.58046E-04-6.89797E-05-3.83266E-05-4.79953E-07 2.68404E-20 3.70180E-19
 -1       365 1.77137E-04-3.46725E-05-6.09940E-05-2.05203E-05-3.98444E-18-1.06197E-19
 -1       366 1.13562E-04-5.43448E-05-2.53501E-05 4.35276E-05-1.51651E-18-3.97428E-18
 -1       367 1.50601E-04-6.28787E-05-3.75521E-05-2.85504E-06 5.61106E-19-2.69596E-18
 -1       368 1.31703E-04-4.84333E-05-3.56017E-05-1.84292E-05 6.79294E-19-1.89185E-18
 -1       369 1.19432E-04-3.71687E-05-3.52204E-05-2.29362E-05 1.97148E-18 5.76090E-19
 -1       370 1.12409E-04-3.16880E-05-3.45837E-05-2.10485E-05 4.65029E-19 6.52128E-19
 -1       371 1.08057E-04-2.96162E-05-3.35994E-05-1.69253E-05 1.29189E-19-6.74188E-19
 -1       372 1.04970E-04-2.89989E-05-3.25365E-05-1.27102E-05-6.13495E-19-2.08835E-18
 -1       373 1.02592E-04-2.88630E-05-3.15758E-05-9.19375E-06-5.54261E-20-1.85247E-18
 -1       374 1.00720E-04-2.88400E-05-3.07872E-05-6.51774E-06-1.63297E-18-1.96333E-18
 -1       375 9.92585E-05-2.88200E-05-3.01739E-05-4.57629E-06 7.34292E-19-1.87288E-18
 -1       376 9.81330E-05-2.87830E-05-2.97114E-05-3.20266E-06 2.10243E-18-2.63664E-18
 -1       377 9.72780E-05-2.87338E-05-2.93691E-05-2.24133E-06-1.88445E-19-2.37261E-18
 -1       378 9.66358E-05-2.86801E-05-2.91190E-05-1.56840E-06-3.12795E-18-1.66659E-18
 -1       379 9.61581E-05-2.86271E-05-2.89384E-05-1.09136E-06-1.23872E-18-2.87865E-18
 -1       380 9.58063E-05-2.85770E-05-2.88101E-05-7.42700E-07 5.11402E-19-3.77310E-18
 -1       381 9.55509E-05-2.85308E-05-2.87210E-05-4.74321E-07-7.75253E-19-3.06476E-18
 -1       382 9.53690E-05-2.84958E-05-2.86586E-05-2.56174E-07-1.41348E-18-5.71520E-19
 -1       383 9.41332E-05-2.72733E-05-2.86299E-05 1.69412E-06 9.00325E-19 1.77540E-18
 -1       384 9.33823E-05-2.75270E-05-2.82119E-05 2.76996E-07 6.69671E-19 1.36567E-18
 -1       385 9.30488E-05-2.76695E-05-2.80143E-05-4.91511E-07 7.86492E-19 9.52856E-19
 -1       386 9.30086E-05-2.77961E-05-2.79459E-05-8.92423E-07 6.00366E-19 5.93356E-19
 -1       387 9.31486E-05-2.79171E-05-2.79555E-05-1.07727E-06 5.98176E-19 3.93785E-19
 -1       388 9.33929E-05-2.80328E-05-2.80114E-05-1.13710E-06 5.86267E-19 4.19343E-19
 -1       389 9.36927E-05-2.81416E-05-2.80936E-05-1.12950E-06 5.20035E-19 8.21720E-19
 -1       390 9.40190E-05-2.82435E-05-2.81899E-05-1.09162E-06 6.00180E-19 8.63719E-19
 -1       391 9.43559E-05-2.83398E-05-2.82930E-05-1.04675E-06 3.17047E-19 6.65851E-19
 -1       392 9.46965E-05-2.84337E-05-2.83987E-05-1.00748E-06 2.05701E-19-3.20241E-20
 -1       393 9.50389E-05-2.85297E-05-2.85043E-05-9.77132E-07-3.28010E-19-6.13958E-20
 -1       394 9.53832E-05-2.86330E-05-2.86077E-05-9.49781E-07-2.46238E-19-4.94346E-19
 -1       395 9.57280E-05-2.87494E-05-2.87058E-05-9.09549E-07 2.46199E-19-4.30459E-19
 -1       396 9.60669E-05-2.88839E-05-2.87939E-05-8.29608E-07 1.57380E-19 1.27612E-19
 -1       397 9.63857E-05-2.90388E-05-2.88649E-05-6.71810E-07 5.68761E-19 2.70250E-19
 -1       398 9.66576E-05-2.92111E-05-2.89087E-05-3.88347E-07-4.51788E-19 3.94274E-19
 -1       399 9.68397E-05-2.93874E-05-2.89124E-05 7.25053E-08-1.08652E-18 2.24876E-19
 -1       400 9.68708E-05-2.95391E-05-2.88620E-05 7.54149E-07-6.23468E-19 8.14339E-19
 -1       401 9.66722E-05-2.96168E-05-2.87445E-05 1.67107E-06 4.91718E-20 2.75727E-19
 -1       402 9.61558E-05-2.95495E-05-2.85522E-05 2.78065E-06 1.52121E-19 1.15073E-18
 -1       403 9.52444E-05-2.92547E-05-2.82869E-05 3.95419E-06 2.16546E-19 1.19478E-18
 -1       404 9.39076E-05-2.86652E-05-2.79640E-05 4.96275E-06 5.70047E-19 3.76424E-19
 -1       405 9.22083E-05-2.77740E-05-2.76137E-05 5.50105E-06 1.13886E-18 1.07016E-20
 -1       406 9.03422E-05-2.66809E-05-2.72778E-05 5.26839E-06-1.61391E-19-6.85782E-20
 -1       407 8.86358E-05-2.56074E-05-2.70022E-05 4.09831E-06-8.31103E-19 5.74061E-19
 -1       408 8.74715E-05-2.48435E-05-2.68277E-05 2.08269E-06 2.02021E-19 8.28628E-19
 -1       409 8.71496E-05-2.46289E-05-2.67810E-05-3.98224E-07 2.38398E-19 1.04328E-18
 -1       410 8.77592E-05-2.50362E-05-2.68693E-05-2.78769E-06 1.04820E-20 1.19138E-18
 -1       411 8.91342E-05-2.59300E-05-2.70791E-05-4.56426E-06-4.07443E-19 3.88508E-19
 -1       412 9.09316E-05-2.70392E-05-2.73786E-05-5.43454E-06 7.50463E-19 4.74804E-19
 -1       413 9.27749E-05-2.80860E-05-2.77246E-05-5.39890E-06 7.28813E-19 4.10677E-19
 -1       414 9.43757E-05-2.88858E-05-2.80715E-05-4.68159E-06 3.00942E-19 1.71582E-19
 -1       415 9.55835E-05-2.93766E-05-2.83808E-05-3.59757E-06 1.24349E-18 1.86648E-19
 -1       416 9.63711E-05-2.95902E-05-2.86273E-05-2.43468E-06 1.14570E-18-3.43640E-19
 -1       417 9.67902E-05-2.96032E-05-2.88008E-05-1.39158E-06 3.78969E-19-3.21385E-18
 -1       418 9.69263E-05-2.94969E-05-2.89034E-05-5.68558E-07-4.16337E-19-3.02224E-18
 -1       419 9.68684E-05-2.93365E-05-2.89459E-05 1.14020E-08-1.46794E-19-1.21518E-18
 -1       420 9.66930E-05-2.91649E-05-2.89430E-05 3.72595E-07-8.76357E-19-1.39729E-18
 -1       421 9.64588E-05-2.90060E-05-2.89096E-05 5.60349E-07-8.40854E-19-3.36584E-18
 -1       422 9.62069E-05-2.88699E-05-2.88591E-05 6.23098E-07 1.70561E-18-4.08978E-18
 -1       423 9.59640E-05-2.87585E-05-2.88022E-05 6.02531E-07 3.26358E-19-2.79612E-18
 -1       424 9.57457E-05-2.86690E-05-2.87466E-05 5.29639E-07-7.01516E-19-1.83698E-18
 -1       425 9.55599E-05-2.85974E-05-2.86974E-05 4.24691E-07-1.58482E-18-2.33178E-18
 -1       426 9.54098E-05-2.85417E-05-2.86568E-05 3.01524E-07-5.88656E-19-2.48000E-18
 -1       427 9.53123E-05-2.85144E-05-2.86270E-05 1.83038E-07 1.02230E-18-1.18433E-18
 -1       428 9.51521E-05-2.81771E-05-2.87033E-05 4.24072E-07-1.83771E-18-1.08482E-18
 -1       429 9.52330E-05-2.83350E-05-2.86700E-05 3.56075E-07-5.10556E-19-1.28135E-19
 -1       430 9.50659E-05-2.80117E-05-2.87375E-05 4.45275E-07-1.72689E-18-1.88767E-18
 -1       431 9.49776E-05-2.78453E-05-2.87714E-05 4.10207E-07-7.04136E-19 9.54540E-19
 -1       432 9.48974E-05-2.76983E-05-2.88003E-05 3.18090E-07-1.76598E-18-7.65444E-19
 -1       433 9.48355E-05-2.75896E-05-2.88205E-05 1.74601E-07-2.93331E-18-1.99556E-18
 -1       434 9.48035E-05-2.75375E-05-2.88292E-05-5.77224E-09-2.93491E-18 2.37393E-18
 -1       435 9.48116E-05-2.75554E-05-2.88250E-05-1.98904E-07 8.03797E-20 2.90491E-19
 -1       436 9.48640E-05-2.76454E-05-2.88086E-05-3.69765E-07-7.04482E-19 1.65947E-18
 -1       437 9.49599E-05-2.78033E-05-2.87817E-05-4.89142E-07 1.76927E-18 5.09286E-18
 -1       438 9.50866E-05-2.80080E-05-2.87479E-05-5.23884E-07 2.92834E-18 1.10523E-18
 -1       439 9.52194E-05-2.82274E-05-2.87103E-05-4.58038E-07 1.58699E-18-3.64554E-19
 -1       440 9.49217E-05-2.70692E-05-2.90425E-05 3.31942E-06 1.19038E-18 2.21244E-18
 -1       441 6.19790E-05-4.06758E-05-9.10348E-06 5.04326E-05-1.53535E-18-3.28024E-18
 -1       442 1.43873E-04-5.13853E-05-3.96392E-05 2.60593E-05-3.88100E-19-4.03855E-18
 -1       443 9.74031E-06-2.44644E-05 5.94399E-06 1.16087E-05 7.62886E-19 4.34210E-19
 -1       444 1.72606E-04-4.24327E-05-5.61205E-05 2.92193E-05-1.33831E-18 9.55030E-20
 -1       445 8.93729E-05-1.19000E-05-3.32689E-05-1.06447E-05-1.43792E-18-2.02570E-18
 -1       446 1.70249E-04-6.50733E-05-4.53337E-05 1.89117E-05 4.62884E-19-1.28865E-18
 -1       447 1.61426E-04-3.60170E-05-5.35527E-05 1.29452E-05 9.11355E-19-2.25110E-18
 -1       448 1.65725E-04-2.11711E-05-6.18433E-05 2.03320E-06 1.03984E-18-2.28487E-18
 -1       449 1.64214E-04-1.06973E-05-6.58060E-05 3.61425E-07 8.45551E-19-1.46066E-18
 -1       450 1.62038E-04-1.72248E-05-6.20834E-05 6.13534E-07 1.76373E-18-1.51015E-18
 -1       451 1.61526E-04-3.38857E-05-5.46117E-05-9.17341E-06 1.23021E-18-1.20914E-18
 -1       452 1.48217E-04-4.74435E-05-4.30737E-05-2.49610E-05 7.70271E-21-2.37212E-18
 -1       453 1.21764E-04-5.38360E-05-2.90560E-05-4.07304E-05-1.37463E-18-1.80270E-18
 -1       454 7.78563E-05-4.67013E-05-1.34462E-05-5.07735E-05-6.27016E-19-1.71011E-18
 -1       455 3.89133E-05-3.36193E-05-2.36947E-06-4.36293E-05-1.22883E-18-2.51325E-18
 -1       456 1.38833E-05-2.52041E-05 4.60165E-06-2.20451E-05-1.18262E-18-4.21399E-18
 -1       457 1.27517E-05-2.21491E-05 3.99794E-06 5.43933E-06-6.85541E-19-2.21203E-18
 -1       458 3.63994E-05-3.66182E-05-3.86500E-07 2.96340E-05-1.38564E-18-2.36460E-18
 -1       459 8.19081E-05-5.30528E-05-1.27050E-05 3.93447E-05-6.95096E-19-2.58978E-18
 -1       460 1.31281E-04-6.73085E-05-2.78017E-05 2.80759E-05-6.97214E-19-2.85577E-18
 -1       461 1.72155E-04-6.75947E-05-4.46250E-05 1.45697E-06-2.52156E-18-5.50783E-19
 -1       462 1.88211E-04-5.21409E-05-5.77172E-05-1.75539E-05-4.46736E-18 3.82224E-19
 -1       463 1.80076E-04-6.28755E-05-5.02558E-05 5.92245E-06-2.83346E-19 3.79683E-19
 -1       464 1.52154E-04-6.89851E-05-3.58940E-05-1.71051E-05-3.70048E-19 1.12094E-18
 -1       465 1.13960E-04-6.36639E-05-2.18094E-05-3.37330E-05 1.74319E-18 2.15811E-18
 -1       466 5.24753E-05-4.14892E-05-5.09648E-06-3.55753E-05 2.86763E-18-5.89641E-19
 -1       467 2.14209E-05-2.58570E-05 1.90065E-06-1.90054E-05 1.79830E-18 1.50962E-18
 -1       468 2.95790E-05-2.96233E-05-1.65070E-08 3.87799E-05-1.06176E-18 1.83001E-18
 -1       469 9.66258E-05-5.20034E-05-1.88133E-05 4.84850E-05-2.31605E-18-2.82575E-18
 -1       470 9.53051E-05-2.83695E-05-2.86856E-05-3.73912E-07-5.10651E-20-2.77043E-18
 -1       471 9.48116E-05-5.23493E-05-1.78595E-05-3.84096E-05 1.78586E-18 1.87774E-18
 -1       472 1.46137E-04-9.34440E-06-5.91366E-05-4.81373E-06 3.06308E-19-1.59618E-18
 -1       473 8.95576E-05-1.33923E-05-3.26614E-05-3.91695E-06-2.62810E-19-1.85066E-18
 -1       474 9.02630E-05-1.43585E-05-3.25517E-05-5.87583E-06-7.09036E-19-1.91036E-18
 -1       475 8.90584E-05-1.27071E-05-3.27398E-05 5.44897E-08 4.73331E-19-1.75352E-18
 -1       476 8.91923E-05-1.28904E-05-3.27189E-05 2.04127E-06 7.68994E-19-1.77899E-18
 -1       477 8.95854E-05-1.34292E-05-3.26576E-05 3.98999E-06 1.08830E-18-1.59118E-18
 -1       478 9.03069E-05-1.44183E-05-3.25447E-05 5.94034E-06 1.35162E-18-1.37620E-18
 -1       479 9.14555E-05-1.60054E-05-3.23590E-05 7.76541E-06 1.59309E-18-7.93771E-19
 -1       480 9.31712E-05-1.84290E-05-3.20530E-05 9.21400E-06 1.89257E-18-2.12584E-19
 -1       481 9.53000E-05-2.18825E-05-3.14762E-05 9.54104E-06 1.92573E-18 7.64441E-19
 -1       482 9.63400E-05-2.46141E-05-3.07284E-05 8.02957E-06 1.80920E-18 1.76144E-18
 -1       483 9.54686E-05-2.43013E-05-3.04911E-05-5.99083E-06-1.43918E-18-8.08839E-19
 -1       484 1.47901E-04-4.68678E-05-4.35569E-05 2.22763E-06 6.98895E-19-8.79008E-19
 -1       485 9.52912E-05-2.61588E-05-2.96213E-05-2.99338E-06-1.25011E-18-8.27030E-19
 -1       486 9.49394E-05-2.71149E-05-2.90638E-05-1.07367E-06-1.09238E-18-8.76011E-19
 -1       487 9.46670E-05-2.76555E-05-2.87175E-05 9.80836E-08-8.54028E-19-6.62880E-19
 -1       488 9.45188E-05-2.79830E-05-2.85147E-05 7.80934E-07-4.20346E-19-4.51387E-19
 -1       489 9.44787E-05-2.81901E-05-2.84092E-05 1.15235E-06-3.40565E-19-1.25257E-19
 -1       490 9.45182E-05-2.83215E-05-2.83701E-05 1.33421E-06-4.61437E-19-3.68405E-20
 -1       491 9.46120E-05-2.84001E-05-2.83766E-05 1.41197E-06-5.02207E-19-3.63309E-19
 -1       492 9.47412E-05-2.84380E-05-2.84157E-05 1.44792E-06-4.79454E-19-4.13355E-19
 -1       493 9.48931E-05-2.84403E-05-2.84797E-05 1.49016E-06-6.63448E-19-2.67001E-19
 -1       494 9.50596E-05-2.84071E-05-2.85651E-05 1.57931E-06-7.53338E-19-2.03321E-19
 -1       495 9.52343E-05-2.83324E-05-2.86717E-05 1.75394E-06-5.11727E-20-2.20558E-19
 -1       496 9.54092E-05-2.82029E-05-2.88017E-05 2.05561E-06-4.48726E-19-1.23441E-19
 -1       497 9.55705E-05-2.79954E-05-2.89591E-05 2.53385E-06 2.47492E-19-3.33853E-19
 -1       498 9.56915E-05-2.76731E-05-2.91482E-05 3.25099E-06 6.11057E-19-9.58407E-19
 -1       499 9.57235E-05-2.71824E-05-2.93709E-05 4.28644E-06 1.62423E-19-7.10533E-19
 -1       500 9.55838E-05-2.64520E-05-2.96224E-05 5.73868E-06 1.93316E-19-5.56333E-19
 -1       501 9.51437E-05-2.54038E-05-2.98809E-05 7.72228E-06-1.72626E-19-6.37903E-19
 -1       502 9.42295E-05-2.39929E-05-3.00917E-05 1.03557E-05-1.72065E-19-3.62803E-19
 -1       503 9.26662E-05-2.23159E-05-3.01381E-05 1.37388E-05 2.14652E-19-7.58093E-19
 -1       504 9.04313E-05-2.08541E-05-2.98001E-05 1.79425E-05 8.22017E-19-7.77383E-19
 -1       505 8.81272E-05-2.10077E-05-2.87099E-05 2.30543E-05 6.62456E-19-4.48150E-19
 -1       506 8.79494E-05-2.58779E-05-2.64133E-05 2.88899E-05 9.01025E-19-4.59767E-19
 -1       507 9.39292E-05-3.90052E-05-2.31592E-05 3.40776E-05 1.47352E-18-1.42934E-18
 -1       508 1.21047E-04-6.25120E-05-2.49496E-05 3.04304E-05 1.33747E-18-2.04348E-18
 -1       509 1.73051E-04-5.65199E-05-5.02795E-05-2.08211E-05-3.25022E-18 7.98117E-19
 -1       510 9.45466E-05-2.06243E-05-3.16998E-05-9.53629E-06-1.63000E-18-1.06275E-18
 -1       511 1.01563E-04-3.55162E-05-2.80958E-05-2.98825E-05 1.87987E-18 1.69866E-18
 -1       512 9.46888E-05-2.56256E-05-2.95265E-05-2.59088E-05 9.73489E-19 2.53633E-19
 -1       513 9.43928E-05-2.30708E-05-3.05364E-05-2.07663E-05-3.84849E-19 9.55906E-19
 -1       514 9.52895E-05-2.34183E-05-3.07855E-05-1.60048E-05-9.52584E-19 7.80633E-19
 -1       515 9.60999E-05-2.46036E-05-3.06278E-05-1.20104E-05-4.21674E-19-2.70497E-19
 -1       516 9.65255E-05-2.57788E-05-3.03087E-05-8.84382E-06-6.84426E-20-2.69197E-18
 -1       517 9.66257E-05-2.66975E-05-2.99606E-05-6.43184E-06-1.06044E-18-1.87295E-18
 -1       518 9.65254E-05-2.73436E-05-2.96431E-05-4.64448E-06 7.09659E-19-1.24154E-18
 -1       519 9.63283E-05-2.77712E-05-2.93772E-05-3.34172E-06 1.64206E-18-2.57972E-18
 -1       520 9.61012E-05-2.80419E-05-2.91652E-05-2.39900E-06-1.59907E-18-2.56870E-18
 -1       521 9.58809E-05-2.82054E-05-2.90017E-05-1.71546E-06-2.32254E-18-1.62229E-18
 -1       522 9.56839E-05-2.82966E-05-2.88787E-05-1.21395E-06-1.49647E-18-2.09770E-18
 -1       523 9.55126E-05-2.83381E-05-2.87880E-05-8.37224E-07-1.30286E-18-3.89197E-18
 -1       524 9.54038E-05-2.83590E-05-2.87323E-05-5.87417E-07 4.34753E-19-4.80323E-18
 -1       525 9.43984E-05-2.78309E-05-2.85274E-05-5.13495E-07 9.37194E-19 4.44560E-19
 -1       526 9.46239E-05-2.74540E-05-2.87836E-05 3.65966E-07 9.01778E-19 3.57009E-19
 -1       527 9.49989E-05-2.68118E-05-2.92191E-05 1.86504E-06 1.04068E-18 5.19911E-19
 -1       528 9.43107E-05-2.80696E-05-2.83885E-05-1.00441E-06 6.62682E-19 1.60353E-19
 -1       529 9.43269E-05-2.82289E-05-2.83276E-05-1.25189E-06 7.06841E-19 2.92108E-20
 -1       530 9.44137E-05-2.83382E-05-2.83182E-05-1.35297E-06 2.71921E-19 1.77697E-19
 -1       531 9.45463E-05-2.84147E-05-2.83423E-05-1.37314E-06 3.60375E-19-8.59028E-20
 -1       532 9.47083E-05-2.84708E-05-2.83877E-05-1.35595E-06 6.01795E-19 4.81804E-19
 -1       533 9.48911E-05-2.85170E-05-2.84462E-05-1.32864E-06 5.09449E-19 6.05608E-19
 -1       534 9.50921E-05-2.85644E-05-2.85120E-05-1.30513E-06 4.39523E-20 1.12739E-18
 -1       535 9.53129E-05-2.86249E-05-2.85807E-05-1.28718E-06 4.08657E-19 2.15033E-19
 -1       536 9.55584E-05-2.87129E-05-2.86483E-05-1.26428E-06 3.10439E-19-6.25066E-19
 -1       537 9.58353E-05-2.88443E-05-2.87108E-05-1.21262E-06-1.77764E-19-4.28497E-19
 -1       538 9.61495E-05-2.90359E-05-2.87636E-05-1.09402E-06 2.42723E-19-4.99408E-19
 -1       539 9.65032E-05-2.93015E-05-2.88018E-05-8.55914E-07-7.21219E-20 3.90289E-19
 -1       540 9.68896E-05-2.96453E-05-2.88206E-05-4.34402E-07-7.71064E-19 2.32500E-19
 -1       541 9.72847E-05-3.00514E-05-2.88166E-05 2.36973E-07-1.09792E-18-3.99484E-19
 -1       542 9.76374E-05-3.04692E-05-2.87892E-05 1.20922E-06-4.48122E-19 3.35842E-19
 -1       543 9.78602E-05-3.08000E-05-2.87433E-05 2.48802E-06-2.21126E-19 9.42467E-19
 -1       544 9.78282E-05-3.08936E-05-2.86893E-05 3.99279E-06 9.78819E-20 6.59605E-19
 -1       545 9.73999E-05-3.05718E-05-2.86427E-05 5.51512E-06 3.94641E-19 8.50177E-19
 -1       546 9.64720E-05-2.96939E-05-2.86196E-05 6.70261E-06 5.05544E-19 1.77243E-18
 -1       547 9.50665E-05-2.82615E-05-2.86291E-05 7.10801E-06 9.04348E-19 2.63369E-18
 -1       548 9.34108E-05-2.65140E-05-2.86663E-05 6.33403E-06-7.07908E-19 1.87364E-18
 -1       549 9.19365E-05-2.49304E-05-2.87115E-05 4.25054E-06-1.46156E-19 1.17953E-18
 -1       550 9.11295E-05-2.40562E-05-2.87392E-05 1.16805E-06 1.31367E-19 2.22563E-18
 -1       551 9.12875E-05-2.42277E-05-2.87336E-05-2.20648E-06-6.30336E-20 2.08944E-18
 -1       552 9.23524E-05-2.53790E-05-2.86975E-05-5.03503E-06 7.03562E-19 1.74172E-18
 -1       553 9.39382E-05-2.70741E-05-2.86525E-05-6.71556E-06 9.08854E-19 1.54708E-19
 -1       554 9.55532E-05-2.87613E-05-2.86239E-05-7.08894E-06 1.17180E-18 1.45084E-18
 -1       555 9.68233E-05-3.00299E-05-2.86268E-05-6.39280E-06 8.58923E-19 8.28282E-19
 -1       556 9.75908E-05-3.07209E-05-2.86611E-05-5.06203E-06 1.36724E-18 2.44745E-19
 -1       557 9.78841E-05-3.08899E-05-2.87150E-05-3.52617E-06 1.86238E-18-7.49269E-19
 -1       558 9.78278E-05-3.06993E-05-2.87725E-05-2.09462E-06 2.09934E-18-5.44377E-19
 -1       559 9.75631E-05-3.03229E-05-2.88199E-05-9.33336E-07-1.72405E-19-1.06972E-18
 -1       560 9.72051E-05-2.98957E-05-2.88489E-05-9.28745E-08-1.45846E-18-6.05617E-19
 -1       561 9.68305E-05-2.94999E-05-2.88573E-05 4.48487E-07-9.79453E-19 5.32280E-19
 -1       562 9.64819E-05-2.91735E-05-2.88473E-05 7.46691E-07 2.30182E-19-1.48240E-19
 -1       563 9.61781E-05-2.89243E-05-2.88234E-05 8.65822E-07 1.61468E-18-1.63332E-18
 -1       564 9.59237E-05-2.87440E-05-2.87914E-05 8.63505E-07-2.72957E-20-1.24495E-18
 -1       565 9.57155E-05-2.86170E-05-2.87563E-05 7.85135E-07-1.67428E-18-8.91274E-19
 -1       566 9.55463E-05-2.85267E-05-2.87223E-05 6.62097E-07-1.37207E-18-6.15478E-19
 -1       567 9.54065E-05-2.84591E-05-2.86913E-05 5.14252E-07 1.86790E-19-9.10036E-19
 -1       568 9.50017E-05-2.79422E-05-2.87398E-05 6.09251E-07-9.31090E-19 5.24548E-19
 -1       569 9.51313E-05-2.81183E-05-2.87195E-05 6.16662E-07-1.14779E-18-1.66284E-18
 -1       570 9.52516E-05-2.82871E-05-2.86990E-05 5.58119E-07-5.58484E-19-1.52056E-18
 -1       571 2.68279E-05-1.35021E-05-5.00759E-06 2.57793E-05-8.22919E-19 1.60904E-18
 -1       572 9.48700E-05-2.77663E-05-2.87590E-05 5.29343E-07-1.18180E-18-9.95512E-20
 -1       573 9.47517E-05-2.76103E-05-2.87752E-05 3.74637E-07-1.81083E-18-2.24601E-18
 -1       574 9.46654E-05-2.74966E-05-2.87870E-05 1.54987E-07-4.65595E-19 2.57020E-19
 -1       575 9.46317E-05-2.74476E-05-2.87936E-05-1.06596E-07 4.68420E-19 4.80181E-18
 -1       576 9.46664E-05-2.74797E-05-2.87946E-05-3.68760E-07 1.65790E-18-3.22117E-19
 -1       577 9.47779E-05-2.76010E-05-2.87903E-05-5.94234E-07 1.70121E-18 3.50543E-18
 -1       578 9.49562E-05-2.78024E-05-2.87804E-05-7.30404E-07 5.13776E-19 3.28912E-18
 -1       579 9.51725E-05-2.80571E-05-2.87635E-05-7.43859E-07-4.32334E-20 8.44018E-20
 -1       580 1.34228E-04-5.97837E-05-3.20046E-05 2.58882E-05-8.30542E-19-1.85262E-18
 -1       581 5.65147E-05-2.85092E-05-1.13871E-05 4.50024E-05-1.87734E-18-3.49385E-18
 -1       582 1.17658E-04-5.48201E-05-2.66611E-05-2.93185E-05 1.78390E-18 2.38310E-18
 -1       583 2.23550E-05-9.88106E-06-4.65385E-06-2.96090E-06-4.80135E-19 6.42686E-20
 -1       584 8.91742E-05-1.28669E-05-3.27213E-05-1.93276E-06 1.07499E-19-1.82060E-18
 -1       585 1.39113E-04-6.91374E-06-5.73208E-05 4.83911E-06 1.44599E-18-9.34330E-19
 -1       586 1.46410E-04-2.95919E-05-5.06098E-05-6.87093E-06 7.96582E-19-2.55243E-18
 -1       587 1.43839E-04-2.52315E-05-5.14020E-05 9.43958E-06 3.86671E-19-1.46960E-19
 -1       588 1.47020E-04-4.58329E-05-4.37450E-05-2.45398E-07-1.00616E-18 6.44063E-19
 -1       589 1.41310E-04-5.81921E-05-3.56889E-05-1.80928E-05-2.78335E-18-2.76397E-19
 -1       590 1.11814E-04-5.69544E-05-2.33119E-05-4.25627E-05-1.92933E-18-2.47188E-19
 -1       591 6.82962E-05-3.84920E-05-1.23652E-05-4.99378E-05-1.82234E-18-1.32164E-18
 -1       592 3.26280E-05-1.99100E-05-4.92391E-06-3.50587E-05-1.71334E-18-2.54756E-18
 -1       593 1.93725E-05-1.14813E-05-2.74566E-06-1.08218E-05-6.13027E-19-3.39025E-18
 -1       594 3.39555E-05-1.98940E-05-5.49197E-06 2.39486E-05 2.04982E-19-1.93473E-18
 -1       595 6.88102E-05-3.79377E-05-1.27991E-05 3.84371E-05 8.77579E-19-1.31110E-18
 -1       596 1.44781E-04-6.89449E-05-3.25186E-05-1.46437E-05 4.78574E-19 1.51804E-19
 -1       597 4.90690E-05-2.69820E-05-8.92185E-06-3.28965E-05 2.00662E-18 1.01813E-18
 -1       598 9.13670E-05-1.58947E-05-3.23692E-05-7.69200E-06-1.26816E-18-1.88203E-18
 -1       599 9.55494E-05-2.58375E-05-2.98545E-05 4.92045E-06 1.41020E-18 1.22729E-18
 -1       600 9.27365E-05-1.78612E-05-3.21115E-05-8.91654E-06-1.45796E-18-1.72088E-18
 -1       601 1.18670E-04-5.78659E-05-2.58936E-05 3.53718E-05-6.04676E-19-2.28623E-18
 -1       602 9.51726E-05-2.63810E-05-2.94695E-05 3.19135E-06 1.13157E-18 9.23337E-19
 -1       603 3.03947E-05-9.37744E-06-8.35346E-06 8.79853E-06 1.29834E-20-8.37451E-19
 -1       604 1.29374E-04-4.63867E-06-5.41178E-05-1.44229E-06 7.23631E-19-2.41883E-18
 -1       605 4.06589E-05-1.21744E-05-1.15942E-05-1.92544E-05-3.04535E-20 6.74450E-20
 -1       606 1.34997E-04-1.81254E-05-5.06424E-05-1.15729E-05 1.01644E-20-2.57059E-18
 -1       607 9.15606E-05-1.68241E-05-3.20356E-05 2.43080E-06 8.29780E-19-1.34883E-18
 -1       608 9.13032E-05-1.64208E-05-3.20978E-05 8.37925E-07 5.56661E-19-1.65137E-18
 -1       609 9.28920E-05-1.89776E-05-3.16840E-05 5.25049E-06 1.35474E-18-9.14946E-19
 -1       610 9.39845E-05-2.08860E-05-3.13350E-05 6.18580E-06 1.53717E-18-3.59289E-19
 -1       611 9.54912E-05-2.42032E-05-3.05398E-05 6.24295E-06 1.54723E-18 6.02458E-19
 -1       612 9.54177E-05-2.56145E-05-2.99143E-05-2.50051E-06-1.07869E-18-1.00583E-18
 -1       613 9.54860E-05-2.68706E-05-2.94059E-05-8.80322E-07-9.16245E-19-8.41566E-19
 -1       614 9.54377E-05-2.76358E-05-2.90577E-05 1.73085E-07-4.73854E-19-6.37842E-19
 -1       615 9.53664E-05-2.80999E-05-2.88285E-05 8.17724E-07-2.49071E-19-3.09866E-19
 -1       616 9.53068E-05-2.83713E-05-2.86866E-05 1.18731E-06-4.14607E-19-4.57624E-19
 -1       617 9.52663E-05-2.85125E-05-2.86088E-05 1.38498E-06-5.65110E-19-3.56829E-19
 -1       618 9.52420E-05-2.85597E-05-2.85782E-05 1.48913E-06-6.67117E-19-3.39387E-19
 -1       619 9.52264E-05-2.85327E-05-2.85830E-05 1.55963E-06-2.10870E-19-3.28004E-20
 -1       620 9.52089E-05-2.84392E-05-2.86156E-05 1.64387E-06-2.15229E-19 1.47175E-19
 -1       621 9.51749E-05-2.82762E-05-2.86708E-05 1.78160E-06-2.17163E-19 4.58018E-19
 -1       622 9.51023E-05-2.80294E-05-2.87453E-05 2.00899E-06-2.16051E-19-2.14950E-19
 -1       623 9.49568E-05-2.76709E-05-2.88365E-05 2.36186E-06 2.04185E-20 3.61134E-19
 -1       624 9.46842E-05-2.71559E-05-2.89401E-05 2.87781E-06-3.70418E-20 4.96799E-19
 -1       625 9.41990E-05-2.64187E-05-2.90478E-05 3.59681E-06 5.33185E-19 2.78060E-19
 -1       626 9.33709E-05-2.53709E-05-2.91416E-05 4.55953E-06-2.51376E-19 1.42007E-19
 -1       627 9.20068E-05-2.39052E-05-2.91847E-05 5.80303E-06-3.16214E-19-5.94926E-19
 -1       628 8.98371E-05-2.19177E-05-2.91061E-05 7.35594E-06-8.69068E-20-1.13870E-18
 -1       629 8.65167E-05-1.93683E-05-2.87748E-05 9.24331E-06 3.32220E-19-1.58594E-19
 -1       630 8.16697E-05-1.64144E-05-2.79576E-05 1.15194E-05 1.63362E-19 9.08739E-20
 -1       631 7.49070E-05-1.35679E-05-2.62477E-05 1.43883E-05 6.30731E-19-3.53510E-19
 -1       632 6.60211E-05-1.22716E-05-2.28876E-05 1.88778E-05 7.94927E-19-1.23779E-18
 -1       633 6.33845E-05-1.89450E-05-1.84879E-05 2.88923E-05 1.30059E-18-1.09124E-18
 -1       634 7.71141E-05-1.56272E-05-2.62697E-05-1.97356E-05 2.95337E-19 5.42730E-19
 -1       635 9.53407E-05-2.83416E-05-2.87138E-05 7.42380E-07-1.37468E-18-7.75822E-19
 -1       636 8.28687E-05-1.70020E-05-2.82082E-05-1.52332E-05-5.56179E-19-1.51609E-19
 -1       637 8.73829E-05-1.94750E-05-2.90967E-05-1.18747E-05-1.12034E-18 1.18671E-19
 -1       638 9.05443E-05-2.18794E-05-2.94233E-05-9.17956E-06-2.17282E-18 5.43315E-19
 -1       639 9.26063E-05-2.38385E-05-2.94682E-05-7.00788E-06-6.63526E-19-9.90651E-19
 -1       640 9.38742E-05-2.53004E-05-2.93859E-05-5.29213E-06-6.06191E-19-1.60191E-18
 -1       641 9.46101E-05-2.63359E-05-2.92584E-05-3.96252E-06 1.27781E-18-2.62541E-18
 -1       642 9.50098E-05-2.70453E-05-2.91262E-05-2.94748E-06 8.15748E-19-1.91780E-18
 -1       643 9.52046E-05-2.75179E-05-2.90076E-05-2.17879E-06-1.34079E-18-2.27493E-18
 -1       644 9.52824E-05-2.78260E-05-2.89093E-05-1.59593E-06-1.83811E-18-1.53673E-18
 -1       645 9.52855E-05-2.80118E-05-2.88311E-05-1.15001E-06-2.66222E-18-7.86026E-19
 -1       646 9.53637E-05-2.73376E-05-2.91534E-05 2.72228E-07 9.64764E-19-2.60018E-19
 -1       647 9.52752E-05-2.79002E-05-2.88748E-05-5.55762E-07 9.29505E-19-3.91826E-19
 -1       648 9.54188E-05-2.64132E-05-2.95720E-05 1.60270E-06 9.40252E-19-4.91533E-20
 -1       649 9.51612E-05-2.84436E-05-2.85933E-05-1.29954E-06 1.90562E-19-3.14258E-19
 -1       650 9.51478E-05-2.85536E-05-2.85405E-05-1.41974E-06 2.71547E-19 7.38759E-20
 -1       651 9.51597E-05-2.86048E-05-2.85236E-05-1.46322E-06 1.76792E-19-2.35023E-19
 -1       652 9.51945E-05-2.86219E-05-2.85312E-05-1.47247E-06 1.70667E-19-1.63447E-19
 -1       653 9.52535E-05-2.86258E-05-2.85547E-05-1.47429E-06 2.27689E-19-2.39417E-19
 -1       654 9.53419E-05-2.86375E-05-2.85876E-05-1.48178E-06 5.80898E-19-2.73621E-19
 -1       655 9.54704E-05-2.86800E-05-2.86245E-05-1.49510E-06 8.53108E-19-2.22876E-19
 -1       656 9.56551E-05-2.87800E-05-2.86608E-05-1.50075E-06-2.33634E-20-4.88294E-19
 -1       657 9.59178E-05-2.89679E-05-2.86930E-05-1.47015E-06-2.47226E-19-7.69996E-20
 -1       658 9.62845E-05-2.92759E-05-2.87182E-05-1.35776E-06 6.68038E-20 2.18292E-19
 -1       659 9.67809E-05-2.97310E-05-2.87362E-05-1.10021E-06-2.25267E-19 2.33321E-19
 -1       660 9.74232E-05-3.03424E-05-2.87496E-05-6.18629E-07-5.79583E-19-3.12282E-20
 -1       661 9.82018E-05-3.10811E-05-2.87670E-05 1.72234E-07-1.32682E-18-2.72495E-19
 -1       662 9.90584E-05-3.18529E-05-2.88036E-05 1.34249E-06-9.71483E-19-2.37214E-19
 -1       663 9.98615E-05-3.24729E-05-2.88820E-05 2.90698E-06-4.69355E-19-1.01634E-19
 -1       664 1.00395E-04-3.26623E-05-2.90289E-05 4.76365E-06 5.96405E-19 1.72010E-19
 -1       665 1.00390E-04-3.21004E-05-2.92671E-05 6.62296E-06 2.57931E-19-2.02541E-19
 -1       666 9.96347E-05-3.05659E-05-2.96001E-05 7.97469E-06-2.80789E-19-9.04605E-20
 -1       667 9.81391E-05-2.81454E-05-2.99964E-05 8.17159E-06 4.03048E-19 1.11213E-18
 -1       668 9.62861E-05-2.53950E-05-3.03806E-05 6.68784E-06-3.28556E-19 7.44560E-19
 -1       669 9.48042E-05-2.32792E-05-3.06514E-05 3.50089E-06-8.59240E-19 2.01338E-18
 -1       670 9.43582E-05-2.26519E-05-3.07284E-05-6.75572E-07-2.39117E-19 1.68917E-18
 -1       671 9.51862E-05-2.38186E-05-3.05836E-05-4.65873E-06 5.26560E-19 7.69371E-19
 -1       672 9.68733E-05-2.62483E-05-3.02656E-05-7.34675E-06 1.35708E-18 4.49608E-19
 -1       673 9.86761E-05-2.89766E-05-2.98696E-05-8.26934E-06 5.24044E-19 6.39553E-19
 -1       674 9.99633E-05-3.11516E-05-2.94906E-05-7.64426E-06 1.13539E-18 1.15363E-18
 -1       675 1.00470E-04-3.23653E-05-2.91886E-05-6.07235E-06 1.56687E-18 3.59847E-19
 -1       676 1.00277E-04-3.26509E-05-2.89836E-05-4.18099E-06 2.63037E-18 2.26772E-19
 -1       677 9.96323E-05-3.22833E-05-2.88651E-05-2.41318E-06 1.63726E-18 5.24494E-19
 -1       678 9.87958E-05-3.15793E-05-2.88082E-05-9.93290E-07 6.91128E-19 8.63325E-19
 -1       679 9.79573E-05-3.07895E-05-2.87870E-05 1.89469E-08-1.22001E-18 1.16587E-18
 -1       680 9.72233E-05-3.00680E-05-2.87814E-05 6.59335E-07-3.65777E-19 3.29915E-19
 -1       681 9.66339E-05-2.94846E-05-2.87786E-05 1.00390E-06 1.55792E-19-7.11155E-19
 -1       682 9.61879E-05-2.90525E-05-2.87725E-05 1.13492E-06 9.81851E-19-5.42066E-19
 -1       683 9.58642E-05-2.87544E-05-2.87614E-05 1.12463E-06-3.66595E-19 1.54958E-18
 -1       684 9.56354E-05-2.85603E-05-2.87462E-05 1.02904E-06 8.62195E-19 1.56533E-18
 -1       685 9.54663E-05-2.84308E-05-2.87293E-05 8.98363E-07-1.25423E-18 3.35133E-19
 -1       686 9.50739E-05-2.80549E-05-2.87226E-05 8.02072E-07-6.83976E-19-1.35423E-18
 -1       687 9.46900E-05-2.76352E-05-2.87380E-05 6.29022E-07-8.26899E-19-7.82798E-19
 -1       688 9.48825E-05-2.78461E-05-2.87300E-05 7.60694E-07-1.88739E-18 2.08762E-18
 -1       689 9.52034E-05-2.82421E-05-2.86977E-05-1.04053E-06 7.30525E-19-4.53632E-19
 -1       690 9.44106E-05-2.73106E-05-2.87573E-05 9.79966E-08 1.84031E-18 2.83955E-18
 -1       691 9.43898E-05-2.72630E-05-2.87689E-05-2.47787E-07 3.11537E-19 7.45297E-19
 -1       692 9.44830E-05-2.73256E-05-2.87819E-05-5.93716E-07 7.70668E-19 8.96668E-19
 -1       693 9.46934E-05-2.75073E-05-2.87940E-05-8.66168E-07-2.28654E-19 3.32854E-18
 -1       694 9.50029E-05-2.77927E-05-2.88036E-05-1.00948E-06-7.63179E-19 8.41799E-19
 -1       695 1.25071E-04-1.41947E-05-4.80240E-05 1.12621E-05 4.74815E-19-5.75188E-19
 -1       696 5.71927E-05-2.49033E-05-1.33439E-05-4.07071E-05-1.74978E-18-1.42323E-18
 -1       697 4.92661E-05-1.42505E-05-1.45007E-05 2.80220E-05-2.15157E-18-3.71477E-19
 -1       698 9.45217E-05-2.74456E-05-2.87470E-05 4.03760E-07 2.17142E-18 9.61561E-20
 -1       699 9.50060E-05-2.35324E-05-3.06326E-05-4.83637E-06-1.24422E-18-1.28654E-18
 -1       700 9.20843E-05-1.76543E-05-3.19046E-05 3.93498E-06 1.03026E-18-1.24794E-18
 -1       701 7.96759E-05-3.35973E-05-1.92159E-05-3.57249E-05 1.52948E-18 1.40359E-18
 -1       702 3.78079E-05-5.68779E-06-1.31687E-05 8.80178E-06-2.30678E-19 5.55601E-19
 -1       703 9.20537E-05-1.76056E-05-3.19122E-05-3.88246E-06-4.24859E-19-1.48868E-18
 -1       704 1.37871E-04-3.79539E-05-4.32044E-05-9.46638E-06 5.64627E-19-2.73412E-18
 -1       705 8.79878E-05-4.24818E-05-1.91924E-05 4.38533E-05-1.24792E-18-1.99153E-18
 -1       706 1.34591E-04-3.55215E-05-4.28090E-05 1.11285E-05-2.46063E-19-1.82324E-19
 -1       707 9.36153E-05-4.55139E-05-2.02856E-05-4.31915E-05-1.16250E-18-1.33994E-18
 -1       708 1.37897E-04-5.25312E-05-3.67634E-05-2.43198E-06-1.63417E-18-1.25557E-18
 -1       709 1.27276E-04-5.83192E-05-2.96051E-05-2.35324E-05-2.36357E-18-5.65454E-19
 -1       710 3.73706E-05-1.00693E-05-1.11407E-05-2.04364E-05-7.63726E-19-1.85717E-18
 -1       711 1.38427E-04-5.49117E-05-3.60129E-05 7.03290E-06 1.22465E-18-6.48430E-19
 -1       712 9.41580E-05-2.10869E-05-3.13142E-05-6.82223E-06-1.43373E-18-1.44849E-18
 -1       713 7.29740E-05-1.86684E-05-2.30231E-05-2.65050E-05 6.13659E-19 1.44309E-18
 -1       714 9.12985E-05-1.64136E-05-3.20989E-05-7.80368E-07 3.31943E-19-1.50944E-18
 -1       715 9.53211E-05-2.48777E-05-3.01839E-05 3.59989E-06 1.18330E-18-7.21792E-20
 -1       716 1.29980E-04-5.76256E-05-3.10057E-05 1.78826E-05 1.64225E-18 1.17605E-18
 -1       717 1.17854E-04-8.66232E-06-4.72427E-05 5.92324E-06-9.61118E-20-8.43380E-19
 -1       718 3.80036E-05-5.13664E-06-1.39412E-05-3.70290E-06 8.35145E-19-1.91234E-18
 -1       719 1.13326E-04-5.23802E-05-2.60462E-05-3.01006E-05-1.44816E-19-1.50176E-19
 -1       720 9.28660E-05-1.89228E-05-3.16924E-05-5.20897E-06-8.45004E-19-1.40272E-18
 -1       721 1.22837E-04-1.02335E-05-4.87305E-05-8.75265E-06 3.15308E-19-1.17669E-18
 -1       722 9.15429E-05-1.67967E-05-3.20397E-05-2.36810E-06-4.85409E-20-1.41965E-18
 -1       723 7.10172E-05-2.65711E-05-1.87551E-05 3.56419E-05-7.72878E-19-3.17657E-18
 -1       724 9.32019E-05-1.97334E-05-3.14876E-05 1.22465E-06 6.73162E-19-1.20548E-18
 -1       725 9.46323E-05-2.26935E-05-3.08333E-05 3.88088E-06 1.18193E-18-4.10257E-19
 -1       726 4.56817E-05-6.78720E-06-1.64327E-05 9.26066E-06 1.33751E-18-5.08432E-19
 -1       727 9.34457E-05-1.98600E-05-3.15372E-05-6.11911E-06-1.20980E-18-1.55734E-18
 -1       728 9.58602E-05-2.67726E-05-2.96086E-05-5.66372E-07-5.83698E-19-3.40721E-19
 -1       729 9.59546E-05-2.76581E-05-2.92700E-05 2.89874E-07-1.79964E-19-3.69513E-19
 -1       730 9.59372E-05-2.81962E-05-2.90319E-05 8.29830E-07-3.30495E-19-1.20716E-19
 -1       731 9.58612E-05-2.84951E-05-2.88712E-05 1.15043E-06-4.29018E-19-3.67060E-19
 -1       732 9.57535E-05-2.86233E-05-2.87701E-05 1.33297E-06-4.08779E-19-2.89814E-19
 -1       733 9.56239E-05-2.86230E-05-2.87147E-05 1.44158E-06-2.86665E-19 2.60705E-20
 -1       734 9.54707E-05-2.85175E-05-2.86943E-05 1.52630E-06-3.27162E-19-1.05611E-19
 -1       735 9.52824E-05-2.83148E-05-2.87004E-05 1.62581E-06 1.15666E-19-1.41484E-19
 -1       736 9.50360E-05-2.80085E-05-2.87261E-05 1.76993E-06-3.74387E-19-1.15893E-19
 -1       737 9.46937E-05-2.75768E-05-2.87643E-05 1.98109E-06 7.98165E-20-2.85278E-19
 -1       738 9.41971E-05-2.69813E-05-2.88067E-05 2.27413E-06 2.77469E-20-9.35530E-19
 -1       739 9.34579E-05-2.61641E-05-2.88401E-05 2.65398E-06 7.19291E-19-2.49912E-19
 -1       740 9.23464E-05-2.50466E-05-2.88427E-05 3.11014E-06 2.50737E-19-4.97845E-19
 -1       741 9.06764E-05-2.35317E-05-2.87763E-05 3.60794E-06-6.68318E-19-4.47872E-19
 -1       742 8.81874E-05-2.15146E-05-2.85742E-05 4.07760E-06-3.13093E-19 3.49840E-19
 -1       743 8.45248E-05-1.89092E-05-2.81210E-05 4.40892E-06-7.89113E-20 8.28909E-19
 -1       744 7.92161E-05-1.57043E-05-2.72166E-05 4.47473E-06 4.73169E-19-3.02813E-19
 -1       745 7.16746E-05-1.21100E-05-2.55130E-05 4.23652E-06 2.37543E-19-5.43851E-19
 -1       746 6.11805E-05-8.66050E-06-2.23424E-05 3.50274E-06 3.85201E-20-1.20908E-18
 -1       747 9.52796E-05-2.45283E-05-3.03202E-05 2.72058E-06 1.07188E-18-3.30005E-19
 -1       748 6.91817E-05-1.09893E-05-2.48875E-05-8.20111E-06-8.38892E-19-7.02533E-19
 -1       749 7.76481E-05-1.45921E-05-2.70250E-05-7.36735E-06-1.05715E-18-2.04705E-18
 -1       750 8.35822E-05-1.79218E-05-2.81421E-05-6.42062E-06-4.80277E-19-7.46094E-19
 -1       751 8.76715E-05-2.07450E-05-2.86830E-05-5.46660E-06-1.30909E-18 5.55229E-19
 -1       752 9.04169E-05-2.29446E-05-2.89163E-05-4.53376E-06-1.24932E-18 5.39785E-19
 -1       753 9.22212E-05-2.45802E-05-2.89886E-05-3.66845E-06 1.56299E-19 1.58099E-18
 -1       754 9.33834E-05-2.57590E-05-2.89816E-05-2.90958E-06 6.12401E-19 1.37265E-18
 -1       755 9.41180E-05-2.65895E-05-2.89406E-05-2.27077E-06-6.46181E-19 1.73125E-18
 -1       756 9.45696E-05-2.71582E-05-2.88901E-05-1.75252E-06-2.12894E-18 1.62189E-18
 -1       757 9.48439E-05-2.75389E-05-2.88447E-05-1.35395E-06-1.34759E-18 1.03907E-18
 -1       758 9.51178E-05-2.81179E-05-2.87140E-05 1.01861E-06-3.28114E-19-9.27360E-19
 -1       759 9.58530E-05-2.72962E-05-2.93816E-05 8.96778E-08 1.04045E-18-2.84037E-19
 -1       760 9.57007E-05-2.62154E-05-2.97789E-05 1.16338E-06 1.07367E-18-3.60682E-19
 -1       761 9.56432E-05-2.86942E-05-2.86924E-05-1.37876E-06 2.79582E-19-2.08878E-19
 -1       762 9.57312E-05-2.85942E-05-2.87730E-05-1.25801E-06 1.15378E-19-5.73821E-20
 -1       763 9.54918E-05-2.86942E-05-2.86275E-05-1.47789E-06 4.60919E-19-8.10407E-19
 -1       764 9.54493E-05-2.86600E-05-2.86240E-05-1.51869E-06 2.99937E-19-6.03869E-19
 -1       765 9.54479E-05-2.86447E-05-2.86299E-05-1.57436E-06 5.75625E-19-4.91576E-20
 -1       766 9.55099E-05-2.86839E-05-2.86397E-05-1.64538E-06 2.53651E-19 4.17506E-19
 -1       767 9.56669E-05-2.88191E-05-2.86491E-05-1.71892E-06-7.04617E-20 2.94783E-19
 -1       768 9.59612E-05-2.90980E-05-2.86557E-05-1.76610E-06-1.56058E-19-3.38058E-19
 -1       769 9.64447E-05-2.95713E-05-2.86601E-05-1.73808E-06-2.42811E-19 1.43255E-19
 -1       770 9.71726E-05-3.02816E-05-2.86678E-05-1.56178E-06-7.13669E-19 1.81629E-19
 -1       771 9.81887E-05-3.12428E-05-2.86914E-05-1.13779E-06-9.58015E-19 3.76936E-19
 -1       772 9.94972E-05-3.24066E-05-2.87536E-05-3.45647E-07-1.10939E-18-1.63040E-19
 -1       773 1.01022E-04-3.36164E-05-2.88886E-05 9.33956E-07-4.98794E-19 4.89187E-19
 -1       774 1.02554E-04-3.45612E-05-2.91400E-05 2.76389E-06-4.47436E-19-3.05407E-19
 -1       775 1.03730E-04-3.47688E-05-2.95536E-05 5.04838E-06 3.10477E-19 1.05045E-19
 -1       776 1.04076E-04-3.37036E-05-3.01583E-05 7.39312E-06-8.89136E-21 4.58781E-19
 -1       777 1.03236E-04-3.10621E-05-3.09320E-05 9.02859E-06-2.85831E-19 2.08154E-19
 -1       778 1.01260E-04-2.71373E-05-3.17711E-05 8.96243E-06-3.14987E-19 1.10623E-18
 -1       779 9.89165E-05-2.31155E-05-3.24855E-05 6.43479E-06-5.81190E-19 1.09185E-18
 -1       780 9.74682E-05-2.07773E-05-3.28672E-05 1.84829E-06-2.65662E-19 3.20340E-19
 -1       781 9.77620E-05-2.12424E-05-3.27913E-05-3.45476E-06-6.10686E-19 7.03298E-19
 -1       782 9.96219E-05-2.42918E-05-3.22859E-05-7.50226E-06 5.70131E-19 1.33755E-18
 -1       783 1.01975E-04-2.84572E-05-3.15069E-05-9.21482E-06 1.63778E-18 1.14296E-19
 -1       784 1.03635E-04-3.20504E-05-3.06802E-05-8.65594E-06 3.77323E-19-9.46048E-19
 -1       785 1.04091E-04-3.41943E-05-2.99565E-05-6.69321E-06 1.83266E-18-7.50198E-19
 -1       786 1.03426E-04-3.47924E-05-2.94147E-05-4.31085E-06 1.42855E-18-4.57723E-19
 -1       787 1.02086E-04-3.42823E-05-2.90592E-05-2.16155E-06 1.72382E-18 1.57491E-19
 -1       788 1.00521E-04-3.31956E-05-2.88540E-05-5.26336E-07 1.07511E-18 1.03854E-18
 -1       789 9.90434E-05-3.19550E-05-2.87525E-05 5.59325E-07 1.49333E-19 8.60321E-19
 -1       790 9.78159E-05-3.08192E-05-2.87131E-05 1.18248E-06-1.72005E-18 1.57576E-18
 -1       791 9.68829E-05-2.99046E-05-2.87051E-05 1.46547E-06-6.60709E-19 2.04929E-18
 -1       792 9.62219E-05-2.92336E-05-2.87093E-05 1.52147E-06 4.88810E-19 2.88632E-18
 -1       793 9.57821E-05-2.87792E-05-2.87155E-05 1.43976E-06 8.57080E-19 1.77622E-18
 -1       794 9.55065E-05-2.84954E-05-2.87190E-05 1.28403E-06-1.03203E-19-5.37103E-19
 -1       795 9.48787E-05-2.32866E-05-3.06844E-05-3.57659E-06-8.19180E-19-1.11783E-18
 -1       796 9.44230E-05-2.74355E-05-2.87090E-05 7.32039E-07-1.07769E-18 2.06390E-18
 -1       797 9.42755E-05-2.71036E-05-2.87881E-05-9.00326E-07-3.49979E-19 1.56039E-18
 -1       798 9.40659E-05-2.70267E-05-2.87312E-05 9.08311E-09 9.66419E-19 1.46014E-18
 -1       799 1.27333E-04-5.34352E-05-3.17059E-05-8.91361E-06-1.07964E-18-2.02069E-18
 -1       800 1.28994E-04-4.31961E-05-3.69088E-05 7.51577E-06-2.71573E-19 6.86633E-19
 -1       801 1.21746E-04-2.48831E-05-4.17506E-05 1.33685E-05-5.25465E-19 1.36293E-19
 -1       802 1.32024E-04-4.56356E-05-3.72040E-05-4.85251E-06 1.88225E-18-1.46422E-18
 -1       803 5.75472E-05-7.86827E-06-2.11113E-05-1.09850E-05-4.63026E-19-7.66538E-19
 -1       804 7.88652E-05-3.18995E-05-1.98443E-05-3.72150E-05-1.09771E-18-2.19407E-18
 -1       805 5.40906E-05-9.53494E-06-1.88047E-05 1.38160E-05-1.76703E-18-1.28509E-18
 -1       806 9.41959E-05-2.71921E-05-2.87160E-05 4.21809E-07 9.25257E-19 1.80028E-18
 -1       807 1.09720E-04-5.02723E-05-2.53753E-05 3.11578E-05 3.07810E-19 2.38082E-18
 -1       808 1.26027E-04-2.46070E-05-4.38358E-05-1.32657E-05 4.45089E-19-5.53113E-19
 -1       809 9.55601E-05-2.87160E-05-2.86475E-05-1.43944E-06 3.00958E-19-3.30490E-19
 -1       810 5.79991E-05-1.71476E-05-1.70317E-05-2.98176E-05-6.44949E-19-1.34374E-18
 -1       811 9.40838E-05-2.69879E-05-2.87556E-05-4.56180E-07 7.03964E-19 1.19735E-18
 -1       812 9.55505E-05-2.53793E-05-3.00726E-05-1.83063E-06-7.35846E-19-7.37655E-19
 -1       813 9.40127E-05-2.13073E-05-3.11614E-05 3.27769E-06 1.03920E-18-1.00409E-18
 -1       814 1.30148E-04-5.17183E-05-3.36749E-05 3.51136E-06 1.88842E-18-1.30749E-18
 -1       815 9.35128E-05-2.03191E-05-3.13706E-05 2.33930E-06 9.02600E-19-1.14926E-18
 -1       816 6.58245E-05-1.72983E-05-2.06678E-05 2.36181E-05-1.04736E-18 6.24687E-21
 -1       817 9.30919E-05-1.95331E-05-3.15262E-05 2.13691E-08 3.63439E-19-1.34396E-18
 -1       818 5.33164E-05-1.05854E-05-1.76182E-05-1.67066E-05 1.46696E-19-1.10384E-18
 -1       819 9.48469E-05-2.78628E-05-2.87074E-05 1.00494E-06-2.21849E-19 1.11362E-18
 -1       820 9.58654E-05-2.79689E-05-2.90985E-05-6.05162E-07 9.77640E-19-2.04589E-19
 -1       821 9.58120E-05-2.83724E-05-2.89027E-05-1.02390E-06 4.59350E-19-7.61736E-20
 -1       822 9.52731E-05-2.82780E-05-2.87122E-05 1.17512E-06-3.53117E-19-3.68977E-19
 -1       823 9.46272E-05-2.76462E-05-2.87062E-05 9.03872E-07-7.81922E-19 8.93160E-19
 -1       824 1.14981E-04-1.67893E-05-4.22246E-05 1.08714E-05-6.37988E-19-1.44721E-18
 -1       825 9.24038E-05-3.77310E-05-2.33094E-05 3.20827E-05 5.51961E-19 2.04310E-18
 -1       826 9.80194E-05-4.15151E-05-2.41336E-05-3.12916E-05-3.01663E-19-1.49179E-18
 -1       827 9.39902E-05-2.12549E-05-3.11717E-05-3.25718E-06-6.02831E-19-1.02977E-18
 -1       828 1.12632E-04-8.88360E-06-4.47372E-05-1.41437E-06 3.56098E-19-1.92219E-19
 -1       829 1.24967E-04-3.50646E-05-3.86936E-05-1.17137E-05 1.54599E-18 6.35189E-19
 -1       830 9.35177E-05-2.03042E-05-3.13770E-05-2.32598E-06-3.20871E-19-1.20825E-18
 -1       831 9.61614E-05-2.68390E-05-2.97095E-05-2.48061E-07-3.64693E-19-7.20207E-19
 -1       832 9.49051E-05-2.32797E-05-3.06935E-05 2.48896E-06 1.05035E-18-7.84329E-19
 -1       833 9.63191E-05-2.77523E-05-2.93859E-05 3.86542E-07-1.26313E-19-7.92543E-19
 -1       834 9.63133E-05-2.82991E-05-2.91489E-05 7.91735E-07-3.39294E-19-9.69084E-19
 -1       835 9.62046E-05-2.85829E-05-2.89807E-05 1.03761E-06-4.11939E-19-5.45348E-19
 -1       836 9.60275E-05-2.86712E-05-2.88670E-05 1.18216E-06-4.59690E-19-4.39009E-19
 -1       837 9.57972E-05-2.86074E-05-2.87956E-05 1.27225E-06-4.15188E-19-3.48853E-19
 -1       838 9.55137E-05-2.84160E-05-2.87562E-05 1.34293E-06-1.53688E-19-2.65455E-19
 -1       839 9.51632E-05-2.81048E-05-2.87393E-05 1.41775E-06-1.00963E-19-4.42980E-19
 -1       840 9.47162E-05-2.76659E-05-2.87359E-05 1.50870E-06-2.39900E-19-2.05647E-19
 -1       841 9.41250E-05-2.70763E-05-2.87352E-05 1.61453E-06-9.97222E-20-5.59191E-20
 -1       842 9.33183E-05-2.62975E-05-2.87232E-05 1.71669E-06 8.98866E-20-4.89178E-19
 -1       843 9.21945E-05-2.52770E-05-2.86790E-05 1.77197E-06 2.02825E-19-1.09855E-18
 -1       844 9.06138E-05-2.39517E-05-2.85696E-05 1.70116E-06-9.89729E-20-1.25876E-18
 -1       845 8.83892E-05-2.22584E-05-2.83421E-05 1.37340E-06 3.87087E-19-8.50082E-19
 -1       846 8.52766E-05-2.01531E-05-2.79104E-05 5.86931E-07 4.82078E-19-1.08704E-19
 -1       847 8.09571E-05-1.76406E-05-2.71325E-05-9.54362E-07-5.26217E-20 6.42385E-19
 -1       848 7.50064E-05-1.47999E-05-2.57781E-05-3.63583E-06-1.84984E-19 2.82023E-19
 -1       849 6.62908E-05-1.17974E-05-2.33606E-05-8.09443E-06-8.08994E-19-4.27183E-19
 -1       850 7.82343E-05-1.57214E-05-2.67829E-05-3.40583E-07 3.31077E-19-2.83289E-21
 -1       851 8.35528E-05-1.86936E-05-2.77976E-05-1.61484E-06-3.94100E-19 9.93032E-20
 -1       852 8.72750E-05-2.11437E-05-2.83423E-05-2.13706E-06-3.29375E-19 6.72795E-19
 -1       853 8.98747E-05-2.30815E-05-2.86258E-05-2.22693E-06 3.52394E-19 2.13463E-18
 -1       854 9.16661E-05-2.45589E-05-2.87603E-05-2.07853E-06-3.61508E-20-2.19874E-19
 -1       855 9.28849E-05-2.56550E-05-2.88129E-05-1.81861E-06 9.64094E-19-2.25959E-18
 -1       856 9.36970E-05-2.64445E-05-2.88231E-05-1.52890E-06 3.82635E-20 3.11935E-19
 -1       857 9.40111E-05-2.68104E-05-2.88008E-05-1.18137E-06-4.12265E-19 5.11526E-19
 -1       858 9.60923E-05-2.86976E-05-2.88834E-05-1.14066E-06 4.04822E-19 2.81186E-20
 -1       859 9.54849E-05-2.86115E-05-2.86600E-05-1.49027E-06 1.66938E-19-1.20978E-19
 -1       860 9.56151E-05-2.86852E-05-2.86842E-05-1.39868E-06 4.75586E-19-1.35207E-19
 -1       861 9.54160E-05-2.86122E-05-2.86302E-05-1.77986E-06 1.62925E-19-2.87533E-20
 -1       862 9.55612E-05-2.87921E-05-2.86153E-05-1.97583E-06 1.67020E-19-1.48828E-19
 -1       863 9.59088E-05-2.91787E-05-2.85986E-05-2.18037E-06-2.83501E-19 1.57872E-19
 -1       864 9.65429E-05-2.98457E-05-2.85845E-05-2.34578E-06-9.26891E-19 1.32173E-19
 -1       865 9.75574E-05-3.08582E-05-2.85855E-05-2.38883E-06-8.11411E-19 1.30570E-20
 -1       866 9.90359E-05-3.22429E-05-2.86258E-05-2.17877E-06-1.08759E-18 1.69894E-19
 -1       867 1.01009E-04-3.39361E-05-2.87462E-05-1.53177E-06-1.22588E-18-5.26790E-19
 -1       868 1.03389E-04-3.57091E-05-2.90066E-05-2.28348E-07-4.99154E-19-4.79755E-19
 -1       869 1.05860E-04-3.70697E-05-2.94809E-05 1.90771E-06-7.84301E-20 3.16271E-19
 -1       870 1.07845E-04-3.72577E-05-3.02477E-05 4.83475E-06-1.81349E-19 9.29088E-19
 -1       871 1.08522E-04-3.53689E-05-3.13496E-05 7.99145E-06-2.11165E-19 1.19048E-18
 -1       872 1.07251E-04-3.10099E-05-3.26727E-05 1.00468E-05-7.09909E-19 9.35273E-19
 -1       873 1.04539E-04-2.49218E-05-3.41099E-05 9.73457E-06-6.63018E-19 1.29133E-18
 -1       874 1.01394E-04-1.93837E-05-3.51832E-05 5.42753E-06-9.99744E-19 2.35533E-18
 -1       875 1.00535E-04-1.78643E-05-3.54320E-05-1.10432E-06-3.68389E-20 2.16642E-18
 -1       876 1.02161E-04-2.08284E-05-3.48714E-05-7.18212E-06-3.37833E-20 5.22020E-19
 -1       877 1.05297E-04-2.67701E-05-3.36609E-05-1.01638E-05 1.88028E-18-5.37461E-20
 -1       878 1.07930E-04-3.26328E-05-3.22532E-05-9.69129E-06 1.67782E-18 1.14955E-18
 -1       879 1.08514E-04-3.62364E-05-3.09804E-05-7.02860E-06 1.38625E-18-4.50437E-19
 -1       880 1.07311E-04-3.73509E-05-2.99840E-05-3.85297E-06 1.53409E-18-1.85113E-18
 -1       881 1.05089E-04-3.66829E-05-2.93167E-05-1.16401E-06 8.29005E-19-1.07398E-18
 -1       882 1.02590E-04-3.51067E-05-2.89214E-05 6.82200E-07 7.23640E-19-4.57762E-19
 -1       883 1.00305E-04-3.32958E-05-2.87184E-05 1.73197E-06 5.55181E-19-7.86310E-19
 -1       884 9.84688E-05-3.16534E-05-2.86353E-05 2.18628E-06-1.05295E-18 3.44509E-19
 -1       885 9.71215E-05-3.03467E-05-2.86178E-05 2.25802E-06-6.37545E-19-1.71636E-18
 -1       886 9.62062E-05-2.94011E-05-2.86308E-05 2.11365E-06-3.75748E-19-2.06291E-18
 -1       887 9.56308E-05-2.87716E-05-2.86538E-05 1.86570E-06 1.49319E-18-1.63298E-18
 -1       888 9.53015E-05-2.83898E-05-2.86763E-05 1.58555E-06 3.42653E-19-1.23674E-18
 -1       889 7.34131E-05-2.32791E-05-2.13806E-05-2.73918E-05-1.02664E-18-1.81348E-18
 -1       890 6.53650E-05-1.12684E-05-2.31023E-05 8.50505E-06 7.59567E-20-9.39224E-19
 -1       891 1.22391E-04-4.56552E-05-3.29236E-05 2.62623E-06 1.69732E-19-1.37114E-18
 -1       892 1.14379E-04-4.84984E-05-2.81898E-05-1.81620E-05-7.51121E-19-1.23040E-18
 -1       893 9.54070E-05-2.85712E-05-2.86439E-05-1.61573E-06 1.53787E-19-8.26885E-20
 -1       894 7.23338E-05-1.32127E-05-2.52804E-05 3.10326E-06-8.28006E-19-2.97831E-19
 -1       895 1.20705E-04-5.22524E-05-2.93392E-05 1.62858E-05 1.06333E-18-5.99820E-20
 -1       896 1.18190E-04-3.26418E-05-3.67073E-05 1.17468E-05-2.04353E-19-1.15399E-18
 -1       897 9.32042E-05-1.97273E-05-3.14904E-05-1.19263E-06 1.26606E-19-1.21989E-18
 -1       898 1.14471E-04-1.53286E-05-4.27391E-05-1.01941E-05 1.45769E-19 1.04474E-18
 -1       899 9.52295E-05-2.39534E-05-3.05472E-05-1.92101E-06-3.92462E-19-9.00876E-19
 -1       900 1.24522E-04-4.41797E-05-3.45013E-05-5.23601E-06 1.96293E-18 6.29954E-19
 -1       901 9.45257E-05-2.22023E-05-3.09957E-05 4.22555E-07 4.34490E-19-9.35158E-19
 -1       902 6.48234E-05-1.49799E-05-2.11653E-05-2.09964E-05-4.31312E-19-1.82780E-19
 -1       903 9.37218E-05-2.66500E-05-2.87454E-05-6.10330E-07 9.19029E-19 1.24147E-20
 -1       904 9.59654E-05-2.62488E-05-2.98796E-05 7.11675E-07 1.03091E-18-5.10342E-19
 -1       905 9.62137E-05-2.84868E-05-2.90258E-05-9.50275E-07 1.96092E-19 3.61135E-20
 -1       906 9.57726E-05-2.87507E-05-2.87237E-05-1.32685E-06 4.84838E-19-1.73268E-19
 -1       907 9.55736E-05-2.49885E-05-3.02515E-05 1.51906E-06 9.66332E-19-5.87909E-19
 -1       908 9.50271E-05-2.81035E-05-2.86824E-05 1.39047E-06 4.28337E-19-7.36465E-19
 -1       909 9.43536E-05-2.74527E-05-2.86711E-05 1.09558E-06-5.08499E-20 2.40589E-18
 -1       910 1.07972E-04-4.55702E-05-2.67065E-05 2.33443E-05 1.23969E-18 1.73318E-18
 -1       911 9.37538E-05-2.68314E-05-2.86809E-05 4.30793E-07 8.21039E-19 1.60953E-18
 -1       912 1.17061E-04-4.67178E-05-3.01505E-05-6.38624E-06-7.59807E-19-1.92912E-18
 -1       913 9.58489E-05-2.56458E-05-3.00886E-05-9.98010E-07-3.70817E-19-7.19488E-19
 -1       914 1.13187E-04-2.60052E-05-3.74266E-05 1.24353E-05-1.21194E-18-1.02207E-18
 -1       915 8.85772E-05-3.23197E-05-2.40749E-05-2.67123E-05-7.82558E-19-2.14877E-18
 -1       916 1.09396E-04-1.30993E-05-4.14526E-05 5.41395E-06 7.32564E-19-2.14450E-18
 -1       917 9.62153E-05-2.73680E-05-2.95062E-05-9.69042E-08 7.88060E-19-4.67299E-19
 -1       918 8.20613E-05-2.74580E-05-2.33618E-05 2.61343E-05 1.23554E-19 1.96531E-19
 -1       919 1.15116E-04-2.42055E-05-3.90594E-05-1.25533E-05 8.57541E-19 1.78122E-19
 -1       920 9.46750E-05-2.25442E-05-3.09124E-05 1.20345E-06 7.76298E-19-8.59186E-19
 -1       921 9.36479E-05-2.66656E-05-2.87066E-05-7.11038E-08 1.29702E-18 6.97583E-19
 -1       922 9.40168E-05-2.71196E-05-2.86702E-05 8.32019E-07-1.04610E-19 3.77565E-18
 -1       923 9.59378E-05-2.87688E-05-2.87867E-05-1.25174E-06 7.13663E-19-3.08089E-19
 -1       924 9.49122E-05-2.79591E-05-2.86941E-05 1.19384E-06 3.94497E-19-3.20971E-19
 -1       925 9.45269E-05-2.22020E-05-3.09977E-05-4.01135E-07 2.52967E-20-1.08331E-18
 -1       926 9.47496E-05-2.27911E-05-3.08385E-05 1.89183E-06 7.97527E-19-1.29790E-18
 -1       927 7.83558E-05-2.24053E-05-2.39330E-05-2.05549E-05-3.44620E-20-1.76780E-18
 -1       928 9.64188E-05-2.70456E-05-2.97317E-05-4.87671E-09-3.09739E-19-9.38692E-19
 -1       929 9.65729E-05-2.79121E-05-2.94263E-05 4.12717E-07-1.48793E-19-9.46151E-19
 -1       930 9.65393E-05-2.84118E-05-2.91974E-05 6.79226E-07-1.91543E-20-6.38369E-19
 -1       931 9.63804E-05-2.86443E-05-2.90297E-05 8.39772E-07-2.15085E-19-4.57589E-19
 -1       932 9.61314E-05-2.86720E-05-2.89112E-05 9.31426E-07-3.35273E-19-3.57964E-19
 -1       933 9.58087E-05-2.85377E-05-2.88304E-05 9.82096E-07-4.74035E-20-3.30867E-19
 -1       934 9.54131E-05-2.82668E-05-2.87770E-05 1.00873E-06-1.04035E-19-2.79843E-19
 -1       935 9.49300E-05-2.78689E-05-2.87405E-05 1.01566E-06 8.95393E-20-2.20040E-20
 -1       936 9.43295E-05-2.73402E-05-2.87097E-05 9.92390E-07 7.65775E-20 4.97717E-20
 -1       937 9.35653E-05-2.66659E-05-2.86712E-05 9.08897E-07-1.08200E-19 2.81591E-20
 -1       938 9.25731E-05-2.58239E-05-2.86069E-05 7.08493E-07-3.79573E-20 3.03372E-19
 -1       939 9.12703E-05-2.47913E-05-2.84911E-05 2.97134E-07 2.69887E-19 2.68543E-19
 -1       940 8.95569E-05-2.35565E-05-2.82861E-05-4.71063E-07 1.56013E-19-2.66991E-19
 -1       941 8.73218E-05-2.21408E-05-2.79352E-05-1.81197E-06 8.41025E-19-8.68543E-19
 -1       942 8.44582E-05-2.06350E-05-2.73536E-05-4.03503E-06 3.63979E-19-1.25664E-18
 -1       943 8.09081E-05-1.92487E-05-2.64214E-05-7.53811E-06 1.84140E-19-8.29038E-19
 -1       944 7.49902E-05-1.74291E-05-2.46562E-05-1.25299E-05-4.73611E-19-6.50872E-19
 -1       945 9.46412E-05-2.77211E-05-2.86811E-05 1.18406E-06-4.40733E-19 1.34214E-18
 -1       946 1.14712E-04-3.74346E-05-3.31927E-05 8.74230E-06 3.09691E-19 3.01876E-19
 -1       947 8.55187E-05-2.06796E-05-2.77872E-05 1.59826E-06 9.14910E-20 2.16580E-19
 -1       948 8.82834E-05-2.23853E-05-2.82418E-05 2.40980E-07 4.22296E-19-2.81422E-19
 -1       949 9.03308E-05-2.38221E-05-2.85037E-05-4.76584E-07-1.01536E-18-4.33631E-19
 -1       950 9.18185E-05-2.49731E-05-2.86481E-05-8.01204E-07-5.79059E-19 1.70195E-19
 -1       951 9.28822E-05-2.58635E-05-2.87223E-05-8.88925E-07 1.89613E-18-7.63858E-19
 -1       952 9.33472E-05-2.62955E-05-2.87348E-05-7.40525E-07 1.62463E-18-5.21322E-19
 -1       953 9.52738E-05-2.86350E-05-2.85595E-05-2.31049E-06-5.03095E-19 8.31248E-19
 -1       954 9.51547E-05-2.84238E-05-2.85989E-05-1.92672E-06 1.23252E-19 1.79097E-19
 -1       955 9.64264E-05-2.99761E-05-2.84786E-05-3.26622E-06-3.73733E-19 2.84489E-19
 -1       956 9.77315E-05-3.13136E-05-2.84648E-05-3.70716E-06-7.11726E-19-6.45996E-19
 -1       957 9.97217E-05-3.31909E-05-2.85135E-05-3.92025E-06-7.03728E-19-1.19421E-18
 -1       958 1.02501E-04-3.55586E-05-2.86902E-05-3.61673E-06-9.59668E-19-1.28800E-18
 -1       959 1.06003E-04-3.81203E-05-2.90990E-05-2.36349E-06-1.00768E-18-1.09288E-18
 -1       960 1.09815E-04-4.01120E-05-2.98702E-05 2.38970E-07-1.32007E-18-1.07912E-19
 -1       961 1.12878E-04-4.02624E-05-3.11219E-05 4.16897E-06-7.02309E-20 8.10348E-19
 -1       962 1.04642E-04-1.46426E-05-3.87268E-05 3.15293E-06 2.86921E-19-6.58833E-19
 -1       963 1.05029E-04-1.56173E-05-3.84117E-05-5.58814E-06 9.74693E-19-8.58475E-19
 -1       964 1.13800E-04-3.85279E-05-3.22756E-05-7.20620E-06 2.20069E-18-3.59973E-19
 -1       965 1.12070E-04-4.05053E-05-3.06635E-05-2.70249E-06 2.40029E-18 4.18516E-19
 -1       966 1.08557E-04-3.95422E-05-2.95725E-05 8.42857E-07 1.15772E-18-7.66857E-19
 -1       967 1.04802E-04-3.72615E-05-2.89449E-05 2.89017E-06 5.99180E-19-1.72516E-18
 -1       968 1.01489E-04-3.46775E-05-2.86336E-05 3.74983E-06 1.24004E-18-1.42188E-18
 -1       969 9.89499E-05-3.24181E-05-2.85135E-05 3.82490E-06-7.16322E-19-1.61388E-18
 -1       970 9.71610E-05-3.06694E-05-2.84964E-05 3.48550E-06 2.56882E-20-9.85221E-19
 -1       971 9.60042E-05-2.94426E-05-2.85263E-05 2.97637E-06 2.92869E-19-1.07721E-18
 -1       972 9.53182E-05-2.86484E-05-2.85726E-05 2.44137E-06-2.98175E-19-8.61899E-19
 -1       973 9.49635E-05-2.81876E-05-2.86179E-05 1.95341E-06 9.16377E-19-9.41063E-21
 -1       974 1.22257E-04-4.90776E-05-3.13568E-05 4.83108E-06 1.72266E-18 1.66525E-19
 -1       975 9.50651E-05-2.33589E-05-3.07315E-05-1.27431E-06-4.06083E-19-8.29001E-19
 -1       976 9.62724E-05-2.80745E-05-2.92278E-05-6.25592E-07 4.73935E-19-6.25261E-20
 -1       977 1.04536E-04-4.17057E-05-2.69089E-05-2.02534E-05-1.03301E-18-5.66943E-19
 -1       978 7.42653E-05-1.79468E-05-2.41211E-05 1.53746E-05 6.88719E-20-5.25083E-19
 -1       979 9.56567E-05-2.91175E-05-2.85168E-05-2.77009E-06-5.51315E-19 6.33113E-19
 -1       980 1.18230E-04-3.47423E-05-3.58560E-05-1.09173E-05 1.30465E-18-5.07575E-20
 -1       981 8.18240E-05-1.87862E-05-2.70159E-05 3.98354E-06 2.61114E-19 6.30819E-19
 -1       982 9.55764E-05-2.85888E-05-2.87090E-05-1.25310E-06 2.43590E-19-4.16672E-19
 -1       983 9.60976E-05-2.59256E-05-3.00730E-05-4.91446E-07-4.81544E-19-8.61579E-19
 -1       984 9.64520E-05-2.85890E-05-2.90841E-05-8.10379E-07 6.16852E-19-3.83683E-19
 -1       985 9.58175E-05-2.87079E-05-2.87613E-05-1.14185E-06 4.20427E-19-5.13878E-19
 -1       986 1.16984E-04-4.43137E-05-3.11377E-05 8.95517E-08 2.37987E-18 4.39991E-19
 -1       987 9.55297E-05-2.45563E-05-3.04171E-05 1.19644E-06 7.00564E-19-1.11194E-18
 -1       988 7.87816E-05-1.79896E-05-2.60548E-05 7.99946E-06-3.84922E-19-4.20077E-20
 -1       989 9.52062E-05-2.83927E-05-2.86343E-05-1.62826E-06 1.02228E-19 1.93512E-19
 -1       990 1.15326E-04-4.76442E-05-2.89928E-05 1.32649E-05 1.80957E-18 8.43149E-19
 -1       991 9.46577E-05-2.78303E-05-2.86396E-05 1.61631E-06-2.32186E-19 1.00508E-18
 -1       992 9.61890E-05-2.62776E-05-2.99615E-05 3.96205E-07 6.85193E-19-5.00415E-19
 -1       993 9.55365E-05-2.42510E-05-3.05516E-05 2.68189E-08 2.47936E-19-4.95278E-19
 -1       994 9.64576E-05-3.66461E-05-2.56098E-05 2.35768E-05 2.64329E-19 4.43896E-18
 -1       995 9.35075E-05-2.67296E-05-2.86192E-05 1.00047E-06 1.35695E-18 4.38026E-18
 -1       996 9.39713E-05-2.71907E-05-2.86203E-05 1.36662E-06-4.48542E-20 2.96458E-18
 -1       997 1.10898E-04-4.36950E-05-2.87710E-05-1.07682E-05-1.07416E-18-2.06678E-18
 -1       998 9.53620E-05-2.84674E-05-2.86691E-05-1.40869E-06-7.23496E-20-1.52105E-19
 -1       999 9.55729E-05-2.43774E-05-3.05114E-05 4.91575E-07 3.84771E-19-7.89864E-19
 -1      1000 9.62809E-05-2.87574E-05-2.89386E-05-9.51931E-07 4.95734E-19-5.42224E-19
 -1      1001 9.31983E-05-2.63741E-05-2.86395E-05 4.57965E-07 1.89660E-18 2.55904E-18
 -1      1002 9.67371E-05-2.81216E-05-2.94074E-05 3.32585E-07-4.36487E-21-1.46730E-19
 -1      1003 9.66401E-05-2.85271E-05-2.91913E-05 4.78470E-07-1.56945E-20-2.85098E-19
 -1      1004 9.64224E-05-2.86842E-05-2.90307E-05 5.54700E-07-1.16032E-19-2.63402E-19
 -1      1005 9.61071E-05-2.86421E-05-2.89136E-05 5.86082E-07-3.28978E-19 1.40564E-19
 -1      1006 9.57124E-05-2.84445E-05-2.88291E-05 5.81765E-07-8.82646E-20-1.10791E-19
 -1      1007 9.52402E-05-2.81185E-05-2.87665E-05 5.39637E-07 2.02842E-19 3.41130E-19
 -1      1008 9.46795E-05-2.76789E-05-2.87146E-05 4.44484E-07 1.42077E-19 3.13829E-19
 -1      1009 9.40092E-05-2.71335E-05-2.86611E-05 2.63561E-07-6.05492E-20-9.72974E-20
 -1      1010 9.31999E-05-2.64874E-05-2.85911E-05-5.92754E-08 5.38127E-19 3.19567E-19
 -1      1011 9.22183E-05-2.57519E-05-2.84857E-05-6.11722E-07 1.91220E-19 1.23414E-18
 -1      1012 9.10360E-05-2.49572E-05-2.83195E-05-1.52299E-06-3.02006E-19 7.53944E-19
 -1      1013 8.96440E-05-2.41737E-05-2.80588E-05-2.97496E-06 1.52611E-19 4.72144E-19
 -1      1014 8.80799E-05-2.35444E-05-2.76590E-05-5.20850E-06 1.60806E-19-7.33472E-19
 -1      1015 8.64902E-05-2.33417E-05-2.70673E-05-8.52191E-06 2.45080E-19-1.55691E-19
 -1      1016 8.43950E-05-2.37489E-05-2.59757E-05-1.40885E-05-5.92448E-19-8.58023E-19
 -1      1017 8.81021E-05-2.29385E-05-2.79250E-05 3.26039E-06 9.58124E-20 9.24428E-19
 -1      1018 9.50531E-05-2.87859E-05-2.84000E-05-3.54740E-06-2.55460E-19-5.16839E-19
 -1      1019 8.98410E-05-2.38835E-05-2.82667E-05 1.63529E-06-7.26108E-19 1.02146E-18
 -1      1020 9.12444E-05-2.47933E-05-2.84794E-05 6.53254E-07-9.78970E-20 7.58999E-19
 -1      1021 9.23370E-05-2.55874E-05-2.86081E-05 1.03411E-07 3.61275E-19 5.49244E-19
 -1      1022 9.46751E-05-2.80629E-05-2.85480E-05-2.08741E-06-3.91179E-19 2.43353E-19
 -1      1023 9.73882E-05-3.14354E-05-2.82650E-05-5.60030E-06-7.59555E-19-4.49570E-19
 -1      1024 9.58695E-05-2.97886E-05-2.83199E-05-4.53563E-06-2.66176E-19-7.94430E-19
 -1      1025 1.03585E-04-3.70995E-05-2.84947E-05-6.90083E-06-1.06641E-18-8.18447E-19
 -1      1026 1.02184E-04-3.58777E-05-2.84160E-05 6.83983E-06 1.25858E-18 9.40386E-20
 -1      1027 9.89032E-05-3.28884E-05-2.82907E-05 6.22868E-06-6.11913E-20 1.29182E-18
 -1      1028 9.67163E-05-3.06669E-05-2.83070E-05 5.21153E-06-1.38420E-18 1.27077E-18
 -1      1029 9.54148E-05-2.92000E-05-2.83778E-05 4.12676E-06-2.74703E-20 1.48157E-18
 -1      1030 9.47109E-05-2.82938E-05-2.84637E-05 3.16184E-06-1.13350E-19 2.36456E-18
 -1      1031 9.44097E-05-2.78096E-05-2.85427E-05 2.35888E-06 9.54398E-19 1.85234E-18
 -1      1032 9.40935E-05-2.74110E-05-2.85784E-05 1.86896E-06 5.04855E-19 2.44701E-18
 -1      1033 9.34276E-05-2.67878E-05-2.85598E-05 1.60113E-06-1.62920E-19 6.77797E-18
 -1      1034 9.65436E-05-2.82166E-05-2.92834E-05-5.82734E-07 2.88026E-19-1.23163E-19
 -1      1035 9.58493E-05-2.50093E-05-3.03599E-05-3.92124E-07-2.32196E-19-6.08984E-19
 -1      1036 9.36951E-05-3.26549E-05-2.61360E-05-1.92306E-05-1.04055E-18-9.09905E-19
 -1      1037 9.31755E-05-2.62522E-05-2.86812E-05-1.35239E-07 1.47532E-18 4.75276E-19
 -1      1038 9.47117E-05-2.82600E-05-2.84791E-05-2.72585E-06-3.06116E-19 2.06836E-20
 -1      1039 1.06838E-04-3.95511E-05-2.88507E-05 6.36199E-06 4.22960E-19 1.72140E-19
 -1      1040 1.12133E-04-4.28430E-05-2.96981E-05 4.19291E-06 2.35302E-18 7.51199E-19
 -1      1041 9.60604E-05-2.87796E-05-2.88346E-05-1.05094E-06 3.85290E-19 6.68298E-20
 -1      1042 9.53869E-05-2.83977E-05-2.87096E-05-1.05018E-06 2.27981E-20-1.47521E-19
 -1      1043 9.98678E-05-3.38590E-05-2.82887E-05-6.52253E-06-1.09645E-18-7.12290E-19
 -1      1044 8.62011E-05-2.67107E-05-2.54715E-05 1.84991E-05-5.25399E-19 2.57307E-18
 -1      1045 8.60174E-05-2.21132E-05-2.73874E-05 5.85750E-06 9.75648E-19-2.89184E-19
 -1      1046 9.64965E-05-2.74555E-05-2.95891E-05-1.74309E-07 4.11495E-19-1.42643E-19
 -1      1047 9.66135E-05-2.73299E-05-2.96925E-05 1.12535E-07 5.39162E-20-1.69438E-19
 -1      1048 9.28850E-05-2.62252E-05-2.85673E-05 1.07669E-06 1.02196E-18 3.71992E-18
 -1      1049 9.57128E-05-2.85831E-05-2.87700E-05-8.96030E-07 6.46536E-20 2.16458E-19
 -1      1050 9.48241E-05-2.80764E-05-2.86061E-05-1.61529E-06-1.22438E-19-1.00743E-19
 -1      1051 1.06216E-04-4.20369E-05-2.74858E-05 1.73637E-05 1.88886E-18 2.08465E-18
 -1      1052 8.55109E-05-2.35678E-05-2.65495E-05 1.16889E-05-1.45650E-18 9.17871E-19
 -1      1053 9.63576E-05-2.63581E-05-2.99998E-05-1.36101E-07-8.65996E-21-3.45391E-19
 -1      1054 1.09003E-04-4.15139E-05-2.89081E-05-7.61742E-06-9.64343E-19-1.93165E-18
 -1      1055 9.65527E-05-2.86714E-05-2.90920E-05-5.95818E-07 3.05875E-19-2.00978E-19
 -1      1056 1.02392E-04-3.79880E-05-2.76182E-05-1.40441E-05-4.79257E-19-1.60632E-18
 -1      1057 9.50787E-05-2.82106E-05-2.86578E-05-1.28008E-06 1.05129E-19-4.95656E-19
 -1      1058 9.66881E-05-2.83607E-05-2.92825E-05-4.56947E-07 4.53089E-19-7.14137E-19
 -1      1059 9.63304E-05-2.62088E-05-3.00526E-05 1.59902E-07 2.39973E-19-8.07659E-19
 -1      1060 9.61799E-05-2.57527E-05-3.01820E-05-3.08834E-08 3.32011E-19-3.26953E-19
 -1      1061 8.54288E-05-2.25029E-05-2.69717E-05 8.54434E-06 1.39887E-18-1.66576E-18
 -1      1062 9.35508E-05-2.70586E-05-2.84983E-05 2.29516E-06 9.21709E-19 3.19817E-18
 -1      1063 9.66386E-05-2.86363E-05-2.91439E-05 1.82729E-07-4.02294E-20 1.96469E-20
 -1      1064 9.63597E-05-2.87035E-05-2.89957E-05 1.91987E-07-2.32898E-20 2.06906E-20
 -1      1065 9.59980E-05-2.85998E-05-2.88850E-05 1.64817E-07 1.55270E-19 4.71797E-19
 -1      1066 9.55656E-05-2.83602E-05-2.88023E-05 9.78656E-08 3.73036E-19 9.91462E-19
 -1      1067 9.50694E-05-2.80194E-05-2.87358E-05-2.68554E-08 1.04055E-19 4.92050E-19
 -1      1068 9.45068E-05-2.76009E-05-2.86741E-05-2.39253E-07-1.86639E-20 7.34011E-19
 -1      1069 9.38767E-05-2.71314E-05-2.86053E-05-5.88661E-07 1.63373E-20 7.08760E-19
 -1      1070 9.31815E-05-2.66458E-05-2.85156E-05-1.14639E-06 4.12045E-19-5.87027E-20
 -1      1071 9.24396E-05-2.62003E-05-2.83888E-05-2.01155E-06-4.25590E-20-6.95952E-19
 -1      1072 9.17028E-05-2.58905E-05-2.82061E-05-3.31444E-06-3.46996E-19-2.51264E-19
 -1      1073 9.10861E-05-2.58779E-05-2.79477E-05-5.21374E-06-2.84242E-19-1.83758E-19
 -1      1074 9.08051E-05-2.64116E-05-2.75978E-05-7.88049E-06 3.34773E-19-8.68214E-19
 -1      1075 9.11193E-05-2.79971E-05-2.70548E-05-1.20555E-05-2.84797E-19-8.28796E-19
 -1      1076 9.39193E-05-2.74686E-05-2.84786E-05-2.23276E-06-1.80439E-19-7.62792E-20
 -1      1077 9.14031E-05-2.52743E-05-2.83423E-05 2.30826E-06-1.07767E-18 3.92520E-18
 -1      1078 9.60345E-05-2.87233E-05-2.88476E-05-7.86744E-07 5.44478E-19-2.51631E-19
 -1      1079 8.96441E-05-2.48988E-05-2.77587E-05 6.03089E-06 1.31164E-18 1.87997E-18
 -1      1080 9.37649E-05-2.75683E-05-2.83695E-05-3.18254E-06 1.43504E-21-4.36273E-19
 -1      1081 9.54266E-05-3.00855E-05-2.80006E-05 7.42288E-06-5.37898E-19 4.26676E-18
 -1      1082 9.77553E-05-3.27067E-05-2.78798E-05 9.53922E-06-6.04651E-19 3.47895E-18
 -1      1083 9.36250E-05-2.75617E-05-2.83128E-05 4.00746E-06 4.22393E-19 1.48874E-18
 -1      1084 9.35225E-05-2.72224E-05-2.84122E-05 3.05683E-06 6.27342E-20 2.21029E-18
 -1      1085 9.39142E-05-2.80343E-05-2.82334E-05-4.46953E-06-1.73591E-19-1.18699E-19
 -1      1086 9.67861E-05-2.83244E-05-2.93390E-05 1.46477E-07-1.72057E-21-9.33432E-20
 -1      1087 9.68465E-05-3.42248E-05-2.68309E-05 1.65989E-05 3.05531E-19 4.19316E-18
 -1      1088 9.66941E-05-2.75557E-05-2.96301E-05-1.49743E-07 3.56822E-19-7.13353E-19
 -1      1089 9.42017E-05-2.84859E-05-2.81676E-05 5.50031E-06-6.26145E-19 3.22558E-18
 -1      1090 9.67056E-05-2.72761E-05-2.97566E-05-7.79872E-09 1.50217E-19-3.14877E-19
 -1      1091 1.01815E-04-3.66215E-05-2.79254E-05 1.14114E-05 5.14374E-19 1.88635E-18
 -1      1092 9.45841E-05-2.90699E-05-2.80769E-05-6.12779E-06-5.82217E-19-1.85550E-19
 -1      1093 9.90238E-05-3.39688E-05-2.78920E-05-1.00648E-05-1.18289E-18-1.87028E-18
 -1      1094 9.61169E-05-3.09510E-05-2.79318E-05-8.09971E-06-2.18083E-19-9.26675E-19
 -1      1095 9.63224E-05-2.87696E-05-2.89512E-05-6.95150E-07 2.73275E-19-1.19196E-19
 -1      1096 9.05128E-05-2.49397E-05-2.81044E-05 3.82838E-06 1.62851E-19 2.64224E-18
 -1      1097 9.50573E-05-2.81038E-05-2.86943E-05-7.89770E-07 2.29290E-19 1.52473E-19
 -1      1098 9.25205E-05-2.92332E-05-2.71342E-05 1.24635E-05-2.11068E-18 5.76739E-18
 -1      1099 9.54776E-05-2.83753E-05-2.87581E-05-5.89258E-07 2.47203E-19-7.77979E-20
 -1      1100 9.42376E-05-2.75880E-05-2.85639E-05-1.55918E-06-5.31236E-19-7.97091E-20
 -1      1101 9.22696E-05-2.57529E-05-2.85061E-05 1.27476E-06-1.18564E-18 2.15597E-18
 -1      1102 9.00656E-05-2.58146E-05-2.75375E-05 8.06291E-06 1.40558E-18 3.17465E-18
 -1      1103 9.29380E-05-2.64845E-05-2.84816E-05 2.04091E-06-1.10218E-18 5.37900E-18
 -1      1104 9.46339E-05-2.78238E-05-2.86327E-05-1.09724E-06-5.08492E-20 1.39478E-20
 -1      1105 9.67267E-05-2.85112E-05-2.92363E-05-2.38934E-07 3.52777E-20 3.53884E-20
 -1      1106 9.65308E-05-2.87168E-05-2.90629E-05-3.12833E-07 2.34528E-19 1.29354E-19
 -1      1107 9.62235E-05-2.87083E-05-2.89351E-05-2.24605E-07 2.79849E-19 3.62621E-19
 -1      1108 9.58466E-05-2.85608E-05-2.88368E-05-3.00391E-07 1.97782E-19 9.42065E-20
 -1      1109 9.26730E-05-2.84917E-05-2.75115E-05 9.80613E-06-1.22270E-18 6.92027E-18
 -1      1110 9.24360E-05-2.68907E-05-2.80770E-05 5.34743E-06 1.48671E-18 1.98374E-18
 -1      1111 9.68084E-05-2.82706E-05-2.93727E-05-1.12276E-07 1.54330E-19 2.18340E-20
 -1      1112 9.02082E-05-2.66124E-05-2.72662E-05 1.01050E-05-6.75383E-19 3.78223E-18
 -1      1113 1.16658E-04 2.57022E-10-4.17739E-05-4.15601E-05-1.88465E-19 7.28046E-18
 -1      1114 8.85978E-05 7.14498E-11-3.72363E-05-2.41253E-05-1.30231E-19 9.42404E-19
 -1      1115 8.40663E-05 4.13758E-11-3.57635E-05-1.78792E-05-8.23740E-20-1.70398E-18
 -1      1116 8.23351E-05 3.20361E-11-3.50731E-05-1.38439E-05-5.52160E-20-2.89078E-18
 -1      1117 8.15432E-05 2.73508E-11-3.47423E-05-1.05381E-05-3.22534E-20-3.49048E-18
 -1      1118 8.11459E-05 2.46167E-11-3.45799E-05-7.64356E-06-1.19974E-20-3.62918E-18
 -1      1119 8.09413E-05 2.29562E-11-3.44986E-05-4.98150E-06-8.89715E-21-3.61360E-18
 -1      1120 8.08419E-05 2.20566E-11-3.44605E-05-2.43326E-06 2.41868E-21-3.51389E-18
 -1      1121 8.08134E-05 2.17830E-11-3.44497E-05 5.15082E-08 7.03600E-21-3.39766E-18
 -1      1122 8.08455E-05 2.20972E-11-3.44616E-05 2.53860E-06 1.82278E-20-3.28709E-18
 -1      1123 8.09488E-05 2.30493E-11-3.45010E-05 5.09454E-06 3.49930E-20-3.06696E-18
 -1      1124 8.11595E-05 2.47672E-11-3.45835E-05 7.77182E-06 4.93397E-20-2.74944E-18
 -1      1125 8.15614E-05 2.76387E-11-3.47478E-05 1.06927E-05 5.98217E-20-2.21021E-18
 -1      1126 8.23585E-05 3.25095E-11-3.50817E-05 1.40428E-05 7.59683E-20-1.27021E-18
 -1      1127 8.40622E-05 4.19079E-11-3.57810E-05 1.81310E-05 1.00268E-19 4.55585E-19
 -1      1128 8.83213E-05 6.67145E-11-3.73113E-05 2.40086E-05 1.04820E-19 3.60434E-18
 -1      1129 1.06578E-04 1.63846E-10-4.06195E-05 3.61836E-05 1.94182E-19 9.83299E-18
 -1      1130 1.31295E-04-2.57021E-05-4.04107E-05-2.70385E-05-8.99973E-19 1.14536E-17
 -1      1131 9.81890E-05-2.90371E-05-3.18439E-05-9.22887E-07-3.04561E-19 9.42070E-18
 -1      1132 9.02774E-05-2.70440E-05-2.79848E-05 3.88510E-07-1.36849E-19 6.44650E-18
 -1      1133 8.82421E-05-2.65690E-05-2.66581E-05 2.55608E-07-7.70271E-20 4.26778E-18
 -1      1134 8.78294E-05-2.64287E-05-2.63728E-05 1.68155E-07-4.90171E-20 2.70151E-18
 -1      1135 8.81642E-05-2.64982E-05-2.64475E-05 1.19052E-07-8.52468E-20 1.32598E-18
 -1      1136 8.88438E-05-2.66804E-05-2.66479E-05 8.77048E-08-4.10075E-20 3.76718E-19
 -1      1137 8.96657E-05-2.69143E-05-2.68928E-05 6.59654E-08-6.26469E-20-4.07846E-19
 -1      1138 9.05202E-05-2.71636E-05-2.71479E-05 4.98658E-08-6.84012E-20-1.35425E-18
 -1      1139 9.13488E-05-2.74083E-05-2.73962E-05 3.74564E-08-5.69084E-20-2.04930E-18
 -1      1140 9.21250E-05-2.76394E-05-2.76298E-05 2.77167E-08-4.83136E-21-2.29207E-18
 -1      1141 9.28445E-05-2.78548E-05-2.78473E-05 2.00679E-08-3.34433E-20-2.35201E-18
 -1      1142 9.35198E-05-2.80580E-05-2.80526E-05 1.41721E-08-8.89280E-20-2.71836E-18
 -1      1143 9.41783E-05-2.82572E-05-2.82538E-05 9.87093E-09-3.35339E-21-2.44030E-18
 -1      1144 9.48625E-05-2.84652E-05-2.84643E-05 7.20656E-09-4.43865E-20-2.54698E-18
 -1      1145 9.56340E-05-2.87006E-05-2.87031E-05 6.52268E-09-1.71552E-19-4.27737E-18
 -1      1146 9.65810E-05-2.89902E-05-2.89979E-05 8.68159E-09 1.09021E-19-4.46369E-18
 -1      1147 9.78307E-05-2.93725E-05-2.93890E-05 1.54794E-08 1.39074E-20-3.65274E-18
 -1      1148 9.95697E-05-2.99038E-05-2.99357E-05 3.04077E-08-1.72892E-19-3.37576E-18
 -1      1149 1.02074E-04-3.06668E-05-3.07258E-05 5.99898E-08-8.33864E-20-3.81157E-18
 -1      1150 1.05749E-04-3.17819E-05-3.18872E-05 1.15935E-07 4.61732E-20-3.87878E-18
 -1      1151 1.11171E-04-3.34194E-05-3.35975E-05 2.17913E-07 1.13797E-19-4.50320E-18
 -1      1152 1.19103E-04-3.58038E-05-3.60725E-05 3.94460E-07 1.90060E-19-2.96324E-18
 -1      1153 1.30362E-04-3.91801E-05-3.94911E-05 6.71111E-07-1.12232E-20-2.95149E-18
 -1      1154 1.45292E-04-4.36612E-05-4.37725E-05 1.01304E-06 2.98645E-20-2.85471E-18
 -1      1155 1.62313E-04-4.87833E-05-4.81452E-05 1.16161E-06-2.14107E-20-1.56489E-19
 -1      1156 1.75236E-04-5.26358E-05-5.07340E-05 3.57927E-07-1.56331E-19 9.19401E-19
 -1      1157 1.72149E-04-5.14168E-05-4.91778E-05-2.22492E-06 5.14149E-19 2.43649E-18
 -1      1158 1.43959E-04-4.24605E-05-4.29894E-05-5.74109E-06-2.37884E-19 2.40134E-18
 -1      1159 1.03773E-04-2.97788E-05-3.58047E-05-5.52749E-06 4.21081E-19-2.55889E-18
 -1      1160 8.07589E-05-2.33793E-05-3.18154E-05-8.92316E-07-1.39972E-19-5.54023E-18
 -1      1161 8.73332E-05-2.49262E-05-3.30675E-05 3.33184E-06-4.14993E-19-1.02449E-17
 -1      1162 1.21349E-04-3.54943E-05-3.86596E-05 5.06281E-06 1.83608E-19-9.76714E-18
 -1      1163 1.58935E-04-4.73001E-05-4.60575E-05 3.49751E-06 1.55874E-19-7.76052E-18
 -1      1164 1.76274E-04-5.31218E-05-5.04657E-05 8.76064E-07 1.27280E-19-5.85808E-18
 -1      1165 1.70550E-04-5.14320E-05-4.99425E-05-5.93484E-07 2.56578E-19-1.81323E-18
 -1      1166 1.54584E-04-4.64931E-05-4.62377E-05-8.74388E-07-2.65700E-19-4.58457E-18
 -1      1167 1.38106E-04-4.14644E-05-4.17442E-05-6.99754E-07 9.68364E-20-5.02058E-18
 -1      1168 1.24812E-04-3.74563E-05-3.78134E-05-4.61438E-07 2.70845E-19-7.46765E-19
 -1      1169 1.15157E-04-3.45627E-05-3.48395E-05-2.78679E-07-4.42327E-19-8.35016E-19
 -1      1170 1.08481E-04-3.25634E-05-3.27456E-05-1.61200E-07 2.40486E-19-1.98624E-18
 -1      1171 1.03964E-04-3.12082E-05-3.13202E-05-9.11868E-08-1.85414E-19-2.78072E-18
 -1      1172 1.00930E-04-3.02955E-05-3.03627E-05-5.09948E-08-4.28765E-19-4.20188E-18
 -1      1173 9.88900E-05-2.96804E-05-2.97206E-05-2.83933E-08 4.99270E-20-2.49202E-18
 -1      1174 9.75129E-05-2.92643E-05-2.92885E-05-1.58628E-08 3.44062E-19-7.73531E-19
 -1      1175 9.65787E-05-2.89815E-05-2.89967E-05-8.96668E-09 2.27600E-19-1.02277E-18
 -1      1176 9.59470E-05-2.87900E-05-2.88006E-05-5.03088E-09-1.40596E-19-3.72688E-18
 -1      1177 9.55317E-05-2.86639E-05-2.86731E-05-2.17517E-09 2.37710E-19-3.33951E-18
 -1      1178 9.52867E-05-2.85894E-05-2.85981E-05 1.52347E-09-4.23508E-19-6.81191E-18
 -1      1179 9.51906E-05-2.85600E-05-2.85635E-05 8.31389E-09 5.44454E-20-6.74782E-18
 -1      1180 9.52139E-05-2.85754E-05-2.85478E-05 1.27830E-08 3.71472E-19-3.21901E-18
 -1      1181 1.31000E-04-3.77224E-05-3.86436E-05 1.21711E-05-1.77956E-19 1.48557E-17
 -1      1182 9.65074E-05-2.81758E-05-3.13138E-05 8.01870E-07 8.62915E-20 1.23057E-17
 -1      1183 9.03178E-05-2.69185E-05-2.78545E-05 1.19877E-07 5.77703E-20 9.61987E-18
 -1      1184 8.82822E-05-2.64893E-05-2.66612E-05 7.70214E-09 8.42781E-20 8.01791E-18
 -1      1185 8.78816E-05-2.63986E-05-2.63986E-05-2.65159E-08-1.60688E-20 7.02744E-18
 -1      1186 8.82252E-05-2.64930E-05-2.64745E-05-3.40200E-08 4.64445E-20 6.17069E-18
 -1      1187 8.89122E-05-2.66896E-05-2.66746E-05-3.44948E-08-7.59749E-20 5.99544E-18
 -1      1188 8.97404E-05-2.69320E-05-2.69201E-05-3.21840E-08-8.93975E-21 5.70395E-18
 -1      1189 9.06013E-05-2.71866E-05-2.71764E-05-2.86675E-08 3.97036E-20 4.56659E-18
 -1      1190 9.14372E-05-2.74353E-05-2.74261E-05-2.46316E-08 1.24070E-19 3.42122E-18
 -1      1191 9.22206E-05-2.76690E-05-2.76612E-05-2.05338E-08 7.15835E-20 2.37413E-18
 -1      1192 9.29439E-05-2.78853E-05-2.78790E-05-1.67350E-08 1.56305E-20 2.07617E-18
 -1      1193 9.36115E-05-2.80851E-05-2.80806E-05-1.35541E-08-3.46710E-21 2.58126E-18
 -1      1194 9.42347E-05-2.82716E-05-2.82690E-05-1.13028E-08-1.16661E-19 2.36196E-18
 -1      1195 9.48268E-05-2.84486E-05-2.84478E-05-1.03050E-08 6.63330E-20 1.42631E-18
 -1      1196 9.53979E-05-2.86190E-05-2.86197E-05-1.08916E-08-1.82502E-20 6.57781E-19
 -1      1197 9.59494E-05-2.87829E-05-2.87844E-05-1.33542E-08-1.36607E-19 7.29636E-19
 -1      1198 9.64673E-05-2.89360E-05-2.89370E-05-1.78352E-08 9.72612E-20 2.20990E-19
 -1      1199 9.69144E-05-2.90669E-05-2.90653E-05-2.41322E-08 8.30200E-20-6.10019E-19
 -1      1200 9.72224E-05-2.91554E-05-2.91482E-05-3.14104E-08 4.79756E-20-2.66526E-19
 -1      1201 9.72870E-05-2.91705E-05-2.91540E-05-3.78613E-08-1.00554E-19 1.84010E-18
 -1      1202 9.69683E-05-2.90712E-05-2.90416E-05-4.04437E-08 2.06718E-19 1.97189E-18
 -1      1203 9.61042E-05-2.88103E-05-2.87650E-05-3.49784E-08-9.55418E-20 1.65118E-18
 -1      1204 9.45419E-05-2.83435E-05-2.82833E-05-1.69833E-08 1.29764E-19 1.24683E-18
 -1      1205 9.21905E-05-2.76447E-05-2.75764E-05 1.64454E-08 6.01468E-20 6.39920E-19
 -1      1206 8.90901E-05-2.67259E-05-2.66631E-05 6.39065E-08-5.43698E-20 1.84793E-18
 -1      1207 8.54735E-05-2.56549E-05-2.56168E-05 1.17321E-07 3.14296E-20 3.54060E-19
 -1      1208 8.17875E-05-2.45617E-05-2.45675E-05 1.62013E-07-1.02184E-19-8.04417E-20
 -1      1209 7.86346E-05-2.36229E-05-2.36826E-05 1.81038E-07 1.20095E-19-3.75236E-19
 -1      1210 7.66281E-05-2.30199E-05-2.31276E-05 1.62888E-07 8.50044E-20-1.45216E-18
 -1      1211 7.61993E-05-2.28829E-05-2.30156E-05 1.08425E-07-3.31815E-20-1.12136E-18
 -1      1212 7.74442E-05-2.32446E-05-2.33700E-05 3.19954E-08-3.23873E-19 1.81689E-19
 -1      1213 8.00869E-05-2.40268E-05-2.41164E-05-4.46801E-08-3.68360E-20 6.79506E-19
 -1      1214 8.35820E-05-2.50685E-05-2.51079E-05-1.02326E-07 1.30612E-21 7.92346E-19
 -1      1215 8.72989E-05-2.61809E-05-2.61726E-05-1.31236E-07-2.34223E-19 5.36913E-19
 -1      1216 9.06998E-05-2.72014E-05-2.71597E-05-1.32475E-07-2.56826E-19-6.90755E-19
 -1      1217 9.34439E-05-2.80261E-05-2.79691E-05-1.14177E-07-8.14343E-20-4.28121E-18
 -1      1218 9.54018E-05-2.86152E-05-2.85580E-05-8.64668E-08 2.58254E-19-4.32073E-18
 -1      1219 9.66102E-05-2.89792E-05-2.89311E-05-5.77063E-08-2.62293E-19-3.00568E-18
 -1      1220 9.72017E-05-2.91579E-05-2.91226E-05-3.30113E-08 1.79195E-19-5.18804E-18
 -1      1221 9.73435E-05-2.92014E-05-2.91786E-05-1.44540E-08 1.22342E-19-6.38200E-18
 -1      1222 9.71947E-05-2.91575E-05-2.91449E-05-2.01942E-09-1.82302E-19-2.72173E-18
 -1      1223 9.68851E-05-2.90653E-05-2.90599E-05 5.38627E-09-2.01696E-19-4.47293E-19
 -1      1224 9.65098E-05-2.89533E-05-2.89525E-05 9.19131E-09-2.80261E-20-1.74336E-18
 -1      1225 9.61322E-05-2.88405E-05-2.88425E-05 1.07198E-08-2.70560E-19-2.59178E-18
 -1      1226 9.57924E-05-2.87390E-05-2.87428E-05 1.09465E-08 2.29831E-19-4.48137E-18
 -1      1227 9.55156E-05-2.86562E-05-2.86618E-05 1.03367E-08-4.83707E-19-4.35683E-18
 -1      1228 9.53207E-05-2.85977E-05-2.86049E-05 8.21878E-09 1.29372E-19-2.29787E-18
 -1      1229 9.52240E-05-2.85681E-05-2.85734E-05 2.06809E-09 6.44852E-19-4.89203E-18
 -1      1230 9.52203E-05-2.85665E-05-2.85577E-05-5.77359E-09-1.29084E-19-6.00047E-18
 -1      1231 9.52420E-05-2.85886E-05-2.85580E-05-5.76045E-09-5.95874E-18-5.02067E-19
 -1      1232 9.52377E-05-2.85817E-05-2.85738E-05-5.90909E-09-7.51720E-18 1.15756E-19
 -1      1233 9.52090E-05-2.84862E-05-2.86047E-05 2.90231E-09-4.17154E-18 8.34842E-19
 -1      1234 9.51563E-05-2.83067E-05-2.86557E-05 7.40414E-09-3.19815E-18-6.47354E-19
 -1      1235 9.50884E-05-2.80767E-05-2.87212E-05 9.24867E-09-3.32091E-18 4.46223E-19
 -1      1236 9.50168E-05-2.78334E-05-2.87907E-05 9.35292E-09-6.26702E-18-7.19541E-19
 -1      1237 9.49512E-05-2.76098E-05-2.88546E-05 8.06053E-09-4.48088E-18 1.01879E-19
 -1      1238 9.49009E-05-2.74381E-05-2.89034E-05 5.25423E-09-1.70465E-18-8.39009E-20
 -1      1239 9.48754E-05-2.73499E-05-2.89279E-05 1.21442E-09-5.12932E-18-6.33201E-19
 -1      1240 9.48805E-05-2.73659E-05-2.89226E-05-3.63244E-09-2.25592E-18 2.57919E-20
 -1      1241 9.49177E-05-2.74918E-05-2.88861E-05-8.48866E-09-3.40335E-19-1.70672E-18
 -1      1242 9.49825E-05-2.77116E-05-2.88237E-05-1.22615E-08-1.56828E-18 8.09852E-20
 -1      1243 9.50643E-05-2.79908E-05-2.87454E-05-1.34772E-08-1.68739E-18 3.89083E-19
 -1      1244 9.51482E-05-2.82776E-05-2.86660E-05-1.08464E-08 4.69336E-18-4.72984E-19
 -1      1245 9.52146E-05-2.85031E-05-2.86031E-05-2.39614E-09 7.34464E-18 3.26241E-19
 -1      1246 9.52462E-05-2.86120E-05-2.85668E-05 1.25894E-08 5.47717E-18-1.79812E-19
 -1      1247 9.52326E-05-2.85951E-05-2.85483E-05 1.15077E-08 2.86248E-18-9.89562E-19
 -1      1248 3.60998E-05-1.11936E-04 1.94975E-05-1.37240E-05 6.96430E-18 1.17489E-18
 -1      1249 1.65112E-05-5.80364E-05 8.04991E-06-2.20765E-05 9.09375E-18 4.10938E-18
 -1      1250 1.01485E-05 2.18172E-06-1.02444E-05 1.19294E-05 9.26485E-18 5.47353E-18
 -1      1251 4.58748E-05 3.07693E-05-3.21988E-05 7.01472E-05 4.79759E-18 4.54687E-18
 -1      1252 1.33597E-04 8.46922E-06-5.42361E-05 1.16479E-04 1.70762E-18 1.81943E-18
 -1      1253 2.40328E-04-4.57382E-05-7.14983E-05 1.11027E-04-1.19728E-18-4.35375E-18
 -1      1254 3.12349E-04-8.87304E-05-8.12748E-05 4.79088E-05-1.01427E-18-9.65363E-18
 -1      1255 3.18044E-04-9.18199E-05-8.18422E-05-3.87611E-05 1.55420E-18-1.02525E-17
 -1      1256 2.52858E-04-5.31692E-05-7.32261E-05-1.05020E-04 4.54793E-18-1.17865E-17
 -1      1257 1.51563E-04 9.37412E-07-5.75806E-05-1.20048E-04 7.56316E-18-1.25530E-17
 -1      1258 6.32789E-05 3.03042E-05-3.78796E-05-8.47185E-05 9.18523E-18-1.00543E-17
 -1      1259 1.54513E-05 1.62703E-05-1.68458E-05-2.84651E-05 8.55673E-18-6.98633E-18
 -1      1260 1.08724E-05-3.59283E-05 2.47030E-06 1.50144E-05 6.92704E-18-2.97393E-18
 -1      1261 2.93463E-05-9.55650E-05 1.63480E-05 2.13317E-05 3.32460E-18-1.09225E-18
 -1      1262 4.10227E-05-1.25602E-04 2.23129E-05-3.99423E-06-4.64386E-18-5.71588E-19
 -1      1263 3.11968E-05-1.09745E-04 1.96445E-05-3.22272E-05-8.42967E-18-2.00006E-18
 -1      1264 1.13868E-05-5.87910E-05 8.10453E-06-3.45612E-05-8.94382E-18-4.25888E-18
 -1      1265 1.04222E-05-3.29074E-06-1.12211E-05 4.26188E-06-9.51557E-18-7.67751E-18
 -1      1266 6.37279E-05 1.74508E-05-3.60200E-05 6.97950E-05-9.95772E-18-1.26801E-17
 -1      1267 1.75675E-04-1.39429E-05-6.10939E-05 1.17012E-04-6.59585E-18-1.13181E-17
 -1      1268 3.07480E-04-7.67440E-05-8.08124E-05 1.02135E-04-2.16544E-18-7.90451E-18
 -1      1269 3.81673E-04-1.15647E-04-9.02503E-05 1.99496E-05-5.69736E-19 7.58094E-20
 -1      1270 3.52543E-04-1.00175E-04-8.63898E-05-7.43808E-05-1.51619E-18 7.07442E-18
 -1      1271 2.35572E-04-4.03180E-05-7.07408E-05-1.18107E-04-2.95614E-18 8.04681E-18
 -1      1272 1.09145E-04 9.29635E-06-4.76867E-05-9.66298E-05-4.89585E-18 7.48099E-18
 -1      1273 2.87134E-05 1.23685E-05-2.29774E-05-3.54746E-05-7.12863E-18 6.99480E-18
 -1      1274 6.71698E-06-3.02889E-05-4.87057E-07 1.92022E-05-5.53790E-18 3.88195E-18
 -1      1275 2.19728E-05-8.93072E-05 1.53190E-05 3.80730E-05-2.03796E-18 1.93759E-18
 -1      1276 3.90606E-05-1.24084E-04 2.21648E-05 1.78348E-05 5.46188E-18-5.61159E-20
 -1      1277 1.04640E-04-2.18645E-05-3.80133E-05-1.76548E-05-3.13402E-19 5.94151E-18
 -1      1278 9.02876E-05-6.65094E-06-3.60115E-05-2.04968E-05-9.51112E-19-2.87568E-19
 -1      1279 9.24983E-05-6.54474E-06-3.71852E-05-2.57977E-05-1.22544E-18 1.10225E-18
 -1      1280 8.58914E-05-4.08839E-06-3.51270E-05-1.64404E-05-9.10666E-19-2.23286E-18
 -1      1281 8.71413E-05-4.07846E-06-3.55950E-05-1.88536E-05-1.06006E-18-1.40097E-18
 -1      1282 9.21196E-05-1.04572E-05-3.50862E-05-1.90605E-05-1.62593E-18-1.82959E-19
 -1      1283 8.41036E-05-3.19279E-06-3.46878E-05-1.28255E-05-6.87288E-19-3.21895E-18
 -1      1284 8.47050E-05-3.16072E-06-3.49101E-05-1.46413E-05-8.23766E-19-2.79846E-18
 -1      1285 8.78618E-05-7.39067E-06-3.45717E-05-1.54259E-05-1.39571E-18-1.84812E-18
 -1      1286 8.31982E-05-2.72916E-06-3.44743E-05-9.68931E-06-5.05057E-19-3.58590E-18
 -1      1287 8.35103E-05-2.71244E-06-3.45822E-05-1.12375E-05-5.82229E-19-3.41344E-18
 -1      1288 8.58757E-05-5.98779E-06-3.43066E-05-1.19606E-05-1.07582E-18-2.65939E-18
 -1      1289 8.27109E-05-2.45812E-06-3.43708E-05-6.91723E-06-3.16453E-19-3.67266E-18
 -1      1290 8.28779E-05-2.44960E-06-3.44239E-05-8.28871E-06-4.05815E-19-3.64035E-18
 -1      1291 8.48345E-05-5.21840E-06-3.41779E-05-8.94559E-06-7.68087E-19-2.93653E-18
 -1      1292 8.24390E-05-2.29221E-06-3.43196E-05-4.29620E-06-1.33360E-19-3.60442E-18
 -1      1293 8.25285E-05-2.28826E-06-3.43461E-05-5.59784E-06-1.92822E-19-3.65135E-18
 -1      1294 8.42534E-05-4.76221E-06-3.41171E-05-6.21761E-06-4.47884E-19-3.02584E-18
 -1      1295 8.23079E-05-2.20228E-06-3.42981E-05-1.79089E-06 5.84961E-20-3.49200E-18
 -1      1296 8.23463E-05-2.20072E-06-3.43089E-05-3.04204E-06 1.64824E-20-3.55116E-18
 -1      1297 8.39335E-05-4.49750E-06-3.40896E-05-3.64510E-06-1.26009E-19-2.90626E-18
 -1      1298 8.22817E-05-2.17445E-06-3.42955E-05 6.68828E-07 2.59291E-19-3.42303E-18
 -1      1299 8.22806E-05-2.17450E-06-3.42952E-05-5.66992E-07 2.00607E-19-3.47334E-18
 -1      1300 8.37928E-05-4.37700E-06-3.40794E-05-1.17122E-06 2.32646E-19-2.84755E-18
 -1      1301 8.23537E-05-2.20468E-06-3.43100E-05 3.14721E-06 3.99010E-19-3.25826E-18
 -1      1302 8.23129E-05-2.20631E-06-3.42987E-05 1.89365E-06 3.43610E-19-3.34957E-18
 -1      1303 8.37972E-05-4.38087E-06-3.40796E-05 1.27245E-06 4.75776E-19-2.75836E-18
 -1      1304 8.25437E-05-2.29790E-06-3.43482E-05 5.71147E-06 5.67366E-19-3.04605E-18
 -1      1305 8.24510E-05-2.30128E-06-3.43211E-05 4.40429E-06 4.99111E-19-3.18057E-18
 -1      1306 8.39472E-05-4.50999E-06-3.40903E-05 3.75021E-06 7.63347E-19-2.60325E-18
 -1      1307 8.28981E-05-2.46376E-06-3.44261E-05 8.39348E-06 7.34378E-19-2.67919E-18
 -1      1308 8.27282E-05-2.47250E-06-3.43724E-05 7.01361E-06 6.78960E-19-2.89548E-18
 -1      1309 8.42762E-05-4.78358E-06-3.41177E-05 6.30840E-06 1.00190E-18-2.37884E-18
 -1      1310 8.35489E-05-2.74080E-06-3.45864E-05 1.13936E-05 9.45501E-19-2.08775E-18
 -1      1311 8.32314E-05-2.75797E-06-3.44774E-05 9.82876E-06 8.66568E-19-2.44699E-18
 -1      1312 8.48731E-05-5.25677E-06-3.41783E-05 9.05155E-06 1.31264E-18-1.95620E-18
 -1      1313 8.47649E-05-3.20566E-06-3.49170E-05 1.48419E-05 1.12700E-18-1.05212E-18
 -1      1314 8.41548E-05-3.24049E-06-3.46923E-05 1.30012E-05 1.02791E-18-1.68037E-18
 -1      1315 8.59488E-05-6.06191E-06-3.43076E-05 1.21183E-05 1.59473E-18-1.33619E-18
 -1      1316 8.72368E-05-4.08837E-06-3.56137E-05 1.90920E-05 1.25340E-18 8.13813E-19
 -1      1317 8.59639E-05-4.15382E-06-3.51330E-05 1.66955E-05 1.12388E-18-3.03079E-19
 -1      1318 8.79826E-05-7.51818E-06-3.45723E-05 1.56489E-05 1.81699E-18-1.46087E-19
 -1      1319 9.34384E-05-6.79023E-06-3.71069E-05 2.50917E-05 1.06779E-18 4.18032E-18
 -1      1320 9.01098E-05-6.43401E-06-3.60311E-05 2.11459E-05 1.02523E-18 2.16761E-18
 -1      1321 9.23364E-05-1.06922E-05-3.50713E-05 1.96759E-05 1.83430E-18 1.92028E-18
 -1      1322 1.23580E-04-2.49133E-05-3.90014E-05 2.83598E-05 4.65868E-19 1.01890E-17
 -1      1323 1.00047E-04-1.44172E-05-3.73427E-05 2.40464E-05 5.12667E-19 6.03024E-18
 -1      1324 1.01652E-04-1.93368E-05-3.53929E-05 2.13965E-05 1.72050E-18 4.93630E-18
 -1      1325 1.02562E-04-2.77925E-05-3.47450E-05 7.32813E-06 8.54762E-19 9.90139E-18
 -1      1326 1.05619E-04-3.00914E-05-3.37909E-05-8.47554E-06-9.69853E-19 6.39023E-18
 -1      1327 9.85131E-05-2.77977E-05-3.09384E-05-5.24738E-06-8.96955E-19 5.26426E-18
 -1      1328 9.57614E-05-2.78814E-05-2.93758E-05-2.60668E-06-7.74294E-19 4.82283E-18
 -1      1329 9.34144E-05-2.75820E-05-2.82799E-05-2.14348E-06-7.43218E-19 3.70270E-18
 -1      1330 9.96761E-05-2.79099E-05-3.11206E-05-8.26515E-06-1.54329E-18 2.65097E-18
 -1      1331 9.16590E-05-2.72081E-05-2.76171E-05-8.86404E-07-5.64150E-19 3.34387E-18
 -1      1332 9.08959E-05-2.71068E-05-2.72932E-05-7.72325E-07-5.49996E-19 2.48866E-18
 -1      1333 9.48473E-05-2.77730E-05-2.88767E-05-3.28140E-06-1.22314E-18 2.06713E-18
 -1      1334 9.01136E-05-2.69168E-05-2.70378E-05-1.96496E-07-4.41853E-19 2.10297E-18
 -1      1335 9.00203E-05-2.69393E-05-2.69950E-05-1.36240E-07-4.93506E-19 1.36933E-18
 -1      1336 9.25622E-05-2.75005E-05-2.79161E-05-1.12281E-06-1.00862E-18 1.35973E-18
 -1      1337 8.97462E-05-2.68682E-05-2.69159E-05 1.45227E-07-4.01072E-19 1.09193E-18
 -1      1338 8.99529E-05-2.69565E-05-2.69750E-05 1.75412E-07-3.59944E-19 5.58142E-19
 -1      1339 9.15615E-05-2.73507E-05-2.75320E-05-1.00708E-07-8.76295E-19 5.49347E-19
 -1      1340 8.99527E-05-2.69586E-05-2.69803E-05 3.14146E-07-2.95236E-19 3.39786E-19
 -1      1341 9.02955E-05-2.70785E-05-2.70796E-05 3.27163E-07-2.85236E-19-8.75951E-20
 -1      1342 9.12910E-05-2.73354E-05-2.74178E-05 4.09118E-07-5.91747E-19 8.74231E-20
 -1      1343 9.04419E-05-2.71215E-05-2.71282E-05 3.88568E-07-3.22566E-19-2.13022E-19
 -1      1344 9.08374E-05-2.72519E-05-2.72427E-05 3.91633E-07-3.77838E-19-7.61668E-19
 -1      1345 9.14246E-05-2.74096E-05-2.74401E-05 6.54851E-07-5.58890E-19-3.75409E-19
 -1      1346 9.10581E-05-2.73157E-05-2.73130E-05 4.09872E-07-2.12240E-19-8.44118E-19
 -1      1347 9.14614E-05-2.74449E-05-2.74301E-05 4.07413E-07-1.45746E-19-1.17715E-18
 -1      1348 9.17739E-05-2.75331E-05-2.75344E-05 7.54885E-07-5.40668E-19-5.49997E-19
 -1      1349 9.17150E-05-2.75178E-05-2.75100E-05 4.02690E-07-1.40156E-19-1.19546E-18
 -1      1350 9.21034E-05-2.76397E-05-2.76233E-05 3.97663E-07-1.02065E-19-1.45931E-18
 -1      1351 9.22299E-05-2.76793E-05-2.76654E-05 7.74448E-07-3.06009E-19-9.46411E-19
 -1      1352 9.23675E-05-2.77154E-05-2.77061E-05 3.83131E-07-1.78303E-19-1.67865E-18
 -1      1353 9.27320E-05-2.78280E-05-2.78129E-05 3.77641E-07-1.13594E-19-1.71648E-18
 -1      1354 9.27302E-05-2.78326E-05-2.78131E-05 7.53773E-07-3.89435E-19-9.90616E-19
 -1      1355 9.29969E-05-2.79036E-05-2.78957E-05 3.62661E-07-4.06078E-21-1.79776E-18
 -1      1356 9.33389E-05-2.80077E-05-2.79964E-05 3.58324E-07-1.96321E-21-1.98937E-18
 -1      1357 9.32431E-05-2.79853E-05-2.79671E-05 7.20096E-07-1.49140E-19-1.33284E-18
 -1      1358 9.36040E-05-2.80831E-05-2.80793E-05 3.50322E-07 4.33311E-21-2.00747E-18
 -1      1359 9.39328E-05-2.81818E-05-2.81765E-05 3.48541E-07-1.31921E-19-2.02086E-18
 -1      1360 9.37580E-05-2.81351E-05-2.81239E-05 6.93726E-07-1.40644E-19-1.66588E-18
 -1      1361 9.42054E-05-2.82589E-05-2.82617E-05 3.54352E-07-2.76521E-19-1.98863E-18
 -1      1362 9.45379E-05-2.83573E-05-2.83605E-05 3.56564E-07-2.62354E-20-2.09639E-18
 -1      1363 9.42809E-05-2.82838E-05-2.82851E-05 6.91866E-07-1.00821E-19-1.64069E-18
 -1      1364 9.48324E-05-2.84399E-05-2.84527E-05 3.83670E-07-3.06919E-19-2.14622E-18
 -1      1365 9.51941E-05-2.85457E-05-2.85605E-05 3.91618E-07-5.45626E-19-2.63886E-18
 -1      1366 9.48323E-05-2.84371E-05-2.84570E-05 7.31687E-07-4.30867E-19-2.21564E-18
 -1      1367 9.55327E-05-2.86398E-05-2.86670E-05 4.49534E-07-3.03278E-19-2.64164E-18
 -1      1368 9.59603E-05-2.87636E-05-2.87947E-05 4.65622E-07-1.86653E-19-3.02967E-18
 -1      1369 9.54468E-05-2.86042E-05-2.86507E-05 8.33434E-07-5.03244E-19-1.83645E-18
 -1      1370 9.63753E-05-2.88777E-05-2.89259E-05 5.67651E-07 1.01211E-19-2.93415E-18
 -1      1371 9.69215E-05-2.90350E-05-2.90892E-05 5.95423E-07 2.95914E-19-2.81567E-18
 -1      1372 9.61760E-05-2.87981E-05-2.88828E-05 1.02414E-06-6.89356E-20-1.48372E-18
 -1      1373 9.74580E-05-2.91806E-05-2.92601E-05 7.60982E-07 3.00831E-19-2.77613E-18
 -1      1374 9.81995E-05-2.93937E-05-2.94820E-05 8.05810E-07 8.15567E-20-2.55982E-18
 -1      1375 9.70931E-05-2.90370E-05-2.91772E-05 1.34238E-06 2.84451E-19-1.47745E-18
 -1      1376 9.89210E-05-2.95870E-05-2.97138E-05 1.06339E-06 1.38311E-19-2.13776E-18
 -1      1377 9.99699E-05-2.98887E-05-3.00279E-05 1.13341E-06 2.39700E-19-2.01914E-18
 -1      1378 9.82999E-05-2.93456E-05-2.95675E-05 1.84448E-06 4.57150E-19-1.05094E-18
 -1      1379 1.00964E-04-3.01516E-05-3.03501E-05 1.52379E-06-2.38049E-19-1.61819E-18
 -1      1380 1.02484E-04-3.05903E-05-3.08058E-05 1.63104E-06-2.33090E-19-1.95610E-18
 -1      1381 9.99376E-05-2.97579E-05-3.01003E-05 2.61169E-06 1.30417E-19-2.29842E-19
 -1      1382 1.03868E-04-3.09523E-05-3.12587E-05 2.20891E-06-4.37248E-19-2.07082E-18
 -1      1383 1.06095E-04-3.15995E-05-3.19261E-05 2.37020E-06-3.99624E-19-2.61683E-18
 -1      1384 1.02197E-04-3.03212E-05-3.08386E-05 3.75602E-06-4.43647E-19-4.86774E-19
 -1      1385 1.08019E-04-3.20992E-05-3.25609E-05 3.19857E-06-1.48059E-19-2.84120E-18
 -1      1386 1.11267E-04-3.30560E-05-3.35324E-05 3.43433E-06 1.55788E-19-2.79738E-18
 -1      1387 1.05330E-04-3.11025E-05-3.18625E-05 5.41614E-06-5.40983E-19-1.14575E-18
 -1      1388 1.13903E-04-3.37435E-05-3.44046E-05 4.55641E-06 5.27582E-19-2.76006E-18
 -1      1389 1.18543E-04-3.51435E-05-3.57787E-05 4.88201E-06 4.13974E-19-2.10954E-18
 -1      1390 1.09644E-04-3.22029E-05-3.32610E-05 7.72039E-06 4.52997E-19-1.36339E-18
 -1      1391 1.22042E-04-3.60853E-05-3.69227E-05 6.23537E-06 1.41587E-19-2.20806E-18
 -1      1392 1.28347E-04-3.80706E-05-3.87432E-05 6.62991E-06-2.37977E-19-2.49123E-18
 -1      1393 1.15468E-04-3.37886E-05-3.50998E-05 1.06611E-05 3.67685E-19-1.69170E-18
 -1      1394 1.32750E-04-3.93618E-05-4.01133E-05 7.84105E-06 7.44066E-20-2.06507E-18
 -1      1395 1.40461E-04-4.19770E-05-4.22205E-05 8.16267E-06 3.54804E-19-1.60248E-18
 -1      1396 1.23067E-04-3.61558E-05-3.73436E-05 1.37719E-05 3.11946E-20-1.42954E-18
 -1      1397 1.45533E-04-4.37477E-05-4.36012E-05 8.18953E-06 7.92492E-19-1.50306E-18
 -1      1398 1.52959E-04-4.66222E-05-4.54059E-05 8.01442E-06 3.08267E-19-6.87844E-19
 -1      1399 1.32446E-04-3.97961E-05-3.97373E-05 1.54924E-05 1.06480E-18-1.09783E-18
 -1      1400 1.57959E-04-4.89044E-05-4.63943E-05 4.94804E-06 3.37649E-19 5.81647E-19
 -1      1401 1.60953E-04-5.06727E-05-4.68312E-05 3.47210E-06 6.53751E-19 1.23709E-18
 -1      1402 1.42980E-04-4.51747E-05-4.17713E-05 1.24377E-05 1.02335E-18-5.26272E-19
 -1      1403 1.64133E-04-5.25653E-05-4.71271E-05-3.89033E-06 5.85406E-19 1.16065E-18
 -1      1404 1.57621E-04-5.07144E-05-4.54642E-05-6.63629E-06 5.36013E-20 2.16269E-18
 -1      1405 1.52467E-04-5.12903E-05-4.30545E-05 7.18314E-07 9.05531E-19 1.33876E-18
 -1      1406 1.57180E-04-5.02785E-05-4.54654E-05-1.54036E-05-6.71221E-19 2.22346E-18
 -1      1407 1.40949E-04-4.34546E-05-4.24277E-05-1.73172E-05-1.04529E-18 8.52962E-19
 -1      1408 1.56616E-04-5.35605E-05-4.42384E-05-1.89544E-05-6.45810E-19 1.44021E-18
 -1      1409 1.37227E-04-4.00014E-05-4.27462E-05-1.91952E-05-1.50253E-18 4.46810E-19
 -1      1410 1.22598E-04-3.29641E-05-4.04714E-05-1.73328E-05-2.00450E-18-1.93420E-18
 -1      1411 1.54156E-04-4.75576E-05-4.62147E-05-3.18422E-05-1.95686E-18 1.42566E-18
 -1      1412 1.18888E-04-2.92103E-05-4.08621E-05-8.26414E-06-2.06125E-18-2.20779E-18
 -1      1413 1.14628E-04-2.71894E-05-4.02965E-05-3.46732E-06-1.51449E-18-4.28667E-18
 -1      1414 1.46407E-04-3.55677E-05-4.86777E-05-2.29802E-05-3.43895E-18 2.82856E-19
 -1      1415 1.26571E-04-3.61963E-05-4.04259E-05 1.74684E-05 8.02246E-19-6.97023E-18
 -1      1416 1.44209E-04-4.40894E-05-4.33530E-05 1.74171E-05 8.04999E-19-5.86062E-18
 -1      1417 1.49175E-04-4.67439E-05-4.38926E-05 1.23308E-05 2.58491E-19-5.62049E-18
 -1      1418 1.62761E-04-5.19623E-05-4.66904E-05 9.70526E-06-1.74158E-19-5.16627E-18
 -1      1419 1.53233E-04-4.87950E-05-4.49355E-05 2.65570E-05 7.51424E-19-3.62445E-18
 -1      1420 1.62415E-04-5.12505E-05-4.69667E-05 1.28023E-06 9.17443E-20-4.72729E-18
 -1      1421 1.64302E-04-5.12720E-05-4.77179E-05-9.13217E-07 1.02017E-18-3.61138E-18
 -1      1422 1.56763E-04-5.21000E-05-4.44598E-05 9.17202E-06 7.53118E-19-3.31275E-18
 -1      1423 1.60081E-04-4.93227E-05-4.70626E-05-5.60745E-06 8.05767E-19-4.14039E-18
 -1      1424 1.54146E-04-4.67013E-05-4.58147E-05-6.36407E-06 3.48872E-19-3.13677E-18
 -1      1425 1.50960E-04-4.82354E-05-4.36975E-05-6.63384E-06 8.49468E-19-3.94281E-18
 -1      1426 1.48696E-04-4.48422E-05-4.44474E-05-7.35885E-06-6.26727E-19-3.02793E-18
 -1      1427 1.40612E-04-4.19018E-05-4.23599E-05-7.30230E-06-4.30538E-19-3.66109E-18
 -1      1428 1.40709E-04-4.29202E-05-4.18356E-05-1.31673E-05 7.01582E-20-3.32466E-18
 -1      1429 1.35437E-04-4.03918E-05-4.08139E-05-6.52764E-06 5.68975E-19-3.30449E-18
 -1      1430 1.28184E-04-3.80029E-05-3.87738E-05-6.21225E-06 8.93835E-19-1.96438E-18
 -1      1431 1.30000E-04-3.86208E-05-3.92303E-05-1.32508E-05 3.14193E-19-1.19410E-18
 -1      1432 1.23913E-04-3.68349E-05-3.74075E-05-4.99311E-06 1.04946E-18-1.93663E-18
 -1      1433 1.18353E-04-3.51112E-05-3.57770E-05-4.67009E-06 4.68952E-19-3.79259E-19
 -1      1434 1.20724E-04-3.55675E-05-3.65942E-05-1.07928E-05 1.36845E-18-9.57968E-19
 -1      1435 1.15092E-04-3.42343E-05-3.47112E-05-3.56583E-06-7.65916E-19-3.46701E-19
 -1      1436 1.11135E-04-3.30514E-05-3.35285E-05-3.31015E-06-7.56023E-19-1.27786E-18
 -1      1437 1.13424E-04-3.34447E-05-3.43598E-05-7.98071E-06-4.03399E-20-1.34083E-18
 -1      1438 1.08753E-04-3.24082E-05-3.27492E-05-2.46521E-06 5.47395E-20-1.29227E-18
 -1      1439 1.06033E-04-3.16130E-05-3.19306E-05-2.28156E-06-5.10351E-19-1.98766E-18
 -1      1440 1.07985E-04-3.19602E-05-3.26414E-05-5.62725E-06-4.15595E-19-4.46982E-19
 -1      1441 1.04336E-04-3.11494E-05-3.13790E-05-1.68077E-06 1.73447E-19-3.33738E-18
 -1      1442 1.02496E-04-3.06184E-05-3.08239E-05-1.55444E-06-1.96029E-19-3.05657E-18
 -1      1443 1.04060E-04-3.09165E-05-3.13873E-05-3.87893E-06-5.69497E-19-1.91997E-18
 -1      1444 1.01302E-04-3.02880E-05-3.04393E-05-1.14173E-06-6.13993E-19-2.66080E-18
 -1      1445 1.00061E-04-2.99330E-05-3.00650E-05-1.05642E-06-1.75200E-19-3.17416E-18
 -1      1446 1.01276E-04-3.01809E-05-3.04962E-05-2.64990E-06-6.35109E-20-2.96559E-18
 -1      1447 9.92261E-05-2.96988E-05-2.97981E-05-7.77020E-07 8.77869E-19-1.15492E-18
 -1      1448 9.83879E-05-2.94603E-05-2.95455E-05-7.19707E-07 9.64210E-19 6.93630E-19
 -1      1449 9.93185E-05-2.96619E-05-2.98708E-05-1.80797E-06 1.41114E-18-3.94887E-19
 -1      1450 9.78040E-05-2.92947E-05-2.93604E-05-5.30906E-07-3.74670E-19-2.32639E-19
 -1      1451 9.72354E-05-2.91334E-05-2.91891E-05-4.92203E-07-4.65653E-19-4.85932E-19
 -1      1452 9.79456E-05-2.92953E-05-2.94338E-05-1.23664E-06-9.63268E-20 1.06402E-18
 -1      1453 9.68275E-05-2.90164E-05-2.90608E-05-3.63263E-07-2.08585E-19-1.94870E-18
 -1      1454 9.64413E-05-2.89069E-05-2.89446E-05-3.36626E-07-4.82949E-19-2.94428E-18
 -1      1455 9.69837E-05-2.90359E-05-2.91290E-05-8.47769E-07-1.31126E-18-2.94907E-18
 -1      1456 9.61582E-05-2.88247E-05-2.88563E-05-2.45930E-07-7.03668E-19-2.95795E-18
 -1      1457 9.58994E-05-2.87513E-05-2.87787E-05-2.26745E-07-2.30186E-19-2.61070E-18
 -1      1458 9.63116E-05-2.88523E-05-2.89173E-05-5.78331E-07-7.72963E-19-4.36170E-18
 -1      1459 9.57072E-05-2.86943E-05-2.87195E-05-1.58941E-07-2.87719E-19-3.05645E-18
 -1      1460 9.55431E-05-2.86480E-05-2.86706E-05-1.43745E-07-6.29673E-19-3.80230E-18
 -1      1461 9.58479E-05-2.87234E-05-2.87724E-05-3.83648E-07-2.54540E-19-2.97371E-18
 -1      1462 9.54202E-05-2.86100E-05-2.86335E-05-8.81564E-08-8.87949E-19-4.29440E-18
 -1      1463 9.53342E-05-2.85873E-05-2.86071E-05-7.42992E-08-6.37092E-19-4.94322E-18
 -1      1464 9.55390E-05-2.86354E-05-2.86771E-05-2.31984E-07-1.78556E-18-4.14595E-18
 -1      1465 9.52662E-05-2.85662E-05-2.85864E-05-2.70759E-08 1.94084E-19-5.44370E-18
 -1      1466 9.52466E-05-2.85641E-05-2.85757E-05-1.44475E-08 7.29655E-19-4.49728E-18
 -1      1467 9.53507E-05-2.85817E-05-2.86186E-05-1.04498E-07-9.79275E-19-3.44814E-18
 -1      1468 9.52267E-05-2.85614E-05-2.85684E-05 9.78306E-09 1.18835E-18-3.64884E-18
 -1      1469 9.52374E-05-2.85742E-05-2.85592E-05 5.86469E-09 1.39213E-18-1.90714E-18
 -1      1470 9.52475E-05-2.85848E-05-2.85685E-05 9.57464E-09 3.96869E-18-5.13417E-19
 -1      1471 9.52688E-05-2.85616E-05-2.85891E-05-2.02360E-08 2.10134E-18-3.91765E-18
 -1      1472 9.65342E-05-2.83499E-05-2.97586E-05 2.99429E-06 8.48912E-19 8.06817E-18
 -1      1473 1.02496E-04-2.93869E-05-3.21433E-05 4.46432E-06 7.09761E-19 9.33653E-18
 -1      1474 1.02291E-04-2.67064E-05-3.26949E-05 1.27840E-05 1.39776E-18 6.38070E-18
 -1      1475 9.19784E-05-2.74069E-05-2.77470E-05 1.14764E-06 5.92711E-19 6.52337E-18
 -1      1476 9.39377E-05-2.75717E-05-2.86618E-05 1.48006E-06 5.66096E-19 7.40215E-18
 -1      1477 9.64549E-05-2.80262E-05-2.95229E-05 4.87984E-06 1.21097E-18 5.20675E-18
 -1      1478 9.01537E-05-2.69851E-05-2.70508E-05 3.25344E-07 4.03115E-19 5.48059E-18
 -1      1479 9.07784E-05-2.70139E-05-2.73217E-05 4.95091E-07 3.60843E-19 6.09308E-18
 -1      1480 9.30039E-05-2.75830E-05-2.80918E-05 1.84046E-06 8.64900E-19 4.34515E-18
 -1      1481 8.96433E-05-2.68690E-05-2.68779E-05-5.69286E-08 2.01812E-19 4.90501E-18
 -1      1482 8.96910E-05-2.68185E-05-2.69046E-05 3.62744E-08 2.26561E-19 5.20136E-18
 -1      1483 9.14648E-05-2.73347E-05-2.75089E-05 4.71896E-07 5.09590E-19 3.60143E-18
 -1      1484 8.97866E-05-2.69280E-05-2.69224E-05-2.47240E-07 1.73000E-19 4.45841E-18
 -1      1485 8.95591E-05-2.68246E-05-2.68560E-05-1.95718E-07 1.61964E-19 4.69804E-18
 -1      1486 9.09349E-05-2.72408E-05-2.73142E-05-1.79044E-07 3.47783E-19 3.18449E-18
 -1      1487 9.02564E-05-2.70772E-05-2.70653E-05-3.34108E-07 5.52697E-20 4.17912E-18
 -1      1488 8.99027E-05-2.69489E-05-2.69614E-05-3.06077E-07 8.15753E-20 4.19544E-18
 -1      1489 9.09669E-05-2.72788E-05-2.73065E-05-4.93660E-07 2.71702E-19 2.87879E-18
 -1      1490 9.08771E-05-2.72680E-05-2.72525E-05-3.64220E-07 2.91036E-19 3.55154E-18
 -1      1491 9.04756E-05-2.71327E-05-2.71349E-05-3.50302E-07 2.12056E-19 3.91738E-18
 -1      1492 9.12925E-05-2.73906E-05-2.73942E-05-6.35097E-07 3.82961E-19 2.28899E-18
 -1      1493 9.15505E-05-2.74722E-05-2.74554E-05-3.62982E-07 2.81237E-19 2.80567E-18
 -1      1494 9.11434E-05-2.73402E-05-2.73361E-05-3.57475E-07 2.38760E-19 3.27882E-18
 -1      1495 9.17650E-05-2.75396E-05-2.75299E-05-6.80856E-07 4.32082E-19 2.06892E-18
 -1      1496 9.22229E-05-2.76745E-05-2.76582E-05-3.45918E-07 3.49774E-19 2.03230E-18
 -1      1497 9.18321E-05-2.75507E-05-2.75434E-05-3.45100E-07 2.68101E-19 2.59955E-18
 -1      1498 9.22993E-05-2.77028E-05-2.76870E-05-6.74577E-07 5.47349E-19 1.71590E-18
 -1      1499 9.28681E-05-2.78675E-05-2.78531E-05-3.22946E-07 2.20305E-19 1.84433E-18
 -1      1500 9.25026E-05-2.77535E-05-2.77455E-05-3.24298E-07 2.62832E-19 2.13243E-18
 -1      1501 9.28478E-05-2.78675E-05-2.78502E-05-6.43074E-07 4.16254E-19 1.49513E-18
 -1      1502 9.34770E-05-2.80490E-05-2.80373E-05-3.00343E-07-6.51321E-20 1.60186E-18
 -1      1503 9.31382E-05-2.79443E-05-2.79373E-05-3.02172E-07 5.32944E-20 1.42445E-18
 -1      1504 9.33861E-05-2.80275E-05-2.80117E-05-6.03351E-07 2.66220E-19 1.20987E-18
 -1      1505 9.40513E-05-2.82199E-05-2.82111E-05-2.81700E-07 2.86772E-19 1.42544E-18
 -1      1506 9.37358E-05-2.81228E-05-2.81178E-05-2.82943E-07 6.61310E-20 1.41543E-18
 -1      1507 9.39048E-05-2.81806E-05-2.81681E-05-5.65833E-07 9.29253E-20 6.26038E-19
 -1      1508 9.45980E-05-2.83826E-05-2.83765E-05-2.68303E-07 1.02563E-19 1.20305E-18
 -1      1509 9.43000E-05-2.82909E-05-2.82882E-05-2.68461E-07 1.90873E-19 1.36209E-18
 -1      1510 9.44031E-05-2.83275E-05-2.83188E-05-5.35854E-07 2.17952E-19 5.01139E-19
 -1      1511 9.51246E-05-2.85397E-05-2.85355E-05-2.59151E-07 3.08736E-20 6.72107E-19
 -1      1512 9.48388E-05-2.84516E-05-2.84508E-05-2.58314E-07 8.96212E-20 1.13059E-18
 -1      1513 9.48843E-05-2.84698E-05-2.84641E-05-5.14170E-07 2.31599E-19 3.87402E-19
 -1      1514 9.56340E-05-2.86927E-05-2.86886E-05-2.50690E-07 3.93694E-20 7.35977E-19
 -1      1515 9.53580E-05-2.86074E-05-2.86070E-05-2.49642E-07 2.28146E-19 1.01994E-18
 -1      1516 9.53507E-05-2.86091E-05-2.86044E-05-4.96802E-07 1.87519E-19 8.87816E-19
 -1      1517 9.61190E-05-2.88399E-05-2.88334E-05-2.36389E-07-1.37120E-19 6.06846E-19
 -1      1518 9.58567E-05-2.87587E-05-2.87562E-05-2.36770E-07-1.98926E-19 4.88013E-19
 -1      1519 9.57996E-05-2.87457E-05-2.87380E-05-4.74456E-07 5.36385E-21 6.37467E-19
 -1      1520 9.65562E-05-2.89750E-05-2.89624E-05-2.06330E-07 2.70044E-19-1.13688E-19
 -1      1521 9.63211E-05-2.89025E-05-2.88938E-05-2.10819E-07 3.03189E-19 4.92477E-19
 -1      1522 9.62177E-05-2.88767E-05-2.88601E-05-4.31785E-07 4.44227E-19 2.27144E-19
 -1      1523 9.68993E-05-2.90847E-05-2.90613E-05-1.47181E-07-8.72663E-20-5.59139E-19
 -1      1524 9.67183E-05-2.90300E-05-2.90095E-05-1.59599E-07 1.56767E-19-1.76739E-19
 -1      1525 9.65759E-05-2.89947E-05-2.89614E-05-3.47020E-07 2.92341E-19 4.40118E-20
 -1      1526 9.70738E-05-2.91467E-05-2.91076E-05-4.30895E-08-2.29020E-19 1.77726E-19
 -1      1527 9.69902E-05-2.91245E-05-2.90854E-05-6.82671E-08-4.20845E-19-2.87328E-19
 -1      1528 9.68246E-05-2.90856E-05-2.90261E-05-1.92781E-07-4.65718E-19 1.77271E-19
 -1      1529 9.69752E-05-2.91294E-05-2.90699E-05 1.21715E-07 6.28161E-21 1.09845E-18
 -1      1530 9.70498E-05-2.91600E-05-2.90953E-05 7.85502E-08-3.21997E-19 6.54701E-19
 -1      1531 9.68903E-05-2.91274E-05-2.90320E-05 6.06787E-08-7.02420E-19 4.36452E-19
 -1      1532 9.64752E-05-2.89925E-05-2.89110E-05 3.57819E-07-2.09842E-19 1.25069E-18
 -1      1533 9.67822E-05-2.91008E-05-2.90052E-05 2.92426E-07 1.69948E-19 1.43563E-18
 -1      1534 9.66773E-05-2.90893E-05-2.89515E-05 4.38387E-07-6.51388E-20 4.84961E-19
 -1      1535 9.54405E-05-2.86926E-05-2.85931E-05 6.62742E-07 8.56744E-20 1.35013E-18
 -1      1536 9.60563E-05-2.89038E-05-2.87777E-05 5.74191E-07-9.09253E-20 1.46453E-18
 -1      1537 9.60770E-05-2.89336E-05-2.87547E-05 9.48680E-07 5.90805E-20 9.52561E-19
 -1      1538 9.37680E-05-2.81935E-05-2.80890E-05 1.01141E-06 5.19120E-19 7.77073E-19
 -1      1539 9.47499E-05-2.85260E-05-2.83791E-05 9.05126E-07 3.78683E-19 1.24679E-18
 -1      1540 9.49888E-05-2.86218E-05-2.84164E-05 1.56707E-06 5.32380E-19 1.13346E-18
 -1      1541 9.14357E-05-2.74826E-05-2.73967E-05 1.34875E-06-5.85958E-20 6.22543E-19
 -1      1542 9.27921E-05-2.79377E-05-2.77926E-05 1.23923E-06-1.02951E-19 2.50920E-19
 -1      1543 9.33549E-05-2.81255E-05-2.79262E-05 2.22025E-06 3.21343E-20 3.53812E-19
 -1      1544 8.85583E-05-2.65898E-05-2.65538E-05 1.59095E-06 1.91628E-19 8.12000E-19
 -1      1545 9.02169E-05-2.71408E-05-2.70326E-05 1.50206E-06 6.77486E-20 7.20799E-19
 -1      1546 9.12037E-05-2.74429E-05-2.72995E-05 2.77958E-06-1.53128E-19 2.57144E-19
 -1      1547 8.54236E-05-2.56024E-05-2.56464E-05 1.64225E-06 3.89956E-19-1.75971E-19
 -1      1548 8.72123E-05-2.61886E-05-2.61573E-05 1.60290E-06 3.28821E-19 1.44896E-19
 -1      1549 8.86909E-05-2.66173E-05-2.65864E-05 3.07646E-06 6.39464E-19-3.54364E-19
 -1      1550 8.24794E-05-2.46639E-05-2.48024E-05 1.42893E-06-3.74018E-20 3.74547E-20
 -1      1551 8.41373E-05-2.51948E-05-2.52711E-05 1.46310E-06-9.59745E-20-3.85612E-19
 -1      1552 8.61145E-05-2.57471E-05-2.58721E-05 2.94827E-06 3.44163E-19-4.63803E-19
 -1      1553 8.02491E-05-2.39475E-05-2.41668E-05 9.39457E-07-1.68947E-19-3.51479E-19
 -1      1554 8.14779E-05-2.43226E-05-2.45106E-05 1.05389E-06-1.04787E-19 5.36278E-20
 -1      1555 8.38806E-05-2.49772E-05-2.52649E-05 2.30764E-06-1.21738E-19 1.16662E-19
 -1      1556 7.91863E-05-2.36065E-05-2.38630E-05 2.48127E-07 2.00740E-20-4.02796E-19
 -1      1557 7.97350E-05-2.37450E-05-2.40137E-05 4.24798E-07 3.47552E-19-2.12744E-19
 -1      1558 8.24097E-05-2.44650E-05-2.48718E-05 1.20494E-06 2.61250E-19 6.02073E-19
 -1      1559 7.95232E-05-2.37198E-05-2.39536E-05-4.98687E-07-4.10487E-19-4.62824E-20
 -1      1560 7.92718E-05-2.35896E-05-2.38796E-05-2.99037E-07-1.65244E-19-3.59835E-19
 -1      1561 8.20097E-05-2.43280E-05-2.47682E-05-1.58015E-07-1.26605E-19 2.45317E-19
 -1      1562 8.11851E-05-2.42611E-05-2.44193E-05-1.13364E-06-1.43238E-19 5.59240E-19
 -1      1563 8.01887E-05-2.38912E-05-2.41365E-05-9.56992E-07-3.78200E-19-1.83297E-19
 -1      1564 8.27679E-05-2.45994E-05-2.49747E-05-1.48542E-06-3.97470E-19 1.79945E-19
 -1      1565 8.38180E-05-2.51089E-05-2.51655E-05-1.53142E-06 2.01548E-19 4.61606E-19
 -1      1566 8.22869E-05-2.45786E-05-2.47318E-05-1.41264E-06-6.55425E-20 1.06422E-19
 -1      1567 8.45190E-05-2.52139E-05-2.54501E-05-2.49468E-06-1.39777E-19-2.58755E-19
 -1      1568 8.69144E-05-2.60926E-05-2.60541E-05-1.64854E-06 2.52485E-19 5.89747E-20
 -1      1569 8.51402E-05-2.55035E-05-2.55497E-05-1.60060E-06 3.10352E-19 2.88256E-20
 -1      1570 8.69057E-05-2.60346E-05-2.61050E-05-3.01685E-06 4.72414E-19 4.22855E-21
 -1      1571 8.99717E-05-2.70483E-05-2.69441E-05-1.52231E-06-4.15957E-19-8.11828E-19
 -1      1572 8.82383E-05-2.64926E-05-2.64482E-05-1.53685E-06 1.50179E-19-4.41079E-19
 -1      1573 8.94997E-05-2.69033E-05-2.68290E-05-3.03733E-06 4.62516E-19-9.63275E-19
 -1      1574 9.26135E-05-2.78586E-05-2.77255E-05-1.23854E-06 6.19492E-19-1.79957E-18
 -1      1575 9.11298E-05-2.73991E-05-2.72975E-05-1.29460E-06 3.69235E-19-9.81976E-19
 -1      1576 9.19231E-05-2.76884E-05-2.75201E-05-2.66735E-06 4.89539E-19-1.28957E-18
 -1      1577 9.46386E-05-2.84661E-05-2.83352E-05-8.91801E-07-4.79103E-20-3.05293E-18
 -1      1578 9.35125E-05-2.81303E-05-2.80072E-05-9.66117E-07 4.66530E-21-2.69844E-18
 -1      1579 9.39232E-05-2.83107E-05-2.81048E-05-2.07646E-06 8.60834E-19-1.09834E-18
 -1      1580 9.60066E-05-2.88652E-05-2.87557E-05-5.57066E-07-3.86012E-19-3.65962E-18
 -1      1581 9.52550E-05-2.86516E-05-2.85343E-05-6.31163E-07 3.02033E-19-3.17123E-18
 -1      1582 9.53894E-05-2.87446E-05-2.85460E-05-1.42725E-06-2.73102E-20-2.54121E-18
 -1      1583 9.67879E-05-2.90836E-05-2.90031E-05-2.78906E-07 4.92411E-19-3.18992E-18
 -1      1584 9.63663E-05-2.89728E-05-2.88769E-05-3.41668E-07-3.71335E-19-3.44389E-18
 -1      1585 9.63275E-05-2.90034E-05-2.88389E-05-8.36544E-07-6.09470E-19-3.75482E-18
 -1      1586 9.71088E-05-2.91638E-05-2.91117E-05-7.40413E-08 6.43307E-19-3.54220E-18
 -1      1587 9.69429E-05-2.91295E-05-2.90603E-05-1.21034E-07 6.73555E-19-2.77135E-18
 -1      1588 9.68157E-05-2.91212E-05-2.90008E-05-3.66118E-07 7.45432E-19-2.71207E-18
 -1      1589 9.71075E-05-2.91500E-05-2.91212E-05 5.99551E-08-6.59508E-19-3.43382E-18
 -1      1590 9.71179E-05-2.91661E-05-2.91219E-05 2.85885E-08-2.05242E-19-3.69982E-18
 -1      1591 9.69635E-05-2.91383E-05-2.90601E-05-3.24403E-08 1.48661E-19-1.13908E-18
 -1      1592 9.69072E-05-2.90800E-05-2.90681E-05 1.35435E-07-6.80447E-19-1.95478E-18
 -1      1593 9.70243E-05-2.91249E-05-2.91008E-05 1.17154E-07-1.16875E-18-3.06342E-18
 -1      1594 9.68811E-05-2.90914E-05-2.90479E-05 1.76698E-07-1.70062E-18-1.58129E-18
 -1      1595 9.66051E-05-2.89827E-05-2.89819E-05 1.67686E-07-2.86688E-19-1.17571E-18
 -1      1596 9.67749E-05-2.90403E-05-2.90307E-05 1.59193E-07-1.54038E-20-1.03415E-18
 -1      1597 9.66632E-05-2.90099E-05-2.89918E-05 2.86728E-07-8.70618E-19-2.02741E-18
 -1      1598 9.62702E-05-2.88782E-05-2.88839E-05 1.70717E-07 1.36565E-18-2.04241E-18
 -1      1599 9.64551E-05-2.89376E-05-2.89376E-05 1.68951E-07 5.64562E-19-1.13347E-18
 -1      1600 9.63821E-05-2.89149E-05-2.89137E-05 3.25398E-07 8.46281E-19-1.98822E-18
 -1      1601 9.59486E-05-2.87793E-05-2.87888E-05 1.55263E-07 4.69778E-19-3.83972E-18
 -1      1602 9.61238E-05-2.88339E-05-2.88399E-05 1.57895E-07 5.51104E-19-2.96219E-18
 -1      1603 9.60889E-05-2.88203E-05-2.88297E-05 3.16596E-07 1.40591E-18-3.00712E-18
 -1      1604 9.56694E-05-2.86941E-05-2.87059E-05 1.28210E-07-7.05395E-19-3.37999E-18
 -1      1605 9.58192E-05-2.87396E-05-2.87496E-05 1.33836E-07 8.09518E-20-2.55583E-18
 -1      1606 9.58170E-05-2.87346E-05-2.87507E-05 2.77719E-07-3.39428E-19-2.87269E-18
 -1      1607 9.54514E-05-2.86275E-05-2.86413E-05 9.30864E-08-6.61754E-19-2.10483E-18
 -1      1608 9.55655E-05-2.86610E-05-2.86744E-05 1.01134E-07-8.88400E-19-3.00370E-18
 -1      1609 9.55873E-05-2.86627E-05-2.86838E-05 2.19366E-07-8.55522E-19-7.76459E-19
 -1      1610 9.53080E-05-2.85838E-05-2.85985E-05 5.10183E-08 8.78077E-19-2.94167E-18
 -1      1611 9.53779E-05-2.86023E-05-2.86192E-05 6.18054E-08 4.83856E-19-2.30624E-18
 -1      1612 9.54124E-05-2.86074E-05-2.86330E-05 1.47050E-07 2.45309E-20-1.69786E-18
 -1      1613 9.52446E-05-2.85669E-05-2.85752E-05 8.42809E-09 4.80960E-19-4.37950E-18
 -1      1614 9.52660E-05-2.85687E-05-2.85850E-05 1.98303E-08 4.79426E-19-3.16208E-18
 -1      1615 9.52978E-05-2.85719E-05-2.85987E-05 6.64016E-08 1.29431E-18-1.96990E-18
 -1      1616 9.52332E-05-2.85711E-05-2.85668E-05-5.78172E-09-2.40287E-18-2.68053E-18
 -1      1617 9.52343E-05-2.85211E-05-2.85926E-05 3.89437E-08-3.16559E-18 2.61991E-19
 -1      1618 9.52419E-05-2.85485E-05-2.85818E-05 2.85265E-08-3.89847E-18 3.95408E-19
 -1      1619 9.51959E-05-2.83991E-05-2.86281E-05 8.34156E-08-1.98520E-18 1.15180E-18
 -1      1620 9.52186E-05-2.84687E-05-2.86079E-05 7.41351E-08-3.04558E-18 8.01120E-19
 -1      1621 9.52285E-05-2.84650E-05-2.86148E-05 1.14548E-07-8.62619E-19 1.44851E-19
 -1      1622 9.51381E-05-2.82230E-05-2.86783E-05 1.14472E-07-3.57907E-18-8.07194E-19
 -1      1623 9.51709E-05-2.83237E-05-2.86495E-05 1.09422E-07-2.77839E-18 8.85308E-20
 -1      1624 9.51823E-05-2.83356E-05-2.86507E-05 1.89003E-07-2.19794E-18 2.25818E-19
 -1      1625 9.50714E-05-2.80168E-05-2.87378E-05 1.29078E-07-2.98301E-18-5.78448E-19
 -1      1626 9.51092E-05-2.81329E-05-2.87044E-05 1.27573E-07-2.97494E-18 7.56674E-19
 -1      1627 9.51245E-05-2.81693E-05-2.86961E-05 2.35674E-07-2.25526E-18-5.35847E-19
 -1      1628 9.50050E-05-2.78110E-05-2.87974E-05 1.25864E-07-4.13275E-18-4.39234E-19
 -1      1629 9.50418E-05-2.79240E-05-2.87649E-05 1.27824E-07-3.42150E-18-1.35844E-18
 -1      1630 9.50609E-05-2.79857E-05-2.87464E-05 2.49693E-07-3.13766E-18-1.73112E-18
 -1      1631 9.49454E-05-2.76272E-05-2.88506E-05 1.04645E-07-2.11733E-18 1.52598E-18
 -1      1632 9.49771E-05-2.77242E-05-2.88227E-05 1.10106E-07-3.97417E-18 2.74313E-19
 -1      1633 9.49985E-05-2.78054E-05-2.87958E-05 2.29312E-07-2.10632E-18 1.84238E-19
 -1      1634 9.49025E-05-2.74967E-05-2.88881E-05 6.67601E-08-3.34332E-18-1.60140E-18
 -1      1635 9.49236E-05-2.75602E-05-2.88699E-05 7.53157E-08-2.25505E-18 7.38327E-19
 -1      1636 9.49444E-05-2.76506E-05-2.88379E-05 1.74995E-07-1.84121E-18 9.56688E-19
 -1      1637 9.48840E-05-2.74426E-05-2.89033E-05 1.58372E-08-2.99342E-18-7.18746E-20
 -1      1638 9.48902E-05-2.74604E-05-2.88982E-05 2.66276E-08-3.51262E-18-6.35448E-19
 -1      1639 9.49069E-05-2.75459E-05-2.88658E-05 9.11350E-08-2.35212E-18-1.92128E-18
 -1      1640 9.48947E-05-2.74789E-05-2.88923E-05-4.16456E-08-1.55727E-18 5.76934E-20
 -1      1641 9.48838E-05-2.74445E-05-2.89022E-05-3.01013E-08-3.03550E-18 1.88122E-18
 -1      1642 9.48928E-05-2.75098E-05-2.88747E-05-1.30698E-08-1.66260E-18 4.02566E-19
 -1      1643 9.49354E-05-2.76059E-05-2.88554E-05-9.63936E-08-6.77985E-19-4.29016E-19
 -1      1644 9.49079E-05-2.75214E-05-2.88795E-05-8.61478E-08-7.81019E-19-2.95435E-19
 -1      1645 9.49066E-05-2.75527E-05-2.88622E-05-1.22922E-07-9.06293E-19 7.99493E-19
 -1      1646 9.50002E-05-2.78032E-05-2.87988E-05-1.36852E-07 9.95264E-20 7.30364E-19
 -1      1647 9.49603E-05-2.76829E-05-2.88329E-05-1.30298E-07 6.74650E-19-1.11204E-18
 -1      1648 9.49484E-05-2.76719E-05-2.88297E-05-2.18499E-07 4.78249E-19 3.29655E-19
 -1      1649 9.50807E-05-2.80447E-05-2.87303E-05-1.53716E-07 2.03198E-18-3.06629E-20
 -1      1650 9.50341E-05-2.79060E-05-2.87694E-05-1.52647E-07 1.52122E-18 1.94422E-18
 -1      1651 9.50133E-05-2.78522E-05-2.87817E-05-2.79774E-07 2.46250E-18 1.86255E-18
 -1      1652 9.51604E-05-2.82806E-05-2.86640E-05-1.38561E-07 4.62339E-18 4.86515E-19
 -1      1653 9.51176E-05-2.81544E-05-2.86996E-05-1.44587E-07 3.08163E-18 4.21606E-19
 -1      1654 9.50927E-05-2.80671E-05-2.87257E-05-2.89313E-07 3.83712E-18 1.10967E-18
 -1      1655 9.52223E-05-2.84625E-05-2.86127E-05-9.08160E-08 4.72374E-18-4.42082E-19
 -1      1656 9.51929E-05-2.83773E-05-2.86373E-05-1.04004E-07 4.74139E-18-1.23970E-19
 -1      1657 9.51713E-05-2.82773E-05-2.86713E-05-2.37482E-07 3.28612E-18 3.34294E-19
 -1      1658 9.52456E-05-2.85532E-05-2.85816E-05-2.95499E-08 5.12100E-18 8.71574E-19
 -1      1659 9.52377E-05-2.85235E-05-2.85944E-05-4.29025E-08 4.94988E-18-3.31335E-19
 -1      1660 9.52257E-05-2.84356E-05-2.86274E-05-1.37172E-07 3.72871E-18-1.94472E-19
 -1      1661 9.52516E-05-2.85321E-05-2.85942E-05-3.99740E-08 4.00693E-18-9.74890E-19
 -1      1662 2.16016E-05-6.88290E-05 1.43538E-05-2.80517E-06 4.98225E-18 2.22505E-18
 -1      1663 2.63211E-05-8.44258E-05 1.78952E-05 5.91125E-06 3.91372E-18 5.16902E-19
 -1      1664 2.03040E-05-3.34837E-05 1.78915E-06 8.28192E-06 6.30870E-18 2.44856E-18
 -1      1665 2.51014E-05-6.08384E-05 9.13594E-06 1.67240E-06 5.67258E-18 1.92366E-18
 -1      1666 4.66935E-05-9.28690E-06-1.69306E-05 4.14104E-05 4.24279E-18 1.53482E-18
 -1      1667 3.68286E-05-2.88061E-05-7.07633E-06 2.09366E-05 5.17029E-18 2.07481E-18
 -1      1668 9.08533E-05 8.18053E-07-3.73979E-05 7.22845E-05 1.99561E-18 9.41901E-19
 -1      1669 6.10602E-05-2.07740E-06-2.66737E-05 4.85283E-05 3.67782E-18 1.71439E-18
 -1      1670 1.64857E-04-1.97382E-05-5.77551E-05 8.71883E-05 1.18161E-19-2.62072E-18
 -1      1671 1.15645E-04-1.49516E-06-4.75857E-05 7.77853E-05 1.61614E-18-2.04135E-19
 -1      1672 2.31069E-04-5.00973E-05-7.19397E-05 6.42726E-05-5.63092E-19-5.58872E-18
 -1      1673 1.90363E-04-2.80395E-05-6.55805E-05 8.08752E-05 2.49451E-19-3.44658E-18
 -1      1674 2.57633E-04-6.22808E-05-7.82086E-05 9.96449E-06 3.55542E-19-7.44637E-18
 -1      1675 2.39688E-04-5.17947E-05-7.55293E-05 4.54408E-05-4.56763E-19-6.57213E-18
 -1      1676 2.46550E-04-5.56485E-05-7.65999E-05-3.98652E-05 1.93653E-18-7.98286E-18
 -1      1677 2.59906E-04-6.35744E-05-7.86021E-05-5.74075E-06 9.66465E-19-7.47422E-18
 -1      1678 1.98067E-04-3.18001E-05-6.71119E-05-7.67580E-05 4.69108E-18-8.94721E-18
 -1      1679 2.37660E-04-5.33335E-05-7.32696E-05-5.68490E-05 2.87118E-18-8.10102E-18
 -1      1680 1.30298E-04-5.76545E-06-5.14427E-05-8.10878E-05 5.63616E-18-8.73460E-18
 -1      1681 1.74906E-04-2.40652E-05-6.00851E-05-8.54511E-05 4.69849E-18-9.09375E-18
 -1      1682 7.35180E-05 1.62504E-07-3.22534E-05-5.69712E-05 6.29176E-18-6.38239E-18
 -1      1683 1.06776E-04-2.48725E-06-4.23474E-05-7.73949E-05 5.83013E-18-7.74866E-18
 -1      1684 4.22955E-05-1.87782E-05-1.30991E-05-2.85051E-05 4.44946E-18-4.56805E-18
 -1      1685 5.69151E-05-4.31502E-06-2.27973E-05-5.00283E-05 5.30751E-18-6.09694E-18
 -1      1686 2.62864E-05-4.88709E-05 4.30211E-06-5.95215E-06 3.73965E-18-2.47863E-18
 -1      1687 2.51587E-05-2.23061E-05-4.11891E-06-1.82731E-05 5.12201E-18-3.28479E-18
 -1      1688 2.60535E-05-7.79508E-05 1.55399E-05-2.60632E-06 3.05779E-19-1.55155E-18
 -1      1689 2.01351E-05-5.73148E-05 1.07535E-05 1.21640E-06 3.04508E-18-2.13008E-18
 -1      1690 2.49002E-05-8.57204E-05 1.90420E-05-1.14302E-05-4.17635E-18-1.73854E-18
 -1      1691 2.45288E-05-8.24864E-05 1.82014E-05 6.58568E-08-1.33535E-18-1.51767E-18
 -1      1692 2.01671E-05-6.77645E-05 1.39998E-05-1.40995E-05-5.58745E-18-1.92541E-18
 -1      1693 2.55474E-05-8.26538E-05 1.74262E-05-8.22697E-06-4.60532E-18-1.34191E-18
 -1      1694 2.24049E-05-3.77519E-05 1.30316E-06-7.19567E-07-6.35444E-18-3.71043E-18
 -1      1695 2.54469E-05-6.27233E-05 8.89568E-06-9.37033E-06-6.52893E-18-2.55211E-18
 -1      1696 5.07048E-05-1.43111E-05-1.84186E-05 3.24206E-05-6.97108E-18-7.81473E-18
 -1      1697 3.64080E-05-3.25315E-05-7.60384E-06 8.47795E-06-5.97412E-18-5.66496E-18
 -1      1698 1.18214E-04-1.66726E-05-4.23705E-05 6.75482E-05-6.81862E-18-9.12085E-18
 -1      1699 7.63355E-05-1.45941E-05-2.96909E-05 4.12084E-05-6.94144E-18-8.06206E-18
 -1      1700 2.07752E-04-4.35034E-05-6.44860E-05 7.58140E-05-4.61040E-18-6.92534E-18
 -1      1701 1.50854E-04-2.28860E-05-5.35408E-05 6.87896E-05-7.34632E-18-8.52454E-18
 -1      1702 2.85867E-04-7.39884E-05-8.06877E-05 4.52735E-05-2.07237E-18-3.25599E-18
 -1      1703 2.35939E-04-4.98139E-05-7.32074E-05 6.84494E-05-3.33562E-18-5.95972E-18
 -1      1704 3.03334E-04-7.93759E-05-8.52844E-05-9.83413E-06-2.35475E-18 2.49790E-18
 -1      1705 2.94016E-04-7.46082E-05-8.40057E-05 2.92898E-05-1.99519E-18-1.22396E-18
 -1      1706 2.68454E-04-6.34807E-05-7.95253E-05-5.54122E-05-1.61889E-18 4.25126E-18
 -1      1707 3.02927E-04-8.04896E-05-8.42973E-05-2.38386E-05-1.80270E-18 2.58430E-18
 -1      1708 1.88374E-04-3.51139E-05-6.24193E-05-6.74972E-05-2.65375E-18 4.44523E-18
 -1      1709 2.45763E-04-5.88453E-05-7.22938E-05-6.23094E-05-1.62715E-18 3.93701E-18
 -1      1710 1.07806E-04-1.52862E-05-4.09852E-05-5.65615E-05-3.69306E-18 5.02460E-18
 -1      1711 1.56619E-04-2.68945E-05-5.25794E-05-7.46314E-05-3.25599E-18 5.49386E-18
 -1      1712 5.24213E-05-2.11468E-05-1.80005E-05-2.43337E-05-3.75744E-18 4.04374E-18
 -1      1713 7.88603E-05-1.14926E-05-2.98626E-05-5.09801E-05-3.73965E-18 4.38424E-18
 -1      1714 3.24475E-05-4.87641E-05 1.10507E-06-8.73042E-07-2.01763E-18 1.75505E-18
 -1      1715 3.74744E-05-2.68224E-05-8.24173E-06-1.73593E-05-2.43437E-18 3.67104E-18
 -1      1716 2.52247E-05-7.54421E-05 1.44231E-05 9.75742E-06 1.39760E-18 2.25554E-18
 -1      1717 1.91352E-05-5.33929E-05 8.84964E-06 9.59407E-06-1.84060E-18 2.60230E-18
 -1      1718 2.51363E-05-8.46748E-05 1.86900E-05 3.51696E-06 3.69444E-18 3.73542E-19
 -1      1719 2.23864E-05-7.92472E-05 1.76576E-05 1.41316E-05 2.27026E-18 1.52847E-18
 -1      1720 1.21949E-04-3.28120E-05-4.03367E-05 1.29199E-05-6.61321E-19-7.20486E-18
 -1      1721 1.43406E-04-3.92158E-05-4.58505E-05 2.71504E-05 2.51145E-19-3.38901E-18
 -1      1722 1.12150E-04-2.82800E-05-3.89242E-05 1.03788E-05-1.25022E-18-5.88106E-18
 -1      1723 8.64829E-05-3.57672E-05-2.25756E-05 4.73504E-05 1.01644E-18-1.45817E-18
 -1      1724 1.24772E-05-5.65653E-05 1.39506E-05 8.30197E-06 2.19922E-18 9.53336E-19
 -1      1725 9.52470E-05-2.85689E-05-2.85761E-05 5.88154E-09-2.78396E-18-7.79676E-19
 -1      1726 9.52553E-05-2.85375E-05-2.85930E-05 4.72833E-08-5.22308E-19-6.62222E-19
 -1      1727 2.16235E-05-5.07072E-05 8.23528E-06 2.04826E-05 2.93582E-18 2.30181E-18
 -1      1728 4.85880E-05-4.05746E-05-5.36472E-06 3.83338E-05 1.91091E-18 3.81588E-19
 -1      1729 1.28249E-04-2.77498E-05-4.16026E-05 5.30557E-05 9.90605E-19-2.76980E-18
 -1      1730 1.75320E-04-2.91322E-05-5.88648E-05 4.92013E-05 6.97214E-19-4.10642E-18
 -1      1731 2.04319E-04-3.10240E-05-6.97656E-05 2.68569E-05 6.64074E-19-4.68282E-18
 -1      1732 2.11400E-04-2.96574E-05-7.33908E-05 7.22067E-07 9.21572E-19-4.91681E-18
 -1      1733 2.07303E-04-3.11278E-05-7.06885E-05-2.31905E-05 2.12415E-18-5.72086E-18
 -1      1734 1.81392E-04-3.00400E-05-6.08836E-05-4.52236E-05 3.17921E-18-5.75474E-18
 -1      1735 1.38395E-04-2.77788E-05-4.54396E-05-5.27590E-05 3.37077E-18-5.40322E-18
 -1      1736 9.75112E-05-3.29329E-05-2.77758E-05-4.89556E-05 2.65545E-18-4.99792E-18
 -1      1737 5.92005E-05-3.82320E-05-1.05753E-05-4.14683E-05 2.15993E-18-3.13190E-18
 -1      1738 2.84574E-05-4.64419E-05 4.15225E-06-2.64655E-05 1.38405E-18-3.06372E-18
 -1      1739 1.46210E-05-5.58614E-05 1.28463E-05-1.32210E-05-7.03884E-19-3.26574E-18
 -1      1740 1.30053E-05-5.68401E-05 1.37772E-05-1.31229E-06-2.12658E-18-2.41150E-18
 -1      1741 2.50921E-05-5.34722E-05 7.38370E-06 1.08468E-05-3.79090E-18-2.25798E-18
 -1      1742 5.33640E-05-4.81942E-05-6.03793E-06 2.44450E-05-3.91922E-18-4.35354E-18
 -1      1743 1.00543E-04-4.55416E-05-2.52780E-05 3.58080E-05-3.81842E-18-6.22146E-18
 -1      1744 1.60123E-04-4.77069E-05-4.66082E-05 3.70933E-05-5.26643E-18-4.71967E-18
 -1      1745 2.14950E-04-4.96375E-05-6.53826E-05 2.63011E-05-4.51479E-18-3.55584E-18
 -1      1746 2.42947E-04-4.54329E-05-7.66453E-05 1.01455E-05-3.55627E-18 8.00446E-20
 -1      1747 2.48837E-04-4.43175E-05-7.88346E-05-4.54915E-06-3.02052E-18 9.74300E-19
 -1      1748 2.28906E-04-4.79456E-05-7.09501E-05-1.44222E-05-1.44271E-18 1.43487E-18
 -1      1749 1.86885E-04-5.00830E-05-5.52994E-05-3.01508E-05-1.70571E-18 2.70542E-18
 -1      1750 1.28243E-04-4.64761E-05-3.53689E-05-3.80342E-05-1.79571E-18 2.59446E-18
 -1      1751 7.80711E-05-4.91967E-05-1.53928E-05-3.17664E-05 3.44742E-19 1.98121E-18
 -1      1752 4.00967E-05-5.09563E-05 9.59008E-07-2.15260E-05 9.13949E-19 1.47977E-18
 -1      1753 1.65644E-05-5.47484E-05 1.15333E-05-4.63643E-06 1.26504E-18 3.36526E-18
 -1      1754 1.06284E-04-2.31369E-05-3.57290E-05-1.72080E-05-1.18861E-18 4.86282E-18
 -1      1755 1.39662E-04-3.10771E-05-4.81496E-05 5.67256E-06-2.77488E-18-2.23901E-18
 -1      1756 8.91320E-05-1.05658E-05-3.37946E-05-1.33457E-05-1.45589E-18-1.69092E-18
 -1      1757 9.04534E-05-1.16288E-05-3.39323E-05-1.51238E-05-1.68204E-18-1.12227E-18
 -1      1758 9.24899E-05-1.38850E-05-3.38470E-05-1.60119E-05-1.67168E-18-3.91567E-19
 -1      1759 9.41692E-05-1.57912E-05-3.40825E-05-1.77346E-05-1.82677E-18 4.98744E-19
 -1      1760 9.34479E-05-1.63889E-05-3.30388E-05-1.37532E-05-1.71916E-18-7.06214E-19
 -1      1761 8.62272E-05-7.67493E-06-3.37368E-05-7.86388E-06-8.45518E-19-2.36555E-18
 -1      1762 8.66260E-05-7.97352E-06-3.37690E-05-9.25380E-06-1.00065E-18-2.30906E-18
 -1      1763 8.56148E-05-7.03649E-06-3.37360E-05-5.31990E-06-4.73032E-19-2.36478E-18
 -1      1764 8.58473E-05-7.21563E-06-3.37501E-05-6.62486E-06-6.29064E-19-2.36926E-18
 -1      1765 8.76107E-05-9.86757E-06-3.33514E-05-6.92727E-06-8.20030E-19-2.26800E-18
 -1      1766 8.52817E-05-6.67619E-06-3.37405E-05-2.88843E-06-5.09986E-20-2.22452E-18
 -1      1767 8.54018E-05-6.77137E-06-3.37459E-05-4.12800E-06-2.51996E-19-2.27680E-18
 -1      1768 8.69789E-05-9.15338E-06-3.33863E-05-4.53558E-06-3.97690E-19-2.18849E-18
 -1      1769 8.51512E-05-6.52696E-06-3.37445E-05-5.17985E-07 3.93581E-19-2.16277E-18
 -1      1770 8.51868E-05-6.55577E-06-3.37458E-05-1.72718E-06 1.86266E-19-2.22087E-18
 -1      1771 8.66479E-05-8.77240E-06-3.34075E-05-2.21629E-06 7.58835E-20-2.07097E-18
 -1      1772 8.51955E-05-6.56411E-06-3.37458E-05 1.84347E-06 6.65027E-19-2.12936E-18
 -1      1773 8.51545E-05-6.53121E-06-3.37443E-05 6.33354E-07 5.61308E-19-2.17613E-18
 -1      1774 8.65494E-05-8.65775E-06-3.34144E-05 6.47362E-08 5.09731E-19-2.08955E-18
 -1      1775 8.54244E-05-6.79470E-06-3.37456E-05 4.24827E-06 9.65242E-19-1.93162E-18
 -1      1776 8.52977E-05-6.69382E-06-3.37402E-05 3.00589E-06 8.20687E-19-2.07027E-18
 -1      1777 8.66638E-05-8.79071E-06-3.34066E-05 2.34681E-06 8.12350E-19-1.98537E-18
 -1      1778 8.58777E-05-7.24871E-06-3.37491E-05 6.70893E-06 1.27057E-18-1.73059E-18
 -1      1779 8.56418E-05-7.06632E-06-3.37353E-05 5.42190E-06 1.09187E-18-1.84055E-18
 -1      1780 8.70097E-05-9.18851E-06-3.33844E-05 4.64850E-06 1.10325E-18-1.79611E-18
 -1      1781 8.66847E-05-8.03885E-06-3.37670E-05 9.37118E-06 1.59666E-18-1.34977E-18
 -1      1782 8.62677E-05-7.72273E-06-3.37347E-05 7.95032E-06 1.39082E-18-1.60413E-18
 -1      1783 8.76584E-05-9.92284E-06-3.33479E-05 7.02315E-06 1.41981E-18-1.58551E-18
 -1      1784 8.80846E-05-9.38352E-06-3.38186E-05 1.22504E-05 1.91844E-18-6.41972E-19
 -1      1785 8.73522E-05-8.82749E-06-3.37486E-05 1.06576E-05 1.74828E-18-1.03611E-18
 -1      1786 8.87723E-05-1.11586E-05-3.32942E-05 9.49908E-06 1.73187E-18-1.05600E-18
 -1      1787 9.06362E-05-1.18451E-05-3.39243E-05 1.53233E-05 2.09426E-18 5.48613E-19
 -1      1788 8.92697E-05-1.07466E-05-3.37870E-05 1.34977E-05 1.94640E-18-1.61942E-19
 -1      1789 9.06568E-05-1.32227E-05-3.32081E-05 1.19529E-05 2.04434E-18-2.39803E-19
 -1      1790 9.58653E-05-1.70776E-05-3.39858E-05 1.76721E-05 2.02338E-18 2.64428E-18
 -1      1791 9.28292E-05-1.43231E-05-3.38211E-05 1.61741E-05 2.05002E-18 1.39827E-18
 -1      1792 9.38726E-05-1.68559E-05-3.30096E-05 1.38531E-05 2.13197E-18 1.06353E-18
 -1      1793 1.01885E-04-2.50872E-05-3.33495E-05 1.44132E-05 1.68687E-18 5.07119E-18
 -1      1794 9.80403E-05-1.95723E-05-3.36174E-05 1.69687E-05 1.83974E-18 3.49735E-18
 -1      1795 9.73857E-05-2.18715E-05-3.24117E-05 1.32780E-05 2.05338E-18 2.69198E-18
 -1      1796 9.87474E-05-2.61376E-05-3.13329E-05 9.42933E-06 1.72260E-18 4.55239E-18
 -1      1797 1.00192E-04-1.94383E-05-3.42839E-05-1.91064E-05-1.57534E-18 2.06242E-18
 -1      1798 9.53546E-05-2.72987E-05-2.91842E-05 4.10085E-06 1.27268E-18 3.71869E-18
 -1      1799 9.76959E-05-2.73826E-05-3.01848E-05 6.39375E-06 1.41515E-18 4.20354E-18
 -1      1800 9.75544E-05-2.56057E-05-3.08160E-05 8.71812E-06 1.69520E-18 3.14673E-18
 -1      1801 1.57908E-04-2.74828E-05-5.64767E-05-1.14454E-06-3.05398E-18 2.27164E-19
 -1      1802 1.55757E-04-3.07821E-05-5.43472E-05 1.43246E-05-2.34120E-18-1.32399E-18
 -1      1803 9.70481E-05-2.68988E-05-2.99546E-05-5.94440E-06-1.33990E-18 1.19981E-18
 -1      1804 9.52157E-05-2.69916E-05-2.92149E-05-4.05255E-06-1.21912E-18 8.57938E-19
 -1      1805 9.43963E-05-2.72159E-05-2.86933E-05-2.53605E-06-1.21912E-18 7.73546E-19
 -1      1806 9.35944E-05-2.72985E-05-2.83755E-05-1.65012E-06-1.10308E-18 4.42998E-19
 -1      1807 9.55494E-05-2.64801E-05-2.96230E-05-4.63954E-06-1.45270E-18 1.06157E-19
 -1      1808 9.30594E-05-2.73531E-05-2.80993E-05-7.96478E-07-9.63573E-19 4.17693E-19
 -1      1809 9.27430E-05-2.74163E-05-2.79718E-05-3.41253E-07-8.89007E-19 2.11500E-19
 -1      1810 9.43273E-05-2.71912E-05-2.87936E-05-1.91859E-06-1.21050E-18 3.98800E-20
 -1      1811 9.24616E-05-2.74447E-05-2.78326E-05 1.32106E-07-8.05616E-19 1.20930E-19
 -1      1812 9.24255E-05-2.75208E-05-2.78011E-05 3.67739E-07-6.94218E-19-1.47040E-19
 -1      1813 9.36123E-05-2.75082E-05-2.83472E-05-4.01616E-07-1.01051E-18-7.42031E-20
 -1      1814 9.23224E-05-2.75528E-05-2.77426E-05 6.22170E-07-6.26848E-19-2.36124E-19
 -1      1815 9.24406E-05-2.76387E-05-2.77629E-05 7.36394E-07-5.21886E-19-3.89423E-19
 -1      1816 9.32867E-05-2.76967E-05-2.81228E-05 4.38028E-07-8.66247E-19-2.50402E-19
 -1      1817 9.24526E-05-2.76779E-05-2.77534E-05 8.62252E-07-5.67340E-19-2.72040E-19
 -1      1818 9.26516E-05-2.77668E-05-2.78017E-05 9.07345E-07-4.38553E-19-4.27223E-19
 -1      1819 9.32302E-05-2.78416E-05-2.80325E-05 8.82985E-07-6.01521E-19-4.12056E-19
 -1      1820 9.27341E-05-2.78106E-05-2.78218E-05 9.58441E-07-3.85149E-19-6.03075E-19
 -1      1821 9.29712E-05-2.78971E-05-2.78847E-05 9.65556E-07-2.85873E-19-7.10413E-19
 -1      1822 9.33448E-05-2.79671E-05-2.80248E-05 1.09552E-06-5.24995E-19-3.19778E-19
 -1      1823 9.30951E-05-2.79423E-05-2.79225E-05 9.76277E-07-4.26171E-19-6.30048E-19
 -1      1824 9.33467E-05-2.80238E-05-2.79922E-05 9.65760E-07-3.54265E-19-8.16987E-19
 -1      1825 9.35623E-05-2.80792E-05-2.80678E-05 1.17543E-06-3.11587E-19-4.36853E-19
 -1      1826 9.34945E-05-2.80683E-05-2.80408E-05 9.59658E-07-3.63006E-19-7.71130E-19
 -1      1827 9.37499E-05-2.81438E-05-2.81138E-05 9.45959E-07-3.03380E-19-8.55811E-19
 -1      1828 9.38391E-05-2.81790E-05-2.81424E-05 1.18852E-06-3.38056E-19-2.88203E-19
 -1      1829 9.39127E-05-2.81866E-05-2.81698E-05 9.40487E-07-3.76246E-19-1.12684E-18
 -1      1830 9.41708E-05-2.82569E-05-2.82451E-05 9.34961E-07-1.50982E-19-1.24034E-18
 -1      1831 9.41504E-05-2.82668E-05-2.82376E-05 1.18142E-06-4.79958E-19-3.70018E-19
 -1      1832 9.43463E-05-2.82979E-05-2.83077E-05 9.44510E-07-1.27313E-19-1.36916E-18
 -1      1833 9.46134E-05-2.83651E-05-2.83872E-05 9.57396E-07-2.60997E-19-1.51121E-18
 -1      1834 9.44860E-05-2.83430E-05-2.83485E-05 1.19028E-06-3.32751E-19-1.03148E-18
 -1      1835 9.48044E-05-2.84047E-05-2.84577E-05 9.95642E-07-4.38781E-19-1.62587E-18
 -1      1836 9.50942E-05-2.84720E-05-2.85454E-05 1.03782E-06-5.08121E-19-1.50879E-18
 -1      1837 9.48465E-05-2.84083E-05-2.84753E-05 1.24679E-06-3.78976E-19-1.32423E-18
 -1      1838 9.53078E-05-2.85106E-05-2.86272E-05 1.11993E-06-3.84416E-19-1.47971E-18
 -1      1839 9.56415E-05-2.85824E-05-2.87293E-05 1.20481E-06-2.43814E-19-1.48215E-18
 -1      1840 9.52417E-05-2.84626E-05-2.86219E-05 1.38321E-06-3.44968E-19-1.00130E-18
 -1      1841 9.58884E-05-2.86204E-05-2.88280E-05 1.34986E-06-2.48569E-19-1.30530E-18
 -1      1842 9.62967E-05-2.87024E-05-2.89539E-05 1.49570E-06 9.40016E-20-1.12231E-18
 -1      1843 9.56890E-05-2.85045E-05-2.87964E-05 1.63744E-06-2.67497E-19-1.15851E-18
 -1      1844 9.65912E-05-2.87392E-05-2.90771E-05 1.72955E-06 2.02931E-19-9.30902E-19
 -1      1845 9.71169E-05-2.88388E-05-2.92400E-05 1.96230E-06 3.17834E-19-9.33065E-19
 -1      1846 9.62122E-05-2.85298E-05-2.90106E-05 2.05873E-06 2.25820E-19-1.13355E-18
 -1      1847 9.74755E-05-2.88725E-05-2.93978E-05 2.32097E-06 4.43023E-19-6.40926E-19
 -1      1848 9.81780E-05-2.89999E-05-2.96160E-05 2.67788E-06 6.45153E-19-7.06954E-19
 -1      1849 9.68407E-05-2.85300E-05-2.92806E-05 2.71422E-06 5.60191E-19-6.18869E-19
 -1      1850 9.86186E-05-2.90260E-05-2.98212E-05 3.21111E-06 3.84202E-19-5.47049E-19
 -1      1851 9.95787E-05-2.91959E-05-3.01194E-05 3.74407E-06 7.84035E-20-5.65497E-19
 -1      1852 9.76076E-05-2.84907E-05-2.96263E-05 3.69616E-06 3.49532E-19-7.62040E-19
 -1      1853 1.00118E-04-2.92081E-05-3.03863E-05 4.51758E-06-2.55897E-19-4.57624E-19
 -1      1854 1.01443E-04-2.94438E-05-3.07963E-05 5.29397E-06-3.34922E-19-2.88061E-19
 -1      1855 9.85463E-05-2.83924E-05-3.00702E-05 5.12737E-06 1.35810E-19-6.97547E-19
 -1      1856 1.02094E-04-2.94374E-05-3.11379E-05 6.38632E-06-5.11264E-19-2.22108E-19
 -1      1857 1.03921E-04-2.97803E-05-3.16972E-05 7.47986E-06-4.38935E-19-2.59782E-19
 -1      1858 9.96879E-05-2.82185E-05-3.06322E-05 7.15935E-06-3.85010E-19-4.62378E-19
 -1      1859 1.04696E-04-2.97678E-05-3.21185E-05 8.96457E-06-8.58944E-20-1.43217E-19
 -1      1860 1.07182E-04-3.02998E-05-3.28604E-05 1.04182E-05 7.22446E-19-3.36213E-19
 -1      1861 1.01062E-04-2.79855E-05-3.13185E-05 9.94858E-06-3.11960E-19 3.15385E-19
 -1      1862 1.08119E-04-3.03563E-05-3.33435E-05 1.23119E-05 6.53883E-19-6.05797E-19
 -1      1863 1.11426E-04-3.12525E-05-3.42728E-05 1.40355E-05 1.03596E-19-7.14247E-19
 -1      1864 1.02729E-04-2.78285E-05-3.20980E-05 1.35831E-05 4.42032E-19 6.59385E-19
 -1      1865 1.12688E-04-3.16301E-05-3.47549E-05 1.61727E-05 6.54134E-20-6.44274E-19
 -1      1866 1.16933E-04-3.32546E-05-3.57991E-05 1.77182E-05 4.00435E-19 9.46162E-20
 -1      1867 1.04893E-04-2.82140E-05-3.28644E-05 1.79090E-05 2.34231E-19 4.63033E-19
 -1      1868 1.19063E-04-3.45916E-05-3.61640E-05 1.94832E-05 7.91982E-19-2.47612E-19
 -1      1869 1.24236E-04-3.75574E-05-3.71276E-05 1.96803E-05 1.10141E-18-7.82182E-20
 -1      1870 1.08251E-04-3.03477E-05-3.34069E-05 2.21729E-05 8.23912E-19 3.15621E-19
 -1      1871 1.28528E-04-4.10213E-05-3.73057E-05 1.95994E-05 1.35409E-18-1.38927E-19
 -1      1872 1.34283E-04-4.57686E-05-3.79575E-05 1.63581E-05 1.54906E-18 4.58331E-19
 -1      1873 1.14546E-04-3.64900E-05-3.35159E-05 2.44303E-05 1.34731E-18-2.27018E-19
 -1      1874 1.42101E-04-5.17192E-05-3.83181E-05 1.21083E-05 1.39845E-18 7.42927E-19
 -1      1875 1.46903E-04-5.63609E-05-3.88177E-05 4.24164E-06 7.69953E-19 1.08789E-18
 -1      1876 1.26580E-04-4.86817E-05-3.35462E-05 2.12158E-05 1.99677E-18-4.16264E-19
 -1      1877 1.58415E-04-6.22395E-05-4.08495E-05-4.99858E-06 2.29758E-20 1.20099E-18
 -1      1878 1.61037E-04-6.15352E-05-4.24962E-05-1.55634E-05-8.02723E-19 1.04153E-18
 -1      1879 1.45074E-04-6.26641E-05-3.56497E-05 8.68732E-06 6.22357E-19 5.44457E-19
 -1      1880 1.62193E-04-3.91864E-05-5.37202E-05-2.54991E-05-3.53128E-18 1.03444E-19
 -1      1881 1.59580E-04-3.08425E-05-5.56984E-05-1.63831E-05-3.54695E-18 2.51992E-19
 -1      1882 1.09338E-04-4.21341E-05-2.83693E-05 4.78637E-05-7.01343E-19-2.43988E-18
 -1      1883 9.13157E-05-4.56341E-05-1.98588E-05 4.55634E-05-7.42848E-19-2.95826E-18
 -1      1884 9.98774E-05-2.24433E-05-3.29086E-05-1.46688E-05-1.59925E-18 1.39623E-18
 -1      1885 1.54392E-04-5.83440E-05-4.13613E-05 8.52338E-06 1.25043E-19-3.25382E-18
 -1      1886 1.52840E-04-5.66066E-05-4.09027E-05-1.28131E-06 5.44430E-19-2.97573E-18
 -1      1887 1.43636E-04-5.06552E-05-3.99292E-05-9.45094E-06 8.20457E-19-3.03377E-18
 -1      1888 1.38775E-04-4.61578E-05-3.94091E-05-1.48499E-05 5.80906E-19-3.66336E-18
 -1      1889 1.40378E-04-5.56410E-05-3.64006E-05-1.13323E-05 6.16005E-19-2.56439E-18
 -1      1890 1.32852E-04-4.19120E-05-3.90189E-05-1.72781E-05 9.79726E-19-2.45325E-18
 -1      1891 1.27287E-04-3.83401E-05-3.80238E-05-1.83812E-05 9.42232E-19-1.43903E-18
 -1      1892 1.25060E-04-4.26336E-05-3.53922E-05-2.11526E-05 1.17277E-18 1.12576E-19
 -1      1893 1.23866E-04-3.63260E-05-3.75093E-05-1.75793E-05 4.34635E-19-3.81800E-19
 -1      1894 1.18809E-04-3.40940E-05-3.63047E-05-1.65624E-05 8.69170E-19-5.66718E-20
 -1      1895 1.15737E-04-3.43807E-05-3.49132E-05-2.21766E-05 1.36359E-18 3.98239E-19
 -1      1896 1.16647E-04-3.32943E-05-3.56695E-05-1.46487E-05 8.41315E-19-7.93749E-19
 -1      1897 1.12535E-04-3.19621E-05-3.45449E-05-1.30541E-05 4.37545E-19-9.40901E-19
 -1      1898 1.10144E-04-3.06352E-05-3.40985E-05-1.90264E-05 2.49230E-20-5.38501E-19
 -1      1899 1.10971E-04-3.16565E-05-3.39194E-05-1.11014E-05 6.10658E-20-2.07279E-18
 -1      1900 1.07836E-04-3.08371E-05-3.30054E-05-9.62630E-06-4.78679E-19-2.20051E-18
 -1      1901 1.06441E-04-2.93097E-05-3.30680E-05-1.48008E-05-2.32438E-19-1.11847E-18
 -1      1902 1.06617E-04-3.06938E-05-3.24672E-05-8.01064E-06-3.96081E-19-1.86522E-18
 -1      1903 1.04318E-04-3.01651E-05-3.17776E-05-6.85646E-06-6.53784E-19-1.88646E-18
 -1      1904 1.03706E-04-2.89353E-05-3.20518E-05-1.09199E-05-1.61399E-19-1.41143E-18
 -1      1905 1.03356E-04-3.00684E-05-3.13488E-05-5.63707E-06-1.37739E-18-1.20905E-18
 -1      1906 1.01707E-04-2.97135E-05-3.08486E-05-4.79952E-06-1.07774E-18-2.54618E-18
 -1      1907 1.01583E-04-2.88542E-05-3.11757E-05-7.82494E-06-1.10485E-18-1.87181E-18
 -1      1908 1.00957E-04-2.96316E-05-3.05218E-05-3.92121E-06 3.14094E-19-3.00807E-18
 -1      1909 9.97900E-05-2.93869E-05-3.01660E-05-3.33530E-06 8.77357E-19-1.84687E-18
 -1      1910 9.99248E-05-2.88308E-05-3.04749E-05-5.52237E-06-5.31225E-19-2.51334E-18
 -1      1911 9.92133E-05-2.93143E-05-2.99230E-05-2.71770E-06 1.51202E-18-1.75471E-18
 -1      1912 9.83923E-05-2.91427E-05-2.96722E-05-2.31453E-06 2.01266E-18-1.30403E-18
 -1      1913 9.86425E-05-2.88012E-05-2.99378E-05-3.87132E-06 1.50147E-18-1.92736E-18
 -1      1914 9.79554E-05-2.90796E-05-2.94943E-05-1.88462E-06 5.66179E-19-1.20637E-18
 -1      1915 9.73788E-05-2.89577E-05-2.93181E-05-1.60815E-06-9.04724E-19-8.26281E-19
 -1      1916 9.76636E-05-2.87577E-05-2.95363E-05-2.70921E-06 1.28445E-18-2.97558E-18
 -1      1917 9.70516E-05-2.89045E-05-2.91891E-05-1.30861E-06-2.30144E-18-1.22963E-18
 -1      1918 9.66472E-05-2.88171E-05-2.90657E-05-1.11735E-06-2.21717E-18-3.13051E-18
 -1      1919 9.69247E-05-2.87062E-05-2.92410E-05-1.89612E-06-1.98335E-18-1.88257E-18
 -1      1920 9.64045E-05-2.87731E-05-2.89732E-05-9.05805E-07-1.14685E-18-3.34973E-18
 -1      1921 9.61228E-05-2.87101E-05-2.88875E-05-7.69993E-07-7.54763E-19-3.65212E-18
 -1      1922 9.63725E-05-2.86530E-05-2.90264E-05-1.32409E-06-2.27678E-18-1.89076E-18
 -1      1923 9.59446E-05-2.86741E-05-2.88222E-05-6.15720E-07 2.56998E-19-3.30564E-18
 -1      1924 9.57523E-05-2.86290E-05-2.87641E-05-5.14127E-07-1.56757E-19-3.50380E-18
 -1      1925 9.59637E-05-2.86016E-05-2.88725E-05-9.13382E-07-2.35259E-19-3.57314E-18
 -1      1926 9.56230E-05-2.85994E-05-2.87190E-05-3.95226E-07-1.37618E-18-3.16920E-18
 -1      1927 9.54986E-05-2.85688E-05-2.86816E-05-3.13266E-07-1.48526E-18-2.70382E-18
 -1      1928 9.56646E-05-2.85534E-05-2.87642E-05-6.06455E-07-2.77661E-19-3.68578E-18
 -1      1929 9.54065E-05-2.85465E-05-2.86508E-05-2.15604E-07-2.01078E-18-1.85636E-18
 -1      1930 9.53351E-05-2.85313E-05-2.86279E-05-1.48348E-07-4.01420E-19-1.63411E-18
 -1      1931 9.54493E-05-2.85128E-05-2.86890E-05-3.63043E-07-8.80202E-19-2.01369E-18
 -1      1932 9.52722E-05-2.85233E-05-2.86049E-05-7.15658E-08 2.65418E-18-2.25688E-18
 -1      1933 9.27262E-05-2.73461E-05-2.79858E-05 7.80714E-07 6.15829E-19 2.56586E-18
 -1      1934 9.31975E-05-2.73005E-05-2.81808E-05 1.36294E-06 7.67931E-19 2.86688E-18
 -1      1935 9.21992E-05-2.74180E-05-2.77415E-05-9.94555E-08 4.52058E-19 2.21315E-18
 -1      1936 9.23217E-05-2.73583E-05-2.77990E-05 1.92529E-07 5.03399E-19 2.36173E-18
 -1      1937 9.36587E-05-2.74165E-05-2.84062E-05 9.40894E-07 7.80683E-19 1.52739E-18
 -1      1938 9.21080E-05-2.75149E-05-2.76694E-05-5.69289E-07 5.83605E-19 1.64145E-18
 -1      1939 9.20226E-05-2.74344E-05-2.76584E-05-4.21631E-07 5.05699E-19 2.00141E-18
 -1      1940 9.31386E-05-2.75929E-05-2.81056E-05-1.27202E-07 7.18646E-19 1.22782E-18
 -1      1941 9.22794E-05-2.76375E-05-2.76952E-05-7.99883E-07 4.59112E-19 1.33030E-18
 -1      1942 9.20832E-05-2.75463E-05-2.76479E-05-7.32736E-07 5.17171E-19 1.44438E-18
 -1      1943 9.29813E-05-2.77297E-05-2.79755E-05-7.03607E-07 7.67857E-19 7.86372E-19
 -1      1944 9.25964E-05-2.77728E-05-2.77760E-05-8.91827E-07 5.71722E-19 1.18342E-18
 -1      1945 9.23473E-05-2.76794E-05-2.77103E-05-8.70586E-07 4.47091E-19 1.27025E-18
 -1      1946 9.30500E-05-2.78545E-05-2.79479E-05-9.91753E-07 5.71660E-19 5.22410E-19
 -1      1947 9.29864E-05-2.79106E-05-2.78858E-05-9.05852E-07 5.35602E-19 1.06644E-18
 -1      1948 9.27178E-05-2.78201E-05-2.78121E-05-9.09551E-07 6.36070E-19 1.21661E-18
 -1      1949 9.32542E-05-2.79735E-05-2.79818E-05-1.11114E-06 6.44021E-19 4.50409E-19
 -1      1950 9.34063E-05-2.80449E-05-2.80093E-05-8.80381E-07 3.45130E-19 1.11740E-18
 -1      1951 9.31363E-05-2.79596E-05-2.79335E-05-8.95643E-07 5.25767E-19 1.21482E-18
 -1      1952 9.35338E-05-2.80863E-05-2.80516E-05-1.13533E-06 5.45090E-19 5.86987E-19
 -1      1953 9.38326E-05-2.81732E-05-2.81377E-05-8.40039E-07 3.37941E-19 8.68393E-19
 -1      1954 9.35698E-05-2.80937E-05-2.80627E-05-8.58329E-07 4.94640E-19 1.08083E-18
 -1      1955 9.38513E-05-2.81920E-05-2.81412E-05-1.11134E-06 5.79747E-19 8.16317E-19
 -1      1956 9.42547E-05-2.82958E-05-2.82664E-05-7.99849E-07 2.86584E-19 4.43365E-19
 -1      1957 9.40017E-05-2.82212E-05-2.81935E-05-8.16140E-07 3.66419E-19 7.04824E-19
 -1      1958 9.41854E-05-2.82913E-05-2.82412E-05-1.06920E-06 4.61575E-19 8.23362E-19
 -1      1959 9.46694E-05-2.84149E-05-2.83935E-05-7.67221E-07 2.31698E-19 1.03375E-19
 -1      1960 9.44257E-05-2.83435E-05-2.83229E-05-7.79423E-07 9.10257E-20 2.53445E-19
 -1      1961 9.45254E-05-2.83866E-05-2.83458E-05-1.02678E-06 3.06804E-19 2.47390E-19
 -1      1962 9.50772E-05-2.85336E-05-2.85179E-05-7.42641E-07-2.28265E-19 1.62403E-19
 -1      1963 9.48413E-05-2.84634E-05-2.84495E-05-7.51483E-07 9.71724E-20 1.78271E-19
 -1      1964 9.48677E-05-2.84817E-05-2.84515E-05-9.92018E-07 1.04937E-20 1.03887E-20
 -1      1965 9.54779E-05-2.86552E-05-2.86383E-05-7.19461E-07 7.01646E-21 2.15577E-19
 -1      1966 9.52497E-05-2.85845E-05-2.85725E-05-7.28717E-07-1.44243E-19 1.22946E-19
 -1      1967 9.52118E-05-2.85815E-05-2.85562E-05-9.63621E-07-3.97871E-19-3.23701E-19
 -1      1968 9.58665E-05-2.87820E-05-2.87518E-05-6.83149E-07 1.35967E-19-1.95109E-20
 -1      1969 9.56498E-05-2.87101E-05-2.86902E-05-7.00037E-07 1.20178E-19 1.68219E-19
 -1      1970 9.55576E-05-2.86916E-05-2.86571E-05-9.30741E-07 6.55981E-20-4.91397E-19
 -1      1971 9.62295E-05-2.89143E-05-2.88527E-05-6.10471E-07 2.38126E-19 2.55999E-19
 -1      1972 9.60345E-05-2.88421E-05-2.87987E-05-6.46021E-07 2.50996E-19 8.26151E-20
 -1      1973 9.59019E-05-2.88172E-05-2.87504E-05-8.72070E-07 2.16994E-19-2.89060E-19
 -1      1974 9.65400E-05-2.90480E-05-2.89315E-05-4.69381E-07 3.63836E-19 1.37341E-19
 -1      1975 9.63858E-05-2.89795E-05-2.88909E-05-5.38368E-07 6.78081E-19 1.58896E-19
 -1      1976 9.62348E-05-2.89620E-05-2.88303E-05-7.55115E-07 4.32200E-19 4.74165E-19
 -1      1977 9.67539E-05-2.91721E-05-2.89738E-05-2.20894E-07-6.94584E-19 4.26713E-19
 -1      1978 9.66709E-05-2.91158E-05-2.89555E-05-3.40738E-07-8.36834E-20 4.43863E-19
 -1      1979 9.65361E-05-2.91257E-05-2.88882E-05-5.36764E-07 5.53591E-20 4.29606E-19
 -1      1980 9.68077E-05-2.92665E-05-2.89609E-05 1.75342E-07-6.91092E-19 4.75187E-19
 -1      1981 9.68378E-05-2.92364E-05-2.89764E-05-1.24782E-08-1.21417E-18 4.25695E-19
 -1      1982 9.67710E-05-2.92998E-05-2.89124E-05-1.66885E-07-9.28644E-19 2.26119E-19
 -1      1983 9.66198E-05-2.92983E-05-2.88710E-05 7.49845E-07-4.48089E-19 7.01966E-19
 -1      1984 9.68143E-05-2.93150E-05-2.89339E-05 4.82832E-07-3.52837E-19 6.69891E-19
 -1      1985 9.68871E-05-2.94635E-05-2.88897E-05 4.02805E-07-8.35061E-19 4.84630E-19
 -1      1986 9.60988E-05-2.92215E-05-2.86835E-05 1.50540E-06 2.13221E-19 4.00026E-19
 -1      1987 9.65108E-05-2.93117E-05-2.88065E-05 1.16239E-06-7.13361E-21 5.86800E-19
 -1      1988 9.68133E-05-2.95774E-05-2.88062E-05 1.20238E-06-1.32235E-19 6.18624E-19
 -1      1989 9.51607E-05-2.89812E-05-2.83844E-05 2.39412E-06 4.31687E-19 1.04182E-18
 -1      1990 9.58322E-05-2.91733E-05-2.85760E-05 2.00290E-06 4.07520E-19 9.83932E-19
 -1      1991 9.64637E-05-2.95815E-05-2.86514E-05 2.21923E-06-2.11080E-20 4.99642E-19
 -1      1992 9.37596E-05-2.85262E-05-2.79745E-05 3.29668E-06-1.63196E-19 7.87782E-19
 -1      1993 9.47009E-05-2.88416E-05-2.82335E-05 2.91746E-06 4.03476E-19 9.95196E-19
 -1      1994 9.57523E-05-2.93991E-05-2.84223E-05 3.36896E-06 2.52763E-19 1.36768E-18
 -1      1995 9.19256E-05-2.78331E-05-2.74764E-05 4.01756E-06 4.76765E-19 2.05018E-19
 -1      1996 9.30943E-05-2.82725E-05-2.77877E-05 3.74178E-06-7.05651E-20 3.99328E-19
 -1      1997 9.46212E-05-2.89557E-05-2.81273E-05 4.47290E-06 3.55932E-19 7.48302E-19
 -1      1998 8.98039E-05-2.69377E-05-2.69381E-05 4.31448E-06 1.01280E-18-6.99467E-19
 -1      1999 9.10882E-05-2.74660E-05-2.72702E-05 4.24696E-06 9.72382E-19-5.62714E-20
 -1      2000 9.30831E-05-2.82151E-05-2.77893E-05 5.26173E-06 8.47308E-19 1.58872E-19
 -1      2001 8.76690E-05-2.59599E-05-2.64291E-05 3.97162E-06 5.28783E-20-1.66194E-19
 -1      2002 8.88913E-05-2.64984E-05-2.67369E-05 4.19445E-06 3.44832E-19-4.49880E-19
 -1      2003 9.12672E-05-2.72244E-05-2.74444E-05 5.42725E-06 6.33614E-19-1.11645E-19
 -1      2004 8.58917E-05-2.50964E-05-2.60279E-05 2.90186E-06-3.40848E-19 2.17472E-19
 -1      2005 8.68400E-05-2.55348E-05-2.62616E-05 3.43043E-06-4.01206E-19 4.26091E-19
 -1      2006 8.94398E-05-2.61448E-05-2.71367E-05 4.72888E-06-6.15985E-19 2.60102E-19
 -1      2007 8.48459E-05-2.45668E-05-2.58038E-05 1.22806E-06-4.75133E-20 5.92330E-19
 -1      2008 8.53307E-05-2.47970E-05-2.59207E-05 1.98400E-06 3.70560E-19 4.14171E-19
 -1      2009 8.79668E-05-2.52307E-05-2.69101E-05 3.12451E-06-1.97362E-19 7.74898E-19
 -1      2010 8.47800E-05-2.45249E-05-2.57972E-05-7.18655E-07 1.12463E-20 6.77378E-19
 -1      2011 8.46967E-05-2.44843E-05-2.57749E-05 1.06161E-07-2.73863E-20 5.15487E-19
 -1      2012 8.72025E-05-2.47443E-05-2.67986E-05 8.52033E-07 1.30258E-19 8.50405E-19
 -1      2013 8.57166E-05-2.49865E-05-2.60088E-05-2.50438E-06-1.86357E-19 1.01707E-19
 -1      2014 8.50837E-05-2.46867E-05-2.58517E-05-1.79452E-06-1.10604E-19 5.99033E-19
 -1      2015 8.73499E-05-2.48403E-05-2.68196E-05-1.61138E-06 1.33722E-19 1.23767E-18
 -1      2016 8.74397E-05-2.58191E-05-2.63994E-05-3.75602E-06 2.47013E-20-1.49475E-19
 -1      2017 8.63919E-05-2.53406E-05-2.61373E-05-3.30084E-06-3.26379E-19-2.63788E-19
 -1      2018 8.83689E-05-2.54873E-05-2.69697E-05-3.71525E-06-1.98644E-19 7.49978E-19
 -1      2019 8.95803E-05-2.68057E-05-2.69012E-05-4.29107E-06 8.02749E-19 1.08202E-19
 -1      2020 8.83203E-05-2.62616E-05-2.65806E-05-4.14173E-06 6.09424E-19 3.49404E-19
 -1      2021 8.99946E-05-2.64845E-05-2.72261E-05-5.04529E-06-5.25591E-21 3.65199E-19
 -1      2022 9.17500E-05-2.77363E-05-2.74370E-05-4.14706E-06 3.46384E-19-7.46626E-19
 -1      2023 9.04841E-05-2.72294E-05-2.71072E-05-4.26643E-06 8.44041E-19-4.75152E-19
 -1      2024 9.18541E-05-2.75594E-05-2.75509E-05-5.45581E-06 9.75876E-19 1.98849E-19
 -1      2025 9.36491E-05-2.84729E-05-2.79376E-05-3.51657E-06 5.26854E-19-4.27148E-19
 -1      2026 9.25372E-05-2.80687E-05-2.76400E-05-3.81365E-06 1.72702E-19-6.07263E-19
 -1      2027 9.36055E-05-2.84816E-05-2.78990E-05-5.06508E-06 5.11626E-19 3.79749E-19
 -1      2028 9.51136E-05-2.89658E-05-2.83547E-05-2.64483E-06 9.44222E-19-6.27365E-19
 -1      2029 9.42461E-05-2.86875E-05-2.81153E-05-3.01751E-06 1.31677E-18 2.84295E-19
 -1      2030 9.50255E-05-2.91274E-05-2.82284E-05-4.14938E-06 7.67147E-19 2.34539E-20
 -1      2031 9.61051E-05-2.92329E-05-2.86650E-05-1.74544E-06 1.82003E-19-1.59625E-18
 -1      2032 9.55063E-05-2.90719E-05-2.84939E-05-2.11130E-06 7.02131E-19-8.99490E-19
 -1      2033 9.60271E-05-2.94808E-05-2.85069E-05-3.01440E-06 1.28314E-18 9.52958E-20
 -1      2034 9.66703E-05-2.93257E-05-2.88667E-05-9.59396E-07 3.30177E-20-3.11973E-18
 -1      2035 9.63173E-05-2.92575E-05-2.87611E-05-1.26804E-06-4.31148E-19-2.97346E-18
 -1      2036 9.66260E-05-2.95953E-05-2.87170E-05-1.90473E-06 7.97225E-19-1.94955E-18
 -1      2037 9.68983E-05-2.93031E-05-2.89731E-05-3.52736E-07 2.18078E-20-2.17336E-18
 -1      2038 9.67429E-05-2.92989E-05-2.89223E-05-5.83690E-07-3.43851E-19-2.85542E-18
 -1      2039 9.68948E-05-2.95496E-05-2.88547E-05-9.69201E-07-3.51277E-19-3.13282E-18
 -1      2040 9.68877E-05-2.92153E-05-2.90051E-05 6.51102E-08-4.15509E-19-1.00116E-18
 -1      2041 9.68743E-05-2.92497E-05-2.89952E-05-8.88356E-08 5.01305E-19-1.31774E-18
 -1      2042 9.69239E-05-2.94169E-05-2.89268E-05-2.68056E-07-1.05968E-19-2.19507E-18
 -1      2043 9.67272E-05-2.90989E-05-2.89852E-05 3.17793E-07-1.41793E-18-1.66340E-18
 -1      2044 9.68043E-05-2.91525E-05-2.90024E-05 2.28741E-07-1.02625E-18-1.68792E-18
 -1      2045 9.67979E-05-2.92512E-05-2.89460E-05 2.00733E-07-5.50297E-19-8.90987E-19
 -1      2046 9.64875E-05-2.89773E-05-2.89337E-05 4.42369E-07-2.40213E-19-2.51004E-18
 -1      2047 9.66135E-05-2.90370E-05-2.89663E-05 4.02232E-07-1.12543E-18-2.63013E-18
 -1      2048 9.65853E-05-2.90860E-05-2.89272E-05 4.72990E-07-9.59405E-19-2.39636E-18
 -1      2049 9.62197E-05-2.88638E-05-2.88668E-05 4.76328E-07 1.65446E-18-3.46756E-18
 -1      2050 9.63640E-05-2.89217E-05-2.89060E-05 4.69983E-07 1.18500E-18-2.36201E-18
 -1      2051 9.63363E-05-2.89385E-05-2.88848E-05 5.96191E-07 5.14894E-19-3.53706E-18
 -1      2052 9.59582E-05-2.87645E-05-2.87967E-05 4.50759E-07 7.10760E-19-2.68785E-18
 -1      2053 9.60999E-05-2.88162E-05-2.88360E-05 4.66264E-07 1.07020E-18-2.50708E-18
 -1      2054 9.60847E-05-2.88147E-05-2.88308E-05 6.15670E-07 6.99179E-19-3.70465E-18
 -1      2055 9.57243E-05-2.86812E-05-2.87317E-05 3.87833E-07-1.04589E-18-1.99139E-18
 -1      2056 9.58502E-05-2.87250E-05-2.87669E-05 4.17157E-07-6.24488E-20-2.68428E-18
 -1      2057 9.58515E-05-2.87141E-05-2.87742E-05 5.67860E-07-3.04031E-19-1.75778E-18
 -1      2058 9.55304E-05-2.86140E-05-2.86771E-05 3.01164E-07-1.46738E-18-1.48985E-18
 -1      2059 9.56322E-05-2.86488E-05-2.87056E-05 3.39820E-07-1.36388E-18-2.28405E-18
 -1      2060 9.56479E-05-2.86336E-05-2.87217E-05 4.78302E-07-1.05085E-18-2.89120E-18
 -1      2061 9.53815E-05-2.85622E-05-2.86355E-05 1.98655E-07 3.60128E-19-1.33733E-18
 -1      2062 9.54554E-05-2.85877E-05-2.86560E-05 2.44329E-07-9.06011E-19-1.72130E-18
 -1      2063 9.54787E-05-2.85696E-05-2.86769E-05 3.63883E-07-8.96976E-19-1.99848E-18
 -1      2064 9.52879E-05-2.85378E-05-2.86059E-05 9.94117E-08 5.65151E-19-7.42514E-19
 -1      2065 9.53345E-05-2.85507E-05-2.86204E-05 1.43285E-07 1.27781E-18-8.57658E-19
 -1      2066 9.53591E-05-2.85298E-05-2.86418E-05 2.40877E-07-6.29127E-20-2.64779E-18
 -1      2067 9.52780E-05-2.85125E-05-2.86134E-05 1.25734E-07-1.49401E-20-1.55471E-19
 -1      2068 9.51194E-05-2.81265E-05-2.87115E-05 3.36847E-07-1.78315E-18-9.48952E-19
 -1      2069 9.51573E-05-2.82151E-05-2.86882E-05 3.19322E-07-2.32533E-18 2.59371E-19
 -1      2070 9.51916E-05-2.82925E-05-2.86707E-05 2.86490E-07-1.62476E-18 1.92237E-21
 -1      2071 9.52246E-05-2.83693E-05-2.86511E-05 2.52411E-07-1.05595E-18-5.11962E-19
 -1      2072 9.51922E-05-2.82580E-05-2.86868E-05 3.90744E-07-1.46499E-18-2.50917E-19
 -1      2073 9.52602E-05-2.84580E-05-2.86287E-05 1.74058E-07-7.31813E-20-4.80992E-19
 -1      2074 9.50439E-05-2.79540E-05-2.87538E-05 3.44497E-07-2.83725E-18-1.88462E-18
 -1      2075 9.50831E-05-2.80449E-05-2.87300E-05 3.46417E-07-2.77002E-18-1.11135E-18
 -1      2076 9.51087E-05-2.80952E-05-2.87204E-05 4.37092E-07-1.87091E-18-2.01343E-18
 -1      2077 9.49696E-05-2.77871E-05-2.87944E-05 3.06646E-07-1.18048E-18 7.23342E-20
 -1      2078 9.50068E-05-2.78719E-05-2.87722E-05 3.28825E-07-2.16455E-18-2.17214E-19
 -1      2079 9.50217E-05-2.79268E-05-2.87546E-05 4.30397E-07-1.20606E-18-2.59523E-19
 -1      2080 9.49060E-05-2.76492E-05-2.88270E-05 2.24064E-07-2.03189E-18-1.03813E-18
 -1      2081 9.49361E-05-2.77146E-05-2.88100E-05 2.65351E-07-1.13669E-18 4.12447E-20
 -1      2082 9.49375E-05-2.77674E-05-2.87861E-05 3.66736E-07-9.92351E-19-4.91917E-19
 -1      2083 9.48624E-05-2.75600E-05-2.88469E-05 1.03203E-07-2.32205E-18-1.67451E-18
 -1      2084 9.48805E-05-2.75957E-05-2.88378E-05 1.59864E-07-2.26536E-18-1.96613E-18
 -1      2085 9.48666E-05-2.76370E-05-2.88108E-05 2.48492E-07-2.42097E-18-9.79957E-19
 -1      2086 9.48476E-05-2.75360E-05-2.88508E-05-4.24519E-08-1.65862E-18 1.74819E-18
 -1      2087 9.48493E-05-2.75344E-05-2.88514E-05 2.26404E-08-2.70554E-18 1.09536E-18
 -1      2088 9.48198E-05-2.75546E-05-2.88254E-05 8.56637E-08-3.57111E-18-5.14729E-19
 -1      2089 9.48678E-05-2.75859E-05-2.88375E-05-1.91906E-07-4.23170E-20 1.02861E-18
 -1      2090 9.48510E-05-2.75448E-05-2.88480E-05-1.28522E-07-7.35106E-19 6.90653E-19
 -1      2091 9.48079E-05-2.75365E-05-2.88277E-05-1.02434E-07-1.32611E-18 1.86177E-18
 -1      2092 9.49235E-05-2.77051E-05-2.88091E-05-3.16658E-07 1.69443E-19 6.82595E-19
 -1      2093 9.48892E-05-2.76301E-05-2.88279E-05-2.67786E-07-1.01933E-18 2.10971E-18
 -1      2094 9.48385E-05-2.75913E-05-2.88173E-05-2.86050E-07-5.66024E-20 8.85811E-19
 -1      2095 9.50111E-05-2.78831E-05-2.87690E-05-3.93506E-07 2.93858E-18 3.93006E-18
 -1      2096 9.49626E-05-2.77826E-05-2.87938E-05-3.69278E-07 1.33765E-18 2.86469E-18
 -1      2097 9.49123E-05-2.77170E-05-2.87956E-05-4.32846E-07 4.99627E-19 3.00754E-18
 -1      2098 9.51168E-05-2.80916E-05-2.87235E-05-3.98011E-07 3.73929E-18 3.24419E-19
 -1      2099 9.50626E-05-2.79834E-05-2.87500E-05-4.07823E-07 3.71150E-18 1.87633E-18
 -1      2100 9.50234E-05-2.79015E-05-2.87651E-05-5.11165E-07 2.63443E-18 3.64961E-18
 -1      2101 9.52188E-05-2.82965E-05-2.86788E-05-3.21582E-07 2.53327E-18-1.40681E-19
 -1      2102 9.51720E-05-2.81999E-05-2.87031E-05-3.67574E-07 2.56723E-18 3.92688E-19
 -1      2103 9.51530E-05-2.81175E-05-2.87293E-05-4.96414E-07 1.88830E-18-1.97950E-19
 -1      2104 9.36292E-05-2.73370E-05-2.83662E-05 2.02032E-06 9.58299E-19 3.08613E-18
 -1      2105 9.47239E-05-2.73380E-05-2.88195E-05 3.12388E-06 1.06549E-18 3.44630E-18
 -1      2106 9.54662E-05-2.68385E-05-2.94133E-05 4.52853E-06 1.30463E-18 2.56275E-18
 -1      2107 9.44071E-05-2.71696E-05-2.88295E-05 2.48760E-06 1.07470E-18 2.06661E-18
 -1      2108 6.54927E-05-4.04977E-05-1.11473E-05 4.77590E-05-5.38713E-19-2.15363E-18
 -1      2109 4.64975E-05-4.20675E-05-3.38369E-06 3.93441E-05 3.71424E-19-7.87211E-19
 -1      2110 1.46513E-04-3.92985E-05-4.50393E-05 3.92066E-05 3.34578E-19-4.03908E-18
 -1      2111 1.25265E-04-4.18986E-05-3.61396E-05 3.85339E-05 2.62580E-20-2.89685E-18
 -1      2112 1.20584E-05-3.76890E-05 9.40993E-06 1.46727E-05 1.41327E-18 1.18119E-18
 -1      2113 1.04395E-05-3.75684E-05 1.00794E-05 5.44157E-06 1.14294E-18 9.18184E-19
 -1      2114 1.54392E-04-3.59651E-05-5.15355E-05 2.43086E-05-1.26970E-18-1.73642E-18
 -1      2115 1.61080E-04-4.56674E-05-5.02857E-05 2.90803E-05 1.16467E-19-2.23172E-18
 -1      2116 1.74364E-04-3.36070E-05-5.95144E-05 1.96432E-05-2.43649E-18 2.49239E-19
 -1      2117 8.72767E-05-8.73307E-06-3.37525E-05-1.05296E-05-1.17480E-18-2.20025E-18
 -1      2118 8.79866E-05-9.26774E-06-3.38226E-05-1.21108E-05-1.38752E-18-1.97118E-18
 -1      2119 9.04803E-05-1.30373E-05-3.32190E-05-1.18172E-05-1.55812E-18-1.71860E-18
 -1      2120 8.86867E-05-1.10612E-05-3.33011E-05-9.39161E-06-1.16228E-18-2.14768E-18
 -1      2121 1.59547E-04-5.30284E-05-4.60726E-05 2.60623E-05 8.35916E-19-2.60500E-18
 -1      2122 1.63792E-04-6.01590E-05-4.45294E-05 1.97072E-05 3.53319E-19-2.77022E-18
 -1      2123 1.59297E-04-6.45635E-05-4.08626E-05 7.61326E-06 1.19961E-19-2.15316E-18
 -1      2124 1.75334E-04-3.33992E-05-5.96025E-05 2.76999E-05 5.57030E-19-3.39660E-18
 -1      2125 1.56373E-04-3.31354E-05-5.25709E-05 3.19922E-05 9.63024E-19-3.18527E-18
 -1      2126 1.82746E-04-2.45986E-05-6.71070E-05 7.77790E-06 1.24090E-18-3.22931E-18
 -1      2127 1.80877E-04-2.82117E-05-6.41299E-05 1.92838E-05 4.26058E-19-2.77869E-18
 -1      2128 1.65937E-04-2.79831E-05-5.79805E-05 8.03244E-06 8.58256E-19-2.38143E-18
 -1      2129 1.86069E-04-2.08274E-05-6.96971E-05-2.75270E-06 6.16640E-19-2.96483E-18
 -1      2130 1.83047E-04-2.00761E-05-6.91314E-05 3.86972E-06 8.62280E-19-3.02105E-18
 -1      2131 1.78713E-04-2.59770E-05-6.46613E-05-1.44833E-05 1.74806E-18-3.53848E-18
 -1      2132 1.83088E-04-2.37488E-05-6.76076E-05-6.21816E-06 1.58353E-18-3.40867E-18
 -1      2133 1.60773E-04-3.29213E-05-5.44909E-05-2.88490E-05 1.90228E-18-3.55500E-18
 -1      2134 1.76231E-04-3.25399E-05-6.06882E-05-2.25854E-05 2.08878E-18-3.52450E-18
 -1      2135 1.32127E-04-3.91063E-05-4.01666E-05-3.81269E-05 1.48421E-18-3.52027E-18
 -1      2136 1.52254E-04-3.73276E-05-4.82738E-05-3.83087E-05 1.78512E-18-3.74516E-18
 -1      2137 1.00166E-04-4.48558E-05-2.42947E-05-4.36059E-05-3.17637E-20-2.75752E-18
 -1      2138 1.18847E-04-4.15083E-05-3.26695E-05-4.63655E-05 7.12778E-19-3.37712E-18
 -1      2139 5.90270E-05-4.28571E-05-8.08642E-06-4.25545E-05 7.40730E-19-1.92769E-18
 -1      2140 7.79150E-05-4.09925E-05-1.60088E-05-4.92601E-05 6.10711E-19-2.47249E-18
 -1      2141 2.82331E-05-4.02084E-05 3.59126E-06-3.10769E-05-5.80218E-19-3.13699E-18
 -1      2142 4.00249E-05-3.66201E-05-2.11350E-06-4.01402E-05 2.59616E-19-2.49197E-18
 -1      2143 1.22221E-05-3.85774E-05 9.68944E-06-1.36926E-05-1.50200E-18-4.04204E-18
 -1      2144 1.63464E-05-3.64292E-05 7.35820E-06-2.21721E-05-2.18111E-19-3.75066E-18
 -1      2145 1.47150E-05-3.61273E-05 7.97312E-06 7.32818E-06-1.50010E-18-1.81223E-18
 -1      2146 1.14361E-05-3.68397E-05 9.43983E-06-2.49699E-06-1.16877E-18-2.85365E-18
 -1      2147 3.71788E-05-4.27765E-05 9.46048E-07 2.51602E-05-2.97182E-18-2.71643E-18
 -1      2148 2.51762E-05-4.26216E-05 5.64877E-06 1.71639E-05-2.10318E-18-2.13452E-18
 -1      2149 7.92303E-05-4.97690E-05-1.34739E-05 3.63433E-05-2.06168E-18-4.22013E-18
 -1      2150 5.84785E-05-4.98875E-05-5.58685E-06 2.93614E-05-2.42929E-18-3.08008E-18
 -1      2151 1.29619E-04-5.64129E-05-3.15755E-05 3.36011E-05-2.50171E-18-4.34062E-18
 -1      2152 1.02118E-04-5.59118E-05-2.15322E-05 3.05612E-05-1.84907E-18-4.48843E-18
 -1      2153 1.76272E-04-5.77781E-05-5.03361E-05 1.84220E-05-4.45137E-18-1.88973E-18
 -1      2154 1.50206E-04-5.75581E-05-4.05821E-05 2.09044E-05-2.97182E-18-3.35594E-18
 -1      2155 2.05620E-04-5.05230E-05-6.49369E-05 7.90635E-07-4.13733E-18-4.55704E-19
 -1      2156 1.87942E-04-5.16355E-05-5.76526E-05 5.14081E-06-4.76223E-18-1.82874E-18
 -1      2157 2.04045E-04-3.71692E-05-6.99022E-05-7.80811E-06-3.41862E-18-2.72533E-19
 -1      2158 2.02735E-04-4.28082E-05-6.69376E-05-5.51432E-06-3.76506E-18-5.48877E-19
 -1      2159 2.04127E-04-3.62928E-05-7.01947E-05 2.78555E-06-2.10827E-18 5.42101E-19
 -1      2160 2.02512E-04-3.29538E-05-7.10166E-05 2.37392E-06-2.82231E-18 5.51101E-20
 -1      2161 1.88357E-04-4.75130E-05-6.02943E-05 1.00225E-05-1.53864E-18 7.01343E-19
 -1      2162 2.01735E-04-4.40915E-05-6.60816E-05 9.08980E-06-1.57760E-18 6.91179E-19
 -1      2163 1.68932E-04-5.69271E-05-4.82895E-05-1.34674E-05-1.23942E-18 1.04354E-18
 -1      2164 1.90765E-04-5.62586E-05-5.68004E-05-5.82278E-06-9.53269E-19 1.20363E-18
 -1      2165 1.26084E-04-5.77880E-05-3.06512E-05-2.72035E-05-2.45640E-19 1.96554E-18
 -1      2166 1.53367E-04-5.84754E-05-4.04571E-05-2.73432E-05-1.29935E-18 2.13452E-18
 -1      2167 8.68699E-05-5.48615E-05-1.46252E-05-3.35900E-05 1.58310E-18 1.68348E-18
 -1      2168 1.08306E-04-5.53172E-05-2.30342E-05-3.57750E-05 3.93023E-19 2.28572E-18
 -1      2169 3.76483E-05-4.54674E-05 1.30759E-06-2.34778E-05 2.37677E-18 7.07696E-19
 -1      2170 5.63485E-05-4.57879E-05-5.75844E-06-3.30233E-05 1.84484E-18-2.59510E-19
 -1      2171 1.53936E-05-3.75671E-05 8.02785E-06-7.31382E-06 1.64430E-18 1.94606E-18
 -1      2172 2.35587E-05-3.81165E-05 5.06903E-06-1.75087E-05 1.65171E-18 2.14384E-18
 -1      2173 3.07149E-05-3.63674E-05 1.56744E-06 3.49489E-05 9.80441E-19 1.14053E-18
 -1      2174 2.11889E-05-3.94834E-05 6.24959E-06 2.57580E-05 1.75336E-19 2.87652E-18
 -1      2175 4.64958E-05-3.63750E-05-4.55136E-06 4.49938E-05-9.53759E-19-1.07446E-18
 -1      2176 9.53002E-05-2.84892E-05-2.86341E-05-1.67848E-07 1.03016E-18-1.20063E-19
 -1      2177 9.72121E-05-2.42643E-05-3.13487E-05-1.01270E-05-1.58411E-18 9.47195E-19
 -1      2178 9.63498E-05-2.30211E-05-3.14904E-05-1.05130E-05-1.69596E-18 7.51742E-20
 -1      2179 8.54034E-05-4.73198E-05-1.64995E-05 4.77199E-05-1.24895E-18-2.79351E-18
 -1      2180 8.02467E-05-4.59346E-05-1.40965E-05 5.00491E-05-1.83065E-18-3.58591E-18
 -1      2181 1.04301E-04-5.40112E-05-2.19344E-05 4.52861E-05-1.73345E-18-3.77824E-18
 -1      2182 1.78168E-04-2.93652E-05-6.27060E-05-6.27363E-06-3.51138E-18 3.83706E-19
 -1      2183 1.63457E-04-6.90988E-05-4.10608E-05 1.44633E-07-1.19199E-18-2.83333E-19
 -1      2184 1.66856E-04-6.12663E-05-4.53449E-05-1.70868E-05-2.05691E-18 6.25110E-19
 -1      2185 1.53795E-04-4.35684E-05-4.66034E-05 1.91737E-05 3.07102E-19-3.13614E-18
 -1      2186 9.52758E-05-2.84290E-05-2.86485E-05 2.72077E-07 3.61679E-19-1.36857E-18
 -1      2187 1.88377E-05-2.82235E-05 3.25951E-06 2.55921E-05-7.96211E-20 1.72329E-18
 -1      2188 9.52764E-05-2.84289E-05-2.86470E-05-2.22312E-07 1.74962E-18-9.93947E-19
 -1      2189 9.52548E-05-2.83662E-05-2.86661E-05-2.83564E-07 2.17169E-18-1.18280E-18
 -1      2190 9.52593E-05-2.82991E-05-2.86980E-05-4.16620E-07 9.08131E-19-1.59349E-18
 -1      2191 9.53399E-05-2.84333E-05-2.86725E-05-3.16167E-07-6.95960E-19-2.02776E-18
 -1      2192 1.29644E-04-5.36235E-05-3.25203E-05 3.54850E-05-1.00882E-18-3.88576E-18
 -1      2193 1.45207E-05-2.62228E-05 4.28830E-06-3.84875E-06 1.30237E-18 1.13714E-18
 -1      2194 1.72755E-04-5.42741E-05-5.08399E-05 2.52570E-05 1.59030E-19-1.38913E-19
 -1      2195 3.68063E-05-3.52893E-05-1.27517E-06-2.73060E-05 2.37593E-18 7.20825E-19
 -1      2196 8.01340E-05-5.19304E-05-1.26876E-05-3.53797E-05 1.55939E-18 1.60455E-18
 -1      2197 1.03701E-04-5.88447E-05-1.97897E-05-3.51946E-05 2.41828E-18 1.54852E-18
 -1      2198 7.50534E-05-4.67453E-05-1.17078E-05-3.80071E-05 2.10911E-18 9.26231E-19
 -1      2199 1.32981E-04-6.72503E-05-2.86126E-05-2.53090E-05 5.83182E-19 1.98354E-18
 -1      2200 1.68051E-04-6.59994E-05-4.31867E-05-4.93765E-06-5.27066E-19 6.02240E-19
 -1      2201 1.85039E-04-4.27015E-05-5.93261E-05-1.94561E-05-4.27625E-18 1.94394E-19
 -1      2202 1.82421E-04-6.01646E-05-5.13877E-05-7.97837E-06-3.78970E-18-4.74338E-20
 -1      2203 1.53939E-04-6.82919E-05-3.61686E-05 1.63961E-05-1.59877E-18-1.98968E-18
 -1      2204 1.06874E-04-6.11225E-05-2.00256E-05 3.36537E-05-4.00647E-19-3.14313E-18
 -1      2205 5.89904E-05-4.55939E-05-6.47961E-06 3.51170E-05-1.22735E-18-2.26835E-18
 -1      2206 2.35744E-05-3.06365E-05 2.23065E-06 1.74878E-05-1.09267E-18-2.50552E-18
 -1      2207 1.25388E-05-2.48735E-05 4.55845E-06-8.34517E-06-1.06424E-18-3.46691E-18
 -1      2208 2.58483E-05-3.03099E-05 1.28711E-06-3.31730E-05-1.04058E-18-3.48300E-18
 -1      2209 5.85800E-05-4.09760E-05-7.76048E-06-4.75793E-05-7.07696E-19-2.07036E-18
 -1      2210 1.00640E-04-5.11934E-05-2.11522E-05-4.63893E-05-1.18712E-18-1.55198E-18
 -1      2211 1.35951E-04-5.08866E-05-3.60819E-05-3.26735E-05-4.78785E-19-2.57413E-18
 -1      2212 1.56743E-04-4.04681E-05-4.89707E-05-1.74543E-05 6.28671E-19-1.81562E-18
 -1      2213 1.64141E-04-2.52487E-05-5.85473E-05-4.48558E-06 1.51047E-18-1.29998E-18
 -1      2214 1.72941E-04-1.82377E-05-6.54642E-05 2.41055E-06 1.29893E-18-2.65481E-18
 -1      2215 1.56333E-04-1.50405E-05-6.05734E-05-1.26313E-06 1.05074E-18-1.83870E-18
 -1      2216 1.55059E-04-9.68449E-06-6.24602E-05-2.31570E-06 6.15793E-19-1.88274E-18
 -1      2217 1.65603E-04-1.35658E-05-6.43312E-05 2.82891E-07 1.49755E-18-1.52233E-18
 -1      2218 8.81547E-05-1.11773E-05-3.30298E-05-3.65712E-06-2.16050E-19-1.97952E-18
 -1      2219 8.83881E-05-1.14486E-05-3.30113E-05-4.79781E-06-4.85154E-19-2.06789E-18
 -1      2220 8.87387E-05-1.19334E-05-3.29620E-05-5.81589E-06-6.46138E-19-2.11025E-18
 -1      2221 8.91421E-05-1.24050E-05-3.29328E-05-6.98737E-06-8.63262E-19-2.08858E-18
 -1      2222 8.99064E-05-1.38154E-05-3.26098E-05-4.89682E-06-4.88448E-19-1.85875E-18
 -1      2223 8.78085E-05-1.07153E-05-3.30740E-05 6.14606E-07 6.13180E-19-1.94672E-18
 -1      2224 8.78045E-05-1.07107E-05-3.30743E-05-4.95244E-07 3.71543E-19-1.94156E-18
 -1      2225 8.79878E-05-1.09403E-05-3.30548E-05 2.75404E-06 9.21930E-19-1.87560E-18
 -1      2226 8.78740E-05-1.08071E-05-3.30646E-05 1.63583E-06 7.57848E-19-1.95196E-18
 -1      2227 8.91237E-05-1.27571E-05-3.27316E-05 1.04785E-06 6.48319E-19-1.81712E-18
 -1      2228 8.84196E-05-1.14885E-05-3.30080E-05 4.88114E-06 1.18724E-18-1.69068E-18
 -1      2229 8.81816E-05-1.12112E-05-3.30270E-05 3.75881E-06 1.05308E-18-1.81442E-18
 -1      2230 8.93878E-05-1.31134E-05-3.26907E-05 3.01553E-06 9.23541E-19-1.67646E-18
 -1      2231 8.91956E-05-1.24733E-05-3.29268E-05 7.06712E-06 1.48112E-18-1.39077E-18
 -1      2232 8.87795E-05-1.19858E-05-3.29572E-05 5.89568E-06 1.29033E-18-1.57258E-18
 -1      2233 8.99424E-05-1.38629E-05-3.26045E-05 4.96673E-06 1.17105E-18-1.47138E-18
 -1      2234 9.04603E-05-1.40850E-05-3.27965E-05 9.21512E-06 1.83781E-18-7.87820E-19
 -1      2235 8.97829E-05-1.32742E-05-3.28435E-05 8.03730E-06 1.56603E-18-1.12434E-18
 -1      2236 9.08753E-05-1.51257E-05-3.24569E-05 6.85983E-06 1.46126E-18-1.12752E-18
 -1      2237 9.24486E-05-1.66838E-05-3.25721E-05 1.10518E-05 2.07083E-18-1.53260E-20
 -1      2238 9.13589E-05-1.53082E-05-3.26572E-05 1.00332E-05 1.93982E-18-4.65590E-19
 -1      2239 9.22948E-05-1.70845E-05-3.22123E-05 8.51916E-06 1.71831E-18-4.64981E-19
 -1      2240 9.54814E-05-2.08163E-05-3.20933E-05 1.17000E-05 2.00693E-18 1.29742E-18
 -1      2241 9.37985E-05-1.84760E-05-3.23193E-05 1.14657E-05 2.00373E-18 4.95355E-19
 -1      2242 9.43293E-05-2.00370E-05-3.17899E-05 9.47779E-06 1.90287E-18 2.84795E-19
 -1      2243 9.74856E-05-2.45884E-05-3.13047E-05 9.84394E-06 1.81157E-18 2.55154E-18
 -1      2244 9.62536E-05-2.22225E-05-3.17245E-05 1.10889E-05 1.92893E-18 1.85496E-18
 -1      2245 9.57939E-05-2.31910E-05-3.11139E-05 8.78847E-06 1.88890E-18 1.24836E-18
 -1      2246 9.62949E-05-2.56624E-05-3.02775E-05 6.87718E-06 1.70549E-18 2.31110E-18
 -1      2247 9.59234E-05-2.49800E-05-3.03597E-05-6.38131E-06-1.45472E-18-2.92456E-19
 -1      2248 9.52660E-05-2.57647E-05-2.98029E-05-4.42180E-06-1.33783E-18-3.20197E-19
 -1      2249 1.53657E-04-4.17335E-05-4.82481E-05 7.95453E-06 6.85726E-19-1.36690E-18
 -1      2250 1.46042E-04-4.87398E-05-4.18342E-05 1.33025E-05 9.06193E-20-2.22304E-18
 -1      2251 9.51654E-05-2.64798E-05-2.93786E-05-3.05275E-06-1.24331E-18-2.84359E-19
 -1      2252 9.46867E-05-2.68614E-05-2.90683E-05-1.95744E-06-1.16894E-18-3.93893E-19
 -1      2253 9.53395E-05-2.52673E-05-3.00386E-05-4.42097E-06-1.35073E-18-7.53152E-19
 -1      2254 9.44942E-05-2.72016E-05-2.88005E-05-1.08055E-06-1.05879E-18-3.73585E-19
 -1      2255 9.42315E-05-2.74195E-05-2.86310E-05-4.55692E-07-1.04631E-18-5.57358E-19
 -1      2256 9.50474E-05-2.66393E-05-2.93312E-05-1.99213E-06-1.17643E-18-8.80559E-19
 -1      2257 9.40844E-05-2.76036E-05-2.84685E-05 7.43099E-08-9.33600E-19-3.68277E-19
 -1      2258 9.39871E-05-2.77486E-05-2.83849E-05 4.23588E-07-8.04493E-19-4.41798E-19
 -1      2259 9.47470E-05-2.73847E-05-2.88828E-05-4.62028E-07-9.96076E-19-7.24095E-19
 -1      2260 9.39063E-05-2.78589E-05-2.82929E-05 7.28035E-07-5.88298E-19-3.75730E-19
 -1      2261 9.39192E-05-2.79661E-05-2.82627E-05 9.12034E-07-3.91488E-19-3.70798E-19
 -1      2262 9.45512E-05-2.78180E-05-2.86108E-05 4.55928E-07-7.07909E-19-5.90948E-19
 -1      2263 9.38952E-05-2.80370E-05-2.82181E-05 1.07381E-06-4.68979E-19-1.99982E-19
 -1      2264 9.39769E-05-2.81205E-05-2.82214E-05 1.15965E-06-3.52802E-19-9.33882E-20
 -1      2265 9.44693E-05-2.80853E-05-2.84583E-05 9.76847E-07-3.48913E-19-2.95841E-19
 -1      2266 9.39944E-05-2.81674E-05-2.82085E-05 1.23532E-06-4.49702E-19-8.59547E-20
 -1      2267 9.41168E-05-2.82335E-05-2.82329E-05 1.26642E-06-3.63989E-19-7.39194E-20
 -1      2268 9.44781E-05-2.82548E-05-2.83872E-05 1.24924E-06-4.07946E-19-1.35890E-19
 -1      2269 9.41626E-05-2.82637E-05-2.82417E-05 1.29550E-06-3.62444E-19-2.71686E-19
 -1      2270 9.43086E-05-2.83155E-05-2.82797E-05 1.30181E-06-4.08479E-19-3.48545E-19
 -1      2271 9.45511E-05-2.83600E-05-2.83716E-05 1.37603E-06-4.80981E-19-2.01715E-19
 -1      2272 9.43729E-05-2.83326E-05-2.83038E-05 1.31306E-06-4.77422E-19-3.35725E-19
 -1      2273 9.45336E-05-2.83722E-05-2.83514E-05 1.31675E-06-3.67370E-19-3.33920E-19
 -1      2274 9.46667E-05-2.84185E-05-2.83949E-05 1.43063E-06-5.10368E-19-3.86345E-19
 -1      2275 9.46100E-05-2.83773E-05-2.83871E-05 1.33244E-06-6.04240E-19-3.06401E-19
 -1      2276 9.47830E-05-2.84059E-05-2.84429E-05 1.35158E-06-4.30052E-19-6.80644E-19
 -1      2277 9.48095E-05-2.84387E-05-2.84467E-05 1.46790E-06-5.85409E-19-4.84321E-19
 -1      2278 9.48673E-05-2.83986E-05-2.84888E-05 1.39066E-06-4.44773E-19-7.80110E-19
 -1      2279 9.50552E-05-2.84165E-05-2.85535E-05 1.44202E-06-6.33531E-19-8.09760E-19
 -1      2280 9.49698E-05-2.84234E-05-2.85215E-05 1.53197E-06-6.44347E-19-2.09509E-19
 -1      2281 9.51441E-05-2.83940E-05-2.86099E-05 1.52270E-06-3.59885E-19-7.35743E-19
 -1      2282 9.53535E-05-2.84004E-05-2.86862E-05 1.62431E-06-2.39540E-19-8.50982E-19
 -1      2283 9.51406E-05-2.83696E-05-2.86174E-05 1.66220E-06-4.12275E-19-2.83095E-19
 -1      2284 9.54432E-05-2.83571E-05-2.87545E-05 1.76658E-06-3.91363E-19-6.61383E-19
 -1      2285 9.56841E-05-2.83492E-05-2.88468E-05 1.94034E-06-2.78756E-19-5.78840E-19
 -1      2286 9.53154E-05-2.82677E-05-2.87356E-05 1.89845E-06-2.14940E-19-1.85911E-19
 -1      2287 9.57679E-05-2.82753E-05-2.89297E-05 2.16846E-06 4.62828E-20-7.65430E-19
 -1      2288 9.60531E-05-2.82478E-05-2.90442E-05 2.44313E-06 4.80954E-19-7.75716E-19
 -1      2289 9.54839E-05-2.80995E-05-2.88792E-05 2.28605E-06-2.47017E-19-2.07607E-19
 -1      2290 9.61178E-05-2.81277E-05-2.91447E-05 2.78830E-06 5.69430E-19-8.12187E-19
 -1      2291 9.64622E-05-2.80717E-05-2.92894E-05 3.20263E-06 5.30756E-19-7.40552E-19
 -1      2292 9.56270E-05-2.78352E-05-2.90522E-05 2.88069E-06 5.27937E-19-6.14062E-19
 -1      2293 9.64836E-05-2.78820E-05-2.94098E-05 3.70557E-06 2.10031E-19-8.04968E-19
 -1      2294 9.69026E-05-2.77848E-05-2.95937E-05 4.31120E-06 2.04798E-19-9.65567E-19
 -1      2295 9.57089E-05-2.74296E-05-2.92582E-05 3.75308E-06 4.45023E-19-1.05432E-18
 -1      2296 9.68395E-05-2.74935E-05-2.97336E-05 5.02398E-06 1.78532E-19-9.93402E-19
 -1      2297 9.73466E-05-2.73409E-05-2.99653E-05 5.88608E-06 2.47262E-19-6.26291E-19
 -1      2298 9.56667E-05-2.68205E-05-2.94960E-05 4.99211E-06 8.21614E-20-5.44038E-19
 -1      2299 9.71345E-05-2.69110E-05-3.01170E-05 6.87184E-06-5.06698E-20-7.75573E-19
 -1      2300 9.77406E-05-2.66966E-05-3.04003E-05 8.06324E-06-5.42581E-19-2.59706E-19
 -1      2301 9.53988E-05-2.59332E-05-2.97527E-05 6.70460E-06 3.30368E-20-6.07376E-19
 -1      2302 9.72925E-05-2.61033E-05-3.05412E-05 9.39143E-06-5.14189E-19-1.61998E-19
 -1      2303 9.80119E-05-2.58574E-05-3.08668E-05 1.09710E-05 1.79233E-19 3.14650E-19
 -1      2304 9.47582E-05-2.47055E-05-2.99912E-05 9.00793E-06-2.31263E-19-6.42850E-19
 -1      2305 9.72420E-05-2.51365E-05-3.09456E-05 1.27057E-05 2.75382E-19 1.81722E-19
 -1      2306 9.81265E-05-2.49986E-05-3.12749E-05 1.46657E-05 2.80388E-19-1.45093E-19
 -1      2307 9.35718E-05-2.31614E-05-3.01271E-05 1.20127E-05 1.35194E-19-7.43526E-19
 -1      2308 9.70348E-05-2.43640E-05-3.11916E-05 1.68521E-05 4.90902E-19-1.46492E-19
 -1      2309 9.82919E-05-2.47473E-05-3.14362E-05 1.90157E-05 5.81766E-19-1.04056E-19
 -1      2310 9.17291E-05-2.15830E-05-2.99938E-05 1.58026E-05 4.38889E-19-6.83786E-19
 -1      2311 9.71968E-05-2.48294E-05-3.10223E-05 2.16608E-05 4.10027E-19 2.67457E-19
 -1      2312 9.94570E-05-2.67215E-05-3.10413E-05 2.35220E-05 9.38188E-19 2.35151E-20
 -1      2313 8.94489E-05-2.08820E-05-2.92971E-05 2.04495E-05 7.74476E-19-6.19914E-19
 -1      2314 9.95252E-05-2.89250E-05-3.01048E-05 2.63569E-05 1.21434E-18-1.99754E-19
 -1      2315 1.04111E-04-3.39627E-05-2.98230E-05 2.68671E-05 1.29035E-18-3.48131E-19
 -1      2316 8.80188E-05-2.33792E-05-2.76190E-05 2.59409E-05 7.11799E-19-5.87550E-19
 -1      2317 1.07505E-04-3.98576E-05-2.85342E-05 2.87576E-05 1.65849E-18-8.76044E-19
 -1      2318 1.15518E-04-4.85956E-05-2.83694E-05 2.65718E-05 1.57622E-18-1.20130E-18
 -1      2319 9.04478E-05-3.23320E-05-2.48490E-05 3.15647E-05 1.13397E-18-1.06011E-18
 -1      2320 1.29766E-04-5.95453E-05-2.95345E-05 2.25796E-05 1.45203E-18-1.13164E-18
 -1      2321 1.41477E-04-6.68074E-05-3.18359E-05 1.55258E-05 6.18122E-19-7.13413E-19
 -1      2322 1.68369E-04-4.56469E-05-5.28316E-05-2.63395E-05-3.52662E-18 5.66030E-19
 -1      2323 1.63914E-04-5.60834E-05-4.74105E-05-2.61615E-05-2.22166E-18 1.27664E-18
 -1      2324 1.61830E-04-4.74297E-05-4.94043E-05-2.73342E-05-2.97436E-18 7.53753E-19
 -1      2325 1.80882E-04-5.52456E-05-5.38584E-05-1.84407E-05-3.90630E-18 3.78624E-19
 -1      2326 1.45741E-04-6.83754E-05-3.34373E-05 1.23017E-05-4.25634E-19-1.19813E-18
 -1      2327 9.50334E-05-1.99536E-05-3.22282E-05-1.18251E-05-1.64467E-18-6.59945E-19
 -1      2328 9.54556E-05-2.32289E-05-3.09777E-05-8.13876E-06-1.59117E-18-4.29629E-19
 -1      2329 9.50208E-05-2.24276E-05-3.10965E-05-7.76370E-06-1.56556E-18-8.59705E-19
 -1      2330 9.32129E-05-1.76429E-05-3.24145E-05-1.13537E-05-1.59360E-18-1.26086E-18
 -1      2331 1.17182E-04-4.27340E-05-3.17713E-05-2.44961E-05 1.62810E-18 5.50743E-19
 -1      2332 1.10826E-04-3.59649E-05-3.17839E-05-2.60516E-05 2.43511E-18 1.66801E-18
 -1      2333 1.07270E-04-3.17740E-05-3.22671E-05-2.45404E-05 2.06996E-18 1.64033E-19
 -1      2334 1.03658E-04-2.85131E-05-3.21355E-05-2.34313E-05 9.81509E-19 7.19058E-19
 -1      2335 1.03451E-04-2.74816E-05-3.24824E-05-2.08872E-05-4.73906E-19 2.31715E-19
 -1      2336 1.01240E-04-2.63217E-05-3.21202E-05-1.88571E-05-3.90902E-19-5.91004E-20
 -1      2337 9.45469E-05-2.42887E-05-3.00700E-05-2.33256E-05 1.06442E-19 1.23084E-18
 -1      2338 1.01669E-04-2.65080E-05-3.21421E-05-1.64488E-05-2.53362E-19 1.89913E-19
 -1      2339 1.00134E-04-2.62390E-05-3.16975E-05-1.43733E-05-1.01707E-18-3.99069E-19
 -1      2340 9.49338E-05-2.32266E-05-3.06839E-05-1.83607E-05-3.88698E-19 7.34122E-19
 -1      2341 1.00526E-04-2.67541E-05-3.15524E-05-1.23646E-05-2.21526E-19-9.65531E-19
 -1      2342 9.93557E-05-2.67797E-05-3.11271E-05-1.06080E-05 2.77946E-19-4.59990E-19
 -1      2343 9.57761E-05-2.40127E-05-3.07180E-05-1.39770E-05-7.78092E-19 3.17699E-19
 -1      2344 9.95585E-05-2.72689E-05-3.09256E-05-9.03608E-06-7.11044E-20-2.04206E-18
 -1      2345 9.86385E-05-2.73555E-05-3.05653E-05-7.67864E-06-1.03223E-18-1.93344E-18
 -1      2346 9.63587E-05-2.51969E-05-3.04721E-05-1.03970E-05-5.07313E-19-1.27593E-18
 -1      2347 9.86800E-05-2.77238E-05-3.03650E-05-6.49651E-06-1.08209E-18-1.90479E-18
 -1      2348 9.79597E-05-2.77976E-05-3.00788E-05-5.49787E-06-4.75311E-19-1.27418E-18
 -1      2349 9.65930E-05-2.62427E-05-3.01347E-05-7.61171E-06-7.79970E-19-2.20516E-18
 -1      2350 9.79023E-05-2.80468E-05-2.99040E-05-4.63149E-06 5.42156E-19-1.36770E-18
 -1      2351 9.73458E-05-2.80934E-05-2.96850E-05-3.91606E-06 1.17763E-18-1.99298E-18
 -1      2352 9.65758E-05-2.70234E-05-2.98002E-05-5.51740E-06 5.77041E-20-1.67577E-18
 -1      2353 9.72416E-05-2.82514E-05-2.95422E-05-3.29047E-06 1.99878E-18-2.69430E-18
 -1      2354 9.68175E-05-2.82746E-05-2.93783E-05-2.78418E-06 1.09417E-18-2.63502E-18
 -1      2355 9.64187E-05-2.75590E-05-2.95081E-05-3.97748E-06 7.25733E-19-1.72446E-18
 -1      2356 9.66997E-05-2.83696E-05-2.92663E-05-2.33504E-06-9.17375E-19-2.41338E-18
 -1      2357 9.63802E-05-2.83767E-05-2.91455E-05-1.97712E-06-2.52277E-18-2.13307E-18
 -1      2358 9.62034E-05-2.79073E-05-2.92692E-05-2.85904E-06 1.88763E-19-2.58555E-18
 -1      2359 9.62670E-05-2.84302E-05-2.90601E-05-1.65361E-06-2.37856E-18-1.42564E-18
 -1      2360 9.60287E-05-2.84270E-05-2.89724E-05-1.39784E-06-1.65281E-18-1.99063E-18
 -1      2361 9.59795E-05-2.81240E-05-2.90817E-05-2.04923E-06-2.19341E-18-1.93727E-18
 -1      2362 9.59278E-05-2.84533E-05-2.89086E-05-1.16143E-06-1.28518E-18-2.41281E-18
 -1      2363 9.57517E-05-2.84435E-05-2.88460E-05-9.73627E-07-8.12395E-19-2.96250E-18
 -1      2364 9.57719E-05-2.82510E-05-2.89387E-05-1.45907E-06-1.73248E-18-1.63728E-18
 -1      2365 9.56649E-05-2.84525E-05-2.87994E-05-7.95475E-07-3.39296E-19-4.32472E-18
 -1      2366 9.55370E-05-2.84382E-05-2.87557E-05-6.52396E-07-7.40515E-19-4.57064E-18
 -1      2367 9.55897E-05-2.83177E-05-2.88323E-05-1.02132E-06-1.53317E-18-2.99248E-18
 -1      2368 9.54835E-05-2.84434E-05-2.87274E-05-5.32605E-07 1.46080E-20-4.37785E-18
 -1      2369 9.53920E-05-2.84307E-05-2.86957E-05-4.17351E-07-5.52244E-19-3.33763E-18
 -1      2370 9.53547E-05-2.83661E-05-2.87085E-05-4.78653E-07-9.31201E-20-4.42004E-18
 -1      2371 9.54534E-05-2.83462E-05-2.87600E-05-7.10842E-07-2.18880E-19-4.14059E-18
 -1      2372 9.37263E-05-2.78377E-05-2.82340E-05-7.14297E-07 7.92654E-19 5.22191E-19
 -1      2373 9.37499E-05-2.77231E-05-2.82794E-05-4.73379E-07 9.22187E-19 7.06367E-19
 -1      2374 9.38717E-05-2.76010E-05-2.83968E-05-8.04767E-08 8.25114E-19 6.66854E-19
 -1      2375 9.40407E-05-2.74467E-05-2.85089E-05 3.66761E-07 8.00350E-19 9.01121E-19
 -1      2376 9.44601E-05-2.76413E-05-2.86490E-05-9.45836E-08 9.58406E-19 3.61738E-19
 -1      2377 9.42369E-05-2.72261E-05-2.87126E-05 1.03795E-06 8.28205E-19 8.72150E-19
 -1      2378 9.45925E-05-2.69832E-05-2.89367E-05 1.84528E-06 9.69413E-19 1.10750E-18
 -1      2379 9.47404E-05-2.71337E-05-2.89895E-05 1.07133E-06 9.61224E-19 4.43814E-19
 -1      2380 9.37439E-05-2.80080E-05-2.81692E-05-1.04797E-06 5.93963E-19 2.37673E-19
 -1      2381 9.36771E-05-2.79161E-05-2.81737E-05-9.29977E-07 5.66073E-19 3.33578E-19
 -1      2382 9.43185E-05-2.79488E-05-2.84536E-05-7.71816E-07 7.76973E-19 2.41930E-19
 -1      2383 9.38685E-05-2.81394E-05-2.81669E-05-1.19887E-06 5.91881E-19 1.00341E-19
 -1      2384 9.37489E-05-2.80629E-05-2.81466E-05-1.15328E-06 6.87899E-19 1.92044E-19
 -1      2385 9.42944E-05-2.81480E-05-2.83552E-05-1.13606E-06 7.19705E-19 2.10395E-19
 -1      2386 9.40583E-05-2.82444E-05-2.82036E-05-1.24389E-06 3.83914E-19 4.07374E-19
 -1      2387 9.39102E-05-2.81798E-05-2.81686E-05-1.23841E-06 3.97619E-19 2.17375E-19
 -1      2388 9.43543E-05-2.82826E-05-2.83210E-05-1.30702E-06 5.22488E-19 7.84111E-20
 -1      2389 9.42854E-05-2.83310E-05-2.82640E-05-1.23403E-06 5.14431E-19 4.98495E-19
 -1      2390 9.41236E-05-2.82754E-05-2.82209E-05-1.24767E-06 5.05563E-19 4.80128E-19
 -1      2391 9.44697E-05-2.83758E-05-2.83290E-05-1.36540E-06 3.21863E-19 1.05311E-19
 -1      2392 9.45335E-05-2.84056E-05-2.83385E-05-1.20244E-06 3.36520E-19 7.62457E-19
 -1      2393 9.43661E-05-2.83562E-05-2.82911E-05-1.22194E-06 7.00284E-19 8.19523E-19
 -1      2394 9.46207E-05-2.84423E-05-2.83642E-05-1.36543E-06 5.34764E-19 1.44318E-19
 -1      2395 9.47945E-05-2.84750E-05-2.84208E-05-1.16881E-06 4.30709E-19 3.44668E-19
 -1      2396 9.46249E-05-2.84285E-05-2.83715E-05-1.18685E-06 3.91665E-19 5.77722E-19
 -1      2397 9.47955E-05-2.84936E-05-2.84165E-05-1.34232E-06 5.80465E-19 4.42901E-19
 -1      2398 9.50658E-05-2.85468E-05-2.85067E-05-1.14156E-06-1.47843E-19 5.98396E-19
 -1      2399 9.48950E-05-2.84992E-05-2.84569E-05-1.15591E-06 3.20577E-20 5.83641E-19
 -1      2400 9.49887E-05-2.85405E-05-2.84789E-05-1.31658E-06 1.74187E-19 9.19209E-19
 -1      2401 9.53480E-05-2.86297E-05-2.85927E-05-1.11840E-06-8.85791E-20-2.58037E-19
 -1      2402 9.51761E-05-2.85768E-05-2.85439E-05-1.13188E-06-3.83905E-20 1.48172E-19
 -1      2403 9.52004E-05-2.85946E-05-2.85463E-05-1.29603E-06 2.96566E-19 7.63883E-19
 -1      2404 9.56427E-05-2.87337E-05-2.86755E-05-1.08594E-06 3.69559E-19-5.92067E-19
 -1      2405 9.54704E-05-2.86709E-05-2.86293E-05-1.10671E-06 9.01323E-20-6.36789E-19
 -1      2406 9.54342E-05-2.86689E-05-2.86146E-05-1.27634E-06 3.24665E-19-3.38059E-19
 -1      2407 9.59498E-05-2.88695E-05-2.87508E-05-1.01869E-06-1.67983E-19-4.54183E-19
 -1      2408 9.57802E-05-2.87924E-05-2.87094E-05-1.06071E-06 4.42157E-20-5.46185E-19
 -1      2409 9.56960E-05-2.87787E-05-2.86799E-05-1.24040E-06 1.58008E-19-5.02290E-19
 -1      2410 9.62651E-05-2.90465E-05-2.88127E-05-8.78328E-07 3.72935E-19-2.42318E-19
 -1      2411 9.61054E-05-2.89520E-05-2.87796E-05-9.61515E-07 3.52717E-19-4.25176E-19
 -1      2412 9.59925E-05-2.89403E-05-2.87377E-05-1.15725E-06-5.02650E-20-5.17832E-19
 -1      2413 9.65760E-05-2.92697E-05-2.88538E-05-6.14632E-07-3.27645E-19 2.92063E-19
 -1      2414 9.64395E-05-2.91582E-05-2.88336E-05-7.63979E-07 1.05057E-19 1.78794E-19
 -1      2415 9.63280E-05-2.91689E-05-2.87834E-05-9.81499E-07 8.81681E-20-9.11912E-20
 -1      2416 9.68577E-05-2.95338E-05-2.88656E-05-1.69890E-07-9.37006E-19 7.32328E-20
 -1      2417 9.67659E-05-2.94119E-05-2.88641E-05-4.12486E-07-7.90412E-19 1.13143E-19
 -1      2418 9.67005E-05-2.94736E-05-2.88121E-05-6.54696E-07-3.88445E-19 4.62223E-19
 -1      2419 9.70674E-05-2.98150E-05-2.88394E-05 5.10454E-07-9.64684E-19 3.26409E-19
 -1      2420 9.70511E-05-2.97000E-05-2.88626E-05 1.51728E-07-9.00543E-19 2.41068E-19
 -1      2421 9.70949E-05-2.98487E-05-2.88196E-05-1.11117E-07-9.38303E-19 2.67424E-20
 -1      2422 9.71406E-05-3.00610E-05-2.87690E-05 1.45840E-06-1.34826E-19 5.21139E-19
 -1      2423 9.72394E-05-2.99844E-05-2.88219E-05 9.75475E-07-3.04227E-19 6.36227E-19
 -1      2424 9.74740E-05-3.02606E-05-2.88038E-05 7.09001E-07-7.40100E-19-3.00059E-19
 -1      2425 9.69900E-05-3.01844E-05-2.86526E-05 2.65423E-06-1.37424E-19 1.13682E-18
 -1      2426 9.72484E-05-3.01939E-05-2.87377E-05 2.06851E-06-1.51440E-19 8.00739E-19
 -1      2427 9.77685E-05-3.06348E-05-2.87669E-05 1.83562E-06-3.36593E-19 8.03070E-19
 -1      2428 9.65160E-05-3.00666E-05-2.84965E-05 3.99154E-06 1.96661E-19 9.44398E-19
 -1      2429 9.69728E-05-3.02201E-05-2.86116E-05 3.36932E-06 2.28294E-19 1.06576E-18
 -1      2430 9.78714E-05-3.08465E-05-2.87165E-05 3.23339E-06-1.27607E-19 7.26067E-19
 -1      2431 9.56344E-05-2.95855E-05-2.83157E-05 5.24970E-06 4.72845E-19 9.59030E-19
 -1      2432 9.63047E-05-2.99339E-05-2.84526E-05 4.71052E-06 3.69483E-19 8.56309E-19
 -1      2433 9.76471E-05-3.07313E-05-2.86656E-05 4.75962E-06 4.43843E-19 4.88868E-19
 -1      2434 9.43274E-05-2.86727E-05-2.81323E-05 6.09866E-06 6.57668E-19 1.30444E-18
 -1      2435 9.51790E-05-2.92285E-05-2.82773E-05 5.80428E-06 5.70377E-19 1.27592E-18
 -1      2436 9.69690E-05-3.01301E-05-2.86304E-05 6.13387E-06 3.03146E-19 1.24236E-18
 -1      2437 9.27048E-05-2.73897E-05-2.79705E-05 6.16576E-06 4.01388E-19 1.35540E-18
 -1      2438 9.36389E-05-2.80928E-05-2.81060E-05 6.27868E-06 9.73302E-19 1.40241E-18
 -1      2439 9.57914E-05-2.89741E-05-2.86234E-05 6.95219E-06 7.89139E-19 2.24088E-18
 -1      2440 9.10412E-05-2.59799E-05-2.78496E-05 5.17429E-06-9.54444E-19 1.00097E-18
 -1      2441 9.18943E-05-2.66840E-05-2.79582E-05 5.78840E-06-7.81495E-19 8.63564E-19
 -1      2442 9.42366E-05-2.73851E-05-2.86471E-05 6.78325E-06 5.25344E-20 2.25380E-18
 -1      2443 8.97384E-05-2.48344E-05-2.77800E-05 3.11447E-06 1.19880E-19 1.48322E-18
 -1      2444 9.03201E-05-2.53415E-05-2.78475E-05 4.18462E-06-3.01746E-19 9.90044E-19
 -1      2445 9.26395E-05-2.57235E-05-2.86888E-05 5.35180E-06-3.96709E-19 1.38609E-18
 -1      2446 8.91827E-05-2.43386E-05-2.77631E-05 3.37789E-07 2.22439E-19 1.61027E-18
 -1      2447 8.93437E-05-2.44822E-05-2.77810E-05 1.66024E-06 3.42220E-19 1.64397E-18
 -1      2448 9.14717E-05-2.44983E-05-2.87257E-05 2.74311E-06 1.19049E-19 1.81202E-18
 -1      2449 8.95640E-05-2.46786E-05-2.77966E-05-2.52422E-06-2.29112E-20 1.97916E-18
 -1      2450 8.92603E-05-2.44077E-05-2.77628E-05-1.25151E-06 1.36199E-19 1.68993E-18
 -1      2451 9.11390E-05-2.41488E-05-2.87369E-05-5.25855E-07-1.95662E-19 2.09319E-18
 -1      2452 9.07714E-05-2.57332E-05-2.78772E-05-4.80136E-06 2.08185E-20 1.34295E-18
 -1      2453 9.00851E-05-2.51423E-05-2.77957E-05-3.86090E-06 4.00393E-19 1.77842E-18
 -1      2454 9.17658E-05-2.48075E-05-2.87158E-05-3.66519E-06 4.86678E-19 2.01494E-18
 -1      2455 9.24462E-05-2.71401E-05-2.80010E-05-6.05656E-06 7.35117E-19 3.43145E-19
 -1      2456 9.15476E-05-2.64168E-05-2.78821E-05-5.60387E-06 1.25866E-19 7.32621E-19
 -1      2457 9.31214E-05-2.62263E-05-2.86747E-05-5.93807E-06 6.72447E-19 1.04022E-18
 -1      2458 9.41600E-05-2.84894E-05-2.81590E-05-6.21598E-06 6.51639E-19 1.62625E-18
 -1      2459 9.32369E-05-2.78220E-05-2.80182E-05-6.24593E-06 1.00761E-18 1.10926E-18
 -1      2460 9.47524E-05-2.79145E-05-2.86375E-05-6.96088E-06 9.99606E-19 3.75370E-19
 -1      2461 9.55852E-05-2.94957E-05-2.83353E-05-5.50953E-06 6.49147E-19 8.65366E-19
 -1      2462 9.47825E-05-2.90038E-05-2.81905E-05-5.89818E-06 7.42296E-19 1.33976E-18
 -1      2463 9.62151E-05-2.93921E-05-2.86245E-05-6.78094E-06 9.80111E-19 1.26380E-18
 -1      2464 9.65681E-05-3.00599E-05-2.85098E-05-4.30782E-06 1.01936E-18 2.03448E-19
 -1      2465 9.59621E-05-2.97777E-05-2.83774E-05-4.88595E-06 9.06284E-19 4.76417E-19
 -1      2466 9.72408E-05-3.03731E-05-2.86433E-05-5.74558E-06 1.18002E-18 4.42673E-19
 -1      2467 9.71084E-05-3.02322E-05-2.86630E-05-2.96549E-06 1.48831E-18-4.37623E-19
 -1      2468 9.67133E-05-3.01311E-05-2.85552E-05-3.58125E-06 1.34998E-18-5.52747E-19
 -1      2469 9.77687E-05-3.08044E-05-2.86878E-05-4.29476E-06 1.59027E-18-5.13910E-19
 -1      2470 9.72923E-05-3.01332E-05-2.87813E-05-1.73431E-06 1.42664E-18-2.41734E-18
 -1      2471 9.70823E-05-3.01574E-05-2.87038E-05-2.28441E-06 1.60770E-18-1.00557E-18
 -1      2472 9.78802E-05-3.07945E-05-2.87440E-05-2.80056E-06 1.87271E-18-6.13866E-19
 -1      2473 9.72317E-05-2.98889E-05-2.88586E-05-7.46667E-07-2.78496E-19-2.79241E-18
 -1      2474 9.71638E-05-2.99822E-05-2.88117E-05-1.17968E-06 1.22274E-19-2.80565E-18
 -1      2475 9.77120E-05-3.05113E-05-2.87969E-05-1.49986E-06 1.11874E-18-4.33110E-19
 -1      2476 9.70276E-05-2.95966E-05-2.88961E-05-3.94254E-08-1.04762E-18-1.36559E-18
 -1      2477 9.70570E-05-2.97161E-05-2.88760E-05-3.44107E-07-5.63291E-19-2.09740E-18
 -1      2478 9.73941E-05-3.01096E-05-2.88353E-05-4.98889E-07-5.61532E-19-9.96991E-19
 -1      2479 9.67561E-05-2.93166E-05-2.88999E-05 4.10038E-07-7.15875E-19-5.64728E-20
 -1      2480 9.68443E-05-2.94353E-05-2.89006E-05 2.20571E-07-6.77262E-19-4.32378E-20
 -1      2481 9.70228E-05-2.96981E-05-2.88539E-05 1.89906E-07-1.67106E-18 1.37475E-19
 -1      2482 9.64675E-05-2.90781E-05-2.88789E-05 6.51978E-07-4.98202E-19-1.69592E-18
 -1      2483 9.65850E-05-2.91824E-05-2.88938E-05 5.53852E-07-8.67146E-20-6.63649E-19
 -1      2484 9.66576E-05-2.93369E-05-2.88529E-05 6.06808E-07-1.03157E-19 1.33143E-19
 -1      2485 9.61917E-05-2.88892E-05-2.88421E-05 7.42360E-07 1.47668E-18-2.99198E-18
 -1      2486 9.63180E-05-2.89745E-05-2.88652E-05 7.10163E-07 2.54291E-19-2.47696E-18
 -1      2487 9.63291E-05-2.90491E-05-2.88358E-05 8.12696E-07 7.55787E-19-7.29222E-19
 -1      2488 9.59445E-05-2.87461E-05-2.87978E-05 7.30644E-07-6.40633E-20-2.22525E-18
 -1      2489 9.60661E-05-2.88130E-05-2.88241E-05 7.42474E-07 8.77488E-19-2.80950E-18
 -1      2490 9.60484E-05-2.88342E-05-2.88076E-05 8.68798E-07 1.03292E-18-1.61736E-18
 -1      2491 9.57320E-05-2.86399E-05-2.87524E-05 6.54812E-07-1.38033E-18-1.27136E-18
 -1      2492 9.58412E-05-2.86914E-05-2.87784E-05 6.94275E-07-9.75284E-19-1.79024E-18
 -1      2493 9.58160E-05-2.86805E-05-2.87738E-05 8.26873E-07-1.34346E-18-5.22011E-19
 -1      2494 9.55548E-05-2.85601E-05-2.87107E-05 5.40941E-07-1.26435E-18-9.51235E-19
 -1      2495 9.56479E-05-2.86001E-05-2.87338E-05 5.96968E-07-7.50705E-19-8.85803E-19
 -1      2496 9.56270E-05-2.85721E-05-2.87392E-05 7.25076E-07-1.30817E-18-1.17542E-18
 -1      2497 9.54111E-05-2.84997E-05-2.86744E-05 4.06324E-07-1.33527E-19-2.17385E-18
 -1      2498 9.54868E-05-2.85304E-05-2.86941E-05 4.70001E-07-6.79410E-19-1.14048E-18
 -1      2499 9.54735E-05-2.84937E-05-2.87068E-05 5.88165E-07-3.82604E-19-3.67490E-19
 -1      2500 9.53214E-05-2.84403E-05-2.86624E-05 3.35309E-07-4.83427E-19-1.44311E-18
 -1      2501 9.49846E-05-2.78944E-05-2.87549E-05 5.07887E-07-5.95585E-19 1.04427E-18
 -1      2502 9.50384E-05-2.79774E-05-2.87393E-05 5.26147E-07-6.08797E-19-8.93011E-19
 -1      2503 9.50947E-05-2.80649E-05-2.87281E-05 5.29821E-07-1.15769E-18-1.77747E-18
 -1      2504 9.51466E-05-2.81476E-05-2.87122E-05 5.17450E-07-1.37595E-18-1.73148E-18
 -1      2505 9.50666E-05-2.80305E-05-2.87299E-05 6.16658E-07-1.07665E-18-5.49062E-19
 -1      2506 9.51973E-05-2.82299E-05-2.87007E-05 4.90530E-07-1.54444E-18-1.73792E-18
 -1      2507 9.52458E-05-2.83092E-05-2.86852E-05 4.53515E-07-4.42985E-19-7.13510E-19
 -1      2508 9.51883E-05-2.82023E-05-2.87091E-05 5.88666E-07-1.13482E-18-1.76733E-18
 -1      2509 2.74951E-05-2.12325E-05-2.39644E-06 3.26784E-05-1.08950E-18 1.49671E-18
 -1      2510 1.84963E-05-1.84237E-05 2.83929E-07 1.81072E-05-2.28064E-19 7.57247E-19
 -1      2511 9.48789E-05-2.77340E-05-2.87790E-05 4.20737E-07-1.36954E-18-1.15539E-18
 -1      2512 9.49287E-05-2.78073E-05-2.87656E-05 4.69608E-07-5.18285E-19 7.33283E-19
 -1      2513 9.49358E-05-2.78526E-05-2.87495E-05 5.72838E-07-1.09812E-18 1.37513E-18
 -1      2514 9.47897E-05-2.76030E-05-2.87974E-05 2.70770E-07-2.67778E-18-1.61247E-18
 -1      2515 9.48288E-05-2.76569E-05-2.87879E-05 3.47412E-07-2.19365E-18-1.09380E-18
 -1      2516 9.48108E-05-2.76845E-05-2.87673E-05 4.55310E-07-1.69156E-18-1.69246E-18
 -1      2517 9.47325E-05-2.75210E-05-2.88079E-05 7.03315E-08-1.97377E-18 9.96272E-19
 -1      2518 9.47533E-05-2.75467E-05-2.88036E-05 1.67190E-07-2.45900E-18-1.18637E-18
 -1      2519 9.47086E-05-2.75475E-05-2.87814E-05 2.67380E-07-1.50077E-18-1.11002E-18
 -1      2520 9.47223E-05-2.75060E-05-2.88094E-05-1.56742E-07 1.90237E-19 2.25225E-18
 -1      2521 9.47182E-05-2.74967E-05-2.88109E-05-5.24275E-08-1.25327E-18 3.52433E-18
 -1      2522 9.46487E-05-2.74642E-05-2.87906E-05 2.54037E-08 2.68054E-19 2.75389E-18
 -1      2523 9.47689E-05-2.75670E-05-2.88021E-05-3.72348E-07 8.86807E-19 8.38536E-19
 -1      2524 9.47367E-05-2.75218E-05-2.88090E-05-2.79189E-07 1.16198E-18-5.68753E-19
 -1      2525 9.46496E-05-2.74549E-05-2.87944E-05-2.38398E-07 9.84685E-19 1.87418E-18
 -1      2526 9.48757E-05-2.77060E-05-2.87868E-05-5.43138E-07 1.79173E-18 4.14654E-18
 -1      2527 9.48156E-05-2.76269E-05-2.87984E-05-4.76699E-07 8.44656E-19 2.24305E-18
 -1      2528 9.47225E-05-2.75316E-05-2.87928E-05-4.84498E-07 1.99462E-18 1.35961E-18
 -1      2529 9.50300E-05-2.79078E-05-2.87650E-05-6.26939E-07 1.66604E-18 2.43299E-18
 -1      2530 9.49504E-05-2.78054E-05-2.87799E-05-6.04790E-07 1.24639E-18 4.47109E-18
 -1      2531 9.48673E-05-2.76945E-05-2.87857E-05-6.67415E-07 1.15981E-18 3.72955E-18
 -1      2532 9.52063E-05-2.81454E-05-2.87379E-05-5.99666E-07 8.10315E-19-3.97286E-19
 -1      2533 9.51222E-05-2.80336E-05-2.87550E-05-6.30006E-07 6.36323E-19 4.15207E-19
 -1      2534 9.50641E-05-2.79242E-05-2.87726E-05-7.42415E-07-2.36638E-19 1.47402E-18
 -1      2535 1.38148E-04-5.56189E-05-3.55866E-05 2.68878E-05-6.32945E-19-3.08384E-18
 -1      2536 1.24212E-04-5.66075E-05-2.88918E-05 3.44415E-05-1.21168E-18-3.32471E-18
 -1      2537 5.88894E-05-3.45389E-05-1.00846E-05 4.85594E-05-1.96850E-18-3.88809E-18
 -1      2538 4.40729E-05-2.87072E-05-6.08102E-06 4.14904E-05-1.47786E-18-1.06239E-18
 -1      2539 1.79324E-04-5.16447E-05-5.38112E-05 1.75069E-05-8.10611E-19 6.68309E-19
 -1      2540 1.35123E-04-5.97236E-05-3.21859E-05-1.68759E-05 1.29215E-18-3.48541E-19
 -1      2541 1.25175E-04-5.09675E-05-3.13101E-05-2.30720E-05 1.10045E-18 2.46566E-19
 -1      2542 1.59548E-05-1.67227E-05 5.28123E-07 4.80502E-06 2.84285E-20 7.83505E-20
 -1      2543 2.14615E-05-1.72446E-05-1.40532E-06-1.08789E-05 9.12149E-19 7.62753E-19
 -1      2544 8.78611E-05-1.07909E-05-3.30659E-05-1.51649E-06 2.07426E-19-1.96099E-18
 -1      2545 8.79665E-05-1.09137E-05-3.30569E-05-2.63409E-06-3.90129E-20-1.98293E-18
 -1      2546 8.93638E-05-1.30830E-05-3.26939E-05-2.92476E-06-5.25541E-20-1.81305E-18
 -1      2547 8.91148E-05-1.27457E-05-3.27328E-05-9.39172E-07 2.58922E-19-1.80002E-18
 -1      2548 1.50396E-04-1.16611E-05-5.98243E-05 3.49810E-06 1.93378E-18-1.55706E-18
 -1      2549 1.51119E-04-8.92150E-06-6.15288E-05 1.45845E-06 1.61953E-18-9.45765E-19
 -1      2550 1.54445E-04-2.48962E-05-5.60239E-05-2.06876E-06 7.53436E-19-2.57710E-18
 -1      2551 1.53842E-04-3.29654E-05-5.21454E-05 1.77428E-06 7.75247E-19-1.87110E-18
 -1      2552 1.47966E-04-3.81733E-05-4.71452E-05-2.54996E-06 9.56618E-19-1.72922E-18
 -1      2553 1.52693E-04-2.97515E-05-5.30132E-05 1.22777E-06 6.24052E-19-5.68994E-19
 -1      2554 1.51717E-04-2.13713E-05-5.65294E-05 4.26327E-06 9.63500E-19-7.27601E-19
 -1      2555 1.47887E-04-4.69067E-05-4.35668E-05-1.15468E-05-8.08546E-19-8.31363E-19
 -1      2556 1.52886E-04-4.00167E-05-4.88628E-05-5.02325E-06 1.43784E-19 6.96685E-20
 -1      2557 1.32168E-04-5.58777E-05-3.26747E-05-2.85091E-05-1.78597E-18-1.38193E-18
 -1      2558 1.43856E-04-5.30717E-05-3.91519E-05-2.17159E-05-1.33259E-18-1.64261E-18
 -1      2559 1.45102E-04-5.21448E-05-3.97892E-05-9.12755E-06-1.83592E-18 2.25734E-19
 -1      2560 9.56315E-05-5.14012E-05-1.86638E-05-4.61971E-05-1.51111E-18-1.25702E-18
 -1      2561 1.15690E-04-5.57376E-05-2.59007E-05-4.21785E-05-1.61233E-18-1.22608E-18
 -1      2562 5.42520E-05-3.57536E-05-7.58755E-06-4.61509E-05-1.40819E-18-1.75378E-18
 -1      2563 7.21841E-05-4.25442E-05-1.27967E-05-5.08567E-05-1.21507E-18-1.67289E-18
 -1      2564 2.36581E-05-2.23339E-05-3.48502E-07-2.79123E-05-1.45319E-18-3.07388E-18
 -1      2565 3.51452E-05-2.65663E-05-3.57589E-06-3.97118E-05-1.39168E-18-2.46084E-18
 -1      2566 1.57294E-05-1.64853E-05 6.02654E-07-2.58485E-06-6.41025E-19-2.80495E-18
 -1      2567 1.65961E-05-1.83499E-05 9.51988E-07-1.69333E-05-9.94099E-19-3.74007E-18
 -1      2568 2.56854E-05-1.61558E-05-3.62088E-06-2.29845E-05-1.03253E-18-3.08744E-18
 -1      2569 3.50863E-05-2.84010E-05-2.87121E-06 2.73090E-05-4.73491E-19-2.06125E-18
 -1      2570 2.29799E-05-2.05722E-05-7.78711E-07 1.48037E-05-3.29602E-19-2.17687E-18
 -1      2571 7.48050E-05-4.56942E-05-1.26235E-05 3.93425E-05 7.19978E-21-1.44049E-18
 -1      2572 5.31605E-05-3.68380E-05-6.87524E-06 3.33733E-05 1.07150E-19-1.76162E-18
 -1      2573 1.25767E-04-6.54639E-05-2.62532E-05 2.93166E-05 3.34578E-19-2.28868E-18
 -1      2574 1.01646E-04-5.70959E-05-1.90543E-05 3.40616E-05 4.84503E-19-2.66993E-18
 -1      2575 1.29024E-04-6.54124E-05-2.73643E-05-2.40476E-05 1.04100E-18 1.87798E-18
 -1      2576 1.48631E-04-6.97259E-05-3.40181E-05-1.64849E-05-1.80418E-19 7.73341E-19
 -1      2577 3.52394E-05-2.58298E-05-3.74158E-06-2.61480E-05 1.86453E-18 1.02915E-18
 -1      2578 5.11636E-05-3.46623E-05-6.94173E-06-3.50850E-05 2.49705E-18 4.58880E-19
 -1      2579 9.53125E-05-2.83948E-05-2.86798E-05 4.37305E-07-2.75703E-19-5.59395E-19
 -1      2580 1.75536E-04-6.51746E-05-4.76794E-05 1.14945E-05 4.09911E-19-1.85924E-19
 -1      2581 1.62644E-04-6.66823E-05-4.11809E-05 1.26543E-06-2.58451E-19-4.19705E-19
 -1      2582 1.59159E-04-6.83051E-05-3.90129E-05 1.12525E-06-1.83594E-19-1.04969E-18
 -1      2583 9.08123E-05-1.50471E-05-3.24667E-05-6.79505E-06-9.45107E-19-1.88788E-18
 -1      2584 8.97176E-05-1.31832E-05-3.28526E-05-7.96011E-06-1.06679E-18-2.04666E-18
 -1      2585 9.03707E-05-1.39640E-05-3.28058E-05-9.13312E-06-1.36210E-18-2.00494E-18
 -1      2586 1.08206E-04-4.45788E-05-2.72988E-05-2.99201E-05 1.86326E-18 2.25226E-18
 -1      2587 9.59413E-05-2.62411E-05-2.98392E-05 5.38934E-06 1.44082E-18 2.03373E-18
 -1      2588 9.58892E-05-2.51554E-05-3.02904E-05 6.47892E-06 1.63001E-18 1.54305E-18
 -1      2589 9.52801E-05-2.64789E-05-2.94582E-05 4.09570E-06 1.30810E-18 1.71662E-18
 -1      2590 1.42651E-04-1.55370E-05-5.47238E-05 7.53009E-06 9.22631E-19-9.59159E-19
 -1      2591 7.58698E-05-4.10826E-05-1.46095E-05 4.71413E-05-2.26666E-18-3.34324E-18
 -1      2592 9.11282E-05-1.49772E-05-3.26898E-05-9.83356E-06-1.42131E-18-1.87700E-18
 -1      2593 9.21492E-05-1.62482E-05-3.26065E-05-1.08661E-05-1.53863E-18-1.60718E-18
 -1      2594 9.36006E-05-1.91141E-05-3.19192E-05-9.25776E-06-1.59442E-18-1.41512E-18
 -1      2595 9.20580E-05-1.67889E-05-3.22496E-05-8.31526E-06-1.41611E-18-1.81147E-18
 -1      2596 1.42579E-04-5.43712E-05-3.78941E-05 1.44021E-05-1.13238E-19-1.30697E-18
 -1      2597 1.48902E-04-6.62399E-05-3.50495E-05-8.14337E-06 7.08437E-19-2.01223E-18
 -1      2598 1.05512E-04-5.04504E-05-2.36792E-05 3.29875E-05 1.34255E-18-1.30041E-18
 -1      2599 1.75803E-04-6.22001E-05-4.78607E-05-1.18419E-05-2.99876E-18 1.74912E-19
 -1      2600 9.76986E-05-3.04611E-05-2.88265E-05-2.80356E-05 1.42180E-18 2.05750E-19
 -1      2601 2.45404E-05-1.23646E-05-4.61867E-06 1.13651E-05-8.23290E-19 7.12355E-19
 -1      2602 4.14405E-05-2.12204E-05-8.11638E-06 3.62990E-05-9.18607E-19-5.14573E-20
 -1      2603 1.25859E-04-5.88365E-05-2.88141E-05 3.02868E-05-4.76403E-19-2.03764E-18
 -1      2604 1.17051E-04-5.72591E-05-2.56023E-05 3.91111E-05-8.63338E-19-3.34176E-18
 -1      2605 1.07646E-04-5.39615E-05-2.25551E-05 4.20113E-05-1.71588E-18-2.49694E-18
 -1      2606 1.30157E-04-6.22930E-05-2.93711E-05-2.22372E-05 1.45478E-18 1.14101E-18
 -1      2607 9.47053E-05-2.68408E-05-2.90554E-05 2.42366E-06 1.00051E-18 1.30936E-18
 -1      2608 9.50498E-05-2.66573E-05-2.92696E-05 3.30793E-06 1.13206E-18 1.50268E-18
 -1      2609 9.53044E-05-2.61315E-05-2.96566E-05 4.03374E-06 1.24859E-18 1.05084E-18
 -1      2610 9.50184E-05-2.65938E-05-2.93440E-05 2.50963E-06 1.11938E-18 7.62753E-19
 -1      2611 9.53300E-05-2.83749E-05-2.86948E-05 5.38419E-07-6.54520E-20-1.14927E-18
 -1      2612 7.17355E-05-4.04641E-05-1.30385E-05-3.60379E-05 1.78046E-18 1.69894E-18
 -1      2613 1.16762E-04-6.01974E-05-2.42184E-05-3.09146E-05 1.86284E-18 2.27960E-18
 -1      2614 9.48474E-05-5.09788E-05-1.85939E-05 3.57036E-05 7.92611E-19-1.68798E-18
 -1      2615 2.29539E-05-1.56939E-05-2.55252E-06 6.98337E-06-4.57927E-19-1.54329E-18
 -1      2616 2.48403E-05-1.05648E-05-5.51837E-06-5.14942E-07-5.45304E-19-2.05257E-18
 -1      2617 3.12603E-05-1.42508E-05-6.89839E-06 1.61376E-05 2.48339E-19-1.43890E-18
 -1      2618 5.02291E-05-2.93769E-05-8.45333E-06-4.31836E-05-1.82620E-18-1.98163E-18
 -1      2619 1.27677E-04-5.87004E-05-2.94728E-05-3.08552E-05-2.50139E-18-3.53848E-19
 -1      2620 1.46424E-04-7.77449E-06-5.96880E-05-6.14951E-07 7.94940E-19-2.27923E-18
 -1      2621 1.37507E-04-6.87727E-06-5.67252E-05-2.93517E-06 1.10114E-19-2.32153E-18
 -1      2622 1.34558E-04-5.46369E-06-5.57521E-05 1.28553E-06 1.02131E-18-1.67689E-18
 -1      2623 3.25634E-05-1.87871E-05-5.32466E-06-1.88656E-05 9.44653E-19 6.13464E-19
 -1      2624 4.40309E-05-1.95251E-05-1.02029E-05-2.61241E-05 8.27022E-19 5.49089E-19
 -1      2625 3.10804E-05-1.09249E-05-8.14048E-06-1.12151E-05-8.45974E-20 1.95029E-19
 -1      2626 1.49399E-04-1.96234E-05-5.59215E-05-5.19273E-06 8.04258E-19-2.92396E-18
 -1      2627 1.41152E-04-2.33731E-05-5.06923E-05-9.24477E-06 4.11234E-19-2.69759E-18
 -1      2628 1.39793E-04-1.37639E-05-5.48100E-05-8.41644E-06 2.37169E-19-1.99529E-18
 -1      2629 1.46773E-04-3.58087E-05-4.76397E-05 4.65641E-06-1.56807E-19 7.32683E-20
 -1      2630 9.06416E-05-4.81011E-05-1.77864E-05-4.70582E-05-1.94606E-18-1.02912E-18
 -1      2631 5.14937E-05-2.93317E-05-9.02990E-06 3.15373E-05 5.39772E-19-1.67183E-18
 -1      2632 9.53056E-05-2.82920E-05-2.87206E-05-5.24488E-07 8.25433E-19-2.66983E-18
 -1      2633 9.52883E-05-2.82078E-05-2.87490E-05-6.72955E-07 6.85220E-19-2.00568E-18
 -1      2634 9.05709E-05-1.51561E-05-3.23430E-05 3.18732E-06 9.69222E-19-1.45454E-18
 -1      2635 9.03814E-05-1.48838E-05-3.23764E-05 2.25556E-06 7.53722E-19-1.56360E-18
 -1      2636 9.02477E-05-1.46805E-05-3.24059E-05 1.41955E-06 6.75431E-19-1.73144E-18
 -1      2637 9.01833E-05-1.45882E-05-3.24172E-05 4.64736E-07 5.28322E-19-1.64756E-18
 -1      2638 9.14300E-05-1.65695E-05-3.20701E-05 1.63623E-06 7.15238E-19-1.55876E-18
 -1      2639 9.21483E-05-1.75413E-05-3.20132E-05 6.46057E-06 1.49416E-18-8.70262E-19
 -1      2640 9.16235E-05-1.67419E-05-3.21147E-05 5.62303E-06 1.34528E-18-1.17853E-18
 -1      2641 9.35102E-05-1.97192E-05-3.16831E-05 7.62802E-06 1.70176E-18-3.27793E-19
 -1      2642 9.27766E-05-1.85113E-05-3.18449E-05 6.99491E-06 1.53191E-18-5.39388E-19
 -1      2643 9.34343E-05-1.98341E-05-3.15153E-05 5.72715E-06 1.49464E-18-5.98806E-19
 -1      2644 9.58869E-05-2.43775E-05-3.06390E-05 7.13804E-06 1.68065E-18 1.12580E-18
 -1      2645 9.53246E-05-2.30565E-05-3.09974E-05 7.83341E-06 1.77602E-18 6.61561E-19
 -1      2646 9.55029E-05-2.49905E-05-3.01978E-05 5.55583E-06 1.48863E-18 9.53097E-19
 -1      2647 9.53685E-05-2.58207E-05-2.97758E-05-2.78650E-06-1.15680E-18-9.68692E-19
 -1      2648 9.52040E-05-2.64211E-05-2.94904E-05-1.77748E-06-1.08572E-18-1.02992E-18
 -1      2649 9.52327E-05-2.69452E-05-2.92425E-05-1.01193E-06-9.65723E-19-9.08547E-19
 -1      2650 9.51004E-05-2.73046E-05-2.90614E-05-3.81800E-07-8.41597E-19-8.03313E-19
 -1      2651 9.54201E-05-2.62460E-05-2.96521E-05-1.66207E-06-9.80070E-19-9.58150E-19
 -1      2652 9.50708E-05-2.76132E-05-2.88942E-05 1.09191E-07-6.70617E-19-7.60650E-19
 -1      2653 9.49970E-05-2.78377E-05-2.87850E-05 4.84792E-07-4.57383E-19-6.37891E-19
 -1      2654 9.54300E-05-2.72543E-05-2.92257E-05-3.32649E-07-7.56955E-19-7.27188E-19
 -1      2655 9.49574E-05-2.80202E-05-2.86771E-05 7.80431E-07-3.26941E-19-3.71722E-19
 -1      2656 9.49364E-05-2.81633E-05-2.86174E-05 9.91239E-07-2.82539E-19-2.95133E-19
 -1      2657 9.53748E-05-2.78678E-05-2.89386E-05 5.09729E-07-3.44669E-19-3.93350E-19
 -1      2658 9.49039E-05-2.82676E-05-2.85524E-05 1.15678E-06-3.44682E-19-3.02211E-19
 -1      2659 9.49224E-05-2.83575E-05-2.85268E-05 1.26569E-06-3.60930E-19-2.90455E-19
 -1      2660 9.53151E-05-2.82351E-05-2.87543E-05 1.01177E-06-3.69078E-19-3.80939E-19
 -1      2661 9.49005E-05-2.84098E-05-2.84930E-05 1.35085E-06-5.07809E-19-2.08374E-19
 -1      2662 9.49462E-05-2.84620E-05-2.84913E-05 1.40257E-06-5.61206E-19-3.55374E-19
 -1      2663 9.52703E-05-2.84415E-05-2.86453E-05 1.29158E-06-4.79909E-19-4.60230E-19
 -1      2664 9.49331E-05-2.84772E-05-2.84803E-05 1.44491E-06-5.88106E-19-4.32789E-19
 -1      2665 9.49966E-05-2.85004E-05-2.84956E-05 1.47216E-06-5.30318E-19-4.58500E-19
 -1      2666 9.52422E-05-2.85358E-05-2.85917E-05 1.43962E-06-6.55653E-19-4.18106E-19
 -1      2667 9.49884E-05-2.84861E-05-2.85018E-05 1.50034E-06-4.72852E-19-2.15048E-19
 -1      2668 9.50633E-05-2.84847E-05-2.85302E-05 1.52840E-06-4.59820E-19-3.19221E-19
 -1      2669 9.52255E-05-2.85460E-05-2.85792E-05 1.52473E-06-4.75674E-19-1.34905E-19
 -1      2670 9.50546E-05-2.84435E-05-2.85498E-05 1.56521E-06-4.77814E-19 5.28521E-20
 -1      2671 9.51367E-05-2.84183E-05-2.85892E-05 1.61518E-06-5.84935E-19 9.85049E-20
 -1      2672 9.52117E-05-2.84858E-05-2.85982E-05 1.60030E-06-1.74584E-19-1.00063E-19
 -1      2673 9.51201E-05-2.83481E-05-2.86200E-05 1.67998E-06-5.20616E-19 3.26246E-19
 -1      2674 9.52059E-05-2.82965E-05-2.86701E-05 1.77152E-06-8.71870E-20 3.55234E-19
 -1      2675 9.51885E-05-2.83577E-05-2.86423E-05 1.70971E-06-2.50383E-19 2.60121E-19
 -1      2676 9.51703E-05-2.81902E-05-2.87107E-05 1.88235E-06-5.82266E-20 5.44526E-20
 -1      2677 9.52556E-05-2.81052E-05-2.87721E-05 2.03607E-06-2.95650E-19-5.60568E-20
 -1      2678 9.51383E-05-2.81531E-05-2.87073E-05 1.89076E-06-1.83275E-19 9.25665E-20
 -1      2679 9.51837E-05-2.79494E-05-2.88216E-05 2.21144E-06-3.16907E-19 1.15204E-19
 -1      2680 9.52610E-05-2.78183E-05-2.88958E-05 2.45112E-06 2.00237E-20 2.16295E-19
 -1      2681 9.50337E-05-2.78509E-05-2.87903E-05 2.17933E-06-9.28635E-20-6.75393E-20
 -1      2682 9.51254E-05-2.75917E-05-2.89528E-05 2.71139E-06 1.69647E-19 7.02597E-20
 -1      2683 9.51806E-05-2.73950E-05-2.90411E-05 3.06596E-06 3.72449E-19-2.93122E-19
 -1      2684 9.48318E-05-2.74148E-05-2.88880E-05 2.61205E-06-6.46893E-20 5.12854E-19
 -1      2685 9.49384E-05-2.70661E-05-2.91022E-05 3.43423E-06 5.34092E-19-4.44749E-19
 -1      2686 9.49461E-05-2.67753E-05-2.92044E-05 3.93918E-06 4.74277E-19-4.08086E-19
 -1      2687 9.44650E-05-2.67898E-05-2.89943E-05 3.22772E-06 2.19665E-19 5.09985E-19
 -1      2688 9.45315E-05-2.63010E-05-2.92619E-05 4.44134E-06-1.22296E-19-2.80152E-19
 -1      2689 9.44487E-05-2.58795E-05-2.93738E-05 5.13856E-06-3.73902E-20-4.32449E-19
 -1      2690 9.38285E-05-2.58988E-05-2.90963E-05 4.06681E-06 2.04607E-19 9.74222E-20
 -1      2691 9.37645E-05-2.52068E-05-2.94112E-05 5.80245E-06-6.35134E-20-5.86793E-19
 -1      2692 9.35251E-05-2.46153E-05-2.95193E-05 6.73725E-06-1.53783E-19-8.16105E-19
 -1      2693 9.27651E-05-2.46442E-05-2.91671E-05 5.16845E-06-2.91319E-19-1.39683E-19
 -1      2694 9.24358E-05-2.36918E-05-2.95036E-05 7.59177E-06-2.68851E-19-7.88393E-19
 -1      2695 9.19508E-05-2.29084E-05-2.95768E-05 8.80571E-06-3.13012E-19-5.88342E-19
 -1      2696 9.10496E-05-2.29204E-05-2.91539E-05 6.56573E-06-2.26754E-19-1.04919E-18
 -1      2697 9.02845E-05-2.17138E-05-2.94461E-05 9.88378E-06-1.40393E-20-2.33553E-19
 -1      2698 8.94641E-05-2.07862E-05-2.94211E-05 1.14043E-05 2.57432E-19-3.42739E-19
 -1      2699 8.83811E-05-2.06551E-05-2.89569E-05 8.28499E-06 2.54662E-19-9.60118E-19
 -1      2700 8.70360E-05-1.94037E-05-2.90635E-05 1.27572E-05 2.41318E-19-1.34277E-19
 -1      2701 8.58637E-05-1.85573E-05-2.88234E-05 1.45955E-05 4.59562E-19-3.88710E-19
 -1      2702 8.44049E-05-1.79066E-05-2.83959E-05 1.03644E-05 2.78336E-19 2.56651E-19
 -1      2703 8.25193E-05-1.72964E-05-2.80420E-05 1.63558E-05 5.72308E-19-5.96407E-19
 -1      2704 8.13068E-05-1.71591E-05-2.73940E-05 1.85307E-05 5.95204E-19-6.75171E-19
 -1      2705 7.87720E-05-1.50364E-05-2.71553E-05 1.29204E-05 3.73967E-19-5.38114E-20
 -1      2706 7.69683E-05-1.67334E-05-2.58344E-05 2.12990E-05 8.38113E-19-1.22510E-18
 -1      2707 7.67682E-05-1.89964E-05-2.44854E-05 2.40067E-05 9.00647E-19-1.22179E-18
 -1      2708 7.10103E-05-1.28346E-05-2.46706E-05 1.64653E-05 6.81226E-19-8.00142E-19
 -1      2709 7.57705E-05-2.24709E-05-2.25252E-05 2.84284E-05 1.05461E-18-6.45651E-19
 -1      2710 7.87393E-05-2.93034E-05-2.06697E-05 3.13504E-05 1.38082E-18-1.25541E-18
 -1      2711 8.59349E-05-2.06620E-05-2.78116E-05-2.27113E-05 4.21849E-19 8.64794E-19
 -1      2712 8.57232E-05-1.94183E-05-2.84471E-05-2.03750E-05 1.72292E-19 1.08267E-18
 -1      2713 9.53368E-05-2.81910E-05-2.87745E-05-7.97950E-07-4.25410E-19-1.27229E-18
 -1      2714 9.52942E-05-2.83131E-05-2.87061E-05 6.49785E-07-6.18161E-19-9.40813E-19
 -1      2715 9.53753E-05-2.83982E-05-2.87035E-05 6.25688E-07-4.95410E-19-2.91096E-19
 -1      2716 9.54456E-05-2.84356E-05-2.87175E-05 7.02503E-07-1.82173E-18-8.15445E-19
 -1      2717 8.85500E-05-1.99992E-05-2.93121E-05-1.78618E-05-3.89903E-19 6.04795E-19
 -1      2718 8.90099E-05-2.02695E-05-2.95236E-05-1.57228E-05-9.05712E-19 4.27374E-19
 -1      2719 8.03489E-05-1.62808E-05-2.72997E-05-1.74086E-05-1.77103E-19-1.28742E-20
 -1      2720 9.12560E-05-2.14063E-05-2.99023E-05-1.38466E-05-1.32227E-18 5.49910E-19
 -1      2721 9.16836E-05-2.20860E-05-2.98818E-05-1.20125E-05-9.85451E-19 9.28337E-20
 -1      2722 8.54226E-05-1.82482E-05-2.86853E-05-1.35291E-05-9.04451E-19 1.56703E-19
 -1      2723 9.32668E-05-2.32014E-05-3.00014E-05-1.05410E-05-1.69859E-18-4.70870E-19
 -1      2724 9.34977E-05-2.38703E-05-2.98804E-05-9.05407E-06-1.01498E-18-1.06416E-18
 -1      2725 8.91622E-05-2.06881E-05-2.92774E-05-1.05076E-05-1.54469E-18 2.10077E-19
 -1      2726 9.45332E-05-2.47715E-05-2.98739E-05-7.89846E-06 1.08801E-19-2.50240E-18
 -1      2727 9.45962E-05-2.53042E-05-2.97247E-05-6.74342E-06-6.66366E-19-2.50488E-18
 -1      2728 9.16986E-05-2.28661E-05-2.94544E-05-8.07573E-06-1.64055E-18 4.35650E-19
 -1      2729 9.52330E-05-2.59673E-05-2.96646E-05-5.85087E-06-7.69957E-19-2.43859E-18
 -1      2730 9.51912E-05-2.63518E-05-2.95218E-05-4.98006E-06 4.31680E-19-2.16251E-18
 -1      2731 9.33128E-05-2.45747E-05-2.94308E-05-6.13395E-06-5.56056E-19-1.55928E-18
 -1      2732 9.55606E-05-2.68143E-05-2.94457E-05-4.30130E-06 1.04809E-18-2.19189E-18
 -1      2733 9.54669E-05-2.70770E-05-2.93229E-05-3.65703E-06 1.17672E-18-2.67827E-18
 -1      2734 9.42818E-05-2.58216E-05-2.93233E-05-4.61380E-06 4.59193E-19-2.34899E-18
 -1      2735 9.56673E-05-2.73887E-05-2.92489E-05-3.14669E-06 1.19401E-18-2.21554E-18
 -1      2736 9.55563E-05-2.75612E-05-2.91492E-05-2.67446E-06-1.55849E-20-2.15526E-18
 -1      2737 9.48297E-05-2.66926E-05-2.91921E-05-3.44410E-06 9.08781E-19-2.35884E-18
 -1      2738 9.56541E-05-2.77656E-05-2.90849E-05-2.29261E-06-1.36320E-18-2.06489E-18
 -1      2739 9.55450E-05-2.78746E-05-2.90071E-05-1.94633E-06-2.28621E-18-1.53240E-18
 -1      2740 9.51157E-05-2.72829E-05-2.90662E-05-2.55486E-06 1.46861E-19-1.81314E-18
 -1      2741 9.55834E-05-2.80046E-05-2.89546E-05-1.65980E-06-2.26263E-18-1.34255E-18
 -1      2742 9.54857E-05-2.80699E-05-2.88957E-05-1.40347E-06-1.52221E-18-1.41449E-18
 -1      2743 9.52452E-05-2.76726E-05-2.89576E-05-1.88057E-06-1.86042E-18-1.95341E-18
 -1      2744 9.54883E-05-2.81469E-05-2.88547E-05-1.18520E-06-2.37103E-18-1.45013E-18
 -1      2745 9.54016E-05-2.81803E-05-2.88103E-05-9.90051E-07-2.38757E-18-1.87212E-18
 -1      2746 9.52828E-05-2.79194E-05-2.88696E-05-1.36923E-06-2.24061E-18-9.22276E-19
 -1      2747 9.49036E-05-2.76191E-05-2.88394E-05-1.29924E-07 9.03431E-19 1.18594E-19
 -1      2748 9.50154E-05-2.73561E-05-2.89760E-05 3.50343E-07 9.54221E-19 8.78482E-20
 -1      2749 9.48096E-05-2.80081E-05-2.86301E-05-7.87318E-07 7.71843E-19-5.93314E-20
 -1      2750 9.48543E-05-2.78391E-05-2.87074E-05-5.11661E-07 8.39288E-19 7.65988E-20
 -1      2751 9.52877E-05-2.76191E-05-2.90088E-05-1.59426E-07 9.20110E-19-3.69255E-19
 -1      2752 9.50511E-05-2.69839E-05-2.91780E-05 9.71330E-07 9.15449E-19 1.79246E-19
 -1      2753 9.52388E-05-2.65685E-05-2.94020E-05 1.76300E-06 1.00024E-18 2.62171E-19
 -1      2754 9.53552E-05-2.68778E-05-2.93555E-05 9.09797E-07 1.00490E-18-1.39796E-19
 -1      2755 9.47956E-05-2.83998E-05-2.84540E-05-1.33025E-06 1.55161E-19 1.71478E-20
 -1      2756 9.47535E-05-2.83259E-05-2.84645E-05-1.26505E-06 4.75795E-19-8.30553E-20
 -1      2757 9.48525E-05-2.84889E-05-2.84397E-05-1.39947E-06 3.47375E-19-1.98298E-20
 -1      2758 9.47874E-05-2.84401E-05-2.84326E-05-1.37942E-06 3.03611E-19 1.29843E-19
 -1      2759 9.51407E-05-2.84981E-05-2.85650E-05-1.36400E-06 2.12682E-19-1.07430E-19
 -1      2760 9.49377E-05-2.85399E-05-2.84541E-05-1.41196E-06 2.55453E-19 4.75453E-20
 -1      2761 9.48576E-05-2.85071E-05-2.84355E-05-1.41381E-06 1.95711E-19-2.70038E-19
 -1      2762 9.51437E-05-2.85788E-05-2.85307E-05-1.44367E-06 2.83804E-19 1.19419E-20
 -1      2763 9.50454E-05-2.85699E-05-2.84873E-05-1.40249E-06 3.39521E-19 2.22886E-19
 -1      2764 9.49547E-05-2.85456E-05-2.84615E-05-1.41150E-06 3.35953E-19 3.78371E-20
 -1      2765 9.51698E-05-2.86130E-05-2.85265E-05-1.46860E-06 1.59094E-19-2.50582E-19
 -1      2766 9.51747E-05-2.85950E-05-2.85321E-05-1.39131E-06 9.07542E-20 5.09010E-19
 -1      2767 9.50747E-05-2.85716E-05-2.85022E-05-1.39972E-06 2.00588E-19 1.97297E-19
 -1      2768 9.52184E-05-2.86236E-05-2.85424E-05-1.47330E-06 1.81578E-19-1.96006E-19
 -1      2769 9.53291E-05-2.86314E-05-2.85829E-05-1.38577E-06 5.53282E-19 1.54905E-19
 -1      2770 9.52188E-05-2.86012E-05-2.85513E-05-1.39211E-06 3.58280E-19 5.06629E-19
 -1      2771 9.52931E-05-2.86315E-05-2.85709E-05-1.47767E-06 3.64445E-19-1.15868E-19
 -1      2772 9.55161E-05-2.86980E-05-2.86351E-05-1.38059E-06 4.34620E-19-2.32644E-19
 -1      2773 9.53932E-05-2.86518E-05-2.86039E-05-1.38972E-06 7.27170E-19 6.18570E-21
 -1      2774 9.54017E-05-2.86586E-05-2.86060E-05-1.48835E-06 8.35453E-19-2.83786E-19
 -1      2775 9.57471E-05-2.88162E-05-2.86845E-05-1.35705E-06 2.15441E-20-3.78934E-19
 -1      2776 9.56081E-05-2.87438E-05-2.86557E-05-1.38057E-06 1.92607E-19-3.87554E-19
 -1      2777 9.55578E-05-2.87298E-05-2.86427E-05-1.49872E-06 4.01660E-19-2.19646E-19
 -1      2778 9.60359E-05-2.90097E-05-2.87271E-05-1.28169E-06 3.05345E-20-1.73180E-19
 -1      2779 9.58779E-05-2.89004E-05-2.87028E-05-1.33849E-06 2.01264E-20-2.30031E-19
 -1      2780 9.57804E-05-2.88737E-05-2.86771E-05-1.48782E-06-1.95230E-19-4.46242E-19
 -1      2781 9.63964E-05-2.93013E-05-2.87590E-05-1.10541E-06-6.69751E-20 3.41527E-19
 -1      2782 9.62183E-05-2.91460E-05-2.87416E-05-1.22166E-06 6.90866E-20 1.41607E-19
 -1      2783 9.60935E-05-2.91217E-05-2.87058E-05-1.41866E-06-3.13000E-20 1.10009E-19
 -1      2784 9.68379E-05-2.97062E-05-2.87779E-05-7.64503E-07-4.56269E-19 4.65551E-19
 -1      2785 9.66431E-05-2.95012E-05-2.87692E-05-9.72288E-07-1.82475E-19 4.75106E-19
 -1      2786 9.65230E-05-2.95033E-05-2.87274E-05-1.23681E-06-1.80978E-19 1.28677E-19
 -1      2787 9.73560E-05-3.02200E-05-2.87836E-05-1.86257E-07-8.96018E-19-5.02835E-19
 -1      2788 9.71568E-05-2.99736E-05-2.87847E-05-5.19368E-07-4.81903E-19 3.13511E-19
 -1      2789 9.70906E-05-3.00368E-05-2.87428E-05-8.70970E-07-2.89918E-19 3.17074E-19
 -1      2790 9.79197E-05-3.08007E-05-2.87803E-05 6.97459E-07-9.85182E-19-2.27587E-19
 -1      2791 9.77423E-05-3.05419E-05-2.87903E-05 2.12174E-07-1.06555E-18-5.94953E-19
 -1      2792 9.78006E-05-3.07123E-05-2.87577E-05-2.38500E-07-1.02273E-18-2.79480E-19
 -1      2793 9.84555E-05-3.13488E-05-2.87780E-05 1.92438E-06-5.55464E-19 3.59068E-19
 -1      2794 9.83445E-05-3.11364E-05-2.87933E-05 1.28164E-06-8.44999E-19 1.39046E-19
 -1      2795 9.86207E-05-3.14681E-05-2.87839E-05 7.39507E-07-1.23033E-18-3.06301E-19
 -1      2796 9.88352E-05-3.16927E-05-2.87934E-05 3.46094E-06-1.97744E-19 6.44778E-19
 -1      2797 9.88537E-05-3.16188E-05-2.88073E-05 2.69768E-06-3.19199E-19 7.11363E-19
 -1      2798 9.94580E-05-3.21646E-05-2.88405E-05 2.10778E-06-8.43668E-19-2.18613E-19
 -1      2799 9.88811E-05-3.16007E-05-2.88473E-05 5.15031E-06 3.97387E-19 5.92491E-19
 -1      2800 9.91001E-05-3.17784E-05-2.88510E-05 4.36782E-06 3.41888E-19 3.79038E-19
 -1      2801 1.00139E-04-3.25693E-05-2.89523E-05 3.82599E-06 3.05594E-19-1.31832E-20
 -1      2802 9.84107E-05-3.08435E-05-2.89584E-05 6.66870E-06 2.51759E-19 5.09901E-19
 -1      2803 9.88807E-05-3.13677E-05-2.89435E-05 6.04401E-06 2.05931E-19 3.76066E-19
 -1      2804 1.00420E-04-3.23814E-05-2.91445E-05 5.70181E-06 4.50925E-19 1.07453E-19
 -1      2805 9.73320E-05-2.93208E-05-2.91317E-05 7.53496E-06 2.59162E-19 1.11703E-18
 -1      2806 9.80400E-05-3.02011E-05-2.90953E-05 7.29992E-06 1.61087E-19 5.98754E-19
 -1      2807 1.00053E-04-3.13304E-05-2.94309E-05 7.33557E-06-4.81721E-20-3.61690E-19
 -1      2808 9.57675E-05-2.72147E-05-2.93475E-05 7.22820E-06 3.15032E-21 1.77997E-18
 -1      2809 9.65976E-05-2.83088E-05-2.92963E-05 7.59706E-06 6.11461E-19 1.95979E-18
 -1      2810 9.89252E-05-2.93506E-05-2.97978E-05 8.14161E-06-7.92522E-20 5.45525E-19
 -1      2811 9.41205E-05-2.50637E-05-2.95573E-05 5.42643E-06-2.36281E-19 9.37738E-19
 -1      2812 9.48576E-05-2.60680E-05-2.95079E-05 6.48165E-06-2.03820E-19 1.56656E-18
 -1      2813 9.72298E-05-2.67655E-05-3.01916E-05 7.51715E-06 1.35261E-19 6.56767E-19
 -1      2814 9.29900E-05-2.36243E-05-2.96988E-05 2.29236E-06-3.03365E-19 2.03147E-18
 -1      2815 9.33921E-05-2.41824E-05-2.96708E-05 3.87648E-06-3.56472E-19 1.32779E-18
 -1      2816 9.55280E-05-2.43392E-05-3.05218E-05 5.16456E-06-5.42635E-19 1.35316E-18
 -1      2817 9.28503E-05-2.34741E-05-2.97254E-05-1.46410E-06-2.82275E-19 1.84572E-18
 -1      2818 9.27718E-05-2.33647E-05-2.97309E-05 2.77448E-07-1.43517E-19 2.26689E-18
 -1      2819 9.45430E-05-2.29726E-05-3.06977E-05 1.43603E-06-6.77275E-19 1.99573E-18
 -1      2820 9.37881E-05-2.46930E-05-2.96280E-05-4.83721E-06 6.39243E-19 1.22081E-18
 -1      2821 9.32565E-05-2.39587E-05-2.96648E-05-3.38790E-06 3.32166E-19 1.51074E-18
 -1      2822 9.47382E-05-2.32406E-05-3.06633E-05-2.70839E-06 1.15997E-19 1.10771E-18
 -1      2823 9.54096E-05-2.67756E-05-2.94430E-05-6.99575E-06 1.31505E-18 2.96846E-19
 -1      2824 9.46166E-05-2.57047E-05-2.94949E-05-6.15315E-06 1.04186E-18 8.11551E-19
 -1      2825 9.60239E-05-2.50341E-05-3.04297E-05-6.08339E-06 9.58137E-19 1.27755E-19
 -1      2826 9.71065E-05-2.89654E-05-2.92308E-05-7.63624E-06 7.66702E-19 4.59305E-19
 -1      2827 9.62954E-05-2.79146E-05-2.92779E-05-7.47354E-06 6.29342E-19 5.84564E-20
 -1      2828 9.77995E-05-2.76066E-05-3.00692E-05-7.89142E-06 1.00039E-18 8.72137E-19
 -1      2829 9.83792E-05-3.06490E-05-2.90451E-05-6.98359E-06 9.17591E-19 8.59494E-19
 -1      2830 9.77384E-05-2.98754E-05-2.90739E-05-7.36499E-06 1.50945E-18 9.69272E-19
 -1      2831 9.93607E-05-3.00596E-05-2.96789E-05-8.01580E-06 8.25292E-19 7.42459E-19
 -1      2832 9.90169E-05-3.15633E-05-2.89145E-05-5.54726E-06 1.44914E-18 5.96506E-19
 -1      2833 9.86273E-05-3.11568E-05-2.89217E-05-6.24083E-06 9.29356E-19 8.15921E-19
 -1      2834 1.00254E-04-3.17566E-05-2.93366E-05-6.88513E-06 1.18681E-18 1.01167E-18
 -1      2835 9.90706E-05-3.17634E-05-2.88422E-05-3.84740E-06 2.51862E-18-1.02810E-19
 -1      2836 9.89198E-05-3.16796E-05-2.88327E-05-4.63273E-06 2.19398E-18 3.82195E-19
 -1      2837 1.00396E-04-3.25089E-05-2.90826E-05-5.12804E-06 2.13792E-18 3.32728E-19
 -1      2838 9.87245E-05-3.14699E-05-2.88143E-05-2.25675E-06 1.66259E-18 1.49344E-20
 -1      2839 9.87509E-05-3.16019E-05-2.87967E-05-2.98011E-06 1.75071E-18 6.27603E-21
 -1      2840 9.99606E-05-3.24689E-05-2.89214E-05-3.28420E-06 2.26392E-18 4.45134E-19
 -1      2841 9.81773E-05-3.09253E-05-2.88115E-05-9.70499E-07 5.07233E-19 2.16968E-19
 -1      2842 9.83099E-05-3.11641E-05-2.87941E-05-1.55217E-06 1.54224E-18 4.11925E-19
 -1      2843 9.92087E-05-3.19329E-05-2.88346E-05-1.68512E-06 1.00886E-18 6.23139E-19
 -1      2844 9.75812E-05-3.03185E-05-2.88169E-05-4.51943E-08-1.23118E-18 6.32467E-19
 -1      2845 9.77615E-05-3.05822E-05-2.88051E-05-4.63016E-07-7.39170E-19 6.92861E-19
 -1      2846 9.83653E-05-3.11854E-05-2.87964E-05-4.69451E-07-2.05736E-19 1.13941E-18
 -1      2847 9.70281E-05-2.97643E-05-2.88192E-05 5.46399E-07-1.05219E-18 2.96279E-19
 -1      2848 9.72171E-05-3.00044E-05-2.88154E-05 2.79480E-07-1.02653E-18 3.63693E-19
 -1      2849 9.75776E-05-3.04292E-05-2.87837E-05 3.53821E-07-6.99477E-19 5.65630E-19
 -1      2850 9.65596E-05-2.93145E-05-2.88133E-05 8.69154E-07-4.89580E-20-8.67191E-19
 -1      2851 9.67355E-05-2.95096E-05-2.88174E-05 7.24100E-07-3.77013E-19-6.50777E-19
 -1      2852 9.69169E-05-2.97763E-05-2.87800E-05 8.42556E-07-1.08255E-19-1.99090E-19
 -1      2853 9.61848E-05-2.89785E-05-2.87986E-05 9.95644E-07 1.48023E-18-1.28684E-18
 -1      2854 9.63381E-05-2.91253E-05-2.88090E-05 9.39983E-07 7.59084E-19-1.02010E-18
 -1      2855 9.64011E-05-2.92684E-05-2.87757E-05 1.07690E-06 4.00274E-19-7.87951E-19
 -1      2856 9.58957E-05-2.87427E-05-2.87771E-05 9.90491E-07-5.54688E-20 1.58730E-19
 -1      2857 9.60238E-05-2.88472E-05-2.87914E-05 9.95229E-07 7.71923E-19-4.58626E-19
 -1      2858 9.60183E-05-2.89033E-05-2.87670E-05 1.13435E-06 1.94393E-19 1.58629E-19
 -1      2859 9.56771E-05-2.85845E-05-2.87520E-05 9.03213E-07-3.66708E-19 8.51906E-20
 -1      2860 9.57807E-05-2.86563E-05-2.87679E-05 9.45635E-07 2.16949E-19-1.39737E-19
 -1      2861 9.57419E-05-2.86559E-05-2.87539E-05 1.07956E-06 4.83115E-20 1.93514E-18
 -1      2862 9.55073E-05-2.84761E-05-2.87265E-05 7.76557E-07-1.58328E-18-1.16127E-18
 -1      2863 9.55913E-05-2.85258E-05-2.87419E-05 8.41508E-07-9.44388E-19-5.23113E-19
 -1      2864 9.55432E-05-2.84951E-05-2.87376E-05 9.65582E-07 4.99813E-20 1.49085E-18
 -1      2865 9.53988E-05-2.83874E-05-2.87216E-05 8.20427E-07-1.75416E-18-5.97224E-19
 -1      2866 9.50294E-05-2.79967E-05-2.87304E-05 7.02693E-07-8.55638E-19-8.86407E-19
 -1      2867 9.51063E-05-2.80851E-05-2.87214E-05 7.10088E-07-7.94476E-19-1.54648E-18
 -1      2868 9.47143E-05-2.76237E-05-2.87562E-05 4.99124E-07-1.02241E-18-2.01767E-18
 -1      2869 9.47858E-05-2.77017E-05-2.87488E-05 5.78835E-07-9.22078E-19-1.01448E-18
 -1      2870 9.52276E-05-2.82289E-05-2.87146E-05 6.81555E-07-9.02364E-19-1.51777E-18
 -1      2871 9.48688E-05-2.78057E-05-2.87438E-05 6.42786E-07-1.71981E-18 1.09175E-18
 -1      2872 9.49473E-05-2.78941E-05-2.87353E-05 6.84302E-07-1.32143E-18 1.48087E-18
 -1      2873 9.49806E-05-2.79503E-05-2.87263E-05 7.83738E-07-1.06759E-18 6.45366E-19
 -1      2874 9.47869E-05-2.77388E-05-2.87339E-05 6.98917E-07-1.45513E-18 4.15120E-19
 -1      2875 9.47769E-05-2.82503E-05-2.85109E-05-1.15160E-06 6.80585E-19-8.12699E-20
 -1      2876 9.47702E-05-2.81388E-05-2.85482E-05-1.00656E-06 7.43319E-19-4.60728E-20
 -1      2877 9.52140E-05-2.80707E-05-2.87824E-05-8.09978E-07 8.78665E-19-4.36018E-19
 -1      2878 9.51633E-05-2.83423E-05-2.86428E-05-1.17752E-06 4.92188E-19-4.50774E-19
 -1      2879 9.45194E-05-2.73830E-05-2.87756E-05-8.37183E-09 1.47186E-18 4.20614E-18
 -1      2880 9.45412E-05-2.74069E-05-2.87720E-05 1.28601E-07 9.95300E-19 2.11279E-18
 -1      2881 9.45301E-05-2.73760E-05-2.87822E-05-3.11998E-07 5.66622E-19 7.47745E-20
 -1      2882 9.45109E-05-2.73594E-05-2.87808E-05-1.73482E-07 5.14700E-19 2.90493E-18
 -1      2883 9.44006E-05-2.72789E-05-2.87631E-05-7.37694E-08 1.57189E-18 2.04979E-18
 -1      2884 9.46368E-05-2.74679E-05-2.87869E-05-5.96963E-07 1.24417E-18 2.64110E-18
 -1      2885 9.45706E-05-2.74070E-05-2.87875E-05-4.75807E-07 1.03336E-18 8.70345E-19
 -1      2886 9.44364E-05-2.72844E-05-2.87755E-05-4.22195E-07 1.58575E-19 9.64904E-19
 -1      2887 9.48358E-05-2.76590E-05-2.87883E-05-7.98299E-07 1.42823E-19 3.09681E-18
 -1      2888 9.47302E-05-2.75599E-05-2.87914E-05-7.24491E-07 5.49263E-19 3.83134E-18
 -1      2889 9.45926E-05-2.74089E-05-2.87885E-05-7.36462E-07 5.54567E-19 2.20861E-18
 -1      2890 9.50976E-05-2.79327E-05-2.87842E-05-8.70666E-07-6.68838E-19 6.94362E-19
 -1      2891 9.49703E-05-2.78017E-05-2.87909E-05-8.67572E-07-2.31688E-19 1.86630E-18
 -1      2892 9.48366E-05-2.76393E-05-2.87987E-05-9.44798E-07-4.35787E-19 1.74811E-18
 -1      2893 1.34038E-04-1.87566E-05-4.98486E-05 1.09125E-05 6.62803E-19 2.93603E-19
 -1      2894 1.31386E-04-1.07159E-05-5.25102E-05 7.69865E-06 6.89485E-19-6.83185E-19
 -1      2895 4.54698E-05-2.22260E-05-9.29911E-06-3.75424E-05-1.82800E-18-1.96427E-18
 -1      2896 6.14606E-05-3.15078E-05-1.27423E-05-4.55818E-05-1.80503E-18-1.33567E-18
 -1      2897 5.16383E-05-2.08162E-05-1.28641E-05 3.60842E-05-1.83107E-18-1.52784E-18
 -1      2898 3.88928E-05-1.37491E-05-9.99581E-06 2.67014E-05-1.19744E-18 8.94467E-19
 -1      2899 9.45891E-05-2.74739E-05-2.87669E-05 2.75599E-07 9.48290E-19 1.89946E-19
 -1      2900 9.46419E-05-2.75302E-05-2.87612E-05 3.89480E-07 5.44478E-19-1.56105E-18
 -1      2901 9.44661E-05-2.73724E-05-2.87521E-05 2.54057E-07 1.51125E-18 1.17306E-18
 -1      2902 9.52234E-05-2.38544E-05-3.05664E-05-5.43785E-06-1.31002E-18-1.10320E-18
 -1      2903 9.51587E-05-2.49008E-05-3.01308E-05-3.91004E-06-1.21689E-18-1.12179E-18
 -1      2904 9.51910E-05-2.45761E-05-3.02630E-05-3.62806E-06-1.18368E-18-1.11024E-18
 -1      2905 9.11868E-05-1.60736E-05-3.22192E-05 4.90610E-06 1.22488E-18-1.31226E-18
 -1      2906 9.08452E-05-1.55739E-05-3.22810E-05 3.98564E-06 1.06941E-18-1.40236E-18
 -1      2907 9.18207E-05-1.71787E-05-3.19742E-05 3.18768E-06 9.21472E-19-1.32074E-18
 -1      2908 9.24867E-05-1.82421E-05-3.17998E-05 4.60295E-06 1.13963E-18-1.09922E-18
 -1      2909 9.87122E-05-4.46390E-05-2.28138E-05-3.28480E-05 1.49639E-18 1.62239E-18
 -1      2910 9.09765E-05-3.42103E-05-2.38506E-05-3.20689E-05 1.29247E-18 1.26642E-18
 -1      2911 3.21011E-05-9.40441E-06-9.20662E-06 1.71514E-05-2.92968E-19 1.57802E-18
 -1      2912 3.06430E-05-7.65917E-06-9.02258E-06 2.89014E-06-3.69313E-19 4.96573E-19
 -1      2913 4.39666E-05-1.05983E-05-1.37287E-05 1.86943E-05-6.32098E-19 6.48192E-19
 -1      2914 9.08151E-05-1.55306E-05-3.22866E-05-3.92250E-06-3.22207E-19-1.72251E-18
 -1      2915 9.11499E-05-1.60185E-05-3.22265E-05-4.84678E-06-5.97749E-19-1.71656E-18
 -1      2916 1.42044E-04-3.44065E-05-4.67936E-05-7.42355E-06 5.62853E-19-2.82369E-18
 -1      2917 1.42850E-04-4.17465E-05-4.34632E-05-4.23577E-06 5.02396E-19-1.80069E-18
 -1      2918 9.15371E-05-4.69501E-05-1.88341E-05 4.64957E-05-1.71990E-18-1.69407E-18
 -1      2919 7.22711E-05-3.54522E-05-1.53551E-05 4.48083E-05-1.66347E-18-3.14895E-18
 -1      2920 1.40736E-04-4.00653E-05-4.33562E-05 5.95164E-06-6.46074E-19 1.61995E-19
 -1      2921 1.38496E-04-3.08936E-05-4.68655E-05 9.68514E-06 1.66124E-19 1.70677E-19
 -1      2922 8.21515E-05-4.21463E-05-1.65225E-05-4.61440E-05-1.51884E-18-1.15747E-18
 -1      2923 1.01236E-04-5.10039E-05-2.15925E-05-4.29008E-05-1.66802E-18-5.64971E-19
 -1      2924 1.39757E-04-5.47320E-05-3.63305E-05-9.34860E-06-2.24286E-18-2.61945E-19
 -1      2925 1.41494E-04-4.94084E-05-4.00574E-05-1.95162E-06-1.43355E-18-2.29228E-19
 -1      2926 6.50804E-05-2.76540E-05-1.57003E-05 3.37078E-05 1.17992E-18-1.09945E-18
 -1      2927 5.00962E-05-1.92811E-05-1.23408E-05 2.63293E-05 8.40045E-19-1.40205E-18
 -1      2928 1.20076E-04-5.72521E-05-2.67049E-05-3.26779E-05-2.03081E-18-3.31402E-20
 -1      2929 1.33374E-04-5.85934E-05-3.23847E-05-2.15610E-05-2.76657E-18-3.05249E-19
 -1      2930 2.83738E-05-1.03352E-05-7.08363E-06-1.56249E-05-4.98849E-19-2.67811E-18
 -1      2931 3.43832E-05-1.44523E-05-8.04341E-06-2.78564E-05-1.16075E-18-2.16650E-18
 -1      2932 1.42587E-04-5.13786E-05-3.95893E-05 5.24291E-06 7.11719E-19-6.73815E-19
 -1      2933 1.36901E-04-5.70889E-05-3.42094E-05 1.60581E-05 1.21735E-19-4.87467E-19
 -1      2934 9.42945E-05-2.08476E-05-3.15021E-05-8.10907E-06-1.53339E-18-1.23763E-18
 -1      2935 9.47741E-05-2.26604E-05-3.09163E-05-6.44083E-06-1.46001E-18-1.18870E-18
 -1      2936 9.45740E-05-2.22939E-05-3.09735E-05-5.81819E-06-1.37753E-18-1.37677E-18
 -1      2937 9.34785E-05-1.94988E-05-3.17087E-05-7.89124E-06-1.43416E-18-1.54405E-18
 -1      2938 8.73659E-05-2.73821E-05-2.53907E-05-2.85385E-05 8.64238E-19 1.38453E-18
 -1      2939 8.39766E-05-2.21711E-05-2.63405E-05-2.61707E-05 5.84942E-19 7.67915E-19
 -1      2940 7.53183E-05-1.71574E-05-2.47064E-05-2.29834E-05 6.84085E-19 1.13349E-18
 -1      2941 6.50393E-05-3.02220E-05-1.41575E-05-3.40998E-05 1.90572E-18 1.34890E-18
 -1      2942 8.59517E-05-4.27980E-05-1.83740E-05-3.73084E-05 1.46431E-18 1.37135E-18
 -1      2943 8.18823E-05-3.80254E-05-1.81638E-05 3.56546E-05 1.21856E-18-1.30422E-18
 -1      2944 1.06204E-04-5.22565E-05-2.24049E-05-3.35453E-05 1.89926E-18 2.22865E-18
 -1      2945 9.52193E-05-2.80333E-05-2.87952E-05-9.40565E-07-9.60771E-19-2.49153E-19
 -1      2946 9.12991E-05-1.63665E-05-3.21016E-05 2.93190E-08 4.47850E-19-1.51039E-18
 -1      2947 9.01798E-05-1.45838E-05-3.24178E-05-3.81482E-07 4.03252E-19-1.59050E-18
 -1      2948 9.02363E-05-1.46646E-05-3.24076E-05-1.33702E-06 1.83634E-19-1.67567E-18
 -1      2949 9.44812E-05-2.13939E-05-3.13174E-05 7.85527E-06 1.72493E-18 1.86969E-19
 -1      2950 6.48507E-05-1.56488E-05-2.07336E-05 2.36302E-05 1.02933E-18-1.34472E-18
 -1      2951 9.51454E-05-2.78984E-05-2.88172E-05-1.08095E-06-1.24388E-18-1.88604E-19
 -1      2952 7.55132E-05-2.57600E-05-2.11545E-05-3.13047E-05 1.10750E-18 1.45986E-18
 -1      2953 9.53220E-05-2.56490E-05-2.98665E-05 2.56261E-06 1.05554E-18-4.81874E-21
 -1      2954 9.52046E-05-2.58780E-05-2.97059E-05 2.74102E-06 1.11863E-18 2.32991E-19
 -1      2955 9.52113E-05-2.82008E-05-2.87179E-05 7.80020E-07-8.28496E-19-1.07973E-18
 -1      2956 9.46050E-05-2.75367E-05-2.87424E-05 5.20409E-07 5.29573E-19-1.99030E-19
 -1      2957 1.39238E-04-4.71036E-05-3.97054E-05-1.18661E-06 8.88776E-19-1.96618E-18
 -1      2958 1.32343E-04-5.90996E-05-3.14825E-05 2.19350E-05 4.12240E-19 4.26375E-19
 -1      2959 1.24301E-04-5.72893E-05-2.86023E-05 2.66037E-05 8.82026E-19 2.49001E-19
 -1      2960 1.34062E-04-5.60997E-05-3.34610E-05 1.21848E-05 1.49198E-18-2.78462E-20
 -1      2961 4.69667E-05-1.74541E-05-1.20259E-05-3.07685E-05-1.37812E-18-1.24768E-18
 -1      2962 1.21684E-04-1.12033E-05-4.76433E-05 8.10109E-06 1.43996E-19-1.49522E-18
 -1      2963 1.27964E-04-8.07327E-06-5.19734E-05 5.56073E-06 1.24090E-19-7.70694E-19
 -1      2964 1.23066E-04-6.44726E-06-5.06613E-05 2.47226E-06 4.21399E-20-1.22869E-18
 -1      2965 1.30497E-04-2.45812E-05-4.56432E-05 1.18839E-05 3.21343E-19-7.69212E-20
 -1      2966 2.97789E-05-8.09431E-06-8.67787E-06-7.36516E-06 5.98879E-20-2.82358E-18
 -1      2967 3.78505E-05-7.89639E-06-1.25306E-05-1.12623E-05 1.26848E-19-2.31335E-18
 -1      2968 3.37469E-05-6.88128E-06-1.12036E-05 1.53766E-06 4.09964E-19-1.24006E-18
 -1      2969 9.47455E-05-2.24071E-05-3.09707E-05 6.32472E-06 1.53750E-18 1.08433E-19
 -1      2970 9.52295E-05-2.55479E-05-2.98403E-05 3.43983E-06 1.22404E-18 4.49172E-19
 -1      2971 7.57033E-05-3.55995E-05-1.66797E-05-4.29330E-05-1.48326E-18-1.59703E-18
 -1      2972 1.13028E-04-5.46678E-05-2.47631E-05-3.59089E-05-8.47668E-19 3.18908E-19
 -1      2973 1.19779E-04-5.54599E-05-2.77407E-05-2.68480E-05-1.44529E-18-7.49723E-20
 -1      2974 1.03564E-04-4.87043E-05-2.32942E-05-3.68396E-05-5.09596E-19-6.80750E-19
 -1      2975 1.03559E-04-5.08775E-05-2.23470E-05 3.98539E-05-1.16583E-18-1.97013E-18
 -1      2976 1.33829E-04-5.64157E-05-3.32199E-05-1.33825E-05-1.92578E-18-9.31736E-19
 -1      2977 9.15762E-05-1.66700E-05-3.21240E-05-5.57499E-06-7.85319E-19-1.66807E-18
 -1      2978 9.20919E-05-1.74439E-05-3.20229E-05-6.39627E-06-1.05001E-18-1.65731E-18
 -1      2979 9.24466E-05-1.81753E-05-3.18092E-05-4.56478E-06-6.74156E-19-1.42630E-18
 -1      2980 1.37060E-04-4.43996E-05-3.98580E-05 4.52415E-06-8.82608E-19-9.65882E-19
 -1      2981 1.36754E-04-2.81565E-05-4.70201E-05-1.08503E-05 1.78830E-19-2.51368E-18
 -1      2982 1.26089E-04-7.37323E-06-5.14345E-05-5.42402E-06 8.96373E-19-1.78539E-18
 -1      2983 1.34265E-04-1.02076E-05-5.36920E-05-6.89899E-06 2.24040E-19-1.52731E-18
 -1      2984 1.29004E-04-1.37154E-05-4.97712E-05-9.72921E-06 6.25746E-20-1.76035E-18
 -1      2985 3.81936E-05-8.47465E-06-1.21465E-05-4.23459E-06-2.79746E-19-1.06303E-19
 -1      2986 9.03625E-05-1.48577E-05-3.23796E-05-2.17016E-06 7.16434E-20-1.56942E-18
 -1      2987 9.05482E-05-1.51234E-05-3.23470E-05-3.11977E-06-1.52338E-19-1.62963E-18
 -1      2988 9.17971E-05-1.71413E-05-3.19799E-05-3.12984E-06-2.55106E-19-1.50007E-18
 -1      2989 9.14192E-05-1.65520E-05-3.20726E-05-1.57632E-06 1.20179E-19-1.48591E-18
 -1      2990 7.85666E-05-3.40797E-05-1.88574E-05 3.94037E-05-9.99817E-19-2.93825E-18
 -1      2991 6.48176E-05-2.75610E-05-1.53414E-05 3.98197E-05-1.27563E-18-3.34345E-18
 -1      2992 6.00606E-05-2.05422E-05-1.65854E-05 3.25943E-05-1.89296E-18-1.39030E-18
 -1      2993 5.96813E-05-2.29269E-05-1.50752E-05-2.86223E-05 8.68103E-19 1.28717E-18
 -1      2994 9.23762E-05-1.83076E-05-3.17589E-05 1.80311E-06 7.63114E-19-1.27350E-18
 -1      2995 9.22576E-05-1.81052E-05-3.17914E-05 1.05265E-06 5.95291E-19-1.49626E-18
 -1      2996 9.42696E-05-2.18490E-05-3.10726E-05 4.97848E-06 1.38952E-18-3.87557E-19
 -1      2997 9.38189E-05-2.09010E-05-3.12555E-05 4.59010E-06 1.26564E-18-6.20093E-19
 -1      2998 9.53732E-05-2.53466E-05-2.99877E-05 4.66460E-06 1.33037E-18 8.43054E-19
 -1      2999 5.56368E-05-9.77770E-06-1.97969E-05 1.49366E-05 8.52863E-19-4.83550E-19
 -1      3000 5.49710E-05-1.34312E-05-1.73087E-05 1.98223E-05 1.08431E-18-9.96958E-19
 -1      3001 9.24308E-05-1.79315E-05-3.19507E-05-6.92497E-06-1.23890E-18-1.68889E-18
 -1      3002 9.30504E-05-1.88787E-05-3.18169E-05-7.45629E-06-1.36143E-18-1.68032E-18
 -1      3003 9.37915E-05-2.04101E-05-3.14302E-05-6.48044E-06-1.36367E-18-1.56378E-18
 -1      3004 9.31852E-05-1.93477E-05-3.16168E-05-5.66860E-06-9.85292E-19-1.42576E-18
 -1      3005 9.56824E-05-2.67881E-05-2.95120E-05-7.44262E-07-7.87543E-19-4.91639E-19
 -1      3006 9.56632E-05-2.72377E-05-2.93328E-05-1.92144E-07-5.40513E-19-4.59912E-19
 -1      3007 9.57069E-05-2.76210E-05-2.91687E-05 2.13240E-07-3.21909E-19-3.91551E-19
 -1      3008 9.56725E-05-2.79019E-05-2.90487E-05 5.57701E-07-1.92812E-19-3.57605E-19
 -1      3009 9.58921E-05-2.72204E-05-2.94340E-05-1.21918E-07-4.28532E-19-3.37183E-19
 -1      3010 9.56615E-05-2.81300E-05-2.89344E-05 8.09807E-07-3.08555E-19-2.58849E-19
 -1      3011 9.56316E-05-2.82990E-05-2.88584E-05 1.01251E-06-3.87285E-19-2.20647E-19
 -1      3012 9.59292E-05-2.79275E-05-2.91471E-05 5.71410E-07-2.30337E-19-3.45057E-19
 -1      3013 9.55920E-05-2.84219E-05-2.87825E-05 1.15860E-06-4.35287E-19-3.95549E-19
 -1      3014 9.55712E-05-2.85130E-05-2.87391E-05 1.27146E-06-4.18743E-19-3.18970E-19
 -1      3015 9.58845E-05-2.83457E-05-2.89486E-05 9.97564E-07-4.41797E-19-1.92229E-19
 -1      3016 9.55162E-05-2.85618E-05-2.86925E-05 1.35181E-06-5.54869E-19-3.66832E-19
 -1      3017 9.55032E-05-2.85960E-05-2.86732E-05 1.41448E-06-5.75146E-19-1.82075E-19
 -1      3018 9.57954E-05-2.85591E-05-2.88184E-05 1.24606E-06-4.42636E-19-4.61014E-19
 -1      3019 9.54377E-05-2.85893E-05-2.86490E-05 1.46074E-06-4.90314E-19 6.21462E-20
 -1      3020 9.54289E-05-2.85786E-05-2.86479E-05 1.50367E-06-1.27609E-19 2.31614E-19
 -1      3021 9.56797E-05-2.86231E-05-2.87407E-05 1.38924E-06-3.06566E-19-1.14198E-19
 -1      3022 9.53518E-05-2.85261E-05-2.86408E-05 1.54050E-06-2.27566E-19 4.24075E-20
 -1      3023 9.53418E-05-2.84761E-05-2.86539E-05 1.58767E-06-1.85696E-19 4.43719E-20
 -1      3024 9.55415E-05-2.85702E-05-2.87032E-05 1.48405E-06-3.22315E-19-5.03792E-20
 -1      3025 9.52473E-05-2.83806E-05-2.86599E-05 1.63436E-06 8.94115E-20-9.40810E-20
 -1      3026 9.52287E-05-2.82908E-05-2.86845E-05 1.70554E-06-3.68001E-20-5.53282E-20
 -1      3027 9.53742E-05-2.84163E-05-2.86963E-05 1.57472E-06-2.57696E-20-1.33954E-19
 -1      3028 9.51051E-05-2.81480E-05-2.87003E-05 1.77740E-06-3.02124E-19-1.40293E-19
 -1      3029 9.50666E-05-2.80120E-05-2.87343E-05 1.89004E-06-3.56271E-19-4.00244E-19
 -1      3030 9.51611E-05-2.81621E-05-2.87126E-05 1.69543E-06-1.79140E-19-1.76842E-19
 -1      3031 9.48948E-05-2.78105E-05-2.87568E-05 1.99932E-06-1.48111E-19-4.18994E-19
 -1      3032 9.48189E-05-2.76148E-05-2.87985E-05 2.16985E-06 1.78391E-19-3.11023E-19
 -1      3033 9.48727E-05-2.77934E-05-2.87449E-05 1.87225E-06-2.19872E-19-1.18124E-19
 -1      3034 9.45694E-05-2.73349E-05-2.88238E-05 2.32600E-06 5.91077E-21-3.55930E-19
 -1      3035 9.44283E-05-2.70577E-05-2.88706E-05 2.57049E-06-1.11795E-19-3.40590E-19
 -1      3036 9.44621E-05-2.72804E-05-2.87857E-05 2.12386E-06 1.49690E-19-6.97028E-19
 -1      3037 9.40564E-05-2.66695E-05-2.88927E-05 2.77948E-06 2.70256E-19 1.69929E-19
 -1      3038 9.38068E-05-2.62789E-05-2.89396E-05 3.11327E-06 5.58751E-19 1.03867E-19
 -1      3039 9.38576E-05-2.65749E-05-2.88244E-05 2.46031E-06 3.64423E-19-6.72821E-19
 -1      3040 9.32468E-05-2.57416E-05-2.89483E-05 3.37569E-06 2.89564E-19 1.17196E-19
 -1      3041 9.28222E-05-2.51953E-05-2.89853E-05 3.81160E-06 8.76108E-20 1.37946E-19
 -1      3042 9.29530E-05-2.56088E-05-2.88438E-05 2.87914E-06 4.08602E-19-2.74188E-19
 -1      3043 9.19798E-05-2.44577E-05-2.89625E-05 4.11936E-06-4.57498E-19 1.76487E-19
 -1      3044 9.12821E-05-2.37051E-05-2.89699E-05 4.66422E-06-5.03798E-19-1.64530E-19
 -1      3045 9.15941E-05-2.42945E-05-2.88142E-05 3.35824E-06-1.11128E-19-6.57634E-19
 -1      3046 9.00254E-05-2.27111E-05-2.88831E-05 4.99675E-06-4.19647E-19-6.40180E-20
 -1      3047 8.89175E-05-2.17034E-05-2.88238E-05 5.64723E-06-1.49442E-19-4.19610E-19
 -1      3048 8.95632E-05-2.25313E-05-2.86841E-05 3.84600E-06-5.66384E-19-9.61184E-20
 -1      3049 8.70674E-05-2.04075E-05-2.86165E-05 5.97116E-06 3.55258E-20-5.75875E-20
 -1      3050 8.53726E-05-1.91238E-05-2.84228E-05 6.71403E-06 2.35065E-19-3.20268E-20
 -1      3051 8.65616E-05-2.02248E-05-2.83634E-05 4.25258E-06-1.46169E-19 7.49601E-19
 -1      3052 8.26923E-05-1.75257E-05-2.79961E-05 6.99795E-06 3.51409E-19-3.68674E-20
 -1      3053 8.02165E-05-1.60314E-05-2.75487E-05 7.82545E-06 2.39145E-19-2.06557E-19
 -1      3054 8.21883E-05-1.73263E-05-2.76963E-05 4.45765E-06 2.35248E-19 3.04932E-20
 -1      3055 7.64111E-05-1.42532E-05-2.67307E-05 8.08367E-06 1.07874E-19 3.81148E-20
 -1      3056 7.29227E-05-1.27880E-05-2.58214E-05 9.05346E-06 5.24029E-19-2.70008E-19
 -1      3057 7.59194E-05-1.39180E-05-2.64120E-05 4.36359E-06 3.42322E-19-3.78558E-19
 -1      3058 6.77309E-05-1.11991E-05-2.43189E-05 9.20645E-06 4.19169E-19-6.87043E-19
 -1      3059 6.34874E-05-1.02080E-05-2.26091E-05 1.03204E-05 3.87001E-19-6.99371E-19
 -1      3060 6.73718E-05-1.05587E-05-2.40469E-05 4.00754E-06 1.19392E-19-1.18156E-18
 -1      3061 9.53671E-05-2.55173E-05-2.99467E-05 2.15890E-06 9.66745E-19-2.20256E-19
 -1      3062 9.52867E-05-2.46793E-05-3.02566E-05 3.17512E-06 1.08640E-18-2.48151E-19
 -1      3063 7.28416E-05-1.31141E-05-2.55257E-05-1.36510E-05-5.42594E-19 1.01776E-20
 -1      3064 7.58387E-05-1.40590E-05-2.65705E-05-1.19886E-05-4.54086E-19-7.11491E-19
 -1      3065 8.00002E-05-1.57246E-05-2.75721E-05-1.11058E-05-3.55747E-19-8.76257E-19
 -1      3066 8.23645E-05-1.70399E-05-2.80726E-05-9.75897E-06-6.69697E-19-1.20129E-18
 -1      3067 7.41116E-05-1.28696E-05-2.60347E-05-7.77741E-06-8.77953E-19-1.43972E-18
 -1      3068 8.53085E-05-1.86642E-05-2.85855E-05-9.03967E-06-8.43000E-19-4.23292E-19
 -1      3069 8.69469E-05-1.99098E-05-2.87883E-05-7.90824E-06-1.12877E-18 1.62103E-20
 -1      3070 8.10313E-05-1.62932E-05-2.76239E-05-6.90008E-06-7.99067E-19-1.49955E-18
 -1      3071 8.89944E-05-2.12821E-05-2.90315E-05-7.25586E-06-1.34478E-18 9.24342E-19
 -1      3072 9.00631E-05-2.23019E-05-2.90813E-05-6.30755E-06-1.10675E-18 6.25999E-19
 -1      3073 8.58680E-05-1.93471E-05-2.84319E-05-5.94255E-06-8.28732E-19 1.44479E-19
 -1      3074 9.14404E-05-2.33668E-05-2.91787E-05-5.73219E-06-1.20534E-18 6.04198E-19
 -1      3075 9.21003E-05-2.41353E-05-2.91563E-05-4.95693E-06-8.25547E-19 5.55361E-20
 -1      3076 8.91975E-05-2.18547E-05-2.88102E-05-4.99907E-06-1.61521E-18 6.06626E-19
 -1      3077 9.30047E-05-2.49194E-05-2.91789E-05-4.45991E-06-5.44861E-19 6.67494E-19
 -1      3078 9.33901E-05-2.54716E-05-2.91277E-05-3.84264E-06 3.86456E-19-2.49292E-19
 -1      3079 9.14145E-05-2.37688E-05-2.89580E-05-4.09729E-06-2.37702E-19 4.95038E-19
 -1      3080 9.39718E-05-2.60302E-05-2.91149E-05-3.42654E-06 1.00030E-18-6.32835E-19
 -1      3081 9.41831E-05-2.64149E-05-2.90572E-05-2.94493E-06 7.16613E-19-7.05411E-19
 -1      3082 9.28603E-05-2.51737E-05-2.89878E-05-3.28405E-06 2.16710E-19 1.54009E-18
 -1      3083 9.45499E-05-2.68034E-05-2.90303E-05-2.60572E-06-1.38864E-19 1.57011E-19
 -1      3084 9.46545E-05-2.70647E-05-2.89766E-05-2.23441E-06-1.07490E-18-6.36405E-19
 -1      3085 9.37848E-05-2.61769E-05-2.89622E-05-2.58511E-06 3.33772E-19 1.99817E-18
 -1      3086 9.48799E-05-2.73265E-05-2.89470E-05-1.96441E-06-1.87316E-18-9.96177E-19
 -1      3087 9.49207E-05-2.74998E-05-2.89015E-05-1.67694E-06-1.71985E-18-5.98822E-19
 -1      3088 9.43657E-05-2.68795E-05-2.89155E-05-2.00579E-06-1.78341E-18 8.58515E-19
 -1      3089 9.50652E-05-2.76787E-05-2.88763E-05-1.47159E-06-1.79997E-18-5.15141E-19
 -1      3090 9.50713E-05-2.77865E-05-2.88398E-05-1.25181E-06-1.88578E-18-7.66088E-19
 -1      3091 9.49330E-05-2.76711E-05-2.88237E-05-1.17320E-06-8.69260E-19 1.31025E-19
 -1      3092 9.47178E-05-2.73529E-05-2.88680E-05-1.54896E-06-1.53007E-18 2.48497E-18
 -1      3093 9.50902E-05-2.80876E-05-2.87184E-05 9.09489E-07-5.45013E-19-9.94359E-19
 -1      3094 9.52385E-05-2.82311E-05-2.87160E-05 8.79134E-07-6.80885E-19-2.48657E-19
 -1      3095 9.52978E-05-2.82784E-05-2.87214E-05 9.64011E-07-9.71122E-19 3.94139E-19
 -1      3096 9.55775E-05-2.76259E-05-2.91278E-05-2.37115E-07 1.00752E-18-3.88493E-19
 -1      3097 9.56200E-05-2.72853E-05-2.92728E-05 2.02402E-07 9.82134E-19-2.94679E-19
 -1      3098 9.55493E-05-2.68170E-05-2.94661E-05 7.13178E-07 9.87514E-19-3.43587E-19
 -1      3099 9.55673E-05-2.62751E-05-2.96805E-05 1.40511E-06 9.69641E-19-2.60200E-19
 -1      3100 9.54892E-05-2.53896E-05-3.00412E-05 1.91457E-06 1.06319E-18-3.03986E-19
 -1      3101 9.57628E-05-2.67648E-05-2.95742E-05 6.06690E-07 1.06979E-18-2.63256E-19
 -1      3102 9.54064E-05-2.86534E-05-2.86069E-05-1.42400E-06 2.73920E-19-2.33705E-19
 -1      3103 9.54012E-05-2.86188E-05-2.86192E-05-1.39311E-06 1.96875E-19-1.10478E-19
 -1      3104 9.54462E-05-2.85815E-05-2.86556E-05-1.34228E-06 1.26097E-19-1.36189E-19
 -1      3105 9.54535E-05-2.85097E-05-2.86865E-05-1.26991E-06 1.94112E-19-2.17057E-19
 -1      3106 9.56760E-05-2.86440E-05-2.87309E-05-1.32191E-06 1.97255E-19-1.81207E-19
 -1      3107 9.53757E-05-2.86601E-05-2.85901E-05-1.47857E-06 4.10655E-19-6.72439E-19
 -1      3108 9.53466E-05-2.86578E-05-2.85812E-05-1.47235E-06 2.48256E-19-3.96114E-19
 -1      3109 9.53984E-05-2.86483E-05-2.86048E-05-1.50259E-06 3.83019E-19-5.98421E-19
 -1      3110 9.53543E-05-2.86435E-05-2.85909E-05-1.49438E-06 4.00020E-19-4.83857E-19
 -1      3111 9.54644E-05-2.86769E-05-2.86252E-05-1.49782E-06 4.00085E-19-7.89372E-19
 -1      3112 9.54622E-05-2.86624E-05-2.86262E-05-1.53708E-06 6.96409E-19-3.25456E-19
 -1      3113 9.53977E-05-2.86417E-05-2.86101E-05-1.52608E-06 5.51845E-19-4.10284E-19
 -1      3114 9.54426E-05-2.86521E-05-2.86267E-05-1.54578E-06 3.94390E-19-3.30471E-19
 -1      3115 9.55863E-05-2.87335E-05-2.86492E-05-1.57556E-06 1.37144E-19 1.75284E-19
 -1      3116 9.54933E-05-2.86816E-05-2.86332E-05-1.56770E-06 5.96634E-19 5.96952E-20
 -1      3117 9.54720E-05-2.86640E-05-2.86347E-05-1.60936E-06 4.18661E-19 1.98212E-19
 -1      3118 9.57975E-05-2.88979E-05-2.86700E-05-1.59734E-06-3.79601E-19 5.57179E-20
 -1      3119 9.56649E-05-2.87970E-05-2.86560E-05-1.60598E-06-1.54309E-19-1.42535E-19
 -1      3120 9.55793E-05-2.87510E-05-2.86444E-05-1.68248E-06 1.09165E-19 3.81259E-19
 -1      3121 9.61299E-05-2.91957E-05-2.86861E-05-1.56520E-06 7.57613E-20-2.52100E-19
 -1      3122 9.59447E-05-2.90271E-05-2.86752E-05-1.61207E-06-2.21211E-19-1.92735E-19
 -1      3123 9.58013E-05-2.89580E-05-2.86524E-05-1.74444E-06-8.61276E-20-3.67484E-20
 -1      3124 9.66222E-05-2.96657E-05-2.86976E-05-1.42297E-06-2.05777E-19 1.10341E-19
 -1      3125 9.63716E-05-2.94129E-05-2.86900E-05-1.53870E-06-3.56272E-20 1.72575E-19
 -1      3126 9.61850E-05-2.93341E-05-2.86577E-05-1.75656E-06-2.24869E-19-1.21184E-19
 -1      3127 9.73097E-05-3.03335E-05-2.87089E-05-1.09444E-06-6.57082E-19 7.48152E-20
 -1      3128 9.69857E-05-2.99893E-05-2.87025E-05-1.31782E-06-3.84964E-19 1.26809E-19
 -1      3129 9.67842E-05-2.99260E-05-2.86633E-05-1.65809E-06-5.02931E-19 1.40239E-19
 -1      3130 9.82083E-05-3.11905E-05-2.87307E-05-4.86835E-07-1.23281E-18 1.96717E-19
 -1      3131 9.78163E-05-3.07684E-05-2.87207E-05-8.60884E-07-8.45487E-19 3.65533E-19
 -1      3132 9.76494E-05-3.07622E-05-2.86782E-05-1.36283E-06-8.36904E-19 3.68711E-19
 -1      3133 9.92897E-05-3.21628E-05-2.87822E-05 4.95828E-07-8.58219E-19-6.04102E-20
 -1      3134 9.88599E-05-3.17131E-05-2.87598E-05-6.64130E-08-1.13430E-18 7.26766E-20
 -1      3135 9.88068E-05-3.18257E-05-2.87199E-05-7.60445E-07-1.01561E-18 4.77668E-20
 -1      3136 1.00448E-04-3.30750E-05-2.88918E-05 1.92136E-06-7.38399E-19-4.19188E-19
 -1      3137 1.00047E-04-3.27013E-05-2.88443E-05 1.15778E-06-6.64746E-19-7.03041E-21
 -1      3138 1.00224E-04-3.30140E-05-2.88168E-05 2.70274E-07-7.81507E-19 7.47469E-20
 -1      3139 1.01470E-04-3.36254E-05-2.90948E-05 3.76996E-06 1.62256E-19-3.38671E-19
 -1      3140 1.01208E-04-3.34907E-05-2.90071E-05 2.84704E-06-3.86332E-19-7.66389E-19
 -1      3141 1.01764E-04-3.40930E-05-2.90083E-05 1.82380E-06-4.98912E-19 1.81763E-19
 -1      3142 1.02042E-04-3.34112E-05-2.94251E-05 5.84685E-06 4.26535E-19-3.04599E-21
 -1      3143 1.02053E-04-3.37132E-05-2.92840E-05 4.89938E-06 5.87613E-19 7.80093E-21
 -1      3144 1.03142E-04-3.46699E-05-2.93396E-05 3.88933E-06-4.75335E-20-1.57578E-19
 -1      3145 1.01825E-04-3.20561E-05-2.98978E-05 7.69369E-06-8.31763E-20 2.13611E-19
 -1      3146 1.02214E-04-3.29451E-05-2.97006E-05 6.97404E-06 7.80908E-20 2.67822E-19
 -1      3147 1.03937E-04-3.42374E-05-2.98491E-05 6.23007E-06 3.80127E-20 4.65343E-19
 -1      3148 1.00653E-04-2.94657E-05-3.04841E-05 8.59535E-06 4.56786E-20 4.25638E-19
 -1      3149 1.01409E-04-3.09130E-05-3.02486E-05 8.43978E-06-1.28033E-19 7.21601E-20
 -1      3150 1.03716E-04-3.23754E-05-3.05414E-05 8.26301E-06 3.86062E-20 1.53298E-19
 -1      3151 9.87568E-05-2.61090E-05-3.10922E-05 7.80219E-06-5.79293E-19 7.02331E-19
 -1      3152 9.96879E-05-2.77936E-05-3.08625E-05 8.49595E-06 2.10393E-19 8.37128E-19
 -1      3153 1.02320E-04-2.90974E-05-3.13543E-05 9.09974E-06-2.36551E-19 5.54868E-19
 -1      3154 9.68647E-05-2.30924E-05-3.15752E-05 4.92380E-06-7.79029E-19 1.49127E-18
 -1      3155 9.75977E-05-2.43995E-05-3.14129E-05 6.52535E-06-6.81263E-19 1.02177E-18
 -1      3156 1.00123E-04-2.51084E-05-3.21387E-05 7.82778E-06-6.87451E-19 1.13800E-18
 -1      3157 9.59341E-05-2.17142E-05-3.17928E-05 5.50491E-07-3.05606E-19 7.85958E-19
 -1      3158 9.61581E-05-2.21101E-05-3.17462E-05 2.67378E-06-7.37687E-19 1.27132E-18
 -1      3159 9.82021E-05-2.19542E-05-3.26917E-05 4.22490E-06-4.58568E-19 5.23689E-19
 -1      3160 9.64900E-05-2.26389E-05-3.16717E-05-4.04343E-06-9.92617E-20 7.11238E-19
 -1      3161 9.60762E-05-2.19090E-05-3.17590E-05-2.02341E-06-1.57417E-19 6.55241E-19
 -1      3162 9.76101E-05-2.10275E-05-3.28471E-05-8.19452E-07-3.42717E-19 4.35974E-19
 -1      3163 9.82429E-05-2.54265E-05-3.12543E-05-7.37223E-06 8.37771E-19 1.09268E-18
 -1      3164 9.74033E-05-2.39266E-05-3.14451E-05-6.03948E-06 6.33296E-19 1.00922E-18
 -1      3165 9.87123E-05-2.27735E-05-3.25528E-05-5.58287E-06 2.91680E-20 8.21373E-19
 -1      3166 1.00303E-04-2.88510E-05-3.06685E-05-8.67281E-06 1.19904E-18 3.92059E-19
 -1      3167 9.93984E-05-2.71933E-05-3.09048E-05-8.26326E-06 1.24074E-18 6.02252E-19
 -1      3168 1.00846E-04-2.63606E-05-3.19042E-05-8.48952E-06 1.01298E-18 1.03668E-18
 -1      3169 1.01778E-04-3.16855E-05-3.00695E-05-8.09593E-06 5.04838E-19 7.62127E-20
 -1      3170 1.01123E-04-3.03947E-05-3.02944E-05-8.46512E-06 5.81800E-19-4.13379E-20
 -1      3171 1.02872E-04-3.02415E-05-3.10939E-05-9.02066E-06 1.20038E-18-7.23339E-19
 -1      3172 1.02264E-04-3.33053E-05-2.95620E-05-6.35824E-06 2.05263E-18-8.44353E-19
 -1      3173 1.01999E-04-3.26127E-05-2.97410E-05-7.18053E-06 1.69111E-18 1.42708E-19
 -1      3174 1.03922E-04-3.31216E-05-3.03135E-05-7.71286E-06 8.82446E-19-6.56495E-19
 -1      3175 1.01845E-04-3.37089E-05-2.91931E-05-4.24660E-06 1.71625E-18-3.89884E-19
 -1      3176 1.01934E-04-3.35701E-05-2.93150E-05-5.20140E-06 1.53824E-18-5.72569E-19
 -1      3177 1.03781E-04-3.44966E-05-2.96783E-05-5.50006E-06 1.48437E-18-6.10745E-19
 -1      3178 1.00863E-04-3.32523E-05-2.89590E-05-2.30270E-06 1.71612E-18 3.78229E-19
 -1      3179 1.01181E-04-3.34878E-05-2.90305E-05-3.17559E-06 2.15040E-18-2.86995E-19
 -1      3180 1.02746E-04-3.45419E-05-2.92299E-05-3.21528E-06 1.66710E-18-1.81945E-19
 -1      3181 9.96671E-05-3.23536E-05-2.88298E-05-7.80514E-07 8.89645E-19 7.77454E-19
 -1      3182 1.00085E-04-3.27723E-05-2.88651E-05-1.46934E-06 1.50047E-18 4.28234E-19
 -1      3183 1.01274E-04-3.37426E-05-2.89511E-05-1.31826E-06 1.35609E-18 6.82202E-19
 -1      3184 9.85111E-05-3.13426E-05-2.87696E-05 2.69137E-07-7.83710E-19 7.14627E-19
 -1      3185 9.89324E-05-3.18000E-05-2.87833E-05-2.13755E-07 2.75050E-19 5.59600E-19
 -1      3186 9.97453E-05-3.25773E-05-2.87995E-05 3.93835E-08 8.17745E-19 6.21604E-19
 -1      3187 9.75298E-05-3.04209E-05-2.87476E-05 9.04435E-07-6.37203E-19 7.25833E-19
 -1      3188 9.78996E-05-3.08316E-05-2.87512E-05 6.04886E-07-1.04670E-18 9.77123E-19
 -1      3189 9.83945E-05-3.13878E-05-2.87306E-05 8.88254E-07-9.98564E-19 1.38250E-18
 -1      3190 9.67668E-05-2.96787E-05-2.87425E-05 1.22240E-06 5.98257E-20 1.61522E-18
 -1      3191 9.70644E-05-3.00065E-05-2.87433E-05 1.06644E-06-2.01338E-19 1.62117E-18
 -1      3192 9.73202E-05-3.03618E-05-2.87079E-05 1.33586E-06-1.23382E-18 1.54384E-18
 -1      3193 9.62113E-05-2.91329E-05-2.87416E-05 1.31966E-06 3.40196E-19 1.99979E-18
 -1      3194 9.64367E-05-2.93728E-05-2.87435E-05 1.26615E-06 2.32218E-19 1.56292E-18
 -1      3195 9.65303E-05-2.95687E-05-2.87067E-05 1.50096E-06 2.93768E-20 2.20660E-18
 -1      3196 9.58279E-05-2.87605E-05-2.87392E-05 1.27653E-06-1.94368E-19 1.53652E-18
 -1      3197 9.59912E-05-2.89242E-05-2.87432E-05 1.29002E-06 8.23771E-19 9.58226E-19
 -1      3198 9.59862E-05-2.90058E-05-2.87123E-05 1.48468E-06 8.17620E-19 2.84383E-18
 -1      3199 9.55781E-05-2.85246E-05-2.87334E-05 1.15221E-06 4.74642E-19 6.46687E-19
 -1      3200 9.56894E-05-2.86293E-05-2.87395E-05 1.20468E-06-3.98759E-19 8.92504E-19
 -1      3201 9.56311E-05-2.86344E-05-2.87174E-05 1.36373E-06 3.29735E-20 5.07493E-19
 -1      3202 9.49416E-05-2.33580E-05-3.06600E-05-4.21790E-06-1.02853E-18-1.13236E-18
 -1      3203 9.51491E-05-2.44801E-05-3.03036E-05-3.04491E-06-9.55325E-19-1.00444E-18
 -1      3204 9.44649E-05-2.74417E-05-2.87277E-05 5.65140E-07 5.92598E-19 1.11596E-18
 -1      3205 9.45629E-05-2.75368E-05-2.87238E-05 6.78067E-07-1.02647E-18 1.04474E-18
 -1      3206 9.44967E-05-2.73118E-05-2.87919E-05-8.88583E-07-4.32557E-19 2.70076E-18
 -1      3207 9.43720E-05-2.72202E-05-2.87840E-05-7.38245E-07 4.55439E-19 5.45494E-19
 -1      3208 9.42268E-05-2.71498E-05-2.87504E-05-1.22942E-07 7.09101E-19 9.34350E-19
 -1      3209 9.42423E-05-2.71725E-05-2.87441E-05 5.57863E-08 1.54919E-18 2.32944E-18
 -1      3210 9.47461E-05-2.75179E-05-2.88157E-05-1.09744E-06-7.68204E-19 1.55142E-18
 -1      3211 4.65856E-05-1.43383E-05-1.33545E-05 2.01801E-05 6.90755E-19-1.02851E-18
 -1      3212 1.28178E-04-5.56521E-05-3.08099E-05-1.55572E-05-1.62059E-18-1.54758E-18
 -1      3213 1.31717E-04-5.33416E-05-3.40361E-05-6.26638E-06-1.36457E-18-1.95298E-18
 -1      3214 1.33515E-04-4.71107E-05-3.69132E-05 3.07942E-06-9.09793E-19-5.14467E-19
 -1      3215 1.31251E-04-3.99511E-05-3.97036E-05 8.66532E-06-2.39763E-19 2.82750E-19
 -1      3216 1.28127E-04-2.93658E-05-4.24123E-05 1.26985E-05-1.83700E-19 3.22137E-19
 -1      3217 1.23209E-04-1.99691E-05-4.48150E-05 1.20436E-05 1.11173E-19-2.28170E-20
 -1      3218 9.52978E-05-2.45384E-05-3.03511E-05 4.82290E-06 1.35727E-18 2.55151E-19
 -1      3219 1.34697E-04-4.21119E-05-4.00601E-05-6.88238E-06 1.32640E-18-2.43326E-18
 -1      3220 1.35459E-04-4.99920E-05-3.67407E-05 6.83055E-07 1.48440E-18-1.28580E-18
 -1      3221 6.55151E-05-1.34737E-05-2.20020E-05-1.85075E-05 5.56527E-20 2.03235E-19
 -1      3222 6.72403E-05-1.21423E-05-2.36917E-05-1.58526E-05-2.56836E-19-4.57318E-19
 -1      3223 6.43672E-05-9.57351E-06-2.31076E-05-9.26278E-06-8.03333E-19-6.03074E-19
 -1      3224 6.86577E-05-2.84116E-05-1.67335E-05-3.89524E-05-1.20543E-18-1.58178E-18
 -1      3225 8.53001E-05-3.86876E-05-1.99044E-05-4.03237E-05-1.03153E-18-1.67734E-18
 -1      3226 5.12903E-05-1.18730E-05-1.66751E-05 2.09078E-05-1.95937E-18-6.93667E-19
 -1      3227 4.63890E-05-7.93001E-06-1.60773E-05 1.08500E-05-1.17116E-18-5.00596E-19
 -1      3228 4.70985E-05-6.37538E-06-1.72195E-05-1.82317E-06-4.75463E-19-5.14678E-19
 -1      3229 5.02507E-05-9.89147E-06-1.67709E-05-1.51109E-05 1.79995E-20-4.21717E-19
 -1      3230 9.42975E-05-2.72538E-05-2.87367E-05 2.55848E-07 1.30271E-18 1.80325E-18
 -1      3231 9.43652E-05-2.73209E-05-2.87317E-05 4.12868E-07 1.42739E-18 9.04974E-19
 -1      3232 9.43096E-05-2.73104E-05-2.87122E-05 5.82769E-07-4.24797E-19 1.51230E-18
 -1      3233 9.41301E-05-2.71028E-05-2.87232E-05 2.19083E-07 1.41065E-18 1.96099E-18
 -1      3234 1.13743E-04-5.39765E-05-2.55436E-05 3.35422E-05-2.06200E-19-3.21323E-19
 -1      3235 9.92446E-05-4.64104E-05-2.24698E-05 3.75431E-05-4.89267E-19-1.28034E-19
 -1      3236 1.30718E-04-2.20208E-05-4.71670E-05-1.18986E-05-2.95509E-19-1.60629E-18
 -1      3237 1.31820E-04-3.06445E-05-4.36358E-05-1.13105E-05 1.29278E-19-1.44038E-18
 -1      3238 9.53811E-05-2.86704E-05-2.85883E-05-1.45866E-06 1.51674E-19-2.90738E-19
 -1      3239 9.53643E-05-2.86583E-05-2.85877E-05-1.44717E-06 2.72624E-19-3.29032E-19
 -1      3240 9.55928E-05-2.87049E-05-2.86687E-05-1.41071E-06 3.15062E-19-2.23064E-19
 -1      3241 9.55188E-05-2.87049E-05-2.86366E-05-1.45897E-06 3.72722E-19-5.43269E-19
 -1      3242 4.78387E-05-1.38245E-05-1.41268E-05-2.52503E-05-7.49809E-19-1.49353E-18
 -1      3243 5.71312E-05-2.09733E-05-1.51885E-05-3.51343E-05-1.07965E-18-1.47977E-18
 -1      3244 6.84172E-05-2.46858E-05-1.83137E-05-3.38975E-05-7.31836E-19-1.59893E-18
 -1      3245 9.42881E-05-2.71639E-05-2.87694E-05-5.27389E-07 8.57230E-19 6.30075E-19
 -1      3246 9.42364E-05-2.71304E-05-2.87616E-05-3.46667E-07 6.17895E-19 1.37816E-18
 -1      3247 9.40726E-05-2.69974E-05-2.87430E-05-2.22215E-07 7.89097E-19 1.08268E-18
 -1      3248 9.41790E-05-2.70353E-05-2.87716E-05-6.77768E-07 2.91145E-19 7.72370E-19
 -1      3249 9.54882E-05-2.54582E-05-2.99975E-05-2.18935E-06-8.57312E-19-8.01633E-19
 -1      3250 9.55341E-05-2.61690E-05-2.97397E-05-1.35426E-06-8.44878E-19-7.59215E-19
 -1      3251 9.56981E-05-2.60843E-05-2.98341E-05-1.17975E-06-6.82139E-19-4.99656E-19
 -1      3252 9.52069E-05-2.43276E-05-3.03727E-05-2.68279E-06-7.90100E-19-8.67876E-19
 -1      3253 9.47486E-05-2.29592E-05-3.07545E-05 4.93121E-06 1.32703E-18-1.86806E-19
 -1      3254 9.43258E-05-2.19513E-05-3.10031E-05 3.59377E-06 1.14809E-18-6.90672E-19
 -1      3255 9.34353E-05-2.01856E-05-3.14166E-05 4.23159E-06 1.18085E-18-9.81463E-19
 -1      3256 9.30799E-05-1.95277E-05-3.15317E-05 3.63223E-06 9.78673E-19-1.11569E-18
 -1      3257 1.31239E-04-4.86003E-05-3.54446E-05-9.89679E-07 1.90839E-18-1.40872E-18
 -1      3258 1.34091E-04-5.34404E-05-3.47841E-05 5.49606E-06 1.85721E-18-1.56378E-18
 -1      3259 1.29936E-04-5.43012E-05-3.24487E-05 1.05051E-05 1.77132E-18-6.33064E-19
 -1      3260 5.41648E-05-7.25762E-06-1.96034E-05 5.94052E-06 7.54548E-19-6.62856E-19
 -1      3261 9.27896E-05-1.90207E-05-3.16337E-05 3.11165E-06 9.69559E-19-1.19044E-18
 -1      3262 9.25525E-05-1.86065E-05-3.17021E-05 2.40991E-06 8.45655E-19-1.17791E-18
 -1      3263 9.33589E-05-1.99730E-05-3.14332E-05 1.78706E-06 7.55693E-19-1.13326E-18
 -1      3264 9.37633E-05-2.07593E-05-3.12711E-05 2.81532E-06 9.63422E-19-1.13982E-18
 -1      3265 6.77799E-05-2.18172E-05-1.96605E-05 2.94736E-05-1.09593E-18-1.15985E-18
 -1      3266 5.84744E-05-1.58991E-05-1.77619E-05 2.55596E-05-1.91477E-18-2.70309E-19
 -1      3267 5.98163E-05-1.35105E-05-1.97236E-05 1.93257E-05-1.21541E-18-4.20446E-19
 -1      3268 9.21972E-05-1.80042E-05-3.18101E-05 4.07531E-07 4.33059E-19-1.47551E-18
 -1      3269 9.21960E-05-1.80011E-05-3.18107E-05-3.56300E-07 3.71935E-19-1.42031E-18
 -1      3270 9.31459E-05-1.95792E-05-3.15106E-05 6.24222E-07 5.13590E-19-1.26406E-18
 -1      3271 9.49427E-05-2.35722E-05-3.05774E-05 3.32745E-06 1.11768E-18-3.49703E-19
 -1      3272 9.50044E-05-2.37484E-05-3.05201E-05 3.78729E-06 1.16597E-18-2.35955E-19
 -1      3273 4.64031E-05-1.09659E-05-1.46055E-05-1.85673E-05-4.29181E-19-1.38204E-18
 -1      3274 5.60240E-05-1.40648E-05-1.73361E-05-2.29340E-05-2.85900E-19-1.03486E-18
 -1      3275 4.51575E-05-7.97135E-06-1.57025E-05-1.01789E-05 4.27487E-19-1.44165E-18
 -1      3276 9.48598E-05-2.78559E-05-2.87187E-05 8.80321E-07-1.22948E-18 2.25344E-18
 -1      3277 9.49674E-05-2.79606E-05-2.87163E-05 8.99214E-07-7.35730E-19-8.76576E-20
 -1      3278 9.49861E-05-2.79911E-05-2.87104E-05 1.01399E-06-1.87385E-19-6.79256E-19
 -1      3279 4.03911E-05-8.65815E-06-1.26026E-05 9.08941E-06 6.12458E-19-6.26275E-19
 -1      3280 9.55812E-05-2.79118E-05-2.89914E-05-5.63816E-07 9.74866E-19-3.31688E-19
 -1      3281 9.58400E-05-2.76328E-05-2.92358E-05-2.72166E-07 1.01909E-18-2.69378E-19
 -1      3282 9.55455E-05-2.81248E-05-2.88972E-05-8.26861E-07 8.22134E-19-3.02266E-19
 -1      3283 9.57576E-05-2.84831E-05-2.88354E-05-1.14709E-06 3.19868E-19-8.71896E-20
 -1      3284 9.54954E-05-2.84206E-05-2.87469E-05-1.16552E-06 3.14379E-19-2.14564E-19
 -1      3285 9.55169E-05-2.82922E-05-2.88042E-05-1.01983E-06 5.63655E-19-3.10211E-19
 -1      3286 9.53784E-05-2.83533E-05-2.87221E-05 1.03353E-06-7.90469E-19 8.72152E-19
 -1      3287 9.54598E-05-2.84252E-05-2.87286E-05 1.10497E-06 3.98595E-19 9.47461E-19
 -1      3288 9.53795E-05-2.83881E-05-2.87150E-05 1.23310E-06-1.77136E-19-6.67930E-19
 -1      3289 9.51832E-05-2.81964E-05-2.87125E-05 1.09769E-06-4.19100E-19-5.38580E-19
 -1      3290 9.46531E-05-2.76422E-05-2.87219E-05 7.64330E-07-9.24423E-19 8.71386E-19
 -1      3291 9.47609E-05-2.77482E-05-2.87188E-05 8.29868E-07-1.48527E-18 1.94444E-18
 -1      3292 9.47390E-05-2.77539E-05-2.87065E-05 9.57633E-07-6.78194E-19 1.44033E-18
 -1      3293 9.45255E-05-2.75395E-05-2.87073E-05 8.22317E-07-8.26685E-19 1.61313E-18
 -1      3294 5.44221E-05-8.18602E-06-1.96827E-05 1.13307E-06-1.08229E-18-1.00871E-18
 -1      3295 1.20184E-04-1.61294E-05-4.49623E-05 1.10064E-05-1.37537E-19-1.40782E-18
 -1      3296 1.16256E-04-1.27438E-05-4.47347E-05 8.60491E-06 2.82697E-20-9.94046E-19
 -1      3297 1.18584E-04-2.10713E-05-4.19823E-05 1.15172E-05-7.64341E-19-8.49389E-19
 -1      3298 1.00632E-04-4.37724E-05-2.42622E-05 3.15041E-05 4.10282E-19 1.94165E-18
 -1      3299 9.07973E-05-4.00139E-05-2.14098E-05 3.76618E-05-4.90220E-19-7.77947E-19
 -1      3300 8.17818E-05-3.23356E-05-2.10654E-05 3.43142E-05 1.96247E-19-1.16941E-18
 -1      3301 9.45443E-05-2.73001E-05-2.88161E-05-1.14460E-06-1.04320E-18 1.52258E-18
 -1      3302 1.28849E-04-4.89461E-05-3.42971E-05-7.08757E-07-7.51801E-19-9.06008E-19
 -1      3303 4.17025E-05-6.19429E-06-1.51188E-05 2.86431E-06 1.13182E-18-9.14478E-19
 -1      3304 5.70366E-05-1.51721E-05-1.75612E-05-2.33547E-05 2.87753E-19 4.68515E-19
 -1      3305 1.25834E-04-3.39850E-05-3.94489E-05 1.11258E-05-3.31666E-19 7.95232E-19
 -1      3306 9.64515E-05-4.34706E-05-2.23350E-05-3.68859E-05-6.58092E-19-1.47331E-18
 -1      3307 1.04679E-04-4.66847E-05-2.49672E-05-3.05879E-05-3.79974E-20-7.94940E-19
 -1      3308 8.85742E-05-3.67820E-05-2.20353E-05-3.46748E-05-8.02643E-19-1.89293E-18
 -1      3309 1.20170E-04-5.45409E-05-2.80291E-05 2.48178E-05 9.63765E-19 1.66940E-18
 -1      3310 9.30565E-05-1.94829E-05-3.15407E-05-3.59683E-06-4.63537E-19-1.19279E-18
 -1      3311 9.34170E-05-2.01397E-05-3.14273E-05-4.21020E-06-7.56503E-19-1.25466E-18
 -1      3312 1.21253E-04-5.34353E-05-2.90296E-05-1.96698E-05-9.01190E-19-1.49738E-18
 -1      3313 1.20767E-04-7.18264E-06-4.91942E-05-1.36224E-06 8.31469E-19-5.85068E-19
 -1      3314 1.17483E-04-9.11733E-06-4.67766E-05-4.70478E-06 4.24152E-19-2.05842E-19
 -1      3315 1.15404E-04-8.56118E-06-4.60549E-05 1.92908E-06 2.04135E-19-3.50617E-19
 -1      3316 1.31180E-04-3.65006E-05-4.08410E-05-1.07125E-05 1.37839E-18-6.88373E-19
 -1      3317 1.28679E-04-4.03962E-05-3.79946E-05-8.15743E-06 2.14318E-18-2.95165E-19
 -1      3318 1.25310E-04-2.97321E-05-4.11908E-05-1.25524E-05 7.91235E-19-3.12449E-19
 -1      3319 1.24801E-04-1.74674E-05-4.63968E-05-1.15442E-05 3.28861E-19-8.08811E-19
 -1      3320 9.25361E-05-1.85795E-05-3.17075E-05-2.36466E-06-1.41344E-19-1.28809E-18
 -1      3321 9.27662E-05-1.89819E-05-3.16409E-05-3.06693E-06-3.98169E-19-1.33692E-18
 -1      3322 9.37570E-05-2.07217E-05-3.12793E-05-2.80614E-06-4.79900E-19-1.13012E-18
 -1      3323 9.42321E-05-2.17283E-05-3.10914E-05-5.50380E-06-1.26155E-18-1.43240E-18
 -1      3324 9.41694E-05-2.16230E-05-3.10997E-05-4.81600E-06-1.01807E-18-1.28606E-18
 -1      3325 9.39147E-05-2.11716E-05-3.11847E-05-4.42608E-06-7.90833E-19-1.28221E-18
 -1      3326 9.60135E-05-2.67859E-05-2.96628E-05-4.20060E-07-4.57916E-19-5.98122E-19
 -1      3327 9.60650E-05-2.72719E-05-2.94894E-05 2.34776E-08-2.84968E-19-5.87768E-19
 -1      3328 9.50667E-05-2.38720E-05-3.05127E-05 2.60653E-06 1.10355E-18-5.65737E-19
 -1      3329 9.47427E-05-2.29900E-05-3.07635E-05 3.16025E-06 1.12122E-18-6.52723E-19
 -1      3330 9.44720E-05-2.23065E-05-3.09259E-05 2.89763E-06 1.06111E-18-8.44822E-19
 -1      3331 9.61426E-05-2.76857E-05-2.93316E-05 3.26512E-07-1.46393E-19-5.81003E-19
 -1      3332 9.61353E-05-2.79913E-05-2.92088E-05 6.09856E-07-1.96202E-19-4.65244E-19
 -1      3333 9.62347E-05-2.73014E-05-2.95430E-05 8.27084E-08-2.29465E-19-7.04358E-19
 -1      3334 9.61313E-05-2.82339E-05-2.90937E-05 8.01038E-07-3.94062E-19-4.85761E-19
 -1      3335 9.60935E-05-2.84086E-05-2.90097E-05 9.73515E-07-4.11821E-19-6.21867E-19
 -1      3336 9.63064E-05-2.80261E-05-2.92641E-05 5.97588E-07-2.31546E-19-9.33862E-19
 -1      3337 9.60383E-05-2.85303E-05-2.89288E-05 1.08652E-06-4.49905E-19-4.52641E-19
 -1      3338 9.59842E-05-2.86100E-05-2.88749E-05 1.18793E-06-4.03323E-19-3.76790E-19
 -1      3339 9.62494E-05-2.84412E-05-2.90622E-05 9.20142E-07-3.70548E-19-7.48547E-19
 -1      3340 9.58948E-05-2.86425E-05-2.88210E-05 1.25227E-06-4.14802E-19-3.85687E-19
 -1      3341 9.58294E-05-2.86504E-05-2.87902E-05 1.31433E-06-3.92471E-19-3.61604E-19
 -1      3342 9.61081E-05-2.86272E-05-2.89218E-05 1.11308E-06-4.51832E-19-5.16724E-19
 -1      3343 9.57135E-05-2.86136E-05-2.87573E-05 1.35372E-06-4.71065E-19-3.16450E-19
 -1      3344 9.56359E-05-2.85629E-05-2.87442E-05 1.40114E-06-4.05879E-19-3.34861E-19
 -1      3345 9.59067E-05-2.86394E-05-2.88297E-05 1.22865E-06-4.00480E-19-3.00055E-19
 -1      3346 9.54935E-05-2.84674E-05-2.87271E-05 1.43349E-06-1.64071E-19-2.75717E-19
 -1      3347 9.53979E-05-2.83638E-05-2.87274E-05 1.48516E-06 4.65363E-20-9.39137E-20
 -1      3348 9.56530E-05-2.85119E-05-2.87748E-05 1.30779E-06-2.22237E-19-3.50946E-19
 -1      3349 9.52218E-05-2.82119E-05-2.87215E-05 1.52289E-06-4.19050E-20-1.03701E-19
 -1      3350 9.50967E-05-2.80537E-05-2.87315E-05 1.59286E-06-2.46702E-19 6.61399E-20
 -1      3351 9.53403E-05-2.82608E-05-2.87470E-05 1.37976E-06-9.51763E-20-3.67675E-19
 -1      3352 9.48719E-05-2.78399E-05-2.87325E-05 1.64310E-06-2.71918E-19 3.99687E-20
 -1      3353 9.46982E-05-2.76178E-05-2.87485E-05 1.74108E-06-4.65805E-20 1.50041E-19
 -1      3354 9.49473E-05-2.78860E-05-2.87373E-05 1.46237E-06-2.79420E-19-5.04214E-19
 -1      3355 9.44006E-05-2.73290E-05-2.87513E-05 1.80509E-06-2.93159E-20-5.18516E-21
 -1      3356 9.41487E-05-2.70256E-05-2.87686E-05 1.93605E-06 1.63813E-21-3.92635E-19
 -1      3357 9.44364E-05-2.73721E-05-2.87358E-05 1.56110E-06-1.29599E-19 7.03521E-20
 -1      3358 9.37421E-05-2.66401E-05-2.87665E-05 2.00756E-06 1.56605E-19-4.27215E-19
 -1      3359 9.33673E-05-2.62292E-05-2.87783E-05 2.17003E-06 5.46646E-19-3.81885E-19
 -1      3360 9.37491E-05-2.66885E-05-2.87303E-05 1.66628E-06 6.84957E-21-3.54461E-19
 -1      3361 9.28002E-05-2.57173E-05-2.87611E-05 2.23215E-06 3.17840E-19-6.03234E-19
 -1      3362 9.22373E-05-2.51639E-05-2.87558E-05 2.41485E-06 1.23786E-19-9.99078E-19
 -1      3363 9.28008E-05-2.57897E-05-2.87034E-05 1.74743E-06 1.25408E-19-6.88766E-19
 -1      3364 9.14384E-05-2.44887E-05-2.87074E-05 2.43514E-06-1.19401E-20-1.04212E-18
 -1      3365 9.05934E-05-2.37503E-05-2.86655E-05 2.61167E-06-4.22261E-19-1.15366E-18
 -1      3366 9.14732E-05-2.46179E-05-2.86286E-05 1.74394E-06 6.56765E-20-1.14846E-18
 -1      3367 8.94673E-05-2.28729E-05-2.85595E-05 2.53541E-06-3.48998E-19-6.99570E-19
 -1      3368 8.82089E-05-2.19052E-05-2.84473E-05 2.65762E-06-1.28903E-19-3.50729E-19
 -1      3369 8.96064E-05-2.31103E-05-2.84633E-05 1.55160E-06 1.46399E-19-1.13485E-18
 -1      3370 8.66300E-05-2.07939E-05-2.82404E-05 2.39981E-06 1.72424E-19 2.59379E-19
 -1      3371 8.47783E-05-1.95628E-05-2.79999E-05 2.39271E-06 2.02132E-19 5.14860E-19
 -1      3372 8.69899E-05-2.12138E-05-2.81387E-05 1.00517E-06 4.66092E-19-6.06031E-19
 -1      3373 8.25799E-05-1.82105E-05-2.76200E-05 1.83043E-06-7.72752E-20 7.85739E-19
 -1      3374 7.98936E-05-1.67121E-05-2.71513E-05 1.59765E-06 3.02689E-19 3.67473E-19
 -1      3375 8.33525E-05-1.89112E-05-2.75421E-05-1.42224E-07 2.30175E-19 7.21169E-20
 -1      3376 7.68322E-05-1.51643E-05-2.64759E-05 5.84765E-07 2.03285E-19 3.80338E-20
 -1      3377 7.30247E-05-1.34811E-05-2.56056E-05 4.41038E-08 7.22311E-20-1.44052E-19
 -1      3378 7.83175E-05-1.62379E-05-2.64866E-05-2.23832E-06 4.65372E-21 4.54238E-19
 -1      3379 6.85730E-05-1.17674E-05-2.44098E-05-1.49975E-06-3.22256E-19-6.68706E-19
 -1      3380 6.29138E-05-1.00983E-05-2.27322E-05-2.20603E-06-4.88976E-19-1.01866E-18
 -1      3381 7.12708E-05-1.33365E-05-2.46462E-05-5.73847E-06-5.42586E-19 1.55563E-19
 -1      3382 7.75762E-05-1.51327E-05-2.68656E-05-3.72445E-06-5.59842E-19-9.28578E-19
 -1      3383 8.06946E-05-1.67367E-05-2.74619E-05-3.52675E-06 2.60396E-20-5.29594E-19
 -1      3384 8.34049E-05-1.83227E-05-2.79480E-05-3.89113E-06-6.22978E-19 1.17296E-19
 -1      3385 8.54845E-05-1.96825E-05-2.82387E-05-3.62681E-06-1.26075E-18-1.00596E-19
 -1      3386 8.12273E-05-1.72450E-05-2.73255E-05-1.02264E-06-4.70575E-20 5.00418E-19
 -1      3387 8.73735E-05-2.09549E-05-2.84982E-05-3.72149E-06-1.37318E-18 4.03338E-19
 -1      3388 8.87664E-05-2.20252E-05-2.86303E-05-3.39192E-06-9.78762E-19 9.72015E-19
 -1      3389 8.56139E-05-1.99290E-05-2.80859E-05-1.89917E-06-4.81390E-19 8.10290E-20
 -1      3390 9.00819E-05-2.30166E-05-2.87615E-05-3.33002E-06-4.64496E-19 1.21124E-18
 -1      3391 9.09977E-05-2.38228E-05-2.88090E-05-2.98437E-06 5.09276E-19 1.42269E-18
 -1      3392 8.87074E-05-2.21201E-05-2.84934E-05-2.19559E-06 7.12542E-20 2.07377E-18
 -1      3393 9.19030E-05-2.45682E-05-2.88681E-05-2.84287E-06 2.94194E-19 6.61362E-19
 -1      3394 9.24936E-05-2.51574E-05-2.88728E-05-2.51770E-06-1.00544E-21 7.59956E-19
 -1      3395 9.08569E-05-2.38251E-05-2.86984E-05-2.15943E-06 1.70184E-19 6.89101E-19
 -1      3396 9.31088E-05-2.57030E-05-2.88932E-05-2.34618E-06 7.16910E-19 6.31475E-20
 -1      3397 9.34828E-05-2.61247E-05-2.88785E-05-2.05942E-06 5.12976E-19-2.30580E-19
 -1      3398 9.23313E-05-2.51103E-05-2.87895E-05-1.95142E-06 4.39801E-19-6.52825E-19
 -1      3399 9.38957E-05-2.65122E-05-2.88794E-05-1.88700E-06-3.92256E-19 7.69446E-19
 -1      3400 9.41235E-05-2.68080E-05-2.88579E-05-1.64332E-06-1.21579E-18 1.52554E-18
 -1      3401 9.33299E-05-2.60577E-05-2.88197E-05-1.67394E-06 4.23291E-19-1.96066E-18
 -1      3402 9.42818E-05-2.69714E-05-2.88441E-05-1.47030E-06-1.37065E-18 1.73398E-18
 -1      3403 9.44295E-05-2.71774E-05-2.88260E-05-1.28957E-06-1.08799E-18 2.08247E-18
 -1      3404 9.41473E-05-2.69648E-05-2.87943E-05-1.03628E-06-5.58042E-19 1.56949E-18
 -1      3405 9.38588E-05-2.66258E-05-2.88112E-05-1.34515E-06-9.99452E-20 3.13162E-19
 -1      3406 9.58730E-05-2.87015E-05-2.87873E-05-1.26262E-06 3.08318E-19 4.74210E-21
 -1      3407 9.59172E-05-2.86388E-05-2.88309E-05-1.19248E-06 2.18736E-19 2.11777E-19
 -1      3408 9.54699E-05-2.86266E-05-2.86441E-05-1.53546E-06 3.78087E-19 1.12626E-19
 -1      3409 9.54705E-05-2.86374E-05-2.86433E-05-1.50237E-06 2.00561E-19-1.29993E-19
 -1      3410 9.55355E-05-2.86716E-05-2.86533E-05-1.46161E-06 3.48516E-19-2.86794E-19
 -1      3411 9.55569E-05-2.86904E-05-2.86574E-05-1.43575E-06 4.90171E-19-4.39292E-19
 -1      3412 9.55436E-05-2.86481E-05-2.86716E-05-1.44328E-06 3.09267E-19-7.74003E-20
 -1      3413 9.55476E-05-2.87159E-05-2.86387E-05-1.75404E-06 6.15406E-20 2.36074E-19
 -1      3414 9.54679E-05-2.86492E-05-2.86360E-05-1.70917E-06 1.18352E-19 1.45032E-19
 -1      3415 9.57701E-05-2.89481E-05-2.86346E-05-1.87715E-06-2.08975E-19-2.24751E-19
 -1      3416 9.56210E-05-2.88049E-05-2.86332E-05-1.84169E-06 3.36235E-20 1.99697E-20
 -1      3417 9.54752E-05-2.87013E-05-2.86227E-05-1.87677E-06 1.95311E-19-1.29437E-19
 -1      3418 9.61897E-05-2.93828E-05-2.86287E-05-1.96753E-06-2.66513E-19 1.09477E-19
 -1      3419 9.59450E-05-2.91343E-05-2.86282E-05-1.96388E-06-2.49499E-19-1.56203E-19
 -1      3420 9.57149E-05-2.89844E-05-2.86068E-05-2.07839E-06-8.50334E-20 1.79127E-20
 -1      3421 9.68757E-05-3.00785E-05-2.86259E-05-1.96467E-06-9.20690E-19 2.07994E-19
 -1      3422 9.65078E-05-2.96989E-05-2.86235E-05-2.02720E-06-5.38358E-19 8.88171E-20
 -1      3423 9.61962E-05-2.95111E-05-2.85910E-05-2.26596E-06-4.79795E-19 2.38865E-19
 -1      3424 9.78962E-05-3.10750E-05-2.86390E-05-1.77674E-06-8.55078E-19 8.70519E-20
 -1      3425 9.73836E-05-3.05522E-05-2.86280E-05-1.95354E-06-7.68958E-19 3.97489E-19
 -1      3426 9.70082E-05-3.03510E-05-2.85835E-05-2.37461E-06-9.99685E-19 5.07217E-20
 -1      3427 9.92937E-05-3.23607E-05-2.86918E-05-1.27713E-06-1.14156E-18-2.04487E-19
 -1      3428 9.86349E-05-3.17144E-05-2.86601E-05-1.62855E-06-8.03855E-19 1.81196E-19
 -1      3429 9.82411E-05-3.15503E-05-2.86027E-05-2.29790E-06-7.89677E-19 2.60382E-19
 -1      3430 1.01042E-04-3.38222E-05-2.88220E-05-3.12618E-07-8.53821E-19 1.57959E-19
 -1      3431 1.00277E-04-3.31309E-05-2.87513E-05-9.02149E-07-1.27203E-18-3.22870E-19
 -1      3432 9.99557E-05-3.30910E-05-2.86809E-05-1.87869E-06-1.15793E-18-3.01699E-19
 -1      3433 1.02990E-04-3.51815E-05-2.90816E-05 1.26017E-06-4.77221E-19 1.15582E-20
 -1      3434 1.02224E-04-3.46127E-05-2.89481E-05 3.90433E-07-2.64128E-19 3.01610E-19
 -1      3435 1.02129E-04-3.48263E-05-2.88684E-05-9.14767E-07-8.38983E-19-6.32308E-19
 -1      3436 1.04795E-04-3.59463E-05-2.95306E-05 3.48219E-06 1.23062E-19 2.96289E-19
 -1      3437 1.04216E-04-3.57704E-05-2.93087E-05 2.36269E-06-2.37662E-19 2.16402E-19
 -1      3438 1.04571E-04-3.63990E-05-2.92329E-05 7.99247E-07-3.68524E-19-1.17424E-19
 -1      3439 1.05930E-04-3.54473E-05-3.02233E-05 6.13284E-06-4.31656E-20 7.08661E-19
 -1      3440 1.05773E-04-3.59969E-05-2.98943E-05 4.93782E-06 5.97870E-20 4.02033E-19
 -1      3441 1.06838E-04-3.71749E-05-2.98512E-05 3.33446E-06-1.11663E-19 4.31351E-19
 -1      3442 1.05832E-04-3.30893E-05-3.11679E-05 8.53248E-06-3.68852E-19 1.10020E-18
 -1      3443 1.06261E-04-3.45867E-05-3.07410E-05 7.63980E-06-6.36995E-20 6.21238E-19
 -1      3444 1.08225E-04-3.63074E-05-3.07898E-05 6.42149E-06-1.42527E-19 1.05483E-18
 -1      3445 1.04230E-04-2.88555E-05-3.22701E-05 9.49412E-06-5.61543E-19 1.31415E-18
 -1      3446 1.05205E-04-3.11496E-05-3.18019E-05 9.45705E-06-8.31490E-19 7.95861E-19
 -1      3447 1.07968E-04-3.31096E-05-3.20324E-05 9.16527E-06-5.67261E-19 8.70910E-19
 -1      3448 1.01626E-04-2.37223E-05-3.33222E-05 8.06475E-06-5.47928E-19 1.31004E-18
 -1      3449 1.02851E-04-2.62408E-05-3.29101E-05 9.24123E-06-3.68833E-19 1.69243E-18
 -1      3450 1.06097E-04-2.82283E-05-3.33641E-05 9.95337E-06-6.23310E-19 1.29978E-18
 -1      3451 9.95439E-05-2.01316E-05-3.40020E-05 3.58129E-06-7.42524E-19 1.54551E-18
 -1      3452 1.00160E-04-2.15347E-05-3.37860E-05 5.78529E-06-9.09763E-19 1.70530E-18
 -1      3453 1.02866E-04-2.18011E-05-3.47010E-05 7.76641E-06-9.82863E-19 1.21603E-18
 -1      3454 9.91663E-05-1.96569E-05-3.40912E-05-2.27558E-06-5.67351E-19 1.77859E-18
 -1      3455 9.89998E-05-1.93623E-05-3.41350E-05 4.05573E-07-1.19765E-19 1.57314E-18
 -1      3456 1.01142E-04-1.87776E-05-3.53154E-05 2.29841E-06-3.51962E-19 2.63577E-18
 -1      3457 1.00913E-04-2.28384E-05-3.35530E-05-7.18197E-06 1.03324E-19 1.06621E-18
 -1      3458 1.00062E-04-2.09813E-05-3.38408E-05-5.21523E-06-3.84568E-19 1.05416E-18
 -1      3459 1.01551E-04-1.94464E-05-3.51842E-05-4.26361E-06-6.66025E-21 1.17502E-18
 -1      3460 1.03653E-04-2.78572E-05-3.25706E-05-9.56540E-06 1.64234E-18 6.06993E-19
 -1      3461 1.02497E-04-2.53232E-05-3.30143E-05-8.81005E-06 1.01266E-18 7.76195E-19
 -1      3462 1.03896E-04-2.37861E-05-3.42774E-05-8.94388E-06 8.47026E-19-1.57058E-19
 -1      3463 1.05730E-04-3.24383E-05-3.14576E-05-9.08967E-06 1.21309E-18 2.16751E-19
 -1      3464 1.04877E-04-3.03339E-05-3.19179E-05-9.45661E-06 1.91318E-18 6.57178E-19
 -1      3465 1.06742E-04-2.96391E-05-3.29800E-05-1.01360E-05 1.93997E-18 7.83618E-19
 -1      3466 1.06271E-04-3.52379E-05-3.04564E-05-6.82476E-06 1.24753E-18-5.60451E-19
 -1      3467 1.06023E-04-3.40505E-05-3.08543E-05-7.86451E-06 8.37648E-19-4.89136E-19
 -1      3468 1.08312E-04-3.44334E-05-3.16222E-05-8.42543E-06 1.47783E-18 6.97320E-19
 -1      3469 1.05364E-04-3.60433E-05-2.96944E-05-4.08951E-06 1.61496E-18-8.80960E-19
 -1      3470 1.05683E-04-3.57655E-05-2.99880E-05-5.28568E-06 1.62365E-18-9.32045E-19
 -1      3471 1.07932E-04-3.67966E-05-3.04695E-05-5.42613E-06 1.39761E-18-1.81876E-18
 -1      3472 1.03600E-04-3.54337E-05-2.91871E-05-1.69488E-06 1.31246E-18-2.58222E-19
 -1      3473 1.04264E-04-3.57742E-05-2.93774E-05-2.73684E-06 1.39514E-18-7.68169E-19
 -1      3474 1.06171E-04-3.70270E-05-2.96376E-05-2.46941E-06 1.22377E-18-1.77160E-18
 -1      3475 1.01577E-04-3.41030E-05-2.88887E-05 3.93351E-08 7.46865E-19 4.93373E-19
 -1      3476 1.02360E-04-3.47429E-05-2.89973E-05-7.29783E-07 1.31909E-18 1.02440E-19
 -1      3477 1.03778E-04-3.59017E-05-2.91088E-05-2.01437E-07 7.03071E-19-4.68032E-19
 -1      3478 9.96982E-05-3.25880E-05-2.87370E-05 1.11071E-06 6.94021E-19 3.59960E-19
 -1      3479 1.00441E-04-3.32897E-05-2.87900E-05 6.17268E-07 8.09632E-19 5.61245E-19
 -1      3480 1.01377E-04-3.42047E-05-2.88127E-05 1.23857E-06 7.30455E-19-9.00119E-19
 -1      3481 9.81637E-05-3.12108E-05-2.86757E-05 1.65701E-06-1.88592E-18 1.12585E-18
 -1      3482 9.87823E-05-3.18372E-05-2.86955E-05 1.38724E-06-6.08837E-19 1.07501E-18
 -1      3483 9.93231E-05-3.24753E-05-2.86724E-05 1.97974E-06-4.77474E-19 6.14957E-20
 -1      3484 9.70191E-05-3.01100E-05-2.86627E-05 1.84229E-06-1.17224E-18 1.14136E-19
 -1      3485 9.74901E-05-3.06050E-05-2.86658E-05 1.73263E-06-1.53695E-18 4.06516E-20
 -1      3486 9.77444E-05-3.09996E-05-2.86241E-05 2.23420E-06-6.25739E-19-9.29941E-19
 -1      3487 9.62264E-05-2.93087E-05-2.86711E-05 1.80470E-06 2.26079E-19-1.33268E-19
 -1      3488 9.65605E-05-2.96661E-05-2.86676E-05 1.79913E-06-6.34364E-19-3.15145E-19
 -1      3489 9.66268E-05-2.98728E-05-2.86231E-05 2.19199E-06-5.60013E-19-1.62327E-18
 -1      3490 9.57148E-05-2.87710E-05-2.86855E-05 1.64470E-06 1.27394E-18 2.82093E-20
 -1      3491 9.59371E-05-2.90095E-05-2.86809E-05 1.70039E-06 1.19308E-18 2.96951E-19
 -1      3492 9.58931E-05-2.90852E-05-2.86419E-05 1.99187E-06 5.30623E-19-1.83598E-18
 -1      3493 9.54136E-05-2.84397E-05-2.86985E-05 1.42894E-06 1.58110E-19-3.40657E-19
 -1      3494 9.55482E-05-2.85873E-05-2.86954E-05 1.51454E-06 7.61479E-19 5.31230E-19
 -1      3495 9.54464E-05-2.85765E-05-2.86652E-05 1.72516E-06 7.20160E-19-1.68434E-18
 -1      3496 9.44141E-05-2.22123E-05-3.09373E-05-3.43381E-06-7.34181E-19-1.20342E-18
 -1      3497 6.58706E-05-2.00359E-05-1.92687E-05-2.87050E-05-9.40260E-19-1.38882E-18
 -1      3498 7.55235E-05-2.72804E-05-2.05624E-05-3.22349E-05-1.04303E-18-2.06295E-18
 -1      3499 6.05309E-05-1.03104E-05-2.10531E-05 1.11263E-05-6.56662E-19-1.25554E-18
 -1      3500 6.04246E-05-9.22390E-06-2.19454E-05-1.16350E-07-2.76431E-19-8.61935E-19
 -1      3501 6.63467E-05-1.09108E-05-2.38472E-05-5.28960E-08-3.24738E-19-1.07237E-18
 -1      3502 1.24644E-04-4.88514E-05-3.23990E-05-2.76801E-06-4.53163E-19-1.39135E-18
 -1      3503 1.25409E-04-4.50883E-05-3.47935E-05 4.58086E-06-3.55357E-21-2.33000E-19
 -1      3504 1.14371E-04-5.02500E-05-2.71968E-05-2.38580E-05-3.03238E-19-1.10269E-18
 -1      3505 1.20405E-04-5.10187E-05-2.98171E-05-1.38460E-05-8.39244E-19-1.71446E-18
 -1      3506 9.54628E-05-2.86264E-05-2.86409E-05-1.63423E-06 1.49031E-19 2.75518E-19
 -1      3507 9.54313E-05-2.86098E-05-2.86380E-05-1.59270E-06 4.50599E-19 1.65729E-19
 -1      3508 9.54389E-05-2.85910E-05-2.86517E-05-1.55139E-06 1.58243E-19-1.44170E-19
 -1      3509 9.54023E-05-2.85911E-05-2.86370E-05-1.69617E-06 1.97492E-19-5.45398E-20
 -1      3510 7.00467E-05-1.20240E-05-2.50082E-05-2.27059E-06-9.64066E-19-1.07772E-18
 -1      3511 7.45401E-05-1.37696E-05-2.61098E-05-2.31191E-06-1.09514E-18-1.55057E-18
 -1      3512 7.57455E-05-1.45229E-05-2.60706E-05 1.32750E-06 7.66631E-20 7.30467E-20
 -1      3513 6.95630E-05-1.22150E-05-2.42252E-05 5.71802E-06-4.95905E-19-9.48776E-19
 -1      3514 1.25015E-04-5.49980E-05-3.00837E-05 1.72928E-05 1.17166E-18 2.05141E-19
 -1      3515 1.15454E-04-5.13743E-05-2.74621E-05 2.36619E-05 7.30910E-19 1.34914E-18
 -1      3516 1.23528E-04-3.70837E-05-3.69157E-05 1.01032E-05-1.56966E-19-2.44554E-19
 -1      3517 1.19662E-04-2.91064E-05-3.91152E-05 1.24021E-05-4.36487E-19-9.00383E-19
 -1      3518 9.22460E-05-1.80911E-05-3.17932E-05-1.00147E-06 2.44392E-19-1.36963E-18
 -1      3519 9.23613E-05-1.82882E-05-3.17623E-05-1.74249E-06-4.33774E-21-1.34114E-18
 -1      3520 9.33723E-05-1.99606E-05-3.14374E-05-1.76812E-06-6.45694E-20-1.20671E-18
 -1      3521 1.18708E-04-1.32253E-05-4.56707E-05-9.18263E-06-9.13737E-20 2.10911E-19
 -1      3522 1.20105E-04-1.95023E-05-4.33869E-05-1.16307E-05 5.46019E-19 6.51104E-19
 -1      3523 1.13952E-04-1.22790E-05-4.38302E-05-6.16607E-06 4.19228E-19 3.20073E-19
 -1      3524 9.46219E-05-2.26330E-05-3.08540E-05-2.57700E-06-5.43750E-19-9.25870E-19
 -1      3525 9.50375E-05-2.35965E-05-3.06186E-05-2.71682E-06-6.27276E-19-1.05863E-18
 -1      3526 9.53565E-05-2.46367E-05-3.03162E-05-1.86663E-06-5.50822E-19-8.79550E-19
 -1      3527 1.28256E-04-4.51141E-05-3.58216E-05-4.88372E-06 1.92004E-18-2.93418E-20
 -1      3528 1.27222E-04-4.74868E-05-3.41800E-05-1.01627E-06 1.86330E-18-3.78121E-19
 -1      3529 9.38610E-05-2.09954E-05-3.12395E-05 7.99411E-07 5.50770E-19-1.09566E-18
 -1      3530 9.38115E-05-2.08963E-05-3.12591E-05 2.43844E-07 3.68939E-19-1.18213E-18
 -1      3531 5.96524E-05-1.23833E-05-1.93906E-05-1.97589E-05-1.22026E-19-6.55246E-19
 -1      3532 6.14985E-05-1.59613E-05-1.92703E-05-2.52567E-05-6.63743E-19-6.90094E-19
 -1      3533 6.93890E-05-1.98317E-05-2.13279E-05-2.31025E-05-1.05409E-18-1.06340E-18
 -1      3534 1.25846E-04-5.23964E-05-3.14390E-05 9.95980E-06 1.20119E-18-4.62454E-19
 -1      3535 9.58217E-05-2.81705E-05-2.89973E-05-8.24146E-07 6.97283E-19-7.56024E-20
 -1      3536 9.38671E-05-2.67216E-05-2.87723E-05-8.95687E-07 7.80095E-19 5.55663E-19
 -1      3537 9.39996E-05-2.68823E-05-2.87679E-05-7.57504E-07 2.45816E-19 7.72971E-19
 -1      3538 9.39066E-05-2.68248E-05-2.87503E-05-5.30148E-07 1.94028E-19 3.67362E-19
 -1      3539 9.59112E-05-2.67942E-05-2.96306E-05 3.96049E-07 1.01545E-18-4.38280E-19
 -1      3540 9.58361E-05-2.62071E-05-2.98333E-05 9.52077E-07 1.02050E-18-4.85739E-19
 -1      3541 9.59787E-05-2.85501E-05-2.88988E-05-1.10690E-06 1.96772E-19 6.57928E-20
 -1      3542 9.60191E-05-2.84179E-05-2.89674E-05-9.78016E-07 4.29721E-19-1.34509E-20
 -1      3543 9.61428E-05-2.85922E-05-2.89523E-05-1.04987E-06 2.44853E-19 1.96705E-20
 -1      3544 9.56358E-05-2.87228E-05-2.86749E-05-1.40525E-06 5.57508E-19-4.38148E-19
 -1      3545 9.56702E-05-2.87323E-05-2.86874E-05-1.37963E-06 5.07920E-19-2.73699E-19
 -1      3546 9.56872E-05-2.87177E-05-2.87031E-05-1.36236E-06 4.90177E-19-9.83276E-20
 -1      3547 9.56229E-05-2.55997E-05-3.00185E-05 1.33601E-06 1.04979E-18-4.99199E-19
 -1      3548 9.54167E-05-2.47432E-05-3.02864E-05 2.10150E-06 1.01771E-18-5.01657E-19
 -1      3549 9.52444E-05-2.41448E-05-3.04693E-05 2.00114E-06 9.89918E-19-6.97603E-19
 -1      3550 9.57572E-05-2.56129E-05-3.00628E-05 1.10069E-06 1.00809E-18-4.94227E-19
 -1      3551 1.24889E-04-3.97554E-05-3.65777E-05-8.62970E-06 1.91228E-18 1.13836E-18
 -1      3552 9.52721E-05-2.83058E-05-2.86997E-05 1.34519E-06 4.69912E-19-4.69752E-19
 -1      3553 9.51540E-05-2.82492E-05-2.86787E-05 1.49284E-06 4.22664E-19-9.66110E-19
 -1      3554 9.51593E-05-2.81886E-05-2.86979E-05 1.28166E-06 1.55289E-19-6.18212E-19
 -1      3555 6.52048E-05-1.41496E-05-2.18668E-05 1.54428E-05-2.32550E-19-9.53441E-20
 -1      3556 9.43835E-05-2.74474E-05-2.86901E-05 9.10869E-07-6.84697E-19 2.41752E-18
 -1      3557 9.44981E-05-2.75502E-05-2.86892E-05 9.92773E-07-1.81071E-19 1.00340E-18
 -1      3558 1.14276E-04-4.88263E-05-2.79835E-05 1.98314E-05 1.26800E-18 6.43064E-19
 -1      3559 1.09026E-04-4.77953E-05-2.60909E-05 2.70736E-05 9.63143E-19 2.48873E-18
 -1      3560 1.00281E-04-4.19585E-05-2.50204E-05 2.79261E-05 8.11140E-19 2.52626E-18
 -1      3561 9.39030E-05-2.69314E-05-2.87064E-05 2.14899E-07 1.15388E-18 1.59320E-18
 -1      3562 9.39824E-05-2.70145E-05-2.86986E-05 4.25882E-07 1.30526E-18 1.67769E-18
 -1      3563 1.21850E-04-5.00113E-05-3.08297E-05-7.94283E-06-7.57453E-19-1.52729E-18
 -1      3564 1.19867E-04-4.61863E-05-3.14971E-05-1.83558E-06-3.09485E-19-1.63105E-18
 -1      3565 1.15557E-04-4.75369E-05-2.91985E-05-1.23131E-05-7.74361E-19-1.60843E-18
 -1      3566 9.56986E-05-2.54971E-05-3.00842E-05-1.41460E-06-5.46632E-19-7.36450E-19
 -1      3567 9.58486E-05-2.62152E-05-2.98512E-05-7.81788E-07-4.43656E-19-5.59491E-19
 -1      3568 9.59930E-05-2.62264E-05-2.98954E-05-6.16994E-07-4.00976E-19-6.83008E-19
 -1      3569 9.55245E-05-2.47802E-05-3.03158E-05-1.43996E-06-3.61981E-19-7.65623E-19
 -1      3570 6.03975E-05-1.07679E-05-2.13852E-05-8.82216E-06-1.21060E-19-8.34142E-19
 -1      3571 5.29329E-05-9.48519E-06-1.84518E-05-8.04070E-06 5.91705E-19-6.54015E-19
 -1      3572 1.17451E-04-2.57499E-05-3.94554E-05 1.28508E-05-9.30677E-19-1.25499E-18
 -1      3573 1.13995E-04-2.17392E-05-3.98014E-05 1.16277E-05-1.07142E-18-1.32682E-18
 -1      3574 1.15798E-04-2.91831E-05-3.70242E-05 1.18891E-05-6.78910E-19-1.58664E-18
 -1      3575 9.31419E-05-1.95659E-05-3.15119E-05-5.87653E-07 2.67389E-19-1.27249E-18
 -1      3576 8.44027E-05-3.21089E-05-2.21236E-05-3.14806E-05-1.01189E-18-2.58598E-18
 -1      3577 9.25668E-05-3.67329E-05-2.40500E-05-2.89334E-05-6.75721E-19-1.90416E-18
 -1      3578 8.09792E-05-2.78904E-05-2.27358E-05-2.73710E-05-6.52533E-19-2.12878E-18
 -1      3579 1.06802E-04-4.55291E-05-2.62168E-05-2.50435E-05-3.62120E-19-1.20435E-18
 -1      3580 1.13967E-04-1.15215E-05-4.42537E-05 5.83354E-06 5.64177E-19-1.37898E-18
 -1      3581 1.10876E-04-1.06121E-05-4.31242E-05 2.18861E-06 3.50195E-19-1.62695E-18
 -1      3582 1.12356E-04-1.44438E-05-4.18861E-05 8.55082E-06 1.30390E-19-1.56481E-18
 -1      3583 9.60448E-05-2.76868E-05-2.93023E-05-3.53605E-07 9.09362E-19-4.01635E-19
 -1      3584 9.60402E-05-2.73062E-05-2.94478E-05 9.84487E-09 8.96100E-19-4.35234E-19
 -1      3585 9.60792E-05-2.68107E-05-2.96881E-05 2.85448E-07 9.51187E-19-5.02868E-19
 -1      3586 1.21050E-04-3.97448E-05-3.48699E-05 7.57283E-06 1.03532E-19-8.87135E-19
 -1      3587 8.66846E-05-3.24439E-05-2.32860E-05 2.90203E-05 7.32763E-19 1.22034E-18
 -1      3588 7.73548E-05-2.70639E-05-2.12160E-05 3.04620E-05-2.31716E-19-1.79251E-18
 -1      3589 7.39100E-05-2.26252E-05-2.20092E-05 2.53915E-05-6.18691E-19-2.23776E-19
 -1      3590 1.20628E-04-2.47984E-05-4.13523E-05-1.28924E-05 1.02250E-18-5.32043E-21
 -1      3591 1.20153E-04-2.95037E-05-3.89667E-05-1.20418E-05 9.60562E-19 7.43801E-20
 -1      3592 1.14699E-04-1.95589E-05-4.09098E-05-1.14827E-05 3.96120E-19 9.10163E-19
 -1      3593 9.39453E-05-2.11679E-05-3.11979E-05 1.23768E-06 6.91829E-19-9.83979E-19
 -1      3594 9.46036E-05-2.23257E-05-3.09577E-05 8.16660E-07 5.52152E-19-8.42304E-19
 -1      3595 9.40802E-05-2.14537E-05-3.11377E-05 1.74187E-06 8.69469E-19-1.01099E-18
 -1      3596 9.38613E-05-2.68291E-05-2.87319E-05-2.68323E-07 1.07066E-18 9.40622E-19
 -1      3597 9.38623E-05-2.68503E-05-2.87188E-05-2.89248E-08 1.24542E-18 1.21397E-18
 -1      3598 9.37019E-05-2.67421E-05-2.86932E-05 1.83831E-07 1.21073E-18 1.75144E-18
 -1      3599 9.36827E-05-2.66487E-05-2.87254E-05-3.39137E-07 8.96227E-19-2.58956E-19
 -1      3600 9.40985E-05-2.71584E-05-2.86932E-05 6.23545E-07 2.81850E-19 3.01183E-18
 -1      3601 9.42284E-05-2.72789E-05-2.86901E-05 7.80217E-07-8.76991E-19 2.75758E-18
 -1      3602 9.41881E-05-2.72890E-05-2.86704E-05 9.72867E-07-3.26497E-19 3.05895E-18
 -1      3603 9.38861E-05-2.69721E-05-2.86750E-05 6.38125E-07 5.85812E-19 2.87775E-18
 -1      3604 9.44057E-05-2.21832E-05-3.09621E-05-2.16887E-06-3.95719E-19-1.09421E-18
 -1      3605 9.57533E-05-2.87449E-05-2.87164E-05-1.34849E-06 5.36471E-19-2.14499E-19
 -1      3606 9.57951E-05-2.87280E-05-2.87418E-05-1.31028E-06 5.58222E-19-1.38262E-19
 -1      3607 9.60062E-05-2.87331E-05-2.88334E-05-1.19856E-06 5.80465E-19-5.38632E-20
 -1      3608 9.58477E-05-2.87596E-05-2.87539E-05-1.29004E-06 6.09712E-19-3.44798E-19
 -1      3609 6.57966E-05-1.30931E-05-2.22352E-05-1.44726E-05-4.51766E-19-2.15914E-19
 -1      3610 9.50204E-05-2.80371E-05-2.87042E-05 1.10588E-06 2.41717E-19-1.35472E-18
 -1      3611 9.50949E-05-2.81203E-05-2.87024E-05 1.19070E-06 3.54567E-19-8.83017E-19
 -1      3612 9.49622E-05-2.80270E-05-2.86885E-05 1.28759E-06 1.73244E-19-9.66066E-20
 -1      3613 9.48700E-05-2.79103E-05-2.87002E-05 1.10001E-06 3.56834E-19 1.32518E-19
 -1      3614 9.45243E-05-2.21459E-05-3.10002E-05 1.50739E-08 2.47725E-19-9.89829E-19
 -1      3615 9.38122E-05-2.08967E-05-3.12596E-05-2.05113E-07 2.23316E-19-1.22790E-18
 -1      3616 9.38665E-05-2.10053E-05-3.12422E-05-7.73686E-07 9.19663E-20-1.12475E-18
 -1      3617 9.43583E-05-2.20582E-05-3.09978E-05 2.54818E-06 9.24625E-19-1.14743E-18
 -1      3618 9.41418E-05-2.15803E-05-3.11026E-05 2.12521E-06 8.58568E-19-1.23441E-18
 -1      3619 9.47147E-05-2.26302E-05-3.08775E-05 1.55473E-06 7.92131E-19-1.08989E-18
 -1      3620 9.48238E-05-2.30051E-05-3.07682E-05 2.19759E-06 9.35133E-19-1.00480E-18
 -1      3621 7.24636E-05-1.95671E-05-2.26841E-05-2.03003E-05-2.08483E-19-1.11552E-18
 -1      3622 7.63441E-05-2.29203E-05-2.26854E-05-2.40271E-05-4.93288E-19-2.11521E-18
 -1      3623 9.62898E-05-2.69306E-05-2.97230E-05-1.32142E-07-3.08111E-19-7.80254E-19
 -1      3624 9.63722E-05-2.74148E-05-2.95586E-05 1.91611E-07-1.70466E-19-8.41307E-19
 -1      3625 9.64488E-05-2.78184E-05-2.94090E-05 3.92286E-07-1.79790E-19-8.88497E-19
 -1      3626 9.64468E-05-2.81168E-05-2.92878E-05 6.02371E-07-2.53564E-19-9.85649E-19
 -1      3627 9.64946E-05-2.74856E-05-2.95748E-05 2.13530E-07-2.27411E-19-9.18896E-19
 -1      3628 9.64297E-05-2.83456E-05-2.91757E-05 7.28935E-07-1.92812E-19-7.21788E-19
 -1      3629 9.63757E-05-2.85053E-05-2.90890E-05 8.59843E-07-2.25953E-19-6.05957E-19
 -1      3630 9.65499E-05-2.81616E-05-2.93090E-05 5.51491E-07-8.01547E-20-7.43364E-19
 -1      3631 9.62960E-05-2.86074E-05-2.90075E-05 9.33547E-07-3.06815E-19-5.54215E-19
 -1      3632 9.62072E-05-2.86627E-05-2.89482E-05 1.01271E-06-3.63019E-19-4.16574E-19
 -1      3633 9.64537E-05-2.85282E-05-2.91112E-05 7.63086E-07-1.20001E-19-6.38903E-19
 -1      3634 9.60821E-05-2.86681E-05-2.88911E-05 1.05320E-06-3.54096E-19-3.32830E-19
 -1      3635 9.59663E-05-2.86422E-05-2.88530E-05 1.10321E-06-3.01297E-19-3.52953E-19
 -1      3636 9.62510E-05-2.86584E-05-2.89686E-05 8.87838E-07-3.12612E-19-3.30985E-19
 -1      3637 9.58042E-05-2.85709E-05-2.88147E-05 1.12530E-06-2.21371E-19-2.82186E-19
 -1      3638 9.56615E-05-2.84778E-05-2.87927E-05 1.16288E-06-1.55844E-19-2.48233E-19
 -1      3639 9.59673E-05-2.86051E-05-2.88694E-05 9.57990E-07-1.95734E-19-3.66478E-19
 -1      3640 9.54627E-05-2.83407E-05-2.87681E-05 1.17589E-06-2.64195E-19-2.74205E-19
 -1      3641 9.52860E-05-2.81861E-05-2.87573E-05 1.21185E-06-3.37686E-20-3.65943E-19
 -1      3642 9.56115E-05-2.84026E-05-2.88028E-05 9.96167E-07-1.07351E-19-3.59017E-19
 -1      3643 9.50431E-05-2.79861E-05-2.87412E-05 1.21902E-06-7.14223E-20-2.99753E-19
 -1      3644 9.48177E-05-2.77680E-05-2.87370E-05 1.25806E-06-1.60544E-19-2.99932E-19
 -1      3645 9.51769E-05-2.80684E-05-2.87583E-05 1.01303E-06-8.54695E-21-2.40604E-20
 -1      3646 9.45155E-05-2.75010E-05-2.87239E-05 1.25563E-06-9.87584E-20-1.14026E-19
 -1      3647 9.42174E-05-2.72105E-05-2.87208E-05 1.29522E-06-4.27448E-20-3.23331E-20
 -1      3648 9.46415E-05-2.76053E-05-2.87252E-05 1.00563E-06 9.89374E-20 1.20350E-19
 -1      3649 9.38322E-05-2.68660E-05-2.87041E-05 1.27036E-06-1.55951E-19-1.07623E-19
 -1      3650 9.34256E-05-2.64874E-05-2.86948E-05 1.29845E-06-1.16403E-19-3.70724E-19
 -1      3651 9.39679E-05-2.70041E-05-2.86913E-05 9.53967E-07-7.99952E-20-4.62617E-20
 -1      3652 9.29249E-05-2.60501E-05-2.86657E-05 1.22599E-06-5.71595E-20-3.89610E-19
 -1      3653 9.23589E-05-2.55622E-05-2.86396E-05 1.21696E-06 2.26856E-19-5.22000E-19
 -1      3654 9.31015E-05-2.62463E-05-2.86409E-05 8.15063E-07-8.41059E-20 1.15462E-19
 -1      3655 9.17004E-05-2.50145E-05-2.85851E-05 1.05437E-06 4.36373E-19-5.10363E-19
 -1      3656 9.09051E-05-2.43930E-05-2.85257E-05 9.63000E-07 2.43989E-19-4.56936E-19
 -1      3657 9.19700E-05-2.53094E-05-2.85523E-05 5.14109E-07 8.80426E-20 3.32197E-19
 -1      3658 9.00374E-05-2.37206E-05-2.84267E-05 6.43643E-07 3.17067E-20-6.95508E-19
 -1      3659 8.89195E-05-2.29438E-05-2.83078E-05 3.96756E-07 3.73074E-19-6.21970E-19
 -1      3660 9.04831E-05-2.41763E-05-2.83939E-05-6.81125E-08 2.16332E-19-2.51504E-21
 -1      3661 8.77849E-05-2.21455E-05-2.81352E-05-1.78566E-07 7.29710E-19-7.09698E-19
 -1      3662 8.62229E-05-2.12046E-05-2.79146E-05-6.92276E-07 5.44471E-19-5.63652E-19
 -1      3663 8.85365E-05-2.28517E-05-2.81191E-05-1.11154E-06 5.49836E-19-6.86492E-19
 -1      3664 8.47643E-05-2.03107E-05-2.76239E-05-1.66560E-06 4.00047E-19-6.92424E-19
 -1      3665 8.26003E-05-1.92249E-05-2.72329E-05-2.60963E-06 1.53282E-19-3.12300E-19
 -1      3666 8.60224E-05-2.13913E-05-2.76573E-05-2.87668E-06 5.82573E-19-1.19370E-18
 -1      3667 8.07874E-05-1.83449E-05-2.67561E-05-4.17978E-06 3.55688E-20-9.13836E-20
 -1      3668 7.78607E-05-1.71836E-05-2.60927E-05-5.80052E-06-4.26494E-20-4.45175E-19
 -1      3669 8.28583E-05-1.99487E-05-2.69026E-05-5.72054E-06 2.98889E-19-1.05810E-18
 -1      3670 7.48157E-05-1.59594E-05-2.51851E-05-7.92096E-06-5.92715E-19-2.72341E-19
 -1      3671 7.07937E-05-1.49298E-05-2.40309E-05-1.06005E-05-6.16441E-19-6.98273E-19
 -1      3672 7.13396E-05-1.68641E-05-2.31033E-05-1.61611E-05-2.28074E-19-4.72337E-19
 -1      3673 7.82156E-05-1.82925E-05-2.55698E-05-9.98782E-06-3.37270E-19-6.83834E-19
 -1      3674 9.46261E-05-2.76812E-05-2.86934E-05 1.04202E-06-4.69086E-19 5.94102E-19
 -1      3675 9.47489E-05-2.77903E-05-2.86945E-05 1.09249E-06-2.37405E-20 9.45351E-19
 -1      3676 9.47827E-05-2.78439E-05-2.86877E-05 1.18965E-06-1.58028E-19 5.11093E-19
 -1      3677 9.44909E-05-2.75861E-05-2.86756E-05 1.14159E-06-2.97966E-19 1.89450E-18
 -1      3678 1.18562E-04-4.10416E-05-3.31578E-05 5.85187E-06 2.99969E-19-7.07985E-19
 -1      3679 1.16483E-04-3.56796E-05-3.48774E-05 1.01274E-05-3.02285E-20-2.94443E-19
 -1      3680 8.44322E-05-1.97439E-05-2.77808E-05 9.27984E-08-3.13185E-19 1.54979E-19
 -1      3681 8.63011E-05-2.08510E-05-2.80607E-05-3.26997E-07 8.42649E-21-1.27219E-19
 -1      3682 8.77080E-05-2.18017E-05-2.82834E-05-8.79674E-07 1.83678E-19-4.99452E-21
 -1      3683 8.90166E-05-2.26973E-05-2.84325E-05-1.03178E-06 4.03818E-19 9.38564E-19
 -1      3684 8.70328E-05-2.15373E-05-2.80258E-05 8.85054E-07 5.24693E-19-3.75499E-20
 -1      3685 9.00541E-05-2.34734E-05-2.85586E-05-1.30665E-06-2.38251E-19 3.47482E-19
 -1      3686 9.09569E-05-2.41694E-05-2.86320E-05-1.30433E-06-3.73668E-19-2.85595E-19
 -1      3687 8.94005E-05-2.31076E-05-2.83798E-05-1.38513E-07-3.49664E-19-1.01028E-18
 -1      3688 9.17098E-05-2.47778E-05-2.86998E-05-1.41059E-06-4.97683E-19-4.36599E-20
 -1      3689 9.23247E-05-2.53030E-05-2.87312E-05-1.32840E-06-5.31567E-21-8.97141E-19
 -1      3690 9.11395E-05-2.44007E-05-2.85802E-05-6.51526E-07-5.05949E-19 7.51171E-19
 -1      3691 9.28646E-05-2.57640E-05-2.87650E-05-1.33573E-06 1.55647E-18-1.84161E-18
 -1      3692 9.32735E-05-2.61521E-05-2.87738E-05-1.22411E-06 1.46003E-18-3.50036E-19
 -1      3693 9.23966E-05-2.54226E-05-2.86881E-05-8.53532E-07 4.87216E-19-3.00972E-19
 -1      3694 9.35084E-05-2.63573E-05-2.87773E-05-1.13461E-06 1.07228E-18-3.90426E-19
 -1      3695 9.36729E-05-2.65579E-05-2.87689E-05-9.65214E-07 8.86765E-19-3.83181E-19
 -1      3696 9.35411E-05-2.64803E-05-2.87404E-05-6.75760E-07 1.55703E-18 2.53178E-19
 -1      3697 9.31274E-05-2.60778E-05-2.87284E-05-8.08958E-07 1.69815E-18-7.00528E-19
 -1      3698 9.56040E-05-2.89063E-05-2.85782E-05-2.25553E-06-4.46152E-19 4.09790E-19
 -1      3699 9.54275E-05-2.87167E-05-2.85884E-05-2.13637E-06-7.18454E-20 2.39603E-19
 -1      3700 9.53661E-05-2.86050E-05-2.86063E-05-1.95836E-06 2.39532E-19-1.19345E-19
 -1      3701 9.52920E-05-2.85223E-05-2.86154E-05-1.84960E-06 2.15186E-19-1.79803E-19
 -1      3702 9.51976E-05-2.85282E-05-2.85792E-05-2.11490E-06-2.18349E-19 5.88113E-19
 -1      3703 9.70197E-05-3.04305E-05-2.85316E-05-2.84703E-06-8.27921E-19-5.39762E-20
 -1      3704 9.65067E-05-2.99049E-05-2.85335E-05-2.78594E-06-7.40821E-19 3.11410E-19
 -1      3705 9.84213E-05-3.18055E-05-2.85457E-05-2.96797E-06-1.08984E-18-9.05255E-20
 -1      3706 9.76747E-05-3.10692E-05-2.85280E-05-3.01678E-06-8.79200E-19-4.42307E-19
 -1      3707 9.70174E-05-3.06428E-05-2.84694E-05-3.49137E-06-6.58555E-19-3.85219E-19
 -1      3708 1.00412E-04-3.36105E-05-2.86320E-05-2.75533E-06-9.14617E-19-8.08732E-19
 -1      3709 9.94172E-05-3.26836E-05-2.85735E-05-3.00433E-06-9.46914E-19-6.12358E-19
 -1      3710 9.86410E-05-3.22510E-05-2.84845E-05-3.82766E-06-5.42369E-19-9.57440E-19
 -1      3711 1.02992E-04-3.56994E-05-2.88534E-05-1.95414E-06-1.01471E-18-9.08567E-19
 -1      3712 1.01795E-04-3.46890E-05-2.87228E-05-2.51615E-06-1.12888E-18-9.19906E-19
 -1      3713 1.01000E-04-3.43754E-05-2.85934E-05-3.79959E-06-7.51892E-19-1.20041E-18
 -1      3714 1.05957E-04-3.76639E-05-2.92965E-05-2.81994E-07-4.08638E-19-1.69859E-19
 -1      3715 1.04716E-04-3.68232E-05-2.90540E-05-1.25563E-06-7.16093E-19-7.04210E-19
 -1      3716 1.04105E-04-3.68384E-05-2.88785E-05-3.04426E-06-1.19403E-18-1.30405E-18
 -1      3717 1.08793E-04-3.87289E-05-3.00658E-05 2.46955E-06-8.38237E-19 6.07012E-19
 -1      3718 1.07830E-04-3.84993E-05-2.96673E-05 1.07335E-06-7.46507E-19 5.42250E-20
 -1      3719 1.07781E-04-3.91507E-05-2.94636E-05-1.13398E-06-1.04607E-18-8.52063E-19
 -1      3720 1.10667E-04-3.77934E-05-3.12552E-05 6.04474E-06 9.65957E-20 1.03370E-18
 -1      3721 1.10363E-04-3.87377E-05-3.06737E-05 4.45191E-06-7.97204E-20 1.01211E-18
 -1      3722 1.11275E-04-4.01302E-05-3.04854E-05 2.16989E-06-8.23761E-19 6.38313E-19
 -1      3723 1.10897E-04-3.39201E-05-3.29687E-05 9.45616E-06-4.29605E-20 5.92950E-19
 -1      3724 1.11572E-04-3.64570E-05-3.22545E-05 8.22978E-06 9.22670E-20 7.85027E-19
 -1      3725 1.08551E-04-2.53686E-05-3.57295E-05 1.07481E-05-9.36673E-19 2.96925E-19
 -1      3726 1.10199E-04-2.90978E-05-3.48438E-05 1.09570E-05-5.54860E-19 2.93146E-19
 -1      3727 1.06865E-04-2.16395E-05-3.65082E-05 9.03754E-06-1.27856E-18 7.76746E-19
 -1      3728 1.02597E-04-1.61681E-05-3.70127E-05 1.04834E-06 3.59089E-19 8.56026E-19
 -1      3729 1.02904E-04-1.71796E-05-3.69020E-05 4.29990E-06-1.77505E-19 1.28253E-18
 -1      3730 1.03615E-04-1.84891E-05-3.65987E-05-6.27063E-06 3.25075E-19-2.55864E-19
 -1      3731 1.02775E-04-1.67596E-05-3.69061E-05-3.41783E-06 4.44811E-19 3.30951E-19
 -1      3732 1.04980E-04-1.47470E-05-3.86459E-05-1.15328E-06 7.18840E-19-6.41786E-19
 -1      3733 1.09911E-04-2.58479E-05-3.61824E-05-1.09870E-05 1.39871E-18-5.62999E-19
 -1      3734 1.08081E-04-2.19423E-05-3.69635E-05-9.73403E-06 5.64150E-19-3.64398E-19
 -1      3735 1.11169E-04-3.74144E-05-3.16288E-05-7.01875E-06 1.89319E-18 3.81142E-19
 -1      3736 1.10836E-04-3.55429E-05-3.22843E-05-8.32899E-06 1.84631E-18 3.88224E-19
 -1      3737 1.09671E-04-3.88526E-05-3.03197E-05-3.30253E-06 1.75559E-18-5.49652E-19
 -1      3738 1.10247E-04-3.83520E-05-3.08454E-05-4.86879E-06 2.09755E-18 5.62807E-20
 -1      3739 1.12949E-04-3.95594E-05-3.14670E-05-4.92489E-06 2.31491E-18 1.39740E-19
 -1      3740 1.06852E-04-3.80308E-05-2.94477E-05-2.25852E-07 8.28533E-19-8.02272E-19
 -1      3741 1.07956E-04-3.85226E-05-2.97929E-05-1.49734E-06 1.16028E-18-1.18719E-18
 -1      3742 1.10248E-04-4.00688E-05-3.00936E-05-8.37860E-07 1.71740E-18-2.19265E-19
 -1      3743 1.03732E-04-3.61079E-05-2.89383E-05 1.72210E-06 4.68087E-19-9.28228E-19
 -1      3744 1.04986E-04-3.70452E-05-2.91393E-05 8.87313E-07 6.74928E-19-1.19101E-18
 -1      3745 1.06565E-04-3.84209E-05-2.92413E-05 1.92028E-06 1.03415E-18-1.33395E-18
 -1      3746 1.00939E-04-3.39384E-05-2.86807E-05 2.68586E-06 9.22244E-19-1.22664E-18
 -1      3747 1.02090E-04-3.49550E-05-2.87814E-05 2.24632E-06 1.15864E-18-1.06695E-18
 -1      3748 1.03021E-04-3.59713E-05-2.87776E-05 3.36789E-06 7.33667E-19-1.83246E-18
 -1      3749 9.87450E-05-3.20078E-05-2.85779E-05 2.96526E-06-5.61612E-19-1.20295E-18
 -1      3750 9.96712E-05-3.28974E-05-2.86174E-05 2.80614E-06-7.91099E-20-1.31314E-18
 -1      3751 1.00118E-04-3.35476E-05-2.85667E-05 3.81102E-06 3.31851E-19-1.00520E-18
 -1      3752 9.71685E-05-3.04949E-05-2.85596E-05 2.84451E-06 2.24413E-19-1.77913E-18
 -1      3753 9.78492E-05-3.11844E-05-2.85659E-05 2.85887E-06-6.09659E-20-1.08187E-18
 -1      3754 9.79787E-05-3.15423E-05-2.85012E-05 3.66648E-06-5.02041E-19-1.91991E-18
 -1      3755 9.61242E-05-2.94173E-05-2.85802E-05 2.52812E-06-2.93592E-19-1.84312E-18
 -1      3756 9.65871E-05-2.99051E-05-2.85716E-05 2.63426E-06-3.49967E-19-1.97243E-18
 -1      3757 9.65290E-05-3.00537E-05-2.85097E-05 3.23353E-06 2.88098E-19-8.20239E-19
 -1      3758 9.54870E-05-2.87098E-05-2.86143E-05 2.14355E-06 6.35664E-19-1.30404E-18
 -1      3759 9.57779E-05-2.90278E-05-2.86009E-05 2.28927E-06-3.00378E-19-1.91314E-18
 -1      3760 9.56263E-05-2.90439E-05-2.85489E-05 2.70768E-06 4.92336E-20-9.09967E-19
 -1      3761 9.51456E-05-2.82885E-05-2.86480E-05 1.76120E-06 5.64737E-19-1.03402E-18
 -1      3762 9.53058E-05-2.84788E-05-2.86353E-05 1.91170E-06 1.34286E-18-5.55685E-19
 -1      3763 9.51138E-05-2.84120E-05-2.85955E-05 2.19241E-06 2.44149E-19 1.56905E-19
 -1      3764 1.25953E-04-5.05916E-05-3.24374E-05 4.39303E-06 1.61036E-18-2.29976E-19
 -1      3765 1.21395E-04-5.04634E-05-3.04105E-05 1.04062E-05 1.41794E-18 1.79525E-19
 -1      3766 1.23789E-04-4.70857E-05-3.29153E-05-5.88354E-08 1.87102E-18 1.82734E-19
 -1      3767 9.42891E-05-2.18759E-05-3.10476E-05-1.76925E-06-3.93355E-19-1.00568E-18
 -1      3768 9.51442E-05-2.36012E-05-3.06457E-05-1.62611E-06-3.88845E-19-8.98761E-19
 -1      3769 9.60479E-05-2.82367E-05-2.90649E-05-8.26588E-07 4.78693E-19-6.10772E-20
 -1      3770 9.60753E-05-2.80030E-05-2.91668E-05-6.03230E-07 7.40742E-19-1.96899E-19
 -1      3771 9.62298E-05-2.77202E-05-2.93635E-05-3.74339E-07 6.49810E-19-3.21151E-19
 -1      3772 9.62303E-05-2.82789E-05-2.91239E-05-7.95145E-07 3.72163E-19 5.96853E-20
 -1      3773 9.41453E-05-2.15752E-05-3.11093E-05-1.27331E-06-1.24123E-19-1.02127E-18
 -1      3774 1.08715E-04-1.27126E-05-4.14508E-05-3.58408E-06 6.77865E-19-1.02402E-18
 -1      3775 1.09744E-04-1.54740E-05-4.05144E-05-7.97043E-06 9.50583E-19-3.81674E-19
 -1      3776 1.01892E-04-4.15288E-05-2.56216E-05-2.54300E-05-7.06885E-19-1.19238E-18
 -1      3777 1.09009E-04-4.50445E-05-2.75031E-05-1.92976E-05-9.97277E-19-7.65638E-19
 -1      3778 9.69125E-05-3.74062E-05-2.54928E-05-2.39093E-05-9.64876E-19-1.44248E-18
 -1      3779 7.05803E-05-1.74984E-05-2.24659E-05 1.91832E-05-4.32389E-19-5.23844E-19
 -1      3780 6.96186E-05-1.49363E-05-2.36008E-05 1.21166E-05 2.62425E-19-6.52930E-19
 -1      3781 7.75819E-05-2.24248E-05-2.36574E-05 2.05971E-05-1.59279E-19 1.86943E-19
 -1      3782 9.61190E-05-2.94860E-05-2.85499E-05-2.57222E-06-7.00178E-19 7.09925E-19
 -1      3783 9.57979E-05-2.91482E-05-2.85591E-05-2.46320E-06-4.11954E-19 4.93798E-19
 -1      3784 9.54386E-05-2.88746E-05-2.85379E-05-2.53734E-06-5.18910E-19 6.63063E-19
 -1      3785 1.21741E-04-3.51916E-05-3.72767E-05-1.10798E-05 1.37676E-18 3.75580E-19
 -1      3786 1.21653E-04-3.95617E-05-3.52548E-05-8.05461E-06 1.87636E-18 4.41079E-19
 -1      3787 1.17029E-04-2.95734E-05-3.74816E-05-1.21321E-05 1.01375E-18 4.09620E-20
 -1      3788 7.99014E-05-1.73400E-05-2.68874E-05 1.91834E-06 2.11403E-19 3.41907E-19
 -1      3789 8.25467E-05-1.86288E-05-2.74005E-05 1.06136E-06 8.80211E-20 2.33247E-19
 -1      3790 8.38447E-05-1.97330E-05-2.74232E-05 2.72932E-06-1.61494E-19 5.37059E-19
 -1      3791 9.55339E-05-2.85975E-05-2.86839E-05-1.37493E-06 2.13505E-19-1.91615E-19
 -1      3792 9.55990E-05-2.86392E-05-2.86978E-05-1.32396E-06 4.13724E-19-2.19609E-19
 -1      3793 9.51755E-05-2.39129E-05-3.05468E-05 1.73608E-06 8.83360E-19-9.26404E-19
 -1      3794 9.61239E-05-2.63842E-05-2.98941E-05-3.67969E-07-4.49581E-19-7.41126E-19
 -1      3795 9.62542E-05-2.64785E-05-2.99000E-05-2.43478E-07-4.27628E-19-8.35965E-19
 -1      3796 9.59691E-05-2.57790E-05-3.00817E-05-7.50058E-07-4.15978E-19-8.12347E-19
 -1      3797 7.63893E-05-1.96969E-05-2.42819E-05-1.62629E-05-3.42949E-20-1.03488E-18
 -1      3798 8.28665E-05-2.72563E-05-2.39057E-05-2.36791E-05-3.68865E-19-1.90163E-18
 -1      3799 9.62766E-05-2.86496E-05-2.89836E-05-9.77541E-07 5.14401E-19-3.62782E-19
 -1      3800 9.63370E-05-2.85297E-05-2.90574E-05-8.73839E-07 3.06367E-19-2.73076E-19
 -1      3801 9.56913E-05-2.86483E-05-2.87344E-05-1.19602E-06 3.37211E-19-5.40805E-19
 -1      3802 9.57195E-05-2.86953E-05-2.87223E-05-1.27320E-06 4.69398E-19-3.60815E-19
 -1      3803 9.57983E-05-2.87298E-05-2.87439E-05-1.23173E-06 4.00527E-19-3.22397E-19
 -1      3804 1.15918E-04-3.67188E-05-3.39566E-05-8.98357E-06 1.67339E-18-1.29050E-19
 -1      3805 1.18964E-04-4.10930E-05-3.33626E-05-6.42273E-06 2.06666E-18-2.08377E-19
 -1      3806 9.60000E-05-2.95448E-05-2.84968E-05-3.01757E-06-3.67153E-19 7.80218E-19
 -1      3807 7.29865E-05-1.54274E-05-2.46363E-05 9.08746E-06-1.94831E-19-1.09982E-19
 -1      3808 9.47785E-05-2.27003E-05-3.08731E-05-8.51644E-07-1.66640E-19-9.10833E-19
 -1      3809 1.15566E-04-4.15995E-05-3.17425E-05-3.63029E-06 2.40740E-18-2.44736E-19
 -1      3810 1.20393E-04-4.43426E-05-3.26710E-05-2.26463E-06 2.05372E-18 6.90047E-19
 -1      3811 1.19716E-04-4.65164E-05-3.12615E-05 2.36399E-06 2.10314E-18 3.71139E-19
 -1      3812 1.14642E-04-4.22790E-05-3.09129E-05-1.40671E-06 2.37368E-18 2.47668E-19
 -1      3813 9.57559E-05-2.54338E-05-3.01478E-05 9.61603E-07 8.62943E-19-7.14167E-19
 -1      3814 9.55564E-05-2.47455E-05-3.03362E-05 1.37595E-06 7.91791E-19-8.03209E-19
 -1      3815 9.51380E-05-2.36883E-05-3.06245E-05 1.53320E-06 7.57208E-19-1.28156E-18
 -1      3816 7.53979E-05-1.57806E-05-2.56651E-05 5.61454E-06-5.34104E-19 3.94499E-19
 -1      3817 7.82879E-05-1.66877E-05-2.63774E-05 3.74363E-06 1.68900E-19 1.06296E-19
 -1      3818 8.03600E-05-1.83574E-05-2.65438E-05 5.91206E-06 3.06537E-19 8.30722E-19
 -1      3819 9.51699E-05-2.84074E-05-2.86167E-05-1.77389E-06 2.20700E-19 8.57919E-20
 -1      3820 9.53165E-05-2.84987E-05-2.86315E-05-1.70915E-06 1.68610E-19 8.52011E-20
 -1      3821 9.53111E-05-2.84862E-05-2.86400E-05-1.61987E-06 1.53126E-19-1.99002E-20
 -1      3822 1.13814E-04-3.87123E-05-3.21321E-05 6.46499E-06 2.45560E-19 5.55508E-19
 -1      3823 1.08766E-04-1.94023E-05-3.83358E-05 8.33172E-06-9.44958E-19-6.13834E-19
 -1      3824 1.11358E-04-3.01816E-05-3.48157E-05-1.06572E-05 1.64985E-18-3.55582E-19
 -1      3825 1.12764E-04-3.36934E-05-3.39549E-05-1.02236E-05 1.34245E-18 1.79012E-19
 -1      3826 1.18862E-04-4.83974E-05-3.01616E-05 9.11583E-06 1.78768E-18 4.99783E-19
 -1      3827 1.17789E-04-4.97981E-05-2.91329E-05 1.49009E-05 1.61881E-18 5.28615E-19
 -1      3828 1.11352E-04-4.65470E-05-2.78522E-05 1.83932E-05 1.37281E-18 1.27519E-18
 -1      3829 9.49841E-05-2.81177E-05-2.86567E-05 1.61319E-06 5.86591E-20-5.95707E-19
 -1      3830 9.47945E-05-2.80147E-05-2.86280E-05 1.79081E-06 6.48509E-19 2.45137E-19
 -1      3831 9.48572E-05-2.79738E-05-2.86620E-05 1.49947E-06-3.64510E-19-6.04005E-19
 -1      3832 9.60824E-05-2.62346E-05-2.99227E-05 5.60327E-07 9.52879E-19-4.95779E-19
 -1      3833 9.58609E-05-2.54331E-05-3.01841E-05 7.70057E-07 7.26404E-19-8.00434E-19
 -1      3834 9.50309E-05-2.32544E-05-3.07711E-05 1.94563E-07 3.70866E-19-6.93346E-19
 -1      3835 9.50236E-05-2.32554E-05-3.07714E-05-1.78267E-07 7.04754E-20-8.09065E-19
 -1      3836 1.01921E-04-4.10129E-05-2.61122E-05 2.35039E-05 6.21987E-19 2.87309E-18
 -1      3837 9.48600E-05-3.70783E-05-2.45190E-05 2.74631E-05 2.50563E-19 3.76733E-18
 -1      3838 8.92399E-05-3.23568E-05-2.44651E-05 2.52384E-05 3.63986E-19 2.56733E-18
 -1      3839 1.10204E-04-1.95999E-05-3.88846E-05-9.14189E-06 9.42179E-19-2.28083E-19
 -1      3840 9.36202E-05-2.67811E-05-2.86505E-05 7.08155E-07 8.64234E-19 2.57989E-18
 -1      3841 9.37740E-05-2.69261E-05-2.86454E-05 9.13195E-07 8.49001E-19 4.26624E-18
 -1      3842 9.54813E-05-2.45228E-05-3.04140E-05-1.17013E-06-3.79377E-19-8.65111E-19
 -1      3843 9.39774E-05-2.71508E-05-2.86454E-05 1.09228E-06 5.86452E-20 3.17662E-18
 -1      3844 9.41715E-05-2.73172E-05-2.86465E-05 1.23068E-06-3.55967E-21 2.23578E-18
 -1      3845 9.37413E-05-2.69601E-05-2.86191E-05 1.19001E-06 6.35702E-19 4.81162E-18
 -1      3846 1.12695E-04-4.59807E-05-2.85088E-05-1.41553E-05-1.08516E-18-1.54107E-18
 -1      3847 1.13877E-04-4.52248E-05-2.94275E-05-8.78274E-06-8.97612E-19-1.86721E-18
 -1      3848 1.07697E-04-4.28336E-05-2.78714E-05-1.55855E-05-1.06200E-18-1.17266E-18
 -1      3849 9.43164E-05-2.75154E-05-2.86284E-05 1.50819E-06-1.91198E-19 2.19789E-18
 -1      3850 9.44808E-05-2.76275E-05-2.86538E-05 1.35879E-06-2.66519E-19 2.34635E-18
 -1      3851 9.53883E-05-2.85158E-05-2.86558E-05-1.51610E-06-6.68732E-21-1.85924E-19
 -1      3852 9.54270E-05-2.85430E-05-2.86655E-05-1.44784E-06 6.89084E-20-3.17344E-19
 -1      3853 9.52769E-05-2.84295E-05-2.86516E-05-1.51540E-06-6.80532E-21 1.77901E-19
 -1      3854 9.62023E-05-2.68464E-05-2.97330E-05 1.47109E-07 7.82274E-19-4.39352E-19
 -1      3855 9.46395E-05-2.77620E-05-2.86609E-05 1.38908E-06-6.43734E-19 1.58402E-18
 -1      3856 9.51158E-05-2.34731E-05-3.07100E-05 8.14449E-07 5.87127E-19-8.39070E-19
 -1      3857 9.50525E-05-2.33205E-05-3.07498E-05 4.71934E-07 4.35624E-19-8.21076E-19
 -1      3858 9.55634E-05-2.42800E-05-3.05330E-05 2.67276E-07 3.68543E-19-5.99272E-19
 -1      3859 9.61133E-05-2.87663E-05-2.88624E-05-1.10447E-06 5.35214E-19-4.73555E-19
 -1      3860 9.61906E-05-2.87230E-05-2.89131E-05-1.04136E-06 5.00380E-19-3.89233E-19
 -1      3861 9.63592E-05-2.86734E-05-2.90093E-05-8.83747E-07 6.09751E-19-4.75138E-19
 -1      3862 4.63052E-05-7.66151E-06-1.66872E-05-3.99841E-06 1.00121E-18-1.17505E-18
 -1      3863 9.34163E-05-2.65199E-05-2.86741E-05 1.83020E-07 1.35513E-18 1.47515E-18
 -1      3864 9.34846E-05-2.66064E-05-2.86607E-05 4.43010E-07 1.30055E-18 2.33972E-18
 -1      3865 9.33550E-05-2.65468E-05-2.86286E-05 7.35576E-07 1.72550E-18 3.28813E-18
 -1      3866 1.17462E-04-4.29715E-05-3.19875E-05 3.22552E-06-4.58936E-20-6.33350E-19
 -1      3867 9.54634E-05-2.85277E-05-2.86886E-05-1.32859E-06 7.08561E-20-2.18540E-19
 -1      3868 1.15230E-04-4.35228E-05-3.07477E-05-7.58236E-07-5.88628E-19-1.00002E-18
 -1      3869 9.47921E-05-2.78944E-05-2.86692E-05 1.38947E-06-4.63239E-19 2.41353E-19
 -1      3870 9.66573E-05-2.80052E-05-2.94187E-05 3.67647E-07-1.72188E-20-5.63619E-19
 -1      3871 9.66341E-05-2.82675E-05-2.93025E-05 5.07097E-07 5.48821E-20-4.64944E-19
 -1      3872 9.65919E-05-2.84626E-05-2.91964E-05 5.74770E-07 1.20758E-21-5.52659E-19
 -1      3873 9.65124E-05-2.85905E-05-2.91107E-05 6.59769E-07-9.12332E-20-4.07040E-19
 -1      3874 9.66767E-05-2.83169E-05-2.92964E-05 4.10865E-07 5.61327E-20-2.61073E-19
 -1      3875 9.64032E-05-2.86598E-05-2.90320E-05 6.93763E-07-1.69648E-19-3.06046E-19
 -1      3876 9.62786E-05-2.86813E-05-2.89710E-05 7.43975E-07-2.89449E-19-1.69861E-19
 -1      3877 9.65269E-05-2.86059E-05-2.91089E-05 5.18528E-07-7.25201E-20-3.21787E-19
 -1      3878 9.61206E-05-2.86542E-05-2.89139E-05 7.56361E-07-3.34373E-19-6.12613E-20
 -1      3879 9.59587E-05-2.85923E-05-2.88718E-05 7.84420E-07-1.14481E-19-6.53300E-20
 -1      3880 9.62616E-05-2.86635E-05-2.89705E-05 5.71799E-07-2.69610E-19-2.08036E-21
 -1      3881 9.57605E-05-2.84888E-05-2.88310E-05 7.80967E-07-1.77351E-20-3.57082E-19
 -1      3882 9.55618E-05-2.83579E-05-2.88026E-05 7.94199E-07-2.10869E-20-2.23204E-19
 -1      3883 9.59089E-05-2.85436E-05-2.88702E-05 5.85297E-07-2.19445E-19-3.67697E-21
 -1      3884 9.53245E-05-2.81898E-05-2.87728E-05 7.74855E-07-6.95721E-20-7.71320E-20
 -1      3885 9.50817E-05-2.79968E-05-2.87528E-05 7.74294E-07 1.46602E-19 6.14588E-20
 -1      3886 9.54787E-05-2.82820E-05-2.87971E-05 5.62491E-07 1.47544E-20 1.28134E-19
 -1      3887 9.47998E-05-2.77694E-05-2.87284E-05 7.32636E-07 1.21934E-19 1.18194E-19
 -1      3888 9.44980E-05-2.75149E-05-2.87111E-05 7.11768E-07 8.51614E-20 1.55266E-19
 -1      3889 9.49667E-05-2.78992E-05-2.87404E-05 4.94779E-07 2.41071E-19 4.82370E-19
 -1      3890 9.41605E-05-2.72290E-05-2.86860E-05 6.32781E-07 8.20366E-20-1.33294E-19
 -1      3891 9.37766E-05-2.69091E-05-2.86646E-05 5.74922E-07 2.69420E-20 4.43235E-20
 -1      3892 9.43570E-05-2.74068E-05-2.86883E-05 3.58568E-07-4.32827E-20-2.36729E-21
 -1      3893 9.33687E-05-2.65632E-05-2.86314E-05 4.32265E-07 2.57110E-19 2.05177E-19
 -1      3894 9.28707E-05-2.61716E-05-2.85969E-05 3.06921E-07 2.43933E-19 4.94657E-19
 -1      3895 9.36244E-05-2.68112E-05-2.86273E-05 1.09711E-07 2.64294E-19 1.91109E-19
 -1      3896 9.23753E-05-2.57658E-05-2.85459E-05 5.89357E-08 5.41312E-20 1.12466E-18
 -1      3897 9.17221E-05-2.52974E-05-2.84857E-05-1.83543E-07 9.40901E-20 9.13785E-19
 -1      3898 9.27375E-05-2.61205E-05-2.85406E-05-3.23313E-07 4.19372E-19 8.47468E-19
 -1      3899 9.11243E-05-2.48395E-05-2.84038E-05-5.98857E-07-7.83208E-20 7.03888E-19
 -1      3900 9.02667E-05-2.42972E-05-2.82996E-05-1.03441E-06 2.96435E-20 2.89476E-19
 -1      3901 9.16651E-05-2.53553E-05-2.84061E-05-1.04844E-06-7.86218E-20 1.06605E-18
 -1      3902 8.95613E-05-2.38125E-05-2.81691E-05-1.70509E-06 2.90926E-19 3.78763E-19
 -1      3903 8.84455E-05-2.32176E-05-2.79936E-05-2.44465E-06 6.77912E-19-4.89914E-20
 -1      3904 9.03875E-05-2.45658E-05-2.81944E-05-2.22058E-06-4.77451E-20 5.23217E-19
 -1      3905 8.76506E-05-2.27664E-05-2.77904E-05-3.48901E-06 4.53685E-19-7.18457E-19
 -1      3906 8.62250E-05-2.21778E-05-2.75037E-05-4.68700E-06 2.48747E-19-9.86647E-19
 -1      3907 8.89163E-05-2.38579E-05-2.78662E-05-4.05164E-06 1.83297E-19-2.75811E-19
 -1      3908 8.54090E-05-2.18843E-05-2.71958E-05-6.26680E-06 2.43277E-19-9.36210E-19
 -1      3909 8.36078E-05-2.14098E-05-2.67411E-05-8.11351E-06 3.12385E-19-6.19729E-19
 -1      3910 8.73419E-05-2.34443E-05-2.73706E-05-6.81213E-06 2.05859E-19-4.18716E-19
 -1      3911 8.25109E-05-2.13744E-05-2.61733E-05-1.07727E-05-2.32117E-19-9.10994E-19
 -1      3912 7.96938E-05-2.08184E-05-2.53145E-05-1.36419E-05-4.74788E-19-6.37078E-19
 -1      3913 8.67586E-05-2.18772E-05-2.78509E-05 2.49793E-06 4.24188E-19 3.58290E-19
 -1      3914 8.81351E-05-2.25990E-05-2.80791E-05 1.72046E-06 3.90890E-19 4.93790E-19
 -1      3915 9.57651E-05-2.93785E-05-2.84380E-05-3.42732E-06-2.24721E-19-2.24430E-20
 -1      3916 9.53744E-05-2.89595E-05-2.84602E-05-3.14587E-06-4.68183E-19-1.26694E-19
 -1      3917 8.90198E-05-2.31806E-05-2.82498E-05 9.87690E-07-9.40000E-20-2.17044E-20
 -1      3918 9.00459E-05-2.38130E-05-2.83832E-05 5.58836E-07-6.75641E-19-1.82090E-19
 -1      3919 8.90415E-05-2.34092E-05-2.81033E-05 2.41188E-06-4.90778E-19 7.34725E-19
 -1      3920 9.07573E-05-2.43376E-05-2.84880E-05 1.22847E-07-7.78164E-19 1.10352E-19
 -1      3921 9.15029E-05-2.48583E-05-2.85631E-05-8.96460E-08-2.21322E-19-4.72688E-20
 -1      3922 9.05993E-05-2.43425E-05-2.83777E-05 1.12215E-06-1.10322E-19 1.26082E-18
 -1      3923 9.20574E-05-2.52957E-05-2.86258E-05-3.31381E-07-2.00045E-19 2.59477E-19
 -1      3924 9.25917E-05-2.57107E-05-2.86658E-05-4.10478E-07 5.80316E-19-1.03933E-19
 -1      3925 9.18362E-05-2.51947E-05-2.85474E-05 3.60361E-07 5.12122E-20 4.30808E-19
 -1      3926 9.49838E-05-2.83406E-05-2.85528E-05-2.20813E-06-4.70125E-19 5.53681E-19
 -1      3927 9.49222E-05-2.82526E-05-2.85742E-05-2.00446E-06-2.07508E-19 3.42486E-19
 -1      3928 9.86105E-05-3.23410E-05-2.83886E-05-4.80011E-06-7.21536E-19-7.47521E-19
 -1      3929 9.76032E-05-3.13617E-05-2.83699E-05-4.61341E-06-6.54952E-19-5.14561E-19
 -1      3930 9.68396E-05-3.05596E-05-2.83912E-05-4.15080E-06-5.80122E-19-6.82958E-19
 -1      3931 9.61781E-05-2.98839E-05-2.84024E-05-3.87699E-06-1.89792E-19-4.32050E-19
 -1      3932 9.65467E-05-3.06077E-05-2.82896E-05-5.06663E-06-7.02319E-19-5.63469E-19
 -1      3933 1.04952E-04-3.77239E-05-2.87988E-05-4.69793E-06-1.17188E-18-1.10763E-18
 -1      3934 1.03108E-04-3.62502E-05-2.85993E-05-5.19580E-06-9.74578E-19-9.84515E-19
 -1      3935 1.13438E-04-4.31875E-05-3.00609E-05-2.69854E-06-1.15330E-18-1.38495E-18
 -1      3936 1.14538E-04-3.25203E-05-3.52018E-05 1.06897E-05-3.99187E-19-5.26027E-19
 -1      3937 9.51052E-05-2.35685E-05-3.06673E-05 1.22116E-06 7.84587E-19-1.04679E-18
 -1      3938 1.01907E-04-3.52199E-05-2.85339E-05 5.21276E-06 1.12918E-18-5.71553E-19
 -1      3939 1.03584E-04-3.66658E-05-2.86827E-05 4.92650E-06 9.06735E-19-5.47245E-19
 -1      3940 9.89787E-05-3.26238E-05-2.84089E-05 4.96966E-06-7.16085E-19 1.42079E-19
 -1      3941 1.00262E-04-3.38309E-05-2.84626E-05 5.03407E-06 4.50672E-19-4.60347E-20
 -1      3942 1.00396E-04-3.43828E-05-2.83437E-05 6.55458E-06 5.97074E-19 5.69137E-19
 -1      3943 9.69794E-05-3.06628E-05-2.84059E-05 4.31360E-06-1.08058E-18 3.83628E-19
 -1      3944 9.78854E-05-3.15671E-05-2.84091E-05 4.55331E-06-1.30260E-18-2.26862E-20
 -1      3945 9.77042E-05-3.17754E-05-2.82938E-05 5.72953E-06-7.16420E-19 1.41865E-18
 -1      3946 9.57346E-05-2.93234E-05-2.84547E-05 3.53291E-06 7.46040E-19 6.91262E-19
 -1      3947 9.63192E-05-2.99367E-05-2.84360E-05 3.83152E-06-7.28028E-20 1.10771E-18
 -1      3948 9.59958E-05-2.99275E-05-2.83407E-05 4.66205E-06-9.47875E-19 1.48875E-18
 -1      3949 9.50307E-05-2.84787E-05-2.85195E-05 2.79168E-06-3.55992E-20 7.64894E-19
 -1      3950 9.53757E-05-2.88644E-05-2.84935E-05 3.08662E-06 3.65995E-19 1.15766E-18
 -1      3951 9.50165E-05-2.87413E-05-2.84200E-05 3.63949E-06-5.14744E-20 1.75617E-18
 -1      3952 9.47035E-05-2.80029E-05-2.85808E-05 2.15594E-06 7.82650E-19 3.54895E-19
 -1      3953 9.48749E-05-2.82225E-05-2.85564E-05 2.41099E-06 3.97960E-19 3.60214E-19
 -1      3954 9.45300E-05-2.80448E-05-2.85038E-05 2.74943E-06 4.27834E-19 2.02096E-18
 -1      3955 9.43960E-05-2.76236E-05-2.86097E-05 1.74065E-06 3.27143E-19 1.28520E-18
 -1      3956 9.45348E-05-2.78024E-05-2.85968E-05 1.92543E-06 6.61217E-19 6.11336E-19
 -1      3957 9.42305E-05-2.76120E-05-2.85598E-05 2.11605E-06 9.58122E-19 2.15051E-18
 -1      3958 9.40150E-05-2.73040E-05-2.85991E-05 1.62007E-06-1.12790E-19 3.01372E-18
 -1      3959 9.55426E-05-2.44113E-05-3.04732E-05 8.57628E-07 5.32750E-19-9.40091E-19
 -1      3960 9.56112E-05-2.46856E-05-3.03939E-05-8.79008E-07-4.15869E-19-8.84267E-19
 -1      3961 9.34539E-05-2.67616E-05-2.85895E-05 1.30134E-06 5.48187E-19 5.57021E-18
 -1      3962 9.37195E-05-2.69913E-05-2.85911E-05 1.47649E-06 2.11318E-19 4.80608E-18
 -1      3963 9.37635E-05-2.71022E-05-2.85686E-05 1.74314E-06 4.35927E-19 4.65526E-18
 -1      3964 1.09587E-04-1.51874E-05-4.05503E-05 7.01021E-06-3.04270E-19-1.53592E-18
 -1      3965 9.64869E-05-2.83994E-05-2.91812E-05-7.01220E-07 4.31396E-19-2.34985E-19
 -1      3966 9.63804E-05-2.83588E-05-2.91546E-05-7.67676E-07 1.85417E-19-2.35895E-20
 -1      3967 9.64129E-05-2.81317E-05-2.92582E-05-5.95863E-07 3.58853E-19-3.75744E-20
 -1      3968 8.17556E-05-2.30494E-05-2.50067E-05-1.71446E-05-3.73654E-19-1.26202E-18
 -1      3969 9.52130E-05-2.36374E-05-3.06747E-05-4.31480E-07-1.07324E-19-8.60302E-19
 -1      3970 9.54500E-05-2.42140E-05-3.05424E-05-7.94195E-07-3.22409E-19-6.69147E-19
 -1      3971 9.59656E-05-2.54447E-05-3.02192E-05-4.45710E-07-3.73308E-19-7.72940E-19
 -1      3972 9.56974E-05-2.45924E-05-3.04601E-05-1.96268E-07 8.80074E-21-5.95339E-19
 -1      3973 9.14996E-05-3.23705E-05-2.51348E-05-2.29559E-05-1.14029E-18-1.46108E-18
 -1      3974 9.86074E-05-3.71154E-05-2.64385E-05-1.97681E-05-9.94073E-19-1.04237E-18
 -1      3975 1.06907E-04-1.38961E-05-4.00379E-05-5.47609E-07 8.41977E-19-1.39653E-18
 -1      3976 8.61262E-05-2.78888E-05-2.50172E-05-2.04165E-05-7.62899E-19-1.03135E-18
 -1      3977 9.34440E-05-2.64509E-05-2.87145E-05-3.78131E-07 1.36118E-18-1.86586E-20
 -1      3978 9.34205E-05-2.64672E-05-2.86943E-05-1.05936E-07 1.23022E-18 3.06459E-19
 -1      3979 9.31924E-05-2.63072E-05-2.86603E-05 1.52564E-07 1.61451E-18 1.48473E-18
 -1      3980 9.32448E-05-2.62636E-05-2.87071E-05-4.33554E-07 1.37814E-18-1.19007E-19
 -1      3981 9.51998E-05-2.86816E-05-2.84968E-05-2.76181E-06-4.17528E-19 6.21083E-20
 -1      3982 9.50048E-05-2.84571E-05-2.85204E-05-2.51193E-06-2.90080E-19 3.73561E-19
 -1      3983 9.46762E-05-2.81596E-05-2.85139E-05-2.39853E-06-2.88192E-19 9.41680E-20
 -1      3984 1.05831E-04-3.82663E-05-2.88918E-05 4.59001E-06 6.61286E-19-6.01928E-19
 -1      3985 1.07755E-04-3.96576E-05-2.92041E-05 3.74943E-06 8.76252E-19-1.92176E-19
 -1      3986 1.04219E-04-3.76962E-05-2.85988E-05 6.67593E-06 9.70147E-19 1.12146E-19
 -1      3987 1.10392E-04-4.10395E-05-2.96210E-05 2.44508E-06 2.07158E-18-1.58362E-19
 -1      3988 1.12084E-04-4.18073E-05-3.01725E-05 8.10815E-07 2.30489E-18 4.68743E-19
 -1      3989 1.14235E-04-4.35114E-05-3.03885E-05 2.24865E-06 2.38685E-18 6.78639E-19
 -1      3990 1.09325E-04-4.12670E-05-2.92523E-05 5.40348E-06 1.48714E-18 2.09780E-19
 -1      3991 9.59199E-05-2.87657E-05-2.87788E-05-1.19169E-06 3.64463E-19-1.26368E-19
 -1      3992 9.60027E-05-2.87725E-05-2.88124E-05-1.14771E-06 6.09619E-19-3.73208E-19
 -1      3993 9.59327E-05-2.87436E-05-2.87969E-05-1.09599E-06 3.73270E-19-1.41022E-19
 -1      3994 9.53770E-05-2.84275E-05-2.86889E-05-1.23274E-06-7.52774E-20-7.17606E-20
 -1      3995 9.54841E-05-2.84974E-05-2.87101E-05-1.15085E-06 1.26744E-19-3.69582E-19
 -1      3996 1.01264E-04-3.47679E-05-2.84902E-05-5.11992E-06-7.37951E-19-8.64395E-19
 -1      3997 9.98542E-05-3.34877E-05-2.84086E-05-5.16032E-06-8.46660E-19-7.69066E-19
 -1      3998 1.01511E-04-3.54587E-05-2.83757E-05-6.75232E-06-1.18179E-18-6.57445E-19
 -1      3999 8.43542E-05-2.68070E-05-2.44357E-05 2.21603E-05-2.45340E-19 1.24931E-18
 -1      4000 8.03267E-05-2.25626E-05-2.47727E-05 1.73510E-05-3.24384E-19 7.32728E-19
 -1      4001 7.66689E-05-1.79587E-05-2.51336E-05 1.14642E-05-4.25083E-19-6.24510E-19
 -1      4002 8.39136E-05-2.05278E-05-2.71997E-05 5.00614E-06 3.18932E-19 4.65355E-20
 -1      4003 8.57000E-05-2.13039E-05-2.75808E-05 3.65236E-06 4.13148E-19 3.38145E-19
 -1      4004 8.71224E-05-2.25062E-05-2.76687E-05 4.49804E-06 4.32476E-19 2.93630E-19
 -1      4005 9.58927E-05-2.53528E-05-3.02410E-05 4.75283E-07 4.30293E-19-6.83941E-19
 -1      4006 9.63601E-05-2.73873E-05-2.95508E-05-1.24254E-07 5.41991E-19-2.75181E-19
 -1      4007 9.63317E-05-2.68705E-05-2.97708E-05 8.82120E-08 5.49850E-19-2.79541E-19
 -1      4008 9.65171E-05-2.71866E-05-2.97133E-05 4.89551E-08-1.31195E-19-6.19144E-19
 -1      4009 9.65950E-05-2.76362E-05-2.95587E-05 2.68156E-07 3.36581E-20-6.56397E-19
 -1      4010 9.66797E-05-2.77376E-05-2.95475E-05 2.36823E-07-1.03013E-20-8.96052E-20
 -1      4011 9.30390E-05-2.63103E-05-2.86036E-05 7.68457E-07 1.87953E-18 3.31518E-18
 -1      4012 9.32128E-05-2.64828E-05-2.85942E-05 1.03191E-06 1.24160E-18 3.88806E-18
 -1      4013 9.31524E-05-2.65070E-05-2.85626E-05 1.34587E-06-1.76746E-19 5.50324E-18
 -1      4014 9.56467E-05-2.85826E-05-2.87390E-05-1.07656E-06 1.42886E-19-2.83571E-19
 -1      4015 9.57672E-05-2.86480E-05-2.87665E-05-1.01588E-06 2.78391E-19-2.29161E-19
 -1      4016 9.55453E-05-2.84903E-05-2.87391E-05-9.70644E-07 7.33089E-23-1.99055E-20
 -1      4017 8.55532E-05-2.35486E-05-2.65412E-05-1.11864E-05-1.78444E-19-5.98359E-19
 -1      4018 9.47401E-05-2.80684E-05-2.85774E-05-1.84457E-06-2.79076E-19 6.95144E-20
 -1      4019 9.49950E-05-2.82422E-05-2.86018E-05-1.77715E-06-2.32548E-20 7.00523E-20
 -1      4020 9.50197E-05-2.82424E-05-2.86209E-05-1.62085E-06 7.58774E-20-1.61551E-19
 -1      4021 9.48521E-05-2.85203E-05-2.84396E-05-3.12794E-06-4.05897E-19-2.06461E-19
 -1      4022 1.07141E-04-4.36262E-05-2.70823E-05 2.02927E-05 1.48953E-18 1.73577E-18
 -1      4023 1.01178E-04-3.94791E-05-2.65269E-05 2.07225E-05 1.12116E-18 3.19138E-18
 -1      4024 1.10470E-04-4.47760E-05-2.81877E-05 1.55225E-05 1.83683E-18 1.35626E-18
 -1      4025 9.61637E-05-2.87685E-05-2.88851E-05-1.00252E-06 4.36953E-19-2.67780E-19
 -1      4026 9.30157E-05-2.60623E-05-2.86992E-05-4.95195E-07 1.33111E-18-5.99303E-19
 -1      4027 8.55831E-05-2.51024E-05-2.60257E-05 1.49969E-05-1.20947E-18 1.67774E-18
 -1      4028 8.03342E-05-2.08874E-05-2.54394E-05 1.34442E-05-6.80720E-19-1.29302E-19
 -1      4029 8.23982E-05-2.08829E-05-2.63021E-05 9.93284E-06-6.73831E-19-1.99655E-19
 -1      4030 9.62211E-05-2.61401E-05-3.00385E-05-3.14157E-07-2.78590E-19-6.59332E-19
 -1      4031 9.63870E-05-2.66999E-05-2.98680E-05-7.28253E-08-2.21505E-19-6.49386E-19
 -1      4032 9.64893E-05-2.68470E-05-2.98444E-05-2.10767E-08 1.47074E-20-1.03814E-19
 -1      4033 9.60903E-05-2.56645E-05-3.01772E-05-2.67896E-07-1.34105E-19-5.06933E-19
 -1      4034 9.54102E-05-2.92836E-05-2.83591E-05-4.03413E-06-5.76510E-20-7.17834E-19
 -1      4035 1.12625E-04-4.39332E-05-2.94603E-05-7.18397E-06-1.05057E-18-1.77499E-18
 -1      4036 1.09657E-04-4.10057E-05-2.94307E-05-3.63179E-06-1.07683E-18-1.21465E-18
 -1      4037 1.07625E-04-3.97174E-05-2.90417E-05-4.75498E-06-1.09014E-18-1.39847E-18
 -1      4038 9.64198E-05-2.87174E-05-2.90155E-05-7.76012E-07 4.30055E-19-1.31405E-19
 -1      4039 9.65053E-05-2.86258E-05-2.90899E-05-6.98945E-07 5.17866E-19-1.79889E-19
 -1      4040 9.83089E-05-3.55106E-05-2.68920E-05-1.66961E-05-7.21252E-19-1.32254E-18
 -1      4041 1.03521E-04-3.96630E-05-2.72587E-05-1.70870E-05-8.40526E-19-9.06453E-19
 -1      4042 1.06457E-04-4.08427E-05-2.81468E-05-1.25931E-05-7.41005E-19-1.85133E-18
 -1      4043 9.07786E-05-3.14382E-05-2.54673E-05 2.10773E-05-2.04893E-20 3.73644E-18
 -1      4044 9.51460E-05-2.82950E-05-2.86455E-05-1.45849E-06-8.69201E-20-2.33519E-19
 -1      4045 9.52235E-05-2.83451E-05-2.86641E-05-1.34390E-06-4.87277E-20-3.54092E-19
 -1      4046 9.49458E-05-2.81427E-05-2.86321E-05-1.44240E-06-6.19571E-20-3.59352E-19
 -1      4047 9.65730E-05-2.84814E-05-2.91833E-05-6.36710E-07 5.39823E-19-3.55263E-19
 -1      4048 9.66184E-05-2.82857E-05-2.92843E-05-5.10388E-07 3.26037E-19-3.66584E-19
 -1      4049 9.66156E-05-2.85187E-05-2.91846E-05-5.31991E-07 4.47381E-19-6.33495E-19
 -1      4050 9.63848E-05-2.77790E-05-2.94078E-05-4.02739E-07 4.06609E-19-1.53334E-19
 -1      4051 9.64308E-05-2.68500E-05-2.98244E-05 1.11512E-08 3.18016E-19-4.23084E-19
 -1      4052 9.62585E-05-2.62002E-05-3.00152E-05 3.00601E-07 3.04522E-19-6.02283E-19
 -1      4053 9.59495E-05-2.53136E-05-3.02769E-05 3.06153E-07 3.01384E-19-8.05835E-19
 -1      4054 9.58633E-05-2.50152E-05-3.03651E-05-1.77851E-08 2.99142E-19-4.73876E-19
 -1      4055 9.60055E-05-2.53897E-05-3.02736E-05-2.06573E-07 6.70527E-20-5.02365E-19
 -1      4056 9.62651E-05-2.60487E-05-3.00934E-05-7.79183E-08 1.75335E-19-3.12904E-19
 -1      4057 8.86623E-05-2.79896E-05-2.59788E-05-1.68660E-05-8.81612E-19-5.67087E-19
 -1      4058 9.27843E-05-2.59308E-05-2.86470E-05-2.15667E-08 8.18046E-19 5.77910E-19
 -1      4059 9.59291E-05-2.52444E-05-3.03004E-05 1.28859E-07 2.95198E-19-6.56321E-19
 -1      4060 9.52286E-05-2.83037E-05-2.86835E-05-1.16118E-06 1.16064E-19-2.69059E-19
 -1      4061 9.85067E-05-3.26473E-05-2.82706E-05-6.07446E-06-7.33133E-19-5.86646E-19
 -1      4062 1.16743E-04-4.63506E-05-3.01781E-05 6.44677E-06 2.05880E-18 5.17004E-19
 -1      4063 8.22178E-05-2.03248E-05-2.65300E-05 8.34785E-06 3.68974E-19-1.02670E-18
 -1      4064 8.36393E-05-2.05945E-05-2.69763E-05 6.30453E-06 5.63094E-19-6.74796E-19
 -1      4065 8.56886E-05-2.23253E-05-2.71775E-05 7.16233E-06 1.15566E-18-1.56244E-18
 -1      4066 8.53248E-05-2.31082E-05-2.67444E-05 1.00842E-05 2.25617E-19-3.56794E-19
 -1      4067 9.62479E-05-2.59421E-05-3.01205E-05 6.92566E-08 3.42030E-19-6.03130E-19
 -1      4068 1.06038E-04-3.93075E-05-2.86839E-05-7.29102E-06-8.96239E-19-1.35839E-18
 -1      4069 9.34653E-05-2.69145E-05-2.85290E-05 1.94436E-06 3.10690E-19 5.18641E-18
 -1      4070 9.38423E-05-2.72315E-05-2.85399E-05 2.07405E-06 9.95701E-19 3.07317E-18
 -1      4071 9.39988E-05-2.74438E-05-2.85204E-05 2.33388E-06 1.00695E-18 3.23537E-18
 -1      4072 9.66391E-05-2.85757E-05-2.91687E-05 3.27461E-07-2.85192E-20-1.73892E-19
 -1      4073 9.65276E-05-2.86588E-05-2.90874E-05 3.73181E-07 2.16011E-20-2.09296E-19
 -1      4074 9.63923E-05-2.86913E-05-2.90141E-05 3.69892E-07-7.14430E-20-1.97730E-19
 -1      4075 9.62337E-05-2.86749E-05-2.89546E-05 3.89595E-07-1.73360E-19-9.95212E-21
 -1      4076 9.64908E-05-2.86667E-05-2.90682E-05 1.92722E-07 2.69371E-20 4.84319E-20
 -1      4077 9.60532E-05-2.86181E-05-2.89003E-05 3.73773E-07-1.16042E-19 2.92692E-19
 -1      4078 9.58553E-05-2.85250E-05-2.88571E-05 3.72880E-07-3.67196E-20 3.48711E-19
 -1      4079 9.61755E-05-2.86517E-05-2.89387E-05 1.80106E-07 7.14979E-20 6.50254E-20
 -1      4080 9.56383E-05-2.83989E-05-2.88165E-05 3.39454E-07 1.03550E-19 3.97565E-19
 -1      4081 9.54011E-05-2.82438E-05-2.87841E-05 3.17491E-07 4.42061E-19 6.41873E-19
 -1      4082 9.57816E-05-2.84807E-05-2.88427E-05 1.33237E-07 2.01606E-19 8.37467E-19
 -1      4083 9.51529E-05-2.80637E-05-2.87516E-05 2.57672E-07 3.65229E-19 5.59085E-19
 -1      4084 9.48702E-05-2.78556E-05-2.87246E-05 2.05802E-07 2.89814E-19 4.02806E-19
 -1      4085 9.53205E-05-2.81911E-05-2.87686E-05 3.93263E-08 2.89651E-19 7.68768E-19
 -1      4086 9.45898E-05-2.76317E-05-2.86948E-05 1.06076E-07-8.03792E-21 4.66410E-19
 -1      4087 9.42514E-05-2.73775E-05-2.86669E-05 6.72234E-09-1.95917E-19 2.44357E-19
 -1      4088 9.47947E-05-2.78111E-05-2.87050E-05-1.26766E-07 1.14037E-21 5.21395E-19
 -1      4089 9.39376E-05-2.71193E-05-2.86335E-05-1.56537E-07 4.60217E-20 3.30913E-19
 -1      4090 9.35287E-05-2.68254E-05-2.85974E-05-3.32154E-07 3.66980E-19 3.97529E-19
 -1      4091 9.42028E-05-2.73674E-05-2.86405E-05-4.04458E-07-1.92226E-20 8.98240E-19
 -1      4092 9.31828E-05-2.65458E-05-2.85532E-05-5.93930E-07 6.74271E-19 3.08858E-19
 -1      4093 9.26866E-05-2.62225E-05-2.84997E-05-8.90066E-07 5.56113E-19 4.57574E-19
 -1      4094 9.35437E-05-2.68900E-05-2.85621E-05-8.53419E-07 2.42177E-19 4.71888E-19
 -1      4095 9.23182E-05-2.59441E-05-2.84363E-05-1.29966E-06 9.53973E-20 3.14089E-19
 -1      4096 9.17206E-05-2.56126E-05-2.83532E-05-1.78059E-06-2.01328E-19 4.74609E-20
 -1      4097 9.28263E-05-2.64245E-05-2.84546E-05-1.55856E-06 2.10103E-19-3.64662E-19
 -1      4098 9.13558E-05-2.53764E-05-2.82605E-05-2.40396E-06-3.94163E-19 2.26832E-19
 -1      4099 9.06530E-05-2.50785E-05-2.81319E-05-3.15858E-06-2.39594E-19 1.69438E-20
 -1      4100 9.20828E-05-2.60465E-05-2.83007E-05-2.63448E-06-2.11574E-19-4.53722E-19
 -1      4101 9.03492E-05-2.49580E-05-2.79985E-05-4.07875E-06-3.10053E-19-1.46586E-19
 -1      4102 8.95614E-05-2.47714E-05-2.78040E-05-5.22248E-06-5.67975E-20-5.95122E-19
 -1      4103 9.13911E-05-2.58836E-05-2.80808E-05-4.22632E-06-2.75554E-19-1.15235E-19
 -1      4104 8.94235E-05-2.48825E-05-2.76186E-05-6.53560E-06 3.35415E-19-5.64507E-19
 -1      4105 8.86104E-05-2.49551E-05-2.73331E-05-8.19326E-06 3.44649E-19-3.66415E-19
 -1      4106 9.09130E-05-2.61463E-05-2.77760E-05-6.50335E-06 4.22119E-20-4.33616E-19
 -1      4107 8.87538E-05-2.55144E-05-2.70404E-05-1.02610E-05-1.65242E-19-4.89923E-19
 -1      4108 8.75882E-05-2.59234E-05-2.65103E-05-1.30124E-05-3.80625E-19-8.19668E-19
 -1      4109 9.43274E-05-2.78472E-05-2.84780E-05-2.48367E-06-3.00692E-19 3.13725E-19
 -1      4110 9.43010E-05-2.77813E-05-2.85143E-05-2.15568E-06-3.06062E-19 4.04055E-19
 -1      4111 9.05935E-05-2.46178E-05-2.83044E-05 1.98127E-06-1.08595E-18 2.76522E-18
 -1      4112 9.13070E-05-2.49995E-05-2.84108E-05 1.45193E-06-3.56997E-19 3.08378E-18
 -1      4113 9.21466E-05-3.01691E-05-2.65935E-05-1.54921E-05-5.08025E-19-8.18146E-19
 -1      4114 9.59281E-05-2.87139E-05-2.88039E-05-9.66614E-07 5.45364E-19-3.02895E-19
 -1      4115 9.60485E-05-2.87514E-05-2.88419E-05-9.15015E-07 5.02025E-19 4.99587E-21
 -1      4116 9.58686E-05-2.86540E-05-2.88077E-05-8.39719E-07 3.42566E-19 7.33175E-20
 -1      4117 8.78777E-05-2.35721E-05-2.75754E-05 6.01279E-06 1.16246E-18 8.05427E-19
 -1      4118 8.88601E-05-2.38552E-05-2.78350E-05 4.63440E-06 6.22730E-19 1.79781E-18
 -1      4119 9.44286E-05-2.81573E-05-2.83834E-05-3.37346E-06-1.85828E-19-4.22502E-19
 -1      4120 9.42454E-05-2.79311E-05-2.84259E-05-2.94431E-06-2.02561E-19-7.80962E-21
 -1      4121 9.38284E-05-2.75156E-05-2.84251E-05-2.68920E-06-5.60154E-20-1.16484E-19
 -1      4122 9.65085E-05-2.78372E-05-2.94320E-05-3.91955E-07 3.76309E-19-1.31774E-19
 -1      4123 9.61143E-05-3.03820E-05-2.81595E-05 6.25076E-06-7.18332E-19 2.40593E-18
 -1      4124 9.72042E-05-3.14864E-05-2.81412E-05 6.84080E-06-5.03435E-20 2.72020E-18
 -1      4125 9.84136E-05-3.27852E-05-2.80974E-05 7.80465E-06-3.07423E-19 2.24894E-18
 -1      4126 1.00100E-04-3.43630E-05-2.81476E-05 8.21722E-06 2.74358E-19 1.46413E-18
 -1      4127 9.63886E-05-3.13198E-05-2.79357E-05 8.47016E-06-5.20850E-19 3.69508E-18
 -1      4128 9.41811E-05-2.79382E-05-2.83916E-05 3.56096E-06-5.76638E-19 1.93059E-18
 -1      4129 9.45358E-05-2.83653E-05-2.83442E-05 4.06943E-06-3.71181E-19 8.34659E-19
 -1      4130 9.39950E-05-2.75284E-05-2.84816E-05 2.68399E-06 3.09159E-19 2.24796E-18
 -1      4131 9.41466E-05-2.77585E-05-2.84388E-05 3.09579E-06-8.88580E-20 2.15582E-18
 -1      4132 9.35476E-05-2.73664E-05-2.83619E-05 3.51696E-06 3.52514E-20 2.10822E-18
 -1      4133 9.35441E-05-2.71360E-05-2.84569E-05 2.66341E-06 3.83358E-19 2.49827E-18
 -1      4134 9.49228E-05-2.88919E-05-2.82746E-05-4.51821E-06-1.62293E-19-3.61412E-19
 -1      4135 9.44964E-05-2.84250E-05-2.83194E-05-3.98866E-06 2.29182E-20-4.35246E-19
 -1      4136 9.38067E-05-2.77973E-05-2.83022E-05-3.80330E-06-8.46351E-21-3.08392E-19
 -1      4137 9.67632E-05-2.82224E-05-2.93750E-05 2.33009E-07-5.95679E-21-1.50600E-19
 -1      4138 9.67110E-05-2.84264E-05-2.92667E-05 3.23066E-07 4.83628E-20-1.85308E-19
 -1      4139 9.67067E-05-2.84912E-05-2.92391E-05 1.78975E-07-3.70137E-20-1.09313E-19
 -1      4140 9.68762E-05-3.52588E-05-2.62495E-05 1.99561E-05 3.22417E-19 4.36110E-18
 -1      4141 9.16642E-05-3.07348E-05-2.61394E-05 1.78107E-05-1.06177E-19 3.90969E-18
 -1      4142 9.65926E-05-2.74838E-05-2.96146E-05-1.45732E-07 3.61774E-19-3.91775E-19
 -1      4143 9.65080E-05-2.68904E-05-2.98367E-05 3.63331E-09 3.35426E-19-7.56724E-19
 -1      4144 9.48202E-05-2.88415E-05-2.82722E-05 4.80692E-06-6.02700E-19 1.96598E-18
 -1      4145 9.54910E-05-2.95536E-05-2.82310E-05 5.40446E-06-1.02376E-18 1.91697E-18
 -1      4146 9.38290E-05-2.79938E-05-2.82394E-05 4.70109E-06 7.07707E-20 1.66704E-18
 -1      4147 9.65166E-05-2.67564E-05-2.99031E-05 4.67568E-08 2.82980E-19-6.22764E-19
 -1      4148 9.64448E-05-2.65233E-05-2.99649E-05 7.26361E-10 2.59526E-19-2.15043E-19
 -1      4149 9.66875E-05-2.73780E-05-2.96962E-05-8.95862E-08 3.21408E-19-6.02646E-19
 -1      4150 1.02131E-04-3.62031E-05-2.81905E-05 8.96830E-06 1.12564E-18 8.66465E-19
 -1      4151 1.04606E-04-3.82118E-05-2.84083E-05 8.78658E-06 5.08637E-19 6.79294E-19
 -1      4152 9.95950E-05-3.46460E-05-2.78833E-05 1.05093E-05 9.70366E-20 2.92222E-18
 -1      4153 9.60348E-05-3.02421E-05-2.81677E-05-5.89286E-06-7.29054E-19-4.45459E-19
 -1      4154 9.52491E-05-2.94350E-05-2.82027E-05-5.29493E-06-4.62456E-19-4.23338E-19
 -1      4155 9.41823E-05-2.85468E-05-2.81547E-05-5.27260E-06-5.17015E-19-5.13787E-20
 -1      4156 9.27805E-05-2.59944E-05-2.86231E-05 3.00391E-07 1.30193E-18 1.25513E-18
 -1      4157 1.01430E-04-3.55378E-05-2.81798E-05-8.55503E-06-1.34170E-18-1.25663E-18
 -1      4158 9.94729E-05-3.38358E-05-2.80830E-05-8.21912E-06-1.41536E-18-1.29016E-18
 -1      4159 9.80563E-05-3.24121E-05-2.81038E-05-7.37372E-06-7.13634E-19-7.49601E-19
 -1      4160 9.67817E-05-3.11653E-05-2.81033E-05-6.78915E-06-4.61987E-19-6.69584E-19
 -1      4161 9.73356E-05-3.24982E-05-2.78858E-05-9.10846E-06-6.21006E-19-1.43128E-18
 -1      4162 9.66322E-05-2.79009E-05-2.94582E-05-3.61965E-07 2.77345E-19-4.25593E-19
 -1      4163 1.14110E-04-4.51431E-05-2.94203E-05 8.38744E-06 2.09694E-18 8.53015E-19
 -1      4164 9.61943E-05-2.87754E-05-2.88927E-05-8.76076E-07 2.65755E-19 8.91061E-20
 -1      4165 9.63037E-05-2.87612E-05-2.89462E-05-8.20305E-07 3.89562E-19-1.65712E-19
 -1      4166 9.64307E-05-2.87201E-05-2.90195E-05-6.46286E-07 2.76904E-19 7.63645E-20
 -1      4167 9.61718E-05-2.87462E-05-2.88980E-05-7.39993E-07 4.11372E-19-3.08333E-19
 -1      4168 8.92947E-05-2.40000E-05-2.80142E-05 3.55971E-06 1.80606E-19 1.68541E-18
 -1      4169 9.01621E-05-2.43567E-05-2.81827E-05 2.68940E-06-4.78681E-19 2.21807E-18
 -1      4170 9.00927E-05-2.48850E-05-2.79370E-05 4.88511E-06 8.58471E-19 1.86647E-18
 -1      4171 9.50707E-05-2.81496E-05-2.86758E-05-1.03606E-06 1.63487E-19-6.50877E-20
 -1      4172 9.52230E-05-2.82577E-05-2.87024E-05-9.18992E-07 1.40479E-19-4.09774E-20
 -1      4173 9.66560E-05-2.72639E-05-2.97349E-05 4.96245E-08 4.89402E-20-1.85900E-19
 -1      4174 9.67341E-05-2.77040E-05-2.95858E-05 1.36710E-07 1.18533E-20-1.61087E-19
 -1      4175 9.25959E-05-2.59024E-05-2.85843E-05 6.11509E-07 1.36610E-18 1.73367E-18
 -1      4176 9.44155E-05-3.17120E-05-2.69713E-05 1.45836E-05-6.30054E-19 4.34319E-18
 -1      4177 8.96826E-05-2.79892E-05-2.63746E-05 1.51690E-05-1.10924E-18 4.12551E-18
 -1      4178 8.91210E-05-2.64246E-05-2.68296E-05 1.21787E-05-2.15088E-18 3.42570E-18
 -1      4179 9.54352E-05-2.83822E-05-2.87336E-05-8.20657E-07 1.78723E-19-1.20743E-19
 -1      4180 9.55987E-05-2.84844E-05-2.87646E-05-7.42142E-07 1.70490E-19 1.50112E-19
 -1      4181 9.52659E-05-2.82394E-05-2.87258E-05-6.84662E-07 2.69941E-19-1.57211E-20
 -1      4182 9.44634E-05-2.78117E-05-2.85554E-05-1.82550E-06-5.72106E-19 1.89166E-19
 -1      4183 9.45327E-05-2.78450E-05-2.85856E-05-1.58549E-06-3.12617E-19 7.72829E-20
 -1      4184 9.40742E-05-2.75264E-05-2.85222E-05-1.88192E-06-4.45980E-19-9.84389E-20
 -1      4185 9.08558E-05-2.71748E-05-2.73292E-05-9.89453E-06-2.78297E-20-9.58830E-19
 -1      4186 9.66993E-05-2.79867E-05-2.94504E-05-3.01181E-07 3.49500E-19-6.51549E-19
 -1      4187 1.09906E-04-4.29487E-05-2.86974E-05 1.06381E-05 1.94408E-18 1.53411E-18
 -1      4188 9.53765E-05-3.11260E-05-2.74750E-05-1.12282E-05-5.36437E-19-1.29084E-18
 -1      4189 9.67068E-05-3.33622E-05-2.71186E-05-1.42433E-05-7.58624E-19-1.43632E-18
 -1      4190 9.17362E-05-2.52946E-05-2.84910E-05 9.79116E-07-4.99994E-19 1.70525E-18
 -1      4191 9.22687E-05-2.56434E-05-2.85560E-05 6.79563E-07 1.07410E-20 1.38287E-18
 -1      4192 8.80153E-05-2.38949E-05-2.74475E-05 7.03477E-06 1.48839E-18 9.55247E-19
 -1      4193 8.97795E-05-2.53092E-05-2.76457E-05 6.99513E-06 1.16015E-18 1.90687E-18
 -1      4194 8.77859E-05-2.41499E-05-2.72583E-05 8.31426E-06 1.82077E-18 7.09557E-19
 -1      4195 1.09942E-04-4.24638E-05-2.88093E-05-9.23510E-06-1.06124E-18-2.22679E-18
 -1      4196 9.31968E-05-2.66276E-05-2.85219E-05 1.80720E-06-7.70492E-19 6.42487E-18
 -1      4197 9.32229E-05-2.67660E-05-2.84887E-05 2.17746E-06 1.21485E-19 4.09639E-18
 -1      4198 9.31896E-05-2.68416E-05-2.84441E-05 2.57873E-06-1.46143E-19 3.76603E-18
 -1      4199 9.28878E-05-2.63454E-05-2.85245E-05 1.54466E-06-5.64256E-19 4.54172E-18
 -1      4200 9.47493E-05-2.93118E-05-2.80835E-05 6.45950E-06-5.52374E-19 3.96029E-18
 -1      4201 1.06875E-04-1.42226E-05-4.00792E-05 3.87640E-06 5.47560E-19-1.69284E-18
 -1      4202 1.05889E-04-3.99612E-05-2.82548E-05-1.09238E-05-6.06049E-19-2.11187E-18
 -1      4203 9.09817E-05-2.50858E-05-2.82272E-05 3.02275E-06-5.09455E-19 3.10631E-18
 -1      4204 9.67560E-05-2.78352E-05-2.95392E-05 5.16650E-08 3.99564E-20-1.83988E-19
 -1      4205 9.47332E-05-2.79396E-05-2.86191E-05-1.35759E-06-1.70646E-19-2.72037E-20
 -1      4206 9.48573E-05-2.80269E-05-2.86457E-05-1.18785E-06 9.88455E-20-1.91500E-19
 -1      4207 9.44353E-05-2.77047E-05-2.85989E-05-1.31799E-06-2.66450E-19-4.21609E-20
 -1      4208 9.66429E-05-2.85950E-05-2.91642E-05-4.20183E-07 1.61333E-19-2.83241E-19
 -1      4209 9.67127E-05-2.84360E-05-2.92618E-05-3.51704E-07 3.00875E-19-5.18034E-19
 -1      4210 1.01133E-04-3.78267E-05-2.70897E-05 1.70108E-05 9.32557E-19 3.08950E-18
 -1      4211 1.03082E-04-3.74801E-05-2.80971E-05-1.01793E-05-7.30159E-19-1.47632E-18
 -1      4212 9.64289E-05-2.87448E-05-2.90069E-05-5.05120E-07 2.89412E-19-1.28174E-19
 -1      4213 9.65419E-05-2.86922E-05-2.90781E-05-4.49827E-07 2.60604E-19-1.45106E-19
 -1      4214 9.66219E-05-2.86115E-05-2.91473E-05-2.77119E-07 7.09427E-20 1.18830E-19
 -1      4215 9.52179E-05-3.00034E-05-2.79987E-05-7.08829E-06-4.07367E-19-5.63492E-19
 -1      4216 1.06988E-04-4.08366E-05-2.82921E-05 1.14138E-05 1.26545E-18 1.12694E-18
 -1      4217 1.00417E-04-3.59197E-05-2.77661E-05-1.19843E-05-9.03486E-19-1.73380E-18
 -1      4218 9.65342E-05-2.68099E-05-2.98833E-05-3.96395E-08 1.20842E-19-2.51340E-19
 -1      4219 9.48457E-05-2.79631E-05-2.86637E-05-9.36318E-07 9.24269E-20 1.67269E-19
 -1      4220 9.18723E-05-2.55305E-05-2.84302E-05 1.75213E-06-1.25963E-18 2.98804E-18
 -1      4221 9.62933E-05-2.87051E-05-2.89659E-05-1.67966E-08 1.12554E-19 4.39800E-19
 -1      4222 9.61100E-05-2.86559E-05-2.89100E-05-2.66876E-08 3.01827E-19 4.18171E-19
 -1      4223 9.59231E-05-2.85776E-05-2.88612E-05-6.83088E-08 1.71020E-19 3.60074E-19
 -1      4224 9.57070E-05-2.84642E-05-2.88194E-05-1.01085E-07 2.37994E-19 5.92197E-19
 -1      4225 9.60304E-05-2.86350E-05-2.88845E-05-2.59374E-07 2.50219E-19 2.32338E-19
 -1      4226 9.55200E-05-2.83604E-05-2.87810E-05-2.50072E-07 2.10072E-19 3.92228E-19
 -1      4227 9.52754E-05-2.82044E-05-2.87472E-05-3.14837E-07 7.64308E-20 2.66124E-19
 -1      4228 9.50597E-05-2.80520E-05-2.87153E-05-4.13639E-07 7.50488E-20 3.18865E-19
 -1      4229 9.47824E-05-2.78628E-05-2.86839E-05-5.24480E-07 2.80532E-19 4.46510E-19
 -1      4230 9.45630E-05-2.76981E-05-2.86529E-05-6.75844E-07 9.10165E-20 3.55312E-19
 -1      4231 9.42553E-05-2.74931E-05-2.86183E-05-8.57919E-07-1.03847E-19 3.31636E-19
 -1      4232 9.40472E-05-2.73397E-05-2.85832E-05-1.08578E-06-2.86077E-19 1.91301E-19
 -1      4233 9.37123E-05-2.71400E-05-2.85387E-05-1.37387E-06-1.92117E-19-1.39397E-19
 -1      4234 9.35404E-05-2.70308E-05-2.84946E-05-1.70850E-06-1.02017E-19-5.03250E-19
 -1      4235 9.31901E-05-2.68682E-05-2.84328E-05-2.15009E-06-4.04363E-20-7.03232E-19
 -1      4236 9.30972E-05-2.68518E-05-2.83754E-05-2.62700E-06-8.52880E-21-6.93910E-19
 -1      4237 9.27614E-05-2.67775E-05-2.82881E-05-3.28292E-06-8.87186E-20-5.43156E-19
 -1      4238 9.28183E-05-2.69268E-05-2.82147E-05-3.93830E-06-2.67307E-19-3.34391E-19
 -1      4239 9.25592E-05-2.70220E-05-2.80938E-05-4.87966E-06-2.49236E-19-1.73440E-19
 -1      4240 9.28777E-05-2.74425E-05-2.80060E-05-5.73836E-06-3.92337E-19-1.62749E-19
 -1      4241 9.28137E-05-2.78311E-05-2.78464E-05-7.04001E-06-1.76530E-19-5.10585E-19
 -1      4242 9.38816E-05-2.95912E-05-2.75230E-05-1.00766E-05-2.42018E-19-8.37242E-19
 -1      4243 9.35834E-05-2.86793E-05-2.77595E-05-8.07683E-06-4.98500E-20-1.00441E-18
 -1      4244 9.65892E-05-2.86735E-05-2.91067E-05-6.57205E-08 4.33814E-20 2.15020E-19
 -1      4245 9.64509E-05-2.87116E-05-2.90316E-05-6.00611E-08 9.22416E-20 2.93335E-19
 -1      4246 9.25896E-05-2.59780E-05-2.85371E-05 1.18158E-06 9.10095E-20 2.42588E-18
 -1      4247 9.57825E-05-2.85673E-05-2.88044E-05-6.03978E-07 1.22679E-19 1.05370E-19
 -1      4248 9.59480E-05-2.86465E-05-2.88441E-05-5.46145E-07 2.86261E-19-2.05882E-19
 -1      4249 9.41943E-05-2.93248E-05-2.77646E-05 8.61629E-06-1.05516E-18 5.39206E-18
 -1      4250 9.53032E-05-3.06071E-05-2.76907E-05 9.72534E-06-9.46899E-19 4.98932E-18
 -1      4251 9.10261E-05-2.59286E-05-2.79224E-05 5.70432E-06 1.53278E-18 1.96442E-18
 -1      4252 9.13981E-05-2.58569E-05-2.80822E-05 4.64353E-06 5.53410E-19 2.33832E-18
 -1      4253 9.23380E-05-2.72751E-05-2.78775E-05 6.76840E-06 4.46268E-19 4.19914E-18
 -1      4254 9.28553E-05-2.80202E-05-2.77662E-05 7.87715E-06 9.25450E-20 4.88776E-18
 -1      4255 1.03699E-04-3.91288E-05-2.77084E-05 1.42389E-05 1.14257E-18 1.68836E-18
 -1      4256 9.92791E-05-3.54462E-05-2.73852E-05 1.39201E-05 3.35602E-19 3.09240E-18
 -1      4257 9.67600E-05-2.78095E-05-2.95557E-05-4.03899E-08 1.30184E-19-1.86006E-19
 -1      4258 9.68039E-05-2.82839E-05-2.93561E-05 1.08926E-08 2.39794E-20-6.30694E-21
 -1      4259 9.67260E-05-2.84596E-05-2.92570E-05 2.18598E-08-2.69174E-20 8.44276E-20
 -1      4260 9.67607E-05-2.79405E-05-2.94997E-05-1.41703E-07 3.44333E-19-4.17461E-19
 -1      4261 9.52485E-05-3.10428E-05-2.75076E-05 1.10619E-05-1.15596E-18 4.86446E-18
 -1      4262 9.70728E-05-3.28839E-05-2.74781E-05 1.22820E-05-6.37326E-19 3.70078E-18
 -1      4263 9.20975E-05-2.63372E-05-2.82047E-05 4.01405E-06 6.05494E-19 2.81228E-18
 -1      4264 9.24500E-05-2.63682E-05-2.83144E-05 3.26003E-06 1.36378E-19 3.15489E-18
 -1      4265 9.61340E-05-2.87135E-05-2.88929E-05-5.10264E-07 2.77582E-19-2.68521E-19
 -1      4266 9.62794E-05-2.87400E-05-2.89456E-05-4.60095E-07 2.74845E-19-1.48660E-19
 -1      4267 9.26297E-05-2.61285E-05-2.84936E-05 1.66393E-06-1.58586E-18 4.00231E-18
 -1      4268 9.56551E-05-2.84655E-05-2.87966E-05-4.40547E-07 2.10041E-19-8.76961E-20
 -1      4269 9.30800E-05-2.72372E-05-2.81970E-05 4.63876E-06 1.10143E-18 1.39977E-18
 -1      4270 9.25957E-05-2.88607E-05-2.73263E-05 1.10313E-05-1.94956E-18 6.96783E-18
 -1      4271 9.63744E-05-2.87151E-05-2.89972E-05-2.70846E-07 2.88211E-19 3.49369E-19
 -1      4272 9.67442E-05-2.82904E-05-2.93325E-05-2.88416E-07 3.58776E-19-4.45370E-19
 -1      4273 9.22350E-05-2.59175E-05-2.84160E-05 2.17310E-06-1.14941E-18 4.63816E-18
 -1      4274 9.33585E-05-2.76888E-05-2.81239E-05 5.40941E-06 5.99373E-19 2.61994E-18
 -1      4275 9.67593E-05-2.83866E-05-2.93056E-05-1.71961E-07 1.07341E-19 7.38531E-20
 -1      4276 9.24440E-05-2.62692E-05-2.83688E-05 2.76069E-06-4.01005E-19 3.57966E-18
 -1      4277 8.79876E-05-2.51107E-05-2.69039E-05 1.09116E-05-1.64172E-18 3.01423E-18
 -1      4278 8.79363E-05-2.45779E-05-2.71147E-05 9.38391E-06 3.87144E-19 1.61569E-18
 -1      4279 9.00754E-05-2.61803E-05-2.73964E-05 9.04341E-06 7.06520E-19 2.65338E-18
 -1      4280 9.12815E-05-2.74694E-05-2.73850E-05 9.95382E-06-4.85463E-19 5.20008E-18
 -1      4281 9.12153E-05-2.79110E-05-2.71906E-05 1.12243E-05-1.87744E-18 5.20883E-18
 -1      4282 9.66890E-05-2.85665E-05-2.91930E-05-3.40823E-08-2.86709E-20 1.25296E-19
 -1      4283 9.12147E-05-2.71265E-05-2.75117E-05 9.00101E-06 1.24279E-19 5.06958E-18
 -1      4284 9.13335E-05-2.64319E-05-2.78280E-05 6.60312E-06 1.71911E-18 2.91325E-18
 -3
    1PSTEP                         4           1           1          
  100CL  101 1.000000000        4284                     0    1           1
 -4  ERROR       1    1
 -5  STR(%)      1    1    0    0
 -1         1 2.49070E+01
 -1         2 2.39248E+01
 -1         3 8.10752E-03
 -1         4 1.47734E-02
 -1         5 1.40417E+01
 -1         6 1.33804E+01
 -1         7 1.33804E+01
 -1         8 3.65442E+00
 -1         9 1.82261E+00
 -1        10 1.28881E+00
 -1        11 1.04240E+00
 -1        12 8.98800E-01
 -1        13 8.07875E-01
 -1        14 7.53444E-01
 -1        15 7.55224E-01
 -1        16 8.11860E-01
 -1        17 8.99291E-01
 -1        18 1.05107E+00
 -1        19 1.30437E+00
 -1        20 1.82777E+00
 -1        21 3.50520E+00
 -1        22 8.64159E+00
 -1        23 1.33804E+01
 -1        24 4.26443E+00
 -1        25 3.40794E+00
 -1        26 2.16377E+00
 -1        27 1.39925E+00
 -1        28 1.03805E+00
 -1        29 7.98486E-01
 -1        30 6.20262E-01
 -1        31 4.83404E-01
 -1        32 3.78165E-01
 -1        33 2.99444E-01
 -1        34 2.41916E-01
 -1        35 2.03476E-01
 -1        36 1.82397E-01
 -1        37 2.20117E-01
 -1        38 2.84703E-01
 -1        39 3.86345E-01
 -1        40 5.38877E-01
 -1        41 7.58750E-01
 -1        42 1.06072E+00
 -1        43 1.44655E+00
 -1        44 1.96100E+00
 -1        45 2.79816E+00
 -1        46 3.77084E+00
 -1        47 4.99268E+00
 -1        48 5.35135E+00
 -1        49 5.35135E+00
 -1        50 5.20757E+00
 -1        51 1.22852E+01
 -1        52 1.51024E+01
 -1        53 1.51024E+01
 -1        54 1.40203E+01
 -1        55 8.29112E+00
 -1        56 4.20552E+00
 -1        57 4.85988E+00
 -1        58 4.85988E+00
 -1        59 4.15703E+00
 -1        60 3.16171E+00
 -1        61 2.33986E+00
 -1        62 1.69122E+00
 -1        63 1.26520E+00
 -1        64 9.10743E-01
 -1        65 6.41255E-01
 -1        66 4.46665E-01
 -1        67 3.09971E-01
 -1        68 2.14796E-01
 -1        69 1.47620E-01
 -1        70 1.10381E-01
 -1        71 8.40030E-02
 -1        72 4.71983E-02
 -1        73 1.40417E+01
 -1        74 3.39986E+00
 -1        75 2.42248E+00
 -1        76 1.67316E+00
 -1        77 1.15415E+00
 -1        78 9.16085E-01
 -1        79 7.44289E-01
 -1        80 6.04563E-01
 -1        81 4.89694E-01
 -1        82 3.95700E-01
 -1        83 3.20528E-01
 -1        84 2.63545E-01
 -1        85 2.16789E-01
 -1        86 1.78429E-01
 -1        87 1.45931E-01
 -1        88 1.34017E-01
 -1        89 1.29970E-01
 -1        90 1.22402E-01
 -1        91 1.50730E-01
 -1        92 1.96445E-01
 -1        93 2.99047E-01
 -1        94 3.95218E-01
 -1        95 5.14163E-01
 -1        96 7.04048E-01
 -1        97 8.63034E-01
 -1        98 9.46657E-01
 -1        99 1.39002E+00
 -1       100 1.78360E+00
 -1       101 2.01175E+00
 -1       102 2.12056E+00
 -1       103 2.29501E+00
 -1       104 2.29501E+00
 -1       105 2.17147E+00
 -1       106 1.82031E+00
 -1       107 1.38357E+00
 -1       108 9.82508E-01
 -1       109 6.19011E-01
 -1       110 4.17129E-01
 -1       111 2.50851E-01
 -1       112 1.78199E-01
 -1       113 1.60821E-01
 -1       114 1.60821E-01
 -1       115 1.45174E-01
 -1       116 1.17260E-01
 -1       117 8.83661E-02
 -1       118 7.71792E-02
 -1       119 6.25638E-02
 -1       120 4.20279E-02
 -1       121 2.81006E-02
 -1       122 1.22175E-02
 -1       123 1.22175E-02
 -1       124 1.16677E-02
 -1       125 7.40253E-03
 -1       126 3.04493E-03
 -1       127 7.81191E-03
 -1       128 1.19352E-02
 -1       129 1.47389E-02
 -1       130 1.56153E-02
 -1       131 1.56153E-02
 -1       132 1.37837E-02
 -1       133 9.14667E-03
 -1       134 8.88079E-03
 -1       135 1.63482E-02
 -1       136 1.63482E-02
 -1       137 1.37629E-02
 -1       138 2.37853E+01
 -1       139 4.22662E+01
 -1       140 4.22662E+01
 -1       141 1.61142E+01
 -1       142 1.21159E+01
 -1       143 1.33357E+01
 -1       144 1.33357E+01
 -1       145 1.31076E+01
 -1       146 1.24410E+01
 -1       147 1.29550E+01
 -1       148 3.13192E+01
 -1       149 3.21631E+01
 -1       150 2.80899E+01
 -1       151 2.40673E+01
 -1       152 2.47993E+01
 -1       153 4.60632E+01
 -1       154 4.60632E+01
 -1       155 1.82651E+01
 -1       156 1.32407E+01
 -1       157 1.36263E+01
 -1       158 1.36263E+01
 -1       159 1.33847E+01
 -1       160 1.37629E+01
 -1       161 2.93604E+01
 -1       162 2.93604E+01
 -1       163 2.65858E+01
 -1       164 2.55892E+01
 -1       165 6.19220E+00
 -1       166 2.29680E+00
 -1       167 1.50374E+00
 -1       168 1.15683E+00
 -1       169 9.71008E-01
 -1       170 8.63587E-01
 -1       171 7.95412E-01
 -1       172 7.55224E-01
 -1       173 7.98563E-01
 -1       174 8.66048E-01
 -1       175 9.79623E-01
 -1       176 1.16993E+00
 -1       177 1.52518E+00
 -1       178 2.25694E+00
 -1       179 3.93097E+00
 -1       180 1.40417E+01
 -1       181 4.26443E+00
 -1       182 3.40794E+00
 -1       183 2.16377E+00
 -1       184 1.47576E+00
 -1       185 1.04988E+00
 -1       186 7.98486E-01
 -1       187 6.20262E-01
 -1       188 4.89913E-01
 -1       189 3.92972E-01
 -1       190 3.14971E-01
 -1       191 2.53823E-01
 -1       192 2.07493E-01
 -1       193 1.82397E-01
 -1       194 1.82215E-01
 -1       195 2.26200E-01
 -1       196 2.98025E-01
 -1       197 4.04285E-01
 -1       198 6.28581E-01
 -1       199 9.64176E-01
 -1       200 1.44197E+00
 -1       201 2.08309E+00
 -1       202 2.85966E+00
 -1       203 3.63895E+00
 -1       204 4.17329E+00
 -1       205 4.99268E+00
 -1       206 5.35135E+00
 -1       207 5.65028E+00
 -1       208 5.96984E+00
 -1       209 1.22852E+01
 -1       210 1.51024E+01
 -1       211 8.29112E+00
 -1       212 4.42800E+00
 -1       213 4.73327E+00
 -1       214 4.85988E+00
 -1       215 4.19049E+00
 -1       216 3.63570E+00
 -1       217 3.00561E+00
 -1       218 2.26398E+00
 -1       219 1.60099E+00
 -1       220 1.08424E+00
 -1       221 7.12145E-01
 -1       222 4.71640E-01
 -1       223 3.32961E-01
 -1       224 2.34273E-01
 -1       225 1.64142E-01
 -1       226 1.13337E-01
 -1       227 8.40030E-02
 -1       228 4.90306E-02
 -1       229 2.26917E-02
 -1       230 3.39986E+00
 -1       231 2.42248E+00
 -1       232 1.67316E+00
 -1       233 1.15415E+00
 -1       234 9.16085E-01
 -1       235 7.44289E-01
 -1       236 6.04563E-01
 -1       237 4.89694E-01
 -1       238 3.95700E-01
 -1       239 3.20528E-01
 -1       240 2.63545E-01
 -1       241 2.16789E-01
 -1       242 1.78429E-01
 -1       243 1.45931E-01
 -1       244 1.34017E-01
 -1       245 1.29970E-01
 -1       246 1.22402E-01
 -1       247 1.17447E-01
 -1       248 1.50730E-01
 -1       249 1.96445E-01
 -1       250 2.99047E-01
 -1       251 4.13502E-01
 -1       252 6.62151E-01
 -1       253 9.43030E-01
 -1       254 1.23711E+00
 -1       255 1.55695E+00
 -1       256 1.77384E+00
 -1       257 1.83546E+00
 -1       258 2.01175E+00
 -1       259 2.12056E+00
 -1       260 2.29501E+00
 -1       261 2.17147E+00
 -1       262 1.82031E+00
 -1       263 1.38357E+00
 -1       264 1.00648E+00
 -1       265 6.82654E-01
 -1       266 4.17129E-01
 -1       267 2.50851E-01
 -1       268 1.78199E-01
 -1       269 1.52215E-01
 -1       270 1.60821E-01
 -1       271 1.45174E-01
 -1       272 1.17260E-01
 -1       273 8.83661E-02
 -1       274 7.71792E-02
 -1       275 6.25638E-02
 -1       276 4.20279E-02
 -1       277 2.81006E-02
 -1       278 2.15610E-02
 -1       279 2.15610E-02
 -1       280 1.86004E-02
 -1       281 1.08908E-02
 -1       282 1.28802E-02
 -1       283 2.11146E-02
 -1       284 2.74094E-02
 -1       285 3.01940E-02
 -1       286 3.03438E-02
 -1       287 3.03438E-02
 -1       288 2.70432E-02
 -1       289 1.81802E-02
 -1       290 2.60237E-02
 -1       291 3.14576E-02
 -1       292 3.46608E-02
 -1       293 2.77117E+01
 -1       294 3.84774E+01
 -1       295 4.22662E+01
 -1       296 1.61142E+01
 -1       297 1.11069E+01
 -1       298 1.21159E+01
 -1       299 1.33357E+01
 -1       300 1.31076E+01
 -1       301 1.24410E+01
 -1       302 1.11565E+01
 -1       303 1.29550E+01
 -1       304 3.21631E+01
 -1       305 3.21631E+01
 -1       306 2.50439E+01
 -1       307 3.11732E+01
 -1       308 3.11732E+01
 -1       309 3.90256E+01
 -1       310 4.60632E+01
 -1       311 1.86329E+01
 -1       312 1.15226E+01
 -1       313 1.32407E+01
 -1       314 1.36263E+01
 -1       315 1.33847E+01
 -1       316 1.30047E+01
 -1       317 1.37629E+01
 -1       318 2.93604E+01
 -1       319 2.87228E+01
 -1       320 2.65532E+01
 -1       321 2.77117E+01
 -1       322 1.40203E+01
 -1       323 1.06878E+00
 -1       324 2.53643E+00
 -1       325 7.87750E-01
 -1       326 6.94074E-01
 -1       327 6.31036E-01
 -1       328 5.86900E-01
 -1       329 5.89893E-01
 -1       330 6.33399E-01
 -1       331 6.99899E-01
 -1       332 7.94930E-01
 -1       333 9.28876E-01
 -1       334 1.14143E+00
 -1       335 1.32606E+00
 -1       336 2.19745E+00
 -1       337 1.91352E+00
 -1       338 1.30508E+01
 -1       339 1.74356E+00
 -1       340 1.29139E+00
 -1       341 9.27419E-01
 -1       342 6.72955E-01
 -1       343 5.55168E-01
 -1       344 4.60348E-01
 -1       345 3.77598E-01
 -1       346 3.07760E-01
 -1       347 2.52227E-01
 -1       348 2.05296E-01
 -1       349 1.70663E-01
 -1       350 1.51168E-01
 -1       351 1.79595E-01
 -1       352 2.26200E-01
 -1       353 3.52842E-01
 -1       354 5.44968E-01
 -1       355 8.21235E-01
 -1       356 1.21486E+00
 -1       357 1.76209E+00
 -1       358 2.49000E+00
 -1       359 3.39126E+00
 -1       360 4.38527E+00
 -1       361 5.33462E+00
 -1       362 6.33409E+00
 -1       363 9.29754E+00
 -1       364 8.73447E+00
 -1       365 1.18192E+01
 -1       366 1.37627E+01
 -1       367 7.95162E+00
 -1       368 6.10330E+00
 -1       369 4.72356E+00
 -1       370 4.26408E+00
 -1       371 3.52701E+00
 -1       372 2.70479E+00
 -1       373 1.96390E+00
 -1       374 1.37370E+00
 -1       375 9.36710E-01
 -1       376 6.26973E-01
 -1       377 4.13050E-01
 -1       378 2.67526E-01
 -1       379 1.69502E-01
 -1       380 1.13337E-01
 -1       381 7.87411E-02
 -1       382 5.41834E-02
 -1       383 1.13942E+00
 -1       384 8.20122E-01
 -1       385 6.40176E-01
 -1       386 5.27744E-01
 -1       387 4.29805E-01
 -1       388 3.45979E-01
 -1       389 2.80093E-01
 -1       390 2.23428E-01
 -1       391 1.74773E-01
 -1       392 1.33025E-01
 -1       393 1.17995E-01
 -1       394 1.14195E-01
 -1       395 1.10056E-01
 -1       396 1.03105E-01
 -1       397 1.15656E-01
 -1       398 1.14964E-01
 -1       399 1.02297E-01
 -1       400 1.88306E-01
 -1       401 3.43015E-01
 -1       402 5.34289E-01
 -1       403 7.48193E-01
 -1       404 1.01396E+00
 -1       405 1.27018E+00
 -1       406 1.55695E+00
 -1       407 1.77384E+00
 -1       408 1.83546E+00
 -1       409 1.77178E+00
 -1       410 1.83070E+00
 -1       411 1.72230E+00
 -1       412 1.47079E+00
 -1       413 1.19503E+00
 -1       414 9.25538E-01
 -1       415 6.81515E-01
 -1       416 4.73035E-01
 -1       417 2.92476E-01
 -1       418 1.50562E-01
 -1       419 9.56510E-02
 -1       420 1.04416E-01
 -1       421 9.86782E-02
 -1       422 8.09657E-02
 -1       423 7.06596E-02
 -1       424 6.60777E-02
 -1       425 5.59509E-02
 -1       426 4.15704E-02
 -1       427 3.12450E-02
 -1       428 2.14723E-02
 -1       429 4.01671E-02
 -1       430 1.60284E-02
 -1       431 2.61962E-02
 -1       432 3.63372E-02
 -1       433 4.25476E-02
 -1       434 4.32754E-02
 -1       435 4.56968E-02
 -1       436 4.56968E-02
 -1       437 4.02679E-02
 -1       438 3.09282E-02
 -1       439 4.87278E-02
 -1       440 1.36240E+00
 -1       441 2.47938E+01
 -1       442 8.26647E+00
 -1       443 4.04716E+01
 -1       444 1.19642E+01
 -1       445 9.11681E-01
 -1       446 6.09114E+00
 -1       447 8.28255E+00
 -1       448 8.45539E+00
 -1       449 9.55321E+00
 -1       450 9.87771E+00
 -1       451 8.68293E+00
 -1       452 7.38819E+00
 -1       453 1.17694E+01
 -1       454 2.05862E+01
 -1       455 2.61509E+01
 -1       456 3.48956E+01
 -1       457 3.48956E+01
 -1       458 2.49111E+01
 -1       459 2.80345E+01
 -1       460 1.62661E+01
 -1       461 8.62136E+00
 -1       462 9.03304E+00
 -1       463 7.01065E+00
 -1       464 1.21086E+01
 -1       465 2.02995E+01
 -1       466 2.46405E+01
 -1       467 4.04716E+01
 -1       468 2.62578E+01
 -1       469 1.33115E+01
 -1       470 4.87278E-02
 -1       471 1.80283E+01
 -1       472 8.94843E+00
 -1       473 4.85647E-01
 -1       474 5.09794E-01
 -1       475 4.30614E-01
 -1       476 4.56386E-01
 -1       477 4.85902E-01
 -1       478 5.09725E-01
 -1       479 5.09725E-01
 -1       480 5.02470E-01
 -1       481 6.37514E-01
 -1       482 1.31592E+00
 -1       483 8.17064E-01
 -1       484 4.57888E+00
 -1       485 7.10332E-01
 -1       486 5.98060E-01
 -1       487 4.84909E-01
 -1       488 3.84464E-01
 -1       489 3.35110E-01
 -1       490 2.85885E-01
 -1       491 2.38655E-01
 -1       492 1.95285E-01
 -1       493 1.55903E-01
 -1       494 1.19261E-01
 -1       495 1.22986E-01
 -1       496 1.55027E-01
 -1       497 2.55723E-01
 -1       498 3.92145E-01
 -1       499 5.80498E-01
 -1       500 8.43585E-01
 -1       501 1.22507E+00
 -1       502 1.84057E+00
 -1       503 2.76983E+00
 -1       504 4.04680E+00
 -1       505 5.92300E+00
 -1       506 7.63067E+00
 -1       507 1.05515E+01
 -1       508 1.30689E+01
 -1       509 4.45790E+00
 -1       510 8.61144E-01
 -1       511 7.12592E+00
 -1       512 5.98185E+00
 -1       513 4.24435E+00
 -1       514 2.96437E+00
 -1       515 2.06891E+00
 -1       516 1.44571E+00
 -1       517 1.00557E+00
 -1       518 6.94371E-01
 -1       519 4.75335E-01
 -1       520 3.21934E-01
 -1       521 2.15084E-01
 -1       522 1.41005E-01
 -1       523 8.94939E-02
 -1       524 7.80128E-02
 -1       525 4.45788E-01
 -1       526 5.64536E-01
 -1       527 6.94719E-01
 -1       528 3.73802E-01
 -1       529 3.19034E-01
 -1       530 2.65442E-01
 -1       531 2.15837E-01
 -1       532 1.71242E-01
 -1       533 1.32701E-01
 -1       534 9.84856E-02
 -1       535 8.57416E-02
 -1       536 8.51310E-02
 -1       537 8.31857E-02
 -1       538 8.22110E-02
 -1       539 1.00441E-01
 -1       540 1.30908E-01
 -1       541 1.68166E-01
 -1       542 2.83099E-01
 -1       543 4.28064E-01
 -1       544 6.00024E-01
 -1       545 8.39499E-01
 -1       546 1.05840E+00
 -1       547 1.20554E+00
 -1       548 1.34607E+00
 -1       549 1.39353E+00
 -1       550 1.34093E+00
 -1       551 1.36616E+00
 -1       552 1.39088E+00
 -1       553 1.30912E+00
 -1       554 1.17090E+00
 -1       555 9.96241E-01
 -1       556 7.65658E-01
 -1       557 5.36545E-01
 -1       558 3.78041E-01
 -1       559 2.39855E-01
 -1       560 1.53017E-01
 -1       561 1.18698E-01
 -1       562 8.92217E-02
 -1       563 7.64952E-02
 -1       564 6.86628E-02
 -1       565 5.82494E-02
 -1       566 4.82302E-02
 -1       567 4.01671E-02
 -1       568 2.88934E-02
 -1       569 4.17314E-02
 -1       570 4.17314E-02
 -1       571 2.62578E+01
 -1       572 4.27938E-02
 -1       573 5.39256E-02
 -1       574 5.89617E-02
 -1       575 6.24792E-02
 -1       576 6.48684E-02
 -1       577 6.48684E-02
 -1       578 5.50016E-02
 -1       579 7.80128E-02
 -1       580 6.34558E+00
 -1       581 1.75872E+01
 -1       582 8.78188E+00
 -1       583 4.04716E+01
 -1       584 4.56615E-01
 -1       585 7.43707E+00
 -1       586 5.99380E+00
 -1       587 5.83991E+00
 -1       588 4.16642E+00
 -1       589 7.33302E+00
 -1       590 1.15688E+01
 -1       591 1.62796E+01
 -1       592 2.61509E+01
 -1       593 3.48956E+01
 -1       594 2.49111E+01
 -1       595 1.96430E+01
 -1       596 9.49868E+00
 -1       597 2.46405E+01
 -1       598 5.09794E-01
 -1       599 7.46506E-01
 -1       600 4.59082E-01
 -1       601 7.09361E+00
 -1       602 6.33042E-01
 -1       603 2.15346E+01
 -1       604 7.81373E+00
 -1       605 1.86840E+01
 -1       606 7.19989E+00
 -1       607 3.57644E-01
 -1       608 3.42063E-01
 -1       609 3.60664E-01
 -1       610 3.39930E-01
 -1       611 5.92768E-01
 -1       612 3.98785E-01
 -1       613 3.86866E-01
 -1       614 3.45399E-01
 -1       615 2.93618E-01
 -1       616 2.40395E-01
 -1       617 2.07944E-01
 -1       618 1.73206E-01
 -1       619 1.36801E-01
 -1       620 9.85444E-02
 -1       621 6.59694E-02
 -1       622 8.29165E-02
 -1       623 1.64557E-01
 -1       624 2.84836E-01
 -1       625 4.60680E-01
 -1       626 7.17041E-01
 -1       627 1.09462E+00
 -1       628 1.65534E+00
 -1       629 2.49154E+00
 -1       630 3.74354E+00
 -1       631 5.83922E+00
 -1       632 8.52968E+00
 -1       633 1.85962E+01
 -1       634 6.60564E+00
 -1       635 5.79207E-02
 -1       636 4.54720E+00
 -1       637 2.97771E+00
 -1       638 1.94913E+00
 -1       639 1.27417E+00
 -1       640 8.28585E-01
 -1       641 5.49990E-01
 -1       642 3.62949E-01
 -1       643 2.36339E-01
 -1       644 1.63143E-01
 -1       645 1.05345E-01
 -1       646 3.87179E-01
 -1       647 3.31570E-01
 -1       648 4.30507E-01
 -1       649 2.31779E-01
 -1       650 1.96365E-01
 -1       651 1.60402E-01
 -1       652 1.25815E-01
 -1       653 9.36802E-02
 -1       654 6.47879E-02
 -1       655 5.96649E-02
 -1       656 6.45243E-02
 -1       657 7.67656E-02
 -1       658 1.00441E-01
 -1       659 1.43712E-01
 -1       660 2.07918E-01
 -1       661 2.83099E-01
 -1       662 4.28064E-01
 -1       663 5.87993E-01
 -1       664 7.60892E-01
 -1       665 9.10028E-01
 -1       666 1.08743E+00
 -1       667 1.18311E+00
 -1       668 1.29566E+00
 -1       669 1.25665E+00
 -1       670 1.15683E+00
 -1       671 1.29076E+00
 -1       672 1.25269E+00
 -1       673 1.15186E+00
 -1       674 1.04005E+00
 -1       675 8.70757E-01
 -1       676 7.00876E-01
 -1       677 5.36545E-01
 -1       678 3.78041E-01
 -1       679 2.58825E-01
 -1       680 1.87768E-01
 -1       681 1.28356E-01
 -1       682 9.81971E-02
 -1       683 8.50131E-02
 -1       684 8.72362E-02
 -1       685 8.27679E-02
 -1       686 5.72763E-02
 -1       687 6.19579E-02
 -1       688 5.88736E-02
 -1       689 2.73295E-01
 -1       690 7.78716E-02
 -1       691 8.89037E-02
 -1       692 9.55637E-02
 -1       693 9.55637E-02
 -1       694 7.85436E-02
 -1       695 5.12808E+00
 -1       696 1.40703E+01
 -1       697 1.34312E+01
 -1       698 7.56611E-02
 -1       699 4.07043E-01
 -1       700 3.60664E-01
 -1       701 1.51891E+01
 -1       702 1.42304E+01
 -1       703 3.59989E-01
 -1       704 2.68307E+00
 -1       705 1.11371E+01
 -1       706 3.08811E+00
 -1       707 1.07718E+01
 -1       708 3.97012E+00
 -1       709 5.31329E+00
 -1       710 1.76763E+01
 -1       711 2.80271E+00
 -1       712 3.68712E-01
 -1       713 1.22353E+01
 -1       714 3.41797E-01
 -1       715 4.17854E-01
 -1       716 4.41600E+00
 -1       717 6.28146E+00
 -1       718 1.37462E+01
 -1       719 5.82398E+00
 -1       720 3.59989E-01
 -1       721 5.88180E+00
 -1       722 3.57157E-01
 -1       723 9.20762E+00
 -1       724 2.87631E-01
 -1       725 2.41560E-01
 -1       726 1.30760E+01
 -1       727 2.63945E-01
 -1       728 2.54259E-01
 -1       729 2.46265E-01
 -1       730 2.21706E-01
 -1       731 1.88820E-01
 -1       732 1.60812E-01
 -1       733 1.33096E-01
 -1       734 1.01641E-01
 -1       735 7.31581E-02
 -1       736 8.51590E-02
 -1       737 1.37392E-01
 -1       738 2.32755E-01
 -1       739 3.63602E-01
 -1       740 5.46672E-01
 -1       741 8.07501E-01
 -1       742 1.18810E+00
 -1       743 1.76813E+00
 -1       744 2.71233E+00
 -1       745 4.14735E+00
 -1       746 8.52968E+00
 -1       747 2.27992E-01
 -1       748 5.94672E+00
 -1       749 3.64756E+00
 -1       750 2.36271E+00
 -1       751 1.57321E+00
 -1       752 1.05027E+00
 -1       753 7.05893E-01
 -1       754 4.73247E-01
 -1       755 3.14197E-01
 -1       756 2.04407E-01
 -1       757 1.74481E-01
 -1       758 8.27679E-02
 -1       759 2.67105E-01
 -1       760 2.67887E-01
 -1       761 1.52224E-01
 -1       762 1.78541E-01
 -1       763 8.99712E-02
 -1       764 5.73557E-02
 -1       765 3.38656E-02
 -1       766 4.17757E-02
 -1       767 6.62253E-02
 -1       768 9.71016E-02
 -1       769 1.43712E-01
 -1       770 2.07918E-01
 -1       771 3.01042E-01
 -1       772 4.22900E-01
 -1       773 5.70865E-01
 -1       774 7.60892E-01
 -1       775 9.36657E-01
 -1       776 1.10940E+00
 -1       777 1.15921E+00
 -1       778 1.37172E+00
 -1       779 1.51580E+00
 -1       780 1.47993E+00
 -1       781 1.49430E+00
 -1       782 1.55019E+00
 -1       783 1.27471E+00
 -1       784 1.14229E+00
 -1       785 1.06221E+00
 -1       786 8.70757E-01
 -1       787 7.00876E-01
 -1       788 5.10868E-01
 -1       789 3.85727E-01
 -1       790 2.69483E-01
 -1       791 1.87768E-01
 -1       792 1.40623E-01
 -1       793 1.12265E-01
 -1       794 1.12808E-01
 -1       795 2.51588E-01
 -1       796 9.48537E-02
 -1       797 1.69777E-01
 -1       798 1.01981E-01
 -1       799 4.25190E+00
 -1       800 2.72772E+00
 -1       801 2.93147E+00
 -1       802 2.43716E+00
 -1       803 1.16376E+01
 -1       804 8.16630E+00
 -1       805 9.25598E+00
 -1       806 1.01981E-01
 -1       807 6.53270E+00
 -1       808 2.83866E+00
 -1       809 1.21987E-01
 -1       810 1.03741E+01
 -1       811 1.21818E-01
 -1       812 2.31169E-01
 -1       813 2.78720E-01
 -1       814 2.66495E+00
 -1       815 2.87631E-01
 -1       816 5.85073E+00
 -1       817 2.80680E-01
 -1       818 1.30760E+01
 -1       819 6.34737E-02
 -1       820 2.45191E-01
 -1       821 2.12810E-01
 -1       822 8.72362E-02
 -1       823 6.20480E-02
 -1       824 3.43610E+00
 -1       825 6.44701E+00
 -1       826 5.46072E+00
 -1       827 2.81711E-01
 -1       828 4.88858E+00
 -1       829 2.66646E+00
 -1       830 2.89712E-01
 -1       831 1.70846E-01
 -1       832 1.34701E-01
 -1       833 1.77749E-01
 -1       834 1.67445E-01
 -1       835 1.47125E-01
 -1       836 1.26652E-01
 -1       837 1.07061E-01
 -1       838 8.84091E-02
 -1       839 9.79833E-02
 -1       840 1.15092E-01
 -1       841 1.64053E-01
 -1       842 2.44792E-01
 -1       843 3.49219E-01
 -1       844 5.29338E-01
 -1       845 8.01181E-01
 -1       846 1.20648E+00
 -1       847 1.80146E+00
 -1       848 2.74175E+00
 -1       849 3.77192E+00
 -1       850 2.16771E+00
 -1       851 1.52018E+00
 -1       852 9.74402E-01
 -1       853 6.68620E-01
 -1       854 4.77977E-01
 -1       855 3.38196E-01
 -1       856 2.37154E-01
 -1       857 1.76080E-01
 -1       858 1.39858E-01
 -1       859 5.18480E-02
 -1       860 6.97102E-02
 -1       861 6.74600E-02
 -1       862 1.03486E-01
 -1       863 1.46401E-01
 -1       864 2.10660E-01
 -1       865 3.01042E-01
 -1       866 4.22900E-01
 -1       867 5.86640E-01
 -1       868 7.72897E-01
 -1       869 9.51245E-01
 -1       870 1.19050E+00
 -1       871 1.52704E+00
 -1       872 1.93130E+00
 -1       873 2.19001E+00
 -1       874 3.02505E+00
 -1       875 1.85220E+00
 -1       876 3.32509E+00
 -1       877 2.66273E+00
 -1       878 2.35183E+00
 -1       879 1.29327E+00
 -1       880 1.06221E+00
 -1       881 9.07924E-01
 -1       882 7.28088E-01
 -1       883 5.27785E-01
 -1       884 3.85727E-01
 -1       885 2.69710E-01
 -1       886 2.03195E-01
 -1       887 1.52975E-01
 -1       888 1.50176E-01
 -1       889 5.90734E+00
 -1       890 5.52436E+00
 -1       891 2.07219E+00
 -1       892 4.26909E+00
 -1       893 4.89266E-02
 -1       894 3.01798E+00
 -1       895 4.19211E+00
 -1       896 1.97486E+00
 -1       897 2.89712E-01
 -1       898 3.15361E+00
 -1       899 2.21132E-01
 -1       900 2.05216E+00
 -1       901 2.14928E-01
 -1       902 1.30760E+01
 -1       903 1.43841E-01
 -1       904 1.71753E-01
 -1       905 1.64564E-01
 -1       906 9.67850E-02
 -1       907 1.21712E-01
 -1       908 1.12808E-01
 -1       909 1.14061E-01
 -1       910 4.24827E+00
 -1       911 1.30908E-01
 -1       912 3.03732E+00
 -1       913 1.39737E-01
 -1       914 3.02505E+00
 -1       915 4.27631E+00
 -1       916 3.35243E+00
 -1       917 1.87469E-01
 -1       918 5.04328E+00
 -1       919 3.32509E+00
 -1       920 2.14928E-01
 -1       921 1.30908E-01
 -1       922 1.21938E-01
 -1       923 1.20489E-01
 -1       924 8.58562E-02
 -1       925 2.54314E-01
 -1       926 1.82768E-01
 -1       927 3.96194E+00
 -1       928 1.18882E-01
 -1       929 1.30769E-01
 -1       930 1.27548E-01
 -1       931 1.15188E-01
 -1       932 1.01366E-01
 -1       933 9.48565E-02
 -1       934 1.01589E-01
 -1       935 1.17282E-01
 -1       936 1.55763E-01
 -1       937 2.13872E-01
 -1       938 2.98798E-01
 -1       939 4.19513E-01
 -1       940 5.85219E-01
 -1       941 8.23612E-01
 -1       942 1.34862E+00
 -1       943 2.23385E+00
 -1       944 2.97587E+00
 -1       945 6.71384E-02
 -1       946 1.93130E+00
 -1       947 1.05863E+00
 -1       948 7.38424E-01
 -1       949 5.09997E-01
 -1       950 3.47915E-01
 -1       951 2.34838E-01
 -1       952 1.68415E-01
 -1       953 1.59678E-01
 -1       954 1.16276E-01
 -1       955 3.08144E-01
 -1       956 4.36009E-01
 -1       957 5.86640E-01
 -1       958 7.72897E-01
 -1       959 1.05326E+00
 -1       960 1.68706E+00
 -1       961 2.07219E+00
 -1       962 3.35243E+00
 -1       963 3.32509E+00
 -1       964 2.35183E+00
 -1       965 1.46807E+00
 -1       966 1.30122E+00
 -1       967 9.60949E-01
 -1       968 7.28088E-01
 -1       969 5.36484E-01
 -1       970 3.99782E-01
 -1       971 2.92252E-01
 -1       972 2.20091E-01
 -1       973 2.05994E-01
 -1       974 2.34869E+00
 -1       975 2.54314E-01
 -1       976 1.82245E-01
 -1       977 3.94918E+00
 -1       978 3.63353E+00
 -1       979 2.30121E-01
 -1       980 2.66273E+00
 -1       981 1.87763E+00
 -1       982 7.72960E-02
 -1       983 1.09510E-01
 -1       984 1.26903E-01
 -1       985 8.23777E-02
 -1       986 1.97333E+00
 -1       987 1.26782E-01
 -1       988 3.12021E+00
 -1       989 8.74598E-02
 -1       990 2.89648E+00
 -1       991 1.65694E-01
 -1       992 1.23358E-01
 -1       993 1.90224E-01
 -1       994 3.77744E+00
 -1       995 1.45144E-01
 -1       996 1.65694E-01
 -1       997 2.36551E+00
 -1       998 7.11640E-02
 -1       999 1.50964E-01
 -1      1000 1.09515E-01
 -1      1001 1.87594E-01
 -1      1002 9.88981E-02
 -1      1003 9.84599E-02
 -1      1004 9.17937E-02
 -1      1005 9.70485E-02
 -1      1006 1.04599E-01
 -1      1007 1.16590E-01
 -1      1008 1.40736E-01
 -1      1009 1.78715E-01
 -1      1010 2.30085E-01
 -1      1011 2.98798E-01
 -1      1012 4.50458E-01
 -1      1013 6.88325E-01
 -1      1014 1.01706E+00
 -1      1015 1.52594E+00
 -1      1016 2.79976E+00
 -1      1017 8.59493E-01
 -1      1018 3.45093E-01
 -1      1019 5.28634E-01
 -1      1020 3.59575E-01
 -1      1021 2.64356E-01
 -1      1022 1.78052E-01
 -1      1023 6.35898E-01
 -1      1024 4.87238E-01
 -1      1025 1.20137E+00
 -1      1026 1.00934E+00
 -1      1027 8.24326E-01
 -1      1028 5.96028E-01
 -1      1029 4.44043E-01
 -1      1030 3.16623E-01
 -1      1031 2.08977E-01
 -1      1032 2.05994E-01
 -1      1033 1.64277E-01
 -1      1034 1.37025E-01
 -1      1035 1.90224E-01
 -1      1036 3.96194E+00
 -1      1037 1.87594E-01
 -1      1038 2.33324E-01
 -1      1039 1.30122E+00
 -1      1040 2.01813E+00
 -1      1041 9.45867E-02
 -1      1042 9.64159E-02
 -1      1043 8.68437E-01
 -1      1044 3.45875E+00
 -1      1045 1.18915E+00
 -1      1046 1.44216E-01
 -1      1047 8.73527E-02
 -1      1048 1.73055E-01
 -1      1049 8.60479E-02
 -1      1050 1.31992E-01
 -1      1051 2.75161E+00
 -1      1052 3.12021E+00
 -1      1053 6.56686E-02
 -1      1054 1.91404E+00
 -1      1055 9.76903E-02
 -1      1056 2.55421E+00
 -1      1057 9.88249E-02
 -1      1058 1.07664E-01
 -1      1059 9.71583E-02
 -1      1060 9.71583E-02
 -1      1061 1.87763E+00
 -1      1062 2.08977E-01
 -1      1063 9.96594E-02
 -1      1064 9.70480E-02
 -1      1065 1.02515E-01
 -1      1066 1.08254E-01
 -1      1067 1.18012E-01
 -1      1068 1.47851E-01
 -1      1069 2.14760E-01
 -1      1070 3.15214E-01
 -1      1071 4.59990E-01
 -1      1072 6.57426E-01
 -1      1073 9.04054E-01
 -1      1074 1.25642E+00
 -1      1075 2.29712E+00
 -1      1076 3.15214E-01
 -1      1077 6.35606E-01
 -1      1078 9.58188E-02
 -1      1079 8.59493E-01
 -1      1080 4.59990E-01
 -1      1081 1.29606E+00
 -1      1082 1.72703E+00
 -1      1083 7.43653E-01
 -1      1084 4.73378E-01
 -1      1085 6.57426E-01
 -1      1086 9.96594E-02
 -1      1087 2.74295E+00
 -1      1088 1.24478E-01
 -1      1089 9.41526E-01
 -1      1090 8.73527E-02
 -1      1091 2.05777E+00
 -1      1092 9.25455E-01
 -1      1093 1.84105E+00
 -1      1094 1.25642E+00
 -1      1095 9.30806E-02
 -1      1096 7.43653E-01
 -1      1097 1.18012E-01
 -1      1098 1.97275E+00
 -1      1099 1.08254E-01
 -1      1100 2.14760E-01
 -1      1101 3.62419E-01
 -1      1102 1.29606E+00
 -1      1103 3.62419E-01
 -1      1104 1.53817E-01
 -1      1105 8.31100E-02
 -1      1106 9.30806E-02
 -1      1107 9.70480E-02
 -1      1108 1.02515E-01
 -1      1109 1.29606E+00
 -1      1110 8.87066E-01
 -1      1111 9.96594E-02
 -1      1112 1.31275E+00
 -1      1113 1.33804E+01
 -1      1114 8.51742E+00
 -1      1115 2.73851E+00
 -1      1116 1.55571E+00
 -1      1117 1.16561E+00
 -1      1118 9.70601E-01
 -1      1119 8.53337E-01
 -1      1120 7.80659E-01
 -1      1121 7.54334E-01
 -1      1122 7.83542E-01
 -1      1123 8.55576E-01
 -1      1124 9.75180E-01
 -1      1125 1.17772E+00
 -1      1126 1.56607E+00
 -1      1127 2.66648E+00
 -1      1128 6.07339E+00
 -1      1129 1.13416E+01
 -1      1130 1.33804E+01
 -1      1131 8.82243E+00
 -1      1132 3.83618E+00
 -1      1133 2.78585E+00
 -1      1134 1.78151E+00
 -1      1135 1.21865E+00
 -1      1136 9.18268E-01
 -1      1137 7.09374E-01
 -1      1138 5.51833E-01
 -1      1139 4.30784E-01
 -1      1140 3.38804E-01
 -1      1141 2.70680E-01
 -1      1142 2.22696E-01
 -1      1143 1.92937E-01
 -1      1144 2.01257E-01
 -1      1145 2.52410E-01
 -1      1146 3.35524E-01
 -1      1147 4.62611E-01
 -1      1148 6.48814E-01
 -1      1149 9.09733E-01
 -1      1150 1.25363E+00
 -1      1151 1.70377E+00
 -1      1152 2.37958E+00
 -1      1153 3.28450E+00
 -1      1154 4.38176E+00
 -1      1155 5.17202E+00
 -1      1156 5.35135E+00
 -1      1157 5.27946E+00
 -1      1158 8.74639E+00
 -1      1159 1.36938E+01
 -1      1160 1.51024E+01
 -1      1161 1.45614E+01
 -1      1162 1.11557E+01
 -1      1163 6.24832E+00
 -1      1164 4.53270E+00
 -1      1165 4.85988E+00
 -1      1166 4.50846E+00
 -1      1167 3.65937E+00
 -1      1168 2.75078E+00
 -1      1169 2.01554E+00
 -1      1170 1.47821E+00
 -1      1171 1.08797E+00
 -1      1172 7.75999E-01
 -1      1173 5.43960E-01
 -1      1174 3.78318E-01
 -1      1175 2.62383E-01
 -1      1176 1.81208E-01
 -1      1177 1.29000E-01
 -1      1178 9.71919E-02
 -1      1179 6.56007E-02
 -1      1180 3.09859E-02
 -1      1181 1.40417E+01
 -1      1182 8.72077E+00
 -1      1183 2.91117E+00
 -1      1184 2.04782E+00
 -1      1185 1.41365E+00
 -1      1186 1.03512E+00
 -1      1187 8.30187E-01
 -1      1188 6.74426E-01
 -1      1189 5.47129E-01
 -1      1190 4.42697E-01
 -1      1191 3.58114E-01
 -1      1192 2.92037E-01
 -1      1193 2.40167E-01
 -1      1194 1.97609E-01
 -1      1195 1.62180E-01
 -1      1196 1.39974E-01
 -1      1197 1.31993E-01
 -1      1198 1.26186E-01
 -1      1199 1.36566E-01
 -1      1200 1.73587E-01
 -1      1201 2.47746E-01
 -1      1202 3.47133E-01
 -1      1203 4.54691E-01
 -1      1204 6.09106E-01
 -1      1205 7.83541E-01
 -1      1206 9.04845E-01
 -1      1207 1.16834E+00
 -1      1208 1.58681E+00
 -1      1209 1.89767E+00
 -1      1210 2.06615E+00
 -1      1211 2.20778E+00
 -1      1212 2.29501E+00
 -1      1213 2.23324E+00
 -1      1214 1.99589E+00
 -1      1215 1.60194E+00
 -1      1216 1.18304E+00
 -1      1217 8.00759E-01
 -1      1218 5.18070E-01
 -1      1219 3.33990E-01
 -1      1220 2.14525E-01
 -1      1221 1.69510E-01
 -1      1222 1.60821E-01
 -1      1223 1.52997E-01
 -1      1224 1.31217E-01
 -1      1225 1.02813E-01
 -1      1226 8.27727E-02
 -1      1227 6.98715E-02
 -1      1228 5.22958E-02
 -1      1229 3.50642E-02
 -1      1230 1.81040E-02
 -1      1231 1.01625E-02
 -1      1232 1.22175E-02
 -1      1233 1.19426E-02
 -1      1234 9.53514E-03
 -1      1235 5.22373E-03
 -1      1236 5.42842E-03
 -1      1237 9.87356E-03
 -1      1238 1.33371E-02
 -1      1239 1.51771E-02
 -1      1240 1.56153E-02
 -1      1241 1.46995E-02
 -1      1242 1.14652E-02
 -1      1243 9.01373E-03
 -1      1244 1.26145E-02
 -1      1245 1.63482E-02
 -1      1246 1.50556E-02
 -1      1247 1.42682E-02
 -1      1248 2.38551E+01
 -1      1249 3.30257E+01
 -1      1250 4.22662E+01
 -1      1251 2.91902E+01
 -1      1252 1.41150E+01
 -1      1253 1.27258E+01
 -1      1254 1.33357E+01
 -1      1255 1.32217E+01
 -1      1256 1.27743E+01
 -1      1257 1.26980E+01
 -1      1258 2.21371E+01
 -1      1259 3.17412E+01
 -1      1260 3.01265E+01
 -1      1261 2.60786E+01
 -1      1262 2.44333E+01
 -1      1263 2.48531E+01
 -1      1264 3.54851E+01
 -1      1265 4.60632E+01
 -1      1266 3.21642E+01
 -1      1267 1.57529E+01
 -1      1268 1.34335E+01
 -1      1269 1.36263E+01
 -1      1270 1.35055E+01
 -1      1271 1.35738E+01
 -1      1272 2.15617E+01
 -1      1273 2.93604E+01
 -1      1274 2.79731E+01
 -1      1275 2.60875E+01
 -1      1276 2.47570E+01
 -1      1277 1.33804E+01
 -1      1278 4.92331E+00
 -1      1279 9.78631E+00
 -1      1280 2.05970E+00
 -1      1281 2.97561E+00
 -1      1282 4.24450E+00
 -1      1283 1.39628E+00
 -1      1284 1.66318E+00
 -1      1285 1.90027E+00
 -1      1286 1.09962E+00
 -1      1287 1.22282E+00
 -1      1288 1.33029E+00
 -1      1289 9.34904E-01
 -1      1290 1.00671E+00
 -1      1291 1.06392E+00
 -1      1292 8.35731E-01
 -1      1293 8.81193E-01
 -1      1294 9.17298E-01
 -1      1295 7.74428E-01
 -1      1296 8.01643E-01
 -1      1297 8.29499E-01
 -1      1298 7.55224E-01
 -1      1299 7.54334E-01
 -1      1300 7.75318E-01
 -1      1301 8.05212E-01
 -1      1302 7.76894E-01
 -1      1303 7.76894E-01
 -1      1304 8.82669E-01
 -1      1305 8.38954E-01
 -1      1306 8.32306E-01
 -1      1307 1.01535E+00
 -1      1308 9.39457E-01
 -1      1309 9.22836E-01
 -1      1310 1.23715E+00
 -1      1311 1.11050E+00
 -1      1312 1.07478E+00
 -1      1313 1.67647E+00
 -1      1314 1.41477E+00
 -1      1315 1.34755E+00
 -1      1316 2.88107E+00
 -1      1317 2.04235E+00
 -1      1318 1.89106E+00
 -1      1319 6.28628E+00
 -1      1320 3.71808E+00
 -1      1321 3.09395E+00
 -1      1322 1.40417E+01
 -1      1323 1.13416E+01
 -1      1324 8.98632E+00
 -1      1325 1.40417E+01
 -1      1326 8.82243E+00
 -1      1327 4.26443E+00
 -1      1328 3.83618E+00
 -1      1329 3.40794E+00
 -1      1330 3.83618E+00
 -1      1331 2.78585E+00
 -1      1332 2.16377E+00
 -1      1333 2.78585E+00
 -1      1334 1.81976E+00
 -1      1335 1.43750E+00
 -1      1336 1.81976E+00
 -1      1337 1.22456E+00
 -1      1338 1.04396E+00
 -1      1339 1.26282E+00
 -1      1340 9.18268E-01
 -1      1341 7.98486E-01
 -1      1342 9.24182E-01
 -1      1343 7.09374E-01
 -1      1344 6.20262E-01
 -1      1345 7.09374E-01
 -1      1346 5.55087E-01
 -1      1347 4.86658E-01
 -1      1348 5.55087E-01
 -1      1349 4.38188E-01
 -1      1350 3.85568E-01
 -1      1351 4.41442E-01
 -1      1352 3.46568E-01
 -1      1353 3.07207E-01
 -1      1354 3.53971E-01
 -1      1355 2.76633E-01
 -1      1356 2.47870E-01
 -1      1357 2.84397E-01
 -1      1358 2.24705E-01
 -1      1359 2.05485E-01
 -1      1360 2.30658E-01
 -1      1361 1.92937E-01
 -1      1362 1.82397E-01
 -1      1363 1.94945E-01
 -1      1364 1.82306E-01
 -1      1365 2.01166E-01
 -1      1366 1.82306E-01
 -1      1367 2.23158E-01
 -1      1368 2.55451E-01
 -1      1369 2.04207E-01
 -1      1370 2.91364E-01
 -1      1371 3.42185E-01
 -1      1372 2.62112E-01
 -1      1373 3.95315E-01
 -1      1374 4.71581E-01
 -1      1375 3.51155E-01
 -1      1376 5.83729E-01
 -1      1377 6.93666E-01
 -1      1378 5.16433E-01
 -1      1379 8.61463E-01
 -1      1380 1.01245E+00
 -1      1381 7.96379E-01
 -1      1382 1.25134E+00
 -1      1383 1.44426E+00
 -1      1384 1.20307E+00
 -1      1385 1.76482E+00
 -1      1386 2.02204E+00
 -1      1387 1.76253E+00
 -1      1388 2.41033E+00
 -1      1389 2.82891E+00
 -1      1390 2.47137E+00
 -1      1391 3.21856E+00
 -1      1392 3.70489E+00
 -1      1393 3.24931E+00
 -1      1394 3.97207E+00
 -1      1395 4.58299E+00
 -1      1396 3.90612E+00
 -1      1397 4.99268E+00
 -1      1398 5.17202E+00
 -1      1399 4.58299E+00
 -1      1400 5.35135E+00
 -1      1401 5.35135E+00
 -1      1402 5.17202E+00
 -1      1403 5.50082E+00
 -1      1404 5.42893E+00
 -1      1405 5.50082E+00
 -1      1406 5.58870E+00
 -1      1407 9.12753E+00
 -1      1408 5.81006E+00
 -1      1409 1.22852E+01
 -1      1410 1.36938E+01
 -1      1411 9.12753E+00
 -1      1412 1.51024E+01
 -1      1413 1.51024E+01
 -1      1414 1.36938E+01
 -1      1415 1.11557E+01
 -1      1416 8.29112E+00
 -1      1417 6.35956E+00
 -1      1418 4.31676E+00
 -1      1419 6.35956E+00
 -1      1420 4.46940E+00
 -1      1421 4.79658E+00
 -1      1422 4.58064E+00
 -1      1423 4.85988E+00
 -1      1424 4.85988E+00
 -1      1425 4.79658E+00
 -1      1426 4.52518E+00
 -1      1427 4.17376E+00
 -1      1428 4.52518E+00
 -1      1429 3.89637E+00
 -1      1430 3.39871E+00
 -1      1431 3.91309E+00
 -1      1432 3.08366E+00
 -1      1433 2.67273E+00
 -1      1434 3.32066E+00
 -1      1435 2.30192E+00
 -1      1436 1.97760E+00
 -1      1437 2.63479E+00
 -1      1438 1.64611E+00
 -1      1439 1.43310E+00
 -1      1440 1.93249E+00
 -1      1441 1.17472E+00
 -1      1442 9.97491E-01
 -1      1443 1.34261E+00
 -1      1444 8.11444E-01
 -1      1445 6.76700E-01
 -1      1446 8.98192E-01
 -1      1447 5.56448E-01
 -1      1448 4.59153E-01
 -1      1449 5.91893E-01
 -1      1450 3.89813E-01
 -1      1451 3.21466E-01
 -1      1452 4.02300E-01
 -1      1453 2.72122E-01
 -1      1454 2.24534E-01
 -1      1455 2.83617E-01
 -1      1456 1.89469E-01
 -1      1457 1.55881E-01
 -1      1458 1.99208E-01
 -1      1459 1.30478E-01
 -1      1460 1.11859E-01
 -1      1461 1.38739E-01
 -1      1462 9.71919E-02
 -1      1463 8.40030E-02
 -1      1464 9.86698E-02
 -1      1465 6.65168E-02
 -1      1466 4.81145E-02
 -1      1467 6.65168E-02
 -1      1468 3.49450E-02
 -1      1469 1.87326E-02
 -1      1470 1.82273E-02
 -1      1471 3.58612E-02
 -1      1472 3.39986E+00
 -1      1473 8.72077E+00
 -1      1474 8.72077E+00
 -1      1475 2.42248E+00
 -1      1476 2.91117E+00
 -1      1477 2.91117E+00
 -1      1478 1.67316E+00
 -1      1479 2.04782E+00
 -1      1480 2.04782E+00
 -1      1481 1.15415E+00
 -1      1482 1.41365E+00
 -1      1483 1.41365E+00
 -1      1484 9.16085E-01
 -1      1485 1.03512E+00
 -1      1486 1.03512E+00
 -1      1487 7.44289E-01
 -1      1488 8.30187E-01
 -1      1489 8.30187E-01
 -1      1490 6.04563E-01
 -1      1491 6.74426E-01
 -1      1492 6.74426E-01
 -1      1493 4.89694E-01
 -1      1494 5.47129E-01
 -1      1495 5.47129E-01
 -1      1496 3.95700E-01
 -1      1497 4.42697E-01
 -1      1498 4.42697E-01
 -1      1499 3.20528E-01
 -1      1500 3.58114E-01
 -1      1501 3.58114E-01
 -1      1502 2.63545E-01
 -1      1503 2.92037E-01
 -1      1504 2.92037E-01
 -1      1505 2.16789E-01
 -1      1506 2.40167E-01
 -1      1507 2.40167E-01
 -1      1508 1.78429E-01
 -1      1509 1.97609E-01
 -1      1510 1.97609E-01
 -1      1511 1.45931E-01
 -1      1512 1.62180E-01
 -1      1513 1.62180E-01
 -1      1514 1.34017E-01
 -1      1515 1.39974E-01
 -1      1516 1.39974E-01
 -1      1517 1.29970E-01
 -1      1518 1.31993E-01
 -1      1519 1.31993E-01
 -1      1520 1.22402E-01
 -1      1521 1.26186E-01
 -1      1522 1.26186E-01
 -1      1523 1.34089E-01
 -1      1524 1.19925E-01
 -1      1525 1.19925E-01
 -1      1526 1.73587E-01
 -1      1527 1.50730E-01
 -1      1528 1.34089E-01
 -1      1529 2.47746E-01
 -1      1530 1.96445E-01
 -1      1531 1.73587E-01
 -1      1532 3.47133E-01
 -1      1533 2.99047E-01
 -1      1534 2.47746E-01
 -1      1535 4.63832E-01
 -1      1536 4.04360E-01
 -1      1537 3.56274E-01
 -1      1538 6.83099E-01
 -1      1539 5.88157E-01
 -1      1540 5.37826E-01
 -1      1541 9.03032E-01
 -1      1542 8.23539E-01
 -1      1543 8.02590E-01
 -1      1544 1.09188E+00
 -1      1545 1.05007E+00
 -1      1546 1.09007E+00
 -1      1547 1.47348E+00
 -1      1548 1.25180E+00
 -1      1549 1.39703E+00
 -1      1550 1.77872E+00
 -1      1551 1.58193E+00
 -1      1552 1.66539E+00
 -1      1553 1.92360E+00
 -1      1554 1.80953E+00
 -1      1555 1.80465E+00
 -1      1556 2.06615E+00
 -1      1557 2.01175E+00
 -1      1558 1.92360E+00
 -1      1559 2.20778E+00
 -1      1560 2.12056E+00
 -1      1561 2.06615E+00
 -1      1562 2.29501E+00
 -1      1563 2.29501E+00
 -1      1564 2.20778E+00
 -1      1565 2.17147E+00
 -1      1566 2.23324E+00
 -1      1567 2.23324E+00
 -1      1568 1.82031E+00
 -1      1569 1.99589E+00
 -1      1570 1.99589E+00
 -1      1571 1.38357E+00
 -1      1572 1.60194E+00
 -1      1573 1.60194E+00
 -1      1574 9.94492E-01
 -1      1575 1.19502E+00
 -1      1576 1.19502E+00
 -1      1577 6.50832E-01
 -1      1578 8.32581E-01
 -1      1579 8.44565E-01
 -1      1580 4.17129E-01
 -1      1581 5.18070E-01
 -1      1582 5.49891E-01
 -1      1583 2.50851E-01
 -1      1584 3.33990E-01
 -1      1585 3.33990E-01
 -1      1586 1.78199E-01
 -1      1587 2.14525E-01
 -1      1588 2.14525E-01
 -1      1589 1.56518E-01
 -1      1590 1.65207E-01
 -1      1591 1.65207E-01
 -1      1592 1.60821E-01
 -1      1593 1.60821E-01
 -1      1594 1.56518E-01
 -1      1595 1.45174E-01
 -1      1596 1.52997E-01
 -1      1597 1.52997E-01
 -1      1598 1.17260E-01
 -1      1599 1.31217E-01
 -1      1600 1.31217E-01
 -1      1601 8.83661E-02
 -1      1602 1.02813E-01
 -1      1603 1.02813E-01
 -1      1604 7.71792E-02
 -1      1605 8.27727E-02
 -1      1606 8.27727E-02
 -1      1607 6.25638E-02
 -1      1608 6.98715E-02
 -1      1609 6.98715E-02
 -1      1610 4.20279E-02
 -1      1611 5.22958E-02
 -1      1612 5.22958E-02
 -1      1613 2.81006E-02
 -1      1614 3.50642E-02
 -1      1615 3.50642E-02
 -1      1616 2.01590E-02
 -1      1617 1.68893E-02
 -1      1618 1.68893E-02
 -1      1619 1.66144E-02
 -1      1620 1.68893E-02
 -1      1621 2.15610E-02
 -1      1622 1.30015E-02
 -1      1623 1.51341E-02
 -1      1624 2.00807E-02
 -1      1625 6.96786E-03
 -1      1626 9.14666E-03
 -1      1627 1.47456E-02
 -1      1628 1.03461E-02
 -1      1629 7.96257E-03
 -1      1630 1.18855E-02
 -1      1631 1.65249E-02
 -1      1632 1.44633E-02
 -1      1633 1.69974E-02
 -1      1634 2.10741E-02
 -1      1635 1.96723E-02
 -1      1636 2.42620E-02
 -1      1637 2.29046E-02
 -1      1638 2.24665E-02
 -1      1639 2.88017E-02
 -1      1640 2.29796E-02
 -1      1641 2.29796E-02
 -1      1642 3.02689E-02
 -1      1643 2.20638E-02
 -1      1644 2.29796E-02
 -1      1645 3.03438E-02
 -1      1646 1.80950E-02
 -1      1647 2.04135E-02
 -1      1648 2.86935E-02
 -1      1649 1.35305E-02
 -1      1650 1.36634E-02
 -1      1651 2.26117E-02
 -1      1652 2.11860E-02
 -1      1653 1.74523E-02
 -1      1654 2.21020E-02
 -1      1655 2.39029E-02
 -1      1656 2.39029E-02
 -1      1657 2.87407E-02
 -1      1658 2.42118E-02
 -1      1659 2.55045E-02
 -1      1660 3.30592E-02
 -1      1661 2.86762E-02
 -1      1662 2.57485E+01
 -1      1663 2.58182E+01
 -1      1664 4.03718E+01
 -1      1665 3.11314E+01
 -1      1666 4.22662E+01
 -1      1667 4.22662E+01
 -1      1668 1.61142E+01
 -1      1669 2.91902E+01
 -1      1670 1.16114E+01
 -1      1671 1.36105E+01
 -1      1672 1.27258E+01
 -1      1673 1.21159E+01
 -1      1674 1.33357E+01
 -1      1675 1.33357E+01
 -1      1676 1.31076E+01
 -1      1677 1.32217E+01
 -1      1678 1.24410E+01
 -1      1679 1.27743E+01
 -1      1680 1.20557E+01
 -1      1681 1.17987E+01
 -1      1682 2.21371E+01
 -1      1683 1.29550E+01
 -1      1684 3.21631E+01
 -1      1685 3.17412E+01
 -1      1686 3.01265E+01
 -1      1687 3.21631E+01
 -1      1688 2.45556E+01
 -1      1689 2.65669E+01
 -1      1690 2.79862E+01
 -1      1691 2.76202E+01
 -1      1692 2.80401E+01
 -1      1693 2.79862E+01
 -1      1694 4.25444E+01
 -1      1695 3.19663E+01
 -1      1696 4.60632E+01
 -1      1697 4.60632E+01
 -1      1698 1.84490E+01
 -1      1699 3.23480E+01
 -1      1700 1.23817E+01
 -1      1701 1.48939E+01
 -1      1702 1.34335E+01
 -1      1703 1.32407E+01
 -1      1704 1.36263E+01
 -1      1705 1.36263E+01
 -1      1706 1.33847E+01
 -1      1707 1.35055E+01
 -1      1708 1.33838E+01
 -1      1709 1.31947E+01
 -1      1710 2.15617E+01
 -1      1711 1.37629E+01
 -1      1712 2.93604E+01
 -1      1713 2.93604E+01
 -1      1714 2.76543E+01
 -1      1715 2.90416E+01
 -1      1716 2.60712E+01
 -1      1717 2.65695E+01
 -1      1718 2.58182E+01
 -1      1719 2.66505E+01
 -1      1720 1.40203E+01
 -1      1721 1.11557E+01
 -1      1722 1.45614E+01
 -1      1723 2.91902E+01
 -1      1724 2.77117E+01
 -1      1725 2.01590E-02
 -1      1726 2.48308E-02
 -1      1727 3.30945E+01
 -1      1728 4.03718E+01
 -1      1729 1.36105E+01
 -1      1730 1.16114E+01
 -1      1731 1.27258E+01
 -1      1732 1.32217E+01
 -1      1733 1.27743E+01
 -1      1734 1.17987E+01
 -1      1735 1.20557E+01
 -1      1736 2.25590E+01
 -1      1737 3.21631E+01
 -1      1738 2.86035E+01
 -1      1739 2.81086E+01
 -1      1740 3.11732E+01
 -1      1741 3.50994E+01
 -1      1742 4.25444E+01
 -1      1743 3.23480E+01
 -1      1744 1.50778E+01
 -1      1745 1.23817E+01
 -1      1746 1.34335E+01
 -1      1747 1.35055E+01
 -1      1748 1.31947E+01
 -1      1749 1.33838E+01
 -1      1750 2.15617E+01
 -1      1751 2.90416E+01
 -1      1752 2.76380E+01
 -1      1753 2.71324E+01
 -1      1754 9.78631E+00
 -1      1755 1.45614E+01
 -1      1756 1.28626E+00
 -1      1757 1.68279E+00
 -1      1758 2.41661E+00
 -1      1759 4.36432E+00
 -1      1760 1.80261E+00
 -1      1761 8.79379E-01
 -1      1762 9.72292E-01
 -1      1763 7.78830E-01
 -1      1764 8.32541E-01
 -1      1765 7.40912E-01
 -1      1766 7.13224E-01
 -1      1767 7.47311E-01
 -1      1768 6.62555E-01
 -1      1769 6.71062E-01
 -1      1770 6.91156E-01
 -1      1771 6.08968E-01
 -1      1772 6.94228E-01
 -1      1773 6.72558E-01
 -1      1774 5.88396E-01
 -1      1775 7.49724E-01
 -1      1776 7.15981E-01
 -1      1777 6.11646E-01
 -1      1778 8.39761E-01
 -1      1779 7.82973E-01
 -1      1780 6.66649E-01
 -1      1781 9.82430E-01
 -1      1782 8.87277E-01
 -1      1783 7.47414E-01
 -1      1784 1.22703E+00
 -1      1785 1.04940E+00
 -1      1786 8.61903E-01
 -1      1787 1.69918E+00
 -1      1788 1.33330E+00
 -1      1789 1.03515E+00
 -1      1790 2.62852E+00
 -1      1791 1.79150E+00
 -1      1792 1.23375E+00
 -1      1793 8.11956E+00
 -1      1794 3.06421E+00
 -1      1795 1.76176E+00
 -1      1796 2.79866E+00
 -1      1797 5.22832E+00
 -1      1798 2.16800E+00
 -1      1799 2.65669E+00
 -1      1800 2.05549E+00
 -1      1801 1.40766E+01
 -1      1802 1.35356E+01
 -1      1803 2.57575E+00
 -1      1804 1.95367E+00
 -1      1805 1.72758E+00
 -1      1806 1.38357E+00
 -1      1807 1.51748E+00
 -1      1808 1.20159E+00
 -1      1809 9.88648E-01
 -1      1810 1.10940E+00
 -1      1811 8.61417E-01
 -1      1812 7.35721E-01
 -1      1813 8.00187E-01
 -1      1814 6.76827E-01
 -1      1815 5.87715E-01
 -1      1816 6.14061E-01
 -1      1817 5.40305E-01
 -1      1818 4.75130E-01
 -1      1819 5.07758E-01
 -1      1820 4.33755E-01
 -1      1821 3.85285E-01
 -1      1822 4.18973E-01
 -1      1823 3.50366E-01
 -1      1824 3.11365E-01
 -1      1825 3.42679E-01
 -1      1826 2.83599E-01
 -1      1827 2.53025E-01
 -1      1828 2.79994E-01
 -1      1829 2.29559E-01
 -1      1830 2.06395E-01
 -1      1831 2.28762E-01
 -1      1832 1.89078E-01
 -1      1833 1.76530E-01
 -1      1834 1.87979E-01
 -1      1835 1.66783E-01
 -1      1836 1.66692E-01
 -1      1837 1.60916E-01
 -1      1838 1.80905E-01
 -1      1839 2.02897E-01
 -1      1840 1.65381E-01
 -1      1841 2.26200E-01
 -1      1842 2.62112E-01
 -1      1843 2.02897E-01
 -1      1844 3.25433E-01
 -1      1845 3.78564E-01
 -1      1846 2.89521E-01
 -1      1847 4.74627E-01
 -1      1848 5.86775E-01
 -1      1849 4.48905E-01
 -1      1850 7.24908E-01
 -1      1851 8.92706E-01
 -1      1852 6.83102E-01
 -1      1853 1.08952E+00
 -1      1854 1.32842E+00
 -1      1855 1.01805E+00
 -1      1856 1.60203E+00
 -1      1857 1.92259E+00
 -1      1858 1.48847E+00
 -1      1859 2.28654E+00
 -1      1860 2.67483E+00
 -1      1861 2.12604E+00
 -1      1862 3.12546E+00
 -1      1863 3.51510E+00
 -1      1864 2.94063E+00
 -1      1865 4.01211E+00
 -1      1866 4.27928E+00
 -1      1867 3.88827E+00
 -1      1868 4.75396E+00
 -1      1869 5.16365E+00
 -1      1870 4.85995E+00
 -1      1871 5.66338E+00
 -1      1872 5.84272E+00
 -1      1873 5.83436E+00
 -1      1874 7.32445E+00
 -1      1875 7.47391E+00
 -1      1876 7.81581E+00
 -1      1877 7.19238E+00
 -1      1878 7.35215E+00
 -1      1879 9.01600E+00
 -1      1880 1.20522E+01
 -1      1881 1.34608E+01
 -1      1882 1.49384E+01
 -1      1883 2.80144E+01
 -1      1884 3.40043E+00
 -1      1885 6.18981E+00
 -1      1886 6.34245E+00
 -1      1887 5.41829E+00
 -1      1888 5.48159E+00
 -1      1889 7.02746E+00
 -1      1890 4.79172E+00
 -1      1891 4.45702E+00
 -1      1892 5.41343E+00
 -1      1893 4.22728E+00
 -1      1894 3.94989E+00
 -1      1895 4.49382E+00
 -1      1896 3.58136E+00
 -1      1897 3.26631E+00
 -1      1898 3.89554E+00
 -1      1899 2.85520E+00
 -1      1900 2.48438E+00
 -1      1901 3.11590E+00
 -1      1902 2.11394E+00
 -1      1903 1.78245E+00
 -1      1904 2.33434E+00
 -1      1905 1.48734E+00
 -1      1906 1.22897E+00
 -1      1907 1.66880E+00
 -1      1908 1.01047E+00
 -1      1909 8.24428E-01
 -1      1910 1.15520E+00
 -1      1911 6.69559E-01
 -1      1912 5.49306E-01
 -1      1913 7.81841E-01
 -1      1914 4.42345E-01
 -1      1915 3.73005E-01
 -1      1916 5.20011E-01
 -1      1917 3.00243E-01
 -1      1918 2.50899E-01
 -1      1919 3.40288E-01
 -1      1920 2.01888E-01
 -1      1921 1.66822E-01
 -1      1922 2.18514E-01
 -1      1923 1.38739E-01
 -1      1924 1.13337E-01
 -1      1925 1.41419E-01
 -1      1926 9.60388E-02
 -1      1927 8.13720E-02
 -1      1928 9.60388E-02
 -1      1929 6.90932E-02
 -1      1930 5.16070E-02
 -1      1931 6.64623E-02
 -1      1932 4.18457E-02
 -1      1933 1.14678E+00
 -1      1934 1.40629E+00
 -1      1935 8.68104E-01
 -1      1936 9.87134E-01
 -1      1937 9.79771E-01
 -1      1938 6.92232E-01
 -1      1939 7.78130E-01
 -1      1940 7.30149E-01
 -1      1941 5.66154E-01
 -1      1942 6.36016E-01
 -1      1943 5.83960E-01
 -1      1944 4.59750E-01
 -1      1945 5.17184E-01
 -1      1946 4.78775E-01
 -1      1947 3.70839E-01
 -1      1948 4.17837E-01
 -1      1949 3.87892E-01
 -1      1950 3.00311E-01
 -1      1951 3.37896E-01
 -1      1952 3.13036E-01
 -1      1953 2.43486E-01
 -1      1954 2.71978E-01
 -1      1955 2.51760E-01
 -1      1956 1.95781E-01
 -1      1957 2.19159E-01
 -1      1958 1.99100E-01
 -1      1959 1.55727E-01
 -1      1960 1.74907E-01
 -1      1961 1.53899E-01
 -1      1962 1.31963E-01
 -1      1963 1.48212E-01
 -1      1964 1.25510E-01
 -1      1965 1.24106E-01
 -1      1966 1.30063E-01
 -1      1967 1.16095E-01
 -1      1968 1.20013E-01
 -1      1969 1.22036E-01
 -1      1970 1.12126E-01
 -1      1971 1.12754E-01
 -1      1972 1.16538E-01
 -1      1973 1.06581E-01
 -1      1974 1.16551E-01
 -1      1975 1.19029E-01
 -1      1976 1.09380E-01
 -1      1977 1.32847E-01
 -1      1978 1.16206E-01
 -1      1979 1.15310E-01
 -1      1980 1.49371E-01
 -1      1981 1.26513E-01
 -1      1982 1.08631E-01
 -1      1983 2.43677E-01
 -1      1984 1.92375E-01
 -1      1985 1.45301E-01
 -1      1986 3.78258E-01
 -1      1987 3.21031E-01
 -1      1988 2.65661E-01
 -1      1989 5.98220E-01
 -1      1990 4.73896E-01
 -1      1991 4.38652E-01
 -1      1992 8.45612E-01
 -1      1993 7.05172E-01
 -1      1994 6.41241E-01
 -1      1995 1.12553E+00
 -1      1996 9.78496E-01
 -1      1997 8.81078E-01
 -1      1998 1.41356E+00
 -1      1999 1.25364E+00
 -1      2000 1.14207E+00
 -1      2001 1.66539E+00
 -1      2002 1.55695E+00
 -1      2003 1.41356E+00
 -1      2004 1.80465E+00
 -1      2005 1.77384E+00
 -1      2006 1.66539E+00
 -1      2007 1.92360E+00
 -1      2008 1.83546E+00
 -1      2009 1.80465E+00
 -1      2010 1.94617E+00
 -1      2011 1.89177E+00
 -1      2012 1.80362E+00
 -1      2013 2.06286E+00
 -1      2014 1.97563E+00
 -1      2015 1.80124E+00
 -1      2016 1.94689E+00
 -1      2017 2.00866E+00
 -1      2018 1.77650E+00
 -1      2019 1.64555E+00
 -1      2020 1.82113E+00
 -1      2021 1.59655E+00
 -1      2022 1.28930E+00
 -1      2023 1.50767E+00
 -1      2024 1.33291E+00
 -1      2025 9.66007E-01
 -1      2026 1.15455E+00
 -1      2027 1.06028E+00
 -1      2028 6.82084E-01
 -1      2029 8.43996E-01
 -1      2030 8.03526E-01
 -1      2031 4.45082E-01
 -1      2032 5.77845E-01
 -1      2033 5.77275E-01
 -1      2034 2.71663E-01
 -1      2035 3.54802E-01
 -1      2036 3.82756E-01
 -1      2037 1.64381E-01
 -1      2038 2.00706E-01
 -1      2039 2.21519E-01
 -1      2040 1.23933E-01
 -1      2041 1.36925E-01
 -1      2042 1.23106E-01
 -1      2043 1.32618E-01
 -1      2044 1.28315E-01
 -1      2045 1.00033E-01
 -1      2046 1.21926E-01
 -1      2047 1.29750E-01
 -1      2048 1.01547E-01
 -1      2049 9.91128E-02
 -1      2050 1.13070E-01
 -1      2051 8.98220E-02
 -1      2052 7.95129E-02
 -1      2053 9.39597E-02
 -1      2054 7.58127E-02
 -1      2055 7.16284E-02
 -1      2056 7.72219E-02
 -1      2057 6.83687E-02
 -1      2058 5.92573E-02
 -1      2059 6.65650E-02
 -1      2060 6.10143E-02
 -1      2061 4.17991E-02
 -1      2062 5.20671E-02
 -1      2063 4.87606E-02
 -1      2064 2.96728E-02
 -1      2065 3.66364E-02
 -1      2066 3.64077E-02
 -1      2067 2.64030E-02
 -1      2068 1.61815E-02
 -1      2069 2.00364E-02
 -1      2070 2.93838E-02
 -1      2071 3.08641E-02
 -1      2072 3.08197E-02
 -1      2073 2.64030E-02
 -1      2074 1.44543E-02
 -1      2075 1.34596E-02
 -1      2076 1.87503E-02
 -1      2077 2.36554E-02
 -1      2078 1.95382E-02
 -1      2079 2.11123E-02
 -1      2080 3.18733E-02
 -1      2081 2.87259E-02
 -1      2082 3.12667E-02
 -1      2083 3.63708E-02
 -1      2084 3.49785E-02
 -1      2085 3.94424E-02
 -1      2086 3.68096E-02
 -1      2087 3.67347E-02
 -1      2088 4.29115E-02
 -1      2089 3.80203E-02
 -1      2090 3.80203E-02
 -1      2091 4.44861E-02
 -1      2092 3.63700E-02
 -1      2093 3.80203E-02
 -1      2094 4.56968E-02
 -1      2095 2.92241E-02
 -1      2096 3.36556E-02
 -1      2097 4.29824E-02
 -1      2098 2.84760E-02
 -1      2099 2.45542E-02
 -1      2100 3.55980E-02
 -1      2101 4.00927E-02
 -1      2102 3.73758E-02
 -1      2103 3.98280E-02
 -1      2104 1.51778E+00
 -1      2105 1.89244E+00
 -1      2106 1.63796E+00
 -1      2107 1.25091E+00
 -1      2108 3.35300E+01
 -1      2109 3.16356E+01
 -1      2110 9.68670E+00
 -1      2111 1.21903E+01
 -1      2112 3.40916E+01
 -1      2113 3.40916E+01
 -1      2114 1.29922E+01
 -1      2115 1.01276E+01
 -1      2116 1.25075E+01
 -1      2117 1.03426E+00
 -1      2118 1.20771E+00
 -1      2119 9.90233E-01
 -1      2120 8.49716E-01
 -1      2121 7.19113E+00
 -1      2122 5.25957E+00
 -1      2123 7.02138E+00
 -1      2124 1.01992E+01
 -1      2125 9.69475E+00
 -1      2126 1.08955E+01
 -1      2127 1.02856E+01
 -1      2128 8.36897E+00
 -1      2129 1.13304E+01
 -1      2130 1.14445E+01
 -1      2131 1.11593E+01
 -1      2132 1.14927E+01
 -1      2133 9.91971E+00
 -1      2134 1.05620E+01
 -1      2135 1.01716E+01
 -1      2136 9.27234E+00
 -1      2137 2.19662E+01
 -1      2138 1.23622E+01
 -1      2139 2.63746E+01
 -1      2140 2.63746E+01
 -1      2141 2.55974E+01
 -1      2142 2.91570E+01
 -1      2143 3.30344E+01
 -1      2144 2.99698E+01
 -1      2145 3.30344E+01
 -1      2146 3.30344E+01
 -1      2147 3.19684E+01
 -1      2148 2.80422E+01
 -1      2149 3.70489E+01
 -1      2150 3.35301E+01
 -1      2151 1.74495E+01
 -1      2152 3.11647E+01
 -1      2153 1.00720E+01
 -1      2154 1.36271E+01
 -1      2155 1.11369E+01
 -1      2156 1.02778E+01
 -1      2157 1.27227E+01
 -1      2158 1.25300E+01
 -1      2159 1.32178E+01
 -1      2160 1.33386E+01
 -1      2161 1.24844E+01
 -1      2162 1.26744E+01
 -1      2163 1.03868E+01
 -1      2164 1.00077E+01
 -1      2165 2.07345E+01
 -1      2166 1.29358E+01
 -1      2167 2.45111E+01
 -1      2168 2.48300E+01
 -1      2169 2.55968E+01
 -1      2170 2.66817E+01
 -1      2171 3.40916E+01
 -1      2172 3.35124E+01
 -1      2173 3.23676E+01
 -1      2174 2.69847E+01
 -1      2175 2.55258E+01
 -1      2176 4.44221E-02
 -1      2177 2.97218E+00
 -1      2178 2.14000E+00
 -1      2179 2.77889E+01
 -1      2180 1.90527E+01
 -1      2181 1.35371E+01
 -1      2182 1.24350E+01
 -1      2183 8.67791E+00
 -1      2184 7.29560E+00
 -1      2185 8.27451E+00
 -1      2186 3.57061E-02
 -1      2187 3.33647E+01
 -1      2188 4.16943E-02
 -1      2189 4.00927E-02
 -1      2190 4.87278E-02
 -1      2191 5.14556E-02
 -1      2192 1.10146E+01
 -1      2193 4.04716E+01
 -1      2194 9.02765E+00
 -1      2195 3.25560E+01
 -1      2196 2.33756E+01
 -1      2197 1.91639E+01
 -1      2198 2.13344E+01
 -1      2199 1.62040E+01
 -1      2200 9.55962E+00
 -1      2201 1.04261E+01
 -1      2202 8.82720E+00
 -1      2203 1.24437E+01
 -1      2204 2.21503E+01
 -1      2205 2.64728E+01
 -1      2206 2.99034E+01
 -1      2207 3.48956E+01
 -1      2208 3.05233E+01
 -1      2209 2.33686E+01
 -1      2210 1.61778E+01
 -1      2211 9.57878E+00
 -1      2212 8.03556E+00
 -1      2213 9.28032E+00
 -1      2214 1.11421E+01
 -1      2215 8.70191E+00
 -1      2216 9.25082E+00
 -1      2217 9.71546E+00
 -1      2218 5.58341E-01
 -1      2219 5.89860E-01
 -1      2220 6.01934E-01
 -1      2221 6.48772E-01
 -1      2222 4.97721E-01
 -1      2223 5.10253E-01
 -1      2224 5.08757E-01
 -1      2225 5.44893E-01
 -1      2226 5.23140E-01
 -1      2227 4.43500E-01
 -1      2228 5.92901E-01
 -1      2229 5.59651E-01
 -1      2230 4.71144E-01
 -1      2231 6.52328E-01
 -1      2232 6.04812E-01
 -1      2233 4.97814E-01
 -1      2234 7.19301E-01
 -1      2235 6.52328E-01
 -1      2236 5.09725E-01
 -1      2237 8.21950E-01
 -1      2238 7.15673E-01
 -1      2239 5.06097E-01
 -1      2240 9.81789E-01
 -1      2241 8.89472E-01
 -1      2242 5.69992E-01
 -1      2243 1.75669E+00
 -1      2244 1.32099E+00
 -1      2245 9.76716E-01
 -1      2246 1.61472E+00
 -1      2247 1.28031E+00
 -1      2248 1.05423E+00
 -1      2249 6.43072E+00
 -1      2250 6.42267E+00
 -1      2251 1.00086E+00
 -1      2252 8.18875E-01
 -1      2253 7.63698E-01
 -1      2254 7.62740E-01
 -1      2255 6.35508E-01
 -1      2256 6.54196E-01
 -1      2257 5.78932E-01
 -1      2258 5.20038E-01
 -1      2259 5.41485E-01
 -1      2260 4.69816E-01
 -1      2261 4.22406E-01
 -1      2262 4.34686E-01
 -1      2263 3.97729E-01
 -1      2264 3.56354E-01
 -1      2265 3.59787E-01
 -1      2266 3.31742E-01
 -1      2267 2.96822E-01
 -1      2268 3.10497E-01
 -1      2269 2.73207E-01
 -1      2270 2.45441E-01
 -1      2271 2.62270E-01
 -1      2272 2.23756E-01
 -1      2273 2.00290E-01
 -1      2274 2.16970E-01
 -1      2275 1.80600E-01
 -1      2276 1.63283E-01
 -1      2277 1.75594E-01
 -1      2278 1.44962E-01
 -1      2279 1.35215E-01
 -1      2280 1.37582E-01
 -1      2281 1.37077E-01
 -1      2282 1.51290E-01
 -1      2283 1.21123E-01
 -1      2284 1.67311E-01
 -1      2285 1.90614E-01
 -1      2286 1.39007E-01
 -1      2287 2.40961E-01
 -1      2288 3.04282E-01
 -1      2289 2.05375E-01
 -1      2290 3.72494E-01
 -1      2291 4.68557E-01
 -1      2292 3.23934E-01
 -1      2293 5.62733E-01
 -1      2294 7.00866E-01
 -1      2295 4.86321E-01
 -1      2296 8.32410E-01
 -1      2297 1.02922E+00
 -1      2298 7.12041E-01
 -1      2299 1.21997E+00
 -1      2300 1.49358E+00
 -1      2301 1.03433E+00
 -1      2302 1.80133E+00
 -1      2303 2.16528E+00
 -1      2304 1.53282E+00
 -1      2305 2.62992E+00
 -1      2306 3.08055E+00
 -1      2307 2.30520E+00
 -1      2308 3.71903E+00
 -1      2309 4.21604E+00
 -1      2310 3.40832E+00
 -1      2311 5.15413E+00
 -1      2312 5.62881E+00
 -1      2313 4.98490E+00
 -1      2314 6.48265E+00
 -1      2315 6.98238E+00
 -1      2316 6.77683E+00
 -1      2317 8.44280E+00
 -1      2318 9.92452E+00
 -1      2319 9.09109E+00
 -1      2320 1.11832E+01
 -1      2321 1.09017E+01
 -1      2322 1.06591E+01
 -1      2323 5.21387E+00
 -1      2324 8.37156E+00
 -1      2325 6.74547E+00
 -1      2326 1.25003E+01
 -1      2327 1.69879E+00
 -1      2328 1.30235E+00
 -1      2329 8.39104E-01
 -1      2330 9.64964E-01
 -1      2331 6.61461E+00
 -1      2332 5.92474E+00
 -1      2333 5.35270E+00
 -1      2334 5.12297E+00
 -1      2335 4.25422E+00
 -1      2336 3.88568E+00
 -1      2337 5.11310E+00
 -1      2338 3.24569E+00
 -1      2339 2.83458E+00
 -1      2340 3.60436E+00
 -1      2341 2.38685E+00
 -1      2342 2.01640E+00
 -1      2343 2.51664E+00
 -1      2344 1.70481E+00
 -1      2345 1.40971E+00
 -1      2346 1.75731E+00
 -1      2347 1.18963E+00
 -1      2348 9.71139E-01
 -1      2349 1.22564E+00
 -1      2350 8.15541E-01
 -1      2351 6.60672E-01
 -1      2352 8.49970E-01
 -1      2353 5.51154E-01
 -1      2354 4.44192E-01
 -1      2355 5.84853E-01
 -1      2356 3.67492E-01
 -1      2357 2.94730E-01
 -1      2358 3.98634E-01
 -1      2359 2.41305E-01
 -1      2360 1.92293E-01
 -1      2361 2.68509E-01
 -1      2362 1.55253E-01
 -1      2363 1.27171E-01
 -1      2364 1.78045E-01
 -1      2365 1.01415E-01
 -1      2366 8.41175E-02
 -1      2367 1.15249E-01
 -1      2368 7.83769E-02
 -1      2369 6.60981E-02
 -1      2370 6.33703E-02
 -1      2371 8.37533E-02
 -1      2372 4.86766E-01
 -1      2373 5.42982E-01
 -1      2374 6.02356E-01
 -1      2375 6.92329E-01
 -1      2376 5.05162E-01
 -1      2377 7.57421E-01
 -1      2378 9.17069E-01
 -1      2379 6.29628E-01
 -1      2380 4.01804E-01
 -1      2381 4.50773E-01
 -1      2382 4.09795E-01
 -1      2383 3.32507E-01
 -1      2384 3.74420E-01
 -1      2385 3.46418E-01
 -1      2386 2.72768E-01
 -1      2387 3.05711E-01
 -1      2388 2.92238E-01
 -1      2389 2.19632E-01
 -1      2390 2.47965E-01
 -1      2391 2.40640E-01
 -1      2392 1.73007E-01
 -1      2393 1.97335E-01
 -1      2394 1.93539E-01
 -1      2395 1.32863E-01
 -1      2396 1.53737E-01
 -1      2397 1.51971E-01
 -1      2398 1.08240E-01
 -1      2399 1.15755E-01
 -1      2400 1.15593E-01
 -1      2401 9.99685E-02
 -1      2402 1.01868E-01
 -1      2403 9.21136E-02
 -1      2404 9.75934E-02
 -1      2405 9.96632E-02
 -1      2406 8.54363E-02
 -1      2407 9.31455E-02
 -1      2408 9.66208E-02
 -1      2409 8.41583E-02
 -1      2410 9.89333E-02
 -1      2411 9.26582E-02
 -1      2412 8.26984E-02
 -1      2413 1.07703E-01
 -1      2414 1.08048E-01
 -1      2415 9.13262E-02
 -1      2416 1.16602E-01
 -1      2417 1.22936E-01
 -1      2418 1.15675E-01
 -1      2419 1.78236E-01
 -1      2420 1.35231E-01
 -1      2421 1.49537E-01
 -1      2422 3.13057E-01
 -1      2423 2.35703E-01
 -1      2424 2.25632E-01
 -1      2425 4.81177E-01
 -1      2426 3.85540E-01
 -1      2427 3.55581E-01
 -1      2428 6.74109E-01
 -1      2429 5.67157E-01
 -1      2430 5.14044E-01
 -1      2431 9.26731E-01
 -1      2432 7.93846E-01
 -1      2433 7.19761E-01
 -1      2434 1.16429E+00
 -1      2435 1.03618E+00
 -1      2436 9.48947E-01
 -1      2437 1.38124E+00
 -1      2438 1.23786E+00
 -1      2439 1.13197E+00
 -1      2440 1.55995E+00
 -1      2441 1.45151E+00
 -1      2442 1.27581E+00
 -1      2443 1.61449E+00
 -1      2444 1.58368E+00
 -1      2445 1.36980E+00
 -1      2446 1.55635E+00
 -1      2447 1.58819E+00
 -1      2448 1.36723E+00
 -1      2449 1.59843E+00
 -1      2450 1.56897E+00
 -1      2451 1.35354E+00
 -1      2452 1.55659E+00
 -1      2453 1.61079E+00
 -1      2454 1.37852E+00
 -1      2455 1.38996E+00
 -1      2456 1.51571E+00
 -1      2457 1.35000E+00
 -1      2458 1.18296E+00
 -1      2459 1.32085E+00
 -1      2460 1.24001E+00
 -1      2461 9.60889E-01
 -1      2462 1.09563E+00
 -1      2463 1.08357E+00
 -1      2464 7.23586E-01
 -1      2465 8.45598E-01
 -1      2466 8.80949E-01
 -1      2467 5.04790E-01
 -1      2468 6.09030E-01
 -1      2469 6.51101E-01
 -1      2470 3.35259E-01
 -1      2471 4.25538E-01
 -1      2472 4.57293E-01
 -1      2473 1.95209E-01
 -1      2474 2.66166E-01
 -1      2475 3.08948E-01
 -1      2476 1.24334E-01
 -1      2477 1.51789E-01
 -1      2478 1.96436E-01
 -1      2479 1.11557E-01
 -1      2480 1.07175E-01
 -1      2481 1.35857E-01
 -1      2482 9.39500E-02
 -1      2483 9.68186E-02
 -1      2484 1.03960E-01
 -1      2485 7.87305E-02
 -1      2486 8.75867E-02
 -1      2487 8.28585E-02
 -1      2488 6.96612E-02
 -1      2489 7.48143E-02
 -1      2490 7.25790E-02
 -1      2491 6.21635E-02
 -1      2492 6.44545E-02
 -1      2493 6.34561E-02
 -1      2494 5.20905E-02
 -1      2495 5.71539E-02
 -1      2496 5.32398E-02
 -1      2497 4.08687E-02
 -1      2498 4.80590E-02
 -1      2499 4.41987E-02
 -1      2500 4.08687E-02
 -1      2501 2.75448E-02
 -1      2502 2.24609E-02
 -1      2503 2.88799E-02
 -1      2504 3.16019E-02
 -1      2505 3.53124E-02
 -1      2506 3.16019E-02
 -1      2507 4.09493E-02
 -1      2508 4.17314E-02
 -1      2509 2.62578E+01
 -1      2510 3.33647E+01
 -1      2511 3.95655E-02
 -1      2512 3.44950E-02
 -1      2513 3.58436E-02
 -1      2514 4.82366E-02
 -1      2515 4.51314E-02
 -1      2516 4.83597E-02
 -1      2517 5.11185E-02
 -1      2518 5.07547E-02
 -1      2519 5.64437E-02
 -1      2520 5.40880E-02
 -1      2521 5.28773E-02
 -1      2522 6.07205E-02
 -1      2523 5.52826E-02
 -1      2524 5.52826E-02
 -1      2525 6.36738E-02
 -1      2526 5.25681E-02
 -1      2527 5.52826E-02
 -1      2528 6.48684E-02
 -1      2529 4.29649E-02
 -1      2530 4.76348E-02
 -1      2531 5.99350E-02
 -1      2532 6.33703E-02
 -1      2533 5.44705E-02
 -1      2534 6.65072E-02
 -1      2535 7.30602E+00
 -1      2536 1.00541E+01
 -1      2537 2.11905E+01
 -1      2538 2.19225E+01
 -1      2539 9.48741E+00
 -1      2540 8.36675E+00
 -1      2541 7.44259E+00
 -1      2542 4.04716E+01
 -1      2543 4.04716E+01
 -1      2544 5.21757E-01
 -1      2545 5.43825E-01
 -1      2546 4.71131E-01
 -1      2547 4.43614E-01
 -1      2548 8.65739E+00
 -1      2549 8.49514E+00
 -1      2550 7.22459E+00
 -1      2551 7.13818E+00
 -1      2552 5.28634E+00
 -1      2553 7.26142E+00
 -1      2554 7.85881E+00
 -1      2555 5.77731E+00
 -1      2556 6.42468E+00
 -1      2557 9.55119E+00
 -1      2558 7.36061E+00
 -1      2559 5.74972E+00
 -1      2560 1.60775E+01
 -1      2561 1.16691E+01
 -1      2562 2.12153E+01
 -1      2563 1.84329E+01
 -1      2564 3.05233E+01
 -1      2565 2.61509E+01
 -1      2566 3.48956E+01
 -1      2567 3.48956E+01
 -1      2568 3.05233E+01
 -1      2569 2.49111E+01
 -1      2570 2.99034E+01
 -1      2571 2.38388E+01
 -1      2572 2.22771E+01
 -1      2573 1.46675E+01
 -1      2574 2.05517E+01
 -1      2575 1.48991E+01
 -1      2576 1.08036E+01
 -1      2577 3.25560E+01
 -1      2578 2.46405E+01
 -1      2579 4.01671E-02
 -1      2580 6.55090E+00
 -1      2581 9.09987E+00
 -1      2582 7.79491E+00
 -1      2583 5.09794E-01
 -1      2584 6.48772E-01
 -1      2585 7.10738E-01
 -1      2586 7.95390E+00
 -1      2587 1.33001E+00
 -1      2588 1.03121E+00
 -1      2589 1.05445E+00
 -1      2590 6.63849E+00
 -1      2591 1.54494E+01
 -1      2592 6.85381E-01
 -1      2593 7.63933E-01
 -1      2594 6.60113E-01
 -1      2595 4.84438E-01
 -1      2596 5.46223E+00
 -1      2597 8.72515E+00
 -1      2598 1.18102E+01
 -1      2599 6.53963E+00
 -1      2600 6.55388E+00
 -1      2601 3.33647E+01
 -1      2602 2.19225E+01
 -1      2603 6.71959E+00
 -1      2604 1.04282E+01
 -1      2605 1.02026E+01
 -1      2606 9.14028E+00
 -1      2607 8.86230E-01
 -1      2608 9.97720E-01
 -1      2609 6.89774E-01
 -1      2610 6.63880E-01
 -1      2611 4.09493E-02
 -1      2612 2.13344E+01
 -1      2613 1.45407E+01
 -1      2614 1.63559E+01
 -1      2615 2.82151E+01
 -1      2616 2.82151E+01
 -1      2617 2.32229E+01
 -1      2618 2.12153E+01
 -1      2619 9.45090E+00
 -1      2620 8.68347E+00
 -1      2621 8.38108E+00
 -1      2622 7.62540E+00
 -1      2623 2.95778E+01
 -1      2624 2.16623E+01
 -1      2625 2.95778E+01
 -1      2626 7.82764E+00
 -1      2627 6.59685E+00
 -1      2628 8.07416E+00
 -1      2629 5.00317E+00
 -1      2630 1.39242E+01
 -1      2631 2.22771E+01
 -1      2632 6.33703E-02
 -1      2633 7.80128E-02
 -1      2634 4.21773E-01
 -1      2635 4.07015E-01
 -1      2636 3.99225E-01
 -1      2637 3.86338E-01
 -1      2638 3.49853E-01
 -1      2639 4.35195E-01
 -1      2640 4.35195E-01
 -1      2641 4.21200E-01
 -1      2642 4.24827E-01
 -1      2643 3.50297E-01
 -1      2644 9.54343E-01
 -1      2645 6.15141E-01
 -1      2646 6.69637E-01
 -1      2647 5.54558E-01
 -1      2648 4.98422E-01
 -1      2649 4.92463E-01
 -1      2650 4.35888E-01
 -1      2651 3.92825E-01
 -1      2652 4.15154E-01
 -1      2653 3.64931E-01
 -1      2654 3.66132E-01
 -1      2655 3.39041E-01
 -1      2656 3.14364E-01
 -1      2657 3.19508E-01
 -1      2658 2.87752E-01
 -1      2659 2.63140E-01
 -1      2660 2.67006E-01
 -1      2661 2.46915E-01
 -1      2662 2.23299E-01
 -1      2663 2.24169E-01
 -1      2664 2.05930E-01
 -1      2665 1.84245E-01
 -1      2666 1.90575E-01
 -1      2667 1.66043E-01
 -1      2668 1.46352E-01
 -1      2669 1.55004E-01
 -1      2670 1.27224E-01
 -1      2671 1.08903E-01
 -1      2672 1.17673E-01
 -1      2673 9.26152E-02
 -1      2674 9.44776E-02
 -1      2675 8.22569E-02
 -1      2676 1.02951E-01
 -1      2677 1.18972E-01
 -1      2678 7.44430E-02
 -1      2679 1.59792E-01
 -1      2680 2.10140E-01
 -1      2681 1.23737E-01
 -1      2682 2.70280E-01
 -1      2683 3.38491E-01
 -1      2684 2.24697E-01
 -1      2685 4.26413E-01
 -1      2686 5.20589E-01
 -1      2687 3.72758E-01
 -1      2688 6.48769E-01
 -1      2689 7.80313E-01
 -1      2690 5.88860E-01
 -1      2691 9.69102E-01
 -1      2692 1.15984E+00
 -1      2693 9.05830E-01
 -1      2694 1.44021E+00
 -1      2695 1.74795E+00
 -1      2696 1.37498E+00
 -1      2697 2.16605E+00
 -1      2698 2.63069E+00
 -1      2699 2.07344E+00
 -1      2700 3.25669E+00
 -1      2701 3.89517E+00
 -1      2702 3.11754E+00
 -1      2703 4.94301E+00
 -1      2704 5.88111E+00
 -1      2705 4.79138E+00
 -1      2706 7.22634E+00
 -1      2707 8.08018E+00
 -1      2708 7.18445E+00
 -1      2709 1.31134E+01
 -1      2710 1.45739E+01
 -1      2711 6.29375E+00
 -1      2712 5.42500E+00
 -1      2713 8.37533E-02
 -1      2714 4.98261E-02
 -1      2715 4.90439E-02
 -1      2716 5.30754E-02
 -1      2717 4.39577E+00
 -1      2718 3.75578E+00
 -1      2719 5.57642E+00
 -1      2720 2.97104E+00
 -1      2721 2.52331E+00
 -1      2722 3.76245E+00
 -1      2723 2.00902E+00
 -1      2724 1.69742E+00
 -1      2725 2.46342E+00
 -1      2726 1.35994E+00
 -1      2727 1.13987E+00
 -1      2728 1.61165E+00
 -1      2729 9.17077E-01
 -1      2730 7.61478E-01
 -1      2731 1.05138E+00
 -1      2732 6.22180E-01
 -1      2733 5.12662E-01
 -1      2734 6.89287E-01
 -1      2735 4.19142E-01
 -1      2736 3.42442E-01
 -1      2737 4.56469E-01
 -1      2738 2.79137E-01
 -1      2739 2.25712E-01
 -1      2740 2.99644E-01
 -1      2741 1.89113E-01
 -1      2742 1.52074E-01
 -1      2743 1.99741E-01
 -1      2744 1.23175E-01
 -1      2745 9.74196E-02
 -1      2746 1.34244E-01
 -1      2747 4.16484E-01
 -1      2748 4.75857E-01
 -1      2749 3.52686E-01
 -1      2750 3.88679E-01
 -1      2751 3.59374E-01
 -1      2752 4.97521E-01
 -1      2753 5.62613E-01
 -1      2754 4.08843E-01
 -1      2755 2.48611E-01
 -1      2756 2.75406E-01
 -1      2757 2.06101E-01
 -1      2758 2.30904E-01
 -1      2759 2.14072E-01
 -1      2760 1.65822E-01
 -1      2761 1.88119E-01
 -1      2762 1.78384E-01
 -1      2763 1.29258E-01
 -1      2764 1.48528E-01
 -1      2765 1.43108E-01
 -1      2766 9.60829E-02
 -1      2767 1.13191E-01
 -1      2768 1.09747E-01
 -1      2769 7.52647E-02
 -1      2770 8.16367E-02
 -1      2771 7.92340E-02
 -1      2772 7.23979E-02
 -1      2773 7.27032E-02
 -1      2774 6.22264E-02
 -1      2775 7.38550E-02
 -1      2776 7.48276E-02
 -1      2777 6.20946E-02
 -1      2778 7.94883E-02
 -1      2779 7.99757E-02
 -1      2780 7.06449E-02
 -1      2781 1.00441E-01
 -1      2782 9.13262E-02
 -1      2783 8.86035E-02
 -1      2784 1.37310E-01
 -1      2785 1.22077E-01
 -1      2786 1.22077E-01
 -1      2787 1.88042E-01
 -1      2788 1.69413E-01
 -1      2789 1.75815E-01
 -1      2790 2.83099E-01
 -1      2791 2.25632E-01
 -1      2792 2.45508E-01
 -1      2793 4.28064E-01
 -1      2794 3.55581E-01
 -1      2795 3.55581E-01
 -1      2796 5.94009E-01
 -1      2797 5.08029E-01
 -1      2798 5.08029E-01
 -1      2799 8.00195E-01
 -1      2800 6.80458E-01
 -1      2801 6.74443E-01
 -1      2802 9.84212E-01
 -1      2803 8.74763E-01
 -1      2804 8.35460E-01
 -1      2805 1.14648E+00
 -1      2806 1.07291E+00
 -1      2807 9.98727E-01
 -1      2808 1.26459E+00
 -1      2809 1.19433E+00
 -1      2810 1.13527E+00
 -1      2811 1.34460E+00
 -1      2812 1.32087E+00
 -1      2813 1.23939E+00
 -1      2814 1.29879E+00
 -1      2815 1.32509E+00
 -1      2816 1.27616E+00
 -1      2817 1.26150E+00
 -1      2818 1.24888E+00
 -1      2819 1.20674E+00
 -1      2820 1.34082E+00
 -1      2821 1.32846E+00
 -1      2822 1.22380E+00
 -1      2823 1.28090E+00
 -1      2824 1.32178E+00
 -1      2825 1.27172E+00
 -1      2826 1.16138E+00
 -1      2827 1.23049E+00
 -1      2828 1.20227E+00
 -1      2829 1.01815E+00
 -1      2830 1.10548E+00
 -1      2831 1.09596E+00
 -1      2832 8.18207E-01
 -1      2833 9.33499E-01
 -1      2834 9.55405E-01
 -1      2835 6.18710E-01
 -1      2836 7.33267E-01
 -1      2837 7.85816E-01
 -1      2838 4.57293E-01
 -1      2839 5.36545E-01
 -1      2840 6.18710E-01
 -1      2841 3.08948E-01
 -1      2842 3.78041E-01
 -1      2843 4.57293E-01
 -1      2844 2.05921E-01
 -1      2845 2.49340E-01
 -1      2846 3.18433E-01
 -1      2847 1.53233E-01
 -1      2848 1.70392E-01
 -1      2849 2.23297E-01
 -1      2850 1.08789E-01
 -1      2851 1.23527E-01
 -1      2852 1.58062E-01
 -1      2853 8.73462E-02
 -1      2854 9.37094E-02
 -1      2855 1.13277E-01
 -1      2856 7.68379E-02
 -1      2857 8.07542E-02
 -1      2858 9.16051E-02
 -1      2859 7.27428E-02
 -1      2860 7.79495E-02
 -1      2861 8.61246E-02
 -1      2862 6.54990E-02
 -1      2863 7.05086E-02
 -1      2864 8.50020E-02
 -1      2865 7.03443E-02
 -1      2866 4.30848E-02
 -1      2867 4.95039E-02
 -1      2868 5.79417E-02
 -1      2869 5.23758E-02
 -1      2870 4.98261E-02
 -1      2871 5.08337E-02
 -1      2872 4.38835E-02
 -1      2873 5.80750E-02
 -1      2874 6.04157E-02
 -1      2875 2.96164E-01
 -1      2876 3.23548E-01
 -1      2877 3.02432E-01
 -1      2878 2.52537E-01
 -1      2879 7.01754E-02
 -1      2880 6.84167E-02
 -1      2881 7.68861E-02
 -1      2882 7.56914E-02
 -1      2883 8.33877E-02
 -1      2884 8.02161E-02
 -1      2885 8.02161E-02
 -1      2886 9.22337E-02
 -1      2887 7.52827E-02
 -1      2888 8.02161E-02
 -1      2889 9.55637E-02
 -1      2890 7.82782E-02
 -1      2891 6.67726E-02
 -1      2892 8.70537E-02
 -1      2893 5.48400E+00
 -1      2894 6.28258E+00
 -1      2895 2.01106E+01
 -1      2896 1.51749E+01
 -1      2897 1.55092E+01
 -1      2898 1.98445E+01
 -1      2899 6.73114E-02
 -1      2900 6.47933E-02
 -1      2901 7.67663E-02
 -1      2902 6.12054E-01
 -1      2903 5.58687E-01
 -1      2904 4.02914E-01
 -1      2905 4.35195E-01
 -1      2906 4.23283E-01
 -1      2907 3.59154E-01
 -1      2908 3.60664E-01
 -1      2909 1.19855E+01
 -1      2910 1.11575E+01
 -1      2911 2.02441E+01
 -1      2912 2.73510E+01
 -1      2913 1.38308E+01
 -1      2914 4.22818E-01
 -1      2915 4.34892E-01
 -1      2916 4.33843E+00
 -1      2917 3.63098E+00
 -1      2918 1.22243E+01
 -1      2919 1.43622E+01
 -1      2920 3.62727E+00
 -1      2921 4.46401E+00
 -1      2922 1.35257E+01
 -1      2923 1.11703E+01
 -1      2924 5.65157E+00
 -1      2925 4.06827E+00
 -1      2926 1.91196E+01
 -1      2927 2.17537E+01
 -1      2928 8.44104E+00
 -1      2929 6.32316E+00
 -1      2930 2.62860E+01
 -1      2931 2.19136E+01
 -1      2932 3.69080E+00
 -1      2933 4.57414E+00
 -1      2934 6.14928E-01
 -1      2935 5.92888E-01
 -1      2936 3.87877E-01
 -1      2937 4.13897E-01
 -1      2938 9.68062E+00
 -1      2939 9.10859E+00
 -1      2940 9.42049E+00
 -1      2941 1.99148E+01
 -1      2942 1.66087E+01
 -1      2943 1.50972E+01
 -1      2944 1.34051E+01
 -1      2945 9.16790E-02
 -1      2946 3.41930E-01
 -1      2947 3.86205E-01
 -1      2948 3.99206E-01
 -1      2949 5.47619E-01
 -1      2950 1.35629E+01
 -1      2951 9.19444E-02
 -1      2952 1.37122E+01
 -1      2953 4.24181E-01
 -1      2954 5.56287E-01
 -1      2955 5.75985E-02
 -1      2956 6.88095E-02
 -1      2957 2.74289E+00
 -1      2958 5.38079E+00
 -1      2959 5.75481E+00
 -1      2960 3.60935E+00
 -1      2961 1.58733E+01
 -1      2962 5.70477E+00
 -1      2963 6.85926E+00
 -1      2964 7.04759E+00
 -1      2965 4.10810E+00
 -1      2966 2.43209E+01
 -1      2967 1.57112E+01
 -1      2968 1.76404E+01
 -1      2969 4.66349E-01
 -1      2970 5.25448E-01
 -1      2971 1.24210E+01
 -1      2972 8.69638E+00
 -1      2973 5.56864E+00
 -1      2974 8.29789E+00
 -1      2975 9.11536E+00
 -1      2976 4.64171E+00
 -1      2977 4.34892E-01
 -1      2978 4.34892E-01
 -1      2979 3.59989E-01
 -1      2980 3.52911E+00
 -1      2981 4.94148E+00
 -1      2982 6.84776E+00
 -1      2983 7.41511E+00
 -1      2984 6.54084E+00
 -1      2985 1.64572E+01
 -1      2986 4.06886E-01
 -1      2987 4.21402E-01
 -1      2988 3.58573E-01
 -1      2989 3.49477E-01
 -1      2990 1.01724E+01
 -1      2991 1.33974E+01
 -1      2992 1.13194E+01
 -1      2993 1.69365E+01
 -1      2994 3.22637E-01
 -1      2995 3.14847E-01
 -1      2996 2.90745E-01
 -1      2997 3.01112E-01
 -1      2998 6.12905E-01
 -1      2999 1.08028E+01
 -1      3000 1.58361E+01
 -1      3001 3.86870E-01
 -1      3002 3.61514E-01
 -1      3003 3.16329E-01
 -1      3004 3.11967E-01
 -1      3005 3.20563E-01
 -1      3006 2.99829E-01
 -1      3007 2.95832E-01
 -1      3008 2.69941E-01
 -1      3009 2.50262E-01
 -1      3010 2.57662E-01
 -1      3011 2.31050E-01
 -1      3012 2.33985E-01
 -1      3013 2.14607E-01
 -1      3014 1.98382E-01
 -1      3015 2.05263E-01
 -1      3016 1.84378E-01
 -1      3017 1.67009E-01
 -1      3018 1.74816E-01
 -1      3019 1.53151E-01
 -1      3020 1.34949E-01
 -1      3021 1.46954E-01
 -1      3022 1.19221E-01
 -1      3023 1.00093E-01
 -1      3024 1.17369E-01
 -1      3025 8.58512E-02
 -1      3026 6.95638E-02
 -1      3027 8.73998E-02
 -1      3028 7.55642E-02
 -1      3029 8.40378E-02
 -1      3030 7.91586E-02
 -1      3031 1.10154E-01
 -1      3032 1.50974E-01
 -1      3033 1.11275E-01
 -1      3034 1.98656E-01
 -1      3035 2.58796E-01
 -1      3036 1.85073E-01
 -1      3037 3.24219E-01
 -1      3038 4.12141E-01
 -1      3039 2.98178E-01
 -1      3040 5.03676E-01
 -1      3041 6.31856E-01
 -1      3042 4.55137E-01
 -1      3043 7.62271E-01
 -1      3044 9.51060E-01
 -1      3045 6.77086E-01
 -1      3046 1.14136E+00
 -1      3047 1.42172E+00
 -1      3048 9.97801E-01
 -1      3049 1.71174E+00
 -1      3050 2.12984E+00
 -1      3051 1.47812E+00
 -1      3052 2.60194E+00
 -1      3053 3.22794E+00
 -1      3054 2.24023E+00
 -1      3055 3.94544E+00
 -1      3056 4.99328E+00
 -1      3057 3.42984E+00
 -1      3058 7.18445E+00
 -1      3059 8.52968E+00
 -1      3060 6.33851E+00
 -1      3061 3.29249E-01
 -1      3062 3.22923E-01
 -1      3063 6.27618E+00
 -1      3064 5.24696E+00
 -1      3065 4.09738E+00
 -1      3066 3.31263E+00
 -1      3067 4.79714E+00
 -1      3068 2.67021E+00
 -1      3069 2.15592E+00
 -1      3070 3.00514E+00
 -1      3071 1.76117E+00
 -1      3072 1.42369E+00
 -1      3073 1.96796E+00
 -1      3074 1.16222E+00
 -1      3075 9.39430E-01
 -1      3076 1.31174E+00
 -1      3077 7.67239E-01
 -1      3078 6.27941E-01
 -1      3079 8.78084E-01
 -1      3080 5.11618E-01
 -1      3081 4.18098E-01
 -1      3082 5.89570E-01
 -1      3083 3.38573E-01
 -1      3084 2.75268E-01
 -1      3085 3.93722E-01
 -1      3086 2.20373E-01
 -1      3087 1.83775E-01
 -1      3088 2.59302E-01
 -1      3089 1.68812E-01
 -1      3090 1.39913E-01
 -1      3091 1.26512E-01
 -1      3092 1.89444E-01
 -1      3093 7.00221E-02
 -1      3094 7.03443E-02
 -1      3095 8.27679E-02
 -1      3096 2.99337E-01
 -1      3097 3.27142E-01
 -1      3098 3.27533E-01
 -1      3099 3.49197E-01
 -1      3100 2.47940E-01
 -1      3101 2.67496E-01
 -1      3102 1.56313E-01
 -1      3103 1.74295E-01
 -1      3104 1.87453E-01
 -1      3105 2.05160E-01
 -1      3106 1.65383E-01
 -1      3107 9.18257E-02
 -1      3108 1.07893E-01
 -1      3109 6.10718E-02
 -1      3110 7.55179E-02
 -1      3111 7.36635E-02
 -1      3112 4.67652E-02
 -1      3113 4.93267E-02
 -1      3114 4.56106E-02
 -1      3115 5.31500E-02
 -1      3116 5.07203E-02
 -1      3117 3.78207E-02
 -1      3118 7.14954E-02
 -1      3119 6.53748E-02
 -1      3120 5.40005E-02
 -1      3121 9.87715E-02
 -1      3122 8.69336E-02
 -1      3123 8.16634E-02
 -1      3124 1.43712E-01
 -1      3125 1.22077E-01
 -1      3126 1.20407E-01
 -1      3127 2.07918E-01
 -1      3128 1.75815E-01
 -1      3129 1.75815E-01
 -1      3130 2.92071E-01
 -1      3131 2.54480E-01
 -1      3132 2.54480E-01
 -1      3133 4.25482E-01
 -1      3134 3.52999E-01
 -1      3135 3.61971E-01
 -1      3136 5.79429E-01
 -1      3137 4.99465E-01
 -1      3138 4.96882E-01
 -1      3139 7.60892E-01
 -1      3140 6.74443E-01
 -1      3141 6.65879E-01
 -1      3142 9.23342E-01
 -1      3143 8.48775E-01
 -1      3144 8.48775E-01
 -1      3145 1.09841E+00
 -1      3146 1.00971E+00
 -1      3147 1.02303E+00
 -1      3148 1.17116E+00
 -1      3149 1.12332E+00
 -1      3150 1.13430E+00
 -1      3151 1.33369E+00
 -1      3152 1.27741E+00
 -1      3153 1.26546E+00
 -1      3154 1.38622E+00
 -1      3155 1.40573E+00
 -1      3156 1.44376E+00
 -1      3157 1.31838E+00
 -1      3158 1.36829E+00
 -1      3159 1.49786E+00
 -1      3160 1.39253E+00
 -1      3161 1.32557E+00
 -1      3162 1.48712E+00
 -1      3163 1.40144E+00
 -1      3164 1.42047E+00
 -1      3165 1.52225E+00
 -1      3166 1.21329E+00
 -1      3167 1.26370E+00
 -1      3168 1.41245E+00
 -1      3169 1.09117E+00
 -1      3170 1.14708E+00
 -1      3171 1.20850E+00
 -1      3172 9.66482E-01
 -1      3173 1.05113E+00
 -1      3174 1.10225E+00
 -1      3175 7.85816E-01
 -1      3176 8.70757E-01
 -1      3177 9.66482E-01
 -1      3178 6.18710E-01
 -1      3179 7.00876E-01
 -1      3180 7.85816E-01
 -1      3181 4.44454E-01
 -1      3182 5.23706E-01
 -1      3183 6.05872E-01
 -1      3184 3.22276E-01
 -1      3185 3.81884E-01
 -1      3186 4.48297E-01
 -1      3187 2.28625E-01
 -1      3188 2.64154E-01
 -1      3189 3.27605E-01
 -1      3190 1.58062E-01
 -1      3191 1.87768E-01
 -1      3192 2.28625E-01
 -1      3193 1.19410E-01
 -1      3194 1.34490E-01
 -1      3195 1.64196E-01
 -1      3196 9.86391E-02
 -1      3197 1.05231E-01
 -1      3198 1.26444E-01
 -1      3199 1.00022E-01
 -1      3200 9.89103E-02
 -1      3201 1.12536E-01
 -1      3202 3.29315E-01
 -1      3203 3.25186E-01
 -1      3204 8.52574E-02
 -1      3205 7.84058E-02
 -1      3206 1.32671E-01
 -1      3207 1.32671E-01
 -1      3208 9.54422E-02
 -1      3209 8.99262E-02
 -1      3210 1.35022E-01
 -1      3211 2.00654E+01
 -1      3212 4.78260E+00
 -1      3213 4.11101E+00
 -1      3214 3.34892E+00
 -1      3215 2.90791E+00
 -1      3216 3.00979E+00
 -1      3217 4.02978E+00
 -1      3218 5.05311E-01
 -1      3219 2.56011E+00
 -1      3220 2.61993E+00
 -1      3221 1.19365E+01
 -1      3222 9.12164E+00
 -1      3223 8.79218E+00
 -1      3224 1.11183E+01
 -1      3225 9.46905E+00
 -1      3226 1.13436E+01
 -1      3227 1.17432E+01
 -1      3228 1.29340E+01
 -1      3229 1.51608E+01
 -1      3230 8.99262E-02
 -1      3231 8.88209E-02
 -1      3232 9.84173E-02
 -1      3233 1.01981E-01
 -1      3234 6.81316E+00
 -1      3235 8.83491E+00
 -1      3236 5.01928E+00
 -1      3237 2.76087E+00
 -1      3238 1.23901E-01
 -1      3239 1.41194E-01
 -1      3240 1.37106E-01
 -1      3241 1.05979E-01
 -1      3242 1.40252E+01
 -1      3243 1.22222E+01
 -1      3244 9.27019E+00
 -1      3245 1.08691E-01
 -1      3246 1.05361E-01
 -1      3247 1.11899E-01
 -1      3248 1.45797E-01
 -1      3249 3.14977E-01
 -1      3250 3.09018E-01
 -1      3251 2.42714E-01
 -1      3252 2.41378E-01
 -1      3253 3.78892E-01
 -1      3254 2.60140E-01
 -1      3255 3.19692E-01
 -1      3256 3.19692E-01
 -1      3257 2.55105E+00
 -1      3258 2.73383E+00
 -1      3259 3.54047E+00
 -1      3260 1.08028E+01
 -1      3261 3.24147E-01
 -1      3262 3.22637E-01
 -1      3263 2.87631E-01
 -1      3264 2.83176E-01
 -1      3265 7.52917E+00
 -1      3266 9.64098E+00
 -1      3267 7.55335E+00
 -1      3268 3.11371E-01
 -1      3269 3.11238E-01
 -1      3270 2.84155E-01
 -1      3271 2.34776E-01
 -1      3272 3.29707E-01
 -1      3273 1.53761E+01
 -1      3274 1.17250E+01
 -1      3275 1.34111E+01
 -1      3276 6.11737E-02
 -1      3277 6.03750E-02
 -1      3278 7.31208E-02
 -1      3279 1.73053E+01
 -1      3280 2.88380E-01
 -1      3281 2.56148E-01
 -1      3282 2.59243E-01
 -1      3283 1.95676E-01
 -1      3284 2.22295E-01
 -1      3285 2.43053E-01
 -1      3286 8.50020E-02
 -1      3287 8.72362E-02
 -1      3288 1.00022E-01
 -1      3289 8.50020E-02
 -1      3290 6.20029E-02
 -1      3291 6.04608E-02
 -1      3292 6.27608E-02
 -1      3293 7.84509E-02
 -1      3294 1.04468E+01
 -1      3295 4.28209E+00
 -1      3296 4.85878E+00
 -1      3297 3.18378E+00
 -1      3298 6.48986E+00
 -1      3299 8.79206E+00
 -1      3300 7.82732E+00
 -1      3301 1.72129E-01
 -1      3302 3.48981E+00
 -1      3303 1.34111E+01
 -1      3304 1.54597E+01
 -1      3305 2.82959E+00
 -1      3306 8.11627E+00
 -1      3307 5.64235E+00
 -1      3308 6.81351E+00
 -1      3309 5.47435E+00
 -1      3310 3.20850E-01
 -1      3311 3.20850E-01
 -1      3312 5.03794E+00
 -1      3313 6.35116E+00
 -1      3314 5.38519E+00
 -1      3315 5.58502E+00
 -1      3316 2.67476E+00
 -1      3317 2.55181E+00
 -1      3318 2.75256E+00
 -1      3319 4.36023E+00
 -1      3320 3.23435E-01
 -1      3321 3.24850E-01
 -1      3322 2.85711E-01
 -1      3323 3.35494E-01
 -1      3324 2.57767E-01
 -1      3325 3.05788E-01
 -1      3326 2.12553E-01
 -1      3327 2.08556E-01
 -1      3328 1.81347E-01
 -1      3329 1.88131E-01
 -1      3330 2.06711E-01
 -1      3331 2.12007E-01
 -1      3332 1.99727E-01
 -1      3333 1.74298E-01
 -1      3334 1.94575E-01
 -1      3335 1.78132E-01
 -1      3336 1.72597E-01
 -1      3337 1.67972E-01
 -1      3338 1.53968E-01
 -1      3339 1.57285E-01
 -1      3340 1.43732E-01
 -1      3341 1.29874E-01
 -1      3342 1.36888E-01
 -1      3343 1.20078E-01
 -1      3344 1.04351E-01
 -1      3345 1.16856E-01
 -1      3346 9.50252E-02
 -1      3347 8.07836E-02
 -1      3348 9.77348E-02
 -1      3349 8.55707E-02
 -1      3350 9.15712E-02
 -1      3351 9.31962E-02
 -1      3352 1.00125E-01
 -1      3353 1.26242E-01
 -1      3354 1.06537E-01
 -1      3355 1.50722E-01
 -1      3356 1.98404E-01
 -1      3357 1.39572E-01
 -1      3358 2.38773E-01
 -1      3359 3.04197E-01
 -1      3360 2.04422E-01
 -1      3361 3.56410E-01
 -1      3362 4.47945E-01
 -1      3363 2.97005E-01
 -1      3364 5.38005E-01
 -1      3365 6.68419E-01
 -1      3366 4.39278E-01
 -1      3367 8.04341E-01
 -1      3368 9.94641E-01
 -1      3369 6.65259E-01
 -1      3370 1.19729E+00
 -1      3371 1.48731E+00
 -1      3372 1.00383E+00
 -1      3373 1.78480E+00
 -1      3374 2.25689E+00
 -1      3375 1.50397E+00
 -1      3376 2.72704E+00
 -1      3377 3.44455E+00
 -1      3378 2.27160E+00
 -1      3379 3.95963E+00
 -1      3380 6.15080E+00
 -1      3381 3.25683E+00
 -1      3382 2.90763E+00
 -1      3383 2.26521E+00
 -1      3384 1.94145E+00
 -1      3385 1.54670E+00
 -1      3386 1.84394E+00
 -1      3387 1.27381E+00
 -1      3388 1.01234E+00
 -1      3389 1.24729E+00
 -1      3390 8.59447E-01
 -1      3391 6.87257E-01
 -1      3392 8.21511E-01
 -1      3393 5.91935E-01
 -1      3394 4.75612E-01
 -1      3395 5.73299E-01
 -1      3396 4.05721E-01
 -1      3397 3.26196E-01
 -1      3398 4.08087E-01
 -1      3399 2.75675E-01
 -1      3400 2.20781E-01
 -1      3401 2.87675E-01
 -1      3402 1.90244E-01
 -1      3403 1.75281E-01
 -1      3404 1.72929E-01
 -1      3405 2.06617E-01
 -1      3406 1.46041E-01
 -1      3407 1.59200E-01
 -1      3408 4.28568E-02
 -1      3409 5.46018E-02
 -1      3410 6.35329E-02
 -1      3411 7.98407E-02
 -1      3412 6.07791E-02
 -1      3413 6.68427E-02
 -1      3414 5.46179E-02
 -1      3415 1.00294E-01
 -1      3416 8.48557E-02
 -1      3417 8.54731E-02
 -1      3418 1.45056E-01
 -1      3419 1.21751E-01
 -1      3420 1.24943E-01
 -1      3421 2.09289E-01
 -1      3422 1.77186E-01
 -1      3423 1.78530E-01
 -1      3424 3.01042E-01
 -1      3425 2.54480E-01
 -1      3426 2.55851E-01
 -1      3427 4.22900E-01
 -1      3428 3.61971E-01
 -1      3429 3.61971E-01
 -1      3430 5.78752E-01
 -1      3431 5.04770E-01
 -1      3432 5.04770E-01
 -1      3433 7.66895E-01
 -1      3434 6.71881E-01
 -1      3435 6.79769E-01
 -1      3436 9.43951E-01
 -1      3437 8.56069E-01
 -1      3438 8.62071E-01
 -1      3439 1.14995E+00
 -1      3440 1.06358E+00
 -1      3441 1.07087E+00
 -1      3442 1.34312E+00
 -1      3443 1.31822E+00
 -1      3444 1.35877E+00
 -1      3445 1.65151E+00
 -1      3446 1.54525E+00
 -1      3447 1.72917E+00
 -1      3448 1.85290E+00
 -1      3449 1.78086E+00
 -1      3450 2.06065E+00
 -1      3451 2.25249E+00
 -1      3452 2.27042E+00
 -1      3453 2.60753E+00
 -1      3454 1.67325E+00
 -1      3455 1.66606E+00
 -1      3456 2.43862E+00
 -1      3457 2.43764E+00
 -1      3458 2.40970E+00
 -1      3459 2.58865E+00
 -1      3460 1.96872E+00
 -1      3461 2.10646E+00
 -1      3462 2.99391E+00
 -1      3463 1.74706E+00
 -1      3464 1.81327E+00
 -1      3465 2.50728E+00
 -1      3466 1.17774E+00
 -1      3467 1.21778E+00
 -1      3468 1.82255E+00
 -1      3469 9.66482E-01
 -1      3470 1.06221E+00
 -1      3471 1.17774E+00
 -1      3472 8.04400E-01
 -1      3473 8.89340E-01
 -1      3474 9.85065E-01
 -1      3475 6.19478E-01
 -1      3476 7.14482E-01
 -1      3477 8.18006E-01
 -1      3478 4.56756E-01
 -1      3479 5.19326E-01
 -1      3480 6.27936E-01
 -1      3481 3.27605E-01
 -1      3482 3.85727E-01
 -1      3483 4.56756E-01
 -1      3484 2.28739E-01
 -1      3485 2.69596E-01
 -1      3486 3.27718E-01
 -1      3487 1.71909E-01
 -1      3488 1.95481E-01
 -1      3489 2.36452E-01
 -1      3490 1.32620E-01
 -1      3491 1.46799E-01
 -1      3492 1.78085E-01
 -1      3493 1.31492E-01
 -1      3494 1.31220E-01
 -1      3495 1.51575E-01
 -1      3496 2.66649E-01
 -1      3497 8.14070E+00
 -1      3498 7.03682E+00
 -1      3499 7.39017E+00
 -1      3500 8.58100E+00
 -1      3501 5.73554E+00
 -1      3502 3.16205E+00
 -1      3503 2.39996E+00
 -1      3504 5.04654E+00
 -1      3505 4.26050E+00
 -1      3506 4.53512E-02
 -1      3507 4.13961E-02
 -1      3508 5.03873E-02
 -1      3509 5.81933E-02
 -1      3510 4.48235E+00
 -1      3511 3.33277E+00
 -1      3512 2.59284E+00
 -1      3513 4.27117E+00
 -1      3514 4.30405E+00
 -1      3515 5.36241E+00
 -1      3516 2.35129E+00
 -1      3517 2.45316E+00
 -1      3518 3.15754E-01
 -1      3519 3.23435E-01
 -1      3520 2.89712E-01
 -1      3521 4.51770E+00
 -1      3522 2.99614E+00
 -1      3523 4.02109E+00
 -1      3524 2.51422E-01
 -1      3525 2.36360E-01
 -1      3526 2.26151E-01
 -1      3527 2.24466E+00
 -1      3528 2.35855E+00
 -1      3529 2.51280E-01
 -1      3530 2.47804E-01
 -1      3531 1.30760E+01
 -1      3532 1.17250E+01
 -1      3533 9.49167E+00
 -1      3534 3.42853E+00
 -1      3535 2.29001E-01
 -1      3536 1.59961E-01
 -1      3537 1.56809E-01
 -1      3538 1.32829E-01
 -1      3539 2.19429E-01
 -1      3540 2.19820E-01
 -1      3541 1.71553E-01
 -1      3542 1.88687E-01
 -1      3543 1.52211E-01
 -1      3544 9.33781E-02
 -1      3545 1.09386E-01
 -1      3546 8.32476E-02
 -1      3547 1.94800E-01
 -1      3548 1.74852E-01
 -1      3549 1.28207E-01
 -1      3550 1.46732E-01
 -1      3551 2.35931E+00
 -1      3552 1.12808E-01
 -1      3553 1.31492E-01
 -1      3554 1.00022E-01
 -1      3555 5.68754E+00
 -1      3556 1.04457E-01
 -1      3557 8.80544E-02
 -1      3558 4.22019E+00
 -1      3559 5.39049E+00
 -1      3560 5.34764E+00
 -1      3561 1.16444E-01
 -1      3562 1.16444E-01
 -1      3563 3.64461E+00
 -1      3564 2.55476E+00
 -1      3565 3.65321E+00
 -1      3566 1.85453E-01
 -1      3567 1.96998E-01
 -1      3568 1.55292E-01
 -1      3569 1.80435E-01
 -1      3570 1.08028E+01
 -1      3571 1.30760E+01
 -1      3572 2.97826E+00
 -1      3573 3.23057E+00
 -1      3574 2.49995E+00
 -1      3575 2.85196E-01
 -1      3576 6.22130E+00
 -1      3577 4.86852E+00
 -1      3578 5.09182E+00
 -1      3579 4.86491E+00
 -1      3580 4.81694E+00
 -1      3581 4.12051E+00
 -1      3582 3.39427E+00
 -1      3583 2.16330E-01
 -1      3584 2.27287E-01
 -1      3585 1.79611E-01
 -1      3586 2.02353E+00
 -1      3587 5.74515E+00
 -1      3588 7.12545E+00
 -1      3589 5.44700E+00
 -1      3590 3.08188E+00
 -1      3591 2.99578E+00
 -1      3592 3.23935E+00
 -1      3593 2.51280E-01
 -1      3594 2.14928E-01
 -1      3595 2.51280E-01
 -1      3596 1.26363E-01
 -1      3597 1.16444E-01
 -1      3598 1.30908E-01
 -1      3599 1.37374E-01
 -1      3600 1.11960E-01
 -1      3601 1.08396E-01
 -1      3602 1.18000E-01
 -1      3603 1.26423E-01
 -1      3604 2.55422E-01
 -1      3605 1.21238E-01
 -1      3606 1.36357E-01
 -1      3607 1.30173E-01
 -1      3608 1.08637E-01
 -1      3609 8.42397E+00
 -1      3610 8.43121E-02
 -1      3611 8.65462E-02
 -1      3612 9.93319E-02
 -1      3613 7.46650E-02
 -1      3614 2.34621E-01
 -1      3615 2.67497E-01
 -1      3616 2.72013E-01
 -1      3617 2.30744E-01
 -1      3618 2.35200E-01
 -1      3619 1.98848E-01
 -1      3620 1.58735E-01
 -1      3621 8.51897E+00
 -1      3622 4.93464E+00
 -1      3623 1.44864E-01
 -1      3624 1.48316E-01
 -1      3625 1.54259E-01
 -1      3626 1.49107E-01
 -1      3627 1.24826E-01
 -1      3628 1.47496E-01
 -1      3629 1.37336E-01
 -1      3630 1.29159E-01
 -1      3631 1.31156E-01
 -1      3632 1.20920E-01
 -1      3633 1.21368E-01
 -1      3634 1.14009E-01
 -1      3635 1.04213E-01
 -1      3636 1.08277E-01
 -1      3637 1.00959E-01
 -1      3638 9.16328E-02
 -1      3639 9.81113E-02
 -1      3640 9.49990E-02
 -1      3641 9.97862E-02
 -1      3642 9.82228E-02
 -1      3643 1.07633E-01
 -1      3644 1.16187E-01
 -1      3645 1.09435E-01
 -1      3646 1.35427E-01
 -1      3647 1.59908E-01
 -1      3648 1.36523E-01
 -1      3649 1.88963E-01
 -1      3650 2.29332E-01
 -1      3651 1.84818E-01
 -1      3652 2.71795E-01
 -1      3653 3.24008E-01
 -1      3654 2.56335E-01
 -1      3655 3.84366E-01
 -1      3656 4.74425E-01
 -1      3657 3.59155E-01
 -1      3658 5.57278E-01
 -1      3659 6.93200E-01
 -1      3660 5.02366E-01
 -1      3661 8.12396E-01
 -1      3662 1.01504E+00
 -1      3663 7.04415E-01
 -1      3664 1.27755E+00
 -1      3665 1.57504E+00
 -1      3666 1.08612E+00
 -1      3667 2.01766E+00
 -1      3668 2.48780E+00
 -1      3669 1.79124E+00
 -1      3670 2.85881E+00
 -1      3671 3.37390E+00
 -1      3672 8.02594E+00
 -1      3673 2.60486E+00
 -1      3674 6.45932E-02
 -1      3675 6.53061E-02
 -1      3676 7.64973E-02
 -1      3677 9.05996E-02
 -1      3678 2.00175E+00
 -1      3679 1.95308E+00
 -1      3680 1.28941E+00
 -1      3681 1.01652E+00
 -1      3682 8.56413E-01
 -1      3683 7.03522E-01
 -1      3684 8.98527E-01
 -1      3685 5.89309E-01
 -1      3686 4.93987E-01
 -1      3687 6.24211E-01
 -1      3688 4.12946E-01
 -1      3689 3.43056E-01
 -1      3690 4.28956E-01
 -1      3691 2.86517E-01
 -1      3692 2.35996E-01
 -1      3693 2.91377E-01
 -1      3694 2.02785E-01
 -1      3695 1.72248E-01
 -1      3696 1.56128E-01
 -1      3697 2.01627E-01
 -1      3698 1.53039E-01
 -1      3699 1.31582E-01
 -1      3700 1.09881E-01
 -1      3701 9.18679E-02
 -1      3702 1.37977E-01
 -1      3703 3.04593E-01
 -1      3704 2.59402E-01
 -1      3705 4.29454E-01
 -1      3706 3.68526E-01
 -1      3707 3.72077E-01
 -1      3708 5.86640E-01
 -1      3709 5.04770E-01
 -1      3710 5.11324E-01
 -1      3711 7.72897E-01
 -1      3712 6.79769E-01
 -1      3713 6.79769E-01
 -1      3714 1.00226E+00
 -1      3715 9.13081E-01
 -1      3716 9.13081E-01
 -1      3717 1.43878E+00
 -1      3718 1.31915E+00
 -1      3719 1.37016E+00
 -1      3720 1.79962E+00
 -1      3721 1.63135E+00
 -1      3722 1.87963E+00
 -1      3723 1.93130E+00
 -1      3724 1.72917E+00
 -1      3725 2.60753E+00
 -1      3726 2.47817E+00
 -1      3727 3.02505E+00
 -1      3728 2.60231E+00
 -1      3729 3.18874E+00
 -1      3730 3.32509E+00
 -1      3731 2.58865E+00
 -1      3732 3.33876E+00
 -1      3733 2.99391E+00
 -1      3734 3.32509E+00
 -1      3735 1.82255E+00
 -1      3736 2.35183E+00
 -1      3737 1.26514E+00
 -1      3738 1.38067E+00
 -1      3739 1.90995E+00
 -1      3740 1.10457E+00
 -1      3741 1.18172E+00
 -1      3742 1.38465E+00
 -1      3743 8.44518E-01
 -1      3744 9.34436E-01
 -1      3745 1.13109E+00
 -1      3746 6.27936E-01
 -1      3747 7.28088E-01
 -1      3748 8.44518E-01
 -1      3749 4.61105E-01
 -1      3750 5.32134E-01
 -1      3751 6.32286E-01
 -1      3752 3.34746E-01
 -1      3753 3.92754E-01
 -1      3754 4.68133E-01
 -1      3755 2.47723E-01
 -1      3756 2.80981E-01
 -1      3757 3.46017E-01
 -1      3758 1.86533E-01
 -1      3759 2.11643E-01
 -1      3760 2.56172E-01
 -1      3761 1.78085E-01
 -1      3762 1.79485E-01
 -1      3763 2.13043E-01
 -1      3764 2.50682E+00
 -1      3765 3.27040E+00
 -1      3766 2.20043E+00
 -1      3767 2.72013E-01
 -1      3768 2.37723E-01
 -1      3769 1.97528E-01
 -1      3770 2.13718E-01
 -1      3771 1.84857E-01
 -1      3772 1.73405E-01
 -1      3773 2.72013E-01
 -1      3774 4.10684E+00
 -1      3775 3.23935E+00
 -1      3776 4.70495E+00
 -1      3777 4.10914E+00
 -1      3778 4.11274E+00
 -1      3779 4.74213E+00
 -1      3780 4.57894E+00
 -1      3781 4.33841E+00
 -1      3782 2.20390E-01
 -1      3783 1.88261E-01
 -1      3784 1.94899E-01
 -1      3785 2.66459E+00
 -1      3786 2.35744E+00
 -1      3787 2.99391E+00
 -1      3788 2.02267E+00
 -1      3789 1.69891E+00
 -1      3790 1.46813E+00
 -1      3791 6.45720E-02
 -1      3792 7.35031E-02
 -1      3793 1.52240E-01
 -1      3794 1.40178E-01
 -1      3795 1.14196E-01
 -1      3796 1.24624E-01
 -1      3797 3.46890E+00
 -1      3798 4.11912E+00
 -1      3799 1.33380E-01
 -1      3800 1.45734E-01
 -1      3801 7.98368E-02
 -1      3802 7.60439E-02
 -1      3803 8.95813E-02
 -1      3804 2.50728E+00
 -1      3805 2.20199E+00
 -1      3806 2.69132E-01
 -1      3807 3.32576E+00
 -1      3808 2.54314E-01
 -1      3809 2.16258E+00
 -1      3810 2.01275E+00
 -1      3811 2.16101E+00
 -1      3812 1.72070E+00
 -1      3813 1.49268E-01
 -1      3814 1.24247E-01
 -1      3815 1.54775E-01
 -1      3816 3.06910E+00
 -1      3817 2.64396E+00
 -1      3818 2.49892E+00
 -1      3819 1.01868E-01
 -1      3820 7.74599E-02
 -1      3821 6.81932E-02
 -1      3822 2.00175E+00
 -1      3823 3.18874E+00
 -1      3824 2.66273E+00
 -1      3825 2.50728E+00
 -1      3826 2.62258E+00
 -1      3827 3.54429E+00
 -1      3828 3.57237E+00
 -1      3829 1.57935E-01
 -1      3830 1.85844E-01
 -1      3831 1.39251E-01
 -1      3832 1.47556E-01
 -1      3833 1.25070E-01
 -1      3834 2.02576E-01
 -1      3835 2.22269E-01
 -1      3836 4.01285E+00
 -1      3837 5.11222E+00
 -1      3838 4.41036E+00
 -1      3839 3.32509E+00
 -1      3840 1.38026E-01
 -1      3841 1.33541E-01
 -1      3842 1.97025E-01
 -1      3843 1.43816E-01
 -1      3844 1.39877E-01
 -1      3845 1.55419E-01
 -1      3846 3.31730E+00
 -1      3847 2.70142E+00
 -1      3848 3.15735E+00
 -1      3849 1.65694E-01
 -1      3850 1.39877E-01
 -1      3851 6.00453E-02
 -1      3852 6.15060E-02
 -1      3853 7.93119E-02
 -1      3854 1.55414E-01
 -1      3855 1.16416E-01
 -1      3856 1.82946E-01
 -1      3857 1.82946E-01
 -1      3858 1.70594E-01
 -1      3859 1.15002E-01
 -1      3860 1.24686E-01
 -1      3861 1.18209E-01
 -1      3862 1.30760E+01
 -1      3863 1.59251E-01
 -1      3864 1.59251E-01
 -1      3865 1.66369E-01
 -1      3866 2.07219E+00
 -1      3867 7.42300E-02
 -1      3868 2.55476E+00
 -1      3869 1.25775E-01
 -1      3870 1.14834E-01
 -1      3871 1.13223E-01
 -1      3872 1.13004E-01
 -1      3873 1.06824E-01
 -1      3874 9.86790E-02
 -1      3875 1.03491E-01
 -1      3876 9.65799E-02
 -1      3877 9.51268E-02
 -1      3878 9.92073E-02
 -1      3879 9.59525E-02
 -1      3880 9.44211E-02
 -1      3881 9.97276E-02
 -1      3882 1.03094E-01
 -1      3883 1.00824E-01
 -1      3884 1.09090E-01
 -1      3885 1.16936E-01
 -1      3886 1.10594E-01
 -1      3887 1.29009E-01
 -1      3888 1.48250E-01
 -1      3889 1.28663E-01
 -1      3890 1.67239E-01
 -1      3891 1.96294E-01
 -1      3892 1.59726E-01
 -1      3893 2.21979E-01
 -1      3894 2.64442E-01
 -1      3895 2.04400E-01
 -1      3896 2.98798E-01
 -1      3897 3.59155E-01
 -1      3898 2.64442E-01
 -1      3899 4.34985E-01
 -1      3900 5.17838E-01
 -1      3901 3.74628E-01
 -1      3902 6.36772E-01
 -1      3903 7.55969E-01
 -1      3904 5.69392E-01
 -1      3905 9.20334E-01
 -1      3906 1.18284E+00
 -1      3907 8.52691E-01
 -1      3908 1.43728E+00
 -1      3909 1.87990E+00
 -1      3910 1.27150E+00
 -1      3911 2.51681E+00
 -1      3912 2.88782E+00
 -1      3913 9.59061E-01
 -1      3914 7.98958E-01
 -1      3915 3.26618E-01
 -1      3916 2.87607E-01
 -1      3917 6.33529E-01
 -1      3918 5.19316E-01
 -1      3919 6.94063E-01
 -1      3920 4.34786E-01
 -1      3921 3.53745E-01
 -1      3922 4.44104E-01
 -1      3923 3.06136E-01
 -1      3924 2.49597E-01
 -1      3925 3.11965E-01
 -1      3926 1.68865E-01
 -1      3927 1.47164E-01
 -1      3928 6.11269E-01
 -1      3929 5.35954E-01
 -1      3930 4.61624E-01
 -1      3931 3.97691E-01
 -1      3932 5.61568E-01
 -1      3933 1.12732E+00
 -1      3934 9.87132E-01
 -1      3935 2.36219E+00
 -1      3936 2.47817E+00
 -1      3937 1.70855E-01
 -1      3938 8.68713E-01
 -1      3939 9.85143E-01
 -1      3940 6.80405E-01
 -1      3941 7.76207E-01
 -1      3942 9.16832E-01
 -1      3943 4.97905E-01
 -1      3944 5.66256E-01
 -1      3945 7.10177E-01
 -1      3946 3.68148E-01
 -1      3947 4.21913E-01
 -1      3948 5.20036E-01
 -1      3949 2.68357E-01
 -1      3950 3.04438E-01
 -1      3951 3.80333E-01
 -1      3952 2.07486E-01
 -1      3953 2.14534E-01
 -1      3954 2.62800E-01
 -1      3955 1.85844E-01
 -1      3956 2.05994E-01
 -1      3957 2.07486E-01
 -1      3958 1.85844E-01
 -1      3959 1.38873E-01
 -1      3960 1.81912E-01
 -1      3961 1.54710E-01
 -1      3962 1.64985E-01
 -1      3963 1.85136E-01
 -1      3964 3.39427E+00
 -1      3965 1.31964E-01
 -1      3966 1.50795E-01
 -1      3967 1.59635E-01
 -1      3968 3.38085E+00
 -1      3969 2.22269E-01
 -1      3970 2.22269E-01
 -1      3971 1.49867E-01
 -1      3972 1.90224E-01
 -1      3973 4.11912E+00
 -1      3974 3.95556E+00
 -1      3975 3.33876E+00
 -1      3976 3.96194E+00
 -1      3977 1.65717E-01
 -1      3978 1.59251E-01
 -1      3979 1.87594E-01
 -1      3980 1.78004E-01
 -1      3981 2.31722E-01
 -1      3982 1.96501E-01
 -1      3983 2.05688E-01
 -1      3984 1.13109E+00
 -1      3985 1.30122E+00
 -1      3986 1.15528E+00
 -1      3987 1.65968E+00
 -1      3988 1.74310E+00
 -1      3989 1.99573E+00
 -1      3990 1.65968E+00
 -1      3991 9.56858E-02
 -1      3992 1.07538E-01
 -1      3993 8.84822E-02
 -1      3994 8.37899E-02
 -1      3995 8.68559E-02
 -1      3996 8.20667E-01
 -1      3997 7.27538E-01
 -1      3998 1.03490E+00
 -1      3999 4.25102E+00
 -1      4000 3.54614E+00
 -1      4001 3.37687E+00
 -1      4002 1.53339E+00
 -1      4003 1.12389E+00
 -1      4004 1.02432E+00
 -1      4005 1.37161E-01
 -1      4006 1.65842E-01
 -1      4007 1.33787E-01
 -1      4008 1.03117E-01
 -1      4009 1.09061E-01
 -1      4010 9.31254E-02
 -1      4011 1.80324E-01
 -1      4012 1.59099E-01
 -1      4013 1.68666E-01
 -1      4014 8.16719E-02
 -1      4015 8.42128E-02
 -1      4016 9.12319E-02
 -1      4017 2.16285E+00
 -1      4018 1.55022E-01
 -1      4019 1.24134E-01
 -1      4020 1.09726E-01
 -1      4021 2.89208E-01
 -1      4022 3.49994E+00
 -1      4023 3.26452E+00
 -1      4024 2.82404E+00
 -1      4025 1.02051E-01
 -1      4026 2.11216E-01
 -1      4027 3.28948E+00
 -1      4028 3.37687E+00
 -1      4029 3.12021E+00
 -1      4030 8.75894E-02
 -1      4031 9.22754E-02
 -1      4032 7.65106E-02
 -1      4033 1.27946E-01
 -1      4034 4.16165E-01
 -1      4035 2.47568E+00
 -1      4036 1.80055E+00
 -1      4037 1.48365E+00
 -1      4038 1.03603E-01
 -1      4039 1.12297E-01
 -1      4040 3.25807E+00
 -1      4041 3.25169E+00
 -1      4042 2.45986E+00
 -1      4043 3.61809E+00
 -1      4044 9.31423E-02
 -1      4045 8.49944E-02
 -1      4046 1.15408E-01
 -1      4047 1.17284E-01
 -1      4048 1.22345E-01
 -1      4049 1.02677E-01
 -1      4050 1.63230E-01
 -1      4051 1.20687E-01
 -1      4052 1.10258E-01
 -1      4053 1.24061E-01
 -1      4054 1.43691E-01
 -1      4055 1.43691E-01
 -1      4056 8.14134E-02
 -1      4057 3.38085E+00
 -1      4058 2.25975E-01
 -1      4059 1.43691E-01
 -1      4060 9.76204E-02
 -1      4061 7.52167E-01
 -1      4062 2.43491E+00
 -1      4063 2.49892E+00
 -1      4064 1.87763E+00
 -1      4065 1.53339E+00
 -1      4066 2.49892E+00
 -1      4067 9.71583E-02
 -1      4068 1.55770E+00
 -1      4069 1.86627E-01
 -1      4070 2.07486E-01
 -1      4071 2.08977E-01
 -1      4072 9.90597E-02
 -1      4073 9.57266E-02
 -1      4074 9.44209E-02
 -1      4075 9.70483E-02
 -1      4076 9.83537E-02
 -1      4077 9.97818E-02
 -1      4078 1.03557E-01
 -1      4079 9.97816E-02
 -1      4080 1.06426E-01
 -1      4081 1.12422E-01
 -1      4082 1.05384E-01
 -1      4083 1.17301E-01
 -1      4084 1.29374E-01
 -1      4085 1.13133E-01
 -1      4086 1.44294E-01
 -1      4087 1.63283E-01
 -1      4088 1.32932E-01
 -1      4089 1.96738E-01
 -1      4090 2.22422E-01
 -1      4091 1.81305E-01
 -1      4092 2.72650E-01
 -1      4093 3.07006E-01
 -1      4094 2.64987E-01
 -1      4095 3.79394E-01
 -1      4096 4.55224E-01
 -1      4097 3.87602E-01
 -1      4098 5.53942E-01
 -1      4099 6.72876E-01
 -1      4100 5.58708E-01
 -1      4101 7.96190E-01
 -1      4102 9.60555E-01
 -1      4103 7.80740E-01
 -1      4104 1.13674E+00
 -1      4105 1.39118E+00
 -1      4106 1.08023E+00
 -1      4107 1.91153E+00
 -1      4108 2.54844E+00
 -1      4109 2.74269E-01
 -1      4110 2.46633E-01
 -1      4111 5.82120E-01
 -1      4112 4.97590E-01
 -1      4113 3.12953E+00
 -1      4114 8.90983E-02
 -1      4115 9.52028E-02
 -1      4116 9.09334E-02
 -1      4117 1.02432E+00
 -1      4118 8.59493E-01
 -1      4119 4.02541E-01
 -1      4120 3.46657E-01
 -1      4121 3.87602E-01
 -1      4122 1.40621E-01
 -1      4123 9.46043E-01
 -1      4124 1.06019E+00
 -1      4125 1.27568E+00
 -1      4126 1.36818E+00
 -1      4127 1.51155E+00
 -1      4128 5.30138E-01
 -1      4129 5.93848E-01
 -1      4130 3.41178E-01
 -1      4131 3.95001E-01
 -1      4132 6.08516E-01
 -1      4133 3.41178E-01
 -1      4134 5.72332E-01
 -1      4135 5.01259E-01
 -1      4136 5.58708E-01
 -1      4137 9.92787E-02
 -1      4138 9.90597E-02
 -1      4139 9.96594E-02
 -1      4140 3.26020E+00
 -1      4141 3.10085E+00
 -1      4142 1.34347E-01
 -1      4143 1.10818E-01
 -1      4144 6.92784E-01
 -1      4145 7.68777E-01
 -1      4146 8.42589E-01
 -1      4147 9.22555E-02
 -1      4148 9.22555E-02
 -1      4149 1.05915E-01
 -1      4150 1.53355E+00
 -1      4151 1.67950E+00
 -1      4152 1.89240E+00
 -1      4153 7.80676E-01
 -1      4154 7.06346E-01
 -1      4155 7.91440E-01
 -1      4156 2.25975E-01
 -1      4157 1.52121E+00
 -1      4158 1.35474E+00
 -1      4159 1.06243E+00
 -1      4160 9.46157E-01
 -1      4161 1.54873E+00
 -1      4162 1.30752E-01
 -1      4163 2.45731E+00
 -1      4164 9.38336E-02
 -1      4165 1.01298E-01
 -1      4166 9.53854E-02
 -1      4167 9.44497E-02
 -1      4168 8.01573E-01
 -1      4169 6.36144E-01
 -1      4170 8.01573E-01
 -1      4171 1.08419E-01
 -1      4172 1.07214E-01
 -1      4173 8.73527E-02
 -1      4174 9.31254E-02
 -1      4175 2.18706E-01
 -1      4176 2.35785E+00
 -1      4177 2.71575E+00
 -1      4178 2.54648E+00
 -1      4179 1.02335E-01
 -1      4180 9.71507E-02
 -1      4181 1.13133E-01
 -1      4182 1.96406E-01
 -1      4183 1.73376E-01
 -1      4184 2.64987E-01
 -1      4185 1.77677E+00
 -1      4186 1.16071E-01
 -1      4187 2.38487E+00
 -1      4188 2.06909E+00
 -1      4189 2.90149E+00
 -1      4190 3.60997E-01
 -1      4191 3.13387E-01
 -1      4192 1.24260E+00
 -1      4193 1.07778E+00
 -1      4194 1.58684E+00
 -1      4195 2.13978E+00
 -1      4196 2.63348E-01
 -1      4197 2.85698E-01
 -1      4198 4.17899E-01
 -1      4199 2.67737E-01
 -1      4200 1.11879E+00
 -1      4201 3.35243E+00
 -1      4202 2.23413E+00
 -1      4203 6.89629E-01
 -1      4204 9.35061E-02
 -1      4205 1.42905E-01
 -1      4206 1.26321E-01
 -1      4207 1.84289E-01
 -1      4208 9.04001E-02
 -1      4209 9.53872E-02
 -1      4210 2.74728E+00
 -1      4211 1.87779E+00
 -1      4212 9.30806E-02
 -1      4213 9.53854E-02
 -1      4214 8.80953E-02
 -1      4215 1.09093E+00
 -1      4216 2.02641E+00
 -1      4217 2.19763E+00
 -1      4218 7.65106E-02
 -1      4219 1.35915E-01
 -1      4220 4.99012E-01
 -1      4221 9.70480E-02
 -1      4222 9.97816E-02
 -1      4223 1.02515E-01
 -1      4224 1.05384E-01
 -1      4225 9.97816E-02
 -1      4226 1.08254E-01
 -1      4227 1.13133E-01
 -1      4228 1.18012E-01
 -1      4229 1.32932E-01
 -1      4230 1.50834E-01
 -1      4231 1.84289E-01
 -1      4232 2.14760E-01
 -1      4233 2.64987E-01
 -1      4234 3.15214E-01
 -1      4235 3.87602E-01
 -1      4236 4.59990E-01
 -1      4237 5.58708E-01
 -1      4238 6.57426E-01
 -1      4239 7.80740E-01
 -1      4240 9.14754E-01
 -1      4241 1.09093E+00
 -1      4242 1.77677E+00
 -1      4243 1.25642E+00
 -1      4244 9.63700E-02
 -1      4245 9.50643E-02
 -1      4246 2.67737E-01
 -1      4247 9.42815E-02
 -1      4248 9.91670E-02
 -1      4249 1.29606E+00
 -1      4250 1.51155E+00
 -1      4251 8.73280E-01
 -1      4252 8.15360E-01
 -1      4253 1.11879E+00
 -1      4254 1.29606E+00
 -1      4255 2.40469E+00
 -1      4256 2.40036E+00
 -1      4257 9.35061E-02
 -1      4258 9.96594E-02
 -1      4259 9.96594E-02
 -1      4260 1.12069E-01
 -1      4261 1.84989E+00
 -1      4262 2.01526E+00
 -1      4263 7.43653E-01
 -1      4264 6.89629E-01
 -1      4265 9.64334E-02
 -1      4266 9.50643E-02
 -1      4267 3.62419E-01
 -1      4268 1.05384E-01
 -1      4269 8.15360E-01
 -1      4270 1.63440E+00
 -1      4271 9.50643E-02
 -1      4272 1.03662E-01
 -1      4273 4.99012E-01
 -1      4274 9.14296E-01
 -1      4275 9.13847E-02
 -1      4276 5.54492E-01
 -1      4277 2.21648E+00
 -1      4278 1.59519E+00
 -1      4279 1.30441E+00
 -1      4280 1.30441E+00
 -1      4281 1.64275E+00
 -1      4282 9.13847E-02
 -1      4283 1.29606E+00
 -1      4284 1.09156E+00
 -3
 9999
