    1C
    1UUSER                                                              
    1UDATE              27.october.2022                                 
    1UTIME              00:31:44                                        
    1UHOST                                                              
    1UPGM               CalculiX                                        
    1UVERSION           Version 2.17                             
    1UCOMPILETIME       Thu Jul 23 21:43:50 CEST 2020                    
    1UDIR                                                               
    1UDBN                                                               
    1UMAT    1SOLIDMATERIAL                                             
    2C                          4366                                     1
 -1         1 4.36364E+01 4.02781E+01 0.00000E+00
 -1         2 5.69881E+01 3.73362E+01 0.00000E+00
 -1         3 1.50000E+02 0.00000E+00 0.00000E+00
 -1         4 1.50000E+02 5.00000E+01 0.00000E+00
 -1         5 0.00000E+00 0.00000E+00 0.00000E+00
 -1         6 0.00000E+00 5.00000E+01 0.00000E+00
 -1         7 0.00000E+00 4.70500E+01 0.00000E+00
 -1         8 0.00000E+00 4.41000E+01 0.00000E+00
 -1         9 0.00000E+00 4.11500E+01 0.00000E+00
 -1        10 0.00000E+00 3.82000E+01 0.00000E+00
 -1        11 0.00000E+00 3.52500E+01 0.00000E+00
 -1        12 0.00000E+00 3.23500E+01 0.00000E+00
 -1        13 0.00000E+00 2.94000E+01 0.00000E+00
 -1        14 0.00000E+00 2.64500E+01 0.00000E+00
 -1        15 0.00000E+00 2.35000E+01 0.00000E+00
 -1        16 0.00000E+00 2.05500E+01 0.00000E+00
 -1        17 0.00000E+00 1.76000E+01 0.00000E+00
 -1        18 0.00000E+00 1.47000E+01 0.00000E+00
 -1        19 0.00000E+00 1.17500E+01 0.00000E+00
 -1        20 0.00000E+00 8.80000E+00 0.00000E+00
 -1        21 0.00000E+00 5.85000E+00 0.00000E+00
 -1        22 0.00000E+00 2.90000E+00 0.00000E+00
 -1        23 3.00000E+00 5.00000E+01 0.00000E+00
 -1        24 6.00000E+00 5.00000E+01 0.00000E+00
 -1        25 9.00000E+00 5.00000E+01 0.00000E+00
 -1        26 1.20000E+01 5.00000E+01 0.00000E+00
 -1        27 1.50000E+01 5.00000E+01 0.00000E+00
 -1        28 1.78500E+01 5.00000E+01 0.00000E+00
 -1        29 2.08500E+01 5.00000E+01 0.00000E+00
 -1        30 2.38500E+01 5.00000E+01 0.00000E+00
 -1        31 2.68500E+01 5.00000E+01 0.00000E+00
 -1        32 2.98500E+01 5.00000E+01 0.00000E+00
 -1        33 3.28500E+01 5.00000E+01 0.00000E+00
 -1        34 3.57000E+01 5.00000E+01 0.00000E+00
 -1        35 3.87000E+01 5.00000E+01 0.00000E+00
 -1        36 4.17000E+01 5.00000E+01 0.00000E+00
 -1        37 4.45500E+01 5.00000E+01 0.00000E+00
 -1        38 4.69500E+01 5.00000E+01 0.00000E+00
 -1        39 4.92000E+01 5.00000E+01 0.00000E+00
 -1        40 5.14500E+01 5.00000E+01 0.00000E+00
 -1        41 5.34000E+01 5.00000E+01 0.00000E+00
 -1        42 5.56500E+01 5.00000E+01 0.00000E+00
 -1        43 5.80500E+01 5.00000E+01 0.00000E+00
 -1        44 6.09000E+01 5.00000E+01 0.00000E+00
 -1        45 6.37500E+01 5.00000E+01 0.00000E+00
 -1        46 6.67500E+01 5.00000E+01 0.00000E+00
 -1        47 6.97500E+01 5.00000E+01 0.00000E+00
 -1        48 7.27500E+01 5.00000E+01 0.00000E+00
 -1        49 7.57500E+01 5.00000E+01 0.00000E+00
 -1        50 7.87500E+01 5.00000E+01 0.00000E+00
 -1        51 8.16000E+01 5.00000E+01 0.00000E+00
 -1        52 8.46000E+01 5.00000E+01 0.00000E+00
 -1        53 8.76000E+01 5.00000E+01 0.00000E+00
 -1        54 9.06000E+01 5.00000E+01 0.00000E+00
 -1        55 9.36000E+01 5.00000E+01 0.00000E+00
 -1        56 9.66000E+01 5.00000E+01 0.00000E+00
 -1        57 9.94500E+01 5.00000E+01 0.00000E+00
 -1        58 1.02450E+02 5.00000E+01 0.00000E+00
 -1        59 1.05450E+02 5.00000E+01 0.00000E+00
 -1        60 1.08450E+02 5.00000E+01 0.00000E+00
 -1        61 1.11450E+02 5.00000E+01 0.00000E+00
 -1        62 1.14450E+02 5.00000E+01 0.00000E+00
 -1        63 1.17300E+02 5.00000E+01 0.00000E+00
 -1        64 1.20300E+02 5.00000E+01 0.00000E+00
 -1        65 1.23300E+02 5.00000E+01 0.00000E+00
 -1        66 1.26300E+02 5.00000E+01 0.00000E+00
 -1        67 1.29300E+02 5.00000E+01 0.00000E+00
 -1        68 1.32300E+02 5.00000E+01 0.00000E+00
 -1        69 1.35150E+02 5.00000E+01 0.00000E+00
 -1        70 1.38150E+02 5.00000E+01 0.00000E+00
 -1        71 1.41150E+02 5.00000E+01 0.00000E+00
 -1        72 1.44150E+02 5.00000E+01 0.00000E+00
 -1        73 1.47150E+02 5.00000E+01 0.00000E+00
 -1        74 3.15000E+00 0.00000E+00 0.00000E+00
 -1        75 6.15000E+00 0.00000E+00 0.00000E+00
 -1        76 9.15000E+00 0.00000E+00 0.00000E+00
 -1        77 1.21500E+01 0.00000E+00 0.00000E+00
 -1        78 1.51500E+01 0.00000E+00 0.00000E+00
 -1        79 1.81500E+01 0.00000E+00 0.00000E+00
 -1        80 2.11500E+01 0.00000E+00 0.00000E+00
 -1        81 2.41500E+01 0.00000E+00 0.00000E+00
 -1        82 2.71500E+01 0.00000E+00 0.00000E+00
 -1        83 3.01500E+01 0.00000E+00 0.00000E+00
 -1        84 3.31500E+01 0.00000E+00 0.00000E+00
 -1        85 3.61500E+01 0.00000E+00 0.00000E+00
 -1        86 3.91500E+01 0.00000E+00 0.00000E+00
 -1        87 4.21500E+01 0.00000E+00 0.00000E+00
 -1        88 4.51500E+01 0.00000E+00 0.00000E+00
 -1        89 4.81500E+01 0.00000E+00 0.00000E+00
 -1        90 5.11500E+01 0.00000E+00 0.00000E+00
 -1        91 5.41500E+01 0.00000E+00 0.00000E+00
 -1        92 5.71500E+01 0.00000E+00 0.00000E+00
 -1        93 6.01500E+01 0.00000E+00 0.00000E+00
 -1        94 6.31500E+01 0.00000E+00 0.00000E+00
 -1        95 6.61500E+01 0.00000E+00 0.00000E+00
 -1        96 6.91500E+01 0.00000E+00 0.00000E+00
 -1        97 7.21500E+01 0.00000E+00 0.00000E+00
 -1        98 7.51500E+01 0.00000E+00 0.00000E+00
 -1        99 7.81500E+01 0.00000E+00 0.00000E+00
 -1       100 8.11500E+01 0.00000E+00 0.00000E+00
 -1       101 8.41500E+01 0.00000E+00 0.00000E+00
 -1       102 8.71500E+01 0.00000E+00 0.00000E+00
 -1       103 9.01500E+01 0.00000E+00 0.00000E+00
 -1       104 9.31500E+01 0.00000E+00 0.00000E+00
 -1       105 9.61500E+01 0.00000E+00 0.00000E+00
 -1       106 9.91500E+01 0.00000E+00 0.00000E+00
 -1       107 1.02150E+02 0.00000E+00 0.00000E+00
 -1       108 1.05150E+02 0.00000E+00 0.00000E+00
 -1       109 1.08150E+02 0.00000E+00 0.00000E+00
 -1       110 1.11150E+02 0.00000E+00 0.00000E+00
 -1       111 1.14150E+02 0.00000E+00 0.00000E+00
 -1       112 1.17150E+02 0.00000E+00 0.00000E+00
 -1       113 1.20150E+02 0.00000E+00 0.00000E+00
 -1       114 1.23150E+02 0.00000E+00 0.00000E+00
 -1       115 1.26150E+02 0.00000E+00 0.00000E+00
 -1       116 1.29150E+02 0.00000E+00 0.00000E+00
 -1       117 1.32150E+02 0.00000E+00 0.00000E+00
 -1       118 1.35150E+02 0.00000E+00 0.00000E+00
 -1       119 1.38150E+02 0.00000E+00 0.00000E+00
 -1       120 1.41150E+02 0.00000E+00 0.00000E+00
 -1       121 1.44150E+02 0.00000E+00 0.00000E+00
 -1       122 1.47150E+02 0.00000E+00 0.00000E+00
 -1       123 1.50000E+02 2.95000E+00 0.00000E+00
 -1       124 1.50000E+02 5.90000E+00 0.00000E+00
 -1       125 1.50000E+02 8.85000E+00 0.00000E+00
 -1       126 1.50000E+02 1.18000E+01 0.00000E+00
 -1       127 1.50000E+02 1.47500E+01 0.00000E+00
 -1       128 1.50000E+02 1.76500E+01 0.00000E+00
 -1       129 1.50000E+02 2.06000E+01 0.00000E+00
 -1       130 1.50000E+02 2.35500E+01 0.00000E+00
 -1       131 1.50000E+02 2.65000E+01 0.00000E+00
 -1       132 1.50000E+02 2.94500E+01 0.00000E+00
 -1       133 1.50000E+02 3.24000E+01 0.00000E+00
 -1       134 1.50000E+02 3.53000E+01 0.00000E+00
 -1       135 1.50000E+02 3.82500E+01 0.00000E+00
 -1       136 1.50000E+02 4.12000E+01 0.00000E+00
 -1       137 1.50000E+02 4.41500E+01 0.00000E+00
 -1       138 1.50000E+02 4.71000E+01 0.00000E+00
 -1       139 5.68379E+01 3.58939E+01 0.00000E+00
 -1       140 5.63903E+01 3.45057E+01 0.00000E+00
 -1       141 5.56560E+01 3.32282E+01 0.00000E+00
 -1       142 5.46967E+01 3.21564E+01 0.00000E+00
 -1       143 5.35658E+01 3.13195E+01 0.00000E+00
 -1       144 5.21935E+01 3.06927E+01 0.00000E+00
 -1       145 5.07823E+01 3.03814E+01 0.00000E+00
 -1       146 4.93051E+01 3.03696E+01 0.00000E+00
 -1       147 4.78572E+01 3.06684E+01 0.00000E+00
 -1       148 4.65697E+01 3.12277E+01 0.00000E+00
 -1       149 4.52728E+01 3.21626E+01 0.00000E+00
 -1       150 4.43294E+01 3.32156E+01 0.00000E+00
 -1       151 4.35374E+01 3.46180E+01 0.00000E+00
 -1       152 4.31191E+01 3.59884E+01 0.00000E+00
 -1       153 4.29905E+01 3.75193E+01 0.00000E+00
 -1       154 4.31738E+01 3.89375E+01 0.00000E+00
 -1       155 4.43681E+01 4.15093E+01 0.00000E+00
 -1       156 4.54165E+01 4.26372E+01 0.00000E+00
 -1       157 4.65988E+01 4.34609E+01 0.00000E+00
 -1       158 4.78640E+01 4.40061E+01 0.00000E+00
 -1       159 4.92378E+01 4.42958E+01 0.00000E+00
 -1       160 5.07156E+01 4.42983E+01 0.00000E+00
 -1       161 5.21537E+01 4.39928E+01 0.00000E+00
 -1       162 5.34477E+01 4.34215E+01 0.00000E+00
 -1       163 5.46739E+01 4.25365E+01 0.00000E+00
 -1       164 5.56728E+01 4.14209E+01 0.00000E+00
 -1       165 5.63703E+01 4.02115E+01 0.00000E+00
 -1       166 5.68268E+01 3.88303E+01 0.00000E+00
 -1       167 2.59800E+00 4.55750E+01 0.00000E+00
 -1       168 2.59800E+00 4.26250E+01 0.00000E+00
 -1       169 2.59800E+00 3.96750E+01 0.00000E+00
 -1       170 2.59800E+00 3.67250E+01 0.00000E+00
 -1       171 2.59800E+00 3.38250E+01 0.00000E+00
 -1       172 2.59800E+00 3.08750E+01 0.00000E+00
 -1       173 2.59800E+00 2.79250E+01 0.00000E+00
 -1       174 2.59800E+00 2.49750E+01 0.00000E+00
 -1       175 2.59800E+00 2.20250E+01 0.00000E+00
 -1       176 2.59800E+00 1.90750E+01 0.00000E+00
 -1       177 2.59800E+00 1.61750E+01 0.00000E+00
 -1       178 2.59800E+00 1.32250E+01 0.00000E+00
 -1       179 2.59800E+00 1.02750E+01 0.00000E+00
 -1       180 2.59800E+00 7.32500E+00 0.00000E+00
 -1       181 2.59800E+00 4.37500E+00 0.00000E+00
 -1       182 2.87400E+00 2.18750E+00 0.00000E+00
 -1       183 4.50000E+00 4.74020E+01 0.00000E+00
 -1       184 7.50000E+00 4.74020E+01 0.00000E+00
 -1       185 1.05000E+01 4.74020E+01 0.00000E+00
 -1       186 1.35000E+01 4.74020E+01 0.00000E+00
 -1       187 1.63500E+01 4.74020E+01 0.00000E+00
 -1       188 1.93500E+01 4.74020E+01 0.00000E+00
 -1       189 2.23500E+01 4.74020E+01 0.00000E+00
 -1       190 2.53500E+01 4.74020E+01 0.00000E+00
 -1       191 2.83500E+01 4.74020E+01 0.00000E+00
 -1       192 3.13500E+01 4.74020E+01 0.00000E+00
 -1       193 3.42000E+01 4.74020E+01 0.00000E+00
 -1       194 3.72000E+01 4.74020E+01 0.00000E+00
 -1       195 4.02000E+01 4.74020E+01 0.00000E+00
 -1       196 4.30500E+01 4.74020E+01 0.00000E+00
 -1       197 4.80750E+01 4.81173E+01 0.00000E+00
 -1       198 5.03250E+01 4.81173E+01 0.00000E+00
 -1       199 5.22750E+01 4.81173E+01 0.00000E+00
 -1       200 5.45250E+01 4.81173E+01 0.00000E+00
 -1       201 5.69250E+01 4.81173E+01 0.00000E+00
 -1       202 5.97750E+01 4.81173E+01 0.00000E+00
 -1       203 6.26250E+01 4.81173E+01 0.00000E+00
 -1       204 6.56250E+01 4.81173E+01 0.00000E+00
 -1       205 6.86250E+01 4.81173E+01 0.00000E+00
 -1       206 7.16250E+01 4.81173E+01 0.00000E+00
 -1       207 7.46250E+01 4.81173E+01 0.00000E+00
 -1       208 7.76250E+01 4.81173E+01 0.00000E+00
 -1       209 8.04750E+01 4.81173E+01 0.00000E+00
 -1       210 8.34750E+01 4.81173E+01 0.00000E+00
 -1       211 8.64750E+01 4.81173E+01 0.00000E+00
 -1       212 8.94750E+01 4.81173E+01 0.00000E+00
 -1       213 9.24750E+01 4.81173E+01 0.00000E+00
 -1       214 9.54750E+01 4.81173E+01 0.00000E+00
 -1       215 9.83250E+01 4.81173E+01 0.00000E+00
 -1       216 1.01325E+02 4.81173E+01 0.00000E+00
 -1       217 1.04325E+02 4.81173E+01 0.00000E+00
 -1       218 1.07325E+02 4.81173E+01 0.00000E+00
 -1       219 1.10325E+02 4.81173E+01 0.00000E+00
 -1       220 1.13325E+02 4.81173E+01 0.00000E+00
 -1       221 1.16175E+02 4.81173E+01 0.00000E+00
 -1       222 1.19175E+02 4.81173E+01 0.00000E+00
 -1       223 1.22175E+02 4.81173E+01 0.00000E+00
 -1       224 1.25175E+02 4.81173E+01 0.00000E+00
 -1       225 1.28175E+02 4.81173E+01 0.00000E+00
 -1       226 1.31175E+02 4.81173E+01 0.00000E+00
 -1       227 1.34025E+02 4.81173E+01 0.00000E+00
 -1       228 1.37025E+02 4.81173E+01 0.00000E+00
 -1       229 1.40025E+02 4.81173E+01 0.00000E+00
 -1       230 1.43025E+02 4.81173E+01 0.00000E+00
 -1       231 1.46025E+02 4.81173E+01 0.00000E+00
 -1       232 1.48012E+02 4.76087E+01 0.00000E+00
 -1       233 5.87400E+00 2.18750E+00 0.00000E+00
 -1       234 8.87400E+00 2.18750E+00 0.00000E+00
 -1       235 1.18740E+01 2.18750E+00 0.00000E+00
 -1       236 1.48740E+01 2.18750E+00 0.00000E+00
 -1       237 1.78740E+01 2.18750E+00 0.00000E+00
 -1       238 2.08740E+01 2.18750E+00 0.00000E+00
 -1       239 2.38740E+01 2.18750E+00 0.00000E+00
 -1       240 2.68740E+01 2.18750E+00 0.00000E+00
 -1       241 2.98740E+01 2.18750E+00 0.00000E+00
 -1       242 3.28740E+01 2.18750E+00 0.00000E+00
 -1       243 3.58740E+01 2.18750E+00 0.00000E+00
 -1       244 3.88740E+01 2.18750E+00 0.00000E+00
 -1       245 4.18740E+01 2.18750E+00 0.00000E+00
 -1       246 4.48740E+01 2.18750E+00 0.00000E+00
 -1       247 4.78740E+01 2.18750E+00 0.00000E+00
 -1       248 5.08740E+01 2.18750E+00 0.00000E+00
 -1       249 5.38740E+01 2.18750E+00 0.00000E+00
 -1       250 5.68740E+01 2.18750E+00 0.00000E+00
 -1       251 5.98740E+01 2.18750E+00 0.00000E+00
 -1       252 6.28740E+01 2.18750E+00 0.00000E+00
 -1       253 6.58740E+01 2.18750E+00 0.00000E+00
 -1       254 6.88740E+01 2.18750E+00 0.00000E+00
 -1       255 7.18740E+01 2.18750E+00 0.00000E+00
 -1       256 7.48740E+01 2.18750E+00 0.00000E+00
 -1       257 7.78740E+01 2.18750E+00 0.00000E+00
 -1       258 8.08740E+01 2.18750E+00 0.00000E+00
 -1       259 8.38740E+01 2.18750E+00 0.00000E+00
 -1       260 8.68740E+01 2.18750E+00 0.00000E+00
 -1       261 8.98740E+01 2.18750E+00 0.00000E+00
 -1       262 9.28740E+01 2.18750E+00 0.00000E+00
 -1       263 9.58740E+01 2.18750E+00 0.00000E+00
 -1       264 9.88740E+01 2.18750E+00 0.00000E+00
 -1       265 1.01874E+02 2.18750E+00 0.00000E+00
 -1       266 1.04874E+02 2.18750E+00 0.00000E+00
 -1       267 1.07874E+02 2.18750E+00 0.00000E+00
 -1       268 1.10874E+02 2.18750E+00 0.00000E+00
 -1       269 1.13874E+02 2.18750E+00 0.00000E+00
 -1       270 1.16874E+02 2.18750E+00 0.00000E+00
 -1       271 1.19874E+02 2.18750E+00 0.00000E+00
 -1       272 1.22874E+02 2.18750E+00 0.00000E+00
 -1       273 1.25874E+02 2.18750E+00 0.00000E+00
 -1       274 1.28874E+02 2.18750E+00 0.00000E+00
 -1       275 1.31874E+02 2.18750E+00 0.00000E+00
 -1       276 1.34874E+02 2.18750E+00 0.00000E+00
 -1       277 1.37874E+02 2.18750E+00 0.00000E+00
 -1       278 1.40874E+02 2.18750E+00 0.00000E+00
 -1       279 1.43874E+02 2.18750E+00 0.00000E+00
 -1       280 1.46874E+02 2.18750E+00 0.00000E+00
 -1       281 1.47402E+02 4.42500E+00 0.00000E+00
 -1       282 1.47402E+02 7.37500E+00 0.00000E+00
 -1       283 1.47402E+02 1.03250E+01 0.00000E+00
 -1       284 1.47402E+02 1.32750E+01 0.00000E+00
 -1       285 1.47402E+02 1.61750E+01 0.00000E+00
 -1       286 1.47402E+02 1.91250E+01 0.00000E+00
 -1       287 1.47402E+02 2.20750E+01 0.00000E+00
 -1       288 1.47402E+02 2.50250E+01 0.00000E+00
 -1       289 1.47402E+02 2.79750E+01 0.00000E+00
 -1       290 1.47402E+02 3.09250E+01 0.00000E+00
 -1       291 1.47402E+02 3.38250E+01 0.00000E+00
 -1       292 1.47402E+02 3.67750E+01 0.00000E+00
 -1       293 1.47402E+02 3.97250E+01 0.00000E+00
 -1       294 1.47402E+02 4.26750E+01 0.00000E+00
 -1       295 1.47707E+02 4.51418E+01 0.00000E+00
 -1       296 5.82022E+01 3.64808E+01 0.00000E+00
 -1       297 5.77680E+01 3.48277E+01 0.00000E+00
 -1       298 5.70743E+01 3.32627E+01 0.00000E+00
 -1       299 5.60797E+01 3.18837E+01 0.00000E+00
 -1       300 5.48524E+01 3.07634E+01 0.00000E+00
 -1       301 5.34182E+01 2.98271E+01 0.00000E+00
 -1       302 5.17671E+01 2.92713E+01 0.00000E+00
 -1       303 5.00540E+01 2.90793E+01 0.00000E+00
 -1       304 4.83022E+01 2.91675E+01 0.00000E+00
 -1       305 4.67304E+01 2.98360E+01 0.00000E+00
 -1       306 4.50652E+01 3.05078E+01 0.00000E+00
 -1       307 4.38981E+01 3.18801E+01 0.00000E+00
 -1       308 4.25859E+01 3.31558E+01 0.00000E+00
 -1       309 4.21687E+01 3.49492E+01 0.00000E+00
 -1       310 4.16797E+01 3.66384E+01 0.00000E+00
 -1       311 4.18797E+01 3.83838E+01 0.00000E+00
 -1       312 4.21798E+01 4.00307E+01 0.00000E+00
 -1       313 4.29600E+01 4.15131E+01 0.00000E+00
 -1       314 4.38816E+01 4.30128E+01 0.00000E+00
 -1       315 4.53146E+01 4.40438E+01 0.00000E+00
 -1       316 4.67516E+01 4.48470E+01 0.00000E+00
 -1       317 4.83007E+01 4.53373E+01 0.00000E+00
 -1       318 4.99746E+01 4.55932E+01 0.00000E+00
 -1       319 5.16866E+01 4.53315E+01 0.00000E+00
 -1       320 5.32903E+01 4.48163E+01 0.00000E+00
 -1       321 5.48684E+01 4.40980E+01 0.00000E+00
 -1       322 5.61390E+01 4.28433E+01 0.00000E+00
 -1       323 5.70718E+01 4.14220E+01 0.00000E+00
 -1       324 5.78293E+01 3.99277E+01 0.00000E+00
 -1       325 5.82795E+01 3.82314E+01 0.00000E+00
 -1       326 4.57500E+01 4.77822E+01 0.00000E+00
 -1       327 5.19600E+00 4.11500E+01 0.00000E+00
 -1       328 5.19600E+00 4.41000E+01 0.00000E+00
 -1       329 5.19600E+00 3.52750E+01 0.00000E+00
 -1       330 5.19600E+00 3.23250E+01 0.00000E+00
 -1       331 5.19600E+00 2.93750E+01 0.00000E+00
 -1       332 5.19600E+00 2.64250E+01 0.00000E+00
 -1       333 5.19600E+00 2.34750E+01 0.00000E+00
 -1       334 5.19600E+00 2.05250E+01 0.00000E+00
 -1       335 5.19600E+00 1.76250E+01 0.00000E+00
 -1       336 5.19600E+00 1.46750E+01 0.00000E+00
 -1       337 5.19600E+00 1.17250E+01 0.00000E+00
 -1       338 5.19600E+00 8.77500E+00 0.00000E+00
 -1       339 5.19600E+00 5.82500E+00 0.00000E+00
 -1       340 5.53500E+00 4.00625E+00 0.00000E+00
 -1       341 8.53500E+00 4.00625E+00 0.00000E+00
 -1       342 4.46625E+01 4.57278E+01 0.00000E+00
 -1       343 9.00000E+00 4.48040E+01 0.00000E+00
 -1       344 1.20000E+01 4.48040E+01 0.00000E+00
 -1       345 1.48500E+01 4.48040E+01 0.00000E+00
 -1       346 1.78500E+01 4.48040E+01 0.00000E+00
 -1       347 2.08500E+01 4.48040E+01 0.00000E+00
 -1       348 2.38500E+01 4.48040E+01 0.00000E+00
 -1       349 2.68500E+01 4.48040E+01 0.00000E+00
 -1       350 2.98500E+01 4.48040E+01 0.00000E+00
 -1       351 3.27000E+01 4.48040E+01 0.00000E+00
 -1       352 3.57000E+01 4.48040E+01 0.00000E+00
 -1       353 3.87000E+01 4.48040E+01 0.00000E+00
 -1       354 4.15500E+01 4.48040E+01 0.00000E+00
 -1       355 5.97869E+01 3.72879E+01 0.00000E+00
 -1       356 5.34000E+01 4.64860E+01 0.00000E+00
 -1       357 5.57250E+01 4.62346E+01 0.00000E+00
 -1       358 5.85750E+01 4.62346E+01 0.00000E+00
 -1       359 6.14250E+01 4.62346E+01 0.00000E+00
 -1       360 6.44250E+01 4.62346E+01 0.00000E+00
 -1       361 6.74250E+01 4.62346E+01 0.00000E+00
 -1       362 7.04250E+01 4.62346E+01 0.00000E+00
 -1       363 7.34250E+01 4.62346E+01 0.00000E+00
 -1       364 7.64250E+01 4.62346E+01 0.00000E+00
 -1       365 7.92750E+01 4.62346E+01 0.00000E+00
 -1       366 8.22750E+01 4.62346E+01 0.00000E+00
 -1       367 8.52750E+01 4.62346E+01 0.00000E+00
 -1       368 8.82750E+01 4.62346E+01 0.00000E+00
 -1       369 9.12750E+01 4.62346E+01 0.00000E+00
 -1       370 9.42750E+01 4.62346E+01 0.00000E+00
 -1       371 9.71250E+01 4.62346E+01 0.00000E+00
 -1       372 1.00125E+02 4.62346E+01 0.00000E+00
 -1       373 1.03125E+02 4.62346E+01 0.00000E+00
 -1       374 1.06125E+02 4.62346E+01 0.00000E+00
 -1       375 1.09125E+02 4.62346E+01 0.00000E+00
 -1       376 1.12125E+02 4.62346E+01 0.00000E+00
 -1       377 1.14975E+02 4.62346E+01 0.00000E+00
 -1       378 1.17975E+02 4.62346E+01 0.00000E+00
 -1       379 1.20975E+02 4.62346E+01 0.00000E+00
 -1       380 1.23975E+02 4.62346E+01 0.00000E+00
 -1       381 1.26975E+02 4.62346E+01 0.00000E+00
 -1       382 1.29975E+02 4.62346E+01 0.00000E+00
 -1       383 1.32825E+02 4.62346E+01 0.00000E+00
 -1       384 1.35825E+02 4.62346E+01 0.00000E+00
 -1       385 1.38825E+02 4.62346E+01 0.00000E+00
 -1       386 1.41825E+02 4.62346E+01 0.00000E+00
 -1       387 1.44825E+02 4.62346E+01 0.00000E+00
 -1       388 1.46266E+02 4.56882E+01 0.00000E+00
 -1       389 1.33740E+01 4.78550E+00 0.00000E+00
 -1       390 1.63740E+01 4.78550E+00 0.00000E+00
 -1       391 1.93740E+01 4.78550E+00 0.00000E+00
 -1       392 2.23740E+01 4.78550E+00 0.00000E+00
 -1       393 2.53740E+01 4.78550E+00 0.00000E+00
 -1       394 2.83740E+01 4.78550E+00 0.00000E+00
 -1       395 3.13740E+01 4.78550E+00 0.00000E+00
 -1       396 3.43740E+01 4.78550E+00 0.00000E+00
 -1       397 3.73740E+01 4.78550E+00 0.00000E+00
 -1       398 4.03740E+01 4.78550E+00 0.00000E+00
 -1       399 4.33740E+01 4.78550E+00 0.00000E+00
 -1       400 4.63740E+01 4.78550E+00 0.00000E+00
 -1       401 4.93740E+01 4.78550E+00 0.00000E+00
 -1       402 5.23740E+01 4.78550E+00 0.00000E+00
 -1       403 5.53740E+01 4.78550E+00 0.00000E+00
 -1       404 5.83740E+01 4.78550E+00 0.00000E+00
 -1       405 6.13740E+01 4.78550E+00 0.00000E+00
 -1       406 6.43740E+01 4.78550E+00 0.00000E+00
 -1       407 6.73740E+01 4.78550E+00 0.00000E+00
 -1       408 7.03740E+01 4.78550E+00 0.00000E+00
 -1       409 7.33740E+01 4.78550E+00 0.00000E+00
 -1       410 7.63740E+01 4.78550E+00 0.00000E+00
 -1       411 7.93740E+01 4.78550E+00 0.00000E+00
 -1       412 8.23740E+01 4.78550E+00 0.00000E+00
 -1       413 8.53740E+01 4.78550E+00 0.00000E+00
 -1       414 8.83740E+01 4.78550E+00 0.00000E+00
 -1       415 9.13740E+01 4.78550E+00 0.00000E+00
 -1       416 9.43740E+01 4.78550E+00 0.00000E+00
 -1       417 9.73740E+01 4.78550E+00 0.00000E+00
 -1       418 1.00374E+02 4.78550E+00 0.00000E+00
 -1       419 1.03374E+02 4.78550E+00 0.00000E+00
 -1       420 1.06374E+02 4.78550E+00 0.00000E+00
 -1       421 1.09374E+02 4.78550E+00 0.00000E+00
 -1       422 1.12374E+02 4.78550E+00 0.00000E+00
 -1       423 1.15374E+02 4.78550E+00 0.00000E+00
 -1       424 1.18374E+02 4.78550E+00 0.00000E+00
 -1       425 1.21374E+02 4.78550E+00 0.00000E+00
 -1       426 1.24374E+02 4.78550E+00 0.00000E+00
 -1       427 1.27374E+02 4.78550E+00 0.00000E+00
 -1       428 1.30374E+02 4.78550E+00 0.00000E+00
 -1       429 1.33374E+02 4.78550E+00 0.00000E+00
 -1       430 1.36374E+02 4.78550E+00 0.00000E+00
 -1       431 1.39374E+02 4.78550E+00 0.00000E+00
 -1       432 1.42374E+02 4.78550E+00 0.00000E+00
 -1       433 1.44888E+02 4.60525E+00 0.00000E+00
 -1       434 1.44804E+02 1.18000E+01 0.00000E+00
 -1       435 1.44804E+02 8.85000E+00 0.00000E+00
 -1       436 1.44804E+02 1.47000E+01 0.00000E+00
 -1       437 1.44804E+02 1.76500E+01 0.00000E+00
 -1       438 1.44804E+02 2.06000E+01 0.00000E+00
 -1       439 1.44804E+02 2.35500E+01 0.00000E+00
 -1       440 1.44804E+02 2.65000E+01 0.00000E+00
 -1       441 1.44804E+02 2.94500E+01 0.00000E+00
 -1       442 1.44804E+02 3.23500E+01 0.00000E+00
 -1       443 1.44804E+02 3.53000E+01 0.00000E+00
 -1       444 1.44804E+02 3.82500E+01 0.00000E+00
 -1       445 1.44804E+02 4.12000E+01 0.00000E+00
 -1       446 1.09545E+01 4.39587E+00 0.00000E+00
 -1       447 5.86827E+01 3.34860E+01 0.00000E+00
 -1       448 5.66224E+01 3.00569E+01 0.00000E+00
 -1       449 5.92388E+01 3.53250E+01 0.00000E+00
 -1       450 5.19600E+00 3.82125E+01 0.00000E+00
 -1       451 5.51881E+01 2.91205E+01 0.00000E+00
 -1       452 5.30596E+01 2.81619E+01 0.00000E+00
 -1       453 5.10549E+01 2.78872E+01 0.00000E+00
 -1       454 4.91045E+01 2.76615E+01 0.00000E+00
 -1       455 4.68778E+01 2.80006E+01 0.00000E+00
 -1       456 4.52127E+01 2.86723E+01 0.00000E+00
 -1       457 4.34943E+01 3.03542E+01 0.00000E+00
 -1       458 4.21821E+01 3.16299E+01 0.00000E+00
 -1       459 4.08700E+01 3.37019E+01 0.00000E+00
 -1       460 4.03810E+01 3.53910E+01 0.00000E+00
 -1       461 4.00758E+01 3.77064E+01 0.00000E+00
 -1       462 4.03758E+01 3.93532E+01 0.00000E+00
 -1       463 4.13487E+01 4.14146E+01 0.00000E+00
 -1       464 4.22703E+01 4.29142E+01 0.00000E+00
 -1       465 4.37033E+01 4.39453E+01 0.00000E+00
 -1       466 4.70845E+01 4.64876E+01 0.00000E+00
 -1       467 5.78292E+01 4.29357E+01 0.00000E+00
 -1       468 5.86814E+01 4.12988E+01 0.00000E+00
 -1       469 5.95501E+01 3.94765E+01 0.00000E+00
 -1       470 5.76170E+01 3.14359E+01 0.00000E+00
 -1       471 5.13000E+01 4.64022E+01 0.00000E+00
 -1       472 1.45535E+02 4.34441E+01 0.00000E+00
 -1       473 5.73570E+01 4.45390E+01 0.00000E+00
 -1       474 4.90248E+01 4.68553E+01 0.00000E+00
 -1       475 4.04662E+01 3.21760E+01 0.00000E+00
 -1       476 6.15403E+01 3.85847E+01 0.00000E+00
 -1       477 7.79400E+00 3.08500E+01 0.00000E+00
 -1       478 7.79400E+00 3.38000E+01 0.00000E+00
 -1       479 7.79400E+00 2.49500E+01 0.00000E+00
 -1       480 7.79400E+00 2.20000E+01 0.00000E+00
 -1       481 7.79400E+00 1.91000E+01 0.00000E+00
 -1       482 7.79400E+00 1.61500E+01 0.00000E+00
 -1       483 7.79400E+00 1.32000E+01 0.00000E+00
 -1       484 7.79400E+00 1.02500E+01 0.00000E+00
 -1       485 7.79400E+00 7.30000E+00 0.00000E+00
 -1       486 8.16450E+00 5.65312E+00 0.00000E+00
 -1       487 1.05000E+01 4.22060E+01 0.00000E+00
 -1       488 5.69344E+01 2.80122E+01 0.00000E+00
 -1       489 1.33500E+01 4.22060E+01 0.00000E+00
 -1       490 1.63500E+01 4.22060E+01 0.00000E+00
 -1       491 1.93500E+01 4.22060E+01 0.00000E+00
 -1       492 2.23500E+01 4.22060E+01 0.00000E+00
 -1       493 2.53500E+01 4.22060E+01 0.00000E+00
 -1       494 2.83500E+01 4.22060E+01 0.00000E+00
 -1       495 3.12000E+01 4.22060E+01 0.00000E+00
 -1       496 3.42000E+01 4.22060E+01 0.00000E+00
 -1       497 3.72000E+01 4.22060E+01 0.00000E+00
 -1       498 5.48059E+01 2.70536E+01 0.00000E+00
 -1       499 6.00000E+01 4.41844E+01 0.00000E+00
 -1       500 6.30000E+01 4.41844E+01 0.00000E+00
 -1       501 6.60000E+01 4.41844E+01 0.00000E+00
 -1       502 6.90000E+01 4.41844E+01 0.00000E+00
 -1       503 7.20000E+01 4.41844E+01 0.00000E+00
 -1       504 7.50000E+01 4.41844E+01 0.00000E+00
 -1       505 7.78500E+01 4.41844E+01 0.00000E+00
 -1       506 8.08500E+01 4.41844E+01 0.00000E+00
 -1       507 8.38500E+01 4.41844E+01 0.00000E+00
 -1       508 8.68500E+01 4.41844E+01 0.00000E+00
 -1       509 8.98500E+01 4.41844E+01 0.00000E+00
 -1       510 9.28500E+01 4.41844E+01 0.00000E+00
 -1       511 9.57000E+01 4.41844E+01 0.00000E+00
 -1       512 9.87000E+01 4.41844E+01 0.00000E+00
 -1       513 1.01700E+02 4.41844E+01 0.00000E+00
 -1       514 1.04700E+02 4.41844E+01 0.00000E+00
 -1       515 1.07700E+02 4.41844E+01 0.00000E+00
 -1       516 1.10700E+02 4.41844E+01 0.00000E+00
 -1       517 1.13550E+02 4.41844E+01 0.00000E+00
 -1       518 1.16550E+02 4.41844E+01 0.00000E+00
 -1       519 1.19550E+02 4.41844E+01 0.00000E+00
 -1       520 1.22550E+02 4.41844E+01 0.00000E+00
 -1       521 1.25550E+02 4.41844E+01 0.00000E+00
 -1       522 1.28550E+02 4.41844E+01 0.00000E+00
 -1       523 1.31400E+02 4.41844E+01 0.00000E+00
 -1       524 1.34400E+02 4.41844E+01 0.00000E+00
 -1       525 1.37400E+02 4.41844E+01 0.00000E+00
 -1       526 1.40400E+02 4.41844E+01 0.00000E+00
 -1       527 1.78740E+01 7.38350E+00 0.00000E+00
 -1       528 1.48740E+01 7.38350E+00 0.00000E+00
 -1       529 2.38740E+01 7.38350E+00 0.00000E+00
 -1       530 2.68740E+01 7.38350E+00 0.00000E+00
 -1       531 2.98740E+01 7.38350E+00 0.00000E+00
 -1       532 3.28740E+01 7.38350E+00 0.00000E+00
 -1       533 3.58740E+01 7.38350E+00 0.00000E+00
 -1       534 3.88740E+01 7.38350E+00 0.00000E+00
 -1       535 4.18740E+01 7.38350E+00 0.00000E+00
 -1       536 4.48740E+01 7.38350E+00 0.00000E+00
 -1       537 4.78740E+01 7.38350E+00 0.00000E+00
 -1       538 5.08740E+01 7.38350E+00 0.00000E+00
 -1       539 5.38740E+01 7.38350E+00 0.00000E+00
 -1       540 5.68740E+01 7.38350E+00 0.00000E+00
 -1       541 5.98740E+01 7.38350E+00 0.00000E+00
 -1       542 6.28740E+01 7.38350E+00 0.00000E+00
 -1       543 6.58740E+01 7.38350E+00 0.00000E+00
 -1       544 6.88740E+01 7.38350E+00 0.00000E+00
 -1       545 7.18740E+01 7.38350E+00 0.00000E+00
 -1       546 7.48740E+01 7.38350E+00 0.00000E+00
 -1       547 7.78740E+01 7.38350E+00 0.00000E+00
 -1       548 8.08740E+01 7.38350E+00 0.00000E+00
 -1       549 8.38740E+01 7.38350E+00 0.00000E+00
 -1       550 8.68740E+01 7.38350E+00 0.00000E+00
 -1       551 8.98740E+01 7.38350E+00 0.00000E+00
 -1       552 9.28740E+01 7.38350E+00 0.00000E+00
 -1       553 9.58740E+01 7.38350E+00 0.00000E+00
 -1       554 9.88740E+01 7.38350E+00 0.00000E+00
 -1       555 1.01874E+02 7.38350E+00 0.00000E+00
 -1       556 1.04874E+02 7.38350E+00 0.00000E+00
 -1       557 1.07874E+02 7.38350E+00 0.00000E+00
 -1       558 1.10874E+02 7.38350E+00 0.00000E+00
 -1       559 1.13874E+02 7.38350E+00 0.00000E+00
 -1       560 1.16874E+02 7.38350E+00 0.00000E+00
 -1       561 1.19874E+02 7.38350E+00 0.00000E+00
 -1       562 1.22874E+02 7.38350E+00 0.00000E+00
 -1       563 1.25874E+02 7.38350E+00 0.00000E+00
 -1       564 1.28874E+02 7.38350E+00 0.00000E+00
 -1       565 1.31874E+02 7.38350E+00 0.00000E+00
 -1       566 1.34874E+02 7.38350E+00 0.00000E+00
 -1       567 1.37874E+02 7.38350E+00 0.00000E+00
 -1       568 1.40874E+02 7.38350E+00 0.00000E+00
 -1       569 1.42206E+02 1.61750E+01 0.00000E+00
 -1       570 1.42206E+02 1.32750E+01 0.00000E+00
 -1       571 1.42206E+02 1.03250E+01 0.00000E+00
 -1       572 7.84800E+00 4.16780E+01 0.00000E+00
 -1       573 1.42206E+02 1.91250E+01 0.00000E+00
 -1       574 1.42206E+02 2.20750E+01 0.00000E+00
 -1       575 1.42206E+02 2.50250E+01 0.00000E+00
 -1       576 1.42206E+02 2.79750E+01 0.00000E+00
 -1       577 1.42206E+02 3.08750E+01 0.00000E+00
 -1       578 1.42206E+02 3.38250E+01 0.00000E+00
 -1       579 1.42206E+02 3.67750E+01 0.00000E+00
 -1       580 1.42206E+02 3.97250E+01 0.00000E+00
 -1       581 2.08740E+01 7.38350E+00 0.00000E+00
 -1       582 6.05223E+01 3.39333E+01 0.00000E+00
 -1       583 5.85107E+01 2.97431E+01 0.00000E+00
 -1       584 5.96716E+01 3.16698E+01 0.00000E+00
 -1       585 6.10703E+01 3.58962E+01 0.00000E+00
 -1       586 4.77456E+01 2.62183E+01 0.00000E+00
 -1       587 5.02768E+01 2.60706E+01 0.00000E+00
 -1       588 7.79400E+00 2.79000E+01 0.00000E+00
 -1       589 4.54663E+01 2.69013E+01 0.00000E+00
 -1       590 4.32124E+01 2.83474E+01 0.00000E+00
 -1       591 4.18763E+01 3.00026E+01 0.00000E+00
 -1       592 3.91390E+01 3.41161E+01 0.00000E+00
 -1       593 3.85280E+01 3.63245E+01 0.00000E+00
 -1       594 3.85385E+01 3.88372E+01 0.00000E+00
 -1       595 4.04196E+01 4.30185E+01 0.00000E+00
 -1       596 3.94628E+01 4.10444E+01 0.00000E+00
 -1       597 5.22816E+01 2.63453E+01 0.00000E+00
 -1       598 6.08522E+01 4.25474E+01 0.00000E+00
 -1       599 6.11962E+01 4.05661E+01 0.00000E+00
 -1       600 7.79400E+00 3.67375E+01 0.00000E+00
 -1       601 1.05840E+01 6.04275E+00 0.00000E+00
 -1       602 1.43325E+02 4.36366E+01 0.00000E+00
 -1       603 1.27290E+01 6.71313E+00 0.00000E+00
 -1       604 7.82100E+00 3.92077E+01 0.00000E+00
 -1       605 4.01604E+01 3.05487E+01 0.00000E+00
 -1       606 1.03920E+01 2.05500E+01 0.00000E+00
 -1       607 1.03920E+01 2.35000E+01 0.00000E+00
 -1       608 1.03920E+01 1.46750E+01 0.00000E+00
 -1       609 1.03920E+01 1.17250E+01 0.00000E+00
 -1       610 1.02135E+01 7.68962E+00 0.00000E+00
 -1       611 1.39608E+02 2.35500E+01 0.00000E+00
 -1       612 1.19250E+01 3.96080E+01 0.00000E+00
 -1       613 3.81104E+01 3.19884E+01 0.00000E+00
 -1       614 1.49250E+01 3.96080E+01 0.00000E+00
 -1       615 1.79250E+01 3.96080E+01 0.00000E+00
 -1       616 2.09250E+01 3.96080E+01 0.00000E+00
 -1       617 2.39250E+01 3.96080E+01 0.00000E+00
 -1       618 2.69250E+01 3.96080E+01 0.00000E+00
 -1       619 2.97750E+01 3.96080E+01 0.00000E+00
 -1       620 3.27750E+01 3.96080E+01 0.00000E+00
 -1       621 3.57750E+01 3.96080E+01 0.00000E+00
 -1       622 1.63740E+01 9.98150E+00 0.00000E+00
 -1       623 1.39608E+02 1.47250E+01 0.00000E+00
 -1       624 2.23740E+01 9.98150E+00 0.00000E+00
 -1       625 6.45000E+01 4.19666E+01 0.00000E+00
 -1       626 6.75000E+01 4.19666E+01 0.00000E+00
 -1       627 7.05000E+01 4.19666E+01 0.00000E+00
 -1       628 7.35000E+01 4.19666E+01 0.00000E+00
 -1       629 7.63500E+01 4.19666E+01 0.00000E+00
 -1       630 7.93500E+01 4.19666E+01 0.00000E+00
 -1       631 8.23500E+01 4.19666E+01 0.00000E+00
 -1       632 8.53500E+01 4.19666E+01 0.00000E+00
 -1       633 8.83500E+01 4.19666E+01 0.00000E+00
 -1       634 9.13500E+01 4.19666E+01 0.00000E+00
 -1       635 9.42000E+01 4.19666E+01 0.00000E+00
 -1       636 9.72000E+01 4.19666E+01 0.00000E+00
 -1       637 1.00200E+02 4.19666E+01 0.00000E+00
 -1       638 1.03200E+02 4.19666E+01 0.00000E+00
 -1       639 1.06200E+02 4.19666E+01 0.00000E+00
 -1       640 1.09200E+02 4.19666E+01 0.00000E+00
 -1       641 1.12050E+02 4.19666E+01 0.00000E+00
 -1       642 1.15050E+02 4.19666E+01 0.00000E+00
 -1       643 1.18050E+02 4.19666E+01 0.00000E+00
 -1       644 1.21050E+02 4.19666E+01 0.00000E+00
 -1       645 1.24050E+02 4.19666E+01 0.00000E+00
 -1       646 1.27050E+02 4.19666E+01 0.00000E+00
 -1       647 1.29900E+02 4.19666E+01 0.00000E+00
 -1       648 1.32900E+02 4.19666E+01 0.00000E+00
 -1       649 1.35900E+02 4.19666E+01 0.00000E+00
 -1       650 1.38900E+02 4.19666E+01 0.00000E+00
 -1       651 1.39206E+02 1.03250E+01 0.00000E+00
 -1       652 6.18593E+01 3.21392E+01 0.00000E+00
 -1       653 2.83740E+01 9.98150E+00 0.00000E+00
 -1       654 2.53740E+01 9.98150E+00 0.00000E+00
 -1       655 3.43740E+01 9.98150E+00 0.00000E+00
 -1       656 3.73740E+01 9.98150E+00 0.00000E+00
 -1       657 4.03740E+01 9.98150E+00 0.00000E+00
 -1       658 4.33740E+01 9.98150E+00 0.00000E+00
 -1       659 4.63740E+01 9.98150E+00 0.00000E+00
 -1       660 4.93740E+01 9.98150E+00 0.00000E+00
 -1       661 5.23740E+01 9.98150E+00 0.00000E+00
 -1       662 5.53740E+01 9.98150E+00 0.00000E+00
 -1       663 5.83740E+01 9.98150E+00 0.00000E+00
 -1       664 6.13740E+01 9.98150E+00 0.00000E+00
 -1       665 6.43740E+01 9.98150E+00 0.00000E+00
 -1       666 6.73740E+01 9.98150E+00 0.00000E+00
 -1       667 7.03740E+01 9.98150E+00 0.00000E+00
 -1       668 7.33740E+01 9.98150E+00 0.00000E+00
 -1       669 7.63740E+01 9.98150E+00 0.00000E+00
 -1       670 7.93740E+01 9.98150E+00 0.00000E+00
 -1       671 8.23740E+01 9.98150E+00 0.00000E+00
 -1       672 8.53740E+01 9.98150E+00 0.00000E+00
 -1       673 8.83740E+01 9.98150E+00 0.00000E+00
 -1       674 9.13740E+01 9.98150E+00 0.00000E+00
 -1       675 9.43740E+01 9.98150E+00 0.00000E+00
 -1       676 9.73740E+01 9.98150E+00 0.00000E+00
 -1       677 1.00374E+02 9.98150E+00 0.00000E+00
 -1       678 1.03374E+02 9.98150E+00 0.00000E+00
 -1       679 1.06374E+02 9.98150E+00 0.00000E+00
 -1       680 1.09374E+02 9.98150E+00 0.00000E+00
 -1       681 1.12374E+02 9.98150E+00 0.00000E+00
 -1       682 1.15374E+02 9.98150E+00 0.00000E+00
 -1       683 1.18374E+02 9.98150E+00 0.00000E+00
 -1       684 1.21374E+02 9.98150E+00 0.00000E+00
 -1       685 1.24374E+02 9.98150E+00 0.00000E+00
 -1       686 1.27374E+02 9.98150E+00 0.00000E+00
 -1       687 1.30374E+02 9.98150E+00 0.00000E+00
 -1       688 1.33374E+02 9.98150E+00 0.00000E+00
 -1       689 1.36290E+02 1.01532E+01 0.00000E+00
 -1       690 1.39608E+02 2.06000E+01 0.00000E+00
 -1       691 5.68497E+01 2.53579E+01 0.00000E+00
 -1       692 9.87300E+00 3.94079E+01 0.00000E+00
 -1       693 3.72613E+01 3.47853E+01 0.00000E+00
 -1       694 1.39608E+02 2.65000E+01 0.00000E+00
 -1       695 1.39608E+02 2.94000E+01 0.00000E+00
 -1       696 1.39608E+02 3.23500E+01 0.00000E+00
 -1       697 1.39608E+02 3.53000E+01 0.00000E+00
 -1       698 1.39608E+02 3.82500E+01 0.00000E+00
 -1       699 1.93740E+01 9.98150E+00 0.00000E+00
 -1       700 5.92384E+01 2.74972E+01 0.00000E+00
 -1       701 6.29948E+01 3.69451E+01 0.00000E+00
 -1       702 6.24482E+01 3.44535E+01 0.00000E+00
 -1       703 6.09908E+01 2.95619E+01 0.00000E+00
 -1       704 5.43254E+01 2.46496E+01 0.00000E+00
 -1       705 1.39608E+02 1.76625E+01 0.00000E+00
 -1       706 4.61137E+01 2.49169E+01 0.00000E+00
 -1       707 4.12098E+01 2.80977E+01 0.00000E+00
 -1       708 4.31417E+01 2.57577E+01 0.00000E+00
 -1       709 4.88918E+01 2.40977E+01 0.00000E+00
 -1       710 3.64830E+01 3.75894E+01 0.00000E+00
 -1       711 3.13740E+01 9.98150E+00 0.00000E+00
 -1       712 1.03920E+01 1.76125E+01 0.00000E+00
 -1       713 5.15121E+01 2.45087E+01 0.00000E+00
 -1       714 1.03920E+01 3.23250E+01 0.00000E+00
 -1       715 6.28481E+01 4.12663E+01 0.00000E+00
 -1       716 1.03920E+01 3.52625E+01 0.00000E+00
 -1       717 1.03920E+01 2.64500E+01 0.00000E+00
 -1       718 1.33741E+01 9.98153E+00 0.00000E+00
 -1       719 1.03920E+01 2.93875E+01 0.00000E+00
 -1       720 3.74716E+01 3.99503E+01 0.00000E+00
 -1       721 6.31922E+01 3.92849E+01 0.00000E+00
 -1       722 1.29900E+01 1.32000E+01 0.00000E+00
 -1       723 3.79570E+01 2.95908E+01 0.00000E+00
 -1       724 1.37010E+02 2.79500E+01 0.00000E+00
 -1       725 1.48741E+01 1.25795E+01 0.00000E+00
 -1       726 6.18055E+01 2.70944E+01 0.00000E+00
 -1       727 1.64250E+01 3.70100E+01 0.00000E+00
 -1       728 1.94250E+01 3.70100E+01 0.00000E+00
 -1       729 2.24250E+01 3.70100E+01 0.00000E+00
 -1       730 2.54250E+01 3.70100E+01 0.00000E+00
 -1       731 2.82750E+01 3.70100E+01 0.00000E+00
 -1       732 3.12750E+01 3.70100E+01 0.00000E+00
 -1       733 3.38790E+01 3.72997E+01 0.00000E+00
 -1       734 1.29900E+01 2.20250E+01 0.00000E+00
 -1       735 3.88740E+01 1.25795E+01 0.00000E+00
 -1       736 6.60000E+01 3.97487E+01 0.00000E+00
 -1       737 6.90000E+01 3.97487E+01 0.00000E+00
 -1       738 7.20000E+01 3.97487E+01 0.00000E+00
 -1       739 7.48500E+01 3.97487E+01 0.00000E+00
 -1       740 7.78500E+01 3.97487E+01 0.00000E+00
 -1       741 8.08500E+01 3.97487E+01 0.00000E+00
 -1       742 8.38500E+01 3.97487E+01 0.00000E+00
 -1       743 8.68500E+01 3.97487E+01 0.00000E+00
 -1       744 8.98500E+01 3.97487E+01 0.00000E+00
 -1       745 9.27000E+01 3.97487E+01 0.00000E+00
 -1       746 9.57000E+01 3.97487E+01 0.00000E+00
 -1       747 9.87000E+01 3.97487E+01 0.00000E+00
 -1       748 1.01700E+02 3.97487E+01 0.00000E+00
 -1       749 1.04700E+02 3.97487E+01 0.00000E+00
 -1       750 1.07700E+02 3.97487E+01 0.00000E+00
 -1       751 1.10550E+02 3.97487E+01 0.00000E+00
 -1       752 1.13550E+02 3.97487E+01 0.00000E+00
 -1       753 1.16550E+02 3.97487E+01 0.00000E+00
 -1       754 1.19550E+02 3.97487E+01 0.00000E+00
 -1       755 1.22550E+02 3.97487E+01 0.00000E+00
 -1       756 1.25550E+02 3.97487E+01 0.00000E+00
 -1       757 1.28400E+02 3.97487E+01 0.00000E+00
 -1       758 1.31400E+02 3.97487E+01 0.00000E+00
 -1       759 1.34400E+02 3.97487E+01 0.00000E+00
 -1       760 1.37004E+02 3.89994E+01 0.00000E+00
 -1       761 4.18740E+01 1.25795E+01 0.00000E+00
 -1       762 3.58740E+01 1.25795E+01 0.00000E+00
 -1       763 4.48740E+01 1.25795E+01 0.00000E+00
 -1       764 4.78740E+01 1.25795E+01 0.00000E+00
 -1       765 5.08740E+01 1.25795E+01 0.00000E+00
 -1       766 5.38740E+01 1.25795E+01 0.00000E+00
 -1       767 5.68740E+01 1.25795E+01 0.00000E+00
 -1       768 5.98740E+01 1.25795E+01 0.00000E+00
 -1       769 6.28740E+01 1.25795E+01 0.00000E+00
 -1       770 6.58740E+01 1.25795E+01 0.00000E+00
 -1       771 6.88740E+01 1.25795E+01 0.00000E+00
 -1       772 7.18740E+01 1.25795E+01 0.00000E+00
 -1       773 7.48740E+01 1.25795E+01 0.00000E+00
 -1       774 7.78740E+01 1.25795E+01 0.00000E+00
 -1       775 8.08740E+01 1.25795E+01 0.00000E+00
 -1       776 8.38740E+01 1.25795E+01 0.00000E+00
 -1       777 8.68740E+01 1.25795E+01 0.00000E+00
 -1       778 8.98740E+01 1.25795E+01 0.00000E+00
 -1       779 9.28740E+01 1.25795E+01 0.00000E+00
 -1       780 9.58740E+01 1.25795E+01 0.00000E+00
 -1       781 9.88740E+01 1.25795E+01 0.00000E+00
 -1       782 1.01874E+02 1.25795E+01 0.00000E+00
 -1       783 1.04874E+02 1.25795E+01 0.00000E+00
 -1       784 1.07874E+02 1.25795E+01 0.00000E+00
 -1       785 1.10874E+02 1.25795E+01 0.00000E+00
 -1       786 1.13874E+02 1.25795E+01 0.00000E+00
 -1       787 1.16874E+02 1.25795E+01 0.00000E+00
 -1       788 1.19874E+02 1.25795E+01 0.00000E+00
 -1       789 1.22874E+02 1.25795E+01 0.00000E+00
 -1       790 1.25874E+02 1.25795E+01 0.00000E+00
 -1       791 1.28874E+02 1.25795E+01 0.00000E+00
 -1       792 1.31874E+02 1.25795E+01 0.00000E+00
 -1       793 1.37010E+02 2.20750E+01 0.00000E+00
 -1       794 1.37010E+02 2.50125E+01 0.00000E+00
 -1       795 1.37010E+02 3.38250E+01 0.00000E+00
 -1       796 1.37007E+02 3.64122E+01 0.00000E+00
 -1       797 1.78741E+01 1.25795E+01 0.00000E+00
 -1       798 3.55637E+01 3.27425E+01 0.00000E+00
 -1       799 6.44654E+01 3.27081E+01 0.00000E+00
 -1       800 3.47213E+01 3.50211E+01 0.00000E+00
 -1       801 4.69702E+01 2.27015E+01 0.00000E+00
 -1       802 1.01325E+01 3.73352E+01 0.00000E+00
 -1       803 5.61867E+01 2.28684E+01 0.00000E+00
 -1       804 1.36692E+02 1.45533E+01 0.00000E+00
 -1       805 5.33734E+01 2.27275E+01 0.00000E+00
 -1       806 2.08741E+01 1.25795E+01 0.00000E+00
 -1       807 5.95237E+01 2.47754E+01 0.00000E+00
 -1       808 1.34250E+01 3.70100E+01 0.00000E+00
 -1       809 5.07531E+01 2.23165E+01 0.00000E+00
 -1       810 1.37010E+02 3.08875E+01 0.00000E+00
 -1       811 4.39783E+01 2.30420E+01 0.00000E+00
 -1       812 6.35970E+01 3.01307E+01 0.00000E+00
 -1       813 6.54704E+01 3.79145E+01 0.00000E+00
 -1       814 6.49238E+01 3.54229E+01 0.00000E+00
 -1       815 4.07239E+01 2.57291E+01 0.00000E+00
 -1       816 1.29900E+01 2.49750E+01 0.00000E+00
 -1       817 3.28740E+01 1.25795E+01 0.00000E+00
 -1       818 3.54103E+01 3.03449E+01 0.00000E+00
 -1       819 1.29900E+01 1.61375E+01 0.00000E+00
 -1       820 5.88606E+01 2.22859E+01 0.00000E+00
 -1       821 1.29900E+01 1.90812E+01 0.00000E+00
 -1       822 2.38741E+01 1.25795E+01 0.00000E+00
 -1       823 1.37010E+02 1.91375E+01 0.00000E+00
 -1       824 1.34283E+02 1.35664E+01 0.00000E+00
 -1       825 1.36851E+02 1.68454E+01 0.00000E+00
 -1       826 3.74711E+01 2.72222E+01 0.00000E+00
 -1       827 4.15605E+01 2.30134E+01 0.00000E+00
 -1       828 4.88316E+01 2.09202E+01 0.00000E+00
 -1       829 1.29900E+01 3.08563E+01 0.00000E+00
 -1       830 2.68741E+01 1.25795E+01 0.00000E+00
 -1       831 1.29900E+01 3.37938E+01 0.00000E+00
 -1       832 2.98740E+01 1.25795E+01 0.00000E+00
 -1       833 6.84704E+01 3.79145E+01 0.00000E+00
 -1       834 1.48741E+01 1.55170E+01 0.00000E+00
 -1       835 6.47557E+01 2.74004E+01 0.00000E+00
 -1       836 2.09250E+01 3.44120E+01 0.00000E+00
 -1       837 2.39250E+01 3.44120E+01 0.00000E+00
 -1       838 2.67750E+01 3.44120E+01 0.00000E+00
 -1       839 2.97750E+01 3.44120E+01 0.00000E+00
 -1       840 3.22482E+01 3.47166E+01 0.00000E+00
 -1       841 4.33740E+01 1.51775E+01 0.00000E+00
 -1       842 4.03740E+01 1.51775E+01 0.00000E+00
 -1       843 7.14704E+01 3.79145E+01 0.00000E+00
 -1       844 7.43204E+01 3.79145E+01 0.00000E+00
 -1       845 7.73204E+01 3.79145E+01 0.00000E+00
 -1       846 8.03204E+01 3.79145E+01 0.00000E+00
 -1       847 8.33204E+01 3.79145E+01 0.00000E+00
 -1       848 8.63204E+01 3.79145E+01 0.00000E+00
 -1       849 8.93204E+01 3.79145E+01 0.00000E+00
 -1       850 9.21704E+01 3.79145E+01 0.00000E+00
 -1       851 9.51704E+01 3.79145E+01 0.00000E+00
 -1       852 9.81704E+01 3.79145E+01 0.00000E+00
 -1       853 1.01170E+02 3.79145E+01 0.00000E+00
 -1       854 1.04170E+02 3.79145E+01 0.00000E+00
 -1       855 1.07170E+02 3.79145E+01 0.00000E+00
 -1       856 1.10020E+02 3.79145E+01 0.00000E+00
 -1       857 1.13020E+02 3.79145E+01 0.00000E+00
 -1       858 1.16020E+02 3.79145E+01 0.00000E+00
 -1       859 1.19020E+02 3.79145E+01 0.00000E+00
 -1       860 1.22020E+02 3.79145E+01 0.00000E+00
 -1       861 1.25020E+02 3.79145E+01 0.00000E+00
 -1       862 1.27870E+02 3.79145E+01 0.00000E+00
 -1       863 1.30870E+02 3.79145E+01 0.00000E+00
 -1       864 1.33870E+02 3.79145E+01 0.00000E+00
 -1       865 3.73740E+01 1.51775E+01 0.00000E+00
 -1       866 4.93740E+01 1.51775E+01 0.00000E+00
 -1       867 5.23740E+01 1.51775E+01 0.00000E+00
 -1       868 5.53740E+01 1.51775E+01 0.00000E+00
 -1       869 5.83740E+01 1.51775E+01 0.00000E+00
 -1       870 6.13740E+01 1.51775E+01 0.00000E+00
 -1       871 6.43740E+01 1.51775E+01 0.00000E+00
 -1       872 6.73740E+01 1.51775E+01 0.00000E+00
 -1       873 7.03740E+01 1.51775E+01 0.00000E+00
 -1       874 7.33740E+01 1.51775E+01 0.00000E+00
 -1       875 7.63740E+01 1.51775E+01 0.00000E+00
 -1       876 7.93740E+01 1.51775E+01 0.00000E+00
 -1       877 8.23740E+01 1.51775E+01 0.00000E+00
 -1       878 8.53740E+01 1.51775E+01 0.00000E+00
 -1       879 8.83740E+01 1.51775E+01 0.00000E+00
 -1       880 9.13740E+01 1.51775E+01 0.00000E+00
 -1       881 9.43740E+01 1.51775E+01 0.00000E+00
 -1       882 9.73740E+01 1.51775E+01 0.00000E+00
 -1       883 1.00374E+02 1.51775E+01 0.00000E+00
 -1       884 1.03374E+02 1.51775E+01 0.00000E+00
 -1       885 1.06374E+02 1.51775E+01 0.00000E+00
 -1       886 1.09374E+02 1.51775E+01 0.00000E+00
 -1       887 1.12374E+02 1.51775E+01 0.00000E+00
 -1       888 1.15374E+02 1.51775E+01 0.00000E+00
 -1       889 1.18374E+02 1.51775E+01 0.00000E+00
 -1       890 1.21374E+02 1.51775E+01 0.00000E+00
 -1       891 1.24374E+02 1.51775E+01 0.00000E+00
 -1       892 1.27374E+02 1.51775E+01 0.00000E+00
 -1       893 1.30374E+02 1.51775E+01 0.00000E+00
 -1       894 5.48910E+01 2.05829E+01 0.00000E+00
 -1       895 1.93741E+01 1.51775E+01 0.00000E+00
 -1       896 1.29900E+01 2.79188E+01 0.00000E+00
 -1       897 1.79250E+01 3.44120E+01 0.00000E+00
 -1       898 4.63740E+01 1.51775E+01 0.00000E+00
 -1       899 6.25164E+01 2.41127E+01 0.00000E+00
 -1       900 5.22707E+01 2.01719E+01 0.00000E+00
 -1       901 6.62917E+01 3.06577E+01 0.00000E+00
 -1       902 4.52235E+01 2.06681E+01 0.00000E+00
 -1       903 6.79238E+01 3.54229E+01 0.00000E+00
 -1       904 6.71078E+01 3.30403E+01 0.00000E+00
 -1       905 3.43740E+01 1.51775E+01 0.00000E+00
 -1       906 3.49244E+01 2.79763E+01 0.00000E+00
 -1       907 1.55880E+01 3.23250E+01 0.00000E+00
 -1       908 2.23741E+01 1.51775E+01 0.00000E+00
 -1       909 5.75649E+01 2.00004E+01 0.00000E+00
 -1       910 1.34412E+02 2.64813E+01 0.00000E+00
 -1       911 2.53741E+01 1.51775E+01 0.00000E+00
 -1       912 1.34412E+02 2.06063E+01 0.00000E+00
 -1       913 1.32783E+02 1.61644E+01 0.00000E+00
 -1       914 1.34817E+02 1.65049E+01 0.00000E+00
 -1       915 1.34412E+02 2.35438E+01 0.00000E+00
 -1       916 1.33873E+02 3.53274E+01 0.00000E+00
 -1       917 3.90227E+01 2.37183E+01 0.00000E+00
 -1       918 4.28057E+01 2.06395E+01 0.00000E+00
 -1       919 3.30905E+01 3.24380E+01 0.00000E+00
 -1       920 6.18534E+01 2.16232E+01 0.00000E+00
 -1       921 1.55880E+01 2.93875E+01 0.00000E+00
 -1       922 1.34412E+02 2.94188E+01 0.00000E+00
 -1       923 1.55880E+01 2.05531E+01 0.00000E+00
 -1       924 1.34143E+02 3.23731E+01 0.00000E+00
 -1       925 2.83740E+01 1.51775E+01 0.00000E+00
 -1       926 1.55880E+01 2.35031E+01 0.00000E+00
 -1       927 3.95963E+01 2.08626E+01 0.00000E+00
 -1       928 6.57833E+01 2.42941E+01 0.00000E+00
 -1       929 2.53500E+01 3.18140E+01 0.00000E+00
 -1       930 2.83500E+01 3.18140E+01 0.00000E+00
 -1       931 4.18740E+01 1.77755E+01 0.00000E+00
 -1       932 7.09238E+01 3.54229E+01 0.00000E+00
 -1       933 1.52310E+01 1.80351E+01 0.00000E+00
 -1       934 7.37738E+01 3.54229E+01 0.00000E+00
 -1       935 7.67738E+01 3.54229E+01 0.00000E+00
 -1       936 7.97738E+01 3.54229E+01 0.00000E+00
 -1       937 8.27738E+01 3.54229E+01 0.00000E+00
 -1       938 8.57738E+01 3.54229E+01 0.00000E+00
 -1       939 8.87738E+01 3.54229E+01 0.00000E+00
 -1       940 9.16238E+01 3.54229E+01 0.00000E+00
 -1       941 9.46238E+01 3.54229E+01 0.00000E+00
 -1       942 9.76238E+01 3.54229E+01 0.00000E+00
 -1       943 1.00624E+02 3.54229E+01 0.00000E+00
 -1       944 1.03624E+02 3.54229E+01 0.00000E+00
 -1       945 1.06624E+02 3.54229E+01 0.00000E+00
 -1       946 1.09474E+02 3.54229E+01 0.00000E+00
 -1       947 1.12474E+02 3.54229E+01 0.00000E+00
 -1       948 1.15474E+02 3.54229E+01 0.00000E+00
 -1       949 1.18474E+02 3.54229E+01 0.00000E+00
 -1       950 1.21474E+02 3.54229E+01 0.00000E+00
 -1       951 1.24474E+02 3.54229E+01 0.00000E+00
 -1       952 1.27324E+02 3.54229E+01 0.00000E+00
 -1       953 1.30324E+02 3.54229E+01 0.00000E+00
 -1       954 5.68740E+01 1.77755E+01 0.00000E+00
 -1       955 3.88740E+01 1.77755E+01 0.00000E+00
 -1       956 5.08740E+01 1.77755E+01 0.00000E+00
 -1       957 5.98740E+01 1.77755E+01 0.00000E+00
 -1       958 6.28740E+01 1.77755E+01 0.00000E+00
 -1       959 6.58740E+01 1.77755E+01 0.00000E+00
 -1       960 6.88740E+01 1.77755E+01 0.00000E+00
 -1       961 7.18740E+01 1.77755E+01 0.00000E+00
 -1       962 7.48740E+01 1.77755E+01 0.00000E+00
 -1       963 7.78740E+01 1.77755E+01 0.00000E+00
 -1       964 8.08740E+01 1.77755E+01 0.00000E+00
 -1       965 8.38740E+01 1.77755E+01 0.00000E+00
 -1       966 8.68740E+01 1.77755E+01 0.00000E+00
 -1       967 8.98740E+01 1.77755E+01 0.00000E+00
 -1       968 9.28740E+01 1.77755E+01 0.00000E+00
 -1       969 9.58740E+01 1.77755E+01 0.00000E+00
 -1       970 9.88740E+01 1.77755E+01 0.00000E+00
 -1       971 1.01874E+02 1.77755E+01 0.00000E+00
 -1       972 1.04874E+02 1.77755E+01 0.00000E+00
 -1       973 1.07874E+02 1.77755E+01 0.00000E+00
 -1       974 1.10874E+02 1.77755E+01 0.00000E+00
 -1       975 1.13874E+02 1.77755E+01 0.00000E+00
 -1       976 1.16874E+02 1.77755E+01 0.00000E+00
 -1       977 1.19874E+02 1.77755E+01 0.00000E+00
 -1       978 1.22874E+02 1.77755E+01 0.00000E+00
 -1       979 1.25874E+02 1.77755E+01 0.00000E+00
 -1       980 1.28874E+02 1.77755E+01 0.00000E+00
 -1       981 1.55880E+01 2.64453E+01 0.00000E+00
 -1       982 1.34615E+02 1.85556E+01 0.00000E+00
 -1       983 4.78740E+01 1.77755E+01 0.00000E+00
 -1       984 3.58714E+01 2.44183E+01 0.00000E+00
 -1       985 5.39245E+01 1.81864E+01 0.00000E+00
 -1       986 2.23500E+01 3.18140E+01 0.00000E+00
 -1       987 3.13740E+01 1.51775E+01 0.00000E+00
 -1       988 1.93500E+01 3.18140E+01 0.00000E+00
 -1       989 6.78736E+01 2.79210E+01 0.00000E+00
 -1       990 3.26046E+01 3.00694E+01 0.00000E+00
 -1       991 4.48740E+01 1.77755E+01 0.00000E+00
 -1       992 1.31814E+02 2.79500E+01 0.00000E+00
 -1       993 6.51203E+01 2.18046E+01 0.00000E+00
 -1       994 3.64450E+01 2.15626E+01 0.00000E+00
 -1       995 1.31814E+02 2.50125E+01 0.00000E+00
 -1       996 7.01078E+01 3.30403E+01 0.00000E+00
 -1       997 3.58740E+01 1.77755E+01 0.00000E+00
 -1       998 2.38741E+01 1.77755E+01 0.00000E+00
 -1       999 1.31283E+02 1.87624E+01 0.00000E+00
 -1      1000 5.93637E+01 1.96994E+01 0.00000E+00
 -1      1001 2.08741E+01 1.77755E+01 0.00000E+00
 -1      1002 6.93319E+01 3.05894E+01 0.00000E+00
 -1      1003 1.31814E+02 2.20750E+01 0.00000E+00
 -1      1004 1.30593E+02 3.24686E+01 0.00000E+00
 -1      1005 1.73195E+01 1.79379E+01 0.00000E+00
 -1      1006 1.81860E+01 2.20281E+01 0.00000E+00
 -1      1007 2.68740E+01 1.77755E+01 0.00000E+00
 -1      1008 3.28873E+01 2.55291E+01 0.00000E+00
 -1      1009 2.94916E+01 2.85379E+01 0.00000E+00
 -1      1010 1.29405E+02 2.10881E+01 0.00000E+00
 -1      1011 7.52738E+01 3.28249E+01 0.00000E+00
 -1      1012 7.82738E+01 3.28249E+01 0.00000E+00
 -1      1013 8.12738E+01 3.28249E+01 0.00000E+00
 -1      1014 8.42738E+01 3.28249E+01 0.00000E+00
 -1      1015 8.72738E+01 3.28249E+01 0.00000E+00
 -1      1016 9.01238E+01 3.28249E+01 0.00000E+00
 -1      1017 9.31238E+01 3.28249E+01 0.00000E+00
 -1      1018 9.61238E+01 3.28249E+01 0.00000E+00
 -1      1019 9.91238E+01 3.28249E+01 0.00000E+00
 -1      1020 1.02124E+02 3.28249E+01 0.00000E+00
 -1      1021 1.05124E+02 3.28249E+01 0.00000E+00
 -1      1022 1.07974E+02 3.28249E+01 0.00000E+00
 -1      1023 1.10974E+02 3.28249E+01 0.00000E+00
 -1      1024 1.13974E+02 3.28249E+01 0.00000E+00
 -1      1025 1.16974E+02 3.28249E+01 0.00000E+00
 -1      1026 1.19974E+02 3.28249E+01 0.00000E+00
 -1      1027 1.22974E+02 3.28249E+01 0.00000E+00
 -1      1028 1.25824E+02 3.28249E+01 0.00000E+00
 -1      1029 1.28208E+02 3.26468E+01 0.00000E+00
 -1      1030 6.81203E+01 2.18046E+01 0.00000E+00
 -1      1031 7.11203E+01 2.18046E+01 0.00000E+00
 -1      1032 7.41203E+01 2.18046E+01 0.00000E+00
 -1      1033 7.71203E+01 2.18046E+01 0.00000E+00
 -1      1034 8.01203E+01 2.18046E+01 0.00000E+00
 -1      1035 8.31203E+01 2.18046E+01 0.00000E+00
 -1      1036 8.61203E+01 2.18046E+01 0.00000E+00
 -1      1037 8.91203E+01 2.18046E+01 0.00000E+00
 -1      1038 9.21203E+01 2.18046E+01 0.00000E+00
 -1      1039 9.51203E+01 2.18046E+01 0.00000E+00
 -1      1040 9.81203E+01 2.18046E+01 0.00000E+00
 -1      1041 1.01120E+02 2.18046E+01 0.00000E+00
 -1      1042 1.04120E+02 2.18046E+01 0.00000E+00
 -1      1043 1.07120E+02 2.18046E+01 0.00000E+00
 -1      1044 1.10120E+02 2.18046E+01 0.00000E+00
 -1      1045 1.13120E+02 2.18046E+01 0.00000E+00
 -1      1046 1.16120E+02 2.18046E+01 0.00000E+00
 -1      1047 1.19120E+02 2.18046E+01 0.00000E+00
 -1      1048 1.22120E+02 2.18046E+01 0.00000E+00
 -1      1049 1.25120E+02 2.18046E+01 0.00000E+00
 -1      1050 1.27263E+02 2.14463E+01 0.00000E+00
 -1      1051 2.23741E+01 2.03735E+01 0.00000E+00
 -1      1052 7.08825E+01 2.80093E+01 0.00000E+00
 -1      1053 2.64916E+01 2.85379E+01 0.00000E+00
 -1      1054 6.90794E+01 2.48103E+01 0.00000E+00
 -1      1055 2.34916E+01 2.85379E+01 0.00000E+00
 -1      1056 7.26908E+01 3.29326E+01 0.00000E+00
 -1      1057 1.31204E+02 3.02093E+01 0.00000E+00
 -1      1058 3.28740E+01 1.77755E+01 0.00000E+00
 -1      1059 1.81860E+01 2.49703E+01 0.00000E+00
 -1      1060 2.98740E+01 1.77755E+01 0.00000E+00
 -1      1061 2.04916E+01 2.85379E+01 0.00000E+00
 -1      1062 3.34609E+01 2.26734E+01 0.00000E+00
 -1      1063 1.29216E+02 2.64813E+01 0.00000E+00
 -1      1064 1.29538E+02 2.32294E+01 0.00000E+00
 -1      1065 1.28606E+02 2.87406E+01 0.00000E+00
 -1      1066 7.23341E+01 3.06375E+01 0.00000E+00
 -1      1067 2.12346E+01 2.36171E+01 0.00000E+00
 -1      1068 2.53740E+01 2.03735E+01 0.00000E+00
 -1      1069 2.19916E+01 2.59399E+01 0.00000E+00
 -1      1070 1.28407E+02 3.06937E+01 0.00000E+00
 -1      1071 7.97738E+01 3.02269E+01 0.00000E+00
 -1      1072 8.27738E+01 3.02269E+01 0.00000E+00
 -1      1073 8.57738E+01 3.02269E+01 0.00000E+00
 -1      1074 8.86238E+01 3.02269E+01 0.00000E+00
 -1      1075 9.16238E+01 3.02269E+01 0.00000E+00
 -1      1076 9.46238E+01 3.02269E+01 0.00000E+00
 -1      1077 9.76238E+01 3.02269E+01 0.00000E+00
 -1      1078 1.00624E+02 3.02269E+01 0.00000E+00
 -1      1079 1.03624E+02 3.02269E+01 0.00000E+00
 -1      1080 1.06474E+02 3.02269E+01 0.00000E+00
 -1      1081 1.09474E+02 3.02269E+01 0.00000E+00
 -1      1082 1.12474E+02 3.02269E+01 0.00000E+00
 -1      1083 1.15474E+02 3.02269E+01 0.00000E+00
 -1      1084 1.18474E+02 3.02269E+01 0.00000E+00
 -1      1085 1.21474E+02 3.02269E+01 0.00000E+00
 -1      1086 1.24324E+02 3.02269E+01 0.00000E+00
 -1      1087 7.56203E+01 2.44026E+01 0.00000E+00
 -1      1088 7.86203E+01 2.44026E+01 0.00000E+00
 -1      1089 8.16203E+01 2.44026E+01 0.00000E+00
 -1      1090 8.46203E+01 2.44026E+01 0.00000E+00
 -1      1091 8.76203E+01 2.44026E+01 0.00000E+00
 -1      1092 9.06203E+01 2.44026E+01 0.00000E+00
 -1      1093 9.36203E+01 2.44026E+01 0.00000E+00
 -1      1094 9.66203E+01 2.44026E+01 0.00000E+00
 -1      1095 9.96203E+01 2.44026E+01 0.00000E+00
 -1      1096 1.02620E+02 2.44026E+01 0.00000E+00
 -1      1097 1.05620E+02 2.44026E+01 0.00000E+00
 -1      1098 1.08620E+02 2.44026E+01 0.00000E+00
 -1      1099 1.11620E+02 2.44026E+01 0.00000E+00
 -1      1100 1.14620E+02 2.44026E+01 0.00000E+00
 -1      1101 1.17620E+02 2.44026E+01 0.00000E+00
 -1      1102 1.20620E+02 2.44026E+01 0.00000E+00
 -1      1103 1.23620E+02 2.44026E+01 0.00000E+00
 -1      1104 7.25014E+01 2.49069E+01 0.00000E+00
 -1      1105 7.39529E+01 2.75352E+01 0.00000E+00
 -1      1106 2.83740E+01 2.03735E+01 0.00000E+00
 -1      1107 2.79916E+01 2.59399E+01 0.00000E+00
 -1      1108 2.42346E+01 2.36171E+01 0.00000E+00
 -1      1109 2.49916E+01 2.59399E+01 0.00000E+00
 -1      1110 3.09175E+01 2.15234E+01 0.00000E+00
 -1      1111 7.67738E+01 3.02269E+01 0.00000E+00
 -1      1112 7.45539E+01 3.04322E+01 0.00000E+00
 -1      1113 3.02222E+01 2.31456E+01 0.00000E+00
 -1      1114 1.26365E+02 3.04603E+01 0.00000E+00
 -1      1115 1.25763E+02 2.40443E+01 0.00000E+00
 -1      1116 1.26403E+02 2.69333E+01 0.00000E+00
 -1      1117 8.12738E+01 2.76289E+01 0.00000E+00
 -1      1118 8.42738E+01 2.76289E+01 0.00000E+00
 -1      1119 8.71238E+01 2.76289E+01 0.00000E+00
 -1      1120 9.01238E+01 2.76289E+01 0.00000E+00
 -1      1121 9.31238E+01 2.76289E+01 0.00000E+00
 -1      1122 9.61238E+01 2.76289E+01 0.00000E+00
 -1      1123 9.91238E+01 2.76289E+01 0.00000E+00
 -1      1124 1.02124E+02 2.76289E+01 0.00000E+00
 -1      1125 1.04974E+02 2.76289E+01 0.00000E+00
 -1      1126 1.07974E+02 2.76289E+01 0.00000E+00
 -1      1127 1.10974E+02 2.76289E+01 0.00000E+00
 -1      1128 1.13974E+02 2.76289E+01 0.00000E+00
 -1      1129 1.16974E+02 2.76289E+01 0.00000E+00
 -1      1130 1.19974E+02 2.76289E+01 0.00000E+00
 -1      1131 1.22824E+02 2.76289E+01 0.00000E+00
 -1      1132 2.70765E+01 2.29220E+01 0.00000E+00
 -1      1133 7.71203E+01 2.70006E+01 0.00000E+00
 -1      1134 0.00000E+00 4.85250E+01 0.00000E+00
 -1      1135 0.00000E+00 4.55750E+01 0.00000E+00
 -1      1136 0.00000E+00 4.26250E+01 0.00000E+00
 -1      1137 0.00000E+00 3.96750E+01 0.00000E+00
 -1      1138 0.00000E+00 3.67250E+01 0.00000E+00
 -1      1139 0.00000E+00 3.38000E+01 0.00000E+00
 -1      1140 0.00000E+00 3.08750E+01 0.00000E+00
 -1      1141 0.00000E+00 2.79250E+01 0.00000E+00
 -1      1142 0.00000E+00 2.49750E+01 0.00000E+00
 -1      1143 0.00000E+00 2.20250E+01 0.00000E+00
 -1      1144 0.00000E+00 1.90750E+01 0.00000E+00
 -1      1145 0.00000E+00 1.61500E+01 0.00000E+00
 -1      1146 0.00000E+00 1.32250E+01 0.00000E+00
 -1      1147 0.00000E+00 1.02750E+01 0.00000E+00
 -1      1148 0.00000E+00 7.32500E+00 0.00000E+00
 -1      1149 0.00000E+00 4.37500E+00 0.00000E+00
 -1      1150 0.00000E+00 1.45000E+00 0.00000E+00
 -1      1151 1.50000E+00 5.00000E+01 0.00000E+00
 -1      1152 4.50000E+00 5.00000E+01 0.00000E+00
 -1      1153 7.50000E+00 5.00000E+01 0.00000E+00
 -1      1154 1.05000E+01 5.00000E+01 0.00000E+00
 -1      1155 1.35000E+01 5.00000E+01 0.00000E+00
 -1      1156 1.64250E+01 5.00000E+01 0.00000E+00
 -1      1157 1.93500E+01 5.00000E+01 0.00000E+00
 -1      1158 2.23500E+01 5.00000E+01 0.00000E+00
 -1      1159 2.53500E+01 5.00000E+01 0.00000E+00
 -1      1160 2.83500E+01 5.00000E+01 0.00000E+00
 -1      1161 3.13500E+01 5.00000E+01 0.00000E+00
 -1      1162 3.42750E+01 5.00000E+01 0.00000E+00
 -1      1163 3.72000E+01 5.00000E+01 0.00000E+00
 -1      1164 4.02000E+01 5.00000E+01 0.00000E+00
 -1      1165 4.31250E+01 5.00000E+01 0.00000E+00
 -1      1166 4.57500E+01 5.00000E+01 0.00000E+00
 -1      1167 4.80750E+01 5.00000E+01 0.00000E+00
 -1      1168 5.03250E+01 5.00000E+01 0.00000E+00
 -1      1169 5.24250E+01 5.00000E+01 0.00000E+00
 -1      1170 5.45250E+01 5.00000E+01 0.00000E+00
 -1      1171 5.68500E+01 5.00000E+01 0.00000E+00
 -1      1172 5.94750E+01 5.00000E+01 0.00000E+00
 -1      1173 6.23250E+01 5.00000E+01 0.00000E+00
 -1      1174 6.52500E+01 5.00000E+01 0.00000E+00
 -1      1175 6.82500E+01 5.00000E+01 0.00000E+00
 -1      1176 7.12500E+01 5.00000E+01 0.00000E+00
 -1      1177 7.42500E+01 5.00000E+01 0.00000E+00
 -1      1178 7.72500E+01 5.00000E+01 0.00000E+00
 -1      1179 8.01750E+01 5.00000E+01 0.00000E+00
 -1      1180 8.31000E+01 5.00000E+01 0.00000E+00
 -1      1181 8.61000E+01 5.00000E+01 0.00000E+00
 -1      1182 8.91000E+01 5.00000E+01 0.00000E+00
 -1      1183 9.21000E+01 5.00000E+01 0.00000E+00
 -1      1184 9.51000E+01 5.00000E+01 0.00000E+00
 -1      1185 9.80250E+01 5.00000E+01 0.00000E+00
 -1      1186 1.00950E+02 5.00000E+01 0.00000E+00
 -1      1187 1.03950E+02 5.00000E+01 0.00000E+00
 -1      1188 1.06950E+02 5.00000E+01 0.00000E+00
 -1      1189 1.09950E+02 5.00000E+01 0.00000E+00
 -1      1190 1.12950E+02 5.00000E+01 0.00000E+00
 -1      1191 1.15875E+02 5.00000E+01 0.00000E+00
 -1      1192 1.18800E+02 5.00000E+01 0.00000E+00
 -1      1193 1.21800E+02 5.00000E+01 0.00000E+00
 -1      1194 1.24800E+02 5.00000E+01 0.00000E+00
 -1      1195 1.27800E+02 5.00000E+01 0.00000E+00
 -1      1196 1.30800E+02 5.00000E+01 0.00000E+00
 -1      1197 1.33725E+02 5.00000E+01 0.00000E+00
 -1      1198 1.36650E+02 5.00000E+01 0.00000E+00
 -1      1199 1.39650E+02 5.00000E+01 0.00000E+00
 -1      1200 1.42650E+02 5.00000E+01 0.00000E+00
 -1      1201 1.45650E+02 5.00000E+01 0.00000E+00
 -1      1202 1.48575E+02 5.00000E+01 0.00000E+00
 -1      1203 1.57500E+00 0.00000E+00 0.00000E+00
 -1      1204 4.65000E+00 0.00000E+00 0.00000E+00
 -1      1205 7.65000E+00 0.00000E+00 0.00000E+00
 -1      1206 1.06500E+01 0.00000E+00 0.00000E+00
 -1      1207 1.36500E+01 0.00000E+00 0.00000E+00
 -1      1208 1.66500E+01 0.00000E+00 0.00000E+00
 -1      1209 1.96500E+01 0.00000E+00 0.00000E+00
 -1      1210 2.26500E+01 0.00000E+00 0.00000E+00
 -1      1211 2.56500E+01 0.00000E+00 0.00000E+00
 -1      1212 2.86500E+01 0.00000E+00 0.00000E+00
 -1      1213 3.16500E+01 0.00000E+00 0.00000E+00
 -1      1214 3.46500E+01 0.00000E+00 0.00000E+00
 -1      1215 3.76500E+01 0.00000E+00 0.00000E+00
 -1      1216 4.06500E+01 0.00000E+00 0.00000E+00
 -1      1217 4.36500E+01 0.00000E+00 0.00000E+00
 -1      1218 4.66500E+01 0.00000E+00 0.00000E+00
 -1      1219 4.96500E+01 0.00000E+00 0.00000E+00
 -1      1220 5.26500E+01 0.00000E+00 0.00000E+00
 -1      1221 5.56500E+01 0.00000E+00 0.00000E+00
 -1      1222 5.86500E+01 0.00000E+00 0.00000E+00
 -1      1223 6.16500E+01 0.00000E+00 0.00000E+00
 -1      1224 6.46500E+01 0.00000E+00 0.00000E+00
 -1      1225 6.76500E+01 0.00000E+00 0.00000E+00
 -1      1226 7.06500E+01 0.00000E+00 0.00000E+00
 -1      1227 7.36500E+01 0.00000E+00 0.00000E+00
 -1      1228 7.66500E+01 0.00000E+00 0.00000E+00
 -1      1229 7.96500E+01 0.00000E+00 0.00000E+00
 -1      1230 8.26500E+01 0.00000E+00 0.00000E+00
 -1      1231 8.56500E+01 0.00000E+00 0.00000E+00
 -1      1232 8.86500E+01 0.00000E+00 0.00000E+00
 -1      1233 9.16500E+01 0.00000E+00 0.00000E+00
 -1      1234 9.46500E+01 0.00000E+00 0.00000E+00
 -1      1235 9.76500E+01 0.00000E+00 0.00000E+00
 -1      1236 1.00650E+02 0.00000E+00 0.00000E+00
 -1      1237 1.03650E+02 0.00000E+00 0.00000E+00
 -1      1238 1.06650E+02 0.00000E+00 0.00000E+00
 -1      1239 1.09650E+02 0.00000E+00 0.00000E+00
 -1      1240 1.12650E+02 0.00000E+00 0.00000E+00
 -1      1241 1.15650E+02 0.00000E+00 0.00000E+00
 -1      1242 1.18650E+02 0.00000E+00 0.00000E+00
 -1      1243 1.21650E+02 0.00000E+00 0.00000E+00
 -1      1244 1.24650E+02 0.00000E+00 0.00000E+00
 -1      1245 1.27650E+02 0.00000E+00 0.00000E+00
 -1      1246 1.30650E+02 0.00000E+00 0.00000E+00
 -1      1247 1.33650E+02 0.00000E+00 0.00000E+00
 -1      1248 1.36650E+02 0.00000E+00 0.00000E+00
 -1      1249 1.39650E+02 0.00000E+00 0.00000E+00
 -1      1250 1.42650E+02 0.00000E+00 0.00000E+00
 -1      1251 1.45650E+02 0.00000E+00 0.00000E+00
 -1      1252 1.48575E+02 0.00000E+00 0.00000E+00
 -1      1253 1.50000E+02 1.47500E+00 0.00000E+00
 -1      1254 1.50000E+02 4.42500E+00 0.00000E+00
 -1      1255 1.50000E+02 7.37500E+00 0.00000E+00
 -1      1256 1.50000E+02 1.03250E+01 0.00000E+00
 -1      1257 1.50000E+02 1.32750E+01 0.00000E+00
 -1      1258 1.50000E+02 1.62000E+01 0.00000E+00
 -1      1259 1.50000E+02 1.91250E+01 0.00000E+00
 -1      1260 1.50000E+02 2.20750E+01 0.00000E+00
 -1      1261 1.50000E+02 2.50250E+01 0.00000E+00
 -1      1262 1.50000E+02 2.79750E+01 0.00000E+00
 -1      1263 1.50000E+02 3.09250E+01 0.00000E+00
 -1      1264 1.50000E+02 3.38500E+01 0.00000E+00
 -1      1265 1.50000E+02 3.67750E+01 0.00000E+00
 -1      1266 1.50000E+02 3.97250E+01 0.00000E+00
 -1      1267 1.50000E+02 4.26750E+01 0.00000E+00
 -1      1268 1.50000E+02 4.56250E+01 0.00000E+00
 -1      1269 1.50000E+02 4.85500E+01 0.00000E+00
 -1      1270 5.69505E+01 3.66111E+01 0.00000E+00
 -1      1271 5.66504E+01 3.51881E+01 0.00000E+00
 -1      1272 5.60569E+01 3.38476E+01 0.00000E+00
 -1      1273 5.52039E+01 3.26676E+01 0.00000E+00
 -1      1274 5.41523E+01 3.17095E+01 0.00000E+00
 -1      1275 5.28966E+01 3.09690E+01 0.00000E+00
 -1      1276 5.14959E+01 3.05005E+01 0.00000E+00
 -1      1277 5.00440E+01 3.03364E+01 0.00000E+00
 -1      1278 4.85732E+01 3.04807E+01 0.00000E+00
 -1      1279 4.71994E+01 3.09157E+01 0.00000E+00
 -1      1280 4.58945E+01 3.16580E+01 0.00000E+00
 -1      1281 4.47745E+01 3.26652E+01 0.00000E+00
 -1      1282 4.38930E+01 3.38940E+01 0.00000E+00
 -1      1283 4.32931E+01 3.52925E+01 0.00000E+00
 -1      1284 4.30127E+01 3.67503E+01 0.00000E+00
 -1      1285 4.30458E+01 3.82331E+01 0.00000E+00
 -1      1286 4.33710E+01 3.96196E+01 0.00000E+00
 -1      1287 4.39706E+01 4.09125E+01 0.00000E+00
 -1      1288 4.48612E+01 4.21021E+01 0.00000E+00
 -1      1289 4.59864E+01 4.30796E+01 0.00000E+00
 -1      1290 4.72180E+01 4.37647E+01 0.00000E+00
 -1      1291 4.85436E+01 4.41855E+01 0.00000E+00
 -1      1292 4.99767E+01 4.43362E+01 0.00000E+00
 -1      1293 5.14427E+01 4.41834E+01 0.00000E+00
 -1      1294 5.28151E+01 4.37399E+01 0.00000E+00
 -1      1295 5.40847E+01 4.30122E+01 0.00000E+00
 -1      1296 5.52032E+01 4.20055E+01 0.00000E+00
 -1      1297 5.60518E+01 4.08336E+01 0.00000E+00
 -1      1298 5.66345E+01 3.95328E+01 0.00000E+00
 -1      1299 5.69477E+01 3.80876E+01 0.00000E+00
 -1      1300 1.50000E+00 4.85250E+01 0.00000E+00
 -1      1301 1.29900E+00 4.48375E+01 0.00000E+00
 -1      1302 1.29900E+00 4.63125E+01 0.00000E+00
 -1      1303 1.29900E+00 4.18875E+01 0.00000E+00
 -1      1304 1.29900E+00 4.33625E+01 0.00000E+00
 -1      1305 2.59800E+00 4.41000E+01 0.00000E+00
 -1      1306 1.29900E+00 3.89375E+01 0.00000E+00
 -1      1307 1.29900E+00 4.04125E+01 0.00000E+00
 -1      1308 2.59800E+00 4.11500E+01 0.00000E+00
 -1      1309 1.29900E+00 3.59875E+01 0.00000E+00
 -1      1310 1.29900E+00 3.74625E+01 0.00000E+00
 -1      1311 2.59800E+00 3.82000E+01 0.00000E+00
 -1      1312 1.29900E+00 3.30875E+01 0.00000E+00
 -1      1313 1.29900E+00 3.45375E+01 0.00000E+00
 -1      1314 2.59800E+00 3.52750E+01 0.00000E+00
 -1      1315 1.29900E+00 3.01375E+01 0.00000E+00
 -1      1316 1.29900E+00 3.16125E+01 0.00000E+00
 -1      1317 2.59800E+00 3.23500E+01 0.00000E+00
 -1      1318 1.29900E+00 2.71875E+01 0.00000E+00
 -1      1319 1.29900E+00 2.86625E+01 0.00000E+00
 -1      1320 2.59800E+00 2.94000E+01 0.00000E+00
 -1      1321 1.29900E+00 2.42375E+01 0.00000E+00
 -1      1322 1.29900E+00 2.57125E+01 0.00000E+00
 -1      1323 2.59800E+00 2.64500E+01 0.00000E+00
 -1      1324 1.29900E+00 2.12875E+01 0.00000E+00
 -1      1325 1.29900E+00 2.27625E+01 0.00000E+00
 -1      1326 2.59800E+00 2.35000E+01 0.00000E+00
 -1      1327 1.29900E+00 1.83375E+01 0.00000E+00
 -1      1328 1.29900E+00 1.98125E+01 0.00000E+00
 -1      1329 2.59800E+00 2.05500E+01 0.00000E+00
 -1      1330 1.29900E+00 1.54375E+01 0.00000E+00
 -1      1331 1.29900E+00 1.68875E+01 0.00000E+00
 -1      1332 2.59800E+00 1.76250E+01 0.00000E+00
 -1      1333 1.29900E+00 1.24875E+01 0.00000E+00
 -1      1334 1.29900E+00 1.39625E+01 0.00000E+00
 -1      1335 2.59800E+00 1.47000E+01 0.00000E+00
 -1      1336 1.29900E+00 9.53750E+00 0.00000E+00
 -1      1337 1.29900E+00 1.10125E+01 0.00000E+00
 -1      1338 2.59800E+00 1.17500E+01 0.00000E+00
 -1      1339 1.29900E+00 6.58750E+00 0.00000E+00
 -1      1340 1.29900E+00 8.06250E+00 0.00000E+00
 -1      1341 2.59800E+00 8.80000E+00 0.00000E+00
 -1      1342 1.29900E+00 3.63750E+00 0.00000E+00
 -1      1343 1.29900E+00 5.11250E+00 0.00000E+00
 -1      1344 2.59800E+00 5.85000E+00 0.00000E+00
 -1      1345 1.43700E+00 1.09375E+00 0.00000E+00
 -1      1346 1.43700E+00 2.54375E+00 0.00000E+00
 -1      1347 2.73600E+00 3.28125E+00 0.00000E+00
 -1      1348 3.01200E+00 1.09375E+00 0.00000E+00
 -1      1349 3.75000E+00 4.87010E+01 0.00000E+00
 -1      1350 5.25000E+00 4.87010E+01 0.00000E+00
 -1      1351 6.75000E+00 4.87010E+01 0.00000E+00
 -1      1352 8.25000E+00 4.87010E+01 0.00000E+00
 -1      1353 6.00000E+00 4.74020E+01 0.00000E+00
 -1      1354 9.75000E+00 4.87010E+01 0.00000E+00
 -1      1355 1.12500E+01 4.87010E+01 0.00000E+00
 -1      1356 9.00000E+00 4.74020E+01 0.00000E+00
 -1      1357 1.27500E+01 4.87010E+01 0.00000E+00
 -1      1358 1.42500E+01 4.87010E+01 0.00000E+00
 -1      1359 1.20000E+01 4.74020E+01 0.00000E+00
 -1      1360 1.56750E+01 4.87010E+01 0.00000E+00
 -1      1361 1.71000E+01 4.87010E+01 0.00000E+00
 -1      1362 1.49250E+01 4.74020E+01 0.00000E+00
 -1      1363 1.86000E+01 4.87010E+01 0.00000E+00
 -1      1364 2.01000E+01 4.87010E+01 0.00000E+00
 -1      1365 1.78500E+01 4.74020E+01 0.00000E+00
 -1      1366 2.16000E+01 4.87010E+01 0.00000E+00
 -1      1367 2.31000E+01 4.87010E+01 0.00000E+00
 -1      1368 2.08500E+01 4.74020E+01 0.00000E+00
 -1      1369 2.46000E+01 4.87010E+01 0.00000E+00
 -1      1370 2.61000E+01 4.87010E+01 0.00000E+00
 -1      1371 2.38500E+01 4.74020E+01 0.00000E+00
 -1      1372 2.76000E+01 4.87010E+01 0.00000E+00
 -1      1373 2.91000E+01 4.87010E+01 0.00000E+00
 -1      1374 2.68500E+01 4.74020E+01 0.00000E+00
 -1      1375 3.06000E+01 4.87010E+01 0.00000E+00
 -1      1376 3.21000E+01 4.87010E+01 0.00000E+00
 -1      1377 2.98500E+01 4.74020E+01 0.00000E+00
 -1      1378 3.35250E+01 4.87010E+01 0.00000E+00
 -1      1379 3.49500E+01 4.87010E+01 0.00000E+00
 -1      1380 3.27750E+01 4.74020E+01 0.00000E+00
 -1      1381 3.64500E+01 4.87010E+01 0.00000E+00
 -1      1382 3.79500E+01 4.87010E+01 0.00000E+00
 -1      1383 3.57000E+01 4.74020E+01 0.00000E+00
 -1      1384 3.94500E+01 4.87010E+01 0.00000E+00
 -1      1385 4.09500E+01 4.87010E+01 0.00000E+00
 -1      1386 3.87000E+01 4.74020E+01 0.00000E+00
 -1      1387 4.23750E+01 4.87010E+01 0.00000E+00
 -1      1388 4.38000E+01 4.87010E+01 0.00000E+00
 -1      1389 4.16250E+01 4.74020E+01 0.00000E+00
 -1      1390 4.75125E+01 4.90587E+01 0.00000E+00
 -1      1391 4.86375E+01 4.90587E+01 0.00000E+00
 -1      1392 4.97625E+01 4.90587E+01 0.00000E+00
 -1      1393 5.08875E+01 4.90587E+01 0.00000E+00
 -1      1394 4.92000E+01 4.81173E+01 0.00000E+00
 -1      1395 5.18625E+01 4.90587E+01 0.00000E+00
 -1      1396 5.28375E+01 4.90587E+01 0.00000E+00
 -1      1397 5.13000E+01 4.81173E+01 0.00000E+00
 -1      1398 5.39625E+01 4.90587E+01 0.00000E+00
 -1      1399 5.50875E+01 4.90587E+01 0.00000E+00
 -1      1400 5.34000E+01 4.81173E+01 0.00000E+00
 -1      1401 5.62875E+01 4.90587E+01 0.00000E+00
 -1      1402 5.74875E+01 4.90587E+01 0.00000E+00
 -1      1403 5.57250E+01 4.81173E+01 0.00000E+00
 -1      1404 5.89125E+01 4.90587E+01 0.00000E+00
 -1      1405 6.03375E+01 4.90587E+01 0.00000E+00
 -1      1406 5.83500E+01 4.81173E+01 0.00000E+00
 -1      1407 6.17625E+01 4.90587E+01 0.00000E+00
 -1      1408 6.31875E+01 4.90587E+01 0.00000E+00
 -1      1409 6.12000E+01 4.81173E+01 0.00000E+00
 -1      1410 6.46875E+01 4.90587E+01 0.00000E+00
 -1      1411 6.61875E+01 4.90587E+01 0.00000E+00
 -1      1412 6.41250E+01 4.81173E+01 0.00000E+00
 -1      1413 6.76875E+01 4.90587E+01 0.00000E+00
 -1      1414 6.91875E+01 4.90587E+01 0.00000E+00
 -1      1415 6.71250E+01 4.81173E+01 0.00000E+00
 -1      1416 7.06875E+01 4.90587E+01 0.00000E+00
 -1      1417 7.21875E+01 4.90587E+01 0.00000E+00
 -1      1418 7.01250E+01 4.81173E+01 0.00000E+00
 -1      1419 7.36875E+01 4.90587E+01 0.00000E+00
 -1      1420 7.51875E+01 4.90587E+01 0.00000E+00
 -1      1421 7.31250E+01 4.81173E+01 0.00000E+00
 -1      1422 7.66875E+01 4.90587E+01 0.00000E+00
 -1      1423 7.81875E+01 4.90587E+01 0.00000E+00
 -1      1424 7.61250E+01 4.81173E+01 0.00000E+00
 -1      1425 7.96125E+01 4.90587E+01 0.00000E+00
 -1      1426 8.10375E+01 4.90587E+01 0.00000E+00
 -1      1427 7.90500E+01 4.81173E+01 0.00000E+00
 -1      1428 8.25375E+01 4.90587E+01 0.00000E+00
 -1      1429 8.40375E+01 4.90587E+01 0.00000E+00
 -1      1430 8.19750E+01 4.81173E+01 0.00000E+00
 -1      1431 8.55375E+01 4.90587E+01 0.00000E+00
 -1      1432 8.70375E+01 4.90587E+01 0.00000E+00
 -1      1433 8.49750E+01 4.81173E+01 0.00000E+00
 -1      1434 8.85375E+01 4.90587E+01 0.00000E+00
 -1      1435 9.00375E+01 4.90587E+01 0.00000E+00
 -1      1436 8.79750E+01 4.81173E+01 0.00000E+00
 -1      1437 9.15375E+01 4.90587E+01 0.00000E+00
 -1      1438 9.30375E+01 4.90587E+01 0.00000E+00
 -1      1439 9.09750E+01 4.81173E+01 0.00000E+00
 -1      1440 9.45375E+01 4.90587E+01 0.00000E+00
 -1      1441 9.60375E+01 4.90587E+01 0.00000E+00
 -1      1442 9.39750E+01 4.81173E+01 0.00000E+00
 -1      1443 9.74625E+01 4.90587E+01 0.00000E+00
 -1      1444 9.88875E+01 4.90587E+01 0.00000E+00
 -1      1445 9.69000E+01 4.81173E+01 0.00000E+00
 -1      1446 1.00387E+02 4.90587E+01 0.00000E+00
 -1      1447 1.01887E+02 4.90587E+01 0.00000E+00
 -1      1448 9.98250E+01 4.81173E+01 0.00000E+00
 -1      1449 1.03387E+02 4.90587E+01 0.00000E+00
 -1      1450 1.04887E+02 4.90587E+01 0.00000E+00
 -1      1451 1.02825E+02 4.81173E+01 0.00000E+00
 -1      1452 1.06387E+02 4.90587E+01 0.00000E+00
 -1      1453 1.07887E+02 4.90587E+01 0.00000E+00
 -1      1454 1.05825E+02 4.81173E+01 0.00000E+00
 -1      1455 1.09387E+02 4.90587E+01 0.00000E+00
 -1      1456 1.10887E+02 4.90587E+01 0.00000E+00
 -1      1457 1.08825E+02 4.81173E+01 0.00000E+00
 -1      1458 1.12387E+02 4.90587E+01 0.00000E+00
 -1      1459 1.13887E+02 4.90587E+01 0.00000E+00
 -1      1460 1.11825E+02 4.81173E+01 0.00000E+00
 -1      1461 1.15313E+02 4.90587E+01 0.00000E+00
 -1      1462 1.16738E+02 4.90587E+01 0.00000E+00
 -1      1463 1.14750E+02 4.81173E+01 0.00000E+00
 -1      1464 1.18238E+02 4.90587E+01 0.00000E+00
 -1      1465 1.19738E+02 4.90587E+01 0.00000E+00
 -1      1466 1.17675E+02 4.81173E+01 0.00000E+00
 -1      1467 1.21238E+02 4.90587E+01 0.00000E+00
 -1      1468 1.22738E+02 4.90587E+01 0.00000E+00
 -1      1469 1.20675E+02 4.81173E+01 0.00000E+00
 -1      1470 1.24238E+02 4.90587E+01 0.00000E+00
 -1      1471 1.25738E+02 4.90587E+01 0.00000E+00
 -1      1472 1.23675E+02 4.81173E+01 0.00000E+00
 -1      1473 1.27238E+02 4.90587E+01 0.00000E+00
 -1      1474 1.28738E+02 4.90587E+01 0.00000E+00
 -1      1475 1.26675E+02 4.81173E+01 0.00000E+00
 -1      1476 1.30238E+02 4.90587E+01 0.00000E+00
 -1      1477 1.31738E+02 4.90587E+01 0.00000E+00
 -1      1478 1.29675E+02 4.81173E+01 0.00000E+00
 -1      1479 1.33163E+02 4.90587E+01 0.00000E+00
 -1      1480 1.34587E+02 4.90587E+01 0.00000E+00
 -1      1481 1.32600E+02 4.81173E+01 0.00000E+00
 -1      1482 1.36087E+02 4.90587E+01 0.00000E+00
 -1      1483 1.37587E+02 4.90587E+01 0.00000E+00
 -1      1484 1.35525E+02 4.81173E+01 0.00000E+00
 -1      1485 1.39087E+02 4.90587E+01 0.00000E+00
 -1      1486 1.40587E+02 4.90587E+01 0.00000E+00
 -1      1487 1.38525E+02 4.81173E+01 0.00000E+00
 -1      1488 1.42087E+02 4.90587E+01 0.00000E+00
 -1      1489 1.43587E+02 4.90587E+01 0.00000E+00
 -1      1490 1.41525E+02 4.81173E+01 0.00000E+00
 -1      1491 1.45087E+02 4.90587E+01 0.00000E+00
 -1      1492 1.46587E+02 4.90587E+01 0.00000E+00
 -1      1493 1.44525E+02 4.81173E+01 0.00000E+00
 -1      1494 1.47581E+02 4.88043E+01 0.00000E+00
 -1      1495 1.49006E+02 4.88043E+01 0.00000E+00
 -1      1496 1.49006E+02 4.73543E+01 0.00000E+00
 -1      1497 1.47019E+02 4.78630E+01 0.00000E+00
 -1      1498 6.01200E+00 1.09375E+00 0.00000E+00
 -1      1499 4.51200E+00 1.09375E+00 0.00000E+00
 -1      1500 4.37400E+00 2.18750E+00 0.00000E+00
 -1      1501 9.01200E+00 1.09375E+00 0.00000E+00
 -1      1502 7.51200E+00 1.09375E+00 0.00000E+00
 -1      1503 7.37400E+00 2.18750E+00 0.00000E+00
 -1      1504 1.20120E+01 1.09375E+00 0.00000E+00
 -1      1505 1.05120E+01 1.09375E+00 0.00000E+00
 -1      1506 1.03740E+01 2.18750E+00 0.00000E+00
 -1      1507 1.50120E+01 1.09375E+00 0.00000E+00
 -1      1508 1.35120E+01 1.09375E+00 0.00000E+00
 -1      1509 1.33740E+01 2.18750E+00 0.00000E+00
 -1      1510 1.80120E+01 1.09375E+00 0.00000E+00
 -1      1511 1.65120E+01 1.09375E+00 0.00000E+00
 -1      1512 1.63740E+01 2.18750E+00 0.00000E+00
 -1      1513 2.10120E+01 1.09375E+00 0.00000E+00
 -1      1514 1.95120E+01 1.09375E+00 0.00000E+00
 -1      1515 1.93740E+01 2.18750E+00 0.00000E+00
 -1      1516 2.40120E+01 1.09375E+00 0.00000E+00
 -1      1517 2.25120E+01 1.09375E+00 0.00000E+00
 -1      1518 2.23740E+01 2.18750E+00 0.00000E+00
 -1      1519 2.70120E+01 1.09375E+00 0.00000E+00
 -1      1520 2.55120E+01 1.09375E+00 0.00000E+00
 -1      1521 2.53740E+01 2.18750E+00 0.00000E+00
 -1      1522 3.00120E+01 1.09375E+00 0.00000E+00
 -1      1523 2.85120E+01 1.09375E+00 0.00000E+00
 -1      1524 2.83740E+01 2.18750E+00 0.00000E+00
 -1      1525 3.30120E+01 1.09375E+00 0.00000E+00
 -1      1526 3.15120E+01 1.09375E+00 0.00000E+00
 -1      1527 3.13740E+01 2.18750E+00 0.00000E+00
 -1      1528 3.60120E+01 1.09375E+00 0.00000E+00
 -1      1529 3.45120E+01 1.09375E+00 0.00000E+00
 -1      1530 3.43740E+01 2.18750E+00 0.00000E+00
 -1      1531 3.90120E+01 1.09375E+00 0.00000E+00
 -1      1532 3.75120E+01 1.09375E+00 0.00000E+00
 -1      1533 3.73740E+01 2.18750E+00 0.00000E+00
 -1      1534 4.20120E+01 1.09375E+00 0.00000E+00
 -1      1535 4.05120E+01 1.09375E+00 0.00000E+00
 -1      1536 4.03740E+01 2.18750E+00 0.00000E+00
 -1      1537 4.50120E+01 1.09375E+00 0.00000E+00
 -1      1538 4.35120E+01 1.09375E+00 0.00000E+00
 -1      1539 4.33740E+01 2.18750E+00 0.00000E+00
 -1      1540 4.80120E+01 1.09375E+00 0.00000E+00
 -1      1541 4.65120E+01 1.09375E+00 0.00000E+00
 -1      1542 4.63740E+01 2.18750E+00 0.00000E+00
 -1      1543 5.10120E+01 1.09375E+00 0.00000E+00
 -1      1544 4.95120E+01 1.09375E+00 0.00000E+00
 -1      1545 4.93740E+01 2.18750E+00 0.00000E+00
 -1      1546 5.40120E+01 1.09375E+00 0.00000E+00
 -1      1547 5.25120E+01 1.09375E+00 0.00000E+00
 -1      1548 5.23740E+01 2.18750E+00 0.00000E+00
 -1      1549 5.70120E+01 1.09375E+00 0.00000E+00
 -1      1550 5.55120E+01 1.09375E+00 0.00000E+00
 -1      1551 5.53740E+01 2.18750E+00 0.00000E+00
 -1      1552 6.00120E+01 1.09375E+00 0.00000E+00
 -1      1553 5.85120E+01 1.09375E+00 0.00000E+00
 -1      1554 5.83740E+01 2.18750E+00 0.00000E+00
 -1      1555 6.30120E+01 1.09375E+00 0.00000E+00
 -1      1556 6.15120E+01 1.09375E+00 0.00000E+00
 -1      1557 6.13740E+01 2.18750E+00 0.00000E+00
 -1      1558 6.60120E+01 1.09375E+00 0.00000E+00
 -1      1559 6.45120E+01 1.09375E+00 0.00000E+00
 -1      1560 6.43740E+01 2.18750E+00 0.00000E+00
 -1      1561 6.90120E+01 1.09375E+00 0.00000E+00
 -1      1562 6.75120E+01 1.09375E+00 0.00000E+00
 -1      1563 6.73740E+01 2.18750E+00 0.00000E+00
 -1      1564 7.20120E+01 1.09375E+00 0.00000E+00
 -1      1565 7.05120E+01 1.09375E+00 0.00000E+00
 -1      1566 7.03740E+01 2.18750E+00 0.00000E+00
 -1      1567 7.50120E+01 1.09375E+00 0.00000E+00
 -1      1568 7.35120E+01 1.09375E+00 0.00000E+00
 -1      1569 7.33740E+01 2.18750E+00 0.00000E+00
 -1      1570 7.80120E+01 1.09375E+00 0.00000E+00
 -1      1571 7.65120E+01 1.09375E+00 0.00000E+00
 -1      1572 7.63740E+01 2.18750E+00 0.00000E+00
 -1      1573 8.10120E+01 1.09375E+00 0.00000E+00
 -1      1574 7.95120E+01 1.09375E+00 0.00000E+00
 -1      1575 7.93740E+01 2.18750E+00 0.00000E+00
 -1      1576 8.40120E+01 1.09375E+00 0.00000E+00
 -1      1577 8.25120E+01 1.09375E+00 0.00000E+00
 -1      1578 8.23740E+01 2.18750E+00 0.00000E+00
 -1      1579 8.70120E+01 1.09375E+00 0.00000E+00
 -1      1580 8.55120E+01 1.09375E+00 0.00000E+00
 -1      1581 8.53740E+01 2.18750E+00 0.00000E+00
 -1      1582 9.00120E+01 1.09375E+00 0.00000E+00
 -1      1583 8.85120E+01 1.09375E+00 0.00000E+00
 -1      1584 8.83740E+01 2.18750E+00 0.00000E+00
 -1      1585 9.30120E+01 1.09375E+00 0.00000E+00
 -1      1586 9.15120E+01 1.09375E+00 0.00000E+00
 -1      1587 9.13740E+01 2.18750E+00 0.00000E+00
 -1      1588 9.60120E+01 1.09375E+00 0.00000E+00
 -1      1589 9.45120E+01 1.09375E+00 0.00000E+00
 -1      1590 9.43740E+01 2.18750E+00 0.00000E+00
 -1      1591 9.90120E+01 1.09375E+00 0.00000E+00
 -1      1592 9.75120E+01 1.09375E+00 0.00000E+00
 -1      1593 9.73740E+01 2.18750E+00 0.00000E+00
 -1      1594 1.02012E+02 1.09375E+00 0.00000E+00
 -1      1595 1.00512E+02 1.09375E+00 0.00000E+00
 -1      1596 1.00374E+02 2.18750E+00 0.00000E+00
 -1      1597 1.05012E+02 1.09375E+00 0.00000E+00
 -1      1598 1.03512E+02 1.09375E+00 0.00000E+00
 -1      1599 1.03374E+02 2.18750E+00 0.00000E+00
 -1      1600 1.08012E+02 1.09375E+00 0.00000E+00
 -1      1601 1.06512E+02 1.09375E+00 0.00000E+00
 -1      1602 1.06374E+02 2.18750E+00 0.00000E+00
 -1      1603 1.11012E+02 1.09375E+00 0.00000E+00
 -1      1604 1.09512E+02 1.09375E+00 0.00000E+00
 -1      1605 1.09374E+02 2.18750E+00 0.00000E+00
 -1      1606 1.14012E+02 1.09375E+00 0.00000E+00
 -1      1607 1.12512E+02 1.09375E+00 0.00000E+00
 -1      1608 1.12374E+02 2.18750E+00 0.00000E+00
 -1      1609 1.17012E+02 1.09375E+00 0.00000E+00
 -1      1610 1.15512E+02 1.09375E+00 0.00000E+00
 -1      1611 1.15374E+02 2.18750E+00 0.00000E+00
 -1      1612 1.20012E+02 1.09375E+00 0.00000E+00
 -1      1613 1.18512E+02 1.09375E+00 0.00000E+00
 -1      1614 1.18374E+02 2.18750E+00 0.00000E+00
 -1      1615 1.23012E+02 1.09375E+00 0.00000E+00
 -1      1616 1.21512E+02 1.09375E+00 0.00000E+00
 -1      1617 1.21374E+02 2.18750E+00 0.00000E+00
 -1      1618 1.26012E+02 1.09375E+00 0.00000E+00
 -1      1619 1.24512E+02 1.09375E+00 0.00000E+00
 -1      1620 1.24374E+02 2.18750E+00 0.00000E+00
 -1      1621 1.29012E+02 1.09375E+00 0.00000E+00
 -1      1622 1.27512E+02 1.09375E+00 0.00000E+00
 -1      1623 1.27374E+02 2.18750E+00 0.00000E+00
 -1      1624 1.32012E+02 1.09375E+00 0.00000E+00
 -1      1625 1.30512E+02 1.09375E+00 0.00000E+00
 -1      1626 1.30374E+02 2.18750E+00 0.00000E+00
 -1      1627 1.35012E+02 1.09375E+00 0.00000E+00
 -1      1628 1.33512E+02 1.09375E+00 0.00000E+00
 -1      1629 1.33374E+02 2.18750E+00 0.00000E+00
 -1      1630 1.38012E+02 1.09375E+00 0.00000E+00
 -1      1631 1.36512E+02 1.09375E+00 0.00000E+00
 -1      1632 1.36374E+02 2.18750E+00 0.00000E+00
 -1      1633 1.41012E+02 1.09375E+00 0.00000E+00
 -1      1634 1.39512E+02 1.09375E+00 0.00000E+00
 -1      1635 1.39374E+02 2.18750E+00 0.00000E+00
 -1      1636 1.44012E+02 1.09375E+00 0.00000E+00
 -1      1637 1.42512E+02 1.09375E+00 0.00000E+00
 -1      1638 1.42374E+02 2.18750E+00 0.00000E+00
 -1      1639 1.47012E+02 1.09375E+00 0.00000E+00
 -1      1640 1.45512E+02 1.09375E+00 0.00000E+00
 -1      1641 1.45374E+02 2.18750E+00 0.00000E+00
 -1      1642 1.48575E+02 1.47500E+00 0.00000E+00
 -1      1643 1.48701E+02 5.16250E+00 0.00000E+00
 -1      1644 1.48701E+02 3.68750E+00 0.00000E+00
 -1      1645 1.48701E+02 8.11250E+00 0.00000E+00
 -1      1646 1.48701E+02 6.63750E+00 0.00000E+00
 -1      1647 1.47402E+02 5.90000E+00 0.00000E+00
 -1      1648 1.48701E+02 1.10625E+01 0.00000E+00
 -1      1649 1.48701E+02 9.58750E+00 0.00000E+00
 -1      1650 1.47402E+02 8.85000E+00 0.00000E+00
 -1      1651 1.48701E+02 1.40125E+01 0.00000E+00
 -1      1652 1.48701E+02 1.25375E+01 0.00000E+00
 -1      1653 1.47402E+02 1.18000E+01 0.00000E+00
 -1      1654 1.48701E+02 1.69125E+01 0.00000E+00
 -1      1655 1.48701E+02 1.54625E+01 0.00000E+00
 -1      1656 1.47402E+02 1.47250E+01 0.00000E+00
 -1      1657 1.48701E+02 1.98625E+01 0.00000E+00
 -1      1658 1.48701E+02 1.83875E+01 0.00000E+00
 -1      1659 1.47402E+02 1.76500E+01 0.00000E+00
 -1      1660 1.48701E+02 2.28125E+01 0.00000E+00
 -1      1661 1.48701E+02 2.13375E+01 0.00000E+00
 -1      1662 1.47402E+02 2.06000E+01 0.00000E+00
 -1      1663 1.48701E+02 2.57625E+01 0.00000E+00
 -1      1664 1.48701E+02 2.42875E+01 0.00000E+00
 -1      1665 1.47402E+02 2.35500E+01 0.00000E+00
 -1      1666 1.48701E+02 2.87125E+01 0.00000E+00
 -1      1667 1.48701E+02 2.72375E+01 0.00000E+00
 -1      1668 1.47402E+02 2.65000E+01 0.00000E+00
 -1      1669 1.48701E+02 3.16625E+01 0.00000E+00
 -1      1670 1.48701E+02 3.01875E+01 0.00000E+00
 -1      1671 1.47402E+02 2.94500E+01 0.00000E+00
 -1      1672 1.48701E+02 3.45625E+01 0.00000E+00
 -1      1673 1.48701E+02 3.31125E+01 0.00000E+00
 -1      1674 1.47402E+02 3.23750E+01 0.00000E+00
 -1      1675 1.48701E+02 3.75125E+01 0.00000E+00
 -1      1676 1.48701E+02 3.60375E+01 0.00000E+00
 -1      1677 1.47402E+02 3.53000E+01 0.00000E+00
 -1      1678 1.48701E+02 4.04625E+01 0.00000E+00
 -1      1679 1.48701E+02 3.89875E+01 0.00000E+00
 -1      1680 1.47402E+02 3.82500E+01 0.00000E+00
 -1      1681 1.48701E+02 4.34125E+01 0.00000E+00
 -1      1682 1.48701E+02 4.19375E+01 0.00000E+00
 -1      1683 1.47402E+02 4.12000E+01 0.00000E+00
 -1      1684 1.48854E+02 4.61209E+01 0.00000E+00
 -1      1685 1.48854E+02 4.46459E+01 0.00000E+00
 -1      1686 1.47555E+02 4.39084E+01 0.00000E+00
 -1      1687 1.47860E+02 4.63752E+01 0.00000E+00
 -1      1688 5.75201E+01 3.61873E+01 0.00000E+00
 -1      1689 5.75952E+01 3.69085E+01 0.00000E+00
 -1      1690 5.70792E+01 3.46667E+01 0.00000E+00
 -1      1691 5.73030E+01 3.53608E+01 0.00000E+00
 -1      1692 5.63651E+01 3.32454E+01 0.00000E+00
 -1      1693 5.67323E+01 3.38842E+01 0.00000E+00
 -1      1694 5.53882E+01 3.20201E+01 0.00000E+00
 -1      1695 5.58678E+01 3.25559E+01 0.00000E+00
 -1      1696 5.42091E+01 3.10415E+01 0.00000E+00
 -1      1697 5.47746E+01 3.14599E+01 0.00000E+00
 -1      1698 5.28058E+01 3.02599E+01 0.00000E+00
 -1      1699 5.34920E+01 3.05733E+01 0.00000E+00
 -1      1700 5.12747E+01 2.98263E+01 0.00000E+00
 -1      1701 5.19803E+01 2.99820E+01 0.00000E+00
 -1      1702 4.96796E+01 2.97245E+01 0.00000E+00
 -1      1703 5.04182E+01 2.97304E+01 0.00000E+00
 -1      1704 4.80797E+01 2.99180E+01 0.00000E+00
 -1      1705 4.88037E+01 2.97685E+01 0.00000E+00
 -1      1706 4.66500E+01 3.05318E+01 0.00000E+00
 -1      1707 4.72938E+01 3.02522E+01 0.00000E+00
 -1      1708 4.51690E+01 3.13352E+01 0.00000E+00
 -1      1709 4.58175E+01 3.08677E+01 0.00000E+00
 -1      1710 4.41138E+01 3.25478E+01 0.00000E+00
 -1      1711 4.45855E+01 3.20213E+01 0.00000E+00
 -1      1712 4.30617E+01 3.38869E+01 0.00000E+00
 -1      1713 4.34577E+01 3.31857E+01 0.00000E+00
 -1      1714 4.26439E+01 3.54688E+01 0.00000E+00
 -1      1715 4.28531E+01 3.47836E+01 0.00000E+00
 -1      1716 4.23351E+01 3.70788E+01 0.00000E+00
 -1      1717 4.23994E+01 3.63134E+01 0.00000E+00
 -1      1718 4.25267E+01 3.86607E+01 0.00000E+00
 -1      1719 4.24351E+01 3.79515E+01 0.00000E+00
 -1      1720 4.29081E+01 4.01544E+01 0.00000E+00
 -1      1721 4.26768E+01 3.94841E+01 0.00000E+00
 -1      1722 4.36640E+01 4.15112E+01 0.00000E+00
 -1      1723 4.32982E+01 4.08956E+01 0.00000E+00
 -1      1724 4.46490E+01 4.28250E+01 0.00000E+00
 -1      1725 4.41248E+01 4.22610E+01 0.00000E+00
 -1      1726 4.59567E+01 4.37524E+01 0.00000E+00
 -1      1727 4.53656E+01 4.33405E+01 0.00000E+00
 -1      1728 4.73078E+01 4.44265E+01 0.00000E+00
 -1      1729 4.66752E+01 4.41539E+01 0.00000E+00
 -1      1730 4.87693E+01 4.48166E+01 0.00000E+00
 -1      1731 4.80824E+01 4.46717E+01 0.00000E+00
 -1      1732 5.03451E+01 4.49458E+01 0.00000E+00
 -1      1733 4.96062E+01 4.49445E+01 0.00000E+00
 -1      1734 5.19201E+01 4.46621E+01 0.00000E+00
 -1      1735 5.12011E+01 4.48149E+01 0.00000E+00
 -1      1736 5.33690E+01 4.41189E+01 0.00000E+00
 -1      1737 5.27220E+01 4.44045E+01 0.00000E+00
 -1      1738 5.47711E+01 4.33173E+01 0.00000E+00
 -1      1739 5.41580E+01 4.37598E+01 0.00000E+00
 -1      1740 5.59059E+01 4.21321E+01 0.00000E+00
 -1      1741 5.54064E+01 4.26899E+01 0.00000E+00
 -1      1742 5.67210E+01 4.08168E+01 0.00000E+00
 -1      1743 5.63723E+01 4.14214E+01 0.00000E+00
 -1      1744 5.73280E+01 3.93790E+01 0.00000E+00
 -1      1745 5.70998E+01 4.00696E+01 0.00000E+00
 -1      1746 5.76338E+01 3.77838E+01 0.00000E+00
 -1      1747 5.75531E+01 3.85309E+01 0.00000E+00
 -1      1748 4.51500E+01 4.88911E+01 0.00000E+00
 -1      1749 4.63500E+01 4.88911E+01 0.00000E+00
 -1      1750 5.82409E+01 3.73561E+01 0.00000E+00
 -1      1751 5.65770E+01 3.25732E+01 0.00000E+00
 -1      1752 1.48437E+02 2.56875E+00 0.00000E+00
 -1      1753 1.47138E+02 3.30625E+00 0.00000E+00
 -1      1754 5.79851E+01 3.56543E+01 0.00000E+00
 -1      1755 5.74212E+01 3.40452E+01 0.00000E+00
 -1      1756 5.54661E+01 3.13236E+01 0.00000E+00
 -1      1757 5.41353E+01 3.02952E+01 0.00000E+00
 -1      1758 5.25926E+01 2.95492E+01 0.00000E+00
 -1      1759 5.09106E+01 2.91753E+01 0.00000E+00
 -1      1760 4.91781E+01 2.91234E+01 0.00000E+00
 -1      1761 4.75163E+01 2.95018E+01 0.00000E+00
 -1      1762 4.58978E+01 3.01719E+01 0.00000E+00
 -1      1763 4.44817E+01 3.11939E+01 0.00000E+00
 -1      1764 4.32420E+01 3.25180E+01 0.00000E+00
 -1      1765 4.23773E+01 3.40525E+01 0.00000E+00
 -1      1766 4.19242E+01 3.57938E+01 0.00000E+00
 -1      1767 4.17797E+01 3.75111E+01 0.00000E+00
 -1      1768 4.20298E+01 3.92072E+01 0.00000E+00
 -1      1769 4.25699E+01 4.07719E+01 0.00000E+00
 -1      1770 4.34208E+01 4.22630E+01 0.00000E+00
 -1      1771 4.45981E+01 4.35283E+01 0.00000E+00
 -1      1772 4.60331E+01 4.44454E+01 0.00000E+00
 -1      1773 4.75262E+01 4.50921E+01 0.00000E+00
 -1      1774 4.91377E+01 4.54653E+01 0.00000E+00
 -1      1775 5.08306E+01 4.54624E+01 0.00000E+00
 -1      1776 5.24884E+01 4.50739E+01 0.00000E+00
 -1      1777 5.40793E+01 4.44572E+01 0.00000E+00
 -1      1778 5.55037E+01 4.34707E+01 0.00000E+00
 -1      1779 5.66054E+01 4.21327E+01 0.00000E+00
 -1      1780 5.74505E+01 4.06748E+01 0.00000E+00
 -1      1781 5.80544E+01 3.90795E+01 0.00000E+00
 -1      1782 4.69125E+01 4.79497E+01 0.00000E+00
 -1      1783 2.79900E+00 4.77875E+01 0.00000E+00
 -1      1784 4.44000E+01 4.75921E+01 0.00000E+00
 -1      1785 3.89700E+00 4.04125E+01 0.00000E+00
 -1      1786 3.89700E+00 4.18875E+01 0.00000E+00
 -1      1787 3.89700E+00 4.33625E+01 0.00000E+00
 -1      1788 3.89700E+00 4.48375E+01 0.00000E+00
 -1      1789 5.19600E+00 4.26250E+01 0.00000E+00
 -1      1790 3.89700E+00 3.45500E+01 0.00000E+00
 -1      1791 3.89700E+00 3.60000E+01 0.00000E+00
 -1      1792 3.89700E+00 3.16000E+01 0.00000E+00
 -1      1793 3.89700E+00 3.30750E+01 0.00000E+00
 -1      1794 5.19600E+00 3.38000E+01 0.00000E+00
 -1      1795 3.89700E+00 2.86500E+01 0.00000E+00
 -1      1796 3.89700E+00 3.01250E+01 0.00000E+00
 -1      1797 5.19600E+00 3.08500E+01 0.00000E+00
 -1      1798 3.89700E+00 2.57000E+01 0.00000E+00
 -1      1799 3.89700E+00 2.71750E+01 0.00000E+00
 -1      1800 5.19600E+00 2.79000E+01 0.00000E+00
 -1      1801 3.89700E+00 2.27500E+01 0.00000E+00
 -1      1802 3.89700E+00 2.42250E+01 0.00000E+00
 -1      1803 5.19600E+00 2.49500E+01 0.00000E+00
 -1      1804 3.89700E+00 1.98000E+01 0.00000E+00
 -1      1805 3.89700E+00 2.12750E+01 0.00000E+00
 -1      1806 5.19600E+00 2.20000E+01 0.00000E+00
 -1      1807 3.89700E+00 1.69000E+01 0.00000E+00
 -1      1808 3.89700E+00 1.83500E+01 0.00000E+00
 -1      1809 5.19600E+00 1.90750E+01 0.00000E+00
 -1      1810 3.89700E+00 1.39500E+01 0.00000E+00
 -1      1811 3.89700E+00 1.54250E+01 0.00000E+00
 -1      1812 5.19600E+00 1.61500E+01 0.00000E+00
 -1      1813 3.89700E+00 1.10000E+01 0.00000E+00
 -1      1814 3.89700E+00 1.24750E+01 0.00000E+00
 -1      1815 5.19600E+00 1.32000E+01 0.00000E+00
 -1      1816 3.89700E+00 8.05000E+00 0.00000E+00
 -1      1817 3.89700E+00 9.52500E+00 0.00000E+00
 -1      1818 5.19600E+00 1.02500E+01 0.00000E+00
 -1      1819 3.89700E+00 5.10000E+00 0.00000E+00
 -1      1820 3.89700E+00 6.57500E+00 0.00000E+00
 -1      1821 5.19600E+00 7.30000E+00 0.00000E+00
 -1      1822 4.20450E+00 3.09687E+00 0.00000E+00
 -1      1823 4.06650E+00 4.19063E+00 0.00000E+00
 -1      1824 5.36550E+00 4.91563E+00 0.00000E+00
 -1      1825 5.70450E+00 3.09687E+00 0.00000E+00
 -1      1826 3.54900E+00 4.64885E+01 0.00000E+00
 -1      1827 8.70450E+00 3.09687E+00 0.00000E+00
 -1      1828 7.20450E+00 3.09687E+00 0.00000E+00
 -1      1829 7.03500E+00 4.00625E+00 0.00000E+00
 -1      1830 4.38563E+01 4.65649E+01 0.00000E+00
 -1      1831 4.52063E+01 4.67550E+01 0.00000E+00
 -1      1832 8.25000E+00 4.61030E+01 0.00000E+00
 -1      1833 9.75000E+00 4.61030E+01 0.00000E+00
 -1      1834 1.12500E+01 4.61030E+01 0.00000E+00
 -1      1835 1.27500E+01 4.61030E+01 0.00000E+00
 -1      1836 1.05000E+01 4.48040E+01 0.00000E+00
 -1      1837 1.41750E+01 4.61030E+01 0.00000E+00
 -1      1838 1.56000E+01 4.61030E+01 0.00000E+00
 -1      1839 1.34250E+01 4.48040E+01 0.00000E+00
 -1      1840 1.71000E+01 4.61030E+01 0.00000E+00
 -1      1841 1.86000E+01 4.61030E+01 0.00000E+00
 -1      1842 1.63500E+01 4.48040E+01 0.00000E+00
 -1      1843 2.01000E+01 4.61030E+01 0.00000E+00
 -1      1844 2.16000E+01 4.61030E+01 0.00000E+00
 -1      1845 1.93500E+01 4.48040E+01 0.00000E+00
 -1      1846 2.31000E+01 4.61030E+01 0.00000E+00
 -1      1847 2.46000E+01 4.61030E+01 0.00000E+00
 -1      1848 2.23500E+01 4.48040E+01 0.00000E+00
 -1      1849 2.61000E+01 4.61030E+01 0.00000E+00
 -1      1850 2.76000E+01 4.61030E+01 0.00000E+00
 -1      1851 2.53500E+01 4.48040E+01 0.00000E+00
 -1      1852 2.91000E+01 4.61030E+01 0.00000E+00
 -1      1853 3.06000E+01 4.61030E+01 0.00000E+00
 -1      1854 2.83500E+01 4.48040E+01 0.00000E+00
 -1      1855 3.20250E+01 4.61030E+01 0.00000E+00
 -1      1856 3.34500E+01 4.61030E+01 0.00000E+00
 -1      1857 3.12750E+01 4.48040E+01 0.00000E+00
 -1      1858 3.49500E+01 4.61030E+01 0.00000E+00
 -1      1859 3.64500E+01 4.61030E+01 0.00000E+00
 -1      1860 3.42000E+01 4.48040E+01 0.00000E+00
 -1      1861 3.79500E+01 4.61030E+01 0.00000E+00
 -1      1862 3.94500E+01 4.61030E+01 0.00000E+00
 -1      1863 3.72000E+01 4.48040E+01 0.00000E+00
 -1      1864 4.08750E+01 4.61030E+01 0.00000E+00
 -1      1865 4.23000E+01 4.61030E+01 0.00000E+00
 -1      1866 4.01250E+01 4.48040E+01 0.00000E+00
 -1      1867 5.89946E+01 3.68843E+01 0.00000E+00
 -1      1868 5.90332E+01 3.77596E+01 0.00000E+00
 -1      1869 5.28375E+01 4.73017E+01 0.00000E+00
 -1      1870 5.39625E+01 4.73017E+01 0.00000E+00
 -1      1871 5.51250E+01 4.71760E+01 0.00000E+00
 -1      1872 5.63250E+01 4.71760E+01 0.00000E+00
 -1      1873 5.77500E+01 4.71760E+01 0.00000E+00
 -1      1874 5.91750E+01 4.71760E+01 0.00000E+00
 -1      1875 5.71500E+01 4.62346E+01 0.00000E+00
 -1      1876 6.06000E+01 4.71760E+01 0.00000E+00
 -1      1877 6.20250E+01 4.71760E+01 0.00000E+00
 -1      1878 6.00000E+01 4.62346E+01 0.00000E+00
 -1      1879 6.35250E+01 4.71760E+01 0.00000E+00
 -1      1880 6.50250E+01 4.71760E+01 0.00000E+00
 -1      1881 6.29250E+01 4.62346E+01 0.00000E+00
 -1      1882 6.65250E+01 4.71760E+01 0.00000E+00
 -1      1883 6.80250E+01 4.71760E+01 0.00000E+00
 -1      1884 6.59250E+01 4.62346E+01 0.00000E+00
 -1      1885 6.95250E+01 4.71760E+01 0.00000E+00
 -1      1886 7.10250E+01 4.71760E+01 0.00000E+00
 -1      1887 6.89250E+01 4.62346E+01 0.00000E+00
 -1      1888 7.25250E+01 4.71760E+01 0.00000E+00
 -1      1889 7.40250E+01 4.71760E+01 0.00000E+00
 -1      1890 7.19250E+01 4.62346E+01 0.00000E+00
 -1      1891 7.55250E+01 4.71760E+01 0.00000E+00
 -1      1892 7.70250E+01 4.71760E+01 0.00000E+00
 -1      1893 7.49250E+01 4.62346E+01 0.00000E+00
 -1      1894 7.84500E+01 4.71760E+01 0.00000E+00
 -1      1895 7.98750E+01 4.71760E+01 0.00000E+00
 -1      1896 7.78500E+01 4.62346E+01 0.00000E+00
 -1      1897 8.13750E+01 4.71760E+01 0.00000E+00
 -1      1898 8.28750E+01 4.71760E+01 0.00000E+00
 -1      1899 8.07750E+01 4.62346E+01 0.00000E+00
 -1      1900 8.43750E+01 4.71760E+01 0.00000E+00
 -1      1901 8.58750E+01 4.71760E+01 0.00000E+00
 -1      1902 8.37750E+01 4.62346E+01 0.00000E+00
 -1      1903 8.73750E+01 4.71760E+01 0.00000E+00
 -1      1904 8.88750E+01 4.71760E+01 0.00000E+00
 -1      1905 8.67750E+01 4.62346E+01 0.00000E+00
 -1      1906 9.03750E+01 4.71760E+01 0.00000E+00
 -1      1907 9.18750E+01 4.71760E+01 0.00000E+00
 -1      1908 8.97750E+01 4.62346E+01 0.00000E+00
 -1      1909 9.33750E+01 4.71760E+01 0.00000E+00
 -1      1910 9.48750E+01 4.71760E+01 0.00000E+00
 -1      1911 9.27750E+01 4.62346E+01 0.00000E+00
 -1      1912 9.63000E+01 4.71760E+01 0.00000E+00
 -1      1913 9.77250E+01 4.71760E+01 0.00000E+00
 -1      1914 9.57000E+01 4.62346E+01 0.00000E+00
 -1      1915 9.92250E+01 4.71760E+01 0.00000E+00
 -1      1916 1.00725E+02 4.71760E+01 0.00000E+00
 -1      1917 9.86250E+01 4.62346E+01 0.00000E+00
 -1      1918 1.02225E+02 4.71760E+01 0.00000E+00
 -1      1919 1.03725E+02 4.71760E+01 0.00000E+00
 -1      1920 1.01625E+02 4.62346E+01 0.00000E+00
 -1      1921 1.05225E+02 4.71760E+01 0.00000E+00
 -1      1922 1.06725E+02 4.71760E+01 0.00000E+00
 -1      1923 1.04625E+02 4.62346E+01 0.00000E+00
 -1      1924 1.08225E+02 4.71760E+01 0.00000E+00
 -1      1925 1.09725E+02 4.71760E+01 0.00000E+00
 -1      1926 1.07625E+02 4.62346E+01 0.00000E+00
 -1      1927 1.11225E+02 4.71760E+01 0.00000E+00
 -1      1928 1.12725E+02 4.71760E+01 0.00000E+00
 -1      1929 1.10625E+02 4.62346E+01 0.00000E+00
 -1      1930 1.14150E+02 4.71760E+01 0.00000E+00
 -1      1931 1.15575E+02 4.71760E+01 0.00000E+00
 -1      1932 1.13550E+02 4.62346E+01 0.00000E+00
 -1      1933 1.17075E+02 4.71760E+01 0.00000E+00
 -1      1934 1.18575E+02 4.71760E+01 0.00000E+00
 -1      1935 1.16475E+02 4.62346E+01 0.00000E+00
 -1      1936 1.20075E+02 4.71760E+01 0.00000E+00
 -1      1937 1.21575E+02 4.71760E+01 0.00000E+00
 -1      1938 1.19475E+02 4.62346E+01 0.00000E+00
 -1      1939 1.23075E+02 4.71760E+01 0.00000E+00
 -1      1940 1.24575E+02 4.71760E+01 0.00000E+00
 -1      1941 1.22475E+02 4.62346E+01 0.00000E+00
 -1      1942 1.26075E+02 4.71760E+01 0.00000E+00
 -1      1943 1.27575E+02 4.71760E+01 0.00000E+00
 -1      1944 1.25475E+02 4.62346E+01 0.00000E+00
 -1      1945 1.29075E+02 4.71760E+01 0.00000E+00
 -1      1946 1.30575E+02 4.71760E+01 0.00000E+00
 -1      1947 1.28475E+02 4.62346E+01 0.00000E+00
 -1      1948 1.32000E+02 4.71760E+01 0.00000E+00
 -1      1949 1.33425E+02 4.71760E+01 0.00000E+00
 -1      1950 1.31400E+02 4.62346E+01 0.00000E+00
 -1      1951 1.34925E+02 4.71760E+01 0.00000E+00
 -1      1952 1.36425E+02 4.71760E+01 0.00000E+00
 -1      1953 1.34325E+02 4.62346E+01 0.00000E+00
 -1      1954 1.37925E+02 4.71760E+01 0.00000E+00
 -1      1955 1.39425E+02 4.71760E+01 0.00000E+00
 -1      1956 1.37325E+02 4.62346E+01 0.00000E+00
 -1      1957 1.40925E+02 4.71760E+01 0.00000E+00
 -1      1958 1.42425E+02 4.71760E+01 0.00000E+00
 -1      1959 1.40325E+02 4.62346E+01 0.00000E+00
 -1      1960 1.43925E+02 4.71760E+01 0.00000E+00
 -1      1961 1.45425E+02 4.71760E+01 0.00000E+00
 -1      1962 1.43325E+02 4.62346E+01 0.00000E+00
 -1      1963 1.46146E+02 4.69028E+01 0.00000E+00
 -1      1964 1.47139E+02 4.66484E+01 0.00000E+00
 -1      1965 1.46987E+02 4.54150E+01 0.00000E+00
 -1      1966 1.45546E+02 4.59614E+01 0.00000E+00
 -1      1967 4.84800E+00 4.57510E+01 0.00000E+00
 -1      1968 1.41240E+01 3.48650E+00 0.00000E+00
 -1      1969 1.26240E+01 3.48650E+00 0.00000E+00
 -1      1970 1.71240E+01 3.48650E+00 0.00000E+00
 -1      1971 1.56240E+01 3.48650E+00 0.00000E+00
 -1      1972 1.48740E+01 4.78550E+00 0.00000E+00
 -1      1973 2.01240E+01 3.48650E+00 0.00000E+00
 -1      1974 1.86240E+01 3.48650E+00 0.00000E+00
 -1      1975 1.78740E+01 4.78550E+00 0.00000E+00
 -1      1976 2.31240E+01 3.48650E+00 0.00000E+00
 -1      1977 2.16240E+01 3.48650E+00 0.00000E+00
 -1      1978 2.08740E+01 4.78550E+00 0.00000E+00
 -1      1979 2.61240E+01 3.48650E+00 0.00000E+00
 -1      1980 2.46240E+01 3.48650E+00 0.00000E+00
 -1      1981 2.38740E+01 4.78550E+00 0.00000E+00
 -1      1982 2.91240E+01 3.48650E+00 0.00000E+00
 -1      1983 2.76240E+01 3.48650E+00 0.00000E+00
 -1      1984 2.68740E+01 4.78550E+00 0.00000E+00
 -1      1985 3.21240E+01 3.48650E+00 0.00000E+00
 -1      1986 3.06240E+01 3.48650E+00 0.00000E+00
 -1      1987 2.98740E+01 4.78550E+00 0.00000E+00
 -1      1988 3.51240E+01 3.48650E+00 0.00000E+00
 -1      1989 3.36240E+01 3.48650E+00 0.00000E+00
 -1      1990 3.28740E+01 4.78550E+00 0.00000E+00
 -1      1991 3.81240E+01 3.48650E+00 0.00000E+00
 -1      1992 3.66240E+01 3.48650E+00 0.00000E+00
 -1      1993 3.58740E+01 4.78550E+00 0.00000E+00
 -1      1994 4.11240E+01 3.48650E+00 0.00000E+00
 -1      1995 3.96240E+01 3.48650E+00 0.00000E+00
 -1      1996 3.88740E+01 4.78550E+00 0.00000E+00
 -1      1997 4.41240E+01 3.48650E+00 0.00000E+00
 -1      1998 4.26240E+01 3.48650E+00 0.00000E+00
 -1      1999 4.18740E+01 4.78550E+00 0.00000E+00
 -1      2000 4.71240E+01 3.48650E+00 0.00000E+00
 -1      2001 4.56240E+01 3.48650E+00 0.00000E+00
 -1      2002 4.48740E+01 4.78550E+00 0.00000E+00
 -1      2003 5.01240E+01 3.48650E+00 0.00000E+00
 -1      2004 4.86240E+01 3.48650E+00 0.00000E+00
 -1      2005 4.78740E+01 4.78550E+00 0.00000E+00
 -1      2006 5.31240E+01 3.48650E+00 0.00000E+00
 -1      2007 5.16240E+01 3.48650E+00 0.00000E+00
 -1      2008 5.08740E+01 4.78550E+00 0.00000E+00
 -1      2009 5.61240E+01 3.48650E+00 0.00000E+00
 -1      2010 5.46240E+01 3.48650E+00 0.00000E+00
 -1      2011 5.38740E+01 4.78550E+00 0.00000E+00
 -1      2012 5.91240E+01 3.48650E+00 0.00000E+00
 -1      2013 5.76240E+01 3.48650E+00 0.00000E+00
 -1      2014 5.68740E+01 4.78550E+00 0.00000E+00
 -1      2015 6.21240E+01 3.48650E+00 0.00000E+00
 -1      2016 6.06240E+01 3.48650E+00 0.00000E+00
 -1      2017 5.98740E+01 4.78550E+00 0.00000E+00
 -1      2018 6.51240E+01 3.48650E+00 0.00000E+00
 -1      2019 6.36240E+01 3.48650E+00 0.00000E+00
 -1      2020 6.28740E+01 4.78550E+00 0.00000E+00
 -1      2021 6.81240E+01 3.48650E+00 0.00000E+00
 -1      2022 6.66240E+01 3.48650E+00 0.00000E+00
 -1      2023 6.58740E+01 4.78550E+00 0.00000E+00
 -1      2024 7.11240E+01 3.48650E+00 0.00000E+00
 -1      2025 6.96240E+01 3.48650E+00 0.00000E+00
 -1      2026 6.88740E+01 4.78550E+00 0.00000E+00
 -1      2027 7.41240E+01 3.48650E+00 0.00000E+00
 -1      2028 7.26240E+01 3.48650E+00 0.00000E+00
 -1      2029 7.18740E+01 4.78550E+00 0.00000E+00
 -1      2030 7.71240E+01 3.48650E+00 0.00000E+00
 -1      2031 7.56240E+01 3.48650E+00 0.00000E+00
 -1      2032 7.48740E+01 4.78550E+00 0.00000E+00
 -1      2033 8.01240E+01 3.48650E+00 0.00000E+00
 -1      2034 7.86240E+01 3.48650E+00 0.00000E+00
 -1      2035 7.78740E+01 4.78550E+00 0.00000E+00
 -1      2036 8.31240E+01 3.48650E+00 0.00000E+00
 -1      2037 8.16240E+01 3.48650E+00 0.00000E+00
 -1      2038 8.08740E+01 4.78550E+00 0.00000E+00
 -1      2039 8.61240E+01 3.48650E+00 0.00000E+00
 -1      2040 8.46240E+01 3.48650E+00 0.00000E+00
 -1      2041 8.38740E+01 4.78550E+00 0.00000E+00
 -1      2042 8.91240E+01 3.48650E+00 0.00000E+00
 -1      2043 8.76240E+01 3.48650E+00 0.00000E+00
 -1      2044 8.68740E+01 4.78550E+00 0.00000E+00
 -1      2045 9.21240E+01 3.48650E+00 0.00000E+00
 -1      2046 9.06240E+01 3.48650E+00 0.00000E+00
 -1      2047 8.98740E+01 4.78550E+00 0.00000E+00
 -1      2048 9.51240E+01 3.48650E+00 0.00000E+00
 -1      2049 9.36240E+01 3.48650E+00 0.00000E+00
 -1      2050 9.28740E+01 4.78550E+00 0.00000E+00
 -1      2051 9.81240E+01 3.48650E+00 0.00000E+00
 -1      2052 9.66240E+01 3.48650E+00 0.00000E+00
 -1      2053 9.58740E+01 4.78550E+00 0.00000E+00
 -1      2054 1.01124E+02 3.48650E+00 0.00000E+00
 -1      2055 9.96240E+01 3.48650E+00 0.00000E+00
 -1      2056 9.88740E+01 4.78550E+00 0.00000E+00
 -1      2057 1.04124E+02 3.48650E+00 0.00000E+00
 -1      2058 1.02624E+02 3.48650E+00 0.00000E+00
 -1      2059 1.01874E+02 4.78550E+00 0.00000E+00
 -1      2060 1.07124E+02 3.48650E+00 0.00000E+00
 -1      2061 1.05624E+02 3.48650E+00 0.00000E+00
 -1      2062 1.04874E+02 4.78550E+00 0.00000E+00
 -1      2063 1.10124E+02 3.48650E+00 0.00000E+00
 -1      2064 1.08624E+02 3.48650E+00 0.00000E+00
 -1      2065 1.07874E+02 4.78550E+00 0.00000E+00
 -1      2066 1.13124E+02 3.48650E+00 0.00000E+00
 -1      2067 1.11624E+02 3.48650E+00 0.00000E+00
 -1      2068 1.10874E+02 4.78550E+00 0.00000E+00
 -1      2069 1.16124E+02 3.48650E+00 0.00000E+00
 -1      2070 1.14624E+02 3.48650E+00 0.00000E+00
 -1      2071 1.13874E+02 4.78550E+00 0.00000E+00
 -1      2072 1.19124E+02 3.48650E+00 0.00000E+00
 -1      2073 1.17624E+02 3.48650E+00 0.00000E+00
 -1      2074 1.16874E+02 4.78550E+00 0.00000E+00
 -1      2075 1.22124E+02 3.48650E+00 0.00000E+00
 -1      2076 1.20624E+02 3.48650E+00 0.00000E+00
 -1      2077 1.19874E+02 4.78550E+00 0.00000E+00
 -1      2078 1.25124E+02 3.48650E+00 0.00000E+00
 -1      2079 1.23624E+02 3.48650E+00 0.00000E+00
 -1      2080 1.22874E+02 4.78550E+00 0.00000E+00
 -1      2081 1.28124E+02 3.48650E+00 0.00000E+00
 -1      2082 1.26624E+02 3.48650E+00 0.00000E+00
 -1      2083 1.25874E+02 4.78550E+00 0.00000E+00
 -1      2084 1.31124E+02 3.48650E+00 0.00000E+00
 -1      2085 1.29624E+02 3.48650E+00 0.00000E+00
 -1      2086 1.28874E+02 4.78550E+00 0.00000E+00
 -1      2087 1.34124E+02 3.48650E+00 0.00000E+00
 -1      2088 1.32624E+02 3.48650E+00 0.00000E+00
 -1      2089 1.31874E+02 4.78550E+00 0.00000E+00
 -1      2090 1.37124E+02 3.48650E+00 0.00000E+00
 -1      2091 1.35624E+02 3.48650E+00 0.00000E+00
 -1      2092 1.34874E+02 4.78550E+00 0.00000E+00
 -1      2093 1.40124E+02 3.48650E+00 0.00000E+00
 -1      2094 1.38624E+02 3.48650E+00 0.00000E+00
 -1      2095 1.37874E+02 4.78550E+00 0.00000E+00
 -1      2096 1.43124E+02 3.48650E+00 0.00000E+00
 -1      2097 1.41624E+02 3.48650E+00 0.00000E+00
 -1      2098 1.40874E+02 4.78550E+00 0.00000E+00
 -1      2099 1.45881E+02 3.39637E+00 0.00000E+00
 -1      2100 1.44381E+02 3.39637E+00 0.00000E+00
 -1      2101 1.43631E+02 4.69537E+00 0.00000E+00
 -1      2102 1.46145E+02 4.51512E+00 0.00000E+00
 -1      2103 1.46103E+02 1.25375E+01 0.00000E+00
 -1      2104 1.46103E+02 1.10625E+01 0.00000E+00
 -1      2105 1.46103E+02 9.58750E+00 0.00000E+00
 -1      2106 1.46103E+02 8.11250E+00 0.00000E+00
 -1      2107 1.44804E+02 1.03250E+01 0.00000E+00
 -1      2108 1.46145E+02 5.99013E+00 0.00000E+00
 -1      2109 1.46103E+02 1.54375E+01 0.00000E+00
 -1      2110 1.46103E+02 1.39875E+01 0.00000E+00
 -1      2111 1.44804E+02 1.32500E+01 0.00000E+00
 -1      2112 1.46103E+02 1.83875E+01 0.00000E+00
 -1      2113 1.46103E+02 1.69125E+01 0.00000E+00
 -1      2114 1.44804E+02 1.61750E+01 0.00000E+00
 -1      2115 1.46103E+02 2.13375E+01 0.00000E+00
 -1      2116 1.46103E+02 1.98625E+01 0.00000E+00
 -1      2117 1.44804E+02 1.91250E+01 0.00000E+00
 -1      2118 1.46103E+02 2.42875E+01 0.00000E+00
 -1      2119 1.46103E+02 2.28125E+01 0.00000E+00
 -1      2120 1.44804E+02 2.20750E+01 0.00000E+00
 -1      2121 1.46103E+02 2.72375E+01 0.00000E+00
 -1      2122 1.46103E+02 2.57625E+01 0.00000E+00
 -1      2123 1.44804E+02 2.50250E+01 0.00000E+00
 -1      2124 1.46103E+02 3.01875E+01 0.00000E+00
 -1      2125 1.46103E+02 2.87125E+01 0.00000E+00
 -1      2126 1.44804E+02 2.79750E+01 0.00000E+00
 -1      2127 1.46103E+02 3.30875E+01 0.00000E+00
 -1      2128 1.46103E+02 3.16375E+01 0.00000E+00
 -1      2129 1.44804E+02 3.09000E+01 0.00000E+00
 -1      2130 1.46103E+02 3.60375E+01 0.00000E+00
 -1      2131 1.46103E+02 3.45625E+01 0.00000E+00
 -1      2132 1.44804E+02 3.38250E+01 0.00000E+00
 -1      2133 1.46103E+02 3.89875E+01 0.00000E+00
 -1      2134 1.46103E+02 3.75125E+01 0.00000E+00
 -1      2135 1.44804E+02 3.67750E+01 0.00000E+00
 -1      2136 1.46103E+02 4.19375E+01 0.00000E+00
 -1      2137 1.46103E+02 4.04625E+01 0.00000E+00
 -1      2138 1.44804E+02 3.97250E+01 0.00000E+00
 -1      2139 1.14143E+01 3.29169E+00 0.00000E+00
 -1      2140 9.91425E+00 3.29169E+00 0.00000E+00
 -1      2141 9.74475E+00 4.20106E+00 0.00000E+00
 -1      2142 1.21643E+01 4.59069E+00 0.00000E+00
 -1      2143 5.78785E+01 3.33743E+01 0.00000E+00
 -1      2144 5.82254E+01 3.41568E+01 0.00000E+00
 -1      2145 5.57374E+01 3.04101E+01 0.00000E+00
 -1      2146 5.63510E+01 3.09703E+01 0.00000E+00
 -1      2147 5.85034E+01 3.50763E+01 0.00000E+00
 -1      2148 5.87205E+01 3.59029E+01 0.00000E+00
 -1      2149 3.89700E+00 3.74688E+01 0.00000E+00
 -1      2150 3.89700E+00 3.89437E+01 0.00000E+00
 -1      2151 5.19600E+00 3.96813E+01 0.00000E+00
 -1      2152 5.19600E+00 3.67438E+01 0.00000E+00
 -1      2153 5.43031E+01 2.94738E+01 0.00000E+00
 -1      2154 5.50203E+01 2.99420E+01 0.00000E+00
 -1      2155 5.59052E+01 2.95887E+01 0.00000E+00
 -1      2156 5.24133E+01 2.87166E+01 0.00000E+00
 -1      2157 5.32389E+01 2.89945E+01 0.00000E+00
 -1      2158 5.05545E+01 2.84832E+01 0.00000E+00
 -1      2159 5.14110E+01 2.85792E+01 0.00000E+00
 -1      2160 4.87034E+01 2.84145E+01 0.00000E+00
 -1      2161 4.95793E+01 2.83704E+01 0.00000E+00
 -1      2162 4.68041E+01 2.89183E+01 0.00000E+00
 -1      2163 4.75900E+01 2.85840E+01 0.00000E+00
 -1      2164 4.51390E+01 2.95900E+01 0.00000E+00
 -1      2165 4.59715E+01 2.92542E+01 0.00000E+00
 -1      2166 4.60453E+01 2.83364E+01 0.00000E+00
 -1      2167 4.36962E+01 3.11171E+01 0.00000E+00
 -1      2168 4.42798E+01 3.04310E+01 0.00000E+00
 -1      2169 4.23840E+01 3.23929E+01 0.00000E+00
 -1      2170 4.30401E+01 3.17550E+01 0.00000E+00
 -1      2171 4.28382E+01 3.09921E+01 0.00000E+00
 -1      2172 4.15194E+01 3.43256E+01 0.00000E+00
 -1      2173 4.17280E+01 3.34288E+01 0.00000E+00
 -1      2174 4.10304E+01 3.60147E+01 0.00000E+00
 -1      2175 4.12749E+01 3.51701E+01 0.00000E+00
 -1      2176 4.06255E+01 3.45464E+01 0.00000E+00
 -1      2177 4.09778E+01 3.80451E+01 0.00000E+00
 -1      2178 4.08777E+01 3.71724E+01 0.00000E+00
 -1      2179 4.12778E+01 3.96919E+01 0.00000E+00
 -1      2180 4.11278E+01 3.88685E+01 0.00000E+00
 -1      2181 4.02258E+01 3.85298E+01 0.00000E+00
 -1      2182 4.21544E+01 4.14639E+01 0.00000E+00
 -1      2183 4.17642E+01 4.07226E+01 0.00000E+00
 -1      2184 4.30759E+01 4.29635E+01 0.00000E+00
 -1      2185 4.26151E+01 4.22137E+01 0.00000E+00
 -1      2186 4.18095E+01 4.21644E+01 0.00000E+00
 -1      2187 4.45089E+01 4.39945E+01 0.00000E+00
 -1      2188 4.37924E+01 4.34790E+01 0.00000E+00
 -1      2189 4.29868E+01 4.34297E+01 0.00000E+00
 -1      2190 4.57071E+01 4.52874E+01 0.00000E+00
 -1      2191 4.49885E+01 4.48858E+01 0.00000E+00
 -1      2192 4.76926E+01 4.59125E+01 0.00000E+00
 -1      2193 4.69181E+01 4.56673E+01 0.00000E+00
 -1      2194 5.33451E+01 4.56511E+01 0.00000E+00
 -1      2195 5.25433E+01 4.59087E+01 0.00000E+00
 -1      2196 5.52967E+01 4.51663E+01 0.00000E+00
 -1      2197 5.45076E+01 4.55255E+01 0.00000E+00
 -1      2198 5.74505E+01 4.21789E+01 0.00000E+00
 -1      2199 5.69841E+01 4.28895E+01 0.00000E+00
 -1      2200 5.82553E+01 4.06132E+01 0.00000E+00
 -1      2201 5.78766E+01 4.13604E+01 0.00000E+00
 -1      2202 5.89148E+01 3.88540E+01 0.00000E+00
 -1      2203 5.86897E+01 3.97021E+01 0.00000E+00
 -1      2204 4.64172E+01 4.71349E+01 0.00000E+00
 -1      2205 4.75797E+01 4.73025E+01 0.00000E+00
 -1      2206 5.68483E+01 3.16598E+01 0.00000E+00
 -1      2207 5.73456E+01 3.23493E+01 0.00000E+00
 -1      2208 5.71197E+01 3.07464E+01 0.00000E+00
 -1      2209 5.89608E+01 3.44055E+01 0.00000E+00
 -1      2210 6.34800E+00 4.57510E+01 0.00000E+00
 -1      2211 7.09800E+00 4.44520E+01 0.00000E+00
 -1      2212 4.58735E+01 4.61077E+01 0.00000E+00
 -1      2213 5.81498E+01 3.24609E+01 0.00000E+00
 -1      2214 5.96685E+01 3.83822E+01 0.00000E+00
 -1      2215 5.95128E+01 3.63064E+01 0.00000E+00
 -1      2216 5.08125E+01 4.72598E+01 0.00000E+00
 -1      2217 5.17875E+01 4.72598E+01 0.00000E+00
 -1      2218 1.44846E+02 6.72762E+00 0.00000E+00
 -1      2219 1.46621E+02 4.42930E+01 0.00000E+00
 -1      2220 1.46469E+02 4.30596E+01 0.00000E+00
 -1      2221 1.45170E+02 4.23221E+01 0.00000E+00
 -1      2222 1.45901E+02 4.45662E+01 0.00000E+00
 -1      2223 5.41239E+01 2.86412E+01 0.00000E+00
 -1      2224 5.91158E+01 4.03877E+01 0.00000E+00
 -1      2225 5.82553E+01 4.21173E+01 0.00000E+00
 -1      2226 5.61127E+01 4.43185E+01 0.00000E+00
 -1      2227 5.65410E+01 4.53868E+01 0.00000E+00
 -1      2228 5.79660E+01 4.53868E+01 0.00000E+00
 -1      2229 5.67480E+01 4.36912E+01 0.00000E+00
 -1      2230 4.86628E+01 4.60963E+01 0.00000E+00
 -1      2231 4.80546E+01 4.66715E+01 0.00000E+00
 -1      2232 4.85499E+01 4.74863E+01 0.00000E+00
 -1      2233 4.94997E+01 4.62243E+01 0.00000E+00
 -1      2234 4.41829E+01 4.48365E+01 0.00000E+00
 -1      2235 4.08623E+01 4.03839E+01 0.00000E+00
 -1      2236 4.02284E+01 3.65487E+01 0.00000E+00
 -1      2237 4.15261E+01 3.26659E+01 0.00000E+00
 -1      2238 4.13242E+01 3.19030E+01 0.00000E+00
 -1      2239 4.06681E+01 3.29389E+01 0.00000E+00
 -1      2240 4.43535E+01 2.95133E+01 0.00000E+00
 -1      2241 4.79912E+01 2.78310E+01 0.00000E+00
 -1      2242 5.06373E+01 4.59977E+01 0.00000E+00
 -1      2243 5.01624E+01 4.66287E+01 0.00000E+00
 -1      2244 5.00797E+01 2.77743E+01 0.00000E+00
 -1      2245 4.96749E+01 4.74863E+01 0.00000E+00
 -1      2246 5.20572E+01 2.80245E+01 0.00000E+00
 -1      2247 5.14933E+01 4.58668E+01 0.00000E+00
 -1      2248 5.75931E+01 4.37374E+01 0.00000E+00
 -1      2249 5.23500E+01 4.64441E+01 0.00000E+00
 -1      2250 6.06636E+01 3.79363E+01 0.00000E+00
 -1      2251 6.05452E+01 3.90306E+01 0.00000E+00
 -1      2252 6.49500E+00 3.01125E+01 0.00000E+00
 -1      2253 6.49500E+00 3.15875E+01 0.00000E+00
 -1      2254 6.49500E+00 3.30625E+01 0.00000E+00
 -1      2255 6.49500E+00 3.45375E+01 0.00000E+00
 -1      2256 7.79400E+00 3.23250E+01 0.00000E+00
 -1      2257 6.49500E+00 2.42125E+01 0.00000E+00
 -1      2258 6.49500E+00 2.56875E+01 0.00000E+00
 -1      2259 6.49500E+00 2.12625E+01 0.00000E+00
 -1      2260 6.49500E+00 2.27375E+01 0.00000E+00
 -1      2261 7.79400E+00 2.34750E+01 0.00000E+00
 -1      2262 6.49500E+00 1.83625E+01 0.00000E+00
 -1      2263 6.49500E+00 1.98125E+01 0.00000E+00
 -1      2264 7.79400E+00 2.05500E+01 0.00000E+00
 -1      2265 6.49500E+00 1.54125E+01 0.00000E+00
 -1      2266 6.49500E+00 1.68875E+01 0.00000E+00
 -1      2267 7.79400E+00 1.76250E+01 0.00000E+00
 -1      2268 6.49500E+00 1.24625E+01 0.00000E+00
 -1      2269 6.49500E+00 1.39375E+01 0.00000E+00
 -1      2270 7.79400E+00 1.46750E+01 0.00000E+00
 -1      2271 6.49500E+00 9.51250E+00 0.00000E+00
 -1      2272 6.49500E+00 1.09875E+01 0.00000E+00
 -1      2273 7.79400E+00 1.17250E+01 0.00000E+00
 -1      2274 6.49500E+00 6.56250E+00 0.00000E+00
 -1      2275 6.49500E+00 8.03750E+00 0.00000E+00
 -1      2276 7.79400E+00 8.77500E+00 0.00000E+00
 -1      2277 6.84975E+00 4.82969E+00 0.00000E+00
 -1      2278 6.68025E+00 5.73906E+00 0.00000E+00
 -1      2279 7.97925E+00 6.47656E+00 0.00000E+00
 -1      2280 8.34975E+00 4.82969E+00 0.00000E+00
 -1      2281 9.75000E+00 4.35050E+01 0.00000E+00
 -1      2282 1.12500E+01 4.35050E+01 0.00000E+00
 -1      2283 4.31063E+01 4.52659E+01 0.00000E+00
 -1      2284 5.60613E+01 2.85664E+01 0.00000E+00
 -1      2285 5.67784E+01 2.90345E+01 0.00000E+00
 -1      2286 1.26750E+01 4.35050E+01 0.00000E+00
 -1      2287 1.41000E+01 4.35050E+01 0.00000E+00
 -1      2288 1.19250E+01 4.22060E+01 0.00000E+00
 -1      2289 1.56000E+01 4.35050E+01 0.00000E+00
 -1      2290 1.71000E+01 4.35050E+01 0.00000E+00
 -1      2291 1.48500E+01 4.22060E+01 0.00000E+00
 -1      2292 1.86000E+01 4.35050E+01 0.00000E+00
 -1      2293 2.01000E+01 4.35050E+01 0.00000E+00
 -1      2294 1.78500E+01 4.22060E+01 0.00000E+00
 -1      2295 2.16000E+01 4.35050E+01 0.00000E+00
 -1      2296 2.31000E+01 4.35050E+01 0.00000E+00
 -1      2297 2.08500E+01 4.22060E+01 0.00000E+00
 -1      2298 2.46000E+01 4.35050E+01 0.00000E+00
 -1      2299 2.61000E+01 4.35050E+01 0.00000E+00
 -1      2300 2.38500E+01 4.22060E+01 0.00000E+00
 -1      2301 2.76000E+01 4.35050E+01 0.00000E+00
 -1      2302 2.91000E+01 4.35050E+01 0.00000E+00
 -1      2303 2.68500E+01 4.22060E+01 0.00000E+00
 -1      2304 3.05250E+01 4.35050E+01 0.00000E+00
 -1      2305 3.19500E+01 4.35050E+01 0.00000E+00
 -1      2306 2.97750E+01 4.22060E+01 0.00000E+00
 -1      2307 3.34500E+01 4.35050E+01 0.00000E+00
 -1      2308 3.49500E+01 4.35050E+01 0.00000E+00
 -1      2309 3.27000E+01 4.22060E+01 0.00000E+00
 -1      2310 3.64500E+01 4.35050E+01 0.00000E+00
 -1      2311 3.79500E+01 4.35050E+01 0.00000E+00
 -1      2312 3.57000E+01 4.22060E+01 0.00000E+00
 -1      2313 5.45625E+01 4.63603E+01 0.00000E+00
 -1      2314 1.43589E+02 6.81775E+00 0.00000E+00
 -1      2315 5.39328E+01 2.76077E+01 0.00000E+00
 -1      2316 5.49970E+01 2.80871E+01 0.00000E+00
 -1      2317 5.58702E+01 2.75329E+01 0.00000E+00
 -1      2318 5.92875E+01 4.52095E+01 0.00000E+00
 -1      2319 6.07125E+01 4.52095E+01 0.00000E+00
 -1      2320 6.22125E+01 4.52095E+01 0.00000E+00
 -1      2321 6.37125E+01 4.52095E+01 0.00000E+00
 -1      2322 6.15000E+01 4.41844E+01 0.00000E+00
 -1      2323 6.52125E+01 4.52095E+01 0.00000E+00
 -1      2324 6.67125E+01 4.52095E+01 0.00000E+00
 -1      2325 6.45000E+01 4.41844E+01 0.00000E+00
 -1      2326 6.82125E+01 4.52095E+01 0.00000E+00
 -1      2327 6.97125E+01 4.52095E+01 0.00000E+00
 -1      2328 6.75000E+01 4.41844E+01 0.00000E+00
 -1      2329 7.12125E+01 4.52095E+01 0.00000E+00
 -1      2330 7.27125E+01 4.52095E+01 0.00000E+00
 -1      2331 7.05000E+01 4.41844E+01 0.00000E+00
 -1      2332 7.42125E+01 4.52095E+01 0.00000E+00
 -1      2333 7.57125E+01 4.52095E+01 0.00000E+00
 -1      2334 7.35000E+01 4.41844E+01 0.00000E+00
 -1      2335 7.71375E+01 4.52095E+01 0.00000E+00
 -1      2336 7.85625E+01 4.52095E+01 0.00000E+00
 -1      2337 7.64250E+01 4.41844E+01 0.00000E+00
 -1      2338 8.00625E+01 4.52095E+01 0.00000E+00
 -1      2339 8.15625E+01 4.52095E+01 0.00000E+00
 -1      2340 7.93500E+01 4.41844E+01 0.00000E+00
 -1      2341 8.30625E+01 4.52095E+01 0.00000E+00
 -1      2342 8.45625E+01 4.52095E+01 0.00000E+00
 -1      2343 8.23500E+01 4.41844E+01 0.00000E+00
 -1      2344 8.60625E+01 4.52095E+01 0.00000E+00
 -1      2345 8.75625E+01 4.52095E+01 0.00000E+00
 -1      2346 8.53500E+01 4.41844E+01 0.00000E+00
 -1      2347 8.90625E+01 4.52095E+01 0.00000E+00
 -1      2348 9.05625E+01 4.52095E+01 0.00000E+00
 -1      2349 8.83500E+01 4.41844E+01 0.00000E+00
 -1      2350 9.20625E+01 4.52095E+01 0.00000E+00
 -1      2351 9.35625E+01 4.52095E+01 0.00000E+00
 -1      2352 9.13500E+01 4.41844E+01 0.00000E+00
 -1      2353 9.49875E+01 4.52095E+01 0.00000E+00
 -1      2354 9.64125E+01 4.52095E+01 0.00000E+00
 -1      2355 9.42750E+01 4.41844E+01 0.00000E+00
 -1      2356 9.79125E+01 4.52095E+01 0.00000E+00
 -1      2357 9.94125E+01 4.52095E+01 0.00000E+00
 -1      2358 9.72000E+01 4.41844E+01 0.00000E+00
 -1      2359 1.00912E+02 4.52095E+01 0.00000E+00
 -1      2360 1.02412E+02 4.52095E+01 0.00000E+00
 -1      2361 1.00200E+02 4.41844E+01 0.00000E+00
 -1      2362 1.03912E+02 4.52095E+01 0.00000E+00
 -1      2363 1.05412E+02 4.52095E+01 0.00000E+00
 -1      2364 1.03200E+02 4.41844E+01 0.00000E+00
 -1      2365 1.06912E+02 4.52095E+01 0.00000E+00
 -1      2366 1.08412E+02 4.52095E+01 0.00000E+00
 -1      2367 1.06200E+02 4.41844E+01 0.00000E+00
 -1      2368 1.09912E+02 4.52095E+01 0.00000E+00
 -1      2369 1.11412E+02 4.52095E+01 0.00000E+00
 -1      2370 1.09200E+02 4.41844E+01 0.00000E+00
 -1      2371 1.12838E+02 4.52095E+01 0.00000E+00
 -1      2372 1.14262E+02 4.52095E+01 0.00000E+00
 -1      2373 1.12125E+02 4.41844E+01 0.00000E+00
 -1      2374 1.15762E+02 4.52095E+01 0.00000E+00
 -1      2375 1.17262E+02 4.52095E+01 0.00000E+00
 -1      2376 1.15050E+02 4.41844E+01 0.00000E+00
 -1      2377 1.18762E+02 4.52095E+01 0.00000E+00
 -1      2378 1.20262E+02 4.52095E+01 0.00000E+00
 -1      2379 1.18050E+02 4.41844E+01 0.00000E+00
 -1      2380 1.21762E+02 4.52095E+01 0.00000E+00
 -1      2381 1.23262E+02 4.52095E+01 0.00000E+00
 -1      2382 1.21050E+02 4.41844E+01 0.00000E+00
 -1      2383 1.24762E+02 4.52095E+01 0.00000E+00
 -1      2384 1.26262E+02 4.52095E+01 0.00000E+00
 -1      2385 1.24050E+02 4.41844E+01 0.00000E+00
 -1      2386 1.27762E+02 4.52095E+01 0.00000E+00
 -1      2387 1.29262E+02 4.52095E+01 0.00000E+00
 -1      2388 1.27050E+02 4.41844E+01 0.00000E+00
 -1      2389 1.30688E+02 4.52095E+01 0.00000E+00
 -1      2390 1.32113E+02 4.52095E+01 0.00000E+00
 -1      2391 1.29975E+02 4.41844E+01 0.00000E+00
 -1      2392 1.33613E+02 4.52095E+01 0.00000E+00
 -1      2393 1.35113E+02 4.52095E+01 0.00000E+00
 -1      2394 1.32900E+02 4.41844E+01 0.00000E+00
 -1      2395 1.36613E+02 4.52095E+01 0.00000E+00
 -1      2396 1.38113E+02 4.52095E+01 0.00000E+00
 -1      2397 1.35900E+02 4.41844E+01 0.00000E+00
 -1      2398 1.39613E+02 4.52095E+01 0.00000E+00
 -1      2399 1.41113E+02 4.52095E+01 0.00000E+00
 -1      2400 1.38900E+02 4.41844E+01 0.00000E+00
 -1      2401 1.86240E+01 6.08450E+00 0.00000E+00
 -1      2402 1.71240E+01 6.08450E+00 0.00000E+00
 -1      2403 1.56240E+01 6.08450E+00 0.00000E+00
 -1      2404 1.41240E+01 6.08450E+00 0.00000E+00
 -1      2405 1.63740E+01 7.38350E+00 0.00000E+00
 -1      2406 2.46240E+01 6.08450E+00 0.00000E+00
 -1      2407 2.31240E+01 6.08450E+00 0.00000E+00
 -1      2408 2.76240E+01 6.08450E+00 0.00000E+00
 -1      2409 2.61240E+01 6.08450E+00 0.00000E+00
 -1      2410 2.53740E+01 7.38350E+00 0.00000E+00
 -1      2411 3.06240E+01 6.08450E+00 0.00000E+00
 -1      2412 2.91240E+01 6.08450E+00 0.00000E+00
 -1      2413 2.83740E+01 7.38350E+00 0.00000E+00
 -1      2414 3.36240E+01 6.08450E+00 0.00000E+00
 -1      2415 3.21240E+01 6.08450E+00 0.00000E+00
 -1      2416 3.13740E+01 7.38350E+00 0.00000E+00
 -1      2417 3.66240E+01 6.08450E+00 0.00000E+00
 -1      2418 3.51240E+01 6.08450E+00 0.00000E+00
 -1      2419 3.43740E+01 7.38350E+00 0.00000E+00
 -1      2420 3.96240E+01 6.08450E+00 0.00000E+00
 -1      2421 3.81240E+01 6.08450E+00 0.00000E+00
 -1      2422 3.73740E+01 7.38350E+00 0.00000E+00
 -1      2423 4.26240E+01 6.08450E+00 0.00000E+00
 -1      2424 4.11240E+01 6.08450E+00 0.00000E+00
 -1      2425 4.03740E+01 7.38350E+00 0.00000E+00
 -1      2426 4.56240E+01 6.08450E+00 0.00000E+00
 -1      2427 4.41240E+01 6.08450E+00 0.00000E+00
 -1      2428 4.33740E+01 7.38350E+00 0.00000E+00
 -1      2429 4.86240E+01 6.08450E+00 0.00000E+00
 -1      2430 4.71240E+01 6.08450E+00 0.00000E+00
 -1      2431 4.63740E+01 7.38350E+00 0.00000E+00
 -1      2432 5.16240E+01 6.08450E+00 0.00000E+00
 -1      2433 5.01240E+01 6.08450E+00 0.00000E+00
 -1      2434 4.93740E+01 7.38350E+00 0.00000E+00
 -1      2435 5.46240E+01 6.08450E+00 0.00000E+00
 -1      2436 5.31240E+01 6.08450E+00 0.00000E+00
 -1      2437 5.23740E+01 7.38350E+00 0.00000E+00
 -1      2438 5.76240E+01 6.08450E+00 0.00000E+00
 -1      2439 5.61240E+01 6.08450E+00 0.00000E+00
 -1      2440 5.53740E+01 7.38350E+00 0.00000E+00
 -1      2441 6.06240E+01 6.08450E+00 0.00000E+00
 -1      2442 5.91240E+01 6.08450E+00 0.00000E+00
 -1      2443 5.83740E+01 7.38350E+00 0.00000E+00
 -1      2444 6.36240E+01 6.08450E+00 0.00000E+00
 -1      2445 6.21240E+01 6.08450E+00 0.00000E+00
 -1      2446 6.13740E+01 7.38350E+00 0.00000E+00
 -1      2447 6.66240E+01 6.08450E+00 0.00000E+00
 -1      2448 6.51240E+01 6.08450E+00 0.00000E+00
 -1      2449 6.43740E+01 7.38350E+00 0.00000E+00
 -1      2450 6.96240E+01 6.08450E+00 0.00000E+00
 -1      2451 6.81240E+01 6.08450E+00 0.00000E+00
 -1      2452 6.73740E+01 7.38350E+00 0.00000E+00
 -1      2453 7.26240E+01 6.08450E+00 0.00000E+00
 -1      2454 7.11240E+01 6.08450E+00 0.00000E+00
 -1      2455 7.03740E+01 7.38350E+00 0.00000E+00
 -1      2456 7.56240E+01 6.08450E+00 0.00000E+00
 -1      2457 7.41240E+01 6.08450E+00 0.00000E+00
 -1      2458 7.33740E+01 7.38350E+00 0.00000E+00
 -1      2459 7.86240E+01 6.08450E+00 0.00000E+00
 -1      2460 7.71240E+01 6.08450E+00 0.00000E+00
 -1      2461 7.63740E+01 7.38350E+00 0.00000E+00
 -1      2462 8.16240E+01 6.08450E+00 0.00000E+00
 -1      2463 8.01240E+01 6.08450E+00 0.00000E+00
 -1      2464 7.93740E+01 7.38350E+00 0.00000E+00
 -1      2465 8.46240E+01 6.08450E+00 0.00000E+00
 -1      2466 8.31240E+01 6.08450E+00 0.00000E+00
 -1      2467 8.23740E+01 7.38350E+00 0.00000E+00
 -1      2468 8.76240E+01 6.08450E+00 0.00000E+00
 -1      2469 8.61240E+01 6.08450E+00 0.00000E+00
 -1      2470 8.53740E+01 7.38350E+00 0.00000E+00
 -1      2471 9.06240E+01 6.08450E+00 0.00000E+00
 -1      2472 8.91240E+01 6.08450E+00 0.00000E+00
 -1      2473 8.83740E+01 7.38350E+00 0.00000E+00
 -1      2474 9.36240E+01 6.08450E+00 0.00000E+00
 -1      2475 9.21240E+01 6.08450E+00 0.00000E+00
 -1      2476 9.13740E+01 7.38350E+00 0.00000E+00
 -1      2477 9.66240E+01 6.08450E+00 0.00000E+00
 -1      2478 9.51240E+01 6.08450E+00 0.00000E+00
 -1      2479 9.43740E+01 7.38350E+00 0.00000E+00
 -1      2480 9.96240E+01 6.08450E+00 0.00000E+00
 -1      2481 9.81240E+01 6.08450E+00 0.00000E+00
 -1      2482 9.73740E+01 7.38350E+00 0.00000E+00
 -1      2483 1.02624E+02 6.08450E+00 0.00000E+00
 -1      2484 1.01124E+02 6.08450E+00 0.00000E+00
 -1      2485 1.00374E+02 7.38350E+00 0.00000E+00
 -1      2486 1.05624E+02 6.08450E+00 0.00000E+00
 -1      2487 1.04124E+02 6.08450E+00 0.00000E+00
 -1      2488 1.03374E+02 7.38350E+00 0.00000E+00
 -1      2489 1.08624E+02 6.08450E+00 0.00000E+00
 -1      2490 1.07124E+02 6.08450E+00 0.00000E+00
 -1      2491 1.06374E+02 7.38350E+00 0.00000E+00
 -1      2492 1.11624E+02 6.08450E+00 0.00000E+00
 -1      2493 1.10124E+02 6.08450E+00 0.00000E+00
 -1      2494 1.09374E+02 7.38350E+00 0.00000E+00
 -1      2495 1.14624E+02 6.08450E+00 0.00000E+00
 -1      2496 1.13124E+02 6.08450E+00 0.00000E+00
 -1      2497 1.12374E+02 7.38350E+00 0.00000E+00
 -1      2498 1.17624E+02 6.08450E+00 0.00000E+00
 -1      2499 1.16124E+02 6.08450E+00 0.00000E+00
 -1      2500 1.15374E+02 7.38350E+00 0.00000E+00
 -1      2501 1.20624E+02 6.08450E+00 0.00000E+00
 -1      2502 1.19124E+02 6.08450E+00 0.00000E+00
 -1      2503 1.18374E+02 7.38350E+00 0.00000E+00
 -1      2504 1.23624E+02 6.08450E+00 0.00000E+00
 -1      2505 1.22124E+02 6.08450E+00 0.00000E+00
 -1      2506 1.21374E+02 7.38350E+00 0.00000E+00
 -1      2507 1.26624E+02 6.08450E+00 0.00000E+00
 -1      2508 1.25124E+02 6.08450E+00 0.00000E+00
 -1      2509 1.24374E+02 7.38350E+00 0.00000E+00
 -1      2510 1.29624E+02 6.08450E+00 0.00000E+00
 -1      2511 1.28124E+02 6.08450E+00 0.00000E+00
 -1      2512 1.27374E+02 7.38350E+00 0.00000E+00
 -1      2513 1.32624E+02 6.08450E+00 0.00000E+00
 -1      2514 1.31124E+02 6.08450E+00 0.00000E+00
 -1      2515 1.30374E+02 7.38350E+00 0.00000E+00
 -1      2516 1.35624E+02 6.08450E+00 0.00000E+00
 -1      2517 1.34124E+02 6.08450E+00 0.00000E+00
 -1      2518 1.33374E+02 7.38350E+00 0.00000E+00
 -1      2519 1.38624E+02 6.08450E+00 0.00000E+00
 -1      2520 1.37124E+02 6.08450E+00 0.00000E+00
 -1      2521 1.36374E+02 7.38350E+00 0.00000E+00
 -1      2522 1.41624E+02 6.08450E+00 0.00000E+00
 -1      2523 1.40124E+02 6.08450E+00 0.00000E+00
 -1      2524 1.39374E+02 7.38350E+00 0.00000E+00
 -1      2525 1.43505E+02 1.69125E+01 0.00000E+00
 -1      2526 1.43505E+02 1.54375E+01 0.00000E+00
 -1      2527 1.43505E+02 1.39875E+01 0.00000E+00
 -1      2528 1.43505E+02 1.25375E+01 0.00000E+00
 -1      2529 1.42206E+02 1.47250E+01 0.00000E+00
 -1      2530 1.43505E+02 1.10625E+01 0.00000E+00
 -1      2531 1.43505E+02 9.58750E+00 0.00000E+00
 -1      2532 1.42206E+02 1.18000E+01 0.00000E+00
 -1      2533 6.52200E+00 4.28890E+01 0.00000E+00
 -1      2534 8.42400E+00 4.32410E+01 0.00000E+00
 -1      2535 9.17400E+00 4.19420E+01 0.00000E+00
 -1      2536 6.52200E+00 4.14140E+01 0.00000E+00
 -1      2537 1.43505E+02 1.98625E+01 0.00000E+00
 -1      2538 1.43505E+02 1.83875E+01 0.00000E+00
 -1      2539 1.42206E+02 1.76500E+01 0.00000E+00
 -1      2540 1.43505E+02 2.28125E+01 0.00000E+00
 -1      2541 1.43505E+02 2.13375E+01 0.00000E+00
 -1      2542 1.42206E+02 2.06000E+01 0.00000E+00
 -1      2543 1.43505E+02 2.57625E+01 0.00000E+00
 -1      2544 1.43505E+02 2.42875E+01 0.00000E+00
 -1      2545 1.42206E+02 2.35500E+01 0.00000E+00
 -1      2546 1.43505E+02 2.87125E+01 0.00000E+00
 -1      2547 1.43505E+02 2.72375E+01 0.00000E+00
 -1      2548 1.42206E+02 2.65000E+01 0.00000E+00
 -1      2549 1.43505E+02 3.16125E+01 0.00000E+00
 -1      2550 1.43505E+02 3.01625E+01 0.00000E+00
 -1      2551 1.42206E+02 2.94250E+01 0.00000E+00
 -1      2552 1.43505E+02 3.45625E+01 0.00000E+00
 -1      2553 1.43505E+02 3.30875E+01 0.00000E+00
 -1      2554 1.42206E+02 3.23500E+01 0.00000E+00
 -1      2555 1.43505E+02 3.75125E+01 0.00000E+00
 -1      2556 1.43505E+02 3.60375E+01 0.00000E+00
 -1      2557 1.42206E+02 3.53000E+01 0.00000E+00
 -1      2558 1.43505E+02 4.04625E+01 0.00000E+00
 -1      2559 1.43505E+02 3.89875E+01 0.00000E+00
 -1      2560 1.42206E+02 3.82500E+01 0.00000E+00
 -1      2561 2.16240E+01 6.08450E+00 0.00000E+00
 -1      2562 2.01240E+01 6.08450E+00 0.00000E+00
 -1      2563 1.93740E+01 7.38350E+00 0.00000E+00
 -1      2564 5.96025E+01 3.37096E+01 0.00000E+00
 -1      2565 5.98805E+01 3.46291E+01 0.00000E+00
 -1      2566 5.75666E+01 2.99000E+01 0.00000E+00
 -1      2567 5.80638E+01 3.05895E+01 0.00000E+00
 -1      2568 5.86443E+01 3.15528E+01 0.00000E+00
 -1      2569 5.91772E+01 3.25779E+01 0.00000E+00
 -1      2570 6.01546E+01 3.56106E+01 0.00000E+00
 -1      2571 6.04286E+01 3.65920E+01 0.00000E+00
 -1      2572 6.07963E+01 3.49147E+01 0.00000E+00
 -1      2573 4.73117E+01 2.71094E+01 0.00000E+00
 -1      2574 4.84251E+01 2.69399E+01 0.00000E+00
 -1      2575 5.89146E+01 4.35601E+01 0.00000E+00
 -1      2576 5.86785E+01 4.43617E+01 0.00000E+00
 -1      2577 4.96907E+01 2.68661E+01 0.00000E+00
 -1      2578 5.06658E+01 2.69789E+01 0.00000E+00
 -1      2579 1.42839E+02 8.11675E+00 0.00000E+00
 -1      2580 6.49500E+00 2.71625E+01 0.00000E+00
 -1      2581 6.49500E+00 2.86375E+01 0.00000E+00
 -1      2582 7.79400E+00 2.93750E+01 0.00000E+00
 -1      2583 7.79400E+00 2.64250E+01 0.00000E+00
 -1      2584 4.53395E+01 2.77868E+01 0.00000E+00
 -1      2585 4.61721E+01 2.74509E+01 0.00000E+00
 -1      2586 4.33534E+01 2.93508E+01 0.00000E+00
 -1      2587 4.42126E+01 2.85099E+01 0.00000E+00
 -1      2588 4.20292E+01 3.08163E+01 0.00000E+00
 -1      2589 4.26853E+01 3.01784E+01 0.00000E+00
 -1      2590 3.97600E+01 3.47535E+01 0.00000E+00
 -1      2591 4.00045E+01 3.39090E+01 0.00000E+00
 -1      2592 3.93019E+01 3.70154E+01 0.00000E+00
 -1      2593 3.94545E+01 3.58577E+01 0.00000E+00
 -1      2594 3.94571E+01 3.90952E+01 0.00000E+00
 -1      2595 3.93071E+01 3.82718E+01 0.00000E+00
 -1      2596 4.13450E+01 4.29664E+01 0.00000E+00
 -1      2597 4.08842E+01 4.22166E+01 0.00000E+00
 -1      2598 4.04057E+01 4.12295E+01 0.00000E+00
 -1      2599 3.99193E+01 4.01988E+01 0.00000E+00
 -1      2600 4.26267E+01 4.43746E+01 0.00000E+00
 -1      2601 5.16682E+01 2.71162E+01 0.00000E+00
 -1      2602 5.26706E+01 2.72536E+01 0.00000E+00
 -1      2603 5.12792E+01 2.62080E+01 0.00000E+00
 -1      2604 5.97668E+01 4.19231E+01 0.00000E+00
 -1      2605 5.93407E+01 4.27416E+01 0.00000E+00
 -1      2606 6.04261E+01 4.33659E+01 0.00000E+00
 -1      2607 6.03732E+01 4.00213E+01 0.00000E+00
 -1      2608 5.99388E+01 4.09324E+01 0.00000E+00
 -1      2609 6.10242E+01 4.15567E+01 0.00000E+00
 -1      2610 6.13683E+01 3.95754E+01 0.00000E+00
 -1      2611 4.19101E+01 4.38591E+01 0.00000E+00
 -1      2612 4.09848E+01 4.39113E+01 0.00000E+00
 -1      2613 4.66060E+01 2.65598E+01 0.00000E+00
 -1      2614 7.79400E+00 3.52687E+01 0.00000E+00
 -1      2615 6.49500E+00 3.60062E+01 0.00000E+00
 -1      2616 6.49500E+00 3.74750E+01 0.00000E+00
 -1      2617 9.55950E+00 5.02450E+00 0.00000E+00
 -1      2618 9.37425E+00 5.84794E+00 0.00000E+00
 -1      2619 1.07692E+01 5.21931E+00 0.00000E+00
 -1      2620 6.13053E+01 3.72404E+01 0.00000E+00
 -1      2621 5.35438E+01 2.66995E+01 0.00000E+00
 -1      2622 2.23740E+01 7.38350E+00 0.00000E+00
 -1      2623 5.77226E+01 2.88776E+01 0.00000E+00
 -1      2624 3.95598E+01 4.39113E+01 0.00000E+00
 -1      2625 4.90112E+01 2.61445E+01 0.00000E+00
 -1      2626 1.42575E+02 4.49356E+01 0.00000E+00
 -1      2627 1.44075E+02 4.49356E+01 0.00000E+00
 -1      2628 1.41540E+02 8.85425E+00 0.00000E+00
 -1      2629 1.44430E+02 4.35404E+01 0.00000E+00
 -1      2630 1.44064E+02 4.24183E+01 0.00000E+00
 -1      2631 3.88335E+01 3.52203E+01 0.00000E+00
 -1      2632 1.42766E+02 4.16808E+01 0.00000E+00
 -1      2633 1.30515E+01 5.74931E+00 0.00000E+00
 -1      2634 1.18418E+01 5.55450E+00 0.00000E+00
 -1      2635 1.16565E+01 6.37794E+00 0.00000E+00
 -1      2636 1.38015E+01 7.04831E+00 0.00000E+00
 -1      2637 6.00969E+01 3.28016E+01 0.00000E+00
 -1      2638 5.90912E+01 3.07064E+01 0.00000E+00
 -1      2639 6.50850E+00 3.87101E+01 0.00000E+00
 -1      2640 6.50850E+00 4.01789E+01 0.00000E+00
 -1      2641 7.83450E+00 4.04429E+01 0.00000E+00
 -1      2642 7.80750E+00 3.79726E+01 0.00000E+00
 -1      2643 4.11712E+01 3.10893E+01 0.00000E+00
 -1      2644 4.10183E+01 3.02757E+01 0.00000E+00
 -1      2645 4.03133E+01 3.13623E+01 0.00000E+00
 -1      2646 3.88098E+01 4.26123E+01 0.00000E+00
 -1      2647 3.98026E+01 3.31460E+01 0.00000E+00
 -1      2648 4.25443E+01 2.91750E+01 0.00000E+00
 -1      2649 3.99412E+01 4.20315E+01 0.00000E+00
 -1      2650 3.90006E+01 3.99408E+01 0.00000E+00
 -1      2651 3.85332E+01 3.75808E+01 0.00000E+00
 -1      2652 4.43394E+01 2.76244E+01 0.00000E+00
 -1      2653 1.41863E+02 4.39105E+01 0.00000E+00
 -1      2654 1.45180E+02 4.48394E+01 0.00000E+00
 -1      2655 9.09300E+00 1.98250E+01 0.00000E+00
 -1      2656 9.09300E+00 2.12750E+01 0.00000E+00
 -1      2657 9.09300E+00 2.27500E+01 0.00000E+00
 -1      2658 9.09300E+00 2.42250E+01 0.00000E+00
 -1      2659 1.03920E+01 2.20250E+01 0.00000E+00
 -1      2660 9.09300E+00 1.39375E+01 0.00000E+00
 -1      2661 9.09300E+00 1.54125E+01 0.00000E+00
 -1      2662 9.09300E+00 1.09875E+01 0.00000E+00
 -1      2663 9.09300E+00 1.24625E+01 0.00000E+00
 -1      2664 1.03920E+01 1.32000E+01 0.00000E+00
 -1      2665 9.18900E+00 6.67137E+00 0.00000E+00
 -1      2666 9.00375E+00 7.49481E+00 0.00000E+00
 -1      2667 1.03988E+01 6.86619E+00 0.00000E+00
 -1      2668 1.40907E+02 2.42875E+01 0.00000E+00
 -1      2669 1.40907E+02 2.28125E+01 0.00000E+00
 -1      2670 1.12125E+01 4.09070E+01 0.00000E+00
 -1      2671 1.26375E+01 4.09070E+01 0.00000E+00
 -1      2672 3.86247E+01 3.30523E+01 0.00000E+00
 -1      2673 3.92883E+01 3.20822E+01 0.00000E+00
 -1      2674 1.41375E+01 4.09070E+01 0.00000E+00
 -1      2675 1.56375E+01 4.09070E+01 0.00000E+00
 -1      2676 1.34250E+01 3.96080E+01 0.00000E+00
 -1      2677 1.71375E+01 4.09070E+01 0.00000E+00
 -1      2678 1.86375E+01 4.09070E+01 0.00000E+00
 -1      2679 1.64250E+01 3.96080E+01 0.00000E+00
 -1      2680 2.01375E+01 4.09070E+01 0.00000E+00
 -1      2681 2.16375E+01 4.09070E+01 0.00000E+00
 -1      2682 1.94250E+01 3.96080E+01 0.00000E+00
 -1      2683 2.31375E+01 4.09070E+01 0.00000E+00
 -1      2684 2.46375E+01 4.09070E+01 0.00000E+00
 -1      2685 2.24250E+01 3.96080E+01 0.00000E+00
 -1      2686 2.61375E+01 4.09070E+01 0.00000E+00
 -1      2687 2.76375E+01 4.09070E+01 0.00000E+00
 -1      2688 2.54250E+01 3.96080E+01 0.00000E+00
 -1      2689 2.90625E+01 4.09070E+01 0.00000E+00
 -1      2690 3.04875E+01 4.09070E+01 0.00000E+00
 -1      2691 2.83500E+01 3.96080E+01 0.00000E+00
 -1      2692 3.19875E+01 4.09070E+01 0.00000E+00
 -1      2693 3.34875E+01 4.09070E+01 0.00000E+00
 -1      2694 3.12750E+01 3.96080E+01 0.00000E+00
 -1      2695 3.49875E+01 4.09070E+01 0.00000E+00
 -1      2696 3.64875E+01 4.09070E+01 0.00000E+00
 -1      2697 3.42750E+01 3.96080E+01 0.00000E+00
 -1      2698 1.71240E+01 8.68250E+00 0.00000E+00
 -1      2699 1.56240E+01 8.68250E+00 0.00000E+00
 -1      2700 1.40907E+02 1.54500E+01 0.00000E+00
 -1      2701 1.40907E+02 1.40000E+01 0.00000E+00
 -1      2702 6.19261E+01 4.33659E+01 0.00000E+00
 -1      2703 2.31240E+01 8.68250E+00 0.00000E+00
 -1      2704 2.16240E+01 8.68250E+00 0.00000E+00
 -1      2705 6.37500E+01 4.30755E+01 0.00000E+00
 -1      2706 6.52500E+01 4.30755E+01 0.00000E+00
 -1      2707 6.67500E+01 4.30755E+01 0.00000E+00
 -1      2708 6.82500E+01 4.30755E+01 0.00000E+00
 -1      2709 6.60000E+01 4.19666E+01 0.00000E+00
 -1      2710 6.97500E+01 4.30755E+01 0.00000E+00
 -1      2711 7.12500E+01 4.30755E+01 0.00000E+00
 -1      2712 6.90000E+01 4.19666E+01 0.00000E+00
 -1      2713 7.27500E+01 4.30755E+01 0.00000E+00
 -1      2714 7.42500E+01 4.30755E+01 0.00000E+00
 -1      2715 7.20000E+01 4.19666E+01 0.00000E+00
 -1      2716 7.56750E+01 4.30755E+01 0.00000E+00
 -1      2717 7.71000E+01 4.30755E+01 0.00000E+00
 -1      2718 7.49250E+01 4.19666E+01 0.00000E+00
 -1      2719 7.86000E+01 4.30755E+01 0.00000E+00
 -1      2720 8.01000E+01 4.30755E+01 0.00000E+00
 -1      2721 7.78500E+01 4.19666E+01 0.00000E+00
 -1      2722 8.16000E+01 4.30755E+01 0.00000E+00
 -1      2723 8.31000E+01 4.30755E+01 0.00000E+00
 -1      2724 8.08500E+01 4.19666E+01 0.00000E+00
 -1      2725 8.46000E+01 4.30755E+01 0.00000E+00
 -1      2726 8.61000E+01 4.30755E+01 0.00000E+00
 -1      2727 8.38500E+01 4.19666E+01 0.00000E+00
 -1      2728 8.76000E+01 4.30755E+01 0.00000E+00
 -1      2729 8.91000E+01 4.30755E+01 0.00000E+00
 -1      2730 8.68500E+01 4.19666E+01 0.00000E+00
 -1      2731 9.06000E+01 4.30755E+01 0.00000E+00
 -1      2732 9.21000E+01 4.30755E+01 0.00000E+00
 -1      2733 8.98500E+01 4.19666E+01 0.00000E+00
 -1      2734 9.35250E+01 4.30755E+01 0.00000E+00
 -1      2735 9.49500E+01 4.30755E+01 0.00000E+00
 -1      2736 9.27750E+01 4.19666E+01 0.00000E+00
 -1      2737 9.64500E+01 4.30755E+01 0.00000E+00
 -1      2738 9.79500E+01 4.30755E+01 0.00000E+00
 -1      2739 9.57000E+01 4.19666E+01 0.00000E+00
 -1      2740 9.94500E+01 4.30755E+01 0.00000E+00
 -1      2741 1.00950E+02 4.30755E+01 0.00000E+00
 -1      2742 9.87000E+01 4.19666E+01 0.00000E+00
 -1      2743 1.02450E+02 4.30755E+01 0.00000E+00
 -1      2744 1.03950E+02 4.30755E+01 0.00000E+00
 -1      2745 1.01700E+02 4.19666E+01 0.00000E+00
 -1      2746 1.05450E+02 4.30755E+01 0.00000E+00
 -1      2747 1.06950E+02 4.30755E+01 0.00000E+00
 -1      2748 1.04700E+02 4.19666E+01 0.00000E+00
 -1      2749 1.08450E+02 4.30755E+01 0.00000E+00
 -1      2750 1.09950E+02 4.30755E+01 0.00000E+00
 -1      2751 1.07700E+02 4.19666E+01 0.00000E+00
 -1      2752 1.11375E+02 4.30755E+01 0.00000E+00
 -1      2753 1.12800E+02 4.30755E+01 0.00000E+00
 -1      2754 1.10625E+02 4.19666E+01 0.00000E+00
 -1      2755 1.14300E+02 4.30755E+01 0.00000E+00
 -1      2756 1.15800E+02 4.30755E+01 0.00000E+00
 -1      2757 1.13550E+02 4.19666E+01 0.00000E+00
 -1      2758 1.17300E+02 4.30755E+01 0.00000E+00
 -1      2759 1.18800E+02 4.30755E+01 0.00000E+00
 -1      2760 1.16550E+02 4.19666E+01 0.00000E+00
 -1      2761 1.20300E+02 4.30755E+01 0.00000E+00
 -1      2762 1.21800E+02 4.30755E+01 0.00000E+00
 -1      2763 1.19550E+02 4.19666E+01 0.00000E+00
 -1      2764 1.23300E+02 4.30755E+01 0.00000E+00
 -1      2765 1.24800E+02 4.30755E+01 0.00000E+00
 -1      2766 1.22550E+02 4.19666E+01 0.00000E+00
 -1      2767 1.26300E+02 4.30755E+01 0.00000E+00
 -1      2768 1.27800E+02 4.30755E+01 0.00000E+00
 -1      2769 1.25550E+02 4.19666E+01 0.00000E+00
 -1      2770 1.29225E+02 4.30755E+01 0.00000E+00
 -1      2771 1.30650E+02 4.30755E+01 0.00000E+00
 -1      2772 1.28475E+02 4.19666E+01 0.00000E+00
 -1      2773 1.32150E+02 4.30755E+01 0.00000E+00
 -1      2774 1.33650E+02 4.30755E+01 0.00000E+00
 -1      2775 1.31400E+02 4.19666E+01 0.00000E+00
 -1      2776 1.35150E+02 4.30755E+01 0.00000E+00
 -1      2777 1.36650E+02 4.30755E+01 0.00000E+00
 -1      2778 1.34400E+02 4.19666E+01 0.00000E+00
 -1      2779 1.38150E+02 4.30755E+01 0.00000E+00
 -1      2780 1.39650E+02 4.30755E+01 0.00000E+00
 -1      2781 1.37400E+02 4.19666E+01 0.00000E+00
 -1      2782 1.40706E+02 1.03250E+01 0.00000E+00
 -1      2783 1.40040E+02 8.85425E+00 0.00000E+00
 -1      2784 1.38540E+02 8.85425E+00 0.00000E+00
 -1      2785 6.07654E+01 3.19045E+01 0.00000E+00
 -1      2786 6.11908E+01 3.30363E+01 0.00000E+00
 -1      2787 2.91240E+01 8.68250E+00 0.00000E+00
 -1      2788 2.76240E+01 8.68250E+00 0.00000E+00
 -1      2789 2.61240E+01 8.68250E+00 0.00000E+00
 -1      2790 2.46240E+01 8.68250E+00 0.00000E+00
 -1      2791 2.38740E+01 9.98150E+00 0.00000E+00
 -1      2792 2.68740E+01 9.98150E+00 0.00000E+00
 -1      2793 3.51240E+01 8.68250E+00 0.00000E+00
 -1      2794 3.36240E+01 8.68250E+00 0.00000E+00
 -1      2795 3.81240E+01 8.68250E+00 0.00000E+00
 -1      2796 3.66240E+01 8.68250E+00 0.00000E+00
 -1      2797 3.58740E+01 9.98150E+00 0.00000E+00
 -1      2798 4.11240E+01 8.68250E+00 0.00000E+00
 -1      2799 3.96240E+01 8.68250E+00 0.00000E+00
 -1      2800 3.88740E+01 9.98150E+00 0.00000E+00
 -1      2801 4.41240E+01 8.68250E+00 0.00000E+00
 -1      2802 4.26240E+01 8.68250E+00 0.00000E+00
 -1      2803 4.18740E+01 9.98150E+00 0.00000E+00
 -1      2804 4.71240E+01 8.68250E+00 0.00000E+00
 -1      2805 4.56240E+01 8.68250E+00 0.00000E+00
 -1      2806 4.48740E+01 9.98150E+00 0.00000E+00
 -1      2807 5.01240E+01 8.68250E+00 0.00000E+00
 -1      2808 4.86240E+01 8.68250E+00 0.00000E+00
 -1      2809 4.78740E+01 9.98150E+00 0.00000E+00
 -1      2810 5.31240E+01 8.68250E+00 0.00000E+00
 -1      2811 5.16240E+01 8.68250E+00 0.00000E+00
 -1      2812 5.08740E+01 9.98150E+00 0.00000E+00
 -1      2813 5.61240E+01 8.68250E+00 0.00000E+00
 -1      2814 5.46240E+01 8.68250E+00 0.00000E+00
 -1      2815 5.38740E+01 9.98150E+00 0.00000E+00
 -1      2816 5.91240E+01 8.68250E+00 0.00000E+00
 -1      2817 5.76240E+01 8.68250E+00 0.00000E+00
 -1      2818 5.68740E+01 9.98150E+00 0.00000E+00
 -1      2819 6.21240E+01 8.68250E+00 0.00000E+00
 -1      2820 6.06240E+01 8.68250E+00 0.00000E+00
 -1      2821 5.98740E+01 9.98150E+00 0.00000E+00
 -1      2822 6.51240E+01 8.68250E+00 0.00000E+00
 -1      2823 6.36240E+01 8.68250E+00 0.00000E+00
 -1      2824 6.28740E+01 9.98150E+00 0.00000E+00
 -1      2825 6.81240E+01 8.68250E+00 0.00000E+00
 -1      2826 6.66240E+01 8.68250E+00 0.00000E+00
 -1      2827 6.58740E+01 9.98150E+00 0.00000E+00
 -1      2828 7.11240E+01 8.68250E+00 0.00000E+00
 -1      2829 6.96240E+01 8.68250E+00 0.00000E+00
 -1      2830 6.88740E+01 9.98150E+00 0.00000E+00
 -1      2831 7.41240E+01 8.68250E+00 0.00000E+00
 -1      2832 7.26240E+01 8.68250E+00 0.00000E+00
 -1      2833 7.18740E+01 9.98150E+00 0.00000E+00
 -1      2834 7.71240E+01 8.68250E+00 0.00000E+00
 -1      2835 7.56240E+01 8.68250E+00 0.00000E+00
 -1      2836 7.48740E+01 9.98150E+00 0.00000E+00
 -1      2837 8.01240E+01 8.68250E+00 0.00000E+00
 -1      2838 7.86240E+01 8.68250E+00 0.00000E+00
 -1      2839 7.78740E+01 9.98150E+00 0.00000E+00
 -1      2840 8.31240E+01 8.68250E+00 0.00000E+00
 -1      2841 8.16240E+01 8.68250E+00 0.00000E+00
 -1      2842 8.08740E+01 9.98150E+00 0.00000E+00
 -1      2843 8.61240E+01 8.68250E+00 0.00000E+00
 -1      2844 8.46240E+01 8.68250E+00 0.00000E+00
 -1      2845 8.38740E+01 9.98150E+00 0.00000E+00
 -1      2846 8.91240E+01 8.68250E+00 0.00000E+00
 -1      2847 8.76240E+01 8.68250E+00 0.00000E+00
 -1      2848 8.68740E+01 9.98150E+00 0.00000E+00
 -1      2849 9.21240E+01 8.68250E+00 0.00000E+00
 -1      2850 9.06240E+01 8.68250E+00 0.00000E+00
 -1      2851 8.98740E+01 9.98150E+00 0.00000E+00
 -1      2852 9.51240E+01 8.68250E+00 0.00000E+00
 -1      2853 9.36240E+01 8.68250E+00 0.00000E+00
 -1      2854 9.28740E+01 9.98150E+00 0.00000E+00
 -1      2855 9.81240E+01 8.68250E+00 0.00000E+00
 -1      2856 9.66240E+01 8.68250E+00 0.00000E+00
 -1      2857 9.58740E+01 9.98150E+00 0.00000E+00
 -1      2858 1.01124E+02 8.68250E+00 0.00000E+00
 -1      2859 9.96240E+01 8.68250E+00 0.00000E+00
 -1      2860 9.88740E+01 9.98150E+00 0.00000E+00
 -1      2861 1.04124E+02 8.68250E+00 0.00000E+00
 -1      2862 1.02624E+02 8.68250E+00 0.00000E+00
 -1      2863 1.01874E+02 9.98150E+00 0.00000E+00
 -1      2864 1.07124E+02 8.68250E+00 0.00000E+00
 -1      2865 1.05624E+02 8.68250E+00 0.00000E+00
 -1      2866 1.04874E+02 9.98150E+00 0.00000E+00
 -1      2867 1.10124E+02 8.68250E+00 0.00000E+00
 -1      2868 1.08624E+02 8.68250E+00 0.00000E+00
 -1      2869 1.07874E+02 9.98150E+00 0.00000E+00
 -1      2870 1.13124E+02 8.68250E+00 0.00000E+00
 -1      2871 1.11624E+02 8.68250E+00 0.00000E+00
 -1      2872 1.10874E+02 9.98150E+00 0.00000E+00
 -1      2873 1.16124E+02 8.68250E+00 0.00000E+00
 -1      2874 1.14624E+02 8.68250E+00 0.00000E+00
 -1      2875 1.13874E+02 9.98150E+00 0.00000E+00
 -1      2876 1.19124E+02 8.68250E+00 0.00000E+00
 -1      2877 1.17624E+02 8.68250E+00 0.00000E+00
 -1      2878 1.16874E+02 9.98150E+00 0.00000E+00
 -1      2879 1.22124E+02 8.68250E+00 0.00000E+00
 -1      2880 1.20624E+02 8.68250E+00 0.00000E+00
 -1      2881 1.19874E+02 9.98150E+00 0.00000E+00
 -1      2882 1.25124E+02 8.68250E+00 0.00000E+00
 -1      2883 1.23624E+02 8.68250E+00 0.00000E+00
 -1      2884 1.22874E+02 9.98150E+00 0.00000E+00
 -1      2885 1.28124E+02 8.68250E+00 0.00000E+00
 -1      2886 1.26624E+02 8.68250E+00 0.00000E+00
 -1      2887 1.25874E+02 9.98150E+00 0.00000E+00
 -1      2888 1.31124E+02 8.68250E+00 0.00000E+00
 -1      2889 1.29624E+02 8.68250E+00 0.00000E+00
 -1      2890 1.28874E+02 9.98150E+00 0.00000E+00
 -1      2891 1.34124E+02 8.68250E+00 0.00000E+00
 -1      2892 1.32624E+02 8.68250E+00 0.00000E+00
 -1      2893 1.31874E+02 9.98150E+00 0.00000E+00
 -1      2894 1.37082E+02 8.76838E+00 0.00000E+00
 -1      2895 1.35582E+02 8.76838E+00 0.00000E+00
 -1      2896 1.34832E+02 1.00674E+01 0.00000E+00
 -1      2897 1.37748E+02 1.02391E+01 0.00000E+00
 -1      2898 1.40907E+02 2.13375E+01 0.00000E+00
 -1      2899 1.40907E+02 1.98625E+01 0.00000E+00
 -1      2900 1.39608E+02 2.20750E+01 0.00000E+00
 -1      2901 5.58278E+01 2.62058E+01 0.00000E+00
 -1      2902 5.68921E+01 2.66851E+01 0.00000E+00
 -1      2903 8.86050E+00 4.05429E+01 0.00000E+00
 -1      2904 1.01865E+01 4.08069E+01 0.00000E+00
 -1      2905 1.08990E+01 3.95079E+01 0.00000E+00
 -1      2906 8.84700E+00 3.93078E+01 0.00000E+00
 -1      2907 1.40706E+02 1.18000E+01 0.00000E+00
 -1      2908 3.78946E+01 3.55549E+01 0.00000E+00
 -1      2909 3.82001E+01 3.44507E+01 0.00000E+00
 -1      2910 1.40907E+02 2.72375E+01 0.00000E+00
 -1      2911 1.40907E+02 2.57625E+01 0.00000E+00
 -1      2912 1.39608E+02 2.50250E+01 0.00000E+00
 -1      2913 1.40907E+02 3.01375E+01 0.00000E+00
 -1      2914 1.40907E+02 2.86875E+01 0.00000E+00
 -1      2915 1.39608E+02 2.79500E+01 0.00000E+00
 -1      2916 1.40907E+02 3.30875E+01 0.00000E+00
 -1      2917 1.40907E+02 3.16125E+01 0.00000E+00
 -1      2918 1.39608E+02 3.08750E+01 0.00000E+00
 -1      2919 1.40907E+02 3.60375E+01 0.00000E+00
 -1      2920 1.40907E+02 3.45625E+01 0.00000E+00
 -1      2921 1.39608E+02 3.38250E+01 0.00000E+00
 -1      2922 1.40907E+02 3.89875E+01 0.00000E+00
 -1      2923 1.40907E+02 3.75125E+01 0.00000E+00
 -1      2924 1.39608E+02 3.67750E+01 0.00000E+00
 -1      2925 2.01240E+01 8.68250E+00 0.00000E+00
 -1      2926 1.86240E+01 8.68250E+00 0.00000E+00
 -1      2927 1.78740E+01 9.98150E+00 0.00000E+00
 -1      2928 5.80864E+01 2.77547E+01 0.00000E+00
 -1      2929 5.88746E+01 2.86201E+01 0.00000E+00
 -1      2930 6.20326E+01 3.64207E+01 0.00000E+00
 -1      2931 6.22675E+01 3.77649E+01 0.00000E+00
 -1      2932 6.14852E+01 3.41934E+01 0.00000E+00
 -1      2933 6.17593E+01 3.51749E+01 0.00000E+00
 -1      2934 5.97508E+01 2.96525E+01 0.00000E+00
 -1      2935 6.03312E+01 3.06159E+01 0.00000E+00
 -1      2936 5.33035E+01 2.54975E+01 0.00000E+00
 -1      2937 5.45657E+01 2.58516E+01 0.00000E+00
 -1      2938 5.55876E+01 2.50038E+01 0.00000E+00
 -1      2939 1.40907E+02 1.83937E+01 0.00000E+00
 -1      2940 1.40907E+02 1.69188E+01 0.00000E+00
 -1      2941 1.39608E+02 1.61938E+01 0.00000E+00
 -1      2942 1.39608E+02 1.91313E+01 0.00000E+00
 -1      2943 4.57900E+01 2.59091E+01 0.00000E+00
 -1      2944 4.69296E+01 2.55676E+01 0.00000E+00
 -1      2945 3.83314E+01 4.16252E+01 0.00000E+00
 -1      2946 4.15430E+01 2.90502E+01 0.00000E+00
 -1      2947 4.22111E+01 2.82226E+01 0.00000E+00
 -1      2948 1.41303E+02 4.19547E+01 0.00000E+00
 -1      2949 4.31771E+01 2.70526E+01 0.00000E+00
 -1      2950 4.43040E+01 2.63295E+01 0.00000E+00
 -1      2951 4.83187E+01 2.51580E+01 0.00000E+00
 -1      2952 4.95843E+01 2.50841E+01 0.00000E+00
 -1      2953 3.75107E+01 3.82133E+01 0.00000E+00
 -1      2954 3.75055E+01 3.69569E+01 0.00000E+00
 -1      2955 3.21240E+01 8.68250E+00 0.00000E+00
 -1      2956 3.06240E+01 8.68250E+00 0.00000E+00
 -1      2957 2.98740E+01 9.98150E+00 0.00000E+00
 -1      2958 3.28740E+01 9.98150E+00 0.00000E+00
 -1      2959 9.09300E+00 1.68813E+01 0.00000E+00
 -1      2960 9.09300E+00 1.83563E+01 0.00000E+00
 -1      2961 1.03920E+01 1.90812E+01 0.00000E+00
 -1      2962 1.03920E+01 1.61437E+01 0.00000E+00
 -1      2963 5.08944E+01 2.52897E+01 0.00000E+00
 -1      2964 5.18968E+01 2.54270E+01 0.00000E+00
 -1      2965 9.09300E+00 3.15875E+01 0.00000E+00
 -1      2966 9.09300E+00 3.30625E+01 0.00000E+00
 -1      2967 6.18502E+01 4.19069E+01 0.00000E+00
 -1      2968 6.29241E+01 4.27253E+01 0.00000E+00
 -1      2969 6.36741E+01 4.16164E+01 0.00000E+00
 -1      2970 6.20222E+01 4.09162E+01 0.00000E+00
 -1      2971 1.40553E+02 4.08458E+01 0.00000E+00
 -1      2972 9.09300E+00 3.45313E+01 0.00000E+00
 -1      2973 9.09300E+00 3.60000E+01 0.00000E+00
 -1      2974 1.03920E+01 3.37938E+01 0.00000E+00
 -1      2975 1.03920E+01 2.49750E+01 0.00000E+00
 -1      2976 9.09300E+00 2.57000E+01 0.00000E+00
 -1      2977 9.09300E+00 2.71750E+01 0.00000E+00
 -1      2978 9.00375E+00 8.96981E+00 0.00000E+00
 -1      2979 3.91354E+01 3.12686E+01 0.00000E+00
 -1      2980 1.48740E+01 9.98151E+00 0.00000E+00
 -1      2981 1.41240E+01 8.68251E+00 0.00000E+00
 -1      2982 6.01146E+01 2.85295E+01 0.00000E+00
 -1      2983 1.39407E+02 1.25250E+01 0.00000E+00
 -1      2984 2.08740E+01 9.98150E+00 0.00000E+00
 -1      2985 3.76858E+01 3.33869E+01 0.00000E+00
 -1      2986 5.02019E+01 2.43032E+01 0.00000E+00
 -1      2987 6.14250E+01 3.08506E+01 0.00000E+00
 -1      2988 4.75027E+01 2.45073E+01 0.00000E+00
 -1      2989 5.80441E+01 2.64275E+01 0.00000E+00
 -1      2990 6.21537E+01 3.32964E+01 0.00000E+00
 -1      2991 5.29187E+01 2.45792E+01 0.00000E+00
 -1      2992 9.09300E+00 2.86437E+01 0.00000E+00
 -1      2993 9.09300E+00 3.01187E+01 0.00000E+00
 -1      2994 1.03920E+01 3.08563E+01 0.00000E+00
 -1      2995 1.03920E+01 2.79188E+01 0.00000E+00
 -1      2996 6.27215E+01 3.56993E+01 0.00000E+00
 -1      2997 3.68721E+01 3.61873E+01 0.00000E+00
 -1      2998 1.30515E+01 8.34733E+00 0.00000E+00
 -1      2999 1.39254E+02 4.01083E+01 0.00000E+00
 -1      3000 3.71567E+01 3.92226E+01 0.00000E+00
 -1      3001 3.61290E+01 3.85987E+01 0.00000E+00
 -1      3002 1.03027E+01 9.70731E+00 0.00000E+00
 -1      3003 4.46277E+01 2.53373E+01 0.00000E+00
 -1      3004 3.73358E+01 4.10782E+01 0.00000E+00
 -1      3005 3.84672E+01 4.04974E+01 0.00000E+00
 -1      3006 4.06851E+01 2.93232E+01 0.00000E+00
 -1      3007 4.21757E+01 2.69277E+01 0.00000E+00
 -1      3008 6.23662E+01 3.89348E+01 0.00000E+00
 -1      3009 6.21942E+01 3.99255E+01 0.00000E+00
 -1      3010 6.30201E+01 4.02756E+01 0.00000E+00
 -1      3011 6.30935E+01 3.81150E+01 0.00000E+00
 -1      3012 1.16910E+01 1.24625E+01 0.00000E+00
 -1      3013 1.16910E+01 1.39375E+01 0.00000E+00
 -1      3014 1.14712E+01 7.20138E+00 0.00000E+00
 -1      3015 3.80337E+01 3.07896E+01 0.00000E+00
 -1      3016 3.90587E+01 3.00697E+01 0.00000E+00
 -1      3017 1.38309E+02 2.86750E+01 0.00000E+00
 -1      3018 1.38309E+02 2.72250E+01 0.00000E+00
 -1      3019 1.56240E+01 1.12805E+01 0.00000E+00
 -1      3020 1.41241E+01 1.12805E+01 0.00000E+00
 -1      3021 6.05220E+01 2.72958E+01 0.00000E+00
 -1      3022 6.13982E+01 2.83282E+01 0.00000E+00
 -1      3023 1.56750E+01 3.83090E+01 0.00000E+00
 -1      3024 1.71750E+01 3.83090E+01 0.00000E+00
 -1      3025 1.86750E+01 3.83090E+01 0.00000E+00
 -1      3026 2.01750E+01 3.83090E+01 0.00000E+00
 -1      3027 1.79250E+01 3.70100E+01 0.00000E+00
 -1      3028 2.16750E+01 3.83090E+01 0.00000E+00
 -1      3029 2.31750E+01 3.83090E+01 0.00000E+00
 -1      3030 2.09250E+01 3.70100E+01 0.00000E+00
 -1      3031 2.46750E+01 3.83090E+01 0.00000E+00
 -1      3032 2.61750E+01 3.83090E+01 0.00000E+00
 -1      3033 2.39250E+01 3.70100E+01 0.00000E+00
 -1      3034 2.76000E+01 3.83090E+01 0.00000E+00
 -1      3035 2.90250E+01 3.83090E+01 0.00000E+00
 -1      3036 2.68500E+01 3.70100E+01 0.00000E+00
 -1      3037 3.05250E+01 3.83090E+01 0.00000E+00
 -1      3038 3.20250E+01 3.83090E+01 0.00000E+00
 -1      3039 2.97750E+01 3.70100E+01 0.00000E+00
 -1      3040 3.33270E+01 3.84538E+01 0.00000E+00
 -1      3041 3.48270E+01 3.84538E+01 0.00000E+00
 -1      3042 3.51810E+01 3.74445E+01 0.00000E+00
 -1      3043 3.25770E+01 3.71548E+01 0.00000E+00
 -1      3044 1.16910E+01 2.12875E+01 0.00000E+00
 -1      3045 1.16910E+01 2.27625E+01 0.00000E+00
 -1      3046 3.96240E+01 1.12805E+01 0.00000E+00
 -1      3047 3.81240E+01 1.12805E+01 0.00000E+00
 -1      3048 6.52500E+01 4.08577E+01 0.00000E+00
 -1      3049 6.67500E+01 4.08577E+01 0.00000E+00
 -1      3050 6.82500E+01 4.08577E+01 0.00000E+00
 -1      3051 6.97500E+01 4.08577E+01 0.00000E+00
 -1      3052 6.75000E+01 3.97487E+01 0.00000E+00
 -1      3053 7.12500E+01 4.08577E+01 0.00000E+00
 -1      3054 7.27500E+01 4.08577E+01 0.00000E+00
 -1      3055 7.05000E+01 3.97487E+01 0.00000E+00
 -1      3056 7.41750E+01 4.08577E+01 0.00000E+00
 -1      3057 7.56000E+01 4.08577E+01 0.00000E+00
 -1      3058 7.34250E+01 3.97487E+01 0.00000E+00
 -1      3059 7.71000E+01 4.08577E+01 0.00000E+00
 -1      3060 7.86000E+01 4.08577E+01 0.00000E+00
 -1      3061 7.63500E+01 3.97487E+01 0.00000E+00
 -1      3062 8.01000E+01 4.08577E+01 0.00000E+00
 -1      3063 8.16000E+01 4.08577E+01 0.00000E+00
 -1      3064 7.93500E+01 3.97487E+01 0.00000E+00
 -1      3065 8.31000E+01 4.08577E+01 0.00000E+00
 -1      3066 8.46000E+01 4.08577E+01 0.00000E+00
 -1      3067 8.23500E+01 3.97487E+01 0.00000E+00
 -1      3068 8.61000E+01 4.08577E+01 0.00000E+00
 -1      3069 8.76000E+01 4.08577E+01 0.00000E+00
 -1      3070 8.53500E+01 3.97487E+01 0.00000E+00
 -1      3071 8.91000E+01 4.08577E+01 0.00000E+00
 -1      3072 9.06000E+01 4.08577E+01 0.00000E+00
 -1      3073 8.83500E+01 3.97487E+01 0.00000E+00
 -1      3074 9.20250E+01 4.08577E+01 0.00000E+00
 -1      3075 9.34500E+01 4.08577E+01 0.00000E+00
 -1      3076 9.12750E+01 3.97487E+01 0.00000E+00
 -1      3077 9.49500E+01 4.08577E+01 0.00000E+00
 -1      3078 9.64500E+01 4.08577E+01 0.00000E+00
 -1      3079 9.42000E+01 3.97487E+01 0.00000E+00
 -1      3080 9.79500E+01 4.08577E+01 0.00000E+00
 -1      3081 9.94500E+01 4.08577E+01 0.00000E+00
 -1      3082 9.72000E+01 3.97487E+01 0.00000E+00
 -1      3083 1.00950E+02 4.08577E+01 0.00000E+00
 -1      3084 1.02450E+02 4.08577E+01 0.00000E+00
 -1      3085 1.00200E+02 3.97487E+01 0.00000E+00
 -1      3086 1.03950E+02 4.08577E+01 0.00000E+00
 -1      3087 1.05450E+02 4.08577E+01 0.00000E+00
 -1      3088 1.03200E+02 3.97487E+01 0.00000E+00
 -1      3089 1.06950E+02 4.08577E+01 0.00000E+00
 -1      3090 1.08450E+02 4.08577E+01 0.00000E+00
 -1      3091 1.06200E+02 3.97487E+01 0.00000E+00
 -1      3092 1.09875E+02 4.08577E+01 0.00000E+00
 -1      3093 1.11300E+02 4.08577E+01 0.00000E+00
 -1      3094 1.09125E+02 3.97487E+01 0.00000E+00
 -1      3095 1.12800E+02 4.08577E+01 0.00000E+00
 -1      3096 1.14300E+02 4.08577E+01 0.00000E+00
 -1      3097 1.12050E+02 3.97487E+01 0.00000E+00
 -1      3098 1.15800E+02 4.08577E+01 0.00000E+00
 -1      3099 1.17300E+02 4.08577E+01 0.00000E+00
 -1      3100 1.15050E+02 3.97487E+01 0.00000E+00
 -1      3101 1.18800E+02 4.08577E+01 0.00000E+00
 -1      3102 1.20300E+02 4.08577E+01 0.00000E+00
 -1      3103 1.18050E+02 3.97487E+01 0.00000E+00
 -1      3104 1.21800E+02 4.08577E+01 0.00000E+00
 -1      3105 1.23300E+02 4.08577E+01 0.00000E+00
 -1      3106 1.21050E+02 3.97487E+01 0.00000E+00
 -1      3107 1.24800E+02 4.08577E+01 0.00000E+00
 -1      3108 1.26300E+02 4.08577E+01 0.00000E+00
 -1      3109 1.24050E+02 3.97487E+01 0.00000E+00
 -1      3110 1.27725E+02 4.08577E+01 0.00000E+00
 -1      3111 1.29150E+02 4.08577E+01 0.00000E+00
 -1      3112 1.26975E+02 3.97487E+01 0.00000E+00
 -1      3113 1.30650E+02 4.08577E+01 0.00000E+00
 -1      3114 1.32150E+02 4.08577E+01 0.00000E+00
 -1      3115 1.29900E+02 3.97487E+01 0.00000E+00
 -1      3116 1.33650E+02 4.08577E+01 0.00000E+00
 -1      3117 1.35150E+02 4.08577E+01 0.00000E+00
 -1      3118 1.32900E+02 3.97487E+01 0.00000E+00
 -1      3119 1.36452E+02 4.04830E+01 0.00000E+00
 -1      3120 1.37952E+02 4.04830E+01 0.00000E+00
 -1      3121 1.38306E+02 3.86247E+01 0.00000E+00
 -1      3122 1.35702E+02 3.93741E+01 0.00000E+00
 -1      3123 4.26240E+01 1.12805E+01 0.00000E+00
 -1      3124 4.11240E+01 1.12805E+01 0.00000E+00
 -1      3125 4.03740E+01 1.25795E+01 0.00000E+00
 -1      3126 3.66240E+01 1.12805E+01 0.00000E+00
 -1      3127 3.51240E+01 1.12805E+01 0.00000E+00
 -1      3128 3.73740E+01 1.25795E+01 0.00000E+00
 -1      3129 4.56240E+01 1.12805E+01 0.00000E+00
 -1      3130 4.41240E+01 1.12805E+01 0.00000E+00
 -1      3131 4.33740E+01 1.25795E+01 0.00000E+00
 -1      3132 4.86240E+01 1.12805E+01 0.00000E+00
 -1      3133 4.71240E+01 1.12805E+01 0.00000E+00
 -1      3134 4.63740E+01 1.25795E+01 0.00000E+00
 -1      3135 5.16240E+01 1.12805E+01 0.00000E+00
 -1      3136 5.01240E+01 1.12805E+01 0.00000E+00
 -1      3137 4.93740E+01 1.25795E+01 0.00000E+00
 -1      3138 5.46240E+01 1.12805E+01 0.00000E+00
 -1      3139 5.31240E+01 1.12805E+01 0.00000E+00
 -1      3140 5.23740E+01 1.25795E+01 0.00000E+00
 -1      3141 5.76240E+01 1.12805E+01 0.00000E+00
 -1      3142 5.61240E+01 1.12805E+01 0.00000E+00
 -1      3143 5.53740E+01 1.25795E+01 0.00000E+00
 -1      3144 6.06240E+01 1.12805E+01 0.00000E+00
 -1      3145 5.91240E+01 1.12805E+01 0.00000E+00
 -1      3146 5.83740E+01 1.25795E+01 0.00000E+00
 -1      3147 6.36240E+01 1.12805E+01 0.00000E+00
 -1      3148 6.21240E+01 1.12805E+01 0.00000E+00
 -1      3149 6.13740E+01 1.25795E+01 0.00000E+00
 -1      3150 6.66240E+01 1.12805E+01 0.00000E+00
 -1      3151 6.51240E+01 1.12805E+01 0.00000E+00
 -1      3152 6.43740E+01 1.25795E+01 0.00000E+00
 -1      3153 6.96240E+01 1.12805E+01 0.00000E+00
 -1      3154 6.81240E+01 1.12805E+01 0.00000E+00
 -1      3155 6.73740E+01 1.25795E+01 0.00000E+00
 -1      3156 7.26240E+01 1.12805E+01 0.00000E+00
 -1      3157 7.11240E+01 1.12805E+01 0.00000E+00
 -1      3158 7.03740E+01 1.25795E+01 0.00000E+00
 -1      3159 7.56240E+01 1.12805E+01 0.00000E+00
 -1      3160 7.41240E+01 1.12805E+01 0.00000E+00
 -1      3161 7.33740E+01 1.25795E+01 0.00000E+00
 -1      3162 7.86240E+01 1.12805E+01 0.00000E+00
 -1      3163 7.71240E+01 1.12805E+01 0.00000E+00
 -1      3164 7.63740E+01 1.25795E+01 0.00000E+00
 -1      3165 8.16240E+01 1.12805E+01 0.00000E+00
 -1      3166 8.01240E+01 1.12805E+01 0.00000E+00
 -1      3167 7.93740E+01 1.25795E+01 0.00000E+00
 -1      3168 8.46240E+01 1.12805E+01 0.00000E+00
 -1      3169 8.31240E+01 1.12805E+01 0.00000E+00
 -1      3170 8.23740E+01 1.25795E+01 0.00000E+00
 -1      3171 8.76240E+01 1.12805E+01 0.00000E+00
 -1      3172 8.61240E+01 1.12805E+01 0.00000E+00
 -1      3173 8.53740E+01 1.25795E+01 0.00000E+00
 -1      3174 9.06240E+01 1.12805E+01 0.00000E+00
 -1      3175 8.91240E+01 1.12805E+01 0.00000E+00
 -1      3176 8.83740E+01 1.25795E+01 0.00000E+00
 -1      3177 9.36240E+01 1.12805E+01 0.00000E+00
 -1      3178 9.21240E+01 1.12805E+01 0.00000E+00
 -1      3179 9.13740E+01 1.25795E+01 0.00000E+00
 -1      3180 9.66240E+01 1.12805E+01 0.00000E+00
 -1      3181 9.51240E+01 1.12805E+01 0.00000E+00
 -1      3182 9.43740E+01 1.25795E+01 0.00000E+00
 -1      3183 9.96240E+01 1.12805E+01 0.00000E+00
 -1      3184 9.81240E+01 1.12805E+01 0.00000E+00
 -1      3185 9.73740E+01 1.25795E+01 0.00000E+00
 -1      3186 1.02624E+02 1.12805E+01 0.00000E+00
 -1      3187 1.01124E+02 1.12805E+01 0.00000E+00
 -1      3188 1.00374E+02 1.25795E+01 0.00000E+00
 -1      3189 1.05624E+02 1.12805E+01 0.00000E+00
 -1      3190 1.04124E+02 1.12805E+01 0.00000E+00
 -1      3191 1.03374E+02 1.25795E+01 0.00000E+00
 -1      3192 1.08624E+02 1.12805E+01 0.00000E+00
 -1      3193 1.07124E+02 1.12805E+01 0.00000E+00
 -1      3194 1.06374E+02 1.25795E+01 0.00000E+00
 -1      3195 1.11624E+02 1.12805E+01 0.00000E+00
 -1      3196 1.10124E+02 1.12805E+01 0.00000E+00
 -1      3197 1.09374E+02 1.25795E+01 0.00000E+00
 -1      3198 1.14624E+02 1.12805E+01 0.00000E+00
 -1      3199 1.13124E+02 1.12805E+01 0.00000E+00
 -1      3200 1.12374E+02 1.25795E+01 0.00000E+00
 -1      3201 1.17624E+02 1.12805E+01 0.00000E+00
 -1      3202 1.16124E+02 1.12805E+01 0.00000E+00
 -1      3203 1.15374E+02 1.25795E+01 0.00000E+00
 -1      3204 1.20624E+02 1.12805E+01 0.00000E+00
 -1      3205 1.19124E+02 1.12805E+01 0.00000E+00
 -1      3206 1.18374E+02 1.25795E+01 0.00000E+00
 -1      3207 1.23624E+02 1.12805E+01 0.00000E+00
 -1      3208 1.22124E+02 1.12805E+01 0.00000E+00
 -1      3209 1.21374E+02 1.25795E+01 0.00000E+00
 -1      3210 1.26624E+02 1.12805E+01 0.00000E+00
 -1      3211 1.25124E+02 1.12805E+01 0.00000E+00
 -1      3212 1.24374E+02 1.25795E+01 0.00000E+00
 -1      3213 1.29624E+02 1.12805E+01 0.00000E+00
 -1      3214 1.28124E+02 1.12805E+01 0.00000E+00
 -1      3215 1.27374E+02 1.25795E+01 0.00000E+00
 -1      3216 1.32624E+02 1.12805E+01 0.00000E+00
 -1      3217 1.31124E+02 1.12805E+01 0.00000E+00
 -1      3218 1.30374E+02 1.25795E+01 0.00000E+00
 -1      3219 1.38309E+02 2.28125E+01 0.00000E+00
 -1      3220 1.38309E+02 2.13375E+01 0.00000E+00
 -1      3221 1.38309E+02 2.57563E+01 0.00000E+00
 -1      3222 1.38309E+02 2.42813E+01 0.00000E+00
 -1      3223 1.37010E+02 2.35438E+01 0.00000E+00
 -1      3224 1.37010E+02 2.64813E+01 0.00000E+00
 -1      3225 1.38309E+02 3.45625E+01 0.00000E+00
 -1      3226 1.38309E+02 3.30875E+01 0.00000E+00
 -1      3227 1.38307E+02 3.73311E+01 0.00000E+00
 -1      3228 1.38307E+02 3.58561E+01 0.00000E+00
 -1      3229 1.37008E+02 3.51186E+01 0.00000E+00
 -1      3230 1.37005E+02 3.77058E+01 0.00000E+00
 -1      3231 1.86240E+01 1.12805E+01 0.00000E+00
 -1      3232 1.71240E+01 1.12805E+01 0.00000E+00
 -1      3233 1.63741E+01 1.25795E+01 0.00000E+00
 -1      3234 3.64125E+01 3.37639E+01 0.00000E+00
 -1      3235 3.68370E+01 3.23655E+01 0.00000E+00
 -1      3236 6.31623E+01 3.24236E+01 0.00000E+00
 -1      3237 6.34568E+01 3.35808E+01 0.00000E+00
 -1      3238 3.56022E+01 3.63052E+01 0.00000E+00
 -1      3239 3.59913E+01 3.49032E+01 0.00000E+00
 -1      3240 3.51425E+01 3.38818E+01 0.00000E+00
 -1      3241 3.43002E+01 3.61604E+01 0.00000E+00
 -1      3242 1.17938E+01 8.83558E+00 0.00000E+00
 -1      3243 1.18830E+01 1.08533E+01 0.00000E+00
 -1      3244 4.65420E+01 2.38092E+01 0.00000E+00
 -1      3245 4.79310E+01 2.33996E+01 0.00000E+00
 -1      3246 8.96325E+00 3.70363E+01 0.00000E+00
 -1      3247 8.97675E+00 3.82715E+01 0.00000E+00
 -1      3248 1.00028E+01 3.83715E+01 0.00000E+00
 -1      3249 1.02622E+01 3.62988E+01 0.00000E+00
 -1      3250 5.52560E+01 2.37590E+01 0.00000E+00
 -1      3251 5.65182E+01 2.41132E+01 0.00000E+00
 -1      3252 1.38150E+02 1.46391E+01 0.00000E+00
 -1      3253 1.37949E+02 1.24391E+01 0.00000E+00
 -1      3254 1.36491E+02 1.23532E+01 0.00000E+00
 -1      3255 5.24427E+01 2.36181E+01 0.00000E+00
 -1      3256 5.38494E+01 2.36886E+01 0.00000E+00
 -1      3257 5.47800E+01 2.27980E+01 0.00000E+00
 -1      3258 2.16240E+01 1.12805E+01 0.00000E+00
 -1      3259 2.01240E+01 1.12805E+01 0.00000E+00
 -1      3260 1.93741E+01 1.25795E+01 0.00000E+00
 -1      3261 5.81867E+01 2.50667E+01 0.00000E+00
 -1      3262 5.93811E+01 2.61363E+01 0.00000E+00
 -1      3263 1.26750E+01 3.83090E+01 0.00000E+00
 -1      3264 1.41750E+01 3.83090E+01 0.00000E+00
 -1      3265 1.49250E+01 3.70100E+01 0.00000E+00
 -1      3266 3.95834E+01 2.88442E+01 0.00000E+00
 -1      3267 4.98224E+01 2.32071E+01 0.00000E+00
 -1      3268 5.11326E+01 2.34126E+01 0.00000E+00
 -1      3269 5.20632E+01 2.25220E+01 0.00000E+00
 -1      3270 1.38309E+02 3.16187E+01 0.00000E+00
 -1      3271 1.38309E+02 3.01437E+01 0.00000E+00
 -1      3272 1.37010E+02 2.94188E+01 0.00000E+00
 -1      3273 1.37010E+02 3.23563E+01 0.00000E+00
 -1      3274 4.35600E+01 2.43999E+01 0.00000E+00
 -1      3275 4.50460E+01 2.39794E+01 0.00000E+00
 -1      3276 6.22939E+01 2.98463E+01 0.00000E+00
 -1      3277 6.27281E+01 3.11350E+01 0.00000E+00
 -1      3278 6.40312E+01 3.14194E+01 0.00000E+00
 -1      3279 3.80050E+01 3.93938E+01 0.00000E+00
 -1      3280 6.42326E+01 3.74298E+01 0.00000E+00
 -1      3281 6.43313E+01 3.85997E+01 0.00000E+00
 -1      3282 6.36860E+01 3.49382E+01 0.00000E+00
 -1      3283 6.39593E+01 3.61840E+01 0.00000E+00
 -1      3284 6.51971E+01 3.66687E+01 0.00000E+00
 -1      3285 4.09669E+01 2.69134E+01 0.00000E+00
 -1      3286 4.19328E+01 2.57434E+01 0.00000E+00
 -1      3287 1.16910E+01 2.42375E+01 0.00000E+00
 -1      3288 1.16910E+01 2.57125E+01 0.00000E+00
 -1      3289 1.29900E+01 2.35000E+01 0.00000E+00
 -1      3290 3.36240E+01 1.12805E+01 0.00000E+00
 -1      3291 3.21240E+01 1.12805E+01 0.00000E+00
 -1      3292 3.43740E+01 1.25795E+01 0.00000E+00
 -1      3293 6.57352E+01 3.88316E+01 0.00000E+00
 -1      3294 6.45961E+01 3.95168E+01 0.00000E+00
 -1      3295 3.67603E+01 3.11667E+01 0.00000E+00
 -1      3296 3.66836E+01 2.99678E+01 0.00000E+00
 -1      3297 3.54870E+01 3.15437E+01 0.00000E+00
 -1      3298 4.54743E+01 2.28717E+01 0.00000E+00
 -1      3299 1.39320E+01 1.28898E+01 0.00000E+00
 -1      3300 1.31820E+01 1.15908E+01 0.00000E+00
 -1      3301 6.27013E+01 2.86126E+01 0.00000E+00
 -1      3302 6.44241E+01 4.05075E+01 0.00000E+00
 -1      3303 1.16910E+01 1.54063E+01 0.00000E+00
 -1      3304 1.16910E+01 1.68750E+01 0.00000E+00
 -1      3305 1.29900E+01 1.46687E+01 0.00000E+00
 -1      3306 5.75237E+01 2.25772E+01 0.00000E+00
 -1      3307 5.78552E+01 2.38219E+01 0.00000E+00
 -1      3308 5.91922E+01 2.35307E+01 0.00000E+00
 -1      3309 1.16910E+01 1.83469E+01 0.00000E+00
 -1      3310 1.16910E+01 1.98156E+01 0.00000E+00
 -1      3311 1.29900E+01 2.05531E+01 0.00000E+00
 -1      3312 1.29900E+01 1.76094E+01 0.00000E+00
 -1      3313 2.46240E+01 1.12805E+01 0.00000E+00
 -1      3314 2.31240E+01 1.12805E+01 0.00000E+00
 -1      3315 2.23741E+01 1.25795E+01 0.00000E+00
 -1      3316 1.37010E+02 2.06063E+01 0.00000E+00
 -1      3317 1.38309E+02 1.98687E+01 0.00000E+00
 -1      3318 1.38309E+02 1.84000E+01 0.00000E+00
 -1      3319 6.06646E+01 2.59349E+01 0.00000E+00
 -1      3320 1.35286E+02 1.18598E+01 0.00000E+00
 -1      3321 1.33829E+02 1.17739E+01 0.00000E+00
 -1      3322 1.33079E+02 1.30729E+01 0.00000E+00
 -1      3323 1.35488E+02 1.40598E+01 0.00000E+00
 -1      3324 1.38230E+02 1.72539E+01 0.00000E+00
 -1      3325 1.38230E+02 1.57852E+01 0.00000E+00
 -1      3326 1.36771E+02 1.56993E+01 0.00000E+00
 -1      3327 1.36930E+02 1.79914E+01 0.00000E+00
 -1      3328 1.10288E+01 3.84716E+01 0.00000E+00
 -1      3329 3.77141E+01 2.84065E+01 0.00000E+00
 -1      3330 3.93405E+01 2.76599E+01 0.00000E+00
 -1      3331 3.90975E+01 2.64756E+01 0.00000E+00
 -1      3332 3.66233E+01 3.97792E+01 0.00000E+00
 -1      3333 4.11422E+01 2.43712E+01 0.00000E+00
 -1      3334 4.23511E+01 2.43856E+01 0.00000E+00
 -1      3335 4.27694E+01 2.30277E+01 0.00000E+00
 -1      3336 6.46946E+01 3.40655E+01 0.00000E+00
 -1      3337 4.79009E+01 2.18109E+01 0.00000E+00
 -1      3338 4.88617E+01 2.25090E+01 0.00000E+00
 -1      3339 4.97923E+01 2.16183E+01 0.00000E+00
 -1      3340 1.16910E+01 3.01219E+01 0.00000E+00
 -1      3341 1.16910E+01 3.15906E+01 0.00000E+00
 -1      3342 1.17788E+01 3.71726E+01 0.00000E+00
 -1      3343 2.76240E+01 1.12805E+01 0.00000E+00
 -1      3344 2.61240E+01 1.12805E+01 0.00000E+00
 -1      3345 2.53741E+01 1.25795E+01 0.00000E+00
 -1      3346 1.29900E+01 3.23250E+01 0.00000E+00
 -1      3347 1.16910E+01 3.30594E+01 0.00000E+00
 -1      3348 1.16910E+01 3.45281E+01 0.00000E+00
 -1      3349 3.06240E+01 1.12805E+01 0.00000E+00
 -1      3350 2.91240E+01 1.12805E+01 0.00000E+00
 -1      3351 2.83741E+01 1.25795E+01 0.00000E+00
 -1      3352 3.13740E+01 1.25795E+01 0.00000E+00
 -1      3353 6.69704E+01 3.79145E+01 0.00000E+00
 -1      3354 6.72352E+01 3.88316E+01 0.00000E+00
 -1      3355 6.87352E+01 3.88316E+01 0.00000E+00
 -1      3356 1.48741E+01 1.40483E+01 0.00000E+00
 -1      3357 1.39320E+01 1.43585E+01 0.00000E+00
 -1      3358 1.39320E+01 1.58273E+01 0.00000E+00
 -1      3359 6.32806E+01 2.72474E+01 0.00000E+00
 -1      3360 6.41764E+01 2.87656E+01 0.00000E+00
 -1      3361 2.01750E+01 3.57110E+01 0.00000E+00
 -1      3362 2.16750E+01 3.57110E+01 0.00000E+00
 -1      3363 2.31750E+01 3.57110E+01 0.00000E+00
 -1      3364 2.46750E+01 3.57110E+01 0.00000E+00
 -1      3365 2.24250E+01 3.44120E+01 0.00000E+00
 -1      3366 2.61000E+01 3.57110E+01 0.00000E+00
 -1      3367 2.75250E+01 3.57110E+01 0.00000E+00
 -1      3368 2.53500E+01 3.44120E+01 0.00000E+00
 -1      3369 2.90250E+01 3.57110E+01 0.00000E+00
 -1      3370 3.05250E+01 3.57110E+01 0.00000E+00
 -1      3371 2.82750E+01 3.44120E+01 0.00000E+00
 -1      3372 3.17616E+01 3.58633E+01 0.00000E+00
 -1      3373 3.30636E+01 3.60081E+01 0.00000E+00
 -1      3374 3.34848E+01 3.48688E+01 0.00000E+00
 -1      3375 3.10116E+01 3.45643E+01 0.00000E+00
 -1      3376 4.41240E+01 1.38785E+01 0.00000E+00
 -1      3377 4.26240E+01 1.38785E+01 0.00000E+00
 -1      3378 1.63741E+01 1.40483E+01 0.00000E+00
 -1      3379 4.11240E+01 1.38785E+01 0.00000E+00
 -1      3380 3.96240E+01 1.38785E+01 0.00000E+00
 -1      3381 4.18740E+01 1.51775E+01 0.00000E+00
 -1      3382 7.02352E+01 3.88316E+01 0.00000E+00
 -1      3383 7.17352E+01 3.88316E+01 0.00000E+00
 -1      3384 6.99704E+01 3.79145E+01 0.00000E+00
 -1      3385 7.31602E+01 3.88316E+01 0.00000E+00
 -1      3386 7.45852E+01 3.88316E+01 0.00000E+00
 -1      3387 7.28954E+01 3.79145E+01 0.00000E+00
 -1      3388 7.60852E+01 3.88316E+01 0.00000E+00
 -1      3389 7.75852E+01 3.88316E+01 0.00000E+00
 -1      3390 7.58204E+01 3.79145E+01 0.00000E+00
 -1      3391 7.90852E+01 3.88316E+01 0.00000E+00
 -1      3392 8.05852E+01 3.88316E+01 0.00000E+00
 -1      3393 7.88204E+01 3.79145E+01 0.00000E+00
 -1      3394 8.20852E+01 3.88316E+01 0.00000E+00
 -1      3395 8.35852E+01 3.88316E+01 0.00000E+00
 -1      3396 8.18204E+01 3.79145E+01 0.00000E+00
 -1      3397 8.50852E+01 3.88316E+01 0.00000E+00
 -1      3398 8.65852E+01 3.88316E+01 0.00000E+00
 -1      3399 8.48204E+01 3.79145E+01 0.00000E+00
 -1      3400 8.80852E+01 3.88316E+01 0.00000E+00
 -1      3401 8.95852E+01 3.88316E+01 0.00000E+00
 -1      3402 8.78204E+01 3.79145E+01 0.00000E+00
 -1      3403 9.10102E+01 3.88316E+01 0.00000E+00
 -1      3404 9.24352E+01 3.88316E+01 0.00000E+00
 -1      3405 9.07454E+01 3.79145E+01 0.00000E+00
 -1      3406 9.39352E+01 3.88316E+01 0.00000E+00
 -1      3407 9.54352E+01 3.88316E+01 0.00000E+00
 -1      3408 9.36704E+01 3.79145E+01 0.00000E+00
 -1      3409 9.69352E+01 3.88316E+01 0.00000E+00
 -1      3410 9.84352E+01 3.88316E+01 0.00000E+00
 -1      3411 9.66704E+01 3.79145E+01 0.00000E+00
 -1      3412 9.99352E+01 3.88316E+01 0.00000E+00
 -1      3413 1.01435E+02 3.88316E+01 0.00000E+00
 -1      3414 9.96704E+01 3.79145E+01 0.00000E+00
 -1      3415 1.02935E+02 3.88316E+01 0.00000E+00
 -1      3416 1.04435E+02 3.88316E+01 0.00000E+00
 -1      3417 1.02670E+02 3.79145E+01 0.00000E+00
 -1      3418 1.05935E+02 3.88316E+01 0.00000E+00
 -1      3419 1.07435E+02 3.88316E+01 0.00000E+00
 -1      3420 1.05670E+02 3.79145E+01 0.00000E+00
 -1      3421 1.08860E+02 3.88316E+01 0.00000E+00
 -1      3422 1.10285E+02 3.88316E+01 0.00000E+00
 -1      3423 1.08595E+02 3.79145E+01 0.00000E+00
 -1      3424 1.11785E+02 3.88316E+01 0.00000E+00
 -1      3425 1.13285E+02 3.88316E+01 0.00000E+00
 -1      3426 1.11520E+02 3.79145E+01 0.00000E+00
 -1      3427 1.14785E+02 3.88316E+01 0.00000E+00
 -1      3428 1.16285E+02 3.88316E+01 0.00000E+00
 -1      3429 1.14520E+02 3.79145E+01 0.00000E+00
 -1      3430 1.17785E+02 3.88316E+01 0.00000E+00
 -1      3431 1.19285E+02 3.88316E+01 0.00000E+00
 -1      3432 1.17520E+02 3.79145E+01 0.00000E+00
 -1      3433 1.20785E+02 3.88316E+01 0.00000E+00
 -1      3434 1.22285E+02 3.88316E+01 0.00000E+00
 -1      3435 1.20520E+02 3.79145E+01 0.00000E+00
 -1      3436 1.23785E+02 3.88316E+01 0.00000E+00
 -1      3437 1.25285E+02 3.88316E+01 0.00000E+00
 -1      3438 1.23520E+02 3.79145E+01 0.00000E+00
 -1      3439 1.26710E+02 3.88316E+01 0.00000E+00
 -1      3440 1.28135E+02 3.88316E+01 0.00000E+00
 -1      3441 1.26445E+02 3.79145E+01 0.00000E+00
 -1      3442 1.29635E+02 3.88316E+01 0.00000E+00
 -1      3443 1.31135E+02 3.88316E+01 0.00000E+00
 -1      3444 1.29370E+02 3.79145E+01 0.00000E+00
 -1      3445 1.32635E+02 3.88316E+01 0.00000E+00
 -1      3446 1.34135E+02 3.88316E+01 0.00000E+00
 -1      3447 1.32370E+02 3.79145E+01 0.00000E+00
 -1      3448 1.35437E+02 3.84570E+01 0.00000E+00
 -1      3449 3.81240E+01 1.38785E+01 0.00000E+00
 -1      3450 3.66240E+01 1.38785E+01 0.00000E+00
 -1      3451 3.88740E+01 1.51775E+01 0.00000E+00
 -1      3452 5.01240E+01 1.38785E+01 0.00000E+00
 -1      3453 4.86240E+01 1.38785E+01 0.00000E+00
 -1      3454 5.31240E+01 1.38785E+01 0.00000E+00
 -1      3455 5.16240E+01 1.38785E+01 0.00000E+00
 -1      3456 5.08740E+01 1.51775E+01 0.00000E+00
 -1      3457 5.61240E+01 1.38785E+01 0.00000E+00
 -1      3458 5.46240E+01 1.38785E+01 0.00000E+00
 -1      3459 5.38740E+01 1.51775E+01 0.00000E+00
 -1      3460 5.91240E+01 1.38785E+01 0.00000E+00
 -1      3461 5.76240E+01 1.38785E+01 0.00000E+00
 -1      3462 5.68740E+01 1.51775E+01 0.00000E+00
 -1      3463 6.21240E+01 1.38785E+01 0.00000E+00
 -1      3464 6.06240E+01 1.38785E+01 0.00000E+00
 -1      3465 5.98740E+01 1.51775E+01 0.00000E+00
 -1      3466 6.51240E+01 1.38785E+01 0.00000E+00
 -1      3467 6.36240E+01 1.38785E+01 0.00000E+00
 -1      3468 6.28740E+01 1.51775E+01 0.00000E+00
 -1      3469 6.81240E+01 1.38785E+01 0.00000E+00
 -1      3470 6.66240E+01 1.38785E+01 0.00000E+00
 -1      3471 6.58740E+01 1.51775E+01 0.00000E+00
 -1      3472 7.11240E+01 1.38785E+01 0.00000E+00
 -1      3473 6.96240E+01 1.38785E+01 0.00000E+00
 -1      3474 6.88740E+01 1.51775E+01 0.00000E+00
 -1      3475 7.41240E+01 1.38785E+01 0.00000E+00
 -1      3476 7.26240E+01 1.38785E+01 0.00000E+00
 -1      3477 7.18740E+01 1.51775E+01 0.00000E+00
 -1      3478 7.71240E+01 1.38785E+01 0.00000E+00
 -1      3479 7.56240E+01 1.38785E+01 0.00000E+00
 -1      3480 7.48740E+01 1.51775E+01 0.00000E+00
 -1      3481 8.01240E+01 1.38785E+01 0.00000E+00
 -1      3482 7.86240E+01 1.38785E+01 0.00000E+00
 -1      3483 7.78740E+01 1.51775E+01 0.00000E+00
 -1      3484 8.31240E+01 1.38785E+01 0.00000E+00
 -1      3485 8.16240E+01 1.38785E+01 0.00000E+00
 -1      3486 8.08740E+01 1.51775E+01 0.00000E+00
 -1      3487 8.61240E+01 1.38785E+01 0.00000E+00
 -1      3488 8.46240E+01 1.38785E+01 0.00000E+00
 -1      3489 8.38740E+01 1.51775E+01 0.00000E+00
 -1      3490 8.91240E+01 1.38785E+01 0.00000E+00
 -1      3491 8.76240E+01 1.38785E+01 0.00000E+00
 -1      3492 8.68740E+01 1.51775E+01 0.00000E+00
 -1      3493 9.21240E+01 1.38785E+01 0.00000E+00
 -1      3494 9.06240E+01 1.38785E+01 0.00000E+00
 -1      3495 8.98740E+01 1.51775E+01 0.00000E+00
 -1      3496 9.51240E+01 1.38785E+01 0.00000E+00
 -1      3497 9.36240E+01 1.38785E+01 0.00000E+00
 -1      3498 9.28740E+01 1.51775E+01 0.00000E+00
 -1      3499 9.81240E+01 1.38785E+01 0.00000E+00
 -1      3500 9.66240E+01 1.38785E+01 0.00000E+00
 -1      3501 9.58740E+01 1.51775E+01 0.00000E+00
 -1      3502 1.01124E+02 1.38785E+01 0.00000E+00
 -1      3503 9.96240E+01 1.38785E+01 0.00000E+00
 -1      3504 9.88740E+01 1.51775E+01 0.00000E+00
 -1      3505 1.04124E+02 1.38785E+01 0.00000E+00
 -1      3506 1.02624E+02 1.38785E+01 0.00000E+00
 -1      3507 1.01874E+02 1.51775E+01 0.00000E+00
 -1      3508 1.07124E+02 1.38785E+01 0.00000E+00
 -1      3509 1.05624E+02 1.38785E+01 0.00000E+00
 -1      3510 1.04874E+02 1.51775E+01 0.00000E+00
 -1      3511 1.10124E+02 1.38785E+01 0.00000E+00
 -1      3512 1.08624E+02 1.38785E+01 0.00000E+00
 -1      3513 1.07874E+02 1.51775E+01 0.00000E+00
 -1      3514 1.13124E+02 1.38785E+01 0.00000E+00
 -1      3515 1.11624E+02 1.38785E+01 0.00000E+00
 -1      3516 1.10874E+02 1.51775E+01 0.00000E+00
 -1      3517 1.16124E+02 1.38785E+01 0.00000E+00
 -1      3518 1.14624E+02 1.38785E+01 0.00000E+00
 -1      3519 1.13874E+02 1.51775E+01 0.00000E+00
 -1      3520 1.19124E+02 1.38785E+01 0.00000E+00
 -1      3521 1.17624E+02 1.38785E+01 0.00000E+00
 -1      3522 1.16874E+02 1.51775E+01 0.00000E+00
 -1      3523 1.22124E+02 1.38785E+01 0.00000E+00
 -1      3524 1.20624E+02 1.38785E+01 0.00000E+00
 -1      3525 1.19874E+02 1.51775E+01 0.00000E+00
 -1      3526 1.25124E+02 1.38785E+01 0.00000E+00
 -1      3527 1.23624E+02 1.38785E+01 0.00000E+00
 -1      3528 1.22874E+02 1.51775E+01 0.00000E+00
 -1      3529 1.28124E+02 1.38785E+01 0.00000E+00
 -1      3530 1.26624E+02 1.38785E+01 0.00000E+00
 -1      3531 1.25874E+02 1.51775E+01 0.00000E+00
 -1      3532 1.31124E+02 1.38785E+01 0.00000E+00
 -1      3533 1.29624E+02 1.38785E+01 0.00000E+00
 -1      3534 1.28874E+02 1.51775E+01 0.00000E+00
 -1      3535 5.41322E+01 2.16552E+01 0.00000E+00
 -1      3536 5.55388E+01 2.17257E+01 0.00000E+00
 -1      3537 2.01241E+01 1.38785E+01 0.00000E+00
 -1      3538 1.86241E+01 1.38785E+01 0.00000E+00
 -1      3539 1.19085E+01 3.61362E+01 0.00000E+00
 -1      3540 1.16910E+01 2.71844E+01 0.00000E+00
 -1      3541 1.16910E+01 2.86531E+01 0.00000E+00
 -1      3542 1.29900E+01 2.93875E+01 0.00000E+00
 -1      3543 1.71750E+01 3.57110E+01 0.00000E+00
 -1      3544 1.86750E+01 3.57110E+01 0.00000E+00
 -1      3545 1.94250E+01 3.44120E+01 0.00000E+00
 -1      3546 4.71240E+01 1.38785E+01 0.00000E+00
 -1      3547 4.56240E+01 1.38785E+01 0.00000E+00
 -1      3548 4.78740E+01 1.51775E+01 0.00000E+00
 -1      3549 6.10201E+01 2.44441E+01 0.00000E+00
 -1      3550 6.21610E+01 2.56036E+01 0.00000E+00
 -1      3551 5.15119E+01 2.12442E+01 0.00000E+00
 -1      3552 5.28220E+01 2.14497E+01 0.00000E+00
 -1      3553 5.35808E+01 2.03774E+01 0.00000E+00
 -1      3554 6.49444E+01 3.03942E+01 0.00000E+00
 -1      3555 6.53786E+01 3.16829E+01 0.00000E+00
 -1      3556 4.46009E+01 2.18551E+01 0.00000E+00
 -1      3557 4.60969E+01 2.16848E+01 0.00000E+00
 -1      3558 6.64238E+01 3.54229E+01 0.00000E+00
 -1      3559 6.66971E+01 3.66687E+01 0.00000E+00
 -1      3560 6.81971E+01 3.66687E+01 0.00000E+00
 -1      3561 6.57866E+01 3.28742E+01 0.00000E+00
 -1      3562 6.60158E+01 3.42316E+01 0.00000E+00
 -1      3563 6.75158E+01 3.42316E+01 0.00000E+00
 -1      3564 6.66998E+01 3.18490E+01 0.00000E+00
 -1      3565 1.32075E+01 3.54019E+01 0.00000E+00
 -1      3566 3.51240E+01 1.38785E+01 0.00000E+00
 -1      3567 3.36240E+01 1.38785E+01 0.00000E+00
 -1      3568 3.58740E+01 1.51775E+01 0.00000E+00
 -1      3569 6.36361E+01 2.57566E+01 0.00000E+00
 -1      3570 3.51673E+01 2.91606E+01 0.00000E+00
 -1      3571 3.64407E+01 2.87835E+01 0.00000E+00
 -1      3572 3.61978E+01 2.75992E+01 0.00000E+00
 -1      3573 1.42890E+01 3.15906E+01 0.00000E+00
 -1      3574 1.42890E+01 3.30594E+01 0.00000E+00
 -1      3575 1.35439E+02 3.71634E+01 0.00000E+00
 -1      3576 2.16241E+01 1.38785E+01 0.00000E+00
 -1      3577 2.08741E+01 1.51775E+01 0.00000E+00
 -1      3578 2.31241E+01 1.38785E+01 0.00000E+00
 -1      3579 6.55237E+01 2.90291E+01 0.00000E+00
 -1      3580 1.71241E+01 1.53473E+01 0.00000E+00
 -1      3581 5.68758E+01 2.14344E+01 0.00000E+00
 -1      3582 5.82128E+01 2.11432E+01 0.00000E+00
 -1      3583 5.62279E+01 2.02917E+01 0.00000E+00
 -1      3584 1.35711E+02 2.72156E+01 0.00000E+00
 -1      3585 1.35711E+02 2.57469E+01 0.00000E+00
 -1      3586 2.61241E+01 1.38785E+01 0.00000E+00
 -1      3587 2.46241E+01 1.38785E+01 0.00000E+00
 -1      3588 2.38741E+01 1.51775E+01 0.00000E+00
 -1      3589 1.35711E+02 2.13406E+01 0.00000E+00
 -1      3590 1.35711E+02 1.98719E+01 0.00000E+00
 -1      3591 1.32329E+02 1.43719E+01 0.00000E+00
 -1      3592 1.31579E+02 1.56709E+01 0.00000E+00
 -1      3593 1.33533E+02 1.48654E+01 0.00000E+00
 -1      3594 1.47075E+01 3.54019E+01 0.00000E+00
 -1      3595 1.35755E+02 1.55291E+01 0.00000E+00
 -1      3596 1.34550E+02 1.50356E+01 0.00000E+00
 -1      3597 1.33800E+02 1.63346E+01 0.00000E+00
 -1      3598 1.35834E+02 1.66751E+01 0.00000E+00
 -1      3599 1.35711E+02 2.42781E+01 0.00000E+00
 -1      3600 1.35711E+02 2.28094E+01 0.00000E+00
 -1      3601 1.34412E+02 2.20750E+01 0.00000E+00
 -1      3602 1.34412E+02 2.50125E+01 0.00000E+00
 -1      3603 1.29900E+01 2.64469E+01 0.00000E+00
 -1      3604 4.48740E+01 1.51775E+01 0.00000E+00
 -1      3605 5.05511E+01 2.05461E+01 0.00000E+00
 -1      3606 1.35440E+02 3.58698E+01 0.00000E+00
 -1      3607 1.35442E+02 3.45762E+01 0.00000E+00
 -1      3608 1.33872E+02 3.66209E+01 0.00000E+00
 -1      3609 3.98733E+01 2.47237E+01 0.00000E+00
 -1      3610 4.02916E+01 2.33659E+01 0.00000E+00
 -1      3611 4.21831E+01 2.18265E+01 0.00000E+00
 -1      3612 4.33920E+01 2.18408E+01 0.00000E+00
 -1      3613 4.40146E+01 2.06538E+01 0.00000E+00
 -1      3614 4.70275E+01 2.07942E+01 0.00000E+00
 -1      3615 3.39059E+01 3.37295E+01 0.00000E+00
 -1      3616 3.43271E+01 3.25903E+01 0.00000E+00
 -1      3617 3.26693E+01 3.35773E+01 0.00000E+00
 -1      3618 6.06885E+01 2.31993E+01 0.00000E+00
 -1      3619 6.21849E+01 2.28680E+01 0.00000E+00
 -1      3620 6.03570E+01 2.19546E+01 0.00000E+00
 -1      3621 3.82469E+01 2.54702E+01 0.00000E+00
 -1      3622 1.42890E+01 2.86531E+01 0.00000E+00
 -1      3623 1.42890E+01 3.01219E+01 0.00000E+00
 -1      3624 1.55880E+01 3.08563E+01 0.00000E+00
 -1      3625 1.35711E+02 3.01531E+01 0.00000E+00
 -1      3626 1.35711E+02 2.86844E+01 0.00000E+00
 -1      3627 1.34412E+02 2.79500E+01 0.00000E+00
 -1      3628 1.60065E+01 3.46675E+01 0.00000E+00
 -1      3629 1.42890E+01 1.98172E+01 0.00000E+00
 -1      3630 1.42890E+01 2.12891E+01 0.00000E+00
 -1      3631 1.35576E+02 3.30990E+01 0.00000E+00
 -1      3632 1.35576E+02 3.16303E+01 0.00000E+00
 -1      3633 1.34277E+02 3.08959E+01 0.00000E+00
 -1      3634 1.34008E+02 3.38502E+01 0.00000E+00
 -1      3635 3.42504E+01 3.13914E+01 0.00000E+00
 -1      3636 2.91240E+01 1.38785E+01 0.00000E+00
 -1      3637 2.76241E+01 1.38785E+01 0.00000E+00
 -1      3638 2.68741E+01 1.51775E+01 0.00000E+00
 -1      3639 1.42890E+01 2.27641E+01 0.00000E+00
 -1      3640 1.42890E+01 2.42391E+01 0.00000E+00
 -1      3641 1.55880E+01 2.20281E+01 0.00000E+00
 -1      3642 3.93095E+01 2.22905E+01 0.00000E+00
 -1      3643 4.05784E+01 2.19380E+01 0.00000E+00
 -1      3644 6.41499E+01 2.42034E+01 0.00000E+00
 -1      3645 6.52695E+01 2.58472E+01 0.00000E+00
 -1      3646 2.46375E+01 3.31130E+01 0.00000E+00
 -1      3647 2.60625E+01 3.31130E+01 0.00000E+00
 -1      3648 2.75625E+01 3.31130E+01 0.00000E+00
 -1      3649 2.90625E+01 3.31130E+01 0.00000E+00
 -1      3650 2.68500E+01 3.18140E+01 0.00000E+00
 -1      3651 4.26240E+01 1.64765E+01 0.00000E+00
 -1      3652 4.11240E+01 1.64765E+01 0.00000E+00
 -1      3653 1.67565E+01 3.33685E+01 0.00000E+00
 -1      3654 6.96971E+01 3.66687E+01 0.00000E+00
 -1      3655 7.11971E+01 3.66687E+01 0.00000E+00
 -1      3656 6.94238E+01 3.54229E+01 0.00000E+00
 -1      3657 1.41105E+01 1.70863E+01 0.00000E+00
 -1      3658 1.41105E+01 1.85582E+01 0.00000E+00
 -1      3659 1.54095E+01 1.92941E+01 0.00000E+00
 -1      3660 1.50525E+01 1.67760E+01 0.00000E+00
 -1      3661 7.26221E+01 3.66687E+01 0.00000E+00
 -1      3662 7.40471E+01 3.66687E+01 0.00000E+00
 -1      3663 7.23488E+01 3.54229E+01 0.00000E+00
 -1      3664 7.55471E+01 3.66687E+01 0.00000E+00
 -1      3665 7.70471E+01 3.66687E+01 0.00000E+00
 -1      3666 7.52738E+01 3.54229E+01 0.00000E+00
 -1      3667 7.85471E+01 3.66687E+01 0.00000E+00
 -1      3668 8.00471E+01 3.66687E+01 0.00000E+00
 -1      3669 7.82738E+01 3.54229E+01 0.00000E+00
 -1      3670 8.15471E+01 3.66687E+01 0.00000E+00
 -1      3671 8.30471E+01 3.66687E+01 0.00000E+00
 -1      3672 8.12738E+01 3.54229E+01 0.00000E+00
 -1      3673 8.45471E+01 3.66687E+01 0.00000E+00
 -1      3674 8.60471E+01 3.66687E+01 0.00000E+00
 -1      3675 8.42738E+01 3.54229E+01 0.00000E+00
 -1      3676 8.75471E+01 3.66687E+01 0.00000E+00
 -1      3677 8.90471E+01 3.66687E+01 0.00000E+00
 -1      3678 8.72738E+01 3.54229E+01 0.00000E+00
 -1      3679 9.04721E+01 3.66687E+01 0.00000E+00
 -1      3680 9.18971E+01 3.66687E+01 0.00000E+00
 -1      3681 9.01988E+01 3.54229E+01 0.00000E+00
 -1      3682 9.33971E+01 3.66687E+01 0.00000E+00
 -1      3683 9.48971E+01 3.66687E+01 0.00000E+00
 -1      3684 9.31238E+01 3.54229E+01 0.00000E+00
 -1      3685 9.63971E+01 3.66687E+01 0.00000E+00
 -1      3686 9.78971E+01 3.66687E+01 0.00000E+00
 -1      3687 9.61238E+01 3.54229E+01 0.00000E+00
 -1      3688 9.93971E+01 3.66687E+01 0.00000E+00
 -1      3689 1.00897E+02 3.66687E+01 0.00000E+00
 -1      3690 9.91238E+01 3.54229E+01 0.00000E+00
 -1      3691 1.02397E+02 3.66687E+01 0.00000E+00
 -1      3692 1.03897E+02 3.66687E+01 0.00000E+00
 -1      3693 1.02124E+02 3.54229E+01 0.00000E+00
 -1      3694 1.05397E+02 3.66687E+01 0.00000E+00
 -1      3695 1.06897E+02 3.66687E+01 0.00000E+00
 -1      3696 1.05124E+02 3.54229E+01 0.00000E+00
 -1      3697 1.08322E+02 3.66687E+01 0.00000E+00
 -1      3698 1.09747E+02 3.66687E+01 0.00000E+00
 -1      3699 1.08049E+02 3.54229E+01 0.00000E+00
 -1      3700 1.11247E+02 3.66687E+01 0.00000E+00
 -1      3701 1.12747E+02 3.66687E+01 0.00000E+00
 -1      3702 1.10974E+02 3.54229E+01 0.00000E+00
 -1      3703 1.14247E+02 3.66687E+01 0.00000E+00
 -1      3704 1.15747E+02 3.66687E+01 0.00000E+00
 -1      3705 1.13974E+02 3.54229E+01 0.00000E+00
 -1      3706 1.17247E+02 3.66687E+01 0.00000E+00
 -1      3707 1.18747E+02 3.66687E+01 0.00000E+00
 -1      3708 1.16974E+02 3.54229E+01 0.00000E+00
 -1      3709 1.20247E+02 3.66687E+01 0.00000E+00
 -1      3710 1.21747E+02 3.66687E+01 0.00000E+00
 -1      3711 1.19974E+02 3.54229E+01 0.00000E+00
 -1      3712 1.23247E+02 3.66687E+01 0.00000E+00
 -1      3713 1.24747E+02 3.66687E+01 0.00000E+00
 -1      3714 1.22974E+02 3.54229E+01 0.00000E+00
 -1      3715 1.26172E+02 3.66687E+01 0.00000E+00
 -1      3716 1.27597E+02 3.66687E+01 0.00000E+00
 -1      3717 1.25899E+02 3.54229E+01 0.00000E+00
 -1      3718 1.29097E+02 3.66687E+01 0.00000E+00
 -1      3719 1.30597E+02 3.66687E+01 0.00000E+00
 -1      3720 1.28824E+02 3.54229E+01 0.00000E+00
 -1      3721 1.32372E+02 3.66209E+01 0.00000E+00
 -1      3722 5.76240E+01 1.64765E+01 0.00000E+00
 -1      3723 5.61240E+01 1.64765E+01 0.00000E+00
 -1      3724 3.96240E+01 1.64765E+01 0.00000E+00
 -1      3725 3.81240E+01 1.64765E+01 0.00000E+00
 -1      3726 4.03740E+01 1.77755E+01 0.00000E+00
 -1      3727 5.16240E+01 1.64765E+01 0.00000E+00
 -1      3728 5.01240E+01 1.64765E+01 0.00000E+00
 -1      3729 6.06240E+01 1.64765E+01 0.00000E+00
 -1      3730 5.91240E+01 1.64765E+01 0.00000E+00
 -1      3731 5.83740E+01 1.77755E+01 0.00000E+00
 -1      3732 6.36240E+01 1.64765E+01 0.00000E+00
 -1      3733 6.21240E+01 1.64765E+01 0.00000E+00
 -1      3734 6.13740E+01 1.77755E+01 0.00000E+00
 -1      3735 6.66240E+01 1.64765E+01 0.00000E+00
 -1      3736 6.51240E+01 1.64765E+01 0.00000E+00
 -1      3737 6.43740E+01 1.77755E+01 0.00000E+00
 -1      3738 6.96240E+01 1.64765E+01 0.00000E+00
 -1      3739 6.81240E+01 1.64765E+01 0.00000E+00
 -1      3740 6.73740E+01 1.77755E+01 0.00000E+00
 -1      3741 7.26240E+01 1.64765E+01 0.00000E+00
 -1      3742 7.11240E+01 1.64765E+01 0.00000E+00
 -1      3743 7.03740E+01 1.77755E+01 0.00000E+00
 -1      3744 7.56240E+01 1.64765E+01 0.00000E+00
 -1      3745 7.41240E+01 1.64765E+01 0.00000E+00
 -1      3746 7.33740E+01 1.77755E+01 0.00000E+00
 -1      3747 7.86240E+01 1.64765E+01 0.00000E+00
 -1      3748 7.71240E+01 1.64765E+01 0.00000E+00
 -1      3749 7.63740E+01 1.77755E+01 0.00000E+00
 -1      3750 8.16240E+01 1.64765E+01 0.00000E+00
 -1      3751 8.01240E+01 1.64765E+01 0.00000E+00
 -1      3752 7.93740E+01 1.77755E+01 0.00000E+00
 -1      3753 8.46240E+01 1.64765E+01 0.00000E+00
 -1      3754 8.31240E+01 1.64765E+01 0.00000E+00
 -1      3755 8.23740E+01 1.77755E+01 0.00000E+00
 -1      3756 8.76240E+01 1.64765E+01 0.00000E+00
 -1      3757 8.61240E+01 1.64765E+01 0.00000E+00
 -1      3758 8.53740E+01 1.77755E+01 0.00000E+00
 -1      3759 9.06240E+01 1.64765E+01 0.00000E+00
 -1      3760 8.91240E+01 1.64765E+01 0.00000E+00
 -1      3761 8.83740E+01 1.77755E+01 0.00000E+00
 -1      3762 9.36240E+01 1.64765E+01 0.00000E+00
 -1      3763 9.21240E+01 1.64765E+01 0.00000E+00
 -1      3764 9.13740E+01 1.77755E+01 0.00000E+00
 -1      3765 9.66240E+01 1.64765E+01 0.00000E+00
 -1      3766 9.51240E+01 1.64765E+01 0.00000E+00
 -1      3767 9.43740E+01 1.77755E+01 0.00000E+00
 -1      3768 9.96240E+01 1.64765E+01 0.00000E+00
 -1      3769 9.81240E+01 1.64765E+01 0.00000E+00
 -1      3770 9.73740E+01 1.77755E+01 0.00000E+00
 -1      3771 1.02624E+02 1.64765E+01 0.00000E+00
 -1      3772 1.01124E+02 1.64765E+01 0.00000E+00
 -1      3773 1.00374E+02 1.77755E+01 0.00000E+00
 -1      3774 1.05624E+02 1.64765E+01 0.00000E+00
 -1      3775 1.04124E+02 1.64765E+01 0.00000E+00
 -1      3776 1.03374E+02 1.77755E+01 0.00000E+00
 -1      3777 1.08624E+02 1.64765E+01 0.00000E+00
 -1      3778 1.07124E+02 1.64765E+01 0.00000E+00
 -1      3779 1.06374E+02 1.77755E+01 0.00000E+00
 -1      3780 1.11624E+02 1.64765E+01 0.00000E+00
 -1      3781 1.10124E+02 1.64765E+01 0.00000E+00
 -1      3782 1.09374E+02 1.77755E+01 0.00000E+00
 -1      3783 1.14624E+02 1.64765E+01 0.00000E+00
 -1      3784 1.13124E+02 1.64765E+01 0.00000E+00
 -1      3785 1.12374E+02 1.77755E+01 0.00000E+00
 -1      3786 1.17624E+02 1.64765E+01 0.00000E+00
 -1      3787 1.16124E+02 1.64765E+01 0.00000E+00
 -1      3788 1.15374E+02 1.77755E+01 0.00000E+00
 -1      3789 1.20624E+02 1.64765E+01 0.00000E+00
 -1      3790 1.19124E+02 1.64765E+01 0.00000E+00
 -1      3791 1.18374E+02 1.77755E+01 0.00000E+00
 -1      3792 1.23624E+02 1.64765E+01 0.00000E+00
 -1      3793 1.22124E+02 1.64765E+01 0.00000E+00
 -1      3794 1.21374E+02 1.77755E+01 0.00000E+00
 -1      3795 1.26624E+02 1.64765E+01 0.00000E+00
 -1      3796 1.25124E+02 1.64765E+01 0.00000E+00
 -1      3797 1.24374E+02 1.77755E+01 0.00000E+00
 -1      3798 1.29624E+02 1.64765E+01 0.00000E+00
 -1      3799 1.28124E+02 1.64765E+01 0.00000E+00
 -1      3800 1.27374E+02 1.77755E+01 0.00000E+00
 -1      3801 1.42890E+01 2.57102E+01 0.00000E+00
 -1      3802 1.42890E+01 2.71820E+01 0.00000E+00
 -1      3803 1.55880E+01 2.79164E+01 0.00000E+00
 -1      3804 1.55880E+01 2.49742E+01 0.00000E+00
 -1      3805 1.35812E+02 1.88465E+01 0.00000E+00
 -1      3806 1.35733E+02 1.77005E+01 0.00000E+00
 -1      3807 1.34716E+02 1.75302E+01 0.00000E+00
 -1      3808 1.34513E+02 1.95809E+01 0.00000E+00
 -1      3809 4.86240E+01 1.64765E+01 0.00000E+00
 -1      3810 4.71240E+01 1.64765E+01 0.00000E+00
 -1      3811 4.93740E+01 1.77755E+01 0.00000E+00
 -1      3812 3.66713E+01 2.58202E+01 0.00000E+00
 -1      3813 3.74470E+01 2.40683E+01 0.00000E+00
 -1      3814 4.65487E+01 1.92218E+01 0.00000E+00
 -1      3815 4.83528E+01 1.93479E+01 0.00000E+00
 -1      3816 5.30976E+01 1.91791E+01 0.00000E+00
 -1      3817 5.44078E+01 1.93846E+01 0.00000E+00
 -1      3818 2.16375E+01 3.31130E+01 0.00000E+00
 -1      3819 2.31375E+01 3.31130E+01 0.00000E+00
 -1      3820 2.38500E+01 3.18140E+01 0.00000E+00
 -1      3821 3.21240E+01 1.38785E+01 0.00000E+00
 -1      3822 3.06240E+01 1.38785E+01 0.00000E+00
 -1      3823 3.28740E+01 1.51775E+01 0.00000E+00
 -1      3824 1.86375E+01 3.31130E+01 0.00000E+00
 -1      3825 2.01375E+01 3.31130E+01 0.00000E+00
 -1      3826 2.08500E+01 3.18140E+01 0.00000E+00
 -1      3827 6.63146E+01 2.76607E+01 0.00000E+00
 -1      3828 6.70826E+01 2.92893E+01 0.00000E+00
 -1      3829 3.28476E+01 3.12537E+01 0.00000E+00
 -1      3830 3.40075E+01 3.02071E+01 0.00000E+00
 -1      3831 3.37645E+01 2.90228E+01 0.00000E+00
 -1      3832 4.98528E+01 1.93479E+01 0.00000E+00
 -1      3833 5.15723E+01 1.89737E+01 0.00000E+00
 -1      3834 1.32099E+02 3.53751E+01 0.00000E+00
 -1      3835 4.56240E+01 1.64765E+01 0.00000E+00
 -1      3836 4.41240E+01 1.64765E+01 0.00000E+00
 -1      3837 4.33740E+01 1.77755E+01 0.00000E+00
 -1      3838 4.63740E+01 1.77755E+01 0.00000E+00
 -1      3839 1.74690E+01 3.20695E+01 0.00000E+00
 -1      3840 5.23993E+01 1.79809E+01 0.00000E+00
 -1      3841 1.33113E+02 2.86844E+01 0.00000E+00
 -1      3842 1.33113E+02 2.72156E+01 0.00000E+00
 -1      3843 3.53979E+01 2.61973E+01 0.00000E+00
 -1      3844 6.34868E+01 2.17139E+01 0.00000E+00
 -1      3845 6.38184E+01 2.29587E+01 0.00000E+00
 -1      3846 6.54518E+01 2.30493E+01 0.00000E+00
 -1      3847 6.68284E+01 2.61075E+01 0.00000E+00
 -1      3848 3.61582E+01 2.29905E+01 0.00000E+00
 -1      3849 3.77338E+01 2.26405E+01 0.00000E+00
 -1      3850 3.80206E+01 2.12126E+01 0.00000E+00
 -1      3851 1.74690E+01 3.06007E+01 0.00000E+00
 -1      3852 3.04773E+01 3.09417E+01 0.00000E+00
 -1      3853 3.11898E+01 3.22407E+01 0.00000E+00
 -1      3854 1.33113E+02 2.57469E+01 0.00000E+00
 -1      3855 1.33113E+02 2.42781E+01 0.00000E+00
 -1      3856 1.31814E+02 2.64813E+01 0.00000E+00
 -1      3857 5.58825E+01 1.91792E+01 0.00000E+00
 -1      3858 5.72195E+01 1.88880E+01 0.00000E+00
 -1      3859 6.90158E+01 3.42316E+01 0.00000E+00
 -1      3860 7.05158E+01 3.42316E+01 0.00000E+00
 -1      3861 6.86078E+01 3.30403E+01 0.00000E+00
 -1      3862 3.73740E+01 1.77755E+01 0.00000E+00
 -1      3863 3.66240E+01 1.64765E+01 0.00000E+00
 -1      3864 3.51240E+01 1.64765E+01 0.00000E+00
 -1      3865 5.31493E+01 1.66819E+01 0.00000E+00
 -1      3866 2.46241E+01 1.64765E+01 0.00000E+00
 -1      3867 2.31241E+01 1.64765E+01 0.00000E+00
 -1      3868 1.32033E+02 1.74634E+01 0.00000E+00
 -1      3869 1.30829E+02 1.69699E+01 0.00000E+00
 -1      3870 1.30079E+02 1.82689E+01 0.00000E+00
 -1      3871 5.46493E+01 1.66819E+01 0.00000E+00
 -1      3872 5.53993E+01 1.79809E+01 0.00000E+00
 -1      3873 4.50487E+01 1.92218E+01 0.00000E+00
 -1      3874 5.84643E+01 1.98499E+01 0.00000E+00
 -1      3875 5.91122E+01 2.09926E+01 0.00000E+00
 -1      3876 6.06085E+01 2.06613E+01 0.00000E+00
 -1      3877 5.81188E+01 1.87374E+01 0.00000E+00
 -1      3878 4.12010E+01 2.07511E+01 0.00000E+00
 -1      3879 4.38398E+01 1.92075E+01 0.00000E+00
 -1      3880 2.16241E+01 1.64765E+01 0.00000E+00
 -1      3881 2.01241E+01 1.64765E+01 0.00000E+00
 -1      3882 2.23741E+01 1.77755E+01 0.00000E+00
 -1      3883 6.86028E+01 2.92552E+01 0.00000E+00
 -1      3884 6.78118E+01 3.06236E+01 0.00000E+00
 -1      3885 1.32848E+02 1.96843E+01 0.00000E+00
 -1      3886 1.32949E+02 1.86590E+01 0.00000E+00
 -1      3887 1.33113E+02 2.28094E+01 0.00000E+00
 -1      3888 1.33113E+02 2.13406E+01 0.00000E+00
 -1      3889 1.31814E+02 2.35438E+01 0.00000E+00
 -1      3890 1.32233E+02 3.38980E+01 0.00000E+00
 -1      3891 1.32368E+02 3.24208E+01 0.00000E+00
 -1      3892 1.30458E+02 3.39458E+01 0.00000E+00
 -1      3893 1.83468E+01 1.65577E+01 0.00000E+00
 -1      3894 1.60968E+01 1.67275E+01 0.00000E+00
 -1      3895 6.82199E+01 3.18149E+01 0.00000E+00
 -1      3896 2.98740E+01 1.51775E+01 0.00000E+00
 -1      3897 1.68870E+01 2.12906E+01 0.00000E+00
 -1      3898 1.68870E+01 2.27656E+01 0.00000E+00
 -1      3899 2.76240E+01 1.64765E+01 0.00000E+00
 -1      3900 2.61241E+01 1.64765E+01 0.00000E+00
 -1      3901 2.53741E+01 1.77755E+01 0.00000E+00
 -1      3902 1.62753E+01 1.79865E+01 0.00000E+00
 -1      3903 1.31548E+02 2.04187E+01 0.00000E+00
 -1      3904 1.90968E+01 1.78567E+01 0.00000E+00
 -1      3905 3.39058E+01 2.67527E+01 0.00000E+00
 -1      3906 3.43793E+01 2.49737E+01 0.00000E+00
 -1      3907 2.89208E+01 3.01760E+01 0.00000E+00
 -1      3908 3.10481E+01 2.93036E+01 0.00000E+00
 -1      3909 3.14328E+01 3.34250E+01 0.00000E+00
 -1      3910 1.33699E+02 1.73600E+01 0.00000E+00
 -1      3911 1.30609E+02 2.15816E+01 0.00000E+00
 -1      3912 1.30344E+02 1.99252E+01 0.00000E+00
 -1      3913 1.29139E+02 1.94318E+01 0.00000E+00
 -1      3914 6.54971E+01 1.97900E+01 0.00000E+00
 -1      3915 6.39971E+01 1.97900E+01 0.00000E+00
 -1      3916 7.45238E+01 3.41239E+01 0.00000E+00
 -1      3917 7.60238E+01 3.41239E+01 0.00000E+00
 -1      3918 7.75238E+01 3.41239E+01 0.00000E+00
 -1      3919 7.90238E+01 3.41239E+01 0.00000E+00
 -1      3920 7.67738E+01 3.28249E+01 0.00000E+00
 -1      3921 8.05238E+01 3.41239E+01 0.00000E+00
 -1      3922 8.20238E+01 3.41239E+01 0.00000E+00
 -1      3923 7.97738E+01 3.28249E+01 0.00000E+00
 -1      3924 8.35238E+01 3.41239E+01 0.00000E+00
 -1      3925 8.50238E+01 3.41239E+01 0.00000E+00
 -1      3926 8.27738E+01 3.28249E+01 0.00000E+00
 -1      3927 8.65238E+01 3.41239E+01 0.00000E+00
 -1      3928 8.80238E+01 3.41239E+01 0.00000E+00
 -1      3929 8.57738E+01 3.28249E+01 0.00000E+00
 -1      3930 8.94488E+01 3.41239E+01 0.00000E+00
 -1      3931 9.08738E+01 3.41239E+01 0.00000E+00
 -1      3932 8.86988E+01 3.28249E+01 0.00000E+00
 -1      3933 9.23738E+01 3.41239E+01 0.00000E+00
 -1      3934 9.38738E+01 3.41239E+01 0.00000E+00
 -1      3935 9.16238E+01 3.28249E+01 0.00000E+00
 -1      3936 9.53738E+01 3.41239E+01 0.00000E+00
 -1      3937 9.68738E+01 3.41239E+01 0.00000E+00
 -1      3938 9.46238E+01 3.28249E+01 0.00000E+00
 -1      3939 9.83738E+01 3.41239E+01 0.00000E+00
 -1      3940 9.98738E+01 3.41239E+01 0.00000E+00
 -1      3941 9.76238E+01 3.28249E+01 0.00000E+00
 -1      3942 1.01374E+02 3.41239E+01 0.00000E+00
 -1      3943 1.02874E+02 3.41239E+01 0.00000E+00
 -1      3944 1.00624E+02 3.28249E+01 0.00000E+00
 -1      3945 1.04374E+02 3.41239E+01 0.00000E+00
 -1      3946 1.05874E+02 3.41239E+01 0.00000E+00
 -1      3947 1.03624E+02 3.28249E+01 0.00000E+00
 -1      3948 1.07299E+02 3.41239E+01 0.00000E+00
 -1      3949 1.08724E+02 3.41239E+01 0.00000E+00
 -1      3950 1.06549E+02 3.28249E+01 0.00000E+00
 -1      3951 1.10224E+02 3.41239E+01 0.00000E+00
 -1      3952 1.11724E+02 3.41239E+01 0.00000E+00
 -1      3953 1.09474E+02 3.28249E+01 0.00000E+00
 -1      3954 1.13224E+02 3.41239E+01 0.00000E+00
 -1      3955 1.14724E+02 3.41239E+01 0.00000E+00
 -1      3956 1.12474E+02 3.28249E+01 0.00000E+00
 -1      3957 1.16224E+02 3.41239E+01 0.00000E+00
 -1      3958 1.17724E+02 3.41239E+01 0.00000E+00
 -1      3959 1.15474E+02 3.28249E+01 0.00000E+00
 -1      3960 1.19224E+02 3.41239E+01 0.00000E+00
 -1      3961 1.20724E+02 3.41239E+01 0.00000E+00
 -1      3962 1.18474E+02 3.28249E+01 0.00000E+00
 -1      3963 1.22224E+02 3.41239E+01 0.00000E+00
 -1      3964 1.23724E+02 3.41239E+01 0.00000E+00
 -1      3965 1.21474E+02 3.28249E+01 0.00000E+00
 -1      3966 1.25149E+02 3.41239E+01 0.00000E+00
 -1      3967 1.26574E+02 3.41239E+01 0.00000E+00
 -1      3968 1.24399E+02 3.28249E+01 0.00000E+00
 -1      3969 1.27766E+02 3.40348E+01 0.00000E+00
 -1      3970 1.29266E+02 3.40348E+01 0.00000E+00
 -1      3971 1.29401E+02 3.25577E+01 0.00000E+00
 -1      3972 1.27016E+02 3.27358E+01 0.00000E+00
 -1      3973 4.07351E+01 1.93191E+01 0.00000E+00
 -1      3974 3.92351E+01 1.93191E+01 0.00000E+00
 -1      3975 1.64538E+01 1.92455E+01 0.00000E+00
 -1      3976 5.96188E+01 1.87374E+01 0.00000E+00
 -1      3977 6.84971E+01 1.97900E+01 0.00000E+00
 -1      3978 6.69971E+01 1.97900E+01 0.00000E+00
 -1      3979 6.66203E+01 2.18046E+01 0.00000E+00
 -1      3980 7.14971E+01 1.97900E+01 0.00000E+00
 -1      3981 6.99971E+01 1.97900E+01 0.00000E+00
 -1      3982 6.96203E+01 2.18046E+01 0.00000E+00
 -1      3983 7.44971E+01 1.97900E+01 0.00000E+00
 -1      3984 7.29971E+01 1.97900E+01 0.00000E+00
 -1      3985 7.26203E+01 2.18046E+01 0.00000E+00
 -1      3986 7.74971E+01 1.97900E+01 0.00000E+00
 -1      3987 7.59971E+01 1.97900E+01 0.00000E+00
 -1      3988 7.56203E+01 2.18046E+01 0.00000E+00
 -1      3989 8.04971E+01 1.97900E+01 0.00000E+00
 -1      3990 7.89971E+01 1.97900E+01 0.00000E+00
 -1      3991 7.86203E+01 2.18046E+01 0.00000E+00
 -1      3992 8.34971E+01 1.97900E+01 0.00000E+00
 -1      3993 8.19971E+01 1.97900E+01 0.00000E+00
 -1      3994 8.16203E+01 2.18046E+01 0.00000E+00
 -1      3995 8.64971E+01 1.97900E+01 0.00000E+00
 -1      3996 8.49971E+01 1.97900E+01 0.00000E+00
 -1      3997 8.46203E+01 2.18046E+01 0.00000E+00
 -1      3998 8.94971E+01 1.97900E+01 0.00000E+00
 -1      3999 8.79971E+01 1.97900E+01 0.00000E+00
 -1      4000 8.76203E+01 2.18046E+01 0.00000E+00
 -1      4001 9.24971E+01 1.97900E+01 0.00000E+00
 -1      4002 9.09971E+01 1.97900E+01 0.00000E+00
 -1      4003 9.06203E+01 2.18046E+01 0.00000E+00
 -1      4004 9.54971E+01 1.97900E+01 0.00000E+00
 -1      4005 9.39971E+01 1.97900E+01 0.00000E+00
 -1      4006 9.36203E+01 2.18046E+01 0.00000E+00
 -1      4007 9.84971E+01 1.97900E+01 0.00000E+00
 -1      4008 9.69971E+01 1.97900E+01 0.00000E+00
 -1      4009 9.66203E+01 2.18046E+01 0.00000E+00
 -1      4010 1.01497E+02 1.97900E+01 0.00000E+00
 -1      4011 9.99971E+01 1.97900E+01 0.00000E+00
 -1      4012 9.96203E+01 2.18046E+01 0.00000E+00
 -1      4013 1.04497E+02 1.97900E+01 0.00000E+00
 -1      4014 1.02997E+02 1.97900E+01 0.00000E+00
 -1      4015 1.02620E+02 2.18046E+01 0.00000E+00
 -1      4016 1.07497E+02 1.97900E+01 0.00000E+00
 -1      4017 1.05997E+02 1.97900E+01 0.00000E+00
 -1      4018 1.05620E+02 2.18046E+01 0.00000E+00
 -1      4019 1.10497E+02 1.97900E+01 0.00000E+00
 -1      4020 1.08997E+02 1.97900E+01 0.00000E+00
 -1      4021 1.08620E+02 2.18046E+01 0.00000E+00
 -1      4022 1.13497E+02 1.97900E+01 0.00000E+00
 -1      4023 1.11997E+02 1.97900E+01 0.00000E+00
 -1      4024 1.11620E+02 2.18046E+01 0.00000E+00
 -1      4025 1.16497E+02 1.97900E+01 0.00000E+00
 -1      4026 1.14997E+02 1.97900E+01 0.00000E+00
 -1      4027 1.14620E+02 2.18046E+01 0.00000E+00
 -1      4028 1.19497E+02 1.97900E+01 0.00000E+00
 -1      4029 1.17997E+02 1.97900E+01 0.00000E+00
 -1      4030 1.17620E+02 2.18046E+01 0.00000E+00
 -1      4031 1.22497E+02 1.97900E+01 0.00000E+00
 -1      4032 1.20997E+02 1.97900E+01 0.00000E+00
 -1      4033 1.20620E+02 2.18046E+01 0.00000E+00
 -1      4034 1.25497E+02 1.97900E+01 0.00000E+00
 -1      4035 1.23997E+02 1.97900E+01 0.00000E+00
 -1      4036 1.23620E+02 2.18046E+01 0.00000E+00
 -1      4037 1.28068E+02 1.96109E+01 0.00000E+00
 -1      4038 1.26568E+02 1.96109E+01 0.00000E+00
 -1      4039 1.26191E+02 2.16255E+01 0.00000E+00
 -1      4040 1.28334E+02 2.12672E+01 0.00000E+00
 -1      4041 4.23398E+01 1.92075E+01 0.00000E+00
 -1      4042 2.31241E+01 1.90745E+01 0.00000E+00
 -1      4043 2.16241E+01 1.90745E+01 0.00000E+00
 -1      4044 6.93780E+01 2.79651E+01 0.00000E+00
 -1      4045 7.01072E+01 2.92993E+01 0.00000E+00
 -1      4046 2.59208E+01 3.01760E+01 0.00000E+00
 -1      4047 2.74208E+01 3.01760E+01 0.00000E+00
 -1      4048 2.79916E+01 2.85379E+01 0.00000E+00
 -1      4049 6.74314E+01 2.45522E+01 0.00000E+00
 -1      4050 6.84765E+01 2.63656E+01 0.00000E+00
 -1      4051 2.29208E+01 3.01760E+01 0.00000E+00
 -1      4052 2.44208E+01 3.01760E+01 0.00000E+00
 -1      4053 2.49916E+01 2.85379E+01 0.00000E+00
 -1      4054 6.97199E+01 3.18149E+01 0.00000E+00
 -1      4055 7.18073E+01 3.41778E+01 0.00000E+00
 -1      4056 7.32323E+01 3.41778E+01 0.00000E+00
 -1      4057 7.39823E+01 3.28788E+01 0.00000E+00
 -1      4058 7.13993E+01 3.29865E+01 0.00000E+00
 -1      4059 1.32673E+02 3.12912E+01 0.00000E+00
 -1      4060 1.32808E+02 2.98140E+01 0.00000E+00
 -1      4061 1.31509E+02 2.90797E+01 0.00000E+00
 -1      4062 1.30898E+02 3.13390E+01 0.00000E+00
 -1      4063 3.36240E+01 1.64765E+01 0.00000E+00
 -1      4064 3.21240E+01 1.64765E+01 0.00000E+00
 -1      4065 3.43740E+01 1.77755E+01 0.00000E+00
 -1      4066 1.77528E+01 1.99830E+01 0.00000E+00
 -1      4067 1.81860E+01 2.34992E+01 0.00000E+00
 -1      4068 1.68870E+01 2.42367E+01 0.00000E+00
 -1      4069 1.68870E+01 2.57078E+01 0.00000E+00
 -1      4070 3.27460E+01 2.77992E+01 0.00000E+00
 -1      4071 3.06240E+01 1.64765E+01 0.00000E+00
 -1      4072 2.91240E+01 1.64765E+01 0.00000E+00
 -1      4073 3.13740E+01 1.77755E+01 0.00000E+00
 -1      4074 1.99208E+01 3.01760E+01 0.00000E+00
 -1      4075 2.14208E+01 3.01760E+01 0.00000E+00
 -1      4076 2.19916E+01 2.85379E+01 0.00000E+00
 -1      4077 1.80398E+01 2.89627E+01 0.00000E+00
 -1      4078 3.76595E+01 1.96691E+01 0.00000E+00
 -1      4079 1.95300E+01 1.99018E+01 0.00000E+00
 -1      4080 2.02800E+01 2.12008E+01 0.00000E+00
 -1      4081 3.11895E+01 2.70335E+01 0.00000E+00
 -1      4082 6.23637E+01 1.96994E+01 0.00000E+00
 -1      4083 3.46661E+01 2.35459E+01 0.00000E+00
 -1      4084 3.49529E+01 2.21180E+01 0.00000E+00
 -1      4085 3.31741E+01 2.41012E+01 0.00000E+00
 -1      4086 1.30515E+02 2.72156E+01 0.00000E+00
 -1      4087 1.30515E+02 2.57469E+01 0.00000E+00
 -1      4088 1.30676E+02 2.26522E+01 0.00000E+00
 -1      4089 1.29472E+02 2.21588E+01 0.00000E+00
 -1      4090 1.28400E+02 2.23379E+01 0.00000E+00
 -1      4091 1.30676E+02 2.41210E+01 0.00000E+00
 -1      4092 1.29905E+02 2.94749E+01 0.00000E+00
 -1      4093 1.30210E+02 2.83453E+01 0.00000E+00
 -1      4094 1.28911E+02 2.76109E+01 0.00000E+00
 -1      4095 3.61595E+01 1.96691E+01 0.00000E+00
 -1      4096 6.08637E+01 1.96994E+01 0.00000E+00
 -1      4097 1.80398E+01 2.74916E+01 0.00000E+00
 -1      4098 6.99809E+01 2.64098E+01 0.00000E+00
 -1      4099 7.16083E+01 2.93234E+01 0.00000E+00
 -1      4100 7.08330E+01 3.06135E+01 0.00000E+00
 -1      4101 6.69518E+01 2.30493E+01 0.00000E+00
 -1      4102 6.85998E+01 2.33074E+01 0.00000E+00
 -1      4103 2.18044E+01 2.19953E+01 0.00000E+00
 -1      4104 1.97103E+01 2.28226E+01 0.00000E+00
 -1      4105 7.12209E+01 3.18389E+01 0.00000E+00
 -1      4106 2.83740E+01 1.77755E+01 0.00000E+00
 -1      4107 2.46241E+01 1.90745E+01 0.00000E+00
 -1      4108 2.38741E+01 2.03735E+01 0.00000E+00
 -1      4109 2.61240E+01 1.90745E+01 0.00000E+00
 -1      4110 1.97103E+01 2.42937E+01 0.00000E+00
 -1      4111 3.46674E+01 2.02244E+01 0.00000E+00
 -1      4112 3.31675E+01 2.02244E+01 0.00000E+00
 -1      4113 2.12416E+01 2.72389E+01 0.00000E+00
 -1      4114 2.27416E+01 2.72389E+01 0.00000E+00
 -1      4115 1.29500E+02 3.15811E+01 0.00000E+00
 -1      4116 1.29805E+02 3.04515E+01 0.00000E+00
 -1      4117 1.28506E+02 2.97171E+01 0.00000E+00
 -1      4118 1.28308E+02 3.16702E+01 0.00000E+00
 -1      4119 1.93388E+01 2.67541E+01 0.00000E+00
 -1      4120 7.00998E+01 2.33074E+01 0.00000E+00
 -1      4121 7.90238E+01 3.15259E+01 0.00000E+00
 -1      4122 8.05238E+01 3.15259E+01 0.00000E+00
 -1      4123 8.20238E+01 3.15259E+01 0.00000E+00
 -1      4124 8.35238E+01 3.15259E+01 0.00000E+00
 -1      4125 8.12738E+01 3.02269E+01 0.00000E+00
 -1      4126 8.50238E+01 3.15259E+01 0.00000E+00
 -1      4127 8.65238E+01 3.15259E+01 0.00000E+00
 -1      4128 8.42738E+01 3.02269E+01 0.00000E+00
 -1      4129 8.79488E+01 3.15259E+01 0.00000E+00
 -1      4130 8.93738E+01 3.15259E+01 0.00000E+00
 -1      4131 8.71988E+01 3.02269E+01 0.00000E+00
 -1      4132 9.08738E+01 3.15259E+01 0.00000E+00
 -1      4133 9.23738E+01 3.15259E+01 0.00000E+00
 -1      4134 9.01238E+01 3.02269E+01 0.00000E+00
 -1      4135 9.38738E+01 3.15259E+01 0.00000E+00
 -1      4136 9.53738E+01 3.15259E+01 0.00000E+00
 -1      4137 9.31238E+01 3.02269E+01 0.00000E+00
 -1      4138 9.68738E+01 3.15259E+01 0.00000E+00
 -1      4139 9.83738E+01 3.15259E+01 0.00000E+00
 -1      4140 9.61238E+01 3.02269E+01 0.00000E+00
 -1      4141 9.98738E+01 3.15259E+01 0.00000E+00
 -1      4142 1.01374E+02 3.15259E+01 0.00000E+00
 -1      4143 9.91238E+01 3.02269E+01 0.00000E+00
 -1      4144 1.02874E+02 3.15259E+01 0.00000E+00
 -1      4145 1.04374E+02 3.15259E+01 0.00000E+00
 -1      4146 1.02124E+02 3.02269E+01 0.00000E+00
 -1      4147 1.05799E+02 3.15259E+01 0.00000E+00
 -1      4148 1.07224E+02 3.15259E+01 0.00000E+00
 -1      4149 1.05049E+02 3.02269E+01 0.00000E+00
 -1      4150 1.08724E+02 3.15259E+01 0.00000E+00
 -1      4151 1.10224E+02 3.15259E+01 0.00000E+00
 -1      4152 1.07974E+02 3.02269E+01 0.00000E+00
 -1      4153 1.11724E+02 3.15259E+01 0.00000E+00
 -1      4154 1.13224E+02 3.15259E+01 0.00000E+00
 -1      4155 1.10974E+02 3.02269E+01 0.00000E+00
 -1      4156 1.14724E+02 3.15259E+01 0.00000E+00
 -1      4157 1.16224E+02 3.15259E+01 0.00000E+00
 -1      4158 1.13974E+02 3.02269E+01 0.00000E+00
 -1      4159 1.17724E+02 3.15259E+01 0.00000E+00
 -1      4160 1.19224E+02 3.15259E+01 0.00000E+00
 -1      4161 1.16974E+02 3.02269E+01 0.00000E+00
 -1      4162 1.20724E+02 3.15259E+01 0.00000E+00
 -1      4163 1.22224E+02 3.15259E+01 0.00000E+00
 -1      4164 1.19974E+02 3.02269E+01 0.00000E+00
 -1      4165 1.23649E+02 3.15259E+01 0.00000E+00
 -1      4166 1.25074E+02 3.15259E+01 0.00000E+00
 -1      4167 1.22899E+02 3.02269E+01 0.00000E+00
 -1      4168 7.63703E+01 2.31036E+01 0.00000E+00
 -1      4169 7.48703E+01 2.31036E+01 0.00000E+00
 -1      4170 7.93703E+01 2.31036E+01 0.00000E+00
 -1      4171 7.78703E+01 2.31036E+01 0.00000E+00
 -1      4172 7.71203E+01 2.44026E+01 0.00000E+00
 -1      4173 8.23703E+01 2.31036E+01 0.00000E+00
 -1      4174 8.08703E+01 2.31036E+01 0.00000E+00
 -1      4175 8.01203E+01 2.44026E+01 0.00000E+00
 -1      4176 8.53703E+01 2.31036E+01 0.00000E+00
 -1      4177 8.38703E+01 2.31036E+01 0.00000E+00
 -1      4178 8.31203E+01 2.44026E+01 0.00000E+00
 -1      4179 8.83703E+01 2.31036E+01 0.00000E+00
 -1      4180 8.68703E+01 2.31036E+01 0.00000E+00
 -1      4181 8.61203E+01 2.44026E+01 0.00000E+00
 -1      4182 9.13703E+01 2.31036E+01 0.00000E+00
 -1      4183 8.98703E+01 2.31036E+01 0.00000E+00
 -1      4184 8.91203E+01 2.44026E+01 0.00000E+00
 -1      4185 9.43703E+01 2.31036E+01 0.00000E+00
 -1      4186 9.28703E+01 2.31036E+01 0.00000E+00
 -1      4187 9.21203E+01 2.44026E+01 0.00000E+00
 -1      4188 9.73703E+01 2.31036E+01 0.00000E+00
 -1      4189 9.58703E+01 2.31036E+01 0.00000E+00
 -1      4190 9.51203E+01 2.44026E+01 0.00000E+00
 -1      4191 1.00370E+02 2.31036E+01 0.00000E+00
 -1      4192 9.88703E+01 2.31036E+01 0.00000E+00
 -1      4193 9.81203E+01 2.44026E+01 0.00000E+00
 -1      4194 1.03370E+02 2.31036E+01 0.00000E+00
 -1      4195 1.01870E+02 2.31036E+01 0.00000E+00
 -1      4196 1.01120E+02 2.44026E+01 0.00000E+00
 -1      4197 1.06370E+02 2.31036E+01 0.00000E+00
 -1      4198 1.04870E+02 2.31036E+01 0.00000E+00
 -1      4199 1.04120E+02 2.44026E+01 0.00000E+00
 -1      4200 1.09370E+02 2.31036E+01 0.00000E+00
 -1      4201 1.07870E+02 2.31036E+01 0.00000E+00
 -1      4202 1.07120E+02 2.44026E+01 0.00000E+00
 -1      4203 1.12370E+02 2.31036E+01 0.00000E+00
 -1      4204 1.10870E+02 2.31036E+01 0.00000E+00
 -1      4205 1.10120E+02 2.44026E+01 0.00000E+00
 -1      4206 1.15370E+02 2.31036E+01 0.00000E+00
 -1      4207 1.13870E+02 2.31036E+01 0.00000E+00
 -1      4208 1.13120E+02 2.44026E+01 0.00000E+00
 -1      4209 1.18370E+02 2.31036E+01 0.00000E+00
 -1      4210 1.16870E+02 2.31036E+01 0.00000E+00
 -1      4211 1.16120E+02 2.44026E+01 0.00000E+00
 -1      4212 1.21370E+02 2.31036E+01 0.00000E+00
 -1      4213 1.19870E+02 2.31036E+01 0.00000E+00
 -1      4214 1.19120E+02 2.44026E+01 0.00000E+00
 -1      4215 1.24370E+02 2.31036E+01 0.00000E+00
 -1      4216 1.22870E+02 2.31036E+01 0.00000E+00
 -1      4217 1.22120E+02 2.44026E+01 0.00000E+00
 -1      4218 7.18108E+01 2.33557E+01 0.00000E+00
 -1      4219 7.07904E+01 2.48586E+01 0.00000E+00
 -1      4220 7.16919E+01 2.64581E+01 0.00000E+00
 -1      4221 7.33108E+01 2.33557E+01 0.00000E+00
 -1      4222 7.24177E+01 2.77722E+01 0.00000E+00
 -1      4223 7.31435E+01 2.90864E+01 0.00000E+00
 -1      4224 7.32272E+01 2.62211E+01 0.00000E+00
 -1      4225 2.91240E+01 1.90745E+01 0.00000E+00
 -1      4226 2.76240E+01 1.90745E+01 0.00000E+00
 -1      4227 2.68740E+01 2.03735E+01 0.00000E+00
 -1      4228 2.72416E+01 2.72389E+01 0.00000E+00
 -1      4229 2.87416E+01 2.72389E+01 0.00000E+00
 -1      4230 1.29377E+02 2.48553E+01 0.00000E+00
 -1      4231 2.33043E+01 2.19953E+01 0.00000E+00
 -1      4232 2.27346E+01 2.36171E+01 0.00000E+00
 -1      4233 2.48043E+01 2.19953E+01 0.00000E+00
 -1      4234 7.25124E+01 3.17851E+01 0.00000E+00
 -1      4235 2.42416E+01 2.72389E+01 0.00000E+00
 -1      4236 2.57416E+01 2.72389E+01 0.00000E+00
 -1      4237 2.64916E+01 2.59399E+01 0.00000E+00
 -1      4238 2.34916E+01 2.59399E+01 0.00000E+00
 -1      4239 2.16131E+01 2.47785E+01 0.00000E+00
 -1      4240 2.00888E+01 2.54551E+01 0.00000E+00
 -1      4241 3.18957E+01 1.96495E+01 0.00000E+00
 -1      4242 3.03957E+01 1.96495E+01 0.00000E+00
 -1      4243 2.96457E+01 2.09485E+01 0.00000E+00
 -1      4244 3.21892E+01 2.20984E+01 0.00000E+00
 -1      4245 7.60238E+01 3.15259E+01 0.00000E+00
 -1      4246 7.75238E+01 3.15259E+01 0.00000E+00
 -1      4247 7.82738E+01 3.02269E+01 0.00000E+00
 -1      4248 3.04395E+01 2.57345E+01 0.00000E+00
 -1      4249 2.31131E+01 2.47785E+01 0.00000E+00
 -1      4250 7.36224E+01 3.16824E+01 0.00000E+00
 -1      4251 7.49139E+01 3.16286E+01 0.00000E+00
 -1      4252 7.56639E+01 3.03296E+01 0.00000E+00
 -1      4253 7.34440E+01 3.05349E+01 0.00000E+00
 -1      4254 2.91069E+01 2.45428E+01 0.00000E+00
 -1      4255 3.15547E+01 2.43373E+01 0.00000E+00
 -1      4256 1.26095E+02 3.16426E+01 0.00000E+00
 -1      4257 1.27287E+02 3.15535E+01 0.00000E+00
 -1      4258 1.27386E+02 3.05770E+01 0.00000E+00
 -1      4259 1.25345E+02 3.03436E+01 0.00000E+00
 -1      4260 7.42534E+01 2.89837E+01 0.00000E+00
 -1      4261 1.25441E+02 2.29244E+01 0.00000E+00
 -1      4262 1.24691E+02 2.42234E+01 0.00000E+00
 -1      4263 1.26513E+02 2.27453E+01 0.00000E+00
 -1      4264 7.40608E+01 2.46547E+01 0.00000E+00
 -1      4265 1.27504E+02 2.78369E+01 0.00000E+00
 -1      4266 1.27809E+02 2.67073E+01 0.00000E+00
 -1      4267 1.26083E+02 2.54888E+01 0.00000E+00
 -1      4268 1.27489E+02 2.52628E+01 0.00000E+00
 -1      4269 1.27650E+02 2.36369E+01 0.00000E+00
 -1      4270 1.25011E+02 2.56679E+01 0.00000E+00
 -1      4271 3.18415E+01 2.29095E+01 0.00000E+00
 -1      4272 8.05238E+01 2.89279E+01 0.00000E+00
 -1      4273 8.20238E+01 2.89279E+01 0.00000E+00
 -1      4274 2.46131E+01 2.47785E+01 0.00000E+00
 -1      4275 7.53634E+01 2.88811E+01 0.00000E+00
 -1      4276 8.35238E+01 2.89279E+01 0.00000E+00
 -1      4277 8.50238E+01 2.89279E+01 0.00000E+00
 -1      4278 8.27738E+01 2.76289E+01 0.00000E+00
 -1      4279 8.64488E+01 2.89279E+01 0.00000E+00
 -1      4280 8.78738E+01 2.89279E+01 0.00000E+00
 -1      4281 8.56988E+01 2.76289E+01 0.00000E+00
 -1      4282 8.93738E+01 2.89279E+01 0.00000E+00
 -1      4283 9.08738E+01 2.89279E+01 0.00000E+00
 -1      4284 8.86238E+01 2.76289E+01 0.00000E+00
 -1      4285 9.23738E+01 2.89279E+01 0.00000E+00
 -1      4286 9.38738E+01 2.89279E+01 0.00000E+00
 -1      4287 9.16238E+01 2.76289E+01 0.00000E+00
 -1      4288 9.53738E+01 2.89279E+01 0.00000E+00
 -1      4289 9.68738E+01 2.89279E+01 0.00000E+00
 -1      4290 9.46238E+01 2.76289E+01 0.00000E+00
 -1      4291 9.83738E+01 2.89279E+01 0.00000E+00
 -1      4292 9.98738E+01 2.89279E+01 0.00000E+00
 -1      4293 9.76238E+01 2.76289E+01 0.00000E+00
 -1      4294 1.01374E+02 2.89279E+01 0.00000E+00
 -1      4295 1.02874E+02 2.89279E+01 0.00000E+00
 -1      4296 1.00624E+02 2.76289E+01 0.00000E+00
 -1      4297 1.04299E+02 2.89279E+01 0.00000E+00
 -1      4298 1.05724E+02 2.89279E+01 0.00000E+00
 -1      4299 1.03549E+02 2.76289E+01 0.00000E+00
 -1      4300 1.07224E+02 2.89279E+01 0.00000E+00
 -1      4301 1.08724E+02 2.89279E+01 0.00000E+00
 -1      4302 1.06474E+02 2.76289E+01 0.00000E+00
 -1      4303 1.10224E+02 2.89279E+01 0.00000E+00
 -1      4304 1.11724E+02 2.89279E+01 0.00000E+00
 -1      4305 1.09474E+02 2.76289E+01 0.00000E+00
 -1      4306 1.13224E+02 2.89279E+01 0.00000E+00
 -1      4307 1.14724E+02 2.89279E+01 0.00000E+00
 -1      4308 1.12474E+02 2.76289E+01 0.00000E+00
 -1      4309 1.16224E+02 2.89279E+01 0.00000E+00
 -1      4310 1.17724E+02 2.89279E+01 0.00000E+00
 -1      4311 1.15474E+02 2.76289E+01 0.00000E+00
 -1      4312 1.19224E+02 2.89279E+01 0.00000E+00
 -1      4313 1.20724E+02 2.89279E+01 0.00000E+00
 -1      4314 1.18474E+02 2.76289E+01 0.00000E+00
 -1      4315 1.22149E+02 2.89279E+01 0.00000E+00
 -1      4316 1.23574E+02 2.89279E+01 0.00000E+00
 -1      4317 1.21399E+02 2.76289E+01 0.00000E+00
 -1      4318 8.14471E+01 2.60157E+01 0.00000E+00
 -1      4319 7.99471E+01 2.60157E+01 0.00000E+00
 -1      4320 2.75341E+01 2.44310E+01 0.00000E+00
 -1      4321 2.86493E+01 2.30338E+01 0.00000E+00
 -1      4322 7.78703E+01 2.57016E+01 0.00000E+00
 -1      4323 7.63703E+01 2.57016E+01 0.00000E+00
 -1      4324 8.73720E+01 2.60157E+01 0.00000E+00
 -1      4325 8.58720E+01 2.60157E+01 0.00000E+00
 -1      4326 9.03720E+01 2.60157E+01 0.00000E+00
 -1      4327 8.88720E+01 2.60157E+01 0.00000E+00
 -1      4328 9.33720E+01 2.60157E+01 0.00000E+00
 -1      4329 9.18720E+01 2.60157E+01 0.00000E+00
 -1      4330 9.63720E+01 2.60157E+01 0.00000E+00
 -1      4331 9.48720E+01 2.60157E+01 0.00000E+00
 -1      4332 9.93720E+01 2.60157E+01 0.00000E+00
 -1      4333 9.78720E+01 2.60157E+01 0.00000E+00
 -1      4334 1.02372E+02 2.60157E+01 0.00000E+00
 -1      4335 1.00872E+02 2.60157E+01 0.00000E+00
 -1      4336 1.05297E+02 2.60157E+01 0.00000E+00
 -1      4337 1.03797E+02 2.60157E+01 0.00000E+00
 -1      4338 1.08297E+02 2.60157E+01 0.00000E+00
 -1      4339 1.06797E+02 2.60157E+01 0.00000E+00
 -1      4340 1.11297E+02 2.60157E+01 0.00000E+00
 -1      4341 1.09797E+02 2.60157E+01 0.00000E+00
 -1      4342 1.14297E+02 2.60157E+01 0.00000E+00
 -1      4343 1.12797E+02 2.60157E+01 0.00000E+00
 -1      4344 1.17297E+02 2.60157E+01 0.00000E+00
 -1      4345 1.15797E+02 2.60157E+01 0.00000E+00
 -1      4346 1.20297E+02 2.60157E+01 0.00000E+00
 -1      4347 1.18797E+02 2.60157E+01 0.00000E+00
 -1      4348 1.23222E+02 2.60157E+01 0.00000E+00
 -1      4349 1.21722E+02 2.60157E+01 0.00000E+00
 -1      4350 3.05698E+01 2.23345E+01 0.00000E+00
 -1      4351 7.47866E+01 2.59689E+01 0.00000E+00
 -1      4352 8.44471E+01 2.60157E+01 0.00000E+00
 -1      4353 8.29471E+01 2.60157E+01 0.00000E+00
 -1      4354 7.69471E+01 2.86137E+01 0.00000E+00
 -1      4355 7.84471E+01 2.86137E+01 0.00000E+00
 -1      4356 1.24613E+02 2.72811E+01 0.00000E+00
 -1      4357 2.62253E+01 2.16477E+01 0.00000E+00
 -1      4358 2.56555E+01 2.32695E+01 0.00000E+00
 -1      4359 7.55366E+01 2.72679E+01 0.00000E+00
 -1      4360 2.77253E+01 2.16477E+01 0.00000E+00
 -1      4361 7.91971E+01 2.73147E+01 0.00000E+00
 -1      4362 1.27485E+02 2.96004E+01 0.00000E+00
 -1      4363 2.60341E+01 2.44310E+01 0.00000E+00
 -1      4364 1.25363E+02 2.85801E+01 0.00000E+00
 -1      4365 2.92981E+01 2.17596E+01 0.00000E+00
 -1      4366 1.26384E+02 2.86968E+01 0.00000E+00
 -3
    3C                          2100                                     1
 -1       167    8    0    1
 -2         6         7        23      1134      1300      1151
 -1       168    8    0    1
 -2         7         8       167      1135      1301      1302
 -1       169    8    0    1
 -2         8         9       168      1136      1303      1304
 -1       170    8    0    1
 -2         8       168       167      1304      1305      1301
 -1       171    8    0    1
 -2         9        10       169      1137      1306      1307
 -1       172    8    0    1
 -2         9       169       168      1307      1308      1303
 -1       173    8    0    1
 -2        10        11       170      1138      1309      1310
 -1       174    8    0    1
 -2        10       170       169      1310      1311      1306
 -1       175    8    0    1
 -2        11        12       171      1139      1312      1313
 -1       176    8    0    1
 -2        11       171       170      1313      1314      1309
 -1       177    8    0    1
 -2        12        13       172      1140      1315      1316
 -1       178    8    0    1
 -2        12       172       171      1316      1317      1312
 -1       179    8    0    1
 -2        13        14       173      1141      1318      1319
 -1       180    8    0    1
 -2        13       173       172      1319      1320      1315
 -1       181    8    0    1
 -2        14        15       174      1142      1321      1322
 -1       182    8    0    1
 -2        14       174       173      1322      1323      1318
 -1       183    8    0    1
 -2        15        16       175      1143      1324      1325
 -1       184    8    0    1
 -2        15       175       174      1325      1326      1321
 -1       185    8    0    1
 -2        16        17       176      1144      1327      1328
 -1       186    8    0    1
 -2        16       176       175      1328      1329      1324
 -1       187    8    0    1
 -2        17        18       177      1145      1330      1331
 -1       188    8    0    1
 -2        17       177       176      1331      1332      1327
 -1       189    8    0    1
 -2        18        19       178      1146      1333      1334
 -1       190    8    0    1
 -2        18       178       177      1334      1335      1330
 -1       191    8    0    1
 -2        19        20       179      1147      1336      1337
 -1       192    8    0    1
 -2        19       179       178      1337      1338      1333
 -1       193    8    0    1
 -2        20        21       180      1148      1339      1340
 -1       194    8    0    1
 -2        20       180       179      1340      1341      1336
 -1       195    8    0    1
 -2        21        22       181      1149      1342      1343
 -1       196    8    0    1
 -2        21       181       180      1343      1344      1339
 -1       197    8    0    1
 -2        22         5       182      1150      1345      1346
 -1       198    8    0    1
 -2       181        22       182      1342      1346      1347
 -1       199    8    0    1
 -2         5        74       182      1203      1348      1345
 -1       200    8    0    1
 -2        24        23       183      1152      1349      1350
 -1       201    8    0    1
 -2        25        24       184      1153      1351      1352
 -1       202    8    0    1
 -2        24       183       184      1350      1353      1351
 -1       203    8    0    1
 -2        26        25       185      1154      1354      1355
 -1       204    8    0    1
 -2        25       184       185      1352      1356      1354
 -1       205    8    0    1
 -2        27        26       186      1155      1357      1358
 -1       206    8    0    1
 -2        26       185       186      1355      1359      1357
 -1       207    8    0    1
 -2        28        27       187      1156      1360      1361
 -1       208    8    0    1
 -2        27       186       187      1358      1362      1360
 -1       209    8    0    1
 -2        29        28       188      1157      1363      1364
 -1       210    8    0    1
 -2        28       187       188      1361      1365      1363
 -1       211    8    0    1
 -2        30        29       189      1158      1366      1367
 -1       212    8    0    1
 -2        29       188       189      1364      1368      1366
 -1       213    8    0    1
 -2        31        30       190      1159      1369      1370
 -1       214    8    0    1
 -2        30       189       190      1367      1371      1369
 -1       215    8    0    1
 -2        32        31       191      1160      1372      1373
 -1       216    8    0    1
 -2        31       190       191      1370      1374      1372
 -1       217    8    0    1
 -2        33        32       192      1161      1375      1376
 -1       218    8    0    1
 -2        32       191       192      1373      1377      1375
 -1       219    8    0    1
 -2        34        33       193      1162      1378      1379
 -1       220    8    0    1
 -2        33       192       193      1376      1380      1378
 -1       221    8    0    1
 -2        35        34       194      1163      1381      1382
 -1       222    8    0    1
 -2        34       193       194      1379      1383      1381
 -1       223    8    0    1
 -2        36        35       195      1164      1384      1385
 -1       224    8    0    1
 -2        35       194       195      1382      1386      1384
 -1       225    8    0    1
 -2        37        36       196      1165      1387      1388
 -1       226    8    0    1
 -2        36       195       196      1385      1389      1387
 -1       227    8    0    1
 -2        39        38       197      1167      1390      1391
 -1       228    8    0    1
 -2        40        39       198      1168      1392      1393
 -1       229    8    0    1
 -2        39       197       198      1391      1394      1392
 -1       230    8    0    1
 -2        41        40       199      1169      1395      1396
 -1       231    8    0    1
 -2        40       198       199      1393      1397      1395
 -1       232    8    0    1
 -2        42        41       200      1170      1398      1399
 -1       233    8    0    1
 -2        41       199       200      1396      1400      1398
 -1       234    8    0    1
 -2        43        42       201      1171      1401      1402
 -1       235    8    0    1
 -2        42       200       201      1399      1403      1401
 -1       236    8    0    1
 -2        44        43       202      1172      1404      1405
 -1       237    8    0    1
 -2        43       201       202      1402      1406      1404
 -1       238    8    0    1
 -2        45        44       203      1173      1407      1408
 -1       239    8    0    1
 -2        44       202       203      1405      1409      1407
 -1       240    8    0    1
 -2        46        45       204      1174      1410      1411
 -1       241    8    0    1
 -2        45       203       204      1408      1412      1410
 -1       242    8    0    1
 -2        47        46       205      1175      1413      1414
 -1       243    8    0    1
 -2        46       204       205      1411      1415      1413
 -1       244    8    0    1
 -2        48        47       206      1176      1416      1417
 -1       245    8    0    1
 -2        47       205       206      1414      1418      1416
 -1       246    8    0    1
 -2        49        48       207      1177      1419      1420
 -1       247    8    0    1
 -2        48       206       207      1417      1421      1419
 -1       248    8    0    1
 -2        50        49       208      1178      1422      1423
 -1       249    8    0    1
 -2        49       207       208      1420      1424      1422
 -1       250    8    0    1
 -2        51        50       209      1179      1425      1426
 -1       251    8    0    1
 -2        50       208       209      1423      1427      1425
 -1       252    8    0    1
 -2        52        51       210      1180      1428      1429
 -1       253    8    0    1
 -2        51       209       210      1426      1430      1428
 -1       254    8    0    1
 -2        53        52       211      1181      1431      1432
 -1       255    8    0    1
 -2        52       210       211      1429      1433      1431
 -1       256    8    0    1
 -2        54        53       212      1182      1434      1435
 -1       257    8    0    1
 -2        53       211       212      1432      1436      1434
 -1       258    8    0    1
 -2        55        54       213      1183      1437      1438
 -1       259    8    0    1
 -2        54       212       213      1435      1439      1437
 -1       260    8    0    1
 -2        56        55       214      1184      1440      1441
 -1       261    8    0    1
 -2        55       213       214      1438      1442      1440
 -1       262    8    0    1
 -2        57        56       215      1185      1443      1444
 -1       263    8    0    1
 -2        56       214       215      1441      1445      1443
 -1       264    8    0    1
 -2        58        57       216      1186      1446      1447
 -1       265    8    0    1
 -2        57       215       216      1444      1448      1446
 -1       266    8    0    1
 -2        59        58       217      1187      1449      1450
 -1       267    8    0    1
 -2        58       216       217      1447      1451      1449
 -1       268    8    0    1
 -2        60        59       218      1188      1452      1453
 -1       269    8    0    1
 -2        59       217       218      1450      1454      1452
 -1       270    8    0    1
 -2        61        60       219      1189      1455      1456
 -1       271    8    0    1
 -2        60       218       219      1453      1457      1455
 -1       272    8    0    1
 -2        62        61       220      1190      1458      1459
 -1       273    8    0    1
 -2        61       219       220      1456      1460      1458
 -1       274    8    0    1
 -2        63        62       221      1191      1461      1462
 -1       275    8    0    1
 -2        62       220       221      1459      1463      1461
 -1       276    8    0    1
 -2        64        63       222      1192      1464      1465
 -1       277    8    0    1
 -2        63       221       222      1462      1466      1464
 -1       278    8    0    1
 -2        65        64       223      1193      1467      1468
 -1       279    8    0    1
 -2        64       222       223      1465      1469      1467
 -1       280    8    0    1
 -2        66        65       224      1194      1470      1471
 -1       281    8    0    1
 -2        65       223       224      1468      1472      1470
 -1       282    8    0    1
 -2        67        66       225      1195      1473      1474
 -1       283    8    0    1
 -2        66       224       225      1471      1475      1473
 -1       284    8    0    1
 -2        68        67       226      1196      1476      1477
 -1       285    8    0    1
 -2        67       225       226      1474      1478      1476
 -1       286    8    0    1
 -2        69        68       227      1197      1479      1480
 -1       287    8    0    1
 -2        68       226       227      1477      1481      1479
 -1       288    8    0    1
 -2        70        69       228      1198      1482      1483
 -1       289    8    0    1
 -2        69       227       228      1480      1484      1482
 -1       290    8    0    1
 -2        71        70       229      1199      1485      1486
 -1       291    8    0    1
 -2        70       228       229      1483      1487      1485
 -1       292    8    0    1
 -2        72        71       230      1200      1488      1489
 -1       293    8    0    1
 -2        71       229       230      1486      1490      1488
 -1       294    8    0    1
 -2        73        72       231      1201      1491      1492
 -1       295    8    0    1
 -2        72       230       231      1489      1493      1491
 -1       296    8    0    1
 -2         4        73       232      1202      1494      1495
 -1       297    8    0    1
 -2       138         4       232      1269      1495      1496
 -1       298    8    0    1
 -2        73       231       232      1492      1497      1494
 -1       299    8    0    1
 -2        74        75       233      1204      1498      1499
 -1       300    8    0    1
 -2        74       233       182      1499      1500      1348
 -1       301    8    0    1
 -2        75        76       234      1205      1501      1502
 -1       302    8    0    1
 -2        75       234       233      1502      1503      1498
 -1       303    8    0    1
 -2        76        77       235      1206      1504      1505
 -1       304    8    0    1
 -2        76       235       234      1505      1506      1501
 -1       305    8    0    1
 -2        77        78       236      1207      1507      1508
 -1       306    8    0    1
 -2        77       236       235      1508      1509      1504
 -1       307    8    0    1
 -2        78        79       237      1208      1510      1511
 -1       308    8    0    1
 -2        78       237       236      1511      1512      1507
 -1       309    8    0    1
 -2        79        80       238      1209      1513      1514
 -1       310    8    0    1
 -2        79       238       237      1514      1515      1510
 -1       311    8    0    1
 -2        80        81       239      1210      1516      1517
 -1       312    8    0    1
 -2        80       239       238      1517      1518      1513
 -1       313    8    0    1
 -2        81        82       240      1211      1519      1520
 -1       314    8    0    1
 -2        81       240       239      1520      1521      1516
 -1       315    8    0    1
 -2        82        83       241      1212      1522      1523
 -1       316    8    0    1
 -2        82       241       240      1523      1524      1519
 -1       317    8    0    1
 -2        83        84       242      1213      1525      1526
 -1       318    8    0    1
 -2        83       242       241      1526      1527      1522
 -1       319    8    0    1
 -2        84        85       243      1214      1528      1529
 -1       320    8    0    1
 -2        84       243       242      1529      1530      1525
 -1       321    8    0    1
 -2        85        86       244      1215      1531      1532
 -1       322    8    0    1
 -2        85       244       243      1532      1533      1528
 -1       323    8    0    1
 -2        86        87       245      1216      1534      1535
 -1       324    8    0    1
 -2        86       245       244      1535      1536      1531
 -1       325    8    0    1
 -2        87        88       246      1217      1537      1538
 -1       326    8    0    1
 -2        87       246       245      1538      1539      1534
 -1       327    8    0    1
 -2        88        89       247      1218      1540      1541
 -1       328    8    0    1
 -2        88       247       246      1541      1542      1537
 -1       329    8    0    1
 -2        89        90       248      1219      1543      1544
 -1       330    8    0    1
 -2        89       248       247      1544      1545      1540
 -1       331    8    0    1
 -2        90        91       249      1220      1546      1547
 -1       332    8    0    1
 -2        90       249       248      1547      1548      1543
 -1       333    8    0    1
 -2        91        92       250      1221      1549      1550
 -1       334    8    0    1
 -2        91       250       249      1550      1551      1546
 -1       335    8    0    1
 -2        92        93       251      1222      1552      1553
 -1       336    8    0    1
 -2        92       251       250      1553      1554      1549
 -1       337    8    0    1
 -2        93        94       252      1223      1555      1556
 -1       338    8    0    1
 -2        93       252       251      1556      1557      1552
 -1       339    8    0    1
 -2        94        95       253      1224      1558      1559
 -1       340    8    0    1
 -2        94       253       252      1559      1560      1555
 -1       341    8    0    1
 -2        95        96       254      1225      1561      1562
 -1       342    8    0    1
 -2        95       254       253      1562      1563      1558
 -1       343    8    0    1
 -2        96        97       255      1226      1564      1565
 -1       344    8    0    1
 -2        96       255       254      1565      1566      1561
 -1       345    8    0    1
 -2        97        98       256      1227      1567      1568
 -1       346    8    0    1
 -2        97       256       255      1568      1569      1564
 -1       347    8    0    1
 -2        98        99       257      1228      1570      1571
 -1       348    8    0    1
 -2        98       257       256      1571      1572      1567
 -1       349    8    0    1
 -2        99       100       258      1229      1573      1574
 -1       350    8    0    1
 -2        99       258       257      1574      1575      1570
 -1       351    8    0    1
 -2       100       101       259      1230      1576      1577
 -1       352    8    0    1
 -2       100       259       258      1577      1578      1573
 -1       353    8    0    1
 -2       101       102       260      1231      1579      1580
 -1       354    8    0    1
 -2       101       260       259      1580      1581      1576
 -1       355    8    0    1
 -2       102       103       261      1232      1582      1583
 -1       356    8    0    1
 -2       102       261       260      1583      1584      1579
 -1       357    8    0    1
 -2       103       104       262      1233      1585      1586
 -1       358    8    0    1
 -2       103       262       261      1586      1587      1582
 -1       359    8    0    1
 -2       104       105       263      1234      1588      1589
 -1       360    8    0    1
 -2       104       263       262      1589      1590      1585
 -1       361    8    0    1
 -2       105       106       264      1235      1591      1592
 -1       362    8    0    1
 -2       105       264       263      1592      1593      1588
 -1       363    8    0    1
 -2       106       107       265      1236      1594      1595
 -1       364    8    0    1
 -2       106       265       264      1595      1596      1591
 -1       365    8    0    1
 -2       107       108       266      1237      1597      1598
 -1       366    8    0    1
 -2       107       266       265      1598      1599      1594
 -1       367    8    0    1
 -2       108       109       267      1238      1600      1601
 -1       368    8    0    1
 -2       108       267       266      1601      1602      1597
 -1       369    8    0    1
 -2       109       110       268      1239      1603      1604
 -1       370    8    0    1
 -2       109       268       267      1604      1605      1600
 -1       371    8    0    1
 -2       110       111       269      1240      1606      1607
 -1       372    8    0    1
 -2       110       269       268      1607      1608      1603
 -1       373    8    0    1
 -2       111       112       270      1241      1609      1610
 -1       374    8    0    1
 -2       111       270       269      1610      1611      1606
 -1       375    8    0    1
 -2       112       113       271      1242      1612      1613
 -1       376    8    0    1
 -2       112       271       270      1613      1614      1609
 -1       377    8    0    1
 -2       113       114       272      1243      1615      1616
 -1       378    8    0    1
 -2       113       272       271      1616      1617      1612
 -1       379    8    0    1
 -2       114       115       273      1244      1618      1619
 -1       380    8    0    1
 -2       114       273       272      1619      1620      1615
 -1       381    8    0    1
 -2       115       116       274      1245      1621      1622
 -1       382    8    0    1
 -2       115       274       273      1622      1623      1618
 -1       383    8    0    1
 -2       116       117       275      1246      1624      1625
 -1       384    8    0    1
 -2       116       275       274      1625      1626      1621
 -1       385    8    0    1
 -2       117       118       276      1247      1627      1628
 -1       386    8    0    1
 -2       117       276       275      1628      1629      1624
 -1       387    8    0    1
 -2       118       119       277      1248      1630      1631
 -1       388    8    0    1
 -2       118       277       276      1631      1632      1627
 -1       389    8    0    1
 -2       119       120       278      1249      1633      1634
 -1       390    8    0    1
 -2       119       278       277      1634      1635      1630
 -1       391    8    0    1
 -2       120       121       279      1250      1636      1637
 -1       392    8    0    1
 -2       120       279       278      1637      1638      1633
 -1       393    8    0    1
 -2       121       122       280      1251      1639      1640
 -1       394    8    0    1
 -2       121       280       279      1640      1641      1636
 -1       395    8    0    1
 -2       122         3       123      1252      1253      1642
 -1       396    8    0    1
 -2       123       124       281      1254      1643      1644
 -1       397    8    0    1
 -2       124       125       282      1255      1645      1646
 -1       398    8    0    1
 -2       124       282       281      1646      1647      1643
 -1       399    8    0    1
 -2       125       126       283      1256      1648      1649
 -1       400    8    0    1
 -2       125       283       282      1649      1650      1645
 -1       401    8    0    1
 -2       126       127       284      1257      1651      1652
 -1       402    8    0    1
 -2       126       284       283      1652      1653      1648
 -1       403    8    0    1
 -2       127       128       285      1258      1654      1655
 -1       404    8    0    1
 -2       127       285       284      1655      1656      1651
 -1       405    8    0    1
 -2       128       129       286      1259      1657      1658
 -1       406    8    0    1
 -2       128       286       285      1658      1659      1654
 -1       407    8    0    1
 -2       129       130       287      1260      1660      1661
 -1       408    8    0    1
 -2       129       287       286      1661      1662      1657
 -1       409    8    0    1
 -2       130       131       288      1261      1663      1664
 -1       410    8    0    1
 -2       130       288       287      1664      1665      1660
 -1       411    8    0    1
 -2       131       132       289      1262      1666      1667
 -1       412    8    0    1
 -2       131       289       288      1667      1668      1663
 -1       413    8    0    1
 -2       132       133       290      1263      1669      1670
 -1       414    8    0    1
 -2       132       290       289      1670      1671      1666
 -1       415    8    0    1
 -2       133       134       291      1264      1672      1673
 -1       416    8    0    1
 -2       133       291       290      1673      1674      1669
 -1       417    8    0    1
 -2       134       135       292      1265      1675      1676
 -1       418    8    0    1
 -2       134       292       291      1676      1677      1672
 -1       419    8    0    1
 -2       135       136       293      1266      1678      1679
 -1       420    8    0    1
 -2       135       293       292      1679      1680      1675
 -1       421    8    0    1
 -2       136       137       294      1267      1681      1682
 -1       422    8    0    1
 -2       136       294       293      1682      1683      1678
 -1       423    8    0    1
 -2       137       138       295      1268      1684      1685
 -1       424    8    0    1
 -2       294       137       295      1681      1685      1686
 -1       425    8    0    1
 -2       138       232       295      1496      1687      1684
 -1       426    8    0    1
 -2         2       139       296      1270      1688      1689
 -1       427    8    0    1
 -2       139       140       297      1271      1690      1691
 -1       428    8    0    1
 -2       140       141       298      1272      1692      1693
 -1       429    8    0    1
 -2       141       142       299      1273      1694      1695
 -1       430    8    0    1
 -2       142       143       300      1274      1696      1697
 -1       431    8    0    1
 -2       143       144       301      1275      1698      1699
 -1       432    8    0    1
 -2       144       145       302      1276      1700      1701
 -1       433    8    0    1
 -2       145       146       303      1277      1702      1703
 -1       434    8    0    1
 -2       146       147       304      1278      1704      1705
 -1       435    8    0    1
 -2       147       148       305      1279      1706      1707
 -1       436    8    0    1
 -2       148       149       306      1280      1708      1709
 -1       437    8    0    1
 -2       149       150       307      1281      1710      1711
 -1       438    8    0    1
 -2       150       151       308      1282      1712      1713
 -1       439    8    0    1
 -2       151       152       309      1283      1714      1715
 -1       440    8    0    1
 -2       152       153       310      1284      1716      1717
 -1       441    8    0    1
 -2       153       154       311      1285      1718      1719
 -1       442    8    0    1
 -2       154         1       312      1286      1720      1721
 -1       443    8    0    1
 -2         1       155       313      1287      1722      1723
 -1       444    8    0    1
 -2       155       156       314      1288      1724      1725
 -1       445    8    0    1
 -2       156       157       315      1289      1726      1727
 -1       446    8    0    1
 -2       157       158       316      1290      1728      1729
 -1       447    8    0    1
 -2       158       159       317      1291      1730      1731
 -1       448    8    0    1
 -2       159       160       318      1292      1732      1733
 -1       449    8    0    1
 -2       160       161       319      1293      1734      1735
 -1       450    8    0    1
 -2       161       162       320      1294      1736      1737
 -1       451    8    0    1
 -2       162       163       321      1295      1738      1739
 -1       452    8    0    1
 -2       163       164       322      1296      1740      1741
 -1       453    8    0    1
 -2       164       165       323      1297      1742      1743
 -1       454    8    0    1
 -2       165       166       324      1298      1744      1745
 -1       455    8    0    1
 -2       166         2       325      1299      1746      1747
 -1       456    8    0    1
 -2        38        37       326      1166      1748      1749
 -1       457    8    0    1
 -2         2       296       325      1689      1750      1746
 -1       458    8    0    1
 -2       298       141       299      1692      1695      1751
 -1       459    8    0    1
 -2       122       123       280      1642      1752      1639
 -1       460    8    0    1
 -2       123       281       280      1644      1753      1752
 -1       461    8    0    1
 -2       296       139       297      1688      1691      1754
 -1       462    8    0    1
 -2       297       140       298      1690      1693      1755
 -1       463    8    0    1
 -2       142       300       299      1697      1756      1694
 -1       464    8    0    1
 -2       143       301       300      1699      1757      1696
 -1       465    8    0    1
 -2       144       302       301      1701      1758      1698
 -1       466    8    0    1
 -2       145       303       302      1703      1759      1700
 -1       467    8    0    1
 -2       146       304       303      1705      1760      1702
 -1       468    8    0    1
 -2       147       305       304      1707      1761      1704
 -1       469    8    0    1
 -2       148       306       305      1709      1762      1706
 -1       470    8    0    1
 -2       149       307       306      1711      1763      1708
 -1       471    8    0    1
 -2       150       308       307      1713      1764      1710
 -1       472    8    0    1
 -2       151       309       308      1715      1765      1712
 -1       473    8    0    1
 -2       152       310       309      1717      1766      1714
 -1       474    8    0    1
 -2       153       311       310      1719      1767      1716
 -1       475    8    0    1
 -2       154       312       311      1721      1768      1718
 -1       476    8    0    1
 -2         1       313       312      1723      1769      1720
 -1       477    8    0    1
 -2       155       314       313      1725      1770      1722
 -1       478    8    0    1
 -2       156       315       314      1727      1771      1724
 -1       479    8    0    1
 -2       157       316       315      1729      1772      1726
 -1       480    8    0    1
 -2       158       317       316      1731      1773      1728
 -1       481    8    0    1
 -2       159       318       317      1733      1774      1730
 -1       482    8    0    1
 -2       160       319       318      1735      1775      1732
 -1       483    8    0    1
 -2       161       320       319      1737      1776      1734
 -1       484    8    0    1
 -2       162       321       320      1739      1777      1736
 -1       485    8    0    1
 -2       163       322       321      1741      1778      1738
 -1       486    8    0    1
 -2       164       323       322      1743      1779      1740
 -1       487    8    0    1
 -2       165       324       323      1745      1780      1742
 -1       488    8    0    1
 -2       166       325       324      1747      1781      1744
 -1       489    8    0    1
 -2        38       326       197      1749      1782      1390
 -1       490    8    0    1
 -2        23         7       167      1300      1302      1783
 -1       491    8    0    1
 -2       326        37       196      1748      1388      1784
 -1       492    8    0    1
 -2       168       169       327      1308      1785      1786
 -1       493    8    0    1
 -2       167       168       328      1305      1787      1788
 -1       494    8    0    1
 -2       168       327       328      1786      1789      1787
 -1       495    8    0    1
 -2       170       171       329      1314      1790      1791
 -1       496    8    0    1
 -2       171       172       330      1317      1792      1793
 -1       497    8    0    1
 -2       171       330       329      1793      1794      1790
 -1       498    8    0    1
 -2       172       173       331      1320      1795      1796
 -1       499    8    0    1
 -2       172       331       330      1796      1797      1792
 -1       500    8    0    1
 -2       173       174       332      1323      1798      1799
 -1       501    8    0    1
 -2       173       332       331      1799      1800      1795
 -1       502    8    0    1
 -2       174       175       333      1326      1801      1802
 -1       503    8    0    1
 -2       174       333       332      1802      1803      1798
 -1       504    8    0    1
 -2       175       176       334      1329      1804      1805
 -1       505    8    0    1
 -2       175       334       333      1805      1806      1801
 -1       506    8    0    1
 -2       176       177       335      1332      1807      1808
 -1       507    8    0    1
 -2       176       335       334      1808      1809      1804
 -1       508    8    0    1
 -2       177       178       336      1335      1810      1811
 -1       509    8    0    1
 -2       177       336       335      1811      1812      1807
 -1       510    8    0    1
 -2       178       179       337      1338      1813      1814
 -1       511    8    0    1
 -2       178       337       336      1814      1815      1810
 -1       512    8    0    1
 -2       179       180       338      1341      1816      1817
 -1       513    8    0    1
 -2       179       338       337      1817      1818      1813
 -1       514    8    0    1
 -2       180       181       339      1344      1819      1820
 -1       515    8    0    1
 -2       180       339       338      1820      1821      1816
 -1       516    8    0    1
 -2       181       182       340      1347      1822      1823
 -1       517    8    0    1
 -2       339       181       340      1819      1823      1824
 -1       518    8    0    1
 -2       182       233       340      1500      1825      1822
 -1       519    8    0    1
 -2       183        23       167      1349      1783      1826
 -1       520    8    0    1
 -2       233       234       341      1503      1827      1828
 -1       521    8    0    1
 -2       233       341       340      1828      1829      1825
 -1       522    8    0    1
 -2       326       196       342      1784      1830      1831
 -1       523    8    0    1
 -2       185       184       343      1356      1832      1833
 -1       524    8    0    1
 -2       186       185       344      1359      1834      1835
 -1       525    8    0    1
 -2       185       343       344      1833      1836      1834
 -1       526    8    0    1
 -2       187       186       345      1362      1837      1838
 -1       527    8    0    1
 -2       186       344       345      1835      1839      1837
 -1       528    8    0    1
 -2       188       187       346      1365      1840      1841
 -1       529    8    0    1
 -2       187       345       346      1838      1842      1840
 -1       530    8    0    1
 -2       189       188       347      1368      1843      1844
 -1       531    8    0    1
 -2       188       346       347      1841      1845      1843
 -1       532    8    0    1
 -2       190       189       348      1371      1846      1847
 -1       533    8    0    1
 -2       189       347       348      1844      1848      1846
 -1       534    8    0    1
 -2       191       190       349      1374      1849      1850
 -1       535    8    0    1
 -2       190       348       349      1847      1851      1849
 -1       536    8    0    1
 -2       192       191       350      1377      1852      1853
 -1       537    8    0    1
 -2       191       349       350      1850      1854      1852
 -1       538    8    0    1
 -2       193       192       351      1380      1855      1856
 -1       539    8    0    1
 -2       192       350       351      1853      1857      1855
 -1       540    8    0    1
 -2       194       193       352      1383      1858      1859
 -1       541    8    0    1
 -2       193       351       352      1856      1860      1858
 -1       542    8    0    1
 -2       195       194       353      1386      1861      1862
 -1       543    8    0    1
 -2       194       352       353      1859      1863      1861
 -1       544    8    0    1
 -2       196       195       354      1389      1864      1865
 -1       545    8    0    1
 -2       195       353       354      1862      1866      1864
 -1       546    8    0    1
 -2       325       296       355      1750      1867      1868
 -1       547    8    0    1
 -2       200       199       356      1400      1869      1870
 -1       548    8    0    1
 -2       201       200       357      1403      1871      1872
 -1       549    8    0    1
 -2       202       201       358      1406      1873      1874
 -1       550    8    0    1
 -2       201       357       358      1872      1875      1873
 -1       551    8    0    1
 -2       203       202       359      1409      1876      1877
 -1       552    8    0    1
 -2       202       358       359      1874      1878      1876
 -1       553    8    0    1
 -2       204       203       360      1412      1879      1880
 -1       554    8    0    1
 -2       203       359       360      1877      1881      1879
 -1       555    8    0    1
 -2       205       204       361      1415      1882      1883
 -1       556    8    0    1
 -2       204       360       361      1880      1884      1882
 -1       557    8    0    1
 -2       206       205       362      1418      1885      1886
 -1       558    8    0    1
 -2       205       361       362      1883      1887      1885
 -1       559    8    0    1
 -2       207       206       363      1421      1888      1889
 -1       560    8    0    1
 -2       206       362       363      1886      1890      1888
 -1       561    8    0    1
 -2       208       207       364      1424      1891      1892
 -1       562    8    0    1
 -2       207       363       364      1889      1893      1891
 -1       563    8    0    1
 -2       209       208       365      1427      1894      1895
 -1       564    8    0    1
 -2       208       364       365      1892      1896      1894
 -1       565    8    0    1
 -2       210       209       366      1430      1897      1898
 -1       566    8    0    1
 -2       209       365       366      1895      1899      1897
 -1       567    8    0    1
 -2       211       210       367      1433      1900      1901
 -1       568    8    0    1
 -2       210       366       367      1898      1902      1900
 -1       569    8    0    1
 -2       212       211       368      1436      1903      1904
 -1       570    8    0    1
 -2       211       367       368      1901      1905      1903
 -1       571    8    0    1
 -2       213       212       369      1439      1906      1907
 -1       572    8    0    1
 -2       212       368       369      1904      1908      1906
 -1       573    8    0    1
 -2       214       213       370      1442      1909      1910
 -1       574    8    0    1
 -2       213       369       370      1907      1911      1909
 -1       575    8    0    1
 -2       215       214       371      1445      1912      1913
 -1       576    8    0    1
 -2       214       370       371      1910      1914      1912
 -1       577    8    0    1
 -2       216       215       372      1448      1915      1916
 -1       578    8    0    1
 -2       215       371       372      1913      1917      1915
 -1       579    8    0    1
 -2       217       216       373      1451      1918      1919
 -1       580    8    0    1
 -2       216       372       373      1916      1920      1918
 -1       581    8    0    1
 -2       218       217       374      1454      1921      1922
 -1       582    8    0    1
 -2       217       373       374      1919      1923      1921
 -1       583    8    0    1
 -2       219       218       375      1457      1924      1925
 -1       584    8    0    1
 -2       218       374       375      1922      1926      1924
 -1       585    8    0    1
 -2       220       219       376      1460      1927      1928
 -1       586    8    0    1
 -2       219       375       376      1925      1929      1927
 -1       587    8    0    1
 -2       221       220       377      1463      1930      1931
 -1       588    8    0    1
 -2       220       376       377      1928      1932      1930
 -1       589    8    0    1
 -2       222       221       378      1466      1933      1934
 -1       590    8    0    1
 -2       221       377       378      1931      1935      1933
 -1       591    8    0    1
 -2       223       222       379      1469      1936      1937
 -1       592    8    0    1
 -2       222       378       379      1934      1938      1936
 -1       593    8    0    1
 -2       224       223       380      1472      1939      1940
 -1       594    8    0    1
 -2       223       379       380      1937      1941      1939
 -1       595    8    0    1
 -2       225       224       381      1475      1942      1943
 -1       596    8    0    1
 -2       224       380       381      1940      1944      1942
 -1       597    8    0    1
 -2       226       225       382      1478      1945      1946
 -1       598    8    0    1
 -2       225       381       382      1943      1947      1945
 -1       599    8    0    1
 -2       227       226       383      1481      1948      1949
 -1       600    8    0    1
 -2       226       382       383      1946      1950      1948
 -1       601    8    0    1
 -2       228       227       384      1484      1951      1952
 -1       602    8    0    1
 -2       227       383       384      1949      1953      1951
 -1       603    8    0    1
 -2       229       228       385      1487      1954      1955
 -1       604    8    0    1
 -2       228       384       385      1952      1956      1954
 -1       605    8    0    1
 -2       230       229       386      1490      1957      1958
 -1       606    8    0    1
 -2       229       385       386      1955      1959      1957
 -1       607    8    0    1
 -2       231       230       387      1493      1960      1961
 -1       608    8    0    1
 -2       230       386       387      1958      1962      1960
 -1       609    8    0    1
 -2       232       231       388      1497      1963      1964
 -1       610    8    0    1
 -2       295       232       388      1687      1964      1965
 -1       611    8    0    1
 -2       231       387       388      1961      1966      1963
 -1       612    8    0    1
 -2       183       167       328      1826      1788      1967
 -1       613    8    0    1
 -2       235       236       389      1509      1968      1969
 -1       614    8    0    1
 -2       236       237       390      1512      1970      1971
 -1       615    8    0    1
 -2       236       390       389      1971      1972      1968
 -1       616    8    0    1
 -2       237       238       391      1515      1973      1974
 -1       617    8    0    1
 -2       237       391       390      1974      1975      1970
 -1       618    8    0    1
 -2       238       239       392      1518      1976      1977
 -1       619    8    0    1
 -2       238       392       391      1977      1978      1973
 -1       620    8    0    1
 -2       239       240       393      1521      1979      1980
 -1       621    8    0    1
 -2       239       393       392      1980      1981      1976
 -1       622    8    0    1
 -2       240       241       394      1524      1982      1983
 -1       623    8    0    1
 -2       240       394       393      1983      1984      1979
 -1       624    8    0    1
 -2       241       242       395      1527      1985      1986
 -1       625    8    0    1
 -2       241       395       394      1986      1987      1982
 -1       626    8    0    1
 -2       242       243       396      1530      1988      1989
 -1       627    8    0    1
 -2       242       396       395      1989      1990      1985
 -1       628    8    0    1
 -2       243       244       397      1533      1991      1992
 -1       629    8    0    1
 -2       243       397       396      1992      1993      1988
 -1       630    8    0    1
 -2       244       245       398      1536      1994      1995
 -1       631    8    0    1
 -2       244       398       397      1995      1996      1991
 -1       632    8    0    1
 -2       245       246       399      1539      1997      1998
 -1       633    8    0    1
 -2       245       399       398      1998      1999      1994
 -1       634    8    0    1
 -2       246       247       400      1542      2000      2001
 -1       635    8    0    1
 -2       246       400       399      2001      2002      1997
 -1       636    8    0    1
 -2       247       248       401      1545      2003      2004
 -1       637    8    0    1
 -2       247       401       400      2004      2005      2000
 -1       638    8    0    1
 -2       248       249       402      1548      2006      2007
 -1       639    8    0    1
 -2       248       402       401      2007      2008      2003
 -1       640    8    0    1
 -2       249       250       403      1551      2009      2010
 -1       641    8    0    1
 -2       249       403       402      2010      2011      2006
 -1       642    8    0    1
 -2       250       251       404      1554      2012      2013
 -1       643    8    0    1
 -2       250       404       403      2013      2014      2009
 -1       644    8    0    1
 -2       251       252       405      1557      2015      2016
 -1       645    8    0    1
 -2       251       405       404      2016      2017      2012
 -1       646    8    0    1
 -2       252       253       406      1560      2018      2019
 -1       647    8    0    1
 -2       252       406       405      2019      2020      2015
 -1       648    8    0    1
 -2       253       254       407      1563      2021      2022
 -1       649    8    0    1
 -2       253       407       406      2022      2023      2018
 -1       650    8    0    1
 -2       254       255       408      1566      2024      2025
 -1       651    8    0    1
 -2       254       408       407      2025      2026      2021
 -1       652    8    0    1
 -2       255       256       409      1569      2027      2028
 -1       653    8    0    1
 -2       255       409       408      2028      2029      2024
 -1       654    8    0    1
 -2       256       257       410      1572      2030      2031
 -1       655    8    0    1
 -2       256       410       409      2031      2032      2027
 -1       656    8    0    1
 -2       257       258       411      1575      2033      2034
 -1       657    8    0    1
 -2       257       411       410      2034      2035      2030
 -1       658    8    0    1
 -2       258       259       412      1578      2036      2037
 -1       659    8    0    1
 -2       258       412       411      2037      2038      2033
 -1       660    8    0    1
 -2       259       260       413      1581      2039      2040
 -1       661    8    0    1
 -2       259       413       412      2040      2041      2036
 -1       662    8    0    1
 -2       260       261       414      1584      2042      2043
 -1       663    8    0    1
 -2       260       414       413      2043      2044      2039
 -1       664    8    0    1
 -2       261       262       415      1587      2045      2046
 -1       665    8    0    1
 -2       261       415       414      2046      2047      2042
 -1       666    8    0    1
 -2       262       263       416      1590      2048      2049
 -1       667    8    0    1
 -2       262       416       415      2049      2050      2045
 -1       668    8    0    1
 -2       263       264       417      1593      2051      2052
 -1       669    8    0    1
 -2       263       417       416      2052      2053      2048
 -1       670    8    0    1
 -2       264       265       418      1596      2054      2055
 -1       671    8    0    1
 -2       264       418       417      2055      2056      2051
 -1       672    8    0    1
 -2       265       266       419      1599      2057      2058
 -1       673    8    0    1
 -2       265       419       418      2058      2059      2054
 -1       674    8    0    1
 -2       266       267       420      1602      2060      2061
 -1       675    8    0    1
 -2       266       420       419      2061      2062      2057
 -1       676    8    0    1
 -2       267       268       421      1605      2063      2064
 -1       677    8    0    1
 -2       267       421       420      2064      2065      2060
 -1       678    8    0    1
 -2       268       269       422      1608      2066      2067
 -1       679    8    0    1
 -2       268       422       421      2067      2068      2063
 -1       680    8    0    1
 -2       269       270       423      1611      2069      2070
 -1       681    8    0    1
 -2       269       423       422      2070      2071      2066
 -1       682    8    0    1
 -2       270       271       424      1614      2072      2073
 -1       683    8    0    1
 -2       270       424       423      2073      2074      2069
 -1       684    8    0    1
 -2       271       272       425      1617      2075      2076
 -1       685    8    0    1
 -2       271       425       424      2076      2077      2072
 -1       686    8    0    1
 -2       272       273       426      1620      2078      2079
 -1       687    8    0    1
 -2       272       426       425      2079      2080      2075
 -1       688    8    0    1
 -2       273       274       427      1623      2081      2082
 -1       689    8    0    1
 -2       273       427       426      2082      2083      2078
 -1       690    8    0    1
 -2       274       275       428      1626      2084      2085
 -1       691    8    0    1
 -2       274       428       427      2085      2086      2081
 -1       692    8    0    1
 -2       275       276       429      1629      2087      2088
 -1       693    8    0    1
 -2       275       429       428      2088      2089      2084
 -1       694    8    0    1
 -2       276       277       430      1632      2090      2091
 -1       695    8    0    1
 -2       276       430       429      2091      2092      2087
 -1       696    8    0    1
 -2       277       278       431      1635      2093      2094
 -1       697    8    0    1
 -2       277       431       430      2094      2095      2090
 -1       698    8    0    1
 -2       278       279       432      1638      2096      2097
 -1       699    8    0    1
 -2       278       432       431      2097      2098      2093
 -1       700    8    0    1
 -2       279       280       433      1641      2099      2100
 -1       701    8    0    1
 -2       432       279       433      2096      2100      2101
 -1       702    8    0    1
 -2       280       281       433      1753      2102      2099
 -1       703    8    0    1
 -2       283       284       434      1653      2103      2104
 -1       704    8    0    1
 -2       282       283       435      1650      2105      2106
 -1       705    8    0    1
 -2       283       434       435      2104      2107      2105
 -1       706    8    0    1
 -2       281       282       433      1647      2108      2102
 -1       707    8    0    1
 -2       284       285       436      1656      2109      2110
 -1       708    8    0    1
 -2       284       436       434      2110      2111      2103
 -1       709    8    0    1
 -2       285       286       437      1659      2112      2113
 -1       710    8    0    1
 -2       285       437       436      2113      2114      2109
 -1       711    8    0    1
 -2       286       287       438      1662      2115      2116
 -1       712    8    0    1
 -2       286       438       437      2116      2117      2112
 -1       713    8    0    1
 -2       287       288       439      1665      2118      2119
 -1       714    8    0    1
 -2       287       439       438      2119      2120      2115
 -1       715    8    0    1
 -2       288       289       440      1668      2121      2122
 -1       716    8    0    1
 -2       288       440       439      2122      2123      2118
 -1       717    8    0    1
 -2       289       290       441      1671      2124      2125
 -1       718    8    0    1
 -2       289       441       440      2125      2126      2121
 -1       719    8    0    1
 -2       290       291       442      1674      2127      2128
 -1       720    8    0    1
 -2       290       442       441      2128      2129      2124
 -1       721    8    0    1
 -2       291       292       443      1677      2130      2131
 -1       722    8    0    1
 -2       291       443       442      2131      2132      2127
 -1       723    8    0    1
 -2       292       293       444      1680      2133      2134
 -1       724    8    0    1
 -2       292       444       443      2134      2135      2130
 -1       725    8    0    1
 -2       293       294       445      1683      2136      2137
 -1       726    8    0    1
 -2       293       445       444      2137      2138      2133
 -1       727    8    0    1
 -2       234       235       446      1506      2139      2140
 -1       728    8    0    1
 -2       341       234       446      1827      2140      2141
 -1       729    8    0    1
 -2       235       389       446      1969      2142      2139
 -1       730    8    0    1
 -2       297       298       447      1755      2143      2144
 -1       731    8    0    1
 -2       299       300       448      1756      2145      2146
 -1       732    8    0    1
 -2       296       297       449      1754      2147      2148
 -1       733    8    0    1
 -2       169       170       450      1311      2149      2150
 -1       734    8    0    1
 -2       327       169       450      1785      2150      2151
 -1       735    8    0    1
 -2       170       329       450      1791      2152      2149
 -1       736    8    0    1
 -2       300       301       451      1757      2153      2154
 -1       737    8    0    1
 -2       300       451       448      2154      2155      2145
 -1       738    8    0    1
 -2       301       302       452      1758      2156      2157
 -1       739    8    0    1
 -2       302       303       453      1759      2158      2159
 -1       740    8    0    1
 -2       303       304       454      1760      2160      2161
 -1       741    8    0    1
 -2       304       305       455      1761      2162      2163
 -1       742    8    0    1
 -2       305       306       456      1762      2164      2165
 -1       743    8    0    1
 -2       305       456       455      2165      2166      2162
 -1       744    8    0    1
 -2       306       307       457      1763      2167      2168
 -1       745    8    0    1
 -2       307       308       458      1764      2169      2170
 -1       746    8    0    1
 -2       307       458       457      2170      2171      2167
 -1       747    8    0    1
 -2       308       309       459      1765      2172      2173
 -1       748    8    0    1
 -2       309       310       460      1766      2174      2175
 -1       749    8    0    1
 -2       309       460       459      2175      2176      2172
 -1       750    8    0    1
 -2       310       311       461      1767      2177      2178
 -1       751    8    0    1
 -2       311       312       462      1768      2179      2180
 -1       752    8    0    1
 -2       311       462       461      2180      2181      2177
 -1       753    8    0    1
 -2       312       313       463      1769      2182      2183
 -1       754    8    0    1
 -2       313       314       464      1770      2184      2185
 -1       755    8    0    1
 -2       313       464       463      2185      2186      2182
 -1       756    8    0    1
 -2       314       315       465      1771      2187      2188
 -1       757    8    0    1
 -2       314       465       464      2188      2189      2184
 -1       758    8    0    1
 -2       315       316       342      1772      2190      2191
 -1       759    8    0    1
 -2       316       317       466      1773      2192      2193
 -1       760    8    0    1
 -2       319       320       356      1776      2194      2195
 -1       761    8    0    1
 -2       320       321       357      1777      2196      2197
 -1       762    8    0    1
 -2       322       323       467      1779      2198      2199
 -1       763    8    0    1
 -2       323       324       468      1780      2200      2201
 -1       764    8    0    1
 -2       324       325       469      1781      2202      2203
 -1       765    8    0    1
 -2       197       326       466      1782      2204      2205
 -1       766    8    0    1
 -2       298       299       470      1751      2206      2207
 -1       767    8    0    1
 -2       299       448       470      2146      2208      2206
 -1       768    8    0    1
 -2       297       447       449      2144      2209      2147
 -1       769    8    0    1
 -2       343       184       328      1832      2210      2211
 -1       770    8    0    1
 -2       326       342       466      1831      2212      2204
 -1       771    8    0    1
 -2       447       298       470      2143      2207      2213
 -1       772    8    0    1
 -2       184       183       328      1353      1967      2210
 -1       773    8    0    1
 -2       325       355       469      1868      2214      2202
 -1       774    8    0    1
 -2       355       296       449      1867      2148      2215
 -1       775    8    0    1
 -2       199       198       471      1397      2216      2217
 -1       776    8    0    1
 -2       433       282       435      2108      2106      2218
 -1       777    8    0    1
 -2       294       295       472      1686      2219      2220
 -1       778    8    0    1
 -2       445       294       472      2136      2220      2221
 -1       779    8    0    1
 -2       295       388       472      1965      2222      2219
 -1       780    8    0    1
 -2       301       452       451      2157      2223      2153
 -1       781    8    0    1
 -2       468       324       469      2200      2203      2224
 -1       782    8    0    1
 -2       467       323       468      2198      2201      2225
 -1       783    8    0    1
 -2       357       321       473      2196      2226      2227
 -1       784    8    0    1
 -2       358       357       473      1875      2227      2228
 -1       785    8    0    1
 -2       321       322       473      1778      2229      2226
 -1       786    8    0    1
 -2       466       317       474      2192      2230      2231
 -1       787    8    0    1
 -2       197       466       474      2205      2231      2232
 -1       788    8    0    1
 -2       317       318       474      1774      2233      2230
 -1       789    8    0    1
 -2       315       342       465      2191      2234      2187
 -1       790    8    0    1
 -2       462       312       463      2179      2183      2235
 -1       791    8    0    1
 -2       460       310       461      2174      2178      2236
 -1       792    8    0    1
 -2       458       308       475      2169      2237      2238
 -1       793    8    0    1
 -2       308       459       475      2173      2239      2237
 -1       794    8    0    1
 -2       456       306       457      2164      2168      2240
 -1       795    8    0    1
 -2       454       304       455      2160      2163      2241
 -1       796    8    0    1
 -2       474       318       471      2233      2242      2243
 -1       797    8    0    1
 -2       453       303       454      2158      2161      2244
 -1       798    8    0    1
 -2       198       197       474      1394      2232      2245
 -1       799    8    0    1
 -2       452       302       453      2156      2159      2246
 -1       800    8    0    1
 -2       198       474       471      2245      2243      2216
 -1       801    8    0    1
 -2       342       316       466      2190      2193      2212
 -1       802    8    0    1
 -2       318       319       471      1775      2247      2242
 -1       803    8    0    1
 -2       322       467       473      2199      2248      2229
 -1       804    8    0    1
 -2       471       319       356      2247      2195      2249
 -1       805    8    0    1
 -2       469       355       476      2214      2250      2251
 -1       806    8    0    1
 -2       330       331       477      1797      2252      2253
 -1       807    8    0    1
 -2       329       330       478      1794      2254      2255
 -1       808    8    0    1
 -2       330       477       478      2253      2256      2254
 -1       809    8    0    1
 -2       332       333       479      1803      2257      2258
 -1       810    8    0    1
 -2       333       334       480      1806      2259      2260
 -1       811    8    0    1
 -2       333       480       479      2260      2261      2257
 -1       812    8    0    1
 -2       334       335       481      1809      2262      2263
 -1       813    8    0    1
 -2       334       481       480      2263      2264      2259
 -1       814    8    0    1
 -2       335       336       482      1812      2265      2266
 -1       815    8    0    1
 -2       335       482       481      2266      2267      2262
 -1       816    8    0    1
 -2       336       337       483      1815      2268      2269
 -1       817    8    0    1
 -2       336       483       482      2269      2270      2265
 -1       818    8    0    1
 -2       337       338       484      1818      2271      2272
 -1       819    8    0    1
 -2       337       484       483      2272      2273      2268
 -1       820    8    0    1
 -2       338       339       485      1821      2274      2275
 -1       821    8    0    1
 -2       338       485       484      2275      2276      2271
 -1       822    8    0    1
 -2       339       340       486      1824      2277      2278
 -1       823    8    0    1
 -2       485       339       486      2274      2278      2279
 -1       824    8    0    1
 -2       340       341       486      1829      2280      2277
 -1       825    8    0    1
 -2       344       343       487      1836      2281      2282
 -1       826    8    0    1
 -2       342       196       354      1830      1865      2283
 -1       827    8    0    1
 -2       448       451       488      2155      2284      2285
 -1       828    8    0    1
 -2       345       344       489      1839      2286      2287
 -1       829    8    0    1
 -2       344       487       489      2282      2288      2286
 -1       830    8    0    1
 -2       346       345       490      1842      2289      2290
 -1       831    8    0    1
 -2       345       489       490      2287      2291      2289
 -1       832    8    0    1
 -2       347       346       491      1845      2292      2293
 -1       833    8    0    1
 -2       346       490       491      2290      2294      2292
 -1       834    8    0    1
 -2       348       347       492      1848      2295      2296
 -1       835    8    0    1
 -2       347       491       492      2293      2297      2295
 -1       836    8    0    1
 -2       349       348       493      1851      2298      2299
 -1       837    8    0    1
 -2       348       492       493      2296      2300      2298
 -1       838    8    0    1
 -2       350       349       494      1854      2301      2302
 -1       839    8    0    1
 -2       349       493       494      2299      2303      2301
 -1       840    8    0    1
 -2       351       350       495      1857      2304      2305
 -1       841    8    0    1
 -2       350       494       495      2302      2306      2304
 -1       842    8    0    1
 -2       352       351       496      1860      2307      2308
 -1       843    8    0    1
 -2       351       495       496      2305      2309      2307
 -1       844    8    0    1
 -2       353       352       497      1863      2310      2311
 -1       845    8    0    1
 -2       352       496       497      2308      2312      2310
 -1       846    8    0    1
 -2       200       356       357      1870      2313      1871
 -1       847    8    0    1
 -2       433       435       432      2218      2314      2101
 -1       848    8    0    1
 -2       451       452       498      2223      2315      2316
 -1       849    8    0    1
 -2       451       498       488      2316      2317      2284
 -1       850    8    0    1
 -2       359       358       499      1878      2318      2319
 -1       851    8    0    1
 -2       360       359       500      1881      2320      2321
 -1       852    8    0    1
 -2       359       499       500      2319      2322      2320
 -1       853    8    0    1
 -2       361       360       501      1884      2323      2324
 -1       854    8    0    1
 -2       360       500       501      2321      2325      2323
 -1       855    8    0    1
 -2       362       361       502      1887      2326      2327
 -1       856    8    0    1
 -2       361       501       502      2324      2328      2326
 -1       857    8    0    1
 -2       363       362       503      1890      2329      2330
 -1       858    8    0    1
 -2       362       502       503      2327      2331      2329
 -1       859    8    0    1
 -2       364       363       504      1893      2332      2333
 -1       860    8    0    1
 -2       363       503       504      2330      2334      2332
 -1       861    8    0    1
 -2       365       364       505      1896      2335      2336
 -1       862    8    0    1
 -2       364       504       505      2333      2337      2335
 -1       863    8    0    1
 -2       366       365       506      1899      2338      2339
 -1       864    8    0    1
 -2       365       505       506      2336      2340      2338
 -1       865    8    0    1
 -2       367       366       507      1902      2341      2342
 -1       866    8    0    1
 -2       366       506       507      2339      2343      2341
 -1       867    8    0    1
 -2       368       367       508      1905      2344      2345
 -1       868    8    0    1
 -2       367       507       508      2342      2346      2344
 -1       869    8    0    1
 -2       369       368       509      1908      2347      2348
 -1       870    8    0    1
 -2       368       508       509      2345      2349      2347
 -1       871    8    0    1
 -2       370       369       510      1911      2350      2351
 -1       872    8    0    1
 -2       369       509       510      2348      2352      2350
 -1       873    8    0    1
 -2       371       370       511      1914      2353      2354
 -1       874    8    0    1
 -2       370       510       511      2351      2355      2353
 -1       875    8    0    1
 -2       372       371       512      1917      2356      2357
 -1       876    8    0    1
 -2       371       511       512      2354      2358      2356
 -1       877    8    0    1
 -2       373       372       513      1920      2359      2360
 -1       878    8    0    1
 -2       372       512       513      2357      2361      2359
 -1       879    8    0    1
 -2       374       373       514      1923      2362      2363
 -1       880    8    0    1
 -2       373       513       514      2360      2364      2362
 -1       881    8    0    1
 -2       375       374       515      1926      2365      2366
 -1       882    8    0    1
 -2       374       514       515      2363      2367      2365
 -1       883    8    0    1
 -2       376       375       516      1929      2368      2369
 -1       884    8    0    1
 -2       375       515       516      2366      2370      2368
 -1       885    8    0    1
 -2       377       376       517      1932      2371      2372
 -1       886    8    0    1
 -2       376       516       517      2369      2373      2371
 -1       887    8    0    1
 -2       378       377       518      1935      2374      2375
 -1       888    8    0    1
 -2       377       517       518      2372      2376      2374
 -1       889    8    0    1
 -2       379       378       519      1938      2377      2378
 -1       890    8    0    1
 -2       378       518       519      2375      2379      2377
 -1       891    8    0    1
 -2       380       379       520      1941      2380      2381
 -1       892    8    0    1
 -2       379       519       520      2378      2382      2380
 -1       893    8    0    1
 -2       381       380       521      1944      2383      2384
 -1       894    8    0    1
 -2       380       520       521      2381      2385      2383
 -1       895    8    0    1
 -2       382       381       522      1947      2386      2387
 -1       896    8    0    1
 -2       381       521       522      2384      2388      2386
 -1       897    8    0    1
 -2       383       382       523      1950      2389      2390
 -1       898    8    0    1
 -2       382       522       523      2387      2391      2389
 -1       899    8    0    1
 -2       384       383       524      1953      2392      2393
 -1       900    8    0    1
 -2       383       523       524      2390      2394      2392
 -1       901    8    0    1
 -2       385       384       525      1956      2395      2396
 -1       902    8    0    1
 -2       384       524       525      2393      2397      2395
 -1       903    8    0    1
 -2       386       385       526      1959      2398      2399
 -1       904    8    0    1
 -2       385       525       526      2396      2400      2398
 -1       905    8    0    1
 -2       390       391       527      1975      2401      2402
 -1       906    8    0    1
 -2       389       390       528      1972      2403      2404
 -1       907    8    0    1
 -2       390       527       528      2402      2405      2403
 -1       908    8    0    1
 -2       392       393       529      1981      2406      2407
 -1       909    8    0    1
 -2       393       394       530      1984      2408      2409
 -1       910    8    0    1
 -2       393       530       529      2409      2410      2406
 -1       911    8    0    1
 -2       394       395       531      1987      2411      2412
 -1       912    8    0    1
 -2       394       531       530      2412      2413      2408
 -1       913    8    0    1
 -2       395       396       532      1990      2414      2415
 -1       914    8    0    1
 -2       395       532       531      2415      2416      2411
 -1       915    8    0    1
 -2       396       397       533      1993      2417      2418
 -1       916    8    0    1
 -2       396       533       532      2418      2419      2414
 -1       917    8    0    1
 -2       397       398       534      1996      2420      2421
 -1       918    8    0    1
 -2       397       534       533      2421      2422      2417
 -1       919    8    0    1
 -2       398       399       535      1999      2423      2424
 -1       920    8    0    1
 -2       398       535       534      2424      2425      2420
 -1       921    8    0    1
 -2       399       400       536      2002      2426      2427
 -1       922    8    0    1
 -2       399       536       535      2427      2428      2423
 -1       923    8    0    1
 -2       400       401       537      2005      2429      2430
 -1       924    8    0    1
 -2       400       537       536      2430      2431      2426
 -1       925    8    0    1
 -2       401       402       538      2008      2432      2433
 -1       926    8    0    1
 -2       401       538       537      2433      2434      2429
 -1       927    8    0    1
 -2       402       403       539      2011      2435      2436
 -1       928    8    0    1
 -2       402       539       538      2436      2437      2432
 -1       929    8    0    1
 -2       403       404       540      2014      2438      2439
 -1       930    8    0    1
 -2       403       540       539      2439      2440      2435
 -1       931    8    0    1
 -2       404       405       541      2017      2441      2442
 -1       932    8    0    1
 -2       404       541       540      2442      2443      2438
 -1       933    8    0    1
 -2       405       406       542      2020      2444      2445
 -1       934    8    0    1
 -2       405       542       541      2445      2446      2441
 -1       935    8    0    1
 -2       406       407       543      2023      2447      2448
 -1       936    8    0    1
 -2       406       543       542      2448      2449      2444
 -1       937    8    0    1
 -2       407       408       544      2026      2450      2451
 -1       938    8    0    1
 -2       407       544       543      2451      2452      2447
 -1       939    8    0    1
 -2       408       409       545      2029      2453      2454
 -1       940    8    0    1
 -2       408       545       544      2454      2455      2450
 -1       941    8    0    1
 -2       409       410       546      2032      2456      2457
 -1       942    8    0    1
 -2       409       546       545      2457      2458      2453
 -1       943    8    0    1
 -2       410       411       547      2035      2459      2460
 -1       944    8    0    1
 -2       410       547       546      2460      2461      2456
 -1       945    8    0    1
 -2       411       412       548      2038      2462      2463
 -1       946    8    0    1
 -2       411       548       547      2463      2464      2459
 -1       947    8    0    1
 -2       412       413       549      2041      2465      2466
 -1       948    8    0    1
 -2       412       549       548      2466      2467      2462
 -1       949    8    0    1
 -2       413       414       550      2044      2468      2469
 -1       950    8    0    1
 -2       413       550       549      2469      2470      2465
 -1       951    8    0    1
 -2       414       415       551      2047      2471      2472
 -1       952    8    0    1
 -2       414       551       550      2472      2473      2468
 -1       953    8    0    1
 -2       415       416       552      2050      2474      2475
 -1       954    8    0    1
 -2       415       552       551      2475      2476      2471
 -1       955    8    0    1
 -2       416       417       553      2053      2477      2478
 -1       956    8    0    1
 -2       416       553       552      2478      2479      2474
 -1       957    8    0    1
 -2       417       418       554      2056      2480      2481
 -1       958    8    0    1
 -2       417       554       553      2481      2482      2477
 -1       959    8    0    1
 -2       418       419       555      2059      2483      2484
 -1       960    8    0    1
 -2       418       555       554      2484      2485      2480
 -1       961    8    0    1
 -2       419       420       556      2062      2486      2487
 -1       962    8    0    1
 -2       419       556       555      2487      2488      2483
 -1       963    8    0    1
 -2       420       421       557      2065      2489      2490
 -1       964    8    0    1
 -2       420       557       556      2490      2491      2486
 -1       965    8    0    1
 -2       421       422       558      2068      2492      2493
 -1       966    8    0    1
 -2       421       558       557      2493      2494      2489
 -1       967    8    0    1
 -2       422       423       559      2071      2495      2496
 -1       968    8    0    1
 -2       422       559       558      2496      2497      2492
 -1       969    8    0    1
 -2       423       424       560      2074      2498      2499
 -1       970    8    0    1
 -2       423       560       559      2499      2500      2495
 -1       971    8    0    1
 -2       424       425       561      2077      2501      2502
 -1       972    8    0    1
 -2       424       561       560      2502      2503      2498
 -1       973    8    0    1
 -2       425       426       562      2080      2504      2505
 -1       974    8    0    1
 -2       425       562       561      2505      2506      2501
 -1       975    8    0    1
 -2       426       427       563      2083      2507      2508
 -1       976    8    0    1
 -2       426       563       562      2508      2509      2504
 -1       977    8    0    1
 -2       427       428       564      2086      2510      2511
 -1       978    8    0    1
 -2       427       564       563      2511      2512      2507
 -1       979    8    0    1
 -2       428       429       565      2089      2513      2514
 -1       980    8    0    1
 -2       428       565       564      2514      2515      2510
 -1       981    8    0    1
 -2       429       430       566      2092      2516      2517
 -1       982    8    0    1
 -2       429       566       565      2517      2518      2513
 -1       983    8    0    1
 -2       430       431       567      2095      2519      2520
 -1       984    8    0    1
 -2       430       567       566      2520      2521      2516
 -1       985    8    0    1
 -2       431       432       568      2098      2522      2523
 -1       986    8    0    1
 -2       431       568       567      2523      2524      2519
 -1       987    8    0    1
 -2       436       437       569      2114      2525      2526
 -1       988    8    0    1
 -2       434       436       570      2111      2527      2528
 -1       989    8    0    1
 -2       436       569       570      2526      2529      2527
 -1       990    8    0    1
 -2       435       434       571      2107      2530      2531
 -1       991    8    0    1
 -2       434       570       571      2528      2532      2530
 -1       992    8    0    1
 -2       343       328       572      2211      2533      2534
 -1       993    8    0    1
 -2       487       343       572      2281      2534      2535
 -1       994    8    0    1
 -2       328       327       572      1789      2536      2533
 -1       995    8    0    1
 -2       437       438       573      2117      2537      2538
 -1       996    8    0    1
 -2       437       573       569      2538      2539      2525
 -1       997    8    0    1
 -2       438       439       574      2120      2540      2541
 -1       998    8    0    1
 -2       438       574       573      2541      2542      2537
 -1       999    8    0    1
 -2       439       440       575      2123      2543      2544
 -1      1000    8    0    1
 -2       439       575       574      2544      2545      2540
 -1      1001    8    0    1
 -2       440       441       576      2126      2546      2547
 -1      1002    8    0    1
 -2       440       576       575      2547      2548      2543
 -1      1003    8    0    1
 -2       441       442       577      2129      2549      2550
 -1      1004    8    0    1
 -2       441       577       576      2550      2551      2546
 -1      1005    8    0    1
 -2       442       443       578      2132      2552      2553
 -1      1006    8    0    1
 -2       442       578       577      2553      2554      2549
 -1      1007    8    0    1
 -2       443       444       579      2135      2555      2556
 -1      1008    8    0    1
 -2       443       579       578      2556      2557      2552
 -1      1009    8    0    1
 -2       444       445       580      2138      2558      2559
 -1      1010    8    0    1
 -2       444       580       579      2559      2560      2555
 -1      1011    8    0    1
 -2       391       392       581      1978      2561      2562
 -1      1012    8    0    1
 -2       391       581       527      2562      2563      2401
 -1      1013    8    0    1
 -2       449       447       582      2209      2564      2565
 -1      1014    8    0    1
 -2       199       471       356      2217      2249      1869
 -1      1015    8    0    1
 -2       470       448       583      2208      2566      2567
 -1      1016    8    0    1
 -2       447       470       584      2213      2568      2569
 -1      1017    8    0    1
 -2       355       449       585      2215      2570      2571
 -1      1018    8    0    1
 -2       449       582       585      2565      2572      2570
 -1      1019    8    0    1
 -2       356       320       357      2194      2197      2313
 -1      1020    8    0    1
 -2       454       455       586      2241      2573      2574
 -1      1021    8    0    1
 -2       473       467       499      2248      2575      2576
 -1      1022    8    0    1
 -2       453       454       587      2244      2577      2578
 -1      1023    8    0    1
 -2       432       435       568      2314      2579      2522
 -1      1024    8    0    1
 -2       331       332       588      1800      2580      2581
 -1      1025    8    0    1
 -2       477       331       588      2252      2581      2582
 -1      1026    8    0    1
 -2       332       479       588      2258      2583      2580
 -1      1027    8    0    1
 -2       455       456       589      2166      2584      2585
 -1      1028    8    0    1
 -2       456       457       590      2240      2586      2587
 -1      1029    8    0    1
 -2       457       458       591      2171      2588      2589
 -1      1030    8    0    1
 -2       459       460       592      2176      2590      2591
 -1      1031    8    0    1
 -2       460       461       593      2236      2592      2593
 -1      1032    8    0    1
 -2       461       462       594      2181      2594      2595
 -1      1033    8    0    1
 -2       463       464       595      2186      2596      2597
 -1      1034    8    0    1
 -2       462       463       596      2235      2598      2599
 -1      1035    8    0    1
 -2       465       342       354      2234      2283      2600
 -1      1036    8    0    1
 -2       452       453       597      2246      2601      2602
 -1      1037    8    0    1
 -2       453       587       597      2578      2603      2601
 -1      1038    8    0    1
 -2       358       473       499      2228      2576      2318
 -1      1039    8    0    1
 -2       467       468       598      2225      2604      2605
 -1      1040    8    0    1
 -2       467       598       499      2605      2606      2575
 -1      1041    8    0    1
 -2       468       469       599      2224      2607      2608
 -1      1042    8    0    1
 -2       598       468       599      2604      2608      2609
 -1      1043    8    0    1
 -2       469       476       599      2251      2610      2607
 -1      1044    8    0    1
 -2       465       354       464      2600      2611      2189
 -1      1045    8    0    1
 -2       464       354       595      2611      2612      2596
 -1      1046    8    0    1
 -2       455       589       586      2585      2613      2573
 -1      1047    8    0    1
 -2       329       478       600      2255      2614      2615
 -1      1048    8    0    1
 -2       329       600       450      2615      2616      2152
 -1      1049    8    0    1
 -2       486       341       601      2280      2617      2618
 -1      1050    8    0    1
 -2       341       446       601      2141      2619      2617
 -1      1051    8    0    1
 -2       476       355       585      2250      2571      2620
 -1      1052    8    0    1
 -2       452       597       498      2602      2621      2315
 -1      1053    8    0    1
 -2       392       529       581      2407      2622      2561
 -1      1054    8    0    1
 -2       448       488       583      2285      2623      2566
 -1      1055    8    0    1
 -2       354       353       595      1866      2624      2612
 -1      1056    8    0    1
 -2       454       586       587      2574      2625      2577
 -1      1057    8    0    1
 -2       387       386       602      1962      2626      2627
 -1      1058    8    0    1
 -2       435       571       568      2531      2628      2579
 -1      1059    8    0    1
 -2       445       472       602      2221      2629      2630
 -1      1060    8    0    1
 -2       592       460       593      2590      2593      2631
 -1      1061    8    0    1
 -2       580       445       602      2558      2630      2632
 -1      1062    8    0    1
 -2       446       389       603      2142      2633      2634
 -1      1063    8    0    1
 -2       601       446       603      2619      2634      2635
 -1      1064    8    0    1
 -2       389       528       603      2404      2636      2633
 -1      1065    8    0    1
 -2       582       447       584      2564      2569      2637
 -1      1066    8    0    1
 -2       584       470       583      2568      2567      2638
 -1      1067    8    0    1
 -2       327       450       604      2151      2639      2640
 -1      1068    8    0    1
 -2       572       327       604      2536      2640      2641
 -1      1069    8    0    1
 -2       450       600       604      2616      2642      2639
 -1      1070    8    0    1
 -2       591       458       605      2588      2643      2644
 -1      1071    8    0    1
 -2       458       475       605      2238      2645      2643
 -1      1072    8    0    1
 -2       595       353       497      2624      2311      2646
 -1      1073    8    0    1
 -2       475       459       592      2239      2591      2647
 -1      1074    8    0    1
 -2       590       457       591      2586      2589      2648
 -1      1075    8    0    1
 -2       596       463       595      2598      2597      2649
 -1      1076    8    0    1
 -2       594       462       596      2594      2599      2650
 -1      1077    8    0    1
 -2       593       461       594      2592      2595      2651
 -1      1078    8    0    1
 -2       456       590       589      2587      2652      2584
 -1      1079    8    0    1
 -2       602       386       526      2626      2399      2653
 -1      1080    8    0    1
 -2       387       602       472      2627      2629      2654
 -1      1081    8    0    1
 -2       480       481       606      2264      2655      2656
 -1      1082    8    0    1
 -2       479       480       607      2261      2657      2658
 -1      1083    8    0    1
 -2       480       606       607      2656      2659      2657
 -1      1084    8    0    1
 -2       482       483       608      2270      2660      2661
 -1      1085    8    0    1
 -2       483       484       609      2273      2662      2663
 -1      1086    8    0    1
 -2       483       609       608      2663      2664      2660
 -1      1087    8    0    1
 -2       485       486       610      2279      2665      2666
 -1      1088    8    0    1
 -2       486       601       610      2618      2667      2665
 -1      1089    8    0    1
 -2       574       575       611      2545      2668      2669
 -1      1090    8    0    1
 -2       489       487       612      2288      2670      2671
 -1      1091    8    0    1
 -2       475       592       613      2647      2672      2673
 -1      1092    8    0    1
 -2       490       489       614      2291      2674      2675
 -1      1093    8    0    1
 -2       489       612       614      2671      2676      2674
 -1      1094    8    0    1
 -2       491       490       615      2294      2677      2678
 -1      1095    8    0    1
 -2       490       614       615      2675      2679      2677
 -1      1096    8    0    1
 -2       492       491       616      2297      2680      2681
 -1      1097    8    0    1
 -2       491       615       616      2678      2682      2680
 -1      1098    8    0    1
 -2       493       492       617      2300      2683      2684
 -1      1099    8    0    1
 -2       492       616       617      2681      2685      2683
 -1      1100    8    0    1
 -2       494       493       618      2303      2686      2687
 -1      1101    8    0    1
 -2       493       617       618      2684      2688      2686
 -1      1102    8    0    1
 -2       495       494       619      2306      2689      2690
 -1      1103    8    0    1
 -2       494       618       619      2687      2691      2689
 -1      1104    8    0    1
 -2       496       495       620      2309      2692      2693
 -1      1105    8    0    1
 -2       495       619       620      2690      2694      2692
 -1      1106    8    0    1
 -2       497       496       621      2312      2695      2696
 -1      1107    8    0    1
 -2       496       620       621      2693      2697      2695
 -1      1108    8    0    1
 -2       528       527       622      2405      2698      2699
 -1      1109    8    0    1
 -2       570       569       623      2529      2700      2701
 -1      1110    8    0    1
 -2       500       499       598      2322      2606      2702
 -1      1111    8    0    1
 -2       581       529       624      2622      2703      2704
 -1      1112    8    0    1
 -2       387       472       388      2654      2222      1966
 -1      1113    8    0    1
 -2       501       500       625      2325      2705      2706
 -1      1114    8    0    1
 -2       502       501       626      2328      2707      2708
 -1      1115    8    0    1
 -2       501       625       626      2706      2709      2707
 -1      1116    8    0    1
 -2       503       502       627      2331      2710      2711
 -1      1117    8    0    1
 -2       502       626       627      2708      2712      2710
 -1      1118    8    0    1
 -2       504       503       628      2334      2713      2714
 -1      1119    8    0    1
 -2       503       627       628      2711      2715      2713
 -1      1120    8    0    1
 -2       505       504       629      2337      2716      2717
 -1      1121    8    0    1
 -2       504       628       629      2714      2718      2716
 -1      1122    8    0    1
 -2       506       505       630      2340      2719      2720
 -1      1123    8    0    1
 -2       505       629       630      2717      2721      2719
 -1      1124    8    0    1
 -2       507       506       631      2343      2722      2723
 -1      1125    8    0    1
 -2       506       630       631      2720      2724      2722
 -1      1126    8    0    1
 -2       508       507       632      2346      2725      2726
 -1      1127    8    0    1
 -2       507       631       632      2723      2727      2725
 -1      1128    8    0    1
 -2       509       508       633      2349      2728      2729
 -1      1129    8    0    1
 -2       508       632       633      2726      2730      2728
 -1      1130    8    0    1
 -2       510       509       634      2352      2731      2732
 -1      1131    8    0    1
 -2       509       633       634      2729      2733      2731
 -1      1132    8    0    1
 -2       511       510       635      2355      2734      2735
 -1      1133    8    0    1
 -2       510       634       635      2732      2736      2734
 -1      1134    8    0    1
 -2       512       511       636      2358      2737      2738
 -1      1135    8    0    1
 -2       511       635       636      2735      2739      2737
 -1      1136    8    0    1
 -2       513       512       637      2361      2740      2741
 -1      1137    8    0    1
 -2       512       636       637      2738      2742      2740
 -1      1138    8    0    1
 -2       514       513       638      2364      2743      2744
 -1      1139    8    0    1
 -2       513       637       638      2741      2745      2743
 -1      1140    8    0    1
 -2       515       514       639      2367      2746      2747
 -1      1141    8    0    1
 -2       514       638       639      2744      2748      2746
 -1      1142    8    0    1
 -2       516       515       640      2370      2749      2750
 -1      1143    8    0    1
 -2       515       639       640      2747      2751      2749
 -1      1144    8    0    1
 -2       517       516       641      2373      2752      2753
 -1      1145    8    0    1
 -2       516       640       641      2750      2754      2752
 -1      1146    8    0    1
 -2       518       517       642      2376      2755      2756
 -1      1147    8    0    1
 -2       517       641       642      2753      2757      2755
 -1      1148    8    0    1
 -2       519       518       643      2379      2758      2759
 -1      1149    8    0    1
 -2       518       642       643      2756      2760      2758
 -1      1150    8    0    1
 -2       520       519       644      2382      2761      2762
 -1      1151    8    0    1
 -2       519       643       644      2759      2763      2761
 -1      1152    8    0    1
 -2       521       520       645      2385      2764      2765
 -1      1153    8    0    1
 -2       520       644       645      2762      2766      2764
 -1      1154    8    0    1
 -2       522       521       646      2388      2767      2768
 -1      1155    8    0    1
 -2       521       645       646      2765      2769      2767
 -1      1156    8    0    1
 -2       523       522       647      2391      2770      2771
 -1      1157    8    0    1
 -2       522       646       647      2768      2772      2770
 -1      1158    8    0    1
 -2       524       523       648      2394      2773      2774
 -1      1159    8    0    1
 -2       523       647       648      2771      2775      2773
 -1      1160    8    0    1
 -2       525       524       649      2397      2776      2777
 -1      1161    8    0    1
 -2       524       648       649      2774      2778      2776
 -1      1162    8    0    1
 -2       526       525       650      2400      2779      2780
 -1      1163    8    0    1
 -2       525       649       650      2777      2781      2779
 -1      1164    8    0    1
 -2       568       571       651      2628      2782      2783
 -1      1165    8    0    1
 -2       568       651       567      2783      2784      2524
 -1      1166    8    0    1
 -2       582       584       652      2637      2785      2786
 -1      1167    8    0    1
 -2       530       531       653      2413      2787      2788
 -1      1168    8    0    1
 -2       529       530       654      2410      2789      2790
 -1      1169    8    0    1
 -2       624       529       654      2703      2790      2791
 -1      1170    8    0    1
 -2       530       653       654      2788      2792      2789
 -1      1171    8    0    1
 -2       532       533       655      2419      2793      2794
 -1      1172    8    0    1
 -2       533       534       656      2422      2795      2796
 -1      1173    8    0    1
 -2       533       656       655      2796      2797      2793
 -1      1174    8    0    1
 -2       534       535       657      2425      2798      2799
 -1      1175    8    0    1
 -2       534       657       656      2799      2800      2795
 -1      1176    8    0    1
 -2       535       536       658      2428      2801      2802
 -1      1177    8    0    1
 -2       535       658       657      2802      2803      2798
 -1      1178    8    0    1
 -2       536       537       659      2431      2804      2805
 -1      1179    8    0    1
 -2       536       659       658      2805      2806      2801
 -1      1180    8    0    1
 -2       537       538       660      2434      2807      2808
 -1      1181    8    0    1
 -2       537       660       659      2808      2809      2804
 -1      1182    8    0    1
 -2       538       539       661      2437      2810      2811
 -1      1183    8    0    1
 -2       538       661       660      2811      2812      2807
 -1      1184    8    0    1
 -2       539       540       662      2440      2813      2814
 -1      1185    8    0    1
 -2       539       662       661      2814      2815      2810
 -1      1186    8    0    1
 -2       540       541       663      2443      2816      2817
 -1      1187    8    0    1
 -2       540       663       662      2817      2818      2813
 -1      1188    8    0    1
 -2       541       542       664      2446      2819      2820
 -1      1189    8    0    1
 -2       541       664       663      2820      2821      2816
 -1      1190    8    0    1
 -2       542       543       665      2449      2822      2823
 -1      1191    8    0    1
 -2       542       665       664      2823      2824      2819
 -1      1192    8    0    1
 -2       543       544       666      2452      2825      2826
 -1      1193    8    0    1
 -2       543       666       665      2826      2827      2822
 -1      1194    8    0    1
 -2       544       545       667      2455      2828      2829
 -1      1195    8    0    1
 -2       544       667       666      2829      2830      2825
 -1      1196    8    0    1
 -2       545       546       668      2458      2831      2832
 -1      1197    8    0    1
 -2       545       668       667      2832      2833      2828
 -1      1198    8    0    1
 -2       546       547       669      2461      2834      2835
 -1      1199    8    0    1
 -2       546       669       668      2835      2836      2831
 -1      1200    8    0    1
 -2       547       548       670      2464      2837      2838
 -1      1201    8    0    1
 -2       547       670       669      2838      2839      2834
 -1      1202    8    0    1
 -2       548       549       671      2467      2840      2841
 -1      1203    8    0    1
 -2       548       671       670      2841      2842      2837
 -1      1204    8    0    1
 -2       549       550       672      2470      2843      2844
 -1      1205    8    0    1
 -2       549       672       671      2844      2845      2840
 -1      1206    8    0    1
 -2       550       551       673      2473      2846      2847
 -1      1207    8    0    1
 -2       550       673       672      2847      2848      2843
 -1      1208    8    0    1
 -2       551       552       674      2476      2849      2850
 -1      1209    8    0    1
 -2       551       674       673      2850      2851      2846
 -1      1210    8    0    1
 -2       552       553       675      2479      2852      2853
 -1      1211    8    0    1
 -2       552       675       674      2853      2854      2849
 -1      1212    8    0    1
 -2       553       554       676      2482      2855      2856
 -1      1213    8    0    1
 -2       553       676       675      2856      2857      2852
 -1      1214    8    0    1
 -2       554       555       677      2485      2858      2859
 -1      1215    8    0    1
 -2       554       677       676      2859      2860      2855
 -1      1216    8    0    1
 -2       555       556       678      2488      2861      2862
 -1      1217    8    0    1
 -2       555       678       677      2862      2863      2858
 -1      1218    8    0    1
 -2       556       557       679      2491      2864      2865
 -1      1219    8    0    1
 -2       556       679       678      2865      2866      2861
 -1      1220    8    0    1
 -2       557       558       680      2494      2867      2868
 -1      1221    8    0    1
 -2       557       680       679      2868      2869      2864
 -1      1222    8    0    1
 -2       558       559       681      2497      2870      2871
 -1      1223    8    0    1
 -2       558       681       680      2871      2872      2867
 -1      1224    8    0    1
 -2       559       560       682      2500      2873      2874
 -1      1225    8    0    1
 -2       559       682       681      2874      2875      2870
 -1      1226    8    0    1
 -2       560       561       683      2503      2876      2877
 -1      1227    8    0    1
 -2       560       683       682      2877      2878      2873
 -1      1228    8    0    1
 -2       561       562       684      2506      2879      2880
 -1      1229    8    0    1
 -2       561       684       683      2880      2881      2876
 -1      1230    8    0    1
 -2       562       563       685      2509      2882      2883
 -1      1231    8    0    1
 -2       562       685       684      2883      2884      2879
 -1      1232    8    0    1
 -2       563       564       686      2512      2885      2886
 -1      1233    8    0    1
 -2       563       686       685      2886      2887      2882
 -1      1234    8    0    1
 -2       564       565       687      2515      2888      2889
 -1      1235    8    0    1
 -2       564       687       686      2889      2890      2885
 -1      1236    8    0    1
 -2       565       566       688      2518      2891      2892
 -1      1237    8    0    1
 -2       565       688       687      2892      2893      2888
 -1      1238    8    0    1
 -2       566       567       689      2521      2894      2895
 -1      1239    8    0    1
 -2       688       566       689      2891      2895      2896
 -1      1240    8    0    1
 -2       567       651       689      2784      2897      2894
 -1      1241    8    0    1
 -2       573       574       690      2542      2898      2899
 -1      1242    8    0    1
 -2       574       611       690      2669      2900      2898
 -1      1243    8    0    1
 -2       488       498       691      2317      2901      2902
 -1      1244    8    0    1
 -2       487       572       692      2535      2903      2904
 -1      1245    8    0    1
 -2       612       487       692      2670      2904      2905
 -1      1246    8    0    1
 -2       572       604       692      2641      2906      2903
 -1      1247    8    0    1
 -2       571       570       651      2532      2907      2782
 -1      1248    8    0    1
 -2       592       593       693      2631      2908      2909
 -1      1249    8    0    1
 -2       575       576       694      2548      2910      2911
 -1      1250    8    0    1
 -2       575       694       611      2911      2912      2668
 -1      1251    8    0    1
 -2       576       577       695      2551      2913      2914
 -1      1252    8    0    1
 -2       576       695       694      2914      2915      2910
 -1      1253    8    0    1
 -2       577       578       696      2554      2916      2917
 -1      1254    8    0    1
 -2       577       696       695      2917      2918      2913
 -1      1255    8    0    1
 -2       578       579       697      2557      2919      2920
 -1      1256    8    0    1
 -2       578       697       696      2920      2921      2916
 -1      1257    8    0    1
 -2       579       580       698      2560      2922      2923
 -1      1258    8    0    1
 -2       579       698       697      2923      2924      2919
 -1      1259    8    0    1
 -2       527       581       699      2563      2925      2926
 -1      1260    8    0    1
 -2       527       699       622      2926      2927      2698
 -1      1261    8    0    1
 -2       583       488       700      2623      2928      2929
 -1      1262    8    0    1
 -2       476       585       701      2620      2930      2931
 -1      1263    8    0    1
 -2       585       582       702      2572      2932      2933
 -1      1264    8    0    1
 -2       584       583       703      2638      2934      2935
 -1      1265    8    0    1
 -2       498       597       704      2621      2936      2937
 -1      1266    8    0    1
 -2       498       704       691      2937      2938      2901
 -1      1267    8    0    1
 -2       569       573       705      2539      2939      2940
 -1      1268    8    0    1
 -2       623       569       705      2700      2940      2941
 -1      1269    8    0    1
 -2       573       690       705      2899      2942      2939
 -1      1270    8    0    1
 -2       586       589       706      2613      2943      2944
 -1      1271    8    0    1
 -2       596       595       497      2649      2646      2945
 -1      1272    8    0    1
 -2       590       591       707      2648      2946      2947
 -1      1273    8    0    1
 -2       580       602       526      2632      2653      2948
 -1      1274    8    0    1
 -2       589       590       708      2652      2949      2950
 -1      1275    8    0    1
 -2       587       586       709      2625      2951      2952
 -1      1276    8    0    1
 -2       593       594       710      2651      2953      2954
 -1      1277    8    0    1
 -2       531       532       711      2416      2955      2956
 -1      1278    8    0    1
 -2       653       531       711      2787      2956      2957
 -1      1279    8    0    1
 -2       532       655       711      2794      2958      2955
 -1      1280    8    0    1
 -2       481       482       712      2267      2959      2960
 -1      1281    8    0    1
 -2       606       481       712      2655      2960      2961
 -1      1282    8    0    1
 -2       482       608       712      2661      2962      2959
 -1      1283    8    0    1
 -2       597       587       713      2603      2963      2964
 -1      1284    8    0    1
 -2       478       477       714      2256      2965      2966
 -1      1285    8    0    1
 -2       500       598       715      2702      2967      2968
 -1      1286    8    0    1
 -2       625       500       715      2705      2968      2969
 -1      1287    8    0    1
 -2       598       599       715      2609      2970      2967
 -1      1288    8    0    1
 -2       580       526       650      2948      2780      2971
 -1      1289    8    0    1
 -2       600       478       716      2614      2972      2973
 -1      1290    8    0    1
 -2       478       714       716      2966      2974      2972
 -1      1291    8    0    1
 -2       479       607       717      2658      2975      2976
 -1      1292    8    0    1
 -2       479       717       588      2976      2977      2583
 -1      1293    8    0    1
 -2       485       610       484      2666      2978      2276
 -1      1294    8    0    1
 -2       475       613       605      2673      2979      2645
 -1      1295    8    0    1
 -2       528       622       718      2699      2980      2981
 -1      1296    8    0    1
 -2       583       700       703      2929      2982      2934
 -1      1297    8    0    1
 -2       570       623       651      2701      2983      2907
 -1      1298    8    0    1
 -2       581       624       699      2704      2984      2925
 -1      1299    8    0    1
 -2       592       693       613      2909      2985      2672
 -1      1300    8    0    1
 -2       713       587       709      2963      2952      2986
 -1      1301    8    0    1
 -2       652       584       703      2785      2935      2987
 -1      1302    8    0    1
 -2       586       706       709      2944      2988      2951
 -1      1303    8    0    1
 -2       488       691       700      2902      2989      2928
 -1      1304    8    0    1
 -2       582       652       702      2786      2990      2932
 -1      1305    8    0    1
 -2       597       713       704      2964      2991      2936
 -1      1306    8    0    1
 -2       477       588       719      2582      2992      2993
 -1      1307    8    0    1
 -2       714       477       719      2965      2993      2994
 -1      1308    8    0    1
 -2       588       717       719      2977      2995      2992
 -1      1309    8    0    1
 -2       701       585       702      2930      2933      2996
 -1      1310    8    0    1
 -2       693       593       710      2908      2954      2997
 -1      1311    8    0    1
 -2       528       718       603      2981      2998      2636
 -1      1312    8    0    1
 -2       698       580       650      2922      2971      2999
 -1      1313    8    0    1
 -2       710       594       621      2953      3000      3001
 -1      1314    8    0    1
 -2       484       610       609      2978      3002      2662
 -1      1315    8    0    1
 -2       706       589       708      2943      2950      3003
 -1      1316    8    0    1
 -2       596       497       720      2945      3004      3005
 -1      1317    8    0    1
 -2       707       591       605      2946      2644      3006
 -1      1318    8    0    1
 -2       590       707       708      2947      3007      2949
 -1      1319    8    0    1
 -2       599       476       721      2610      3008      3009
 -1      1320    8    0    1
 -2       599       721       715      3009      3010      2970
 -1      1321    8    0    1
 -2       721       476       701      3008      2931      3011
 -1      1322    8    0    1
 -2       608       609       722      2664      3012      3013
 -1      1323    8    0    1
 -2       610       601       603      2667      2635      3014
 -1      1324    8    0    1
 -2       605       613       723      2979      3015      3016
 -1      1325    8    0    1
 -2       694       695       724      2915      3017      3018
 -1      1326    8    0    1
 -2       718       622       725      2980      3019      3020
 -1      1327    8    0    1
 -2       703       700       726      2982      3021      3022
 -1      1328    8    0    1
 -2       615       614       727      2679      3023      3024
 -1      1329    8    0    1
 -2       616       615       728      2682      3025      3026
 -1      1330    8    0    1
 -2       615       727       728      3024      3027      3025
 -1      1331    8    0    1
 -2       617       616       729      2685      3028      3029
 -1      1332    8    0    1
 -2       616       728       729      3026      3030      3028
 -1      1333    8    0    1
 -2       618       617       730      2688      3031      3032
 -1      1334    8    0    1
 -2       617       729       730      3029      3033      3031
 -1      1335    8    0    1
 -2       619       618       731      2691      3034      3035
 -1      1336    8    0    1
 -2       618       730       731      3032      3036      3034
 -1      1337    8    0    1
 -2       620       619       732      2694      3037      3038
 -1      1338    8    0    1
 -2       619       731       732      3035      3039      3037
 -1      1339    8    0    1
 -2       621       620       733      2697      3040      3041
 -1      1340    8    0    1
 -2       710       621       733      3001      3041      3042
 -1      1341    8    0    1
 -2       620       732       733      3038      3043      3040
 -1      1342    8    0    1
 -2       607       606       734      2659      3044      3045
 -1      1343    8    0    1
 -2       656       657       735      2800      3046      3047
 -1      1344    8    0    1
 -2       626       625       736      2709      3048      3049
 -1      1345    8    0    1
 -2       627       626       737      2712      3050      3051
 -1      1346    8    0    1
 -2       626       736       737      3049      3052      3050
 -1      1347    8    0    1
 -2       628       627       738      2715      3053      3054
 -1      1348    8    0    1
 -2       627       737       738      3051      3055      3053
 -1      1349    8    0    1
 -2       629       628       739      2718      3056      3057
 -1      1350    8    0    1
 -2       628       738       739      3054      3058      3056
 -1      1351    8    0    1
 -2       630       629       740      2721      3059      3060
 -1      1352    8    0    1
 -2       629       739       740      3057      3061      3059
 -1      1353    8    0    1
 -2       631       630       741      2724      3062      3063
 -1      1354    8    0    1
 -2       630       740       741      3060      3064      3062
 -1      1355    8    0    1
 -2       632       631       742      2727      3065      3066
 -1      1356    8    0    1
 -2       631       741       742      3063      3067      3065
 -1      1357    8    0    1
 -2       633       632       743      2730      3068      3069
 -1      1358    8    0    1
 -2       632       742       743      3066      3070      3068
 -1      1359    8    0    1
 -2       634       633       744      2733      3071      3072
 -1      1360    8    0    1
 -2       633       743       744      3069      3073      3071
 -1      1361    8    0    1
 -2       635       634       745      2736      3074      3075
 -1      1362    8    0    1
 -2       634       744       745      3072      3076      3074
 -1      1363    8    0    1
 -2       636       635       746      2739      3077      3078
 -1      1364    8    0    1
 -2       635       745       746      3075      3079      3077
 -1      1365    8    0    1
 -2       637       636       747      2742      3080      3081
 -1      1366    8    0    1
 -2       636       746       747      3078      3082      3080
 -1      1367    8    0    1
 -2       638       637       748      2745      3083      3084
 -1      1368    8    0    1
 -2       637       747       748      3081      3085      3083
 -1      1369    8    0    1
 -2       639       638       749      2748      3086      3087
 -1      1370    8    0    1
 -2       638       748       749      3084      3088      3086
 -1      1371    8    0    1
 -2       640       639       750      2751      3089      3090
 -1      1372    8    0    1
 -2       639       749       750      3087      3091      3089
 -1      1373    8    0    1
 -2       641       640       751      2754      3092      3093
 -1      1374    8    0    1
 -2       640       750       751      3090      3094      3092
 -1      1375    8    0    1
 -2       642       641       752      2757      3095      3096
 -1      1376    8    0    1
 -2       641       751       752      3093      3097      3095
 -1      1377    8    0    1
 -2       643       642       753      2760      3098      3099
 -1      1378    8    0    1
 -2       642       752       753      3096      3100      3098
 -1      1379    8    0    1
 -2       644       643       754      2763      3101      3102
 -1      1380    8    0    1
 -2       643       753       754      3099      3103      3101
 -1      1381    8    0    1
 -2       645       644       755      2766      3104      3105
 -1      1382    8    0    1
 -2       644       754       755      3102      3106      3104
 -1      1383    8    0    1
 -2       646       645       756      2769      3107      3108
 -1      1384    8    0    1
 -2       645       755       756      3105      3109      3107
 -1      1385    8    0    1
 -2       647       646       757      2772      3110      3111
 -1      1386    8    0    1
 -2       646       756       757      3108      3112      3110
 -1      1387    8    0    1
 -2       648       647       758      2775      3113      3114
 -1      1388    8    0    1
 -2       647       757       758      3111      3115      3113
 -1      1389    8    0    1
 -2       649       648       759      2778      3116      3117
 -1      1390    8    0    1
 -2       648       758       759      3114      3118      3116
 -1      1391    8    0    1
 -2       650       649       760      2781      3119      3120
 -1      1392    8    0    1
 -2       698       650       760      2999      3120      3121
 -1      1393    8    0    1
 -2       649       759       760      3117      3122      3119
 -1      1394    8    0    1
 -2       657       658       761      2803      3123      3124
 -1      1395    8    0    1
 -2       657       761       735      3124      3125      3046
 -1      1396    8    0    1
 -2       655       656       762      2797      3126      3127
 -1      1397    8    0    1
 -2       656       735       762      3047      3128      3126
 -1      1398    8    0    1
 -2       658       659       763      2806      3129      3130
 -1      1399    8    0    1
 -2       658       763       761      3130      3131      3123
 -1      1400    8    0    1
 -2       659       660       764      2809      3132      3133
 -1      1401    8    0    1
 -2       659       764       763      3133      3134      3129
 -1      1402    8    0    1
 -2       660       661       765      2812      3135      3136
 -1      1403    8    0    1
 -2       660       765       764      3136      3137      3132
 -1      1404    8    0    1
 -2       661       662       766      2815      3138      3139
 -1      1405    8    0    1
 -2       661       766       765      3139      3140      3135
 -1      1406    8    0    1
 -2       662       663       767      2818      3141      3142
 -1      1407    8    0    1
 -2       662       767       766      3142      3143      3138
 -1      1408    8    0    1
 -2       663       664       768      2821      3144      3145
 -1      1409    8    0    1
 -2       663       768       767      3145      3146      3141
 -1      1410    8    0    1
 -2       664       665       769      2824      3147      3148
 -1      1411    8    0    1
 -2       664       769       768      3148      3149      3144
 -1      1412    8    0    1
 -2       665       666       770      2827      3150      3151
 -1      1413    8    0    1
 -2       665       770       769      3151      3152      3147
 -1      1414    8    0    1
 -2       666       667       771      2830      3153      3154
 -1      1415    8    0    1
 -2       666       771       770      3154      3155      3150
 -1      1416    8    0    1
 -2       667       668       772      2833      3156      3157
 -1      1417    8    0    1
 -2       667       772       771      3157      3158      3153
 -1      1418    8    0    1
 -2       668       669       773      2836      3159      3160
 -1      1419    8    0    1
 -2       668       773       772      3160      3161      3156
 -1      1420    8    0    1
 -2       669       670       774      2839      3162      3163
 -1      1421    8    0    1
 -2       669       774       773      3163      3164      3159
 -1      1422    8    0    1
 -2       670       671       775      2842      3165      3166
 -1      1423    8    0    1
 -2       670       775       774      3166      3167      3162
 -1      1424    8    0    1
 -2       671       672       776      2845      3168      3169
 -1      1425    8    0    1
 -2       671       776       775      3169      3170      3165
 -1      1426    8    0    1
 -2       672       673       777      2848      3171      3172
 -1      1427    8    0    1
 -2       672       777       776      3172      3173      3168
 -1      1428    8    0    1
 -2       673       674       778      2851      3174      3175
 -1      1429    8    0    1
 -2       673       778       777      3175      3176      3171
 -1      1430    8    0    1
 -2       674       675       779      2854      3177      3178
 -1      1431    8    0    1
 -2       674       779       778      3178      3179      3174
 -1      1432    8    0    1
 -2       675       676       780      2857      3180      3181
 -1      1433    8    0    1
 -2       675       780       779      3181      3182      3177
 -1      1434    8    0    1
 -2       676       677       781      2860      3183      3184
 -1      1435    8    0    1
 -2       676       781       780      3184      3185      3180
 -1      1436    8    0    1
 -2       677       678       782      2863      3186      3187
 -1      1437    8    0    1
 -2       677       782       781      3187      3188      3183
 -1      1438    8    0    1
 -2       678       679       783      2866      3189      3190
 -1      1439    8    0    1
 -2       678       783       782      3190      3191      3186
 -1      1440    8    0    1
 -2       679       680       784      2869      3192      3193
 -1      1441    8    0    1
 -2       679       784       783      3193      3194      3189
 -1      1442    8    0    1
 -2       680       681       785      2872      3195      3196
 -1      1443    8    0    1
 -2       680       785       784      3196      3197      3192
 -1      1444    8    0    1
 -2       681       682       786      2875      3198      3199
 -1      1445    8    0    1
 -2       681       786       785      3199      3200      3195
 -1      1446    8    0    1
 -2       682       683       787      2878      3201      3202
 -1      1447    8    0    1
 -2       682       787       786      3202      3203      3198
 -1      1448    8    0    1
 -2       683       684       788      2881      3204      3205
 -1      1449    8    0    1
 -2       683       788       787      3205      3206      3201
 -1      1450    8    0    1
 -2       684       685       789      2884      3207      3208
 -1      1451    8    0    1
 -2       684       789       788      3208      3209      3204
 -1      1452    8    0    1
 -2       685       686       790      2887      3210      3211
 -1      1453    8    0    1
 -2       685       790       789      3211      3212      3207
 -1      1454    8    0    1
 -2       686       687       791      2890      3213      3214
 -1      1455    8    0    1
 -2       686       791       790      3214      3215      3210
 -1      1456    8    0    1
 -2       687       688       792      2893      3216      3217
 -1      1457    8    0    1
 -2       687       792       791      3217      3218      3213
 -1      1458    8    0    1
 -2       690       611       793      2900      3219      3220
 -1      1459    8    0    1
 -2       611       694       794      2912      3221      3222
 -1      1460    8    0    1
 -2       793       611       794      3219      3222      3223
 -1      1461    8    0    1
 -2       694       724       794      3018      3224      3221
 -1      1462    8    0    1
 -2       696       697       795      2921      3225      3226
 -1      1463    8    0    1
 -2       697       698       796      2924      3227      3228
 -1      1464    8    0    1
 -2       795       697       796      3225      3228      3229
 -1      1465    8    0    1
 -2       698       760       796      3121      3230      3227
 -1      1466    8    0    1
 -2       622       699       797      2927      3231      3232
 -1      1467    8    0    1
 -2       622       797       725      3232      3233      3019
 -1      1468    8    0    1
 -2       613       693       798      2985      3234      3235
 -1      1469    8    0    1
 -2       702       652       799      2990      3236      3237
 -1      1470    8    0    1
 -2       693       710       800      2997      3238      3239
 -1      1471    8    0    1
 -2       798       693       800      3234      3239      3240
 -1      1472    8    0    1
 -2       710       733       800      3042      3241      3238
 -1      1473    8    0    1
 -2       609       610       718      3002      3242      3243
 -1      1474    8    0    1
 -2       709       706       801      2988      3244      3245
 -1      1475    8    0    1
 -2       604       600       802      2642      3246      3247
 -1      1476    8    0    1
 -2       692       604       802      2906      3247      3248
 -1      1477    8    0    1
 -2       600       716       802      2973      3249      3246
 -1      1478    8    0    1
 -2       691       704       803      2938      3250      3251
 -1      1479    8    0    1
 -2       651       623       804      2983      3252      3253
 -1      1480    8    0    1
 -2       651       804       689      3253      3254      2897
 -1      1481    8    0    1
 -2       704       713       805      2991      3255      3256
 -1      1482    8    0    1
 -2       704       805       803      3256      3257      3250
 -1      1483    8    0    1
 -2       699       624       806      2984      3258      3259
 -1      1484    8    0    1
 -2       699       806       797      3259      3260      3231
 -1      1485    8    0    1
 -2       700       691       807      2989      3261      3262
 -1      1486    8    0    1
 -2       614       612       808      2676      3263      3264
 -1      1487    8    0    1
 -2       614       808       727      3264      3265      3023
 -1      1488    8    0    1
 -2       707       605       723      3006      3016      3266
 -1      1489    8    0    1
 -2       713       709       809      2986      3267      3268
 -1      1490    8    0    1
 -2       713       809       805      3268      3269      3255
 -1      1491    8    0    1
 -2       695       696       810      2918      3270      3271
 -1      1492    8    0    1
 -2       724       695       810      3017      3271      3272
 -1      1493    8    0    1
 -2       696       795       810      3226      3273      3270
 -1      1494    8    0    1
 -2       706       708       811      3003      3274      3275
 -1      1495    8    0    1
 -2       652       703       812      2987      3276      3277
 -1      1496    8    0    1
 -2       652       812       799      3277      3278      3236
 -1      1497    8    0    1
 -2       594       596       720      2650      3005      3279
 -1      1498    8    0    1
 -2       603       718       610      2998      3242      3014
 -1      1499    8    0    1
 -2       721       701       813      3011      3280      3281
 -1      1500    8    0    1
 -2       701       702       814      2996      3282      3283
 -1      1501    8    0    1
 -2       701       814       813      3283      3284      3280
 -1      1502    8    0    1
 -2       708       707       815      3007      3285      3286
 -1      1503    8    0    1
 -2       717       607       816      2975      3287      3288
 -1      1504    8    0    1
 -2       607       734       816      3045      3289      3287
 -1      1505    8    0    1
 -2       711       655       817      2958      3290      3291
 -1      1506    8    0    1
 -2       655       762       817      3127      3292      3290
 -1      1507    8    0    1
 -2       721       813       736      3281      3293      3294
 -1      1508    8    0    1
 -2       723       613       818      3015      3295      3296
 -1      1509    8    0    1
 -2       613       798       818      3235      3297      3295
 -1      1510    8    0    1
 -2       706       811       801      3275      3298      3244
 -1      1511    8    0    1
 -2       718       725       722      3020      3299      3300
 -1      1512    8    0    1
 -2       703       726       812      3022      3301      3276
 -1      1513    8    0    1
 -2       609       718       722      3243      3300      3012
 -1      1514    8    0    1
 -2       721       736       715      3294      3302      3010
 -1      1515    8    0    1
 -2       712       608       819      2962      3303      3304
 -1      1516    8    0    1
 -2       608       722       819      3013      3305      3303
 -1      1517    8    0    1
 -2       691       803       820      3251      3306      3307
 -1      1518    8    0    1
 -2       691       820       807      3307      3308      3261
 -1      1519    8    0    1
 -2       606       712       821      2961      3309      3310
 -1      1520    8    0    1
 -2       734       606       821      3044      3310      3311
 -1      1521    8    0    1
 -2       712       819       821      3304      3312      3309
 -1      1522    8    0    1
 -2       624       654       822      2791      3313      3314
 -1      1523    8    0    1
 -2       624       822       806      3314      3315      3258
 -1      1524    8    0    1
 -2       690       793       823      3220      3316      3317
 -1      1525    8    0    1
 -2       690       823       705      3317      3318      2942
 -1      1526    8    0    1
 -2       700       807       726      3262      3319      3021
 -1      1527    8    0    1
 -2       688       689       824      2896      3320      3321
 -1      1528    8    0    1
 -2       792       688       824      3216      3321      3322
 -1      1529    8    0    1
 -2       689       804       824      3254      3323      3320
 -1      1530    8    0    1
 -2       623       705       825      2941      3324      3325
 -1      1531    8    0    1
 -2       804       623       825      3252      3325      3326
 -1      1532    8    0    1
 -2       705       823       825      3318      3327      3324
 -1      1533    8    0    1
 -2       612       692       802      2905      3248      3328
 -1      1534    8    0    1
 -2       707       723       826      3266      3329      3330
 -1      1535    8    0    1
 -2       707       826       815      3330      3331      3285
 -1      1536    8    0    1
 -2       594       720       621      3279      3332      3000
 -1      1537    8    0    1
 -2       708       815       827      3286      3333      3334
 -1      1538    8    0    1
 -2       708       827       811      3334      3335      3274
 -1      1539    8    0    1
 -2       702       799       814      3237      3336      3282
 -1      1540    8    0    1
 -2       709       801       828      3245      3337      3338
 -1      1541    8    0    1
 -2       709       828       809      3338      3339      3267
 -1      1542    8    0    1
 -2       714       719       829      2994      3340      3341
 -1      1543    8    0    1
 -2       612       802       808      3328      3342      3263
 -1      1544    8    0    1
 -2       654       653       830      2792      3343      3344
 -1      1545    8    0    1
 -2       654       830       822      3344      3345      3313
 -1      1546    8    0    1
 -2       720       497       621      3004      2696      3332
 -1      1547    8    0    1
 -2       714       829       831      3341      3346      3347
 -1      1548    8    0    1
 -2       714       831       716      3347      3348      2974
 -1      1549    8    0    1
 -2       653       711       832      2957      3349      3350
 -1      1550    8    0    1
 -2       830       653       832      3343      3350      3351
 -1      1551    8    0    1
 -2       711       817       832      3291      3352      3349
 -1      1552    8    0    1
 -2       736       813       833      3293      3353      3354
 -1      1553    8    0    1
 -2       736       833       737      3354      3355      3052
 -1      1554    8    0    1
 -2       722       725       834      3299      3356      3357
 -1      1555    8    0    1
 -2       722       834       819      3357      3358      3305
 -1      1556    8    0    1
 -2       812       726       835      3301      3359      3360
 -1      1557    8    0    1
 -2       729       728       836      3030      3361      3362
 -1      1558    8    0    1
 -2       730       729       837      3033      3363      3364
 -1      1559    8    0    1
 -2       729       836       837      3362      3365      3363
 -1      1560    8    0    1
 -2       731       730       838      3036      3366      3367
 -1      1561    8    0    1
 -2       730       837       838      3364      3368      3366
 -1      1562    8    0    1
 -2       732       731       839      3039      3369      3370
 -1      1563    8    0    1
 -2       731       838       839      3367      3371      3369
 -1      1564    8    0    1
 -2       733       732       840      3043      3372      3373
 -1      1565    8    0    1
 -2       800       733       840      3241      3373      3374
 -1      1566    8    0    1
 -2       732       839       840      3370      3375      3372
 -1      1567    8    0    1
 -2       761       763       841      3131      3376      3377
 -1      1568    8    0    1
 -2       725       797       834      3233      3378      3356
 -1      1569    8    0    1
 -2       735       761       842      3125      3379      3380
 -1      1570    8    0    1
 -2       761       841       842      3377      3381      3379
 -1      1571    8    0    1
 -2       738       737       843      3055      3382      3383
 -1      1572    8    0    1
 -2       737       833       843      3355      3384      3382
 -1      1573    8    0    1
 -2       739       738       844      3058      3385      3386
 -1      1574    8    0    1
 -2       738       843       844      3383      3387      3385
 -1      1575    8    0    1
 -2       740       739       845      3061      3388      3389
 -1      1576    8    0    1
 -2       739       844       845      3386      3390      3388
 -1      1577    8    0    1
 -2       741       740       846      3064      3391      3392
 -1      1578    8    0    1
 -2       740       845       846      3389      3393      3391
 -1      1579    8    0    1
 -2       742       741       847      3067      3394      3395
 -1      1580    8    0    1
 -2       741       846       847      3392      3396      3394
 -1      1581    8    0    1
 -2       743       742       848      3070      3397      3398
 -1      1582    8    0    1
 -2       742       847       848      3395      3399      3397
 -1      1583    8    0    1
 -2       744       743       849      3073      3400      3401
 -1      1584    8    0    1
 -2       743       848       849      3398      3402      3400
 -1      1585    8    0    1
 -2       745       744       850      3076      3403      3404
 -1      1586    8    0    1
 -2       744       849       850      3401      3405      3403
 -1      1587    8    0    1
 -2       746       745       851      3079      3406      3407
 -1      1588    8    0    1
 -2       745       850       851      3404      3408      3406
 -1      1589    8    0    1
 -2       747       746       852      3082      3409      3410
 -1      1590    8    0    1
 -2       746       851       852      3407      3411      3409
 -1      1591    8    0    1
 -2       748       747       853      3085      3412      3413
 -1      1592    8    0    1
 -2       747       852       853      3410      3414      3412
 -1      1593    8    0    1
 -2       749       748       854      3088      3415      3416
 -1      1594    8    0    1
 -2       748       853       854      3413      3417      3415
 -1      1595    8    0    1
 -2       750       749       855      3091      3418      3419
 -1      1596    8    0    1
 -2       749       854       855      3416      3420      3418
 -1      1597    8    0    1
 -2       751       750       856      3094      3421      3422
 -1      1598    8    0    1
 -2       750       855       856      3419      3423      3421
 -1      1599    8    0    1
 -2       752       751       857      3097      3424      3425
 -1      1600    8    0    1
 -2       751       856       857      3422      3426      3424
 -1      1601    8    0    1
 -2       753       752       858      3100      3427      3428
 -1      1602    8    0    1
 -2       752       857       858      3425      3429      3427
 -1      1603    8    0    1
 -2       754       753       859      3103      3430      3431
 -1      1604    8    0    1
 -2       753       858       859      3428      3432      3430
 -1      1605    8    0    1
 -2       755       754       860      3106      3433      3434
 -1      1606    8    0    1
 -2       754       859       860      3431      3435      3433
 -1      1607    8    0    1
 -2       756       755       861      3109      3436      3437
 -1      1608    8    0    1
 -2       755       860       861      3434      3438      3436
 -1      1609    8    0    1
 -2       757       756       862      3112      3439      3440
 -1      1610    8    0    1
 -2       756       861       862      3437      3441      3439
 -1      1611    8    0    1
 -2       758       757       863      3115      3442      3443
 -1      1612    8    0    1
 -2       757       862       863      3440      3444      3442
 -1      1613    8    0    1
 -2       759       758       864      3118      3445      3446
 -1      1614    8    0    1
 -2       758       863       864      3443      3447      3445
 -1      1615    8    0    1
 -2       760       759       864      3122      3446      3448
 -1      1616    8    0    1
 -2       762       735       865      3128      3449      3450
 -1      1617    8    0    1
 -2       735       842       865      3380      3451      3449
 -1      1618    8    0    1
 -2       764       765       866      3137      3452      3453
 -1      1619    8    0    1
 -2       765       766       867      3140      3454      3455
 -1      1620    8    0    1
 -2       765       867       866      3455      3456      3452
 -1      1621    8    0    1
 -2       766       767       868      3143      3457      3458
 -1      1622    8    0    1
 -2       766       868       867      3458      3459      3454
 -1      1623    8    0    1
 -2       767       768       869      3146      3460      3461
 -1      1624    8    0    1
 -2       767       869       868      3461      3462      3457
 -1      1625    8    0    1
 -2       768       769       870      3149      3463      3464
 -1      1626    8    0    1
 -2       768       870       869      3464      3465      3460
 -1      1627    8    0    1
 -2       769       770       871      3152      3466      3467
 -1      1628    8    0    1
 -2       769       871       870      3467      3468      3463
 -1      1629    8    0    1
 -2       770       771       872      3155      3469      3470
 -1      1630    8    0    1
 -2       770       872       871      3470      3471      3466
 -1      1631    8    0    1
 -2       771       772       873      3158      3472      3473
 -1      1632    8    0    1
 -2       771       873       872      3473      3474      3469
 -1      1633    8    0    1
 -2       772       773       874      3161      3475      3476
 -1      1634    8    0    1
 -2       772       874       873      3476      3477      3472
 -1      1635    8    0    1
 -2       773       774       875      3164      3478      3479
 -1      1636    8    0    1
 -2       773       875       874      3479      3480      3475
 -1      1637    8    0    1
 -2       774       775       876      3167      3481      3482
 -1      1638    8    0    1
 -2       774       876       875      3482      3483      3478
 -1      1639    8    0    1
 -2       775       776       877      3170      3484      3485
 -1      1640    8    0    1
 -2       775       877       876      3485      3486      3481
 -1      1641    8    0    1
 -2       776       777       878      3173      3487      3488
 -1      1642    8    0    1
 -2       776       878       877      3488      3489      3484
 -1      1643    8    0    1
 -2       777       778       879      3176      3490      3491
 -1      1644    8    0    1
 -2       777       879       878      3491      3492      3487
 -1      1645    8    0    1
 -2       778       779       880      3179      3493      3494
 -1      1646    8    0    1
 -2       778       880       879      3494      3495      3490
 -1      1647    8    0    1
 -2       779       780       881      3182      3496      3497
 -1      1648    8    0    1
 -2       779       881       880      3497      3498      3493
 -1      1649    8    0    1
 -2       780       781       882      3185      3499      3500
 -1      1650    8    0    1
 -2       780       882       881      3500      3501      3496
 -1      1651    8    0    1
 -2       781       782       883      3188      3502      3503
 -1      1652    8    0    1
 -2       781       883       882      3503      3504      3499
 -1      1653    8    0    1
 -2       782       783       884      3191      3505      3506
 -1      1654    8    0    1
 -2       782       884       883      3506      3507      3502
 -1      1655    8    0    1
 -2       783       784       885      3194      3508      3509
 -1      1656    8    0    1
 -2       783       885       884      3509      3510      3505
 -1      1657    8    0    1
 -2       784       785       886      3197      3511      3512
 -1      1658    8    0    1
 -2       784       886       885      3512      3513      3508
 -1      1659    8    0    1
 -2       785       786       887      3200      3514      3515
 -1      1660    8    0    1
 -2       785       887       886      3515      3516      3511
 -1      1661    8    0    1
 -2       786       787       888      3203      3517      3518
 -1      1662    8    0    1
 -2       786       888       887      3518      3519      3514
 -1      1663    8    0    1
 -2       787       788       889      3206      3520      3521
 -1      1664    8    0    1
 -2       787       889       888      3521      3522      3517
 -1      1665    8    0    1
 -2       788       789       890      3209      3523      3524
 -1      1666    8    0    1
 -2       788       890       889      3524      3525      3520
 -1      1667    8    0    1
 -2       789       790       891      3212      3526      3527
 -1      1668    8    0    1
 -2       789       891       890      3527      3528      3523
 -1      1669    8    0    1
 -2       790       791       892      3215      3529      3530
 -1      1670    8    0    1
 -2       790       892       891      3530      3531      3526
 -1      1671    8    0    1
 -2       791       792       893      3218      3532      3533
 -1      1672    8    0    1
 -2       791       893       892      3533      3534      3529
 -1      1673    8    0    1
 -2       803       805       894      3257      3535      3536
 -1      1674    8    0    1
 -2       797       806       895      3260      3537      3538
 -1      1675    8    0    1
 -2       802       716       808      3249      3539      3342
 -1      1676    8    0    1
 -2       719       717       896      2995      3540      3541
 -1      1677    8    0    1
 -2       719       896       829      3541      3542      3340
 -1      1678    8    0    1
 -2       736       625       715      3048      2969      3302
 -1      1679    8    0    1
 -2       728       727       897      3027      3543      3544
 -1      1680    8    0    1
 -2       728       897       836      3544      3545      3361
 -1      1681    8    0    1
 -2       763       764       898      3134      3546      3547
 -1      1682    8    0    1
 -2       764       866       898      3453      3548      3546
 -1      1683    8    0    1
 -2       726       807       899      3319      3549      3550
 -1      1684    8    0    1
 -2       805       809       900      3269      3551      3552
 -1      1685    8    0    1
 -2       805       900       894      3552      3553      3535
 -1      1686    8    0    1
 -2       799       812       901      3278      3554      3555
 -1      1687    8    0    1
 -2       801       811       902      3298      3556      3557
 -1      1688    8    0    1
 -2       813       814       903      3284      3558      3559
 -1      1689    8    0    1
 -2       813       903       833      3559      3560      3353
 -1      1690    8    0    1
 -2       814       799       904      3336      3561      3562
 -1      1691    8    0    1
 -2       903       814       904      3558      3562      3563
 -1      1692    8    0    1
 -2       799       901       904      3555      3564      3561
 -1      1693    8    0    1
 -2       808       716       831      3539      3348      3565
 -1      1694    8    0    1
 -2       817       762       905      3292      3566      3567
 -1      1695    8    0    1
 -2       762       865       905      3450      3568      3566
 -1      1696    8    0    1
 -2       726       899       835      3550      3569      3359
 -1      1697    8    0    1
 -2       723       818       906      3296      3570      3571
 -1      1698    8    0    1
 -2       723       906       826      3571      3572      3329
 -1      1699    8    0    1
 -2       831       829       907      3346      3573      3574
 -1      1700    8    0    1
 -2       760       864       796      3448      3575      3230
 -1      1701    8    0    1
 -2       895       806       908      3537      3576      3577
 -1      1702    8    0    1
 -2       806       822       908      3315      3578      3576
 -1      1703    8    0    1
 -2       812       835       901      3360      3579      3554
 -1      1704    8    0    1
 -2       834       797       895      3378      3538      3580
 -1      1705    8    0    1
 -2       820       803       909      3306      3581      3582
 -1      1706    8    0    1
 -2       803       894       909      3536      3583      3581
 -1      1707    8    0    1
 -2       794       724       910      3224      3584      3585
 -1      1708    8    0    1
 -2       822       830       911      3345      3586      3587
 -1      1709    8    0    1
 -2       822       911       908      3587      3588      3578
 -1      1710    8    0    1
 -2       823       793       912      3316      3589      3590
 -1      1711    8    0    1
 -2       893       792       913      3532      3591      3592
 -1      1712    8    0    1
 -2       792       824       913      3322      3593      3591
 -1      1713    8    0    1
 -2       808       831       727      3565      3594      3265
 -1      1714    8    0    1
 -2       824       804       914      3323      3595      3596
 -1      1715    8    0    1
 -2       913       824       914      3593      3596      3597
 -1      1716    8    0    1
 -2       804       825       914      3326      3598      3595
 -1      1717    8    0    1
 -2       793       794       915      3223      3599      3600
 -1      1718    8    0    1
 -2       912       793       915      3589      3600      3601
 -1      1719    8    0    1
 -2       794       910       915      3585      3602      3599
 -1      1720    8    0    1
 -2       896       717       816      3540      3288      3603
 -1      1721    8    0    1
 -2       841       763       898      3376      3547      3604
 -1      1722    8    0    1
 -2       900       809       828      3551      3339      3605
 -1      1723    8    0    1
 -2       795       796       916      3229      3606      3607
 -1      1724    8    0    1
 -2       796       864       916      3575      3608      3606
 -1      1725    8    0    1
 -2       827       815       917      3333      3609      3610
 -1      1726    8    0    1
 -2       811       827       918      3335      3611      3612
 -1      1727    8    0    1
 -2       811       918       902      3612      3613      3556
 -1      1728    8    0    1
 -2       828       801       902      3337      3557      3614
 -1      1729    8    0    1
 -2       798       800       919      3240      3615      3616
 -1      1730    8    0    1
 -2       800       840       919      3374      3617      3615
 -1      1731    8    0    1
 -2       899       807       920      3549      3618      3619
 -1      1732    8    0    1
 -2       807       820       920      3308      3620      3618
 -1      1733    8    0    1
 -2       815       826       917      3331      3621      3609
 -1      1734    8    0    1
 -2       829       896       921      3542      3622      3623
 -1      1735    8    0    1
 -2       829       921       907      3623      3624      3573
 -1      1736    8    0    1
 -2       724       810       922      3272      3625      3626
 -1      1737    8    0    1
 -2       724       922       910      3626      3627      3584
 -1      1738    8    0    1
 -2       727       831       907      3594      3574      3628
 -1      1739    8    0    1
 -2       734       821       923      3311      3629      3630
 -1      1740    8    0    1
 -2       810       795       924      3273      3631      3632
 -1      1741    8    0    1
 -2       922       810       924      3625      3632      3633
 -1      1742    8    0    1
 -2       795       916       924      3607      3634      3631
 -1      1743    8    0    1
 -2       798       919       818      3616      3635      3297
 -1      1744    8    0    1
 -2       830       832       925      3351      3636      3637
 -1      1745    8    0    1
 -2       830       925       911      3637      3638      3586
 -1      1746    8    0    1
 -2       816       734       926      3289      3639      3640
 -1      1747    8    0    1
 -2       734       923       926      3630      3641      3639
 -1      1748    8    0    1
 -2       827       917       927      3610      3642      3643
 -1      1749    8    0    1
 -2       835       899       928      3569      3644      3645
 -1      1750    8    0    1
 -2       838       837       929      3368      3646      3647
 -1      1751    8    0    1
 -2       839       838       930      3371      3648      3649
 -1      1752    8    0    1
 -2       838       929       930      3647      3650      3648
 -1      1753    8    0    1
 -2       842       841       931      3381      3651      3652
 -1      1754    8    0    1
 -2       727       907       897      3628      3653      3543
 -1      1755    8    0    1
 -2       843       833       932      3384      3654      3655
 -1      1756    8    0    1
 -2       833       903       932      3560      3656      3654
 -1      1757    8    0    1
 -2       821       819       933      3312      3657      3658
 -1      1758    8    0    1
 -2       923       821       933      3629      3658      3659
 -1      1759    8    0    1
 -2       819       834       933      3358      3660      3657
 -1      1760    8    0    1
 -2       844       843       934      3387      3661      3662
 -1      1761    8    0    1
 -2       843       932       934      3655      3663      3661
 -1      1762    8    0    1
 -2       845       844       935      3390      3664      3665
 -1      1763    8    0    1
 -2       844       934       935      3662      3666      3664
 -1      1764    8    0    1
 -2       846       845       936      3393      3667      3668
 -1      1765    8    0    1
 -2       845       935       936      3665      3669      3667
 -1      1766    8    0    1
 -2       847       846       937      3396      3670      3671
 -1      1767    8    0    1
 -2       846       936       937      3668      3672      3670
 -1      1768    8    0    1
 -2       848       847       938      3399      3673      3674
 -1      1769    8    0    1
 -2       847       937       938      3671      3675      3673
 -1      1770    8    0    1
 -2       849       848       939      3402      3676      3677
 -1      1771    8    0    1
 -2       848       938       939      3674      3678      3676
 -1      1772    8    0    1
 -2       850       849       940      3405      3679      3680
 -1      1773    8    0    1
 -2       849       939       940      3677      3681      3679
 -1      1774    8    0    1
 -2       851       850       941      3408      3682      3683
 -1      1775    8    0    1
 -2       850       940       941      3680      3684      3682
 -1      1776    8    0    1
 -2       852       851       942      3411      3685      3686
 -1      1777    8    0    1
 -2       851       941       942      3683      3687      3685
 -1      1778    8    0    1
 -2       853       852       943      3414      3688      3689
 -1      1779    8    0    1
 -2       852       942       943      3686      3690      3688
 -1      1780    8    0    1
 -2       854       853       944      3417      3691      3692
 -1      1781    8    0    1
 -2       853       943       944      3689      3693      3691
 -1      1782    8    0    1
 -2       855       854       945      3420      3694      3695
 -1      1783    8    0    1
 -2       854       944       945      3692      3696      3694
 -1      1784    8    0    1
 -2       856       855       946      3423      3697      3698
 -1      1785    8    0    1
 -2       855       945       946      3695      3699      3697
 -1      1786    8    0    1
 -2       857       856       947      3426      3700      3701
 -1      1787    8    0    1
 -2       856       946       947      3698      3702      3700
 -1      1788    8    0    1
 -2       858       857       948      3429      3703      3704
 -1      1789    8    0    1
 -2       857       947       948      3701      3705      3703
 -1      1790    8    0    1
 -2       859       858       949      3432      3706      3707
 -1      1791    8    0    1
 -2       858       948       949      3704      3708      3706
 -1      1792    8    0    1
 -2       860       859       950      3435      3709      3710
 -1      1793    8    0    1
 -2       859       949       950      3707      3711      3709
 -1      1794    8    0    1
 -2       861       860       951      3438      3712      3713
 -1      1795    8    0    1
 -2       860       950       951      3710      3714      3712
 -1      1796    8    0    1
 -2       862       861       952      3441      3715      3716
 -1      1797    8    0    1
 -2       861       951       952      3713      3717      3715
 -1      1798    8    0    1
 -2       863       862       953      3444      3718      3719
 -1      1799    8    0    1
 -2       862       952       953      3716      3720      3718
 -1      1800    8    0    1
 -2       864       863       916      3447      3721      3608
 -1      1801    8    0    1
 -2       868       869       954      3462      3722      3723
 -1      1802    8    0    1
 -2       865       842       955      3451      3724      3725
 -1      1803    8    0    1
 -2       842       931       955      3652      3726      3724
 -1      1804    8    0    1
 -2       866       867       956      3456      3727      3728
 -1      1805    8    0    1
 -2       869       870       957      3465      3729      3730
 -1      1806    8    0    1
 -2       869       957       954      3730      3731      3722
 -1      1807    8    0    1
 -2       870       871       958      3468      3732      3733
 -1      1808    8    0    1
 -2       870       958       957      3733      3734      3729
 -1      1809    8    0    1
 -2       871       872       959      3471      3735      3736
 -1      1810    8    0    1
 -2       871       959       958      3736      3737      3732
 -1      1811    8    0    1
 -2       872       873       960      3474      3738      3739
 -1      1812    8    0    1
 -2       872       960       959      3739      3740      3735
 -1      1813    8    0    1
 -2       873       874       961      3477      3741      3742
 -1      1814    8    0    1
 -2       873       961       960      3742      3743      3738
 -1      1815    8    0    1
 -2       874       875       962      3480      3744      3745
 -1      1816    8    0    1
 -2       874       962       961      3745      3746      3741
 -1      1817    8    0    1
 -2       875       876       963      3483      3747      3748
 -1      1818    8    0    1
 -2       875       963       962      3748      3749      3744
 -1      1819    8    0    1
 -2       876       877       964      3486      3750      3751
 -1      1820    8    0    1
 -2       876       964       963      3751      3752      3747
 -1      1821    8    0    1
 -2       877       878       965      3489      3753      3754
 -1      1822    8    0    1
 -2       877       965       964      3754      3755      3750
 -1      1823    8    0    1
 -2       878       879       966      3492      3756      3757
 -1      1824    8    0    1
 -2       878       966       965      3757      3758      3753
 -1      1825    8    0    1
 -2       879       880       967      3495      3759      3760
 -1      1826    8    0    1
 -2       879       967       966      3760      3761      3756
 -1      1827    8    0    1
 -2       880       881       968      3498      3762      3763
 -1      1828    8    0    1
 -2       880       968       967      3763      3764      3759
 -1      1829    8    0    1
 -2       881       882       969      3501      3765      3766
 -1      1830    8    0    1
 -2       881       969       968      3766      3767      3762
 -1      1831    8    0    1
 -2       882       883       970      3504      3768      3769
 -1      1832    8    0    1
 -2       882       970       969      3769      3770      3765
 -1      1833    8    0    1
 -2       883       884       971      3507      3771      3772
 -1      1834    8    0    1
 -2       883       971       970      3772      3773      3768
 -1      1835    8    0    1
 -2       884       885       972      3510      3774      3775
 -1      1836    8    0    1
 -2       884       972       971      3775      3776      3771
 -1      1837    8    0    1
 -2       885       886       973      3513      3777      3778
 -1      1838    8    0    1
 -2       885       973       972      3778      3779      3774
 -1      1839    8    0    1
 -2       886       887       974      3516      3780      3781
 -1      1840    8    0    1
 -2       886       974       973      3781      3782      3777
 -1      1841    8    0    1
 -2       887       888       975      3519      3783      3784
 -1      1842    8    0    1
 -2       887       975       974      3784      3785      3780
 -1      1843    8    0    1
 -2       888       889       976      3522      3786      3787
 -1      1844    8    0    1
 -2       888       976       975      3787      3788      3783
 -1      1845    8    0    1
 -2       889       890       977      3525      3789      3790
 -1      1846    8    0    1
 -2       889       977       976      3790      3791      3786
 -1      1847    8    0    1
 -2       890       891       978      3528      3792      3793
 -1      1848    8    0    1
 -2       890       978       977      3793      3794      3789
 -1      1849    8    0    1
 -2       891       892       979      3531      3795      3796
 -1      1850    8    0    1
 -2       891       979       978      3796      3797      3792
 -1      1851    8    0    1
 -2       892       893       980      3534      3798      3799
 -1      1852    8    0    1
 -2       892       980       979      3799      3800      3795
 -1      1853    8    0    1
 -2       896       816       981      3603      3801      3802
 -1      1854    8    0    1
 -2       921       896       981      3622      3802      3803
 -1      1855    8    0    1
 -2       816       926       981      3640      3804      3801
 -1      1856    8    0    1
 -2       825       823       982      3327      3805      3806
 -1      1857    8    0    1
 -2       914       825       982      3598      3806      3807
 -1      1858    8    0    1
 -2       823       912       982      3590      3808      3805
 -1      1859    8    0    1
 -2       898       866       983      3548      3809      3810
 -1      1860    8    0    1
 -2       866       956       983      3728      3811      3809
 -1      1861    8    0    1
 -2       917       826       984      3621      3812      3813
 -1      1862    8    0    1
 -2       828       902       983      3614      3814      3815
 -1      1863    8    0    1
 -2       894       900       985      3553      3816      3817
 -1      1864    8    0    1
 -2       837       836       986      3365      3818      3819
 -1      1865    8    0    1
 -2       837       986       929      3819      3820      3646
 -1      1866    8    0    1
 -2       832       817       987      3352      3821      3822
 -1      1867    8    0    1
 -2       817       905       987      3567      3823      3821
 -1      1868    8    0    1
 -2       836       897       988      3545      3824      3825
 -1      1869    8    0    1
 -2       836       988       986      3825      3826      3818
 -1      1870    8    0    1
 -2       901       835       989      3579      3827      3828
 -1      1871    8    0    1
 -2       818       919       990      3635      3829      3830
 -1      1872    8    0    1
 -2       818       990       906      3830      3831      3570
 -1      1873    8    0    1
 -2       900       828       956      3605      3832      3833
 -1      1874    8    0    1
 -2       916       863       953      3721      3719      3834
 -1      1875    8    0    1
 -2       841       898       991      3604      3835      3836
 -1      1876    8    0    1
 -2       931       841       991      3651      3836      3837
 -1      1877    8    0    1
 -2       898       983       991      3810      3838      3835
 -1      1878    8    0    1
 -2       897       907       988      3653      3839      3824
 -1      1879    8    0    1
 -2       900       956       985      3833      3840      3816
 -1      1880    8    0    1
 -2       910       922       992      3627      3841      3842
 -1      1881    8    0    1
 -2       826       906       984      3572      3843      3812
 -1      1882    8    0    1
 -2       899       920       993      3619      3844      3845
 -1      1883    8    0    1
 -2       899       993       928      3845      3846      3644
 -1      1884    8    0    1
 -2       835       928       989      3645      3847      3827
 -1      1885    8    0    1
 -2       917       984       994      3813      3848      3849
 -1      1886    8    0    1
 -2       917       994       927      3849      3850      3642
 -1      1887    8    0    1
 -2       988       907       921      3839      3624      3851
 -1      1888    8    0    1
 -2       839       930       990      3649      3852      3853
 -1      1889    8    0    1
 -2       915       910       995      3602      3854      3855
 -1      1890    8    0    1
 -2       910       992       995      3842      3856      3854
 -1      1891    8    0    1
 -2       909       894       954      3583      3857      3858
 -1      1892    8    0    1
 -2       932       903       996      3656      3859      3860
 -1      1893    8    0    1
 -2       903       904       996      3563      3861      3859
 -1      1894    8    0    1
 -2       865       955       997      3725      3862      3863
 -1      1895    8    0    1
 -2       865       997       905      3863      3864      3568
 -1      1896    8    0    1
 -2       956       867       985      3727      3865      3840
 -1      1897    8    0    1
 -2       908       911       998      3588      3866      3867
 -1      1898    8    0    1
 -2       893       913       999      3592      3868      3869
 -1      1899    8    0    1
 -2       893       999       980      3869      3870      3798
 -1      1900    8    0    1
 -2       867       868       985      3459      3871      3865
 -1      1901    8    0    1
 -2       985       868       954      3871      3723      3872
 -1      1902    8    0    1
 -2       983       902       991      3814      3873      3838
 -1      1903    8    0    1
 -2       820       909      1000      3582      3874      3875
 -1      1904    8    0    1
 -2       920       820      1000      3620      3875      3876
 -1      1905    8    0    1
 -2       909       954      1000      3858      3877      3874
 -1      1906    8    0    1
 -2       918       827       927      3611      3643      3878
 -1      1907    8    0    1
 -2       991       902       918      3873      3613      3879
 -1      1908    8    0    1
 -2       895       908      1001      3577      3880      3881
 -1      1909    8    0    1
 -2       908       998      1001      3867      3882      3880
 -1      1910    8    0    1
 -2       901       989      1002      3828      3883      3884
 -1      1911    8    0    1
 -2       828       983       956      3815      3811      3832
 -1      1912    8    0    1
 -2       894       985       954      3817      3872      3857
 -1      1913    8    0    1
 -2       982       912       999      3808      3885      3886
 -1      1914    8    0    1
 -2       912       915      1003      3601      3887      3888
 -1      1915    8    0    1
 -2       915       995      1003      3855      3889      3887
 -1      1916    8    0    1
 -2       924       916      1004      3634      3890      3891
 -1      1917    8    0    1
 -2       916       953      1004      3834      3892      3890
 -1      1918    8    0    1
 -2       834       895      1005      3580      3893      3894
 -1      1919    8    0    1
 -2       901      1002       904      3884      3895      3564
 -1      1920    8    0    1
 -2       832       987       925      3822      3896      3636
 -1      1921    8    0    1
 -2       926       923      1006      3641      3897      3898
 -1      1922    8    0    1
 -2       911       925      1007      3638      3899      3900
 -1      1923    8    0    1
 -2       911      1007       998      3900      3901      3866
 -1      1924    8    0    1
 -2       834      1005       933      3894      3902      3660
 -1      1925    8    0    1
 -2       999       912      1003      3885      3888      3903
 -1      1926    8    0    1
 -2      1005       895      1001      3893      3881      3904
 -1      1927    8    0    1
 -2       984       906      1008      3843      3905      3906
 -1      1928    8    0    1
 -2       990       930      1009      3852      3907      3908
 -1      1929    8    0    1
 -2       840       839       919      3375      3909      3617
 -1      1930    8    0    1
 -2       914       982       913      3807      3910      3597
 -1      1931    8    0    1
 -2       999      1003      1010      3903      3911      3912
 -1      1932    8    0    1
 -2       999      1010       980      3912      3913      3870
 -1      1933    8    0    1
 -2       958       959       993      3737      3914      3915
 -1      1934    8    0    1
 -2       935       934      1011      3666      3916      3917
 -1      1935    8    0    1
 -2       936       935      1012      3669      3918      3919
 -1      1936    8    0    1
 -2       935      1011      1012      3917      3920      3918
 -1      1937    8    0    1
 -2       937       936      1013      3672      3921      3922
 -1      1938    8    0    1
 -2       936      1012      1013      3919      3923      3921
 -1      1939    8    0    1
 -2       938       937      1014      3675      3924      3925
 -1      1940    8    0    1
 -2       937      1013      1014      3922      3926      3924
 -1      1941    8    0    1
 -2       939       938      1015      3678      3927      3928
 -1      1942    8    0    1
 -2       938      1014      1015      3925      3929      3927
 -1      1943    8    0    1
 -2       940       939      1016      3681      3930      3931
 -1      1944    8    0    1
 -2       939      1015      1016      3928      3932      3930
 -1      1945    8    0    1
 -2       941       940      1017      3684      3933      3934
 -1      1946    8    0    1
 -2       940      1016      1017      3931      3935      3933
 -1      1947    8    0    1
 -2       942       941      1018      3687      3936      3937
 -1      1948    8    0    1
 -2       941      1017      1018      3934      3938      3936
 -1      1949    8    0    1
 -2       943       942      1019      3690      3939      3940
 -1      1950    8    0    1
 -2       942      1018      1019      3937      3941      3939
 -1      1951    8    0    1
 -2       944       943      1020      3693      3942      3943
 -1      1952    8    0    1
 -2       943      1019      1020      3940      3944      3942
 -1      1953    8    0    1
 -2       945       944      1021      3696      3945      3946
 -1      1954    8    0    1
 -2       944      1020      1021      3943      3947      3945
 -1      1955    8    0    1
 -2       946       945      1022      3699      3948      3949
 -1      1956    8    0    1
 -2       945      1021      1022      3946      3950      3948
 -1      1957    8    0    1
 -2       947       946      1023      3702      3951      3952
 -1      1958    8    0    1
 -2       946      1022      1023      3949      3953      3951
 -1      1959    8    0    1
 -2       948       947      1024      3705      3954      3955
 -1      1960    8    0    1
 -2       947      1023      1024      3952      3956      3954
 -1      1961    8    0    1
 -2       949       948      1025      3708      3957      3958
 -1      1962    8    0    1
 -2       948      1024      1025      3955      3959      3957
 -1      1963    8    0    1
 -2       950       949      1026      3711      3960      3961
 -1      1964    8    0    1
 -2       949      1025      1026      3958      3962      3960
 -1      1965    8    0    1
 -2       951       950      1027      3714      3963      3964
 -1      1966    8    0    1
 -2       950      1026      1027      3961      3965      3963
 -1      1967    8    0    1
 -2       952       951      1028      3717      3966      3967
 -1      1968    8    0    1
 -2       951      1027      1028      3964      3968      3966
 -1      1969    8    0    1
 -2       953       952      1029      3720      3969      3970
 -1      1970    8    0    1
 -2      1004       953      1029      3892      3970      3971
 -1      1971    8    0    1
 -2       952      1028      1029      3967      3972      3969
 -1      1972    8    0    1
 -2       955       931       927      3726      3973      3974
 -1      1973    8    0    1
 -2       999       913       982      3868      3910      3886
 -1      1974    8    0    1
 -2       933      1005       923      3902      3975      3659
 -1      1975    8    0    1
 -2       954       957      1000      3731      3976      3877
 -1      1976    8    0    1
 -2       959       960      1030      3740      3977      3978
 -1      1977    8    0    1
 -2       959      1030       993      3978      3979      3914
 -1      1978    8    0    1
 -2       960       961      1031      3743      3980      3981
 -1      1979    8    0    1
 -2       960      1031      1030      3981      3982      3977
 -1      1980    8    0    1
 -2       961       962      1032      3746      3983      3984
 -1      1981    8    0    1
 -2       961      1032      1031      3984      3985      3980
 -1      1982    8    0    1
 -2       962       963      1033      3749      3986      3987
 -1      1983    8    0    1
 -2       962      1033      1032      3987      3988      3983
 -1      1984    8    0    1
 -2       963       964      1034      3752      3989      3990
 -1      1985    8    0    1
 -2       963      1034      1033      3990      3991      3986
 -1      1986    8    0    1
 -2       964       965      1035      3755      3992      3993
 -1      1987    8    0    1
 -2       964      1035      1034      3993      3994      3989
 -1      1988    8    0    1
 -2       965       966      1036      3758      3995      3996
 -1      1989    8    0    1
 -2       965      1036      1035      3996      3997      3992
 -1      1990    8    0    1
 -2       966       967      1037      3761      3998      3999
 -1      1991    8    0    1
 -2       966      1037      1036      3999      4000      3995
 -1      1992    8    0    1
 -2       967       968      1038      3764      4001      4002
 -1      1993    8    0    1
 -2       967      1038      1037      4002      4003      3998
 -1      1994    8    0    1
 -2       968       969      1039      3767      4004      4005
 -1      1995    8    0    1
 -2       968      1039      1038      4005      4006      4001
 -1      1996    8    0    1
 -2       969       970      1040      3770      4007      4008
 -1      1997    8    0    1
 -2       969      1040      1039      4008      4009      4004
 -1      1998    8    0    1
 -2       970       971      1041      3773      4010      4011
 -1      1999    8    0    1
 -2       970      1041      1040      4011      4012      4007
 -1      2000    8    0    1
 -2       971       972      1042      3776      4013      4014
 -1      2001    8    0    1
 -2       971      1042      1041      4014      4015      4010
 -1      2002    8    0    1
 -2       972       973      1043      3779      4016      4017
 -1      2003    8    0    1
 -2       972      1043      1042      4017      4018      4013
 -1      2004    8    0    1
 -2       973       974      1044      3782      4019      4020
 -1      2005    8    0    1
 -2       973      1044      1043      4020      4021      4016
 -1      2006    8    0    1
 -2       974       975      1045      3785      4022      4023
 -1      2007    8    0    1
 -2       974      1045      1044      4023      4024      4019
 -1      2008    8    0    1
 -2       975       976      1046      3788      4025      4026
 -1      2009    8    0    1
 -2       975      1046      1045      4026      4027      4022
 -1      2010    8    0    1
 -2       976       977      1047      3791      4028      4029
 -1      2011    8    0    1
 -2       976      1047      1046      4029      4030      4025
 -1      2012    8    0    1
 -2       977       978      1048      3794      4031      4032
 -1      2013    8    0    1
 -2       977      1048      1047      4032      4033      4028
 -1      2014    8    0    1
 -2       978       979      1049      3797      4034      4035
 -1      2015    8    0    1
 -2       978      1049      1048      4035      4036      4031
 -1      2016    8    0    1
 -2       979       980      1050      3800      4037      4038
 -1      2017    8    0    1
 -2      1049       979      1050      4034      4038      4039
 -1      2018    8    0    1
 -2       980      1010      1050      3913      4040      4037
 -1      2019    8    0    1
 -2       918       927       931      3878      3973      4041
 -1      2020    8    0    1
 -2       991       918       931      3879      4041      3837
 -1      2021    8    0    1
 -2      1001       998      1051      3882      4042      4043
 -1      2022    8    0    1
 -2      1002       989      1052      3883      4044      4045
 -1      2023    8    0    1
 -2       930       929      1053      3650      4046      4047
 -1      2024    8    0    1
 -2       930      1053      1009      4047      4048      3907
 -1      2025    8    0    1
 -2       989       928      1054      3847      4049      4050
 -1      2026    8    0    1
 -2       929       986      1055      3820      4051      4052
 -1      2027    8    0    1
 -2       929      1055      1053      4052      4053      4046
 -1      2028    8    0    1
 -2       904      1002       996      3895      4054      3861
 -1      2029    8    0    1
 -2       934       932      1056      3663      4055      4056
 -1      2030    8    0    1
 -2      1011       934      1056      3916      4056      4057
 -1      2031    8    0    1
 -2       932       996      1056      3860      4058      4055
 -1      2032    8    0    1
 -2       922       924      1057      3633      4059      4060
 -1      2033    8    0    1
 -2       992       922      1057      3841      4060      4061
 -1      2034    8    0    1
 -2       924      1004      1057      3891      4062      4059
 -1      2035    8    0    1
 -2       987       905      1058      3823      4063      4064
 -1      2036    8    0    1
 -2       905       997      1058      3864      4065      4063
 -1      2037    8    0    1
 -2      1006       923      1005      3897      3975      4066
 -1      2038    8    0    1
 -2       926      1006      1059      3898      4067      4068
 -1      2039    8    0    1
 -2       926      1059       981      4068      4069      3804
 -1      2040    8    0    1
 -2       906       990      1008      3831      4070      3905
 -1      2041    8    0    1
 -2       925       987      1060      3896      4071      4072
 -1      2042    8    0    1
 -2       987      1058      1060      4064      4073      4071
 -1      2043    8    0    1
 -2       986       988      1061      3826      4074      4075
 -1      2044    8    0    1
 -2       986      1061      1055      4075      4076      4051
 -1      2045    8    0    1
 -2       988       921      1061      3851      4077      4074
 -1      2046    8    0    1
 -2       919       839       990      3909      3853      3829
 -1      2047    8    0    1
 -2       955       927       994      3974      3850      4078
 -1      2048    8    0    1
 -2      1006      1005      1001      4066      3904      4079
 -1      2049    8    0    1
 -2      1006      1001      1051      4079      4043      4080
 -1      2050    8    0    1
 -2       990      1009      1008      3908      4081      4070
 -1      2051    8    0    1
 -2       993       920       958      3844      4082      3915
 -1      2052    8    0    1
 -2       994       984      1062      3848      4083      4084
 -1      2053    8    0    1
 -2       984      1008      1062      3906      4085      4083
 -1      2054    8    0    1
 -2       995       992      1063      3856      4086      4087
 -1      2055    8    0    1
 -2      1010      1003      1064      3911      4088      4089
 -1      2056    8    0    1
 -2      1050      1010      1064      4040      4089      4090
 -1      2057    8    0    1
 -2      1003       995      1064      3889      4091      4088
 -1      2058    8    0    1
 -2       992      1057      1065      4061      4092      4093
 -1      2059    8    0    1
 -2       992      1065      1063      4093      4094      4086
 -1      2060    8    0    1
 -2       997       955       994      3862      4078      4095
 -1      2061    8    0    1
 -2       957       958       920      3734      4082      4096
 -1      2062    8    0    1
 -2       921       981      1061      3803      4097      4077
 -1      2063    8    0    1
 -2       989      1054      1052      4050      4098      4044
 -1      2064    8    0    1
 -2      1002      1052      1066      4045      4099      4100
 -1      2065    8    0    1
 -2       928       993      1030      3846      3979      4101
 -1      2066    8    0    1
 -2      1054       928      1030      4049      4101      4102
 -1      2067    8    0    1
 -2      1006      1051      1067      4080      4103      4104
 -1      2068    8    0    1
 -2       996      1002      1066      4054      4100      4105
 -1      2069    8    0    1
 -2       925      1060      1007      4072      4106      3899
 -1      2070    8    0    1
 -2      1051       998      1068      4042      4107      4108
 -1      2071    8    0    1
 -2       998      1007      1068      3901      4109      4107
 -1      2072    8    0    1
 -2      1059      1006      1067      4067      4104      4110
 -1      2073    8    0    1
 -2      1058       997      1062      4065      4111      4112
 -1      2074    8    0    1
 -2      1055      1061      1069      4076      4113      4114
 -1      2075    8    0    1
 -2      1057      1004      1070      4062      4115      4116
 -1      2076    8    0    1
 -2      1065      1057      1070      4092      4116      4117
 -1      2077    8    0    1
 -2      1004      1029      1070      3971      4118      4115
 -1      2078    8    0    1
 -2       981      1059      1061      4069      4119      4097
 -1      2079    8    0    1
 -2      1030      1031      1054      3982      4120      4102
 -1      2080    8    0    1
 -2      1013      1012      1071      3923      4121      4122
 -1      2081    8    0    1
 -2      1014      1013      1072      3926      4123      4124
 -1      2082    8    0    1
 -2      1013      1071      1072      4122      4125      4123
 -1      2083    8    0    1
 -2      1015      1014      1073      3929      4126      4127
 -1      2084    8    0    1
 -2      1014      1072      1073      4124      4128      4126
 -1      2085    8    0    1
 -2      1016      1015      1074      3932      4129      4130
 -1      2086    8    0    1
 -2      1015      1073      1074      4127      4131      4129
 -1      2087    8    0    1
 -2      1017      1016      1075      3935      4132      4133
 -1      2088    8    0    1
 -2      1016      1074      1075      4130      4134      4132
 -1      2089    8    0    1
 -2      1018      1017      1076      3938      4135      4136
 -1      2090    8    0    1
 -2      1017      1075      1076      4133      4137      4135
 -1      2091    8    0    1
 -2      1019      1018      1077      3941      4138      4139
 -1      2092    8    0    1
 -2      1018      1076      1077      4136      4140      4138
 -1      2093    8    0    1
 -2      1020      1019      1078      3944      4141      4142
 -1      2094    8    0    1
 -2      1019      1077      1078      4139      4143      4141
 -1      2095    8    0    1
 -2      1021      1020      1079      3947      4144      4145
 -1      2096    8    0    1
 -2      1020      1078      1079      4142      4146      4144
 -1      2097    8    0    1
 -2      1022      1021      1080      3950      4147      4148
 -1      2098    8    0    1
 -2      1021      1079      1080      4145      4149      4147
 -1      2099    8    0    1
 -2      1023      1022      1081      3953      4150      4151
 -1      2100    8    0    1
 -2      1022      1080      1081      4148      4152      4150
 -1      2101    8    0    1
 -2      1024      1023      1082      3956      4153      4154
 -1      2102    8    0    1
 -2      1023      1081      1082      4151      4155      4153
 -1      2103    8    0    1
 -2      1025      1024      1083      3959      4156      4157
 -1      2104    8    0    1
 -2      1024      1082      1083      4154      4158      4156
 -1      2105    8    0    1
 -2      1026      1025      1084      3962      4159      4160
 -1      2106    8    0    1
 -2      1025      1083      1084      4157      4161      4159
 -1      2107    8    0    1
 -2      1027      1026      1085      3965      4162      4163
 -1      2108    8    0    1
 -2      1026      1084      1085      4160      4164      4162
 -1      2109    8    0    1
 -2      1028      1027      1086      3968      4165      4166
 -1      2110    8    0    1
 -2      1027      1085      1086      4163      4167      4165
 -1      2111    8    0    1
 -2      1032      1033      1087      3988      4168      4169
 -1      2112    8    0    1
 -2      1033      1034      1088      3991      4170      4171
 -1      2113    8    0    1
 -2      1033      1088      1087      4171      4172      4168
 -1      2114    8    0    1
 -2      1034      1035      1089      3994      4173      4174
 -1      2115    8    0    1
 -2      1034      1089      1088      4174      4175      4170
 -1      2116    8    0    1
 -2      1035      1036      1090      3997      4176      4177
 -1      2117    8    0    1
 -2      1035      1090      1089      4177      4178      4173
 -1      2118    8    0    1
 -2      1036      1037      1091      4000      4179      4180
 -1      2119    8    0    1
 -2      1036      1091      1090      4180      4181      4176
 -1      2120    8    0    1
 -2      1037      1038      1092      4003      4182      4183
 -1      2121    8    0    1
 -2      1037      1092      1091      4183      4184      4179
 -1      2122    8    0    1
 -2      1038      1039      1093      4006      4185      4186
 -1      2123    8    0    1
 -2      1038      1093      1092      4186      4187      4182
 -1      2124    8    0    1
 -2      1039      1040      1094      4009      4188      4189
 -1      2125    8    0    1
 -2      1039      1094      1093      4189      4190      4185
 -1      2126    8    0    1
 -2      1040      1041      1095      4012      4191      4192
 -1      2127    8    0    1
 -2      1040      1095      1094      4192      4193      4188
 -1      2128    8    0    1
 -2      1041      1042      1096      4015      4194      4195
 -1      2129    8    0    1
 -2      1041      1096      1095      4195      4196      4191
 -1      2130    8    0    1
 -2      1042      1043      1097      4018      4197      4198
 -1      2131    8    0    1
 -2      1042      1097      1096      4198      4199      4194
 -1      2132    8    0    1
 -2      1043      1044      1098      4021      4200      4201
 -1      2133    8    0    1
 -2      1043      1098      1097      4201      4202      4197
 -1      2134    8    0    1
 -2      1044      1045      1099      4024      4203      4204
 -1      2135    8    0    1
 -2      1044      1099      1098      4204      4205      4200
 -1      2136    8    0    1
 -2      1045      1046      1100      4027      4206      4207
 -1      2137    8    0    1
 -2      1045      1100      1099      4207      4208      4203
 -1      2138    8    0    1
 -2      1046      1047      1101      4030      4209      4210
 -1      2139    8    0    1
 -2      1046      1101      1100      4210      4211      4206
 -1      2140    8    0    1
 -2      1047      1048      1102      4033      4212      4213
 -1      2141    8    0    1
 -2      1047      1102      1101      4213      4214      4209
 -1      2142    8    0    1
 -2      1048      1049      1103      4036      4215      4216
 -1      2143    8    0    1
 -2      1048      1103      1102      4216      4217      4212
 -1      2144    8    0    1
 -2      1054      1031      1104      4120      4218      4219
 -1      2145    8    0    1
 -2      1052      1054      1104      4098      4219      4220
 -1      2146    8    0    1
 -2      1031      1032      1104      3985      4221      4218
 -1      2147    8    0    1
 -2      1066      1052      1105      4099      4222      4223
 -1      2148    8    0    1
 -2      1052      1104      1105      4220      4224      4222
 -1      2149    8    0    1
 -2       957       920      1000      4096      3876      3976
 -1      2150    8    0    1
 -2      1007      1060      1106      4106      4225      4226
 -1      2151    8    0    1
 -2      1007      1106      1068      4226      4227      4109
 -1      2152    8    0    1
 -2      1009      1053      1107      4048      4228      4229
 -1      2153    8    0    1
 -2       995      1063      1064      4087      4230      4091
 -1      2154    8    0    1
 -2      1067      1051      1108      4103      4231      4232
 -1      2155    8    0    1
 -2      1051      1068      1108      4108      4233      4231
 -1      2156    8    0    1
 -2       996      1066      1056      4105      4234      4058
 -1      2157    8    0    1
 -2      1053      1055      1109      4053      4235      4236
 -1      2158    8    0    1
 -2      1107      1053      1109      4228      4236      4237
 -1      2159    8    0    1
 -2      1055      1069      1109      4114      4238      4235
 -1      2160    8    0    1
 -2      1059      1067      1069      4110      4239      4240
 -1      2161    8    0    1
 -2      1060      1058      1110      4073      4241      4242
 -1      2162    8    0    1
 -2      1106      1060      1110      4225      4242      4243
 -1      2163    8    0    1
 -2      1058      1062      1110      4112      4244      4241
 -1      2164    8    0    1
 -2      1012      1011      1111      3920      4245      4246
 -1      2165    8    0    1
 -2      1012      1111      1071      4246      4247      4121
 -1      2166    8    0    1
 -2      1008      1009      1107      4081      4229      4248
 -1      2167    8    0    1
 -2      1059      1069      1061      4240      4113      4119
 -1      2168    8    0    1
 -2      1067      1108      1069      4232      4249      4239
 -1      2169    8    0    1
 -2      1011      1056      1112      4057      4250      4251
 -1      2170    8    0    1
 -2      1111      1011      1112      4245      4251      4252
 -1      2171    8    0    1
 -2      1056      1066      1112      4234      4253      4250
 -1      2172    8    0    1
 -2       997       994      1062      4095      4084      4111
 -1      2173    8    0    1
 -2      1008      1107      1113      4248      4254      4255
 -1      2174    8    0    1
 -2      1029      1028      1114      3972      4256      4257
 -1      2175    8    0    1
 -2      1070      1029      1114      4118      4257      4258
 -1      2176    8    0    1
 -2      1028      1086      1114      4166      4259      4256
 -1      2177    8    0    1
 -2      1066      1105      1112      4223      4260      4253
 -1      2178    8    0    1
 -2      1103      1049      1115      4215      4261      4262
 -1      2179    8    0    1
 -2      1049      1050      1115      4039      4263      4261
 -1      2180    8    0    1
 -2      1104      1032      1087      4221      4169      4264
 -1      2181    8    0    1
 -2      1063      1065      1116      4094      4265      4266
 -1      2182    8    0    1
 -2      1063      1116      1115      4266      4267      4268
 -1      2183    8    0    1
 -2      1063      1115      1064      4268      4269      4230
 -1      2184    8    0    1
 -2      1103      1115      1116      4262      4267      4270
 -1      2185    8    0    1
 -2      1062      1008      1113      4085      4255      4271
 -1      2186    8    0    1
 -2      1050      1064      1115      4090      4269      4263
 -1      2187    8    0    1
 -2      1072      1071      1117      4125      4272      4273
 -1      2188    8    0    1
 -2      1069      1108      1109      4249      4274      4238
 -1      2189    8    0    1
 -2      1112      1105      1111      4260      4275      4252
 -1      2190    8    0    1
 -2      1073      1072      1118      4128      4276      4277
 -1      2191    8    0    1
 -2      1072      1117      1118      4273      4278      4276
 -1      2192    8    0    1
 -2      1074      1073      1119      4131      4279      4280
 -1      2193    8    0    1
 -2      1073      1118      1119      4277      4281      4279
 -1      2194    8    0    1
 -2      1075      1074      1120      4134      4282      4283
 -1      2195    8    0    1
 -2      1074      1119      1120      4280      4284      4282
 -1      2196    8    0    1
 -2      1076      1075      1121      4137      4285      4286
 -1      2197    8    0    1
 -2      1075      1120      1121      4283      4287      4285
 -1      2198    8    0    1
 -2      1077      1076      1122      4140      4288      4289
 -1      2199    8    0    1
 -2      1076      1121      1122      4286      4290      4288
 -1      2200    8    0    1
 -2      1078      1077      1123      4143      4291      4292
 -1      2201    8    0    1
 -2      1077      1122      1123      4289      4293      4291
 -1      2202    8    0    1
 -2      1079      1078      1124      4146      4294      4295
 -1      2203    8    0    1
 -2      1078      1123      1124      4292      4296      4294
 -1      2204    8    0    1
 -2      1080      1079      1125      4149      4297      4298
 -1      2205    8    0    1
 -2      1079      1124      1125      4295      4299      4297
 -1      2206    8    0    1
 -2      1081      1080      1126      4152      4300      4301
 -1      2207    8    0    1
 -2      1080      1125      1126      4298      4302      4300
 -1      2208    8    0    1
 -2      1082      1081      1127      4155      4303      4304
 -1      2209    8    0    1
 -2      1081      1126      1127      4301      4305      4303
 -1      2210    8    0    1
 -2      1083      1082      1128      4158      4306      4307
 -1      2211    8    0    1
 -2      1082      1127      1128      4304      4308      4306
 -1      2212    8    0    1
 -2      1084      1083      1129      4161      4309      4310
 -1      2213    8    0    1
 -2      1083      1128      1129      4307      4311      4309
 -1      2214    8    0    1
 -2      1085      1084      1130      4164      4312      4313
 -1      2215    8    0    1
 -2      1084      1129      1130      4310      4314      4312
 -1      2216    8    0    1
 -2      1086      1085      1131      4167      4315      4316
 -1      2217    8    0    1
 -2      1085      1130      1131      4313      4317      4315
 -1      2218    8    0    1
 -2      1088      1089      1117      4175      4318      4319
 -1      2219    8    0    1
 -2      1113      1107      1132      4254      4320      4321
 -1      2220    8    0    1
 -2      1087      1088      1133      4172      4322      4323
 -1      2221    8    0    1
 -2      1090      1091      1119      4181      4324      4325
 -1      2222    8    0    1
 -2      1091      1092      1120      4184      4326      4327
 -1      2223    8    0    1
 -2      1092      1093      1121      4187      4328      4329
 -1      2224    8    0    1
 -2      1093      1094      1122      4190      4330      4331
 -1      2225    8    0    1
 -2      1094      1095      1123      4193      4332      4333
 -1      2226    8    0    1
 -2      1095      1096      1124      4196      4334      4335
 -1      2227    8    0    1
 -2      1096      1097      1125      4199      4336      4337
 -1      2228    8    0    1
 -2      1097      1098      1126      4202      4338      4339
 -1      2229    8    0    1
 -2      1098      1099      1127      4205      4340      4341
 -1      2230    8    0    1
 -2      1099      1100      1128      4208      4342      4343
 -1      2231    8    0    1
 -2      1100      1101      1129      4211      4344      4345
 -1      2232    8    0    1
 -2      1101      1102      1130      4214      4346      4347
 -1      2233    8    0    1
 -2      1102      1103      1131      4217      4348      4349
 -1      2234    8    0    1
 -2      1062      1113      1110      4271      4350      4244
 -1      2235    8    0    1
 -2      1104      1087      1105      4264      4351      4224
 -1      2236    8    0    1
 -2      1089      1090      1118      4178      4352      4353
 -1      2237    8    0    1
 -2      1071      1111      1133      4247      4354      4355
 -1      2238    8    0    1
 -2      1103      1116      1131      4270      4356      4348
 -1      2239    8    0    1
 -2      1108      1068      1132      4233      4357      4358
 -1      2240    8    0    1
 -2      1111      1105      1133      4275      4359      4354
 -1      2241    8    0    1
 -2      1105      1087      1133      4351      4323      4359
 -1      2242    8    0    1
 -2      1068      1106      1132      4227      4360      4357
 -1      2243    8    0    1
 -2      1129      1101      1130      4344      4347      4314
 -1      2244    8    0    1
 -2      1121      1093      1122      4328      4331      4290
 -1      2245    8    0    1
 -2      1120      1092      1121      4326      4329      4287
 -1      2246    8    0    1
 -2      1127      1099      1128      4340      4343      4308
 -1      2247    8    0    1
 -2      1133      1088      1117      4322      4319      4361
 -1      2248    8    0    1
 -2      1065      1070      1114      4117      4258      4362
 -1      2249    8    0    1
 -2      1109      1108      1132      4274      4358      4363
 -1      2250    8    0    1
 -2      1132      1107      1109      4320      4237      4363
 -1      2251    8    0    1
 -2      1117      1089      1118      4318      4353      4278
 -1      2252    8    0    1
 -2      1124      1096      1125      4334      4337      4299
 -1      2253    8    0    1
 -2      1086      1131      1116      4316      4356      4364
 -1      2254    8    0    1
 -2      1090      1119      1118      4325      4281      4352
 -1      2255    8    0    1
 -2      1091      1120      1119      4327      4284      4324
 -1      2256    8    0    1
 -2      1094      1123      1122      4333      4293      4330
 -1      2257    8    0    1
 -2      1095      1124      1123      4335      4296      4332
 -1      2258    8    0    1
 -2      1097      1126      1125      4339      4302      4336
 -1      2259    8    0    1
 -2      1098      1127      1126      4341      4305      4338
 -1      2260    8    0    1
 -2      1100      1129      1128      4345      4311      4342
 -1      2261    8    0    1
 -2      1102      1131      1130      4349      4317      4346
 -1      2262    8    0    1
 -2      1110      1113      1106      4350      4365      4243
 -1      2263    8    0    1
 -2      1116      1065      1114      4265      4362      4366
 -1      2264    8    0    1
 -2      1071      1133      1117      4355      4361      4272
 -1      2265    8    0    1
 -2      1132      1106      1113      4360      4365      4321
 -1      2266    8    0    1
 -2      1116      1114      1086      4366      4259      4364
 -3
    1PSTEP                         1           1           1          
  100CL  101 1.000000000        4366                     0    1           1
 -4  DISP        4    1
 -5  D1          1    2    1    0
 -5  D2          1    2    2    0
 -5  D3          1    2    3    0
 -5  ALL         1    2    0    0    1ALL
 -1         1 3.38049E-03-1.16226E-03-6.06018E-15
 -1         2 8.22361E-03-1.15251E-03-1.04760E-14
 -1         3 1.36627E-02-6.05427E-03-5.59126E-14
 -1         4 1.70534E-02-7.48336E-03-6.14588E-14
 -1         5 0.00000E+00 0.00000E+00 0.00000E+00
 -1         6 0.00000E+00 0.00000E+00 0.00000E+00
 -1         7 0.00000E+00 0.00000E+00 0.00000E+00
 -1         8 0.00000E+00 0.00000E+00 0.00000E+00
 -1         9 0.00000E+00 0.00000E+00 0.00000E+00
 -1        10 0.00000E+00 0.00000E+00 0.00000E+00
 -1        11 0.00000E+00 0.00000E+00 0.00000E+00
 -1        12 0.00000E+00 0.00000E+00 0.00000E+00
 -1        13 0.00000E+00 0.00000E+00 0.00000E+00
 -1        14 0.00000E+00 0.00000E+00 0.00000E+00
 -1        15 0.00000E+00 0.00000E+00 0.00000E+00
 -1        16 0.00000E+00 0.00000E+00 0.00000E+00
 -1        17 0.00000E+00 0.00000E+00 0.00000E+00
 -1        18 0.00000E+00 0.00000E+00 0.00000E+00
 -1        19 0.00000E+00 0.00000E+00 0.00000E+00
 -1        20 0.00000E+00 0.00000E+00 0.00000E+00
 -1        21 0.00000E+00 0.00000E+00 0.00000E+00
 -1        22 0.00000E+00 0.00000E+00 0.00000E+00
 -1        23 3.94312E-04-2.48427E-04-2.33781E-19
 -1        24 6.90164E-04-3.86685E-04-7.27805E-17
 -1        25 9.64275E-04-4.80424E-04-2.15611E-16
 -1        26 1.23466E-03-5.44504E-04-4.26156E-16
 -1        27 1.50708E-03-5.88217E-04-7.01536E-16
 -1        28 1.77132E-03-6.15998E-04-1.02137E-15
 -1        29 2.05881E-03-6.34861E-04-1.41714E-15
 -1        30 2.36067E-03-6.47251E-04-1.87050E-15
 -1        31 2.68392E-03-6.58758E-04-2.38156E-15
 -1        32 3.03903E-03-6.78699E-04-2.95372E-15
 -1        33 3.44055E-03-7.24182E-04-3.58044E-15
 -1        34 3.88036E-03-8.19474E-04-4.22042E-15
 -1        35 4.41359E-03-1.02278E-03-4.94117E-15
 -1        36 4.99616E-03-1.39017E-03-5.71589E-15
 -1        37 5.51635E-03-1.89807E-03-6.51865E-15
 -1        38 5.85136E-03-2.35038E-03-7.26266E-15
 -1        39 6.05850E-03-2.63516E-03-8.03279E-15
 -1        40 6.23048E-03-2.66496E-03-8.87356E-15
 -1        41 6.43051E-03-2.50161E-03-9.64980E-15
 -1        42 6.76264E-03-2.21676E-03-1.05878E-14
 -1        43 7.20814E-03-1.94709E-03-1.16235E-14
 -1        44 7.76876E-03-1.77450E-03-1.28929E-14
 -1        45 8.29006E-03-1.75746E-03-1.41809E-14
 -1        46 8.76971E-03-1.85215E-03-1.55592E-14
 -1        47 9.18594E-03-2.01057E-03-1.69464E-14
 -1        48 9.55590E-03-2.20004E-03-1.83513E-14
 -1        49 9.89493E-03-2.40322E-03-1.97890E-14
 -1        50 1.02141E-02-2.61168E-03-2.12572E-14
 -1        51 1.05057E-02-2.81109E-03-2.26817E-14
 -1        52 1.08049E-02-3.02083E-03-2.42255E-14
 -1        53 1.10990E-02-3.22982E-03-2.58111E-14
 -1        54 1.13899E-02-3.43789E-03-2.74194E-14
 -1        55 1.16789E-02-3.64511E-03-2.90536E-14
 -1        56 1.19665E-02-3.85157E-03-3.06968E-14
 -1        57 1.22391E-02-4.04712E-03-3.22575E-14
 -1        58 1.25254E-02-4.25247E-03-3.39129E-14
 -1        59 1.28114E-02-4.45741E-03-3.55867E-14
 -1        60 1.30972E-02-4.66201E-03-3.72733E-14
 -1        61 1.33829E-02-4.86635E-03-3.89647E-14
 -1        62 1.36686E-02-5.07048E-03-4.06614E-14
 -1        63 1.39399E-02-5.26424E-03-4.22826E-14
 -1        64 1.42255E-02-5.46808E-03-4.40020E-14
 -1        65 1.45110E-02-5.67182E-03-4.57357E-14
 -1        66 1.47966E-02-5.87548E-03-4.74872E-14
 -1        67 1.50822E-02-6.07908E-03-4.92448E-14
 -1        68 1.53679E-02-6.28264E-03-5.10082E-14
 -1        69 1.56392E-02-6.47599E-03-5.26833E-14
 -1        70 1.59249E-02-6.67951E-03-5.44594E-14
 -1        71 1.62106E-02-6.88301E-03-5.62283E-14
 -1        72 1.64963E-02-7.08651E-03-5.79917E-14
 -1        73 1.67820E-02-7.29002E-03-5.97651E-14
 -1        74 4.13900E-04 2.59721E-04 5.77710E-17
 -1        75 7.04677E-04 4.00038E-04 8.72003E-17
 -1        76 9.77705E-04 4.95032E-04 8.31583E-17
 -1        77 1.24533E-03 5.63111E-04 3.97801E-17
 -1        78 1.51214E-03 6.12989E-04-5.01579E-17
 -1        79 1.77989E-03 6.50257E-04-1.89969E-16
 -1        80 2.04888E-03 6.78806E-04-3.79725E-16
 -1        81 2.31846E-03 7.01318E-04-6.22810E-16
 -1        82 2.58726E-03 7.19388E-04-9.19712E-16
 -1        83 2.85334E-03 7.33453E-04-1.27686E-15
 -1        84 3.11442E-03 7.42628E-04-1.69513E-15
 -1        85 3.36824E-03 7.44591E-04-2.17274E-15
 -1        86 3.61305E-03 7.35630E-04-2.71103E-15
 -1        87 3.84820E-03 7.11005E-04-3.31030E-15
 -1        88 4.07455E-03 6.65672E-04-3.96852E-15
 -1        89 4.29465E-03 5.95276E-04-4.68525E-15
 -1        90 4.51240E-03 4.97174E-04-5.46288E-15
 -1        91 4.73235E-03 3.71118E-04-6.30710E-15
 -1        92 4.95870E-03 2.19354E-04-7.21923E-15
 -1        93 5.19452E-03 4.61035E-05-8.19611E-15
 -1        94 5.44129E-03-1.43372E-04-9.24034E-15
 -1        95 5.69894E-03-3.43757E-04-1.03520E-14
 -1        96 5.96622E-03-5.50449E-04-1.15265E-14
 -1        97 6.24121E-03-7.59958E-04-1.27534E-14
 -1        98 6.52186E-03-9.69966E-04-1.40330E-14
 -1        99 6.80626E-03-1.17916E-03-1.53670E-14
 -1       100 7.09289E-03-1.38699E-03-1.67557E-14
 -1       101 7.38062E-03-1.59335E-03-1.81817E-14
 -1       102 7.66871E-03-1.79844E-03-1.96488E-14
 -1       103 7.95672E-03-2.00252E-03-2.11532E-14
 -1       104 8.24440E-03-2.20590E-03-2.26940E-14
 -1       105 8.53169E-03-2.40884E-03-2.42614E-14
 -1       106 8.81857E-03-2.61154E-03-2.58460E-14
 -1       107 9.10510E-03-2.81415E-03-2.74511E-14
 -1       108 9.39135E-03-3.01676E-03-2.90751E-14
 -1       109 9.67737E-03-3.21945E-03-3.07402E-14
 -1       110 9.96324E-03-3.42223E-03-3.24272E-14
 -1       111 1.02490E-02-3.62511E-03-3.41333E-14
 -1       112 1.05347E-02-3.82810E-03-3.58549E-14
 -1       113 1.08203E-02-4.03118E-03-3.76116E-14
 -1       114 1.11059E-02-4.23435E-03-3.94102E-14
 -1       115 1.13916E-02-4.43758E-03-4.12285E-14
 -1       116 1.16772E-02-4.64087E-03-4.30558E-14
 -1       117 1.19628E-02-4.84419E-03-4.49082E-14
 -1       118 1.22485E-02-5.04755E-03-4.67619E-14
 -1       119 1.25342E-02-5.25092E-03-4.86041E-14
 -1       120 1.28199E-02-5.45431E-03-5.04572E-14
 -1       121 1.31056E-02-5.65769E-03-5.23160E-14
 -1       122 1.33913E-02-5.86107E-03-5.41683E-14
 -1       123 1.38627E-02-6.13856E-03-5.62620E-14
 -1       124 1.40627E-02-6.22284E-03-5.66320E-14
 -1       125 1.42626E-02-6.30714E-03-5.70105E-14
 -1       126 1.44626E-02-6.39145E-03-5.73966E-14
 -1       127 1.46626E-02-6.47577E-03-5.77753E-14
 -1       128 1.48592E-02-6.55867E-03-5.81515E-14
 -1       129 1.50592E-02-6.64301E-03-5.85296E-14
 -1       130 1.52592E-02-6.72735E-03-5.89186E-14
 -1       131 1.54593E-02-6.81170E-03-5.93072E-14
 -1       132 1.56594E-02-6.89605E-03-5.96504E-14
 -1       133 1.58595E-02-6.98039E-03-5.99475E-14
 -1       134 1.60562E-02-7.06329E-03-6.02282E-14
 -1       135 1.62563E-02-7.14761E-03-6.04640E-14
 -1       136 1.64564E-02-7.23192E-03-6.06833E-14
 -1       137 1.66566E-02-7.31622E-03-6.09136E-14
 -1       138 1.68567E-02-7.40051E-03-6.11881E-14
 -1       139 8.07686E-03-9.62740E-04-1.03352E-14
 -1       140 7.83695E-03-7.76971E-04-1.00830E-14
 -1       141 7.51154E-03-5.98568E-04-9.73389E-15
 -1       142 7.12666E-03-4.38171E-04-9.32140E-15
 -1       143 6.69951E-03-2.99996E-04-8.87397E-15
 -1       144 6.20364E-03-1.78701E-04-8.36780E-15
 -1       145 5.70984E-03-9.44743E-05-7.88117E-15
 -1       146 5.20475E-03-4.49501E-05-7.40169E-15
 -1       147 4.72064E-03-3.49284E-05-6.96164E-15
 -1       148 4.29395E-03-6.13801E-05-6.59759E-15
 -1       149 3.87181E-03-1.33839E-04-6.25399E-15
 -1       150 3.56634E-03-2.32002E-04-6.02138E-15
 -1       151 3.31302E-03-3.77171E-04-5.84745E-15
 -1       152 3.18185E-03-5.35749E-04-5.77550E-15
 -1       153 3.14631E-03-7.29678E-04-5.78891E-15
 -1       154 3.21457E-03-9.35873E-04-5.88583E-15
 -1       155 3.64688E-03-1.41599E-03-6.31150E-15
 -1       156 4.04333E-03-1.70907E-03-6.66305E-15
 -1       157 4.51123E-03-1.98673E-03-7.06073E-15
 -1       158 5.03365E-03-2.22075E-03-7.48972E-15
 -1       159 5.61684E-03-2.38220E-03-7.96387E-15
 -1       160 6.24223E-03-2.42931E-03-8.47734E-15
 -1       161 6.83120E-03-2.34883E-03-8.98079E-15
 -1       162 7.32411E-03-2.18722E-03-9.43050E-15
 -1       163 7.74385E-03-1.97296E-03-9.84750E-15
 -1       164 8.03997E-03-1.75328E-03-1.01727E-14
 -1       165 8.20636E-03-1.55342E-03-1.03833E-14
 -1       166 8.27017E-03-1.35294E-03-1.04922E-14
 -1       167 2.41797E-04-1.21741E-04-2.39304E-17
 -1       168 2.26529E-04-9.04112E-05-3.02865E-17
 -1       169 2.20092E-04-6.86915E-05-3.25871E-17
 -1       170 2.16454E-04-5.17165E-05-3.29293E-17
 -1       171 2.14270E-04-3.77114E-05-3.20992E-17
 -1       172 2.13003E-04-2.50352E-05-3.03678E-17
 -1       173 2.12466E-04-1.31183E-05-2.83485E-17
 -1       174 2.12499E-04-1.33700E-06-2.61767E-17
 -1       175 2.12983E-04 1.07888E-05-2.35814E-17
 -1       176 2.13856E-04 2.36534E-05-2.03356E-17
 -1       177 2.15131E-04 3.74006E-05-1.63003E-17
 -1       178 2.17075E-04 5.30166E-05-1.11978E-17
 -1       179 2.20260E-04 7.11683E-05-4.31987E-18
 -1       180 2.26257E-04 9.37204E-05 5.18384E-18
 -1       181 2.40239E-04 1.25702E-04 1.85365E-17
 -1       182 2.98547E-04 1.83717E-04 3.43523E-17
 -1       183 4.55804E-04-2.50027E-04-5.69409E-17
 -1       184 7.57474E-04-3.65141E-04-1.73662E-16
 -1       185 1.04621E-03-4.43414E-04-3.54446E-16
 -1       186 1.33041E-03-4.96391E-04-5.97673E-16
 -1       187 1.60058E-03-5.29741E-04-8.85478E-16
 -1       188 1.88862E-03-5.51572E-04-1.24701E-15
 -1       189 2.18378E-03-5.63724E-04-1.66749E-15
 -1       190 2.48987E-03-5.70526E-04-2.14537E-15
 -1       191 2.81167E-03-5.78456E-04-2.68015E-15
 -1       192 3.15519E-03-5.99250E-04-3.27113E-15
 -1       193 3.50832E-03-6.51308E-04-3.88089E-15
 -1       194 3.91554E-03-7.78544E-04-4.56916E-15
 -1       195 4.36533E-03-1.04091E-03-5.30869E-15
 -1       196 4.83224E-03-1.46883E-03-6.07310E-15
 -1       197 5.76827E-03-2.45853E-03-7.63023E-15
 -1       198 6.10751E-03-2.63117E-03-8.42322E-15
 -1       199 6.40423E-03-2.54750E-03-9.15814E-15
 -1       200 6.76701E-03-2.27364E-03-1.00533E-14
 -1       201 7.17533E-03-1.95688E-03-1.10548E-14
 -1       202 7.66100E-03-1.71689E-03-1.22901E-14
 -1       203 8.11900E-03-1.65359E-03-1.35579E-14
 -1       204 8.55768E-03-1.72368E-03-1.49167E-14
 -1       205 8.95359E-03-1.87267E-03-1.62936E-14
 -1       206 9.31523E-03-2.06000E-03-1.76817E-14
 -1       207 9.65189E-03-2.26395E-03-1.91004E-14
 -1       208 9.97129E-03-2.47404E-03-2.05490E-14
 -1       209 1.02639E-02-2.67503E-03-2.19608E-14
 -1       210 1.05644E-02-2.88621E-03-2.34854E-14
 -1       211 1.08597E-02-3.09633E-03-2.50492E-14
 -1       212 1.11517E-02-3.30527E-03-2.66441E-14
 -1       213 1.14414E-02-3.51313E-03-2.82632E-14
 -1       214 1.17297E-02-3.72008E-03-2.99000E-14
 -1       215 1.20027E-02-3.91598E-03-3.14603E-14
 -1       216 1.22894E-02-4.12160E-03-3.31135E-14
 -1       217 1.25757E-02-4.32674E-03-3.47813E-14
 -1       218 1.28618E-02-4.53150E-03-3.64594E-14
 -1       219 1.31476E-02-4.73595E-03-3.81498E-14
 -1       220 1.34334E-02-4.94017E-03-3.98437E-14
 -1       221 1.37048E-02-5.13400E-03-4.14568E-14
 -1       222 1.39905E-02-5.33789E-03-4.31667E-14
 -1       223 1.42761E-02-5.54166E-03-4.48928E-14
 -1       224 1.45617E-02-5.74534E-03-4.66296E-14
 -1       225 1.48474E-02-5.94896E-03-4.83794E-14
 -1       226 1.51330E-02-6.15253E-03-5.01375E-14
 -1       227 1.54044E-02-6.34589E-03-5.18208E-14
 -1       228 1.56901E-02-6.54941E-03-5.35995E-14
 -1       229 1.59758E-02-6.75291E-03-5.53770E-14
 -1       230 1.62615E-02-6.95641E-03-5.71461E-14
 -1       231 1.65472E-02-7.15992E-03-5.89192E-14
 -1       232 1.67019E-02-7.28021E-03-6.00494E-14
 -1       233 6.06750E-04 3.27166E-04 4.81182E-17
 -1       234 8.97691E-04 4.27163E-04 2.99409E-17
 -1       235 1.17880E-03 4.98114E-04-2.72203E-17
 -1       236 1.45559E-03 5.49619E-04-1.29112E-16
 -1       237 1.73068E-03 5.87803E-04-2.80283E-16
 -1       238 2.00519E-03 6.16931E-04-4.81579E-16
 -1       239 2.27921E-03 6.39962E-04-7.34510E-16
 -1       240 2.55212E-03 6.58737E-04-1.04128E-15
 -1       241 2.82276E-03 6.73909E-04-1.40631E-15
 -1       242 3.08969E-03 6.84770E-04-1.83183E-15
 -1       243 3.35142E-03 6.89101E-04-2.31624E-15
 -1       244 3.60679E-03 6.83169E-04-2.86095E-15
 -1       245 3.85533E-03 6.62055E-04-3.46579E-15
 -1       246 4.09763E-03 6.20380E-04-4.13063E-15
 -1       247 4.33539E-03 5.53359E-04-4.85457E-15
 -1       248 4.57130E-03 4.57935E-04-5.63763E-15
 -1       249 4.80854E-03 3.33578E-04-6.48659E-15
 -1       250 5.05010E-03 1.82466E-04-7.40245E-15
 -1       251 5.29823E-03 8.95536E-06-8.38329E-15
 -1       252 5.55414E-03-1.81417E-04-9.43099E-15
 -1       253 5.81791E-03-3.83026E-04-1.05453E-14
 -1       254 6.08880E-03-5.90999E-04-1.17206E-14
 -1       255 6.36552E-03-8.01660E-04-1.29471E-14
 -1       256 6.64665E-03-1.01260E-03-1.42270E-14
 -1       257 6.93081E-03-1.22247E-03-1.55618E-14
 -1       258 7.21686E-03-1.43075E-03-1.69461E-14
 -1       259 7.50393E-03-1.63738E-03-1.83734E-14
 -1       260 7.79142E-03-1.84259E-03-1.98373E-14
 -1       261 8.07895E-03-2.04671E-03-2.13368E-14
 -1       262 8.36630E-03-2.25007E-03-2.28726E-14
 -1       263 8.65338E-03-2.45296E-03-2.44352E-14
 -1       264 8.94016E-03-2.65560E-03-2.60203E-14
 -1       265 9.22665E-03-2.85815E-03-2.76266E-14
 -1       266 9.51291E-03-3.06071E-03-2.92575E-14
 -1       267 9.79898E-03-3.26335E-03-3.09158E-14
 -1       268 1.00849E-02-3.46609E-03-3.25932E-14
 -1       269 1.03707E-02-3.66895E-03-3.42929E-14
 -1       270 1.06565E-02-3.87191E-03-3.60165E-14
 -1       271 1.09422E-02-4.07498E-03-3.77684E-14
 -1       272 1.12278E-02-4.27814E-03-3.95565E-14
 -1       273 1.15135E-02-4.48137E-03-4.13638E-14
 -1       274 1.17992E-02-4.68465E-03-4.31836E-14
 -1       275 1.20848E-02-4.88797E-03-4.50198E-14
 -1       276 1.23705E-02-5.09133E-03-4.68621E-14
 -1       277 1.26562E-02-5.29471E-03-4.87068E-14
 -1       278 1.29419E-02-5.49809E-03-5.05562E-14
 -1       279 1.32276E-02-5.70148E-03-5.24121E-14
 -1       280 1.35133E-02-5.90486E-03-5.42605E-14
 -1       281 1.37153E-02-6.00458E-03-5.48548E-14
 -1       282 1.39152E-02-6.08887E-03-5.52246E-14
 -1       283 1.41152E-02-6.17317E-03-5.55988E-14
 -1       284 1.43152E-02-6.25748E-03-5.59825E-14
 -1       285 1.45118E-02-6.34037E-03-5.63566E-14
 -1       286 1.47118E-02-6.42469E-03-5.67346E-14
 -1       287 1.49118E-02-6.50902E-03-5.71128E-14
 -1       288 1.51118E-02-6.59334E-03-5.74880E-14
 -1       289 1.53119E-02-6.67767E-03-5.78467E-14
 -1       290 1.55120E-02-6.76200E-03-5.81777E-14
 -1       291 1.57087E-02-6.84490E-03-5.84673E-14
 -1       292 1.59088E-02-6.92921E-03-5.87362E-14
 -1       293 1.61089E-02-7.01352E-03-5.89838E-14
 -1       294 1.63091E-02-7.09782E-03-5.92330E-14
 -1       295 1.65055E-02-7.18902E-03-5.96348E-14
 -1       296 8.17850E-03-1.17072E-03-1.09297E-14
 -1       297 7.92896E-03-1.04040E-03-1.06509E-14
 -1       298 7.57139E-03-8.78420E-04-1.02806E-14
 -1       299 7.14890E-03-6.80633E-04-9.81720E-15
 -1       300 6.70832E-03-4.66979E-04-9.29727E-15
 -1       301 6.24992E-03-2.57063E-04-8.73353E-15
 -1       302 5.81710E-03-8.24688E-05-8.14141E-15
 -1       303 5.41092E-03 1.85681E-05-7.57470E-15
 -1       304 5.01434E-03 3.81782E-05-7.03596E-15
 -1       305 4.62314E-03-2.68998E-05-6.60021E-15
 -1       306 4.23665E-03-1.48003E-04-6.15844E-15
 -1       307 3.83488E-03-2.85121E-04-5.88711E-15
 -1       308 3.50570E-03-4.40146E-04-5.59012E-15
 -1       309 3.24538E-03-5.43649E-04-5.53210E-15
 -1       310 3.12105E-03-6.46141E-04-5.46016E-15
 -1       311 3.14675E-03-7.55845E-04-5.55769E-15
 -1       312 3.31356E-03-8.82745E-04-5.68315E-15
 -1       313 3.60771E-03-1.08240E-03-5.93154E-15
 -1       314 4.04945E-03-1.33843E-03-6.22898E-15
 -1       315 4.53130E-03-1.70936E-03-6.67521E-15
 -1       316 5.02814E-03-2.06918E-03-7.14227E-15
 -1       317 5.50400E-03-2.36904E-03-7.66135E-15
 -1       318 5.97161E-03-2.52942E-03-8.24529E-15
 -1       319 6.43426E-03-2.47258E-03-8.85652E-15
 -1       320 6.89365E-03-2.26002E-03-9.43879E-15
 -1       321 7.33531E-03-1.97312E-03-1.00201E-14
 -1       322 7.76391E-03-1.71133E-03-1.04646E-14
 -1       323 8.07708E-03-1.52137E-03-1.07636E-14
 -1       324 8.25625E-03-1.37841E-03-1.09882E-14
 -1       325 8.29622E-03-1.27304E-03-1.10716E-14
 -1       326 5.35134E-03-2.02967E-03-6.87198E-15
 -1       327 4.57095E-04-1.56474E-04-1.08058E-16
 -1       328 4.77481E-04-2.04651E-04-9.95027E-17
 -1       329 4.38446E-04-8.88692E-05-1.09613E-16
 -1       330 4.34209E-04-6.23295E-05-1.06028E-16
 -1       331 4.32079E-04-3.79788E-05-1.01159E-16
 -1       332 4.31582E-04-1.44302E-05-9.52607E-17
 -1       333 4.32355E-04 9.36798E-06-8.82744E-17
 -1       334 4.34155E-04 3.42444E-05-7.97871E-17
 -1       335 4.36879E-04 6.04728E-05-6.95651E-17
 -1       336 4.40907E-04 8.98062E-05-5.69003E-17
 -1       337 4.47087E-04 1.23096E-04-4.11218E-17
 -1       338 4.57612E-04 1.62620E-04-2.10572E-17
 -1       339 4.77870E-04 2.12874E-04 4.70273E-18
 -1       340 5.34193E-04 2.65968E-04 2.33002E-17
 -1       341 8.28330E-04 3.67694E-04-5.32614E-18
 -1       342 4.82260E-03-1.67443E-03-6.51599E-15
 -1       343 8.55703E-04-3.37791E-04-2.81699E-16
 -1       344 1.14594E-03-4.01144E-04-4.95985E-16
 -1       345 1.41948E-03-4.42075E-04-7.54198E-16
 -1       346 1.70691E-03-4.69790E-04-1.08351E-15
 -1       347 1.99537E-03-4.85836E-04-1.47059E-15
 -1       348 2.28604E-03-4.94169E-04-1.91547E-15
 -1       349 2.57973E-03-4.99752E-04-2.41682E-15
 -1       350 2.87690E-03-5.10476E-04-2.97291E-15
 -1       351 3.16324E-03-5.38171E-04-3.55128E-15
 -1       352 3.47215E-03-6.09661E-04-4.20757E-15
 -1       353 3.80104E-03-7.67463E-04-4.91260E-15
 -1       354 4.15546E-03-1.05892E-03-5.63345E-15
 -1       355 8.26945E-03-1.28206E-03-1.16413E-14
 -1       356 6.69473E-03-2.33946E-03-9.54635E-15
 -1       357 7.14926E-03-1.98859E-03-1.04700E-14
 -1       358 7.61647E-03-1.68359E-03-1.16727E-14
 -1       359 8.02554E-03-1.57023E-03-1.29140E-14
 -1       360 8.41067E-03-1.60836E-03-1.42506E-14
 -1       361 8.76609E-03-1.74080E-03-1.56095E-14
 -1       362 9.10182E-03-1.92091E-03-1.69836E-14
 -1       363 9.42347E-03-2.12254E-03-1.83833E-14
 -1       364 9.73475E-03-2.33256E-03-1.98150E-14
 -1       365 1.00234E-02-2.53430E-03-2.12078E-14
 -1       366 1.03219E-02-2.74648E-03-2.27125E-14
 -1       367 1.06164E-02-2.95756E-03-2.42583E-14
 -1       368 1.09081E-02-3.16731E-03-2.58362E-14
 -1       369 1.11979E-02-3.37583E-03-2.74390E-14
 -1       370 1.14864E-02-3.58329E-03-2.90647E-14
 -1       371 1.17596E-02-3.77957E-03-3.06210E-14
 -1       372 1.20465E-02-3.98550E-03-3.22695E-14
 -1       373 1.23330E-02-4.19087E-03-3.39327E-14
 -1       374 1.26192E-02-4.39581E-03-3.56052E-14
 -1       375 1.29052E-02-4.60040E-03-3.72887E-14
 -1       376 1.31911E-02-4.80472E-03-3.89795E-14
 -1       377 1.34626E-02-4.99862E-03-4.05890E-14
 -1       378 1.37483E-02-5.20257E-03-4.22886E-14
 -1       379 1.40340E-02-5.40638E-03-4.40094E-14
 -1       380 1.43196E-02-5.61010E-03-4.57375E-14
 -1       381 1.46053E-02-5.81374E-03-4.74766E-14
 -1       382 1.48910E-02-6.01733E-03-4.92313E-14
 -1       383 1.51624E-02-6.21070E-03-5.09122E-14
 -1       384 1.54481E-02-6.41422E-03-5.26905E-14
 -1       385 1.57337E-02-6.61772E-03-5.44747E-14
 -1       386 1.60194E-02-6.82122E-03-5.62539E-14
 -1       387 1.63052E-02-7.02472E-03-5.80254E-14
 -1       388 1.64053E-02-7.10687E-03-5.88297E-14
 -1       389 1.27862E-03 4.54136E-04-1.58405E-16
 -1       390 1.56173E-03 4.98062E-04-3.03668E-16
 -1       391 1.84323E-03 5.31002E-04-4.98011E-16
 -1       392 2.12384E-03 5.56568E-04-7.42662E-16
 -1       393 2.40368E-03 5.77282E-04-1.03992E-15
 -1       394 2.68239E-03 5.94553E-04-1.39110E-15
 -1       395 2.95920E-03 6.08516E-04-1.80232E-15
 -1       396 3.23308E-03 6.17808E-04-2.27220E-15
 -1       397 3.50296E-03 6.19414E-04-2.80083E-15
 -1       398 3.76801E-03 6.08761E-04-3.39029E-15
 -1       399 4.02804E-03 5.80219E-04-4.03964E-15
 -1       400 4.28375E-03 5.28084E-04-4.74706E-15
 -1       401 4.53681E-03 4.47860E-04-5.51398E-15
 -1       402 4.78961E-03 3.37460E-04-6.34232E-15
 -1       403 5.04466E-03 1.97815E-04-7.23636E-15
 -1       404 5.30403E-03 3.26525E-05-8.19707E-15
 -1       405 5.56891E-03-1.52467E-04-9.22420E-15
 -1       406 5.83952E-03-3.51414E-04-1.03159E-14
 -1       407 6.11533E-03-5.58598E-04-1.14705E-14
 -1       408 6.39537E-03-7.69624E-04-1.26801E-14
 -1       409 6.67853E-03-9.81496E-04-1.39412E-14
 -1       410 6.96378E-03-1.19247E-03-1.52543E-14
 -1       411 7.25030E-03-1.40177E-03-1.66176E-14
 -1       412 7.53747E-03-1.60923E-03-1.80273E-14
 -1       413 7.82487E-03-1.81504E-03-1.94765E-14
 -1       414 8.11223E-03-2.01955E-03-2.09607E-14
 -1       415 8.39942E-03-2.22313E-03-2.24795E-14
 -1       416 8.68636E-03-2.42612E-03-2.40275E-14
 -1       417 8.97306E-03-2.62876E-03-2.56013E-14
 -1       418 9.25952E-03-2.83127E-03-2.71990E-14
 -1       419 9.54579E-03-3.03376E-03-2.88215E-14
 -1       420 9.83188E-03-3.23631E-03-3.04668E-14
 -1       421 1.01178E-02-3.43896E-03-3.21318E-14
 -1       422 1.04037E-02-3.64174E-03-3.38186E-14
 -1       423 1.06895E-02-3.84464E-03-3.55280E-14
 -1       424 1.09753E-02-4.04766E-03-3.72634E-14
 -1       425 1.12610E-02-4.25077E-03-3.90275E-14
 -1       426 1.15467E-02-4.45396E-03-4.08200E-14
 -1       427 1.18324E-02-4.65722E-03-4.26249E-14
 -1       428 1.21181E-02-4.86052E-03-4.44449E-14
 -1       429 1.24037E-02-5.06387E-03-4.62754E-14
 -1       430 1.26894E-02-5.26724E-03-4.81117E-14
 -1       431 1.29751E-02-5.47062E-03-4.99527E-14
 -1       432 1.32608E-02-5.67401E-03-5.18020E-14
 -1       433 1.34880E-02-5.83930E-03-5.33326E-14
 -1       434 1.39677E-02-6.03919E-03-5.41869E-14
 -1       435 1.37678E-02-5.95489E-03-5.38069E-14
 -1       436 1.41643E-02-6.12207E-03-5.45611E-14
 -1       437 1.43643E-02-6.20638E-03-5.49358E-14
 -1       438 1.45643E-02-6.29069E-03-5.53095E-14
 -1       439 1.47643E-02-6.37500E-03-5.56819E-14
 -1       440 1.49644E-02-6.45932E-03-5.60502E-14
 -1       441 1.51645E-02-6.54364E-03-5.64003E-14
 -1       442 1.53612E-02-6.62652E-03-5.67128E-14
 -1       443 1.55613E-02-6.71083E-03-5.69996E-14
 -1       444 1.57614E-02-6.79514E-03-5.72703E-14
 -1       445 1.59616E-02-6.87944E-03-5.75409E-14
 -1       446 1.05429E-03 4.17978E-04-6.58788E-17
 -1       447 7.71490E-03-1.08574E-03-1.09305E-14
 -1       448 6.79477E-03-6.81904E-04-9.90390E-15
 -1       449 8.05281E-03-1.19937E-03-1.12799E-14
 -1       450 4.45523E-04-1.19330E-04-1.10548E-16
 -1       451 6.41204E-03-4.53111E-04-9.31494E-15
 -1       452 5.92208E-03-1.68706E-04-8.51028E-15
 -1       453 5.54713E-03 2.22811E-06-7.83036E-15
 -1       454 5.19639E-03 7.39945E-05-7.20734E-15
 -1       455 4.80963E-03 3.46380E-05-6.56793E-15
 -1       456 4.49259E-03-6.87627E-05-6.13385E-15
 -1       457 4.04285E-03-2.54714E-04-5.74015E-15
 -1       458 3.70561E-03-3.94978E-04-5.45039E-15
 -1       459 3.32856E-03-5.34374E-04-5.19408E-15
 -1       460 3.15650E-03-5.94390E-04-5.12466E-15
 -1       461 3.09909E-03-6.45650E-04-5.11305E-15
 -1       462 3.19584E-03-6.98827E-04-5.22480E-15
 -1       463 3.50308E-03-8.51485E-04-5.51476E-15
 -1       464 3.86547E-03-1.04494E-03-5.78827E-15
 -1       465 4.27060E-03-1.35583E-03-6.20326E-15
 -1       466 5.41264E-03-2.22561E-03-7.27967E-15
 -1       467 7.90968E-03-1.53250E-03-1.11769E-14
 -1       468 8.17208E-03-1.40446E-03-1.14379E-14
 -1       469 8.31357E-03-1.32964E-03-1.16890E-14
 -1       470 7.19982E-03-8.75506E-04-1.03734E-14
 -1       471 6.27952E-03-2.55054E-03-8.74425E-15
 -1       472 1.61835E-02-6.99315E-03-5.81848E-14
 -1       473 7.62664E-03-1.67438E-03-1.10680E-14
 -1       474 5.83009E-03-2.52319E-03-7.93789E-15
 -1       475 3.47182E-03-4.72090E-04-5.05387E-15
 -1       476 8.35773E-03-1.35726E-03-1.24696E-14
 -1       477 6.59026E-04-7.41553E-05-2.19117E-16
 -1       478 6.64325E-04-1.10852E-04-2.26859E-16
 -1       479 6.57508E-04-4.51452E-06-1.96701E-16
 -1       480 6.59983E-04 3.13068E-05-1.81827E-16
 -1       481 6.64027E-04 6.85472E-05-1.64423E-16
 -1       482 6.69902E-04 1.09444E-04-1.43257E-16
 -1       483 6.78354E-04 1.54585E-04-1.17507E-16
 -1       484 6.91269E-04 2.05729E-04-8.62856E-17
 -1       485 7.12820E-04 2.65578E-04-4.81115E-17
 -1       486 7.67007E-04 3.14524E-04-2.95784E-17
 -1       487 9.66737E-04-3.07478E-04-3.96632E-16
 -1       488 6.50845E-03-6.09668E-04-9.87857E-15
 -1       489 1.23937E-03-3.54997E-04-6.26903E-16
 -1       490 1.52503E-03-3.89459E-04-9.25136E-16
 -1       491 1.80863E-03-4.11638E-04-1.28079E-15
 -1       492 2.08923E-03-4.25345E-04-1.69295E-15
 -1       493 2.36508E-03-4.34904E-04-2.16061E-15
 -1       494 2.63321E-03-4.46115E-04-2.68446E-15
 -1       495 2.87699E-03-4.66164E-04-3.23125E-15
 -1       496 3.11793E-03-5.10079E-04-3.85605E-15
 -1       497 3.34202E-03-5.99373E-04-4.52778E-15
 -1       498 6.07668E-03-3.25038E-04-9.04357E-15
 -1       499 7.99796E-03-1.49783E-03-1.21745E-14
 -1       500 8.31389E-03-1.50095E-03-1.34846E-14
 -1       501 8.60897E-03-1.61046E-03-1.48179E-14
 -1       502 8.89993E-03-1.77617E-03-1.61748E-14
 -1       503 9.19178E-03-1.96972E-03-1.75535E-14
 -1       504 9.48448E-03-2.17583E-03-1.89647E-14
 -1       505 9.76243E-03-2.37606E-03-2.03368E-14
 -1       506 1.00542E-02-2.58788E-03-2.18195E-14
 -1       507 1.03450E-02-2.79918E-03-2.33411E-14
 -1       508 1.06347E-02-3.00937E-03-2.48993E-14
 -1       509 1.09234E-02-3.21836E-03-2.64848E-14
 -1       510 1.12114E-02-3.42626E-03-2.80940E-14
 -1       511 1.14843E-02-3.62291E-03-2.96411E-14
 -1       512 1.17712E-02-3.82916E-03-3.12839E-14
 -1       513 1.20577E-02-4.03479E-03-3.29395E-14
 -1       514 1.23440E-02-4.23993E-03-3.46054E-14
 -1       515 1.26300E-02-4.44468E-03-3.62793E-14
 -1       516 1.29160E-02-4.64912E-03-3.79639E-14
 -1       517 1.31875E-02-4.84312E-03-3.95690E-14
 -1       518 1.34733E-02-5.04714E-03-4.12642E-14
 -1       519 1.37590E-02-5.25102E-03-4.29736E-14
 -1       520 1.40447E-02-5.45478E-03-4.47014E-14
 -1       521 1.43304E-02-5.65845E-03-4.64302E-14
 -1       522 1.46161E-02-5.86206E-03-4.81774E-14
 -1       523 1.48875E-02-6.05544E-03-4.98524E-14
 -1       524 1.51732E-02-6.25897E-03-5.16293E-14
 -1       525 1.54589E-02-6.46248E-03-5.34129E-14
 -1       526 1.57446E-02-6.66598E-03-5.51998E-14
 -1       527 1.67787E-03 4.42484E-04-4.98238E-16
 -1       528 1.39105E-03 4.06110E-04-3.10034E-16
 -1       529 2.25081E-03 4.92210E-04-1.02246E-15
 -1       530 2.53731E-03 5.10552E-04-1.36288E-15
 -1       531 2.82358E-03 5.26225E-04-1.75970E-15
 -1       532 3.10892E-03 5.38885E-04-2.21495E-15
 -1       533 3.39227E-03 5.46533E-04-2.72905E-15
 -1       534 3.67240E-03 5.45318E-04-3.30179E-15
 -1       535 3.94829E-03 5.29688E-04-3.93543E-15
 -1       536 4.21966E-03 4.93113E-04-4.62784E-15
 -1       537 4.48736E-03 4.29449E-04-5.37804E-15
 -1       538 4.75337E-03 3.34604E-04-6.18736E-15
 -1       539 5.02028E-03 2.07833E-04-7.06146E-15
 -1       540 5.29041E-03 5.20122E-05-8.00080E-15
 -1       541 5.56517E-03-1.27236E-04-9.00803E-15
 -1       542 5.84473E-03-3.23101E-04-1.00789E-14
 -1       543 6.12837E-03-5.29097E-04-1.12146E-14
 -1       544 6.41490E-03-7.40033E-04-1.24058E-14
 -1       545 6.70310E-03-9.52334E-04-1.36502E-14
 -1       546 6.99201E-03-1.16390E-03-1.49448E-14
 -1       547 7.28099E-03-1.37377E-03-1.62878E-14
 -1       548 7.56967E-03-1.58169E-03-1.76801E-14
 -1       549 7.85789E-03-1.78784E-03-1.91137E-14
 -1       550 8.14564E-03-1.99257E-03-2.05826E-14
 -1       551 8.43294E-03-2.19626E-03-2.20863E-14
 -1       552 8.71986E-03-2.39928E-03-2.36207E-14
 -1       553 9.00647E-03-2.60191E-03-2.51839E-14
 -1       554 9.29284E-03-2.80436E-03-2.67706E-14
 -1       555 9.57901E-03-3.00678E-03-2.83846E-14
 -1       556 9.86505E-03-3.20925E-03-3.00162E-14
 -1       557 1.01510E-02-3.41183E-03-3.16710E-14
 -1       558 1.04368E-02-3.61454E-03-3.33469E-14
 -1       559 1.07226E-02-3.81738E-03-3.50423E-14
 -1       560 1.10084E-02-4.02034E-03-3.67649E-14
 -1       561 1.12941E-02-4.22340E-03-3.85113E-14
 -1       562 1.15799E-02-4.42656E-03-4.02860E-14
 -1       563 1.18656E-02-4.62979E-03-4.20768E-14
 -1       564 1.21513E-02-4.83308E-03-4.38836E-14
 -1       565 1.24370E-02-5.03641E-03-4.56996E-14
 -1       566 1.27227E-02-5.23977E-03-4.75273E-14
 -1       567 1.30084E-02-5.44315E-03-4.93586E-14
 -1       568 1.32941E-02-5.64655E-03-5.12002E-14
 -1       569 1.40169E-02-5.98807E-03-5.31434E-14
 -1       570 1.38203E-02-5.90520E-03-5.27710E-14
 -1       571 1.36203E-02-5.82090E-03-5.23919E-14
 -1       572 7.08656E-04-2.37061E-04-2.30112E-16
 -1       573 1.42169E-02-6.07237E-03-5.35185E-14
 -1       574 1.44169E-02-6.15667E-03-5.38902E-14
 -1       575 1.46169E-02-6.24098E-03-5.42586E-14
 -1       576 1.48170E-02-6.32528E-03-5.46181E-14
 -1       577 1.50137E-02-6.40816E-03-5.49517E-14
 -1       578 1.52138E-02-6.49246E-03-5.52586E-14
 -1       579 1.54139E-02-6.57677E-03-5.55512E-14
 -1       580 1.56141E-02-6.66106E-03-5.58376E-14
 -1       581 1.96435E-03 4.70207E-04-7.34943E-16
 -1       582 7.89851E-03-1.23770E-03-1.17067E-14
 -1       583 6.99001E-03-8.77303E-04-1.05992E-14
 -1       584 7.45535E-03-1.08756E-03-1.11958E-14
 -1       585 8.17517E-03-1.31039E-03-1.20776E-14
 -1       586 4.97605E-03 9.00448E-05-6.73091E-15
 -1       587 5.33697E-03 5.83351E-05-7.48269E-15
 -1       588 6.56997E-04-3.92538E-05-2.09044E-16
 -1       589 4.62937E-03 9.71074E-06-6.12588E-15
 -1       590 4.21207E-03-1.62603E-04-5.59495E-15
 -1       591 3.87250E-03-3.17411E-04-5.32232E-15
 -1       592 3.19630E-03-5.44803E-04-4.80208E-15
 -1       593 3.06768E-03-5.75833E-04-4.72041E-15
 -1       594 3.11481E-03-6.02332E-04-4.78055E-15
 -1       595 3.71018E-03-8.30142E-04-5.31426E-15
 -1       596 3.34911E-03-6.85581E-04-5.04296E-15
 -1       597 5.64058E-03-6.29257E-05-8.14011E-15
 -1       598 8.21075E-03-1.42113E-03-1.24427E-14
 -1       599 8.33589E-03-1.37436E-03-1.24612E-14
 -1       600 6.73785E-04-1.51288E-04-2.31365E-16
 -1       601 9.95287E-04 3.65772E-04-9.47017E-17
 -1       602 1.59860E-02-6.84874E-03-5.68863E-14
 -1       603 1.19290E-03 3.90566E-04-1.87272E-16
 -1       604 6.88433E-04-1.90795E-04-2.32971E-16
 -1       605 3.61062E-03-3.91353E-04-4.92823E-15
 -1       606 8.95736E-04 6.29152E-05-3.02990E-16
 -1       607 8.90549E-04 1.52811E-05-3.28567E-16
 -1       608 9.13065E-04 1.67796E-04-2.37481E-16
 -1       609 9.27141E-04 2.27497E-04-1.94824E-16
 -1       610 9.40915E-04 3.15987E-04-1.17544E-16
 -1       611 1.42695E-02-6.02265E-03-5.24821E-14
 -1       612 1.07513E-03-2.73267E-04-5.11381E-16
 -1       613 3.28745E-03-4.58943E-04-4.50484E-15
 -1       614 1.35731E-03-3.12220E-04-7.81093E-16
 -1       615 1.63739E-03-3.39979E-04-1.10716E-15
 -1       616 1.91287E-03-3.59824E-04-1.48835E-15
 -1       617 2.18065E-03-3.75734E-04-1.92486E-15
 -1       618 2.43632E-03-3.92638E-04-2.41654E-15
 -1       619 2.66228E-03-4.15381E-04-2.93359E-15
 -1       620 2.87407E-03-4.54218E-04-3.52669E-15
 -1       621 3.04852E-03-5.18145E-04-4.16836E-15
 -1       622 1.51219E-03 3.53806E-04-4.82365E-16
 -1       623 1.36711E-02-5.77048E-03-5.13568E-14
 -1       624 2.09338E-03 4.04844E-04-9.90243E-16
 -1       625 8.50128E-03-1.49935E-03-1.39922E-14
 -1       626 8.72954E-03-1.64610E-03-1.53240E-14
 -1       627 8.97726E-03-1.82508E-03-1.66815E-14
 -1       628 9.24045E-03-2.02137E-03-1.80701E-14
 -1       629 9.50006E-03-2.21587E-03-1.94228E-14
 -1       630 9.77953E-03-2.42429E-03-2.08844E-14
 -1       631 1.00626E-02-2.63385E-03-2.23799E-14
 -1       632 1.03477E-02-2.84326E-03-2.39147E-14
 -1       633 1.06336E-02-3.05199E-03-2.54809E-14
 -1       634 1.09198E-02-3.25990E-03-2.70705E-14
 -1       635 1.11919E-02-3.45666E-03-2.86045E-14
 -1       636 1.14782E-02-3.66308E-03-3.02374E-14
 -1       637 1.17644E-02-3.86888E-03-3.18832E-14
 -1       638 1.20505E-02-4.07418E-03-3.35428E-14
 -1       639 1.23365E-02-4.27907E-03-3.52092E-14
 -1       640 1.26224E-02-4.48363E-03-3.68873E-14
 -1       641 1.28940E-02-4.67772E-03-3.84839E-14
 -1       642 1.31798E-02-4.88182E-03-4.01731E-14
 -1       643 1.34656E-02-5.08576E-03-4.18767E-14
 -1       644 1.37513E-02-5.28956E-03-4.36001E-14
 -1       645 1.40370E-02-5.49327E-03-4.53283E-14
 -1       646 1.43228E-02-5.69691E-03-4.70639E-14
 -1       647 1.45942E-02-5.89031E-03-4.87325E-14
 -1       648 1.48799E-02-6.09385E-03-5.05063E-14
 -1       649 1.51656E-02-6.29737E-03-5.22895E-14
 -1       650 1.54513E-02-6.50087E-03-5.40782E-14
 -1       651 1.33346E-02-5.61750E-03-5.05463E-14
 -1       652 7.72360E-03-1.25133E-03-1.21179E-14
 -1       653 2.68028E-03 4.38700E-04-1.70417E-15
 -1       654 2.38606E-03 4.22978E-04-1.31988E-15
 -1       655 3.27139E-03 4.64377E-04-2.64513E-15
 -1       656 3.56585E-03 4.71015E-04-3.20213E-15
 -1       657 3.85724E-03 4.67748E-04-3.81881E-15
 -1       658 4.14401E-03 4.47585E-04-4.49440E-15
 -1       659 4.42584E-03 4.02555E-04-5.22782E-15
 -1       660 4.70411E-03 3.25827E-04-6.02171E-15
 -1       661 4.98169E-03 2.14049E-04-6.87705E-15
 -1       662 5.26170E-03 6.86653E-05-7.79748E-15
 -1       663 5.54629E-03-1.04620E-04-8.78297E-15
 -1       664 5.83582E-03-2.97848E-04-9.83527E-15
 -1       665 6.12921E-03-5.03113E-04-1.09500E-14
 -1       666 6.42463E-03-7.14100E-04-1.21242E-14
 -1       667 6.72037E-03-9.26593E-04-1.33517E-14
 -1       668 7.01520E-03-1.13824E-03-1.46289E-14
 -1       669 7.30849E-03-1.34803E-03-1.59567E-14
 -1       670 7.60009E-03-1.55578E-03-1.73311E-14
 -1       671 7.89012E-03-1.76172E-03-1.87487E-14
 -1       672 8.17888E-03-1.96623E-03-2.02040E-14
 -1       673 8.46666E-03-2.16974E-03-2.16928E-14
 -1       674 8.75373E-03-2.37260E-03-2.32140E-14
 -1       675 9.04031E-03-2.57509E-03-2.47665E-14
 -1       676 9.32657E-03-2.77743E-03-2.63423E-14
 -1       677 9.61261E-03-2.97975E-03-2.79455E-14
 -1       678 9.89852E-03-3.18214E-03-2.95690E-14
 -1       679 1.01843E-02-3.38465E-03-3.12117E-14
 -1       680 1.04701E-02-3.58730E-03-3.28739E-14
 -1       681 1.07559E-02-3.79008E-03-3.45592E-14
 -1       682 1.10416E-02-3.99300E-03-3.62705E-14
 -1       683 1.13273E-02-4.19603E-03-3.80019E-14
 -1       684 1.16130E-02-4.39916E-03-3.97605E-14
 -1       685 1.18988E-02-4.60237E-03-4.15376E-14
 -1       686 1.21845E-02-4.80564E-03-4.33289E-14
 -1       687 1.24702E-02-5.00896E-03-4.51343E-14
 -1       688 1.27559E-02-5.21231E-03-4.69490E-14
 -1       689 1.30453E-02-5.41490E-03-4.87441E-14
 -1       690 1.40694E-02-5.93835E-03-5.21140E-14
 -1       691 6.20837E-03-4.72856E-04-9.65262E-15
 -1       692 8.80733E-04-2.34883E-04-3.59037E-16
 -1       693 3.06355E-03-5.19895E-04-4.39570E-15
 -1       694 1.44695E-02-6.10694E-03-5.28428E-14
 -1       695 1.46662E-02-6.18981E-03-5.31894E-14
 -1       696 1.48663E-02-6.27410E-03-5.35186E-14
 -1       697 1.50664E-02-6.35840E-03-5.38252E-14
 -1       698 1.52666E-02-6.44270E-03-5.41293E-14
 -1       699 1.80216E-03 3.82590E-04-7.11609E-16
 -1       700 6.76508E-03-8.15987E-04-1.07083E-14
 -1       701 8.32575E-03-1.39839E-03-1.29671E-14
 -1       702 8.07039E-03-1.34601E-03-1.25448E-14
 -1       703 7.26218E-03-1.07715E-03-1.15587E-14
 -1       704 5.81166E-03-2.05997E-04-8.71369E-15
 -1       705 1.38703E-02-5.85442E-03-5.17399E-14
 -1       706 4.74598E-03 8.49541E-05-6.20374E-15
 -1       707 3.94579E-03-2.26029E-04-5.08699E-15
 -1       708 4.32527E-03-3.58890E-05-5.46218E-15
 -1       709 5.09328E-03 1.07042E-04-6.94930E-15
 -1       710 3.00226E-03-5.26158E-04-4.28844E-15
 -1       711 2.97569E-03 4.52732E-04-2.14556E-15
 -1       712 9.03092E-04 1.13386E-04-2.73205E-16
 -1       713 5.43754E-03 8.40786E-06-7.77755E-15
 -1       714 8.93229E-04-1.19568E-04-3.81812E-16
 -1       715 8.40380E-03-1.42798E-03-1.32200E-14
 -1       716 9.03425E-04-1.67251E-04-3.91695E-16
 -1       717 8.87849E-04-3.02219E-05-3.49869E-16
 -1       718 1.22348E-03 3.15745E-04-3.00856E-16
 -1       719 8.88407E-04-7.45779E-05-3.67423E-16
 -1       720 3.15031E-03-5.74009E-04-4.55634E-15
 -1       721 8.42834E-03-1.41923E-03-1.32275E-14
 -1       722 1.16523E-03 2.31975E-04-3.49496E-16
 -1       723 3.44361E-03-3.50209E-04-4.38927E-15
 -1       724 1.43204E-02-5.97218E-03-5.14293E-14
 -1       725 1.34931E-03 2.68590E-04-4.52387E-16
 -1       726 7.04570E-03-1.00538E-03-1.16781E-14
 -1       727 1.47022E-03-2.69559E-04-9.31953E-16
 -1       728 1.74405E-03-2.94099E-04-1.28194E-15
 -1       729 2.01093E-03-3.15547E-04-1.68526E-15
 -1       730 2.26660E-03-3.38187E-04-2.14355E-15
 -1       731 2.49400E-03-3.65575E-04-2.62808E-15
 -1       732 2.70975E-03-4.06596E-04-3.18910E-15
 -1       733 2.87360E-03-4.58775E-04-3.72113E-15
 -1       734 1.13109E-03 4.41427E-05-4.87125E-16
 -1       735 3.75180E-03 3.92433E-04-3.69069E-15
 -1       736 8.58297E-03-1.54354E-03-1.44850E-14
 -1       737 8.78272E-03-1.70307E-03-1.58180E-14
 -1       738 9.01268E-03-1.88383E-03-1.71824E-14
 -1       739 9.25052E-03-2.06780E-03-1.85151E-14
 -1       740 9.51442E-03-2.26887E-03-1.99536E-14
 -1       741 9.78724E-03-2.47387E-03-2.14309E-14
 -1       742 1.00656E-02-2.68059E-03-2.29391E-14
 -1       743 1.03472E-02-2.88781E-03-2.44829E-14
 -1       744 1.06307E-02-3.09491E-03-2.60534E-14
 -1       745 1.09011E-02-3.29128E-03-2.75669E-14
 -1       746 1.11863E-02-3.49753E-03-2.91854E-14
 -1       747 1.14719E-02-3.70330E-03-3.08236E-14
 -1       748 1.17576E-02-3.90863E-03-3.24749E-14
 -1       749 1.20433E-02-4.11357E-03-3.41353E-14
 -1       750 1.23291E-02-4.31820E-03-3.58057E-14
 -1       751 1.26006E-02-4.51235E-03-3.73983E-14
 -1       752 1.28864E-02-4.71651E-03-3.90827E-14
 -1       753 1.31722E-02-4.92050E-03-4.07781E-14
 -1       754 1.34579E-02-5.12435E-03-4.24910E-14
 -1       755 1.37436E-02-5.32809E-03-4.42185E-14
 -1       756 1.40294E-02-5.53175E-03-4.59542E-14
 -1       757 1.43008E-02-5.72517E-03-4.76165E-14
 -1       758 1.45865E-02-5.92872E-03-4.93820E-14
 -1       759 1.48723E-02-6.13225E-03-5.11637E-14
 -1       760 1.50694E-02-6.28748E-03-5.26399E-14
 -1       761 4.05497E-03 3.88804E-04-4.34799E-15
 -1       762 3.44497E-03 3.85172E-04-3.09102E-15
 -1       763 4.35226E-03 3.64847E-04-5.06401E-15
 -1       764 4.64363E-03 3.10200E-04-5.84050E-15
 -1       765 4.93180E-03 2.17277E-04-6.67935E-15
 -1       766 5.22111E-03 8.45799E-05-7.58085E-15
 -1       767 5.51519E-03-8.25364E-05-8.54864E-15
 -1       768 5.81522E-03-2.74304E-04-9.58240E-15
 -1       769 6.11978E-03-4.80328E-04-1.06783E-14
 -1       770 6.42612E-03-6.92403E-04-1.18338E-14
 -1       771 6.73153E-03-9.05394E-04-1.30444E-14
 -1       772 7.03421E-03-1.11679E-03-1.43044E-14
 -1       773 7.33338E-03-1.32581E-03-1.56172E-14
 -1       774 7.62906E-03-1.53255E-03-1.69780E-14
 -1       775 7.92173E-03-1.73748E-03-1.83802E-14
 -1       776 8.21202E-03-1.94113E-03-1.98216E-14
 -1       777 8.50059E-03-2.14394E-03-2.12978E-14
 -1       778 8.78796E-03-2.34628E-03-2.28060E-14
 -1       779 9.07457E-03-2.54842E-03-2.43447E-14
 -1       780 9.36070E-03-2.75050E-03-2.59134E-14
 -1       781 9.64657E-03-2.95266E-03-2.75053E-14
 -1       782 9.93230E-03-3.15494E-03-2.91220E-14
 -1       783 1.02180E-02-3.35738E-03-3.07567E-14
 -1       784 1.05036E-02-3.55997E-03-3.24076E-14
 -1       785 1.07893E-02-3.76272E-03-3.40782E-14
 -1       786 1.10749E-02-3.96561E-03-3.57760E-14
 -1       787 1.13606E-02-4.16862E-03-3.74982E-14
 -1       788 1.16463E-02-4.37173E-03-3.92405E-14
 -1       789 1.19320E-02-4.57493E-03-4.10026E-14
 -1       790 1.22177E-02-4.77819E-03-4.27807E-14
 -1       791 1.25034E-02-4.98150E-03-4.45775E-14
 -1       792 1.27891E-02-5.18484E-03-4.63865E-14
 -1       793 1.39220E-02-5.80433E-03-5.07133E-14
 -1       794 1.41212E-02-5.88825E-03-5.10737E-14
 -1       795 1.47189E-02-6.14004E-03-5.20992E-14
 -1       796 1.48942E-02-6.21376E-03-5.23689E-14
 -1       797 1.63961E-03 2.96551E-04-6.73913E-16
 -1       798 3.04522E-03-4.35400E-04-3.97036E-15
 -1       799 7.99592E-03-1.39742E-03-1.32497E-14
 -1       800 2.92106E-03-4.58159E-04-3.85103E-15
 -1       801 4.82697E-03 1.36058E-04-6.31671E-15
 -1       802 8.90591E-04-1.99952E-04-3.76821E-16
 -1       803 5.93817E-03-3.18999E-04-9.22672E-15
 -1       804 1.33818E-02-5.56787E-03-4.95586E-14
 -1       805 5.58386E-03-9.01298E-05-8.25961E-15
 -1       806 1.93275E-03 3.17574E-04-9.44008E-16
 -1       807 6.51567E-03-6.96265E-04-1.05967E-14
 -1       808 1.19300E-03-2.38510E-04-6.37328E-16
 -1       809 5.25819E-03 6.47176E-05-7.39900E-15
 -1       810 1.45197E-02-6.05611E-03-5.17737E-14
 -1       811 4.46105E-03 9.13405E-05-5.53681E-15
 -1       812 7.61200E-03-1.26804E-03-1.26668E-14
 -1       813 8.48855E-03-1.50722E-03-1.41087E-14
 -1       814 8.29670E-03-1.46502E-03-1.36688E-14
 -1       815 3.99336E-03-1.04990E-04-4.86853E-15
 -1       816 1.12503E-03-1.17885E-05-5.20095E-16
 -1       817 3.13736E-03 3.73510E-04-2.54840E-15
 -1       818 3.14470E-03-3.56859E-04-3.86389E-15
 -1       819 1.15088E-03 1.65514E-04-4.02707E-16
 -1       820 6.23440E-03-5.27023E-04-1.01399E-14
 -1       821 1.13976E-03 1.03023E-04-4.48209E-16
 -1       822 2.22893E-03 3.33994E-04-1.26359E-15
 -1       823 1.37228E-02-5.72040E-03-5.03436E-14
 -1       824 1.30855E-02-5.37635E-03-4.79721E-14
 -1       825 1.35523E-02-5.64413E-03-4.99538E-14
 -1       826 3.51734E-03-2.28808E-04-4.19053E-15
 -1       827 4.15278E-03 4.29602E-05-4.93408E-15
 -1       828 4.99553E-03 1.40311E-04-6.73406E-15
 -1       829 1.12502E-03-1.17773E-04-5.70887E-16
 -1       830 2.52843E-03 3.47864E-04-1.63627E-15
 -1       831 1.13389E-03-1.71058E-04-5.88336E-16
 -1       832 2.83139E-03 3.60791E-04-2.06337E-15
 -1       833 8.66600E-03-1.65563E-03-1.54277E-14
 -1       834 1.33300E-03 1.95516E-04-5.18005E-16
 -1       835 7.41905E-03-1.21859E-03-1.29048E-14
 -1       836 1.85694E-03-2.52139E-04-1.45612E-15
 -1       837 2.11875E-03-2.77764E-04-1.87975E-15
 -1       838 2.35691E-03-3.07440E-04-2.33187E-15
 -1       839 2.59223E-03-3.48716E-04-2.85865E-15
 -1       840 2.76806E-03-3.98382E-04-3.33769E-15
 -1       841 4.26344E-03 3.11520E-04-4.88887E-15
 -1       842 3.94796E-03 3.12954E-04-4.19180E-15
 -1       843 8.87972E-03-1.82513E-03-1.67808E-14
 -1       844 9.10592E-03-2.00031E-03-1.81010E-14
 -1       845 9.36067E-03-2.19444E-03-1.95317E-14
 -1       846 9.62686E-03-2.39457E-03-2.09994E-14
 -1       847 9.90048E-03-2.59801E-03-2.24988E-14
 -1       848 1.01788E-02-2.80307E-03-2.40282E-14
 -1       849 1.04601E-02-3.00879E-03-2.55885E-14
 -1       850 1.07291E-02-3.20433E-03-2.70930E-14
 -1       851 1.10133E-02-3.41003E-03-2.87010E-14
 -1       852 1.12981E-02-3.61545E-03-3.03317E-14
 -1       853 1.15834E-02-3.82057E-03-3.19768E-14
 -1       854 1.18688E-02-4.02540E-03-3.36377E-14
 -1       855 1.21544E-02-4.22995E-03-3.53053E-14
 -1       856 1.24258E-02-4.42407E-03-3.68960E-14
 -1       857 1.27115E-02-4.62820E-03-3.85757E-14
 -1       858 1.29973E-02-4.83218E-03-4.02688E-14
 -1       859 1.32830E-02-5.03602E-03-4.19791E-14
 -1       860 1.35687E-02-5.23976E-03-4.37047E-14
 -1       861 1.38545E-02-5.44342E-03-4.54434E-14
 -1       862 1.41259E-02-5.63684E-03-4.71064E-14
 -1       863 1.44116E-02-5.84039E-03-4.88708E-14
 -1       864 1.46974E-02-6.04392E-03-5.06541E-14
 -1       865 3.62741E-03 3.02141E-04-3.55177E-15
 -1       866 4.87161E-03 2.16503E-04-6.46801E-15
 -1       867 5.17064E-03 1.01337E-04-7.35283E-15
 -1       868 5.47413E-03-5.82231E-05-8.30092E-15
 -1       869 5.78516E-03-2.50093E-04-9.31809E-15
 -1       870 6.10235E-03-4.59581E-04-1.03974E-14
 -1       871 6.42162E-03-6.74965E-04-1.15363E-14
 -1       872 6.73875E-03-8.89529E-04-1.27302E-14
 -1       873 7.05097E-03-1.10068E-03-1.39743E-14
 -1       874 7.35723E-03-1.30823E-03-1.52712E-14
 -1       875 7.65778E-03-1.51298E-03-1.66175E-14
 -1       876 7.95352E-03-1.71589E-03-1.80085E-14
 -1       877 8.24558E-03-1.91779E-03-1.94373E-14
 -1       878 8.53503E-03-2.11923E-03-2.09025E-14
 -1       879 8.82272E-03-2.32056E-03-2.23985E-14
 -1       880 9.10932E-03-2.52200E-03-2.39244E-14
 -1       881 9.39528E-03-2.72364E-03-2.54832E-14
 -1       882 9.68090E-03-2.92551E-03-2.70652E-14
 -1       883 9.96638E-03-3.12763E-03-2.86730E-14
 -1       884 1.02518E-02-3.32998E-03-3.03025E-14
 -1       885 1.05373E-02-3.53253E-03-3.19446E-14
 -1       886 1.08228E-02-3.73526E-03-3.36053E-14
 -1       887 1.11083E-02-3.93814E-03-3.52858E-14
 -1       888 1.13939E-02-4.14115E-03-3.69946E-14
 -1       889 1.16796E-02-4.34426E-03-3.87264E-14
 -1       890 1.19653E-02-4.54745E-03-4.04740E-14
 -1       891 1.22509E-02-4.75071E-03-4.22393E-14
 -1       892 1.25367E-02-4.95402E-03-4.40246E-14
 -1       893 1.28224E-02-5.15737E-03-4.58246E-14
 -1       894 5.65898E-03-1.54660E-04-8.60237E-15
 -1       895 1.77111E-03 2.33392E-04-8.84357E-16
 -1       896 1.12254E-03-6.53370E-05-5.48047E-16
 -1       897 1.58755E-03-2.27998E-04-1.08505E-15
 -1       898 4.57094E-03 2.84055E-04-5.64691E-15
 -1       899 6.83367E-03-9.06898E-04-1.16980E-14
 -1       900 5.34730E-03 1.77950E-05-7.71942E-15
 -1       901 7.92005E-03-1.42801E-03-1.38454E-14
 -1       902 4.58173E-03 1.71295E-04-5.72197E-15
 -1       903 8.47702E-03-1.60306E-03-1.49719E-14
 -1       904 8.22307E-03-1.52745E-03-1.44068E-14
 -1       905 3.30626E-03 2.88411E-04-2.96824E-15
 -1       906 3.19869E-03-2.55420E-04-3.68034E-15
 -1       907 1.36547E-03-1.66400E-04-8.18952E-16
 -1       908 2.06759E-03 2.46584E-04-1.19460E-15
 -1       909 5.93829E-03-3.38936E-04-9.47750E-15
 -1       910 1.39734E-02-5.75402E-03-4.96786E-14
 -1       911 2.36890E-03 2.56731E-04-1.55595E-15
 -1       912 1.35750E-02-5.58620E-03-4.89596E-14
 -1       913 1.31187E-02-5.34887E-03-4.74024E-14
 -1       914 1.33355E-02-5.49650E-03-4.86758E-14
 -1       915 1.37742E-02-5.67011E-03-4.93224E-14
 -1       916 1.45221E-02-5.97020E-03-5.03739E-14
 -1       917 3.82109E-03-3.37115E-05-4.37890E-15
 -1       918 4.29809E-03 1.51621E-04-5.10499E-15
 -1       919 2.86995E-03-3.74730E-04-3.45082E-15
 -1       920 6.55258E-03-7.41051E-04-1.12106E-14
 -1       921 1.36022E-03-1.08187E-04-7.92016E-16
 -1       922 1.41726E-02-5.83794E-03-5.00293E-14
 -1       923 1.37925E-03 8.00902E-05-6.69285E-16
 -1       924 1.43473E-02-5.90407E-03-5.02077E-14
 -1       925 2.67568E-03 2.65932E-04-1.97080E-15
 -1       926 1.36913E-03 1.40508E-05-7.16969E-16
 -1       927 3.91416E-03 1.02821E-04-4.36123E-15
 -1       928 7.23189E-03-1.14600E-03-1.30355E-14
 -1       929 2.23943E-03-2.40307E-04-2.05680E-15
 -1       930 2.49577E-03-2.78259E-04-2.55086E-15
 -1       931 4.15212E-03 2.35828E-04-4.70575E-15
 -1       932 8.68821E-03-1.75979E-03-1.63090E-14
 -1       933 1.35552E-03 1.37535E-04-5.94529E-16
 -1       934 8.90988E-03-1.92395E-03-1.76167E-14
 -1       935 9.15940E-03-2.10871E-03-1.90349E-14
 -1       936 9.42080E-03-2.30182E-03-2.04916E-14
 -1       937 9.69043E-03-2.50022E-03-2.19791E-14
 -1       938 9.96566E-03-2.70179E-03-2.34972E-14
 -1       939 1.02446E-02-2.90513E-03-2.50452E-14
 -1       940 1.05119E-02-3.09915E-03-2.65352E-14
 -1       941 1.07948E-02-3.30377E-03-2.81330E-14
 -1       942 1.10788E-02-3.50849E-03-2.97524E-14
 -1       943 1.13634E-02-3.71315E-03-3.13899E-14
 -1       944 1.16485E-02-3.91768E-03-3.30468E-14
 -1       945 1.19338E-02-4.12204E-03-3.47155E-14
 -1       946 1.22050E-02-4.31603E-03-3.63026E-14
 -1       947 1.24906E-02-4.52008E-03-3.79799E-14
 -1       948 1.27762E-02-4.72400E-03-3.96692E-14
 -1       949 1.30619E-02-4.92781E-03-4.13759E-14
 -1       950 1.33476E-02-5.13153E-03-4.30968E-14
 -1       951 1.36333E-02-5.33517E-03-4.48385E-14
 -1       952 1.39048E-02-5.52859E-03-4.65072E-14
 -1       953 1.41905E-02-5.73214E-03-4.82726E-14
 -1       954 5.74752E-03-2.21654E-04-9.03998E-15
 -1       955 3.81597E-03 2.17032E-04-4.02568E-15
 -1       956 5.11063E-03 1.19035E-04-7.11022E-15
 -1       957 6.07942E-03-4.38744E-04-1.01049E-14
 -1       958 6.41408E-03-6.61174E-04-1.12287E-14
 -1       959 6.74530E-03-8.79438E-04-1.24080E-14
 -1       960 7.06863E-03-1.09080E-03-1.36386E-14
 -1       961 7.38276E-03-1.29623E-03-1.49193E-14
 -1       962 7.68836E-03-1.49784E-03-1.62512E-14
 -1       963 7.98705E-03-1.69754E-03-1.76287E-14
 -1       964 8.28062E-03-1.89662E-03-1.90465E-14
 -1       965 8.57065E-03-2.09585E-03-2.05014E-14
 -1       966 8.85840E-03-2.29558E-03-2.19863E-14
 -1       967 9.14477E-03-2.49592E-03-2.35038E-14
 -1       968 9.43039E-03-2.69685E-03-2.50522E-14
 -1       969 9.71564E-03-2.89830E-03-2.66262E-14
 -1       970 1.00008E-02-3.10018E-03-2.82233E-14
 -1       971 1.02859E-02-3.30242E-03-2.98459E-14
 -1       972 1.05711E-02-3.50493E-03-3.14815E-14
 -1       973 1.08565E-02-3.70765E-03-3.31351E-14
 -1       974 1.11419E-02-3.91055E-03-3.48030E-14
 -1       975 1.14274E-02-4.11358E-03-3.64943E-14
 -1       976 1.17129E-02-4.31671E-03-3.82100E-14
 -1       977 1.19986E-02-4.51992E-03-3.99474E-14
 -1       978 1.22842E-02-4.72320E-03-4.17035E-14
 -1       979 1.25699E-02-4.92652E-03-4.34763E-14
 -1       980 1.28556E-02-5.12988E-03-4.52640E-14
 -1       981 1.36220E-03-4.83650E-05-7.57746E-16
 -1       982 1.34552E-02-5.54135E-03-4.88188E-14
 -1       983 4.79903E-03 2.06854E-04-6.24469E-15
 -1       984 3.42031E-03-9.28695E-05-3.73168E-15
 -1       985 5.44667E-03-3.98384E-05-8.09055E-15
 -1       986 1.97559E-03-2.10488E-04-1.61625E-15
 -1       987 2.98830E-03 2.76092E-04-2.44061E-15
 -1       988 1.70619E-03-1.85570E-04-1.22790E-15
 -1       989 7.79283E-03-1.42091E-03-1.42649E-14
 -1       990 2.89713E-03-3.02244E-04-3.28721E-15
 -1       991 4.48103E-03 2.39724E-04-5.44330E-15
 -1       992 1.38255E-02-5.61978E-03-4.82911E-14
 -1       993 6.94897E-03-9.91414E-04-1.25196E-14
 -1       994 3.53384E-03 4.19699E-05-3.71651E-15
 -1       995 1.36263E-02-5.53588E-03-4.79350E-14
 -1       996 8.45028E-03-1.67710E-03-1.57235E-14
 -1       997 3.47924E-03 1.97806E-04-3.40303E-15
 -1       998 2.20416E-03 1.68962E-04-1.46417E-15
 -1       999 1.31520E-02-5.32138E-03-4.68376E-14
 -1      1000 6.13053E-03-4.67954E-04-1.00976E-14
 -1      1001 1.90476E-03 1.64001E-04-1.11376E-15
 -1      1002 8.17679E-03-1.58186E-03-1.51495E-14
 -1      1003 1.34271E-02-5.45199E-03-4.75763E-14
 -1      1004 1.40157E-02-5.66602E-03-4.80965E-14
 -1      1005 1.55647E-03 1.49090E-04-7.67192E-16
 -1      1006 1.62073E-03 4.61400E-05-9.37344E-16
 -1      1007 2.51035E-03 1.72278E-04-1.86682E-15
 -1      1008 3.05578E-03-1.36540E-04-3.18507E-15
 -1      1009 2.64638E-03-2.09895E-04-2.66571E-15
 -1      1010 1.31308E-02-5.26046E-03-4.60061E-14
 -1      1011 8.85632E-03-1.96368E-03-1.80696E-14
 -1      1012 9.11580E-03-2.14772E-03-1.94991E-14
 -1      1013 9.38281E-03-2.33927E-03-2.09677E-14
 -1      1014 9.65544E-03-2.53592E-03-2.24659E-14
 -1      1015 9.93215E-03-2.73584E-03-2.39927E-14
 -1      1016 1.01977E-02-2.92762E-03-2.54643E-14
 -1      1017 1.04792E-02-3.13066E-03-2.70412E-14
 -1      1018 1.07621E-02-3.33434E-03-2.86455E-14
 -1      1019 1.10460E-02-3.53832E-03-3.02688E-14
 -1      1020 1.13305E-02-3.74242E-03-3.19103E-14
 -1      1021 1.16154E-02-3.94650E-03-3.35727E-14
 -1      1022 1.18864E-02-4.14033E-03-3.51533E-14
 -1      1023 1.21718E-02-4.34427E-03-3.68248E-14
 -1      1024 1.24573E-02-4.54812E-03-3.85091E-14
 -1      1025 1.27429E-02-4.75189E-03-4.02113E-14
 -1      1026 1.30286E-02-4.95558E-03-4.19223E-14
 -1      1027 1.33142E-02-5.15922E-03-4.36561E-14
 -1      1028 1.35857E-02-5.35262E-03-4.53221E-14
 -1      1029 1.38007E-02-5.50933E-03-4.67058E-14
 -1      1030 7.28284E-03-1.19691E-03-1.37558E-14
 -1      1031 7.60077E-03-1.39286E-03-1.50399E-14
 -1      1032 7.90617E-03-1.58495E-03-1.63747E-14
 -1      1033 8.20269E-03-1.77662E-03-1.77547E-14
 -1      1034 8.49353E-03-1.96962E-03-1.91750E-14
 -1      1035 8.78093E-03-2.16460E-03-2.06286E-14
 -1      1036 9.06642E-03-2.36155E-03-2.21164E-14
 -1      1037 9.35099E-03-2.56020E-03-2.36355E-14
 -1      1038 9.63522E-03-2.76021E-03-2.51854E-14
 -1      1039 9.91945E-03-2.96123E-03-2.67610E-14
 -1      1040 1.02038E-02-3.16300E-03-2.83604E-14
 -1      1041 1.04884E-02-3.36529E-03-2.99836E-14
 -1      1042 1.07733E-02-3.56793E-03-3.16183E-14
 -1      1043 1.10583E-02-3.77083E-03-3.32691E-14
 -1      1044 1.13436E-02-3.97390E-03-3.49322E-14
 -1      1045 1.16289E-02-4.17708E-03-3.66145E-14
 -1      1046 1.19144E-02-4.38035E-03-3.83196E-14
 -1      1047 1.22000E-02-4.58367E-03-4.00427E-14
 -1      1048 1.24856E-02-4.78702E-03-4.17859E-14
 -1      1049 1.27713E-02-4.99041E-03-4.35489E-14
 -1      1050 1.29510E-02-5.12543E-03-4.47745E-14
 -1      1051 2.03795E-03 8.80502E-05-1.36232E-15
 -1      1052 8.08903E-03-1.59276E-03-1.55807E-14
 -1      1053 2.36636E-03-1.74605E-04-2.16458E-15
 -1      1054 7.63275E-03-1.37654E-03-1.44725E-14
 -1      1055 2.08909E-03-1.45492E-04-1.71580E-15
 -1      1056 8.64851E-03-1.81563E-03-1.68817E-14
 -1      1057 1.39206E-02-5.64290E-03-4.81952E-14
 -1      1058 3.14739E-03 1.84083E-04-2.83521E-15
 -1      1059 1.60858E-03-2.55965E-05-9.93400E-16
 -1      1060 2.82442E-03 1.76402E-04-2.32352E-15
 -1      1061 1.81213E-03-1.21968E-04-1.31970E-15
 -1      1062 3.17515E-03-1.67159E-05-3.17655E-15
 -1      1063 1.34785E-02-5.40163E-03-4.65612E-14
 -1      1064 1.32887E-02-5.33064E-03-4.63530E-14
 -1      1065 1.35736E-02-5.42473E-03-4.64725E-14
 -1      1066 8.43995E-03-1.74547E-03-1.64952E-14
 -1      1067 1.90580E-03-2.15970E-06-1.30992E-15
 -1      1068 2.33926E-03 8.43898E-05-1.75237E-15
 -1      1069 1.96422E-03-6.78579E-05-1.45754E-15
 -1      1070 1.36871E-02-5.46703E-03-4.65902E-14
 -1      1071 9.06818E-03-2.18038E-03-1.99550E-14
 -1      1072 9.34136E-03-2.37229E-03-2.14320E-14
 -1      1073 9.61768E-03-2.56856E-03-2.29389E-14
 -1      1074 9.88255E-03-2.75779E-03-2.43969E-14
 -1      1075 1.01633E-02-2.95889E-03-2.59544E-14
 -1      1076 1.04454E-02-3.16122E-03-2.75393E-14
 -1      1077 1.07287E-02-3.36427E-03-2.91488E-14
 -1      1078 1.10127E-02-3.56773E-03-3.07770E-14
 -1      1079 1.12972E-02-3.77139E-03-3.24235E-14
 -1      1080 1.15679E-02-3.96493E-03-3.40034E-14
 -1      1081 1.18531E-02-4.16868E-03-3.56688E-14
 -1      1082 1.21384E-02-4.37240E-03-3.73438E-14
 -1      1083 1.24240E-02-4.57608E-03-3.90391E-14
 -1      1084 1.27095E-02-4.77972E-03-4.07467E-14
 -1      1085 1.29952E-02-4.98331E-03-4.24692E-14
 -1      1086 1.32666E-02-5.17669E-03-4.41247E-14
 -1      1087 8.25111E-03-1.76322E-03-1.73498E-14
 -1      1088 8.53863E-03-1.95083E-03-1.87574E-14
 -1      1089 8.82306E-03-2.14200E-03-2.02032E-14
 -1      1090 9.10615E-03-2.33640E-03-2.16816E-14
 -1      1091 9.38888E-03-2.53347E-03-2.31928E-14
 -1      1092 9.67175E-03-2.73257E-03-2.47325E-14
 -1      1093 9.95499E-03-2.93313E-03-2.63006E-14
 -1      1094 1.02387E-02-3.13472E-03-2.78942E-14
 -1      1095 1.05228E-02-3.33699E-03-2.95123E-14
 -1      1096 1.08073E-02-3.53971E-03-3.11396E-14
 -1      1097 1.10921E-02-3.74272E-03-3.27844E-14
 -1      1098 1.13772E-02-3.94591E-03-3.44450E-14
 -1      1099 1.16624E-02-4.14920E-03-3.61165E-14
 -1      1100 1.19478E-02-4.35256E-03-3.78047E-14
 -1      1101 1.22334E-02-4.55596E-03-3.95194E-14
 -1      1102 1.25190E-02-4.75938E-03-4.12497E-14
 -1      1103 1.28046E-02-4.96281E-03-4.29943E-14
 -1      1104 7.98648E-03-1.58812E-03-1.59831E-14
 -1      1105 8.33665E-03-1.75610E-03-1.69156E-14
 -1      1106 2.64909E-03 7.99708E-05-2.19631E-15
 -1      1107 2.54377E-03-1.12455E-04-2.33294E-15
 -1      1108 2.19838E-03-1.48216E-05-1.69760E-15
 -1      1109 2.25120E-03-8.81808E-05-1.86933E-15
 -1      1110 2.90888E-03 3.29467E-05-2.66416E-15
 -1      1111 8.79877E-03-1.99464E-03-1.85132E-14
 -1      1112 8.61762E-03-1.86745E-03-1.74928E-14
 -1      1113 2.81405E-03-2.80213E-05-2.60937E-15
 -1      1114 1.34769E-02-5.32187E-03-4.53563E-14
 -1      1115 1.29843E-02-5.09787E-03-4.42092E-14
 -1      1116 1.32412E-02-5.22373E-03-4.49454E-14
 -1      1117 9.02115E-03-2.20854E-03-2.04031E-14
 -1      1118 9.29947E-03-2.40186E-03-2.18881E-14
 -1      1119 9.56512E-03-2.58879E-03-2.33272E-14
 -1      1120 9.84603E-03-2.78799E-03-2.48677E-14
 -1      1121 1.01281E-02-2.98889E-03-2.64357E-14
 -1      1122 1.04110E-02-3.19089E-03-2.80294E-14
 -1      1123 1.06947E-02-3.39359E-03-2.96481E-14
 -1      1124 1.09790E-02-3.59670E-03-3.12790E-14
 -1      1125 1.12495E-02-3.78988E-03-3.28442E-14
 -1      1126 1.15345E-02-3.99334E-03-3.45048E-14
 -1      1127 1.18197E-02-4.19687E-03-3.61753E-14
 -1      1128 1.21051E-02-4.40041E-03-3.78596E-14
 -1      1129 1.23906E-02-4.60395E-03-3.95649E-14
 -1      1130 1.26762E-02-4.80748E-03-4.12843E-14
 -1      1131 1.29476E-02-5.00082E-03-4.29309E-14
 -1      1132 2.48971E-03-6.12107E-06-2.08923E-15
 -1      1133 8.59016E-03-1.93170E-03-1.83327E-14
 -1      1134 0.00000E+00 0.00000E+00 0.00000E+00
 -1      1135 0.00000E+00 0.00000E+00 0.00000E+00
 -1      1136 0.00000E+00 0.00000E+00 0.00000E+00
 -1      1137 0.00000E+00 0.00000E+00 0.00000E+00
 -1      1138 0.00000E+00 0.00000E+00 0.00000E+00
 -1      1139 0.00000E+00 0.00000E+00 0.00000E+00
 -1      1140 0.00000E+00 0.00000E+00 0.00000E+00
 -1      1141 0.00000E+00 0.00000E+00 0.00000E+00
 -1      1142 0.00000E+00 0.00000E+00 0.00000E+00
 -1      1143 0.00000E+00 0.00000E+00 0.00000E+00
 -1      1144 0.00000E+00 0.00000E+00 0.00000E+00
 -1      1145 0.00000E+00 0.00000E+00 0.00000E+00
 -1      1146 0.00000E+00 0.00000E+00 0.00000E+00
 -1      1147 0.00000E+00 0.00000E+00 0.00000E+00
 -1      1148 0.00000E+00 0.00000E+00 0.00000E+00
 -1      1149 0.00000E+00 0.00000E+00 0.00000E+00
 -1      1150 0.00000E+00 0.00000E+00 0.00000E+00
 -1      1151 2.02162E-04-1.41620E-04-2.07354E-18
 -1      1152 5.36998E-04-3.24474E-04-4.65665E-17
 -1      1153 8.22484E-04-4.43003E-04-1.52317E-16
 -1      1154 1.09716E-03-5.20467E-04-3.29164E-16
 -1      1155 1.37019E-03-5.72440E-04-5.72066E-16
 -1      1156 1.63960E-03-6.06204E-04-8.70899E-16
 -1      1157 1.91611E-03-6.27792E-04-1.22832E-15
 -1      1158 2.21145E-03-6.41002E-04-1.65272E-15
 -1      1159 2.52458E-03-6.49298E-04-2.13397E-15
 -1      1160 2.86401E-03-6.59019E-04-2.67587E-15
 -1      1161 3.24174E-03-6.82015E-04-3.27559E-15
 -1      1162 3.66154E-03-7.39540E-04-3.90939E-15
 -1      1163 4.14561E-03-8.72455E-04-4.58989E-15
 -1      1164 4.70714E-03-1.15227E-03-5.34032E-15
 -1      1165 5.27124E-03-1.61637E-03-6.13187E-15
 -1      1166 5.70547E-03-2.14889E-03-6.90584E-15
 -1      1167 5.97009E-03-2.56316E-03-7.66039E-15
 -1      1168 6.14129E-03-2.73597E-03-8.46591E-15
 -1      1169 6.31507E-03-2.63878E-03-9.27897E-15
 -1      1170 6.57647E-03-2.37499E-03-1.01353E-14
 -1      1171 6.97246E-03-2.05526E-03-1.11204E-14
 -1      1172 7.48498E-03-1.80719E-03-1.22687E-14
 -1      1173 8.03037E-03-1.71573E-03-1.35439E-14
 -1      1174 8.53065E-03-1.76837E-03-1.48715E-14
 -1      1175 8.97671E-03-1.90965E-03-1.62553E-14
 -1      1176 9.36893E-03-2.09357E-03-1.76508E-14
 -1      1177 9.72341E-03-2.29571E-03-1.90759E-14
 -1      1178 1.00529E-02-2.50467E-03-2.05298E-14
 -1      1179 1.03586E-02-2.71018E-03-2.19796E-14
 -1      1180 1.06544E-02-2.91552E-03-2.34586E-14
 -1      1181 1.09513E-02-3.12527E-03-2.50213E-14
 -1      1182 1.12441E-02-3.33397E-03-2.66192E-14
 -1      1183 1.15341E-02-3.54167E-03-2.82385E-14
 -1      1184 1.18225E-02-3.74851E-03-2.98788E-14
 -1      1185 1.21027E-02-3.94950E-03-3.14807E-14
 -1      1186 1.23821E-02-4.14994E-03-3.30835E-14
 -1      1187 1.26684E-02-4.35506E-03-3.47489E-14
 -1      1188 1.29543E-02-4.55981E-03-3.64292E-14
 -1      1189 1.32401E-02-4.76426E-03-3.81158E-14
 -1      1190 1.35257E-02-4.96848E-03-3.98079E-14
 -1      1191 1.38042E-02-5.16741E-03-4.14698E-14
 -1      1192 1.40827E-02-5.36621E-03-4.31446E-14
 -1      1193 1.43682E-02-5.56999E-03-4.48704E-14
 -1      1194 1.46538E-02-5.77368E-03-4.66149E-14
 -1      1195 1.49394E-02-5.97730E-03-4.83723E-14
 -1      1196 1.52251E-02-6.18087E-03-5.01340E-14
 -1      1197 1.55036E-02-6.37932E-03-5.18522E-14
 -1      1198 1.57821E-02-6.57775E-03-5.35713E-14
 -1      1199 1.60678E-02-6.78126E-03-5.53392E-14
 -1      1200 1.63535E-02-6.98476E-03-5.71039E-14
 -1      1201 1.66392E-02-7.18827E-03-5.88832E-14
 -1      1202 1.69177E-02-7.38669E-03-6.06159E-14
 -1      1203 2.28321E-04 1.59958E-04 2.85416E-17
 -1      1204 5.54583E-04 3.39382E-04 6.94025E-17
 -1      1205 8.37010E-04 4.56577E-04 8.10306E-17
 -1      1206 1.10907E-03 5.36614E-04 5.57822E-17
 -1      1207 1.37744E-03 5.93731E-04-1.17907E-17
 -1      1208 1.64532E-03 6.35772E-04-1.27502E-16
 -1      1209 1.91395E-03 6.67572E-04-2.92680E-16
 -1      1210 2.18332E-03 6.92402E-04-5.08694E-16
 -1      1211 2.45250E-03 7.12409E-04-7.79799E-16
 -1      1212 2.71989E-03 7.28642E-04-1.10643E-15
 -1      1213 2.98341E-03 7.40912E-04-1.49464E-15
 -1      1214 3.24083E-03 7.47605E-04-1.94213E-15
 -1      1215 3.49016E-03 7.45612E-04-2.45030E-15
 -1      1216 3.73022E-03 7.30511E-04-3.02068E-15
 -1      1217 3.96109E-03 6.97119E-04-3.64970E-15
 -1      1218 4.18446E-03 6.40409E-04-4.33567E-15
 -1      1219 4.40356E-03 5.56614E-04-5.08349E-15
 -1      1220 4.62259E-03 4.44167E-04-5.89456E-15
 -1      1221 4.84590E-03 3.04135E-04-6.77212E-15
 -1      1222 5.07712E-03 1.39984E-04-7.71797E-15
 -1      1223 5.31851E-03-4.32352E-05-8.72668E-15
 -1      1224 5.57075E-03-2.39942E-04-9.80498E-15
 -1      1225 5.83320E-03-4.44974E-04-1.09468E-14
 -1      1226 6.10427E-03-6.54193E-04-1.21471E-14
 -1      1227 6.38199E-03-8.64695E-04-1.34016E-14
 -1      1228 6.66440E-03-1.07473E-03-1.47081E-14
 -1      1229 6.94982E-03-1.28343E-03-1.60665E-14
 -1      1230 7.23691E-03-1.49058E-03-1.74731E-14
 -1      1231 7.52475E-03-1.69626E-03-1.89198E-14
 -1      1232 7.81275E-03-1.90077E-03-2.04062E-14
 -1      1233 8.10056E-03-2.10442E-03-2.19278E-14
 -1      1234 8.38803E-03-2.30750E-03-2.34833E-14
 -1      1235 8.67510E-03-2.51026E-03-2.50569E-14
 -1      1236 8.96181E-03-2.71287E-03-2.66523E-14
 -1      1237 9.24820E-03-2.91545E-03-2.82627E-14
 -1      1238 9.53434E-03-3.11808E-03-2.99065E-14
 -1      1239 9.82029E-03-3.32081E-03-3.15885E-14
 -1      1240 1.01061E-02-3.52363E-03-3.32874E-14
 -1      1241 1.03918E-02-3.72657E-03-3.49996E-14
 -1      1242 1.06775E-02-3.92961E-03-3.67345E-14
 -1      1243 1.09631E-02-4.13274E-03-3.85131E-14
 -1      1244 1.12488E-02-4.33594E-03-4.03248E-14
 -1      1245 1.15344E-02-4.53921E-03-4.21437E-14
 -1      1246 1.18200E-02-4.74252E-03-4.39805E-14
 -1      1247 1.21057E-02-4.94586E-03-4.58368E-14
 -1      1248 1.23913E-02-5.14923E-03-4.76859E-14
 -1      1249 1.26770E-02-5.35261E-03-4.95317E-14
 -1      1250 1.29627E-02-5.55600E-03-5.13873E-14
 -1      1251 1.32484E-02-5.75938E-03-5.32416E-14
 -1      1252 1.35270E-02-5.95767E-03-5.50419E-14
 -1      1253 1.37627E-02-6.09641E-03-5.60872E-14
 -1      1254 1.39627E-02-6.18070E-03-5.64438E-14
 -1      1255 1.41627E-02-6.26499E-03-5.68235E-14
 -1      1256 1.43626E-02-6.34930E-03-5.72053E-14
 -1      1257 1.45626E-02-6.43361E-03-5.75928E-14
 -1      1258 1.47609E-02-6.51722E-03-5.79626E-14
 -1      1259 1.49592E-02-6.60084E-03-5.83384E-14
 -1      1260 1.51592E-02-6.68518E-03-5.87209E-14
 -1      1261 1.53592E-02-6.76953E-03-5.91157E-14
 -1      1262 1.55593E-02-6.85387E-03-5.94825E-14
 -1      1263 1.57594E-02-6.93822E-03-5.97932E-14
 -1      1264 1.59578E-02-7.02184E-03-6.00866E-14
 -1      1265 1.61562E-02-7.10545E-03-6.03511E-14
 -1      1266 1.63564E-02-7.18977E-03-6.05688E-14
 -1      1267 1.65565E-02-7.27407E-03-6.07976E-14
 -1      1268 1.67566E-02-7.35836E-03-6.10519E-14
 -1      1269 1.69551E-02-7.44193E-03-6.13275E-14
 -1      1270 8.20765E-03-1.07438E-03-1.04232E-14
 -1      1271 7.99315E-03-9.07820E-04-1.02277E-14
 -1      1272 7.68069E-03-7.31827E-04-9.93018E-15
 -1      1273 7.29721E-03-5.51682E-04-9.55285E-15
 -1      1274 6.87396E-03-3.79348E-04-9.12611E-15
 -1      1275 6.41153E-03-2.21203E-04-8.65502E-15
 -1      1276 5.93065E-03-9.52907E-05-8.15979E-15
 -1      1277 5.45532E-03-1.89961E-05-7.67054E-15
 -1      1278 4.98523E-03 2.43053E-06-7.20035E-15
 -1      1279 4.54530E-03-2.74626E-05-6.79063E-15
 -1      1280 4.11827E-03-1.05369E-04-6.42899E-15
 -1      1281 3.73875E-03-2.15250E-04-6.13667E-15
 -1      1282 3.42831E-03-3.46703E-04-5.92574E-15
 -1      1283 3.20837E-03-4.91311E-04-5.80170E-15
 -1      1284 3.10386E-03-6.43821E-04-5.76847E-15
 -1      1285 3.11713E-03-8.13844E-04-5.82709E-15
 -1      1286 3.24727E-03-1.00376E-03-5.96790E-15
 -1      1287 3.48858E-03-1.23078E-03-6.18684E-15
 -1      1288 3.84960E-03-1.51222E-03-6.49615E-15
 -1      1289 4.30602E-03-1.82936E-03-6.88242E-15
 -1      1290 4.80812E-03-2.13002E-03-7.30443E-15
 -1      1291 5.34957E-03-2.36845E-03-7.76018E-15
 -1      1292 5.93061E-03-2.49089E-03-8.25441E-15
 -1      1293 6.51469E-03-2.45726E-03-8.75995E-15
 -1      1294 7.04434E-03-2.29259E-03-9.23393E-15
 -1      1295 7.51056E-03-2.05797E-03-9.65952E-15
 -1      1296 7.89312E-03-1.81121E-03-1.00212E-14
 -1      1297 8.15223E-03-1.59658E-03-1.02842E-14
 -1      1298 8.29176E-03-1.41179E-03-1.04486E-14
 -1      1299 8.31137E-03-1.23957E-03-1.05002E-14
 -1      1300 1.59029E-04-1.03661E-04-1.07065E-17
 -1      1301 1.13257E-04-5.50741E-05-1.92852E-17
 -1      1302 1.18233E-04-6.58366E-05-1.69000E-17
 -1      1303 1.09013E-04-4.12954E-05-2.27411E-17
 -1      1304 1.10978E-04-4.74871E-05-2.18331E-17
 -1      1305 2.27867E-04-1.03566E-04-5.14996E-17
 -1      1306 1.07111E-04-3.14656E-05-2.38389E-17
 -1      1307 1.08130E-04-3.61030E-05-2.36356E-17
 -1      1308 2.20139E-04-7.81204E-05-5.69748E-17
 -1      1309 1.05967E-04-2.35865E-05-2.41777E-17
 -1      1310 1.06578E-04-2.73791E-05-2.42184E-17
 -1      1311 2.16120E-04-5.92847E-05-5.88451E-17
 -1      1312 1.05266E-04-1.69613E-05-2.36221E-17
 -1      1313 1.05629E-04-2.01983E-05-2.38660E-17
 -1      1314 2.13670E-04-4.41296E-05-5.87231E-17
 -1      1315 1.04869E-04-1.08637E-05-2.25379E-17
 -1      1316 1.05062E-04-1.38824E-05-2.29038E-17
 -1      1317 2.12175E-04-3.10226E-05-5.69613E-17
 -1      1318 1.04727E-04-5.04007E-06-2.12504E-17
 -1      1319 1.04782E-04-7.95894E-06-2.17111E-17
 -1      1320 2.11395E-04-1.89186E-05-5.43185E-17
 -1      1321 1.04788E-04 7.99258E-07-1.98138E-17
 -1      1322 1.04734E-04-2.15493E-06-2.03559E-17
 -1      1323 2.11192E-04-7.22261E-06-5.14047E-17
 -1      1324 1.05009E-04 6.87709E-06-1.80655E-17
 -1      1325 1.04867E-04 3.78258E-06-1.85670E-17
 -1      1326 2.11444E-04 4.60996E-06-4.77320E-17
 -1      1327 1.05373E-04 1.33753E-05-1.58294E-17
 -1      1328 1.05146E-04 1.00499E-05-1.65747E-17
 -1      1329 2.12056E-04 1.70023E-05-4.31512E-17
 -1      1330 1.05891E-04 2.03499E-05-1.29156E-17
 -1      1331 1.05562E-04 1.67610E-05-1.38100E-17
 -1      1332 2.12992E-04 3.02037E-05-3.74185E-17
 -1      1333 1.06687E-04 2.82915E-05-9.55453E-18
 -1      1334 1.06162E-04 2.41660E-05-1.07743E-17
 -1      1335 2.14339E-04 4.47187E-05-3.04932E-17
 -1      1336 1.08027E-04 3.75479E-05-5.08220E-18
 -1      1337 1.07107E-04 3.26696E-05-6.74916E-18
 -1      1338 2.16404E-04 6.13203E-05-2.21584E-17
 -1      1339 1.10662E-04 4.92072E-05 1.00289E-18
 -1      1340 1.08788E-04 4.29140E-05-1.54499E-18
 -1      1341 2.19931E-04 8.11545E-05-1.12079E-17
 -1      1342 1.17342E-04 6.67606E-05 9.20217E-18
 -1      1343 1.12607E-04 5.67740E-05 5.43456E-18
 -1      1344 2.27207E-04 1.07308E-04 2.77827E-18
 -1      1345 1.57821E-04 1.09172E-04 2.03694E-17
 -1      1346 1.36092E-04 8.52685E-05 1.43250E-17
 -1      1347 2.56997E-04 1.50248E-04 1.87160E-17
 -1      1348 3.35764E-04 2.19013E-04 3.86789E-17
 -1      1349 4.07249E-04-2.48812E-04-4.65800E-17
 -1      1350 5.61942E-04-3.22761E-04-8.37411E-17
 -1      1351 7.11049E-04-3.81785E-04-1.39442E-16
 -1      1352 8.56467E-04-4.29169E-04-2.12544E-16
 -1      1353 6.01206E-04-3.15790E-04-1.25212E-16
 -1      1354 9.99141E-04-4.67981E-04-3.01571E-16
 -1      1355 1.14015E-03-4.99447E-04-4.06928E-16
 -1      1356 8.98747E-04-4.12348E-04-2.73219E-16
 -1      1357 1.28046E-03-5.25373E-04-5.28237E-16
 -1      1358 1.42075E-03-5.46317E-04-6.65565E-16
 -1      1359 1.18721E-03-4.76426E-04-4.84923E-16
 -1      1360 1.55459E-03-5.62465E-04-8.10604E-16
 -1      1361 1.68943E-03-5.75371E-04-9.69426E-16
 -1      1362 1.46561E-03-5.17708E-04-7.51352E-16
 -1      1363 1.83297E-03-5.85930E-04-1.15131E-15
 -1      1364 1.97864E-03-5.93914E-04-1.34808E-15
 -1      1365 1.74550E-03-5.43791E-04-1.07569E-15
 -1      1366 2.12702E-03-5.99599E-04-1.55918E-15
 -1      1367 2.27875E-03-6.03705E-04-1.78437E-15
 -1      1368 2.03785E-03-5.58778E-04-1.46683E-15
 -1      1369 2.43452E-03-6.06498E-04-2.02389E-15
 -1      1370 2.59521E-03-6.09035E-04-2.27811E-15
 -1      1371 2.33926E-03-5.65458E-04-1.91523E-15
 -1      1372 2.76170E-03-6.11915E-04-2.54752E-15
 -1      1373 2.93518E-03-6.16843E-04-2.83141E-15
 -1      1374 2.65397E-03-5.68409E-04-2.42140E-15
 -1      1375 3.11673E-03-6.25419E-04-3.12876E-15
 -1      1376 3.30777E-03-6.40630E-04-3.43890E-15
 -1      1377 2.98705E-03-5.75525E-04-2.98432E-15
 -1      1378 3.49907E-03-6.64573E-04-3.74538E-15
 -1      1379 3.70110E-03-7.02379E-04-4.06413E-15
 -1      1380 3.33523E-03-6.01373E-04-3.58509E-15
 -1      1381 3.92609E-03-7.63963E-04-4.41074E-15
 -1      1382 4.16380E-03-8.56439E-04-4.76947E-15
 -1      1383 3.71304E-03-6.74630E-04-4.23386E-15
 -1      1384 4.41390E-03-9.89441E-04-5.14316E-15
 -1      1385 4.67306E-03-1.17394E-03-5.53277E-15
 -1      1386 4.13948E-03-8.52968E-04-4.94949E-15
 -1      1387 4.92540E-03-1.40014E-03-5.91798E-15
 -1      1388 5.17343E-03-1.67346E-03-6.32052E-15
 -1      1389 4.60145E-03-1.20061E-03-5.70431E-15
 -1      1390 5.79567E-03-2.45258E-03-7.47242E-15
 -1      1391 5.93367E-03-2.61331E-03-7.85388E-15
 -1      1392 6.06238E-03-2.70391E-03-8.25343E-15
 -1      1393 6.18988E-03-2.71509E-03-8.67013E-15
 -1      1394 5.94303E-03-2.63731E-03-8.04432E-15
 -1      1395 6.30457E-03-2.66285E-03-9.04139E-15
 -1      1396 6.43014E-03-2.56504E-03-9.42382E-15
 -1      1397 6.24909E-03-2.66758E-03-8.80936E-15
 -1      1398 6.59053E-03-2.41296E-03-9.87510E-15
 -1      1399 6.76706E-03-2.24612E-03-1.03381E-14
 -1      1400 6.57222E-03-2.45023E-03-9.62083E-15
 -1      1401 6.97097E-03-2.07287E-03-1.08412E-14
 -1      1402 7.18423E-03-1.92293E-03-1.13536E-14
 -1      1403 6.96139E-03-2.10044E-03-1.05670E-14
 -1      1404 7.44250E-03-1.78922E-03-1.19736E-14
 -1      1405 7.69917E-03-1.70470E-03-1.26019E-14
 -1      1406 7.41558E-03-1.78346E-03-1.16823E-14
 -1      1407 7.94746E-03-1.66838E-03-1.32367E-14
 -1      1408 8.18543E-03-1.67054E-03-1.38763E-14
 -1      1409 7.88981E-03-1.62978E-03-1.29326E-14
 -1      1410 8.42241E-03-1.70516E-03-1.45553E-14
 -1      1411 8.64579E-03-1.76428E-03-1.52405E-14
 -1      1412 8.33695E-03-1.64639E-03-1.42417E-14
 -1      1413 8.85647E-03-1.84007E-03-1.59291E-14
 -1      1414 9.05547E-03-1.92763E-03-1.66219E-14
 -1      1415 8.75250E-03-1.77212E-03-1.56067E-14
 -1      1416 9.24467E-03-2.02253E-03-1.73197E-14
 -1      1417 9.42521E-03-2.12239E-03-1.80240E-14
 -1      1418 9.13086E-03-1.95177E-03-1.69891E-14
 -1      1419 9.59876E-03-2.22514E-03-1.87350E-14
 -1      1420 9.76634E-03-2.32966E-03-1.94534E-14
 -1      1421 9.48049E-03-2.15436E-03-1.83952E-14
 -1      1422 9.92917E-03-2.43512E-03-2.01807E-14
 -1      1423 1.00880E-02-2.54097E-03-2.09152E-14
 -1      1424 9.80926E-03-2.36524E-03-1.98327E-14
 -1      1425 1.02361E-02-2.64164E-03-2.16215E-14
 -1      1426 1.03817E-02-2.74217E-03-2.23361E-14
 -1      1427 1.01158E-02-2.57278E-03-2.12647E-14
 -1      1428 1.05330E-02-2.84783E-03-2.30962E-14
 -1      1429 1.06826E-02-2.95318E-03-2.38647E-14
 -1      1430 1.04130E-02-2.77988E-03-2.27313E-14
 -1      1431 1.08309E-02-3.05826E-03-2.46459E-14
 -1      1432 1.09781E-02-3.16300E-03-2.54362E-14
 -1      1433 1.07113E-02-2.99105E-03-2.42738E-14
 -1      1434 1.11244E-02-3.26747E-03-2.62355E-14
 -1      1435 1.12700E-02-3.37163E-03-2.70402E-14
 -1      1436 1.10052E-02-3.20082E-03-2.58530E-14
 -1      1437 1.14150E-02-3.47555E-03-2.78493E-14
 -1      1438 1.15596E-02-3.57922E-03-2.86619E-14
 -1      1439 1.12962E-02-3.40933E-03-2.74594E-14
 -1      1440 1.17039E-02-3.68268E-03-2.94793E-14
 -1      1441 1.18478E-02-3.78593E-03-3.03015E-14
 -1      1442 1.15853E-02-3.61676E-03-2.90852E-14
 -1      1443 1.19843E-02-3.88387E-03-3.10816E-14
 -1      1444 1.21207E-02-3.98166E-03-3.18631E-14
 -1      1445 1.18660E-02-3.81818E-03-3.06824E-14
 -1      1446 1.22640E-02-4.08446E-03-3.26881E-14
 -1      1447 1.24073E-02-4.18713E-03-3.35136E-14
 -1      1448 1.21460E-02-4.01894E-03-3.22888E-14
 -1      1449 1.25504E-02-4.28970E-03-3.43465E-14
 -1      1450 1.26935E-02-4.39216E-03-3.51864E-14
 -1      1451 1.24325E-02-4.22430E-03-3.39476E-14
 -1      1452 1.28365E-02-4.49453E-03-3.60259E-14
 -1      1453 1.29795E-02-4.59682E-03-3.68658E-14
 -1      1454 1.27187E-02-4.42923E-03-3.56192E-14
 -1      1455 1.31224E-02-4.69905E-03-3.77099E-14
 -1      1456 1.32653E-02-4.80121E-03-3.85547E-14
 -1      1457 1.30047E-02-4.63381E-03-3.73038E-14
 -1      1458 1.34081E-02-4.90331E-03-3.93992E-14
 -1      1459 1.35510E-02-5.00537E-03-4.02472E-14
 -1      1460 1.32905E-02-4.83813E-03-3.89919E-14
 -1      1461 1.36866E-02-5.10228E-03-4.10591E-14
 -1      1462 1.38223E-02-5.19916E-03-4.18724E-14
 -1      1463 1.35691E-02-5.03714E-03-4.06476E-14
 -1      1464 1.39651E-02-5.30110E-03-4.27276E-14
 -1      1465 1.41080E-02-5.40301E-03-4.35861E-14
 -1      1466 1.38476E-02-5.23599E-03-4.23107E-14
 -1      1467 1.42508E-02-5.50490E-03-4.44514E-14
 -1      1468 1.43936E-02-5.60676E-03-4.53181E-14
 -1      1469 1.41333E-02-5.43981E-03-4.40309E-14
 -1      1470 1.45364E-02-5.70860E-03-4.61890E-14
 -1      1471 1.46792E-02-5.81043E-03-4.70633E-14
 -1      1472 1.44189E-02-5.64353E-03-4.57657E-14
 -1      1473 1.48220E-02-5.91224E-03-4.79425E-14
 -1      1474 1.49648E-02-6.01403E-03-4.88205E-14
 -1      1475 1.47045E-02-5.84717E-03-4.75119E-14
 -1      1476 1.51076E-02-6.11582E-03-4.96985E-14
 -1      1477 1.52505E-02-6.21759E-03-5.05831E-14
 -1      1478 1.49902E-02-6.05076E-03-4.92682E-14
 -1      1479 1.53861E-02-6.31427E-03-5.14199E-14
 -1      1480 1.55218E-02-6.41095E-03-5.22568E-14
 -1      1481 1.52687E-02-6.24922E-03-5.09855E-14
 -1      1482 1.56647E-02-6.51271E-03-5.31411E-14
 -1      1483 1.58075E-02-6.61446E-03-5.40271E-14
 -1      1484 1.55472E-02-6.44766E-03-5.27102E-14
 -1      1485 1.59503E-02-6.71621E-03-5.49126E-14
 -1      1486 1.60932E-02-6.81796E-03-5.57956E-14
 -1      1487 1.58329E-02-6.65116E-03-5.44835E-14
 -1      1488 1.62360E-02-6.91971E-03-5.66815E-14
 -1      1489 1.63789E-02-7.02146E-03-5.75675E-14
 -1      1490 1.61186E-02-6.85466E-03-5.62563E-14
 -1      1491 1.65217E-02-7.12321E-03-5.84578E-14
 -1      1492 1.66646E-02-7.22497E-03-5.93476E-14
 -1      1493 1.64043E-02-7.05816E-03-5.80314E-14
 -1      1494 1.67420E-02-7.28511E-03-5.99115E-14
 -1      1495 1.68777E-02-7.38178E-03-6.07572E-14
 -1      1496 1.67793E-02-7.34036E-03-6.06205E-14
 -1      1497 1.66245E-02-7.22006E-03-5.94864E-14
 -1      1498 6.45118E-04 3.68157E-04 5.86147E-17
 -1      1499 4.94224E-04 3.00867E-04 5.23128E-17
 -1      1500 4.46415E-04 2.62998E-04 3.74727E-17
 -1      1501 9.32685E-04 4.66496E-04 4.52519E-17
 -1      1502 7.90771E-04 4.21736E-04 5.64869E-17
 -1      1503 7.47882E-04 3.85814E-04 3.44234E-17
 -1      1504 1.20999E-03 5.35123E-04-7.06087E-18
 -1      1505 1.07207E-03 5.03702E-04 2.44488E-17
 -1      1506 1.03593E-03 4.69911E-04-4.52654E-18
 -1      1507 1.48316E-03 5.84767E-04-1.04585E-16
 -1      1508 1.34679E-03 5.61910E-04-4.98055E-17
 -1      1509 1.31611E-03 5.29436E-04-8.48930E-17
 -1      1510 1.75509E-03 6.21653E-04-2.50288E-16
 -1      1511 1.61914E-03 6.04555E-04-1.71060E-16
 -1      1512 1.59263E-03 5.72862E-04-2.12151E-16
 -1      1513 2.02685E-03 6.49911E-04-4.46014E-16
 -1      1514 1.89095E-03 6.36698E-04-3.41795E-16
 -1      1515 1.86765E-03 6.05457E-04-3.88171E-16
 -1      1516 2.29836E-03 6.72375E-04-6.94526E-16
 -1      1517 2.16266E-03 6.61775E-04-5.63717E-16
 -1      1518 2.14194E-03 6.30838E-04-6.15529E-16
 -1      1519 2.56871E-03 6.90782E-04-9.98089E-16
 -1      1520 2.43375E-03 6.82068E-04-8.39200E-16
 -1      1521 2.41533E-03 6.51427E-04-8.96188E-16
 -1      1522 2.83648E-03 7.05702E-04-1.35977E-15
 -1      1523 2.70302E-03 6.98744E-04-1.17171E-15
 -1      1524 2.68698E-03 6.68513E-04-1.23272E-15
 -1      1525 3.09992E-03 7.16342E-04-1.78096E-15
 -1      1526 2.96886E-03 7.11712E-04-1.56281E-15
 -1      1527 2.95564E-03 6.82110E-04-1.62858E-15
 -1      1528 3.35731E-03 7.20393E-04-2.26203E-15
 -1      1529 3.22948E-03 7.19433E-04-2.01399E-15
 -1      1530 3.21988E-03 6.90756E-04-2.08285E-15
 -1      1531 3.60734E-03 7.14032E-04-2.80471E-15
 -1      1532 3.48331E-03 7.18820E-04-2.52561E-15
 -1      1533 3.47841E-03 6.91400E-04-2.59795E-15
 -1      1534 3.84955E-03 6.92267E-04-3.40686E-15
 -1      1535 3.72943E-03 7.05401E-04-3.09761E-15
 -1      1536 3.73043E-03 6.79537E-04-3.17286E-15
 -1      1537 4.08468E-03 6.49684E-04-4.06746E-15
 -1      1538 3.96792E-03 6.73860E-04-3.73014E-15
 -1      1539 3.97600E-03 6.49743E-04-3.80743E-15
 -1      1540 4.31476E-03 5.81522E-04-4.78655E-15
 -1      1541 4.20019E-03 6.18973E-04-4.41948E-15
 -1      1542 4.21624E-03 5.96610E-04-4.50068E-15
 -1      1543 4.54288E-03 4.84803E-04-5.57074E-15
 -1      1544 4.42884E-03 5.36747E-04-5.17099E-15
 -1      1545 4.45335E-03 5.15937E-04-5.25500E-15
 -1      1546 4.77266E-03 3.59116E-04-6.41581E-15
 -1      1547 4.65733E-03 4.25428E-04-5.98527E-15
 -1      1548 4.69020E-03 4.05789E-04-6.07205E-15
 -1      1549 5.00749E-03 2.06766E-04-7.33044E-15
 -1      1550 4.88925E-03 2.85987E-04-6.86497E-15
 -1      1551 4.92985E-03 2.67034E-04-6.95450E-15
 -1      1552 5.24991E-03 3.22097E-05-8.30965E-15
 -1      1553 5.12762E-03 1.21904E-04-7.81168E-15
 -1      1554 5.17490E-03 1.03156E-04-7.90355E-15
 -1      1555 5.50125E-03-1.58959E-04-9.35429E-15
 -1      1556 5.37441E-03-6.16613E-05-8.82345E-15
 -1      1557 5.42704E-03-8.06001E-05-8.91676E-15
 -1      1558 5.76161E-03-3.61102E-04-1.04672E-14
 -1      1559 5.63033E-03-2.58971E-04-9.90218E-15
 -1      1560 5.68691E-03-2.78360E-04-9.99694E-15
 -1      1561 6.03013E-03-5.69376E-04-1.16378E-14
 -1      1562 5.89493E-03-4.64707E-04-1.10456E-14
 -1      1563 5.95418E-03-4.84663E-04-1.11408E-14
 -1      1564 6.30536E-03-7.80156E-04-1.28656E-14
 -1      1565 6.16701E-03-6.74605E-04-1.22457E-14
 -1      1566 6.22787E-03-6.95134E-04-1.23419E-14
 -1      1567 6.58564E-03-9.91087E-04-1.41470E-14
 -1      1568 6.44497E-03-8.85685E-04-1.34992E-14
 -1      1569 6.50665E-03-9.06718E-04-1.35954E-14
 -1      1570 6.86941E-03-1.20089E-03-1.54786E-14
 -1      1571 6.72718E-03-1.09616E-03-1.48063E-14
 -1      1572 6.78914E-03-1.11759E-03-1.49019E-14
 -1      1573 7.15536E-03-1.40906E-03-1.68621E-14
 -1      1574 7.01219E-03-1.30518E-03-1.61647E-14
 -1      1575 7.07411E-03-1.32690E-03-1.62605E-14
 -1      1576 7.44248E-03-1.61560E-03-1.82879E-14
 -1      1577 7.29883E-03-1.51252E-03-1.75703E-14
 -1      1578 7.36056E-03-1.53443E-03-1.76654E-14
 -1      1579 7.73010E-03-1.82072E-03-1.97533E-14
 -1      1580 7.58627E-03-1.71831E-03-1.90152E-14
 -1      1581 7.64776E-03-1.74033E-03-1.91102E-14
 -1      1582 8.01776E-03-2.02478E-03-2.12553E-14
 -1      1583 7.87395E-03-1.92287E-03-2.05001E-14
 -1      1584 7.93521E-03-1.94494E-03-2.05921E-14
 -1      1585 8.30524E-03-2.22811E-03-2.27912E-14
 -1      1586 8.16154E-03-2.12652E-03-2.20191E-14
 -1      1587 8.22262E-03-2.14860E-03-2.21094E-14
 -1      1588 8.59240E-03-2.43098E-03-2.43550E-14
 -1      1589 8.44886E-03-2.32959E-03-2.35704E-14
 -1      1590 8.50981E-03-2.35166E-03-2.36577E-14
 -1      1591 8.87924E-03-2.63361E-03-2.59394E-14
 -1      1592 8.73586E-03-2.53231E-03-2.51457E-14
 -1      1593 8.79673E-03-2.55436E-03-2.52314E-14
 -1      1594 9.16577E-03-2.83616E-03-2.75462E-14
 -1      1595 9.02254E-03-2.73489E-03-2.67400E-14
 -1      1596 9.08337E-03-2.75691E-03-2.68281E-14
 -1      1597 9.45205E-03-3.03874E-03-2.91722E-14
 -1      1598 9.30894E-03-2.93744E-03-2.83558E-14
 -1      1599 9.36975E-03-2.95943E-03-2.84453E-14
 -1      1600 9.73811E-03-3.24138E-03-3.08313E-14
 -1      1601 9.59510E-03-3.14005E-03-2.99975E-14
 -1      1602 9.65592E-03-3.16201E-03-3.00881E-14
 -1      1603 1.00240E-02-3.44414E-03-3.25191E-14
 -1      1604 9.88108E-03-3.34275E-03-3.16718E-14
 -1      1605 9.94192E-03-3.36469E-03-3.17566E-14
 -1      1606 1.03098E-02-3.64701E-03-3.42211E-14
 -1      1607 1.01669E-02-3.54556E-03-3.33681E-14
 -1      1608 1.02278E-02-3.56749E-03-3.34479E-14
 -1      1609 1.05956E-02-3.84999E-03-3.59436E-14
 -1      1610 1.04527E-02-3.74848E-03-3.50799E-14
 -1      1611 1.05136E-02-3.77040E-03-3.51592E-14
 -1      1612 1.08812E-02-4.05306E-03-3.76973E-14
 -1      1613 1.07384E-02-3.95151E-03-3.68167E-14
 -1      1614 1.07993E-02-3.97342E-03-3.68953E-14
 -1      1615 1.11669E-02-4.25623E-03-3.94906E-14
 -1      1616 1.10241E-02-4.15464E-03-3.85902E-14
 -1      1617 1.10850E-02-4.17654E-03-3.86663E-14
 -1      1618 1.14525E-02-4.45946E-03-4.12995E-14
 -1      1619 1.13097E-02-4.35784E-03-4.03924E-14
 -1      1620 1.13707E-02-4.37973E-03-4.04627E-14
 -1      1621 1.17382E-02-4.66275E-03-4.31234E-14
 -1      1622 1.15954E-02-4.56110E-03-4.22105E-14
 -1      1623 1.16563E-02-4.58299E-03-4.22746E-14
 -1      1624 1.20238E-02-4.86608E-03-4.49666E-14
 -1      1625 1.18810E-02-4.76441E-03-4.40436E-14
 -1      1626 1.19420E-02-4.78630E-03-4.41049E-14
 -1      1627 1.23095E-02-5.06943E-03-4.68167E-14
 -1      1628 1.21667E-02-4.96775E-03-4.58903E-14
 -1      1629 1.22277E-02-4.98964E-03-4.59469E-14
 -1      1630 1.25952E-02-5.27281E-03-4.86579E-14
 -1      1631 1.24523E-02-5.17112E-03-4.77372E-14
 -1      1632 1.25133E-02-5.19301E-03-4.77895E-14
 -1      1633 1.28809E-02-5.47620E-03-5.05082E-14
 -1      1634 1.27380E-02-5.37450E-03-4.95823E-14
 -1      1635 1.27990E-02-5.39639E-03-4.96336E-14
 -1      1636 1.31666E-02-5.67958E-03-5.23626E-14
 -1      1637 1.30237E-02-5.57789E-03-5.14340E-14
 -1      1638 1.30847E-02-5.59978E-03-5.14831E-14
 -1      1639 1.34523E-02-5.88296E-03-5.42098E-14
 -1      1640 1.33094E-02-5.78127E-03-5.32881E-14
 -1      1641 1.33704E-02-5.80317E-03-5.33345E-14
 -1      1642 1.36270E-02-5.99981E-03-5.52149E-14
 -1      1643 1.38890E-02-6.11372E-03-5.57430E-14
 -1      1644 1.37890E-02-6.07157E-03-5.55587E-14
 -1      1645 1.40889E-02-6.19801E-03-5.61171E-14
 -1      1646 1.39889E-02-6.15586E-03-5.59302E-14
 -1      1647 1.38152E-02-6.04673E-03-5.50375E-14
 -1      1648 1.42889E-02-6.28231E-03-5.64986E-14
 -1      1649 1.41889E-02-6.24016E-03-5.63055E-14
 -1      1650 1.40152E-02-6.13102E-03-5.54106E-14
 -1      1651 1.44889E-02-6.36663E-03-5.68817E-14
 -1      1652 1.43889E-02-6.32447E-03-5.66932E-14
 -1      1653 1.42152E-02-6.21533E-03-5.57916E-14
 -1      1654 1.46855E-02-6.44952E-03-5.72520E-14
 -1      1655 1.45872E-02-6.40807E-03-5.70660E-14
 -1      1656 1.44135E-02-6.29893E-03-5.61706E-14
 -1      1657 1.48855E-02-6.53385E-03-5.76301E-14
 -1      1658 1.47855E-02-6.49168E-03-5.74412E-14
 -1      1659 1.46117E-02-6.38253E-03-5.65433E-14
 -1      1660 1.50855E-02-6.61818E-03-5.80145E-14
 -1      1661 1.49855E-02-6.57602E-03-5.78206E-14
 -1      1662 1.48118E-02-6.46685E-03-5.69221E-14
 -1      1663 1.52855E-02-6.70252E-03-5.83921E-14
 -1      1664 1.51855E-02-6.66035E-03-5.82045E-14
 -1      1665 1.50118E-02-6.55118E-03-5.72991E-14
 -1      1666 1.54856E-02-6.78686E-03-5.87411E-14
 -1      1667 1.53856E-02-6.74469E-03-5.85721E-14
 -1      1668 1.52118E-02-6.63551E-03-5.76658E-14
 -1      1669 1.56857E-02-6.87119E-03-5.90540E-14
 -1      1670 1.55857E-02-6.82902E-03-5.89014E-14
 -1      1671 1.54119E-02-6.71984E-03-5.80073E-14
 -1      1672 1.58824E-02-6.95409E-03-5.93420E-14
 -1      1673 1.57841E-02-6.91264E-03-5.92008E-14
 -1      1674 1.56103E-02-6.80345E-03-5.83169E-14
 -1      1675 1.60826E-02-7.03841E-03-5.96025E-14
 -1      1676 1.59825E-02-6.99625E-03-5.94777E-14
 -1      1677 1.58087E-02-6.88705E-03-5.86028E-14
 -1      1678 1.62827E-02-7.12272E-03-5.98361E-14
 -1      1679 1.61826E-02-7.08056E-03-5.97217E-14
 -1      1680 1.60089E-02-6.97137E-03-5.88640E-14
 -1      1681 1.64828E-02-7.20702E-03-6.00838E-14
 -1      1682 1.63828E-02-7.16487E-03-5.99548E-14
 -1      1683 1.62090E-02-7.05567E-03-5.91127E-14
 -1      1684 1.66811E-02-7.29476E-03-6.04177E-14
 -1      1685 1.65810E-02-7.25262E-03-6.02841E-14
 -1      1686 1.64073E-02-7.14342E-03-5.94420E-14
 -1      1687 1.66037E-02-7.23461E-03-5.98477E-14
 -1      1688 8.17226E-03-1.11255E-03-1.06351E-14
 -1      1689 8.25698E-03-1.16395E-03-1.07069E-14
 -1      1690 7.89751E-03-9.72430E-04-1.03722E-14
 -1      1691 8.03945E-03-1.03886E-03-1.05001E-14
 -1      1692 7.52107E-03-7.99737E-04-1.00184E-14
 -1      1693 7.70592E-03-8.84315E-04-1.01930E-14
 -1      1694 7.09186E-03-5.98190E-04-9.58646E-15
 -1      1695 7.29404E-03-6.94052E-04-9.79321E-15
 -1      1696 6.64949E-03-3.88557E-04-9.10979E-15
 -1      1697 6.85333E-03-4.84973E-04-9.33312E-15
 -1      1698 6.18616E-03-1.86971E-04-8.58216E-15
 -1      1699 6.39817E-03-2.79159E-04-8.83308E-15
 -1      1700 5.75369E-03-3.42281E-05-8.04567E-15
 -1      1701 5.94695E-03-9.58933E-05-8.28862E-15
 -1      1702 5.33840E-03 4.29851E-05-7.51919E-15
 -1      1703 5.52813E-03 1.76962E-05-7.75958E-15
 -1      1704 4.93202E-03 3.75461E-05-7.02259E-15
 -1      1705 5.11689E-03 5.16432E-05-7.24242E-15
 -1      1706 4.53239E-03-4.03233E-05-6.61797E-15
 -1      1707 4.71135E-03 1.60699E-06-6.79811E-15
 -1      1708 4.12518E-03-1.77788E-04-6.22094E-15
 -1      1709 4.32220E-03-1.08277E-04-6.38977E-15
 -1      1710 3.73565E-03-3.12933E-04-5.96331E-15
 -1      1711 3.89869E-03-2.48892E-04-6.07806E-15
 -1      1712 3.40694E-03-4.70104E-04-5.72383E-15
 -1      1713 3.55915E-03-4.05292E-04-5.80843E-15
 -1      1714 3.17445E-03-5.73837E-04-5.65451E-15
 -1      1715 3.26097E-03-5.23408E-04-5.69053E-15
 -1      1716 3.07647E-03-6.84542E-04-5.62334E-15
 -1      1717 3.10487E-03-6.35833E-04-5.61773E-15
 -1      1718 3.12707E-03-8.04242E-04-5.72205E-15
 -1      1719 3.08637E-03-7.47825E-04-5.67423E-15
 -1      1720 3.31729E-03-9.50621E-04-5.87618E-15
 -1      1721 3.21320E-03-8.76141E-04-5.79062E-15
 -1      1722 3.63126E-03-1.16983E-03-6.13208E-15
 -1      1723 3.46990E-03-1.06218E-03-6.00801E-15
 -1      1724 4.08990E-03-1.46106E-03-6.46415E-15
 -1      1725 3.86779E-03-1.30789E-03-6.28968E-15
 -1      1726 4.57733E-03-1.83272E-03-6.89517E-15
 -1      1727 4.34413E-03-1.66351E-03-6.69754E-15
 -1      1728 5.07810E-03-2.18339E-03-7.34864E-15
 -1      1729 4.84970E-03-2.02614E-03-7.13513E-15
 -1      1730 5.56961E-03-2.45551E-03-7.84794E-15
 -1      1731 5.34344E-03-2.34520E-03-7.61245E-15
 -1      1732 6.06418E-03-2.56483E-03-8.39368E-15
 -1      1733 5.83777E-03-2.54077E-03-8.13753E-15
 -1      1734 6.55574E-03-2.45980E-03-8.94651E-15
 -1      1735 6.32881E-03-2.53164E-03-8.69289E-15
 -1      1736 7.02904E-03-2.21832E-03-9.45744E-15
 -1      1737 6.81374E-03-2.34021E-03-9.23101E-15
 -1      1738 7.48176E-03-1.91919E-03-9.94621E-15
 -1      1739 7.26999E-03-2.05693E-03-9.73712E-15
 -1      1740 7.88985E-03-1.66266E-03-1.03181E-14
 -1      1741 7.71719E-03-1.77534E-03-1.01556E-14
 -1      1742 8.16882E-03-1.47829E-03-1.05686E-14
 -1      1743 8.05831E-03-1.55688E-03-1.04612E-14
 -1      1744 8.31658E-03-1.33657E-03-1.07360E-14
 -1      1745 8.26424E-03-1.39532E-03-1.06817E-14
 -1      1746 8.31978E-03-1.22461E-03-1.07727E-14
 -1      1747 8.33779E-03-1.27307E-03-1.07813E-14
 -1      1748 5.42958E-03-1.97024E-03-6.72154E-15
 -1      1749 5.61410E-03-2.22406E-03-7.09273E-15
 -1      1750 8.29947E-03-1.22612E-03-1.10015E-14
 -1      1751 7.34802E-03-8.24510E-04-1.00615E-14
 -1      1752 1.36880E-02-6.02171E-03-5.52613E-14
 -1      1753 1.36143E-02-5.95472E-03-5.45539E-14
 -1      1754 8.10062E-03-1.13832E-03-1.07944E-14
 -1      1755 7.76950E-03-1.00661E-03-1.04738E-14
 -1      1756 6.89237E-03-6.00575E-04-9.57600E-15
 -1      1757 6.43247E-03-3.61522E-04-9.03975E-15
 -1      1758 5.99591E-03-1.40492E-04-8.46605E-15
 -1      1759 5.59910E-03 1.57139E-05-7.88708E-15
 -1      1760 5.22430E-03 7.62273E-05-7.32913E-15
 -1      1761 4.85904E-03 3.56668E-05-6.83646E-15
 -1      1762 4.47164E-03-8.35297E-05-6.39246E-15
 -1      1763 4.07350E-03-2.43949E-04-6.03292E-15
 -1      1764 3.67945E-03-4.09634E-04-5.74264E-15
 -1      1765 3.35273E-03-5.36447E-04-5.56321E-15
 -1      1766 3.13367E-03-6.26191E-04-5.49577E-15
 -1      1767 3.07096E-03-6.97671E-04-5.50867E-15
 -1      1768 3.17221E-03-7.88144E-04-5.62332E-15
 -1      1769 3.42301E-03-9.25364E-04-5.81498E-15
 -1      1770 3.81957E-03-1.14910E-03-6.09469E-15
 -1      1771 4.31046E-03-1.47958E-03-6.47255E-15
 -1      1772 4.82055E-03-1.88465E-03-6.93629E-15
 -1      1773 5.30509E-03-2.26511E-03-7.43318E-15
 -1      1774 5.75723E-03-2.53312E-03-7.98420E-15
 -1      1775 6.18324E-03-2.58618E-03-8.57783E-15
 -1      1776 6.62343E-03-2.41113E-03-9.17026E-15
 -1      1777 7.07616E-03-2.10687E-03-9.74497E-15
 -1      1778 7.53157E-03-1.79213E-03-1.02481E-14
 -1      1779 7.93320E-03-1.55303E-03-1.06103E-14
 -1      1780 8.20722E-03-1.39370E-03-1.08703E-14
 -1      1781 8.33607E-03-1.29463E-03-1.10270E-14
 -1      1782 5.57832E-03-2.29553E-03-7.26833E-15
 -1      1783 2.78850E-04-1.68649E-04-3.91261E-17
 -1      1784 5.10515E-03-1.73629E-03-6.48773E-15
 -1      1785 3.33366E-04-1.10473E-04-8.82405E-17
 -1      1786 3.38078E-04-1.26566E-04-8.59637E-17
 -1      1787 3.44529E-04-1.45672E-04-8.23994E-17
 -1      1788 3.54323E-04-1.67979E-04-7.65582E-17
 -1      1789 4.61161E-04-1.79500E-04-1.25009E-16
 -1      1790 3.23173E-04-6.15522E-05-8.91079E-17
 -1      1791 3.24878E-04-7.19750E-05-8.99617E-17
 -1      1792 3.20879E-04-4.20940E-05-8.58959E-17
 -1      1793 3.21865E-04-5.15366E-05-8.76849E-17
 -1      1794 4.33874E-04-7.51739E-05-1.29833E-16
 -1      1795 3.19812E-04-2.40535E-05-8.17895E-17
 -1      1796 3.20217E-04-3.29453E-05-8.40257E-17
 -1      1797 4.30963E-04-4.99316E-05-1.24981E-16
 -1      1798 3.19708E-04-6.41850E-06-7.71952E-17
 -1      1799 3.19657E-04-1.52220E-05-7.96482E-17
 -1      1800 4.29797E-04-2.61574E-05-1.19127E-16
 -1      1801 3.20353E-04 1.15778E-05-7.12456E-17
 -1      1802 3.19946E-04 2.50856E-06-7.44305E-17
 -1      1803 4.29991E-04-2.62082E-06-1.11849E-16
 -1      1804 3.21611E-04 3.05465E-05-6.39544E-17
 -1      1805 3.20903E-04 2.09228E-05-6.78440E-17
 -1      1806 4.31245E-04 2.16166E-05-1.02918E-16
 -1      1807 3.23443E-04 5.06966E-05-5.50233E-17
 -1      1808 3.22433E-04 4.04227E-05-5.98751E-17
 -1      1809 4.33369E-04 4.71009E-05-9.21165E-17
 -1      1810 3.26144E-04 7.34292E-05-4.44523E-17
 -1      1811 3.24638E-04 6.17673E-05-5.01579E-17
 -1      1812 4.36440E-04 7.47943E-05-7.92281E-17
 -1      1813 3.30372E-04 9.95899E-05-3.11030E-17
 -1      1814 3.27965E-04 8.60560E-05-3.84621E-17
 -1      1815 4.40961E-04 1.06001E-04-6.35614E-17
 -1      1816 3.37863E-04 1.31542E-04-1.39184E-17
 -1      1817 3.33507E-04 1.14764E-04-2.32155E-17
 -1      1818 4.48166E-04 1.42256E-04-4.38831E-17
 -1      1819 3.53731E-04 1.74522E-04 7.86047E-18
 -1      1820 3.44173E-04 1.51404E-04-4.05221E-18
 -1      1821 4.61145E-04 1.86937E-04-1.92988E-17
 -1      1822 4.09257E-04 2.30758E-04 2.66036E-17
 -1      1823 3.79634E-04 1.99644E-04 1.57074E-17
 -1      1824 4.98012E-04 2.39876E-04 4.36391E-18
 -1      1825 5.60845E-04 2.98484E-04 2.65765E-17
 -1      1826 3.34714E-04-1.82221E-04-5.97124E-17
 -1      1827 8.57628E-04 4.01294E-04 1.07065E-18
 -1      1828 7.10296E-04 3.54357E-04 1.82959E-17
 -1      1829 6.76471E-04 3.23711E-04 3.84892E-18
 -1      1830 4.85399E-03-1.54634E-03-6.31835E-15
 -1      1831 5.12559E-03-1.85393E-03-6.71989E-15
 -1      1832 7.99574E-04-3.55592E-04-2.44474E-16
 -1      1833 9.47093E-04-3.94348E-04-3.35411E-16
 -1      1834 1.09251E-03-4.26271E-04-4.41799E-16
 -1      1835 1.23727E-03-4.52106E-04-5.63379E-16
 -1      1836 9.98656E-04-3.75423E-04-3.98892E-16
 -1      1837 1.37404E-03-4.72196E-04-6.93049E-16
 -1      1838 1.51083E-03-4.88238E-04-8.36313E-16
 -1      1839 1.28182E-03-4.26163E-04-6.35627E-16
 -1      1840 1.65491E-03-5.01582E-04-1.00136E-15
 -1      1841 1.79974E-03-5.11582E-04-1.18146E-15
 -1      1842 1.56320E-03-4.59291E-04-9.28389E-16
 -1      1843 1.94529E-03-5.18833E-04-1.37603E-15
 -1      1844 2.09235E-03-5.23682E-04-1.58490E-15
 -1      1845 1.85183E-03-4.79474E-04-1.28660E-15
 -1      1846 2.24061E-03-5.26682E-04-1.80841E-15
 -1      1847 2.39118E-03-5.28274E-04-2.04558E-15
 -1      1848 2.14196E-03-4.89435E-04-1.70277E-15
 -1      1849 2.54334E-03-5.29290E-04-2.29706E-15
 -1      1850 2.69869E-03-5.30400E-04-2.56324E-15
 -1      1851 2.43453E-03-4.93114E-04-2.17509E-15
 -1      1852 2.85601E-03-5.33220E-04-2.84286E-15
 -1      1853 3.01747E-03-5.39013E-04-3.13585E-15
 -1      1854 2.72990E-03-4.96135E-04-2.70354E-15
 -1      1855 3.17325E-03-5.50114E-04-3.42681E-15
 -1      1856 3.33375E-03-5.68941E-04-3.72911E-15
 -1      1857 3.02076E-03-5.07840E-04-3.27109E-15
 -1      1858 3.50699E-03-6.02206E-04-4.05867E-15
 -1      1859 3.68705E-03-6.55309E-04-4.40114E-15
 -1      1860 3.31589E-03-5.45106E-04-3.88728E-15
 -1      1861 3.87664E-03-7.35280E-04-4.75687E-15
 -1      1862 4.07615E-03-8.55067E-04-5.12688E-15
 -1      1863 3.63128E-03-6.42444E-04-4.56776E-15
 -1      1864 4.28433E-03-1.00846E-03-5.49166E-15
 -1      1865 4.50458E-03-1.22192E-03-5.87318E-15
 -1      1866 3.97471E-03-8.50372E-04-5.28282E-15
 -1      1867 8.26821E-03-1.24829E-03-1.12875E-14
 -1      1868 8.32950E-03-1.26488E-03-1.13594E-14
 -1      1869 6.51447E-03-2.48585E-03-9.37596E-15
 -1      1870 6.71308E-03-2.32225E-03-9.81824E-15
 -1      1871 6.93117E-03-2.12857E-03-1.02817E-14
 -1      1872 7.14250E-03-1.95021E-03-1.07779E-14
 -1      1873 7.39228E-03-1.78136E-03-1.13776E-14
 -1      1874 7.62458E-03-1.66077E-03-1.19909E-14
 -1      1875 7.37416E-03-1.78282E-03-1.10790E-14
 -1      1876 7.84879E-03-1.59618E-03-1.26145E-14
 -1      1877 8.05820E-03-1.57440E-03-1.32438E-14
 -1      1878 7.82263E-03-1.56688E-03-1.22985E-14
 -1      1879 8.26928E-03-1.59153E-03-1.39133E-14
 -1      1880 8.46977E-03-1.63817E-03-1.45878E-14
 -1      1881 8.22042E-03-1.54168E-03-1.35869E-14
 -1      1882 8.66190E-03-1.70598E-03-1.52679E-14
 -1      1883 8.84701E-03-1.78877E-03-1.59524E-14
 -1      1884 8.58791E-03-1.64384E-03-1.49313E-14
 -1      1885 9.02519E-03-1.88099E-03-1.66427E-14
 -1      1886 9.19840E-03-1.97981E-03-1.73384E-14
 -1      1887 8.93180E-03-1.81277E-03-1.62984E-14
 -1      1888 9.36619E-03-2.08231E-03-1.80406E-14
 -1      1889 9.53033E-03-2.18726E-03-1.87504E-14
 -1      1890 9.26013E-03-2.01171E-03-1.76868E-14
 -1      1891 9.69046E-03-2.29337E-03-1.94684E-14
 -1      1892 9.84795E-03-2.40009E-03-2.01944E-14
 -1      1893 9.57693E-03-2.22226E-03-1.91060E-14
 -1      1894 9.99492E-03-2.50157E-03-2.08904E-14
 -1      1895 1.01402E-02-2.60294E-03-2.15970E-14
 -1      1896 9.87733E-03-2.43073E-03-2.05191E-14
 -1      1897 1.02912E-02-2.70940E-03-2.23502E-14
 -1      1898 1.04408E-02-2.81550E-03-2.31116E-14
 -1      1899 1.01714E-02-2.63908E-03-2.19678E-14
 -1      1900 1.05891E-02-2.92124E-03-2.38807E-14
 -1      1901 1.07365E-02-3.02657E-03-2.46610E-14
 -1      1902 1.04683E-02-2.85147E-03-2.34917E-14
 -1      1903 1.08830E-02-3.13155E-03-2.54502E-14
 -1      1904 1.10289E-02-3.23616E-03-2.62477E-14
 -1      1905 1.07617E-02-3.06227E-03-2.50506E-14
 -1      1906 1.11742E-02-3.34047E-03-2.70507E-14
 -1      1907 1.13190E-02-3.44447E-03-2.78581E-14
 -1      1908 1.10526E-02-3.27159E-03-2.66422E-14
 -1      1909 1.14635E-02-3.54822E-03-2.86688E-14
 -1      1910 1.16076E-02-3.65173E-03-2.94846E-14
 -1      1911 1.13419E-02-3.47965E-03-2.82548E-14
 -1      1912 1.17443E-02-3.74987E-03-3.02625E-14
 -1      1913 1.18809E-02-3.84784E-03-3.10428E-14
 -1      1914 1.16228E-02-3.68154E-03-2.98437E-14
 -1      1915 1.20244E-02-3.95081E-03-3.18671E-14
 -1      1916 1.21678E-02-4.05362E-03-3.26935E-14
 -1      1917 1.19029E-02-3.88266E-03-3.14444E-14
 -1      1918 1.23111E-02-4.15631E-03-3.35229E-14
 -1      1919 1.24543E-02-4.25888E-03-3.43571E-14
 -1      1920 1.21897E-02-4.08830E-03-3.30989E-14
 -1      1921 1.25974E-02-4.36134E-03-3.51926E-14
 -1      1922 1.27404E-02-4.46372E-03-3.60315E-14
 -1      1923 1.24761E-02-4.29344E-03-3.47657E-14
 -1      1924 1.28834E-02-4.56601E-03-3.68733E-14
 -1      1925 1.30264E-02-4.66823E-03-3.77159E-14
 -1      1926 1.27622E-02-4.49819E-03-3.64416E-14
 -1      1927 1.31693E-02-4.77039E-03-3.85618E-14
 -1      1928 1.33122E-02-4.87249E-03-3.94072E-14
 -1      1929 1.30481E-02-4.70263E-03-3.81283E-14
 -1      1930 1.34479E-02-4.96944E-03-4.02122E-14
 -1      1931 1.35837E-02-5.06635E-03-4.10225E-14
 -1      1932 1.33268E-02-4.90172E-03-3.97795E-14
 -1      1933 1.37265E-02-5.16832E-03-4.18766E-14
 -1      1934 1.38694E-02-5.27026E-03-4.27297E-14
 -1      1935 1.36054E-02-5.10064E-03-4.14367E-14
 -1      1936 1.40122E-02-5.37216E-03-4.35896E-14
 -1      1937 1.41550E-02-5.47404E-03-4.44548E-14
 -1      1938 1.38911E-02-5.30451E-03-4.31501E-14
 -1      1939 1.42979E-02-5.57590E-03-4.53193E-14
 -1      1940 1.44407E-02-5.67774E-03-4.61880E-14
 -1      1941 1.41768E-02-5.50827E-03-4.48754E-14
 -1      1942 1.45835E-02-5.77956E-03-4.70610E-14
 -1      1943 1.47263E-02-5.88137E-03-4.79378E-14
 -1      1944 1.44625E-02-5.71194E-03-4.66112E-14
 -1      1945 1.48692E-02-5.98316E-03-4.88151E-14
 -1      1946 1.50120E-02-6.08494E-03-4.96938E-14
 -1      1947 1.47481E-02-5.91555E-03-4.83613E-14
 -1      1948 1.51477E-02-6.18162E-03-5.05304E-14
 -1      1949 1.52834E-02-6.27830E-03-5.13707E-14
 -1      1950 1.50267E-02-6.11402E-03-5.00764E-14
 -1      1951 1.54262E-02-6.38006E-03-5.22581E-14
 -1      1952 1.55691E-02-6.48182E-03-5.31456E-14
 -1      1953 1.53052E-02-6.31246E-03-5.18032E-14
 -1      1954 1.57119E-02-6.58357E-03-5.40342E-14
 -1      1955 1.58548E-02-6.68532E-03-5.49213E-14
 -1      1956 1.55909E-02-6.51597E-03-5.35833E-14
 -1      1957 1.59976E-02-6.78707E-03-5.58075E-14
 -1      1958 1.61405E-02-6.88882E-03-5.66962E-14
 -1      1959 1.58766E-02-6.71947E-03-5.53607E-14
 -1      1960 1.62833E-02-6.99057E-03-5.75861E-14
 -1      1961 1.64262E-02-7.09232E-03-5.84783E-14
 -1      1962 1.61623E-02-6.92297E-03-5.71388E-14
 -1      1963 1.64762E-02-7.13339E-03-5.88787E-14
 -1      1964 1.65536E-02-7.19354E-03-5.94422E-14
 -1      1965 1.64554E-02-7.14794E-03-5.92391E-14
 -1      1966 1.63552E-02-7.06579E-03-5.84325E-14
 -1      1967 4.54987E-04-2.26011E-04-9.83778E-17
 -1      1968 1.36609E-03 5.05385E-04-1.59567E-16
 -1      1969 1.22499E-03 4.80157E-04-1.02959E-16
 -1      1970 1.64603E-03 5.45792E-04-3.08035E-16
 -1      1971 1.50635E-03 5.27163E-04-2.27723E-16
 -1      1972 1.41907E-03 4.80437E-04-2.38592E-16
 -1      1973 1.92432E-03 5.76321E-04-5.05835E-16
 -1      1974 1.78535E-03 5.62103E-04-4.00599E-16
 -1      1975 1.70180E-03 5.17868E-04-4.08636E-16
 -1      1976 2.20160E-03 6.00345E-04-7.55093E-16
 -1      1977 2.06312E-03 5.89013E-04-6.23742E-16
 -1      1978 1.98305E-03 5.46372E-04-6.27997E-16
 -1      1979 2.47778E-03 6.20098E-04-1.05790E-15
 -1      1980 2.33990E-03 6.10681E-04-8.99712E-16
 -1      1981 2.26335E-03 5.69076E-04-8.99278E-16
 -1      1982 2.75219E-03 6.36645E-04-1.41791E-15
 -1      1983 2.61531E-03 6.28766E-04-1.23080E-15
 -1      1984 2.54265E-03 5.88001E-04-1.22469E-15
 -1      1985 3.02384E-03 6.49705E-04-1.83519E-15
 -1      1986 2.88848E-03 6.43686E-04-1.61900E-15
 -1      1987 2.82041E-03 6.03972E-04-1.60612E-15
 -1      1988 3.29156E-03 6.57445E-04-2.31190E-15
 -1      1989 3.15831E-03 6.54407E-04-2.06618E-15
 -1      1990 3.09579E-03 6.16409E-04-2.04604E-15
 -1      1991 3.55431E-03 6.56384E-04-2.84969E-15
 -1      1992 3.42363E-03 6.58270E-04-2.57302E-15
 -1      1993 3.36774E-03 6.23100E-04-2.54535E-15
 -1      1994 3.81151E-03 6.41612E-04-3.44603E-15
 -1      1995 3.68362E-03 6.51031E-04-3.14047E-15
 -1      1996 3.63531E-03 6.20137E-04-3.10461E-15
 -1      1997 4.06334E-03 6.07421E-04-4.10315E-15
 -1      1998 3.93802E-03 6.27274E-04-3.76747E-15
 -1      1999 3.89795E-03 6.02197E-04-3.72391E-15
 -1      2000 4.31095E-03 5.48384E-04-4.81758E-15
 -1      2001 4.18750E-03 5.81279E-04-4.45314E-15
 -1      2002 4.15590E-03 5.63301E-04-4.40219E-15
 -1      2003 4.55639E-03 4.60608E-04-5.59516E-15
 -1      2004 4.43370E-03 5.08230E-04-5.19841E-15
 -1      2005 4.41033E-03 4.98028E-04-5.13984E-15
 -1      2006 4.80227E-03 3.42775E-04-6.43352E-15
 -1      2007 4.67902E-03 4.05421E-04-6.00624E-15
 -1      2008 4.66327E-03 4.02856E-04-5.93721E-15
 -1      2009 5.05119E-03 1.96525E-04-7.33974E-15
 -1      2010 4.92613E-03 2.73010E-04-6.87861E-15
 -1      2011 4.91722E-03 2.77157E-04-6.79959E-15
 -1      2012 5.30522E-03 2.60552E-05-8.31061E-15
 -1      2013 5.17743E-03 1.14010E-04-7.81684E-15
 -1      2014 5.17450E-03 1.23409E-04-7.72764E-15
 -1      2015 5.56552E-03-1.62915E-04-9.34702E-15
 -1      2016 5.43454E-03-6.64708E-05-8.82095E-15
 -1      2017 5.43672E-03-5.34623E-05-8.72169E-15
 -1      2018 5.83231E-03-3.64356E-04-1.04499E-14
 -1      2019 5.69813E-03-2.62410E-04-9.89074E-15
 -1      2020 5.70457E-03-2.47299E-04-9.78146E-15
 -1      2021 6.10505E-03-5.72931E-04-1.16106E-14
 -1      2022 5.96801E-03-4.68023E-04-1.10222E-14
 -1      2023 5.97786E-03-4.51988E-04-1.09035E-14
 -1      2024 6.38274E-03-7.84554E-04-1.28287E-14
 -1      2025 6.24338E-03-6.78555E-04-1.22131E-14
 -1      2026 6.25582E-03-6.62390E-04-1.20834E-14
 -1      2027 6.66422E-03-9.96514E-04-1.41001E-14
 -1      2028 6.52312E-03-8.90612E-04-1.34574E-14
 -1      2029 6.53739E-03-8.74770E-04-1.33178E-14
 -1      2030 6.94836E-03-1.20730E-03-1.54224E-14
 -1      2031 6.80605E-03-1.10212E-03-1.47558E-14
 -1      2032 6.82154E-03-1.08679E-03-1.46069E-14
 -1      2033 7.23420E-03-1.41629E-03-1.67935E-14
 -1      2034 7.09114E-03-1.31204E-03-1.61015E-14
 -1      2035 7.10734E-03-1.29726E-03-1.59431E-14
 -1      2036 7.52100E-03-1.62343E-03-1.82113E-14
 -1      2037 7.37753E-03-1.52009E-03-1.74975E-14
 -1      2038 7.39410E-03-1.50578E-03-1.73292E-14
 -1      2039 7.80823E-03-1.82897E-03-1.96672E-14
 -1      2040 7.66459E-03-1.72639E-03-1.89350E-14
 -1      2041 7.68130E-03-1.71245E-03-1.87584E-14
 -1      2042 8.09555E-03-2.03328E-03-2.11588E-14
 -1      2043 7.95190E-03-1.93126E-03-2.04084E-14
 -1      2044 7.96862E-03-1.91758E-03-2.02244E-14
 -1      2045 8.38275E-03-2.23672E-03-2.26834E-14
 -1      2046 8.23917E-03-2.13509E-03-2.19174E-14
 -1      2047 8.25585E-03-2.12156E-03-2.17250E-14
 -1      2048 8.66974E-03-2.43962E-03-2.42379E-14
 -1      2049 8.52628E-03-2.33822E-03-2.34572E-14
 -1      2050 8.54289E-03-2.32478E-03-2.32580E-14
 -1      2051 8.95648E-03-2.64223E-03-2.58177E-14
 -1      2052 8.81314E-03-2.54095E-03-2.50248E-14
 -1      2053 8.82970E-03-2.52754E-03-2.48190E-14
 -1      2054 9.24298E-03-2.84473E-03-2.74220E-14
 -1      2055 9.09976E-03-2.74349E-03-2.66166E-14
 -1      2056 9.11627E-03-2.73007E-03-2.64050E-14
 -1      2057 9.52926E-03-3.04724E-03-2.90455E-14
 -1      2058 9.38614E-03-2.94598E-03-2.82301E-14
 -1      2059 9.40263E-03-2.93253E-03-2.80156E-14
 -1      2060 9.81536E-03-3.24982E-03-3.06951E-14
 -1      2061 9.67233E-03-3.14852E-03-2.98684E-14
 -1      2062 9.68881E-03-3.13502E-03-2.96463E-14
 -1      2063 1.01013E-02-3.45251E-03-3.23686E-14
 -1      2064 9.95835E-03-3.35115E-03-3.15276E-14
 -1      2065 9.97484E-03-3.33761E-03-3.13018E-14
 -1      2066 1.03872E-02-3.65533E-03-3.40618E-14
 -1      2067 1.02443E-02-3.55390E-03-3.32126E-14
 -1      2068 1.02608E-02-3.54033E-03-3.29779E-14
 -1      2069 1.06730E-02-3.85826E-03-3.57799E-14
 -1      2070 1.05301E-02-3.75678E-03-3.49193E-14
 -1      2071 1.05466E-02-3.74316E-03-3.46776E-14
 -1      2072 1.09587E-02-4.06130E-03-3.75234E-14
 -1      2073 1.08158E-02-3.95977E-03-3.66487E-14
 -1      2074 1.08324E-02-3.94612E-03-3.64017E-14
 -1      2075 1.12444E-02-4.26444E-03-3.92988E-14
 -1      2076 1.11016E-02-4.16286E-03-3.84057E-14
 -1      2077 1.11181E-02-4.14919E-03-3.81501E-14
 -1      2078 1.15301E-02-4.46765E-03-4.10933E-14
 -1      2079 1.13872E-02-4.36603E-03-4.01955E-14
 -1      2080 1.14038E-02-4.35234E-03-3.99276E-14
 -1      2081 1.18158E-02-4.67092E-03-4.29069E-14
 -1      2082 1.16729E-02-4.56928E-03-4.19973E-14
 -1      2083 1.16895E-02-4.55557E-03-4.17248E-14
 -1      2084 1.21014E-02-4.87424E-03-4.47343E-14
 -1      2085 1.19586E-02-4.77258E-03-4.38190E-14
 -1      2086 1.19752E-02-4.75886E-03-4.35370E-14
 -1      2087 1.23871E-02-5.07759E-03-4.65717E-14
 -1      2088 1.22443E-02-4.97591E-03-4.56519E-14
 -1      2089 1.22609E-02-4.96218E-03-4.53628E-14
 -1      2090 1.26728E-02-5.28097E-03-4.84101E-14
 -1      2091 1.25300E-02-5.17928E-03-4.74908E-14
 -1      2092 1.25466E-02-5.16555E-03-4.71942E-14
 -1      2093 1.29585E-02-5.48435E-03-5.02556E-14
 -1      2094 1.28157E-02-5.38266E-03-4.93335E-14
 -1      2095 1.28323E-02-5.36893E-03-4.90336E-14
 -1      2096 1.32442E-02-5.68774E-03-5.21072E-14
 -1      2097 1.31014E-02-5.58605E-03-5.11822E-14
 -1      2098 1.31180E-02-5.57231E-03-5.08808E-14
 -1      2099 1.35007E-02-5.87208E-03-5.37928E-14
 -1      2100 1.33578E-02-5.77039E-03-5.28694E-14
 -1      2101 1.33744E-02-5.75666E-03-5.25683E-14
 -1      2102 1.36016E-02-5.92194E-03-5.40926E-14
 -1      2103 1.41414E-02-6.14834E-03-5.50875E-14
 -1      2104 1.40415E-02-6.10619E-03-5.48956E-14
 -1      2105 1.39415E-02-6.06403E-03-5.47068E-14
 -1      2106 1.38415E-02-6.02189E-03-5.45188E-14
 -1      2107 1.38678E-02-5.99704E-03-5.39995E-14
 -1      2108 1.37016E-02-5.96409E-03-5.42753E-14
 -1      2109 1.43380E-02-6.23122E-03-5.54588E-14
 -1      2110 1.42397E-02-6.18978E-03-5.52734E-14
 -1      2111 1.40660E-02-6.08063E-03-5.43759E-14
 -1      2112 1.45380E-02-6.31553E-03-5.58348E-14
 -1      2113 1.44380E-02-6.27338E-03-5.56468E-14
 -1      2114 1.42643E-02-6.16422E-03-5.47493E-14
 -1      2115 1.47380E-02-6.39985E-03-5.62111E-14
 -1      2116 1.46380E-02-6.35769E-03-5.60230E-14
 -1      2117 1.44643E-02-6.24853E-03-5.51241E-14
 -1      2118 1.49381E-02-6.48417E-03-5.65856E-14
 -1      2119 1.48381E-02-6.44201E-03-5.63989E-14
 -1      2120 1.46643E-02-6.33285E-03-5.54977E-14
 -1      2121 1.51381E-02-6.56850E-03-5.69444E-14
 -1      2122 1.50381E-02-6.52633E-03-5.67673E-14
 -1      2123 1.48644E-02-6.41716E-03-5.58672E-14
 -1      2124 1.53382E-02-6.65282E-03-5.72823E-14
 -1      2125 1.52382E-02-6.61066E-03-5.71174E-14
 -1      2126 1.50644E-02-6.50148E-03-5.62250E-14
 -1      2127 1.55349E-02-6.73570E-03-5.75843E-14
 -1      2128 1.54366E-02-6.69426E-03-5.74354E-14
 -1      2129 1.52628E-02-6.58508E-03-5.65558E-14
 -1      2130 1.57350E-02-6.82002E-03-5.78703E-14
 -1      2131 1.56350E-02-6.77786E-03-5.77293E-14
 -1      2132 1.54612E-02-6.66868E-03-5.68566E-14
 -1      2133 1.59352E-02-6.90433E-03-5.81331E-14
 -1      2134 1.58351E-02-6.86217E-03-5.80025E-14
 -1      2135 1.56614E-02-6.75298E-03-5.71389E-14
 -1      2136 1.61353E-02-6.98863E-03-5.83967E-14
 -1      2137 1.60353E-02-6.94648E-03-5.82645E-14
 -1      2138 1.58615E-02-6.83729E-03-5.74108E-14
 -1      2139 1.11382E-03 4.61890E-04-5.98615E-17
 -1      2140 9.70437E-04 4.27913E-04-2.42590E-17
 -1      2141 9.38021E-04 3.98308E-04-4.27447E-17
 -1      2142 1.16434E-03 4.40740E-04-1.20252E-16
 -1      2143 7.64119E-03-1.04095E-03-1.06150E-14
 -1      2144 7.83342E-03-1.10942E-03-1.08011E-14
 -1      2145 6.70224E-03-6.02323E-04-9.61958E-15
 -1      2146 6.91646E-03-7.22911E-04-9.87955E-15
 -1      2147 8.01757E-03-1.16804E-03-1.09714E-14
 -1      2148 8.15337E-03-1.20727E-03-1.11126E-14
 -1      2149 3.27038E-04-8.35445E-05-9.00430E-17
 -1      2150 3.29834E-04-9.61718E-05-8.95144E-17
 -1      2151 4.47350E-04-1.37075E-04-1.30999E-16
 -1      2152 4.39033E-04-1.03471E-04-1.32151E-16
 -1      2153 6.28714E-03-3.51451E-04-9.04919E-15
 -1      2154 6.49402E-03-4.76163E-04-9.33204E-15
 -1      2155 6.56401E-03-5.82469E-04-9.62854E-15
 -1      2156 5.84221E-03-9.30603E-05-8.35530E-15
 -1      2157 6.02455E-03-1.96933E-04-8.65004E-15
 -1      2158 5.48244E-03 5.63356E-05-7.73150E-15
 -1      2159 5.64475E-03-6.48689E-07-8.01515E-15
 -1      2160 5.14214E-03 9.58168E-05-7.14687E-15
 -1      2161 5.29768E-03 9.23142E-05-7.41754E-15
 -1      2162 4.78017E-03 2.18769E-05-6.60485E-15
 -1      2163 4.93744E-03 6.90125E-05-6.82026E-15
 -1      2164 4.43017E-03-1.19943E-04-6.16201E-15
 -1      2165 4.60563E-03-4.03511E-05-6.38088E-15
 -1      2166 4.69060E-03-1.95791E-06-6.36546E-15
 -1      2167 3.98826E-03-3.10270E-04-5.82570E-15
 -1      2168 4.18215E-03-2.26492E-04-5.95929E-15
 -1      2169 3.62350E-03-4.66452E-04-5.52765E-15
 -1      2170 3.80075E-03-3.91374E-04-5.67524E-15
 -1      2171 3.89807E-03-3.61233E-04-5.60411E-15
 -1      2172 3.27424E-03-5.83895E-04-5.36719E-15
 -1      2173 3.41168E-03-5.43393E-04-5.39521E-15
 -1      2174 3.10067E-03-6.38763E-04-5.29432E-15
 -1      2175 3.17272E-03-6.17379E-04-5.33019E-15
 -1      2176 3.21221E-03-5.99895E-04-5.16405E-15
 -1      2177 3.07701E-03-6.81758E-04-5.33719E-15
 -1      2178 3.06325E-03-6.63575E-04-5.28956E-15
 -1      2179 3.21542E-03-7.39315E-04-5.45780E-15
 -1      2180 3.12702E-03-7.09867E-04-5.39637E-15
 -1      2181 3.09643E-03-6.56301E-04-5.17456E-15
 -1      2182 3.54329E-03-8.96259E-04-5.73242E-15
 -1      2183 3.38086E-03-8.19700E-04-5.60915E-15
 -1      2184 3.97123E-03-1.12315E-03-6.02276E-15
 -1      2185 3.74004E-03-1.00041E-03-5.87578E-15
 -1      2186 3.66516E-03-8.87653E-04-5.66377E-15
 -1      2187 4.43274E-03-1.48996E-03-6.46014E-15
 -1      2188 4.19041E-03-1.29510E-03-6.23716E-15
 -1      2189 4.07428E-03-1.14007E-03-6.01149E-15
 -1      2190 4.96486E-03-1.86796E-03-6.85210E-15
 -1      2191 4.73823E-03-1.66327E-03-6.62393E-15
 -1      2192 5.48387E-03-2.34797E-03-7.50159E-15
 -1      2193 5.28410E-03-2.17111E-03-7.24277E-15
 -1      2194 6.73140E-03-2.31581E-03-9.51634E-15
 -1      2195 6.54209E-03-2.45608E-03-9.22008E-15
 -1      2196 7.17761E-03-1.94814E-03-1.02614E-14
 -1      2197 6.97767E-03-2.11364E-03-9.96509E-15
 -1      2198 7.99238E-03-1.46451E-03-1.09682E-14
 -1      2199 7.82447E-03-1.55118E-03-1.08188E-14
 -1      2200 8.24451E-03-1.34645E-03-1.12100E-14
 -1      2201 8.13953E-03-1.39353E-03-1.10965E-14
 -1      2202 8.35146E-03-1.28738E-03-1.13781E-14
 -1      2203 8.32280E-03-1.30592E-03-1.13358E-14
 -1      2204 5.39980E-03-2.15194E-03-7.10193E-15
 -1      2205 5.62463E-03-2.39184E-03-7.48154E-15
 -1      2206 7.13989E-03-8.27458E-04-1.01104E-14
 -1      2207 7.36070E-03-9.29216E-04-1.03423E-14
 -1      2208 6.96847E-03-8.12162E-04-1.01539E-14
 -1      2209 7.91401E-03-1.18212E-03-1.11149E-14
 -1      2210 6.05316E-04-2.85112E-04-1.54512E-16
 -1      2211 6.61520E-04-2.77987E-04-1.97813E-16
 -1      2212 5.14773E-03-1.96452E-03-6.91659E-15
 -1      2213 7.45992E-03-1.02673E-03-1.06636E-14
 -1      2214 8.35264E-03-1.29242E-03-1.16666E-14
 -1      2215 8.21352E-03-1.26159E-03-1.14662E-14
 -1      2216 6.16670E-03-2.66039E-03-8.61111E-15
 -1      2217 6.33628E-03-2.60495E-03-8.97419E-15
 -1      2218 1.36279E-02-5.89709E-03-5.35689E-14
 -1      2219 1.63445E-02-7.09108E-03-5.89188E-14
 -1      2220 1.62463E-02-7.04549E-03-5.87136E-14
 -1      2221 1.60725E-02-6.93630E-03-5.78705E-14
 -1      2222 1.62944E-02-7.05001E-03-5.85109E-14
 -1      2223 6.12542E-03-2.95426E-04-8.93285E-15
 -1      2224 8.29054E-03-1.32226E-03-1.15623E-14
 -1      2225 8.06306E-03-1.41012E-03-1.13067E-14
 -1      2226 7.45088E-03-1.76245E-03-1.05471E-14
 -1      2227 7.36839E-03-1.78922E-03-1.07803E-14
 -1      2228 7.59857E-03-1.63417E-03-1.13771E-14
 -1      2229 7.65582E-03-1.62946E-03-1.07695E-14
 -1      2230 5.71228E-03-2.51128E-03-7.83171E-15
 -1      2231 5.64517E-03-2.44448E-03-7.63227E-15
 -1      2232 5.80116E-03-2.55180E-03-7.81176E-15
 -1      2233 5.89334E-03-2.60075E-03-8.12230E-15
 -1      2234 4.58336E-03-1.47942E-03-6.38312E-15
 -1      2235 3.29738E-03-7.27358E-04-5.37698E-15
 -1      2236 3.06893E-03-6.34940E-04-5.12340E-15
 -1      2237 3.50573E-03-5.15299E-04-5.32776E-15
 -1      2238 3.59380E-03-4.79284E-04-5.25894E-15
 -1      2239 3.39856E-03-5.41806E-04-5.13200E-15
 -1      2240 4.31289E-03-1.72382E-04-5.94839E-15
 -1      2241 5.02647E-03 9.48921E-05-6.90493E-15
 -1      2242 6.13247E-03-2.61916E-03-8.52107E-15
 -1      2243 6.04089E-03-2.63874E-03-8.36324E-15
 -1      2244 5.36749E-03 8.48843E-05-7.54065E-15
 -1      2245 5.98833E-03-2.65215E-03-8.20511E-15
 -1      2246 5.71058E-03-4.47937E-05-8.19307E-15
 -1      2247 6.31825E-03-2.57050E-03-8.82760E-15
 -1      2248 7.75944E-03-1.54923E-03-1.11263E-14
 -1      2249 6.46868E-03-2.50701E-03-9.16381E-15
 -1      2250 8.35146E-03-1.31938E-03-1.20575E-14
 -1      2251 8.37207E-03-1.31734E-03-1.20806E-14
 -1      2252 5.42626E-04-5.47863E-05-1.75370E-16
 -1      2253 5.43965E-04-6.98089E-05-1.79042E-16
 -1      2254 5.45968E-04-8.54136E-05-1.82065E-16
 -1      2255 5.48671E-04-1.01729E-04-1.84843E-16
 -1      2256 6.59008E-04-9.22814E-05-2.44027E-16
 -1      2257 5.42314E-04 3.92791E-06-1.56247E-16
 -1      2258 5.41755E-04-1.08332E-05-1.61831E-16
 -1      2259 5.44431E-04 3.44529E-05-1.43399E-16
 -1      2260 5.43220E-04 1.90091E-05-1.50189E-16
 -1      2261 6.56500E-04 1.32272E-05-2.08357E-16
 -1      2262 5.47701E-04 6.64324E-05-1.28437E-16
 -1      2263 5.45923E-04 5.01671E-05-1.36420E-16
 -1      2264 6.59706E-04 4.97286E-05-1.91199E-16
 -1      2265 5.52434E-04 1.01911E-04-1.10141E-16
 -1      2266 5.49868E-04 8.37624E-05-1.19777E-16
 -1      2267 6.64445E-04 8.87838E-05-1.70816E-16
 -1      2268 5.59401E-04 1.41688E-04-8.79152E-17
 -1      2269 5.55577E-04 1.21199E-04-9.95975E-17
 -1      2270 6.71169E-04 1.31830E-04-1.46137E-16
 -1      2271 5.70589E-04 1.87913E-04-6.04578E-17
 -1      2272 5.64313E-04 1.63877E-04-7.50539E-17
 -1      2273 6.81063E-04 1.80053E-04-1.16213E-16
 -1      2274 5.90584E-04 2.44214E-04-2.68611E-17
 -1      2275 5.79199E-04 2.14610E-04-4.46556E-17
 -1      2276 6.96968E-04 2.35783E-04-8.01632E-17
 -1      2277 6.45078E-04 2.96164E-04-7.10152E-18
 -1      2278 6.17181E-04 2.68571E-04-1.83637E-17
 -1      2279 7.34842E-04 2.91581E-04-5.03883E-17
 -1      2280 7.92339E-04 3.43664E-04-2.87585E-17
 -1      2281 9.07471E-04-3.25449E-04-3.56282E-16
 -1      2282 1.05296E-03-3.56070E-04-4.63374E-16
 -1      2283 4.49160E-03-1.30362E-03-6.08405E-15
 -1      2284 6.42124E-03-5.44080E-04-9.61732E-15
 -1      2285 6.60347E-03-6.64220E-04-9.91052E-15
 -1      2286 1.19046E-03-3.80316E-04-5.78883E-16
 -1      2287 1.32774E-03-4.00198E-04-7.07510E-16
 -1      2288 1.10115E-03-3.35053E-04-5.23317E-16
 -1      2289 1.47163E-03-4.17234E-04-8.56926E-16
 -1      2290 1.61535E-03-4.30524E-04-1.02074E-15
 -1      2291 1.38131E-03-3.75404E-04-7.86697E-16
 -1      2292 1.75859E-03-4.40814E-04-1.19886E-15
 -1      2293 1.90178E-03-4.48317E-04-1.39170E-15
 -1      2294 1.66668E-03-4.02447E-04-1.11325E-15
 -1      2295 2.04445E-03-4.53760E-04-1.59868E-15
 -1      2296 2.18710E-03-4.57322E-04-1.82001E-15
 -1      2297 1.94928E-03-4.18702E-04-1.49658E-15
 -1      2298 2.32889E-03-4.59944E-04-2.05498E-15
 -1      2299 2.47050E-03-4.61796E-04-2.30381E-15
 -1      2300 2.22773E-03-4.28009E-04-1.93649E-15
 -1      2301 2.61059E-03-4.64379E-04-2.56608E-15
 -1      2302 2.75016E-03-4.67936E-04-2.84255E-15
 -1      2303 2.49943E-03-4.35013E-04-2.43132E-15
 -1      2304 2.88047E-03-4.74555E-04-3.11773E-15
 -1      2305 3.01012E-03-4.84719E-04-3.40449E-15
 -1      2306 2.75399E-03-4.45981E-04-2.96627E-15
 -1      2307 3.14362E-03-5.03071E-04-3.71759E-15
 -1      2308 3.27722E-03-5.31053E-04-4.04308E-15
 -1      2309 2.99356E-03-4.70483E-04-3.55038E-15
 -1      2310 3.40922E-03-5.74026E-04-4.38083E-15
 -1      2311 3.54566E-03-6.37694E-04-4.73184E-15
 -1      2312 3.22092E-03-5.25196E-04-4.19766E-15
 -1      2313 6.89855E-03-2.16528E-03-1.00216E-14
 -1      2314 1.35143E-02-5.81445E-03-5.28077E-14
 -1      2315 5.96885E-03-2.32992E-04-8.80058E-15
 -1      2316 6.18987E-03-3.85533E-04-9.20404E-15
 -1      2317 6.25983E-03-4.65748E-04-9.47646E-15
 -1      2318 7.81237E-03-1.53863E-03-1.19323E-14
 -1      2319 7.99962E-03-1.49268E-03-1.25493E-14
 -1      2320 8.18239E-03-1.49180E-03-1.32070E-14
 -1      2321 8.35381E-03-1.52304E-03-1.38710E-14
 -1      2322 8.16416E-03-1.44545E-03-1.28294E-14
 -1      2323 8.51817E-03-1.57960E-03-1.45408E-14
 -1      2324 8.67909E-03-1.65373E-03-1.52149E-14
 -1      2325 8.46646E-03-1.52102E-03-1.41518E-14
 -1      2326 8.83655E-03-1.73988E-03-1.58965E-14
 -1      2327 8.99306E-03-1.83456E-03-1.65832E-14
 -1      2328 8.75562E-03-1.67210E-03-1.54967E-14
 -1      2329 9.14740E-03-1.93425E-03-1.72754E-14
 -1      2330 9.30121E-03-2.03761E-03-1.79756E-14
 -1      2331 9.04501E-03-1.86055E-03-1.68663E-14
 -1      2332 9.45327E-03-2.14280E-03-1.86841E-14
 -1      2333 9.60475E-03-2.24920E-03-1.94005E-14
 -1      2334 9.33667E-03-2.06576E-03-1.82638E-14
 -1      2335 9.74732E-03-2.35067E-03-2.00870E-14
 -1      2336 9.88936E-03-2.45225E-03-2.07827E-14
 -1      2337 9.62203E-03-2.27210E-03-1.96575E-14
 -1      2338 1.00378E-02-2.55905E-03-2.15252E-14
 -1      2339 1.01856E-02-2.66556E-03-2.22775E-14
 -1      2340 9.90717E-03-2.47990E-03-2.10850E-14
 -1      2341 1.03325E-02-2.77173E-03-2.30399E-14
 -1      2342 1.04790E-02-2.87750E-03-2.38087E-14
 -1      2343 1.01988E-02-2.69250E-03-2.25868E-14
 -1      2344 1.06248E-02-2.98290E-03-2.45869E-14
 -1      2345 1.07702E-02-3.08790E-03-2.53735E-14
 -1      2346 1.04892E-02-2.90381E-03-2.41262E-14
 -1      2347 1.09152E-02-3.19257E-03-2.61655E-14
 -1      2348 1.10599E-02-3.29689E-03-2.69668E-14
 -1      2349 1.07786E-02-3.11370E-03-2.56940E-14
 -1      2350 1.12042E-02-3.40094E-03-2.77727E-14
 -1      2351 1.13483E-02-3.50470E-03-2.85808E-14
 -1      2352 1.10671E-02-3.32229E-03-2.72898E-14
 -1      2353 1.14850E-02-3.60307E-03-2.93553E-14
 -1      2354 1.16216E-02-3.70123E-03-3.01321E-14
 -1      2355 1.13476E-02-3.52463E-03-2.88669E-14
 -1      2356 1.17652E-02-3.80438E-03-3.09532E-14
 -1      2357 1.19086E-02-3.90735E-03-3.17778E-14
 -1      2358 1.16276E-02-3.72611E-03-3.04623E-14
 -1      2359 1.20520E-02-4.01018E-03-3.26039E-14
 -1      2360 1.21952E-02-4.11287E-03-3.34335E-14
 -1      2361 1.19143E-02-3.93206E-03-3.21083E-14
 -1      2362 1.23384E-02-4.21545E-03-3.42691E-14
 -1      2363 1.24815E-02-4.31791E-03-3.51038E-14
 -1      2364 1.22008E-02-4.13744E-03-3.37690E-14
 -1      2365 1.26245E-02-4.42029E-03-3.59409E-14
 -1      2366 1.27676E-02-4.52258E-03-3.67809E-14
 -1      2367 1.24869E-02-4.34238E-03-3.54387E-14
 -1      2368 1.29105E-02-4.62480E-03-3.76214E-14
 -1      2369 1.30535E-02-4.72696E-03-3.84661E-14
 -1      2370 1.27730E-02-4.54697E-03-3.71159E-14
 -1      2371 1.31892E-02-4.82396E-03-3.92706E-14
 -1      2372 1.33250E-02-4.92090E-03-4.00755E-14
 -1      2373 1.30517E-02-4.74618E-03-3.87596E-14
 -1      2374 1.34679E-02-5.02292E-03-4.09256E-14
 -1      2375 1.36108E-02-5.12488E-03-4.17790E-14
 -1      2376 1.33304E-02-4.94518E-03-4.04142E-14
 -1      2377 1.37536E-02-5.22682E-03-4.26348E-14
 -1      2378 1.38965E-02-5.32873E-03-4.34951E-14
 -1      2379 1.36161E-02-5.14912E-03-4.21183E-14
 -1      2380 1.40393E-02-5.43060E-03-4.43560E-14
 -1      2381 1.41822E-02-5.53246E-03-4.52194E-14
 -1      2382 1.39019E-02-5.35293E-03-4.38377E-14
 -1      2383 1.43250E-02-5.63429E-03-4.60894E-14
 -1      2384 1.44679E-02-5.73611E-03-4.69606E-14
 -1      2385 1.41876E-02-5.55664E-03-4.55669E-14
 -1      2386 1.46107E-02-5.83791E-03-4.78348E-14
 -1      2387 1.47536E-02-5.93971E-03-4.87128E-14
 -1      2388 1.44733E-02-5.76028E-03-4.73093E-14
 -1      2389 1.48893E-02-6.03640E-03-4.95484E-14
 -1      2390 1.50250E-02-6.13308E-03-5.03861E-14
 -1      2391 1.47518E-02-5.95877E-03-4.90195E-14
 -1      2392 1.51678E-02-6.23484E-03-5.12763E-14
 -1      2393 1.53106E-02-6.33660E-03-5.21655E-14
 -1      2394 1.50304E-02-6.15722E-03-5.07465E-14
 -1      2395 1.54535E-02-6.43835E-03-5.30555E-14
 -1      2396 1.55963E-02-6.54011E-03-5.39454E-14
 -1      2397 1.53161E-02-6.36073E-03-5.25271E-14
 -1      2398 1.57392E-02-6.64185E-03-5.48354E-14
 -1      2399 1.58820E-02-6.74360E-03-5.57250E-14
 -1      2400 1.56018E-02-6.56423E-03-5.43093E-14
 -1      2401 1.75994E-03 4.88885E-04-5.14169E-16
 -1      2402 1.61763E-03 4.72934E-04-4.12485E-16
 -1      2403 1.47497E-03 4.54446E-04-3.22672E-16
 -1      2404 1.33187E-03 4.33141E-04-2.45152E-16
 -1      2405 1.53319E-03 4.27598E-04-4.12065E-16
 -1      2406 2.32731E-03 5.36729E-04-1.04800E-15
 -1      2407 2.18573E-03 5.26568E-04-8.94751E-16
 -1      2408 2.61005E-03 5.54793E-04-1.39596E-15
 -1      2409 2.46883E-03 5.46118E-04-1.21478E-15
 -1      2410 2.39358E-03 5.03338E-04-1.20159E-15
 -1      2411 2.89170E-03 5.70153E-04-1.79925E-15
 -1      2412 2.75111E-03 5.62832E-04-1.59048E-15
 -1      2413 2.68014E-03 5.20485E-04-1.57077E-15
 -1      2414 3.17143E-03 5.81944E-04-2.26136E-15
 -1      2415 3.03191E-03 5.76611E-04-2.02308E-15
 -1      2416 2.96614E-03 5.35206E-04-1.99683E-15
 -1      2417 3.44820E-03 5.87585E-04-2.78342E-15
 -1      2418 3.31028E-03 5.85758E-04-2.51477E-15
 -1      2419 3.25074E-03 5.46366E-04-2.48128E-15
 -1      2420 3.72099E-03 5.82723E-04-3.36412E-15
 -1      2421 3.58515E-03 5.86794E-04-3.06608E-15
 -1      2422 3.53273E-03 5.51008E-04-3.02467E-15
 -1      2423 3.98920E-03 5.61576E-04-4.00533E-15
 -1      2424 3.85566E-03 5.74575E-04-3.67673E-15
 -1      2425 3.81094E-03 5.44283E-04-3.62727E-15
 -1      2426 4.25304E-03 5.17838E-04-4.70412E-15
 -1      2427 4.12156E-03 5.42904E-04-4.34745E-15
 -1      2428 4.08460E-03 5.19871E-04-4.28928E-15
 -1      2429 4.51377E-03 4.46066E-04-5.46378E-15
 -1      2430 4.38359E-03 4.85718E-04-5.07671E-15
 -1      2431 4.35397E-03 4.71069E-04-5.01002E-15
 -1      2432 4.77353E-03 3.43152E-04-6.28376E-15
 -1      2433 4.64351E-03 3.98573E-04-5.86622E-15
 -1      2434 4.62050E-03 3.92414E-04-5.79128E-15
 -1      2435 5.03484E-03 2.09265E-04-7.16914E-15
 -1      2436 4.90375E-03 2.79937E-04-6.71825E-15
 -1      2437 4.88659E-03 2.81309E-04-6.63464E-15
 -1      2438 5.29982E-03 4.78407E-05-8.11941E-15
 -1      2439 5.16671E-03 1.31680E-04-7.63587E-15
 -1      2440 5.15485E-03 1.38885E-04-7.54208E-15
 -1      2441 5.56970E-03-1.35390E-04-9.13629E-15
 -1      2442 5.43409E-03-4.14497E-05-8.61980E-15
 -1      2443 5.42724E-03-3.03315E-05-8.51550E-15
 -1      2444 5.84467E-03-3.33838E-04-1.02179E-14
 -1      2445 5.70658E-03-2.33108E-04-9.66837E-15
 -1      2446 5.70452E-03-2.19761E-04-9.55422E-15
 -1      2447 6.12412E-03-5.41375E-04-1.13584E-14
 -1      2448 5.98392E-03-4.36798E-04-1.07815E-14
 -1      2449 5.98635E-03-4.22442E-04-1.06558E-14
 -1      2450 6.40701E-03-7.53156E-04-1.25580E-14
 -1      2451 6.26524E-03-6.46969E-04-1.19517E-14
 -1      2452 6.27165E-03-6.32345E-04-1.18186E-14
 -1      2453 6.69225E-03-9.65870E-04-1.38100E-14
 -1      2454 6.54944E-03-8.59539E-04-1.31767E-14
 -1      2455 6.55918E-03-8.45020E-04-1.30356E-14
 -1      2456 6.97892E-03-1.17760E-03-1.51144E-14
 -1      2457 6.83550E-03-1.07193E-03-1.44561E-14
 -1      2458 6.84781E-03-1.05766E-03-1.43044E-14
 -1      2459 7.26632E-03-1.38750E-03-1.64657E-14
 -1      2460 7.12259E-03-1.28280E-03-1.57846E-14
 -1      2461 7.13677E-03-1.26879E-03-1.56237E-14
 -1      2462 7.55396E-03-1.59538E-03-1.78654E-14
 -1      2463 7.41015E-03-1.49168E-03-1.71600E-14
 -1      2464 7.42557E-03-1.47790E-03-1.69917E-14
 -1      2465 7.84156E-03-1.80146E-03-1.93064E-14
 -1      2466 7.69779E-03-1.69863E-03-1.85814E-14
 -1      2467 7.71397E-03-1.68501E-03-1.84037E-14
 -1      2468 8.12898E-03-2.00613E-03-2.07825E-14
 -1      2469 7.98531E-03-1.90395E-03-2.00399E-14
 -1      2470 8.00190E-03-1.89045E-03-1.98550E-14
 -1      2471 8.41614E-03-2.20978E-03-2.22907E-14
 -1      2472 8.27260E-03-2.10806E-03-2.15318E-14
 -1      2473 8.28937E-03-2.09462E-03-2.13396E-14
 -1      2474 8.70303E-03-2.41277E-03-2.38315E-14
 -1      2475 8.55962E-03-2.31134E-03-2.30574E-14
 -1      2476 8.57644E-03-2.29793E-03-2.28576E-14
 -1      2477 8.98967E-03-2.61539E-03-2.53999E-14
 -1      2478 8.84638E-03-2.51412E-03-2.46129E-14
 -1      2479 8.86318E-03-2.50070E-03-2.44066E-14
 -1      2480 9.27608E-03-2.81785E-03-2.69935E-14
 -1      2481 9.13290E-03-2.71663E-03-2.61932E-14
 -1      2482 9.14965E-03-2.70319E-03-2.59822E-14
 -1      2483 9.56231E-03-3.02029E-03-2.86089E-14
 -1      2484 9.41922E-03-2.91907E-03-2.77988E-14
 -1      2485 9.43591E-03-2.90559E-03-2.75818E-14
 -1      2486 9.84839E-03-3.22279E-03-3.02463E-14
 -1      2487 9.70537E-03-3.12153E-03-2.94244E-14
 -1      2488 9.72201E-03-3.10802E-03-2.92033E-14
 -1      2489 1.01344E-02-3.42539E-03-3.19067E-14
 -1      2490 9.99139E-03-3.32408E-03-3.10749E-14
 -1      2491 1.00080E-02-3.31053E-03-3.08465E-14
 -1      2492 1.04202E-02-3.62813E-03-3.35872E-14
 -1      2493 1.02773E-02-3.52675E-03-3.27439E-14
 -1      2494 1.02939E-02-3.51316E-03-3.25110E-14
 -1      2495 1.07060E-02-3.83100E-03-3.52942E-14
 -1      2496 1.05631E-02-3.72955E-03-3.44379E-14
 -1      2497 1.05797E-02-3.71593E-03-3.41978E-14
 -1      2498 1.09918E-02-4.03398E-03-3.70213E-14
 -1      2499 1.08489E-02-3.93248E-03-3.61534E-14
 -1      2500 1.08655E-02-3.91883E-03-3.59084E-14
 -1      2501 1.12775E-02-4.23707E-03-3.87760E-14
 -1      2502 1.11347E-02-4.13552E-03-3.78962E-14
 -1      2503 1.11513E-02-4.12185E-03-3.76415E-14
 -1      2504 1.15633E-02-4.44025E-03-4.05560E-14
 -1      2505 1.14204E-02-4.33865E-03-3.96632E-14
 -1      2506 1.14370E-02-4.32496E-03-3.94019E-14
 -1      2507 1.18490E-02-4.64349E-03-4.23535E-14
 -1      2508 1.17061E-02-4.54186E-03-4.14532E-14
 -1      2509 1.17227E-02-4.52816E-03-4.11827E-14
 -1      2510 1.21347E-02-4.84679E-03-4.41658E-14
 -1      2511 1.19918E-02-4.74514E-03-4.32585E-14
 -1      2512 1.20084E-02-4.73142E-03-4.29825E-14
 -1      2513 1.24204E-02-5.05013E-03-4.59913E-14
 -1      2514 1.22775E-02-4.94846E-03-4.50784E-14
 -1      2515 1.22941E-02-4.93473E-03-4.47950E-14
 -1      2516 1.27061E-02-5.25350E-03-4.78205E-14
 -1      2517 1.25632E-02-5.15181E-03-4.69055E-14
 -1      2518 1.25798E-02-5.13808E-03-4.66181E-14
 -1      2519 1.29918E-02-5.45689E-03-4.96594E-14
 -1      2520 1.28489E-02-5.35519E-03-4.87379E-14
 -1      2521 1.28655E-02-5.34146E-03-4.84467E-14
 -1      2522 1.32775E-02-5.66028E-03-5.15040E-14
 -1      2523 1.31346E-02-5.55858E-03-5.05803E-14
 -1      2524 1.31512E-02-5.54485E-03-5.02834E-14
 -1      2525 1.41906E-02-6.09722E-03-5.40407E-14
 -1      2526 1.40906E-02-6.05507E-03-5.38526E-14
 -1      2527 1.39923E-02-6.01363E-03-5.36672E-14
 -1      2528 1.38940E-02-5.97220E-03-5.34805E-14
 -1      2529 1.39186E-02-5.94663E-03-5.29594E-14
 -1      2530 1.37940E-02-5.93005E-03-5.32925E-14
 -1      2531 1.36940E-02-5.88790E-03-5.31043E-14
 -1      2532 1.37203E-02-5.86305E-03-5.25844E-14
 -1      2533 5.88771E-04-2.25891E-04-1.78704E-16
 -1      2534 7.75884E-04-2.87213E-04-2.75360E-16
 -1      2535 8.34189E-04-2.75280E-04-3.26616E-16
 -1      2536 5.78087E-04-1.98391E-04-1.83596E-16
 -1      2537 1.43906E-02-6.18153E-03-5.44142E-14
 -1      2538 1.42906E-02-6.13937E-03-5.42281E-14
 -1      2539 1.41169E-02-6.03022E-03-5.33342E-14
 -1      2540 1.45906E-02-6.26584E-03-5.47859E-14
 -1      2541 1.44906E-02-6.22368E-03-5.46000E-14
 -1      2542 1.43169E-02-6.11452E-03-5.37084E-14
 -1      2543 1.47907E-02-6.35015E-03-5.51535E-14
 -1      2544 1.46906E-02-6.30799E-03-5.49727E-14
 -1      2545 1.45169E-02-6.19883E-03-5.40801E-14
 -1      2546 1.49907E-02-6.43446E-03-5.55065E-14
 -1      2547 1.48907E-02-6.39230E-03-5.53308E-14
 -1      2548 1.47170E-02-6.28313E-03-5.44411E-14
 -1      2549 1.51874E-02-6.51734E-03-5.58278E-14
 -1      2550 1.50891E-02-6.47590E-03-5.56706E-14
 -1      2551 1.49153E-02-6.36672E-03-5.47862E-14
 -1      2552 1.53875E-02-6.60165E-03-5.61308E-14
 -1      2553 1.52875E-02-6.55949E-03-5.59817E-14
 -1      2554 1.51137E-02-6.45031E-03-5.51077E-14
 -1      2555 1.55877E-02-6.68595E-03-5.64165E-14
 -1      2556 1.54876E-02-6.64380E-03-5.62761E-14
 -1      2557 1.53139E-02-6.53462E-03-5.54094E-14
 -1      2558 1.57878E-02-6.77025E-03-5.66958E-14
 -1      2559 1.56878E-02-6.72810E-03-5.65543E-14
 -1      2560 1.55140E-02-6.61892E-03-5.57002E-14
 -1      2561 2.04393E-03 5.15360E-04-7.54984E-16
 -1      2562 1.90205E-03 5.02953E-04-6.28376E-16
 -1      2563 1.82023E-03 4.58991E-04-6.24704E-16
 -1      2564 7.82018E-03-1.20559E-03-1.13274E-14
 -1      2565 7.99390E-03-1.24853E-03-1.15041E-14
 -1      2566 6.86444E-03-8.11048E-04-1.02663E-14
 -1      2567 7.06136E-03-9.11779E-04-1.05038E-14
 -1      2568 7.31777E-03-1.02721E-03-1.07972E-14
 -1      2569 7.57662E-03-1.12773E-03-1.10787E-14
 -1      2570 8.14360E-03-1.28307E-03-1.16841E-14
 -1      2571 8.25848E-03-1.30264E-03-1.18655E-14
 -1      2572 8.07145E-03-1.29935E-03-1.19007E-14
 -1      2573 4.93175E-03 8.96748E-05-6.67053E-15
 -1      2574 5.09511E-03 1.14989E-04-6.98993E-15
 -1      2575 7.94104E-03-1.45545E-03-1.16754E-14
 -1      2576 7.81601E-03-1.51749E-03-1.16234E-14
 -1      2577 5.28071E-03 1.03825E-04-7.36965E-15
 -1      2578 5.42470E-03 6.71432E-05-7.68122E-15
 -1      2579 1.35309E-02-5.80072E-03-5.25068E-14
 -1      2580 5.41581E-04-2.54656E-05-1.66710E-16
 -1      2581 5.41849E-04-4.00388E-05-1.71209E-16
 -1      2582 6.55574E-04-5.66481E-05-2.34540E-16
 -1      2583 6.54955E-04-2.19649E-05-2.22709E-16
 -1      2584 4.60859E-03-2.31346E-05-6.14629E-15
 -1      2585 4.75052E-03 3.67482E-05-6.36240E-15
 -1      2586 4.17802E-03-2.29636E-04-5.68245E-15
 -1      2587 4.38626E-03-1.24734E-04-5.87442E-15
 -1      2588 3.81826E-03-3.91569E-04-5.39739E-15
 -1      2589 3.98805E-03-3.18860E-04-5.54111E-15
 -1      2590 3.15620E-03-5.96141E-04-4.96921E-15
 -1      2591 3.24665E-03-5.78327E-04-5.00371E-15
 -1      2592 3.04680E-03-6.10673E-04-4.92179E-15
 -1      2593 3.07902E-03-6.08812E-04-4.92754E-15
 -1      2594 3.12152E-03-6.25645E-04-5.00817E-15
 -1      2595 3.07061E-03-6.17884E-04-4.95316E-15
 -1      2596 3.78663E-03-8.74794E-04-5.56359E-15
 -1      2597 3.59982E-03-7.91042E-04-5.42856E-15
 -1      2598 3.40340E-03-7.15212E-04-5.28681E-15
 -1      2599 3.23984E-03-6.62726E-04-5.14416E-15
 -1      2600 4.23811E-03-1.14705E-03-5.93448E-15
 -1      2601 5.58233E-03 2.77892E-06-8.01122E-15
 -1      2602 5.74107E-03-8.89338E-05-8.34993E-15
 -1      2603 5.47655E-03 3.51939E-05-7.83081E-15
 -1      2604 8.19624E-03-1.36083E-03-1.19393E-14
 -1      2605 8.07593E-03-1.40041E-03-1.18088E-14
 -1      2606 8.11984E-03-1.41291E-03-1.23140E-14
 -1      2607 8.35104E-03-1.32358E-03-1.20737E-14
 -1      2608 8.28420E-03-1.33267E-03-1.19485E-14
 -1      2609 8.30266E-03-1.36058E-03-1.24561E-14
 -1      2610 8.38853E-03-1.34436E-03-1.24697E-14
 -1      2611 4.02916E-03-9.98691E-04-5.72982E-15
 -1      2612 3.92525E-03-8.90169E-04-5.48906E-15
 -1      2613 4.83121E-03 7.73805E-05-6.44211E-15
 -1      2614 6.66014E-04-1.30707E-04-2.50180E-16
 -1      2615 5.52239E-04-1.19099E-04-1.86103E-16
 -1      2616 5.56703E-04-1.37743E-04-1.86605E-16
 -1      2617 9.07035E-04 3.71298E-04-5.70561E-17
 -1      2618 8.77661E-04 3.44773E-04-6.95651E-17
 -1      2619 1.02136E-03 3.94663E-04-9.25367E-17
 -1      2620 8.32248E-03-1.33854E-03-1.22794E-14
 -1      2621 5.82902E-03-1.65902E-04-8.60827E-15
 -1      2622 2.10693E-03 4.83373E-04-8.86972E-16
 -1      2623 6.72049E-03-7.61726E-04-1.02529E-14
 -1      2624 3.76350E-03-7.54279E-04-5.12841E-15
 -1      2625 5.16567E-03 1.17238E-04-7.12240E-15
 -1      2626 1.60027E-02-6.83498E-03-5.65676E-14
 -1      2627 1.61456E-02-6.93673E-03-5.74611E-14
 -1      2628 1.34572E-02-5.73372E-03-5.18001E-14
 -1      2629 1.60847E-02-6.92095E-03-5.75396E-14
 -1      2630 1.59738E-02-6.86409E-03-5.72166E-14
 -1      2631 3.09227E-03-5.82853E-04-4.77033E-15
 -1      2632 1.58001E-02-6.75490E-03-5.63677E-14
 -1      2633 1.23341E-03 4.24902E-04-1.87309E-16
 -1      2634 1.11988E-03 4.07984E-04-1.35322E-16
 -1      2635 1.09150E-03 3.82013E-04-1.49837E-16
 -1      2636 1.29000E-03 4.01616E-04-2.58420E-16
 -1      2637 7.69266E-03-1.20005E-03-1.14640E-14
 -1      2638 7.21167E-03-1.01573E-03-1.09117E-14
 -1      2639 5.62653E-04-1.55120E-04-1.87079E-16
 -1      2640 5.69465E-04-1.77314E-04-1.85534E-16
 -1      2641 6.94397E-04-2.13922E-04-2.51996E-16
 -1      2642 6.77717E-04-1.70868E-04-2.52728E-16
 -1      2643 3.68076E-03-4.35738E-04-5.19777E-15
 -1      2644 3.75401E-03-3.86812E-04-5.13496E-15
 -1      2645 3.55162E-03-4.63549E-04-5.00241E-15
 -1      2646 3.50206E-03-6.54955E-04-4.92546E-15
 -1      2647 3.31163E-03-5.47722E-04-4.93636E-15
 -1      2648 4.07327E-03-2.60005E-04-5.47094E-15
 -1      2649 3.50014E-03-7.09721E-04-5.19078E-15
 -1      2650 3.18399E-03-6.13658E-04-4.92088E-15
 -1      2651 3.03875E-03-5.87475E-04-4.75954E-15
 -1      2652 4.45857E-03-7.16817E-05-5.87173E-15
 -1      2653 1.58653E-02-6.75736E-03-5.60445E-14
 -1      2654 1.62443E-02-7.00894E-03-5.81090E-14
 -1      2655 7.77268E-04 6.75744E-05-2.45192E-16
 -1      2656 7.74788E-04 4.61017E-05-2.56753E-16
 -1      2657 7.72699E-04 2.48837E-05-2.67500E-16
 -1      2658 7.71114E-04 4.23517E-06-2.77542E-16
 -1      2659 8.90848E-04 3.88868E-05-3.33595E-16
 -1      2660 7.92783E-04 1.63940E-04-1.86523E-16
 -1      2661 7.87903E-04 1.38153E-04-2.03356E-16
 -1      2662 8.05988E-04 2.20093E-04-1.48156E-16
 -1      2663 7.98778E-04 1.91198E-04-1.68322E-16
 -1      2664 9.16987E-04 1.97822E-04-2.31437E-16
 -1      2665 8.49693E-04 3.19201E-04-8.08950E-17
 -1      2666 8.23238E-04 2.94472E-04-9.08832E-17
 -1      2667 9.64516E-04 3.42902E-04-1.18801E-16
 -1      2668 1.44432E-02-6.13181E-03-5.33717E-14
 -1      2669 1.43432E-02-6.08966E-03-5.31885E-14
 -1      2670 1.01827E-03-2.92054E-04-4.71587E-16
 -1      2671 1.15408E-03-3.14731E-04-5.86621E-16
 -1      2672 3.23446E-03-5.28137E-04-4.66283E-15
 -1      2673 3.37767E-03-5.00464E-04-4.78521E-15
 -1      2674 1.29662E-03-3.34875E-04-7.21537E-16
 -1      2675 1.43889E-03-3.51403E-04-8.70398E-16
 -1      2676 1.21451E-03-2.95322E-04-6.57609E-16
 -1      2677 1.58032E-03-3.64977E-04-1.03334E-15
 -1      2678 1.72104E-03-3.75779E-04-1.21031E-15
 -1      2679 1.49643E-03-3.27912E-04-9.54925E-16
 -1      2680 1.86046E-03-3.84572E-04-1.40132E-15
 -1      2681 1.99865E-03-3.91470E-04-1.60657E-15
 -1      2682 1.77474E-03-3.50539E-04-1.30795E-15
 -1      2683 2.13481E-03-3.97447E-04-1.82550E-15
 -1      2684 2.26898E-03-4.02510E-04-2.05817E-15
 -1      2685 2.04658E-03-3.66838E-04-1.71618E-15
 -1      2686 2.39995E-03-4.08076E-04-2.30501E-15
 -1      2687 2.52774E-03-4.13963E-04-2.56501E-15
 -1      2688 2.30803E-03-3.81133E-04-2.17980E-15
 -1      2689 2.64461E-03-4.21917E-04-2.82338E-15
 -1      2690 2.75722E-03-4.31603E-04-3.09503E-15
 -1      2691 2.54749E-03-3.98386E-04-2.68359E-15
 -1      2692 2.86885E-03-4.46975E-04-3.39317E-15
 -1      2693 2.97412E-03-4.66516E-04-3.70282E-15
 -1      2694 2.76402E-03-4.25534E-04-3.23647E-15
 -1      2695 3.07008E-03-4.95076E-04-4.02405E-15
 -1      2696 3.15919E-03-5.31367E-04-4.35750E-15
 -1      2697 2.95229E-03-4.71732E-04-3.85267E-15
 -1      2698 1.59360E-03 3.99682E-04-5.06024E-16
 -1      2699 1.44915E-03 3.82379E-04-4.07579E-16
 -1      2700 1.38440E-02-5.87927E-03-5.22552E-14
 -1      2701 1.37457E-02-5.83784E-03-5.20673E-14
 -1      2702 8.26030E-03-1.42183E-03-1.29641E-14
 -1      2703 2.17199E-03 4.50138E-04-1.02271E-15
 -1      2704 2.02724E-03 4.39656E-04-8.74856E-16
 -1      2705 8.43044E-03-1.46671E-03-1.37437E-14
 -1      2706 8.55619E-03-1.53075E-03-1.44068E-14
 -1      2707 8.68258E-03-1.60777E-03-1.50771E-14
 -1      2708 8.81302E-03-1.69499E-03-1.57526E-14
 -1      2709 8.62180E-03-1.55044E-03-1.46599E-14
 -1      2710 8.94551E-03-1.78820E-03-1.64345E-14
 -1      2711 9.08158E-03-1.88678E-03-1.71238E-14
 -1      2712 8.85539E-03-1.72212E-03-1.60056E-14
 -1      2713 9.21927E-03-1.98808E-03-1.78204E-14
 -1      2714 9.35937E-03-2.09184E-03-1.85270E-14
 -1      2715 9.10883E-03-1.91499E-03-1.73792E-14
 -1      2716 9.49329E-03-2.19135E-03-1.92048E-14
 -1      2717 9.62852E-03-2.29170E-03-1.98902E-14
 -1      2718 9.36958E-03-2.11376E-03-1.87524E-14
 -1      2719 9.77125E-03-2.39752E-03-2.06214E-14
 -1      2720 9.91472E-03-2.50351E-03-2.13623E-14
 -1      2721 9.63889E-03-2.31720E-03-2.01597E-14
 -1      2722 1.00583E-02-2.60933E-03-2.21117E-14
 -1      2723 1.02022E-02-2.71499E-03-2.28705E-14
 -1      2724 9.92027E-03-2.52747E-03-2.16388E-14
 -1      2725 1.03460E-02-2.82035E-03-2.36386E-14
 -1      2726 1.04900E-02-2.92543E-03-2.44138E-14
 -1      2727 1.02045E-02-2.73770E-03-2.31524E-14
 -1      2728 1.06338E-02-3.03020E-03-2.51968E-14
 -1      2729 1.07776E-02-3.13468E-03-2.59863E-14
 -1      2730 1.04901E-02-2.94720E-03-2.47009E-14
 -1      2731 1.09213E-02-3.23888E-03-2.67828E-14
 -1      2732 1.10650E-02-3.34281E-03-2.75849E-14
 -1      2733 1.07764E-02-3.15576E-03-2.62769E-14
 -1      2734 1.12014E-02-3.44133E-03-2.83532E-14
 -1      2735 1.13377E-02-3.53965E-03-2.91245E-14
 -1      2736 1.10556E-02-3.35821E-03-2.78384E-14
 -1      2737 1.14811E-02-3.64294E-03-2.99394E-14
 -1      2738 1.16244E-02-3.74606E-03-3.07603E-14
 -1      2739 1.13349E-02-3.55988E-03-2.94195E-14
 -1      2740 1.17677E-02-3.84901E-03-3.15829E-14
 -1      2741 1.19109E-02-3.95182E-03-3.24087E-14
 -1      2742 1.16212E-02-3.76602E-03-3.10551E-14
 -1      2743 1.20540E-02-4.05450E-03-3.32386E-14
 -1      2744 1.21971E-02-4.15706E-03-3.40717E-14
 -1      2745 1.19074E-02-3.97159E-03-3.27085E-14
 -1      2746 1.23402E-02-4.25953E-03-3.49076E-14
 -1      2747 1.24832E-02-4.36190E-03-3.57436E-14
 -1      2748 1.21934E-02-4.17669E-03-3.43729E-14
 -1      2749 1.26262E-02-4.46419E-03-3.65803E-14
 -1      2750 1.27691E-02-4.56640E-03-3.74194E-14
 -1      2751 1.24794E-02-4.38141E-03-3.60440E-14
 -1      2752 1.29049E-02-4.66345E-03-3.82214E-14
 -1      2753 1.30407E-02-4.76045E-03-3.90239E-14
 -1      2754 1.27582E-02-4.58073E-03-3.76818E-14
 -1      2755 1.31836E-02-4.86250E-03-3.98694E-14
 -1      2756 1.33265E-02-4.96451E-03-4.07203E-14
 -1      2757 1.30369E-02-4.77982E-03-3.93256E-14
 -1      2758 1.34694E-02-5.06648E-03-4.15719E-14
 -1      2759 1.36123E-02-5.16841E-03-4.24280E-14
 -1      2760 1.33227E-02-4.98383E-03-4.10242E-14
 -1      2761 1.37551E-02-5.27031E-03-4.32864E-14
 -1      2762 1.38980E-02-5.37219E-03-4.41485E-14
 -1      2763 1.36084E-02-5.18769E-03-4.27351E-14
 -1      2764 1.40409E-02-5.47404E-03-4.50133E-14
 -1      2765 1.41837E-02-5.57588E-03-4.58817E-14
 -1      2766 1.38942E-02-5.39144E-03-4.44618E-14
 -1      2767 1.43266E-02-5.67769E-03-4.67540E-14
 -1      2768 1.44694E-02-5.77949E-03-4.76274E-14
 -1      2769 1.41799E-02-5.59511E-03-4.61965E-14
 -1      2770 1.46052E-02-5.87620E-03-4.84606E-14
 -1      2771 1.47409E-02-5.97289E-03-4.92967E-14
 -1      2772 1.44585E-02-5.79362E-03-4.79018E-14
 -1      2773 1.48837E-02-6.07466E-03-5.01824E-14
 -1      2774 1.50266E-02-6.17642E-03-5.10733E-14
 -1      2775 1.47370E-02-5.99209E-03-4.96206E-14
 -1      2776 1.51694E-02-6.27818E-03-5.19632E-14
 -1      2777 1.53123E-02-6.37993E-03-5.28540E-14
 -1      2778 1.50227E-02-6.19562E-03-5.13990E-14
 -1      2779 1.54551E-02-6.48168E-03-5.37507E-14
 -1      2780 1.55980E-02-6.58342E-03-5.46429E-14
 -1      2781 1.53084E-02-6.39912E-03-5.31880E-14
 -1      2782 1.34775E-02-5.71920E-03-5.14747E-14
 -1      2783 1.33143E-02-5.63202E-03-5.08771E-14
 -1      2784 1.31715E-02-5.53033E-03-4.99576E-14
 -1      2785 7.59496E-03-1.20322E-03-1.16668E-14
 -1      2786 7.81444E-03-1.27107E-03-1.19252E-14
 -1      2787 2.75275E-03 4.84775E-04-1.75035E-15
 -1      2788 2.60740E-03 4.76935E-04-1.54783E-15
 -1      2789 2.46207E-03 4.68605E-04-1.35951E-15
 -1      2790 2.31698E-03 4.59735E-04-1.18440E-15
 -1      2791 2.23899E-03 4.15667E-04-1.16381E-15
 -1      2792 2.53273E-03 4.32546E-04-1.52164E-15
 -1      2793 3.33347E-03 5.09529E-04-2.70518E-15
 -1      2794 3.18875E-03 5.04796E-04-2.44455E-15
 -1      2795 3.62105E-03 5.13394E-04-3.27012E-15
 -1      2796 3.47767E-03 5.12614E-04-2.98031E-15
 -1      2797 3.41948E-03 4.71654E-04-2.93286E-15
 -1      2798 3.90481E-03 5.05045E-04-3.89405E-15
 -1      2799 3.76348E-03 5.11177E-04-3.57448E-15
 -1      2800 3.71284E-03 4.75044E-04-3.51910E-15
 -1      2801 4.18382E-03 4.77484E-04-4.57728E-15
 -1      2802 4.04488E-03 4.94159E-04-4.22856E-15
 -1      2803 4.00213E-03 4.65312E-04-4.16429E-15
 -1      2804 4.45839E-03 4.23465E-04-5.31975E-15
 -1      2805 4.32150E-03 4.54211E-04-4.94126E-15
 -1      2806 4.28622E-03 4.34577E-04-4.86877E-15
 -1      2807 4.73030E-03 3.37479E-04-6.12302E-15
 -1      2808 4.59441E-03 3.84697E-04-5.71327E-15
 -1      2809 4.56563E-03 3.74933E-04-5.63265E-15
 -1      2810 5.00237E-03 2.17572E-04-6.98934E-15
 -1      2811 4.86602E-03 2.81710E-04-6.54859E-15
 -1      2812 4.84269E-03 2.80891E-04-6.45846E-15
 -1      2813 5.27738E-03 6.60754E-05-7.91892E-15
 -1      2814 5.13929E-03 1.45452E-04-7.44564E-15
 -1      2815 5.12070E-03 1.51407E-04-7.34704E-15
 -1      2816 5.55705E-03-1.11181E-04-8.91603E-15
 -1      2817 5.41654E-03-1.98081E-05-8.40952E-15
 -1      2818 5.40259E-03-9.66660E-06-8.30064E-15
 -1      2819 5.84159E-03-3.06702E-04-9.97618E-15
 -1      2820 5.69875E-03-2.07153E-04-9.43805E-15
 -1      2821 5.68967E-03-1.95021E-04-9.31968E-15
 -1      2822 6.13004E-03-5.13226E-04-1.10997E-14
 -1      2823 5.98544E-03-4.08999E-04-1.05306E-14
 -1      2824 5.98145E-03-3.96271E-04-1.04025E-14
 -1      2825 6.42089E-03-7.24965E-04-1.22807E-14
 -1      2826 6.27530E-03-6.18729E-04-1.16832E-14
 -1      2827 6.27630E-03-6.06033E-04-1.15466E-14
 -1      2828 6.71267E-03-9.38008E-04-1.35151E-14
 -1      2829 6.56678E-03-8.31490E-04-1.28911E-14
 -1      2830 6.57228E-03-8.18959E-04-1.27447E-14
 -1      2831 7.00433E-03-1.15012E-03-1.48017E-14
 -1      2832 6.85860E-03-1.04426E-03-1.41524E-14
 -1      2833 6.86784E-03-1.03180E-03-1.39974E-14
 -1      2834 7.29525E-03-1.36033E-03-1.61363E-14
 -1      2835 7.14994E-03-1.25549E-03-1.54623E-14
 -1      2836 7.16205E-03-1.24298E-03-1.53001E-14
 -1      2837 7.58521E-03-1.56843E-03-1.75178E-14
 -1      2838 7.44038E-03-1.46464E-03-1.68216E-14
 -1      2839 7.45455E-03-1.45199E-03-1.66500E-14
 -1      2840 7.87420E-03-1.77465E-03-1.89421E-14
 -1      2841 7.72983E-03-1.67175E-03-1.82246E-14
 -1      2842 7.74535E-03-1.65893E-03-1.80460E-14
 -1      2843 8.16234E-03-1.97937E-03-2.04029E-14
 -1      2844 8.01837E-03-1.87717E-03-1.96680E-14
 -1      2845 8.03470E-03-1.86418E-03-1.94812E-14
 -1      2846 8.44980E-03-2.18302E-03-2.18983E-14
 -1      2847 8.30615E-03-2.08131E-03-2.11478E-14
 -1      2848 8.32292E-03-2.06817E-03-2.09530E-14
 -1      2849 8.73675E-03-2.38598E-03-2.34252E-14
 -1      2850 8.59334E-03-2.28457E-03-2.26576E-14
 -1      2851 8.61029E-03-2.27131E-03-2.24576E-14
 -1      2852 9.02332E-03-2.58855E-03-2.49817E-14
 -1      2853 8.88008E-03-2.48730E-03-2.41999E-14
 -1      2854 8.89708E-03-2.47394E-03-2.39932E-14
 -1      2855 9.30963E-03-2.79093E-03-2.65649E-14
 -1      2856 9.16650E-03-2.68975E-03-2.57703E-14
 -1      2857 9.18346E-03-2.67632E-03-2.55580E-14
 -1      2858 9.59574E-03-2.99329E-03-2.81714E-14
 -1      2859 9.45270E-03-2.89211E-03-2.73655E-14
 -1      2860 9.46959E-03-2.87862E-03-2.71477E-14
 -1      2861 9.88172E-03-3.19571E-03-2.97964E-14
 -1      2862 9.73874E-03-3.09449E-03-2.89804E-14
 -1      2863 9.75556E-03-3.08095E-03-2.87592E-14
 -1      2864 1.01676E-02-3.39825E-03-3.14471E-14
 -1      2865 1.00247E-02-3.29697E-03-3.06201E-14
 -1      2866 1.00414E-02-3.28339E-03-3.03927E-14
 -1      2867 1.04534E-02-3.60092E-03-3.31147E-14
 -1      2868 1.03105E-02-3.49957E-03-3.22782E-14
 -1      2869 1.03272E-02-3.48596E-03-3.20470E-14
 -1      2870 1.07392E-02-3.80373E-03-3.48094E-14
 -1      2871 1.05963E-02-3.70231E-03-3.39586E-14
 -1      2872 1.06130E-02-3.68867E-03-3.37213E-14
 -1      2873 1.10250E-02-4.00666E-03-3.65232E-14
 -1      2874 1.08821E-02-3.90518E-03-3.56636E-14
 -1      2875 1.08987E-02-3.89152E-03-3.54187E-14
 -1      2876 1.13107E-02-4.20971E-03-3.82639E-14
 -1      2877 1.11678E-02-4.10817E-03-3.73910E-14
 -1      2878 1.11845E-02-4.09449E-03-3.71400E-14
 -1      2879 1.15964E-02-4.41285E-03-4.00268E-14
 -1      2880 1.14536E-02-4.31127E-03-3.91427E-14
 -1      2881 1.14702E-02-4.29757E-03-3.88843E-14
 -1      2882 1.18822E-02-4.61607E-03-4.18090E-14
 -1      2883 1.17393E-02-4.51445E-03-4.09158E-14
 -1      2884 1.17559E-02-4.50074E-03-4.06508E-14
 -1      2885 1.21679E-02-4.81935E-03-4.36078E-14
 -1      2886 1.20250E-02-4.71770E-03-4.27061E-14
 -1      2887 1.20416E-02-4.70399E-03-4.24325E-14
 -1      2888 1.24536E-02-5.02268E-03-4.54207E-14
 -1      2889 1.23107E-02-4.92101E-03-4.45130E-14
 -1      2890 1.23273E-02-4.90729E-03-4.42330E-14
 -1      2891 1.27393E-02-5.22604E-03-4.72422E-14
 -1      2892 1.25964E-02-5.12435E-03-4.63306E-14
 -1      2893 1.26130E-02-5.11062E-03-4.60460E-14
 -1      2894 1.30268E-02-5.42902E-03-4.90556E-14
 -1      2895 1.28840E-02-5.32733E-03-4.81412E-14
 -1      2896 1.29006E-02-5.31360E-03-4.78522E-14
 -1      2897 1.31899E-02-5.51620E-03-4.96492E-14
 -1      2898 1.42432E-02-6.04751E-03-5.30019E-14
 -1      2899 1.41432E-02-6.00536E-03-5.28150E-14
 -1      2900 1.41694E-02-5.98050E-03-5.22976E-14
 -1      2901 6.11658E-03-3.98343E-04-9.36944E-15
 -1      2902 6.31838E-03-5.41425E-04-9.78586E-15
 -1      2903 7.91651E-04-2.38646E-04-3.11166E-16
 -1      2904 9.19725E-04-2.71181E-04-3.97211E-16
 -1      2905 9.75377E-04-2.55827E-04-4.50689E-16
 -1      2906 7.81432E-04-2.14328E-04-3.12345E-16
 -1      2907 1.35774E-02-5.76135E-03-5.16603E-14
 -1      2908 3.04184E-03-5.59086E-04-4.56588E-15
 -1      2909 3.10873E-03-5.54940E-04-4.60620E-15
 -1      2910 1.46432E-02-6.21611E-03-5.37290E-14
 -1      2911 1.45432E-02-6.17396E-03-5.35520E-14
 -1      2912 1.43695E-02-6.06479E-03-5.26639E-14
 -1      2913 1.48399E-02-6.29898E-03-5.40650E-14
 -1      2914 1.47416E-02-6.25755E-03-5.38986E-14
 -1      2915 1.45679E-02-6.14838E-03-5.30146E-14
 -1      2916 1.50400E-02-6.38328E-03-5.43864E-14
 -1      2917 1.49400E-02-6.34113E-03-5.42277E-14
 -1      2918 1.47662E-02-6.23196E-03-5.33497E-14
 -1      2919 1.52402E-02-6.46758E-03-5.46928E-14
 -1      2920 1.51401E-02-6.42543E-03-5.45410E-14
 -1      2921 1.49664E-02-6.31625E-03-5.36707E-14
 -1      2922 1.54403E-02-6.55188E-03-5.49886E-14
 -1      2923 1.53402E-02-6.50973E-03-5.48420E-14
 -1      2924 1.51665E-02-6.40055E-03-5.39790E-14
 -1      2925 1.88258E-03 4.27945E-04-7.39575E-16
 -1      2926 1.73806E-03 4.14781E-04-6.16640E-16
 -1      2927 1.65579E-03 3.70692E-04-6.04795E-16
 -1      2928 6.61556E-03-7.29234E-04-1.03076E-14
 -1      2929 6.84577E-03-8.64801E-04-1.06723E-14
 -1      2930 8.27867E-03-1.36361E-03-1.25277E-14
 -1      2931 8.37512E-03-1.37114E-03-1.27259E-14
 -1      2932 8.00321E-03-1.31711E-03-1.21332E-14
 -1      2933 8.14374E-03-1.34300E-03-1.23188E-14
 -1      2934 7.11538E-03-1.00701E-03-1.10914E-14
 -1      2935 7.34050E-03-1.10982E-03-1.13953E-14
 -1      2936 5.71081E-03-1.15290E-04-8.44913E-15
 -1      2937 5.90715E-03-2.50563E-04-8.90219E-15
 -1      2938 5.98722E-03-3.26807E-04-9.19737E-15
 -1      2939 1.40436E-02-5.96339E-03-5.26312E-14
 -1      2940 1.39436E-02-5.92124E-03-5.24412E-14
 -1      2941 1.37707E-02-5.81245E-03-5.15550E-14
 -1      2942 1.39699E-02-5.89638E-03-5.19265E-14
 -1      2943 4.72156E-03 6.39771E-05-6.18285E-15
 -1      2944 4.87697E-03 1.07895E-04-6.48410E-15
 -1      2945 3.33691E-03-6.06402E-04-4.79486E-15
 -1      2946 3.94090E-03-2.93424E-04-5.21812E-15
 -1      2947 4.10230E-03-2.12260E-04-5.35139E-15
 -1      2948 1.56794E-02-6.66353E-03-5.55176E-14
 -1      2949 4.31088E-03-1.01757E-04-5.54636E-15
 -1      2950 4.50158E-03-1.14459E-05-5.80514E-15
 -1      2951 5.05492E-03 1.27313E-04-6.86257E-15
 -1      2952 5.21130E-03 1.12257E-04-7.23637E-15
 -1      2953 3.02964E-03-5.53091E-04-4.54066E-15
 -1      2954 3.00685E-03-5.55132E-04-4.51207E-15
 -1      2955 3.04356E-03 4.98874E-04-2.19850E-15
 -1      2956 2.89824E-03 4.92128E-04-1.96735E-15
 -1      2957 2.82789E-03 4.47713E-04-1.93445E-15
 -1      2958 3.12389E-03 4.61280E-04-2.40488E-15
 -1      2959 7.83762E-04 1.13647E-04-2.18385E-16
 -1      2960 7.80268E-04 9.01289E-05-2.32426E-16
 -1      2961 8.97045E-04 8.80004E-05-3.05122E-16
 -1      2962 9.05453E-04 1.40563E-04-2.71308E-16
 -1      2963 5.38591E-03 6.21034E-05-7.65276E-15
 -1      2964 5.51917E-03-4.19595E-07-7.98119E-15
 -1      2965 7.73111E-04-9.60340E-05-3.14920E-16
 -1      2966 7.76200E-04-1.16913E-04-3.20002E-16
 -1      2967 8.33439E-03-1.38368E-03-1.28361E-14
 -1      2968 8.37614E-03-1.43176E-03-1.33577E-14
 -1      2969 8.46339E-03-1.43937E-03-1.36080E-14
 -1      2970 8.38653E-03-1.37344E-03-1.28420E-14
 -1      2971 1.55327E-02-6.58097E-03-5.49609E-14
 -1      2972 7.80501E-04-1.38594E-04-3.23973E-16
 -1      2973 7.86032E-04-1.61438E-04-3.26399E-16
 -1      2974 8.95369E-04-1.43244E-04-4.06806E-16
 -1      2975 8.86845E-04-7.67171E-06-3.57882E-16
 -1      2976 7.70065E-04-1.60285E-05-2.86650E-16
 -1      2977 7.69642E-04-3.60022E-05-2.94849E-16
 -1      2978 8.10774E-04 2.60803E-04-1.15291E-16
 -1      2979 3.44051E-03-4.58699E-04-4.72531E-15
 -1      2980 1.36591E-03 3.37695E-04-3.99650E-16
 -1      2981 1.30475E-03 3.62278E-04-3.21249E-16
 -1      2982 7.00062E-03-9.67107E-04-1.11460E-14
 -1      2983 1.35029E-02-5.69399E-03-5.09591E-14
 -1      2984 1.94674E-03 3.95765E-04-8.59013E-16
 -1      2985 3.14751E-03-5.15666E-04-4.46145E-15
 -1      2986 5.26204E-03 9.40157E-05-7.37753E-15
 -1      2987 7.49409E-03-1.19127E-03-1.18511E-14
 -1      2988 4.93760E-03 1.29653E-04-6.58973E-15
 -1      2989 6.45891E-03-6.47455E-04-1.01917E-14
 -1      2990 7.91779E-03-1.32279E-03-1.23412E-14
 -1      2991 5.60942E-03-6.90482E-05-8.25945E-15
 -1      2992 7.69939E-04-5.58197E-05-3.02262E-16
 -1      2993 7.71051E-04-7.57954E-05-3.09025E-16
 -1      2994 8.88111E-04-9.70530E-05-3.94501E-16
 -1      2995 8.85625E-04-5.25187E-05-3.78102E-16
 -1      2996 8.23511E-03-1.38434E-03-1.27638E-14
 -1      2997 2.99136E-03-5.32673E-04-4.35328E-15
 -1      2998 1.20467E-03 3.54875E-04-2.57905E-16
 -1      2999 1.53589E-02-6.47178E-03-5.41074E-14
 -1      3000 3.06514E-03-5.43311E-04-4.48009E-15
 -1      3001 2.99745E-03-5.13789E-04-4.23876E-15
 -1      3002 9.29025E-04 2.71830E-04-1.70924E-16
 -1      3003 4.56101E-03 3.98444E-05-5.84317E-15
 -1      3004 3.22112E-03-5.61006E-04-4.55372E-15
 -1      3005 3.21946E-03-5.95391E-04-4.80693E-15
 -1      3006 3.79906E-03-3.32603E-04-5.02128E-15
 -1      3007 4.16783E-03-1.35094E-04-5.28881E-15
 -1      3008 8.41684E-03-1.37543E-03-1.28516E-14
 -1      3009 8.41353E-03-1.37034E-03-1.28475E-14
 -1      3010 8.44582E-03-1.40303E-03-1.32288E-14
 -1      3011 8.41436E-03-1.40263E-03-1.31044E-14
 -1      3012 1.04353E-03 2.32762E-04-2.80605E-16
 -1      3013 1.03595E-03 2.00225E-04-3.06179E-16
 -1      3014 1.06421E-03 3.56541E-04-1.62942E-16
 -1      3015 3.36784E-03-4.26870E-04-4.45957E-15
 -1      3016 3.53645E-03-3.96036E-04-4.66771E-15
 -1      3017 1.44933E-02-6.08099E-03-5.23060E-14
 -1      3018 1.43950E-02-6.03956E-03-5.21359E-14
 -1      3019 1.42864E-03 3.11874E-04-4.83012E-16
 -1      3020 1.28393E-03 2.94252E-04-3.88239E-16
 -1      3021 6.89556E-03-9.26752E-04-1.12049E-14
 -1      3022 7.13660E-03-1.05554E-03-1.16362E-14
 -1      3023 1.41180E-03-2.91334E-04-8.74423E-16
 -1      3024 1.55095E-03-3.04862E-04-1.03613E-15
 -1      3025 1.68887E-03-3.16602E-04-1.21154E-15
 -1      3026 1.82533E-03-3.26719E-04-1.40080E-15
 -1      3027 1.60609E-03-2.82606E-04-1.11761E-15
 -1      3028 1.95967E-03-3.36099E-04-1.60363E-15
 -1      3029 2.09156E-03-3.44764E-04-1.82015E-15
 -1      3030 1.87671E-03-3.04622E-04-1.49345E-15
 -1      3031 2.22014E-03-3.53980E-04-2.05031E-15
 -1      3032 2.34487E-03-3.63576E-04-2.29436E-15
 -1      3033 2.13786E-03-3.25422E-04-1.92337E-15
 -1      3034 2.45879E-03-3.74790E-04-2.53871E-15
 -1      3035 2.56746E-03-3.87451E-04-2.79376E-15
 -1      3036 2.37840E-03-3.49203E-04-2.39475E-15
 -1      3037 2.67489E-03-4.05060E-04-3.07524E-15
 -1      3038 2.77387E-03-4.25524E-04-3.36969E-15
 -1      3039 2.59838E-03-3.82031E-04-2.91638E-15
 -1      3040 2.85572E-03-4.49597E-04-3.63668E-15
 -1      3041 2.93459E-03-4.79400E-04-3.95263E-15
 -1      3042 2.92459E-03-4.87628E-04-4.01077E-15
 -1      3043 2.78371E-03-4.28425E-04-3.46240E-15
 -1      3044 1.01105E-03 5.51888E-05-4.06074E-16
 -1      3045 1.00793E-03 2.88017E-05-4.21782E-16
 -1      3046 3.80792E-03 4.36083E-04-3.77176E-15
 -1      3047 3.65866E-03 4.35677E-04-3.46111E-15
 -1      3048 8.56684E-03-1.50164E-03-1.42441E-14
 -1      3049 8.66460E-03-1.57980E-03-1.49085E-14
 -1      3050 8.77005E-03-1.66313E-03-1.55797E-14
 -1      3051 8.88343E-03-1.75345E-03-1.62563E-14
 -1      3052 8.68820E-03-1.61120E-03-1.51546E-14
 -1      3053 9.00254E-03-1.84732E-03-1.69410E-14
 -1      3054 9.12727E-03-1.94526E-03-1.76360E-14
 -1      3055 8.89967E-03-1.78525E-03-1.65058E-14
 -1      3056 9.24934E-03-2.04008E-03-1.83024E-14
 -1      3057 9.37479E-03-2.13686E-03-1.89785E-14
 -1      3058 9.13210E-03-1.97051E-03-1.78552E-14
 -1      3059 9.50924E-03-2.23958E-03-1.96985E-14
 -1      3060 9.64603E-03-2.34334E-03-2.04285E-14
 -1      3061 9.38209E-03-2.16486E-03-1.92396E-14
 -1      3062 9.78429E-03-2.44738E-03-2.11665E-14
 -1      3063 9.92395E-03-2.55179E-03-2.19137E-14
 -1      3064 9.65025E-03-2.36925E-03-2.06956E-14
 -1      3065 1.00644E-02-2.65620E-03-2.26706E-14
 -1      3066 1.02057E-02-2.76064E-03-2.34344E-14
 -1      3067 9.92583E-03-2.57598E-03-2.21891E-14
 -1      3068 1.03475E-02-2.86493E-03-2.42063E-14
 -1      3069 1.04897E-02-2.96911E-03-2.49860E-14
 -1      3070 1.02059E-02-2.78349E-03-2.37142E-14
 -1      3071 1.06321E-02-3.07310E-03-2.57730E-14
 -1      3072 1.07747E-02-3.17693E-03-2.65647E-14
 -1      3073 1.04886E-02-2.99097E-03-2.52696E-14
 -1      3074 1.09104E-02-3.27538E-03-2.73255E-14
 -1      3075 1.10461E-02-3.37369E-03-2.80902E-14
 -1      3076 1.07656E-02-3.19290E-03-2.68129E-14
 -1      3077 1.11890E-02-3.47699E-03-2.88985E-14
 -1      3078 1.13320E-02-3.58014E-03-2.97113E-14
 -1      3079 1.10435E-02-3.39433E-03-2.83780E-14
 -1      3080 1.14749E-02-3.68314E-03-3.05301E-14
 -1      3081 1.16179E-02-3.78601E-03-3.13522E-14
 -1      3082 1.13289E-02-3.60040E-03-3.00036E-14
 -1      3083 1.17609E-02-3.88874E-03-3.21774E-14
 -1      3084 1.19039E-02-3.99137E-03-3.30063E-14
 -1      3085 1.16146E-02-3.80598E-03-3.16453E-14
 -1      3086 1.20468E-02-4.09389E-03-3.38369E-14
 -1      3087 1.21898E-02-4.19631E-03-3.46725E-14
 -1      3088 1.19004E-02-4.01114E-03-3.33018E-14
 -1      3089 1.23328E-02-4.29865E-03-3.55060E-14
 -1      3090 1.24757E-02-4.40092E-03-3.63410E-14
 -1      3091 1.21862E-02-4.21593E-03-3.49654E-14
 -1      3092 1.26115E-02-4.49801E-03-3.71403E-14
 -1      3093 1.27472E-02-4.59505E-03-3.79406E-14
 -1      3094 1.24648E-02-4.41532E-03-3.65980E-14
 -1      3095 1.28902E-02-4.69714E-03-3.87846E-14
 -1      3096 1.30331E-02-4.79918E-03-3.96285E-14
 -1      3097 1.27435E-02-4.61447E-03-3.82398E-14
 -1      3098 1.31759E-02-4.90118E-03-4.04773E-14
 -1      3099 1.33188E-02-5.00314E-03-4.13302E-14
 -1      3100 1.30292E-02-4.81854E-03-3.99305E-14
 -1      3101 1.34617E-02-5.10507E-03-4.21856E-14
 -1      3102 1.36046E-02-5.20697E-03-4.30442E-14
 -1      3103 1.33150E-02-5.02245E-03-4.16340E-14
 -1      3104 1.37475E-02-5.30884E-03-4.39059E-14
 -1      3105 1.38903E-02-5.41069E-03-4.47724E-14
 -1      3106 1.36008E-02-5.22624E-03-4.33521E-14
 -1      3107 1.40332E-02-5.51252E-03-4.56421E-14
 -1      3108 1.41761E-02-5.61434E-03-4.65146E-14
 -1      3109 1.38865E-02-5.42994E-03-4.50854E-14
 -1      3110 1.43118E-02-5.71105E-03-4.73446E-14
 -1      3111 1.44475E-02-5.80775E-03-4.81781E-14
 -1      3112 1.41651E-02-5.62847E-03-4.67857E-14
 -1      3113 1.45903E-02-5.90952E-03-4.90613E-14
 -1      3114 1.47332E-02-6.01129E-03-4.99469E-14
 -1      3115 1.44437E-02-5.82696E-03-4.85010E-14
 -1      3116 1.48761E-02-6.11305E-03-5.08362E-14
 -1      3117 1.50189E-02-6.21481E-03-5.17285E-14
 -1      3118 1.47294E-02-6.03049E-03-5.02742E-14
 -1      3119 1.51175E-02-6.29243E-03-5.24651E-14
 -1      3120 1.52604E-02-6.39417E-03-5.33637E-14
 -1      3121 1.51680E-02-6.36509E-03-5.33839E-14
 -1      3122 1.49708E-02-6.20987E-03-5.19011E-14
 -1      3123 4.10277E-03 4.25412E-04-4.43754E-15
 -1      3124 3.95603E-03 4.33107E-04-4.09735E-15
 -1      3125 3.90586E-03 3.97016E-04-4.02797E-15
 -1      3126 3.50848E-03 4.32671E-04-3.16446E-15
 -1      3127 3.35783E-03 4.28014E-04-2.88241E-15
 -1      3128 3.60024E-03 3.92986E-04-3.39961E-15
 -1      3129 4.39175E-03 3.91617E-04-5.16410E-15
 -1      3130 4.24794E-03 4.12063E-04-4.79408E-15
 -1      3131 4.20615E-03 3.85773E-04-4.71533E-15
 -1      3132 4.67571E-03 3.25906E-04-5.94892E-15
 -1      3133 4.53409E-03 3.63239E-04-5.54830E-15
 -1      3134 4.49973E-03 3.48673E-04-5.46163E-15
 -1      3135 4.95772E-03 2.22897E-04-6.79726E-15
 -1      3136 4.81658E-03 2.79194E-04-6.36492E-15
 -1      3137 4.78809E-03 2.75961E-04-6.26868E-15
 -1      3138 5.24176E-03 8.28230E-05-7.70861E-15
 -1      3139 5.09914E-03 1.57200E-04-7.24524E-15
 -1      3140 5.07527E-03 1.62661E-04-7.13943E-15
 -1      3141 5.53078E-03-8.85050E-05-8.68683E-15
 -1      3142 5.38548E-03 4.77795E-07-8.18878E-15
 -1      3143 5.36588E-03 1.08844E-05-8.07464E-15
 -1      3144 5.82550E-03-2.82052E-04-9.72750E-15
 -1      3145 5.67746E-03-1.83161E-04-9.19898E-15
 -1      3146 5.66264E-03-1.71130E-04-9.07549E-15
 -1      3147 6.12452E-03-4.88610E-04-1.08323E-14
 -1      3148 5.97464E-03-3.84255E-04-1.02721E-14
 -1      3149 5.96532E-03-3.72548E-04-1.01396E-14
 -1      3150 6.42547E-03-7.00914E-04-1.19956E-14
 -1      3151 6.27496E-03-5.94409E-04-1.14075E-14
 -1      3152 6.27146E-03-5.83607E-04-1.12651E-14
 -1      3153 6.72610E-03-9.14295E-04-1.32120E-14
 -1      3154 6.57599E-03-8.07661E-04-1.25975E-14
 -1      3155 6.57804E-03-7.97511E-04-1.24476E-14
 -1      3156 7.02487E-03-1.12633E-03-1.44827E-14
 -1      3157 6.87582E-03-1.02055E-03-1.38412E-14
 -1      3158 6.88262E-03-1.01053E-03-1.36837E-14
 -1      3159 7.32108E-03-1.33614E-03-1.58017E-14
 -1      3160 7.17335E-03-1.23152E-03-1.51358E-14
 -1      3161 7.18388E-03-1.22118E-03-1.49700E-14
 -1      3162 7.61469E-03-1.54369E-03-1.71668E-14
 -1      3163 7.46822E-03-1.44017E-03-1.64779E-14
 -1      3164 7.48147E-03-1.42927E-03-1.63048E-14
 -1      3165 7.90600E-03-1.74934E-03-1.85751E-14
 -1      3166 7.76062E-03-1.64671E-03-1.78659E-14
 -1      3167 7.77568E-03-1.63518E-03-1.76846E-14
 -1      3168 8.19548E-03-1.95355E-03-2.00221E-14
 -1      3169 8.05095E-03-1.85159E-03-1.92944E-14
 -1      3170 8.06714E-03-1.83947E-03-1.91066E-14
 -1      3171 8.48362E-03-2.15680E-03-2.15039E-14
 -1      3172 8.33970E-03-2.05527E-03-2.07579E-14
 -1      3173 8.35652E-03-2.04268E-03-2.05645E-14
 -1      3174 8.77082E-03-2.35945E-03-2.30191E-14
 -1      3175 8.62732E-03-2.25818E-03-2.22594E-14
 -1      3176 8.64443E-03-2.24522E-03-2.20570E-14
 -1      3177 9.05739E-03-2.56178E-03-2.45631E-14
 -1      3178 8.91417E-03-2.46064E-03-2.37867E-14
 -1      3179 8.93136E-03-2.44743E-03-2.35814E-14
 -1      3180 9.34358E-03-2.76400E-03-2.61340E-14
 -1      3181 9.20052E-03-2.66290E-03-2.53442E-14
 -1      3182 9.21769E-03-2.64951E-03-2.51325E-14
 -1      3183 9.62953E-03-2.96624E-03-2.77314E-14
 -1      3184 9.48658E-03-2.86511E-03-2.69305E-14
 -1      3185 9.50366E-03-2.85160E-03-2.67117E-14
 -1      3186 9.91535E-03-3.16857E-03-2.93488E-14
 -1      3187 9.77245E-03-3.06739E-03-2.85385E-14
 -1      3188 9.78943E-03-3.05380E-03-2.83160E-14
 -1      3189 1.02011E-02-3.37103E-03-3.09895E-14
 -1      3190 1.00582E-02-3.26978E-03-3.01657E-14
 -1      3191 1.00751E-02-3.25615E-03-2.99414E-14
 -1      3192 1.04868E-02-3.57365E-03-3.26469E-14
 -1      3193 1.03440E-02-3.47232E-03-3.18161E-14
 -1      3194 1.03608E-02-3.45866E-03-3.15853E-14
 -1      3195 1.07725E-02-3.77641E-03-3.43275E-14
 -1      3196 1.06297E-02-3.67501E-03-3.34848E-14
 -1      3197 1.06464E-02-3.66133E-03-3.32487E-14
 -1      3198 1.10582E-02-3.97931E-03-3.60307E-14
 -1      3199 1.09154E-02-3.87784E-03-3.51759E-14
 -1      3200 1.09321E-02-3.86415E-03-3.49327E-14
 -1      3201 1.13439E-02-4.18232E-03-3.77554E-14
 -1      3202 1.12011E-02-4.08080E-03-3.68888E-14
 -1      3203 1.12177E-02-4.06710E-03-3.66415E-14
 -1      3204 1.16297E-02-4.38544E-03-3.95055E-14
 -1      3205 1.14868E-02-4.28387E-03-3.86278E-14
 -1      3206 1.15034E-02-4.27016E-03-3.83712E-14
 -1      3207 1.19154E-02-4.58864E-03-4.12721E-14
 -1      3208 1.17725E-02-4.48703E-03-4.03872E-14
 -1      3209 1.17891E-02-4.47331E-03-4.01252E-14
 -1      3210 1.22011E-02-4.79191E-03-4.30570E-14
 -1      3211 1.20582E-02-4.69027E-03-4.21637E-14
 -1      3212 1.20748E-02-4.67654E-03-4.18941E-14
 -1      3213 1.24868E-02-4.99522E-03-4.48583E-14
 -1      3214 1.23439E-02-4.89356E-03-4.39545E-14
 -1      3215 1.23605E-02-4.87983E-03-4.36817E-14
 -1      3216 1.27725E-02-5.19857E-03-4.66692E-14
 -1      3217 1.26297E-02-5.09689E-03-4.57618E-14
 -1      3218 1.26463E-02-5.08316E-03-4.54818E-14
 -1      3219 1.40957E-02-5.91348E-03-5.15991E-14
 -1      3220 1.39957E-02-5.87134E-03-5.14126E-14
 -1      3221 1.42954E-02-5.99760E-03-5.19608E-14
 -1      3222 1.41953E-02-5.95545E-03-5.17807E-14
 -1      3223 1.40216E-02-5.84629E-03-5.08993E-14
 -1      3224 1.42208E-02-5.93022E-03-5.12552E-14
 -1      3225 1.48927E-02-6.24922E-03-5.29620E-14
 -1      3226 1.47926E-02-6.20707E-03-5.28023E-14
 -1      3227 1.50804E-02-6.32823E-03-5.32544E-14
 -1      3228 1.49803E-02-6.28608E-03-5.30995E-14
 -1      3229 1.48065E-02-6.17690E-03-5.22366E-14
 -1      3230 1.49818E-02-6.25062E-03-5.25082E-14
 -1      3231 1.71960E-03 3.40446E-04-7.08851E-16
 -1      3232 1.57388E-03 3.27189E-04-5.89914E-16
 -1      3233 1.49254E-03 2.84640E-04-5.71524E-16
 -1      3234 3.04520E-03-4.91357E-04-4.19157E-15
 -1      3235 3.15303E-03-4.68243E-04-4.24435E-15
 -1      3236 7.87149E-03-1.34438E-03-1.26900E-14
 -1      3237 8.03986E-03-1.38555E-03-1.29056E-14
 -1      3238 2.93661E-03-4.94567E-04-4.07819E-15
 -1      3239 2.97822E-03-4.97358E-04-4.12964E-15
 -1      3240 2.96269E-03-4.58927E-04-3.92226E-15
 -1      3241 2.87385E-03-4.60861E-04-3.79795E-15
 -1      3242 1.07906E-03 3.20796E-04-2.12680E-16
 -1      3243 1.07187E-03 2.72922E-04-2.59368E-16
 -1      3244 4.80678E-03 1.29599E-04-6.27983E-15
 -1      3245 4.96534E-03 1.42907E-04-6.64895E-15
 -1      3246 7.79007E-04-1.76337E-04-3.19501E-16
 -1      3247 7.86876E-04-1.97869E-04-3.20843E-16
 -1      3248 8.82725E-04-2.17871E-04-3.87494E-16
 -1      3249 8.94312E-04-1.83882E-04-4.03825E-16
 -1      3250 5.86005E-03-2.54560E-04-8.99176E-15
 -1      3251 6.04749E-03-3.86362E-04-9.46031E-15
 -1      3252 1.35265E-02-5.66917E-03-5.04632E-14
 -1      3253 1.33582E-02-5.59268E-03-5.00546E-14
 -1      3254 1.32135E-02-5.49138E-03-4.91568E-14
 -1      3255 5.50397E-03-2.10599E-05-8.03945E-15
 -1      3256 5.67814E-03-1.30191E-04-8.50794E-15
 -1      3257 5.74702E-03-1.88024E-04-8.75679E-15
 -1      3258 2.01255E-03 3.62226E-04-9.83426E-16
 -1      3259 1.86583E-03 3.52031E-04-8.39891E-16
 -1      3260 1.78472E-03 3.08864E-04-8.17475E-16
 -1      3261 6.34765E-03-5.89586E-04-1.01380E-14
 -1      3262 6.61361E-03-7.61145E-04-1.06712E-14
 -1      3263 1.13173E-03-2.56961E-04-5.92056E-16
 -1      3264 1.27200E-03-2.75415E-04-7.26361E-16
 -1      3265 1.32997E-03-2.55427E-04-7.95967E-16
 -1      3266 3.69466E-03-3.18475E-04-4.74404E-15
 -1      3267 5.18166E-03 1.11788E-04-7.19398E-15
 -1      3268 5.33929E-03 5.80886E-05-7.60875E-15
 -1      3269 5.41252E-03 1.33801E-05-7.84285E-15
 -1      3270 1.46930E-02-6.16511E-03-5.26423E-14
 -1      3271 1.45929E-02-6.12296E-03-5.24759E-14
 -1      3272 1.44200E-02-6.01414E-03-5.16025E-14
 -1      3273 1.46193E-02-6.09807E-03-5.19353E-14
 -1      3274 4.42286E-03 3.84433E-05-5.51829E-15
 -1      3275 4.61847E-03 9.67988E-05-5.88342E-15
 -1      3276 7.44007E-03-1.19488E-03-1.21217E-14
 -1      3277 7.66204E-03-1.27785E-03-1.24045E-14
 -1      3278 7.81467E-03-1.35129E-03-1.29682E-14
 -1      3279 3.10591E-03-5.72155E-04-4.67742E-15
 -1      3280 8.42396E-03-1.44884E-03-1.35407E-14
 -1      3281 8.48002E-03-1.45175E-03-1.36724E-14
 -1      3282 8.20289E-03-1.41632E-03-1.31119E-14
 -1      3283 8.32901E-03-1.43417E-03-1.33274E-14
 -1      3284 8.41908E-03-1.48751E-03-1.38962E-14
 -1      3285 3.99713E-03-1.74556E-04-4.99294E-15
 -1      3286 4.17592E-03-7.68311E-05-5.17599E-15
 -1      3287 1.00542E-03 3.07252E-06-4.36391E-16
 -1      3288 1.00365E-03-2.20815E-05-4.49659E-16
 -1      3289 1.12579E-03 1.58798E-05-5.21420E-16
 -1      3290 3.20683E-03 4.22226E-04-2.61477E-15
 -1      3291 3.05596E-03 4.15816E-04-2.36143E-15
 -1      3292 3.29221E-03 3.81954E-04-2.82871E-15
 -1      3293 8.55443E-03-1.51709E-03-1.43016E-14
 -1      3294 8.51651E-03-1.46529E-03-1.38571E-14
 -1      3295 3.22065E-03-4.25209E-04-4.19115E-15
 -1      3296 3.28785E-03-3.73069E-04-4.13558E-15
 -1      3297 3.08839E-03-4.11305E-04-3.93007E-15
 -1      3298 4.65896E-03 1.32880E-04-5.93649E-15
 -1      3299 1.25510E-03 2.51503E-04-4.13745E-16
 -1      3300 1.19128E-03 2.74147E-04-3.41605E-16
 -1      3301 7.32650E-03-1.15715E-03-1.21827E-14
 -1      3302 8.51693E-03-1.46064E-03-1.38556E-14
 -1      3303 1.02946E-03 1.69120E-04-3.29110E-16
 -1      3304 1.02390E-03 1.39187E-04-3.50739E-16
 -1      3305 1.15553E-03 1.98999E-04-3.92007E-16
 -1      3306 6.07501E-03-4.19516E-04-9.69789E-15
 -1      3307 6.20223E-03-5.00523E-04-9.91750E-15
 -1      3308 6.35575E-03-6.09072E-04-1.03858E-14
 -1      3309 1.01901E-03 1.10233E-04-3.70770E-16
 -1      3310 1.01477E-03 8.23161E-05-3.89242E-16
 -1      3311 1.13323E-03 7.33899E-05-4.84435E-16
 -1      3312 1.14305E-03 1.34262E-04-4.41623E-16
 -1      3313 2.30770E-03 3.79705E-04-1.30934E-15
 -1      3314 2.15986E-03 3.71369E-04-1.13984E-15
 -1      3315 2.07974E-03 3.27282E-04-1.11283E-15
 -1      3316 1.38224E-02-5.76236E-03-5.05332E-14
 -1      3317 1.38961E-02-5.82937E-03-5.12270E-14
 -1      3318 1.37966E-02-5.78741E-03-5.10434E-14
 -1      3319 6.76536E-03-8.60436E-04-1.11477E-14
 -1      3320 1.30653E-02-5.39562E-03-4.83604E-14
 -1      3321 1.29207E-02-5.29432E-03-4.74649E-14
 -1      3322 1.29373E-02-5.28059E-03-4.71798E-14
 -1      3323 1.32336E-02-5.47210E-03-4.87677E-14
 -1      3324 1.37113E-02-5.74927E-03-5.08460E-14
 -1      3325 1.36117E-02-5.70731E-03-5.06585E-14
 -1      3326 1.34670E-02-5.60600E-03-4.97587E-14
 -1      3327 1.36376E-02-5.68227E-03-5.01512E-14
 -1      3328 9.79180E-04-2.36534E-04-4.60867E-16
 -1      3329 3.49256E-03-3.03174E-04-4.30416E-15
 -1      3330 3.73938E-03-2.50970E-04-4.64173E-15
 -1      3331 3.76282E-03-1.84056E-04-4.53701E-15
 -1      3332 3.07956E-03-5.28285E-04-4.37001E-15
 -1      3333 4.09676E-03-2.91532E-05-4.91835E-15
 -1      3334 4.26046E-03 3.32983E-06-5.21344E-15
 -1      3335 4.32036E-03 7.21052E-05-5.24689E-15
 -1      3336 8.16906E-03-1.44415E-03-1.34689E-14
 -1      3337 4.92132E-03 1.59240E-04-6.54228E-15
 -1      3338 5.04963E-03 1.40569E-04-6.86436E-15
 -1      3339 5.12485E-03 1.23338E-04-7.08118E-15
 -1      3340 1.00409E-03-9.55104E-05-4.82524E-16
 -1      3341 1.00666E-03-1.20052E-04-4.91320E-16
 -1      3342 1.03949E-03-2.21486E-04-5.17801E-16
 -1      3343 2.60529E-03 3.94888E-04-1.68805E-15
 -1      3344 2.45622E-03 3.87481E-04-1.49178E-15
 -1      3345 2.37795E-03 3.42227E-04-1.45892E-15
 -1      3346 1.12655E-03-1.44461E-04-5.98940E-16
 -1      3347 1.01073E-03-1.45066E-04-4.98652E-16
 -1      3348 1.01641E-03-1.70848E-04-5.04466E-16
 -1      3349 2.90524E-03 4.09038E-04-2.12295E-15
 -1      3350 2.75505E-03 4.02049E-04-1.89832E-15
 -1      3351 2.67961E-03 3.55647E-04-1.85939E-15
 -1      3352 2.98467E-03 3.68852E-04-2.31534E-15
 -1      3353 8.58414E-03-1.57391E-03-1.47717E-14
 -1      3354 8.63944E-03-1.59108E-03-1.49634E-14
 -1      3355 8.73484E-03-1.67285E-03-1.56324E-14
 -1      3356 1.33901E-03 2.32569E-04-5.01078E-16
 -1      3357 1.24693E-03 2.15849E-04-4.45079E-16
 -1      3358 1.23974E-03 1.81197E-04-4.73701E-16
 -1      3359 7.23192E-03-1.12591E-03-1.22995E-14
 -1      3360 7.50669E-03-1.25434E-03-1.27998E-14
 -1      3361 1.79742E-03-2.72732E-04-1.38518E-15
 -1      3362 1.93023E-03-2.83933E-04-1.58520E-15
 -1      3363 2.06054E-03-2.95710E-04-1.79902E-15
 -1      3364 2.18768E-03-3.08080E-04-2.02579E-15
 -1      3365 1.98656E-03-2.64428E-04-1.67639E-15
 -1      3366 2.30505E-03-3.21673E-04-2.25369E-15
 -1      3367 2.41818E-03-3.36816E-04-2.49364E-15
 -1      3368 2.23591E-03-2.91599E-04-2.11520E-15
 -1      3369 2.53225E-03-3.56335E-04-2.75875E-15
 -1      3370 2.63970E-03-3.78816E-04-3.03636E-15
 -1      3371 2.47158E-03-3.26963E-04-2.60320E-15
 -1      3372 2.72344E-03-4.03023E-04-3.27750E-15
 -1      3373 2.80401E-03-4.30150E-04-3.53995E-15
 -1      3374 2.83628E-03-4.30157E-04-3.60180E-15
 -1      3375 2.67456E-03-3.74043E-04-3.10724E-15
 -1      3376 4.31246E-03 3.46790E-04-4.99459E-15
 -1      3377 4.16049E-03 3.55377E-04-4.63263E-15
 -1      3378 1.48378E-03 2.45581E-04-6.10433E-16
 -1      3379 4.00666E-03 3.58009E-04-4.28707E-15
 -1      3380 3.85122E-03 3.56742E-04-3.95594E-15
 -1      3381 4.10974E-03 3.19843E-04-4.54962E-15
 -1      3382 8.83959E-03-1.75865E-03-1.63079E-14
 -1      3383 8.95164E-03-1.84961E-03-1.69930E-14
 -1      3384 8.77593E-03-1.73420E-03-1.61102E-14
 -1      3385 9.06402E-03-1.93858E-03-1.76519E-14
 -1      3386 9.18093E-03-2.03051E-03-1.83196E-14
 -1      3387 8.99408E-03-1.90829E-03-1.74478E-14
 -1      3388 9.30815E-03-2.12889E-03-1.90303E-14
 -1      3389 9.43871E-03-2.22918E-03-1.97515E-14
 -1      3390 9.23334E-03-2.09418E-03-1.88217E-14
 -1      3391 9.57200E-03-2.33036E-03-2.04824E-14
 -1      3392 9.70743E-03-2.43255E-03-2.12220E-14
 -1      3393 9.49341E-03-2.29239E-03-2.02679E-14
 -1      3394 9.84455E-03-2.53513E-03-2.19708E-14
 -1      3395 9.98303E-03-2.63819E-03-2.27276E-14
 -1      3396 9.76322E-03-2.49495E-03-2.17524E-14
 -1      3397 1.01225E-02-2.74137E-03-2.34899E-14
 -1      3398 1.02629E-02-2.84472E-03-2.42599E-14
 -1      3399 1.00392E-02-2.69972E-03-2.32650E-14
 -1      3400 1.04038E-02-2.94805E-03-2.50393E-14
 -1      3401 1.05452E-02-3.05139E-03-2.58242E-14
 -1      3402 1.03191E-02-2.90545E-03-2.48086E-14
 -1      3403 1.06799E-02-3.14948E-03-2.65781E-14
 -1      3404 1.08149E-02-3.24751E-03-2.73373E-14
 -1      3405 1.05943E-02-3.10629E-03-2.63421E-14
 -1      3406 1.09572E-02-3.35060E-03-2.81399E-14
 -1      3407 1.10996E-02-3.45360E-03-2.89472E-14
 -1      3408 1.08710E-02-3.30703E-03-2.78995E-14
 -1      3409 1.12422E-02-3.55648E-03-2.97600E-14
 -1      3410 1.13849E-02-3.65927E-03-3.05779E-14
 -1      3411 1.11555E-02-3.51267E-03-2.95172E-14
 -1      3412 1.15276E-02-3.76195E-03-3.14017E-14
 -1      3413 1.16704E-02-3.86454E-03-3.22272E-14
 -1      3414 1.14406E-02-3.71800E-03-3.11542E-14
 -1      3415 1.18132E-02-3.96704E-03-3.30531E-14
 -1      3416 1.19560E-02-4.06946E-03-3.38841E-14
 -1      3417 1.17260E-02-3.92300E-03-3.28063E-14
 -1      3418 1.20989E-02-4.17180E-03-3.47166E-14
 -1      3419 1.22417E-02-4.27407E-03-3.55508E-14
 -1      3420 1.20116E-02-4.12770E-03-3.44664E-14
 -1      3421 1.23774E-02-4.37117E-03-3.63465E-14
 -1      3422 1.25132E-02-4.46821E-03-3.71444E-14
 -1      3423 1.22901E-02-4.32704E-03-3.60954E-14
 -1      3424 1.26561E-02-4.57031E-03-3.79874E-14
 -1      3425 1.27989E-02-4.67236E-03-3.88316E-14
 -1      3426 1.25687E-02-4.52616E-03-3.77338E-14
 -1      3427 1.29418E-02-4.77437E-03-3.96761E-14
 -1      3428 1.30847E-02-4.87634E-03-4.05266E-14
 -1      3429 1.28544E-02-4.73022E-03-3.94213E-14
 -1      3430 1.32276E-02-4.97828E-03-4.13813E-14
 -1      3431 1.33704E-02-5.08019E-03-4.22372E-14
 -1      3432 1.31401E-02-4.93412E-03-4.11251E-14
 -1      3433 1.35133E-02-5.18207E-03-4.30958E-14
 -1      3434 1.36562E-02-5.28393E-03-4.39591E-14
 -1      3435 1.34258E-02-5.13791E-03-4.28391E-14
 -1      3436 1.37990E-02-5.38577E-03-4.48297E-14
 -1      3437 1.39419E-02-5.48759E-03-4.57031E-14
 -1      3438 1.37116E-02-5.34161E-03-4.45736E-14
 -1      3439 1.40776E-02-5.58431E-03-4.65300E-14
 -1      3440 1.42134E-02-5.68101E-03-4.73636E-14
 -1      3441 1.39902E-02-5.54014E-03-4.62749E-14
 -1      3442 1.43562E-02-5.78279E-03-4.82461E-14
 -1      3443 1.44991E-02-5.88456E-03-4.91306E-14
 -1      3444 1.42688E-02-5.73863E-03-4.79897E-14
 -1      3445 1.46419E-02-5.98633E-03-5.00200E-14
 -1      3446 1.47848E-02-6.08809E-03-5.09109E-14
 -1      3447 1.45545E-02-5.94216E-03-4.97631E-14
 -1      3448 1.48834E-02-6.16570E-03-5.16468E-14
 -1      3449 3.69451E-03 3.52527E-04-3.63846E-15
 -1      3450 3.53723E-03 3.46839E-04-3.33555E-15
 -1      3451 3.79095E-03 3.11984E-04-3.88096E-15
 -1      3452 4.90307E-03 2.25436E-04-6.59240E-15
 -1      3453 4.75696E-03 2.71374E-04-6.16918E-15
 -1      3454 5.19567E-03 1.00202E-04-7.48655E-15
 -1      3455 5.04882E-03 1.68232E-04-7.03170E-15
 -1      3456 5.02038E-03 1.73243E-04-6.92038E-15
 -1      3457 5.49346E-03-6.46624E-05-8.44564E-15
 -1      3458 5.34356E-03 2.20049E-05-7.95742E-15
 -1      3459 5.31936E-03 3.40124E-05-7.83716E-15
 -1      3460 5.79864E-03-2.57871E-04-9.46897E-15
 -1      3461 5.64513E-03-1.58676E-04-8.94896E-15
 -1      3462 5.62562E-03-1.45116E-04-8.81962E-15
 -1      3463 6.10958E-03-4.66711E-04-1.05554E-14
 -1      3464 5.95364E-03-3.61134E-04-1.00048E-14
 -1      3465 5.94003E-03-3.49327E-04-9.86689E-15
 -1      3466 6.42264E-03-6.81290E-04-1.17024E-14
 -1      3467 6.26616E-03-5.73789E-04-1.11219E-14
 -1      3468 6.25931E-03-5.64477E-04-1.09760E-14
 -1      3469 6.73422E-03-8.95721E-04-1.29021E-14
 -1      3470 6.57887E-03-7.88748E-04-1.22956E-14
 -1      3471 6.57866E-03-7.81161E-04-1.21421E-14
 -1      3472 7.04195E-03-1.10750E-03-1.41565E-14
 -1      3473 6.88871E-03-1.00198E-03-1.35227E-14
 -1      3474 6.89424E-03-9.94893E-04-1.33607E-14
 -1      3475 7.34488E-03-1.31617E-03-1.54601E-14
 -1      3476 7.19407E-03-1.21218E-03-1.48019E-14
 -1      3477 7.20405E-03-1.20460E-03-1.46323E-14
 -1      3478 7.64316E-03-1.52221E-03-1.68098E-14
 -1      3479 7.49459E-03-1.41945E-03-1.61292E-14
 -1      3480 7.50774E-03-1.41083E-03-1.59518E-14
 -1      3481 7.93746E-03-1.72635E-03-1.82043E-14
 -1      3482 7.79077E-03-1.62446E-03-1.75017E-14
 -1      3483 7.80599E-03-1.61465E-03-1.73177E-14
 -1      3484 8.22870E-03-1.92927E-03-1.96392E-14
 -1      3485 8.08342E-03-1.82792E-03-1.89170E-14
 -1      3486 8.09988E-03-1.81700E-03-1.87269E-14
 -1      3487 8.51774E-03-2.13150E-03-2.11076E-14
 -1      3488 8.37346E-03-2.03044E-03-2.03697E-14
 -1      3489 8.39058E-03-2.01862E-03-2.01743E-14
 -1      3490 8.80529E-03-2.33340E-03-2.26114E-14
 -1      3491 8.66167E-03-2.23247E-03-2.18551E-14
 -1      3492 8.67908E-03-2.21996E-03-2.16539E-14
 -1      3493 9.09189E-03-2.53522E-03-2.41436E-14
 -1      3494 8.94868E-03-2.43431E-03-2.33742E-14
 -1      3495 8.96616E-03-2.42132E-03-2.31661E-14
 -1      3496 9.37794E-03-2.73710E-03-2.57032E-14
 -1      3497 9.23497E-03-2.63615E-03-2.49200E-14
 -1      3498 9.25238E-03-2.62284E-03-2.47072E-14
 -1      3499 9.66369E-03-2.93912E-03-2.72918E-14
 -1      3500 9.52084E-03-2.83809E-03-2.64943E-14
 -1      3501 9.53813E-03-2.82458E-03-2.62776E-14
 -1      3502 9.94929E-03-3.14132E-03-2.89038E-14
 -1      3503 9.80650E-03-3.04020E-03-2.80951E-14
 -1      3504 9.82365E-03-3.02656E-03-2.78731E-14
 -1      3505 1.02348E-02-3.34370E-03-3.05322E-14
 -1      3506 1.00921E-02-3.24249E-03-2.97150E-14
 -1      3507 1.01091E-02-3.22879E-03-2.94905E-14
 -1      3508 1.05204E-02-3.54627E-03-3.21817E-14
 -1      3509 1.03776E-02-3.44496E-03-3.13558E-14
 -1      3510 1.03945E-02-3.43123E-03-3.11248E-14
 -1      3511 1.08060E-02-3.74900E-03-3.38497E-14
 -1      3512 1.06632E-02-3.64762E-03-3.30130E-14
 -1      3513 1.06800E-02-3.63387E-03-3.27783E-14
 -1      3514 1.10916E-02-3.95188E-03-3.55389E-14
 -1      3515 1.09488E-02-3.85043E-03-3.46910E-14
 -1      3516 1.09655E-02-3.83668E-03-3.44498E-14
 -1      3517 1.13772E-02-4.15489E-03-3.72518E-14
 -1      3518 1.12344E-02-4.05337E-03-3.63938E-14
 -1      3519 1.12511E-02-4.03962E-03-3.61453E-14
 -1      3520 1.16629E-02-4.35799E-03-3.89877E-14
 -1      3521 1.15201E-02-4.25643E-03-3.81161E-14
 -1      3522 1.15367E-02-4.24268E-03-3.78627E-14
 -1      3523 1.19486E-02-4.56119E-03-4.07426E-14
 -1      3524 1.18058E-02-4.45958E-03-3.98635E-14
 -1      3525 1.18224E-02-4.44584E-03-3.96019E-14
 -1      3526 1.22343E-02-4.76445E-03-4.25143E-14
 -1      3527 1.20915E-02-4.66281E-03-4.16255E-14
 -1      3528 1.21081E-02-4.64907E-03-4.13589E-14
 -1      3529 1.25200E-02-4.96776E-03-4.43024E-14
 -1      3530 1.23772E-02-4.86610E-03-4.34062E-14
 -1      3531 1.23938E-02-4.85236E-03-4.31328E-14
 -1      3532 1.28057E-02-5.17110E-03-4.61036E-14
 -1      3533 1.26629E-02-5.06943E-03-4.52015E-14
 -1      3534 1.26795E-02-5.05569E-03-4.49227E-14
 -1      3535 5.61302E-03-1.11771E-04-8.45217E-15
 -1      3536 5.78182E-03-2.23262E-04-8.93266E-15
 -1      3537 1.85090E-03 2.75810E-04-9.30557E-16
 -1      3538 1.70374E-03 2.66678E-04-7.91576E-16
 -1      3539 1.04489E-03-2.03156E-04-5.26231E-16
 -1      3540 1.00274E-03-4.67753E-05-4.61816E-16
 -1      3541 1.00283E-03-7.11614E-05-4.72726E-16
 -1      3542 1.12107E-03-9.17660E-05-5.78557E-16
 -1      3543 1.52635E-03-2.48960E-04-1.02593E-15
 -1      3544 1.66266E-03-2.61114E-04-1.19909E-15
 -1      3545 1.72096E-03-2.40224E-04-1.28014E-15
 -1      3546 4.61047E-03 3.06264E-04-5.76190E-15
 -1      3547 4.46227E-03 3.31111E-04-5.37146E-15
 -1      3548 4.72316E-03 2.64081E-04-6.06690E-15
 -1      3549 6.66752E-03-8.09906E-04-1.11586E-14
 -1      3550 6.92278E-03-9.61431E-04-1.17058E-14
 -1      3551 5.30140E-03 5.73017E-05-7.58017E-15
 -1      3552 5.45407E-03-1.93043E-05-8.00971E-15
 -1      3553 5.49499E-03-5.05769E-05-8.17282E-15
 -1      3554 7.77258E-03-1.36099E-03-1.32618E-14
 -1      3555 7.95866E-03-1.42269E-03-1.35562E-14
 -1      3556 4.53860E-03 1.45362E-04-5.64766E-15
 -1      3557 4.71170E-03 1.65088E-04-6.03466E-15
 -1      3558 8.39452E-03-1.53396E-03-1.43265E-14
 -1      3559 8.49840E-03-1.55385E-03-1.45485E-14
 -1      3560 8.58743E-03-1.62797E-03-1.52107E-14
 -1      3561 8.11817E-03-1.47033E-03-1.38344E-14
 -1      3562 8.26787E-03-1.50230E-03-1.40488E-14
 -1      3563 8.36497E-03-1.57022E-03-1.46994E-14
 -1      3564 8.08198E-03-1.48779E-03-1.41356E-14
 -1      3565 1.16007E-03-2.04378E-04-6.31995E-16
 -1      3566 3.37962E-03 3.40263E-04-3.04758E-15
 -1      3567 3.22242E-03 3.33527E-04-2.77271E-15
 -1      3568 3.46885E-03 2.97562E-04-3.26943E-15
 -1      3569 7.11801E-03-1.07450E-03-1.23096E-14
 -1      3570 3.17427E-03-3.17472E-04-3.78599E-15
 -1      3571 3.32770E-03-3.16106E-04-4.04093E-15
 -1      3572 3.35735E-03-2.55340E-04-3.94496E-15
 -1      3573 1.24286E-03-1.41829E-04-7.07618E-16
 -1      3574 1.24753E-03-1.69875E-04-7.17511E-16
 -1      3575 1.47958E-02-6.12884E-03-5.15134E-14
 -1      3576 1.99898E-03 2.83749E-04-1.08221E-15
 -1      3577 1.91786E-03 2.41218E-04-1.04875E-15
 -1      3578 2.14802E-03 2.90756E-04-1.24624E-15
 -1      3579 7.67412E-03-1.33889E-03-1.33831E-14
 -1      3580 1.54935E-03 2.16608E-04-7.03363E-16
 -1      3581 5.92655E-03-3.24021E-04-9.37405E-15
 -1      3582 6.07170E-03-4.25285E-04-9.82465E-15
 -1      3583 5.79076E-03-2.37666E-04-9.05265E-15
 -1      3584 1.41469E-02-5.86310E-03-5.05560E-14
 -1      3585 1.40473E-02-5.82114E-03-5.03799E-14
 -1      3586 2.44933E-03 3.03020E-04-1.61379E-15
 -1      3587 2.29815E-03 2.97080E-04-1.42335E-15
 -1      3588 2.21712E-03 2.52580E-04-1.38462E-15
 -1      3589 1.37485E-02-5.69526E-03-4.98361E-14
 -1      3590 1.36489E-02-5.65330E-03-4.96497E-14
 -1      3591 1.29539E-02-5.26685E-03-4.68969E-14
 -1      3592 1.29705E-02-5.25311E-03-4.66133E-14
 -1      3593 1.31021E-02-5.36261E-03-4.76902E-14
 -1      3594 1.29804E-03-2.19914E-04-7.69241E-16
 -1      3595 1.33586E-02-5.53218E-03-4.91199E-14
 -1      3596 1.32105E-02-5.43642E-03-4.83261E-14
 -1      3597 1.32271E-02-5.42268E-03-4.80407E-14
 -1      3598 1.34439E-02-5.57031E-03-4.93148E-14
 -1      3599 1.39477E-02-5.77918E-03-5.02001E-14
 -1      3600 1.38481E-02-5.73722E-03-5.00208E-14
 -1      3601 1.36746E-02-5.62815E-03-4.91421E-14
 -1      3602 1.38738E-02-5.71207E-03-4.95045E-14
 -1      3603 1.12133E-03-3.88677E-05-5.52699E-16
 -1      3604 4.42088E-03 3.08978E-04-5.27677E-15
 -1      3605 5.17192E-03 1.06129E-04-7.23591E-15
 -1      3606 1.47081E-02-6.09198E-03-5.13753E-14
 -1      3607 1.46205E-02-6.05513E-03-5.12323E-14
 -1      3608 1.46097E-02-6.00706E-03-5.05167E-14
 -1      3609 3.92172E-03-7.44305E-05-4.63671E-15
 -1      3610 3.99829E-03 3.25292E-06-4.66759E-15
 -1      3611 4.24210E-03 1.05526E-04-5.03693E-15
 -1      3612 4.39174E-03 1.27079E-04-5.33715E-15
 -1      3613 4.44916E-03 1.71650E-04-5.42532E-15
 -1      3614 4.79540E-03 1.79577E-04-6.23308E-15
 -1      3615 2.88579E-03-4.24214E-04-3.66081E-15
 -1      3616 2.95163E-03-4.13587E-04-3.71772E-15
 -1      3617 2.80445E-03-3.92837E-04-3.40804E-15
 -1      3618 6.52048E-03-7.21038E-04-1.09217E-14
 -1      3619 6.68086E-03-8.24716E-04-1.14694E-14
 -1      3620 6.38671E-03-6.35604E-04-1.06857E-14
 -1      3621 3.68801E-03-1.38000E-04-4.30187E-15
 -1      3622 1.23918E-03-8.61199E-05-6.82166E-16
 -1      3623 1.24015E-03-1.14023E-04-6.95719E-16
 -1      3624 1.35988E-03-1.37588E-04-8.23980E-16
 -1      3625 1.43461E-02-5.94702E-03-5.08989E-14
 -1      3626 1.42465E-02-5.90506E-03-5.07292E-14
 -1      3627 1.40730E-02-5.79598E-03-4.98587E-14
 -1      3628 1.41244E-03-2.17138E-04-8.95009E-16
 -1      3629 1.25740E-03 9.32842E-05-5.68664E-16
 -1      3630 1.25243E-03 6.14764E-05-5.91608E-16
 -1      3631 1.45331E-02-6.02206E-03-5.11541E-14
 -1      3632 1.44335E-02-5.98009E-03-5.09887E-14
 -1      3633 1.42600E-02-5.87101E-03-5.01226E-14
 -1      3634 1.44347E-02-5.93714E-03-5.02944E-14
 -1      3635 2.99195E-03-3.80198E-04-3.66848E-15
 -1      3636 2.75523E-03 3.14580E-04-2.03494E-15
 -1      3637 2.60173E-03 3.08763E-04-1.81712E-15
 -1      3638 2.52161E-03 2.62042E-04-1.77266E-15
 -1      3639 1.24803E-03 3.04605E-05-6.12940E-16
 -1      3640 1.24435E-03 2.69574E-07-6.32686E-16
 -1      3641 1.37215E-03 4.67233E-05-7.10383E-16
 -1      3642 3.88275E-03 3.70572E-05-4.38759E-15
 -1      3643 4.04305E-03 7.31984E-05-4.66008E-15
 -1      3644 7.03148E-03-1.03473E-03-1.23736E-14
 -1      3645 7.31542E-03-1.18747E-03-1.29847E-14
 -1      3646 2.17335E-03-2.59705E-04-1.98482E-15
 -1      3647 2.29378E-03-2.75310E-04-2.20860E-15
 -1      3648 2.41813E-03-2.94480E-04-2.45669E-15
 -1      3649 2.53862E-03-3.16430E-04-2.71789E-15
 -1      3650 2.36528E-03-2.59245E-04-2.31221E-15
 -1      3651 4.21543E-03 2.82677E-04-4.81412E-15
 -1      3652 4.05338E-03 2.78709E-04-4.46294E-15
 -1      3653 1.47392E-03-1.97062E-04-9.64845E-16
 -1      3654 8.68665E-03-1.70617E-03-1.58788E-14
 -1      3655 8.79307E-03-1.79030E-03-1.65564E-14
 -1      3656 8.58654E-03-1.67887E-03-1.56471E-14
 -1      3657 1.25115E-03 1.53516E-04-5.09114E-16
 -1      3658 1.24523E-03 1.20317E-04-5.34783E-16
 -1      3659 1.36559E-03 1.09082E-04-6.47770E-16
 -1      3660 1.34238E-03 1.67035E-04-5.71944E-16
 -1      3661 8.90076E-03-1.87331E-03-1.72103E-14
 -1      3662 9.01313E-03-1.96002E-03-1.78728E-14
 -1      3663 8.80102E-03-1.83922E-03-1.69705E-14
 -1      3664 9.13615E-03-2.05359E-03-1.85777E-14
 -1      3665 9.26286E-03-2.14979E-03-1.92927E-14
 -1      3666 9.03524E-03-2.01398E-03-1.83325E-14
 -1      3667 9.39280E-03-2.24750E-03-2.00180E-14
 -1      3668 9.52527E-03-2.34680E-03-2.07537E-14
 -1      3669 9.29012E-03-2.20349E-03-1.97664E-14
 -1      3670 9.65986E-03-2.44699E-03-2.14959E-14
 -1      3671 9.79614E-03-2.54808E-03-2.22461E-14
 -1      3672 9.55539E-03-2.39977E-03-2.12385E-14
 -1      3673 9.93377E-03-2.64965E-03-2.30050E-14
 -1      3674 1.00725E-02-2.75169E-03-2.37693E-14
 -1      3675 9.82775E-03-2.60016E-03-2.27404E-14
 -1      3676 1.02121E-02-2.85396E-03-2.45402E-14
 -1      3677 1.03524E-02-2.95644E-03-2.53197E-14
 -1      3678 1.01048E-02-2.80291E-03-2.42723E-14
 -1      3679 1.04862E-02-3.05388E-03-2.60680E-14
 -1      3680 1.06204E-02-3.15138E-03-2.68219E-14
 -1      3681 1.03780E-02-3.00180E-03-2.57920E-14
 -1      3682 1.07621E-02-3.25402E-03-2.76192E-14
 -1      3683 1.09040E-02-3.35666E-03-2.84228E-14
 -1      3684 1.06532E-02-3.20125E-03-2.73369E-14
 -1      3685 1.10461E-02-3.45925E-03-2.92331E-14
 -1      3686 1.11884E-02-3.56181E-03-3.00452E-14
 -1      3687 1.09366E-02-3.40601E-03-2.89463E-14
 -1      3688 1.13308E-02-3.66432E-03-3.08649E-14
 -1      3689 1.14733E-02-3.76676E-03-3.16896E-14
 -1      3690 1.12210E-02-3.61077E-03-3.05745E-14
 -1      3691 1.16159E-02-3.86915E-03-3.25133E-14
 -1      3692 1.17586E-02-3.97148E-03-3.33411E-14
 -1      3693 1.15058E-02-3.81540E-03-3.22188E-14
 -1      3694 1.19013E-02-4.07375E-03-3.41723E-14
 -1      3695 1.20441E-02-4.17596E-03-3.50056E-14
 -1      3696 1.17911E-02-4.01986E-03-3.38769E-14
 -1      3697 1.21797E-02-4.27302E-03-3.58017E-14
 -1      3698 1.23154E-02-4.37003E-03-3.65972E-14
 -1      3699 1.20693E-02-4.21905E-03-3.55027E-14
 -1      3700 1.24582E-02-4.47210E-03-3.74378E-14
 -1      3701 1.26010E-02-4.57413E-03-3.82806E-14
 -1      3702 1.23477E-02-4.41808E-03-3.71397E-14
 -1      3703 1.27439E-02-4.67613E-03-3.91233E-14
 -1      3704 1.28867E-02-4.77809E-03-3.99719E-14
 -1      3705 1.26334E-02-4.62206E-03-3.88238E-14
 -1      3706 1.30296E-02-4.88002E-03-4.08248E-14
 -1      3707 1.31724E-02-4.98192E-03-4.16808E-14
 -1      3708 1.29190E-02-4.82593E-03-4.05233E-14
 -1      3709 1.33153E-02-5.08379E-03-4.25427E-14
 -1      3710 1.34582E-02-5.18565E-03-4.34036E-14
 -1      3711 1.32048E-02-5.02969E-03-4.22381E-14
 -1      3712 1.36010E-02-5.28748E-03-4.42706E-14
 -1      3713 1.37439E-02-5.38930E-03-4.51453E-14
 -1      3714 1.34905E-02-5.23337E-03-4.39701E-14
 -1      3715 1.38796E-02-5.48601E-03-4.59765E-14
 -1      3716 1.40153E-02-5.58272E-03-4.68088E-14
 -1      3717 1.37691E-02-5.43189E-03-4.56729E-14
 -1      3718 1.41582E-02-5.68450E-03-4.76912E-14
 -1      3719 1.43011E-02-5.78627E-03-4.85765E-14
 -1      3720 1.40476E-02-5.63037E-03-4.73907E-14
 -1      3721 1.44669E-02-5.90531E-03-4.96232E-14
 -1      3722 5.76291E-03-2.30930E-04-9.19811E-15
 -1      3723 5.60361E-03-1.30164E-04-8.68649E-15
 -1      3724 3.88943E-03 2.71190E-04-4.12619E-15
 -1      3725 3.72470E-03 2.62556E-04-3.80306E-15
 -1      3726 3.98937E-03 2.31261E-04-4.37404E-15
 -1      3727 5.14056E-03 1.19549E-04-7.25136E-15
 -1      3728 4.98919E-03 1.78099E-04-6.80509E-15
 -1      3729 6.08732E-03-4.45851E-04-1.02690E-14
 -1      3730 5.92440E-03-3.37189E-04-9.72616E-15
 -1      3731 5.90754E-03-3.23518E-04-9.58221E-15
 -1      3732 6.41485E-03-6.65847E-04-1.14007E-14
 -1      3733 6.25128E-03-5.55966E-04-1.08271E-14
 -1      3734 6.24236E-03-5.47486E-04-1.06755E-14
 -1      3735 6.73966E-03-8.82989E-04-1.25842E-14
 -1      3736 6.57805E-03-7.75092E-04-1.19857E-14
 -1      3737 6.57725E-03-7.70240E-04-1.18267E-14
 -1      3738 7.05806E-03-1.09471E-03-1.38221E-14
 -1      3739 6.89991E-03-9.89535E-04-1.31967E-14
 -1      3740 6.90595E-03-9.85916E-04-1.30308E-14
 -1      3741 7.36879E-03-1.30153E-03-1.51117E-14
 -1      3742 7.21446E-03-1.19862E-03-1.44606E-14
 -1      3743 7.22554E-03-1.19438E-03-1.42874E-14
 -1      3744 7.67228E-03-1.50495E-03-1.64484E-14
 -1      3745 7.52141E-03-1.40353E-03-1.57751E-14
 -1      3746 7.53582E-03-1.39768E-03-1.55947E-14
 -1      3747 7.96979E-03-1.70642E-03-1.78292E-14
 -1      3748 7.82170E-03-1.60582E-03-1.71331E-14
 -1      3749 7.83811E-03-1.59809E-03-1.69472E-14
 -1      3750 8.26280E-03-1.90704E-03-1.92497E-14
 -1      3751 8.11677E-03-1.80677E-03-1.85337E-14
 -1      3752 8.13424E-03-1.79728E-03-1.83409E-14
 -1      3753 8.55266E-03-2.10746E-03-2.07094E-14
 -1      3754 8.40805E-03-2.00723E-03-1.99765E-14
 -1      3755 8.42597E-03-1.99632E-03-1.97752E-14
 -1      3756 8.84045E-03-2.30805E-03-2.22014E-14
 -1      3757 8.69676E-03-2.20771E-03-2.14520E-14
 -1      3758 8.71477E-03-2.19573E-03-2.12470E-14
 -1      3759 9.12698E-03-2.50897E-03-2.37230E-14
 -1      3760 8.98383E-03-2.40846E-03-2.29580E-14
 -1      3761 9.00175E-03-2.39572E-03-2.27492E-14
 -1      3762 9.41278E-03-2.71027E-03-2.52721E-14
 -1      3763 9.26994E-03-2.60957E-03-2.44940E-14
 -1      3764 9.28768E-03-2.59635E-03-2.42801E-14
 -1      3765 9.69823E-03-2.91194E-03-2.68529E-14
 -1      3766 9.55553E-03-2.81106E-03-2.60603E-14
 -1      3767 9.57307E-03-2.79753E-03-2.58416E-14
 -1      3768 9.98354E-03-3.11394E-03-2.84545E-14
 -1      3769 9.84089E-03-3.01290E-03-2.76499E-14
 -1      3770 9.85823E-03-2.99920E-03-2.74275E-14
 -1      3771 1.02688E-02-3.31623E-03-3.00765E-14
 -1      3772 1.01262E-02-3.21505E-03-2.92650E-14
 -1      3773 1.01433E-02-3.20126E-03-2.90367E-14
 -1      3774 1.05542E-02-3.51875E-03-3.17171E-14
 -1      3775 1.04115E-02-3.41746E-03-3.08927E-14
 -1      3776 1.04285E-02-3.40364E-03-3.06641E-14
 -1      3777 1.08396E-02-3.72147E-03-3.33749E-14
 -1      3778 1.06969E-02-3.62009E-03-3.25445E-14
 -1      3779 1.07138E-02-3.60626E-03-3.23091E-14
 -1      3780 1.11251E-02-3.92436E-03-3.50514E-14
 -1      3781 1.09823E-02-3.82290E-03-3.42111E-14
 -1      3782 1.09991E-02-3.80908E-03-3.39714E-14
 -1      3783 1.14106E-02-4.12737E-03-3.67509E-14
 -1      3784 1.12679E-02-4.02585E-03-3.58979E-14
 -1      3785 1.12846E-02-4.01204E-03-3.56526E-14
 -1      3786 1.16962E-02-4.33049E-03-3.84720E-14
 -1      3787 1.15534E-02-4.22892E-03-3.76095E-14
 -1      3788 1.15701E-02-4.21513E-03-3.73569E-14
 -1      3789 1.19819E-02-4.53369E-03-4.02157E-14
 -1      3790 1.18391E-02-4.43208E-03-3.93414E-14
 -1      3791 1.18557E-02-4.41830E-03-3.90819E-14
 -1      3792 1.22676E-02-4.73696E-03-4.19756E-14
 -1      3793 1.21247E-02-4.63532E-03-4.10935E-14
 -1      3794 1.21414E-02-4.62155E-03-4.08279E-14
 -1      3795 1.25533E-02-4.94027E-03-4.37521E-14
 -1      3796 1.24104E-02-4.83861E-03-4.28618E-14
 -1      3797 1.24271E-02-4.82485E-03-4.25909E-14
 -1      3798 1.28390E-02-5.14362E-03-4.55431E-14
 -1      3799 1.26961E-02-5.04194E-03-4.46459E-14
 -1      3800 1.27128E-02-5.02819E-03-4.43698E-14
 -1      3801 1.24151E-03-2.91045E-05-6.50589E-16
 -1      3802 1.23971E-03-5.78661E-05-6.67286E-16
 -1      3803 1.35861E-03-7.87830E-05-7.93053E-16
 -1      3804 1.36338E-03-1.76562E-05-7.55255E-16
 -1      3805 1.35890E-02-5.63087E-03-4.95819E-14
 -1      3806 1.35038E-02-5.59274E-03-4.93855E-14
 -1      3807 1.33954E-02-5.51892E-03-4.87483E-14
 -1      3808 1.35151E-02-5.56377E-03-4.88880E-14
 -1      3809 4.83865E-03 2.22747E-04-6.37503E-15
 -1      3810 4.68613E-03 2.54028E-04-5.96128E-15
 -1      3811 4.95587E-03 1.81125E-04-6.68710E-15
 -1      3812 3.48152E-03-1.66641E-04-3.97420E-15
 -1      3813 3.62471E-03-7.14580E-05-4.06322E-15
 -1      3814 4.70289E-03 2.09368E-04-5.99911E-15
 -1      3815 4.89893E-03 1.84546E-04-6.50735E-15
 -1      3816 5.39394E-03-2.74840E-08-7.92568E-15
 -1      3817 5.54371E-03-8.53859E-05-8.36568E-15
 -1      3818 1.91213E-03-2.31667E-04-1.55220E-15
 -1      3819 2.04376E-03-2.44867E-04-1.76181E-15
 -1      3820 2.10571E-03-2.25093E-04-1.84539E-15
 -1      3821 3.06569E-03 3.26902E-04-2.51245E-15
 -1      3822 2.90999E-03 3.20575E-04-2.26673E-15
 -1      3823 3.14812E-03 2.83361E-04-2.71422E-15
 -1      3824 1.64361E-03-2.07214E-04-1.17358E-15
 -1      3825 1.77855E-03-2.19167E-04-1.35607E-15
 -1      3826 1.83926E-03-1.97906E-04-1.43142E-15
 -1      3827 7.60944E-03-1.32881E-03-1.35907E-14
 -1      3828 7.85272E-03-1.43147E-03-1.40663E-14
 -1      3829 2.87796E-03-3.46850E-04-3.38210E-15
 -1      3830 3.01739E-03-3.38420E-04-3.58258E-15
 -1      3831 3.04048E-03-2.91089E-04-3.49522E-15
 -1      3832 5.05741E-03 1.45213E-04-6.94205E-15
 -1      3833 5.22411E-03 8.21351E-05-7.43193E-15
 -1      3834 1.43563E-02-5.85118E-03-4.93231E-14
 -1      3835 4.53210E-03 2.72777E-04-5.56385E-15
 -1      3836 4.37502E-03 2.81801E-04-5.18146E-15
 -1      3837 4.32271E-03 2.47701E-04-5.08312E-15
 -1      3838 4.64489E-03 2.38767E-04-5.85324E-15
 -1      3839 1.53404E-03-1.76300E-04-1.03063E-15
 -1      3840 5.27444E-03 5.71461E-05-7.61056E-15
 -1      3841 1.39991E-02-5.72886E-03-4.91617E-14
 -1      3842 1.38994E-02-5.68690E-03-4.89881E-14
 -1      3843 3.31784E-03-1.83764E-04-3.72304E-15
 -1      3844 6.74726E-03-8.69534E-04-1.18716E-14
 -1      3845 6.88483E-03-9.51962E-04-1.21235E-14
 -1      3846 7.08360E-03-1.07162E-03-1.27910E-14
 -1      3847 7.51130E-03-1.29463E-03-1.36587E-14
 -1      3848 3.48716E-03-2.73043E-05-3.74126E-15
 -1      3849 3.68424E-03 1.50618E-06-4.05744E-15
 -1      3850 3.73040E-03 7.11932E-05-4.04733E-15
 -1      3851 1.53131E-03-1.45969E-04-1.01504E-15
 -1      3852 2.68552E-03-2.94847E-04-2.92290E-15
 -1      3853 2.71912E-03-3.37091E-04-3.08878E-15
 -1      3854 1.37998E-02-5.64495E-03-4.88103E-14
 -1      3855 1.37002E-02-5.60300E-03-4.86305E-14
 -1      3856 1.37259E-02-5.57783E-03-4.81174E-14
 -1      3857 5.69784E-03-1.82030E-04-8.84100E-15
 -1      3858 5.83388E-03-2.72378E-04-9.27653E-15
 -1      3859 8.46955E-03-1.64236E-03-1.53594E-14
 -1      3860 8.57853E-03-1.71986E-03-1.60287E-14
 -1      3861 8.34101E-03-1.60376E-03-1.50718E-14
 -1      3862 3.65100E-03 2.08747E-04-3.72323E-15
 -1      3863 3.55942E-03 2.53509E-04-3.49456E-15
 -1      3864 3.39499E-03 2.45298E-04-3.20020E-15
 -1      3865 5.30284E-03 4.20906E-05-7.73937E-15
 -1      3866 2.28658E-03 2.12646E-04-1.52763E-15
 -1      3867 2.13522E-03 2.09088E-04-1.34274E-15
 -1      3868 1.31353E-02-5.33512E-03-4.71209E-14
 -1      3869 1.29872E-02-5.23937E-03-4.63291E-14
 -1      3870 1.30038E-02-5.22562E-03-4.60490E-14
 -1      3871 5.45787E-03-4.22953E-05-8.21852E-15
 -1      3872 5.59179E-03-1.19479E-04-8.57712E-15
 -1      3873 4.53859E-03 2.13991E-04-5.60202E-15
 -1      3874 6.02734E-03-3.98798E-04-9.80223E-15
 -1      3875 6.17103E-03-4.93518E-04-1.01382E-14
 -1      3876 6.33040E-03-6.01016E-04-1.06626E-14
 -1      3877 5.92804E-03-3.35269E-04-9.57969E-15
 -1      3878 4.11521E-03 1.31446E-04-4.74116E-15
 -1      3879 4.40319E-03 2.09765E-04-5.29184E-15
 -1      3880 1.98530E-03 2.05005E-04-1.17120E-15
 -1      3881 1.83675E-03 2.00053E-04-1.01206E-15
 -1      3882 2.05292E-03 1.67101E-04-1.29863E-15
 -1      3883 7.99052E-03-1.50962E-03-1.47172E-14
 -1      3884 8.05222E-03-1.50996E-03-1.45030E-14
 -1      3885 1.33635E-02-5.45378E-03-4.78963E-14
 -1      3886 1.33036E-02-5.43136E-03-4.78266E-14
 -1      3887 1.36006E-02-5.56105E-03-4.84479E-14
 -1      3888 1.35010E-02-5.51909E-03-4.82641E-14
 -1      3889 1.35267E-02-5.49393E-03-4.77564E-14
 -1      3890 1.42689E-02-5.81811E-03-4.92406E-14
 -1      3891 1.41815E-02-5.78505E-03-4.91534E-14
 -1      3892 1.41031E-02-5.69908E-03-4.81907E-14
 -1      3893 1.66196E-03 1.90587E-04-8.41869E-16
 -1      3894 1.44287E-03 1.74571E-04-6.52080E-16
 -1      3895 8.20073E-03-1.55964E-03-1.47906E-14
 -1      3896 2.83193E-03 2.71706E-04-2.21482E-15
 -1      3897 1.49820E-03 6.45003E-05-8.13721E-16
 -1      3898 1.49233E-03 2.93535E-05-8.41110E-16
 -1      3899 2.59420E-03 2.19127E-04-1.93603E-15
 -1      3900 2.43957E-03 2.15856E-04-1.72522E-15
 -1      3901 2.35609E-03 1.70868E-04-1.67470E-15
 -1      3902 1.45409E-03 1.44016E-04-6.93618E-16
 -1      3903 1.32895E-02-5.38668E-03-4.72063E-14
 -1      3904 1.72841E-03 1.57549E-04-9.47701E-16
 -1      3905 3.13314E-03-2.01020E-04-3.44362E-15
 -1      3906 3.23700E-03-1.23359E-04-3.46789E-15
 -1      3907 2.56282E-03-2.50555E-04-2.62498E-15
 -1      3908 2.77211E-03-2.59061E-04-2.98217E-15
 -1      3909 2.71730E-03-3.65195E-04-3.16302E-15
 -1      3910 1.32870E-02-5.44510E-03-4.81127E-14
 -1      3911 1.32789E-02-5.35622E-03-4.67898E-14
 -1      3912 1.31414E-02-5.29092E-03-4.64221E-14
 -1      3913 1.29932E-02-5.19517E-03-4.56397E-14
 -1      3914 6.83830E-03-9.33514E-04-1.24817E-14
 -1      3915 6.66831E-03-8.24189E-04-1.18845E-14
 -1      3916 8.88677E-03-1.94436E-03-1.78569E-14
 -1      3917 9.01181E-03-2.03524E-03-1.85614E-14
 -1      3918 9.13994E-03-2.12835E-03-1.92777E-14
 -1      3919 9.27051E-03-2.22369E-03-2.00035E-14
 -1      3920 8.98664E-03-2.05432E-03-1.87901E-14
 -1      3921 9.40327E-03-2.32050E-03-2.07379E-14
 -1      3922 9.53779E-03-2.41877E-03-2.14796E-14
 -1      3923 9.24945E-03-2.24232E-03-2.02376E-14
 -1      3924 9.67383E-03-2.51797E-03-2.22288E-14
 -1      3925 9.81112E-03-2.61806E-03-2.29869E-14
 -1      3926 9.51906E-03-2.43671E-03-2.17181E-14
 -1      3927 9.94944E-03-2.71871E-03-2.37507E-14
 -1      3928 1.00886E-02-2.81987E-03-2.45195E-14
 -1      3929 9.79364E-03-2.63524E-03-2.32278E-14
 -1      3930 1.02215E-02-2.91627E-03-2.52597E-14
 -1      3931 1.03549E-02-3.01293E-03-2.60054E-14
 -1      3932 1.00648E-02-2.83131E-03-2.47292E-14
 -1      3933 1.04957E-02-3.11484E-03-2.67954E-14
 -1      3934 1.06370E-02-3.21689E-03-2.75929E-14
 -1      3935 1.03383E-02-3.02885E-03-2.62548E-14
 -1      3936 1.07786E-02-3.31901E-03-2.83939E-14
 -1      3937 1.09204E-02-3.42119E-03-2.92017E-14
 -1      3938 1.06205E-02-3.23232E-03-2.78453E-14
 -1      3939 1.10624E-02-3.52338E-03-3.00164E-14
 -1      3940 1.12046E-02-3.62558E-03-3.08346E-14
 -1      3941 1.09039E-02-3.43622E-03-2.94586E-14
 -1      3942 1.13470E-02-3.72777E-03-3.16555E-14
 -1      3943 1.14894E-02-3.82994E-03-3.24796E-14
 -1      3944 1.11881E-02-3.64031E-03-3.10903E-14
 -1      3945 1.16319E-02-3.93209E-03-3.33093E-14
 -1      3946 1.17745E-02-4.03420E-03-3.41398E-14
 -1      3947 1.14729E-02-3.84443E-03-3.27400E-14
 -1      3948 1.19101E-02-4.13118E-03-3.49314E-14
 -1      3949 1.20456E-02-4.22814E-03-3.57258E-14
 -1      3950 1.17508E-02-4.04340E-03-3.43607E-14
 -1      3951 1.21884E-02-4.33016E-03-3.65644E-14
 -1      3952 1.23311E-02-4.43215E-03-3.74049E-14
 -1      3953 1.20290E-02-4.24230E-03-3.59872E-14
 -1      3954 1.24739E-02-4.53411E-03-3.82483E-14
 -1      3955 1.26167E-02-4.63605E-03-3.90939E-14
 -1      3956 1.23145E-02-4.44620E-03-3.76683E-14
 -1      3957 1.27595E-02-4.73796E-03-3.99424E-14
 -1      3958 1.29024E-02-4.83984E-03-4.07951E-14
 -1      3959 1.26001E-02-4.65002E-03-3.93614E-14
 -1      3960 1.30452E-02-4.94171E-03-4.16538E-14
 -1      3961 1.31881E-02-5.04355E-03-4.25163E-14
 -1      3962 1.28857E-02-4.85375E-03-4.10688E-14
 -1      3963 1.33309E-02-5.14538E-03-4.33828E-14
 -1      3964 1.34738E-02-5.24720E-03-4.42519E-14
 -1      3965 1.31714E-02-5.05741E-03-4.27927E-14
 -1      3966 1.36095E-02-5.34391E-03-4.50795E-14
 -1      3967 1.37452E-02-5.44060E-03-4.59156E-14
 -1      3968 1.34499E-02-5.25593E-03-4.44892E-14
 -1      3969 1.38527E-02-5.51896E-03-4.66073E-14
 -1      3970 1.39956E-02-5.62073E-03-4.74921E-14
 -1      3971 1.39082E-02-5.58768E-03-4.74025E-14
 -1      3972 1.36932E-02-5.43098E-03-4.60112E-14
 -1      3973 4.04809E-03 1.78932E-04-4.54912E-15
 -1      3974 3.87335E-03 1.63520E-04-4.21043E-15
 -1      3975 1.46558E-03 1.13592E-04-7.34669E-16
 -1      3976 6.09819E-03-4.49401E-04-1.01188E-14
 -1      3977 7.16920E-03-1.14306E-03-1.37138E-14
 -1      3978 7.00555E-03-1.03937E-03-1.30918E-14
 -1      3979 7.11482E-03-1.09705E-03-1.31459E-14
 -1      3980 7.48725E-03-1.34446E-03-1.49992E-14
 -1      3981 7.32981E-03-1.24437E-03-1.43509E-14
 -1      3982 7.44199E-03-1.29701E-03-1.44069E-14
 -1      3983 7.79432E-03-1.54166E-03-1.63303E-14
 -1      3984 7.64200E-03-1.44327E-03-1.56578E-14
 -1      3985 7.75408E-03-1.49018E-03-1.57166E-14
 -1      3986 8.09308E-03-1.73746E-03-1.77046E-14
 -1      3987 7.94456E-03-1.63954E-03-1.70117E-14
 -1      3988 8.05510E-03-1.68138E-03-1.70710E-14
 -1      3989 8.38605E-03-1.93352E-03-1.91205E-14
 -1      3990 8.24013E-03-1.83535E-03-1.84085E-14
 -1      3991 8.34869E-03-1.87332E-03-1.84681E-14
 -1      3992 8.67524E-03-2.13058E-03-2.05760E-14
 -1      3993 8.53100E-03-2.03187E-03-1.98439E-14
 -1      3994 8.63767E-03-2.06710E-03-1.99063E-14
 -1      3995 8.96215E-03-2.32886E-03-2.20636E-14
 -1      3996 8.81890E-03-2.22955E-03-2.13143E-14
 -1      3997 8.92398E-03-2.26297E-03-2.13772E-14
 -1      3998 9.24778E-03-2.52829E-03-2.35813E-14
 -1      3999 9.10507E-03-2.42844E-03-2.28188E-14
 -1      4000 9.20890E-03-2.46075E-03-2.28820E-14
 -1      4001 9.53278E-03-2.72871E-03-2.51260E-14
 -1      4002 9.39033E-03-2.62839E-03-2.43497E-14
 -1      4003 9.49321E-03-2.66009E-03-2.44133E-14
 -1      4004 9.81756E-03-2.92990E-03-2.67019E-14
 -1      4005 9.67518E-03-2.82922E-03-2.59104E-14
 -1      4006 9.77738E-03-2.86062E-03-2.59755E-14
 -1      4007 1.01023E-02-3.13169E-03-2.82995E-14
 -1      4008 9.95993E-03-3.03074E-03-2.74974E-14
 -1      4009 1.00617E-02-3.06204E-03-2.75622E-14
 -1      4010 1.03872E-02-3.33393E-03-2.99183E-14
 -1      4011 1.02447E-02-3.23277E-03-2.91059E-14
 -1      4012 1.03461E-02-3.26408E-03-2.91723E-14
 -1      4013 1.06722E-02-3.53649E-03-3.15543E-14
 -1      4014 1.05297E-02-3.43517E-03-3.07359E-14
 -1      4015 1.06308E-02-3.46657E-03-3.07997E-14
 -1      4016 1.09574E-02-3.73928E-03-3.32056E-14
 -1      4017 1.08148E-02-3.63786E-03-3.23772E-14
 -1      4018 1.09158E-02-3.66935E-03-3.24429E-14
 -1      4019 1.12427E-02-3.94225E-03-3.48748E-14
 -1      4020 1.11000E-02-3.84075E-03-3.40384E-14
 -1      4021 1.12009E-02-3.87234E-03-3.41003E-14
 -1      4022 1.15281E-02-4.14535E-03-3.65605E-14
 -1      4023 1.13854E-02-4.04379E-03-3.57141E-14
 -1      4024 1.14862E-02-4.07548E-03-3.57752E-14
 -1      4025 1.18137E-02-4.34854E-03-3.82708E-14
 -1      4026 1.16709E-02-4.24694E-03-3.74127E-14
 -1      4027 1.17717E-02-4.27870E-03-3.74678E-14
 -1      4028 1.20993E-02-4.55180E-03-4.00006E-14
 -1      4029 1.19565E-02-4.45017E-03-3.91338E-14
 -1      4030 1.20572E-02-4.48200E-03-3.91833E-14
 -1      4031 1.23849E-02-4.75512E-03-4.17503E-14
 -1      4032 1.22421E-02-4.65345E-03-4.08726E-14
 -1      4033 1.23428E-02-4.68534E-03-4.09179E-14
 -1      4034 1.26706E-02-4.95847E-03-4.35195E-14
 -1      4035 1.25278E-02-4.85679E-03-4.26327E-14
 -1      4036 1.26285E-02-4.88871E-03-4.26708E-14
 -1      4037 1.29033E-02-5.12766E-03-4.50207E-14
 -1      4038 1.27605E-02-5.02597E-03-4.41287E-14
 -1      4039 1.28612E-02-5.05792E-03-4.41637E-14
 -1      4040 1.30409E-02-5.19295E-03-4.53904E-14
 -1      4041 4.23275E-03 1.99122E-04-4.92155E-15
 -1      4042 2.12026E-03 1.27536E-04-1.43060E-15
 -1      4043 1.97059E-03 1.26942E-04-1.25164E-15
 -1      4044 7.94336E-03-1.51057E-03-1.49302E-14
 -1      4045 8.13224E-03-1.59115E-03-1.53800E-14
 -1      4046 2.29649E-03-2.10957E-04-2.12856E-15
 -1      4047 2.42976E-03-2.29473E-04-2.37047E-15
 -1      4048 2.50357E-03-1.94031E-04-2.42358E-15
 -1      4049 7.43391E-03-1.26741E-03-1.37597E-14
 -1      4050 7.70751E-03-1.40284E-03-1.43825E-14
 -1      4051 2.02727E-03-1.80050E-04-1.68394E-15
 -1      4052 2.16215E-03-1.94546E-04-1.89959E-15
 -1      4053 2.22562E-03-1.60524E-04-1.94949E-15
 -1      4054 8.32133E-03-1.63444E-03-1.54489E-14
 -1      4055 8.67322E-03-1.78886E-03-1.66063E-14
 -1      4056 8.78540E-03-1.86970E-03-1.72607E-14
 -1      4057 8.75395E-03-1.88870E-03-1.74820E-14
 -1      4058 8.55205E-03-1.74607E-03-1.63105E-14
 -1      4059 1.41340E-02-5.77349E-03-4.92036E-14
 -1      4060 1.40466E-02-5.74042E-03-4.91109E-14
 -1      4061 1.38731E-02-5.63134E-03-4.82465E-14
 -1      4062 1.39682E-02-5.65446E-03-4.81502E-14
 -1      4063 3.23121E-03 2.37908E-04-2.91924E-15
 -1      4064 3.06932E-03 2.31795E-04-2.65243E-15
 -1      4065 3.31479E-03 1.90698E-04-3.12788E-15
 -1      4066 1.58712E-03 9.79514E-05-8.68541E-16
 -1      4067 1.61275E-03 9.63560E-06-9.83060E-16
 -1      4068 1.48708E-03-4.74095E-06-8.66061E-16
 -1      4069 1.48270E-03-3.78553E-05-8.89344E-16
 -1      4070 2.97852E-03-2.30936E-04-3.25454E-15
 -1      4071 2.90900E-03 2.26798E-04-2.40003E-15
 -1      4072 2.75072E-03 2.22631E-04-2.16098E-15
 -1      4073 2.98614E-03 1.79848E-04-2.58860E-15
 -1      4074 1.75500E-03-1.55101E-04-1.29187E-15
 -1      4075 1.89140E-03-1.66954E-04-1.48143E-15
 -1      4076 1.94875E-03-1.33797E-04-1.52742E-15
 -1      4077 1.58354E-03-1.15320E-04-1.05710E-15
 -1      4078 3.68954E-03 1.34296E-04-3.88846E-15
 -1      4079 1.75990E-03 1.01995E-04-1.04425E-15
 -1      4080 1.82601E-03 6.61345E-05-1.15735E-15
 -1      4081 2.84169E-03-1.84139E-04-2.93678E-15
 -1      4082 6.47354E-03-6.97998E-04-1.12389E-14
 -1      4083 3.30164E-03-5.77564E-05-3.46389E-15
 -1      4084 3.35753E-03 8.82065E-06-3.45630E-15
 -1      4085 3.12013E-03-8.08966E-05-3.19750E-15
 -1      4086 1.36520E-02-5.51070E-03-4.74284E-14
 -1      4087 1.35524E-02-5.46876E-03-4.72486E-14
 -1      4088 1.33579E-02-5.39132E-03-4.69622E-14
 -1      4089 1.32097E-02-5.29555E-03-4.61824E-14
 -1      4090 1.31198E-02-5.22803E-03-4.55629E-14
 -1      4091 1.34575E-02-5.43326E-03-4.71475E-14
 -1      4092 1.37471E-02-5.53382E-03-4.73350E-14
 -1      4093 1.36995E-02-5.52226E-03-4.73821E-14
 -1      4094 1.35260E-02-5.41318E-03-4.65177E-14
 -1      4095 3.51532E-03 1.22617E-04-3.57772E-15
 -1      4096 6.29914E-03-5.82494E-04-1.06688E-14
 -1      4097 1.58571E-03-8.30649E-05-1.03591E-15
 -1      4098 7.86285E-03-1.49151E-03-1.50383E-14
 -1      4099 8.26936E-03-1.67355E-03-1.60504E-14
 -1      4100 8.31109E-03-1.66506E-03-1.58295E-14
 -1      4101 7.25255E-03-1.17295E-03-1.34092E-14
 -1      4102 7.45402E-03-1.29047E-03-1.41270E-14
 -1      4103 1.97031E-03 4.12352E-05-1.35445E-15
 -1      4104 1.76183E-03 2.33095E-05-1.13193E-15
 -1      4105 8.44633E-03-1.71351E-03-1.61223E-14
 -1      4106 2.66679E-03 1.74219E-04-2.10478E-15
 -1      4107 2.27167E-03 1.27490E-04-1.62226E-15
 -1      4108 2.18701E-03 8.62473E-05-1.56720E-15
 -1      4109 2.42502E-03 1.27227E-04-1.82711E-15
 -1      4110 1.75442E-03-1.46895E-05-1.16323E-15
 -1      4111 3.34089E-03 9.08739E-05-3.30955E-15
 -1      4112 3.17135E-03 8.58101E-05-3.02488E-15
 -1      4113 1.88495E-03-9.66231E-05-1.40563E-15
 -1      4114 2.02543E-03-1.07384E-04-1.60081E-15
 -1      4115 1.38514E-02-5.56653E-03-4.73462E-14
 -1      4116 1.38039E-02-5.55497E-03-4.73913E-14
 -1      4117 1.36303E-02-5.44588E-03-4.65318E-14
 -1      4118 1.37439E-02-5.48818E-03-4.66478E-14
 -1      4119 1.70879E-03-7.32357E-05-1.16805E-15
 -1      4120 7.61255E-03-1.38557E-03-1.47720E-14
 -1      4121 9.09318E-03-2.16457E-03-1.97390E-14
 -1      4122 9.22736E-03-2.25958E-03-2.04688E-14
 -1      4123 9.36289E-03-2.35600E-03-2.12067E-14
 -1      4124 9.49949E-03-2.45370E-03-2.19538E-14
 -1      4125 9.20500E-03-2.27561E-03-2.06978E-14
 -1      4126 9.63710E-03-2.55233E-03-2.27083E-14
 -1      4127 9.77552E-03-2.65179E-03-2.34687E-14
 -1      4128 9.47956E-03-2.46981E-03-2.21870E-14
 -1      4129 9.90771E-03-2.74683E-03-2.41985E-14
 -1      4130 1.00405E-02-2.84235E-03-2.49351E-14
 -1      4131 9.75009E-03-2.66274E-03-2.36697E-14
 -1      4132 1.01807E-02-2.94326E-03-2.57156E-14
 -1      4133 1.03214E-02-3.04449E-03-2.65032E-14
 -1      4134 1.00228E-02-2.85800E-03-2.51762E-14
 -1      4135 1.04625E-02-3.14593E-03-2.72971E-14
 -1      4136 1.06038E-02-3.24756E-03-2.80958E-14
 -1      4137 1.03042E-02-3.05982E-03-2.67487E-14
 -1      4138 1.07455E-02-3.34930E-03-2.88999E-14
 -1      4139 1.08873E-02-3.45114E-03-2.97125E-14
 -1      4140 1.05869E-02-3.26260E-03-2.83446E-14
 -1      4141 1.10294E-02-3.55303E-03-3.05281E-14
 -1      4142 1.11715E-02-3.65496E-03-3.13464E-14
 -1      4143 1.08706E-02-3.46591E-03-2.99634E-14
 -1      4144 1.13139E-02-3.75690E-03-3.21709E-14
 -1      4145 1.14563E-02-3.85886E-03-3.29976E-14
 -1      4146 1.11549E-02-3.66950E-03-3.16010E-14
 -1      4147 1.15916E-02-3.95572E-03-3.37850E-14
 -1      4148 1.17271E-02-4.05257E-03-3.45752E-14
 -1      4149 1.14325E-02-3.86813E-03-3.32117E-14
 -1      4150 1.18697E-02-4.15451E-03-3.54107E-14
 -1      4151 1.20124E-02-4.25644E-03-3.62480E-14
 -1      4152 1.17104E-02-4.06679E-03-3.48321E-14
 -1      4153 1.21551E-02-4.35834E-03-3.70882E-14
 -1      4154 1.22978E-02-4.46024E-03-3.79318E-14
 -1      4155 1.19957E-02-4.27054E-03-3.65063E-14
 -1      4156 1.24406E-02-4.56211E-03-3.87783E-14
 -1      4157 1.25834E-02-4.66397E-03-3.96269E-14
 -1      4158 1.22812E-02-4.47424E-03-3.81922E-14
 -1      4159 1.27262E-02-4.76581E-03-4.04803E-14
 -1      4160 1.28690E-02-4.86764E-03-4.13403E-14
 -1      4161 1.25667E-02-4.67790E-03-3.98938E-14
 -1      4162 1.30119E-02-4.96946E-03-4.22029E-14
 -1      4163 1.31547E-02-5.07126E-03-4.30690E-14
 -1      4164 1.28524E-02-4.88152E-03-4.16102E-14
 -1      4165 1.32904E-02-5.16796E-03-4.38977E-14
 -1      4166 1.34261E-02-5.26465E-03-4.47274E-14
 -1      4167 1.31309E-02-5.08001E-03-4.33019E-14
 -1      4168 8.22582E-03-1.77043E-03-1.75626E-14
 -1      4169 8.07884E-03-1.67621E-03-1.68728E-14
 -1      4170 8.51552E-03-1.96056E-03-1.89762E-14
 -1      4171 8.37122E-03-1.86514E-03-1.82659E-14
 -1      4172 8.39561E-03-1.85728E-03-1.80593E-14
 -1      4173 8.80172E-03-2.15350E-03-2.04267E-14
 -1      4174 8.65889E-03-2.05666E-03-1.96969E-14
 -1      4175 8.68133E-03-2.04627E-03-1.94867E-14
 -1      4176 9.08617E-03-2.34911E-03-2.19093E-14
 -1      4177 8.94407E-03-2.25099E-03-2.11635E-14
 -1      4178 8.96492E-03-2.23893E-03-2.09485E-14
 -1      4179 9.36990E-03-2.54693E-03-2.34231E-14
 -1      4180 9.22807E-03-2.44777E-03-2.26615E-14
 -1      4181 9.24769E-03-2.43466E-03-2.24421E-14
 -1      4182 9.65349E-03-2.74646E-03-2.49657E-14
 -1      4183 9.51168E-03-2.64651E-03-2.41916E-14
 -1      4184 9.53040E-03-2.63278E-03-2.39656E-14
 -1      4185 9.93723E-03-2.94724E-03-2.65369E-14
 -1      4186 9.79532E-03-2.84672E-03-2.57482E-14
 -1      4187 9.81340E-03-2.83267E-03-2.55195E-14
 -1      4188 1.02213E-02-3.14890E-03-2.81334E-14
 -1      4189 1.00792E-02-3.04798E-03-2.73315E-14
 -1      4190 1.00968E-02-3.03379E-03-2.70989E-14
 -1      4191 1.05056E-02-3.35117E-03-2.97472E-14
 -1      4192 1.03634E-02-3.24998E-03-2.89381E-14
 -1      4193 1.03807E-02-3.23576E-03-2.87021E-14
 -1      4194 1.07903E-02-3.55385E-03-3.13807E-14
 -1      4195 1.06479E-02-3.45247E-03-3.05618E-14
 -1      4196 1.06650E-02-3.43829E-03-3.03222E-14
 -1      4197 1.10752E-02-3.75680E-03-3.30285E-14
 -1      4198 1.09327E-02-3.65530E-03-3.22039E-14
 -1      4199 1.09497E-02-3.64117E-03-3.19606E-14
 -1      4200 1.13604E-02-3.95992E-03-3.46918E-14
 -1      4201 1.12178E-02-3.85834E-03-3.38564E-14
 -1      4202 1.12346E-02-3.84429E-03-3.36141E-14
 -1      4203 1.16457E-02-4.16316E-03-3.63705E-14
 -1      4204 1.15030E-02-4.06153E-03-3.55309E-14
 -1      4205 1.15198E-02-4.04754E-03-3.52818E-14
 -1      4206 1.19311E-02-4.36647E-03-3.80678E-14
 -1      4207 1.17884E-02-4.26481E-03-3.72160E-14
 -1      4208 1.18051E-02-4.25087E-03-3.69652E-14
 -1      4209 1.22167E-02-4.56982E-03-3.97855E-14
 -1      4210 1.20739E-02-4.46814E-03-3.89236E-14
 -1      4211 1.20906E-02-4.45426E-03-3.86655E-14
 -1      4212 1.25023E-02-4.77321E-03-4.15214E-14
 -1      4213 1.23595E-02-4.67151E-03-4.06513E-14
 -1      4214 1.23762E-02-4.65767E-03-4.03854E-14
 -1      4215 1.27880E-02-4.97661E-03-4.32760E-14
 -1      4216 1.26451E-02-4.87491E-03-4.23968E-14
 -1      4217 1.26618E-02-4.86110E-03-4.21228E-14
 -1      4218 7.79259E-03-1.49400E-03-1.55276E-14
 -1      4219 7.81132E-03-1.48501E-03-1.52340E-14
 -1      4220 8.03490E-03-1.59278E-03-1.57983E-14
 -1      4221 7.94367E-03-1.58738E-03-1.61952E-14
 -1      4222 8.21372E-03-1.67536E-03-1.62569E-14
 -1      4223 8.38812E-03-1.75331E-03-1.67202E-14
 -1      4224 8.16327E-03-1.67541E-03-1.64625E-14
 -1      4225 2.73863E-03 1.27187E-04-2.27791E-15
 -1      4226 2.58061E-03 1.26899E-04-2.04560E-15
 -1      4227 2.49292E-03 8.16271E-05-1.98433E-15
 -1      4228 2.45130E-03-1.47557E-04-2.26518E-15
 -1      4229 2.59561E-03-1.63787E-04-2.51230E-15
 -1      4230 1.33836E-02-5.36614E-03-4.64593E-14
 -1      4231 2.11824E-03 3.72068E-05-1.54225E-15
 -1      4232 2.05019E-03-8.55515E-06-1.51330E-15
 -1      4233 2.26802E-03 3.25918E-05-1.74345E-15
 -1      4234 8.54894E-03-1.78282E-03-1.67007E-14
 -1      4235 2.16657E-03-1.19387E-04-1.80925E-15
 -1      4236 2.30826E-03-1.32849E-04-2.03075E-15
 -1      4237 2.39539E-03-1.01507E-04-2.10998E-15
 -1      4238 2.10572E-03-7.83736E-05-1.67269E-15
 -1      4239 1.93375E-03-3.55247E-05-1.39976E-15
 -1      4240 1.78477E-03-4.56289E-05-1.23039E-15
 -1      4241 3.03417E-03 1.07273E-04-2.76802E-15
 -1      4242 2.87086E-03 1.05709E-04-2.51019E-15
 -1      4243 2.77912E-03 5.60935E-05-2.44054E-15
 -1      4244 3.04300E-03 6.77482E-06-2.93015E-15
 -1      4245 8.82916E-03-1.98024E-03-1.83040E-14
 -1      4246 8.96033E-03-2.07141E-03-1.90158E-14
 -1      4247 8.93405E-03-2.08689E-03-1.92402E-14
 -1      4248 2.79367E-03-1.29740E-04-2.75753E-15
 -1      4249 2.07834E-03-4.35030E-05-1.59276E-15
 -1      4250 8.63464E-03-1.84303E-03-1.71986E-14
 -1      4251 8.74069E-03-1.91669E-03-1.77933E-14
 -1      4252 8.70927E-03-1.93112E-03-1.80117E-14
 -1      4253 8.53037E-03-1.80691E-03-1.70036E-14
 -1      4254 2.67664E-03-7.58344E-05-2.48660E-15
 -1      4255 2.93792E-03-8.37518E-05-2.90616E-15
 -1      4256 1.35313E-02-5.33725E-03-4.53373E-14
 -1      4257 1.36388E-02-5.41560E-03-4.60314E-14
 -1      4258 1.35820E-02-5.39445E-03-4.59723E-14
 -1      4259 1.33717E-02-5.24928E-03-4.47429E-14
 -1      4260 8.47987E-03-1.81443E-03-1.72174E-14
 -1      4261 1.28778E-02-5.04414E-03-4.38868E-14
 -1      4262 1.28945E-02-5.03034E-03-4.36060E-14
 -1      4263 1.29677E-02-5.11166E-03-4.44957E-14
 -1      4264 8.11934E-03-1.67630E-03-1.66731E-14
 -1      4265 1.34074E-02-5.32423E-03-4.57114E-14
 -1      4266 1.33598E-02-5.31268E-03-4.57540E-14
 -1      4267 1.31128E-02-5.16080E-03-4.45847E-14
 -1      4268 1.32314E-02-5.24974E-03-4.53878E-14
 -1      4269 1.31365E-02-5.21426E-03-4.52832E-14
 -1      4270 1.30229E-02-5.09326E-03-4.39737E-14
 -1      4271 2.99331E-03-2.62883E-05-2.90116E-15
 -1      4272 9.04507E-03-2.19496E-03-2.01895E-14
 -1      4273 9.18259E-03-2.29059E-03-2.09251E-14
 -1      4274 2.22419E-03-5.25689E-05-1.79881E-15
 -1      4275 8.57219E-03-1.87707E-03-1.77210E-14
 -1      4276 9.32075E-03-2.38736E-03-2.16677E-14
 -1      4277 9.45944E-03-2.48516E-03-2.24193E-14
 -1      4278 9.16056E-03-2.30478E-03-2.11498E-14
 -1      4279 9.59169E-03-2.57883E-03-2.31408E-14
 -1      4280 9.72437E-03-2.67315E-03-2.38671E-14
 -1      4281 9.43242E-03-2.49499E-03-2.26113E-14
 -1      4282 9.86447E-03-2.77297E-03-2.46383E-14
 -1      4283 1.00050E-02-2.87328E-03-2.54168E-14
 -1      4284 9.70559E-03-2.68808E-03-2.41006E-14
 -1      4285 1.01458E-02-2.97393E-03-2.62011E-14
 -1      4286 1.02869E-02-3.07490E-03-2.69922E-14
 -1      4287 9.98701E-03-2.88821E-03-2.56534E-14
 -1      4288 1.04283E-02-3.17608E-03-2.77909E-14
 -1      4289 1.05699E-02-3.27745E-03-2.85934E-14
 -1      4290 1.02695E-02-3.08973E-03-2.72344E-14
 -1      4291 1.07117E-02-3.37895E-03-2.94000E-14
 -1      4292 1.08537E-02-3.48055E-03-3.02143E-14
 -1      4293 1.05528E-02-3.29213E-03-2.88389E-14
 -1      4294 1.09959E-02-3.58223E-03-3.10320E-14
 -1      4295 1.11381E-02-3.68396E-03-3.18529E-14
 -1      4296 1.08368E-02-3.49507E-03-3.04622E-14
 -1      4297 1.12733E-02-3.78064E-03-3.26376E-14
 -1      4298 1.14087E-02-3.87735E-03-3.34220E-14
 -1      4299 1.11142E-02-3.69325E-03-3.20611E-14
 -1      4300 1.15512E-02-3.97915E-03-3.42526E-14
 -1      4301 1.16937E-02-4.08097E-03-3.50876E-14
 -1      4302 1.13919E-02-3.89158E-03-3.36738E-14
 -1      4303 1.18364E-02-4.18279E-03-3.59231E-14
 -1      4304 1.19790E-02-4.28460E-03-3.67629E-14
 -1      4305 1.16770E-02-4.09509E-03-3.53408E-14
 -1      4306 1.21218E-02-4.38642E-03-3.76076E-14
 -1      4307 1.22645E-02-4.48822E-03-3.84543E-14
 -1      4308 1.19623E-02-4.29863E-03-3.70193E-14
 -1      4309 1.24073E-02-4.59003E-03-3.93049E-14
 -1      4310 1.25500E-02-4.69182E-03-4.01595E-14
 -1      4311 1.22478E-02-4.50218E-03-3.87143E-14
 -1      4312 1.26929E-02-4.79361E-03-4.10168E-14
 -1      4313 1.28357E-02-4.89539E-03-4.18815E-14
 -1      4314 1.25334E-02-4.70572E-03-4.04254E-14
 -1      4315 1.29714E-02-4.99207E-03-4.27083E-14
 -1      4316 1.31071E-02-5.08875E-03-4.35370E-14
 -1      4317 1.28119E-02-4.90415E-03-4.21114E-14
 -1      4318 8.92250E-03-2.17611E-03-2.03147E-14
 -1      4319 8.78204E-03-2.08083E-03-1.95861E-14
 -1      4320 2.51785E-03-6.10164E-05-2.22637E-15
 -1      4321 2.65038E-03-1.87544E-05-2.35730E-15
 -1      4322 8.56400E-03-1.94199E-03-1.85578E-14
 -1      4323 8.42214E-03-1.84931E-03-1.78501E-14
 -1      4324 9.47731E-03-2.56144E-03-2.32689E-14
 -1      4325 9.33666E-03-2.46276E-03-2.25111E-14
 -1      4326 9.75913E-03-2.76046E-03-2.48088E-14
 -1      4327 9.61812E-03-2.66071E-03-2.40349E-14
 -1      4328 1.00417E-02-2.96111E-03-2.63744E-14
 -1      4329 9.90032E-03-2.86062E-03-2.55885E-14
 -1      4330 1.03250E-02-3.16286E-03-2.79686E-14
 -1      4331 1.01833E-02-3.06188E-03-2.71689E-14
 -1      4332 1.06088E-02-3.36532E-03-2.95802E-14
 -1      4333 1.04668E-02-3.26402E-03-2.87724E-14
 -1      4334 1.08932E-02-3.56822E-03-3.12130E-14
 -1      4335 1.07510E-02-3.46673E-03-3.03951E-14
 -1      4336 1.11708E-02-3.76631E-03-3.28170E-14
 -1      4337 1.10284E-02-3.66470E-03-3.19908E-14
 -1      4338 1.14558E-02-3.96963E-03-3.44765E-14
 -1      4339 1.13133E-02-3.86796E-03-3.36449E-14
 -1      4340 1.17411E-02-4.17304E-03-3.61517E-14
 -1      4341 1.15984E-02-4.07133E-03-3.53119E-14
 -1      4342 1.20265E-02-4.37649E-03-3.78399E-14
 -1      4343 1.18837E-02-4.27476E-03-3.69942E-14
 -1      4344 1.23120E-02-4.57996E-03-3.95471E-14
 -1      4345 1.21692E-02-4.47823E-03-3.86906E-14
 -1      4346 1.25976E-02-4.78343E-03-4.12699E-14
 -1      4347 1.24548E-02-4.68170E-03-4.04065E-14
 -1      4348 1.28761E-02-4.98182E-03-4.29709E-14
 -1      4349 1.27333E-02-4.88008E-03-4.20974E-14
 -1      4350 2.86270E-03 4.06190E-07-2.65280E-15
 -1      4351 8.29240E-03-1.76099E-03-1.71445E-14
 -1      4352 9.20321E-03-2.36965E-03-2.17954E-14
 -1      4353 9.06281E-03-2.27243E-03-2.10507E-14
 -1      4354 8.69591E-03-1.96499E-03-1.84363E-14
 -1      4355 8.83262E-03-2.05697E-03-1.91514E-14
 -1      4356 1.30944E-02-5.11228E-03-4.39425E-14
 -1      4357 2.41506E-03 3.93460E-05-1.93403E-15
 -1      4358 2.34199E-03-1.18114E-05-1.90412E-15
 -1      4359 8.46391E-03-1.84373E-03-1.76313E-14
 -1      4360 2.56966E-03 3.47621E-05-2.16011E-15
 -1      4361 8.80677E-03-2.06929E-03-1.93695E-14
 -1      4362 1.35252E-02-5.37331E-03-4.59129E-14
 -1      4363 2.36775E-03-5.09501E-05-1.99581E-15
 -1      4364 1.32539E-02-5.20022E-03-4.45415E-14
 -1      4365 2.73356E-03 2.59827E-05-2.41566E-15
 -1      4366 1.33590E-02-5.27280E-03-4.51529E-14
 -3
    1PSTEP                         2           1           1          
  100CL  101 1.000000000        4366                     0    1           1
 -4  STRESS      6    1
 -5  SXX         1    4    1    1
 -5  SYY         1    4    2    2
 -5  SZZ         1    4    3    3
 -5  SXY         1    4    1    2
 -5  SYZ         1    4    2    3
 -5  SZX         1    4    3    1
 -1         1-3.48678E+00-1.59848E+01-3.38830E+00-6.59341E+00-2.13646E-12-9.36168E-13
 -1         2-7.96267E-01-2.76390E+01-3.49509E+00 2.89253E-01 1.19538E-12 4.87804E-15
 -1         3 1.99998E+01 3.83263E-05-3.85025E-05 3.74376E-05-3.73333E-13-3.82824E-13
 -1         4 1.99998E+01 4.48956E-05-4.02685E-05-4.68136E-05-8.03218E-14-3.41907E-14
 -1         5 3.27369E+01 6.13907E+00 2.72332E+00 6.20481E+00-2.73878E-14 1.71196E-12
 -1         6 3.57534E+01 1.22705E+01 5.14812E+00-8.68682E+00-9.26481E-14 8.71303E-13
 -1         7 2.08268E+01 6.13190E+00-1.28604E-01-4.61057E+00-1.37806E-14-1.05974E-13
 -1         8 1.97901E+01 5.96891E+00 5.89930E-02-3.14995E+00-1.20737E-14-3.38705E-13
 -1         9 1.92246E+01 5.79637E+00 5.17712E-02-2.38803E+00-7.05686E-15-4.39006E-13
 -1        10 1.89277E+01 5.70034E+00 4.91301E-02-1.82105E+00-2.93168E-16-4.57692E-13
 -1        11 1.87473E+01 5.64239E+00 4.48437E-02-1.35525E+00-1.26461E-15-4.53231E-13
 -1        12 1.86390E+01 5.60758E+00 4.14902E-02-9.56554E-01 5.22412E-15-4.22811E-13
 -1        13 1.85805E+01 5.58894E+00 4.00330E-02-5.84217E-01 6.29184E-15-3.83674E-13
 -1        14 1.85632E+01 5.58337E+00 4.04934E-02-2.23763E-01 7.65300E-15-3.37612E-13
 -1        15 1.85783E+01 5.58808E+00 4.24279E-02 1.41524E-01 1.32204E-14-2.87136E-13
 -1        16 1.86197E+01 5.60122E+00 4.52787E-02 5.24548E-01 1.67422E-14-2.44939E-13
 -1        17 1.86858E+01 5.62236E+00 4.85357E-02 9.36229E-01 1.57170E-14-1.72095E-13
 -1        18 1.87815E+01 5.65363E+00 5.15289E-02 1.37975E+00 1.81990E-14-8.14392E-14
 -1        19 1.89329E+01 5.70341E+00 5.32890E-02 1.88714E+00 2.29903E-14 4.23286E-14
 -1        20 1.91975E+01 5.79063E+00 5.16608E-02 2.48229E+00 2.28394E-14 2.20319E-13
 -1        21 1.97347E+01 5.96876E+00 4.97249E-02 3.24308E+00 2.18575E-14 5.11351E-13
 -1        22 2.12613E+01 6.39623E+00 1.43687E-01 4.47887E+00 4.44089E-16 9.60827E-13
 -1        23 2.33008E+01-1.31199E+00-9.22448E-01-8.09492E-01-6.40286E-14 5.68462E-13
 -1        24 1.96100E+01-1.10328E-01-3.28553E-01 6.66630E-02-1.12783E-14 3.47108E-13
 -1        25 1.90185E+01-6.18805E-02-7.69875E-02 6.17831E-02-1.54080E-14 1.01382E-13
 -1        26 1.89834E+01-2.93556E-02-1.40853E-02 3.36246E-02-7.84529E-16-7.86229E-14
 -1        27 1.92605E+01-2.12717E-02-9.93807E-03 2.58760E-02-1.06627E-14-2.39366E-13
 -1        28 1.97668E+01-2.20201E-02-1.77786E-02 2.14182E-02-4.78231E-15-3.04802E-13
 -1        29 2.05853E+01-2.57324E-02-3.13528E-02 2.50591E-02-1.05233E-15-2.99994E-13
 -1        30 2.18090E+01-3.34478E-02-5.34057E-02 3.75118E-02-1.12805E-14-3.14464E-13
 -1        31 2.36297E+01-4.28224E-02-8.56559E-02 6.59146E-02 1.01989E-14-4.22551E-13
 -1        32 2.63186E+01-4.89563E-02-1.18573E-01 1.20491E-01 6.48223E-15-4.71505E-13
 -1        33 3.01317E+01-3.46597E-02-1.06093E-01 2.13834E-01 1.80151E-15-3.89550E-13
 -1        34 3.47840E+01 2.00516E-02 4.37432E-02 3.01821E-01-6.97250E-15-2.19741E-13
 -1        35 3.95808E+01 1.17029E-01 4.42624E-01 2.62867E-01 2.30198E-15-5.75651E-14
 -1        36 4.08557E+01 1.50246E-01 8.05872E-01-3.08842E-01 5.14415E-14 2.42625E-13
 -1        37 3.44250E+01 1.59136E-01 1.48220E-01-1.25435E+00-1.34402E-14 4.93161E-13
 -1        38 2.33144E+01-8.80272E-03-1.57560E+00-1.19389E+00-1.02886E-13-4.57412E-14
 -1        39 1.54095E+01-2.06677E-01-2.95841E+00-3.84256E-01-1.11272E-13-1.12982E-12
 -1        40 1.71144E+01-1.84596E-01-2.65284E+00 7.21291E-01-5.81861E-14-2.22752E-12
 -1        41 2.55571E+01-6.08459E-02-1.20842E+00 1.04129E+00 1.05457E-13-2.30971E-12
 -1        42 3.57746E+01 8.10932E-02 3.14683E-01 7.44503E-01-2.76775E-14-2.08988E-12
 -1        43 4.13804E+01 1.26340E-01 8.60757E-01 2.29825E-01 1.67921E-14-1.75768E-12
 -1        44 4.05367E+01 6.38658E-02 5.08371E-01-1.39926E-01 1.52371E-13-1.33126E-12
 -1        45 3.60511E+01 1.05439E-02 8.41186E-02-1.89452E-01-4.87120E-14-9.43176E-13
 -1        46 3.11071E+01-1.81912E-02-1.08633E-01-1.37389E-01-7.80736E-14-1.05743E-12
 -1        47 2.72699E+01-2.63973E-02-1.29213E-01-7.99031E-02 9.24200E-14-9.49588E-13
 -1        48 2.46352E+01-2.36704E-02-9.56485E-02-4.23577E-02-4.54862E-14-7.96370E-13
 -1        49 2.29220E+01-1.79703E-02-6.07583E-02-2.14101E-02-4.77125E-15-7.01684E-13
 -1        50 2.18369E+01-1.24214E-02-3.60706E-02-9.54878E-03 2.05635E-14-4.97140E-13
 -1        51 2.11782E+01-8.88425E-03-2.23400E-02-5.48163E-03 2.02047E-14-1.84287E-13
 -1        52 2.07378E+01-5.71929E-03-1.31131E-02-2.30900E-03 8.92282E-15-1.68915E-13
 -1        53 2.04608E+01-3.75663E-03-7.80971E-03-9.20192E-04-4.65835E-14-2.40132E-13
 -1        54 2.02856E+01-2.45929E-03-4.71644E-03-2.70730E-04 3.39134E-14-3.59264E-13
 -1        55 2.01744E+01-1.61725E-03-2.88195E-03 2.07634E-05 1.24490E-14-3.98754E-13
 -1        56 2.01037E+01-1.04583E-03-1.76551E-03 2.09630E-04 9.56429E-14-7.13071E-14
 -1        57 2.00604E+01-7.29526E-04-1.15193E-03 1.42800E-04 1.22442E-14 4.35452E-13
 -1        58 2.00311E+01-4.78234E-04-7.21528E-04 1.72021E-04-1.50874E-13 1.29167E-13
 -1        59 2.00129E+01-3.20855E-04-4.57156E-04 1.57889E-04 2.31512E-14-1.16792E-13
 -1        60 2.00018E+01-2.15621E-04-2.90412E-04 1.38522E-04 2.24861E-14 3.04694E-13
 -1        61 1.99954E+01-1.45596E-04-1.83122E-04 1.19029E-04-4.22776E-14-1.69811E-13
 -1        62 1.99920E+01-9.52056E-05-1.12920E-04 1.07587E-04 4.97351E-14-5.59721E-13
 -1        63 1.99907E+01-6.57319E-05-6.95808E-05 8.27819E-05-2.59149E-14-4.11953E-13
 -1        64 1.99905E+01-4.24690E-05-3.89451E-05 7.19629E-05-2.36309E-14-2.65290E-13
 -1        65 1.99911E+01-2.68553E-05-1.90730E-05 6.03508E-05-1.24148E-13-6.27741E-13
 -1        66 1.99921E+01-1.60483E-05-6.40776E-06 5.06978E-05 3.35792E-14-6.67659E-13
 -1        67 1.99934E+01-8.71013E-06 1.55454E-06 4.28885E-05-4.51542E-14-1.59002E-13
 -1        68 1.99948E+01-3.26399E-06 6.52262E-06 3.70405E-05 1.10311E-13 3.00970E-13
 -1        69 1.99961E+01 1.15037E-06 1.11030E-05 3.21460E-05-7.36021E-14 6.28684E-13
 -1        70 1.99974E+01 4.58080E-06 1.66688E-05 2.88603E-05 1.11748E-13 6.70514E-13
 -1        71 1.99985E+01 8.28159E-06 2.66961E-05 2.53198E-05-1.13240E-13 2.82266E-13
 -1        72 1.99994E+01 1.27176E-05 3.92385E-05 1.89126E-05-1.06235E-14-5.96939E-13
 -1        73 1.99998E+01 2.02575E-06 2.09288E-05-8.82423E-06 7.92167E-15 2.83545E-13
 -1        74 2.11051E+01-4.04851E-01-9.81803E-01-3.16433E-01 1.91167E-15 1.73048E-12
 -1        75 1.94638E+01-6.58592E-02-2.89060E-01-5.61215E-02 6.03510E-15 1.55535E-12
 -1        76 1.88688E+01-2.02750E-02-6.21255E-02-2.31275E-02 1.09700E-15 1.40231E-12
 -1        77 1.86985E+01-9.02463E-03-7.20887E-03-1.85230E-02-2.36123E-15 1.34923E-12
 -1        78 1.87170E+01-3.19382E-03 3.55123E-03-1.56674E-02-3.02872E-16 1.23186E-12
 -1        79 1.87994E+01 4.94856E-04 6.45063E-03-1.35334E-02 2.49060E-15 1.23075E-12
 -1        80 1.88680E+01 3.05931E-03 9.05959E-03-1.15437E-02 7.15351E-15 1.21261E-12
 -1        81 1.88649E+01 4.82196E-03 1.19419E-02-8.93295E-03 1.71564E-14 1.12237E-12
 -1        82 1.87437E+01 5.70811E-03 1.43883E-02-5.05725E-03-2.33294E-14 1.08577E-12
 -1        83 1.84715E+01 5.45153E-03 1.53635E-02 4.83186E-04 3.04680E-14 1.01114E-12
 -1        84 1.80356E+01 3.78704E-03 1.37246E-02 7.60574E-03-3.15755E-14 9.67839E-13
 -1        85 1.74543E+01 6.76256E-04 8.58978E-03 1.54656E-02 5.92866E-15 8.33409E-13
 -1        86 1.67843E+01-3.48313E-03-7.27796E-05 2.23646E-02 1.99660E-14 7.27219E-13
 -1        87 1.61199E+01-7.79443E-03-1.09267E-02 2.60949E-02-1.64328E-14 7.76435E-13
 -1        88 1.55783E+01-1.10713E-02-2.12840E-02 2.47883E-02 1.18908E-14 1.01807E-12
 -1        89 1.52712E+01-1.22919E-02-2.79568E-02 1.79464E-02 2.18467E-16 9.40035E-13
 -1        90 1.52711E+01-1.10643E-02-2.86729E-02 6.98807E-03-3.29228E-14 8.56259E-13
 -1        91 1.55874E+01-7.81070E-03-2.32293E-02-5.17746E-03-1.91589E-15 7.58408E-13
 -1        92 1.61642E+01-3.55209E-03-1.35976E-02-1.53868E-02-3.32949E-14 5.90527E-13
 -1        93 1.68997E+01 5.58958E-04-2.90698E-03-2.15149E-02-1.30504E-14 6.45945E-13
 -1        94 1.76792E+01 3.66966E-03 5.99273E-03-2.30829E-02 3.43400E-14 4.09959E-13
 -1        95 1.84047E+01 5.42285E-03 1.15226E-02-2.09987E-02-3.45562E-15 3.45207E-13
 -1        96 1.90128E+01 5.90540E-03 1.35342E-02-1.68153E-02 1.52514E-14 3.78908E-13
 -1        97 1.94768E+01 5.46264E-03 1.28446E-02-1.20215E-02-4.03228E-14 1.66968E-13
 -1        98 1.97997E+01 4.50527E-03 1.06061E-02-7.65121E-03 5.38707E-14 2.64360E-13
 -1        99 2.00023E+01 3.38066E-03 7.83917E-03-4.21420E-03-3.64647E-14 2.80955E-13
 -1       100 2.01130E+01 2.32087E-03 5.22637E-03-1.81531E-03 3.63274E-15 1.41943E-13
 -1       101 2.01596E+01 1.44548E-03 3.10761E-03-3.25160E-04 2.13218E-14 6.57758E-15
 -1       102 2.01658E+01 7.90293E-04 1.57163E-03 4.77378E-04-2.51091E-15-9.26196E-15
 -1       103 2.01496E+01 3.40703E-04 5.63514E-04 8.15925E-04 5.76410E-14-2.67343E-14
 -1       104 2.01234E+01 5.87409E-05-3.09955E-05 8.74343E-04-2.75701E-14-2.02448E-13
 -1       105 2.00948E+01-9.91197E-05-3.33604E-04 7.85438E-04-1.77937E-14 1.50931E-13
 -1       106 2.00683E+01-1.72335E-04-4.48275E-04 6.35672E-04 4.32065E-14 7.64162E-14
 -1       107 2.00459E+01-1.92381E-04-4.53288E-04 4.75791E-04-6.45041E-14 4.30168E-13
 -1       108 2.00283E+01-1.82211E-04-4.02365E-04 3.31869E-04-7.00553E-14 2.05649E-13
 -1       109 2.00152E+01-1.57343E-04-3.29450E-04 2.14442E-04 6.86464E-14-3.06382E-13
 -1       110 2.00059E+01-1.27515E-04-2.54149E-04 1.25155E-04-1.05183E-14-1.72919E-13
 -1       111 1.99998E+01-9.83142E-05-1.86480E-04 6.11700E-05-1.42735E-13 3.29736E-13
 -1       112 1.99961E+01-7.25434E-05-1.30497E-04 1.78679E-05 9.27020E-14 3.33372E-13
 -1       113 1.99942E+01-5.12557E-05-8.68384E-05-9.64793E-06 2.42475E-14-7.05627E-13
 -1       114 1.99935E+01-3.44791E-05-5.43727E-05-2.58129E-05-6.23638E-14-7.73353E-13
 -1       115 1.99937E+01-2.16940E-05-3.11994E-05-3.43181E-05 3.98460E-14-4.49558E-13
 -1       116 1.99944E+01-1.21247E-05-1.51808E-05-3.80689E-05 7.82460E-15-4.20103E-13
 -1       117 1.99953E+01-4.91538E-06-4.15577E-06-3.92424E-05-4.91308E-14-9.02481E-13
 -1       118 1.99964E+01 7.72585E-07 4.11170E-06-3.93724E-05-1.04275E-14-5.78211E-13
 -1       119 1.99976E+01 5.74676E-06 1.22944E-05-3.93333E-05-9.81033E-15-4.82527E-13
 -1       120 1.99986E+01 1.03109E-05 2.32850E-05-3.87853E-05 5.52349E-14-5.22010E-13
 -1       121 1.99994E+01 1.34994E-05 3.50623E-05-3.30855E-05-5.40260E-15-7.80754E-13
 -1       122 1.99998E+01-1.06716E-05 1.41920E-05-5.69869E-06 1.53913E-13-5.53750E-13
 -1       123 1.99998E+01-3.27798E-05 1.23714E-05 1.48606E-06-3.53653E-13 1.48733E-13
 -1       124 1.99998E+01-4.40288E-04 2.82301E-05-2.38340E-05-9.13767E-13-1.68588E-13
 -1       125 1.99998E+01-1.17594E-03 1.18058E-05-3.49711E-05-6.67400E-13 2.95005E-13
 -1       126 1.99998E+01-2.02261E-03-3.17104E-06-3.34757E-05-4.66371E-13 1.16058E-13
 -1       127 1.99998E+01-2.83511E-03-1.18959E-05-2.81090E-05 2.93034E-13-1.07441E-13
 -1       128 1.99998E+01-3.51281E-03-1.70594E-05-2.14809E-05-1.15908E-14-8.93933E-14
 -1       129 1.99998E+01-4.01783E-03-1.99888E-05-1.37917E-05-3.00905E-13-1.83458E-15
 -1       130 1.99998E+01-4.30003E-03-2.18160E-05-5.66267E-06-9.57832E-13-9.71592E-14
 -1       131 1.99998E+01-4.33662E-03-2.27373E-05 2.89946E-06-2.90353E-13 1.53697E-13
 -1       132 1.99998E+01-4.11788E-03-2.24959E-05 1.18909E-05 8.10603E-13 1.18374E-13
 -1       133 1.99998E+01-3.65015E-03-2.02411E-05 2.14023E-05 3.78507E-13-1.24677E-13
 -1       134 1.99998E+01-2.97479E-03-1.50199E-05 2.95763E-05 5.02218E-13 2.53486E-13
 -1       135 1.99998E+01-2.13086E-03-4.61586E-06 3.62456E-05 1.61030E-12 8.65014E-14
 -1       136 1.99998E+01-1.23483E-03 1.19785E-05 3.70236E-05 1.11243E-12-9.33893E-14
 -1       137 1.99998E+01-4.51482E-04 2.95884E-05 2.00066E-05 3.91200E-13 6.06962E-14
 -1       138 1.99998E+01 6.93001E-06 2.37244E-05-2.05698E-05-2.47346E-13 7.71366E-14
 -1       139-1.25912E+00-2.00923E+01-2.95473E+00-3.58408E+00 1.36013E-12 3.36502E-13
 -1       140-1.08529E+00-6.78712E+00-2.03491E+00-2.19812E+00 1.53211E-12 6.79984E-13
 -1       141 4.22191E+00 6.06111E+00-7.99455E-01 5.26108E+00 1.45250E-12 9.37417E-13
 -1       142 1.71447E+01 1.27121E+01 5.55600E-01 1.46316E+01 1.08397E-12 1.33393E-12
 -1       143 3.60469E+01 1.20431E+01 1.85904E+00 2.03228E+01 6.37601E-13 1.07936E-12
 -1       144 5.66948E+01 6.57821E+00 2.94913E+00 1.80622E+01 1.20737E-13 1.10356E-13
 -1       145 6.96505E+01 1.71528E+00 3.53301E+00 7.62588E+00-1.04680E-13-1.24986E-12
 -1       146 7.00227E+01 1.57506E+00 3.56063E+00-6.65844E+00 2.82111E-13-2.31268E-12
 -1       147 5.76203E+01 6.08884E+00 3.00259E+00-1.74462E+01 6.96887E-13-2.34102E-12
 -1       148 3.80747E+01 1.15793E+01 1.98699E+00-2.03682E+01 1.14808E-12-1.95471E-12
 -1       149 1.71198E+01 1.22527E+01 5.67642E-01-1.43433E+01 1.63780E-12-1.76781E-12
 -1       150 4.28388E+00 5.28230E+00-8.53256E-01-5.06487E+00 1.49203E-12-1.17628E-12
 -1       151-1.32393E+00-8.48205E+00-2.17163E+00 2.69818E+00 9.74720E-13-4.11754E-13
 -1       152-1.22581E+00-2.14292E+01-3.07917E+00 3.47626E+00 2.45526E-13-1.55841E-13
 -1       153-7.87319E-01-2.82730E+01-3.56385E+00-7.08235E-01-8.92439E-13-6.15931E-14
 -1       154-2.04731E+00-2.57078E+01-3.64223E+00-5.75888E+00-1.73686E-12-4.24822E-13
 -1       155-8.86405E-01-3.17163E+00-2.66202E+00-1.21925E+00-2.08022E-12-1.59062E-12
 -1       156 1.24058E+01 7.05002E+00-1.03731E+00 9.64153E+00-1.78302E-12-2.04803E-12
 -1       157 3.65906E+01 9.91626E+00 1.57015E+00 1.86795E+01-9.74054E-13-1.76470E-12
 -1       158 6.51969E+01 6.60870E+00 4.58859E+00 1.91670E+01-3.76810E-13-1.12388E-12
 -1       159 8.64406E+01 2.25689E+00 6.88350E+00 8.40621E+00-2.98303E-14 1.58540E-13
 -1       160 8.64810E+01 2.23184E+00 6.87575E+00-8.17642E+00-1.51108E-13 1.53849E-12
 -1       161 6.38965E+01 6.70685E+00 4.42189E+00-1.91835E+01-8.00665E-13 2.10143E-12
 -1       162 3.44051E+01 9.64989E+00 1.29440E+00-1.78998E+01-1.57868E-12 2.71050E-12
 -1       163 1.02273E+01 5.97632E+00-1.27175E+00-8.13818E+00-1.76670E-12 2.10321E-12
 -1       164-1.62316E+00-4.54660E+00-2.77481E+00 2.18487E+00-1.30040E-12 1.02285E-12
 -1       165-3.53021E+00-1.69936E+01-3.44018E+00 6.85029E+00 2.53131E-14 9.59233E-14
 -1       166-1.94312E+00-2.62981E+01-3.66108E+00 5.35024E+00 9.57498E-13-1.29428E-13
 -1       167 2.11553E+01 3.69108E+00-4.98239E-02-3.49456E+00-1.63024E-13-1.88606E-13
 -1       168 2.01082E+01 4.22776E+00-4.39830E-02-2.66469E+00-1.11610E-13-3.18180E-13
 -1       169 1.95615E+01 4.52023E+00-3.02909E-02-2.05490E+00-6.39454E-14-3.78080E-13
 -1       170 1.92419E+01 4.67651E+00-2.25962E-02-1.55832E+00-1.76797E-14-3.88904E-13
 -1       171 1.90479E+01 4.76492E+00-1.85917E-02-1.14298E+00 2.62881E-14-3.62974E-13
 -1       172 1.89351E+01 4.81182E+00-1.64946E-02-7.64260E-01 5.83064E-14-3.42862E-13
 -1       173 1.88880E+01 4.82729E+00-1.55581E-02-4.05711E-01 9.83937E-14-3.00190E-13
 -1       174 1.88923E+01 4.81922E+00-1.54174E-02-4.85971E-02 1.24887E-13-2.59850E-13
 -1       175 1.89370E+01 4.79285E+00-1.59496E-02 3.21124E-01 1.57095E-13-2.16842E-13
 -1       176 1.90161E+01 4.75006E+00-1.72185E-02 7.14268E-01 1.76113E-13-1.64687E-13
 -1       177 1.91300E+01 4.68953E+00-1.95813E-02 1.13321E+00 1.99587E-13-9.01510E-14
 -1       178 1.93010E+01 4.59920E+00-2.40177E-02 1.60450E+00 2.34249E-13 1.36002E-14
 -1       179 1.95774E+01 4.45321E+00-3.26674E-02 2.14078E+00 2.39938E-13 1.50350E-13
 -1       180 2.00871E+01 4.17791E+00-4.70024E-02 2.77386E+00 2.27128E-13 3.52010E-13
 -1       181 2.12182E+01 3.45571E+00-5.96215E-02 3.47483E+00 1.69918E-13 6.50292E-13
 -1       182 2.24986E+01 1.13587E+00-3.35806E-01 2.96889E+00 7.66106E-14 9.98590E-13
 -1       183 2.21901E+01 9.17461E-01 3.16770E-04-1.93547E+00-1.37976E-13 1.66256E-14
 -1       184 2.07486E+01 2.15791E-01-9.79437E-03-6.87956E-01-1.25133E-13-4.07838E-14
 -1       185 2.00850E+01 1.25382E-01 1.50172E-02-1.50459E-01-1.02352E-13-9.16151E-14
 -1       186 1.99223E+01 8.41125E-02 1.27813E-02 1.47211E-01-7.40736E-14-1.51958E-13
 -1       187 2.00502E+01 8.02642E-02 9.06878E-03 3.65537E-01-3.88387E-14-1.68214E-13
 -1       188 2.04324E+01 9.98087E-02 7.75241E-03 6.04459E-01-6.62231E-15-1.77715E-13
 -1       189 2.10726E+01 1.41915E-01 7.52580E-03 9.11861E-01-9.20444E-15-1.74156E-13
 -1       190 2.20171E+01 2.08336E-01 6.71475E-03 1.34183E+00-3.41602E-14-1.69837E-13
 -1       191 2.33375E+01 2.91887E-01 3.63827E-03 1.93848E+00 6.20597E-15-9.64717E-14
 -1       192 2.51002E+01 3.47168E-01-9.55018E-04 2.68726E+00 4.33616E-14-5.74991E-14
 -1       193 2.72047E+01 2.54259E-01 1.13791E-03 3.35619E+00 8.87393E-14-1.97099E-14
 -1       194 2.97975E+01-2.84336E-01 2.92959E-02 3.39226E+00 9.48512E-14 9.25180E-14
 -1       195 3.25672E+01-1.56905E+00 6.28820E-02 1.57248E+00 2.30135E-13 2.13995E-13
 -1       196 3.50262E+01-2.68172E+00 2.01467E-02-2.47232E+00 7.90930E-14 3.41764E-13
 -1       197 3.26317E+01 1.74241E+00-5.44308E-01-4.33730E+00-6.67799E-13-3.05462E-13
 -1       198 3.19371E+01 2.69049E+00-6.50560E-01 9.80782E-01-6.35519E-13-6.55725E-13
 -1       199 3.28794E+01 1.29148E+00-5.15407E-01 5.08877E+00-1.89154E-13-8.64694E-13
 -1       200 3.47487E+01-8.36388E-01-1.88553E-01 5.55652E+00 5.02237E-14-1.05337E-12
 -1       201 3.58210E+01-1.61247E+00 1.05448E-01 2.55502E+00 2.40735E-13-1.00917E-12
 -1       202 3.48037E+01-9.13616E-01 1.56065E-01-1.04536E+00 2.37931E-13-5.95474E-13
 -1       203 3.22104E+01-1.81385E-01 5.97598E-02-2.59626E+00 1.82944E-13-5.52544E-13
 -1       204 2.91235E+01 1.47427E-01-9.68625E-03-2.60199E+00-1.06630E-14-3.67092E-13
 -1       205 2.64376E+01 2.00812E-01-2.19934E-02-2.01793E+00 9.09750E-14-3.63288E-13
 -1       206 2.43831E+01 1.64989E-01-1.37696E-02-1.40393E+00-1.08368E-14-4.12242E-13
 -1       207 2.29228E+01 1.15524E-01-5.44588E-03-9.27924E-01 9.17682E-14-3.82373E-13
 -1       208 2.19281E+01 7.56167E-02-7.94489E-04-5.98868E-01 7.84984E-14-2.31226E-13
 -1       209 2.12901E+01 4.91379E-02 4.94642E-04-3.91104E-01 1.42459E-13-2.21292E-13
 -1       210 2.08415E+01 3.10200E-02 1.09601E-03-2.49577E-01-8.01052E-15-2.50499E-14
 -1       211 2.05476E+01 1.94470E-02 9.99658E-04-1.59378E-01 6.95818E-14-7.08468E-14
 -1       212 2.03548E+01 1.22315E-02 7.78656E-04-1.02129E-01-1.55663E-13-1.54738E-13
 -1       213 2.02282E+01 7.73814E-03 5.68135E-04-6.56818E-02 5.63452E-14-2.36519E-13
 -1       214 2.01450E+01 4.92947E-03 4.12194E-04-4.23343E-02 2.34178E-13-8.98491E-14
 -1       215 2.00923E+01 3.23599E-03 2.72421E-04-2.78744E-02 7.62268E-14-4.15040E-14
 -1       216 2.00555E+01 2.09985E-03 1.97928E-04-1.78926E-02-1.69802E-13-1.52821E-13
 -1       217 2.00314E+01 1.37238E-03 1.37515E-04-1.13390E-02 1.68155E-13-1.27905E-14
 -1       218 2.00159E+01 8.99948E-04 9.56241E-05-7.02517E-03 1.13145E-13 1.53262E-13
 -1       219 2.00060E+01 5.90054E-04 6.68610E-05-4.17646E-03-3.04309E-13-1.28991E-13
 -1       220 2.00001E+01 3.84512E-04 4.73718E-05-2.29737E-03-4.48161E-14-2.31907E-13
 -1       221 1.99967E+01 2.52935E-04 3.26035E-05-1.11805E-03 1.00090E-13-3.84065E-13
 -1       222 1.99950E+01 1.58474E-04 2.35997E-05-3.10980E-04 1.46644E-14-4.57861E-13
 -1       223 1.99943E+01 9.58627E-05 1.66177E-05 1.97007E-04-1.93122E-13-3.45628E-13
 -1       224 1.99944E+01 5.36253E-05 1.15837E-05 5.00829E-04 1.52299E-13-2.92103E-13
 -1       225 1.99949E+01 2.54296E-05 7.91626E-06 6.67496E-04 1.39989E-13-4.30123E-13
 -1       226 1.99957E+01 6.29353E-06 5.10475E-06 7.41401E-04 1.72225E-13-2.71948E-13
 -1       227 1.99965E+01-6.49137E-06 3.16011E-06 7.51104E-04 1.22410E-13 3.08366E-14
 -1       228 1.99974E+01-1.89119E-05 1.98648E-06 7.11894E-04-1.21227E-13-6.13005E-14
 -1       229 1.99983E+01-3.28469E-05 2.20565E-06 6.23841E-04-2.02777E-13-3.67800E-13
 -1       230 1.99990E+01-5.26090E-05 4.12700E-06 4.76609E-04-2.92507E-13-3.28243E-13
 -1       231 1.99995E+01-7.83123E-05 2.33876E-06 2.55584E-04 3.84749E-13-1.45472E-13
 -1       232 1.99997E+01-1.14158E-04 2.88510E-06 1.20324E-04 1.08459E-13-1.06468E-13
 -1       233 2.10751E+01 2.74656E-01-5.04794E-02 1.12808E+00 1.00610E-13 8.86306E-13
 -1       234 2.00171E+01 1.27299E-01 9.93086E-03 4.19642E-01 7.52254E-14 8.09563E-13
 -1       235 1.95323E+01 5.17022E-02 1.30813E-02 1.34186E-01 4.54714E-14 7.07639E-13
 -1       236 1.93215E+01 1.53437E-02 6.94810E-03 1.17898E-02 4.70954E-14 6.67339E-13
 -1       237 1.92407E+01-1.54409E-03 3.12651E-03-2.62427E-02 2.39852E-14 6.21515E-13
 -1       238 1.92018E+01-1.36466E-02 1.25050E-03-1.22742E-02 3.40215E-14 5.36976E-13
 -1       239 1.91445E+01-2.34269E-02 4.34703E-04 3.99393E-02 2.81849E-14 5.38579E-13
 -1       240 1.90251E+01-3.07834E-02 1.23965E-04 1.21210E-01 2.69366E-14 5.32862E-13
 -1       241 1.88147E+01-3.42589E-02 6.81085E-05 2.20529E-01 3.38254E-14 4.87095E-13
 -1       242 1.85011E+01-3.16955E-02 1.28812E-04 3.21739E-01 1.17206E-14 5.08612E-13
 -1       243 1.80943E+01-2.11947E-02 1.99148E-04 4.02745E-01 6.30701E-14 4.64305E-13
 -1       244 1.76306E+01-2.47353E-03 2.07894E-04 4.38339E-01 3.84655E-14 4.60058E-13
 -1       245 1.71713E+01 2.18728E-02 1.53066E-04 4.07026E-01-3.83670E-14 5.11741E-13
 -1       246 1.67933E+01 4.61373E-02 1.17841E-04 3.00163E-01-6.30765E-14 4.99015E-13
 -1       247 1.65714E+01 6.30944E-02 2.14939E-04 1.29078E-01 4.06908E-14 4.75773E-13
 -1       248 1.65561E+01 6.70856E-02 4.90102E-04-7.49356E-02 4.75620E-14 4.47520E-13
 -1       249 1.67579E+01 5.68504E-02 8.58422E-04-2.69728E-01 2.31473E-14 4.40025E-13
 -1       250 1.71438E+01 3.61704E-02 1.13863E-03-4.16841E-01 1.05939E-13 3.23187E-13
 -1       251 1.76492E+01 1.18742E-02 1.16836E-03-4.94073E-01 2.77304E-14 1.62443E-13
 -1       252 1.81977E+01-9.38870E-03 9.04794E-04-5.00050E-01 4.86992E-14 1.31378E-13
 -1       253 1.87215E+01-2.35798E-02 4.39139E-04-4.50059E-01-1.31243E-15 1.70834E-13
 -1       254 1.91732E+01-2.98614E-02-7.01560E-05-3.67168E-01-2.72677E-16 2.10019E-13
 -1       255 1.95296E+01-2.97113E-02-4.83631E-04-2.73711E-01 1.25482E-13 2.25940E-13
 -1       256 1.97878E+01-2.55579E-02-7.28923E-04-1.86162E-01-1.05624E-13 1.27798E-13
 -1       257 1.99588E+01-1.97043E-02-8.03275E-04-1.13751E-01-6.91287E-16 1.90731E-13
 -1       258 2.00598E+01-1.37992E-02-7.47954E-04-5.95506E-02 9.42080E-14 1.82742E-13
 -1       259 2.01096E+01-8.75729E-03-6.18268E-04-2.25654E-02 6.87013E-14 8.89558E-14
 -1       260 2.01253E+01-4.91540E-03-4.63007E-04 2.59974E-04-7.68859E-14 6.10047E-14
 -1       261 2.01202E+01-2.25045E-03-3.15496E-04 1.25706E-02-3.51435E-15 9.01237E-14
 -1       262 2.01043E+01-5.64720E-04-1.93239E-04 1.77401E-02-2.43554E-14 2.83586E-13
 -1       263 2.00842E+01 3.90099E-04-1.01740E-04 1.84892E-02-7.14134E-14 1.49189E-13
 -1       264 2.00641E+01 8.45111E-04-3.91795E-05 1.68069E-02 9.56513E-14 6.26122E-14
 -1       265 2.00460E+01 9.86077E-04-2.99797E-07 1.40317E-02-1.69697E-13 6.62696E-14
 -1       266 2.00311E+01 9.48403E-04 2.10259E-05 1.09911E-02 6.56501E-14 2.02438E-13
 -1       267 2.00193E+01 8.23263E-04 3.03890E-05 8.14575E-03 2.42401E-13 9.78845E-14
 -1       268 2.00106E+01 6.67516E-04 3.22661E-05 5.71231E-03-1.62096E-13 2.33246E-13
 -1       269 2.00045E+01 5.13582E-04 2.99279E-05 3.75689E-03-2.01778E-13 3.18606E-13
 -1       270 2.00004E+01 3.77665E-04 2.55855E-05 2.26113E-03 2.11233E-13 1.60879E-14
 -1       271 1.99979E+01 2.65898E-04 2.06206E-05 1.16569E-03 4.05363E-13 7.10050E-14
 -1       272 1.99966E+01 1.78627E-04 1.58161E-05 3.97056E-04-1.12530E-13-8.51043E-14
 -1       273 1.99961E+01 1.13175E-04 1.15505E-05-1.17103E-04-6.15296E-14-1.33095E-13
 -1       274 1.99962E+01 6.55009E-05 7.94979E-06-4.39944E-04 5.70546E-14-1.48470E-13
 -1       275 1.99966E+01 3.10815E-05 5.01599E-06-6.21859E-04 2.48170E-13-1.57227E-13
 -1       276 1.99973E+01 5.31452E-06 2.74932E-06-6.99211E-04-1.30307E-13-1.35051E-13
 -1       277 1.99980E+01-1.66247E-05 1.32517E-06-6.94038E-04-2.29375E-14-2.11896E-13
 -1       278 1.99986E+01-3.98689E-05 1.31259E-06-6.13600E-04 4.94067E-15-2.04843E-13
 -1       279 1.99992E+01-7.21034E-05 1.99894E-06-4.50480E-04 1.18923E-13-1.24652E-13
 -1       280 1.99996E+01-1.02125E-04 6.11165E-07-2.09151E-04-3.07764E-14-2.40113E-13
 -1       281 1.99997E+01-3.50592E-04-1.41102E-06-3.66066E-04-2.68300E-13-3.04588E-13
 -1       282 1.99997E+01-7.81210E-04-9.88353E-07-5.58653E-04-8.78859E-14 2.00894E-13
 -1       283 1.99998E+01-1.30468E-03-6.65305E-07-6.35780E-04-1.32282E-13 3.22756E-13
 -1       284 1.99998E+01-1.83836E-03 3.26026E-07-6.12729E-04-7.52914E-14 3.41914E-13
 -1       285 1.99998E+01-2.31769E-03 1.40204E-06-5.22192E-04-9.87369E-14-2.56575E-13
 -1       286 1.99999E+01-2.70994E-03 2.29263E-06-3.83811E-04-1.37635E-14-2.25867E-13
 -1       287 1.99999E+01-2.97099E-03 2.86874E-06-2.15209E-04 2.89935E-13-2.63521E-13
 -1       288 1.99999E+01-3.07887E-03 3.10527E-06-2.85710E-05 4.73317E-13 2.52389E-13
 -1       289 1.99999E+01-3.02196E-03 2.99776E-06 1.65347E-04 2.28518E-13 4.71355E-13
 -1       290 1.99999E+01-2.79994E-03 2.50724E-06 3.53834E-04 3.81772E-13 3.79829E-15
 -1       291 1.99999E+01-2.43413E-03 1.63399E-06 5.16539E-04 5.88956E-13 1.88909E-15
 -1       292 1.99998E+01-1.94303E-03 5.95704E-07 6.34367E-04 6.62062E-13 5.32535E-13
 -1       293 1.99998E+01-1.38455E-03-2.20661E-07 6.72108E-04 6.11191E-13-1.00654E-13
 -1       294 1.99997E+01-8.34467E-04-2.19771E-07 5.92799E-04 4.43351E-13-4.60688E-13
 -1       295 1.99997E+01-4.33052E-04 1.17794E-06 3.71823E-04 2.75832E-13-3.56516E-13
 -1       296-6.82069E-01-1.12043E+01-8.71370E-01 2.92838E+00 4.90774E-13 1.40055E-13
 -1       297 3.34098E+00-8.52927E+00-7.53075E-01 4.63782E+00 4.78367E-13 2.44776E-13
 -1       298 1.04677E+01-3.94604E+00-4.29194E-01 6.86177E+00 5.48506E-13 3.63751E-13
 -1       299 2.02222E+01 3.66172E-01-2.25124E-02 8.67957E+00 6.55948E-13 4.95326E-13
 -1       300 3.06882E+01 3.70481E+00 3.48990E-01 9.21206E+00 5.16753E-13 2.97706E-13
 -1       301 4.05403E+01 5.85581E+00 6.65850E-01 7.45947E+00 5.62132E-13-7.99916E-14
 -1       302 4.75568E+01 7.16234E+00 8.80177E-01 4.32738E+00 5.44426E-13-4.01928E-13
 -1       303 5.01512E+01 7.59706E+00 9.62542E-01 1.99478E-01 4.52000E-13-6.94996E-13
 -1       304 4.70042E+01 7.32130E+00 8.10498E-01-3.61907E+00 3.53370E-13-8.84376E-13
 -1       305 4.14488E+01 5.93414E+00 7.21225E-01-7.49456E+00 3.81615E-13-1.09013E-12
 -1       306 3.15928E+01 2.59478E+00 2.88681E-01-7.89055E+00 5.41123E-13-7.21534E-13
 -1       307 1.99865E+01 3.16394E-02-4.80606E-02-8.46753E+00 5.57970E-13-8.05495E-13
 -1       308 1.19130E+01-5.13307E+00-2.86361E-01-7.51493E+00 2.45887E-13-6.78763E-13
 -1       309 2.84587E+00-9.03546E+00-7.61407E-01-4.45730E+00 1.39694E-13-4.68209E-13
 -1       310-9.61526E-01-1.10008E+01-8.24214E-01-2.71435E+00-1.63550E-13-5.43177E-13
 -1       311-1.70839E+00-1.28673E+01-1.06065E+00-5.73155E-01-4.98775E-13-4.55525E-13
 -1       312 1.17438E+00-1.09752E+01-1.00600E+00 1.68397E+00-7.40491E-13-5.82631E-13
 -1       313 7.39995E+00-8.35311E+00-9.72074E-01 3.51812E+00-9.04832E-13-6.98788E-13
 -1       314 1.96050E+01-5.38525E+00-5.82492E-01 5.29859E+00-7.77989E-13-7.84428E-13
 -1       315 3.29796E+01-1.46866E+00 5.63084E-02 5.47232E+00-8.46517E-13-7.56561E-13
 -1       316 4.61502E+01 2.12883E+00 9.95301E-01 3.41064E+00-7.46115E-13-5.25802E-13
 -1       317 5.53259E+01 5.58367E+00 1.88384E+00 1.35323E+00-6.46955E-13-1.32672E-14
 -1       318 5.73195E+01 7.30347E+00 2.10092E+00 1.10033E-01-6.16951E-13 3.72750E-13
 -1       319 5.51248E+01 5.46925E+00 1.85938E+00-1.37155E+00-5.03514E-13 7.00440E-13
 -1       320 4.52681E+01 1.55540E+00 8.56418E-01-3.16899E+00-7.93518E-13 6.98441E-13
 -1       321 3.24558E+01-3.04808E+00-4.73115E-02-4.34934E+00-3.47333E-13 8.37552E-13
 -1       322 1.79773E+01-5.74266E+00-6.25555E-01-5.19017E+00-2.13884E-13 8.46573E-13
 -1       323 6.65378E+00-8.74887E+00-1.00686E+00-3.21175E+00-4.97380E-14 8.23185E-13
 -1       324 7.50494E-01-1.11196E+01-1.00670E+00-1.31522E+00 2.66787E-13 4.67057E-13
 -1       325-1.72995E+00-1.15292E+01-8.86578E-01 7.88595E-01 3.28357E-13 8.34610E-14
 -1       326 3.54428E+01-7.37497E-01-1.89899E-01-5.95854E+00-3.91437E-13 6.07617E-14
 -1       327 2.02206E+01 3.06616E+00-2.16694E-02-1.91896E+00-1.00450E-13-2.83504E-13
 -1       328 2.09137E+01 2.22860E+00-1.69093E-02-2.19736E+00-1.42267E-13-1.96487E-13
 -1       329 1.94806E+01 3.83033E+00-1.48142E-02-1.20832E+00 8.31670E-15-2.74317E-13
 -1       330 1.92987E+01 3.99350E+00-1.27326E-02-8.75632E-01 4.17740E-14-2.80543E-13
 -1       331 1.92091E+01 4.06924E+00-1.17270E-02-5.56285E-01 9.78446E-14-2.49276E-13
 -1       332 1.91924E+01 4.08052E+00-1.14292E-02-2.35205E-01 1.43198E-13-2.04194E-13
 -1       333 1.92318E+01 4.04258E+00-1.16570E-02 9.95638E-02 1.75375E-13-1.58915E-13
 -1       334 1.93152E+01 3.96336E+00-1.23521E-02 4.55173E-01 1.97985E-13-1.34932E-13
 -1       335 1.94359E+01 3.84394E+00-1.35950E-02 8.28061E-01 2.19460E-13-7.49912E-14
 -1       336 1.96073E+01 3.66522E+00-1.56972E-02 1.23047E+00 2.52200E-13 1.06308E-14
 -1       337 1.98572E+01 3.39022E+00-1.91841E-02 1.64882E+00 2.70399E-13 1.11902E-13
 -1       338 2.02505E+01 2.93182E+00-2.34196E-02 2.04546E+00 2.61803E-13 2.29567E-13
 -1       339 2.08519E+01 2.09162E+00-2.95545E-02 2.24125E+00 2.04733E-13 4.53379E-13
 -1       340 2.11943E+01 1.17621E+00-2.40864E-02 1.85991E+00 1.57239E-13 6.03761E-13
 -1       341 2.05040E+01 4.82670E-01 7.64107E-03 8.82567E-01 1.05057E-13 5.28009E-13
 -1       342 3.67575E+01-4.27201E+00-3.47060E-02-1.99434E+00-4.17628E-13-3.44447E-14
 -1       343 2.07236E+01 7.62786E-01 1.30355E-02-8.39290E-01-1.26414E-13-1.56732E-13
 -1       344 2.03915E+01 4.57322E-01 8.94708E-03-1.65615E-01-9.69877E-14-1.39923E-13
 -1       345 2.02580E+01 3.61137E-01 6.75405E-03 2.78928E-01-6.31331E-14-1.26021E-13
 -1       346 2.02742E+01 3.66685E-01 5.92982E-03 6.81139E-01-3.42606E-14-9.98582E-14
 -1       347 2.04158E+01 4.56674E-01 6.43842E-03 1.10839E+00-1.45060E-14-9.75801E-14
 -1       348 2.06496E+01 6.25584E-01 7.75853E-03 1.63502E+00-1.05948E-15-6.49224E-14
 -1       349 2.09395E+01 8.60487E-01 9.07092E-03 2.32255E+00 1.04205E-14-9.78873E-14
 -1       350 2.12484E+01 1.09030E+00 1.06028E-02 3.20095E+00 5.35563E-14-8.46180E-14
 -1       351 2.15704E+01 1.10704E+00 1.54593E-02 4.16562E+00 1.19362E-13-6.05447E-14
 -1       352 2.21448E+01 3.96039E-01 3.77737E-02 5.08064E+00 1.96544E-13 3.73347E-14
 -1       353 2.37139E+01-1.88932E+00 9.01185E-02 5.22695E+00 2.53603E-13 2.07806E-13
 -1       354 2.73177E+01-5.49680E+00 3.09341E-02 3.66927E+00 1.89113E-13 1.16733E-13
 -1       355 1.01739E+00-3.71958E+00 2.80076E-02 2.42121E+00-7.89646E-15 1.77330E-13
 -1       356 4.00001E+01 1.52541E-01-4.12112E-02 5.09624E+00-1.72251E-13-2.76640E-13
 -1       357 3.59210E+01-4.44925E+00-1.01255E-01 2.94265E+00 1.72397E-13-5.54043E-13
 -1       358 3.12585E+01-3.73017E+00 5.33696E-02-1.55580E+00 5.25045E-13-4.41868E-13
 -1       359 2.79643E+01-1.28482E+00 5.83852E-02-3.95201E+00 2.71765E-13-2.21581E-13
 -1       360 2.57654E+01 2.45544E-01 2.08904E-02-4.25075E+00 1.06697E-13-7.84052E-14
 -1       361 2.42754E+01 6.85999E-01 5.33591E-03-3.51432E+00-1.50678E-13-1.07661E-13
 -1       362 2.31436E+01 6.56272E-01 5.91483E-03-2.58342E+00-1.88361E-14-2.79332E-13
 -1       363 2.22687E+01 4.96768E-01 7.26931E-03-1.78729E+00 8.02110E-14-3.54254E-13
 -1       364 2.16086E+01 3.41910E-01 7.06091E-03-1.19795E+00 1.21336E-13-2.86709E-13
 -1       365 2.11436E+01 2.30488E-01 5.51870E-03-8.06401E-01 2.36703E-13-1.97625E-13
 -1       366 2.07894E+01 1.48850E-01 4.06574E-03-5.27753E-01 1.19367E-13-2.73418E-14
 -1       367 2.05408E+01 9.53405E-02 2.77640E-03-3.44782E-01 1.37254E-13 2.34747E-13
 -1       368 2.03678E+01 6.09726E-02 1.83326E-03-2.25438E-01-2.28504E-13 4.36532E-14
 -1       369 2.02482E+01 3.91119E-02 1.19848E-03-1.47728E-01-4.97071E-14 2.48255E-13
 -1       370 2.01660E+01 2.52149E-02 7.91938E-04-9.70139E-02 5.62014E-14 1.07444E-13
 -1       371 2.01118E+01 1.67530E-02 5.13255E-04-6.50903E-02 2.86717E-13-1.35088E-13
 -1       372 2.00723E+01 1.09584E-02 3.43963E-04-4.26617E-02-6.17774E-14 1.79903E-13
 -1       373 2.00455E+01 7.22030E-03 2.27153E-04-2.77751E-02-1.40666E-13 3.31220E-13
 -1       374 2.00273E+01 4.78262E-03 1.50637E-04-1.78355E-02 1.57667E-13-2.07775E-14
 -1       375 2.00153E+01 3.17468E-03 1.00492E-04-1.11751E-02-2.31739E-13-9.50851E-14
 -1       376 2.00073E+01 2.10165E-03 6.76714E-05-6.70957E-03-1.59848E-13 1.90459E-13
 -1       377 2.00025E+01 1.41187E-03 4.47727E-05-3.84954E-03-3.65895E-13-3.54516E-13
 -1       378 1.99994E+01 9.13918E-04 3.02485E-05-1.83465E-03-1.03425E-13-6.25821E-13
 -1       379 1.99977E+01 5.75830E-04 1.96730E-05-5.23172E-04 2.40127E-14-5.46669E-13
 -1       380 1.99969E+01 3.46770E-04 1.25011E-05 3.06160E-04-1.91675E-13-2.27148E-13
 -1       381 1.99967E+01 1.91629E-04 7.57989E-06 8.05580E-04-8.23999E-14-3.61261E-13
 -1       382 1.99969E+01 8.59045E-05 4.08156E-06 1.07880E-03 2.94535E-13-1.62450E-13
 -1       383 1.99973E+01 1.48093E-05 1.54383E-06 1.19152E-03 3.73421E-13-1.79527E-13
 -1       384 1.99978E+01-4.42567E-05-2.69057E-07 1.19642E-03-1.86390E-13-5.33050E-13
 -1       385 1.99984E+01-9.99230E-05-1.57332E-06 1.10481E-03-3.05056E-13-3.40289E-13
 -1       386 1.99989E+01-1.66352E-04-2.74099E-06 9.19295E-04-2.41892E-14-4.87407E-13
 -1       387 1.99994E+01-2.42926E-04-2.80522E-06 6.35105E-04 4.72822E-13-2.05282E-13
 -1       388 1.99996E+01-3.43700E-04-9.46014E-07 5.21198E-04 4.61480E-13 2.90093E-14
 -1       389 1.99780E+01 1.95436E-01 6.28546E-03 2.67246E-01 8.35011E-14 3.40547E-13
 -1       390 1.97831E+01 6.55115E-02 2.52713E-03 8.50355E-02 6.75804E-14 3.17408E-13
 -1       391 1.96710E+01-1.50419E-02 4.03337E-04 3.18947E-02 5.83738E-14 3.08374E-13
 -1       392 1.95957E+01-7.54584E-02-7.82666E-04 6.85373E-02 5.40074E-14 2.99960E-13
 -1       393 1.95173E+01-1.21283E-01-1.44050E-03 1.72696E-01 2.81063E-14 2.63116E-13
 -1       394 1.94051E+01-1.49824E-01-1.71584E-03 3.24503E-01 1.07478E-14 3.30506E-13
 -1       395 1.92372E+01-1.53258E-01-1.60197E-03 4.98523E-01 5.57180E-14 3.52029E-13
 -1       396 1.90044E+01-1.22435E-01-1.06804E-03 6.59533E-01 5.19698E-14 3.34164E-13
 -1       397 1.87141E+01-5.24566E-02-1.46792E-04 7.63674E-01 6.35034E-14 2.93371E-13
 -1       398 1.83944E+01 5.10022E-02 1.02146E-03 7.66759E-01 2.76545E-15 1.97816E-13
 -1       399 1.80936E+01 1.67848E-01 2.18988E-03 6.39164E-01-9.69316E-14 2.09733E-13
 -1       400 1.78711E+01 2.66594E-01 3.09435E-03 3.82090E-01-8.99226E-15 2.41603E-13
 -1       401 1.77796E+01 3.15809E-01 3.51732E-03 3.54505E-02 7.78475E-14 2.10314E-13
 -1       402 1.78459E+01 2.98857E-01 3.35906E-03-3.30772E-01 2.26258E-14 1.40994E-13
 -1       403 1.80601E+01 2.22468E-01 2.66265E-03-6.40326E-01 1.60882E-13 3.06396E-15
 -1       404 1.83802E+01 1.13045E-01 1.59743E-03-8.37696E-01 1.25928E-13 8.16306E-14
 -1       405 1.87481E+01 3.39626E-03 4.15448E-04-9.04005E-01 5.11063E-14 1.23649E-13
 -1       406 1.91094E+01-8.11253E-02-6.28703E-04-8.55556E-01-2.76157E-14 2.78028E-13
 -1       407 1.94253E+01-1.29498E-01-1.35670E-03-7.29749E-01 5.16303E-14 2.57093E-13
 -1       408 1.96765E+01-1.43769E-01-1.71172E-03-5.68350E-01 6.33078E-14 1.05132E-13
 -1       409 1.98599E+01-1.33427E-01-1.73996E-03-4.05593E-01-2.50835E-14 1.97360E-13
 -1       410 1.99824E+01-1.09657E-01-1.54450E-03-2.63281E-01 4.64863E-15 1.07966E-13
 -1       411 2.00559E+01-8.17063E-02-1.23650E-03-1.51312E-01 2.19122E-14 1.59380E-13
 -1       412 2.00933E+01-5.55645E-02-9.04490E-04-7.08652E-02 7.72124E-14 9.86820E-14
 -1       413 2.01059E+01-3.41890E-02-6.04771E-04-1.80671E-02 4.22589E-14 2.12994E-13
 -1       414 2.01031E+01-1.83686E-02-3.64103E-04 1.30515E-02-6.23970E-14 2.55691E-13
 -1       415 2.00917E+01-7.64265E-03-1.88105E-04 2.86306E-02-1.09933E-14 2.18607E-13
 -1       416 2.00766E+01-1.00710E-03-7.01608E-05 3.39762E-02 3.92491E-14 8.05196E-14
 -1       417 2.00608E+01 2.64217E-03 1.64438E-06 3.31958E-02-1.43855E-14 1.84570E-13
 -1       418 2.00461E+01 4.28203E-03 4.00020E-05 2.92102E-02-1.00913E-13 3.59938E-13
 -1       419 2.00334E+01 4.67773E-03 5.60326E-05 2.39406E-02-1.78527E-14 2.20817E-13
 -1       420 2.00231E+01 4.37883E-03 5.84100E-05 1.85471E-02 2.26531E-13 2.56138E-13
 -1       421 2.00150E+01 3.75174E-03 5.33384E-05 1.36547E-02-8.85506E-14 4.94706E-13
 -1       422 2.00089E+01 3.02305E-03 4.49289E-05 9.53790E-03-1.71438E-13 2.52480E-13
 -1       423 2.00046E+01 2.32059E-03 3.56964E-05 6.25780E-03 1.74126E-13 4.06680E-15
 -1       424 2.00016E+01 1.70690E-03 2.70299E-05 3.75864E-03 2.18924E-13-8.64334E-14
 -1       425 1.99997E+01 1.20402E-03 1.95744E-05 1.93029E-03 1.68557E-13 1.30650E-13
 -1       426 1.99987E+01 8.10706E-04 1.35146E-05 6.46735E-04 8.79852E-14-7.43670E-14
 -1       427 1.99981E+01 5.13480E-04 8.76925E-06-2.11992E-04-6.10709E-14-3.77500E-13
 -1       428 1.99980E+01 2.93330E-04 5.12019E-06-7.48580E-04-7.17286E-14-2.61860E-13
 -1       429 1.99982E+01 1.29237E-04 2.33205E-06-1.04344E-03 5.56860E-14 1.69233E-13
 -1       430 1.99984E+01 4.13627E-07 1.64436E-07-1.15353E-03-6.45865E-14-3.14210E-14
 -1       431 1.99988E+01-1.13827E-04-1.82709E-06-1.11452E-03-1.78544E-15-1.25913E-14
 -1       432 1.99992E+01-2.28893E-04-4.06079E-06-9.45212E-04 4.94668E-14-8.50132E-14
 -1       433 1.99994E+01-3.10119E-04-3.26084E-06-6.90085E-04 2.15453E-13-1.47122E-13
 -1       434 1.99998E+01-1.14897E-03-2.32716E-07-1.01722E-03 1.60055E-14 1.46859E-13
 -1       435 1.99997E+01-7.95219E-04-1.67235E-06-1.00744E-03 9.10662E-14 3.21083E-13
 -1       436 1.99999E+01-1.46183E-03 1.11941E-06-9.19522E-04 7.90998E-15-1.82464E-13
 -1       437 2.00000E+01-1.73079E-03 2.14651E-06-7.33639E-04 8.12781E-14-1.62282E-13
 -1       438 2.00001E+01-1.93146E-03 2.73782E-06-4.87587E-04 1.86323E-13-3.51172E-14
 -1       439 2.00001E+01-2.04962E-03 3.06498E-06-2.02747E-04-4.66739E-14-7.94370E-14
 -1       440 2.00001E+01-2.07551E-03 3.15537E-06 1.03263E-04 3.52143E-14 1.94529E-13
 -1       441 2.00001E+01-2.00371E-03 2.95511E-06 4.11966E-04 1.42634E-13 3.04058E-13
 -1       442 2.00001E+01-1.83814E-03 2.40023E-06 6.94674E-04 1.67750E-13-6.93944E-14
 -1       443 2.00000E+01-1.58067E-03 1.52761E-06 9.28268E-04 3.91786E-13 6.70572E-13
 -1       444 1.99999E+01-1.25249E-03 6.28684E-08 1.06616E-03 2.71540E-13-1.39614E-13
 -1       445 1.99997E+01-8.75830E-04-2.42102E-06 1.05629E-03 5.31294E-14-2.62556E-13
 -1       446 2.01723E+01 3.11413E-01 1.01509E-02 5.07148E-01 1.19980E-13 4.50391E-13
 -1       447 1.13354E+01-5.36029E+00-4.19010E-02 8.44481E+00 1.51518E-13 1.78871E-13
 -1       448 2.86137E+01-2.87384E+00-1.56904E-04 5.28242E+00 3.71904E-13-2.27582E-13
 -1       449 4.11357E+00-5.18960E+00-6.03146E-02 6.34200E+00 7.97973E-14 1.34059E-13
 -1       450 1.97763E+01 3.54342E+00-1.81979E-02-1.56337E+00-5.25065E-14-2.86176E-13
 -1       451 3.32352E+01 6.26120E-01-2.66303E-02 2.93980E+00 3.59495E-13-3.23824E-13
 -1       452 3.72095E+01 5.85429E+00 2.33301E-02 7.03591E-01 5.39652E-13-3.67567E-13
 -1       453 3.93297E+01 8.79486E+00 7.82395E-02 2.14985E-01 6.09901E-13-2.99712E-13
 -1       454 3.82579E+01 8.97481E+00 1.68594E-02 1.11780E-01 4.17028E-13-2.28824E-13
 -1       455 3.65211E+01 5.63109E+00-4.25046E-02-2.10228E-01 1.95219E-13-2.73018E-13
 -1       456 3.43356E+01 1.56925E+00 1.04867E-02-1.78658E+00 1.44891E-13-3.27044E-13
 -1       457 2.79441E+01-2.75024E+00-4.60115E-03-5.87435E+00 1.16684E-13-3.74339E-13
 -1       458 2.07095E+01-5.04485E+00-2.76434E-03-7.80295E+00-9.64506E-14-4.26076E-13
 -1       459 1.03569E+01-5.07687E+00 1.80396E-02-8.20733E+00-1.31700E-13-4.87846E-13
 -1       460 4.35248E+00-4.36224E+00 5.13840E-02-6.16166E+00-1.33810E-13-5.64729E-13
 -1       461 1.16638E+00-3.35950E+00 7.08342E-02-1.19643E+00-6.61502E-14-5.66047E-13
 -1       462 2.70056E+00-4.16487E+00 2.73132E-02 2.69424E+00-6.87922E-14-5.61773E-13
 -1       463 9.54373E+00-6.16358E+00-1.10158E-01 5.75954E+00-2.20296E-13-3.18690E-13
 -1       464 1.85477E+01-6.97341E+00-1.72774E-01 5.77971E+00-1.81632E-13-3.74161E-13
 -1       465 2.68898E+01-6.13594E+00-2.83627E-01 4.01800E+00-4.83252E-13-3.62280E-13
 -1       466 4.15073E+01 1.62429E+00 1.34048E-01-4.59604E+00-7.01689E-13-7.03604E-14
 -1       467 1.83989E+01-6.75376E+00-1.15580E-01-5.87095E+00 3.74950E-13 4.50810E-13
 -1       468 8.84895E+00-6.04331E+00-1.05602E-01-5.49735E+00 2.45859E-13 6.75848E-13
 -1       469 2.82851E+00-4.15965E+00 3.04117E-02-2.60943E+00-8.18998E-14 4.24494E-13
 -1       470 2.19371E+01-4.49906E+00 3.49038E-02 7.84904E+00 3.14276E-13 2.03115E-13
 -1       471 4.51626E+01 5.48327E+00 5.83606E-01 2.54890E+00-4.92106E-13 6.01602E-14
 -1       472 1.99996E+01-6.28957E-04-3.45698E-06 8.35954E-04 4.40570E-13-5.74312E-13
 -1       473 2.80872E+01-6.56981E+00-3.71443E-02-3.23743E+00 3.79738E-13 1.92218E-13
 -1       474 4.16479E+01 5.28213E+00 1.99663E-01-2.18634E+00-9.03611E-13-2.13010E-13
 -1       475 1.72248E+01-5.18862E+00 9.97285E-02-8.41395E+00-2.60875E-13-3.85386E-13
 -1       476 5.26833E+00 2.62549E-01 2.30800E-01-6.86338E-01-1.43033E-13 3.33344E-13
 -1       477 1.94940E+01 3.31857E+00-4.95903E-03-6.36060E-01 7.53696E-14-2.30164E-13
 -1       478 1.96272E+01 3.15908E+00-5.61304E-03-8.66832E-01 1.48013E-14-2.36663E-13
 -1       479 1.94838E+01 3.34370E+00-4.68888E-03-1.13560E-01 1.45683E-13-1.54852E-13
 -1       480 1.95668E+01 3.25318E+00-4.87695E-03 1.87049E-01 1.64655E-13-1.29987E-13
 -1       481 1.96857E+01 3.10933E+00-5.29016E-03 5.04018E-01 1.86141E-13-9.78265E-14
 -1       482 1.98412E+01 2.89951E+00-5.90322E-03 8.35699E-01 2.18709E-13-1.64313E-14
 -1       483 2.00401E+01 2.59844E+00-6.60487E-03 1.15291E+00 2.27746E-13 7.44532E-14
 -1       484 2.02994E+01 2.15870E+00-5.91060E-03 1.40784E+00 2.31191E-13 1.54399E-13
 -1       485 2.05751E+01 1.51994E+00-3.49751E-03 1.47751E+00 2.07983E-13 2.68386E-13
 -1       486 2.06420E+01 9.71819E-01 3.04873E-03 1.24345E+00 1.60077E-13 3.88486E-13
 -1       487 2.04852E+01 1.17062E+00 3.13496E-03-6.62223E-01-7.90944E-14-1.70754E-13
 -1       488 3.02321E+01-2.46327E+00-7.21610E-02 1.58305E+00 9.71515E-14-4.43305E-13
 -1       489 2.03311E+01 8.42191E-01 2.78296E-03-8.02670E-02-6.24658E-14-1.27458E-13
 -1       490 2.01699E+01 7.31969E-01 2.51359E-03 4.16450E-01-3.10508E-14-8.29703E-14
 -1       491 2.00086E+01 7.88104E-01 2.51304E-03 8.66776E-01 6.48190E-16-6.63921E-14
 -1       492 1.97990E+01 9.84337E-01 2.98327E-03 1.33586E+00-3.32563E-15-3.81872E-14
 -1       493 1.94581E+01 1.30515E+00 3.81677E-03 1.87687E+00-4.13410E-14-1.16643E-14
 -1       494 1.88709E+01 1.69933E+00 6.27315E-03 2.52974E+00 7.83571E-14-2.04463E-14
 -1       495 1.79777E+01 1.99594E+00 1.37252E-02 3.28700E+00 1.03372E-13-1.85728E-14
 -1       496 1.66535E+01 1.81825E+00 4.61989E-02 4.27004E+00 2.11207E-13-7.35245E-14
 -1       497 1.51208E+01 2.54907E-01 1.31921E-01 5.47713E+00 2.89154E-13-8.95881E-14
 -1       498 3.21738E+01 2.09624E+00-1.40703E-01-9.05437E-01 3.60753E-13-3.18003E-13
 -1       499 2.27107E+01-3.62240E+00 1.04281E-01-5.35698E+00 5.01814E-13 1.68719E-13
 -1       500 2.09590E+01-1.51959E-01 7.66349E-02-5.40893E+00 1.20050E-13 2.45411E-14
 -1       501 2.06761E+01 1.20215E+00 2.23678E-02-4.44671E+00-2.00467E-13-2.22978E-13
 -1       502 2.07613E+01 1.38524E+00 1.15212E-02-3.38324E+00-1.46215E-13-2.84431E-13
 -1       503 2.08006E+01 1.14353E+00 8.09326E-03-2.44576E+00-1.04580E-13-4.25478E-13
 -1       504 2.07461E+01 8.32902E-01 6.75955E-03-1.71188E+00 1.11580E-13-4.55815E-13
 -1       505 2.06409E+01 5.83009E-01 5.19122E-03-1.19580E+00 1.81778E-13-4.30176E-13
 -1       506 2.05141E+01 3.88332E-01 3.73294E-03-8.09800E-01 4.16810E-13-3.85792E-13
 -1       507 2.03961E+01 2.54735E-01 2.52600E-03-5.45035E-01 2.46312E-13-2.43759E-13
 -1       508 2.02962E+01 1.66051E-01 1.64845E-03-3.65860E-01-1.89903E-14-1.97193E-13
 -1       509 2.02167E+01 1.08174E-01 1.05932E-03-2.45486E-01-6.96587E-14-1.38459E-14
 -1       510 2.01557E+01 7.06766E-02 6.92141E-04-1.64831E-01 1.77677E-14 1.61649E-13
 -1       511 2.01118E+01 4.74174E-02 4.40547E-04-1.12866E-01 4.13700E-14 2.11942E-13
 -1       512 2.00775E+01 3.13242E-02 2.91680E-04-7.56306E-02 3.58900E-13 2.05944E-13
 -1       513 2.00527E+01 2.08330E-02 1.90378E-04-5.04638E-02-5.35259E-14 2.94404E-13
 -1       514 2.00349E+01 1.39308E-02 1.24676E-04-3.33703E-02-8.21199E-14 4.03941E-14
 -1       515 2.00223E+01 9.34723E-03 8.21014E-05-2.17219E-02 2.70717E-14-5.18462E-14
 -1       516 2.00135E+01 6.27137E-03 5.49247E-05-1.37762E-02-2.71489E-13-1.12356E-13
 -1       517 2.00078E+01 4.27791E-03 3.54225E-05-8.58694E-03-6.51935E-13-2.91322E-13
 -1       518 2.00038E+01 2.83139E-03 2.38788E-05-4.84899E-03-1.80383E-13-3.28807E-13
 -1       519 2.00012E+01 1.84138E-03 1.53690E-05-2.34656E-03-4.86173E-14-3.52145E-13
 -1       520 1.99996E+01 1.16269E-03 9.64789E-06-7.02155E-04 2.68759E-14-1.19639E-13
 -1       521 1.99988E+01 6.97998E-04 5.80773E-06 3.46243E-04 6.68674E-14-2.90045E-14
 -1       522 1.99984E+01 3.79117E-04 3.15188E-06 9.80416E-04-6.22827E-14 2.45033E-13
 -1       523 1.99984E+01 1.66761E-04 1.15749E-06 1.31340E-03 1.45966E-13-8.37201E-14
 -1       524 1.99985E+01 1.47018E-06-1.23654E-07 1.46056E-03-1.56457E-13-5.41074E-13
 -1       525 1.99987E+01-1.34911E-04-1.54993E-06 1.44931E-03-1.63456E-13-3.30664E-13
 -1       526 1.99990E+01-2.67865E-04-3.32682E-06 1.31385E-03-2.43956E-13-7.27883E-14
 -1       527 2.00991E+01 8.80642E-02 5.65919E-04 1.34720E-01 8.76165E-14 1.66820E-13
 -1       528 2.02101E+01 3.07294E-01 8.41912E-04 3.08824E-01 7.26135E-14 1.85533E-13
 -1       529 1.99999E+01-1.94468E-01-5.83204E-04 1.61795E-01 4.63772E-14 1.52722E-13
 -1       530 1.99699E+01-2.83546E-01-7.97178E-04 3.09476E-01 3.27656E-14 1.98446E-13
 -1       531 1.99205E+01-3.27418E-01-8.34756E-04 5.13163E-01 2.74737E-14 1.52992E-13
 -1       532 1.98286E+01-3.06637E-01-6.69932E-04 7.35860E-01 3.59534E-14 1.59595E-13
 -1       533 1.96778E+01-2.03292E-01-2.89802E-04 9.25315E-01 2.81911E-14 2.31200E-13
 -1       534 1.94680E+01-1.47447E-02 2.49225E-04 1.01809E+00 4.97302E-14 3.05095E-13
 -1       535 1.92236E+01 2.32987E-01 8.25525E-04 9.54876E-01-1.63127E-14 3.34167E-13
 -1       536 1.89953E+01 4.81147E-01 1.27374E-03 7.05587E-01 2.72807E-14 1.97031E-13
 -1       537 1.88467E+01 6.53910E-01 1.53577E-03 2.93422E-01 1.03643E-13 1.52927E-14
 -1       538 1.88274E+01 6.91601E-01 1.59069E-03-2.01205E-01 8.04174E-14 2.59838E-14
 -1       539 1.89476E+01 5.81737E-01 1.44134E-03-6.66465E-01 1.48832E-13-6.24107E-14
 -1       540 1.91730E+01 3.65699E-01 1.10428E-03-1.00326E+00 5.63533E-14-3.89893E-15
 -1       541 1.94426E+01 1.15806E-01 6.06002E-04-1.16133E+00 1.05273E-14 1.01526E-13
 -1       542 1.96974E+01-9.98965E-02 4.99566E-05-1.14777E+00-5.50644E-14 8.44490E-14
 -1       543 1.98997E+01-2.42234E-01-4.20323E-04-1.00938E+00-4.88319E-15 1.69217E-13
 -1       544 2.00372E+01-3.04810E-01-7.14772E-04-8.05775E-01 7.33213E-14 2.90052E-13
 -1       545 2.01162E+01-3.03512E-01-8.16767E-04-5.88623E-01-4.94480E-15 3.14841E-13
 -1       546 2.01511E+01-2.62634E-01-7.71768E-04-3.92350E-01 5.63885E-15 1.88293E-13
 -1       547 2.01572E+01-2.04680E-01-6.44468E-04-2.33939E-01-2.02925E-14 8.34818E-14
 -1       548 2.01468E+01-1.45667E-01-4.88126E-04-1.17306E-01 1.12711E-13 1.08191E-14
 -1       549 2.01286E+01-9.45980E-02-3.38209E-04-3.85638E-02-6.55633E-15 9.83032E-14
 -1       550 2.01079E+01-5.49836E-02-2.12982E-04 9.67490E-03-6.57481E-14 1.73757E-13
 -1       551 2.00877E+01-2.68657E-02-1.18350E-04 3.54717E-02-1.13954E-14 1.57066E-13
 -1       552 2.00694E+01-8.53434E-03-5.28792E-05 4.60347E-02-9.95657E-14 2.31424E-13
 -1       553 2.00537E+01 2.30463E-03-1.14455E-05 4.71045E-02-1.29481E-14 3.32826E-13
 -1       554 2.00406E+01 7.86692E-03 1.20301E-05 4.28811E-02-6.34444E-15 7.99520E-14
 -1       555 2.00299E+01 9.99137E-03 2.31632E-05 3.62185E-02 9.50842E-14-2.08819E-14
 -1       556 2.00214E+01 1.00620E-02 2.64888E-05 2.89142E-02 1.19986E-13-1.92307E-13
 -1       557 2.00149E+01 9.04388E-03 2.53403E-05 2.19986E-02-6.50408E-14 5.96859E-15
 -1       558 2.00099E+01 7.56388E-03 2.19856E-05 1.59817E-02 4.45742E-14 9.73488E-14
 -1       559 2.00062E+01 5.99904E-03 1.78548E-05 1.10434E-02 1.57250E-13-2.46517E-13
 -1       560 2.00036E+01 4.55383E-03 1.37720E-05 7.17076E-03 1.20164E-13-8.53492E-14
 -1       561 2.00017E+01 3.32074E-03 1.01531E-05 4.25075E-03-1.58595E-13 1.65087E-13
 -1       562 2.00005E+01 2.32418E-03 7.15352E-06 2.12997E-03 2.90619E-13 1.85420E-13
 -1       563 1.99998E+01 1.55021E-03 4.77421E-06 6.50128E-04 1.88658E-13-1.00085E-13
 -1       564 1.99993E+01 9.65521E-04 2.92067E-06-3.32331E-04-1.49138E-14-2.68713E-13
 -1       565 1.99992E+01 5.28463E-04 1.52997E-06-9.36939E-04-9.47328E-14-4.28992E-13
 -1       566 1.99992E+01 1.95553E-04 4.93809E-07-1.25504E-03-2.40552E-13-1.69530E-13
 -1       567 1.99992E+01-7.46341E-05-4.82222E-07-1.35258E-03-7.36241E-14 2.18285E-13
 -1       568 1.99994E+01-3.19490E-04-5.88874E-07-1.27306E-03 1.08706E-13 1.90734E-13
 -1       569 2.00002E+01-9.62331E-04 9.18964E-07-1.01111E-03 1.42246E-13-1.50950E-13
 -1       570 2.00000E+01-8.15392E-04 1.61369E-08-1.18858E-03-6.51501E-14 6.13753E-14
 -1       571 1.99998E+01-6.27891E-04-4.41225E-07-1.26167E-03 1.17782E-13 1.57633E-14
 -1       572 2.04907E+01 1.89603E+00-4.88624E-03-1.30919E+00-1.05345E-13-2.22136E-13
 -1       573 2.00003E+01-1.07624E-03 1.20279E-06-7.47487E-04-4.53635E-14-1.20516E-13
 -1       574 2.00004E+01-1.15883E-03 1.31202E-06-4.29691E-04-3.32196E-13 3.29809E-14
 -1       575 2.00004E+01-1.20857E-03 1.40329E-06-7.65729E-05-6.05945E-14 1.78966E-13
 -1       576 2.00004E+01-1.22076E-03 1.39776E-06 2.94007E-04-1.13005E-13 4.80383E-13
 -1       577 2.00004E+01-1.18896E-03 1.20880E-06 6.53810E-04 2.32464E-13 2.17983E-13
 -1       578 2.00003E+01-1.10350E-03 9.10124E-07 9.83678E-04 5.63119E-13 1.70917E-13
 -1       579 2.00001E+01-9.58856E-04 3.35622E-07 1.23457E-03 1.91170E-13 3.01657E-13
 -1       580 1.99998E+01-7.51235E-04-9.40171E-07 1.36425E-03-8.41354E-14-3.70933E-13
 -1       581 2.00353E+01-7.15306E-02-1.87764E-04 9.59493E-02 4.14747E-14 1.60254E-13
 -1       582 1.05913E+01-3.14682E+00 1.42723E-01 7.96590E+00-1.72085E-14 3.41414E-13
 -1       583 2.59209E+01-4.95394E+00 5.98470E-03 5.41962E+00 3.36398E-14-5.35641E-13
 -1       584 1.89557E+01-4.96303E+00 8.34401E-02 8.12618E+00-1.28786E-14 1.38089E-13
 -1       585 5.61128E+00-1.17475E+00 1.90865E-01 5.07194E+00-7.19147E-14 5.47895E-14
 -1       586 3.21763E+01 7.04009E+00-1.83870E-01 1.42790E+00 2.81747E-13 1.17954E-13
 -1       587 3.20681E+01 8.70109E+00-2.00903E-01-1.54409E-01 4.60007E-13 8.82645E-14
 -1       588 1.94529E+01 3.37136E+00-4.70156E-03-3.87251E-01 1.22209E-13-1.95329E-13
 -1       589 3.23238E+01 2.60336E+00-1.29413E-01 1.16017E+00 4.16334E-17 6.73350E-14
 -1       590 3.05048E+01-2.62724E+00-7.41198E-02-1.92809E+00-1.37197E-13-1.49394E-14
 -1       591 2.59239E+01-4.90288E+00 9.26958E-03-5.54587E+00-1.62585E-13-1.78073E-13
 -1       592 1.00827E+01-2.75687E+00 1.58770E-01-7.45276E+00-2.34673E-13-4.46643E-13
 -1       593 5.49249E+00-5.08031E-01 2.02507E-01-3.87220E+00-1.17645E-13-4.80033E-13
 -1       594 5.56088E+00 1.81245E-03 2.35299E-01 1.47202E+00 1.06290E-13-4.70304E-13
 -1       595 1.80684E+01-4.31046E+00 1.05300E-01 6.34374E+00 8.82766E-14-5.67046E-14
 -1       596 9.71576E+00-2.22305E+00 1.64016E-01 5.41959E+00 1.20272E-13-3.21909E-13
 -1       597 3.24327E+01 7.05618E+00-1.75989E-01-1.30729E+00 5.47978E-13-1.59560E-13
 -1       598 1.57408E+01-2.09105E+00 1.73377E-01-6.08168E+00 3.33886E-13 2.36478E-13
 -1       599 8.86872E+00-6.84743E-01 2.24486E-01-4.41069E+00 2.09277E-14 2.68993E-13
 -1       600 1.98651E+01 2.86073E+00-6.56699E-03-1.07914E+00-2.21056E-14-2.43350E-13
 -1       601 2.03860E+01 6.24543E-01 5.79408E-03 7.55400E-01 1.46545E-13 2.91123E-13
 -1       602 1.99994E+01-4.74047E-04-1.30743E-06 1.10508E-03 2.17247E-13-1.75058E-13
 -1       603 2.02678E+01 4.52342E-01 3.32542E-03 4.94048E-01 1.26438E-13 2.27252E-13
 -1       604 2.01496E+01 2.46186E+00-6.18271E-03-1.22766E+00-6.19722E-14-2.47957E-13
 -1       605 2.22054E+01-5.32133E+00 4.00079E-02-6.87334E+00-2.60569E-13-2.95629E-13
 -1       606 1.98848E+01 2.47084E+00-1.54119E-03 1.99128E-01 1.70244E-13-1.07840E-13
 -1       607 1.97618E+01 2.62158E+00-1.43688E-03-6.22381E-02 1.46692E-13-1.29147E-13
 -1       608 2.01751E+01 1.98749E+00-1.77148E-03 7.22885E-01 1.89410E-13 4.17286E-14
 -1       609 2.03290E+01 1.62026E+00-1.99668E-03 9.12263E-01 1.80906E-13 9.90442E-14
 -1       610 2.04726E+01 9.86149E-01 3.34050E-03 9.56759E-01 1.71559E-13 2.11610E-13
 -1       611 2.00007E+01-3.55927E-04 4.03416E-07-2.92581E-04 9.28760E-14 1.68874E-13
 -1       612 2.02260E+01 1.47132E+00-2.91053E-04-4.65287E-01-3.69342E-14-1.93523E-13
 -1       613 1.67452E+01-3.16878E+00 1.13075E-01-7.30256E+00-2.46202E-13-3.77025E-13
 -1       614 2.00748E+01 1.17110E+00 4.29974E-04 2.86464E-02-2.26145E-14-1.62418E-13
 -1       615 1.98139E+01 1.10720E+00 6.78775E-04 4.40364E-01-7.39830E-15-1.30270E-13
 -1       616 1.94204E+01 1.22898E+00 6.08852E-04 7.95750E-01 1.54360E-14-8.56659E-14
 -1       617 1.88142E+01 1.51448E+00 6.07909E-04 1.11655E+00 2.02980E-14-8.32414E-14
 -1       618 1.78655E+01 1.92662E+00 1.88200E-03 1.41008E+00 4.97253E-15-5.80572E-14
 -1       619 1.64794E+01 2.35273E+00 6.75831E-03 1.66910E+00 5.15102E-14-1.04501E-13
 -1       620 1.42873E+01 2.59711E+00 2.97850E-02 1.94678E+00 7.27602E-14-1.93833E-13
 -1       621 1.10639E+01 2.17529E+00 1.28115E-01 2.33145E+00 1.51180E-13-3.46296E-13
 -1       622 2.03752E+01 3.48392E-01 2.53820E-04 2.63101E-01 9.27912E-14 9.45884E-14
 -1       623 2.00003E+01-3.30626E-04-1.52772E-06-1.18542E-03-5.01859E-14 1.72506E-14
 -1       624 2.03866E+01-1.86566E-01-1.77064E-04 1.17323E-01 4.29477E-14 6.27503E-14
 -1       625 1.56251E+01 1.54090E+00 9.38362E-02-4.27346E+00-2.21561E-13-5.05446E-14
 -1       626 1.72268E+01 2.14359E+00 2.19881E-02-3.32441E+00-1.34461E-13 6.29423E-14
 -1       627 1.84745E+01 1.91609E+00 6.87605E-03-2.49699E+00-2.33541E-13 2.21380E-14
 -1       628 1.92617E+01 1.47878E+00 3.38496E-03-1.84679E+00-5.35278E-14 6.46621E-14
 -1       629 1.96967E+01 1.08034E+00 2.57383E-03-1.35963E+00 1.79271E-14-7.89930E-14
 -1       630 1.99396E+01 7.46536E-01 1.88865E-03-9.68584E-01 3.23618E-13 3.11292E-15
 -1       631 2.00527E+01 5.04499E-01 1.35303E-03-6.81944E-01 3.45264E-13-9.75644E-14
 -1       632 2.00947E+01 3.37032E-01 9.07565E-04-4.76190E-01 5.76537E-14-2.68592E-13
 -1       633 2.01008E+01 2.24104E-01 5.90574E-04-3.30821E-01 1.69376E-13-2.13554E-14
 -1       634 2.00910E+01 1.49015E-01 3.94525E-04-2.29202E-01 1.20216E-13 1.73593E-13
 -1       635 2.00762E+01 1.01377E-01 2.53314E-04-1.61267E-01 5.01671E-14 1.89513E-13
 -1       636 2.00599E+01 6.78528E-02 1.69250E-04-1.11038E-01 1.98326E-13 3.26795E-13
 -1       637 2.00453E+01 4.56697E-02 1.11958E-04-7.61299E-02 6.90927E-14 1.58369E-13
 -1       638 2.00331E+01 3.08924E-02 7.41028E-05-5.18097E-02-3.36439E-13 1.52986E-14
 -1       639 2.00235E+01 2.09742E-02 4.92455E-05-3.48461E-02 4.64996E-14 7.54573E-14
 -1       640 2.00162E+01 1.42580E-02 3.34318E-05-2.30179E-02-2.78097E-13-2.30055E-13
 -1       641 2.00109E+01 9.86658E-03 2.15890E-05-1.51221E-02-2.53619E-13-2.13786E-13
 -1       642 2.00069E+01 6.65166E-03 1.49686E-05-9.30474E-03-4.47285E-13 1.60069E-13
 -1       643 2.00041E+01 4.43153E-03 9.75256E-06-5.31029E-03-2.58746E-13-1.70158E-13
 -1       644 2.00021E+01 2.89349E-03 6.25743E-06-2.60365E-03 2.78747E-13-8.57216E-14
 -1       645 2.00009E+01 1.82837E-03 3.91006E-06-8.07612E-04-2.54640E-13-2.76080E-13
 -1       646 2.00001E+01 1.09079E-03 2.27868E-06 3.45507E-04 2.14762E-13-2.11459E-13
 -1       647 1.99997E+01 5.99443E-04 1.02275E-06 1.01822E-03 3.96920E-14-1.76221E-13
 -1       648 1.99994E+01 2.27672E-04 2.55200E-07 1.40829E-03-3.50247E-13-3.58760E-13
 -1       649 1.99994E+01-5.44887E-05-8.75726E-07 1.56213E-03-1.16185E-13-4.22896E-13
 -1       650 1.99994E+01-3.00256E-04-7.74413E-09 1.53143E-03 3.16673E-15-3.37341E-13
 -1       651 1.99998E+01-2.39675E-04 2.47766E-07-1.38794E-03-1.69363E-13 8.67805E-14
 -1       652 1.63643E+01-2.97370E+00 1.03110E-01 7.43813E+00-2.54852E-13 1.81220E-13
 -1       653 2.05011E+01-4.99507E-01-3.10149E-04 4.02464E-01 3.32025E-14 1.99544E-14
 -1       654 2.04378E+01-3.72356E-01-2.70618E-04 2.14745E-01 6.47116E-14 5.75293E-15
 -1       655 2.05470E+01-4.58161E-01-7.23599E-05 9.21281E-01-1.98161E-14 3.48758E-14
 -1       656 2.04652E+01-2.25676E-01 1.99437E-04 1.13428E+00-4.11470E-14 1.15071E-13
 -1       657 2.02953E+01 1.47552E-01 4.55277E-04 1.20402E+00-4.55179E-14 1.27360E-13
 -1       658 2.00693E+01 5.92439E-01 6.13783E-04 1.05166E+00 5.96420E-14 1.00691E-13
 -1       659 1.98608E+01 9.82004E-01 5.19305E-04 6.52578E-01 1.79658E-13 3.65362E-14
 -1       660 1.97557E+01 1.17938E+00 4.13863E-04 7.17197E-02 1.05682E-13-4.05574E-14
 -1       661 1.98020E+01 1.10927E+00 4.07802E-04-5.48094E-01 1.37215E-13-4.60205E-15
 -1       662 1.99793E+01 8.02396E-01 5.01126E-04-1.04697E+00 9.33531E-14 1.64688E-14
 -1       663 2.02120E+01 3.75812E-01 5.35629E-04-1.32101E+00-6.85332E-14 5.20012E-15
 -1       664 2.04155E+01-3.33634E-02 3.58892E-04-1.35645E+00-4.45849E-14 1.38391E-13
 -1       665 2.05374E+01-3.30734E-01 7.49280E-05-1.21091E+00-1.06432E-13 1.64176E-13
 -1       666 2.05686E+01-4.85975E-01-1.78214E-04-9.68453E-01-5.92481E-14 1.92143E-13
 -1       667 2.05295E+01-5.17892E-01-3.02433E-04-7.03133E-01 9.88179E-15 2.40226E-13
 -1       668 2.04505E+01-4.67542E-01-3.12707E-04-4.63107E-01 1.84813E-13 1.69107E-13
 -1       669 2.03587E+01-3.76600E-01-2.66677E-04-2.70897E-01 6.24867E-14 1.14416E-13
 -1       670 2.02716E+01-2.76411E-01-2.01868E-04-1.30863E-01 5.49654E-14 9.66776E-14
 -1       671 2.01981E+01-1.85738E-01-1.39887E-04-3.73421E-02 2.43603E-14 2.11104E-13
 -1       672 2.01407E+01-1.12985E-01-8.88514E-05 1.93306E-02-6.41812E-14 6.65407E-14
 -1       673 2.00981E+01-5.97135E-02-5.04135E-05 4.92335E-02-1.06662E-13 3.35929E-14
 -1       674 2.00677E+01-2.37880E-02-2.39613E-05 6.11162E-02 1.66033E-14 4.15478E-14
 -1       675 2.00466E+01-1.60328E-03-7.13321E-06 6.18144E-02-9.05758E-14-1.68335E-13
 -1       676 2.00321E+01 1.05949E-02 2.55846E-06 5.62749E-02 9.50128E-14-8.80730E-14
 -1       677 2.00221E+01 1.60637E-02 7.34631E-06 4.78464E-02 8.98106E-14 9.18798E-14
 -1       678 2.00154E+01 1.73400E-02 9.01932E-06 3.86431E-02 5.84593E-14 1.94223E-13
 -1       679 2.00107E+01 1.62497E-02 8.88643E-06 2.98895E-02 1.72984E-14 2.97788E-13
 -1       680 2.00074E+01 1.40195E-02 7.83655E-06 2.22047E-02-1.15547E-13 1.47210E-13
 -1       681 2.00051E+01 1.14176E-02 6.43254E-06 1.58209E-02 2.03405E-13-1.15623E-14
 -1       682 2.00034E+01 8.88591E-03 5.00180E-06 1.07398E-02-3.50667E-14 1.02286E-13
 -1       683 2.00022E+01 6.64741E-03 3.71347E-06 6.83988E-03-1.26118E-13 1.21643E-13
 -1       684 2.00014E+01 4.78697E-03 2.63444E-06 3.94584E-03-4.61722E-14 1.27725E-13
 -1       685 2.00008E+01 3.30811E-03 1.76831E-06 1.87084E-03 3.81825E-13 3.80728E-13
 -1       686 2.00003E+01 2.17018E-03 1.07694E-06 4.40680E-04 1.51932E-13 3.57252E-13
 -1       687 2.00001E+01 1.31233E-03 6.51535E-07-4.93353E-04-4.02150E-14 2.86353E-13
 -1       688 1.99999E+01 6.69483E-04 7.78066E-08-1.05277E-03-4.34137E-14 1.65871E-13
 -1       689 1.99998E+01 1.81581E-04-6.27829E-07-1.32455E-03-1.96187E-13 1.05590E-13
 -1       690 2.00006E+01-3.33687E-04 3.40971E-07-6.35653E-04 4.81151E-14-5.84880E-14
 -1       691 2.88793E+01-5.84274E-01-7.05696E-02-1.15380E+00 1.25792E-13-1.27790E-13
 -1       692 2.02330E+01 1.89362E+00 7.63320E-04-8.45956E-01-6.40401E-14-2.28324E-13
 -1       693 1.01979E+01-2.64607E-01 1.50262E-01-5.44421E+00-1.62287E-13-4.54081E-13
 -1       694 2.00007E+01-3.98090E-04 4.86483E-07 8.03749E-05 3.21955E-14 3.20292E-13
 -1       695 2.00007E+01-4.51392E-04 4.62837E-07 4.63105E-04 2.78514E-14 3.89846E-13
 -1       696 2.00006E+01-5.00210E-04 2.78538E-07 8.46453E-04 1.52308E-13 3.03828E-13
 -1       697 2.00004E+01-5.20565E-04-1.09330E-07 1.18718E-03 2.81776E-13 1.59700E-14
 -1       698 2.00001E+01-4.86541E-04-7.44002E-07 1.43417E-03-8.43628E-14-5.99666E-13
 -1       699 2.03642E+01 4.92154E-02-1.70442E-05 1.27427E-01 1.02394E-13 7.70570E-14
 -1       700 2.73309E+01-4.07744E+00-2.39279E-02 2.49732E+00-3.33102E-14-4.14117E-13
 -1       701 7.76232E+00 1.35749E+00 1.63658E-01 2.29160E+00-2.24055E-13 2.43708E-13
 -1       702 1.06312E+01-6.35153E-01 1.46213E-01 6.14911E+00-1.11272E-13 1.44343E-13
 -1       703 2.28801E+01-4.53019E+00 4.13499E-02 5.74791E+00-1.24775E-13-5.24008E-13
 -1       704 2.87733E+01 3.48305E+00-1.29170E-01-2.19273E+00 2.75193E-13-1.08562E-13
 -1       705 2.00005E+01-3.30157E-04 1.17273E-07-9.36861E-04 9.46565E-16-1.60593E-13
 -1       706 2.93331E+01 4.09030E+00-1.30909E-01 2.17438E+00 6.34909E-14 2.91104E-13
 -1       707 2.76848E+01-4.49972E+00-1.72948E-02-3.05740E+00-1.99802E-13-3.63876E-14
 -1       708 2.93526E+01-9.68298E-01-8.14225E-02 9.76190E-01-1.13728E-13 1.86746E-13
 -1       709 2.79502E+01 6.98323E+00-1.55763E-01 9.00860E-01 2.77112E-13 1.86310E-13
 -1       710 8.48904E+00 1.80544E+00 1.55977E-01-8.10661E-01 4.93412E-14-3.16518E-13
 -1       711 2.05490E+01-5.40462E-01-2.46247E-04 6.53505E-01 5.12300E-14 8.42428E-14
 -1       712 2.00252E+01 2.26306E+00-1.66699E-03 4.71044E-01 1.70412E-13-2.92510E-14
 -1       713 2.86202E+01 6.97465E+00-1.61424E-01-1.13787E+00 3.84505E-13 9.63986E-14
 -1       714 1.97023E+01 2.62063E+00-1.40983E-03-6.09920E-01 2.13845E-14-1.77494E-13
 -1       715 1.26110E+01 8.51966E-01 1.46547E-01-4.51342E+00-9.66657E-14 4.51167E-14
 -1       716 1.98660E+01 2.38244E+00-4.96567E-04-7.00242E-01-1.22339E-14-1.95527E-13
 -1       717 1.96734E+01 2.71015E+00-1.38471E-03-2.90406E-01 1.21669E-13-1.47823E-13
 -1       718 2.04087E+01 7.59938E-01 1.64037E-03 5.37934E-01 1.07764E-13 1.28302E-13
 -1       719 1.96449E+01 2.71878E+00-1.41966E-03-4.72914E-01 8.35747E-14-1.65109E-13
 -1       720 9.25543E+00 8.69555E-01 1.63706E-01 3.34944E+00 1.87121E-13-4.49821E-13
 -1       721 9.19835E+00 1.71998E+00 1.62977E-01-1.78206E+00-1.61396E-13 1.27044E-13
 -1       722 2.03842E+01 1.19800E+00-3.84927E-04 5.25054E-01 1.26478E-13 7.36092E-14
 -1       723 2.18052E+01-4.05983E+00 4.88107E-02-5.63155E+00-3.10038E-13-1.64737E-13
 -1       724 2.00011E+01 4.31919E-04 1.57582E-07 1.91986E-04-7.56339E-14 6.22420E-13
 -1       725 2.04501E+01 7.76777E-01 5.25497E-04 3.61282E-01 1.21976E-13 8.60501E-14
 -1       726 2.47194E+01-3.90852E+00 8.30531E-03 3.22707E+00 2.88190E-14-2.73199E-13
 -1       727 1.97547E+01 1.41740E+00-4.22163E-04-9.64643E-03-5.07895E-15-1.34292E-13
 -1       728 1.93780E+01 1.38323E+00-3.23001E-05 2.37741E-01 2.50996E-14-1.29787E-13
 -1       729 1.87841E+01 1.52214E+00-2.41098E-04 3.67128E-01 9.61999E-15-1.18393E-13
 -1       730 1.78809E+01 1.79746E+00 2.34085E-05 3.56015E-01 3.49737E-14-1.22117E-13
 -1       731 1.66086E+01 2.12294E+00 2.38524E-03 1.75825E-01-1.43067E-14-1.05330E-13
 -1       732 1.46391E+01 2.39895E+00 1.93915E-02-2.66232E-01-3.34763E-14-1.52106E-13
 -1       733 1.21499E+01 2.44094E+00 6.63971E-02-5.83245E-01 5.12325E-14-2.24652E-13
 -1       734 2.00302E+01 1.92048E+00-3.62871E-04-7.96724E-02 1.29300E-13-1.21195E-13
 -1       735 2.13458E+01-1.55733E-01 5.94095E-04 1.31322E+00-3.49742E-14 4.08052E-14
 -1       736 1.32659E+01 2.64664E+00 6.08598E-02-1.96028E+00-1.83444E-13 4.99375E-14
 -1       737 1.58466E+01 2.49512E+00 1.20022E-02-1.61893E+00-3.09637E-13-5.08822E-14
 -1       738 1.74985E+01 2.04433E+00 1.44598E-03-1.34347E+00-8.41513E-14-2.45297E-14
 -1       739 1.85071E+01 1.56627E+00 4.14187E-04-1.09826E+00-5.69652E-14-1.63885E-14
 -1       740 1.91656E+01 1.12936E+00 2.99130E-04-8.59881E-01 1.96523E-13 5.40628E-14
 -1       741 1.95566E+01 7.90879E-01 3.55919E-04-6.55355E-01 3.51918E-13-1.29043E-13
 -1       742 1.97809E+01 5.44490E-01 2.92758E-04-4.88921E-01 1.51172E-13-7.42112E-14
 -1       743 1.99049E+01 3.71393E-01 2.07572E-04-3.59115E-01 2.86307E-13 7.72395E-14
 -1       744 1.99702E+01 2.52414E-01 1.41707E-04-2.60914E-01 1.72725E-13 1.03209E-13
 -1       745 2.00010E+01 1.74820E-01 1.03232E-04-1.90926E-01 4.37187E-14 1.82802E-13
 -1       746 2.00152E+01 1.18963E-01 7.01911E-05-1.36378E-01 1.17883E-13 2.24534E-13
 -1       747 2.00194E+01 8.12654E-02 4.84317E-05-9.67099E-02 3.19800E-14-4.42592E-14
 -1       748 2.00189E+01 5.57304E-02 3.29753E-05-6.79619E-02-2.44266E-13-1.88662E-13
 -1       749 2.00163E+01 3.83408E-02 2.20579E-05-4.72119E-02-8.70207E-14-1.07213E-13
 -1       750 2.00131E+01 2.64248E-02 1.58976E-05-3.23063E-02-3.46201E-13-1.42781E-13
 -1       751 2.00102E+01 1.85344E-02 1.04125E-05-2.20694E-02-2.54093E-13-3.38308E-13
 -1       752 2.00075E+01 1.27003E-02 7.54575E-06-1.43348E-02-2.14136E-13-2.39968E-13
 -1       753 2.00053E+01 8.62878E-03 5.18177E-06-8.88490E-03-4.39827E-13-1.81697E-13
 -1       754 2.00036E+01 5.77671E-03 3.55349E-06-5.08793E-03 3.93393E-14 1.53791E-14
 -1       755 2.00024E+01 3.77849E-03 2.38423E-06-2.48709E-03-2.90930E-13-5.32525E-13
 -1       756 2.00015E+01 2.38163E-03 1.80319E-06-7.50086E-04 1.67814E-13-2.33611E-13
 -1       757 2.00009E+01 1.44380E-03 1.14316E-06 3.27350E-04 6.16810E-14-1.53604E-13
 -1       758 2.00004E+01 7.38435E-04 6.41978E-07 1.02226E-03-1.64053E-13-4.11947E-13
 -1       759 2.00001E+01 2.23398E-04 2.88546E-07 1.39270E-03-4.08834E-13-4.30544E-13
 -1       760 2.00001E+01-1.18668E-04 1.00621E-06 1.47881E-03 1.19524E-13-7.73003E-13
 -1       761 2.11750E+01 4.81831E-01 5.74915E-04 1.35652E+00 9.27782E-15 4.31583E-15
 -1       762 2.13756E+01-5.87598E-01 4.28904E-04 1.06055E+00-6.69904E-14 4.67859E-14
 -1       763 2.09223E+01 1.17300E+00 4.37971E-04 1.08113E+00 1.64619E-13 2.40771E-14
 -1       764 2.07128E+01 1.67570E+00-2.92397E-04 4.84150E-01 1.32549E-13 1.03237E-13
 -1       765 2.06637E+01 1.78492E+00-4.53357E-04-2.85596E-01 7.41091E-14 8.55939E-14
 -1       766 2.08015E+01 1.45373E+00-9.71615E-05-9.87204E-01 1.38357E-13 6.95836E-15
 -1       767 2.10380E+01 8.30977E-01 4.13153E-04-1.41972E+00-7.74803E-15 2.88340E-14
 -1       768 2.12400E+01 1.57777E-01 6.43915E-04-1.51953E+00-1.36280E-13 2.48297E-14
 -1       769 2.13153E+01-3.70207E-01 5.29922E-04-1.35663E+00-1.13459E-13-1.01352E-14
 -1       770 2.12484E+01-6.72790E-01 1.59283E-04-1.05694E+00-9.55700E-14 8.29092E-14
 -1       771 2.10784E+01-7.66405E-01-7.92048E-05-7.31468E-01 3.51388E-14 1.34563E-14
 -1       772 2.08616E+01-7.15124E-01-1.31261E-04-4.47463E-01 1.32929E-13 5.57533E-14
 -1       773 2.06447E+01-5.88405E-01-1.09140E-04-2.31193E-01 5.26696E-14 2.24002E-13
 -1       774 2.04560E+01-4.39521E-01-6.98457E-05-8.28489E-02 2.80714E-14 2.11913E-13
 -1       775 2.03069E+01-3.00793E-01-4.01723E-05 9.30624E-03-1.73478E-14 1.73856E-13
 -1       776 2.01972E+01-1.87327E-01-2.17041E-05 5.99839E-02 8.21613E-14 2.31800E-13
 -1       777 2.01212E+01-1.02829E-01-9.68735E-06 8.25357E-02-1.99818E-14 1.48101E-13
 -1       778 2.00713E+01-4.47838E-02-3.18282E-06 8.74362E-02 1.26166E-14-9.42559E-14
 -1       779 2.00400E+01-8.07866E-03 2.61933E-07 8.22150E-02-1.64032E-13 1.69419E-13
 -1       780 2.00215E+01 1.28462E-02 1.87877E-06 7.19474E-02-6.24773E-14 1.25883E-13
 -1       781 2.00110E+01 2.29304E-02 2.42044E-06 5.98553E-02 4.14619E-14-1.53759E-13
 -1       782 2.00055E+01 2.60948E-02 2.38239E-06 4.78475E-02-6.24906E-14-5.02784E-14
 -1       783 2.00029E+01 2.52132E-02 2.07566E-06 3.69479E-02 3.07443E-14-3.31407E-14
 -1       784 2.00017E+01 2.22560E-02 1.67843E-06 2.76116E-02 9.49438E-14-2.64275E-13
 -1       785 2.00013E+01 1.84889E-02 1.28642E-06 1.99472E-02-5.34649E-14-3.26600E-13
 -1       786 2.00012E+01 1.46651E-02 9.41719E-07 1.38673E-02-7.29863E-14 3.08607E-13
 -1       787 2.00011E+01 1.11876E-02 6.61486E-07 9.18665E-03-4.51867E-14 2.96186E-13
 -1       788 2.00011E+01 8.23268E-03 4.44806E-07 5.68313E-03-2.46659E-13 1.36718E-13
 -1       789 2.00010E+01 5.83918E-03 2.76580E-07 3.13480E-03-8.05891E-14 1.49596E-13
 -1       790 2.00008E+01 3.96865E-03 1.70090E-07 1.33923E-03 1.43895E-13 4.39776E-13
 -1       791 2.00007E+01 2.54270E-03 1.72221E-07 1.24298E-04 7.62820E-14 4.76430E-13
 -1       792 2.00005E+01 1.47566E-03 8.31756E-07-6.47578E-04 1.38583E-13 2.04964E-13
 -1       793 2.00009E+01 5.41235E-04-9.84128E-09-4.68518E-04-3.67583E-13 9.41757E-14
 -1       794 2.00010E+01 5.24801E-04 1.14793E-07-1.53953E-04-2.02639E-13 2.93180E-13
 -1       795 2.00009E+01 1.07681E-04 1.20986E-07 9.45581E-04 3.32977E-14 4.52740E-13
 -1       796 2.00006E+01-2.65389E-05-1.36857E-07 1.24797E-03-1.29195E-14-3.74273E-13
 -1       797 2.05288E+01 3.09915E-01-1.82693E-04 1.49248E-01 1.13694E-13 5.11511E-14
 -1       798 1.51491E+01-6.88951E-01 6.34199E-02-5.42809E+00-1.89265E-13-2.96475E-13
 -1       799 1.51892E+01-6.35296E-01 6.64401E-02 5.57621E+00-1.45961E-13 9.35623E-14
 -1       800 1.24549E+01 1.27252E+00 7.36453E-02-3.45350E+00-4.44731E-14-3.02069E-13
 -1       801 2.64367E+01 4.66659E+00-7.90060E-02 1.82991E+00 9.32553E-14 2.33286E-13
 -1       802 2.00339E+01 2.17674E+00 5.87912E-06-7.78284E-01-3.90247E-14-2.20063E-13
 -1       803 2.66897E+01 1.27055E+00-5.40654E-02-2.06794E+00 1.80125E-13-3.42534E-14
 -1       804 2.00005E+01 3.53302E-04 7.22272E-07-1.11818E-03-2.65811E-13 2.11785E-13
 -1       805 2.64488E+01 4.39398E+00-7.79861E-02-1.93396E+00 2.52735E-13-5.33028E-14
 -1       806 2.06179E+01-5.35773E-02-7.66486E-05 5.16129E-02 9.49572E-14 3.56280E-14
 -1       807 2.68635E+01-2.49302E+00-1.09994E-02 1.28465E-01 2.16754E-15-1.01142E-13
 -1       808 1.99643E+01 1.66447E+00 5.71522E-04-3.34816E-01 2.41479E-15-1.81213E-13
 -1       809 2.57708E+01 5.91353E+00-8.36128E-02-5.15895E-01 2.67508E-13 7.72234E-14
 -1       810 2.00010E+01 2.81388E-04 1.85585E-07 5.65708E-04 5.20294E-14 5.82820E-13
 -1       811 2.69756E+01 1.31366E+00-6.00621E-02 2.11516E+00-5.55875E-14 2.40930E-13
 -1       812 1.97398E+01-2.80746E+00 2.85000E-02 5.65320E+00-1.69944E-13-1.58454E-13
 -1       813 1.14427E+01 2.55913E+00 7.68125E-02 2.03417E-01-2.56319E-13 1.65971E-13
 -1       814 1.16874E+01 1.46412E+00 8.45522E-02 3.42975E+00-1.54716E-13 2.79013E-13
 -1       815 2.74632E+01-3.05638E+00-1.33841E-02-6.56265E-01-1.64287E-13 4.64854E-14
 -1       816 1.98880E+01 2.07281E+00-3.53510E-04-2.75531E-01 1.25720E-13-1.09739E-13
 -1       817 2.12788E+01-7.77903E-01 1.09501E-04 7.29665E-01 3.84381E-14 6.96193E-14
 -1       818 1.90374E+01-2.10747E+00 2.42791E-02-5.20877E+00-2.40037E-13-2.52093E-13
 -1       819 2.02951E+01 1.48389E+00-6.79088E-04 3.61813E-01 1.34084E-13-5.43441E-15
 -1       820 2.58529E+01-8.83021E-01-1.23750E-02-1.31016E+00 2.95493E-14 3.00198E-14
 -1       821 2.01734E+01 1.72238E+00-4.46297E-04 1.45106E-01 1.58606E-13-7.61773E-14
 -1       822 2.07478E+01-3.60077E-01-1.04426E-04 6.66236E-02 9.14457E-14 2.21951E-14
 -1       823 2.00008E+01 4.80654E-04-1.63962E-07-7.49990E-04-1.24932E-13-3.08488E-13
 -1       824 2.00005E+01 9.17173E-04 8.09549E-07-9.66859E-04-1.07304E-13 5.13901E-15
 -1       825 2.00007E+01 4.36876E-04 1.94968E-07-9.42158E-04-4.01743E-15 8.80418E-14
 -1       826 2.40948E+01-3.90177E+00 8.18176E-03-3.46281E+00-2.86833E-13-1.02730E-14
 -1       827 2.66085E+01-1.03103E+00-2.39834E-02 1.27001E+00-6.02166E-14 2.18446E-13
 -1       828 2.46218E+01 4.94703E+00-3.83439E-02 6.82973E-01 1.83668E-13 2.59949E-13
 -1       829 1.97336E+01 2.16406E+00-1.98148E-04-4.74940E-01 2.87080E-14-1.25550E-13
 -1       830 2.09166E+01-6.05269E-01-1.17607E-04 1.92256E-01 2.62055E-14 6.30923E-14
 -1       831 1.97917E+01 2.03392E+00-2.33467E-04-4.71727E-01 9.69811E-15-1.57970E-13
 -1       832 2.11069E+01-7.62474E-01-1.02429E-04 4.21029E-01 5.64519E-15 1.52328E-14
 -1       833 1.45357E+01 2.57256E+00 2.15881E-02-1.83177E-01-2.07088E-13 1.70959E-13
 -1       834 2.04340E+01 1.01978E+00 5.47804E-04 2.34566E-01 1.27160E-13 1.24551E-14
 -1       835 2.21106E+01-2.83832E+00 7.55532E-03 3.67334E+00-1.53202E-13-3.22485E-13
 -1       836 1.90599E+01 1.45134E+00-3.79185E-04-1.80885E-01 1.56733E-14-1.07234E-13
 -1       837 1.84005E+01 1.50922E+00-2.90993E-04-3.65204E-01 3.98745E-15-1.22570E-13
 -1       838 1.75183E+01 1.60680E+00 3.19587E-04-7.78446E-01 1.02683E-14-1.80247E-13
 -1       839 1.61558E+01 1.71109E+00 1.79608E-02-1.56509E+00-5.02970E-14-1.67285E-13
 -1       840 1.47108E+01 1.60888E+00 4.42256E-02-2.31566E+00-4.31014E-14-2.07016E-13
 -1       841 2.21223E+01 1.05393E+00-3.90082E-04 1.49974E+00 4.87310E-14 1.43488E-13
 -1       842 2.23339E+01 4.10266E-02 1.72948E-04 1.49431E+00-1.23265E-14 7.45136E-14
 -1       843 1.65412E+01 2.17784E+00 2.91170E-03-4.29783E-01-1.06111E-13 3.29281E-13
 -1       844 1.77982E+01 1.72582E+00 6.35460E-04-5.17837E-01-3.90183E-14 3.83756E-13
 -1       845 1.86591E+01 1.28536E+00 1.34289E-05-5.11186E-01 4.53936E-14 2.09368E-13
 -1       846 1.92013E+01 9.27051E-01 7.62687E-05-4.52716E-01 2.52300E-13 1.20921E-14
 -1       847 1.95363E+01 6.55177E-01 4.47055E-05-3.75732E-01 2.27635E-13-7.48486E-14
 -1       848 1.97392E+01 4.57425E-01 4.46085E-06-2.98982E-01 2.57735E-13-1.40808E-14
 -1       849 1.98593E+01 3.17445E-01-1.58981E-05-2.31271E-01 2.78413E-13-2.29901E-13
 -1       850 1.99262E+01 2.23821E-01-3.64204E-07-1.77634E-01 1.05926E-13-1.74228E-13
 -1       851 1.99664E+01 1.54880E-01-1.22013E-05-1.32332E-01 7.80087E-15-9.67072E-14
 -1       852 1.99881E+01 1.07441E-01-8.51933E-06-9.72327E-02 2.78510E-14-2.44464E-13
 -1       853 1.99991E+01 7.47201E-02-6.71018E-06-7.04599E-02-3.12727E-13-1.17278E-13
 -1       854 2.00041E+01 5.20721E-02-5.71944E-06-5.03083E-02-1.39098E-13-1.54277E-13
 -1       855 2.00059E+01 3.63237E-02-3.57632E-06-3.53204E-02-1.22716E-13-2.17484E-13
 -1       856 2.00060E+01 2.57622E-02-2.57761E-06-2.47349E-02-3.90304E-13-6.28397E-14
 -1       857 2.00054E+01 1.78550E-02-1.83058E-06-1.65237E-02-3.12817E-13-4.25040E-13
 -1       858 2.00046E+01 1.22759E-02-1.39493E-06-1.06126E-02-3.31154E-13-3.40486E-13
 -1       859 2.00036E+01 8.32748E-03-1.06936E-06-6.40798E-03-5.13405E-14-2.79215E-13
 -1       860 2.00028E+01 5.53391E-03-8.83394E-07-3.46898E-03-1.21384E-13-2.42807E-13
 -1       861 2.00021E+01 3.56253E-03-5.71887E-07-1.46339E-03-1.04518E-14-1.46015E-14
 -1       862 2.00015E+01 2.23000E-03-6.20256E-07-1.87250E-04 1.81409E-13-3.47769E-13
 -1       863 2.00010E+01 1.22336E-03-8.28717E-07 6.73146E-04-4.04440E-13-3.86145E-13
 -1       864 2.00006E+01 5.00791E-04 2.82890E-07 1.16474E-03-4.72521E-13-4.41929E-13
 -1       865 2.23288E+01-6.94180E-01 2.31236E-04 1.16968E+00-8.89740E-15 9.01824E-14
 -1       866 2.16187E+01 2.54981E+00-2.51292E-03 1.61728E-01 5.61857E-14 5.71740E-14
 -1       867 2.16784E+01 2.35131E+00-2.88783E-03-8.00251E-01 1.27859E-13 1.07140E-13
 -1       868 2.19401E+01 1.54334E+00 3.34069E-05-1.47082E+00 2.65187E-14 1.80550E-13
 -1       869 2.21824E+01 5.21484E-01-4.44784E-05-1.67414E+00-8.24003E-14 1.38722E-13
 -1       870 2.22441E+01-3.47607E-01 4.90092E-04-1.47539E+00-1.13474E-13 1.17305E-13
 -1       871 2.20777E+01-8.70446E-01 2.14856E-05-1.07859E+00-1.87210E-13 9.53396E-14
 -1       872 2.17519E+01-1.05602E+00-2.38213E-04-6.60173E-01-1.24998E-15 3.89438E-14
 -1       873 2.13632E+01-1.00575E+00-1.78868E-04-3.19685E-01-2.12588E-14 1.63139E-13
 -1       874 2.09902E+01-8.33376E-01-5.89355E-05-8.54856E-02-1.91005E-14 2.83206E-13
 -1       875 2.06762E+01-6.24093E-01 4.26109E-05 5.39766E-02 4.64133E-14 3.83327E-13
 -1       876 2.04350E+01-4.27841E-01 8.18428E-05 1.23919E-01 1.39135E-14 3.05659E-13
 -1       877 2.02627E+01-2.67241E-01 7.92625E-05 1.48817E-01-3.58816E-14 1.89640E-13
 -1       878 2.01470E+01-1.47625E-01 6.71161E-05 1.47631E-01 8.19684E-15 1.59438E-13
 -1       879 2.00739E+01-6.52873E-02 4.93427E-05 1.33196E-01-7.70531E-15 2.47289E-13
 -1       880 2.00307E+01-1.29476E-02 3.34215E-05 1.13416E-01-1.11566E-13 2.37676E-13
 -1       881 2.00072E+01 1.72005E-02 2.11696E-05 9.27880E-02-8.79357E-14 4.94626E-14
 -1       882 1.99960E+01 3.20474E-02 1.24688E-05 7.36310E-02 5.68877E-14-1.13582E-13
 -1       883 1.99920E+01 3.70527E-02 6.66428E-06 5.69577E-02-1.42006E-13 1.56224E-13
 -1       884 1.99917E+01 3.62261E-02 3.01747E-06 4.30448E-02 2.53649E-14 7.32938E-15
 -1       885 1.99931E+01 3.23324E-02 8.77019E-07 3.17847E-02 2.11456E-14 5.67706E-14
 -1       886 1.99951E+01 2.71659E-02-2.61233E-07 2.28909E-02 4.87962E-14 3.38323E-13
 -1       887 1.99970E+01 2.18117E-02-7.90725E-07 1.60131E-02-1.98018E-13 6.50421E-14
 -1       888 1.99985E+01 1.68664E-02-9.59797E-07 1.07986E-02-1.53045E-13-1.46870E-13
 -1       889 1.99996E+01 1.26069E-02-9.33789E-07 6.92298E-03-3.39844E-14 4.17689E-14
 -1       890 2.00004E+01 9.11249E-03-8.13406E-07 4.10293E-03-1.15006E-13 2.96245E-14
 -1       891 2.00008E+01 6.34933E-03-6.84069E-07 2.10097E-03-2.22112E-13 8.78769E-14
 -1       892 2.00009E+01 4.22306E-03-3.32072E-07 7.20435E-04 1.28618E-13 3.29142E-14
 -1       893 2.00009E+01 2.62938E-03 4.50331E-07-1.85077E-04 6.10852E-14-8.02380E-14
 -1       894 2.47994E+01 2.55330E+00-3.18580E-02-1.98310E+00 8.91717E-14 7.10153E-14
 -1       895 2.06728E+01 2.15333E-01 2.62776E-04-3.02230E-02 1.19708E-13 3.26900E-14
 -1       896 1.97755E+01 2.16437E+00-3.23657E-04-4.12582E-01 9.00278E-14-1.36593E-13
 -1       897 1.94936E+01 1.50988E+00-1.50645E-03-1.85247E-01 2.54851E-14-8.88949E-14
 -1       898 2.18128E+01 2.03360E+00-4.89563E-04 1.02964E+00 1.44000E-13 1.37503E-13
 -1       899 2.48313E+01-2.87352E+00 2.27036E-03 1.08679E+00 6.22831E-15-1.84219E-13
 -1       900 2.41621E+01 4.17842E+00-4.18785E-02-1.19286E+00 1.70753E-13 2.63111E-13
 -1       901 1.81423E+01-1.02586E+00 1.42794E-02 4.52039E+00-1.10671E-13-1.39598E-14
 -1       902 2.49107E+01 2.64742E+00-3.52737E-02 1.99026E+00-2.17543E-14 3.20207E-13
 -1       903 1.43289E+01 1.95478E+00 2.62562E-02 1.96787E+00-2.25264E-13 5.12318E-13
 -1       904 1.56111E+01 6.31882E-01 2.29417E-02 3.73542E+00-2.96010E-14 3.96879E-14
 -1       905 2.21135E+01-1.04581E+00 3.38174E-04 7.36049E-01-2.64325E-14 1.34832E-13
 -1       906 2.16562E+01-2.66675E+00 1.43476E-02-3.89256E+00-1.58838E-13-6.38792E-14
 -1       907 1.96798E+01 1.75267E+00 1.19453E-04-3.99195E-01 5.52550E-14-1.28335E-13
 -1       908 2.08645E+01-2.09982E-01-1.00683E-04-1.07481E-01 1.07560E-13 3.74955E-14
 -1       909 2.45897E+01 6.07161E-01-6.19026E-03-1.89781E+00 6.57566E-14-1.47429E-13
 -1       910 2.00013E+01 1.53082E-03-3.22520E-07-8.92468E-05-1.08936E-13 3.23091E-13
 -1       911 2.11146E+01-5.83928E-01-1.11509E-04-8.02803E-02 5.13551E-14 6.39115E-14
 -1       912 2.00011E+01 1.52469E-03 4.86204E-08-5.26086E-04 1.22157E-13-4.69085E-13
 -1       913 2.00009E+01 1.78034E-03-1.09322E-06-6.04759E-04-2.28374E-14 2.93280E-13
 -1       914 2.00008E+01 1.07507E-03-2.71362E-07-8.27668E-04-2.21940E-13 5.80797E-13
 -1       915 2.00012E+01 1.60496E-03-2.79401E-08-3.22083E-04 7.17777E-14 3.01834E-13
 -1       916 2.00011E+01 7.98543E-04-8.17341E-07 8.51060E-04-4.99895E-13-1.92747E-13
 -1       917 2.58739E+01-2.68063E+00-1.42334E-02-2.55658E-01-1.53887E-13 1.18991E-13
 -1       918 2.51357E+01 6.73890E-01-1.20738E-02 1.92441E+00 1.49785E-14 2.52740E-13
 -1       919 1.61474E+01 2.18192E-01 3.19769E-03-3.94901E+00-1.36152E-13-2.03755E-13
 -1       920 2.46595E+01-1.89055E+00-1.99283E-03-4.32008E-01-7.70319E-14-6.31973E-14
 -1       921 1.97644E+01 1.73079E+00 2.70775E-04-4.79050E-01 3.68195E-14-8.97681E-14
 -1       922 2.00014E+01 1.31874E-03-1.05424E-06 1.96825E-04-3.05219E-13 6.77915E-13
 -1       923 2.02944E+01 1.25256E+00 5.23330E-04-1.49210E-01 1.04879E-13-8.29520E-14
 -1       924 2.00013E+01 1.09840E-03-1.08948E-06 5.05997E-04-3.89389E-13 5.01920E-13
 -1       925 2.14280E+01-8.90350E-01-2.07381E-04 6.54666E-02 2.08936E-14 4.84788E-14
 -1       926 2.01125E+01 1.45311E+00 8.63141E-05-3.34482E-01 7.44343E-14-1.13892E-13
 -1       927 2.49584E+01-1.29055E+00-2.14209E-03 1.06685E+00-1.46586E-14 1.87724E-13
 -1       928 2.29271E+01-2.44623E+00 5.46412E-03 1.84537E+00-1.07743E-13-6.75911E-14
 -1       929 1.85400E+01 1.09808E+00 6.22975E-04-1.20201E+00-2.08609E-14-2.05620E-13
 -1       930 1.78666E+01 8.78382E-01-1.17549E-03-1.99674E+00-5.73128E-14-2.12430E-13
 -1       931 2.34874E+01 4.34668E-01-5.82894E-03 1.72207E+00-1.50839E-14 2.28969E-13
 -1       932 1.61608E+01 1.87140E+00 4.96659E-03 1.00462E+00-2.17828E-13 5.01571E-13
 -1       933 2.03771E+01 1.15145E+00 4.81440E-04 5.27310E-02 1.27596E-13-7.55396E-14
 -1       934 1.73878E+01 1.60584E+00 7.61459E-04 4.42757E-01 3.75927E-14 3.99754E-13
 -1       935 1.82891E+01 1.27994E+00 5.39434E-04 1.06386E-01-5.76487E-14 5.76544E-13
 -1       936 1.88987E+01 9.72928E-01 4.19698E-04-6.29234E-02 1.04541E-13 4.57295E-13
 -1       937 1.93024E+01 7.19065E-01 2.54014E-04-1.35068E-01 1.20437E-13 1.81527E-13
 -1       938 1.95653E+01 5.21866E-01 1.31089E-04-1.53606E-01 2.32232E-13 9.50402E-14
 -1       939 1.97336E+01 3.74682E-01 7.28166E-05-1.45583E-01 2.07725E-13 1.88549E-13
 -1       940 1.98357E+01 2.71878E-01 4.97328E-05-1.27149E-01 9.99095E-14-2.27130E-14
 -1       941 1.99035E+01 1.93321E-01 1.97747E-05-1.04457E-01-1.26091E-13-1.49336E-13
 -1       942 1.99451E+01 1.37418E-01 1.22594E-05-8.26483E-02-3.67935E-14-1.87151E-13
 -1       943 1.99702E+01 9.76866E-02 6.42898E-06-6.34862E-02-1.68237E-13-2.02902E-13
 -1       944 1.99851E+01 6.94389E-02 2.85027E-06-4.75430E-02-2.33374E-13 4.27118E-14
 -1       945 1.99937E+01 4.93159E-02 2.55987E-06-3.47667E-02-1.12227E-14-9.11038E-14
 -1       946 1.99983E+01 3.55265E-02 2.84862E-07-2.52174E-02-3.40757E-13-2.89564E-13
 -1       947 2.00009E+01 2.50095E-02-1.42398E-07-1.74673E-02-3.76538E-13 4.89464E-14
 -1       948 2.00021E+01 1.74590E-02-7.82029E-08-1.16732E-02-2.79186E-13 1.64725E-13
 -1       949 2.00025E+01 1.20302E-02-2.68732E-07-7.41719E-03-1.40599E-13 2.46569E-13
 -1       950 2.00025E+01 8.13461E-03-4.21080E-07-4.35562E-03-1.35545E-13 1.52609E-13
 -1       951 2.00023E+01 5.34936E-03-2.84018E-07-2.20822E-03-1.55240E-13-4.47091E-14
 -1       952 2.00020E+01 3.45246E-03 6.96379E-07-8.06601E-04-4.52729E-14-1.09452E-13
 -1       953 2.00016E+01 2.00411E-03 1.32933E-06 1.78544E-04-3.90485E-13-1.95531E-13
 -1       954 2.33036E+01 1.13767E+00-1.54060E-03-1.85301E+00-3.30067E-14 2.00381E-13
 -1       955 2.34595E+01-7.56553E-01-2.40784E-03 1.28686E+00-1.26088E-14 2.46827E-13
 -1       956 2.27246E+01 3.51119E+00-9.46604E-03-3.98210E-01 1.48199E-13 1.84940E-13
 -1       957 2.33698E+01-2.21592E-01-6.57062E-03-1.62121E+00-3.79460E-14 2.20787E-14
 -1       958 2.31077E+01-1.08595E+00 5.32626E-05-1.05741E+00-1.06462E-13-4.15698E-14
 -1       959 2.25757E+01-1.40717E+00 7.59620E-04-4.77974E-01-8.91636E-14 3.96855E-14
 -1       960 2.19525E+01-1.35426E+00 2.42560E-04-5.01009E-02-8.23422E-14 5.52813E-14
 -1       961 2.13737E+01-1.11404E+00-1.15551E-04 1.99773E-01-2.09281E-14-1.64324E-14
 -1       962 2.09044E+01-8.23141E-01 7.50252E-05 3.09356E-01-4.87429E-14 1.03106E-13
 -1       963 2.05553E+01-5.55179E-01 2.37299E-05 3.29828E-01 4.08948E-14 1.63490E-13
 -1       964 2.03144E+01-3.40192E-01-4.40897E-06 3.02751E-01 4.38305E-14 4.42408E-14
 -1       965 2.01585E+01-1.82999E-01-3.43882E-06 2.56117E-01 5.16468E-14-8.32889E-14
 -1       966 2.00639E+01-7.65550E-02-9.20241E-06 2.05986E-01-7.56624E-14-1.69666E-13
 -1       967 2.00110E+01-9.87501E-03-1.35732E-05 1.60123E-01-1.98974E-15-8.69404E-14
 -1       968 1.99848E+01 2.79313E-02-1.39386E-05 1.21500E-01-1.34747E-13-7.30010E-14
 -1       969 1.99747E+01 4.61041E-02-1.20496E-05 9.05416E-02 5.45383E-14-8.05842E-14
 -1       970 1.99735E+01 5.17823E-02-9.39999E-06 6.64891E-02-2.06994E-13-1.00441E-14
 -1       971 1.99767E+01 5.01191E-02-6.72059E-06 4.81818E-02-8.98464E-14 1.17361E-13
 -1       972 1.99815E+01 4.46266E-02-4.37557E-06 3.44422E-02-5.03578E-14 2.67940E-13
 -1       973 1.99865E+01 3.75715E-02-2.47418E-06 2.42388E-02-3.44446E-14 1.66673E-13
 -1       974 1.99909E+01 3.03210E-02-1.12304E-06 1.67270E-02 2.35516E-15 1.48534E-13
 -1       975 1.99945E+01 2.36276E-02-2.14874E-07 1.12445E-02 8.28574E-15-3.54320E-14
 -1       976 1.99971E+01 1.78430E-02 3.41751E-07 7.28180E-03-1.58006E-13-1.06299E-13
 -1       977 1.99989E+01 1.30711E-02 6.35821E-07 4.45185E-03 1.16434E-14-1.26510E-13
 -1       978 2.00001E+01 9.27037E-03 3.49774E-09 2.46144E-03 1.40122E-15-2.66020E-13
 -1       979 2.00008E+01 6.32460E-03-4.34780E-07 1.09951E-03-1.81940E-13-2.26883E-13
 -1       980 2.00010E+01 4.08880E-03-5.28004E-07 1.91741E-04-1.03909E-13 2.07800E-13
 -1       981 1.99283E+01 1.62008E+00 8.02046E-04-4.55144E-01 5.45214E-14-9.22762E-14
 -1       982 2.00010E+01 1.31940E-03 1.77731E-06-6.75964E-04-5.68478E-15-2.10755E-13
 -1       983 2.28217E+01 3.23941E+00-1.10078E-02 8.32486E-01 1.59350E-13 3.39709E-13
 -1       984 2.40701E+01-2.91002E+00 2.80776E-03-1.71026E+00-1.51696E-13-3.91676E-14
 -1       985 2.31917E+01 2.70719E+00-1.08792E-02-1.50743E+00 6.24084E-14 1.99773E-13
 -1       986 1.90486E+01 1.23585E+00-5.01783E-04-7.28942E-01-6.49150E-15-1.94610E-13
 -1       987 2.17822E+01-1.07671E+00-1.69166E-04 3.41541E-01-2.62938E-14 7.52279E-14
 -1       988 1.94287E+01 1.39770E+00 6.29140E-04-4.85571E-01 8.76501E-15-1.51850E-13
 -1       989 2.02480E+01-1.45309E+00 2.49090E-04 3.27100E+00-9.80255E-14-3.02747E-13
 -1       990 1.87196E+01-8.43232E-01 8.78276E-03-3.90543E+00-1.43815E-13-2.49947E-13
 -1       991 2.32000E+01 1.97428E+00-1.14435E-02 1.64122E+00 5.10762E-14 1.97732E-13
 -1       992 2.00016E+01 2.70477E-03 1.92354E-07-1.85810E-04-1.05383E-13 4.81524E-13
 -1       993 2.34191E+01-2.18066E+00-2.86307E-03 5.53625E-01-1.69150E-13-2.42573E-13
 -1       994 2.42505E+01-2.22032E+00 3.84883E-03-1.47656E-01-1.05279E-13 9.86972E-14
 -1       995 2.00014E+01 2.91971E-03-6.04384E-07-2.82613E-04 1.38529E-13-9.72621E-16
 -1       996 1.66845E+01 1.09632E+00 6.77705E-03 2.30374E+00-2.91893E-13 2.40570E-13
 -1       997 2.31154E+01-1.36839E+00 1.24532E-03 6.80871E-01-5.81518E-14 1.79467E-13
 -1       998 2.10764E+01-3.97133E-01-4.88852E-06-3.62555E-01 4.10323E-14 1.96308E-14
 -1       999 2.00011E+01 2.86650E-03-1.26431E-06-3.04242E-04-2.99946E-13 3.56999E-13
 -1      1000 2.43685E+01-3.70747E-01-4.56253E-03-1.57549E+00 2.33856E-14-6.83524E-14
 -1      1001 2.07924E+01 8.33855E-02 2.80002E-04-2.76607E-01 9.22785E-14-2.15732E-14
 -1      1002 1.81080E+01-3.64037E-02 3.50097E-03 3.09976E+00-1.60588E-13-1.75045E-13
 -1      1003 2.00013E+01 2.89205E-03-1.40115E-06-3.28474E-04 2.84298E-13-7.13440E-14
 -1      1004 2.00017E+01 2.57691E-03-1.96370E-06-9.26021E-05-4.19245E-13 3.25953E-13
 -1      1005 2.05225E+01 7.20968E-01-1.14739E-03-8.87129E-02 1.19008E-13-7.34771E-14
 -1      1006 2.03762E+01 8.35325E-01 7.48633E-05-4.34715E-01 4.89533E-14-6.53729E-14
 -1      1007 2.14634E+01-8.47340E-01 2.01980E-04-3.48635E-01 3.68460E-14 4.69696E-14
 -1      1008 2.21275E+01-2.13424E+00 7.49011E-04-2.50338E+00-1.01267E-13-6.05826E-14
 -1      1009 1.96419E+01-4.00418E-01 1.12920E-02-2.56441E+00-1.10329E-13-1.17018E-13
 -1      1010 2.00012E+01 4.35569E-03 4.65741E-06-1.01038E-04-1.85313E-13 1.33605E-13
 -1      1011 1.81468E+01 1.04955E+00 2.38433E-04 9.23363E-01 1.04800E-13 3.04260E-14
 -1      1012 1.87020E+01 8.99452E-01 2.86626E-04 4.79512E-01-5.36158E-14 9.21381E-14
 -1      1013 1.91126E+01 7.21786E-01-5.15671E-05 2.17251E-01-1.39453E-13 2.32508E-13
 -1      1014 1.94039E+01 5.59292E-01-8.51686E-05 7.02154E-02-1.97445E-14 2.55687E-13
 -1      1015 1.96054E+01 4.23587E-01-5.66622E-05-6.72990E-03 1.75027E-13-1.37888E-13
 -1      1016 1.97370E+01 3.20753E-01-8.67638E-06-4.09448E-02 6.30064E-14-4.47335E-13
 -1      1017 1.98307E+01 2.37045E-01-1.75173E-05-5.36530E-02 5.02202E-15-3.21987E-13
 -1      1018 1.98927E+01 1.74208E-01-6.98568E-06-5.37273E-02-1.96749E-13-3.39741E-13
 -1      1019 1.99332E+01 1.27510E-01-3.23304E-06-4.77858E-02-2.38544E-14-3.69028E-13
 -1      1020 1.99595E+01 9.30159E-02-1.72989E-06-3.96378E-02-1.32251E-13-3.92626E-13
 -1      1021 1.99764E+01 6.76197E-02-5.40197E-08-3.13195E-02-1.21687E-13-4.09940E-13
 -1      1022 1.99866E+01 4.97157E-02 1.21192E-06-2.41203E-02-1.29902E-13-1.53823E-13
 -1      1023 1.99935E+01 3.57198E-02 4.45158E-07-1.76747E-02-3.17196E-13 3.38578E-14
 -1      1024 1.99976E+01 2.54393E-02 7.55699E-07-1.24827E-02-2.55623E-13-2.92276E-14
 -1      1025 2.00000E+01 1.78963E-02 6.30109E-07-8.44179E-03-1.31885E-13 3.84100E-13
 -1      1026 2.00013E+01 1.23831E-02 4.31292E-07-5.39359E-03-2.76489E-13 3.61265E-13
 -1      1027 2.00018E+01 8.37698E-03 2.69945E-07-3.16121E-03-3.98282E-13 5.41154E-13
 -1      1028 2.00020E+01 5.60737E-03 9.86132E-07-1.65007E-03-1.64903E-13 8.39655E-14
 -1      1029 2.00019E+01 3.91622E-03-7.73686E-08-7.38513E-04-6.89424E-14 4.97813E-14
 -1      1030 2.23046E+01-1.82710E+00-1.73268E-03 9.50349E-01-1.52488E-13-2.21003E-13
 -1      1031 2.14233E+01-1.32962E+00-1.46476E-03 1.03472E+00-6.31250E-14-1.21723E-13
 -1      1032 2.07981E+01-8.67350E-01-7.59083E-04 9.38142E-01-3.14273E-14-4.24293E-14
 -1      1033 2.03925E+01-5.07223E-01-1.98005E-04 7.69374E-01-5.61142E-15-1.40178E-13
 -1      1034 2.01485E+01-2.53668E-01-1.21432E-04 5.91102E-01 1.00321E-13-1.73939E-13
 -1      1035 2.00135E+01-9.01710E-02-4.95753E-05 4.33767E-01 9.46423E-14-2.35580E-13
 -1      1036 1.99467E+01 7.97691E-03-5.11516E-05 3.07836E-01 4.70746E-14 2.84701E-14
 -1      1037 1.99208E+01 6.09288E-02-4.43568E-05 2.12854E-01-1.22873E-13 2.76853E-15
 -1      1038 1.99177E+01 8.43393E-02-3.35668E-05 1.44199E-01-4.63160E-14 1.16025E-13
 -1      1039 1.99259E+01 8.96712E-02-2.25365E-05 9.61295E-02-5.24960E-14-7.82947E-14
 -1      1040 1.99387E+01 8.47875E-02-1.41047E-05 6.32593E-02-2.40443E-13 2.09315E-14
 -1      1041 1.99522E+01 7.48229E-02-8.74145E-06 4.11809E-02-1.80085E-13-6.86195E-14
 -1      1042 1.99646E+01 6.29764E-02-5.28194E-06 2.65388E-02-5.34532E-14-2.63498E-13
 -1      1043 1.99751E+01 5.11300E-02-2.64755E-06 1.69291E-02 2.71439E-14-3.13785E-13
 -1      1044 1.99833E+01 4.02925E-02-1.53832E-06 1.06541E-02 9.79882E-14-1.91902E-13
 -1      1045 1.99896E+01 3.09218E-02-9.49521E-07 6.57416E-03-2.71087E-14-2.14074E-13
 -1      1046 1.99941E+01 2.31421E-02-6.59983E-07 3.92779E-03-1.54353E-13-1.79307E-13
 -1      1047 1.99973E+01 1.68854E-02-5.57341E-07 2.21540E-03-1.53242E-13-1.04930E-13
 -1      1048 1.99993E+01 1.19849E-02-8.76351E-08 1.11055E-03-2.14618E-13 2.12454E-13
 -1      1049 2.00005E+01 8.24006E-03 7.16954E-07 4.22203E-04-2.27962E-13 4.70730E-13
 -1      1050 2.00010E+01 6.06081E-03-7.54671E-07 1.42658E-04-2.89291E-13 3.35767E-13
 -1      1051 2.08346E+01-4.65122E-02 5.55482E-04-5.89326E-01 5.74650E-14 2.23023E-14
 -1      1052 1.95711E+01-5.61017E-01-2.96431E-04 2.44656E+00-1.77936E-13-3.28823E-13
 -1      1053 1.95236E+01 2.17650E-01-8.32917E-04-1.79230E+00-4.09550E-14-1.17055E-13
 -1      1054 2.13717E+01-1.59460E+00 2.55029E-03 2.00642E+00-1.55523E-13-2.14179E-13
 -1      1055 1.95865E+01 6.68134E-01-5.53364E-05-1.20349E+00-2.66595E-14-9.18097E-14
 -1      1056 1.75041E+01 1.13288E+00 1.83176E-03 1.48838E+00-1.89543E-13 1.15011E-13
 -1      1057 2.00017E+01 2.71623E-03 3.58160E-07-1.48624E-04-2.93067E-13 1.53512E-13
 -1      1058 2.25453E+01-1.45236E+00-1.00510E-04 1.51811E-01-1.76312E-14 1.21155E-13
 -1      1059 2.01188E+01 1.05828E+00-1.32991E-03-5.80320E-01 1.47113E-14-7.29963E-14
 -1      1060 2.19569E+01-1.22454E+00-1.18263E-04-1.86450E-01-6.97578E-14 9.19726E-14
 -1      1061 1.97122E+01 1.02785E+00 2.37162E-04-8.02925E-01-1.20629E-14-1.02100E-13
 -1      1062 2.31327E+01-2.22574E+00-8.85264E-04-1.19455E+00-8.23693E-14 2.98297E-14
 -1      1063 2.00015E+01 4.52205E-03-3.56564E-07-4.77372E-04-5.65560E-14-1.01731E-13
 -1      1064 2.00013E+01 4.39992E-03 1.91557E-06-2.59347E-04 2.10858E-14 7.13890E-14
 -1      1065 2.00016E+01 4.65845E-03-3.45290E-08-6.53634E-04-2.49092E-13 3.60278E-13
 -1      1066 1.83160E+01 4.41756E-01 7.48965E-04 2.03377E+00-2.08763E-13-5.54542E-14
 -1      1067 2.04096E+01 4.10765E-01-1.49412E-03-7.83372E-01 6.16789E-15-5.79724E-14
 -1      1068 2.12051E+01-5.89234E-01 3.22246E-04-7.36242E-01-7.01003E-15 3.32864E-14
 -1      1069 2.01144E+01 5.27320E-01 9.80248E-04-9.85361E-01 8.62883E-15-8.12667E-14
 -1      1070 2.00018E+01 4.37807E-03 5.37549E-06-7.33199E-04-2.55853E-14 1.99370E-13
 -1      1071 1.91436E+01 5.51399E-01 4.91351E-04 6.21283E-01-2.42903E-14-1.12656E-13
 -1      1072 1.93758E+01 4.80055E-01 5.53975E-05 3.48855E-01 5.93986E-14 1.90669E-14
 -1      1073 1.95529E+01 3.98074E-01-3.85007E-06 1.80953E-01-9.37328E-14-1.09931E-13
 -1      1074 1.96808E+01 3.22381E-01 2.19684E-05 8.54380E-02-5.10748E-14-2.67828E-14
 -1      1075 1.97797E+01 2.52315E-01-5.28377E-06 2.80519E-02 7.17117E-15-2.35131E-13
 -1      1076 1.98503E+01 1.94447E-01-2.94792E-06-1.84703E-03-1.29086E-13-4.36333E-13
 -1      1077 1.98999E+01 1.48141E-01-4.28265E-06-1.54637E-02-7.73854E-14-1.35808E-13
 -1      1078 1.99343E+01 1.11833E-01-4.89849E-06-1.99167E-02 9.35781E-14-3.02390E-13
 -1      1079 1.99579E+01 8.37471E-02-4.38495E-06-1.95892E-02-3.66209E-14 1.53764E-13
 -1      1080 1.99733E+01 6.31285E-02-1.56143E-06-1.71921E-02-1.21508E-13-7.36005E-14
 -1      1081 1.99842E+01 4.64411E-02-2.72139E-06-1.38974E-02-4.78561E-14-1.54199E-13
 -1      1082 1.99914E+01 3.38075E-02-1.71733E-06-1.06102E-02-2.43883E-13 2.59872E-13
 -1      1083 1.99960E+01 2.42919E-02-1.31289E-06-7.69502E-03 1.46494E-14 5.08398E-13
 -1      1084 1.99989E+01 1.71762E-02-1.00900E-06-5.29166E-03-1.17605E-13 4.03307E-13
 -1      1085 2.00006E+01 1.19033E-02-6.94586E-08-3.41522E-03-3.67171E-13 3.87626E-13
 -1      1086 2.00014E+01 8.19303E-03-2.87471E-06-2.06477E-03-4.27511E-13 5.19029E-13
 -1      1087 2.01677E+01-4.39207E-01 1.01629E-03 1.16381E+00 9.46502E-14-1.42947E-14
 -1      1088 1.99413E+01-1.55931E-01 1.33571E-05 8.47558E-01 1.70368E-13-1.71035E-13
 -1      1089 1.98467E+01 7.61910E-03 1.42493E-04 5.89900E-01 3.76435E-16-2.99574E-13
 -1      1090 1.98193E+01 9.45085E-02 5.99270E-06 3.96731E-01-1.97332E-13-4.19526E-14
 -1      1091 1.98278E+01 1.31917E-01 1.77609E-05 2.58544E-01-8.34275E-15-5.75622E-14
 -1      1092 1.98515E+01 1.39964E-01 9.17196E-06 1.63891E-01-1.03635E-13-5.76775E-15
 -1      1093 1.98797E+01 1.32093E-01 3.62971E-07 1.01157E-01-3.75576E-14 4.24721E-14
 -1      1094 1.99068E+01 1.16638E-01-2.38995E-06 6.07269E-02-4.57330E-14 1.35776E-14
 -1      1095 1.99305E+01 9.85352E-02-3.61766E-06 3.53653E-02-7.41699E-14-1.27075E-13
 -1      1096 1.99500E+01 8.05473E-02-7.92325E-06 1.98996E-02-1.11647E-13-2.46492E-13
 -1      1097 1.99653E+01 6.41497E-02-4.05194E-06 1.07114E-02-2.89154E-14-2.24327E-13
 -1      1098 1.99769E+01 4.99387E-02-1.71910E-06 5.40563E-03-1.10758E-13-2.88094E-13
 -1      1099 1.99854E+01 3.80616E-02-1.30532E-06 2.46400E-03-3.39154E-14-2.08298E-13
 -1      1100 1.99915E+01 2.84157E-02-8.10138E-07 9.03934E-04-6.26491E-14-6.77140E-14
 -1      1101 1.99957E+01 2.07639E-02-4.74303E-07 1.28028E-04-9.68268E-14-2.54939E-13
 -1      1102 1.99984E+01 1.48207E-02-1.00970E-07-2.15123E-04-3.28203E-13-2.66790E-13
 -1      1103 2.00001E+01 1.02771E-02-8.18309E-07-3.41164E-04-4.55877E-13-1.20749E-13
 -1      1104 2.04834E+01-8.38712E-01 9.27225E-04 1.62329E+00-5.32585E-14-1.49456E-13
 -1      1105 1.95034E+01-1.49798E-01-1.03613E-03 1.68250E+00-1.35717E-13-3.25032E-13
 -1      1106 2.17320E+01-1.13466E+00-2.01289E-03-7.82702E-01-6.84451E-14 1.02564E-13
 -1      1107 2.05550E+01-6.24753E-01-1.43377E-03-1.90477E+00-9.98485E-14-1.00500E-13
 -1      1108 2.06671E+01-1.41986E-01-3.66431E-04-1.08198E+00-1.52091E-14-5.30656E-14
 -1      1109 2.02568E+01 7.58065E-03-1.60591E-05-1.39799E+00-3.84111E-14-6.79545E-14
 -1      1110 2.23002E+01-1.63133E+00-3.25867E-03-1.00630E+00-9.47497E-14 1.17593E-13
 -1      1111 1.88707E+01 5.64325E-01 6.70290E-04 1.04893E+00 1.42071E-14-1.31704E-13
 -1      1112 1.86197E+01 5.37725E-01 1.25773E-03 1.46357E+00-7.79644E-14 4.53426E-14
 -1      1113 2.18721E+01-1.47640E+00 2.73923E-03-1.46448E+00-1.16215E-13-3.80570E-14
 -1      1114 2.00017E+01 6.08103E-03 2.86583E-06-1.33294E-03-1.64094E-13 6.54534E-13
 -1      1115 2.00008E+01 7.73015E-03 2.78684E-06-2.59022E-04-1.63800E-13-2.90465E-14
 -1      1116 2.00012E+01 6.89954E-03-4.13656E-07-8.60061E-04-2.19408E-13 1.09094E-13
 -1      1117 1.95100E+01 2.78395E-01-3.44589E-04 6.07176E-01 7.17921E-14 9.09182E-14
 -1      1118 1.96068E+01 2.85598E-01 6.00838E-05 3.73519E-01-1.27108E-13-9.14605E-14
 -1      1119 1.96924E+01 2.63357E-01 3.54827E-06 2.25856E-01-5.14595E-14-7.96308E-14
 -1      1120 1.97695E+01 2.27762E-01-2.24589E-05 1.25943E-01-9.42913E-14-7.97122E-14
 -1      1121 1.98316E+01 1.89258E-01-8.98395E-06 6.50519E-02-8.76434E-14-2.89939E-14
 -1      1122 1.98797E+01 1.52980E-01-1.76025E-06 2.94776E-02-3.79053E-14 6.41923E-14
 -1      1123 1.99159E+01 1.21138E-01 1.95150E-06 9.82058E-03-9.78415E-14 1.78631E-13
 -1      1124 1.99426E+01 9.43642E-02 9.76229E-06-1.79767E-04 9.08569E-14 1.32678E-14
 -1      1125 1.99611E+01 7.33806E-02 6.14951E-06-4.41617E-03-7.99842E-14-8.86293E-14
 -1      1126 1.99751E+01 5.55443E-02 1.96020E-06-5.84888E-03-9.69492E-14 3.97776E-14
 -1      1127 1.99848E+01 4.14600E-02 1.95742E-06-5.67169E-03 1.05858E-13-8.06784E-15
 -1      1128 1.99915E+01 3.04762E-02 1.50519E-06-4.78946E-03-1.27238E-13 3.75108E-14
 -1      1129 1.99959E+01 2.20224E-02 1.12877E-06-3.70250E-03-1.34982E-14 1.22912E-13
 -1      1130 1.99987E+01 1.56021E-02 9.78720E-07-2.66274E-03-3.22312E-13 2.51059E-13
 -1      1131 2.00003E+01 1.09869E-02 9.72516E-08-1.80961E-03-2.50641E-13 2.17577E-13
 -1      1132 2.11880E+01-7.88282E-01-9.61545E-04-1.25495E+00-7.95901E-14-2.90383E-14
 -1      1133 1.95482E+01 5.68940E-02 1.46234E-04 1.11285E+00 1.48201E-13-2.25896E-13
 -1      1134 2.79001E+01 9.06223E+00 2.30717E+00-6.64287E+00-2.79776E-14 3.68511E-13
 -1      1135 2.06453E+01 6.25905E+00 2.18160E-01-3.79087E+00-1.20459E-14-1.92166E-13
 -1      1136 1.95385E+01 5.88607E+00 8.16820E-02-2.75526E+00-7.68829E-15-3.81381E-13
 -1      1137 1.90869E+01 5.74447E+00 6.13536E-02-2.09954E+00-2.04003E-15-4.39274E-13
 -1      1138 1.88436E+01 5.66932E+00 5.41235E-02-1.58494E+00-1.35308E-15-4.49195E-13
 -1      1139 1.86975E+01 5.62391E+00 4.87956E-02-1.15395E+00 8.25728E-16-4.31218E-13
 -1      1140 1.86133E+01 5.59774E+00 4.57844E-02-7.69484E-01 1.68442E-15-3.97287E-13
 -1      1141 1.85749E+01 5.58595E+00 4.49196E-02-4.03951E-01 2.21524E-15-3.53792E-13
 -1      1142 1.85735E+01 5.58588E+00 4.60588E-02-4.17433E-02 3.48940E-15-3.05911E-13
 -1      1143 1.86018E+01 5.59514E+00 4.86536E-02 3.31924E-01 5.44269E-15-2.60650E-13
 -1      1144 1.86558E+01 5.61238E+00 5.21271E-02 7.28845E-01 7.41334E-15-2.04867E-13
 -1      1145 1.87378E+01 5.63815E+00 5.60754E-02 1.15614E+00 7.51829E-15-1.19174E-13
 -1      1146 1.88627E+01 5.67671E+00 5.96520E-02 1.63092E+00 8.63545E-15-1.37061E-14
 -1      1147 1.90753E+01 5.74150E+00 6.30510E-02 2.18086E+00 1.06998E-14 1.37989E-13
 -1      1148 1.94932E+01 5.86997E+00 7.33443E-02 2.85470E+00 1.01308E-14 3.70788E-13
 -1      1149 2.05191E+01 6.20325E+00 1.58401E-01 3.82315E+00 6.91114E-15 7.42111E-13
 -1      1150 2.52445E+01 8.00155E+00 1.42719E+00 5.81142E+00 6.10623E-16 1.32686E-12
 -1      1151 2.90323E+01 3.70483E+00 1.33141E+00-4.31996E+00-1.05249E-13 7.22145E-13
 -1      1152 2.04939E+01-1.73759E-01-6.27118E-01-1.39458E-01-3.58671E-14 5.08982E-13
 -1      1153 1.91101E+01-1.02284E-01-2.52362E-01 6.37471E-02-1.58484E-14 2.18891E-13
 -1      1154 1.89067E+01-5.75605E-02-7.24582E-02 4.16467E-02-1.24891E-14 1.08802E-14
 -1      1155 1.90599E+01-3.76861E-02-3.22450E-02 2.88291E-02-1.56494E-14-1.60271E-13
 -1      1156 1.94587E+01-3.50357E-02-3.24551E-02 2.45798E-02-7.67659E-15-2.88831E-13
 -1      1157 2.01077E+01-3.81092E-02-4.56443E-02 2.47711E-02-5.78790E-15-3.20341E-13
 -1      1158 2.11040E+01-4.92262E-02-7.02629E-02 3.33352E-02 4.70197E-15-2.92821E-13
 -1      1159 2.25872E+01-6.66306E-02-1.08148E-01 5.44563E-02-1.24093E-14-3.51538E-13
 -1      1160 2.47970E+01-8.63893E-02-1.53334E-01 9.65303E-02 3.88925E-15-4.78492E-13
 -1      1161 2.80335E+01-9.17141E-02-1.70141E-01 1.68260E-01 1.71443E-14-4.26686E-13
 -1      1162 3.23612E+01-6.60390E-02-6.98380E-02 2.56031E-01-9.46508E-15-3.15803E-13
 -1      1163 3.74134E+01 6.39084E-02 2.83753E-01 2.87535E-01 5.32734E-15-1.69920E-13
 -1      1164 4.11269E+01 3.10742E-01 8.63619E-01 3.07889E-03 2.90150E-14 1.01419E-13
 -1      1165 3.87745E+01 5.64660E-01 8.56948E-01-8.21352E-01 1.07813E-14 4.14335E-13
 -1      1166 2.92351E+01 2.45159E-01-5.42479E-01-1.27353E+00-3.71508E-14 2.95763E-13
 -1      1167 1.83990E+01-3.59018E-01-2.57117E+00-8.01043E-01-6.97081E-14-5.53335E-13
 -1      1168 1.48124E+01-5.81144E-01-3.29221E+00 1.67971E-01-6.92640E-14-1.77360E-12
 -1      1169 2.07442E+01-3.69581E-01-2.15632E+00 9.09745E-01 2.45290E-14-2.31837E-12
 -1      1170 3.09524E+01 1.41516E-01-3.41011E-01 9.36257E-01 3.88856E-14-2.26930E-12
 -1      1171 3.93605E+01 3.52276E-01 8.44970E-01 4.95119E-01-1.50531E-14-1.84963E-12
 -1      1172 4.16069E+01 1.67873E-01 8.33217E-01 8.62133E-02 8.82974E-14-1.63858E-12
 -1      1173 3.85012E+01 2.15891E-02 3.24218E-01-1.45107E-01 2.39340E-14-1.04788E-12
 -1      1174 3.35441E+01-4.90230E-02-3.69332E-02-1.64771E-01-3.28186E-14-1.03886E-12
 -1      1175 2.90805E+01-5.38652E-02-1.50091E-01-1.20512E-01-4.81429E-15-1.02177E-12
 -1      1176 2.58532E+01-4.28728E-02-1.36982E-01-7.48587E-02 5.46134E-14-8.67972E-13
 -1      1177 2.37053E+01-3.05433E-02-9.55376E-02-4.30224E-02-2.71515E-14-7.43676E-13
 -1      1178 2.23287E+01-2.04137E-02-6.00773E-02-2.36640E-02-4.79413E-15-6.64142E-13
 -1      1179 2.14753E+01-1.49951E-02-3.77534E-02-1.17781E-02 3.32876E-14-2.76839E-13
 -1      1180 2.09365E+01-9.10135E-03-2.28073E-02-7.16100E-03 1.49334E-14-9.51756E-14
 -1      1181 2.05857E+01-5.95007E-03-1.38072E-02-3.73906E-03 3.44503E-14-2.78188E-13
 -1      1182 2.03645E+01-3.87844E-03-8.43963E-03-1.92459E-03-8.23251E-15-3.05205E-13
 -1      1183 2.02244E+01-2.53485E-03-5.21857E-03-9.53983E-04 4.53344E-14-3.30833E-13
 -1      1184 2.01354E+01-1.62747E-03-3.24424E-03-4.36065E-04-2.35189E-14-3.54076E-13
 -1      1185 2.00797E+01-1.20757E-03-2.12443E-03-8.75952E-05 1.89917E-14 2.43062E-13
 -1      1186 2.00441E+01-7.51797E-04-1.35599E-03-3.70847E-05 1.06142E-15 4.36930E-13
 -1      1187 2.00210E+01-5.03949E-04-8.71287E-04 3.32643E-05-6.94795E-14-1.51411E-13
 -1      1188 2.00067E+01-3.39113E-04-5.64119E-04 6.49144E-05 4.49381E-14 1.53900E-13
 -1      1189 1.99982E+01-2.27982E-04-3.65369E-04 7.65204E-05-4.41565E-16 1.33096E-13
 -1      1190 1.99934E+01-1.47625E-04-2.33139E-04 7.70797E-05-4.32501E-14-4.03261E-13
 -1      1191 1.99912E+01-1.11172E-04-1.52565E-04 8.00639E-05-1.41928E-15-5.44309E-13
 -1      1192 1.99904E+01-6.82120E-05-9.43701E-05 6.76147E-05-4.14739E-14-1.79610E-13
 -1      1193 1.99907E+01-4.32687E-05-5.47728E-05 5.99968E-05-2.17616E-14-3.93506E-13
 -1      1194 1.99915E+01-2.63078E-05-2.89565E-05 5.28392E-05-3.63800E-14-7.57590E-13
 -1      1195 1.99927E+01-1.45868E-05-1.20256E-05 4.63524E-05 4.86650E-14-4.54804E-13
 -1      1196 1.99941E+01-5.63940E-06-6.41211E-07 4.04661E-05 2.84123E-14-1.25379E-13
 -1      1197 1.99954E+01-1.16354E-06 7.46939E-06 3.60728E-05 1.03079E-14 6.63416E-13
 -1      1198 1.99967E+01 4.52123E-06 1.47825E-05 3.28657E-05 1.71748E-14 5.76468E-13
 -1      1199 1.99979E+01 1.01204E-05 2.59452E-05 2.93388E-05 2.88786E-14 4.02944E-13
 -1      1200 1.99990E+01 1.65257E-05 4.12574E-05 2.42372E-05-5.40368E-14-7.64674E-14
 -1      1201 1.99996E+01 1.76006E-05 4.68272E-05 1.27420E-05 1.37148E-14-6.79628E-14
 -1      1202 1.99998E+01 2.59583E-05-3.88165E-06-2.71373E-05-7.27485E-14 2.15919E-13
 -1      1203 2.77923E+01 5.24433E-01 3.62900E-01 1.95932E+00-2.46053E-14 1.75754E-12
 -1      1204 2.01835E+01-6.63522E-02-5.73194E-01 1.26413E-01-1.35655E-15 1.66250E-12
 -1      1205 1.90646E+01-4.09244E-02-1.91221E-01 1.70850E-02 9.54098E-17 1.48477E-12
 -1      1206 1.87270E+01-2.07552E-02-4.79644E-02-1.26489E-03-4.59181E-15 1.38902E-12
 -1      1207 1.86778E+01-1.04171E-02-9.81180E-03-7.46851E-03 2.45724E-15 1.30346E-12
 -1      1208 1.87448E+01-2.71050E-03 1.52505E-03-9.58625E-03 6.16532E-16 1.23325E-12
 -1      1209 1.88327E+01 3.12299E-03 7.98450E-03-1.05026E-02-1.75276E-15 1.25341E-12
 -1      1210 1.88761E+01 7.84886E-03 1.39454E-02-1.04884E-02 2.02118E-14 1.18177E-12
 -1      1211 1.88233E+01 1.14032E-02 1.93521E-02-9.24887E-03-8.73401E-15 1.11527E-12
 -1      1212 1.86340E+01 1.32400E-02 2.30619E-02-6.30279E-03 1.14318E-15 1.07020E-12
 -1      1213 1.82839E+01 1.25787E-02 2.34992E-02-1.29956E-03-2.45572E-15 9.92744E-13
 -1      1214 1.77738E+01 8.78969E-03 1.91266E-02 5.64134E-03-1.74725E-14 9.15060E-13
 -1      1215 1.71399E+01 1.89272E-03 9.20376E-03 1.36175E-02 1.94415E-14 7.98576E-13
 -1      1216 1.64579E+01-7.04026E-03-5.35707E-03 2.08719E-02 9.79192E-15 7.34079E-13
 -1      1217 1.58363E+01-1.58931E-02-2.15930E-02 2.51866E-02-1.62075E-14 9.03319E-13
 -1      1218 1.53940E+01-2.21477E-02-3.51217E-02 2.47402E-02 1.66989E-15 9.89230E-13
 -1      1219 1.52280E+01-2.39434E-02-4.18153E-02 1.90519E-02-1.64218E-14 8.88288E-13
 -1      1220 1.53827E+01-2.09445E-02-3.96999E-02 9.40449E-03-2.59168E-15 8.60496E-13
 -1      1221 1.58347E+01-1.44407E-02-2.98866E-02-1.60905E-03-2.08247E-14 6.67050E-13
 -1      1222 1.65024E+01-6.63483E-03-1.59211E-02-1.11858E-02-8.24482E-15 6.48117E-13
 -1      1223 1.72737E+01 3.73528E-04-2.03143E-03-1.74006E-02 5.26830E-15 5.70648E-13
 -1      1224 1.80384E+01 5.30208E-03 8.59480E-03-1.97031E-02 1.89437E-14 3.73587E-13
 -1      1225 1.87139E+01 7.83488E-03 1.46245E-02-1.87199E-02 5.94110E-15 3.47427E-13
 -1      1226 1.92547E+01 8.35266E-03 1.63820E-02-1.56727E-02 1.38755E-14 3.05953E-13
 -1      1227 1.96495E+01 7.53822E-03 1.51136E-02-1.18059E-02-1.59450E-14 2.09423E-13
 -1      1228 1.99115E+01 6.06579E-03 1.22486E-02-8.04715E-03 1.89098E-14 2.58824E-13
 -1      1229 2.00662E+01 4.44211E-03 8.93993E-03-4.91549E-03 9.85166E-15 1.65039E-13
 -1      1230 2.01426E+01 2.97234E-03 5.90931E-03-2.58874E-03 1.06510E-14 1.05920E-13
 -1      1231 2.01670E+01 1.79420E-03 3.49043E-03-1.02647E-03 3.46043E-14-3.85239E-14
 -1      1232 2.01603E+01 9.33675E-04 1.75010E-03-8.37912E-05-1.29251E-14 5.08317E-14
 -1      1233 2.01379E+01 3.55904E-04 6.09953E-04 4.10043E-04 4.75636E-14-1.66226E-13
 -1      1234 2.01096E+01 1.69755E-06-6.43303E-05 6.08676E-04-3.35546E-14-3.33002E-14
 -1      1235 2.00816E+01-1.90609E-04-4.10236E-04 6.31802E-04-5.68571E-15 2.02551E-13
 -1      1236 2.00569E+01-2.74400E-04-5.43701E-04 5.63586E-04-5.70361E-14 1.66135E-13
 -1      1237 2.00367E+01-2.91115E-04-5.51873E-04 4.58175E-04-1.74198E-14 4.35188E-13
 -1      1238 2.00213E+01-2.70429E-04-4.94869E-04 3.47277E-04 1.92275E-15-2.80078E-14
 -1      1239 2.00102E+01-2.32156E-04-4.11091E-04 2.47276E-04 1.47830E-14-3.83613E-13
 -1      1240 2.00025E+01-1.88602E-04-3.23116E-04 1.64900E-04-1.23200E-14 8.30465E-14
 -1      1241 1.99977E+01-1.46760E-04-2.42817E-04 1.01286E-04-3.55195E-14 4.97603E-13
 -1      1242 1.99949E+01-1.10077E-04-1.75299E-04 5.46936E-05 1.15113E-15-1.78123E-13
 -1      1243 1.99937E+01-7.97742E-05-1.21682E-04 2.21659E-05 3.33304E-14-7.99000E-13
 -1      1244 1.99935E+01-5.57552E-05-8.09251E-05 4.81219E-07 2.88591E-14-6.40510E-13
 -1      1245 1.99939E+01-3.71923E-05-5.09367E-05-1.33702E-05-3.67564E-14-4.44149E-13
 -1      1246 1.99948E+01-2.28698E-05-2.91571E-05-2.19809E-05 2.68530E-14-7.43170E-13
 -1      1247 1.99958E+01-1.13677E-05-1.27609E-05-2.74680E-05-2.57884E-14-8.26777E-13
 -1      1248 1.99970E+01-1.10656E-06 1.50997E-06-3.14579E-05-5.21747E-14-3.22638E-13
 -1      1249 1.99981E+01 9.58647E-06 1.74507E-05-3.48425E-05 1.80571E-14-5.88699E-13
 -1      1250 1.99990E+01 2.15736E-05 3.69765E-05-3.61829E-05 9.34646E-14-7.00972E-13
 -1      1251 1.99996E+01 2.81024E-05 4.67721E-05-2.73486E-05 1.01594E-13-6.82176E-13
 -1      1252 1.99998E+01-9.05101E-06-1.46654E-05 9.85226E-06-6.29615E-14-4.87591E-13
 -1      1253 1.99998E+01 2.62070E-05-1.48733E-05 7.54314E-06-3.75322E-13-4.01676E-14
 -1      1254 1.99998E+01-1.63451E-04 4.31466E-05-6.98191E-06-6.44493E-13-6.78031E-14
 -1      1255 1.99998E+01-7.70978E-04 3.11736E-05-2.98376E-05-8.02718E-13 4.74388E-14
 -1      1256 1.99998E+01-1.59267E-03 5.84297E-06-3.41512E-05-5.59913E-13 9.17055E-14
 -1      1257 1.99998E+01-2.44459E-03-1.24920E-05-3.09546E-05 4.43843E-15-2.94834E-14
 -1      1258 1.99998E+01-3.20404E-03-2.40079E-05-2.47228E-05-1.67778E-14-8.21811E-14
 -1      1259 1.99998E+01-3.80493E-03-3.08428E-05-1.77898E-05 1.33517E-14-2.75536E-14
 -1      1260 1.99998E+01-4.20470E-03-3.51863E-05-9.79126E-06-7.01714E-13-1.91401E-13
 -1      1261 1.99998E+01-4.36733E-03-3.75837E-05-1.35455E-06-7.60767E-13 1.21514E-13
 -1      1262 1.99998E+01-4.27656E-03-3.80190E-05 7.52558E-06 3.26219E-13 1.72189E-13
 -1      1263 1.99998E+01-3.92967E-03-3.56296E-05 1.67153E-05 9.10828E-13-2.14497E-13
 -1      1264 1.99998E+01-3.34877E-03-2.92136E-05 2.56994E-05 1.86463E-13 1.33301E-13
 -1      1265 1.99998E+01-2.57363E-03-1.65042E-05 3.30644E-05 1.11366E-12 2.61832E-13
 -1      1266 1.99998E+01-1.67826E-03 4.60234E-06 3.67134E-05 1.47884E-12-8.55441E-14
 -1      1267 1.99998E+01-8.09215E-04 3.00889E-05 2.89542E-05 8.87796E-13 1.27049E-13
 -1      1268 1.99998E+01-1.56541E-04 4.55235E-05-2.27965E-06-1.11728E-13-1.26865E-14
 -1      1269 1.99998E+01 4.25346E-05-2.21632E-06-3.14860E-05-6.10153E-14 2.59603E-14
 -1      1270-1.13568E+00-2.56334E+01-3.74097E+00-1.99795E+00 1.25344E-12 1.28515E-13
 -1      1271-1.46534E+00-1.44512E+01-2.84760E+00-3.55867E+00 1.49458E-12 5.11591E-13
 -1      1272 1.05608E+00-4.24005E-01-1.56770E+00 1.03094E+00 1.55387E-12 9.03611E-13
 -1      1273 1.02982E+01 1.00048E+01-5.28485E-02 9.96168E+00 1.25477E-12 1.14286E-12
 -1      1274 2.68239E+01 1.32517E+01 1.52515E+00 1.80641E+01 9.29035E-13 1.25766E-12
 -1      1275 4.76249E+01 1.00164E+01 2.95087E+00 2.01001E+01 3.62155E-13 6.28164E-13
 -1      1276 6.53724E+01 4.50291E+00 3.95709E+00 1.34966E+01-5.95357E-15-5.21694E-13
 -1      1277 7.25721E+01 1.75420E+00 4.33841E+00 5.04964E-01 6.44623E-14-1.91069E-12
 -1      1278 6.59728E+01 4.27839E+00 4.00632E+00-1.26527E+01 5.14408E-13-2.41518E-12
 -1      1279 4.93487E+01 9.46121E+00 3.09497E+00-1.99191E+01 9.07385E-13-2.12697E-12
 -1      1280 2.78389E+01 1.28755E+01 1.60935E+00-1.79465E+01 1.40443E-12-1.94267E-12
 -1      1281 1.02303E+01 9.41203E+00-9.13647E-02-9.70194E+00 1.66422E-12-1.54676E-12
 -1      1282 8.62612E-01-1.69587E+00-1.69274E+00-6.51669E-01 1.21547E-12-7.97917E-13
 -1      1283-1.53442E+00-1.61974E+01-3.03557E+00 3.85423E+00 6.73683E-13-3.01925E-13
 -1      1284-1.14002E+00-2.65423E+01-3.80772E+00 1.68324E+00-3.10751E-13-9.58678E-14
 -1      1285-1.41933E+00-2.89903E+01-4.15173E+00-3.54603E+00-1.36305E-12-2.49759E-13
 -1      1286-3.16150E+00-2.22325E+01-3.99860E+00-6.83742E+00-2.03215E-12-7.47485E-13
 -1      1287-2.90410E+00-1.04002E+01-3.43482E+00-4.84268E+00-2.12719E-12-1.29530E-12
 -1      1288 4.73998E+00 2.03792E+00-2.08769E+00 3.74171E+00-2.02260E-12-1.90514E-12
 -1      1289 2.39935E+01 9.18238E+00 3.18687E-01 1.44731E+01-1.48259E-12-1.97131E-12
 -1      1290 5.19637E+01 9.07697E+00 3.61220E+00 1.99343E+01-6.57141E-13-1.46416E-12
 -1      1291 7.90927E+01 4.92369E+00 6.79212E+00 1.48395E+01-2.12608E-13-6.04405E-13
 -1      1292 9.07692E+01 2.57915E+00 8.15899E+00 1.48148E-01-7.95891E-14 1.02185E-12
 -1      1293 7.85054E+01 4.84259E+00 6.66761E+00-1.48060E+01-4.44533E-13 1.75415E-12
 -1      1294 5.00561E+01 8.97694E+00 3.33247E+00-1.96339E+01-1.20270E-12 2.53042E-12
 -1      1295 2.16677E+01 8.58092E+00 5.17633E-02-1.32417E+01-1.75659E-12 2.54774E-12
 -1      1296 3.28580E+00 7.90737E-01-2.25517E+00-2.36876E+00-1.66422E-12 1.65246E-12
 -1      1297-3.27894E+00-1.16366E+01-3.53316E+00 5.41065E+00-6.08846E-13 5.29798E-13
 -1      1298-3.08853E+00-2.32525E+01-4.08481E+00 6.82527E+00 5.21916E-13-8.27949E-14
 -1      1299-1.48026E+00-2.89388E+01-4.14115E+00 3.03227E+00 1.16002E-12-7.11931E-14
 -1      1300 2.23985E+01 1.89740E+00-7.12153E-01-2.79605E+00-3.97460E-14 2.18936E-13
 -1      1301 2.04858E+01 4.70338E+00-4.43272E-02-3.18978E+00-7.84373E-14-2.78166E-13
 -1      1302 2.09793E+01 4.85355E+00-9.16879E-02-4.05667E+00-1.13798E-13-1.78191E-13
 -1      1303 1.96305E+01 5.01265E+00-1.91408E-02-2.51525E+00-5.79745E-14-4.10200E-13
 -1      1304 1.99506E+01 5.11599E+00 5.98481E-03-2.91081E+00-7.35523E-14-3.59338E-13
 -1      1305 2.06591E+01 3.96224E+00-2.23712E-02-2.94362E+00-1.23818E-13-2.37158E-13
 -1      1306 1.92236E+01 5.10842E+00-5.08092E-03-1.93626E+00-3.05173E-14-4.46067E-13
 -1      1307 1.94051E+01 5.17324E+00 1.33678E-02-2.22416E+00-4.39440E-14-4.34115E-13
 -1      1308 1.98406E+01 4.40097E+00-2.17569E-02-2.34741E+00-8.45730E-14-3.45092E-13
 -1      1309 1.89814E+01 5.15695E+00 8.10926E-04-1.45646E+00-6.11663E-15-4.48036E-13
 -1      1310 1.90926E+01 5.19621E+00 1.34283E-02-1.69137E+00-1.07761E-14-4.50112E-13
 -1      1311 1.94064E+01 4.60934E+00-1.79816E-02-1.80187E+00-3.76730E-14-3.81275E-13
 -1      1312 1.88351E+01 5.18456E+00 3.84743E-03-1.04965E+00 1.99866E-14-4.21992E-13
 -1      1313 1.89018E+01 5.20785E+00 1.16229E-02-1.25028E+00 1.26080E-14-4.36363E-13
 -1      1314 1.91485E+01 4.72693E+00-1.48078E-02-1.34803E+00 2.87444E-15-3.71220E-13
 -1      1315 1.87529E+01 5.19936E+00 6.00098E-03-6.73899E-01 3.85100E-14-3.85978E-13
 -1      1316 1.87881E+01 5.21152E+00 9.67111E-03-8.61055E-01 3.32104E-14-4.08014E-13
 -1      1317 1.89941E+01 4.79277E+00-1.30059E-02-9.52251E-01 3.79675E-14-3.54803E-13
 -1      1318 1.87233E+01 5.20493E+00 7.94365E-03-3.14205E-01 5.87281E-14-3.44438E-13
 -1      1319 1.87327E+01 5.20830E+00 8.23601E-03-4.95308E-01 5.13574E-14-3.67387E-13
 -1      1320 1.89136E+01 4.82277E+00-1.22391E-02-5.84584E-01 7.20056E-14-3.15380E-13
 -1      1321 1.87348E+01 5.20369E+00 9.74739E-03 4.71175E-02 7.61713E-14-2.98230E-13
 -1      1322 1.87241E+01 5.20017E+00 7.44415E-03-1.36299E-01 6.73038E-14-3.24617E-13
 -1      1323 1.88919E+01 4.82582E+00-1.21025E-02-2.27458E-01 1.08246E-13-2.77126E-13
 -1      1324 1.87791E+01 5.19752E+00 1.13805E-02 4.23564E-01 9.69815E-14-2.52624E-13
 -1      1325 1.87523E+01 5.18830E+00 7.08102E-03 2.31352E-01 8.98734E-14-2.78796E-13
 -1      1326 1.89163E+01 4.80843E+00-1.23948E-02 1.35441E-01 1.32924E-13-2.38049E-13
 -1      1327 1.88529E+01 5.18744E+00 1.27312E-02 8.26036E-01 1.06084E-13-1.89102E-13
 -1      1328 1.88107E+01 5.17276E+00 6.74629E-03 6.19470E-01 1.02258E-13-2.27306E-13
 -1      1329 1.89783E+01 4.77417E+00-1.30810E-02 5.16442E-01 1.58700E-13-1.86844E-13
 -1      1330 1.89593E+01 5.17455E+00 1.37083E-02 1.25752E+00 1.22196E-13-1.01370E-13
 -1      1331 1.88987E+01 5.15253E+00 5.80146E-03 1.03471E+00 1.14844E-13-1.51570E-13
 -1      1332 1.90755E+01 4.72337E+00-1.42019E-02 9.22082E-01 1.77262E-13-1.25379E-13
 -1      1333 1.91233E+01 5.15830E+00 1.37975E-02 1.74741E+00 1.40835E-13 1.00406E-14
 -1      1334 1.90285E+01 5.12339E+00 3.08720E-03 1.49151E+00 1.33987E-13-5.43107E-14
 -1      1335 1.92185E+01 4.64973E+00-1.63713E-02 1.36639E+00 2.06844E-13-3.32200E-14
 -1      1336 1.93983E+01 5.13750E+00 1.15324E-02 2.31423E+00 1.47212E-13 1.73552E-13
 -1      1337 1.92357E+01 5.07732E+00-3.79657E-03 2.01166E+00 1.41276E-13 7.81458E-14
 -1      1338 1.94437E+01 4.53618E+00-2.00021E-02 1.86862E+00 2.23125E-13 8.26873E-14
 -1      1339 1.99256E+01 5.10473E+00 7.63084E-03 3.01396E+00 1.38251E-13 4.22426E-13
 -1      1340 1.96073E+01 4.98843E+00-1.94181E-02 2.61978E+00 1.33372E-13 2.75731E-13
 -1      1341 1.98379E+01 4.34021E+00-2.45271E-02 2.44887E+00 2.20539E-13 2.59251E-13
 -1      1342 2.11749E+01 4.90726E+00 9.54511E-03 4.00049E+00 9.36473E-14 7.94698E-13
 -1      1343 2.04085E+01 4.73729E+00-4.67003E-02 3.35359E+00 9.91984E-14 5.75047E-13
 -1      1344 2.06423E+01 3.91060E+00-2.20840E-02 3.11119E+00 1.87014E-13 5.06942E-13
 -1      1345 2.72311E+01 3.19919E+00 9.21307E-01 4.54994E+00 1.25178E-14 1.34032E-12
 -1      1346 2.20865E+01 3.52230E+00-1.80913E-01 3.84146E+00 2.89768E-14 9.81243E-13
 -1      1347 2.21938E+01 2.55598E+00-3.15200E-02 3.40193E+00 1.33178E-13 8.31807E-13
 -1      1348 2.14998E+01 3.56552E-01-7.62750E-01 1.15717E+00 4.28962E-14 1.35497E-12
 -1      1349 2.22347E+01 1.92853E-01-4.00140E-01-1.30951E+00-9.48824E-14 2.82996E-13
 -1      1350 2.09143E+01 3.26701E-01-1.75243E-01-7.96319E-01-7.95544E-14 1.76151E-13
 -1      1351 2.03625E+01 1.63964E-01-7.87278E-02-3.64169E-01-6.63219E-14 1.37666E-13
 -1      1352 1.99405E+01 9.92207E-02-1.65821E-02-2.88306E-01-7.07351E-14 2.61319E-14
 -1      1353 2.12331E+01 4.16227E-01-1.02690E-01-1.22861E+00-1.41387E-13-6.74460E-15
 -1      1354 1.96377E+01 7.56467E-02 2.42013E-03-6.96217E-02-6.28352E-14 5.44703E-16
 -1      1355 1.95689E+01 5.41217E-02 1.46415E-02-4.65190E-02-4.87110E-14-8.19518E-14
 -1      1356 2.02682E+01 1.51291E-01-3.87768E-02-3.99043E-01-1.19356E-13-6.29358E-14
 -1      1357 1.94975E+01 4.70002E-02 1.36470E-02 7.64216E-02-3.95265E-14-1.17548E-13
 -1      1358 1.96152E+01 3.96484E-02 1.34157E-02 9.44338E-02-4.93910E-14-1.90844E-13
 -1      1359 1.99290E+01 8.04576E-02-1.21027E-02 3.57869E-03-8.34680E-14-1.19540E-13
 -1      1360 1.96896E+01 4.11447E-02 9.21988E-03 1.85500E-01-1.94619E-14-2.04441E-13
 -1      1361 1.99334E+01 4.00169E-02 9.18156E-03 2.02263E-01-1.92138E-14-2.30007E-13
 -1      1362 1.99323E+01 6.21602E-02-8.77352E-03 2.57549E-01-5.96389E-14-1.67314E-13
 -1      1363 2.01354E+01 4.68166E-02 4.07654E-03 3.01954E-01-1.37650E-15-2.27653E-13
 -1      1364 2.05422E+01 5.00294E-02 5.59580E-03 3.25646E-01-9.75001E-15-2.37328E-13
 -1      1365 2.01895E+01 7.22294E-02-9.73814E-03 4.83473E-01-1.55995E-14-1.75266E-13
 -1      1366 2.08759E+01 6.41034E-02-1.19819E-03 4.54843E-01-4.30211E-16-2.32732E-13
 -1      1367 2.14872E+01 7.06883E-02 1.37872E-03 4.89141E-01-9.43776E-15-2.44606E-13
 -1      1368 2.06951E+01 9.95592E-02-1.31131E-02 7.54485E-01-1.43271E-14-1.79753E-13
 -1      1369 2.19798E+01 9.27353E-02-9.30989E-03 6.71069E-01-2.16632E-14-2.49422E-13
 -1      1370 2.28849E+01 1.00768E-01-6.08496E-03 7.22848E-01-8.61117E-15-2.83690E-13
 -1      1371 2.14748E+01 1.47944E-01-1.87738E-02 1.12079E+00-2.52784E-14-1.82936E-13
 -1      1372 2.35781E+01 1.31350E-01-2.25176E-02 9.76488E-01-3.33414E-15-2.71387E-13
 -1      1373 2.48965E+01 1.33728E-01-1.64833E-02 1.05178E+00-5.20764E-15-2.80762E-13
 -1      1374 2.25923E+01 2.14864E-01-2.71451E-02 1.63287E+00-1.52933E-14-1.41257E-13
 -1      1375 2.58309E+01 1.62162E-01-3.85423E-02 1.37073E+00 1.98140E-14-2.50730E-13
 -1      1376 2.76562E+01 1.43856E-01-1.94861E-02 1.46651E+00 1.94376E-14-2.31315E-13
 -1      1377 2.41271E+01 2.79519E-01-3.49859E-02 2.30941E+00 2.51240E-14-7.03534E-14
 -1      1378 2.87750E+01 1.43468E-01-3.47077E-02 1.75173E+00 4.95725E-14-2.01728E-13
 -1      1379 3.09214E+01 5.88804E-02 1.21284E-02 1.82634E+00 3.39186E-14-1.11633E-13
 -1      1380 2.60870E+01 2.59279E-01-2.91723E-02 3.03119E+00 7.23007E-14-5.84116E-14
 -1      1381 3.22988E+01-3.57865E-02 3.59621E-02 1.82726E+00 5.70932E-14-4.46587E-14
 -1      1382 3.44017E+01-2.50378E-01 1.21331E-01 1.77183E+00 4.46553E-14 8.13238E-15
 -1      1383 2.84855E+01-2.99993E-02 6.52540E-03 3.43638E+00 8.61394E-14 2.83454E-14
 -1      1384 3.57925E+01-5.37349E-01 2.07206E-01 9.51285E-01 1.05770E-13 8.16569E-14
 -1      1385 3.62828E+01-8.14266E-01 2.36919E-01 5.09911E-01 1.06623E-13 1.85518E-13
 -1      1386 3.12417E+01-8.71435E-01 8.58543E-02 2.63618E+00 1.41803E-13 1.34146E-13
 -1      1387 3.72945E+01-1.16628E+00 2.97955E-01-1.36573E+00 1.13201E-13 2.86104E-13
 -1      1388 3.46507E+01-1.02495E+00 2.76739E-03-2.12489E+00-2.63678E-16 3.69482E-13
 -1      1389 3.38856E+01-2.00050E+00 1.32068E-01-3.38490E-01 1.91430E-13 2.90615E-13
 -1      1390 2.79156E+01 5.04686E-01-1.05488E+00-2.72994E+00-3.58158E-13-1.71696E-13
 -1      1391 2.46205E+01 9.65251E-01-1.49508E+00-2.14933E+00-3.83193E-13-6.58473E-13
 -1      1392 2.42013E+01 1.11667E+00-1.60722E+00 1.19877E-01-3.99569E-13-8.86763E-13
 -1      1393 2.49275E+01 1.10955E+00-1.47520E+00 9.58674E-01-3.40061E-13-1.37973E-12
 -1      1394 3.19871E+01 2.11502E+00-7.39574E-01-1.78707E+00-6.67688E-13-4.97456E-13
 -1      1395 2.55754E+01 7.61605E-01-1.35521E+00 2.76480E+00-1.35947E-13-1.49225E-12
 -1      1396 2.91182E+01 3.26883E-01-8.51499E-01 3.06377E+00-2.41196E-14-1.53821E-12
 -1      1397 3.22148E+01 1.87300E+00-6.90469E-01 3.20515E+00-4.10116E-13-8.07975E-13
 -1      1398 3.04151E+01-1.24092E-01-5.90703E-01 3.27732E+00 7.53286E-14-1.64446E-12
 -1      1399 3.48383E+01-5.50956E-01-2.34548E-02 3.03147E+00 2.35922E-14-1.56131E-12
 -1      1400 3.38060E+01 2.08429E-01-3.59272E-01 5.59956E+00-2.34257E-14-9.67781E-13
 -1      1401 3.56641E+01-6.08564E-01 1.43618E-01 1.73968E+00 7.74276E-14-1.53022E-12
 -1      1402 3.81954E+01-6.58638E-01 4.19334E-01 1.24287E+00 1.35662E-13-1.36466E-12
 -1      1403 3.54397E+01-1.14100E+00 3.69774E-02 4.20656E+00 1.19266E-13-1.08510E-12
 -1      1404 3.78464E+01-4.86495E-01 3.67407E-01-2.84723E-01 1.20251E-13-1.16410E-12
 -1      1405 3.75322E+01-2.66084E-01 3.28152E-01-6.57446E-01 2.04427E-13-9.85427E-13
 -1      1406 3.55112E+01-1.17074E+00 2.12293E-01 6.81203E-01 2.61333E-13-8.11955E-13
 -1      1407 3.61508E+01-2.08412E-01 1.82927E-01-1.29862E+00 1.39028E-13-9.60232E-13
 -1      1408 3.41417E+01 2.79582E-02 8.92508E-02-1.39078E+00 4.26256E-14-7.93005E-13
 -1      1409 3.36204E+01-5.08289E-01 1.48599E-01-1.92185E+00 2.12212E-13-5.53283E-13
 -1      1410 3.24915E+01-1.94223E-02 6.00620E-03-1.37737E+00-4.58618E-15-6.84952E-13
 -1      1411 3.01777E+01 1.20637E-01-4.10885E-02-1.34118E+00-3.94013E-14-6.97969E-13
 -1      1412 3.06913E+01-3.40428E-02 2.52503E-02-2.65074E+00 9.19959E-14-5.19529E-13
 -1      1413 2.87628E+01 5.24374E-02-5.62874E-02-1.08444E+00-6.81052E-15-6.99232E-13
 -1      1414 2.69167E+01 1.07059E-01-6.35271E-02-1.01787E+00 9.13679E-14-6.52325E-13
 -1      1415 2.77497E+01 1.47495E-01-3.08885E-02-2.32466E+00-4.09742E-15-3.63820E-13
 -1      1416 2.58500E+01 6.37416E-02-5.11798E-02-7.57273E-01 8.02015E-14-6.83661E-13
 -1      1417 2.45572E+01 7.54540E-02-4.72523E-02-6.98739E-01-4.80709E-14-6.28282E-13
 -1      1418 2.53608E+01 1.57893E-01-3.71647E-02-1.71302E+00 1.06123E-13-3.43267E-13
 -1      1419 2.38074E+01 5.24886E-02-3.18386E-02-5.00012E-01 1.45613E-14-5.96002E-13
 -1      1420 2.29552E+01 4.85501E-02-2.84652E-02-4.57621E-01 5.59292E-14-5.58914E-13
 -1      1421 2.36061E+01 1.20689E-01-2.68617E-02-1.16491E+00-1.80515E-14-4.13173E-13
 -1      1422 2.24477E+01 3.76506E-02-1.69132E-02-3.21879E-01 1.12237E-15-4.71137E-13
 -1      1423 2.19036E+01 3.04368E-02-1.52613E-02-2.93508E-01 3.16379E-14-4.31471E-13
 -1      1424 2.23876E+01 8.16948E-02-1.63989E-02-7.61998E-01 7.31186E-14-2.84018E-13
 -1      1425 2.15820E+01 2.61757E-02-8.23640E-03-2.08362E-01 9.62121E-14-3.24026E-13
 -1      1426 2.12484E+01 1.92349E-02-8.69168E-03-1.90940E-01 4.74902E-14-2.47437E-13
 -1      1427 2.15821E+01 5.16008E-02-1.04257E-02-4.93853E-01 1.69677E-13-2.38061E-13
 -1      1428 2.10216E+01 1.71546E-02-4.14138E-03-1.33345E-01 2.38407E-14-1.10486E-13
 -1      1429 2.07983E+01 1.14982E-02-4.75499E-03-1.21167E-01-2.27648E-14-1.13808E-13
 -1      1430 2.10462E+01 3.37966E-02-5.64939E-03-3.19740E-01 1.01835E-13-1.25016E-13
 -1      1431 2.06509E+01 1.12784E-02-1.82149E-03-8.48072E-02 1.76966E-14-1.24037E-13
 -1      1432 2.05097E+01 7.00631E-03-2.57937E-03-7.71015E-02 1.19490E-14-2.25574E-13
 -1      1433 2.06816E+01 2.08248E-02-3.41226E-03-2.04064E-01-5.98133E-14-1.59221E-14
 -1      1434 2.04133E+01 7.33323E-03-7.71842E-04-5.41701E-02-1.14916E-13-1.40766E-13
 -1      1435 2.03237E+01 4.29904E-03-1.42422E-03-4.92478E-02-4.91801E-14-2.50693E-13
 -1      1436 2.04425E+01 1.29111E-02-2.07802E-03-1.30499E-01-2.90770E-14-1.80927E-13
 -1      1437 2.02605E+01 4.77405E-03-2.96626E-04-3.47363E-02 3.14070E-14-3.26246E-13
 -1      1438 2.02035E+01 2.66103E-03-7.93234E-04-3.15740E-02 8.19362E-14-3.07368E-13
 -1      1439 2.02857E+01 8.03922E-03-1.29553E-03-8.37472E-02-6.11642E-14-2.42427E-13
 -1      1440 2.01621E+01 3.09456E-03-9.23871E-05-2.23323E-02 7.98995E-14-2.71317E-13
 -1      1441 2.01257E+01 1.69515E-03-4.15943E-04-2.03025E-02 1.78044E-13-9.48550E-14
 -1      1442 2.01827E+01 5.06400E-03-8.12525E-04-5.39075E-02 1.48688E-13-2.03834E-13
 -1      1443 2.00997E+01 2.07754E-03-6.83698E-07-1.45814E-02 1.35113E-13-3.52208E-15
 -1      1444 2.00773E+01 1.11990E-03-2.49263E-04-1.33331E-02-2.33242E-14 2.09566E-13
 -1      1445 2.01161E+01 3.09627E-03-5.87297E-04-3.50195E-02 2.54826E-13-4.18299E-14
 -1      1446 2.00590E+01 1.37468E-03 2.62548E-05-9.40460E-03 1.93238E-14 1.32923E-13
 -1      1447 2.00439E+01 6.68992E-04-1.50380E-04-8.49811E-03-1.68044E-13 1.91314E-14
 -1      1448 2.00721E+01 2.10054E-03-3.50282E-04-2.28443E-02-5.77605E-14-2.67617E-14
 -1      1449 2.00320E+01 9.39214E-04 4.74975E-05-5.95217E-03-3.74264E-14-3.06887E-14
 -1      1450 2.00225E+01 4.21053E-04-8.45847E-05-5.35190E-03 9.16512E-14-5.76964E-14
 -1      1451 2.00422E+01 1.32904E-03-2.38049E-04-1.45835E-02-1.12454E-13-1.42486E-13
 -1      1452 2.00149E+01 6.35073E-04 4.68651E-05-3.68663E-03 8.58520E-14 1.07827E-13
 -1      1453 2.00091E+01 2.64128E-04-4.65766E-05-3.28477E-03 5.79520E-14 2.44278E-13
 -1      1454 2.00228E+01 8.57681E-04-1.59306E-04-9.16012E-03 1.87992E-13 1.43867E-13
 -1      1455 2.00043E+01 4.31396E-04 4.15340E-05-2.19350E-03-1.24904E-13 8.02437E-14
 -1      1456 2.00009E+01 1.63945E-04-2.36116E-05-1.92378E-03-1.41995E-13-1.40032E-13
 -1      1457 2.00104E+01 5.54927E-04-1.06874E-04-5.58425E-03-1.15127E-13 1.73096E-14
 -1      1458 1.99980E+01 2.89348E-04 3.40340E-05-1.20991E-03-5.10434E-14-2.81953E-13
 -1      1459 1.99962E+01 1.03354E-04-8.12320E-06-1.03191E-03-2.33723E-14-4.31941E-13
 -1      1460 2.00027E+01 3.61481E-04-7.02363E-05-3.22467E-03-1.64167E-13-2.22150E-13
 -1      1461 1.99946E+01 1.98882E-04 2.79186E-05-5.84609E-04 9.32370E-14-4.97795E-13
 -1      1462 1.99938E+01 6.52581E-05-9.49704E-07-4.73611E-04 2.86476E-14-4.20406E-13
 -1      1463 1.99981E+01 2.18448E-04-5.13014E-05-1.69549E-03 3.38203E-16-3.36465E-13
 -1      1464 1.99929E+01 1.34300E-04 2.37308E-05-1.71451E-04-1.62988E-14-4.15799E-13
 -1      1465 1.99928E+01 2.90823E-05 1.86408E-06-9.00850E-05-3.70947E-14-3.97304E-13
 -1      1466 1.99957E+01 1.48984E-04-3.07972E-05-7.06929E-04 6.47607E-14-3.79776E-13
 -1      1467 1.99925E+01 9.25026E-05 2.07737E-05 9.37279E-05-4.39282E-14-3.15169E-13
 -1      1468 1.99927E+01 1.09697E-05 4.43499E-06 1.46299E-04-1.24149E-13-4.39910E-13
 -1      1469 1.99945E+01 8.72093E-05-2.00954E-05-4.98828E-05-6.92651E-14-3.74865E-13
 -1      1470 1.99928E+01 6.09584E-05 1.71333E-05 2.52707E-04-2.60559E-14-4.21232E-13
 -1      1471 1.99933E+01-4.25265E-07 5.63452E-06 2.85610E-04 4.09986E-14-3.69578E-13
 -1      1472 1.99943E+01 4.88473E-05-1.21561E-05 3.54516E-04-3.56189E-14-3.31437E-13
 -1      1473 1.99935E+01 3.90320E-05 1.39594E-05 3.40299E-04 1.39779E-13-5.10231E-13
 -1      1474 1.99941E+01-7.41861E-06 6.03573E-06 3.59702E-04 1.59219E-13-2.30415E-13
 -1      1475 1.99946E+01 2.36175E-05-6.76984E-06 5.88873E-04 8.90357E-14-4.01041E-13
 -1      1476 1.99946E+01 2.29441E-05 1.10240E-05 3.79989E-04 1.44136E-14-2.17133E-13
 -1      1477 1.99952E+01-1.11862E-05 5.90282E-06 3.89513E-04 1.19441E-13-1.06006E-13
 -1      1478 1.99953E+01 7.53428E-06-3.03049E-06 7.08375E-04 1.51611E-13-3.25479E-13
 -1      1479 1.99957E+01 1.17959E-05 8.65430E-06 3.86713E-04 1.22386E-13 2.11164E-13
 -1      1480 1.99963E+01-1.38348E-05 6.03567E-06 3.89348E-04-2.66817E-14 3.64802E-13
 -1      1481 1.99961E+01-5.47086E-06-6.02811E-07 7.49748E-04 2.28770E-13-1.79549E-13
 -1      1482 1.99968E+01 3.27072E-06 7.86058E-06 3.68125E-04-3.73566E-14 2.98227E-13
 -1      1483 1.99974E+01-1.85192E-05 6.71693E-06 3.65777E-04 4.23902E-14 2.61318E-13
 -1      1484 1.99970E+01-1.25527E-05 1.60001E-06 7.34977E-04-6.39977E-14 8.79986E-14
 -1      1485 1.99978E+01-5.39612E-06 8.59239E-06 3.25568E-04-1.16814E-13 2.22301E-13
 -1      1486 1.99984E+01-2.27447E-05 1.00627E-05 3.16825E-04-2.22684E-13 5.02389E-14
 -1      1487 1.99979E+01-2.25329E-05 4.41618E-06 6.71843E-04-1.50153E-13-3.71103E-13
 -1      1488 1.99987E+01-1.72645E-05 1.18492E-05 2.54224E-04-2.39394E-13 4.08070E-14
 -1      1489 1.99992E+01-2.87543E-05 1.49249E-05 2.36633E-04-1.50369E-13-4.42765E-13
 -1      1490 1.99987E+01-3.54376E-05 8.94440E-06 5.54786E-04-3.05036E-13-3.13873E-13
 -1      1491 1.99994E+01-2.85630E-05 1.57964E-05 1.46081E-04 1.84247E-13-4.01464E-13
 -1      1492 1.99996E+01-4.07208E-05 5.21079E-06 1.18573E-04 2.00662E-13 6.14198E-15
 -1      1493 1.99993E+01-5.57349E-05 1.25160E-05 3.71146E-04 7.43848E-14-2.45493E-13
 -1      1494 1.99997E+01-5.16083E-05 7.76635E-06 5.69859E-05 2.59258E-14 7.23481E-14
 -1      1495 1.99998E+01-4.28391E-05-2.34331E-05 3.38888E-05-9.79287E-14-7.50175E-14
 -1      1496 1.99998E+01-7.20375E-05 1.08797E-05 5.55694E-05-4.46808E-14-6.71066E-14
 -1      1497 1.99996E+01-8.58279E-05 1.04251E-05 1.87765E-04 2.95026E-13-8.42595E-14
 -1      1498 2.03804E+01 7.45508E-02-1.50608E-01 4.64177E-01 5.80751E-14 1.21343E-12
 -1      1499 2.16193E+01 2.15336E-01-2.29123E-01 6.99848E-01 4.91551E-14 1.28227E-12
 -1      1500 2.18197E+01 8.76050E-01-8.61301E-02 2.02412E+00 8.90746E-14 9.53432E-13
 -1      1501 1.94899E+01 3.28381E-02-2.01371E-02 1.71251E-01 4.53058E-14 1.08924E-12
 -1      1502 1.98899E+01 1.12636E-01-6.14665E-02 2.23962E-01 4.33681E-14 1.16059E-12
 -1      1503 2.04297E+01 1.82932E-01-5.53573E-02 7.56241E-01 8.81378E-14 8.63185E-13
 -1      1504 1.91344E+01 1.47239E-02 6.47616E-03 4.51136E-02 2.58352E-14 1.01570E-12
 -1      1505 1.92605E+01 4.91106E-02 1.83144E-03 7.11848E-02 2.24109E-14 1.04602E-12
 -1      1506 1.97083E+01 6.33240E-02-1.49515E-02 2.76218E-01 5.87013E-14 7.71695E-13
 -1      1507 1.90275E+01 5.48844E-03 7.71016E-03-6.33615E-03 3.44061E-14 9.42250E-13
 -1      1508 1.90424E+01 2.15695E-02 1.14469E-02 6.30354E-03 3.01976E-14 9.92144E-13
 -1      1509 1.93856E+01 1.60350E-02-6.18338E-03 7.14018E-02 4.07504E-14 6.89147E-13
 -1      1510 1.90224E+01-8.99059E-04 5.74306E-03-2.07713E-02 1.68888E-14 9.08256E-13
 -1      1511 1.89971E+01 7.26624E-03 8.41617E-03-1.65864E-02 1.07503E-14 9.09987E-13
 -1      1512 1.92582E+01-6.47412E-04-3.18135E-03-8.41083E-03 3.37918E-14 6.55493E-13
 -1      1513 1.90327E+01-5.57238E-03 4.81688E-03-1.02764E-02 2.67443E-14 8.63767E-13
 -1      1514 1.90097E+01-2.40086E-03 5.24576E-03-1.23336E-02 1.90742E-14 8.77715E-13
 -1      1515 1.92131E+01-1.03617E-02-7.18313E-04-2.05621E-02 2.69713E-14 5.99020E-13
 -1      1516 1.89986E+01-9.22527E-03 4.73781E-03 1.91292E-02 3.20388E-14 8.23242E-13
 -1      1517 1.90079E+01-1.00373E-02 3.47009E-03 1.17571E-02 2.73193E-14 8.43473E-13
 -1      1518 1.91758E+01-1.75819E-02 1.72175E-03 1.21916E-02 3.90189E-14 5.35759E-13
 -1      1519 1.88752E+01-1.17788E-02 4.93083E-03 6.31691E-02 9.85995E-15 7.92014E-13
 -1      1520 1.89397E+01-1.62076E-02 2.55756E-03 5.12392E-02 1.61967E-14 8.17432E-13
 -1      1521 1.90956E+01-2.30800E-02 4.06762E-03 7.86909E-02 2.31755E-14 5.63683E-13
 -1      1522 1.86320E+01-1.26715E-02 4.88432E-03 1.16300E-01 2.76667E-14 7.42674E-13
 -1      1523 1.87674E+01-2.03502E-02 2.01621E-03 1.01041E-01 4.88325E-16 7.63533E-13
 -1      1524 1.89366E+01-2.60784E-02 6.01868E-03 1.69031E-01 2.81385E-14 4.97951E-13
 -1      1525 1.82573E+01-1.11163E-02 4.12160E-03 1.70058E-01-8.46653E-15 7.35887E-13
 -1      1526 1.84690E+01-2.12930E-02 1.49853E-03 1.53643E-01 1.28298E-14 7.50594E-13
 -1      1527 1.86773E+01-2.51055E-02 7.14082E-03 2.69808E-01 2.18649E-14 5.13479E-13
 -1      1528 1.77658E+01-6.48853E-03 2.26091E-03 2.12714E-01 4.20988E-14 6.26686E-13
 -1      1529 1.80442E+01-1.77557E-02 7.49445E-04 1.98414E-01 2.47296E-14 7.08929E-13
 -1      1530 1.83159E+01-1.86593E-02 6.91643E-03 3.61967E-01 4.42161E-14 5.11479E-13
 -1      1531 1.72039E+01 1.15446E-03-7.84947E-04 2.30854E-01 3.48742E-14 5.92547E-13
 -1      1532 1.75217E+01-9.08945E-03-3.72051E-04 2.22640E-01 2.40843E-14 6.21132E-13
 -1      1533 1.78747E+01-6.12325E-03 4.93300E-03 4.21720E-01 4.33986E-14 4.43355E-13
 -1      1534 1.66486E+01 1.06281E-02-4.58924E-03 2.13141E-01-2.35992E-14 6.27035E-13
 -1      1535 1.69613E+01 3.92295E-03-1.80450E-03 2.14603E-01-6.86430E-15 6.13854E-13
 -1      1536 1.74028E+01 1.12757E-02 1.17933E-03 4.25325E-01 9.08540E-15 5.16255E-13
 -1      1537 1.61956E+01 1.96096E-02-8.16961E-03 1.55273E-01-2.21238E-14 7.43914E-13
 -1      1538 1.64488E+01 1.86723E-02-3.22050E-03 1.68122E-01-5.19853E-14 6.49919E-13
 -1      1539 1.69710E+01 3.00410E-02-3.70536E-03 3.57166E-01-7.54652E-14 5.14701E-13
 -1      1540 1.59362E+01 2.53337E-02-1.02937E-02 6.37476E-02 1.98092E-14 7.06055E-13
 -1      1541 1.60785E+01 3.12399E-02-4.10337E-03 8.66271E-02 2.74195E-14 7.46689E-13
 -1      1542 1.66584E+01 4.51223E-02-8.45719E-03 2.18154E-01 7.65013E-16 4.92555E-13
 -1      1543 1.59306E+01 2.58101E-02-1.00605E-02-4.43278E-02 8.20784E-15 6.33717E-13
 -1      1544 1.59289E+01 3.78704E-02-3.98878E-03-1.58665E-02 3.24072E-14 6.75564E-13
 -1      1545 1.65309E+01 5.17711E-02-1.16335E-02 2.95713E-02 4.88489E-14 4.39708E-13
 -1      1546 1.61886E+01 2.08470E-02-7.41691E-03-1.46353E-01 1.76001E-14 6.03607E-13
 -1      1547 1.60384E+01 3.66740E-02-2.74976E-03-1.18425E-01-2.18575E-16 6.30407E-13
 -1      1548 1.66217E+01 4.77102E-02-1.22762E-02-1.71427E-01 2.88328E-14 4.55710E-13
 -1      1549 1.66663E+01 1.21682E-02-3.23237E-03-2.22119E-01 2.34925E-15 4.42686E-13
 -1      1550 1.63935E+01 2.84875E-02-7.21816E-04-2.00287E-01 4.38798E-14 5.06329E-13
 -1      1551 1.69197E+01 3.42848E-02-1.03749E-02-3.43877E-01 8.06603E-14 4.07334E-13
 -1      1552 1.72820E+01 2.53130E-03 1.13992E-03-2.60414E-01 2.67619E-14 3.82491E-13
 -1      1553 1.69332E+01 1.63370E-02 1.44286E-03-2.47860E-01-2.89894E-15 3.81029E-13
 -1      1554 1.73743E+01 1.58270E-02-6.80582E-03-4.56941E-01 5.37968E-14 2.59204E-13
 -1      1555 1.79414E+01-5.54201E-03 4.50835E-03-2.61185E-01 6.33755E-14 2.60101E-13
 -1      1556 1.75701E+01 3.91806E-03 3.09699E-03-2.58141E-01 2.33968E-14 3.46449E-13
 -1      1557 1.79123E+01-2.35984E-03-2.82162E-03-4.98698E-01 3.39418E-14 1.28043E-13
 -1      1558 1.85625E+01-1.06430E-02 6.28410E-03-2.33056E-01-7.08786E-15 2.47816E-13
 -1      1559 1.82146E+01-5.91052E-03 3.87875E-03-2.37486E-01 1.69816E-14 2.49453E-13
 -1      1560 1.84585E+01-1.61480E-02 5.28986E-04-4.76306E-01 3.12409E-14 1.53547E-13
 -1      1561 1.90902E+01-1.26134E-02 6.52646E-03-1.88459E-01-1.64491E-14 3.02340E-13
 -1      1562 1.87964E+01-1.18551E-02 3.79459E-03-1.97335E-01-1.06805E-14 2.90360E-13
 -1      1563 1.89536E+01-2.37324E-02 2.71518E-03-4.09268E-01 5.10442E-15 1.91397E-13
 -1      1564 1.94994E+01-1.21425E-02 5.69755E-03-1.39139E-01 5.94685E-14 2.13068E-13
 -1      1565 1.92731E+01-1.40534E-02 3.11101E-03-1.49583E-01 7.92881E-14 3.31245E-13
 -1      1566 1.93618E+01-2.55031E-02 3.70679E-03-3.20550E-01 6.17119E-14 2.34010E-13
 -1      1567 1.97900E+01-1.02238E-02 4.35789E-03-9.35594E-02 7.02910E-15 2.00559E-13
 -1      1568 1.96307E+01-1.34774E-02 2.17308E-03-1.03482E-01-6.53986E-14 1.04495E-13
 -1      1569 1.96704E+01-2.31357E-02 3.77723E-03-2.29683E-01-4.28650E-15 1.44796E-13
 -1      1570 1.99773E+01-7.75382E-03 2.95820E-03-5.62975E-02-3.46210E-14 2.58600E-13
 -1      1571 1.98758E+01-1.13160E-02 1.26338E-03-6.45422E-02 2.66016E-14 2.23687E-13
 -1      1572 1.98843E+01-1.86018E-02 3.29173E-03-1.49533E-01-4.56740E-14 1.72244E-13
 -1      1573 2.00838E+01-5.35071E-03 1.76511E-03-2.87230E-02 4.76633E-14 1.55038E-13
 -1      1574 2.00272E+01-8.57523E-03 5.43257E-04-3.48996E-02 3.26690E-14 2.20116E-13
 -1      1575 2.00184E+01-1.35181E-02 2.56911E-03-8.62017E-02 5.99694E-14 1.86010E-13
 -1      1576 2.01328E+01-3.34189E-03 8.80549E-04-1.01395E-02 1.82473E-14 4.56488E-14
 -1      1577 2.01077E+01-5.92513E-03 6.16699E-05-1.43520E-02 2.07546E-14 1.02817E-13
 -1      1578 2.00917E+01-8.90762E-03 1.82747E-03-4.06666E-02 7.81773E-14 1.32058E-13
 -1      1579 2.01444E+01-1.83437E-03 2.98570E-04 1.15163E-03-1.52418E-14 7.48717E-15
 -1      1580 2.01395E+01-3.71250E-03-2.05173E-04-1.44580E-03-2.84252E-14 4.87199E-14
 -1      1581 2.01223E+01-5.24399E-03 1.18542E-03-1.08512E-02-2.46112E-14 1.07705E-13
 -1      1582 2.01342E+01-8.02299E-04-3.87886E-05 7.09571E-03 4.71112E-14 4.47675E-14
 -1      1583 2.01408E+01-2.04785E-03-3.12887E-04 5.69614E-03 6.18364E-15 5.14932E-14
 -1      1584 2.01258E+01-2.61617E-03 6.87670E-04 6.62644E-03-2.92288E-14 6.45484E-14
 -1      1585 2.01135E+01-1.58371E-04-2.02615E-04 9.45560E-03-2.75640E-14 3.54432E-14
 -1      1586 2.01255E+01-9.01567E-04-3.20398E-04 8.86885E-03 2.47696E-14 8.97995E-14
 -1      1587 2.01139E+01-9.01084E-04 3.34107E-04 1.52911E-02-6.46350E-15 1.62124E-13
 -1      1588 2.00894E+01 1.99648E-04-2.56386E-04 9.63113E-03-6.87363E-14 1.34172E-13
 -1      1589 2.01029E+01-1.79665E-04-2.75626E-04 9.54771E-03-8.18288E-14 1.70816E-15
 -1      1590 2.00950E+01 1.06830E-04 1.02845E-04 1.81944E-02-2.67884E-14 2.44964E-13
 -1      1591 2.00662E+01 3.64335E-04-2.48303E-04 8.63236E-03 5.86720E-14 1.10825E-13
 -1      1592 2.00790E+01 2.27584E-04-2.11471E-04 8.82646E-03 4.27008E-14 1.30177E-13
 -1      1593 2.00743E+01 6.17465E-04-3.48549E-05 1.76898E-02 1.17706E-14 1.00033E-13
 -1      1594 2.00461E+01 4.08947E-04-2.11011E-04 7.12985E-03-1.29398E-13 2.00643E-13
 -1      1595 2.00570E+01 4.19939E-04-1.47349E-04 7.44966E-03-8.50340E-14 5.99845E-14
 -1      1596 2.00549E+01 8.07824E-04-1.06474E-04 1.54373E-02-5.41771E-14 1.04754E-13
 -1      1597 2.00298E+01 3.86299E-04-1.64489E-04 5.53189E-03 1.14747E-15 1.76583E-13
 -1      1598 2.00385E+01 4.76947E-04-9.27474E-05 5.88339E-03 3.55055E-14 2.82112E-13
 -1      1599 2.00382E+01 8.10882E-04-1.34728E-04 1.25159E-02-2.21400E-14 1.09742E-13
 -1      1600 2.00174E+01 3.31624E-04-1.19640E-04 4.06088E-03 1.26386E-13-5.08666E-14
 -1      1601 2.00239E+01 4.56561E-04-5.08165E-05 4.39151E-03 4.87123E-14 1.07404E-13
 -1      1602 2.00248E+01 7.18138E-04-1.36735E-04 9.56620E-03 1.47192E-13 1.42065E-13
 -1      1603 2.00084E+01 2.66682E-04-8.14761E-05 2.81724E-03-8.73256E-14 6.83775E-15
 -1      1604 2.00131E+01 3.97973E-04-2.11934E-05 3.10201E-03-1.40555E-14-4.11730E-14
 -1      1605 2.00146E+01 5.87711E-04-1.24501E-04 6.92415E-03 3.99437E-14 1.71445E-13
 -1      1606 2.00023E+01 2.03721E-04-5.15175E-05 1.82724E-03-1.16243E-13 2.78186E-13
 -1      1607 2.00054E+01 3.25826E-04-1.91268E-06 2.05819E-03-4.06663E-14 1.57475E-13
 -1      1608 2.00072E+01 4.53403E-04-1.05918E-04 4.72933E-03-1.62580E-13 3.20448E-13
 -1      1609 1.99984E+01 1.48723E-04-2.94291E-05 1.07638E-03 1.94387E-13 1.94139E-13
 -1      1610 2.00003E+01 2.54344E-04 9.44827E-06 1.25521E-03-2.14261E-14 1.89639E-13
 -1      1611 2.00021E+01 3.32624E-04-8.58216E-05 3.00446E-03-6.74883E-14 1.05685E-13
 -1      1612 1.99962E+01 1.03812E-04-1.40448E-05 5.31105E-04 2.23600E-13-3.02793E-13
 -1      1613 1.99972E+01 1.90771E-04 1.51703E-05 6.64256E-04 2.90783E-13 1.21714E-13
 -1      1614 1.99989E+01 2.32496E-04-6.69164E-05 1.70999E-03 3.35359E-13 3.97103E-14
 -1      1615 1.99951E+01 6.89118E-05-3.95583E-06 1.51973E-04-1.07656E-13-3.97432E-13
 -1      1616 1.99955E+01 1.37948E-04 1.71381E-05 2.47596E-04-3.26111E-14-4.47306E-13
 -1      1617 1.99971E+01 1.54156E-04-5.05024E-05 7.79113E-04 1.35121E-13-6.80170E-14
 -1      1618 1.99950E+01 4.28190E-05 2.18840E-06-9.89279E-05 2.51588E-15-2.77666E-13
 -1      1619 1.99949E+01 9.61176E-05 1.67822E-05-3.27140E-05-7.07410E-14-4.12338E-13
 -1      1620 1.99962E+01 9.55970E-05-3.70028E-05 1.38705E-04-7.96811E-14-4.47576E-14
 -1      1621 1.99953E+01 2.38404E-05 5.56334E-06-2.54226E-04 4.08848E-14-2.62548E-13
 -1      1622 1.99950E+01 6.40931E-05 1.51212E-05-2.10274E-04 2.96775E-14-2.37750E-13
 -1      1623 1.99961E+01 5.33815E-05-2.63235E-05-2.79069E-04-3.95233E-14-1.62046E-13
 -1      1624 1.99960E+01 1.01352E-05 7.17644E-06-3.39643E-04 9.83850E-14-4.94022E-13
 -1      1625 1.99956E+01 3.99532E-05 1.28573E-05-3.12243E-04 1.37571E-13-2.89593E-13
 -1      1626 1.99964E+01 2.35840E-05-1.80730E-05-5.31050E-04 1.72301E-13-1.97132E-13
 -1      1627 1.99969E+01-1.22468E-07 7.97411E-06-3.73485E-04-6.45698E-14-4.25033E-13
 -1      1628 1.99963E+01 2.14069E-05 1.05020E-05-3.58575E-04-1.17087E-13-5.15828E-13
 -1      1629 1.99969E+01 2.25986E-06-1.16559E-05-6.60682E-04 3.07391E-14-1.41216E-13
 -1      1630 1.99978E+01-8.75760E-06 9.08238E-06-3.66483E-04 7.95519E-16-2.76590E-13
 -1      1631 1.99972E+01 5.84788E-06 8.56386E-06-3.61836E-04-5.69192E-14-3.45311E-13
 -1      1632 1.99976E+01-1.45836E-05-6.29408E-06-6.97300E-04-1.33511E-13-1.46466E-13
 -1      1633 1.99986E+01-1.76231E-05 1.18472E-05-3.21327E-04-4.59951E-14-3.31988E-13
 -1      1634 1.99981E+01-9.74287E-06 7.80752E-06-3.26955E-04-6.49201E-15-4.20490E-13
 -1      1635 1.99983E+01-3.13057E-05-9.43607E-07-6.55780E-04 1.13305E-13-2.35993E-13
 -1      1636 1.99993E+01-2.82085E-05 1.50933E-05-2.32719E-04 1.00081E-14-4.94329E-13
 -1      1637 1.99989E+01-2.86644E-05 8.46686E-06-2.51755E-04 1.05597E-13-3.63102E-13
 -1      1638 1.99989E+01-5.18714E-05 5.05368E-06-5.36464E-04 9.27917E-14-1.93577E-13
 -1      1639 1.99997E+01-4.19701E-05 5.09799E-06-1.00991E-04 7.11118E-15-3.49617E-13
 -1      1640 1.99995E+01-4.94095E-05 7.80405E-06-1.32495E-04 1.39070E-14-4.29211E-13
 -1      1641 1.99994E+01-8.15166E-05 8.81658E-06-3.33864E-04 7.45262E-14-1.65758E-13
 -1      1642 1.99998E+01-3.72939E-05 2.98917E-06-1.58698E-05-8.61911E-14-1.45022E-13
 -1      1643 1.99998E+01-4.16333E-04 6.98599E-06-2.00416E-04-5.78744E-13-3.27109E-13
 -1      1644 1.99997E+01-2.09631E-04 6.61145E-07-1.65761E-04-2.80440E-13-1.26074E-13
 -1      1645 1.99998E+01-9.84867E-04 1.98552E-06-2.98360E-04-3.35963E-13 2.91602E-13
 -1      1646 1.99998E+01-6.41702E-04 3.90243E-06-2.81709E-04-4.81604E-13 3.28789E-14
 -1      1647 1.99997E+01-5.44206E-04 8.42919E-06-4.66003E-04-2.76987E-13-1.13615E-13
 -1      1648 1.99998E+01-1.65519E-03-1.35072E-06-3.32212E-04-2.85721E-13 1.55646E-13
 -1      1649 1.99998E+01-1.25703E-03 1.52852E-06-3.31022E-04-3.98050E-13 3.44818E-13
 -1      1650 1.99998E+01-1.03180E-03 3.71913E-06-6.05208E-04-7.19671E-14 2.78945E-13
 -1      1651 1.99998E+01-2.32008E-03-2.28500E-06-3.15473E-04 1.89635E-13 1.66733E-13
 -1      1652 1.99998E+01-1.93428E-03-1.88858E-07-3.22702E-04-2.98472E-13 3.19112E-13
 -1      1653 1.99998E+01-1.57446E-03-1.53220E-06-6.28682E-04-2.08290E-13 2.51700E-13
 -1      1654 1.99998E+01-2.89336E-03-2.08769E-06-2.65296E-04-3.98429E-14-7.52455E-14
 -1      1655 1.99998E+01-2.56974E-03-5.22484E-07-2.77541E-04 8.22772E-14-5.92625E-14
 -1      1656 1.99998E+01-2.09348E-03-5.26048E-06-5.70347E-04-7.13071E-14-8.18182E-15
 -1      1657 1.99998E+01-3.33971E-03-1.55435E-06-1.91355E-04-7.29038E-14-1.33369E-13
 -1      1658 1.99998E+01-3.09789E-03-5.60751E-07-2.07290E-04 2.13247E-14-1.16641E-13
 -1      1659 1.99998E+01-2.53816E-03-7.43849E-06-4.55116E-04-1.02135E-13-1.47207E-13
 -1      1660 1.99998E+01-3.61058E-03-1.05281E-06-1.02617E-04-2.63209E-13-2.43947E-13
 -1      1661 1.99998E+01-3.47552E-03-5.30898E-07-1.20690E-04-1.04026E-13-9.43767E-14
 -1      1662 1.99999E+01-2.87075E-03-8.92857E-06-3.00821E-04 1.32041E-13-2.74144E-13
 -1      1663 1.99998E+01-3.68359E-03-7.72331E-07-5.10306E-06 1.37430E-13 2.75621E-13
 -1      1664 1.99998E+01-3.66665E-03-7.57792E-07-2.44187E-05-1.89344E-13 1.65636E-13
 -1      1665 1.99999E+01-3.05883E-03-9.85645E-06-1.22575E-04 3.97535E-13-2.60826E-14
 -1      1666 1.99998E+01-3.54828E-03-7.21161E-07 9.57342E-05 3.94345E-13 3.52979E-13
 -1      1667 1.99998E+01-3.65394E-03-1.24822E-06 7.61284E-05 1.76088E-14 2.71922E-13
 -1      1668 1.99999E+01-3.08561E-03-1.03052E-05 6.83613E-05 3.92571E-13 3.37791E-13
 -1      1669 1.99998E+01-3.20825E-03-8.22171E-07 1.93202E-04 4.37861E-13-1.68014E-13
 -1      1670 1.99998E+01-3.43267E-03-1.96235E-06 1.74659E-04 4.90002E-13 9.11748E-14
 -1      1671 1.99999E+01-2.94480E-03-1.01334E-05 2.60393E-04 2.21879E-13 3.60687E-13
 -1      1672 1.99998E+01-2.69552E-03-8.91719E-07 2.76563E-04 5.59656E-13 1.32165E-13
 -1      1673 1.99998E+01-3.01742E-03-2.53304E-06 2.61473E-04 4.60885E-13-1.30456E-13
 -1      1674 1.99999E+01-2.64561E-03-9.12330E-06 4.37051E-04 5.86314E-13-2.31751E-13
 -1      1675 1.99998E+01-2.03935E-03-2.95911E-07 3.35415E-04 1.01136E-12 3.23211E-13
 -1      1676 1.99998E+01-2.43895E-03-2.57671E-06 3.25829E-04 6.15353E-13 4.48194E-13
 -1      1677 1.99998E+01-2.20857E-03-6.71931E-06 5.78789E-04 5.67042E-13 4.32274E-13
 -1      1678 1.99998E+01-1.32657E-03 1.91049E-06 3.50043E-04 8.15608E-13-1.83391E-13
 -1      1679 1.99998E+01-1.74728E-03-1.12429E-06 3.50886E-04 1.02631E-12-1.73508E-14
 -1      1680 1.99998E+01-1.66991E-03-2.55797E-06 6.58580E-04 6.14844E-13 1.77715E-13
 -1      1681 1.99998E+01-6.72413E-04 5.20264E-06 3.00539E-04 3.73013E-13-1.43223E-13
 -1      1682 1.99998E+01-1.03797E-03 2.90372E-06 3.18323E-04 7.42467E-13-1.86459E-13
 -1      1683 1.99998E+01-1.09928E-03 3.34766E-06 6.40012E-04 5.89499E-13-2.62935E-13
 -1      1684 1.99997E+01-2.34232E-04 3.94729E-06 1.67426E-04 3.18242E-15-1.80668E-13
 -1      1685 1.99998E+01-4.62112E-04 1.00158E-05 2.01840E-04 3.07164E-13-2.47996E-13
 -1      1686 1.99997E+01-6.15934E-04 8.31119E-06 4.86193E-04 2.70838E-13-4.05200E-13
 -1      1687 1.99997E+01-2.54438E-04 9.44060E-06 2.44221E-04 2.85878E-13-2.34287E-13
 -1      1688-4.05246E-01-1.51481E+01-1.56618E+00-2.07697E-02 8.66751E-13 2.36006E-13
 -1      1689-5.96464E-01-1.84267E+01-1.85957E+00 1.31817E+00 8.50486E-13 7.85205E-14
 -1      1690 1.77917E+00-7.48918E+00-1.10604E+00 1.29251E+00 9.90097E-13 3.92186E-13
 -1      1691 8.85264E-01-1.34677E+01-1.67911E+00 5.34307E-01 9.46354E-13 3.01453E-13
 -1      1692 7.80621E+00 1.07070E+00-4.16081E-01 5.80537E+00 1.01186E-12 6.44595E-13
 -1      1693 4.43432E+00-4.91279E+00-1.21467E+00 2.60591E+00 1.02851E-12 5.28133E-13
 -1      1694 1.86211E+01 6.66716E+00 3.43690E-01 1.12252E+01 8.72635E-13 8.90288E-13
 -1      1695 1.19432E+01 3.15916E+00-5.57184E-01 7.33573E+00 1.04050E-12 7.46958E-13
 -1      1696 3.27098E+01 8.06772E+00 1.00601E+00 1.44186E+01 5.84532E-13 6.34826E-13
 -1      1697 2.37156E+01 7.62831E+00 1.63589E-01 1.21627E+01 7.79377E-13 7.87814E-13
 -1      1698 4.74708E+01 6.29079E+00 1.51965E+00 1.26544E+01 3.41505E-13 3.98570E-14
 -1      1699 3.81159E+01 7.98180E+00 8.68087E-01 1.37856E+01 5.63216E-13 5.10703E-13
 -1      1700 5.73072E+01 4.32398E+00 1.79997E+00 6.19876E+00 2.26541E-13-7.74825E-13
 -1      1701 5.15158E+01 6.01473E+00 1.44554E+00 1.07257E+01 3.59206E-13-2.03393E-13
 -1      1702 5.89797E+01 4.08159E+00 1.76952E+00-2.71601E+00 3.54494E-13-1.49458E-12
 -1      1703 5.88803E+01 4.17185E+00 1.78627E+00 3.43729E+00 1.98480E-13-1.01472E-12
 -1      1704 5.17042E+01 5.83902E+00 1.43114E+00-1.00284E+01 4.74995E-13-1.60283E-12
 -1      1705 5.71742E+01 4.30338E+00 1.75659E+00-5.39682E+00 3.34760E-13-1.56014E-12
 -1      1706 3.93819E+01 7.92005E+00 9.45459E-01-1.38816E+01 7.26641E-13-1.51790E-12
 -1      1707 4.83772E+01 6.15281E+00 1.58286E+00-1.24637E+01 5.40401E-13-1.68843E-12
 -1      1708 2.45034E+01 6.66953E+00 1.76841E-01-1.13942E+01 1.03884E-12-1.21014E-12
 -1      1709 3.41409E+01 7.11189E+00 1.00218E+00-1.35911E+01 8.83071E-13-1.32117E-12
 -1      1710 1.18501E+01 2.79586E+00-5.45462E-01-7.13658E+00 1.00453E-12-1.00875E-12
 -1      1711 1.83507E+01 6.29118E+00 2.89184E-01-1.09599E+01 1.11200E-12-1.24578E-12
 -1      1712 5.16573E+00-6.13253E+00-1.12757E+00-2.91297E+00 5.82201E-13-5.72542E-13
 -1      1713 8.66834E+00-1.36038E-01-3.83562E-01-6.01907E+00 8.46434E-13-8.94174E-13
 -1      1714 5.93286E-01-1.43606E+01-1.74829E+00-3.64947E-01 1.91847E-13-3.19623E-13
 -1      1715 1.32842E+00-8.50112E+00-1.17988E+00-8.78444E-01 5.64881E-13-3.91243E-13
 -1      1716-7.05735E-01-1.87087E+01-1.87691E+00-1.40261E+00-4.98768E-13-2.85827E-13
 -1      1717-4.93733E-01-1.57061E+01-1.58657E+00 1.19244E-02 1.94289E-14-3.40533E-13
 -1      1718-1.36998E+00-1.86859E+01-2.00411E+00-2.80628E+00-1.08624E-12-3.95461E-13
 -1      1719-1.01354E+00-1.97597E+01-1.98874E+00-9.54844E-01-7.12125E-13-2.60070E-13
 -1      1720-3.08605E-01-1.30860E+01-1.79612E+00-2.20837E+00-1.42442E-12-7.15761E-13
 -1      1721-4.63672E-01-1.73514E+01-2.05618E+00-2.07432E+00-1.21558E-12-5.33740E-13
 -1      1722 3.98740E+00-5.52951E+00-1.47777E+00 1.06939E+00-1.46705E-12-1.12621E-12
 -1      1723 1.71771E+00-1.13750E+01-2.04413E+00-1.28042E+00-1.50124E-12-8.18456E-13
 -1      1724 1.65059E+01 7.68993E-01-6.03303E-01 7.03012E+00-1.28320E-12-1.36846E-12
 -1      1725 9.50090E+00-4.00028E+00-1.57047E+00 2.76417E+00-1.36313E-12-1.18305E-12
 -1      1726 3.42353E+01 4.54777E+00 8.01023E-01 1.17162E+01-9.51683E-13-1.27121E-12
 -1      1727 2.27632E+01 2.60164E+00-6.10149E-01 8.18307E+00-1.25810E-12-1.39266E-12
 -1      1728 5.42408E+01 4.40367E+00 2.41987E+00 1.11614E+01-5.67102E-13-8.19567E-13
 -1      1729 4.13880E+01 5.04023E+00 9.03385E-01 1.11229E+01-7.85261E-13-1.14619E-12
 -1      1730 6.88268E+01 3.71973E+00 3.73279E+00 5.29925E+00-3.58269E-13 2.59792E-14
 -1      1731 5.96276E+01 5.10693E+00 2.68658E+00 9.75196E+00-4.51597E-13-5.13145E-13
 -1      1732 7.02583E+01 4.17244E+00 3.78996E+00-3.23702E+00-3.74145E-13 8.96727E-13
 -1      1733 7.02277E+01 4.18586E+00 3.79080E+00 3.41829E+00-3.38674E-13 3.37674E-13
 -1      1734 5.89782E+01 5.06332E+00 2.59011E+00-9.66305E+00-6.30218E-13 1.34315E-12
 -1      1735 6.88848E+01 3.64986E+00 3.74112E+00-5.11048E+00-3.42948E-13 1.09823E-12
 -1      1736 3.97662E+01 4.71395E+00 6.68625E-01-1.07257E+01-1.10367E-12 1.70264E-12
 -1      1737 5.33505E+01 4.39857E+00 2.37174E+00-1.11699E+01-8.10740E-13 1.45661E-12
 -1      1738 2.15078E+01 1.10619E+00-8.34634E-01-6.95846E+00-1.01097E-12 1.49303E-12
 -1      1739 3.30758E+01 3.63416E+00 6.75697E-01-1.07411E+01-1.00864E-12 1.75127E-12
 -1      1740 7.92548E+00-4.73223E+00-1.70865E+00-2.10495E+00-7.84706E-13 9.79661E-13
 -1      1741 1.44152E+01 4.07921E-01-6.98623E-01-6.32631E+00-1.00986E-12 1.42042E-12
 -1      1742 1.36895E+00-1.20435E+01-2.06294E+00 1.56827E+00-3.93019E-14 4.88387E-13
 -1      1743 3.32018E+00-6.36095E+00-1.51652E+00-4.80954E-01-6.51923E-13 8.81517E-13
 -1      1744-5.93095E-01-1.76505E+01-2.02904E+00 2.09406E+00 5.93525E-13 1.17545E-13
 -1      1745-5.82450E-01-1.36093E+01-1.81756E+00 2.49591E+00 1.80189E-13 2.88033E-13
 -1      1746-9.72712E-01-1.86842E+01-1.82278E+00 8.61501E-01 7.40547E-13 3.89688E-14
 -1      1747-1.30428E+00-1.81374E+01-1.87225E+00 2.63957E+00 6.57863E-13 2.37588E-14
 -1      1748 3.43091E+01-5.94186E-01-1.58994E-01-3.48053E+00-1.80342E-13 2.77833E-13
 -1      1749 2.97351E+01 2.02643E-03-7.37089E-01-3.58626E+00-2.70783E-13-2.23155E-14
 -1      1750-1.76683E+00-1.24066E+01-1.31204E+00 1.88885E+00 4.27380E-13 4.71845E-14
 -1      1751 1.52432E+01-1.85157E+00-2.63314E-01 7.73052E+00 6.49591E-13 5.02043E-13
 -1      1752 1.99997E+01-8.87202E-05 9.07210E-06-1.01156E-04-2.65723E-13-9.13817E-14
 -1      1753 1.99996E+01-2.15781E-04 4.70943E-06-2.82638E-04-1.21414E-13-2.44971E-13
 -1      1754 8.82421E-01-1.07691E+01-1.17101E+00 3.68186E+00 4.89386E-13 1.96565E-13
 -1      1755 6.59226E+00-6.70386E+00-7.92040E-01 5.65554E+00 5.09370E-13 3.05062E-13
 -1      1756 2.57669E+01 2.36229E+00 3.49547E-01 9.06679E+00 5.98299E-13 4.15890E-13
 -1      1757 3.64874E+01 5.36325E+00 9.09299E-01 8.63532E+00 5.53141E-13 1.43108E-13
 -1      1758 4.52388E+01 7.20649E+00 1.29774E+00 6.07198E+00 5.54390E-13-2.47469E-13
 -1      1759 5.03197E+01 8.06753E+00 1.51883E+00 2.34754E+00 4.77840E-13-5.45702E-13
 -1      1760 4.99939E+01 8.21786E+00 1.49302E+00-1.80580E+00 4.29656E-13-8.34638E-13
 -1      1761 4.56404E+01 7.31523E+00 1.34148E+00-5.76740E+00 3.59379E-13-1.01186E-12
 -1      1762 3.70682E+01 4.83402E+00 8.44600E-01-7.72505E+00 4.83752E-13-9.78551E-13
 -1      1763 2.63028E+01 1.65984E+00 3.28864E-01-8.53614E+00 5.74873E-13-7.75491E-13
 -1      1764 1.56295E+01-3.00490E+00-3.33686E-01-7.67658E+00 4.18110E-13-7.87315E-13
 -1      1765 7.02091E+00-7.12686E+00-6.48636E-01-6.10748E+00 2.35367E-13-5.62543E-13
 -1      1766 4.73461E-01-1.10656E+01-1.18727E+00-3.47016E+00-2.10942E-14-5.44620E-13
 -1      1767-1.93151E+00-1.29918E+01-1.38903E+00-1.66317E+00-3.47361E-13-5.09814E-13
 -1      1768-8.45445E-01-1.29406E+01-1.46892E+00 4.63820E-01-6.43485E-13-5.64326E-13
 -1      1769 3.72229E+00-1.04782E+01-1.35472E+00 2.36836E+00-8.89955E-13-6.21253E-13
 -1      1770 1.31617E+01-7.10770E+00-9.53042E-01 4.52885E+00-8.26450E-13-7.98361E-13
 -1      1771 2.60449E+01-3.50063E+00-3.36232E-01 5.42160E+00-8.43103E-13-7.93920E-13
 -1      1772 4.03972E+01 7.05185E-01 8.69104E-01 4.58938E+00-8.35165E-13-6.94111E-13
 -1      1773 5.23882E+01 4.60826E+00 2.10201E+00 2.47734E+00-6.60777E-13-2.72671E-13
 -1      1774 5.82572E+01 7.56898E+00 2.84414E+00 6.90097E-01-6.86895E-13 2.23932E-13
 -1      1775 5.82351E+01 7.34532E+00 2.78773E+00-7.07308E-01-5.28355E-13 5.15921E-13
 -1      1776 5.18500E+01 4.36372E+00 2.02247E+00-2.51878E+00-6.70325E-13 7.21645E-13
 -1      1777 3.94481E+01-2.68700E-01 7.12937E-01-3.77570E+00-6.20060E-13 8.38440E-13
 -1      1778 2.54180E+01-4.27220E+00-2.50886E-01-5.00656E+00-3.18745E-13 9.39027E-13
 -1      1779 1.18576E+01-7.54081E+00-1.02148E+00-4.18044E+00-1.95843E-13 8.69471E-13
 -1      1780 3.11559E+00-1.08070E+01-1.39519E+00-2.03527E+00 1.06137E-13 6.95333E-13
 -1      1781-1.08414E+00-1.23828E+01-1.39166E+00-1.52260E-01 3.80751E-13 2.43305E-13
 -1      1782 3.42808E+01 5.36401E-01-3.14362E-01-5.43721E+00-5.40679E-13-1.57294E-13
 -1      1783 2.30152E+01 1.99812E+00-2.76047E-02-2.69808E+00-1.17673E-13 1.58096E-13
 -1      1784 3.56556E+01-1.60193E+00 6.37252E-02-4.50040E+00-1.77969E-13 2.60639E-13
 -1      1785 1.98856E+01 3.77029E+00-3.60640E-02-1.99722E+00-7.87634E-14-3.07570E-13
 -1      1786 2.01559E+01 3.60406E+00-4.01536E-02-2.28092E+00-1.09265E-13-2.74707E-13
 -1      1787 2.05010E+01 3.19726E+00-4.54371E-02-2.43259E+00-1.19914E-13-2.20643E-13
 -1      1788 2.07406E+01 2.82267E+00-1.35722E-01-2.71789E+00-1.49741E-13-1.65840E-13
 -1      1789 2.05567E+01 2.73318E+00-1.58822E-03-2.04762E+00-1.17562E-13-2.35034E-13
 -1      1790 1.92572E+01 4.29090E+00-2.03807E-02-1.17881E+00 1.47087E-14-2.89706E-13
 -1      1791 1.93653E+01 4.24904E+00-1.60567E-02-1.38227E+00-9.42345E-15-3.08708E-13
 -1      1792 1.91133E+01 4.39877E+00-1.61638E-02-8.21931E-01 5.12557E-14-2.87119E-13
 -1      1793 1.91757E+01 4.37671E+00-1.37239E-02-1.00817E+00 3.14258E-14-2.91357E-13
 -1      1794 1.93954E+01 3.92710E+00-7.27787E-03-1.04087E+00 1.67919E-14-2.73509E-13
 -1      1795 1.90477E+01 4.44640E+00-1.35137E-02-4.82101E-01 9.80950E-14-2.49748E-13
 -1      1796 1.90724E+01 4.43851E+00-1.31169E-02-6.59201E-01 7.58361E-14-2.72015E-13
 -1      1797 1.92582E+01 4.04196E+00-7.48080E-03-7.15684E-01 7.02211E-14-2.70645E-13
 -1      1798 1.90435E+01 4.44935E+00-1.20437E-02-1.42401E-01 1.37728E-13-2.05171E-13
 -1      1799 1.90387E+01 4.45189E+00-1.33018E-02-3.19342E-01 1.24640E-13-2.29042E-13
 -1      1800 1.92039E+01 4.08266E+00-7.98386E-03-3.96131E-01 1.17830E-13-2.24104E-13
 -1      1801 1.90869E+01 4.41788E+00-1.15515E-02 2.10169E-01 1.67525E-13-1.61572E-13
 -1      1802 1.90593E+01 4.42871E+00-1.39749E-02 2.66926E-02 1.53855E-13-1.87243E-13
 -1      1803 1.92146E+01 4.06782E+00-8.62132E-03-6.86376E-02 1.55834E-13-1.85504E-13
 -1      1804 1.91688E+01 4.35682E+00-1.20016E-02 5.84613E-01 1.88070E-13-1.28487E-13
 -1      1805 1.91222E+01 4.37556E+00-1.51542E-02 3.89556E-01 1.79181E-13-1.54364E-13
 -1      1806 1.92758E+01 4.00910E+00-9.24239E-03 2.76341E-01 1.79790E-13-1.41998E-13
 -1      1807 1.92865E+01 4.26598E+00-1.35047E-02 9.80297E-01 2.11926E-13-6.11473E-14
 -1      1808 1.92210E+01 4.29346E+00-1.71558E-02 7.72950E-01 1.97087E-13-1.00104E-13
 -1      1809 1.93785E+01 3.91119E+00-9.62747E-03 6.40513E-01 2.02825E-13-1.06314E-13
 -1      1810 1.94575E+01 4.12854E+00-1.69699E-02 1.41659E+00 2.47669E-13 3.02293E-14
 -1      1811 1.93621E+01 4.17225E+00-2.06281E-02 1.18424E+00 2.25151E-13-2.64198E-14
 -1      1812 1.95255E+01 3.76616E+00-9.86765E-03 1.02809E+00 2.29562E-13-3.08729E-14
 -1      1813 1.97176E+01 3.90861E+00-2.52198E-02 1.89192E+00 2.58418E-13 1.42948E-13
 -1      1814 1.95705E+01 3.98526E+00-2.69959E-02 1.63007E+00 2.49325E-13 7.84303E-14
 -1      1815 1.97387E+01 3.54812E+00-9.44176E-03 1.43854E+00 2.55890E-13 6.52291E-14
 -1      1816 2.01538E+01 3.50972E+00-4.42624E-02 2.39966E+00 2.48114E-13 2.97554E-13
 -1      1817 1.99052E+01 3.67089E+00-3.80197E-02 2.09958E+00 2.45057E-13 2.05381E-13
 -1      1818 2.00647E+01 3.20171E+00-6.64428E-03 1.84730E+00 2.59595E-13 1.74692E-13
 -1      1819 2.10067E+01 2.65877E+00-6.19390E-02 2.79174E+00 1.91932E-13 5.52391E-13
 -1      1820 2.04958E+01 3.08946E+00-4.96237E-02 2.54360E+00 2.14682E-13 4.09131E-13
 -1      1821 2.05822E+01 2.59186E+00-8.21103E-04 2.16636E+00 2.33261E-13 3.43670E-13
 -1      1822 2.18194E+01 1.20388E+00-1.23268E-01 2.27920E+00 1.27710E-13 8.05161E-13
 -1      1823 2.13677E+01 2.26330E+00 3.18297E-03 2.68370E+00 1.62976E-13 6.34992E-13
 -1      1824 2.10555E+01 1.67668E+00-1.37029E-02 2.08467E+00 1.84085E-13 5.31120E-13
 -1      1825 2.10662E+01 7.71718E-01-6.02158E-02 1.47703E+00 1.31367E-13 7.55170E-13
 -1      1826 2.19656E+01 2.47933E+00 9.11631E-02-2.96936E+00-1.44563E-13-5.18058E-14
 -1      1827 2.02516E+01 2.91752E-01-5.17177E-03 6.28017E-01 8.55496E-14 6.80657E-13
 -1      1828 2.07670E+01 4.31122E-01-1.44442E-02 9.93481E-01 9.84213E-14 7.06600E-13
 -1      1829 2.08594E+01 8.36688E-01 5.25459E-03 1.35994E+00 1.28370E-13 5.62000E-13
 -1      1830 3.59474E+01-3.89287E+00-2.22886E-02-2.06245E+00-1.80023E-13 1.74416E-13
 -1      1831 3.62604E+01-1.97901E+00-9.50387E-02-4.09408E+00-4.27353E-13 6.31717E-14
 -1      1832 2.08051E+01 5.55457E-01 3.18061E-02-7.94735E-01-1.18704E-13-9.74923E-14
 -1      1833 2.04368E+01 4.12567E-01 1.21087E-02-4.66329E-01-1.07324E-13-1.27942E-13
 -1      1834 2.02842E+01 3.26112E-01 2.85014E-02-1.80134E-01-9.69450E-14-1.14977E-13
 -1      1835 2.01865E+01 2.65584E-01 1.79114E-02 4.61130E-03-8.00714E-14-1.41661E-13
 -1      1836 2.05018E+01 5.82950E-01-7.54462E-03-4.84728E-01-1.11904E-13-1.47255E-13
 -1      1837 2.01215E+01 2.38856E-01 1.83066E-02 1.99257E-01-6.22384E-14-1.36994E-13
 -1      1838 2.01797E+01 2.26750E-01 1.78870E-02 3.33609E-01-4.70683E-14-1.43686E-13
 -1      1839 2.02798E+01 3.91663E-01-7.34485E-03 6.19120E-02-8.54178E-14-1.36583E-13
 -1      1840 2.01850E+01 2.27179E-01 1.02056E-02 5.12463E-01-3.44603E-14-1.38381E-13
 -1      1841 2.03784E+01 2.47905E-01 1.98164E-02 6.55077E-01-1.11829E-14-1.36484E-13
 -1      1842 2.02299E+01 3.50791E-01-5.39123E-03 4.80550E-01-4.41765E-14-1.19619E-13
 -1      1843 2.04426E+01 2.73440E-01 5.25388E-03 8.47434E-01-1.29003E-14-1.45928E-13
 -1      1844 2.07716E+01 3.22465E-01 2.41795E-02 1.02400E+00-1.01473E-14-1.38356E-13
 -1      1845 2.03163E+01 4.00411E-01-3.51276E-03 8.91767E-01-2.51001E-14-9.37739E-14
 -1      1846 2.08774E+01 3.71114E-01 8.89442E-04 1.26502E+00-1.00614E-15-1.27439E-13
 -1      1847 2.13637E+01 4.48319E-01 2.99269E-02 1.50440E+00-8.09595E-15-1.13285E-13
 -1      1848 2.05106E+01 5.31380E-01-8.01599E-04 1.36550E+00-1.65423E-14-9.56962E-14
 -1      1849 2.14925E+01 5.16363E-01-4.46683E-03 1.82428E+00-1.88374E-14-1.20341E-13
 -1      1850 2.21699E+01 6.11035E-01 3.48520E-02 2.14750E+00 3.50119E-14-1.02477E-13
 -1      1851 2.07812E+01 7.35558E-01 2.77213E-03 1.97002E+00-3.58134E-15-6.95874E-14
 -1      1852 2.23062E+01 6.75744E-01-1.05615E-02 2.56293E+00 2.90254E-14-6.60327E-14
 -1      1853 2.31998E+01 7.43559E-01 3.66844E-02 2.95797E+00 5.16219E-14-6.10449E-14
 -1      1854 2.10942E+01 9.73934E-01 7.33815E-03 2.75293E+00 3.83426E-14-9.84206E-14
 -1      1855 2.33421E+01 7.32306E-01-9.84636E-03 3.42318E+00 8.07280E-14-5.66578E-14
 -1      1856 2.44130E+01 6.52303E-01 3.55763E-02 3.76412E+00 1.08658E-13-4.23099E-14
 -1      1857 2.14253E+01 1.10563E+00 1.56883E-02 3.67686E+00 8.83625E-14-9.39262E-14
 -1      1858 2.47273E+01 4.08826E-01 2.68365E-02 4.19970E+00 1.07615E-13 4.95090E-15
 -1      1859 2.60143E+01-1.05211E-01 3.74319E-02 4.24130E+00 1.25774E-13 5.24754E-14
 -1      1860 2.18453E+01 7.70817E-01 1.96304E-02 4.63305E+00 1.43101E-13-1.87506E-14
 -1      1861 2.69146E+01-8.69901E-01 1.23648E-01 4.24573E+00 1.69011E-13 1.59945E-13
 -1      1862 2.82844E+01-2.01896E+00 4.81368E-02 3.43230E+00 2.21129E-13 2.48233E-13
 -1      1863 2.27905E+01-7.79048E-01 1.09726E-02 5.23604E+00 2.48468E-13 9.06913E-14
 -1      1864 3.02684E+01-3.33881E+00 1.45470E-01 2.50025E+00 2.50563E-13 2.00083E-13
 -1      1865 3.14402E+01-4.20257E+00-7.01652E-04 6.71891E-01 9.84768E-14 2.24806E-13
 -1      1866 2.50970E+01-3.63276E+00-1.67194E-02 4.59701E+00 2.05613E-13 1.94879E-13
 -1      1867 3.15388E-01-7.14200E+00-2.99232E-01 2.95192E+00 2.12941E-13 1.06692E-13
 -1      1868-1.85705E-01-7.24770E+00-3.05376E-01 1.36679E+00 1.26645E-13 1.09468E-13
 -1      1869 3.65883E+01 1.17768E+00-2.41104E-01 5.02981E+00-1.51656E-13-5.69045E-13
 -1      1870 3.75901E+01-8.29937E-01-1.23702E-01 5.17741E+00-2.21212E-14-6.52867E-13
 -1      1871 3.55203E+01-2.16859E+00-1.16517E-01 4.20466E+00 3.71786E-14-7.99326E-13
 -1      1872 3.59485E+01-3.06310E+00 3.96158E-02 2.67417E+00 1.93963E-13-7.39991E-13
 -1      1873 3.36323E+01-2.78158E+00 2.88922E-02 5.05303E-01 3.98861E-13-6.76514E-13
 -1      1874 3.31314E+01-2.11721E+00 1.85916E-01-1.28147E+00 4.13752E-13-5.59441E-13
 -1      1875 3.33012E+01-4.11980E+00-5.68964E-02 4.98277E-01 3.21770E-13-4.83558E-13
 -1      1876 3.13231E+01-1.35020E+00 3.48715E-02-2.49970E+00 2.38226E-13-4.03844E-13
 -1      1877 3.01621E+01-5.18295E-01 1.24556E-01-3.26675E+00 2.48732E-13-3.00496E-13
 -1      1878 2.94335E+01-2.52116E+00 1.51730E-02-2.89064E+00 4.14918E-13-3.47535E-13
 -1      1879 2.89402E+01-1.32742E-01 1.01226E-02-3.41976E+00 1.63917E-13-3.02328E-13
 -1      1880 2.74859E+01 3.07077E-01 3.07009E-02-3.41757E+00 5.85886E-14-2.00492E-13
 -1      1881 2.67960E+01-5.34959E-01 1.18441E-02-4.18241E+00 1.87683E-13-1.60914E-13
 -1      1882 2.66930E+01 3.58755E-01 2.89706E-03-3.05630E+00-9.54905E-14-2.19186E-13
 -1      1883 2.53732E+01 4.80345E-01-8.15628E-03-2.75194E+00-2.97973E-14-2.31811E-13
 -1      1884 2.50071E+01 4.55998E-01 2.10544E-03-3.90478E+00-2.72447E-14-1.07143E-13
 -1      1885 2.48064E+01 4.25351E-01 9.43450E-03-2.30797E+00 5.12021E-14-3.16025E-13
 -1      1886 2.37720E+01 4.14813E-01-1.12241E-02-1.97806E+00-2.92318E-14-3.31252E-13
 -1      1887 2.36979E+01 6.62847E-01-1.11457E-03-3.05167E+00-5.89598E-14-1.69156E-13
 -1      1888 2.33485E+01 3.46577E-01 1.48894E-02-1.60628E+00 6.32879E-14-3.69709E-13
 -1      1889 2.26017E+01 3.00111E-01-6.35205E-03-1.34401E+00 1.02432E-13-3.15469E-13
 -1      1890 2.26894E+01 5.67950E-01-1.78298E-04-2.18131E+00 4.12899E-14-3.47330E-13
 -1      1891 2.22856E+01 2.46985E-01 1.53496E-02-1.07316E+00 1.34396E-13-3.34214E-13
 -1      1892 2.17733E+01 2.01908E-01-1.80894E-03-8.87780E-01 1.24025E-13-2.05027E-13
 -1      1893 2.19192E+01 4.11761E-01 5.33211E-04-1.48758E+00 9.01466E-14-3.49779E-13
 -1      1894 2.15541E+01 1.68522E-01 1.31561E-02-7.11222E-01 1.84300E-13-1.75403E-13
 -1      1895 2.12213E+01 1.33918E-01-1.01508E-04-5.91358E-01 2.19104E-13-2.28418E-13
 -1      1896 2.13579E+01 2.78833E-01-3.47870E-04-9.98386E-01 1.70289E-13-1.68174E-13
 -1      1897 2.10512E+01 1.10310E-01 9.73329E-03-4.65924E-01 1.23027E-13-9.71658E-14
 -1      1898 2.08183E+01 8.55619E-02 4.49346E-04-3.83310E-01 1.04596E-13 4.15030E-14
 -1      1899 2.09520E+01 1.85015E-01 3.46554E-04-6.64184E-01 2.17130E-13-1.68659E-13
 -1      1900 2.06997E+01 7.12627E-02 6.96212E-03-3.01738E-01 1.64322E-14 1.66406E-13
 -1      1901 2.05463E+01 5.44019E-02 6.31860E-04-2.48406E-01 1.11126E-13 1.71698E-13
 -1      1902 2.06543E+01 1.18598E-01-3.65374E-06-4.34387E-01 1.23411E-13 1.00794E-13
 -1      1903 2.04636E+01 4.57467E-02 4.74851E-03-1.95591E-01-3.96289E-14-9.88196E-15
 -1      1904 2.03629E+01 3.46241E-02 5.84821E-04-1.61293E-01-1.65826E-13-5.45709E-14
 -1      1905 2.04464E+01 7.56194E-02-1.91353E-04-2.83871E-01-4.43421E-14 1.32123E-13
 -1      1906 2.03055E+01 2.94063E-02 3.18049E-03-1.27120E-01-9.15218E-14 6.08092E-14
 -1      1907 2.02393E+01 2.21397E-02 4.80022E-04-1.05024E-01 9.53534E-15 7.39063E-14
 -1      1908 2.03024E+01 4.82392E-02-2.62183E-04-1.85780E-01-1.56597E-13 1.25837E-13
 -1      1909 2.01997E+01 1.89594E-02 2.10303E-03-8.28392E-02 6.52952E-14-3.65907E-15
 -1      1910 2.01563E+01 1.42935E-02 4.13254E-04-6.85540E-02 1.57746E-13-5.16355E-14
 -1      1911 2.02031E+01 3.09198E-02-2.54985E-04-1.21840E-01 2.00110E-14 2.14433E-13
 -1      1912 2.01303E+01 1.25205E-02 1.41101E-03-5.47239E-02 2.46241E-13-6.44264E-14
 -1      1913 2.01027E+01 9.49202E-03 3.09892E-04-4.57320E-02 2.00863E-13-1.63224E-13
 -1      1914 2.01361E+01 1.99345E-02-3.09580E-04-8.07130E-02 2.08389E-13-7.19874E-14
 -1      1915 2.00835E+01 8.22284E-03 9.37939E-04-3.59901E-02-5.36374E-14 4.65962E-14
 -1      1916 2.00643E+01 6.16567E-03 2.11035E-04-2.97429E-02-1.47387E-13 3.32146E-14
 -1      1917 2.00900E+01 1.32363E-02-1.86592E-04-5.36449E-02 1.53523E-13-5.15424E-15
 -1      1918 2.00513E+01 5.44626E-03 6.36423E-04-2.33281E-02-2.25727E-13 1.03611E-13
 -1      1919 2.00387E+01 4.04856E-03 1.53260E-04-1.91908E-02-1.66045E-14 1.75572E-13
 -1      1920 2.00575E+01 8.63847E-03-1.53396E-04-3.50694E-02-1.05782E-13 2.65939E-13
 -1      1921 2.00300E+01 3.61668E-03 4.27696E-04-1.49299E-02 2.25089E-13-3.91036E-14
 -1      1922 2.00218E+01 2.67211E-03 1.11537E-04-1.21790E-02 1.33964E-13 2.92239E-14
 -1      1923 2.00354E+01 5.68226E-03-1.19390E-04-2.27055E-02 6.18008E-14 1.14334E-13
 -1      1924 2.00160E+01 2.40973E-03 2.88100E-04-9.33792E-03-7.28468E-14-5.85734E-14
 -1      1925 2.00108E+01 1.76533E-03 8.12512E-05-7.50317E-03-2.94261E-13-9.21269E-14
 -1      1926 2.00206E+01 3.75431E-03-9.05741E-05-1.44369E-02-3.65579E-14-8.62874E-14
 -1      1927 2.00070E+01 1.60060E-03 1.92649E-04-5.60727E-03-1.99583E-13-7.34504E-15
 -1      1928 2.00038E+01 1.16652E-03 6.22912E-05-4.38857E-03-2.01679E-14 5.19498E-14
 -1      1929 2.00108E+01 2.48571E-03-6.62731E-05-8.89478E-03-2.19292E-13 1.16876E-14
 -1      1930 2.00015E+01 1.07676E-03 1.30522E-04-3.18410E-03-1.88326E-13-2.61429E-13
 -1      1931 1.99997E+01 7.78453E-04 4.55236E-05-2.40536E-03-1.26065E-13-3.49283E-13
 -1      1932 2.00046E+01 1.63002E-03-5.60680E-05-5.24555E-03-2.98650E-13-1.04660E-13
 -1      1933 1.99982E+01 7.09410E-04 8.84788E-05-1.55739E-03 4.26869E-14-4.92998E-13
 -1      1934 1.99972E+01 4.91069E-04 3.07273E-05-1.01694E-03-1.18391E-14-4.92307E-13
 -1      1935 2.00007E+01 1.08844E-03-3.59820E-05-2.81738E-03-1.87753E-13-4.76324E-13
 -1      1936 1.99964E+01 4.59282E-04 6.02136E-05-4.72919E-04 1.23866E-13-4.59430E-13
 -1      1937 1.99960E+01 3.01112E-04 2.14628E-05-1.25772E-04-9.01537E-14-4.14485E-13
 -1      1938 1.99984E+01 6.91622E-04-2.63698E-05-1.16111E-03 3.98615E-14-6.29871E-13
 -1      1939 1.99957E+01 2.86418E-04 3.96377E-05 2.13430E-04-1.84609E-13-3.02049E-13
 -1      1940 1.99957E+01 1.73578E-04 1.49443E-05 4.27695E-04 6.49875E-14-3.25327E-13
 -1      1941 1.99972E+01 4.25266E-04-1.86877E-05-9.55874E-05-1.33450E-13-2.83288E-13
 -1      1942 1.99956E+01 1.68514E-04 2.52759E-05 6.27696E-04 1.01547E-13-4.63752E-13
 -1      1943 1.99958E+01 8.77969E-05 1.01307E-05 7.51508E-04-3.63772E-14-4.08252E-13
 -1      1944 1.99967E+01 2.45689E-04-1.28994E-05 5.65462E-04-1.11458E-13-3.66446E-13
 -1      1945 1.99959E+01 8.72387E-05 1.49879E-05 8.56913E-04 1.95907E-13-3.89167E-13
 -1      1946 1.99963E+01 3.04245E-05 6.59979E-06 9.17927E-04 2.87995E-13-1.32828E-13
 -1      1947 1.99967E+01 1.24986E-04-8.49128E-06 9.49365E-04 9.32853E-14-2.87595E-13
 -1      1948 1.99965E+01 3.22576E-05 7.85453E-06 9.56928E-04 3.18046E-13-2.33854E-13
 -1      1949 1.99969E+01-9.38614E-06 3.43657E-06 9.74693E-04 3.04483E-13-1.15956E-13
 -1      1950 1.99971E+01 4.02409E-05-5.84047E-06 1.14041E-03 3.36059E-13-7.12547E-14
 -1      1951 1.99972E+01-8.71957E-06 3.60249E-06 9.68503E-04-4.53005E-14-2.70707E-13
 -1      1952 1.99976E+01-4.58342E-05 2.83152E-07 9.54023E-04-1.71269E-13-1.89008E-13
 -1      1953 1.99975E+01-1.77682E-05-3.31808E-06 1.19889E-03 6.00256E-14-3.45183E-13
 -1      1954 1.99979E+01-4.60602E-05 7.44535E-07 9.06591E-04-2.19340E-13-3.07389E-13
 -1      1955 1.99983E+01-8.18025E-05-2.14382E-06 8.60569E-04-1.13563E-13-4.86681E-13
 -1      1956 1.99981E+01-7.18338E-05-1.38690E-06 1.15504E-03-2.21875E-13-4.03130E-13
 -1      1957 1.99986E+01-8.89326E-05-6.54032E-07 7.72711E-04-9.40267E-14-6.28171E-13
 -1      1958 1.99989E+01-1.25761E-04-3.38697E-06 6.89935E-04-1.62284E-13-4.50506E-13
 -1      1959 1.99987E+01-1.27984E-04 1.32237E-06 1.01711E-03-1.78859E-13-4.36511E-13
 -1      1960 1.99992E+01-1.39394E-04-1.14791E-07 5.60052E-04 8.07733E-14-3.25749E-13
 -1      1961 1.99994E+01-1.74314E-04-5.92598E-06 4.34533E-04 4.11792E-13-1.41234E-13
 -1      1962 1.99991E+01-1.97762E-04 2.91389E-06 7.82847E-04 1.97996E-13-3.07180E-13
 -1      1963 1.99995E+01-2.07364E-04 1.49684E-06 3.89870E-04 4.33821E-13-2.41777E-14
 -1      1964 1.99996E+01-2.36290E-04-3.80633E-06 3.15815E-04 3.70964E-13 6.03843E-15
 -1      1965 1.99996E+01-3.89983E-04-8.08261E-08 4.47512E-04 3.65102E-13-1.48508E-13
 -1      1966 1.99995E+01-2.84982E-04 3.34348E-06 5.79528E-04 4.81872E-13-6.91130E-14
 -1      1967 2.16926E+01 1.77524E+00 7.83102E-02-2.23344E+00-1.36769E-13-9.02195E-14
 -1      1968 1.96612E+01 9.16266E-02 7.87125E-03 1.27589E-01 5.26220E-14 4.99034E-13
 -1      1969 1.97776E+01 1.42531E-01 1.64905E-02 2.09573E-01 5.89424E-14 5.21842E-13
 -1      1970 1.95148E+01 2.49027E-02 3.33443E-03 2.53542E-02 4.49723E-14 4.70945E-13
 -1      1971 1.95670E+01 5.65119E-02 1.11648E-02 5.35750E-02 5.52208E-14 4.92836E-13
 -1      1972 1.98563E+01 1.16766E-01-4.15658E-03 1.67981E-01 7.40094E-14 3.29672E-13
 -1      1973 1.94338E+01-2.05190E-02-1.82702E-04 9.62887E-03 4.40347E-14 4.19792E-13
 -1      1974 1.94615E+01 2.02230E-03 5.17082E-03 5.25432E-03 4.38896E-14 4.62120E-13
 -1      1975 1.97128E+01 2.06562E-02-2.99801E-03 5.40335E-02 5.75309E-14 3.14325E-13
 -1      1976 1.93637E+01-5.53100E-02-2.64243E-03 5.70517E-02 4.08686E-14 4.07000E-13
 -1      1977 1.93980E+01-3.79121E-02 1.59912E-03 2.87874E-02 4.49113E-14 4.06285E-13
 -1      1978 1.96293E+01-4.61687E-02-1.23179E-03 4.69014E-02 5.93644E-14 3.16884E-13
 -1      1979 1.92628E+01-8.12233E-02-4.22733E-03 1.52034E-01 2.69513E-14 3.92174E-13
 -1      1980 1.93259E+01-6.85776E-02-4.70559E-04 1.05741E-01 9.24868E-15 3.99364E-13
 -1      1981 1.95599E+01-9.63599E-02 4.94808E-04 1.18098E-01 4.15803E-14 2.67981E-13
 -1      1982 1.91014E+01-9.54888E-02-4.84461E-03 2.78944E-01 2.99006E-14 4.09723E-13
 -1      1983 1.92075E+01-8.93898E-02-1.66779E-03 2.21403E-01 2.89467E-14 4.29841E-13
 -1      1984 1.94698E+01-1.31329E-01 1.99356E-03 2.47004E-01 3.22704E-14 3.01540E-13
 -1      1985 1.88630E+01-9.27349E-02-4.27725E-03 4.16612E-01 3.44614E-14 4.24524E-13
 -1      1986 1.90176E+01-9.61178E-02-2.23643E-03 3.57542E-01 4.78671E-14 4.32854E-13
 -1      1987 1.93327E+01-1.45955E-01 3.07915E-03 4.11257E-01 2.31341E-14 3.45835E-13
 -1      1988 1.85481E+01-6.75993E-02-2.42694E-03 5.36019E-01 5.50493E-14 4.10602E-13
 -1      1989 1.87457E+01-8.30249E-02-2.19872E-03 4.88564E-01 4.12415E-14 4.01701E-13
 -1      1990 1.91323E+01-1.32106E-01 3.48026E-03 5.80626E-01 5.56374E-14 3.46040E-13
 -1      1991 1.81778E+01-1.84031E-02 4.75670E-04 6.02557E-01 5.96533E-14 3.58191E-13
 -1      1992 1.84009E+01-4.60388E-02-1.46910E-03 5.81646E-01 5.94014E-14 3.70480E-13
 -1      1993 1.88670E+01-8.31778E-02 2.86712E-03 7.15369E-01 5.61174E-14 3.38900E-13
 -1      1994 1.77957E+01 4.91282E-02 3.77827E-03 5.83846E-01-2.41922E-14 3.54816E-13
 -1      1995 1.80152E+01 1.33224E-02 4.20283E-05 6.02198E-01 1.27526E-14 3.42006E-13
 -1      1996 1.85546E+01 2.22479E-04 1.01719E-03 7.70901E-01 4.48128E-14 2.31022E-13
 -1      1997 1.74624E+01 1.20406E-01 6.55028E-03 4.61847E-01-9.20423E-14 3.48452E-13
 -1      1998 1.76424E+01 8.49488E-02 2.28298E-03 5.24585E-01-6.46479E-14 3.58645E-13
 -1      1999 1.82342E+01 1.05540E-01-1.92210E-03 7.09489E-01-4.68597E-14 1.91083E-13
 -1      2000 1.72427E+01 1.75264E-01 7.97329E-03 2.44252E-01 3.31337E-14 3.84275E-13
 -1      2001 1.73491E+01 1.50759E-01 4.91385E-03 3.44688E-01-1.09183E-14 3.97834E-13
 -1      2002 1.79622E+01 2.08135E-01-5.21519E-03 5.16207E-01-6.25819E-14 2.45607E-13
 -1      2003 1.71875E+01 1.95930E-01 7.73856E-03-3.22104E-02 4.58826E-14 3.36962E-13
 -1      2004 1.71969E+01 1.90550E-01 7.24144E-03 8.74586E-02 5.40965E-14 3.35051E-13
 -1      2005 1.77978E+01 2.78319E-01-7.67281E-03 2.11562E-01 4.87436E-14 2.14857E-13
 -1      2006 1.73159E+01 1.75601E-01 6.17380E-03-3.11234E-01 1.68125E-14 2.95531E-13
 -1      2007 1.72228E+01 1.91020E-01 8.42074E-03-1.97107E-01 2.04056E-14 3.35838E-13
 -1      2008 1.77835E+01 2.93559E-01-8.26833E-03-1.48647E-01 3.90308E-14 2.06769E-13
 -1      2009 1.76083E+01 1.21920E-01 3.99737E-03-5.36199E-01 1.56806E-13 1.93694E-13
 -1      2010 1.74269E+01 1.52469E-01 7.86394E-03-4.50054E-01 9.20869E-14 2.20835E-13
 -1      2011 1.79283E+01 2.49246E-01-6.76308E-03-4.89911E-01 8.52391E-14 5.56275E-14
 -1      2012 1.80136E+01 5.29016E-02 1.90933E-03-6.69491E-01 6.08662E-14 1.43328E-13
 -1      2013 1.77726E+01 8.85476E-02 5.59580E-03-6.24098E-01 1.37101E-13 2.00075E-13
 -1      2014 1.82045E+01 1.60914E-01-3.85886E-03-7.45191E-01 1.64090E-13 4.35038E-14
 -1      2015 1.84662E+01-1.17965E-02 3.16485E-04-7.02109E-01 3.66593E-14 1.58785E-13
 -1      2016 1.82009E+01 1.92465E-02 2.27992E-03-6.98052E-01 2.76868E-14 1.48149E-13
 -1      2017 1.85589E+01 5.64408E-02-7.21977E-04-8.76960E-01 7.90476E-14 1.05955E-13
 -1      2018 1.89055E+01-5.85928E-02-6.90064E-04-6.50458E-01-2.70407E-14 2.21676E-13
 -1      2019 1.86485E+01-3.80196E-02-1.11928E-03-6.78743E-01-3.99301E-15 2.17358E-13
 -1      2020 1.89324E+01-3.65418E-02 1.69848E-03-8.84424E-01 6.23037E-15 1.97386E-13
 -1      2021 1.92884E+01-8.28897E-02-1.20298E-03-5.44861E-01 2.02145E-14 1.81652E-13
 -1      2022 1.90634E+01-7.39970E-02-3.78222E-03-5.92143E-01 1.98136E-14 2.35055E-13
 -1      2023 1.92769E+01-1.00496E-01 3.02866E-03-7.95281E-01 4.71216E-15 2.91158E-13
 -1      2024 1.95930E+01-8.74031E-02-1.36923E-03-4.17140E-01 9.55635E-14 1.60269E-13
 -1      2025 1.94127E+01-8.80340E-02-5.30583E-03-4.70596E-01 5.86796E-14 1.62194E-13
 -1      2026 1.95632E+01-1.30878E-01 3.38338E-03-6.49835E-01 8.12681E-14 1.46367E-13
 -1      2027 1.98155E+01-7.84943E-02-1.31853E-03-2.92314E-01-8.74570E-14 1.85559E-13
 -1      2028 1.96826E+01-8.50922E-02-5.70911E-03-3.42514E-01 4.75921E-14 2.11771E-13
 -1      2029 1.97806E+01-1.33031E-01 3.09869E-03-4.86458E-01 9.65547E-15 1.45123E-13
 -1      2030 1.99643E+01-6.28864E-02-1.14667E-03-1.85592E-01-3.27668E-15 1.54035E-13
 -1      2031 1.98745E+01-7.20520E-02-5.27475E-03-2.27243E-01-9.82276E-14 1.45999E-13
 -1      2032 1.99322E+01-1.16801E-01 2.51095E-03-3.33229E-01-2.27008E-14 1.52309E-13
 -1      2033 2.00534E+01-4.57972E-02-9.20211E-04-1.03234E-01 5.93807E-14 1.30879E-13
 -1      2034 1.99990E+01-5.50666E-02-4.36556E-03-1.34541E-01 3.19608E-14 1.62305E-13
 -1      2035 2.00280E+01-9.20089E-02 1.85725E-03-2.05878E-01 2.85401E-14 1.74126E-13
 -1      2036 2.00986E+01-3.04132E-02-6.84229E-04-4.51943E-02 9.63346E-14 1.22146E-13
 -1      2037 2.00705E+01-3.83914E-02-3.29724E-03-6.66774E-02 8.95423E-14 1.80456E-13
 -1      2038 2.00812E+01-6.60167E-02 1.26757E-03-1.09764E-01 4.49389E-14 1.45018E-13
 -1      2039 2.01140E+01-1.81679E-02-4.67781E-04-7.94274E-03-3.24228E-14 1.36960E-13
 -1      2040 2.01038E+01-2.43163E-02-2.28490E-03-2.13034E-02 9.48812E-14 1.85244E-13
 -1      2041 2.01041E+01-4.31624E-02 7.93813E-04-4.33835E-02 8.30207E-14 1.50591E-13
 -1      2042 2.01109E+01-9.30779E-03-2.86942E-04 1.33469E-02-4.74212E-14 1.92226E-13
 -1      2043 2.01118E+01-1.36339E-02-1.44217E-03 6.05491E-03-6.28122E-14 1.49050E-13
 -1      2044 2.01073E+01-2.52693E-02 4.42548E-04-1.70533E-03-4.06105E-14 2.34435E-13
 -1      2045 2.00978E+01-3.43345E-03-1.47574E-04 2.34231E-02-4.68969E-14 2.83871E-13
 -1      2046 2.01047E+01-6.22010E-03-8.05449E-04 2.02837E-02-5.80589E-14 1.94161E-13
 -1      2047 2.00989E+01-1.25038E-02 1.98979E-04 2.13870E-02-2.81069E-14 2.32852E-13
 -1      2048 2.00805E+01 1.05808E-04-4.83418E-05 2.62773E-02-1.58222E-15 9.02463E-14
 -1      2049 2.00900E+01-1.51294E-03-3.63605E-04 2.57339E-02 3.55988E-15 1.73773E-13
 -1      2050 2.00848E+01-4.16167E-03 4.11547E-05 3.16432E-02 2.83323E-14 1.31743E-13
 -1      2051 2.00627E+01 1.97655E-03 1.63382E-05 2.49327E-02 6.00857E-14 8.17264E-14
 -1      2052 2.00725E+01 1.17095E-03-8.25796E-05 2.58380E-02-2.68705E-14 1.07420E-13
 -1      2053 2.00688E+01 7.73944E-04-5.28303E-05 3.37747E-02-1.88985E-14 1.02824E-13
 -1      2054 2.00464E+01 2.74756E-03 5.38197E-05 2.14956E-02-1.36030E-13 1.95989E-13
 -1      2055 2.00554E+01 2.46390E-03 7.79264E-05 2.30703E-02 3.01384E-14 1.54547E-13
 -1      2056 2.00532E+01 3.30712E-03-1.01863E-04 3.12895E-02-2.77044E-14 3.11690E-13
 -1      2057 2.00326E+01 2.85369E-03 7.15097E-05 1.73208E-02-4.19697E-15 1.98427E-13
 -1      2058 2.00401E+01 2.87537E-03 1.55157E-04 1.90778E-02-8.98590E-14 1.00424E-13
 -1      2059 2.00394E+01 4.27789E-03-1.20964E-04 2.65980E-02-5.22377E-14 2.90479E-13
 -1      2060 2.00215E+01 2.60106E-03 7.58901E-05 1.32042E-02 2.37184E-13 1.98129E-13
 -1      2061 2.00275E+01 2.77915E-03 1.79291E-04 1.48676E-02 1.21603E-13 2.71415E-13
 -1      2062 2.00278E+01 4.31953E-03-1.21412E-04 2.12303E-02 7.72539E-14 2.14425E-13
 -1      2063 2.00131E+01 2.18993E-03 7.21123E-05 9.55609E-03-1.54907E-13 2.94266E-13
 -1      2064 2.00175E+01 2.42934E-03 1.72648E-04 1.09926E-02 9.86446E-14 2.95973E-13
 -1      2065 2.00186E+01 3.87254E-03-1.11275E-04 1.60698E-02 9.95894E-14 4.01790E-13
 -1      2066 2.00069E+01 1.74153E-03 6.39635E-05 6.53990E-03-1.58009E-13 2.81678E-13
 -1      2067 2.00101E+01 1.98637E-03 1.50531E-04 7.70494E-03-1.33937E-13 2.73021E-13
 -1      2068 2.00116E+01 3.22155E-03-9.60489E-05 1.15594E-02-1.34788E-13 3.85610E-13
 -1      2069 2.00027E+01 1.32223E-03 5.40301E-05 4.17279E-03 2.05235E-13 4.51721E-14
 -1      2070 2.00048E+01 1.54326E-03 1.22691E-04 5.07245E-03-8.14947E-14 1.82036E-13
 -1      2071 2.00064E+01 2.53623E-03-7.92722E-05 7.86170E-03-3.94856E-14 1.02297E-13
 -1      2072 1.99999E+01 9.62746E-04 4.39375E-05 2.39482E-03 2.31916E-13 2.89656E-14
 -1      2073 2.00012E+01 1.14768E-03 9.48285E-05 3.06060E-03 2.07097E-13-1.43599E-15
 -1      2074 2.00028E+01 1.90736E-03-6.30624E-05 4.97624E-03 2.32947E-13-7.93421E-14
 -1      2075 1.99983E+01 6.72072E-04 3.45918E-05 1.11305E-03 7.50835E-14-2.94361E-14
 -1      2076 1.99990E+01 8.18697E-04 6.98887E-05 1.58589E-03 2.94216E-13 1.47666E-13
 -1      2077 2.00005E+01 1.37497E-03-4.85470E-05 2.81793E-03 1.61775E-13 4.35273E-14
 -1      2078 1.99974E+01 4.46974E-04 2.63878E-05 2.28005E-04 3.38737E-15-8.63183E-14
 -1      2079 1.99977E+01 5.58551E-04 4.90619E-05 5.49083E-04 2.91766E-15-4.62933E-14
 -1      2080 1.99990E+01 9.48607E-04-3.61982E-05 1.26748E-03 1.42229E-13-2.97902E-14
 -1      2081 1.99972E+01 2.78000E-04 1.93723E-05-3.51700E-04 1.49826E-14-3.63379E-13
 -1      2082 1.99972E+01 3.60426E-04 3.24990E-05-1.45943E-04-1.57257E-14-2.18900E-13
 -1      2083 1.99983E+01 6.20866E-04-2.60781E-05 2.01249E-04-3.76194E-15-1.55575E-13
 -1      2084 1.99973E+01 1.52981E-04 1.33707E-05-7.02154E-04 1.09914E-13-2.79752E-13
 -1      2085 1.99972E+01 2.13190E-04 1.98005E-05-5.82314E-04 1.63188E-14-2.45019E-13
 -1      2086 1.99980E+01 3.75947E-04-1.80163E-05-4.92410E-04-5.14545E-14-3.86936E-13
 -1      2087 1.99977E+01 5.89134E-05 8.13552E-06-8.81121E-04-1.49558E-14 1.55764E-14
 -1      2088 1.99974E+01 1.04019E-04 1.03559E-05-8.25748E-04 1.53615E-13-1.25278E-14
 -1      2089 1.99980E+01 1.94470E-04-1.17200E-05-9.05181E-04-5.85051E-14-4.56662E-14
 -1      2090 1.99982E+01-1.71403E-05 3.48118E-06-9.27529E-04-8.20305E-14-1.54659E-13
 -1      2091 1.99979E+01 1.98620E-05 3.56185E-06-9.23258E-04-8.28557E-14-3.43539E-14
 -1      2092 1.99983E+01 5.63418E-05-6.78437E-06-1.10567E-03-2.92392E-14 8.94261E-14
 -1      2093 1.99987E+01-8.81570E-05-6.42526E-07-8.62127E-04 2.64551E-14-9.95120E-14
 -1      2094 1.99984E+01-5.24786E-05-9.57156E-07-9.03848E-04 6.01687E-14-1.50628E-13
 -1      2095 1.99986E+01-5.86168E-05-3.05971E-06-1.14014E-03 5.21426E-14-1.20097E-13
 -1      2096 1.99992E+01-1.65966E-04-3.01055E-06-6.88747E-04 6.68745E-14-6.66705E-14
 -1      2097 1.99989E+01-1.26394E-04-2.70732E-06-7.79582E-04-2.21148E-14-8.15273E-14
 -1      2098 1.99990E+01-1.68930E-04 5.25308E-07-1.03704E-03-4.89368E-15-1.22773E-14
 -1      2099 1.99995E+01-2.19482E-04-4.20133E-06-4.34267E-04 1.00371E-13-2.22522E-13
 -1      2100 1.99993E+01-1.84703E-04-2.22020E-06-5.63605E-04 1.63471E-13-9.85561E-14
 -1      2101 1.99993E+01-2.61115E-04-3.90643E-07-8.19039E-04 1.34726E-13-1.66937E-13
 -1      2102 1.99996E+01-3.27149E-04-2.52704E-06-5.24606E-04-4.41871E-14-1.62586E-13
 -1      2103 1.99998E+01-1.48804E-03 1.29918E-06-8.11744E-04 2.58009E-14 1.73301E-13
 -1      2104 1.99998E+01-1.22969E-03-1.31741E-06-8.24912E-04-4.50036E-14 3.42725E-13
 -1      2105 1.99998E+01-1.05143E-03 1.03544E-06-8.13369E-04 1.22475E-14 2.04831E-13
 -1      2106 1.99997E+01-7.98060E-04-5.48802E-06-7.77324E-04-2.12051E-14 2.22525E-13
 -1      2107 1.99998E+01-9.72237E-04 7.11089E-07-1.01325E-03-2.36380E-14 2.19330E-13
 -1      2108 1.99996E+01-5.39512E-04 3.62867E-08-6.32557E-04 4.06689E-14 2.46680E-14
 -1      2109 1.99999E+01-1.88117E-03 3.02303E-06-7.16282E-04-1.16700E-13-3.04775E-13
 -1      2110 1.99999E+01-1.64689E-03 2.60216E-06-7.67712E-04-1.11576E-13 1.05872E-13
 -1      2111 1.99999E+01-1.31099E-03-1.98689E-06-9.72821E-04 9.31116E-15-7.60145E-14
 -1      2112 1.99999E+01-2.20926E-03 4.88322E-06-5.52771E-04-7.19434E-14-1.78291E-13
 -1      2113 1.99999E+01-2.01734E-03 5.08991E-06-6.32023E-04-8.43291E-14-2.31150E-13
 -1      2114 2.00000E+01-1.60755E-03-2.85223E-06-8.29955E-04 9.35640E-14-2.02014E-13
 -1      2115 2.00000E+01-2.43819E-03 6.46128E-06-3.44491E-04 2.18334E-13-2.39983E-13
 -1      2116 2.00000E+01-2.31032E-03 6.60004E-06-4.41358E-04 4.98664E-14-1.33991E-13
 -1      2117 2.00000E+01-1.84672E-03-3.57921E-06-6.12857E-04 1.14377E-13-8.07608E-14
 -1      2118 2.00000E+01-2.55019E-03 7.64606E-06-1.08209E-04 1.72091E-13 7.36220E-14
 -1      2119 2.00000E+01-2.49784E-03 7.18345E-06-2.15663E-04 1.40724E-13-1.51947E-13
 -1      2120 2.00001E+01-2.00907E-03-4.15826E-06-3.46546E-04 1.06719E-13-2.12244E-13
 -1      2121 2.00000E+01-2.53476E-03 8.21446E-06 1.41805E-04 2.32425E-13 3.05970E-13
 -1      2122 2.00000E+01-2.56369E-03 7.09001E-06 3.01087E-05 2.13276E-13 1.30816E-13
 -1      2123 2.00001E+01-2.08276E-03-4.57493E-06-5.03348E-05-6.86294E-14 1.67039E-13
 -1      2124 2.00000E+01-2.38940E-03 7.85920E-06 3.89693E-04 3.16331E-13 2.52918E-13
 -1      2125 2.00000E+01-2.49928E-03 6.45270E-06 2.81310E-04 1.31256E-13 4.39763E-13
 -1      2126 2.00001E+01-2.06010E-03-4.78158E-06 2.57974E-04 1.05569E-13 2.39851E-13
 -1      2127 2.00000E+01-2.12690E-03 6.18827E-06 6.10767E-04 4.27399E-13-2.67136E-14
 -1      2128 2.00000E+01-2.30655E-03 5.45287E-06 5.17512E-04 3.02109E-13 1.95851E-14
 -1      2129 2.00001E+01-1.93958E-03-4.72215E-06 5.54913E-04 1.64704E-13 1.91767E-13
 -1      2130 1.99999E+01-1.75781E-03 3.22720E-06 7.83953E-04 5.88899E-13 5.81561E-13
 -1      2131 1.99999E+01-1.99687E-03 4.12632E-06 7.16498E-04 4.13171E-13 4.58870E-13
 -1      2132 2.00000E+01-1.72479E-03-4.20508E-06 8.14892E-04 3.14617E-13 2.30053E-13
 -1      2133 1.99998E+01-1.32110E-03-1.12431E-06 8.68593E-04 4.91168E-13-1.81510E-13
 -1      2134 1.99999E+01-1.59008E-03 2.71586E-06 8.46381E-04 4.92647E-13 1.84621E-13
 -1      2135 1.99999E+01-1.42592E-03-3.20242E-06 1.00269E-03 3.72077E-13 3.76617E-13
 -1      2136 1.99997E+01-8.61709E-04-3.16325E-06 8.20009E-04 3.60114E-13-4.41967E-13
 -1      2137 1.99998E+01-1.12520E-03 1.41410E-06 8.65592E-04 3.76318E-13-1.45169E-13
 -1      2138 1.99998E+01-1.06735E-03-2.92665E-06 1.07331E-03 1.87560E-13-2.70141E-13
 -1      2139 1.98709E+01 1.66269E-01 1.16166E-02 3.05520E-01 8.23300E-14 5.81264E-13
 -1      2140 2.01168E+01 2.45921E-01 1.64910E-02 4.76297E-01 8.50327E-14 6.32100E-13
 -1      2141 2.03060E+01 4.01750E-01-1.46955E-04 6.95530E-01 1.09728E-13 5.01505E-13
 -1      2142 2.00445E+01 2.41559E-01-3.23156E-03 3.83586E-01 1.07213E-13 4.04409E-13
 -1      2143 1.11013E+01-4.60998E+00-1.24240E-01 7.77712E+00 3.39284E-13 2.05953E-13
 -1      2144 7.29286E+00-6.72816E+00-4.04694E-01 6.49878E+00 2.85993E-13 2.30788E-13
 -1      2145 2.94762E+01 2.66915E-01 1.59235E-01 7.07272E+00 4.49141E-13 7.49401E-14
 -1      2146 2.45207E+01-1.64526E+00-1.69294E-01 6.98164E+00 4.94604E-13 1.17295E-13
 -1      2147 3.95649E+00-6.68822E+00-2.74577E-01 5.71094E+00 2.69118E-13 1.59928E-13
 -1      2148 1.72789E+00-7.85308E+00-3.99945E-01 4.48695E+00 2.71172E-13 1.43274E-13
 -1      2149 1.94998E+01 4.09940E+00-2.65756E-02-1.56571E+00-3.29112E-14-3.15990E-13
 -1      2150 1.96724E+01 4.01955E+00-2.26280E-02-1.80723E+00-6.01654E-14-3.09905E-13
 -1      2151 2.00098E+01 3.34363E+00-6.45697E-03-1.74035E+00-8.06668E-14-2.87286E-13
 -1      2152 1.96359E+01 3.71021E+00-7.52127E-03-1.38406E+00-1.85572E-14-2.81268E-13
 -1      2153 3.62938E+01 3.23112E+00 2.12464E-01 5.17516E+00 4.63858E-13-2.05169E-13
 -1      2154 3.17898E+01 1.66672E+00-5.39979E-02 5.81182E+00 3.97765E-13 3.54161E-14
 -1      2155 3.12953E+01-9.07957E-01 1.77913E-01 4.11236E+00 3.42198E-13-2.53020E-13
 -1      2156 4.18273E+01 6.49287E+00 3.35807E-01 2.70490E+00 5.30576E-13-3.46834E-13
 -1      2157 3.86683E+01 5.45133E+00 1.43677E-01 3.71009E+00 5.56277E-13-3.06866E-13
 -1      2158 4.42368E+01 8.02795E+00 3.45141E-01 4.99545E-01 4.98435E-13-4.67404E-13
 -1      2159 4.30714E+01 7.70985E+00 2.89289E-01 1.95308E+00 5.57276E-13-3.59879E-13
 -1      2160 4.21544E+01 7.87183E+00 1.94852E-01-1.40669E+00 4.06064E-13-5.80480E-13
 -1      2161 4.37369E+01 8.17263E+00 3.53717E-01-1.90242E-01 4.50529E-13-4.86243E-13
 -1      2162 3.87864E+01 5.30492E+00 1.30107E-01-3.42740E+00 2.82940E-13-6.28719E-13
 -1      2163 4.10598E+01 6.43466E+00 2.15968E-01-2.05005E+00 2.95153E-13-5.60663E-13
 -1      2164 3.28848E+01 1.77393E+00-1.72208E-02-4.60985E+00 3.03646E-13-5.38347E-13
 -1      2165 3.74322E+01 3.67092E+00 2.87483E-01-4.52440E+00 2.70395E-13-6.69798E-13
 -1      2166 3.58752E+01 3.92265E+00 2.15097E-01-9.59917E-01 1.78718E-13-3.24740E-13
 -1      2167 2.40668E+01-1.57804E+00-1.07141E-01-7.13791E+00 3.27793E-13-5.73042E-13
 -1      2168 2.93498E+01 4.89592E-03 9.23520E-02-6.92092E+00 3.39229E-13-5.34461E-13
 -1      2169 1.63253E+01-4.74385E+00-1.00568E-01-7.72738E+00 9.00391E-14-5.53974E-13
 -1      2170 2.04992E+01-2.58062E+00 6.56137E-02-8.18774E+00 2.54130E-13-5.99465E-13
 -1      2171 2.43631E+01-3.94480E+00 2.23320E-02-6.86072E+00 2.60902E-14-4.10338E-13
 -1      2172 6.67779E+00-7.02113E+00-4.06292E-01-6.35205E+00 2.33147E-15-4.72622E-13
 -1      2173 1.10622E+01-5.17197E+00-1.26515E-01-7.80208E+00 3.25295E-14-5.40228E-13
 -1      2174 1.71775E+00-7.22604E+00-2.91606E-01-4.30880E+00-1.33615E-13-5.28189E-13
 -1      2175 3.88591E+00-6.58795E+00-2.28575E-01-5.60859E+00-6.49480E-15-5.21139E-13
 -1      2176 7.31955E+00-5.03828E+00-6.13441E-02-7.22002E+00-1.21625E-13-5.23859E-13
 -1      2177-5.44803E-02-7.63806E+00-3.38174E-01-6.12010E-01-2.63595E-13-4.91274E-13
 -1      2178 1.73811E-01-6.68718E+00-2.11400E-01-2.16755E+00-1.19127E-13-5.61495E-13
 -1      2179 2.20669E+00-7.24529E+00-3.01599E-01 2.46933E+00-3.92797E-13-5.55944E-13
 -1      2180 5.78712E-01-7.94988E+00-3.81395E-01 9.29571E-01-2.63289E-13-5.27911E-13
 -1      2181 1.75365E+00-4.19588E+00-1.40589E-01 7.14555E-01-6.62595E-14-5.72820E-13
 -1      2182 8.93981E+00-7.16630E+00-3.63324E-01 4.79795E+00-5.75096E-13-4.45297E-13
 -1      2183 5.23967E+00-8.21500E+00-5.28988E-01 3.70826E+00-4.78118E-13-4.44089E-13
 -1      2184 1.91565E+01-6.04381E+00-2.55737E-01 5.57003E+00-5.04929E-13-5.48256E-13
 -1      2185 1.29662E+01-7.59579E+00-6.22281E-01 4.69538E+00-5.02931E-13-5.24358E-13
 -1      2186 1.39549E+01-6.78870E+00-2.25925E-01 5.76919E+00-2.28206E-13-3.31082E-13
 -1      2187 2.94801E+01-3.83596E+00-1.95542E-01 4.58573E+00-6.77680E-13-5.22915E-13
 -1      2188 2.28591E+01-5.72113E+00-5.64434E-01 4.35666E+00-6.45706E-13-5.80647E-13
 -1      2189 2.28030E+01-6.78269E+00-2.22324E-01 4.77187E+00-3.33067E-13-4.08923E-13
 -1      2190 4.04273E+01-1.57866E+00 2.12113E-01 6.18514E-01-6.05113E-13-2.99649E-13
 -1      2191 3.50544E+01-3.47114E+00-1.33652E-01 1.21075E+00-5.86642E-13-4.15445E-13
 -1      2192 4.75161E+01 3.24513E+00 7.36145E-01-1.35390E+00-6.66522E-13-7.43849E-14
 -1      2193 4.35803E+01 1.70647E+00 3.90838E-01-1.15679E+00-7.09155E-13-2.70006E-13
 -1      2194 4.21702E+01 5.16896E-01 1.66111E-01 1.51080E+00-4.74371E-13 1.27454E-13
 -1      2195 4.65781E+01 2.57562E+00 6.80814E-01 1.65788E+00-3.69427E-13 2.00728E-13
 -1      2196 3.41345E+01-4.40464E+00-3.02088E-01-5.22682E-02 1.40443E-14 8.31557E-14
 -1      2197 3.96494E+01-2.20894E+00 1.48793E-01 3.97439E-01-2.76987E-13-1.97620E-14
 -1      2198 1.24177E+01-7.64999E+00-6.37099E-01-4.52143E+00 1.97731E-13 6.03663E-13
 -1      2199 1.83236E+01-6.36931E+00-3.25385E-01-5.38421E+00 8.18234E-14 6.19282E-13
 -1      2200 4.71049E+00-8.17910E+00-5.08608E-01-3.37336E+00 1.69087E-13 6.71241E-13
 -1      2201 8.19623E+00-7.32633E+00-3.92834E-01-4.52511E+00 9.88098E-14 7.17093E-13
 -1      2202 5.59339E-01-7.40556E+00-3.22703E-01-7.63686E-01 1.18697E-13 2.35367E-13
 -1      2203 2.14592E+00-7.47034E+00-3.45424E-01-2.27651E+00 7.20535E-14 4.31100E-13
 -1      2204 3.82739E+01-1.60959E-01-1.71241E-01-5.00524E+00-5.33407E-13-2.90601E-14
 -1      2205 3.70281E+01 2.28438E+00-1.33756E-01-4.57181E+00-6.88116E-13-2.08777E-13
 -1      2206 2.12462E+01-2.06784E+00 8.26589E-02 8.25713E+00 4.72511E-13 3.32789E-13
 -1      2207 1.62505E+01-4.19293E+00-2.60518E-01 7.47285E+00 4.09672E-13 3.18356E-13
 -1      2208 2.55212E+01-3.63716E+00 8.25126E-02 6.63249E+00 3.77698E-13-2.42029E-14
 -1      2209 7.53883E+00-5.55660E+00-1.58633E-01 7.43473E+00 1.24123E-13 1.86601E-13
 -1      2210 2.09568E+01 1.13788E+00-2.12540E-02-1.48913E+00-1.32613E-13-1.23387E-13
 -1      2211 2.08288E+01 1.38907E+00-1.96303E-02-1.50499E+00-1.44872E-13-1.69205E-13
 -1      2212 3.98838E+01-1.15388E+00 2.72106E-01-3.48557E+00-6.14675E-13-3.34177E-14
 -1      2213 1.66434E+01-5.10816E+00-3.28273E-02 8.27403E+00 2.11831E-13 2.06876E-13
 -1      2214 1.57003E+00-4.36765E+00-1.39672E-01-7.74123E-02-9.26342E-15 3.10862E-13
 -1      2215 2.29188E+00-4.90174E+00-1.73289E-01 4.37007E+00 4.17721E-14 1.37890E-13
 -1      2216 3.84208E+01 4.28359E+00-6.51138E-02 1.91901E+00-5.63771E-13-3.49137E-13
 -1      2217 3.88011E+01 3.03707E+00-5.24390E-02 3.80171E+00-3.62599E-13-4.28518E-13
 -1      2218 1.99996E+01-5.53170E-04-1.52529E-06-8.61262E-04 1.43094E-13 1.29270E-13
 -1      2219 1.99996E+01-5.33599E-04-2.74303E-06 5.99842E-04 3.08041E-13-5.28365E-13
 -1      2220 1.99997E+01-7.34587E-04-3.63363E-07 7.10600E-04 4.50630E-13-5.87775E-13
 -1      2221 1.99996E+01-7.58111E-04-1.61294E-06 9.43527E-04 2.22608E-13-3.21541E-13
 -1      2222 1.99996E+01-4.85953E-04-3.63815E-06 6.76656E-04 4.54529E-13-2.59298E-13
 -1      2223 3.58902E+01 3.51499E+00 2.27067E-01 1.89617E+00 4.73455E-13-3.71869E-13
 -1      2224 5.45862E+00-5.63452E+00-2.50163E-01-4.07132E+00 1.01807E-13 6.40599E-13
 -1      2225 1.34608E+01-6.75457E+00-2.47598E-01-5.79222E+00 3.26184E-13 4.55289E-13
 -1      2226 2.97185E+01-5.29904E+00-1.79459E-01-3.50672E+00 7.24976E-14 4.54969E-13
 -1      2227 3.27501E+01-5.31794E+00 1.32164E-01-4.68354E-01 2.56684E-13-1.15824E-13
 -1      2228 2.99271E+01-5.06108E+00 8.70504E-02-2.25940E+00 4.36207E-13-1.27010E-13
 -1      2229 2.32058E+01-6.59087E+00-4.54691E-01-3.95706E+00 1.58762E-13 4.92772E-13
 -1      2230 4.80532E+01 5.33812E+00 8.66700E-01-9.96900E-01-8.04246E-13-7.55507E-14
 -1      2231 4.22161E+01 3.94428E+00 4.60203E-01-3.57888E+00-8.04246E-13-1.45439E-13
 -1      2232 3.68719E+01 3.17151E+00-2.96170E-01-3.12144E+00-7.66498E-13-3.07629E-13
 -1      2233 4.89256E+01 6.08386E+00 9.66308E-01-5.74811E-01-7.84817E-13 1.21778E-13
 -1      2234 3.24535E+01-4.80007E+00 6.35296E-02 1.37831E+00-4.31433E-13-2.02338E-13
 -1      2235 5.71595E+00-5.62764E+00-2.01908E-01 4.22173E+00-1.54488E-13-4.52416E-13
 -1      2236 2.40174E+00-4.34336E+00-1.00306E-01-3.71394E+00-1.16129E-13-5.88696E-13
 -1      2237 1.49257E+01-5.28540E+00-6.54773E-02-8.03326E+00-5.15143E-14-5.06151E-13
 -1      2238 1.86684E+01-5.45197E+00-1.06608E-01-8.00715E+00-2.17382E-13-3.94008E-13
 -1      2239 1.40717E+01-4.93276E+00 1.73939E-01-8.38186E+00-2.01505E-13-4.40675E-13
 -1      2240 3.17307E+01-4.93738E-01 1.39071E-01-4.02805E+00 1.50699E-13-3.86191E-13
 -1      2241 3.81124E+01 7.65835E+00 2.47987E-01-6.49000E-02 2.87270E-13-2.64178E-13
 -1      2242 5.08166E+01 6.21796E+00 1.16534E+00 9.03327E-01-5.22693E-13 2.44055E-13
 -1      2243 4.40962E+01 5.95146E+00 6.43017E-01 2.05116E-01-6.97886E-13-8.16847E-14
 -1      2244 3.94893E+01 9.32769E+00 3.44562E-01 1.57892E-01 5.23803E-13-2.82087E-13
 -1      2245 3.65822E+01 4.19663E+00-2.53995E-01-5.52225E-01-7.30527E-13-4.35429E-13
 -1      2246 3.89095E+01 7.73817E+00 3.24542E-01 4.71726E-01 5.71321E-13-3.14249E-13
 -1      2247 4.97833E+01 5.31296E+00 1.09098E+00 9.03957E-01-4.75286E-13 3.77254E-13
 -1      2248 2.36026E+01-6.48633E+00 2.23885E-02-4.75868E+00 2.91822E-13 3.52475E-13
 -1      2249 4.29805E+01 3.21347E+00 5.08688E-01 3.92972E+00-3.54716E-13-7.39409E-14
 -1      2250 3.15838E+00-1.54903E+00 1.66264E-01 9.19019E-01-3.48714E-14 3.37064E-13
 -1      2251 4.06528E+00-1.80568E+00 1.40081E-01-1.74662E+00-1.24456E-13 3.98570E-13
 -1      2252 1.93506E+01 3.68817E+00-1.01944E-02-5.98952E-01 8.56968E-14-2.40342E-13
 -1      2253 1.93938E+01 3.64839E+00-1.08997E-02-7.52216E-01 5.76354E-14-2.63158E-13
 -1      2254 1.94598E+01 3.56740E+00-1.28199E-02-8.75430E-01 3.17054E-14-2.59323E-13
 -1      2255 1.95511E+01 3.48402E+00-1.26943E-02-1.03269E+00 1.13829E-14-2.52835E-13
 -1      2256 1.95679E+01 3.25812E+00 2.23312E-03-7.51852E-01 4.52315E-14-2.35901E-13
 -1      2257 1.93597E+01 3.69060E+00-7.81669E-03-8.28038E-03 1.64500E-13-1.60857E-13
 -1      2258 1.93342E+01 3.70680E+00-1.03221E-02-1.71925E-01 1.43800E-13-1.86329E-13
 -1      2259 1.94428E+01 3.60548E+00-8.08738E-03 3.19803E-01 1.84717E-13-1.29213E-13
 -1      2260 1.93954E+01 3.64286E+00-1.06373E-02 1.45558E-01 1.68721E-13-1.48274E-13
 -1      2261 1.95288E+01 3.30791E+00-1.18415E-03 3.55609E-02 1.53953E-13-1.43251E-13
 -1      2262 1.95614E+01 3.47214E+00-9.39766E-03 6.64014E-01 2.06500E-13-8.93530E-14
 -1      2263 1.94968E+01 3.53068E+00-1.14176E-02 4.81887E-01 1.93930E-13-1.19783E-13
 -1      2264 1.96300E+01 3.19125E+00-1.34723E-03 3.44710E-01 1.73410E-13-1.10655E-13
 -1      2265 1.97221E+01 3.27369E+00-1.22353E-02 1.02935E+00 2.34812E-13-8.05345E-15
 -1      2266 1.96354E+01 3.36456E+00-1.28340E-02 8.34811E-01 2.17216E-13-5.25673E-14
 -1      2267 1.97681E+01 3.01781E+00-8.17154E-04 6.69692E-01 1.99648E-13-5.87330E-14
 -1      2268 1.99397E+01 2.97663E+00-1.79317E-02 1.39337E+00 2.54687E-13 9.38147E-14
 -1      2269 1.98223E+01 3.12102E+00-1.50311E-02 1.19612E+00 2.40508E-13 4.41600E-14
 -1      2270 1.99477E+01 2.76943E+00 9.69609E-04 9.95382E-01 2.17079E-13 2.84742E-14
 -1      2271 2.02433E+01 2.51048E+00-2.87676E-02 1.70628E+00 2.48751E-13 1.88733E-13
 -1      2272 2.00781E+01 2.75690E+00-1.78232E-02 1.53524E+00 2.49528E-13 1.33532E-13
 -1      2273 2.01788E+01 2.41131E+00 4.95662E-03 1.28546E+00 2.26082E-13 1.18003E-13
 -1      2274 2.06794E+01 1.77539E+00-2.66817E-02 1.82550E+00 2.02813E-13 3.61482E-13
 -1      2275 2.04500E+01 2.20301E+00-1.06865E-02 1.78149E+00 2.34572E-13 2.50756E-13
 -1      2276 2.04755E+01 1.88065E+00 1.38862E-02 1.45890E+00 2.17662E-13 2.08779E-13
 -1      2277 2.08968E+01 1.05319E+00-1.78848E-02 1.53640E+00 1.53665E-13 4.91610E-13
 -1      2278 2.07784E+01 1.51944E+00 8.18990E-04 1.73167E+00 1.75516E-13 4.23465E-13
 -1      2279 2.06063E+01 1.25688E+00 1.68281E-05 1.36099E+00 1.87305E-13 3.27155E-13
 -1      2280 2.05640E+01 7.27598E-01-2.31582E-03 1.06309E+00 1.38872E-13 4.58779E-13
 -1      2281 2.06066E+01 9.91718E-01 1.21947E-02-7.67509E-01-9.68323E-14-1.64645E-13
 -1      2282 2.04424E+01 7.93549E-01 4.38627E-04-4.04480E-01-8.32320E-14-1.58131E-13
 -1      2283 3.18069E+01-5.29998E+00-5.06321E-02 8.88623E-01-1.00586E-13 3.60822E-14
 -1      2284 3.14955E+01-1.08955E+00-1.13575E-01 2.36302E+00 2.26250E-13-3.78170E-13
 -1      2285 2.94823E+01-2.61268E+00-4.03651E-02 3.32581E+00 2.14884E-13-3.98681E-13
 -1      2286 2.03813E+01 6.73180E-01 1.46811E-02-1.35817E-01-7.90934E-14-1.32093E-13
 -1      2287 2.03063E+01 5.94941E-01 6.46359E-03 1.05475E-01-6.80601E-14-1.29796E-13
 -1      2288 2.03933E+01 9.93253E-01-1.76705E-03-3.62252E-01-7.47555E-14-1.57127E-13
 -1      2289 2.02280E+01 5.56094E-01 7.84566E-03 3.39301E-01-5.02831E-14-1.01675E-13
 -1      2290 2.02327E+01 5.52505E-01 9.65160E-03 5.54327E-01-2.94157E-14-9.89455E-14
 -1      2291 2.02353E+01 7.80117E-01-1.22748E-03 1.71835E-01-5.01994E-14-9.92317E-14
 -1      2292 2.01470E+01 5.76033E-01 1.35374E-03 7.69398E-01-2.00731E-14-7.19221E-14
 -1      2293 2.02201E+01 6.33236E-01 1.26745E-02 9.91442E-01-1.74860E-15-6.58583E-14
 -1      2294 2.00825E+01 7.56521E-01 1.14890E-03 6.41921E-01-1.38179E-14-7.61391E-14
 -1      2295 2.01031E+01 7.08669E-01-4.97430E-03 1.22166E+00-7.89169E-15-5.61133E-14
 -1      2296 2.02270E+01 8.21674E-01 1.58447E-02 1.48642E+00 2.13544E-15-4.85145E-14
 -1      2297 1.99113E+01 8.87632E-01 5.98930E-03 1.09901E+00-1.55865E-15-5.83923E-14
 -1      2298 2.00374E+01 9.43767E-01-1.17974E-02 1.76076E+00-3.61816E-14-3.80251E-14
 -1      2299 2.01930E+01 1.10254E+00 1.88191E-02 2.09545E+00-2.14898E-14-4.85261E-14
 -1      2300 1.96574E+01 1.15346E+00 1.35276E-02 1.60206E+00-2.02659E-14-2.34862E-14
 -1      2301 1.98761E+01 1.25096E+00-1.85430E-02 2.43863E+00 3.74917E-14-6.76015E-14
 -1      2302 2.00405E+01 1.41418E+00 2.25342E-02 2.85369E+00 7.60295E-14-6.99245E-14
 -1      2303 1.92250E+01 1.52212E+00 2.44712E-02 2.19809E+00 1.91145E-14-1.15342E-14
 -1      2304 1.95654E+01 1.50672E+00-2.19956E-02 3.26595E+00 8.76971E-14-4.85723E-14
 -1      2305 1.97530E+01 1.55988E+00 3.30310E-02 3.70319E+00 1.20258E-13-1.14336E-14
 -1      2306 1.85230E+01 1.88547E+00 4.31123E-02 2.90004E+00 9.30150E-14-3.72593E-14
 -1      2307 1.90915E+01 1.44022E+00 3.68398E-04 4.23895E+00 1.44947E-13-4.68271E-14
 -1      2308 1.94021E+01 1.08778E+00 7.11097E-02 4.65481E+00 2.20672E-13 6.98400E-15
 -1      2309 1.74430E+01 1.96089E+00 6.65528E-02 3.76598E+00 1.41439E-13-5.35457E-14
 -1      2310 1.87247E+01 4.08488E-01 9.35140E-02 5.27891E+00 2.77584E-13 4.01068E-15
 -1      2311 1.93683E+01-9.79958E-01 1.07522E-01 5.49458E+00 2.81497E-13 3.81500E-14
 -1      2312 1.60071E+01 1.09115E+00 1.02522E-01 4.84623E+00 2.60798E-13-8.49321E-14
 -1      2313 3.84058E+01-2.02314E+00 1.44827E-01 4.19487E+00-2.81719E-15-4.43923E-13
 -1      2314 1.99995E+01-4.85089E-04 3.93709E-07-9.88909E-04 1.13940E-13 1.21405E-13
 -1      2315 3.43803E+01 3.84689E+00-1.42235E-01 1.59193E-02 4.55275E-13-3.02647E-13
 -1      2316 3.27924E+01 1.39106E+00-1.00347E-01 8.94112E-01 4.00971E-13-3.78531E-13
 -1      2317 3.14780E+01-1.42562E-01-1.70207E-02 2.59947E-01 2.26326E-13-3.84692E-13
 -1      2318 2.71027E+01-3.83043E+00 7.35994E-02-3.60244E+00 5.05040E-13-1.17649E-13
 -1      2319 2.55348E+01-2.18416E+00 1.72322E-01-4.57702E+00 3.79974E-13-3.96211E-14
 -1      2320 2.44651E+01-8.81891E-01 4.87445E-02-4.68766E+00 2.32092E-13-1.25865E-13
 -1      2321 2.34555E+01 1.86161E-01 8.73676E-02-4.76819E+00 1.45207E-13-2.41387E-14
 -1      2322 2.15932E+01-1.83539E+00 1.79085E-02-5.43578E+00 2.96055E-13 5.19723E-14
 -1      2323 2.32305E+01 6.52289E-01 2.82754E-02-4.33895E+00-4.00756E-14-1.74382E-13
 -1      2324 2.25034E+01 9.79998E-01 1.45122E-02-3.97807E+00-1.74909E-13-1.80855E-13
 -1      2325 2.08166E+01 5.58862E-01 4.53703E-02-4.94116E+00-5.72146E-14-1.17708E-13
 -1      2326 2.25247E+01 1.01993E+00 2.18924E-02-3.44063E+00-1.69180E-13-2.68544E-13
 -1      2327 2.19546E+01 1.01680E+00-4.27335E-03-2.98499E+00-5.26801E-14-2.89234E-13
 -1      2328 2.07489E+01 1.30987E+00 2.31894E-02-3.91550E+00-2.06916E-13-2.54124E-13
 -1      2329 2.19833E+01 9.08702E-01 2.19395E-02-2.51172E+00-3.52201E-14-3.68869E-13
 -1      2330 2.15325E+01 8.03663E-01-6.14068E-03-2.11618E+00-2.69793E-14-4.55545E-13
 -1      2331 2.08089E+01 1.27455E+00 1.77774E-02-2.90977E+00-8.62643E-14-3.23445E-13
 -1      2332 2.15203E+01 6.81401E-01 2.04222E-02-1.75085E+00 1.10528E-13-4.36759E-13
 -1      2333 2.11764E+01 5.71375E-01-3.34820E-03-1.45252E+00 1.15114E-13-3.74614E-13
 -1      2334 2.07875E+01 9.92273E-01 1.20243E-02-2.07256E+00 5.85122E-15-4.63544E-13
 -1      2335 2.11398E+01 4.78675E-01 1.71405E-02-1.20108E+00 1.28121E-13-3.20418E-13
 -1      2336 2.08930E+01 3.93500E-01-1.71999E-03-9.98671E-01 1.61055E-13-2.99716E-13
 -1      2337 2.06957E+01 7.07907E-01 6.74058E-03-1.44891E+00 1.66631E-13-3.93236E-13
 -1      2338 2.08392E+01 3.22645E-01 1.28304E-02-8.11590E-01 3.32899E-13-3.21621E-13
 -1      2339 2.06522E+01 2.58833E-01-9.55289E-04-6.66406E-01 2.97038E-13-2.48319E-13
 -1      2340 2.05760E+01 4.84911E-01 4.49979E-03-9.98431E-01 2.71172E-13-4.00576E-13
 -1      2341 2.06012E+01 2.11770E-01 9.18072E-03-5.39497E-01 1.41110E-13-1.21835E-13
 -1      2342 2.04692E+01 1.68381E-01-3.71341E-04-4.42904E-01 2.33029E-13-4.98549E-15
 -1      2343 2.04515E+01 3.20217E-01 2.31851E-03-6.74378E-01 3.20837E-13-3.18165E-13
 -1      2344 2.04248E+01 1.37861E-01 6.32575E-03-3.57785E-01 5.52312E-14-5.29388E-14
 -1      2345 2.03329E+01 1.09094E-01-1.00844E-04-2.94082E-01-1.01969E-13-7.94846E-14
 -1      2346 2.03421E+01 2.08994E-01 1.02911E-03-4.53323E-01 1.14945E-13-2.23932E-13
 -1      2347 2.02968E+01 8.95792E-02 4.27005E-03-2.37326E-01-1.81787E-13-2.50544E-14
 -1      2348 2.02332E+01 7.07609E-02 2.43072E-05-1.95427E-01-9.27508E-14 1.14895E-13
 -1      2349 2.02528E+01 1.35862E-01 3.33710E-04-3.04227E-01-3.58784E-14-1.14475E-13
 -1      2350 2.02051E+01 5.83261E-02 2.85177E-03-1.57623E-01-8.27019E-15 1.73777E-13
 -1      2351 2.01615E+01 4.61671E-02 1.35570E-04-1.30057E-01-7.44186E-15 2.23931E-13
 -1      2352 2.01831E+01 8.84061E-02-9.49002E-07-2.04158E-01-2.13750E-15 9.89897E-14
 -1      2353 2.01413E+01 3.86753E-02 1.92603E-03-1.05963E-01-3.08839E-14 1.08195E-13
 -1      2354 2.01124E+01 3.09268E-02 1.35567E-04-8.83662E-02 1.55466E-13 2.21615E-14
 -1      2355 2.01313E+01 5.80666E-02-2.46780E-04-1.38223E-01-1.35742E-14 2.36687E-13
 -1      2356 2.00962E+01 2.56482E-02 1.28679E-03-7.10741E-02 3.25583E-13 3.11299E-14
 -1      2357 2.00753E+01 2.03378E-02 8.93489E-05-5.86876E-02 1.90403E-13 1.47607E-13
 -1      2358 2.00928E+01 3.87643E-02-1.74114E-04-9.37878E-02 2.69201E-13 2.01774E-13
 -1      2359 2.00636E+01 1.70227E-02 8.71394E-04-4.70773E-02-4.52248E-14 2.45312E-13
 -1      2360 2.00494E+01 1.34962E-02 7.63533E-05-3.87916E-02-5.27796E-14 2.73186E-13
 -1      2361 2.00637E+01 2.56106E-02-1.75337E-04-6.27470E-02 1.29487E-13 2.75324E-13
 -1      2362 2.00409E+01 1.13536E-02 5.86709E-04-3.09392E-02-7.61578E-14 1.58219E-13
 -1      2363 2.00313E+01 9.00410E-03 6.24361E-05-2.53692E-02 5.44540E-14 9.76879E-14
 -1      2364 2.00428E+01 1.70328E-02-1.53851E-04-4.17142E-02-1.29210E-13 1.12051E-13
 -1      2365 2.00253E+01 7.60479E-03 3.95972E-04-2.00393E-02 6.46730E-14-1.63755E-14
 -1      2366 2.00189E+01 6.02445E-03 4.97170E-05-1.62827E-02-9.02136E-14-2.72832E-14
 -1      2367 2.00278E+01 1.13819E-02-1.26721E-04-2.74066E-02 3.17128E-14-3.56727E-14
 -1      2368 2.00148E+01 5.09523E-03 2.66027E-04-1.26586E-02-2.69854E-13-7.10186E-14
 -1      2369 2.00106E+01 4.03480E-03 4.35138E-05-1.01288E-02-2.42030E-13-2.54127E-14
 -1      2370 2.00174E+01 7.62622E-03-9.93531E-05-1.76507E-02-1.60278E-13-2.51012E-14
 -1      2371 2.00078E+01 3.45147E-03 1.81327E-04-7.77834E-03-4.43945E-13-9.06084E-14
 -1      2372 2.00052E+01 2.74116E-03 3.33712E-05-6.13832E-03-5.67235E-13-3.52097E-13
 -1      2373 2.00103E+01 5.11654E-03-8.76127E-05-1.11160E-02-4.09403E-13-2.27233E-13
 -1      2374 2.00033E+01 2.30665E-03 1.23063E-04-4.44297E-03-2.43798E-13-3.44644E-13
 -1      2375 2.00016E+01 1.79223E-03 2.13772E-05-3.28373E-03-1.80569E-13-4.46156E-13
 -1      2376 2.00055E+01 3.45913E-03-5.85124E-05-6.66790E-03-4.39311E-13-3.02433E-13
 -1      2377 2.00004E+01 1.51235E-03 8.39130E-05-2.15709E-03-1.15281E-13-4.96360E-13
 -1      2378 1.99995E+01 1.15052E-03 1.50191E-05-1.39531E-03-5.80350E-15-6.19802E-13
 -1      2379 2.00023E+01 2.26583E-03-4.40421E-05-3.56282E-03-1.55503E-13-2.49744E-13
 -1      2380 1.99987E+01 9.64685E-04 5.55988E-05-6.59021E-04 6.09101E-15-4.06328E-13
 -1      2381 1.99983E+01 7.12626E-04 1.04113E-05-1.71571E-04-1.60729E-13-2.31711E-13
 -1      2382 2.00003E+01 1.45239E-03-3.22263E-05-1.49959E-03 6.29513E-14-3.35351E-13
 -1      2383 1.99979E+01 5.89782E-04 3.59495E-05 2.94404E-04-1.08123E-13-1.69894E-13
 -1      2384 1.99977E+01 4.13993E-04 6.95936E-06 5.92885E-04 1.03111E-14-2.20808E-13
 -1      2385 1.99991E+01 8.96276E-04-2.30864E-05-1.60101E-04-1.05915E-13-1.36117E-14
 -1      2386 1.99976E+01 3.31993E-04 2.20137E-05 8.72058E-04-7.01255E-14 1.49857E-15
 -1      2387 1.99977E+01 2.10698E-04 4.56932E-06 1.03919E-03 1.30945E-13-4.18319E-14
 -1      2388 1.99985E+01 5.16760E-04-1.60005E-05 6.76349E-04 2.41035E-14 1.26374E-13
 -1      2389 1.99977E+01 1.58637E-04 1.25631E-05 1.18278E-03 2.14057E-13-6.02895E-14
 -1      2390 1.99978E+01 7.35200E-05 2.03193E-06 1.25738E-03 2.55892E-13-1.80271E-13
 -1      2391 1.99983E+01 2.55935E-04-1.17209E-05 1.15563E-03 1.52911E-13 1.10277E-13
 -1      2392 1.99979E+01 3.24564E-05 6.74514E-06 1.31777E-03 1.43592E-13-3.65379E-13
 -1      2393 1.99982E+01-3.80622E-05-8.88426E-07 1.32996E-03-1.63796E-13-5.37489E-13
 -1      2394 1.99984E+01 7.64027E-05-7.29213E-06 1.39455E-03 1.55602E-14-4.12712E-13
 -1      2395 1.99983E+01-7.04539E-05 2.84811E-06 1.31841E-03-2.06486E-13-4.98808E-13
 -1      2396 1.99986E+01-1.34324E-04-3.83865E-06 1.27533E-03-2.85839E-13-3.18552E-13
 -1      2397 1.99986E+01-7.01113E-05-4.47980E-06 1.46072E-03-2.32560E-13-3.61956E-13
 -1      2398 1.99987E+01-1.71261E-04 3.41231E-07 1.20190E-03-2.95668E-13-1.61462E-13
 -1      2399 1.99990E+01-2.35871E-04-6.77970E-06 1.10406E-03-1.22450E-13-2.78411E-13
 -1      2400 1.99989E+01-2.00618E-04-8.24441E-08 1.38705E-03-1.72775E-13-1.68185E-13
 -1      2401 1.98867E+01 2.48635E-02-2.01951E-03 8.21694E-02 6.30213E-14 2.37489E-13
 -1      2402 1.99554E+01 9.54520E-02 9.36594E-03 1.16840E-01 6.81643E-14 2.45575E-13
 -1      2403 2.00008E+01 1.72724E-01-4.30170E-04 1.92750E-01 6.58356E-14 2.47847E-13
 -1      2404 2.01068E+01 2.71614E-01 1.10108E-02 2.98651E-01 8.08570E-14 2.63905E-13
 -1      2405 2.01373E+01 1.90764E-01-4.28474E-03 2.13012E-01 7.67786E-14 1.74111E-13
 -1      2406 1.97552E+01-1.66301E-01-4.48463E-03 1.68867E-01 4.67243E-14 2.21229E-13
 -1      2407 1.98025E+01-1.25373E-01 3.10579E-03 1.17043E-01 4.10451E-14 2.43133E-13
 -1      2408 1.96827E+01-2.22903E-01-4.97777E-03 3.19301E-01 9.26331E-15 2.60300E-13
 -1      2409 1.97449E+01-1.96509E-01 1.30479E-03 2.41157E-01 3.09410E-14 2.46709E-13
 -1      2410 1.99841E+01-2.38960E-01-5.13608E-04 2.32570E-01 4.32953E-14 1.76260E-13
 -1      2411 1.95743E+01-2.42680E-01-4.43199E-03 5.08216E-01 3.37853E-14 2.58847E-13
 -1      2412 1.96611E+01-2.37120E-01-2.82381E-04 4.17315E-01-7.91771E-15 2.56097E-13
 -1      2413 1.99484E+01-3.03722E-01 9.50386E-04 4.09545E-01 2.30308E-14 1.79187E-13
 -1      2414 1.94139E+01-2.11004E-01-2.51196E-03 6.99287E-01 3.71829E-14 2.55473E-13
 -1      2415 1.95288E+01-2.33995E-01-1.81924E-03 6.14321E-01 6.40215E-14 2.63866E-13
 -1      2416 1.98807E+01-3.13873E-01 2.28490E-03 6.24708E-01 5.07018E-14 1.59047E-13
 -1      2417 1.91971E+01-1.17119E-01 7.52351E-04 8.44331E-01 3.46626E-14 2.65939E-13
 -1      2418 1.93354E+01-1.73182E-01-3.14855E-03 7.88698E-01 3.74288E-14 2.70699E-13
 -1      2419 1.97605E+01-2.51136E-01 3.10358E-03 8.33501E-01 2.54424E-14 1.92796E-13
 -1      2420 1.89374E+01 3.55697E-02 4.72156E-03 8.89679E-01 4.16147E-14 2.44868E-13
 -1      2421 1.90852E+01-4.94160E-02-3.80081E-03 8.87245E-01 6.46799E-14 2.96725E-13
 -1      2422 1.95785E+01-1.05803E-01 2.85954E-03 9.77674E-01 4.73880E-14 2.74015E-13
 -1      2423 1.86697E+01 2.21190E-01 8.13011E-03 7.91453E-01-5.44328E-14 2.39617E-13
 -1      2424 1.88052E+01 1.23782E-01-3.14532E-03 8.58652E-01-3.41198E-15 2.66092E-13
 -1      2425 1.93461E+01 1.09922E-01 1.08774E-03 9.94874E-01 1.66060E-15 3.34129E-13
 -1      2426 1.84470E+01 3.92239E-01 9.58250E-03 5.36290E-01-1.51467E-14 1.72738E-13
 -1      2427 1.85451E+01 3.09131E-01-7.99206E-04 6.73089E-01-3.26089E-14 2.05130E-13
 -1      2428 1.91017E+01 3.53832E-01-2.06324E-03 8.39036E-01 8.44095E-15 2.67958E-13
 -1      2429 1.83263E+01 4.94958E-01 8.40328E-03 1.56771E-01 1.02742E-13 9.71511E-14
 -1      2430 1.83653E+01 4.53298E-01 2.90633E-03 3.41970E-01 4.21620E-14 8.02164E-14
 -1      2431 1.89053E+01 5.60042E-01-5.42792E-03 5.05798E-01 6.68385E-14 9.14371E-14
 -1      2432 1.83457E+01 4.93963E-01 5.13990E-03-2.71646E-01 5.88284E-14 5.59229E-14
 -1      2433 1.83149E+01 5.08252E-01 6.71359E-03-7.59034E-02 9.28632E-14 1.20242E-13
 -1      2434 1.88172E+01 6.62957E-01-7.25850E-03 4.74576E-02 9.16008E-14 4.83668E-14
 -1      2435 1.85072E+01 3.90742E-01 1.27303E-03-6.55722E-01 1.54136E-13-4.14376E-14
 -1      2436 1.84105E+01 4.55127E-01 9.00132E-03-4.90784E-01 1.07182E-13 1.61464E-14
 -1      2437 1.88693E+01 6.27808E-01-6.50177E-03-4.37949E-01 1.09765E-13-4.68606E-14
 -1      2438 1.87747E+01 2.22616E-01-1.70364E-03-9.19520E-01 1.08585E-13 1.53950E-14
 -1      2439 1.86290E+01 3.14228E-01 8.73467E-03-8.15204E-01 1.13250E-13-1.35461E-14
 -1      2440 1.90488E+01 4.68483E-01-3.59589E-03-8.42720E-01 9.08097E-14-4.05307E-14
 -1      2441 1.90903E+01 4.29675E-02-3.07514E-03-1.02954E+00 1.74653E-14 7.50081E-14
 -1      2442 1.89197E+01 1.33761E-01 6.07404E-03-9.95507E-01 5.71265E-14 4.89492E-14
 -1      2443 1.93048E+01 2.39888E-01-1.13596E-04-1.09102E+00 5.38615E-14 3.64567E-14
 -1      2444 1.93973E+01-1.03091E-01-3.01103E-03-9.97760E-01-2.98211E-14 1.88782E-13
 -1      2445 1.92258E+01-3.42441E-02 2.18893E-03-1.02468E+00 7.61701E-15 1.13406E-13
 -1      2446 1.95739E+01 1.03567E-02 2.41881E-03-1.16167E+00-3.19084E-14 1.17537E-13
 -1      2447 1.96569E+01-1.92936E-01-2.13812E-03-8.65928E-01-3.71957E-15 2.36019E-13
 -1      2448 1.95029E+01-1.54672E-01-1.52473E-03-9.33482E-01 8.63860E-15 2.31530E-13
 -1      2449 1.98062E+01-1.67137E-01 3.44641E-03-1.08292E+00-1.58157E-14 1.08003E-13
 -1      2450 1.98526E+01-2.26386E-01-1.08191E-03-6.84194E-01 9.27032E-14 2.14527E-13
 -1      2451 1.97266E+01-2.16386E-01-4.13647E-03-7.70106E-01 9.58166E-14 2.73615E-13
 -1      2452 1.99770E+01-2.69479E-01 3.26693E-03-9.09212E-01 1.05877E-14 2.32362E-13
 -1      2453 1.99852E+01-2.17113E-01-2.23293E-04-4.95095E-01-3.26742E-14 2.03763E-13
 -1      2454 1.98903E+01-2.27122E-01-5.37817E-03-5.81352E-01 1.44914E-15 2.25226E-13
 -1      2455 2.00843E+01-3.00761E-01 2.48997E-03-6.96849E-01 4.29165E-14 3.58611E-13
 -1      2456 2.00650E+01-1.82971E-01 3.09070E-04-3.26529E-01 4.12409E-15 1.27584E-13
 -1      2457 1.99994E+01-2.03619E-01-5.46468E-03-4.01785E-01-9.95623E-15 1.57850E-13
 -1      2458 2.01396E+01-2.80540E-01 1.61542E-03-4.89027E-01 7.57879E-15 2.32854E-13
 -1      2459 2.01056E+01-1.39475E-01 5.47427E-04-1.91875E-01-3.92329E-15 1.66904E-13
 -1      2460 2.00644E+01-1.63190E-01-4.81047E-03-2.51045E-01 1.52181E-14 1.39751E-13
 -1      2461 2.01584E+01-2.31924E-01 8.99925E-04-3.11288E-01-1.57307E-14 1.22428E-13
 -1      2462 2.01196E+01-9.71472E-02 5.86906E-04-9.36975E-02 8.02931E-14 4.08289E-15
 -1      2463 2.00971E+01-1.19107E-01-3.81644E-03-1.36230E-01 8.60662E-14 6.40703E-14
 -1      2464 2.01548E+01-1.74073E-01 4.10019E-04-1.73825E-01 6.58355E-14 2.63259E-14
 -1      2465 2.01172E+01-6.15512E-02 5.20887E-04-2.81579E-02 1.31405E-14 1.04580E-13
 -1      2466 2.01078E+01-7.94256E-02-2.77389E-03-5.61134E-02 1.98456E-14 8.10345E-15
 -1      2467 2.01395E+01-1.19492E-01 1.15093E-04-7.64276E-02 3.07401E-14 5.94759E-14
 -1      2468 2.01056E+01-3.45546E-02 4.16198E-04 1.13816E-02-6.49731E-14 1.74701E-13
 -1      2469 2.01048E+01-4.77638E-02-1.85142E-03-5.13500E-03 3.40000E-15 1.36365E-13
 -1      2470 2.01193E+01-7.44686E-02-4.34627E-05-1.32999E-02-4.56162E-15 1.34297E-13
 -1      2471 2.00899E+01-1.57907E-02 3.11111E-04 3.19909E-02 2.06256E-15 1.34511E-13
 -1      2472 2.00941E+01-2.47515E-02-1.12031E-03 2.36910E-02-4.04464E-14 2.18605E-13
 -1      2473 2.00983E+01-4.08144E-02-1.18548E-04 2.33734E-02-5.96172E-14 2.06805E-13
 -1      2474 2.00732E+01-3.83645E-03 2.22632E-04 3.99055E-02 1.01043E-14 1.86820E-13
 -1      2475 2.00799E+01-9.39237E-03-5.88923E-04 3.70349E-02 1.64720E-14 2.05034E-13
 -1      2476 2.00787E+01-1.77244E-02-1.47330E-04 4.12687E-02-4.28264E-14 1.46188E-13
 -1      2477 2.00574E+01 3.01830E-03 1.55155E-04 4.00351E-02-6.27464E-14 2.93505E-13
 -1      2478 2.00649E+01-4.94384E-05-2.32392E-04 4.04302E-02-9.98530E-15 2.61992E-13
 -1      2479 2.00614E+01-3.21861E-03-1.52149E-04 4.68709E-02-6.07490E-14 2.45119E-13
 -1      2480 2.00435E+01 6.35334E-03 1.06866E-04 3.59305E-02-6.81716E-14 2.72842E-13
 -1      2481 2.00507E+01 4.96484E-03-1.32182E-05 3.80469E-02-9.81027E-15 2.20002E-13
 -1      2482 2.00468E+01 4.94138E-03-1.45158E-04 4.51448E-02-2.42435E-14 2.40698E-13
 -1      2483 2.00318E+01 7.44430E-03 7.37356E-05 2.99730E-02 3.19284E-14 1.56391E-13
 -1      2484 2.00381E+01 7.10049E-03 1.06598E-04 3.27899E-02-1.83127E-14 1.98917E-13
 -1      2485 2.00349E+01 8.77044E-03-1.32585E-04 3.96049E-02 4.98233E-14-4.06656E-15
 -1      2486 2.00224E+01 7.23119E-03 5.15808E-05 2.36372E-02 1.44540E-13 3.06028E-14
 -1      2487 2.00276E+01 7.47484E-03 1.59678E-04 2.65341E-02 7.30481E-14 6.26697E-14
 -1      2488 2.00253E+01 9.87075E-03-1.17569E-04 3.25638E-02 1.33830E-13-6.78402E-14
 -1      2489 2.00150E+01 6.35700E-03 3.69177E-05 1.77479E-02-7.53703E-14 3.36016E-13
 -1      2490 2.00192E+01 6.88169E-03 1.71311E-04 2.03873E-02 1.43881E-13 9.80477E-14
 -1      2491 2.00178E+01 9.40995E-03-1.01775E-04 2.54234E-02 3.55368E-14-1.64578E-13
 -1      2492 2.00095E+01 5.23108E-03 2.71616E-05 1.26957E-02-1.02390E-13 1.85212E-13
 -1      2493 2.00126E+01 5.84600E-03 1.59649E-04 1.49266E-02-6.08949E-14 3.16600E-13
 -1      2494 2.00121E+01 8.17907E-03-8.61857E-05 1.89443E-02-4.76656E-14 8.91887E-14
 -1      2495 2.00055E+01 4.09345E-03 2.05332E-05 8.59992E-03 1.95209E-13-1.89797E-13
 -1      2496 2.00078E+01 4.68992E-03 1.36867E-04 1.03859E-02 1.82221E-14-5.20423E-14
 -1      2497 2.00078E+01 6.67668E-03-7.14406E-05 1.34646E-02 1.09305E-13-1.61828E-14
 -1      2498 2.00027E+01 3.06928E-03 1.58674E-05 5.42575E-03 2.08446E-13-1.08284E-13
 -1      2499 2.00042E+01 3.59330E-03 1.10574E-04 6.79349E-03 1.86517E-13-7.90192E-14
 -1      2500 2.00047E+01 5.19133E-03-5.79613E-05 9.06276E-03 1.69807E-13-2.13070E-13
 -1      2501 2.00008E+01 2.21056E-03 1.24211E-05 3.06148E-03-3.17652E-14 1.68425E-13
 -1      2502 2.00018E+01 2.64233E-03 8.51332E-05 4.06787E-03 6.67716E-14 1.07199E-14
 -1      2503 2.00025E+01 3.87018E-03-4.59988E-05 5.67273E-03-3.30722E-14 3.23696E-14
 -1      2504 1.99996E+01 1.52572E-03 9.71425E-06 1.36746E-03 1.99608E-13 8.40726E-14
 -1      2505 2.00002E+01 1.86533E-03 6.27347E-05 2.07869E-03 1.69089E-13 1.94328E-13
 -1      2506 2.00010E+01 2.77107E-03-3.56600E-05 3.15938E-03 2.50129E-14 2.04372E-13
 -1      2507 1.99990E+01 9.99299E-04 7.41805E-06 2.04736E-04 4.90605E-15-2.12743E-13
 -1      2508 1.99993E+01 1.25739E-03 4.42093E-05 6.84464E-04 1.77023E-13-8.31008E-14
 -1      2509 2.00000E+01 1.89903E-03-2.69392E-05 1.36574E-03 3.25008E-13 5.43362E-14
 -1      2510 1.99987E+01 6.04229E-04 5.28446E-06-5.49527E-04-8.48460E-14-2.47850E-13
 -1      2511 1.99988E+01 7.96304E-04 2.95937E-05-2.46411E-04-7.53814E-14-3.05983E-13
 -1      2512 1.99995E+01 1.23054E-03-1.97436E-05 1.40316E-04 6.97156E-14-1.59909E-13
 -1      2513 1.99987E+01 3.08836E-04 3.15521E-06-9.95057E-04-3.43923E-14-1.14373E-13
 -1      2514 1.99986E+01 4.52115E-04 1.85341E-05-8.25139E-04-9.78720E-14-3.06647E-13
 -1      2515 1.99992E+01 7.28534E-04-1.39252E-05-6.48684E-04-4.78393E-14-3.72349E-13
 -1      2516 1.99988E+01 8.08193E-05 1.02654E-06-1.20576E-03-1.79738E-13 4.54846E-14
 -1      2517 1.99987E+01 1.92039E-04 1.05037E-05-1.13799E-03-9.79534E-14 6.03998E-15
 -1      2518 1.99991E+01 3.50477E-04-9.35289E-06-1.10654E-03-1.89351E-13-3.86345E-13
 -1      2519 1.99990E+01-1.10599E-04-1.87488E-06-1.23199E-03-6.69782E-14 2.19444E-13
 -1      2520 1.99989E+01-1.49583E-05 5.03515E-06-1.24564E-03-6.21220E-14 1.29442E-13
 -1      2521 1.99992E+01 5.34639E-05-5.98041E-06-1.31215E-03-1.42594E-13 2.13392E-14
 -1      2522 1.99993E+01-2.87970E-04-6.31451E-06-1.10423E-03 1.15882E-13-3.40506E-14
 -1      2523 1.99991E+01-1.97255E-04 1.15920E-06-1.18544E-03-4.20692E-14 1.38117E-13
 -1      2524 1.99993E+01-2.01250E-04-3.68403E-06-1.31836E-03 5.17257E-15 2.74152E-13
 -1      2525 2.00001E+01-1.34065E-03 3.43402E-06-8.68907E-04 1.35271E-13-1.02806E-13
 -1      2526 2.00000E+01-1.21188E-03 1.27948E-06-9.65215E-04 1.18569E-13-2.31691E-13
 -1      2527 2.00000E+01-1.13424E-03 2.90140E-06-1.05096E-03-2.05994E-14-2.45355E-14
 -1      2528 1.99999E+01-9.88155E-04-1.91277E-06-1.10101E-03-8.32972E-14 5.65408E-14
 -1      2529 2.00001E+01-8.90538E-04-4.67942E-07-1.10534E-03-5.00805E-15-9.16603E-14
 -1      2530 1.99998E+01-8.90855E-04 1.63441E-06-1.13537E-03-9.16801E-15 7.51256E-15
 -1      2531 1.99997E+01-7.27118E-04-6.26277E-06-1.12362E-03 5.20407E-14 2.34666E-13
 -1      2532 1.99999E+01-7.28469E-04-5.38232E-07-1.23196E-03 6.06968E-14 2.59859E-14
 -1      2533 2.06805E+01 2.03367E+00-1.33430E-02-1.71295E+00-1.18513E-13-2.12228E-13
 -1      2534 2.05966E+01 1.33618E+00-3.37743E-03-1.08445E+00-1.19989E-13-1.89751E-13
 -1      2535 2.04895E+01 1.54133E+00 2.29394E-03-9.87075E-01-9.68526E-14-1.88245E-13
 -1      2536 2.03734E+01 2.46320E+00-1.01779E-02-1.63087E+00-9.72286E-14-2.50291E-13
 -1      2537 2.00002E+01-1.49762E-03 4.03231E-06-6.14067E-04 1.04812E-13 6.44482E-14
 -1      2538 2.00001E+01-1.40083E-03 2.97111E-06-7.41668E-04 7.48931E-14-1.06401E-13
 -1      2539 2.00002E+01-1.02292E-03-6.16326E-07-8.82101E-04 9.13115E-14-1.59085E-13
 -1      2540 2.00002E+01-1.59757E-03 4.69225E-06-3.12674E-04-1.28557E-13-1.55874E-13
 -1      2541 2.00002E+01-1.54102E-03 3.59022E-06-4.60660E-04-4.82846E-14 2.14882E-14
 -1      2542 2.00003E+01-1.12214E-03-7.63289E-07-5.90582E-04-2.61061E-13 5.85209E-15
 -1      2543 2.00003E+01-1.63526E-03 5.21651E-06 1.68286E-05-9.43926E-14 3.05735E-13
 -1      2544 2.00002E+01-1.62392E-03 3.79184E-06-1.42395E-04-1.26896E-13 1.07427E-13
 -1      2545 2.00004E+01-1.18924E-03-9.73753E-07-2.54351E-04-1.82502E-13 5.34896E-14
 -1      2546 2.00002E+01-1.60601E-03 5.23841E-06 3.56092E-04 1.85683E-14 3.41876E-13
 -1      2547 2.00003E+01-1.64216E-03 3.80279E-06 1.95308E-04-9.62967E-14 3.64303E-13
 -1      2548 2.00004E+01-1.22111E-03-1.32036E-06 1.08359E-04-1.00203E-13 4.07876E-13
 -1      2549 2.00002E+01-1.50872E-03 4.28281E-06 6.76472E-04 1.66687E-13 7.57942E-14
 -1      2550 2.00002E+01-1.58977E-03 3.84009E-06 5.29163E-04 1.51043E-13 1.39303E-13
 -1      2551 2.00004E+01-1.21178E-03-1.78356E-06 4.74628E-04 7.75986E-14 2.53215E-13
 -1      2552 2.00001E+01-1.33982E-03 2.28456E-06 9.56905E-04 4.25931E-13 4.09707E-13
 -1      2553 2.00002E+01-1.46343E-03 4.06209E-06 8.34847E-04 4.00033E-13-1.31783E-14
 -1      2554 2.00003E+01-1.15358E-03-2.31298E-06 8.21212E-04 4.72191E-13 2.11191E-13
 -1      2555 2.00000E+01-1.10680E-03-1.24798E-06 1.14925E-03 2.39829E-13 1.53765E-13
 -1      2556 2.00000E+01-1.26138E-03 4.50418E-06 1.07651E-03 2.20567E-13 5.02411E-13
 -1      2557 2.00002E+01-1.03786E-03-2.56992E-06 1.11348E-03 3.20361E-13 3.14498E-13
 -1      2558 1.99997E+01-8.21434E-04-5.51771E-06 1.21233E-03 1.44475E-14-3.16790E-13
 -1      2559 1.99999E+01-9.93240E-04 6.76425E-06 1.20333E-03 9.62334E-14-3.06845E-13
 -1      2560 1.99999E+01-8.59520E-04-2.19981E-06 1.29969E-03 9.94661E-14-7.67258E-14
 -1      2561 1.98143E+01-8.33398E-02-3.38730E-03 8.27105E-02 4.08766E-14 2.50629E-13
 -1      2562 1.98620E+01-2.98036E-02 5.56283E-03 6.79839E-02 5.08762E-14 2.43457E-13
 -1      2563 2.00562E+01 4.12881E-03-3.20809E-03 1.10235E-01 6.71088E-14 1.58826E-13
 -1      2564 1.08149E+01-4.27334E+00 2.55494E-02 8.30332E+00 1.09690E-13 2.87548E-13
 -1      2565 7.47477E+00-3.97982E+00 7.78971E-02 7.08571E+00 2.53131E-14 2.42834E-13
 -1      2566 2.69281E+01-4.02051E+00-8.65671E-02 5.40813E+00 2.04781E-13-3.90965E-13
 -1      2567 2.40764E+01-4.71239E+00 3.50424E-02 6.44679E+00 1.79579E-13-1.76220E-13
 -1      2568 2.01298E+01-4.89290E+00-1.65040E-02 8.01668E+00 1.46161E-13 1.97328E-13
 -1      2569 1.53646E+01-5.03135E+00 6.13691E-02 8.23066E+00 9.48130E-14 1.62009E-13
 -1      2570 4.91952E+00-3.13328E+00 8.16798E-02 5.83345E+00 6.99441E-15 1.17517E-13
 -1      2571 3.30747E+00-2.30308E+00 1.21970E-01 3.69868E+00-6.42403E-14 1.53821E-13
 -1      2572 8.08851E+00-2.28405E+00 1.48516E-01 6.54715E+00-4.54636E-14 1.96176E-13
 -1      2573 3.43190E+01 6.34358E+00-1.36173E-01 7.21688E-01 2.32536E-13-6.18394E-14
 -1      2574 3.49625E+01 7.90117E+00-1.52946E-01 6.18198E-01 3.24463E-13-3.89688E-14
 -1      2575 2.09005E+01-5.09652E+00 1.03418E-01-5.47133E+00 4.49585E-13 3.13027E-13
 -1      2576 2.49322E+01-5.12128E+00-5.03592E-02-4.34563E+00 4.44117E-13 1.37900E-13
 -1      2577 3.48741E+01 8.78523E+00-1.78032E-01 1.26296E-01 4.50417E-13-3.56243E-14
 -1      2578 3.54453E+01 8.64612E+00-1.34337E-01-1.50294E-01 5.43232E-13-1.09357E-13
 -1      2579 1.99996E+01-5.46927E-04 8.06886E-07-1.15233E-03 1.31059E-13 2.65304E-13
 -1      2580 1.93236E+01 3.72236E+00-8.52562E-03-3.13016E-01 1.32407E-13-1.98103E-13
 -1      2581 1.93277E+01 3.71419E+00-1.03475E-02-4.68855E-01 1.09285E-13-2.19874E-13
 -1      2582 1.94789E+01 3.35914E+00 8.02678E-04-5.12587E-01 1.00023E-13-2.10071E-13
 -1      2583 1.94725E+01 3.36845E+00-3.91662E-04-2.51629E-01 1.29800E-13-1.80732E-13
 -1      2584 3.33418E+01 2.14466E+00-4.63961E-02-1.18567E-01 4.90996E-14-1.26232E-13
 -1      2585 3.41394E+01 3.95385E+00-1.69878E-01 3.17723E-01 1.06110E-13-1.04194E-13
 -1      2586 2.95250E+01-2.63691E+00 1.60612E-02-3.79303E+00-2.48690E-14-2.09888E-13
 -1      2587 3.20117E+01-7.40212E-01-1.62420E-01-1.96768E+00 2.78041E-14-1.53266E-13
 -1      2588 2.33644E+01-4.83434E+00 1.96087E-02-6.67537E+00-1.16185E-13-2.99247E-13
 -1      2589 2.67106E+01-3.93598E+00-4.52220E-02-5.81558E+00-2.10942E-14-2.68924E-13
 -1      2590 7.36988E+00-3.44199E+00 1.26074E-01-6.70384E+00-1.87017E-13-4.98157E-13
 -1      2591 1.01767E+01-3.93927E+00 8.17042E-02-7.94235E+00-1.66478E-13-4.75814E-13
 -1      2592 3.37499E+00-1.86087E+00 1.47352E-01-2.48266E+00-8.97615E-14-5.09592E-13
 -1      2593 4.86887E+00-2.41531E+00 1.20227E-01-5.08127E+00-1.20265E-13-5.41511E-13
 -1      2594 4.26687E+00-2.03176E+00 1.53834E-01 2.17039E+00 3.35842E-15-5.08704E-13
 -1      2595 3.36271E+00-1.57322E+00 1.58541E-01 7.67263E-02 1.52491E-14-5.09592E-13
 -1      2596 1.83470E+01-5.65405E+00-2.20620E-02 6.11762E+00-6.37268E-14-1.83270E-13
 -1      2597 1.39480E+01-5.03184E+00 3.79277E-02 5.97998E+00-5.62883E-14-1.72223E-13
 -1      2598 9.69214E+00-4.27493E+00 2.66321E-02 5.71731E+00-4.10783E-14-3.14526E-13
 -1      2599 6.15164E+00-3.08437E+00 9.89214E-02 4.06165E+00 2.43694E-14-4.17444E-13
 -1      2600 2.73959E+01-6.22942E+00-8.71063E-02 3.88579E+00-1.27454E-13-1.22014E-13
 -1      2601 3.55397E+01 7.80065E+00-1.42029E-01-4.19356E-01 5.77094E-13-2.00756E-13
 -1      2602 3.46614E+01 6.46737E+00-1.33023E-01-4.89517E-01 5.31797E-13-2.47691E-13
 -1      2603 3.25666E+01 8.05647E+00-6.35742E-02-7.28600E-01 5.05540E-13-4.80588E-14
 -1      2604 1.26499E+01-3.80757E+00 1.49496E-01-5.69731E+00 3.21410E-13 3.87385E-13
 -1      2605 1.68602E+01-4.46607E+00 3.82823E-02-6.03529E+00 3.80473E-13 3.43531E-13
 -1      2606 1.92750E+01-3.01669E+00 1.17483E-01-5.81761E+00 3.98515E-13 2.61346E-13
 -1      2607 6.02650E+00-2.13973E+00 2.08616E-01-3.43386E+00-7.70217E-15 3.76366E-13
 -1      2608 8.75588E+00-3.27226E+00 7.84342E-02-5.04859E+00 1.50491E-13 4.72400E-13
 -1      2609 1.22099E+01-1.64560E+00 1.08925E-01-5.41169E+00 1.64813E-13 2.22544E-13
 -1      2610 6.99966E+00-4.71044E-01 1.42378E-01-2.60687E+00-7.26641E-14 3.31596E-13
 -1      2611 2.31828E+01-5.95279E+00 2.38610E-02 4.72777E+00 3.47500E-14-1.70339E-13
 -1      2612 2.27924E+01-5.00994E+00 6.21928E-02 5.16025E+00 1.31728E-13-1.17822E-14
 -1      2613 3.25103E+01 4.94218E+00-8.00861E-02 1.35538E+00 1.52905E-13 1.00753E-13
 -1      2614 1.97555E+01 3.03542E+00 3.21484E-03-9.73946E-01-5.16167E-15-2.33909E-13
 -1      2615 1.96709E+01 3.33226E+00-1.56527E-02-1.15134E+00 7.50268E-16-2.61801E-13
 -1      2616 1.98164E+01 3.18385E+00-1.64692E-02-1.31580E+00-3.36998E-14-2.65983E-13
 -1      2617 2.04523E+01 5.70410E-01 8.93726E-03 8.29513E-01 1.26938E-13 4.15005E-13
 -1      2618 2.05074E+01 8.12493E-01 6.89589E-03 9.99688E-01 1.55638E-13 3.38239E-13
 -1      2619 2.02865E+01 4.63794E-01 7.01487E-03 6.27839E-01 1.34484E-13 3.79412E-13
 -1      2620 5.12816E+00-5.40583E-01 1.77256E-01 2.18986E+00-1.03969E-13 1.75748E-13
 -1      2621 3.26600E+01 4.72276E+00-5.91342E-02-1.15401E+00 4.53221E-13-2.24154E-13
 -1      2622 2.00120E+01-1.34877E-01-1.94269E-03 1.24866E-01 3.81119E-14 1.53017E-13
 -1      2623 2.83542E+01-3.73700E+00 2.14567E-02 3.57219E+00 9.14685E-14-5.49838E-13
 -1      2624 2.11479E+01-2.91248E+00 1.91718E-01 5.64518E+00 1.97342E-13 3.16552E-14
 -1      2625 3.24362E+01 8.08800E+00-8.74545E-02 6.61305E-01 3.74312E-13 8.46753E-14
 -1      2626 1.99992E+01-3.05137E-04-2.47581E-06 1.01393E-03 8.34133E-14-2.17000E-13
 -1      2627 1.99994E+01-3.71050E-04-6.74662E-06 8.65035E-04 3.88832E-13-2.17484E-13
 -1      2628 1.99996E+01-4.55196E-04 4.61556E-06-1.27165E-03 1.14293E-13 1.36506E-13
 -1      2629 1.99995E+01-5.47908E-04-1.44968E-06 9.73023E-04 4.03208E-13-3.88137E-13
 -1      2630 1.99996E+01-6.66759E-04 2.08149E-06 1.07343E-03 1.14709E-13-1.72243E-13
 -1      2631 7.76560E+00-1.73171E+00 1.81740E-01-5.71309E+00-1.88252E-13-4.81837E-13
 -1      2632 1.99996E+01-6.34286E-04-5.61143E-06 1.24428E-03 7.14406E-14-1.63262E-13
 -1      2633 2.01338E+01 3.23541E-01 6.92176E-03 3.78029E-01 1.13916E-13 2.84508E-13
 -1      2634 2.02263E+01 4.00714E-01 1.14088E-02 5.08920E-01 1.32138E-13 3.31699E-13
 -1      2635 2.03092E+01 5.27339E-01-3.01700E-03 6.20580E-01 1.37882E-13 2.57063E-13
 -1      2636 2.02208E+01 3.71599E-01-5.75038E-03 3.98324E-01 1.02280E-13 2.13804E-13
 -1      2637 1.48174E+01-4.15127E+00 1.23402E-01 8.18864E+00 4.89886E-14 2.27179E-13
 -1      2638 2.26307E+01-5.02393E+00 8.74190E-02 6.86236E+00-2.60347E-14-1.62745E-13
 -1      2639 1.99683E+01 2.98104E+00-1.67335E-02-1.40563E+00-5.48713E-14-2.66863E-13
 -1      2640 2.01703E+01 2.73580E+00-2.12018E-02-1.56022E+00-7.86245E-14-2.72764E-13
 -1      2641 2.03266E+01 2.21387E+00 3.91481E-03-1.27187E+00-8.18523E-14-2.38542E-13
 -1      2642 2.00205E+01 2.69015E+00 4.34046E-03-1.15409E+00-4.18231E-14-2.47628E-13
 -1      2643 2.16258E+01-5.32312E+00 2.37713E-02-7.30047E+00-2.12969E-13-3.65291E-13
 -1      2644 2.38415E+01-5.27650E+00-6.83926E-02-6.22883E+00-2.28789E-13-2.31419E-13
 -1      2645 1.97242E+01-4.96514E+00 1.30989E-01-7.64867E+00-2.33563E-13-3.50900E-13
 -1      2646 1.62364E+01-1.96152E+00 7.32491E-02 5.98275E+00 1.98924E-13-7.94920E-14
 -1      2647 1.35702E+01-4.13197E+00 1.08141E-01-7.91755E+00-2.41751E-13-4.26090E-13
 -1      2648 2.85443E+01-3.79545E+00 4.17441E-02-3.83850E+00-1.55043E-13-1.25511E-13
 -1      2649 1.37908E+01-3.48938E+00 6.84531E-02 6.03681E+00 8.65419E-14-1.86434E-13
 -1      2650 7.32548E+00-1.22914E+00 1.47775E-01 3.46983E+00 1.15880E-13-4.19997E-13
 -1      2651 5.31654E+00-3.51578E-01 1.91915E-01-1.19763E+00-1.16712E-14-4.70624E-13
 -1      2652 3.17387E+01-2.74427E-02-3.89274E-02-3.66321E-01-6.90281E-14 2.66454E-14
 -1      2653 1.99992E+01-3.64119E-04 6.38898E-07 1.21760E-03-5.37239E-14-1.53217E-13
 -1      2654 1.99995E+01-4.29342E-04-3.46862E-06 7.38922E-04 5.41010E-13-2.89268E-13
 -1      2655 1.97846E+01 2.78464E+00-4.59306E-03 3.49221E-01 1.77296E-13-9.59352E-14
 -1      2656 1.97216E+01 2.85535E+00-6.32855E-03 1.95899E-01 1.63027E-13-1.11360E-13
 -1      2657 1.96658E+01 2.93338E+00-3.55464E-03 6.05597E-02 1.55813E-13-1.34939E-13
 -1      2658 1.96170E+01 2.97533E+00-6.73259E-03-8.47819E-02 1.46923E-13-1.36667E-13
 -1      2659 1.98272E+01 2.55706E+00 2.39448E-03 6.73262E-02 1.51970E-13-1.24982E-13
 -1      2660 2.00957E+01 2.27820E+00-1.04637E-02 9.31024E-01 2.09643E-13 5.82442E-14
 -1      2661 2.00099E+01 2.43538E+00-5.86191E-03 7.82933E-01 2.05377E-13 1.60002E-14
 -1      2662 2.02881E+01 1.86525E+00-1.67540E-02 1.14915E+00 2.10649E-13 1.23384E-13
 -1      2663 2.01942E+01 2.09952E+00-3.95937E-03 1.03488E+00 2.02733E-13 8.21617E-14
 -1      2664 2.02604E+01 1.82708E+00 6.39079E-03 8.19198E-01 1.82369E-13 7.56952E-14
 -1      2665 2.05523E+01 9.84452E-01 2.16307E-03 1.10039E+00 1.68096E-13 2.89250E-13
 -1      2666 2.05034E+01 1.24201E+00-7.39622E-03 1.20720E+00 1.91417E-13 2.31971E-13
 -1      2667 2.04277E+01 8.10317E-01 5.45682E-03 8.52103E-01 1.62045E-13 2.49944E-13
 -1      2668 2.00006E+01-7.81640E-04 1.79075E-06-1.84453E-04 7.07818E-14 9.38154E-14
 -1      2669 2.00005E+01-7.59227E-04 7.71688E-08-3.59995E-04-8.64006E-14 1.33288E-13
 -1      2670 2.03571E+01 1.33230E+00 3.61176E-03-5.66349E-01-6.08118E-14-1.79707E-13
 -1      2671 2.02738E+01 1.14674E+00-3.56480E-03-2.72511E-01-5.05830E-14-1.70141E-13
 -1      2672 1.35496E+01-2.85211E+00 1.66105E-01-7.40167E+00-2.42556E-13-4.21108E-13
 -1      2673 1.68677E+01-4.16711E+00 8.85511E-02-7.89838E+00-2.35034E-13-3.94795E-13
 -1      2674 2.02073E+01 1.01809E+00 3.94127E-03-2.93773E-02-3.76588E-14-1.41864E-13
 -1      2675 2.01193E+01 9.45175E-01-7.00719E-04 2.22690E-01-2.55588E-14-1.27457E-13
 -1      2676 2.01538E+01 1.32131E+00 3.21018E-03-2.12932E-01-3.26795E-14-1.80883E-13
 -1      2677 1.99914E+01 9.23320E-01-2.55343E-04 4.27039E-01-1.95201E-14-1.13697E-13
 -1      2678 1.99060E+01 9.44721E-01 1.03316E-03 6.51767E-01-6.39614E-15-1.08616E-13
 -1      2679 1.99524E+01 1.14160E+00 4.84166E-03 2.36872E-01-1.58338E-14-1.48282E-13
 -1      2680 1.97049E+01 1.00402E+00-5.82166E-03 8.34698E-01 9.21716E-15-8.86321E-14
 -1      2681 1.95968E+01 1.10570E+00 1.17062E-03 1.05987E+00 3.31549E-15-7.93209E-14
 -1      2682 1.96389E+01 1.17470E+00 9.16030E-03 6.19786E-01 2.59347E-15-1.05177E-13
 -1      2683 1.92832E+01 1.23643E+00-1.25904E-02 1.23641E+00-1.59605E-15-5.03299E-14
 -1      2684 1.91097E+01 1.40768E+00-2.80552E-04 1.48358E+00 3.64379E-15-4.92747E-14
 -1      2685 1.91614E+01 1.38634E+00 1.64581E-02 9.57222E-01 9.72871E-15-7.05289E-14
 -1      2686 1.86198E+01 1.59487E+00-2.02612E-02 1.66425E+00-1.16506E-14-1.44010E-14
 -1      2687 1.83194E+01 1.80807E+00-2.03930E-03 1.94675E+00 4.45434E-14-1.13269E-14
 -1      2688 1.84196E+01 1.74682E+00 2.78756E-02 1.26507E+00 2.07303E-14-8.02201E-14
 -1      2689 1.75998E+01 1.98924E+00-2.92400E-02 2.13297E+00 7.68298E-14-4.44527E-14
 -1      2690 1.71544E+01 2.16701E+00 1.71331E-03 2.43843E+00 7.96299E-14-8.29467E-14
 -1      2691 1.73009E+01 2.18550E+00 4.81499E-02 1.53935E+00 3.40726E-14-7.04770E-14
 -1      2692 1.60278E+01 2.25351E+00-2.67273E-02 2.67807E+00 7.18297E-14-1.05764E-13
 -1      2693 1.53671E+01 2.21975E+00 3.76565E-02 3.05645E+00 1.36341E-13-1.34694E-13
 -1      2694 1.55778E+01 2.54629E+00 7.84784E-02 1.80799E+00 4.52203E-14-1.60119E-13
 -1      2695 1.37051E+01 1.92512E+00 1.95575E-02 3.42306E+00 1.94025E-13-1.90938E-13
 -1      2696 1.28623E+01 1.14467E+00 1.09636E-01 3.90673E+00 2.21330E-13-2.52798E-13
 -1      2697 1.29343E+01 2.45062E+00 1.39956E-01 2.13096E+00 1.22275E-13-2.40488E-13
 -1      2698 2.02377E+01 2.03615E-01-3.90354E-03 1.97404E-01 9.29646E-14 1.33731E-13
 -1      2699 2.03074E+01 3.46772E-01 9.40716E-03 2.90769E-01 8.06163E-14 1.45733E-13
 -1      2700 2.00002E+01-6.44353E-04 1.11106E-06-1.09480E-03-2.13070E-14-2.19462E-14
 -1      2701 2.00001E+01-5.69864E-04-2.15598E-06-1.18401E-03-2.18865E-14-3.01587E-14
 -1      2702 1.86906E+01-8.65739E-01 2.33925E-01-5.59099E+00 2.13607E-13 1.09940E-13
 -1      2703 2.01920E+01-2.01462E-01-4.22820E-03 1.39553E-01 4.80850E-14 1.08016E-13
 -1      2704 2.02205E+01-1.14363E-01 6.22589E-03 1.11158E-01 4.59180E-14 1.22717E-13
 -1      2705 1.80818E+01 6.22328E-01 4.92633E-02-4.89992E+00-8.77562E-14 5.54418E-15
 -1      2706 1.80943E+01 1.39624E+00 2.73139E-02-4.39676E+00-1.99550E-13-1.48624E-13
 -1      2707 1.89144E+01 1.65338E+00 2.83883E-02-3.86389E+00-1.85147E-13-6.29219E-14
 -1      2708 1.89661E+01 1.74557E+00-6.78411E-03-3.37880E+00-1.89600E-13-8.38045E-15
 -1      2709 1.65172E+01 1.86303E+00 6.62793E-02-3.82628E+00-1.45607E-13-1.35378E-14
 -1      2710 1.95947E+01 1.65363E+00 1.72194E-02-2.92088E+00-1.96891E-13-8.69309E-14
 -1      2711 1.96089E+01 1.50524E+00-1.49102E-02-2.49084E+00-1.84237E-13-1.93830E-13
 -1      2712 1.79473E+01 2.06483E+00 4.26597E-02-2.90124E+00-2.04560E-13 6.85873E-14
 -1      2713 2.00176E+01 1.32082E+00 1.26177E-02-2.13602E+00-9.66735E-14-1.77922E-13
 -1      2714 1.99847E+01 1.13431E+00-1.16546E-02-1.79022E+00-1.78191E-14-2.36024E-13
 -1      2715 1.89333E+01 1.71879E+00 2.56384E-02-2.16760E+00-1.26268E-13 3.37000E-14
 -1      2716 2.02183E+01 9.68344E-01 1.12909E-02-1.53357E+00 3.37751E-14-2.96816E-13
 -1      2717 2.01576E+01 8.13734E-01-8.07601E-03-1.28410E+00 1.19190E-13-3.20816E-13
 -1      2718 1.95154E+01 1.29231E+00 1.55344E-02-1.59997E+00-4.24957E-14 3.63373E-14
 -1      2719 2.02897E+01 6.76266E-01 9.34805E-03-1.08132E+00 2.75913E-13-2.92188E-13
 -1      2720 2.02199E+01 5.53850E-01-5.49867E-03-8.92503E-01 3.85927E-13-2.15859E-13
 -1      2721 1.98401E+01 9.19954E-01 9.86128E-03-1.16051E+00 1.82084E-13-9.39320E-14
 -1      2722 2.02857E+01 4.55912E-01 7.28080E-03-7.46670E-01 3.44044E-13-2.39161E-13
 -1      2723 2.02208E+01 3.69924E-01-3.46332E-03-6.14938E-01 3.01572E-13-2.53650E-13
 -1      2724 2.00072E+01 6.28811E-01 5.75001E-03-8.22506E-01 3.26214E-13 2.74918E-14
 -1      2725 2.02484E+01 3.03313E-01 5.41996E-03-5.11893E-01 1.54161E-13-2.81687E-13
 -1      2726 2.01937E+01 2.44828E-01-2.16418E-03-4.21533E-01 3.96123E-14-2.78797E-13
 -1      2727 2.00786E+01 4.22120E-01 3.13692E-03-5.76915E-01 2.11298E-13-1.99588E-13
 -1      2728 2.02015E+01 2.00617E-01 3.89736E-03-3.49636E-01 6.57237E-14-1.35884E-13
 -1      2729 2.01581E+01 1.61576E-01-1.33845E-03-2.88209E-01 3.12877E-14-5.24255E-14
 -1      2730 2.00995E+01 2.80939E-01 1.59393E-03-4.01924E-01 1.27332E-13-1.92323E-13
 -1      2731 2.01563E+01 1.32601E-01 2.75213E-03-2.38425E-01 3.47926E-14 1.02237E-13
 -1      2732 2.01232E+01 1.06902E-01-7.39809E-04-1.96849E-01 7.00234E-14 1.29869E-13
 -1      2733 2.00960E+01 1.86430E-01 7.25428E-04-2.78830E-01 1.25651E-13 1.41560E-13
 -1      2734 2.01181E+01 8.88979E-02 1.94597E-03-1.64060E-01 4.99902E-14 1.50430E-13
 -1      2735 2.00942E+01 7.24045E-02-4.36791E-04-1.36892E-01 1.02770E-13 2.30161E-13
 -1      2736 2.00829E+01 1.24805E-01 1.64289E-04-1.94474E-01 6.54375E-14 1.83232E-13
 -1      2737 2.00874E+01 5.96537E-02 1.34246E-03-1.12640E-01 1.52148E-13 2.86807E-13
 -1      2738 2.00689E+01 4.82095E-02-2.90270E-04-9.31356E-02 2.71964E-13 2.96199E-13
 -1      2739 2.00673E+01 8.42955E-02 6.16412E-05-1.35560E-01 1.24768E-13 2.65413E-13
 -1      2740 2.00626E+01 3.99329E-02 9.35467E-04-7.64158E-02 1.79712E-13 2.27694E-13
 -1      2741 2.00492E+01 3.23263E-02-1.69424E-04-6.31187E-02 3.08074E-14 1.67611E-13
 -1      2742 2.00519E+01 5.64664E-02-4.50399E-05-9.31863E-02 1.48799E-13 2.92924E-13
 -1      2743 2.00438E+01 2.68725E-02 6.48029E-04-5.15361E-02-2.31065E-13 1.40135E-13
 -1      2744 2.00342E+01 2.17891E-02-9.68337E-05-4.24422E-02-2.60082E-13-9.77963E-15
 -1      2745 2.00386E+01 3.80249E-02-8.67275E-05-6.36919E-02-1.37163E-13-1.56886E-14
 -1      2746 2.00298E+01 1.81641E-02 4.48819E-04-3.44027E-02-6.19107E-15 2.14944E-15
 -1      2747 2.00230E+01 1.47390E-02-5.39935E-05-2.81663E-02 5.18096E-14-1.65886E-14
 -1      2748 2.00278E+01 2.57232E-02-9.49718E-05-4.31325E-02-1.34166E-13 3.38455E-14
 -1      2749 2.00197E+01 1.23018E-02 3.09617E-04-2.25818E-02-9.51753E-14-2.95509E-14
 -1      2750 2.00150E+01 9.98998E-03-2.17769E-05-1.83076E-02-2.83728E-13-1.02732E-13
 -1      2751 2.00194E+01 1.74526E-02-8.74504E-05-2.87900E-02-2.95690E-14-8.42546E-14
 -1      2752 2.00126E+01 8.42386E-03 2.16572E-04-1.46105E-02-2.94184E-13-1.60355E-13
 -1      2753 2.00095E+01 6.88163E-03-9.44423E-06-1.17891E-02-5.01167E-13-2.23532E-13
 -1      2754 2.00132E+01 1.19096E-02-8.89607E-05-1.89768E-02-3.37791E-13-2.04857E-13
 -1      2755 2.00076E+01 5.71803E-03 1.49907E-04-9.05932E-03-6.19546E-13-8.29978E-14
 -1      2756 2.00054E+01 4.59999E-03-7.68958E-06-7.02536E-03-4.10134E-13-5.12082E-14
 -1      2757 2.00086E+01 8.16307E-03-6.06510E-05-1.21397E-02-3.18539E-13 9.32999E-15
 -1      2758 2.00041E+01 3.81644E-03 1.04713E-04-5.16260E-03-2.33670E-13-2.48663E-13
 -1      2759 2.00027E+01 3.03606E-03-3.83639E-06-3.79099E-03-1.41880E-13-2.40524E-13
 -1      2760 2.00053E+01 5.46788E-03-4.81388E-05-7.25595E-03-4.05879E-13 7.84321E-14
 -1      2761 2.00018E+01 2.49954E-03 7.15421E-05-2.53429E-03 8.25028E-14-2.01238E-13
 -1      2762 2.00009E+01 1.95696E-03-1.56928E-06-1.62624E-03 1.90378E-13-4.93048E-14
 -1      2763 2.00029E+01 3.60807E-03-3.69396E-05-3.92010E-03 4.74199E-14-2.33433E-13
 -1      2764 2.00003E+01 1.58955E-03 4.80786E-05-7.96456E-04-1.17473E-13-3.86371E-14
 -1      2765 1.99998E+01 1.21269E-03-3.94562E-07-2.12165E-04-1.42003E-13-1.01107E-13
 -1      2766 2.00014E+01 2.32154E-03-2.76385E-05-1.67901E-03 3.08795E-14-9.57258E-14
 -1      2767 1.99995E+01 9.60196E-04 3.12235E-05 3.17655E-04 1.74259E-13-1.30162E-13
 -1      2768 1.99993E+01 7.00582E-04 6.63708E-07 6.74748E-04-4.56956E-14 2.67753E-14
 -1      2769 2.00004E+01 1.43263E-03-2.00849E-05-2.11512E-04 3.75032E-14-2.56267E-13
 -1      2770 1.99991E+01 5.35257E-04 1.97019E-05 9.80058E-04-6.51434E-14 1.21217E-13
 -1      2771 1.99990E+01 3.57824E-04 2.73717E-07 1.17305E-03 6.79456E-14-5.52330E-14
 -1      2772 1.99998E+01 8.22637E-04-1.57679E-05 6.94691E-04 5.06567E-14-1.95262E-13
 -1      2773 1.99989E+01 2.30843E-04 1.21264E-05 1.34836E-03-1.35953E-13-2.04723E-13
 -1      2774 1.99990E+01 9.34649E-05-1.02386E-06 1.43838E-03-2.16989E-13-4.65864E-13
 -1      2775 1.99995E+01 4.01578E-04-1.00711E-05 1.22402E-03-1.29045E-13-2.68000E-13
 -1      2776 1.99990E+01-1.64107E-06 6.75137E-06 1.50284E-03-1.69273E-13-4.45952E-13
 -1      2777 1.99991E+01-1.13909E-04-2.38137E-06 1.50611E-03-1.24969E-13-3.42589E-13
 -1      2778 1.99994E+01 8.12200E-05-6.42435E-06 1.49216E-03-2.20279E-13-4.22394E-13
 -1      2779 1.99991E+01-1.95107E-04 2.23549E-06 1.47897E-03-4.68727E-14-2.53960E-13
 -1      2780 1.99992E+01-2.94190E-04-7.47751E-06 1.41690E-03-1.99755E-13-1.49381E-13
 -1      2781 1.99994E+01-1.82534E-04-3.47355E-06 1.55376E-03-1.41426E-14-3.07252E-13
 -1      2782 1.99998E+01-4.29363E-04-3.86415E-06-1.33143E-03 9.69189E-14-7.98777E-15
 -1      2783 1.99996E+01-2.99465E-04-3.13630E-06-1.32655E-03 2.15347E-14 1.91452E-13
 -1      2784 1.99995E+01-1.30185E-04 6.90167E-06-1.35917E-03-9.04800E-14 8.44275E-14
 -1      2785 1.73242E+01-4.09285E+00-1.05898E-02 7.83499E+00-1.27981E-13 1.13298E-13
 -1      2786 1.37099E+01-2.93708E+00 1.84140E-01 7.63228E+00-1.34434E-13 2.93043E-13
 -1      2787 2.02077E+01-4.19322E-01-4.42633E-03 4.58885E-01 3.22412E-14 6.64152E-14
 -1      2788 2.02394E+01-3.83843E-01 3.20680E-03 3.57531E-01 3.66575E-14 1.01245E-13
 -1      2789 2.02014E+01-3.37008E-01-4.55946E-03 2.62715E-01 4.89708E-14 9.67937E-14
 -1      2790 2.02258E+01-2.71831E-01 4.79604E-03 1.91391E-01 4.98657E-14 9.62451E-14
 -1      2791 2.04042E+01-2.82648E-01-2.60420E-03 1.61710E-01 4.93281E-14 4.21453E-14
 -1      2792 2.04649E+01-4.37777E-01-1.33010E-03 3.05107E-01 5.11041E-14-5.54690E-15
 -1      2793 2.01118E+01-3.22868E-01-5.35413E-04 9.23901E-01-8.23137E-15 1.44768E-13
 -1      2794 2.01839E+01-3.88395E-01-1.67334E-03 8.25955E-01-1.18189E-14 8.84789E-14
 -1      2795 1.99699E+01-1.02812E-01 3.46544E-03 1.07527E+00-1.78048E-15 2.32443E-13
 -1      2796 2.00637E+01-2.29783E-01-4.65687E-03 1.02514E+00-7.62975E-15 1.88323E-13
 -1      2797 2.05143E+01-3.37705E-01 4.44022E-03 1.03212E+00-3.53464E-14 7.87751E-14
 -1      2798 1.97678E+01 2.15311E-01 7.65834E-03 1.07610E+00-2.93793E-14 2.52253E-13
 -1      2799 1.98718E+01 4.31384E-02-6.83468E-03 1.10547E+00-1.16430E-14 2.27561E-13
 -1      2800 2.03888E+01-3.43195E-02 4.64350E-03 1.17779E+00-3.82860E-14 1.08636E-13
 -1      2801 1.95444E+01 5.63003E-01 1.00565E-02 8.72767E-01 4.84693E-14 1.92936E-13
 -1      2802 1.96380E+01 3.86930E-01-6.79972E-03 9.98924E-01 2.52310E-14 2.43730E-13
 -1      2803 2.01864E+01 3.72551E-01 2.32548E-03 1.13954E+00 6.92778E-15 1.17294E-13
 -1      2804 1.93660E+01 8.36091E-01 8.97731E-03 4.66217E-01 1.31455E-13 6.54229E-14
 -1      2805 1.94249E+01 7.12024E-01-3.76413E-03 6.78243E-01 1.12308E-13 1.48552E-13
 -1      2806 1.99607E+01 7.85147E-01-2.07465E-03 8.63198E-01 1.23944E-13 6.84999E-14
 -1      2807 1.92992E+01 9.38320E-01 4.55409E-03-6.98054E-02 8.21522E-14 2.93911E-14
 -1      2808 1.93055E+01 9.11315E-01 1.57824E-03 1.85985E-01 9.46267E-14 2.12010E-14
 -1      2809 1.97965E+01 1.07421E+00-6.13497E-03 3.67951E-01 1.23191E-13-6.27547E-15
 -1      2810 1.93752E+01 8.32174E-01-1.13275E-03-6.08401E-01 1.38499E-13-2.95272E-14
 -1      2811 1.93251E+01 9.11723E-01 6.85446E-03-3.68391E-01 1.06331E-13-8.94906E-15
 -1      2812 1.97655E+01 1.13685E+00-7.04779E-03-2.40402E-01 1.22829E-13-3.40584E-14
 -1      2813 1.95698E+01 5.60502E-01-5.38505E-03-1.02212E+00 4.08897E-14-8.71140E-15
 -1      2814 1.94758E+01 7.15147E-01 9.51631E-03-8.50310E-01 9.61608E-14-1.41778E-14
 -1      2815 1.98829E+01 9.51674E-01-4.08927E-03-8.06597E-01 1.21690E-13 1.47454E-14
 -1      2816 1.98176E+01 2.20940E-01-6.72005E-03-1.23580E+00-1.72906E-14 6.31115E-14
 -1      2817 1.97024E+01 3.96702E-01 8.56038E-03-1.15775E+00-4.09856E-15-1.77918E-16
 -1      2818 2.00967E+01 5.89965E-01 6.08306E-04-1.19578E+00 1.34763E-14-2.52575E-14
 -1      2819 2.00471E+01-8.58389E-02-5.46857E-03-1.24666E+00-5.03384E-14 9.13056E-14
 -1      2820 1.99341E+01 6.20644E-02 4.96648E-03-1.25712E+00-1.00737E-14 1.64142E-13
 -1      2821 2.03216E+01 1.75565E-01 4.13208E-03-1.34890E+00-6.91716E-14 5.95679E-14
 -1      2822 2.02120E+01-2.97210E-01-2.94079E-03-1.10613E+00-5.02160E-14 1.40723E-13
 -1      2823 2.01177E+01-2.03304E-01 7.45452E-04-1.17957E+00-7.23215E-14 1.28130E-13
 -1      2824 2.04864E+01-1.77010E-01 5.10502E-03-1.28999E+00-6.53148E-14 1.64994E-13
 -1      2825 2.02997E+01-3.98349E-01-4.22329E-04-8.84959E-01-2.57143E-14 2.05731E-13
 -1      2826 2.02314E+01-3.60578E-01-2.52663E-03-9.90195E-01-1.07446E-14 1.74124E-13
 -1      2827 2.05611E+01-4.04571E-01 4.06500E-03-1.09208E+00-6.26525E-14 1.54380E-13
 -1      2828 2.03225E+01-4.08330E-01 1.37559E-03-6.45260E-01 2.62372E-14 3.16663E-13
 -1      2829 2.02793E+01-4.13800E-01-4.26628E-03-7.56029E-01 2.01363E-14 2.74218E-13
 -1      2830 2.05536E+01-5.00008E-01 2.24093E-03-8.35401E-01-5.49115E-14 2.24306E-13
 -1      2831 2.03022E+01-3.60002E-01 2.28820E-03-4.28065E-01 8.21936E-14 2.28589E-13
 -1      2832 2.02793E+01-3.91087E-01-4.66008E-03-5.27326E-01 1.01413E-13 2.38863E-13
 -1      2833 2.04912E+01-4.92342E-01 5.93335E-04-5.81255E-01 1.23410E-13 2.17286E-13
 -1      2834 2.02600E+01-2.84828E-01 2.48095E-03-2.53185E-01-1.43378E-15 7.42653E-14
 -1      2835 2.02514E+01-3.26055E-01-4.20518E-03-3.32817E-01 3.19790E-14 1.47383E-13
 -1      2836 2.04036E+01-4.22635E-01-4.86060E-04-3.64671E-01 1.34729E-13 1.39780E-13
 -1      2837 2.02113E+01-2.05692E-01 2.23204E-03-1.24934E-01 8.20701E-14 7.08172E-14
 -1      2838 2.02117E+01-2.46507E-01-3.36924E-03-1.83307E-01 3.13257E-14 6.73217E-14
 -1      2839 2.03131E+01-3.27460E-01-9.97620E-04-1.98675E-01 3.54847E-14 1.10083E-13
 -1      2840 2.01652E+01-1.35825E-01 1.78705E-03-3.87069E-02 9.79030E-15 1.81847E-13
 -1      2841 2.01706E+01-1.70563E-01-2.46705E-03-7.79724E-02 5.25877E-14 1.25644E-13
 -1      2842 2.02326E+01-2.32069E-01-1.10831E-03-8.22910E-02 3.50008E-14 1.50509E-13
 -1      2843 2.01257E+01-8.07604E-02 1.31174E-03 1.39082E-02-7.78968E-14 1.37333E-13
 -1      2844 2.01334E+01-1.07403E-01-1.66562E-03-1.00528E-02-2.36648E-14 1.12784E-13
 -1      2845 2.01674E+01-1.50224E-01-9.98465E-04-7.65165E-03 8.46875E-15 1.42059E-13
 -1      2846 2.00940E+01-4.10720E-02 8.94432E-04 4.19169E-02-5.60894E-14 1.29594E-13
 -1      2847 2.01023E+01-5.98233E-02-1.02933E-03 2.91856E-02-1.08521E-13 1.58752E-13
 -1      2848 2.01178E+01-8.70270E-02-8.02256E-04 3.52190E-02-7.62910E-14 3.73381E-14
 -1      2849 2.00693E+01-1.47474E-02 5.67784E-04 5.32711E-02-7.01790E-14 1.49742E-13
 -1      2850 2.00774E+01-2.68833E-02-5.63827E-04 4.81530E-02 2.91800E-14 8.84490E-14
 -1      2851 2.00817E+01-4.22539E-02-5.99736E-04 5.57755E-02-6.49835E-14 5.87777E-14
 -1      2852 2.00506E+01 1.17387E-03 3.32708E-04 5.42530E-02-6.21125E-14 6.73035E-14
 -1      2853 2.00579E+01-5.94379E-03-2.46741E-04 5.38764E-02-1.48991E-13 2.73693E-14
 -1      2854 2.00563E+01-1.30585E-02-4.27745E-04 6.18165E-02-1.59555E-14-1.17034E-13
 -1      2855 2.00366E+01 9.64987E-03 1.75166E-04 4.94398E-02 6.74520E-14-1.02701E-14
 -1      2856 2.00429E+01 6.04534E-03-4.63413E-05 5.17050E-02 8.02519E-14 1.17170E-13
 -1      2857 2.00387E+01 4.23595E-03-2.96578E-04 5.92229E-02-3.70593E-15-1.64248E-13
 -1      2858 2.00262E+01 1.31883E-02 7.67150E-05 4.19396E-02 7.33323E-14-3.32575E-14
 -1      2859 2.00315E+01 1.18627E-02 6.87393E-05 4.54185E-02 4.97344E-14-2.98430E-14
 -1      2860 2.00266E+01 1.31411E-02-2.03314E-04 5.21266E-02 1.06816E-13-5.58795E-15
 -1      2861 2.00185E+01 1.37096E-02 1.99293E-05 3.37152E-02 9.40820E-14-3.61276E-14
 -1      2862 2.00228E+01 1.37400E-02 1.25278E-04 3.75067E-02 1.53455E-13 2.69946E-14
 -1      2863 2.00184E+01 1.65622E-02-1.40046E-04 4.32432E-02 8.87939E-14 1.92912E-13
 -1      2864 2.00128E+01 1.25754E-02-9.38389E-06 2.58995E-02-3.15517E-14 1.57890E-13
 -1      2865 2.00162E+01 1.33204E-02 1.44179E-04 2.94855E-02 7.53765E-14 5.36481E-14
 -1      2866 2.00128E+01 1.66882E-02-9.83202E-05 3.42284E-02 8.63406E-16 2.41976E-13
 -1      2867 2.00087E+01 1.06864E-02-2.17592E-05 1.90610E-02-6.09082E-15 1.21178E-13
 -1      2868 2.00113E+01 1.17301E-02 1.40718E-04 2.21841E-02-1.15365E-13 1.47445E-13
 -1      2869 2.00088E+01 1.50508E-02-7.10506E-05 2.59932E-02-6.81137E-14 2.51188E-13
 -1      2870 2.00057E+01 8.59669E-03-2.44833E-05 1.34081E-02 1.32717E-13-7.62694E-14
 -1      2871 2.00076E+01 9.68897E-03 1.25435E-04 1.59770E-02 1.60899E-13 3.14775E-14
 -1      2872 2.00061E+01 1.26515E-02-5.30113E-05 1.89554E-02 4.20984E-14 8.61488E-14
 -1      2873 2.00035E+01 6.61658E-03-2.22960E-05 8.93699E-03 4.14637E-14 2.47656E-14
 -1      2874 2.00049E+01 7.62211E-03 1.05198E-04 1.09577E-02 2.30378E-14-7.32757E-14
 -1      2875 2.00041E+01 1.00977E-02-4.06673E-05 1.32265E-02 8.22661E-14-1.90962E-14
 -1      2876 2.00020E+01 4.89575E-03-1.80977E-05 5.53132E-03-1.68685E-13 1.88213E-13
 -1      2877 2.00030E+01 5.75347E-03 8.41968E-05 7.06069E-03-3.95358E-14 5.54539E-14
 -1      2878 2.00027E+01 7.72306E-03-3.17867E-05 8.74295E-03-6.72171E-14 1.29600E-13
 -1      2879 2.00010E+01 3.48392E-03-1.35449E-05 3.02729E-03 1.07265E-13 1.77192E-13
 -1      2880 2.00016E+01 4.17807E-03 6.47636E-05 4.14313E-03-1.25005E-13 1.54138E-13
 -1      2881 2.00017E+01 5.68234E-03-2.50386E-05 5.35404E-03-1.35416E-13 7.74146E-14
 -1      2882 2.00003E+01 2.37312E-03-9.51257E-06 1.25264E-03 2.82138E-13 1.25076E-13
 -1      2883 2.00007E+01 2.91352E-03 4.80138E-05 2.03560E-03 3.23191E-13 1.70163E-13
 -1      2884 2.00010E+01 4.02012E-03-1.96691E-05 2.87740E-03 1.80937E-13 2.17309E-13
 -1      2885 1.99999E+01 1.52497E-03-6.42528E-06 4.87189E-05 8.10867E-14-1.04613E-14
 -1      2886 2.00001E+01 1.93437E-03 3.43087E-05 5.72231E-04 1.65655E-13 6.49379E-14
 -1      2887 2.00005E+01 2.71803E-03-1.52878E-05 1.13178E-03 2.90000E-13 4.66460E-13
 -1      2888 1.99996E+01 8.88413E-04-3.99063E-06-7.18443E-04-4.69465E-14-5.30182E-14
 -1      2889 1.99997E+01 1.19421E-03 2.35518E-05-3.93124E-04-3.82117E-15-2.25367E-15
 -1      2890 2.00002E+01 1.72544E-03-1.16325E-05-4.47828E-05 1.63570E-14 2.77898E-13
 -1      2891 1.99995E+01 4.07282E-04-1.97796E-06-1.15559E-03-1.15556E-13-6.43062E-14
 -1      2892 1.99996E+01 6.37468E-04 1.49862E-05-9.81919E-04-6.11575E-14-9.08243E-14
 -1      2893 1.99999E+01 9.80346E-04-8.56856E-06-7.86651E-04-4.27665E-14 2.50453E-13
 -1      2894 1.99995E+01 3.50381E-05-1.31555E-06-1.33634E-03-1.11479E-13 5.57127E-14
 -1      2895 1.99995E+01 2.19091E-04 9.12530E-06-1.27865E-03-2.08123E-13-9.10793E-14
 -1      2896 1.99998E+01 4.13309E-04-8.41013E-06-1.20090E-03-1.20106E-13 8.89604E-14
 -1      2897 1.99998E+01-4.42679E-05-6.82513E-06-1.36747E-03-2.12320E-13 1.26681E-13
 -1      2898 2.00005E+01-7.45608E-04 1.33370E-06-5.32427E-04-1.64164E-13 1.30640E-14
 -1      2899 2.00004E+01-7.07155E-04 2.79405E-07-6.90071E-04-5.05496E-14-1.86009E-13
 -1      2900 2.00007E+01-3.37233E-04 2.71541E-06-4.65770E-04 5.84045E-14 1.14760E-13
 -1      2901 3.02489E+01 5.34881E-01-1.91584E-01-9.15820E-01 1.96704E-13-2.29386E-13
 -1      2902 2.96754E+01-1.30024E+00-9.67362E-03 5.61946E-02 1.29619E-13-2.70464E-13
 -1      2903 2.03491E+01 1.88936E+00-7.00951E-03-1.06650E+00-8.35443E-14-2.24522E-13
 -1      2904 2.03525E+01 1.53981E+00-5.00914E-04-7.57550E-01-7.94491E-14-2.01661E-13
 -1      2905 2.02303E+01 1.68671E+00 1.90616E-03-6.54972E-01-5.55295E-14-2.07481E-13
 -1      2906 2.01943E+01 2.17102E+00-2.96460E-03-1.04099E+00-5.82303E-14-2.26549E-13
 -1      2907 1.99999E+01-5.09124E-04 2.46015E-06-1.28872E-03-2.07405E-14 2.01083E-14
 -1      2908 7.87316E+00-3.69134E-01 1.66616E-01-4.57966E+00-1.53093E-13-4.54831E-13
 -1      2909 1.00382E+01-1.56977E+00 1.08442E-01-6.50058E+00-2.05655E-13-4.50556E-13
 -1      2910 2.00006E+01-8.08794E-04 2.23111E-06 1.87266E-04-8.97659E-14 4.29991E-13
 -1      2911 2.00006E+01-8.04506E-04 2.32007E-08 2.54878E-06 2.45090E-16 2.37780E-13
 -1      2912 2.00007E+01-3.69754E-04 2.64953E-06-1.07204E-04 8.30834E-14 1.49488E-13
 -1      2913 2.00005E+01-8.19669E-04 2.14414E-06 5.58291E-04 1.23769E-13 2.58165E-13
 -1      2914 2.00006E+01-8.36171E-04 3.02787E-07 3.78442E-04-1.71908E-14 4.31383E-13
 -1      2915 2.00007E+01-4.18947E-04 1.99905E-06 2.71304E-04 2.10113E-14 4.53177E-13
 -1      2916 2.00004E+01-8.02192E-04 1.27359E-06 9.14556E-04 3.20163E-13 1.95415E-13
 -1      2917 2.00005E+01-8.42604E-04 1.13910E-06 7.48827E-04 2.22541E-13 2.91048E-13
 -1      2918 2.00007E+01-4.72506E-04 7.38284E-07 6.55663E-04 8.40207E-14 3.18889E-13
 -1      2919 2.00002E+01-7.41181E-04-5.98984E-07 1.20895E-03 1.61829E-13 7.11946E-14
 -1      2920 2.00004E+01-8.07396E-04 2.46057E-06 1.08272E-03 4.09106E-13 8.55498E-14
 -1      2921 2.00005E+01-5.10040E-04-8.07734E-07 1.01969E-03 2.31502E-13 2.11582E-13
 -1      2922 1.99999E+01-6.23943E-04-7.02136E-06 1.38970E-03-1.23952E-13-4.87423E-13
 -1      2923 2.00001E+01-7.18153E-04 4.20965E-06 1.32825E-03 2.06839E-14-1.13957E-13
 -1      2924 2.00003E+01-5.06203E-04-1.60295E-06 1.31340E-03 2.74606E-14-2.27961E-13
 -1      2925 2.01995E+01-2.37410E-02-3.95166E-03 1.11142E-01 7.38025E-14 1.16600E-13
 -1      2926 2.02436E+01 8.67392E-02 7.96480E-03 1.36987E-01 1.08024E-13 1.31914E-13
 -1      2927 2.03574E+01 1.93897E-01-3.57558E-03 1.89171E-01 9.99078E-14 8.43270E-14
 -1      2928 2.84564E+01-3.46528E+00-1.62649E-01 2.13345E+00 3.96141E-14-4.08937E-13
 -1      2929 2.68112E+01-4.32197E+00 7.17219E-02 3.82086E+00-6.64052E-15-5.13492E-13
 -1      2930 6.66161E+00 1.05455E-01 1.73321E-01 3.69032E+00-1.42809E-13 1.09912E-13
 -1      2931 6.35986E+00 7.92273E-01 1.50631E-01 8.33685E-01-1.70100E-13 1.99535E-13
 -1      2932 1.04495E+01-1.95150E+00 8.01103E-02 7.08925E+00-1.11050E-13 2.71200E-13
 -1      2933 8.20490E+00-8.46707E-01 1.73404E-01 5.56029E+00-7.12486E-14 7.99083E-14
 -1      2934 2.40381E+01-4.89580E+00-8.60684E-02 5.66023E+00-7.34968E-14-5.66392E-13
 -1      2935 2.12117E+01-4.57422E+00 1.46327E-01 6.80462E+00-1.06054E-13-1.78903E-13
 -1      2936 3.03972E+01 5.11792E+00-2.13947E-01-1.69764E+00 4.25798E-13-1.54265E-13
 -1      2937 3.04385E+01 2.92788E+00-1.15620E-01-1.64713E+00 3.06061E-13-1.85948E-13
 -1      2938 2.89735E+01 1.46744E+00-6.14436E-02-1.72372E+00 1.64896E-13-8.37941E-14
 -1      2939 2.00004E+01-7.01392E-04 1.16994E-06-8.41366E-04 1.10286E-14-2.54496E-13
 -1      2940 2.00003E+01-6.47405E-04 5.09991E-07-9.71478E-04 8.97511E-14-1.23380E-13
 -1      2941 2.00004E+01-3.22869E-04 2.71866E-06-1.06070E-03-1.17459E-13 4.44923E-14
 -1      2942 2.00005E+01-3.24476E-04 2.39290E-06-7.88375E-04 8.27054E-14-1.92963E-13
 -1      2943 3.08465E+01 3.53848E+00-7.58438E-02 1.78687E+00 3.39728E-14 2.16938E-13
 -1      2944 3.05599E+01 5.40679E+00-2.30430E-01 1.71165E+00 1.67671E-13 2.02671E-13
 -1      2945 1.27950E+01-7.42377E-01 2.56649E-01 5.28902E+00 2.07639E-13-2.15217E-13
 -1      2946 2.71283E+01-4.57402E+00 8.63736E-02-4.14797E+00-1.94247E-13-1.18100E-13
 -1      2947 2.87238E+01-3.70901E+00-1.73954E-01-2.54040E+00-1.83412E-13-4.64628E-14
 -1      2948 1.99995E+01-4.88808E-04 1.07256E-06 1.35846E-03-1.71719E-13-1.77019E-13
 -1      2949 3.01170E+01-1.59192E+00 4.18836E-03-3.08456E-01-1.50227E-13 1.03806E-13
 -1      2950 3.05334E+01 5.50733E-01-2.14893E-01 9.76660E-01-6.09651E-14 1.38875E-13
 -1      2951 2.99825E+01 7.09055E+00-1.68235E-01 1.25048E+00 2.81053E-13 1.66249E-13
 -1      2952 2.98834E+01 7.78928E+00-2.10758E-01 3.02345E-01 3.49526E-13 1.38033E-13
 -1      2953 6.98833E+00 9.53316E-01 1.72299E-01 3.44987E-01 7.78023E-14-3.90965E-13
 -1      2954 6.96540E+00 7.17523E-01 1.82207E-01-2.32676E+00-3.30048E-14-3.90965E-13
 -1      2955 2.01860E+01-4.23857E-01-3.22102E-03 6.95866E-01 2.55149E-14 1.12229E-13
 -1      2956 2.02350E+01-4.31963E-01 1.09096E-03 5.82965E-01 4.74801E-14 1.04535E-13
 -1      2957 2.05247E+01-5.19988E-01 5.14362E-04 5.25954E-01 4.64453E-14 8.07048E-14
 -1      2958 2.05525E+01-4.97038E-01 2.70049E-03 7.87959E-01 1.66145E-14 5.05997E-14
 -1      2959 1.99285E+01 2.57247E+00-6.75025E-03 6.49365E-01 2.03264E-13-1.87010E-14
 -1      2960 1.98535E+01 2.67939E+00-6.10408E-03 4.90522E-01 1.78576E-13-6.44638E-14
 -1      2961 1.99594E+01 2.37911E+00 2.61544E-03 3.35103E-01 1.68980E-13-7.29553E-14
 -1      2962 2.01064E+01 2.14133E+00 3.87610E-03 5.98446E-01 1.78802E-13 4.35632E-15
 -1      2963 3.02174E+01 7.78878E+00-2.10109E-01-5.67900E-01 4.18027E-13 8.77909E-14
 -1      2964 3.04497E+01 7.04954E+00-1.67836E-01-1.29727E+00 4.59438E-13-3.71370E-14
 -1      2965 1.95981E+01 2.96105E+00-5.78958E-03-6.27011E-01 5.60582E-14-2.05335E-13
 -1      2966 1.96568E+01 2.87701E+00-8.87653E-03-7.31674E-01 1.68664E-14-2.13669E-13
 -1      2967 1.38931E+01-6.88635E-01 7.37627E-02-5.30234E+00 1.19710E-13 1.46022E-13
 -1      2968 1.67585E+01 1.54565E-01 6.63017E-02-5.14741E+00-3.16830E-14 5.96745E-14
 -1      2969 1.42387E+01 1.27333E+00 1.65095E-01-4.35413E+00-1.97488E-13-5.18613E-14
 -1      2970 1.11039E+01 2.49234E-01 3.11305E-01-4.29043E+00-3.59018E-14 1.65867E-13
 -1      2971 1.99997E+01-5.10152E-04 5.69133E-06 1.45260E-03-6.47609E-14-4.56902E-13
 -1      2972 1.97440E+01 2.76139E+00-6.93832E-03-7.90480E-01 9.93427E-16-2.16530E-13
 -1      2973 1.98562E+01 2.60835E+00-9.04815E-03-8.80215E-01-1.78434E-14-2.18472E-13
 -1      2974 1.97928E+01 2.53046E+00 9.17991E-03-6.58095E-01-3.64460E-15-1.79895E-13
 -1      2975 1.97220E+01 2.67766E+00 3.00470E-03-1.78211E-01 1.39335E-13-1.28289E-13
 -1      2976 1.95809E+01 3.02273E+00-3.47702E-03-2.03981E-01 1.34594E-13-1.46425E-13
 -1      2977 1.95565E+01 3.03209E+00-7.26712E-03-3.34995E-01 1.19138E-13-1.79550E-13
 -1      2978 2.04179E+01 1.56636E+00 2.17873E-03 1.20227E+00 2.01170E-13 1.83609E-13
 -1      2979 1.93348E+01-4.33993E+00 6.01000E-02-7.02055E+00-2.42140E-13-3.45793E-13
 -1      2980 2.03777E+01 5.47668E-01-2.90605E-03 3.92632E-01 9.98585E-14 1.23047E-13
 -1      2981 2.03171E+01 5.26898E-01 6.85140E-04 4.24647E-01 8.97784E-14 1.63780E-13
 -1      2982 2.52753E+01-4.37537E+00 4.79974E-02 4.16398E+00-8.90954E-14-5.35304E-13
 -1      2983 2.00000E+01-2.70963E-04 4.03608E-06-1.29115E-03-1.12383E-13 7.64220E-14
 -1      2984 2.03648E+01-7.28351E-02-3.33695E-03 1.17489E-01 7.48065E-14 7.06191E-14
 -1      2985 1.34110E+01-1.74454E+00 1.44217E-01-6.53134E+00-2.02421E-13-4.43381E-13
 -1      2986 2.84146E+01 7.10950E+00-1.22041E-01-1.04863E-01 3.46612E-13 1.38027E-13
 -1      2987 1.97393E+01-3.83105E+00 8.33730E-02 6.73631E+00-1.70544E-13-1.60406E-13
 -1      2988 2.87800E+01 5.68467E+00-1.16909E-01 1.58105E+00 1.69989E-13 2.27506E-13
 -1      2989 2.83866E+01-2.35403E+00-1.20238E-02 6.26319E-01 6.46254E-14-2.72629E-13
 -1      2990 1.35700E+01-1.83971E+00 1.53155E-01 6.87428E+00-1.90348E-13 2.85022E-13
 -1      2991 2.88377E+01 5.30530E+00-1.09632E-01-1.71796E+00 3.47639E-13-5.46715E-14
 -1      2992 1.95505E+01 3.03923E+00-4.30873E-03-4.32928E-01 1.10335E-13-1.73611E-13
 -1      2993 1.95625E+01 3.00819E+00-7.87384E-03-5.49567E-01 8.01462E-14-1.92863E-13
 -1      2994 1.96817E+01 2.68944E+00 6.37281E-03-5.43158E-01 4.91582E-14-1.74782E-13
 -1      2995 1.96650E+01 2.72931E+00 4.39921E-03-3.83807E-01 1.03877E-13-1.62106E-13
 -1      2996 9.14224E+00 3.72312E-01 1.86750E-01 4.26363E+00-1.30375E-13 1.39000E-13
 -1      2997 9.13418E+00 7.89411E-01 1.58998E-01-3.11086E+00-6.12670E-14-3.64042E-13
 -1      2998 2.03408E+01 6.25322E-01 6.31418E-03 5.24298E-01 1.11248E-13 1.80642E-13
 -1      2999 1.99998E+01-3.84672E-04 1.69303E-06 1.49834E-03 1.80027E-14-5.70181E-13
 -1      3000 8.59376E+00 1.17864E+00 1.91558E-01 1.85115E+00 1.26434E-13-4.17028E-13
 -1      3001 9.69882E+00 1.86260E+00 8.04392E-02 8.90181E-01 8.97060E-14-3.39589E-13
 -1      3002 2.04150E+01 1.33666E+00 8.12978E-03 9.53389E-01 1.76370E-13 1.60256E-13
 -1      3003 2.94927E+01 1.52312E+00-8.04592E-02 1.65255E+00-3.88717E-14 2.62679E-13
 -1      3004 1.20706E+01 4.45354E-01 9.11943E-02 4.48480E+00 2.31593E-13-2.68618E-13
 -1      3005 9.30717E+00-5.60755E-01 1.53528E-01 4.33535E+00 1.57346E-13-3.95961E-13
 -1      3006 2.51095E+01-4.88047E+00 3.07245E-02-5.05399E+00-2.19116E-13-1.50588E-13
 -1      3007 2.87978E+01-2.69603E+00-2.44044E-02-9.62552E-01-1.78634E-13 6.40737E-14
 -1      3008 7.47265E+00 1.06634E+00 2.60052E-01-1.17600E+00-1.50990E-13 2.02782E-13
 -1      3009 8.79291E+00 4.55581E-01 1.12208E-01-3.07093E+00-4.53249E-14 2.10776E-13
 -1      3010 1.07934E+01 1.14683E+00 9.72166E-02-3.21757E+00-8.99975E-14 1.28342E-13
 -1      3011 8.41020E+00 1.50505E+00 1.66399E-01 1.85820E-01-2.21437E-13 1.71890E-13
 -1      3012 2.03385E+01 1.39137E+00-9.55681E-03 7.09770E-01 1.54744E-13 8.40038E-14
 -1      3013 2.02890E+01 1.58344E+00-4.23313E-04 6.26293E-01 1.55868E-13 5.67445E-14
 -1      3014 2.03786E+01 7.12110E-01 7.19487E-03 7.16653E-01 1.44823E-13 2.25760E-13
 -1      3015 1.93325E+01-3.62577E+00 6.11932E-02-6.50847E+00-2.70339E-13-2.70714E-13
 -1      3016 2.20628E+01-4.65598E+00 7.92238E-02-6.25000E+00-2.70450E-13-2.35931E-13
 -1      3017 2.00009E+01-1.38976E-05 4.85386E-07 3.24594E-04 5.71068E-15 4.67808E-13
 -1      3018 2.00009E+01 9.48953E-06-3.27729E-06 1.40075E-04 5.65780E-14 5.04746E-13
 -1      3019 2.04107E+01 5.46908E-01-5.05931E-03 3.08614E-01 1.07479E-13 8.45927E-14
 -1      3020 2.04300E+01 7.76132E-01 2.56239E-03 4.52770E-01 1.14268E-13 1.05574E-13
 -1      3021 2.56710E+01-4.16260E+00-1.32238E-01 2.96725E+00 1.40651E-14-3.23568E-13
 -1      3022 2.40482E+01-4.01440E+00 1.33080E-01 4.36872E+00-5.30288E-14-4.23888E-13
 -1      3023 1.99126E+01 1.30311E+00 4.38362E-04 1.33985E-02-1.90485E-14-1.44670E-13
 -1      3024 1.97718E+01 1.25298E+00-5.18991E-03 2.15712E-01-7.29744E-15-1.32682E-13
 -1      3025 1.95848E+01 1.24894E+00-3.45348E-03 3.42866E-01 1.06031E-14-1.24075E-13
 -1      3026 1.93772E+01 1.29090E+00-8.25652E-03 5.07326E-01 2.02930E-14-1.08816E-13
 -1      3027 1.95941E+01 1.40891E+00 1.04999E-02 1.23719E-01 8.77445E-15-1.33527E-13
 -1      3028 1.90801E+01 1.37674E+00-7.41260E-03 5.90306E-01 8.13303E-15-9.35853E-14
 -1      3029 1.87627E+01 1.49749E+00-1.26406E-02 7.25163E-01 6.40894E-15-9.97280E-14
 -1      3030 1.91232E+01 1.46753E+00 1.54162E-02 3.07755E-01 1.73558E-14-1.26038E-13
 -1      3031 1.83088E+01 1.65464E+00-1.24694E-02 7.53832E-01 2.86791E-14-1.11562E-13
 -1      3032 1.78138E+01 1.83253E+00-1.89587E-02 8.56513E-01 2.47597E-14-1.09185E-13
 -1      3033 1.84020E+01 1.68352E+00 2.37674E-02 3.68837E-01 1.89486E-14-1.28534E-13
 -1      3034 1.71686E+01 2.01496E+00-1.91485E-02 8.18436E-01-7.58291E-15-8.25457E-14
 -1      3035 1.64525E+01 2.19596E+00-2.52249E-02 8.78779E-01 1.35213E-14-9.75964E-14
 -1      3036 1.73515E+01 1.99796E+00 3.79237E-02 2.73245E-01 1.81371E-14-9.99565E-14
 -1      3037 1.54536E+01 2.36465E+00-1.87311E-02 7.56436E-01 4.85289E-15-1.43030E-13
 -1      3038 1.43355E+01 2.46173E+00-7.16374E-03 7.75967E-01 3.65411E-14-1.75410E-13
 -1      3039 1.57915E+01 2.32187E+00 6.41458E-02-2.98070E-02-3.53647E-14-1.54508E-13
 -1      3040 1.30442E+01 2.46666E+00-9.56641E-03 7.57948E-01 7.13388E-14-2.25694E-13
 -1      3041 1.14639E+01 2.28551E+00 6.56183E-02 7.72381E-01 1.05239E-13-2.81233E-13
 -1      3042 1.06518E+01 2.20694E+00 1.93214E-01-7.35138E-01 6.00414E-14-2.75641E-13
 -1      3043 1.36276E+01 2.49185E+00 1.15921E-01-4.24616E-01 9.11337E-15-1.77620E-13
 -1      3044 1.99580E+01 2.19105E+00-1.79864E-03 5.77098E-02 1.55171E-13-1.16148E-13
 -1      3045 1.98899E+01 2.26359E+00-4.66485E-03-6.76963E-02 1.34867E-13-1.24280E-13
 -1      3046 2.08246E+01 2.10506E-02 5.76560E-03 1.25795E+00-4.39678E-14 8.28639E-14
 -1      3047 2.08930E+01-2.13207E-01-7.35752E-03 1.21643E+00-3.26068E-14 8.26543E-14
 -1      3048 1.42967E+01 2.03543E+00 5.19983E-02-3.14872E+00-2.32224E-13 9.63188E-14
 -1      3049 1.51723E+01 2.37676E+00 1.38456E-02-2.71573E+00-1.53775E-13 8.57925E-14
 -1      3050 1.64655E+01 2.31749E+00 1.25836E-02-2.43025E+00-2.28073E-13-1.39055E-14
 -1      3051 1.70883E+01 2.18388E+00-1.95977E-02-2.10126E+00-2.65146E-13 2.92587E-14
 -1      3052 1.47425E+01 2.59355E+00 7.57148E-02-1.76990E+00-2.38086E-13-4.34375E-14
 -1      3053 1.79371E+01 1.97804E+00-1.08098E-03-1.89828E+00-1.89726E-13-1.09648E-14
 -1      3054 1.83346E+01 1.74687E+00-1.75846E-02-1.62221E+00-8.00013E-14 1.36318E-14
 -1      3055 1.67727E+01 2.30001E+00 3.45236E-02-1.47336E+00-2.14226E-13 6.31635E-15
 -1      3056 1.88542E+01 1.52284E+00-1.11144E-03-1.46295E+00-3.84350E-14 4.76245E-15
 -1      3057 1.90734E+01 1.31164E+00-1.25561E-02-1.24589E+00-2.69342E-14 1.62899E-14
 -1      3058 1.80641E+01 1.82458E+00 1.98734E-02-1.21786E+00-5.01407E-14-5.65962E-14
 -1      3059 1.94131E+01 1.10809E+00 5.16617E-04-1.10353E+00 1.01676E-13 3.08336E-14
 -1      3060 1.95351E+01 9.28397E-01-8.71316E-03-9.24938E-01 2.21458E-13 6.02382E-14
 -1      3061 1.88771E+01 1.35760E+00 1.22210E-02-9.75616E-01 4.67102E-14 8.61602E-14
 -1      3062 1.97388E+01 7.72605E-01 1.42837E-03-8.09445E-01 3.03007E-13 5.10183E-14
 -1      3063 1.97945E+01 6.40011E-01-5.79700E-03-6.75011E-01 3.52441E-13-7.35645E-15
 -1      3064 1.93859E+01 9.65889E-01 7.89240E-03-7.55010E-01 2.96498E-13-1.11287E-13
 -1      3065 1.99125E+01 5.28576E-01 1.78588E-03-5.84653E-01 2.60169E-13-8.01743E-14
 -1      3066 1.99321E+01 4.34746E-01-3.86404E-03-4.86287E-01 8.74628E-14-1.17072E-13
 -1      3067 1.96836E+01 6.70821E-01 4.93364E-03-5.69988E-01 2.37030E-13-1.11052E-13
 -1      3068 1.99982E+01 3.57868E-01 1.70622E-03-4.17690E-01 1.31862E-13-5.62916E-14
 -1      3069 1.99998E+01 2.93206E-01-2.55907E-03-3.47121E-01 2.67819E-13 2.97654E-14
 -1      3070 1.98516E+01 4.59586E-01 3.00647E-03-4.22360E-01 1.62554E-13 1.98994E-15
 -1      3071 2.00353E+01 2.41240E-01 1.45788E-03-2.96164E-01 1.77568E-13 1.04313E-13
 -1      3072 2.00291E+01 1.97450E-01-1.61632E-03-2.46232E-01 1.34402E-13 1.65950E-13
 -1      3073 1.99425E+01 3.12624E-01 1.76998E-03-3.08707E-01 2.82334E-13 1.07856E-13
 -1      3074 2.00465E+01 1.64309E-01 1.19548E-03-2.10684E-01 1.06640E-13 1.06137E-13
 -1      3075 2.00379E+01 1.35693E-01-1.05522E-03-1.76798E-01 1.26105E-14 1.48814E-13
 -1      3076 1.99881E+01 2.14126E-01 1.01394E-03-2.25127E-01 1.02484E-13 1.51834E-13
 -1      3077 2.00462E+01 1.11959E-01 9.09222E-04-1.49210E-01 3.47420E-14 2.12891E-13
 -1      3078 2.00372E+01 9.16679E-02-7.16431E-04-1.24081E-01 1.35618E-13 2.54375E-13
 -1      3079 2.00096E+01 1.47001E-01 6.11607E-04-1.62989E-01 8.04862E-14 1.91535E-13
 -1      3080 2.00403E+01 7.58863E-02 6.82366E-04-1.04236E-01 1.63767E-13 1.65617E-13
 -1      3081 2.00323E+01 6.22351E-02-4.61399E-04-8.66061E-02 8.87886E-14 1.57834E-13
 -1      3082 2.00180E+01 1.00167E-01 3.52547E-04-1.16095E-01 8.25444E-14 8.72239E-14
 -1      3083 2.00326E+01 5.16755E-02 5.06901E-04-7.23388E-02-1.14360E-13 2.14122E-14
 -1      3084 2.00260E+01 4.24389E-02-2.97224E-04-5.99709E-02-2.47850E-13-2.99096E-14
 -1      3085 2.00195E+01 6.84950E-02 1.92654E-04-8.20189E-02-1.36050E-13-2.00915E-13
 -1      3086 2.00252E+01 3.53303E-02 3.72459E-04-4.97401E-02-2.22304E-13-3.13811E-14
 -1      3087 2.00199E+01 2.90388E-02-1.91914E-04-4.10597E-02-6.96341E-14 1.57318E-14
 -1      3088 2.00177E+01 4.70085E-02 9.98814E-05-5.73650E-02-1.64189E-13-1.41302E-13
 -1      3089 2.00187E+01 2.42160E-02 2.71462E-04-3.37454E-02-1.43739E-13 2.53413E-14
 -1      3090 2.00147E+01 1.99196E-02-1.13890E-04-2.76640E-02-2.75281E-13-3.21949E-13
 -1      3091 2.00147E+01 3.23397E-02 4.56316E-05-3.95951E-02-1.64222E-13-1.09780E-13
 -1      3092 2.00135E+01 1.67731E-02 1.97923E-04-2.26878E-02-4.01455E-13-2.96340E-13
 -1      3093 2.00106E+01 1.38942E-02-7.32482E-05-1.85924E-02-2.71126E-13-2.96474E-13
 -1      3094 2.00116E+01 2.24393E-02 9.17226E-06-2.70895E-02-3.29541E-13-2.49366E-13
 -1      3095 2.00094E+01 1.15603E-02 1.42990E-04-1.48262E-02-8.26447E-14-1.95494E-13
 -1      3096 2.00072E+01 9.44817E-03-5.21910E-05-1.18069E-02-2.09964E-13-1.83723E-14
 -1      3097 2.00087E+01 1.55843E-02 4.31109E-06-1.81224E-02-1.54459E-13-2.64394E-13
 -1      3098 2.00063E+01 7.84587E-03 1.03496E-04-9.17026E-03-4.22243E-13-5.28024E-14
 -1      3099 2.00047E+01 6.36596E-03-3.38664E-05-7.08361E-03-3.94299E-13-7.39974E-14
 -1      3100 2.00063E+01 1.06366E-02-3.31537E-06-1.15555E-02-3.76147E-13-3.19617E-13
 -1      3101 2.00040E+01 5.25403E-03 7.35403E-05-5.25484E-03-1.10914E-13-8.30791E-15
 -1      3102 2.00029E+01 4.21725E-03-2.15800E-05-3.83293E-03 2.18798E-13-3.70176E-14
 -1      3103 2.00044E+01 7.17900E-03-6.72663E-06-6.94855E-03-2.09166E-13 2.85321E-14
 -1      3104 2.00023E+01 3.44485E-03 5.15524E-05-2.58603E-03-2.26815E-14-3.13759E-13
 -1      3105 2.00017E+01 2.71893E-03-1.35480E-05-1.63635E-03-3.71903E-13-5.22863E-13
 -1      3106 2.00030E+01 4.75806E-03-7.69313E-06-3.76123E-03-4.04819E-14-2.81426E-13
 -1      3107 2.00012E+01 2.18258E-03 3.54438E-05-8.07338E-04-5.90251E-14-3.36410E-13
 -1      3108 2.00008E+01 1.67852E-03-7.10713E-06-1.93662E-04 2.33113E-13-2.03744E-13
 -1      3109 2.00019E+01 3.06360E-03-7.49661E-06-1.59944E-03-1.46816E-13-3.73640E-13
 -1      3110 2.00005E+01 1.32228E-03 2.37979E-05 3.15184E-04 1.36421E-13-2.07321E-13
 -1      3111 2.00003E+01 9.79397E-04-4.22740E-06 6.78635E-04 3.45590E-14-1.77969E-13
 -1      3112 2.00011E+01 1.89863E-03-7.63431E-06-2.00264E-04 1.91254E-13-2.53723E-13
 -1      3113 2.00001E+01 7.09870E-04 1.60056E-05 1.00623E-03 5.77825E-15-3.53809E-13
 -1      3114 1.99999E+01 4.50862E-04-3.36576E-06 1.22003E-03-2.96453E-13-4.22724E-13
 -1      3115 2.00006E+01 1.08293E-03-5.07089E-06 6.83973E-04-3.97740E-14-1.61896E-13
 -1      3116 1.99998E+01 2.54569E-04 9.39276E-06 1.38932E-03-4.06878E-13-4.71946E-13
 -1      3117 1.99998E+01 6.71641E-05-6.80609E-07 1.47357E-03-2.51347E-13-5.00049E-13
 -1      3118 2.00002E+01 4.76770E-04-3.98659E-06 1.21363E-03-3.46671E-13-4.34627E-13
 -1      3119 1.99998E+01-6.72175E-05 3.84618E-06 1.51695E-03 1.46769E-14-5.69251E-13
 -1      3120 1.99998E+01-2.31567E-04-1.66012E-06 1.51048E-03 8.15419E-14-5.34099E-13
 -1      3121 2.00001E+01-3.04411E-04 8.60777E-07 1.46108E-03 1.02143E-13-8.42694E-13
 -1      3122 2.00001E+01 4.98220E-05-4.91649E-07 1.43513E-03-1.58091E-13-5.43171E-13
 -1      3123 2.06321E+01 5.71229E-01 1.06448E-02 1.20049E+00 3.84450E-14 1.88524E-14
 -1      3124 2.07191E+01 2.80802E-01-1.10173E-02 1.27123E+00-1.85071E-14 7.47706E-14
 -1      3125 2.12759E+01 1.71294E-01 7.76218E-03 1.34763E+00-1.87050E-14 4.01051E-14
 -1      3126 2.09197E+01-3.94747E-01 5.10027E-04 1.09830E+00-6.59869E-14 7.93955E-14
 -1      3127 2.09556E+01-5.31680E-01-2.36657E-03 9.87423E-01-4.32364E-14 4.05951E-14
 -1      3128 2.13741E+01-3.64821E-01 7.53232E-03 1.19297E+00-4.65130E-14 4.49045E-14
 -1      3129 2.04044E+01 1.10827E+00 1.16589E-02 8.60365E-01 1.77044E-13 9.52873E-15
 -1      3130 2.04821E+01 8.47519E-01-1.05705E-02 1.05951E+00 1.18282E-13 3.29049E-14
 -1      3131 2.10583E+01 8.32618E-01 3.75721E-03 1.23555E+00 9.44720E-14-6.53449E-15
 -1      3132 2.02436E+01 1.44084E+00 6.96021E-03 2.71984E-01 1.33208E-13 1.87511E-14
 -1      3133 2.02817E+01 1.30718E+00-5.22545E-03 5.67074E-01 1.61859E-13 6.54894E-14
 -1      3134 2.08159E+01 1.42268E+00-3.17136E-03 7.95916E-01 1.37228E-13 9.20889E-14
 -1      3135 2.02328E+01 1.43552E+00-1.35083E-03-4.18333E-01 9.28745E-14 4.92898E-14
 -1      3136 2.02151E+01 1.48396E+00 3.05278E-03-1.02448E-01 1.04799E-13 1.61823E-14
 -1      3137 2.06796E+01 1.72382E+00-7.78699E-03 1.02360E-01 1.03238E-13 8.86581E-14
 -1      3138 2.03800E+01 1.09750E+00-8.56111E-03-1.01239E+00 1.37995E-13 4.29410E-14
 -1      3139 2.03136E+01 1.30531E+00 9.65435E-03-7.61060E-01 1.38442E-13 3.50260E-14
 -1      3140 2.07275E+01 1.61499E+00-5.72303E-03-6.45747E-01 1.14720E-13 4.97534E-14
 -1      3141 2.06092E+01 5.67722E-01-1.11367E-02-1.36170E+00-3.67266E-14 1.37295E-14
 -1      3142 2.05200E+01 8.50351E-01 1.10856E-02-1.22859E+00 7.54292E-14 3.12663E-14
 -1      3143 2.09255E+01 1.14535E+00 1.01803E-03-1.21957E+00 7.56232E-14 1.71933E-15
 -1      3144 2.08128E+01 3.40471E-02-9.04755E-03-1.42934E+00-1.12538E-13 9.47865E-14
 -1      3145 2.07321E+01 2.96292E-01 7.63514E-03-1.41868E+00-1.12895E-13 6.80161E-14
 -1      3146 2.11538E+01 5.02095E-01 6.69916E-03-1.48457E+00-8.89752E-14 1.07882E-14
 -1      3147 2.09167E+01-3.65764E-01-4.59441E-03-1.27808E+00-1.00599E-13 1.27557E-13
 -1      3148 2.08658E+01-1.84169E-01 2.30133E-03-1.35720E+00-6.87507E-14 1.30848E-13
 -1      3149 2.12939E+01-9.79165E-02 8.41842E-03-1.44716E+00-1.23853E-13-3.99599E-15
 -1      3150 2.09052E+01-5.82821E-01-2.52073E-04-1.01058E+00-7.39943E-14 1.60931E-13
 -1      3151 2.08901E+01-4.96099E-01-2.04236E-03-1.13531E+00-8.37655E-14 9.83176E-14
 -1      3152 2.12928E+01-5.16411E-01 6.22375E-03-1.20983E+00-7.97926E-14-1.10053E-14
 -1      3153 2.08056E+01-6.37821E-01 2.73912E-03-7.17921E-01-2.19009E-14 5.93272E-14
 -1      3154 2.08199E+01-6.28670E-01-4.23917E-03-8.51026E-01-3.03834E-14 1.21782E-13
 -1      3155 2.11667E+01-7.18467E-01 2.59021E-03-8.93192E-01-2.37641E-14 1.03323E-13
 -1      3156 2.06605E+01-5.83458E-01 4.15470E-03-4.57388E-01 1.95383E-13 7.02025E-14
 -1      3157 2.06926E+01-6.22851E-01-4.56922E-03-5.75741E-01 1.02859E-13 9.41139E-14
 -1      3158 2.09669E+01-7.42529E-01-4.71017E-04-5.86608E-01 5.52222E-14 2.16962E-15
 -1      3159 2.05070E+01-4.74061E-01 4.33480E-03-2.53591E-01 4.74918E-14 1.82545E-13
 -1      3160 2.05459E+01-5.35109E-01-3.87134E-03-3.47091E-01 1.14644E-13 1.72659E-13
 -1      3161 2.07464E+01-6.54957E-01-2.26527E-03-3.36149E-01 1.13854E-13 1.27847E-13
 -1      3162 2.03688E+01-3.50552E-01 3.80151E-03-1.09219E-01 1.18550E-14 1.70448E-13
 -1      3163 2.04067E+01-4.14360E-01-2.85078E-03-1.76547E-01 4.35201E-14 1.81878E-13
 -1      3164 2.05425E+01-5.17421E-01-2.91411E-03-1.54275E-01 4.29294E-14 2.38300E-13
 -1      3165 2.02566E+01-2.37471E-01 2.98258E-03-1.59235E-02 1.33402E-14 1.99324E-13
 -1      3166 2.02892E+01-2.93486E-01-1.89491E-03-6.03725E-02 6.32099E-14 1.80880E-13
 -1      3167 2.03742E+01-3.73234E-01-2.82359E-03-3.46872E-02 4.11418E-15 2.35410E-13
 -1      3168 2.01720E+01-1.45995E-01 2.15066E-03 3.82588E-02 5.67056E-14 1.19929E-13
 -1      3169 2.01979E+01-1.89988E-01-1.14583E-03 1.16982E-02 8.21195E-14 2.37496E-13
 -1      3170 2.02462E+01-2.46495E-01-2.36922E-03 3.60908E-02 9.10432E-15 1.62330E-13
 -1      3171 2.01118E+01-7.84939E-02 1.44122E-03 6.49306E-02-8.07776E-14 3.30159E-14
 -1      3172 2.01313E+01-1.10166E-01-6.16250E-04 5.12399E-02-5.64588E-14 1.08745E-13
 -1      3173 2.01548E+01-1.46852E-01-1.80844E-03 7.21900E-02 6.15215E-14 1.99818E-13
 -1      3174 2.00709E+01-3.25667E-02 8.95957E-04 7.36657E-02-2.33928E-14-5.64120E-14
 -1      3175 2.00851E+01-5.36009E-02-2.68791E-04 6.85685E-02-6.98262E-14-3.78736E-14
 -1      3176 2.00932E+01-7.50206E-02-1.28693E-03 8.55389E-02-3.02410E-14-2.85129E-14
 -1      3177 2.00441E+01-3.87417E-03 5.08464E-04 7.16479E-02-5.74942E-14 7.48460E-15
 -1      3178 2.00543E+01-1.66463E-02-5.54656E-05 7.18401E-02-7.97084E-15 3.84600E-14
 -1      3179 2.00536E+01-2.72190E-02-8.64802E-04 8.51198E-02-6.20086E-14-1.47205E-14
 -1      3180 2.00272E+01 1.21856E-02 2.51256E-04 6.39056E-02-1.00681E-14 8.64110E-15
 -1      3181 2.00343E+01 5.33263E-03 6.56818E-05 6.70132E-02-2.99281E-14 4.48725E-14
 -1      3182 2.00295E+01 1.89630E-03-5.52319E-04 7.72076E-02-1.10794E-13 1.51623E-13
 -1      3183 2.00168E+01 1.96488E-02 9.20595E-05 5.37455E-02 5.35102E-14-1.52848E-14
 -1      3184 2.00218E+01 1.67372E-02 1.26377E-04 5.81695E-02 1.53692E-14-4.95758E-14
 -1      3185 2.00155E+01 1.75994E-02-3.36336E-04 6.59256E-02-8.83114E-15-1.22359E-14
 -1      3186 2.00105E+01 2.16888E-02 1.56586E-06 4.31982E-02-2.60227E-14 9.46455E-14
 -1      3187 2.00141E+01 2.12035E-02 1.49172E-04 4.79333E-02 5.02037E-14 6.73264E-14
 -1      3188 2.00079E+01 2.43477E-02-1.95537E-04 5.38183E-02 1.16826E-14-1.55735E-13
 -1      3189 2.00068E+01 2.06112E-02-4.36934E-05 3.34028E-02 8.74554E-15 6.36490E-14
 -1      3190 2.00093E+01 2.14739E-02 1.49431E-04 3.78695E-02-1.38923E-14 1.12399E-13
 -1      3191 2.00040E+01 2.55624E-02-1.08606E-04 4.23365E-02-6.33707E-14 1.02013E-14
 -1      3192 2.00045E+01 1.79816E-02-6.10372E-05 2.49072E-02-5.09701E-14-9.26956E-14
 -1      3193 2.00064E+01 1.94742E-02 1.37299E-04 2.88153E-02 4.87655E-14-1.89381E-14
 -1      3194 2.00022E+01 2.36840E-02-5.77975E-05 3.22087E-02 1.09729E-13-1.67946E-13
 -1      3195 2.00032E+01 1.47939E-02-6.24620E-05 1.78889E-02 1.16358E-13-1.17457E-13
 -1      3196 2.00045E+01 1.64702E-02 1.19292E-04 2.11328E-02-1.46740E-14-1.65723E-13
 -1      3197 2.00014E+01 2.03433E-02-2.98406E-05 2.37092E-02-6.99822E-16-3.45087E-13
 -1      3198 2.00023E+01 1.16303E-02-5.58144E-05 1.23095E-02-6.87119E-14 1.74023E-13
 -1      3199 2.00032E+01 1.32361E-02 9.94518E-05 1.48936E-02 1.14514E-13 7.34183E-14
 -1      3200 2.00012E+01 1.65584E-02-1.55072E-05 1.68437E-02-3.80535E-14 1.09318E-14
 -1      3201 2.00017E+01 8.79392E-03-4.59335E-05 8.01826E-03-6.15463E-14 1.27448E-13
 -1      3202 2.00024E+01 1.02034E-02 8.01669E-05 1.00056E-02-7.01505E-14 1.69358E-13
 -1      3203 2.00011E+01 1.29125E-02-8.78409E-06 1.14725E-02-1.30476E-13 3.59829E-13
 -1      3204 2.00012E+01 6.40963E-03-3.56056E-05 4.81792E-03-1.78971E-13 1.09371E-13
 -1      3205 2.00017E+01 7.57704E-03 6.27350E-05 6.29711E-03-1.72332E-13 8.35036E-14
 -1      3206 2.00011E+01 9.69853E-03-5.98084E-06 7.39003E-03-1.05710E-13 2.12335E-13
 -1      3207 2.00009E+01 4.49529E-03-2.62747E-05 2.50483E-03 1.56781E-13 3.52351E-13
 -1      3208 2.00012E+01 5.42219E-03 4.77489E-05 3.56957E-03-5.09179E-14 2.24850E-13
 -1      3209 2.00010E+01 7.02555E-03-4.97117E-06 4.37317E-03-1.65344E-13 1.50971E-13
 -1      3210 2.00006E+01 3.00965E-03-1.86024E-05 8.90949E-04 1.52696E-13 4.88315E-13
 -1      3211 2.00009E+01 3.72301E-03 3.53834E-05 1.62856E-03 2.78887E-13 5.56924E-13
 -1      3212 2.00009E+01 4.89450E-03-4.61827E-06 2.20924E-03 2.85981E-15 3.07251E-13
 -1      3213 2.00004E+01 1.88312E-03-1.24236E-05-1.84247E-04-3.36916E-14 3.57830E-13
 -1      3214 2.00006E+01 2.42087E-03 2.55442E-05 3.00799E-04 1.18450E-13 4.74724E-13
 -1      3215 2.00007E+01 3.24750E-03-4.31235E-06 7.10324E-04 1.32472E-13 4.70579E-13
 -1      3216 2.00002E+01 1.04570E-03-4.31124E-06-8.44721E-04 4.38560E-14 2.02168E-13
 -1      3217 2.00003E+01 1.43637E-03 1.73063E-05-5.58439E-04 1.79981E-14 2.98354E-13
 -1      3218 2.00006E+01 1.99972E-03-4.00410E-06-2.79734E-04 5.04495E-14 3.25299E-13
 -1      3219 2.00008E+01 8.69963E-05-1.30980E-06-3.83720E-04-1.86745E-13 9.87259E-14
 -1      3220 2.00008E+01 9.58406E-05-2.45553E-06-5.47750E-04-1.22510E-13 2.51243E-14
 -1      3221 2.00009E+01 5.80613E-05-3.76261E-07-3.99664E-05-2.19480E-14 2.00992E-13
 -1      3222 2.00009E+01 7.61747E-05-3.09062E-06-2.18772E-04-9.57654E-14 2.33053E-13
 -1      3223 2.00010E+01 5.54044E-04 7.29419E-06-3.12543E-04-2.93208E-13 2.37503E-13
 -1      3224 2.00011E+01 4.98473E-04 6.84823E-06 1.74855E-05-9.01803E-14 4.50889E-13
 -1      3225 2.00006E+01-2.08705E-04 3.19004E-07 1.06254E-03 2.21285E-13 2.89510E-13
 -1      3226 2.00008E+01-1.97217E-04-1.36031E-06 8.95726E-04 1.02075E-13 3.80822E-13
 -1      3227 2.00003E+01-2.65499E-04-9.20585E-07 1.33727E-03 5.07664E-14-5.67300E-13
 -1      3228 2.00005E+01-2.73685E-04-1.86817E-08 1.21690E-03 2.68845E-13-1.17421E-13
 -1      3229 2.00007E+01 5.03126E-05 1.43194E-06 1.09994E-03 3.12385E-14 1.42392E-13
 -1      3230 2.00003E+01-6.68178E-05-4.16311E-07 1.36760E-03 1.36116E-14-6.47157E-13
 -1      3231 2.04442E+01 1.70420E-01-4.03706E-03 1.37504E-01 9.84292E-14 5.88714E-14
 -1      3232 2.04636E+01 3.50240E-01 8.56116E-03 2.13801E-01 1.03708E-13 6.38283E-14
 -1      3233 2.04808E+01 5.28933E-01-5.03396E-03 2.48072E-01 1.23946E-13 7.36493E-14
 -1      3234 1.27696E+01-4.63994E-01 1.00608E-01-5.45534E+00-1.63640E-13-3.90937E-13
 -1      3235 1.57341E+01-1.91074E+00 4.70713E-02-6.35491E+00-2.23127E-13-3.26905E-13
 -1      3236 1.54813E+01-1.85007E+00-2.45203E-03 6.50961E+00-2.28449E-13 2.01672E-13
 -1      3237 1.30922E+01-5.66134E-01 1.39630E-01 5.80845E+00-1.28227E-13 1.44662E-13
 -1      3238 1.03352E+01 1.52472E+00 7.43465E-02-2.26015E+00 1.64764E-14-2.94570E-13
 -1      3239 1.13867E+01 5.79159E-01 1.26291E-01-4.43098E+00-9.33073E-14-3.83873E-13
 -1      3240 1.38672E+01 2.86761E-01 9.83349E-02-4.40463E+00-1.26753E-13-3.25275E-13
 -1      3241 1.21315E+01 1.82204E+00 2.96154E-02-1.95160E+00 1.59560E-14-2.39538E-13
 -1      3242 2.04092E+01 8.63631E-01-7.60512E-03 7.31481E-01 1.42918E-13 1.65893E-13
 -1      3243 2.03893E+01 1.18200E+00 4.46245E-03 7.29941E-01 1.41516E-13 1.10838E-13
 -1      3244 2.78979E+01 4.51847E+00-6.44348E-02 2.03755E+00 9.76025E-14 2.35374E-13
 -1      3245 2.71351E+01 5.78988E+00-1.32967E-01 1.37494E+00 1.79509E-13 2.12236E-13
 -1      3246 1.99485E+01 2.50259E+00-7.90099E-03-9.32379E-01-2.89790E-14-2.35755E-13
 -1      3247 2.00797E+01 2.30950E+00-8.46447E-03-9.92705E-01-5.48023E-14-2.30340E-13
 -1      3248 2.01344E+01 2.05386E+00 5.59136E-03-8.13532E-01-4.89410E-14-2.19786E-13
 -1      3249 1.99671E+01 2.29833E+00 1.00793E-02-7.37833E-01-1.92801E-14-2.15774E-13
 -1      3250 2.76542E+01 2.19588E+00-1.40546E-01-2.04860E+00 2.16237E-13-6.76126E-14
 -1      3251 2.77630E+01 5.22896E-01-3.44940E-02-1.62858E+00 1.65451E-13-2.09624E-14
 -1      3252 2.00004E+01-4.15595E-06-4.57181E-06-1.16269E-03-8.38424E-14 7.55299E-14
 -1      3253 2.00001E+01 2.43914E-05-1.33223E-06-1.26086E-03-2.12488E-13 2.03563E-13
 -1      3254 2.00002E+01 2.90814E-04 6.97344E-06-1.21995E-03-2.04231E-13 2.57699E-13
 -1      3255 2.74643E+01 5.59710E+00-1.42483E-01-1.51288E+00 3.21881E-13-6.55725E-15
 -1      3256 2.76403E+01 4.06936E+00-6.63879E-02-2.07590E+00 2.65010E-13-8.84987E-14
 -1      3257 2.66775E+01 2.81834E+00-4.96814E-02-2.07123E+00 2.27887E-13-6.74183E-14
 -1      3258 2.05023E+01-1.32276E-01-4.12691E-03 8.33499E-02 6.40882E-14 3.76936E-14
 -1      3259 2.05026E+01 1.43636E-02 7.43099E-03 9.51311E-02 9.23109E-14 5.61785E-14
 -1      3260 2.05594E+01 1.26512E-01-3.66207E-03 9.45088E-02 1.04635E-13 4.08870E-14
 -1      3261 2.77007E+01-1.67730E+00-1.03524E-01-4.54528E-01 7.71640E-14-1.00274E-13
 -1      3262 2.73011E+01-3.09342E+00 6.40878E-02 1.18856E+00-2.05617E-14-2.32120E-13
 -1      3263 2.00947E+01 1.58193E+00 3.35939E-03-3.96818E-01-1.17946E-14-1.90841E-13
 -1      3264 2.00043E+01 1.40768E+00-7.02777E-03-1.50993E-01-9.87817E-15-1.76636E-13
 -1      3265 1.98643E+01 1.52556E+00-2.57358E-03-1.66112E-01-3.21878E-15-1.51975E-13
 -1      3266 2.46443E+01-4.53888E+00-1.05150E-03-4.48127E+00-2.41834E-13-9.51999E-14
 -1      3267 2.68129E+01 6.48905E+00-1.16174E-01 1.49428E-01 2.85827E-13 1.49902E-13
 -1      3268 2.71819E+01 6.43956E+00-1.12175E-01-8.50643E-01 3.10058E-13 1.05829E-13
 -1      3269 2.61755E+01 5.16029E+00-8.06735E-02-1.22569E+00 2.61687E-13-3.17801E-14
 -1      3270 2.00008E+01-1.12168E-04 8.04489E-07 7.02567E-04 1.61405E-13 4.35563E-13
 -1      3271 2.00009E+01-8.95701E-05-2.57929E-06 5.16347E-04 2.26639E-14 4.74399E-13
 -1      3272 2.00011E+01 3.74674E-04 5.79882E-06 3.77850E-04-2.67272E-14 5.47143E-13
 -1      3273 2.00010E+01 2.08495E-04 4.32813E-06 7.56258E-04-3.47766E-15 4.30203E-13
 -1      3274 2.81530E+01 3.71497E-01-3.93302E-02 1.59067E+00-5.08482E-14 2.33303E-13
 -1      3275 2.80221E+01 2.48433E+00-1.52354E-01 2.09698E+00 4.17028E-15 2.65829E-13
 -1      3276 2.09359E+01-3.82373E+00-9.37288E-02 5.77494E+00-1.23762E-13-2.89421E-13
 -1      3277 1.83048E+01-2.73566E+00 1.48376E-01 6.43817E+00-2.48822E-13-1.83881E-14
 -1      3278 1.75095E+01-1.71202E+00 7.83109E-02 5.69023E+00-2.12361E-13-1.91930E-14
 -1      3279 7.57301E+00 3.99141E-01 2.17261E-01 2.40358E+00 1.46834E-13-4.80366E-13
 -1      3280 9.69070E+00 2.04685E+00 1.41045E-01 1.22980E+00-2.44464E-13 2.31981E-13
 -1      3281 1.02505E+01 2.14944E+00 8.67828E-02-7.50662E-01-2.24577E-13 9.99478E-14
 -1      3282 1.09969E+01 4.24634E-01 7.40755E-02 4.77215E+00-9.97952E-14 1.06609E-13
 -1      3283 9.73172E+00 1.41817E+00 1.03845E-01 2.83615E+00-2.08535E-13 2.98039E-13
 -1      3284 1.15134E+01 2.02049E+00 9.66280E-02 1.76220E+00-2.41087E-13 3.15546E-13
 -1      3285 2.76762E+01-3.63777E+00 2.74151E-02-1.73834E+00-1.58198E-13 3.32373E-14
 -1      3286 2.82994E+01-2.10518E+00-8.75066E-02 9.19548E-02-1.32949E-13 1.11140E-13
 -1      3287 1.98281E+01 2.34381E+00-8.23214E-04-1.70473E-01 1.39108E-13-1.15625E-13
 -1      3288 1.97713E+01 2.38233E+00-6.05260E-03-2.78888E-01 1.20822E-13-1.24516E-13
 -1      3289 1.99627E+01 2.00721E+00 3.29593E-03-1.79469E-01 1.28425E-13-1.17733E-13
 -1      3290 2.09101E+01-6.17234E-01-3.06851E-03 8.26521E-01 2.19457E-14 4.35183E-14
 -1      3291 2.09148E+01-6.56551E-01 1.94188E-03 6.91774E-01 5.36466E-14 6.72516E-14
 -1      3292 2.13330E+01-6.80031E-01 4.29632E-03 8.95793E-01-1.29206E-14 5.58172E-14
 -1      3293 1.23400E+01 2.50454E+00 4.09692E-02-9.80944E-01-1.98201E-13 3.30916E-14
 -1      3294 1.14987E+01 2.32779E+00 1.82171E-01-1.77252E+00-1.60568E-13 7.37327E-14
 -1      3295 1.81136E+01-2.56856E+00 9.89892E-02-6.11384E+00-2.54533E-13-2.90559E-13
 -1      3296 2.02957E+01-3.03296E+00 1.90405E-02-5.39332E+00-2.88209E-13-2.01471E-13
 -1      3297 1.70956E+01-1.47768E+00 1.74513E-02-5.40375E+00-2.20039E-13-2.78111E-13
 -1      3298 2.68220E+01 2.93684E+00-6.29242E-02 2.04988E+00 5.96051E-15 2.39395E-13
 -1      3299 2.04175E+01 9.98635E-01 3.25133E-03 4.48734E-01 1.19642E-13 8.38176E-14
 -1      3300 2.04072E+01 9.88459E-01 4.33562E-03 5.40076E-01 1.19704E-13 9.43693E-14
 -1      3301 2.23459E+01-3.44322E+00 3.80006E-02 4.55103E+00-5.13721E-14-2.60772E-13
 -1      3302 1.27533E+01 1.83501E+00 6.90304E-02-3.14734E+00-1.37244E-13 8.97477E-14
 -1      3303 2.02265E+01 1.72509E+00-5.77451E-03 5.37548E-01 1.62678E-13 1.40549E-14
 -1      3304 2.01633E+01 1.86626E+00-2.10172E-03 4.19299E-01 1.47213E-13-1.50425E-14
 -1      3305 2.03453E+01 1.35050E+00 2.84949E-03 4.45590E-01 1.31671E-13 2.96610E-14
 -1      3306 2.62898E+01 1.64054E-01-2.05263E-02-1.71921E+00 9.41330E-14 6.53106E-14
 -1      3307 2.72869E+01-7.76878E-01-3.62522E-02-1.21544E+00 8.15719E-14-4.17721E-15
 -1      3308 2.63109E+01-1.63572E+00-1.82003E-02-5.57541E-01 2.63678E-14-6.46401E-15
 -1      3309 2.00957E+01 1.98575E+00-3.49668E-03 3.05233E-01 1.60515E-13-4.96381E-14
 -1      3310 2.00271E+01 2.09005E+00-3.31910E-03 1.74983E-01 1.68148E-13-9.05772E-14
 -1      3311 2.01053E+01 1.83059E+00 2.67426E-03 3.20535E-02 1.42587E-13-9.56691E-14
 -1      3312 2.02395E+01 1.61270E+00 2.86699E-03 2.54426E-01 1.41691E-13-4.20855E-14
 -1      3313 2.05924E+01-3.77454E-01-4.31674E-03 1.39893E-01 8.66870E-14-2.76818E-15
 -1      3314 2.05778E+01-2.57831E-01 7.00757E-03 9.71821E-02 6.43458E-14 2.14888E-14
 -1      3315 2.06704E+01-2.12059E-01-4.07813E-03 5.41770E-02 9.43047E-14 2.62728E-14
 -1      3316 2.00009E+01 5.30626E-04 6.25273E-06-6.11343E-04-2.52914E-13-8.39026E-14
 -1      3317 2.00007E+01 6.84607E-05-1.80662E-06-6.96559E-04-4.90297E-14-1.60051E-13
 -1      3318 2.00006E+01 6.64937E-05-1.65019E-06-8.40826E-04-3.44224E-14-2.37715E-13
 -1      3319 2.59878E+01-3.27587E+00 2.06556E-02 1.63611E+00 3.26761E-14-2.02244E-13
 -1      3320 2.00002E+01 5.28848E-04-1.06945E-07-1.14200E-03-1.21405E-13 1.13997E-13
 -1      3321 2.00002E+01 8.25332E-04 1.00570E-05-1.00148E-03-6.08435E-14 9.01930E-14
 -1      3322 2.00005E+01 1.19226E-03-5.13049E-06-8.19198E-04 5.48119E-14 7.62206E-14
 -1      3323 2.00005E+01 6.25732E-04-6.09728E-06-1.05209E-03-2.19854E-13 1.14533E-13
 -1      3324 2.00006E+01 4.43680E-05-2.69483E-06-9.44389E-04-3.06942E-14-2.59297E-14
 -1      3325 2.00005E+01 3.61012E-05-1.82923E-06-1.06224E-03 1.62595E-15 4.26897E-14
 -1      3326 2.00006E+01 4.19047E-04 7.87586E-06-1.02200E-03-1.84744E-13 1.69208E-13
 -1      3327 2.00007E+01 4.77927E-04 5.84613E-06-8.45116E-04-5.07627E-14-1.05017E-13
 -1      3328 2.01218E+01 1.81479E+00-6.08575E-03-6.27610E-01-3.71179E-14-2.00952E-13
 -1      3329 2.29178E+01-3.89707E+00 3.09979E-02-4.50814E+00-2.97108E-13-6.46184E-14
 -1      3330 2.56164E+01-4.33645E+00-3.36149E-02-3.44381E+00-2.35409E-13-9.46986E-15
 -1      3331 2.58935E+01-3.67842E+00 1.25713E-02-2.11614E+00-2.19536E-13 1.69587E-14
 -1      3332 1.03223E+01 1.60487E+00 2.00351E-01 2.76409E+00 1.65930E-13-4.27131E-13
 -1      3333 2.70065E+01-2.01412E+00-4.45648E-02 2.90621E-01-1.42338E-13 1.25294E-13
 -1      3334 2.78863E+01-1.05207E+00-6.33633E-02 1.09136E+00-6.64416E-14 1.87409E-13
 -1      3335 2.68438E+01 1.91746E-01-6.08728E-03 1.72575E+00-3.54855E-14 2.32078E-13
 -1      3336 1.34426E+01 4.37904E-01 1.09314E-01 4.57986E+00-7.74485E-14 1.13444E-13
 -1      3337 2.55527E+01 4.91461E+00-2.24784E-02 1.24308E+00 1.42941E-13 2.34408E-13
 -1      3338 2.62201E+01 5.75675E+00-1.12491E-01 7.84472E-01 2.36311E-13 2.14164E-13
 -1      3339 2.51930E+01 5.49568E+00-4.15772E-02 1.03353E-01 2.28553E-13 1.83258E-13
 -1      3340 1.96930E+01 2.43446E+00-1.72130E-03-4.77556E-01 5.48993E-14-1.48360E-13
 -1      3341 1.97075E+01 2.37808E+00-7.72192E-03-5.35411E-01 2.02260E-14-1.49210E-13
 -1      3342 2.00032E+01 1.90653E+00-1.24126E-03-5.52254E-01-2.06101E-14-1.97713E-13
 -1      3343 2.07073E+01-5.62188E-01-4.70556E-03 2.97016E-01 2.10650E-14 2.02625E-14
 -1      3344 2.06863E+01-4.75222E-01 6.28750E-03 2.07926E-01 5.16920E-14 1.89072E-14
 -1      3345 2.08204E+01-4.87679E-01-3.77292E-03 1.24737E-01 6.14339E-14 4.38693E-14
 -1      3346 1.97756E+01 2.12574E+00 1.07763E-02-4.75448E-01 1.07563E-14-1.29341E-13
 -1      3347 1.97463E+01 2.31805E+00-3.78217E-03-5.43977E-01 8.33204E-15-1.60371E-13
 -1      3348 1.98135E+01 2.19045E+00-9.80793E-03-5.74077E-01-9.09694E-15-1.78763E-13
 -1      3349 2.08253E+01-6.57792E-01-4.61086E-03 5.37650E-01 4.77792E-14 5.23365E-14
 -1      3350 2.08099E+01-6.21123E-01 4.76385E-03 4.14628E-01 1.71141E-14 3.65080E-14
 -1      3351 2.10030E+01-6.87809E-01-2.40302E-03 3.02328E-01-2.30361E-15 5.36821E-14
 -1      3352 2.11903E+01-7.71644E-01 3.77993E-04 5.72533E-01 3.35849E-14 3.78209E-14
 -1      3353 1.31868E+01 2.61241E+00 9.61437E-02 4.28826E-02-2.45611E-13 1.55313E-13
 -1      3354 1.38565E+01 2.55460E+00 1.18259E-02-1.00283E+00-1.99224E-13 1.08108E-14
 -1      3355 1.51321E+01 2.50995E+00-1.60135E-03-9.53047E-01-2.43541E-13 3.13916E-14
 -1      3356 2.04526E+01 9.10621E-01 5.85376E-03 3.04317E-01 1.22915E-13 4.67827E-14
 -1      3357 2.04010E+01 1.10944E+00-2.86603E-03 3.78420E-01 1.23905E-13 3.70455E-14
 -1      3358 2.03613E+01 1.25541E+00-2.09146E-04 3.01921E-01 1.31645E-13-3.43856E-15
 -1      3359 2.31141E+01-3.53670E+00-1.07580E-01 3.52958E+00-7.43433E-14-2.89961E-13
 -1      3360 2.11545E+01-2.66947E+00 1.07834E-01 4.58145E+00-1.11437E-13-2.51172E-13
 -1      3361 1.92045E+01 1.42910E+00-1.43582E-03 3.47909E-02 2.80814E-14-1.13213E-13
 -1      3362 1.88887E+01 1.45805E+00-1.65573E-02 7.85021E-02 1.69751E-14-1.03410E-13
 -1      3363 1.85697E+01 1.52958E+00-2.56306E-03 1.22701E-02 8.20980E-15-1.22953E-13
 -1      3364 1.80921E+01 1.61275E+00-2.35698E-02-2.64738E-02 1.88653E-14-1.25444E-13
 -1      3365 1.87749E+01 1.49569E+00 1.52621E-02-2.63470E-01 2.68286E-15-1.11159E-13
 -1      3366 1.76600E+01 1.71875E+00-3.82216E-03-1.94894E-01 3.06847E-14-1.47283E-13
 -1      3367 1.69888E+01 1.81083E+00-3.26306E-02-3.33270E-01 1.12722E-14-1.45216E-13
 -1      3368 1.80206E+01 1.58111E+00 2.16926E-02-5.58187E-01 9.51279E-15-1.54723E-13
 -1      3369 1.63589E+01 1.89638E+00-4.89792E-03-6.55543E-01-4.39501E-14-1.54658E-13
 -1      3370 1.53375E+01 1.94602E+00-3.33843E-02-9.69901E-01-5.44651E-14-1.67457E-13
 -1      3371 1.69598E+01 1.65426E+00 2.81223E-02-1.15026E+00-3.25007E-14-1.87697E-13
 -1      3372 1.45454E+01 2.00594E+00 4.88167E-03-1.26958E+00-4.04516E-14-1.72518E-13
 -1      3373 1.33052E+01 1.94691E+00-5.30163E-05-1.52537E+00-2.60555E-15-2.02831E-13
 -1      3374 1.37583E+01 1.45304E+00 9.72390E-02-2.89205E+00-4.46622E-14-2.33605E-13
 -1      3375 1.55701E+01 1.71531E+00 7.74314E-02-1.88488E+00-4.23273E-14-1.88278E-13
 -1      3376 2.15349E+01 1.16029E+00 1.42749E-02 1.28646E+00 1.26461E-13 6.06253E-14
 -1      3377 2.16240E+01 7.17273E-01-1.73284E-02 1.41404E+00 4.32503E-14 7.43835E-14
 -1      3378 2.04870E+01 6.44580E-01-3.50557E-03 1.89902E-01 1.26262E-13 4.00509E-14
 -1      3379 2.17586E+01 2.99027E-01 8.34431E-03 1.42608E+00 8.90715E-15 4.61766E-14
 -1      3380 2.18196E+01-9.04990E-02-1.18160E-02 1.39218E+00-1.26559E-14 5.03575E-14
 -1      3381 2.22548E+01 5.61882E-01 1.14178E-02 1.51747E+00 1.35228E-14 1.28268E-13
 -1      3382 1.61428E+01 2.30623E+00-1.42555E-02-9.81852E-01-1.93909E-13 1.21416E-13
 -1      3383 1.69879E+01 2.10619E+00-6.29563E-03-9.16472E-01-4.66372E-14 1.92365E-13
 -1      3384 1.56668E+01 2.40216E+00 4.73477E-02-2.96809E-01-1.60585E-13 2.49245E-13
 -1      3385 1.76133E+01 1.85775E+00-1.44361E-02-9.03547E-01-5.47852E-14 1.57139E-13
 -1      3386 1.81316E+01 1.64723E+00-4.39198E-03-8.26523E-01-8.26049E-14 1.68882E-13
 -1      3387 1.72505E+01 1.97327E+00 2.69869E-02-4.69812E-01-5.28663E-14 3.71412E-13
 -1      3388 1.85608E+01 1.40612E+00-1.01822E-02-7.84278E-01 1.85832E-15 1.27601E-13
 -1      3389 1.88985E+01 1.20993E+00-2.93517E-03-6.97758E-01 1.37751E-13 1.31624E-13
 -1      3390 1.82838E+01 1.51795E+00 1.65052E-02-5.11455E-01 6.40926E-15 3.06701E-13
 -1      3391 1.91685E+01 1.01444E+00-6.64237E-03-6.42834E-01 2.28567E-13-1.03658E-14
 -1      3392 1.93691E+01 8.60938E-01-2.14946E-03-5.61636E-01 3.10579E-13-1.22621E-13
 -1      3393 1.89663E+01 1.11503E+00 1.13559E-02-4.80014E-01 1.46860E-13 7.65108E-14
 -1      3394 1.95369E+01 7.14415E-01-3.98083E-03-5.06820E-01 3.16161E-13-1.40222E-13
 -1      3395 1.96517E+01 6.00928E-01-1.72309E-03-4.36963E-01 2.40480E-13-8.14684E-14
 -1      3396 1.93925E+01 7.97166E-01 7.72625E-03-4.12858E-01 2.38971E-13-3.67369E-14
 -1      3397 1.97541E+01 4.95872E-01-2.28421E-03-3.88446E-01 1.66635E-13-4.94755E-14
 -1      3398 1.98172E+01 4.14848E-01-1.38772E-03-3.31831E-01 2.37367E-13-3.52542E-14
 -1      3399 1.96531E+01 5.60489E-01 5.17806E-03-3.36357E-01 2.17615E-13-8.40376E-15
 -1      3400 1.98785E+01 3.41601E-01-1.21529E-03-2.91746E-01 2.74473E-13-8.45845E-14
 -1      3401 1.99113E+01 2.84924E-01-1.10428E-03-2.47630E-01 2.13162E-13-1.18490E-13
 -1      3402 1.98091E+01 3.90153E-01 3.38754E-03-2.64338E-01 2.68346E-13-1.26343E-13
 -1      3403 1.99461E+01 2.36747E-01-6.06888E-04-2.17444E-01 1.85964E-13-6.46777E-14
 -1      3404 1.99612E+01 1.99076E-01-8.53170E-04-1.85167E-01 8.23561E-14 6.62724E-14
 -1      3405 1.98988E+01 2.72920E-01 2.29510E-03-2.04055E-01 2.23677E-13-2.69265E-13
 -1      3406 1.99824E+01 1.64146E-01-2.78103E-04-1.60344E-01 1.88871E-15 7.06661E-14
 -1      3407 1.99891E+01 1.36690E-01-6.25750E-04-1.34916E-01 8.08829E-14 6.59454E-14
 -1      3408 1.99503E+01 1.90569E-01 1.46114E-03-1.54555E-01 3.08212E-14-8.53993E-14
 -1      3409 2.00009E+01 1.12898E-01-1.09556E-04-1.16071E-01 1.10024E-13 2.68702E-14
 -1      3410 2.00026E+01 9.41112E-02-4.57796E-04-9.72828E-02 1.27749E-14-1.67107E-13
 -1      3411 1.99797E+01 1.32062E-01 9.58557E-04-1.14507E-01 4.44532E-14-1.42098E-13
 -1      3412 2.00088E+01 7.79254E-02-1.05542E-05-8.31656E-02-2.02683E-13-1.31083E-13
 -1      3413 2.00082E+01 6.50015E-02-3.32673E-04-6.93764E-02-2.64453E-13-1.67330E-13
 -1      3414 1.99951E+01 9.16831E-02 6.15280E-04-8.36500E-02-1.77009E-13-1.92697E-13
 -1      3415 2.00113E+01 5.39495E-02 3.51369E-05-5.89051E-02-2.01439E-13-1.39712E-13
 -1      3416 2.00096E+01 4.50144E-02-2.40145E-04-4.88414E-02-1.05166E-13-1.06997E-13
 -1      3417 2.00025E+01 6.37967E-02 3.91900E-04-6.02459E-02-2.34353E-13-1.20821E-13
 -1      3418 2.00110E+01 3.74304E-02 5.42802E-05-4.11410E-02-4.99717E-14-1.48985E-13
 -1      3419 2.00091E+01 3.12229E-02-1.67146E-04-3.38393E-02-2.98845E-13-2.01900E-13
 -1      3420 2.00055E+01 4.44490E-02 2.44509E-04-4.27096E-02-5.33324E-14-1.68795E-13
 -1      3421 2.00095E+01 2.62081E-02 5.53356E-05-2.84883E-02-4.20788E-13-7.36433E-14
 -1      3422 2.00078E+01 2.20187E-02-1.20890E-04-2.34076E-02-2.81368E-13-2.48624E-13
 -1      3423 2.00062E+01 3.12339E-02 1.52041E-04-2.99750E-02-2.96500E-13-1.69682E-13
 -1      3424 2.00078E+01 1.82981E-02 4.96443E-05-1.92725E-02-1.60982E-13-4.08114E-13
 -1      3425 2.00063E+01 1.51796E-02-8.63690E-05-1.54268E-02-3.37505E-13-3.74512E-13
 -1      3426 2.00059E+01 2.19145E-02 9.78230E-05-2.05748E-02-2.95775E-13-2.46907E-13
 -1      3427 2.00060E+01 1.25769E-02 4.10350E-05-1.24736E-02-3.73245E-13-3.31777E-13
 -1      3428 2.00048E+01 1.03783E-02-5.98521E-05-9.73964E-03-3.77404E-13-3.74828E-13
 -1      3429 2.00051E+01 1.51397E-02 6.06198E-05-1.35357E-02-3.73673E-13-3.41531E-13
 -1      3430 2.00045E+01 8.55152E-03 3.29053E-05-7.65616E-03-1.78139E-13-2.28059E-13
 -1      3431 2.00036E+01 6.99713E-03-4.07187E-05-5.73651E-03-2.09732E-14-2.14024E-13
 -1      3432 2.00041E+01 1.03485E-02 3.58281E-05-8.48826E-03-1.99200E-13-2.74993E-13
 -1      3433 2.00032E+01 5.71387E-03 2.54119E-05-4.29238E-03-5.62396E-14-2.14495E-13
 -1      3434 2.00026E+01 4.61602E-03-2.71319E-05-2.96640E-03-1.44523E-13-3.37654E-13
 -1      3435 2.00032E+01 6.95899E-03 2.00099E-05-4.92397E-03-4.17405E-14-2.71306E-13
 -1      3436 2.00023E+01 3.71603E-03 1.91835E-05-1.98923E-03-1.24431E-13-2.34600E-13
 -1      3437 2.00018E+01 2.94462E-03-1.66447E-05-1.09579E-03 2.95650E-14-4.03803E-14
 -1      3438 2.00024E+01 4.56336E-03 9.82891E-06-2.45586E-03-6.80532E-14-1.57143E-13
 -1      3439 2.00015E+01 2.34158E-03 1.39985E-05-4.85245E-04 2.45548E-13-2.52250E-13
 -1      3440 2.00012E+01 1.81624E-03-1.04061E-05 7.88048E-05 1.37655E-13-2.76921E-13
 -1      3441 2.00018E+01 2.90521E-03 2.76895E-06-8.21095E-04 1.13500E-13-9.70753E-14
 -1      3442 2.00010E+01 1.36151E-03 9.85786E-06 4.87058E-04-1.99670E-13-1.93203E-13
 -1      3443 2.00007E+01 9.65558E-04-6.19533E-06 8.54846E-04-3.11587E-13-4.10384E-13
 -1      3444 2.00012E+01 1.73168E-03 3.98847E-07 2.46547E-04-1.05719E-13-3.41640E-13
 -1      3445 2.00005E+01 6.40970E-04 6.53251E-06 1.07818E-03-3.31124E-13-4.87524E-13
 -1      3446 2.00004E+01 3.54696E-04-2.72548E-06 1.28487E-03-4.19020E-13-3.92802E-13
 -1      3447 2.00008E+01 8.67531E-04-5.42617E-07 9.14971E-04-4.74352E-13-4.97588E-13
 -1      3448 2.00004E+01 1.79125E-04-5.82870E-07 1.32310E-03-2.11519E-13-5.48674E-13
 -1      3449 2.18337E+01-4.05701E-01 8.43098E-04 1.24444E+00-3.66467E-14 4.10446E-14
 -1      3450 2.18425E+01-6.50647E-01-3.33437E-03 1.10917E+00-3.57521E-14 6.26906E-14
 -1      3451 2.23509E+01-3.15633E-01 1.04750E-02 1.34200E+00-2.44810E-14 7.88015E-14
 -1      3452 2.11446E+01 2.16512E+00 1.11191E-03-6.66675E-02 6.11278E-14 1.04528E-13
 -1      3453 2.11619E+01 2.09237E+00-5.20853E-03 3.22770E-01 9.71833E-14 6.40221E-14
 -1      3454 2.12273E+01 1.86477E+00-1.20372E-02-8.87264E-01 1.09670E-13 6.24415E-14
 -1      3455 2.11824E+01 2.08631E+00 7.26677E-03-5.35942E-01 8.74030E-14 7.31951E-14
 -1      3456 2.16498E+01 2.44492E+00-9.41501E-03-3.26054E-01 8.97667E-14 4.75542E-14
 -1      3457 2.14649E+01 1.13743E+00-1.70910E-02-1.43254E+00 1.43334E-14 9.31973E-14
 -1      3458 2.13839E+01 1.54391E+00 1.40080E-02-1.22446E+00 9.86112E-14 3.85842E-14
 -1      3459 2.18198E+01 1.95238E+00-6.77464E-04-1.15896E+00 8.20026E-14 1.70843E-13
 -1      3460 2.16880E+01 2.97662E-01-1.45291E-02-1.58275E+00-1.14030E-13 5.05517E-14
 -1      3461 2.16174E+01 7.19255E-01 1.08366E-02-1.54564E+00-6.03377E-14 9.71801E-14
 -1      3462 2.20850E+01 1.04616E+00 8.71949E-03-1.59484E+00-1.98410E-14 1.55894E-13
 -1      3463 2.17643E+01-3.79182E-01-7.03779E-03-1.40708E+00-1.20998E-13-2.75967E-14
 -1      3464 2.17408E+01-6.77793E-02 3.67059E-03-1.49995E+00-1.00400E-13 4.55702E-14
 -1      3465 2.22389E+01 1.00091E-01 1.20144E-02-1.58927E+00-1.15693E-13 1.14918E-13
 -1      3466 2.16590E+01-7.73372E-01 1.19013E-04-1.06487E+00-1.60562E-13 8.55141E-14
 -1      3467 2.16909E+01-6.11742E-01-2.72739E-03-1.22040E+00-1.68003E-13 7.52079E-15
 -1      3468 2.21748E+01-6.02059E-01 8.09515E-03-1.28016E+00-1.51327E-13 7.92751E-14
 -1      3469 2.14193E+01-9.01888E-01 4.70921E-03-6.97566E-01 1.70166E-14 5.28574E-14
 -1      3470 2.14947E+01-8.68020E-01-5.67607E-03-8.59741E-01-7.42649E-14 9.15880E-14
 -1      3471 2.19153E+01-9.64482E-01 1.73952E-03-8.65991E-01-8.15354E-14 8.36407E-14
 -1      3472 2.11208E+01-8.47309E-01 6.59553E-03-3.87715E-01 2.40597E-14 1.61627E-13
 -1      3473 2.12180E+01-8.94701E-01-5.56968E-03-5.25094E-01 5.68017E-14 1.21883E-13
 -1      3474 2.15475E+01-1.03668E+00-2.95581E-03-4.84355E-01 1.34243E-15 9.01823E-14
 -1      3475 2.08268E+01-6.98366E-01 6.52645E-03-1.63011E-01 5.54004E-14 2.87294E-13
 -1      3476 2.09257E+01-7.83054E-01-4.04216E-03-2.64957E-01 4.67378E-14 2.14970E-13
 -1      3477 2.11617E+01-9.26989E-01-5.27235E-03-1.97493E-01-2.33546E-14 1.77974E-13
 -1      3478 2.05746E+01-5.21770E-01 5.47448E-03-1.85897E-02 1.77760E-14 2.47510E-13
 -1      3479 2.06621E+01-6.13156E-01-2.35879E-03-8.67230E-02 6.60200E-14 2.94510E-13
 -1      3480 2.08176E+01-7.35750E-01-5.68988E-03-1.20147E-02 3.14224E-14 3.63036E-13
 -1      3481 2.03777E+01-3.57105E-01 4.12193E-03 6.33614E-02-2.39807E-14 2.06337E-13
 -1      3482 2.04480E+01-4.38361E-01-1.07320E-03 2.23384E-02 6.38302E-14 1.94284E-13
 -1      3483 2.05420E+01-5.31743E-01-5.05635E-03 9.13690E-02 2.72307E-14 3.54572E-13
 -1      3484 2.02348E+01-2.22515E-01 2.85602E-03 1.02075E-01-1.65184E-15 2.21966E-13
 -1      3485 2.02873E+01-2.86828E-01-2.67232E-04 8.05602E-02-2.43342E-14 1.90779E-13
 -1      3486 2.03383E+01-3.51873E-01-4.01780E-03 1.37758E-01-2.97245E-14 2.95270E-13
 -1      3487 2.01374E+01-1.22309E-01 1.84098E-03 1.13537E-01 7.48654E-15 2.32088E-13
 -1      3488 2.01742E+01-1.68961E-01 1.60063E-04 1.04942E-01-1.48182E-14 2.59450E-13
 -1      3489 2.01972E+01-2.10450E-01-2.94298E-03 1.48925E-01-1.54880E-14 1.05399E-13
 -1      3490 2.00747E+01-5.34066E-02 1.09652E-03 1.09354E-01-2.71677E-14 1.64290E-13
 -1      3491 2.00992E+01-8.46972E-02 3.40559E-04 1.08669E-01-2.73374E-14 2.22021E-13
 -1      3492 2.01053E+01-1.08438E-01-2.02069E-03 1.40696E-01 3.10323E-15 1.31580E-13
 -1      3493 2.00366E+01-9.72528E-03 5.88061E-04 9.72602E-02-1.62485E-13 2.76041E-13
 -1      3494 2.00522E+01-2.90055E-02 3.82703E-04 1.00967E-01-2.13761E-14 1.92240E-13
 -1      3495 2.00490E+01-4.03435E-02-1.30884E-03 1.23355E-01-5.91625E-14 2.44078E-13
 -1      3496 2.00150E+01 1.52952E-02 2.62334E-04 8.20774E-02-8.95664E-14 1.22908E-13
 -1      3497 2.00245E+01 4.69186E-03 3.58324E-04 8.78508E-02-1.63936E-13 1.92139E-13
 -1      3498 2.00170E+01 1.41712E-03-7.98067E-04 1.03032E-01-8.96184E-14 9.73409E-14
 -1      3499 2.00038E+01 2.74669E-02 6.77230E-05 6.66147E-02 9.53521E-14-1.29838E-13
 -1      3500 2.00093E+01 2.27071E-02 3.08204E-04 7.30090E-02 1.80617E-15 7.92788E-15
 -1      3501 2.00005E+01 2.42470E-02-4.53622E-04 8.30883E-02-7.01576E-15-7.47577E-14
 -1      3502 1.99988E+01 3.14019E-02-3.83137E-05 5.23658E-02-9.45638E-14 9.47013E-15
 -1      3503 2.00019E+01 3.02983E-02 2.53357E-04 5.85435E-02-3.80557E-14-7.22792E-14
 -1      3504 1.99934E+01 3.43741E-02-2.34590E-04 6.51599E-02-5.58163E-14-4.35354E-15
 -1      3505 1.99972E+01 3.04868E-02-8.77746E-05 4.00063E-02-2.20680E-15-1.44044E-14
 -1      3506 1.99989E+01 3.14677E-02 2.03091E-04 4.55328E-02-5.82310E-14-1.87225E-14
 -1      3507 1.99916E+01 3.65766E-02-1.03735E-04 4.98725E-02-2.45466E-14 9.46022E-14
 -1      3508 1.99973E+01 2.70519E-02-1.03242E-04 2.97279E-02 1.23397E-13-4.36720E-14
 -1      3509 1.99982E+01 2.90567E-02 1.60461E-04 3.44236E-02 9.38801E-14 4.63459E-14
 -1      3510 1.99923E+01 3.42741E-02-3.12306E-05 3.73003E-02 2.63116E-14-2.97369E-14
 -1      3511 1.99981E+01 2.26031E-02-9.98830E-05 2.14536E-02-3.37747E-14 1.32685E-13
 -1      3512 1.99985E+01 2.49607E-02 1.25627E-04 2.52920E-02 8.13283E-14 7.20112E-14
 -1      3513 1.99941E+01 2.97688E-02 4.75269E-06 2.72406E-02 1.57499E-14 1.29408E-13
 -1      3514 1.99990E+01 1.80446E-02-8.73883E-05 1.49721E-02-1.57285E-13 1.78019E-13
 -1      3515 1.99992E+01 2.03625E-02 9.76541E-05 1.80115E-02-1.72450E-13-6.05095E-14
 -1      3516 1.99961E+01 2.45152E-02 1.93111E-05 1.93719E-02-5.41340E-14 2.87229E-13
 -1      3517 1.99997E+01 1.38673E-02-7.16074E-05 1.00187E-02-7.06640E-14 1.21602E-13
 -1      3518 1.99999E+01 1.59413E-02 7.53464E-05 1.23587E-02-1.35273E-13 1.61994E-13
 -1      3519 1.99978E+01 1.93633E-02 2.22759E-05 1.33415E-02-1.88229E-13-7.05401E-14
 -1      3520 2.00003E+01 1.02929E-02-5.58479E-05 6.32282E-03-1.71534E-13 6.34730E-14
 -1      3521 2.00004E+01 1.20392E-02 5.76172E-05 8.07670E-03-2.56095E-14 1.60911E-13
 -1      3522 1.99991E+01 1.47553E-02 1.97064E-05 8.81003E-03-8.16363E-14-8.74283E-14
 -1      3523 2.00006E+01 7.37783E-03-4.18034E-05 3.63288E-03-7.74464E-14 5.64454E-14
 -1      3524 2.00008E+01 8.78520E-03 4.35835E-05 4.91189E-03-1.53076E-13 2.08790E-14
 -1      3525 2.00000E+01 1.08721E-02 1.50877E-05 5.47361E-03-9.85242E-14 2.06818E-14
 -1      3526 2.00008E+01 5.08531E-03-3.01518E-05 1.72936E-03-3.91867E-14 2.37702E-13
 -1      3527 2.00009E+01 6.18198E-03 3.25754E-05 2.63387E-03-1.45418E-13 8.73923E-14
 -1      3528 2.00006E+01 7.73764E-03 1.02101E-05 3.07184E-03-1.99495E-13 1.43930E-13
 -1      3529 2.00008E+01 3.32883E-03-2.06293E-05 4.28509E-04 1.12041E-13 2.30052E-13
 -1      3530 2.00009E+01 4.16361E-03 2.41406E-05 1.04342E-03 1.51392E-13 2.17730E-13
 -1      3531 2.00008E+01 5.28832E-03 5.75576E-06 1.38765E-03-2.76788E-14 1.14620E-13
 -1      3532 2.00007E+01 2.01631E-03-1.05978E-05-4.11697E-04 5.03354E-14 6.09581E-14
 -1      3533 2.00008E+01 2.63055E-03 1.71999E-05-2.20594E-05 5.40266E-14 1.94730E-13
 -1      3534 2.00009E+01 3.42152E-03 2.81952E-06 2.49178E-04 6.79568E-14-5.58866E-14
 -1      3535 2.55621E+01 3.36106E+00-8.83431E-02-1.93497E+00 1.57100E-13 2.99361E-14
 -1      3536 2.57678E+01 2.02566E+00-2.12520E-02-2.03388E+00 1.52683E-13-3.36827E-14
 -1      3537 2.06458E+01 6.93695E-02-4.07892E-03 1.01444E-02 1.02105E-13 3.33434E-14
 -1      3538 2.06136E+01 2.78089E-01 7.69021E-03 6.32275E-02 1.08763E-13 4.48768E-14
 -1      3539 1.99185E+01 2.00646E+00-3.13709E-03-5.28927E-01-5.72199E-15-1.86921E-13
 -1      3540 1.97292E+01 2.43285E+00-7.73788E-04-3.53495E-01 1.06511E-13-1.41615E-13
 -1      3541 1.96995E+01 2.42966E+00-7.23536E-03-4.37402E-01 8.69883E-14-1.52651E-13
 -1      3542 1.97623E+01 2.18151E+00 6.84221E-03-4.47454E-01 6.08956E-14-1.26298E-13
 -1      3543 1.96055E+01 1.46385E+00-7.33342E-03-9.31728E-02 4.30515E-15-1.09981E-13
 -1      3544 1.94119E+01 1.42858E+00-1.18705E-02 1.73048E-02 1.94348E-14-9.96922E-14
 -1      3545 1.93060E+01 1.49258E+00 1.04351E-02-1.73825E-01 2.42489E-14-1.00510E-13
 -1      3546 2.12760E+01 1.88640E+00 1.20813E-02 7.49242E-01 1.29453E-13 1.08173E-13
 -1      3547 2.13483E+01 1.55578E+00-1.49136E-02 1.04688E+00 1.50028E-13 8.79223E-14
 -1      3548 2.17202E+01 2.29123E+00-5.03119E-03 6.10271E-01 1.06071E-13 6.63390E-14
 -1      3549 2.56681E+01-2.78509E+00-6.46919E-02 6.59567E-01-1.46506E-14-1.76882E-13
 -1      3550 2.49882E+01-3.22728E+00 9.18222E-02 2.03505E+00 1.48744E-14-2.46511E-13
 -1      3551 2.49368E+01 4.97176E+00-8.52150E-02-8.35761E-01 2.28012E-13 1.49270E-13
 -1      3552 2.52936E+01 4.36916E+00-3.52690E-02-1.55735E+00 2.10838E-13 1.21111E-13
 -1      3553 2.45332E+01 3.37050E+00-3.20650E-02-1.61673E+00 1.25410E-13 1.98513E-13
 -1      3554 1.86634E+01-2.00463E+00-7.43841E-02 5.11995E+00-1.48128E-13-6.41154E-14
 -1      3555 1.67826E+01-7.69124E-01 7.26882E-02 4.97630E+00-1.19387E-13 1.60011E-14
 -1      3556 2.59830E+01 2.08957E+00-1.46974E-02 2.05158E+00-2.83454E-14 2.74518E-13
 -1      3557 2.56010E+01 3.47590E+00-1.13167E-01 1.88449E+00 3.76782E-14 2.92526E-13
 -1      3558 1.31226E+01 1.73438E+00 7.06407E-02 2.69216E+00-2.07678E-13 3.98973E-13
 -1      3559 1.27892E+01 2.22110E+00 1.13884E-02 1.17917E+00-2.43289E-13 3.13631E-13
 -1      3560 1.43404E+01 2.27351E+00 1.78412E-02 8.43264E-01-1.94023E-13 3.79337E-13
 -1      3561 1.52879E+01-4.51177E-02-2.56061E-03 4.64253E+00-6.75605E-14 2.28290E-14
 -1      3562 1.36774E+01 1.04336E+00 3.91906E-02 3.62876E+00-8.84553E-14 1.47563E-13
 -1      3563 1.49808E+01 1.32994E+00 5.19992E-02 2.82805E+00-1.50563E-13 2.80888E-13
 -1      3564 1.69409E+01-1.54167E-01 6.07661E-02 4.13482E+00-6.74634E-14 2.67859E-14
 -1      3565 1.98900E+01 1.87669E+00 1.09999E-02-4.08779E-01 6.57894E-15-1.76805E-13
 -1      3566 2.17391E+01-8.15296E-01-4.19265E-03 9.00047E-01-4.28682E-14 1.04507E-13
 -1      3567 2.16982E+01-9.06628E-01 3.33965E-03 7.32805E-01-8.22503E-15 1.02084E-13
 -1      3568 2.22274E+01-8.66965E-01 5.16690E-03 9.51065E-01 1.38274E-15 1.38458E-13
 -1      3569 2.36304E+01-2.95341E+00 1.63881E-02 2.38812E+00-9.43984E-14-2.79959E-13
 -1      3570 2.02539E+01-2.39118E+00-1.44653E-02-4.55925E+00-1.98258E-13-1.59285E-13
 -1      3571 2.17810E+01-3.31065E+00 4.20493E-02-4.70709E+00-2.50899E-13-1.02023E-13
 -1      3572 2.27688E+01-3.23948E+00-6.87717E-03-3.66113E+00-2.28866E-13-1.80463E-14
 -1      3573 1.97142E+01 1.94764E+00-1.00381E-03-4.41101E-01 4.14257E-14-1.30945E-13
 -1      3574 1.97233E+01 1.87813E+00-7.99245E-03-4.31081E-01 3.20475E-14-1.37050E-13
 -1      3575 2.00006E+01 2.33530E-04-6.94875E-07 1.20923E-03-3.41178E-13-3.56105E-13
 -1      3576 2.07528E+01-1.15255E-01 7.46204E-03-2.20091E-02 1.01762E-13 4.13562E-14
 -1      3577 2.07541E+01-1.77622E-03-4.71050E-03-7.18827E-02 1.18441E-13 2.64379E-14
 -1      3578 2.08075E+01-2.96065E-01-3.56585E-03-2.22138E-02 9.73344E-14 4.53604E-14
 -1      3579 2.01904E+01-1.93574E+00 4.18458E-02 4.19167E+00-1.32524E-13-1.91222E-13
 -1      3580 2.05440E+01 6.02189E-01-3.17709E-03 9.31251E-02 1.25504E-13 3.68428E-14
 -1      3581 2.56107E+01 8.58509E-01-4.26779E-02-1.96234E+00 1.07058E-13-8.33639E-14
 -1      3582 2.52297E+01-1.04509E-01-1.45501E-02-1.59794E+00 5.99399E-14-6.69708E-14
 -1      3583 2.47220E+01 1.56428E+00-9.53295E-03-1.97811E+00 8.28938E-14-6.67071E-14
 -1      3584 2.00012E+01 9.70749E-04-1.94443E-06 4.51905E-05-1.36628E-13 5.41261E-13
 -1      3585 2.00012E+01 1.01290E-03-6.59691E-06-1.13430E-04-2.08244E-13 3.15106E-13
 -1      3586 2.10168E+01-6.06428E-01-4.24212E-03 5.40373E-02 3.92191E-14 8.31736E-14
 -1      3587 2.09441E+01-4.55078E-01 8.06526E-03-3.04891E-04 5.31723E-14 6.02803E-14
 -1      3588 2.09721E+01-4.04234E-01-5.89419E-03-9.84221E-02 7.48564E-14 4.29462E-14
 -1      3589 2.00010E+01 1.02367E-03-4.46392E-06-5.03588E-04-1.45947E-13-1.91849E-13
 -1      3590 2.00009E+01 9.90690E-04-3.61535E-06-6.30559E-04-4.12468E-14-3.77574E-13
 -1      3591 2.00007E+01 1.66759E-03 9.04904E-06-6.18740E-04 2.32392E-13 1.29483E-13
 -1      3592 2.00009E+01 2.20548E-03-1.89722E-06-4.11491E-04 2.02740E-14 1.12284E-13
 -1      3593 2.00007E+01 1.33625E-03-3.54251E-06-7.74420E-04 6.32644E-14 7.53599E-14
 -1      3594 1.97779E+01 1.71306E+00-1.14397E-03-2.62812E-01 1.57976E-14-1.57013E-13
 -1      3595 2.00006E+01 7.06028E-04-1.88245E-06-9.61819E-04-2.58287E-13 3.12026E-13
 -1      3596 2.00006E+01 1.01961E-03 5.87542E-06-8.91297E-04-1.49742E-13 2.55271E-13
 -1      3597 2.00008E+01 1.43089E-03-5.55701E-07-7.19517E-04-1.26247E-13 5.02372E-13
 -1      3598 2.00007E+01 7.40209E-04-5.34809E-06-8.86967E-04-1.52321E-13 3.33171E-13
 -1      3599 2.00011E+01 1.05283E-03-3.34670E-06-2.44933E-04-9.86376E-14 3.68723E-13
 -1      3600 2.00011E+01 1.05864E-03-5.11091E-06-3.87069E-04-1.99042E-13 2.11400E-13
 -1      3601 2.00012E+01 1.60337E-03 1.29773E-05-4.25611E-04 9.14457E-14-1.46493E-13
 -1      3602 2.00013E+01 1.60415E-03 1.25951E-05-2.07876E-04-3.17460E-14 3.82875E-13
 -1      3603 1.98363E+01 2.13152E+00 4.49337E-03-3.47644E-01 1.01543E-13-1.22750E-13
 -1      3604 2.19853E+01 1.55405E+00 4.66706E-03 1.28989E+00 9.98107E-14 1.37942E-13
 -1      3605 2.44084E+01 4.65068E+00-4.02329E-02-3.03944E-01 1.84412E-13 2.70124E-13
 -1      3606 2.00008E+01 3.86124E-04-1.63068E-06 1.04733E-03-3.45649E-13-2.46793E-13
 -1      3607 2.00010E+01 4.48754E-04-6.94099E-06 9.07048E-04-2.18677E-13 1.81849E-13
 -1      3608 2.00009E+01 6.67826E-04 8.88942E-07 1.01081E-03-5.06349E-13-3.06350E-13
 -1      3609 2.66616E+01-2.89304E+00-1.93097E-02-4.70897E-01-1.76512E-13 7.36147E-14
 -1      3610 2.62922E+01-1.82307E+00 5.43851E-03 5.41956E-01-1.22272E-13 1.96822E-13
 -1      3611 2.58508E+01-1.19871E-01-1.69963E-02 1.59430E+00-1.21049E-14 2.27983E-13
 -1      3612 2.60031E+01 8.79340E-01-6.88065E-02 1.95828E+00-3.72966E-14 2.42775E-13
 -1      3613 2.51092E+01 1.71574E+00 2.06877E-02 1.98520E+00-1.07553E-15 2.82123E-13
 -1      3614 2.48335E+01 3.85060E+00-2.54113E-02 1.43598E+00 6.56350E-14 2.96055E-13
 -1      3615 1.43651E+01 6.84092E-01 1.93408E-02-3.77549E+00-1.03677E-13-2.49384E-13
 -1      3616 1.57553E+01-1.82118E-01 7.00118E-02-4.65990E+00-1.66662E-13-2.44277E-13
 -1      3617 1.54092E+01 8.72849E-01 1.01089E-02-3.14225E+00-8.55080E-14-1.93030E-13
 -1      3618 2.57109E+01-2.16397E+00 5.78043E-03-1.54409E-01-5.65147E-14-7.98229E-14
 -1      3619 2.46725E+01-2.35875E+00-1.58466E-02 3.57562E-01-2.26230E-14-7.46530E-14
 -1      3620 2.51986E+01-1.43028E+00-2.35585E-02-8.50107E-01-4.86408E-14-4.84708E-14
 -1      3621 2.51705E+01-3.37515E+00-1.16115E-02-1.83965E+00-2.24381E-13 3.11574E-14
 -1      3622 1.97752E+01 1.94746E+00 1.34941E-03-4.51464E-01 6.55094E-14-1.18089E-13
 -1      3623 1.97298E+01 1.93582E+00-8.84129E-03-4.72780E-01 3.74725E-14-1.14378E-13
 -1      3624 1.97413E+01 1.76426E+00 1.21961E-02-4.40257E-01 4.47054E-14-1.00583E-13
 -1      3625 2.00012E+01 7.90741E-04-1.14609E-06 3.72769E-04-9.45146E-14 6.36071E-13
 -1      3626 2.00012E+01 8.64048E-04-6.57209E-06 1.98800E-04-1.85120E-13 6.92526E-13
 -1      3627 2.00014E+01 1.46310E-03 1.18857E-05 5.14878E-05-1.79584E-13 5.80289E-13
 -1      3628 1.97050E+01 1.61571E+00 5.00022E-03-2.18801E-01 3.06042E-14-1.34837E-13
 -1      3629 2.02316E+01 1.48309E+00-1.35096E-03-3.80620E-03 1.34738E-13-7.96441E-14
 -1      3630 2.01561E+01 1.58118E+00-2.73324E-03-1.11962E-01 1.16070E-13-1.06543E-13
 -1      3631 2.00011E+01 5.98212E-04 7.06615E-07 7.17484E-04-8.05353E-14 4.43281E-13
 -1      3632 2.00012E+01 6.83173E-04-6.37516E-06 5.41500E-04-1.79421E-13 5.53246E-13
 -1      3633 2.00014E+01 1.25328E-03 1.42894E-05 3.46764E-04-4.17027E-13 5.33030E-13
 -1      3634 2.00012E+01 9.90570E-04 1.64606E-05 6.69901E-04-3.73491E-13 1.89676E-13
 -1      3635 1.75607E+01-9.34278E-01 3.58064E-02-4.56895E+00-1.95408E-13-2.58148E-13
 -1      3636 2.12667E+01-8.38183E-01-5.44116E-03 2.41709E-01 1.08413E-14 3.20524E-14
 -1      3637 2.11844E+01-7.30697E-01 8.07608E-03 1.35060E-01 3.03170E-14 5.96337E-14
 -1      3638 2.12533E+01-7.44575E-01-5.89051E-03-1.30033E-02 4.04877E-14 5.93973E-14
 -1      3639 2.00753E+01 1.68435E+00 4.17356E-04-2.07930E-01 1.07303E-13-1.21521E-13
 -1      3640 1.99905E+01 1.75404E+00-5.28165E-03-3.01372E-01 1.06172E-13-1.19964E-13
 -1      3641 2.02035E+01 1.35899E+00 1.71257E-03-2.43546E-01 8.71353E-14-9.54180E-14
 -1      3642 2.53595E+01-1.91865E+00-1.35135E-02 4.24629E-01-8.28426E-14 1.33674E-13
 -1      3643 2.57139E+01-1.23211E+00-3.90226E-02 1.11724E+00-3.73963E-14 1.73382E-13
 -1      3644 2.37407E+01-2.76038E+00-5.09977E-02 1.50893E+00-3.35443E-14-1.10087E-13
 -1      3645 2.27009E+01-2.53961E+00 7.23290E-02 2.69257E+00-1.50445E-13-2.16955E-13
 -1      3646 1.84628E+01 1.33424E+00 9.18780E-03-7.74117E-01-1.76490E-14-1.77817E-13
 -1      3647 1.79883E+01 1.30433E+00-2.47309E-02-1.00160E+00-2.11942E-14-1.81082E-13
 -1      3648 1.77194E+01 1.28152E+00 1.94877E-02-1.35310E+00-2.27136E-14-1.91729E-13
 -1      3649 1.70038E+01 1.24829E+00-6.47044E-03-1.80694E+00-4.71637E-14-1.93887E-13
 -1      3650 1.82362E+01 9.91633E-01 3.40044E-03-1.56995E+00-4.13404E-14-2.02168E-13
 -1      3651 2.28042E+01 7.96707E-01 8.53529E-03 1.60804E+00-9.22266E-15 2.10680E-13
 -1      3652 2.28831E+01 1.80826E-01-1.92372E-02 1.58358E+00-3.29329E-14 1.80236E-13
 -1      3653 1.95878E+01 1.62357E+00-2.45736E-03-2.99896E-01 5.00410E-14-1.19103E-13
 -1      3654 1.52596E+01 2.16603E+00-2.47987E-02 4.47504E-01-2.02582E-13 3.29575E-13
 -1      3655 1.62959E+01 2.04287E+00 1.69954E-03 2.56496E-01-1.91782E-13 3.64807E-13
 -1      3656 1.53489E+01 1.93368E+00 4.29961E-02 1.48134E+00-2.21676E-13 5.35631E-13
 -1      3657 2.03330E+01 1.31346E+00-1.97516E-03 2.03931E-01 1.33961E-13-3.80205E-14
 -1      3658 2.02762E+01 1.43298E+00-5.45505E-04 1.01147E-01 1.40133E-13-8.35986E-14
 -1      3659 2.03408E+01 1.20649E+00 2.78119E-03-4.63516E-02 1.13570E-13-7.71466E-14
 -1      3660 2.04027E+01 1.09301E+00 7.35855E-04 1.43867E-01 1.30862E-13-3.26149E-14
 -1      3661 1.69020E+01 1.85066E+00-2.42169E-02 3.27687E-02-6.03289E-14 3.16417E-13
 -1      3662 1.75602E+01 1.68006E+00-8.05335E-04-5.78107E-02 1.30273E-14 3.81575E-13
 -1      3663 1.68546E+01 1.76269E+00 2.86135E-02 7.18322E-01-6.81805E-14 4.47881E-13
 -1      3664 1.80031E+01 1.47287E+00-1.75071E-02-1.84399E-01-3.55239E-14 4.85557E-13
 -1      3665 1.84539E+01 1.29104E+00-1.20582E-03-2.15429E-01-1.95855E-14 3.79159E-13
 -1      3666 1.79017E+01 1.46310E+00 2.11165E-02 2.68379E-01-4.63236E-15 4.66709E-13
 -1      3667 1.87507E+01 1.10873E+00-1.18493E-02-2.72734E-01 4.72075E-14 3.36406E-13
 -1      3668 1.90361E+01 9.55533E-01-1.28170E-03-2.66518E-01 1.98938E-13 2.63506E-13
 -1      3669 1.86386E+01 1.13971E+00 1.52815E-02 1.78298E-02-4.60786E-16 5.38557E-13
 -1      3670 1.92330E+01 8.09807E-01-7.70192E-03-2.84479E-01 1.69712E-13 1.99537E-13
 -1      3671 1.94099E+01 6.90409E-01-1.31995E-03-2.61163E-01 1.46749E-13 1.03219E-13
 -1      3672 1.91309E+01 8.55402E-01 1.06963E-02-1.01399E-01 1.03518E-13 3.01203E-13
 -1      3673 1.95384E+01 5.80266E-01-4.90517E-03-2.58640E-01 1.63628E-13 8.47070E-14
 -1      3674 1.96457E+01 4.91376E-01-1.25160E-03-2.30086E-01 2.81136E-13 1.33480E-13
 -1      3675 1.94541E+01 6.27046E-01 7.31853E-03-1.45656E-01 1.49318E-13 9.60193E-14
 -1      3676 1.97285E+01 4.11132E-01-3.00611E-03-2.18491E-01 2.76797E-13 8.99676E-14
 -1      3677 1.97919E+01 3.46756E-01-1.11467E-03-1.90812E-01 2.42172E-13 1.96567E-14
 -1      3678 1.96628E+01 4.52605E-01 4.88538E-03-1.50225E-01 2.77957E-13 1.33071E-13
 -1      3679 1.98424E+01 2.91876E-01-1.85601E-03-1.77106E-01 2.29504E-13-1.14150E-13
 -1      3680 1.98779E+01 2.47962E-01-9.21364E-04-1.53955E-01 9.23105E-14-1.11759E-13
 -1      3681 1.97931E+01 3.26788E-01 3.36758E-03-1.36672E-01 1.26073E-13 9.76155E-14
 -1      3682 1.99116E+01 2.06918E-01-1.10589E-03-1.39584E-01-3.20424E-14-1.73038E-13
 -1      3683 1.99329E+01 1.74079E-01-6.90400E-04-1.19448E-01-1.85660E-14-1.89844E-13
 -1      3684 1.98753E+01 2.34555E-01 2.16527E-03-1.15851E-01-3.26448E-14-1.42481E-13
 -1      3685 1.99537E+01 1.45246E-01-6.58445E-04-1.06658E-01-5.16014E-15-1.86299E-13
 -1      3686 1.99652E+01 1.22278E-01-5.22789E-04-9.06115E-02-3.79830E-14-2.16752E-13
 -1      3687 1.99278E+01 1.66756E-01 1.41764E-03-9.35214E-02-9.44223E-14-1.67511E-13
 -1      3688 1.99779E+01 1.02119E-01-3.67842E-04-7.98862E-02-1.07286E-13-2.93132E-13
 -1      3689 1.99837E+01 8.60066E-02-3.90002E-04-6.73970E-02-2.15513E-13-2.08973E-13
 -1      3690 1.99598E+01 1.18459E-01 9.10312E-04-7.29865E-02-1.29827E-13-1.55457E-13
 -1      3691 1.99913E+01 7.18931E-02-1.95395E-04-5.87429E-02-2.87052E-13-2.16158E-14
 -1      3692 1.99939E+01 6.05585E-02-2.87364E-04-4.91899E-02-2.57937E-13-4.93450E-14
 -1      3693 1.99790E+01 8.41492E-02 5.78363E-04-5.54215E-02-1.33258E-13-6.99899E-14
 -1      3694 1.99984E+01 5.06526E-02-9.14949E-05-4.23981E-02-6.33727E-14-1.16851E-13
 -1      3695 1.99994E+01 4.26457E-02-2.05217E-04-3.51976E-02-5.19737E-14-1.09726E-13
 -1      3696 1.99902E+01 5.97370E-02 3.60212E-04-4.10594E-02-1.62861E-13-3.81865E-14
 -1      3697 2.00018E+01 3.59557E-02-3.92570E-05-3.02330E-02-2.31300E-13-2.20486E-13
 -1      3698 2.00019E+01 3.04941E-02-1.49590E-04-2.50717E-02-3.42704E-13-1.27591E-13
 -1      3699 1.99964E+01 4.26763E-02 2.20826E-04-2.99210E-02-2.00045E-13-1.82012E-13
 -1      3700 2.00033E+01 2.54395E-02-9.24589E-06-2.10700E-02-3.66895E-13-2.02419E-15
 -1      3701 2.00030E+01 2.13144E-02-1.07682E-04-1.70546E-02-2.87731E-13-1.08654E-13
 -1      3702 1.99999E+01 3.04092E-02 1.40546E-04-2.12694E-02-3.75676E-13-1.91470E-13
 -1      3703 2.00037E+01 1.77170E-02 3.11447E-06-1.40950E-02-3.51434E-13-8.12090E-14
 -1      3704 2.00032E+01 1.47772E-02-7.48105E-05-1.11755E-02-2.99921E-13-9.55263E-14
 -1      3705 2.00016E+01 2.13297E-02 8.64310E-05-1.45176E-02-3.03695E-13 2.09498E-13
 -1      3706 2.00035E+01 1.22113E-02 9.44283E-06-9.02116E-03-2.33209E-13-1.18899E-13
 -1      3707 2.00030E+01 1.01115E-02-5.12024E-05-6.92855E-03-1.70849E-13-3.19548E-14
 -1      3708 2.00024E+01 1.48020E-02 5.07540E-05-9.50425E-03-2.32985E-13 1.37927E-13
 -1      3709 2.00031E+01 8.28235E-03 1.12367E-05-5.39197E-03-2.81619E-14-2.29176E-14
 -1      3710 2.00026E+01 6.78518E-03-3.42874E-05-3.91801E-03-7.04232E-14-5.99654E-14
 -1      3711 2.00026E+01 1.01155E-02 2.82492E-05-5.85557E-03-1.50796E-13 3.53079E-13
 -1      3712 2.00026E+01 5.48499E-03 1.10506E-05-2.84826E-03-1.89959E-13-8.48070E-14
 -1      3713 2.00022E+01 4.42241E-03-2.13898E-05-1.83491E-03-7.06703E-14-6.08399E-14
 -1      3714 2.00024E+01 6.75841E-03 1.38646E-05-3.25818E-03-1.92467E-13 8.11699E-15
 -1      3715 2.00020E+01 3.54350E-03 1.00292E-05-1.14664E-03 1.59002E-14-3.76994E-14
 -1      3716 2.00017E+01 2.81857E-03-1.28893E-05-4.88949E-04 3.83352E-14-1.66594E-13
 -1      3717 2.00021E+01 4.40519E-03 2.76956E-06-1.49246E-03-4.95722E-15-1.15905E-13
 -1      3718 2.00016E+01 2.14777E-03 8.66615E-06-1.39797E-05-2.05154E-13-3.86109E-13
 -1      3719 2.00013E+01 1.60248E-03-7.55314E-06 4.38111E-04-3.76901E-13-3.65798E-13
 -1      3720 2.00017E+01 2.71153E-03-7.16186E-06-2.98280E-04-2.96152E-13-1.24497E-13
 -1      3721 2.00011E+01 1.03883E-03 5.68752E-06 7.53288E-04-4.45788E-13-3.75542E-13
 -1      3722 2.27108E+01 7.72706E-01-2.09359E-02-1.74167E+00-3.53320E-14 1.78296E-13
 -1      3723 2.26209E+01 1.40492E+00 1.29262E-02-1.65145E+00-4.31079E-16 2.23885E-13
 -1      3724 2.28757E+01-3.27621E-01-9.10200E-04 1.38596E+00-2.02159E-14 1.59031E-13
 -1      3725 2.28834E+01-7.37073E-01-5.34041E-04 1.21919E+00 2.82760E-15 1.71427E-13
 -1      3726 2.34950E+01-1.42846E-01 1.05964E-02 1.50980E+00-2.52562E-14 2.26327E-13
 -1      3727 2.21928E+01 2.89631E+00-1.33837E-02-5.97702E-01 1.47534E-13 1.33274E-13
 -1      3728 2.21654E+01 3.02494E+00-6.31981E-03-1.18583E-01 9.06445E-14 1.21428E-13
 -1      3729 2.27901E+01-3.18835E-01-9.03858E-03-1.52636E+00-1.01123E-13 1.25392E-13
 -1      3730 2.27682E+01 1.85223E-01 2.81872E-03-1.63870E+00-7.65982E-14 1.34362E-13
 -1      3731 2.33748E+01 4.63963E-01 9.65712E-03-1.75647E+00-2.71240E-14 1.07854E-13
 -1      3732 2.25872E+01-9.70681E-01 6.70499E-03-1.06314E+00-1.44454E-13 5.23892E-14
 -1      3733 2.26467E+01-7.03465E-01-6.03594E-03-1.25781E+00-1.06678E-13 7.75771E-14
 -1      3734 2.32398E+01-6.50439E-01 2.73471E-03-1.33594E+00-5.82468E-14-7.57124E-14
 -1      3735 2.21666E+01-1.20378E+00 1.31446E-02-5.73680E-01-2.74236E-14 6.74627E-14
 -1      3736 2.22972E+01-1.14476E+00-1.06975E-02-7.67454E-01-1.06057E-13 5.39849E-14
 -1      3737 2.28052E+01-1.28007E+00-1.51329E-02-7.49519E-01-1.04107E-13 7.05192E-15
 -1      3738 2.16660E+01-1.14874E+00 1.36248E-02-1.93765E-01-9.92532E-14 1.03009E-13
 -1      3739 2.18337E+01-1.21557E+00-8.86805E-03-3.45968E-01-3.73501E-14 5.07075E-14
 -1      3740 2.22073E+01-1.42070E+00-2.30235E-02-2.46868E-01-7.06178E-14 1.10062E-13
 -1      3741 2.11910E+01-9.48001E-01 1.10847E-02 4.78325E-02-5.49539E-14 1.07003E-13
 -1      3742 2.13607E+01-1.06840E+00-5.06909E-03-5.31201E-02-3.16028E-14 8.52923E-14
 -1      3743 2.16069E+01-1.26819E+00-2.28681E-02 8.68953E-02-4.71675E-14 2.85423E-14
 -1      3744 2.07979E+01-7.05468E-01 7.97892E-03 1.73669E-01-1.48575E-14 2.77173E-13
 -1      3745 2.09465E+01-8.32861E-01-1.63949E-03 1.16574E-01-5.66188E-14 1.98654E-13
 -1      3746 2.10919E+01-9.92760E-01-1.86624E-02 2.61325E-01-3.66807E-14-9.15489E-15
 -1      3747 2.05011E+01-4.80156E-01 5.20042E-03 2.20759E-01-7.47292E-15 3.12204E-13
 -1      3748 2.06188E+01-5.91249E-01 4.46025E-04 1.94816E-01 3.35602E-14 3.35672E-13
 -1      3749 2.06945E+01-7.04621E-01-1.35357E-02 3.22795E-01-2.13258E-14 1.79065E-13
 -1      3750 2.02926E+01-2.97326E-01 3.07787E-03 2.21498E-01 1.78732E-14 1.64433E-13
 -1      3751 2.03791E+01-3.83707E-01 1.42433E-03 2.15058E-01 5.20270E-14 2.68936E-13
 -1      3752 2.04106E+01-4.56977E-01-9.15979E-03 3.17192E-01 5.55848E-14 1.28753E-13
 -1      3753 2.01553E+01-1.62161E-01 1.64919E-03 1.99058E-01 3.84658E-14 5.81541E-14
 -1      3754 2.02148E+01-2.23888E-01 1.67999E-03 2.03404E-01-2.79918E-14 4.59946E-14
 -1      3755 2.02208E+01-2.66631E-01-5.79321E-03 2.79173E-01 4.52406E-14-3.76434E-14
 -1      3756 2.00704E+01-6.97073E-02 7.46136E-04 1.67850E-01-3.85820E-14 1.02861E-13
 -1      3757 2.01090E+01-1.10603E-01 1.55036E-03 1.77256E-01-1.18345E-15 3.86168E-14
 -1      3758 2.01017E+01-1.32245E-01-3.43594E-03 2.30311E-01 2.49074E-14-1.55954E-13
 -1      3759 2.00216E+01-1.12665E-02 2.16853E-04 1.35764E-01-1.12108E-13 6.37491E-14
 -1      3760 2.00452E+01-3.61819E-02 1.27024E-03 1.46821E-01-1.30363E-15 1.14943E-13
 -1      3761 2.00321E+01-4.41709E-02-1.88055E-03 1.82205E-01-6.24778E-14-8.47425E-14
 -1      3762 1.99964E+01 2.21844E-02-6.60446E-05 1.06614E-01-1.25505E-13-4.58816E-15
 -1      3763 2.00098E+01 8.66577E-03 9.69419E-04 1.17466E-01-1.26376E-13 6.70120E-14
 -1      3764 1.99952E+01 8.89512E-03-9.05547E-04 1.40029E-01-7.17463E-14-9.53732E-14
 -1      3765 1.99854E+01 3.84851E-02-1.97045E-04 8.18457E-02 5.40985E-15-4.38811E-14
 -1      3766 1.99923E+01 3.25739E-02 7.05128E-04 9.16004E-02-3.25101E-14-9.23164E-14
 -1      3767 1.99786E+01 3.72800E-02-3.30191E-04 1.05373E-01-4.20013E-14-1.13466E-13
 -1      3768 1.99827E+01 4.37895E-02-2.40118E-04 6.16468E-02-1.89551E-13 1.06229E-13
 -1      3769 1.99857E+01 4.26101E-02 4.96218E-04 6.99718E-02-8.24167E-14-1.68816E-14
 -1      3770 1.99739E+01 4.93555E-02-1.59176E-05 7.80106E-02-6.47485E-14 2.11684E-14
 -1      3771 1.99840E+01 4.25913E-02-2.36045E-04 4.56213E-02 1.94251E-14 1.73056E-13
 -1      3772 1.99849E+01 4.40989E-02 3.41725E-04 5.24835E-02-7.17162E-14 1.82990E-13
 -1      3773 1.99753E+01 5.13815E-02 1.36039E-04 5.69577E-02-1.53820E-13-3.13614E-14
 -1      3774 1.99872E+01 3.79796E-02-2.09391E-04 3.31585E-02-6.58092E-15 1.41721E-13
 -1      3775 1.99870E+01 4.08016E-02 2.32508E-04 3.86712E-02 5.83047E-14 1.94184E-13
 -1      3776 1.99795E+01 4.77598E-02 1.92522E-04 4.10365E-02-8.51467E-14 2.47504E-13
 -1      3777 1.99907E+01 3.19582E-02-1.74484E-04 2.36203E-02-1.53789E-14 1.99305E-13
 -1      3778 1.99900E+01 3.52262E-02 1.57569E-04 2.79574E-02-6.13631E-14 1.18474E-13
 -1      3779 1.99844E+01 4.14175E-02 1.96480E-04 2.91434E-02-2.43301E-14 1.53689E-13
 -1      3780 1.99938E+01 2.57401E-02-1.39096E-04 1.64224E-02-9.62417E-14 8.16998E-14
 -1      3781 1.99931E+01 2.89453E-02 1.07190E-04 1.97719E-02 3.38356E-14 1.93219E-13
 -1      3782 1.99891E+01 3.41935E-02 1.74875E-04 2.03436E-02-2.23769E-14 1.59702E-13
 -1      3783 1.99964E+01 1.99942E-02-1.07024E-04 1.10651E-02-8.69063E-14-1.32141E-13
 -1      3784 1.99958E+01 2.28696E-02 7.35877E-05 1.36065E-02-5.60694E-14 8.70112E-15
 -1      3785 1.99930E+01 2.71572E-02 1.43386E-04 1.38882E-02 3.06635E-14 1.48348E-13
 -1      3786 1.99983E+01 1.50333E-02-7.98235E-05 7.13579E-03-4.80025E-14-2.02094E-14
 -1      3787 1.99979E+01 1.74672E-02 5.11518E-05 9.02931E-03-1.73061E-13-7.68918E-14
 -1      3788 1.99960E+01 2.08647E-02 1.10749E-04 9.19535E-03-1.12527E-13-6.78093E-14
 -1      3789 1.99996E+01 1.09495E-02-5.77413E-05 4.30123E-03-8.14481E-14-9.77011E-15
 -1      3790 1.99993E+01 1.29242E-02 3.60352E-05 5.68462E-03-6.99470E-15 4.76188E-14
 -1      3791 1.99982E+01 1.55443E-02 8.12793E-05 5.82001E-03-9.91129E-14-7.99837E-14
 -1      3792 2.00004E+01 7.70580E-03-4.10101E-05 2.29624E-03-1.57633E-13-6.42285E-14
 -1      3793 2.00003E+01 9.25713E-03 2.56623E-05 3.28433E-03-1.29269E-13-7.29247E-14
 -1      3794 1.99996E+01 1.12268E-02 5.63070E-05 3.42490E-03-8.75153E-15-2.25440E-13
 -1      3795 2.00008E+01 5.20490E-03-2.72473E-05 9.11687E-04-2.33359E-14-1.25191E-13
 -1      3796 2.00008E+01 6.39436E-03 2.01856E-05 1.60191E-03-1.64817E-13-2.42470E-13
 -1      3797 2.00005E+01 7.82241E-03 3.23505E-05 1.75787E-03-3.72319E-14-2.74486E-13
 -1      3798 2.00009E+01 3.31796E-03-1.54640E-05 4.94625E-06 2.20213E-14 3.70377E-14
 -1      3799 2.00010E+01 4.19844E-03 1.51790E-05 4.55150E-04 2.86305E-14-2.70884E-15
 -1      3800 2.00009E+01 5.20562E-03 1.44458E-05 6.23457E-04-1.61242E-13 3.06576E-14
 -1      3801 1.99119E+01 1.84749E+00 1.76082E-03-3.65765E-01 9.28243E-14-9.63078E-14
 -1      3802 1.98335E+01 1.87752E+00-9.05069E-03-4.27850E-01 7.64629E-14-1.24634E-13
 -1      3803 1.98607E+01 1.69058E+00 8.82501E-03-4.74347E-01 4.61918E-14-9.49422E-14
 -1      3804 2.00188E+01 1.55088E+00 3.86264E-03-3.99657E-01 6.15807E-14-9.17676E-14
 -1      3805 2.00009E+01 8.81265E-04-5.02677E-06-7.14719E-04-3.38569E-14-3.13780E-13
 -1      3806 2.00008E+01 8.64132E-04-2.12021E-06-8.04359E-04 2.38363E-14-1.07893E-13
 -1      3807 2.00009E+01 1.20526E-03 1.42422E-06-7.50866E-04-1.50564E-13 2.43362E-13
 -1      3808 2.00010E+01 1.43890E-03 8.14410E-06-5.99810E-04 1.66798E-14-3.55780E-13
 -1      3809 2.22388E+01 2.90420E+00 4.34296E-03 4.93572E-01 9.66779E-14 2.13497E-13
 -1      3810 2.22893E+01 2.56140E+00-2.75867E-02 9.10490E-01 1.50657E-13 2.43532E-13
 -1      3811 2.27959E+01 3.37202E+00-8.69390E-03 2.41832E-01 1.51158E-13 2.91279E-13
 -1      3812 2.42339E+01-3.28503E+00 5.08084E-02-2.49725E+00-2.11471E-13-3.96393E-14
 -1      3813 2.49271E+01-2.83198E+00-1.55571E-02-1.01713E+00-1.68596E-13 4.39663E-14
 -1      3814 2.38521E+01 3.07508E+00-6.91086E-03 1.40231E+00 6.37719E-14 3.07048E-13
 -1      3815 2.36527E+01 3.99317E+00-5.45058E-02 7.42647E-01 1.59780E-13 2.99312E-13
 -1      3816 2.36543E+01 3.38439E+00-4.18974E-02-1.32479E+00 1.15788E-13 1.98578E-13
 -1      3817 2.40167E+01 2.69840E+00 1.11358E-03-1.75036E+00 7.07975E-14 1.45736E-13
 -1      3818 1.90499E+01 1.36634E+00 5.66482E-03-4.48210E-01 5.13305E-15-1.54626E-13
 -1      3819 1.86916E+01 1.33442E+00-2.06232E-02-5.57828E-01 5.80634E-15-1.56455E-13
 -1      3820 1.88180E+01 1.17165E+00 6.33758E-03-9.51874E-01-1.83590E-14-2.04526E-13
 -1      3821 2.15267E+01-9.35669E-01-6.04724E-03 5.35433E-01 1.46308E-14 7.48282E-14
 -1      3822 2.14530E+01-9.05111E-01 6.75119E-03 3.85688E-01 1.32831E-15 2.59401E-14
 -1      3823 2.19419E+01-1.06739E+00-9.79007E-04 5.33517E-01-3.60940E-14 9.79055E-14
 -1      3824 1.94682E+01 1.47843E+00 8.95765E-03-3.31077E-01 1.85719E-14-1.21837E-13
 -1      3825 1.92169E+01 1.40039E+00-1.45045E-02-3.43506E-01 1.48948E-15-1.28263E-13
 -1      3826 1.92550E+01 1.32370E+00 5.81380E-03-5.97066E-01-3.24681E-15-1.78287E-13
 -1      3827 2.09395E+01-2.23886E+00-8.10339E-02 3.51501E+00-1.31615E-13-3.00935E-13
 -1      3828 1.93116E+01-1.18741E+00 4.29045E-02 3.85660E+00-1.01089E-13-1.66551E-13
 -1      3829 1.74155E+01-3.47627E-01-4.06968E-03-3.92201E+00-1.42584E-13-2.49606E-13
 -1      3830 1.89385E+01-1.44166E+00 4.29637E-02-4.54166E+00-1.95827E-13-2.66544E-13
 -1      3831 2.01345E+01-1.78586E+00-4.49347E-03-3.93361E+00-1.57523E-13-1.72416E-13
 -1      3832 2.36199E+01 4.24364E+00-2.54389E-02 9.86708E-02 1.84920E-13 2.41414E-13
 -1      3833 2.34502E+01 3.88931E+00-8.82886E-03-7.95734E-01 1.59997E-13 2.13873E-13
 -1      3834 2.00013E+01 1.36863E-03-1.39972E-05 5.37359E-04-3.61253E-13-2.26185E-13
 -1      3835 2.25217E+01 2.06898E+00 1.64831E-02 1.33441E+00 9.44895E-14 2.04272E-13
 -1      3836 2.26270E+01 1.43213E+00-2.94086E-02 1.54406E+00 4.02938E-14 1.79125E-13
 -1      3837 2.33960E+01 1.24079E+00 1.71682E-02 1.70999E+00 2.13408E-14 2.04690E-13
 -1      3838 2.30542E+01 2.68432E+00 1.40566E-02 1.27946E+00 1.08022E-13 2.46212E-13
 -1      3839 1.95557E+01 1.55316E+00-5.81997E-03-4.31654E-01 3.05985E-14-1.39411E-13
 -1      3840 2.29784E+01 3.12225E+00-1.40021E-02-9.70940E-01 1.05881E-13 1.69554E-13
 -1      3841 2.00015E+01 1.97925E-03-9.31683E-06-3.87416E-07-2.01492E-13 6.23162E-13
 -1      3842 2.00014E+01 2.09588E-03-1.03301E-05-1.28538E-04-3.14383E-14 3.64517E-13
 -1      3843 2.29637E+01-2.89074E+00-5.30287E-03-2.83401E+00-1.38023E-13-5.40141E-14
 -1      3844 2.39978E+01-2.06180E+00-1.12826E-02 8.43676E-02-1.09570E-13-1.15316E-13
 -1      3845 2.41265E+01-2.47690E+00 2.49450E-02 8.11155E-01-8.04044E-14-1.68220E-13
 -1      3846 2.31133E+01-2.31293E+00-1.57117E-02 1.22963E+00-1.20038E-13-1.21247E-13
 -1      3847 2.16888E+01-2.00270E+00 2.03284E-02 2.61674E+00-1.43241E-13-1.94384E-13
 -1      3848 2.40516E+01-2.55263E+00-2.50065E-02-9.49169E-01-1.33841E-13 3.10186E-14
 -1      3849 2.50159E+01-2.45845E+00-1.50504E-03-2.36189E-01-1.21262E-13 9.13831E-14
 -1      3850 2.46440E+01-1.76849E+00 1.68517E-02 4.54113E-01-7.14021E-14 1.55386E-13
 -1      3851 1.96030E+01 1.53502E+00-6.26120E-03-4.84046E-01 2.82138E-14-1.17878E-13
 -1      3852 1.81358E+01 1.19626E-01 2.31882E-03-2.90821E+00-8.57743E-14-2.10105E-13
 -1      3853 1.71970E+01 5.40041E-01 1.91311E-02-2.82658E+00-7.41930E-14-1.91382E-13
 -1      3854 2.00014E+01 2.20290E-03-6.28096E-06-1.97443E-04-2.78025E-14 1.10410E-13
 -1      3855 2.00013E+01 2.23785E-03-9.38028E-06-2.91439E-04 1.85100E-13 1.07575E-13
 -1      3856 2.00015E+01 2.86932E-03 1.89180E-05-2.38574E-04-9.72366E-14 1.98377E-13
 -1      3857 2.40085E+01 1.74467E+00-3.48756E-02-1.88085E+00-1.10449E-14 1.36481E-13
 -1      3858 2.39565E+01 9.28894E-01 1.15307E-02-1.87617E+00 2.10682E-15 4.24550E-14
 -1      3859 1.54738E+01 1.46731E+00-1.37474E-02 2.14944E+00-2.60611E-13 4.14935E-13
 -1      3860 1.64115E+01 1.51783E+00 2.05924E-02 1.63888E+00-2.76876E-13 4.22747E-13
 -1      3861 1.61465E+01 8.56059E-01 6.52358E-03 2.99840E+00-1.12720E-13 1.49958E-13
 -1      3862 2.32509E+01-1.08514E+00-1.14997E-02 9.62983E-01-1.64872E-14 2.44403E-13
 -1      3863 2.26823E+01-1.02546E+00-8.95760E-03 9.13335E-01-2.60128E-14 1.39265E-13
 -1      3864 2.26184E+01-1.18004E+00 1.61808E-02 7.10597E-01-3.87880E-14 1.27992E-13
 -1      3865 2.24356E+01 2.58358E+00 7.93029E-03-1.14169E+00 1.24244E-13 2.09925E-13
 -1      3866 2.11001E+01-5.01283E-01-2.56148E-03-2.25101E-01 5.62198E-14 4.77839E-14
 -1      3867 2.09851E+01-2.87365E-01 8.14838E-03-2.27268E-01 6.45957E-14 3.87371E-14
 -1      3868 2.00010E+01 2.30159E-03-6.63711E-06-4.44821E-04-2.97991E-13 3.45897E-13
 -1      3869 2.00010E+01 2.79955E-03 1.07171E-05-2.29575E-04-8.30520E-14 8.24802E-14
 -1      3870 2.00011E+01 3.47825E-03-7.50069E-07-7.20011E-05-2.14255E-13 4.07295E-13
 -1      3871 2.25340E+01 2.04924E+00-2.47250E-02-1.47163E+00 2.48191E-14 2.38291E-13
 -1      3872 2.32711E+01 1.90938E+00-5.42758E-04-1.71000E+00-7.24421E-15 2.03545E-13
 -1      3873 2.39850E+01 2.21021E+00-6.33245E-02 1.77468E+00 2.02095E-15 2.47759E-13
 -1      3874 2.44695E+01 1.25307E-01-9.29198E-03-1.71640E+00 4.27241E-14-1.14114E-13
 -1      3875 2.51394E+01-5.88597E-01 7.27981E-03-1.45197E+00 5.63698E-15-5.76969E-14
 -1      3876 2.45893E+01-1.13763E+00 1.00381E-02-1.02939E+00-3.61046E-14-7.73496E-14
 -1      3877 2.38341E+01 4.10476E-01-9.84243E-03-1.72679E+00 2.28263E-14 7.92231E-14
 -1      3878 2.51306E+01-3.17439E-01 2.12689E-02 1.52496E+00 8.69617E-15 2.30326E-13
 -1      3879 2.41367E+01 1.39192E+00-1.67441E-02 1.77777E+00 3.35669E-14 2.02445E-13
 -1      3880 2.08297E+01-6.94058E-02-1.98332E-03-1.92563E-01 1.02035E-13 1.17042E-14
 -1      3881 2.07459E+01 1.69164E-01 8.78478E-03-1.43048E-01 1.13512E-13-6.35586E-15
 -1      3882 2.09093E+01-1.64322E-01-8.15296E-03-3.22802E-01 6.42233E-14 5.55906E-15
 -1      3883 1.92291E+01-6.96252E-01 3.91092E-02 3.19808E+00-7.73558E-14-2.15871E-13
 -1      3884 1.80139E+01-5.60902E-01-3.66191E-02 3.79294E+00-1.12474E-13-3.52964E-14
 -1      3885 2.00011E+01 2.18002E-03-4.62806E-06-4.37804E-04-4.42336E-14-1.08883E-13
 -1      3886 2.00010E+01 2.06840E-03-1.08582E-06-4.99230E-04-1.47811E-13 6.19890E-14
 -1      3887 2.00013E+01 2.22498E-03-7.23902E-06-3.34252E-04 2.33308E-13 1.03087E-13
 -1      3888 2.00012E+01 2.18402E-03-7.28690E-06-4.18008E-04 3.20971E-13-2.16804E-13
 -1      3889 2.00014E+01 2.95440E-03 1.56497E-05-3.06610E-04 2.52339E-13-4.32968E-14
 -1      3890 2.00014E+01 1.63811E-03-3.67084E-06 3.79172E-04-4.11065E-13 1.55829E-13
 -1      3891 2.00015E+01 1.79245E-03-1.58308E-05 2.29542E-04-4.97564E-13 4.77057E-13
 -1      3892 2.00017E+01 2.35013E-03 2.41024E-05 2.27358E-05-2.99251E-13 1.17680E-13
 -1      3893 2.05967E+01 4.56042E-01-3.69436E-03-6.55041E-02 1.22056E-13-1.40190E-14
 -1      3894 2.04818E+01 8.79726E-01 4.01055E-03 7.26529E-02 1.19641E-13-2.59530E-14
 -1      3895 1.68964E+01 2.83255E-01 6.92596E-03 3.40565E+00-9.48985E-14-5.04284E-15
 -1      3896 2.15896E+01-9.91112E-01-4.79560E-03 1.97251E-01-4.64555E-15 7.12417E-14
 -1      3897 2.03344E+01 1.04318E+00-7.31989E-04-2.91717E-01 8.36400E-14-7.07500E-14
 -1      3898 2.02335E+01 1.14118E+00-3.45470E-03-3.80855E-01 5.76923E-14-9.05700E-14
 -1      3899 2.14490E+01-8.81493E-01-3.92067E-03-1.45455E-01 2.18376E-14 4.55680E-14
 -1      3900 2.13050E+01-6.95071E-01 9.92636E-03-2.05846E-01 5.49030E-14 5.34089E-14
 -1      3901 2.12442E+01-6.33684E-01-8.93736E-03-3.61374E-01 4.64828E-14 4.29666E-14
 -1      3902 2.04443E+01 9.39133E-01-7.57882E-04-1.60636E-02 1.27387E-13-7.93531E-14
 -1      3903 2.00012E+01 2.92913E-03 1.22310E-05-3.17484E-04 1.69782E-14 1.39688E-13
 -1      3904 2.06449E+01 3.91926E-01-5.35064E-03-1.88937E-01 1.02873E-13-5.20049E-14
 -1      3905 2.20475E+01-2.32196E+00 6.06089E-02-3.15243E+00-1.20086E-13-5.61790E-14
 -1      3906 2.30303E+01-2.56065E+00-1.99591E-02-2.10909E+00-1.12367E-13-4.95567E-14
 -1      3907 1.87482E+01 2.32338E-01 6.65841E-03-2.34073E+00-7.77442E-14-1.64035E-13
 -1      3908 1.92675E+01-5.83825E-01 2.72041E-02-3.17360E+00-1.25951E-13-1.71528E-13
 -1      3909 1.60534E+01 1.02619E+00 1.08061E-02-2.70798E+00-7.51925E-14-1.57211E-13
 -1      3910 2.00009E+01 1.56097E-03 1.62967E-06-6.39565E-04-2.01424E-13 1.60051E-13
 -1      3911 2.00012E+01 3.59602E-03-4.89505E-06-2.29131E-04 4.85808E-15 1.76000E-14
 -1      3912 2.00011E+01 3.57785E-03-1.18459E-05-1.87824E-04-2.67067E-13 3.05921E-13
 -1      3913 2.00011E+01 4.25806E-03 3.16534E-06 6.19019E-05-1.36386E-13 2.07981E-13
 -1      3914 2.30739E+01-1.73075E+00 2.75450E-02-8.39197E-03-1.48674E-13-1.40074E-13
 -1      3915 2.33407E+01-1.66483E+00-5.37386E-03-2.97985E-01-1.47261E-13-1.33190E-13
 -1      3916 1.77255E+01 1.29085E+00-2.07830E-02 6.96690E-01 4.83962E-14 2.26097E-13
 -1      3917 1.81970E+01 1.18709E+00 2.71946E-03 5.01921E-01 6.09226E-14 3.37556E-13
 -1      3918 1.84628E+01 1.06103E+00-1.63238E-02 3.03490E-01-1.02059E-13 3.64681E-13
 -1      3919 1.87874E+01 9.47312E-01 5.09360E-04 2.00411E-01 7.81059E-15 3.35903E-13
 -1      3920 1.84601E+01 9.93505E-01 1.36131E-02 6.91000E-01 4.32603E-14 5.35441E-14
 -1      3921 1.89835E+01 8.28986E-01-1.07840E-02 8.42136E-02-2.42207E-14 2.73984E-13
 -1      3922 1.91987E+01 7.26737E-01-5.41073E-04 3.53464E-02-1.56918E-14 2.30048E-13
 -1      3923 1.89358E+01 8.21105E-01 9.94377E-03 3.42610E-01-7.72194E-14 1.50364E-13
 -1      3924 1.93386E+01 6.27914E-01-6.88305E-03-2.79067E-02 1.05393E-13 1.35928E-13
 -1      3925 1.94785E+01 5.43692E-01-9.75403E-04-4.58207E-02 1.45920E-13 8.22218E-14
 -1      3926 1.92783E+01 6.48022E-01 7.01356E-03 1.40114E-01-7.81580E-14 2.88259E-13
 -1      3927 1.95762E+01 4.66016E-01-4.21425E-03-7.73052E-02 2.43366E-13-4.67832E-14
 -1      3928 1.96654E+01 4.00190E-01-1.10239E-03-7.89356E-02 2.56619E-13 1.62300E-14
 -1      3929 1.95187E+01 4.96478E-01 4.95019E-03 2.95005E-02 7.27619E-14 9.44225E-14
 -1      3930 1.97294E+01 3.43927E-01-2.55254E-03-9.16112E-02 8.62084E-14-9.89668E-14
 -1      3931 1.97835E+01 2.96376E-01-9.93020E-04-8.59588E-02 4.39785E-14-1.95955E-13
 -1      3932 1.96805E+01 3.76255E-01 3.61811E-03-2.50342E-02 1.29679E-13-3.42622E-13
 -1      3933 1.98297E+01 2.52259E-01-1.49480E-03-8.92510E-02 3.70130E-14-2.18224E-13
 -1      3934 1.98653E+01 2.14943E-01-7.83110E-04-8.03782E-02-7.04699E-14-1.97259E-13
 -1      3935 1.97903E+01 2.81142E-01 2.37327E-03-4.80234E-02 5.23583E-14-4.40802E-13
 -1      3936 1.98960E+01 1.82586E-01-8.59595E-04-7.84356E-02-1.68336E-13-1.69332E-13
 -1      3937 1.99177E+01 1.55373E-01-6.16996E-04-6.90630E-02-6.65086E-14-2.86073E-13
 -1      3938 1.98659E+01 2.07210E-01 1.60234E-03-5.40516E-02-1.13229E-13-2.95317E-13
 -1      3939 1.99380E+01 1.31914E-01-4.53082E-04-6.48420E-02-2.79062E-15-2.88623E-13
 -1      3940 1.99509E+01 1.12107E-01-4.75866E-04-5.62149E-02-1.26628E-13-2.20576E-13
 -1      3941 1.99157E+01 1.51883E-01 1.05686E-03-5.09037E-02-7.95195E-14-4.37894E-13
 -1      3942 1.99642E+01 9.51539E-02-2.16208E-04-5.13589E-02-1.08074E-13-2.50685E-13
 -1      3943 1.99718E+01 8.07612E-02-3.60506E-04-4.39711E-02-1.07597E-13-1.80539E-13
 -1      3944 1.99481E+01 1.10916E-01 6.87572E-04-4.37490E-02-3.37722E-14-2.54709E-13
 -1      3945 1.99804E+01 6.85244E-02-7.79907E-05-3.93236E-02-2.06551E-13-2.07667E-13
 -1      3946 1.99847E+01 5.80649E-02-2.63550E-04-3.32859E-02-5.89037E-14-2.32942E-13
 -1      3947 1.99690E+01 8.07066E-02 4.38189E-04-3.54540E-02-1.95798E-13-4.59817E-13
 -1      3948 1.99900E+01 4.96039E-02-1.07376E-05-2.94274E-02-7.34294E-14-1.50440E-13
 -1      3949 1.99923E+01 4.22836E-02-1.94282E-04-2.48332E-02-2.89055E-13-2.35143E-13
 -1      3950 1.99821E+01 5.89475E-02 2.78047E-04-2.76764E-02-9.65626E-14-2.33834E-13
 -1      3951 1.99958E+01 3.57369E-02 2.14962E-05-2.14268E-02-3.47031E-13-1.36130E-13
 -1      3952 1.99970E+01 3.00933E-02-1.44522E-04-1.76794E-02-3.92378E-13 4.11793E-14
 -1      3953 1.99905E+01 4.28629E-02 1.79661E-04-2.08435E-02-2.41484E-13-1.29484E-13
 -1      3954 1.99992E+01 2.53419E-02 3.24019E-05-1.49811E-02-3.08518E-13-2.52085E-16
 -1      3955 1.99998E+01 2.12377E-02-1.03061E-04-1.21471E-02-2.28398E-13 8.63716E-14
 -1      3956 1.99958E+01 3.06748E-02 1.13500E-04-1.50293E-02-2.67285E-13 2.20322E-14
 -1      3957 2.00011E+01 1.77862E-02 3.51762E-05-1.00718E-02-1.80085E-13 2.04100E-13
 -1      3958 2.00012E+01 1.48016E-02-7.28230E-05-7.97311E-03-9.66477E-14 3.22025E-13
 -1      3959 1.99989E+01 2.17226E-02 6.94957E-05-1.04180E-02-2.11156E-13 1.03459E-13
 -1      3960 2.00019E+01 1.23003E-02 3.24988E-05-6.42244E-03-1.40551E-13 2.35392E-13
 -1      3961 2.00019E+01 1.01376E-02-5.06383E-05-4.90132E-03-2.91390E-13 2.29129E-13
 -1      3962 2.00007E+01 1.51693E-02 4.12885E-05-6.88072E-03-1.38730E-13 4.28381E-13
 -1      3963 2.00022E+01 8.33272E-03 2.79712E-05-3.77432E-03-2.60742E-13 2.28969E-13
 -1      3964 2.00021E+01 6.77524E-03-3.31209E-05-2.69991E-03-2.70213E-13 2.15672E-13
 -1      3965 2.00016E+01 1.03922E-02 2.28792E-05-4.24699E-03-3.52684E-13 4.29358E-13
 -1      3966 2.00022E+01 5.54013E-03 2.36459E-05-1.94251E-03-1.06169E-13-2.91701E-14
 -1      3967 2.00020E+01 4.47468E-03-1.63077E-05-1.23697E-03-5.03062E-14-1.08347E-13
 -1      3968 2.00019E+01 6.99191E-03 8.07975E-06-2.38042E-03-3.42682E-13 4.21883E-13
 -1      3969 2.00020E+01 3.74126E-03 2.26523E-05-7.91649E-04-9.95169E-14-8.45206E-14
 -1      3970 2.00018E+01 2.91726E-03-4.64572E-06-2.94510E-04-2.34602E-13 3.28212E-14
 -1      3971 2.00018E+01 3.20778E-03-2.23187E-05-3.97185E-04-2.18637E-13 1.96214E-13
 -1      3972 2.00019E+01 4.74430E-03-1.08590E-05-1.17288E-03-5.13527E-14-5.82859E-14
 -1      3973 2.42338E+01-4.07689E-01-1.39507E-02 1.42183E+00 2.05478E-15 2.07438E-13
 -1      3974 2.42066E+01-1.00966E+00-3.33769E-03 1.18174E+00-1.89013E-14 2.25904E-13
 -1      3975 2.04135E+01 9.88479E-01 7.06196E-04-1.14907E-01 1.14915E-13-8.53183E-14
 -1      3976 2.38337E+01-3.07650E-01-2.20949E-02-1.59988E+00 8.11222E-15-1.64994E-14
 -1      3977 2.22119E+01-1.54528E+00 2.86665E-02 4.17302E-01-6.70351E-14-9.31460E-14
 -1      3978 2.25209E+01-1.64266E+00 6.18205E-03 2.15137E-01-1.08891E-13-1.07468E-13
 -1      3979 2.27683E+01-2.02411E+00-2.93885E-02 7.78448E-01-1.70315E-13-2.63612E-13
 -1      3980 2.14663E+01-1.19383E+00 2.18527E-02 5.97148E-01-4.00558E-14-6.53420E-14
 -1      3981 2.17571E+01-1.35618E+00 1.08823E-02 4.92234E-01-3.54447E-14-1.17056E-13
 -1      3982 2.17658E+01-1.61877E+00-3.77293E-02 1.01535E+00-5.66357E-14-1.84202E-13
 -1      3983 2.09004E+01-8.33870E-01 1.38633E-02 6.14630E-01-5.43543E-14-2.61163E-14
 -1      3984 2.11422E+01-9.95180E-01 1.24136E-02 5.78029E-01-3.04138E-14-7.63346E-14
 -1      3985 2.10325E+01-1.13443E+00-3.14997E-02 9.97310E-01-6.81751E-14-4.26727E-14
 -1      3986 2.05077E+01-5.29418E-01 8.13471E-03 5.45680E-01 2.51760E-14-4.07913E-14
 -1      3987 2.06885E+01-6.63252E-01 1.11435E-02 5.49696E-01-2.59686E-14-2.82974E-14
 -1      3988 2.05405E+01-7.06606E-01-2.06892E-02 8.57147E-01-2.84958E-14-6.47676E-14
 -1      3989 2.02523E+01-2.99746E-01 4.08382E-03 4.46205E-01 3.93403E-14-1.15904E-13
 -1      3990 2.03778E+01-4.00110E-01 8.52160E-03 4.70466E-01 9.20173E-14-8.78024E-14
 -1      3991 2.02379E+01-3.93079E-01-1.28841E-02 6.80335E-01 6.05466E-14-1.62985E-13
 -1      3992 2.00978E+01-1.40754E-01 1.69747E-03 3.45740E-01 8.28932E-14-2.08588E-13
 -1      3993 2.01798E+01-2.09981E-01 6.15082E-03 3.76463E-01 3.28783E-14-1.79634E-13
 -1      3994 2.00621E+01-1.78334E-01-7.34887E-03 5.10440E-01 8.68581E-14-1.72178E-13
 -1      3995 2.00114E+01-3.84355E-02 3.64559E-04 2.58293E-01 1.50757E-14-2.51029E-13
 -1      3996 2.00615E+01-8.27782E-02 4.13714E-03 2.88233E-01 7.61793E-14-1.63444E-13
 -1      3997 1.99699E+01-4.43698E-02-4.04934E-03 3.68512E-01 5.70801E-14-9.71287E-14
 -1      3998 1.99685E+01 2.19774E-02-2.97749E-04 1.87938E-01-3.44084E-14-1.22468E-13
 -1      3999 1.99969E+01-3.97637E-03 2.63295E-03 2.13906E-01-1.27393E-13-1.93172E-13
 -1      4000 1.99288E+01 3.31238E-02-1.99597E-03 2.58248E-01-3.15371E-14 4.41013E-14
 -1      4001 1.99519E+01 5.33513E-02-5.63384E-04 1.34133E-01-1.11889E-13-2.65454E-14
 -1      4002 1.99662E+01 4.01244E-02 1.58080E-03 1.55216E-01 1.84328E-14-4.52463E-15
 -1      4003 1.99174E+01 7.23749E-02-7.81968E-04 1.76810E-01-9.44944E-14 7.52673E-14
 -1      4004 1.99500E+01 6.58278E-02-6.15738E-04 9.43768E-02 1.45181E-14-1.06729E-13
 -1      4005 1.99558E+01 6.08653E-02 8.83764E-04 1.10803E-01-8.30855E-14-6.85447E-14
 -1      4006 1.99216E+01 8.72666E-02-1.18404E-04 1.18860E-01-3.48266E-14 5.20709E-14
 -1      4007 1.99553E+01 6.68242E-02-5.66292E-04 6.56753E-02-1.96825E-13 8.37387E-15
 -1      4008 1.99564E+01 6.68594E-02 4.46278E-04 7.81390E-02-5.12741E-14 7.83089E-14
 -1      4009 1.99329E+01 8.77010E-02 2.07317E-04 7.87517E-02-1.79991E-13-1.08477E-14
 -1      4010 1.99636E+01 6.14703E-02-4.77466E-04 4.52756E-02-1.74663E-13-1.68956E-14
 -1      4011 1.99623E+01 6.42400E-02 1.86614E-04 5.45709E-02-2.21876E-13-9.64251E-15
 -1      4012 1.99463E+01 8.03185E-02 3.36233E-04 5.15633E-02-1.88942E-13-2.00622E-14
 -1      4013 1.99723E+01 5.31347E-02-3.81460E-04 3.09204E-02-1.28134E-13-2.43786E-15
 -1      4014 1.99700E+01 5.71537E-02 4.30243E-05 3.77751E-02-1.38824E-13-4.54437E-14
 -1      4015 1.99593E+01 6.93723E-02 3.57527E-04 3.34162E-02-1.43346E-13-1.32334E-13
 -1      4016 1.99801E+01 4.39181E-02-2.93348E-04 2.08865E-02 2.81512E-14-8.66908E-14
 -1      4017 1.99777E+01 4.82602E-02-2.86092E-05 2.59020E-02-5.10795E-14-6.82610E-14
 -1      4018 1.99707E+01 5.74520E-02 3.27935E-04 2.14422E-02 1.00944E-14-3.76537E-13
 -1      4019 1.99866E+01 3.50333E-02-2.18953E-04 1.38994E-02 6.90916E-14-9.18786E-14
 -1      4020 1.99844E+01 3.91699E-02-5.73726E-05 1.75466E-02 5.46563E-14-5.70684E-14
 -1      4021 1.99799E+01 4.60296E-02 2.75987E-04 1.36037E-02 4.81546E-14-2.66323E-13
 -1      4022 1.99916E+01 2.71069E-02-1.59180E-04 9.05010E-03 3.11030E-14-2.21068E-13
 -1      4023 1.99899E+01 3.07683E-02-6.29315E-05 1.16865E-02 1.21177E-14-1.24398E-13
 -1      4024 1.99870E+01 3.58493E-02 2.19159E-04 8.49623E-03 4.39513E-14-1.62929E-13
 -1      4025 1.99953E+01 2.03932E-02-1.12780E-04 5.69709E-03-1.56359E-13-2.83780E-13
 -1      4026 1.99940E+01 2.34757E-02-5.69234E-05 7.58925E-03-1.01054E-13-2.90404E-13
 -1      4027 1.99923E+01 2.72092E-02 1.66430E-04 5.17892E-03-6.46833E-14-1.99844E-13
 -1      4028 1.99979E+01 1.49221E-02-7.76493E-05 3.39199E-03-5.26079E-14-2.17374E-13
 -1      4029 1.99970E+01 1.74212E-02-4.62667E-05 4.73710E-03-1.49163E-13-2.49519E-13
 -1      4030 1.99960E+01 2.01386E-02 1.21502E-04 3.02894E-03-2.05420E-13-9.15937E-14
 -1      4031 1.99996E+01 1.05977E-02-5.17862E-05 1.82054E-03-3.83819E-14-1.23657E-13
 -1      4032 1.99990E+01 1.25647E-02-3.45343E-05 2.76531E-03-5.30901E-14-8.28076E-14
 -1      4033 1.99985E+01 1.45192E-02 8.51726E-05 1.63907E-03-1.61766E-13 8.99811E-14
 -1      4034 2.00005E+01 7.27396E-03-2.98576E-05 7.78020E-04-1.85115E-13 1.68635E-13
 -1      4035 2.00002E+01 8.78617E-03-1.96014E-05 1.41663E-03-7.09582E-14 9.87810E-14
 -1      4036 2.00000E+01 1.01523E-02 5.32653E-05 7.50134E-04-2.08759E-13 3.67954E-13
 -1      4037 2.00010E+01 5.05051E-03-1.72505E-05 1.95376E-04-2.41521E-13 2.44340E-13
 -1      4038 2.00008E+01 6.22813E-03-9.80708E-06 6.27586E-04-2.93641E-13 1.68150E-13
 -1      4039 2.00008E+01 7.21524E-03 3.55372E-05 2.82720E-04-2.50043E-13 4.46231E-13
 -1      4040 2.00011E+01 5.19381E-03 5.71673E-06 1.89998E-05-2.09845E-13 1.34131E-13
 -1      4041 2.42541E+01 5.06060E-01-3.43552E-02 1.80861E+00 1.92201E-14 2.24978E-13
 -1      4042 2.09653E+01-2.27858E-01 1.07886E-03-4.80957E-01 5.33584E-14-4.92140E-16
 -1      4043 2.08297E+01 2.97518E-02 7.81283E-03-4.29495E-01 7.31759E-14 6.13686E-16
 -1      4044 1.97875E+01-1.04304E+00-4.42961E-02 2.85780E+00-1.24777E-13-3.19951E-13
 -1      4045 1.88569E+01-3.00959E-01 3.47239E-03 2.75565E+00-1.87737E-13-2.38721E-13
 -1      4046 1.90514E+01 6.95893E-01 2.04148E-02-1.51111E+00-2.26721E-14-1.75219E-13
 -1      4047 1.87270E+01 5.21907E-01-6.34008E-03-1.91680E+00-6.23772E-14-1.75743E-13
 -1      4048 1.95520E+01-1.38624E-01-1.93588E-02-2.17571E+00-7.19403E-14-1.07000E-13
 -1      4049 2.20321E+01-2.09295E+00-4.13933E-02 1.95476E+00-1.54819E-13-1.09009E-13
 -1      4050 2.09197E+01-1.48088E+00 3.66139E-02 2.62314E+00-1.51847E-13-2.74507E-13
 -1      4051 1.93239E+01 9.80460E-01 1.18618E-02-9.74114E-01-2.08300E-14-1.41238E-13
 -1      4052 1.90616E+01 8.48398E-01-1.19529E-02-1.22058E+00-1.30443E-14-1.55545E-13
 -1      4053 1.95366E+01 4.37869E-01-7.25694E-03-1.48537E+00-2.56360E-14-1.17606E-13
 -1      4054 1.74380E+01 5.63028E-01 3.34095E-02 2.70584E+00-2.49205E-13 1.52077E-14
 -1      4055 1.67872E+01 1.45422E+00-2.23744E-02 1.26185E+00-1.83898E-13 3.56154E-13
 -1      4056 1.74208E+01 1.39887E+00 7.22447E-03 9.53793E-01-3.85951E-14 2.67696E-13
 -1      4057 1.78584E+01 1.10238E+00 1.16525E-02 1.19649E+00-2.95842E-14 2.75903E-14
 -1      4058 1.71179E+01 1.10990E+00 7.46209E-03 1.88500E+00-2.85517E-13 1.74911E-13
 -1      4059 2.00015E+01 1.86255E-03-1.01190E-05 1.78301E-04-4.31736E-13 2.97578E-13
 -1      4060 2.00015E+01 1.98748E-03-1.04720E-05 4.05948E-05-3.10652E-13 3.61927E-13
 -1      4061 2.00016E+01 2.77077E-03 2.38648E-05-1.70717E-04-1.62069E-13 4.54994E-13
 -1      4062 2.00017E+01 2.71937E-03 2.66881E-05-1.33047E-04-4.43550E-13 1.58593E-13
 -1      4063 2.23061E+01-1.26919E+00-1.14486E-02 4.23205E-01-7.36954E-15 1.00782E-13
 -1      4064 2.21663E+01-1.23834E+00 1.22086E-02 2.44249E-01-1.41898E-14 8.60976E-14
 -1      4065 2.27950E+01-1.46086E+00-1.93674E-02 3.96518E-01-4.65966E-14 1.18516E-13
 -1      4066 2.04667E+01 7.86734E-01 4.22931E-03-2.58477E-01 8.96727E-14-6.19079E-14
 -1      4067 2.02460E+01 9.52172E-01-9.36256E-05-5.10442E-01 2.76288E-14-7.40751E-14
 -1      4068 2.01250E+01 1.25992E+00 3.34292E-03-4.61187E-01 4.89804E-14-8.74200E-14
 -1      4069 2.00119E+01 1.33399E+00-4.86003E-03-5.17030E-01 3.17102E-14-8.36089E-14
 -1      4070 2.05776E+01-1.65869E+00-2.11904E-02-3.27183E+00-1.33843E-13-1.28400E-13
 -1      4071 2.18661E+01-1.16771E+00-6.85199E-03 6.48769E-02-6.02396E-14 7.96256E-14
 -1      4072 2.17038E+01-1.03383E+00 1.05407E-02-5.76671E-02-3.88607E-14 6.95614E-14
 -1      4073 2.21976E+01-1.37118E+00-1.97546E-02-2.91427E-02-3.02644E-14 1.01321E-13
 -1      4074 1.95741E+01 1.24770E+00 1.27828E-02-6.49361E-01 5.01059E-15-1.21567E-13
 -1      4075 1.93657E+01 1.10855E+00-1.16887E-02-7.86298E-01-1.45235E-14-1.45055E-13
 -1      4076 1.96418E+01 8.52817E-01-6.90499E-04-9.98352E-01-2.50097E-14-9.14027E-14
 -1      4077 1.97229E+01 1.36662E+00-6.93280E-03-6.15820E-01 5.16522E-15-9.43884E-14
 -1      4078 2.39275E+01-1.51349E+00-5.77208E-03 6.21645E-01-6.14721E-14 1.93518E-13
 -1      4079 2.05915E+01 4.50179E-01-4.30517E-04-3.64642E-01 7.36474E-14-3.68652E-14
 -1      4080 2.05799E+01 3.85871E-01-6.06290E-03-5.16652E-01 4.89566E-14-2.34235E-14
 -1      4081 2.08200E+01-1.28746E+00-9.30013E-04-2.61949E+00-1.30854E-13-8.27695E-14
 -1      4082 2.39073E+01-1.43697E+00 1.25113E-02-7.68700E-01-9.42675E-14-1.00325E-13
 -1      4083 2.35904E+01-2.52578E+00 1.98909E-02-1.45981E+00-1.24958E-13-3.45572E-14
 -1      4084 2.36521E+01-2.25056E+00-1.19795E-02-7.03632E-01-9.44813E-14 3.88372E-14
 -1      4085 2.25853E+01-2.19470E+00-1.93240E-02-1.84733E+00-8.38510E-14-4.86286E-14
 -1      4086 2.00015E+01 3.58215E-03-1.20397E-05-3.32150E-04-1.31443E-13 1.89282E-13
 -1      4087 2.00014E+01 3.70247E-03-1.05656E-05-3.50250E-04 1.16877E-14 1.99407E-14
 -1      4088 2.00013E+01 3.62506E-03-8.11433E-06-2.86153E-04 8.31845E-14-4.21271E-14
 -1      4089 2.00012E+01 4.42242E-03 1.79573E-05-1.84009E-04-3.70949E-14 1.31058E-13
 -1      4090 2.00011E+01 5.18368E-03-1.52662E-05-6.50583E-05-1.00749E-13 1.94670E-13
 -1      4091 2.00013E+01 3.62915E-03-1.25654E-05-2.86929E-04 1.05123E-13 4.46735E-14
 -1      4092 2.00016E+01 3.64659E-03-1.45099E-05-4.07232E-04-2.58771E-13 2.71868E-13
 -1      4093 2.00016E+01 3.64902E-03-1.03560E-05-3.96592E-04-1.73881E-13 3.60201E-13
 -1      4094 2.00016E+01 4.66192E-03 3.16258E-05-5.68510E-04-1.39963E-13 1.29995E-13
 -1      4095 2.37503E+01-1.73418E+00 2.71419E-02 3.06884E-01-6.96517E-14 1.59738E-13
 -1      4096 2.40754E+01-1.02870E+00-7.12171E-03-1.07961E+00-4.50560E-14-7.20962E-14
 -1      4097 1.98441E+01 1.29961E+00-6.39707E-04-6.16876E-01 1.69019E-14-1.04891E-13
 -1      4098 2.05333E+01-1.07221E+00 2.49972E-02 2.26132E+00-1.57950E-13-3.01784E-13
 -1      4099 1.89595E+01-1.68035E-02 2.32030E-02 2.24785E+00-2.44092E-13-1.71659E-13
 -1      4100 1.81672E+01 1.91887E-01-1.46798E-02 2.55047E+00-2.53740E-13-1.92551E-13
 -1      4101 2.26504E+01-2.05909E+00 3.46225E-02 1.35637E+00-1.72201E-13-1.30467E-13
 -1      4102 2.18349E+01-1.73232E+00-6.34271E-03 1.50576E+00-1.67408E-13-1.82668E-13
 -1      4103 2.06318E+01 1.80188E-01 1.12532E-03-6.95107E-01 3.71430E-14-8.40501E-15
 -1      4104 2.04076E+01 6.31359E-01 6.36716E-03-6.06573E-01 2.36229E-14-7.37476E-14
 -1      4105 1.75067E+01 7.45929E-01-6.18744E-03 2.16592E+00-2.87594E-13 7.08083E-14
 -1      4106 2.16723E+01-1.04959E+00-1.17896E-02-2.74693E-01-2.99927E-14 6.71284E-14
 -1      4107 2.11597E+01-4.75415E-01 9.74610E-03-5.39062E-01 2.77347E-14 3.12866E-15
 -1      4108 2.09919E+01-3.32024E-01-1.07063E-02-6.64362E-01 2.77835E-14 3.93195E-14
 -1      4109 2.13435E+01-7.27841E-01-2.49514E-04-5.47477E-01 2.36680E-14 1.23017E-14
 -1      4110 2.02556E+01 7.40641E-01-9.57022E-04-6.72908E-01 3.47568E-15-6.94761E-14
 -1      4111 2.32489E+01-1.84187E+00 1.27669E-03-1.96470E-01-7.32647E-14 1.30529E-13
 -1      4112 2.29348E+01-1.78685E+00 2.24360E-02-4.51056E-01-6.56059E-14 1.31388E-13
 -1      4113 1.99205E+01 7.96760E-01 8.61657E-03-8.98108E-01 8.50177E-16-8.99915E-14
 -1      4114 1.98447E+01 5.79168E-01-8.26327E-03-1.09098E+00-1.24831E-14-7.97738E-14
 -1      4115 2.00017E+01 3.43689E-03-1.08247E-05-4.16875E-04-2.10528E-13 1.71842E-13
 -1      4116 2.00017E+01 3.50435E-03-1.31017E-05-4.22724E-04-1.64090E-13 1.32387E-13
 -1      4117 2.00017E+01 4.56976E-03 1.80654E-05-6.95920E-04-1.63328E-13 2.85625E-13
 -1      4118 2.00019E+01 4.20014E-03 2.27849E-05-7.53216E-04-5.90242E-14 1.74690E-13
 -1      4119 1.99314E+01 1.03073E+00-1.33396E-03-7.01564E-01 6.96383E-16-9.20605E-14
 -1      4120 2.14373E+01-1.40940E+00 2.32785E-02 1.48179E+00-8.29532E-14-1.66693E-13
 -1      4121 1.89025E+01 6.97086E-01-1.38273E-02 5.62531E-01-2.23808E-14-4.25674E-14
 -1      4122 1.91276E+01 6.45405E-01 3.31005E-03 4.16350E-01-7.01974E-14-7.87499E-15
 -1      4123 1.92295E+01 5.83883E-01-8.88426E-03 2.89659E-01-3.89168E-14 7.50458E-14
 -1      4124 1.93863E+01 5.27913E-01 1.78164E-03 2.07260E-01-4.57302E-14 1.28512E-13
 -1      4125 1.92767E+01 5.17502E-01 4.57369E-03 4.78266E-01 2.51820E-14-5.30674E-14
 -1      4126 1.94686E+01 4.67372E-01-5.88243E-03 1.30175E-01-1.10616E-13 1.56982E-13
 -1      4127 1.95762E+01 4.15275E-01 5.27890E-04 8.54752E-02 3.76298E-15-8.81913E-14
 -1      4128 1.94751E+01 4.43230E-01 3.78397E-03 2.61171E-01-2.29004E-14 1.55594E-15
 -1      4129 1.96360E+01 3.65881E-01-3.85580E-03 4.25065E-02 6.46793E-15-1.16383E-13
 -1      4130 1.97063E+01 3.23946E-01-1.88881E-05 2.10907E-02 5.27466E-14-2.31119E-13
 -1      4131 1.96252E+01 3.64069E-01 3.24528E-03 1.31064E-01-1.14206E-13-1.37259E-13
 -1      4132 1.97538E+01 2.82031E-01-2.43669E-03-4.31941E-03 8.14910E-14-2.98904E-13
 -1      4133 1.98034E+01 2.46008E-01-1.90048E-04-1.37078E-02 4.13340E-14-2.56541E-13
 -1      4134 1.97366E+01 2.89569E-01 2.26021E-03 5.52933E-02 4.50841E-14-6.62333E-14
 -1      4135 1.98375E+01 2.12985E-01-1.53872E-03-2.63732E-02-7.44205E-14-3.63803E-13
 -1      4136 1.98701E+01 1.84914E-01-2.82589E-04-2.84341E-02-1.98698E-13-3.96913E-13
 -1      4137 1.98195E+01 2.25076E-01 1.65478E-03 1.22567E-02-8.58383E-14-3.52411E-13
 -1      4138 1.98944E+01 1.59588E-01-9.21076E-04-3.37195E-02-1.88847E-13-2.86875E-13
 -1      4139 1.99156E+01 1.37985E-01-3.00977E-04-3.20823E-02-4.45705E-14-3.68408E-13
 -1      4140 1.98782E+01 1.72475E-01 1.17235E-03-9.12803E-03-1.20138E-13-3.07478E-13
 -1      4141 1.99326E+01 1.18812E-01-5.30566E-04-3.33094E-02-3.13900E-15-2.92902E-13
 -1      4142 1.99462E+01 1.02363E-01-2.77981E-04-3.00978E-02-4.87883E-14-3.51824E-13
 -1      4143 1.99193E+01 1.30796E-01 8.14042E-04-1.79414E-02 1.94535E-14-2.30977E-13
 -1      4144 1.99580E+01 8.79659E-02-2.83458E-04-2.92825E-02-2.08061E-13-1.83189E-13
 -1      4145 1.99666E+01 7.55162E-02-2.37938E-04-2.56696E-02-1.03526E-13-1.15962E-13
 -1      4146 1.99476E+01 9.83115E-02 5.53226E-04-1.98687E-02-9.88156E-15-7.38267E-14
 -1      4147 1.99744E+01 6.52208E-02-1.43715E-04-2.40908E-02-1.67217E-14-1.98976E-13
 -1      4148 1.99796E+01 5.62221E-02-1.94353E-04-2.08082E-02-8.07033E-14-4.61572E-14
 -1      4149 1.99665E+01 7.38510E-02 3.84085E-04-1.84294E-02-1.12065E-14 9.57584E-14
 -1      4150 1.99852E+01 4.80433E-02-6.37160E-05-1.88918E-02-5.61275E-14-2.00840E-13
 -1      4151 1.99886E+01 4.08964E-02-1.52550E-04-1.58943E-02-1.64324E-13-7.00097E-14
 -1      4152 1.99794E+01 5.50097E-02 2.55695E-04-1.55485E-02-1.30205E-13-1.88296E-13
 -1      4153 1.99923E+01 3.47924E-02-2.22813E-05-1.40837E-02-2.44488E-13 8.63618E-14
 -1      4154 1.99943E+01 2.94617E-02-1.16127E-04-1.16195E-02-2.87080E-13 1.25542E-13
 -1      4155 1.99882E+01 4.02848E-02 1.72494E-04-1.22387E-02-1.31946E-13 6.35311E-14
 -1      4156 1.99968E+01 2.49252E-02 1.51161E-06-1.00610E-02-1.04232E-13 2.28533E-13
 -1      4157 1.99979E+01 2.09592E-02-8.69648E-05-8.11730E-03-2.59201E-14 4.52508E-13
 -1      4158 1.99940E+01 2.91529E-02 1.13757E-04-9.12870E-03-1.72715E-13 4.00822E-13
 -1      4159 1.99994E+01 1.76045E-02 1.23327E-05-6.85693E-03-1.28236E-13 4.58831E-13
 -1      4160 2.00000E+01 1.46716E-02-6.38323E-05-5.37468E-03-2.24595E-13 4.77028E-13
 -1      4161 1.99976E+01 2.07988E-02 7.37724E-05-6.46846E-03-2.96482E-15 4.71805E-13
 -1      4162 2.00009E+01 1.22084E-02 1.67139E-05-4.40256E-03-3.62370E-13 4.69632E-13
 -1      4163 2.00012E+01 1.00597E-02-4.40265E-05-3.30813E-03-3.60572E-13 5.22950E-13
 -1      4164 1.99998E+01 1.45757E-02 4.64963E-05-4.32923E-03-3.13926E-13 3.77996E-13
 -1      4165 2.00016E+01 8.33884E-03 1.59424E-05-2.61869E-03-4.88629E-13 5.78070E-13
 -1      4166 2.00017E+01 6.84656E-03-2.49005E-05-1.87953E-03-4.90060E-13 3.79320E-13
 -1      4167 2.00010E+01 1.00741E-02 2.92588E-05-2.71604E-03-3.05040E-13 4.19813E-13
 -1      4168 2.02877E+01-4.66984E-01 4.00593E-03 9.56004E-01 1.87863E-14-7.42336E-14
 -1      4169 2.05040E+01-6.37038E-01 1.26476E-02 1.05601E+00 4.30249E-14-2.22706E-14
 -1      4170 2.00474E+01-2.06634E-01-6.01059E-04 7.13614E-01 1.16433E-13-2.00573E-13
 -1      4171 2.01813E+01-3.20405E-01 8.38050E-03 8.10529E-01 1.02621E-13-1.81739E-13
 -1      4172 2.00317E+01-3.08341E-01-8.79450E-03 1.00230E+00 1.57116E-13-8.89412E-14
 -1      4173 1.99302E+01-4.74333E-02-2.29133E-03 5.08540E-01 5.49957E-14-2.77417E-13
 -1      4174 2.00095E+01-1.12274E-01 7.02299E-03 5.88208E-01 5.66670E-14-2.22460E-13
 -1      4175 1.98888E+01-6.91003E-02-1.32089E-04 7.13064E-01 7.45864E-14-2.28749E-13
 -1      4176 1.98822E+01 4.50391E-02-2.42433E-03 3.50681E-01-9.16008E-14 4.87489E-14
 -1      4177 1.99248E+01 1.05046E-02 5.12638E-03 4.13157E-01-4.57295E-14-7.61449E-14
 -1      4178 1.98335E+01 5.58342E-02 1.32328E-03 4.89370E-01-1.10503E-13-1.47426E-13
 -1      4179 1.98729E+01 9.10107E-02-2.17117E-03 2.35239E-01-1.94860E-14 1.60372E-14
 -1      4180 1.98929E+01 7.59135E-02 3.51626E-03 2.81595E-01 3.29118E-14 1.27260E-13
 -1      4181 1.98258E+01 1.16604E-01 1.38892E-03 3.24599E-01-1.02214E-13-3.89460E-14
 -1      4182 1.98833E+01 1.07851E-01-1.75072E-03 1.54113E-01-9.52011E-14 1.20781E-14
 -1      4183 1.98898E+01 1.04537E-01 2.30847E-03 1.87152E-01-1.05006E-13 7.45483E-14
 -1      4184 1.98423E+01 1.38616E-01 1.36912E-03 2.09061E-01-7.93566E-14-2.18476E-14
 -1      4185 1.99017E+01 1.07655E-01-1.32681E-03 9.89358E-02-5.78828E-14-7.30780E-15
 -1      4186 1.99009E+01 1.10868E-01 1.44345E-03 1.21797E-01-1.97654E-14 5.90999E-14
 -1      4187 1.98682E+01 1.37999E-01 1.18708E-03 1.31061E-01-6.65449E-14-2.59628E-14
 -1      4188 1.99219E+01 9.83860E-02-9.64199E-04 6.23521E-02-2.12328E-13-5.93681E-14
 -1      4189 1.99177E+01 1.04801E-01 8.63218E-04 7.78182E-02-8.23796E-14-1.22712E-14
 -1      4190 1.98955E+01 1.25777E-01 9.57265E-04 7.99773E-02-4.80091E-14 9.35998E-14
 -1      4191 1.99407E+01 8.50475E-02-6.81513E-04 3.86173E-02-1.33786E-13-1.16705E-13
 -1      4192 1.99354E+01 9.26353E-02 4.88300E-04 4.89039E-02-1.89164E-13-1.26115E-13
 -1      4193 1.99205E+01 1.08570E-01 7.37255E-04 4.74331E-02-3.26143E-14-1.08196E-13
 -1      4194 1.99568E+01 7.06630E-02-4.68233E-04 2.35032E-02-1.65006E-14-2.29899E-13
 -1      4195 1.99515E+01 7.82467E-02 2.59091E-04 3.02693E-02-1.10914E-13-1.42687E-13
 -1      4196 1.99416E+01 9.01996E-02 5.43029E-04 2.72525E-02-1.66543E-13-1.09698E-13
 -1      4197 1.99698E+01 5.68921E-02-3.20752E-04 1.40539E-02-1.12107E-14-1.97041E-13
 -1      4198 1.99651E+01 6.38420E-02 1.18148E-04 1.84505E-02 1.48527E-14-2.57484E-13
 -1      4199 1.99586E+01 7.27823E-02 3.96186E-04 1.50829E-02-8.16421E-15-3.58442E-13
 -1      4200 1.99799E+01 4.46193E-02-2.13942E-04 8.21188E-03-3.70159E-14-1.71758E-13
 -1      4201 1.99760E+01 5.06630E-02 4.27936E-05 1.10597E-02-6.76586E-14-2.51160E-13
 -1      4202 1.99718E+01 5.73480E-02 2.90277E-04 7.93098E-03-6.71508E-14-2.64829E-13
 -1      4203 1.99874E+01 3.41674E-02-1.40468E-04 4.65458E-03-3.31355E-14-5.24892E-14
 -1      4204 1.99844E+01 3.92194E-02 2.02586E-06 6.49696E-03 7.33286E-14-1.21776E-13
 -1      4205 1.99817E+01 4.41971E-02 2.06875E-04 3.86919E-03-2.43163E-14-2.95180E-13
 -1      4206 1.99927E+01 2.55699E-02-9.06342E-05 2.51343E-03-2.63120E-14-3.32503E-14
 -1      4207 1.99905E+01 2.96684E-02-1.60700E-05 3.70667E-03-6.89707E-14-1.28080E-14
 -1      4208 1.99888E+01 3.33634E-02 1.44508E-04 1.65331E-03-1.14795E-13-6.02691E-14
 -1      4209 1.99964E+01 1.86917E-02-5.75240E-05 1.23957E-03-1.66598E-13-1.01788E-13
 -1      4210 1.99949E+01 2.19351E-02-2.17576E-05 2.01431E-03-1.21736E-13-1.36260E-13
 -1      4211 1.99939E+01 2.46655E-02 9.88239E-05 5.05142E-04-2.90535E-14-1.98958E-13
 -1      4212 1.99988E+01 1.33206E-02-3.49473E-05 4.93101E-04-2.68289E-13 7.63736E-14
 -1      4213 1.99978E+01 1.58304E-02-2.08867E-05 9.96736E-04-2.30461E-13-1.33972E-13
 -1      4214 1.99972E+01 1.78319E-02 6.52661E-05-4.56840E-05-1.96892E-13-3.08831E-13
 -1      4215 2.00003E+01 9.21248E-03-1.84528E-05 6.54729E-05-3.12705E-13 1.94787E-13
 -1      4216 1.99997E+01 1.11235E-02-1.39447E-05 3.81613E-04-3.30135E-13 1.03635E-13
 -1      4217 1.99993E+01 1.25790E-02 4.17058E-05-2.70196E-04-3.81872E-13-1.02122E-13
 -1      4218 2.09752E+01-1.08334E+00 8.48480E-03 1.35088E+00-9.28450E-14-1.23785E-13
 -1      4219 2.08378E+01-1.24357E+00-2.79444E-02 1.81910E+00-7.45995E-14-2.13955E-13
 -1      4220 2.00710E+01-6.97026E-01 8.61734E-03 2.02627E+00-5.89032E-14-2.77925E-13
 -1      4221 2.06645E+01-8.34983E-01 9.92016E-03 1.26402E+00-5.28490E-14-9.88947E-14
 -1      4222 1.95128E+01-3.69884E-01-1.45126E-02 2.04974E+00-1.49199E-13-3.34242E-13
 -1      4223 1.89163E+01 1.26124E-01-6.19989E-03 1.86452E+00-1.54173E-13-1.78076E-13
 -1      4224 2.00406E+01-4.76173E-01 2.00907E-02 1.65499E+00-7.90320E-14-1.90988E-13
 -1      4225 2.18868E+01-1.18369E+00 7.91316E-03-4.81286E-01-6.16185E-14 8.83733E-14
 -1      4226 2.16298E+01-9.68410E-01 1.40244E-02-5.56443E-01-1.23383E-14 7.12423E-14
 -1      4227 2.14265E+01-8.75625E-01-1.40355E-02-7.67483E-01-4.09014E-14 6.42157E-14
 -1      4228 2.00861E+01-1.82747E-01 1.80703E-02-1.84236E+00-6.30750E-14-8.72167E-14
 -1      4229 2.00983E+01-5.14992E-01 1.67080E-03-2.20494E+00-1.11603E-13-9.83376E-14
 -1      4230 2.00014E+01 4.52836E-03 2.35353E-05-3.69090E-04-2.83489E-14-3.16882E-14
 -1      4231 2.07756E+01-8.40070E-02 6.81394E-03-8.25859E-01 1.86381E-14-3.32086E-15
 -1      4232 2.05212E+01 1.32002E-01-5.99553E-03-9.31713E-01 3.13877E-17-5.12938E-14
 -1      4233 2.09561E+01-3.71756E-01 2.80492E-03-9.18696E-01-2.70485E-14 2.35021E-14
 -1      4234 1.79434E+01 8.07994E-01 1.94645E-02 1.75926E+00-2.32238E-13 7.09657E-14
 -1      4235 1.99420E+01 3.62033E-01 1.41524E-02-1.30055E+00-2.89948E-14-6.53598E-14
 -1      4236 1.98954E+01 1.01700E-01-4.96610E-03-1.58254E+00-3.35358E-14-7.88313E-14
 -1      4237 2.03790E+01-3.28258E-01-1.64604E-02-1.63809E+00-6.48995E-14-7.00882E-14
 -1      4238 2.01671E+01 2.63947E-01-5.52485E-03-1.18692E+00-1.27050E-14-7.71268E-14
 -1      4239 2.02568E+01 4.67021E-01-2.81462E-03-8.83512E-01 3.71829E-15-6.89323E-14
 -1      4240 2.01232E+01 7.95969E-01 2.44458E-03-7.75079E-01 2.00030E-15-7.31318E-14
 -1      4241 2.25139E+01-1.55178E+00 1.34781E-02-4.04759E-01-7.60581E-14 1.44974E-13
 -1      4242 2.21925E+01-1.40398E+00 1.67843E-02-5.70744E-01-7.25821E-14 1.20512E-13
 -1      4243 2.19589E+01-1.39623E+00-2.16194E-02-8.96747E-01-8.17616E-14 9.65920E-14
 -1      4244 2.26473E+01-1.92758E+00-1.55341E-02-1.11350E+00-7.78752E-14 9.44965E-14
 -1      4245 1.84953E+01 7.72864E-01-1.47355E-02 1.00024E+00 3.70906E-14-3.49323E-14
 -1      4246 1.87893E+01 7.46202E-01 6.24958E-03 7.54297E-01 1.39113E-14-5.71636E-14
 -1      4247 1.90326E+01 5.78118E-01 1.21951E-02 8.20543E-01 1.64105E-14-1.33000E-13
 -1      4248 2.12164E+01-1.35368E+00-1.07016E-02-2.23766E+00-1.16535E-13-8.16517E-14
 -1      4249 2.03952E+01 2.06241E-01 7.82394E-03-1.04017E+00 7.66000E-15-8.37897E-14
 -1      4250 1.80569E+01 8.08387E-01-1.02869E-02 1.48370E+00-1.39818E-13 9.25475E-14
 -1      4251 1.83882E+01 8.12365E-01 9.63093E-03 1.18949E+00 1.26485E-14 3.35051E-14
 -1      4252 1.87650E+01 5.73835E-01 1.34902E-02 1.25225E+00-4.13602E-14-2.18033E-14
 -1      4253 1.84674E+01 4.62346E-01-8.21128E-03 1.74556E+00-9.38613E-14 9.89443E-15
 -1      4254 2.12317E+01-1.08331E+00 1.07087E-03-1.73205E+00-1.10707E-13-9.98418E-14
 -1      4255 2.20279E+01-1.74216E+00 2.27132E-02-1.92274E+00-1.03619E-13-6.70468E-14
 -1      4256 2.00019E+01 5.89559E-03 1.75536E-05-1.51487E-03-1.58626E-13 3.34404E-13
 -1      4257 2.00018E+01 4.96329E-03-6.55090E-06-1.04922E-03-1.35932E-14 3.39586E-13
 -1      4258 2.00017E+01 5.18796E-03-6.22074E-06-1.02691E-03-5.84074E-14 4.93234E-13
 -1      4259 2.00015E+01 7.16701E-03 1.02589E-05-1.70218E-03-4.23296E-13 5.59077E-13
 -1      4260 1.90431E+01 1.95584E-01-1.81069E-03 1.59270E+00-1.14018E-13-1.45820E-13
 -1      4261 2.00006E+01 7.98136E-03-1.40036E-05 1.15205E-04-1.83274E-13 2.45253E-13
 -1      4262 2.00004E+01 8.98193E-03-8.15055E-07-2.88179E-04-2.99770E-13-1.64903E-13
 -1      4263 2.00009E+01 6.90139E-03 4.08178E-06-3.39070E-05-1.75716E-13 2.60578E-13
 -1      4264 2.02836E+01-6.53765E-01-1.53933E-02 1.38708E+00-1.00825E-14-6.66975E-14
 -1      4265 2.00014E+01 5.73940E-03-1.49712E-05-7.71228E-04-1.91866E-13 2.76969E-13
 -1      4266 2.00013E+01 5.64500E-03-2.06921E-05-6.55202E-04-1.28565E-13-5.13022E-14
 -1      4267 2.00010E+01 7.40868E-03 3.10173E-05-5.96881E-04-2.19111E-13-1.04657E-13
 -1      4268 2.00011E+01 6.06958E-03-1.22330E-05-4.23343E-04-1.16769E-13-1.29120E-13
 -1      4269 2.00011E+01 5.99333E-03-2.56383E-06-2.47259E-04-9.05450E-14 6.06092E-14
 -1      4270 2.00006E+01 8.52513E-03-2.20447E-05-6.54824E-04-3.60716E-13-1.57723E-13
 -1      4271 2.24359E+01-1.83605E+00-2.78201E-03-1.36246E+00-1.01786E-13-8.57387E-15
 -1      4272 1.93144E+01 3.93994E-01-9.99968E-03 6.14219E-01 2.28680E-14-1.19284E-14
 -1      4273 1.94509E+01 3.91292E-01 6.03889E-03 4.74184E-01 6.77541E-14 8.60117E-14
 -1      4274 2.04727E+01-6.58600E-02 2.80645E-03-1.23773E+00-2.33945E-14-8.94374E-14
 -1      4275 1.91517E+01 2.28462E-01 1.39012E-03 1.37372E+00-6.31264E-14-2.24750E-13
 -1      4276 1.94844E+01 3.67603E-01-6.63079E-03 3.64900E-01-2.35789E-14-9.28101E-14
 -1      4277 1.95827E+01 3.47824E-01 2.73046E-03 2.75037E-01-9.79819E-14-1.68486E-13
 -1      4278 1.95682E+01 2.87375E-01 3.57365E-03 4.85209E-01-3.74484E-14 4.81560E-14
 -1      4279 1.96166E+01 3.20270E-01-4.82277E-03 2.06881E-01-6.95847E-14-1.45839E-13
 -1      4280 1.96874E+01 2.96643E-01 1.41439E-03 1.54185E-01-6.08994E-14-5.49176E-14
 -1      4281 1.96589E+01 2.80326E-01 4.02690E-03 2.95438E-01-1.12249E-13-1.32531E-13
 -1      4282 1.97209E+01 2.67913E-01-3.27189E-03 1.08178E-01-6.36635E-14 5.08262E-15
 -1      4283 1.97749E+01 2.42349E-01 7.42453E-04 7.59891E-02-3.93301E-14-1.61214E-13
 -1      4284 1.97383E+01 2.49573E-01 3.01073E-03 1.72798E-01-6.55926E-14-3.24917E-14
 -1      4285 1.98027E+01 2.16019E-01-2.19862E-03 4.84077E-02-1.07582E-13-1.53497E-13
 -1      4286 1.98408E+01 1.93084E-01 2.88742E-04 3.09420E-02-1.15815E-13-1.62901E-13
 -1      4287 1.98062E+01 2.11553E-01 2.35143E-03 9.35349E-02-9.15376E-14-9.44066E-14
 -1      4288 1.98630E+01 1.70679E-01-1.41066E-03 1.51341E-02-7.44239E-14-1.77935E-13
 -1      4289 1.98895E+01 1.51135E-01 3.82479E-05 6.58439E-03-3.97295E-14 6.72244E-14
 -1      4290 1.98599E+01 1.73291E-01 1.75894E-03 4.60362E-02-8.69869E-14-5.75332E-16
 -1      4291 1.99066E+01 1.32770E-01-8.79193E-04-1.91082E-03-8.65974E-14 9.69614E-14
 -1      4292 1.99247E+01 1.16689E-01-8.25856E-05-5.31477E-03 4.62802E-14-1.57789E-14
 -1      4293 1.99008E+01 1.38565E-01 1.27206E-03 1.89074E-02-3.91041E-14 9.30294E-14
 -1      4294 1.99376E+01 1.01991E-01-5.26662E-04-9.43068E-03 1.18396E-13-9.34571E-14
 -1      4295 1.99499E+01 8.90328E-02-1.37329E-04-1.00441E-02 7.14849E-14 4.60701E-14
 -1      4296 1.99314E+01 1.08758E-01 8.97492E-04 4.39075E-03-9.80032E-15 1.71788E-13
 -1      4297 1.99589E+01 7.79609E-02-3.11300E-04-1.16252E-02-3.79355E-14 1.21812E-14
 -1      4298 1.99669E+01 6.81539E-02-1.43789E-04-1.09142E-02-1.71921E-13-1.40494E-13
 -1      4299 1.99533E+01 8.46028E-02 6.33548E-04-2.50704E-03 1.81461E-14-5.92635E-14
 -1      4300 1.99738E+01 5.90024E-02-1.74532E-04-1.12546E-02-1.85380E-13-7.19255E-14
 -1      4301 1.99794E+01 5.08757E-02-1.26946E-04-9.94570E-03-7.65929E-14-3.82548E-14
 -1      4302 1.99691E+01 6.48827E-02 4.22145E-04-5.25260E-03-8.23971E-14-1.11823E-13
 -1      4303 1.99843E+01 4.37834E-02-9.63367E-05-9.61694E-03 4.97871E-14-1.13912E-15
 -1      4304 1.99879E+01 3.75113E-02-1.07654E-04-8.18406E-03-6.43156E-14 1.52625E-13
 -1      4305 1.99806E+01 4.87895E-02 2.87718E-04-5.80702E-03 6.82901E-15 6.39817E-14
 -1      4306 1.99913E+01 3.20764E-02-4.62187E-05-7.59472E-03-1.40901E-13 2.12812E-13
 -1      4307 1.99936E+01 2.72717E-02-8.74344E-05-6.26658E-03-8.54928E-14 3.22622E-13
 -1      4308 1.99886E+01 3.61509E-02 1.92830E-04-5.23833E-03-6.02296E-14 2.26138E-14
 -1      4309 1.99959E+01 2.31466E-02-1.78840E-05-5.63516E-03-7.13333E-14 2.71048E-13
 -1      4310 1.99973E+01 1.95047E-02-6.80045E-05-4.50967E-03-5.18833E-14 2.50471E-13
 -1      4311 1.99940E+01 2.63624E-02 1.26939E-04-4.23456E-03-9.43931E-14 3.74474E-14
 -1      4312 1.99988E+01 1.64045E-02-2.59606E-06-3.93944E-03-2.01300E-13 2.83446E-13
 -1      4313 1.99995E+01 1.36758E-02-5.03715E-05-3.04411E-03-3.35721E-13 2.53536E-13
 -1      4314 1.99975E+01 1.88782E-02 8.16592E-05-3.16267E-03-1.31894E-13 2.10243E-13
 -1      4315 2.00004E+01 1.14802E-02 4.94313E-06-2.60199E-03-3.11833E-13 3.09486E-13
 -1      4316 2.00008E+01 9.53342E-03-3.65222E-05-1.92951E-03-1.91658E-13 3.14830E-13
 -1      4317 1.99996E+01 1.33442E-02 5.01514E-05-2.22068E-03-3.44744E-13 3.14706E-13
 -1      4318 1.96690E+01 1.26498E-01-7.23515E-03 6.06715E-01 4.86508E-14-9.35972E-14
 -1      4319 1.97256E+01 8.07184E-02 7.23336E-03 7.35994E-01 1.28409E-13-1.76904E-14
 -1      4320 2.09141E+01-6.93477E-01 9.80223E-03-1.56946E+00-9.17604E-14-8.94439E-14
 -1      4321 2.14874E+01-1.17048E+00-1.99608E-02-1.36747E+00-9.08942E-14-2.24664E-14
 -1      4322 1.97476E+01-6.50532E-02-5.01414E-03 9.74756E-01 1.85024E-13-1.51238E-13
 -1      4323 1.98843E+01-1.74427E-01 1.38034E-02 1.13819E+00 1.73765E-13-8.05840E-14
 -1      4324 1.97521E+01 1.90692E-01-4.04212E-03 2.45112E-01-4.45844E-14-8.19441E-14
 -1      4325 1.97500E+01 1.85196E-01 7.40220E-04 3.14959E-01-1.34366E-13-1.02211E-13
 -1      4326 1.98044E+01 1.79188E-01-2.90636E-03 1.46980E-01-1.04690E-13-8.62442E-14
 -1      4327 1.97942E+01 1.84105E-01 2.59226E-04 1.94034E-01-8.83411E-14-8.54841E-14
 -1      4328 1.98512E+01 1.57684E-01-1.99693E-03 8.44793E-02-4.90758E-14-3.92870E-14
 -1      4329 1.98382E+01 1.67205E-01-8.39274E-05 1.15262E-01-5.08033E-14-4.40071E-14
 -1      4330 1.98901E+01 1.32972E-01-1.32857E-03 4.59886E-02-1.92493E-14-5.67793E-16
 -1      4331 1.98772E+01 1.44020E-01-2.40426E-04 6.55439E-02-2.98515E-14 1.36792E-14
 -1      4332 1.99211E+01 1.08763E-01-8.57788E-04 2.31493E-02-7.95700E-14 1.29159E-14
 -1      4333 1.99096E+01 1.19670E-01-2.83296E-04 3.52082E-02-3.60192E-14 2.50534E-14
 -1      4334 1.99448E+01 8.68467E-02-5.45472E-04 1.01969E-02-9.96325E-14-7.86238E-14
 -1      4335 1.99353E+01 9.68073E-02-2.64996E-04 1.73873E-02-8.27103E-15-3.41463E-14
 -1      4336 1.99622E+01 6.84287E-02-3.36835E-04 3.36248E-03-5.73585E-14-1.27483E-13
 -1      4337 1.99547E+01 7.70965E-02-2.26653E-04 7.55331E-03-6.99034E-14-1.63963E-13
 -1      4338 1.99754E+01 5.25871E-02-2.06229E-04-9.91782E-05-1.11999E-13-1.03624E-13
 -1      4339 1.99696E+01 5.98628E-02-1.81588E-04 2.22373E-03-5.75406E-14-1.24454E-13
 -1      4340 1.99847E+01 3.97166E-02-1.19093E-04-1.53779E-03 1.56943E-14-1.74127E-13
 -1      4341 1.99805E+01 4.56440E-02-1.45082E-04-3.18415E-04-8.67178E-15-1.96343E-13
 -1      4342 1.99913E+01 2.94600E-02-6.51041E-05-1.91136E-03-1.37310E-13-9.59352E-14
 -1      4343 1.99882E+01 3.41845E-02-1.13414E-04-1.31869E-03-1.51074E-13-1.37787E-13
 -1      4344 1.99956E+01 2.14343E-02-3.24793E-05-1.77591E-03-3.31677E-14-5.24113E-14
 -1      4345 1.99935E+01 2.51301E-02-8.57063E-05-1.52424E-03-4.36396E-14-8.32703E-14
 -1      4346 1.99985E+01 1.52583E-02-1.44958E-05-1.43981E-03-3.52151E-13-1.64355E-14
 -1      4347 1.99971E+01 1.81029E-02-6.20295E-05-1.36415E-03-2.08504E-13-5.97611E-14
 -1      4348 2.00002E+01 1.06866E-02 6.74763E-06-1.06810E-03-3.71279E-13 1.04365E-13
 -1      4349 1.99993E+01 1.28411E-02-4.41481E-05-1.08475E-03-3.43514E-13 7.25622E-15
 -1      4350 2.20607E+01-1.53496E+00 1.13585E-03-1.23854E+00-1.06660E-13 3.20560E-14
 -1      4351 1.98543E+01-3.12064E-01-3.10378E-03 1.41969E+00-5.67764E-15-1.76420E-13
 -1      4352 1.97026E+01 1.80017E-01-5.53198E-03 3.89807E-01-1.53983E-13-7.08919E-14
 -1      4353 1.97201E+01 1.56559E-01 2.23302E-03 4.88227E-01-7.45104E-14-1.03226E-13
 -1      4354 1.91791E+01 2.81153E-01-1.60553E-02 1.09625E+00 5.80401E-14-2.14931E-13
 -1      4355 1.93303E+01 3.27096E-01 5.42520E-03 8.76025E-01 5.34021E-14-1.36375E-13
 -1      4356 2.00008E+01 8.91587E-03 1.84194E-05-1.29758E-03-2.32737E-13 1.09373E-13
 -1      4357 2.12273E+01-6.66689E-01 1.27763E-02-9.81299E-01-5.13836E-14 3.46354E-14
 -1      4358 2.08859E+01-4.76769E-01-1.39705E-02-1.17241E+00-5.25426E-14-3.37345E-14
 -1      4359 1.95343E+01-4.07838E-02 2.30234E-03 1.38251E+00-3.53141E-15-2.95729E-13
 -1      4360 2.14763E+01-9.68422E-01 1.29247E-03-1.02770E+00-7.11067E-14 5.38733E-14
 -1      4361 1.95209E+01 1.80536E-01 5.64159E-04 8.52699E-01 1.17602E-13-6.64748E-14
 -1      4362 2.00016E+01 5.34834E-03-1.01076E-05-9.76840E-04-2.39405E-13 5.52400E-13
 -1      4363 2.07400E+01-3.80074E-01 9.85143E-03-1.34421E+00-6.40042E-14-8.41817E-14
 -1      4364 2.00013E+01 7.58655E-03 4.67466E-06-1.43097E-03-2.76250E-13 4.72199E-13
 -1      4365 2.18148E+01-1.27644E+00 8.71349E-03-1.09659E+00-9.55317E-14 5.02224E-14
 -1      4366 2.00014E+01 6.55965E-03 3.14961E-06-1.09042E-03-2.29638E-13 4.68481E-13
 -3
    1PSTEP                         3           1           1          
  100CL  101 1.000000000        4366                     0    1           1
 -4  TOSTRAIN    6    1
 -5  EXX         1    4    1    1
 -5  EYY         1    4    2    2
 -5  EZZ         1    4    3    3
 -5  EXY         1    4    1    2
 -5  EYZ         1    4    2    3
 -5  EZX         1    4    3    1
 -1         1 1.10722E-05-6.62967E-05 1.16818E-05-4.08163E-05-1.32264E-17-5.79508E-18
 -1         2 4.06856E-05-1.25484E-04 2.39786E-05 1.79061E-06 7.39968E-18 3.04138E-20
 -1         3 9.52373E-05-2.85710E-05-2.85714E-05 2.31757E-10-2.31111E-18-2.36987E-18
 -1         4 9.52373E-05-2.85709E-05-2.85715E-05-2.89798E-10-4.97230E-19-2.11657E-19
 -1         5 1.43229E-04-2.14237E-05-4.25689E-05 3.84107E-05-1.69565E-19 1.05978E-17
 -1         6 1.45371E-04 2.57348E-10-4.40908E-05-5.37755E-05-5.73441E-19 5.39348E-18
 -1         7 9.05990E-05-3.69309E-07-3.91248E-05-2.85416E-05-8.55503E-20-6.56120E-19
 -1         8 8.56273E-05 6.75296E-08-3.65177E-05-1.94997E-05-7.48301E-20-2.09672E-18
 -1         9 8.31915E-05 6.40351E-08-3.54978E-05-1.47830E-05-4.36222E-20-2.71765E-18
 -1        10 8.19184E-05 3.47360E-08-3.49490E-05-1.12732E-05-1.81318E-21-2.83333E-18
 -1        11 8.11483E-05 2.25543E-08-3.46289E-05-8.38961E-06-7.83505E-21-2.80572E-18
 -1        12 8.06870E-05 1.63537E-08-3.44404E-05-5.92152E-06 3.23461E-20-2.61742E-18
 -1        13 8.04371E-05 1.32792E-08-3.43371E-05-3.61658E-06 3.89404E-20-2.37513E-18
 -1        14 8.03620E-05 1.07996E-08-3.43022E-05-1.38520E-06 4.73754E-20-2.08998E-18
 -1        15 8.04246E-05 8.84284E-09-3.43214E-05 8.76102E-07 8.18363E-20-1.77751E-18
 -1        16 8.05988E-05 8.20980E-09-3.43857E-05 3.24720E-06 1.03642E-19-1.51630E-18
 -1        17 8.08790E-05 9.72462E-09-3.44949E-05 5.79571E-06 9.73195E-20-1.06535E-18
 -1        18 8.12853E-05 1.77518E-08-3.46619E-05 8.54133E-06 1.12682E-19-5.04148E-19
 -1        19 8.19328E-05 3.59776E-08-3.49410E-05 1.16823E-05 1.42288E-19 2.62036E-19
 -1        20 8.30708E-05 7.55446E-08-3.54514E-05 1.53666E-05 1.41282E-19 1.36388E-18
 -1        21 8.53769E-05 1.59235E-07-3.64824E-05 2.00762E-05 1.35208E-19 3.16555E-18
 -1        22 9.19016E-05-1.20327E-07-3.88266E-05 2.77263E-05 2.64698E-21 5.94807E-18
 -1        23 1.14148E-04-3.82166E-05-3.58051E-05-5.01114E-06-3.96306E-19 3.51900E-18
 -1        24 9.40081E-05-2.80703E-05-2.94213E-05 4.12676E-07-6.98273E-20 2.14879E-18
 -1        25 9.07624E-05-2.73539E-05-2.74474E-05 3.82467E-07-9.53822E-20 6.27638E-19
 -1        26 9.04591E-05-2.72388E-05-2.71442E-05 2.08152E-07-4.85141E-21-4.86766E-19
 -1        27 9.17613E-05-2.76021E-05-2.75319E-05 1.60185E-07-6.60065E-20-1.48180E-18
 -1        28 9.41843E-05-2.83177E-05-2.82914E-05 1.32589E-07-2.95949E-20-1.88687E-18
 -1        29 9.81068E-05-2.94853E-05-2.95201E-05 1.55128E-07-6.51487E-21-1.85705E-18
 -1        30 1.03976E-04-3.12387E-05-3.13622E-05 2.32216E-07-6.98372E-20-1.94663E-18
 -1        31 1.12706E-04-3.38383E-05-3.41034E-05 4.08043E-07 6.31354E-20-2.61574E-18
 -1        32 1.25566E-04-3.76618E-05-3.80927E-05 7.45896E-07 4.01216E-20-2.91877E-18
 -1        33 1.43685E-04-4.30587E-05-4.35009E-05 1.32374E-06 1.11570E-20-2.41145E-18
 -1        34 1.65547E-04-4.96585E-05-4.95118E-05 1.86842E-06-4.31619E-20-1.36039E-18
 -1        35 1.87681E-04-5.66191E-05-5.46035E-05 1.62727E-06 1.43003E-20-3.56257E-19
 -1        36 1.93185E-04-5.88010E-05-5.47424E-05-1.91188E-06 3.18431E-19 1.50179E-18
 -1        37 1.63489E-04-4.86325E-05-4.87001E-05-7.76500E-06-8.31978E-20 3.05144E-18
 -1        38 1.13284E-04-3.10973E-05-4.07965E-05-7.39075E-06-6.36995E-19-2.83756E-19
 -1        39 7.79003E-05-1.87715E-05-3.58060E-05-2.37873E-06-6.88585E-19-6.99395E-18
 -1        40 8.55505E-05-2.15383E-05-3.68180E-05 4.46513E-06-3.60227E-19-1.37886E-17
 -1        41 1.23514E-04-3.50736E-05-4.21777E-05 6.44606E-06 6.52877E-19-1.42981E-17
 -1        42 1.69790E-04-5.11700E-05-4.97239E-05 4.60883E-06-1.71332E-19-1.29365E-17
 -1        43 1.95640E-04-5.97429E-05-5.51965E-05 1.42273E-06 1.03907E-19-1.08811E-17
 -1        44 1.92215E-04-5.83317E-05-5.55800E-05-8.66209E-07 9.43237E-19-8.24121E-18
 -1        45 1.71537E-04-5.15715E-05-5.11160E-05-1.17280E-06-3.01556E-19-5.83849E-18
 -1        46 1.48310E-04-4.43701E-05-4.49300E-05-8.50505E-07-4.83318E-19-6.54571E-18
 -1        47 1.30079E-04-3.88981E-05-3.95346E-05-4.94638E-07 5.72124E-19-5.87857E-18
 -1        48 1.17481E-04-3.51693E-05-3.56148E-05-2.62214E-07-2.81578E-19-4.92997E-18
 -1        49 1.09265E-04-3.27445E-05-3.30093E-05-1.32539E-07-2.95428E-20-4.34377E-18
 -1        50 1.04055E-04-3.12032E-05-3.13496E-05-5.91115E-08 1.27296E-19-3.07756E-18
 -1        51 1.00893E-04-3.02649E-05-3.03482E-05-3.39339E-08 1.25080E-19-1.14081E-18
 -1        52 9.87782E-05-2.96339E-05-2.96796E-05-1.42938E-08 5.52368E-20-1.04566E-18
 -1        53 9.74487E-05-2.92364E-05-2.92615E-05-5.69643E-09-2.88375E-19-1.48653E-18
 -1        54 9.66084E-05-2.89844E-05-2.89984E-05-1.67595E-09 2.09941E-19-2.22401E-18
 -1        55 9.60750E-05-2.88242E-05-2.88320E-05 1.28535E-10 7.70657E-20-2.46848E-18
 -1        56 9.57359E-05-2.87220E-05-2.87265E-05 1.29771E-09 5.92075E-19-4.41425E-19
 -1        57 9.55283E-05-2.86595E-05-2.86621E-05 8.83998E-10 7.57972E-20 2.69566E-18
 -1        58 9.53881E-05-2.86172E-05-2.86187E-05 1.06489E-09-9.33982E-19 7.99607E-19
 -1        59 9.53007E-05-2.85908E-05-2.85916E-05 9.77408E-10 1.43317E-19-7.22997E-19
 -1        60 9.52476E-05-2.85747E-05-2.85751E-05 8.57520E-10 1.39200E-19 1.88620E-18
 -1        61 9.52168E-05-2.85653E-05-2.85655E-05 7.36845E-10-2.61718E-19-1.05121E-18
 -1        62 9.52005E-05-2.85604E-05-2.85605E-05 6.66015E-10 3.07884E-19-3.46494E-18
 -1        63 9.51939E-05-2.85583E-05-2.85584E-05 5.12460E-10-1.60425E-19-2.55019E-18
 -1        64 9.51929E-05-2.85580E-05-2.85579E-05 4.45485E-10-1.46287E-19-1.64227E-18
 -1        65 9.51956E-05-2.85588E-05-2.85587E-05 3.73600E-10-7.68535E-19-3.88602E-18
 -1        66 9.52005E-05-2.85602E-05-2.85602E-05 3.13844E-10 2.07871E-19-4.13312E-18
 -1        67 9.52066E-05-2.85620E-05-2.85620E-05 2.65500E-10-2.79526E-19-9.84297E-19
 -1        68 9.52131E-05-2.85640E-05-2.85639E-05 2.29298E-10 6.82876E-19 1.86314E-18
 -1        69 9.52193E-05-2.85658E-05-2.85658E-05 1.98999E-10-4.55632E-19 3.89186E-18
 -1        70 9.52255E-05-2.85676E-05-2.85676E-05 1.78659E-10 6.91772E-19 4.15080E-18
 -1        71 9.52308E-05-2.85693E-05-2.85692E-05 1.56741E-10-7.01009E-19 1.74736E-18
 -1        72 9.52350E-05-2.85705E-05-2.85703E-05 1.17078E-10-6.57648E-20-3.69534E-18
 -1        73 9.52371E-05-2.85712E-05-2.85711E-05-5.46262E-11 4.90389E-20 1.75528E-18
 -1        74 1.02481E-04-3.06755E-05-3.42471E-05-1.95887E-06 1.17791E-20 1.07127E-17
 -1        75 9.31916E-05-2.77060E-05-2.90877E-05-3.47419E-07 3.73654E-20 9.62834E-18
 -1        76 8.99692E-05-2.69632E-05-2.72223E-05-1.43170E-07 6.78784E-21 8.68099E-18
 -1        77 8.90634E-05-2.67447E-05-2.67335E-05-1.14666E-07-1.46155E-20 8.35237E-18
 -1        78 8.91282E-05-2.67589E-05-2.67171E-05-9.69885E-08-1.87439E-21 7.62574E-18
 -1        79 8.95112E-05-2.68632E-05-2.68263E-05-8.37779E-08 1.54175E-20 7.61897E-18
 -1        80 8.98305E-05-2.69527E-05-2.69156E-05-7.14612E-08 4.42837E-20 7.50664E-18
 -1        81 8.98087E-05-2.69439E-05-2.68998E-05-5.52992E-08 1.06205E-19 6.94801E-18
 -1        82 8.92270E-05-2.67701E-05-2.67164E-05-3.13068E-08-1.44420E-19 6.72143E-18
 -1        83 8.79296E-05-2.63838E-05-2.63224E-05 2.99115E-09 1.88611E-19 6.25943E-18
 -1        84 8.58588E-05-2.57667E-05-2.57052E-05 4.70832E-08-1.95468E-19 5.99141E-18
 -1        85 8.31026E-05-2.49438E-05-2.48948E-05 9.57394E-08 3.67014E-20 5.15919E-18
 -1        86 7.99302E-05-2.39940E-05-2.39729E-05 1.38448E-07 1.23599E-19 4.50181E-18
 -1        87 7.67880E-05-2.30499E-05-2.30693E-05 1.61540E-07-1.01728E-19 4.80650E-18
 -1        88 7.42287E-05-2.22770E-05-2.23403E-05 1.53451E-07 7.36091E-20 6.30231E-18
 -1        89 7.27776E-05-2.18346E-05-2.19316E-05 1.11097E-07 1.35120E-21 5.81926E-18
 -1        90 7.27762E-05-2.18276E-05-2.19366E-05 4.32595E-08-2.03802E-19 5.30065E-18
 -1        91 7.42702E-05-2.22718E-05-2.23672E-05-3.20510E-08-1.18609E-20 4.69491E-18
 -1        92 7.69968E-05-2.30892E-05-2.31514E-05-9.52517E-08-2.06112E-19 3.65562E-18
 -1        93 8.04781E-05-2.41356E-05-2.41571E-05-1.33188E-07-8.07880E-20 3.99871E-18
 -1        94 8.41727E-05-2.52470E-05-2.52326E-05-1.42894E-07 2.12580E-19 2.53782E-18
 -1        95 8.76172E-05-2.62831E-05-2.62453E-05-1.29992E-07-2.13925E-20 2.13696E-18
 -1        96 9.05092E-05-2.71523E-05-2.71051E-05-1.04095E-07 9.44136E-20 2.34564E-18
 -1        97 9.27203E-05-2.78163E-05-2.77706E-05-7.44189E-08-2.49619E-19 1.03359E-18
 -1        98 9.42625E-05-2.82789E-05-2.82411E-05-4.73647E-08 3.33485E-19 1.63651E-18
 -1        99 9.52331E-05-2.85698E-05-2.85422E-05-2.60879E-08-2.25733E-19 1.73925E-18
 -1       100 9.57652E-05-2.87292E-05-2.87112E-05-1.12376E-08 2.24886E-20 8.78696E-19
 -1       101 9.59914E-05-2.87969E-05-2.87866E-05-2.01289E-09 1.31992E-19 4.07180E-20
 -1       102 9.60243E-05-2.88068E-05-2.88019E-05 2.95520E-09-1.55441E-20-5.73356E-20
 -1       103 9.59493E-05-2.87843E-05-2.87830E-05 5.05096E-09 3.56825E-19-1.65497E-19
 -1       104 9.58254E-05-2.87473E-05-2.87479E-05 5.41260E-09-1.70672E-19-1.25325E-18
 -1       105 9.56901E-05-2.87068E-05-2.87083E-05 4.86224E-09-1.10152E-19 9.34333E-19
 -1       106 9.55642E-05-2.86692E-05-2.86709E-05 3.93512E-09 2.67469E-19 4.73053E-19
 -1       107 9.54578E-05-2.86373E-05-2.86389E-05 2.94537E-09-3.99311E-19 2.66295E-18
 -1       108 9.53737E-05-2.86122E-05-2.86135E-05 2.05442E-09-4.33676E-19 1.27306E-18
 -1       109 9.53110E-05-2.85934E-05-2.85944E-05 1.32750E-09 4.24954E-19-1.89665E-18
 -1       110 9.52668E-05-2.85801E-05-2.85809E-05 7.74770E-10-6.51133E-20-1.07045E-18
 -1       111 9.52377E-05-2.85714E-05-2.85719E-05 3.78671E-10-8.83599E-19 2.04122E-18
 -1       112 9.52200E-05-2.85661E-05-2.85664E-05 1.10611E-10 5.73869E-19 2.06373E-18
 -1       113 9.52107E-05-2.85633E-05-2.85635E-05-5.97253E-11 1.50103E-19-4.36817E-18
 -1       114 9.52074E-05-2.85623E-05-2.85624E-05-1.59794E-10-3.86061E-19-4.78742E-18
 -1       115 9.52081E-05-2.85625E-05-2.85625E-05-2.12445E-10 2.46666E-19-2.78298E-18
 -1       116 9.52113E-05-2.85634E-05-2.85634E-05-2.35665E-10 4.84380E-20-2.60064E-18
 -1       117 9.52159E-05-2.85648E-05-2.85648E-05-2.42929E-10-3.04143E-19-5.58678E-18
 -1       118 9.52211E-05-2.85663E-05-2.85663E-05-2.43734E-10-6.45511E-20-3.57940E-18
 -1       119 9.52264E-05-2.85679E-05-2.85679E-05-2.43492E-10-6.07306E-20-2.98707E-18
 -1       120 9.52313E-05-2.85694E-05-2.85693E-05-2.40100E-10 3.41930E-19-3.23149E-18
 -1       121 9.52351E-05-2.85705E-05-2.85704E-05-2.04815E-10-3.34447E-20-4.83324E-18
 -1       122 9.52371E-05-2.85712E-05-2.85710E-05-3.52776E-11 9.52795E-19-3.42798E-18
 -1       123 9.52372E-05-2.85713E-05-2.85710E-05 9.19939E-12-2.18928E-18 9.20725E-19
 -1       124 9.52378E-05-2.85733E-05-2.85704E-05-1.47544E-10-5.65665E-18-1.04364E-18
 -1       125 9.52388E-05-2.85768E-05-2.85694E-05-2.16488E-10-4.13152E-18 1.82622E-18
 -1       126 9.52400E-05-2.85808E-05-2.85683E-05-2.07231E-10-2.88706E-18 7.18457E-19
 -1       127 9.52412E-05-2.85846E-05-2.85671E-05-1.74008E-10 1.81402E-18-6.65111E-19
 -1       128 9.52421E-05-2.85878E-05-2.85662E-05-1.32977E-10-7.17527E-20-5.53387E-19
 -1       129 9.52428E-05-2.85902E-05-2.85655E-05-8.53772E-11-1.86275E-18-1.13569E-20
 -1       130 9.52432E-05-2.85916E-05-2.85651E-05-3.50546E-11-5.92943E-18-6.01462E-19
 -1       131 9.52433E-05-2.85917E-05-2.85650E-05 1.79490E-11-1.79742E-18 9.51456E-19
 -1       132 9.52430E-05-2.85907E-05-2.85653E-05 7.36101E-11 5.01802E-18 7.32794E-19
 -1       133 9.52423E-05-2.85885E-05-2.85660E-05 1.32490E-10 2.34314E-18-7.71812E-19
 -1       134 9.52414E-05-2.85853E-05-2.85670E-05 1.83091E-10 3.10897E-18 1.56920E-18
 -1       135 9.52402E-05-2.85813E-05-2.85681E-05 2.24377E-10 9.96850E-18 5.35485E-19
 -1       136 9.52389E-05-2.85770E-05-2.85693E-05 2.29194E-10 6.88647E-18-5.78124E-19
 -1       137 9.52378E-05-2.85733E-05-2.85704E-05 1.23850E-10 2.42171E-18 3.75738E-19
 -1       138 9.52371E-05-2.85712E-05-2.85711E-05-1.27337E-10-1.53119E-18 4.77512E-19
 -1       139 2.69286E-05-8.96580E-05 1.64319E-05-2.21872E-05 8.41866E-18 2.08312E-18
 -1       140 7.43485E-06-2.78622E-05 1.55626E-06-1.36074E-05 9.48465E-18 4.20954E-18
 -1       141 1.25877E-05 2.39732E-05-1.84970E-05 3.25686E-05 8.99168E-18 5.80472E-18
 -1       142 6.26877E-05 3.52477E-05-4.00069E-05 9.05763E-05 6.71062E-18 8.25772E-18
 -1       143 1.51792E-04 3.19676E-06-5.98474E-05 1.25808E-04 3.94633E-18 6.68013E-18
 -1       144 2.56365E-04-5.38808E-05-7.63466E-05 1.11814E-04 7.47189E-19 6.81438E-19
 -1       145 3.24171E-04-9.63798E-05-8.51272E-05 4.72078E-05-6.47954E-19-7.73712E-18
 -1       146 3.26105E-04-9.76188E-05-8.53271E-05-4.12189E-05 1.74628E-18-1.43167E-17
 -1       147 2.61394E-04-5.76096E-05-7.67150E-05-1.08000E-04 4.31404E-18-1.44919E-17
 -1       148 1.61927E-04-2.09126E-06-6.14724E-05-1.26089E-04 7.10745E-18-1.21028E-17
 -1       149 6.32079E-05 3.30786E-05-3.92577E-05-8.87917E-05 1.01398E-17-1.09424E-17
 -1       150 1.40722E-05 2.02529E-05-1.77291E-05-3.13540E-05 9.23351E-18-7.27982E-18
 -1       151 8.91510E-06-3.53970E-05 3.66745E-06 1.67030E-05 6.03384E-18-2.54851E-18
 -1       152 2.91748E-05-9.58939E-05 1.77016E-05 2.15197E-05 1.52212E-18-9.64612E-19
 -1       153 4.17320E-05-1.28417E-04 2.45440E-05-4.38431E-06-5.52456E-18-3.81165E-19
 -1       154 3.21795E-05-1.14290E-04 2.23062E-05-3.56502E-05-1.07522E-17-2.62989E-18
 -1       155 4.11281E-06-1.00338E-05-6.87909E-06-7.54771E-06-1.28762E-17-9.84803E-18
 -1       156 5.04855E-05 1.73309E-05-3.27335E-05 5.96856E-05-1.10402E-17-1.26784E-17
 -1       157 1.57832E-04-7.29513E-06-5.89615E-05 1.15635E-04-6.03045E-18-1.09225E-17
 -1       158 2.94465E-04-6.82235E-05-8.07289E-05 1.18653E-04-2.33273E-18-6.96007E-18
 -1       159 3.98564E-04-1.22573E-04-9.39321E-05 5.20384E-05-1.84441E-19 9.80229E-19
 -1       160 3.98803E-04-1.22739E-04-9.39910E-05-5.06160E-05-9.35257E-19 9.52616E-18
 -1       161 2.88371E-04-6.56602E-05-7.98053E-05-1.18755E-04-4.95599E-18 1.30104E-17
 -1       162 1.48199E-04-5.04745E-06-5.67719E-05-1.10808E-04-9.77264E-18 1.67780E-17
 -1       163 4.19805E-05 1.56651E-05-2.92039E-05-5.03792E-05-1.09348E-17 1.30206E-17
 -1       164 2.72983E-06-1.53677E-05-4.39943E-06 1.35254E-05-8.04808E-18 6.33242E-18
 -1       165 1.23806E-05-7.09642E-05 1.29379E-05 4.24065E-05 1.55431E-19 5.93770E-19
 -1       166 3.35458E-05-1.17223E-04 2.29108E-05 3.31206E-05 5.92754E-18-8.01234E-19
 -1       167 9.55377E-05-1.25741E-05-3.57321E-05-2.16330E-05-1.00915E-18-1.16750E-18
 -1       168 8.97765E-05-8.53098E-06-3.49751E-05-1.64957E-05-6.90914E-19-1.96967E-18
 -1       169 8.67357E-05-6.37678E-06-3.45467E-05-1.27208E-05-3.95846E-19-2.34052E-18
 -1       170 8.49798E-05-5.18707E-06-3.42768E-05-9.64675E-06-1.09453E-19-2.40750E-18
 -1       171 8.39240E-05-4.49468E-06-3.41069E-05-7.07560E-06 1.62733E-19-2.24697E-18
 -1       172 8.33167E-05-4.11315E-06-3.40027E-05-4.73113E-06 3.60945E-19-2.12247E-18
 -1       173 8.30690E-05-3.97354E-06-3.39531E-05-2.51155E-06 6.09104E-19-1.85834E-18
 -1       174 8.31009E-05-4.01834E-06-3.39471E-05-3.00839E-07 7.73111E-19-1.60858E-18
 -1       175 8.33521E-05-4.20700E-06-3.39757E-05 1.98791E-06 9.72497E-19-1.34234E-18
 -1       176 8.37914E-05-4.52183E-06-3.40336E-05 4.42166E-06 1.09023E-18-1.01951E-18
 -1       177 8.44237E-05-4.96945E-06-3.41211E-05 7.01508E-06 1.23554E-18-5.58095E-19
 -1       178 8.53736E-05-5.63760E-06-3.42575E-05 9.93259E-06 1.45011E-18 8.41673E-20
 -1       179 8.69105E-05-6.71522E-06-3.44850E-05 1.32525E-05 1.48534E-18 9.30730E-19
 -1       180 8.97515E-05-8.73390E-06-3.48881E-05 1.71715E-05 1.40602E-18 2.17908E-18
 -1       181 9.61877E-05-1.37708E-05-3.55324E-05 2.15108E-05 1.05192E-18 4.02555E-18
 -1       182 1.05993E-04-2.62523E-05-3.53626E-05 1.83788E-05 4.74286E-19 6.18165E-18
 -1       183 1.04356E-04-2.73318E-05-3.30093E-05-1.19815E-05-8.54233E-19 1.02809E-19
 -1       184 9.85085E-05-2.85993E-05-2.99958E-05-4.25877E-06-7.74638E-19-2.52465E-19
 -1       185 9.54425E-05-2.81173E-05-2.88005E-05-9.31410E-07-6.33614E-19-5.67128E-19
 -1       186 9.47298E-05-2.80782E-05-2.85198E-05 9.11304E-07-4.58549E-19-9.40690E-19
 -1       187 9.53497E-05-2.82739E-05-2.87147E-05 2.26285E-06-2.40420E-19-1.04132E-18
 -1       188 9.71434E-05-2.87249E-05-2.92948E-05 3.74189E-06-4.09984E-20-1.10014E-18
 -1       189 1.00132E-04-2.94387E-05-3.02706E-05 5.64486E-06-5.69828E-20-1.07811E-18
 -1       190 1.04536E-04-3.04705E-05-3.17186E-05 8.30655E-06-2.11470E-19-1.05137E-18
 -1       191 1.10709E-04-3.19545E-05-3.37389E-05 1.20001E-05 3.84209E-20-5.97188E-19
 -1       192 1.19030E-04-3.42029E-05-3.63580E-05 1.66354E-05 2.68433E-19-3.55952E-19
 -1       193 1.29181E-04-3.76547E-05-3.92216E-05 2.07764E-05 5.49345E-19-1.22052E-19
 -1       194 1.42257E-04-4.39636E-05-4.20221E-05 2.09997E-05 5.87206E-19 5.72700E-19
 -1       195 1.57234E-04-5.40861E-05-4.39837E-05 9.73438E-06 1.42462E-18 1.32471E-18
 -1       196 1.70594E-04-6.28364E-05-4.61105E-05-1.53048E-05 4.89664E-19 2.11566E-18
 -1       197 1.53677E-04-3.75419E-05-5.16978E-05-2.68499E-05-4.13373E-18-1.89107E-18
 -1       198 1.49167E-04-3.18832E-05-5.25659E-05 6.07151E-06-3.93447E-18-4.05928E-18
 -1       199 1.55460E-04-4.00844E-05-5.12699E-05 3.15019E-05-1.17060E-18-5.35276E-18
 -1       200 1.66934E-04-5.33545E-05-4.93441E-05 3.43975E-05 3.10702E-19-6.52088E-18
 -1       201 1.72729E-04-5.90020E-05-4.83673E-05 1.58168E-05 1.49029E-18-6.24716E-18
 -1       202 1.66814E-04-5.42931E-05-4.76713E-05-6.47127E-06 1.47288E-18-3.68628E-18
 -1       203 1.53556E-04-4.69639E-05-4.54711E-05-1.60721E-05 1.13252E-18-3.42048E-18
 -1       204 1.38487E-04-4.08891E-05-4.18617E-05-1.61075E-05-6.60074E-20-2.27251E-18
 -1       205 1.25638E-04-3.67803E-05-3.81596E-05-1.24920E-05 5.63181E-19-2.24890E-18
 -1       206 1.15894E-04-3.40277E-05-3.51343E-05-8.69099E-06-6.70843E-20-2.55196E-18
 -1       207 1.08999E-04-3.21890E-05-3.29379E-05-5.74429E-06 5.68091E-19-2.36708E-18
 -1       208 1.04313E-04-3.09647E-05-3.14377E-05-3.70728E-06 4.85936E-19-1.43140E-18
 -1       209 1.01311E-04-3.01812E-05-3.04823E-05-2.42112E-06 8.81885E-19-1.36990E-18
 -1       210 9.91994E-05-2.96274E-05-2.98127E-05-1.54500E-06-4.95961E-20-1.55073E-19
 -1       211 9.78167E-05-2.92626E-05-2.93768E-05-9.86626E-07 4.30745E-19-4.38576E-19
 -1       212 9.69093E-05-2.90212E-05-2.90921E-05-6.32226E-07-9.63626E-19-9.57899E-19
 -1       213 9.63130E-05-2.88614E-05-2.89058E-05-4.06601E-07 3.48805E-19-1.46417E-18
 -1       214 9.59209E-05-2.87557E-05-2.87837E-05-2.62070E-07 1.44967E-18-5.56209E-19
 -1       215 9.56728E-05-2.86883E-05-2.87067E-05-1.72556E-07 4.71880E-19-2.56930E-19
 -1       216 9.54990E-05-2.86410E-05-2.86527E-05-1.10764E-07-1.05116E-18-9.46033E-19
 -1       217 9.53855E-05-2.86100E-05-2.86176E-05-7.01939E-08 1.04096E-18-7.91792E-20
 -1       218 9.53123E-05-2.85900E-05-2.85949E-05-4.34892E-08 7.00424E-19 9.48767E-19
 -1       219 9.52659E-05-2.85773E-05-2.85806E-05-2.58543E-08-1.88382E-18-7.98518E-19
 -1       220 9.52377E-05-2.85697E-05-2.85718E-05-1.42218E-08-2.77433E-19-1.43562E-18
 -1       221 9.52222E-05-2.85656E-05-2.85670E-05-6.92124E-09 6.19604E-19-2.37755E-18
 -1       222 9.52138E-05-2.85635E-05-2.85643E-05-1.92511E-09 9.07794E-20-2.83438E-18
 -1       223 9.52108E-05-2.85629E-05-2.85634E-05 1.21957E-09-1.19552E-18-2.13960E-18
 -1       224 9.52113E-05-2.85632E-05-2.85634E-05 3.10037E-09 9.42803E-19-1.80825E-18
 -1       225 9.52138E-05-2.85640E-05-2.85642E-05 4.13212E-09 8.66602E-19-2.66267E-18
 -1       226 9.52175E-05-2.85652E-05-2.85652E-05 4.58962E-09 1.06616E-18-1.68349E-18
 -1       227 9.52216E-05-2.85665E-05-2.85664E-05 4.64969E-09 7.57779E-19 1.90893E-19
 -1       228 9.52259E-05-2.85679E-05-2.85677E-05 4.40696E-09-7.50455E-19-3.79479E-19
 -1       229 9.52300E-05-2.85691E-05-2.85689E-05 3.86187E-09-1.25529E-18-2.27686E-18
 -1       230 9.52334E-05-2.85703E-05-2.85699E-05 2.95044E-09-1.81076E-18-2.03198E-18
 -1       231 9.52358E-05-2.85711E-05-2.85706E-05 1.58219E-09 2.38178E-18-9.00539E-19
 -1       232 9.52368E-05-2.85716E-05-2.85708E-05 7.44860E-10 6.71411E-19-6.59087E-19
 -1       233 1.00037E-04-2.87273E-05-3.07400E-05 6.98335E-06 6.22834E-19 5.48665E-18
 -1       234 9.51233E-05-2.80038E-05-2.87304E-05 2.59778E-06 4.65696E-19 5.01160E-18
 -1       235 9.29184E-05-2.76758E-05-2.79149E-05 8.30677E-07 2.81490E-19 4.38062E-18
 -1       236 9.19754E-05-2.75390E-05-2.75910E-05 7.29844E-08 2.91543E-19 4.13115E-18
 -1       237 9.16201E-05-2.74985E-05-2.74696E-05-1.62455E-07 1.48480E-19 3.84748E-18
 -1       238 9.14550E-05-2.74980E-05-2.74057E-05-7.59832E-08 2.10609E-19 3.32414E-18
 -1       239 9.11970E-05-2.74614E-05-2.73137E-05 2.47244E-07 1.74479E-19 3.33406E-18
 -1       240 9.06396E-05-2.73255E-05-2.71342E-05 7.50345E-07 1.66752E-19 3.29867E-18
 -1       241 8.96425E-05-2.70413E-05-2.68288E-05 1.36518E-06 2.09398E-19 3.01535E-18
 -1       242 8.81454E-05-2.65812E-05-2.63842E-05 1.99172E-06 7.25553E-20 3.14855E-18
 -1       243 8.61934E-05-2.59502E-05-2.58178E-05 2.49318E-06 3.90434E-19 2.87427E-18
 -1       244 8.39585E-05-2.51986E-05-2.51820E-05 2.71353E-06 2.38120E-19 2.84798E-18
 -1       245 8.17364E-05-2.44264E-05-2.45609E-05 2.51969E-06-2.37509E-19 3.16793E-18
 -1       246 7.99021E-05-2.37709E-05-2.40558E-05 1.85815E-06-3.90477E-19 3.08914E-18
 -1       247 7.88209E-05-2.33733E-05-2.37625E-05 7.99051E-07 2.51903E-19 2.94526E-18
 -1       248 7.87420E-05-2.33328E-05-2.37451E-05-4.63887E-07 2.94437E-19 2.77036E-18
 -1       249 7.97169E-05-2.36703E-05-2.40169E-05-1.66974E-06 1.43288E-19 2.72397E-18
 -1       250 8.15838E-05-2.43205E-05-2.45374E-05-2.58044E-06 6.55809E-19 2.00068E-18
 -1       251 8.40250E-05-2.51582E-05-2.52245E-05-3.05855E-06 1.71664E-19 1.00560E-18
 -1       252 8.66680E-05-2.60428E-05-2.59790E-05-3.09555E-06 3.01472E-19 8.13297E-19
 -1       253 8.91829E-05-2.68579E-05-2.67092E-05-2.78608E-06-8.12167E-21 1.05754E-18
 -1       254 9.13435E-05-2.75323E-05-2.73479E-05-2.27295E-06-1.68993E-21 1.30011E-18
 -1       255 9.30410E-05-2.80402E-05-2.78592E-05-1.69440E-06 7.76794E-19 1.39867E-18
 -1       256 9.42654E-05-2.83890E-05-2.82353E-05-1.15243E-06-6.53861E-19 7.91133E-19
 -1       257 9.50711E-05-2.86052E-05-2.84882E-05-7.04171E-07-4.28066E-21 1.18072E-18
 -1       258 9.55435E-05-2.87215E-05-2.86407E-05-3.68647E-07 5.83192E-19 1.13126E-18
 -1       259 9.57736E-05-2.87689E-05-2.87185E-05-1.39691E-07 4.25293E-19 5.50679E-19
 -1       260 9.58423E-05-2.87731E-05-2.87456E-05 1.60936E-09-4.75960E-19 3.77648E-19
 -1       261 9.58141E-05-2.87534E-05-2.87414E-05 7.78177E-08-2.17560E-20 5.57909E-19
 -1       262 9.57358E-05-2.87228E-05-2.87205E-05 1.09820E-07-1.50771E-19 1.75553E-18
 -1       263 9.56388E-05-2.86898E-05-2.86928E-05 1.14457E-07-4.42083E-19 9.23552E-19
 -1       264 9.55421E-05-2.86589E-05-2.86644E-05 1.04043E-07 5.92127E-19 3.87599E-19
 -1       265 9.54559E-05-2.86325E-05-2.86386E-05 8.68628E-08-1.05050E-18 4.10240E-19
 -1       266 9.53846E-05-2.86113E-05-2.86171E-05 6.80400E-08 4.06405E-19 1.25319E-18
 -1       267 9.53290E-05-2.85952E-05-2.86001E-05 5.04260E-08 1.50058E-18 6.05952E-19
 -1       268 9.52877E-05-2.85835E-05-2.85874E-05 3.53619E-08-1.00345E-18 1.44390E-18
 -1       269 9.52587E-05-2.85755E-05-2.85784E-05 2.32569E-08-1.24910E-18 1.97233E-18
 -1       270 9.52395E-05-2.85703E-05-2.85725E-05 1.39975E-08 1.30763E-18 9.95916E-20
 -1       271 9.52279E-05-2.85673E-05-2.85688E-05 7.21619E-09 2.50939E-18 4.39555E-19
 -1       272 9.52218E-05-2.85658E-05-2.85668E-05 2.45796E-09-6.96615E-19-5.26836E-19
 -1       273 9.52196E-05-2.85654E-05-2.85660E-05-7.24923E-10-3.80898E-19-8.23922E-19
 -1       274 9.52200E-05-2.85657E-05-2.85661E-05-2.72346E-09 3.53195E-19-9.19101E-19
 -1       275 9.52221E-05-2.85665E-05-2.85667E-05-3.84960E-09 1.53629E-18-9.73308E-19
 -1       276 9.52251E-05-2.85675E-05-2.85675E-05-4.32845E-09-8.06661E-19-8.36028E-19
 -1       277 9.52285E-05-2.85686E-05-2.85685E-05-4.29643E-09-1.41994E-19-1.31174E-18
 -1       278 9.52317E-05-2.85697E-05-2.85694E-05-3.79848E-09 3.05851E-20-1.26807E-18
 -1       279 9.52344E-05-2.85707E-05-2.85702E-05-2.78868E-09 7.36191E-19-7.71657E-19
 -1       280 9.52364E-05-2.85714E-05-2.85707E-05-1.29475E-09-1.90520E-19-1.48642E-18
 -1       281 9.52371E-05-2.85726E-05-2.85705E-05-2.26612E-09-1.66091E-18-1.88554E-18
 -1       282 9.52380E-05-2.85748E-05-2.85699E-05-3.45833E-09-5.44055E-19 1.24363E-18
 -1       283 9.52390E-05-2.85773E-05-2.85693E-05-3.93578E-09-8.18886E-19 1.99802E-18
 -1       284 9.52399E-05-2.85799E-05-2.85686E-05-3.79308E-09-4.66089E-19 2.11661E-18
 -1       285 9.52407E-05-2.85823E-05-2.85679E-05-3.23262E-09-6.11229E-19-1.58832E-18
 -1       286 9.52413E-05-2.85841E-05-2.85674E-05-2.37597E-09-8.52028E-20-1.39823E-18
 -1       287 9.52417E-05-2.85854E-05-2.85670E-05-1.33224E-09 1.79484E-18-1.63132E-18
 -1       288 9.52419E-05-2.85859E-05-2.85668E-05-1.76868E-10 2.93006E-18 1.56241E-18
 -1       289 9.52418E-05-2.85856E-05-2.85669E-05 1.02358E-09 1.41464E-18 2.91791E-18
 -1       290 9.52415E-05-2.85846E-05-2.85672E-05 2.19040E-09 2.36335E-18 2.35132E-20
 -1       291 9.52409E-05-2.85828E-05-2.85677E-05 3.19762E-09 3.64592E-18 1.16944E-20
 -1       292 9.52401E-05-2.85804E-05-2.85684E-05 3.92703E-09 4.09848E-18 3.29664E-18
 -1       293 9.52391E-05-2.85777E-05-2.85692E-05 4.16067E-09 3.78356E-18-6.23099E-19
 -1       294 9.52380E-05-2.85750E-05-2.85699E-05 3.66971E-09 2.74455E-18-2.85188E-18
 -1       295 9.52373E-05-2.85731E-05-2.85704E-05 2.30176E-09 1.70753E-18-2.20700E-18
 -1       296 1.40029E-05-5.11344E-05 1.28311E-05 1.81281E-05 3.03820E-18 8.67044E-19
 -1       297 2.91699E-05-4.43126E-05 3.82578E-06 2.87103E-05 2.96123E-18 1.51542E-18
 -1       298 5.60963E-05-3.31313E-05-1.13604E-05 4.24776E-05 3.39533E-18 2.25173E-18
 -1       299 9.58054E-05-2.71131E-05-2.95192E-05 5.37307E-05 4.06025E-18 3.06605E-18
 -1       300 1.40343E-04-2.66969E-05-4.74710E-05 5.70270E-05 3.19924E-18 1.84230E-18
 -1       301 1.83732E-04-3.09811E-05-6.31094E-05 4.61776E-05 3.47990E-18-4.94667E-19
 -1       302 2.14972E-04-3.50893E-05-7.39789E-05 2.67886E-05 3.37003E-18-2.48795E-18
 -1       303 2.26587E-04-3.68431E-05-7.79139E-05 1.23486E-06 2.79860E-18-4.30239E-18
 -1       304 2.12212E-04-3.34433E-05-7.37483E-05-2.24038E-05 2.18799E-18-5.47501E-18
 -1       305 1.87868E-04-3.19851E-05-6.42555E-05-4.63949E-05 2.36239E-18-6.74768E-18
 -1       306 1.46322E-04-3.31888E-05-4.74647E-05-4.88463E-05 3.34938E-18-4.46662E-18
 -1       307 9.51975E-05-2.83329E-05-2.88263E-05-5.24181E-05 3.45441E-18-4.98648E-18
 -1       308 6.44708E-05-4.10527E-05-1.10493E-05-4.65210E-05 1.52191E-18-4.20208E-18
 -1       309 2.75473E-05-4.60038E-05 5.21653E-06-2.75928E-05 8.64185E-19-2.89839E-18
 -1       310 1.23141E-05-4.98336E-05 1.31642E-05-1.68031E-05-1.01252E-18-3.36240E-18
 -1       311 1.17618E-05-5.73169E-05 1.57716E-05-3.54810E-06-3.08773E-18-2.81956E-18
 -1       312 2.27084E-05-5.25036E-05 9.21073E-06 1.04246E-05-4.58414E-18-3.60667E-18
 -1       313 4.85595E-05-4.89594E-05-3.26726E-06 2.17789E-05-5.60249E-18-4.32574E-18
 -1       314 1.01882E-04-5.28191E-05-2.30877E-05 3.28008E-05-4.81644E-18-4.85604E-18
 -1       315 1.59063E-04-5.41877E-05-4.47475E-05 3.38763E-05-5.23996E-18-4.68325E-18
 -1       316 2.15300E-04-5.72134E-05-6.42305E-05 2.11135E-05-4.61882E-18-3.25430E-18
 -1       317 2.52789E-04-5.51393E-05-7.80430E-05 8.37715E-06-4.00520E-18-8.17387E-20
 -1       318 2.59515E-04-5.01078E-05-8.23142E-05 6.81157E-07-3.81864E-18 2.30751E-18
 -1       319 2.52029E-04-5.53619E-05-7.77087E-05-8.49054E-06-3.11687E-18 4.33660E-18
 -1       320 2.12117E-04-5.84855E-05-6.28125E-05-1.96175E-05-4.91237E-18 4.32326E-18
 -1       321 1.58974E-04-6.08125E-05-4.22363E-05-2.69245E-05-2.14935E-18 5.18427E-18
 -1       322 9.47037E-05-5.21342E-05-2.04569E-05-3.21297E-05-1.32391E-18 5.24038E-18
 -1       323 4.56214E-05-4.97283E-05-1.80156E-06-1.98823E-05-3.08108E-19 5.09604E-18
 -1       324 2.08970E-05-5.25844E-05 1.00192E-05-8.14186E-06 1.65150E-18 2.89092E-18
 -1       325 9.49893E-06-5.11629E-05 1.47198E-05 4.88178E-06 2.03269E-18 5.16690E-19
 -1       326 1.70100E-04-5.38732E-05-5.04833E-05-3.68862E-05-2.42326E-18 3.76189E-19
 -1       327 9.19395E-05-1.42549E-05-3.33701E-05-1.18793E-05-6.21831E-19-1.75503E-18
 -1       328 9.64295E-05-1.92402E-05-3.31410E-05-1.36027E-05-8.80693E-19-1.21639E-18
 -1       329 8.73139E-05-9.56858E-06-3.33718E-05-7.48006E-06 5.14862E-20-1.69816E-18
 -1       330 8.62120E-05-8.53478E-06-3.33353E-05-5.42058E-06 2.58600E-19-1.73670E-18
 -1       331 8.56754E-05-8.04745E-06-3.33106E-05-3.44367E-06 6.05705E-19-1.54313E-18
 -1       332 8.55792E-05-7.97030E-06-3.33014E-05-1.45603E-06 8.86465E-19-1.26406E-18
 -1       333 8.58217E-05-8.20703E-06-3.33047E-05 6.16347E-07 1.08566E-18-9.83753E-19
 -1       334 8.63327E-05-8.70231E-06-3.33138E-05 2.81774E-06 1.22562E-18-8.35294E-19
 -1       335 8.70799E-05-9.44167E-06-3.33216E-05 5.12609E-06 1.35856E-18-4.64230E-19
 -1       336 8.81545E-05-1.05346E-05-3.33212E-05 7.61718E-06 1.56124E-18 6.58171E-20
 -1       337 8.97424E-05-1.21962E-05-3.33020E-05 1.02070E-05 1.67390E-18 6.92731E-19
 -1       338 9.22762E-05-1.49348E-05-3.32291E-05 1.26624E-05 1.62068E-18 1.42112E-18
 -1       339 9.63489E-05-1.97861E-05-3.29172E-05 1.38744E-05 1.26740E-18 2.80660E-18
 -1       340 9.92793E-05-2.46422E-05-3.20726E-05 1.15138E-05 9.73373E-19 3.73756E-18
 -1       341 9.69378E-05-2.70040E-05-2.99446E-05 5.46351E-06 6.50349E-19 3.26864E-18
 -1       342 1.81188E-04-7.28040E-05-4.65731E-05-1.23459E-05-2.58538E-18-2.13346E-19
 -1       343 9.75754E-05-2.59914E-05-3.06327E-05-5.19560E-06-7.82569E-19-9.70242E-19
 -1       344 9.64365E-05-2.69658E-05-2.97415E-05-1.02523E-06-6.00399E-19-8.66189E-19
 -1       345 9.59411E-05-2.72300E-05-2.94238E-05 1.72670E-06-3.90824E-19-7.80127E-19
 -1       346 9.60116E-05-2.72255E-05-2.94588E-05 4.21658E-06-2.12085E-19-6.18170E-19
 -1       347 9.65567E-05-2.70000E-05-2.97872E-05 6.86146E-06-8.97954E-20-6.04067E-19
 -1       348 9.74266E-05-2.65315E-05-3.03562E-05 1.01215E-05-6.56781E-21-4.01898E-19
 -1       349 9.84696E-05-2.58290E-05-3.10996E-05 1.43777E-05 6.45002E-20-6.05967E-19
 -1       350 9.96099E-05-2.51780E-05-3.18619E-05 1.98154E-05 3.31541E-19-5.23827E-19
 -1       351 1.01113E-04-2.55653E-05-3.23228E-05 2.57872E-05 7.38911E-19-3.74796E-19
 -1       352 1.04832E-04-2.98035E-05-3.20213E-05 3.14516E-05 1.21672E-18 2.31127E-19
 -1       353 1.15494E-04-4.30025E-05-3.07488E-05 3.23573E-05 1.56987E-18 1.28648E-18
 -1       354 1.37893E-04-6.52447E-05-3.10254E-05 2.27145E-05 1.17055E-18 7.22691E-19
 -1       355 1.01184E-05-1.92057E-05 3.99364E-06 1.49885E-05-4.89691E-20 1.09775E-18
 -1       356 1.90318E-04-5.63577E-05-5.75572E-05 3.15481E-05-1.06631E-18-1.71164E-18
 -1       357 1.77553E-04-7.23580E-05-4.54418E-05 1.82164E-05 1.06729E-18-3.42990E-18
 -1       358 1.54103E-04-6.24940E-05-3.90721E-05-9.63114E-06 3.25044E-18-2.73537E-18
 -1       359 1.34915E-04-4.61505E-05-3.78355E-05-2.44648E-05 1.68226E-18-1.37171E-18
 -1       360 1.22312E-04-3.56683E-05-3.70590E-05-2.63142E-05 6.60500E-19-4.85363E-19
 -1       361 1.14609E-04-3.14201E-05-3.56337E-05-2.17553E-05-9.32764E-19-6.66453E-19
 -1       362 1.09261E-04-2.99456E-05-3.39716E-05-1.59926E-05-1.16606E-19-1.72920E-18
 -1       363 1.05322E-04-2.94573E-05-3.24875E-05-1.10642E-05 4.96547E-19-2.19300E-18
 -1       364 1.02400E-04-2.92514E-05-3.13243E-05-7.41591E-06 7.51126E-19-1.77486E-18
 -1       365 1.00347E-04-2.91154E-05-3.05081E-05-4.99201E-06 1.46530E-18-1.22339E-18
 -1       366 9.87787E-05-2.89961E-05-2.98924E-05-3.26704E-06 7.38938E-19-1.69259E-19
 -1       367 9.76733E-05-2.88940E-05-2.94670E-05-2.13436E-06 8.49668E-19 1.45320E-18
 -1       368 9.68999E-05-2.88092E-05-2.91753E-05-1.39557E-06-1.41455E-18 2.70234E-19
 -1       369 9.63625E-05-2.87415E-05-2.89762E-05-9.14505E-07-3.07712E-19 1.53681E-18
 -1       370 9.59914E-05-2.86896E-05-2.88408E-05-6.00562E-07 3.47913E-19 6.65127E-19
 -1       371 9.57457E-05-2.86521E-05-2.87526E-05-4.02940E-07 1.77491E-18-8.36260E-19
 -1       372 9.55663E-05-2.86230E-05-2.86887E-05-2.64096E-07-3.82432E-19 1.11368E-18
 -1       373 9.54440E-05-2.86023E-05-2.86456E-05-1.71941E-07-8.70791E-19 2.05041E-18
 -1       374 9.53613E-05-2.85879E-05-2.86166E-05-1.10410E-07 9.76033E-19-1.28623E-19
 -1       375 9.53060E-05-2.85782E-05-2.85973E-05-6.91794E-08-1.43458E-18-5.88622E-19
 -1       376 9.52700E-05-2.85720E-05-2.85846E-05-4.15354E-08-9.89533E-19 1.17903E-18
 -1       377 9.52480E-05-2.85684E-05-2.85768E-05-2.38305E-08-2.26506E-18-2.19462E-18
 -1       378 9.52339E-05-2.85663E-05-2.85717E-05-1.13573E-08-6.40248E-19-3.87413E-18
 -1       379 9.52262E-05-2.85654E-05-2.85688E-05-3.23868E-09 1.48650E-19-3.38414E-18
 -1       380 9.52227E-05-2.85653E-05-2.85674E-05 1.89527E-09-1.18656E-18-1.40616E-18
 -1       381 9.52221E-05-2.85658E-05-2.85669E-05 4.98693E-09-5.10095E-19-2.23638E-18
 -1       382 9.52232E-05-2.85666E-05-2.85671E-05 6.67826E-09 1.82331E-18-1.00564E-18
 -1       383 9.52252E-05-2.85675E-05-2.85676E-05 7.37609E-09 2.31166E-18-1.11136E-18
 -1       384 9.52278E-05-2.85685E-05-2.85683E-05 7.40638E-09-1.15384E-18-3.29983E-18
 -1       385 9.52305E-05-2.85696E-05-2.85690E-05 6.83931E-09-1.88844E-18-2.10655E-18
 -1       386 9.52332E-05-2.85707E-05-2.85696E-05 5.69087E-09-1.49742E-19-3.01728E-18
 -1       387 9.52354E-05-2.85717E-05-2.85702E-05 3.93160E-09 2.92699E-18-1.27079E-18
 -1       388 9.52365E-05-2.85724E-05-2.85703E-05 3.22646E-09 2.85678E-18 1.79582E-19
 -1       389 9.48454E-05-2.76184E-05-2.87893E-05 1.65438E-06 5.16911E-19 2.10815E-18
 -1       390 9.41082E-05-2.79533E-05-2.83432E-05 5.26410E-07 4.18355E-19 1.96490E-18
 -1       391 9.36924E-05-2.81736E-05-2.80780E-05 1.97444E-07 3.61361E-19 1.90898E-18
 -1       392 9.34218E-05-2.83521E-05-2.78898E-05 4.24279E-07 3.34332E-19 1.85690E-18
 -1       393 9.31150E-05-2.84574E-05-2.77155E-05 1.06907E-06 1.73990E-19 1.62881E-18
 -1       394 9.26215E-05-2.84325E-05-2.75156E-05 2.00883E-06 6.65330E-20 2.04599E-18
 -1       395 9.18271E-05-2.82093E-05-2.72704E-05 3.08609E-06 3.44921E-19 2.17923E-18
 -1       396 9.06737E-05-2.77307E-05-2.69794E-05 4.08282E-06 3.21719E-19 2.06863E-18
 -1       397 8.91898E-05-2.69840E-05-2.66602E-05 4.72750E-06 3.93116E-19 1.81611E-18
 -1       398 8.75180E-05-2.60363E-05-2.63457E-05 4.74660E-06 1.71193E-20 1.22457E-18
 -1       399 8.59172E-05-2.50519E-05-2.60774E-05 3.95673E-06-6.00054E-19 1.29835E-18
 -1       400 8.47154E-05-2.42651E-05-2.58963E-05 2.36532E-06-5.56643E-20 1.49564E-18
 -1       401 8.42086E-05-2.39006E-05-2.58339E-05 2.19455E-07 4.81910E-19 1.30194E-18
 -1       402 8.45487E-05-2.40758E-05-2.59051E-05-2.04764E-06 1.40064E-19 8.72820E-19
 -1       403 8.56790E-05-2.47446E-05-2.61053E-05-3.96393E-06 9.95940E-19 1.89668E-20
 -1       404 8.73609E-05-2.57214E-05-2.64113E-05-5.18574E-06 7.79556E-19 5.05334E-19
 -1       405 8.92714E-05-2.67675E-05-2.67859E-05-5.59622E-06 3.16372E-19 7.65446E-19
 -1       406 9.11140E-05-2.76846E-05-2.71863E-05-5.29630E-06-1.70954E-19 1.72113E-18
 -1       407 9.26884E-05-2.83651E-05-2.75719E-05-4.51749E-06 3.19618E-19 1.59153E-18
 -1       408 9.39056E-05-2.87915E-05-2.79121E-05-3.51836E-06 3.91906E-19 6.50817E-19
 -1       409 9.47639E-05-2.90041E-05-2.81889E-05-2.51081E-06-1.55277E-19 1.22175E-18
 -1       410 9.53131E-05-2.90662E-05-2.83970E-05-1.62984E-06 2.87768E-20 6.68363E-19
 -1       411 9.56229E-05-2.90386E-05-2.85405E-05-9.36693E-07 1.35646E-19 9.86638E-19
 -1       412 9.57629E-05-2.89680E-05-2.86296E-05-4.38689E-07 4.77982E-19 6.10889E-19
 -1       413 9.57920E-05-2.88846E-05-2.86767E-05-1.11844E-07 2.61602E-19 1.31853E-18
 -1       414 9.57556E-05-2.88056E-05-2.86942E-05 8.07948E-08-3.86267E-19 1.58285E-18
 -1       415 9.56859E-05-2.87386E-05-2.86924E-05 1.77237E-07-6.80537E-20 1.35328E-18
 -1       416 9.56043E-05-2.86855E-05-2.86797E-05 2.10329E-07 2.42971E-19 4.98454E-19
 -1       417 9.55238E-05-2.86457E-05-2.86620E-05 2.05498E-07-8.90529E-20 1.14258E-18
 -1       418 9.54515E-05-2.86170E-05-2.86432E-05 1.80825E-07-6.24697E-19 2.22819E-18
 -1       419 9.53905E-05-2.85970E-05-2.86256E-05 1.48203E-07-1.10517E-19 1.36696E-18
 -1       420 9.53416E-05-2.85836E-05-2.86104E-05 1.14815E-07 1.40234E-18 1.58562E-18
 -1       421 9.53040E-05-2.85750E-05-2.85979E-05 8.45294E-08-5.48171E-19 3.06246E-18
 -1       422 9.52762E-05-2.85698E-05-2.85883E-05 5.90442E-08-1.06128E-18 1.56297E-18
 -1       423 9.52566E-05-2.85670E-05-2.85811E-05 3.87388E-08 1.07792E-18 2.51755E-20
 -1       424 9.52434E-05-2.85657E-05-2.85761E-05 2.32678E-08 1.35524E-18-5.35064E-19
 -1       425 9.52351E-05-2.85654E-05-2.85727E-05 1.19494E-08 1.04345E-18 8.08788E-19
 -1       426 9.52305E-05-2.85657E-05-2.85706E-05 4.00360E-09 5.44670E-19-4.60367E-19
 -1       427 9.52285E-05-2.85663E-05-2.85695E-05-1.31233E-09-3.78058E-19-2.33690E-18
 -1       428 9.52282E-05-2.85672E-05-2.85690E-05-4.63407E-09-4.44034E-19-1.62104E-18
 -1       429 9.52291E-05-2.85682E-05-2.85690E-05-6.45941E-09 3.44723E-19 1.04763E-18
 -1       430 9.52307E-05-2.85692E-05-2.85692E-05-7.14091E-09-3.99821E-19-1.94511E-19
 -1       431 9.52325E-05-2.85703E-05-2.85696E-05-6.89939E-09-1.10527E-20-7.79460E-20
 -1       432 9.52345E-05-2.85713E-05-2.85699E-05-5.85131E-09 3.06223E-19-5.26272E-19
 -1       433 9.52359E-05-2.85721E-05-2.85702E-05-4.27196E-09 1.33376E-18-9.10754E-19
 -1       434 9.52390E-05-2.85767E-05-2.85696E-05-6.29711E-09 9.90817E-20 9.09129E-19
 -1       435 9.52378E-05-2.85748E-05-2.85699E-05-6.23651E-09 5.63743E-19 1.98766E-18
 -1       436 9.52399E-05-2.85783E-05-2.85693E-05-5.69228E-09 4.89665E-20-1.12954E-18
 -1       437 9.52406E-05-2.85797E-05-2.85690E-05-4.54157E-09 5.03150E-19-1.00460E-18
 -1       438 9.52412E-05-2.85807E-05-2.85687E-05-3.01839E-09 1.15343E-18-2.17392E-19
 -1       439 9.52414E-05-2.85813E-05-2.85686E-05-1.25510E-09-2.88933E-19-4.91753E-19
 -1       440 9.52415E-05-2.85815E-05-2.85686E-05 6.39249E-10 2.17993E-19 1.20423E-18
 -1       441 9.52414E-05-2.85811E-05-2.85687E-05 2.55027E-09 8.82971E-19 1.88226E-18
 -1       442 9.52410E-05-2.85803E-05-2.85689E-05 4.30036E-09 1.03845E-18-4.29584E-19
 -1       443 9.52403E-05-2.85789E-05-2.85691E-05 5.74642E-09 2.42534E-18 4.15116E-18
 -1       444 9.52393E-05-2.85772E-05-2.85694E-05 6.60003E-09 1.68096E-18-8.64277E-19
 -1       445 9.52379E-05-2.85751E-05-2.85697E-05 6.53893E-09 3.28896E-19-1.62534E-18
 -1       446 9.55991E-05-2.73491E-05-2.92141E-05 3.13949E-06 7.42732E-19 2.78813E-18
 -1       447 6.16957E-05-4.16588E-05-8.73544E-06 5.22774E-05 9.38089E-19 1.10728E-18
 -1       448 1.40361E-04-5.45614E-05-3.67720E-05 3.27007E-05 2.30208E-18-1.40872E-18
 -1       449 2.70883E-05-3.05027E-05 1.24997E-06 3.92600E-05 4.93820E-19 8.29986E-19
 -1       450 8.91370E-05-1.13525E-05-3.34006E-05-9.67799E-06-3.25040E-19-1.77157E-18
 -1       451 1.57406E-04-4.44593E-05-4.85001E-05 1.81988E-05 2.22543E-18-2.00450E-18
 -1       452 1.68792E-04-2.53122E-05-6.14086E-05 4.35556E-06 3.34080E-18-2.27524E-18
 -1       453 1.74608E-04-1.44167E-05-6.83768E-05 1.33086E-06 3.77576E-18-1.85537E-18
 -1       454 1.69335E-04-1.19410E-05-6.73950E-05 6.91974E-07 2.58176E-18-1.41640E-18
 -1       455 1.65926E-04-2.52976E-05-6.04198E-05-1.30141E-06 1.20819E-18-1.69015E-18
 -1       456 1.61246E-04-4.15933E-05-5.12427E-05-1.10598E-05 8.96981E-19-2.02462E-18
 -1       457 1.37003E-04-5.30100E-05-3.60132E-05-3.63650E-05 7.22201E-19-2.31748E-18
 -1       458 1.05828E-04-5.36041E-05-2.23912E-05-4.83040E-05-5.96946E-19-2.63771E-18
 -1       459 5.65456E-05-3.89970E-05-7.45704E-06-5.08073E-05-8.15693E-19-3.02025E-18
 -1       460 2.68845E-05-2.70638E-05 2.58632E-07-3.81436E-05-8.28081E-19-3.49570E-18
 -1       461 1.02523E-05-1.77651E-05 3.47033E-06-7.40645E-06-4.09540E-19-3.50439E-18
 -1       462 1.87706E-05-2.37297E-05 2.22194E-06 1.66786E-05-4.25952E-19-3.47823E-18
 -1       463 5.44088E-05-4.28269E-05-5.35334E-06 3.56543E-05-1.36351E-18-1.97279E-18
 -1       464 9.85310E-05-5.94566E-05-1.73574E-05 3.57792E-05-1.12528E-18-2.31617E-18
 -1       465 1.37218E-04-6.72277E-05-3.09990E-05 2.48733E-05-2.99172E-18-2.24294E-18
 -1       466 1.95142E-04-5.17529E-05-6.09782E-05-2.84517E-05-4.34390E-18-4.36010E-19
 -1       467 9.74271E-05-5.82798E-05-1.71863E-05-3.63440E-05 2.32087E-18 2.79076E-18
 -1       468 5.09220E-05-4.12682E-05-4.51091E-06-3.40312E-05 1.52191E-18 4.18350E-18
 -1       469 1.93680E-05-2.38920E-05 2.04644E-06-1.61536E-05-5.07055E-19 2.62771E-18
 -1       470 1.10840E-04-5.28126E-05-2.47453E-05 4.85893E-05 1.94627E-18 1.25742E-18
 -1       471 2.06393E-04-3.92409E-05-6.95722E-05 1.57789E-05-3.04699E-18 3.72483E-19
 -1       472 9.52370E-05-2.85738E-05-2.85700E-05 5.17495E-09 2.72734E-18-3.55526E-18
 -1       473 1.43187E-04-7.13563E-05-3.09159E-05-2.00412E-05 2.35052E-18 1.18990E-18
 -1       474 1.90492E-04-3.46292E-05-6.60921E-05-1.35345E-05-5.59423E-18-1.31872E-18
 -1       475 8.92926E-05-4.94570E-05-1.67196E-05-5.20864E-05-1.61471E-18-2.38580E-18
 -1       476 2.43825E-05-6.60567E-06-6.80221E-06-4.24876E-06-8.85441E-19 2.06348E-18
 -1       477 8.80947E-05-1.20387E-05-3.26129E-05-3.93751E-06 4.66574E-19-1.42482E-18
 -1       478 8.89581E-05-1.29877E-05-3.25786E-05-5.36610E-06 9.16274E-20-1.46506E-18
 -1       479 8.80101E-05-1.19050E-05-3.26331E-05-7.02993E-07 9.01848E-19-9.58608E-19
 -1       480 8.85350E-05-1.24543E-05-3.26233E-05 1.15792E-06 1.01929E-18-8.04681E-19
 -1       481 8.93073E-05-1.33086E-05-3.25896E-05 3.12011E-06 1.15230E-18-6.05590E-19
 -1       482 9.03484E-05-1.45290E-05-3.25149E-05 5.17338E-06 1.35391E-18-1.01717E-19
 -1       483 9.17265E-05-1.62457E-05-3.23722E-05 7.13707E-06 1.40985E-18 4.60897E-19
 -1       484 9.35882E-05-1.87111E-05-3.21111E-05 8.71522E-06 1.43118E-18 9.55797E-19
 -1       485 9.58106E-05-2.21503E-05-3.15811E-05 9.14647E-06 1.28752E-18 1.66143E-18
 -1       486 9.69027E-05-2.48652E-05-3.08624E-05 7.69757E-06 9.90939E-19 2.40492E-18
 -1       487 9.58718E-05-2.36946E-05-3.09220E-05-4.09948E-06-4.89634E-19-1.05705E-18
 -1       488 1.47584E-04-5.48154E-05-4.00133E-05 9.79984E-06 6.01393E-19-2.74428E-18
 -1       489 9.56077E-05-2.50380E-05-3.02343E-05-4.96891E-07-3.86695E-19-7.89024E-19
 -1       490 9.49979E-05-2.53322E-05-2.98479E-05 2.57803E-06-1.92219E-19-5.13626E-19
 -1       491 9.41496E-05-2.48344E-05-2.96976E-05 5.36576E-06 4.01307E-21-4.10999E-19
 -1       492 9.28705E-05-2.36012E-05-2.96763E-05 8.26960E-06-2.05860E-20-2.36396E-19
 -1       493 9.07876E-05-2.15877E-05-2.96436E-05 1.16187E-05-2.55921E-19-7.22052E-20
 -1       494 8.74249E-05-1.88754E-05-2.93562E-05 1.56603E-05 4.85063E-19-1.26571E-19
 -1       495 8.27370E-05-1.61975E-05-2.84684E-05 2.03481E-05 6.39923E-19-1.14970E-19
 -1       496 7.66387E-05-1.51983E-05-2.61682E-05 2.64336E-05 1.30749E-18-4.55148E-19
 -1       497 7.14512E-05-2.05758E-05-2.13371E-05 3.39060E-05 1.78999E-18-5.54648E-19
 -1       498 1.50415E-04-3.57795E-05-4.96273E-05-5.60509E-06 2.23331E-18-1.96856E-18
 -1       499 1.13172E-04-4.98423E-05-2.67724E-05-3.31623E-05 3.10649E-18 1.04442E-18
 -1       500 9.99124E-05-3.07745E-05-2.93594E-05-3.34839E-05 7.43166E-19 1.51897E-19
 -1       501 9.67083E-05-2.38447E-05-3.11481E-05-2.75273E-05-1.24098E-18-1.38033E-18
 -1       502 9.68678E-05-2.30790E-05-3.15830E-05-2.09438E-05-9.05140E-19-1.76076E-18
 -1       503 9.74055E-05-2.42814E-05-3.13103E-05-1.51404E-05-6.47404E-19-2.63391E-18
 -1       504 9.75912E-05-2.56807E-05-3.07949E-05-1.05973E-05 6.90732E-19-2.82171E-18
 -1       505 9.74497E-05-2.67182E-05-3.02952E-05-7.40259E-06 1.12529E-18-2.66299E-18
 -1       506 9.71263E-05-2.74620E-05-2.98429E-05-5.01305E-06 2.58024E-18-2.38823E-18
 -1       507 9.67566E-05-2.79278E-05-2.94891E-05-3.37403E-06 1.52479E-18-1.50899E-18
 -1       508 9.64092E-05-2.82063E-05-2.92240E-05-2.26485E-06-1.17558E-19-1.22072E-18
 -1       509 9.61139E-05-2.83674E-05-2.90305E-05-1.51968E-06-4.31220E-19-8.57126E-20
 -1       510 9.58776E-05-2.84583E-05-2.88915E-05-1.02038E-06 1.09990E-19 1.00069E-18
 -1       511 9.57023E-05-2.85060E-05-2.87968E-05-6.98696E-07 2.56099E-19 1.31202E-18
 -1       512 9.55622E-05-2.85334E-05-2.87256E-05-4.68189E-07 2.22176E-18 1.27489E-18
 -1       513 9.54589E-05-2.85477E-05-2.86755E-05-3.12395E-07-3.31351E-19 1.82250E-18
 -1       514 9.53840E-05-2.85551E-05-2.86405E-05-2.06578E-07-5.08362E-19 2.50059E-19
 -1       515 9.53307E-05-2.85589E-05-2.86162E-05-1.34469E-07 1.67587E-19-3.20953E-19
 -1       516 9.52935E-05-2.85610E-05-2.85995E-05-8.52815E-08-1.68064E-18-6.95534E-19
 -1       517 9.52691E-05-2.85623E-05-2.85885E-05-5.31572E-08-4.03579E-18-1.80342E-18
 -1       518 9.52519E-05-2.85633E-05-2.85807E-05-3.00176E-08-1.11666E-18-2.03547E-18
 -1       519 9.52410E-05-2.85644E-05-2.85757E-05-1.45263E-08-3.00964E-19-2.17994E-18
 -1       520 9.52346E-05-2.85654E-05-2.85725E-05-4.34667E-09 1.66375E-19-7.40620E-19
 -1       521 9.52313E-05-2.85664E-05-2.85706E-05 2.14341E-09 4.13941E-19-1.79552E-19
 -1       522 9.52300E-05-2.85674E-05-2.85697E-05 6.06924E-09-3.85560E-19 1.51687E-18
 -1       523 9.52301E-05-2.85683E-05-2.85693E-05 8.13056E-09 9.03601E-19-5.18268E-19
 -1       524 9.52309E-05-2.85693E-05-2.85693E-05 9.04157E-09-9.68543E-19-3.34950E-18
 -1       525 9.52323E-05-2.85703E-05-2.85695E-05 8.97192E-09-1.01187E-18-2.04697E-18
 -1       526 9.52339E-05-2.85713E-05-2.85697E-05 8.13337E-09-1.51020E-18-4.50594E-19
 -1       527 9.55836E-05-2.82945E-05-2.88362E-05 8.33980E-07 5.42388E-19 1.03270E-18
 -1       528 9.57982E-05-2.74094E-05-2.93065E-05 1.91176E-06 4.49514E-19 1.14854E-18
 -1       529 9.55164E-05-2.94965E-05-2.82963E-05 1.00159E-06 2.87097E-19 9.45424E-19
 -1       530 9.55009E-05-2.98775E-05-2.81271E-05 1.91580E-06 2.02834E-19 1.22847E-18
 -1       531 9.53286E-05-3.00158E-05-2.79941E-05 3.17672E-06 1.70075E-19 9.47092E-19
 -1       532 9.48608E-05-2.97858E-05-2.78917E-05 4.55532E-06 2.22570E-19 9.87971E-19
 -1       533 9.39947E-05-2.90788E-05-2.78221E-05 5.72814E-06 1.74516E-19 1.43124E-18
 -1       534 9.27255E-05-2.78820E-05-2.77892E-05 6.30249E-06 3.07853E-19 1.88868E-18
 -1       535 9.12068E-05-2.63540E-05-2.77912E-05 5.91114E-06-1.00983E-19 2.06865E-18
 -1       536 8.97645E-05-2.48467E-05-2.78174E-05 4.36792E-06 1.68880E-19 1.21971E-18
 -1       537 8.88099E-05-2.38122E-05-2.78507E-05 1.81642E-06 6.41601E-19 9.46684E-20
 -1       538 8.86639E-05-2.36052E-05-2.78767E-05-1.24555E-06 4.97823E-19 1.60852E-19
 -1       539 8.93935E-05-2.42999E-05-2.78922E-05-4.12573E-06 9.21340E-19-3.86352E-19
 -1       540 9.07758E-05-2.56501E-05-2.79071E-05-6.21065E-06 3.48853E-19-2.41362E-20
 -1       541 9.24176E-05-2.72246E-05-2.79377E-05-7.18916E-06 6.51688E-20 6.28495E-19
 -1       542 9.39398E-05-2.86149E-05-2.79962E-05-7.10521E-06-3.40875E-19 5.22780E-19
 -1       543 9.51069E-05-2.95810E-05-2.80840E-05-6.24855E-06-3.02295E-20 1.04754E-18
 -1       544 9.58518E-05-3.00751E-05-2.81926E-05-4.98813E-06 4.53893E-19 1.79556E-18
 -1       545 9.62263E-05-3.01816E-05-2.83078E-05-3.64386E-06-3.06106E-20 1.94901E-18
 -1       546 9.63340E-05-3.00369E-05-2.84158E-05-2.42883E-06 3.49067E-20 1.16563E-18
 -1       547 9.62799E-05-2.97697E-05-2.85066E-05-1.44820E-06-1.25620E-19 5.16792E-19
 -1       548 9.61460E-05-2.94741E-05-2.85754E-05-7.26179E-07 6.97736E-19 6.69751E-20
 -1       549 9.59862E-05-2.92052E-05-2.86217E-05-2.38728E-07-4.05868E-20 6.08544E-19
 -1       550 9.58310E-05-2.89872E-05-2.86481E-05 5.98923E-08-4.07012E-19 1.07564E-18
 -1       551 9.56944E-05-2.88245E-05-2.86589E-05 2.19587E-07-7.05431E-20 9.72314E-19
 -1       552 9.55811E-05-2.87112E-05-2.86587E-05 2.84977E-07-6.16359E-19 1.43262E-18
 -1       553 9.54905E-05-2.86371E-05-2.86515E-05 2.91599E-07-8.01550E-20 2.06035E-18
 -1       554 9.54199E-05-2.85919E-05-2.86405E-05 2.65454E-07-3.92751E-20 4.94941E-19
 -1       555 9.53661E-05-2.85666E-05-2.86283E-05 2.24210E-07 5.88617E-19-1.29269E-19
 -1       556 9.53257E-05-2.85542E-05-2.86163E-05 1.78993E-07 7.42768E-19-1.19047E-18
 -1       557 9.52959E-05-2.85496E-05-2.86054E-05 1.36182E-07-4.02634E-19 3.69484E-20
 -1       558 9.52743E-05-2.85496E-05-2.85962E-05 9.89345E-08 2.75936E-19 6.02635E-19
 -1       559 9.52590E-05-2.85517E-05-2.85888E-05 6.83642E-08 9.73451E-19-1.52606E-18
 -1       560 9.52485E-05-2.85548E-05-2.85829E-05 4.43904E-08 7.43872E-19-5.28352E-19
 -1       561 9.52415E-05-2.85581E-05-2.85786E-05 2.63141E-08-9.81780E-19 1.02197E-18
 -1       562 9.52372E-05-2.85611E-05-2.85754E-05 1.31855E-08 1.79907E-18 1.14784E-18
 -1       563 9.52347E-05-2.85637E-05-2.85733E-05 4.02460E-09 1.16788E-18-6.19572E-19
 -1       564 9.52336E-05-2.85659E-05-2.85719E-05-2.05729E-09-9.23238E-20-1.66346E-18
 -1       565 9.52334E-05-2.85677E-05-2.85710E-05-5.80010E-09-5.86441E-19-2.65566E-18
 -1       566 9.52338E-05-2.85693E-05-2.85705E-05-7.76927E-09-1.48913E-18-1.04947E-18
 -1       567 9.52346E-05-2.85707E-05-2.85702E-05-8.37309E-09-4.55768E-19 1.35129E-18
 -1       568 9.52356E-05-2.85721E-05-2.85701E-05-7.88086E-09 6.72940E-19 1.18073E-18
 -1       569 9.52403E-05-2.85763E-05-2.85703E-05-6.25925E-09 8.80569E-19-9.34454E-19
 -1       570 9.52393E-05-2.85753E-05-2.85703E-05-7.35787E-09-4.03310E-19 3.79942E-19
 -1       571 9.52378E-05-2.85741E-05-2.85702E-05-7.81036E-09 7.29130E-19 9.75824E-20
 -1       572 9.48731E-05-2.02367E-05-3.20043E-05-8.10449E-06-6.52139E-19-1.37513E-18
 -1       573 9.52410E-05-2.85770E-05-2.85703E-05-4.62730E-09-2.80822E-19-7.46049E-19
 -1       574 9.52414E-05-2.85775E-05-2.85703E-05-2.65999E-09-2.05645E-18 2.04167E-19
 -1       575 9.52417E-05-2.85778E-05-2.85703E-05-4.74023E-10-3.75109E-19 1.10789E-18
 -1       576 9.52418E-05-2.85778E-05-2.85703E-05 1.82004E-09-6.99553E-19 2.97380E-18
 -1       577 9.52415E-05-2.85776E-05-2.85702E-05 4.04739E-09 1.43906E-18 1.34942E-18
 -1       578 9.52409E-05-2.85771E-05-2.85702E-05 6.08943E-09 3.48597E-18 1.05806E-18
 -1       579 9.52398E-05-2.85761E-05-2.85702E-05 7.64258E-09 1.18343E-18 1.86740E-18
 -1       580 9.52383E-05-2.85747E-05-2.85701E-05 8.44538E-09-5.20838E-19-2.29625E-18
 -1       581 9.55085E-05-2.89622E-05-2.85205E-05 5.93972E-07 2.56748E-19 9.92047E-19
 -1       582 5.47263E-05-3.03192E-05-9.95532E-06 4.93127E-05-1.06461E-19 2.11340E-18
 -1       583 1.30502E-04-6.06286E-05-2.99244E-05 3.35500E-05 2.08264E-19-3.31587E-18
 -1       584 9.72359E-05-5.08322E-05-1.95922E-05 5.03049E-05-7.97799E-20 8.54842E-19
 -1       585 2.81259E-05-1.38828E-05-5.42902E-06 3.13977E-05-4.45222E-19 3.39343E-19
 -1       586 1.43426E-04-1.21793E-05-5.68990E-05 8.83941E-06 1.74415E-18 7.30116E-19
 -1       587 1.40562E-04-4.09082E-06-5.91984E-05-9.55863E-07 2.84783E-18 5.46416E-19
 -1       588 8.78233E-05-1.17290E-05-3.26285E-05-2.39727E-06 7.56530E-19-1.20918E-18
 -1       589 1.50389E-04-3.35951E-05-5.05122E-05 7.18198E-06 2.11758E-22 4.16634E-19
 -1       590 1.49120E-04-5.59831E-05-4.01780E-05-1.19358E-05-8.49337E-19-9.26972E-20
 -1       591 1.30438E-04-6.03944E-05-2.99859E-05-3.43316E-05-1.00659E-18-1.10244E-18
 -1       592 5.17246E-05-2.77587E-05-9.70947E-06-4.61362E-05-1.45287E-18-2.76472E-18
 -1       593 2.65912E-05-1.05549E-05-6.15633E-06-2.39708E-05-7.28263E-19-2.97182E-18
 -1       594 2.61417E-05-8.27163E-06-6.82623E-06 9.11253E-06 6.57959E-19-2.91168E-18
 -1       595 9.20474E-05-4.64885E-05-1.91528E-05 3.92708E-05 5.46548E-19-3.50883E-19
 -1       596 4.92070E-05-2.46999E-05-9.92285E-06 3.35499E-05 7.44595E-19-1.99286E-18
 -1       597 1.44613E-04-1.24802E-05-5.72507E-05-8.09274E-06 3.39237E-18-9.87773E-19
 -1       598 7.76959E-05-3.26920E-05-1.86741E-05-3.76485E-05 2.06697E-18 1.46378E-18
 -1       599 4.28895E-05-1.62510E-05-1.06224E-05-2.73042E-05 1.29570E-19 1.66558E-18
 -1       600 9.05183E-05-1.47468E-05-3.24967E-05-6.68037E-06-1.36843E-19-1.50645E-18
 -1       601 9.61757E-05-2.61571E-05-2.99875E-05 4.67628E-06 9.07184E-19 1.80219E-18
 -1       602 9.52359E-05-2.85728E-05-2.85699E-05 6.84095E-09 1.34486E-18-1.08369E-18
 -1       603 9.58622E-05-2.68047E-05-2.95843E-05 3.05840E-06 7.82711E-19 1.40680E-18
 -1       604 9.24425E-05-1.70532E-05-3.23316E-05-7.59979E-06-3.83637E-19-1.53497E-18
 -1       605 1.13285E-04-5.71188E-05-2.39296E-05-4.25492E-05-1.61307E-18-1.83012E-18
 -1       606 9.11621E-05-1.66388E-05-3.19440E-05 1.23270E-06 1.05389E-18-6.67581E-19
 -1       607 9.03609E-05-1.57454E-05-3.19832E-05-3.85283E-07 9.08093E-19-7.99480E-19
 -1       608 9.32353E-05-1.93548E-05-3.16693E-05 4.47500E-06 1.17254E-18 2.58321E-19
 -1       609 9.44928E-05-2.13230E-05-3.13656E-05 5.64735E-06 1.11990E-18 6.13131E-19
 -1       610 9.60751E-05-2.45554E-05-3.06395E-05 5.92279E-06 1.06203E-18 1.30996E-18
 -1       611 9.52419E-05-2.85741E-05-2.85719E-05-1.81121E-09 5.74947E-19 1.04541E-18
 -1       612 9.42126E-05-2.18875E-05-3.09975E-05-2.88035E-06-2.28639E-19-1.19800E-18
 -1       613 8.41043E-05-3.91727E-05-1.88564E-05-4.52063E-05-1.52405E-18-2.33405E-18
 -1       614 9.39205E-05-2.31022E-05-3.03492E-05 1.77335E-07-1.39994E-19-1.00544E-18
 -1       615 9.27690E-05-2.30341E-05-2.98840E-05 2.72606E-06-4.57993E-20-8.06432E-19
 -1       616 9.07216E-05-2.18920E-05-2.94962E-05 4.92607E-06 9.55562E-20-5.30313E-19
 -1       617 8.74271E-05-1.96665E-05-2.90381E-05 6.91200E-06 1.25654E-19-5.15302E-19
 -1       618 8.23189E-05-1.63505E-05-2.82655E-05 8.72904E-06 3.07738E-20-3.59405E-19
 -1       619 7.51027E-05-1.23482E-05-2.68709E-05 1.03326E-05 3.18873E-19-6.46908E-19
 -1       620 6.42818E-05-8.08572E-06-2.39787E-05 1.20515E-05 4.50433E-19-1.19993E-18
 -1       621 4.93944E-05-5.63000E-06-1.83030E-05 1.44328E-05 9.35876E-19-2.14371E-18
 -1       622 9.65266E-05-2.74488E-05-2.96039E-05 1.62872E-06 5.74422E-19 5.85547E-19
 -1       623 9.52398E-05-2.85734E-05-2.85713E-05-7.33831E-09-3.10674E-19 1.06790E-19
 -1       624 9.73459E-05-3.00119E-05-2.88580E-05 7.26288E-07 2.65867E-19 3.88454E-19
 -1       625 7.20700E-05-1.51180E-05-2.40760E-05-2.64547E-05-1.37157E-18-3.12846E-19
 -1       626 7.89386E-05-1.44335E-05-2.75672E-05-2.05797E-05-8.32387E-19 3.89652E-19
 -1       627 8.52268E-05-1.72778E-05-2.90967E-05-1.54576E-05-1.44573E-18 1.37044E-19
 -1       628 8.96048E-05-2.04797E-05-2.96131E-05-1.14325E-05-3.31364E-19 4.00288E-19
 -1       629 9.22468E-05-2.29974E-05-2.96692E-05-8.41677E-06 1.10977E-19-4.89003E-19
 -1       630 9.38811E-05-2.49329E-05-2.95426E-05-5.99600E-06 2.00335E-18 1.92709E-20
 -1       631 9.47663E-05-2.62463E-05-2.93610E-05-4.22156E-06 2.13735E-18-6.03970E-19
 -1       632 9.52062E-05-2.71031E-05-2.91838E-05-2.94784E-06 3.56904E-19-1.66271E-18
 -1       633 9.53973E-05-2.76492E-05-2.90328E-05-2.04794E-06 1.04852E-18-1.32200E-19
 -1       634 9.54580E-05-2.79924E-05-2.89124E-05-1.41887E-06 7.44195E-19 1.07463E-18
 -1       635 9.54557E-05-2.81979E-05-2.88239E-05-9.98317E-07 3.10558E-19 1.17318E-18
 -1       636 9.54262E-05-2.83341E-05-2.87531E-05-6.87377E-07 1.22773E-18 2.02302E-18
 -1       637 9.53884E-05-2.84188E-05-2.87008E-05-4.71280E-07 4.27717E-19 9.80380E-19
 -1       638 9.53517E-05-2.84718E-05-2.86625E-05-3.20727E-07-2.08272E-18 9.47059E-20
 -1       639 9.53200E-05-2.85052E-05-2.86347E-05-2.15714E-07 2.87855E-19 4.67117E-19
 -1       640 9.52946E-05-2.85267E-05-2.86147E-05-1.42492E-07-1.72155E-18-1.42415E-18
 -1       641 9.52759E-05-2.85401E-05-2.86010E-05-9.36132E-08-1.57002E-18-1.32344E-18
 -1       642 9.52614E-05-2.85496E-05-2.85907E-05-5.76008E-08-2.76891E-18 9.90902E-19
 -1       643 9.52511E-05-2.85561E-05-2.85835E-05-3.28732E-08-1.60176E-18-1.05336E-18
 -1       644 9.52441E-05-2.85607E-05-2.85786E-05-1.61178E-08 1.72558E-18-5.30657E-19
 -1       645 9.52396E-05-2.85640E-05-2.85753E-05-4.99950E-09-1.57634E-18-1.70907E-18
 -1       646 9.52369E-05-2.85664E-05-2.85731E-05 2.13885E-09 1.32948E-18-1.30903E-18
 -1       647 9.52356E-05-2.85681E-05-2.85718E-05 6.30324E-09 2.45713E-19-1.09089E-18
 -1       648 9.52351E-05-2.85695E-05-2.85709E-05 8.71796E-09-2.16820E-18-2.22089E-18
 -1       649 9.52352E-05-2.85708E-05-2.85705E-05 9.67031E-09-7.19240E-19-2.61793E-18
 -1       650 9.52358E-05-2.85720E-05-2.85702E-05 9.48025E-09 1.96036E-20-2.08830E-18
 -1       651 9.52375E-05-2.85723E-05-2.85708E-05-8.59203E-09-1.04843E-18 5.37213E-19
 -1       652 8.20261E-05-3.76853E-05-1.86384E-05 4.60456E-05-1.57768E-18 1.12187E-18
 -1       653 9.83384E-05-3.16655E-05-2.85752E-05 2.49145E-06 2.05539E-19 1.23527E-19
 -1       654 9.78554E-05-3.09697E-05-2.86663E-05 1.32937E-06 4.00596E-19 3.56130E-20
 -1       655 9.84977E-05-3.15345E-05-2.86987E-05 5.70317E-06-1.22671E-19 2.15898E-19
 -1       656 9.77755E-05-3.03109E-05-2.89127E-05 7.02173E-06-2.54720E-19 7.12344E-19
 -1       657 9.64331E-05-2.82914E-05-2.92020E-05 7.45346E-06-2.81778E-19 7.88421E-19
 -1       658 9.47207E-05-2.58501E-05-2.95138E-05 6.51031E-06 3.69213E-19 6.23327E-19
 -1       659 9.31717E-05-2.36971E-05-2.97730E-05 4.03977E-06 1.11217E-18 2.26178E-19
 -1       660 9.23892E-05-2.26069E-05-2.99053E-05 4.43979E-07 6.54223E-19-2.51069E-19
 -1       661 9.27100E-05-2.30069E-05-2.98713E-05-3.39296E-06 8.49430E-19-2.84892E-20
 -1       662 9.39927E-05-2.47217E-05-2.96858E-05-6.48125E-06 5.77901E-19 1.01951E-19
 -1       663 9.57102E-05-2.70855E-05-2.94087E-05-8.17769E-06-4.24253E-19 3.21911E-20
 -1       664 9.72637E-05-2.93244E-05-2.91156E-05-8.39708E-06-2.76002E-19 8.56708E-19
 -1       665 9.82696E-05-3.09142E-05-2.88663E-05-7.49612E-06-6.58866E-19 1.01633E-18
 -1       666 9.86403E-05-3.16977E-05-2.86903E-05-5.99519E-06-3.66774E-19 1.18946E-18
 -1       667 9.84998E-05-3.17936E-05-2.85894E-05-4.35273E-06 6.11731E-20 1.48711E-18
 -1       668 9.80519E-05-3.14410E-05-2.85486E-05-2.86685E-06 1.14408E-18 1.04685E-18
 -1       669 9.74844E-05-3.08767E-05-2.85471E-05-1.67698E-06 3.86823E-19 7.08288E-19
 -1       670 9.69265E-05-3.02754E-05-2.85655E-05-8.10104E-07 3.40262E-19 5.98480E-19
 -1       671 9.64470E-05-2.97387E-05-2.85898E-05-2.31166E-07 1.50802E-19 1.30684E-18
 -1       672 9.60696E-05-2.93103E-05-2.86114E-05 1.19666E-07-3.97312E-19 4.11919E-19
 -1       673 9.57907E-05-2.89959E-05-2.86265E-05 3.04779E-07-6.60287E-19 2.07956E-19
 -1       674 9.55946E-05-2.87814E-05-2.86343E-05 3.78338E-07 1.02782E-19 2.57201E-19
 -1       675 9.54622E-05-2.86456E-05-2.86357E-05 3.82661E-07-5.60707E-19-1.04207E-18
 -1       676 9.53756E-05-2.85668E-05-2.86323E-05 3.48369E-07 5.88175E-19-5.45214E-19
 -1       677 9.53206E-05-2.85266E-05-2.86260E-05 2.96192E-07 5.55970E-19 5.68780E-19
 -1       678 9.52865E-05-2.85108E-05-2.86181E-05 2.39219E-07 3.61891E-19 1.20233E-18
 -1       679 9.52657E-05-2.85093E-05-2.86098E-05 1.85030E-07 1.07085E-19 1.84345E-18
 -1       680 9.52533E-05-2.85152E-05-2.86020E-05 1.37458E-07-7.15291E-19 9.11303E-19
 -1       681 9.52459E-05-2.85243E-05-2.85950E-05 9.79388E-08 1.25917E-18-7.15759E-20
 -1       682 9.52417E-05-2.85340E-05-2.85890E-05 6.64843E-08-2.17080E-19 6.33200E-19
 -1       683 9.52392E-05-2.85430E-05-2.85841E-05 4.23421E-08-7.80731E-19 7.53026E-19
 -1       684 9.52378E-05-2.85506E-05-2.85802E-05 2.44266E-08-2.85828E-19 7.90679E-19
 -1       685 9.52370E-05-2.85568E-05-2.85772E-05 1.15814E-08 2.36368E-18 2.35689E-18
 -1       686 9.52366E-05-2.85616E-05-2.85750E-05 2.72802E-09 9.40532E-19 2.21156E-18
 -1       687 9.52365E-05-2.85653E-05-2.85734E-05-3.05409E-09-2.48950E-19 1.77266E-18
 -1       688 9.52366E-05-2.85681E-05-2.85722E-05-6.51717E-09-2.68752E-19 1.02682E-18
 -1       689 9.52370E-05-2.85703E-05-2.85714E-05-8.19960E-09-1.21449E-18 6.53653E-19
 -1       690 9.52415E-05-2.85739E-05-2.85718E-05-3.93499E-09 2.97856E-19-3.62068E-19
 -1       691 1.38456E-04-4.39376E-05-4.07576E-05-7.14260E-06 7.78695E-19-7.91049E-19
 -1       692 9.36415E-05-1.98882E-05-3.16059E-05-5.23687E-06-3.96438E-19-1.41343E-18
 -1       693 4.87247E-05-1.60431E-05-1.34749E-05-3.37022E-05-1.00466E-18-2.81114E-18
 -1       694 9.52422E-05-2.85744E-05-2.85719E-05 4.97559E-10 1.99305E-19 1.98276E-18
 -1       695 9.52422E-05-2.85746E-05-2.85718E-05 2.86684E-09 1.72414E-19 2.41333E-18
 -1       696 9.52418E-05-2.85747E-05-2.85716E-05 5.23994E-09 9.42860E-19 1.88084E-18
 -1       697 9.52409E-05-2.85745E-05-2.85713E-05 7.34922E-09 1.74433E-18 9.88617E-20
 -1       698 9.52392E-05-2.85739E-05-2.85708E-05 8.87820E-09-5.22246E-19-3.71222E-18
 -1       699 9.69019E-05-2.88573E-05-2.91620E-05 7.88835E-07 6.33868E-19 4.77019E-19
 -1       700 1.36006E-04-5.84264E-05-3.33332E-05 1.54596E-05-2.06239E-19-2.56357E-18
 -1       701 3.47904E-05-4.85861E-06-1.22490E-05 1.41861E-05-1.38699E-18 1.50862E-18
 -1       702 5.13232E-05-1.84208E-05-1.35838E-05 3.80659E-05-6.88770E-19 8.93461E-19
 -1       703 1.15365E-04-5.43172E-05-2.60173E-05 3.55823E-05-7.72401E-19-3.24383E-18
 -1       704 1.32225E-04-2.43343E-05-4.66956E-05-1.35741E-05 1.70354E-18-6.72068E-19
 -1       705 9.52408E-05-2.85737E-05-2.85716E-05-5.79961E-09 5.85969E-21-9.94146E-19
 -1       706 1.34025E-04-2.22398E-05-4.83711E-05 1.34605E-05 3.92970E-19 1.80201E-18
 -1       707 1.38285E-04-6.09523E-05-3.32039E-05-1.89267E-05-1.23691E-18-2.25324E-19
 -1       708 1.41274E-04-4.64269E-05-4.09367E-05 6.04308E-06-7.04003E-19 1.15609E-18
 -1       709 1.23343E-04-6.45285E-06-5.06466E-05 5.57675E-06 1.71535E-18 1.15333E-18
 -1       710 3.76220E-05-3.75267E-06-1.39637E-05-5.01838E-06 3.05465E-19-1.95924E-18
 -1       711 9.86248E-05-3.19290E-05-2.85848E-05 4.04551E-06 3.17138E-19 5.21503E-19
 -1       712 9.21276E-05-1.78286E-05-3.18483E-05 2.91599E-06 1.05493E-18-1.81077E-19
 -1       713 1.26554E-04-7.44282E-06-5.16185E-05-7.04393E-06 2.38011E-18 5.96788E-19
 -1       714 9.00789E-05-1.56650E-05-3.18967E-05-3.77569E-06 1.32380E-19-1.09877E-18
 -1       715 5.86262E-05-1.41682E-05-1.85350E-05-2.79402E-05-5.98429E-19 2.79309E-19
 -1       716 9.11971E-05-1.70343E-05-3.17858E-05-4.33483E-06-7.57346E-20-1.21041E-18
 -1       717 8.98134E-05-1.51974E-05-3.19832E-05-1.79775E-06 7.53186E-19-9.15094E-19
 -1       718 9.60964E-05-2.55389E-05-3.02331E-05 3.33007E-06 6.67108E-19 7.94248E-19
 -1       719 8.96654E-05-1.51156E-05-3.19549E-05-2.92756E-06 5.17367E-19-1.02210E-18
 -1       720 4.25974E-05-9.31518E-06-1.36847E-05 2.07346E-05 1.15834E-18-2.78446E-18
 -1       721 4.11117E-05-5.18296E-06-1.48215E-05-1.10318E-05-9.99128E-19 7.86523E-19
 -1       722 9.53568E-05-2.34150E-05-3.08336E-05 3.25033E-06 7.82959E-19 4.55676E-19
 -1       723 1.09564E-04-5.05526E-05-2.51181E-05-3.48620E-05-1.91929E-18-1.01981E-18
 -1       724 9.52426E-05-2.85709E-05-2.85736E-05 1.18849E-09-4.68210E-19 3.85307E-18
 -1       725 9.62712E-05-2.55163E-05-3.03217E-05 2.23651E-06 7.55087E-19 5.32690E-19
 -1       726 1.23283E-04-5.39373E-05-2.96903E-05 1.99771E-05 1.78400E-19-1.69122E-18
 -1       727 9.20458E-05-2.14709E-05-3.02479E-05-5.97160E-08-3.14410E-20-8.31334E-19
 -1       728 9.03002E-05-2.10960E-05-2.96590E-05 1.47173E-06 1.55378E-19-8.03444E-19
 -1       729 8.72741E-05-1.95859E-05-2.90101E-05 2.27270E-06 5.95525E-20-7.32907E-19
 -1       730 8.25794E-05-1.69849E-05-2.81119E-05 2.20390E-06 2.16502E-19-7.55963E-19
 -1       731 7.60526E-05-1.36208E-05-2.67481E-05 1.08844E-06-8.85630E-20-6.52047E-19
 -1       732 6.62554E-05-9.51720E-06-2.42478E-05-1.64810E-06-2.07228E-19-9.41609E-19
 -1       733 5.42747E-05-5.82831E-06-2.05279E-05-3.61057E-06 3.17151E-19-1.39066E-18
 -1       734 9.26389E-05-1.94689E-05-3.13598E-05-4.93210E-07 8.00428E-19-7.50254E-19
 -1       735 1.01868E-04-3.12364E-05-3.02687E-05 8.12943E-06-2.16508E-19 2.52602E-19
 -1       736 5.93030E-05-6.43516E-06-2.24423E-05-1.21351E-05-1.13559E-18 3.09154E-19
 -1       737 7.18786E-05-1.07737E-05-2.61454E-05-1.00219E-05-1.91680E-18-3.14987E-19
 -1       738 8.04035E-05-1.52650E-05-2.79114E-05-8.31673E-06-5.20938E-19-1.51854E-19
 -1       739 8.58909E-05-1.89809E-05-2.86743E-05-6.79877E-06-3.52643E-19-1.01453E-19
 -1       740 8.96510E-05-2.20020E-05-2.89914E-05-5.32308E-06 1.21657E-18 3.34676E-19
 -1       741 9.19962E-05-2.41724E-05-2.90661E-05-4.05696E-06 2.17854E-18-7.98838E-19
 -1       742 9.34167E-05-2.56661E-05-2.90349E-05-3.02665E-06 9.35824E-19-4.59403E-19
 -1       743 9.42546E-05-2.66674E-05-2.89652E-05-2.22309E-06 1.77238E-18 4.78149E-19
 -1       744 9.47352E-05-2.73270E-05-2.88887E-05-1.61518E-06 1.06925E-18 6.38910E-19
 -1       745 9.49929E-05-2.77405E-05-2.88221E-05-1.18192E-06 2.70639E-19 1.13163E-18
 -1       746 9.51402E-05-2.80267E-05-2.87627E-05-8.44247E-07 7.29753E-19 1.38997E-18
 -1       747 9.52144E-05-2.82123E-05-2.87150E-05-5.98680E-07 1.97971E-19-2.73985E-19
 -1       748 9.52482E-05-2.83330E-05-2.86778E-05-4.20717E-07-1.51212E-18-1.16791E-18
 -1       749 9.52607E-05-2.84121E-05-2.86493E-05-2.92264E-07-5.38699E-19-6.63698E-19
 -1       750 9.52626E-05-2.84643E-05-2.86278E-05-1.99991E-07-2.14315E-18-8.83882E-19
 -1       751 9.52600E-05-2.84977E-05-2.86124E-05-1.36620E-07-1.57295E-18-2.09429E-18
 -1       752 9.52556E-05-2.85217E-05-2.86002E-05-8.87390E-08-1.32560E-18-1.48552E-18
 -1       753 9.52511E-05-2.85380E-05-2.85913E-05-5.50018E-08-2.72274E-18-1.12479E-18
 -1       754 9.52472E-05-2.85491E-05-2.85849E-05-3.14967E-08 2.43529E-19 9.52038E-20
 -1       755 9.52441E-05-2.85569E-05-2.85802E-05-1.53963E-08-1.80100E-18-3.29658E-18
 -1       756 9.52417E-05-2.85622E-05-2.85769E-05-4.64339E-09 1.03885E-18-1.44616E-18
 -1       757 9.52401E-05-2.85658E-05-2.85747E-05 2.02645E-09 3.81834E-19-9.50885E-19
 -1       758 9.52390E-05-2.85685E-05-2.85731E-05 6.32825E-09-1.01557E-18-2.55015E-18
 -1       759 9.52383E-05-2.85705E-05-2.85719E-05 8.62150E-09-2.53087E-18-2.66527E-18
 -1       760 9.52388E-05-2.85722E-05-2.85714E-05 9.15455E-09 7.39913E-19-4.78525E-18
 -1       761 1.00144E-04-2.79564E-05-3.09356E-05 8.39752E-06 5.74365E-20 2.67183E-20
 -1       762 1.02627E-04-3.33352E-05-2.96951E-05 6.56529E-06-4.14702E-19 2.89627E-19
 -1       763 9.79535E-05-2.43039E-05-3.15626E-05 6.69270E-06 1.01907E-18 1.49049E-19
 -1       764 9.62389E-05-2.16098E-05-3.19850E-05 2.99712E-06 8.20544E-19 6.39085E-19
 -1       765 9.58493E-05-2.10193E-05-3.20716E-05-1.76798E-06 4.58770E-19 5.29866E-19
 -1       766 9.69779E-05-2.27937E-05-3.17936E-05-6.11126E-06 8.56492E-19 4.30765E-20
 -1       767 9.89935E-05-2.60979E-05-3.12395E-05-8.78877E-06-4.79658E-20 1.78494E-19
 -1       768 1.00917E-04-2.95925E-05-3.05652E-05-9.40663E-06-8.43637E-19 1.53707E-19
 -1       769 1.02029E-04-3.22140E-05-2.99190E-05-8.39820E-06-7.02366E-19-6.27415E-20
 -1       770 1.02144E-04-3.35588E-05-2.93930E-05-6.54297E-06-5.91623E-19 5.13248E-19
 -1       771 1.01469E-04-3.37615E-05-2.90176E-05-4.52814E-06 2.17526E-19 8.33007E-20
 -1       772 1.00363E-04-3.32074E-05-2.87813E-05-2.77001E-06 8.22896E-19 3.45140E-19
 -1       773 9.91487E-05-3.22941E-05-2.86523E-05-1.43119E-06 3.26049E-19 1.38668E-18
 -1       774 9.80376E-05-3.13157E-05-2.85953E-05-5.12874E-07 1.73775E-19 1.31184E-18
 -1       775 9.71292E-05-3.04421E-05-2.85803E-05 5.76101E-08-1.07391E-19 1.07625E-18
 -1       776 9.64447E-05-2.97451E-05-2.85856E-05 3.71329E-07 5.08617E-19 1.43495E-18
 -1       777 9.59622E-05-2.92342E-05-2.85977E-05 5.10935E-07-1.23697E-19 9.16818E-19
 -1       778 9.56414E-05-2.88865E-05-2.86093E-05 5.41272E-07 7.81026E-20-5.83489E-19
 -1       779 9.54403E-05-2.86671E-05-2.86171E-05 5.08950E-07-1.01544E-18 1.04879E-18
 -1       780 9.53220E-05-2.85409E-05-2.86205E-05 4.45389E-07-3.86764E-19 7.79276E-19
 -1       781 9.52579E-05-2.84780E-05-2.86199E-05 3.70533E-07 2.56669E-19-9.51840E-19
 -1       782 9.52272E-05-2.84551E-05-2.86166E-05 2.96199E-07-3.86846E-19-3.11247E-19
 -1       783 9.52158E-05-2.84555E-05-2.86115E-05 2.28725E-07 1.90322E-19-2.05157E-19
 -1       784 9.52145E-05-2.84679E-05-2.86057E-05 1.70929E-07 5.87747E-19-1.63599E-18
 -1       785 9.52178E-05-2.84852E-05-2.85997E-05 1.23483E-07-3.30973E-19-2.02181E-18
 -1       786 9.52227E-05-2.85033E-05-2.85940E-05 8.58455E-08-4.51820E-19 1.91042E-18
 -1       787 9.52275E-05-2.85198E-05-2.85890E-05 5.68697E-08-2.79727E-19 1.83353E-18
 -1       788 9.52315E-05-2.85338E-05-2.85847E-05 3.51813E-08-1.52694E-18 8.46350E-19
 -1       789 9.52344E-05-2.85450E-05-2.85812E-05 1.94059E-08-4.98885E-19 9.26071E-19
 -1       790 9.52364E-05-2.85537E-05-2.85783E-05 8.29050E-09 8.90779E-19 2.72242E-18
 -1       791 9.52377E-05-2.85603E-05-2.85760E-05 7.69465E-10 4.72222E-19 2.94933E-18
 -1       792 9.52384E-05-2.85651E-05-2.85742E-05-4.00881E-09 8.57896E-19 1.26882E-18
 -1       793 9.52418E-05-2.85702E-05-2.85736E-05-2.90035E-09-2.27551E-18 5.82993E-19
 -1       794 9.52423E-05-2.85704E-05-2.85737E-05-9.53042E-10-1.25443E-18 1.81492E-18
 -1       795 9.52421E-05-2.85722E-05-2.85728E-05 5.85360E-09 2.06129E-19 2.80267E-18
 -1       796 9.52408E-05-2.85724E-05-2.85722E-05 7.72555E-09-7.99775E-20-2.31693E-18
 -1       797 9.73139E-05-2.78509E-05-2.97705E-05 9.23915E-07 7.03821E-19 3.16650E-19
 -1       798 7.30320E-05-2.50128E-05-2.03553E-05-3.36024E-05-1.17166E-18-1.83531E-18
 -1       799 7.31421E-05-2.48190E-05-2.04749E-05 3.45194E-05-9.03546E-19 5.79172E-19
 -1       800 5.73862E-05-1.18384E-05-1.92600E-05-2.13788E-05-2.75279E-19-1.86996E-18
 -1       801 1.19335E-04-1.54319E-05-4.48094E-05 1.13280E-05 5.77359E-19 1.44418E-18
 -1       802 9.22897E-05-1.82544E-05-3.17294E-05-4.81795E-06-2.41583E-19-1.36230E-18
 -1       803 1.25356E-04-3.20007E-05-4.02006E-05-1.28015E-05 1.11505E-18-2.12053E-19
 -1       804 9.52398E-05-2.85704E-05-2.85726E-05-6.92209E-09-1.64550E-18 1.31105E-18
 -1       805 1.19781E-04-1.67488E-05-4.44324E-05-1.19722E-05 1.56462E-18-3.29966E-19
 -1       806 9.82569E-05-2.97091E-05-2.93779E-05 3.19509E-07 5.87830E-19 2.20554E-19
 -1       807 1.31499E-04-5.02323E-05-3.48674E-05 7.95258E-07 1.33937E-20-6.26119E-19
 -1       808 9.26893E-05-2.05952E-05-3.08955E-05-2.07267E-06 1.49486E-20-1.12180E-18
 -1       809 1.14389E-04-8.53628E-06-4.56614E-05-3.19364E-06 1.65598E-18 4.78057E-19
 -1       810 9.52426E-05-2.85716E-05-2.85733E-05 3.50200E-09 3.22087E-19 3.60793E-18
 -1       811 1.26664E-04-3.21952E-05-4.06992E-05 1.30938E-05-3.44120E-19 1.49145E-18
 -1       812 9.79688E-05-4.16092E-05-2.40533E-05 3.49960E-05-1.05203E-18-9.80884E-19
 -1       813 5.07234E-05-4.27011E-06-1.96368E-05 1.25925E-06-1.58674E-18 1.02740E-18
 -1       814 5.34420E-05-9.84510E-06-1.83853E-05 2.12318E-05-9.57769E-19 1.72729E-18
 -1       815 1.35163E-04-5.37682E-05-3.49307E-05-4.06259E-06-1.01704E-18 2.87793E-19
 -1       816 9.17443E-05-1.85405E-05-3.13743E-05-1.70567E-06 7.78269E-19-6.79340E-19
 -1       817 1.02439E-04-3.41027E-05-2.92864E-05 4.51698E-06 2.37950E-19 4.30976E-19
 -1       818 9.36303E-05-3.72665E-05-2.40700E-05-3.22448E-05-1.48595E-18-1.56058E-18
 -1       819 9.45244E-05-2.19259E-05-3.11161E-05 2.23979E-06 8.30044E-19-3.36417E-20
 -1       820 1.24388E-04-4.11199E-05-3.57302E-05-8.11053E-06 1.82923E-19 1.85839E-19
 -1       821 9.36040E-05-2.06167E-05-3.12818E-05 8.98275E-07 9.81848E-19-4.71573E-19
 -1       822 9.93135E-05-3.13542E-05-2.91258E-05 4.12432E-07 5.66092E-19 1.37398E-19
 -1       823 9.52412E-05-2.85703E-05-2.85733E-05-4.64280E-09-7.73388E-19-1.90968E-18
 -1       824 9.52392E-05-2.85678E-05-2.85735E-05-5.98532E-09-6.64262E-19 3.18129E-20
 -1       825 9.52406E-05-2.85703E-05-2.85730E-05-5.83241E-09-2.48698E-20 5.45021E-19
 -1       826 1.20299E-04-5.30127E-05-2.88082E-05-2.14364E-05-1.77565E-18-6.36267E-20
 -1       827 1.28214E-04-4.28876E-05-3.66535E-05 7.86199E-06-3.72764E-19 1.35229E-18
 -1       828 1.10234E-04-1.15619E-05-4.24238E-05 4.22793E-06 1.13702E-18 1.60921E-18
 -1       829 9.08782E-05-1.78855E-05-3.12833E-05-2.94010E-06 1.77716E-19-7.77214E-19
 -1       830 1.00468E-04-3.27629E-05-2.90168E-05 1.19015E-06 1.62225E-19 3.90571E-19
 -1       831 9.13409E-05-1.85882E-05-3.11806E-05-2.92022E-06 6.00361E-20-9.77906E-19
 -1       832 1.01598E-04-3.37833E-05-2.90639E-05 2.60637E-06 3.49462E-20 9.42985E-20
 -1       833 6.55115E-05-8.54577E-06-2.43375E-05-1.13395E-06-1.28197E-18 1.05832E-18
 -1       834 9.58471E-05-2.43361E-05-3.06456E-05 1.45207E-06 7.87178E-19 7.71028E-20
 -1       835 1.09332E-04-4.51131E-05-2.74958E-05 2.27397E-05-9.48379E-19-1.99633E-18
 -1       836 8.86888E-05-2.03168E-05-2.93036E-05-1.11976E-06 9.70238E-20-6.63825E-19
 -1       837 8.54657E-05-1.90992E-05-2.84438E-05-2.26079E-06 2.46817E-20-7.58766E-19
 -1       838 8.11245E-05-1.73751E-05-2.73200E-05-4.81895E-06 6.35630E-20-1.11581E-18
 -1       839 7.44624E-05-1.49573E-05-2.54386E-05-9.68864E-06-3.11364E-19-1.03557E-18
 -1       840 6.76897E-05-1.34172E-05-2.31032E-05-1.43350E-05-2.66804E-19-1.28152E-18
 -1       841 1.03839E-04-2.65840E-05-3.31107E-05 9.28409E-06 3.01671E-19 8.88263E-19
 -1       842 1.06293E-04-3.17105E-05-3.19634E-05 9.25051E-06-7.63053E-20 4.61274E-19
 -1       843 7.56521E-05-1.32637E-05-2.67276E-05-2.66056E-06-6.56879E-19 2.03841E-18
 -1       844 8.22872E-05-1.72088E-05-2.78885E-05-3.20566E-06-2.41544E-19 2.37563E-18
 -1       845 8.70166E-05-2.05351E-05-2.84920E-05-3.16449E-06 2.81008E-19 1.29609E-18
 -1       846 9.01102E-05-2.30160E-05-2.87544E-05-2.80253E-06 1.56186E-18 7.48561E-20
 -1       847 9.20942E-05-2.47892E-05-2.88448E-05-2.32596E-06 1.40917E-18-4.63349E-19
 -1       848 9.33428E-05-2.60207E-05-2.88523E-05-1.85084E-06 1.59550E-18-8.71660E-20
 -1       849 9.41146E-05-2.68588E-05-2.88240E-05-1.43168E-06 1.72351E-18-1.42320E-18
 -1       850 9.45671E-05-2.74002E-05-2.87858E-05-1.09964E-06 6.55731E-19-1.07855E-18
 -1       851 9.48570E-05-2.77859E-05-2.87448E-05-8.19201E-07 4.82910E-20-5.98664E-19
 -1       852 9.50278E-05-2.80428E-05-2.87079E-05-6.01916E-07 1.72411E-19-1.51335E-18
 -1       853 9.51269E-05-2.82143E-05-2.86769E-05-4.36180E-07-1.93593E-18-7.26008E-19
 -1       854 9.51831E-05-2.83293E-05-2.86516E-05-3.11432E-07-8.61086E-19-9.55047E-19
 -1       855 9.52141E-05-2.84068E-05-2.86317E-05-2.18650E-07-7.59669E-19-1.34633E-18
 -1       856 9.52299E-05-2.84573E-05-2.86168E-05-1.53121E-07-2.41617E-18-3.89008E-19
 -1       857 9.52384E-05-2.84942E-05-2.86047E-05-1.02290E-07-1.93649E-18-2.63120E-18
 -1       858 9.52422E-05-2.85195E-05-2.85955E-05-6.56971E-08-2.05000E-18-2.10777E-18
 -1       859 9.52435E-05-2.85370E-05-2.85885E-05-3.96684E-08-3.17822E-19-1.72847E-18
 -1       860 9.52435E-05-2.85491E-05-2.85833E-05-2.14746E-08-7.51422E-19-1.50309E-18
 -1       861 9.52429E-05-2.85574E-05-2.85795E-05-9.05905E-09-6.47014E-20-9.03905E-20
 -1       862 9.52421E-05-2.85630E-05-2.85768E-05-1.15917E-09 1.12301E-18-2.15286E-18
 -1       863 9.52412E-05-2.85671E-05-2.85746E-05 4.16709E-09-2.50367E-18-2.39042E-18
 -1       864 9.52404E-05-2.85699E-05-2.85730E-05 7.21030E-09-2.92513E-18-2.73575E-18
 -1       865 1.07319E-04-3.52043E-05-3.09056E-05 7.24090E-06-5.50791E-20 5.58271E-19
 -1       866 9.93070E-05-1.87383E-05-3.45383E-05 1.00117E-06 3.47818E-19 3.53935E-19
 -1       867 9.98754E-05-1.97682E-05-3.43419E-05-4.95394E-06 7.91511E-19 6.63243E-19
 -1       868 1.02272E-04-2.39939E-05-3.35477E-05-9.10505E-06 1.64163E-19 1.11769E-18
 -1       869 1.04886E-04-2.92059E-05-3.24344E-05-1.03637E-05-5.10097E-19 8.58754E-19
 -1       870 1.06420E-04-3.34333E-05-3.12784E-05-9.13337E-06-7.02455E-19 7.26174E-19
 -1       871 1.06376E-04-3.56846E-05-3.02960E-05-6.67701E-06-1.15892E-18 5.90198E-19
 -1       872 1.05090E-04-3.61025E-05-2.95667E-05-4.08678E-06-7.73773E-21 2.41080E-19
 -1       873 1.03167E-04-3.53079E-05-2.90829E-05-1.97900E-06-1.31602E-19 1.00991E-18
 -1       874 1.01144E-04-3.39543E-05-2.87957E-05-5.29197E-07-1.18241E-19 1.75318E-18
 -1       875 9.93494E-05-3.25093E-05-2.86456E-05 3.34141E-07 2.87320E-19 2.37298E-18
 -1       876 9.79206E-05-3.12303E-05-2.85813E-05 7.67120E-07 8.61311E-20 1.89218E-18
 -1       877 9.68705E-05-3.02193E-05-2.85645E-05 9.21249E-07-2.22124E-19 1.17396E-18
 -1       878 9.61488E-05-2.94845E-05-2.85702E-05 9.13905E-07 5.07424E-20 9.86996E-19
 -1       879 9.56831E-05-2.89879E-05-2.85835E-05 8.24546E-07-4.76996E-20 1.53084E-18
 -1       880 9.54026E-05-2.86770E-05-2.85966E-05 7.02100E-07-6.90648E-19 1.47133E-18
 -1       881 9.52478E-05-2.84999E-05-2.86062E-05 5.74402E-07-5.44364E-19 3.06197E-19
 -1       882 9.51734E-05-2.84132E-05-2.86115E-05 4.55811E-07 3.52162E-19-7.03129E-19
 -1       883 9.51469E-05-2.83835E-05-2.86128E-05 3.52596E-07-8.79083E-19 9.67104E-19
 -1       884 9.51467E-05-2.83870E-05-2.86113E-05 2.66468E-07 1.57021E-19 4.53724E-20
 -1       885 9.51590E-05-2.84076E-05-2.86078E-05 1.96762E-07 1.30901E-19 3.51437E-19
 -1       886 9.51758E-05-2.84350E-05-2.86032E-05 1.41706E-07 3.02072E-19 2.09438E-18
 -1       887 9.51924E-05-2.84632E-05-2.85982E-05 9.91286E-08-1.22583E-18 4.02642E-19
 -1       888 9.52069E-05-2.84890E-05-2.85934E-05 6.68485E-08-9.47423E-19-9.09195E-19
 -1       889 9.52183E-05-2.85109E-05-2.85889E-05 4.28565E-08-2.10380E-19 2.58569E-19
 -1       890 9.52268E-05-2.85285E-05-2.85850E-05 2.53991E-08-7.11940E-19 1.83390E-19
 -1       891 9.52327E-05-2.85423E-05-2.85816E-05 1.30060E-08-1.37498E-18 5.44000E-19
 -1       892 9.52364E-05-2.85526E-05-2.85788E-05 4.45984E-09 7.96204E-19 2.03755E-19
 -1       893 9.52386E-05-2.85602E-05-2.85765E-05-1.14572E-09 3.78146E-19-4.96711E-19
 -1       894 1.14490E-04-2.32237E-05-3.92270E-05-1.22763E-05 5.52004E-19 4.39626E-19
 -1       895 9.81341E-05-2.85076E-05-2.98390E-05-1.87095E-07 7.41050E-19 2.02367E-19
 -1       896 9.10776E-05-1.79438E-05-3.13442E-05-2.55408E-06 5.57315E-19-8.45576E-19
 -1       897 9.06718E-05-2.06559E-05-3.00122E-05-1.14677E-06 1.57766E-19-5.50302E-19
 -1       898 1.00966E-04-2.14766E-05-3.40686E-05 6.37399E-06 8.91430E-19 8.51209E-19
 -1       899 1.22346E-04-4.91600E-05-3.13575E-05 6.72774E-06 3.85599E-20-1.14040E-18
 -1       900 1.09148E-04-1.45602E-05-4.06859E-05-7.38439E-06 1.05704E-18 1.62879E-18
 -1       901 8.78372E-05-3.08231E-05-2.43841E-05 2.79834E-05-6.85102E-19-8.64172E-20
 -1       902 1.14891E-04-2.29295E-05-3.95367E-05 1.23207E-05-1.34665E-19 1.98225E-18
 -1       903 6.54028E-05-1.11989E-05-2.31374E-05 1.21820E-05-1.39449E-18 3.17151E-18
 -1       904 7.34030E-05-1.93253E-05-2.30950E-05 2.31240E-05-1.83244E-19 2.45686E-19
 -1       905 1.06796E-04-3.65712E-05-3.00951E-05 4.55649E-06-1.63630E-19 8.34672E-19
 -1       906 1.06914E-04-4.36567E-05-2.70594E-05-2.40968E-05-9.83284E-19-3.95437E-19
 -1       907 9.12093E-05-1.97681E-05-3.06172E-05-2.47120E-06 3.42053E-19-7.94453E-19
 -1       908 9.96547E-05-3.08061E-05-2.95069E-05-6.65357E-07 6.65850E-19 2.32115E-19
 -1       909 1.16235E-04-3.22280E-05-3.60250E-05-1.17484E-05 4.07068E-19-9.12643E-19
 -1       910 9.52423E-05-2.85660E-05-2.85755E-05-5.52480E-10-6.74363E-19 2.00009E-18
 -1       911 1.01380E-04-3.29442E-05-2.93301E-05-4.96973E-07 3.17912E-19 3.95643E-19
 -1       912 9.52412E-05-2.85657E-05-2.85752E-05-3.25672E-09 7.56211E-19-2.90386E-18
 -1       913 9.52398E-05-2.85642E-05-2.85752E-05-3.74375E-09-1.41374E-19 1.81554E-18
 -1       914 9.52403E-05-2.85674E-05-2.85741E-05-5.12366E-09-1.37391E-18 3.59541E-18
 -1       915 9.52417E-05-2.85656E-05-2.85755E-05-1.99385E-09 4.44338E-19 1.86850E-18
 -1       916 9.52422E-05-2.85692E-05-2.85742E-05 5.26847E-09-3.09459E-18-1.19320E-18
 -1       917 1.27059E-04-4.97073E-05-3.32011E-05-1.58264E-06-9.52634E-19 7.36601E-19
 -1       918 1.18748E-04-3.26819E-05-3.69283E-05 1.19130E-05 9.27269E-20 1.56458E-18
 -1       919 7.65761E-05-2.20333E-05-2.33642E-05-2.44463E-05-8.42862E-19-1.26131E-18
 -1       920 1.20130E-04-4.42276E-05-3.25365E-05-2.67433E-06-4.76863E-19-3.91225E-19
 -1       921 9.16430E-05-1.99933E-05-3.07061E-05-2.96555E-06 2.27930E-19-5.55707E-19
 -1       922 9.52427E-05-2.85671E-05-2.85753E-05 1.21844E-09-1.88945E-18 4.19662E-18
 -1       923 9.48497E-05-2.30281E-05-3.07788E-05-9.23679E-07 6.49250E-19-5.13513E-19
 -1       924 9.52429E-05-2.85681E-05-2.85749E-05 3.13236E-09-2.41051E-18 3.10713E-18
 -1       925 1.03311E-04-3.48510E-05-2.93405E-05 4.05270E-07 1.29341E-19 3.00107E-19
 -1       926 9.36980E-05-2.18127E-05-3.08077E-05-2.07060E-06 4.60783E-19-7.05044E-19
 -1       927 1.20696E-04-4.17973E-05-3.38214E-05 6.60431E-06-9.07442E-20 1.16210E-18
 -1       928 1.12663E-04-4.44095E-05-2.92323E-05 1.14237E-05-6.66979E-19-4.18417E-19
 -1       929 8.67164E-05-2.12577E-05-2.80515E-05-7.44102E-06-1.29139E-19-1.27289E-18
 -1       930 8.38260E-05-2.13393E-05-2.67842E-05-1.23608E-05-3.54792E-19-1.31504E-18
 -1       931 1.11232E-04-3.14753E-05-3.42022E-05 1.06604E-05-9.33779E-20 1.41743E-18
 -1       932 7.42756E-05-1.41825E-05-2.57366E-05 6.21907E-06-1.34845E-18 3.10496E-18
 -1       933 9.53880E-05-2.36277E-05-3.07527E-05 3.26430E-07 7.89878E-19-4.67626E-19
 -1       934 8.05040E-05-1.71940E-05-2.71302E-05 2.74088E-06 2.32719E-19 2.47467E-18
 -1       935 8.52616E-05-2.00331E-05-2.79532E-05 6.58581E-07-3.56871E-19 3.56908E-18
 -1       936 8.86031E-05-2.23657E-05-2.83860E-05-3.89526E-07 6.47157E-19 2.83088E-18
 -1       937 9.08887E-05-2.41511E-05-2.86009E-05-8.36133E-07 7.45564E-19 1.12374E-18
 -1       938 9.24225E-05-2.54656E-05-2.86953E-05-9.50895E-07 1.43763E-18 5.88345E-19
 -1       939 9.34342E-05-2.64068E-05-2.87258E-05-9.01228E-07 1.28592E-18 1.16721E-18
 -1       940 9.40674E-05-2.70422E-05-2.87249E-05-7.87114E-07 6.18487E-19-1.40604E-19
 -1       941 9.45026E-05-2.75131E-05-2.87097E-05-6.46638E-07-7.80562E-19-9.24458E-19
 -1       942 9.47803E-05-2.78386E-05-2.86892E-05-5.11632E-07-2.27769E-19-1.15855E-18
 -1       943 9.49566E-05-2.80637E-05-2.86684E-05-3.93010E-07-1.04147E-18-1.25606E-18
 -1       944 9.50677E-05-2.82194E-05-2.86493E-05-2.94314E-07-1.44470E-18 2.64406E-19
 -1       945 9.51374E-05-2.83275E-05-2.86328E-05-2.15222E-07-6.94742E-20-5.63976E-19
 -1       946 9.51791E-05-2.83998E-05-2.86197E-05-1.56108E-07-2.10945E-18-1.79254E-18
 -1       947 9.52066E-05-2.84536E-05-2.86084E-05-1.08131E-07-2.33095E-18 3.03002E-19
 -1       948 9.52232E-05-2.84913E-05-2.85994E-05-7.22628E-08-1.72830E-18 1.01972E-18
 -1       949 9.52330E-05-2.85178E-05-2.85923E-05-4.59159E-08-8.70377E-19 1.52638E-18
 -1       950 9.52386E-05-2.85363E-05-2.85867E-05-2.69633E-08-8.39087E-19 9.44721E-19
 -1       951 9.52414E-05-2.85492E-05-2.85824E-05-1.36699E-08-9.61009E-19-2.76771E-19
 -1       952 9.52425E-05-2.85578E-05-2.85792E-05-4.99324E-09-2.80261E-19-6.77561E-19
 -1       953 9.52427E-05-2.85641E-05-2.85765E-05 1.10527E-09-2.41729E-18-1.21043E-18
 -1       954 1.09346E-04-2.78712E-05-3.49234E-05-1.14710E-05-2.04326E-19 1.24046E-18
 -1       955 1.12796E-04-3.71128E-05-3.24442E-05 7.96629E-06-7.80536E-20 1.52798E-18
 -1       956 1.03210E-04-1.57302E-05-3.75248E-05-2.46511E-06 9.17419E-19 1.14486E-18
 -1       957 1.11611E-04-3.44313E-05-3.31002E-05-1.00361E-05-2.34905E-19 1.36678E-19
 -1       958 1.11588E-04-3.81823E-05-3.14594E-05-6.54590E-06-6.59050E-19-2.57335E-19
 -1       959 1.09513E-04-3.89529E-05-3.02372E-05-2.95888E-06-5.51965E-19 2.45672E-19
 -1       960 1.06470E-04-3.78100E-05-2.94249E-05-3.10149E-07-5.09738E-19 3.42218E-19
 -1       961 1.03371E-04-3.58387E-05-2.89430E-05 1.23669E-06-1.29555E-19-1.01723E-19
 -1       962 1.00720E-04-3.37832E-05-2.86871E-05 1.91506E-06-3.01741E-19 6.38276E-19
 -1       963 9.86754E-05-3.20084E-05-2.85715E-05 2.04179E-06 2.53158E-19 1.01208E-18
 -1       964 9.72215E-05-3.06406E-05-2.85347E-05 1.87417E-06 2.71332E-19 2.73872E-19
 -1       965 9.62542E-05-2.96693E-05-2.85364E-05 1.58549E-06 3.19718E-19-5.15598E-19
 -1       966 9.56518E-05-2.90273E-05-2.85534E-05 1.27515E-06-4.68386E-19-1.05031E-18
 -1       967 9.53046E-05-2.86341E-05-2.85731E-05 9.91237E-07-1.23174E-20-5.38202E-19
 -1       968 9.51259E-05-2.84167E-05-2.85897E-05 7.52145E-07-8.34148E-19-4.51911E-19
 -1       969 9.50517E-05-2.83157E-05-2.86012E-05 5.60495E-07 3.37618E-19-4.98854E-19
 -1       970 9.50378E-05-2.82869E-05-2.86076E-05 4.11599E-07-1.28139E-18-6.21775E-20
 -1       971 9.50553E-05-2.82994E-05-2.86097E-05 2.98268E-07-5.56192E-19 7.26518E-19
 -1       972 9.50862E-05-2.83325E-05-2.86088E-05 2.13214E-07-3.11739E-19 1.65867E-18
 -1       973 9.51201E-05-2.83732E-05-2.86058E-05 1.50050E-07-2.13228E-19 1.03179E-18
 -1       974 9.51515E-05-2.84141E-05-2.86018E-05 1.03548E-07 1.45796E-20 9.19494E-19
 -1       975 9.51780E-05-2.84510E-05-2.85973E-05 6.96087E-08 5.12927E-20-2.19341E-19
 -1       976 9.51988E-05-2.84823E-05-2.85928E-05 4.50778E-08-9.78135E-19-6.58040E-19
 -1       977 9.52144E-05-2.85077E-05-2.85886E-05 2.75591E-08 7.20781E-20-7.83158E-19
 -1       978 9.52253E-05-2.85274E-05-2.85848E-05 1.52375E-08 8.67424E-21-1.64679E-18
 -1       979 9.52327E-05-2.85424E-05-2.85815E-05 6.80649E-09-1.12630E-18-1.40452E-18
 -1       980 9.52372E-05-2.85534E-05-2.85787E-05 1.18697E-09-6.43245E-19 1.28638E-18
 -1       981 9.25812E-05-2.07555E-05-3.07796E-05-2.81756E-06 3.37513E-19-5.71233E-19
 -1       982 9.52408E-05-2.85665E-05-2.85747E-05-4.18454E-09-3.51915E-20-1.30467E-18
 -1       983 1.04063E-04-1.71609E-05-3.72825E-05 5.15348E-06 9.86455E-19 2.10295E-18
 -1       984 1.18772E-04-4.82471E-05-3.02153E-05-1.05873E-05-9.39071E-19-2.42467E-19
 -1       985 1.06585E-04-2.02241E-05-3.70503E-05-9.33168E-06 3.86340E-19 1.23669E-18
 -1       986 8.89427E-05-2.13265E-05-2.89801E-05-4.51250E-06-4.01842E-20-1.20473E-18
 -1       987 1.05263E-04-3.62444E-05-2.95801E-05 2.11430E-06-1.62771E-19 4.65697E-19
 -1       988 9.05198E-05-2.11004E-05-2.97489E-05-3.00591E-06 5.42596E-20-9.40024E-19
 -1       989 9.84944E-05-3.58455E-05-2.68487E-05 2.02490E-05-6.06824E-19-1.87415E-18
 -1       990 9.03329E-05-3.07702E-05-2.54958E-05-2.41765E-05-8.90288E-19-1.54729E-18
 -1       991 1.07672E-04-2.37252E-05-3.60177E-05 1.01599E-05 3.16193E-19 1.22406E-18
 -1       992 9.52417E-05-2.85608E-05-2.85775E-05-1.15025E-09-6.52372E-19 2.98086E-18
 -1       993 1.14639E-04-4.38359E-05-3.03543E-05 3.42720E-06-1.04712E-18-1.50164E-18
 -1       994 1.18645E-04-4.52221E-05-3.14534E-05-9.14061E-07-6.51726E-19 6.10983E-19
 -1       995 9.52407E-05-2.85596E-05-2.85776E-05-1.74951E-09 8.57562E-19-6.02099E-21
 -1       996 7.78743E-05-1.86241E-05-2.53690E-05 1.42612E-05-1.80696E-18 1.48924E-18
 -1       997 1.12026E-04-3.95399E-05-3.10612E-05 4.21492E-06-3.59985E-19 1.11099E-18
 -1       998 1.00931E-04-3.20002E-05-2.95418E-05-2.24439E-06 2.54009E-19 1.21524E-19
 -1       999 9.52393E-05-2.85594E-05-2.85771E-05-1.88340E-09-1.85681E-18 2.21000E-18
 -1      1000 1.16577E-04-3.65711E-05-3.43042E-05-9.75302E-06 1.44766E-19-4.23143E-19
 -1      1001 9.88919E-05-2.93067E-05-2.98212E-05-1.71233E-06 5.71248E-19-1.33549E-19
 -1      1002 8.62754E-05-2.60469E-05-2.57998E-05 1.91890E-05-9.94115E-19-1.08361E-18
 -1      1003 9.52400E-05-2.85595E-05-2.85774E-05-2.03341E-09 1.75994E-18-4.41653E-19
 -1      1004 9.52426E-05-2.85616E-05-2.85776E-05-5.73251E-10-2.59533E-18 2.01780E-18
 -1      1005 9.66979E-05-2.58831E-05-3.03533E-05-5.49175E-07 7.36719E-19-4.54858E-19
 -1      1006 9.58361E-05-2.51312E-05-3.03018E-05-2.69109E-06 3.03044E-19-4.04690E-19
 -1      1007 1.03417E-04-3.46973E-05-2.94506E-05-2.15821E-06 2.28095E-19 2.90763E-19
 -1      1008 1.08417E-04-4.17748E-05-2.85582E-05-1.54971E-05-6.26884E-19-3.75038E-19
 -1      1009 9.40888E-05-2.99828E-05-2.74341E-05-1.58749E-05-6.82986E-19-7.24389E-19
 -1      1010 9.52374E-05-2.85524E-05-2.85793E-05-6.25476E-10-1.14717E-18 8.27081E-19
 -1      1011 8.49136E-05-2.09265E-05-2.74222E-05 5.71606E-06 6.48761E-19 1.88352E-19
 -1      1012 8.77718E-05-2.24344E-05-2.80007E-05 2.96841E-06-3.31909E-19 5.70378E-19
 -1      1013 8.99814E-05-2.38666E-05-2.83351E-05 1.34489E-06-8.63281E-19 1.43934E-18
 -1      1014 9.16009E-05-2.50565E-05-2.85193E-05 4.34667E-07-1.22228E-19 1.58283E-18
 -1      1015 9.27540E-05-2.59906E-05-2.86131E-05-4.16613E-08 1.08350E-18-8.53590E-19
 -1      1016 9.35273E-05-2.66683E-05-2.86539E-05-2.53468E-07 3.90040E-19-2.76922E-18
 -1      1017 9.40933E-05-2.72008E-05-2.86683E-05-3.32138E-07 3.10888E-20-1.99326E-18
 -1      1018 9.44782E-05-2.75886E-05-2.86670E-05-3.32597E-07-1.21797E-18-2.10316E-18
 -1      1019 9.47380E-05-2.78689E-05-2.86582E-05-2.95817E-07-1.47670E-19-2.28446E-18
 -1      1020 9.49125E-05-2.80707E-05-2.86465E-05-2.45377E-07-8.18696E-19-2.43054E-18
 -1      1021 9.50290E-05-2.82157E-05-2.86343E-05-1.93883E-07-7.53302E-19-2.53772E-18
 -1      1022 9.51035E-05-2.83156E-05-2.86234E-05-1.49316E-07-8.04156E-19-9.52235E-19
 -1      1023 9.51559E-05-2.83920E-05-2.86131E-05-1.09415E-07-1.96359E-18 2.09596E-19
 -1      1024 9.51903E-05-2.84468E-05-2.86043E-05-7.72740E-08-1.58243E-18-1.80933E-19
 -1      1025 9.52125E-05-2.84862E-05-2.85970E-05-5.22587E-08-8.16428E-19 2.37776E-18
 -1      1026 9.52265E-05-2.85143E-05-2.85909E-05-3.33889E-08-1.71160E-18 2.23640E-18
 -1      1027 9.52349E-05-2.85342E-05-2.85860E-05-1.95694E-08-2.46555E-18 3.35000E-18
 -1      1028 9.52395E-05-2.85476E-05-2.85823E-05-1.02147E-08-1.02083E-18 5.19786E-19
 -1      1029 9.52415E-05-2.85555E-05-2.85797E-05-4.57175E-09-4.26787E-19 3.08170E-19
 -1      1030 1.08825E-04-4.05617E-05-2.92618E-05 5.88311E-06-9.43977E-19-1.36812E-18
 -1      1031 1.03917E-04-3.69342E-05-2.87123E-05 6.40538E-06-3.90775E-19-7.53520E-19
 -1      1032 1.00279E-04-3.38408E-05-2.84761E-05 5.80755E-06-1.94549E-19-2.62657E-19
 -1      1033 9.78322E-05-3.15473E-05-2.84085E-05 4.76279E-06-3.47379E-20-8.67768E-19
 -1      1034 9.63076E-05-2.99913E-05-2.84217E-05 3.65920E-06 6.21033E-19-1.07676E-18
 -1      1035 9.54312E-05-2.90200E-05-2.84621E-05 2.68522E-06 5.85882E-19-1.45835E-18
 -1      1036 9.49729E-05-2.84572E-05-2.85069E-05 1.90565E-06 2.91414E-19 1.76244E-19
 -1      1037 9.47739E-05-2.81681E-05-2.85455E-05 1.31767E-06-7.60645E-19 1.71386E-20
 -1      1038 9.47255E-05-2.80521E-05-2.85744E-05 8.92658E-07-2.86718E-19 7.18251E-19
 -1      1039 9.47571E-05-2.80385E-05-2.85938E-05 5.95087E-07-3.24975E-19-4.84681E-19
 -1      1040 9.48249E-05-2.80800E-05-2.86050E-05 3.91605E-07-1.48846E-18 1.29576E-19
 -1      1041 9.49037E-05-2.81469E-05-2.86101E-05 2.54929E-07-1.11481E-18-4.24788E-19
 -1      1042 9.49797E-05-2.82210E-05-2.86109E-05 1.64288E-07-3.30901E-19-1.63118E-18
 -1      1043 9.50463E-05-2.82923E-05-2.86088E-05 1.04799E-07 1.68034E-19-1.94248E-18
 -1      1044 9.51012E-05-2.83558E-05-2.86052E-05 6.59540E-08 6.06594E-19-1.18796E-18
 -1      1045 9.51444E-05-2.84093E-05-2.86008E-05 4.06972E-08-1.67816E-19-1.32522E-18
 -1      1046 9.51771E-05-2.84529E-05-2.85961E-05 2.43149E-08-9.55519E-19-1.10999E-18
 -1      1047 9.52009E-05-2.84871E-05-2.85916E-05 1.37144E-08-9.48642E-19-6.49568E-19
 -1      1048 9.52176E-05-2.85133E-05-2.85875E-05 6.87486E-09-1.32859E-18 1.31519E-18
 -1      1049 9.52286E-05-2.85329E-05-2.85839E-05 2.61364E-09-1.41119E-18 2.91404E-18
 -1      1050 9.52340E-05-2.85439E-05-2.85815E-05 8.83120E-10-1.79085E-18 2.07856E-18
 -1      1051 9.92781E-05-2.99860E-05-2.96946E-05-3.64821E-06 3.55736E-19 1.38062E-19
 -1      1052 9.39974E-05-3.06297E-05-2.71586E-05 1.51454E-05-1.10151E-18-2.03557E-18
 -1      1053 9.26600E-05-2.68533E-05-2.82058E-05-1.10952E-05-2.53527E-19-7.24628E-19
 -1      1054 1.04044E-04-3.81280E-05-2.82409E-05 1.24207E-05-9.62756E-19-1.32587E-18
 -1      1055 9.23144E-05-2.47990E-05-2.89354E-05-7.45020E-06-1.65035E-19-5.68346E-19
 -1      1056 8.17318E-05-1.96138E-05-2.66155E-05 9.21378E-06-1.17336E-18 7.11974E-19
 -1      1057 9.52421E-05-2.85609E-05-2.85777E-05-9.20053E-10-1.81423E-18 9.50313E-19
 -1      1058 1.09434E-04-3.91235E-05-3.01333E-05 9.39781E-07-1.09147E-19 7.50011E-19
 -1      1059 9.42939E-05-2.36998E-05-3.02593E-05-3.59245E-06 9.10699E-20-4.51882E-19
 -1      1060 1.06306E-04-3.71980E-05-2.96182E-05-1.15421E-06-4.31836E-19 5.69356E-19
 -1      1061 9.23989E-05-2.32661E-05-2.96275E-05-4.97049E-06-7.46744E-20-6.32049E-19
 -1      1062 1.13336E-04-4.36441E-05-2.98712E-05-7.39485E-06-5.09907E-19 1.84663E-19
 -1      1063 9.52387E-05-2.85520E-05-2.85800E-05-2.95516E-09-3.50108E-19-6.29766E-19
 -1      1064 9.52379E-05-2.85523E-05-2.85795E-05-1.60548E-09 1.30531E-19 4.41932E-19
 -1      1065 9.52392E-05-2.85516E-05-2.85804E-05-4.04631E-09-1.54200E-18 2.23029E-18
 -1      1066 8.65868E-05-2.40632E-05-2.67932E-05 1.25900E-05-1.29234E-18-3.43288E-19
 -1      1067 9.66041E-05-2.71985E-05-2.97506E-05-4.84944E-06 3.81823E-20-3.58877E-19
 -1      1068 1.01818E-04-3.30994E-05-2.94497E-05-4.55769E-06-4.33951E-20 2.06060E-19
 -1      1069 9.50280E-05-2.62252E-05-2.94835E-05-6.09985E-06 5.34161E-20-5.03080E-19
 -1      1070 9.52403E-05-2.85531E-05-2.85802E-05-4.53885E-09-1.58385E-19 1.23419E-18
 -1      1071 9.03714E-05-2.47229E-05-2.81333E-05 3.84604E-06-1.50368E-19-6.97395E-19
 -1      1072 9.15799E-05-2.53938E-05-2.83653E-05 2.15958E-06 3.67706E-19 1.18034E-19
 -1      1073 9.25406E-05-2.60372E-05-2.85015E-05 1.12018E-06-5.80250E-19-6.80528E-19
 -1      1074 9.32573E-05-2.65802E-05-2.85758E-05 5.28902E-07-3.16177E-19-1.65799E-19
 -1      1075 9.38288E-05-2.70553E-05-2.86172E-05 1.73655E-07 4.43931E-20-1.45557E-18
 -1      1076 9.42477E-05-2.74317E-05-2.86354E-05-1.14340E-08-7.99102E-19-2.70111E-18
 -1      1077 9.45500E-05-2.77230E-05-2.86401E-05-9.57279E-08-4.79053E-19-8.40717E-19
 -1      1078 9.47657E-05-2.79451E-05-2.86374E-05-1.23294E-07 5.79293E-19-1.87194E-18
 -1      1079 9.49181E-05-2.81125E-05-2.86310E-05-1.21267E-07-2.26701E-19 9.51874E-19
 -1      1080 9.50207E-05-2.82326E-05-2.86234E-05-1.06427E-07-7.52194E-19-4.55622E-19
 -1      1081 9.50966E-05-2.83277E-05-2.86152E-05-8.60318E-08-2.96252E-19-9.54566E-19
 -1      1082 9.51490E-05-2.83982E-05-2.86075E-05-6.56821E-08-1.50975E-18 1.60873E-18
 -1      1083 9.51846E-05-2.84501E-05-2.86005E-05-4.76359E-08 9.06869E-20 3.14723E-18
 -1      1084 9.52084E-05-2.84881E-05-2.85944E-05-3.27579E-08-7.28031E-19 2.49667E-18
 -1      1085 9.52238E-05-2.85156E-05-2.85892E-05-2.11418E-08-2.27296E-18 2.39959E-18
 -1      1086 9.52330E-05-2.85344E-05-2.85851E-05-1.27819E-08-2.64650E-18 3.21304E-18
 -1      1087 9.66625E-05-3.09039E-05-2.81787E-05 7.20456E-06 5.85931E-19-8.84916E-20
 -1      1088 9.51812E-05-2.92301E-05-2.82647E-05 5.24679E-06 1.05466E-18-1.05879E-18
 -1      1089 9.44970E-05-2.83163E-05-2.83626E-05 3.65176E-06 2.33017E-21-1.85451E-18
 -1      1090 9.42428E-05-2.78633E-05-2.84483E-05 2.45595E-06-1.22158E-18-2.59707E-19
 -1      1091 9.42295E-05-2.76973E-05-2.85138E-05 1.60051E-06-5.16457E-20-3.56337E-19
 -1      1092 9.43311E-05-2.76928E-05-2.85592E-05 1.01457E-06-6.41550E-19-3.57054E-20
 -1      1093 9.44765E-05-2.77705E-05-2.85883E-05 6.26211E-07-2.32499E-19 2.62922E-19
 -1      1094 9.46279E-05-2.78829E-05-2.86050E-05 3.75928E-07-2.83109E-19 8.40520E-20
 -1      1095 9.47665E-05-2.80030E-05-2.86130E-05 2.18928E-07-4.59147E-19-7.86657E-19
 -1      1096 9.48848E-05-2.81164E-05-2.86151E-05 1.23188E-07-6.91151E-19-1.52590E-18
 -1      1097 9.49810E-05-2.82163E-05-2.86135E-05 6.63088E-08-1.79000E-19-1.38869E-18
 -1      1098 9.50567E-05-2.83006E-05-2.86098E-05 3.34634E-08-6.85645E-19-1.78344E-18
 -1      1099 9.51143E-05-2.83694E-05-2.86050E-05 1.52533E-08-2.09953E-19-1.28947E-18
 -1      1100 9.51571E-05-2.84240E-05-2.85999E-05 5.59578E-09-3.87828E-19-4.19182E-19
 -1      1101 9.51879E-05-2.84664E-05-2.85949E-05 7.92556E-10-5.99404E-19-1.57819E-18
 -1      1102 9.52094E-05-2.84986E-05-2.85903E-05-1.33172E-09-2.03173E-18-1.65156E-18
 -1      1103 9.52238E-05-2.85226E-05-2.85862E-05-2.11197E-09-2.82209E-18-7.47492E-19
 -1      1104 9.87370E-05-3.32573E-05-2.80595E-05 1.00489E-05-3.29692E-19-9.25202E-19
 -1      1105 9.30890E-05-2.85739E-05-2.76530E-05 1.04155E-05-8.40151E-19-2.01211E-18
 -1      1106 1.05110E-04-3.64460E-05-2.94344E-05-4.84530E-06-4.23708E-19 6.34923E-19
 -1      1107 9.87755E-05-3.23372E-05-2.84786E-05-1.17914E-05-6.18112E-19-6.22139E-19
 -1      1108 9.86181E-05-3.02000E-05-2.93233E-05-6.69797E-06-9.41515E-20-3.28501E-19
 -1      1109 9.64502E-05-2.89022E-05-2.89492E-05-8.65423E-06-2.37784E-19-4.20670E-19
 -1      1110 1.08526E-04-3.96210E-05-2.95424E-05-6.22949E-06-5.86544E-19 7.27952E-19
 -1      1111 8.90533E-05-2.42718E-05-2.77611E-05 6.49340E-06 8.79487E-20-8.15314E-19
 -1      1112 8.78952E-05-2.40408E-05-2.73618E-05 9.06021E-06-4.82636E-19 2.80692E-19
 -1      1113 1.06258E-04-3.82803E-05-2.91237E-05-9.06580E-06-7.19426E-19-2.35593E-19
 -1      1114 9.52375E-05-2.85449E-05-2.85825E-05-8.25151E-09-1.01582E-18 4.05187E-18
 -1      1115 9.52308E-05-2.85357E-05-2.85836E-05-1.60347E-09-1.01400E-18-1.79811E-19
 -1      1116 9.52340E-05-2.85403E-05-2.85830E-05-5.32419E-09-1.35824E-18 6.75342E-19
 -1      1117 9.25074E-05-2.65452E-05-2.82707E-05 3.75871E-06 4.44427E-19 5.62827E-19
 -1      1118 9.29576E-05-2.66498E-05-2.84174E-05 2.31226E-06-7.86862E-19-5.66184E-19
 -1      1119 9.33972E-05-2.68779E-05-2.85082E-05 1.39816E-06-3.18558E-19-4.92953E-19
 -1      1120 9.38149E-05-2.71575E-05-2.85676E-05 7.79647E-07-5.83708E-19-4.93456E-19
 -1      1121 9.41656E-05-2.74296E-05-2.86012E-05 4.02702E-07-5.42554E-19-1.79486E-19
 -1      1122 9.44465E-05-2.76710E-05-2.86181E-05 1.82480E-07-2.34652E-19 3.97381E-19
 -1      1123 9.46645E-05-2.78744E-05-2.86243E-05 6.07941E-08-6.05685E-19 1.10581E-18
 -1      1124 9.48298E-05-2.80401E-05-2.86242E-05-1.11285E-09 5.62447E-19 8.21338E-20
 -1      1125 9.49479E-05-2.81664E-05-2.86206E-05-2.73382E-08-4.95140E-19-5.48658E-19
 -1      1126 9.50400E-05-2.82713E-05-2.86151E-05-3.62074E-08-6.00162E-19 2.46242E-19
 -1      1127 9.51066E-05-2.83523E-05-2.86090E-05-3.51105E-08 6.55312E-19-4.99438E-20
 -1      1128 9.51540E-05-2.84141E-05-2.86028E-05-2.96490E-08-7.87661E-19 2.32210E-19
 -1      1129 9.51871E-05-2.84607E-05-2.85970E-05-2.29202E-08-8.35606E-20 7.60881E-19
 -1      1130 9.52096E-05-2.84953E-05-2.85918E-05-1.64836E-08-1.99526E-18 1.55417E-18
 -1      1131 9.52238E-05-2.85195E-05-2.85875E-05-1.12024E-08-1.55159E-18 1.34690E-18
 -1      1132 1.02023E-04-3.40209E-05-2.91470E-05-7.76876E-06-4.92701E-19-1.79761E-19
 -1      1133 9.30050E-05-2.76552E-05-2.80065E-05 6.88910E-06 9.17432E-19-1.39840E-18
 -1      1134 1.16616E-04 2.57348E-10-4.18168E-05-4.11225E-05-1.73218E-19 2.28085E-18
 -1      1135 8.90577E-05 7.29659E-11-3.73959E-05-2.34673E-05-7.46448E-20-1.18963E-18
 -1      1136 8.45152E-05 4.19778E-11-3.59319E-05-1.70564E-05-4.74868E-20-2.36092E-18
 -1      1137 8.25957E-05 3.14399E-11-3.51812E-05-1.29972E-05-1.26526E-20-2.71932E-18
 -1      1138 8.15550E-05 2.57124E-11-3.47607E-05-9.81152E-06-8.36445E-21-2.78074E-18
 -1      1139 8.09320E-05 2.23239E-11-3.45126E-05-7.14350E-06 5.09543E-21-2.66944E-18
 -1      1140 8.05728E-05 2.04654E-11-3.43693E-05-4.76347E-06 1.04423E-20-2.45941E-18
 -1      1141 8.04078E-05 1.97890E-11-3.43016E-05-2.50065E-06 1.37047E-20-2.19014E-18
 -1      1142 8.03998E-05 2.00284E-11-3.42941E-05-2.58411E-07 2.15977E-20-1.89373E-18
 -1      1143 8.05175E-05 2.09798E-11-3.43354E-05 2.05477E-06 3.36894E-20-1.61355E-18
 -1      1144 8.07450E-05 2.25449E-11-3.44206E-05 4.51190E-06 4.59185E-20-1.26823E-18
 -1      1145 8.10928E-05 2.47511E-11-3.45557E-05 7.15703E-06 4.65736E-20-7.37739E-19
 -1      1146 8.16275E-05 2.79689E-11-3.47722E-05 1.00962E-05 5.34690E-20-8.48489E-20
 -1      1147 8.25423E-05 3.30730E-11-3.51523E-05 1.35005E-05 6.61215E-20 8.54219E-19
 -1      1148 8.43343E-05 4.26662E-11-3.58838E-05 1.76720E-05 6.25746E-20 2.29538E-18
 -1      1149 8.86217E-05 6.77056E-11-3.74204E-05 2.36671E-05 4.26693E-20 4.59409E-18
 -1      1150 1.06742E-04 1.64850E-10-4.06982E-05 3.59755E-05 4.02341E-21 8.21389E-18
 -1      1151 1.31054E-04-2.57346E-05-4.04272E-05-2.67426E-05-6.51580E-19 4.46979E-18
 -1      1152 9.87342E-05-2.92086E-05-3.20151E-05-8.63309E-07-2.22029E-19 3.15086E-18
 -1      1153 9.15071E-05-2.74267E-05-2.83557E-05 3.94625E-07-9.81102E-20 1.35504E-18
 -1      1154 9.02178E-05-2.71802E-05-2.72724E-05 2.57813E-07-7.73149E-20 6.73126E-20
 -1      1155 9.08616E-05-2.73619E-05-2.73282E-05 1.78466E-07-9.68761E-20-9.92193E-19
 -1      1156 9.27569E-05-2.79186E-05-2.79026E-05 1.52161E-07-4.75166E-20-1.78798E-18
 -1      1157 9.58706E-05-2.88415E-05-2.88882E-05 1.53345E-07-3.58235E-20-1.98301E-18
 -1      1158 1.00666E-04-3.02826E-05-3.04129E-05 2.06361E-07 2.91002E-20-1.81270E-18
 -1      1159 1.07808E-04-3.24302E-05-3.26872E-05 3.37111E-07-7.68285E-20-2.17608E-18
 -1      1160 1.18423E-04-3.56166E-05-3.60310E-05 5.97569E-07 2.40875E-20-2.96197E-18
 -1      1161 1.33867E-04-4.02416E-05-4.07271E-05 1.04161E-06 1.06137E-19-2.64126E-18
 -1      1162 1.54295E-04-4.64450E-05-4.64685E-05 1.58495E-06-5.85942E-20-1.95495E-18
 -1      1163 1.77663E-04-5.35488E-05-5.21879E-05 1.77998E-06 3.29681E-20-1.05201E-18
 -1      1164 1.94165E-04-5.85067E-05-5.50841E-05 1.90598E-08 1.79624E-19 6.27863E-19
 -1      1165 1.82609E-04-5.39274E-05-5.21180E-05-5.08456E-06 6.67435E-20 2.56524E-18
 -1      1166 1.39640E-04-3.98221E-05-4.46979E-05-7.88375E-06-2.30075E-19 1.82959E-18
 -1      1167 9.18000E-05-2.43207E-05-3.80150E-05-4.95884E-06-4.31669E-19-3.42582E-18
 -1      1168 7.60688E-05-1.92248E-05-3.60076E-05 1.03982E-06-4.28705E-19-1.09791E-17
 -1      1169 1.02390E-04-2.83141E-05-3.93748E-05 5.63175E-06 1.52042E-19-1.43513E-17
 -1      1170 1.47677E-04-4.30566E-05-4.60437E-05 5.79588E-06 2.40769E-19-1.40480E-17
 -1      1171 1.85720E-04-5.57588E-05-5.27088E-05 3.06502E-06-9.32067E-20-1.14493E-17
 -1      1172 1.96698E-04-5.98293E-05-5.57105E-05 5.33701E-07 5.46535E-19-1.01430E-17
 -1      1173 1.82845E-04-5.53621E-05-5.34886E-05-8.98281E-07 1.48145E-19-6.48679E-18
 -1      1174 1.59857E-04-4.81008E-05-4.80260E-05-1.02001E-06-2.03165E-19-6.43067E-18
 -1      1175 1.38770E-04-4.15856E-05-4.21813E-05-7.46026E-07-2.98017E-20-6.32522E-18
 -1      1176 1.23368E-04-3.69417E-05-3.75242E-05-4.63411E-07 3.38085E-19-5.37337E-18
 -1      1177 1.13062E-04-3.38736E-05-3.42760E-05-2.66329E-07-1.68083E-19-4.60373E-18
 -1      1178 1.06442E-04-3.19095E-05-3.21550E-05-1.46492E-07-2.96842E-20-4.11137E-18
 -1      1179 1.02339E-04-3.06965E-05-3.08374E-05-7.29123E-08 2.06068E-19-1.71376E-18
 -1      1180 9.97432E-05-2.99201E-05-3.00049E-05-4.43300E-08 9.24441E-20-5.89171E-19
 -1      1181 9.80552E-05-2.94167E-05-2.94653E-05-2.31466E-08 2.13264E-19-1.72212E-18
 -1      1182 9.69914E-05-2.90986E-05-2.91268E-05-1.19141E-08-5.09634E-20-1.88936E-18
 -1      1183 9.63179E-05-2.88967E-05-2.89133E-05-5.90561E-09 2.80642E-19-2.04801E-18
 -1      1184 9.58898E-05-2.87680E-05-2.87780E-05-2.69945E-09-1.45593E-19-2.19190E-18
 -1      1185 9.56225E-05-2.86880E-05-2.86937E-05-5.42256E-10 1.17567E-19 1.50467E-18
 -1      1186 9.54513E-05-2.86361E-05-2.86399E-05-2.29572E-10 6.57071E-21 2.70481E-18
 -1      1187 9.53400E-05-2.86026E-05-2.86048E-05 2.05922E-10-4.30111E-19-9.37304E-19
 -1      1188 9.52712E-05-2.85818E-05-2.85832E-05 4.01851E-10 2.78188E-19 9.52716E-19
 -1      1189 9.52302E-05-2.85694E-05-2.85702E-05 4.73698E-10-2.73350E-21 8.23926E-19
 -1      1190 9.52073E-05-2.85624E-05-2.85629E-05 4.77160E-10-2.67739E-19-2.49637E-18
 -1      1191 9.51964E-05-2.85591E-05-2.85594E-05 4.95633E-10-8.78602E-21-3.36953E-18
 -1      1192 9.51928E-05-2.85580E-05-2.85581E-05 4.18567E-10-2.56743E-19-1.11187E-18
 -1      1193 9.51938E-05-2.85582E-05-2.85583E-05 3.71409E-10-1.34714E-19-2.43599E-18
 -1      1194 9.51978E-05-2.85594E-05-2.85594E-05 3.27100E-10-2.25209E-19-4.68984E-18
 -1      1195 9.52034E-05-2.85611E-05-2.85610E-05 2.86943E-10 3.01259E-19-2.81545E-18
 -1      1196 9.52098E-05-2.85630E-05-2.85629E-05 2.50505E-10 1.75886E-19-7.76157E-19
 -1      1197 9.52162E-05-2.85649E-05-2.85648E-05 2.23308E-10 6.38110E-20 4.10686E-18
 -1      1198 9.52224E-05-2.85667E-05-2.85667E-05 2.03454E-10 1.06320E-19 3.56861E-18
 -1      1199 9.52282E-05-2.85685E-05-2.85684E-05 1.81621E-10 1.78772E-19 2.49442E-18
 -1      1200 9.52330E-05-2.85699E-05-2.85698E-05 1.50040E-10-3.34513E-19-4.73369E-19
 -1      1201 9.52363E-05-2.85709E-05-2.85707E-05 7.88789E-11 8.49014E-20-4.20722E-19
 -1      1202 9.52373E-05-2.85711E-05-2.85713E-05-1.67993E-10-4.50348E-19 1.33664E-18
 -1      1203 1.31077E-04-3.77244E-05-3.87244E-05 1.21291E-05-1.52413E-19 1.08801E-17
 -1      1204 9.70254E-05-2.83306E-05-3.14682E-05 7.82558E-07-8.36445E-21 1.02917E-17
 -1      1205 9.11156E-05-2.71569E-05-2.80873E-05 1.05765E-07 5.95570E-22 9.19150E-18
 -1      1206 8.92743E-05-2.67832E-05-2.69516E-05-7.83028E-09-2.84285E-20 8.59871E-18
 -1      1207 8.89707E-05-2.67181E-05-2.67144E-05-4.62336E-08 1.52110E-20 8.06894E-18
 -1      1208 8.92625E-05-2.67933E-05-2.67671E-05-5.93435E-08 3.81537E-21 7.63439E-18
 -1      1209 8.96637E-05-2.69004E-05-2.68703E-05-6.50159E-08-1.08503E-20 7.75919E-18
 -1      1210 8.98549E-05-2.69484E-05-2.69106E-05-6.49284E-08 1.25121E-19 7.31575E-18
 -1      1211 8.95908E-05-2.68638E-05-2.68146E-05-5.72549E-08-5.40687E-20 6.90405E-18
 -1      1212 8.86816E-05-2.65899E-05-2.65291E-05-3.90173E-08 7.07736E-21 6.62506E-18
 -1      1213 8.70146E-05-2.60935E-05-2.60259E-05-8.04489E-09-1.52044E-20 6.14558E-18
 -1      1214 8.45973E-05-2.53766E-05-2.53126E-05 3.49226E-08-1.08162E-19 5.66468E-18
 -1      1215 8.16026E-05-2.44897E-05-2.44444E-05 8.42987E-08 1.20353E-19 4.94360E-18
 -1      1216 7.83886E-05-2.35371E-05-2.35267E-05 1.29207E-07 6.06170E-20 4.54423E-18
 -1      1217 7.54644E-05-2.26681E-05-2.27034E-05 1.55917E-07-1.00332E-19 5.59198E-18
 -1      1218 7.33866E-05-2.20467E-05-2.21270E-05 1.53153E-07 1.03331E-20 6.12381E-18
 -1      1219 7.26085E-05-2.18086E-05-2.19193E-05 1.17940E-07-1.01657E-19 5.49892E-18
 -1      1220 7.33374E-05-2.20182E-05-2.21343E-05 5.82183E-08-1.60423E-20 5.32688E-18
 -1      1221 7.54664E-05-2.26470E-05-2.27426E-05-9.96078E-09-1.28914E-19 4.12937E-18
 -1      1222 7.86152E-05-2.35837E-05-2.36412E-05-6.92455E-08-5.10412E-20 4.01216E-18
 -1      1223 8.22579E-05-2.46720E-05-2.46869E-05-1.07718E-07 3.26135E-20 3.53255E-18
 -1      1224 8.58775E-05-2.57562E-05-2.57358E-05-1.21972E-07 1.17269E-19 2.31264E-18
 -1      1225 8.90819E-05-2.67178E-05-2.66757E-05-1.15885E-07 3.67789E-20 2.15072E-18
 -1      1226 9.16535E-05-2.74903E-05-2.74406E-05-9.70213E-08 8.58969E-20 1.89397E-18
 -1      1227 9.35366E-05-2.80564E-05-2.80095E-05-7.30843E-08-9.87075E-20 1.29640E-18
 -1      1228 9.47903E-05-2.84336E-05-2.83953E-05-4.98157E-08 1.17060E-19 1.60225E-18
 -1      1229 9.55342E-05-2.86576E-05-2.86298E-05-3.04292E-08 6.09876E-20 1.02167E-18
 -1      1230 9.59044E-05-2.87694E-05-2.87512E-05-1.60255E-08 6.59346E-20 6.55698E-19
 -1      1231 9.60256E-05-2.88064E-05-2.87959E-05-6.35436E-09 2.14217E-19-2.38479E-19
 -1      1232 9.59977E-05-2.87985E-05-2.87935E-05-5.18708E-10-8.00128E-20 3.14673E-19
 -1      1233 9.58932E-05-2.87675E-05-2.87660E-05 2.53836E-09 2.94441E-19-1.02902E-18
 -1      1234 9.57602E-05-2.87279E-05-2.87283E-05 3.76799E-09-2.07719E-19-2.06144E-19
 -1      1235 9.56274E-05-2.86883E-05-2.86896E-05 3.91115E-09-3.51973E-20 1.25389E-18
 -1      1236 9.55101E-05-2.86532E-05-2.86549E-05 3.48887E-09-3.53080E-19 1.02846E-18
 -1      1237 9.54142E-05-2.86245E-05-2.86261E-05 2.83632E-09-1.07837E-19 2.69402E-18
 -1      1238 9.53407E-05-2.86025E-05-2.86039E-05 2.14981E-09 1.19027E-20-1.73381E-19
 -1      1239 9.52874E-05-2.85864E-05-2.85876E-05 1.53076E-09 9.15135E-20-2.37475E-18
 -1      1240 9.52509E-05-2.85755E-05-2.85763E-05 1.02081E-09-7.62667E-20 5.14098E-19
 -1      1241 9.52277E-05-2.85685E-05-2.85691E-05 6.27011E-10-2.19883E-19 3.08040E-18
 -1      1242 9.52144E-05-2.85645E-05-2.85649E-05 3.38579E-10 7.12603E-21-1.10267E-18
 -1      1243 9.52084E-05-2.85626E-05-2.85629E-05 1.37218E-10 2.06331E-19-4.94619E-18
 -1      1244 9.52072E-05-2.85623E-05-2.85624E-05 2.97898E-12 1.78652E-19-3.96506E-18
 -1      1245 9.52093E-05-2.85629E-05-2.85629E-05-8.27682E-11-2.27539E-19-2.74950E-18
 -1      1246 9.52133E-05-2.85640E-05-2.85641E-05-1.36072E-10 1.66233E-19-4.60057E-18
 -1      1247 9.52183E-05-2.85655E-05-2.85655E-05-1.70040E-10-1.59642E-19-5.11815E-18
 -1      1248 9.52237E-05-2.85671E-05-2.85671E-05-1.94739E-10-3.22986E-19-1.99728E-18
 -1      1249 9.52288E-05-2.85686E-05-2.85686E-05-2.15692E-10 1.11782E-19-3.64432E-18
 -1      1250 9.52333E-05-2.85700E-05-2.85699E-05-2.23989E-10 5.78590E-19-4.33935E-18
 -1      1251 9.52363E-05-2.85709E-05-2.85707E-05-1.69301E-10 6.28917E-19-4.22300E-18
 -1      1252 9.52373E-05-2.85712E-05-2.85712E-05 6.09902E-11-3.89761E-19-3.01842E-18
 -1      1253 9.52371E-05-2.85710E-05-2.85712E-05 4.66956E-11-2.32342E-18-2.48657E-19
 -1      1254 9.52374E-05-2.85720E-05-2.85707E-05-4.32213E-11-3.98972E-18-4.19733E-19
 -1      1255 9.52383E-05-2.85749E-05-2.85699E-05-1.84709E-10-4.96920E-18 2.93669E-19
 -1      1256 9.52394E-05-2.85787E-05-2.85688E-05-2.11412E-10-3.46613E-18 5.67701E-19
 -1      1257 9.52406E-05-2.85828E-05-2.85677E-05-1.91623E-10 2.74759E-20-1.82516E-19
 -1      1258 9.52417E-05-2.85863E-05-2.85667E-05-1.53046E-10-1.03862E-19-5.08740E-19
 -1      1259 9.52425E-05-2.85892E-05-2.85658E-05-1.10127E-10 8.26537E-20-1.70570E-19
 -1      1260 9.52431E-05-2.85911E-05-2.85653E-05-6.06125E-11-4.34395E-18-1.18486E-18
 -1      1261 9.52433E-05-2.85918E-05-2.85650E-05-8.38528E-12-4.70951E-18 7.52228E-19
 -1      1262 9.52432E-05-2.85914E-05-2.85652E-05 4.65869E-11 2.01945E-18 1.06593E-18
 -1      1263 9.52427E-05-2.85898E-05-2.85657E-05 1.03475E-10 5.63846E-18-1.32784E-18
 -1      1264 9.52419E-05-2.85870E-05-2.85665E-05 1.59091E-10 1.15430E-18 8.25196E-19
 -1      1265 9.52408E-05-2.85834E-05-2.85675E-05 2.04684E-10 6.89406E-18 1.62086E-18
 -1      1266 9.52395E-05-2.85791E-05-2.85687E-05 2.27274E-10 9.15471E-18-5.29559E-19
 -1      1267 9.52383E-05-2.85751E-05-2.85699E-05 1.79240E-10 5.49588E-18 7.86496E-19
 -1      1268 9.52374E-05-2.85720E-05-2.85707E-05-1.41121E-11-6.91653E-19-7.85358E-20
 -1      1269 9.52372E-05-2.85710E-05-2.85712E-05-1.94913E-10-3.77714E-19 1.60707E-19
 -1      1270 3.65553E-05-1.15097E-04 2.04274E-05-1.23682E-05 7.75967E-18 7.95470E-19
 -1      1271 1.77348E-05-6.26541E-05 9.17798E-06-2.20298E-05 9.24960E-18 3.16706E-18
 -1      1272 7.87424E-06-1.28818E-06-8.36821E-06 6.38202E-06 9.61891E-18 5.59550E-18
 -1      1273 3.48222E-05 3.30058E-05-2.92561E-05 6.16675E-05 7.76729E-18 7.07273E-18
 -1      1274 1.06623E-04 2.26047E-05-4.99883E-05 1.11825E-04 5.75135E-18 7.78423E-18
 -1      1275 2.08261E-04-2.45541E-05-6.82930E-05 1.24429E-04 2.24210E-18 3.88788E-18
 -1      1276 2.99211E-04-7.75997E-05-8.09786E-05 8.35507E-05-3.70577E-20-3.22889E-18
 -1      1277 3.36878E-04-1.01519E-04-8.55213E-05 3.12597E-06 3.99164E-19-1.18275E-17
 -1      1278 3.02321E-04-7.95969E-05-8.12812E-05-7.83260E-05 3.18442E-18-1.49501E-17
 -1      1279 2.17056E-04-2.98661E-05-6.92761E-05-1.23309E-04 5.61710E-18-1.31663E-17
 -1      1280 1.11874E-04 1.92429E-05-5.04999E-05-1.11097E-04 8.69564E-18-1.20245E-17
 -1      1281 3.54005E-05 3.03350E-05-2.84955E-05-6.00596E-05 1.02999E-17-9.57317E-18
 -1      1282 8.94855E-06-6.88968E-06-6.87029E-06-4.03414E-06 7.52165E-18-4.93990E-18
 -1      1283 2.01689E-05-7.06021E-05 1.08761E-05 2.38595E-05 4.16910E-18-1.86813E-18
 -1      1284 3.79285E-05-1.19324E-04 2.14142E-05 1.04200E-05-1.92276E-18-5.93585E-19
 -1      1285 4.05871E-05-1.30091E-04 2.36722E-05-2.19516E-05-8.43804E-18-1.54602E-18
 -1      1286 2.24183E-05-9.56404E-05 1.72362E-05-4.23269E-05-1.25801E-17-4.62692E-18
 -1      1287 5.93522E-06-4.04690E-05 2.64981E-06-2.99785E-05-1.31697E-17-8.01801E-18
 -1      1288 2.26424E-05 5.91540E-06-1.96241E-05 2.31630E-05-1.25208E-17-1.17958E-17
 -1      1289 1.00682E-04 8.99388E-06-4.58766E-05 8.95952E-05-9.17845E-18-1.22007E-17
 -1      1290 2.29319E-04-3.61705E-05-7.00000E-05 1.23403E-04-4.06999E-18-9.06495E-18
 -1      1291 3.59895E-04-9.92465E-05-8.76800E-05 9.18634E-05-1.31544E-18-3.74558E-18
 -1      1292 4.16894E-04-1.29044E-04-9.45025E-05 9.17106E-07-4.92550E-19 6.32607E-18
 -1      1293 3.57392E-04-9.86158E-05-8.73181E-05-9.16563E-05-2.75137E-18 1.08607E-17
 -1      1294 2.20777E-04-3.35220E-05-6.84640E-05-1.21543E-04-7.44542E-18 1.56650E-17
 -1      1295 9.08469E-05 9.83379E-06-4.29658E-05-8.19727E-05-1.08759E-17 1.57701E-17
 -1      1296 1.77387E-05 2.29308E-06-1.65625E-05-1.46638E-05-1.02982E-17 1.02288E-17
 -1      1297 6.05708E-06-4.56808E-05 4.48333E-06 3.34945E-05-3.76930E-18 3.27971E-18
 -1      1298 2.43461E-05-1.00479E-04 1.81786E-05 4.22517E-05 3.23143E-18-5.12667E-19
 -1      1299 4.02082E-05-1.29773E-04 2.37360E-05 1.87712E-05 7.18093E-18-4.40510E-19
 -1      1300 1.04966E-04-2.19452E-05-3.80996E-05-1.73089E-05-2.46275E-19 1.35483E-18
 -1      1301 9.08956E-05-6.80505E-06-3.61956E-05-1.97463E-05-4.85615E-19-1.72197E-18
 -1      1302 9.30988E-05-6.72734E-06-3.73407E-05-2.51127E-05-7.04520E-19-1.10305E-18
 -1      1303 8.63451E-05-4.14648E-06-3.52957E-05-1.55706E-05-3.58824E-19-2.53930E-18
 -1      1304 8.76856E-05-4.14752E-06-3.57809E-05-1.80193E-05-4.55280E-19-2.22447E-18
 -1      1305 9.27483E-05-1.06133E-05-3.52799E-05-1.82224E-05-7.66512E-19-1.46817E-18
 -1      1306 8.42506E-05-3.12924E-06-3.47843E-05-1.19864E-05-1.88915E-19-2.76137E-18
 -1      1307 8.49959E-05-3.10623E-06-3.50483E-05-1.37686E-05-2.72003E-19-2.68737E-18
 -1      1308 8.82232E-05-7.35568E-06-3.47345E-05-1.45316E-05-5.23559E-19-2.13630E-18
 -1      1309 8.30194E-05-2.56054E-06-3.44795E-05-9.01616E-06-3.78783E-20-2.77357E-18
 -1      1310 8.34750E-05-2.55052E-06-3.46344E-05-1.04704E-05-6.66906E-20-2.78642E-18
 -1      1311 8.58521E-05-5.74845E-06-3.43938E-05-1.11544E-05-2.33212E-19-2.36026E-18
 -1      1312 8.22788E-05-2.22435E-06-3.42954E-05-6.49786E-06 1.23713E-19-2.61234E-18
 -1      1313 8.25519E-05-2.21981E-06-3.43869E-05-7.73985E-06 7.80461E-20-2.70129E-18
 -1      1314 8.44518E-05-4.82467E-06-3.41783E-05-8.34496E-06 1.77910E-20-2.29800E-18
 -1      1315 8.18634E-05-2.03960E-06-3.41890E-05-4.17175E-06 2.38397E-19-2.38939E-18
 -1      1316 8.20081E-05-2.03716E-06-3.42391E-05-5.33034E-06 2.05597E-19-2.52581E-18
 -1      1317 8.36199E-05-4.29311E-06-3.40432E-05-5.89489E-06 2.35037E-19-2.19642E-18
 -1      1318 8.17114E-05-1.97349E-06-3.41453E-05-1.94508E-06 3.63555E-19-2.13225E-18
 -1      1319 8.17513E-05-1.97140E-06-3.41623E-05-3.06620E-06 3.17925E-19-2.27430E-18
 -1      1320 8.31926E-05-4.03636E-06-3.39674E-05-3.61885E-06 4.45749E-19-1.95236E-18
 -1      1321 8.17655E-05-1.99844E-06-3.41514E-05 2.91680E-07 4.71531E-19-1.84616E-18
 -1      1322 8.17232E-05-1.99671E-06-3.41421E-05-8.43757E-07 4.16642E-19-2.00951E-18
 -1      1323 8.30847E-05-3.99103E-06-3.39401E-05-1.40808E-06 6.70095E-19-1.71553E-18
 -1      1324 8.19832E-05-2.09352E-06-3.41982E-05 2.62206E-06 6.00368E-19-1.56385E-18
 -1      1325 8.18746E-05-2.09290E-06-3.41671E-05 1.43218E-06 5.56360E-19-1.72590E-18
 -1      1326 8.32263E-05-4.10836E-06-3.39515E-05 8.38441E-07 8.22866E-19-1.47365E-18
 -1      1327 8.23467E-05-2.24876E-06-3.42827E-05 5.11355E-06 6.56728E-19-1.17065E-18
 -1      1328 8.21756E-05-2.24995E-06-3.42300E-05 3.83481E-06 6.33031E-19-1.40716E-18
 -1      1329 8.35714E-05-4.35905E-06-3.39944E-05 3.19702E-06 9.82426E-19-1.15662E-18
 -1      1330 8.28704E-05-2.46355E-06-3.44116E-05 7.78466E-06 7.56473E-19-6.27519E-19
 -1      1331 8.26247E-05-2.47057E-06-3.43313E-05 6.40533E-06 7.10952E-19-9.38274E-19
 -1      1332 8.41083E-05-4.73818E-06-3.40660E-05 5.70813E-06 1.09733E-18-7.76173E-19
 -1      1333 8.36747E-05-2.77542E-06-3.46223E-05 1.08173E-05 8.71835E-19 6.21643E-20
 -1      1334 8.32884E-05-2.79087E-06-3.44880E-05 9.23319E-06 8.29431E-19-3.36193E-19
 -1      1335 8.48976E-05-5.29003E-06-3.41754E-05 8.45860E-06 1.28046E-18-2.05644E-19
 -1      1336 8.50170E-05-3.26401E-06-3.49962E-05 1.43262E-05 9.11302E-19 1.07438E-18
 -1      1337 8.43506E-05-3.29640E-06-3.47509E-05 1.24531E-05 8.74562E-19 4.83775E-19
 -1      1338 8.61375E-05-6.14733E-06-3.43523E-05 1.15677E-05 1.38125E-18 5.11820E-19
 -1      1339 8.75806E-05-4.16786E-06-3.57213E-05 1.86579E-05 8.55609E-19 2.61500E-18
 -1      1340 8.62695E-05-4.22828E-06-3.52292E-05 1.62177E-05 8.25645E-19 1.70690E-18
 -1      1341 8.83011E-05-7.63721E-06-3.46570E-05 1.51597E-05 1.36526E-18 1.60492E-18
 -1      1342 9.38090E-05-6.89565E-06-3.72148E-05 2.47650E-05 5.79794E-19 4.91957E-18
 -1      1343 9.04825E-05-6.52974E-06-3.61449E-05 2.07603E-05 6.14046E-19 3.55987E-18
 -1      1344 9.27419E-05-1.08356E-05-3.51808E-05 1.92597E-05 1.15771E-18 3.13826E-18
 -1      1345 1.23786E-04-2.49835E-05-3.90847E-05 2.81663E-05 7.73976E-20 8.29669E-18
 -1      1346 1.00400E-04-1.45209E-05-3.74455E-05 2.37805E-05 1.79359E-19 6.07460E-18
 -1      1347 1.02079E-04-1.94892E-05-3.55070E-05 2.10596E-05 8.24494E-19 5.14933E-18
 -1      1348 1.02960E-04-2.79265E-05-3.48555E-05 7.16343E-06 2.65518E-19 8.38796E-18
 -1      1349 1.06176E-04-3.02739E-05-3.39448E-05-8.10648E-06-5.87311E-19 1.75188E-18
 -1      1350 9.93756E-05-2.80715E-05-3.11788E-05-4.92959E-06-4.92550E-19 1.09050E-18
 -1      1351 9.68425E-05-2.81960E-05-2.96984E-05-2.25438E-06-4.10546E-19 8.52241E-19
 -1      1352 9.48365E-05-2.79902E-05-2.87071E-05-1.78475E-06-4.37810E-19 1.61783E-19
 -1      1353 1.00662E-04-2.82043E-05-3.14167E-05-7.60566E-06-8.75303E-19-4.17693E-20
 -1      1354 9.34015E-05-2.76972E-05-2.81505E-05-4.30991E-07-3.88980E-19 3.41460E-21
 -1      1355 9.30871E-05-2.77188E-05-2.79632E-05-2.87975E-07-3.01544E-19-5.07320E-19
 -1      1356 9.63546E-05-2.81788E-05-2.93554E-05-2.47027E-06-7.38824E-19-3.89595E-19
 -1      1357 9.27587E-05-2.76493E-05-2.78558E-05 4.73086E-07-2.44693E-19-7.27707E-19
 -1      1358 9.33298E-05-2.78521E-05-2.80144E-05 5.84590E-07-3.05746E-19-1.18144E-18
 -1      1359 9.48021E-05-2.80695E-05-2.86425E-05 2.21538E-08-5.16717E-19-7.40016E-19
 -1      1360 9.36878E-05-2.79452E-05-2.81428E-05 1.14833E-06-1.20471E-19-1.26560E-18
 -1      1361 9.48506E-05-2.82988E-05-2.84897E-05 1.25210E-06-1.18929E-19-1.42386E-18
 -1      1362 9.48395E-05-2.81662E-05-2.86053E-05 1.59435E-06-3.69187E-19-1.03575E-18
 -1      1363 9.58103E-05-2.85478E-05-2.88124E-05 1.86924E-06-8.51665E-21-1.40928E-18
 -1      1364 9.77405E-05-2.91158E-05-2.93908E-05 2.01590E-06-6.03511E-20-1.46914E-18
 -1      1365 9.60510E-05-2.84842E-05-2.89916E-05 2.99293E-06-9.65618E-20-1.08499E-18
 -1      1366 9.93194E-05-2.95158E-05-2.99200E-05 2.81570E-06-2.66021E-21-1.44070E-18
 -1      1367 1.02217E-04-3.03614E-05-3.07904E-05 3.02802E-06-5.84254E-20-1.51423E-18
 -1      1368 9.84246E-05-2.90716E-05-2.97691E-05 4.67062E-06-8.87002E-20-1.11276E-18
 -1      1369 1.04547E-04-3.09449E-05-3.15766E-05 4.15424E-06-1.34109E-19-1.54398E-18
 -1      1370 1.08841E-04-3.22042E-05-3.28657E-05 4.47477E-06-5.33101E-20-1.75616E-18
 -1      1371 1.02076E-04-2.99469E-05-3.09790E-05 6.93821E-06-1.56489E-19-1.13246E-18
 -1      1372 1.12121E-04-3.30253E-05-3.39778E-05 6.04493E-06-2.06332E-20-1.67998E-18
 -1      1373 1.18387E-04-3.49061E-05-3.58360E-05 6.51102E-06-3.22402E-20-1.73790E-18
 -1      1374 1.07314E-04-3.12128E-05-3.27109E-05 1.01083E-05-9.46824E-20-8.74442E-19
 -1      1375 1.22828E-04-3.60740E-05-3.73165E-05 8.48547E-06 1.22668E-19-1.55224E-18
 -1      1376 1.31519E-04-3.87960E-05-3.98072E-05 9.07838E-06 1.20332E-19-1.43191E-18
 -1      1377 1.14542E-04-3.30863E-05-3.50332E-05 1.42964E-05 1.55536E-19-4.35507E-19
 -1      1378 1.36868E-04-4.03743E-05-4.14773E-05 1.08441E-05 3.06881E-19-1.24874E-18
 -1      1379 1.47143E-04-4.39103E-05-4.41998E-05 1.13059E-05 2.09974E-19-6.90861E-19
 -1      1380 1.23895E-04-3.59908E-05-3.77764E-05 1.87645E-05 4.47578E-19-3.61604E-19
 -1      1381 1.53803E-04-4.63629E-05-4.59187E-05 1.13116E-05 3.53464E-19-2.76556E-19
 -1      1382 1.64002E-04-5.05108E-05-4.82098E-05 1.09685E-05 2.76503E-19 5.03985E-20
 -1      1383 1.35679E-04-4.08457E-05-4.06196E-05 2.12728E-05 5.33247E-19 1.75362E-19
 -1      1384 1.70912E-04-5.39870E-05-4.93778E-05 5.88891E-06 6.54809E-19 5.05467E-19
 -1      1385 1.73600E-04-5.60485E-05-4.95412E-05 3.15659E-06 6.59945E-19 1.14826E-18
 -1      1386 1.49892E-04-4.89033E-05-4.29772E-05 1.63192E-05 8.77844E-19 8.30423E-19
 -1      1387 1.78833E-04-5.92572E-05-5.01929E-05-8.45452E-06 7.00708E-19 1.77115E-18
 -1      1388 1.66463E-04-5.43856E-05-4.80235E-05-1.31541E-05-1.62789E-21 2.28699E-18
 -1      1389 1.64029E-04-5.81228E-05-4.49212E-05-2.09541E-06 1.18516E-18 1.79902E-18
 -1      1390 1.33717E-04-3.59692E-05-4.56237E-05-1.68996E-05-2.21732E-18-1.06218E-18
 -1      1391 1.17997E-04-2.84399E-05-4.36705E-05-1.33054E-05-2.37169E-18-4.07613E-18
 -1      1392 1.15945E-04-2.69598E-05-4.38219E-05 7.42093E-07-2.47334E-18-5.48930E-18
 -1      1393 1.19225E-04-2.82197E-05-4.42205E-05 5.93465E-06-2.10488E-18-8.54106E-18
 -1      1394 1.50355E-04-3.45678E-05-5.22391E-05-1.10628E-05-4.13352E-18-3.07959E-18
 -1      1395 1.22636E-04-3.09736E-05-4.40777E-05 1.71154E-05-8.41951E-19-9.23753E-18
 -1      1396 1.39407E-04-3.88244E-05-4.61191E-05 1.89662E-05-1.49078E-19-9.52277E-18
 -1      1397 1.51714E-04-3.61157E-05-5.19847E-05 1.98414E-05-2.53898E-18-5.00174E-18
 -1      1398 1.45855E-04-4.31972E-05-4.60857E-05 2.02882E-05 4.66292E-19-1.01801E-17
 -1      1399 1.66717E-04-5.23592E-05-4.90937E-05 1.87663E-05 1.46007E-19-9.66549E-18
 -1      1400 1.61197E-04-4.67885E-05-5.03029E-05 3.46639E-05-1.44843E-19-5.99101E-18
 -1      1401 1.70493E-04-5.40518E-05-4.93955E-05 1.07694E-05 4.79315E-19-9.47195E-18
 -1      1402 1.82225E-04-5.83003E-05-5.16272E-05 7.69398E-06 8.39807E-19-8.44809E-18
 -1      1403 1.70337E-04-5.61142E-05-4.88220E-05 2.60406E-05 7.38507E-19-6.71739E-18
 -1      1404 1.80391E-04-5.69078E-05-5.16217E-05-1.76257E-06 7.44383E-19-7.20634E-18
 -1      1405 1.78636E-04-5.53533E-05-5.16747E-05-4.06990E-06 1.26547E-18-6.10028E-18
 -1      1406 1.70470E-04-5.66086E-05-4.80469E-05 4.21697E-06 1.61783E-18-5.02629E-18
 -1      1407 1.72183E-04-5.28978E-05-5.04753E-05-8.03910E-06 8.60638E-19-5.94432E-18
 -1      1408 1.62412E-04-4.87682E-05-4.83888E-05-8.60962E-06 2.63917E-19-4.90887E-18
 -1      1409 1.60611E-04-5.06618E-05-4.65954E-05-1.18972E-05 1.31370E-18-3.42508E-18
 -1      1410 1.54741E-04-4.65175E-05-4.63601E-05-8.52657E-06-2.83921E-20-4.24025E-18
 -1      1411 1.43590E-04-4.24779E-05-4.34790E-05-8.30256E-06-2.43917E-19-4.32072E-18
 -1      1412 1.46162E-04-4.40430E-05-4.36759E-05-1.64094E-05 5.69524E-19-3.21608E-18
 -1      1413 1.36971E-04-4.07596E-05-4.14327E-05-6.71320E-06-4.22061E-20-4.32834E-18
 -1      1414 1.28112E-04-3.78518E-05-3.89078E-05-6.30110E-06 5.65613E-19-4.03823E-18
 -1      1415 1.31975E-04-3.88959E-05-4.00002E-05-1.43907E-05-2.53647E-20-2.25221E-18
 -1      1416 1.23077E-04-3.65520E-05-3.72634E-05-4.68788E-06 4.96494E-19-4.23225E-18
 -1      1417 1.16899E-04-3.46549E-05-3.54146E-05-4.32553E-06-2.97560E-19-3.88942E-18
 -1      1418 1.20593E-04-3.54247E-05-3.66322E-05-1.06044E-05 6.56980E-19-2.12502E-18
 -1      1419 1.13339E-04-3.37151E-05-3.42371E-05-3.09531E-06 9.01362E-20-3.68957E-18
 -1      1420 1.09282E-04-3.25213E-05-3.29981E-05-2.83289E-06 3.46225E-19-3.45997E-18
 -1      1421 1.12276E-04-3.31099E-05-3.40233E-05-7.21134E-06-1.11742E-19-2.55774E-18
 -1      1422 1.06864E-04-3.18648E-05-3.22025E-05-1.99258E-06 6.94170E-21-2.91657E-18
 -1      1423 1.04281E-04-3.11241E-05-3.14070E-05-1.81696E-06 1.95843E-19-2.67101E-18
 -1      1424 1.06514E-04-3.15698E-05-3.21771E-05-4.71713E-06 4.52653E-19-1.75821E-18
 -1      1425 1.02746E-04-3.06951E-05-3.09081E-05-1.28986E-06 5.95600E-19-2.00588E-18
 -1      1426 1.01168E-04-3.02508E-05-3.04237E-05-1.18201E-06 2.93990E-19-1.53174E-18
 -1      1427 1.02713E-04-3.05710E-05-3.09550E-05-3.05719E-06 1.05037E-18-1.47371E-18
 -1      1428 1.00084E-04-2.99433E-05-3.00751E-05-8.25468E-07 1.47589E-19-6.83956E-19
 -1      1429 9.90299E-05-2.96503E-05-2.97509E-05-7.50083E-07-1.40922E-19-7.04526E-19
 -1      1430 1.00180E-04-2.98970E-05-3.01412E-05-1.97934E-06 6.30408E-19-7.73909E-19
 -1      1431 9.83240E-05-2.94449E-05-2.95260E-05-5.24997E-07 1.09552E-19-7.67847E-19
 -1      1432 9.76587E-05-2.92625E-05-2.93218E-05-4.77295E-07 7.39698E-20-1.39641E-18
 -1      1433 9.84588E-05-2.94411E-05-2.95911E-05-1.26325E-06-3.70273E-19-9.85644E-20
 -1      1434 9.71966E-05-2.91258E-05-2.91760E-05-3.35339E-07-7.11388E-19-8.71406E-19
 -1      1435 9.67753E-05-2.90113E-05-2.90467E-05-3.04867E-07-3.04447E-19-1.55191E-18
 -1      1436 9.73299E-05-2.91391E-05-2.92319E-05-8.07852E-07-1.80001E-19-1.12002E-18
 -1      1437 9.64724E-05-2.89205E-05-2.89519E-05-2.15034E-07 1.94425E-19-2.01962E-18
 -1      1438 9.62044E-05-2.88483E-05-2.88697E-05-1.95458E-07 5.07223E-19-1.90276E-18
 -1      1439 9.65890E-05-2.89394E-05-2.89972E-05-5.18435E-07-3.78637E-19-1.50074E-18
 -1      1440 9.60055E-05-2.87881E-05-2.88078E-05-1.38248E-07 4.94616E-19-1.67958E-18
 -1      1441 9.58350E-05-2.87424E-05-2.87554E-05-1.25682E-07 1.10218E-18-5.87197E-19
 -1      1442 9.61019E-05-2.88071E-05-2.88435E-05-3.33713E-07 9.20450E-19-1.26183E-18
 -1      1443 9.57098E-05-2.87039E-05-2.87168E-05-9.02660E-08 8.36416E-19-2.18037E-20
 -1      1444 9.56048E-05-2.86761E-05-2.86846E-05-8.25385E-08-1.44387E-19 1.29732E-18
 -1      1445 9.57874E-05-2.87217E-05-2.87445E-05-2.16787E-07 1.57749E-18-2.58948E-19
 -1      1446 9.55171E-05-2.86492E-05-2.86576E-05-5.82189E-08 1.19623E-19 8.22859E-19
 -1      1447 9.54464E-05-2.86307E-05-2.86358E-05-5.26073E-08-1.04027E-18 1.18432E-19
 -1      1448 9.55789E-05-2.86639E-05-2.86791E-05-1.41417E-07-3.57565E-19-1.65667E-19
 -1      1449 9.53893E-05-2.86128E-05-2.86183E-05-3.68468E-08-2.31687E-19-1.89978E-19
 -1      1450 9.53450E-05-2.86015E-05-2.86046E-05-3.31308E-08 5.67364E-19-3.57168E-19
 -1      1451 9.54376E-05-2.86251E-05-2.86348E-05-9.02786E-08-6.96142E-19-8.82055E-19
 -1      1452 9.53082E-05-2.85898E-05-2.85934E-05-2.28220E-08 5.31465E-19 6.67499E-19
 -1      1453 9.52811E-05-2.85831E-05-2.85850E-05-2.03343E-08 3.58750E-19 1.51220E-18
 -1      1454 9.53457E-05-2.85997E-05-2.86060E-05-5.67055E-08 1.16376E-18 8.90606E-19
 -1      1455 9.52579E-05-2.85756E-05-2.85780E-05-1.35788E-08-7.73216E-19 4.96746E-19
 -1      1456 9.52421E-05-2.85719E-05-2.85730E-05-1.19091E-08-8.79015E-19-8.66867E-19
 -1      1457 9.52869E-05-2.85835E-05-2.85876E-05-3.45692E-08-7.12692E-19 1.07155E-19
 -1      1458 9.52280E-05-2.85672E-05-2.85688E-05-7.48992E-09-3.15983E-19-1.74542E-18
 -1      1459 9.52196E-05-2.85654E-05-2.85661E-05-6.38803E-09-1.44686E-19-2.67392E-18
 -1      1460 9.52503E-05-2.85734E-05-2.85761E-05-1.99622E-08-1.01627E-18-1.37521E-18
 -1      1461 9.52119E-05-2.85628E-05-2.85638E-05-3.61901E-09 5.77181E-19-3.08159E-18
 -1      1462 9.52084E-05-2.85622E-05-2.85626E-05-2.93188E-09 1.77342E-19-2.60251E-18
 -1      1463 9.52290E-05-2.85677E-05-2.85693E-05-1.04959E-08 2.09359E-21-2.08288E-18
 -1      1464 9.52043E-05-2.85607E-05-2.85614E-05-1.06136E-09-1.00898E-19-2.57399E-18
 -1      1465 9.52035E-05-2.85609E-05-2.85611E-05-5.57669E-10-2.29634E-19-2.45950E-18
 -1      1466 9.52173E-05-2.85645E-05-2.85656E-05-4.37623E-09 4.00900E-19-2.35099E-18
 -1      1467 9.52021E-05-2.85603E-05-2.85607E-05 5.80220E-10-2.71936E-19-1.95105E-18
 -1      1468 9.52033E-05-2.85610E-05-2.85610E-05 9.05660E-10-7.68542E-19-2.72325E-18
 -1      1469 9.52118E-05-2.85631E-05-2.85638E-05-3.08799E-10-4.28784E-19-2.32059E-18
 -1      1470 9.52036E-05-2.85609E-05-2.85611E-05 1.56437E-09-1.61298E-19-2.60762E-18
 -1      1471 9.52059E-05-2.85618E-05-2.85618E-05 1.76806E-09 2.53801E-19-2.28786E-18
 -1      1472 9.52107E-05-2.85630E-05-2.85634E-05 2.19463E-09-2.20498E-19-2.05176E-18
 -1      1473 9.52073E-05-2.85620E-05-2.85622E-05 2.10661E-09 8.65299E-19-3.15858E-18
 -1      1474 9.52102E-05-2.85631E-05-2.85630E-05 2.22673E-09 9.85640E-19-1.42638E-18
 -1      1475 9.52123E-05-2.85636E-05-2.85638E-05 3.64541E-09 5.51174E-19-2.48263E-18
 -1      1476 9.52122E-05-2.85636E-05-2.85636E-05 2.35231E-09 8.92273E-20-1.34416E-18
 -1      1477 9.52153E-05-2.85647E-05-2.85646E-05 2.41127E-09 7.39394E-19-6.56225E-19
 -1      1478 9.52155E-05-2.85646E-05-2.85647E-05 4.38518E-09 9.38541E-19-2.01487E-18
 -1      1479 9.52174E-05-2.85652E-05-2.85652E-05 2.39394E-09 7.57627E-19 1.30720E-18
 -1      1480 9.52204E-05-2.85662E-05-2.85661E-05 2.41025E-09-1.65172E-19 2.25830E-18
 -1      1481 9.52195E-05-2.85659E-05-2.85658E-05 4.64130E-09 1.41620E-18-1.11150E-18
 -1      1482 9.52227E-05-2.85668E-05-2.85668E-05 2.27887E-09-2.31255E-19 1.84617E-18
 -1      1483 9.52257E-05-2.85678E-05-2.85676E-05 2.26433E-09 2.62416E-19 1.61768E-18
 -1      1484 9.52237E-05-2.85672E-05-2.85671E-05 4.54986E-09-3.96176E-19 5.44753E-19
 -1      1485 9.52277E-05-2.85684E-05-2.85683E-05 2.01542E-09-7.23134E-19 1.37615E-18
 -1      1486 9.52304E-05-2.85692E-05-2.85690E-05 1.96130E-09-1.37852E-18 3.11003E-19
 -1      1487 9.52280E-05-2.85685E-05-2.85683E-05 4.15903E-09-9.29519E-19-2.29730E-18
 -1      1488 9.52321E-05-2.85697E-05-2.85695E-05 1.57377E-09-1.48196E-18 2.52615E-19
 -1      1489 9.52341E-05-2.85704E-05-2.85701E-05 1.46487E-09-9.30853E-19-2.74093E-18
 -1      1490 9.52317E-05-2.85697E-05-2.85694E-05 3.43439E-09-1.88832E-18-1.94302E-18
 -1      1491 9.52354E-05-2.85708E-05-2.85705E-05 9.04308E-10 1.14058E-18-2.48525E-18
 -1      1492 9.52364E-05-2.85711E-05-2.85708E-05 7.34022E-10 1.24219E-18 3.80218E-20
 -1      1493 9.52347E-05-2.85707E-05-2.85703E-05 2.29757E-09 4.60478E-19-1.51972E-18
 -1      1494 9.52369E-05-2.85713E-05-2.85709E-05 3.52770E-10 1.60493E-19 4.47869E-19
 -1      1495 9.52371E-05-2.85713E-05-2.85711E-05 2.09788E-10-6.06225E-19-4.64394E-19
 -1      1496 9.52371E-05-2.85714E-05-2.85709E-05 3.44001E-10-2.76595E-19-4.15422E-19
 -1      1497 9.52364E-05-2.85713E-05-2.85707E-05 1.16235E-09 1.82635E-18-5.21606E-19
 -1      1498 9.71581E-05-2.85447E-05-2.99385E-05 2.87348E-06 3.59513E-19 7.51173E-18
 -1      1499 1.02969E-04-2.95320E-05-3.22835E-05 4.33239E-06 3.04297E-19 7.93797E-18
 -1      1500 1.02775E-04-2.68763E-05-3.28327E-05 1.25303E-05 5.51471E-19 5.90202E-18
 -1      1501 9.27909E-05-2.76576E-05-2.79855E-05 1.06013E-06 2.80461E-19 6.74296E-18
 -1      1502 9.46407E-05-2.77900E-05-2.88677E-05 1.38643E-06 2.68509E-19 7.18462E-18
 -1      1503 9.71021E-05-2.82351E-05-2.97102E-05 4.68149E-06 5.45675E-19 5.34353E-18
 -1      1504 9.10859E-05-2.72740E-05-2.73251E-05 2.79275E-07 1.59930E-19 6.28768E-18
 -1      1505 9.16440E-05-2.72838E-05-2.75765E-05 4.40668E-07 1.38728E-19 6.47536E-18
 -1      1506 9.37802E-05-2.78319E-05-2.83164E-05 1.70992E-06 3.63364E-19 4.77717E-18
 -1      1507 9.05885E-05-2.71671E-05-2.71533E-05-3.92238E-08 2.12989E-19 5.83293E-18
 -1      1508 9.06311E-05-2.71171E-05-2.71798E-05 3.90219E-08 1.86936E-19 6.14184E-18
 -1      1509 9.22984E-05-2.76085E-05-2.77461E-05 4.42011E-07 2.52264E-19 4.26613E-18
 -1      1510 9.05758E-05-2.71873E-05-2.71462E-05-1.28584E-07 1.04550E-19 5.62254E-18
 -1      1511 9.04400E-05-2.71161E-05-2.71090E-05-1.02678E-07 6.65500E-20 5.63322E-18
 -1      1512 9.17110E-05-2.75102E-05-2.75259E-05-5.20670E-08 2.09184E-19 4.05782E-18
 -1      1513 9.06330E-05-2.72230E-05-2.71587E-05-6.36156E-08 1.65560E-19 5.34714E-18
 -1      1514 9.05183E-05-2.71756E-05-2.71283E-05-7.63511E-08 1.18079E-19 5.43348E-18
 -1      1515 9.15067E-05-2.74956E-05-2.74359E-05-1.27289E-07 1.66966E-19 3.70822E-18
 -1      1516 9.04757E-05-2.71915E-05-2.71050E-05 1.18419E-07 1.98336E-19 5.09626E-18
 -1      1517 9.05232E-05-2.72069E-05-2.71233E-05 7.27818E-08 1.69120E-19 5.22151E-18
 -1      1518 9.13359E-05-2.74802E-05-2.73607E-05 7.54717E-08 2.41550E-19 3.31660E-18
 -1      1519 8.98915E-05-2.70277E-05-2.69242E-05 3.91047E-07 6.10377E-20 4.90294E-18
 -1      1520 9.02088E-05-2.71376E-05-2.70215E-05 3.17195E-07 1.00261E-19 5.06030E-18
 -1      1521 9.09588E-05-2.73952E-05-2.72271E-05 4.87134E-07 1.43470E-19 3.48947E-18
 -1      1522 8.87348E-05-2.66844E-05-2.65757E-05 7.19950E-07 1.71269E-19 4.59751E-18
 -1      1523 8.93950E-05-2.69104E-05-2.67720E-05 6.25492E-07 3.02417E-21 4.72664E-18
 -1      1524 9.02028E-05-2.71850E-05-2.69863E-05 1.04638E-06 1.74191E-19 3.08255E-18
 -1      1525 8.69495E-05-2.61407E-05-2.60464E-05 1.05274E-06-5.24118E-20 4.55550E-18
 -1      1526 8.79759E-05-2.64878E-05-2.63467E-05 9.51125E-07 7.94226E-20 4.64653E-18
 -1      1527 8.89653E-05-2.68117E-05-2.66120E-05 1.67024E-06 1.35353E-19 3.17868E-18
 -1      1528 8.46051E-05-2.54138E-05-2.53597E-05 1.31680E-06 2.60611E-19 3.87949E-18
 -1      1529 8.59493E-05-2.58631E-05-2.57486E-05 1.22828E-06 1.53085E-19 4.38864E-18
 -1      1530 8.72355E-05-2.62643E-05-2.61060E-05 2.24075E-06 2.73721E-19 3.16630E-18
 -1      1531 8.19227E-05-2.45703E-05-2.45824E-05 1.42910E-06 2.15888E-19 3.66814E-18
 -1      1532 8.34502E-05-2.50737E-05-2.50198E-05 1.37825E-06 1.49093E-19 3.84509E-18
 -1      1533 8.51195E-05-2.55715E-05-2.55031E-05 2.61065E-06 2.68657E-19 2.74460E-18
 -1      1534 7.92705E-05-2.37266E-05-2.38208E-05 1.31945E-06-1.46090E-19 3.88165E-18
 -1      1535 8.07652E-05-2.42092E-05-2.42447E-05 1.32849E-06-4.24939E-20 3.80003E-18
 -1      1536 8.28526E-05-2.48091E-05-2.48716E-05 2.63296E-06 5.62433E-20 3.19587E-18
 -1      1537 7.71056E-05-2.30315E-05-2.32035E-05 9.61212E-07-1.36956E-19 4.60517E-18
 -1      1538 7.83054E-05-2.34047E-05-2.35403E-05 1.04075E-06-3.21820E-19 4.02330E-18
 -1      1539 8.07768E-05-2.40960E-05-2.43049E-05 2.21102E-06-4.67168E-19 3.18625E-18
 -1      1540 7.58650E-05-2.26306E-05-2.28512E-05 3.94628E-07 1.22628E-19 4.37082E-18
 -1      1541 7.65254E-05-2.28146E-05-2.30334E-05 5.36263E-07 1.69744E-19 4.62236E-18
 -1      1542 7.92732E-05-2.35707E-05-2.39024E-05 1.35048E-06 4.73147E-21 3.04915E-18
 -1      1543 7.58375E-05-2.26207E-05-2.28428E-05-2.74410E-07 5.08187E-20 3.92301E-18
 -1      1544 7.58033E-05-2.25695E-05-2.28286E-05-9.82210E-08 2.00618E-19 4.18206E-18
 -1      1545 7.86614E-05-2.33525E-05-2.37450E-05 1.83060E-07 3.02397E-19 2.72200E-18
 -1      1546 7.70692E-05-2.30166E-05-2.31916E-05-9.05993E-07 1.08953E-19 3.73663E-18
 -1      1547 7.63250E-05-2.27335E-05-2.29775E-05-7.33106E-07-1.34996E-21 3.90252E-18
 -1      1548 7.91002E-05-2.35005E-05-2.38719E-05-1.06121E-06 1.78492E-19 2.82107E-18
 -1      1549 7.93506E-05-2.37465E-05-2.38418E-05-1.37502E-06 1.45418E-20 2.74042E-18
 -1      1550 7.80244E-05-2.32825E-05-2.34634E-05-1.23987E-06 2.71636E-19 3.13442E-18
 -1      1551 8.05357E-05-2.39929E-05-2.42693E-05-2.12876E-06 4.99326E-19 2.52159E-18
 -1      1552 8.22900E-05-2.46782E-05-2.46868E-05-1.61208E-06 1.65669E-19 2.36780E-18
 -1      1553 8.06090E-05-2.41146E-05-2.42068E-05-1.53437E-06-1.79465E-20 2.35874E-18
 -1      1554 8.27221E-05-2.47354E-05-2.48755E-05-2.82869E-06 3.33026E-19 1.60459E-18
 -1      1555 8.54369E-05-2.56635E-05-2.56012E-05-1.61686E-06 3.92325E-19 1.61016E-18
 -1      1556 8.36569E-05-2.50858E-05-2.50909E-05-1.59802E-06 1.44838E-19 2.14467E-18
 -1      1557 8.53039E-05-2.55961E-05-2.55990E-05-3.08718E-06 2.10116E-19 7.92638E-19
 -1      1558 8.83992E-05-2.65776E-05-2.64728E-05-1.44273E-06-4.38770E-20 1.53408E-18
 -1      1559 8.67392E-05-2.60546E-05-2.59940E-05-1.47015E-06 1.05122E-19 1.54421E-18
 -1      1560 8.79198E-05-2.64469E-05-2.63437E-05-2.94856E-06 1.93395E-19 9.50526E-19
 -1      1561 9.09144E-05-2.73411E-05-2.72226E-05-1.16665E-06-1.01826E-19 1.87164E-18
 -1      1562 8.95180E-05-2.69138E-05-2.68169E-05-1.22160E-06-6.61149E-20 1.79746E-18
 -1      1563 9.02851E-05-2.71934E-05-2.70297E-05-2.53357E-06 3.16000E-20 1.18484E-18
 -1      1564 9.28637E-05-2.79223E-05-2.78119E-05-8.61338E-07 3.68135E-19 1.31899E-18
 -1      1565 9.17924E-05-2.76044E-05-2.74982E-05-9.25989E-07 4.90831E-19 2.05057E-18
 -1      1566 9.22300E-05-2.77864E-05-2.76056E-05-1.98436E-06 3.82025E-19 1.44863E-18
 -1      1567 9.42464E-05-2.83263E-05-2.82360E-05-5.79177E-07 4.35130E-20 1.24156E-18
 -1      1568 9.34958E-05-2.81112E-05-2.80143E-05-6.40603E-07-4.04849E-19 6.46868E-19
 -1      1569 9.36962E-05-2.82161E-05-2.80495E-05-1.42185E-06-2.65360E-20 8.96360E-19
 -1      1570 9.51367E-05-2.85801E-05-2.85138E-05-3.48508E-07-2.14320E-19 1.60086E-18
 -1      1571 9.46612E-05-2.84497E-05-2.83719E-05-3.99547E-07 1.64673E-19 1.38473E-18
 -1      1572 9.47090E-05-2.84994E-05-2.83639E-05-9.25679E-07-2.82745E-19 1.06627E-18
 -1      1573 9.56423E-05-2.87192E-05-2.86751E-05-1.77809E-07 2.95059E-19 9.59756E-19
 -1      1574 9.53789E-05-2.86518E-05-2.85954E-05-2.16045E-07 2.02237E-19 1.36262E-18
 -1      1575 9.53415E-05-2.86658E-05-2.85662E-05-5.33629E-07 3.71237E-19 1.15149E-18
 -1      1576 9.58739E-05-2.87783E-05-2.87521E-05-6.27683E-08 1.12960E-19 2.82588E-19
 -1      1577 9.57594E-05-2.87536E-05-2.87165E-05-8.88459E-08 1.28480E-19 6.36489E-19
 -1      1578 9.56846E-05-2.87474E-05-2.86809E-05-2.51746E-07 4.83954E-19 8.17502E-19
 -1      1579 9.59277E-05-2.87868E-05-2.87736E-05 7.12915E-09-9.43544E-20 4.63494E-20
 -1      1580 9.59080E-05-2.87881E-05-2.87664E-05-8.95017E-09-1.75966E-19 3.01598E-19
 -1      1581 9.58262E-05-2.87728E-05-2.87330E-05-6.71743E-08-1.52355E-19 6.66744E-19
 -1      1582 9.58784E-05-2.87669E-05-2.87622E-05 4.39258E-08 2.91641E-19 2.77132E-19
 -1      1583 9.59122E-05-2.87819E-05-2.87712E-05 3.52618E-08 3.82790E-20 3.18768E-19
 -1      1584 9.58398E-05-2.87645E-05-2.87441E-05 4.10208E-08-1.80940E-19 3.99585E-19
 -1      1585 9.57791E-05-2.87340E-05-2.87343E-05 5.85347E-08-1.70634E-19 2.19410E-19
 -1      1586 9.58375E-05-2.87546E-05-2.87510E-05 5.49024E-08 1.53336E-19 5.55903E-19
 -1      1587 9.57815E-05-2.87390E-05-2.87313E-05 9.46593E-08-4.00124E-20 1.00363E-18
 -1      1588 9.56640E-05-2.86979E-05-2.87007E-05 5.96213E-08-4.25510E-19 8.30591E-19
 -1      1589 9.57288E-05-2.87189E-05-2.87195E-05 5.91049E-08-5.06559E-19 1.05747E-20
 -1      1590 9.56903E-05-2.87068E-05-2.87068E-05 1.12632E-07-1.65833E-19 1.51644E-18
 -1      1591 9.55534E-05-2.86640E-05-2.86678E-05 5.34384E-08 3.63208E-19 6.86060E-19
 -1      1592 9.56142E-05-2.86829E-05-2.86856E-05 5.46400E-08 2.64338E-19 8.05854E-19
 -1      1593 9.55911E-05-2.86746E-05-2.86786E-05 1.09508E-07 7.28656E-20 6.19253E-19
 -1      1594 9.54574E-05-2.86350E-05-2.86389E-05 4.41372E-08-8.01033E-19 1.24208E-18
 -1      1595 9.55091E-05-2.86506E-05-2.86542E-05 4.61169E-08-5.26401E-19 3.71333E-19
 -1      1596 9.54983E-05-2.86458E-05-2.86514E-05 9.55644E-08-3.35382E-19 6.48476E-19
 -1      1597 9.53798E-05-2.86120E-05-2.86154E-05 3.42450E-08 7.10331E-21 1.09313E-18
 -1      1598 9.54209E-05-2.86240E-05-2.86276E-05 3.64210E-08 2.19796E-19 1.74641E-18
 -1      1599 9.54189E-05-2.86219E-05-2.86278E-05 7.74796E-08-1.37057E-19 6.79358E-19
 -1      1600 9.53207E-05-2.85945E-05-2.85973E-05 2.51388E-08 7.82390E-19-3.14888E-19
 -1      1601 9.53515E-05-2.86034E-05-2.86065E-05 2.71856E-08 3.01552E-19 6.64881E-19
 -1      1602 9.53552E-05-2.86032E-05-2.86085E-05 5.92194E-08 9.11190E-19 8.79451E-19
 -1      1603 9.52779E-05-2.85821E-05-2.85842E-05 1.74401E-08-5.40587E-19 4.23289E-20
 -1      1604 9.52997E-05-2.85881E-05-2.85907E-05 1.92029E-08-8.70105E-20-2.54880E-19
 -1      1605 9.53068E-05-2.85893E-05-2.85937E-05 4.28638E-08 2.47271E-19 1.06132E-18
 -1      1606 9.52487E-05-2.85736E-05-2.85752E-05 1.13115E-08-7.19597E-19 1.72210E-18
 -1      1607 9.52632E-05-2.85775E-05-2.85796E-05 1.27412E-08-2.51744E-19 9.74843E-19
 -1      1608 9.52718E-05-2.85794E-05-2.85829E-05 2.92768E-08-1.00645E-18 1.98372E-18
 -1      1609 9.52302E-05-2.85684E-05-2.85695E-05 6.66330E-09 1.20335E-18 1.20181E-18
 -1      1610 9.52390E-05-2.85706E-05-2.85721E-05 7.77036E-09-1.32638E-19 1.17395E-18
 -1      1611 9.52480E-05-2.85728E-05-2.85754E-05 1.85990E-08-4.17784E-19 6.54243E-19
 -1      1612 9.52196E-05-2.85654E-05-2.85661E-05 3.28779E-09 1.38419E-18-1.87444E-18
 -1      1613 9.52244E-05-2.85665E-05-2.85676E-05 4.11206E-09 1.80009E-18 7.53469E-19
 -1      1614 9.52328E-05-2.85687E-05-2.85706E-05 1.05857E-08 2.07603E-18 2.45825E-19
 -1      1615 9.52148E-05-2.85641E-05-2.85646E-05 9.40786E-10-6.66439E-19-2.46029E-18
 -1      1616 9.52166E-05-2.85644E-05-2.85652E-05 1.53274E-09-2.01878E-19-2.76904E-18
 -1      1617 9.52241E-05-2.85665E-05-2.85677E-05 4.82308E-09 8.36462E-19-4.21057E-19
 -1      1618 9.52140E-05-2.85640E-05-2.85643E-05-6.12411E-10 1.55745E-20-1.71889E-18
 -1      1619 9.52138E-05-2.85638E-05-2.85643E-05-2.02516E-10-4.37921E-19-2.55257E-18
 -1      1620 9.52201E-05-2.85656E-05-2.85664E-05 8.58652E-10-4.93264E-19-2.77071E-19
 -1      1621 9.52158E-05-2.85646E-05-2.85647E-05-1.57378E-09 2.53096E-19-1.62530E-18
 -1      1622 9.52143E-05-2.85640E-05-2.85643E-05-1.30170E-09 1.83718E-19-1.47178E-18
 -1      1623 9.52194E-05-2.85655E-05-2.85660E-05-1.72757E-09-2.44668E-19-1.00314E-18
 -1      1624 9.52191E-05-2.85657E-05-2.85657E-05-2.10255E-09 6.09050E-19-3.05823E-18
 -1      1625 9.52169E-05-2.85649E-05-2.85651E-05-1.93293E-09 8.51629E-19-1.79272E-18
 -1      1626 9.52208E-05-2.85661E-05-2.85664E-05-3.28745E-09 1.06662E-18-1.22034E-18
 -1      1627 9.52232E-05-2.85670E-05-2.85669E-05-2.31205E-09-3.99718E-19-2.63116E-18
 -1      1628 9.52207E-05-2.85661E-05-2.85662E-05-2.21975E-09-7.24823E-19-3.19322E-18
 -1      1629 9.52234E-05-2.85670E-05-2.85671E-05-4.08993E-09 1.90290E-19-8.74194E-19
 -1      1630 9.52275E-05-2.85683E-05-2.85682E-05-2.26870E-09 4.92464E-21-1.71222E-18
 -1      1631 9.52249E-05-2.85675E-05-2.85675E-05-2.23994E-09-3.52357E-19-2.13764E-18
 -1      1632 9.52267E-05-2.85681E-05-2.85680E-05-4.31662E-09-8.26498E-19-9.06692E-19
 -1      1633 9.52315E-05-2.85695E-05-2.85694E-05-1.98917E-09-2.84732E-19-2.05517E-18
 -1      1634 9.52292E-05-2.85688E-05-2.85687E-05-2.02401E-09-4.01887E-20-2.60303E-18
 -1      1635 9.52301E-05-2.85692E-05-2.85690E-05-4.05959E-09 7.01409E-19-1.46091E-18
 -1      1636 9.52347E-05-2.85706E-05-2.85703E-05-1.44064E-09 6.19548E-20-3.06013E-18
 -1      1637 9.52329E-05-2.85700E-05-2.85698E-05-1.55848E-09 6.53696E-19-2.24778E-18
 -1      1638 9.52331E-05-2.85702E-05-2.85698E-05-3.32097E-09 5.74425E-19-1.19833E-18
 -1      1639 9.52366E-05-2.85712E-05-2.85709E-05-6.25185E-10 4.40216E-20-2.16430E-18
 -1      1640 9.52357E-05-2.85709E-05-2.85706E-05-8.20208E-10 8.60908E-20-2.65702E-18
 -1      1641 9.52355E-05-2.85710E-05-2.85705E-05-2.06678E-09 4.61353E-19-1.02612E-18
 -1      1642 9.52371E-05-2.85713E-05-2.85710E-05-9.82416E-11-5.33564E-19-8.97754E-19
 -1      1643 9.52375E-05-2.85731E-05-2.85705E-05-1.24067E-09-3.58270E-18-2.02496E-18
 -1      1644 9.52372E-05-2.85721E-05-2.85708E-05-1.02614E-09-1.73605E-18-7.80457E-19
 -1      1645 9.52385E-05-2.85758E-05-2.85697E-05-1.84699E-09-2.07977E-18 1.80516E-18
 -1      1646 9.52379E-05-2.85742E-05-2.85702E-05-1.74391E-09-2.98136E-18 2.03536E-19
 -1      1647 9.52376E-05-2.85736E-05-2.85702E-05-2.88478E-09-1.71468E-18-7.03333E-19
 -1      1648 9.52395E-05-2.85790E-05-2.85688E-05-2.05655E-09-1.76875E-18 9.63522E-19
 -1      1649 9.52389E-05-2.85771E-05-2.85693E-05-2.04918E-09-2.46412E-18 2.13458E-18
 -1      1650 9.52385E-05-2.85760E-05-2.85696E-05-3.74653E-09-4.45511E-19 1.72680E-18
 -1      1651 9.52405E-05-2.85822E-05-2.85679E-05-1.95293E-09 1.17393E-18 1.03216E-18
 -1      1652 9.52399E-05-2.85804E-05-2.85684E-05-1.99768E-09-1.84768E-18 1.97546E-18
 -1      1653 9.52394E-05-2.85786E-05-2.85689E-05-3.89184E-09-1.28941E-18 1.55814E-18
 -1      1654 9.52414E-05-2.85850E-05-2.85671E-05-1.64231E-09-2.46647E-19-4.65805E-19
 -1      1655 9.52409E-05-2.85834E-05-2.85675E-05-1.71811E-09 5.09335E-19-3.66863E-19
 -1      1656 9.52403E-05-2.85811E-05-2.85682E-05-3.53072E-09-4.41425E-19-5.06494E-20
 -1      1657 9.52421E-05-2.85871E-05-2.85664E-05-1.18458E-09-4.51309E-19-8.25618E-19
 -1      1658 9.52417E-05-2.85859E-05-2.85668E-05-1.28322E-09 1.32010E-19-7.22061E-19
 -1      1659 9.52410E-05-2.85833E-05-2.85676E-05-2.81739E-09-6.32263E-19-9.11280E-19
 -1      1660 9.52425E-05-2.85884E-05-2.85660E-05-6.35246E-10-1.62939E-18-1.51015E-18
 -1      1661 9.52423E-05-2.85877E-05-2.85662E-05-7.47131E-10-6.43969E-19-5.84237E-19
 -1      1662 9.52415E-05-2.85849E-05-2.85672E-05-1.86223E-09 8.17396E-19-1.69708E-18
 -1      1663 9.52426E-05-2.85887E-05-2.85659E-05-3.15904E-11 8.50758E-19 1.70623E-18
 -1      1664 9.52426E-05-2.85887E-05-2.85660E-05-1.51163E-10-1.17213E-18 1.02537E-18
 -1      1665 9.52418E-05-2.85858E-05-2.85669E-05-7.58796E-10 2.46093E-18-1.61464E-19
 -1      1666 9.52424E-05-2.85881E-05-2.85661E-05 5.92640E-10 2.44118E-18 2.18511E-18
 -1      1667 9.52425E-05-2.85886E-05-2.85660E-05 4.71271E-10 1.09007E-19 1.68333E-18
 -1      1668 9.52419E-05-2.85859E-05-2.85669E-05 4.23189E-10 2.43020E-18 2.09109E-18
 -1      1669 9.52419E-05-2.85865E-05-2.85666E-05 1.19601E-09 2.71057E-18-1.04008E-18
 -1      1670 9.52422E-05-2.85875E-05-2.85663E-05 1.08122E-09 3.03334E-18 5.64415E-19
 -1      1671 9.52417E-05-2.85852E-05-2.85671E-05 1.61196E-09 1.37354E-18 2.23282E-18
 -1      1672 9.52411E-05-2.85840E-05-2.85673E-05 1.71206E-09 3.46454E-18 8.18165E-19
 -1      1673 9.52416E-05-2.85856E-05-2.85669E-05 1.61864E-09 2.85310E-18-8.07584E-19
 -1      1674 9.52412E-05-2.85838E-05-2.85675E-05 2.70555E-09 3.62957E-18-1.43465E-18
 -1      1675 9.52401E-05-2.85809E-05-2.85682E-05 2.07638E-09 6.26079E-18 2.00083E-18
 -1      1676 9.52407E-05-2.85828E-05-2.85677E-05 2.01703E-09 3.80933E-18 2.77454E-18
 -1      1677 9.52405E-05-2.85817E-05-2.85681E-05 3.58298E-09 3.51026E-18 2.67598E-18
 -1      1678 9.52390E-05-2.85774E-05-2.85692E-05 2.16693E-09 5.04900E-18-1.13528E-18
 -1      1679 9.52397E-05-2.85795E-05-2.85687E-05 2.17215E-09 6.35338E-18-1.07409E-19
 -1      1680 9.52396E-05-2.85791E-05-2.85688E-05 4.07692E-09 3.80618E-18 1.10014E-18
 -1      1681 9.52379E-05-2.85743E-05-2.85701E-05 1.86048E-09 2.30913E-18-8.86619E-19
 -1      1682 9.52385E-05-2.85761E-05-2.85696E-05 1.97057E-09 4.59622E-18-1.15427E-18
 -1      1683 9.52386E-05-2.85763E-05-2.85695E-05 3.96198E-09 3.64928E-18-1.62770E-18
 -1      1684 9.52372E-05-2.85722E-05-2.85707E-05 1.03644E-09 1.97007E-20-1.11842E-18
 -1      1685 9.52376E-05-2.85733E-05-2.85704E-05 1.24949E-09 1.90149E-18-1.53521E-18
 -1      1686 9.52377E-05-2.85740E-05-2.85701E-05 3.00977E-09 1.67661E-18-2.50838E-18
 -1      1687 9.52371E-05-2.85722E-05-2.85706E-05 1.51185E-09 1.76972E-18-1.45035E-18
 -1      1688 2.19479E-05-6.93177E-05 1.47611E-05-1.28574E-07 5.36511E-18 1.46081E-18
 -1      1689 2.61401E-05-8.42377E-05 1.83209E-05 8.16010E-06 5.26516E-18 4.85985E-19
 -1      1690 2.07511E-05-3.66244E-05 2.89030E-06 8.00126E-06 6.12828E-18 2.42823E-18
 -1      1691 2.58538E-05-6.29976E-05 9.97909E-06 3.30762E-06 5.85808E-18 1.86623E-18
 -1      1692 3.62373E-05-5.45876E-06-1.46626E-05 3.59380E-05 6.26381E-18 3.99122E-18
 -1      1693 2.98693E-05-2.79937E-05-5.10060E-06 1.61318E-05 6.36799E-18 3.26955E-18
 -1      1694 7.86564E-05 4.65581E-06-3.44895E-05 6.94893E-05 5.40238E-18 5.50995E-18
 -1      1695 5.31553E-05-1.22212E-06-2.42280E-05 4.54116E-05 6.43999E-18 4.62480E-18
 -1      1696 1.42799E-04-9.74776E-06-5.34631E-05 8.92582E-05 3.61852E-18 3.92939E-18
 -1      1697 1.01800E-04 2.21209E-06-4.39981E-05 7.52930E-05 4.82555E-18 4.87722E-18
 -1      1698 2.14894E-04-4.00302E-05-6.95658E-05 7.83370E-05 2.11409E-18 2.44793E-19
 -1      1699 1.68862E-04-1.76829E-05-6.17202E-05 8.53394E-05 3.48639E-18 3.16197E-18
 -1      1700 2.64143E-04-6.38484E-05-7.94732E-05 3.83733E-05 1.40247E-18-4.79675E-18
 -1      1701 2.34656E-04-4.70176E-05-7.53030E-05 6.63970E-05 2.22325E-18-1.26039E-18
 -1      1702 2.72497E-04-6.73484E-05-8.16612E-05-1.68134E-05 2.19487E-18-9.25214E-18
 -1      1703 2.71871E-04-6.68005E-05-8.15684E-05 2.12785E-05 1.22926E-18-6.28138E-18
 -1      1704 2.35824E-04-4.81027E-05-7.53896E-05-6.20803E-05 2.94063E-18-9.92130E-18
 -1      1705 2.63601E-04-6.36945E-05-7.94604E-05-3.34089E-05 2.07248E-18-9.65829E-18
 -1      1706 1.74868E-04-1.98960E-05-6.30720E-05-8.59337E-05 4.49817E-18-9.39868E-18
 -1      1707 2.19316E-04-4.20724E-05-7.03625E-05-7.71561E-05 3.34536E-18-1.04524E-17
 -1      1708 1.06903E-04-3.49786E-06-4.36907E-05-7.05353E-05 6.43152E-18-7.49031E-18
 -1      1709 1.50984E-04-1.63382E-05-5.41603E-05-8.41352E-05 5.46675E-18-8.18064E-18
 -1      1710 5.32141E-05-2.83581E-06-2.35202E-05-4.41788E-05 6.21722E-18-6.24348E-18
 -1      1711 7.79840E-05 3.32955E-06-3.38257E-05-6.78470E-05 6.88214E-18-7.71054E-18
 -1      1712 3.49703E-05-3.49713E-05-3.98824E-06-1.80327E-05 3.60497E-18-3.54399E-18
 -1      1713 4.20201E-05-1.24832E-05-1.40155E-05-3.72609E-05 5.23890E-18-5.53451E-18
 -1      1714 2.58378E-05-6.67337E-05 1.13424E-05-2.25919E-06 1.18754E-18-1.97840E-18
 -1      1715 2.01558E-05-4.06937E-05 4.62825E-06-5.43799E-06 3.49486E-18-2.42188E-18
 -1      1716 2.60473E-05-8.53994E-05 1.87972E-05-8.68284E-06-3.08786E-18-1.76966E-18
 -1      1717 2.23528E-05-7.18193E-05 1.55876E-05 7.38175E-08 1.21126E-19-2.10827E-18
 -1      1718 2.30335E-05-8.41605E-05 1.91079E-05-1.73722E-05-6.72438E-18-2.44771E-18
 -1      1719 2.62429E-05-8.98050E-05 2.02059E-05-5.91094E-06-4.40817E-18-1.60957E-18
 -1      1720 1.97907E-05-5.93077E-05 1.05822E-05-1.36708E-05-8.81931E-18-4.43056E-18
 -1      1721 2.55172E-05-7.90261E-05 1.56588E-05-1.28411E-05-7.52504E-18-3.30406E-18
 -1      1722 2.89980E-05-2.99162E-05-4.83396E-06 6.62004E-06-9.08273E-18-6.97193E-18
 -1      1723 2.73497E-05-5.37003E-05 4.06219E-06-7.92642E-06-9.29449E-18-5.06653E-18
 -1      1724 7.83628E-05-1.90561E-05-2.75513E-05 4.35198E-05-7.94517E-18-8.47118E-18
 -1      1725 5.32006E-05-3.03781E-05-1.53364E-05 1.71115E-05-8.44068E-18-7.32514E-18
 -1      1726 1.55384E-04-2.83959E-05-5.15900E-05 7.25289E-05-5.89111E-18-7.86724E-18
 -1      1727 1.05551E-04-1.92585E-05-3.91410E-05 5.06571E-05-7.79016E-18-8.62110E-18
 -1      1728 2.48541E-04-5.99739E-05-7.22546E-05 6.90944E-05-3.51138E-18-5.07542E-18
 -1      1729 1.88595E-04-3.64152E-05-6.20242E-05 6.88563E-05-4.86324E-18-7.09644E-18
 -1      1730 3.17100E-04-8.59435E-05-8.58626E-05 3.28049E-05-2.21817E-18 1.60089E-19
 -1      1731 2.72807E-04-6.47015E-05-7.96846E-05 6.03693E-05-2.79510E-18-3.17637E-18
 -1      1732 3.23189E-04-8.59145E-05-8.82822E-05-2.00387E-05-2.31579E-18 5.55188E-18
 -1      1733 3.23023E-04-8.58081E-05-8.82537E-05 2.11608E-05-2.09641E-18 2.09048E-18
 -1      1734 2.69915E-04-6.38437E-05-7.91540E-05-5.98189E-05-3.90143E-18 8.31448E-18
 -1      1735 3.17465E-04-8.63711E-05-8.58062E-05-3.16363E-05-2.12351E-18 6.79998E-18
 -1      1736 1.81674E-04-3.53167E-05-6.03592E-05-6.63972E-05-6.83217E-18 1.05422E-17
 -1      1737 2.44378E-04-5.86576E-05-7.12046E-05-6.91470E-05-5.01952E-18 9.02090E-18
 -1      1738 1.02030E-04-2.42655E-05-3.62802E-05-4.30762E-05-6.25703E-18 9.24452E-18
 -1      1739 1.51347E-04-3.09109E-05-4.92252E-05-6.64926E-05-6.24433E-18 1.08386E-17
 -1      1740 4.69416E-05-3.14156E-05-1.26982E-05-1.30306E-05-4.85604E-18 6.06476E-18
 -1      1741 6.90591E-05-1.76526E-05-2.45027E-05-3.91629E-05-6.24941E-18 8.79305E-18
 -1      1742 2.66709E-05-5.63586E-05 5.42583E-06 9.70836E-06-2.45640E-19 3.02348E-18
 -1      1743 2.70639E-05-3.28669E-05-2.87758E-06-2.97734E-06-4.03696E-18 5.45743E-18
 -1      1744 2.52894E-05-8.03041E-05 1.64002E-05 1.29632E-05 3.67485E-18 7.27601E-19
 -1      1745 1.92648E-05-6.13777E-05 1.16189E-05 1.54509E-05 1.11554E-18 1.78343E-18
 -1      1746 2.46637E-05-8.49786E-05 1.94013E-05 5.33310E-06 4.58414E-18 2.41193E-19
 -1      1747 2.23744E-05-8.18308E-05 1.88584E-05 1.63402E-05 4.07232E-18 1.46748E-19
 -1      1748 1.64452E-04-5.16153E-05-4.89212E-05-2.15461E-05-1.11639E-18 1.71863E-18
 -1      1749 1.42646E-04-4.14161E-05-4.59916E-05-2.22007E-05-1.67628E-18-1.37643E-19
 -1      1750 1.11846E-05-5.46808E-05 1.40000E-05 1.16929E-05 2.64592E-18 2.91803E-19
 -1      1751 7.56078E-05-3.02168E-05-2.03847E-05 4.78556E-05 4.02002E-18 3.10819E-18
 -1      1752 9.52369E-05-2.85715E-05-2.85709E-05-6.26207E-10-1.64495E-18-5.65696E-19
 -1      1753 9.52367E-05-2.85720E-05-2.85706E-05-1.74966E-09-7.51611E-19-1.51649E-18
 -1      1754 2.12593E-05-5.08691E-05 8.54758E-06 2.27925E-05 3.02941E-18 1.21697E-18
 -1      1755 4.21001E-05-4.02092E-05-3.61219E-06 3.50105E-05 3.15435E-18 1.88825E-18
 -1      1756 1.18826E-04-2.60602E-05-3.85201E-05 5.61277E-05 3.70365E-18 2.57329E-18
 -1      1757 1.64789E-04-2.78846E-05-5.54567E-05 5.34567E-05 3.42434E-18 8.85149E-19
 -1      1758 2.03274E-04-3.21642E-05-6.87421E-05 3.75884E-05 3.43218E-18-1.53186E-18
 -1      1759 2.25923E-04-3.56382E-05-7.61778E-05 1.45324E-05 2.95784E-18-3.37818E-18
 -1      1760 2.24194E-04-3.44201E-05-7.60501E-05-1.11788E-05 2.66011E-18-5.16690E-18
 -1      1761 2.04968E-04-3.22825E-05-6.92628E-05-3.57030E-05 2.22473E-18-6.26466E-18
 -1      1762 1.68403E-04-3.11420E-05-5.58384E-05-4.78217E-05 2.99468E-18-6.05629E-18
 -1      1763 1.22410E-04-3.01412E-05-3.83806E-05-5.28428E-05 3.55796E-18-4.80014E-18
 -1      1764 7.91957E-05-3.61603E-05-1.96242E-05-4.75217E-05 2.58938E-18-4.87425E-18
 -1      1765 4.45408E-05-4.30407E-05-2.93738E-06-3.78082E-05 1.45520E-18-3.48231E-18
 -1      1766 1.97587E-05-5.16736E-05 9.47797E-06-2.14820E-05-1.30867E-19-3.37119E-18
 -1      1767 1.13464E-05-5.71222E-05 1.47046E-05-1.02958E-05-2.15030E-18-3.15604E-18
 -1      1768 1.65591E-05-5.83155E-05 1.26995E-05 2.87126E-06-3.98317E-18-3.49316E-18
 -1      1769 3.46293E-05-5.32782E-05 3.20019E-06 1.46613E-05-5.50910E-18-3.84569E-18
 -1      1770 7.41903E-05-5.12872E-05-1.31869E-05 2.80357E-05-5.11693E-18-4.94201E-18
 -1      1771 1.29505E-04-5.33964E-05-3.38073E-05 3.35623E-05-5.21942E-18-4.91449E-18
 -1      1772 1.90119E-04-5.55938E-05-5.45791E-05 2.84104E-05-5.17029E-18-4.29446E-18
 -1      1773 2.39882E-04-5.58991E-05-7.14140E-05 1.53359E-05-4.09032E-18-1.68644E-18
 -1      1774 2.62540E-04-5.12449E-05-8.04939E-05 4.27203E-06-4.25295E-18 1.38617E-18
 -1      1775 2.62834E-04-5.21978E-05-8.04114E-05-4.37857E-06-3.27124E-18 3.19458E-18
 -1      1776 2.37782E-04-5.61811E-05-7.06745E-05-1.55925E-05-4.14919E-18 4.46556E-18
 -1      1777 1.87213E-04-5.86524E-05-5.25756E-05-2.33734E-05-3.83791E-18 5.18977E-18
 -1      1778 1.27500E-04-5.62968E-05-3.14030E-05-3.09930E-05-1.97274E-18 5.81234E-18
 -1      1779 6.86965E-05-5.13888E-05-1.10310E-05-2.58789E-05-1.21380E-18 5.38205E-18
 -1      1780 3.22678E-05-5.39195E-05 4.34394E-06-1.25993E-05 6.56451E-19 4.30462E-18
 -1      1781 1.45152E-05-5.54287E-05 1.26115E-05-9.42559E-07 2.35708E-18 1.50560E-18
 -1      1782 1.62925E-04-4.59692E-05-5.12358E-05-3.36589E-05-3.34705E-18-9.73770E-19
 -1      1783 1.06781E-04-2.33245E-05-3.58647E-05-1.67024E-05-7.28382E-19 9.78747E-19
 -1      1784 1.71986E-04-5.86558E-05-4.83446E-05-2.78596E-05-1.10178E-18 1.61344E-18
 -1      1785 8.93588E-05-1.04027E-05-3.39659E-05-1.23638E-05-4.87580E-19-1.90408E-18
 -1      1786 9.08893E-05-1.15746E-05-3.41340E-05-1.41200E-05-6.76396E-19-1.70058E-18
 -1      1787 9.31214E-05-1.39972E-05-3.40711E-05-1.50589E-05-7.42317E-19-1.36587E-18
 -1      1788 9.49263E-05-1.59942E-05-3.43081E-05-1.68251E-05-9.26945E-19-1.02660E-18
 -1      1789 9.39866E-05-1.63492E-05-3.32788E-05-1.26757E-05-7.27760E-19-1.45499E-18
 -1      1790 8.56002E-05-7.04831E-06-3.37372E-05-7.29737E-06 9.10527E-20-1.79341E-18
 -1      1791 8.61685E-05-7.40821E-06-3.38112E-05-8.55690E-06-5.83328E-20-1.91105E-18
 -1      1792 8.47547E-05-6.33509E-06-3.36656E-05-5.08814E-06 3.17297E-19-1.77741E-18
 -1      1793 8.50798E-05-6.53273E-06-3.37116E-05-6.24107E-06 1.94541E-19-1.80362E-18
 -1      1794 8.67593E-05-8.99684E-06-3.33525E-05-6.44348E-06 1.03950E-19-1.69315E-18
 -1      1795 8.43706E-05-6.01833E-06-3.36273E-05-2.98443E-06 6.07255E-19-1.54605E-18
 -1      1796 8.44989E-05-6.09175E-06-3.36495E-05-4.08077E-06 4.69463E-19-1.68390E-18
 -1      1797 8.59420E-05-8.25357E-06-3.33215E-05-4.43042E-06 4.34702E-19-1.67541E-18
 -1      1798 8.43443E-05-6.00041E-06-3.36186E-05-8.81527E-07 8.52600E-19-1.27011E-18
 -1      1799 8.43198E-05-5.97972E-06-3.36214E-05-1.97688E-06 7.71578E-19-1.41788E-18
 -1      1800 8.56261E-05-7.98149E-06-3.33045E-05-2.45224E-06 7.29422E-19-1.38731E-18
 -1      1801 8.45951E-05-6.21292E-06-3.36332E-05 1.30105E-06 1.03706E-18-1.00019E-18
 -1      1802 8.44518E-05-6.11852E-06-3.36209E-05 1.65240E-07 9.52433E-19-1.15911E-18
 -1      1803 8.56993E-05-8.06653E-06-3.33017E-05-4.24900E-07 9.64684E-19-1.14835E-18
 -1      1804 8.50730E-05-6.62005E-06-3.36652E-05 3.61903E-06 1.16424E-18-7.95390E-19
 -1      1805 8.48291E-05-6.45983E-06-3.36404E-05 2.41154E-06 1.10922E-18-9.55599E-19
 -1      1806 8.60754E-05-8.43270E-06-3.33081E-05 1.71068E-06 1.11299E-18-8.79035E-19
 -1      1807 8.57655E-05-7.21863E-06-3.37107E-05 6.06850E-06 1.31192E-18-3.78518E-19
 -1      1808 8.54198E-05-6.98910E-06-3.36738E-05 4.78493E-06 1.22006E-18-6.19684E-19
 -1      1809 8.67049E-05-9.04508E-06-3.33168E-05 3.96508E-06 1.25558E-18-6.58112E-19
 -1      1810 8.67813E-05-8.11251E-06-3.37752E-05 8.76934E-06 1.53318E-18 1.87141E-19
 -1      1811 8.62694E-05-7.76275E-06-3.37187E-05 7.33098E-06 1.39379E-18-1.63544E-19
 -1      1812 8.76126E-05-9.94541E-06-3.33208E-05 6.36438E-06 1.42109E-18-1.91125E-19
 -1      1813 8.83456E-05-9.51951E-06-3.38718E-05 1.17119E-05 1.59972E-18 8.84885E-19
 -1      1814 8.75380E-05-8.94179E-06-3.37796E-05 1.00909E-05 1.54343E-18 4.85522E-19
 -1      1815 8.89384E-05-1.12888E-05-3.33118E-05 8.90523E-06 1.58408E-18 4.03796E-19
 -1      1816 9.10196E-05-1.20149E-05-3.40158E-05 1.48551E-05 1.53594E-18 1.84201E-18
 -1      1817 8.95967E-05-1.09012E-05-3.38611E-05 1.29974E-05 1.51702E-18 1.27142E-18
 -1      1818 9.09816E-05-1.34081E-05-3.32693E-05 1.14357E-05 1.60701E-18 1.08141E-18
 -1      1819 9.63223E-05-1.72603E-05-3.41028E-05 1.72822E-05 1.18816E-18 3.41968E-18
 -1      1820 9.32565E-05-1.44971E-05-3.39295E-05 1.57461E-05 1.32900E-18 2.53268E-18
 -1      1821 9.43089E-05-1.70598E-05-3.31097E-05 1.34108E-05 1.44400E-18 2.12748E-18
 -1      1822 1.02358E-04-2.52617E-05-3.34773E-05 1.41093E-05 7.90599E-19 4.98437E-18
 -1      1823 9.85130E-05-1.97521E-05-3.37434E-05 1.66134E-05 1.00893E-18 3.93087E-18
 -1      1824 9.78884E-05-2.20755E-05-3.25397E-05 1.29051E-05 1.13959E-18 3.28784E-18
 -1      1825 9.92987E-05-2.63337E-05-3.14837E-05 9.14351E-06 8.13152E-19 4.67487E-18
 -1      1826 1.00926E-04-1.97034E-05-3.44872E-05-1.83817E-05-8.94917E-19-3.20602E-19
 -1      1827 9.60266E-05-2.75341E-05-2.93722E-05 3.88772E-06 5.29581E-19 4.21358E-18
 -1      1828 9.82953E-05-2.75936E-05-3.03518E-05 6.15012E-06 6.09308E-19 4.37420E-18
 -1      1829 9.81277E-05-2.58224E-05-3.09694E-05 8.41869E-06 7.94676E-19 3.47904E-18
 -1      1830 1.76771E-04-6.98591E-05-4.58984E-05-1.27675E-05-1.11438E-18 1.07954E-18
 -1      1831 1.75632E-04-6.10887E-05-4.94260E-05-2.53443E-05-2.64560E-18 3.91329E-19
 -1      1832 9.82328E-05-2.71219E-05-3.03636E-05-4.91979E-06-7.34775E-19-6.03530E-19
 -1      1833 9.67116E-05-2.72482E-05-2.97272E-05-2.88680E-06-6.64391E-19-7.92016E-19
 -1      1834 9.60847E-05-2.74652E-05-2.93075E-05-1.11512E-06-6.00123E-19-7.11759E-19
 -1      1835 9.57212E-05-2.75988E-05-2.91320E-05 2.85462E-08-4.95680E-19-8.76950E-19
 -1      1836 9.68056E-05-2.65015E-05-3.01570E-05-3.00070E-06-6.92734E-19-9.11583E-19
 -1      1837 9.54495E-05-2.76338E-05-2.89991E-05 1.23350E-06-3.85287E-19-8.48059E-19
 -1      1838 9.57443E-05-2.77739E-05-2.90669E-05 2.06520E-06-2.91366E-19-8.89489E-19
 -1      1839 9.60216E-05-2.70956E-05-2.95657E-05 3.83265E-07-5.28780E-19-8.45511E-19
 -1      1840 9.57800E-05-2.77685E-05-2.91117E-05 3.17239E-06-2.13323E-19-8.56646E-19
 -1      1841 9.66575E-05-2.79598E-05-2.93718E-05 4.05524E-06-6.92317E-20-8.44902E-19
 -1      1842 9.58396E-05-2.72218E-05-2.94267E-05 2.97483E-06-2.73476E-19-7.40500E-19
 -1      1843 9.69478E-05-2.79092E-05-2.95694E-05 5.24602E-06-7.98593E-20-9.03362E-19
 -1      1844 9.84172E-05-2.81727E-05-3.00192E-05 6.33902E-06-6.28128E-20-8.56492E-19
 -1      1845 9.61773E-05-2.71116E-05-2.96120E-05 5.52046E-06-1.55378E-19-5.80505E-19
 -1      1846 9.88846E-05-2.80589E-05-3.03507E-05 7.83109E-06-6.22702E-21-7.88909E-19
 -1      1847 1.01049E-04-2.84275E-05-3.10176E-05 9.31298E-06-5.01338E-20-7.01287E-19
 -1      1848 9.69114E-05-2.67693E-05-3.00637E-05 8.45309E-06-1.02405E-19-5.92405E-19
 -1      1849 1.01614E-04-2.82384E-05-3.14626E-05 1.12932E-05-1.16613E-19-7.44967E-19
 -1      1850 1.04648E-04-2.88114E-05-3.23782E-05 1.32941E-05 2.16735E-19-6.34388E-19
 -1      1851 9.79035E-05-2.61888E-05-3.07251E-05 1.21954E-05-2.21751E-20-4.30780E-19
 -1      1852 1.05270E-04-2.86331E-05-3.28816E-05 1.58658E-05 1.79690E-19-4.08774E-19
 -1      1853 1.09361E-04-2.96542E-05-3.40301E-05 1.83112E-05 3.19570E-19-3.77883E-19
 -1      1854 9.90467E-05-2.55073E-05-3.14909E-05 1.70420E-05 2.37361E-19-6.09271E-19
 -1      1855 1.10121E-04-2.98446E-05-3.44389E-05 2.11911E-05 4.99741E-19-3.50751E-19
 -1      1856 1.15270E-04-3.18204E-05-3.56382E-05 2.33017E-05 6.72647E-19-2.61892E-19
 -1      1857 1.00423E-04-2.53650E-05-3.21123E-05 2.27615E-05 5.47008E-19-5.81443E-19
 -1      1858 1.17126E-04-3.34162E-05-3.57809E-05 2.59981E-05 6.66165E-19 3.06322E-20
 -1      1859 1.23975E-04-3.77178E-05-3.68348E-05 2.62557E-05 7.78582E-19 3.24857E-19
 -1      1860 1.02896E-04-2.75651E-05-3.22153E-05 2.86808E-05 8.85877E-19-1.16070E-19
 -1      1861 1.29231E-04-4.27684E-05-3.66179E-05 2.62831E-05 1.04619E-18 9.90142E-19
 -1      1862 1.37503E-04-5.00891E-05-3.72928E-05 2.12476E-05 1.36881E-18 1.53677E-18
 -1      1863 1.09624E-04-3.62833E-05-3.13927E-05 3.24136E-05 1.53811E-18 5.61424E-19
 -1      1864 1.48697E-04-5.93475E-05-3.77781E-05 1.54778E-05 1.55113E-18 1.23868E-18
 -1      1865 1.55720E-04-6.49259E-05-3.89143E-05 4.15932E-06 6.09864E-19 1.39170E-18
 -1      1866 1.24723E-04-5.31278E-05-3.07428E-05 2.84577E-05 1.27267E-18 1.20649E-18
 -1      1867 1.21322E-05-3.40326E-05 8.32739E-06 1.82738E-05 1.31798E-18 6.60262E-19
 -1      1868 9.90580E-06-3.38113E-05 9.16498E-06 8.46108E-06 7.83929E-19 6.78473E-19
 -1      1869 1.72892E-04-4.63167E-05-5.50996E-05 3.11369E-05-9.38513E-19-3.52217E-18
 -1      1870 1.80363E-04-5.74755E-05-5.31036E-05 3.20506E-05-1.37219E-19-4.04141E-18
 -1      1871 1.72409E-04-6.09035E-05-4.82002E-05 2.60288E-05 2.30181E-19-4.94815E-18
 -1      1872 1.75503E-04-6.59978E-05-4.67905E-05 1.65544E-05 1.20071E-18-4.58097E-18
 -1      1873 1.64086E-04-6.13330E-05-4.39348E-05 3.12807E-06 2.46910E-18-4.18786E-18
 -1      1874 1.60528E-04-5.76781E-05-4.34207E-05-7.93288E-06 2.56143E-18-3.46320E-18
 -1      1875 1.64544E-04-6.71100E-05-4.19587E-05 3.08457E-06 1.99190E-18-2.99352E-18
 -1      1876 1.51037E-04-5.12266E-05-4.26524E-05-1.54744E-05 1.47468E-18-2.49999E-18
 -1      1877 1.44192E-04-4.57348E-05-4.17552E-05-2.02228E-05 1.53980E-18-1.86024E-18
 -1      1878 1.43740E-04-5.40751E-05-3.83740E-05-1.78945E-05 2.56863E-18-2.15136E-18
 -1      1879 1.37986E-04-4.19897E-05-4.11053E-05-2.11700E-05 1.01475E-18-1.87163E-18
 -1      1880 1.30403E-04-3.78472E-05-3.95581E-05-2.11564E-05 3.62676E-19-1.24119E-18
 -1      1881 1.28347E-04-4.08443E-05-3.74594E-05-2.58911E-05 1.16186E-18-9.96134E-19
 -1      1882 1.26593E-04-3.64286E-05-3.86315E-05-1.89200E-05-5.91136E-19-1.35689E-18
 -1      1883 1.20150E-04-3.39484E-05-3.69724E-05-1.70358E-05-1.84455E-19-1.43498E-18
 -1      1884 1.18427E-04-3.35560E-05-3.63658E-05-2.41724E-05-1.68672E-19-6.63253E-19
 -1      1885 1.17505E-04-3.34257E-05-3.60005E-05-1.42874E-05 3.16989E-19-1.95635E-18
 -1      1886 1.12624E-04-3.19687E-05-3.46061E-05-1.22451E-05-1.80974E-19-2.05060E-18
 -1      1887 1.11902E-04-3.06961E-05-3.48063E-05-1.88913E-05-3.64979E-19-1.04716E-18
 -1      1888 1.10667E-04-3.17258E-05-3.37792E-05-9.94361E-06 3.91779E-19-2.28868E-18
 -1      1889 1.07207E-04-3.08500E-05-3.27471E-05-8.32005E-06 6.34110E-19-1.95290E-18
 -1      1890 1.07234E-04-2.97087E-05-3.32256E-05-1.35034E-05 2.55592E-19-2.15014E-18
 -1      1891 1.05747E-04-3.06824E-05-3.21164E-05-6.64339E-06 8.31978E-19-2.06894E-18
 -1      1892 1.03396E-04-3.01406E-05-3.14017E-05-5.49578E-06 7.67769E-19-1.26922E-18
 -1      1893 1.03788E-04-2.93531E-05-3.18988E-05-9.20880E-06 5.58076E-19-2.16530E-18
 -1      1894 1.02379E-04-3.00079E-05-3.09697E-05-4.40280E-06 1.14090E-18-1.08582E-18
 -1      1895 1.00863E-04-2.96783E-05-3.05079E-05-3.66079E-06 1.35635E-18-1.41402E-18
 -1      1896 1.01307E-04-2.91831E-05-3.09113E-05-6.18048E-06 1.05418E-18-1.04108E-18
 -1      1897 1.00072E-04-2.95618E-05-3.01844E-05-2.88429E-06 7.61595E-19-6.01503E-19
 -1      1898 9.90117E-05-2.93336E-05-2.98605E-05-2.37287E-06 6.47494E-19 2.56923E-19
 -1      1899 9.95064E-05-2.90508E-05-3.01940E-05-4.11162E-06 1.34413E-18-1.04408E-18
 -1      1900 9.84580E-05-2.92415E-05-2.96396E-05-1.86790E-06 1.01717E-19 1.03013E-18
 -1      1901 9.77610E-05-2.90937E-05-2.94266E-05-1.53775E-06 6.87923E-19 1.06289E-18
 -1      1902 9.81845E-05-2.89414E-05-2.96756E-05-2.68906E-06 7.63971E-19 6.23960E-19
 -1      1903 9.73734E-05-2.90226E-05-2.92764E-05-1.21080E-06-2.45324E-19-6.11741E-20
 -1      1904 9.69157E-05-2.89257E-05-2.91365E-05-9.98483E-07-1.02654E-18-3.37819E-19
 -1      1905 9.72562E-05-2.88488E-05-2.93181E-05-1.75730E-06-2.74502E-19 8.17905E-19
 -1      1906 9.66463E-05-2.88724E-05-2.90347E-05-7.86936E-07-5.66565E-19 3.76438E-19
 -1      1907 9.63454E-05-2.88086E-05-2.89426E-05-6.50147E-07 5.90284E-20 4.57514E-19
 -1      1908 9.66095E-05-2.87733E-05-2.90736E-05-1.15006E-06-9.69413E-19 7.78989E-19
 -1      1909 9.61590E-05-2.87695E-05-2.88738E-05-5.12814E-07 4.04207E-19-2.26519E-20
 -1      1910 9.59614E-05-2.87272E-05-2.88132E-05-4.24382E-07 9.76521E-19-3.19649E-19
 -1      1911 9.61614E-05-2.87140E-05-2.89070E-05-7.54250E-07 1.23876E-19 1.32744E-18
 -1      1912 9.58387E-05-2.87000E-05-2.87687E-05-3.38767E-07 1.52435E-18-3.98830E-19
 -1      1913 9.57130E-05-2.86733E-05-2.87302E-05-2.83103E-07 1.24344E-18-1.01044E-18
 -1      1914 9.58582E-05-2.86705E-05-2.87958E-05-4.99652E-07 1.29002E-18-4.45636E-19
 -1      1915 9.56228E-05-2.86530E-05-2.86981E-05-2.22796E-07-3.32042E-19 2.88452E-19
 -1      1916 9.55351E-05-2.86342E-05-2.86711E-05-1.84123E-07-9.12395E-19 2.05614E-19
 -1      1917 9.56482E-05-2.86368E-05-2.87199E-05-3.32088E-07 9.50382E-19-3.19073E-20
 -1      1918 9.54738E-05-2.86197E-05-2.86495E-05-1.44412E-07-1.39736E-18 6.41404E-19
 -1      1919 9.54165E-05-2.86077E-05-2.86318E-05-1.18800E-07-1.02790E-19 1.08687E-18
 -1      1920 9.54998E-05-2.86122E-05-2.86667E-05-2.17096E-07-6.54838E-19 1.64629E-18
 -1      1921 9.53750E-05-2.85976E-05-2.86174E-05-9.24231E-08 1.39341E-18-2.42070E-19
 -1      1922 9.53380E-05-2.85900E-05-2.86059E-05-7.53936E-08 8.29299E-19 1.80909E-19
 -1      1923 9.53989E-05-2.85948E-05-2.86308E-05-1.40558E-07 3.82577E-19 7.07779E-19
 -1      1924 9.53103E-05-2.85832E-05-2.85963E-05-5.78062E-08-4.50956E-19-3.62597E-19
 -1      1925 9.52868E-05-2.85786E-05-2.85890E-05-4.64482E-08-1.82162E-18-5.70309E-19
 -1      1926 9.53311E-05-2.85829E-05-2.86067E-05-8.93715E-08-2.26311E-19-5.34160E-19
 -1      1927 9.52687E-05-2.85740E-05-2.85828E-05-3.47117E-08-1.23551E-18-4.54693E-20
 -1      1928 9.52545E-05-2.85714E-05-2.85782E-05-2.71673E-08-1.24849E-19 3.21594E-19
 -1      1929 9.52862E-05-2.85750E-05-2.85908E-05-5.50629E-08-1.35752E-18 7.23516E-20
 -1      1930 9.52434E-05-2.85686E-05-2.85745E-05-1.97111E-08-1.16582E-18-1.61837E-18
 -1      1931 9.52355E-05-2.85674E-05-2.85719E-05-1.48903E-08-7.80400E-19-2.16223E-18
 -1      1932 9.52578E-05-2.85702E-05-2.85806E-05-3.24724E-08-1.84878E-18-6.47894E-19
 -1      1933 9.52284E-05-2.85656E-05-2.85695E-05-9.64099E-09 2.64252E-19-3.05190E-18
 -1      1934 9.52242E-05-2.85652E-05-2.85680E-05-6.29535E-09-7.32894E-20-3.04761E-18
 -1      1935 9.52401E-05-2.85672E-05-2.85742E-05-1.74409E-08-1.16228E-18-2.94867E-18
 -1      1936 9.52203E-05-2.85642E-05-2.85667E-05-2.92759E-09 7.66787E-19-2.84409E-18
 -1      1937 9.52187E-05-2.85643E-05-2.85661E-05-7.78588E-10-5.58095E-19-2.56586E-18
 -1      1938 9.52294E-05-2.85658E-05-2.85702E-05-7.18783E-09 2.46762E-19-3.89920E-18
 -1      1939 9.52170E-05-2.85639E-05-2.85654E-05 1.32123E-09-1.14282E-18-1.86983E-18
 -1      1940 9.52171E-05-2.85644E-05-2.85654E-05 2.64763E-09 4.02304E-19-2.01393E-18
 -1      1941 9.52240E-05-2.85653E-05-2.85681E-05-5.91731E-10-8.26118E-19-1.75369E-18
 -1      1942 9.52168E-05-2.85643E-05-2.85652E-05 3.88574E-09 6.28627E-19-2.87085E-18
 -1      1943 9.52180E-05-2.85650E-05-2.85655E-05 4.65220E-09-2.25192E-19-2.52727E-18
 -1      1944 9.52221E-05-2.85655E-05-2.85671E-05 3.50048E-09-6.89977E-19-2.26848E-18
 -1      1945 9.52186E-05-2.85652E-05-2.85657E-05 5.30470E-09 1.21276E-18-2.40913E-18
 -1      1946 9.52204E-05-2.85660E-05-2.85661E-05 5.68241E-09 1.78282E-18-8.22269E-19
 -1      1947 9.52224E-05-2.85662E-05-2.85670E-05 5.87702E-09 5.77480E-19-1.78035E-18
 -1      1948 9.52214E-05-2.85663E-05-2.85664E-05 5.92384E-09 1.96885E-18-1.44766E-18
 -1      1949 9.52234E-05-2.85671E-05-2.85670E-05 6.03381E-09 1.88490E-18-7.17820E-19
 -1      1950 9.52241E-05-2.85670E-05-2.85673E-05 7.05968E-09 2.08037E-18-4.41100E-19
 -1      1951 9.52247E-05-2.85675E-05-2.85674E-05 5.99549E-09-2.80432E-19-1.67580E-18
 -1      1952 9.52269E-05-2.85683E-05-2.85680E-05 5.90585E-09-1.06024E-18-1.17005E-18
 -1      1953 9.52264E-05-2.85680E-05-2.85679E-05 7.42170E-09 3.71587E-19-2.13685E-18
 -1      1954 9.52282E-05-2.85687E-05-2.85684E-05 5.61223E-09-1.35782E-18-1.90289E-18
 -1      1955 9.52303E-05-2.85694E-05-2.85689E-05 5.32733E-09-7.03010E-19-3.01279E-18
 -1      1956 9.52292E-05-2.85691E-05-2.85686E-05 7.15022E-09-1.37351E-18-2.49556E-18
 -1      1957 9.52316E-05-2.85698E-05-2.85693E-05 4.78345E-09-5.82070E-19-3.88868E-18
 -1      1958 9.52333E-05-2.85705E-05-2.85698E-05 4.27103E-09-1.00462E-18-2.78885E-18
 -1      1959 9.52319E-05-2.85701E-05-2.85693E-05 6.29642E-09-1.10722E-18-2.70221E-18
 -1      1960 9.52344E-05-2.85709E-05-2.85701E-05 3.46699E-09 5.00025E-19-2.01654E-18
 -1      1961 9.52356E-05-2.85714E-05-2.85704E-05 2.68996E-09 2.54919E-18-8.74306E-19
 -1      1962 9.52343E-05-2.85712E-05-2.85699E-05 4.84619E-09 1.22569E-18-1.90159E-18
 -1      1963 9.52361E-05-2.85717E-05-2.85704E-05 2.41348E-09 2.68556E-18-1.49671E-19
 -1      1964 9.52366E-05-2.85720E-05-2.85706E-05 1.95505E-09 2.29645E-18 3.73807E-20
 -1      1965 9.52369E-05-2.85728E-05-2.85703E-05 2.77031E-09 2.26015E-18-9.19332E-19
 -1      1966 9.52360E-05-2.85720E-05-2.85702E-05 3.58756E-09 2.98302E-18-4.27842E-19
 -1      1967 1.00650E-04-2.26478E-05-3.31526E-05-1.38260E-05-8.46715E-19-5.58565E-19
 -1      1968 9.34827E-05-2.76624E-05-2.81809E-05 7.89839E-07 3.25750E-19 3.08925E-18
 -1      1969 9.39517E-05-2.75985E-05-2.83788E-05 1.29735E-06 3.64876E-19 3.23046E-18
 -1      1970 9.28873E-05-2.77645E-05-2.78980E-05 1.56954E-07 2.78399E-19 2.91537E-18
 -1      1971 9.30796E-05-2.76997E-05-2.79804E-05 3.31655E-07 3.41841E-19 3.05089E-18
 -1      1972 9.43932E-05-2.78042E-05-2.85528E-05 1.03988E-06 4.58152E-19 2.04083E-18
 -1      1973 9.25714E-05-2.78600E-05-2.77341E-05 5.96073E-08 2.72596E-19 2.59871E-18
 -1      1974 9.26634E-05-2.77999E-05-2.77804E-05 3.25267E-08 2.71697E-19 2.86074E-18
 -1      1975 9.38455E-05-2.80586E-05-2.82050E-05 3.34493E-07 3.56144E-19 1.94582E-18
 -1      1976 9.22910E-05-2.79221E-05-2.75960E-05 3.53177E-07 2.52996E-19 2.51953E-18
 -1      1977 9.24235E-05-2.78943E-05-2.76497E-05 1.78208E-07 2.78025E-19 2.51510E-18
 -1      1978 9.35404E-05-2.82599E-05-2.79817E-05 2.90342E-07 3.67493E-19 1.96166E-18
 -1      1979 9.18498E-05-2.78990E-05-2.74224E-05 9.41164E-07 1.66844E-19 2.42774E-18
 -1      1980 9.21268E-05-2.79343E-05-2.75127E-05 6.54589E-07 5.72525E-20 2.47225E-18
 -1      1981 9.32792E-05-2.84023E-05-2.78027E-05 7.31084E-07 2.57402E-19 1.65893E-18
 -1      1982 9.11024E-05-2.77355E-05-2.71744E-05 1.72680E-06 1.85098E-19 2.53638E-18
 -1      1983 9.15944E-05-2.78626E-05-2.73195E-05 1.37059E-06 1.79194E-19 2.66092E-18
 -1      1984 9.28982E-05-2.84423E-05-2.76169E-05 1.52907E-06 1.99766E-19 1.86668E-18
 -1      1985 8.99624E-05-2.73826E-05-2.68350E-05 2.57903E-06 2.13333E-19 2.62800E-18
 -1      1986 9.07005E-05-2.76225E-05-2.70413E-05 2.21335E-06 2.96324E-19 2.67957E-18
 -1      1987 9.22644E-05-2.83175E-05-2.73949E-05 2.54588E-06 1.43211E-19 2.14088E-18
 -1      1988 8.84241E-05-2.68157E-05-2.64122E-05 3.31822E-06 3.40785E-19 2.54182E-18
 -1      1989 8.93872E-05-2.71718E-05-2.66715E-05 3.02444E-06 2.55304E-19 2.48672E-18
 -1      1990 9.12897E-05-2.79658E-05-2.71265E-05 3.59435E-06 3.44421E-19 2.14215E-18
 -1      1991 8.65867E-05-2.60566E-05-2.59398E-05 3.73011E-06 3.69282E-19 2.21738E-18
 -1      1992 8.76913E-05-2.65042E-05-2.62283E-05 3.60066E-06 3.67723E-19 2.29345E-18
 -1      1993 8.99575E-05-2.73530E-05-2.68204E-05 4.42847E-06 3.47393E-19 2.09795E-18
 -1      1994 8.46660E-05-2.51939E-05-2.54747E-05 3.61428E-06-1.49761E-19 2.19647E-18
 -1      1995 8.57674E-05-2.56726E-05-2.57548E-05 3.72789E-06 7.89445E-20 2.11718E-18
 -1      1996 8.83532E-05-2.65069E-05-2.65020E-05 4.77225E-06 2.77412E-19 1.43013E-18
 -1      1997 8.29727E-05-2.43822E-05-2.50870E-05 2.85905E-06-5.69788E-19 2.15709E-18
 -1      1998 8.38868E-05-2.48022E-05-2.53139E-05 3.24743E-06-4.00205E-19 2.22019E-18
 -1      1999 8.66816E-05-2.55436E-05-2.62088E-05 4.39207E-06-2.90084E-19 1.18289E-18
 -1      2000 8.18463E-05-2.38092E-05-2.48448E-05 1.51204E-06 2.05114E-19 2.37885E-18
 -1      2001 8.23923E-05-2.40735E-05-2.49764E-05 2.13379E-06-6.75906E-20 2.46278E-18
 -1      2002 8.52445E-05-2.46617E-05-2.59825E-05 3.19557E-06-3.87407E-19 1.52042E-18
 -1      2003 8.15542E-05-2.36316E-05-2.47966E-05-1.99398E-07 2.84034E-19 2.08596E-18
 -1      2004 8.16072E-05-2.36699E-05-2.48047E-05 5.41411E-07 3.34886E-19 2.07413E-18
 -1      2005 8.43650E-05-2.40892E-05-2.58596E-05 1.30967E-06 3.01749E-19 1.33007E-18
 -1      2006 8.21969E-05-2.39096E-05-2.49584E-05-1.92669E-06 1.04069E-19 1.82948E-18
 -1      2007 8.17284E-05-2.37064E-05-2.48368E-05-1.22019E-06 1.26327E-19 2.07900E-18
 -1      2008 8.42758E-05-2.39953E-05-2.58638E-05-9.20193E-07 2.41619E-19 1.28000E-18
 -1      2009 8.36694E-05-2.45799E-05-2.53099E-05-3.31932E-06 9.70706E-19 1.19906E-18
 -1      2010 8.27560E-05-2.41807E-05-2.50759E-05-2.78605E-06 5.70060E-19 1.36707E-18
 -1      2011 8.50266E-05-2.44153E-05-2.60002E-05-3.03278E-06 5.27672E-19 3.44361E-19
 -1      2012 8.57007E-05-2.54845E-05-2.58002E-05-4.14447E-06 3.76791E-19 8.87274E-19
 -1      2013 8.44970E-05-2.49758E-05-2.54893E-05-3.86346E-06 8.48717E-19 1.23856E-18
 -1      2014 8.64637E-05-2.52347E-05-2.62547E-05-4.61309E-06 1.01580E-18 2.69310E-19
 -1      2015 8.79507E-05-2.64369E-05-2.63619E-05-4.34639E-06 2.26938E-19 9.82955E-19
 -1      2016 8.66404E-05-2.59130E-05-2.60180E-05-4.32128E-06 1.71394E-19 9.17115E-19
 -1      2017 8.82961E-05-2.62429E-05-2.65968E-05-5.42880E-06 4.89342E-19 6.55916E-19
 -1      2018 9.01110E-05-2.72859E-05-2.69275E-05-4.02664E-06-1.67393E-19 1.37228E-18
 -1      2019 8.88584E-05-2.68202E-05-2.65918E-05-4.20174E-06-2.47178E-20 1.34555E-18
 -1      2020 9.02042E-05-2.72228E-05-2.69860E-05-5.47500E-06 3.85683E-20 1.22191E-18
 -1      2021 9.19698E-05-2.79479E-05-2.74422E-05-3.37295E-06 1.25138E-19 1.12451E-18
 -1      2022 9.08893E-05-2.75804E-05-2.71457E-05-3.66565E-06 1.22658E-19 1.45510E-18
 -1      2023 9.19340E-05-2.80213E-05-2.73804E-05-4.92317E-06 2.91705E-20 1.80241E-18
 -1      2024 9.34269E-05-2.84043E-05-2.78717E-05-2.58229E-06 5.91583E-19 9.92141E-19
 -1      2025 9.25745E-05-2.81440E-05-2.76319E-05-2.91321E-06 3.63255E-19 1.00405E-18
 -1      2026 9.33401E-05-2.85755E-05-2.77443E-05-4.02279E-06 5.03090E-19 9.06080E-19
 -1      2027 9.44737E-05-2.86798E-05-2.82020E-05-1.80956E-06-5.41400E-19 1.14870E-18
 -1      2028 9.38563E-05-2.85150E-05-2.80236E-05-2.12032E-06 2.94617E-19 1.31096E-18
 -1      2029 9.43791E-05-2.88960E-05-2.80533E-05-3.01141E-06 5.97721E-20 8.98378E-19
 -1      2030 9.51594E-05-2.88182E-05-2.84360E-05-1.14890E-06-2.02858E-20 9.53549E-19
 -1      2031 9.47511E-05-2.87278E-05-2.83144E-05-1.40674E-06-6.08075E-19 9.03800E-19
 -1      2032 9.50783E-05-2.90343E-05-2.82957E-05-2.06285E-06-1.40528E-19 9.42866E-19
 -1      2033 9.55593E-05-2.88645E-05-2.85867E-05-6.39065E-07 3.67593E-19 8.10201E-19
 -1      2034 9.53183E-05-2.88260E-05-2.85121E-05-8.32871E-07 1.97852E-19 1.00474E-18
 -1      2035 9.55003E-05-2.90522E-05-2.84712E-05-1.27448E-06 1.76676E-19 1.07792E-18
 -1      2036 9.57522E-05-2.88562E-05-2.86722E-05-2.79774E-07 5.96358E-19 7.56144E-19
 -1      2037 9.56333E-05-2.88502E-05-2.86330E-05-4.12765E-07 5.54309E-19 1.11711E-18
 -1      2038 9.57171E-05-2.90035E-05-2.85870E-05-6.79492E-07 2.78192E-19 8.97730E-19
 -1      2039 9.58075E-05-2.88201E-05-2.87105E-05-4.91693E-08-2.00713E-19 8.47848E-19
 -1      2040 9.57702E-05-2.88322E-05-2.86958E-05-1.31878E-07 5.87360E-19 1.14675E-18
 -1      2041 9.57941E-05-2.89267E-05-2.86546E-05-2.68564E-07 5.13938E-19 9.32227E-19
 -1      2042 9.57798E-05-2.87737E-05-2.87179E-05 8.26239E-08-2.93560E-19 1.18997E-18
 -1      2043 9.57919E-05-2.87940E-05-2.87185E-05 3.74828E-08-3.88837E-19 9.22692E-19
 -1      2044 9.57843E-05-2.88456E-05-2.86864E-05-1.05568E-08-2.51398E-19 1.45127E-18
 -1      2045 9.57089E-05-2.87273E-05-2.87069E-05 1.45000E-07-2.90314E-19 1.75730E-18
 -1      2046 9.57468E-05-2.87495E-05-2.87160E-05 1.25566E-07-3.59413E-19 1.20195E-18
 -1      2047 9.57266E-05-2.87725E-05-2.86939E-05 1.32396E-07-1.73995E-19 1.44147E-18
 -1      2048 9.56215E-05-2.86859E-05-2.86869E-05 1.62669E-07-9.79470E-21 5.58667E-19
 -1      2049 9.56693E-05-2.87067E-05-2.86996E-05 1.59305E-07 2.20374E-20 1.07574E-18
 -1      2050 9.56477E-05-2.87124E-05-2.86864E-05 1.95887E-07 1.75391E-19 8.15555E-19
 -1      2051 9.55339E-05-2.86516E-05-2.86638E-05 1.54345E-07 3.71959E-19 5.05925E-19
 -1      2052 9.55819E-05-2.86694E-05-2.86771E-05 1.59949E-07-1.66341E-19 6.64982E-19
 -1      2053 9.55645E-05-2.86659E-05-2.86710E-05 2.09082E-07-1.16990E-19 6.36531E-19
 -1      2054 9.54551E-05-2.86247E-05-2.86414E-05 1.33068E-07-8.42089E-19 1.21327E-18
 -1      2055 9.54981E-05-2.86389E-05-2.86537E-05 1.42816E-07 1.86571E-19 9.56719E-19
 -1      2056 9.54868E-05-2.86315E-05-2.86526E-05 1.93697E-07-1.71504E-19 1.92951E-18
 -1      2057 9.53891E-05-2.86045E-05-2.86217E-05 1.07224E-07-2.59813E-20 1.22835E-18
 -1      2058 9.54248E-05-2.86153E-05-2.86321E-05 1.18100E-07-5.56270E-19 6.21672E-19
 -1      2059 9.54195E-05-2.86071E-05-2.86343E-05 1.64654E-07-3.23376E-19 1.79821E-18
 -1      2060 9.53367E-05-2.85899E-05-2.86055E-05 8.17400E-08 1.46828E-18 1.22651E-18
 -1      2061 9.53646E-05-2.85977E-05-2.86138E-05 9.20377E-08 7.52779E-19 1.68019E-18
 -1      2062 9.53644E-05-2.85904E-05-2.86179E-05 1.31425E-07 4.78238E-19 1.32739E-18
 -1      2063 9.52970E-05-2.85798E-05-2.85929E-05 5.91568E-08-9.58948E-19 1.82165E-18
 -1      2064 9.53178E-05-2.85851E-05-2.85991E-05 6.80497E-08 6.10657E-19 1.83221E-18
 -1      2065 9.53212E-05-2.85794E-05-2.86040E-05 9.94799E-08 6.16506E-19 2.48727E-18
 -1      2066 9.52684E-05-2.85731E-05-2.85835E-05 4.04851E-08-9.78154E-19 1.74372E-18
 -1      2067 9.52831E-05-2.85766E-05-2.85880E-05 4.76972E-08-8.29137E-19 1.69013E-18
 -1      2068 9.52887E-05-2.85725E-05-2.85930E-05 7.15580E-08-8.34403E-19 2.38711E-18
 -1      2069 9.52488E-05-2.85690E-05-2.85769E-05 2.58316E-08 1.27050E-18 2.79637E-19
 -1      2070 9.52585E-05-2.85711E-05-2.85799E-05 3.14009E-08-5.04491E-19 1.12689E-18
 -1      2071 9.52652E-05-2.85684E-05-2.85846E-05 4.86677E-08-2.44435E-19 6.33265E-19
 -1      2072 9.52362E-05-2.85668E-05-2.85724E-05 1.48251E-08 1.43567E-18 1.79311E-19
 -1      2073 9.52421E-05-2.85678E-05-2.85743E-05 1.89465E-08 1.28203E-18-8.88948E-21
 -1      2074 9.52490E-05-2.85663E-05-2.85785E-05 3.08053E-08 1.44206E-18-4.91165E-19
 -1      2075 9.52288E-05-2.85658E-05-2.85697E-05 6.89030E-09 4.64803E-19-1.82224E-19
 -1      2076 9.52320E-05-2.85662E-05-2.85708E-05 9.81743E-09 1.82134E-18 9.14124E-19
 -1      2077 9.52385E-05-2.85655E-05-2.85743E-05 1.74443E-08 1.00146E-18 2.69455E-19
 -1      2078 9.52253E-05-2.85657E-05-2.85683E-05 1.41146E-09 2.09694E-20-5.34352E-19
 -1      2079 9.52264E-05-2.85656E-05-2.85688E-05 3.39909E-09 1.80617E-20-2.86578E-19
 -1      2080 9.52323E-05-2.85655E-05-2.85716E-05 7.84633E-09 8.80466E-19-1.84416E-19
 -1      2081 9.52244E-05-2.85661E-05-2.85677E-05-2.17719E-09 9.27496E-20-2.24949E-18
 -1      2082 9.52242E-05-2.85658E-05-2.85678E-05-9.03457E-10-9.73495E-20-1.35510E-18
 -1      2083 9.52291E-05-2.85660E-05-2.85700E-05 1.24583E-09-2.32882E-20-9.63082E-19
 -1      2084 9.52252E-05-2.85669E-05-2.85678E-05-4.34667E-09 6.80418E-19-1.73180E-18
 -1      2085 9.52242E-05-2.85664E-05-2.85676E-05-3.60480E-09 1.01021E-19-1.51678E-18
 -1      2086 9.52281E-05-2.85668E-05-2.85692E-05-3.04825E-09-3.18528E-19-2.39532E-18
 -1      2087 9.52271E-05-2.85679E-05-2.85682E-05-5.45456E-09-9.25838E-20 9.64255E-20
 -1      2088 9.52257E-05-2.85673E-05-2.85678E-05-5.11178E-09 9.50952E-19-7.75533E-20
 -1      2089 9.52285E-05-2.85677E-05-2.85690E-05-5.60350E-09-3.62174E-19-2.82695E-19
 -1      2090 9.52296E-05-2.85689E-05-2.85688E-05-5.74184E-09-5.07808E-19-9.57414E-19
 -1      2091 9.52279E-05-2.85683E-05-2.85684E-05-5.71541E-09-5.12916E-19-2.12667E-19
 -1      2092 9.52298E-05-2.85687E-05-2.85691E-05-6.84464E-09-1.81005E-19 5.53590E-19
 -1      2093 9.52321E-05-2.85700E-05-2.85695E-05-5.33698E-09 1.63770E-19-6.16026E-19
 -1      2094 9.52305E-05-2.85694E-05-2.85690E-05-5.59525E-09 3.72473E-19-9.32460E-19
 -1      2095 9.52316E-05-2.85697E-05-2.85694E-05-7.05801E-09 3.22787E-19-7.43456E-19
 -1      2096 9.52344E-05-2.85710E-05-2.85700E-05-4.26367E-09 4.13985E-19-4.12722E-19
 -1      2097 9.52330E-05-2.85704E-05-2.85697E-05-4.82598E-09-1.36901E-19-5.04693E-19
 -1      2098 9.52335E-05-2.85708E-05-2.85697E-05-6.41978E-09-3.02942E-20-7.60022E-20
 -1      2099 9.52361E-05-2.85718E-05-2.85704E-05-2.68832E-09 6.21347E-19-1.37751E-18
 -1      2100 9.52351E-05-2.85713E-05-2.85702E-05-3.48898E-09 1.01197E-18-6.10109E-19
 -1      2101 9.52352E-05-2.85717E-05-2.85701E-05-5.07024E-09 8.34019E-19-1.03342E-18
 -1      2102 9.52365E-05-2.85724E-05-2.85703E-05-3.24756E-09-2.73539E-19-1.00649E-18
 -1      2103 9.52395E-05-2.85783E-05-2.85691E-05-5.02508E-09 1.59720E-19 1.07282E-18
 -1      2104 9.52389E-05-2.85770E-05-2.85694E-05-5.10660E-09-2.78594E-19 2.12163E-18
 -1      2105 9.52385E-05-2.85761E-05-2.85696E-05-5.03514E-09 7.58180E-20 1.26800E-18
 -1      2106 9.52378E-05-2.85748E-05-2.85699E-05-4.81201E-09-1.31270E-19 1.37754E-18
 -1      2107 9.52384E-05-2.85757E-05-2.85697E-05-6.27253E-09-1.46331E-19 1.35776E-18
 -1      2108 9.52370E-05-2.85734E-05-2.85701E-05-3.91583E-09 2.51760E-19 1.52707E-19
 -1      2109 9.52403E-05-2.85803E-05-2.85686E-05-4.43413E-09-7.22426E-19-1.88670E-18
 -1      2110 9.52399E-05-2.85791E-05-2.85689E-05-4.75250E-09-6.90707E-19 6.55399E-19
 -1      2111 9.52394E-05-2.85775E-05-2.85694E-05-6.02223E-09 5.76405E-20-4.70566E-19
 -1      2112 9.52410E-05-2.85819E-05-2.85682E-05-3.42192E-09-4.45364E-19-1.10370E-18
 -1      2113 9.52406E-05-2.85809E-05-2.85684E-05-3.91252E-09-5.22037E-19-1.43093E-18
 -1      2114 9.52403E-05-2.85790E-05-2.85691E-05-5.13782E-09 5.79206E-19-1.25056E-18
 -1      2115 9.52414E-05-2.85830E-05-2.85679E-05-2.13256E-09 1.35159E-18-1.48561E-18
 -1      2116 9.52412E-05-2.85824E-05-2.85680E-05-2.73222E-09 3.08697E-19-8.29471E-19
 -1      2117 9.52409E-05-2.85803E-05-2.85689E-05-3.79388E-09 7.08049E-19-4.99948E-19
 -1      2118 9.52417E-05-2.85836E-05-2.85677E-05-6.69864E-10 1.06532E-18 4.55755E-19
 -1      2119 9.52416E-05-2.85833E-05-2.85678E-05-1.33506E-09 8.71149E-19-9.40627E-19
 -1      2120 9.52413E-05-2.85811E-05-2.85687E-05-2.14529E-09 6.60639E-19-1.31389E-18
 -1      2121 9.52417E-05-2.85835E-05-2.85678E-05 8.77838E-10 1.43882E-18 1.89410E-18
 -1      2122 9.52417E-05-2.85836E-05-2.85677E-05 1.86387E-10 1.32028E-18 8.09813E-19
 -1      2123 9.52415E-05-2.85815E-05-2.85686E-05-3.11597E-10-4.24849E-19 1.03405E-18
 -1      2124 9.52414E-05-2.85828E-05-2.85680E-05 2.41238E-09 1.95824E-18 1.56569E-18
 -1      2125 9.52416E-05-2.85833E-05-2.85678E-05 1.74144E-09 8.12537E-19 2.72234E-18
 -1      2126 9.52415E-05-2.85814E-05-2.85686E-05 1.59698E-09 6.53520E-19 1.48479E-18
 -1      2127 9.52409E-05-2.85815E-05-2.85683E-05 3.78094E-09 2.64580E-18-1.65370E-19
 -1      2128 9.52413E-05-2.85824E-05-2.85681E-05 3.20364E-09 1.87020E-18 1.21241E-19
 -1      2129 9.52412E-05-2.85808E-05-2.85688E-05 3.43518E-09 1.01960E-18 1.18713E-18
 -1      2130 9.52401E-05-2.85797E-05-2.85688E-05 4.85304E-09 3.64557E-18 3.60014E-18
 -1      2131 9.52406E-05-2.85809E-05-2.85685E-05 4.43547E-09 2.55772E-18 2.84062E-18
 -1      2132 9.52406E-05-2.85797E-05-2.85690E-05 5.04457E-09 1.94763E-18 1.42414E-18
 -1      2133 9.52391E-05-2.85775E-05-2.85693E-05 5.37701E-09 3.04056E-18-1.12363E-18
 -1      2134 9.52397E-05-2.85788E-05-2.85690E-05 5.23950E-09 3.04972E-18 1.14289E-18
 -1      2135 9.52398E-05-2.85781E-05-2.85693E-05 6.20711E-09 2.30334E-18 2.33144E-18
 -1      2136 9.52379E-05-2.85751E-05-2.85698E-05 5.07624E-09 2.22928E-18-2.73599E-18
 -1      2137 9.52386E-05-2.85764E-05-2.85695E-05 5.35843E-09 2.32959E-18-8.98668E-19
 -1      2138 9.52386E-05-2.85762E-05-2.85696E-05 6.64430E-09 1.16109E-18-1.67230E-18
 -1      2139 9.43693E-05-2.76119E-05-2.85692E-05 1.89132E-06 5.09649E-19 3.59832E-18
 -1      2140 9.54194E-05-2.75908E-05-2.90111E-05 2.94850E-06 5.26378E-19 3.91299E-18
 -1      2141 9.61215E-05-2.70953E-05-2.95832E-05 4.30566E-06 6.79267E-19 3.10455E-18
 -1      2142 9.51097E-05-2.74801E-05-2.89955E-05 2.37458E-06 6.63703E-19 2.50349E-18
 -1      2143 5.96266E-05-3.76338E-05-9.86496E-06 4.81441E-05 2.10064E-18 1.27513E-18
 -1      2144 4.49177E-05-4.18791E-05-2.73382E-06 4.02305E-05 1.77030E-18 1.42873E-18
 -1      2145 1.39754E-04-4.10653E-05-4.17319E-05 4.37835E-05 2.77996E-18 4.64174E-19
 -1      2146 1.19358E-04-4.26223E-05-3.34854E-05 4.32197E-05 3.06075E-18 7.27178E-19
 -1      2147 2.87873E-05-3.71085E-05 2.59497E-06 3.53534E-05 1.66569E-18 9.90182E-19
 -1      2148 2.00181E-05-3.92927E-05 6.84578E-06 2.77764E-05 1.67882E-18 8.87267E-19
 -1      2149 8.70378E-05-8.29790E-06-3.38397E-05-9.69248E-06-2.03731E-19-1.95614E-18
 -1      2150 8.79682E-05-8.93041E-06-3.39534E-05-1.11876E-05-3.72450E-19-1.91846E-18
 -1      2151 9.05173E-05-1.26541E-05-3.33928E-05-1.07736E-05-4.99366E-19-1.77844E-18
 -1      2152 8.82148E-05-1.03729E-05-3.33874E-05-8.56802E-06-1.14879E-19-1.74118E-18
 -1      2153 1.67908E-04-3.67655E-05-5.54524E-05 3.20367E-05 2.87147E-18-1.26970E-18
 -1      2154 1.49076E-04-3.74001E-05-4.80522E-05 3.59779E-05 2.46232E-18 2.18958E-19
 -1      2155 1.50068E-04-4.92854E-05-4.25633E-05 2.54575E-05 2.11843E-18-1.56616E-18
 -1      2156 1.89423E-04-2.93147E-05-6.74298E-05 1.67446E-05 3.28458E-18-2.14723E-18
 -1      2157 1.76142E-04-2.94869E-05-6.23438E-05 2.29672E-05 3.44404E-18-1.89947E-18
 -1      2158 1.98690E-04-2.54602E-05-7.30204E-05 3.09242E-06 3.08574E-18-2.89346E-18
 -1      2159 1.93675E-04-2.52302E-05-7.11671E-05 1.20905E-05 3.44997E-18-2.22748E-18
 -1      2160 1.89211E-04-2.30140E-05-7.05381E-05-8.70805E-06 2.51357E-18-3.59333E-18
 -1      2161 1.96091E-04-2.40693E-05-7.24721E-05-1.17769E-06 2.78928E-18-3.01009E-18
 -1      2162 1.76933E-04-3.03335E-05-6.23681E-05-2.12173E-05 1.75145E-18-3.89212E-18
 -1      2163 1.86022E-04-2.83241E-05-6.68208E-05-1.26908E-05 1.82684E-18-3.47072E-18
 -1      2164 1.54085E-04-3.85064E-05-4.95945E-05-2.85371E-05 1.87957E-18-3.33265E-18
 -1      2165 1.72594E-04-3.64047E-05-5.73497E-05-2.80082E-05 1.67390E-18-4.14496E-18
 -1      2166 1.64923E-04-3.28782E-05-5.58297E-05-5.94234E-06 1.10633E-18-2.01043E-18
 -1      2167 1.17011E-04-4.17426E-05-3.26370E-05-4.41871E-05 2.02949E-18-3.54780E-18
 -1      2168 1.39622E-04-4.20370E-05-4.14956E-05-4.28438E-05 2.10001E-18-3.30893E-18
 -1      2169 8.46603E-05-4.57680E-05-1.70239E-05-4.78362E-05 5.57771E-19-3.42921E-18
 -1      2170 1.01208E-04-4.16669E-05-2.52855E-05-5.06860E-05 1.57379E-18-3.71212E-18
 -1      2171 1.21618E-04-5.36211E-05-2.90627E-05-4.24711E-05 1.62207E-19-2.54046E-18
 -1      2172 4.24096E-05-4.23933E-05-1.44423E-06-3.93222E-05 1.48231E-20-2.92576E-18
 -1      2173 6.02465E-05-4.02509E-05-9.01708E-06-4.82986E-05 2.00747E-19-3.34424E-18
 -1      2174 1.89193E-05-3.64471E-05 6.48038E-06-2.66735E-05-8.26704E-19-3.26912E-18
 -1      2175 2.82422E-05-3.65960E-05 2.77160E-06-3.47198E-05-3.98105E-20-3.22614E-18
 -1      2176 4.21402E-05-3.43607E-05-3.55107E-06-4.46954E-05-7.53012E-19-3.24244E-18
 -1      2177 1.11352E-05-3.58108E-05 9.37898E-06-3.78863E-06-1.63178E-18-3.04085E-18
 -1      2178 1.06828E-05-3.17900E-05 8.29815E-06-1.34182E-05-7.37766E-19-3.47580E-18
 -1      2179 2.12893E-05-3.72229E-05 5.76181E-06 1.52863E-05-2.43141E-18-3.44234E-18
 -1      2180 1.46576E-05-3.81385E-05 8.71408E-06 5.75449E-06-1.62990E-18-3.26870E-18
 -1      2181 1.45457E-05-2.22848E-05 2.81943E-06 4.42344E-06-4.10229E-19-3.54610E-18
 -1      2182 5.33271E-05-4.63774E-05-4.26370E-06 2.97016E-05-3.56050E-18-2.75651E-18
 -1      2183 3.74422E-05-4.58486E-05 1.73148E-06 2.29559E-05-2.95996E-18-2.74926E-18
 -1      2184 1.00221E-04-5.57811E-05-1.99502E-05 3.44811E-05-3.12555E-18-3.39364E-18
 -1      2185 7.34841E-05-5.38047E-05-1.06353E-05 2.90666E-05-3.11369E-18-3.24594E-18
 -1      2186 7.64727E-05-5.19399E-05-1.13133E-05 3.57140E-05-1.41285E-18-2.04961E-18
 -1      2187 1.46141E-04-6.01016E-05-3.75657E-05 2.83879E-05-4.19535E-18-3.23736E-18
 -1      2188 1.17832E-04-5.90930E-05-2.71706E-05 2.69698E-05-3.99545E-18-3.59481E-18
 -1      2189 1.18593E-04-6.45567E-05-2.39449E-05 2.95402E-05-2.06210E-18-2.53136E-18
 -1      2190 1.94463E-04-6.55737E-05-5.44880E-05 3.82890E-06-3.74579E-18-1.85500E-18
 -1      2191 1.72076E-04-6.64161E-05-4.57554E-05 7.49513E-06-3.63144E-18-2.57244E-18
 -1      2192 2.20580E-04-5.34788E-05-6.90106E-05-8.38127E-06-4.12590E-18-4.60786E-19
 -1      2193 2.04529E-04-5.46899E-05-6.28343E-05-7.16111E-06-4.39017E-18-1.67204E-18
 -1      2194 1.99835E-04-5.80191E-05-6.01906E-05 9.35257E-06-2.93656E-18 7.88588E-19
 -1      2195 2.17148E-04-5.52479E-05-6.69776E-05 1.02631E-05-2.28657E-18 1.24175E-18
 -1      2196 1.69269E-04-6.93065E-05-4.39097E-05-3.23565E-07 8.72444E-20 5.15420E-19
 -1      2197 1.91750E-04-6.73733E-05-5.27778E-05 2.46033E-06-1.71471E-18-1.22820E-19
 -1      2198 7.09705E-05-5.32579E-05-9.84480E-06-2.79898E-05 1.22439E-18 3.73695E-18
 -1      2199 9.68193E-05-5.60418E-05-1.86271E-05-3.33308E-05 5.06526E-19 3.83282E-18
 -1      2200 3.48419E-05-4.49508E-05 2.53321E-06-2.08827E-05 1.04693E-18 4.15427E-18
 -1      2201 5.00570E-05-4.60350E-05-3.11336E-06-2.80126E-05 6.11981E-19 4.43898E-18
 -1      2202 1.37039E-05-3.56026E-05 8.24363E-06-4.72758E-06 7.34801E-19 1.45690E-18
 -1      2203 2.13841E-05-3.81452E-05 5.96144E-06-1.40927E-05 4.46386E-19 2.66815E-18
 -1      2204 1.82731E-04-5.51989E-05-5.52625E-05-3.09848E-05-3.30195E-18-1.79571E-19
 -1      2205 1.73252E-04-4.18282E-05-5.67976E-05-2.83017E-05-4.25973E-18-1.29236E-18
 -1      2206 1.04008E-04-4.03166E-05-2.70040E-05 5.11156E-05 2.92565E-18 2.05998E-18
 -1      2207 8.37455E-05-4.28092E-05-1.84657E-05 4.62605E-05 2.53686E-18 1.97083E-18
 -1      2208 1.26608E-04-5.38966E-05-3.08701E-05 4.10583E-05 2.33845E-18-1.49925E-19
 -1      2209 4.40638E-05-3.70031E-05-3.58715E-06 4.60245E-05 7.68259E-19 1.15535E-18
 -1      2210 9.81990E-05-2.44894E-05-3.16650E-05-9.21840E-06-8.20934E-19-7.63852E-19
 -1      2211 9.72284E-05-2.31128E-05-3.18333E-05-9.31661E-06-8.96823E-19-1.04746E-18
 -1      2212 1.91183E-04-6.28603E-05-5.40328E-05-2.15773E-05-3.80508E-18-2.07100E-19
 -1      2213 8.65984E-05-4.80539E-05-1.66352E-05 5.12202E-05 1.31121E-18 1.28061E-18
 -1      2214 1.39154E-05-2.28417E-05 3.33149E-06-4.79219E-07-5.74130E-20 1.92361E-18
 -1      2215 1.81637E-05-2.63682E-05 2.90319E-06 2.70528E-05 2.58345E-19 8.54233E-19
 -1      2216 1.76930E-04-3.43958E-05-6.13163E-05 1.18796E-05-3.49232E-18-2.16142E-18
 -1      2217 1.80503E-04-4.08930E-05-6.00186E-05 2.35344E-05-2.24506E-18-2.65270E-18
 -1      2218 9.52369E-05-2.85735E-05-2.85700E-05-5.33162E-09 8.85822E-19 8.00240E-19
 -1      2219 9.52371E-05-2.85734E-05-2.85702E-05 3.71331E-09 1.90692E-18-3.27083E-18
 -1      2220 9.52376E-05-2.85745E-05-2.85699E-05 4.39895E-09 2.78962E-18-3.63861E-18
 -1      2221 9.52375E-05-2.85745E-05-2.85698E-05 5.84088E-09 1.37805E-18-1.99049E-18
 -1      2222 9.52367E-05-2.85731E-05-2.85701E-05 4.18882E-09 2.81375E-18-1.60518E-18
 -1      2223 1.65560E-04-3.48581E-05-5.52119E-05 1.17382E-05 2.93105E-18-2.30266E-18
 -1      2224 3.44001E-05-3.42717E-05-9.39968E-07-2.52034E-05 6.29981E-19 3.96496E-18
 -1      2225 7.41021E-05-5.10406E-05-1.07593E-05-3.58566E-05 2.01933E-18 2.81840E-18
 -1      2226 1.49343E-04-6.74321E-05-3.57395E-05-2.17083E-05 4.48927E-19 2.81723E-18
 -1      2227 1.63361E-04-7.22981E-05-3.85594E-05-2.89933E-06 1.58925E-18-7.17013E-19
 -1      2228 1.49616E-04-6.69778E-05-3.51084E-05-1.39868E-05 2.70013E-18-7.86152E-19
 -1      2229 1.20569E-04-6.38866E-05-2.59008E-05-2.44961E-05 9.83405E-19 3.05017E-18
 -1      2230 2.19961E-04-4.44660E-05-7.21462E-05-6.17129E-06-4.97801E-18-4.67139E-19
 -1      2231 1.94737E-04-4.21839E-05-6.37520E-05-2.21550E-05-4.97886E-18-9.00820E-19
 -1      2232 1.71473E-04-3.71486E-05-5.86152E-05-1.93232E-05-4.74508E-18-1.90439E-18
 -1      2233 2.22907E-04-4.23034E-05-7.39835E-05-3.55835E-06-4.85943E-18 7.53648E-19
 -1      2234 1.61307E-04-6.93104E-05-3.92025E-05 8.53239E-06-2.67154E-18-1.25234E-18
 -1      2235 3.55467E-05-3.46755E-05-1.08762E-06 2.61345E-05-9.56724E-19-2.80114E-18
 -1      2236 1.77849E-05-2.39704E-05 2.29610E-06-2.29911E-05-7.19131E-19-3.64394E-18
 -1      2237 7.87190E-05-4.63975E-05-1.40837E-05-4.97297E-05-3.18908E-19-3.13333E-18
 -1      2238 9.68379E-05-5.24786E-05-1.93882E-05-4.95681E-05-1.34594E-18-2.43914E-18
 -1      2239 7.38064E-05-4.38402E-05-1.22273E-05-5.18877E-05-1.24747E-18-2.72808E-18
 -1      2240 1.51605E-04-4.78794E-05-4.39620E-05-2.49355E-05 9.32583E-19-2.39075E-18
 -1      2241 1.70193E-04-1.83322E-05-6.42059E-05-4.01762E-07 1.77792E-18-1.63520E-18
 -1      2242 2.31436E-04-4.46505E-05-7.59286E-05 5.59203E-06-3.23567E-18 1.51068E-18
 -1      2243 2.00561E-04-3.55729E-05-6.84347E-05 1.26977E-06-4.32241E-18-5.05837E-19
 -1      2244 1.74227E-04-1.24880E-05-6.80978E-05 9.77425E-07 3.24244E-18-1.74611E-18
 -1      2245 1.68569E-04-3.19135E-05-5.94650E-05-3.41854E-06-4.52316E-18-2.69568E-18
 -1      2246 1.73765E-04-1.92001E-05-6.50940E-05 2.92021E-06 3.53679E-18-1.94563E-18
 -1      2247 2.27915E-04-4.73777E-05-7.35138E-05 5.59593E-06-2.94259E-18 2.33442E-18
 -1      2248 1.21628E-04-6.46373E-05-2.43453E-05-2.94585E-05 1.80630E-18 2.18212E-18
 -1      2249 1.99352E-04-4.68252E-05-6.35691E-05 2.43268E-05-2.19551E-18-4.57821E-19
 -1      2250 1.70153E-05-1.21258E-05-1.50734E-06 5.68916E-06-2.15914E-19 2.08624E-18
 -1      2251 2.17379E-05-1.46061E-05-2.56095E-06-1.08124E-05-7.70376E-19 2.46698E-18
 -1      2252 8.68913E-05-1.00664E-05-3.29610E-05-3.70780E-06 5.30504E-19-1.48783E-18
 -1      2253 8.71552E-05-1.03166E-05-3.29694E-05-4.65658E-06 3.56790E-19-1.62909E-18
 -1      2254 8.75876E-05-1.07937E-05-3.29570E-05-5.41933E-06 1.96271E-19-1.60535E-18
 -1      2255 8.81416E-05-1.13215E-05-3.29678E-05-6.39286E-06 7.04683E-20-1.56517E-18
 -1      2256 8.85229E-05-1.24425E-05-3.25980E-05-4.65432E-06 2.80004E-19-1.46034E-18
 -1      2257 8.69280E-05-1.00713E-05-3.29662E-05-5.12595E-08 1.01834E-18-9.95793E-19
 -1      2258 8.67872E-05-9.95415E-06-3.29649E-05-1.06430E-06 8.90193E-19-1.15346E-18
 -1      2259 8.74454E-05-1.05948E-05-3.29646E-05 1.97973E-06 1.14349E-18-7.99890E-19
 -1      2260 8.71701E-05-1.03456E-05-3.29624E-05 9.01074E-07 1.04447E-18-9.17893E-19
 -1      2261 8.82703E-05-1.21446E-05-3.26295E-05 2.20139E-07 9.53041E-19-8.86797E-19
 -1      2262 8.82029E-05-1.13975E-05-3.29498E-05 4.11056E-06 1.27833E-18-5.53126E-19
 -1      2263 8.78143E-05-1.10235E-05-3.29507E-05 2.98311E-06 1.20052E-18-7.41511E-19
 -1      2264 8.89193E-05-1.28446E-05-3.26082E-05 2.13392E-06 1.07349E-18-6.85005E-19
 -1      2265 8.92555E-05-1.25679E-05-3.29094E-05 6.37220E-06 1.45360E-18-4.98624E-20
 -1      2266 8.87139E-05-1.20106E-05-3.29183E-05 5.16788E-06 1.34467E-18-3.25419E-19
 -1      2267 8.98236E-05-1.38684E-05-3.25551E-05 4.14571E-06 1.23591E-18-3.63582E-19
 -1      2268 9.07244E-05-1.42853E-05-3.28230E-05 8.62561E-06 1.57663E-18 5.80747E-19
 -1      2269 8.99549E-05-1.34341E-05-3.28478E-05 7.40456E-06 1.48886E-18 2.73367E-19
 -1      2270 9.10313E-05-1.53103E-05-3.24484E-05 6.16189E-06 1.34382E-18 1.76266E-19
 -1      2271 9.28514E-05-1.69232E-05-3.26424E-05 1.05627E-05 1.53989E-18 1.16832E-18
 -1      2272 9.16968E-05-1.55294E-05-3.27062E-05 9.50387E-06 1.54469E-18 8.26612E-19
 -1      2273 9.26376E-05-1.73515E-05-3.22480E-05 7.95761E-06 1.39955E-18 7.30490E-19
 -1      2274 9.59750E-05-2.10496E-05-3.22053E-05 1.13007E-05 1.25551E-18 2.23774E-18
 -1      2275 9.42491E-05-1.87085E-05-3.24123E-05 1.10283E-05 1.45212E-18 1.55231E-18
 -1      2276 9.47960E-05-2.03151E-05-3.18713E-05 9.03129E-06 1.34743E-18 1.29243E-18
 -1      2277 9.80295E-05-2.48118E-05-3.14423E-05 9.51105E-06 9.51271E-19 3.04328E-18
 -1      2278 9.67731E-05-2.24492E-05-3.18502E-05 1.07198E-05 1.08654E-18 2.62143E-18
 -1      2279 9.63297E-05-2.34524E-05-3.12330E-05 8.42515E-06 1.15952E-18 2.02524E-18
 -1      2280 9.68878E-05-2.59091E-05-3.04276E-05 6.58106E-06 8.59672E-19 2.84007E-18
 -1      2281 9.66923E-05-2.47329E-05-3.07966E-05-4.75124E-06-5.99428E-19-1.01923E-18
 -1      2282 9.62103E-05-2.54252E-05-3.03349E-05-2.50392E-06-5.15241E-19-9.78906E-19
 -1      2283 1.59105E-04-7.06041E-05-3.81081E-05 5.50100E-06-6.22993E-19 2.23193E-19
 -1      2284 1.51697E-04-5.00196E-05-4.39779E-05 1.46282E-05 1.40070E-18-2.34078E-18
 -1      2285 1.44182E-04-5.45012E-05-3.85774E-05 2.05883E-05 1.33027E-18-2.46783E-18
 -1      2286 9.60714E-05-2.59316E-05-3.00080E-05-8.40770E-07-4.89628E-19-8.17719E-19
 -1      2287 9.58376E-05-2.61852E-05-2.98282E-05 6.52941E-07-4.21326E-19-8.03496E-19
 -1      2288 9.56946E-05-2.44010E-05-3.05606E-05-2.24251E-06-4.62774E-19-9.72688E-19
 -1      2289 9.55182E-05-2.62603E-05-2.96542E-05 2.10043E-06-3.11276E-19-6.29419E-19
 -1      2290 9.55431E-05-2.62867E-05-2.96472E-05 3.43155E-06-1.82092E-19-6.12520E-19
 -1      2291 9.52458E-05-2.51910E-05-3.00278E-05 1.06374E-06-3.10760E-19-6.14291E-19
 -1      2292 9.51133E-05-2.60404E-05-2.95979E-05 4.76294E-06-1.24262E-19-4.45232E-19
 -1      2293 9.53634E-05-2.58885E-05-2.97301E-05 6.13750E-06-1.08195E-20-4.07695E-19
 -1      2294 9.45486E-05-2.50884E-05-2.97646E-05 3.97379E-06-8.55404E-20-4.71338E-19
 -1      2295 9.47238E-05-2.53370E-05-2.97548E-05 7.56266E-06-4.88533E-20-3.47367E-19
 -1      2296 9.51227E-05-2.50057E-05-2.99941E-05 9.20162E-06 1.32217E-20-3.00323E-19
 -1      2297 9.35389E-05-2.42264E-05-2.96842E-05 6.80339E-06-9.64989E-21-3.61476E-19
 -1      2298 9.40846E-05-2.41138E-05-3.00292E-05 1.08999E-05-2.23981E-19-2.35390E-19
 -1      2299 9.45552E-05-2.36238E-05-3.03326E-05 1.29718E-05-1.33037E-19-3.00394E-19
 -1      2300 9.19394E-05-2.26086E-05-2.96653E-05 9.91749E-06-1.25455E-19-1.45392E-19
 -1      2301 9.28875E-05-2.24110E-05-3.02698E-05 1.50963E-05 2.32094E-19-4.18482E-19
 -1      2302 9.33785E-05-2.19273E-05-3.05422E-05 1.76657E-05 4.70653E-19-4.32864E-19
 -1      2303 8.93383E-05-2.02511E-05-2.95222E-05 1.36072E-05 1.18327E-19-7.14006E-20
 -1      2304 9.10475E-05-2.07443E-05-3.02078E-05 2.02178E-05 5.42886E-19-3.00683E-19
 -1      2305 9.17866E-05-2.08378E-05-3.02898E-05 2.29245E-05 7.44459E-19-7.07736E-20
 -1      2306 8.54499E-05-1.75447E-05-2.89497E-05 1.79526E-05 5.75807E-19-2.30649E-19
 -1      2307 8.88540E-05-2.04159E-05-2.93293E-05 2.62411E-05 8.97299E-19-2.89884E-19
 -1      2308 9.07352E-05-2.26389E-05-2.89326E-05 2.88155E-05 1.36608E-18 4.32252E-20
 -1      2309 8.01657E-05-1.56761E-05-2.74030E-05 2.33132E-05 8.75581E-19-3.31474E-19
 -1      2310 8.84482E-05-2.49380E-05-2.68879E-05 3.26790E-05 1.71837E-18 2.48287E-20
 -1      2311 9.34764E-05-3.24891E-05-2.57571E-05 3.40141E-05 1.74256E-18 2.36216E-19
 -1      2312 7.45191E-05-1.78178E-05-2.39379E-05 3.00005E-05 1.61450E-18-5.25743E-19
 -1      2313 1.85568E-04-6.47063E-05-5.12856E-05 2.59682E-05-1.73642E-20-2.74777E-18
 -1      2314 9.52362E-05-2.85730E-05-2.85700E-05-6.12182E-09 7.05344E-19 7.51554E-19
 -1      2315 1.58423E-04-3.05930E-05-5.52876E-05 9.85481E-08 2.81829E-18-1.87343E-18
 -1      2316 1.54311E-04-4.00789E-05-4.93114E-05 5.53498E-06 2.48202E-18-2.34353E-18
 -1      2317 1.50123E-04-4.56232E-05-4.48460E-05 1.60920E-06 1.40094E-18-2.38143E-18
 -1      2318 1.34427E-04-5.70634E-05-3.28956E-05-2.23008E-05 3.12682E-18-7.28276E-19
 -1      2319 1.24468E-04-4.71252E-05-3.25375E-05-2.83339E-05 2.35221E-18-2.45322E-19
 -1      2320 1.17691E-04-3.92193E-05-3.34582E-05-2.90189E-05 1.43678E-18-7.79151E-19
 -1      2321 1.11302E-04-3.27462E-05-3.33577E-05-2.95174E-05 8.98940E-19-1.49422E-19
 -1      2322 1.05421E-04-3.96129E-05-2.81401E-05-3.36501E-05 1.83256E-18 3.21767E-19
 -1      2323 1.09649E-04-3.01207E-05-3.39837E-05-2.68602E-05-2.48088E-19-1.07951E-18
 -1      2324 1.05738E-04-2.75018E-05-3.34786E-05-2.46261E-05-1.08277E-18-1.11957E-18
 -1      2325 9.82637E-05-2.71416E-05-3.03204E-05-3.05882E-05-3.54219E-19-7.28660E-19
 -1      2326 1.05772E-04-2.73526E-05-3.35309E-05-2.12991E-05-1.04730E-18-1.66241E-18
 -1      2327 1.03099E-04-2.65158E-05-3.28367E-05-1.84785E-05-3.26114E-19-1.79050E-18
 -1      2328 9.69000E-05-2.34370E-05-3.14021E-05-2.42388E-05-1.28091E-18-1.57315E-18
 -1      2329 1.03353E-04-2.71089E-05-3.25983E-05-1.55487E-05-2.18045E-19-2.28348E-18
 -1      2330 1.01397E-04-2.69250E-05-3.19381E-05-1.31001E-05-1.67031E-19-2.82004E-18
 -1      2331 9.72440E-05-2.36832E-05-3.14632E-05-1.80129E-05-5.34015E-19-2.00228E-18
 -1      2332 1.01475E-04-2.75277E-05-3.16195E-05-1.08386E-05 6.84231E-19-2.70375E-18
 -1      2333 1.00028E-04-2.75264E-05-3.10842E-05-8.99180E-06 7.12600E-19-2.31904E-18
 -1      2334 9.75536E-05-2.49885E-05-3.10568E-05-1.28302E-05 3.62107E-20-2.86956E-18
 -1      2335 9.99576E-05-2.79448E-05-3.08020E-05-7.43527E-06 7.93127E-19-1.98354E-18
 -1      2336 9.89307E-05-2.79708E-05-3.04174E-05-6.18225E-06 9.97011E-19-1.85539E-18
 -1      2337 9.75299E-05-2.62039E-05-3.05445E-05-8.96945E-06 1.03152E-18-2.43432E-18
 -1      2338 9.87552E-05-2.82522E-05-3.01702E-05-5.02413E-06 2.06079E-18-1.99099E-18
 -1      2339 9.79756E-05-2.82693E-05-2.98775E-05-4.12537E-06 1.83880E-18-1.53721E-18
 -1      2340 9.72820E-05-2.70917E-05-3.00657E-05-6.18077E-06 1.67868E-18-2.47976E-18
 -1      2341 9.77855E-05-2.84350E-05-2.96891E-05-3.33974E-06 8.73536E-19-7.54220E-19
 -1      2342 9.72325E-05-2.84394E-05-2.94841E-05-2.74179E-06 1.44256E-18-3.08629E-20
 -1      2343 9.69275E-05-2.76950E-05-2.96629E-05-4.17472E-06 1.98613E-18-1.96959E-18
 -1      2344 9.70552E-05-2.85309E-05-2.93452E-05-2.21486E-06 3.41907E-19-3.27715E-19
 -1      2345 9.66674E-05-2.85273E-05-2.92033E-05-1.82051E-06-6.31235E-19-4.92048E-19
 -1      2346 9.65672E-05-2.80664E-05-2.93538E-05-2.80629E-06 7.11564E-19-1.38624E-18
 -1      2347 9.65173E-05-2.85750E-05-2.91031E-05-1.46916E-06-1.12535E-18-1.55099E-19
 -1      2348 9.62474E-05-2.85676E-05-2.90055E-05-1.20979E-06-5.74170E-19 7.11253E-19
 -1      2349 9.62473E-05-2.82861E-05-2.91251E-05-1.88331E-06-2.22105E-19-7.08658E-19
 -1      2350 9.61274E-05-2.85908E-05-2.89342E-05-9.75762E-07-5.11967E-20 1.07577E-18
 -1      2351 9.59410E-05-2.85825E-05-2.88675E-05-8.05112E-07-4.60698E-20 1.38624E-18
 -1      2352 9.59837E-05-2.84120E-05-2.89593E-05-1.26384E-06-1.32316E-20 6.12793E-19
 -1      2353 9.58530E-05-2.85919E-05-2.88194E-05-6.55964E-07-1.91186E-19 6.69775E-19
 -1      2354 9.57288E-05-2.85849E-05-2.87755E-05-5.47029E-07 9.62408E-19 1.37190E-19
 -1      2355 9.57808E-05-2.84822E-05-2.88431E-05-8.55664E-07-8.40316E-20 1.46521E-18
 -1      2356 9.56578E-05-2.85886E-05-2.87394E-05-4.39983E-07 2.01551E-18 1.92709E-19
 -1      2357 9.55675E-05-2.85823E-05-2.87076E-05-3.63304E-07 1.17868E-18 9.13755E-19
 -1      2358 9.56250E-05-2.85192E-05-2.87602E-05-5.80591E-07 1.66648E-18 1.24908E-18
 -1      2359 9.55154E-05-2.85825E-05-2.86825E-05-2.91431E-07-2.79963E-19 1.51860E-18
 -1      2360 9.54537E-05-2.85778E-05-2.86609E-05-2.40138E-07-3.26731E-19 1.69115E-18
 -1      2361 9.55053E-05-2.85403E-05-2.86999E-05-3.88434E-07 8.01587E-19 1.70439E-18
 -1      2362 9.54160E-05-2.85767E-05-2.86433E-05-1.91528E-07-4.71453E-19 9.79449E-19
 -1      2363 9.53742E-05-2.85734E-05-2.86287E-05-1.57047E-07 3.37096E-19 6.04735E-19
 -1      2364 9.54176E-05-2.85512E-05-2.86576E-05-2.58231E-07-7.99870E-19 6.93646E-19
 -1      2365 9.53474E-05-2.85720E-05-2.86166E-05-1.24053E-07 4.00356E-19-1.01372E-19
 -1      2366 9.53195E-05-2.85698E-05-2.86068E-05-1.00798E-07-5.58465E-19-1.68896E-19
 -1      2367 9.53545E-05-2.85568E-05-2.86280E-05-1.69660E-07 1.96317E-19-2.20831E-19
 -1      2368 9.53007E-05-2.85686E-05-2.85985E-05-7.83625E-08-1.67053E-18-4.39639E-19
 -1      2369 9.52825E-05-2.85674E-05-2.85921E-05-6.27020E-08-1.49828E-18-1.57317E-19
 -1      2370 9.53100E-05-2.85598E-05-2.86076E-05-1.09266E-07-9.92196E-19-1.55388E-19
 -1      2371 9.52703E-05-2.85665E-05-2.85867E-05-4.81517E-08-2.74823E-18-5.60909E-19
 -1      2372 9.52591E-05-2.85659E-05-2.85827E-05-3.79991E-08-3.51145E-18-2.17965E-18
 -1      2373 9.52799E-05-2.85616E-05-2.85938E-05-6.88133E-08-2.53440E-18-1.40668E-18
 -1      2374 9.52505E-05-2.85654E-05-2.85789E-05-2.75041E-08-1.50923E-18-2.13351E-18
 -1      2375 9.52433E-05-2.85653E-05-2.85762E-05-2.03278E-08-1.11781E-18-2.76192E-18
 -1      2376 9.52594E-05-2.85627E-05-2.85845E-05-4.12774E-08-2.71954E-18-1.87221E-18
 -1      2377 9.52378E-05-2.85649E-05-2.85738E-05-1.33534E-08-7.13643E-19-3.07270E-18
 -1      2378 9.52339E-05-2.85652E-05-2.85722E-05-8.63763E-09-3.59264E-20-3.83687E-18
 -1      2379 9.52457E-05-2.85638E-05-2.85781E-05-2.20555E-08-9.62639E-19-1.54603E-18
 -1      2380 9.52306E-05-2.85651E-05-2.85707E-05-4.07965E-09 3.77063E-20-2.51537E-18
 -1      2381 9.52288E-05-2.85656E-05-2.85699E-05-1.06210E-09-9.94989E-19-1.43440E-18
 -1      2382 9.52373E-05-2.85648E-05-2.85740E-05-9.28315E-09 3.89699E-19-2.07598E-18
 -1      2383 9.52271E-05-2.85657E-05-2.85691E-05 1.82250E-09-6.69335E-19-1.05172E-18
 -1      2384 9.52268E-05-2.85663E-05-2.85688E-05 3.67024E-09 6.38306E-20-1.36690E-18
 -1      2385 9.52326E-05-2.85658E-05-2.85715E-05-9.91099E-10-6.55662E-19-8.42629E-20
 -1      2386 9.52261E-05-2.85664E-05-2.85684E-05 5.39845E-09-4.34110E-19 9.27690E-21
 -1      2387 9.52266E-05-2.85671E-05-2.85684E-05 6.43306E-09 8.10612E-19-2.58959E-19
 -1      2388 9.52304E-05-2.85668E-05-2.85701E-05 4.18693E-09 1.49212E-19 7.82316E-19
 -1      2389 9.52267E-05-2.85673E-05-2.85682E-05 7.32199E-09 1.32512E-18-3.73220E-19
 -1      2390 9.52276E-05-2.85680E-05-2.85684E-05 7.78376E-09 1.58409E-18-1.11596E-18
 -1      2391 9.52299E-05-2.85678E-05-2.85695E-05 7.15389E-09 9.46593E-19 6.82666E-19
 -1      2392 9.52281E-05-2.85683E-05-2.85685E-05 8.15760E-09 8.88903E-19-2.26187E-18
 -1      2393 9.52294E-05-2.85690E-05-2.85687E-05 8.23311E-09-1.01398E-18-3.32731E-18
 -1      2394 9.52304E-05-2.85688E-05-2.85693E-05 8.63294E-09 9.63248E-20-2.55488E-18
 -1      2395 9.52301E-05-2.85693E-05-2.85689E-05 8.16156E-09-1.27825E-18-3.08786E-18
 -1      2396 9.52314E-05-2.85700E-05-2.85692E-05 7.89492E-09-1.76948E-18-1.97199E-18
 -1      2397 9.52316E-05-2.85698E-05-2.85694E-05 9.04256E-09-1.43966E-18-2.24068E-18
 -1      2398 9.52322E-05-2.85704E-05-2.85694E-05 7.44033E-09-1.83033E-18-9.99529E-19
 -1      2399 9.52335E-05-2.85711E-05-2.85696E-05 6.83469E-09-7.58023E-19-1.72350E-18
 -1      2400 9.52331E-05-2.85708E-05-2.85696E-05 8.58647E-09-1.06956E-18-1.04115E-18
 -1      2401 9.46660E-05-2.82883E-05-2.84547E-05 5.08667E-07 3.90131E-19 1.47017E-18
 -1      2402 9.48760E-05-2.80666E-05-2.85995E-05 7.23295E-07 4.21971E-19 1.52023E-18
 -1      2403 9.49956E-05-2.77494E-05-2.88213E-05 1.19321E-06 4.07555E-19 1.53429E-18
 -1      2404 9.53429E-05-2.74463E-05-2.90596E-05 1.84879E-06 5.00544E-19 1.63370E-18
 -1      2405 9.56256E-05-2.78531E-05-2.90605E-05 1.31865E-06 4.75298E-19 1.07783E-18
 -1      2406 9.43162E-05-2.90072E-05-2.80055E-05 1.04536E-06 2.89245E-19 1.36951E-18
 -1      2407 9.44724E-05-2.88908E-05-2.80954E-05 7.24554E-07 2.54089E-19 1.50511E-18
 -1      2408 9.40529E-05-2.91725E-05-2.78235E-05 1.97663E-06 5.73435E-20 1.61138E-18
 -1      2409 9.43022E-05-2.91446E-05-2.79201E-05 1.49288E-06 1.91539E-19 1.52725E-18
 -1      2410 9.55044E-05-2.96859E-05-2.82098E-05 1.43972E-06 2.68019E-19 1.09113E-18
 -1      2411 9.35639E-05-2.91126E-05-2.76377E-05 3.14610E-06 2.09145E-19 1.60239E-18
 -1      2412 9.39636E-05-2.92161E-05-2.77499E-05 2.58338E-06-4.90138E-20 1.58536E-18
 -1      2413 9.54250E-05-2.99454E-05-2.80593E-05 2.53528E-06 1.42572E-19 1.10925E-18
 -1      2414 9.27519E-05-2.87353E-05-2.74446E-05 4.32892E-06 2.30181E-19 1.58150E-18
 -1      2415 9.33311E-05-2.90099E-05-2.75727E-05 3.80294E-06 3.96324E-19 1.63345E-18
 -1      2416 9.51153E-05-2.98989E-05-2.79418E-05 3.86724E-06 3.13869E-19 9.84576E-19
 -1      2417 9.15810E-05-2.79832E-05-2.72535E-05 5.22681E-06 2.14579E-19 1.64629E-18
 -1      2418 9.23252E-05-2.84422E-05-2.73896E-05 4.88242E-06 2.31702E-19 1.67576E-18
 -1      2419 9.44519E-05-2.94296E-05-2.78557E-05 5.15977E-06 1.57501E-19 1.19350E-18
 -1      2420 9.01206E-05-2.68908E-05-2.70818E-05 5.50754E-06 2.57615E-19 1.51585E-18
 -1      2421 9.09578E-05-2.74944E-05-2.72120E-05 5.49247E-06 4.00399E-19 1.83687E-18
 -1      2422 9.33778E-05-2.84771E-05-2.78045E-05 6.05227E-06 2.93354E-19 1.69628E-18
 -1      2423 8.85756E-05-2.56293E-05-2.69482E-05 4.89947E-06-3.36964E-19 1.48334E-18
 -1      2424 8.93762E-05-2.62706E-05-2.70564E-05 5.31547E-06-2.11212E-20 1.64724E-18
 -1      2425 9.19655E-05-2.71153E-05-2.77891E-05 6.15874E-06 1.02799E-20 2.06842E-18
 -1      2426 8.72689E-05-2.44988E-05-2.68676E-05 3.31989E-06-9.37609E-20 1.06933E-18
 -1      2427 8.78694E-05-2.50198E-05-2.69384E-05 4.16674E-06-2.01867E-19 1.26985E-18
 -1      2428 9.04579E-05-2.56003E-05-2.78034E-05 5.19403E-06 5.22538E-20 1.65879E-18
 -1      2429 8.65488E-05-2.38354E-05-2.68474E-05 9.70484E-07 6.36021E-19 6.01411E-19
 -1      2430 8.68020E-05-2.40817E-05-2.68698E-05 2.11696E-06 2.61007E-19 4.96578E-19
 -1      2431 8.92330E-05-2.43330E-05-2.78335E-05 3.13113E-06 4.13762E-19 5.66039E-19
 -1      2432 8.66474E-05-2.38633E-05-2.68893E-05-1.68162E-06 3.64176E-19 3.46191E-19
 -1      2433 8.64782E-05-2.37535E-05-2.68583E-05-4.69878E-07 5.74867E-19 7.44358E-19
 -1      2434 8.86689E-05-2.37144E-05-2.78633E-05 2.93785E-07 5.67053E-19 2.99413E-19
 -1      2435 8.75696E-05-2.45800E-05-2.69910E-05-4.05923E-06 9.54176E-19-2.56518E-19
 -1      2436 8.70059E-05-2.41463E-05-2.69080E-05-3.03819E-06 6.63508E-19 9.99546E-20
 -1      2437 8.89663E-05-2.39573E-05-2.78840E-05-2.71111E-06 6.79500E-19-2.90089E-19
 -1      2438 8.90879E-05-2.57585E-05-2.71472E-05-5.69227E-06 6.72191E-19 9.53044E-20
 -1      2439 8.82480E-05-2.51290E-05-2.70201E-05-5.04650E-06 7.01072E-19-8.38567E-20
 -1      2440 9.00445E-05-2.49766E-05-2.78990E-05-5.21684E-06 5.62156E-19-2.50904E-19
 -1      2441 9.08492E-05-2.70628E-05-2.73479E-05-6.37335E-06 1.08118E-19 4.64337E-19
 -1      2442 8.98939E-05-2.63998E-05-2.71903E-05-6.16266E-06 3.53641E-19 3.03020E-19
 -1      2443 9.15850E-05-2.64358E-05-2.79215E-05-6.75393E-06 3.33427E-19 2.25684E-19
 -1      2444 9.25195E-05-2.81970E-05-2.75774E-05-6.17661E-06-1.84607E-19 1.16865E-18
 -1      2445 9.15972E-05-2.76316E-05-2.74061E-05-6.34329E-06 4.71527E-20 7.02041E-19
 -1      2446 9.31909E-05-2.79169E-05-2.79660E-05-7.19127E-06-1.97528E-19 7.27611E-19
 -1      2447 9.38829E-05-2.89970E-05-2.78158E-05-5.36051E-06-2.30262E-20 1.46107E-18
 -1      2448 9.30942E-05-2.85957E-05-2.76476E-05-5.77870E-06 5.34772E-20 1.43328E-18
 -1      2449 9.45491E-05-2.90954E-05-2.80394E-05-6.70380E-06-9.79072E-20 6.68590E-19
 -1      2450 9.48611E-05-2.94373E-05-2.80426E-05-4.23549E-06 5.73876E-19 1.32802E-18
 -1      2451 9.42512E-05-2.92054E-05-2.78914E-05-4.76732E-06 5.93151E-19 1.69381E-18
 -1      2452 9.55088E-05-2.98264E-05-2.81380E-05-5.62845E-06 6.55425E-20 1.43843E-18
 -1      2453 9.54779E-05-2.95838E-05-2.82411E-05-3.06487E-06-2.02267E-19 1.26139E-18
 -1      2454 9.50481E-05-2.94886E-05-2.81159E-05-3.59885E-06 8.96995E-21 1.39425E-18
 -1      2455 9.60658E-05-3.01277E-05-2.82504E-05-4.31383E-06 2.65672E-19 2.21997E-18
 -1      2456 9.58086E-05-2.95360E-05-2.84014E-05-2.02137E-06 2.55301E-20 7.89807E-19
 -1      2457 9.55339E-05-2.95324E-05-2.83057E-05-2.48724E-06-6.16332E-20 9.77169E-19
 -1      2458 9.63014E-05-3.01091E-05-2.83624E-05-3.02731E-06 4.69169E-20 1.44148E-18
 -1      2459 9.59395E-05-2.93873E-05-2.85205E-05-1.18780E-06-2.42860E-20 1.03321E-18
 -1      2460 9.57849E-05-2.94337E-05-2.84532E-05-1.55409E-06 9.42068E-20 8.65128E-19
 -1      2461 9.63225E-05-2.99034E-05-2.84621E-05-1.92702E-06-9.73807E-20 7.57889E-19
 -1      2462 9.59457E-05-2.92058E-05-2.86007E-05-5.80032E-07 4.97053E-19 2.52749E-20
 -1      2463 9.58761E-05-2.92719E-05-2.85582E-05-8.43327E-07 5.32791E-19 3.96626E-19
 -1      2464 9.62235E-05-2.96221E-05-2.85420E-05-1.07606E-06 4.07553E-19 1.62970E-19
 -1      2465 9.58831E-05-2.90326E-05-2.86484E-05-1.74311E-07 8.13454E-20 6.47397E-19
 -1      2466 9.58689E-05-2.90997E-05-2.86252E-05-3.47369E-07 1.22854E-19 5.01644E-20
 -1      2467 9.60728E-05-2.93399E-05-2.85994E-05-4.73123E-07 1.90295E-19 3.68184E-19
 -1      2468 9.57896E-05-2.88874E-05-2.86709E-05 7.04577E-08-4.02215E-19 1.08148E-18
 -1      2469 9.58080E-05-2.89459E-05-2.86617E-05-3.17881E-08 2.10474E-20 8.44165E-19
 -1      2470 9.59125E-05-2.90964E-05-2.86356E-05-8.23329E-08-2.82386E-20 8.31361E-19
 -1      2471 9.56881E-05-2.87754E-05-2.86758E-05 1.98039E-07 1.27683E-20 8.32688E-19
 -1      2472 9.57231E-05-2.88221E-05-2.86758E-05 1.46659E-07-2.50382E-19 1.35327E-18
 -1      2473 9.57645E-05-2.89060E-05-2.86541E-05 1.44693E-07-3.69059E-19 1.28022E-18
 -1      2474 9.55918E-05-2.86946E-05-2.86695E-05 2.47034E-07 6.25505E-20 1.15651E-18
 -1      2475 9.56327E-05-2.87294E-05-2.86749E-05 2.29264E-07 1.01969E-19 1.26926E-18
 -1      2476 9.56382E-05-2.87680E-05-2.86592E-05 2.55473E-07-2.65116E-19 9.04975E-19
 -1      2477 9.55071E-05-2.86393E-05-2.86571E-05 2.47836E-07-3.88430E-19 1.81693E-18
 -1      2478 9.55473E-05-2.86640E-05-2.86651E-05 2.50282E-07-6.18137E-20 1.62186E-18
 -1      2479 9.55354E-05-2.86743E-05-2.86553E-05 2.90153E-07-3.76065E-19 1.51741E-18
 -1      2480 9.54361E-05-2.86035E-05-2.86422E-05 2.22427E-07-4.22014E-19 1.68902E-18
 -1      2481 9.54722E-05-2.86201E-05-2.86509E-05 2.35528E-07-6.07303E-20 1.36191E-18
 -1      2482 9.54543E-05-2.86146E-05-2.86461E-05 2.79468E-07-1.50079E-19 1.49003E-18
 -1      2483 9.53789E-05-2.85816E-05-2.86272E-05 1.85547E-07 1.97652E-19 9.68133E-19
 -1      2484 9.54094E-05-2.85922E-05-2.86355E-05 2.02985E-07-1.13364E-19 1.23139E-18
 -1      2485 9.53919E-05-2.85793E-05-2.86344E-05 2.45173E-07 3.08430E-19-2.51740E-20
 -1      2486 9.53343E-05-2.85691E-05-2.86135E-05 1.46325E-07 8.94771E-19 1.89446E-19
 -1      2487 9.53588E-05-2.85755E-05-2.86208E-05 1.64258E-07 4.52202E-19 3.87955E-19
 -1      2488 9.53447E-05-2.85604E-05-2.86222E-05 2.01586E-07 8.28469E-19-4.19963E-19
 -1      2489 9.53006E-05-2.85627E-05-2.86018E-05 1.09868E-07-4.66578E-19 2.08010E-18
 -1      2490 9.53194E-05-2.85663E-05-2.86079E-05 1.26207E-07 8.90695E-19 6.06962E-19
 -1      2491 9.53096E-05-2.85519E-05-2.86108E-05 1.57383E-07 2.19990E-19-1.01881E-18
 -1      2492 9.52759E-05-2.85601E-05-2.85924E-05 7.85923E-08-6.33842E-19 1.14655E-18
 -1      2493 9.52898E-05-2.85619E-05-2.85971E-05 9.24030E-08-3.76969E-19 1.95991E-18
 -1      2494 9.52840E-05-2.85496E-05-2.86008E-05 1.17274E-07-2.95073E-19 5.52120E-19
 -1      2495 9.52583E-05-2.85598E-05-2.85850E-05 5.32376E-08 1.20843E-18-1.17493E-18
 -1      2496 9.52681E-05-2.85604E-05-2.85886E-05 6.42934E-08 1.12804E-19-3.22167E-19
 -1      2497 9.52657E-05-2.85507E-05-2.85924E-05 8.33522E-08 6.76650E-19-1.00179E-19
 -1      2498 9.52464E-05-2.85606E-05-2.85795E-05 3.35880E-08 1.29038E-18-6.70332E-19
 -1      2499 9.52530E-05-2.85605E-05-2.85821E-05 4.20549E-08 1.15463E-18-4.89166E-19
 -1      2500 9.52530E-05-2.85533E-05-2.85858E-05 5.61028E-08 1.05119E-18-1.31901E-18
 -1      2501 9.52386E-05-2.85620E-05-2.85756E-05 1.89520E-08-1.96642E-19 1.04263E-18
 -1      2502 9.52428E-05-2.85615E-05-2.85774E-05 2.51821E-08 4.13348E-19 6.63615E-20
 -1      2503 9.52444E-05-2.85565E-05-2.85807E-05 3.51169E-08-2.04733E-19 2.00383E-19
 -1      2504 9.52341E-05-2.85636E-05-2.85730E-05 8.46521E-09 1.23567E-18 5.20449E-19
 -1      2505 9.52364E-05-2.85630E-05-2.85741E-05 1.28681E-08 1.04674E-18 1.20298E-18
 -1      2506 9.52389E-05-2.85596E-05-2.85770E-05 1.95581E-08 1.54842E-19 1.26516E-18
 -1      2507 9.52318E-05-2.85652E-05-2.85714E-05 1.26741E-09 3.03708E-20-1.31698E-18
 -1      2508 9.52328E-05-2.85645E-05-2.85720E-05 4.23716E-09 1.09586E-18-5.14434E-19
 -1      2509 9.52356E-05-2.85624E-05-2.85743E-05 8.45456E-09 2.01195E-18 3.36367E-19
 -1      2510 9.52310E-05-2.85667E-05-2.85704E-05-3.40183E-09-5.25237E-19-1.53431E-18
 -1      2511 9.52312E-05-2.85660E-05-2.85707E-05-1.52540E-09-4.66646E-19-1.89418E-18
 -1      2512 9.52339E-05-2.85648E-05-2.85725E-05 8.68625E-10 4.31573E-19-9.89911E-19
 -1      2513 9.52313E-05-2.85681E-05-2.85700E-05-6.15988E-09-2.12905E-19-7.08021E-19
 -1      2514 9.52309E-05-2.85673E-05-2.85700E-05-5.10800E-09-6.05874E-19-1.89829E-18
 -1      2515 9.52333E-05-2.85668E-05-2.85714E-05-4.01566E-09-2.96148E-19-2.30502E-18
 -1      2516 9.52323E-05-2.85693E-05-2.85698E-05-7.46424E-09-1.11266E-18 2.81571E-19
 -1      2517 9.52315E-05-2.85686E-05-2.85698E-05-7.04471E-09-6.06378E-19 3.73904E-20
 -1      2518 9.52335E-05-2.85685E-05-2.85707E-05-6.85003E-09-1.17218E-18-2.39166E-18
 -1      2519 9.52336E-05-2.85705E-05-2.85699E-05-7.62662E-09-4.14627E-19 1.35846E-18
 -1      2520 9.52327E-05-2.85699E-05-2.85697E-05-7.71111E-09-3.84565E-19 8.01310E-19
 -1      2521 9.52341E-05-2.85700E-05-2.85704E-05-8.12283E-09-8.82727E-19 1.32100E-19
 -1      2522 9.52350E-05-2.85717E-05-2.85700E-05-6.83572E-09 7.17363E-19-2.10789E-19
 -1      2523 9.52341E-05-2.85711E-05-2.85698E-05-7.33846E-09-2.60428E-19 8.55007E-19
 -1      2524 9.52350E-05-2.85714E-05-2.85702E-05-8.16130E-09 3.20207E-20 1.69713E-18
 -1      2525 9.52405E-05-2.85780E-05-2.85696E-05-5.37895E-09 8.37391E-19-6.36419E-19
 -1      2526 9.52401E-05-2.85773E-05-2.85698E-05-5.97514E-09 7.33998E-19-1.43428E-18
 -1      2527 9.52396E-05-2.85768E-05-2.85698E-05-6.50595E-09-1.27520E-19-1.51886E-19
 -1      2528 9.52391E-05-2.85760E-05-2.85699E-05-6.81575E-09-5.15649E-19 3.50014E-19
 -1      2529 9.52398E-05-2.85758E-05-2.85703E-05-6.84261E-09-3.10022E-20-5.67421E-19
 -1      2530 9.52385E-05-2.85754E-05-2.85699E-05-7.02849E-09-5.67543E-20 4.65063E-20
 -1      2531 9.52378E-05-2.85745E-05-2.85700E-05-6.95572E-09 3.22157E-19 1.45270E-18
 -1      2532 9.52386E-05-2.85747E-05-2.85702E-05-7.62641E-09 3.75742E-19 1.60865E-19
 -1      2533 9.55925E-05-1.98404E-05-3.25124E-05-1.06040E-05-7.33650E-19-1.31379E-18
 -1      2534 9.61750E-05-2.30561E-05-3.13486E-05-6.71325E-06-7.42788E-19-1.17465E-18
 -1      2535 9.53639E-05-2.19343E-05-3.14617E-05-6.11046E-06-5.99564E-19-1.16532E-18
 -1      2536 9.35117E-05-1.73607E-05-3.26721E-05-1.00959E-05-6.01896E-19-1.54942E-18
 -1      2537 9.52411E-05-2.85788E-05-2.85695E-05-3.80137E-09 6.48837E-19 3.98965E-19
 -1      2538 9.52408E-05-2.85783E-05-2.85696E-05-4.59128E-09 4.63624E-19-6.58675E-19
 -1      2539 9.52406E-05-2.85766E-05-2.85703E-05-5.46062E-09 5.65261E-19-9.84813E-19
 -1      2540 9.52415E-05-2.85794E-05-2.85695E-05-1.93560E-09-7.95832E-19-9.64934E-19
 -1      2541 9.52413E-05-2.85791E-05-2.85695E-05-2.85170E-09-2.98904E-19 1.33022E-19
 -1      2542 9.52412E-05-2.85772E-05-2.85703E-05-3.65598E-09-1.61609E-18 3.62272E-20
 -1      2543 9.52416E-05-2.85796E-05-2.85694E-05 1.04177E-10-5.84335E-19 1.89264E-18
 -1      2544 9.52416E-05-2.85795E-05-2.85694E-05-8.81490E-10-7.85550E-19 6.65025E-19
 -1      2545 9.52416E-05-2.85776E-05-2.85703E-05-1.57455E-09-1.12978E-18 3.31126E-19
 -1      2546 9.52416E-05-2.85794E-05-2.85695E-05 2.20438E-09 1.14947E-19 2.11637E-18
 -1      2547 9.52417E-05-2.85796E-05-2.85694E-05 1.20905E-09-5.96122E-19 2.25521E-18
 -1      2548 9.52417E-05-2.85778E-05-2.85703E-05 6.70793E-10-6.20304E-19 2.52495E-18
 -1      2549 9.52412E-05-2.85789E-05-2.85696E-05 4.18768E-09 1.03187E-18 4.69202E-19
 -1      2550 9.52415E-05-2.85793E-05-2.85695E-05 3.27577E-09 9.35029E-19 8.62353E-19
 -1      2551 9.52416E-05-2.85777E-05-2.85703E-05 2.93817E-09 4.80372E-19 1.56752E-18
 -1      2552 9.52406E-05-2.85780E-05-2.85697E-05 5.92370E-09 2.63672E-18 2.53628E-18
 -1      2553 9.52410E-05-2.85786E-05-2.85696E-05 5.16810E-09 2.47639E-18-8.15798E-20
 -1      2554 9.52412E-05-2.85774E-05-2.85702E-05 5.08370E-09 2.92309E-18 1.30737E-18
 -1      2555 9.52395E-05-2.85766E-05-2.85698E-05 7.11440E-09 1.48466E-18 9.51879E-19
 -1      2556 9.52401E-05-2.85775E-05-2.85697E-05 6.66413E-09 1.36542E-18 3.11016E-18
 -1      2557 9.52404E-05-2.85766E-05-2.85702E-05 6.89300E-09 1.98319E-18 1.94690E-18
 -1      2558 9.52379E-05-2.85749E-05-2.85699E-05 7.50490E-09 8.94370E-20-1.96108E-18
 -1      2559 9.52388E-05-2.85760E-05-2.85698E-05 7.44920E-09 5.95731E-19-1.89952E-18
 -1      2560 9.52390E-05-2.85754E-05-2.85701E-05 8.04568E-09 6.15742E-19-4.74969E-19
 -1      2561 9.44775E-05-2.86981E-05-2.82032E-05 5.12018E-07 2.53046E-19 1.55151E-18
 -1      2562 9.46158E-05-2.85242E-05-2.83053E-05 4.20853E-07 3.14948E-19 1.50712E-18
 -1      2563 9.55046E-05-2.86275E-05-2.86729E-05 6.82406E-07 4.15435E-19 9.83209E-19
 -1      2564 5.75679E-05-3.58356E-05-9.22344E-06 5.14015E-05 6.79320E-19 1.78004E-18
 -1      2565 4.11683E-05-2.97411E-05-4.62185E-06 4.38639E-05 1.56913E-19 1.50370E-18
 -1      2566 1.34096E-04-5.74903E-05-3.31374E-05 3.34789E-05 1.26790E-18-2.42040E-18
 -1      2567 1.21331E-04-5.68848E-05-2.74960E-05 3.99087E-05 1.11173E-18-1.09108E-18
 -1      2568 1.02870E-04-5.20329E-05-2.18457E-05 4.96271E-05 9.05055E-19 1.22163E-18
 -1      2569 8.02648E-05-4.59959E-05-1.44696E-05 5.09517E-05 5.86994E-19 1.00305E-18
 -1      2570 2.77857E-05-2.20649E-05-2.16282E-06 3.61118E-05 4.36222E-20 7.27601E-19
 -1      2571 1.88657E-05-1.58662E-05-8.54040E-07 2.28966E-05-3.97788E-19 9.52489E-19
 -1      2572 4.15675E-05-2.26436E-05-7.58487E-06 4.05300E-05-2.81427E-19 1.21422E-18
 -1      2573 1.54556E-04-1.86250E-05-5.87378E-05 4.46759E-06 1.43911E-18-3.82859E-19
 -1      2574 1.55419E-04-1.21033E-05-6.19621E-05 3.82694E-06 2.00832E-18-2.41299E-19
 -1      2575 1.06659E-04-5.42747E-05-2.20846E-05-3.38701E-05 2.78293E-18 1.93769E-18
 -1      2576 1.26113E-04-5.99325E-05-2.85411E-05-2.69015E-05 2.74905E-18 8.53703E-19
 -1      2577 1.53771E-04-7.73134E-06-6.32182E-05 7.81833E-07 2.78886E-18-2.20493E-19
 -1      2578 1.56627E-04-9.27219E-06-6.36274E-05-9.30390E-07 3.36272E-18-6.76885E-19
 -1      2579 9.52368E-05-2.85734E-05-2.85700E-05-7.13350E-09 8.11318E-19 1.64236E-18
 -1      2580 8.67115E-05-9.86738E-06-3.29633E-05-1.93772E-06 8.19665E-19-1.22634E-18
 -1      2581 8.67455E-05-9.90961E-06-3.29663E-05-2.90244E-06 6.76527E-19-1.36114E-18
 -1      2582 8.79569E-05-1.18323E-05-3.26220E-05-3.17315E-06 6.19189E-19-1.30043E-18
 -1      2583 8.79149E-05-1.17771E-05-3.26318E-05-1.55771E-06 8.03523E-19-1.11882E-18
 -1      2584 1.55773E-04-3.73521E-05-5.09158E-05-7.33988E-07 3.03979E-19-7.82023E-19
 -1      2585 1.57163E-04-2.97001E-05-5.52279E-05 1.96686E-06 6.56874E-19-6.45651E-19
 -1      2586 1.44339E-04-5.47583E-05-3.83351E-05-2.34807E-05-1.53736E-19-1.29893E-18
 -1      2587 1.53726E-04-4.90238E-05-4.54470E-05-1.21809E-05 1.72159E-19-9.49100E-19
 -1      2588 1.18137E-04-5.64264E-05-2.63781E-05-4.13237E-05-7.18919E-19-1.85246E-18
 -1      2589 1.32881E-04-5.68361E-05-3.27505E-05-3.60012E-05-1.30231E-19-1.66484E-18
 -1      2590 3.98317E-05-2.70989E-05-5.01091E-06-4.15000E-05-1.15768E-18-3.08320E-18
 -1      2591 5.39714E-05-3.34133E-05-8.52157E-06-4.91669E-05-1.03063E-18-2.94535E-18
 -1      2592 1.85193E-05-1.38932E-05-1.46135E-06-1.53688E-05-5.55654E-19-3.15520E-18
 -1      2593 2.64638E-05-1.86288E-05-2.93258E-06-3.14555E-05-7.44542E-19-3.35213E-18
 -1      2594 2.30012E-05-1.59903E-05-2.46047E-06 1.34358E-05 2.08582E-20-3.14969E-18
 -1      2595 1.80339E-05-1.25219E-05-1.80145E-06 4.74972E-07 9.43449E-20-3.15477E-18
 -1      2596 9.54753E-05-5.31025E-05-1.82378E-05 3.78710E-05-3.94717E-19-1.13460E-18
 -1      2597 7.35532E-05-4.39410E-05-1.25568E-05 3.70189E-05-3.48342E-19-1.06599E-18
 -1      2598 5.22220E-05-3.42408E-05-7.61205E-06 3.53929E-05-2.53686E-19-1.94733E-18
 -1      2599 3.35585E-05-2.36169E-05-3.91076E-06 2.51436E-05 1.50772E-19-2.58430E-18
 -1      2600 1.39480E-04-6.86764E-05-3.06526E-05 2.40549E-05-7.89011E-19-7.55130E-19
 -1      2601 1.58296E-04-1.34222E-05-6.25912E-05-2.59602E-06 3.57278E-18-1.24270E-18
 -1      2602 1.56005E-04-1.85292E-05-5.93888E-05-3.03034E-06 3.29242E-18-1.53313E-18
 -1      2603 1.43661E-04-8.06878E-06-5.83357E-05-4.51038E-06 3.12957E-18-2.97414E-19
 -1      2604 6.54635E-05-3.64161E-05-1.19200E-05-3.52691E-05 1.98989E-18 2.39795E-18
 -1      2605 8.66123E-05-4.54078E-05-1.75237E-05-3.73613E-05 2.35560E-18 2.12669E-18
 -1      2606 9.59272E-05-4.20687E-05-2.26667E-05-3.60137E-05 2.46698E-18 1.61773E-18
 -1      2607 3.14564E-05-1.90965E-05-4.55912E-06-2.12572E-05-4.74338E-20 2.32976E-18
 -1      2608 4.62573E-05-2.82026E-05-7.46025E-06-3.12532E-05 9.31736E-19 2.92417E-18
 -1      2609 6.03377E-05-2.54345E-05-1.45732E-05-3.35009E-05 1.02025E-18 1.37749E-18
 -1      2610 3.38012E-05-1.24460E-05-8.64860E-06-1.61377E-05-4.49880E-19 2.05257E-18
 -1      2611 1.18864E-04-6.14990E-05-2.45007E-05 2.92671E-05 2.15146E-19-1.05445E-18
 -1      2612 1.15603E-04-5.65062E-05-2.51073E-05 3.19444E-05 8.15481E-19-7.29242E-20
 -1      2613 1.47865E-04-2.27947E-05-5.38850E-05 8.39048E-06 9.46348E-19 6.23522E-19
 -1      2614 8.97329E-05-1.37724E-05-3.25431E-05-6.02919E-06-3.19507E-20-1.44800E-18
 -1      2615 8.89330E-05-1.22110E-05-3.29362E-05-7.12734E-06 4.64545E-21-1.62067E-18
 -1      2616 8.98389E-05-1.31244E-05-3.29359E-05-8.14541E-06-2.08618E-19-1.64655E-18
 -1      2617 9.65641E-05-2.65140E-05-2.99898E-05 5.13508E-06 7.85808E-19 2.56908E-18
 -1      2618 9.64837E-05-2.54371E-05-3.04242E-05 6.18854E-06 9.63474E-19 2.09386E-18
 -1      2619 9.59299E-05-2.67822E-05-2.96099E-05 3.88662E-06 8.32508E-19 2.34874E-18
 -1      2620 2.49389E-05-1.01534E-05-5.70961E-06 1.35563E-05-6.43586E-19 1.08780E-18
 -1      2621 1.48861E-04-2.40833E-05-5.36855E-05-7.14385E-06 2.80580E-18-1.38786E-18
 -1      2622 9.54907E-05-2.92281E-05-2.84051E-05 7.72981E-07 2.35932E-19 9.47246E-19
 -1      2623 1.40328E-04-5.83318E-05-3.50652E-05 2.21135E-05 5.66083E-19-3.40391E-18
 -1      2624 1.04591E-04-4.43541E-05-2.51377E-05 3.49464E-05 1.22142E-18 1.95982E-19
 -1      2625 1.43029E-04-7.69827E-06-5.83082E-05 4.09379E-06 2.31727E-18 5.24155E-19
 -1      2626 9.52345E-05-2.85717E-05-2.85698E-05 6.27670E-09 5.16368E-19-1.34333E-18
 -1      2627 9.52356E-05-2.85723E-05-2.85700E-05 5.35498E-09 2.40705E-18-1.34633E-18
 -1      2628 9.52368E-05-2.85730E-05-2.85702E-05-7.87213E-09 7.07529E-19 8.45036E-19
 -1      2629 9.52365E-05-2.85733E-05-2.85699E-05 6.02348E-09 2.49605E-18-2.40275E-18
 -1      2630 9.52370E-05-2.85740E-05-2.85698E-05 6.64506E-09 7.10103E-19-1.06627E-18
 -1      2631 3.91933E-05-1.95996E-05-7.75441E-06-3.53667E-05-1.16562E-18-2.98304E-18
 -1      2632 9.52371E-05-2.85739E-05-2.85700E-05 7.70268E-09 4.42251E-19-1.01067E-18
 -1      2633 9.54034E-05-2.72318E-05-2.91919E-05 2.34018E-06 7.05201E-19 1.76124E-18
 -1      2634 9.57272E-05-2.70029E-05-2.94129E-05 3.15046E-06 8.18006E-19 2.05338E-18
 -1      2635 9.59616E-05-2.64978E-05-2.97809E-05 3.84169E-06 8.53548E-19 1.59134E-18
 -1      2636 9.57669E-05-2.71091E-05-2.94451E-05 2.46581E-06 6.33159E-19 1.32355E-18
 -1      2637 7.63132E-05-4.11120E-05-1.46497E-05 5.06916E-05 3.03026E-19 1.40629E-18
 -1      2638 1.14818E-04-5.63780E-05-2.47363E-05 4.24813E-05-1.61148E-19-1.00744E-18
 -1      2639 9.08522E-05-1.43068E-05-3.28644E-05-8.70153E-06-3.39678E-19-1.65201E-18
 -1      2640 9.21709E-05-1.57568E-05-3.28239E-05-9.65852E-06-4.86722E-19-1.68852E-18
 -1      2641 9.36251E-05-1.85014E-05-3.21820E-05-7.87349E-06-5.06708E-19-1.47669E-18
 -1      2642 9.14863E-05-1.57966E-05-3.24231E-05-7.14437E-06-2.58904E-19-1.53293E-18
 -1      2643 1.10551E-04-5.62762E-05-2.31764E-05-4.51934E-05-1.31841E-18-2.26131E-18
 -1      2644 1.21167E-04-5.90878E-05-2.68471E-05-3.85594E-05-1.41656E-18-1.43276E-18
 -1      2645 1.00831E-04-5.20080E-05-2.04606E-05-4.73489E-05-1.44567E-18-2.17227E-18
 -1      2646 8.00139E-05-3.26401E-05-2.00439E-05 3.70361E-05 1.23137E-18-4.91703E-19
 -1      2647 7.03684E-05-3.92166E-05-1.29682E-05-4.90134E-05-1.49628E-18-2.63766E-18
 -1      2648 1.41287E-04-5.89107E-05-3.51567E-05-2.37621E-05-9.59900E-19-7.77153E-19
 -1      2649 7.05577E-05-3.64151E-05-1.43904E-05 3.73707E-05 5.35537E-19-1.15387E-18
 -1      2650 3.64280E-05-1.65291E-05-8.00537E-06 2.14799E-05 7.17437E-19-2.60018E-18
 -1      2651 2.55449E-05-9.54340E-06-6.17892E-06-7.41391E-06-7.23022E-20-2.91358E-18
 -1      2652 1.51232E-04-4.54161E-05-4.54872E-05-2.26770E-06-4.27381E-19 1.64536E-19
 -1      2653 9.52350E-05-2.85721E-05-2.85698E-05 7.53753E-09-3.32577E-19-9.48489E-19
 -1      2654 9.52362E-05-2.85727E-05-2.85701E-05 4.57428E-09 3.34911E-18-1.79070E-18
 -1      2655 9.02408E-05-1.49970E-05-3.22636E-05 2.16184E-06 1.09755E-18-5.93886E-19
 -1      2656 8.98424E-05-1.45678E-05-3.22829E-05 1.21271E-06 1.00922E-18-6.89376E-19
 -1      2657 8.94611E-05-1.41204E-05-3.23014E-05 3.74893E-07 9.64555E-19-8.35338E-19
 -1      2658 8.91735E-05-1.38465E-05-3.23069E-05-5.24841E-07 9.09525E-19-8.46034E-19
 -1      2659 9.07590E-05-1.61515E-05-3.19661E-05 4.16781E-07 9.40769E-19-7.73696E-19
 -1      2660 9.24544E-05-1.78447E-05-3.20126E-05 5.76348E-06 1.29779E-18 3.60558E-19
 -1      2661 9.18145E-05-1.69802E-05-3.20926E-05 4.84673E-06 1.27138E-18 9.90483E-20
 -1      2662 9.39692E-05-2.00769E-05-3.17274E-05 7.11377E-06 1.30402E-18 7.63804E-19
 -1      2663 9.31690E-05-1.88454E-05-3.18670E-05 6.40639E-06 1.25501E-18 5.08620E-19
 -1      2664 9.38589E-05-2.02522E-05-3.15231E-05 5.07122E-06 1.12895E-18 4.68590E-19
 -1      2665 9.64585E-05-2.46756E-05-3.07564E-05 6.81196E-06 1.04059E-18 1.79060E-18
 -1      2666 9.58715E-05-2.33657E-05-3.11001E-05 7.47317E-06 1.18497E-18 1.43601E-18
 -1      2667 9.61093E-05-2.53315E-05-3.03140E-05 5.27492E-06 1.00314E-18 1.54728E-18
 -1      2668 9.52418E-05-2.85759E-05-2.85711E-05-1.14185E-09 4.38173E-19 5.80762E-19
 -1      2669 9.52417E-05-2.85758E-05-2.85711E-05-2.22854E-09-5.34861E-19 8.25117E-19
 -1      2670 9.50300E-05-2.27424E-05-3.09676E-05-3.50597E-06-3.76457E-19-1.11247E-18
 -1      2671 9.49087E-05-2.34968E-05-3.06177E-05-1.68697E-06-3.13133E-19-1.05325E-18
 -1      2672 6.83591E-05-3.31753E-05-1.44912E-05-4.58199E-05-1.50158E-18-2.60674E-18
 -1      2673 8.61489E-05-4.40666E-05-1.77220E-05-4.88947E-05-1.45478E-18-2.44401E-18
 -1      2674 9.47650E-05-2.40251E-05-3.03032E-05-1.81860E-07-2.33125E-19-8.78205E-19
 -1      2675 9.44571E-05-2.42401E-05-3.00955E-05 1.37856E-06-1.58220E-19-7.89019E-19
 -1      2676 9.40781E-05-2.25037E-05-3.06634E-05-1.31815E-06-2.02301E-19-1.11975E-18
 -1      2677 9.38785E-05-2.41620E-05-2.98794E-05 2.64357E-06-1.20839E-19-7.03838E-19
 -1      2678 9.34393E-05-2.39399E-05-2.97818E-05 4.03475E-06-3.95938E-20-6.72382E-19
 -1      2679 9.33738E-05-2.30742E-05-3.01113E-05 1.46635E-06-9.80189E-20-9.17935E-19
 -1      2680 9.24067E-05-2.33604E-05-2.96119E-05 5.16718E-06 5.70595E-20-5.48674E-19
 -1      2681 9.17369E-05-2.27319E-05-2.95694E-05 6.56110E-06 2.05240E-20-4.91036E-19
 -1      2682 9.18273E-05-2.24748E-05-2.96901E-05 3.83677E-06 1.60545E-20-6.51095E-19
 -1      2683 9.00765E-05-2.16417E-05-2.93737E-05 7.65395E-06-9.88191E-21-3.11567E-19
 -1      2684 8.89880E-05-2.05960E-05-2.93119E-05 9.18404E-06 2.25523E-20-3.05032E-19
 -1      2685 8.92409E-05-2.07953E-05-2.92756E-05 5.92566E-06 6.02250E-20-4.36609E-19
 -1      2686 8.64164E-05-1.89762E-05-2.89746E-05 1.03025E-05-7.21231E-20-8.91486E-20
 -1      2687 8.46551E-05-1.75578E-05-2.87632E-05 1.20513E-05 2.75736E-19-7.01176E-20
 -1      2688 8.51770E-05-1.80353E-05-2.86764E-05 7.83136E-06 1.28330E-19-4.96603E-19
 -1      2689 8.10086E-05-1.56282E-05-2.81236E-05 1.32041E-05 4.75612E-19-2.75186E-19
 -1      2690 7.85893E-05-1.41896E-05-2.75938E-05 1.50950E-05 4.92947E-19-5.13477E-19
 -1      2691 7.91944E-05-1.43772E-05-2.76084E-05 9.52932E-06 2.10913E-19-4.36288E-19
 -1      2692 7.31416E-05-1.21276E-05-2.62434E-05 1.65785E-05 4.44653E-19-6.54730E-19
 -1      2693 6.99516E-05-1.14365E-05-2.49447E-05 1.89209E-05 8.44021E-19-8.33825E-19
 -1      2694 7.04302E-05-1.02409E-05-2.55178E-05 1.11923E-05 2.79936E-19-9.91211E-19
 -1      2695 6.24845E-05-1.04395E-05-2.22358E-05 2.11904E-05 1.20112E-18-1.18188E-18
 -1      2696 5.94572E-05-1.30805E-05-1.94879E-05 2.41845E-05 1.37018E-18-1.56500E-18
 -1      2697 5.78912E-05-7.00794E-06-2.13120E-05 1.31917E-05 7.56956E-19-1.48877E-18
 -1      2698 9.60849E-05-2.79359E-05-2.92205E-05 1.22203E-06 5.75495E-19 8.27861E-19
 -1      2699 9.61932E-05-2.73728E-05-2.94612E-05 1.80000E-06 4.99054E-19 9.02158E-19
 -1      2700 9.52401E-05-2.85748E-05-2.85708E-05-6.77734E-09-1.31901E-19-1.35857E-19
 -1      2701 9.52395E-05-2.85743E-05-2.85708E-05-7.32956E-09-1.35488E-19-1.86696E-19
 -1      2702 8.99056E-05-3.11576E-05-2.43502E-05-3.46109E-05 1.32243E-18 6.80485E-19
 -1      2703 9.64463E-05-2.97990E-05-2.85781E-05 8.63898E-07 2.97669E-19 6.68671E-19
 -1      2704 9.64424E-05-2.94398E-05-2.86933E-05 6.88118E-07 2.84254E-19 7.59676E-19
 -1      2705 8.51446E-05-2.29381E-05-2.64856E-05-3.03328E-05-5.43239E-19 3.42519E-20
 -1      2706 8.41298E-05-1.92393E-05-2.77136E-05-2.72180E-05-1.23531E-18-9.20063E-19
 -1      2707 8.76663E-05-1.91880E-05-2.92474E-05-2.39193E-05-1.14615E-18-3.89509E-19
 -1      2708 8.78310E-05-1.87725E-05-2.96205E-05-2.09164E-05-1.17372E-18-5.18808E-20
 -1      2709 7.58970E-05-1.48191E-05-2.59418E-05-2.36865E-05-9.01389E-19-8.37901E-20
 -1      2710 9.09210E-05-2.01426E-05-3.02727E-05-1.80816E-05-1.21884E-18-5.38141E-19
 -1      2711 9.12469E-05-2.08237E-05-3.02341E-05-1.54195E-05-1.14051E-18-1.19990E-18
 -1      2712 8.24528E-05-1.58675E-05-2.83857E-05-1.79601E-05-1.26632E-18 4.24585E-19
 -1      2713 9.34171E-05-2.23250E-05-3.04234E-05-1.32230E-05-5.98455E-19-1.10142E-18
 -1      2714 9.35615E-05-2.31315E-05-3.02255E-05-1.10823E-05-1.10306E-19-1.46110E-18
 -1      2715 8.76666E-05-1.88995E-05-2.93809E-05-1.34185E-05-7.81666E-19 2.08618E-19
 -1      2716 9.48780E-05-2.42882E-05-3.02128E-05-9.49350E-06 2.09085E-19-1.83743E-18
 -1      2717 9.48377E-05-2.49101E-05-2.99975E-05-7.94921E-06 7.37845E-19-1.98600E-18
 -1      2718 9.10622E-05-2.17475E-05-2.96514E-05-9.90460E-06-2.63068E-19 2.24945E-19
 -1      2719 9.56384E-05-2.57784E-05-2.99069E-05-6.69390E-06 1.70803E-18-1.80878E-18
 -1      2720 9.55018E-05-2.62403E-05-2.97030E-05-5.52502E-06 2.38907E-18-1.33627E-18
 -1      2721 9.31482E-05-2.39763E-05-2.96102E-05-7.18408E-06 1.12718E-18-5.81483E-19
 -1      2722 9.59369E-05-2.68190E-05-2.95962E-05-4.62224E-06 2.12979E-18-1.48052E-18
 -1      2723 9.57658E-05-2.71203E-05-2.94317E-05-3.80676E-06 1.86687E-18-1.57021E-18
 -1      2724 9.43659E-05-2.55956E-05-2.94526E-05-5.09170E-06 2.01942E-18 1.70188E-19
 -1      2725 9.59798E-05-2.74897E-05-2.93338E-05-3.16886E-06 9.54328E-19-1.74378E-18
 -1      2726 9.58140E-05-2.76793E-05-2.92083E-05-2.60949E-06 2.45219E-19-1.72589E-18
 -1      2727 9.50048E-05-2.66781E-05-2.92718E-05-3.57138E-06 1.30804E-18-1.23554E-18
 -1      2728 9.59052E-05-2.79095E-05-2.91273E-05-2.16442E-06 4.06860E-19-8.41187E-19
 -1      2729 9.57619E-05-2.80259E-05-2.90344E-05-1.78415E-06 1.93686E-19-3.24539E-19
 -1      2730 9.53081E-05-2.73780E-05-2.91073E-05-2.48810E-06 7.88249E-19-1.19057E-18
 -1      2731 9.57889E-05-2.81672E-05-2.89710E-05-1.47596E-06 2.15383E-19 6.32893E-19
 -1      2732 9.56733E-05-2.82374E-05-2.89037E-05-1.21859E-06 4.33478E-19 8.03951E-19
 -1      2733 9.54280E-05-2.78219E-05-2.89715E-05-1.72609E-06 7.77837E-19 8.76326E-19
 -1      2734 9.56707E-05-2.83196E-05-2.88579E-05-1.01561E-06 3.09463E-19 9.31230E-19
 -1      2735 9.55838E-05-2.83606E-05-2.88115E-05-8.47427E-07 6.36198E-19 1.42481E-18
 -1      2736 9.54542E-05-2.80957E-05-2.88673E-05-1.20389E-06 4.05089E-19 1.13429E-18
 -1      2737 9.55670E-05-2.84141E-05-2.87751E-05-6.97292E-07 9.41871E-19 1.77547E-18
 -1      2738 9.54976E-05-2.84398E-05-2.87401E-05-5.76554E-07 1.68359E-18 1.83361E-18
 -1      2739 9.54380E-05-2.82662E-05-2.87877E-05-8.39179E-07 7.72373E-19 1.64303E-18
 -1      2740 9.54776E-05-2.84720E-05-2.87134E-05-4.73050E-07 1.11250E-18 1.40954E-18
 -1      2741 9.54262E-05-2.84875E-05-2.86886E-05-3.90735E-07 1.90712E-19 1.03759E-18
 -1      2742 9.54044E-05-2.83766E-05-2.87264E-05-5.76867E-07 9.21137E-19 1.81334E-18
 -1      2743 9.54071E-05-2.85069E-05-2.86692E-05-3.19033E-07-1.43041E-18 8.67502E-19
 -1      2744 9.53698E-05-2.85163E-05-2.86518E-05-2.62738E-07-1.61003E-18-6.05405E-20
 -1      2745 9.53675E-05-2.84453E-05-2.86812E-05-3.94283E-07-8.49103E-19-9.71196E-20
 -1      2746 9.53534E-05-2.85282E-05-2.86378E-05-2.12969E-07-3.83257E-20 1.33061E-20
 -1      2747 9.53268E-05-2.85341E-05-2.86256E-05-1.74363E-07 3.20726E-19-1.02691E-19
 -1      2748 9.53337E-05-2.84885E-05-2.86483E-05-2.67011E-07-8.30554E-19 2.09520E-19
 -1      2749 9.53137E-05-2.85414E-05-2.86156E-05-1.39792E-07-5.89180E-19-1.82934E-19
 -1      2750 9.52951E-05-2.85452E-05-2.86072E-05-1.13333E-07-1.75641E-18-6.35958E-19
 -1      2751 9.53056E-05-2.85159E-05-2.86245E-05-1.78224E-07-1.83046E-19-5.21576E-19
 -1      2752 9.52856E-05-2.85496E-05-2.86004E-05-9.04462E-08-1.82114E-18-9.92675E-19
 -1      2753 9.52733E-05-2.85522E-05-2.85948E-05-7.29800E-08-3.10246E-18-1.38377E-18
 -1      2754 9.52840E-05-2.85334E-05-2.86077E-05-1.17475E-07-2.09109E-18-1.26816E-18
 -1      2755 9.52658E-05-2.85552E-05-2.85897E-05-5.60815E-08-3.83528E-18-5.13796E-19
 -1      2756 9.52572E-05-2.85572E-05-2.85857E-05-4.34903E-08-2.53893E-18-3.17003E-19
 -1      2757 9.52676E-05-2.85448E-05-2.85957E-05-7.51506E-08-1.97191E-18 5.77571E-20
 -1      2758 9.52519E-05-2.85592E-05-2.85822E-05-3.19590E-08-1.44653E-18-1.53934E-18
 -1      2759 9.52464E-05-2.85608E-05-2.85796E-05-2.34680E-08-8.78308E-19-1.48896E-18
 -1      2760 9.52555E-05-2.85529E-05-2.85870E-05-4.49178E-08-2.51258E-18 4.85532E-19
 -1      2761 9.52429E-05-2.85622E-05-2.85772E-05-1.56885E-08 5.10731E-19-1.24576E-18
 -1      2762 9.52396E-05-2.85634E-05-2.85755E-05-1.00672E-08 1.17853E-18-3.05220E-19
 -1      2763 9.52470E-05-2.85584E-05-2.85810E-05-2.42673E-08 2.93552E-19-1.44506E-18
 -1      2764 9.52373E-05-2.85644E-05-2.85739E-05-4.93044E-09-7.27213E-19-2.39182E-19
 -1      2765 9.52356E-05-2.85654E-05-2.85729E-05-1.31340E-09-8.79069E-19-6.25903E-19
 -1      2766 9.52414E-05-2.85623E-05-2.85769E-05-1.03938E-08 1.91159E-19-5.92588E-19
 -1      2767 9.52342E-05-2.85662E-05-2.85719E-05 1.96643E-09 1.07875E-18-8.05763E-19
 -1      2768 9.52336E-05-2.85670E-05-2.85714E-05 4.17701E-09-2.82877E-19 1.65752E-19
 -1      2769 9.52380E-05-2.85651E-05-2.85741E-05-1.30936E-09 2.32163E-19-1.58641E-18
 -1      2770 9.52329E-05-2.85676E-05-2.85708E-05 6.06703E-09-4.03269E-19 7.50393E-19
 -1      2771 9.52329E-05-2.85683E-05-2.85705E-05 7.26171E-09 4.20615E-19-3.41918E-19
 -1      2772 9.52361E-05-2.85672E-05-2.85724E-05 4.30047E-09 3.13589E-19-1.20876E-18
 -1      2773 9.52326E-05-2.85688E-05-2.85702E-05 8.34697E-09-8.41616E-19-1.26734E-18
 -1      2774 9.52331E-05-2.85695E-05-2.85701E-05 8.90428E-09-1.34326E-18-2.88392E-18
 -1      2775 9.52352E-05-2.85688E-05-2.85714E-05 7.57727E-09-7.98847E-19-1.65905E-18
 -1      2776 9.52331E-05-2.85700E-05-2.85699E-05 9.30326E-09-1.04788E-18-2.76066E-18
 -1      2777 9.52338E-05-2.85706E-05-2.85699E-05 9.32356E-09-7.73621E-19-2.12079E-18
 -1      2778 9.52350E-05-2.85701E-05-2.85707E-05 9.23720E-09-1.36363E-18-2.61482E-18
 -1      2779 9.52340E-05-2.85711E-05-2.85698E-05 9.15554E-09-2.90165E-19-1.57213E-18
 -1      2780 9.52348E-05-2.85717E-05-2.85699E-05 8.77130E-09-1.23658E-18-9.24739E-19
 -1      2781 9.52354E-05-2.85714E-05-2.85703E-05 9.61849E-09-8.75494E-20-1.90204E-18
 -1      2782 9.52376E-05-2.85731E-05-2.85705E-05-8.24219E-09 5.99974E-19-4.94481E-20
 -1      2783 9.52365E-05-2.85722E-05-2.85704E-05-8.21197E-09 1.33310E-19 1.18518E-18
 -1      2784 9.52360E-05-2.85714E-05-2.85705E-05-8.41393E-09-5.60114E-19 5.22646E-19
 -1      2785 8.83584E-05-4.42236E-05-1.89524E-05 4.85023E-05-7.92293E-19 7.01343E-19
 -1      2786 6.92182E-05-3.38348E-05-1.45129E-05 4.72474E-05-8.32210E-19 1.81413E-18
 -1      2787 9.68324E-05-3.08586E-05-2.82902E-05 2.84071E-06 1.99589E-19 4.11142E-19
 -1      2788 9.69217E-05-3.07458E-05-2.83498E-05 2.21329E-06 2.26927E-19 6.26758E-19
 -1      2789 9.66853E-05-3.04575E-05-2.83995E-05 1.62633E-06 3.03152E-19 5.99199E-19
 -1      2790 9.66946E-05-3.01952E-05-2.84828E-05 1.18480E-06 3.08692E-19 5.95803E-19
 -1      2791 9.75705E-05-3.04911E-05-2.87575E-05 1.00106E-06 3.05365E-19 2.60900E-19
 -1      2792 9.80790E-05-3.13182E-05-2.86164E-05 1.88876E-06 3.16359E-19-3.43380E-20
 -1      2793 9.62323E-05-3.02678E-05-2.82724E-05 5.71938E-06-5.09558E-20 8.96184E-19
 -1      2794 9.66708E-05-3.06812E-05-2.82872E-05 5.11305E-06-7.31633E-20 5.47727E-19
 -1      2795 9.52368E-05-2.90230E-05-2.83651E-05 6.65641E-06-1.10221E-20 1.43894E-18
 -1      2796 9.58763E-05-2.97500E-05-2.83563E-05 6.34608E-06-4.72316E-20 1.16581E-18
 -1      2797 9.81630E-05-3.09205E-05-2.88025E-05 6.38931E-06-2.18811E-19 4.87655E-19
 -1      2798 9.38138E-05-2.72254E-05-2.85108E-05 6.66156E-06-1.81872E-19 1.56157E-18
 -1      2799 9.45758E-05-2.81731E-05-2.84825E-05 6.84337E-06-7.20756E-20 1.40871E-18
 -1      2800 9.71321E-05-2.92970E-05-2.90558E-05 7.29106E-06-2.37008E-19 6.72509E-19
 -1      2801 9.22498E-05-2.52539E-05-2.86770E-05 5.40284E-06 3.00047E-19 1.19437E-18
 -1      2802 9.29712E-05-2.62020E-05-2.86394E-05 6.18382E-06 1.56192E-19 1.50881E-18
 -1      2803 9.55900E-05-2.70669E-05-2.93588E-05 7.05431E-06 4.28861E-20 7.26107E-19
 -1      2804 9.10117E-05-2.36971E-05-2.88173E-05 2.88610E-06 8.13766E-19 4.04999E-19
 -1      2805 9.14879E-05-2.43540E-05-2.87850E-05 4.19865E-06 6.95238E-19 9.19605E-19
 -1      2806 9.39324E-05-2.47736E-05-2.96468E-05 5.34360E-06 7.67274E-19 4.24047E-19
 -1      2807 9.05540E-05-2.31086E-05-2.88891E-05-4.32128E-07 5.08561E-19 1.81945E-19
 -1      2808 9.06269E-05-2.32420E-05-2.88737E-05 1.15134E-06 5.85783E-19 1.31245E-19
 -1      2809 9.27431E-05-2.31566E-05-2.98445E-05 2.27779E-06 7.62613E-19-3.88473E-20
 -1      2810 9.10755E-05-2.37144E-05-2.88730E-05-3.76629E-06 8.57374E-19-1.82787E-19
 -1      2811 9.07119E-05-2.32755E-05-2.88771E-05-2.28051E-06 6.58239E-19-5.53988E-20
 -1      2812 9.25073E-05-2.28128E-05-2.98940E-05-1.48820E-06 7.60368E-19-2.10838E-19
 -1      2813 9.23967E-05-2.52802E-05-2.87833E-05-6.32739E-06 2.53127E-19-5.39276E-20
 -1      2814 9.17066E-05-2.44307E-05-2.87989E-05-5.26382E-06 5.95282E-19-8.77670E-20
 -1      2815 9.33267E-05-2.38665E-05-2.97831E-05-4.99322E-06 7.53321E-19 9.12806E-20
 -1      2816 9.40637E-05-2.72492E-05-2.86585E-05-7.65017E-06-1.07037E-19 3.90690E-19
 -1      2817 9.32418E-05-2.62694E-05-2.86722E-05-7.16700E-06-2.53717E-20-1.10201E-21
 -1      2818 9.48551E-05-2.59011E-05-2.95495E-05-7.40242E-06 8.34258E-20-1.56355E-19
 -1      2819 9.55929E-05-2.90397E-05-2.85422E-05-7.71740E-06-3.11619E-19 5.65226E-19
 -1      2820 9.48284E-05-2.81888E-05-2.85423E-05-7.78217E-06-6.23610E-20 1.01612E-18
 -1      2821 9.65128E-05-2.82007E-05-2.92620E-05-8.35034E-06-4.28205E-19 3.68753E-19
 -1      2822 9.66762E-05-3.02853E-05-2.84637E-05-6.84748E-06-3.10862E-19 8.71140E-19
 -1      2823 9.60881E-05-2.97088E-05-2.84456E-05-7.30209E-06-4.47704E-19 7.93183E-19
 -1      2824 9.77997E-05-3.01164E-05-2.89890E-05-7.98563E-06-4.04329E-19 1.02139E-18
 -1      2825 9.72351E-05-3.08959E-05-2.84326E-05-5.47832E-06-1.59184E-19 1.27357E-18
 -1      2826 9.68586E-05-3.06154E-05-2.83989E-05-6.12978E-06-6.65144E-20 1.07791E-18
 -1      2827 9.84820E-05-3.13053E-05-2.87756E-05-6.76049E-06-3.87849E-19 9.55685E-19
 -1      2828 9.73550E-05-3.09785E-05-2.84422E-05-3.99447E-06 1.62421E-19 1.96030E-18
 -1      2829 9.71652E-05-3.09348E-05-2.83996E-05-4.68018E-06 1.24652E-19 1.69754E-18
 -1      2830 9.85852E-05-3.17464E-05-2.86373E-05-5.17153E-06-3.39928E-19 1.38856E-18
 -1      2831 9.71880E-05-3.07206E-05-2.84779E-05-2.64993E-06 5.08817E-19 1.41507E-18
 -1      2832 9.71333E-05-3.08260E-05-2.84339E-05-3.26440E-06 6.27796E-19 1.47868E-18
 -1      2833 9.82798E-05-3.16185E-05-2.85670E-05-3.59825E-06 7.63967E-19 1.34511E-18
 -1      2834 9.68795E-05-3.03027E-05-2.85241E-05-1.56734E-06-8.87565E-21 4.59738E-19
 -1      2835 9.69070E-05-3.04772E-05-2.84848E-05-2.06030E-06 1.97965E-19 9.12373E-19
 -1      2836 9.77646E-05-3.11599E-05-2.85466E-05-2.25749E-06 8.34037E-19 8.65307E-19
 -1      2837 9.65351E-05-2.98560E-05-2.85689E-05-7.73404E-07 5.08053E-19 4.38392E-19
 -1      2838 9.66032E-05-3.00429E-05-2.85378E-05-1.13475E-06 1.93921E-19 4.16754E-19
 -1      2839 9.71983E-05-3.05766E-05-2.85557E-05-1.22990E-06 2.19667E-19 6.81469E-19
 -1      2840 9.62163E-05-2.94568E-05-2.86049E-05-2.39614E-07 6.06068E-20 1.12572E-18
 -1      2841 9.62975E-05-2.96238E-05-2.85832E-05-4.82686E-07 3.25543E-19 7.77795E-19
 -1      2842 9.66789E-05-3.00073E-05-2.85775E-05-5.09421E-07 2.16672E-19 9.31722E-19
 -1      2843 9.59504E-05-2.91375E-05-2.86294E-05 8.60986E-08-4.82218E-19 8.50155E-19
 -1      2844 9.60292E-05-2.92711E-05-2.86165E-05-6.22318E-08-1.46496E-19 6.98187E-19
 -1      2845 9.62513E-05-2.95245E-05-2.86007E-05-4.73673E-08 5.24253E-20 8.79412E-19
 -1      2846 9.57429E-05-2.89025E-05-2.86427E-05 2.59486E-07-3.47220E-19 8.02251E-19
 -1      2847 9.58121E-05-2.90010E-05-2.86370E-05 1.80673E-07-6.71798E-19 9.82753E-19
 -1      2848 9.59246E-05-2.91530E-05-2.86192E-05 2.18022E-07-4.72277E-19 2.31141E-19
 -1      2849 9.55883E-05-2.87414E-05-2.86466E-05 3.29774E-07-4.34442E-19 9.26976E-19
 -1      2850 9.56456E-05-2.88091E-05-2.86462E-05 2.98090E-07 1.80638E-19 5.47542E-19
 -1      2851 9.56885E-05-2.88885E-05-2.86307E-05 3.45277E-07-4.02279E-19 3.63862E-19
 -1      2852 9.54768E-05-2.86386E-05-2.86438E-05 3.35852E-07-3.84506E-19 4.16641E-19
 -1      2853 9.55226E-05-2.86821E-05-2.86468E-05 3.33521E-07-9.22324E-19 1.69429E-19
 -1      2854 9.55254E-05-2.87134E-05-2.86352E-05 3.82674E-07-9.87720E-20-7.24497E-19
 -1      2855 9.53983E-05-2.85780E-05-2.86366E-05 3.06056E-07 4.17560E-19-6.35766E-20
 -1      2856 9.54338E-05-2.86039E-05-2.86416E-05 3.20078E-07 4.96798E-19 7.25339E-19
 -1      2857 9.54167E-05-2.86061E-05-2.86342E-05 3.66618E-07-2.29415E-20-1.01677E-18
 -1      2858 9.53439E-05-2.85462E-05-2.86273E-05 2.59626E-07 4.53962E-19-2.05880E-19
 -1      2859 9.53709E-05-2.85600E-05-2.86330E-05 2.81162E-07 3.07880E-19-1.84742E-19
 -1      2860 9.53465E-05-2.85466E-05-2.86292E-05 3.22689E-07 6.61243E-19-3.45921E-20
 -1      2861 9.53066E-05-2.85326E-05-2.86173E-05 2.08713E-07 5.82412E-19-2.23647E-19
 -1      2862 9.53268E-05-2.85387E-05-2.86230E-05 2.32184E-07 9.49957E-19 1.67109E-19
 -1      2863 9.53023E-05-2.85187E-05-2.86221E-05 2.67696E-07 5.49676E-19 1.19422E-18
 -1      2864 9.52812E-05-2.85299E-05-2.86078E-05 1.60330E-07-1.95320E-19 9.77414E-19
 -1      2865 9.52962E-05-2.85314E-05-2.86130E-05 1.82529E-07 4.66617E-19 3.32107E-19
 -1      2866 9.52752E-05-2.85101E-05-2.86140E-05 2.11890E-07 5.34488E-21 1.49795E-18
 -1      2867 9.52642E-05-2.85329E-05-2.85992E-05 1.17996E-07-3.77051E-20 7.50148E-19
 -1      2868 9.52750E-05-2.85319E-05-2.86037E-05 1.37330E-07-7.14164E-19 9.12752E-19
 -1      2869 9.52588E-05-2.85123E-05-2.86059E-05 1.60910E-07-4.21656E-19 1.55497E-18
 -1      2870 9.52528E-05-2.85386E-05-2.85919E-05 8.30026E-08 8.21584E-19-4.72144E-19
 -1      2871 9.52605E-05-2.85364E-05-2.85956E-05 9.89055E-08 9.96044E-19 1.94861E-19
 -1      2872 9.52490E-05-2.85198E-05-2.85984E-05 1.17343E-07 2.60609E-19 5.33302E-19
 -1      2873 9.52454E-05-2.85449E-05-2.85860E-05 5.53242E-08 2.56680E-19 1.53311E-19
 -1      2874 9.52506E-05-2.85424E-05-2.85889E-05 6.78333E-08 1.42615E-19-4.53612E-19
 -1      2875 9.52433E-05-2.85292E-05-2.85919E-05 8.18784E-08 5.09267E-19-1.18215E-19
 -1      2876 9.52406E-05-2.85509E-05-2.85813E-05 3.42415E-08-1.04424E-18 1.16513E-18
 -1      2877 9.52441E-05-2.85484E-05-2.85835E-05 4.37091E-08-2.44745E-19 3.43286E-19
 -1      2878 9.52400E-05-2.85385E-05-2.85865E-05 5.41230E-08-4.16106E-19 8.02284E-19
 -1      2879 9.52377E-05-2.85562E-05-2.85778E-05 1.87404E-08 6.64022E-19 1.09691E-18
 -1      2880 9.52398E-05-2.85540E-05-2.85794E-05 2.56479E-08-7.73838E-19 9.54188E-19
 -1      2881 9.52381E-05-2.85468E-05-2.85821E-05 3.31441E-08-8.38292E-19 4.79233E-19
 -1      2882 9.52360E-05-2.85605E-05-2.85753E-05 7.75442E-09 1.74657E-18 7.74283E-19
 -1      2883 9.52372E-05-2.85586E-05-2.85764E-05 1.26013E-08 2.00070E-18 1.05339E-18
 -1      2884 9.52371E-05-2.85537E-05-2.85787E-05 1.78124E-08 1.12009E-18 1.34525E-18
 -1      2885 9.52352E-05-2.85639E-05-2.85734E-05 3.01593E-10 5.01965E-19-6.47607E-20
 -1      2886 9.52358E-05-2.85624E-05-2.85742E-05 3.54238E-09 1.02548E-18 4.01996E-19
 -1      2887 9.52366E-05-2.85592E-05-2.85761E-05 7.00624E-09 1.79524E-18 2.88761E-18
 -1      2888 9.52350E-05-2.85667E-05-2.85722E-05-4.44750E-09-2.90621E-19-3.28208E-19
 -1      2889 9.52351E-05-2.85654E-05-2.85727E-05-2.43363E-09-2.36549E-20-1.39513E-20
 -1      2890 9.52364E-05-2.85634E-05-2.85742E-05-2.77227E-10 1.01258E-19 1.72032E-18
 -1      2891 9.52352E-05-2.85688E-05-2.85713E-05-7.15367E-09-7.15344E-19-3.98086E-19
 -1      2892 9.52350E-05-2.85678E-05-2.85716E-05-6.07855E-09-3.78594E-19-5.62246E-19
 -1      2893 9.52364E-05-2.85667E-05-2.85728E-05-4.86974E-09-2.64745E-19 1.55043E-18
 -1      2894 9.52358E-05-2.85706E-05-2.85708E-05-8.27259E-09-6.90106E-19 3.44888E-19
 -1      2895 9.52354E-05-2.85697E-05-2.85710E-05-7.91543E-09-1.28838E-18-5.63824E-19
 -1      2896 9.52367E-05-2.85692E-05-2.85718E-05-7.43412E-09-7.43514E-19 5.50707E-19
 -1      2897 9.52372E-05-2.85713E-05-2.85711E-05-8.46529E-09-1.31436E-18 7.84218E-19
 -1      2898 9.52415E-05-2.85757E-05-2.85711E-05-3.29598E-09-1.01625E-18 8.08726E-20
 -1      2899 9.52412E-05-2.85754E-05-2.85710E-05-4.27187E-09-3.12926E-19-1.15149E-18
 -1      2900 9.52417E-05-2.85740E-05-2.85719E-05-2.88334E-09 3.61552E-19 7.10421E-19
 -1      2901 1.43552E-04-4.03919E-05-4.48891E-05-5.66936E-06 1.21787E-18-1.41984E-18
 -1      2902 1.43183E-04-4.85712E-05-4.05820E-05 3.47871E-07 8.02405E-19-1.67416E-18
 -1      2903 9.42116E-05-2.00632E-05-3.18027E-05-6.60217E-06-5.17183E-19-1.38990E-18
 -1      2904 9.47177E-05-2.17419E-05-3.12771E-05-4.68959E-06-4.91829E-19-1.24838E-18
 -1      2905 9.39227E-05-2.08713E-05-3.13010E-05-4.05459E-06-3.43754E-19-1.28440E-18
 -1      2906 9.30663E-05-1.85066E-05-3.19646E-05-6.44423E-06-3.60472E-19-1.40245E-18
 -1      2907 9.52385E-05-2.85738E-05-2.85706E-05-7.97779E-09-1.28394E-19 1.24480E-19
 -1      2908 3.77805E-05-1.32432E-05-9.92663E-06-2.83503E-05-9.47724E-19-2.81596E-18
 -1      2909 4.98888E-05-2.19704E-05-1.15814E-05-4.02417E-05-1.27309E-18-2.78928E-18
 -1      2910 9.52420E-05-2.85761E-05-2.85711E-05 1.15926E-09-5.55693E-19 2.66185E-18
 -1      2911 9.52419E-05-2.85761E-05-2.85711E-05 1.57782E-11 1.51722E-21 1.47197E-18
 -1      2912 9.52421E-05-2.85742E-05-2.85719E-05-6.63645E-10 5.14326E-19 9.25401E-19
 -1      2913 9.52419E-05-2.85761E-05-2.85710E-05 3.45609E-09 7.66188E-19 1.59816E-18
 -1      2914 9.52420E-05-2.85762E-05-2.85710E-05 2.34273E-09-1.06419E-19 2.67047E-18
 -1      2915 9.52422E-05-2.85745E-05-2.85719E-05 1.67950E-09 1.30070E-19 2.80538E-18
 -1      2916 9.52414E-05-2.85759E-05-2.85709E-05 5.66154E-09 1.98196E-18 1.20971E-18
 -1      2917 9.52417E-05-2.85762E-05-2.85709E-05 4.63560E-09 1.37763E-18 1.80173E-18
 -1      2918 9.52420E-05-2.85747E-05-2.85717E-05 4.05886E-09 5.20128E-19 1.97407E-18
 -1      2919 9.52403E-05-2.85753E-05-2.85707E-05 7.48399E-09 1.00180E-18 4.40728E-19
 -1      2920 9.52409E-05-2.85758E-05-2.85708E-05 6.70254E-09 2.53256E-18 5.29594E-19
 -1      2921 9.52414E-05-2.85746E-05-2.85715E-05 6.31236E-09 1.43311E-18 1.30979E-18
 -1      2922 9.52386E-05-2.85743E-05-2.85704E-05 8.60289E-09-7.67319E-19-3.01738E-18
 -1      2923 9.52396E-05-2.85750E-05-2.85705E-05 8.22249E-09 1.28043E-19-7.05447E-19
 -1      2924 9.52400E-05-2.85742E-05-2.85711E-05 8.13055E-09 1.69994E-19-1.41119E-18
 -1      2925 9.62275E-05-2.89638E-05-2.88413E-05 6.88020E-07 4.56873E-19 7.21811E-19
 -1      2926 9.62626E-05-2.85177E-05-2.90054E-05 8.48012E-07 6.68719E-19 8.16609E-19
 -1      2927 9.66682E-05-2.81536E-05-2.93761E-05 1.17106E-06 6.18477E-19 5.22024E-19
 -1      2928 1.40689E-04-5.69209E-05-3.64761E-05 1.32071E-05 2.45190E-19-2.53146E-18
 -1      2929 1.33744E-04-5.89850E-05-3.17859E-05 2.36529E-05-4.12399E-20-3.17876E-18
 -1      2930 3.13237E-05-9.26203E-06-8.84190E-06 2.28448E-05-8.84038E-19 6.80591E-19
 -1      2931 2.89380E-05-5.52797E-06-9.50004E-06 5.16090E-06-1.05299E-18 1.23497E-18
 -1      2932 5.24329E-05-2.43352E-05-1.17585E-05 4.38859E-05-6.87367E-19 1.67882E-18
 -1      2933 4.00328E-05-1.60009E-05-9.68598E-06 3.44209E-05-4.41039E-19 4.95091E-19
 -1      2934 1.21584E-04-5.75305E-05-2.77560E-05 3.50395E-05-4.55068E-19-3.50621E-18
 -1      2935 1.07334E-04-5.22935E-05-2.30711E-05 4.21239E-05-6.56556E-19-1.10751E-18
 -1      2936 1.37743E-04-1.87478E-05-5.17546E-05-1.05092E-05 2.63575E-18-9.55083E-19
 -1      2937 1.40928E-04-2.93761E-05-4.82168E-05-1.01965E-05 1.89471E-18-1.15112E-18
 -1      2938 1.35960E-04-3.43151E-05-4.37796E-05-1.06707E-05 1.02067E-18-5.18596E-19
 -1      2939 9.52409E-05-2.85753E-05-2.85710E-05-5.20845E-09 6.82720E-20-1.57545E-18
 -1      2940 9.52405E-05-2.85750E-05-2.85709E-05-6.01391E-09 5.55602E-19-7.63783E-19
 -1      2941 9.52403E-05-2.85735E-05-2.85715E-05-6.56621E-09-7.27126E-19 2.75428E-19
 -1      2942 9.52411E-05-2.85738E-05-2.85717E-05-4.88042E-09 5.11986E-19-1.19453E-18
 -1      2943 1.41941E-04-2.71082E-05-4.94826E-05 1.10616E-05 2.10276E-19 1.34276E-18
 -1      2944 1.38129E-04-1.75812E-05-5.24783E-05 1.05959E-05 1.03804E-18 1.25451E-18
 -1      2945 6.16224E-05-2.21803E-05-1.59959E-05 3.27416E-05 1.28537E-18-1.33228E-18
 -1      2946 1.35593E-04-6.06591E-05-3.18090E-05-2.56779E-05-1.20247E-18-7.31413E-19
 -1      2947 1.42327E-04-5.84474E-05-3.65637E-05-1.57263E-05-1.13545E-18-2.87779E-19
 -1      2948 9.52362E-05-2.85730E-05-2.85700E-05 8.40950E-09-1.06302E-18-1.09583E-18
 -1      2949 1.45682E-04-5.06108E-05-4.07301E-05-1.90949E-06-9.29989E-19 6.42686E-19
 -1      2950 1.44918E-04-4.06897E-05-4.54293E-05 6.04599E-06-3.77406E-19 8.59844E-19
 -1      2951 1.32885E-04-8.82732E-06-5.37626E-05 7.74108E-06 1.73981E-18 1.02904E-18
 -1      2952 1.31476E-04-5.29768E-06-5.48218E-05 1.87166E-06 2.16375E-18 8.54474E-19
 -1      2953 3.16698E-05-5.68988E-06-1.05247E-05 2.13563E-06 4.81671E-19-2.42018E-18
 -1      2954 3.18832E-05-6.79409E-06-1.01080E-05-1.44038E-05-2.04294E-19-2.42040E-18
 -1      2955 9.67340E-05-3.08509E-05-2.82470E-05 4.30774E-06 1.57950E-19 6.94754E-19
 -1      2956 9.69726E-05-3.09656E-05-2.82848E-05 3.60883E-06 2.93925E-19 6.47120E-19
 -1      2957 9.84790E-05-3.17979E-05-2.85758E-05 3.25591E-06 2.87518E-19 4.99601E-19
 -1      2958 9.85751E-05-3.17314E-05-2.86378E-05 4.87784E-06 1.02852E-19 3.13237E-19
 -1      2959 9.12323E-05-1.62098E-05-3.21764E-05 4.01988E-06 1.25830E-18-1.15769E-19
 -1      2960 9.07217E-05-1.55945E-05-3.22190E-05 3.03656E-06 1.10547E-18-3.99062E-19
 -1      2961 9.16423E-05-1.71880E-05-3.18997E-05 2.07445E-06 1.04606E-18-4.51627E-19
 -1      2962 9.26801E-05-1.85321E-05-3.17640E-05 3.70467E-06 1.10687E-18 2.69677E-20
 -1      2963 1.33066E-04-5.77815E-06-5.52951E-05-3.51557E-06 2.58747E-18 5.43425E-19
 -1      2964 1.35167E-04-9.69052E-06-5.43695E-05-8.03071E-06 2.84412E-18-2.29969E-19
 -1      2965 8.91025E-05-1.38888E-05-3.22549E-05-3.88149E-06 3.47027E-19-1.27112E-18
 -1      2966 8.95067E-05-1.43685E-05-3.22335E-05-4.52941E-06 1.04411E-19-1.32272E-18
 -1      2967 6.70359E-05-2.32318E-05-1.85122E-05-3.28240E-05 7.41154E-19 9.03996E-19
 -1      2968 7.94871E-05-2.32995E-05-2.38459E-05-3.18649E-05-1.96088E-19 3.69518E-19
 -1      2969 6.57486E-05-1.45134E-05-2.13739E-05-2.69541E-05-1.22251E-18-3.20973E-19
 -1      2970 5.20748E-05-1.51206E-05-1.47363E-05-2.65598E-05-2.22240E-19 1.02703E-18
 -1      2971 9.52372E-05-2.85734E-05-2.85702E-05 8.99228E-09-4.00901E-19-2.82844E-18
 -1      2972 9.00840E-05-1.50463E-05-3.21836E-05-4.89345E-06 6.14885E-21-1.34043E-18
 -1      2973 9.08398E-05-1.59323E-05-3.21352E-05-5.44895E-06-1.10461E-19-1.35245E-18
 -1      2974 9.06233E-05-1.62387E-05-3.18467E-05-4.07392E-06-2.25624E-20-1.11363E-18
 -1      2975 9.00845E-05-1.54278E-05-3.19851E-05-1.10321E-06 8.62549E-19-7.94170E-19
 -1      2976 8.89290E-05-1.35737E-05-3.23074E-05-1.26274E-06 8.33201E-19-9.06438E-19
 -1      2977 8.88048E-05-1.34889E-05-3.23040E-05-2.07378E-06 7.37524E-19-1.11150E-18
 -1      2978 9.49872E-05-2.17127E-05-3.13957E-05 7.44263E-06 1.24534E-18 1.13663E-18
 -1      2979 9.81846E-05-4.83733E-05-2.11351E-05-4.34605E-05-1.49904E-18-2.14072E-18
 -1      2980 9.62586E-05-2.64990E-05-2.99073E-05 2.43058E-06 6.18171E-19 7.61721E-19
 -1      2981 9.59944E-05-2.65164E-05-2.97739E-05 2.62877E-06 5.55771E-19 1.01387E-18
 -1      2982 1.26541E-04-5.70113E-05-2.96285E-05 2.57770E-05-5.51471E-19-3.31378E-18
 -1      2983 9.52387E-05-2.85728E-05-2.85711E-05-7.99282E-09-6.95705E-19 4.73088E-19
 -1      2984 9.70842E-05-2.94347E-05-2.90045E-05 7.27311E-07 4.63088E-19 4.37165E-19
 -1      2985 6.61479E-05-2.76719E-05-1.59796E-05-4.04321E-05-1.25308E-18-2.74470E-18
 -1      2986 1.25325E-04-6.56317E-06-5.13298E-05-6.49155E-07 2.14553E-18 8.54444E-19
 -1      2987 9.93504E-05-4.65612E-05-2.23290E-05 4.17009E-05-1.05561E-18-9.92934E-19
 -1      2988 1.29094E-04-1.38774E-05-4.97920E-05 9.78744E-06 1.05233E-18 1.40835E-18
 -1      2989 1.38554E-04-5.17448E-05-3.72467E-05 3.87722E-06 4.00021E-19-1.68771E-18
 -1      2990 6.70285E-05-2.83651E-05-1.60283E-05 4.25551E-05-1.17843E-18 1.76426E-18
 -1      2991 1.29900E-04-1.57768E-05-4.92977E-05-1.06350E-05 2.15189E-18-3.38496E-19
 -1      2992 8.87620E-05-1.34506E-05-3.22916E-05-2.68003E-06 6.83025E-19-1.07473E-18
 -1      2993 8.88684E-05-1.36104E-05-3.22813E-05-3.40208E-06 4.96143E-19-1.19391E-18
 -1      2994 8.98712E-05-1.53189E-05-3.19284E-05-3.36240E-06 3.04312E-19-1.08198E-18
 -1      2995 8.97375E-05-1.51024E-05-3.19709E-05-2.37595E-06 6.43050E-19-1.00351E-18
 -1      2996 4.27358E-05-1.15542E-05-1.27029E-05 2.63939E-05-8.07117E-19 8.60268E-19
 -1      2997 4.21412E-05-9.51686E-06-1.34194E-05-1.92577E-05-3.79285E-19-2.25395E-18
 -1      2998 9.59585E-05-2.60895E-05-2.99215E-05 3.24565E-06 6.88679E-19 1.11826E-18
 -1      2999 9.52375E-05-2.85729E-05-2.85705E-05 9.27543E-09 1.11445E-19-3.52969E-18
 -1      3000 3.89652E-05-6.93788E-06-1.30484E-05 1.14595E-05 7.82606E-19-2.58144E-18
 -1      3001 4.34091E-05-5.10085E-06-1.61333E-05 5.51064E-06 5.55310E-19-2.10202E-18
 -1      3002 9.52931E-05-2.28108E-05-3.10351E-05 5.90193E-06 1.09181E-18 9.92060E-19
 -1      3003 1.38380E-04-3.47645E-05-4.46914E-05 1.02300E-05-2.40557E-19 1.62599E-18
 -1      3004 5.67127E-05-1.52533E-05-1.74457E-05 2.77630E-05 1.43382E-18-1.66294E-18
 -1      3005 4.49016E-05-1.61855E-05-1.17638E-05 2.68379E-05 9.74194E-19-2.45131E-18
 -1      3006 1.26497E-04-5.91549E-05-2.87522E-05-3.12866E-05-1.35652E-18-9.32319E-19
 -1      3007 1.41019E-04-5.39432E-05-3.74045E-05-5.95865E-06-1.10585E-18 3.96623E-19
 -1      3008 3.36892E-05-5.96892E-06-1.09602E-05-7.27999E-06-9.34701E-19 1.25488E-18
 -1      3009 4.10599E-05-1.05522E-05-1.26778E-05-1.90105E-05-2.80580E-19 1.30528E-18
 -1      3010 4.96198E-05-1.00969E-05-1.65945E-05-1.99183E-05-5.57136E-19 7.94517E-19
 -1      3011 3.76608E-05-5.08537E-06-1.33723E-05 1.15031E-06-1.37080E-18 1.06440E-18
 -1      3012 9.48758E-05-2.24157E-05-3.10881E-05 4.39381E-06 9.57939E-19 5.20023E-19
 -1      3013 9.43529E-05-2.14435E-05-3.12484E-05 3.87705E-06 9.64896E-19 3.51278E-19
 -1      3014 9.60134E-05-2.57316E-05-3.00953E-05 4.43643E-06 8.96522E-19 1.39756E-18
 -1      3015 9.71518E-05-4.49708E-05-2.21468E-05-4.02906E-05-1.67342E-18-1.67591E-18
 -1      3016 1.11599E-04-5.38027E-05-2.44896E-05-3.86905E-05-1.67416E-18-1.46054E-18
 -1      3017 9.52424E-05-2.85728E-05-2.85727E-05 2.00939E-09 3.53519E-20 2.89595E-18
 -1      3018 9.52424E-05-2.85727E-05-2.85727E-05 8.67133E-10 3.50245E-19 3.12462E-18
 -1      3019 9.64198E-05-2.65466E-05-2.99635E-05 1.91047E-06 6.65346E-19 5.23668E-19
 -1      3020 9.61731E-05-2.54935E-05-3.02822E-05 2.80286E-06 7.07375E-19 6.53550E-19
 -1      3021 1.28378E-04-5.63059E-05-3.13560E-05 1.83687E-05 8.70326E-20-2.00303E-18
 -1      3022 1.20060E-04-5.36609E-05-2.79861E-05 2.70445E-05-3.28265E-19-2.62404E-18
 -1      3023 9.29595E-05-2.22419E-05-3.03060E-05 8.29433E-08-1.17918E-19-8.95575E-19
 -1      3024 9.23690E-05-2.22715E-05-3.00601E-05 1.33536E-06-4.51740E-20-8.21367E-19
 -1      3025 9.14816E-05-2.20260E-05-2.97789E-05 2.12251E-06 6.56372E-20-7.68081E-19
 -1      3026 9.04401E-05-2.15228E-05-2.95652E-05 3.14059E-06 1.25623E-19-6.73620E-19
 -1      3027 9.12774E-05-2.12974E-05-2.99543E-05 7.65879E-07 5.43183E-20-8.26597E-19
 -1      3028 8.89013E-05-2.06907E-05-2.92593E-05 3.65427E-06 5.03472E-20-5.79337E-19
 -1      3029 8.72249E-05-1.96549E-05-2.90033E-05 4.48911E-06 3.96716E-20-6.17363E-19
 -1      3030 8.89443E-05-2.03526E-05-2.93419E-05 1.90515E-06 1.07440E-19-7.80236E-19
 -1      3031 8.48388E-05-1.82584E-05-2.85786E-05 4.66658E-06 1.77538E-19-6.90617E-19
 -1      3032 8.22370E-05-1.66949E-05-2.81565E-05 5.30222E-06 1.53273E-19-6.75907E-19
 -1      3033 8.51894E-05-1.83057E-05-2.85804E-05 2.28328E-06 1.17301E-19-7.95683E-19
 -1      3034 7.89043E-05-1.49042E-05-2.74963E-05 5.06651E-06-4.69475E-20-5.11004E-19
 -1      3035 7.52442E-05-1.30106E-05-2.67608E-05 5.44006E-06 8.37074E-20-6.04173E-19
 -1      3036 7.97176E-05-1.53279E-05-2.74614E-05 1.69152E-06 1.12273E-19-6.18774E-19
 -1      3037 7.02371E-05-1.07896E-05-2.55438E-05 4.68270E-06 3.00366E-20-8.85421E-19
 -1      3038 6.47578E-05-8.74654E-06-2.40301E-05 4.80361E-06 2.26217E-19-1.08587E-18
 -1      3039 7.17888E-05-1.15943E-05-2.55707E-05-1.84519E-07-2.18923E-19-9.56474E-19
 -1      3040 5.86050E-05-6.87486E-06-2.22039E-05 4.69206E-06 4.41628E-19-1.39715E-18
 -1      3041 5.12313E-05-5.58736E-06-1.93296E-05 4.78141E-06 6.51474E-19-1.74086E-18
 -1      3042 4.72943E-05-4.98372E-06-1.74496E-05-4.55085E-06 3.71682E-19-1.70645E-18
 -1      3043 6.11682E-05-7.76772E-06-2.24758E-05-2.62857E-06 5.64270E-20-1.09955E-18
 -1      3044 9.19108E-05-1.80753E-05-3.16501E-05 3.57251E-07 9.60584E-19-7.19015E-19
 -1      3045 9.14866E-05-1.76284E-05-3.16700E-05-4.19072E-07 8.34892E-19-7.69349E-19
 -1      3046 9.91266E-05-2.96575E-05-2.97521E-05 7.78729E-06-2.72182E-19 5.12968E-19
 -1      3047 9.98058E-05-3.08520E-05-2.95777E-05 7.53031E-06-2.01851E-19 5.11670E-19
 -1      3048 6.50976E-05-1.08057E-05-2.30841E-05-1.94921E-05-1.43759E-18 5.96258E-19
 -1      3049 6.88340E-05-1.03766E-05-2.50042E-05-1.68116E-05-9.51933E-19 5.31169E-19
 -1      3050 7.50786E-05-1.25045E-05-2.67730E-05-1.50444E-05-1.41188E-18-8.60930E-20
 -1      3051 7.82809E-05-1.39844E-05-2.76250E-05-1.30078E-05-1.64137E-18 1.81126E-19
 -1      3052 6.63891E-05-8.81864E-06-2.44052E-05-1.09565E-05-1.47387E-18-2.68893E-19
 -1      3053 8.25906E-05-1.62037E-05-2.84554E-05-1.17513E-05-1.17450E-18-6.78768E-20
 -1      3054 8.48370E-05-1.78487E-05-2.87715E-05-1.00422E-05-4.95249E-19 8.43873E-20
 -1      3055 7.65350E-05-1.30579E-05-2.70823E-05-9.12078E-06-1.32616E-18 3.91008E-20
 -1      3056 8.76081E-05-1.96814E-05-2.91154E-05-9.05637E-06-2.37927E-19 2.94806E-20
 -1      3057 8.89698E-05-2.09839E-05-2.91813E-05-7.71263E-06-1.66735E-19 1.00842E-19
 -1      3058 8.33844E-05-1.71457E-05-2.83177E-05-7.53911E-06-3.10396E-19-3.50357E-19
 -1      3059 9.08597E-05-2.24571E-05-2.93135E-05-6.83138E-06 6.29420E-19 1.90875E-19
 -1      3060 9.17104E-05-2.34739E-05-2.92750E-05-5.72581E-06 1.37093E-18 3.72904E-19
 -1      3061 8.79341E-05-2.05200E-05-2.88485E-05-6.03953E-06 2.89159E-19 5.33371E-19
 -1      3062 9.28885E-05-2.45212E-05-2.92952E-05-5.01085E-06 1.87576E-18 3.15828E-19
 -1      3063 9.33536E-05-2.52219E-05-2.92198E-05-4.17864E-06 2.18178E-18-4.55402E-20
 -1      3064 9.09229E-05-2.31060E-05-2.90365E-05-4.67387E-06 1.83546E-18-6.88919E-19
 -1      3065 9.40639E-05-2.59320E-05-2.91931E-05-3.61928E-06 1.61057E-18-4.96318E-19
 -1      3066 9.42994E-05-2.63987E-05-2.91140E-05-3.01035E-06 5.41436E-19-7.24733E-19
 -1      3067 9.27659E-05-2.49320E-05-2.90542E-05-3.52850E-06 1.46733E-18-6.87465E-19
 -1      3068 9.47160E-05-2.68672E-05-2.90720E-05-2.58570E-06 8.16290E-19-3.48472E-19
 -1      3069 9.48221E-05-2.71713E-05-2.90022E-05-2.14884E-06 1.65792E-18 1.84262E-19
 -1      3070 9.38706E-05-2.61752E-05-2.90017E-05-2.61461E-06 1.00628E-18 1.23192E-20
 -1      3071 9.50595E-05-2.74752E-05-2.89596E-05-1.83340E-06 1.09923E-18 6.45744E-19
 -1      3072 9.50969E-05-2.76705E-05-2.89028E-05-1.52429E-06 8.32014E-19 1.02731E-18
 -1      3073 9.45151E-05-2.70031E-05-2.89275E-05-1.91105E-06 1.74778E-18 6.67677E-19
 -1      3074 9.52233E-05-2.78572E-05-2.88669E-05-1.30423E-06 6.60155E-19 6.57039E-19
 -1      3075 9.52265E-05-2.79780E-05-2.88245E-05-1.09446E-06 7.80653E-20 9.21228E-19
 -1      3076 9.48741E-05-2.75362E-05-2.88555E-05-1.39364E-06 6.34424E-19 9.39924E-19
 -1      3077 9.52969E-05-2.81056E-05-2.87931E-05-9.23681E-07 2.15070E-19 1.31790E-18
 -1      3078 9.52853E-05-2.81870E-05-2.87589E-05-7.68123E-07 8.39540E-19 1.57470E-18
 -1      3079 9.50727E-05-2.78860E-05-2.87922E-05-1.00898E-06 4.98248E-19 1.18569E-18
 -1      3080 9.53204E-05-2.82686E-05-2.87341E-05-6.45270E-07 1.01380E-18 1.02525E-18
 -1      3081 9.53035E-05-2.83205E-05-2.87086E-05-5.36133E-07 5.49644E-19 9.77068E-19
 -1      3082 9.51804E-05-2.81207E-05-2.87386E-05-7.18681E-07 5.10989E-19 5.39958E-19
 -1      3083 9.53189E-05-2.83727E-05-2.86894E-05-4.47811E-07-7.07942E-19 1.32552E-19
 -1      3084 9.53018E-05-2.84061E-05-2.86706E-05-3.71248E-07-1.53431E-18-1.85155E-19
 -1      3085 9.52327E-05-2.82734E-05-2.86962E-05-5.07736E-07-8.42214E-19-1.24376E-18
 -1      3086 9.53069E-05-2.84396E-05-2.86561E-05-3.07915E-07-1.37617E-18-1.94264E-19
 -1      3087 9.52918E-05-2.84614E-05-2.86423E-05-2.54179E-07-4.31069E-19 9.73873E-20
 -1      3088 9.52549E-05-2.83730E-05-2.86634E-05-3.55117E-07-1.01641E-18-8.74730E-19
 -1      3089 9.52919E-05-2.84831E-05-2.86314E-05-2.08900E-07-8.89815E-19 1.56875E-19
 -1      3090 9.52798E-05-2.84974E-05-2.86214E-05-1.71253E-07-1.70412E-18-1.99302E-18
 -1      3091 9.52617E-05-2.84384E-05-2.86384E-05-2.45112E-07-1.01661E-18-6.79590E-19
 -1      3092 9.52779E-05-2.85111E-05-2.86137E-05-1.40448E-07-2.48519E-18-1.83449E-18
 -1      3093 9.52689E-05-2.85203E-05-2.86068E-05-1.15096E-07-1.67840E-18-1.83532E-18
 -1      3094 9.52610E-05-2.84811E-05-2.86199E-05-1.67697E-07-2.04001E-18-1.54369E-18
 -1      3095 9.52662E-05-2.85300E-05-2.86007E-05-9.17815E-08-5.11610E-19-1.21020E-18
 -1      3096 9.52592E-05-2.85367E-05-2.85955E-05-7.30902E-08-1.29977E-18-1.13733E-19
 -1      3097 9.52575E-05-2.85097E-05-2.86062E-05-1.12186E-07-9.56173E-19-1.63673E-18
 -1      3098 9.52566E-05-2.85432E-05-2.85911E-05-5.67683E-08-2.61388E-18-3.26872E-19
 -1      3099 9.52516E-05-2.85478E-05-2.85875E-05-4.38509E-08-2.44090E-18-4.58079E-19
 -1      3100 9.52531E-05-2.85298E-05-2.85957E-05-7.15339E-08-2.32853E-18-1.97858E-18
 -1      3101 9.52494E-05-2.85522E-05-2.85843E-05-3.25299E-08-6.86609E-19-5.14299E-20
 -1      3102 9.52460E-05-2.85555E-05-2.85817E-05-2.37276E-08 1.35446E-18-2.29156E-19
 -1      3103 9.52489E-05-2.85435E-05-2.85880E-05-4.30149E-08-1.29484E-18 1.76627E-19
 -1      3104 9.52443E-05-2.85585E-05-2.85795E-05-1.60088E-08-1.40409E-19-1.94232E-18
 -1      3105 9.52421E-05-2.85608E-05-2.85777E-05-1.01298E-08-2.30226E-18-3.23677E-18
 -1      3106 9.52454E-05-2.85530E-05-2.85825E-05-2.32838E-08-2.50602E-19-1.74216E-18
 -1      3107 9.52408E-05-2.85629E-05-2.85761E-05-4.99781E-09-3.65394E-19-2.08254E-18
 -1      3108 9.52395E-05-2.85646E-05-2.85750E-05-1.19886E-09 1.44308E-18-1.26128E-18
 -1      3109 9.52427E-05-2.85595E-05-2.85785E-05-9.90132E-09-9.08863E-19-2.31301E-18
 -1      3110 9.52386E-05-2.85659E-05-2.85739E-05 1.95114E-09 8.44510E-19-1.28341E-18
 -1      3111 9.52380E-05-2.85672E-05-2.85732E-05 4.20108E-09 2.13937E-19-1.10171E-18
 -1      3112 9.52408E-05-2.85640E-05-2.85758E-05-1.23973E-09 1.18396E-18-1.57067E-18
 -1      3113 9.52374E-05-2.85682E-05-2.85725E-05 6.22902E-09 3.57701E-20-2.19025E-18
 -1      3114 9.52371E-05-2.85692E-05-2.85720E-05 7.55259E-09-1.83519E-18-2.61686E-18
 -1      3115 9.52394E-05-2.85671E-05-2.85739E-05 4.23412E-09-2.46220E-19-1.00221E-18
 -1      3116 9.52367E-05-2.85699E-05-2.85715E-05 8.60053E-09-2.51877E-18-2.92157E-18
 -1      3117 9.52368E-05-2.85708E-05-2.85712E-05 9.12210E-09-1.55596E-18-3.09554E-18
 -1      3118 9.52386E-05-2.85695E-05-2.85725E-05 7.51295E-09-2.14606E-18-2.69055E-18
 -1      3119 9.52370E-05-2.85714E-05-2.85710E-05 9.39063E-09 9.08567E-20-3.52394E-18
 -1      3120 9.52373E-05-2.85722E-05-2.85708E-05 9.35060E-09 5.04783E-19-3.30633E-18
 -1      3121 9.52390E-05-2.85730E-05-2.85711E-05 9.04481E-09 6.32316E-19-5.21668E-18
 -1      3122 9.52386E-05-2.85714E-05-2.85717E-05 8.88411E-09-9.78660E-19-3.36249E-18
 -1      3123 9.74170E-05-2.67695E-05-3.02398E-05 7.43158E-06 2.37994E-19 1.16706E-19
 -1      3124 9.82769E-05-2.82458E-05-3.00523E-05 7.86952E-06-1.14569E-19 4.62865E-19
 -1      3125 1.01058E-04-2.95896E-05-3.06020E-05 8.34246E-06-1.15795E-19 2.48270E-19
 -1      3126 1.00181E-04-3.17658E-05-2.93190E-05 6.79897E-06-4.08490E-19 4.91496E-19
 -1      3127 1.00551E-04-3.24650E-05-2.91883E-05 6.11262E-06-2.67654E-19 2.51303E-19
 -1      3128 1.02292E-04-3.22824E-05-2.99774E-05 7.38506E-06-2.87937E-19 2.77980E-19
 -1      3129 9.55637E-05-2.38882E-05-3.06768E-05 5.32607E-06 1.09599E-18 5.89887E-20
 -1      3130 9.63384E-05-2.52093E-05-3.05213E-05 6.55885E-06 7.32224E-19 2.03697E-19
 -1      3131 9.90827E-05-2.61238E-05-3.12548E-05 7.64861E-06 5.84830E-19-4.04508E-20
 -1      3132 9.43299E-05-2.20682E-05-3.09446E-05 1.68371E-06 8.24623E-19 1.16079E-19
 -1      3133 9.47198E-05-2.27418E-05-3.08662E-05 3.51046E-06 1.00199E-18 4.05412E-19
 -1      3134 9.70955E-05-2.29578E-05-3.17845E-05 4.92710E-06 8.49507E-19 5.70074E-19
 -1      3135 9.42978E-05-2.20663E-05-3.09612E-05-2.58968E-06 5.74938E-19 3.05126E-19
 -1      3136 9.41381E-05-2.18166E-05-3.09841E-05-6.34204E-07 6.48756E-19 1.00176E-19
 -1      3137 9.60229E-05-2.13225E-05-3.20420E-05 6.33657E-07 6.39092E-19 5.48836E-19
 -1      3138 9.54922E-05-2.38759E-05-3.07230E-05-6.26719E-06 8.54255E-19 2.65828E-19
 -1      3139 9.48527E-05-2.28174E-05-3.08381E-05-4.71133E-06 8.57020E-19 2.16827E-19
 -1      3140 9.64034E-05-2.19121E-05-3.19451E-05-3.99748E-06 7.10168E-19 3.07997E-19
 -1      3141 9.73439E-05-2.67224E-05-3.03058E-05-8.42954E-06-2.27355E-19 8.49920E-20
 -1      3142 9.64836E-05-2.52808E-05-3.04763E-05-7.60555E-06 4.66943E-19 1.93555E-19
 -1      3143 9.80076E-05-2.44410E-05-3.15250E-05-7.54973E-06 4.68140E-19 1.06433E-20
 -1      3144 9.90727E-05-2.95575E-05-2.98243E-05-8.84832E-06-6.96663E-19 5.86774E-19
 -1      3145 9.82902E-05-2.82173E-05-3.00042E-05-8.78229E-06-6.98873E-19 4.21052E-19
 -1      3146 1.00006E-04-2.78384E-05-3.09051E-05-9.19018E-06-5.50798E-19 6.67849E-20
 -1      3147 1.00132E-04-3.16161E-05-2.93803E-05-7.91192E-06-6.22754E-19 7.89640E-19
 -1      3148 9.96210E-05-3.06886E-05-2.95343E-05-8.40172E-06-4.25600E-19 8.10010E-19
 -1      3149 1.01527E-04-3.08982E-05-3.02399E-05-8.95861E-06-7.66709E-19-2.47381E-20
 -1      3150 1.00381E-04-3.26395E-05-2.90331E-05-6.25597E-06-4.58060E-19 9.96240E-19
 -1      3151 1.00188E-04-3.22024E-05-2.91440E-05-7.02809E-06-5.18549E-19 6.08633E-19
 -1      3152 1.02123E-04-3.28863E-05-2.96510E-05-7.48941E-06-4.93953E-19-6.81281E-20
 -1      3153 9.99816E-05-3.27634E-05-2.87981E-05-4.44427E-06-1.35577E-19 3.67263E-19
 -1      3154 1.00047E-04-3.27303E-05-2.88648E-05-5.26826E-06-1.88087E-19 7.53890E-19
 -1      3155 1.01817E-04-3.36631E-05-2.91994E-05-5.52929E-06-1.47111E-19 6.39621E-19
 -1      3156 9.92109E-05-3.22993E-05-2.86617E-05-2.83145E-06 1.20952E-18 4.34586E-19
 -1      3157 9.94327E-05-3.25204E-05-2.86929E-05-3.56411E-06 6.36746E-19 5.82610E-19
 -1      3158 1.00904E-04-3.34879E-05-2.88942E-05-3.63138E-06 3.41852E-19 1.34308E-20
 -1      3159 9.83235E-05-3.15594E-05-2.85979E-05-1.56985E-06 2.93997E-19 1.13004E-18
 -1      3160 9.86077E-05-3.18939E-05-2.86053E-05-2.14866E-06 7.09699E-19 1.06884E-18
 -1      3161 9.97312E-05-3.27533E-05-2.87128E-05-2.08093E-06 7.04810E-19 7.91433E-19
 -1      3162 9.74898E-05-3.07731E-05-2.85794E-05-6.76115E-07 7.33878E-20 1.05516E-18
 -1      3163 9.77706E-05-3.11214E-05-2.85740E-05-1.09291E-06 2.69410E-19 1.12591E-18
 -1      3164 9.85650E-05-3.18062E-05-2.86212E-05-9.55036E-07 2.65753E-19 1.47519E-18
 -1      3165 9.67951E-05-3.00731E-05-2.85846E-05-9.85741E-08 8.25822E-20 1.23391E-18
 -1      3166 9.70372E-05-3.03794E-05-2.85743E-05-3.73734E-07 3.91300E-19 1.11973E-18
 -1      3167 9.75574E-05-3.08793E-05-2.85863E-05-2.14731E-07 2.54690E-20 1.45730E-18
 -1      3168 9.62628E-05-2.95155E-05-2.85984E-05 2.36840E-07 3.51035E-19 7.42416E-19
 -1      3169 9.64537E-05-2.97573E-05-2.85882E-05 7.24174E-08 5.08359E-19 1.47021E-18
 -1      3170 9.67658E-05-3.00935E-05-2.85822E-05 2.23419E-07 5.63601E-20 1.00490E-18
 -1      3171 9.58806E-05-2.91070E-05-2.86121E-05 4.01951E-07-5.00052E-19 2.04384E-19
 -1      3172 9.60218E-05-2.92828E-05-2.86046E-05 3.17200E-07-3.49507E-19 6.73184E-19
 -1      3173 9.61877E-05-2.94893E-05-2.85914E-05 4.46891E-07 3.80847E-19 1.23697E-18
 -1      3174 9.56209E-05-2.88290E-05-2.86219E-05 4.56026E-07-1.44812E-19-3.49217E-19
 -1      3175 9.57203E-05-2.89479E-05-2.86177E-05 4.24472E-07-4.32258E-19-2.34456E-19
 -1      3176 9.57908E-05-2.90599E-05-2.86035E-05 5.29526E-07-1.87206E-19-1.76508E-19
 -1      3177 9.54531E-05-2.86537E-05-2.86265E-05 4.43534E-07-3.55916E-19 4.63332E-20
 -1      3178 9.55203E-05-2.87281E-05-2.86254E-05 4.44724E-07-4.93433E-20 2.38086E-19
 -1      3179 9.55336E-05-2.87764E-05-2.86133E-05 5.26932E-07-3.83863E-19-9.11268E-20
 -1      3180 9.53500E-05-2.85527E-05-2.86265E-05 3.95606E-07-6.23260E-20 5.34925E-20
 -1      3181 9.53939E-05-2.85952E-05-2.86278E-05 4.14844E-07-1.85269E-19 2.77782E-19
 -1      3182 9.53766E-05-2.86037E-05-2.86189E-05 4.77952E-07-6.85868E-19 9.38621E-19
 -1      3183 9.52900E-05-2.85020E-05-2.86231E-05 3.32710E-07 3.31254E-19-9.46201E-20
 -1      3184 9.53179E-05-2.85231E-05-2.86259E-05 3.60097E-07 9.51429E-20-3.06898E-19
 -1      3185 9.52873E-05-2.85093E-05-2.86203E-05 4.08111E-07-5.46689E-20-7.57464E-20
 -1      3186 9.52573E-05-2.84832E-05-2.86175E-05 2.67418E-07-1.61093E-19 5.85900E-19
 -1      3187 9.52746E-05-2.84908E-05-2.86211E-05 2.96730E-07 3.10785E-19 4.16782E-19
 -1      3188 9.52410E-05-2.84664E-05-2.86184E-05 3.33161E-07 7.23206E-20-9.64072E-19
 -1      3189 9.52411E-05-2.84829E-05-2.86108E-05 2.06779E-07 5.41390E-20 3.94018E-19
 -1      3190 9.52516E-05-2.84827E-05-2.86147E-05 2.34430E-07-8.60002E-20 6.95801E-19
 -1      3191 9.52206E-05-2.84552E-05-2.86141E-05 2.62083E-07-3.92295E-19 6.31511E-20
 -1      3192 9.52341E-05-2.84922E-05-2.86039E-05 1.54188E-07-3.15529E-19-5.73830E-19
 -1      3193 9.52404E-05-2.84880E-05-2.86077E-05 1.78380E-07 3.01881E-19-1.17236E-19
 -1      3194 9.52146E-05-2.84616E-05-2.86086E-05 1.99387E-07 6.79277E-19-1.03966E-18
 -1      3195 9.52321E-05-2.85054E-05-2.85974E-05 1.10741E-07 7.20310E-19-7.27114E-19
 -1      3196 9.52358E-05-2.84996E-05-2.86008E-05 1.30822E-07-9.08393E-20-1.02590E-18
 -1      3197 9.52159E-05-2.84766E-05-2.86027E-05 1.46771E-07-4.33223E-21-2.13625E-18
 -1      3198 9.52324E-05-2.85192E-05-2.85915E-05 7.62018E-08-4.25359E-19 1.07728E-18
 -1      3199 9.52345E-05-2.85132E-05-2.85945E-05 9.21985E-08 7.08897E-19 4.54494E-19
 -1      3200 9.52201E-05-2.84942E-05-2.85968E-05 1.04270E-07-2.35570E-19 6.76728E-20
 -1      3201 9.52335E-05-2.85319E-05-2.85866E-05 4.96368E-08-3.81001E-19 7.88966E-19
 -1      3202 9.52347E-05-2.85263E-05-2.85890E-05 6.19395E-08-4.34265E-19 1.04841E-18
 -1      3203 9.52250E-05-2.85115E-05-2.85915E-05 7.10202E-08-8.07706E-19 2.22751E-18
 -1      3204 9.52347E-05-2.85426E-05-2.85825E-05 2.98252E-08-1.10792E-18 6.77057E-19
 -1      3205 9.52354E-05-2.85379E-05-2.85844E-05 3.89821E-08-1.06682E-18 5.16927E-19
 -1      3206 9.52294E-05-2.85268E-05-2.85868E-05 4.57478E-08-6.54394E-19 1.31445E-18
 -1      3207 9.52358E-05-2.85512E-05-2.85792E-05 1.55061E-08 9.70547E-19 2.18122E-18
 -1      3208 9.52362E-05-2.85475E-05-2.85807E-05 2.20973E-08-3.15206E-19 1.39193E-18
 -1      3209 9.52328E-05-2.85394E-05-2.85829E-05 2.70720E-08-1.02356E-18 9.34583E-19
 -1      3210 9.52366E-05-2.85579E-05-2.85767E-05 5.51540E-09 9.45261E-19 3.02290E-18
 -1      3211 9.52368E-05-2.85550E-05-2.85778E-05 1.00816E-08 1.72644E-18 3.44762E-18
 -1      3212 9.52353E-05-2.85494E-05-2.85797E-05 1.36763E-08 1.77036E-20 1.90203E-18
 -1      3213 9.52372E-05-2.85630E-05-2.85747E-05-1.14058E-09-2.08567E-19 2.21514E-18
 -1      3214 9.52372E-05-2.85607E-05-2.85756E-05 1.86209E-09 7.33260E-19 2.93877E-18
 -1      3215 9.52370E-05-2.85570E-05-2.85771E-05 4.39724E-09 8.20064E-19 2.91311E-18
 -1      3216 9.52375E-05-2.85667E-05-2.85732E-05-5.22922E-09 2.71489E-19 1.25151E-18
 -1      3217 9.52375E-05-2.85651E-05-2.85738E-05-3.45700E-09 1.11417E-19 1.84695E-18
 -1      3218 9.52379E-05-2.85627E-05-2.85751E-05-1.73169E-09 3.12307E-19 2.01376E-18
 -1      3219 9.52419E-05-2.85722E-05-2.85727E-05-2.37541E-09-1.15604E-18 6.11160E-19
 -1      3220 9.52416E-05-2.85721E-05-2.85727E-05-3.39084E-09-7.58393E-19 1.55531E-19
 -1      3221 9.52423E-05-2.85724E-05-2.85728E-05-2.47411E-10-1.35869E-19 1.24423E-18
 -1      3222 9.52421E-05-2.85723E-05-2.85728E-05-1.35430E-09-5.92834E-19 1.44271E-18
 -1      3223 9.52421E-05-2.85702E-05-2.85736E-05-1.93479E-09-1.81510E-18 1.47026E-18
 -1      3224 9.52425E-05-2.85706E-05-2.85736E-05 1.08244E-10-5.58259E-19 2.79122E-18
 -1      3225 9.52414E-05-2.85733E-05-2.85720E-05 6.57764E-09 1.36986E-18 1.79220E-18
 -1      3226 9.52420E-05-2.85734E-05-2.85722E-05 5.54497E-09 6.31890E-19 2.35747E-18
 -1      3227 9.52400E-05-2.85731E-05-2.85715E-05 8.27836E-09 3.14268E-19-3.51186E-18
 -1      3228 9.52409E-05-2.85734E-05-2.85718E-05 7.53316E-09 1.66428E-18-7.26890E-19
 -1      3229 9.52414E-05-2.85722E-05-2.85725E-05 6.80914E-09 1.93381E-19 8.81475E-19
 -1      3230 9.52398E-05-2.85722E-05-2.85718E-05 8.46608E-09 8.42625E-20-4.00621E-18
 -1      3231 9.71159E-05-2.83888E-05-2.94687E-05 8.51214E-07 6.09323E-19 3.64442E-19
 -1      3232 9.69333E-05-2.75782E-05-2.96934E-05 1.32353E-06 6.42004E-19 3.95128E-19
 -1      3233 9.67790E-05-2.67323E-05-3.00378E-05 1.53568E-06 7.67282E-19 4.55925E-19
 -1      3234 6.13268E-05-2.05955E-05-1.71004E-05-3.37712E-05-1.01305E-18-2.42018E-18
 -1      3235 7.75867E-05-3.16433E-05-1.95235E-05-3.93399E-05-1.38130E-18-2.02367E-18
 -1      3236 7.63669E-05-3.09225E-05-1.94849E-05 4.02976E-05-1.41428E-18 1.24847E-18
 -1      3237 6.29532E-05-2.15985E-05-1.72295E-05 3.59571E-05-7.93829E-19 8.95420E-19
 -1      3238 4.69308E-05-7.61019E-06-1.65887E-05-1.39914E-05 1.02015E-19-1.82356E-18
 -1      3239 5.32144E-05-1.36892E-05-1.64926E-05-2.74299E-05-5.77624E-19-2.37646E-18
 -1      3240 6.54843E-05-1.85853E-05-1.97517E-05-2.72667E-05-7.84670E-19-2.01361E-18
 -1      3241 5.51238E-05-8.69664E-06-1.97926E-05-1.20814E-05 9.87654E-20-1.48278E-18
 -1      3242 9.59637E-05-2.50326E-05-3.04260E-05 4.52821E-06 8.84723E-19 1.02696E-18
 -1      3243 9.53971E-05-2.35054E-05-3.07949E-05 4.51868E-06 8.76050E-19 6.86143E-19
 -1      3244 1.26484E-04-1.82455E-05-4.66159E-05 1.26134E-05 6.04146E-19 1.45711E-18
 -1      3245 1.21133E-04-1.10036E-05-4.76689E-05 8.51155E-06 1.11131E-18 1.31383E-18
 -1      3246 9.14289E-05-1.65695E-05-3.21106E-05-5.77187E-06-1.79394E-19-1.45943E-18
 -1      3247 9.23303E-05-1.76756E-05-3.20248E-05-6.14532E-06-3.39253E-19-1.42592E-18
 -1      3248 9.29360E-05-1.89911E-05-3.16709E-05-5.03615E-06-3.02969E-19-1.36058E-18
 -1      3249 9.17837E-05-1.75944E-05-3.17598E-05-4.56754E-06-1.19353E-19-1.33575E-18
 -1      3250 1.28750E-04-2.88487E-05-4.33122E-05-1.26818E-05 1.33863E-18-4.18540E-19
 -1      3251 1.31507E-04-3.71222E-05-4.05727E-05-1.00817E-05 1.02422E-18-1.29728E-19
 -1      3252 9.52398E-05-2.85719E-05-2.85720E-05-7.19760E-09-5.19024E-19 4.67566E-19
 -1      3253 9.52387E-05-2.85715E-05-2.85716E-05-7.80531E-09-1.31540E-18 1.26015E-18
 -1      3254 9.52384E-05-2.85703E-05-2.85720E-05-7.55206E-09-1.26428E-18 1.59528E-18
 -1      3255 1.22990E-04-1.23783E-05-4.79091E-05-9.36546E-06 1.99243E-18-4.05782E-20
 -1      3256 1.25902E-04-2.00134E-05-4.56156E-05-1.28508E-05 1.64060E-18-5.47871E-19
 -1      3257 1.23081E-04-2.46192E-05-4.23736E-05-1.28219E-05 1.41073E-18-4.17323E-19
 -1      3258 9.78249E-05-2.99130E-05-2.91197E-05 5.15975E-07 3.96736E-19 2.33341E-19
 -1      3259 9.76005E-05-2.92317E-05-2.92746E-05 5.88907E-07 5.71448E-19 3.47771E-19
 -1      3260 9.77263E-05-2.87629E-05-2.95687E-05 5.85055E-07 6.47742E-19 2.53110E-19
 -1      3261 1.34452E-04-4.74117E-05-3.76693E-05-2.81374E-06 4.77674E-19-6.20716E-19
 -1      3262 1.34333E-04-5.38237E-05-3.42772E-05 7.35778E-06-1.27293E-19-1.43689E-18
 -1      3263 9.34242E-05-2.11785E-05-3.09506E-05-2.45649E-06-7.30132E-20-1.18139E-18
 -1      3264 9.32578E-05-2.18643E-05-3.06220E-05-9.34719E-07-6.11506E-20-1.09346E-18
 -1      3265 9.24163E-05-2.11093E-05-3.05692E-05-1.02831E-06-1.99268E-20-9.40802E-19
 -1      3266 1.23840E-04-5.68184E-05-2.87271E-05-2.77412E-05-1.49713E-18-5.89363E-19
 -1      3267 1.18576E-04-7.23786E-06-4.81274E-05 9.25033E-07 1.76935E-18 9.27964E-19
 -1      3268 1.20399E-04-8.00649E-06-4.85649E-05-5.26589E-06 1.91938E-18 6.55154E-19
 -1      3269 1.17388E-04-1.27055E-05-4.51495E-05-7.58763E-06 1.62006E-18-1.96697E-19
 -1      3270 9.52422E-05-2.85732E-05-2.85725E-05 4.34922E-09 9.99174E-19 2.69634E-18
 -1      3271 9.52424E-05-2.85731E-05-2.85726E-05 3.19644E-09 1.40300E-19 2.93676E-18
 -1      3272 9.52426E-05-2.85712E-05-2.85735E-05 2.33907E-09-1.65454E-19 3.38708E-18
 -1      3273 9.52424E-05-2.85718E-05-2.85731E-05 4.68160E-09-2.15284E-20 2.66316E-18
 -1      3274 1.33587E-04-3.83934E-05-4.09366E-05 9.84701E-06-3.14726E-19 1.44427E-18
 -1      3275 1.30107E-04-2.79838E-05-4.43062E-05 1.29813E-05 2.57286E-20 1.64568E-18
 -1      3276 1.05291E-04-4.79828E-05-2.48923E-05 3.57496E-05-7.66168E-19-1.79161E-18
 -1      3277 9.08619E-05-3.93887E-05-2.15351E-05 3.98553E-05-1.54033E-18-1.13767E-19
 -1      3278 8.57125E-05-3.32779E-05-2.21949E-05 3.52253E-05-1.31457E-18-1.18876E-19
 -1      3279 3.51814E-05-9.22829E-06-1.03542E-05 1.48793E-05 9.08866E-19-2.97393E-18
 -1      3280 4.30206E-05-4.29846E-06-1.60963E-05 7.61307E-06-1.51335E-18 1.43614E-18
 -1      3281 4.56173E-05-4.53214E-06-1.73009E-05-4.64695E-06-1.39024E-18 6.18758E-19
 -1      3282 5.16540E-05-1.37937E-05-1.59638E-05 2.95419E-05-6.17778E-19 6.60050E-19
 -1      3283 4.41672E-05-7.29764E-06-1.54339E-05 1.75571E-05-1.29092E-18 1.84516E-18
 -1      3284 5.18012E-05-6.96434E-06-1.88740E-05 1.09088E-05-1.49244E-18 1.95347E-18
 -1      3285 1.36949E-04-5.68993E-05-3.42100E-05-1.07611E-05-9.79355E-19 2.05723E-19
 -1      3286 1.37892E-04-5.03274E-05-3.78370E-05 5.69244E-07-8.23025E-19 6.87897E-19
 -1      3287 9.10724E-05-1.71637E-05-3.16781E-05-1.05531E-06 8.61146E-19-7.15772E-19
 -1      3288 9.07544E-05-1.68917E-05-3.16769E-05-1.72645E-06 7.47946E-19-7.70814E-19
 -1      3289 9.21881E-05-1.89647E-05-3.13698E-05-1.11100E-06 7.95009E-19-7.28822E-19
 -1      3290 1.00458E-04-3.28065E-05-2.90045E-05 5.11656E-06 1.35855E-19 2.69399E-19
 -1      3291 1.00530E-04-3.30075E-05-2.89312E-05 4.28241E-06 3.32098E-19 4.16320E-19
 -1      3292 1.02551E-04-3.37201E-05-2.94838E-05 5.54539E-06-7.99851E-20 3.45535E-19
 -1      3293 5.51256E-05-5.76077E-06-2.10114E-05-6.07251E-06-1.22695E-18 2.04876E-19
 -1      3294 5.11702E-05-5.60228E-06-1.88847E-05-1.09727E-05-9.93980E-19 4.56498E-19
 -1      3295 8.97830E-05-3.82492E-05-2.17358E-05-3.78476E-05-1.57564E-18-1.79867E-18
 -1      3296 1.00952E-04-4.34637E-05-2.45704E-05-3.33872E-05-1.78417E-18-1.24718E-18
 -1      3297 8.34935E-05-3.14837E-05-2.22282E-05-3.34518E-05-1.36213E-18-1.72165E-18
 -1      3298 1.23618E-04-2.42423E-05-4.28122E-05 1.26898E-05 3.68989E-20 1.48199E-18
 -1      3299 9.57947E-05-2.44170E-05-3.05789E-05 2.77788E-06 7.40642E-19 5.18870E-19
 -1      3300 9.57591E-05-2.44524E-05-3.05446E-05 3.34333E-06 7.41027E-19 5.84191E-19
 -1      3301 1.11274E-04-4.83733E-05-2.68229E-05 2.81730E-05-3.18008E-19-1.61426E-18
 -1      3302 5.80099E-05-9.57949E-06-2.05117E-05-1.94836E-05-8.49614E-19 5.55548E-19
 -1      3303 9.38604E-05-2.06720E-05-3.13869E-05 3.32768E-06 1.00706E-18 8.70074E-20
 -1      3304 9.33527E-05-1.99148E-05-3.14808E-05 2.59566E-06 9.11317E-19-9.31199E-20
 -1      3305 9.49492E-05-2.26379E-05-3.09805E-05 2.75842E-06 8.15103E-19 1.83616E-19
 -1      3306 1.24985E-04-3.67464E-05-3.78890E-05-1.06427E-05 5.82706E-19 4.04313E-19
 -1      3307 1.31099E-04-4.26289E-05-3.80441E-05-7.52413E-06 5.04944E-19-2.58742E-20
 -1      3308 1.27653E-04-4.53502E-05-3.53369E-05-3.45144E-06 1.63199E-19-4.00091E-20
 -1      3309 9.28622E-05-1.92472E-05-3.15616E-05 1.88954E-06 9.93666E-19-3.07284E-19
 -1      3310 9.23860E-05-1.86527E-05-3.16117E-05 1.08323E-06 1.04092E-18-5.60717E-19
 -1      3311 9.31207E-05-2.00086E-05-3.13243E-05 1.98427E-07 8.82684E-19-5.92237E-19
 -1      3312 9.40708E-05-2.12382E-05-3.12038E-05 1.57502E-06 8.77135E-19-2.60529E-19
 -1      3313 9.86043E-05-3.12089E-05-2.88990E-05 8.66006E-07 5.36634E-19-1.71365E-20
 -1      3314 9.83480E-05-3.06347E-05-2.89952E-05 6.01603E-07 3.98332E-19 1.33026E-19
 -1      3315 9.87392E-05-3.05331E-05-2.92456E-05 3.35382E-07 5.83791E-19 1.62641E-19
 -1      3316 9.52415E-05-2.85702E-05-2.85734E-05-3.78450E-09-1.56566E-18-5.19397E-19
 -1      3317 9.52414E-05-2.85721E-05-2.85725E-05-4.31203E-09-3.03517E-19-9.90790E-19
 -1      3318 9.52410E-05-2.85720E-05-2.85724E-05-5.20512E-09-2.13091E-19-1.47157E-18
 -1      3319 1.28402E-04-5.27543E-05-3.23472E-05 1.01283E-05 2.02275E-19-1.25199E-18
 -1      3320 9.52381E-05-2.85691E-05-2.85724E-05-7.06953E-09-7.51552E-19 7.05693E-19
 -1      3321 9.52379E-05-2.85678E-05-2.85729E-05-6.19966E-09-3.76651E-19 5.58337E-19
 -1      3322 9.52387E-05-2.85664E-05-2.85739E-05-5.07122E-09 3.39312E-19 4.71842E-19
 -1      3323 9.52395E-05-2.85691E-05-2.85730E-05-6.51296E-09-1.36100E-18 7.09012E-19
 -1      3324 9.52407E-05-2.85720E-05-2.85723E-05-5.84622E-09-1.90011E-19-1.60517E-19
 -1      3325 9.52402E-05-2.85719E-05-2.85721E-05-6.57576E-09 1.00654E-20 2.64269E-19
 -1      3326 9.52402E-05-2.85703E-05-2.85728E-05-6.32669E-09-1.14366E-18 1.04748E-18
 -1      3327 9.52409E-05-2.85702E-05-2.85731E-05-5.23167E-09-3.14246E-19-6.50105E-19
 -1      3328 9.32340E-05-2.00948E-05-3.13669E-05-3.88520E-06-2.29778E-19-1.24399E-18
 -1      3329 1.14656E-04-5.13415E-05-2.70249E-05-2.79076E-05-1.83924E-18-4.00038E-19
 -1      3330 1.28226E-04-5.71967E-05-3.05601E-05-2.13189E-05-1.45732E-18-5.86636E-20
 -1      3331 1.28539E-04-5.45250E-05-3.16760E-05-1.30999E-05-1.35908E-18 1.05006E-19
 -1      3332 4.65747E-05-7.39008E-06-1.60847E-05 1.71110E-05 1.02713E-18-2.64412E-18
 -1      3333 1.31543E-04-4.81081E-05-3.59156E-05 1.79908E-06-8.81126E-19 7.75631E-19
 -1      3334 1.34385E-04-4.47569E-05-3.86363E-05 6.75604E-06-4.11261E-19 1.16009E-18
 -1      3335 1.27563E-04-3.74266E-05-3.86513E-05 1.06832E-05-2.19673E-19 1.43666E-18
 -1      3336 6.32304E-05-1.72746E-05-1.93087E-05 2.83515E-05-4.79421E-19 7.02296E-19
 -1      3337 1.14691E-04-1.30689E-05-4.36318E-05 7.69523E-06 8.84938E-19 1.45109E-18
 -1      3338 1.16794E-04-9.88345E-06-4.62168E-05 4.85626E-06 1.46272E-18 1.32579E-18
 -1      3339 1.12175E-04-9.76073E-06-4.40390E-05 6.39802E-07 1.41481E-18 1.13446E-18
 -1      3340 9.03009E-05-1.65377E-05-3.16189E-05-2.95630E-06 3.39852E-19-9.18421E-19
 -1      3341 9.04590E-05-1.68183E-05-3.15876E-05-3.31445E-06 1.25208E-19-9.23678E-19
 -1      3342 9.25313E-05-1.94954E-05-3.13055E-05-3.41871E-06-1.27586E-19-1.22394E-18
 -1      3343 9.94162E-05-3.22523E-05-2.88012E-05 1.83867E-06 1.30403E-19 1.25434E-19
 -1      3344 9.91759E-05-3.18237E-05-2.88430E-05 1.28716E-06 3.19998E-19 1.17045E-19
 -1      3345 9.98469E-05-3.20604E-05-2.90647E-05 7.72178E-07 3.80305E-19 2.71572E-19
 -1      3346 9.11173E-05-1.81437E-05-3.12363E-05-2.94325E-06 6.65874E-20-8.00680E-19
 -1      3347 9.07240E-05-1.71653E-05-3.15385E-05-3.36748E-06 5.15797E-20-9.92773E-19
 -1      3348 9.12350E-05-1.78603E-05-3.14810E-05-3.55381E-06-5.63136E-20-1.10663E-18
 -1      3349 1.00114E-04-3.28761E-05-2.88326E-05 3.32831E-06 2.95776E-19 3.23987E-19
 -1      3350 9.99754E-05-3.26930E-05-2.88185E-05 2.56674E-06 1.05944E-19 2.26002E-19
 -1      3351 1.01000E-04-3.32762E-05-2.90332E-05 1.87155E-06-1.42609E-20 3.32318E-19
 -1      3352 1.02008E-04-3.39468E-05-2.91676E-05 3.54425E-06 2.07907E-19 2.34130E-19
 -1      3353 5.89248E-05-6.53557E-06-2.21124E-05 2.65463E-07-1.52045E-18 9.61488E-19
 -1      3354 6.23171E-05-7.64713E-06-2.33881E-05-6.20801E-06-1.23329E-18 6.69156E-20
 -1      3355 6.84744E-05-9.66290E-06-2.52106E-05-5.89982E-06-1.50764E-18 1.94328E-19
 -1      3356 9.60843E-05-2.48901E-05-3.04911E-05 1.88387E-06 7.60903E-19 2.89608E-19
 -1      3357 9.55668E-05-2.38572E-05-3.07428E-05 2.34260E-06 7.67029E-19 2.29329E-19
 -1      3358 9.51653E-05-2.31091E-05-3.08820E-05 1.86904E-06 8.14946E-19-2.12863E-20
 -1      3359 1.15273E-04-4.97078E-05-2.84799E-05 2.18498E-05-4.60217E-19-1.79498E-18
 -1      3360 1.04395E-04-4.30864E-05-2.58936E-05 2.83614E-05-6.89849E-19-1.55486E-18
 -1      3361 8.94106E-05-2.06278E-05-2.94834E-05 2.15373E-07 1.73835E-19-7.00844E-19
 -1      3362 8.78869E-05-2.00171E-05-2.91456E-05 4.85966E-07 1.05083E-19-6.40157E-19
 -1      3363 8.62457E-05-1.92408E-05-2.87255E-05 7.59578E-08 5.08253E-20-7.61138E-19
 -1      3364 8.38826E-05-1.81324E-05-2.82620E-05-1.63885E-07 1.16783E-19-7.76554E-19
 -1      3365 8.72459E-05-1.97208E-05-2.88853E-05-1.63101E-06 1.66077E-20-6.88127E-19
 -1      3366 8.16454E-05-1.70386E-05-2.77021E-05-1.20649E-06 1.89950E-19-9.11748E-19
 -1      3367 7.83588E-05-1.56001E-05-2.70120E-05-2.06310E-06 6.97776E-20-8.98960E-19
 -1      3368 8.35227E-05-1.82456E-05-2.78992E-05-3.45544E-06 5.88845E-20-9.57802E-19
 -1      3369 7.51976E-05-1.43325E-05-2.61023E-05-4.05813E-06-2.72083E-19-9.57408E-19
 -1      3370 7.03035E-05-1.25963E-05-2.48497E-05-6.00415E-06-3.37167E-19-1.03665E-18
 -1      3371 7.83574E-05-1.63910E-05-2.64576E-05-7.12064E-06-2.01199E-19-1.16194E-18
 -1      3372 6.63913E-05-1.12341E-05-2.36215E-05-7.85927E-06-2.50407E-19-1.06797E-18
 -1      3373 6.05767E-05-9.73629E-06-2.17889E-05-9.44275E-06-1.61201E-20-1.25562E-18
 -1      3374 6.33012E-05-1.28744E-05-2.12675E-05-1.79032E-05-2.76450E-19-1.44615E-18
 -1      3375 7.15825E-05-1.41855E-05-2.43248E-05-1.16683E-05-2.62031E-19-1.16553E-18
 -1      3376 1.00869E-04-2.52593E-05-3.23537E-05 7.96380E-06 7.82852E-19 3.75301E-19
 -1      3377 1.01971E-04-2.74510E-05-3.19986E-05 8.75356E-06 2.67745E-19 4.60471E-19
 -1      3378 9.66414E-05-2.61927E-05-3.02047E-05 1.17558E-06 7.81624E-19 2.47934E-19
 -1      3379 1.03173E-04-2.96717E-05-3.14712E-05 8.82812E-06 5.51401E-20 2.85857E-19
 -1      3380 1.04049E-04-3.15849E-05-3.10978E-05 8.61829E-06-7.83472E-20 3.11735E-19
 -1      3381 1.05156E-04-2.91333E-05-3.25409E-05 9.39384E-06 8.37148E-20 7.94039E-19
 -1      3382 7.35964E-05-1.20588E-05-2.64237E-05-6.07813E-06-1.20038E-18 7.51629E-19
 -1      3383 7.78951E-05-1.42300E-05-2.73073E-05-5.67340E-06-2.88706E-19 1.19083E-18
 -1      3384 7.11045E-05-1.10099E-05-2.55873E-05-1.83739E-06-9.94099E-19 1.54295E-18
 -1      3385 8.12393E-05-1.62947E-05-2.78845E-05-5.59338E-06-3.39151E-19 9.72764E-19
 -1      3386 8.39942E-05-1.80521E-05-2.82764E-05-5.11657E-06-5.11365E-19 1.04546E-18
 -1      3387 7.92876E-05-1.52856E-05-2.73340E-05-2.90836E-06-3.27272E-19 2.29921E-18
 -1      3388 8.63904E-05-1.98050E-05-2.85726E-05-4.85505E-06 1.15044E-20 7.89913E-19
 -1      3389 8.82685E-05-2.12321E-05-2.87403E-05-4.31945E-06 8.52746E-19 8.14813E-19
 -1      3390 8.48735E-05-1.89149E-05-2.82096E-05-3.16615E-06 3.96774E-20 1.89862E-18
 -1      3391 8.98389E-05-2.25434E-05-2.88644E-05-3.97945E-06 1.41494E-18-6.41688E-20
 -1      3392 9.10072E-05-2.35674E-05-2.89103E-05-3.47680E-06 1.92263E-18-7.59083E-19
 -1      3393 8.87068E-05-2.18013E-05-2.86336E-05-2.97152E-06 9.09136E-19 4.73638E-19
 -1      3394 9.20177E-05-2.45021E-05-2.89493E-05-3.13745E-06 1.95719E-18-8.68042E-19
 -1      3395 9.27234E-05-2.52098E-05-2.89405E-05-2.70501E-06 1.48868E-18-5.04328E-19
 -1      3396 9.11952E-05-2.39185E-05-2.88055E-05-2.55579E-06 1.47934E-18-2.27419E-19
 -1      3397 9.33619E-05-2.58555E-05-2.89394E-05-2.40467E-06 1.03155E-18-3.06276E-19
 -1      3398 9.37768E-05-2.63328E-05-2.89095E-05-2.05419E-06 1.46941E-18-2.18240E-19
 -1      3399 9.27780E-05-2.54142E-05-2.88519E-05-2.08221E-06 1.34714E-18-5.20230E-20
 -1      3400 9.41735E-05-2.67695E-05-2.88917E-05-1.80605E-06 1.69912E-18-5.23618E-19
 -1      3401 9.44102E-05-2.70863E-05-2.88570E-05-1.53295E-06 1.31957E-18-7.33510E-19
 -1      3402 9.37667E-05-2.64456E-05-2.88399E-05-1.63638E-06 1.66119E-18-7.82121E-19
 -1      3403 9.46439E-05-2.73661E-05-2.88355E-05-1.34608E-06 1.15121E-18-4.00386E-19
 -1      3404 9.47702E-05-2.75668E-05-2.88045E-05-1.14627E-06 5.09823E-19 4.10258E-19
 -1      3405 9.43629E-05-2.71305E-05-2.88058E-05-1.26320E-06 1.38466E-18-1.66688E-18
 -1      3406 9.49202E-05-2.77642E-05-2.87821E-05-9.92607E-07 1.16918E-20 4.37457E-19
 -1      3407 9.49919E-05-2.79041E-05-2.87541E-05-8.35196E-07 5.00704E-19 4.08234E-19
 -1      3408 9.47270E-05-2.75950E-05-2.87657E-05-9.56767E-07 1.90798E-19-5.28662E-19
 -1      3409 9.50811E-05-2.80349E-05-2.87345E-05-7.18537E-07 6.81100E-19 1.66339E-19
 -1      3410 9.51167E-05-2.81263E-05-2.87118E-05-6.02227E-07 7.90829E-20-1.03447E-18
 -1      3411 9.49513E-05-2.79149E-05-2.87265E-05-7.08855E-07 2.75187E-19-8.79655E-19
 -1      3412 9.51688E-05-2.82130E-05-2.86954E-05-5.14835E-07-1.25471E-18-8.11467E-19
 -1      3413 9.51847E-05-2.82731E-05-2.86776E-05-4.29473E-07-1.63709E-18-1.03585E-18
 -1      3414 9.50827E-05-2.81287E-05-2.86924E-05-5.17833E-07-1.09577E-18-1.19289E-18
 -1      3415 9.52145E-05-2.83306E-05-2.86644E-05-3.64651E-07-1.24700E-18-8.64881E-19
 -1      3416 9.52200E-05-2.83705E-05-2.86506E-05-3.02351E-07-6.51028E-19-6.62359E-19
 -1      3417 9.51581E-05-2.82717E-05-2.86642E-05-3.72951E-07-1.45076E-18-7.47941E-19
 -1      3418 9.52367E-05-2.84089E-05-2.86403E-05-2.54683E-07-3.09349E-19-9.22285E-19
 -1      3419 9.52371E-05-2.84355E-05-2.86298E-05-2.09481E-07-1.84999E-18-1.24986E-18
 -1      3420 9.52003E-05-2.83679E-05-2.86416E-05-2.64393E-07-3.30153E-19-1.04492E-18
 -1      3421 9.52459E-05-2.84603E-05-2.86222E-05-1.76356E-07-2.60488E-18-4.55887E-19
 -1      3422 9.52442E-05-2.84776E-05-2.86147E-05-1.44904E-07-1.74180E-18-1.53910E-18
 -1      3423 9.52229E-05-2.84318E-05-2.86242E-05-1.85560E-07-1.83548E-18-1.05041E-18
 -1      3424 9.52490E-05-2.84955E-05-2.86085E-05-1.19306E-07-9.96553E-19-2.52642E-18
 -1      3425 9.52465E-05-2.85080E-05-2.86025E-05-9.54993E-08-2.08932E-18-2.31841E-18
 -1      3426 9.52347E-05-2.84756E-05-2.86107E-05-1.27368E-07-1.83099E-18-1.52847E-18
 -1      3427 9.52488E-05-2.85202E-05-2.85978E-05-7.72172E-08-2.31056E-18-2.05386E-18
 -1      3428 9.52464E-05-2.85288E-05-2.85934E-05-6.02930E-08-2.33631E-18-2.32036E-18
 -1      3429 9.52405E-05-2.85067E-05-2.86000E-05-8.37923E-08-2.31321E-18-2.11424E-18
 -1      3430 9.52473E-05-2.85372E-05-2.85899E-05-4.73952E-08-1.10277E-18-1.41179E-18
 -1      3431 9.52452E-05-2.85432E-05-2.85867E-05-3.55118E-08-1.29834E-19-1.32491E-18
 -1      3432 9.52429E-05-2.85281E-05-2.85919E-05-5.25464E-08-1.23314E-18-1.70234E-18
 -1      3433 9.52454E-05-2.85489E-05-2.85841E-05-2.65719E-08-3.48150E-19-1.32783E-18
 -1      3434 9.52437E-05-2.85531E-05-2.85818E-05-1.83634E-08-8.94663E-19-2.09024E-18
 -1      3435 9.52435E-05-2.85429E-05-2.85859E-05-3.04817E-08-2.58394E-19-1.67951E-18
 -1      3436 9.52435E-05-2.85570E-05-2.85799E-05-1.23143E-08-7.70287E-19-1.45229E-18
 -1      3437 9.52423E-05-2.85599E-05-2.85782E-05-6.78345E-09 1.83021E-19-2.49974E-19
 -1      3438 9.52431E-05-2.85532E-05-2.85814E-05-1.52029E-08-4.21282E-19-9.72788E-19
 -1      3439 9.52420E-05-2.85625E-05-2.85769E-05-3.00390E-09 1.52006E-18-1.56155E-18
 -1      3440 9.52411E-05-2.85644E-05-2.85757E-05 4.87839E-10 8.52148E-19-1.71427E-18
 -1      3441 9.52424E-05-2.85601E-05-2.85781E-05-5.08297E-09 7.02619E-19-6.00943E-19
 -1      3442 9.52407E-05-2.85663E-05-2.85747E-05 3.01512E-09-1.23605E-18-1.19602E-18
 -1      3443 9.52401E-05-2.85678E-05-2.85739E-05 5.29190E-09-1.92887E-18-2.54047E-18
 -1      3444 9.52416E-05-2.85650E-05-2.85757E-05 1.52624E-09-6.54452E-19-2.11492E-18
 -1      3445 9.52397E-05-2.85692E-05-2.85731E-05 6.67443E-09-2.04981E-18-3.01801E-18
 -1      3446 9.52393E-05-2.85703E-05-2.85725E-05 7.95398E-09-2.59393E-18-2.43163E-18
 -1      3447 9.52407E-05-2.85685E-05-2.85738E-05 5.66411E-09-2.93647E-18-3.08031E-18
 -1      3448 9.52395E-05-2.85711E-05-2.85722E-05 8.19063E-09-1.30940E-18-3.39655E-18
 -1      3449 1.04549E-04-3.31242E-05-3.06075E-05 7.70365E-06-2.26860E-19 2.54083E-19
 -1      3450 1.04946E-04-3.42972E-05-3.02900E-05 6.86631E-06-2.21322E-19 3.88084E-19
 -1      3451 1.06869E-04-3.34479E-05-3.14291E-05 8.30759E-06-1.51549E-19 4.87818E-19
 -1      3452 9.75939E-05-1.98980E-05-3.32943E-05-4.12704E-07 3.78409E-19 6.47076E-19
 -1      3453 9.77892E-05-2.02602E-05-3.32452E-05 1.99810E-06 6.01611E-19 3.96328E-19
 -1      3454 9.84354E-05-2.14276E-05-3.30459E-05-5.49259E-06 6.78910E-19 3.86543E-19
 -1      3455 9.78775E-05-2.03361E-05-3.32063E-05-3.31774E-06 5.41065E-19 4.53112E-19
 -1      3456 9.96151E-05-1.92724E-05-3.44659E-05-2.01843E-06 5.55700E-19 2.94383E-19
 -1      3457 1.00614E-04-2.52235E-05-3.23705E-05-8.86809E-06 8.87284E-20 5.76934E-19
 -1      3458 9.96027E-05-2.32165E-05-3.26874E-05-7.57998E-06 6.10449E-19 2.38855E-19
 -1      3459 1.01116E-04-2.18731E-05-3.39635E-05-7.17454E-06 5.07636E-19 1.05760E-18
 -1      3460 1.02872E-04-2.95446E-05-3.14773E-05-9.79799E-06-7.05899E-19 3.12939E-19
 -1      3461 1.01897E-04-2.74724E-05-3.18579E-05-9.56827E-06-3.73521E-19 6.01587E-19
 -1      3462 1.03660E-04-2.65807E-05-3.30029E-05-9.87284E-06-1.22826E-19 9.65053E-19
 -1      3463 1.04191E-04-3.28874E-05-3.05837E-05-8.71050E-06-7.49032E-19-1.70836E-19
 -1      3464 1.03619E-04-3.13862E-05-3.09439E-05-9.28543E-06-6.21523E-19 2.82100E-19
 -1      3465 1.05739E-04-3.13103E-05-3.18556E-05-9.83836E-06-7.16191E-19 7.11395E-19
 -1      3466 1.04243E-04-3.46243E-05-2.98360E-05-6.59202E-06-9.93956E-19 5.29373E-19
 -1      3467 1.04168E-04-3.38962E-05-3.01261E-05-7.55484E-06-1.04002E-18 4.65577E-20
 -1      3468 1.06443E-04-3.45568E-05-3.07797E-05-7.92479E-06-9.36787E-19 4.90751E-19
 -1      3469 1.03278E-04-3.49004E-05-2.92881E-05-4.31827E-06 1.05341E-19 3.27213E-19
 -1      3470 1.03604E-04-3.48320E-05-2.94937E-05-5.32221E-06-4.59735E-19 5.66974E-19
 -1      3471 1.05734E-04-3.59028E-05-2.99214E-05-5.36090E-06-5.04742E-19 5.17776E-19
 -1      3472 1.01776E-04-3.42168E-05-2.89307E-05-2.40014E-06 1.48941E-19 1.00055E-18
 -1      3473 1.02324E-04-3.45639E-05-2.90598E-05-3.25058E-06 3.51630E-19 7.54517E-19
 -1      3474 1.04093E-04-3.57145E-05-2.93153E-05-2.99839E-06 8.31011E-21 5.58272E-19
 -1      3475 1.00164E-04-3.30875E-05-2.87239E-05-1.00912E-06 3.42955E-19 1.77849E-18
 -1      3476 1.00771E-04-3.36170E-05-2.87945E-05-1.64021E-06 2.89329E-19 1.33076E-18
 -1      3477 1.02102E-04-3.46377E-05-2.89318E-05-1.22258E-06-1.44575E-19 1.10174E-18
 -1      3478 9.87118E-05-3.18847E-05-2.86208E-05-1.15079E-07 1.10043E-19 1.53221E-18
 -1      3479 9.92702E-05-3.24337E-05-2.86526E-05-5.36857E-07 4.08695E-19 1.82316E-18
 -1      3480 1.00191E-04-3.32349E-05-2.87155E-05-7.43769E-08 1.94519E-19 2.24737E-18
 -1      3481 9.75408E-05-3.08174E-05-2.85812E-05 3.92237E-07-1.48451E-19 1.27732E-18
 -1      3482 9.79990E-05-3.12973E-05-2.85902E-05 1.38285E-07 3.95139E-19 1.20271E-18
 -1      3483 9.85861E-05-3.18707E-05-2.86102E-05 5.65618E-07 1.68571E-19 2.19497E-18
 -1      3484 9.66701E-05-2.99706E-05-2.85754E-05 6.31895E-07-1.02258E-20 1.37408E-18
 -1      3485 9.70161E-05-3.03473E-05-2.85733E-05 4.98706E-07-1.50640E-19 1.18101E-18
 -1      3486 9.73572E-05-3.07245E-05-2.85711E-05 8.52790E-07-1.84009E-19 1.82786E-18
 -1      3487 9.60645E-05-2.93528E-05-2.85842E-05 7.02845E-07 4.63453E-20 1.43673E-18
 -1      3488 9.63089E-05-2.96251E-05-2.85782E-05 6.49643E-07-9.17315E-20 1.60612E-18
 -1      3489 9.64819E-05-2.98511E-05-2.85665E-05 9.21915E-07-9.58783E-20 6.52468E-19
 -1      3490 9.56684E-05-2.89340E-05-2.85966E-05 6.76953E-07-1.68181E-19 1.01703E-18
 -1      3491 9.58311E-05-2.91170E-05-2.85906E-05 6.72715E-07-1.69232E-19 1.37442E-18
 -1      3492 9.58972E-05-2.92353E-05-2.85765E-05 8.70976E-07 1.92103E-20 8.14540E-19
 -1      3493 9.54253E-05-2.86708E-05-2.86070E-05 6.02087E-07-1.00586E-18 1.70882E-18
 -1      3494 9.55276E-05-2.87847E-05-2.86028E-05 6.25032E-07-1.32328E-19 1.19006E-18
 -1      3495 9.55309E-05-2.88317E-05-2.85900E-05 7.63625E-07-3.66244E-19 1.51096E-18
 -1      3496 9.52872E-05-2.85204E-05-2.86134E-05 5.08098E-07-5.54459E-19 7.60861E-19
 -1      3497 9.53475E-05-2.85846E-05-2.86114E-05 5.43838E-07-1.01484E-18 1.18943E-18
 -1      3498 9.53181E-05-2.85878E-05-2.86015E-05 6.37816E-07-5.54781E-19 6.02587E-19
 -1      3499 9.52169E-05-2.84462E-05-2.86158E-05 4.12377E-07 5.90275E-19-8.03759E-19
 -1      3500 9.52497E-05-2.84771E-05-2.86157E-05 4.51960E-07 1.11811E-20 4.90774E-20
 -1      3501 9.52066E-05-2.84561E-05-2.86090E-05 5.14356E-07-4.34309E-20-4.62786E-19
 -1      3502 9.51877E-05-2.84202E-05-2.86148E-05 3.24169E-07-5.85395E-19 5.86246E-20
 -1      3503 9.52035E-05-2.84302E-05-2.86162E-05 3.62412E-07-2.35583E-19-4.47443E-19
 -1      3504 9.51581E-05-2.83980E-05-2.86123E-05 4.03371E-07-3.45530E-19-2.69505E-20
 -1      3505 9.51815E-05-2.84222E-05-2.86115E-05 2.47658E-07-1.36611E-20-8.91703E-20
 -1      3506 9.51875E-05-2.84203E-05-2.86138E-05 2.81870E-07-3.60477E-19-1.15901E-19
 -1      3507 9.51459E-05-2.83851E-05-2.86122E-05 3.08734E-07-1.51955E-19 5.85633E-19
 -1      3508 9.51869E-05-2.84387E-05-2.86068E-05 1.84030E-07 7.63886E-19-2.70350E-19
 -1      3509 9.51876E-05-2.84307E-05-2.86096E-05 2.13099E-07 5.81163E-19 2.86903E-19
 -1      3510 9.51526E-05-2.83972E-05-2.86096E-05 2.30907E-07 1.62881E-19-1.84085E-19
 -1      3511 9.51969E-05-2.84609E-05-2.86015E-05 1.32808E-07-2.09081E-19 8.21383E-19
 -1      3512 9.51952E-05-2.84506E-05-2.86044E-05 1.56570E-07 5.03461E-19 4.45783E-19
 -1      3513 9.51674E-05-2.84212E-05-2.86055E-05 1.68632E-07 9.74996E-20 8.01095E-19
 -1      3514 9.52076E-05-2.84839E-05-2.85962E-05 9.26844E-08-9.73670E-19 1.10202E-18
 -1      3515 9.52051E-05-2.84735E-05-2.85989E-05 1.11500E-07-1.06755E-18-3.74583E-19
 -1      3516 9.51842E-05-2.84491E-05-2.86007E-05 1.19922E-07-3.35115E-19 1.77809E-18
 -1      3517 9.52172E-05-2.85049E-05-2.85912E-05 6.20208E-08-4.37444E-19 7.52773E-19
 -1      3518 9.52148E-05-2.84955E-05-2.85937E-05 7.65062E-08-8.37406E-19 1.00282E-18
 -1      3519 9.51998E-05-2.84761E-05-2.85958E-05 8.25900E-08-1.16523E-18-4.36677E-19
 -1      3520 9.52249E-05-2.85228E-05-2.85868E-05 3.91412E-08-1.06188E-18 3.92928E-19
 -1      3521 9.52229E-05-2.85148E-05-2.85890E-05 4.99986E-08-1.58535E-19 9.96118E-19
 -1      3522 9.52127E-05-2.84999E-05-2.85911E-05 5.45383E-08-5.05368E-19-5.41223E-19
 -1      3523 9.52306E-05-2.85371E-05-2.85831E-05 2.24893E-08-4.79430E-19 3.49424E-19
 -1      3524 9.52291E-05-2.85308E-05-2.85849E-05 3.04070E-08-9.47616E-19 1.29251E-19
 -1      3525 9.52226E-05-2.85197E-05-2.85869E-05 3.38843E-08-6.09912E-19 1.28030E-19
 -1      3526 9.52346E-05-2.85483E-05-2.85799E-05 1.07055E-08-2.42585E-19 1.47149E-18
 -1      3527 9.52336E-05-2.85433E-05-2.85814E-05 1.63049E-08-9.00205E-19 5.41000E-19
 -1      3528 9.52298E-05-2.85354E-05-2.85833E-05 1.90162E-08-1.23497E-18 8.90992E-19
 -1      3529 9.52371E-05-2.85567E-05-2.85774E-05 2.65267E-09 6.93588E-19 1.42413E-18
 -1      3530 9.52364E-05-2.85529E-05-2.85786E-05 6.45929E-09 9.37190E-19 1.34785E-18
 -1      3531 9.52346E-05-2.85475E-05-2.85802E-05 8.59022E-09-1.71345E-19 7.09551E-19
 -1      3532 9.52385E-05-2.85628E-05-2.85753E-05-2.54860E-09 3.11600E-19 3.77359E-19
 -1      3533 9.52382E-05-2.85601E-05-2.85763E-05-1.36558E-10 3.34451E-19 1.20547E-18
 -1      3534 9.52375E-05-2.85564E-05-2.85776E-05 1.54253E-09 4.20685E-19-3.45965E-19
 -1      3535 1.17049E-04-2.03860E-05-4.17395E-05-1.19784E-05 9.72526E-19 1.85315E-19
 -1      3536 1.19840E-04-2.71347E-05-3.98061E-05-1.25907E-05 9.45156E-19-2.08509E-19
 -1      3537 9.82202E-05-2.91579E-05-2.96126E-05 6.27986E-08 6.32077E-19 2.06412E-19
 -1      3538 9.77517E-05-2.81348E-05-2.98087E-05 3.91409E-07 6.73294E-19 2.77808E-19
 -1      3539 9.19882E-05-1.88960E-05-3.13363E-05-3.27431E-06-3.54213E-20-1.15713E-18
 -1      3540 9.04742E-05-1.65985E-05-3.16638E-05-2.18830E-06 6.59355E-19-8.76666E-19
 -1      3541 9.03467E-05-1.65621E-05-3.16476E-05-2.70772E-06 5.38499E-19-9.44981E-19
 -1      3542 9.09800E-05-1.78535E-05-3.13157E-05-2.76996E-06 3.76972E-19-7.81847E-19
 -1      3543 9.12786E-05-2.10266E-05-3.01339E-05-5.76784E-07 2.66513E-20-6.80836E-19
 -1      3544 9.04137E-05-2.09116E-05-2.98286E-05 1.07125E-07 1.20313E-19-6.17142E-19
 -1      3545 8.97862E-05-2.04874E-05-2.96626E-05-1.07606E-06 1.50114E-19-6.22203E-19
 -1      3546 9.86022E-05-2.14287E-05-3.30316E-05 4.63817E-06 8.01378E-19 6.69640E-19
 -1      3547 9.94573E-05-2.30678E-05-3.27911E-05 6.48070E-06 9.28748E-19 5.44283E-19
 -1      3548 1.00164E-04-2.01111E-05-3.43260E-05 3.77787E-06 6.56634E-19 4.10671E-19
 -1      3549 1.26300E-04-4.98386E-05-3.29981E-05 4.08303E-06-9.07119E-20-1.09499E-18
 -1      3550 1.23471E-04-5.11967E-05-3.06498E-05 1.25979E-05 9.20685E-20-1.52598E-18
 -1      3551 1.11766E-04-1.18273E-05-4.31323E-05-5.17376E-06 1.41153E-18 9.24057E-19
 -1      3552 1.14254E-04-1.52778E-05-4.25433E-05-9.64075E-06 1.30522E-18 7.49743E-19
 -1      3553 1.12055E-04-1.89516E-05-4.00151E-05-1.00083E-05 7.76359E-19 1.22889E-18
 -1      3554 9.18434E-05-3.61016E-05-2.41525E-05 3.16949E-05-9.16966E-19-3.96888E-19
 -1      3555 8.09120E-05-2.77415E-05-2.25303E-05 3.08057E-05-7.39063E-19 9.90367E-20
 -1      3556 1.20765E-04-2.71473E-05-4.01737E-05 1.27003E-05-1.75495E-19 1.69941E-18
 -1      3557 1.17106E-04-1.98593E-05-4.20774E-05 1.16659E-05 2.33305E-19 1.81090E-18
 -1      3558 5.99099E-05-1.05885E-05-2.08878E-05 1.66657E-05-1.28561E-18 2.46984E-18
 -1      3559 5.77118E-05-7.70991E-06-2.13891E-05 7.29961E-06-1.50608E-18 1.94151E-18
 -1      3560 6.50144E-05-9.68555E-06-2.36492E-05 5.22020E-06-1.20109E-18 2.34829E-18
 -1      3561 7.28675E-05-2.20510E-05-2.17875E-05 2.87394E-05-4.18236E-19 1.41269E-19
 -1      3562 6.35839E-05-1.46267E-05-2.08430E-05 2.24637E-05-5.47574E-19 9.13499E-19
 -1      3563 6.93627E-05-1.51423E-05-2.30534E-05 1.75070E-05-9.32053E-19 1.73885E-18
 -1      3564 8.08043E-05-2.50222E-05-2.36917E-05 2.55965E-05-4.17627E-19 1.65820E-19
 -1      3565 9.20175E-05-1.94933E-05-3.10429E-05-2.53054E-06 4.07267E-20-1.09451E-18
 -1      3566 1.04690E-04-3.49323E-05-2.99112E-05 5.57172E-06-2.65374E-19 6.46950E-19
 -1      3567 1.04615E-04-3.53195E-05-2.96864E-05 4.53641E-06-5.09175E-20 6.31947E-19
 -1      3568 1.07076E-04-3.58892E-05-3.04903E-05 5.88755E-06 8.55801E-21 8.57118E-19
 -1      3569 1.16721E-04-4.78450E-05-2.94605E-05 1.47836E-05-5.84347E-19-1.73310E-18
 -1      3570 9.98840E-05-4.03001E-05-2.55871E-05-2.82240E-05-1.22732E-18-9.86039E-19
 -1      3571 1.08388E-04-4.69407E-05-2.61859E-05-2.91391E-05-1.55319E-18-6.31562E-19
 -1      3572 1.13060E-04-4.79431E-05-2.79317E-05-2.26642E-05-1.41678E-18-1.11716E-19
 -1      3573 9.10963E-05-1.88873E-05-3.09503E-05-2.73063E-06 2.56443E-19-8.10614E-19
 -1      3574 9.12488E-05-1.92212E-05-3.08972E-05-2.66859E-06 1.98389E-19-8.48406E-19
 -1      3575 9.52407E-05-2.85712E-05-2.85726E-05 7.48574E-09-2.11206E-18-2.20446E-18
 -1      3576 9.89770E-05-3.02064E-05-2.94467E-05-1.36247E-07 6.29957E-19 2.56014E-19
 -1      3577 9.88382E-05-2.96504E-05-2.96686E-05-4.44988E-07 7.33208E-19 1.63663E-19
 -1      3578 9.95113E-05-3.11297E-05-2.93190E-05-1.37514E-07 6.02546E-19 2.80803E-19
 -1      3579 9.88503E-05-3.81210E-05-2.58788E-05 2.59485E-05-8.20378E-19-1.18374E-18
 -1      3580 9.69729E-05-2.64765E-05-3.02240E-05 5.76489E-07 7.76928E-19 2.28075E-19
 -1      3581 1.20790E-04-3.24377E-05-3.80164E-05-1.21478E-05 6.62737E-19-5.16055E-19
 -1      3582 1.20312E-04-3.65194E-05-3.59625E-05-9.89201E-06 3.71067E-19-4.14578E-19
 -1      3583 1.15503E-04-2.78545E-05-3.75972E-05-1.22454E-05 5.13170E-19-4.12942E-19
 -1      3584 9.52425E-05-2.85685E-05-2.85746E-05 2.79750E-10-8.45790E-19 3.35066E-18
 -1      3585 9.52423E-05-2.85683E-05-2.85746E-05-7.02184E-10-1.28913E-18 1.95065E-18
 -1      3586 1.00952E-04-3.29057E-05-2.91779E-05 3.34517E-07 2.42785E-19 5.14884E-19
 -1      3587 1.00372E-04-3.20987E-05-2.92316E-05-1.88742E-09 3.29161E-19 3.73164E-19
 -1      3588 1.00453E-04-3.18766E-05-2.94107E-05-6.09279E-07 4.63397E-19 2.65858E-19
 -1      3589 9.52415E-05-2.85680E-05-2.85744E-05-3.11745E-09-9.03483E-19-1.18763E-18
 -1      3590 9.52412E-05-2.85681E-05-2.85742E-05-3.90346E-09-2.55337E-19-2.33736E-18
 -1      3591 9.52391E-05-2.85645E-05-2.85748E-05-3.83029E-09 1.43862E-18 8.01560E-19
 -1      3592 9.52391E-05-2.85622E-05-2.85758E-05-2.54733E-09 1.25506E-19 6.95091E-19
 -1      3593 9.52395E-05-2.85660E-05-2.85743E-05-4.79403E-09 3.91637E-19 4.66513E-19
 -1      3594 9.17349E-05-2.00951E-05-3.07068E-05-1.62693E-06 9.77945E-20-9.71983E-19
 -1      3595 9.52400E-05-2.85689E-05-2.85733E-05-5.95412E-09-1.59892E-18 1.93159E-18
 -1      3596 9.52397E-05-2.85675E-05-2.85738E-05-5.51756E-09-9.26976E-19 1.58025E-18
 -1      3597 9.52400E-05-2.85658E-05-2.85747E-05-4.45415E-09-7.81530E-19 3.10992E-18
 -1      3598 9.52404E-05-2.85689E-05-2.85735E-05-5.49075E-09-9.42938E-19 2.06249E-18
 -1      3599 9.52420E-05-2.85680E-05-2.85746E-05-1.51625E-09-6.10614E-19 2.28257E-18
 -1      3600 9.52417E-05-2.85679E-05-2.85745E-05-2.39614E-09-1.23216E-18 1.30866E-18
 -1      3601 9.52414E-05-2.85655E-05-2.85753E-05-2.63474E-09 5.66093E-19-9.06864E-19
 -1      3602 9.52420E-05-2.85657E-05-2.85755E-05-1.28685E-09-1.96523E-19 2.37018E-18
 -1      3603 9.14073E-05-1.81940E-05-3.13613E-05-2.15208E-06 6.28602E-19-7.59884E-19
 -1      3604 1.02465E-04-2.40140E-05-3.36054E-05 7.98502E-06 6.17879E-19 8.53922E-19
 -1      3605 1.09644E-04-1.26656E-05-4.17046E-05-1.88156E-06 1.14159E-18 1.67221E-18
 -1      3606 9.52414E-05-2.85708E-05-2.85732E-05 6.48349E-09-2.13973E-18-1.52777E-18
 -1      3607 9.52421E-05-2.85707E-05-2.85735E-05 5.61506E-09-1.35371E-18 1.12573E-18
 -1      3608 9.52413E-05-2.85695E-05-2.85736E-05 6.25741E-09-3.13454E-18-1.89645E-18
 -1      3609 1.31121E-04-5.18368E-05-3.40471E-05-2.91508E-06-1.09268E-18 4.55730E-19
 -1      3610 1.27798E-04-4.62494E-05-3.49300E-05 3.35497E-06-7.56920E-19 1.21842E-18
 -1      3611 1.23295E-04-3.74763E-05-3.68394E-05 9.86948E-06-7.49359E-20 1.41132E-18
 -1      3612 1.22666E-04-3.28617E-05-3.87312E-05 1.21227E-05-2.30896E-19 1.50287E-18
 -1      3613 1.17087E-04-2.77297E-05-3.82229E-05 1.22894E-05-6.65715E-21 1.74648E-18
 -1      3614 1.12790E-04-1.71039E-05-4.10982E-05 8.88938E-06 4.06338E-19 1.83274E-18
 -1      3615 6.74003E-05-1.72916E-05-2.14067E-05-2.33721E-05-6.41813E-19-1.54382E-18
 -1      3616 7.51853E-05-2.34748E-05-2.19140E-05-2.88470E-05-1.03173E-18-1.51217E-18
 -1      3617 7.21157E-05-1.78712E-05-2.32119E-05-1.94520E-05-5.29343E-19-1.19493E-18
 -1      3618 1.25516E-04-4.70427E-05-3.36110E-05-9.55866E-07-3.49871E-19-4.94141E-19
 -1      3619 1.20881E-04-4.64560E-05-3.19523E-05 2.21348E-06-1.40047E-19-4.62142E-19
 -1      3620 1.22070E-04-4.27752E-05-3.40670E-05-5.26257E-06-3.01114E-19-3.00058E-19
 -1      3621 1.24698E-04-5.20133E-05-3.11914E-05-1.13883E-05-1.38903E-18 1.92872E-19
 -1      3622 9.13838E-05-1.89787E-05-3.10260E-05-2.79477E-06 4.05535E-19-7.31026E-19
 -1      3623 9.11984E-05-1.89546E-05-3.09929E-05-2.92673E-06 2.31972E-19-7.08054E-19
 -1      3624 9.14684E-05-1.98180E-05-3.06642E-05-2.72540E-06 2.76747E-19-6.22659E-19
 -1      3625 9.52427E-05-2.85694E-05-2.85743E-05 2.30762E-09-5.85091E-19 3.93758E-18
 -1      3626 9.52427E-05-2.85690E-05-2.85744E-05 1.23067E-09-1.14598E-18 4.28706E-18
 -1      3627 9.52425E-05-2.85664E-05-2.85754E-05 3.18734E-10-1.11171E-18 3.59227E-18
 -1      3628 9.15178E-05-2.04632E-05-3.04343E-05-1.35448E-06 1.89455E-19-8.34708E-19
 -1      3629 9.42242E-05-2.18380E-05-3.10274E-05-2.35622E-08 8.34094E-19-4.93035E-19
 -1      3630 9.37266E-05-2.12611E-05-3.10663E-05-6.93097E-07 7.18527E-19-6.59553E-19
 -1      3631 9.52425E-05-2.85701E-05-2.85738E-05 4.44157E-09-4.98552E-19 2.74412E-18
 -1      3632 9.52427E-05-2.85698E-05-2.85741E-05 3.35215E-09-1.11070E-18 3.42486E-18
 -1      3633 9.52428E-05-2.85674E-05-2.85751E-05 2.14663E-09-2.58160E-18 3.29971E-18
 -1      3634 9.52426E-05-2.85685E-05-2.85745E-05 4.14701E-09-2.31209E-18 1.17418E-18
 -1      3635 8.49058E-05-2.95868E-05-2.35815E-05-2.82840E-05-1.20967E-18-1.59809E-18
 -1      3636 1.02475E-04-3.43645E-05-2.92095E-05 1.49629E-06 6.71125E-20 1.98420E-19
 -1      3637 1.01910E-04-3.37545E-05-2.91811E-05 8.36088E-07 1.87676E-19 3.69161E-19
 -1      3638 1.02278E-04-3.38991E-05-2.93263E-05-8.04967E-08 2.50637E-19 3.67697E-19
 -1      3639 9.31897E-05-2.06588E-05-3.10832E-05-1.28718E-06 6.64255E-19-7.52274E-19
 -1      3640 9.26945E-05-2.01977E-05-3.10887E-05-1.86564E-06 6.57254E-19-7.42633E-19
 -1      3641 9.42635E-05-2.23933E-05-3.07955E-05-1.50766E-06 5.39409E-19-5.90683E-19
 -1      3642 1.23520E-04-4.53449E-05-3.35512E-05 2.62865E-06-5.12845E-19 8.27492E-19
 -1      3643 1.24263E-04-4.25455E-05-3.51598E-05 6.91626E-06-2.31498E-19 1.07331E-18
 -1      3644 1.17067E-04-4.69871E-05-3.02148E-05 9.34097E-06-2.07645E-19-6.81491E-19
 -1      3645 1.11624E-04-4.46266E-05-2.84574E-05 1.66683E-05-9.31323E-19-1.34305E-18
 -1      3646 8.59987E-05-2.00350E-05-2.82377E-05-4.79215E-06-1.09256E-19-1.10077E-18
 -1      3647 8.38304E-05-1.94511E-05-2.76786E-05-6.20037E-06-1.31204E-19-1.12098E-18
 -1      3648 8.25196E-05-1.92388E-05-2.70514E-05-8.37636E-06-1.40614E-19-1.18689E-18
 -1      3649 7.91966E-05-1.83377E-05-2.61053E-05-1.11858E-05-2.91962E-19-1.20025E-18
 -1      3650 8.54174E-05-2.13345E-05-2.74521E-05-9.71874E-06-2.55920E-19-1.25151E-18
 -1      3651 1.07441E-04-2.87958E-05-3.36749E-05 9.95454E-06-5.70904E-20 1.30421E-18
 -1      3652 1.08736E-04-3.18016E-05-3.30401E-05 9.80310E-06-2.03870E-19 1.11574E-18
 -1      3653 9.09594E-05-2.02478E-05-3.03137E-05-1.85650E-06 3.09777E-19-7.37306E-19
 -1      3654 6.96059E-05-1.14496E-05-2.50119E-05 2.77027E-06-1.25408E-18 2.04023E-18
 -1      3655 7.46787E-05-1.35543E-05-2.61901E-05 1.58784E-06-1.18723E-18 2.25833E-18
 -1      3656 7.02660E-05-1.27804E-05-2.44846E-05 9.17020E-06-1.37228E-18 3.31581E-18
 -1      3657 9.49503E-05-2.27898E-05-3.09329E-05 1.26243E-06 8.29282E-19-2.35365E-19
 -1      3658 9.45068E-05-2.21414E-05-3.10157E-05 6.26145E-07 8.67490E-19-5.17515E-19
 -1      3659 9.51336E-05-2.33171E-05-3.07687E-05-2.86938E-07 7.03053E-19-4.77574E-19
 -1      3660 9.55931E-05-2.39429E-05-3.07046E-05 8.90607E-07 8.10097E-19-2.01902E-19
 -1      3661 7.78764E-05-1.52984E-05-2.69048E-05 2.02854E-07-3.73462E-19 1.95878E-18
 -1      3662 8.12208E-05-1.70845E-05-2.74899E-05-3.57876E-07 8.06451E-20 2.36213E-18
 -1      3663 7.77011E-05-1.57251E-05-2.64599E-05 4.44676E-06-4.22066E-19 2.77260E-18
 -1      3664 8.36497E-05-1.86800E-05-2.79061E-05-1.14152E-06-2.19908E-19 3.00583E-18
 -1      3665 8.60329E-05-2.02131E-05-2.82128E-05-1.33361E-06-1.21243E-19 2.34718E-18
 -1      3666 8.31261E-05-1.86369E-05-2.75635E-05 1.66139E-06-2.86750E-20 2.88915E-18
 -1      3667 8.77222E-05-2.14902E-05-2.84271E-05-1.68835E-06 2.92236E-19 2.08251E-18
 -1      3668 8.92850E-05-2.26425E-05-2.85656E-05-1.64987E-06 1.23152E-18 1.63123E-18
 -1      3669 8.71054E-05-2.12213E-05-2.81820E-05 1.10375E-07-2.85129E-21 3.33393E-18
 -1      3670 9.04397E-05-2.36084E-05-2.86692E-05-1.76106E-06 1.05060E-18 1.23523E-18
 -1      3671 9.14435E-05-2.44388E-05-2.87209E-05-1.61673E-06 9.08444E-19 6.38973E-19
 -1      3672 8.98623E-05-2.32718E-05-2.85009E-05-6.27706E-07 6.40825E-19 1.86459E-18
 -1      3673 9.22181E-05-2.51418E-05-2.87643E-05-1.60111E-06 1.01294E-18 5.24377E-19
 -1      3674 9.28508E-05-2.57236E-05-2.87732E-05-1.42434E-06 1.74036E-18 8.26308E-19
 -1      3675 9.17325E-05-2.48161E-05-2.86525E-05-9.01680E-07 9.24347E-19 5.94405E-19
 -1      3676 9.33622E-05-2.62215E-05-2.87852E-05-1.35256E-06 1.71350E-18 5.56942E-19
 -1      3677 9.37536E-05-2.66214E-05-2.87749E-05-1.18122E-06 1.49916E-18 1.21684E-19
 -1      3678 9.29790E-05-2.59415E-05-2.87131E-05-9.29965E-07 1.72069E-18 8.23770E-19
 -1      3679 9.40731E-05-2.69537E-05-2.87720E-05-1.09637E-06 1.42074E-18-7.06642E-19
 -1      3680 9.43037E-05-2.72149E-05-2.87556E-05-9.53057E-07 5.71446E-19-6.91841E-19
 -1      3681 9.37812E-05-2.67245E-05-2.87267E-05-8.46068E-07 7.80454E-19 6.04287E-19
 -1      3682 9.45234E-05-2.74583E-05-2.87461E-05-8.64093E-07-1.98357E-19-1.07118E-18
 -1      3683 9.46709E-05-2.76456E-05-2.87275E-05-7.39443E-07-1.14932E-19-1.17522E-18
 -1      3684 9.43061E-05-2.72794E-05-2.87181E-05-7.17174E-07-2.02087E-19-8.82028E-19
 -1      3685 9.48112E-05-2.78127E-05-2.87160E-05-6.60267E-07-3.19438E-20-1.15328E-18
 -1      3686 9.48984E-05-2.79387E-05-2.86989E-05-5.60928E-07-2.35133E-19-1.34180E-18
 -1      3687 9.46543E-05-2.76763E-05-2.86998E-05-5.78942E-07-5.84519E-19-1.03697E-18
 -1      3688 9.49875E-05-2.80530E-05-2.86875E-05-4.94534E-07-6.64152E-19-1.81462E-18
 -1      3689 9.50382E-05-2.81380E-05-2.86729E-05-4.17219E-07-1.33413E-18-1.29364E-18
 -1      3690 9.48763E-05-2.79513E-05-2.86789E-05-4.51821E-07-8.03690E-19-9.62354E-19
 -1      3691 9.50944E-05-2.82164E-05-2.86627E-05-3.63646E-07-1.77699E-18-1.33812E-19
 -1      3692 9.51232E-05-2.82740E-05-2.86507E-05-3.04509E-07-1.59676E-18-3.05469E-19
 -1      3693 9.50169E-05-2.81415E-05-2.86588E-05-3.43085E-07-8.24931E-19-4.33271E-19
 -1      3694 9.51585E-05-2.83279E-05-2.86420E-05-2.62465E-07-3.92307E-19-7.23363E-19
 -1      3695 9.51744E-05-2.83671E-05-2.86324E-05-2.17890E-07-3.21742E-19-6.79259E-19
 -1      3696 9.51054E-05-2.82734E-05-2.86410E-05-2.54177E-07-1.00819E-18-2.36392E-19
 -1      3697 9.51956E-05-2.84028E-05-2.86256E-05-1.87157E-07-1.43186E-18-1.36492E-18
 -1      3698 9.52037E-05-2.84287E-05-2.86184E-05-1.55206E-07-2.12150E-18-7.89847E-19
 -1      3699 9.51597E-05-2.83634E-05-2.86262E-05-1.85225E-07-1.23838E-18-1.12674E-18
 -1      3700 9.52176E-05-2.84550E-05-2.86126E-05-1.30433E-07-2.27126E-18-1.25307E-20
 -1      3701 9.52220E-05-2.84740E-05-2.86067E-05-1.05576E-07-1.78119E-18-6.72620E-19
 -1      3702 9.51937E-05-2.84266E-05-2.86140E-05-1.31668E-07-2.32561E-18-1.18529E-18
 -1      3703 9.52305E-05-2.84924E-05-2.86020E-05-8.72546E-08-2.17555E-18-5.02723E-19
 -1      3704 9.52325E-05-2.85056E-05-2.85975E-05-6.91817E-08-1.85665E-18-5.91354E-19
 -1      3705 9.52153E-05-2.84723E-05-2.86038E-05-8.98710E-08-1.88002E-18 1.29690E-18
 -1      3706 9.52375E-05-2.85183E-05-2.85939E-05-5.58453E-08-1.44368E-18-7.36040E-19
 -1      3707 9.52381E-05-2.85275E-05-2.85904E-05-4.28910E-08-1.05764E-18-1.97815E-19
 -1      3708 9.52283E-05-2.85044E-05-2.85958E-05-5.88358E-08-1.44229E-18 8.53837E-19
 -1      3709 9.52410E-05-2.85364E-05-2.85876E-05-3.33788E-08-1.74336E-19-1.41871E-19
 -1      3710 9.52410E-05-2.85428E-05-2.85850E-05-2.42544E-08-4.35953E-19-3.71215E-19
 -1      3711 9.52358E-05-2.85270E-05-2.85894E-05-3.62488E-08-9.33498E-19 2.18572E-18
 -1      3712 9.52425E-05-2.85490E-05-2.85829E-05-1.76321E-08-1.17594E-18-5.24996E-19
 -1      3713 9.52421E-05-2.85534E-05-2.85809E-05-1.13590E-08-4.37483E-19-3.76628E-19
 -1      3714 9.52399E-05-2.85427E-05-2.85845E-05-2.01697E-08-1.19146E-18 5.02481E-20
 -1      3715 9.52427E-05-2.85575E-05-2.85794E-05-7.09823E-09 9.84300E-20-2.33377E-19
 -1      3716 9.52423E-05-2.85605E-05-2.85780E-05-3.02683E-09 2.37313E-19-1.03130E-18
 -1      3717 9.52418E-05-2.85535E-05-2.85807E-05-9.23902E-09-3.06875E-20-7.17508E-19
 -1      3718 9.52424E-05-2.85634E-05-2.85767E-05-8.65407E-11-1.27000E-18-2.39020E-18
 -1      3719 9.52419E-05-2.85656E-05-2.85756E-05 2.71212E-09-2.33320E-18-2.26446E-18
 -1      3720 9.52425E-05-2.85610E-05-2.85778E-05-1.84649E-09-1.83332E-18-7.70695E-19
 -1      3721 9.52418E-05-2.85680E-05-2.85744E-05 4.66321E-09-2.75964E-18-2.32479E-18
 -1      3722 1.07073E-04-2.87345E-05-3.36475E-05-1.07817E-05-2.18720E-19 1.10374E-18
 -1      3723 1.05693E-04-2.56440E-05-3.42611E-05-1.02233E-05-2.66848E-21 1.38596E-18
 -1      3724 1.09401E-04-3.42383E-05-3.22158E-05 8.57975E-06-1.25145E-19 9.84476E-19
 -1      3725 1.10022E-04-3.61997E-05-3.16402E-05 7.54736E-06 1.75081E-20 1.06121E-18
 -1      3726 1.12070E-04-3.42596E-05-3.33097E-05 9.34638E-06-1.56348E-19 1.40108E-18
 -1      3727 1.01562E-04-1.78930E-05-3.59054E-05-3.70006E-06 9.13307E-19 8.25023E-19
 -1      3728 1.01237E-04-1.72513E-05-3.60163E-05-7.34084E-07 5.61139E-19 7.51699E-19
 -1      3729 1.08993E-04-3.40627E-05-3.21449E-05-9.44888E-06-6.25997E-19 7.76238E-19
 -1      3730 1.08151E-04-3.16480E-05-3.27772E-05-1.01443E-05-4.74179E-19 8.31767E-19
 -1      3731 1.10632E-04-3.11971E-05-3.40094E-05-1.08734E-05-1.67911E-19 6.67667E-19
 -1      3732 1.08935E-04-3.68993E-05-3.08488E-05-6.58135E-06-8.94241E-19 3.24315E-19
 -1      3733 1.08855E-04-3.56936E-05-3.13762E-05-7.78646E-06-6.60386E-19 4.80241E-19
 -1      3734 1.11591E-04-3.63010E-05-3.22575E-05-8.27010E-06-3.60578E-19-4.68695E-19
 -1      3735 1.07256E-04-3.74177E-05-2.98843E-05-3.55135E-06-1.69765E-19 4.17625E-19
 -1      3736 1.07828E-04-3.72891E-05-3.02687E-05-4.75090E-06-6.56540E-19 3.34192E-19
 -1      3737 1.10446E-04-3.86528E-05-3.08222E-05-4.63988E-06-6.44472E-19 4.36561E-20
 -1      3738 1.04793E-04-3.64410E-05-2.92455E-05-1.19950E-06-6.14425E-19 6.37675E-19
 -1      3739 1.05719E-04-3.69668E-05-2.94968E-05-2.14171E-06-2.31215E-19 3.13902E-19
 -1      3740 1.07812E-04-3.84571E-05-2.98048E-05-1.52823E-06-4.37159E-19 6.81337E-19
 -1      3741 1.02248E-04-3.48030E-05-2.88658E-05 2.96106E-07-3.40190E-19 6.62401E-19
 -1      3742 1.03251E-04-3.55957E-05-2.90132E-05-3.28839E-07-1.95636E-19 5.27999E-19
 -1      3743 1.04734E-04-3.68733E-05-2.91642E-05 5.37924E-07-2.91990E-19 1.76691E-19
 -1      3744 1.00034E-04-3.30820E-05-2.86654E-05 1.07509E-06-9.19755E-20 1.71584E-18
 -1      3745 1.00937E-04-3.38872E-05-2.87416E-05 7.21646E-07-3.50497E-19 1.22976E-18
 -1      3746 1.01883E-04-3.48321E-05-2.88020E-05 1.61772E-06-2.27070E-19-5.66701E-20
 -1      3747 9.83026E-05-3.15811E-05-2.85765E-05 1.36661E-06-4.62609E-20 1.93269E-18
 -1      3748 9.90288E-05-3.22715E-05-2.86087E-05 1.20601E-06 2.07753E-19 2.07797E-18
 -1      3749 9.95712E-05-3.28996E-05-2.86214E-05 1.99825E-06-1.32018E-19 1.10849E-18
 -1      3750 9.70519E-05-3.04097E-05-2.85501E-05 1.37118E-06 1.10643E-19 1.01792E-18
 -1      3751 9.75894E-05-3.09422E-05-2.85580E-05 1.33131E-06 3.22072E-19 1.66484E-18
 -1      3752 9.78593E-05-3.13210E-05-2.85488E-05 1.96357E-06 3.44097E-19 7.97042E-19
 -1      3753 9.62071E-05-2.95679E-05-2.85538E-05 1.23227E-06 2.38121E-19 3.60002E-19
 -1      3754 9.65786E-05-2.99469E-05-2.85505E-05 1.25917E-06-1.73282E-19 2.84728E-19
 -1      3755 9.66786E-05-3.01482E-05-2.85335E-05 1.72821E-06 2.80061E-19-2.33031E-19
 -1      3756 9.56719E-05-2.90050E-05-2.85689E-05 1.03907E-06-2.38841E-19 6.36756E-19
 -1      3757 9.59131E-05-2.92561E-05-2.85618E-05 1.09730E-06-7.32608E-21 2.39057E-19
 -1      3758 9.59162E-05-2.93415E-05-2.85441E-05 1.42574E-06 1.54189E-19-9.65429E-19
 -1      3759 9.53569E-05-2.86563E-05-2.85852E-05 8.40446E-07-6.94005E-19 3.94637E-19
 -1      3760 9.55033E-05-2.88101E-05-2.85783E-05 9.08893E-07-8.07003E-21 7.11551E-19
 -1      3761 9.54568E-05-2.88249E-05-2.85632E-05 1.12793E-06-3.86767E-19-5.24596E-19
 -1      3762 9.51891E-05-2.84605E-05-2.85982E-05 6.59994E-07-7.76939E-19-2.84030E-20
 -1      3763 9.52708E-05-2.85455E-05-2.85931E-05 7.27169E-07-7.82326E-19 4.14836E-19
 -1      3764 9.52039E-05-2.85209E-05-2.85816E-05 8.66846E-07-4.44143E-19-5.90405E-19
 -1      3765 9.51140E-05-2.83671E-05-2.86065E-05 5.06664E-07 3.34896E-20-2.71645E-19
 -1      3766 9.51541E-05-2.84064E-05-2.86037E-05 5.67050E-07-2.01253E-19-5.71482E-19
 -1      3767 9.50836E-05-2.83629E-05-2.85957E-05 6.52307E-07-2.60008E-19-7.02407E-19
 -1      3768 9.50933E-05-2.83378E-05-2.86104E-05 3.81623E-07-1.17341E-18 6.57607E-19
 -1      3769 9.51084E-05-2.83488E-05-2.86095E-05 4.33159E-07-5.10199E-19-1.04505E-19
 -1      3770 9.50431E-05-2.82990E-05-2.86047E-05 4.82923E-07-4.00824E-19 1.31043E-19
 -1      3771 9.51016E-05-2.83455E-05-2.86106E-05 2.82417E-07 1.20251E-19 1.07130E-18
 -1      3772 9.51028E-05-2.83404E-05-2.86113E-05 3.24898E-07-4.43957E-19 1.13280E-18
 -1      3773 9.50468E-05-2.82917E-05-2.86089E-05 3.52595E-07-9.52217E-19-1.94142E-19
 -1      3774 9.51230E-05-2.83719E-05-2.86083E-05 2.05267E-07-4.07390E-20 8.77321E-19
 -1      3775 9.51175E-05-2.83589E-05-2.86100E-05 2.39393E-07 3.60934E-19 1.20209E-18
 -1      3776 9.50719E-05-2.83150E-05-2.86094E-05 2.54036E-07-5.27099E-19 1.53217E-18
 -1      3777 9.51482E-05-2.84056E-05-2.86046E-05 1.46221E-07-9.52029E-20 1.23379E-18
 -1      3778 9.51402E-05-2.83897E-05-2.86068E-05 1.73069E-07-3.79867E-19 7.33411E-19
 -1      3779 9.51045E-05-2.83522E-05-2.86074E-05 1.80412E-07-1.50615E-19 9.51409E-19
 -1      3780 9.51721E-05-2.84398E-05-2.86000E-05 1.01663E-07-5.95782E-19 5.05761E-19
 -1      3781 9.51640E-05-2.84240E-05-2.86025E-05 1.22398E-07 2.09459E-19 1.19612E-18
 -1      3782 9.51371E-05-2.83933E-05-2.86039E-05 1.25937E-07-1.38524E-19 9.88630E-19
 -1      3783 9.51925E-05-2.84709E-05-2.85953E-05 6.84984E-08-5.37991E-19-8.18013E-19
 -1      3784 9.51854E-05-2.84566E-05-2.85978E-05 8.42305E-08-3.47096E-19 5.38641E-20
 -1      3785 9.51658E-05-2.84323E-05-2.85996E-05 8.59746E-08 1.89822E-19 9.18342E-19
 -1      3786 9.52086E-05-2.84973E-05-2.85909E-05 4.41739E-08-2.97158E-19-1.25106E-19
 -1      3787 9.52029E-05-2.84853E-05-2.85931E-05 5.58958E-08-1.07133E-18-4.75997E-19
 -1      3788 9.51892E-05-2.84666E-05-2.85950E-05 5.69236E-08-6.96595E-19-4.19772E-19
 -1      3789 9.52206E-05-2.85186E-05-2.85868E-05 2.66267E-08-5.04203E-19-6.04817E-20
 -1      3790 9.52164E-05-2.85090E-05-2.85888E-05 3.51905E-08-4.33006E-20 2.94783E-19
 -1      3791 9.52072E-05-2.84949E-05-2.85907E-05 3.60287E-08-6.13556E-19-4.95137E-19
 -1      3792 9.52290E-05-2.85352E-05-2.85832E-05 1.42148E-08-9.75823E-19-3.97605E-19
 -1      3793 9.52261E-05-2.85278E-05-2.85849E-05 2.03316E-08-8.00234E-19-4.51439E-19
 -1      3794 9.52203E-05-2.85175E-05-2.85867E-05 2.12018E-08-5.41761E-20-1.39558E-18
 -1      3795 9.52346E-05-2.85478E-05-2.85802E-05 5.64377E-09-1.44460E-19-7.74994E-19
 -1      3796 9.52327E-05-2.85421E-05-2.85816E-05 9.91661E-09-1.02030E-18-1.50100E-18
 -1      3797 9.52292E-05-2.85349E-05-2.85832E-05 1.08820E-08-2.30483E-19-1.69920E-18
 -1      3798 9.52379E-05-2.85570E-05-2.85776E-05 3.06197E-11 1.36322E-19 2.29281E-19
 -1      3799 9.52368E-05-2.85529E-05-2.85788E-05 2.81760E-09 1.77237E-19-1.67690E-20
 -1      3800 9.52350E-05-2.85480E-05-2.85801E-05 3.85950E-09-9.98163E-19 1.89785E-19
 -1      3801 9.21767E-05-1.96505E-05-3.10764E-05-2.26426E-06 5.74627E-19-5.96191E-19
 -1      3802 9.17758E-05-1.93800E-05-3.10588E-05-2.64859E-06 4.73341E-19-7.71546E-19
 -1      3803 9.21469E-05-2.03346E-05-3.07455E-05-2.93644E-06 2.85949E-19-5.87737E-19
 -1      3804 9.31068E-05-2.12187E-05-3.07955E-05-2.47407E-06 3.81214E-19-5.68085E-19
 -1      3805 9.52410E-05-2.85685E-05-2.85740E-05-4.42445E-09-2.09590E-19-1.94245E-18
 -1      3806 9.52407E-05-2.85685E-05-2.85738E-05-4.97937E-09 1.47558E-19-6.67912E-19
 -1      3807 9.52405E-05-2.85669E-05-2.85744E-05-4.64822E-09-9.32065E-19 1.50653E-18
 -1      3808 9.52410E-05-2.85661E-05-2.85749E-05-3.71311E-09 1.03256E-19-2.20245E-18
 -1      3809 1.01744E-04-1.79463E-05-3.58978E-05 3.05545E-06 5.98485E-19 1.32165E-18
 -1      3810 1.02520E-04-1.96052E-05-3.56323E-05 5.63637E-06 9.32637E-19 1.50758E-18
 -1      3811 1.03747E-04-1.64960E-05-3.74242E-05 1.49705E-06 9.35746E-19 1.80315E-18
 -1      3812 1.20020E-04-5.03354E-05-2.96850E-05-1.54592E-05-1.30910E-18-2.45395E-19
 -1      3813 1.22768E-04-4.90735E-05-3.16385E-05-6.29649E-06-1.04369E-18 2.72171E-19
 -1      3814 1.09199E-04-1.94214E-05-3.85004E-05 8.68095E-06 3.94784E-19 1.90077E-18
 -1      3815 1.07005E-04-1.46966E-05-3.97537E-05 4.59734E-06 9.89119E-19 1.85287E-18
 -1      3816 1.07864E-04-1.76158E-05-3.88262E-05-8.20107E-06 7.16775E-19 1.22929E-18
 -1      3817 1.10509E-04-2.14616E-05-3.81592E-05-1.08356E-05 4.38287E-19 9.02175E-19
 -1      3818 8.87540E-05-2.07159E-05-2.91391E-05-2.77463E-06 3.17753E-20-9.57209E-19
 -1      3819 8.71308E-05-2.03185E-05-2.87068E-05-3.45322E-06 3.59460E-20-9.68529E-19
 -1      3820 8.79268E-05-2.13126E-05-2.85265E-05-5.89256E-06-1.13650E-19-1.26611E-18
 -1      3821 1.03853E-04-3.51993E-05-2.94445E-05 3.31459E-06 9.05717E-20 4.63222E-19
 -1      3822 1.03441E-04-3.49669E-05-2.93220E-05 2.38760E-06 8.22290E-21 1.60581E-19
 -1      3823 1.06011E-04-3.64270E-05-2.98254E-05 3.30272E-06-2.23440E-19 6.06082E-19
 -1      3824 9.05808E-05-2.07844E-05-2.98811E-05-2.04952E-06 1.14969E-19-7.54230E-19
 -1      3825 8.95291E-05-2.07634E-05-2.95223E-05-2.12647E-06 9.22058E-21-7.94006E-19
 -1      3826 8.97912E-05-2.12121E-05-2.93705E-05-3.69612E-06-2.00988E-20-1.10368E-18
 -1      3827 1.03026E-04-4.04590E-05-2.71010E-05 2.17596E-05-8.14760E-19-1.86292E-18
 -1      3828 9.35952E-05-3.33037E-05-2.56875E-05 2.38742E-05-6.25795E-19-1.03103E-18
 -1      3829 8.34336E-05-2.65289E-05-2.44021E-05-2.42791E-05-8.82675E-19-1.54519E-18
 -1      3830 9.21813E-05-3.39814E-05-2.47908E-05-2.81150E-05-1.21226E-18-1.65006E-18
 -1      3831 9.84360E-05-3.72612E-05-2.62337E-05-2.43509E-05-9.75140E-19-1.06734E-18
 -1      3832 1.06450E-04-1.34985E-05-3.99261E-05 6.10819E-07 1.14473E-18 1.49447E-18
 -1      3833 1.06124E-04-1.49672E-05-3.90985E-05-4.92597E-06 9.90420E-19 1.32399E-18
 -1      3834 9.52423E-05-2.85667E-05-2.85753E-05 3.32651E-09-2.23633E-18-1.40019E-18
 -1      3835 1.04267E-04-2.23452E-05-3.50511E-05 8.26061E-06 5.84932E-19 1.26454E-18
 -1      3836 1.05744E-04-2.54626E-05-3.45102E-05 9.55846E-06 2.49441E-19 1.10887E-18
 -1      3837 1.09613E-04-2.75389E-05-3.51137E-05 1.05857E-05 1.32114E-19 1.26713E-18
 -1      3838 1.05927E-04-2.01722E-05-3.67024E-05 7.92046E-06 6.68706E-19 1.52418E-18
 -1      3839 9.09117E-05-2.05323E-05-3.01832E-05-2.67214E-06 1.89419E-19-8.63022E-19
 -1      3840 1.04981E-04-1.79384E-05-3.73533E-05-6.01058E-06 6.55465E-19 1.04962E-18
 -1      3841 9.52422E-05-2.85641E-05-2.85764E-05-2.39829E-12-1.24733E-18 3.85767E-18
 -1      3842 9.52420E-05-2.85635E-05-2.85765E-05-7.95713E-10-1.94618E-19 2.25653E-18
 -1      3843 1.13488E-04-4.65632E-05-2.87010E-05-1.75439E-05-8.54418E-19-3.34373E-19
 -1      3844 1.17237E-04-4.40845E-05-3.13908E-05 5.22275E-07-6.78291E-19-7.13860E-19
 -1      3845 1.18391E-04-4.62968E-05-3.08092E-05 5.02143E-06-4.97738E-19-1.04136E-18
 -1      3846 1.13390E-04-4.40105E-05-2.97896E-05 7.61202E-06-7.43093E-19-7.50574E-19
 -1      3847 1.06112E-04-4.05497E-05-2.80262E-05 1.61989E-05-8.86728E-19-1.20332E-18
 -1      3848 1.18214E-04-4.64791E-05-3.08319E-05-5.87581E-06-8.28542E-19 1.92025E-19
 -1      3849 1.22638E-04-4.74418E-05-3.22322E-05-1.46212E-06-7.50676E-19 5.65707E-19
 -1      3850 1.19855E-04-4.36511E-05-3.25990E-05 2.81117E-06-4.42021E-19 9.61908E-19
 -1      3851 9.11635E-05-2.06856E-05-3.02269E-05-2.99648E-06 1.74656E-19-7.29723E-19
 -1      3852 8.61869E-05-2.53420E-05-2.60682E-05-1.80032E-05-5.30982E-19-1.30067E-18
 -1      3853 8.10917E-05-2.20229E-05-2.52476E-05-1.74979E-05-4.59289E-19-1.18473E-18
 -1      3854 9.52415E-05-2.85629E-05-2.85766E-05-1.22227E-09-1.72111E-19 6.83488E-19
 -1      3855 9.52412E-05-2.85626E-05-2.85766E-05-1.80414E-09 1.14586E-18 6.65942E-19
 -1      3856 9.52412E-05-2.85600E-05-2.85776E-05-1.47689E-09-6.01941E-19 1.22805E-18
 -1      3857 1.11884E-04-2.59401E-05-3.69564E-05-1.16434E-05-6.83690E-20 8.44890E-19
 -1      3858 1.12735E-04-2.98168E-05-3.54957E-05-1.16144E-05 1.30430E-20 2.62820E-19
 -1      3859 7.16082E-05-1.50986E-05-2.42670E-05 1.33061E-05-1.61331E-18 2.56865E-18
 -1      3860 7.59521E-05-1.62466E-05-2.55152E-05 1.01455E-05-1.71400E-18 2.61700E-18
 -1      3861 7.56559E-05-1.89993E-05-2.42583E-05 1.85615E-05-6.97788E-19 9.28308E-19
 -1      3862 1.12285E-04-3.83666E-05-3.17202E-05 5.96133E-06-1.02060E-19 1.51297E-18
 -1      3863 1.09489E-04-3.72737E-05-3.09810E-05 5.65398E-06-1.61034E-19 8.62116E-19
 -1      3864 1.09369E-04-3.79544E-05-3.05492E-05 4.39894E-06-2.40116E-19 7.92329E-19
 -1      3865 1.03134E-04-1.97595E-05-3.57040E-05-7.06760E-06 7.69132E-19 1.29953E-18
 -1      3866 1.01196E-04-3.25264E-05-2.94390E-05-1.39348E-06 3.48027E-19 2.95805E-19
 -1      3867 1.00328E-04-3.13588E-05-2.95295E-05-1.40690E-06 3.99878E-19 2.39802E-19
 -1      3868 9.52395E-05-2.85619E-05-2.85762E-05-2.75365E-09-1.84470E-18 2.14127E-18
 -1      3869 9.52389E-05-2.85596E-05-2.85768E-05-1.42118E-09-5.14131E-19 5.10591E-19
 -1      3870 9.52382E-05-2.85564E-05-2.85779E-05-4.45721E-10-1.32634E-18 2.52135E-18
 -1      3871 1.04413E-04-2.23978E-05-3.52367E-05-9.11011E-06 1.53646E-19 1.47514E-18
 -1      3872 1.08088E-04-2.41514E-05-3.59748E-05-1.05857E-05-4.48398E-20 1.26004E-18
 -1      3873 1.11147E-04-2.36490E-05-3.77233E-05 1.09861E-05 1.25268E-20 1.53375E-18
 -1      3874 1.16356E-04-3.43465E-05-3.51797E-05-1.06253E-05 2.64483E-19-7.06425E-19
 -1      3875 1.20542E-04-3.87267E-05-3.50379E-05-8.98840E-06 3.48872E-20-3.57170E-19
 -1      3876 1.18703E-04-4.05592E-05-3.34545E-05-6.37243E-06-2.23504E-19-4.78838E-19
 -1      3877 1.12924E-04-3.20800E-05-3.46820E-05-1.06897E-05 1.41306E-19 4.90419E-19
 -1      3878 1.20093E-04-3.74429E-05-3.53462E-05 9.44022E-06 5.38461E-20 1.42583E-18
 -1      3879 1.12972E-04-2.78289E-05-3.65492E-05 1.10053E-05 2.07801E-19 1.25323E-18
 -1      3880 9.92911E-05-3.00844E-05-2.96670E-05-1.19206E-06 6.31648E-19 7.24550E-20
 -1      3881 9.85359E-05-2.88440E-05-2.98369E-05-8.85538E-07 7.02694E-19-3.93459E-20
 -1      3882 9.98147E-05-3.06413E-05-2.96746E-05-1.99830E-06 3.97573E-19 3.44134E-20
 -1      3883 9.25058E-05-3.08415E-05-2.62892E-05 1.97976E-05-4.78861E-19-1.33635E-18
 -1      3884 8.66341E-05-2.83528E-05-2.51073E-05 2.34801E-05-6.96271E-19-2.18508E-19
 -1      3885 9.52402E-05-2.85626E-05-2.85761E-05-2.71022E-09-2.73827E-19-6.74039E-19
 -1      3886 9.52401E-05-2.85631E-05-2.85759E-05-3.09047E-09-9.15023E-19 3.83741E-19
 -1      3887 9.52409E-05-2.85626E-05-2.85764E-05-2.06918E-09 1.44429E-18 6.38155E-19
 -1      3888 9.52406E-05-2.85627E-05-2.85763E-05-2.58767E-09 1.98696E-18-1.34212E-18
 -1      3889 9.52404E-05-2.85593E-05-2.85775E-05-1.89806E-09 1.56210E-18-2.68028E-19
 -1      3890 9.52425E-05-2.85657E-05-2.85758E-05 2.34725E-09-2.54469E-18 9.64653E-19
 -1      3891 9.52427E-05-2.85650E-05-2.85762E-05 1.42097E-09-3.08016E-18 2.95321E-18
 -1      3892 9.52427E-05-2.85627E-05-2.85771E-05 1.40745E-10-1.85251E-18 7.28496E-19
 -1      3893 9.74333E-05-2.72469E-05-3.00929E-05-4.05502E-07 7.55583E-19-8.67841E-20
 -1      3894 9.62699E-05-2.50763E-05-3.04974E-05 4.49756E-07 7.40638E-19-1.60662E-19
 -1      3895 8.00444E-05-2.27987E-05-2.45094E-05 2.10826E-05-5.87470E-19-3.12079E-20
 -1      3896 1.04230E-04-3.55550E-05-2.94493E-05 1.22108E-06-2.87575E-20 4.41020E-19
 -1      3897 9.53410E-05-2.40805E-05-3.05428E-05-1.80587E-06 5.17772E-19-4.37976E-19
 -1      3898 9.47247E-05-2.34658E-05-3.05517E-05-2.35767E-06 3.57143E-19-5.60671E-19
 -1      3899 1.03403E-04-3.48333E-05-2.94008E-05-9.00437E-07 1.35185E-19 2.82087E-19
 -1      3900 1.02431E-04-3.37598E-05-2.93955E-05-1.27429E-06 3.39875E-19 3.30627E-19
 -1      3901 1.02081E-04-3.33537E-05-2.94862E-05-2.23708E-06 2.87751E-19 2.65983E-19
 -1      3902 9.60130E-05-2.47329E-05-3.05513E-05-9.94411E-08 7.88589E-19-4.91233E-19
 -1      3903 9.52396E-05-2.85592E-05-2.85773E-05-1.96538E-09 1.05103E-19 8.64737E-19
 -1      3904 9.77567E-05-2.76187E-05-3.00781E-05-1.16961E-06 6.36832E-19-3.21935E-19
 -1      3905 1.08218E-04-4.26399E-05-2.78907E-05-1.95150E-05-7.43391E-19-3.47780E-19
 -1      3906 1.13355E-04-4.50655E-05-2.93374E-05-1.30562E-05-6.95602E-19-3.06781E-19
 -1      3907 8.89358E-05-2.56863E-05-2.70834E-05-1.44902E-05-4.81274E-19-1.01545E-18
 -1      3908 9.25452E-05-3.03440E-05-2.65614E-05-1.96461E-05-7.79691E-19-1.06183E-18
 -1      3909 7.49636E-05-1.80623E-05-2.43480E-05-1.67637E-05-4.65484E-19-9.73188E-19
 -1      3910 9.52402E-05-2.85653E-05-2.85750E-05-3.95921E-09-1.24691E-18 9.90791E-19
 -1      3911 9.52388E-05-2.85560E-05-2.85783E-05-1.41843E-09 3.00738E-20 1.08952E-19
 -1      3912 9.52383E-05-2.85560E-05-2.85782E-05-1.16272E-09-1.65327E-18 1.89380E-18
 -1      3913 9.52372E-05-2.85527E-05-2.85790E-05 3.83202E-10-8.44293E-19 1.28750E-18
 -1      3914 1.12309E-04-4.12438E-05-3.03591E-05-5.19503E-08-9.20367E-19-8.67120E-19
 -1      3915 1.13532E-04-4.12639E-05-3.09911E-05-1.84467E-06-9.11613E-19-8.24507E-19
 -1      3916 8.25927E-05-1.91455E-05-2.72652E-05 4.31284E-06 2.99595E-19 1.39965E-18
 -1      3917 8.49527E-05-2.03468E-05-2.76786E-05 3.10713E-06 3.77141E-19 2.08963E-18
 -1      3918 8.64255E-05-2.12995E-05-2.79689E-05 1.87875E-06-6.31794E-19 2.25755E-18
 -1      3919 8.81099E-05-2.23289E-05-2.81900E-05 1.24064E-06 4.83512E-20 2.07940E-18
 -1      3920 8.64663E-05-2.16600E-05-2.77260E-05 4.27762E-06 2.67800E-19 3.31463E-19
 -1      3921 8.92288E-05-2.31563E-05-2.83549E-05 5.21322E-07-1.49936E-19 1.69609E-18
 -1      3922 9.03848E-05-2.39652E-05-2.84674E-05 2.18811E-07-9.71395E-20 1.42410E-18
 -1      3923 8.89831E-05-2.31553E-05-2.81768E-05 2.12092E-06-4.78025E-19 9.30824E-19
 -1      3924 9.12015E-05-2.46267E-05-2.85564E-05-1.72756E-07 6.52430E-19 8.41460E-19
 -1      3925 9.19795E-05-2.52361E-05-2.86078E-05-2.83652E-07 9.03316E-19 5.08992E-19
 -1      3926 9.08658E-05-2.44647E-05-2.84328E-05 8.67371E-07-4.83836E-19 1.78446E-18
 -1      3927 9.25605E-05-2.57409E-05-2.86519E-05-4.78556E-07 1.50655E-18-2.89610E-19
 -1      3928 9.30745E-05-2.61861E-05-2.86703E-05-4.88649E-07 1.58859E-18 1.00472E-19
 -1      3929 9.22299E-05-2.55268E-05-2.85695E-05 1.82622E-07 4.50431E-19 5.84520E-19
 -1      3930 9.34620E-05-2.65435E-05-2.86884E-05-5.67117E-07 5.33671E-19-6.12652E-19
 -1      3931 9.37853E-05-2.68495E-05-2.86903E-05-5.32126E-07 2.72248E-19-1.21305E-18
 -1      3932 9.31740E-05-2.63285E-05-2.86353E-05-1.54974E-07 8.02774E-19-2.12099E-18
 -1      3933 9.40689E-05-2.71248E-05-2.86956E-05-5.52506E-07 2.29128E-19-1.35091E-18
 -1      3934 9.42907E-05-2.73543E-05-2.86898E-05-4.97580E-07-4.36242E-19-1.22113E-18
 -1      3935 9.38347E-05-2.69365E-05-2.86622E-05-2.97288E-07 3.24123E-19-2.72878E-18
 -1      3936 9.44832E-05-2.75522E-05-2.86878E-05-4.85554E-07-1.04208E-18-1.04825E-18
 -1      3937 9.46251E-05-2.77131E-05-2.86788E-05-4.27533E-07-4.11720E-19-1.77093E-18
 -1      3938 9.43013E-05-2.73954E-05-2.86683E-05-3.34605E-07-7.00940E-19-1.82815E-18
 -1      3939 9.47549E-05-2.78540E-05-2.86734E-05-4.01403E-07-1.72752E-20-1.78671E-18
 -1      3940 9.48450E-05-2.79668E-05-2.86638E-05-3.47997E-07-7.83886E-19-1.36547E-18
 -1      3941 9.46181E-05-2.77292E-05-2.86629E-05-3.15118E-07-4.92264E-19-2.71077E-18
 -1      3942 9.49320E-05-2.80669E-05-2.86572E-05-3.17936E-07-6.69029E-19-1.55186E-18
 -1      3943 9.49889E-05-2.81460E-05-2.86482E-05-2.72202E-07-6.66077E-19-1.11762E-18
 -1      3944 9.48316E-05-2.79701E-05-2.86525E-05-2.70827E-07-2.09066E-19-1.57677E-18
 -1      3945 9.50470E-05-2.82170E-05-2.86417E-05-2.43432E-07-1.27865E-18-1.28556E-18
 -1      3946 9.50827E-05-2.82727E-05-2.86338E-05-2.06056E-07-3.64642E-19-1.44202E-18
 -1      3947 9.49748E-05-2.81435E-05-2.86404E-05-2.19477E-07-1.21208E-18-2.84648E-18
 -1      3948 9.51197E-05-2.83209E-05-2.86281E-05-1.82169E-07-4.54563E-19-9.31296E-19
 -1      3949 9.51411E-05-2.83587E-05-2.86217E-05-1.53729E-07-1.78939E-18-1.45565E-18
 -1      3950 9.50685E-05-2.82656E-05-2.86288E-05-1.71330E-07-5.97769E-19-1.44754E-18
 -1      3951 9.51671E-05-2.83953E-05-2.86164E-05-1.32642E-07-2.14829E-18-8.42711E-19
 -1      3952 9.51812E-05-2.84237E-05-2.86109E-05-1.09444E-07-2.42901E-18 2.54920E-19
 -1      3953 9.51312E-05-2.83540E-05-2.86182E-05-1.29031E-07-1.49490E-18-8.01566E-19
 -1      3954 9.51982E-05-2.84497E-05-2.86064E-05-9.27404E-08-1.90987E-18-1.56052E-21
 -1      3955 9.52068E-05-2.84698E-05-2.86019E-05-7.51965E-08-1.41390E-18 5.34681E-19
 -1      3956 9.51739E-05-2.84195E-05-2.86087E-05-9.30388E-08-1.65462E-18 1.36390E-19
 -1      3957 9.52178E-05-2.84883E-05-2.85982E-05-6.23491E-08-1.11481E-18 1.26347E-18
 -1      3958 9.52229E-05-2.85026E-05-2.85947E-05-4.93574E-08-5.98295E-19 1.99349E-18
 -1      3959 9.52018E-05-2.84666E-05-2.86006E-05-6.44922E-08-1.30716E-18 6.40463E-19
 -1      3960 9.52297E-05-2.85157E-05-2.85916E-05-3.97579E-08-8.70080E-19 1.45719E-18
 -1      3961 9.52326E-05-2.85258E-05-2.85888E-05-3.03415E-08-1.80384E-18 1.41842E-18
 -1      3962 9.52197E-05-2.85003E-05-2.85939E-05-4.25949E-08-8.58803E-19 2.65188E-18
 -1      3963 9.52368E-05-2.85350E-05-2.85864E-05-2.33648E-08-1.61412E-18 1.41743E-18
 -1      3964 9.52383E-05-2.85421E-05-2.85842E-05-1.67137E-08-1.67275E-18 1.33511E-18
 -1      3965 9.52308E-05-2.85242E-05-2.85884E-05-2.62909E-08-2.18328E-18 2.65793E-18
 -1      3966 9.52405E-05-2.85482E-05-2.85823E-05-1.20250E-08-6.57234E-19-1.80577E-19
 -1      3967 9.52411E-05-2.85529E-05-2.85807E-05-7.65742E-09-3.11420E-19-6.70720E-19
 -1      3968 9.52372E-05-2.85409E-05-2.85841E-05-1.47359E-08-2.12137E-18 2.61166E-18
 -1      3969 9.52421E-05-2.85565E-05-2.85795E-05-4.90069E-09-6.16057E-19-5.23223E-19
 -1      3970 9.52423E-05-2.85600E-05-2.85781E-05-1.82316E-09-1.45230E-18 2.03179E-19
 -1      3971 9.52420E-05-2.85587E-05-2.85786E-05-2.45876E-09-1.35347E-18 1.21466E-18
 -1      3972 9.52404E-05-2.85516E-05-2.85810E-05-7.26066E-09-3.17898E-19-3.60817E-19
 -1      3973 1.16001E-04-3.65411E-05-3.41037E-05 8.80179E-06 1.27253E-20 1.28414E-18
 -1      3974 1.16717E-04-3.93840E-05-3.31544E-05 7.31553E-06-1.17011E-19 1.39845E-18
 -1      3975 9.57939E-05-2.44561E-05-3.05709E-05-7.11329E-07 7.11379E-19-5.28161E-19
 -1      3976 1.13965E-04-3.54816E-05-3.37139E-05-9.90399E-06 5.02165E-20-1.02140E-19
 -1      3977 1.07938E-04-3.91308E-05-2.93873E-05 2.58330E-06-4.14980E-19-5.76614E-19
 -1      3978 1.09580E-04-4.00038E-05-2.97966E-05 1.33180E-06-6.74093E-19-6.65272E-19
 -1      3979 1.11354E-04-4.21228E-05-2.97745E-05 4.81896E-06-1.05433E-18-1.63189E-18
 -1      3980 1.03895E-04-3.63823E-05-2.88566E-05 3.69663E-06-2.47966E-19-4.04496E-19
 -1      3981 1.05527E-04-3.75551E-05-2.90924E-05 3.04716E-06-2.19420E-19-7.24630E-19
 -1      3982 1.06013E-04-3.87485E-05-2.89611E-05 6.28551E-06-3.50604E-19-1.14030E-18
 -1      3983 1.00697E-04-3.38484E-05-2.86005E-05 3.80485E-06-3.36479E-19-1.61671E-19
 -1      3984 1.02081E-04-3.49598E-05-2.87223E-05 3.57828E-06-1.88275E-19-4.72547E-19
 -1      3985 1.01820E-04-3.54035E-05-2.85758E-05 6.17382E-06-4.22038E-19-2.64162E-19
 -1      3986 9.84006E-05-3.18294E-05-2.85017E-05 3.37802E-06 1.55852E-19-2.52517E-19
 -1      3987 9.94481E-05-3.27292E-05-2.85544E-05 3.40288E-06-1.60759E-19-1.75174E-19
 -1      3988 9.88507E-05-3.26788E-05-2.84326E-05 5.30615E-06-1.76401E-19-4.00941E-19
 -1      3989 9.68620E-05-3.03651E-05-2.84842E-05 2.76222E-06 2.43536E-19-7.17499E-19
 -1      3990 9.75967E-05-3.10287E-05-2.84990E-05 2.91241E-06 5.69631E-19-5.43538E-19
 -1      3991 9.69511E-05-3.07647E-05-2.84112E-05 4.21160E-06 3.74812E-19-1.00895E-18
 -1      3992 9.59026E-05-2.93839E-05-2.85020E-05 2.14030E-06 5.13149E-19-1.29126E-18
 -1      3993 9.63853E-05-2.98369E-05-2.84990E-05 2.33048E-06 2.03533E-19-1.11202E-18
 -1      3994 9.57993E-05-2.94989E-05-2.84404E-05 3.15987E-06 5.37694E-19-1.06586E-18
 -1      3995 9.53467E-05-2.87713E-05-2.85311E-05 1.59896E-06 9.33260E-20-1.55399E-18
 -1      3996 9.56432E-05-2.90593E-05-2.85213E-05 1.78430E-06 4.71586E-19-1.01180E-18
 -1      3997 9.51637E-05-2.87339E-05-2.84843E-05 2.28127E-06 3.53353E-19-6.01273E-19
 -1      3998 9.50572E-05-2.84214E-05-2.85593E-05 1.16342E-06-2.13004E-19-7.58134E-19
 -1      3999 9.52251E-05-2.85896E-05-2.85487E-05 1.32418E-06-7.88621E-19-1.19583E-18
 -1      4000 9.48545E-05-2.83091E-05-2.85265E-05 1.59868E-06-1.95230E-19 2.73008E-19
 -1      4001 9.49337E-05-2.82479E-05-2.85816E-05 8.30347E-07-6.92648E-19-1.64329E-19
 -1      4002 9.50177E-05-2.83344E-05-2.85730E-05 9.60858E-07 1.14108E-19-2.80096E-20
 -1      4003 9.47423E-05-2.81076E-05-2.85605E-05 1.09454E-06-5.84965E-19 4.65941E-19
 -1      4004 9.49067E-05-2.81856E-05-2.85969E-05 5.84237E-07 8.98741E-20-6.60705E-19
 -1      4005 9.49394E-05-2.82197E-05-2.85910E-05 6.85923E-07-5.14339E-19-4.24325E-19
 -1      4006 9.47401E-05-2.80437E-05-2.85846E-05 7.35798E-07-2.15593E-19 3.22343E-19
 -1      4007 9.49308E-05-2.81886E-05-2.86058E-05 4.06562E-07-1.21844E-18 5.18382E-20
 -1      4008 9.49343E-05-2.81914E-05-2.86025E-05 4.83718E-07-3.17411E-19 4.84770E-19
 -1      4009 9.47928E-05-2.80582E-05-2.85998E-05 4.87510E-07-1.11423E-18-6.71523E-20
 -1      4010 9.49776E-05-2.82260E-05-2.86095E-05 2.80278E-07-1.08125E-18-1.04592E-19
 -1      4011 9.49663E-05-2.82119E-05-2.86084E-05 3.37820E-07-1.37352E-18-5.96918E-20
 -1      4012 9.48673E-05-2.81128E-05-2.86079E-05 3.19201E-07-1.16964E-18-1.24195E-19
 -1      4013 9.50307E-05-2.82782E-05-2.86095E-05 1.91412E-07-7.93208E-19-1.50915E-20
 -1      4014 9.50134E-05-2.82564E-05-2.86100E-05 2.33846E-07-8.59385E-19-2.81318E-19
 -1      4015 9.49448E-05-2.81835E-05-2.86107E-05 2.06862E-07-8.87378E-19-8.19210E-19
 -1      4016 9.50810E-05-2.83335E-05-2.86071E-05 1.29298E-07 1.74269E-19-5.36657E-19
 -1      4017 9.50628E-05-2.83097E-05-2.86086E-05 1.60345E-07-3.16206E-19-4.22568E-19
 -1      4018 9.50158E-05-2.82564E-05-2.86100E-05 1.32737E-07 6.24893E-20-2.33094E-18
 -1      4019 9.51245E-05-2.83851E-05-2.86034E-05 8.60441E-08 4.27710E-19-5.68772E-19
 -1      4020 9.51080E-05-2.83625E-05-2.86054E-05 1.08622E-07 3.38348E-19-3.53281E-19
 -1      4021 9.50761E-05-2.83239E-05-2.86071E-05 8.42136E-08 2.98100E-19-1.64867E-18
 -1      4022 9.51597E-05-2.84302E-05-2.85990E-05 5.60244E-08 1.92542E-19-1.36852E-18
 -1      4023 9.51460E-05-2.84103E-05-2.86012E-05 7.23449E-08 7.50146E-20-7.70082E-19
 -1      4024 9.51247E-05-2.83825E-05-2.86030E-05 5.25957E-08 2.72079E-19-1.00861E-18
 -1      4025 9.51869E-05-2.84675E-05-2.85944E-05 3.52677E-08-9.67937E-19-1.75674E-18
 -1      4026 9.51761E-05-2.84510E-05-2.85967E-05 4.69811E-08-6.25573E-19-1.79774E-18
 -1      4027 9.51622E-05-2.84310E-05-2.85985E-05 3.20600E-08-4.00420E-19-1.23713E-18
 -1      4028 9.52069E-05-2.84973E-05-2.85901E-05 2.09981E-08-3.25668E-19-1.34565E-18
 -1      4029 9.51989E-05-2.84841E-05-2.85922E-05 2.93249E-08-9.23392E-19-1.54464E-18
 -1      4030 9.51900E-05-2.84700E-05-2.85939E-05 1.87506E-08-1.27165E-18-5.67009E-19
 -1      4031 9.52210E-05-2.85203E-05-2.85862E-05 1.12700E-08-2.37602E-19-7.65494E-19
 -1      4032 9.52153E-05-2.85101E-05-2.85881E-05 1.71186E-08-3.28653E-19-5.12619E-19
 -1      4033 9.52099E-05-2.85002E-05-2.85896E-05 1.01466E-08-1.00141E-18 5.57026E-19
 -1      4034 9.52303E-05-2.85375E-05-2.85827E-05 4.81632E-09-1.14595E-18 1.04393E-18
 -1      4035 9.52266E-05-2.85299E-05-2.85844E-05 8.76964E-09-4.39265E-19 6.11502E-19
 -1      4036 9.52235E-05-2.85232E-05-2.85857E-05 4.64369E-09-1.29232E-18 2.27781E-18
 -1      4037 9.52355E-05-2.85487E-05-2.85801E-05 1.20947E-09-1.49513E-18 1.51258E-18
 -1      4038 9.52331E-05-2.85429E-05-2.85815E-05 3.88506E-09-1.81778E-18 1.04093E-18
 -1      4039 9.52314E-05-2.85382E-05-2.85827E-05 1.75017E-09-1.54788E-18 2.76238E-18
 -1      4040 9.52358E-05-2.85482E-05-2.85804E-05 1.17618E-10-1.29904E-18 8.30333E-19
 -1      4041 1.14822E-04-3.21899E-05-3.55353E-05 1.11962E-05 1.18976E-19 1.39272E-18
 -1      4042 1.00159E-04-3.10369E-05-2.96197E-05-2.97735E-06 3.30314E-19-3.04692E-21
 -1      4043 9.91355E-05-2.96262E-05-2.97620E-05-2.65878E-06 4.52993E-19 3.79841E-21
 -1      4044 9.57795E-05-3.31714E-05-2.69887E-05 1.76911E-05-7.72436E-19-1.98065E-18
 -1      4045 9.02196E-05-2.83765E-05-2.64919E-05 1.70588E-05-1.16218E-18-1.47779E-18
 -1      4046 8.96978E-05-2.39317E-05-2.81132E-05-9.35447E-06-1.40350E-19-1.08469E-18
 -1      4047 8.84397E-05-2.42585E-05-2.75286E-05-1.18659E-05-3.86139E-19-1.08793E-18
 -1      4048 9.33305E-05-2.85639E-05-2.78256E-05-1.34687E-05-4.45337E-19-6.62386E-19
 -1      4049 1.07964E-04-4.13817E-05-2.86816E-05 1.21009E-05-9.58400E-19-6.74827E-19
 -1      4050 1.01681E-04-3.69893E-05-2.75953E-05 1.62385E-05-9.40001E-19-1.69933E-18
 -1      4051 9.06011E-05-2.29537E-05-2.89498E-05-6.03023E-06-1.28947E-19-8.74328E-19
 -1      4052 8.95745E-05-2.31738E-05-2.84997E-05-7.55598E-06-8.07494E-20-9.62899E-19
 -1      4053 9.24161E-05-2.58139E-05-2.85694E-05-9.19516E-06-1.58700E-19-7.28034E-19
 -1      4054 8.21860E-05-2.22781E-05-2.55567E-05 1.67504E-05-1.54270E-18 9.41414E-20
 -1      4055 7.78935E-05-1.70249E-05-2.61657E-05 7.81145E-06-1.13842E-18 2.20476E-18
 -1      4056 8.09476E-05-1.82359E-05-2.68509E-05 5.90443E-06-2.38921E-19 1.65717E-18
 -1      4057 8.34488E-05-2.02793E-05-2.70314E-05 7.40687E-06-1.83141E-19 1.70797E-19
 -1      4058 7.99175E-05-1.91795E-05-2.60042E-05 1.16690E-05-1.76749E-18 1.08278E-18
 -1      4059 9.52426E-05-2.85647E-05-2.85763E-05 1.10377E-09-2.67265E-18 1.84215E-18
 -1      4060 9.52424E-05-2.85641E-05-2.85765E-05 2.51301E-10-1.92308E-18 2.24050E-18
 -1      4061 9.52419E-05-2.85606E-05-2.85776E-05-1.05682E-09-1.00328E-18 2.81663E-18
 -1      4062 9.52424E-05-2.85610E-05-2.85777E-05-8.23627E-10-2.74579E-18 9.81766E-19
 -1      4063 1.08049E-04-3.78933E-05-3.01073E-05 2.61984E-06-4.56207E-20 6.23884E-19
 -1      4064 1.07305E-04-3.75804E-05-2.98389E-05 1.51202E-06-8.78424E-20 5.32986E-19
 -1      4065 1.10662E-04-3.94932E-05-3.05696E-05 2.45463E-06-2.88459E-19 7.33669E-19
 -1      4066 9.63304E-05-2.54978E-05-3.03419E-05-1.60009E-06 5.55117E-19-3.83239E-19
 -1      4067 9.50495E-05-2.43886E-05-3.02836E-05-3.15988E-06 1.71036E-19-4.58560E-19
 -1      4068 9.40285E-05-2.27551E-05-3.05339E-05-2.85496E-06 3.03211E-19-5.41171E-19
 -1      4069 9.33962E-05-2.22292E-05-3.05173E-05-3.20066E-06 1.96300E-19-5.17578E-19
 -1      4070 1.00388E-04-3.72649E-05-2.71279E-05-2.02542E-05-8.28537E-19-7.94859E-19
 -1      4071 1.05802E-04-3.67881E-05-2.96018E-05 4.01619E-07-3.72912E-19 4.92921E-19
 -1      4072 1.04813E-04-3.59435E-05-2.94783E-05-3.56987E-07-2.40567E-19 4.30618E-19
 -1      4073 1.07690E-04-3.82121E-05-2.98461E-05-1.80407E-07-1.87355E-19 6.27223E-19
 -1      4074 9.14091E-05-2.20398E-05-2.96845E-05-4.01986E-06 3.10172E-20-7.52560E-19
 -1      4075 9.06507E-05-2.23698E-05-2.93046E-05-4.86756E-06-8.99075E-20-8.97960E-19
 -1      4076 9.23149E-05-2.39977E-05-2.92813E-05-6.18028E-06-1.54821E-19-5.65825E-19
 -1      4077 9.19762E-05-2.16580E-05-3.01609E-05-3.81222E-06 3.19751E-20-5.84309E-19
 -1      4078 1.16111E-04-4.13810E-05-3.20475E-05 3.84828E-06-3.80542E-19 1.19797E-18
 -1      4079 9.74124E-05-2.72721E-05-3.00616E-05-2.25731E-06 4.55912E-19-2.28214E-19
 -1      4080 9.74570E-05-2.75537E-05-2.99800E-05-3.19832E-06 3.03064E-19-1.45003E-19
 -1      4081 1.00983E-04-3.58723E-05-2.79080E-05-1.62159E-05-8.10040E-19-5.12372E-19
 -1      4082 1.15879E-04-4.10139E-05-3.20409E-05-4.75862E-06-5.83561E-19-6.21064E-19
 -1      4083 1.15915E-04-4.57565E-05-2.99975E-05-9.03693E-06-7.73545E-19-2.13924E-19
 -1      4084 1.15861E-04-4.44886E-05-3.06307E-05-4.35582E-06-5.84881E-19 2.40418E-19
 -1      4085 1.10712E-04-4.26881E-05-2.92215E-05-1.14358E-05-5.19077E-19-3.01034E-19
 -1      4086 9.52402E-05-2.85565E-05-2.85788E-05-2.05617E-09-8.13692E-19 1.17174E-18
 -1      4087 9.52397E-05-2.85558E-05-2.85788E-05-2.16821E-09 7.23525E-20 1.23442E-19
 -1      4088 9.52390E-05-2.85560E-05-2.85785E-05-1.77143E-09 5.14952E-19-2.60787E-19
 -1      4089 9.52377E-05-2.85522E-05-2.85794E-05-1.13910E-09-2.29635E-19 8.11313E-19
 -1      4090 9.52360E-05-2.85483E-05-2.85805E-05-4.02742E-10-6.23683E-19 1.20510E-18
 -1      4091 9.52394E-05-2.85561E-05-2.85786E-05-1.77623E-09 6.50764E-19 2.76550E-19
 -1      4092 9.52407E-05-2.85564E-05-2.85790E-05-2.52096E-09-1.60191E-18 1.68299E-18
 -1      4093 9.52404E-05-2.85563E-05-2.85789E-05-2.45509E-09-1.07641E-18 2.22982E-18
 -1      4094 9.52390E-05-2.85516E-05-2.85802E-05-3.51935E-09-8.66437E-19 8.04730E-19
 -1      4095 1.15535E-04-4.22258E-05-3.13224E-05 1.89976E-06-4.31173E-19 9.88855E-19
 -1      4096 1.16125E-04-3.92818E-05-3.29578E-05-6.68331E-06-2.78919E-19-4.46312E-19
 -1      4097 9.26400E-05-2.21592E-05-3.02083E-05-3.81875E-06 1.04630E-19-6.49327E-19
 -1      4098 9.92736E-05-3.44747E-05-2.76825E-05 1.39987E-05-9.77788E-19-1.86819E-18
 -1      4099 9.02742E-05-2.71982E-05-2.69505E-05 1.39152E-05-1.51105E-18-1.06265E-18
 -1      4100 8.62572E-05-2.50184E-05-2.62971E-05 1.57886E-05-1.57077E-18-1.19198E-18
 -1      4101 1.10751E-04-4.22124E-05-2.92513E-05 8.39658E-06-1.06601E-18-8.07657E-19
 -1      4102 1.06459E-04-3.94328E-05-2.87481E-05 9.32140E-06-1.03634E-18-1.13081E-18
 -1      4103 9.79874E-05-2.86175E-05-2.97260E-05-4.30304E-06 2.29934E-19-5.20307E-20
 -1      4104 9.62679E-05-2.61563E-05-3.00253E-05-3.75498E-06 1.46236E-19-4.56533E-19
 -1      4105 8.23086E-05-2.14487E-05-2.61047E-05 1.34081E-05-1.78034E-18 4.38337E-19
 -1      4106 1.04718E-04-3.59417E-05-2.95172E-05-1.70048E-06-1.85668E-19 4.15557E-19
 -1      4107 1.01426E-04-3.25059E-05-2.95026E-05-3.33705E-06 1.71691E-19 1.93672E-20
 -1      4108 1.00451E-04-3.15542E-05-2.95651E-05-4.11272E-06 1.71994E-19 2.43407E-19
 -1      4109 1.02676E-04-3.39562E-05-2.94521E-05-3.38914E-06 1.46516E-19 7.61519E-20
 -1      4110 9.53985E-05-2.54083E-05-2.99992E-05-4.16562E-06 2.15156E-20-4.30090E-19
 -1      4111 1.13339E-04-4.19854E-05-3.05754E-05-1.21624E-06-4.53543E-19 8.08040E-19
 -1      4112 1.11734E-04-4.13049E-05-3.01046E-05-2.79225E-06-4.06139E-19 8.13357E-19
 -1      4113 9.37088E-05-2.46760E-05-2.95550E-05-5.55972E-06 5.26376E-21-5.57090E-19
 -1      4114 9.36832E-05-2.55799E-05-2.92164E-05-6.75368E-06-7.72771E-20-4.93837E-19
 -1      4115 9.52415E-05-2.85575E-05-2.85789E-05-2.58065E-09-1.30327E-18 1.06378E-18
 -1      4116 9.52412E-05-2.85572E-05-2.85789E-05-2.61686E-09-1.01579E-18 8.19537E-19
 -1      4117 9.52397E-05-2.85521E-05-2.85803E-05-4.30808E-09-1.01108E-18 1.76815E-18
 -1      4118 9.52409E-05-2.85541E-05-2.85800E-05-4.66276E-09-3.65388E-19 1.08142E-18
 -1      4119 9.34411E-05-2.35633E-05-2.99523E-05-4.34302E-06 4.31127E-21-5.69898E-19
 -1      4120 1.04063E-04-3.73694E-05-2.85004E-05 9.17297E-06-5.13520E-19-1.03191E-18
 -1      4121 8.90359E-05-2.36644E-05-2.80653E-05 3.48234E-06-1.38548E-19-2.63512E-19
 -1      4122 9.01572E-05-2.42566E-05-2.82314E-05 2.57740E-06-4.34555E-19-4.87488E-20
 -1      4123 9.07477E-05-2.46776E-05-2.83472E-05 1.79312E-06-2.40913E-19 4.64570E-19
 -1      4124 9.15592E-05-2.51834E-05-2.84404E-05 1.28304E-06-2.83092E-19 7.95548E-19
 -1      4125 9.10481E-05-2.50804E-05-2.82557E-05 2.96070E-06 1.55888E-19-3.28511E-19
 -1      4126 9.20485E-05-2.55783E-05-2.85080E-05 8.05844E-07-6.84764E-19 9.71794E-19
 -1      4127 9.26259E-05-2.59892E-05-2.85567E-05 5.29132E-07 2.32948E-20-5.45946E-19
 -1      4128 9.20999E-05-2.57164E-05-2.84367E-05 1.61677E-06-1.41764E-19 9.63169E-21
 -1      4129 9.29877E-05-2.63037E-05-2.85925E-05 2.63135E-07 4.00394E-20-7.20464E-19
 -1      4130 9.33768E-05-2.66092E-05-2.86147E-05 1.30562E-07 3.26526E-19-1.43074E-18
 -1      4131 9.29287E-05-2.63070E-05-2.85407E-05 8.11346E-07-7.06987E-19-8.49699E-19
 -1      4132 9.36663E-05-2.68732E-05-2.86342E-05-2.67392E-08 5.04468E-19-1.85036E-18
 -1      4133 9.39506E-05-2.71188E-05-2.86429E-05-8.48576E-08 2.55878E-19-1.58811E-18
 -1      4134 9.35668E-05-2.68194E-05-2.85980E-05 3.42292E-07 2.79092E-19-4.10015E-19
 -1      4135 9.41623E-05-2.73229E-05-2.86509E-05-1.63262E-07-4.60699E-19-2.25211E-18
 -1      4136 9.43560E-05-2.75050E-05-2.86514E-05-1.76021E-07-1.23004E-18-2.45708E-18
 -1      4137 9.40546E-05-2.72441E-05-2.86272E-05 7.58747E-08-5.31380E-19-2.18159E-18
 -1      4138 9.45085E-05-2.76593E-05-2.86529E-05-2.08740E-07-1.16905E-18-1.77589E-18
 -1      4139 9.46394E-05-2.77933E-05-2.86494E-05-1.98604E-07-2.75913E-19-2.28062E-18
 -1      4140 9.44102E-05-2.75778E-05-2.86383E-05-5.65069E-08-7.43713E-19-1.90343E-18
 -1      4141 9.47482E-05-2.79086E-05-2.86474E-05-2.06201E-07-1.94319E-20-1.81320E-18
 -1      4142 9.48361E-05-2.80067E-05-2.86421E-05-1.86319E-07-3.02023E-19-2.17796E-18
 -1      4143 9.46656E-05-2.78344E-05-2.86391E-05-1.11066E-07 1.20427E-19-1.42986E-18
 -1      4144 9.49129E-05-2.80922E-05-2.86385E-05-1.81273E-07-1.28800E-18-1.13403E-18
 -1      4145 9.49717E-05-2.81638E-05-2.86328E-05-1.58907E-07-6.40878E-19-7.17857E-19
 -1      4146 9.48472E-05-2.80292E-05-2.86343E-05-1.22997E-07-6.11716E-20-4.57023E-19
 -1      4147 9.50232E-05-2.82241E-05-2.86287E-05-1.49134E-07-1.03515E-19-1.23176E-18
 -1      4148 9.50609E-05-2.82743E-05-2.86235E-05-1.28813E-07-4.99592E-19-2.85735E-19
 -1      4149 9.49726E-05-2.81725E-05-2.86273E-05-1.14087E-07-6.93736E-20 5.92790E-19
 -1      4150 9.50990E-05-2.83214E-05-2.86192E-05-1.16949E-07-3.47456E-19-1.24330E-18
 -1      4151 9.51255E-05-2.83601E-05-2.86143E-05-9.83935E-08-1.01724E-18-4.33394E-19
 -1      4152 9.50610E-05-2.82804E-05-2.86194E-05-9.62525E-08-8.06029E-19-1.16564E-18
 -1      4153 9.51518E-05-2.83947E-05-2.86103E-05-8.71847E-08-1.51349E-18 5.34620E-19
 -1      4154 9.51691E-05-2.84229E-05-2.86060E-05-7.19304E-08-1.77716E-18 7.77162E-19
 -1      4155 9.51243E-05-2.83630E-05-2.86113E-05-7.57633E-08-8.16807E-19 3.93288E-19
 -1      4156 9.51870E-05-2.84481E-05-2.86024E-05-6.22823E-08-6.45247E-19 1.41473E-18
 -1      4157 9.51983E-05-2.84685E-05-2.85988E-05-5.02499E-08-1.60458E-19 2.80124E-18
 -1      4158 9.51677E-05-2.84242E-05-2.86040E-05-5.65110E-08-1.06919E-18 2.48128E-18
 -1      4159 9.52102E-05-2.84868E-05-2.85957E-05-4.24476E-08-7.93840E-19 2.84038E-18
 -1      4160 9.52173E-05-2.85015E-05-2.85927E-05-3.32718E-08-1.39035E-18 2.95303E-18
 -1      4161 9.51970E-05-2.84691E-05-2.85974E-05-4.00428E-08-1.83537E-20 2.92070E-18
 -1      4162 9.52250E-05-2.85146E-05-2.85901E-05-2.72539E-08-2.24324E-18 2.90725E-18
 -1      4163 9.52293E-05-2.85251E-05-2.85877E-05-2.04789E-08-2.23211E-18 3.23731E-18
 -1      4164 9.52164E-05-2.85018E-05-2.85918E-05-2.68000E-08-1.94335E-18 2.33997E-18
 -1      4165 9.52339E-05-2.85341E-05-2.85856E-05-1.62110E-08-3.02485E-18 3.57853E-18
 -1      4166 9.52363E-05-2.85412E-05-2.85837E-05-1.16352E-08-3.03371E-18 2.34817E-18
 -1      4167 9.52285E-05-2.85250E-05-2.85871E-05-1.68136E-08-1.88834E-18 2.59884E-18
 -1      4168 9.72695E-05-3.12119E-05-2.82962E-05 5.91812E-06 1.16295E-19-4.59541E-19
 -1      4169 9.85299E-05-3.23429E-05-2.83211E-05 6.53718E-06 2.66347E-19-1.37866E-19
 -1      4170 9.57600E-05-2.96223E-05-2.83468E-05 4.41761E-06 7.20775E-19-1.24164E-18
 -1      4171 9.65470E-05-3.03681E-05-2.83327E-05 5.01756E-06 6.35271E-19-1.12505E-18
 -1      4172 9.58423E-05-3.00725E-05-2.82182E-05 6.20470E-06 9.72621E-19-5.50587E-19
 -1      4173 9.49769E-05-2.86944E-05-2.84149E-05 3.14811E-06 3.40449E-19-1.71734E-18
 -1      4174 9.54336E-05-2.91296E-05-2.83911E-05 3.64129E-06 3.50795E-19-1.37713E-18
 -1      4175 9.48076E-05-2.87415E-05-2.83145E-05 4.41420E-06 4.61726E-19-1.41606E-18
 -1      4176 9.46161E-05-2.81851E-05-2.84790E-05 2.17088E-06-5.67053E-19 3.01779E-19
 -1      4177 9.48578E-05-2.84213E-05-2.84546E-05 2.55764E-06-2.83087E-19-4.71373E-19
 -1      4178 9.43635E-05-2.80696E-05-2.84070E-05 3.02944E-06-6.84068E-19-9.12635E-19
 -1      4179 9.45061E-05-2.79534E-05-2.85303E-05 1.45624E-06-1.20627E-19 9.92781E-20
 -1      4180 9.46144E-05-2.80619E-05-2.85101E-05 1.74321E-06 2.03740E-19 7.87803E-19
 -1      4181 9.42399E-05-2.77693E-05-2.84825E-05 2.00942E-06-6.32756E-19-2.41095E-19
 -1      4182 9.45306E-05-2.78886E-05-2.85671E-05 9.54032E-07-5.89340E-19 7.47689E-20
 -1      4183 9.45606E-05-2.79195E-05-2.85523E-05 1.15856E-06-6.50039E-19 4.61489E-19
 -1      4184 9.42872E-05-2.76880E-05-2.85376E-05 1.29418E-06-4.91255E-19-1.35247E-19
 -1      4185 9.46180E-05-2.79164E-05-2.85911E-05 6.12460E-07-3.58322E-19-4.52388E-20
 -1      4186 9.46059E-05-2.79040E-05-2.85814E-05 7.53980E-07-1.22357E-19 3.65856E-19
 -1      4187 9.44115E-05-2.77277E-05-2.85746E-05 8.11329E-07-4.11945E-19-1.60722E-19
 -1      4188 9.47270E-05-2.79900E-05-2.86050E-05 3.85989E-07-1.31441E-18-3.67517E-19
 -1      4189 9.46953E-05-2.79561E-05-2.85995E-05 4.81731E-07-5.09969E-19-7.59646E-20
 -1      4190 9.45593E-05-2.78245E-05-2.85972E-05 4.95098E-07-2.97199E-19 5.79427E-19
 -1      4191 9.48353E-05-2.80808E-05-2.86115E-05 2.39059E-07-8.28202E-19-7.22462E-19
 -1      4192 9.47972E-05-2.80387E-05-2.86091E-05 3.02739E-07-1.17101E-18-7.80715E-19
 -1      4193 9.47032E-05-2.79418E-05-2.86094E-05 2.93633E-07-2.01898E-19-6.69787E-19
 -1      4194 9.49322E-05-2.81726E-05-2.86129E-05 1.45496E-07-1.02147E-19-1.42318E-18
 -1      4195 9.48950E-05-2.81299E-05-2.86127E-05 1.87381E-07-6.86612E-19-8.83298E-19
 -1      4196 9.48304E-05-2.80593E-05-2.86143E-05 1.68706E-07-1.03098E-18-6.79081E-19
 -1      4197 9.50136E-05-2.82569E-05-2.86111E-05 8.70002E-08-6.93998E-20-1.21978E-18
 -1      4198 9.49807E-05-2.82178E-05-2.86122E-05 1.14217E-07 9.19450E-20-1.59395E-18
 -1      4199 9.49366E-05-2.81663E-05-2.86144E-05 9.33705E-08-5.05403E-20-2.21893E-18
 -1      4200 9.50788E-05-2.83299E-05-2.86074E-05 5.08355E-08-2.29146E-19-1.06326E-18
 -1      4201 9.50515E-05-2.82960E-05-2.86094E-05 6.84651E-08-4.18839E-19-1.55480E-18
 -1      4202 9.50215E-05-2.82585E-05-2.86117E-05 4.90965E-08-4.15695E-19-1.63942E-18
 -1      4203 9.51293E-05-2.83905E-05-2.86028E-05 2.88140E-08-2.05125E-19-3.24933E-19
 -1      4204 9.51077E-05-2.83624E-05-2.86051E-05 4.02193E-08 4.53939E-19-7.53854E-19
 -1      4205 9.50874E-05-2.83351E-05-2.86074E-05 2.39521E-08-1.50529E-19-1.82730E-18
 -1      4206 9.51670E-05-2.84391E-05-2.85980E-05 1.55593E-08-1.62884E-19-2.05835E-19
 -1      4207 9.51506E-05-2.84166E-05-2.86004E-05 2.29460E-08-4.26962E-19-7.92879E-20
 -1      4208 9.51371E-05-2.83968E-05-2.86025E-05 1.02348E-08-7.10639E-19-3.73094E-19
 -1      4209 9.51944E-05-2.84772E-05-2.85933E-05 7.67355E-09-1.03132E-18-6.30116E-19
 -1      4210 9.51824E-05-2.84596E-05-2.85955E-05 1.24695E-08-7.53607E-19-8.43515E-19
 -1      4211 9.51734E-05-2.84453E-05-2.85974E-05 3.12707E-09-1.79855E-19-1.23165E-18
 -1      4212 9.52134E-05-2.85062E-05-2.85889E-05 3.05253E-09-1.66084E-18 4.72789E-19
 -1      4213 9.52050E-05-2.84929E-05-2.85910E-05 6.17027E-09-1.42666E-18-8.29348E-19
 -1      4214 9.51993E-05-2.84826E-05-2.85926E-05-2.82806E-10-1.21885E-18-1.91181E-18
 -1      4215 9.52262E-05-2.85279E-05-2.85850E-05 4.05309E-10-1.93580E-18 1.20583E-18
 -1      4216 9.52206E-05-2.85179E-05-2.85869E-05 2.36237E-09-2.04369E-18 6.41553E-19
 -1      4217 9.52170E-05-2.85107E-05-2.85883E-05-1.67264E-09-2.36397E-18-6.32185E-19
 -1      4218 1.01418E-04-3.51355E-05-2.83766E-05 8.36258E-06-5.74754E-19-7.66289E-19
 -1      4219 1.01044E-04-3.56501E-05-2.81248E-05 1.12611E-05-4.61802E-19-1.32448E-18
 -1      4220 9.65598E-05-3.20044E-05-2.76361E-05 1.25436E-05-3.64634E-19-1.72049E-18
 -1      4221 9.95811E-05-3.35110E-05-2.82807E-05 7.82489E-06-3.27160E-19-6.12204E-19
 -1      4222 9.34674E-05-2.96161E-05-2.74162E-05 1.26888E-05-9.23612E-19-2.06912E-18
 -1      4223 8.99064E-05-2.64139E-05-2.72330E-05 1.15423E-05-9.54405E-19-1.10238E-18
 -1      4224 9.60827E-05-3.09255E-05-2.78534E-05 1.02452E-05-4.89244E-19-1.18231E-18
 -1      4225 1.05903E-04-3.69148E-05-2.95382E-05-2.97939E-06-3.81448E-19 5.47074E-19
 -1      4226 1.04363E-04-3.55313E-05-2.94495E-05-3.44465E-06-7.63785E-20 4.41022E-19
 -1      4227 1.03302E-04-3.47589E-05-2.94252E-05-4.75108E-06-2.53199E-19 3.97526E-19
 -1      4228 9.58836E-05-2.95905E-05-2.83474E-05-1.14051E-05-3.90461E-19-5.39912E-19
 -1      4229 9.64396E-05-3.11666E-05-2.79682E-05-1.36496E-05-6.90874E-19-6.08759E-19
 -1      4230 9.52383E-05-2.85519E-05-2.85798E-05-2.28484E-09-1.75493E-19-1.96165E-19
 -1      4231 9.90415E-05-3.00891E-05-2.95269E-05-5.11246E-06 1.15380E-19-2.05573E-20
 -1      4232 9.75401E-05-2.86789E-05-2.95331E-05-5.76775E-06 1.94387E-22-3.17533E-19
 -1      4233 1.00318E-04-3.17115E-05-2.93928E-05-5.68717E-06-1.67442E-19 1.45490E-19
 -1      4234 8.42626E-05-2.18136E-05-2.66950E-05 1.08906E-05-1.43767E-18 4.39313E-19
 -1      4235 9.44246E-05-2.67848E-05-2.89384E-05-8.05105E-06-1.79493E-19-4.04609E-19
 -1      4236 9.46016E-05-2.79306E-05-2.85909E-05-9.79669E-06-2.07603E-19-4.88002E-19
 -1      4237 9.75351E-05-3.06524E-05-2.87222E-05-1.01405E-05-4.01758E-19-4.33878E-19
 -1      4238 9.56648E-05-2.75454E-05-2.92136E-05-7.34758E-06-7.86508E-20-4.77452E-19
 -1      4239 9.57980E-05-2.67104E-05-2.96189E-05-5.46936E-06 2.30181E-20-4.26723E-19
 -1      4240 9.46841E-05-2.49606E-05-2.98729E-05-4.79811E-06 1.23829E-20-4.52720E-19
 -1      4241 1.09407E-04-3.95714E-05-2.98817E-05-2.50565E-06-4.70833E-19 8.97458E-19
 -1      4242 1.07660E-04-3.84132E-05-2.96180E-05-3.53318E-06-4.49320E-19 7.46027E-19
 -1      4243 1.06592E-04-3.79877E-05-2.94782E-05-5.55129E-06-5.06145E-19 5.97951E-19
 -1      4244 1.10620E-04-4.15101E-05-2.96736E-05-6.89311E-06-4.82081E-19 5.84976E-19
 -1      4245 8.69898E-05-2.27205E-05-2.75961E-05 6.19199E-06 2.29608E-19-2.16248E-19
 -1      4246 8.83981E-05-2.32975E-05-2.78782E-05 4.66946E-06 8.61169E-20-3.53871E-19
 -1      4247 8.97880E-05-2.44539E-05-2.79572E-05 5.07955E-06 1.01589E-19-8.23333E-19
 -1      4248 1.02980E-04-3.67400E-05-2.84263E-05-1.38522E-05-7.21407E-19-5.05454E-19
 -1      4249 9.68141E-05-2.81651E-05-2.93933E-05-6.43913E-06 4.74190E-20-5.18698E-19
 -1      4250 8.48453E-05-2.19315E-05-2.69994E-05 9.18483E-06-8.65541E-19 5.72913E-19
 -1      4251 8.63884E-05-2.24141E-05-2.73835E-05 7.36352E-06 7.83009E-20 2.07412E-19
 -1      4252 8.85179E-05-2.40938E-05-2.75626E-05 7.75205E-06-2.56040E-19-1.34972E-19
 -1      4253 8.72912E-05-2.41686E-05-2.70816E-05 1.08059E-05-5.81046E-19 6.12511E-20
 -1      4254 1.02649E-04-3.54911E-05-2.87783E-05-1.07222E-05-6.85332E-19-6.18066E-19
 -1      4255 1.07351E-04-3.97968E-05-2.88715E-05-1.19027E-05-6.41452E-19-4.15053E-19
 -1      4256 9.52385E-05-2.85460E-05-2.85824E-05-9.37775E-09-9.81973E-19 2.07012E-18
 -1      4257 9.52396E-05-2.85504E-05-2.85811E-05-6.49518E-09-8.41485E-20 2.10220E-18
 -1      4258 9.52389E-05-2.85492E-05-2.85813E-05-6.35705E-09-3.61569E-19 3.05335E-18
 -1      4259 9.52352E-05-2.85395E-05-2.85838E-05-1.05373E-08-2.62040E-18 3.46095E-18
 -1      4260 9.04045E-05-2.62705E-05-2.74924E-05 9.85957E-06-7.05822E-19-9.02695E-19
 -1      4261 9.52295E-05-2.85342E-05-2.85837E-05 7.13174E-10-1.13456E-18 1.51823E-18
 -1      4262 9.52274E-05-2.85293E-05-2.85849E-05-1.78397E-09-1.85572E-18-1.02083E-18
 -1      4263 9.52324E-05-2.85398E-05-2.85825E-05-2.09901E-10-1.08777E-18 1.61310E-18
 -1      4264 9.75445E-05-3.20677E-05-2.81159E-05 8.58666E-06-6.24149E-20-4.12890E-19
 -1      4265 9.52366E-05-2.85461E-05-2.85817E-05-4.77427E-09-1.18774E-18 1.71457E-18
 -1      4266 9.52364E-05-2.85464E-05-2.85815E-05-4.05601E-09-7.95878E-19-3.17585E-19
 -1      4267 9.52323E-05-2.85376E-05-2.85833E-05-3.69498E-09-1.35640E-18-6.47874E-19
 -1      4268 9.52349E-05-2.85441E-05-2.85818E-05-2.62069E-09-7.22858E-19-7.99315E-19
 -1      4269 9.52346E-05-2.85444E-05-2.85815E-05-1.53065E-09-5.60517E-19 3.75200E-19
 -1      4270 9.52290E-05-2.85317E-05-2.85846E-05-4.05367E-09-2.23300E-18-9.76378E-19
 -1      4271 1.09464E-04-4.07903E-05-2.94416E-05-8.43425E-06-6.30103E-19-5.30653E-20
 -1      4272 9.14248E-05-2.57016E-05-2.82025E-05 3.80231E-06 1.41563E-19-7.38426E-20
 -1      4273 9.20557E-05-2.59323E-05-2.83172E-05 2.93543E-06 4.19430E-19 5.32454E-19
 -1      4274 9.75789E-05-2.95643E-05-2.91392E-05-7.66215E-06-1.44824E-19-5.53659E-19
 -1      4275 9.08700E-05-2.62736E-05-2.76793E-05 8.50396E-06-3.90783E-19-1.39131E-18
 -1      4276 9.22669E-05-2.60748E-05-2.83915E-05 2.25890E-06-1.45965E-19-5.74538E-19
 -1      4277 9.27500E-05-2.63228E-05-2.84591E-05 1.70261E-06-6.06554E-19-1.04301E-18
 -1      4278 9.27661E-05-2.65912E-05-2.83481E-05 3.00368E-06-2.31824E-19 2.98108E-19
 -1      4279 9.29616E-05-2.64917E-05-2.85042E-05 1.28069E-06-4.30763E-19-9.02814E-19
 -1      4280 9.33238E-05-2.67143E-05-2.85419E-05 9.54478E-07-3.76996E-19-3.39966E-19
 -1      4281 9.32075E-05-2.67550E-05-2.84654E-05 1.82890E-06-6.94877E-19-8.20432E-19
 -1      4282 9.35310E-05-2.68923E-05-2.85710E-05 6.69670E-07-3.94107E-19 3.14640E-20
 -1      4283 9.38187E-05-2.70968E-05-2.85925E-05 4.70409E-07-2.43472E-19-9.97991E-19
 -1      4284 9.36312E-05-2.70135E-05-2.85398E-05 1.06970E-06-4.06049E-19-2.01139E-19
 -1      4285 9.39929E-05-2.72577E-05-2.86086E-05 2.99667E-07-6.65987E-19-9.50218E-19
 -1      4286 9.42037E-05-2.74250E-05-2.86185E-05 1.91546E-07-7.16953E-19-1.00844E-18
 -1      4287 9.40096E-05-2.72905E-05-2.85856E-05 5.79025E-07-5.66661E-19-5.84422E-19
 -1      4288 9.43438E-05-2.75609E-05-2.86262E-05 9.36872E-08-4.60719E-19-1.10150E-18
 -1      4289 9.44958E-05-2.76939E-05-2.86292E-05 4.07605E-08-2.45945E-19 4.16151E-19
 -1      4290 9.43207E-05-2.75485E-05-2.86104E-05 2.84986E-07-5.38491E-19-3.56163E-21
 -1      4291 9.46048E-05-2.78045E-05-2.86318E-05-1.18289E-08-5.36079E-19 6.00238E-19
 -1      4292 9.47131E-05-2.79081E-05-2.86310E-05-3.29010E-08 2.86496E-19-9.76790E-20
 -1      4293 9.45661E-05-2.77718E-05-2.86217E-05 1.17046E-07-2.42073E-19 5.75896E-19
 -1      4294 9.47960E-05-2.79959E-05-2.86305E-05-5.83804E-08 7.32926E-19-5.78544E-19
 -1      4295 9.48724E-05-2.80757E-05-2.86277E-05-6.21776E-08 4.42525E-19 2.85196E-19
 -1      4296 9.47547E-05-2.79568E-05-2.86245E-05 2.71808E-08-6.06688E-20 1.06345E-18
 -1      4297 9.49316E-05-2.81411E-05-2.86256E-05-7.19657E-08-2.34839E-19 7.54077E-20
 -1      4298 9.49831E-05-2.81993E-05-2.86221E-05-6.75641E-08-1.06427E-18-8.69722E-19
 -1      4299 9.48938E-05-2.81027E-05-2.86225E-05-1.55198E-08 1.12333E-19-3.66869E-19
 -1      4300 9.50294E-05-2.82528E-05-2.86192E-05-6.96715E-08-1.14759E-18-4.45253E-19
 -1      4301 9.50674E-05-2.82995E-05-2.86153E-05-6.15686E-08-4.74147E-19-2.36815E-19
 -1      4302 9.49977E-05-2.82189E-05-2.86180E-05-3.25161E-08-5.10078E-19-6.92236E-19
 -1      4303 9.51010E-05-2.83404E-05-2.86120E-05-5.95334E-08 3.08206E-19-7.05170E-21
 -1      4304 9.51271E-05-2.83754E-05-2.86083E-05-5.06632E-08-3.98144E-19 9.44818E-19
 -1      4305 9.50757E-05-2.83118E-05-2.86121E-05-3.59482E-08 4.22748E-20 3.96077E-19
 -1      4306 9.51511E-05-2.84062E-05-2.86051E-05-4.70150E-08-8.72245E-19 1.31741E-18
 -1      4307 9.51688E-05-2.84323E-05-2.86017E-05-3.87931E-08-5.29241E-19 1.99718E-18
 -1      4308 9.51319E-05-2.83833E-05-2.86059E-05-3.24278E-08-3.72850E-19 1.39990E-19
 -1      4309 9.51856E-05-2.84553E-05-2.85987E-05-3.48843E-08-4.41587E-19 1.67792E-18
 -1      4310 9.51974E-05-2.84746E-05-2.85957E-05-2.79170E-08-3.21182E-19 1.55053E-18
 -1      4311 9.51716E-05-2.84375E-05-2.85999E-05-2.62139E-08-5.84338E-19 2.31817E-19
 -1      4312 9.52088E-05-2.84915E-05-2.85931E-05-2.43870E-08-1.24614E-18 1.75467E-18
 -1      4313 9.52165E-05-2.85056E-05-2.85906E-05-1.88445E-08-2.07827E-18 1.56951E-18
 -1      4314 9.51990E-05-2.84780E-05-2.85944E-05-1.95784E-08-8.16484E-19 1.30150E-18
 -1      4315 9.52237E-05-2.85174E-05-2.85884E-05-1.61075E-08-1.93039E-18 1.91587E-18
 -1      4316 9.52282E-05-2.85271E-05-2.85863E-05-1.19446E-08-1.18645E-18 1.94895E-18
 -1      4317 9.52170E-05-2.85074E-05-2.85897E-05-1.37471E-08-2.13413E-18 1.94818E-18
 -1      4318 9.34916E-05-2.74859E-05-2.83138E-05 3.75586E-06 3.01173E-19-5.79412E-19
 -1      4319 9.38056E-05-2.78053E-05-2.82602E-05 4.55615E-06 7.94916E-19-1.09513E-19
 -1      4320 1.00568E-04-3.31936E-05-2.88400E-05-9.71570E-06-5.68041E-19-5.53700E-19
 -1      4321 1.04022E-04-3.62415E-05-2.91192E-05-8.46532E-06-5.62677E-19-1.39076E-19
 -1      4322 9.41364E-05-2.85135E-05-2.81418E-05 6.03420E-06 1.14539E-18-9.36237E-19
 -1      4323 9.49166E-05-2.92565E-05-2.80912E-05 7.04596E-06 1.07569E-18-4.98854E-19
 -1      4324 9.37911E-05-2.73035E-05-2.85090E-05 1.51736E-06-2.75998E-19-5.07273E-19
 -1      4325 9.37821E-05-2.73335E-05-2.84754E-05 1.94974E-06-8.31788E-19-6.32733E-19
 -1      4326 9.40549E-05-2.74346E-05-2.85618E-05 9.09875E-07-6.48079E-19-5.33893E-19
 -1      4327 9.39947E-05-2.74011E-05-2.85392E-05 1.20117E-06-5.46873E-19-5.29187E-19
 -1      4328 9.43071E-05-2.76051E-05-2.85936E-05 5.22967E-07-3.03803E-19-2.43206E-19
 -1      4329 9.42287E-05-2.75439E-05-2.85795E-05 7.13527E-07-3.14496E-19-2.72425E-19
 -1      4330 9.45269E-05-2.77794E-05-2.86108E-05 2.84691E-07-1.19162E-19-3.51497E-21
 -1      4331 9.44479E-05-2.77098E-05-2.86029E-05 4.05748E-07-1.84795E-19 8.46805E-20
 -1      4332 9.47081E-05-2.79395E-05-2.86181E-05 1.43305E-07-4.92576E-19 7.99554E-20
 -1      4333 9.46370E-05-2.78720E-05-2.86146E-05 2.17956E-07-2.22976E-19 1.55093E-19
 -1      4334 9.48521E-05-2.80783E-05-2.86193E-05 6.31236E-08-6.16772E-19-4.86719E-19
 -1      4335 9.47922E-05-2.80177E-05-2.86186E-05 1.07636E-07-5.12017E-20-2.11382E-19
 -1      4336 9.49610E-05-2.81912E-05-2.86169E-05 2.08154E-08-3.55077E-19-7.89181E-19
 -1      4337 9.49124E-05-2.81392E-05-2.86179E-05 4.67586E-08-4.32735E-19-1.01501E-18
 -1      4338 9.50459E-05-2.82855E-05-2.86123E-05-6.13960E-10-6.93328E-19-6.41483E-19
 -1      4339 9.50080E-05-2.82427E-05-2.86144E-05 1.37659E-08-3.56204E-19-7.70432E-19
 -1      4340 9.51088E-05-2.83603E-05-2.86069E-05-9.51966E-09 9.71553E-20-1.07793E-18
 -1      4341 9.50801E-05-2.83260E-05-2.86094E-05-1.97114E-09-5.36824E-20-1.21546E-18
 -1      4342 9.51544E-05-2.84186E-05-2.86013E-05-1.18322E-08-8.50017E-19-5.93884E-19
 -1      4343 9.51332E-05-2.83916E-05-2.86039E-05-8.16330E-09-9.35222E-19-8.52966E-19
 -1      4344 9.51868E-05-2.84631E-05-2.85960E-05-1.09937E-08-2.05324E-19-3.24451E-19
 -1      4345 9.51715E-05-2.84424E-05-2.85985E-05-9.43580E-09-2.70150E-19-5.15483E-19
 -1      4346 9.52090E-05-2.84966E-05-2.85911E-05-8.91308E-09-2.17998E-18-1.01744E-19
 -1      4347 9.51984E-05-2.84810E-05-2.85934E-05-8.44476E-09-1.29074E-18-3.69950E-19
 -1      4348 9.52236E-05-2.85208E-05-2.85869E-05-6.61208E-09-2.29839E-18 6.46069E-19
 -1      4349 9.52164E-05-2.85092E-05-2.85890E-05-6.71512E-09-2.12652E-18 4.49195E-20
 -1      4350 1.07242E-04-3.88263E-05-2.93171E-05-7.66718E-06-6.60275E-19 1.98439E-19
 -1      4351 9.49945E-05-2.98449E-05-2.79323E-05 8.78853E-06-3.51465E-20-1.09213E-18
 -1      4352 9.35725E-05-2.72814E-05-2.84300E-05 2.41309E-06-9.53226E-19-4.38855E-19
 -1      4353 9.36783E-05-2.74292E-05-2.83846E-05 3.02236E-06-4.61255E-19-6.39018E-19
 -1      4354 9.09503E-05-2.60369E-05-2.78768E-05 6.78633E-06 3.59297E-19-1.33052E-18
 -1      4355 9.15742E-05-2.60649E-05-2.80562E-05 5.42301E-06 3.30586E-19-8.44224E-19
 -1      4356 9.52291E-05-2.85301E-05-2.85852E-05-8.03263E-09-1.44076E-18 6.77074E-19
 -1      4357 1.02016E-04-3.35176E-05-2.93114E-05-6.07471E-06-3.18089E-19 2.14411E-19
 -1      4358 1.00158E-04-3.20874E-05-2.92224E-05-7.25775E-06-3.25262E-19-2.08833E-19
 -1      4359 9.30753E-05-2.81036E-05-2.78369E-05 8.55838E-06-2.18595E-20-1.83070E-18
 -1      4360 1.03650E-04-3.52938E-05-2.92908E-05-6.36192E-06-4.40184E-19 3.33502E-19
 -1      4361 9.26978E-05-2.70281E-05-2.81422E-05 5.27861E-06 7.28014E-19-4.11510E-19
 -1      4362 9.52383E-05-2.85483E-05-2.85815E-05-6.04710E-09-1.48203E-18 3.41962E-18
 -1      4363 9.92908E-05-3.14525E-05-2.90387E-05-8.32131E-06-3.96216E-19-5.21124E-19
 -1      4364 9.52334E-05-2.85371E-05-2.85841E-05-8.85842E-09-1.71012E-18 2.92314E-18
 -1      4365 1.05691E-04-3.72548E-05-2.92991E-05-6.78842E-06-5.91385E-19 3.10902E-19
 -1      4366 9.52355E-05-2.85422E-05-2.85828E-05-6.75019E-09-1.42157E-18 2.90012E-18
 -3
    1PSTEP                         4           1           1          
  100CL  101 1.000000000        4366                     0    1           1
 -4  ERROR       1    1
 -5  STR(%)      1    1    0    0
 -1         1 2.53869E+01
 -1         2 2.46858E+01
 -1         3 1.23480E-04
 -1         4 2.32876E-04
 -1         5 1.39535E+01
 -1         6 1.31842E+01
 -1         7 1.31842E+01
 -1         8 3.59686E+00
 -1         9 1.83844E+00
 -1        10 1.29764E+00
 -1        11 1.03093E+00
 -1        12 8.64428E-01
 -1        13 7.56404E-01
 -1        14 6.93279E-01
 -1        15 7.46312E-01
 -1        16 8.24364E-01
 -1        17 9.23946E-01
 -1        18 1.08261E+00
 -1        19 1.33574E+00
 -1        20 1.84456E+00
 -1        21 3.49422E+00
 -1        22 8.56090E+00
 -1        23 1.31842E+01
 -1        24 4.23144E+00
 -1        25 3.32312E+00
 -1        26 2.06665E+00
 -1        27 1.55872E+00
 -1        28 1.28020E+00
 -1        29 1.45377E+00
 -1        30 1.95916E+00
 -1        31 2.53190E+00
 -1        32 3.53531E+00
 -1        33 4.88048E+00
 -1        34 6.43794E+00
 -1        35 6.46989E+00
 -1        36 6.46989E+00
 -1        37 7.80465E+00
 -1        38 1.57857E+01
 -1        39 1.74114E+01
 -1        40 1.74114E+01
 -1        41 1.35372E+01
 -1        42 6.31050E+00
 -1        43 4.82287E+00
 -1        44 5.34040E+00
 -1        45 5.34040E+00
 -1        46 4.49896E+00
 -1        47 3.42140E+00
 -1        48 2.44160E+00
 -1        49 1.81318E+00
 -1        50 1.26979E+00
 -1        51 8.26623E-01
 -1        52 5.75487E-01
 -1        53 3.74076E-01
 -1        54 2.42065E-01
 -1        55 1.56403E-01
 -1        56 1.01009E-01
 -1        57 6.32429E-02
 -1        58 4.28665E-02
 -1        59 3.11604E-02
 -1        60 2.28402E-02
 -1        61 1.67665E-02
 -1        62 1.22909E-02
 -1        63 9.06815E-03
 -1        64 6.58941E-03
 -1        65 5.21633E-03
 -1        66 4.32275E-03
 -1        67 3.51258E-03
 -1        68 2.78090E-03
 -1        69 2.05962E-03
 -1        70 1.58347E-03
 -1        71 1.33314E-03
 -1        72 1.07963E-03
 -1        73 6.20414E-04
 -1        74 1.39535E+01
 -1        75 3.35767E+00
 -1        76 2.34908E+00
 -1        77 1.57831E+00
 -1        78 1.04063E+00
 -1        79 7.48574E-01
 -1        80 5.02246E-01
 -1        81 4.18157E-01
 -1        82 4.63843E-01
 -1        83 5.75551E-01
 -1        84 7.47659E-01
 -1        85 1.03261E+00
 -1        86 1.42580E+00
 -1        87 1.81368E+00
 -1        88 2.08132E+00
 -1        89 2.14796E+00
 -1        90 2.40643E+00
 -1        91 2.40643E+00
 -1        92 2.39625E+00
 -1        93 2.14382E+00
 -1        94 1.74012E+00
 -1        95 1.33685E+00
 -1        96 9.61850E-01
 -1        97 6.37025E-01
 -1        98 4.17083E-01
 -1        99 2.73726E-01
 -1       100 1.61270E-01
 -1       101 1.03723E-01
 -1       102 7.87190E-02
 -1       103 7.08086E-02
 -1       104 6.14116E-02
 -1       105 4.82825E-02
 -1       106 3.54111E-02
 -1       107 2.61813E-02
 -1       108 2.15386E-02
 -1       109 1.66621E-02
 -1       110 1.21969E-02
 -1       111 8.43209E-03
 -1       112 7.02856E-03
 -1       113 5.96141E-03
 -1       114 4.85178E-03
 -1       115 3.85682E-03
 -1       116 3.50872E-03
 -1       117 3.02173E-03
 -1       118 2.45879E-03
 -1       119 1.85135E-03
 -1       120 1.30445E-03
 -1       121 9.68019E-04
 -1       122 5.61653E-04
 -1       123 2.63549E-04
 -1       124 2.34273E-04
 -1       125 1.37831E-04
 -1       126 6.39411E-05
 -1       127 1.10719E-04
 -1       128 1.40789E-04
 -1       129 1.58741E-04
 -1       130 1.67944E-04
 -1       131 1.70593E-04
 -1       132 1.70593E-04
 -1       133 1.60644E-04
 -1       134 1.35267E-04
 -1       135 8.34568E-05
 -1       136 1.37995E-04
 -1       137 2.00075E-04
 -1       138 2.00075E-04
 -1       139 2.46226E+01
 -1       140 4.55842E+01
 -1       141 4.55842E+01
 -1       142 1.77955E+01
 -1       143 1.19907E+01
 -1       144 1.22241E+01
 -1       145 1.22241E+01
 -1       146 1.25771E+01
 -1       147 1.25771E+01
 -1       148 1.18085E+01
 -1       149 1.85663E+01
 -1       150 4.55274E+01
 -1       151 4.55274E+01
 -1       152 2.48845E+01
 -1       153 2.48845E+01
 -1       154 2.53869E+01
 -1       155 3.68672E+01
 -1       156 3.68672E+01
 -1       157 1.54335E+01
 -1       158 1.37199E+01
 -1       159 1.37199E+01
 -1       160 1.37300E+01
 -1       161 1.37300E+01
 -1       162 1.62617E+01
 -1       163 4.13285E+01
 -1       164 4.13285E+01
 -1       165 2.56312E+01
 -1       166 2.56312E+01
 -1       167 6.08130E+00
 -1       168 2.29808E+00
 -1       169 1.52671E+00
 -1       170 1.16078E+00
 -1       171 9.47983E-01
 -1       172 8.17435E-01
 -1       173 7.35780E-01
 -1       174 7.28841E-01
 -1       175 7.95296E-01
 -1       176 8.80485E-01
 -1       177 1.00641E+00
 -1       178 1.20259E+00
 -1       179 1.55787E+00
 -1       180 2.28262E+00
 -1       181 3.91554E+00
 -1       182 1.39535E+01
 -1       183 4.23144E+00
 -1       184 3.32312E+00
 -1       185 2.06665E+00
 -1       186 1.55872E+00
 -1       187 1.28020E+00
 -1       188 1.15426E+00
 -1       189 1.50454E+00
 -1       190 2.48120E+00
 -1       191 3.64993E+00
 -1       192 4.78155E+00
 -1       193 5.53494E+00
 -1       194 6.43794E+00
 -1       195 7.90247E+00
 -1       196 8.24601E+00
 -1       197 1.57857E+01
 -1       198 1.74114E+01
 -1       199 1.35372E+01
 -1       200 7.12648E+00
 -1       201 5.06242E+00
 -1       202 5.29204E+00
 -1       203 5.34040E+00
 -1       204 4.59090E+00
 -1       205 3.91973E+00
 -1       206 3.08081E+00
 -1       207 2.20889E+00
 -1       208 1.48629E+00
 -1       209 9.31518E-01
 -1       210 6.26721E-01
 -1       211 4.17512E-01
 -1       212 2.75619E-01
 -1       213 1.81500E-01
 -1       214 1.19452E-01
 -1       215 7.61538E-02
 -1       216 5.28179E-02
 -1       217 3.46749E-02
 -1       218 2.28402E-02
 -1       219 1.69795E-02
 -1       220 1.27824E-02
 -1       221 9.62120E-03
 -1       222 7.22692E-03
 -1       223 5.30893E-03
 -1       224 4.32275E-03
 -1       225 3.51258E-03
 -1       226 2.78090E-03
 -1       227 2.07737E-03
 -1       228 1.59300E-03
 -1       229 1.33314E-03
 -1       230 1.07963E-03
 -1       231 6.89537E-04
 -1       232 3.07380E-04
 -1       233 3.35767E+00
 -1       234 2.34908E+00
 -1       235 1.57831E+00
 -1       236 1.06493E+00
 -1       237 7.63476E-01
 -1       238 5.75351E-01
 -1       239 5.92041E-01
 -1       240 7.07947E-01
 -1       241 8.88428E-01
 -1       242 1.11543E+00
 -1       243 1.35734E+00
 -1       244 1.64096E+00
 -1       245 1.86739E+00
 -1       246 1.96627E+00
 -1       247 2.08132E+00
 -1       248 2.14796E+00
 -1       249 2.40643E+00
 -1       250 2.39625E+00
 -1       251 2.14382E+00
 -1       252 1.74012E+00
 -1       253 1.33685E+00
 -1       254 9.94989E-01
 -1       255 6.96723E-01
 -1       256 4.48996E-01
 -1       257 2.73726E-01
 -1       258 1.61270E-01
 -1       259 1.03723E-01
 -1       260 7.87190E-02
 -1       261 7.08086E-02
 -1       262 6.14116E-02
 -1       263 4.82825E-02
 -1       264 3.54111E-02
 -1       265 2.74132E-02
 -1       266 2.15386E-02
 -1       267 1.66621E-02
 -1       268 1.21969E-02
 -1       269 8.53544E-03
 -1       270 7.09507E-03
 -1       271 6.00010E-03
 -1       272 4.86584E-03
 -1       273 3.85682E-03
 -1       274 3.50872E-03
 -1       275 3.02173E-03
 -1       276 2.45879E-03
 -1       277 1.85135E-03
 -1       278 1.30445E-03
 -1       279 9.68019E-04
 -1       280 5.61653E-04
 -1       281 4.35563E-04
 -1       282 4.35563E-04
 -1       283 1.49559E-04
 -1       284 1.79930E-04
 -1       285 2.39842E-04
 -1       286 2.76502E-04
 -1       287 2.98121E-04
 -1       288 3.04924E-04
 -1       289 3.04924E-04
 -1       290 3.03316E-04
 -1       291 2.83553E-04
 -1       292 2.30015E-04
 -1       293 1.68555E-04
 -1       294 2.04608E-04
 -1       295 2.23461E-04
 -1       296 2.95980E+01
 -1       297 2.76521E+01
 -1       298 4.55842E+01
 -1       299 1.86674E+01
 -1       300 1.03318E+01
 -1       301 1.19907E+01
 -1       302 1.22241E+01
 -1       303 1.17728E+01
 -1       304 1.25771E+01
 -1       305 1.18085E+01
 -1       306 1.10731E+01
 -1       307 1.88852E+01
 -1       308 4.55274E+01
 -1       309 3.99879E+01
 -1       310 3.30643E+01
 -1       311 3.30643E+01
 -1       312 2.91959E+01
 -1       313 3.48386E+01
 -1       314 3.68672E+01
 -1       315 1.54335E+01
 -1       316 1.23484E+01
 -1       317 1.37199E+01
 -1       318 1.34982E+01
 -1       319 1.37300E+01
 -1       320 1.22153E+01
 -1       321 1.62617E+01
 -1       322 4.13285E+01
 -1       323 3.64223E+01
 -1       324 2.85246E+01
 -1       325 2.95980E+01
 -1       326 9.67501E+00
 -1       327 1.11966E+00
 -1       328 2.50640E+00
 -1       329 7.87072E-01
 -1       330 6.71301E-01
 -1       331 5.92084E-01
 -1       332 5.42274E-01
 -1       333 5.94754E-01
 -1       334 6.52030E-01
 -1       335 7.27674E-01
 -1       336 8.26091E-01
 -1       337 9.59816E-01
 -1       338 1.16165E+00
 -1       339 1.34059E+00
 -1       340 2.14639E+00
 -1       341 1.85710E+00
 -1       342 9.80404E+00
 -1       343 1.59572E+00
 -1       344 1.06664E+00
 -1       345 7.64492E-01
 -1       346 6.36865E-01
 -1       347 1.13643E+00
 -1       348 1.93881E+00
 -1       349 3.03663E+00
 -1       350 4.41403E+00
 -1       351 6.12073E+00
 -1       352 8.21764E+00
 -1       353 1.01686E+01
 -1       354 1.07608E+01
 -1       355 4.76207E+01
 -1       356 1.00122E+01
 -1       357 8.46869E+00
 -1       358 8.92976E+00
 -1       359 6.61714E+00
 -1       360 5.31551E+00
 -1       361 4.55418E+00
 -1       362 3.58640E+00
 -1       363 2.60054E+00
 -1       364 1.78080E+00
 -1       365 1.15746E+00
 -1       366 7.72146E-01
 -1       367 4.88884E-01
 -1       368 3.06239E-01
 -1       369 1.90062E-01
 -1       370 1.19452E-01
 -1       371 7.86635E-02
 -1       372 5.64208E-02
 -1       373 3.83291E-02
 -1       374 2.58762E-02
 -1       375 1.73039E-02
 -1       376 1.17017E-02
 -1       377 8.87819E-03
 -1       378 6.79898E-03
 -1       379 5.24254E-03
 -1       380 3.96668E-03
 -1       381 3.03747E-03
 -1       382 2.49731E-03
 -1       383 1.93885E-03
 -1       384 1.53204E-03
 -1       385 1.14218E-03
 -1       386 9.19194E-04
 -1       387 6.84927E-04
 -1       388 3.00970E-04
 -1       389 1.06493E+00
 -1       390 7.63476E-01
 -1       391 6.27183E-01
 -1       392 5.74000E-01
 -1       393 6.63288E-01
 -1       394 7.94481E-01
 -1       395 9.56766E-01
 -1       396 1.17498E+00
 -1       397 1.40277E+00
 -1       398 1.64096E+00
 -1       399 1.86739E+00
 -1       400 1.96627E+00
 -1       401 1.91215E+00
 -1       402 1.98076E+00
 -1       403 1.93322E+00
 -1       404 1.74063E+00
 -1       405 1.44489E+00
 -1       406 1.19199E+00
 -1       407 9.18981E-01
 -1       408 6.98339E-01
 -1       409 5.01674E-01
 -1       410 3.34951E-01
 -1       411 2.04275E-01
 -1       412 1.09274E-01
 -1       413 5.66393E-02
 -1       414 4.56566E-02
 -1       415 4.28420E-02
 -1       416 3.53117E-02
 -1       417 2.87260E-02
 -1       418 2.25470E-02
 -1       419 1.93461E-02
 -1       420 1.55422E-02
 -1       421 1.18210E-02
 -1       422 8.53544E-03
 -1       423 7.09507E-03
 -1       424 6.00010E-03
 -1       425 4.86584E-03
 -1       426 3.78537E-03
 -1       427 2.89962E-03
 -1       428 2.45078E-03
 -1       429 1.94316E-03
 -1       430 1.41766E-03
 -1       431 1.00678E-03
 -1       432 7.47859E-04
 -1       433 6.82476E-04
 -1       434 2.63992E-04
 -1       435 7.01961E-04
 -1       436 3.07600E-04
 -1       437 3.49221E-04
 -1       438 3.74914E-04
 -1       439 3.86892E-04
 -1       440 3.91021E-04
 -1       441 3.99258E-04
 -1       442 3.99258E-04
 -1       443 3.79279E-04
 -1       444 3.22659E-04
 -1       445 3.73931E-04
 -1       446 1.29503E+00
 -1       447 2.76521E+01
 -1       448 8.76779E+00
 -1       449 2.45203E+01
 -1       450 9.31321E-01
 -1       451 7.80765E+00
 -1       452 9.56944E+00
 -1       453 1.00448E+01
 -1       454 1.06381E+01
 -1       455 9.77800E+00
 -1       456 7.55024E+00
 -1       457 8.52666E+00
 -1       458 1.45952E+01
 -1       459 2.66683E+01
 -1       460 3.00475E+01
 -1       461 4.34428E+01
 -1       462 4.34428E+01
 -1       463 2.68735E+01
 -1       464 2.25508E+01
 -1       465 1.25089E+01
 -1       466 9.71288E+00
 -1       467 2.38390E+01
 -1       468 2.38658E+01
 -1       469 4.76207E+01
 -1       470 1.63103E+01
 -1       471 1.10971E+01
 -1       472 3.73931E-04
 -1       473 1.32150E+01
 -1       474 1.16316E+01
 -1       475 1.38607E+01
 -1       476 4.76207E+01
 -1       477 4.48039E-01
 -1       478 4.96568E-01
 -1       479 4.42174E-01
 -1       480 4.84763E-01
 -1       481 5.23987E-01
 -1       482 5.49483E-01
 -1       483 5.49483E-01
 -1       484 5.39236E-01
 -1       485 6.25190E-01
 -1       486 1.27651E+00
 -1       487 7.04661E-01
 -1       488 5.04397E+00
 -1       489 4.36530E-01
 -1       490 4.86336E-01
 -1       491 7.87712E-01
 -1       492 1.33048E+00
 -1       493 2.23327E+00
 -1       494 3.66277E+00
 -1       495 5.87972E+00
 -1       496 9.88858E+00
 -1       497 1.25223E+01
 -1       498 5.19298E+00
 -1       499 1.01441E+01
 -1       500 1.16022E+01
 -1       501 6.62341E+00
 -1       502 4.41861E+00
 -1       503 3.02379E+00
 -1       504 2.03938E+00
 -1       505 1.36401E+00
 -1       506 9.13134E-01
 -1       507 5.95818E-01
 -1       508 3.86089E-01
 -1       509 2.48664E-01
 -1       510 1.59152E-01
 -1       511 9.93825E-02
 -1       512 6.51175E-02
 -1       513 4.04059E-02
 -1       514 2.61751E-02
 -1       515 1.83873E-02
 -1       516 1.27627E-02
 -1       517 8.66057E-03
 -1       518 6.79898E-03
 -1       519 5.24254E-03
 -1       520 4.00244E-03
 -1       521 3.14386E-03
 -1       522 2.40171E-03
 -1       523 1.85095E-03
 -1       524 1.45745E-03
 -1       525 1.10224E-03
 -1       526 1.07004E-03
 -1       527 5.85553E-01
 -1       528 6.74780E-01
 -1       529 5.74000E-01
 -1       530 6.83070E-01
 -1       531 8.40220E-01
 -1       532 1.02635E+00
 -1       533 1.20929E+00
 -1       534 1.34586E+00
 -1       535 1.46716E+00
 -1       536 1.53071E+00
 -1       537 1.50022E+00
 -1       538 1.48606E+00
 -1       539 1.53167E+00
 -1       540 1.48787E+00
 -1       541 1.34786E+00
 -1       542 1.19788E+00
 -1       543 9.94993E-01
 -1       544 7.64891E-01
 -1       545 5.44615E-01
 -1       546 3.72914E-01
 -1       547 2.43970E-01
 -1       548 1.48516E-01
 -1       549 8.44937E-02
 -1       550 5.50461E-02
 -1       551 3.97284E-02
 -1       552 3.04664E-02
 -1       553 2.85833E-02
 -1       554 2.51381E-02
 -1       555 2.01084E-02
 -1       556 1.60917E-02
 -1       557 1.21251E-02
 -1       558 8.54177E-03
 -1       559 6.03599E-03
 -1       560 4.23224E-03
 -1       561 3.51032E-03
 -1       562 3.04633E-03
 -1       563 2.51068E-03
 -1       564 1.96009E-03
 -1       565 1.58172E-03
 -1       566 1.27913E-03
 -1       567 9.45757E-04
 -1       568 7.01961E-04
 -1       569 4.00459E-04
 -1       570 4.41720E-04
 -1       571 4.41183E-04
 -1       572 9.04861E-01
 -1       573 4.19441E-04
 -1       574 4.32274E-04
 -1       575 4.32997E-04
 -1       576 4.61572E-04
 -1       577 4.88960E-04
 -1       578 4.88960E-04
 -1       579 4.79816E-04
 -1       580 1.07004E-03
 -1       581 5.37799E-01
 -1       582 1.94255E+01
 -1       583 8.26550E+00
 -1       584 1.28149E+01
 -1       585 2.45203E+01
 -1       586 7.30711E+00
 -1       587 8.73756E+00
 -1       588 4.06450E-01
 -1       589 4.77934E+00
 -1       590 5.33674E+00
 -1       591 7.49961E+00
 -1       592 1.81687E+01
 -1       593 3.00475E+01
 -1       594 4.34428E+01
 -1       595 1.60714E+01
 -1       596 2.68735E+01
 -1       597 7.81211E+00
 -1       598 1.50066E+01
 -1       599 2.38658E+01
 -1       600 4.96568E-01
 -1       601 7.22538E-01
 -1       602 8.59645E-04
 -1       603 5.99424E-01
 -1       604 5.28796E-01
 -1       605 8.01894E+00
 -1       606 4.06941E-01
 -1       607 3.80020E-01
 -1       608 4.13671E-01
 -1       609 3.87731E-01
 -1       610 5.71363E-01
 -1       611 4.39687E-04
 -1       612 4.36530E-01
 -1       613 1.11492E+01
 -1       614 4.71115E-01
 -1       615 6.29282E-01
 -1       616 1.09151E+00
 -1       617 1.85030E+00
 -1       618 2.96140E+00
 -1       619 4.99347E+00
 -1       620 8.24454E+00
 -1       621 1.46364E+01
 -1       622 4.42204E-01
 -1       623 7.76067E-04
 -1       624 5.25171E-01
 -1       625 8.59939E+00
 -1       626 6.42642E+00
 -1       627 4.14706E+00
 -1       628 2.57941E+00
 -1       629 1.62572E+00
 -1       630 1.02767E+00
 -1       631 6.33930E-01
 -1       632 3.98419E-01
 -1       633 2.60228E-01
 -1       634 1.75759E-01
 -1       635 1.18030E-01
 -1       636 7.99680E-02
 -1       637 5.26621E-02
 -1       638 3.41925E-02
 -1       639 2.17750E-02
 -1       640 1.34739E-02
 -1       641 8.43083E-03
 -1       642 6.23683E-03
 -1       643 4.82387E-03
 -1       644 3.93620E-03
 -1       645 3.12284E-03
 -1       646 2.40171E-03
 -1       647 1.91043E-03
 -1       648 1.47650E-03
 -1       649 1.07263E-03
 -1       650 1.07004E-03
 -1       651 8.88432E-04
 -1       652 1.04214E+01
 -1       653 7.69735E-01
 -1       654 6.42985E-01
 -1       655 1.05439E+00
 -1       656 1.21452E+00
 -1       657 1.29292E+00
 -1       658 1.33721E+00
 -1       659 1.34586E+00
 -1       660 1.25038E+00
 -1       661 1.28378E+00
 -1       662 1.32567E+00
 -1       663 1.27203E+00
 -1       664 1.19124E+00
 -1       665 1.03104E+00
 -1       666 8.28575E-01
 -1       667 6.67315E-01
 -1       668 5.14089E-01
 -1       669 3.67833E-01
 -1       670 2.43970E-01
 -1       671 1.48516E-01
 -1       672 9.27439E-02
 -1       673 5.96247E-02
 -1       674 3.97284E-02
 -1       675 3.38205E-02
 -1       676 2.79693E-02
 -1       677 2.33428E-02
 -1       678 1.81581E-02
 -1       679 1.38784E-02
 -1       680 1.02494E-02
 -1       681 7.17862E-03
 -1       682 4.72910E-03
 -1       683 2.87167E-03
 -1       684 1.91411E-03
 -1       685 1.79939E-03
 -1       686 1.61909E-03
 -1       687 1.35428E-03
 -1       688 1.05331E-03
 -1       689 9.61000E-04
 -1       690 4.34553E-04
 -1       691 3.02923E+00
 -1       692 5.06240E-01
 -1       693 1.50766E+01
 -1       694 4.45054E-04
 -1       695 5.20236E-04
 -1       696 5.78886E-04
 -1       697 6.48932E-04
 -1       698 8.73637E-04
 -1       699 4.54497E-01
 -1       700 5.24307E+00
 -1       701 1.49341E+01
 -1       702 1.40435E+01
 -1       703 8.13542E+00
 -1       704 4.36198E+00
 -1       705 4.95660E-04
 -1       706 4.07086E+00
 -1       707 6.55549E+00
 -1       708 3.22271E+00
 -1       709 6.05398E+00
 -1       710 1.46364E+01
 -1       711 8.87740E-01
 -1       712 4.13671E-01
 -1       713 5.77728E+00
 -1       714 3.00935E-01
 -1       715 1.16022E+01
 -1       716 3.00935E-01
 -1       717 3.33686E-01
 -1       718 3.97507E-01
 -1       719 2.79455E-01
 -1       720 1.51960E+01
 -1       721 1.34277E+01
 -1       722 3.11615E-01
 -1       723 7.04768E+00
 -1       724 4.46339E-04
 -1       725 2.06309E-01
 -1       726 5.82317E+00
 -1       727 4.71115E-01
 -1       728 7.52283E-01
 -1       729 1.24580E+00
 -1       730 1.93013E+00
 -1       731 3.25741E+00
 -1       732 4.82197E+00
 -1       733 8.46748E+00
 -1       734 3.60014E-01
 -1       735 1.24581E+00
 -1       736 8.85834E+00
 -1       737 5.65247E+00
 -1       738 3.48352E+00
 -1       739 2.18019E+00
 -1       740 1.38991E+00
 -1       741 8.75151E-01
 -1       742 5.50477E-01
 -1       743 3.44688E-01
 -1       744 2.14188E-01
 -1       745 1.33938E-01
 -1       746 8.59493E-02
 -1       747 5.35252E-02
 -1       748 3.41925E-02
 -1       749 2.22329E-02
 -1       750 1.55840E-02
 -1       751 1.05867E-02
 -1       752 7.20981E-03
 -1       753 4.61248E-03
 -1       754 3.02855E-03
 -1       755 2.60886E-03
 -1       756 2.20566E-03
 -1       757 1.79747E-03
 -1       758 1.41531E-03
 -1       759 1.14075E-03
 -1       760 9.37290E-04
 -1       761 1.33721E+00
 -1       762 1.14193E+00
 -1       763 1.49478E+00
 -1       764 1.46521E+00
 -1       765 1.36555E+00
 -1       766 1.49295E+00
 -1       767 1.36475E+00
 -1       768 1.22056E+00
 -1       769 1.12145E+00
 -1       770 9.95271E-01
 -1       771 8.28575E-01
 -1       772 6.59577E-01
 -1       773 4.85141E-01
 -1       774 3.30534E-01
 -1       775 2.11134E-01
 -1       776 1.38397E-01
 -1       777 9.27439E-02
 -1       778 5.96247E-02
 -1       779 4.48668E-02
 -1       780 3.38705E-02
 -1       781 2.74689E-02
 -1       782 2.11543E-02
 -1       783 1.56780E-02
 -1       784 1.11786E-02
 -1       785 7.89795E-03
 -1       786 5.38222E-03
 -1       787 3.48946E-03
 -1       788 2.11272E-03
 -1       789 1.14930E-03
 -1       790 1.00323E-03
 -1       791 1.03011E-03
 -1       792 9.44418E-04
 -1       793 4.34553E-04
 -1       794 4.39687E-04
 -1       795 6.91058E-04
 -1       796 7.29698E-04
 -1       797 3.31117E-01
 -1       798 9.33384E+00
 -1       799 7.99709E+00
 -1       800 1.10599E+01
 -1       801 3.89885E+00
 -1       802 3.43368E-01
 -1       803 2.36753E+00
 -1       804 8.88432E-04
 -1       805 3.28893E+00
 -1       806 4.22847E-01
 -1       807 3.28915E+00
 -1       808 4.29153E-01
 -1       809 4.23222E+00
 -1       810 6.00086E-04
 -1       811 2.50859E+00
 -1       812 6.43483E+00
 -1       813 9.37952E+00
 -1       814 9.78910E+00
 -1       815 3.55319E+00
 -1       816 3.25191E-01
 -1       817 1.00196E+00
 -1       818 5.61835E+00
 -1       819 3.57616E-01
 -1       820 3.00228E+00
 -1       821 3.60014E-01
 -1       822 5.60427E-01
 -1       823 4.31835E-04
 -1       824 9.61000E-04
 -1       825 5.22633E-04
 -1       826 5.35550E+00
 -1       827 2.95324E+00
 -1       828 3.83489E+00
 -1       829 1.63655E-01
 -1       830 7.15530E-01
 -1       831 2.91742E-01
 -1       832 8.74054E-01
 -1       833 5.90243E+00
 -1       834 3.31117E-01
 -1       835 4.85293E+00
 -1       836 9.11944E-01
 -1       837 1.34780E+00
 -1       838 2.44582E+00
 -1       839 4.47704E+00
 -1       840 6.07778E+00
 -1       841 1.54924E+00
 -1       842 1.35689E+00
 -1       843 3.43911E+00
 -1       844 1.98172E+00
 -1       845 1.24859E+00
 -1       846 7.42331E-01
 -1       847 4.37643E-01
 -1       848 2.83398E-01
 -1       849 1.91621E-01
 -1       850 1.30585E-01
 -1       851 9.07132E-02
 -1       852 6.22261E-02
 -1       853 4.20398E-02
 -1       854 2.79268E-02
 -1       855 1.81587E-02
 -1       856 1.16899E-02
 -1       857 7.99753E-03
 -1       858 5.24763E-03
 -1       859 3.28264E-03
 -1       860 2.17615E-03
 -1       861 1.57749E-03
 -1       862 1.13400E-03
 -1       863 9.92251E-04
 -1       864 8.07463E-04
 -1       865 1.34930E+00
 -1       866 1.79460E+00
 -1       867 2.00449E+00
 -1       868 1.62567E+00
 -1       869 1.36475E+00
 -1       870 1.36909E+00
 -1       871 1.23265E+00
 -1       872 9.95271E-01
 -1       873 7.92372E-01
 -1       874 5.87096E-01
 -1       875 4.20544E-01
 -1       876 3.01980E-01
 -1       877 2.11134E-01
 -1       878 1.38397E-01
 -1       879 8.49938E-02
 -1       880 5.97457E-02
 -1       881 4.64785E-02
 -1       882 3.47781E-02
 -1       883 2.52237E-02
 -1       884 1.90413E-02
 -1       885 1.42528E-02
 -1       886 1.06589E-02
 -1       887 7.52610E-03
 -1       888 5.04253E-03
 -1       889 3.25439E-03
 -1       890 1.91931E-03
 -1       891 1.00222E-03
 -1       892 5.46602E-04
 -1       893 6.76552E-04
 -1       894 2.22066E+00
 -1       895 3.65009E-01
 -1       896 2.57285E-01
 -1       897 5.69528E-01
 -1       898 1.82930E+00
 -1       899 3.59529E+00
 -1       900 3.23295E+00
 -1       901 4.85293E+00
 -1       902 2.85185E+00
 -1       903 6.53268E+00
 -1       904 6.16517E+00
 -1       905 1.21932E+00
 -1       906 3.95201E+00
 -1       907 4.85439E-01
 -1       908 4.18326E-01
 -1       909 2.20091E+00
 -1       910 4.17182E-04
 -1       911 5.84326E-01
 -1       912 4.29186E-04
 -1       913 5.76966E-04
 -1       914 4.92008E-04
 -1       915 4.17182E-04
 -1       916 1.02912E-03
 -1       917 3.30290E+00
 -1       918 2.12362E+00
 -1       919 5.98957E+00
 -1       920 2.37057E+00
 -1       921 4.85439E-01
 -1       922 5.17420E-04
 -1       923 3.35640E-01
 -1       924 6.81367E-04
 -1       925 7.81334E-01
 -1       926 3.35640E-01
 -1       927 2.02739E+00
 -1       928 3.36569E+00
 -1       929 2.06182E+00
 -1       930 3.64219E+00
 -1       931 1.92679E+00
 -1       932 3.64965E+00
 -1       933 2.75411E-01
 -1       934 1.98172E+00
 -1       935 1.33895E+00
 -1       936 8.61569E-01
 -1       937 5.46840E-01
 -1       938 3.42696E-01
 -1       939 2.11931E-01
 -1       940 1.50439E-01
 -1       941 1.05270E-01
 -1       942 7.25664E-02
 -1       943 5.07096E-02
 -1       944 3.48260E-02
 -1       945 2.34647E-02
 -1       946 1.57047E-02
 -1       947 1.01701E-02
 -1       948 6.28970E-03
 -1       949 3.66793E-03
 -1       950 2.08283E-03
 -1       951 1.27486E-03
 -1       952 9.84863E-04
 -1       953 1.02912E-03
 -1       954 1.62567E+00
 -1       955 1.67370E+00
 -1       956 2.52191E+00
 -1       957 1.58829E+00
 -1       958 1.57353E+00
 -1       959 1.31190E+00
 -1       960 1.04792E+00
 -1       961 9.25842E-01
 -1       962 7.78112E-01
 -1       963 5.91743E-01
 -1       964 4.20773E-01
 -1       965 2.91630E-01
 -1       966 2.02595E-01
 -1       967 1.43848E-01
 -1       968 9.97035E-02
 -1       969 6.78128E-02
 -1       970 4.48867E-02
 -1       971 3.23118E-02
 -1       972 2.34536E-02
 -1       973 1.65690E-02
 -1       974 1.13581E-02
 -1       975 7.50276E-03
 -1       976 4.83252E-03
 -1       977 2.99719E-03
 -1       978 1.70769E-03
 -1       979 1.00222E-03
 -1       980 5.41276E-04
 -1       981 3.61774E-01
 -1       982 4.40309E-04
 -1       983 2.85185E+00
 -1       984 3.10764E+00
 -1       985 2.18941E+00
 -1       986 1.31661E+00
 -1       987 9.89137E-01
 -1       988 7.93500E-01
 -1       989 3.36569E+00
 -1       990 4.47704E+00
 -1       991 2.12362E+00
 -1       992 5.17420E-04
 -1       993 2.31758E+00
 -1       994 2.23469E+00
 -1       995 3.77434E-04
 -1       996 3.64965E+00
 -1       997 1.38186E+00
 -1       998 5.04198E-01
 -1       999 4.16893E-04
 -1      1000 1.58829E+00
 -1      1001 5.97709E-01
 -1      1002 3.23279E+00
 -1      1003 3.62427E-04
 -1      1004 1.02912E-03
 -1      1005 4.25410E-01
 -1      1006 5.97709E-01
 -1      1007 6.66774E-01
 -1      1008 3.95201E+00
 -1      1009 2.83751E+00
 -1      1010 4.90229E-04
 -1      1011 1.52110E+00
 -1      1012 9.42922E-01
 -1      1013 5.75419E-01
 -1      1014 3.97686E-01
 -1      1015 2.67312E-01
 -1      1016 1.69541E-01
 -1      1017 1.16797E-01
 -1      1018 7.52324E-02
 -1      1019 5.29694E-02
 -1      1020 3.77604E-02
 -1      1021 2.63411E-02
 -1      1022 1.82345E-02
 -1      1023 1.26435E-02
 -1      1024 8.44412E-03
 -1      1025 5.46358E-03
 -1      1026 3.36287E-03
 -1      1027 1.91472E-03
 -1      1028 9.57021E-04
 -1      1029 7.69847E-04
 -1      1030 1.91774E+00
 -1      1031 1.23667E+00
 -1      1032 9.25842E-01
 -1      1033 7.78112E-01
 -1      1034 5.91743E-01
 -1      1035 4.20773E-01
 -1      1036 2.91630E-01
 -1      1037 1.92654E-01
 -1      1038 1.21634E-01
 -1      1039 8.50098E-02
 -1      1040 5.82487E-02
 -1      1041 3.91380E-02
 -1      1042 2.58305E-02
 -1      1043 1.67276E-02
 -1      1044 1.13581E-02
 -1      1045 7.50276E-03
 -1      1046 5.22618E-03
 -1      1047 3.67095E-03
 -1      1048 2.44495E-03
 -1      1049 1.52131E-03
 -1      1050 6.66623E-04
 -1      1051 5.97709E-01
 -1      1052 2.29135E+00
 -1      1053 2.08301E+00
 -1      1054 2.26743E+00
 -1      1055 1.31661E+00
 -1      1056 2.27149E+00
 -1      1057 6.81367E-04
 -1      1058 1.21932E+00
 -1      1059 5.09357E-01
 -1      1060 8.29556E-01
 -1      1061 7.93500E-01
 -1      1062 2.31446E+00
 -1      1063 1.04273E-03
 -1      1064 1.04273E-03
 -1      1065 8.23470E-04
 -1      1066 2.27149E+00
 -1      1067 6.53255E-01
 -1      1068 7.58490E-01
 -1      1069 7.80739E-01
 -1      1070 4.85161E-04
 -1      1071 7.64051E-01
 -1      1072 4.66096E-01
 -1      1073 2.87645E-01
 -1      1074 1.74884E-01
 -1      1075 1.30917E-01
 -1      1076 9.11969E-02
 -1      1077 6.23376E-02
 -1      1078 4.20820E-02
 -1      1079 2.80673E-02
 -1      1080 1.83432E-02
 -1      1081 1.33026E-02
 -1      1082 9.35313E-03
 -1      1083 6.48146E-03
 -1      1084 4.31703E-03
 -1      1085 2.76246E-03
 -1      1086 1.70357E-03
 -1      1087 1.00584E+00
 -1      1088 6.56944E-01
 -1      1089 5.42286E-01
 -1      1090 3.29875E-01
 -1      1091 1.91100E-01
 -1      1092 1.21588E-01
 -1      1093 8.41215E-02
 -1      1094 5.71113E-02
 -1      1095 3.80893E-02
 -1      1096 2.54925E-02
 -1      1097 1.93074E-02
 -1      1098 1.42140E-02
 -1      1099 1.01185E-02
 -1      1100 6.97094E-03
 -1      1101 4.79666E-03
 -1      1102 3.17941E-03
 -1      1103 1.98857E-03
 -1      1104 1.62878E+00
 -1      1105 1.56493E+00
 -1      1106 8.45026E-01
 -1      1107 2.60756E+00
 -1      1108 9.04339E-01
 -1      1109 1.15033E+00
 -1      1110 1.51946E+00
 -1      1111 9.89624E-01
 -1      1112 1.52110E+00
 -1      1113 1.92797E+00
 -1      1114 9.36036E-04
 -1      1115 1.49272E-03
 -1      1116 1.52088E-03
 -1      1117 5.83294E-01
 -1      1118 3.80708E-01
 -1      1119 2.28970E-01
 -1      1120 1.40931E-01
 -1      1121 9.11969E-02
 -1      1122 6.23376E-02
 -1      1123 4.50263E-02
 -1      1124 3.24083E-02
 -1      1125 2.19931E-02
 -1      1126 1.62248E-02
 -1      1127 1.19309E-02
 -1      1128 8.92570E-03
 -1      1129 6.40180E-03
 -1      1130 4.39256E-03
 -1      1131 2.77327E-03
 -1      1132 1.24197E+00
 -1      1133 9.72105E-01
 -1      1134 1.31842E+01
 -1      1135 8.39055E+00
 -1      1136 2.71765E+00
 -1      1137 1.56804E+00
 -1      1138 1.16429E+00
 -1      1139 9.47680E-01
 -1      1140 8.10416E-01
 -1      1141 7.24842E-01
 -1      1142 7.19796E-01
 -1      1143 7.85338E-01
 -1      1144 8.74155E-01
 -1      1145 1.00328E+00
 -1      1146 1.20917E+00
 -1      1147 1.59015E+00
 -1      1148 2.66939E+00
 -1      1149 6.02756E+00
 -1      1150 1.12572E+01
 -1      1151 1.31842E+01
 -1      1152 8.70785E+00
 -1      1153 3.77728E+00
 -1      1154 2.69488E+00
 -1      1155 1.81269E+00
 -1      1156 1.41946E+00
 -1      1157 1.36699E+00
 -1      1158 1.70646E+00
 -1      1159 2.24553E+00
 -1      1160 3.03361E+00
 -1      1161 4.20789E+00
 -1      1162 5.65921E+00
 -1      1163 6.45392E+00
 -1      1164 6.46989E+00
 -1      1165 7.13727E+00
 -1      1166 1.17952E+01
 -1      1167 1.65985E+01
 -1      1168 1.74114E+01
 -1      1169 1.54743E+01
 -1      1170 9.92387E+00
 -1      1171 5.56669E+00
 -1      1172 5.08163E+00
 -1      1173 5.34040E+00
 -1      1174 4.91968E+00
 -1      1175 3.96018E+00
 -1      1176 2.93150E+00
 -1      1177 2.12739E+00
 -1      1178 1.54149E+00
 -1      1179 1.04821E+00
 -1      1180 7.01055E-01
 -1      1181 4.74782E-01
 -1      1182 3.08071E-01
 -1      1183 1.99234E-01
 -1      1184 1.28706E-01
 -1      1185 8.21258E-02
 -1      1186 5.30547E-02
 -1      1187 3.70135E-02
 -1      1188 2.70003E-02
 -1      1189 1.98033E-02
 -1      1190 1.45287E-02
 -1      1191 1.06795E-02
 -1      1192 7.82878E-03
 -1      1193 5.90287E-03
 -1      1194 4.76954E-03
 -1      1195 3.91767E-03
 -1      1196 3.14674E-03
 -1      1197 2.42026E-03
 -1      1198 1.82155E-03
 -1      1199 1.45830E-03
 -1      1200 1.20639E-03
 -1      1201 8.50023E-04
 -1      1202 4.26645E-04
 -1      1203 1.39535E+01
 -1      1204 8.65560E+00
 -1      1205 2.85337E+00
 -1      1206 1.96370E+00
 -1      1207 1.30947E+00
 -1      1208 8.94601E-01
 -1      1209 6.25410E-01
 -1      1210 4.60202E-01
 -1      1211 4.41000E-01
 -1      1212 5.19697E-01
 -1      1213 6.61605E-01
 -1      1214 8.90136E-01
 -1      1215 1.22921E+00
 -1      1216 1.61974E+00
 -1      1217 1.94750E+00
 -1      1218 2.11464E+00
 -1      1219 2.27719E+00
 -1      1220 2.40643E+00
 -1      1221 2.40134E+00
 -1      1222 2.27004E+00
 -1      1223 1.94197E+00
 -1      1224 1.53849E+00
 -1      1225 1.14935E+00
 -1      1226 7.99438E-01
 -1      1227 5.27054E-01
 -1      1228 3.45404E-01
 -1      1229 2.17498E-01
 -1      1230 1.32496E-01
 -1      1231 9.12209E-02
 -1      1232 7.47638E-02
 -1      1233 6.61101E-02
 -1      1234 5.48471E-02
 -1      1235 4.18468E-02
 -1      1236 3.07962E-02
 -1      1237 2.38600E-02
 -1      1238 1.91004E-02
 -1      1239 1.44295E-02
 -1      1240 1.03145E-02
 -1      1241 7.73033E-03
 -1      1242 6.49499E-03
 -1      1243 5.40660E-03
 -1      1244 4.35430E-03
 -1      1245 3.68277E-03
 -1      1246 3.26523E-03
 -1      1247 2.74026E-03
 -1      1248 2.15507E-03
 -1      1249 1.57790E-03
 -1      1250 1.13624E-03
 -1      1251 7.64836E-04
 -1      1252 3.42566E-04
 -1      1253 1.93515E-04
 -1      1254 2.48911E-04
 -1      1255 1.86052E-04
 -1      1256 1.00886E-04
 -1      1257 8.73302E-05
 -1      1258 1.25754E-04
 -1      1259 1.49765E-04
 -1      1260 1.63343E-04
 -1      1261 1.69269E-04
 -1      1262 1.70593E-04
 -1      1263 1.65618E-04
 -1      1264 1.47955E-04
 -1      1265 1.09362E-04
 -1      1266 1.10726E-04
 -1      1267 1.69035E-04
 -1      1268 2.00075E-04
 -1      1269 2.16476E-04
 -1      1270 2.46542E+01
 -1      1271 3.51034E+01
 -1      1272 4.55842E+01
 -1      1273 3.16898E+01
 -1      1274 1.48931E+01
 -1      1275 1.21074E+01
 -1      1276 1.22241E+01
 -1      1277 1.24006E+01
 -1      1278 1.25771E+01
 -1      1279 1.21928E+01
 -1      1280 1.51874E+01
 -1      1281 3.20469E+01
 -1      1282 4.55274E+01
 -1      1283 3.52060E+01
 -1      1284 2.48845E+01
 -1      1285 2.51357E+01
 -1      1286 2.53869E+01
 -1      1287 3.11270E+01
 -1      1288 3.68672E+01
 -1      1289 2.61504E+01
 -1      1290 1.45767E+01
 -1      1291 1.37199E+01
 -1      1292 1.37249E+01
 -1      1293 1.37300E+01
 -1      1294 1.49959E+01
 -1      1295 2.87951E+01
 -1      1296 4.13285E+01
 -1      1297 3.34799E+01
 -1      1298 2.56312E+01
 -1      1299 2.51585E+01
 -1      1300 1.31842E+01
 -1      1301 4.83908E+00
 -1      1302 9.63277E+00
 -1      1303 2.06826E+00
 -1      1304 2.94747E+00
 -1      1305 4.18969E+00
 -1      1306 1.41218E+00
 -1      1307 1.68258E+00
 -1      1308 1.91240E+00
 -1      1309 1.09586E+00
 -1      1310 1.22921E+00
 -1      1311 1.34375E+00
 -1      1312 9.06206E-01
 -1      1313 9.89458E-01
 -1      1314 1.05438E+00
 -1      1315 7.86919E-01
 -1      1316 8.40931E-01
 -1      1317 8.82709E-01
 -1      1318 7.14530E-01
 -1      1319 7.46092E-01
 -1      1320 7.76608E-01
 -1      1321 7.37576E-01
 -1      1322 7.11060E-01
 -1      1323 7.32311E-01
 -1      1324 8.09830E-01
 -1      1325 7.70804E-01
 -1      1326 7.62068E-01
 -1      1327 9.02216E-01
 -1      1328 8.52424E-01
 -1      1329 8.37890E-01
 -1      1330 1.04451E+00
 -1      1331 9.65181E-01
 -1      1332 9.43450E-01
 -1      1333 1.26916E+00
 -1      1334 1.14260E+00
 -1      1335 1.10450E+00
 -1      1336 1.70122E+00
 -1      1337 1.44680E+00
 -1      1338 1.38023E+00
 -1      1339 2.88842E+00
 -1      1340 2.06359E+00
 -1      1341 1.92024E+00
 -1      1342 6.23822E+00
 -1      1343 3.70488E+00
 -1      1344 3.09908E+00
 -1      1345 1.39535E+01
 -1      1346 1.12572E+01
 -1      1347 8.93454E+00
 -1      1348 1.39535E+01
 -1      1349 8.70785E+00
 -1      1350 4.23144E+00
 -1      1351 3.77728E+00
 -1      1352 3.32312E+00
 -1      1353 3.77728E+00
 -1      1354 2.69488E+00
 -1      1355 2.06665E+00
 -1      1356 2.69488E+00
 -1      1357 1.81269E+00
 -1      1358 1.55872E+00
 -1      1359 1.81269E+00
 -1      1360 1.41946E+00
 -1      1361 1.28020E+00
 -1      1362 1.41946E+00
 -1      1363 1.21723E+00
 -1      1364 1.30402E+00
 -1      1365 1.21723E+00
 -1      1366 1.47916E+00
 -1      1367 1.73185E+00
 -1      1368 1.32940E+00
 -1      1369 2.22018E+00
 -1      1370 2.50655E+00
 -1      1371 1.99287E+00
 -1      1372 3.09092E+00
 -1      1373 3.59262E+00
 -1      1374 3.06557E+00
 -1      1375 4.15843E+00
 -1      1376 4.83101E+00
 -1      1377 4.21574E+00
 -1      1378 5.20771E+00
 -1      1379 5.98644E+00
 -1      1380 5.15824E+00
 -1      1381 6.43794E+00
 -1      1382 6.45392E+00
 -1      1383 5.98644E+00
 -1      1384 7.18618E+00
 -1      1385 7.18618E+00
 -1      1386 7.17021E+00
 -1      1387 7.35795E+00
 -1      1388 8.02533E+00
 -1      1389 8.07424E+00
 -1      1390 1.57857E+01
 -1      1391 1.65985E+01
 -1      1392 1.74114E+01
 -1      1393 1.74114E+01
 -1      1394 1.65985E+01
 -1      1395 1.54743E+01
 -1      1396 1.35372E+01
 -1      1397 1.54743E+01
 -1      1398 1.03319E+01
 -1      1399 6.71849E+00
 -1      1400 1.03319E+01
 -1      1401 5.68646E+00
 -1      1402 4.94264E+00
 -1      1403 6.09445E+00
 -1      1404 5.05745E+00
 -1      1405 5.31622E+00
 -1      1406 5.17723E+00
 -1      1407 5.34040E+00
 -1      1408 5.34040E+00
 -1      1409 5.31622E+00
 -1      1410 4.96565E+00
 -1      1411 4.54493E+00
 -1      1412 4.96565E+00
 -1      1413 4.20934E+00
 -1      1414 3.67056E+00
 -1      1415 4.25532E+00
 -1      1416 3.25111E+00
 -1      1417 2.76121E+00
 -1      1418 3.50027E+00
 -1      1419 2.32525E+00
 -1      1420 2.01103E+00
 -1      1421 2.64485E+00
 -1      1422 1.64973E+00
 -1      1423 1.37804E+00
 -1      1424 1.84759E+00
 -1      1425 1.10066E+00
 -1      1426 8.79071E-01
 -1      1427 1.20890E+00
 -1      1428 7.26672E-01
 -1      1429 6.01104E-01
 -1      1430 7.79119E-01
 -1      1431 4.96500E-01
 -1      1432 3.95794E-01
 -1      1433 5.22116E-01
 -1      1434 3.24847E-01
 -1      1435 2.58842E-01
 -1      1436 3.46565E-01
 -1      1437 2.11783E-01
 -1      1438 1.68952E-01
 -1      1439 2.28560E-01
 -1      1440 1.37928E-01
 -1      1441 1.10231E-01
 -1      1442 1.50476E-01
 -1      1443 8.85813E-02
 -1      1444 6.96983E-02
 -1      1445 9.78031E-02
 -1      1446 5.80304E-02
 -1      1447 4.78422E-02
 -1      1448 6.44859E-02
 -1      1449 3.87707E-02
 -1      1450 3.29177E-02
 -1      1451 4.37464E-02
 -1      1452 2.70003E-02
 -1      1453 2.28402E-02
 -1      1454 2.87576E-02
 -1      1455 1.99098E-02
 -1      1456 1.68730E-02
 -1      1457 1.99098E-02
 -1      1458 1.47744E-02
 -1      1459 1.25366E-02
 -1      1460 1.48809E-02
 -1      1461 1.09561E-02
 -1      1462 9.34467E-03
 -1      1463 1.12018E-02
 -1      1464 8.14754E-03
 -1      1465 6.90817E-03
 -1      1466 8.42406E-03
 -1      1467 5.94917E-03
 -1      1468 5.26263E-03
 -1      1469 6.26793E-03
 -1      1470 4.76954E-03
 -1      1471 4.32275E-03
 -1      1472 4.81584E-03
 -1      1473 3.91767E-03
 -1      1474 3.51258E-03
 -1      1475 3.91767E-03
 -1      1476 3.14674E-03
 -1      1477 2.78090E-03
 -1      1478 3.14674E-03
 -1      1479 2.42914E-03
 -1      1480 2.06850E-03
 -1      1481 2.42914E-03
 -1      1482 1.82631E-03
 -1      1483 1.58824E-03
 -1      1484 1.83519E-03
 -1      1485 1.45830E-03
 -1      1486 1.33314E-03
 -1      1487 1.46307E-03
 -1      1488 1.20639E-03
 -1      1489 1.07963E-03
 -1      1490 1.20639E-03
 -1      1491 8.84585E-04
 -1      1492 6.54976E-04
 -1      1493 8.84585E-04
 -1      1494 4.63897E-04
 -1      1495 2.70128E-04
 -1      1496 2.53728E-04
 -1      1497 4.98459E-04
 -1      1498 3.35767E+00
 -1      1499 8.65560E+00
 -1      1500 8.65560E+00
 -1      1501 2.34908E+00
 -1      1502 2.85337E+00
 -1      1503 2.85337E+00
 -1      1504 1.57831E+00
 -1      1505 1.96370E+00
 -1      1506 1.96370E+00
 -1      1507 1.05278E+00
 -1      1508 1.32162E+00
 -1      1509 1.32162E+00
 -1      1510 7.56025E-01
 -1      1511 9.02052E-01
 -1      1512 9.14205E-01
 -1      1513 5.38799E-01
 -1      1514 6.61963E-01
 -1      1515 6.69414E-01
 -1      1516 5.05099E-01
 -1      1517 5.47144E-01
 -1      1518 5.83696E-01
 -1      1519 5.85895E-01
 -1      1520 5.63052E-01
 -1      1521 6.49994E-01
 -1      1522 7.31989E-01
 -1      1523 6.76135E-01
 -1      1524 7.98187E-01
 -1      1525 9.31545E-01
 -1      1526 8.45491E-01
 -1      1527 1.00193E+00
 -1      1528 1.19498E+00
 -1      1529 1.05250E+00
 -1      1530 1.23639E+00
 -1      1531 1.53338E+00
 -1      1532 1.33679E+00
 -1      1533 1.49915E+00
 -1      1534 1.84054E+00
 -1      1535 1.64659E+00
 -1      1536 1.75418E+00
 -1      1537 2.02379E+00
 -1      1538 1.88997E+00
 -1      1539 1.91683E+00
 -1      1540 2.11464E+00
 -1      1541 2.08132E+00
 -1      1542 2.02379E+00
 -1      1543 2.27719E+00
 -1      1544 2.14796E+00
 -1      1545 2.11464E+00
 -1      1546 2.40643E+00
 -1      1547 2.40643E+00
 -1      1548 2.27719E+00
 -1      1549 2.39625E+00
 -1      1550 2.40134E+00
 -1      1551 2.40134E+00
 -1      1552 2.14382E+00
 -1      1553 2.27004E+00
 -1      1554 2.27004E+00
 -1      1555 1.74012E+00
 -1      1556 1.94197E+00
 -1      1557 1.94197E+00
 -1      1558 1.33685E+00
 -1      1559 1.53849E+00
 -1      1560 1.53849E+00
 -1      1561 9.78419E-01
 -1      1562 1.16592E+00
 -1      1563 1.16592E+00
 -1      1564 6.66874E-01
 -1      1565 8.29286E-01
 -1      1566 8.45856E-01
 -1      1567 4.33039E-01
 -1      1568 5.43010E-01
 -1      1569 5.72859E-01
 -1      1570 2.73726E-01
 -1      1571 3.45404E-01
 -1      1572 3.61361E-01
 -1      1573 1.61270E-01
 -1      1574 2.17498E-01
 -1      1575 2.17498E-01
 -1      1576 1.03723E-01
 -1      1577 1.32496E-01
 -1      1578 1.32496E-01
 -1      1579 7.87190E-02
 -1      1580 9.12209E-02
 -1      1581 9.12209E-02
 -1      1582 7.08086E-02
 -1      1583 7.47638E-02
 -1      1584 7.47638E-02
 -1      1585 6.14116E-02
 -1      1586 6.61101E-02
 -1      1587 6.61101E-02
 -1      1588 4.82825E-02
 -1      1589 5.48471E-02
 -1      1590 5.48471E-02
 -1      1591 3.54111E-02
 -1      1592 4.18468E-02
 -1      1593 4.18468E-02
 -1      1594 2.67973E-02
 -1      1595 3.14122E-02
 -1      1596 3.14122E-02
 -1      1597 2.15386E-02
 -1      1598 2.38600E-02
 -1      1599 2.44759E-02
 -1      1600 1.66621E-02
 -1      1601 1.91004E-02
 -1      1602 1.91004E-02
 -1      1603 1.21969E-02
 -1      1604 1.44295E-02
 -1      1605 1.44295E-02
 -1      1606 8.48376E-03
 -1      1607 1.03662E-02
 -1      1608 1.03662E-02
 -1      1609 7.06181E-03
 -1      1610 7.76358E-03
 -1      1611 7.81525E-03
 -1      1612 5.98076E-03
 -1      1613 6.51433E-03
 -1      1614 6.54759E-03
 -1      1615 4.85881E-03
 -1      1616 5.41363E-03
 -1      1617 5.43298E-03
 -1      1618 3.85682E-03
 -1      1619 4.35430E-03
 -1      1620 4.36133E-03
 -1      1621 3.50872E-03
 -1      1622 3.68277E-03
 -1      1623 3.68277E-03
 -1      1624 3.02173E-03
 -1      1625 3.26523E-03
 -1      1626 3.26523E-03
 -1      1627 2.45879E-03
 -1      1628 2.74026E-03
 -1      1629 2.74026E-03
 -1      1630 1.85135E-03
 -1      1631 2.15507E-03
 -1      1632 2.15507E-03
 -1      1633 1.30445E-03
 -1      1634 1.57790E-03
 -1      1635 1.57790E-03
 -1      1636 9.68019E-04
 -1      1637 1.13624E-03
 -1      1638 1.13624E-03
 -1      1639 5.61653E-04
 -1      1640 7.64836E-04
 -1      1641 7.64836E-04
 -1      1642 4.12601E-04
 -1      1643 3.34918E-04
 -1      1644 3.49556E-04
 -1      1645 2.86697E-04
 -1      1646 3.34918E-04
 -1      1647 4.35563E-04
 -1      1648 1.06750E-04
 -1      1649 1.43695E-04
 -1      1650 2.92561E-04
 -1      1651 1.45325E-04
 -1      1652 1.21935E-04
 -1      1653 1.64745E-04
 -1      1654 1.90315E-04
 -1      1655 1.75281E-04
 -1      1656 2.09886E-04
 -1      1657 2.17622E-04
 -1      1658 2.08645E-04
 -1      1659 2.58172E-04
 -1      1660 2.33033E-04
 -1      1661 2.28431E-04
 -1      1662 2.87312E-04
 -1      1663 2.37758E-04
 -1      1664 2.36434E-04
 -1      1665 3.01523E-04
 -1      1666 2.37758E-04
 -1      1667 2.37758E-04
 -1      1668 3.04924E-04
 -1      1669 2.31980E-04
 -1      1670 2.36955E-04
 -1      1671 3.04120E-04
 -1      1672 2.09410E-04
 -1      1673 2.22098E-04
 -1      1674 2.93435E-04
 -1      1675 1.56736E-04
 -1      1676 1.82641E-04
 -1      1677 2.56784E-04
 -1      1678 1.53275E-04
 -1      1679 1.26006E-04
 -1      1680 1.99285E-04
 -1      1681 2.02342E-04
 -1      1682 1.71301E-04
 -1      1683 1.86582E-04
 -1      1684 2.11768E-04
 -1      1685 2.11768E-04
 -1      1686 2.14034E-04
 -1      1687 2.65420E-04
 -1      1688 2.71103E+01
 -1      1689 2.71419E+01
 -1      1690 3.66181E+01
 -1      1691 2.61373E+01
 -1      1692 4.55842E+01
 -1      1693 4.55842E+01
 -1      1694 1.82314E+01
 -1      1695 3.21258E+01
 -1      1696 1.11612E+01
 -1      1697 1.40636E+01
 -1      1698 1.21074E+01
 -1      1699 1.19907E+01
 -1      1700 1.22241E+01
 -1      1701 1.22241E+01
 -1      1702 1.21749E+01
 -1      1703 1.19984E+01
 -1      1704 1.25771E+01
 -1      1705 1.25771E+01
 -1      1706 1.18085E+01
 -1      1707 1.21928E+01
 -1      1708 1.48197E+01
 -1      1709 1.14408E+01
 -1      1710 3.22063E+01
 -1      1711 1.87258E+01
 -1      1712 4.55274E+01
 -1      1713 4.55274E+01
 -1      1714 3.24362E+01
 -1      1715 4.27577E+01
 -1      1716 2.89744E+01
 -1      1717 2.89744E+01
 -1      1718 2.92256E+01
 -1      1719 2.89744E+01
 -1      1720 2.72914E+01
 -1      1721 2.72914E+01
 -1      1722 3.58529E+01
 -1      1723 3.01128E+01
 -1      1724 3.68672E+01
 -1      1725 3.68672E+01
 -1      1726 1.54335E+01
 -1      1727 2.61504E+01
 -1      1728 1.30341E+01
 -1      1729 1.38910E+01
 -1      1730 1.37199E+01
 -1      1731 1.37199E+01
 -1      1732 1.36141E+01
 -1      1733 1.36091E+01
 -1      1734 1.37300E+01
 -1      1735 1.37300E+01
 -1      1736 1.42385E+01
 -1      1737 1.29726E+01
 -1      1738 2.87951E+01
 -1      1739 1.62617E+01
 -1      1740 4.13285E+01
 -1      1741 4.13285E+01
 -1      1742 3.10267E+01
 -1      1743 3.88754E+01
 -1      1744 2.70779E+01
 -1      1745 2.70779E+01
 -1      1746 2.71419E+01
 -1      1747 2.76146E+01
 -1      1748 8.73983E+00
 -1      1749 1.27303E+01
 -1      1750 2.95980E+01
 -1      1751 3.21258E+01
 -1      1752 4.12601E-04
 -1      1753 4.98608E-04
 -1      1754 2.86250E+01
 -1      1755 3.66181E+01
 -1      1756 1.44996E+01
 -1      1757 1.11612E+01
 -1      1758 1.21074E+01
 -1      1759 1.19984E+01
 -1      1760 1.21749E+01
 -1      1761 1.21928E+01
 -1      1762 1.14408E+01
 -1      1763 1.49792E+01
 -1      1764 3.22063E+01
 -1      1765 4.27577E+01
 -1      1766 3.65261E+01
 -1      1767 3.30643E+01
 -1      1768 3.11301E+01
 -1      1769 3.20173E+01
 -1      1770 3.58529E+01
 -1      1771 2.61504E+01
 -1      1772 1.38910E+01
 -1      1773 1.30341E+01
 -1      1774 1.36091E+01
 -1      1775 1.36141E+01
 -1      1776 1.29726E+01
 -1      1777 1.42385E+01
 -1      1778 2.87951E+01
 -1      1779 3.88754E+01
 -1      1780 3.24734E+01
 -1      1781 2.90613E+01
 -1      1782 1.27303E+01
 -1      1783 9.63277E+00
 -1      1784 8.96051E+00
 -1      1785 1.32319E+00
 -1      1786 1.70887E+00
 -1      1787 2.40224E+00
 -1      1788 4.29385E+00
 -1      1789 1.81303E+00
 -1      1790 8.67528E-01
 -1      1791 9.73927E-01
 -1      1792 7.44368E-01
 -1      1793 8.09642E-01
 -1      1794 7.29187E-01
 -1      1795 6.63932E-01
 -1      1796 7.04759E-01
 -1      1797 6.31693E-01
 -1      1798 6.35557E-01
 -1      1799 6.39027E-01
 -1      1800 5.67179E-01
 -1      1801 6.95025E-01
 -1      1802 6.61797E-01
 -1      1803 5.68514E-01
 -1      1804 7.66257E-01
 -1      1805 7.23663E-01
 -1      1806 6.23392E-01
 -1      1807 8.67045E-01
 -1      1808 8.04080E-01
 -1      1809 6.89852E-01
 -1      1810 1.01434E+00
 -1      1811 9.16253E-01
 -1      1812 7.76883E-01
 -1      1813 1.25884E+00
 -1      1814 1.08120E+00
 -1      1815 8.92953E-01
 -1      1816 1.72214E+00
 -1      1817 1.35976E+00
 -1      1818 1.06073E+00
 -1      1819 2.62807E+00
 -1      1820 1.81160E+00
 -1      1821 1.25112E+00
 -1      1822 8.04996E+00
 -1      1823 3.03097E+00
 -1      1824 1.74349E+00
 -1      1825 2.75203E+00
 -1      1826 5.15637E+00
 -1      1827 2.10309E+00
 -1      1828 2.60738E+00
 -1      1829 2.00174E+00
 -1      1830 9.02502E+00
 -1      1831 9.73952E+00
 -1      1832 2.45942E+00
 -1      1833 1.83119E+00
 -1      1834 1.56665E+00
 -1      1835 1.31268E+00
 -1      1836 1.33118E+00
 -1      1837 1.16161E+00
 -1      1838 1.02235E+00
 -1      1839 9.15568E-01
 -1      1840 9.58532E-01
 -1      1841 8.95564E-01
 -1      1842 7.00678E-01
 -1      1843 1.14534E+00
 -1      1844 1.32048E+00
 -1      1845 8.86646E-01
 -1      1846 1.72168E+00
 -1      1847 2.21001E+00
 -1      1848 1.53762E+00
 -1      1849 2.75892E+00
 -1      1850 3.34328E+00
 -1      1851 2.48772E+00
 -1      1852 4.03198E+00
 -1      1853 4.59779E+00
 -1      1854 3.72533E+00
 -1      1855 5.45114E+00
 -1      1856 5.82784E+00
 -1      1857 5.26738E+00
 -1      1858 6.87629E+00
 -1      1859 7.32779E+00
 -1      1860 7.16919E+00
 -1      1861 8.30329E+00
 -1      1862 9.03555E+00
 -1      1863 9.19314E+00
 -1      1864 9.33161E+00
 -1      1865 9.50338E+00
 -1      1866 1.04647E+01
 -1      1867 3.86094E+01
 -1      1868 3.86094E+01
 -1      1869 1.17747E+01
 -1      1870 8.56936E+00
 -1      1871 7.79759E+00
 -1      1872 6.76555E+00
 -1      1873 6.99609E+00
 -1      1874 7.11090E+00
 -1      1875 8.69923E+00
 -1      1876 5.95459E+00
 -1      1877 5.97877E+00
 -1      1878 7.77345E+00
 -1      1879 5.32795E+00
 -1      1880 4.95320E+00
 -1      1881 5.96632E+00
 -1      1882 4.57254E+00
 -1      1883 4.23695E+00
 -1      1884 4.93484E+00
 -1      1885 3.75307E+00
 -1      1886 3.33361E+00
 -1      1887 4.07029E+00
 -1      1888 2.84068E+00
 -1      1889 2.40472E+00
 -1      1890 3.09347E+00
 -1      1891 1.99485E+00
 -1      1892 1.63355E+00
 -1      1893 2.19067E+00
 -1      1894 1.32187E+00
 -1      1895 1.04449E+00
 -1      1896 1.46913E+00
 -1      1897 8.51832E-01
 -1      1898 6.99433E-01
 -1      1899 9.64802E-01
 -1      1900 5.57802E-01
 -1      1901 4.53198E-01
 -1      1902 6.30515E-01
 -1      1903 3.61876E-01
 -1      1904 2.90929E-01
 -1      1905 3.97561E-01
 -1      1906 2.32840E-01
 -1      1907 1.85781E-01
 -1      1908 2.48151E-01
 -1      1909 1.50476E-01
 -1      1910 1.19452E-01
 -1      1911 1.54757E-01
 -1      1912 9.90580E-02
 -1      1913 7.74087E-02
 -1      1914 9.90580E-02
 -1      1915 6.62873E-02
 -1      1916 5.46194E-02
 -1      1917 6.75422E-02
 -1      1918 4.55735E-02
 -1      1919 3.65020E-02
 -1      1920 4.73750E-02
 -1      1921 3.02756E-02
 -1      1922 2.43582E-02
 -1      1923 3.21026E-02
 -1      1924 2.00720E-02
 -1      1925 1.71417E-02
 -1      1926 2.15900E-02
 -1      1927 1.43406E-02
 -1      1928 1.22420E-02
 -1      1929 1.45028E-02
 -1      1930 1.08303E-02
 -1      1931 9.24969E-03
 -1      1932 1.02899E-02
 -1      1933 8.21009E-03
 -1      1934 7.01295E-03
 -1      1935 7.83858E-03
 -1      1936 6.23473E-03
 -1      1937 5.27573E-03
 -1      1938 6.02076E-03
 -1      1939 4.63781E-03
 -1      1940 4.14472E-03
 -1      1941 4.60461E-03
 -1      1942 3.68011E-03
 -1      1943 3.27503E-03
 -1      1944 3.50208E-03
 -1      1945 3.00495E-03
 -1      1946 2.63911E-03
 -1      1947 2.76739E-03
 -1      1948 2.35988E-03
 -1      1949 2.00811E-03
 -1      1950 2.21808E-03
 -1      1951 1.80471E-03
 -1      1952 1.56252E-03
 -1      1953 1.73545E-03
 -1      1954 1.36759E-03
 -1      1955 1.23766E-03
 -1      1956 1.33711E-03
 -1      1957 1.12617E-03
 -1      1958 9.99413E-04
 -1      1959 1.03069E-03
 -1      1960 8.82279E-04
 -1      1961 6.87232E-04
 -1      1962 8.02061E-04
 -1      1963 4.95253E-04
 -1      1964 3.04175E-04
 -1      1965 2.62215E-04
 -1      1966 4.92948E-04
 -1      1967 3.36892E+00
 -1      1968 1.06493E+00
 -1      1969 1.32162E+00
 -1      1970 7.63476E-01
 -1      1971 9.14205E-01
 -1      1972 9.14205E-01
 -1      1973 6.01267E-01
 -1      1974 6.95330E-01
 -1      1975 6.95330E-01
 -1      1976 5.83020E-01
 -1      1977 5.74675E-01
 -1      1978 6.00591E-01
 -1      1979 6.85618E-01
 -1      1980 6.27665E-01
 -1      1981 6.18644E-01
 -1      1982 8.41454E-01
 -1      1983 7.51214E-01
 -1      1984 7.28884E-01
 -1      1985 1.03610E+00
 -1      1986 9.22597E-01
 -1      1987 8.75624E-01
 -1      1988 1.26616E+00
 -1      1989 1.14520E+00
 -1      1990 1.06587E+00
 -1      1991 1.52187E+00
 -1      1992 1.38005E+00
 -1      1993 1.28887E+00
 -1      1994 1.75418E+00
 -1      1995 1.64096E+00
 -1      1996 1.52187E+00
 -1      1997 1.91683E+00
 -1      1998 1.86739E+00
 -1      1999 1.75418E+00
 -1      2000 2.02379E+00
 -1      2001 1.96627E+00
 -1      2002 1.91683E+00
 -1      2003 2.03005E+00
 -1      2004 1.99673E+00
 -1      2005 1.93921E+00
 -1      2006 2.19359E+00
 -1      2007 2.06436E+00
 -1      2008 1.94645E+00
 -1      2009 2.16473E+00
 -1      2010 2.16982E+00
 -1      2011 1.95699E+00
 -1      2012 1.94223E+00
 -1      2013 2.06844E+00
 -1      2014 1.83693E+00
 -1      2015 1.59250E+00
 -1      2016 1.79435E+00
 -1      2017 1.59276E+00
 -1      2018 1.26442E+00
 -1      2019 1.46605E+00
 -1      2020 1.31844E+00
 -1      2021 9.56985E-01
 -1      2022 1.12792E+00
 -1      2023 1.05548E+00
 -1      2024 6.97531E-01
 -1      2025 8.46664E-01
 -1      2026 8.08660E-01
 -1      2027 4.75335E-01
 -1      2028 5.99198E-01
 -1      2029 6.00007E-01
 -1      2030 3.04339E-01
 -1      2031 3.91973E-01
 -1      2032 4.18313E-01
 -1      2033 1.82772E-01
 -1      2034 2.39000E-01
 -1      2035 2.69613E-01
 -1      2036 1.06498E-01
 -1      2037 1.35272E-01
 -1      2038 1.56774E-01
 -1      2039 6.76792E-02
 -1      2040 8.01811E-02
 -1      2041 8.29564E-02
 -1      2042 5.82326E-02
 -1      2043 6.21878E-02
 -1      2044 5.11480E-02
 -1      2045 5.21268E-02
 -1      2046 5.68253E-02
 -1      2047 4.42493E-02
 -1      2048 4.17971E-02
 -1      2049 4.83617E-02
 -1      2050 3.90769E-02
 -1      2051 3.20685E-02
 -1      2052 3.85042E-02
 -1      2053 3.20188E-02
 -1      2054 2.49801E-02
 -1      2055 2.89791E-02
 -1      2056 2.56365E-02
 -1      2057 2.04423E-02
 -1      2058 2.33797E-02
 -1      2059 2.09466E-02
 -1      2060 1.61022E-02
 -1      2061 1.85404E-02
 -1      2062 1.74442E-02
 -1      2063 1.20089E-02
 -1      2064 1.42415E-02
 -1      2065 1.36816E-02
 -1      2066 8.53544E-03
 -1      2067 1.03662E-02
 -1      2068 1.01782E-02
 -1      2069 7.09507E-03
 -1      2070 7.81525E-03
 -1      2071 7.81525E-03
 -1      2072 6.00010E-03
 -1      2073 6.54759E-03
 -1      2074 6.54759E-03
 -1      2075 4.86584E-03
 -1      2076 5.43298E-03
 -1      2077 5.43298E-03
 -1      2078 3.82110E-03
 -1      2079 4.32561E-03
 -1      2080 4.32561E-03
 -1      2081 3.20417E-03
 -1      2082 3.37822E-03
 -1      2083 3.34249E-03
 -1      2084 2.73626E-03
 -1      2085 2.97975E-03
 -1      2086 2.67520E-03
 -1      2087 2.20097E-03
 -1      2088 2.48245E-03
 -1      2089 2.19697E-03
 -1      2090 1.63450E-03
 -1      2091 1.93822E-03
 -1      2092 1.68041E-03
 -1      2093 1.15562E-03
 -1      2094 1.42907E-03
 -1      2095 1.21222E-03
 -1      2096 8.57939E-04
 -1      2097 1.02616E-03
 -1      2098 8.77321E-04
 -1      2099 6.22064E-04
 -1      2100 8.25248E-04
 -1      2101 7.15167E-04
 -1      2102 5.59020E-04
 -1      2103 2.21961E-04
 -1      2104 2.06775E-04
 -1      2105 4.25760E-04
 -1      2106 5.68762E-04
 -1      2107 4.82976E-04
 -1      2108 5.59020E-04
 -1      2109 2.73721E-04
 -1      2110 2.43765E-04
 -1      2111 2.85796E-04
 -1      2112 3.12861E-04
 -1      2113 2.94531E-04
 -1      2114 3.28410E-04
 -1      2115 3.36518E-04
 -1      2116 3.25708E-04
 -1      2117 3.62067E-04
 -1      2118 3.45908E-04
 -1      2119 3.42507E-04
 -1      2120 3.80903E-04
 -1      2121 3.47972E-04
 -1      2122 3.47972E-04
 -1      2123 3.88956E-04
 -1      2124 3.51287E-04
 -1      2125 3.52091E-04
 -1      2126 3.95140E-04
 -1      2127 3.41406E-04
 -1      2128 3.51287E-04
 -1      2129 3.99258E-04
 -1      2130 3.04647E-04
 -1      2131 3.31416E-04
 -1      2132 3.89269E-04
 -1      2133 2.45607E-04
 -1      2134 2.76337E-04
 -1      2135 3.50969E-04
 -1      2136 2.89269E-04
 -1      2137 2.71243E-04
 -1      2138 3.48295E-04
 -1      2139 1.43667E+00
 -1      2140 1.82206E+00
 -1      2141 1.57607E+00
 -1      2142 1.17998E+00
 -1      2143 3.66181E+01
 -1      2144 2.76521E+01
 -1      2145 9.54978E+00
 -1      2146 1.37176E+01
 -1      2147 2.60862E+01
 -1      2148 2.70591E+01
 -1      2149 1.04605E+00
 -1      2150 1.22902E+00
 -1      2151 1.02549E+00
 -1      2152 8.59197E-01
 -1      2153 9.89915E+00
 -1      2154 9.06971E+00
 -1      2155 8.28772E+00
 -1      2156 1.08967E+01
 -1      2157 1.07800E+01
 -1      2158 1.09088E+01
 -1      2159 1.11344E+01
 -1      2160 1.16076E+01
 -1      2161 1.12055E+01
 -1      2162 1.07932E+01
 -1      2163 1.11775E+01
 -1      2164 9.31167E+00
 -1      2165 9.67937E+00
 -1      2166 8.66412E+00
 -1      2167 1.37059E+01
 -1      2168 9.79988E+00
 -1      2169 3.00613E+01
 -1      2170 1.67402E+01
 -1      2171 1.15609E+01
 -1      2172 3.33281E+01
 -1      2173 3.60979E+01
 -1      2174 3.15559E+01
 -1      2175 3.50177E+01
 -1      2176 2.83579E+01
 -1      2177 3.82536E+01
 -1      2178 3.82536E+01
 -1      2179 3.63193E+01
 -1      2180 3.82536E+01
 -1      2181 4.34428E+01
 -1      2182 3.08561E+01
 -1      2183 2.80347E+01
 -1      2184 2.97090E+01
 -1      2185 2.86947E+01
 -1      2186 2.47121E+01
 -1      2187 1.39712E+01
 -1      2188 2.46880E+01
 -1      2189 1.75298E+01
 -1      2190 1.10762E+01
 -1      2191 1.26188E+01
 -1      2192 1.17164E+01
 -1      2193 1.10306E+01
 -1      2194 1.11138E+01
 -1      2195 1.18711E+01
 -1      2196 1.23652E+01
 -1      2197 1.03420E+01
 -1      2198 3.01306E+01
 -1      2199 3.25838E+01
 -1      2200 2.61952E+01
 -1      2201 3.01440E+01
 -1      2202 3.86094E+01
 -1      2203 3.80727E+01
 -1      2204 9.69395E+00
 -1      2205 1.27493E+01
 -1      2206 1.74888E+01
 -1      2207 3.09473E+01
 -1      2208 1.25390E+01
 -1      2209 2.60862E+01
 -1      2210 2.91476E+00
 -1      2211 2.05106E+00
 -1      2212 9.75846E+00
 -1      2213 2.19812E+01
 -1      2214 4.76207E+01
 -1      2215 3.60705E+01
 -1      2216 1.42542E+01
 -1      2217 1.23172E+01
 -1      2218 6.92218E-04
 -1      2219 2.98696E-04
 -1      2220 2.89269E-04
 -1      2221 3.73931E-04
 -1      2222 3.37450E-04
 -1      2223 8.68855E+00
 -1      2224 3.57433E+01
 -1      2225 2.38524E+01
 -1      2226 1.47384E+01
 -1      2227 1.08418E+01
 -1      2228 1.10724E+01
 -1      2229 2.72717E+01
 -1      2230 1.26758E+01
 -1      2231 1.06723E+01
 -1      2232 1.37087E+01
 -1      2233 1.25649E+01
 -1      2234 1.11565E+01
 -1      2235 3.51581E+01
 -1      2236 3.67452E+01
 -1      2237 2.96941E+01
 -1      2238 1.42280E+01
 -1      2239 2.02645E+01
 -1      2240 8.03845E+00
 -1      2241 1.02081E+01
 -1      2242 1.22977E+01
 -1      2243 1.13644E+01
 -1      2244 1.03415E+01
 -1      2245 1.45215E+01
 -1      2246 9.80713E+00
 -1      2247 1.24135E+01
 -1      2248 1.85270E+01
 -1      2249 1.05547E+01
 -1      2250 4.76207E+01
 -1      2251 4.76207E+01
 -1      2252 5.20062E-01
 -1      2253 5.59670E-01
 -1      2254 5.83935E-01
 -1      2255 6.41820E-01
 -1      2256 4.72304E-01
 -1      2257 5.18464E-01
 -1      2258 4.92224E-01
 -1      2259 5.68397E-01
 -1      2260 5.39759E-01
 -1      2261 4.63469E-01
 -1      2262 6.25831E-01
 -1      2263 5.88009E-01
 -1      2264 5.04375E-01
 -1      2265 6.87787E-01
 -1      2266 6.38578E-01
 -1      2267 5.36735E-01
 -1      2268 7.54649E-01
 -1      2269 6.87787E-01
 -1      2270 5.49483E-01
 -1      2271 8.50445E-01
 -1      2272 7.49526E-01
 -1      2273 5.44359E-01
 -1      2274 9.82889E-01
 -1      2275 8.93422E-01
 -1      2276 5.82213E-01
 -1      2277 1.71145E+00
 -1      2278 1.30855E+00
 -1      2279 9.50851E-01
 -1      2280 1.56680E+00
 -1      2281 1.15019E+00
 -1      2282 8.85653E-01
 -1      2283 1.02824E+01
 -1      2284 6.42581E+00
 -1      2285 6.90588E+00
 -1      2286 7.51587E-01
 -1      2287 6.00511E-01
 -1      2288 5.70595E-01
 -1      2289 6.25414E-01
 -1      2290 5.61601E-01
 -1      2291 4.61433E-01
 -1      2292 7.12288E-01
 -1      2293 9.62069E-01
 -1      2294 6.37024E-01
 -1      2295 1.23345E+00
 -1      2296 1.63464E+00
 -1      2297 1.05909E+00
 -1      2298 2.08604E+00
 -1      2299 2.63495E+00
 -1      2300 1.78187E+00
 -1      2301 3.34970E+00
 -1      2302 4.03840E+00
 -1      2303 2.94802E+00
 -1      2304 5.14688E+00
 -1      2305 6.00023E+00
 -1      2306 4.77124E+00
 -1      2307 8.00466E+00
 -1      2308 9.05311E+00
 -1      2309 7.88415E+00
 -1      2310 1.03700E+01
 -1      2311 1.13455E+01
 -1      2312 1.12054E+01
 -1      2313 9.24046E+00
 -1      2314 7.24910E-04
 -1      2315 7.38121E+00
 -1      2316 6.50031E+00
 -1      2317 5.11847E+00
 -1      2318 9.53695E+00
 -1      2319 8.38064E+00
 -1      2320 9.10967E+00
 -1      2321 8.45885E+00
 -1      2322 1.08732E+01
 -1      2323 5.96946E+00
 -1      2324 5.58879E+00
 -1      2325 9.11280E+00
 -1      2326 4.48640E+00
 -1      2327 4.00251E+00
 -1      2328 5.52101E+00
 -1      2329 3.30510E+00
 -1      2330 2.81216E+00
 -1      2331 3.72120E+00
 -1      2332 2.31996E+00
 -1      2333 1.91009E+00
 -1      2334 2.53158E+00
 -1      2335 1.57241E+00
 -1      2336 1.26073E+00
 -1      2337 1.70169E+00
 -1      2338 1.03530E+00
 -1      2339 8.42640E-01
 -1      2340 1.13857E+00
 -1      2341 6.83982E-01
 -1      2342 5.42351E-01
 -1      2343 7.54476E-01
 -1      2344 4.37487E-01
 -1      2345 3.46164E-01
 -1      2346 4.90954E-01
 -1      2347 2.77452E-01
 -1      2348 2.19363E-01
 -1      2349 3.17377E-01
 -1      2350 1.74607E-01
 -1      2351 1.39302E-01
 -1      2352 2.03908E-01
 -1      2353 1.09417E-01
 -1      2354 8.90230E-02
 -1      2355 1.29267E-01
 -1      2356 7.18905E-02
 -1      2357 6.07692E-02
 -1      2358 8.22500E-02
 -1      2359 4.84134E-02
 -1      2360 3.93675E-02
 -1      2361 5.27617E-02
 -1      2362 3.22521E-02
 -1      2363 2.60257E-02
 -1      2364 3.32905E-02
 -1      2365 2.21318E-02
 -1      2366 1.78456E-02
 -1      2367 2.22812E-02
 -1      2368 1.50333E-02
 -1      2369 1.22322E-02
 -1      2370 1.55750E-02
 -1      2371 1.01811E-02
 -1      2372 8.76938E-03
 -1      2373 1.07116E-02
 -1      2374 7.83858E-03
 -1      2375 6.79898E-03
 -1      2376 7.72977E-03
 -1      2377 6.02076E-03
 -1      2378 5.24254E-03
 -1      2379 6.02076E-03
 -1      2380 4.62249E-03
 -1      2381 3.98456E-03
 -1      2382 4.62249E-03
 -1      2383 3.55527E-03
 -1      2384 3.09067E-03
 -1      2385 3.57315E-03
 -1      2386 2.71959E-03
 -1      2387 2.44951E-03
 -1      2388 2.77279E-03
 -1      2389 2.17413E-03
 -1      2390 1.89490E-03
 -1      2391 2.12633E-03
 -1      2392 1.69815E-03
 -1      2393 1.49475E-03
 -1      2394 1.65420E-03
 -1      2395 1.31714E-03
 -1      2396 1.12221E-03
 -1      2397 1.27985E-03
 -1      2398 1.10611E-03
 -1      2399 9.94617E-04
 -1      2400 1.08614E-03
 -1      2401 6.06368E-01
 -1      2402 6.74515E-01
 -1      2403 7.19128E-01
 -1      2404 8.69856E-01
 -1      2405 6.30167E-01
 -1      2406 6.18644E-01
 -1      2407 5.74000E-01
 -1      2408 7.38776E-01
 -1      2409 6.73179E-01
 -1      2410 6.28535E-01
 -1      2411 8.98493E-01
 -1      2412 8.17350E-01
 -1      2413 7.61645E-01
 -1      2414 1.10066E+00
 -1      2415 9.91559E-01
 -1      2416 9.33285E-01
 -1      2417 1.30603E+00
 -1      2418 1.19214E+00
 -1      2419 1.11782E+00
 -1      2420 1.49341E+00
 -1      2421 1.37432E+00
 -1      2422 1.27758E+00
 -1      2423 1.66727E+00
 -1      2424 1.55406E+00
 -1      2425 1.40651E+00
 -1      2426 1.74849E+00
 -1      2427 1.69905E+00
 -1      2428 1.49893E+00
 -1      2429 1.70619E+00
 -1      2430 1.73325E+00
 -1      2431 1.51547E+00
 -1      2432 1.73341E+00
 -1      2433 1.69910E+00
 -1      2434 1.49314E+00
 -1      2435 1.73244E+00
 -1      2436 1.75621E+00
 -1      2437 1.50886E+00
 -1      2438 1.61425E+00
 -1      2439 1.71054E+00
 -1      2440 1.50977E+00
 -1      2441 1.39637E+00
 -1      2442 1.54425E+00
 -1      2443 1.41786E+00
 -1      2444 1.19493E+00
 -1      2445 1.32138E+00
 -1      2446 1.27287E+00
 -1      2447 9.56987E-01
 -1      2448 1.09349E+00
 -1      2449 1.09644E+00
 -1      2450 7.31615E-01
 -1      2451 8.41936E-01
 -1      2452 8.79942E-01
 -1      2453 5.23145E-01
 -1      2454 6.21477E-01
 -1      2455 6.54753E-01
 -1      2456 3.53933E-01
 -1      2457 4.37294E-01
 -1      2458 4.58764E-01
 -1      2459 2.24122E-01
 -1      2460 2.89460E-01
 -1      2461 3.08442E-01
 -1      2462 1.28895E-01
 -1      2463 1.76396E-01
 -1      2464 1.96243E-01
 -1      2465 7.05665E-02
 -1      2466 9.68836E-02
 -1      2467 1.16505E-01
 -1      2468 5.03513E-02
 -1      2469 5.58427E-02
 -1      2470 6.97699E-02
 -1      2471 4.12852E-02
 -1      2472 4.26925E-02
 -1      2473 4.73872E-02
 -1      2474 3.28890E-02
 -1      2475 3.66542E-02
 -1      2476 3.50974E-02
 -1      2477 2.86546E-02
 -1      2478 3.19475E-02
 -1      2479 2.95248E-02
 -1      2480 2.38426E-02
 -1      2481 2.69320E-02
 -1      2482 2.68607E-02
 -1      2483 1.97273E-02
 -1      2484 2.13277E-02
 -1      2485 2.26233E-02
 -1      2486 1.58169E-02
 -1      2487 1.77189E-02
 -1      2488 1.81000E-02
 -1      2489 1.19730E-02
 -1      2490 1.38337E-02
 -1      2491 1.41084E-02
 -1      2492 8.53860E-03
 -1      2493 1.01814E-02
 -1      2494 1.03334E-02
 -1      2495 6.56553E-03
 -1      2496 7.28571E-03
 -1      2497 7.28888E-03
 -1      2498 5.11617E-03
 -1      2499 5.66365E-03
 -1      2500 5.13411E-03
 -1      2501 4.18808E-03
 -1      2502 4.75521E-03
 -1      2503 3.87128E-03
 -1      2504 3.41585E-03
 -1      2505 3.95609E-03
 -1      2506 3.27833E-03
 -1      2507 2.70515E-03
 -1      2508 3.14803E-03
 -1      2509 2.77851E-03
 -1      2510 2.20544E-03
 -1      2511 2.42985E-03
 -1      2512 2.23539E-03
 -1      2513 1.76244E-03
 -1      2514 2.01625E-03
 -1      2515 1.77090E-03
 -1      2516 1.34839E-03
 -1      2517 1.61115E-03
 -1      2518 1.43042E-03
 -1      2519 9.76271E-04
 -1      2520 1.18171E-03
 -1      2521 1.11245E-03
 -1      2522 7.24910E-04
 -1      2523 8.54373E-04
 -1      2524 8.23859E-04
 -1      2525 3.74840E-04
 -1      2526 3.54030E-04
 -1      2527 3.74660E-04
 -1      2528 3.52856E-04
 -1      2529 4.21090E-04
 -1      2530 3.52587E-04
 -1      2531 5.71572E-04
 -1      2532 4.41452E-04
 -1      2533 1.70563E+00
 -1      2534 1.25029E+00
 -1      2535 8.04761E-01
 -1      2536 1.01226E+00
 -1      2537 3.97178E-04
 -1      2538 3.84331E-04
 -1      2539 4.09950E-04
 -1      2540 4.09583E-04
 -1      2541 4.03594E-04
 -1      2542 4.25857E-04
 -1      2543 4.12009E-04
 -1      2544 4.09944E-04
 -1      2545 4.32635E-04
 -1      2546 4.30415E-04
 -1      2547 4.26296E-04
 -1      2548 4.47284E-04
 -1      2549 4.44109E-04
 -1      2550 4.44109E-04
 -1      2551 4.75266E-04
 -1      2552 4.34120E-04
 -1      2553 4.44109E-04
 -1      2554 4.88960E-04
 -1      2555 4.01237E-04
 -1      2556 4.29547E-04
 -1      2557 4.84388E-04
 -1      2558 7.21985E-04
 -1      2559 6.96349E-04
 -1      2560 7.74927E-04
 -1      2561 5.55899E-01
 -1      2562 5.82491E-01
 -1      2563 5.61676E-01
 -1      2564 2.35388E+01
 -1      2565 2.19729E+01
 -1      2566 8.51664E+00
 -1      2567 1.22879E+01
 -1      2568 1.45626E+01
 -1      2569 2.02335E+01
 -1      2570 2.45203E+01
 -1      2571 3.60705E+01
 -1      2572 2.19729E+01
 -1      2573 8.54255E+00
 -1      2574 8.97261E+00
 -1      2575 1.69916E+01
 -1      2576 1.16796E+01
 -1      2577 9.68783E+00
 -1      2578 9.39119E+00
 -1      2579 7.01961E-04
 -1      2580 4.74362E-01
 -1      2581 4.99267E-01
 -1      2582 4.27245E-01
 -1      2583 4.24312E-01
 -1      2584 6.16479E+00
 -1      2585 7.27867E+00
 -1      2586 6.93170E+00
 -1      2587 6.44349E+00
 -1      2588 1.10474E+01
 -1      2589 8.01313E+00
 -1      2590 2.41081E+01
 -1      2591 2.24185E+01
 -1      2592 3.67452E+01
 -1      2593 3.00475E+01
 -1      2594 4.34428E+01
 -1      2595 4.34428E+01
 -1      2596 1.93111E+01
 -1      2597 2.14724E+01
 -1      2598 2.68735E+01
 -1      2599 3.51581E+01
 -1      2600 1.16348E+01
 -1      2601 8.92846E+00
 -1      2602 8.69077E+00
 -1      2603 8.27483E+00
 -1      2604 1.94362E+01
 -1      2605 1.94228E+01
 -1      2606 1.25754E+01
 -1      2607 3.57433E+01
 -1      2608 2.38658E+01
 -1      2609 1.94362E+01
 -1      2610 3.57433E+01
 -1      2611 1.66558E+01
 -1      2612 1.34161E+01
 -1      2613 6.04323E+00
 -1      2614 4.96568E-01
 -1      2615 6.41820E-01
 -1      2616 7.13945E-01
 -1      2617 1.28982E+00
 -1      2618 9.99525E-01
 -1      2619 1.00879E+00
 -1      2620 3.60705E+01
 -1      2621 6.50254E+00
 -1      2622 5.55899E-01
 -1      2623 6.65473E+00
 -1      2624 1.31200E+01
 -1      2625 8.02234E+00
 -1      2626 8.89420E-04
 -1      2627 7.72286E-04
 -1      2628 5.71572E-04
 -1      2629 6.16788E-04
 -1      2630 6.16788E-04
 -1      2631 2.41081E+01
 -1      2632 9.64842E-04
 -1      2633 8.32179E-01
 -1      2634 9.47229E-01
 -1      2635 6.60981E-01
 -1      2636 6.37102E-01
 -1      2637 1.61202E+01
 -1      2638 1.05402E+01
 -1      2639 7.30058E-01
 -1      2640 8.24227E-01
 -1      2641 7.16829E-01
 -1      2642 5.12682E-01
 -1      2643 1.13071E+01
 -1      2644 7.75927E+00
 -1      2645 1.09398E+01
 -1      2646 1.42968E+01
 -1      2647 1.60147E+01
 -1      2648 6.41817E+00
 -1      2649 2.14724E+01
 -1      2650 3.51581E+01
 -1      2651 3.67452E+01
 -1      2652 5.05804E+00
 -1      2653 9.64842E-04
 -1      2654 5.29429E-04
 -1      2655 4.65464E-01
 -1      2656 4.45852E-01
 -1      2657 4.32392E-01
 -1      2658 4.11097E-01
 -1      2659 3.93480E-01
 -1      2660 4.81577E-01
 -1      2661 4.81577E-01
 -1      2662 4.63483E-01
 -1      2663 4.68607E-01
 -1      2664 4.00701E-01
 -1      2665 9.23937E-01
 -1      2666 5.98276E-01
 -1      2667 6.46950E-01
 -1      2668 4.36342E-04
 -1      2669 4.35981E-04
 -1      2670 5.70595E-01
 -1      2671 4.36530E-01
 -1      2672 1.46589E+01
 -1      2673 1.25050E+01
 -1      2674 4.53822E-01
 -1      2675 4.78726E-01
 -1      2676 4.53822E-01
 -1      2677 5.57809E-01
 -1      2678 7.08497E-01
 -1      2679 5.50199E-01
 -1      2680 9.39609E-01
 -1      2681 1.21099E+00
 -1      2682 8.60394E-01
 -1      2683 1.59039E+00
 -1      2684 2.04179E+00
 -1      2685 1.47090E+00
 -1      2686 2.59733E+00
 -1      2687 3.31208E+00
 -1      2688 2.40585E+00
 -1      2689 4.32812E+00
 -1      2690 5.43659E+00
 -1      2691 3.97743E+00
 -1      2692 7.06213E+00
 -1      2693 9.06656E+00
 -1      2694 6.61900E+00
 -1      2695 1.22625E+01
 -1      2696 1.35793E+01
 -1      2697 1.14405E+01
 -1      2698 5.13879E-01
 -1      2699 5.58492E-01
 -1      2700 5.88263E-04
 -1      2701 6.08894E-04
 -1      2702 1.33044E+01
 -1      2703 5.49585E-01
 -1      2704 5.31485E-01
 -1      2705 1.01008E+01
 -1      2706 7.61140E+00
 -1      2707 6.52491E+00
 -1      2708 5.42252E+00
 -1      2709 7.51290E+00
 -1      2710 4.28284E+00
 -1      2711 3.58542E+00
 -1      2712 5.28674E+00
 -1      2713 2.80160E+00
 -1      2714 2.30939E+00
 -1      2715 3.36323E+00
 -1      2716 1.83255E+00
 -1      2717 1.49486E+00
 -1      2718 2.10257E+00
 -1      2719 1.19584E+00
 -1      2720 9.70400E-01
 -1      2721 1.32669E+00
 -1      2722 7.73532E-01
 -1      2723 6.14874E-01
 -1      2724 8.30798E-01
 -1      2725 4.97119E-01
 -1      2726 3.92254E-01
 -1      2727 5.16175E-01
 -1      2728 3.23159E-01
 -1      2729 2.54446E-01
 -1      2730 3.29324E-01
 -1      2731 2.12211E-01
 -1      2732 1.67456E-01
 -1      2733 2.17993E-01
 -1      2734 1.38591E-01
 -1      2735 1.08706E-01
 -1      2736 1.46895E-01
 -1      2737 8.96753E-02
 -1      2738 7.25428E-02
 -1      2739 9.89992E-02
 -1      2740 5.88898E-02
 -1      2741 4.65340E-02
 -1      2742 6.63151E-02
 -1      2743 3.72992E-02
 -1      2744 3.01838E-02
 -1      2745 4.34273E-02
 -1      2746 2.39751E-02
 -1      2747 2.00812E-02
 -1      2748 2.79838E-02
 -1      2749 1.59306E-02
 -1      2750 1.31183E-02
 -1      2751 1.76244E-02
 -1      2752 1.05968E-02
 -1      2753 8.54570E-03
 -1      2754 1.09524E-02
 -1      2755 7.44870E-03
 -1      2756 6.51790E-03
 -1      2757 7.33383E-03
 -1      2758 5.81142E-03
 -1      2759 5.03321E-03
 -1      2760 5.53035E-03
 -1      2761 4.58937E-03
 -1      2762 3.96932E-03
 -1      2763 4.38004E-03
 -1      2764 3.56264E-03
 -1      2765 3.13335E-03
 -1      2766 3.52952E-03
 -1      2767 2.77279E-03
 -1      2768 2.40171E-03
 -1      2769 2.76228E-03
 -1      2770 2.15607E-03
 -1      2771 1.88069E-03
 -1      2772 2.15607E-03
 -1      2773 1.66372E-03
 -1      2774 1.46698E-03
 -1      2775 1.69347E-03
 -1      2776 1.26504E-03
 -1      2777 1.08744E-03
 -1      2778 1.27457E-03
 -1      2779 1.08614E-03
 -1      2780 1.07004E-03
 -1      2781 1.07133E-03
 -1      2782 6.64808E-04
 -1      2783 7.95196E-04
 -1      2784 9.17094E-04
 -1      2785 1.16182E+01
 -1      2786 1.49235E+01
 -1      2787 8.04977E-01
 -1      2788 7.26403E-01
 -1      2789 6.63028E-01
 -1      2790 6.08492E-01
 -1      2791 5.84078E-01
 -1      2792 7.06360E-01
 -1      2793 1.13184E+00
 -1      2794 1.04037E+00
 -1      2795 1.28019E+00
 -1      2796 1.21191E+00
 -1      2797 1.13445E+00
 -1      2798 1.38004E+00
 -1      2799 1.31939E+00
 -1      2800 1.25372E+00
 -1      2801 1.43396E+00
 -1      2802 1.40218E+00
 -1      2803 1.31507E+00
 -1      2804 1.42304E+00
 -1      2805 1.43829E+00
 -1      2806 1.34154E+00
 -1      2807 1.36822E+00
 -1      2808 1.37530E+00
 -1      2809 1.29812E+00
 -1      2810 1.40772E+00
 -1      2811 1.38492E+00
 -1      2812 1.26708E+00
 -1      2813 1.40677E+00
 -1      2814 1.42867E+00
 -1      2815 1.30472E+00
 -1      2816 1.30994E+00
 -1      2817 1.37995E+00
 -1      2818 1.29885E+00
 -1      2819 1.19456E+00
 -1      2820 1.26955E+00
 -1      2821 1.23163E+00
 -1      2822 1.01301E+00
 -1      2823 1.11446E+00
 -1      2824 1.11114E+00
 -1      2825 7.96733E-01
 -1      2826 9.11784E-01
 -1      2827 9.29805E-01
 -1      2828 6.05965E-01
 -1      2829 7.16103E-01
 -1      2830 7.47945E-01
 -1      2831 4.43502E-01
 -1      2832 5.29352E-01
 -1      2833 5.90702E-01
 -1      2834 3.05901E-01
 -1      2835 3.70373E-01
 -1      2836 4.40961E-01
 -1      2837 1.96243E-01
 -1      2838 2.43970E-01
 -1      2839 3.05901E-01
 -1      2840 1.16505E-01
 -1      2841 1.48516E-01
 -1      2842 1.96243E-01
 -1      2843 7.38950E-02
 -1      2844 8.86188E-02
 -1      2845 1.20630E-01
 -1      2846 4.96765E-02
 -1      2847 5.73354E-02
 -1      2848 7.61843E-02
 -1      2849 3.50974E-02
 -1      2850 3.97284E-02
 -1      2851 4.96765E-02
 -1      2852 3.12019E-02
 -1      2853 3.21434E-02
 -1      2854 3.67744E-02
 -1      2855 2.65537E-02
 -1      2856 2.82763E-02
 -1      2857 3.08949E-02
 -1      2858 2.17256E-02
 -1      2859 2.42404E-02
 -1      2860 2.56561E-02
 -1      2861 1.71249E-02
 -1      2862 1.91333E-02
 -1      2863 2.07504E-02
 -1      2864 1.30018E-02
 -1      2865 1.49850E-02
 -1      2866 1.60183E-02
 -1      2867 9.39557E-03
 -1      2868 1.11872E-02
 -1      2869 1.20639E-02
 -1      2870 6.60730E-03
 -1      2871 7.86019E-03
 -1      2872 8.71399E-03
 -1      2873 4.48067E-03
 -1      2874 5.38254E-03
 -1      2875 5.95386E-03
 -1      2876 3.19099E-03
 -1      2877 3.55195E-03
 -1      2878 3.80038E-03
 -1      2879 2.48022E-03
 -1      2880 2.71222E-03
 -1      2881 2.39289E-03
 -1      2882 2.15504E-03
 -1      2883 2.42286E-03
 -1      2884 1.85675E-03
 -1      2885 1.78959E-03
 -1      2886 2.06489E-03
 -1      2887 1.70924E-03
 -1      2888 1.46800E-03
 -1      2889 1.65718E-03
 -1      2890 1.48669E-03
 -1      2891 1.16622E-03
 -1      2892 1.31751E-03
 -1      2893 1.20379E-03
 -1      2894 9.53379E-04
 -1      2895 1.12007E-03
 -1      2896 1.00715E-03
 -1      2897 9.24716E-04
 -1      2898 4.33413E-04
 -1      2899 4.26997E-04
 -1      2900 4.37120E-04
 -1      2901 4.11110E+00
 -1      2902 4.03660E+00
 -1      2903 7.05551E-01
 -1      2904 6.05451E-01
 -1      2905 4.71385E-01
 -1      2906 5.17518E-01
 -1      2907 6.65076E-04
 -1      2908 2.25621E+01
 -1      2909 1.66226E+01
 -1      2910 4.53313E-04
 -1      2911 4.39025E-04
 -1      2912 4.42371E-04
 -1      2913 5.04598E-04
 -1      2914 4.90904E-04
 -1      2915 4.82645E-04
 -1      2916 5.33923E-04
 -1      2917 5.33923E-04
 -1      2918 5.49561E-04
 -1      2919 5.64374E-04
 -1      2920 5.68946E-04
 -1      2921 6.13909E-04
 -1      2922 9.71838E-04
 -1      2923 6.76726E-04
 -1      2924 7.61285E-04
 -1      2925 4.96148E-01
 -1      2926 5.20025E-01
 -1      2927 4.48351E-01
 -1      2928 5.14352E+00
 -1      2929 6.75429E+00
 -1      2930 1.97272E+01
 -1      2931 3.12774E+01
 -1      2932 1.67345E+01
 -1      2933 1.92819E+01
 -1      2934 8.20046E+00
 -1      2935 1.04751E+01
 -1      2936 6.08704E+00
 -1      2937 4.77748E+00
 -1      2938 3.69561E+00
 -1      2939 4.57551E-04
 -1      2940 4.48060E-04
 -1      2941 6.35864E-04
 -1      2942 4.65107E-04
 -1      2943 4.42510E+00
 -1      2944 5.68899E+00
 -1      2945 1.96979E+01
 -1      2946 7.02755E+00
 -1      2947 5.94611E+00
 -1      2948 1.07004E-03
 -1      2949 4.27972E+00
 -1      2950 4.00102E+00
 -1      2951 6.68055E+00
 -1      2952 7.39577E+00
 -1      2953 2.90396E+01
 -1      2954 2.23419E+01
 -1      2955 9.57045E-01
 -1      2956 8.63980E-01
 -1      2957 8.28737E-01
 -1      2958 9.71063E-01
 -1      2959 4.81577E-01
 -1      2960 4.68829E-01
 -1      2961 4.10306E-01
 -1      2962 4.13671E-01
 -1      2963 7.25742E+00
 -1      2964 6.79469E+00
 -1      2965 3.74487E-01
 -1      2966 3.98752E-01
 -1      2967 1.33044E+01
 -1      2968 1.16022E+01
 -1      2969 1.01008E+01
 -1      2970 1.77340E+01
 -1      2971 1.07004E-03
 -1      2972 3.98752E-01
 -1      2973 3.98752E-01
 -1      2974 3.00935E-01
 -1      2975 3.56853E-01
 -1      2976 3.87930E-01
 -1      2977 3.70068E-01
 -1      2978 5.55300E-01
 -1      2979 9.58407E+00
 -1      2980 4.19856E-01
 -1      2981 5.36143E-01
 -1      2982 6.68925E+00
 -1      2983 8.32250E-04
 -1      2984 4.89834E-01
 -1      2985 1.31129E+01
 -1      2986 5.91563E+00
 -1      2987 9.27843E+00
 -1      2988 5.06242E+00
 -1      2989 4.13615E+00
 -1      2990 1.22325E+01
 -1      2991 5.06963E+00
 -1      2992 3.42953E-01
 -1      2993 3.63747E-01
 -1      2994 2.90195E-01
 -1      2995 3.06571E-01
 -1      2996 1.44888E+01
 -1      2997 1.48565E+01
 -1      2998 4.98466E-01
 -1      2999 9.71838E-04
 -1      3000 2.90396E+01
 -1      3001 1.46364E+01
 -1      3002 4.79547E-01
 -1      3003 3.64678E+00
 -1      3004 1.38591E+01
 -1      3005 2.10347E+01
 -1      3006 7.28722E+00
 -1      3007 4.88910E+00
 -1      3008 3.05242E+01
 -1      3009 1.86468E+01
 -1      3010 1.25150E+01
 -1      3011 1.41809E+01
 -1      3012 3.49673E-01
 -1      3013 3.62643E-01
 -1      3014 5.85394E-01
 -1      3015 9.09844E+00
 -1      3016 7.53331E+00
 -1      3017 4.83287E-04
 -1      3018 4.45696E-04
 -1      3019 3.24257E-01
 -1      3020 3.01908E-01
 -1      3021 5.53312E+00
 -1      3022 6.97930E+00
 -1      3023 4.71115E-01
 -1      3024 5.50199E-01
 -1      3025 6.90783E-01
 -1      3026 9.21895E-01
 -1      3027 6.11699E-01
 -1      3028 1.16865E+00
 -1      3029 1.54805E+00
 -1      3030 9.99039E-01
 -1      3031 1.89022E+00
 -1      3032 2.44576E+00
 -1      3033 1.58796E+00
 -1      3034 3.10940E+00
 -1      3035 4.12544E+00
 -1      3036 2.59377E+00
 -1      3037 4.90772E+00
 -1      3038 6.53325E+00
 -1      3039 4.03969E+00
 -1      3040 8.35601E+00
 -1      3041 1.15519E+01
 -1      3042 1.15519E+01
 -1      3043 6.64473E+00
 -1      3044 3.83477E-01
 -1      3045 3.70017E-01
 -1      3046 1.26936E+00
 -1      3047 1.23016E+00
 -1      3048 8.72886E+00
 -1      3049 7.64238E+00
 -1      3050 6.03944E+00
 -1      3051 4.89976E+00
 -1      3052 7.25540E+00
 -1      3053 3.81529E+00
 -1      3054 3.03146E+00
 -1      3055 4.56799E+00
 -1      3056 2.37980E+00
 -1      3057 1.90295E+00
 -1      3058 2.83185E+00
 -1      3059 1.50782E+00
 -1      3060 1.20879E+00
 -1      3061 1.78505E+00
 -1      3062 9.51408E-01
 -1      3063 7.54540E-01
 -1      3064 1.13253E+00
 -1      3065 5.92203E-01
 -1      3066 4.74448E-01
 -1      3067 7.12814E-01
 -1      3068 3.71554E-01
 -1      3069 3.02458E-01
 -1      3070 4.47582E-01
 -1      3071 2.37208E-01
 -1      3072 1.94973E-01
 -1      3073 2.79438E-01
 -1      3074 1.54848E-01
 -1      3075 1.25984E-01
 -1      3076 1.74063E-01
 -1      3077 1.01990E-01
 -1      3078 8.29587E-02
 -1      3079 1.09944E-01
 -1      3080 6.67466E-02
 -1      3081 5.30937E-02
 -1      3082 6.97372E-02
 -1      3083 4.34273E-02
 -1      3084 3.41925E-02
 -1      3085 4.38589E-02
 -1      3086 2.82127E-02
 -1      3087 2.20040E-02
 -1      3088 2.82127E-02
 -1      3089 1.86795E-02
 -1      3090 1.45289E-02
 -1      3091 1.89085E-02
 -1      3092 1.20303E-02
 -1      3093 9.50876E-03
 -1      3094 1.30853E-02
 -1      3095 7.82032E-03
 -1      3096 6.72332E-03
 -1      3097 8.89825E-03
 -1      3098 5.42466E-03
 -1      3099 4.71818E-03
 -1      3100 5.91115E-03
 -1      3101 3.92621E-03
 -1      3102 3.48237E-03
 -1      3103 3.82052E-03
 -1      3104 3.27253E-03
 -1      3105 2.86585E-03
 -1      3106 2.81870E-03
 -1      3107 2.66425E-03
 -1      3108 2.30368E-03
 -1      3109 2.40726E-03
 -1      3110 2.09959E-03
 -1      3111 1.85395E-03
 -1      3112 2.00156E-03
 -1      3113 1.66287E-03
 -1      3114 1.44591E-03
 -1      3115 1.60639E-03
 -1      3116 1.30863E-03
 -1      3117 1.10669E-03
 -1      3118 1.27803E-03
 -1      3119 1.00496E-03
 -1      3120 1.00366E-03
 -1      3121 9.05464E-04
 -1      3122 1.03902E-03
 -1      3123 1.33721E+00
 -1      3124 1.31507E+00
 -1      3125 1.29151E+00
 -1      3126 1.17822E+00
 -1      3127 1.09816E+00
 -1      3128 1.19387E+00
 -1      3129 1.42032E+00
 -1      3130 1.41599E+00
 -1      3131 1.41599E+00
 -1      3132 1.35779E+00
 -1      3133 1.40554E+00
 -1      3134 1.47999E+00
 -1      3135 1.32466E+00
 -1      3136 1.30796E+00
 -1      3137 1.41538E+00
 -1      3138 1.40931E+00
 -1      3139 1.38836E+00
 -1      3140 1.42925E+00
 -1      3141 1.31839E+00
 -1      3142 1.34521E+00
 -1      3143 1.42885E+00
 -1      3144 1.20590E+00
 -1      3145 1.24629E+00
 -1      3146 1.29266E+00
 -1      3147 1.07624E+00
 -1      3148 1.15635E+00
 -1      3149 1.17101E+00
 -1      3150 9.11923E-01
 -1      3151 1.01315E+00
 -1      3152 1.05836E+00
 -1      3153 7.47945E-01
 -1      3154 8.28575E-01
 -1      3155 9.11923E-01
 -1      3156 5.86833E-01
 -1      3157 6.63446E-01
 -1      3158 7.44076E-01
 -1      3159 4.26487E-01
 -1      3160 4.99615E-01
 -1      3161 5.72359E-01
 -1      3162 2.87252E-01
 -1      3163 3.49184E-01
 -1      3164 4.07838E-01
 -1      3165 1.79825E-01
 -1      3166 2.27552E-01
 -1      3167 2.70834E-01
 -1      3168 1.15570E-01
 -1      3169 1.43457E-01
 -1      3170 1.74765E-01
 -1      3171 7.61843E-02
 -1      3172 9.27439E-02
 -1      3173 1.15570E-01
 -1      3174 4.96765E-02
 -1      3175 5.96247E-02
 -1      3176 7.61843E-02
 -1      3177 3.93436E-02
 -1      3178 4.22976E-02
 -1      3179 5.22457E-02
 -1      3180 3.09199E-02
 -1      3181 3.38455E-02
 -1      3182 3.93686E-02
 -1      3183 2.54059E-02
 -1      3184 2.77191E-02
 -1      3185 3.06697E-02
 -1      3186 1.96562E-02
 -1      3187 2.22486E-02
 -1      3188 2.43116E-02
 -1      3189 1.47782E-02
 -1      3190 1.69180E-02
 -1      3191 1.84161E-02
 -1      3192 1.07140E-02
 -1      3193 1.25285E-02
 -1      3194 1.34283E-02
 -1      3195 7.53829E-03
 -1      3196 9.07366E-03
 -1      3197 9.53826E-03
 -1      3198 5.05566E-03
 -1      3199 6.28042E-03
 -1      3200 6.64008E-03
 -1      3201 3.18056E-03
 -1      3202 4.10928E-03
 -1      3203 4.43584E-03
 -1      3204 2.01342E-03
 -1      3205 2.49219E-03
 -1      3206 2.80109E-03
 -1      3207 1.47435E-03
 -1      3208 1.53171E-03
 -1      3209 1.63101E-03
 -1      3210 1.31116E-03
 -1      3211 1.40131E-03
 -1      3212 1.07627E-03
 -1      3213 1.19220E-03
 -1      3214 1.32460E-03
 -1      3215 1.01667E-03
 -1      3216 9.98863E-04
 -1      3217 1.14935E-03
 -1      3218 9.87265E-04
 -1      3219 4.37120E-04
 -1      3220 4.34553E-04
 -1      3221 4.42371E-04
 -1      3222 4.39687E-04
 -1      3223 4.37120E-04
 -1      3224 4.43013E-04
 -1      3225 6.69995E-04
 -1      3226 6.34972E-04
 -1      3227 8.01668E-04
 -1      3228 6.89315E-04
 -1      3229 7.10378E-04
 -1      3230 8.33494E-04
 -1      3231 3.92807E-01
 -1      3232 3.86661E-01
 -1      3233 2.68713E-01
 -1      3234 1.22052E+01
 -1      3235 1.02415E+01
 -1      3236 9.20927E+00
 -1      3237 1.10203E+01
 -1      3238 1.28481E+01
 -1      3239 1.30682E+01
 -1      3240 1.01969E+01
 -1      3241 9.76369E+00
 -1      3242 4.84435E-01
 -1      3243 3.92619E-01
 -1      3244 3.98486E+00
 -1      3245 4.97642E+00
 -1      3246 4.19968E-01
 -1      3247 4.36082E-01
 -1      3248 4.24804E-01
 -1      3249 3.22152E-01
 -1      3250 3.36476E+00
 -1      3251 2.69838E+00
 -1      3252 8.32250E-04
 -1      3253 8.88432E-04
 -1      3254 9.24716E-04
 -1      3255 4.53311E+00
 -1      3256 3.82546E+00
 -1      3257 2.82823E+00
 -1      3258 4.74009E-01
 -1      3259 4.38672E-01
 -1      3260 3.76982E-01
 -1      3261 3.15919E+00
 -1      3262 4.26611E+00
 -1      3263 4.32841E-01
 -1      3264 4.50134E-01
 -1      3265 4.50134E-01
 -1      3266 6.80158E+00
 -1      3267 5.14310E+00
 -1      3268 5.00475E+00
 -1      3269 3.76057E+00
 -1      3270 5.89486E-04
 -1      3271 5.60161E-04
 -1      3272 5.23213E-04
 -1      3273 6.45572E-04
 -1      3274 2.86565E+00
 -1      3275 3.28973E+00
 -1      3276 7.28513E+00
 -1      3277 8.42813E+00
 -1      3278 7.21596E+00
 -1      3279 2.93194E+01
 -1      3280 1.21568E+01
 -1      3281 1.14036E+01
 -1      3282 1.19163E+01
 -1      3283 1.23616E+01
 -1      3284 9.58431E+00
 -1      3285 5.05434E+00
 -1      3286 3.38795E+00
 -1      3287 3.52606E-01
 -1      3288 3.29439E-01
 -1      3289 3.42603E-01
 -1      3290 1.02817E+00
 -1      3291 9.44851E-01
 -1      3292 1.07195E+00
 -1      3293 9.11893E+00
 -1      3294 1.11430E+01
 -1      3295 8.38378E+00
 -1      3296 6.33302E+00
 -1      3297 7.47610E+00
 -1      3298 3.20372E+00
 -1      3299 2.58962E-01
 -1      3300 3.54561E-01
 -1      3301 6.12900E+00
 -1      3302 1.02303E+01
 -1      3303 3.85644E-01
 -1      3304 3.85644E-01
 -1      3305 3.34615E-01
 -1      3306 2.68490E+00
 -1      3307 3.01575E+00
 -1      3308 3.14571E+00
 -1      3309 3.86842E-01
 -1      3310 3.83477E-01
 -1      3311 3.60014E-01
 -1      3312 3.58815E-01
 -1      3313 6.01706E-01
 -1      3314 5.42799E-01
 -1      3315 4.91637E-01
 -1      3316 4.33194E-04
 -1      3317 4.33194E-04
 -1      3318 4.63748E-04
 -1      3319 4.55616E+00
 -1      3320 9.61000E-04
 -1      3321 1.00715E-03
 -1      3322 9.52709E-04
 -1      3323 9.24716E-04
 -1      3324 5.09146E-04
 -1      3325 6.49350E-04
 -1      3326 7.05532E-04
 -1      3327 4.77234E-04
 -1      3328 3.89949E-01
 -1      3329 6.20159E+00
 -1      3330 5.95550E+00
 -1      3331 4.45435E+00
 -1      3332 1.49162E+01
 -1      3333 3.25322E+00
 -1      3334 3.08797E+00
 -1      3335 2.73092E+00
 -1      3336 8.89309E+00
 -1      3337 3.86687E+00
 -1      3338 4.94444E+00
 -1      3339 4.03356E+00
 -1      3340 2.21555E-01
 -1      3341 2.32295E-01
 -1      3342 3.86260E-01
 -1      3343 7.42633E-01
 -1      3344 6.79258E-01
 -1      3345 6.37978E-01
 -1      3346 2.27699E-01
 -1      3347 2.96339E-01
 -1      3348 2.96339E-01
 -1      3349 8.80897E-01
 -1      3350 8.21894E-01
 -1      3351 7.94792E-01
 -1      3352 9.38008E-01
 -1      3353 7.64097E+00
 -1      3354 7.38038E+00
 -1      3355 5.77745E+00
 -1      3356 2.68713E-01
 -1      3357 3.21366E-01
 -1      3358 3.44366E-01
 -1      3359 5.33805E+00
 -1      3360 5.64388E+00
 -1      3361 8.32113E-01
 -1      3362 1.07887E+00
 -1      3363 1.29680E+00
 -1      3364 1.63897E+00
 -1      3365 1.12987E+00
 -1      3366 2.18797E+00
 -1      3367 2.85161E+00
 -1      3368 1.89681E+00
 -1      3369 3.86722E+00
 -1      3370 4.64951E+00
 -1      3371 3.46143E+00
 -1      3372 5.44987E+00
 -1      3373 7.27263E+00
 -1      3374 8.56883E+00
 -1      3375 5.27741E+00
 -1      3376 1.52201E+00
 -1      3377 1.44323E+00
 -1      3378 3.31117E-01
 -1      3379 1.34705E+00
 -1      3380 1.30135E+00
 -1      3381 1.45306E+00
 -1      3382 4.54579E+00
 -1      3383 3.46131E+00
 -1      3384 4.67077E+00
 -1      3385 2.73262E+00
 -1      3386 2.08095E+00
 -1      3387 2.71042E+00
 -1      3388 1.71439E+00
 -1      3389 1.31925E+00
 -1      3390 1.61516E+00
 -1      3391 1.06612E+00
 -1      3392 8.08741E-01
 -1      3393 9.95461E-01
 -1      3394 6.56397E-01
 -1      3395 4.94060E-01
 -1      3396 5.89987E-01
 -1      3397 4.16937E-01
 -1      3398 3.14043E-01
 -1      3399 3.60520E-01
 -1      3400 2.68154E-01
 -1      3401 2.02905E-01
 -1      3402 2.37509E-01
 -1      3403 1.72387E-01
 -1      3404 1.32261E-01
 -1      3405 1.61103E-01
 -1      3406 1.12325E-01
 -1      3407 8.83312E-02
 -1      3408 1.10649E-01
 -1      3409 7.40877E-02
 -1      3410 5.78756E-02
 -1      3411 7.64696E-02
 -1      3412 4.77825E-02
 -1      3413 3.81162E-02
 -1      3414 5.21329E-02
 -1      3415 3.10597E-02
 -1      3416 2.50799E-02
 -1      3417 3.49833E-02
 -1      3418 2.01958E-02
 -1      3419 1.68713E-02
 -1      3420 2.30428E-02
 -1      3421 1.36370E-02
 -1      3422 1.11383E-02
 -1      3423 1.49243E-02
 -1      3424 9.29211E-03
 -1      3425 7.60367E-03
 -1      3426 9.84373E-03
 -1      3427 6.22872E-03
 -1      3428 4.93006E-03
 -1      3429 6.62258E-03
 -1      3430 3.94756E-03
 -1      3431 3.15560E-03
 -1      3432 4.26513E-03
 -1      3433 2.60235E-03
 -1      3434 2.39251E-03
 -1      3435 2.72940E-03
 -1      3436 2.09317E-03
 -1      3437 1.89157E-03
 -1      3438 1.87682E-03
 -1      3439 1.66983E-03
 -1      3440 1.46573E-03
 -1      3441 1.35574E-03
 -1      3442 1.39486E-03
 -1      3443 1.20378E-03
 -1      3444 1.06312E-03
 -1      3445 1.11139E-03
 -1      3446 9.74108E-04
 -1      3447 8.99857E-04
 -1      3448 8.72377E-04
 -1      3449 1.29755E+00
 -1      3450 1.24562E+00
 -1      3451 1.35309E+00
 -1      3452 1.58007E+00
 -1      3453 1.62991E+00
 -1      3454 1.74872E+00
 -1      3455 1.68502E+00
 -1      3456 1.89955E+00
 -1      3457 1.49521E+00
 -1      3458 1.55931E+00
 -1      3459 1.81508E+00
 -1      3460 1.29266E+00
 -1      3461 1.36475E+00
 -1      3462 1.49521E+00
 -1      3463 1.24527E+00
 -1      3464 1.29483E+00
 -1      3465 1.36692E+00
 -1      3466 1.11396E+00
 -1      3467 1.17705E+00
 -1      3468 1.30087E+00
 -1      3469 9.11923E-01
 -1      3470 9.95271E-01
 -1      3471 1.11396E+00
 -1      3472 7.25974E-01
 -1      3473 8.10473E-01
 -1      3474 8.93821E-01
 -1      3475 5.36119E-01
 -1      3476 6.23337E-01
 -1      3477 6.89734E-01
 -1      3478 3.75539E-01
 -1      3479 4.52843E-01
 -1      3480 5.03820E-01
 -1      3481 2.56557E-01
 -1      3482 3.16257E-01
 -1      3483 3.61262E-01
 -1      3484 1.74765E-01
 -1      3485 2.11134E-01
 -1      3486 2.56557E-01
 -1      3487 1.15570E-01
 -1      3488 1.38397E-01
 -1      3489 1.74765E-01
 -1      3490 7.23092E-02
 -1      3491 8.88688E-02
 -1      3492 1.11695E-01
 -1      3493 5.23062E-02
 -1      3494 5.96852E-02
 -1      3495 7.23697E-02
 -1      3496 4.01745E-02
 -1      3497 4.56726E-02
 -1      3498 5.31121E-02
 -1      3499 3.11235E-02
 -1      3500 3.43243E-02
 -1      3501 4.06283E-02
 -1      3502 2.31890E-02
 -1      3503 2.63463E-02
 -1      3504 3.00009E-02
 -1      3505 1.73597E-02
 -1      3506 2.00978E-02
 -1      3507 2.21325E-02
 -1      3508 1.27157E-02
 -1      3509 1.49654E-02
 -1      3510 1.66470E-02
 -1      3511 9.27843E-03
 -1      3512 1.09187E-02
 -1      3513 1.24558E-02
 -1      3514 6.45416E-03
 -1      3515 7.71203E-03
 -1      3516 9.09251E-03
 -1      3517 4.26600E-03
 -1      3518 5.21237E-03
 -1      3519 6.28432E-03
 -1      3520 2.68356E-03
 -1      3521 3.37193E-03
 -1      3522 4.14846E-03
 -1      3523 1.53431E-03
 -1      3524 2.01601E-03
 -1      3525 2.58685E-03
 -1      3526 1.00273E-03
 -1      3527 1.07576E-03
 -1      3528 1.46076E-03
 -1      3529 7.88357E-04
 -1      3530 7.74918E-04
 -1      3531 7.74410E-04
 -1      3532 8.10485E-04
 -1      3533 8.53332E-04
 -1      3534 6.11577E-04
 -1      3535 2.75480E+00
 -1      3536 2.29410E+00
 -1      3537 3.93928E-01
 -1      3538 3.48063E-01
 -1      3539 3.65044E-01
 -1      3540 2.95486E-01
 -1      3541 2.68370E-01
 -1      3542 2.10470E-01
 -1      3543 5.20322E-01
 -1      3544 6.60906E-01
 -1      3545 7.40736E-01
 -1      3546 1.64725E+00
 -1      3547 1.66204E+00
 -1      3548 1.81195E+00
 -1      3549 3.44222E+00
 -1      3550 4.70923E+00
 -1      3551 3.73258E+00
 -1      3552 3.26094E+00
 -1      3553 2.72681E+00
 -1      3554 5.64388E+00
 -1      3555 6.42501E+00
 -1      3556 2.68022E+00
 -1      3557 3.37535E+00
 -1      3558 8.16089E+00
 -1      3559 7.95610E+00
 -1      3560 6.21756E+00
 -1      3561 7.08113E+00
 -1      3562 7.97713E+00
 -1      3563 6.34893E+00
 -1      3564 5.50905E+00
 -1      3565 3.60448E-01
 -1      3566 1.18062E+00
 -1      3567 1.11064E+00
 -1      3568 1.28431E+00
 -1      3569 4.22411E+00
 -1      3570 4.78518E+00
 -1      3571 5.49984E+00
 -1      3572 4.65375E+00
 -1      3573 3.24547E-01
 -1      3574 3.88591E-01
 -1      3575 7.68580E-04
 -1      3576 4.20587E-01
 -1      3577 3.91668E-01
 -1      3578 4.89376E-01
 -1      3579 4.85293E+00
 -1      3580 3.48063E-01
 -1      3581 2.28422E+00
 -1      3582 2.60160E+00
 -1      3583 2.21079E+00
 -1      3584 4.31760E-04
 -1      3585 4.28434E-04
 -1      3586 6.49928E-01
 -1      3587 5.72376E-01
 -1      3588 5.01326E-01
 -1      3589 4.31869E-04
 -1      3590 4.30510E-04
 -1      3591 7.60692E-04
 -1      3592 6.26759E-04
 -1      3593 7.68983E-04
 -1      3594 3.81429E-01
 -1      3595 6.90220E-04
 -1      3596 7.26504E-04
 -1      3597 5.34487E-04
 -1      3598 5.07320E-04
 -1      3599 4.28434E-04
 -1      3600 4.25867E-04
 -1      3601 4.23184E-04
 -1      3602 4.17182E-04
 -1      3603 2.91238E-01
 -1      3604 1.68927E+00
 -1      3605 3.53392E+00
 -1      3606 8.79410E-04
 -1      3607 8.60090E-04
 -1      3608 9.18292E-04
 -1      3609 3.42805E+00
 -1      3610 3.12807E+00
 -1      3611 2.53843E+00
 -1      3612 2.31611E+00
 -1      3613 2.48774E+00
 -1      3614 3.34337E+00
 -1      3615 8.52473E+00
 -1      3616 7.66171E+00
 -1      3617 6.03367E+00
 -1      3618 2.82986E+00
 -1      3619 2.98293E+00
 -1      3620 2.68643E+00
 -1      3621 4.32920E+00
 -1      3622 3.71362E-01
 -1      3623 3.24547E-01
 -1      3624 4.85439E-01
 -1      3625 5.58753E-04
 -1      3626 4.81880E-04
 -1      3627 4.67301E-04
 -1      3628 4.78277E-01
 -1      3629 3.47827E-01
 -1      3630 3.47827E-01
 -1      3631 6.86212E-04
 -1      3632 6.40727E-04
 -1      3633 5.99394E-04
 -1      3634 8.55244E-04
 -1      3635 5.80396E+00
 -1      3636 8.27694E-01
 -1      3637 7.48432E-01
 -1      3638 6.82830E-01
 -1      3639 3.47827E-01
 -1      3640 3.30416E-01
 -1      3641 3.35640E-01
 -1      3642 2.66515E+00
 -1      3643 2.49032E+00
 -1      3644 3.48049E+00
 -1      3645 4.10931E+00
 -1      3646 1.70481E+00
 -1      3647 2.25382E+00
 -1      3648 3.04400E+00
 -1      3649 4.05962E+00
 -1      3650 2.85200E+00
 -1      3651 1.73801E+00
 -1      3652 1.64184E+00
 -1      3653 5.27484E-01
 -1      3654 4.77604E+00
 -1      3655 3.54438E+00
 -1      3656 5.09117E+00
 -1      3657 3.16513E-01
 -1      3658 3.17712E-01
 -1      3659 3.05525E-01
 -1      3660 3.03264E-01
 -1      3661 2.71042E+00
 -1      3662 1.98172E+00
 -1      3663 2.81569E+00
 -1      3664 1.66033E+00
 -1      3665 1.29377E+00
 -1      3666 1.66033E+00
 -1      3667 1.05508E+00
 -1      3668 8.01950E-01
 -1      3669 1.10026E+00
 -1      3670 6.44586E-01
 -1      3671 4.92241E-01
 -1      3672 7.04205E-01
 -1      3673 3.90170E-01
 -1      3674 3.13047E-01
 -1      3675 4.44768E-01
 -1      3676 2.47665E-01
 -1      3677 2.01776E-01
 -1      3678 2.77314E-01
 -1      3679 1.71030E-01
 -1      3680 1.40512E-01
 -1      3681 1.81185E-01
 -1      3682 1.17927E-01
 -1      3683 9.79915E-02
 -1      3684 1.27854E-01
 -1      3685 8.16398E-02
 -1      3686 6.73962E-02
 -1      3687 8.89181E-02
 -1      3688 5.64678E-02
 -1      3689 4.63747E-02
 -1      3690 6.16380E-02
 -1      3691 3.84329E-02
 -1      3692 3.13764E-02
 -1      3693 4.27678E-02
 -1      3694 2.56958E-02
 -1      3695 2.08117E-02
 -1      3696 2.91454E-02
 -1      3697 1.69317E-02
 -1      3698 1.36973E-02
 -1      3699 1.95847E-02
 -1      3700 1.09300E-02
 -1      3701 9.08382E-03
 -1      3702 1.29374E-02
 -1      3703 7.14362E-03
 -1      3704 5.76866E-03
 -1      3705 8.22990E-03
 -1      3706 4.45778E-03
 -1      3707 3.47529E-03
 -1      3708 4.97882E-03
 -1      3709 2.68274E-03
 -1      3710 2.12949E-03
 -1      3711 2.87538E-03
 -1      3712 1.72551E-03
 -1      3713 1.42617E-03
 -1      3714 1.67884E-03
 -1      3715 1.28117E-03
 -1      3716 1.05943E-03
 -1      3717 1.12986E-03
 -1      3718 1.08156E-03
 -1      3719 1.01069E-03
 -1      3720 1.00699E-03
 -1      3721 1.01069E-03
 -1      3722 1.49521E+00
 -1      3723 1.62567E+00
 -1      3724 1.51529E+00
 -1      3725 1.51150E+00
 -1      3726 1.80024E+00
 -1      3727 2.26320E+00
 -1      3728 2.15826E+00
 -1      3729 1.47869E+00
 -1      3730 1.47652E+00
 -1      3731 1.60698E+00
 -1      3732 1.40309E+00
 -1      3733 1.47131E+00
 -1      3734 1.58091E+00
 -1      3735 1.15359E+00
 -1      3736 1.27228E+00
 -1      3737 1.44271E+00
 -1      3738 9.20146E-01
 -1      3739 1.02160E+00
 -1      3740 1.17991E+00
 -1      3741 7.56469E-01
 -1      3742 8.59107E-01
 -1      3743 9.86882E-01
 -1      3744 5.99328E-01
 -1      3745 6.82604E-01
 -1      3746 8.51977E-01
 -1      3747 4.46862E-01
 -1      3748 5.06144E-01
 -1      3749 6.84928E-01
 -1      3750 3.15953E-01
 -1      3751 3.61376E-01
 -1      3752 5.06258E-01
 -1      3753 2.15013E-01
 -1      3754 2.51382E-01
 -1      3755 3.56201E-01
 -1      3756 1.43795E-01
 -1      3757 1.70496E-01
 -1      3758 2.47113E-01
 -1      3759 1.01797E-01
 -1      3760 1.14421E-01
 -1      3761 1.73222E-01
 -1      3762 7.30910E-02
 -1      3763 7.97246E-02
 -1      3764 1.21776E-01
 -1      3765 5.12954E-02
 -1      3766 5.71456E-02
 -1      3767 8.37582E-02
 -1      3768 3.50552E-02
 -1      3769 3.98324E-02
 -1      3770 5.63497E-02
 -1      3771 2.56766E-02
 -1      3772 2.87677E-02
 -1      3773 3.85992E-02
 -1      3774 1.88532E-02
 -1      3775 2.12475E-02
 -1      3776 2.78827E-02
 -1      3777 1.36140E-02
 -1      3778 1.54109E-02
 -1      3779 2.00113E-02
 -1      3780 9.44212E-03
 -1      3781 1.10085E-02
 -1      3782 1.39636E-02
 -1      3783 6.27265E-03
 -1      3784 7.51443E-03
 -1      3785 9.43045E-03
 -1      3786 4.04346E-03
 -1      3787 4.93753E-03
 -1      3788 6.16764E-03
 -1      3789 2.45825E-03
 -1      3790 3.12579E-03
 -1      3791 3.91485E-03
 -1      3792 1.35495E-03
 -1      3793 1.81350E-03
 -1      3794 2.35244E-03
 -1      3795 7.74410E-04
 -1      3796 1.00222E-03
 -1      3797 1.35495E-03
 -1      3798 6.08914E-04
 -1      3799 5.43939E-04
 -1      3800 7.71747E-04
 -1      3801 3.43483E-01
 -1      3802 3.09530E-01
 -1      3803 4.23607E-01
 -1      3804 3.48707E-01
 -1      3805 4.36072E-04
 -1      3806 4.81471E-04
 -1      3807 4.66158E-04
 -1      3808 4.34747E-04
 -1      3809 2.32322E+00
 -1      3810 2.34057E+00
 -1      3811 2.68688E+00
 -1      3812 4.23157E+00
 -1      3813 3.20527E+00
 -1      3814 2.85185E+00
 -1      3815 3.34337E+00
 -1      3816 2.71118E+00
 -1      3817 2.20504E+00
 -1      3818 1.11428E+00
 -1      3819 1.33221E+00
 -1      3820 1.68921E+00
 -1      3821 9.95550E-01
 -1      3822 9.31595E-01
 -1      3823 1.10423E+00
 -1      3824 6.81514E-01
 -1      3825 8.52722E-01
 -1      3826 1.05505E+00
 -1      3827 4.10931E+00
 -1      3828 4.10931E+00
 -1      3829 5.23331E+00
 -1      3830 5.04770E+00
 -1      3831 4.21452E+00
 -1      3832 3.17840E+00
 -1      3833 2.87743E+00
 -1      3834 1.02912E-03
 -1      3835 1.97646E+00
 -1      3836 1.83643E+00
 -1      3837 2.02521E+00
 -1      3838 2.48774E+00
 -1      3839 6.39470E-01
 -1      3840 2.35566E+00
 -1      3841 5.17420E-04
 -1      3842 4.67301E-04
 -1      3843 3.52982E+00
 -1      3844 2.34408E+00
 -1      3845 2.95643E+00
 -1      3846 2.84163E+00
 -1      3847 3.36569E+00
 -1      3848 2.67116E+00
 -1      3849 2.76880E+00
 -1      3850 2.13104E+00
 -1      3851 6.39470E-01
 -1      3852 4.05962E+00
 -1      3853 4.47704E+00
 -1      3854 3.97308E-04
 -1      3855 3.97308E-04
 -1      3856 4.47427E-04
 -1      3857 1.92317E+00
 -1      3858 1.91329E+00
 -1      3859 5.09117E+00
 -1      3860 3.64965E+00
 -1      3861 4.90741E+00
 -1      3862 1.52778E+00
 -1      3863 1.36558E+00
 -1      3864 1.30059E+00
 -1      3865 2.09695E+00
 -1      3866 5.44262E-01
 -1      3867 4.61262E-01
 -1      3868 4.96929E-04
 -1      3869 5.46723E-04
 -1      3870 4.79084E-04
 -1      3871 1.90754E+00
 -1      3872 1.90754E+00
 -1      3873 2.48774E+00
 -1      3874 1.89460E+00
 -1      3875 2.29528E+00
 -1      3876 1.97943E+00
 -1      3877 1.60698E+00
 -1      3878 2.07551E+00
 -1      3879 2.12362E+00
 -1      3880 5.08018E-01
 -1      3881 4.81359E-01
 -1      3882 5.50953E-01
 -1      3883 3.29924E+00
 -1      3884 4.04286E+00
 -1      3885 4.23039E-04
 -1      3886 4.28601E-04
 -1      3887 3.89805E-04
 -1      3888 3.95807E-04
 -1      3889 3.69930E-04
 -1      3890 1.02912E-03
 -1      3891 8.55244E-04
 -1      3892 1.02912E-03
 -1      3893 3.95209E-01
 -1      3894 3.78263E-01
 -1      3895 4.69898E+00
 -1      3896 8.85236E-01
 -1      3897 4.66674E-01
 -1      3898 4.66674E-01
 -1      3899 7.24054E-01
 -1      3900 6.25550E-01
 -1      3901 5.85486E-01
 -1      3902 3.50410E-01
 -1      3903 3.89660E-04
 -1      3904 5.11559E-01
 -1      3905 3.95201E+00
 -1      3906 3.52982E+00
 -1      3907 3.23985E+00
 -1      3908 3.65728E+00
 -1      3909 5.23331E+00
 -1      3910 5.08637E-04
 -1      3911 4.26328E-04
 -1      3912 4.53561E-04
 -1      3913 5.15752E-04
 -1      3914 1.81474E+00
 -1      3915 1.94555E+00
 -1      3916 1.75141E+00
 -1      3917 1.43002E+00
 -1      3918 1.14094E+00
 -1      3919 9.02246E-01
 -1      3920 1.23201E+00
 -1      3921 7.18494E-01
 -1      3922 5.61130E-01
 -1      3923 7.59171E-01
 -1      3924 4.72263E-01
 -1      3925 3.70191E-01
 -1      3926 4.86552E-01
 -1      3927 3.05004E-01
 -1      3928 2.39622E-01
 -1      3929 3.32499E-01
 -1      3930 1.90736E-01
 -1      3931 1.59990E-01
 -1      3932 2.18427E-01
 -1      3933 1.33618E-01
 -1      3934 1.11033E-01
 -1      3935 1.43169E-01
 -1      3936 9.02511E-02
 -1      3937 7.38994E-02
 -1      3938 9.60146E-02
 -1      3939 6.27679E-02
 -1      3940 5.18395E-02
 -1      3941 6.41009E-02
 -1      3942 4.42350E-02
 -1      3943 3.62932E-02
 -1      3944 4.53649E-02
 -1      3945 3.05836E-02
 -1      3946 2.49029E-02
 -1      3947 3.20508E-02
 -1      3948 2.08496E-02
 -1      3949 1.69696E-02
 -1      3950 2.22878E-02
 -1      3951 1.41741E-02
 -1      3952 1.14068E-02
 -1      3953 1.54390E-02
 -1      3954 9.30711E-03
 -1      3955 7.36691E-03
 -1      3956 1.05438E-02
 -1      3957 5.87664E-03
 -1      3958 4.56575E-03
 -1      3959 6.95385E-03
 -1      3960 3.51540E-03
 -1      3961 2.72285E-03
 -1      3962 4.41322E-03
 -1      3963 1.99878E-03
 -1      3964 1.59479E-03
 -1      3965 2.63880E-03
 -1      3966 1.11594E-03
 -1      3967 9.70942E-04
 -1      3968 1.43587E-03
 -1      3969 8.77355E-04
 -1      3970 8.99484E-04
 -1      3971 8.99484E-04
 -1      3972 8.63434E-04
 -1      3973 1.97709E+00
 -1      3974 1.85054E+00
 -1      3975 3.80525E-01
 -1      3976 1.58829E+00
 -1      3977 1.48283E+00
 -1      3978 1.61482E+00
 -1      3979 2.11766E+00
 -1      3980 1.08126E+00
 -1      3981 1.14230E+00
 -1      3982 1.57721E+00
 -1      3983 8.51977E-01
 -1      3984 9.25842E-01
 -1      3985 1.08126E+00
 -1      3986 6.84928E-01
 -1      3987 7.78112E-01
 -1      3988 8.51977E-01
 -1      3989 5.06258E-01
 -1      3990 5.91743E-01
 -1      3991 6.84928E-01
 -1      3992 3.56201E-01
 -1      3993 4.20773E-01
 -1      3994 5.06258E-01
 -1      3995 2.47113E-01
 -1      3996 2.91630E-01
 -1      3997 3.56201E-01
 -1      3998 1.68251E-01
 -1      3999 1.97625E-01
 -1      4000 2.42142E-01
 -1      4001 1.10669E-01
 -1      4002 1.32741E-01
 -1      4003 1.57144E-01
 -1      4004 7.64113E-02
 -1      4005 9.23567E-02
 -1      4006 1.03322E-01
 -1      4007 5.15677E-02
 -1      4008 6.30307E-02
 -1      4009 7.16293E-02
 -1      4010 3.57249E-02
 -1      4011 4.20123E-02
 -1      4012 4.86934E-02
 -1      4013 2.46420E-02
 -1      4014 2.90711E-02
 -1      4015 3.24842E-02
 -1      4016 1.66483E-02
 -1      4017 2.00906E-02
 -1      4018 2.12790E-02
 -1      4019 1.13581E-02
 -1      4020 1.39636E-02
 -1      4021 1.40429E-02
 -1      4022 7.50276E-03
 -1      4023 9.43045E-03
 -1      4024 9.43045E-03
 -1      4025 5.02935E-03
 -1      4026 6.36447E-03
 -1      4027 6.36447E-03
 -1      4028 3.33407E-03
 -1      4029 4.25174E-03
 -1      4030 4.44857E-03
 -1      4031 2.07632E-03
 -1      4032 2.72107E-03
 -1      4033 3.05795E-03
 -1      4034 1.26176E-03
 -1      4035 1.61450E-03
 -1      4036 1.98313E-03
 -1      4037 6.03949E-04
 -1      4038 8.34420E-04
 -1      4039 1.09397E-03
 -1      4040 5.78426E-04
 -1      4041 2.02521E+00
 -1      4042 5.50953E-01
 -1      4043 5.97709E-01
 -1      4044 2.82852E+00
 -1      4045 2.76207E+00
 -1      4046 2.07241E+00
 -1      4047 2.86260E+00
 -1      4048 2.46026E+00
 -1      4049 2.81656E+00
 -1      4050 2.81656E+00
 -1      4051 1.31661E+00
 -1      4052 1.68921E+00
 -1      4053 1.69981E+00
 -1      4054 3.44122E+00
 -1      4055 2.96057E+00
 -1      4056 2.12660E+00
 -1      4057 1.89629E+00
 -1      4058 2.96057E+00
 -1      4059 6.81367E-04
 -1      4060 5.99394E-04
 -1      4061 5.99394E-04
 -1      4062 8.55244E-04
 -1      4063 1.21932E+00
 -1      4064 1.10423E+00
 -1      4065 1.30059E+00
 -1      4066 5.11559E-01
 -1      4067 5.53533E-01
 -1      4068 4.22499E-01
 -1      4069 4.35566E-01
 -1      4070 4.21452E+00
 -1      4071 9.09346E-01
 -1      4072 8.05445E-01
 -1      4073 1.02444E+00
 -1      4074 7.93500E-01
 -1      4075 1.05505E+00
 -1      4076 1.05505E+00
 -1      4077 6.39470E-01
 -1      4078 1.95419E+00
 -1      4079 5.97709E-01
 -1      4080 5.97709E-01
 -1      4081 3.39476E+00
 -1      4082 1.97205E+00
 -1      4083 2.71105E+00
 -1      4084 2.27457E+00
 -1      4085 3.13323E+00
 -1      4086 7.80073E-04
 -1      4087 7.10079E-04
 -1      4088 7.02576E-04
 -1      4089 7.66477E-04
 -1      4090 8.54674E-04
 -1      4091 7.10079E-04
 -1      4092 7.52418E-04
 -1      4093 6.70445E-04
 -1      4094 9.33098E-04
 -1      4095 1.80827E+00
 -1      4096 1.97943E+00
 -1      4097 5.77637E-01
 -1      4098 2.27939E+00
 -1      4099 2.28142E+00
 -1      4100 2.75214E+00
 -1      4101 2.64171E+00
 -1      4102 2.09259E+00
 -1      4103 6.25482E-01
 -1      4104 6.25482E-01
 -1      4105 2.96057E+00
 -1      4106 7.48165E-01
 -1      4107 6.31344E-01
 -1      4108 6.78100E-01
 -1      4109 7.12632E-01
 -1      4110 5.81306E-01
 -1      4111 1.84816E+00
 -1      4112 1.76689E+00
 -1      4113 7.87119E-01
 -1      4114 1.04867E+00
 -1      4115 7.57141E-04
 -1      4116 5.83264E-04
 -1      4117 6.54315E-04
 -1      4118 6.27504E-04
 -1      4119 6.51429E-01
 -1      4120 1.75205E+00
 -1      4121 8.53487E-01
 -1      4122 6.69735E-01
 -1      4123 5.20757E-01
 -1      4124 4.31891E-01
 -1      4125 6.15073E-01
 -1      4126 3.42665E-01
 -1      4127 2.77478E-01
 -1      4128 3.76870E-01
 -1      4129 2.21098E-01
 -1      4130 1.72212E-01
 -1      4131 2.31264E-01
 -1      4132 1.50229E-01
 -1      4133 1.23857E-01
 -1      4134 1.52900E-01
 -1      4135 1.03997E-01
 -1      4136 8.32147E-02
 -1      4137 1.11057E-01
 -1      4138 6.87850E-02
 -1      4139 5.76535E-02
 -1      4140 7.67673E-02
 -1      4141 4.75257E-02
 -1      4142 3.99212E-02
 -1      4143 5.22098E-02
 -1      4144 3.29138E-02
 -1      4145 2.72042E-02
 -1      4146 3.50746E-02
 -1      4147 2.23422E-02
 -1      4148 1.82889E-02
 -1      4149 2.32053E-02
 -1      4150 1.57685E-02
 -1      4151 1.29730E-02
 -1      4152 1.58229E-02
 -1      4153 1.09983E-02
 -1      4154 8.89863E-03
 -1      4155 1.13278E-02
 -1      4156 7.46279E-03
 -1      4157 5.97252E-03
 -1      4158 7.91729E-03
 -1      4159 4.89030E-03
 -1      4160 3.83995E-03
 -1      4161 5.39924E-03
 -1      4162 3.06267E-03
 -1      4163 2.33859E-03
 -1      4164 3.53975E-03
 -1      4165 1.80915E-03
 -1      4166 1.33030E-03
 -1      4167 2.23302E-03
 -1      4168 8.91975E-01
 -1      4169 9.65840E-01
 -1      4170 6.24343E-01
 -1      4171 7.17528E-01
 -1      4172 8.31391E-01
 -1      4173 4.81529E-01
 -1      4174 5.67015E-01
 -1      4175 5.99615E-01
 -1      4176 3.10752E-01
 -1      4177 3.75324E-01
 -1      4178 4.36080E-01
 -1      4179 1.91877E-01
 -1      4180 2.41365E-01
 -1      4181 2.60487E-01
 -1      4182 1.21611E-01
 -1      4183 1.57121E-01
 -1      4184 1.56344E-01
 -1      4185 8.45656E-02
 -1      4186 1.02878E-01
 -1      4187 1.02855E-01
 -1      4188 5.76800E-02
 -1      4189 7.10606E-02
 -1      4190 7.06164E-02
 -1      4191 3.86137E-02
 -1      4192 4.81690E-02
 -1      4193 4.76003E-02
 -1      4194 2.56615E-02
 -1      4195 3.23153E-02
 -1      4196 3.17909E-02
 -1      4197 1.80175E-02
 -1      4198 2.25689E-02
 -1      4199 2.24000E-02
 -1      4200 1.27861E-02
 -1      4201 1.54708E-02
 -1      4202 1.67607E-02
 -1      4203 8.81063E-03
 -1      4204 1.07383E-02
 -1      4205 1.21663E-02
 -1      4206 6.09856E-03
 -1      4207 7.23685E-03
 -1      4208 8.54472E-03
 -1      4209 4.23381E-03
 -1      4210 5.01142E-03
 -1      4211 5.88380E-03
 -1      4212 2.81218E-03
 -1      4213 3.42518E-03
 -1      4214 3.98804E-03
 -1      4215 1.75494E-03
 -1      4216 2.21676E-03
 -1      4217 2.58399E-03
 -1      4218 1.43273E+00
 -1      4219 1.94811E+00
 -1      4220 1.96007E+00
 -1      4221 1.27731E+00
 -1      4222 1.92814E+00
 -1      4223 1.91821E+00
 -1      4224 1.59685E+00
 -1      4225 8.37291E-01
 -1      4226 7.55900E-01
 -1      4227 8.01758E-01
 -1      4228 2.34529E+00
 -1      4229 2.72254E+00
 -1      4230 1.04273E-03
 -1      4231 7.51024E-01
 -1      4232 7.78797E-01
 -1      4233 8.31414E-01
 -1      4234 2.27149E+00
 -1      4235 1.23347E+00
 -1      4236 1.61667E+00
 -1      4237 1.87895E+00
 -1      4238 9.65535E-01
 -1      4239 7.16997E-01
 -1      4240 6.45048E-01
 -1      4241 1.36939E+00
 -1      4242 1.17451E+00
 -1      4243 1.18224E+00
 -1      4244 1.91696E+00
 -1      4245 1.25536E+00
 -1      4246 9.66273E-01
 -1      4247 8.76837E-01
 -1      4248 3.27978E+00
 -1      4249 8.42539E-01
 -1      4250 1.89629E+00
 -1      4251 1.52110E+00
 -1      4252 1.25536E+00
 -1      4253 1.89629E+00
 -1      4254 2.26777E+00
 -1      4255 2.93999E+00
 -1      4256 9.46528E-04
 -1      4257 8.52941E-04
 -1      4258 7.10598E-04
 -1      4259 1.31980E-03
 -1      4260 1.54301E+00
 -1      4261 1.50702E-03
 -1      4262 1.74065E-03
 -1      4263 1.07967E-03
 -1      4264 1.31731E+00
 -1      4265 1.17217E-03
 -1      4266 1.28180E-03
 -1      4267 1.50680E-03
 -1      4268 1.26772E-03
 -1      4269 1.26772E-03
 -1      4270 1.75473E-03
 -1      4271 2.12122E+00
 -1      4272 6.73673E-01
 -1      4273 5.24695E-01
 -1      4274 1.02734E+00
 -1      4275 1.27727E+00
 -1      4276 4.23402E-01
 -1      4277 3.34176E-01
 -1      4278 4.82001E-01
 -1      4279 2.58308E-01
 -1      4280 2.01927E-01
 -1      4281 3.04839E-01
 -1      4282 1.57907E-01
 -1      4283 1.35924E-01
 -1      4284 1.84951E-01
 -1      4285 1.11057E-01
 -1      4286 9.11969E-02
 -1      4287 1.16064E-01
 -1      4288 7.67673E-02
 -1      4289 6.23376E-02
 -1      4290 7.67673E-02
 -1      4291 5.36820E-02
 -1      4292 4.35542E-02
 -1      4293 5.36820E-02
 -1      4294 3.72451E-02
 -1      4295 3.02378E-02
 -1      4296 3.87173E-02
 -1      4297 2.50302E-02
 -1      4298 2.01682E-02
 -1      4299 2.72007E-02
 -1      4300 1.72840E-02
 -1      4301 1.47637E-02
 -1      4302 1.91090E-02
 -1      4303 1.26167E-02
 -1      4304 1.06420E-02
 -1      4305 1.40779E-02
 -1      4306 9.13942E-03
 -1      4307 7.70358E-03
 -1      4308 1.04283E-02
 -1      4309 6.44163E-03
 -1      4310 5.35941E-03
 -1      4311 7.66375E-03
 -1      4312 4.35480E-03
 -1      4313 3.57751E-03
 -1      4314 5.39718E-03
 -1      4315 2.76787E-03
 -1      4316 2.23842E-03
 -1      4317 3.58292E-03
 -1      4318 5.62790E-01
 -1      4319 6.20119E-01
 -1      4320 1.92477E+00
 -1      4321 1.58497E+00
 -1      4322 8.14524E-01
 -1      4323 9.88971E-01
 -1      4324 2.10035E-01
 -1      4325 2.79422E-01
 -1      4326 1.31260E-01
 -1      4327 1.66016E-01
 -1      4328 8.76592E-02
 -1      4329 1.06392E-01
 -1      4330 5.97245E-02
 -1      4331 7.32295E-02
 -1      4332 4.15578E-02
 -1      4333 5.10688E-02
 -1      4334 2.89504E-02
 -1      4335 3.52488E-02
 -1      4336 2.06503E-02
 -1      4337 2.37428E-02
 -1      4338 1.52194E-02
 -1      4339 1.77661E-02
 -1      4340 1.10247E-02
 -1      4341 1.30725E-02
 -1      4342 7.94832E-03
 -1      4343 9.52211E-03
 -1      4344 5.59923E-03
 -1      4345 6.68637E-03
 -1      4346 3.78599E-03
 -1      4347 4.59461E-03
 -1      4348 2.38092E-03
 -1      4349 2.97634E-03
 -1      4350 1.72372E+00
 -1      4351 1.28538E+00
 -1      4352 3.55291E-01
 -1      4353 4.61497E-01
 -1      4354 9.80864E-01
 -1      4355 8.68078E-01
 -1      4356 2.14708E-03
 -1      4357 1.00023E+00
 -1      4358 1.07315E+00
 -1      4359 1.26852E+00
 -1      4360 1.04350E+00
 -1      4361 7.77699E-01
 -1      4362 8.79753E-04
 -1      4363 1.19615E+00
 -1      4364 1.61222E-03
 -1      4365 1.38650E+00
 -1      4366 1.22846E-03
 -3
 9999
