    1C
    1UUSER                                                              
    1UDATE              27.october.2022                                 
    1UTIME              00:08:38                                        
    1UHOST                                                              
    1UPGM               CalculiX                                        
    1UVERSION           Version 2.17                             
    1UCOMPILETIME       Thu Jul 23 21:43:50 CEST 2020                    
    1UDIR                                                               
    1UDBN                                                               
    1UMAT    1SOLIDMATERIAL                                             
    2C                          4369                                     1
 -1         1 6.79886E+01 3.09091E+01 0.00000E+00
 -1         2 7.20535E+01 2.45542E+01 0.00000E+00
 -1         3 1.50000E+02 0.00000E+00 0.00000E+00
 -1         4 1.50000E+02 5.00000E+01 0.00000E+00
 -1         5 0.00000E+00 0.00000E+00 0.00000E+00
 -1         6 0.00000E+00 5.00000E+01 0.00000E+00
 -1         7 0.00000E+00 4.70500E+01 0.00000E+00
 -1         8 0.00000E+00 4.41000E+01 0.00000E+00
 -1         9 0.00000E+00 4.11500E+01 0.00000E+00
 -1        10 0.00000E+00 3.82000E+01 0.00000E+00
 -1        11 0.00000E+00 3.52500E+01 0.00000E+00
 -1        12 0.00000E+00 3.23500E+01 0.00000E+00
 -1        13 0.00000E+00 2.94000E+01 0.00000E+00
 -1        14 0.00000E+00 2.64500E+01 0.00000E+00
 -1        15 0.00000E+00 2.35000E+01 0.00000E+00
 -1        16 0.00000E+00 2.05500E+01 0.00000E+00
 -1        17 0.00000E+00 1.76000E+01 0.00000E+00
 -1        18 0.00000E+00 1.47000E+01 0.00000E+00
 -1        19 0.00000E+00 1.17500E+01 0.00000E+00
 -1        20 0.00000E+00 8.80000E+00 0.00000E+00
 -1        21 0.00000E+00 5.85000E+00 0.00000E+00
 -1        22 0.00000E+00 2.90000E+00 0.00000E+00
 -1        23 3.15000E+00 5.00000E+01 0.00000E+00
 -1        24 6.15000E+00 5.00000E+01 0.00000E+00
 -1        25 9.15000E+00 5.00000E+01 0.00000E+00
 -1        26 1.21500E+01 5.00000E+01 0.00000E+00
 -1        27 1.51500E+01 5.00000E+01 0.00000E+00
 -1        28 1.81500E+01 5.00000E+01 0.00000E+00
 -1        29 2.11500E+01 5.00000E+01 0.00000E+00
 -1        30 2.41500E+01 5.00000E+01 0.00000E+00
 -1        31 2.71500E+01 5.00000E+01 0.00000E+00
 -1        32 3.01500E+01 5.00000E+01 0.00000E+00
 -1        33 3.31500E+01 5.00000E+01 0.00000E+00
 -1        34 3.61500E+01 5.00000E+01 0.00000E+00
 -1        35 3.91500E+01 5.00000E+01 0.00000E+00
 -1        36 4.21500E+01 5.00000E+01 0.00000E+00
 -1        37 4.51500E+01 5.00000E+01 0.00000E+00
 -1        38 4.81500E+01 5.00000E+01 0.00000E+00
 -1        39 5.11500E+01 5.00000E+01 0.00000E+00
 -1        40 5.41500E+01 5.00000E+01 0.00000E+00
 -1        41 5.71500E+01 5.00000E+01 0.00000E+00
 -1        42 6.01500E+01 5.00000E+01 0.00000E+00
 -1        43 6.31500E+01 5.00000E+01 0.00000E+00
 -1        44 6.61500E+01 5.00000E+01 0.00000E+00
 -1        45 6.91500E+01 5.00000E+01 0.00000E+00
 -1        46 7.21500E+01 5.00000E+01 0.00000E+00
 -1        47 7.51500E+01 5.00000E+01 0.00000E+00
 -1        48 7.81500E+01 5.00000E+01 0.00000E+00
 -1        49 8.11500E+01 5.00000E+01 0.00000E+00
 -1        50 8.41500E+01 5.00000E+01 0.00000E+00
 -1        51 8.71500E+01 5.00000E+01 0.00000E+00
 -1        52 9.01500E+01 5.00000E+01 0.00000E+00
 -1        53 9.31500E+01 5.00000E+01 0.00000E+00
 -1        54 9.61500E+01 5.00000E+01 0.00000E+00
 -1        55 9.91500E+01 5.00000E+01 0.00000E+00
 -1        56 1.02150E+02 5.00000E+01 0.00000E+00
 -1        57 1.05150E+02 5.00000E+01 0.00000E+00
 -1        58 1.08150E+02 5.00000E+01 0.00000E+00
 -1        59 1.11150E+02 5.00000E+01 0.00000E+00
 -1        60 1.14150E+02 5.00000E+01 0.00000E+00
 -1        61 1.17150E+02 5.00000E+01 0.00000E+00
 -1        62 1.20150E+02 5.00000E+01 0.00000E+00
 -1        63 1.23150E+02 5.00000E+01 0.00000E+00
 -1        64 1.26150E+02 5.00000E+01 0.00000E+00
 -1        65 1.29150E+02 5.00000E+01 0.00000E+00
 -1        66 1.32150E+02 5.00000E+01 0.00000E+00
 -1        67 1.35150E+02 5.00000E+01 0.00000E+00
 -1        68 1.38150E+02 5.00000E+01 0.00000E+00
 -1        69 1.41150E+02 5.00000E+01 0.00000E+00
 -1        70 1.44150E+02 5.00000E+01 0.00000E+00
 -1        71 1.47150E+02 5.00000E+01 0.00000E+00
 -1        72 3.15000E+00 0.00000E+00 0.00000E+00
 -1        73 6.15000E+00 0.00000E+00 0.00000E+00
 -1        74 9.15000E+00 0.00000E+00 0.00000E+00
 -1        75 1.21500E+01 0.00000E+00 0.00000E+00
 -1        76 1.51500E+01 0.00000E+00 0.00000E+00
 -1        77 1.81500E+01 0.00000E+00 0.00000E+00
 -1        78 2.11500E+01 0.00000E+00 0.00000E+00
 -1        79 2.41500E+01 0.00000E+00 0.00000E+00
 -1        80 2.71500E+01 0.00000E+00 0.00000E+00
 -1        81 3.01500E+01 0.00000E+00 0.00000E+00
 -1        82 3.31500E+01 0.00000E+00 0.00000E+00
 -1        83 3.61500E+01 0.00000E+00 0.00000E+00
 -1        84 3.91500E+01 0.00000E+00 0.00000E+00
 -1        85 4.21500E+01 0.00000E+00 0.00000E+00
 -1        86 4.51500E+01 0.00000E+00 0.00000E+00
 -1        87 4.81500E+01 0.00000E+00 0.00000E+00
 -1        88 5.11500E+01 0.00000E+00 0.00000E+00
 -1        89 5.41500E+01 0.00000E+00 0.00000E+00
 -1        90 5.71500E+01 0.00000E+00 0.00000E+00
 -1        91 6.01500E+01 0.00000E+00 0.00000E+00
 -1        92 6.31500E+01 0.00000E+00 0.00000E+00
 -1        93 6.61500E+01 0.00000E+00 0.00000E+00
 -1        94 6.91500E+01 0.00000E+00 0.00000E+00
 -1        95 7.21500E+01 0.00000E+00 0.00000E+00
 -1        96 7.51500E+01 0.00000E+00 0.00000E+00
 -1        97 7.81500E+01 0.00000E+00 0.00000E+00
 -1        98 8.11500E+01 0.00000E+00 0.00000E+00
 -1        99 8.41500E+01 0.00000E+00 0.00000E+00
 -1       100 8.71500E+01 0.00000E+00 0.00000E+00
 -1       101 9.01500E+01 0.00000E+00 0.00000E+00
 -1       102 9.31500E+01 0.00000E+00 0.00000E+00
 -1       103 9.61500E+01 0.00000E+00 0.00000E+00
 -1       104 9.91500E+01 0.00000E+00 0.00000E+00
 -1       105 1.02150E+02 0.00000E+00 0.00000E+00
 -1       106 1.05150E+02 0.00000E+00 0.00000E+00
 -1       107 1.08150E+02 0.00000E+00 0.00000E+00
 -1       108 1.11150E+02 0.00000E+00 0.00000E+00
 -1       109 1.14150E+02 0.00000E+00 0.00000E+00
 -1       110 1.17150E+02 0.00000E+00 0.00000E+00
 -1       111 1.20150E+02 0.00000E+00 0.00000E+00
 -1       112 1.23150E+02 0.00000E+00 0.00000E+00
 -1       113 1.26150E+02 0.00000E+00 0.00000E+00
 -1       114 1.29150E+02 0.00000E+00 0.00000E+00
 -1       115 1.32150E+02 0.00000E+00 0.00000E+00
 -1       116 1.35150E+02 0.00000E+00 0.00000E+00
 -1       117 1.38150E+02 0.00000E+00 0.00000E+00
 -1       118 1.41150E+02 0.00000E+00 0.00000E+00
 -1       119 1.44150E+02 0.00000E+00 0.00000E+00
 -1       120 1.47150E+02 0.00000E+00 0.00000E+00
 -1       121 1.50000E+02 2.95000E+00 0.00000E+00
 -1       122 1.50000E+02 5.90000E+00 0.00000E+00
 -1       123 1.50000E+02 8.85000E+00 0.00000E+00
 -1       124 1.50000E+02 1.18000E+01 0.00000E+00
 -1       125 1.50000E+02 1.47500E+01 0.00000E+00
 -1       126 1.50000E+02 1.76500E+01 0.00000E+00
 -1       127 1.50000E+02 2.06000E+01 0.00000E+00
 -1       128 1.50000E+02 2.35500E+01 0.00000E+00
 -1       129 1.50000E+02 2.65000E+01 0.00000E+00
 -1       130 1.50000E+02 2.94500E+01 0.00000E+00
 -1       131 1.50000E+02 3.24000E+01 0.00000E+00
 -1       132 1.50000E+02 3.53000E+01 0.00000E+00
 -1       133 1.50000E+02 3.82500E+01 0.00000E+00
 -1       134 1.50000E+02 4.12000E+01 0.00000E+00
 -1       135 1.50000E+02 4.41500E+01 0.00000E+00
 -1       136 1.50000E+02 4.71000E+01 0.00000E+00
 -1       137 7.18716E+01 2.29687E+01 0.00000E+00
 -1       138 7.14139E+01 2.16309E+01 0.00000E+00
 -1       139 7.06601E+01 2.03631E+01 0.00000E+00
 -1       140 6.96945E+01 1.93138E+01 0.00000E+00
 -1       141 6.85457E+01 1.84875E+01 0.00000E+00
 -1       142 6.71958E+01 1.78901E+01 0.00000E+00
 -1       143 6.56241E+01 1.75775E+01 0.00000E+00
 -1       144 6.41637E+01 1.76109E+01 0.00000E+00
 -1       145 6.26217E+01 1.79901E+01 0.00000E+00
 -1       146 6.12515E+01 1.86766E+01 0.00000E+00
 -1       147 6.00892E+01 1.96189E+01 0.00000E+00
 -1       148 5.92069E+01 2.07048E+01 0.00000E+00
 -1       149 5.85034E+01 2.20851E+01 0.00000E+00
 -1       150 5.81431E+01 2.34378E+01 0.00000E+00
 -1       151 5.80608E+01 2.48746E+01 0.00000E+00
 -1       152 5.82916E+01 2.63646E+01 0.00000E+00
 -1       153 5.87969E+01 2.76936E+01 0.00000E+00
 -1       154 5.96020E+01 2.89453E+01 0.00000E+00
 -1       155 6.07038E+01 3.00388E+01 0.00000E+00
 -1       156 6.20271E+01 3.08661E+01 0.00000E+00
 -1       157 6.35332E+01 3.13871E+01 0.00000E+00
 -1       158 6.49762E+01 3.15537E+01 0.00000E+00
 -1       159 6.64667E+01 3.14100E+01 0.00000E+00
 -1       160 6.93227E+01 3.01016E+01 0.00000E+00
 -1       161 7.04521E+01 2.90101E+01 0.00000E+00
 -1       162 7.13059E+01 2.77017E+01 0.00000E+00
 -1       163 7.18639E+01 2.61722E+01 0.00000E+00
 -1       164 2.59800E+00 4.55750E+01 0.00000E+00
 -1       165 2.59800E+00 4.26250E+01 0.00000E+00
 -1       166 2.59800E+00 3.96750E+01 0.00000E+00
 -1       167 2.59800E+00 3.67250E+01 0.00000E+00
 -1       168 2.59800E+00 3.38250E+01 0.00000E+00
 -1       169 2.59800E+00 3.08750E+01 0.00000E+00
 -1       170 2.59800E+00 2.79250E+01 0.00000E+00
 -1       171 2.59800E+00 2.49750E+01 0.00000E+00
 -1       172 2.59800E+00 2.20250E+01 0.00000E+00
 -1       173 2.59800E+00 1.90750E+01 0.00000E+00
 -1       174 2.59800E+00 1.61750E+01 0.00000E+00
 -1       175 2.59800E+00 1.32250E+01 0.00000E+00
 -1       176 2.59800E+00 1.02750E+01 0.00000E+00
 -1       177 2.59800E+00 7.32500E+00 0.00000E+00
 -1       178 2.59800E+00 4.37500E+00 0.00000E+00
 -1       179 2.87400E+00 2.18750E+00 0.00000E+00
 -1       180 4.65000E+00 4.74020E+01 0.00000E+00
 -1       181 7.65000E+00 4.74020E+01 0.00000E+00
 -1       182 1.06500E+01 4.74020E+01 0.00000E+00
 -1       183 1.36500E+01 4.74020E+01 0.00000E+00
 -1       184 1.66500E+01 4.74020E+01 0.00000E+00
 -1       185 1.96500E+01 4.74020E+01 0.00000E+00
 -1       186 2.26500E+01 4.74020E+01 0.00000E+00
 -1       187 2.56500E+01 4.74020E+01 0.00000E+00
 -1       188 2.86500E+01 4.74020E+01 0.00000E+00
 -1       189 3.16500E+01 4.74020E+01 0.00000E+00
 -1       190 3.46500E+01 4.74020E+01 0.00000E+00
 -1       191 3.76500E+01 4.74020E+01 0.00000E+00
 -1       192 4.06500E+01 4.74020E+01 0.00000E+00
 -1       193 4.36500E+01 4.74020E+01 0.00000E+00
 -1       194 4.66500E+01 4.74020E+01 0.00000E+00
 -1       195 4.96500E+01 4.74020E+01 0.00000E+00
 -1       196 5.26500E+01 4.74020E+01 0.00000E+00
 -1       197 5.56500E+01 4.74020E+01 0.00000E+00
 -1       198 5.86500E+01 4.74020E+01 0.00000E+00
 -1       199 6.16500E+01 4.74020E+01 0.00000E+00
 -1       200 6.46500E+01 4.74020E+01 0.00000E+00
 -1       201 6.76500E+01 4.74020E+01 0.00000E+00
 -1       202 7.06500E+01 4.74020E+01 0.00000E+00
 -1       203 7.36500E+01 4.74020E+01 0.00000E+00
 -1       204 7.66500E+01 4.74020E+01 0.00000E+00
 -1       205 7.96500E+01 4.74020E+01 0.00000E+00
 -1       206 8.26500E+01 4.74020E+01 0.00000E+00
 -1       207 8.56500E+01 4.74020E+01 0.00000E+00
 -1       208 8.86500E+01 4.74020E+01 0.00000E+00
 -1       209 9.16500E+01 4.74020E+01 0.00000E+00
 -1       210 9.46500E+01 4.74020E+01 0.00000E+00
 -1       211 9.76500E+01 4.74020E+01 0.00000E+00
 -1       212 1.00650E+02 4.74020E+01 0.00000E+00
 -1       213 1.03650E+02 4.74020E+01 0.00000E+00
 -1       214 1.06650E+02 4.74020E+01 0.00000E+00
 -1       215 1.09650E+02 4.74020E+01 0.00000E+00
 -1       216 1.12650E+02 4.74020E+01 0.00000E+00
 -1       217 1.15650E+02 4.74020E+01 0.00000E+00
 -1       218 1.18650E+02 4.74020E+01 0.00000E+00
 -1       219 1.21650E+02 4.74020E+01 0.00000E+00
 -1       220 1.24650E+02 4.74020E+01 0.00000E+00
 -1       221 1.27650E+02 4.74020E+01 0.00000E+00
 -1       222 1.30650E+02 4.74020E+01 0.00000E+00
 -1       223 1.33650E+02 4.74020E+01 0.00000E+00
 -1       224 1.36650E+02 4.74020E+01 0.00000E+00
 -1       225 1.39650E+02 4.74020E+01 0.00000E+00
 -1       226 1.42650E+02 4.74020E+01 0.00000E+00
 -1       227 1.45650E+02 4.74020E+01 0.00000E+00
 -1       228 5.87400E+00 2.18750E+00 0.00000E+00
 -1       229 8.87400E+00 2.18750E+00 0.00000E+00
 -1       230 1.18740E+01 2.18750E+00 0.00000E+00
 -1       231 1.48740E+01 2.18750E+00 0.00000E+00
 -1       232 1.78740E+01 2.18750E+00 0.00000E+00
 -1       233 2.08740E+01 2.18750E+00 0.00000E+00
 -1       234 2.38740E+01 2.18750E+00 0.00000E+00
 -1       235 2.68740E+01 2.18750E+00 0.00000E+00
 -1       236 2.98740E+01 2.18750E+00 0.00000E+00
 -1       237 3.28740E+01 2.18750E+00 0.00000E+00
 -1       238 3.58740E+01 2.18750E+00 0.00000E+00
 -1       239 3.88740E+01 2.18750E+00 0.00000E+00
 -1       240 4.18740E+01 2.18750E+00 0.00000E+00
 -1       241 4.48740E+01 2.18750E+00 0.00000E+00
 -1       242 4.78740E+01 2.18750E+00 0.00000E+00
 -1       243 5.08740E+01 2.18750E+00 0.00000E+00
 -1       244 5.38740E+01 2.18750E+00 0.00000E+00
 -1       245 5.68740E+01 2.18750E+00 0.00000E+00
 -1       246 5.98740E+01 2.18750E+00 0.00000E+00
 -1       247 6.28740E+01 2.18750E+00 0.00000E+00
 -1       248 6.58740E+01 2.18750E+00 0.00000E+00
 -1       249 6.88740E+01 2.18750E+00 0.00000E+00
 -1       250 7.18740E+01 2.18750E+00 0.00000E+00
 -1       251 7.48740E+01 2.18750E+00 0.00000E+00
 -1       252 7.78740E+01 2.18750E+00 0.00000E+00
 -1       253 8.08740E+01 2.18750E+00 0.00000E+00
 -1       254 8.38740E+01 2.18750E+00 0.00000E+00
 -1       255 8.68740E+01 2.18750E+00 0.00000E+00
 -1       256 8.98740E+01 2.18750E+00 0.00000E+00
 -1       257 9.28740E+01 2.18750E+00 0.00000E+00
 -1       258 9.58740E+01 2.18750E+00 0.00000E+00
 -1       259 9.88740E+01 2.18750E+00 0.00000E+00
 -1       260 1.01874E+02 2.18750E+00 0.00000E+00
 -1       261 1.04874E+02 2.18750E+00 0.00000E+00
 -1       262 1.07874E+02 2.18750E+00 0.00000E+00
 -1       263 1.10874E+02 2.18750E+00 0.00000E+00
 -1       264 1.13874E+02 2.18750E+00 0.00000E+00
 -1       265 1.16874E+02 2.18750E+00 0.00000E+00
 -1       266 1.19874E+02 2.18750E+00 0.00000E+00
 -1       267 1.22874E+02 2.18750E+00 0.00000E+00
 -1       268 1.25874E+02 2.18750E+00 0.00000E+00
 -1       269 1.28874E+02 2.18750E+00 0.00000E+00
 -1       270 1.31874E+02 2.18750E+00 0.00000E+00
 -1       271 1.34874E+02 2.18750E+00 0.00000E+00
 -1       272 1.37874E+02 2.18750E+00 0.00000E+00
 -1       273 1.40874E+02 2.18750E+00 0.00000E+00
 -1       274 1.43874E+02 2.18750E+00 0.00000E+00
 -1       275 1.46874E+02 2.18750E+00 0.00000E+00
 -1       276 1.47402E+02 4.42500E+00 0.00000E+00
 -1       277 1.47402E+02 7.37500E+00 0.00000E+00
 -1       278 1.47402E+02 1.03250E+01 0.00000E+00
 -1       279 1.47402E+02 1.32750E+01 0.00000E+00
 -1       280 1.47402E+02 1.61750E+01 0.00000E+00
 -1       281 1.47402E+02 1.91250E+01 0.00000E+00
 -1       282 1.47402E+02 2.20750E+01 0.00000E+00
 -1       283 1.47402E+02 2.50250E+01 0.00000E+00
 -1       284 1.47402E+02 2.79750E+01 0.00000E+00
 -1       285 1.47402E+02 3.09250E+01 0.00000E+00
 -1       286 1.47402E+02 3.38250E+01 0.00000E+00
 -1       287 1.47402E+02 3.67750E+01 0.00000E+00
 -1       288 1.47402E+02 3.97250E+01 0.00000E+00
 -1       289 1.47402E+02 4.26750E+01 0.00000E+00
 -1       290 1.46526E+02 4.50385E+01 0.00000E+00
 -1       291 7.35000E+01 2.35850E+01 0.00000E+00
 -1       292 7.28691E+01 2.18802E+01 0.00000E+00
 -1       293 7.21512E+01 2.03346E+01 0.00000E+00
 -1       294 7.10694E+01 1.90174E+01 0.00000E+00
 -1       295 6.98281E+01 1.79165E+01 0.00000E+00
 -1       296 6.83615E+01 1.70801E+01 0.00000E+00
 -1       297 6.67119E+01 1.62160E+01 0.00000E+00
 -1       298 6.48642E+01 1.62984E+01 0.00000E+00
 -1       299 6.30632E+01 1.64605E+01 0.00000E+00
 -1       300 6.12434E+01 1.69498E+01 0.00000E+00
 -1       301 5.98541E+01 1.81409E+01 0.00000E+00
 -1       302 5.87071E+01 1.93973E+01 0.00000E+00
 -1       303 5.75510E+01 2.07302E+01 0.00000E+00
 -1       304 5.71517E+01 2.24494E+01 0.00000E+00
 -1       305 5.68915E+01 2.40869E+01 0.00000E+00
 -1       306 5.68125E+01 2.58308E+01 0.00000E+00
 -1       307 5.74110E+01 2.74600E+01 0.00000E+00
 -1       308 5.81798E+01 2.89753E+01 0.00000E+00
 -1       309 5.92989E+01 3.03526E+01 0.00000E+00
 -1       310 6.06339E+01 3.16225E+01 0.00000E+00
 -1       311 6.22743E+01 3.25891E+01 0.00000E+00
 -1       312 6.41060E+01 3.27580E+01 0.00000E+00
 -1       313 6.58539E+01 3.28555E+01 0.00000E+00
 -1       314 6.77115E+01 3.26295E+01 0.00000E+00
 -1       315 6.92834E+01 3.15425E+01 0.00000E+00
 -1       316 7.07299E+01 3.04276E+01 0.00000E+00
 -1       317 7.18943E+01 2.90185E+01 0.00000E+00
 -1       318 7.27239E+01 2.73525E+01 0.00000E+00
 -1       319 7.33293E+01 2.55238E+01 0.00000E+00
 -1       320 5.19600E+00 4.11500E+01 0.00000E+00
 -1       321 5.19600E+00 4.41000E+01 0.00000E+00
 -1       322 5.19600E+00 3.52750E+01 0.00000E+00
 -1       323 5.19600E+00 3.23250E+01 0.00000E+00
 -1       324 5.19600E+00 2.93750E+01 0.00000E+00
 -1       325 5.19600E+00 2.64250E+01 0.00000E+00
 -1       326 5.19600E+00 2.34750E+01 0.00000E+00
 -1       327 5.19600E+00 2.05250E+01 0.00000E+00
 -1       328 5.19600E+00 1.76250E+01 0.00000E+00
 -1       329 5.19600E+00 1.46750E+01 0.00000E+00
 -1       330 5.19600E+00 1.17250E+01 0.00000E+00
 -1       331 5.19600E+00 8.77500E+00 0.00000E+00
 -1       332 5.19600E+00 5.82500E+00 0.00000E+00
 -1       333 5.53500E+00 4.00625E+00 0.00000E+00
 -1       334 8.53500E+00 4.00625E+00 0.00000E+00
 -1       335 9.15000E+00 4.48040E+01 0.00000E+00
 -1       336 1.21500E+01 4.48040E+01 0.00000E+00
 -1       337 1.51500E+01 4.48040E+01 0.00000E+00
 -1       338 1.81500E+01 4.48040E+01 0.00000E+00
 -1       339 2.11500E+01 4.48040E+01 0.00000E+00
 -1       340 2.41500E+01 4.48040E+01 0.00000E+00
 -1       341 2.71500E+01 4.48040E+01 0.00000E+00
 -1       342 3.01500E+01 4.48040E+01 0.00000E+00
 -1       343 3.31500E+01 4.48040E+01 0.00000E+00
 -1       344 3.61500E+01 4.48040E+01 0.00000E+00
 -1       345 3.91500E+01 4.48040E+01 0.00000E+00
 -1       346 4.21500E+01 4.48040E+01 0.00000E+00
 -1       347 4.51500E+01 4.48040E+01 0.00000E+00
 -1       348 4.81500E+01 4.48040E+01 0.00000E+00
 -1       349 5.11500E+01 4.48040E+01 0.00000E+00
 -1       350 5.41500E+01 4.48040E+01 0.00000E+00
 -1       351 5.71500E+01 4.48040E+01 0.00000E+00
 -1       352 6.01500E+01 4.48040E+01 0.00000E+00
 -1       353 6.31500E+01 4.48040E+01 0.00000E+00
 -1       354 6.61500E+01 4.48040E+01 0.00000E+00
 -1       355 6.91500E+01 4.48040E+01 0.00000E+00
 -1       356 7.21500E+01 4.48040E+01 0.00000E+00
 -1       357 7.51500E+01 4.48040E+01 0.00000E+00
 -1       358 7.81500E+01 4.48040E+01 0.00000E+00
 -1       359 8.11500E+01 4.48040E+01 0.00000E+00
 -1       360 8.41500E+01 4.48040E+01 0.00000E+00
 -1       361 8.71500E+01 4.48040E+01 0.00000E+00
 -1       362 9.01500E+01 4.48040E+01 0.00000E+00
 -1       363 9.31500E+01 4.48040E+01 0.00000E+00
 -1       364 9.61500E+01 4.48040E+01 0.00000E+00
 -1       365 9.91500E+01 4.48040E+01 0.00000E+00
 -1       366 1.02150E+02 4.48040E+01 0.00000E+00
 -1       367 1.05150E+02 4.48040E+01 0.00000E+00
 -1       368 1.08150E+02 4.48040E+01 0.00000E+00
 -1       369 1.11150E+02 4.48040E+01 0.00000E+00
 -1       370 1.14150E+02 4.48040E+01 0.00000E+00
 -1       371 1.17150E+02 4.48040E+01 0.00000E+00
 -1       372 1.20150E+02 4.48040E+01 0.00000E+00
 -1       373 1.23150E+02 4.48040E+01 0.00000E+00
 -1       374 1.26150E+02 4.48040E+01 0.00000E+00
 -1       375 1.29150E+02 4.48040E+01 0.00000E+00
 -1       376 1.32150E+02 4.48040E+01 0.00000E+00
 -1       377 1.35150E+02 4.48040E+01 0.00000E+00
 -1       378 1.38150E+02 4.48040E+01 0.00000E+00
 -1       379 1.41150E+02 4.48040E+01 0.00000E+00
 -1       380 1.43838E+02 4.49212E+01 0.00000E+00
 -1       381 1.15350E+01 4.00625E+00 0.00000E+00
 -1       382 1.45350E+01 4.00625E+00 0.00000E+00
 -1       383 1.75350E+01 4.00625E+00 0.00000E+00
 -1       384 2.05350E+01 4.00625E+00 0.00000E+00
 -1       385 2.35350E+01 4.00625E+00 0.00000E+00
 -1       386 2.65350E+01 4.00625E+00 0.00000E+00
 -1       387 2.95350E+01 4.00625E+00 0.00000E+00
 -1       388 3.25350E+01 4.00625E+00 0.00000E+00
 -1       389 3.55350E+01 4.00625E+00 0.00000E+00
 -1       390 3.85350E+01 4.00625E+00 0.00000E+00
 -1       391 4.15350E+01 4.00625E+00 0.00000E+00
 -1       392 4.45350E+01 4.00625E+00 0.00000E+00
 -1       393 4.75350E+01 4.00625E+00 0.00000E+00
 -1       394 5.05350E+01 4.00625E+00 0.00000E+00
 -1       395 5.35350E+01 4.00625E+00 0.00000E+00
 -1       396 5.65350E+01 4.00625E+00 0.00000E+00
 -1       397 5.95350E+01 4.00625E+00 0.00000E+00
 -1       398 6.25350E+01 4.00625E+00 0.00000E+00
 -1       399 6.55350E+01 4.00625E+00 0.00000E+00
 -1       400 6.85350E+01 4.00625E+00 0.00000E+00
 -1       401 7.15350E+01 4.00625E+00 0.00000E+00
 -1       402 7.45350E+01 4.00625E+00 0.00000E+00
 -1       403 7.75350E+01 4.00625E+00 0.00000E+00
 -1       404 8.05350E+01 4.00625E+00 0.00000E+00
 -1       405 8.35350E+01 4.00625E+00 0.00000E+00
 -1       406 8.65350E+01 4.00625E+00 0.00000E+00
 -1       407 8.95350E+01 4.00625E+00 0.00000E+00
 -1       408 9.25350E+01 4.00625E+00 0.00000E+00
 -1       409 9.55350E+01 4.00625E+00 0.00000E+00
 -1       410 9.85350E+01 4.00625E+00 0.00000E+00
 -1       411 1.01535E+02 4.00625E+00 0.00000E+00
 -1       412 1.04535E+02 4.00625E+00 0.00000E+00
 -1       413 1.07535E+02 4.00625E+00 0.00000E+00
 -1       414 1.10535E+02 4.00625E+00 0.00000E+00
 -1       415 1.13535E+02 4.00625E+00 0.00000E+00
 -1       416 1.16535E+02 4.00625E+00 0.00000E+00
 -1       417 1.19535E+02 4.00625E+00 0.00000E+00
 -1       418 1.22535E+02 4.00625E+00 0.00000E+00
 -1       419 1.25535E+02 4.00625E+00 0.00000E+00
 -1       420 1.28535E+02 4.00625E+00 0.00000E+00
 -1       421 1.31535E+02 4.00625E+00 0.00000E+00
 -1       422 1.34535E+02 4.00625E+00 0.00000E+00
 -1       423 1.37535E+02 4.00625E+00 0.00000E+00
 -1       424 1.40535E+02 4.00625E+00 0.00000E+00
 -1       425 1.43535E+02 4.00625E+00 0.00000E+00
 -1       426 1.45469E+02 4.21562E+00 0.00000E+00
 -1       427 1.44804E+02 1.18000E+01 0.00000E+00
 -1       428 1.44804E+02 8.85000E+00 0.00000E+00
 -1       429 1.45136E+02 6.53281E+00 0.00000E+00
 -1       430 1.44804E+02 1.47000E+01 0.00000E+00
 -1       431 1.44804E+02 1.76500E+01 0.00000E+00
 -1       432 1.44804E+02 2.06000E+01 0.00000E+00
 -1       433 1.44804E+02 2.35500E+01 0.00000E+00
 -1       434 1.44804E+02 2.65000E+01 0.00000E+00
 -1       435 1.44804E+02 2.94500E+01 0.00000E+00
 -1       436 1.44804E+02 3.23500E+01 0.00000E+00
 -1       437 1.44804E+02 3.53000E+01 0.00000E+00
 -1       438 1.44804E+02 3.82500E+01 0.00000E+00
 -1       439 1.44804E+02 4.12000E+01 0.00000E+00
 -1       440 7.39137E+01 2.04555E+01 0.00000E+00
 -1       441 7.47058E+01 2.46681E+01 0.00000E+00
 -1       442 7.45445E+01 2.21603E+01 0.00000E+00
 -1       443 7.26767E+01 1.88002E+01 0.00000E+00
 -1       444 7.14756E+01 1.73092E+01 0.00000E+00
 -1       445 5.19600E+00 3.82125E+01 0.00000E+00
 -1       446 6.82548E+01 1.52772E+01 0.00000E+00
 -1       447 6.57191E+01 1.47111E+01 0.00000E+00
 -1       448 6.39180E+01 1.48733E+01 0.00000E+00
 -1       449 6.17514E+01 1.52107E+01 0.00000E+00
 -1       450 5.94869E+01 1.63069E+01 0.00000E+00
 -1       451 5.82614E+01 1.78387E+01 0.00000E+00
 -1       452 5.71053E+01 1.91717E+01 0.00000E+00
 -1       453 5.58439E+01 2.12397E+01 0.00000E+00
 -1       454 5.57415E+01 2.30648E+01 0.00000E+00
 -1       455 5.54734E+01 2.48964E+01 0.00000E+00
 -1       456 5.58165E+01 2.71213E+01 0.00000E+00
 -1       457 5.63406E+01 2.89557E+01 0.00000E+00
 -1       458 5.74082E+01 3.07455E+01 0.00000E+00
 -1       459 5.87432E+01 3.20155E+01 0.00000E+00
 -1       460 6.06684E+01 3.34391E+01 0.00000E+00
 -1       461 6.30711E+01 3.39643E+01 0.00000E+00
 -1       462 6.48985E+01 3.42682E+01 0.00000E+00
 -1       463 6.69695E+01 3.42787E+01 0.00000E+00
 -1       464 6.93776E+01 3.33589E+01 0.00000E+00
 -1       465 7.08241E+01 3.22440E+01 0.00000E+00
 -1       466 7.25051E+01 3.07088E+01 0.00000E+00
 -1       467 7.34694E+01 2.87632E+01 0.00000E+00
 -1       468 7.44957E+01 2.69245E+01 0.00000E+00
 -1       469 6.97369E+01 1.63723E+01 0.00000E+00
 -1       470 7.57504E+01 2.32434E+01 0.00000E+00
 -1       471 6.86357E+01 3.50081E+01 0.00000E+00
 -1       472 5.53982E+01 1.96811E+01 0.00000E+00
 -1       473 6.72620E+01 1.37724E+01 0.00000E+00
 -1       474 6.14653E+01 3.48143E+01 0.00000E+00
 -1       475 1.00350E+01 6.60425E+00 0.00000E+00
 -1       476 7.79400E+00 3.08500E+01 0.00000E+00
 -1       477 7.79400E+00 3.38000E+01 0.00000E+00
 -1       478 7.79400E+00 2.49500E+01 0.00000E+00
 -1       479 7.79400E+00 2.20000E+01 0.00000E+00
 -1       480 7.79400E+00 1.91000E+01 0.00000E+00
 -1       481 7.79400E+00 1.61500E+01 0.00000E+00
 -1       482 7.79400E+00 1.32000E+01 0.00000E+00
 -1       483 7.79400E+00 1.02500E+01 0.00000E+00
 -1       484 1.30350E+01 6.60425E+00 0.00000E+00
 -1       485 1.06500E+01 4.22060E+01 0.00000E+00
 -1       486 7.00151E+01 1.44454E+01 0.00000E+00
 -1       487 1.36500E+01 4.22060E+01 0.00000E+00
 -1       488 1.66500E+01 4.22060E+01 0.00000E+00
 -1       489 1.96500E+01 4.22060E+01 0.00000E+00
 -1       490 2.26500E+01 4.22060E+01 0.00000E+00
 -1       491 2.56500E+01 4.22060E+01 0.00000E+00
 -1       492 2.86500E+01 4.22060E+01 0.00000E+00
 -1       493 3.16500E+01 4.22060E+01 0.00000E+00
 -1       494 3.46500E+01 4.22060E+01 0.00000E+00
 -1       495 3.76500E+01 4.22060E+01 0.00000E+00
 -1       496 4.06500E+01 4.22060E+01 0.00000E+00
 -1       497 4.36500E+01 4.22060E+01 0.00000E+00
 -1       498 4.66500E+01 4.22060E+01 0.00000E+00
 -1       499 4.96500E+01 4.22060E+01 0.00000E+00
 -1       500 5.26500E+01 4.22060E+01 0.00000E+00
 -1       501 5.56500E+01 4.22060E+01 0.00000E+00
 -1       502 5.86500E+01 4.22060E+01 0.00000E+00
 -1       503 6.16500E+01 4.22060E+01 0.00000E+00
 -1       504 6.46500E+01 4.22060E+01 0.00000E+00
 -1       505 6.76500E+01 4.22060E+01 0.00000E+00
 -1       506 7.06500E+01 4.22060E+01 0.00000E+00
 -1       507 7.36500E+01 4.22060E+01 0.00000E+00
 -1       508 7.66500E+01 4.22060E+01 0.00000E+00
 -1       509 7.96500E+01 4.22060E+01 0.00000E+00
 -1       510 8.26500E+01 4.22060E+01 0.00000E+00
 -1       511 8.56500E+01 4.22060E+01 0.00000E+00
 -1       512 8.86500E+01 4.22060E+01 0.00000E+00
 -1       513 9.16500E+01 4.22060E+01 0.00000E+00
 -1       514 9.46500E+01 4.22060E+01 0.00000E+00
 -1       515 9.76500E+01 4.22060E+01 0.00000E+00
 -1       516 1.00650E+02 4.22060E+01 0.00000E+00
 -1       517 1.03650E+02 4.22060E+01 0.00000E+00
 -1       518 1.06650E+02 4.22060E+01 0.00000E+00
 -1       519 1.09650E+02 4.22060E+01 0.00000E+00
 -1       520 1.12650E+02 4.22060E+01 0.00000E+00
 -1       521 1.15650E+02 4.22060E+01 0.00000E+00
 -1       522 1.18650E+02 4.22060E+01 0.00000E+00
 -1       523 1.21650E+02 4.22060E+01 0.00000E+00
 -1       524 1.24650E+02 4.22060E+01 0.00000E+00
 -1       525 1.27650E+02 4.22060E+01 0.00000E+00
 -1       526 1.30650E+02 4.22060E+01 0.00000E+00
 -1       527 1.33650E+02 4.22060E+01 0.00000E+00
 -1       528 1.36650E+02 4.22060E+01 0.00000E+00
 -1       529 1.39650E+02 4.22060E+01 0.00000E+00
 -1       530 7.58376E+01 2.07127E+01 0.00000E+00
 -1       531 1.90350E+01 6.60425E+00 0.00000E+00
 -1       532 2.20350E+01 6.60425E+00 0.00000E+00
 -1       533 2.50350E+01 6.60425E+00 0.00000E+00
 -1       534 2.80350E+01 6.60425E+00 0.00000E+00
 -1       535 3.10350E+01 6.60425E+00 0.00000E+00
 -1       536 3.40350E+01 6.60425E+00 0.00000E+00
 -1       537 3.70350E+01 6.60425E+00 0.00000E+00
 -1       538 4.00350E+01 6.60425E+00 0.00000E+00
 -1       539 4.30350E+01 6.60425E+00 0.00000E+00
 -1       540 4.60350E+01 6.60425E+00 0.00000E+00
 -1       541 4.90350E+01 6.60425E+00 0.00000E+00
 -1       542 5.20350E+01 6.60425E+00 0.00000E+00
 -1       543 5.50350E+01 6.60425E+00 0.00000E+00
 -1       544 5.80350E+01 6.60425E+00 0.00000E+00
 -1       545 6.10350E+01 6.60425E+00 0.00000E+00
 -1       546 6.40350E+01 6.60425E+00 0.00000E+00
 -1       547 6.70350E+01 6.60425E+00 0.00000E+00
 -1       548 7.00350E+01 6.60425E+00 0.00000E+00
 -1       549 7.30350E+01 6.60425E+00 0.00000E+00
 -1       550 7.60350E+01 6.60425E+00 0.00000E+00
 -1       551 7.90350E+01 6.60425E+00 0.00000E+00
 -1       552 8.20350E+01 6.60425E+00 0.00000E+00
 -1       553 8.50350E+01 6.60425E+00 0.00000E+00
 -1       554 8.80350E+01 6.60425E+00 0.00000E+00
 -1       555 9.10350E+01 6.60425E+00 0.00000E+00
 -1       556 9.40350E+01 6.60425E+00 0.00000E+00
 -1       557 9.70350E+01 6.60425E+00 0.00000E+00
 -1       558 1.00035E+02 6.60425E+00 0.00000E+00
 -1       559 1.03035E+02 6.60425E+00 0.00000E+00
 -1       560 1.06035E+02 6.60425E+00 0.00000E+00
 -1       561 1.09035E+02 6.60425E+00 0.00000E+00
 -1       562 1.12035E+02 6.60425E+00 0.00000E+00
 -1       563 1.15035E+02 6.60425E+00 0.00000E+00
 -1       564 1.18035E+02 6.60425E+00 0.00000E+00
 -1       565 1.21035E+02 6.60425E+00 0.00000E+00
 -1       566 1.24035E+02 6.60425E+00 0.00000E+00
 -1       567 1.27035E+02 6.60425E+00 0.00000E+00
 -1       568 1.30035E+02 6.60425E+00 0.00000E+00
 -1       569 1.33035E+02 6.60425E+00 0.00000E+00
 -1       570 1.36035E+02 6.60425E+00 0.00000E+00
 -1       571 1.39035E+02 6.60425E+00 0.00000E+00
 -1       572 1.42035E+02 6.60425E+00 0.00000E+00
 -1       573 1.42206E+02 1.61750E+01 0.00000E+00
 -1       574 1.42206E+02 1.91250E+01 0.00000E+00
 -1       575 1.42206E+02 1.03250E+01 0.00000E+00
 -1       576 1.42206E+02 1.32500E+01 0.00000E+00
 -1       577 1.42206E+02 2.20750E+01 0.00000E+00
 -1       578 1.42206E+02 2.50250E+01 0.00000E+00
 -1       579 1.42206E+02 2.79750E+01 0.00000E+00
 -1       580 1.42206E+02 3.08750E+01 0.00000E+00
 -1       581 1.42206E+02 3.38250E+01 0.00000E+00
 -1       582 1.42206E+02 3.67750E+01 0.00000E+00
 -1       583 1.42206E+02 3.97250E+01 0.00000E+00
 -1       584 7.63085E+01 2.59553E+01 0.00000E+00
 -1       585 1.60350E+01 6.60425E+00 0.00000E+00
 -1       586 7.48033E+01 1.85009E+01 0.00000E+00
 -1       587 7.53338E+01 2.85981E+01 0.00000E+00
 -1       588 7.92300E+00 4.16780E+01 0.00000E+00
 -1       589 7.36022E+01 1.70098E+01 0.00000E+00
 -1       590 5.54734E+01 3.06863E+01 0.00000E+00
 -1       591 5.75349E+01 1.60014E+01 0.00000E+00
 -1       592 7.79400E+00 2.79000E+01 0.00000E+00
 -1       593 5.98719E+01 1.42150E+01 0.00000E+00
 -1       594 6.46798E+01 1.32509E+01 0.00000E+00
 -1       595 5.40803E+01 2.20561E+01 0.00000E+00
 -1       596 6.25132E+01 1.35883E+01 0.00000E+00
 -1       597 5.63788E+01 1.73343E+01 0.00000E+00
 -1       598 5.38123E+01 2.38877E+01 0.00000E+00
 -1       599 5.39499E+01 2.62702E+01 0.00000E+00
 -1       600 5.45100E+01 2.84867E+01 0.00000E+00
 -1       601 5.67781E+01 3.27445E+01 0.00000E+00
 -1       602 7.43696E+01 3.05437E+01 0.00000E+00
 -1       603 5.87033E+01 3.41682E+01 0.00000E+00
 -1       604 6.37034E+01 3.58081E+01 0.00000E+00
 -1       605 6.59253E+01 3.59886E+01 0.00000E+00
 -1       606 7.11479E+01 3.41599E+01 0.00000E+00
 -1       607 7.28289E+01 3.26247E+01 0.00000E+00
 -1       608 7.61550E+00 6.21462E+00 0.00000E+00
 -1       609 7.17538E+01 1.53822E+01 0.00000E+00
 -1       610 7.79400E+00 3.67375E+01 0.00000E+00
 -1       611 7.70434E+01 2.17957E+01 0.00000E+00
 -1       612 7.71466E+01 2.76289E+01 0.00000E+00
 -1       613 1.41678E+02 4.22645E+01 0.00000E+00
 -1       614 6.75915E+01 3.67180E+01 0.00000E+00
 -1       615 7.73530E+01 2.45306E+01 0.00000E+00
 -1       616 5.79199E+01 1.39095E+01 0.00000E+00
 -1       617 5.36346E+01 2.04975E+01 0.00000E+00
 -1       618 6.90223E+01 1.29406E+01 0.00000E+00
 -1       619 6.62228E+01 1.23122E+01 0.00000E+00
 -1       620 5.95001E+01 3.55433E+01 0.00000E+00
 -1       621 1.03920E+01 2.05500E+01 0.00000E+00
 -1       622 1.03920E+01 2.35000E+01 0.00000E+00
 -1       623 1.03920E+01 1.46750E+01 0.00000E+00
 -1       624 1.03920E+01 1.17250E+01 0.00000E+00
 -1       625 1.15350E+01 9.20225E+00 0.00000E+00
 -1       626 5.34207E+01 3.02746E+01 0.00000E+00
 -1       627 7.18570E+01 1.31089E+01 0.00000E+00
 -1       628 1.45350E+01 9.20225E+00 0.00000E+00
 -1       629 6.07966E+01 1.22329E+01 0.00000E+00
 -1       630 1.51500E+01 3.96080E+01 0.00000E+00
 -1       631 1.81500E+01 3.96080E+01 0.00000E+00
 -1       632 2.11500E+01 3.96080E+01 0.00000E+00
 -1       633 2.41500E+01 3.96080E+01 0.00000E+00
 -1       634 2.71500E+01 3.96080E+01 0.00000E+00
 -1       635 3.01500E+01 3.96080E+01 0.00000E+00
 -1       636 3.31500E+01 3.96080E+01 0.00000E+00
 -1       637 3.61500E+01 3.96080E+01 0.00000E+00
 -1       638 3.91500E+01 3.96080E+01 0.00000E+00
 -1       639 4.21500E+01 3.96080E+01 0.00000E+00
 -1       640 4.51500E+01 3.96080E+01 0.00000E+00
 -1       641 4.81500E+01 3.96080E+01 0.00000E+00
 -1       642 5.11500E+01 3.96080E+01 0.00000E+00
 -1       643 5.41500E+01 3.96080E+01 0.00000E+00
 -1       644 5.71500E+01 3.96080E+01 0.00000E+00
 -1       645 6.01500E+01 3.96080E+01 0.00000E+00
 -1       646 6.31500E+01 3.96080E+01 0.00000E+00
 -1       647 6.61500E+01 3.96080E+01 0.00000E+00
 -1       648 6.91500E+01 3.96080E+01 0.00000E+00
 -1       649 7.21500E+01 3.96080E+01 0.00000E+00
 -1       650 7.51500E+01 3.96080E+01 0.00000E+00
 -1       651 7.81500E+01 3.96080E+01 0.00000E+00
 -1       652 8.11500E+01 3.96080E+01 0.00000E+00
 -1       653 8.41500E+01 3.96080E+01 0.00000E+00
 -1       654 8.71500E+01 3.96080E+01 0.00000E+00
 -1       655 9.01500E+01 3.96080E+01 0.00000E+00
 -1       656 9.31500E+01 3.96080E+01 0.00000E+00
 -1       657 9.61500E+01 3.96080E+01 0.00000E+00
 -1       658 9.91500E+01 3.96080E+01 0.00000E+00
 -1       659 1.02150E+02 3.96080E+01 0.00000E+00
 -1       660 1.05150E+02 3.96080E+01 0.00000E+00
 -1       661 1.08150E+02 3.96080E+01 0.00000E+00
 -1       662 1.11150E+02 3.96080E+01 0.00000E+00
 -1       663 1.14150E+02 3.96080E+01 0.00000E+00
 -1       664 1.17150E+02 3.96080E+01 0.00000E+00
 -1       665 1.20150E+02 3.96080E+01 0.00000E+00
 -1       666 1.23150E+02 3.96080E+01 0.00000E+00
 -1       667 1.26150E+02 3.96080E+01 0.00000E+00
 -1       668 1.29150E+02 3.96080E+01 0.00000E+00
 -1       669 1.32150E+02 3.96080E+01 0.00000E+00
 -1       670 1.35150E+02 3.96080E+01 0.00000E+00
 -1       671 1.38150E+02 3.96080E+01 0.00000E+00
 -1       672 7.49777E+01 3.26047E+01 0.00000E+00
 -1       673 2.05350E+01 9.20225E+00 0.00000E+00
 -1       674 2.95350E+01 9.20225E+00 0.00000E+00
 -1       675 3.25350E+01 9.20225E+00 0.00000E+00
 -1       676 3.55350E+01 9.20225E+00 0.00000E+00
 -1       677 3.85350E+01 9.20225E+00 0.00000E+00
 -1       678 4.15350E+01 9.20225E+00 0.00000E+00
 -1       679 4.45350E+01 9.20225E+00 0.00000E+00
 -1       680 4.75350E+01 9.20225E+00 0.00000E+00
 -1       681 5.05350E+01 9.20225E+00 0.00000E+00
 -1       682 5.35350E+01 9.20225E+00 0.00000E+00
 -1       683 5.65350E+01 9.20225E+00 0.00000E+00
 -1       684 5.95350E+01 9.20225E+00 0.00000E+00
 -1       685 6.25350E+01 9.20225E+00 0.00000E+00
 -1       686 6.55350E+01 9.20225E+00 0.00000E+00
 -1       687 6.85350E+01 9.20225E+00 0.00000E+00
 -1       688 7.15350E+01 9.20225E+00 0.00000E+00
 -1       689 7.45350E+01 9.20225E+00 0.00000E+00
 -1       690 7.75350E+01 9.20225E+00 0.00000E+00
 -1       691 8.05350E+01 9.20225E+00 0.00000E+00
 -1       692 8.35350E+01 9.20225E+00 0.00000E+00
 -1       693 8.65350E+01 9.20225E+00 0.00000E+00
 -1       694 8.95350E+01 9.20225E+00 0.00000E+00
 -1       695 9.25350E+01 9.20225E+00 0.00000E+00
 -1       696 9.55350E+01 9.20225E+00 0.00000E+00
 -1       697 9.85350E+01 9.20225E+00 0.00000E+00
 -1       698 1.01535E+02 9.20225E+00 0.00000E+00
 -1       699 1.04535E+02 9.20225E+00 0.00000E+00
 -1       700 1.07535E+02 9.20225E+00 0.00000E+00
 -1       701 1.10535E+02 9.20225E+00 0.00000E+00
 -1       702 1.13535E+02 9.20225E+00 0.00000E+00
 -1       703 1.16535E+02 9.20225E+00 0.00000E+00
 -1       704 1.19535E+02 9.20225E+00 0.00000E+00
 -1       705 1.22535E+02 9.20225E+00 0.00000E+00
 -1       706 1.25535E+02 9.20225E+00 0.00000E+00
 -1       707 1.28535E+02 9.20225E+00 0.00000E+00
 -1       708 1.31535E+02 9.20225E+00 0.00000E+00
 -1       709 1.34535E+02 9.20225E+00 0.00000E+00
 -1       710 1.37535E+02 9.20225E+00 0.00000E+00
 -1       711 1.39870E+02 9.76363E+00 0.00000E+00
 -1       712 1.39608E+02 2.35500E+01 0.00000E+00
 -1       713 1.40178E+02 3.96665E+01 0.00000E+00
 -1       714 1.39608E+02 1.76500E+01 0.00000E+00
 -1       715 1.39608E+02 2.65000E+01 0.00000E+00
 -1       716 1.39608E+02 2.06000E+01 0.00000E+00
 -1       717 7.71777E+01 1.87383E+01 0.00000E+00
 -1       718 1.39608E+02 2.94000E+01 0.00000E+00
 -1       719 1.39608E+02 3.23500E+01 0.00000E+00
 -1       720 1.39608E+02 3.53000E+01 0.00000E+00
 -1       721 1.75350E+01 9.20225E+00 0.00000E+00
 -1       722 7.40330E+01 1.46573E+01 0.00000E+00
 -1       723 7.66887E+01 3.04814E+01 0.00000E+00
 -1       724 5.65217E+01 3.51048E+01 0.00000E+00
 -1       725 9.78035E+00 3.93914E+01 0.00000E+00
 -1       726 5.23321E+01 2.27357E+01 0.00000E+00
 -1       727 6.19222E+01 3.68021E+01 0.00000E+00
 -1       728 2.65350E+01 9.20225E+00 0.00000E+00
 -1       729 2.35350E+01 9.20225E+00 0.00000E+00
 -1       730 1.24652E+01 3.94997E+01 0.00000E+00
 -1       731 5.56612E+01 1.55441E+01 0.00000E+00
 -1       732 7.57994E+01 1.64692E+01 0.00000E+00
 -1       733 1.03920E+01 1.76125E+01 0.00000E+00
 -1       734 5.39967E+01 1.77173E+01 0.00000E+00
 -1       735 1.03920E+01 3.23250E+01 0.00000E+00
 -1       736 6.32810E+01 1.13938E+01 0.00000E+00
 -1       737 5.43941E+01 3.28131E+01 0.00000E+00
 -1       738 6.46620E+01 3.77749E+01 0.00000E+00
 -1       739 7.04941E+01 3.63677E+01 0.00000E+00
 -1       740 5.22422E+01 2.78807E+01 0.00000E+00
 -1       741 5.20015E+01 2.51875E+01 0.00000E+00
 -1       742 7.33710E+01 3.49062E+01 0.00000E+00
 -1       743 1.03920E+01 3.52625E+01 0.00000E+00
 -1       744 1.03920E+01 2.64500E+01 0.00000E+00
 -1       745 5.88446E+01 1.19274E+01 0.00000E+00
 -1       746 7.83835E+01 1.98213E+01 0.00000E+00
 -1       747 7.81912E+01 2.62042E+01 0.00000E+00
 -1       748 1.39608E+02 1.47250E+01 0.00000E+00
 -1       749 1.39739E+02 1.22443E+01 0.00000E+00
 -1       750 5.73185E+01 3.64800E+01 0.00000E+00
 -1       751 5.18865E+01 2.11771E+01 0.00000E+00
 -1       752 1.03920E+01 2.93875E+01 0.00000E+00
 -1       753 1.38879E+02 3.74540E+01 0.00000E+00
 -1       754 1.29900E+01 1.32000E+01 0.00000E+00
 -1       755 6.69676E+01 3.80656E+01 0.00000E+00
 -1       756 5.08417E+01 3.00573E+01 0.00000E+00
 -1       757 1.96500E+01 3.70100E+01 0.00000E+00
 -1       758 2.26500E+01 3.70100E+01 0.00000E+00
 -1       759 2.56500E+01 3.70100E+01 0.00000E+00
 -1       760 2.86500E+01 3.70100E+01 0.00000E+00
 -1       761 3.16500E+01 3.70100E+01 0.00000E+00
 -1       762 3.46500E+01 3.70100E+01 0.00000E+00
 -1       763 3.76500E+01 3.70100E+01 0.00000E+00
 -1       764 4.06500E+01 3.70100E+01 0.00000E+00
 -1       765 4.36500E+01 3.70100E+01 0.00000E+00
 -1       766 4.66500E+01 3.70100E+01 0.00000E+00
 -1       767 4.96500E+01 3.70100E+01 0.00000E+00
 -1       768 5.26500E+01 3.70100E+01 0.00000E+00
 -1       769 7.66500E+01 3.70100E+01 0.00000E+00
 -1       770 7.96500E+01 3.70100E+01 0.00000E+00
 -1       771 8.26500E+01 3.70100E+01 0.00000E+00
 -1       772 8.56500E+01 3.70100E+01 0.00000E+00
 -1       773 8.86500E+01 3.70100E+01 0.00000E+00
 -1       774 9.16500E+01 3.70100E+01 0.00000E+00
 -1       775 9.46500E+01 3.70100E+01 0.00000E+00
 -1       776 9.76500E+01 3.70100E+01 0.00000E+00
 -1       777 1.00650E+02 3.70100E+01 0.00000E+00
 -1       778 1.03650E+02 3.70100E+01 0.00000E+00
 -1       779 1.06650E+02 3.70100E+01 0.00000E+00
 -1       780 1.09650E+02 3.70100E+01 0.00000E+00
 -1       781 1.12650E+02 3.70100E+01 0.00000E+00
 -1       782 1.15650E+02 3.70100E+01 0.00000E+00
 -1       783 1.18650E+02 3.70100E+01 0.00000E+00
 -1       784 1.21650E+02 3.70100E+01 0.00000E+00
 -1       785 1.24650E+02 3.70100E+01 0.00000E+00
 -1       786 1.27650E+02 3.70100E+01 0.00000E+00
 -1       787 1.30650E+02 3.70100E+01 0.00000E+00
 -1       788 1.33650E+02 3.70100E+01 0.00000E+00
 -1       789 1.36264E+02 3.72320E+01 0.00000E+00
 -1       790 2.80350E+01 1.18003E+01 0.00000E+00
 -1       791 3.10350E+01 1.18003E+01 0.00000E+00
 -1       792 4.00350E+01 1.18003E+01 0.00000E+00
 -1       793 4.30350E+01 1.18003E+01 0.00000E+00
 -1       794 4.60350E+01 1.18003E+01 0.00000E+00
 -1       795 4.90350E+01 1.18003E+01 0.00000E+00
 -1       796 5.20350E+01 1.18003E+01 0.00000E+00
 -1       797 5.50350E+01 1.18003E+01 0.00000E+00
 -1       798 7.90350E+01 1.18003E+01 0.00000E+00
 -1       799 8.20350E+01 1.18003E+01 0.00000E+00
 -1       800 8.50350E+01 1.18003E+01 0.00000E+00
 -1       801 8.80350E+01 1.18003E+01 0.00000E+00
 -1       802 9.10350E+01 1.18003E+01 0.00000E+00
 -1       803 9.40350E+01 1.18003E+01 0.00000E+00
 -1       804 9.70350E+01 1.18003E+01 0.00000E+00
 -1       805 1.00035E+02 1.18003E+01 0.00000E+00
 -1       806 1.03035E+02 1.18003E+01 0.00000E+00
 -1       807 1.06035E+02 1.18003E+01 0.00000E+00
 -1       808 1.09035E+02 1.18003E+01 0.00000E+00
 -1       809 1.12035E+02 1.18003E+01 0.00000E+00
 -1       810 1.15035E+02 1.18003E+01 0.00000E+00
 -1       811 1.18035E+02 1.18003E+01 0.00000E+00
 -1       812 1.21035E+02 1.18003E+01 0.00000E+00
 -1       813 1.24035E+02 1.18003E+01 0.00000E+00
 -1       814 1.27035E+02 1.18003E+01 0.00000E+00
 -1       815 1.30035E+02 1.18003E+01 0.00000E+00
 -1       816 1.33035E+02 1.18003E+01 0.00000E+00
 -1       817 1.36035E+02 1.18003E+01 0.00000E+00
 -1       818 1.37887E+02 1.20223E+01 0.00000E+00
 -1       819 1.37625E+01 1.12011E+01 0.00000E+00
 -1       820 1.29900E+01 2.20250E+01 0.00000E+00
 -1       821 1.37010E+02 2.50250E+01 0.00000E+00
 -1       822 1.37010E+02 3.38250E+01 0.00000E+00
 -1       823 1.37010E+02 2.79250E+01 0.00000E+00
 -1       824 7.66242E+01 1.38981E+01 0.00000E+00
 -1       825 7.57840E+01 1.19298E+01 0.00000E+00
 -1       826 1.37010E+02 3.08750E+01 0.00000E+00
 -1       827 3.70350E+01 1.18003E+01 0.00000E+00
 -1       828 3.40350E+01 1.18003E+01 0.00000E+00
 -1       829 1.66500E+01 3.70100E+01 0.00000E+00
 -1       830 5.04671E+01 2.37324E+01 0.00000E+00
 -1       831 7.72991E+01 3.27243E+01 0.00000E+00
 -1       832 2.50350E+01 1.18003E+01 0.00000E+00
 -1       833 2.20350E+01 1.18003E+01 0.00000E+00
 -1       834 5.56868E+01 1.32016E+01 0.00000E+00
 -1       835 5.04135E+01 2.66868E+01 0.00000E+00
 -1       836 5.37097E+01 3.55819E+01 0.00000E+00
 -1       837 7.89420E+01 2.93801E+01 0.00000E+00
 -1       838 5.18151E+01 3.25957E+01 0.00000E+00
 -1       839 5.21149E+01 1.88858E+01 0.00000E+00
 -1       840 7.57181E+01 3.48331E+01 0.00000E+00
 -1       841 7.89025E+01 2.29702E+01 0.00000E+00
 -1       842 5.33343E+01 1.54859E+01 0.00000E+00
 -1       843 7.83841E+01 1.64524E+01 0.00000E+00
 -1       844 1.29900E+01 2.49750E+01 0.00000E+00
 -1       845 1.29900E+01 1.90875E+01 0.00000E+00
 -1       846 4.90130E+01 2.88633E+01 0.00000E+00
 -1       847 7.95899E+01 1.75354E+01 0.00000E+00
 -1       848 7.97406E+01 2.46438E+01 0.00000E+00
 -1       849 1.37010E+02 1.61875E+01 0.00000E+00
 -1       850 1.29900E+01 1.61437E+01 0.00000E+00
 -1       851 7.95524E+01 3.16231E+01 0.00000E+00
 -1       852 1.90350E+01 1.18003E+01 0.00000E+00
 -1       853 1.37010E+02 1.91375E+01 0.00000E+00
 -1       854 1.37010E+02 2.20812E+01 0.00000E+00
 -1       855 1.63988E+01 1.15007E+01 0.00000E+00
 -1       856 5.00214E+01 2.21738E+01 0.00000E+00
 -1       857 1.39652E+01 3.69017E+01 0.00000E+00
 -1       858 7.99865E+01 2.79554E+01 0.00000E+00
 -1       859 1.29900E+01 3.08563E+01 0.00000E+00
 -1       860 5.14525E+01 1.66545E+01 0.00000E+00
 -1       861 1.36637E+02 3.55285E+01 0.00000E+00
 -1       862 1.29900E+01 3.37938E+01 0.00000E+00
 -1       863 2.41500E+01 3.44120E+01 0.00000E+00
 -1       864 2.71500E+01 3.44120E+01 0.00000E+00
 -1       865 3.01500E+01 3.44120E+01 0.00000E+00
 -1       866 3.31500E+01 3.44120E+01 0.00000E+00
 -1       867 3.61500E+01 3.44120E+01 0.00000E+00
 -1       868 3.91500E+01 3.44120E+01 0.00000E+00
 -1       869 4.21500E+01 3.44120E+01 0.00000E+00
 -1       870 4.51500E+01 3.44120E+01 0.00000E+00
 -1       871 4.81500E+01 3.44120E+01 0.00000E+00
 -1       872 1.81500E+01 3.44120E+01 0.00000E+00
 -1       873 8.11500E+01 3.44120E+01 0.00000E+00
 -1       874 8.41500E+01 3.44120E+01 0.00000E+00
 -1       875 8.71500E+01 3.44120E+01 0.00000E+00
 -1       876 9.01500E+01 3.44120E+01 0.00000E+00
 -1       877 9.31500E+01 3.44120E+01 0.00000E+00
 -1       878 9.61500E+01 3.44120E+01 0.00000E+00
 -1       879 9.91500E+01 3.44120E+01 0.00000E+00
 -1       880 1.02150E+02 3.44120E+01 0.00000E+00
 -1       881 1.05150E+02 3.44120E+01 0.00000E+00
 -1       882 1.08150E+02 3.44120E+01 0.00000E+00
 -1       883 1.11150E+02 3.44120E+01 0.00000E+00
 -1       884 1.14150E+02 3.44120E+01 0.00000E+00
 -1       885 1.17150E+02 3.44120E+01 0.00000E+00
 -1       886 1.20150E+02 3.44120E+01 0.00000E+00
 -1       887 1.23150E+02 3.44120E+01 0.00000E+00
 -1       888 1.26150E+02 3.44120E+01 0.00000E+00
 -1       889 1.29150E+02 3.44120E+01 0.00000E+00
 -1       890 1.32150E+02 3.44120E+01 0.00000E+00
 -1       891 4.75350E+01 1.43982E+01 0.00000E+00
 -1       892 4.45350E+01 1.43982E+01 0.00000E+00
 -1       893 4.15350E+01 1.43982E+01 0.00000E+00
 -1       894 2.65350E+01 1.43982E+01 0.00000E+00
 -1       895 3.55350E+01 1.43982E+01 0.00000E+00
 -1       896 8.05350E+01 1.43982E+01 0.00000E+00
 -1       897 8.95350E+01 1.43982E+01 0.00000E+00
 -1       898 9.25350E+01 1.43982E+01 0.00000E+00
 -1       899 9.55350E+01 1.43982E+01 0.00000E+00
 -1       900 9.85350E+01 1.43982E+01 0.00000E+00
 -1       901 1.01535E+02 1.43982E+01 0.00000E+00
 -1       902 1.04535E+02 1.43982E+01 0.00000E+00
 -1       903 1.07535E+02 1.43982E+01 0.00000E+00
 -1       904 1.10535E+02 1.43982E+01 0.00000E+00
 -1       905 1.13535E+02 1.43982E+01 0.00000E+00
 -1       906 1.16535E+02 1.43982E+01 0.00000E+00
 -1       907 1.19535E+02 1.43982E+01 0.00000E+00
 -1       908 1.22535E+02 1.43982E+01 0.00000E+00
 -1       909 1.25535E+02 1.43982E+01 0.00000E+00
 -1       910 1.28535E+02 1.43982E+01 0.00000E+00
 -1       911 1.31535E+02 1.43982E+01 0.00000E+00
 -1       912 1.34535E+02 1.43982E+01 0.00000E+00
 -1       913 1.37449E+02 1.41049E+01 0.00000E+00
 -1       914 1.34412E+02 2.64750E+01 0.00000E+00
 -1       915 3.25350E+01 1.43982E+01 0.00000E+00
 -1       916 3.85350E+01 1.43982E+01 0.00000E+00
 -1       917 8.65350E+01 1.43982E+01 0.00000E+00
 -1       918 8.35350E+01 1.43982E+01 0.00000E+00
 -1       919 4.82229E+01 2.51694E+01 0.00000E+00
 -1       920 2.35350E+01 1.43982E+01 0.00000E+00
 -1       921 1.29900E+01 2.79188E+01 0.00000E+00
 -1       922 2.11500E+01 3.44120E+01 0.00000E+00
 -1       923 1.56263E+01 1.34996E+01 0.00000E+00
 -1       924 8.06660E+01 2.10624E+01 0.00000E+00
 -1       925 5.02499E+01 1.98825E+01 0.00000E+00
 -1       926 4.92576E+01 3.21206E+01 0.00000E+00
 -1       927 2.95350E+01 1.43982E+01 0.00000E+00
 -1       928 1.55880E+01 2.05562E+01 0.00000E+00
 -1       929 8.15041E+01 2.27360E+01 0.00000E+00
 -1       930 1.54652E+01 3.43037E+01 0.00000E+00
 -1       931 1.34412E+02 2.35313E+01 0.00000E+00
 -1       932 8.13872E+01 2.99192E+01 0.00000E+00
 -1       933 2.05350E+01 1.43982E+01 0.00000E+00
 -1       934 1.34394E+02 3.49702E+01 0.00000E+00
 -1       935 1.34412E+02 2.94250E+01 0.00000E+00
 -1       936 4.77772E+01 2.36108E+01 0.00000E+00
 -1       937 1.34535E+02 1.73482E+01 0.00000E+00
 -1       938 4.68224E+01 2.73459E+01 0.00000E+00
 -1       939 1.55880E+01 2.93875E+01 0.00000E+00
 -1       940 7.81500E+01 3.44570E+01 0.00000E+00
 -1       941 1.55880E+01 2.35063E+01 0.00000E+00
 -1       942 4.95874E+01 1.76512E+01 0.00000E+00
 -1       943 8.18724E+01 1.87765E+01 0.00000E+00
 -1       944 1.34580E+02 3.26435E+01 0.00000E+00
 -1       945 1.55880E+01 1.76125E+01 0.00000E+00
 -1       946 1.34412E+02 2.05875E+01 0.00000E+00
 -1       947 8.27037E+01 1.65874E+01 0.00000E+00
 -1       948 2.86500E+01 3.18140E+01 0.00000E+00
 -1       949 3.16500E+01 3.18140E+01 0.00000E+00
 -1       950 3.46500E+01 3.18140E+01 0.00000E+00
 -1       951 3.76500E+01 3.18140E+01 0.00000E+00
 -1       952 4.06500E+01 3.18140E+01 0.00000E+00
 -1       953 4.36500E+01 3.18140E+01 0.00000E+00
 -1       954 1.55880E+01 2.64469E+01 0.00000E+00
 -1       955 8.56500E+01 3.18140E+01 0.00000E+00
 -1       956 8.86500E+01 3.18140E+01 0.00000E+00
 -1       957 9.16500E+01 3.18140E+01 0.00000E+00
 -1       958 9.46500E+01 3.18140E+01 0.00000E+00
 -1       959 9.76500E+01 3.18140E+01 0.00000E+00
 -1       960 1.00650E+02 3.18140E+01 0.00000E+00
 -1       961 1.03650E+02 3.18140E+01 0.00000E+00
 -1       962 1.06650E+02 3.18140E+01 0.00000E+00
 -1       963 1.09650E+02 3.18140E+01 0.00000E+00
 -1       964 1.12650E+02 3.18140E+01 0.00000E+00
 -1       965 1.15650E+02 3.18140E+01 0.00000E+00
 -1       966 1.18650E+02 3.18140E+01 0.00000E+00
 -1       967 1.21650E+02 3.18140E+01 0.00000E+00
 -1       968 1.24650E+02 3.18140E+01 0.00000E+00
 -1       969 1.27650E+02 3.18140E+01 0.00000E+00
 -1       970 1.30650E+02 3.18140E+01 0.00000E+00
 -1       971 9.70350E+01 1.69963E+01 0.00000E+00
 -1       972 9.40350E+01 1.69963E+01 0.00000E+00
 -1       973 4.30350E+01 1.69963E+01 0.00000E+00
 -1       974 8.80350E+01 1.69963E+01 0.00000E+00
 -1       975 9.10350E+01 1.69963E+01 0.00000E+00
 -1       976 1.00035E+02 1.69963E+01 0.00000E+00
 -1       977 1.03035E+02 1.69963E+01 0.00000E+00
 -1       978 1.06035E+02 1.69963E+01 0.00000E+00
 -1       979 1.09035E+02 1.69963E+01 0.00000E+00
 -1       980 1.12035E+02 1.69963E+01 0.00000E+00
 -1       981 1.15035E+02 1.69963E+01 0.00000E+00
 -1       982 1.18035E+02 1.69963E+01 0.00000E+00
 -1       983 1.21035E+02 1.69963E+01 0.00000E+00
 -1       984 1.24035E+02 1.69963E+01 0.00000E+00
 -1       985 1.27035E+02 1.69963E+01 0.00000E+00
 -1       986 1.30035E+02 1.69963E+01 0.00000E+00
 -1       987 1.32285E+02 1.71723E+01 0.00000E+00
 -1       988 4.80955E+01 2.08247E+01 0.00000E+00
 -1       989 2.56500E+01 3.18140E+01 0.00000E+00
 -1       990 8.20931E+01 3.25191E+01 0.00000E+00
 -1       991 3.40350E+01 1.69963E+01 0.00000E+00
 -1       992 1.80806E+01 1.39489E+01 0.00000E+00
 -1       993 2.50350E+01 1.69963E+01 0.00000E+00
 -1       994 1.96500E+01 3.18140E+01 0.00000E+00
 -1       995 8.22424E+01 2.61229E+01 0.00000E+00
 -1       996 8.36431E+01 2.80867E+01 0.00000E+00
 -1       997 3.10350E+01 1.69963E+01 0.00000E+00
 -1       998 4.60350E+01 1.69963E+01 0.00000E+00
 -1       999 2.80350E+01 1.69963E+01 0.00000E+00
 -1      1000 2.26500E+01 3.18140E+01 0.00000E+00
 -1      1001 4.67566E+01 3.06705E+01 0.00000E+00
 -1      1002 8.27105E+01 2.04501E+01 0.00000E+00
 -1      1003 1.81860E+01 1.90844E+01 0.00000E+00
 -1      1004 1.31814E+02 2.50031E+01 0.00000E+00
 -1      1005 2.20350E+01 1.69963E+01 0.00000E+00
 -1      1006 3.70350E+01 1.69963E+01 0.00000E+00
 -1      1007 4.56575E+01 2.50575E+01 0.00000E+00
 -1      1008 1.81860E+01 2.20344E+01 0.00000E+00
 -1      1009 8.46465E+01 2.99504E+01 0.00000E+00
 -1      1010 4.00350E+01 1.69963E+01 0.00000E+00
 -1      1011 8.53693E+01 1.67918E+01 0.00000E+00
 -1      1012 1.31814E+02 2.79531E+01 0.00000E+00
 -1      1013 1.76190E+01 3.06007E+01 0.00000E+00
 -1      1014 1.76190E+01 2.76601E+01 0.00000E+00
 -1      1015 4.37158E+01 2.84894E+01 0.00000E+00
 -1      1016 1.31814E+02 2.20594E+01 0.00000E+00
 -1      1017 3.01500E+01 2.92160E+01 0.00000E+00
 -1      1018 3.31500E+01 2.92160E+01 0.00000E+00
 -1      1019 3.61500E+01 2.92160E+01 0.00000E+00
 -1      1020 3.91500E+01 2.92160E+01 0.00000E+00
 -1      1021 4.14329E+01 2.88527E+01 0.00000E+00
 -1      1022 1.32049E+02 1.96158E+01 0.00000E+00
 -1      1023 1.81860E+01 2.49750E+01 0.00000E+00
 -1      1024 8.76465E+01 2.99504E+01 0.00000E+00
 -1      1025 9.06465E+01 2.99504E+01 0.00000E+00
 -1      1026 9.36465E+01 2.99504E+01 0.00000E+00
 -1      1027 9.66465E+01 2.99504E+01 0.00000E+00
 -1      1028 9.96465E+01 2.99504E+01 0.00000E+00
 -1      1029 1.02647E+02 2.99504E+01 0.00000E+00
 -1      1030 1.05647E+02 2.99504E+01 0.00000E+00
 -1      1031 1.08647E+02 2.99504E+01 0.00000E+00
 -1      1032 1.11647E+02 2.99504E+01 0.00000E+00
 -1      1033 1.14647E+02 2.99504E+01 0.00000E+00
 -1      1034 1.17647E+02 2.99504E+01 0.00000E+00
 -1      1035 1.20647E+02 2.99504E+01 0.00000E+00
 -1      1036 1.23647E+02 2.99504E+01 0.00000E+00
 -1      1037 1.26647E+02 2.99504E+01 0.00000E+00
 -1      1038 1.29647E+02 2.99504E+01 0.00000E+00
 -1      1039 9.55350E+01 1.95942E+01 0.00000E+00
 -1      1040 1.01535E+02 1.95942E+01 0.00000E+00
 -1      1041 9.85350E+01 1.95942E+01 0.00000E+00
 -1      1042 2.65350E+01 1.95942E+01 0.00000E+00
 -1      1043 1.04535E+02 1.95942E+01 0.00000E+00
 -1      1044 8.50579E+01 2.55963E+01 0.00000E+00
 -1      1045 4.57329E+01 2.19660E+01 0.00000E+00
 -1      1046 1.07535E+02 1.95942E+01 0.00000E+00
 -1      1047 1.10535E+02 1.95942E+01 0.00000E+00
 -1      1048 1.13535E+02 1.95942E+01 0.00000E+00
 -1      1049 1.16535E+02 1.95942E+01 0.00000E+00
 -1      1050 1.19535E+02 1.95942E+01 0.00000E+00
 -1      1051 1.22535E+02 1.95942E+01 0.00000E+00
 -1      1052 1.25535E+02 1.95942E+01 0.00000E+00
 -1      1053 1.28535E+02 1.95942E+01 0.00000E+00
 -1      1054 2.71500E+01 2.92160E+01 0.00000E+00
 -1      1055 4.45350E+01 1.95942E+01 0.00000E+00
 -1      1056 3.25350E+01 1.95942E+01 0.00000E+00
 -1      1057 1.96500E+01 2.88734E+01 0.00000E+00
 -1      1058 8.38842E+01 2.30232E+01 0.00000E+00
 -1      1059 2.95350E+01 1.95942E+01 0.00000E+00
 -1      1060 2.41500E+01 2.92160E+01 0.00000E+00
 -1      1061 1.29216E+02 2.35313E+01 0.00000E+00
 -1      1062 4.15350E+01 1.95942E+01 0.00000E+00
 -1      1063 8.95350E+01 1.95942E+01 0.00000E+00
 -1      1064 8.60613E+01 2.74599E+01 0.00000E+00
 -1      1065 2.35350E+01 1.95942E+01 0.00000E+00
 -1      1066 4.26105E+01 2.55988E+01 0.00000E+00
 -1      1067 2.07840E+01 2.05594E+01 0.00000E+00
 -1      1068 3.55350E+01 1.95942E+01 0.00000E+00
 -1      1069 8.68693E+01 1.93898E+01 0.00000E+00
 -1      1070 4.35728E+01 2.25965E+01 0.00000E+00
 -1      1071 9.25350E+01 1.95942E+01 0.00000E+00
 -1      1072 1.29216E+02 2.64813E+01 0.00000E+00
 -1      1073 8.40399E+01 1.86209E+01 0.00000E+00
 -1      1074 3.16500E+01 2.66180E+01 0.00000E+00
 -1      1075 1.00035E+02 2.21922E+01 0.00000E+00
 -1      1076 3.46500E+01 2.66180E+01 0.00000E+00
 -1      1077 3.76500E+01 2.66180E+01 0.00000E+00
 -1      1078 8.90613E+01 2.74599E+01 0.00000E+00
 -1      1079 9.20613E+01 2.74599E+01 0.00000E+00
 -1      1080 9.50613E+01 2.74599E+01 0.00000E+00
 -1      1081 9.80613E+01 2.74599E+01 0.00000E+00
 -1      1082 1.01061E+02 2.74599E+01 0.00000E+00
 -1      1083 1.04061E+02 2.74599E+01 0.00000E+00
 -1      1084 1.07061E+02 2.74599E+01 0.00000E+00
 -1      1085 1.10061E+02 2.74599E+01 0.00000E+00
 -1      1086 1.13061E+02 2.74599E+01 0.00000E+00
 -1      1087 1.16061E+02 2.74599E+01 0.00000E+00
 -1      1088 1.19061E+02 2.74599E+01 0.00000E+00
 -1      1089 1.22061E+02 2.74599E+01 0.00000E+00
 -1      1090 1.25061E+02 2.74599E+01 0.00000E+00
 -1      1091 2.80350E+01 2.21922E+01 0.00000E+00
 -1      1092 9.70350E+01 2.21922E+01 0.00000E+00
 -1      1093 1.03035E+02 2.21922E+01 0.00000E+00
 -1      1094 1.12035E+02 2.21922E+01 0.00000E+00
 -1      1095 1.06035E+02 2.21922E+01 0.00000E+00
 -1      1096 1.15035E+02 2.21922E+01 0.00000E+00
 -1      1097 1.18035E+02 2.21922E+01 0.00000E+00
 -1      1098 1.21035E+02 2.21922E+01 0.00000E+00
 -1      1099 1.24035E+02 2.21922E+01 0.00000E+00
 -1      1100 2.07840E+01 2.35000E+01 0.00000E+00
 -1      1101 2.02170E+01 2.61882E+01 0.00000E+00
 -1      1102 2.86500E+01 2.66180E+01 0.00000E+00
 -1      1103 1.09035E+02 2.21922E+01 0.00000E+00
 -1      1104 3.85350E+01 1.95942E+01 0.00000E+00
 -1      1105 3.10350E+01 2.21922E+01 0.00000E+00
 -1      1106 2.56500E+01 2.66180E+01 0.00000E+00
 -1      1107 2.29335E+01 2.64031E+01 0.00000E+00
 -1      1108 9.10350E+01 2.21922E+01 0.00000E+00
 -1      1109 2.50350E+01 2.21922E+01 0.00000E+00
 -1      1110 3.99329E+01 2.62547E+01 0.00000E+00
 -1      1111 8.80579E+01 2.55963E+01 0.00000E+00
 -1      1112 9.40350E+01 2.21922E+01 0.00000E+00
 -1      1113 1.27035E+02 2.21922E+01 0.00000E+00
 -1      1114 8.83693E+01 2.19878E+01 0.00000E+00
 -1      1115 1.26626E+02 2.43368E+01 0.00000E+00
 -1      1116 4.08951E+01 2.32524E+01 0.00000E+00
 -1      1117 3.40350E+01 2.21922E+01 0.00000E+00
 -1      1118 8.52136E+01 2.11940E+01 0.00000E+00
 -1      1119 8.66357E+01 2.33951E+01 0.00000E+00
 -1      1120 2.29095E+01 2.28461E+01 0.00000E+00
 -1      1121 3.86122E+01 2.36157E+01 0.00000E+00
 -1      1122 9.85350E+01 2.47903E+01 0.00000E+00
 -1      1123 9.10579E+01 2.55963E+01 0.00000E+00
 -1      1124 9.40579E+01 2.55963E+01 0.00000E+00
 -1      1125 1.02561E+02 2.48619E+01 0.00000E+00
 -1      1126 1.05561E+02 2.48619E+01 0.00000E+00
 -1      1127 1.08561E+02 2.48619E+01 0.00000E+00
 -1      1128 1.11561E+02 2.48619E+01 0.00000E+00
 -1      1129 1.14561E+02 2.48619E+01 0.00000E+00
 -1      1130 1.17561E+02 2.48619E+01 0.00000E+00
 -1      1131 1.20561E+02 2.48619E+01 0.00000E+00
 -1      1132 1.23593E+02 2.45993E+01 0.00000E+00
 -1      1133 3.61500E+01 2.40200E+01 0.00000E+00
 -1      1134 0.00000E+00 4.85250E+01 0.00000E+00
 -1      1135 0.00000E+00 4.55750E+01 0.00000E+00
 -1      1136 0.00000E+00 4.26250E+01 0.00000E+00
 -1      1137 0.00000E+00 3.96750E+01 0.00000E+00
 -1      1138 0.00000E+00 3.67250E+01 0.00000E+00
 -1      1139 0.00000E+00 3.38000E+01 0.00000E+00
 -1      1140 0.00000E+00 3.08750E+01 0.00000E+00
 -1      1141 0.00000E+00 2.79250E+01 0.00000E+00
 -1      1142 0.00000E+00 2.49750E+01 0.00000E+00
 -1      1143 0.00000E+00 2.20250E+01 0.00000E+00
 -1      1144 0.00000E+00 1.90750E+01 0.00000E+00
 -1      1145 0.00000E+00 1.61500E+01 0.00000E+00
 -1      1146 0.00000E+00 1.32250E+01 0.00000E+00
 -1      1147 0.00000E+00 1.02750E+01 0.00000E+00
 -1      1148 0.00000E+00 7.32500E+00 0.00000E+00
 -1      1149 0.00000E+00 4.37500E+00 0.00000E+00
 -1      1150 0.00000E+00 1.45000E+00 0.00000E+00
 -1      1151 1.57500E+00 5.00000E+01 0.00000E+00
 -1      1152 4.65000E+00 5.00000E+01 0.00000E+00
 -1      1153 7.65000E+00 5.00000E+01 0.00000E+00
 -1      1154 1.06500E+01 5.00000E+01 0.00000E+00
 -1      1155 1.36500E+01 5.00000E+01 0.00000E+00
 -1      1156 1.66500E+01 5.00000E+01 0.00000E+00
 -1      1157 1.96500E+01 5.00000E+01 0.00000E+00
 -1      1158 2.26500E+01 5.00000E+01 0.00000E+00
 -1      1159 2.56500E+01 5.00000E+01 0.00000E+00
 -1      1160 2.86500E+01 5.00000E+01 0.00000E+00
 -1      1161 3.16500E+01 5.00000E+01 0.00000E+00
 -1      1162 3.46500E+01 5.00000E+01 0.00000E+00
 -1      1163 3.76500E+01 5.00000E+01 0.00000E+00
 -1      1164 4.06500E+01 5.00000E+01 0.00000E+00
 -1      1165 4.36500E+01 5.00000E+01 0.00000E+00
 -1      1166 4.66500E+01 5.00000E+01 0.00000E+00
 -1      1167 4.96500E+01 5.00000E+01 0.00000E+00
 -1      1168 5.26500E+01 5.00000E+01 0.00000E+00
 -1      1169 5.56500E+01 5.00000E+01 0.00000E+00
 -1      1170 5.86500E+01 5.00000E+01 0.00000E+00
 -1      1171 6.16500E+01 5.00000E+01 0.00000E+00
 -1      1172 6.46500E+01 5.00000E+01 0.00000E+00
 -1      1173 6.76500E+01 5.00000E+01 0.00000E+00
 -1      1174 7.06500E+01 5.00000E+01 0.00000E+00
 -1      1175 7.36500E+01 5.00000E+01 0.00000E+00
 -1      1176 7.66500E+01 5.00000E+01 0.00000E+00
 -1      1177 7.96500E+01 5.00000E+01 0.00000E+00
 -1      1178 8.26500E+01 5.00000E+01 0.00000E+00
 -1      1179 8.56500E+01 5.00000E+01 0.00000E+00
 -1      1180 8.86500E+01 5.00000E+01 0.00000E+00
 -1      1181 9.16500E+01 5.00000E+01 0.00000E+00
 -1      1182 9.46500E+01 5.00000E+01 0.00000E+00
 -1      1183 9.76500E+01 5.00000E+01 0.00000E+00
 -1      1184 1.00650E+02 5.00000E+01 0.00000E+00
 -1      1185 1.03650E+02 5.00000E+01 0.00000E+00
 -1      1186 1.06650E+02 5.00000E+01 0.00000E+00
 -1      1187 1.09650E+02 5.00000E+01 0.00000E+00
 -1      1188 1.12650E+02 5.00000E+01 0.00000E+00
 -1      1189 1.15650E+02 5.00000E+01 0.00000E+00
 -1      1190 1.18650E+02 5.00000E+01 0.00000E+00
 -1      1191 1.21650E+02 5.00000E+01 0.00000E+00
 -1      1192 1.24650E+02 5.00000E+01 0.00000E+00
 -1      1193 1.27650E+02 5.00000E+01 0.00000E+00
 -1      1194 1.30650E+02 5.00000E+01 0.00000E+00
 -1      1195 1.33650E+02 5.00000E+01 0.00000E+00
 -1      1196 1.36650E+02 5.00000E+01 0.00000E+00
 -1      1197 1.39650E+02 5.00000E+01 0.00000E+00
 -1      1198 1.42650E+02 5.00000E+01 0.00000E+00
 -1      1199 1.45650E+02 5.00000E+01 0.00000E+00
 -1      1200 1.48575E+02 5.00000E+01 0.00000E+00
 -1      1201 1.57500E+00 0.00000E+00 0.00000E+00
 -1      1202 4.65000E+00 0.00000E+00 0.00000E+00
 -1      1203 7.65000E+00 0.00000E+00 0.00000E+00
 -1      1204 1.06500E+01 0.00000E+00 0.00000E+00
 -1      1205 1.36500E+01 0.00000E+00 0.00000E+00
 -1      1206 1.66500E+01 0.00000E+00 0.00000E+00
 -1      1207 1.96500E+01 0.00000E+00 0.00000E+00
 -1      1208 2.26500E+01 0.00000E+00 0.00000E+00
 -1      1209 2.56500E+01 0.00000E+00 0.00000E+00
 -1      1210 2.86500E+01 0.00000E+00 0.00000E+00
 -1      1211 3.16500E+01 0.00000E+00 0.00000E+00
 -1      1212 3.46500E+01 0.00000E+00 0.00000E+00
 -1      1213 3.76500E+01 0.00000E+00 0.00000E+00
 -1      1214 4.06500E+01 0.00000E+00 0.00000E+00
 -1      1215 4.36500E+01 0.00000E+00 0.00000E+00
 -1      1216 4.66500E+01 0.00000E+00 0.00000E+00
 -1      1217 4.96500E+01 0.00000E+00 0.00000E+00
 -1      1218 5.26500E+01 0.00000E+00 0.00000E+00
 -1      1219 5.56500E+01 0.00000E+00 0.00000E+00
 -1      1220 5.86500E+01 0.00000E+00 0.00000E+00
 -1      1221 6.16500E+01 0.00000E+00 0.00000E+00
 -1      1222 6.46500E+01 0.00000E+00 0.00000E+00
 -1      1223 6.76500E+01 0.00000E+00 0.00000E+00
 -1      1224 7.06500E+01 0.00000E+00 0.00000E+00
 -1      1225 7.36500E+01 0.00000E+00 0.00000E+00
 -1      1226 7.66500E+01 0.00000E+00 0.00000E+00
 -1      1227 7.96500E+01 0.00000E+00 0.00000E+00
 -1      1228 8.26500E+01 0.00000E+00 0.00000E+00
 -1      1229 8.56500E+01 0.00000E+00 0.00000E+00
 -1      1230 8.86500E+01 0.00000E+00 0.00000E+00
 -1      1231 9.16500E+01 0.00000E+00 0.00000E+00
 -1      1232 9.46500E+01 0.00000E+00 0.00000E+00
 -1      1233 9.76500E+01 0.00000E+00 0.00000E+00
 -1      1234 1.00650E+02 0.00000E+00 0.00000E+00
 -1      1235 1.03650E+02 0.00000E+00 0.00000E+00
 -1      1236 1.06650E+02 0.00000E+00 0.00000E+00
 -1      1237 1.09650E+02 0.00000E+00 0.00000E+00
 -1      1238 1.12650E+02 0.00000E+00 0.00000E+00
 -1      1239 1.15650E+02 0.00000E+00 0.00000E+00
 -1      1240 1.18650E+02 0.00000E+00 0.00000E+00
 -1      1241 1.21650E+02 0.00000E+00 0.00000E+00
 -1      1242 1.24650E+02 0.00000E+00 0.00000E+00
 -1      1243 1.27650E+02 0.00000E+00 0.00000E+00
 -1      1244 1.30650E+02 0.00000E+00 0.00000E+00
 -1      1245 1.33650E+02 0.00000E+00 0.00000E+00
 -1      1246 1.36650E+02 0.00000E+00 0.00000E+00
 -1      1247 1.39650E+02 0.00000E+00 0.00000E+00
 -1      1248 1.42650E+02 0.00000E+00 0.00000E+00
 -1      1249 1.45650E+02 0.00000E+00 0.00000E+00
 -1      1250 1.48575E+02 0.00000E+00 0.00000E+00
 -1      1251 1.50000E+02 1.47500E+00 0.00000E+00
 -1      1252 1.50000E+02 4.42500E+00 0.00000E+00
 -1      1253 1.50000E+02 7.37500E+00 0.00000E+00
 -1      1254 1.50000E+02 1.03250E+01 0.00000E+00
 -1      1255 1.50000E+02 1.32750E+01 0.00000E+00
 -1      1256 1.50000E+02 1.62000E+01 0.00000E+00
 -1      1257 1.50000E+02 1.91250E+01 0.00000E+00
 -1      1258 1.50000E+02 2.20750E+01 0.00000E+00
 -1      1259 1.50000E+02 2.50250E+01 0.00000E+00
 -1      1260 1.50000E+02 2.79750E+01 0.00000E+00
 -1      1261 1.50000E+02 3.09250E+01 0.00000E+00
 -1      1262 1.50000E+02 3.38500E+01 0.00000E+00
 -1      1263 1.50000E+02 3.67750E+01 0.00000E+00
 -1      1264 1.50000E+02 3.97250E+01 0.00000E+00
 -1      1265 1.50000E+02 4.26750E+01 0.00000E+00
 -1      1266 1.50000E+02 4.56250E+01 0.00000E+00
 -1      1267 1.50000E+02 4.85500E+01 0.00000E+00
 -1      1268 7.20078E+01 2.37562E+01 0.00000E+00
 -1      1269 7.16766E+01 2.22882E+01 0.00000E+00
 -1      1270 7.10705E+01 2.09771E+01 0.00000E+00
 -1      1271 7.02041E+01 1.98138E+01 0.00000E+00
 -1      1272 6.91410E+01 1.88716E+01 0.00000E+00
 -1      1273 6.78866E+01 1.81531E+01 0.00000E+00
 -1      1274 6.64190E+01 1.76886E+01 0.00000E+00
 -1      1275 6.48931E+01 1.75560E+01 0.00000E+00
 -1      1276 6.33819E+01 1.77567E+01 0.00000E+00
 -1      1277 6.19178E+01 1.82958E+01 0.00000E+00
 -1      1278 6.06451E+01 1.91166E+01 0.00000E+00
 -1      1279 5.96209E+01 2.01398E+01 0.00000E+00
 -1      1280 5.88168E+01 2.13754E+01 0.00000E+00
 -1      1281 5.82893E+01 2.27524E+01 0.00000E+00
 -1      1282 5.80649E+01 2.41541E+01 0.00000E+00
 -1      1283 5.81360E+01 2.56258E+01 0.00000E+00
 -1      1284 5.85105E+01 2.70419E+01 0.00000E+00
 -1      1285 5.91661E+01 2.83409E+01 0.00000E+00
 -1      1286 6.01225E+01 2.95227E+01 0.00000E+00
 -1      1287 6.13423E+01 3.04894E+01 0.00000E+00
 -1      1288 6.27653E+01 3.11696E+01 0.00000E+00
 -1      1289 6.42504E+01 3.15079E+01 0.00000E+00
 -1      1290 6.57253E+01 3.15219E+01 0.00000E+00
 -1      1291 6.72420E+01 3.12032E+01 0.00000E+00
 -1      1292 6.86782E+01 3.05426E+01 0.00000E+00
 -1      1293 6.99181E+01 2.95876E+01 0.00000E+00
 -1      1294 7.09156E+01 2.83798E+01 0.00000E+00
 -1      1295 7.16295E+01 2.69532E+01 0.00000E+00
 -1      1296 7.20059E+01 2.53687E+01 0.00000E+00
 -1      1297 1.57500E+00 4.85250E+01 0.00000E+00
 -1      1298 1.29900E+00 4.48375E+01 0.00000E+00
 -1      1299 1.29900E+00 4.63125E+01 0.00000E+00
 -1      1300 1.29900E+00 4.18875E+01 0.00000E+00
 -1      1301 1.29900E+00 4.33625E+01 0.00000E+00
 -1      1302 2.59800E+00 4.41000E+01 0.00000E+00
 -1      1303 1.29900E+00 3.89375E+01 0.00000E+00
 -1      1304 1.29900E+00 4.04125E+01 0.00000E+00
 -1      1305 2.59800E+00 4.11500E+01 0.00000E+00
 -1      1306 1.29900E+00 3.59875E+01 0.00000E+00
 -1      1307 1.29900E+00 3.74625E+01 0.00000E+00
 -1      1308 2.59800E+00 3.82000E+01 0.00000E+00
 -1      1309 1.29900E+00 3.30875E+01 0.00000E+00
 -1      1310 1.29900E+00 3.45375E+01 0.00000E+00
 -1      1311 2.59800E+00 3.52750E+01 0.00000E+00
 -1      1312 1.29900E+00 3.01375E+01 0.00000E+00
 -1      1313 1.29900E+00 3.16125E+01 0.00000E+00
 -1      1314 2.59800E+00 3.23500E+01 0.00000E+00
 -1      1315 1.29900E+00 2.71875E+01 0.00000E+00
 -1      1316 1.29900E+00 2.86625E+01 0.00000E+00
 -1      1317 2.59800E+00 2.94000E+01 0.00000E+00
 -1      1318 1.29900E+00 2.42375E+01 0.00000E+00
 -1      1319 1.29900E+00 2.57125E+01 0.00000E+00
 -1      1320 2.59800E+00 2.64500E+01 0.00000E+00
 -1      1321 1.29900E+00 2.12875E+01 0.00000E+00
 -1      1322 1.29900E+00 2.27625E+01 0.00000E+00
 -1      1323 2.59800E+00 2.35000E+01 0.00000E+00
 -1      1324 1.29900E+00 1.83375E+01 0.00000E+00
 -1      1325 1.29900E+00 1.98125E+01 0.00000E+00
 -1      1326 2.59800E+00 2.05500E+01 0.00000E+00
 -1      1327 1.29900E+00 1.54375E+01 0.00000E+00
 -1      1328 1.29900E+00 1.68875E+01 0.00000E+00
 -1      1329 2.59800E+00 1.76250E+01 0.00000E+00
 -1      1330 1.29900E+00 1.24875E+01 0.00000E+00
 -1      1331 1.29900E+00 1.39625E+01 0.00000E+00
 -1      1332 2.59800E+00 1.47000E+01 0.00000E+00
 -1      1333 1.29900E+00 9.53750E+00 0.00000E+00
 -1      1334 1.29900E+00 1.10125E+01 0.00000E+00
 -1      1335 2.59800E+00 1.17500E+01 0.00000E+00
 -1      1336 1.29900E+00 6.58750E+00 0.00000E+00
 -1      1337 1.29900E+00 8.06250E+00 0.00000E+00
 -1      1338 2.59800E+00 8.80000E+00 0.00000E+00
 -1      1339 1.29900E+00 3.63750E+00 0.00000E+00
 -1      1340 1.29900E+00 5.11250E+00 0.00000E+00
 -1      1341 2.59800E+00 5.85000E+00 0.00000E+00
 -1      1342 1.43700E+00 1.09375E+00 0.00000E+00
 -1      1343 1.43700E+00 2.54375E+00 0.00000E+00
 -1      1344 2.73600E+00 3.28125E+00 0.00000E+00
 -1      1345 3.01200E+00 1.09375E+00 0.00000E+00
 -1      1346 3.90000E+00 4.87010E+01 0.00000E+00
 -1      1347 5.40000E+00 4.87010E+01 0.00000E+00
 -1      1348 6.90000E+00 4.87010E+01 0.00000E+00
 -1      1349 8.40000E+00 4.87010E+01 0.00000E+00
 -1      1350 6.15000E+00 4.74020E+01 0.00000E+00
 -1      1351 9.90000E+00 4.87010E+01 0.00000E+00
 -1      1352 1.14000E+01 4.87010E+01 0.00000E+00
 -1      1353 9.15000E+00 4.74020E+01 0.00000E+00
 -1      1354 1.29000E+01 4.87010E+01 0.00000E+00
 -1      1355 1.44000E+01 4.87010E+01 0.00000E+00
 -1      1356 1.21500E+01 4.74020E+01 0.00000E+00
 -1      1357 1.59000E+01 4.87010E+01 0.00000E+00
 -1      1358 1.74000E+01 4.87010E+01 0.00000E+00
 -1      1359 1.51500E+01 4.74020E+01 0.00000E+00
 -1      1360 1.89000E+01 4.87010E+01 0.00000E+00
 -1      1361 2.04000E+01 4.87010E+01 0.00000E+00
 -1      1362 1.81500E+01 4.74020E+01 0.00000E+00
 -1      1363 2.19000E+01 4.87010E+01 0.00000E+00
 -1      1364 2.34000E+01 4.87010E+01 0.00000E+00
 -1      1365 2.11500E+01 4.74020E+01 0.00000E+00
 -1      1366 2.49000E+01 4.87010E+01 0.00000E+00
 -1      1367 2.64000E+01 4.87010E+01 0.00000E+00
 -1      1368 2.41500E+01 4.74020E+01 0.00000E+00
 -1      1369 2.79000E+01 4.87010E+01 0.00000E+00
 -1      1370 2.94000E+01 4.87010E+01 0.00000E+00
 -1      1371 2.71500E+01 4.74020E+01 0.00000E+00
 -1      1372 3.09000E+01 4.87010E+01 0.00000E+00
 -1      1373 3.24000E+01 4.87010E+01 0.00000E+00
 -1      1374 3.01500E+01 4.74020E+01 0.00000E+00
 -1      1375 3.39000E+01 4.87010E+01 0.00000E+00
 -1      1376 3.54000E+01 4.87010E+01 0.00000E+00
 -1      1377 3.31500E+01 4.74020E+01 0.00000E+00
 -1      1378 3.69000E+01 4.87010E+01 0.00000E+00
 -1      1379 3.84000E+01 4.87010E+01 0.00000E+00
 -1      1380 3.61500E+01 4.74020E+01 0.00000E+00
 -1      1381 3.99000E+01 4.87010E+01 0.00000E+00
 -1      1382 4.14000E+01 4.87010E+01 0.00000E+00
 -1      1383 3.91500E+01 4.74020E+01 0.00000E+00
 -1      1384 4.29000E+01 4.87010E+01 0.00000E+00
 -1      1385 4.44000E+01 4.87010E+01 0.00000E+00
 -1      1386 4.21500E+01 4.74020E+01 0.00000E+00
 -1      1387 4.59000E+01 4.87010E+01 0.00000E+00
 -1      1388 4.74000E+01 4.87010E+01 0.00000E+00
 -1      1389 4.51500E+01 4.74020E+01 0.00000E+00
 -1      1390 4.89000E+01 4.87010E+01 0.00000E+00
 -1      1391 5.04000E+01 4.87010E+01 0.00000E+00
 -1      1392 4.81500E+01 4.74020E+01 0.00000E+00
 -1      1393 5.19000E+01 4.87010E+01 0.00000E+00
 -1      1394 5.34000E+01 4.87010E+01 0.00000E+00
 -1      1395 5.11500E+01 4.74020E+01 0.00000E+00
 -1      1396 5.49000E+01 4.87010E+01 0.00000E+00
 -1      1397 5.64000E+01 4.87010E+01 0.00000E+00
 -1      1398 5.41500E+01 4.74020E+01 0.00000E+00
 -1      1399 5.79000E+01 4.87010E+01 0.00000E+00
 -1      1400 5.94000E+01 4.87010E+01 0.00000E+00
 -1      1401 5.71500E+01 4.74020E+01 0.00000E+00
 -1      1402 6.09000E+01 4.87010E+01 0.00000E+00
 -1      1403 6.24000E+01 4.87010E+01 0.00000E+00
 -1      1404 6.01500E+01 4.74020E+01 0.00000E+00
 -1      1405 6.39000E+01 4.87010E+01 0.00000E+00
 -1      1406 6.54000E+01 4.87010E+01 0.00000E+00
 -1      1407 6.31500E+01 4.74020E+01 0.00000E+00
 -1      1408 6.69000E+01 4.87010E+01 0.00000E+00
 -1      1409 6.84000E+01 4.87010E+01 0.00000E+00
 -1      1410 6.61500E+01 4.74020E+01 0.00000E+00
 -1      1411 6.99000E+01 4.87010E+01 0.00000E+00
 -1      1412 7.14000E+01 4.87010E+01 0.00000E+00
 -1      1413 6.91500E+01 4.74020E+01 0.00000E+00
 -1      1414 7.29000E+01 4.87010E+01 0.00000E+00
 -1      1415 7.44000E+01 4.87010E+01 0.00000E+00
 -1      1416 7.21500E+01 4.74020E+01 0.00000E+00
 -1      1417 7.59000E+01 4.87010E+01 0.00000E+00
 -1      1418 7.74000E+01 4.87010E+01 0.00000E+00
 -1      1419 7.51500E+01 4.74020E+01 0.00000E+00
 -1      1420 7.89000E+01 4.87010E+01 0.00000E+00
 -1      1421 8.04000E+01 4.87010E+01 0.00000E+00
 -1      1422 7.81500E+01 4.74020E+01 0.00000E+00
 -1      1423 8.19000E+01 4.87010E+01 0.00000E+00
 -1      1424 8.34000E+01 4.87010E+01 0.00000E+00
 -1      1425 8.11500E+01 4.74020E+01 0.00000E+00
 -1      1426 8.49000E+01 4.87010E+01 0.00000E+00
 -1      1427 8.64000E+01 4.87010E+01 0.00000E+00
 -1      1428 8.41500E+01 4.74020E+01 0.00000E+00
 -1      1429 8.79000E+01 4.87010E+01 0.00000E+00
 -1      1430 8.94000E+01 4.87010E+01 0.00000E+00
 -1      1431 8.71500E+01 4.74020E+01 0.00000E+00
 -1      1432 9.09000E+01 4.87010E+01 0.00000E+00
 -1      1433 9.24000E+01 4.87010E+01 0.00000E+00
 -1      1434 9.01500E+01 4.74020E+01 0.00000E+00
 -1      1435 9.39000E+01 4.87010E+01 0.00000E+00
 -1      1436 9.54000E+01 4.87010E+01 0.00000E+00
 -1      1437 9.31500E+01 4.74020E+01 0.00000E+00
 -1      1438 9.69000E+01 4.87010E+01 0.00000E+00
 -1      1439 9.84000E+01 4.87010E+01 0.00000E+00
 -1      1440 9.61500E+01 4.74020E+01 0.00000E+00
 -1      1441 9.99000E+01 4.87010E+01 0.00000E+00
 -1      1442 1.01400E+02 4.87010E+01 0.00000E+00
 -1      1443 9.91500E+01 4.74020E+01 0.00000E+00
 -1      1444 1.02900E+02 4.87010E+01 0.00000E+00
 -1      1445 1.04400E+02 4.87010E+01 0.00000E+00
 -1      1446 1.02150E+02 4.74020E+01 0.00000E+00
 -1      1447 1.05900E+02 4.87010E+01 0.00000E+00
 -1      1448 1.07400E+02 4.87010E+01 0.00000E+00
 -1      1449 1.05150E+02 4.74020E+01 0.00000E+00
 -1      1450 1.08900E+02 4.87010E+01 0.00000E+00
 -1      1451 1.10400E+02 4.87010E+01 0.00000E+00
 -1      1452 1.08150E+02 4.74020E+01 0.00000E+00
 -1      1453 1.11900E+02 4.87010E+01 0.00000E+00
 -1      1454 1.13400E+02 4.87010E+01 0.00000E+00
 -1      1455 1.11150E+02 4.74020E+01 0.00000E+00
 -1      1456 1.14900E+02 4.87010E+01 0.00000E+00
 -1      1457 1.16400E+02 4.87010E+01 0.00000E+00
 -1      1458 1.14150E+02 4.74020E+01 0.00000E+00
 -1      1459 1.17900E+02 4.87010E+01 0.00000E+00
 -1      1460 1.19400E+02 4.87010E+01 0.00000E+00
 -1      1461 1.17150E+02 4.74020E+01 0.00000E+00
 -1      1462 1.20900E+02 4.87010E+01 0.00000E+00
 -1      1463 1.22400E+02 4.87010E+01 0.00000E+00
 -1      1464 1.20150E+02 4.74020E+01 0.00000E+00
 -1      1465 1.23900E+02 4.87010E+01 0.00000E+00
 -1      1466 1.25400E+02 4.87010E+01 0.00000E+00
 -1      1467 1.23150E+02 4.74020E+01 0.00000E+00
 -1      1468 1.26900E+02 4.87010E+01 0.00000E+00
 -1      1469 1.28400E+02 4.87010E+01 0.00000E+00
 -1      1470 1.26150E+02 4.74020E+01 0.00000E+00
 -1      1471 1.29900E+02 4.87010E+01 0.00000E+00
 -1      1472 1.31400E+02 4.87010E+01 0.00000E+00
 -1      1473 1.29150E+02 4.74020E+01 0.00000E+00
 -1      1474 1.32900E+02 4.87010E+01 0.00000E+00
 -1      1475 1.34400E+02 4.87010E+01 0.00000E+00
 -1      1476 1.32150E+02 4.74020E+01 0.00000E+00
 -1      1477 1.35900E+02 4.87010E+01 0.00000E+00
 -1      1478 1.37400E+02 4.87010E+01 0.00000E+00
 -1      1479 1.35150E+02 4.74020E+01 0.00000E+00
 -1      1480 1.38900E+02 4.87010E+01 0.00000E+00
 -1      1481 1.40400E+02 4.87010E+01 0.00000E+00
 -1      1482 1.38150E+02 4.74020E+01 0.00000E+00
 -1      1483 1.41900E+02 4.87010E+01 0.00000E+00
 -1      1484 1.43400E+02 4.87010E+01 0.00000E+00
 -1      1485 1.41150E+02 4.74020E+01 0.00000E+00
 -1      1486 1.44900E+02 4.87010E+01 0.00000E+00
 -1      1487 1.46400E+02 4.87010E+01 0.00000E+00
 -1      1488 1.44150E+02 4.74020E+01 0.00000E+00
 -1      1489 1.48575E+02 4.85500E+01 0.00000E+00
 -1      1490 1.47825E+02 4.72510E+01 0.00000E+00
 -1      1491 6.01200E+00 1.09375E+00 0.00000E+00
 -1      1492 4.51200E+00 1.09375E+00 0.00000E+00
 -1      1493 4.37400E+00 2.18750E+00 0.00000E+00
 -1      1494 9.01200E+00 1.09375E+00 0.00000E+00
 -1      1495 7.51200E+00 1.09375E+00 0.00000E+00
 -1      1496 7.37400E+00 2.18750E+00 0.00000E+00
 -1      1497 1.20120E+01 1.09375E+00 0.00000E+00
 -1      1498 1.05120E+01 1.09375E+00 0.00000E+00
 -1      1499 1.03740E+01 2.18750E+00 0.00000E+00
 -1      1500 1.50120E+01 1.09375E+00 0.00000E+00
 -1      1501 1.35120E+01 1.09375E+00 0.00000E+00
 -1      1502 1.33740E+01 2.18750E+00 0.00000E+00
 -1      1503 1.80120E+01 1.09375E+00 0.00000E+00
 -1      1504 1.65120E+01 1.09375E+00 0.00000E+00
 -1      1505 1.63740E+01 2.18750E+00 0.00000E+00
 -1      1506 2.10120E+01 1.09375E+00 0.00000E+00
 -1      1507 1.95120E+01 1.09375E+00 0.00000E+00
 -1      1508 1.93740E+01 2.18750E+00 0.00000E+00
 -1      1509 2.40120E+01 1.09375E+00 0.00000E+00
 -1      1510 2.25120E+01 1.09375E+00 0.00000E+00
 -1      1511 2.23740E+01 2.18750E+00 0.00000E+00
 -1      1512 2.70120E+01 1.09375E+00 0.00000E+00
 -1      1513 2.55120E+01 1.09375E+00 0.00000E+00
 -1      1514 2.53740E+01 2.18750E+00 0.00000E+00
 -1      1515 3.00120E+01 1.09375E+00 0.00000E+00
 -1      1516 2.85120E+01 1.09375E+00 0.00000E+00
 -1      1517 2.83740E+01 2.18750E+00 0.00000E+00
 -1      1518 3.30120E+01 1.09375E+00 0.00000E+00
 -1      1519 3.15120E+01 1.09375E+00 0.00000E+00
 -1      1520 3.13740E+01 2.18750E+00 0.00000E+00
 -1      1521 3.60120E+01 1.09375E+00 0.00000E+00
 -1      1522 3.45120E+01 1.09375E+00 0.00000E+00
 -1      1523 3.43740E+01 2.18750E+00 0.00000E+00
 -1      1524 3.90120E+01 1.09375E+00 0.00000E+00
 -1      1525 3.75120E+01 1.09375E+00 0.00000E+00
 -1      1526 3.73740E+01 2.18750E+00 0.00000E+00
 -1      1527 4.20120E+01 1.09375E+00 0.00000E+00
 -1      1528 4.05120E+01 1.09375E+00 0.00000E+00
 -1      1529 4.03740E+01 2.18750E+00 0.00000E+00
 -1      1530 4.50120E+01 1.09375E+00 0.00000E+00
 -1      1531 4.35120E+01 1.09375E+00 0.00000E+00
 -1      1532 4.33740E+01 2.18750E+00 0.00000E+00
 -1      1533 4.80120E+01 1.09375E+00 0.00000E+00
 -1      1534 4.65120E+01 1.09375E+00 0.00000E+00
 -1      1535 4.63740E+01 2.18750E+00 0.00000E+00
 -1      1536 5.10120E+01 1.09375E+00 0.00000E+00
 -1      1537 4.95120E+01 1.09375E+00 0.00000E+00
 -1      1538 4.93740E+01 2.18750E+00 0.00000E+00
 -1      1539 5.40120E+01 1.09375E+00 0.00000E+00
 -1      1540 5.25120E+01 1.09375E+00 0.00000E+00
 -1      1541 5.23740E+01 2.18750E+00 0.00000E+00
 -1      1542 5.70120E+01 1.09375E+00 0.00000E+00
 -1      1543 5.55120E+01 1.09375E+00 0.00000E+00
 -1      1544 5.53740E+01 2.18750E+00 0.00000E+00
 -1      1545 6.00120E+01 1.09375E+00 0.00000E+00
 -1      1546 5.85120E+01 1.09375E+00 0.00000E+00
 -1      1547 5.83740E+01 2.18750E+00 0.00000E+00
 -1      1548 6.30120E+01 1.09375E+00 0.00000E+00
 -1      1549 6.15120E+01 1.09375E+00 0.00000E+00
 -1      1550 6.13740E+01 2.18750E+00 0.00000E+00
 -1      1551 6.60120E+01 1.09375E+00 0.00000E+00
 -1      1552 6.45120E+01 1.09375E+00 0.00000E+00
 -1      1553 6.43740E+01 2.18750E+00 0.00000E+00
 -1      1554 6.90120E+01 1.09375E+00 0.00000E+00
 -1      1555 6.75120E+01 1.09375E+00 0.00000E+00
 -1      1556 6.73740E+01 2.18750E+00 0.00000E+00
 -1      1557 7.20120E+01 1.09375E+00 0.00000E+00
 -1      1558 7.05120E+01 1.09375E+00 0.00000E+00
 -1      1559 7.03740E+01 2.18750E+00 0.00000E+00
 -1      1560 7.50120E+01 1.09375E+00 0.00000E+00
 -1      1561 7.35120E+01 1.09375E+00 0.00000E+00
 -1      1562 7.33740E+01 2.18750E+00 0.00000E+00
 -1      1563 7.80120E+01 1.09375E+00 0.00000E+00
 -1      1564 7.65120E+01 1.09375E+00 0.00000E+00
 -1      1565 7.63740E+01 2.18750E+00 0.00000E+00
 -1      1566 8.10120E+01 1.09375E+00 0.00000E+00
 -1      1567 7.95120E+01 1.09375E+00 0.00000E+00
 -1      1568 7.93740E+01 2.18750E+00 0.00000E+00
 -1      1569 8.40120E+01 1.09375E+00 0.00000E+00
 -1      1570 8.25120E+01 1.09375E+00 0.00000E+00
 -1      1571 8.23740E+01 2.18750E+00 0.00000E+00
 -1      1572 8.70120E+01 1.09375E+00 0.00000E+00
 -1      1573 8.55120E+01 1.09375E+00 0.00000E+00
 -1      1574 8.53740E+01 2.18750E+00 0.00000E+00
 -1      1575 9.00120E+01 1.09375E+00 0.00000E+00
 -1      1576 8.85120E+01 1.09375E+00 0.00000E+00
 -1      1577 8.83740E+01 2.18750E+00 0.00000E+00
 -1      1578 9.30120E+01 1.09375E+00 0.00000E+00
 -1      1579 9.15120E+01 1.09375E+00 0.00000E+00
 -1      1580 9.13740E+01 2.18750E+00 0.00000E+00
 -1      1581 9.60120E+01 1.09375E+00 0.00000E+00
 -1      1582 9.45120E+01 1.09375E+00 0.00000E+00
 -1      1583 9.43740E+01 2.18750E+00 0.00000E+00
 -1      1584 9.90120E+01 1.09375E+00 0.00000E+00
 -1      1585 9.75120E+01 1.09375E+00 0.00000E+00
 -1      1586 9.73740E+01 2.18750E+00 0.00000E+00
 -1      1587 1.02012E+02 1.09375E+00 0.00000E+00
 -1      1588 1.00512E+02 1.09375E+00 0.00000E+00
 -1      1589 1.00374E+02 2.18750E+00 0.00000E+00
 -1      1590 1.05012E+02 1.09375E+00 0.00000E+00
 -1      1591 1.03512E+02 1.09375E+00 0.00000E+00
 -1      1592 1.03374E+02 2.18750E+00 0.00000E+00
 -1      1593 1.08012E+02 1.09375E+00 0.00000E+00
 -1      1594 1.06512E+02 1.09375E+00 0.00000E+00
 -1      1595 1.06374E+02 2.18750E+00 0.00000E+00
 -1      1596 1.11012E+02 1.09375E+00 0.00000E+00
 -1      1597 1.09512E+02 1.09375E+00 0.00000E+00
 -1      1598 1.09374E+02 2.18750E+00 0.00000E+00
 -1      1599 1.14012E+02 1.09375E+00 0.00000E+00
 -1      1600 1.12512E+02 1.09375E+00 0.00000E+00
 -1      1601 1.12374E+02 2.18750E+00 0.00000E+00
 -1      1602 1.17012E+02 1.09375E+00 0.00000E+00
 -1      1603 1.15512E+02 1.09375E+00 0.00000E+00
 -1      1604 1.15374E+02 2.18750E+00 0.00000E+00
 -1      1605 1.20012E+02 1.09375E+00 0.00000E+00
 -1      1606 1.18512E+02 1.09375E+00 0.00000E+00
 -1      1607 1.18374E+02 2.18750E+00 0.00000E+00
 -1      1608 1.23012E+02 1.09375E+00 0.00000E+00
 -1      1609 1.21512E+02 1.09375E+00 0.00000E+00
 -1      1610 1.21374E+02 2.18750E+00 0.00000E+00
 -1      1611 1.26012E+02 1.09375E+00 0.00000E+00
 -1      1612 1.24512E+02 1.09375E+00 0.00000E+00
 -1      1613 1.24374E+02 2.18750E+00 0.00000E+00
 -1      1614 1.29012E+02 1.09375E+00 0.00000E+00
 -1      1615 1.27512E+02 1.09375E+00 0.00000E+00
 -1      1616 1.27374E+02 2.18750E+00 0.00000E+00
 -1      1617 1.32012E+02 1.09375E+00 0.00000E+00
 -1      1618 1.30512E+02 1.09375E+00 0.00000E+00
 -1      1619 1.30374E+02 2.18750E+00 0.00000E+00
 -1      1620 1.35012E+02 1.09375E+00 0.00000E+00
 -1      1621 1.33512E+02 1.09375E+00 0.00000E+00
 -1      1622 1.33374E+02 2.18750E+00 0.00000E+00
 -1      1623 1.38012E+02 1.09375E+00 0.00000E+00
 -1      1624 1.36512E+02 1.09375E+00 0.00000E+00
 -1      1625 1.36374E+02 2.18750E+00 0.00000E+00
 -1      1626 1.41012E+02 1.09375E+00 0.00000E+00
 -1      1627 1.39512E+02 1.09375E+00 0.00000E+00
 -1      1628 1.39374E+02 2.18750E+00 0.00000E+00
 -1      1629 1.44012E+02 1.09375E+00 0.00000E+00
 -1      1630 1.42512E+02 1.09375E+00 0.00000E+00
 -1      1631 1.42374E+02 2.18750E+00 0.00000E+00
 -1      1632 1.47012E+02 1.09375E+00 0.00000E+00
 -1      1633 1.45512E+02 1.09375E+00 0.00000E+00
 -1      1634 1.45374E+02 2.18750E+00 0.00000E+00
 -1      1635 1.48575E+02 1.47500E+00 0.00000E+00
 -1      1636 1.48701E+02 5.16250E+00 0.00000E+00
 -1      1637 1.48701E+02 3.68750E+00 0.00000E+00
 -1      1638 1.48701E+02 8.11250E+00 0.00000E+00
 -1      1639 1.48701E+02 6.63750E+00 0.00000E+00
 -1      1640 1.47402E+02 5.90000E+00 0.00000E+00
 -1      1641 1.48701E+02 1.10625E+01 0.00000E+00
 -1      1642 1.48701E+02 9.58750E+00 0.00000E+00
 -1      1643 1.47402E+02 8.85000E+00 0.00000E+00
 -1      1644 1.48701E+02 1.40125E+01 0.00000E+00
 -1      1645 1.48701E+02 1.25375E+01 0.00000E+00
 -1      1646 1.47402E+02 1.18000E+01 0.00000E+00
 -1      1647 1.48701E+02 1.69125E+01 0.00000E+00
 -1      1648 1.48701E+02 1.54625E+01 0.00000E+00
 -1      1649 1.47402E+02 1.47250E+01 0.00000E+00
 -1      1650 1.48701E+02 1.98625E+01 0.00000E+00
 -1      1651 1.48701E+02 1.83875E+01 0.00000E+00
 -1      1652 1.47402E+02 1.76500E+01 0.00000E+00
 -1      1653 1.48701E+02 2.28125E+01 0.00000E+00
 -1      1654 1.48701E+02 2.13375E+01 0.00000E+00
 -1      1655 1.47402E+02 2.06000E+01 0.00000E+00
 -1      1656 1.48701E+02 2.57625E+01 0.00000E+00
 -1      1657 1.48701E+02 2.42875E+01 0.00000E+00
 -1      1658 1.47402E+02 2.35500E+01 0.00000E+00
 -1      1659 1.48701E+02 2.87125E+01 0.00000E+00
 -1      1660 1.48701E+02 2.72375E+01 0.00000E+00
 -1      1661 1.47402E+02 2.65000E+01 0.00000E+00
 -1      1662 1.48701E+02 3.16625E+01 0.00000E+00
 -1      1663 1.48701E+02 3.01875E+01 0.00000E+00
 -1      1664 1.47402E+02 2.94500E+01 0.00000E+00
 -1      1665 1.48701E+02 3.45625E+01 0.00000E+00
 -1      1666 1.48701E+02 3.31125E+01 0.00000E+00
 -1      1667 1.47402E+02 3.23750E+01 0.00000E+00
 -1      1668 1.48701E+02 3.75125E+01 0.00000E+00
 -1      1669 1.48701E+02 3.60375E+01 0.00000E+00
 -1      1670 1.47402E+02 3.53000E+01 0.00000E+00
 -1      1671 1.48701E+02 4.04625E+01 0.00000E+00
 -1      1672 1.48701E+02 3.89875E+01 0.00000E+00
 -1      1673 1.47402E+02 3.82500E+01 0.00000E+00
 -1      1674 1.48701E+02 4.34125E+01 0.00000E+00
 -1      1675 1.48701E+02 4.19375E+01 0.00000E+00
 -1      1676 1.47402E+02 4.12000E+01 0.00000E+00
 -1      1677 1.48263E+02 4.60692E+01 0.00000E+00
 -1      1678 1.48263E+02 4.45942E+01 0.00000E+00
 -1      1679 1.46964E+02 4.38568E+01 0.00000E+00
 -1      1680 1.46088E+02 4.62202E+01 0.00000E+00
 -1      1681 7.26858E+01 2.32769E+01 0.00000E+00
 -1      1682 7.27767E+01 2.40696E+01 0.00000E+00
 -1      1683 7.21415E+01 2.17556E+01 0.00000E+00
 -1      1684 7.23703E+01 2.24245E+01 0.00000E+00
 -1      1685 7.14057E+01 2.03489E+01 0.00000E+00
 -1      1686 7.17825E+01 2.09828E+01 0.00000E+00
 -1      1687 7.03819E+01 1.91656E+01 0.00000E+00
 -1      1688 7.08648E+01 1.96903E+01 0.00000E+00
 -1      1689 6.91869E+01 1.82020E+01 0.00000E+00
 -1      1690 6.97613E+01 1.86152E+01 0.00000E+00
 -1      1691 6.77786E+01 1.74851E+01 0.00000E+00
 -1      1692 6.84536E+01 1.77838E+01 0.00000E+00
 -1      1693 6.61680E+01 1.68967E+01 0.00000E+00
 -1      1694 6.69538E+01 1.70530E+01 0.00000E+00
 -1      1695 6.45140E+01 1.69546E+01 0.00000E+00
 -1      1696 6.52442E+01 1.69379E+01 0.00000E+00
 -1      1697 6.28424E+01 1.72253E+01 0.00000E+00
 -1      1698 6.36135E+01 1.70357E+01 0.00000E+00
 -1      1699 6.12474E+01 1.78132E+01 0.00000E+00
 -1      1700 6.19325E+01 1.74700E+01 0.00000E+00
 -1      1701 5.99717E+01 1.88799E+01 0.00000E+00
 -1      1702 6.05528E+01 1.84088E+01 0.00000E+00
 -1      1703 5.89570E+01 2.00511E+01 0.00000E+00
 -1      1704 5.93982E+01 1.95081E+01 0.00000E+00
 -1      1705 5.80272E+01 2.14077E+01 0.00000E+00
 -1      1706 5.83789E+01 2.07175E+01 0.00000E+00
 -1      1707 5.76474E+01 2.29436E+01 0.00000E+00
 -1      1708 5.78275E+01 2.22672E+01 0.00000E+00
 -1      1709 5.74762E+01 2.44807E+01 0.00000E+00
 -1      1710 5.75173E+01 2.37624E+01 0.00000E+00
 -1      1711 5.75521E+01 2.60977E+01 0.00000E+00
 -1      1712 5.74367E+01 2.53527E+01 0.00000E+00
 -1      1713 5.81040E+01 2.75768E+01 0.00000E+00
 -1      1714 5.78513E+01 2.69123E+01 0.00000E+00
 -1      1715 5.88909E+01 2.89603E+01 0.00000E+00
 -1      1716 5.84884E+01 2.83344E+01 0.00000E+00
 -1      1717 6.00014E+01 3.01957E+01 0.00000E+00
 -1      1718 5.94505E+01 2.96489E+01 0.00000E+00
 -1      1719 6.13305E+01 3.12443E+01 0.00000E+00
 -1      1720 6.06688E+01 3.08306E+01 0.00000E+00
 -1      1721 6.29037E+01 3.19881E+01 0.00000E+00
 -1      1722 6.21507E+01 3.17276E+01 0.00000E+00
 -1      1723 6.45411E+01 3.21559E+01 0.00000E+00
 -1      1724 6.38196E+01 3.20726E+01 0.00000E+00
 -1      1725 6.61603E+01 3.21328E+01 0.00000E+00
 -1      1726 6.54151E+01 3.22046E+01 0.00000E+00
 -1      1727 6.78500E+01 3.17693E+01 0.00000E+00
 -1      1728 6.70891E+01 3.20198E+01 0.00000E+00
 -1      1729 6.93030E+01 3.08221E+01 0.00000E+00
 -1      1730 6.86360E+01 3.12258E+01 0.00000E+00
 -1      1731 7.05910E+01 2.97188E+01 0.00000E+00
 -1      1732 7.00263E+01 3.02646E+01 0.00000E+00
 -1      1733 7.16001E+01 2.83601E+01 0.00000E+00
 -1      1734 7.11732E+01 2.90143E+01 0.00000E+00
 -1      1735 7.22939E+01 2.67624E+01 0.00000E+00
 -1      1736 7.20149E+01 2.75271E+01 0.00000E+00
 -1      1737 7.26914E+01 2.50390E+01 0.00000E+00
 -1      1738 7.25966E+01 2.58480E+01 0.00000E+00
 -1      1739 7.04487E+01 1.84670E+01 0.00000E+00
 -1      1740 7.16103E+01 1.96760E+01 0.00000E+00
 -1      1741 1.48437E+02 2.56875E+00 0.00000E+00
 -1      1742 1.47138E+02 3.30625E+00 0.00000E+00
 -1      1743 7.31845E+01 2.27326E+01 0.00000E+00
 -1      1744 7.25101E+01 2.11074E+01 0.00000E+00
 -1      1745 7.34146E+01 2.45544E+01 0.00000E+00
 -1      1746 6.90948E+01 1.74983E+01 0.00000E+00
 -1      1747 6.75367E+01 1.66480E+01 0.00000E+00
 -1      1748 6.57880E+01 1.62572E+01 0.00000E+00
 -1      1749 6.39637E+01 1.63794E+01 0.00000E+00
 -1      1750 6.21533E+01 1.67052E+01 0.00000E+00
 -1      1751 6.05487E+01 1.75454E+01 0.00000E+00
 -1      1752 5.92806E+01 1.87691E+01 0.00000E+00
 -1      1753 5.81291E+01 2.00638E+01 0.00000E+00
 -1      1754 5.73513E+01 2.15898E+01 0.00000E+00
 -1      1755 5.70216E+01 2.32681E+01 0.00000E+00
 -1      1756 5.68520E+01 2.49589E+01 0.00000E+00
 -1      1757 5.71118E+01 2.66454E+01 0.00000E+00
 -1      1758 5.77954E+01 2.82176E+01 0.00000E+00
 -1      1759 5.87393E+01 2.96639E+01 0.00000E+00
 -1      1760 5.99664E+01 3.09875E+01 0.00000E+00
 -1      1761 6.14541E+01 3.21058E+01 0.00000E+00
 -1      1762 6.31901E+01 3.26736E+01 0.00000E+00
 -1      1763 6.49799E+01 3.28068E+01 0.00000E+00
 -1      1764 6.67827E+01 3.27425E+01 0.00000E+00
 -1      1765 6.84974E+01 3.20860E+01 0.00000E+00
 -1      1766 7.00067E+01 3.09851E+01 0.00000E+00
 -1      1767 7.13121E+01 2.97231E+01 0.00000E+00
 -1      1768 7.23091E+01 2.81855E+01 0.00000E+00
 -1      1769 7.30266E+01 2.64381E+01 0.00000E+00
 -1      1770 2.87400E+00 4.77875E+01 0.00000E+00
 -1      1771 3.89700E+00 4.04125E+01 0.00000E+00
 -1      1772 3.89700E+00 4.18875E+01 0.00000E+00
 -1      1773 3.89700E+00 4.33625E+01 0.00000E+00
 -1      1774 3.89700E+00 4.48375E+01 0.00000E+00
 -1      1775 5.19600E+00 4.26250E+01 0.00000E+00
 -1      1776 3.89700E+00 3.45500E+01 0.00000E+00
 -1      1777 3.89700E+00 3.60000E+01 0.00000E+00
 -1      1778 3.89700E+00 3.16000E+01 0.00000E+00
 -1      1779 3.89700E+00 3.30750E+01 0.00000E+00
 -1      1780 5.19600E+00 3.38000E+01 0.00000E+00
 -1      1781 3.89700E+00 2.86500E+01 0.00000E+00
 -1      1782 3.89700E+00 3.01250E+01 0.00000E+00
 -1      1783 5.19600E+00 3.08500E+01 0.00000E+00
 -1      1784 3.89700E+00 2.57000E+01 0.00000E+00
 -1      1785 3.89700E+00 2.71750E+01 0.00000E+00
 -1      1786 5.19600E+00 2.79000E+01 0.00000E+00
 -1      1787 3.89700E+00 2.27500E+01 0.00000E+00
 -1      1788 3.89700E+00 2.42250E+01 0.00000E+00
 -1      1789 5.19600E+00 2.49500E+01 0.00000E+00
 -1      1790 3.89700E+00 1.98000E+01 0.00000E+00
 -1      1791 3.89700E+00 2.12750E+01 0.00000E+00
 -1      1792 5.19600E+00 2.20000E+01 0.00000E+00
 -1      1793 3.89700E+00 1.69000E+01 0.00000E+00
 -1      1794 3.89700E+00 1.83500E+01 0.00000E+00
 -1      1795 5.19600E+00 1.90750E+01 0.00000E+00
 -1      1796 3.89700E+00 1.39500E+01 0.00000E+00
 -1      1797 3.89700E+00 1.54250E+01 0.00000E+00
 -1      1798 5.19600E+00 1.61500E+01 0.00000E+00
 -1      1799 3.89700E+00 1.10000E+01 0.00000E+00
 -1      1800 3.89700E+00 1.24750E+01 0.00000E+00
 -1      1801 5.19600E+00 1.32000E+01 0.00000E+00
 -1      1802 3.89700E+00 8.05000E+00 0.00000E+00
 -1      1803 3.89700E+00 9.52500E+00 0.00000E+00
 -1      1804 5.19600E+00 1.02500E+01 0.00000E+00
 -1      1805 3.89700E+00 5.10000E+00 0.00000E+00
 -1      1806 3.89700E+00 6.57500E+00 0.00000E+00
 -1      1807 5.19600E+00 7.30000E+00 0.00000E+00
 -1      1808 4.20450E+00 3.09687E+00 0.00000E+00
 -1      1809 4.06650E+00 4.19063E+00 0.00000E+00
 -1      1810 5.36550E+00 4.91563E+00 0.00000E+00
 -1      1811 5.70450E+00 3.09687E+00 0.00000E+00
 -1      1812 3.62400E+00 4.64885E+01 0.00000E+00
 -1      1813 8.70450E+00 3.09687E+00 0.00000E+00
 -1      1814 7.20450E+00 3.09687E+00 0.00000E+00
 -1      1815 7.03500E+00 4.00625E+00 0.00000E+00
 -1      1816 4.92300E+00 4.57510E+01 0.00000E+00
 -1      1817 8.40000E+00 4.61030E+01 0.00000E+00
 -1      1818 9.90000E+00 4.61030E+01 0.00000E+00
 -1      1819 1.14000E+01 4.61030E+01 0.00000E+00
 -1      1820 1.29000E+01 4.61030E+01 0.00000E+00
 -1      1821 1.06500E+01 4.48040E+01 0.00000E+00
 -1      1822 1.44000E+01 4.61030E+01 0.00000E+00
 -1      1823 1.59000E+01 4.61030E+01 0.00000E+00
 -1      1824 1.36500E+01 4.48040E+01 0.00000E+00
 -1      1825 1.74000E+01 4.61030E+01 0.00000E+00
 -1      1826 1.89000E+01 4.61030E+01 0.00000E+00
 -1      1827 1.66500E+01 4.48040E+01 0.00000E+00
 -1      1828 2.04000E+01 4.61030E+01 0.00000E+00
 -1      1829 2.19000E+01 4.61030E+01 0.00000E+00
 -1      1830 1.96500E+01 4.48040E+01 0.00000E+00
 -1      1831 2.34000E+01 4.61030E+01 0.00000E+00
 -1      1832 2.49000E+01 4.61030E+01 0.00000E+00
 -1      1833 2.26500E+01 4.48040E+01 0.00000E+00
 -1      1834 2.64000E+01 4.61030E+01 0.00000E+00
 -1      1835 2.79000E+01 4.61030E+01 0.00000E+00
 -1      1836 2.56500E+01 4.48040E+01 0.00000E+00
 -1      1837 2.94000E+01 4.61030E+01 0.00000E+00
 -1      1838 3.09000E+01 4.61030E+01 0.00000E+00
 -1      1839 2.86500E+01 4.48040E+01 0.00000E+00
 -1      1840 3.24000E+01 4.61030E+01 0.00000E+00
 -1      1841 3.39000E+01 4.61030E+01 0.00000E+00
 -1      1842 3.16500E+01 4.48040E+01 0.00000E+00
 -1      1843 3.54000E+01 4.61030E+01 0.00000E+00
 -1      1844 3.69000E+01 4.61030E+01 0.00000E+00
 -1      1845 3.46500E+01 4.48040E+01 0.00000E+00
 -1      1846 3.84000E+01 4.61030E+01 0.00000E+00
 -1      1847 3.99000E+01 4.61030E+01 0.00000E+00
 -1      1848 3.76500E+01 4.48040E+01 0.00000E+00
 -1      1849 4.14000E+01 4.61030E+01 0.00000E+00
 -1      1850 4.29000E+01 4.61030E+01 0.00000E+00
 -1      1851 4.06500E+01 4.48040E+01 0.00000E+00
 -1      1852 4.44000E+01 4.61030E+01 0.00000E+00
 -1      1853 4.59000E+01 4.61030E+01 0.00000E+00
 -1      1854 4.36500E+01 4.48040E+01 0.00000E+00
 -1      1855 4.74000E+01 4.61030E+01 0.00000E+00
 -1      1856 4.89000E+01 4.61030E+01 0.00000E+00
 -1      1857 4.66500E+01 4.48040E+01 0.00000E+00
 -1      1858 5.04000E+01 4.61030E+01 0.00000E+00
 -1      1859 5.19000E+01 4.61030E+01 0.00000E+00
 -1      1860 4.96500E+01 4.48040E+01 0.00000E+00
 -1      1861 5.34000E+01 4.61030E+01 0.00000E+00
 -1      1862 5.49000E+01 4.61030E+01 0.00000E+00
 -1      1863 5.26500E+01 4.48040E+01 0.00000E+00
 -1      1864 5.64000E+01 4.61030E+01 0.00000E+00
 -1      1865 5.79000E+01 4.61030E+01 0.00000E+00
 -1      1866 5.56500E+01 4.48040E+01 0.00000E+00
 -1      1867 5.94000E+01 4.61030E+01 0.00000E+00
 -1      1868 6.09000E+01 4.61030E+01 0.00000E+00
 -1      1869 5.86500E+01 4.48040E+01 0.00000E+00
 -1      1870 6.24000E+01 4.61030E+01 0.00000E+00
 -1      1871 6.39000E+01 4.61030E+01 0.00000E+00
 -1      1872 6.16500E+01 4.48040E+01 0.00000E+00
 -1      1873 6.54000E+01 4.61030E+01 0.00000E+00
 -1      1874 6.69000E+01 4.61030E+01 0.00000E+00
 -1      1875 6.46500E+01 4.48040E+01 0.00000E+00
 -1      1876 6.84000E+01 4.61030E+01 0.00000E+00
 -1      1877 6.99000E+01 4.61030E+01 0.00000E+00
 -1      1878 6.76500E+01 4.48040E+01 0.00000E+00
 -1      1879 7.14000E+01 4.61030E+01 0.00000E+00
 -1      1880 7.29000E+01 4.61030E+01 0.00000E+00
 -1      1881 7.06500E+01 4.48040E+01 0.00000E+00
 -1      1882 7.44000E+01 4.61030E+01 0.00000E+00
 -1      1883 7.59000E+01 4.61030E+01 0.00000E+00
 -1      1884 7.36500E+01 4.48040E+01 0.00000E+00
 -1      1885 7.74000E+01 4.61030E+01 0.00000E+00
 -1      1886 7.89000E+01 4.61030E+01 0.00000E+00
 -1      1887 7.66500E+01 4.48040E+01 0.00000E+00
 -1      1888 8.04000E+01 4.61030E+01 0.00000E+00
 -1      1889 8.19000E+01 4.61030E+01 0.00000E+00
 -1      1890 7.96500E+01 4.48040E+01 0.00000E+00
 -1      1891 8.34000E+01 4.61030E+01 0.00000E+00
 -1      1892 8.49000E+01 4.61030E+01 0.00000E+00
 -1      1893 8.26500E+01 4.48040E+01 0.00000E+00
 -1      1894 8.64000E+01 4.61030E+01 0.00000E+00
 -1      1895 8.79000E+01 4.61030E+01 0.00000E+00
 -1      1896 8.56500E+01 4.48040E+01 0.00000E+00
 -1      1897 8.94000E+01 4.61030E+01 0.00000E+00
 -1      1898 9.09000E+01 4.61030E+01 0.00000E+00
 -1      1899 8.86500E+01 4.48040E+01 0.00000E+00
 -1      1900 9.24000E+01 4.61030E+01 0.00000E+00
 -1      1901 9.39000E+01 4.61030E+01 0.00000E+00
 -1      1902 9.16500E+01 4.48040E+01 0.00000E+00
 -1      1903 9.54000E+01 4.61030E+01 0.00000E+00
 -1      1904 9.69000E+01 4.61030E+01 0.00000E+00
 -1      1905 9.46500E+01 4.48040E+01 0.00000E+00
 -1      1906 9.84000E+01 4.61030E+01 0.00000E+00
 -1      1907 9.99000E+01 4.61030E+01 0.00000E+00
 -1      1908 9.76500E+01 4.48040E+01 0.00000E+00
 -1      1909 1.01400E+02 4.61030E+01 0.00000E+00
 -1      1910 1.02900E+02 4.61030E+01 0.00000E+00
 -1      1911 1.00650E+02 4.48040E+01 0.00000E+00
 -1      1912 1.04400E+02 4.61030E+01 0.00000E+00
 -1      1913 1.05900E+02 4.61030E+01 0.00000E+00
 -1      1914 1.03650E+02 4.48040E+01 0.00000E+00
 -1      1915 1.07400E+02 4.61030E+01 0.00000E+00
 -1      1916 1.08900E+02 4.61030E+01 0.00000E+00
 -1      1917 1.06650E+02 4.48040E+01 0.00000E+00
 -1      1918 1.10400E+02 4.61030E+01 0.00000E+00
 -1      1919 1.11900E+02 4.61030E+01 0.00000E+00
 -1      1920 1.09650E+02 4.48040E+01 0.00000E+00
 -1      1921 1.13400E+02 4.61030E+01 0.00000E+00
 -1      1922 1.14900E+02 4.61030E+01 0.00000E+00
 -1      1923 1.12650E+02 4.48040E+01 0.00000E+00
 -1      1924 1.16400E+02 4.61030E+01 0.00000E+00
 -1      1925 1.17900E+02 4.61030E+01 0.00000E+00
 -1      1926 1.15650E+02 4.48040E+01 0.00000E+00
 -1      1927 1.19400E+02 4.61030E+01 0.00000E+00
 -1      1928 1.20900E+02 4.61030E+01 0.00000E+00
 -1      1929 1.18650E+02 4.48040E+01 0.00000E+00
 -1      1930 1.22400E+02 4.61030E+01 0.00000E+00
 -1      1931 1.23900E+02 4.61030E+01 0.00000E+00
 -1      1932 1.21650E+02 4.48040E+01 0.00000E+00
 -1      1933 1.25400E+02 4.61030E+01 0.00000E+00
 -1      1934 1.26900E+02 4.61030E+01 0.00000E+00
 -1      1935 1.24650E+02 4.48040E+01 0.00000E+00
 -1      1936 1.28400E+02 4.61030E+01 0.00000E+00
 -1      1937 1.29900E+02 4.61030E+01 0.00000E+00
 -1      1938 1.27650E+02 4.48040E+01 0.00000E+00
 -1      1939 1.31400E+02 4.61030E+01 0.00000E+00
 -1      1940 1.32900E+02 4.61030E+01 0.00000E+00
 -1      1941 1.30650E+02 4.48040E+01 0.00000E+00
 -1      1942 1.34400E+02 4.61030E+01 0.00000E+00
 -1      1943 1.35900E+02 4.61030E+01 0.00000E+00
 -1      1944 1.33650E+02 4.48040E+01 0.00000E+00
 -1      1945 1.37400E+02 4.61030E+01 0.00000E+00
 -1      1946 1.38900E+02 4.61030E+01 0.00000E+00
 -1      1947 1.36650E+02 4.48040E+01 0.00000E+00
 -1      1948 1.40400E+02 4.61030E+01 0.00000E+00
 -1      1949 1.41900E+02 4.61030E+01 0.00000E+00
 -1      1950 1.39650E+02 4.48040E+01 0.00000E+00
 -1      1951 1.43244E+02 4.61616E+01 0.00000E+00
 -1      1952 1.44744E+02 4.61616E+01 0.00000E+00
 -1      1953 1.45182E+02 4.49799E+01 0.00000E+00
 -1      1954 1.42494E+02 4.48626E+01 0.00000E+00
 -1      1955 1.17045E+01 3.09687E+00 0.00000E+00
 -1      1956 1.02045E+01 3.09687E+00 0.00000E+00
 -1      1957 1.00350E+01 4.00625E+00 0.00000E+00
 -1      1958 1.47045E+01 3.09687E+00 0.00000E+00
 -1      1959 1.32045E+01 3.09687E+00 0.00000E+00
 -1      1960 1.30350E+01 4.00625E+00 0.00000E+00
 -1      1961 1.77045E+01 3.09687E+00 0.00000E+00
 -1      1962 1.62045E+01 3.09687E+00 0.00000E+00
 -1      1963 1.60350E+01 4.00625E+00 0.00000E+00
 -1      1964 2.07045E+01 3.09687E+00 0.00000E+00
 -1      1965 1.92045E+01 3.09687E+00 0.00000E+00
 -1      1966 1.90350E+01 4.00625E+00 0.00000E+00
 -1      1967 2.37045E+01 3.09687E+00 0.00000E+00
 -1      1968 2.22045E+01 3.09687E+00 0.00000E+00
 -1      1969 2.20350E+01 4.00625E+00 0.00000E+00
 -1      1970 2.67045E+01 3.09687E+00 0.00000E+00
 -1      1971 2.52045E+01 3.09687E+00 0.00000E+00
 -1      1972 2.50350E+01 4.00625E+00 0.00000E+00
 -1      1973 2.97045E+01 3.09687E+00 0.00000E+00
 -1      1974 2.82045E+01 3.09687E+00 0.00000E+00
 -1      1975 2.80350E+01 4.00625E+00 0.00000E+00
 -1      1976 3.27045E+01 3.09687E+00 0.00000E+00
 -1      1977 3.12045E+01 3.09687E+00 0.00000E+00
 -1      1978 3.10350E+01 4.00625E+00 0.00000E+00
 -1      1979 3.57045E+01 3.09687E+00 0.00000E+00
 -1      1980 3.42045E+01 3.09687E+00 0.00000E+00
 -1      1981 3.40350E+01 4.00625E+00 0.00000E+00
 -1      1982 3.87045E+01 3.09687E+00 0.00000E+00
 -1      1983 3.72045E+01 3.09687E+00 0.00000E+00
 -1      1984 3.70350E+01 4.00625E+00 0.00000E+00
 -1      1985 4.17045E+01 3.09687E+00 0.00000E+00
 -1      1986 4.02045E+01 3.09687E+00 0.00000E+00
 -1      1987 4.00350E+01 4.00625E+00 0.00000E+00
 -1      1988 4.47045E+01 3.09687E+00 0.00000E+00
 -1      1989 4.32045E+01 3.09687E+00 0.00000E+00
 -1      1990 4.30350E+01 4.00625E+00 0.00000E+00
 -1      1991 4.77045E+01 3.09687E+00 0.00000E+00
 -1      1992 4.62045E+01 3.09687E+00 0.00000E+00
 -1      1993 4.60350E+01 4.00625E+00 0.00000E+00
 -1      1994 5.07045E+01 3.09687E+00 0.00000E+00
 -1      1995 4.92045E+01 3.09687E+00 0.00000E+00
 -1      1996 4.90350E+01 4.00625E+00 0.00000E+00
 -1      1997 5.37045E+01 3.09687E+00 0.00000E+00
 -1      1998 5.22045E+01 3.09687E+00 0.00000E+00
 -1      1999 5.20350E+01 4.00625E+00 0.00000E+00
 -1      2000 5.67045E+01 3.09687E+00 0.00000E+00
 -1      2001 5.52045E+01 3.09687E+00 0.00000E+00
 -1      2002 5.50350E+01 4.00625E+00 0.00000E+00
 -1      2003 5.97045E+01 3.09687E+00 0.00000E+00
 -1      2004 5.82045E+01 3.09687E+00 0.00000E+00
 -1      2005 5.80350E+01 4.00625E+00 0.00000E+00
 -1      2006 6.27045E+01 3.09687E+00 0.00000E+00
 -1      2007 6.12045E+01 3.09687E+00 0.00000E+00
 -1      2008 6.10350E+01 4.00625E+00 0.00000E+00
 -1      2009 6.57045E+01 3.09687E+00 0.00000E+00
 -1      2010 6.42045E+01 3.09687E+00 0.00000E+00
 -1      2011 6.40350E+01 4.00625E+00 0.00000E+00
 -1      2012 6.87045E+01 3.09687E+00 0.00000E+00
 -1      2013 6.72045E+01 3.09687E+00 0.00000E+00
 -1      2014 6.70350E+01 4.00625E+00 0.00000E+00
 -1      2015 7.17045E+01 3.09687E+00 0.00000E+00
 -1      2016 7.02045E+01 3.09687E+00 0.00000E+00
 -1      2017 7.00350E+01 4.00625E+00 0.00000E+00
 -1      2018 7.47045E+01 3.09687E+00 0.00000E+00
 -1      2019 7.32045E+01 3.09687E+00 0.00000E+00
 -1      2020 7.30350E+01 4.00625E+00 0.00000E+00
 -1      2021 7.77045E+01 3.09687E+00 0.00000E+00
 -1      2022 7.62045E+01 3.09687E+00 0.00000E+00
 -1      2023 7.60350E+01 4.00625E+00 0.00000E+00
 -1      2024 8.07045E+01 3.09687E+00 0.00000E+00
 -1      2025 7.92045E+01 3.09687E+00 0.00000E+00
 -1      2026 7.90350E+01 4.00625E+00 0.00000E+00
 -1      2027 8.37045E+01 3.09687E+00 0.00000E+00
 -1      2028 8.22045E+01 3.09687E+00 0.00000E+00
 -1      2029 8.20350E+01 4.00625E+00 0.00000E+00
 -1      2030 8.67045E+01 3.09687E+00 0.00000E+00
 -1      2031 8.52045E+01 3.09687E+00 0.00000E+00
 -1      2032 8.50350E+01 4.00625E+00 0.00000E+00
 -1      2033 8.97045E+01 3.09687E+00 0.00000E+00
 -1      2034 8.82045E+01 3.09687E+00 0.00000E+00
 -1      2035 8.80350E+01 4.00625E+00 0.00000E+00
 -1      2036 9.27045E+01 3.09687E+00 0.00000E+00
 -1      2037 9.12045E+01 3.09687E+00 0.00000E+00
 -1      2038 9.10350E+01 4.00625E+00 0.00000E+00
 -1      2039 9.57045E+01 3.09687E+00 0.00000E+00
 -1      2040 9.42045E+01 3.09687E+00 0.00000E+00
 -1      2041 9.40350E+01 4.00625E+00 0.00000E+00
 -1      2042 9.87045E+01 3.09687E+00 0.00000E+00
 -1      2043 9.72045E+01 3.09687E+00 0.00000E+00
 -1      2044 9.70350E+01 4.00625E+00 0.00000E+00
 -1      2045 1.01704E+02 3.09687E+00 0.00000E+00
 -1      2046 1.00204E+02 3.09687E+00 0.00000E+00
 -1      2047 1.00035E+02 4.00625E+00 0.00000E+00
 -1      2048 1.04704E+02 3.09687E+00 0.00000E+00
 -1      2049 1.03204E+02 3.09687E+00 0.00000E+00
 -1      2050 1.03035E+02 4.00625E+00 0.00000E+00
 -1      2051 1.07704E+02 3.09687E+00 0.00000E+00
 -1      2052 1.06204E+02 3.09687E+00 0.00000E+00
 -1      2053 1.06035E+02 4.00625E+00 0.00000E+00
 -1      2054 1.10704E+02 3.09687E+00 0.00000E+00
 -1      2055 1.09204E+02 3.09687E+00 0.00000E+00
 -1      2056 1.09035E+02 4.00625E+00 0.00000E+00
 -1      2057 1.13704E+02 3.09687E+00 0.00000E+00
 -1      2058 1.12204E+02 3.09687E+00 0.00000E+00
 -1      2059 1.12035E+02 4.00625E+00 0.00000E+00
 -1      2060 1.16704E+02 3.09687E+00 0.00000E+00
 -1      2061 1.15204E+02 3.09687E+00 0.00000E+00
 -1      2062 1.15035E+02 4.00625E+00 0.00000E+00
 -1      2063 1.19704E+02 3.09687E+00 0.00000E+00
 -1      2064 1.18204E+02 3.09687E+00 0.00000E+00
 -1      2065 1.18035E+02 4.00625E+00 0.00000E+00
 -1      2066 1.22704E+02 3.09687E+00 0.00000E+00
 -1      2067 1.21204E+02 3.09687E+00 0.00000E+00
 -1      2068 1.21035E+02 4.00625E+00 0.00000E+00
 -1      2069 1.25704E+02 3.09687E+00 0.00000E+00
 -1      2070 1.24204E+02 3.09687E+00 0.00000E+00
 -1      2071 1.24035E+02 4.00625E+00 0.00000E+00
 -1      2072 1.28704E+02 3.09687E+00 0.00000E+00
 -1      2073 1.27204E+02 3.09687E+00 0.00000E+00
 -1      2074 1.27035E+02 4.00625E+00 0.00000E+00
 -1      2075 1.31704E+02 3.09687E+00 0.00000E+00
 -1      2076 1.30204E+02 3.09687E+00 0.00000E+00
 -1      2077 1.30035E+02 4.00625E+00 0.00000E+00
 -1      2078 1.34704E+02 3.09687E+00 0.00000E+00
 -1      2079 1.33204E+02 3.09687E+00 0.00000E+00
 -1      2080 1.33035E+02 4.00625E+00 0.00000E+00
 -1      2081 1.37704E+02 3.09687E+00 0.00000E+00
 -1      2082 1.36204E+02 3.09687E+00 0.00000E+00
 -1      2083 1.36035E+02 4.00625E+00 0.00000E+00
 -1      2084 1.40704E+02 3.09687E+00 0.00000E+00
 -1      2085 1.39204E+02 3.09687E+00 0.00000E+00
 -1      2086 1.39035E+02 4.00625E+00 0.00000E+00
 -1      2087 1.43704E+02 3.09687E+00 0.00000E+00
 -1      2088 1.42204E+02 3.09687E+00 0.00000E+00
 -1      2089 1.42035E+02 4.00625E+00 0.00000E+00
 -1      2090 1.46171E+02 3.20156E+00 0.00000E+00
 -1      2091 1.44671E+02 3.20156E+00 0.00000E+00
 -1      2092 1.44502E+02 4.11094E+00 0.00000E+00
 -1      2093 1.46435E+02 4.32031E+00 0.00000E+00
 -1      2094 1.46103E+02 1.25375E+01 0.00000E+00
 -1      2095 1.46103E+02 1.10625E+01 0.00000E+00
 -1      2096 1.46103E+02 9.58750E+00 0.00000E+00
 -1      2097 1.46103E+02 8.11250E+00 0.00000E+00
 -1      2098 1.44804E+02 1.03250E+01 0.00000E+00
 -1      2099 1.46269E+02 6.95391E+00 0.00000E+00
 -1      2100 1.46269E+02 5.47891E+00 0.00000E+00
 -1      2101 1.45302E+02 5.37422E+00 0.00000E+00
 -1      2102 1.44970E+02 7.69141E+00 0.00000E+00
 -1      2103 1.46103E+02 1.54375E+01 0.00000E+00
 -1      2104 1.46103E+02 1.39875E+01 0.00000E+00
 -1      2105 1.44804E+02 1.32500E+01 0.00000E+00
 -1      2106 1.46103E+02 1.83875E+01 0.00000E+00
 -1      2107 1.46103E+02 1.69125E+01 0.00000E+00
 -1      2108 1.44804E+02 1.61750E+01 0.00000E+00
 -1      2109 1.46103E+02 2.13375E+01 0.00000E+00
 -1      2110 1.46103E+02 1.98625E+01 0.00000E+00
 -1      2111 1.44804E+02 1.91250E+01 0.00000E+00
 -1      2112 1.46103E+02 2.42875E+01 0.00000E+00
 -1      2113 1.46103E+02 2.28125E+01 0.00000E+00
 -1      2114 1.44804E+02 2.20750E+01 0.00000E+00
 -1      2115 1.46103E+02 2.72375E+01 0.00000E+00
 -1      2116 1.46103E+02 2.57625E+01 0.00000E+00
 -1      2117 1.44804E+02 2.50250E+01 0.00000E+00
 -1      2118 1.46103E+02 3.01875E+01 0.00000E+00
 -1      2119 1.46103E+02 2.87125E+01 0.00000E+00
 -1      2120 1.44804E+02 2.79750E+01 0.00000E+00
 -1      2121 1.46103E+02 3.30875E+01 0.00000E+00
 -1      2122 1.46103E+02 3.16375E+01 0.00000E+00
 -1      2123 1.44804E+02 3.09000E+01 0.00000E+00
 -1      2124 1.46103E+02 3.60375E+01 0.00000E+00
 -1      2125 1.46103E+02 3.45625E+01 0.00000E+00
 -1      2126 1.44804E+02 3.38250E+01 0.00000E+00
 -1      2127 1.46103E+02 3.89875E+01 0.00000E+00
 -1      2128 1.46103E+02 3.75125E+01 0.00000E+00
 -1      2129 1.44804E+02 3.67750E+01 0.00000E+00
 -1      2130 1.46103E+02 4.19375E+01 0.00000E+00
 -1      2131 1.46103E+02 4.04625E+01 0.00000E+00
 -1      2132 1.44804E+02 3.97250E+01 0.00000E+00
 -1      2133 7.30324E+01 2.03951E+01 0.00000E+00
 -1      2134 7.33914E+01 2.11679E+01 0.00000E+00
 -1      2135 7.41029E+01 2.41266E+01 0.00000E+00
 -1      2136 7.40175E+01 2.50959E+01 0.00000E+00
 -1      2137 7.37068E+01 2.20203E+01 0.00000E+00
 -1      2138 7.40222E+01 2.28727E+01 0.00000E+00
 -1      2139 7.42291E+01 2.13079E+01 0.00000E+00
 -1      2140 7.18731E+01 1.89088E+01 0.00000E+00
 -1      2141 7.24139E+01 1.95674E+01 0.00000E+00
 -1      2142 7.06518E+01 1.76128E+01 0.00000E+00
 -1      2143 7.12725E+01 1.81633E+01 0.00000E+00
 -1      2144 3.89700E+00 3.74688E+01 0.00000E+00
 -1      2145 3.89700E+00 3.89437E+01 0.00000E+00
 -1      2146 5.19600E+00 3.96813E+01 0.00000E+00
 -1      2147 5.19600E+00 3.67438E+01 0.00000E+00
 -1      2148 6.74833E+01 1.57466E+01 0.00000E+00
 -1      2149 6.83081E+01 1.61787E+01 0.00000E+00
 -1      2150 6.52917E+01 1.55048E+01 0.00000E+00
 -1      2151 6.62155E+01 1.54636E+01 0.00000E+00
 -1      2152 6.34906E+01 1.56669E+01 0.00000E+00
 -1      2153 6.43911E+01 1.55858E+01 0.00000E+00
 -1      2154 6.48186E+01 1.47922E+01 0.00000E+00
 -1      2155 6.14974E+01 1.60802E+01 0.00000E+00
 -1      2156 6.24073E+01 1.58356E+01 0.00000E+00
 -1      2157 5.96705E+01 1.72239E+01 0.00000E+00
 -1      2158 6.03651E+01 1.66284E+01 0.00000E+00
 -1      2159 5.84843E+01 1.86180E+01 0.00000E+00
 -1      2160 5.90578E+01 1.79898E+01 0.00000E+00
 -1      2161 5.73282E+01 1.99510E+01 0.00000E+00
 -1      2162 5.79062E+01 1.92845E+01 0.00000E+00
 -1      2163 5.76834E+01 1.85052E+01 0.00000E+00
 -1      2164 5.64978E+01 2.18445E+01 0.00000E+00
 -1      2165 5.66975E+01 2.09850E+01 0.00000E+00
 -1      2166 5.63165E+01 2.35758E+01 0.00000E+00
 -1      2167 5.64466E+01 2.27571E+01 0.00000E+00
 -1      2168 5.61430E+01 2.53636E+01 0.00000E+00
 -1      2169 5.61825E+01 2.44917E+01 0.00000E+00
 -1      2170 5.66137E+01 2.72906E+01 0.00000E+00
 -1      2171 5.63145E+01 2.64761E+01 0.00000E+00
 -1      2172 5.72602E+01 2.89655E+01 0.00000E+00
 -1      2173 5.68758E+01 2.82078E+01 0.00000E+00
 -1      2174 5.83536E+01 3.05490E+01 0.00000E+00
 -1      2175 5.77940E+01 2.98604E+01 0.00000E+00
 -1      2176 5.96885E+01 3.18190E+01 0.00000E+00
 -1      2177 5.90210E+01 3.11840E+01 0.00000E+00
 -1      2178 5.80757E+01 3.13805E+01 0.00000E+00
 -1      2179 6.14713E+01 3.30141E+01 0.00000E+00
 -1      2180 6.06511E+01 3.25308E+01 0.00000E+00
 -1      2181 6.35885E+01 3.33612E+01 0.00000E+00
 -1      2182 6.26727E+01 3.32767E+01 0.00000E+00
 -1      2183 6.53762E+01 3.35619E+01 0.00000E+00
 -1      2184 6.45022E+01 3.35131E+01 0.00000E+00
 -1      2185 6.73405E+01 3.34541E+01 0.00000E+00
 -1      2186 6.64117E+01 3.35671E+01 0.00000E+00
 -1      2187 6.93305E+01 3.24507E+01 0.00000E+00
 -1      2188 6.85445E+01 3.29942E+01 0.00000E+00
 -1      2189 7.07770E+01 3.13358E+01 0.00000E+00
 -1      2190 7.00538E+01 3.18933E+01 0.00000E+00
 -1      2191 7.01009E+01 3.28014E+01 0.00000E+00
 -1      2192 7.21997E+01 2.98636E+01 0.00000E+00
 -1      2193 7.16175E+01 3.05682E+01 0.00000E+00
 -1      2194 7.30966E+01 2.80579E+01 0.00000E+00
 -1      2195 7.26819E+01 2.88909E+01 0.00000E+00
 -1      2196 7.39125E+01 2.62241E+01 0.00000E+00
 -1      2197 7.36098E+01 2.71385E+01 0.00000E+00
 -1      2198 6.90492E+01 1.67262E+01 0.00000E+00
 -1      2199 6.97825E+01 1.71444E+01 0.00000E+00
 -1      2200 7.06062E+01 1.68408E+01 0.00000E+00
 -1      2201 6.42300E+00 4.57510E+01 0.00000E+00
 -1      2202 6.89958E+01 1.58248E+01 0.00000E+00
 -1      2203 7.17300E+00 4.44520E+01 0.00000E+00
 -1      2204 7.46252E+01 2.34142E+01 0.00000E+00
 -1      2205 7.52281E+01 2.39557E+01 0.00000E+00
 -1      2206 7.51474E+01 2.27018E+01 0.00000E+00
 -1      2207 7.32952E+01 1.96279E+01 0.00000E+00
 -1      2208 1.45665E+02 4.31193E+01 0.00000E+00
 -1      2209 7.46008E+01 2.57963E+01 0.00000E+00
 -1      2210 7.20762E+01 1.80547E+01 0.00000E+00
 -1      2211 7.39825E+01 2.78439E+01 0.00000E+00
 -1      2212 7.16646E+01 3.14764E+01 0.00000E+00
 -1      2213 6.81736E+01 3.38188E+01 0.00000E+00
 -1      2214 6.78026E+01 3.46434E+01 0.00000E+00
 -1      2215 6.90067E+01 3.41835E+01 0.00000E+00
 -1      2216 6.59340E+01 3.42735E+01 0.00000E+00
 -1      2217 6.39848E+01 3.41163E+01 0.00000E+00
 -1      2218 5.97058E+01 3.27273E+01 0.00000E+00
 -1      2219 5.68744E+01 2.98506E+01 0.00000E+00
 -1      2220 5.60785E+01 2.80385E+01 0.00000E+00
 -1      2221 5.56450E+01 2.60089E+01 0.00000E+00
 -1      2222 5.56074E+01 2.39806E+01 0.00000E+00
 -1      2223 5.64746E+01 2.02057E+01 0.00000E+00
 -1      2224 5.62518E+01 1.94264E+01 0.00000E+00
 -1      2225 5.56211E+01 2.04604E+01 0.00000E+00
 -1      2226 5.88742E+01 1.70728E+01 0.00000E+00
 -1      2227 6.28347E+01 1.50420E+01 0.00000E+00
 -1      2228 6.69869E+01 1.49942E+01 0.00000E+00
 -1      2229 6.77584E+01 1.45248E+01 0.00000E+00
 -1      2230 6.64906E+01 1.42418E+01 0.00000E+00
 -1      2231 6.06192E+01 1.57588E+01 0.00000E+00
 -1      2232 5.57927E+01 2.21522E+01 0.00000E+00
 -1      2233 6.18698E+01 3.37017E+01 0.00000E+00
 -1      2234 6.10668E+01 3.41267E+01 0.00000E+00
 -1      2235 6.22682E+01 3.43893E+01 0.00000E+00
 -1      2236 7.29873E+01 2.97360E+01 0.00000E+00
 -1      2237 1.07850E+01 5.30525E+00 0.00000E+00
 -1      2238 9.28500E+00 5.30525E+00 0.00000E+00
 -1      2239 6.49500E+00 3.01125E+01 0.00000E+00
 -1      2240 6.49500E+00 3.15875E+01 0.00000E+00
 -1      2241 6.49500E+00 3.30625E+01 0.00000E+00
 -1      2242 6.49500E+00 3.45375E+01 0.00000E+00
 -1      2243 7.79400E+00 3.23250E+01 0.00000E+00
 -1      2244 6.49500E+00 2.42125E+01 0.00000E+00
 -1      2245 6.49500E+00 2.56875E+01 0.00000E+00
 -1      2246 6.49500E+00 2.12625E+01 0.00000E+00
 -1      2247 6.49500E+00 2.27375E+01 0.00000E+00
 -1      2248 7.79400E+00 2.34750E+01 0.00000E+00
 -1      2249 6.49500E+00 1.83625E+01 0.00000E+00
 -1      2250 6.49500E+00 1.98125E+01 0.00000E+00
 -1      2251 7.79400E+00 2.05500E+01 0.00000E+00
 -1      2252 6.49500E+00 1.54125E+01 0.00000E+00
 -1      2253 6.49500E+00 1.68875E+01 0.00000E+00
 -1      2254 7.79400E+00 1.76250E+01 0.00000E+00
 -1      2255 6.49500E+00 1.24625E+01 0.00000E+00
 -1      2256 6.49500E+00 1.39375E+01 0.00000E+00
 -1      2257 7.79400E+00 1.46750E+01 0.00000E+00
 -1      2258 6.49500E+00 9.51250E+00 0.00000E+00
 -1      2259 6.49500E+00 1.09875E+01 0.00000E+00
 -1      2260 7.79400E+00 1.17250E+01 0.00000E+00
 -1      2261 1.37850E+01 5.30525E+00 0.00000E+00
 -1      2262 1.22850E+01 5.30525E+00 0.00000E+00
 -1      2263 1.15350E+01 6.60425E+00 0.00000E+00
 -1      2264 9.90000E+00 4.35050E+01 0.00000E+00
 -1      2265 1.14000E+01 4.35050E+01 0.00000E+00
 -1      2266 6.91349E+01 1.48613E+01 0.00000E+00
 -1      2267 6.98760E+01 1.54088E+01 0.00000E+00
 -1      2268 1.29000E+01 4.35050E+01 0.00000E+00
 -1      2269 1.44000E+01 4.35050E+01 0.00000E+00
 -1      2270 1.21500E+01 4.22060E+01 0.00000E+00
 -1      2271 1.59000E+01 4.35050E+01 0.00000E+00
 -1      2272 1.74000E+01 4.35050E+01 0.00000E+00
 -1      2273 1.51500E+01 4.22060E+01 0.00000E+00
 -1      2274 1.89000E+01 4.35050E+01 0.00000E+00
 -1      2275 2.04000E+01 4.35050E+01 0.00000E+00
 -1      2276 1.81500E+01 4.22060E+01 0.00000E+00
 -1      2277 2.19000E+01 4.35050E+01 0.00000E+00
 -1      2278 2.34000E+01 4.35050E+01 0.00000E+00
 -1      2279 2.11500E+01 4.22060E+01 0.00000E+00
 -1      2280 2.49000E+01 4.35050E+01 0.00000E+00
 -1      2281 2.64000E+01 4.35050E+01 0.00000E+00
 -1      2282 2.41500E+01 4.22060E+01 0.00000E+00
 -1      2283 2.79000E+01 4.35050E+01 0.00000E+00
 -1      2284 2.94000E+01 4.35050E+01 0.00000E+00
 -1      2285 2.71500E+01 4.22060E+01 0.00000E+00
 -1      2286 3.09000E+01 4.35050E+01 0.00000E+00
 -1      2287 3.24000E+01 4.35050E+01 0.00000E+00
 -1      2288 3.01500E+01 4.22060E+01 0.00000E+00
 -1      2289 3.39000E+01 4.35050E+01 0.00000E+00
 -1      2290 3.54000E+01 4.35050E+01 0.00000E+00
 -1      2291 3.31500E+01 4.22060E+01 0.00000E+00
 -1      2292 3.69000E+01 4.35050E+01 0.00000E+00
 -1      2293 3.84000E+01 4.35050E+01 0.00000E+00
 -1      2294 3.61500E+01 4.22060E+01 0.00000E+00
 -1      2295 3.99000E+01 4.35050E+01 0.00000E+00
 -1      2296 4.14000E+01 4.35050E+01 0.00000E+00
 -1      2297 3.91500E+01 4.22060E+01 0.00000E+00
 -1      2298 4.29000E+01 4.35050E+01 0.00000E+00
 -1      2299 4.44000E+01 4.35050E+01 0.00000E+00
 -1      2300 4.21500E+01 4.22060E+01 0.00000E+00
 -1      2301 4.59000E+01 4.35050E+01 0.00000E+00
 -1      2302 4.74000E+01 4.35050E+01 0.00000E+00
 -1      2303 4.51500E+01 4.22060E+01 0.00000E+00
 -1      2304 4.89000E+01 4.35050E+01 0.00000E+00
 -1      2305 5.04000E+01 4.35050E+01 0.00000E+00
 -1      2306 4.81500E+01 4.22060E+01 0.00000E+00
 -1      2307 5.19000E+01 4.35050E+01 0.00000E+00
 -1      2308 5.34000E+01 4.35050E+01 0.00000E+00
 -1      2309 5.11500E+01 4.22060E+01 0.00000E+00
 -1      2310 5.49000E+01 4.35050E+01 0.00000E+00
 -1      2311 5.64000E+01 4.35050E+01 0.00000E+00
 -1      2312 5.41500E+01 4.22060E+01 0.00000E+00
 -1      2313 5.79000E+01 4.35050E+01 0.00000E+00
 -1      2314 5.94000E+01 4.35050E+01 0.00000E+00
 -1      2315 5.71500E+01 4.22060E+01 0.00000E+00
 -1      2316 6.09000E+01 4.35050E+01 0.00000E+00
 -1      2317 6.24000E+01 4.35050E+01 0.00000E+00
 -1      2318 6.01500E+01 4.22060E+01 0.00000E+00
 -1      2319 6.39000E+01 4.35050E+01 0.00000E+00
 -1      2320 6.54000E+01 4.35050E+01 0.00000E+00
 -1      2321 6.31500E+01 4.22060E+01 0.00000E+00
 -1      2322 6.69000E+01 4.35050E+01 0.00000E+00
 -1      2323 6.84000E+01 4.35050E+01 0.00000E+00
 -1      2324 6.61500E+01 4.22060E+01 0.00000E+00
 -1      2325 6.99000E+01 4.35050E+01 0.00000E+00
 -1      2326 7.14000E+01 4.35050E+01 0.00000E+00
 -1      2327 6.91500E+01 4.22060E+01 0.00000E+00
 -1      2328 7.29000E+01 4.35050E+01 0.00000E+00
 -1      2329 7.44000E+01 4.35050E+01 0.00000E+00
 -1      2330 7.21500E+01 4.22060E+01 0.00000E+00
 -1      2331 7.59000E+01 4.35050E+01 0.00000E+00
 -1      2332 7.74000E+01 4.35050E+01 0.00000E+00
 -1      2333 7.51500E+01 4.22060E+01 0.00000E+00
 -1      2334 7.89000E+01 4.35050E+01 0.00000E+00
 -1      2335 8.04000E+01 4.35050E+01 0.00000E+00
 -1      2336 7.81500E+01 4.22060E+01 0.00000E+00
 -1      2337 8.19000E+01 4.35050E+01 0.00000E+00
 -1      2338 8.34000E+01 4.35050E+01 0.00000E+00
 -1      2339 8.11500E+01 4.22060E+01 0.00000E+00
 -1      2340 8.49000E+01 4.35050E+01 0.00000E+00
 -1      2341 8.64000E+01 4.35050E+01 0.00000E+00
 -1      2342 8.41500E+01 4.22060E+01 0.00000E+00
 -1      2343 8.79000E+01 4.35050E+01 0.00000E+00
 -1      2344 8.94000E+01 4.35050E+01 0.00000E+00
 -1      2345 8.71500E+01 4.22060E+01 0.00000E+00
 -1      2346 9.09000E+01 4.35050E+01 0.00000E+00
 -1      2347 9.24000E+01 4.35050E+01 0.00000E+00
 -1      2348 9.01500E+01 4.22060E+01 0.00000E+00
 -1      2349 9.39000E+01 4.35050E+01 0.00000E+00
 -1      2350 9.54000E+01 4.35050E+01 0.00000E+00
 -1      2351 9.31500E+01 4.22060E+01 0.00000E+00
 -1      2352 9.69000E+01 4.35050E+01 0.00000E+00
 -1      2353 9.84000E+01 4.35050E+01 0.00000E+00
 -1      2354 9.61500E+01 4.22060E+01 0.00000E+00
 -1      2355 9.99000E+01 4.35050E+01 0.00000E+00
 -1      2356 1.01400E+02 4.35050E+01 0.00000E+00
 -1      2357 9.91500E+01 4.22060E+01 0.00000E+00
 -1      2358 1.02900E+02 4.35050E+01 0.00000E+00
 -1      2359 1.04400E+02 4.35050E+01 0.00000E+00
 -1      2360 1.02150E+02 4.22060E+01 0.00000E+00
 -1      2361 1.05900E+02 4.35050E+01 0.00000E+00
 -1      2362 1.07400E+02 4.35050E+01 0.00000E+00
 -1      2363 1.05150E+02 4.22060E+01 0.00000E+00
 -1      2364 1.08900E+02 4.35050E+01 0.00000E+00
 -1      2365 1.10400E+02 4.35050E+01 0.00000E+00
 -1      2366 1.08150E+02 4.22060E+01 0.00000E+00
 -1      2367 1.11900E+02 4.35050E+01 0.00000E+00
 -1      2368 1.13400E+02 4.35050E+01 0.00000E+00
 -1      2369 1.11150E+02 4.22060E+01 0.00000E+00
 -1      2370 1.14900E+02 4.35050E+01 0.00000E+00
 -1      2371 1.16400E+02 4.35050E+01 0.00000E+00
 -1      2372 1.14150E+02 4.22060E+01 0.00000E+00
 -1      2373 1.17900E+02 4.35050E+01 0.00000E+00
 -1      2374 1.19400E+02 4.35050E+01 0.00000E+00
 -1      2375 1.17150E+02 4.22060E+01 0.00000E+00
 -1      2376 1.20900E+02 4.35050E+01 0.00000E+00
 -1      2377 1.22400E+02 4.35050E+01 0.00000E+00
 -1      2378 1.20150E+02 4.22060E+01 0.00000E+00
 -1      2379 1.23900E+02 4.35050E+01 0.00000E+00
 -1      2380 1.25400E+02 4.35050E+01 0.00000E+00
 -1      2381 1.23150E+02 4.22060E+01 0.00000E+00
 -1      2382 1.26900E+02 4.35050E+01 0.00000E+00
 -1      2383 1.28400E+02 4.35050E+01 0.00000E+00
 -1      2384 1.26150E+02 4.22060E+01 0.00000E+00
 -1      2385 1.29900E+02 4.35050E+01 0.00000E+00
 -1      2386 1.31400E+02 4.35050E+01 0.00000E+00
 -1      2387 1.29150E+02 4.22060E+01 0.00000E+00
 -1      2388 1.32900E+02 4.35050E+01 0.00000E+00
 -1      2389 1.34400E+02 4.35050E+01 0.00000E+00
 -1      2390 1.32150E+02 4.22060E+01 0.00000E+00
 -1      2391 1.35900E+02 4.35050E+01 0.00000E+00
 -1      2392 1.37400E+02 4.35050E+01 0.00000E+00
 -1      2393 1.35150E+02 4.22060E+01 0.00000E+00
 -1      2394 1.38900E+02 4.35050E+01 0.00000E+00
 -1      2395 1.40400E+02 4.35050E+01 0.00000E+00
 -1      2396 1.38150E+02 4.22060E+01 0.00000E+00
 -1      2397 7.48756E+01 2.05841E+01 0.00000E+00
 -1      2398 7.51911E+01 2.14365E+01 0.00000E+00
 -1      2399 1.97850E+01 5.30525E+00 0.00000E+00
 -1      2400 1.82850E+01 5.30525E+00 0.00000E+00
 -1      2401 2.27850E+01 5.30525E+00 0.00000E+00
 -1      2402 2.12850E+01 5.30525E+00 0.00000E+00
 -1      2403 2.05350E+01 6.60425E+00 0.00000E+00
 -1      2404 2.57850E+01 5.30525E+00 0.00000E+00
 -1      2405 2.42850E+01 5.30525E+00 0.00000E+00
 -1      2406 2.35350E+01 6.60425E+00 0.00000E+00
 -1      2407 2.87850E+01 5.30525E+00 0.00000E+00
 -1      2408 2.72850E+01 5.30525E+00 0.00000E+00
 -1      2409 2.65350E+01 6.60425E+00 0.00000E+00
 -1      2410 3.17850E+01 5.30525E+00 0.00000E+00
 -1      2411 3.02850E+01 5.30525E+00 0.00000E+00
 -1      2412 2.95350E+01 6.60425E+00 0.00000E+00
 -1      2413 3.47850E+01 5.30525E+00 0.00000E+00
 -1      2414 3.32850E+01 5.30525E+00 0.00000E+00
 -1      2415 3.25350E+01 6.60425E+00 0.00000E+00
 -1      2416 3.77850E+01 5.30525E+00 0.00000E+00
 -1      2417 3.62850E+01 5.30525E+00 0.00000E+00
 -1      2418 3.55350E+01 6.60425E+00 0.00000E+00
 -1      2419 4.07850E+01 5.30525E+00 0.00000E+00
 -1      2420 3.92850E+01 5.30525E+00 0.00000E+00
 -1      2421 3.85350E+01 6.60425E+00 0.00000E+00
 -1      2422 4.37850E+01 5.30525E+00 0.00000E+00
 -1      2423 4.22850E+01 5.30525E+00 0.00000E+00
 -1      2424 4.15350E+01 6.60425E+00 0.00000E+00
 -1      2425 4.67850E+01 5.30525E+00 0.00000E+00
 -1      2426 4.52850E+01 5.30525E+00 0.00000E+00
 -1      2427 4.45350E+01 6.60425E+00 0.00000E+00
 -1      2428 4.97850E+01 5.30525E+00 0.00000E+00
 -1      2429 4.82850E+01 5.30525E+00 0.00000E+00
 -1      2430 4.75350E+01 6.60425E+00 0.00000E+00
 -1      2431 5.27850E+01 5.30525E+00 0.00000E+00
 -1      2432 5.12850E+01 5.30525E+00 0.00000E+00
 -1      2433 5.05350E+01 6.60425E+00 0.00000E+00
 -1      2434 5.57850E+01 5.30525E+00 0.00000E+00
 -1      2435 5.42850E+01 5.30525E+00 0.00000E+00
 -1      2436 5.35350E+01 6.60425E+00 0.00000E+00
 -1      2437 5.87850E+01 5.30525E+00 0.00000E+00
 -1      2438 5.72850E+01 5.30525E+00 0.00000E+00
 -1      2439 5.65350E+01 6.60425E+00 0.00000E+00
 -1      2440 6.17850E+01 5.30525E+00 0.00000E+00
 -1      2441 6.02850E+01 5.30525E+00 0.00000E+00
 -1      2442 5.95350E+01 6.60425E+00 0.00000E+00
 -1      2443 6.47850E+01 5.30525E+00 0.00000E+00
 -1      2444 6.32850E+01 5.30525E+00 0.00000E+00
 -1      2445 6.25350E+01 6.60425E+00 0.00000E+00
 -1      2446 6.77850E+01 5.30525E+00 0.00000E+00
 -1      2447 6.62850E+01 5.30525E+00 0.00000E+00
 -1      2448 6.55350E+01 6.60425E+00 0.00000E+00
 -1      2449 7.07850E+01 5.30525E+00 0.00000E+00
 -1      2450 6.92850E+01 5.30525E+00 0.00000E+00
 -1      2451 6.85350E+01 6.60425E+00 0.00000E+00
 -1      2452 7.37850E+01 5.30525E+00 0.00000E+00
 -1      2453 7.22850E+01 5.30525E+00 0.00000E+00
 -1      2454 7.15350E+01 6.60425E+00 0.00000E+00
 -1      2455 7.67850E+01 5.30525E+00 0.00000E+00
 -1      2456 7.52850E+01 5.30525E+00 0.00000E+00
 -1      2457 7.45350E+01 6.60425E+00 0.00000E+00
 -1      2458 7.97850E+01 5.30525E+00 0.00000E+00
 -1      2459 7.82850E+01 5.30525E+00 0.00000E+00
 -1      2460 7.75350E+01 6.60425E+00 0.00000E+00
 -1      2461 8.27850E+01 5.30525E+00 0.00000E+00
 -1      2462 8.12850E+01 5.30525E+00 0.00000E+00
 -1      2463 8.05350E+01 6.60425E+00 0.00000E+00
 -1      2464 8.57850E+01 5.30525E+00 0.00000E+00
 -1      2465 8.42850E+01 5.30525E+00 0.00000E+00
 -1      2466 8.35350E+01 6.60425E+00 0.00000E+00
 -1      2467 8.87850E+01 5.30525E+00 0.00000E+00
 -1      2468 8.72850E+01 5.30525E+00 0.00000E+00
 -1      2469 8.65350E+01 6.60425E+00 0.00000E+00
 -1      2470 9.17850E+01 5.30525E+00 0.00000E+00
 -1      2471 9.02850E+01 5.30525E+00 0.00000E+00
 -1      2472 8.95350E+01 6.60425E+00 0.00000E+00
 -1      2473 9.47850E+01 5.30525E+00 0.00000E+00
 -1      2474 9.32850E+01 5.30525E+00 0.00000E+00
 -1      2475 9.25350E+01 6.60425E+00 0.00000E+00
 -1      2476 9.77850E+01 5.30525E+00 0.00000E+00
 -1      2477 9.62850E+01 5.30525E+00 0.00000E+00
 -1      2478 9.55350E+01 6.60425E+00 0.00000E+00
 -1      2479 1.00785E+02 5.30525E+00 0.00000E+00
 -1      2480 9.92850E+01 5.30525E+00 0.00000E+00
 -1      2481 9.85350E+01 6.60425E+00 0.00000E+00
 -1      2482 1.03785E+02 5.30525E+00 0.00000E+00
 -1      2483 1.02285E+02 5.30525E+00 0.00000E+00
 -1      2484 1.01535E+02 6.60425E+00 0.00000E+00
 -1      2485 1.06785E+02 5.30525E+00 0.00000E+00
 -1      2486 1.05285E+02 5.30525E+00 0.00000E+00
 -1      2487 1.04535E+02 6.60425E+00 0.00000E+00
 -1      2488 1.09785E+02 5.30525E+00 0.00000E+00
 -1      2489 1.08285E+02 5.30525E+00 0.00000E+00
 -1      2490 1.07535E+02 6.60425E+00 0.00000E+00
 -1      2491 1.12785E+02 5.30525E+00 0.00000E+00
 -1      2492 1.11285E+02 5.30525E+00 0.00000E+00
 -1      2493 1.10535E+02 6.60425E+00 0.00000E+00
 -1      2494 1.15785E+02 5.30525E+00 0.00000E+00
 -1      2495 1.14285E+02 5.30525E+00 0.00000E+00
 -1      2496 1.13535E+02 6.60425E+00 0.00000E+00
 -1      2497 1.18785E+02 5.30525E+00 0.00000E+00
 -1      2498 1.17285E+02 5.30525E+00 0.00000E+00
 -1      2499 1.16535E+02 6.60425E+00 0.00000E+00
 -1      2500 1.21785E+02 5.30525E+00 0.00000E+00
 -1      2501 1.20285E+02 5.30525E+00 0.00000E+00
 -1      2502 1.19535E+02 6.60425E+00 0.00000E+00
 -1      2503 1.24785E+02 5.30525E+00 0.00000E+00
 -1      2504 1.23285E+02 5.30525E+00 0.00000E+00
 -1      2505 1.22535E+02 6.60425E+00 0.00000E+00
 -1      2506 1.27785E+02 5.30525E+00 0.00000E+00
 -1      2507 1.26285E+02 5.30525E+00 0.00000E+00
 -1      2508 1.25535E+02 6.60425E+00 0.00000E+00
 -1      2509 1.30785E+02 5.30525E+00 0.00000E+00
 -1      2510 1.29285E+02 5.30525E+00 0.00000E+00
 -1      2511 1.28535E+02 6.60425E+00 0.00000E+00
 -1      2512 1.33785E+02 5.30525E+00 0.00000E+00
 -1      2513 1.32285E+02 5.30525E+00 0.00000E+00
 -1      2514 1.31535E+02 6.60425E+00 0.00000E+00
 -1      2515 1.36785E+02 5.30525E+00 0.00000E+00
 -1      2516 1.35285E+02 5.30525E+00 0.00000E+00
 -1      2517 1.34535E+02 6.60425E+00 0.00000E+00
 -1      2518 1.39785E+02 5.30525E+00 0.00000E+00
 -1      2519 1.38285E+02 5.30525E+00 0.00000E+00
 -1      2520 1.37535E+02 6.60425E+00 0.00000E+00
 -1      2521 1.42785E+02 5.30525E+00 0.00000E+00
 -1      2522 1.41285E+02 5.30525E+00 0.00000E+00
 -1      2523 1.40535E+02 6.60425E+00 0.00000E+00
 -1      2524 1.44336E+02 5.26953E+00 0.00000E+00
 -1      2525 1.43505E+02 1.69125E+01 0.00000E+00
 -1      2526 1.43505E+02 1.54375E+01 0.00000E+00
 -1      2527 1.43505E+02 1.98625E+01 0.00000E+00
 -1      2528 1.43505E+02 1.83875E+01 0.00000E+00
 -1      2529 1.42206E+02 1.76500E+01 0.00000E+00
 -1      2530 1.43505E+02 1.10625E+01 0.00000E+00
 -1      2531 1.43505E+02 9.58750E+00 0.00000E+00
 -1      2532 1.43505E+02 1.39750E+01 0.00000E+00
 -1      2533 1.43505E+02 1.25250E+01 0.00000E+00
 -1      2534 1.42206E+02 1.17875E+01 0.00000E+00
 -1      2535 1.42206E+02 1.47125E+01 0.00000E+00
 -1      2536 1.43505E+02 2.28125E+01 0.00000E+00
 -1      2537 1.43505E+02 2.13375E+01 0.00000E+00
 -1      2538 1.42206E+02 2.06000E+01 0.00000E+00
 -1      2539 1.43505E+02 2.57625E+01 0.00000E+00
 -1      2540 1.43505E+02 2.42875E+01 0.00000E+00
 -1      2541 1.42206E+02 2.35500E+01 0.00000E+00
 -1      2542 1.43505E+02 2.87125E+01 0.00000E+00
 -1      2543 1.43505E+02 2.72375E+01 0.00000E+00
 -1      2544 1.42206E+02 2.65000E+01 0.00000E+00
 -1      2545 1.43505E+02 3.16125E+01 0.00000E+00
 -1      2546 1.43505E+02 3.01625E+01 0.00000E+00
 -1      2547 1.42206E+02 2.94250E+01 0.00000E+00
 -1      2548 1.43505E+02 3.45625E+01 0.00000E+00
 -1      2549 1.43505E+02 3.30875E+01 0.00000E+00
 -1      2550 1.42206E+02 3.23500E+01 0.00000E+00
 -1      2551 1.43505E+02 3.75125E+01 0.00000E+00
 -1      2552 1.43505E+02 3.60375E+01 0.00000E+00
 -1      2553 1.42206E+02 3.53000E+01 0.00000E+00
 -1      2554 1.43505E+02 4.04625E+01 0.00000E+00
 -1      2555 1.43505E+02 3.89875E+01 0.00000E+00
 -1      2556 1.42206E+02 3.82500E+01 0.00000E+00
 -1      2557 1.44321E+02 4.30606E+01 0.00000E+00
 -1      2558 7.55071E+01 2.53117E+01 0.00000E+00
 -1      2559 7.54021E+01 2.64399E+01 0.00000E+00
 -1      2560 1.67850E+01 5.30525E+00 0.00000E+00
 -1      2561 1.52850E+01 5.30525E+00 0.00000E+00
 -1      2562 1.75350E+01 6.60425E+00 0.00000E+00
 -1      2563 7.37400E+01 1.86506E+01 0.00000E+00
 -1      2564 7.43585E+01 1.94782E+01 0.00000E+00
 -1      2565 7.49148E+01 2.77613E+01 0.00000E+00
 -1      2566 7.44016E+01 2.86807E+01 0.00000E+00
 -1      2567 6.55950E+00 4.28890E+01 0.00000E+00
 -1      2568 8.53650E+00 4.32410E+01 0.00000E+00
 -1      2569 9.28650E+00 4.19420E+01 0.00000E+00
 -1      2570 6.55950E+00 4.14140E+01 0.00000E+00
 -1      2571 7.25389E+01 1.71595E+01 0.00000E+00
 -1      2572 7.31395E+01 1.79050E+01 0.00000E+00
 -1      2573 7.42027E+01 1.77554E+01 0.00000E+00
 -1      2574 5.64408E+01 3.07159E+01 0.00000E+00
 -1      2575 5.59070E+01 2.98210E+01 0.00000E+00
 -1      2576 5.78982E+01 1.69200E+01 0.00000E+00
 -1      2577 5.85109E+01 1.61541E+01 0.00000E+00
 -1      2578 6.49500E+00 2.71625E+01 0.00000E+00
 -1      2579 6.49500E+00 2.86375E+01 0.00000E+00
 -1      2580 7.79400E+00 2.93750E+01 0.00000E+00
 -1      2581 7.79400E+00 2.64250E+01 0.00000E+00
 -1      2582 5.96794E+01 1.52610E+01 0.00000E+00
 -1      2583 6.08116E+01 1.47129E+01 0.00000E+00
 -1      2584 6.42989E+01 1.40621E+01 0.00000E+00
 -1      2585 6.51995E+01 1.39810E+01 0.00000E+00
 -1      2586 5.49109E+01 2.25604E+01 0.00000E+00
 -1      2587 5.49621E+01 2.16479E+01 0.00000E+00
 -1      2588 6.21323E+01 1.43995E+01 0.00000E+00
 -1      2589 6.32156E+01 1.42308E+01 0.00000E+00
 -1      2590 6.35965E+01 1.34196E+01 0.00000E+00
 -1      2591 5.67420E+01 1.82530E+01 0.00000E+00
 -1      2592 5.73201E+01 1.75865E+01 0.00000E+00
 -1      2593 5.69568E+01 1.66679E+01 0.00000E+00
 -1      2594 5.46429E+01 2.43921E+01 0.00000E+00
 -1      2595 5.47769E+01 2.34762E+01 0.00000E+00
 -1      2596 5.39463E+01 2.29719E+01 0.00000E+00
 -1      2597 5.48832E+01 2.66957E+01 0.00000E+00
 -1      2598 5.47117E+01 2.55833E+01 0.00000E+00
 -1      2599 5.54253E+01 2.87212E+01 0.00000E+00
 -1      2600 5.51632E+01 2.78040E+01 0.00000E+00
 -1      2601 5.77607E+01 3.23800E+01 0.00000E+00
 -1      2602 5.70932E+01 3.17450E+01 0.00000E+00
 -1      2603 7.39195E+01 2.96535E+01 0.00000E+00
 -1      2604 7.34373E+01 3.06262E+01 0.00000E+00
 -1      2605 7.48517E+01 2.95709E+01 0.00000E+00
 -1      2606 5.96858E+01 3.38036E+01 0.00000E+00
 -1      2607 5.87233E+01 3.30918E+01 0.00000E+00
 -1      2608 5.77407E+01 3.34564E+01 0.00000E+00
 -1      2609 6.43009E+01 3.50382E+01 0.00000E+00
 -1      2610 6.33872E+01 3.48862E+01 0.00000E+00
 -1      2611 6.64474E+01 3.51336E+01 0.00000E+00
 -1      2612 6.54119E+01 3.51284E+01 0.00000E+00
 -1      2613 7.09860E+01 3.32019E+01 0.00000E+00
 -1      2614 7.02627E+01 3.37594E+01 0.00000E+00
 -1      2615 7.26670E+01 3.16667E+01 0.00000E+00
 -1      2616 7.18265E+01 3.24343E+01 0.00000E+00
 -1      2617 7.19884E+01 3.33923E+01 0.00000E+00
 -1      2618 8.07525E+00 5.11044E+00 0.00000E+00
 -1      2619 6.57525E+00 5.11044E+00 0.00000E+00
 -1      2620 6.40575E+00 6.01981E+00 0.00000E+00
 -1      2621 8.82525E+00 6.40944E+00 0.00000E+00
 -1      2622 7.07453E+01 1.58773E+01 0.00000E+00
 -1      2623 7.16147E+01 1.63457E+01 0.00000E+00
 -1      2624 7.08844E+01 1.49138E+01 0.00000E+00
 -1      2625 6.11925E+01 1.39017E+01 0.00000E+00
 -1      2626 7.79400E+00 3.52687E+01 0.00000E+00
 -1      2627 6.49500E+00 3.60062E+01 0.00000E+00
 -1      2628 6.49500E+00 3.74750E+01 0.00000E+00
 -1      2629 1.45350E+01 6.60425E+00 0.00000E+00
 -1      2630 6.40575E+00 7.49481E+00 0.00000E+00
 -1      2631 7.26780E+01 1.61960E+01 0.00000E+00
 -1      2632 7.57940E+01 2.19780E+01 0.00000E+00
 -1      2633 7.63969E+01 2.25195E+01 0.00000E+00
 -1      2634 7.64405E+01 2.12542E+01 0.00000E+00
 -1      2635 7.67275E+01 2.67921E+01 0.00000E+00
 -1      2636 7.58212E+01 2.72767E+01 0.00000E+00
 -1      2637 7.62402E+01 2.81135E+01 0.00000E+00
 -1      2638 7.53204E+01 1.96068E+01 0.00000E+00
 -1      2639 1.43586E+02 6.56853E+00 0.00000E+00
 -1      2640 1.43419E+02 7.72713E+00 0.00000E+00
 -1      2641 7.35992E+01 3.15842E+01 0.00000E+00
 -1      2642 1.42758E+02 4.35929E+01 0.00000E+00
 -1      2643 1.43241E+02 4.17323E+01 0.00000E+00
 -1      2644 1.41942E+02 4.09948E+01 0.00000E+00
 -1      2645 1.41414E+02 4.35342E+01 0.00000E+00
 -1      2646 6.72805E+01 3.54983E+01 0.00000E+00
 -1      2647 6.67584E+01 3.63533E+01 0.00000E+00
 -1      2648 6.81136E+01 3.58630E+01 0.00000E+00
 -1      2649 7.60294E+01 2.45993E+01 0.00000E+00
 -1      2650 7.68307E+01 2.52429E+01 0.00000E+00
 -1      2651 7.65517E+01 2.38870E+01 0.00000E+00
 -1      2652 7.70475E+00 8.23231E+00 0.00000E+00
 -1      2653 5.49917E+01 2.95865E+01 0.00000E+00
 -1      2654 6.25843E+01 3.53112E+01 0.00000E+00
 -1      2655 5.61258E+01 3.17154E+01 0.00000E+00
 -1      2656 6.98918E+01 3.45840E+01 0.00000E+00
 -1      2657 5.38811E+01 2.50790E+01 0.00000E+00
 -1      2658 6.55950E+00 3.99453E+01 0.00000E+00
 -1      2659 5.77274E+01 1.49554E+01 0.00000E+00
 -1      2660 5.87034E+01 1.51082E+01 0.00000E+00
 -1      2661 5.88959E+01 1.40623E+01 0.00000E+00
 -1      2662 5.47393E+01 2.08686E+01 0.00000E+00
 -1      2663 5.45164E+01 2.00893E+01 0.00000E+00
 -1      2664 5.38574E+01 2.12768E+01 0.00000E+00
 -1      2665 6.86385E+01 1.41089E+01 0.00000E+00
 -1      2666 6.95187E+01 1.36930E+01 0.00000E+00
 -1      2667 6.81422E+01 1.33565E+01 0.00000E+00
 -1      2668 6.59709E+01 1.35117E+01 0.00000E+00
 -1      2669 6.67424E+01 1.30423E+01 0.00000E+00
 -1      2670 6.54513E+01 1.27815E+01 0.00000E+00
 -1      2671 5.58885E+01 1.85077E+01 0.00000E+00
 -1      2672 6.04827E+01 3.51788E+01 0.00000E+00
 -1      2673 6.00843E+01 3.44912E+01 0.00000E+00
 -1      2674 5.91017E+01 3.48558E+01 0.00000E+00
 -1      2675 5.42299E+01 2.73784E+01 0.00000E+00
 -1      2676 6.48143E+01 3.58984E+01 0.00000E+00
 -1      2677 1.42120E+02 8.46463E+00 0.00000E+00
 -1      2678 1.40664E+02 4.22352E+01 0.00000E+00
 -1      2679 9.09300E+00 1.98250E+01 0.00000E+00
 -1      2680 9.09300E+00 2.12750E+01 0.00000E+00
 -1      2681 9.09300E+00 2.27500E+01 0.00000E+00
 -1      2682 9.09300E+00 2.42250E+01 0.00000E+00
 -1      2683 1.03920E+01 2.20250E+01 0.00000E+00
 -1      2684 9.09300E+00 1.39375E+01 0.00000E+00
 -1      2685 9.09300E+00 1.54125E+01 0.00000E+00
 -1      2686 9.09300E+00 1.09875E+01 0.00000E+00
 -1      2687 9.09300E+00 1.24625E+01 0.00000E+00
 -1      2688 1.03920E+01 1.32000E+01 0.00000E+00
 -1      2689 1.22850E+01 7.90325E+00 0.00000E+00
 -1      2690 1.07850E+01 7.90325E+00 0.00000E+00
 -1      2691 5.44470E+01 3.04805E+01 0.00000E+00
 -1      2692 5.39653E+01 2.93806E+01 0.00000E+00
 -1      2693 7.09360E+01 1.37771E+01 0.00000E+00
 -1      2694 7.18054E+01 1.42456E+01 0.00000E+00
 -1      2695 1.52850E+01 7.90325E+00 0.00000E+00
 -1      2696 1.37850E+01 7.90325E+00 0.00000E+00
 -1      2697 1.30350E+01 9.20225E+00 0.00000E+00
 -1      2698 6.03342E+01 1.32240E+01 0.00000E+00
 -1      2699 6.16549E+01 1.29106E+01 0.00000E+00
 -1      2700 1.44000E+01 4.09070E+01 0.00000E+00
 -1      2701 1.59000E+01 4.09070E+01 0.00000E+00
 -1      2702 1.74000E+01 4.09070E+01 0.00000E+00
 -1      2703 1.89000E+01 4.09070E+01 0.00000E+00
 -1      2704 1.66500E+01 3.96080E+01 0.00000E+00
 -1      2705 2.04000E+01 4.09070E+01 0.00000E+00
 -1      2706 2.19000E+01 4.09070E+01 0.00000E+00
 -1      2707 1.96500E+01 3.96080E+01 0.00000E+00
 -1      2708 2.34000E+01 4.09070E+01 0.00000E+00
 -1      2709 2.49000E+01 4.09070E+01 0.00000E+00
 -1      2710 2.26500E+01 3.96080E+01 0.00000E+00
 -1      2711 2.64000E+01 4.09070E+01 0.00000E+00
 -1      2712 2.79000E+01 4.09070E+01 0.00000E+00
 -1      2713 2.56500E+01 3.96080E+01 0.00000E+00
 -1      2714 2.94000E+01 4.09070E+01 0.00000E+00
 -1      2715 3.09000E+01 4.09070E+01 0.00000E+00
 -1      2716 2.86500E+01 3.96080E+01 0.00000E+00
 -1      2717 3.24000E+01 4.09070E+01 0.00000E+00
 -1      2718 3.39000E+01 4.09070E+01 0.00000E+00
 -1      2719 3.16500E+01 3.96080E+01 0.00000E+00
 -1      2720 3.54000E+01 4.09070E+01 0.00000E+00
 -1      2721 3.69000E+01 4.09070E+01 0.00000E+00
 -1      2722 3.46500E+01 3.96080E+01 0.00000E+00
 -1      2723 3.84000E+01 4.09070E+01 0.00000E+00
 -1      2724 3.99000E+01 4.09070E+01 0.00000E+00
 -1      2725 3.76500E+01 3.96080E+01 0.00000E+00
 -1      2726 4.14000E+01 4.09070E+01 0.00000E+00
 -1      2727 4.29000E+01 4.09070E+01 0.00000E+00
 -1      2728 4.06500E+01 3.96080E+01 0.00000E+00
 -1      2729 4.44000E+01 4.09070E+01 0.00000E+00
 -1      2730 4.59000E+01 4.09070E+01 0.00000E+00
 -1      2731 4.36500E+01 3.96080E+01 0.00000E+00
 -1      2732 4.74000E+01 4.09070E+01 0.00000E+00
 -1      2733 4.89000E+01 4.09070E+01 0.00000E+00
 -1      2734 4.66500E+01 3.96080E+01 0.00000E+00
 -1      2735 5.04000E+01 4.09070E+01 0.00000E+00
 -1      2736 5.19000E+01 4.09070E+01 0.00000E+00
 -1      2737 4.96500E+01 3.96080E+01 0.00000E+00
 -1      2738 5.34000E+01 4.09070E+01 0.00000E+00
 -1      2739 5.49000E+01 4.09070E+01 0.00000E+00
 -1      2740 5.26500E+01 3.96080E+01 0.00000E+00
 -1      2741 5.64000E+01 4.09070E+01 0.00000E+00
 -1      2742 5.79000E+01 4.09070E+01 0.00000E+00
 -1      2743 5.56500E+01 3.96080E+01 0.00000E+00
 -1      2744 5.94000E+01 4.09070E+01 0.00000E+00
 -1      2745 6.09000E+01 4.09070E+01 0.00000E+00
 -1      2746 5.86500E+01 3.96080E+01 0.00000E+00
 -1      2747 6.24000E+01 4.09070E+01 0.00000E+00
 -1      2748 6.39000E+01 4.09070E+01 0.00000E+00
 -1      2749 6.16500E+01 3.96080E+01 0.00000E+00
 -1      2750 6.54000E+01 4.09070E+01 0.00000E+00
 -1      2751 6.69000E+01 4.09070E+01 0.00000E+00
 -1      2752 6.46500E+01 3.96080E+01 0.00000E+00
 -1      2753 6.84000E+01 4.09070E+01 0.00000E+00
 -1      2754 6.99000E+01 4.09070E+01 0.00000E+00
 -1      2755 6.76500E+01 3.96080E+01 0.00000E+00
 -1      2756 7.14000E+01 4.09070E+01 0.00000E+00
 -1      2757 7.29000E+01 4.09070E+01 0.00000E+00
 -1      2758 7.06500E+01 3.96080E+01 0.00000E+00
 -1      2759 7.44000E+01 4.09070E+01 0.00000E+00
 -1      2760 7.59000E+01 4.09070E+01 0.00000E+00
 -1      2761 7.36500E+01 3.96080E+01 0.00000E+00
 -1      2762 7.74000E+01 4.09070E+01 0.00000E+00
 -1      2763 7.89000E+01 4.09070E+01 0.00000E+00
 -1      2764 7.66500E+01 3.96080E+01 0.00000E+00
 -1      2765 8.04000E+01 4.09070E+01 0.00000E+00
 -1      2766 8.19000E+01 4.09070E+01 0.00000E+00
 -1      2767 7.96500E+01 3.96080E+01 0.00000E+00
 -1      2768 8.34000E+01 4.09070E+01 0.00000E+00
 -1      2769 8.49000E+01 4.09070E+01 0.00000E+00
 -1      2770 8.26500E+01 3.96080E+01 0.00000E+00
 -1      2771 8.64000E+01 4.09070E+01 0.00000E+00
 -1      2772 8.79000E+01 4.09070E+01 0.00000E+00
 -1      2773 8.56500E+01 3.96080E+01 0.00000E+00
 -1      2774 8.94000E+01 4.09070E+01 0.00000E+00
 -1      2775 9.09000E+01 4.09070E+01 0.00000E+00
 -1      2776 8.86500E+01 3.96080E+01 0.00000E+00
 -1      2777 9.24000E+01 4.09070E+01 0.00000E+00
 -1      2778 9.39000E+01 4.09070E+01 0.00000E+00
 -1      2779 9.16500E+01 3.96080E+01 0.00000E+00
 -1      2780 9.54000E+01 4.09070E+01 0.00000E+00
 -1      2781 9.69000E+01 4.09070E+01 0.00000E+00
 -1      2782 9.46500E+01 3.96080E+01 0.00000E+00
 -1      2783 9.84000E+01 4.09070E+01 0.00000E+00
 -1      2784 9.99000E+01 4.09070E+01 0.00000E+00
 -1      2785 9.76500E+01 3.96080E+01 0.00000E+00
 -1      2786 1.01400E+02 4.09070E+01 0.00000E+00
 -1      2787 1.02900E+02 4.09070E+01 0.00000E+00
 -1      2788 1.00650E+02 3.96080E+01 0.00000E+00
 -1      2789 1.04400E+02 4.09070E+01 0.00000E+00
 -1      2790 1.05900E+02 4.09070E+01 0.00000E+00
 -1      2791 1.03650E+02 3.96080E+01 0.00000E+00
 -1      2792 1.07400E+02 4.09070E+01 0.00000E+00
 -1      2793 1.08900E+02 4.09070E+01 0.00000E+00
 -1      2794 1.06650E+02 3.96080E+01 0.00000E+00
 -1      2795 1.10400E+02 4.09070E+01 0.00000E+00
 -1      2796 1.11900E+02 4.09070E+01 0.00000E+00
 -1      2797 1.09650E+02 3.96080E+01 0.00000E+00
 -1      2798 1.13400E+02 4.09070E+01 0.00000E+00
 -1      2799 1.14900E+02 4.09070E+01 0.00000E+00
 -1      2800 1.12650E+02 3.96080E+01 0.00000E+00
 -1      2801 1.16400E+02 4.09070E+01 0.00000E+00
 -1      2802 1.17900E+02 4.09070E+01 0.00000E+00
 -1      2803 1.15650E+02 3.96080E+01 0.00000E+00
 -1      2804 1.19400E+02 4.09070E+01 0.00000E+00
 -1      2805 1.20900E+02 4.09070E+01 0.00000E+00
 -1      2806 1.18650E+02 3.96080E+01 0.00000E+00
 -1      2807 1.22400E+02 4.09070E+01 0.00000E+00
 -1      2808 1.23900E+02 4.09070E+01 0.00000E+00
 -1      2809 1.21650E+02 3.96080E+01 0.00000E+00
 -1      2810 1.25400E+02 4.09070E+01 0.00000E+00
 -1      2811 1.26900E+02 4.09070E+01 0.00000E+00
 -1      2812 1.24650E+02 3.96080E+01 0.00000E+00
 -1      2813 1.28400E+02 4.09070E+01 0.00000E+00
 -1      2814 1.29900E+02 4.09070E+01 0.00000E+00
 -1      2815 1.27650E+02 3.96080E+01 0.00000E+00
 -1      2816 1.31400E+02 4.09070E+01 0.00000E+00
 -1      2817 1.32900E+02 4.09070E+01 0.00000E+00
 -1      2818 1.30650E+02 3.96080E+01 0.00000E+00
 -1      2819 1.34400E+02 4.09070E+01 0.00000E+00
 -1      2820 1.35900E+02 4.09070E+01 0.00000E+00
 -1      2821 1.33650E+02 3.96080E+01 0.00000E+00
 -1      2822 1.37400E+02 4.09070E+01 0.00000E+00
 -1      2823 1.38900E+02 4.09070E+01 0.00000E+00
 -1      2824 1.36650E+02 3.96080E+01 0.00000E+00
 -1      2825 7.46736E+01 3.15742E+01 0.00000E+00
 -1      2826 7.39033E+01 3.26147E+01 0.00000E+00
 -1      2827 2.12850E+01 7.90325E+00 0.00000E+00
 -1      2828 1.97850E+01 7.90325E+00 0.00000E+00
 -1      2829 3.02850E+01 7.90325E+00 0.00000E+00
 -1      2830 2.87850E+01 7.90325E+00 0.00000E+00
 -1      2831 3.32850E+01 7.90325E+00 0.00000E+00
 -1      2832 3.17850E+01 7.90325E+00 0.00000E+00
 -1      2833 3.10350E+01 9.20225E+00 0.00000E+00
 -1      2834 3.62850E+01 7.90325E+00 0.00000E+00
 -1      2835 3.47850E+01 7.90325E+00 0.00000E+00
 -1      2836 3.40350E+01 9.20225E+00 0.00000E+00
 -1      2837 3.92850E+01 7.90325E+00 0.00000E+00
 -1      2838 3.77850E+01 7.90325E+00 0.00000E+00
 -1      2839 3.70350E+01 9.20225E+00 0.00000E+00
 -1      2840 4.22850E+01 7.90325E+00 0.00000E+00
 -1      2841 4.07850E+01 7.90325E+00 0.00000E+00
 -1      2842 4.00350E+01 9.20225E+00 0.00000E+00
 -1      2843 4.52850E+01 7.90325E+00 0.00000E+00
 -1      2844 4.37850E+01 7.90325E+00 0.00000E+00
 -1      2845 4.30350E+01 9.20225E+00 0.00000E+00
 -1      2846 4.82850E+01 7.90325E+00 0.00000E+00
 -1      2847 4.67850E+01 7.90325E+00 0.00000E+00
 -1      2848 4.60350E+01 9.20225E+00 0.00000E+00
 -1      2849 5.12850E+01 7.90325E+00 0.00000E+00
 -1      2850 4.97850E+01 7.90325E+00 0.00000E+00
 -1      2851 4.90350E+01 9.20225E+00 0.00000E+00
 -1      2852 5.42850E+01 7.90325E+00 0.00000E+00
 -1      2853 5.27850E+01 7.90325E+00 0.00000E+00
 -1      2854 5.20350E+01 9.20225E+00 0.00000E+00
 -1      2855 5.72850E+01 7.90325E+00 0.00000E+00
 -1      2856 5.57850E+01 7.90325E+00 0.00000E+00
 -1      2857 5.50350E+01 9.20225E+00 0.00000E+00
 -1      2858 6.02850E+01 7.90325E+00 0.00000E+00
 -1      2859 5.87850E+01 7.90325E+00 0.00000E+00
 -1      2860 5.80350E+01 9.20225E+00 0.00000E+00
 -1      2861 6.32850E+01 7.90325E+00 0.00000E+00
 -1      2862 6.17850E+01 7.90325E+00 0.00000E+00
 -1      2863 6.10350E+01 9.20225E+00 0.00000E+00
 -1      2864 6.62850E+01 7.90325E+00 0.00000E+00
 -1      2865 6.47850E+01 7.90325E+00 0.00000E+00
 -1      2866 6.40350E+01 9.20225E+00 0.00000E+00
 -1      2867 6.92850E+01 7.90325E+00 0.00000E+00
 -1      2868 6.77850E+01 7.90325E+00 0.00000E+00
 -1      2869 6.70350E+01 9.20225E+00 0.00000E+00
 -1      2870 7.22850E+01 7.90325E+00 0.00000E+00
 -1      2871 7.07850E+01 7.90325E+00 0.00000E+00
 -1      2872 7.00350E+01 9.20225E+00 0.00000E+00
 -1      2873 7.52850E+01 7.90325E+00 0.00000E+00
 -1      2874 7.37850E+01 7.90325E+00 0.00000E+00
 -1      2875 7.30350E+01 9.20225E+00 0.00000E+00
 -1      2876 7.82850E+01 7.90325E+00 0.00000E+00
 -1      2877 7.67850E+01 7.90325E+00 0.00000E+00
 -1      2878 7.60350E+01 9.20225E+00 0.00000E+00
 -1      2879 8.12850E+01 7.90325E+00 0.00000E+00
 -1      2880 7.97850E+01 7.90325E+00 0.00000E+00
 -1      2881 7.90350E+01 9.20225E+00 0.00000E+00
 -1      2882 8.42850E+01 7.90325E+00 0.00000E+00
 -1      2883 8.27850E+01 7.90325E+00 0.00000E+00
 -1      2884 8.20350E+01 9.20225E+00 0.00000E+00
 -1      2885 8.72850E+01 7.90325E+00 0.00000E+00
 -1      2886 8.57850E+01 7.90325E+00 0.00000E+00
 -1      2887 8.50350E+01 9.20225E+00 0.00000E+00
 -1      2888 9.02850E+01 7.90325E+00 0.00000E+00
 -1      2889 8.87850E+01 7.90325E+00 0.00000E+00
 -1      2890 8.80350E+01 9.20225E+00 0.00000E+00
 -1      2891 9.32850E+01 7.90325E+00 0.00000E+00
 -1      2892 9.17850E+01 7.90325E+00 0.00000E+00
 -1      2893 9.10350E+01 9.20225E+00 0.00000E+00
 -1      2894 9.62850E+01 7.90325E+00 0.00000E+00
 -1      2895 9.47850E+01 7.90325E+00 0.00000E+00
 -1      2896 9.40350E+01 9.20225E+00 0.00000E+00
 -1      2897 9.92850E+01 7.90325E+00 0.00000E+00
 -1      2898 9.77850E+01 7.90325E+00 0.00000E+00
 -1      2899 9.70350E+01 9.20225E+00 0.00000E+00
 -1      2900 1.02285E+02 7.90325E+00 0.00000E+00
 -1      2901 1.00785E+02 7.90325E+00 0.00000E+00
 -1      2902 1.00035E+02 9.20225E+00 0.00000E+00
 -1      2903 1.05285E+02 7.90325E+00 0.00000E+00
 -1      2904 1.03785E+02 7.90325E+00 0.00000E+00
 -1      2905 1.03035E+02 9.20225E+00 0.00000E+00
 -1      2906 1.08285E+02 7.90325E+00 0.00000E+00
 -1      2907 1.06785E+02 7.90325E+00 0.00000E+00
 -1      2908 1.06035E+02 9.20225E+00 0.00000E+00
 -1      2909 1.11285E+02 7.90325E+00 0.00000E+00
 -1      2910 1.09785E+02 7.90325E+00 0.00000E+00
 -1      2911 1.09035E+02 9.20225E+00 0.00000E+00
 -1      2912 1.14285E+02 7.90325E+00 0.00000E+00
 -1      2913 1.12785E+02 7.90325E+00 0.00000E+00
 -1      2914 1.12035E+02 9.20225E+00 0.00000E+00
 -1      2915 1.17285E+02 7.90325E+00 0.00000E+00
 -1      2916 1.15785E+02 7.90325E+00 0.00000E+00
 -1      2917 1.15035E+02 9.20225E+00 0.00000E+00
 -1      2918 1.20285E+02 7.90325E+00 0.00000E+00
 -1      2919 1.18785E+02 7.90325E+00 0.00000E+00
 -1      2920 1.18035E+02 9.20225E+00 0.00000E+00
 -1      2921 1.23285E+02 7.90325E+00 0.00000E+00
 -1      2922 1.21785E+02 7.90325E+00 0.00000E+00
 -1      2923 1.21035E+02 9.20225E+00 0.00000E+00
 -1      2924 1.26285E+02 7.90325E+00 0.00000E+00
 -1      2925 1.24785E+02 7.90325E+00 0.00000E+00
 -1      2926 1.24035E+02 9.20225E+00 0.00000E+00
 -1      2927 1.29285E+02 7.90325E+00 0.00000E+00
 -1      2928 1.27785E+02 7.90325E+00 0.00000E+00
 -1      2929 1.27035E+02 9.20225E+00 0.00000E+00
 -1      2930 1.32285E+02 7.90325E+00 0.00000E+00
 -1      2931 1.30785E+02 7.90325E+00 0.00000E+00
 -1      2932 1.30035E+02 9.20225E+00 0.00000E+00
 -1      2933 1.35285E+02 7.90325E+00 0.00000E+00
 -1      2934 1.33785E+02 7.90325E+00 0.00000E+00
 -1      2935 1.33035E+02 9.20225E+00 0.00000E+00
 -1      2936 1.38285E+02 7.90325E+00 0.00000E+00
 -1      2937 1.36785E+02 7.90325E+00 0.00000E+00
 -1      2938 1.36035E+02 9.20225E+00 0.00000E+00
 -1      2939 1.40953E+02 8.18394E+00 0.00000E+00
 -1      2940 1.39453E+02 8.18394E+00 0.00000E+00
 -1      2941 1.38703E+02 9.48294E+00 0.00000E+00
 -1      2942 1.41038E+02 1.00443E+01 0.00000E+00
 -1      2943 1.40907E+02 2.42875E+01 0.00000E+00
 -1      2944 1.40907E+02 2.28125E+01 0.00000E+00
 -1      2945 1.39914E+02 4.09362E+01 0.00000E+00
 -1      2946 1.40928E+02 4.09655E+01 0.00000E+00
 -1      2947 1.39164E+02 3.96372E+01 0.00000E+00
 -1      2948 1.40907E+02 1.83875E+01 0.00000E+00
 -1      2949 1.40907E+02 1.69125E+01 0.00000E+00
 -1      2950 1.40907E+02 2.72375E+01 0.00000E+00
 -1      2951 1.40907E+02 2.57625E+01 0.00000E+00
 -1      2952 1.39608E+02 2.50250E+01 0.00000E+00
 -1      2953 1.40907E+02 2.13375E+01 0.00000E+00
 -1      2954 1.40907E+02 1.98625E+01 0.00000E+00
 -1      2955 1.39608E+02 1.91250E+01 0.00000E+00
 -1      2956 1.39608E+02 2.20750E+01 0.00000E+00
 -1      2957 7.59905E+01 1.86196E+01 0.00000E+00
 -1      2958 7.65076E+01 1.97255E+01 0.00000E+00
 -1      2959 1.40907E+02 3.01375E+01 0.00000E+00
 -1      2960 1.40907E+02 2.86875E+01 0.00000E+00
 -1      2961 1.39608E+02 2.79500E+01 0.00000E+00
 -1      2962 1.40907E+02 3.30875E+01 0.00000E+00
 -1      2963 1.40907E+02 3.16125E+01 0.00000E+00
 -1      2964 1.39608E+02 3.08750E+01 0.00000E+00
 -1      2965 1.40907E+02 3.60375E+01 0.00000E+00
 -1      2966 1.40907E+02 3.45625E+01 0.00000E+00
 -1      2967 1.39608E+02 3.38250E+01 0.00000E+00
 -1      2968 1.82850E+01 7.90325E+00 0.00000E+00
 -1      2969 1.67850E+01 7.90325E+00 0.00000E+00
 -1      2970 1.60350E+01 9.20225E+00 0.00000E+00
 -1      2971 1.90350E+01 9.20225E+00 0.00000E+00
 -1      2972 7.28934E+01 1.50198E+01 0.00000E+00
 -1      2973 7.38176E+01 1.58336E+01 0.00000E+00
 -1      2974 7.60113E+01 2.95397E+01 0.00000E+00
 -1      2975 7.55291E+01 3.05125E+01 0.00000E+00
 -1      2976 5.76125E+01 3.46365E+01 0.00000E+00
 -1      2977 5.66499E+01 3.39247E+01 0.00000E+00
 -1      2978 8.85168E+00 4.05347E+01 0.00000E+00
 -1      2979 1.02152E+01 4.07987E+01 0.00000E+00
 -1      2980 5.30722E+01 2.33117E+01 0.00000E+00
 -1      2981 5.32062E+01 2.23959E+01 0.00000E+00
 -1      2982 6.28128E+01 3.63051E+01 0.00000E+00
 -1      2983 6.16938E+01 3.58082E+01 0.00000E+00
 -1      2984 2.72850E+01 7.90325E+00 0.00000E+00
 -1      2985 2.57850E+01 7.90325E+00 0.00000E+00
 -1      2986 2.80350E+01 9.20225E+00 0.00000E+00
 -1      2987 2.42850E+01 7.90325E+00 0.00000E+00
 -1      2988 2.27850E+01 7.90325E+00 0.00000E+00
 -1      2989 2.50350E+01 9.20225E+00 0.00000E+00
 -1      2990 1.15576E+01 4.08528E+01 0.00000E+00
 -1      2991 1.30576E+01 4.08528E+01 0.00000E+00
 -1      2992 1.38076E+01 3.95538E+01 0.00000E+00
 -1      2993 1.11228E+01 3.94455E+01 0.00000E+00
 -1      2994 5.60200E+01 1.64392E+01 0.00000E+00
 -1      2995 5.65980E+01 1.57727E+01 0.00000E+00
 -1      2996 7.47008E+01 1.67395E+01 0.00000E+00
 -1      2997 7.53013E+01 1.74850E+01 0.00000E+00
 -1      2998 9.09300E+00 1.68813E+01 0.00000E+00
 -1      2999 9.09300E+00 1.83563E+01 0.00000E+00
 -1      3000 1.03920E+01 1.90812E+01 0.00000E+00
 -1      3001 1.03920E+01 1.61437E+01 0.00000E+00
 -1      3002 5.46975E+01 1.86992E+01 0.00000E+00
 -1      3003 5.51878E+01 1.75258E+01 0.00000E+00
 -1      3004 9.09300E+00 3.15875E+01 0.00000E+00
 -1      3005 9.09300E+00 3.30625E+01 0.00000E+00
 -1      3006 6.28971E+01 1.24910E+01 0.00000E+00
 -1      3007 6.39804E+01 1.23223E+01 0.00000E+00
 -1      3008 7.48818E+00 3.88019E+01 0.00000E+00
 -1      3009 5.55861E+01 3.27788E+01 0.00000E+00
 -1      3010 5.49338E+01 3.17497E+01 0.00000E+00
 -1      3011 6.52936E+01 3.68817E+01 0.00000E+00
 -1      3012 6.41827E+01 3.67915E+01 0.00000E+00
 -1      3013 7.08210E+01 3.52638E+01 0.00000E+00
 -1      3014 6.95649E+01 3.56879E+01 0.00000E+00
 -1      3015 1.41192E+02 3.96958E+01 0.00000E+00
 -1      3016 5.33761E+01 2.81837E+01 0.00000E+00
 -1      3017 5.30960E+01 2.70755E+01 0.00000E+00
 -1      3018 5.29757E+01 2.57288E+01 0.00000E+00
 -1      3019 5.29069E+01 2.45376E+01 0.00000E+00
 -1      3020 7.30999E+01 3.37654E+01 0.00000E+00
 -1      3021 7.22594E+01 3.45330E+01 0.00000E+00
 -1      3022 8.91450E+00 8.42712E+00 0.00000E+00
 -1      3023 9.09300E+00 3.45313E+01 0.00000E+00
 -1      3024 9.09300E+00 3.60000E+01 0.00000E+00
 -1      3025 1.03920E+01 3.37938E+01 0.00000E+00
 -1      3026 7.19325E+01 3.56370E+01 0.00000E+00
 -1      3027 1.03920E+01 2.49750E+01 0.00000E+00
 -1      3028 9.09300E+00 2.57000E+01 0.00000E+00
 -1      3029 9.09300E+00 2.71750E+01 0.00000E+00
 -1      3030 6.20388E+01 1.18133E+01 0.00000E+00
 -1      3031 5.28314E+01 2.90777E+01 0.00000E+00
 -1      3032 7.29450E+01 1.38831E+01 0.00000E+00
 -1      3033 5.93582E+01 1.30712E+01 0.00000E+00
 -1      3034 5.98206E+01 1.20801E+01 0.00000E+00
 -1      3035 5.83822E+01 1.29184E+01 0.00000E+00
 -1      3036 7.71106E+01 2.02670E+01 0.00000E+00
 -1      3037 7.77135E+01 2.08085E+01 0.00000E+00
 -1      3038 7.77806E+01 1.92798E+01 0.00000E+00
 -1      3039 7.41743E+01 3.37555E+01 0.00000E+00
 -1      3040 5.48290E+01 1.66307E+01 0.00000E+00
 -1      3041 7.72498E+01 2.60797E+01 0.00000E+00
 -1      3042 7.76689E+01 2.69165E+01 0.00000E+00
 -1      3043 7.77721E+01 2.53674E+01 0.00000E+00
 -1      3044 1.39608E+02 1.61875E+01 0.00000E+00
 -1      3045 1.40907E+02 1.54500E+01 0.00000E+00
 -1      3046 1.40907E+02 1.39875E+01 0.00000E+00
 -1      3047 7.58332E+01 3.15430E+01 0.00000E+00
 -1      3048 7.49162E+01 1.55632E+01 0.00000E+00
 -1      3049 2.20350E+01 9.20225E+00 0.00000E+00
 -1      3050 6.32921E+01 3.72885E+01 0.00000E+00
 -1      3051 5.21218E+01 2.65341E+01 0.00000E+00
 -1      3052 7.64885E+01 1.76037E+01 0.00000E+00
 -1      3053 1.40973E+02 1.27472E+01 0.00000E+00
 -1      3054 1.40973E+02 1.12847E+01 0.00000E+00
 -1      3055 1.39805E+02 1.10040E+01 0.00000E+00
 -1      3056 1.39674E+02 1.34847E+01 0.00000E+00
 -1      3057 5.21668E+01 2.39616E+01 0.00000E+00
 -1      3058 5.38157E+01 1.91074E+01 0.00000E+00
 -1      3059 1.41192E+02 3.82207E+01 0.00000E+00
 -1      3060 5.39074E+01 3.15438E+01 0.00000E+00
 -1      3061 6.90428E+01 3.65429E+01 0.00000E+00
 -1      3062 7.69177E+01 2.90551E+01 0.00000E+00
 -1      3063 7.71982E+01 2.31632E+01 0.00000E+00
 -1      3064 5.80109E+01 3.53241E+01 0.00000E+00
 -1      3065 5.69201E+01 3.57924E+01 0.00000E+00
 -1      3066 5.84093E+01 3.60117E+01 0.00000E+00
 -1      3067 5.54579E+01 3.39590E+01 0.00000E+00
 -1      3068 5.67905E+01 1.47268E+01 0.00000E+00
 -1      3069 5.21093E+01 2.19564E+01 0.00000E+00
 -1      3070 5.29834E+01 2.16166E+01 0.00000E+00
 -1      3071 5.27605E+01 2.08373E+01 0.00000E+00
 -1      3072 6.07112E+01 3.61727E+01 0.00000E+00
 -1      3073 8.78718E+00 3.80644E+01 0.00000E+00
 -1      3074 6.76225E+01 1.26264E+01 0.00000E+00
 -1      3075 9.09300E+00 2.86437E+01 0.00000E+00
 -1      3076 9.09300E+00 3.01187E+01 0.00000E+00
 -1      3077 1.03920E+01 3.08563E+01 0.00000E+00
 -1      3078 1.03920E+01 2.79188E+01 0.00000E+00
 -1      3079 6.47519E+01 1.18530E+01 0.00000E+00
 -1      3080 7.04396E+01 1.30247E+01 0.00000E+00
 -1      3081 1.39529E+02 3.85602E+01 0.00000E+00
 -1      3082 1.40542E+02 3.71145E+01 0.00000E+00
 -1      3083 1.39243E+02 3.63770E+01 0.00000E+00
 -1      3084 1.38514E+02 3.85310E+01 0.00000E+00
 -1      3085 9.66450E+00 9.72612E+00 0.00000E+00
 -1      3086 1.09635E+01 1.04636E+01 0.00000E+00
 -1      3087 1.16910E+01 1.24625E+01 0.00000E+00
 -1      3088 1.16910E+01 1.39375E+01 0.00000E+00
 -1      3089 6.64464E+01 3.70271E+01 0.00000E+00
 -1      3090 6.58148E+01 3.79202E+01 0.00000E+00
 -1      3091 5.21312E+01 3.01659E+01 0.00000E+00
 -1      3092 5.15419E+01 2.89690E+01 0.00000E+00
 -1      3093 1.89000E+01 3.83090E+01 0.00000E+00
 -1      3094 2.04000E+01 3.83090E+01 0.00000E+00
 -1      3095 2.19000E+01 3.83090E+01 0.00000E+00
 -1      3096 2.34000E+01 3.83090E+01 0.00000E+00
 -1      3097 2.11500E+01 3.70100E+01 0.00000E+00
 -1      3098 2.49000E+01 3.83090E+01 0.00000E+00
 -1      3099 2.64000E+01 3.83090E+01 0.00000E+00
 -1      3100 2.41500E+01 3.70100E+01 0.00000E+00
 -1      3101 2.79000E+01 3.83090E+01 0.00000E+00
 -1      3102 2.94000E+01 3.83090E+01 0.00000E+00
 -1      3103 2.71500E+01 3.70100E+01 0.00000E+00
 -1      3104 3.09000E+01 3.83090E+01 0.00000E+00
 -1      3105 3.24000E+01 3.83090E+01 0.00000E+00
 -1      3106 3.01500E+01 3.70100E+01 0.00000E+00
 -1      3107 3.39000E+01 3.83090E+01 0.00000E+00
 -1      3108 3.54000E+01 3.83090E+01 0.00000E+00
 -1      3109 3.31500E+01 3.70100E+01 0.00000E+00
 -1      3110 3.69000E+01 3.83090E+01 0.00000E+00
 -1      3111 3.84000E+01 3.83090E+01 0.00000E+00
 -1      3112 3.61500E+01 3.70100E+01 0.00000E+00
 -1      3113 3.99000E+01 3.83090E+01 0.00000E+00
 -1      3114 4.14000E+01 3.83090E+01 0.00000E+00
 -1      3115 3.91500E+01 3.70100E+01 0.00000E+00
 -1      3116 4.29000E+01 3.83090E+01 0.00000E+00
 -1      3117 4.44000E+01 3.83090E+01 0.00000E+00
 -1      3118 4.21500E+01 3.70100E+01 0.00000E+00
 -1      3119 4.59000E+01 3.83090E+01 0.00000E+00
 -1      3120 4.74000E+01 3.83090E+01 0.00000E+00
 -1      3121 4.51500E+01 3.70100E+01 0.00000E+00
 -1      3122 4.89000E+01 3.83090E+01 0.00000E+00
 -1      3123 5.04000E+01 3.83090E+01 0.00000E+00
 -1      3124 4.81500E+01 3.70100E+01 0.00000E+00
 -1      3125 5.19000E+01 3.83090E+01 0.00000E+00
 -1      3126 5.34000E+01 3.83090E+01 0.00000E+00
 -1      3127 5.11500E+01 3.70100E+01 0.00000E+00
 -1      3128 5.57343E+01 3.80440E+01 0.00000E+00
 -1      3129 5.72343E+01 3.80440E+01 0.00000E+00
 -1      3130 5.87343E+01 3.80440E+01 0.00000E+00
 -1      3131 6.39060E+01 3.86914E+01 0.00000E+00
 -1      3132 6.54060E+01 3.86914E+01 0.00000E+00
 -1      3133 6.98220E+01 3.79879E+01 0.00000E+00
 -1      3134 7.13220E+01 3.79879E+01 0.00000E+00
 -1      3135 7.59000E+01 3.83090E+01 0.00000E+00
 -1      3136 7.74000E+01 3.83090E+01 0.00000E+00
 -1      3137 7.89000E+01 3.83090E+01 0.00000E+00
 -1      3138 8.04000E+01 3.83090E+01 0.00000E+00
 -1      3139 7.81500E+01 3.70100E+01 0.00000E+00
 -1      3140 8.19000E+01 3.83090E+01 0.00000E+00
 -1      3141 8.34000E+01 3.83090E+01 0.00000E+00
 -1      3142 8.11500E+01 3.70100E+01 0.00000E+00
 -1      3143 8.49000E+01 3.83090E+01 0.00000E+00
 -1      3144 8.64000E+01 3.83090E+01 0.00000E+00
 -1      3145 8.41500E+01 3.70100E+01 0.00000E+00
 -1      3146 8.79000E+01 3.83090E+01 0.00000E+00
 -1      3147 8.94000E+01 3.83090E+01 0.00000E+00
 -1      3148 8.71500E+01 3.70100E+01 0.00000E+00
 -1      3149 9.09000E+01 3.83090E+01 0.00000E+00
 -1      3150 9.24000E+01 3.83090E+01 0.00000E+00
 -1      3151 9.01500E+01 3.70100E+01 0.00000E+00
 -1      3152 9.39000E+01 3.83090E+01 0.00000E+00
 -1      3153 9.54000E+01 3.83090E+01 0.00000E+00
 -1      3154 9.31500E+01 3.70100E+01 0.00000E+00
 -1      3155 9.69000E+01 3.83090E+01 0.00000E+00
 -1      3156 9.84000E+01 3.83090E+01 0.00000E+00
 -1      3157 9.61500E+01 3.70100E+01 0.00000E+00
 -1      3158 9.99000E+01 3.83090E+01 0.00000E+00
 -1      3159 1.01400E+02 3.83090E+01 0.00000E+00
 -1      3160 9.91500E+01 3.70100E+01 0.00000E+00
 -1      3161 1.02900E+02 3.83090E+01 0.00000E+00
 -1      3162 1.04400E+02 3.83090E+01 0.00000E+00
 -1      3163 1.02150E+02 3.70100E+01 0.00000E+00
 -1      3164 1.05900E+02 3.83090E+01 0.00000E+00
 -1      3165 1.07400E+02 3.83090E+01 0.00000E+00
 -1      3166 1.05150E+02 3.70100E+01 0.00000E+00
 -1      3167 1.08900E+02 3.83090E+01 0.00000E+00
 -1      3168 1.10400E+02 3.83090E+01 0.00000E+00
 -1      3169 1.08150E+02 3.70100E+01 0.00000E+00
 -1      3170 1.11900E+02 3.83090E+01 0.00000E+00
 -1      3171 1.13400E+02 3.83090E+01 0.00000E+00
 -1      3172 1.11150E+02 3.70100E+01 0.00000E+00
 -1      3173 1.14900E+02 3.83090E+01 0.00000E+00
 -1      3174 1.16400E+02 3.83090E+01 0.00000E+00
 -1      3175 1.14150E+02 3.70100E+01 0.00000E+00
 -1      3176 1.17900E+02 3.83090E+01 0.00000E+00
 -1      3177 1.19400E+02 3.83090E+01 0.00000E+00
 -1      3178 1.17150E+02 3.70100E+01 0.00000E+00
 -1      3179 1.20900E+02 3.83090E+01 0.00000E+00
 -1      3180 1.22400E+02 3.83090E+01 0.00000E+00
 -1      3181 1.20150E+02 3.70100E+01 0.00000E+00
 -1      3182 1.23900E+02 3.83090E+01 0.00000E+00
 -1      3183 1.25400E+02 3.83090E+01 0.00000E+00
 -1      3184 1.23150E+02 3.70100E+01 0.00000E+00
 -1      3185 1.26900E+02 3.83090E+01 0.00000E+00
 -1      3186 1.28400E+02 3.83090E+01 0.00000E+00
 -1      3187 1.26150E+02 3.70100E+01 0.00000E+00
 -1      3188 1.29900E+02 3.83090E+01 0.00000E+00
 -1      3189 1.31400E+02 3.83090E+01 0.00000E+00
 -1      3190 1.29150E+02 3.70100E+01 0.00000E+00
 -1      3191 1.32900E+02 3.83090E+01 0.00000E+00
 -1      3192 1.34400E+02 3.83090E+01 0.00000E+00
 -1      3193 1.32150E+02 3.70100E+01 0.00000E+00
 -1      3194 1.35707E+02 3.84200E+01 0.00000E+00
 -1      3195 1.37207E+02 3.84200E+01 0.00000E+00
 -1      3196 1.37572E+02 3.73430E+01 0.00000E+00
 -1      3197 1.34957E+02 3.71210E+01 0.00000E+00
 -1      3198 2.87850E+01 1.05013E+01 0.00000E+00
 -1      3199 2.72850E+01 1.05013E+01 0.00000E+00
 -1      3200 6.72795E+01 3.73918E+01 0.00000E+00
 -1      3201 3.17850E+01 1.05013E+01 0.00000E+00
 -1      3202 3.02850E+01 1.05013E+01 0.00000E+00
 -1      3203 2.95350E+01 1.18003E+01 0.00000E+00
 -1      3204 4.07850E+01 1.05013E+01 0.00000E+00
 -1      3205 3.92850E+01 1.05013E+01 0.00000E+00
 -1      3206 4.37850E+01 1.05013E+01 0.00000E+00
 -1      3207 4.22850E+01 1.05013E+01 0.00000E+00
 -1      3208 4.15350E+01 1.18003E+01 0.00000E+00
 -1      3209 4.67850E+01 1.05013E+01 0.00000E+00
 -1      3210 4.52850E+01 1.05013E+01 0.00000E+00
 -1      3211 4.45350E+01 1.18003E+01 0.00000E+00
 -1      3212 4.97850E+01 1.05013E+01 0.00000E+00
 -1      3213 4.82850E+01 1.05013E+01 0.00000E+00
 -1      3214 4.75350E+01 1.18003E+01 0.00000E+00
 -1      3215 5.27850E+01 1.05013E+01 0.00000E+00
 -1      3216 5.12850E+01 1.05013E+01 0.00000E+00
 -1      3217 5.05350E+01 1.18003E+01 0.00000E+00
 -1      3218 5.57850E+01 1.05013E+01 0.00000E+00
 -1      3219 5.42850E+01 1.05013E+01 0.00000E+00
 -1      3220 5.35350E+01 1.18003E+01 0.00000E+00
 -1      3221 5.91898E+01 1.05648E+01 0.00000E+00
 -1      3222 5.76898E+01 1.05648E+01 0.00000E+00
 -1      3223 6.44080E+01 1.02980E+01 0.00000E+00
 -1      3224 6.29080E+01 1.02980E+01 0.00000E+00
 -1      3225 6.73789E+01 1.07572E+01 0.00000E+00
 -1      3226 6.58789E+01 1.07572E+01 0.00000E+00
 -1      3227 7.02787E+01 1.10714E+01 0.00000E+00
 -1      3228 6.87787E+01 1.10714E+01 0.00000E+00
 -1      3229 7.31960E+01 1.11556E+01 0.00000E+00
 -1      3230 7.16960E+01 1.11556E+01 0.00000E+00
 -1      3231 7.97850E+01 1.05013E+01 0.00000E+00
 -1      3232 7.82850E+01 1.05013E+01 0.00000E+00
 -1      3233 8.27850E+01 1.05013E+01 0.00000E+00
 -1      3234 8.12850E+01 1.05013E+01 0.00000E+00
 -1      3235 8.05350E+01 1.18003E+01 0.00000E+00
 -1      3236 8.57850E+01 1.05013E+01 0.00000E+00
 -1      3237 8.42850E+01 1.05013E+01 0.00000E+00
 -1      3238 8.35350E+01 1.18003E+01 0.00000E+00
 -1      3239 8.87850E+01 1.05013E+01 0.00000E+00
 -1      3240 8.72850E+01 1.05013E+01 0.00000E+00
 -1      3241 8.65350E+01 1.18003E+01 0.00000E+00
 -1      3242 9.17850E+01 1.05013E+01 0.00000E+00
 -1      3243 9.02850E+01 1.05013E+01 0.00000E+00
 -1      3244 8.95350E+01 1.18003E+01 0.00000E+00
 -1      3245 9.47850E+01 1.05013E+01 0.00000E+00
 -1      3246 9.32850E+01 1.05013E+01 0.00000E+00
 -1      3247 9.25350E+01 1.18003E+01 0.00000E+00
 -1      3248 9.77850E+01 1.05013E+01 0.00000E+00
 -1      3249 9.62850E+01 1.05013E+01 0.00000E+00
 -1      3250 9.55350E+01 1.18003E+01 0.00000E+00
 -1      3251 1.00785E+02 1.05013E+01 0.00000E+00
 -1      3252 9.92850E+01 1.05013E+01 0.00000E+00
 -1      3253 9.85350E+01 1.18003E+01 0.00000E+00
 -1      3254 1.03785E+02 1.05013E+01 0.00000E+00
 -1      3255 1.02285E+02 1.05013E+01 0.00000E+00
 -1      3256 1.01535E+02 1.18003E+01 0.00000E+00
 -1      3257 1.06785E+02 1.05013E+01 0.00000E+00
 -1      3258 1.05285E+02 1.05013E+01 0.00000E+00
 -1      3259 1.04535E+02 1.18003E+01 0.00000E+00
 -1      3260 1.09785E+02 1.05013E+01 0.00000E+00
 -1      3261 1.08285E+02 1.05013E+01 0.00000E+00
 -1      3262 1.07535E+02 1.18003E+01 0.00000E+00
 -1      3263 1.12785E+02 1.05013E+01 0.00000E+00
 -1      3264 1.11285E+02 1.05013E+01 0.00000E+00
 -1      3265 1.10535E+02 1.18003E+01 0.00000E+00
 -1      3266 1.15785E+02 1.05013E+01 0.00000E+00
 -1      3267 1.14285E+02 1.05013E+01 0.00000E+00
 -1      3268 1.13535E+02 1.18003E+01 0.00000E+00
 -1      3269 1.18785E+02 1.05013E+01 0.00000E+00
 -1      3270 1.17285E+02 1.05013E+01 0.00000E+00
 -1      3271 1.16535E+02 1.18003E+01 0.00000E+00
 -1      3272 1.21785E+02 1.05013E+01 0.00000E+00
 -1      3273 1.20285E+02 1.05013E+01 0.00000E+00
 -1      3274 1.19535E+02 1.18003E+01 0.00000E+00
 -1      3275 1.24785E+02 1.05013E+01 0.00000E+00
 -1      3276 1.23285E+02 1.05013E+01 0.00000E+00
 -1      3277 1.22535E+02 1.18003E+01 0.00000E+00
 -1      3278 1.27785E+02 1.05013E+01 0.00000E+00
 -1      3279 1.26285E+02 1.05013E+01 0.00000E+00
 -1      3280 1.25535E+02 1.18003E+01 0.00000E+00
 -1      3281 1.30785E+02 1.05013E+01 0.00000E+00
 -1      3282 1.29285E+02 1.05013E+01 0.00000E+00
 -1      3283 1.28535E+02 1.18003E+01 0.00000E+00
 -1      3284 1.33785E+02 1.05013E+01 0.00000E+00
 -1      3285 1.32285E+02 1.05013E+01 0.00000E+00
 -1      3286 1.31535E+02 1.18003E+01 0.00000E+00
 -1      3287 1.36785E+02 1.05013E+01 0.00000E+00
 -1      3288 1.35285E+02 1.05013E+01 0.00000E+00
 -1      3289 1.34535E+02 1.18003E+01 0.00000E+00
 -1      3290 1.38879E+02 1.08930E+01 0.00000E+00
 -1      3291 1.37711E+02 1.06123E+01 0.00000E+00
 -1      3292 1.36961E+02 1.19113E+01 0.00000E+00
 -1      3293 1.38813E+02 1.21333E+01 0.00000E+00
 -1      3294 1.26488E+01 1.02017E+01 0.00000E+00
 -1      3295 1.20772E+01 1.14631E+01 0.00000E+00
 -1      3296 1.33763E+01 1.22006E+01 0.00000E+00
 -1      3297 1.41488E+01 1.02017E+01 0.00000E+00
 -1      3298 1.16910E+01 2.12875E+01 0.00000E+00
 -1      3299 1.16910E+01 2.27625E+01 0.00000E+00
 -1      3300 1.38309E+02 2.57625E+01 0.00000E+00
 -1      3301 1.38309E+02 2.42875E+01 0.00000E+00
 -1      3302 1.38309E+02 3.45625E+01 0.00000E+00
 -1      3303 1.38309E+02 3.30875E+01 0.00000E+00
 -1      3304 1.38309E+02 2.86625E+01 0.00000E+00
 -1      3305 1.38309E+02 2.72125E+01 0.00000E+00
 -1      3306 1.37010E+02 2.64750E+01 0.00000E+00
 -1      3307 7.53286E+01 1.42777E+01 0.00000E+00
 -1      3308 7.62118E+01 1.51836E+01 0.00000E+00
 -1      3309 7.51595E+01 1.05660E+01 0.00000E+00
 -1      3310 7.38205E+01 1.25193E+01 0.00000E+00
 -1      3311 7.49085E+01 1.32935E+01 0.00000E+00
 -1      3312 7.66595E+01 1.05660E+01 0.00000E+00
 -1      3313 1.38309E+02 3.16125E+01 0.00000E+00
 -1      3314 1.38309E+02 3.01375E+01 0.00000E+00
 -1      3315 1.37010E+02 2.94000E+01 0.00000E+00
 -1      3316 1.37010E+02 3.23500E+01 0.00000E+00
 -1      3317 3.77850E+01 1.05013E+01 0.00000E+00
 -1      3318 3.62850E+01 1.05013E+01 0.00000E+00
 -1      3319 3.85350E+01 1.18003E+01 0.00000E+00
 -1      3320 3.47850E+01 1.05013E+01 0.00000E+00
 -1      3321 3.32850E+01 1.05013E+01 0.00000E+00
 -1      3322 3.55350E+01 1.18003E+01 0.00000E+00
 -1      3323 6.25361E+01 3.82051E+01 0.00000E+00
 -1      3324 1.59000E+01 3.83090E+01 0.00000E+00
 -1      3325 1.74000E+01 3.83090E+01 0.00000E+00
 -1      3326 1.81500E+01 3.70100E+01 0.00000E+00
 -1      3327 5.12343E+01 2.44600E+01 0.00000E+00
 -1      3328 5.13996E+01 2.32341E+01 0.00000E+00
 -1      3329 6.16658E+01 1.07176E+01 0.00000E+00
 -1      3330 7.69939E+01 3.16028E+01 0.00000E+00
 -1      3331 7.61384E+01 3.26645E+01 0.00000E+00
 -1      3332 2.57850E+01 1.05013E+01 0.00000E+00
 -1      3333 2.42850E+01 1.05013E+01 0.00000E+00
 -1      3334 2.65350E+01 1.18003E+01 0.00000E+00
 -1      3335 2.27850E+01 1.05013E+01 0.00000E+00
 -1      3336 2.12850E+01 1.05013E+01 0.00000E+00
 -1      3337 2.35350E+01 1.18003E+01 0.00000E+00
 -1      3338 6.83707E+01 3.81630E+01 0.00000E+00
 -1      3339 7.27605E+01 3.72571E+01 0.00000E+00
 -1      3340 1.00862E+01 3.73269E+01 0.00000E+00
 -1      3341 5.56740E+01 1.43728E+01 0.00000E+00
 -1      3342 5.68033E+01 1.35555E+01 0.00000E+00
 -1      3343 5.13278E+01 2.72837E+01 0.00000E+00
 -1      3344 5.12075E+01 2.59371E+01 0.00000E+00
 -1      3345 5.51157E+01 3.53434E+01 0.00000E+00
 -1      3346 5.40519E+01 3.41975E+01 0.00000E+00
 -1      3347 7.42605E+01 3.72571E+01 0.00000E+00
 -1      3348 7.80443E+01 2.85045E+01 0.00000E+00
 -1      3349 7.78153E+01 2.99307E+01 0.00000E+00
 -1      3350 5.31046E+01 3.27044E+01 0.00000E+00
 -1      3351 5.26179E+01 3.14352E+01 0.00000E+00
 -1      3352 5.13284E+01 3.13265E+01 0.00000E+00
 -1      3353 5.28748E+01 1.96917E+01 0.00000E+00
 -1      3354 5.30558E+01 1.83016E+01 0.00000E+00
 -1      3355 7.53479E+01 3.37189E+01 0.00000E+00
 -1      3356 7.45445E+01 3.48697E+01 0.00000E+00
 -1      3357 6.10361E+01 3.82051E+01 0.00000E+00
 -1      3358 7.79730E+01 2.23830E+01 0.00000E+00
 -1      3359 7.81277E+01 2.37504E+01 0.00000E+00
 -1      3360 5.36655E+01 1.66016E+01 0.00000E+00
 -1      3361 5.44977E+01 1.55150E+01 0.00000E+00
 -1      3362 7.70917E+01 1.64608E+01 0.00000E+00
 -1      3363 7.77809E+01 1.75953E+01 0.00000E+00
 -1      3364 6.65588E+01 3.88368E+01 0.00000E+00
 -1      3365 6.01658E+01 1.07176E+01 0.00000E+00
 -1      3366 5.98251E+01 3.75757E+01 0.00000E+00
 -1      3367 1.16910E+01 2.42375E+01 0.00000E+00
 -1      3368 1.16910E+01 2.57125E+01 0.00000E+00
 -1      3369 1.29900E+01 2.35000E+01 0.00000E+00
 -1      3370 1.16910E+01 1.98188E+01 0.00000E+00
 -1      3371 1.29900E+01 2.05562E+01 0.00000E+00
 -1      3372 1.16910E+01 1.83500E+01 0.00000E+00
 -1      3373 5.72657E+01 1.25645E+01 0.00000E+00
 -1      3374 4.99273E+01 2.94603E+01 0.00000E+00
 -1      3375 5.06276E+01 2.83720E+01 0.00000E+00
 -1      3376 4.97133E+01 2.77750E+01 0.00000E+00
 -1      3377 7.83838E+01 1.81369E+01 0.00000E+00
 -1      3378 7.89867E+01 1.86784E+01 0.00000E+00
 -1      3379 7.89870E+01 1.69939E+01 0.00000E+00
 -1      3380 7.85468E+01 2.45872E+01 0.00000E+00
 -1      3381 7.89659E+01 2.54240E+01 0.00000E+00
 -1      3382 7.93215E+01 2.38070E+01 0.00000E+00
 -1      3383 1.38309E+02 1.69188E+01 0.00000E+00
 -1      3384 1.38309E+02 1.54563E+01 0.00000E+00
 -1      3385 1.16910E+01 1.54094E+01 0.00000E+00
 -1      3386 1.16910E+01 1.68781E+01 0.00000E+00
 -1      3387 1.29900E+01 1.76156E+01 0.00000E+00
 -1      3388 1.29900E+01 1.46719E+01 0.00000E+00
 -1      3389 5.49843E+01 3.67450E+01 0.00000E+00
 -1      3390 1.14286E+01 3.73811E+01 0.00000E+00
 -1      3391 6.80588E+01 3.88368E+01 0.00000E+00
 -1      3392 7.92472E+01 3.05016E+01 0.00000E+00
 -1      3393 7.81206E+01 3.10522E+01 0.00000E+00
 -1      3394 7.84258E+01 3.21737E+01 0.00000E+00
 -1      3395 2.05350E+01 1.18003E+01 0.00000E+00
 -1      3396 1.97850E+01 1.05013E+01 0.00000E+00
 -1      3397 1.82850E+01 1.05013E+01 0.00000E+00
 -1      3398 3.25350E+01 1.18003E+01 0.00000E+00
 -1      3399 7.65086E+01 3.37787E+01 0.00000E+00
 -1      3400 7.75041E+01 1.51752E+01 0.00000E+00
 -1      3401 7.74095E+01 1.18650E+01 0.00000E+00
 -1      3402 1.38309E+02 1.98687E+01 0.00000E+00
 -1      3403 1.38309E+02 1.83937E+01 0.00000E+00
 -1      3404 1.37010E+02 1.76625E+01 0.00000E+00
 -1      3405 1.38309E+02 2.28156E+01 0.00000E+00
 -1      3406 1.38309E+02 2.13406E+01 0.00000E+00
 -1      3407 1.37010E+02 2.06094E+01 0.00000E+00
 -1      3408 1.37010E+02 2.35531E+01 0.00000E+00
 -1      3409 7.62041E+01 1.29139E+01 0.00000E+00
 -1      3410 1.69669E+01 1.03515E+01 0.00000E+00
 -1      3411 1.54669E+01 1.03515E+01 0.00000E+00
 -1      3412 1.50806E+01 1.13509E+01 0.00000E+00
 -1      3413 1.77169E+01 1.16505E+01 0.00000E+00
 -1      3414 5.11768E+01 2.24548E+01 0.00000E+00
 -1      3415 5.09539E+01 2.16755E+01 0.00000E+00
 -1      3416 5.02443E+01 2.29531E+01 0.00000E+00
 -1      3417 1.45576E+01 3.82548E+01 0.00000E+00
 -1      3418 1.53076E+01 3.69558E+01 0.00000E+00
 -1      3419 1.32152E+01 3.82007E+01 0.00000E+00
 -1      3420 5.04403E+01 2.52096E+01 0.00000E+00
 -1      3421 7.90889E+01 2.70798E+01 0.00000E+00
 -1      3422 7.85666E+01 2.77921E+01 0.00000E+00
 -1      3423 7.94643E+01 2.86678E+01 0.00000E+00
 -1      3424 5.20007E+01 2.00315E+01 0.00000E+00
 -1      3425 5.27624E+01 3.40888E+01 0.00000E+00
 -1      3426 7.86430E+01 2.13958E+01 0.00000E+00
 -1      3427 1.16910E+01 3.01219E+01 0.00000E+00
 -1      3428 1.16910E+01 3.15906E+01 0.00000E+00
 -1      3429 5.27246E+01 1.71859E+01 0.00000E+00
 -1      3430 5.23934E+01 1.60702E+01 0.00000E+00
 -1      3431 5.17837E+01 1.77702E+01 0.00000E+00
 -1      3432 5.45105E+01 1.43437E+01 0.00000E+00
 -1      3433 1.37758E+02 3.64912E+01 0.00000E+00
 -1      3434 1.38123E+02 3.54142E+01 0.00000E+00
 -1      3435 1.36824E+02 3.46768E+01 0.00000E+00
 -1      3436 1.36451E+02 3.63802E+01 0.00000E+00
 -1      3437 7.50105E+01 3.59581E+01 0.00000E+00
 -1      3438 1.29900E+01 3.23250E+01 0.00000E+00
 -1      3439 1.16910E+01 3.30594E+01 0.00000E+00
 -1      3440 1.16910E+01 3.45281E+01 0.00000E+00
 -1      3441 2.34000E+01 3.57110E+01 0.00000E+00
 -1      3442 2.49000E+01 3.57110E+01 0.00000E+00
 -1      3443 2.64000E+01 3.57110E+01 0.00000E+00
 -1      3444 2.79000E+01 3.57110E+01 0.00000E+00
 -1      3445 2.56500E+01 3.44120E+01 0.00000E+00
 -1      3446 2.94000E+01 3.57110E+01 0.00000E+00
 -1      3447 3.09000E+01 3.57110E+01 0.00000E+00
 -1      3448 2.86500E+01 3.44120E+01 0.00000E+00
 -1      3449 3.24000E+01 3.57110E+01 0.00000E+00
 -1      3450 3.39000E+01 3.57110E+01 0.00000E+00
 -1      3451 3.16500E+01 3.44120E+01 0.00000E+00
 -1      3452 3.54000E+01 3.57110E+01 0.00000E+00
 -1      3453 3.69000E+01 3.57110E+01 0.00000E+00
 -1      3454 3.46500E+01 3.44120E+01 0.00000E+00
 -1      3455 3.84000E+01 3.57110E+01 0.00000E+00
 -1      3456 3.99000E+01 3.57110E+01 0.00000E+00
 -1      3457 3.76500E+01 3.44120E+01 0.00000E+00
 -1      3458 4.14000E+01 3.57110E+01 0.00000E+00
 -1      3459 4.29000E+01 3.57110E+01 0.00000E+00
 -1      3460 4.06500E+01 3.44120E+01 0.00000E+00
 -1      3461 4.44000E+01 3.57110E+01 0.00000E+00
 -1      3462 4.59000E+01 3.57110E+01 0.00000E+00
 -1      3463 4.36500E+01 3.44120E+01 0.00000E+00
 -1      3464 4.74000E+01 3.57110E+01 0.00000E+00
 -1      3465 4.89000E+01 3.57110E+01 0.00000E+00
 -1      3466 4.66500E+01 3.44120E+01 0.00000E+00
 -1      3467 1.74000E+01 3.57110E+01 0.00000E+00
 -1      3468 1.89000E+01 3.57110E+01 0.00000E+00
 -1      3469 8.04000E+01 3.57110E+01 0.00000E+00
 -1      3470 8.19000E+01 3.57110E+01 0.00000E+00
 -1      3471 8.34000E+01 3.57110E+01 0.00000E+00
 -1      3472 8.49000E+01 3.57110E+01 0.00000E+00
 -1      3473 8.26500E+01 3.44120E+01 0.00000E+00
 -1      3474 8.64000E+01 3.57110E+01 0.00000E+00
 -1      3475 8.79000E+01 3.57110E+01 0.00000E+00
 -1      3476 8.56500E+01 3.44120E+01 0.00000E+00
 -1      3477 8.94000E+01 3.57110E+01 0.00000E+00
 -1      3478 9.09000E+01 3.57110E+01 0.00000E+00
 -1      3479 8.86500E+01 3.44120E+01 0.00000E+00
 -1      3480 9.24000E+01 3.57110E+01 0.00000E+00
 -1      3481 9.39000E+01 3.57110E+01 0.00000E+00
 -1      3482 9.16500E+01 3.44120E+01 0.00000E+00
 -1      3483 9.54000E+01 3.57110E+01 0.00000E+00
 -1      3484 9.69000E+01 3.57110E+01 0.00000E+00
 -1      3485 9.46500E+01 3.44120E+01 0.00000E+00
 -1      3486 9.84000E+01 3.57110E+01 0.00000E+00
 -1      3487 9.99000E+01 3.57110E+01 0.00000E+00
 -1      3488 9.76500E+01 3.44120E+01 0.00000E+00
 -1      3489 1.01400E+02 3.57110E+01 0.00000E+00
 -1      3490 1.02900E+02 3.57110E+01 0.00000E+00
 -1      3491 1.00650E+02 3.44120E+01 0.00000E+00
 -1      3492 1.04400E+02 3.57110E+01 0.00000E+00
 -1      3493 1.05900E+02 3.57110E+01 0.00000E+00
 -1      3494 1.03650E+02 3.44120E+01 0.00000E+00
 -1      3495 1.07400E+02 3.57110E+01 0.00000E+00
 -1      3496 1.08900E+02 3.57110E+01 0.00000E+00
 -1      3497 1.06650E+02 3.44120E+01 0.00000E+00
 -1      3498 1.10400E+02 3.57110E+01 0.00000E+00
 -1      3499 1.11900E+02 3.57110E+01 0.00000E+00
 -1      3500 1.09650E+02 3.44120E+01 0.00000E+00
 -1      3501 1.13400E+02 3.57110E+01 0.00000E+00
 -1      3502 1.14900E+02 3.57110E+01 0.00000E+00
 -1      3503 1.12650E+02 3.44120E+01 0.00000E+00
 -1      3504 1.16400E+02 3.57110E+01 0.00000E+00
 -1      3505 1.17900E+02 3.57110E+01 0.00000E+00
 -1      3506 1.15650E+02 3.44120E+01 0.00000E+00
 -1      3507 1.19400E+02 3.57110E+01 0.00000E+00
 -1      3508 1.20900E+02 3.57110E+01 0.00000E+00
 -1      3509 1.18650E+02 3.44120E+01 0.00000E+00
 -1      3510 1.22400E+02 3.57110E+01 0.00000E+00
 -1      3511 1.23900E+02 3.57110E+01 0.00000E+00
 -1      3512 1.21650E+02 3.44120E+01 0.00000E+00
 -1      3513 1.25400E+02 3.57110E+01 0.00000E+00
 -1      3514 1.26900E+02 3.57110E+01 0.00000E+00
 -1      3515 1.24650E+02 3.44120E+01 0.00000E+00
 -1      3516 1.28400E+02 3.57110E+01 0.00000E+00
 -1      3517 1.29900E+02 3.57110E+01 0.00000E+00
 -1      3518 1.27650E+02 3.44120E+01 0.00000E+00
 -1      3519 1.31400E+02 3.57110E+01 0.00000E+00
 -1      3520 1.32900E+02 3.57110E+01 0.00000E+00
 -1      3521 1.30650E+02 3.44120E+01 0.00000E+00
 -1      3522 4.82850E+01 1.30992E+01 0.00000E+00
 -1      3523 4.67850E+01 1.30992E+01 0.00000E+00
 -1      3524 4.52850E+01 1.30992E+01 0.00000E+00
 -1      3525 4.37850E+01 1.30992E+01 0.00000E+00
 -1      3526 4.60350E+01 1.43982E+01 0.00000E+00
 -1      3527 4.22850E+01 1.30992E+01 0.00000E+00
 -1      3528 4.07850E+01 1.30992E+01 0.00000E+00
 -1      3529 4.30350E+01 1.43982E+01 0.00000E+00
 -1      3530 5.69398E+01 1.18638E+01 0.00000E+00
 -1      3531 1.21786E+01 3.60821E+01 0.00000E+00
 -1      3532 2.72850E+01 1.30992E+01 0.00000E+00
 -1      3533 2.57850E+01 1.30992E+01 0.00000E+00
 -1      3534 3.62850E+01 1.30992E+01 0.00000E+00
 -1      3535 3.47850E+01 1.30992E+01 0.00000E+00
 -1      3536 8.12850E+01 1.30992E+01 0.00000E+00
 -1      3537 7.97850E+01 1.30992E+01 0.00000E+00
 -1      3538 9.02850E+01 1.30992E+01 0.00000E+00
 -1      3539 8.87850E+01 1.30992E+01 0.00000E+00
 -1      3540 9.32850E+01 1.30992E+01 0.00000E+00
 -1      3541 9.17850E+01 1.30992E+01 0.00000E+00
 -1      3542 9.10350E+01 1.43982E+01 0.00000E+00
 -1      3543 9.62850E+01 1.30992E+01 0.00000E+00
 -1      3544 9.47850E+01 1.30992E+01 0.00000E+00
 -1      3545 9.40350E+01 1.43982E+01 0.00000E+00
 -1      3546 9.92850E+01 1.30992E+01 0.00000E+00
 -1      3547 9.77850E+01 1.30992E+01 0.00000E+00
 -1      3548 9.70350E+01 1.43982E+01 0.00000E+00
 -1      3549 1.02285E+02 1.30992E+01 0.00000E+00
 -1      3550 1.00785E+02 1.30992E+01 0.00000E+00
 -1      3551 1.00035E+02 1.43982E+01 0.00000E+00
 -1      3552 1.05285E+02 1.30992E+01 0.00000E+00
 -1      3553 1.03785E+02 1.30992E+01 0.00000E+00
 -1      3554 1.03035E+02 1.43982E+01 0.00000E+00
 -1      3555 1.08285E+02 1.30992E+01 0.00000E+00
 -1      3556 1.06785E+02 1.30992E+01 0.00000E+00
 -1      3557 1.06035E+02 1.43982E+01 0.00000E+00
 -1      3558 1.11285E+02 1.30992E+01 0.00000E+00
 -1      3559 1.09785E+02 1.30992E+01 0.00000E+00
 -1      3560 1.09035E+02 1.43982E+01 0.00000E+00
 -1      3561 1.14285E+02 1.30992E+01 0.00000E+00
 -1      3562 1.12785E+02 1.30992E+01 0.00000E+00
 -1      3563 1.12035E+02 1.43982E+01 0.00000E+00
 -1      3564 1.17285E+02 1.30992E+01 0.00000E+00
 -1      3565 1.15785E+02 1.30992E+01 0.00000E+00
 -1      3566 1.15035E+02 1.43982E+01 0.00000E+00
 -1      3567 1.20285E+02 1.30992E+01 0.00000E+00
 -1      3568 1.18785E+02 1.30992E+01 0.00000E+00
 -1      3569 1.18035E+02 1.43982E+01 0.00000E+00
 -1      3570 1.23285E+02 1.30992E+01 0.00000E+00
 -1      3571 1.21785E+02 1.30992E+01 0.00000E+00
 -1      3572 1.21035E+02 1.43982E+01 0.00000E+00
 -1      3573 1.26285E+02 1.30992E+01 0.00000E+00
 -1      3574 1.24785E+02 1.30992E+01 0.00000E+00
 -1      3575 1.24035E+02 1.43982E+01 0.00000E+00
 -1      3576 1.29285E+02 1.30992E+01 0.00000E+00
 -1      3577 1.27785E+02 1.30992E+01 0.00000E+00
 -1      3578 1.27035E+02 1.43982E+01 0.00000E+00
 -1      3579 1.32285E+02 1.30992E+01 0.00000E+00
 -1      3580 1.30785E+02 1.30992E+01 0.00000E+00
 -1      3581 1.30035E+02 1.43982E+01 0.00000E+00
 -1      3582 1.35285E+02 1.30992E+01 0.00000E+00
 -1      3583 1.33785E+02 1.30992E+01 0.00000E+00
 -1      3584 1.33035E+02 1.43982E+01 0.00000E+00
 -1      3585 7.78296E+01 1.28492E+01 0.00000E+00
 -1      3586 1.38528E+02 1.44149E+01 0.00000E+00
 -1      3587 1.38594E+02 1.31746E+01 0.00000E+00
 -1      3588 1.37668E+02 1.30636E+01 0.00000E+00
 -1      3589 1.37229E+02 1.51462E+01 0.00000E+00
 -1      3590 1.35711E+02 2.72000E+01 0.00000E+00
 -1      3591 1.35711E+02 2.57500E+01 0.00000E+00
 -1      3592 3.32850E+01 1.30992E+01 0.00000E+00
 -1      3593 3.17850E+01 1.30992E+01 0.00000E+00
 -1      3594 3.40350E+01 1.43982E+01 0.00000E+00
 -1      3595 3.92850E+01 1.30992E+01 0.00000E+00
 -1      3596 3.77850E+01 1.30992E+01 0.00000E+00
 -1      3597 3.70350E+01 1.43982E+01 0.00000E+00
 -1      3598 4.00350E+01 1.43982E+01 0.00000E+00
 -1      3599 8.72850E+01 1.30992E+01 0.00000E+00
 -1      3600 8.57850E+01 1.30992E+01 0.00000E+00
 -1      3601 8.80350E+01 1.43982E+01 0.00000E+00
 -1      3602 8.42850E+01 1.30992E+01 0.00000E+00
 -1      3603 8.27850E+01 1.30992E+01 0.00000E+00
 -1      3604 8.20350E+01 1.43982E+01 0.00000E+00
 -1      3605 8.50350E+01 1.43982E+01 0.00000E+00
 -1      3606 7.85796E+01 1.41482E+01 0.00000E+00
 -1      3607 7.94595E+01 1.54253E+01 0.00000E+00
 -1      3608 4.93182E+01 2.59281E+01 0.00000E+00
 -1      3609 4.93450E+01 2.44509E+01 0.00000E+00
 -1      3610 2.42850E+01 1.30992E+01 0.00000E+00
 -1      3611 2.27850E+01 1.30992E+01 0.00000E+00
 -1      3612 2.50350E+01 1.43982E+01 0.00000E+00
 -1      3613 1.16910E+01 2.71844E+01 0.00000E+00
 -1      3614 1.16910E+01 2.86531E+01 0.00000E+00
 -1      3615 1.29900E+01 2.93875E+01 0.00000E+00
 -1      3616 2.04000E+01 3.57110E+01 0.00000E+00
 -1      3617 2.19000E+01 3.57110E+01 0.00000E+00
 -1      3618 2.26500E+01 3.44120E+01 0.00000E+00
 -1      3619 1.46944E+01 1.23503E+01 0.00000E+00
 -1      3620 1.43081E+01 1.33498E+01 0.00000E+00
 -1      3621 1.60125E+01 1.25001E+01 0.00000E+00
 -1      3622 7.95247E+01 2.04419E+01 0.00000E+00
 -1      3623 7.97842E+01 2.20163E+01 0.00000E+00
 -1      3624 5.10682E+01 2.05298E+01 0.00000E+00
 -1      3625 5.11824E+01 1.93842E+01 0.00000E+00
 -1      3626 5.01357E+01 2.10282E+01 0.00000E+00
 -1      3627 5.05363E+01 3.23582E+01 0.00000E+00
 -1      3628 5.00496E+01 3.10889E+01 0.00000E+00
 -1      3629 5.09298E+01 3.49970E+01 0.00000E+00
 -1      3630 4.99825E+01 3.35039E+01 0.00000E+00
 -1      3631 3.02850E+01 1.30992E+01 0.00000E+00
 -1      3632 2.87850E+01 1.30992E+01 0.00000E+00
 -1      3633 3.10350E+01 1.43982E+01 0.00000E+00
 -1      3634 1.43081E+01 1.48217E+01 0.00000E+00
 -1      3635 4.91353E+01 3.04919E+01 0.00000E+00
 -1      3636 1.42890E+01 1.98219E+01 0.00000E+00
 -1      3637 1.42890E+01 2.12906E+01 0.00000E+00
 -1      3638 8.02033E+01 2.28531E+01 0.00000E+00
 -1      3639 8.06224E+01 2.36899E+01 0.00000E+00
 -1      3640 8.10850E+01 2.18992E+01 0.00000E+00
 -1      3641 1.96500E+01 3.44120E+01 0.00000E+00
 -1      3642 1.60576E+01 3.56568E+01 0.00000E+00
 -1      3643 1.68076E+01 3.43578E+01 0.00000E+00
 -1      3644 1.47152E+01 3.56027E+01 0.00000E+00
 -1      3645 1.34412E+02 2.50031E+01 0.00000E+00
 -1      3646 1.35711E+02 2.42781E+01 0.00000E+00
 -1      3647 1.35711E+02 2.28062E+01 0.00000E+00
 -1      3648 8.01646E+01 2.96497E+01 0.00000E+00
 -1      3649 8.04698E+01 3.07711E+01 0.00000E+00
 -1      3650 7.61840E+01 3.59216E+01 0.00000E+00
 -1      3651 2.12850E+01 1.30992E+01 0.00000E+00
 -1      3652 1.97850E+01 1.30992E+01 0.00000E+00
 -1      3653 2.20350E+01 1.43982E+01 0.00000E+00
 -1      3654 5.02437E+01 1.42274E+01 0.00000E+00
 -1      3655 4.94937E+01 1.55264E+01 0.00000E+00
 -1      3656 1.34022E+02 3.59901E+01 0.00000E+00
 -1      3657 1.35329E+02 3.61011E+01 0.00000E+00
 -1      3658 1.35515E+02 3.52494E+01 0.00000E+00
 -1      3659 1.33272E+02 3.46911E+01 0.00000E+00
 -1      3660 5.17437E+01 1.42274E+01 0.00000E+00
 -1      3661 5.32437E+01 1.42274E+01 0.00000E+00
 -1      3662 1.29900E+01 2.64469E+01 0.00000E+00
 -1      3663 2.80350E+01 1.43982E+01 0.00000E+00
 -1      3664 1.35711E+02 3.01500E+01 0.00000E+00
 -1      3665 1.35711E+02 2.86750E+01 0.00000E+00
 -1      3666 1.34412E+02 2.79500E+01 0.00000E+00
 -1      3667 1.36742E+02 1.29526E+01 0.00000E+00
 -1      3668 4.91221E+01 2.36716E+01 0.00000E+00
 -1      3669 4.88993E+01 2.28923E+01 0.00000E+00
 -1      3670 4.80000E+01 2.43901E+01 0.00000E+00
 -1      3671 1.35992E+02 1.42516E+01 0.00000E+00
 -1      3672 1.35773E+02 1.52929E+01 0.00000E+00
 -1      3673 1.35773E+02 1.82429E+01 0.00000E+00
 -1      3674 1.35773E+02 1.67679E+01 0.00000E+00
 -1      3675 1.34535E+02 1.58733E+01 0.00000E+00
 -1      3676 4.86179E+01 2.70163E+01 0.00000E+00
 -1      3677 4.75226E+01 2.62576E+01 0.00000E+00
 -1      3678 4.79177E+01 2.81046E+01 0.00000E+00
 -1      3679 1.42890E+01 2.86531E+01 0.00000E+00
 -1      3680 1.42890E+01 3.01219E+01 0.00000E+00
 -1      3681 7.98636E+01 2.62996E+01 0.00000E+00
 -1      3682 7.74000E+01 3.57335E+01 0.00000E+00
 -1      3683 7.89000E+01 3.57335E+01 0.00000E+00
 -1      3684 1.55880E+01 2.20313E+01 0.00000E+00
 -1      3685 1.42890E+01 2.27656E+01 0.00000E+00
 -1      3686 1.42890E+01 2.42406E+01 0.00000E+00
 -1      3687 5.08512E+01 1.82685E+01 0.00000E+00
 -1      3688 5.05200E+01 1.71528E+01 0.00000E+00
 -1      3689 4.99187E+01 1.87668E+01 0.00000E+00
 -1      3690 8.01279E+01 1.92989E+01 0.00000E+00
 -1      3691 8.12692E+01 1.99194E+01 0.00000E+00
 -1      3692 8.07311E+01 1.81559E+01 0.00000E+00
 -1      3693 5.55141E+01 3.60310E+01 0.00000E+00
 -1      3694 7.69340E+01 3.46451E+01 0.00000E+00
 -1      3695 8.06869E+01 2.89373E+01 0.00000E+00
 -1      3696 7.77246E+01 3.35907E+01 0.00000E+00
 -1      3697 7.88512E+01 3.30401E+01 0.00000E+00
 -1      3698 7.96500E+01 3.44345E+01 0.00000E+00
 -1      3699 1.35702E+02 3.43976E+01 0.00000E+00
 -1      3700 1.55266E+01 3.18456E+01 0.00000E+00
 -1      3701 1.42276E+01 3.25800E+01 0.00000E+00
 -1      3702 1.34487E+02 3.38069E+01 0.00000E+00
 -1      3703 1.35795E+02 3.32342E+01 0.00000E+00
 -1      3704 1.35795E+02 3.17593E+01 0.00000E+00
 -1      3705 1.33365E+02 3.35277E+01 0.00000E+00
 -1      3706 1.42890E+01 1.83500E+01 0.00000E+00
 -1      3707 1.55880E+01 1.90844E+01 0.00000E+00
 -1      3708 1.42890E+01 1.68781E+01 0.00000E+00
 -1      3709 8.00625E+01 1.59668E+01 0.00000E+00
 -1      3710 1.35711E+02 2.13344E+01 0.00000E+00
 -1      3711 1.35711E+02 1.98625E+01 0.00000E+00
 -1      3712 1.34412E+02 2.20594E+01 0.00000E+00
 -1      3713 8.16193E+01 1.54928E+01 0.00000E+00
 -1      3714 8.11468E+01 1.70614E+01 0.00000E+00
 -1      3715 8.22880E+01 1.76819E+01 0.00000E+00
 -1      3716 8.31193E+01 1.54928E+01 0.00000E+00
 -1      3717 2.79000E+01 3.31130E+01 0.00000E+00
 -1      3718 2.94000E+01 3.31130E+01 0.00000E+00
 -1      3719 3.09000E+01 3.31130E+01 0.00000E+00
 -1      3720 3.24000E+01 3.31130E+01 0.00000E+00
 -1      3721 3.01500E+01 3.18140E+01 0.00000E+00
 -1      3722 3.39000E+01 3.31130E+01 0.00000E+00
 -1      3723 3.54000E+01 3.31130E+01 0.00000E+00
 -1      3724 3.31500E+01 3.18140E+01 0.00000E+00
 -1      3725 3.69000E+01 3.31130E+01 0.00000E+00
 -1      3726 3.84000E+01 3.31130E+01 0.00000E+00
 -1      3727 3.61500E+01 3.18140E+01 0.00000E+00
 -1      3728 3.99000E+01 3.31130E+01 0.00000E+00
 -1      3729 4.14000E+01 3.31130E+01 0.00000E+00
 -1      3730 3.91500E+01 3.18140E+01 0.00000E+00
 -1      3731 4.29000E+01 3.31130E+01 0.00000E+00
 -1      3732 4.44000E+01 3.31130E+01 0.00000E+00
 -1      3733 4.21500E+01 3.18140E+01 0.00000E+00
 -1      3734 5.04000E+01 3.57110E+01 0.00000E+00
 -1      3735 1.42890E+01 2.57109E+01 0.00000E+00
 -1      3736 1.42890E+01 2.71828E+01 0.00000E+00
 -1      3737 1.55880E+01 2.79172E+01 0.00000E+00
 -1      3738 1.55880E+01 2.49766E+01 0.00000E+00
 -1      3739 8.49000E+01 3.31130E+01 0.00000E+00
 -1      3740 8.64000E+01 3.31130E+01 0.00000E+00
 -1      3741 8.79000E+01 3.31130E+01 0.00000E+00
 -1      3742 8.94000E+01 3.31130E+01 0.00000E+00
 -1      3743 8.71500E+01 3.18140E+01 0.00000E+00
 -1      3744 9.09000E+01 3.31130E+01 0.00000E+00
 -1      3745 9.24000E+01 3.31130E+01 0.00000E+00
 -1      3746 9.01500E+01 3.18140E+01 0.00000E+00
 -1      3747 9.39000E+01 3.31130E+01 0.00000E+00
 -1      3748 9.54000E+01 3.31130E+01 0.00000E+00
 -1      3749 9.31500E+01 3.18140E+01 0.00000E+00
 -1      3750 9.69000E+01 3.31130E+01 0.00000E+00
 -1      3751 9.84000E+01 3.31130E+01 0.00000E+00
 -1      3752 9.61500E+01 3.18140E+01 0.00000E+00
 -1      3753 9.99000E+01 3.31130E+01 0.00000E+00
 -1      3754 1.01400E+02 3.31130E+01 0.00000E+00
 -1      3755 9.91500E+01 3.18140E+01 0.00000E+00
 -1      3756 1.02900E+02 3.31130E+01 0.00000E+00
 -1      3757 1.04400E+02 3.31130E+01 0.00000E+00
 -1      3758 1.02150E+02 3.18140E+01 0.00000E+00
 -1      3759 1.05900E+02 3.31130E+01 0.00000E+00
 -1      3760 1.07400E+02 3.31130E+01 0.00000E+00
 -1      3761 1.05150E+02 3.18140E+01 0.00000E+00
 -1      3762 1.08900E+02 3.31130E+01 0.00000E+00
 -1      3763 1.10400E+02 3.31130E+01 0.00000E+00
 -1      3764 1.08150E+02 3.18140E+01 0.00000E+00
 -1      3765 1.11900E+02 3.31130E+01 0.00000E+00
 -1      3766 1.13400E+02 3.31130E+01 0.00000E+00
 -1      3767 1.11150E+02 3.18140E+01 0.00000E+00
 -1      3768 1.14900E+02 3.31130E+01 0.00000E+00
 -1      3769 1.16400E+02 3.31130E+01 0.00000E+00
 -1      3770 1.14150E+02 3.18140E+01 0.00000E+00
 -1      3771 1.17900E+02 3.31130E+01 0.00000E+00
 -1      3772 1.19400E+02 3.31130E+01 0.00000E+00
 -1      3773 1.17150E+02 3.18140E+01 0.00000E+00
 -1      3774 1.20900E+02 3.31130E+01 0.00000E+00
 -1      3775 1.22400E+02 3.31130E+01 0.00000E+00
 -1      3776 1.20150E+02 3.18140E+01 0.00000E+00
 -1      3777 1.23900E+02 3.31130E+01 0.00000E+00
 -1      3778 1.25400E+02 3.31130E+01 0.00000E+00
 -1      3779 1.23150E+02 3.18140E+01 0.00000E+00
 -1      3780 1.26900E+02 3.31130E+01 0.00000E+00
 -1      3781 1.28400E+02 3.31130E+01 0.00000E+00
 -1      3782 1.26150E+02 3.18140E+01 0.00000E+00
 -1      3783 1.29900E+02 3.31130E+01 0.00000E+00
 -1      3784 1.31400E+02 3.31130E+01 0.00000E+00
 -1      3785 1.29150E+02 3.18140E+01 0.00000E+00
 -1      3786 1.42276E+01 3.40487E+01 0.00000E+00
 -1      3787 9.77850E+01 1.56973E+01 0.00000E+00
 -1      3788 9.62850E+01 1.56973E+01 0.00000E+00
 -1      3789 9.47850E+01 1.56973E+01 0.00000E+00
 -1      3790 9.32850E+01 1.56973E+01 0.00000E+00
 -1      3791 9.55350E+01 1.69963E+01 0.00000E+00
 -1      3792 4.37850E+01 1.56973E+01 0.00000E+00
 -1      3793 4.22850E+01 1.56973E+01 0.00000E+00
 -1      3794 1.56071E+01 1.55560E+01 0.00000E+00
 -1      3795 8.87850E+01 1.56973E+01 0.00000E+00
 -1      3796 8.72850E+01 1.56973E+01 0.00000E+00
 -1      3797 1.34776E+01 3.53477E+01 0.00000E+00
 -1      3798 9.17850E+01 1.56973E+01 0.00000E+00
 -1      3799 9.02850E+01 1.56973E+01 0.00000E+00
 -1      3800 8.95350E+01 1.69963E+01 0.00000E+00
 -1      3801 9.25350E+01 1.69963E+01 0.00000E+00
 -1      3802 1.00785E+02 1.56973E+01 0.00000E+00
 -1      3803 9.92850E+01 1.56973E+01 0.00000E+00
 -1      3804 9.85350E+01 1.69963E+01 0.00000E+00
 -1      3805 1.03785E+02 1.56973E+01 0.00000E+00
 -1      3806 1.02285E+02 1.56973E+01 0.00000E+00
 -1      3807 1.01535E+02 1.69963E+01 0.00000E+00
 -1      3808 1.06785E+02 1.56973E+01 0.00000E+00
 -1      3809 1.05285E+02 1.56973E+01 0.00000E+00
 -1      3810 1.04535E+02 1.69963E+01 0.00000E+00
 -1      3811 1.09785E+02 1.56973E+01 0.00000E+00
 -1      3812 1.08285E+02 1.56973E+01 0.00000E+00
 -1      3813 1.07535E+02 1.69963E+01 0.00000E+00
 -1      3814 1.12785E+02 1.56973E+01 0.00000E+00
 -1      3815 1.11285E+02 1.56973E+01 0.00000E+00
 -1      3816 1.10535E+02 1.69963E+01 0.00000E+00
 -1      3817 1.15785E+02 1.56973E+01 0.00000E+00
 -1      3818 1.14285E+02 1.56973E+01 0.00000E+00
 -1      3819 1.13535E+02 1.69963E+01 0.00000E+00
 -1      3820 1.18785E+02 1.56973E+01 0.00000E+00
 -1      3821 1.17285E+02 1.56973E+01 0.00000E+00
 -1      3822 1.16535E+02 1.69963E+01 0.00000E+00
 -1      3823 1.21785E+02 1.56973E+01 0.00000E+00
 -1      3824 1.20285E+02 1.56973E+01 0.00000E+00
 -1      3825 1.19535E+02 1.69963E+01 0.00000E+00
 -1      3826 1.24785E+02 1.56973E+01 0.00000E+00
 -1      3827 1.23285E+02 1.56973E+01 0.00000E+00
 -1      3828 1.22535E+02 1.69963E+01 0.00000E+00
 -1      3829 1.27785E+02 1.56973E+01 0.00000E+00
 -1      3830 1.26285E+02 1.56973E+01 0.00000E+00
 -1      3831 1.25535E+02 1.69963E+01 0.00000E+00
 -1      3832 1.30785E+02 1.56973E+01 0.00000E+00
 -1      3833 1.29285E+02 1.56973E+01 0.00000E+00
 -1      3834 1.28535E+02 1.69963E+01 0.00000E+00
 -1      3835 1.33410E+02 1.57852E+01 0.00000E+00
 -1      3836 1.31910E+02 1.57852E+01 0.00000E+00
 -1      3837 1.31160E+02 1.70842E+01 0.00000E+00
 -1      3838 1.33410E+02 1.72603E+01 0.00000E+00
 -1      3839 4.90585E+01 2.14993E+01 0.00000E+00
 -1      3840 4.91727E+01 2.03536E+01 0.00000E+00
 -1      3841 2.49000E+01 3.31130E+01 0.00000E+00
 -1      3842 2.64000E+01 3.31130E+01 0.00000E+00
 -1      3843 2.71500E+01 3.18140E+01 0.00000E+00
 -1      3844 8.17401E+01 3.12191E+01 0.00000E+00
 -1      3845 8.08228E+01 3.20711E+01 0.00000E+00
 -1      3846 3.47850E+01 1.56973E+01 0.00000E+00
 -1      3847 3.32850E+01 1.56973E+01 0.00000E+00
 -1      3848 1.85578E+01 1.28746E+01 0.00000E+00
 -1      3849 1.72397E+01 1.27248E+01 0.00000E+00
 -1      3850 1.68534E+01 1.37242E+01 0.00000E+00
 -1      3851 1.93078E+01 1.41736E+01 0.00000E+00
 -1      3852 2.57850E+01 1.56973E+01 0.00000E+00
 -1      3853 2.42850E+01 1.56973E+01 0.00000E+00
 -1      3854 1.89000E+01 3.31130E+01 0.00000E+00
 -1      3855 2.04000E+01 3.31130E+01 0.00000E+00
 -1      3856 8.09915E+01 2.53834E+01 0.00000E+00
 -1      3857 8.11145E+01 2.70392E+01 0.00000E+00
 -1      3858 8.18148E+01 2.80211E+01 0.00000E+00
 -1      3859 8.25151E+01 2.90030E+01 0.00000E+00
 -1      3860 8.29428E+01 2.71048E+01 0.00000E+00
 -1      3861 3.17850E+01 1.56973E+01 0.00000E+00
 -1      3862 3.02850E+01 1.56973E+01 0.00000E+00
 -1      3863 3.25350E+01 1.69963E+01 0.00000E+00
 -1      3864 4.67850E+01 1.56973E+01 0.00000E+00
 -1      3865 4.52850E+01 1.56973E+01 0.00000E+00
 -1      3866 4.45350E+01 1.69963E+01 0.00000E+00
 -1      3867 2.87850E+01 1.56973E+01 0.00000E+00
 -1      3868 2.72850E+01 1.56973E+01 0.00000E+00
 -1      3869 2.65350E+01 1.69963E+01 0.00000E+00
 -1      3870 5.53609E+01 1.25009E+01 0.00000E+00
 -1      3871 5.41846E+01 1.36431E+01 0.00000E+00
 -1      3872 2.19000E+01 3.31130E+01 0.00000E+00
 -1      3873 2.34000E+01 3.31130E+01 0.00000E+00
 -1      3874 2.41500E+01 3.18140E+01 0.00000E+00
 -1      3875 8.16215E+01 3.34655E+01 0.00000E+00
 -1      3876 8.31215E+01 3.34655E+01 0.00000E+00
 -1      3877 4.87038E+01 3.32663E+01 0.00000E+00
 -1      3878 4.80071E+01 3.13955E+01 0.00000E+00
 -1      3879 4.78848E+01 2.97669E+01 0.00000E+00
 -1      3880 8.03512E+01 3.30175E+01 0.00000E+00
 -1      3881 4.74533E+01 3.25412E+01 0.00000E+00
 -1      3882 8.16882E+01 2.07562E+01 0.00000E+00
 -1      3883 8.21073E+01 2.15930E+01 0.00000E+00
 -1      3884 8.22914E+01 1.96133E+01 0.00000E+00
 -1      3885 8.18733E+01 2.44295E+01 0.00000E+00
 -1      3886 1.68870E+01 1.83484E+01 0.00000E+00
 -1      3887 1.68870E+01 1.98203E+01 0.00000E+00
 -1      3888 4.52033E+01 3.12422E+01 0.00000E+00
 -1      3889 4.59533E+01 3.25412E+01 0.00000E+00
 -1      3890 1.33113E+02 2.57391E+01 0.00000E+00
 -1      3891 1.33113E+02 2.42672E+01 0.00000E+00
 -1      3892 1.34473E+02 1.89679E+01 0.00000E+00
 -1      3893 2.27850E+01 1.56973E+01 0.00000E+00
 -1      3894 2.12850E+01 1.56973E+01 0.00000E+00
 -1      3895 2.35350E+01 1.69963E+01 0.00000E+00
 -1      3896 1.32615E+02 3.22287E+01 0.00000E+00
 -1      3897 1.68343E+01 1.57807E+01 0.00000E+00
 -1      3898 1.34496E+02 3.10343E+01 0.00000E+00
 -1      3899 3.77850E+01 1.56973E+01 0.00000E+00
 -1      3900 3.62850E+01 1.56973E+01 0.00000E+00
 -1      3901 3.55350E+01 1.69963E+01 0.00000E+00
 -1      3902 4.79363E+01 2.22178E+01 0.00000E+00
 -1      3903 8.38715E+01 3.21665E+01 0.00000E+00
 -1      3904 4.62400E+01 2.62017E+01 0.00000E+00
 -1      3905 4.69402E+01 2.51134E+01 0.00000E+00
 -1      3906 4.67174E+01 2.43342E+01 0.00000E+00
 -1      3907 1.68870E+01 2.12953E+01 0.00000E+00
 -1      3908 1.68870E+01 2.27703E+01 0.00000E+00
 -1      3909 1.81860E+01 2.05594E+01 0.00000E+00
 -1      3910 8.30169E+01 2.99348E+01 0.00000E+00
 -1      3911 8.33698E+01 3.12347E+01 0.00000E+00
 -1      3912 8.51483E+01 3.08822E+01 0.00000E+00
 -1      3913 8.41448E+01 2.90186E+01 0.00000E+00
 -1      3914 5.31798E+01 3.62960E+01 0.00000E+00
 -1      3915 4.07850E+01 1.56973E+01 0.00000E+00
 -1      3916 3.92850E+01 1.56973E+01 0.00000E+00
 -1      3917 3.85350E+01 1.69963E+01 0.00000E+00
 -1      3918 4.15350E+01 1.69963E+01 0.00000E+00
 -1      3919 4.67895E+01 2.90082E+01 0.00000E+00
 -1      3920 2.11500E+01 3.18140E+01 0.00000E+00
 -1      3921 8.59522E+01 1.55950E+01 0.00000E+00
 -1      3922 8.44522E+01 1.55950E+01 0.00000E+00
 -1      3923 8.40365E+01 1.66896E+01 0.00000E+00
 -1      3924 8.67022E+01 1.68940E+01 0.00000E+00
 -1      3925 2.95350E+01 1.69963E+01 0.00000E+00
 -1      3926 1.33113E+02 2.72141E+01 0.00000E+00
 -1      3927 1.31814E+02 2.64781E+01 0.00000E+00
 -1      3928 1.33113E+02 2.86891E+01 0.00000E+00
 -1      3929 4.88415E+01 1.92380E+01 0.00000E+00
 -1      3930 4.87437E+01 1.68254E+01 0.00000E+00
 -1      3931 1.65421E+01 3.24522E+01 0.00000E+00
 -1      3932 1.78845E+01 3.25064E+01 0.00000E+00
 -1      3933 1.86345E+01 3.12074E+01 0.00000E+00
 -1      3934 1.66035E+01 2.99941E+01 0.00000E+00
 -1      3935 1.66035E+01 2.70535E+01 0.00000E+00
 -1      3936 1.66035E+01 2.85238E+01 0.00000E+00
 -1      3937 1.76190E+01 2.91304E+01 0.00000E+00
 -1      3938 4.36829E+01 3.01517E+01 0.00000E+00
 -1      3939 4.52362E+01 2.95799E+01 0.00000E+00
 -1      3940 4.52691E+01 2.79176E+01 0.00000E+00
 -1      3941 1.33113E+02 2.27953E+01 0.00000E+00
 -1      3942 1.33113E+02 2.13234E+01 0.00000E+00
 -1      3943 1.31814E+02 2.35313E+01 0.00000E+00
 -1      3944 1.81333E+01 1.65166E+01 0.00000E+00
 -1      3945 2.94000E+01 3.05150E+01 0.00000E+00
 -1      3946 3.09000E+01 3.05150E+01 0.00000E+00
 -1      3947 3.24000E+01 3.05150E+01 0.00000E+00
 -1      3948 3.39000E+01 3.05150E+01 0.00000E+00
 -1      3949 3.16500E+01 2.92160E+01 0.00000E+00
 -1      3950 3.54000E+01 3.05150E+01 0.00000E+00
 -1      3951 3.69000E+01 3.05150E+01 0.00000E+00
 -1      3952 3.46500E+01 2.92160E+01 0.00000E+00
 -1      3953 3.84000E+01 3.05150E+01 0.00000E+00
 -1      3954 3.99000E+01 3.05150E+01 0.00000E+00
 -1      3955 3.76500E+01 2.92160E+01 0.00000E+00
 -1      3956 4.10414E+01 3.03333E+01 0.00000E+00
 -1      3957 4.25414E+01 3.03333E+01 0.00000E+00
 -1      3958 4.25743E+01 2.86710E+01 0.00000E+00
 -1      3959 4.02914E+01 2.90343E+01 0.00000E+00
 -1      3960 1.33231E+02 2.01017E+01 0.00000E+00
 -1      3961 1.33292E+02 1.84820E+01 0.00000E+00
 -1      3962 1.32167E+02 1.83940E+01 0.00000E+00
 -1      3963 1.31932E+02 2.08376E+01 0.00000E+00
 -1      3964 1.68870E+01 2.42406E+01 0.00000E+00
 -1      3965 1.68870E+01 2.57109E+01 0.00000E+00
 -1      3966 1.81860E+01 2.35047E+01 0.00000E+00
 -1      3967 8.66483E+01 3.08822E+01 0.00000E+00
 -1      3968 8.81483E+01 3.08822E+01 0.00000E+00
 -1      3969 8.61465E+01 2.99504E+01 0.00000E+00
 -1      3970 8.96483E+01 3.08822E+01 0.00000E+00
 -1      3971 9.11483E+01 3.08822E+01 0.00000E+00
 -1      3972 8.91465E+01 2.99504E+01 0.00000E+00
 -1      3973 9.26483E+01 3.08822E+01 0.00000E+00
 -1      3974 9.41483E+01 3.08822E+01 0.00000E+00
 -1      3975 9.21465E+01 2.99504E+01 0.00000E+00
 -1      3976 9.56483E+01 3.08822E+01 0.00000E+00
 -1      3977 9.71483E+01 3.08822E+01 0.00000E+00
 -1      3978 9.51465E+01 2.99504E+01 0.00000E+00
 -1      3979 9.86483E+01 3.08822E+01 0.00000E+00
 -1      3980 1.00148E+02 3.08822E+01 0.00000E+00
 -1      3981 9.81465E+01 2.99504E+01 0.00000E+00
 -1      3982 1.01648E+02 3.08822E+01 0.00000E+00
 -1      3983 1.03148E+02 3.08822E+01 0.00000E+00
 -1      3984 1.01147E+02 2.99504E+01 0.00000E+00
 -1      3985 1.04648E+02 3.08822E+01 0.00000E+00
 -1      3986 1.06148E+02 3.08822E+01 0.00000E+00
 -1      3987 1.04147E+02 2.99504E+01 0.00000E+00
 -1      3988 1.07648E+02 3.08822E+01 0.00000E+00
 -1      3989 1.09148E+02 3.08822E+01 0.00000E+00
 -1      3990 1.07147E+02 2.99504E+01 0.00000E+00
 -1      3991 1.10648E+02 3.08822E+01 0.00000E+00
 -1      3992 1.12148E+02 3.08822E+01 0.00000E+00
 -1      3993 1.10147E+02 2.99504E+01 0.00000E+00
 -1      3994 1.13648E+02 3.08822E+01 0.00000E+00
 -1      3995 1.15148E+02 3.08822E+01 0.00000E+00
 -1      3996 1.13147E+02 2.99504E+01 0.00000E+00
 -1      3997 1.16648E+02 3.08822E+01 0.00000E+00
 -1      3998 1.18148E+02 3.08822E+01 0.00000E+00
 -1      3999 1.16147E+02 2.99504E+01 0.00000E+00
 -1      4000 1.19648E+02 3.08822E+01 0.00000E+00
 -1      4001 1.21148E+02 3.08822E+01 0.00000E+00
 -1      4002 1.19147E+02 2.99504E+01 0.00000E+00
 -1      4003 1.22648E+02 3.08822E+01 0.00000E+00
 -1      4004 1.24148E+02 3.08822E+01 0.00000E+00
 -1      4005 1.22147E+02 2.99504E+01 0.00000E+00
 -1      4006 1.25648E+02 3.08822E+01 0.00000E+00
 -1      4007 1.27148E+02 3.08822E+01 0.00000E+00
 -1      4008 1.25147E+02 2.99504E+01 0.00000E+00
 -1      4009 1.28648E+02 3.08822E+01 0.00000E+00
 -1      4010 1.30148E+02 3.08822E+01 0.00000E+00
 -1      4011 1.28147E+02 2.99504E+01 0.00000E+00
 -1      4012 9.62850E+01 1.82952E+01 0.00000E+00
 -1      4013 9.47850E+01 1.82952E+01 0.00000E+00
 -1      4014 1.02285E+02 1.82952E+01 0.00000E+00
 -1      4015 1.00785E+02 1.82952E+01 0.00000E+00
 -1      4016 9.92850E+01 1.82952E+01 0.00000E+00
 -1      4017 9.77850E+01 1.82952E+01 0.00000E+00
 -1      4018 9.70350E+01 1.95942E+01 0.00000E+00
 -1      4019 2.72850E+01 1.82952E+01 0.00000E+00
 -1      4020 2.57850E+01 1.82952E+01 0.00000E+00
 -1      4021 1.05285E+02 1.82952E+01 0.00000E+00
 -1      4022 1.03785E+02 1.82952E+01 0.00000E+00
 -1      4023 1.03035E+02 1.95942E+01 0.00000E+00
 -1      4024 8.36502E+01 2.58596E+01 0.00000E+00
 -1      4025 8.43505E+01 2.68415E+01 0.00000E+00
 -1      4026 4.67550E+01 2.27884E+01 0.00000E+00
 -1      4027 4.69142E+01 2.13954E+01 0.00000E+00
 -1      4028 1.08285E+02 1.82952E+01 0.00000E+00
 -1      4029 1.06785E+02 1.82952E+01 0.00000E+00
 -1      4030 1.06035E+02 1.95942E+01 0.00000E+00
 -1      4031 1.11285E+02 1.82952E+01 0.00000E+00
 -1      4032 1.09785E+02 1.82952E+01 0.00000E+00
 -1      4033 1.09035E+02 1.95942E+01 0.00000E+00
 -1      4034 1.14285E+02 1.82952E+01 0.00000E+00
 -1      4035 1.12785E+02 1.82952E+01 0.00000E+00
 -1      4036 1.12035E+02 1.95942E+01 0.00000E+00
 -1      4037 1.17285E+02 1.82952E+01 0.00000E+00
 -1      4038 1.15785E+02 1.82952E+01 0.00000E+00
 -1      4039 1.15035E+02 1.95942E+01 0.00000E+00
 -1      4040 1.20285E+02 1.82952E+01 0.00000E+00
 -1      4041 1.18785E+02 1.82952E+01 0.00000E+00
 -1      4042 1.18035E+02 1.95942E+01 0.00000E+00
 -1      4043 1.23285E+02 1.82952E+01 0.00000E+00
 -1      4044 1.21785E+02 1.82952E+01 0.00000E+00
 -1      4045 1.21035E+02 1.95942E+01 0.00000E+00
 -1      4046 1.26285E+02 1.82952E+01 0.00000E+00
 -1      4047 1.24785E+02 1.82952E+01 0.00000E+00
 -1      4048 1.24035E+02 1.95942E+01 0.00000E+00
 -1      4049 1.29285E+02 1.82952E+01 0.00000E+00
 -1      4050 1.27785E+02 1.82952E+01 0.00000E+00
 -1      4051 1.27035E+02 1.95942E+01 0.00000E+00
 -1      4052 4.46866E+01 2.67735E+01 0.00000E+00
 -1      4053 4.56952E+01 2.35118E+01 0.00000E+00
 -1      4054 2.64000E+01 3.05150E+01 0.00000E+00
 -1      4055 2.79000E+01 3.05150E+01 0.00000E+00
 -1      4056 2.86500E+01 2.92160E+01 0.00000E+00
 -1      4057 4.52850E+01 1.82952E+01 0.00000E+00
 -1      4058 4.37850E+01 1.82952E+01 0.00000E+00
 -1      4059 1.32531E+02 3.06195E+01 0.00000E+00
 -1      4060 3.32850E+01 1.82952E+01 0.00000E+00
 -1      4061 3.17850E+01 1.82952E+01 0.00000E+00
 -1      4062 1.86345E+01 2.97371E+01 0.00000E+00
 -1      4063 1.96500E+01 3.03437E+01 0.00000E+00
 -1      4064 1.86345E+01 2.82668E+01 0.00000E+00
 -1      4065 8.26942E+01 2.28796E+01 0.00000E+00
 -1      4066 8.30633E+01 2.45731E+01 0.00000E+00
 -1      4067 8.44710E+01 2.43097E+01 0.00000E+00
 -1      4068 8.32974E+01 2.17366E+01 0.00000E+00
 -1      4069 2.11500E+01 3.03437E+01 0.00000E+00
 -1      4070 3.02850E+01 1.82952E+01 0.00000E+00
 -1      4071 2.87850E+01 1.82952E+01 0.00000E+00
 -1      4072 3.10350E+01 1.95942E+01 0.00000E+00
 -1      4073 2.34000E+01 3.05150E+01 0.00000E+00
 -1      4074 2.49000E+01 3.05150E+01 0.00000E+00
 -1      4075 2.56500E+01 2.92160E+01 0.00000E+00
 -1      4076 1.30515E+02 2.42672E+01 0.00000E+00
 -1      4077 1.30515E+02 2.27953E+01 0.00000E+00
 -1      4078 4.30350E+01 1.95942E+01 0.00000E+00
 -1      4079 4.22850E+01 1.82952E+01 0.00000E+00
 -1      4080 4.07850E+01 1.82952E+01 0.00000E+00
 -1      4081 9.02850E+01 1.82952E+01 0.00000E+00
 -1      4082 8.87850E+01 1.82952E+01 0.00000E+00
 -1      4083 1.00035E+02 1.95942E+01 0.00000E+00
 -1      4084 8.55596E+01 2.65281E+01 0.00000E+00
 -1      4085 8.48522E+01 2.77733E+01 0.00000E+00
 -1      4086 8.53539E+01 2.87051E+01 0.00000E+00
 -1      4087 2.42850E+01 1.82952E+01 0.00000E+00
 -1      4088 2.27850E+01 1.82952E+01 0.00000E+00
 -1      4089 2.50350E+01 1.95942E+01 0.00000E+00
 -1      4090 2.80350E+01 1.95942E+01 0.00000E+00
 -1      4091 1.93605E+01 1.67413E+01 0.00000E+00
 -1      4092 4.51339E+01 2.07801E+01 0.00000E+00
 -1      4093 4.63153E+01 2.02095E+01 0.00000E+00
 -1      4094 4.31632E+01 2.70441E+01 0.00000E+00
 -1      4095 4.41340E+01 2.53281E+01 0.00000E+00
 -1      4096 1.31042E+02 1.83060E+01 0.00000E+00
 -1      4097 4.70653E+01 1.89105E+01 0.00000E+00
 -1      4098 1.94850E+01 1.98219E+01 0.00000E+00
 -1      4099 1.94850E+01 2.12969E+01 0.00000E+00
 -1      4100 1.31232E+02 2.98836E+01 0.00000E+00
 -1      4101 2.01105E+01 1.80403E+01 0.00000E+00
 -1      4102 3.47850E+01 1.82952E+01 0.00000E+00
 -1      4103 3.40350E+01 1.95942E+01 0.00000E+00
 -1      4104 3.62850E+01 1.82952E+01 0.00000E+00
 -1      4105 1.79025E+01 2.63176E+01 0.00000E+00
 -1      4106 8.82022E+01 1.94920E+01 0.00000E+00
 -1      4107 8.74522E+01 1.81930E+01 0.00000E+00
 -1      4108 8.61193E+01 1.80908E+01 0.00000E+00
 -1      4109 4.46152E+01 2.38270E+01 0.00000E+00
 -1      4110 4.46528E+01 2.22812E+01 0.00000E+00
 -1      4111 4.40539E+01 2.10954E+01 0.00000E+00
 -1      4112 4.30917E+01 2.40976E+01 0.00000E+00
 -1      4113 9.32850E+01 1.82952E+01 0.00000E+00
 -1      4114 9.17850E+01 1.82952E+01 0.00000E+00
 -1      4115 9.40350E+01 1.95942E+01 0.00000E+00
 -1      4116 1.30515E+02 2.72172E+01 0.00000E+00
 -1      4117 1.30515E+02 2.57422E+01 0.00000E+00
 -1      4118 1.29216E+02 2.50063E+01 0.00000E+00
 -1      4119 2.19000E+01 2.90447E+01 0.00000E+00
 -1      4120 8.33718E+01 1.76041E+01 0.00000E+00
 -1      4121 8.29561E+01 1.86987E+01 0.00000E+00
 -1      4122 8.33752E+01 1.95355E+01 0.00000E+00
 -1      4123 8.47046E+01 1.77064E+01 0.00000E+00
 -1      4124 1.30292E+02 1.96050E+01 0.00000E+00
 -1      4125 3.09000E+01 2.79170E+01 0.00000E+00
 -1      4126 3.24000E+01 2.79170E+01 0.00000E+00
 -1      4127 9.10350E+01 1.95942E+01 0.00000E+00
 -1      4128 1.00785E+02 2.08932E+01 0.00000E+00
 -1      4129 9.92850E+01 2.08932E+01 0.00000E+00
 -1      4130 3.39000E+01 2.79170E+01 0.00000E+00
 -1      4131 3.54000E+01 2.79170E+01 0.00000E+00
 -1      4132 3.31500E+01 2.66180E+01 0.00000E+00
 -1      4133 3.69000E+01 2.79170E+01 0.00000E+00
 -1      4134 3.84000E+01 2.79170E+01 0.00000E+00
 -1      4135 3.61500E+01 2.66180E+01 0.00000E+00
 -1      4136 8.68539E+01 2.87051E+01 0.00000E+00
 -1      4137 8.83539E+01 2.87051E+01 0.00000E+00
 -1      4138 8.98539E+01 2.87051E+01 0.00000E+00
 -1      4139 8.75613E+01 2.74599E+01 0.00000E+00
 -1      4140 9.13539E+01 2.87051E+01 0.00000E+00
 -1      4141 9.28539E+01 2.87051E+01 0.00000E+00
 -1      4142 9.05613E+01 2.74599E+01 0.00000E+00
 -1      4143 9.43539E+01 2.87051E+01 0.00000E+00
 -1      4144 9.58539E+01 2.87051E+01 0.00000E+00
 -1      4145 9.35613E+01 2.74599E+01 0.00000E+00
 -1      4146 9.73539E+01 2.87051E+01 0.00000E+00
 -1      4147 9.88539E+01 2.87051E+01 0.00000E+00
 -1      4148 9.65613E+01 2.74599E+01 0.00000E+00
 -1      4149 1.00354E+02 2.87051E+01 0.00000E+00
 -1      4150 1.01854E+02 2.87051E+01 0.00000E+00
 -1      4151 9.95613E+01 2.74599E+01 0.00000E+00
 -1      4152 1.03354E+02 2.87051E+01 0.00000E+00
 -1      4153 1.04854E+02 2.87051E+01 0.00000E+00
 -1      4154 1.02561E+02 2.74599E+01 0.00000E+00
 -1      4155 1.06354E+02 2.87051E+01 0.00000E+00
 -1      4156 1.07854E+02 2.87051E+01 0.00000E+00
 -1      4157 1.05561E+02 2.74599E+01 0.00000E+00
 -1      4158 1.09354E+02 2.87051E+01 0.00000E+00
 -1      4159 1.10854E+02 2.87051E+01 0.00000E+00
 -1      4160 1.08561E+02 2.74599E+01 0.00000E+00
 -1      4161 1.12354E+02 2.87051E+01 0.00000E+00
 -1      4162 1.13854E+02 2.87051E+01 0.00000E+00
 -1      4163 1.11561E+02 2.74599E+01 0.00000E+00
 -1      4164 1.15354E+02 2.87051E+01 0.00000E+00
 -1      4165 1.16854E+02 2.87051E+01 0.00000E+00
 -1      4166 1.14561E+02 2.74599E+01 0.00000E+00
 -1      4167 1.18354E+02 2.87051E+01 0.00000E+00
 -1      4168 1.19854E+02 2.87051E+01 0.00000E+00
 -1      4169 1.17561E+02 2.74599E+01 0.00000E+00
 -1      4170 1.21354E+02 2.87051E+01 0.00000E+00
 -1      4171 1.22854E+02 2.87051E+01 0.00000E+00
 -1      4172 1.20561E+02 2.74599E+01 0.00000E+00
 -1      4173 1.24354E+02 2.87051E+01 0.00000E+00
 -1      4174 1.25854E+02 2.87051E+01 0.00000E+00
 -1      4175 1.23561E+02 2.74599E+01 0.00000E+00
 -1      4176 2.87850E+01 2.08932E+01 0.00000E+00
 -1      4177 2.72850E+01 2.08932E+01 0.00000E+00
 -1      4178 9.77850E+01 2.08932E+01 0.00000E+00
 -1      4179 9.62850E+01 2.08932E+01 0.00000E+00
 -1      4180 9.85350E+01 2.21922E+01 0.00000E+00
 -1      4181 4.20217E+01 2.72257E+01 0.00000E+00
 -1      4182 1.03785E+02 2.08932E+01 0.00000E+00
 -1      4183 1.02285E+02 2.08932E+01 0.00000E+00
 -1      4184 1.01535E+02 2.21922E+01 0.00000E+00
 -1      4185 1.12785E+02 2.08932E+01 0.00000E+00
 -1      4186 1.11285E+02 2.08932E+01 0.00000E+00
 -1      4187 1.06785E+02 2.08932E+01 0.00000E+00
 -1      4188 1.05285E+02 2.08932E+01 0.00000E+00
 -1      4189 1.04535E+02 2.21922E+01 0.00000E+00
 -1      4190 1.15785E+02 2.08932E+01 0.00000E+00
 -1      4191 1.14285E+02 2.08932E+01 0.00000E+00
 -1      4192 1.13535E+02 2.21922E+01 0.00000E+00
 -1      4193 1.18785E+02 2.08932E+01 0.00000E+00
 -1      4194 1.17285E+02 2.08932E+01 0.00000E+00
 -1      4195 1.16535E+02 2.21922E+01 0.00000E+00
 -1      4196 1.21785E+02 2.08932E+01 0.00000E+00
 -1      4197 1.20285E+02 2.08932E+01 0.00000E+00
 -1      4198 1.19535E+02 2.21922E+01 0.00000E+00
 -1      4199 1.24785E+02 2.08932E+01 0.00000E+00
 -1      4200 1.23285E+02 2.08932E+01 0.00000E+00
 -1      4201 1.22535E+02 2.21922E+01 0.00000E+00
 -1      4202 1.94850E+01 2.27672E+01 0.00000E+00
 -1      4203 1.94850E+01 2.42375E+01 0.00000E+00
 -1      4204 2.07840E+01 2.20297E+01 0.00000E+00
 -1      4205 1.89180E+01 2.69242E+01 0.00000E+00
 -1      4206 1.99335E+01 2.75308E+01 0.00000E+00
 -1      4207 1.92015E+01 2.55816E+01 0.00000E+00
 -1      4208 2.14095E+01 1.87778E+01 0.00000E+00
 -1      4209 1.30730E+02 2.89517E+01 0.00000E+00
 -1      4210 1.29431E+02 2.82158E+01 0.00000E+00
 -1      4211 2.79000E+01 2.79170E+01 0.00000E+00
 -1      4212 2.94000E+01 2.79170E+01 0.00000E+00
 -1      4213 3.01500E+01 2.66180E+01 0.00000E+00
 -1      4214 1.09785E+02 2.08932E+01 0.00000E+00
 -1      4215 1.08285E+02 2.08932E+01 0.00000E+00
 -1      4216 1.07535E+02 2.21922E+01 0.00000E+00
 -1      4217 1.10535E+02 2.21922E+01 0.00000E+00
 -1      4218 1.30174E+02 2.08268E+01 0.00000E+00
 -1      4219 3.92850E+01 1.82952E+01 0.00000E+00
 -1      4220 3.77850E+01 1.82952E+01 0.00000E+00
 -1      4221 4.00350E+01 1.95942E+01 0.00000E+00
 -1      4222 3.17850E+01 2.08932E+01 0.00000E+00
 -1      4223 3.02850E+01 2.08932E+01 0.00000E+00
 -1      4224 2.95350E+01 2.21922E+01 0.00000E+00
 -1      4225 2.49000E+01 2.79170E+01 0.00000E+00
 -1      4226 2.64000E+01 2.79170E+01 0.00000E+00
 -1      4227 2.71500E+01 2.66180E+01 0.00000E+00
 -1      4228 2.12917E+01 2.76383E+01 0.00000E+00
 -1      4229 2.35417E+01 2.78096E+01 0.00000E+00
 -1      4230 2.42917E+01 2.65106E+01 0.00000E+00
 -1      4231 2.15753E+01 2.62957E+01 0.00000E+00
 -1      4232 2.21595E+01 2.00768E+01 0.00000E+00
 -1      4233 1.28876E+02 2.15627E+01 0.00000E+00
 -1      4234 9.17850E+01 2.08932E+01 0.00000E+00
 -1      4235 9.02850E+01 2.08932E+01 0.00000E+00
 -1      4236 2.65350E+01 2.21922E+01 0.00000E+00
 -1      4237 2.57850E+01 2.08932E+01 0.00000E+00
 -1      4238 2.42850E+01 2.08932E+01 0.00000E+00
 -1      4239 3.95414E+01 2.77353E+01 0.00000E+00
 -1      4240 4.06829E+01 2.75537E+01 0.00000E+00
 -1      4241 3.87914E+01 2.64363E+01 0.00000E+00
 -1      4242 8.65579E+01 2.55963E+01 0.00000E+00
 -1      4243 8.70596E+01 2.65281E+01 0.00000E+00
 -1      4244 8.85596E+01 2.65281E+01 0.00000E+00
 -1      4245 3.70350E+01 1.95942E+01 0.00000E+00
 -1      4246 1.27931E+02 2.82158E+01 0.00000E+00
 -1      4247 9.55350E+01 2.21922E+01 0.00000E+00
 -1      4248 9.47850E+01 2.08932E+01 0.00000E+00
 -1      4249 9.32850E+01 2.08932E+01 0.00000E+00
 -1      4250 1.27139E+02 2.69706E+01 0.00000E+00
 -1      4251 4.25539E+01 2.10954E+01 0.00000E+00
 -1      4252 4.12717E+01 2.59267E+01 0.00000E+00
 -1      4253 2.05005E+01 2.48441E+01 0.00000E+00
 -1      4254 1.27785E+02 2.08932E+01 0.00000E+00
 -1      4255 1.26285E+02 2.08932E+01 0.00000E+00
 -1      4256 1.25535E+02 2.21922E+01 0.00000E+00
 -1      4257 8.97022E+01 2.20900E+01 0.00000E+00
 -1      4258 8.89522E+01 2.07910E+01 0.00000E+00
 -1      4259 8.76193E+01 2.06888E+01 0.00000E+00
 -1      4260 1.28126E+02 2.28617E+01 0.00000E+00
 -1      4261 1.27921E+02 2.39340E+01 0.00000E+00
 -1      4262 1.26830E+02 2.32645E+01 0.00000E+00
 -1      4263 1.25330E+02 2.32645E+01 0.00000E+00
 -1      4264 1.27921E+02 2.54090E+01 0.00000E+00
 -1      4265 4.17528E+01 2.44256E+01 0.00000E+00
 -1      4266 4.22339E+01 2.29245E+01 0.00000E+00
 -1      4267 4.04140E+01 2.47536E+01 0.00000E+00
 -1      4268 3.47850E+01 2.08932E+01 0.00000E+00
 -1      4269 3.32850E+01 2.08932E+01 0.00000E+00
 -1      4270 3.25350E+01 2.21922E+01 0.00000E+00
 -1      4271 8.39621E+01 2.08221E+01 0.00000E+00
 -1      4272 8.45489E+01 2.21086E+01 0.00000E+00
 -1      4273 8.46268E+01 1.99075E+01 0.00000E+00
 -1      4274 8.54546E+01 1.90054E+01 0.00000E+00
 -1      4275 8.52600E+01 2.32092E+01 0.00000E+00
 -1      4276 8.58468E+01 2.44957E+01 0.00000E+00
 -1      4277 8.73468E+01 2.44957E+01 0.00000E+00
 -1      4278 8.59247E+01 2.22946E+01 0.00000E+00
 -1      4279 2.32222E+01 2.12202E+01 0.00000E+00
 -1      4280 2.18468E+01 2.17027E+01 0.00000E+00
 -1      4281 2.18468E+01 2.31731E+01 0.00000E+00
 -1      4282 2.39722E+01 2.25192E+01 0.00000E+00
 -1      4283 2.98425E+01 2.44051E+01 0.00000E+00
 -1      4284 2.83425E+01 2.44051E+01 0.00000E+00
 -1      4285 2.68425E+01 2.44051E+01 0.00000E+00
 -1      4286 9.25350E+01 2.21922E+01 0.00000E+00
 -1      4287 4.78112E+01 1.73237E+01 0.00000E+00
 -1      4288 3.81311E+01 2.51169E+01 0.00000E+00
 -1      4289 3.92726E+01 2.49352E+01 0.00000E+00
 -1      4290 3.97537E+01 2.34341E+01 0.00000E+00
 -1      4291 9.92850E+01 2.34912E+01 0.00000E+00
 -1      4292 9.77850E+01 2.34912E+01 0.00000E+00
 -1      4293 2.18587E+01 2.49516E+01 0.00000E+00
 -1      4294 3.85736E+01 2.16050E+01 0.00000E+00
 -1      4295 3.70736E+01 2.16050E+01 0.00000E+00
 -1      4296 9.00596E+01 2.65281E+01 0.00000E+00
 -1      4297 9.15596E+01 2.65281E+01 0.00000E+00
 -1      4298 8.95579E+01 2.55963E+01 0.00000E+00
 -1      4299 9.30596E+01 2.65281E+01 0.00000E+00
 -1      4300 9.45596E+01 2.65281E+01 0.00000E+00
 -1      4301 9.25579E+01 2.55963E+01 0.00000E+00
 -1      4302 9.67982E+01 2.61251E+01 0.00000E+00
 -1      4303 9.82982E+01 2.61251E+01 0.00000E+00
 -1      4304 9.97982E+01 2.61251E+01 0.00000E+00
 -1      4305 1.01811E+02 2.61609E+01 0.00000E+00
 -1      4306 1.03311E+02 2.61609E+01 0.00000E+00
 -1      4307 1.04811E+02 2.61609E+01 0.00000E+00
 -1      4308 1.06311E+02 2.61609E+01 0.00000E+00
 -1      4309 1.04061E+02 2.48619E+01 0.00000E+00
 -1      4310 1.07811E+02 2.61609E+01 0.00000E+00
 -1      4311 1.09311E+02 2.61609E+01 0.00000E+00
 -1      4312 1.07061E+02 2.48619E+01 0.00000E+00
 -1      4313 1.10811E+02 2.61609E+01 0.00000E+00
 -1      4314 1.12311E+02 2.61609E+01 0.00000E+00
 -1      4315 1.10061E+02 2.48619E+01 0.00000E+00
 -1      4316 1.13811E+02 2.61609E+01 0.00000E+00
 -1      4317 1.15311E+02 2.61609E+01 0.00000E+00
 -1      4318 1.13061E+02 2.48619E+01 0.00000E+00
 -1      4319 1.16811E+02 2.61609E+01 0.00000E+00
 -1      4320 1.18311E+02 2.61609E+01 0.00000E+00
 -1      4321 1.16061E+02 2.48619E+01 0.00000E+00
 -1      4322 1.19811E+02 2.61609E+01 0.00000E+00
 -1      4323 1.21311E+02 2.61609E+01 0.00000E+00
 -1      4324 1.19061E+02 2.48619E+01 0.00000E+00
 -1      4325 1.14798E+02 2.35271E+01 0.00000E+00
 -1      4326 1.13298E+02 2.35271E+01 0.00000E+00
 -1      4327 1.17798E+02 2.35271E+01 0.00000E+00
 -1      4328 1.16298E+02 2.35271E+01 0.00000E+00
 -1      4329 1.25843E+02 2.58983E+01 0.00000E+00
 -1      4330 1.05798E+02 2.35271E+01 0.00000E+00
 -1      4331 1.04298E+02 2.35271E+01 0.00000E+00
 -1      4332 1.20798E+02 2.35271E+01 0.00000E+00
 -1      4333 1.19298E+02 2.35271E+01 0.00000E+00
 -1      4334 1.23814E+02 2.33958E+01 0.00000E+00
 -1      4335 1.22314E+02 2.33958E+01 0.00000E+00
 -1      4336 1.22077E+02 2.47306E+01 0.00000E+00
 -1      4337 1.25109E+02 2.44680E+01 0.00000E+00
 -1      4338 3.13425E+01 2.44051E+01 0.00000E+00
 -1      4339 4.12151E+01 2.14233E+01 0.00000E+00
 -1      4340 2.53425E+01 2.44051E+01 0.00000E+00
 -1      4341 3.28425E+01 2.44051E+01 0.00000E+00
 -1      4342 3.43425E+01 2.44051E+01 0.00000E+00
 -1      4343 3.97151E+01 2.14233E+01 0.00000E+00
 -1      4344 1.02798E+02 2.35271E+01 0.00000E+00
 -1      4345 1.01298E+02 2.35271E+01 0.00000E+00
 -1      4346 8.60415E+01 2.02919E+01 0.00000E+00
 -1      4347 8.82136E+01 2.37920E+01 0.00000E+00
 -1      4348 8.97136E+01 2.37920E+01 0.00000E+00
 -1      4349 1.00548E+02 2.48261E+01 0.00000E+00
 -1      4350 3.54000E+01 2.53190E+01 0.00000E+00
 -1      4351 3.69000E+01 2.53190E+01 0.00000E+00
 -1      4352 2.29215E+01 2.46246E+01 0.00000E+00
 -1      4353 1.22827E+02 2.60296E+01 0.00000E+00
 -1      4354 1.11798E+02 2.35271E+01 0.00000E+00
 -1      4355 1.24327E+02 2.60296E+01 0.00000E+00
 -1      4356 9.40464E+01 2.38943E+01 0.00000E+00
 -1      4357 9.25464E+01 2.38943E+01 0.00000E+00
 -1      4358 9.55464E+01 2.38943E+01 0.00000E+00
 -1      4359 1.07298E+02 2.35271E+01 0.00000E+00
 -1      4360 8.67915E+01 2.15909E+01 0.00000E+00
 -1      4361 9.62964E+01 2.51933E+01 0.00000E+00
 -1      4362 1.08798E+02 2.35271E+01 0.00000E+00
 -1      4363 9.10464E+01 2.38943E+01 0.00000E+00
 -1      4364 3.58425E+01 2.18071E+01 0.00000E+00
 -1      4365 3.50925E+01 2.31061E+01 0.00000E+00
 -1      4366 2.39842E+01 2.42977E+01 0.00000E+00
 -1      4367 1.10298E+02 2.35271E+01 0.00000E+00
 -1      4368 3.73811E+01 2.38179E+01 0.00000E+00
 -1      4369 8.75025E+01 2.26915E+01 0.00000E+00
 -3
    3C                          2103                                     1
 -1       164    8    0    1
 -2         6         7        23      1134      1297      1151
 -1       165    8    0    1
 -2         7         8       164      1135      1298      1299
 -1       166    8    0    1
 -2         8         9       165      1136      1300      1301
 -1       167    8    0    1
 -2         8       165       164      1301      1302      1298
 -1       168    8    0    1
 -2         9        10       166      1137      1303      1304
 -1       169    8    0    1
 -2         9       166       165      1304      1305      1300
 -1       170    8    0    1
 -2        10        11       167      1138      1306      1307
 -1       171    8    0    1
 -2        10       167       166      1307      1308      1303
 -1       172    8    0    1
 -2        11        12       168      1139      1309      1310
 -1       173    8    0    1
 -2        11       168       167      1310      1311      1306
 -1       174    8    0    1
 -2        12        13       169      1140      1312      1313
 -1       175    8    0    1
 -2        12       169       168      1313      1314      1309
 -1       176    8    0    1
 -2        13        14       170      1141      1315      1316
 -1       177    8    0    1
 -2        13       170       169      1316      1317      1312
 -1       178    8    0    1
 -2        14        15       171      1142      1318      1319
 -1       179    8    0    1
 -2        14       171       170      1319      1320      1315
 -1       180    8    0    1
 -2        15        16       172      1143      1321      1322
 -1       181    8    0    1
 -2        15       172       171      1322      1323      1318
 -1       182    8    0    1
 -2        16        17       173      1144      1324      1325
 -1       183    8    0    1
 -2        16       173       172      1325      1326      1321
 -1       184    8    0    1
 -2        17        18       174      1145      1327      1328
 -1       185    8    0    1
 -2        17       174       173      1328      1329      1324
 -1       186    8    0    1
 -2        18        19       175      1146      1330      1331
 -1       187    8    0    1
 -2        18       175       174      1331      1332      1327
 -1       188    8    0    1
 -2        19        20       176      1147      1333      1334
 -1       189    8    0    1
 -2        19       176       175      1334      1335      1330
 -1       190    8    0    1
 -2        20        21       177      1148      1336      1337
 -1       191    8    0    1
 -2        20       177       176      1337      1338      1333
 -1       192    8    0    1
 -2        21        22       178      1149      1339      1340
 -1       193    8    0    1
 -2        21       178       177      1340      1341      1336
 -1       194    8    0    1
 -2        22         5       179      1150      1342      1343
 -1       195    8    0    1
 -2       178        22       179      1339      1343      1344
 -1       196    8    0    1
 -2         5        72       179      1201      1345      1342
 -1       197    8    0    1
 -2        24        23       180      1152      1346      1347
 -1       198    8    0    1
 -2        25        24       181      1153      1348      1349
 -1       199    8    0    1
 -2        24       180       181      1347      1350      1348
 -1       200    8    0    1
 -2        26        25       182      1154      1351      1352
 -1       201    8    0    1
 -2        25       181       182      1349      1353      1351
 -1       202    8    0    1
 -2        27        26       183      1155      1354      1355
 -1       203    8    0    1
 -2        26       182       183      1352      1356      1354
 -1       204    8    0    1
 -2        28        27       184      1156      1357      1358
 -1       205    8    0    1
 -2        27       183       184      1355      1359      1357
 -1       206    8    0    1
 -2        29        28       185      1157      1360      1361
 -1       207    8    0    1
 -2        28       184       185      1358      1362      1360
 -1       208    8    0    1
 -2        30        29       186      1158      1363      1364
 -1       209    8    0    1
 -2        29       185       186      1361      1365      1363
 -1       210    8    0    1
 -2        31        30       187      1159      1366      1367
 -1       211    8    0    1
 -2        30       186       187      1364      1368      1366
 -1       212    8    0    1
 -2        32        31       188      1160      1369      1370
 -1       213    8    0    1
 -2        31       187       188      1367      1371      1369
 -1       214    8    0    1
 -2        33        32       189      1161      1372      1373
 -1       215    8    0    1
 -2        32       188       189      1370      1374      1372
 -1       216    8    0    1
 -2        34        33       190      1162      1375      1376
 -1       217    8    0    1
 -2        33       189       190      1373      1377      1375
 -1       218    8    0    1
 -2        35        34       191      1163      1378      1379
 -1       219    8    0    1
 -2        34       190       191      1376      1380      1378
 -1       220    8    0    1
 -2        36        35       192      1164      1381      1382
 -1       221    8    0    1
 -2        35       191       192      1379      1383      1381
 -1       222    8    0    1
 -2        37        36       193      1165      1384      1385
 -1       223    8    0    1
 -2        36       192       193      1382      1386      1384
 -1       224    8    0    1
 -2        38        37       194      1166      1387      1388
 -1       225    8    0    1
 -2        37       193       194      1385      1389      1387
 -1       226    8    0    1
 -2        39        38       195      1167      1390      1391
 -1       227    8    0    1
 -2        38       194       195      1388      1392      1390
 -1       228    8    0    1
 -2        40        39       196      1168      1393      1394
 -1       229    8    0    1
 -2        39       195       196      1391      1395      1393
 -1       230    8    0    1
 -2        41        40       197      1169      1396      1397
 -1       231    8    0    1
 -2        40       196       197      1394      1398      1396
 -1       232    8    0    1
 -2        42        41       198      1170      1399      1400
 -1       233    8    0    1
 -2        41       197       198      1397      1401      1399
 -1       234    8    0    1
 -2        43        42       199      1171      1402      1403
 -1       235    8    0    1
 -2        42       198       199      1400      1404      1402
 -1       236    8    0    1
 -2        44        43       200      1172      1405      1406
 -1       237    8    0    1
 -2        43       199       200      1403      1407      1405
 -1       238    8    0    1
 -2        45        44       201      1173      1408      1409
 -1       239    8    0    1
 -2        44       200       201      1406      1410      1408
 -1       240    8    0    1
 -2        46        45       202      1174      1411      1412
 -1       241    8    0    1
 -2        45       201       202      1409      1413      1411
 -1       242    8    0    1
 -2        47        46       203      1175      1414      1415
 -1       243    8    0    1
 -2        46       202       203      1412      1416      1414
 -1       244    8    0    1
 -2        48        47       204      1176      1417      1418
 -1       245    8    0    1
 -2        47       203       204      1415      1419      1417
 -1       246    8    0    1
 -2        49        48       205      1177      1420      1421
 -1       247    8    0    1
 -2        48       204       205      1418      1422      1420
 -1       248    8    0    1
 -2        50        49       206      1178      1423      1424
 -1       249    8    0    1
 -2        49       205       206      1421      1425      1423
 -1       250    8    0    1
 -2        51        50       207      1179      1426      1427
 -1       251    8    0    1
 -2        50       206       207      1424      1428      1426
 -1       252    8    0    1
 -2        52        51       208      1180      1429      1430
 -1       253    8    0    1
 -2        51       207       208      1427      1431      1429
 -1       254    8    0    1
 -2        53        52       209      1181      1432      1433
 -1       255    8    0    1
 -2        52       208       209      1430      1434      1432
 -1       256    8    0    1
 -2        54        53       210      1182      1435      1436
 -1       257    8    0    1
 -2        53       209       210      1433      1437      1435
 -1       258    8    0    1
 -2        55        54       211      1183      1438      1439
 -1       259    8    0    1
 -2        54       210       211      1436      1440      1438
 -1       260    8    0    1
 -2        56        55       212      1184      1441      1442
 -1       261    8    0    1
 -2        55       211       212      1439      1443      1441
 -1       262    8    0    1
 -2        57        56       213      1185      1444      1445
 -1       263    8    0    1
 -2        56       212       213      1442      1446      1444
 -1       264    8    0    1
 -2        58        57       214      1186      1447      1448
 -1       265    8    0    1
 -2        57       213       214      1445      1449      1447
 -1       266    8    0    1
 -2        59        58       215      1187      1450      1451
 -1       267    8    0    1
 -2        58       214       215      1448      1452      1450
 -1       268    8    0    1
 -2        60        59       216      1188      1453      1454
 -1       269    8    0    1
 -2        59       215       216      1451      1455      1453
 -1       270    8    0    1
 -2        61        60       217      1189      1456      1457
 -1       271    8    0    1
 -2        60       216       217      1454      1458      1456
 -1       272    8    0    1
 -2        62        61       218      1190      1459      1460
 -1       273    8    0    1
 -2        61       217       218      1457      1461      1459
 -1       274    8    0    1
 -2        63        62       219      1191      1462      1463
 -1       275    8    0    1
 -2        62       218       219      1460      1464      1462
 -1       276    8    0    1
 -2        64        63       220      1192      1465      1466
 -1       277    8    0    1
 -2        63       219       220      1463      1467      1465
 -1       278    8    0    1
 -2        65        64       221      1193      1468      1469
 -1       279    8    0    1
 -2        64       220       221      1466      1470      1468
 -1       280    8    0    1
 -2        66        65       222      1194      1471      1472
 -1       281    8    0    1
 -2        65       221       222      1469      1473      1471
 -1       282    8    0    1
 -2        67        66       223      1195      1474      1475
 -1       283    8    0    1
 -2        66       222       223      1472      1476      1474
 -1       284    8    0    1
 -2        68        67       224      1196      1477      1478
 -1       285    8    0    1
 -2        67       223       224      1475      1479      1477
 -1       286    8    0    1
 -2        69        68       225      1197      1480      1481
 -1       287    8    0    1
 -2        68       224       225      1478      1482      1480
 -1       288    8    0    1
 -2        70        69       226      1198      1483      1484
 -1       289    8    0    1
 -2        69       225       226      1481      1485      1483
 -1       290    8    0    1
 -2        71        70       227      1199      1486      1487
 -1       291    8    0    1
 -2        70       226       227      1484      1488      1486
 -1       292    8    0    1
 -2         4        71       136      1200      1489      1267
 -1       293    8    0    1
 -2       136        71       227      1489      1487      1490
 -1       294    8    0    1
 -2        72        73       228      1202      1491      1492
 -1       295    8    0    1
 -2        72       228       179      1492      1493      1345
 -1       296    8    0    1
 -2        73        74       229      1203      1494      1495
 -1       297    8    0    1
 -2        73       229       228      1495      1496      1491
 -1       298    8    0    1
 -2        74        75       230      1204      1497      1498
 -1       299    8    0    1
 -2        74       230       229      1498      1499      1494
 -1       300    8    0    1
 -2        75        76       231      1205      1500      1501
 -1       301    8    0    1
 -2        75       231       230      1501      1502      1497
 -1       302    8    0    1
 -2        76        77       232      1206      1503      1504
 -1       303    8    0    1
 -2        76       232       231      1504      1505      1500
 -1       304    8    0    1
 -2        77        78       233      1207      1506      1507
 -1       305    8    0    1
 -2        77       233       232      1507      1508      1503
 -1       306    8    0    1
 -2        78        79       234      1208      1509      1510
 -1       307    8    0    1
 -2        78       234       233      1510      1511      1506
 -1       308    8    0    1
 -2        79        80       235      1209      1512      1513
 -1       309    8    0    1
 -2        79       235       234      1513      1514      1509
 -1       310    8    0    1
 -2        80        81       236      1210      1515      1516
 -1       311    8    0    1
 -2        80       236       235      1516      1517      1512
 -1       312    8    0    1
 -2        81        82       237      1211      1518      1519
 -1       313    8    0    1
 -2        81       237       236      1519      1520      1515
 -1       314    8    0    1
 -2        82        83       238      1212      1521      1522
 -1       315    8    0    1
 -2        82       238       237      1522      1523      1518
 -1       316    8    0    1
 -2        83        84       239      1213      1524      1525
 -1       317    8    0    1
 -2        83       239       238      1525      1526      1521
 -1       318    8    0    1
 -2        84        85       240      1214      1527      1528
 -1       319    8    0    1
 -2        84       240       239      1528      1529      1524
 -1       320    8    0    1
 -2        85        86       241      1215      1530      1531
 -1       321    8    0    1
 -2        85       241       240      1531      1532      1527
 -1       322    8    0    1
 -2        86        87       242      1216      1533      1534
 -1       323    8    0    1
 -2        86       242       241      1534      1535      1530
 -1       324    8    0    1
 -2        87        88       243      1217      1536      1537
 -1       325    8    0    1
 -2        87       243       242      1537      1538      1533
 -1       326    8    0    1
 -2        88        89       244      1218      1539      1540
 -1       327    8    0    1
 -2        88       244       243      1540      1541      1536
 -1       328    8    0    1
 -2        89        90       245      1219      1542      1543
 -1       329    8    0    1
 -2        89       245       244      1543      1544      1539
 -1       330    8    0    1
 -2        90        91       246      1220      1545      1546
 -1       331    8    0    1
 -2        90       246       245      1546      1547      1542
 -1       332    8    0    1
 -2        91        92       247      1221      1548      1549
 -1       333    8    0    1
 -2        91       247       246      1549      1550      1545
 -1       334    8    0    1
 -2        92        93       248      1222      1551      1552
 -1       335    8    0    1
 -2        92       248       247      1552      1553      1548
 -1       336    8    0    1
 -2        93        94       249      1223      1554      1555
 -1       337    8    0    1
 -2        93       249       248      1555      1556      1551
 -1       338    8    0    1
 -2        94        95       250      1224      1557      1558
 -1       339    8    0    1
 -2        94       250       249      1558      1559      1554
 -1       340    8    0    1
 -2        95        96       251      1225      1560      1561
 -1       341    8    0    1
 -2        95       251       250      1561      1562      1557
 -1       342    8    0    1
 -2        96        97       252      1226      1563      1564
 -1       343    8    0    1
 -2        96       252       251      1564      1565      1560
 -1       344    8    0    1
 -2        97        98       253      1227      1566      1567
 -1       345    8    0    1
 -2        97       253       252      1567      1568      1563
 -1       346    8    0    1
 -2        98        99       254      1228      1569      1570
 -1       347    8    0    1
 -2        98       254       253      1570      1571      1566
 -1       348    8    0    1
 -2        99       100       255      1229      1572      1573
 -1       349    8    0    1
 -2        99       255       254      1573      1574      1569
 -1       350    8    0    1
 -2       100       101       256      1230      1575      1576
 -1       351    8    0    1
 -2       100       256       255      1576      1577      1572
 -1       352    8    0    1
 -2       101       102       257      1231      1578      1579
 -1       353    8    0    1
 -2       101       257       256      1579      1580      1575
 -1       354    8    0    1
 -2       102       103       258      1232      1581      1582
 -1       355    8    0    1
 -2       102       258       257      1582      1583      1578
 -1       356    8    0    1
 -2       103       104       259      1233      1584      1585
 -1       357    8    0    1
 -2       103       259       258      1585      1586      1581
 -1       358    8    0    1
 -2       104       105       260      1234      1587      1588
 -1       359    8    0    1
 -2       104       260       259      1588      1589      1584
 -1       360    8    0    1
 -2       105       106       261      1235      1590      1591
 -1       361    8    0    1
 -2       105       261       260      1591      1592      1587
 -1       362    8    0    1
 -2       106       107       262      1236      1593      1594
 -1       363    8    0    1
 -2       106       262       261      1594      1595      1590
 -1       364    8    0    1
 -2       107       108       263      1237      1596      1597
 -1       365    8    0    1
 -2       107       263       262      1597      1598      1593
 -1       366    8    0    1
 -2       108       109       264      1238      1599      1600
 -1       367    8    0    1
 -2       108       264       263      1600      1601      1596
 -1       368    8    0    1
 -2       109       110       265      1239      1602      1603
 -1       369    8    0    1
 -2       109       265       264      1603      1604      1599
 -1       370    8    0    1
 -2       110       111       266      1240      1605      1606
 -1       371    8    0    1
 -2       110       266       265      1606      1607      1602
 -1       372    8    0    1
 -2       111       112       267      1241      1608      1609
 -1       373    8    0    1
 -2       111       267       266      1609      1610      1605
 -1       374    8    0    1
 -2       112       113       268      1242      1611      1612
 -1       375    8    0    1
 -2       112       268       267      1612      1613      1608
 -1       376    8    0    1
 -2       113       114       269      1243      1614      1615
 -1       377    8    0    1
 -2       113       269       268      1615      1616      1611
 -1       378    8    0    1
 -2       114       115       270      1244      1617      1618
 -1       379    8    0    1
 -2       114       270       269      1618      1619      1614
 -1       380    8    0    1
 -2       115       116       271      1245      1620      1621
 -1       381    8    0    1
 -2       115       271       270      1621      1622      1617
 -1       382    8    0    1
 -2       116       117       272      1246      1623      1624
 -1       383    8    0    1
 -2       116       272       271      1624      1625      1620
 -1       384    8    0    1
 -2       117       118       273      1247      1626      1627
 -1       385    8    0    1
 -2       117       273       272      1627      1628      1623
 -1       386    8    0    1
 -2       118       119       274      1248      1629      1630
 -1       387    8    0    1
 -2       118       274       273      1630      1631      1626
 -1       388    8    0    1
 -2       119       120       275      1249      1632      1633
 -1       389    8    0    1
 -2       119       275       274      1633      1634      1629
 -1       390    8    0    1
 -2       120         3       121      1250      1251      1635
 -1       391    8    0    1
 -2       121       122       276      1252      1636      1637
 -1       392    8    0    1
 -2       122       123       277      1253      1638      1639
 -1       393    8    0    1
 -2       122       277       276      1639      1640      1636
 -1       394    8    0    1
 -2       123       124       278      1254      1641      1642
 -1       395    8    0    1
 -2       123       278       277      1642      1643      1638
 -1       396    8    0    1
 -2       124       125       279      1255      1644      1645
 -1       397    8    0    1
 -2       124       279       278      1645      1646      1641
 -1       398    8    0    1
 -2       125       126       280      1256      1647      1648
 -1       399    8    0    1
 -2       125       280       279      1648      1649      1644
 -1       400    8    0    1
 -2       126       127       281      1257      1650      1651
 -1       401    8    0    1
 -2       126       281       280      1651      1652      1647
 -1       402    8    0    1
 -2       127       128       282      1258      1653      1654
 -1       403    8    0    1
 -2       127       282       281      1654      1655      1650
 -1       404    8    0    1
 -2       128       129       283      1259      1656      1657
 -1       405    8    0    1
 -2       128       283       282      1657      1658      1653
 -1       406    8    0    1
 -2       129       130       284      1260      1659      1660
 -1       407    8    0    1
 -2       129       284       283      1660      1661      1656
 -1       408    8    0    1
 -2       130       131       285      1261      1662      1663
 -1       409    8    0    1
 -2       130       285       284      1663      1664      1659
 -1       410    8    0    1
 -2       131       132       286      1262      1665      1666
 -1       411    8    0    1
 -2       131       286       285      1666      1667      1662
 -1       412    8    0    1
 -2       132       133       287      1263      1668      1669
 -1       413    8    0    1
 -2       132       287       286      1669      1670      1665
 -1       414    8    0    1
 -2       133       134       288      1264      1671      1672
 -1       415    8    0    1
 -2       133       288       287      1672      1673      1668
 -1       416    8    0    1
 -2       134       135       289      1265      1674      1675
 -1       417    8    0    1
 -2       134       289       288      1675      1676      1671
 -1       418    8    0    1
 -2       135       136       290      1266      1677      1678
 -1       419    8    0    1
 -2       289       135       290      1674      1678      1679
 -1       420    8    0    1
 -2       136       227       290      1490      1680      1677
 -1       421    8    0    1
 -2         2       137       291      1268      1681      1682
 -1       422    8    0    1
 -2       137       138       292      1269      1683      1684
 -1       423    8    0    1
 -2       138       139       293      1270      1685      1686
 -1       424    8    0    1
 -2       139       140       294      1271      1687      1688
 -1       425    8    0    1
 -2       140       141       295      1272      1689      1690
 -1       426    8    0    1
 -2       141       142       296      1273      1691      1692
 -1       427    8    0    1
 -2       142       143       297      1274      1693      1694
 -1       428    8    0    1
 -2       143       144       298      1275      1695      1696
 -1       429    8    0    1
 -2       144       145       299      1276      1697      1698
 -1       430    8    0    1
 -2       145       146       300      1277      1699      1700
 -1       431    8    0    1
 -2       146       147       301      1278      1701      1702
 -1       432    8    0    1
 -2       147       148       302      1279      1703      1704
 -1       433    8    0    1
 -2       148       149       303      1280      1705      1706
 -1       434    8    0    1
 -2       149       150       304      1281      1707      1708
 -1       435    8    0    1
 -2       150       151       305      1282      1709      1710
 -1       436    8    0    1
 -2       151       152       306      1283      1711      1712
 -1       437    8    0    1
 -2       152       153       307      1284      1713      1714
 -1       438    8    0    1
 -2       153       154       308      1285      1715      1716
 -1       439    8    0    1
 -2       154       155       309      1286      1717      1718
 -1       440    8    0    1
 -2       155       156       310      1287      1719      1720
 -1       441    8    0    1
 -2       156       157       311      1288      1721      1722
 -1       442    8    0    1
 -2       157       158       312      1289      1723      1724
 -1       443    8    0    1
 -2       158       159       313      1290      1725      1726
 -1       444    8    0    1
 -2       159         1       314      1291      1727      1728
 -1       445    8    0    1
 -2         1       160       315      1292      1729      1730
 -1       446    8    0    1
 -2       160       161       316      1293      1731      1732
 -1       447    8    0    1
 -2       161       162       317      1294      1733      1734
 -1       448    8    0    1
 -2       162       163       318      1295      1735      1736
 -1       449    8    0    1
 -2       163         2       319      1296      1737      1738
 -1       450    8    0    1
 -2       294       140       295      1687      1690      1739
 -1       451    8    0    1
 -2       293       139       294      1685      1688      1740
 -1       452    8    0    1
 -2       120       121       275      1635      1741      1632
 -1       453    8    0    1
 -2       121       276       275      1637      1742      1741
 -1       454    8    0    1
 -2       291       137       292      1681      1684      1743
 -1       455    8    0    1
 -2       292       138       293      1683      1686      1744
 -1       456    8    0    1
 -2         2       291       319      1682      1745      1737
 -1       457    8    0    1
 -2       141       296       295      1692      1746      1689
 -1       458    8    0    1
 -2       142       297       296      1694      1747      1691
 -1       459    8    0    1
 -2       143       298       297      1696      1748      1693
 -1       460    8    0    1
 -2       144       299       298      1698      1749      1695
 -1       461    8    0    1
 -2       145       300       299      1700      1750      1697
 -1       462    8    0    1
 -2       146       301       300      1702      1751      1699
 -1       463    8    0    1
 -2       147       302       301      1704      1752      1701
 -1       464    8    0    1
 -2       148       303       302      1706      1753      1703
 -1       465    8    0    1
 -2       149       304       303      1708      1754      1705
 -1       466    8    0    1
 -2       150       305       304      1710      1755      1707
 -1       467    8    0    1
 -2       151       306       305      1712      1756      1709
 -1       468    8    0    1
 -2       152       307       306      1714      1757      1711
 -1       469    8    0    1
 -2       153       308       307      1716      1758      1713
 -1       470    8    0    1
 -2       154       309       308      1718      1759      1715
 -1       471    8    0    1
 -2       155       310       309      1720      1760      1717
 -1       472    8    0    1
 -2       156       311       310      1722      1761      1719
 -1       473    8    0    1
 -2       157       312       311      1724      1762      1721
 -1       474    8    0    1
 -2       158       313       312      1726      1763      1723
 -1       475    8    0    1
 -2       159       314       313      1728      1764      1725
 -1       476    8    0    1
 -2         1       315       314      1730      1765      1727
 -1       477    8    0    1
 -2       160       316       315      1732      1766      1729
 -1       478    8    0    1
 -2       161       317       316      1734      1767      1731
 -1       479    8    0    1
 -2       162       318       317      1736      1768      1733
 -1       480    8    0    1
 -2       163       319       318      1738      1769      1735
 -1       481    8    0    1
 -2        23         7       164      1297      1299      1770
 -1       482    8    0    1
 -2       165       166       320      1305      1771      1772
 -1       483    8    0    1
 -2       164       165       321      1302      1773      1774
 -1       484    8    0    1
 -2       165       320       321      1772      1775      1773
 -1       485    8    0    1
 -2       167       168       322      1311      1776      1777
 -1       486    8    0    1
 -2       168       169       323      1314      1778      1779
 -1       487    8    0    1
 -2       168       323       322      1779      1780      1776
 -1       488    8    0    1
 -2       169       170       324      1317      1781      1782
 -1       489    8    0    1
 -2       169       324       323      1782      1783      1778
 -1       490    8    0    1
 -2       170       171       325      1320      1784      1785
 -1       491    8    0    1
 -2       170       325       324      1785      1786      1781
 -1       492    8    0    1
 -2       171       172       326      1323      1787      1788
 -1       493    8    0    1
 -2       171       326       325      1788      1789      1784
 -1       494    8    0    1
 -2       172       173       327      1326      1790      1791
 -1       495    8    0    1
 -2       172       327       326      1791      1792      1787
 -1       496    8    0    1
 -2       173       174       328      1329      1793      1794
 -1       497    8    0    1
 -2       173       328       327      1794      1795      1790
 -1       498    8    0    1
 -2       174       175       329      1332      1796      1797
 -1       499    8    0    1
 -2       174       329       328      1797      1798      1793
 -1       500    8    0    1
 -2       175       176       330      1335      1799      1800
 -1       501    8    0    1
 -2       175       330       329      1800      1801      1796
 -1       502    8    0    1
 -2       176       177       331      1338      1802      1803
 -1       503    8    0    1
 -2       176       331       330      1803      1804      1799
 -1       504    8    0    1
 -2       177       178       332      1341      1805      1806
 -1       505    8    0    1
 -2       177       332       331      1806      1807      1802
 -1       506    8    0    1
 -2       178       179       333      1344      1808      1809
 -1       507    8    0    1
 -2       332       178       333      1805      1809      1810
 -1       508    8    0    1
 -2       179       228       333      1493      1811      1808
 -1       509    8    0    1
 -2       180        23       164      1346      1770      1812
 -1       510    8    0    1
 -2       228       229       334      1496      1813      1814
 -1       511    8    0    1
 -2       228       334       333      1814      1815      1811
 -1       512    8    0    1
 -2       180       164       321      1812      1774      1816
 -1       513    8    0    1
 -2       182       181       335      1353      1817      1818
 -1       514    8    0    1
 -2       183       182       336      1356      1819      1820
 -1       515    8    0    1
 -2       182       335       336      1818      1821      1819
 -1       516    8    0    1
 -2       184       183       337      1359      1822      1823
 -1       517    8    0    1
 -2       183       336       337      1820      1824      1822
 -1       518    8    0    1
 -2       185       184       338      1362      1825      1826
 -1       519    8    0    1
 -2       184       337       338      1823      1827      1825
 -1       520    8    0    1
 -2       186       185       339      1365      1828      1829
 -1       521    8    0    1
 -2       185       338       339      1826      1830      1828
 -1       522    8    0    1
 -2       187       186       340      1368      1831      1832
 -1       523    8    0    1
 -2       186       339       340      1829      1833      1831
 -1       524    8    0    1
 -2       188       187       341      1371      1834      1835
 -1       525    8    0    1
 -2       187       340       341      1832      1836      1834
 -1       526    8    0    1
 -2       189       188       342      1374      1837      1838
 -1       527    8    0    1
 -2       188       341       342      1835      1839      1837
 -1       528    8    0    1
 -2       190       189       343      1377      1840      1841
 -1       529    8    0    1
 -2       189       342       343      1838      1842      1840
 -1       530    8    0    1
 -2       191       190       344      1380      1843      1844
 -1       531    8    0    1
 -2       190       343       344      1841      1845      1843
 -1       532    8    0    1
 -2       192       191       345      1383      1846      1847
 -1       533    8    0    1
 -2       191       344       345      1844      1848      1846
 -1       534    8    0    1
 -2       193       192       346      1386      1849      1850
 -1       535    8    0    1
 -2       192       345       346      1847      1851      1849
 -1       536    8    0    1
 -2       194       193       347      1389      1852      1853
 -1       537    8    0    1
 -2       193       346       347      1850      1854      1852
 -1       538    8    0    1
 -2       195       194       348      1392      1855      1856
 -1       539    8    0    1
 -2       194       347       348      1853      1857      1855
 -1       540    8    0    1
 -2       196       195       349      1395      1858      1859
 -1       541    8    0    1
 -2       195       348       349      1856      1860      1858
 -1       542    8    0    1
 -2       197       196       350      1398      1861      1862
 -1       543    8    0    1
 -2       196       349       350      1859      1863      1861
 -1       544    8    0    1
 -2       198       197       351      1401      1864      1865
 -1       545    8    0    1
 -2       197       350       351      1862      1866      1864
 -1       546    8    0    1
 -2       199       198       352      1404      1867      1868
 -1       547    8    0    1
 -2       198       351       352      1865      1869      1867
 -1       548    8    0    1
 -2       200       199       353      1407      1870      1871
 -1       549    8    0    1
 -2       199       352       353      1868      1872      1870
 -1       550    8    0    1
 -2       201       200       354      1410      1873      1874
 -1       551    8    0    1
 -2       200       353       354      1871      1875      1873
 -1       552    8    0    1
 -2       202       201       355      1413      1876      1877
 -1       553    8    0    1
 -2       201       354       355      1874      1878      1876
 -1       554    8    0    1
 -2       203       202       356      1416      1879      1880
 -1       555    8    0    1
 -2       202       355       356      1877      1881      1879
 -1       556    8    0    1
 -2       204       203       357      1419      1882      1883
 -1       557    8    0    1
 -2       203       356       357      1880      1884      1882
 -1       558    8    0    1
 -2       205       204       358      1422      1885      1886
 -1       559    8    0    1
 -2       204       357       358      1883      1887      1885
 -1       560    8    0    1
 -2       206       205       359      1425      1888      1889
 -1       561    8    0    1
 -2       205       358       359      1886      1890      1888
 -1       562    8    0    1
 -2       207       206       360      1428      1891      1892
 -1       563    8    0    1
 -2       206       359       360      1889      1893      1891
 -1       564    8    0    1
 -2       208       207       361      1431      1894      1895
 -1       565    8    0    1
 -2       207       360       361      1892      1896      1894
 -1       566    8    0    1
 -2       209       208       362      1434      1897      1898
 -1       567    8    0    1
 -2       208       361       362      1895      1899      1897
 -1       568    8    0    1
 -2       210       209       363      1437      1900      1901
 -1       569    8    0    1
 -2       209       362       363      1898      1902      1900
 -1       570    8    0    1
 -2       211       210       364      1440      1903      1904
 -1       571    8    0    1
 -2       210       363       364      1901      1905      1903
 -1       572    8    0    1
 -2       212       211       365      1443      1906      1907
 -1       573    8    0    1
 -2       211       364       365      1904      1908      1906
 -1       574    8    0    1
 -2       213       212       366      1446      1909      1910
 -1       575    8    0    1
 -2       212       365       366      1907      1911      1909
 -1       576    8    0    1
 -2       214       213       367      1449      1912      1913
 -1       577    8    0    1
 -2       213       366       367      1910      1914      1912
 -1       578    8    0    1
 -2       215       214       368      1452      1915      1916
 -1       579    8    0    1
 -2       214       367       368      1913      1917      1915
 -1       580    8    0    1
 -2       216       215       369      1455      1918      1919
 -1       581    8    0    1
 -2       215       368       369      1916      1920      1918
 -1       582    8    0    1
 -2       217       216       370      1458      1921      1922
 -1       583    8    0    1
 -2       216       369       370      1919      1923      1921
 -1       584    8    0    1
 -2       218       217       371      1461      1924      1925
 -1       585    8    0    1
 -2       217       370       371      1922      1926      1924
 -1       586    8    0    1
 -2       219       218       372      1464      1927      1928
 -1       587    8    0    1
 -2       218       371       372      1925      1929      1927
 -1       588    8    0    1
 -2       220       219       373      1467      1930      1931
 -1       589    8    0    1
 -2       219       372       373      1928      1932      1930
 -1       590    8    0    1
 -2       221       220       374      1470      1933      1934
 -1       591    8    0    1
 -2       220       373       374      1931      1935      1933
 -1       592    8    0    1
 -2       222       221       375      1473      1936      1937
 -1       593    8    0    1
 -2       221       374       375      1934      1938      1936
 -1       594    8    0    1
 -2       223       222       376      1476      1939      1940
 -1       595    8    0    1
 -2       222       375       376      1937      1941      1939
 -1       596    8    0    1
 -2       224       223       377      1479      1942      1943
 -1       597    8    0    1
 -2       223       376       377      1940      1944      1942
 -1       598    8    0    1
 -2       225       224       378      1482      1945      1946
 -1       599    8    0    1
 -2       224       377       378      1943      1947      1945
 -1       600    8    0    1
 -2       226       225       379      1485      1948      1949
 -1       601    8    0    1
 -2       225       378       379      1946      1950      1948
 -1       602    8    0    1
 -2       227       226       380      1488      1951      1952
 -1       603    8    0    1
 -2       290       227       380      1680      1952      1953
 -1       604    8    0    1
 -2       226       379       380      1949      1954      1951
 -1       605    8    0    1
 -2       229       230       381      1499      1955      1956
 -1       606    8    0    1
 -2       229       381       334      1956      1957      1813
 -1       607    8    0    1
 -2       230       231       382      1502      1958      1959
 -1       608    8    0    1
 -2       230       382       381      1959      1960      1955
 -1       609    8    0    1
 -2       231       232       383      1505      1961      1962
 -1       610    8    0    1
 -2       231       383       382      1962      1963      1958
 -1       611    8    0    1
 -2       232       233       384      1508      1964      1965
 -1       612    8    0    1
 -2       232       384       383      1965      1966      1961
 -1       613    8    0    1
 -2       233       234       385      1511      1967      1968
 -1       614    8    0    1
 -2       233       385       384      1968      1969      1964
 -1       615    8    0    1
 -2       234       235       386      1514      1970      1971
 -1       616    8    0    1
 -2       234       386       385      1971      1972      1967
 -1       617    8    0    1
 -2       235       236       387      1517      1973      1974
 -1       618    8    0    1
 -2       235       387       386      1974      1975      1970
 -1       619    8    0    1
 -2       236       237       388      1520      1976      1977
 -1       620    8    0    1
 -2       236       388       387      1977      1978      1973
 -1       621    8    0    1
 -2       237       238       389      1523      1979      1980
 -1       622    8    0    1
 -2       237       389       388      1980      1981      1976
 -1       623    8    0    1
 -2       238       239       390      1526      1982      1983
 -1       624    8    0    1
 -2       238       390       389      1983      1984      1979
 -1       625    8    0    1
 -2       239       240       391      1529      1985      1986
 -1       626    8    0    1
 -2       239       391       390      1986      1987      1982
 -1       627    8    0    1
 -2       240       241       392      1532      1988      1989
 -1       628    8    0    1
 -2       240       392       391      1989      1990      1985
 -1       629    8    0    1
 -2       241       242       393      1535      1991      1992
 -1       630    8    0    1
 -2       241       393       392      1992      1993      1988
 -1       631    8    0    1
 -2       242       243       394      1538      1994      1995
 -1       632    8    0    1
 -2       242       394       393      1995      1996      1991
 -1       633    8    0    1
 -2       243       244       395      1541      1997      1998
 -1       634    8    0    1
 -2       243       395       394      1998      1999      1994
 -1       635    8    0    1
 -2       244       245       396      1544      2000      2001
 -1       636    8    0    1
 -2       244       396       395      2001      2002      1997
 -1       637    8    0    1
 -2       245       246       397      1547      2003      2004
 -1       638    8    0    1
 -2       245       397       396      2004      2005      2000
 -1       639    8    0    1
 -2       246       247       398      1550      2006      2007
 -1       640    8    0    1
 -2       246       398       397      2007      2008      2003
 -1       641    8    0    1
 -2       247       248       399      1553      2009      2010
 -1       642    8    0    1
 -2       247       399       398      2010      2011      2006
 -1       643    8    0    1
 -2       248       249       400      1556      2012      2013
 -1       644    8    0    1
 -2       248       400       399      2013      2014      2009
 -1       645    8    0    1
 -2       249       250       401      1559      2015      2016
 -1       646    8    0    1
 -2       249       401       400      2016      2017      2012
 -1       647    8    0    1
 -2       250       251       402      1562      2018      2019
 -1       648    8    0    1
 -2       250       402       401      2019      2020      2015
 -1       649    8    0    1
 -2       251       252       403      1565      2021      2022
 -1       650    8    0    1
 -2       251       403       402      2022      2023      2018
 -1       651    8    0    1
 -2       252       253       404      1568      2024      2025
 -1       652    8    0    1
 -2       252       404       403      2025      2026      2021
 -1       653    8    0    1
 -2       253       254       405      1571      2027      2028
 -1       654    8    0    1
 -2       253       405       404      2028      2029      2024
 -1       655    8    0    1
 -2       254       255       406      1574      2030      2031
 -1       656    8    0    1
 -2       254       406       405      2031      2032      2027
 -1       657    8    0    1
 -2       255       256       407      1577      2033      2034
 -1       658    8    0    1
 -2       255       407       406      2034      2035      2030
 -1       659    8    0    1
 -2       256       257       408      1580      2036      2037
 -1       660    8    0    1
 -2       256       408       407      2037      2038      2033
 -1       661    8    0    1
 -2       257       258       409      1583      2039      2040
 -1       662    8    0    1
 -2       257       409       408      2040      2041      2036
 -1       663    8    0    1
 -2       258       259       410      1586      2042      2043
 -1       664    8    0    1
 -2       258       410       409      2043      2044      2039
 -1       665    8    0    1
 -2       259       260       411      1589      2045      2046
 -1       666    8    0    1
 -2       259       411       410      2046      2047      2042
 -1       667    8    0    1
 -2       260       261       412      1592      2048      2049
 -1       668    8    0    1
 -2       260       412       411      2049      2050      2045
 -1       669    8    0    1
 -2       261       262       413      1595      2051      2052
 -1       670    8    0    1
 -2       261       413       412      2052      2053      2048
 -1       671    8    0    1
 -2       262       263       414      1598      2054      2055
 -1       672    8    0    1
 -2       262       414       413      2055      2056      2051
 -1       673    8    0    1
 -2       263       264       415      1601      2057      2058
 -1       674    8    0    1
 -2       263       415       414      2058      2059      2054
 -1       675    8    0    1
 -2       264       265       416      1604      2060      2061
 -1       676    8    0    1
 -2       264       416       415      2061      2062      2057
 -1       677    8    0    1
 -2       265       266       417      1607      2063      2064
 -1       678    8    0    1
 -2       265       417       416      2064      2065      2060
 -1       679    8    0    1
 -2       266       267       418      1610      2066      2067
 -1       680    8    0    1
 -2       266       418       417      2067      2068      2063
 -1       681    8    0    1
 -2       267       268       419      1613      2069      2070
 -1       682    8    0    1
 -2       267       419       418      2070      2071      2066
 -1       683    8    0    1
 -2       268       269       420      1616      2072      2073
 -1       684    8    0    1
 -2       268       420       419      2073      2074      2069
 -1       685    8    0    1
 -2       269       270       421      1619      2075      2076
 -1       686    8    0    1
 -2       269       421       420      2076      2077      2072
 -1       687    8    0    1
 -2       270       271       422      1622      2078      2079
 -1       688    8    0    1
 -2       270       422       421      2079      2080      2075
 -1       689    8    0    1
 -2       271       272       423      1625      2081      2082
 -1       690    8    0    1
 -2       271       423       422      2082      2083      2078
 -1       691    8    0    1
 -2       272       273       424      1628      2084      2085
 -1       692    8    0    1
 -2       272       424       423      2085      2086      2081
 -1       693    8    0    1
 -2       273       274       425      1631      2087      2088
 -1       694    8    0    1
 -2       273       425       424      2088      2089      2084
 -1       695    8    0    1
 -2       274       275       426      1634      2090      2091
 -1       696    8    0    1
 -2       425       274       426      2087      2091      2092
 -1       697    8    0    1
 -2       275       276       426      1742      2093      2090
 -1       698    8    0    1
 -2       278       279       427      1646      2094      2095
 -1       699    8    0    1
 -2       277       278       428      1643      2096      2097
 -1       700    8    0    1
 -2       278       427       428      2095      2098      2096
 -1       701    8    0    1
 -2       276       277       429      1640      2099      2100
 -1       702    8    0    1
 -2       426       276       429      2093      2100      2101
 -1       703    8    0    1
 -2       277       428       429      2097      2102      2099
 -1       704    8    0    1
 -2       279       280       430      1649      2103      2104
 -1       705    8    0    1
 -2       279       430       427      2104      2105      2094
 -1       706    8    0    1
 -2       280       281       431      1652      2106      2107
 -1       707    8    0    1
 -2       280       431       430      2107      2108      2103
 -1       708    8    0    1
 -2       281       282       432      1655      2109      2110
 -1       709    8    0    1
 -2       281       432       431      2110      2111      2106
 -1       710    8    0    1
 -2       282       283       433      1658      2112      2113
 -1       711    8    0    1
 -2       282       433       432      2113      2114      2109
 -1       712    8    0    1
 -2       283       284       434      1661      2115      2116
 -1       713    8    0    1
 -2       283       434       433      2116      2117      2112
 -1       714    8    0    1
 -2       284       285       435      1664      2118      2119
 -1       715    8    0    1
 -2       284       435       434      2119      2120      2115
 -1       716    8    0    1
 -2       285       286       436      1667      2121      2122
 -1       717    8    0    1
 -2       285       436       435      2122      2123      2118
 -1       718    8    0    1
 -2       286       287       437      1670      2124      2125
 -1       719    8    0    1
 -2       286       437       436      2125      2126      2121
 -1       720    8    0    1
 -2       287       288       438      1673      2127      2128
 -1       721    8    0    1
 -2       287       438       437      2128      2129      2124
 -1       722    8    0    1
 -2       288       289       439      1676      2130      2131
 -1       723    8    0    1
 -2       288       439       438      2131      2132      2127
 -1       724    8    0    1
 -2       292       293       440      1744      2133      2134
 -1       725    8    0    1
 -2       319       291       441      1745      2135      2136
 -1       726    8    0    1
 -2       291       292       442      1743      2137      2138
 -1       727    8    0    1
 -2       292       440       442      2134      2139      2137
 -1       728    8    0    1
 -2       293       294       443      1740      2140      2141
 -1       729    8    0    1
 -2       294       295       444      1739      2142      2143
 -1       730    8    0    1
 -2       166       167       445      1308      2144      2145
 -1       731    8    0    1
 -2       320       166       445      1771      2145      2146
 -1       732    8    0    1
 -2       167       322       445      1777      2147      2144
 -1       733    8    0    1
 -2       296       297       446      1747      2148      2149
 -1       734    8    0    1
 -2       297       298       447      1748      2150      2151
 -1       735    8    0    1
 -2       298       299       448      1749      2152      2153
 -1       736    8    0    1
 -2       298       448       447      2153      2154      2150
 -1       737    8    0    1
 -2       299       300       449      1750      2155      2156
 -1       738    8    0    1
 -2       300       301       450      1751      2157      2158
 -1       739    8    0    1
 -2       301       302       451      1752      2159      2160
 -1       740    8    0    1
 -2       302       303       452      1753      2161      2162
 -1       741    8    0    1
 -2       302       452       451      2162      2163      2159
 -1       742    8    0    1
 -2       303       304       453      1754      2164      2165
 -1       743    8    0    1
 -2       304       305       454      1755      2166      2167
 -1       744    8    0    1
 -2       305       306       455      1756      2168      2169
 -1       745    8    0    1
 -2       306       307       456      1757      2170      2171
 -1       746    8    0    1
 -2       307       308       457      1758      2172      2173
 -1       747    8    0    1
 -2       308       309       458      1759      2174      2175
 -1       748    8    0    1
 -2       309       310       459      1760      2176      2177
 -1       749    8    0    1
 -2       309       459       458      2177      2178      2174
 -1       750    8    0    1
 -2       310       311       460      1761      2179      2180
 -1       751    8    0    1
 -2       311       312       461      1762      2181      2182
 -1       752    8    0    1
 -2       312       313       462      1763      2183      2184
 -1       753    8    0    1
 -2       313       314       463      1764      2185      2186
 -1       754    8    0    1
 -2       314       315       464      1765      2187      2188
 -1       755    8    0    1
 -2       315       316       465      1766      2189      2190
 -1       756    8    0    1
 -2       315       465       464      2190      2191      2187
 -1       757    8    0    1
 -2       316       317       466      1767      2192      2193
 -1       758    8    0    1
 -2       317       318       467      1768      2194      2195
 -1       759    8    0    1
 -2       318       319       468      1769      2196      2197
 -1       760    8    0    1
 -2       295       296       469      1746      2198      2199
 -1       761    8    0    1
 -2       444       295       469      2142      2199      2200
 -1       762    8    0    1
 -2       180       321       181      1816      2201      1350
 -1       763    8    0    1
 -2       296       446       469      2149      2202      2198
 -1       764    8    0    1
 -2       335       181       321      1817      2201      2203
 -1       765    8    0    1
 -2       441       291       470      2135      2204      2205
 -1       766    8    0    1
 -2       291       442       470      2138      2206      2204
 -1       767    8    0    1
 -2       293       443       440      2141      2207      2133
 -1       768    8    0    1
 -2       439       289       290      2130      1679      2208
 -1       769    8    0    1
 -2       319       441       468      2136      2209      2196
 -1       770    8    0    1
 -2       443       294       444      2140      2143      2210
 -1       771    8    0    1
 -2       467       318       468      2194      2197      2211
 -1       772    8    0    1
 -2       465       316       466      2189      2193      2212
 -1       773    8    0    1
 -2       463       314       471      2185      2213      2214
 -1       774    8    0    1
 -2       314       464       471      2188      2215      2213
 -1       775    8    0    1
 -2       462       313       463      2183      2186      2216
 -1       776    8    0    1
 -2       461       312       462      2181      2184      2217
 -1       777    8    0    1
 -2       459       310       460      2176      2180      2218
 -1       778    8    0    1
 -2       457       308       458      2172      2175      2219
 -1       779    8    0    1
 -2       456       307       457      2170      2173      2220
 -1       780    8    0    1
 -2       455       306       456      2168      2171      2221
 -1       781    8    0    1
 -2       454       305       455      2166      2169      2222
 -1       782    8    0    1
 -2       452       303       472      2161      2223      2224
 -1       783    8    0    1
 -2       303       453       472      2165      2225      2223
 -1       784    8    0    1
 -2       450       301       451      2157      2160      2226
 -1       785    8    0    1
 -2       448       299       449      2152      2156      2227
 -1       786    8    0    1
 -2       446       297       473      2148      2228      2229
 -1       787    8    0    1
 -2       297       447       473      2151      2230      2228
 -1       788    8    0    1
 -2       449       300       450      2155      2158      2231
 -1       789    8    0    1
 -2       453       304       454      2164      2167      2232
 -1       790    8    0    1
 -2       460       311       474      2179      2233      2234
 -1       791    8    0    1
 -2       311       461       474      2182      2235      2233
 -1       792    8    0    1
 -2       466       317       467      2192      2195      2236
 -1       793    8    0    1
 -2       334       381       475      1957      2237      2238
 -1       794    8    0    1
 -2       323       324       476      1783      2239      2240
 -1       795    8    0    1
 -2       322       323       477      1780      2241      2242
 -1       796    8    0    1
 -2       323       476       477      2240      2243      2241
 -1       797    8    0    1
 -2       325       326       478      1789      2244      2245
 -1       798    8    0    1
 -2       326       327       479      1792      2246      2247
 -1       799    8    0    1
 -2       326       479       478      2247      2248      2244
 -1       800    8    0    1
 -2       327       328       480      1795      2249      2250
 -1       801    8    0    1
 -2       327       480       479      2250      2251      2246
 -1       802    8    0    1
 -2       328       329       481      1798      2252      2253
 -1       803    8    0    1
 -2       328       481       480      2253      2254      2249
 -1       804    8    0    1
 -2       329       330       482      1801      2255      2256
 -1       805    8    0    1
 -2       329       482       481      2256      2257      2252
 -1       806    8    0    1
 -2       330       331       483      1804      2258      2259
 -1       807    8    0    1
 -2       330       483       482      2259      2260      2255
 -1       808    8    0    1
 -2       381       382       484      1960      2261      2262
 -1       809    8    0    1
 -2       381       484       475      2262      2263      2237
 -1       810    8    0    1
 -2       336       335       485      1821      2264      2265
 -1       811    8    0    1
 -2       469       446       486      2202      2266      2267
 -1       812    8    0    1
 -2       337       336       487      1824      2268      2269
 -1       813    8    0    1
 -2       336       485       487      2265      2270      2268
 -1       814    8    0    1
 -2       338       337       488      1827      2271      2272
 -1       815    8    0    1
 -2       337       487       488      2269      2273      2271
 -1       816    8    0    1
 -2       339       338       489      1830      2274      2275
 -1       817    8    0    1
 -2       338       488       489      2272      2276      2274
 -1       818    8    0    1
 -2       340       339       490      1833      2277      2278
 -1       819    8    0    1
 -2       339       489       490      2275      2279      2277
 -1       820    8    0    1
 -2       341       340       491      1836      2280      2281
 -1       821    8    0    1
 -2       340       490       491      2278      2282      2280
 -1       822    8    0    1
 -2       342       341       492      1839      2283      2284
 -1       823    8    0    1
 -2       341       491       492      2281      2285      2283
 -1       824    8    0    1
 -2       343       342       493      1842      2286      2287
 -1       825    8    0    1
 -2       342       492       493      2284      2288      2286
 -1       826    8    0    1
 -2       344       343       494      1845      2289      2290
 -1       827    8    0    1
 -2       343       493       494      2287      2291      2289
 -1       828    8    0    1
 -2       345       344       495      1848      2292      2293
 -1       829    8    0    1
 -2       344       494       495      2290      2294      2292
 -1       830    8    0    1
 -2       346       345       496      1851      2295      2296
 -1       831    8    0    1
 -2       345       495       496      2293      2297      2295
 -1       832    8    0    1
 -2       347       346       497      1854      2298      2299
 -1       833    8    0    1
 -2       346       496       497      2296      2300      2298
 -1       834    8    0    1
 -2       348       347       498      1857      2301      2302
 -1       835    8    0    1
 -2       347       497       498      2299      2303      2301
 -1       836    8    0    1
 -2       349       348       499      1860      2304      2305
 -1       837    8    0    1
 -2       348       498       499      2302      2306      2304
 -1       838    8    0    1
 -2       350       349       500      1863      2307      2308
 -1       839    8    0    1
 -2       349       499       500      2305      2309      2307
 -1       840    8    0    1
 -2       351       350       501      1866      2310      2311
 -1       841    8    0    1
 -2       350       500       501      2308      2312      2310
 -1       842    8    0    1
 -2       352       351       502      1869      2313      2314
 -1       843    8    0    1
 -2       351       501       502      2311      2315      2313
 -1       844    8    0    1
 -2       353       352       503      1872      2316      2317
 -1       845    8    0    1
 -2       352       502       503      2314      2318      2316
 -1       846    8    0    1
 -2       354       353       504      1875      2319      2320
 -1       847    8    0    1
 -2       353       503       504      2317      2321      2319
 -1       848    8    0    1
 -2       355       354       505      1878      2322      2323
 -1       849    8    0    1
 -2       354       504       505      2320      2324      2322
 -1       850    8    0    1
 -2       356       355       506      1881      2325      2326
 -1       851    8    0    1
 -2       355       505       506      2323      2327      2325
 -1       852    8    0    1
 -2       357       356       507      1884      2328      2329
 -1       853    8    0    1
 -2       356       506       507      2326      2330      2328
 -1       854    8    0    1
 -2       358       357       508      1887      2331      2332
 -1       855    8    0    1
 -2       357       507       508      2329      2333      2331
 -1       856    8    0    1
 -2       359       358       509      1890      2334      2335
 -1       857    8    0    1
 -2       358       508       509      2332      2336      2334
 -1       858    8    0    1
 -2       360       359       510      1893      2337      2338
 -1       859    8    0    1
 -2       359       509       510      2335      2339      2337
 -1       860    8    0    1
 -2       361       360       511      1896      2340      2341
 -1       861    8    0    1
 -2       360       510       511      2338      2342      2340
 -1       862    8    0    1
 -2       362       361       512      1899      2343      2344
 -1       863    8    0    1
 -2       361       511       512      2341      2345      2343
 -1       864    8    0    1
 -2       363       362       513      1902      2346      2347
 -1       865    8    0    1
 -2       362       512       513      2344      2348      2346
 -1       866    8    0    1
 -2       364       363       514      1905      2349      2350
 -1       867    8    0    1
 -2       363       513       514      2347      2351      2349
 -1       868    8    0    1
 -2       365       364       515      1908      2352      2353
 -1       869    8    0    1
 -2       364       514       515      2350      2354      2352
 -1       870    8    0    1
 -2       366       365       516      1911      2355      2356
 -1       871    8    0    1
 -2       365       515       516      2353      2357      2355
 -1       872    8    0    1
 -2       367       366       517      1914      2358      2359
 -1       873    8    0    1
 -2       366       516       517      2356      2360      2358
 -1       874    8    0    1
 -2       368       367       518      1917      2361      2362
 -1       875    8    0    1
 -2       367       517       518      2359      2363      2361
 -1       876    8    0    1
 -2       369       368       519      1920      2364      2365
 -1       877    8    0    1
 -2       368       518       519      2362      2366      2364
 -1       878    8    0    1
 -2       370       369       520      1923      2367      2368
 -1       879    8    0    1
 -2       369       519       520      2365      2369      2367
 -1       880    8    0    1
 -2       371       370       521      1926      2370      2371
 -1       881    8    0    1
 -2       370       520       521      2368      2372      2370
 -1       882    8    0    1
 -2       372       371       522      1929      2373      2374
 -1       883    8    0    1
 -2       371       521       522      2371      2375      2373
 -1       884    8    0    1
 -2       373       372       523      1932      2376      2377
 -1       885    8    0    1
 -2       372       522       523      2374      2378      2376
 -1       886    8    0    1
 -2       374       373       524      1935      2379      2380
 -1       887    8    0    1
 -2       373       523       524      2377      2381      2379
 -1       888    8    0    1
 -2       375       374       525      1938      2382      2383
 -1       889    8    0    1
 -2       374       524       525      2380      2384      2382
 -1       890    8    0    1
 -2       376       375       526      1941      2385      2386
 -1       891    8    0    1
 -2       375       525       526      2383      2387      2385
 -1       892    8    0    1
 -2       377       376       527      1944      2388      2389
 -1       893    8    0    1
 -2       376       526       527      2386      2390      2388
 -1       894    8    0    1
 -2       378       377       528      1947      2391      2392
 -1       895    8    0    1
 -2       377       527       528      2389      2393      2391
 -1       896    8    0    1
 -2       379       378       529      1950      2394      2395
 -1       897    8    0    1
 -2       378       528       529      2392      2396      2394
 -1       898    8    0    1
 -2       442       440       530      2139      2397      2398
 -1       899    8    0    1
 -2       383       384       531      1966      2399      2400
 -1       900    8    0    1
 -2       384       385       532      1969      2401      2402
 -1       901    8    0    1
 -2       384       532       531      2402      2403      2399
 -1       902    8    0    1
 -2       385       386       533      1972      2404      2405
 -1       903    8    0    1
 -2       385       533       532      2405      2406      2401
 -1       904    8    0    1
 -2       386       387       534      1975      2407      2408
 -1       905    8    0    1
 -2       386       534       533      2408      2409      2404
 -1       906    8    0    1
 -2       387       388       535      1978      2410      2411
 -1       907    8    0    1
 -2       387       535       534      2411      2412      2407
 -1       908    8    0    1
 -2       388       389       536      1981      2413      2414
 -1       909    8    0    1
 -2       388       536       535      2414      2415      2410
 -1       910    8    0    1
 -2       389       390       537      1984      2416      2417
 -1       911    8    0    1
 -2       389       537       536      2417      2418      2413
 -1       912    8    0    1
 -2       390       391       538      1987      2419      2420
 -1       913    8    0    1
 -2       390       538       537      2420      2421      2416
 -1       914    8    0    1
 -2       391       392       539      1990      2422      2423
 -1       915    8    0    1
 -2       391       539       538      2423      2424      2419
 -1       916    8    0    1
 -2       392       393       540      1993      2425      2426
 -1       917    8    0    1
 -2       392       540       539      2426      2427      2422
 -1       918    8    0    1
 -2       393       394       541      1996      2428      2429
 -1       919    8    0    1
 -2       393       541       540      2429      2430      2425
 -1       920    8    0    1
 -2       394       395       542      1999      2431      2432
 -1       921    8    0    1
 -2       394       542       541      2432      2433      2428
 -1       922    8    0    1
 -2       395       396       543      2002      2434      2435
 -1       923    8    0    1
 -2       395       543       542      2435      2436      2431
 -1       924    8    0    1
 -2       396       397       544      2005      2437      2438
 -1       925    8    0    1
 -2       396       544       543      2438      2439      2434
 -1       926    8    0    1
 -2       397       398       545      2008      2440      2441
 -1       927    8    0    1
 -2       397       545       544      2441      2442      2437
 -1       928    8    0    1
 -2       398       399       546      2011      2443      2444
 -1       929    8    0    1
 -2       398       546       545      2444      2445      2440
 -1       930    8    0    1
 -2       399       400       547      2014      2446      2447
 -1       931    8    0    1
 -2       399       547       546      2447      2448      2443
 -1       932    8    0    1
 -2       400       401       548      2017      2449      2450
 -1       933    8    0    1
 -2       400       548       547      2450      2451      2446
 -1       934    8    0    1
 -2       401       402       549      2020      2452      2453
 -1       935    8    0    1
 -2       401       549       548      2453      2454      2449
 -1       936    8    0    1
 -2       402       403       550      2023      2455      2456
 -1       937    8    0    1
 -2       402       550       549      2456      2457      2452
 -1       938    8    0    1
 -2       403       404       551      2026      2458      2459
 -1       939    8    0    1
 -2       403       551       550      2459      2460      2455
 -1       940    8    0    1
 -2       404       405       552      2029      2461      2462
 -1       941    8    0    1
 -2       404       552       551      2462      2463      2458
 -1       942    8    0    1
 -2       405       406       553      2032      2464      2465
 -1       943    8    0    1
 -2       405       553       552      2465      2466      2461
 -1       944    8    0    1
 -2       406       407       554      2035      2467      2468
 -1       945    8    0    1
 -2       406       554       553      2468      2469      2464
 -1       946    8    0    1
 -2       407       408       555      2038      2470      2471
 -1       947    8    0    1
 -2       407       555       554      2471      2472      2467
 -1       948    8    0    1
 -2       408       409       556      2041      2473      2474
 -1       949    8    0    1
 -2       408       556       555      2474      2475      2470
 -1       950    8    0    1
 -2       409       410       557      2044      2476      2477
 -1       951    8    0    1
 -2       409       557       556      2477      2478      2473
 -1       952    8    0    1
 -2       410       411       558      2047      2479      2480
 -1       953    8    0    1
 -2       410       558       557      2480      2481      2476
 -1       954    8    0    1
 -2       411       412       559      2050      2482      2483
 -1       955    8    0    1
 -2       411       559       558      2483      2484      2479
 -1       956    8    0    1
 -2       412       413       560      2053      2485      2486
 -1       957    8    0    1
 -2       412       560       559      2486      2487      2482
 -1       958    8    0    1
 -2       413       414       561      2056      2488      2489
 -1       959    8    0    1
 -2       413       561       560      2489      2490      2485
 -1       960    8    0    1
 -2       414       415       562      2059      2491      2492
 -1       961    8    0    1
 -2       414       562       561      2492      2493      2488
 -1       962    8    0    1
 -2       415       416       563      2062      2494      2495
 -1       963    8    0    1
 -2       415       563       562      2495      2496      2491
 -1       964    8    0    1
 -2       416       417       564      2065      2497      2498
 -1       965    8    0    1
 -2       416       564       563      2498      2499      2494
 -1       966    8    0    1
 -2       417       418       565      2068      2500      2501
 -1       967    8    0    1
 -2       417       565       564      2501      2502      2497
 -1       968    8    0    1
 -2       418       419       566      2071      2503      2504
 -1       969    8    0    1
 -2       418       566       565      2504      2505      2500
 -1       970    8    0    1
 -2       419       420       567      2074      2506      2507
 -1       971    8    0    1
 -2       419       567       566      2507      2508      2503
 -1       972    8    0    1
 -2       420       421       568      2077      2509      2510
 -1       973    8    0    1
 -2       420       568       567      2510      2511      2506
 -1       974    8    0    1
 -2       421       422       569      2080      2512      2513
 -1       975    8    0    1
 -2       421       569       568      2513      2514      2509
 -1       976    8    0    1
 -2       422       423       570      2083      2515      2516
 -1       977    8    0    1
 -2       422       570       569      2516      2517      2512
 -1       978    8    0    1
 -2       423       424       571      2086      2518      2519
 -1       979    8    0    1
 -2       423       571       570      2519      2520      2515
 -1       980    8    0    1
 -2       424       425       572      2089      2521      2522
 -1       981    8    0    1
 -2       424       572       571      2522      2523      2518
 -1       982    8    0    1
 -2       425       426       429      2092      2101      2524
 -1       983    8    0    1
 -2       430       431       573      2108      2525      2526
 -1       984    8    0    1
 -2       431       432       574      2111      2527      2528
 -1       985    8    0    1
 -2       431       574       573      2528      2529      2525
 -1       986    8    0    1
 -2       428       427       575      2098      2530      2531
 -1       987    8    0    1
 -2       427       430       576      2105      2532      2533
 -1       988    8    0    1
 -2       575       427       576      2530      2533      2534
 -1       989    8    0    1
 -2       430       573       576      2526      2535      2532
 -1       990    8    0    1
 -2       432       433       577      2114      2536      2537
 -1       991    8    0    1
 -2       432       577       574      2537      2538      2527
 -1       992    8    0    1
 -2       433       434       578      2117      2539      2540
 -1       993    8    0    1
 -2       433       578       577      2540      2541      2536
 -1       994    8    0    1
 -2       434       435       579      2120      2542      2543
 -1       995    8    0    1
 -2       434       579       578      2543      2544      2539
 -1       996    8    0    1
 -2       435       436       580      2123      2545      2546
 -1       997    8    0    1
 -2       435       580       579      2546      2547      2542
 -1       998    8    0    1
 -2       436       437       581      2126      2548      2549
 -1       999    8    0    1
 -2       436       581       580      2549      2550      2545
 -1      1000    8    0    1
 -2       437       438       582      2129      2551      2552
 -1      1001    8    0    1
 -2       437       582       581      2552      2553      2548
 -1      1002    8    0    1
 -2       438       439       583      2132      2554      2555
 -1      1003    8    0    1
 -2       438       583       582      2555      2556      2551
 -1      1004    8    0    1
 -2       439       290       380      2208      1953      2557
 -1      1005    8    0    1
 -2       468       441       584      2209      2558      2559
 -1      1006    8    0    1
 -2       382       383       585      1963      2560      2561
 -1      1007    8    0    1
 -2       383       531       585      2400      2562      2560
 -1      1008    8    0    1
 -2       440       443       586      2207      2563      2564
 -1      1009    8    0    1
 -2       467       468       587      2211      2565      2566
 -1      1010    8    0    1
 -2       335       321       588      2203      2567      2568
 -1      1011    8    0    1
 -2       485       335       588      2264      2568      2569
 -1      1012    8    0    1
 -2       321       320       588      1775      2570      2567
 -1      1013    8    0    1
 -2       443       444       589      2210      2571      2572
 -1      1014    8    0    1
 -2       443       589       586      2572      2573      2563
 -1      1015    8    0    1
 -2       457       458       590      2219      2574      2575
 -1      1016    8    0    1
 -2       450       451       591      2226      2576      2577
 -1      1017    8    0    1
 -2       324       325       592      1786      2578      2579
 -1      1018    8    0    1
 -2       476       324       592      2239      2579      2580
 -1      1019    8    0    1
 -2       325       478       592      2245      2581      2578
 -1      1020    8    0    1
 -2       449       450       593      2231      2582      2583
 -1      1021    8    0    1
 -2       447       448       594      2154      2584      2585
 -1      1022    8    0    1
 -2       453       454       595      2232      2586      2587
 -1      1023    8    0    1
 -2       448       449       596      2227      2588      2589
 -1      1024    8    0    1
 -2       448       596       594      2589      2590      2584
 -1      1025    8    0    1
 -2       451       452       597      2163      2591      2592
 -1      1026    8    0    1
 -2       451       597       591      2592      2593      2576
 -1      1027    8    0    1
 -2       454       455       598      2222      2594      2595
 -1      1028    8    0    1
 -2       454       598       595      2595      2596      2586
 -1      1029    8    0    1
 -2       455       456       599      2221      2597      2598
 -1      1030    8    0    1
 -2       456       457       600      2220      2599      2600
 -1      1031    8    0    1
 -2       458       459       601      2178      2601      2602
 -1      1032    8    0    1
 -2       466       467       602      2236      2603      2604
 -1      1033    8    0    1
 -2       467       587       602      2566      2605      2603
 -1      1034    8    0    1
 -2       459       460       603      2218      2606      2607
 -1      1035    8    0    1
 -2       459       603       601      2607      2608      2601
 -1      1036    8    0    1
 -2       461       462       604      2217      2609      2610
 -1      1037    8    0    1
 -2       462       463       605      2216      2611      2612
 -1      1038    8    0    1
 -2       464       465       606      2191      2613      2614
 -1      1039    8    0    1
 -2       465       466       607      2212      2615      2616
 -1      1040    8    0    1
 -2       465       607       606      2616      2617      2613
 -1      1041    8    0    1
 -2       333       334       608      1815      2618      2619
 -1      1042    8    0    1
 -2       332       333       608      1810      2619      2620
 -1      1043    8    0    1
 -2       334       475       608      2238      2621      2618
 -1      1044    8    0    1
 -2       444       469       609      2200      2622      2623
 -1      1045    8    0    1
 -2       469       486       609      2267      2624      2622
 -1      1046    8    0    1
 -2       449       593       596      2583      2625      2588
 -1      1047    8    0    1
 -2       322       477       610      2242      2626      2627
 -1      1048    8    0    1
 -2       322       610       445      2627      2628      2147
 -1      1049    8    0    1
 -2       484       382       585      2261      2561      2629
 -1      1050    8    0    1
 -2       331       332       608      1807      2620      2630
 -1      1051    8    0    1
 -2       589       444       609      2571      2623      2631
 -1      1052    8    0    1
 -2       470       442       611      2206      2632      2633
 -1      1053    8    0    1
 -2       442       530       611      2398      2634      2632
 -1      1054    8    0    1
 -2       468       584       612      2559      2635      2636
 -1      1055    8    0    1
 -2       468       612       587      2636      2637      2565
 -1      1056    8    0    1
 -2       530       440       586      2397      2564      2638
 -1      1057    8    0    1
 -2       425       429       572      2524      2639      2521
 -1      1058    8    0    1
 -2       429       428       572      2102      2640      2639
 -1      1059    8    0    1
 -2       607       466       602      2615      2604      2641
 -1      1060    8    0    1
 -2       439       380       613      2557      2642      2643
 -1      1061    8    0    1
 -2       583       439       613      2554      2643      2644
 -1      1062    8    0    1
 -2       380       379       613      1954      2645      2642
 -1      1063    8    0    1
 -2       605       463       614      2611      2646      2647
 -1      1064    8    0    1
 -2       463       471       614      2214      2648      2646
 -1      1065    8    0    1
 -2       584       441       615      2558      2649      2650
 -1      1066    8    0    1
 -2       441       470       615      2205      2651      2649
 -1      1067    8    0    1
 -2       331       608       483      2630      2652      2258
 -1      1068    8    0    1
 -2       457       590       600      2575      2653      2599
 -1      1069    8    0    1
 -2       461       604       474      2610      2654      2235
 -1      1070    8    0    1
 -2       590       458       601      2574      2602      2655
 -1      1071    8    0    1
 -2       471       464       606      2215      2614      2656
 -1      1072    8    0    1
 -2       455       599       598      2598      2657      2594
 -1      1073    8    0    1
 -2       588       320       445      2570      2146      2658
 -1      1074    8    0    1
 -2       450       591       616      2577      2659      2660
 -1      1075    8    0    1
 -2       450       616       593      2660      2661      2582
 -1      1076    8    0    1
 -2       472       453       617      2225      2662      2663
 -1      1077    8    0    1
 -2       453       595       617      2587      2664      2662
 -1      1078    8    0    1
 -2       486       446       618      2266      2665      2666
 -1      1079    8    0    1
 -2       446       473       618      2229      2667      2665
 -1      1080    8    0    1
 -2       473       447       619      2230      2668      2669
 -1      1081    8    0    1
 -2       447       594       619      2585      2670      2668
 -1      1082    8    0    1
 -2       597       452       472      2591      2224      2671
 -1      1083    8    0    1
 -2       460       474       620      2234      2672      2673
 -1      1084    8    0    1
 -2       460       620       603      2673      2674      2606
 -1      1085    8    0    1
 -2       599       456       600      2597      2600      2675
 -1      1086    8    0    1
 -2       604       462       605      2609      2612      2676
 -1      1087    8    0    1
 -2       572       428       575      2640      2531      2677
 -1      1088    8    0    1
 -2       613       379       529      2645      2395      2678
 -1      1089    8    0    1
 -2       479       480       621      2251      2679      2680
 -1      1090    8    0    1
 -2       478       479       622      2248      2681      2682
 -1      1091    8    0    1
 -2       479       621       622      2680      2683      2681
 -1      1092    8    0    1
 -2       481       482       623      2257      2684      2685
 -1      1093    8    0    1
 -2       482       483       624      2260      2686      2687
 -1      1094    8    0    1
 -2       482       624       623      2687      2688      2684
 -1      1095    8    0    1
 -2       475       484       625      2263      2689      2690
 -1      1096    8    0    1
 -2       600       590       626      2653      2691      2692
 -1      1097    8    0    1
 -2       609       486       627      2624      2693      2694
 -1      1098    8    0    1
 -2       484       585       628      2629      2695      2696
 -1      1099    8    0    1
 -2       484       628       625      2696      2697      2689
 -1      1100    8    0    1
 -2       596       593       629      2625      2698      2699
 -1      1101    8    0    1
 -2       488       487       630      2273      2700      2701
 -1      1102    8    0    1
 -2       489       488       631      2276      2702      2703
 -1      1103    8    0    1
 -2       488       630       631      2701      2704      2702
 -1      1104    8    0    1
 -2       490       489       632      2279      2705      2706
 -1      1105    8    0    1
 -2       489       631       632      2703      2707      2705
 -1      1106    8    0    1
 -2       491       490       633      2282      2708      2709
 -1      1107    8    0    1
 -2       490       632       633      2706      2710      2708
 -1      1108    8    0    1
 -2       492       491       634      2285      2711      2712
 -1      1109    8    0    1
 -2       491       633       634      2709      2713      2711
 -1      1110    8    0    1
 -2       493       492       635      2288      2714      2715
 -1      1111    8    0    1
 -2       492       634       635      2712      2716      2714
 -1      1112    8    0    1
 -2       494       493       636      2291      2717      2718
 -1      1113    8    0    1
 -2       493       635       636      2715      2719      2717
 -1      1114    8    0    1
 -2       495       494       637      2294      2720      2721
 -1      1115    8    0    1
 -2       494       636       637      2718      2722      2720
 -1      1116    8    0    1
 -2       496       495       638      2297      2723      2724
 -1      1117    8    0    1
 -2       495       637       638      2721      2725      2723
 -1      1118    8    0    1
 -2       497       496       639      2300      2726      2727
 -1      1119    8    0    1
 -2       496       638       639      2724      2728      2726
 -1      1120    8    0    1
 -2       498       497       640      2303      2729      2730
 -1      1121    8    0    1
 -2       497       639       640      2727      2731      2729
 -1      1122    8    0    1
 -2       499       498       641      2306      2732      2733
 -1      1123    8    0    1
 -2       498       640       641      2730      2734      2732
 -1      1124    8    0    1
 -2       500       499       642      2309      2735      2736
 -1      1125    8    0    1
 -2       499       641       642      2733      2737      2735
 -1      1126    8    0    1
 -2       501       500       643      2312      2738      2739
 -1      1127    8    0    1
 -2       500       642       643      2736      2740      2738
 -1      1128    8    0    1
 -2       502       501       644      2315      2741      2742
 -1      1129    8    0    1
 -2       501       643       644      2739      2743      2741
 -1      1130    8    0    1
 -2       503       502       645      2318      2744      2745
 -1      1131    8    0    1
 -2       502       644       645      2742      2746      2744
 -1      1132    8    0    1
 -2       504       503       646      2321      2747      2748
 -1      1133    8    0    1
 -2       503       645       646      2745      2749      2747
 -1      1134    8    0    1
 -2       505       504       647      2324      2750      2751
 -1      1135    8    0    1
 -2       504       646       647      2748      2752      2750
 -1      1136    8    0    1
 -2       506       505       648      2327      2753      2754
 -1      1137    8    0    1
 -2       505       647       648      2751      2755      2753
 -1      1138    8    0    1
 -2       507       506       649      2330      2756      2757
 -1      1139    8    0    1
 -2       506       648       649      2754      2758      2756
 -1      1140    8    0    1
 -2       508       507       650      2333      2759      2760
 -1      1141    8    0    1
 -2       507       649       650      2757      2761      2759
 -1      1142    8    0    1
 -2       509       508       651      2336      2762      2763
 -1      1143    8    0    1
 -2       508       650       651      2760      2764      2762
 -1      1144    8    0    1
 -2       510       509       652      2339      2765      2766
 -1      1145    8    0    1
 -2       509       651       652      2763      2767      2765
 -1      1146    8    0    1
 -2       511       510       653      2342      2768      2769
 -1      1147    8    0    1
 -2       510       652       653      2766      2770      2768
 -1      1148    8    0    1
 -2       512       511       654      2345      2771      2772
 -1      1149    8    0    1
 -2       511       653       654      2769      2773      2771
 -1      1150    8    0    1
 -2       513       512       655      2348      2774      2775
 -1      1151    8    0    1
 -2       512       654       655      2772      2776      2774
 -1      1152    8    0    1
 -2       514       513       656      2351      2777      2778
 -1      1153    8    0    1
 -2       513       655       656      2775      2779      2777
 -1      1154    8    0    1
 -2       515       514       657      2354      2780      2781
 -1      1155    8    0    1
 -2       514       656       657      2778      2782      2780
 -1      1156    8    0    1
 -2       516       515       658      2357      2783      2784
 -1      1157    8    0    1
 -2       515       657       658      2781      2785      2783
 -1      1158    8    0    1
 -2       517       516       659      2360      2786      2787
 -1      1159    8    0    1
 -2       516       658       659      2784      2788      2786
 -1      1160    8    0    1
 -2       518       517       660      2363      2789      2790
 -1      1161    8    0    1
 -2       517       659       660      2787      2791      2789
 -1      1162    8    0    1
 -2       519       518       661      2366      2792      2793
 -1      1163    8    0    1
 -2       518       660       661      2790      2794      2792
 -1      1164    8    0    1
 -2       520       519       662      2369      2795      2796
 -1      1165    8    0    1
 -2       519       661       662      2793      2797      2795
 -1      1166    8    0    1
 -2       521       520       663      2372      2798      2799
 -1      1167    8    0    1
 -2       520       662       663      2796      2800      2798
 -1      1168    8    0    1
 -2       522       521       664      2375      2801      2802
 -1      1169    8    0    1
 -2       521       663       664      2799      2803      2801
 -1      1170    8    0    1
 -2       523       522       665      2378      2804      2805
 -1      1171    8    0    1
 -2       522       664       665      2802      2806      2804
 -1      1172    8    0    1
 -2       524       523       666      2381      2807      2808
 -1      1173    8    0    1
 -2       523       665       666      2805      2809      2807
 -1      1174    8    0    1
 -2       525       524       667      2384      2810      2811
 -1      1175    8    0    1
 -2       524       666       667      2808      2812      2810
 -1      1176    8    0    1
 -2       526       525       668      2387      2813      2814
 -1      1177    8    0    1
 -2       525       667       668      2811      2815      2813
 -1      1178    8    0    1
 -2       527       526       669      2390      2816      2817
 -1      1179    8    0    1
 -2       526       668       669      2814      2818      2816
 -1      1180    8    0    1
 -2       528       527       670      2393      2819      2820
 -1      1181    8    0    1
 -2       527       669       670      2817      2821      2819
 -1      1182    8    0    1
 -2       529       528       671      2396      2822      2823
 -1      1183    8    0    1
 -2       528       670       671      2820      2824      2822
 -1      1184    8    0    1
 -2       607       602       672      2641      2825      2826
 -1      1185    8    0    1
 -2       531       532       673      2403      2827      2828
 -1      1186    8    0    1
 -2       534       535       674      2412      2829      2830
 -1      1187    8    0    1
 -2       535       536       675      2415      2831      2832
 -1      1188    8    0    1
 -2       535       675       674      2832      2833      2829
 -1      1189    8    0    1
 -2       536       537       676      2418      2834      2835
 -1      1190    8    0    1
 -2       536       676       675      2835      2836      2831
 -1      1191    8    0    1
 -2       537       538       677      2421      2837      2838
 -1      1192    8    0    1
 -2       537       677       676      2838      2839      2834
 -1      1193    8    0    1
 -2       538       539       678      2424      2840      2841
 -1      1194    8    0    1
 -2       538       678       677      2841      2842      2837
 -1      1195    8    0    1
 -2       539       540       679      2427      2843      2844
 -1      1196    8    0    1
 -2       539       679       678      2844      2845      2840
 -1      1197    8    0    1
 -2       540       541       680      2430      2846      2847
 -1      1198    8    0    1
 -2       540       680       679      2847      2848      2843
 -1      1199    8    0    1
 -2       541       542       681      2433      2849      2850
 -1      1200    8    0    1
 -2       541       681       680      2850      2851      2846
 -1      1201    8    0    1
 -2       542       543       682      2436      2852      2853
 -1      1202    8    0    1
 -2       542       682       681      2853      2854      2849
 -1      1203    8    0    1
 -2       543       544       683      2439      2855      2856
 -1      1204    8    0    1
 -2       543       683       682      2856      2857      2852
 -1      1205    8    0    1
 -2       544       545       684      2442      2858      2859
 -1      1206    8    0    1
 -2       544       684       683      2859      2860      2855
 -1      1207    8    0    1
 -2       545       546       685      2445      2861      2862
 -1      1208    8    0    1
 -2       545       685       684      2862      2863      2858
 -1      1209    8    0    1
 -2       546       547       686      2448      2864      2865
 -1      1210    8    0    1
 -2       546       686       685      2865      2866      2861
 -1      1211    8    0    1
 -2       547       548       687      2451      2867      2868
 -1      1212    8    0    1
 -2       547       687       686      2868      2869      2864
 -1      1213    8    0    1
 -2       548       549       688      2454      2870      2871
 -1      1214    8    0    1
 -2       548       688       687      2871      2872      2867
 -1      1215    8    0    1
 -2       549       550       689      2457      2873      2874
 -1      1216    8    0    1
 -2       549       689       688      2874      2875      2870
 -1      1217    8    0    1
 -2       550       551       690      2460      2876      2877
 -1      1218    8    0    1
 -2       550       690       689      2877      2878      2873
 -1      1219    8    0    1
 -2       551       552       691      2463      2879      2880
 -1      1220    8    0    1
 -2       551       691       690      2880      2881      2876
 -1      1221    8    0    1
 -2       552       553       692      2466      2882      2883
 -1      1222    8    0    1
 -2       552       692       691      2883      2884      2879
 -1      1223    8    0    1
 -2       553       554       693      2469      2885      2886
 -1      1224    8    0    1
 -2       553       693       692      2886      2887      2882
 -1      1225    8    0    1
 -2       554       555       694      2472      2888      2889
 -1      1226    8    0    1
 -2       554       694       693      2889      2890      2885
 -1      1227    8    0    1
 -2       555       556       695      2475      2891      2892
 -1      1228    8    0    1
 -2       555       695       694      2892      2893      2888
 -1      1229    8    0    1
 -2       556       557       696      2478      2894      2895
 -1      1230    8    0    1
 -2       556       696       695      2895      2896      2891
 -1      1231    8    0    1
 -2       557       558       697      2481      2897      2898
 -1      1232    8    0    1
 -2       557       697       696      2898      2899      2894
 -1      1233    8    0    1
 -2       558       559       698      2484      2900      2901
 -1      1234    8    0    1
 -2       558       698       697      2901      2902      2897
 -1      1235    8    0    1
 -2       559       560       699      2487      2903      2904
 -1      1236    8    0    1
 -2       559       699       698      2904      2905      2900
 -1      1237    8    0    1
 -2       560       561       700      2490      2906      2907
 -1      1238    8    0    1
 -2       560       700       699      2907      2908      2903
 -1      1239    8    0    1
 -2       561       562       701      2493      2909      2910
 -1      1240    8    0    1
 -2       561       701       700      2910      2911      2906
 -1      1241    8    0    1
 -2       562       563       702      2496      2912      2913
 -1      1242    8    0    1
 -2       562       702       701      2913      2914      2909
 -1      1243    8    0    1
 -2       563       564       703      2499      2915      2916
 -1      1244    8    0    1
 -2       563       703       702      2916      2917      2912
 -1      1245    8    0    1
 -2       564       565       704      2502      2918      2919
 -1      1246    8    0    1
 -2       564       704       703      2919      2920      2915
 -1      1247    8    0    1
 -2       565       566       705      2505      2921      2922
 -1      1248    8    0    1
 -2       565       705       704      2922      2923      2918
 -1      1249    8    0    1
 -2       566       567       706      2508      2924      2925
 -1      1250    8    0    1
 -2       566       706       705      2925      2926      2921
 -1      1251    8    0    1
 -2       567       568       707      2511      2927      2928
 -1      1252    8    0    1
 -2       567       707       706      2928      2929      2924
 -1      1253    8    0    1
 -2       568       569       708      2514      2930      2931
 -1      1254    8    0    1
 -2       568       708       707      2931      2932      2927
 -1      1255    8    0    1
 -2       569       570       709      2517      2933      2934
 -1      1256    8    0    1
 -2       569       709       708      2934      2935      2930
 -1      1257    8    0    1
 -2       570       571       710      2520      2936      2937
 -1      1258    8    0    1
 -2       570       710       709      2937      2938      2933
 -1      1259    8    0    1
 -2       571       572       711      2523      2939      2940
 -1      1260    8    0    1
 -2       710       571       711      2936      2940      2941
 -1      1261    8    0    1
 -2       572       575       711      2677      2942      2939
 -1      1262    8    0    1
 -2       577       578       712      2541      2943      2944
 -1      1263    8    0    1
 -2       613       529       713      2678      2945      2946
 -1      1264    8    0    1
 -2       529       671       713      2823      2947      2945
 -1      1265    8    0    1
 -2       573       574       714      2529      2948      2949
 -1      1266    8    0    1
 -2       578       579       715      2544      2950      2951
 -1      1267    8    0    1
 -2       578       715       712      2951      2952      2943
 -1      1268    8    0    1
 -2       574       577       716      2538      2953      2954
 -1      1269    8    0    1
 -2       714       574       716      2948      2954      2955
 -1      1270    8    0    1
 -2       577       712       716      2944      2956      2953
 -1      1271    8    0    1
 -2       530       586       717      2638      2957      2958
 -1      1272    8    0    1
 -2       579       580       718      2547      2959      2960
 -1      1273    8    0    1
 -2       579       718       715      2960      2961      2950
 -1      1274    8    0    1
 -2       580       581       719      2550      2962      2963
 -1      1275    8    0    1
 -2       580       719       718      2963      2964      2959
 -1      1276    8    0    1
 -2       581       582       720      2553      2965      2966
 -1      1277    8    0    1
 -2       581       720       719      2966      2967      2962
 -1      1278    8    0    1
 -2       585       531       721      2562      2968      2969
 -1      1279    8    0    1
 -2       628       585       721      2695      2969      2970
 -1      1280    8    0    1
 -2       531       673       721      2828      2971      2968
 -1      1281    8    0    1
 -2       589       609       722      2631      2972      2973
 -1      1282    8    0    1
 -2       602       587       723      2605      2974      2975
 -1      1283    8    0    1
 -2       601       603       724      2608      2976      2977
 -1      1284    8    0    1
 -2       485       588       725      2569      2978      2979
 -1      1285    8    0    1
 -2       595       598       726      2596      2980      2981
 -1      1286    8    0    1
 -2       474       604       727      2654      2982      2983
 -1      1287    8    0    1
 -2       533       534       728      2409      2984      2985
 -1      1288    8    0    1
 -2       534       674       728      2830      2986      2984
 -1      1289    8    0    1
 -2       532       533       729      2406      2987      2988
 -1      1290    8    0    1
 -2       533       728       729      2985      2989      2987
 -1      1291    8    0    1
 -2       487       485       730      2270      2990      2991
 -1      1292    8    0    1
 -2       630       487       730      2700      2991      2992
 -1      1293    8    0    1
 -2       485       725       730      2979      2993      2990
 -1      1294    8    0    1
 -2       591       597       731      2593      2994      2995
 -1      1295    8    0    1
 -2       586       589       732      2573      2996      2997
 -1      1296    8    0    1
 -2       480       481       733      2254      2998      2999
 -1      1297    8    0    1
 -2       621       480       733      2679      2999      3000
 -1      1298    8    0    1
 -2       481       623       733      2685      3001      2998
 -1      1299    8    0    1
 -2       597       472       734      2671      3002      3003
 -1      1300    8    0    1
 -2       477       476       735      2243      3004      3005
 -1      1301    8    0    1
 -2       594       596       736      2590      3006      3007
 -1      1302    8    0    1
 -2       588       445       725      2658      3008      2978
 -1      1303    8    0    1
 -2       590       601       737      2655      3009      3010
 -1      1304    8    0    1
 -2       604       605       738      2676      3011      3012
 -1      1305    8    0    1
 -2       471       606       739      2656      3013      3014
 -1      1306    8    0    1
 -2       583       613       713      2644      2946      3015
 -1      1307    8    0    1
 -2       599       600       740      2675      3016      3017
 -1      1308    8    0    1
 -2       598       599       741      2657      3018      3019
 -1      1309    8    0    1
 -2       606       607       742      2617      3020      3021
 -1      1310    8    0    1
 -2       608       475       483      2621      3022      2652
 -1      1311    8    0    1
 -2       610       477       743      2626      3023      3024
 -1      1312    8    0    1
 -2       477       735       743      3005      3025      3023
 -1      1313    8    0    1
 -2       739       606       742      3013      3021      3026
 -1      1314    8    0    1
 -2       478       622       744      2682      3027      3028
 -1      1315    8    0    1
 -2       478       744       592      3028      3029      2581
 -1      1316    8    0    1
 -2       596       629       736      2699      3030      3006
 -1      1317    8    0    1
 -2       600       626       740      2692      3031      3016
 -1      1318    8    0    1
 -2       609       627       722      2694      3032      2972
 -1      1319    8    0    1
 -2       629       593       745      2698      3033      3034
 -1      1320    8    0    1
 -2       593       616       745      2661      3035      3033
 -1      1321    8    0    1
 -2       611       530       746      2634      3036      3037
 -1      1322    8    0    1
 -2       530       717       746      2958      3038      3036
 -1      1323    8    0    1
 -2       607       672       742      2826      3039      3020
 -1      1324    8    0    1
 -2       597       734       731      3003      3040      2994
 -1      1325    8    0    1
 -2       612       584       747      2635      3041      3042
 -1      1326    8    0    1
 -2       584       615       747      2650      3043      3041
 -1      1327    8    0    1
 -2       573       714       748      2949      3044      3045
 -1      1328    8    0    1
 -2       573       748       576      3045      3046      2535
 -1      1329    8    0    1
 -2       672       602       723      2825      2975      3047
 -1      1330    8    0    1
 -2       589       722       732      2973      3048      2996
 -1      1331    8    0    1
 -2       532       729       673      2988      3049      2827
 -1      1332    8    0    1
 -2       727       604       738      2982      3012      3050
 -1      1333    8    0    1
 -2       599       740       741      3017      3051      3018
 -1      1334    8    0    1
 -2       717       586       732      2957      2997      3052
 -1      1335    8    0    1
 -2       575       576       749      2534      3053      3054
 -1      1336    8    0    1
 -2       711       575       749      2942      3054      3055
 -1      1337    8    0    1
 -2       576       748       749      3046      3056      3053
 -1      1338    8    0    1
 -2       726       598       741      2980      3019      3057
 -1      1339    8    0    1
 -2       734       472       617      3002      2663      3058
 -1      1340    8    0    1
 -2       582       583       713      2556      3015      3059
 -1      1341    8    0    1
 -2       590       737       626      3010      3060      2691
 -1      1342    8    0    1
 -2       614       471       739      2648      3014      3061
 -1      1343    8    0    1
 -2       723       587       612      2974      2637      3062
 -1      1344    8    0    1
 -2       615       470       611      2651      2633      3063
 -1      1345    8    0    1
 -2       724       603       750      2976      3064      3065
 -1      1346    8    0    1
 -2       603       620       750      2674      3066      3064
 -1      1347    8    0    1
 -2       601       724       737      2977      3067      3009
 -1      1348    8    0    1
 -2       591       731       616      2995      3068      2659
 -1      1349    8    0    1
 -2       595       726       751      2981      3069      3070
 -1      1350    8    0    1
 -2       595       751       617      3070      3071      2664
 -1      1351    8    0    1
 -2       474       727       620      2983      3072      2672
 -1      1352    8    0    1
 -2       445       610       725      2628      3073      3008
 -1      1353    8    0    1
 -2       618       473       619      2667      2669      3074
 -1      1354    8    0    1
 -2       476       592       752      2580      3075      3076
 -1      1355    8    0    1
 -2       735       476       752      3004      3076      3077
 -1      1356    8    0    1
 -2       592       744       752      3029      3078      3075
 -1      1357    8    0    1
 -2       619       594       736      2670      3007      3079
 -1      1358    8    0    1
 -2       486       618       627      2666      3080      2693
 -1      1359    8    0    1
 -2       582       713       753      3059      3081      3082
 -1      1360    8    0    1
 -2       720       582       753      2965      3082      3083
 -1      1361    8    0    1
 -2       713       671       753      2947      3084      3081
 -1      1362    8    0    1
 -2       624       483       625      2686      3085      3086
 -1      1363    8    0    1
 -2       483       475       625      3022      2690      3085
 -1      1364    8    0    1
 -2       623       624       754      2688      3087      3088
 -1      1365    8    0    1
 -2       738       605       755      3011      3089      3090
 -1      1366    8    0    1
 -2       740       626       756      3031      3091      3092
 -1      1367    8    0    1
 -2       632       631       757      2707      3093      3094
 -1      1368    8    0    1
 -2       633       632       758      2710      3095      3096
 -1      1369    8    0    1
 -2       632       757       758      3094      3097      3095
 -1      1370    8    0    1
 -2       634       633       759      2713      3098      3099
 -1      1371    8    0    1
 -2       633       758       759      3096      3100      3098
 -1      1372    8    0    1
 -2       635       634       760      2716      3101      3102
 -1      1373    8    0    1
 -2       634       759       760      3099      3103      3101
 -1      1374    8    0    1
 -2       636       635       761      2719      3104      3105
 -1      1375    8    0    1
 -2       635       760       761      3102      3106      3104
 -1      1376    8    0    1
 -2       637       636       762      2722      3107      3108
 -1      1377    8    0    1
 -2       636       761       762      3105      3109      3107
 -1      1378    8    0    1
 -2       638       637       763      2725      3110      3111
 -1      1379    8    0    1
 -2       637       762       763      3108      3112      3110
 -1      1380    8    0    1
 -2       639       638       764      2728      3113      3114
 -1      1381    8    0    1
 -2       638       763       764      3111      3115      3113
 -1      1382    8    0    1
 -2       640       639       765      2731      3116      3117
 -1      1383    8    0    1
 -2       639       764       765      3114      3118      3116
 -1      1384    8    0    1
 -2       641       640       766      2734      3119      3120
 -1      1385    8    0    1
 -2       640       765       766      3117      3121      3119
 -1      1386    8    0    1
 -2       642       641       767      2737      3122      3123
 -1      1387    8    0    1
 -2       641       766       767      3120      3124      3122
 -1      1388    8    0    1
 -2       643       642       768      2740      3125      3126
 -1      1389    8    0    1
 -2       642       767       768      3123      3127      3125
 -1      1390    8    0    1
 -2       644       643       750      2743      3128      3129
 -1      1391    8    0    1
 -2       645       644       750      2746      3129      3130
 -1      1392    8    0    1
 -2       647       646       738      2752      3131      3132
 -1      1393    8    0    1
 -2       649       648       739      2758      3133      3134
 -1      1394    8    0    1
 -2       651       650       769      2764      3135      3136
 -1      1395    8    0    1
 -2       652       651       770      2767      3137      3138
 -1      1396    8    0    1
 -2       651       769       770      3136      3139      3137
 -1      1397    8    0    1
 -2       653       652       771      2770      3140      3141
 -1      1398    8    0    1
 -2       652       770       771      3138      3142      3140
 -1      1399    8    0    1
 -2       654       653       772      2773      3143      3144
 -1      1400    8    0    1
 -2       653       771       772      3141      3145      3143
 -1      1401    8    0    1
 -2       655       654       773      2776      3146      3147
 -1      1402    8    0    1
 -2       654       772       773      3144      3148      3146
 -1      1403    8    0    1
 -2       656       655       774      2779      3149      3150
 -1      1404    8    0    1
 -2       655       773       774      3147      3151      3149
 -1      1405    8    0    1
 -2       657       656       775      2782      3152      3153
 -1      1406    8    0    1
 -2       656       774       775      3150      3154      3152
 -1      1407    8    0    1
 -2       658       657       776      2785      3155      3156
 -1      1408    8    0    1
 -2       657       775       776      3153      3157      3155
 -1      1409    8    0    1
 -2       659       658       777      2788      3158      3159
 -1      1410    8    0    1
 -2       658       776       777      3156      3160      3158
 -1      1411    8    0    1
 -2       660       659       778      2791      3161      3162
 -1      1412    8    0    1
 -2       659       777       778      3159      3163      3161
 -1      1413    8    0    1
 -2       661       660       779      2794      3164      3165
 -1      1414    8    0    1
 -2       660       778       779      3162      3166      3164
 -1      1415    8    0    1
 -2       662       661       780      2797      3167      3168
 -1      1416    8    0    1
 -2       661       779       780      3165      3169      3167
 -1      1417    8    0    1
 -2       663       662       781      2800      3170      3171
 -1      1418    8    0    1
 -2       662       780       781      3168      3172      3170
 -1      1419    8    0    1
 -2       664       663       782      2803      3173      3174
 -1      1420    8    0    1
 -2       663       781       782      3171      3175      3173
 -1      1421    8    0    1
 -2       665       664       783      2806      3176      3177
 -1      1422    8    0    1
 -2       664       782       783      3174      3178      3176
 -1      1423    8    0    1
 -2       666       665       784      2809      3179      3180
 -1      1424    8    0    1
 -2       665       783       784      3177      3181      3179
 -1      1425    8    0    1
 -2       667       666       785      2812      3182      3183
 -1      1426    8    0    1
 -2       666       784       785      3180      3184      3182
 -1      1427    8    0    1
 -2       668       667       786      2815      3185      3186
 -1      1428    8    0    1
 -2       667       785       786      3183      3187      3185
 -1      1429    8    0    1
 -2       669       668       787      2818      3188      3189
 -1      1430    8    0    1
 -2       668       786       787      3186      3190      3188
 -1      1431    8    0    1
 -2       670       669       788      2821      3191      3192
 -1      1432    8    0    1
 -2       669       787       788      3189      3193      3191
 -1      1433    8    0    1
 -2       671       670       789      2824      3194      3195
 -1      1434    8    0    1
 -2       753       671       789      3084      3195      3196
 -1      1435    8    0    1
 -2       670       788       789      3192      3197      3194
 -1      1436    8    0    1
 -2       728       674       790      2986      3198      3199
 -1      1437    8    0    1
 -2       605       614       755      2647      3200      3089
 -1      1438    8    0    1
 -2       674       675       791      2833      3201      3202
 -1      1439    8    0    1
 -2       674       791       790      3202      3203      3198
 -1      1440    8    0    1
 -2       677       678       792      2842      3204      3205
 -1      1441    8    0    1
 -2       678       679       793      2845      3206      3207
 -1      1442    8    0    1
 -2       678       793       792      3207      3208      3204
 -1      1443    8    0    1
 -2       679       680       794      2848      3209      3210
 -1      1444    8    0    1
 -2       679       794       793      3210      3211      3206
 -1      1445    8    0    1
 -2       680       681       795      2851      3212      3213
 -1      1446    8    0    1
 -2       680       795       794      3213      3214      3209
 -1      1447    8    0    1
 -2       681       682       796      2854      3215      3216
 -1      1448    8    0    1
 -2       681       796       795      3216      3217      3212
 -1      1449    8    0    1
 -2       682       683       797      2857      3218      3219
 -1      1450    8    0    1
 -2       682       797       796      3219      3220      3215
 -1      1451    8    0    1
 -2       683       684       745      2860      3221      3222
 -1      1452    8    0    1
 -2       685       686       736      2866      3223      3224
 -1      1453    8    0    1
 -2       686       687       619      2869      3225      3226
 -1      1454    8    0    1
 -2       687       688       618      2872      3227      3228
 -1      1455    8    0    1
 -2       688       689       627      2875      3229      3230
 -1      1456    8    0    1
 -2       690       691       798      2881      3231      3232
 -1      1457    8    0    1
 -2       691       692       799      2884      3233      3234
 -1      1458    8    0    1
 -2       691       799       798      3234      3235      3231
 -1      1459    8    0    1
 -2       692       693       800      2887      3236      3237
 -1      1460    8    0    1
 -2       692       800       799      3237      3238      3233
 -1      1461    8    0    1
 -2       693       694       801      2890      3239      3240
 -1      1462    8    0    1
 -2       693       801       800      3240      3241      3236
 -1      1463    8    0    1
 -2       694       695       802      2893      3242      3243
 -1      1464    8    0    1
 -2       694       802       801      3243      3244      3239
 -1      1465    8    0    1
 -2       695       696       803      2896      3245      3246
 -1      1466    8    0    1
 -2       695       803       802      3246      3247      3242
 -1      1467    8    0    1
 -2       696       697       804      2899      3248      3249
 -1      1468    8    0    1
 -2       696       804       803      3249      3250      3245
 -1      1469    8    0    1
 -2       697       698       805      2902      3251      3252
 -1      1470    8    0    1
 -2       697       805       804      3252      3253      3248
 -1      1471    8    0    1
 -2       698       699       806      2905      3254      3255
 -1      1472    8    0    1
 -2       698       806       805      3255      3256      3251
 -1      1473    8    0    1
 -2       699       700       807      2908      3257      3258
 -1      1474    8    0    1
 -2       699       807       806      3258      3259      3254
 -1      1475    8    0    1
 -2       700       701       808      2911      3260      3261
 -1      1476    8    0    1
 -2       700       808       807      3261      3262      3257
 -1      1477    8    0    1
 -2       701       702       809      2914      3263      3264
 -1      1478    8    0    1
 -2       701       809       808      3264      3265      3260
 -1      1479    8    0    1
 -2       702       703       810      2917      3266      3267
 -1      1480    8    0    1
 -2       702       810       809      3267      3268      3263
 -1      1481    8    0    1
 -2       703       704       811      2920      3269      3270
 -1      1482    8    0    1
 -2       703       811       810      3270      3271      3266
 -1      1483    8    0    1
 -2       704       705       812      2923      3272      3273
 -1      1484    8    0    1
 -2       704       812       811      3273      3274      3269
 -1      1485    8    0    1
 -2       705       706       813      2926      3275      3276
 -1      1486    8    0    1
 -2       705       813       812      3276      3277      3272
 -1      1487    8    0    1
 -2       706       707       814      2929      3278      3279
 -1      1488    8    0    1
 -2       706       814       813      3279      3280      3275
 -1      1489    8    0    1
 -2       707       708       815      2932      3281      3282
 -1      1490    8    0    1
 -2       707       815       814      3282      3283      3278
 -1      1491    8    0    1
 -2       708       709       816      2935      3284      3285
 -1      1492    8    0    1
 -2       708       816       815      3285      3286      3281
 -1      1493    8    0    1
 -2       709       710       817      2938      3287      3288
 -1      1494    8    0    1
 -2       709       817       816      3288      3289      3284
 -1      1495    8    0    1
 -2       710       711       818      2941      3290      3291
 -1      1496    8    0    1
 -2       817       710       818      3287      3291      3292
 -1      1497    8    0    1
 -2       711       749       818      3055      3293      3290
 -1      1498    8    0    1
 -2       624       625       819      3086      3294      3295
 -1      1499    8    0    1
 -2       754       624       819      3087      3295      3296
 -1      1500    8    0    1
 -2       625       628       819      2697      3297      3294
 -1      1501    8    0    1
 -2       622       621       820      2683      3298      3299
 -1      1502    8    0    1
 -2       712       715       821      2952      3300      3301
 -1      1503    8    0    1
 -2       719       720       822      2967      3302      3303
 -1      1504    8    0    1
 -2       715       718       823      2961      3304      3305
 -1      1505    8    0    1
 -2       715       823       821      3305      3306      3300
 -1      1506    8    0    1
 -2       732       722       824      3048      3307      3308
 -1      1507    8    0    1
 -2       627       689       825      3229      3309      3310
 -1      1508    8    0    1
 -2       722       627       825      3032      3310      3311
 -1      1509    8    0    1
 -2       689       690       825      2878      3312      3309
 -1      1510    8    0    1
 -2       718       719       826      2964      3313      3314
 -1      1511    8    0    1
 -2       823       718       826      3304      3314      3315
 -1      1512    8    0    1
 -2       719       822       826      3303      3316      3313
 -1      1513    8    0    1
 -2       676       677       827      2839      3317      3318
 -1      1514    8    0    1
 -2       677       792       827      3205      3319      3317
 -1      1515    8    0    1
 -2       618       688       627      3227      3230      3080
 -1      1516    8    0    1
 -2       675       676       828      2836      3320      3321
 -1      1517    8    0    1
 -2       676       827       828      3318      3322      3320
 -1      1518    8    0    1
 -2       619       687       618      3225      3228      3074
 -1      1519    8    0    1
 -2       736       686       619      3223      3226      3079
 -1      1520    8    0    1
 -2       727       738       646      3050      3131      3323
 -1      1521    8    0    1
 -2       631       630       829      2704      3324      3325
 -1      1522    8    0    1
 -2       631       829       757      3325      3326      3093
 -1      1523    8    0    1
 -2       726       741       830      3057      3327      3328
 -1      1524    8    0    1
 -2       736       629       685      3030      3329      3224
 -1      1525    8    0    1
 -2       672       723       831      3047      3330      3331
 -1      1526    8    0    1
 -2       729       728       832      2989      3332      3333
 -1      1527    8    0    1
 -2       728       790       832      3199      3334      3332
 -1      1528    8    0    1
 -2       673       729       833      3049      3335      3336
 -1      1529    8    0    1
 -2       729       832       833      3333      3337      3335
 -1      1530    8    0    1
 -2       739       648       614      3133      3338      3061
 -1      1531    8    0    1
 -2       739       742       649      3026      3339      3134
 -1      1532    8    0    1
 -2       725       610       743      3073      3024      3340
 -1      1533    8    0    1
 -2       616       731       834      3068      3341      3342
 -1      1534    8    0    1
 -2       741       740       835      3051      3343      3344
 -1      1535    8    0    1
 -2       737       724       836      3067      3345      3346
 -1      1536    8    0    1
 -2       649       742       650      3339      3347      2761
 -1      1537    8    0    1
 -2       723       612       837      3062      3348      3349
 -1      1538    8    0    1
 -2       626       737       838      3060      3350      3351
 -1      1539    8    0    1
 -2       626       838       756      3351      3352      3091
 -1      1540    8    0    1
 -2       734       617       839      3058      3353      3354
 -1      1541    8    0    1
 -2       742       672       840      3039      3355      3356
 -1      1542    8    0    1
 -2       727       646       645      3323      2749      3357
 -1      1543    8    0    1
 -2       615       611       841      3063      3358      3359
 -1      1544    8    0    1
 -2       731       734       842      3040      3360      3361
 -1      1545    8    0    1
 -2       717       732       843      3052      3362      3363
 -1      1546    8    0    1
 -2       738       755       647      3090      3364      3132
 -1      1547    8    0    1
 -2       685       629       684      3329      3365      2863
 -1      1548    8    0    1
 -2       727       645       620      3357      3366      3072
 -1      1549    8    0    1
 -2       684       629       745      3365      3034      3221
 -1      1550    8    0    1
 -2       744       622       844      3027      3367      3368
 -1      1551    8    0    1
 -2       622       820       844      3299      3369      3367
 -1      1552    8    0    1
 -2       820       621       845      3298      3370      3371
 -1      1553    8    0    1
 -2       621       733       845      3000      3372      3370
 -1      1554    8    0    1
 -2       745       616       834      3035      3342      3373
 -1      1555    8    0    1
 -2       740       756       846      3092      3374      3375
 -1      1556    8    0    1
 -2       740       846       835      3375      3376      3343
 -1      1557    8    0    1
 -2       746       717       847      3038      3377      3378
 -1      1558    8    0    1
 -2       717       843       847      3363      3379      3377
 -1      1559    8    0    1
 -2       747       615       848      3043      3380      3381
 -1      1560    8    0    1
 -2       615       841       848      3359      3382      3380
 -1      1561    8    0    1
 -2       748       714       849      3044      3383      3384
 -1      1562    8    0    1
 -2       733       623       850      3001      3385      3386
 -1      1563    8    0    1
 -2       845       733       850      3372      3386      3387
 -1      1564    8    0    1
 -2       623       754       850      3088      3388      3385
 -1      1565    8    0    1
 -2       643       768       750      3126      3389      3128
 -1      1566    8    0    1
 -2       645       750       620      3130      3066      3366
 -1      1567    8    0    1
 -2       725       743       730      3340      3390      2993
 -1      1568    8    0    1
 -2       648       647       755      2755      3364      3391
 -1      1569    8    0    1
 -2       723       837       851      3349      3392      3393
 -1      1570    8    0    1
 -2       723       851       831      3393      3394      3330
 -1      1571    8    0    1
 -2       673       833       852      3336      3395      3396
 -1      1572    8    0    1
 -2       673       852       721      3396      3397      2971
 -1      1573    8    0    1
 -2       791       675       828      3201      3321      3398
 -1      1574    8    0    1
 -2       672       831       840      3331      3399      3355
 -1      1575    8    0    1
 -2       843       732       824      3362      3308      3400
 -1      1576    8    0    1
 -2       690       798       825      3232      3401      3312
 -1      1577    8    0    1
 -2       714       716       853      2955      3402      3403
 -1      1578    8    0    1
 -2       714       853       849      3403      3404      3383
 -1      1579    8    0    1
 -2       716       712       854      2956      3405      3406
 -1      1580    8    0    1
 -2       853       716       854      3402      3406      3407
 -1      1581    8    0    1
 -2       712       821       854      3301      3408      3405
 -1      1582    8    0    1
 -2       824       722       825      3307      3311      3409
 -1      1583    8    0    1
 -2       628       721       855      2970      3410      3411
 -1      1584    8    0    1
 -2       819       628       855      3297      3411      3412
 -1      1585    8    0    1
 -2       721       852       855      3397      3413      3410
 -1      1586    8    0    1
 -2       751       726       856      3069      3414      3415
 -1      1587    8    0    1
 -2       726       830       856      3328      3416      3414
 -1      1588    8    0    1
 -2       829       630       857      3324      3417      3418
 -1      1589    8    0    1
 -2       630       730       857      2992      3419      3417
 -1      1590    8    0    1
 -2       830       741       835      3327      3344      3420
 -1      1591    8    0    1
 -2       612       747       858      3042      3421      3422
 -1      1592    8    0    1
 -2       612       858       837      3422      3423      3348
 -1      1593    8    0    1
 -2       617       751       839      3071      3424      3353
 -1      1594    8    0    1
 -2       838       737       836      3350      3346      3425
 -1      1595    8    0    1
 -2       611       746       841      3037      3426      3358
 -1      1596    8    0    1
 -2       735       752       859      3077      3427      3428
 -1      1597    8    0    1
 -2       842       734       860      3360      3429      3430
 -1      1598    8    0    1
 -2       734       839       860      3354      3431      3429
 -1      1599    8    0    1
 -2       834       731       842      3341      3361      3432
 -1      1600    8    0    1
 -2       720       753       861      3083      3433      3434
 -1      1601    8    0    1
 -2       822       720       861      3302      3434      3435
 -1      1602    8    0    1
 -2       753       789       861      3196      3436      3433
 -1      1603    8    0    1
 -2       650       742       769      3347      3437      3135
 -1      1604    8    0    1
 -2       735       859       862      3428      3438      3439
 -1      1605    8    0    1
 -2       735       862       743      3439      3440      3025
 -1      1606    8    0    1
 -2       759       758       863      3100      3441      3442
 -1      1607    8    0    1
 -2       760       759       864      3103      3443      3444
 -1      1608    8    0    1
 -2       759       863       864      3442      3445      3443
 -1      1609    8    0    1
 -2       761       760       865      3106      3446      3447
 -1      1610    8    0    1
 -2       760       864       865      3444      3448      3446
 -1      1611    8    0    1
 -2       762       761       866      3109      3449      3450
 -1      1612    8    0    1
 -2       761       865       866      3447      3451      3449
 -1      1613    8    0    1
 -2       763       762       867      3112      3452      3453
 -1      1614    8    0    1
 -2       762       866       867      3450      3454      3452
 -1      1615    8    0    1
 -2       764       763       868      3115      3455      3456
 -1      1616    8    0    1
 -2       763       867       868      3453      3457      3455
 -1      1617    8    0    1
 -2       765       764       869      3118      3458      3459
 -1      1618    8    0    1
 -2       764       868       869      3456      3460      3458
 -1      1619    8    0    1
 -2       766       765       870      3121      3461      3462
 -1      1620    8    0    1
 -2       765       869       870      3459      3463      3461
 -1      1621    8    0    1
 -2       767       766       871      3124      3464      3465
 -1      1622    8    0    1
 -2       766       870       871      3462      3466      3464
 -1      1623    8    0    1
 -2       757       829       872      3326      3467      3468
 -1      1624    8    0    1
 -2       771       770       873      3142      3469      3470
 -1      1625    8    0    1
 -2       772       771       874      3145      3471      3472
 -1      1626    8    0    1
 -2       771       873       874      3470      3473      3471
 -1      1627    8    0    1
 -2       773       772       875      3148      3474      3475
 -1      1628    8    0    1
 -2       772       874       875      3472      3476      3474
 -1      1629    8    0    1
 -2       774       773       876      3151      3477      3478
 -1      1630    8    0    1
 -2       773       875       876      3475      3479      3477
 -1      1631    8    0    1
 -2       775       774       877      3154      3480      3481
 -1      1632    8    0    1
 -2       774       876       877      3478      3482      3480
 -1      1633    8    0    1
 -2       776       775       878      3157      3483      3484
 -1      1634    8    0    1
 -2       775       877       878      3481      3485      3483
 -1      1635    8    0    1
 -2       777       776       879      3160      3486      3487
 -1      1636    8    0    1
 -2       776       878       879      3484      3488      3486
 -1      1637    8    0    1
 -2       778       777       880      3163      3489      3490
 -1      1638    8    0    1
 -2       777       879       880      3487      3491      3489
 -1      1639    8    0    1
 -2       779       778       881      3166      3492      3493
 -1      1640    8    0    1
 -2       778       880       881      3490      3494      3492
 -1      1641    8    0    1
 -2       780       779       882      3169      3495      3496
 -1      1642    8    0    1
 -2       779       881       882      3493      3497      3495
 -1      1643    8    0    1
 -2       781       780       883      3172      3498      3499
 -1      1644    8    0    1
 -2       780       882       883      3496      3500      3498
 -1      1645    8    0    1
 -2       782       781       884      3175      3501      3502
 -1      1646    8    0    1
 -2       781       883       884      3499      3503      3501
 -1      1647    8    0    1
 -2       783       782       885      3178      3504      3505
 -1      1648    8    0    1
 -2       782       884       885      3502      3506      3504
 -1      1649    8    0    1
 -2       784       783       886      3181      3507      3508
 -1      1650    8    0    1
 -2       783       885       886      3505      3509      3507
 -1      1651    8    0    1
 -2       785       784       887      3184      3510      3511
 -1      1652    8    0    1
 -2       784       886       887      3508      3512      3510
 -1      1653    8    0    1
 -2       786       785       888      3187      3513      3514
 -1      1654    8    0    1
 -2       785       887       888      3511      3515      3513
 -1      1655    8    0    1
 -2       787       786       889      3190      3516      3517
 -1      1656    8    0    1
 -2       786       888       889      3514      3518      3516
 -1      1657    8    0    1
 -2       788       787       890      3193      3519      3520
 -1      1658    8    0    1
 -2       787       889       890      3517      3521      3519
 -1      1659    8    0    1
 -2       794       795       891      3214      3522      3523
 -1      1660    8    0    1
 -2       755       614       648      3200      3338      3391
 -1      1661    8    0    1
 -2       793       794       892      3211      3524      3525
 -1      1662    8    0    1
 -2       794       891       892      3523      3526      3524
 -1      1663    8    0    1
 -2       792       793       893      3208      3527      3528
 -1      1664    8    0    1
 -2       793       892       893      3525      3529      3527
 -1      1665    8    0    1
 -2       683       745       797      3222      3530      3218
 -1      1666    8    0    1
 -2       730       743       857      3390      3531      3419
 -1      1667    8    0    1
 -2       832       790       894      3334      3532      3533
 -1      1668    8    0    1
 -2       828       827       895      3322      3534      3535
 -1      1669    8    0    1
 -2       798       799       896      3235      3536      3537
 -1      1670    8    0    1
 -2       801       802       897      3244      3538      3539
 -1      1671    8    0    1
 -2       802       803       898      3247      3540      3541
 -1      1672    8    0    1
 -2       802       898       897      3541      3542      3538
 -1      1673    8    0    1
 -2       803       804       899      3250      3543      3544
 -1      1674    8    0    1
 -2       803       899       898      3544      3545      3540
 -1      1675    8    0    1
 -2       804       805       900      3253      3546      3547
 -1      1676    8    0    1
 -2       804       900       899      3547      3548      3543
 -1      1677    8    0    1
 -2       805       806       901      3256      3549      3550
 -1      1678    8    0    1
 -2       805       901       900      3550      3551      3546
 -1      1679    8    0    1
 -2       806       807       902      3259      3552      3553
 -1      1680    8    0    1
 -2       806       902       901      3553      3554      3549
 -1      1681    8    0    1
 -2       807       808       903      3262      3555      3556
 -1      1682    8    0    1
 -2       807       903       902      3556      3557      3552
 -1      1683    8    0    1
 -2       808       809       904      3265      3558      3559
 -1      1684    8    0    1
 -2       808       904       903      3559      3560      3555
 -1      1685    8    0    1
 -2       809       810       905      3268      3561      3562
 -1      1686    8    0    1
 -2       809       905       904      3562      3563      3558
 -1      1687    8    0    1
 -2       810       811       906      3271      3564      3565
 -1      1688    8    0    1
 -2       810       906       905      3565      3566      3561
 -1      1689    8    0    1
 -2       811       812       907      3274      3567      3568
 -1      1690    8    0    1
 -2       811       907       906      3568      3569      3564
 -1      1691    8    0    1
 -2       812       813       908      3277      3570      3571
 -1      1692    8    0    1
 -2       812       908       907      3571      3572      3567
 -1      1693    8    0    1
 -2       813       814       909      3280      3573      3574
 -1      1694    8    0    1
 -2       813       909       908      3574      3575      3570
 -1      1695    8    0    1
 -2       814       815       910      3283      3576      3577
 -1      1696    8    0    1
 -2       814       910       909      3577      3578      3573
 -1      1697    8    0    1
 -2       815       816       911      3286      3579      3580
 -1      1698    8    0    1
 -2       815       911       910      3580      3581      3576
 -1      1699    8    0    1
 -2       816       817       912      3289      3582      3583
 -1      1700    8    0    1
 -2       816       912       911      3583      3584      3579
 -1      1701    8    0    1
 -2       825       798       824      3401      3585      3409
 -1      1702    8    0    1
 -2       749       748       913      3056      3586      3587
 -1      1703    8    0    1
 -2       818       749       913      3293      3587      3588
 -1      1704    8    0    1
 -2       748       849       913      3384      3589      3586
 -1      1705    8    0    1
 -2       821       823       914      3306      3590      3591
 -1      1706    8    0    1
 -2       791       828       915      3398      3592      3593
 -1      1707    8    0    1
 -2       828       895       915      3535      3594      3592
 -1      1708    8    0    1
 -2       827       792       916      3319      3595      3596
 -1      1709    8    0    1
 -2       895       827       916      3534      3596      3597
 -1      1710    8    0    1
 -2       792       893       916      3528      3598      3595
 -1      1711    8    0    1
 -2       800       801       917      3241      3599      3600
 -1      1712    8    0    1
 -2       801       897       917      3539      3601      3599
 -1      1713    8    0    1
 -2       799       800       918      3238      3602      3603
 -1      1714    8    0    1
 -2       896       799       918      3536      3603      3604
 -1      1715    8    0    1
 -2       800       917       918      3600      3605      3602
 -1      1716    8    0    1
 -2       843       824       896      3400      3606      3607
 -1      1717    8    0    1
 -2       830       835       919      3420      3608      3609
 -1      1718    8    0    1
 -2       833       832       920      3337      3610      3611
 -1      1719    8    0    1
 -2       832       894       920      3533      3612      3610
 -1      1720    8    0    1
 -2       752       744       921      3078      3613      3614
 -1      1721    8    0    1
 -2       752       921       859      3614      3615      3427
 -1      1722    8    0    1
 -2       758       757       922      3097      3616      3617
 -1      1723    8    0    1
 -2       758       922       863      3617      3618      3441
 -1      1724    8    0    1
 -2       754       819       923      3296      3619      3620
 -1      1725    8    0    1
 -2       819       855       923      3412      3621      3619
 -1      1726    8    0    1
 -2       841       746       924      3426      3622      3623
 -1      1727    8    0    1
 -2       839       751       925      3424      3624      3625
 -1      1728    8    0    1
 -2       751       856       925      3415      3626      3624
 -1      1729    8    0    1
 -2       756       838       926      3352      3627      3628
 -1      1730    8    0    1
 -2       838       836       871      3425      3629      3630
 -1      1731    8    0    1
 -2       790       791       927      3203      3631      3632
 -1      1732    8    0    1
 -2       791       915       927      3593      3633      3631
 -1      1733    8    0    1
 -2       824       798       896      3585      3537      3606
 -1      1734    8    0    1
 -2       850       754       923      3388      3620      3634
 -1      1735    8    0    1
 -2       846       756       926      3374      3628      3635
 -1      1736    8    0    1
 -2       820       845       928      3371      3636      3637
 -1      1737    8    0    1
 -2       848       841       929      3382      3638      3639
 -1      1738    8    0    1
 -2       841       924       929      3623      3640      3638
 -1      1739    8    0    1
 -2       757       872       922      3468      3641      3616
 -1      1740    8    0    1
 -2       872       829       930      3467      3642      3643
 -1      1741    8    0    1
 -2       829       857       930      3418      3644      3642
 -1      1742    8    0    1
 -2       821       914       931      3591      3645      3646
 -1      1743    8    0    1
 -2       821       931       854      3646      3647      3408
 -1      1744    8    0    1
 -2       851       837       932      3392      3648      3649
 -1      1745    8    0    1
 -2       769       742       840      3437      3356      3650
 -1      1746    8    0    1
 -2       852       833       933      3395      3651      3652
 -1      1747    8    0    1
 -2       833       920       933      3611      3653      3651
 -1      1748    8    0    1
 -2       891       795       860      3522      3654      3655
 -1      1749    8    0    1
 -2       789       788       934      3197      3656      3657
 -1      1750    8    0    1
 -2       861       789       934      3436      3657      3658
 -1      1751    8    0    1
 -2       788       890       934      3520      3659      3656
 -1      1752    8    0    1
 -2       795       796       860      3217      3660      3654
 -1      1753    8    0    1
 -2       796       797       860      3220      3661      3660
 -1      1754    8    0    1
 -2       744       844       921      3368      3662      3613
 -1      1755    8    0    1
 -2       894       790       927      3532      3632      3663
 -1      1756    8    0    1
 -2       823       826       935      3315      3664      3665
 -1      1757    8    0    1
 -2       823       935       914      3665      3666      3590
 -1      1758    8    0    1
 -2       817       818       913      3292      3588      3667
 -1      1759    8    0    1
 -2       856       830       936      3416      3668      3669
 -1      1760    8    0    1
 -2       830       919       936      3609      3670      3668
 -1      1761    8    0    1
 -2       817       913       912      3667      3671      3582
 -1      1762    8    0    1
 -2       913       849       912      3589      3672      3671
 -1      1763    8    0    1
 -2       849       853       937      3404      3673      3674
 -1      1764    8    0    1
 -2       849       937       912      3674      3675      3672
 -1      1765    8    0    1
 -2       919       835       938      3608      3676      3677
 -1      1766    8    0    1
 -2       835       846       938      3376      3678      3676
 -1      1767    8    0    1
 -2       859       921       939      3615      3679      3680
 -1      1768    8    0    1
 -2       858       747       848      3421      3381      3681
 -1      1769    8    0    1
 -2       770       769       940      3139      3682      3683
 -1      1770    8    0    1
 -2       820       928       941      3637      3684      3685
 -1      1771    8    0    1
 -2       820       941       844      3685      3686      3369
 -1      1772    8    0    1
 -2       860       839       942      3431      3687      3688
 -1      1773    8    0    1
 -2       839       925       942      3625      3689      3687
 -1      1774    8    0    1
 -2       924       746       943      3622      3690      3691
 -1      1775    8    0    1
 -2       746       847       943      3378      3692      3690
 -1      1776    8    0    1
 -2       836       724       750      3345      3065      3693
 -1      1777    8    0    1
 -2       769       840       940      3650      3694      3682
 -1      1778    8    0    1
 -2       932       837       858      3648      3423      3695
 -1      1779    8    0    1
 -2       840       831       940      3399      3696      3694
 -1      1780    8    0    1
 -2       940       831       851      3696      3394      3697
 -1      1781    8    0    1
 -2       873       770       940      3469      3683      3698
 -1      1782    8    0    1
 -2       822       861       934      3435      3658      3699
 -1      1783    8    0    1
 -2       859       939       930      3680      3700      3701
 -1      1784    8    0    1
 -2       822       934       944      3699      3702      3703
 -1      1785    8    0    1
 -2       826       822       944      3316      3703      3704
 -1      1786    8    0    1
 -2       934       890       944      3659      3705      3702
 -1      1787    8    0    1
 -2       928       845       945      3636      3706      3707
 -1      1788    8    0    1
 -2       845       850       945      3387      3708      3706
 -1      1789    8    0    1
 -2       847       843       896      3379      3607      3709
 -1      1790    8    0    1
 -2       853       854       946      3407      3710      3711
 -1      1791    8    0    1
 -2       854       931       946      3647      3712      3710
 -1      1792    8    0    1
 -2       847       896       947      3709      3713      3714
 -1      1793    8    0    1
 -2       943       847       947      3692      3714      3715
 -1      1794    8    0    1
 -2       896       918       947      3604      3716      3713
 -1      1795    8    0    1
 -2       865       864       948      3448      3717      3718
 -1      1796    8    0    1
 -2       866       865       949      3451      3719      3720
 -1      1797    8    0    1
 -2       865       948       949      3718      3721      3719
 -1      1798    8    0    1
 -2       867       866       950      3454      3722      3723
 -1      1799    8    0    1
 -2       866       949       950      3720      3724      3722
 -1      1800    8    0    1
 -2       868       867       951      3457      3725      3726
 -1      1801    8    0    1
 -2       867       950       951      3723      3727      3725
 -1      1802    8    0    1
 -2       869       868       952      3460      3728      3729
 -1      1803    8    0    1
 -2       868       951       952      3726      3730      3728
 -1      1804    8    0    1
 -2       870       869       953      3463      3731      3732
 -1      1805    8    0    1
 -2       869       952       953      3729      3733      3731
 -1      1806    8    0    1
 -2       768       767       871      3127      3465      3734
 -1      1807    8    0    1
 -2       921       844       954      3662      3735      3736
 -1      1808    8    0    1
 -2       939       921       954      3679      3736      3737
 -1      1809    8    0    1
 -2       844       941       954      3686      3738      3735
 -1      1810    8    0    1
 -2       875       874       955      3476      3739      3740
 -1      1811    8    0    1
 -2       876       875       956      3479      3741      3742
 -1      1812    8    0    1
 -2       875       955       956      3740      3743      3741
 -1      1813    8    0    1
 -2       877       876       957      3482      3744      3745
 -1      1814    8    0    1
 -2       876       956       957      3742      3746      3744
 -1      1815    8    0    1
 -2       878       877       958      3485      3747      3748
 -1      1816    8    0    1
 -2       877       957       958      3745      3749      3747
 -1      1817    8    0    1
 -2       879       878       959      3488      3750      3751
 -1      1818    8    0    1
 -2       878       958       959      3748      3752      3750
 -1      1819    8    0    1
 -2       880       879       960      3491      3753      3754
 -1      1820    8    0    1
 -2       879       959       960      3751      3755      3753
 -1      1821    8    0    1
 -2       881       880       961      3494      3756      3757
 -1      1822    8    0    1
 -2       880       960       961      3754      3758      3756
 -1      1823    8    0    1
 -2       882       881       962      3497      3759      3760
 -1      1824    8    0    1
 -2       881       961       962      3757      3761      3759
 -1      1825    8    0    1
 -2       883       882       963      3500      3762      3763
 -1      1826    8    0    1
 -2       882       962       963      3760      3764      3762
 -1      1827    8    0    1
 -2       884       883       964      3503      3765      3766
 -1      1828    8    0    1
 -2       883       963       964      3763      3767      3765
 -1      1829    8    0    1
 -2       885       884       965      3506      3768      3769
 -1      1830    8    0    1
 -2       884       964       965      3766      3770      3768
 -1      1831    8    0    1
 -2       886       885       966      3509      3771      3772
 -1      1832    8    0    1
 -2       885       965       966      3769      3773      3771
 -1      1833    8    0    1
 -2       887       886       967      3512      3774      3775
 -1      1834    8    0    1
 -2       886       966       967      3772      3776      3774
 -1      1835    8    0    1
 -2       888       887       968      3515      3777      3778
 -1      1836    8    0    1
 -2       887       967       968      3775      3779      3777
 -1      1837    8    0    1
 -2       889       888       969      3518      3780      3781
 -1      1838    8    0    1
 -2       888       968       969      3778      3782      3780
 -1      1839    8    0    1
 -2       890       889       970      3521      3783      3784
 -1      1840    8    0    1
 -2       889       969       970      3781      3785      3783
 -1      1841    8    0    1
 -2       859       930       862      3701      3786      3438
 -1      1842    8    0    1
 -2       899       900       971      3548      3787      3788
 -1      1843    8    0    1
 -2       898       899       972      3545      3789      3790
 -1      1844    8    0    1
 -2       899       971       972      3788      3791      3789
 -1      1845    8    0    1
 -2       893       892       973      3529      3792      3793
 -1      1846    8    0    1
 -2       850       923       945      3634      3794      3708
 -1      1847    8    0    1
 -2       917       897       974      3601      3795      3796
 -1      1848    8    0    1
 -2       857       743       862      3531      3440      3797
 -1      1849    8    0    1
 -2       857       862       930      3797      3786      3644
 -1      1850    8    0    1
 -2       897       898       975      3542      3798      3799
 -1      1851    8    0    1
 -2       974       897       975      3795      3799      3800
 -1      1852    8    0    1
 -2       898       972       975      3790      3801      3798
 -1      1853    8    0    1
 -2       900       901       976      3551      3802      3803
 -1      1854    8    0    1
 -2       900       976       971      3803      3804      3787
 -1      1855    8    0    1
 -2       901       902       977      3554      3805      3806
 -1      1856    8    0    1
 -2       901       977       976      3806      3807      3802
 -1      1857    8    0    1
 -2       902       903       978      3557      3808      3809
 -1      1858    8    0    1
 -2       902       978       977      3809      3810      3805
 -1      1859    8    0    1
 -2       903       904       979      3560      3811      3812
 -1      1860    8    0    1
 -2       903       979       978      3812      3813      3808
 -1      1861    8    0    1
 -2       904       905       980      3563      3814      3815
 -1      1862    8    0    1
 -2       904       980       979      3815      3816      3811
 -1      1863    8    0    1
 -2       905       906       981      3566      3817      3818
 -1      1864    8    0    1
 -2       905       981       980      3818      3819      3814
 -1      1865    8    0    1
 -2       906       907       982      3569      3820      3821
 -1      1866    8    0    1
 -2       906       982       981      3821      3822      3817
 -1      1867    8    0    1
 -2       907       908       983      3572      3823      3824
 -1      1868    8    0    1
 -2       907       983       982      3824      3825      3820
 -1      1869    8    0    1
 -2       908       909       984      3575      3826      3827
 -1      1870    8    0    1
 -2       908       984       983      3827      3828      3823
 -1      1871    8    0    1
 -2       909       910       985      3578      3829      3830
 -1      1872    8    0    1
 -2       909       985       984      3830      3831      3826
 -1      1873    8    0    1
 -2       910       911       986      3581      3832      3833
 -1      1874    8    0    1
 -2       910       986       985      3833      3834      3829
 -1      1875    8    0    1
 -2       911       912       987      3584      3835      3836
 -1      1876    8    0    1
 -2       986       911       987      3832      3836      3837
 -1      1877    8    0    1
 -2       912       937       987      3675      3838      3835
 -1      1878    8    0    1
 -2       925       856       988      3626      3839      3840
 -1      1879    8    0    1
 -2       864       863       989      3445      3841      3842
 -1      1880    8    0    1
 -2       864       989       948      3842      3843      3717
 -1      1881    8    0    1
 -2       851       932       990      3649      3844      3845
 -1      1882    8    0    1
 -2       915       895       991      3594      3846      3847
 -1      1883    8    0    1
 -2       855       852       992      3413      3848      3849
 -1      1884    8    0    1
 -2       923       855       992      3621      3849      3850
 -1      1885    8    0    1
 -2       852       933       992      3652      3851      3848
 -1      1886    8    0    1
 -2       920       894       993      3612      3852      3853
 -1      1887    8    0    1
 -2       922       872       994      3641      3854      3855
 -1      1888    8    0    1
 -2       858       848       995      3681      3856      3857
 -1      1889    8    0    1
 -2       932       858       996      3695      3858      3859
 -1      1890    8    0    1
 -2       858       995       996      3857      3860      3858
 -1      1891    8    0    1
 -2       927       915       997      3633      3861      3862
 -1      1892    8    0    1
 -2       915       991       997      3847      3863      3861
 -1      1893    8    0    1
 -2       892       891       998      3526      3864      3865
 -1      1894    8    0    1
 -2       892       998       973      3865      3866      3792
 -1      1895    8    0    1
 -2       894       927       999      3663      3867      3868
 -1      1896    8    0    1
 -2       894       999       993      3868      3869      3852
 -1      1897    8    0    1
 -2       797       745       834      3530      3373      3870
 -1      1898    8    0    1
 -2       797       834       842      3870      3432      3871
 -1      1899    8    0    1
 -2       863       922      1000      3618      3872      3873
 -1      1900    8    0    1
 -2       863      1000       989      3873      3874      3841
 -1      1901    8    0    1
 -2       874       873       990      3473      3875      3876
 -1      1902    8    0    1
 -2       926       838       871      3627      3630      3877
 -1      1903    8    0    1
 -2       846       926      1001      3635      3878      3879
 -1      1904    8    0    1
 -2       940       851       873      3697      3880      3698
 -1      1905    8    0    1
 -2       926       871      1001      3877      3881      3878
 -1      1906    8    0    1
 -2       873       851       990      3880      3845      3875
 -1      1907    8    0    1
 -2       929       924      1002      3640      3882      3883
 -1      1908    8    0    1
 -2       924       943      1002      3691      3884      3882
 -1      1909    8    0    1
 -2       848       929       995      3639      3885      3856
 -1      1910    8    0    1
 -2       928       945      1003      3707      3886      3887
 -1      1911    8    0    1
 -2       870       953      1001      3732      3888      3889
 -1      1912    8    0    1
 -2       871       870      1001      3466      3889      3881
 -1      1913    8    0    1
 -2       931       914      1004      3645      3890      3891
 -1      1914    8    0    1
 -2       853       946       937      3711      3892      3673
 -1      1915    8    0    1
 -2       933       920      1005      3653      3893      3894
 -1      1916    8    0    1
 -2       920       993      1005      3853      3895      3893
 -1      1917    8    0    1
 -2       890       970       944      3784      3896      3705
 -1      1918    8    0    1
 -2       945       923       992      3794      3850      3897
 -1      1919    8    0    1
 -2       935       826       944      3664      3704      3898
 -1      1920    8    0    1
 -2       895       916      1006      3597      3899      3900
 -1      1921    8    0    1
 -2       895      1006       991      3900      3901      3846
 -1      1922    8    0    1
 -2       988       856       936      3839      3669      3902
 -1      1923    8    0    1
 -2       874       990       955      3876      3903      3739
 -1      1924    8    0    1
 -2       919       938      1007      3677      3904      3905
 -1      1925    8    0    1
 -2       936       919      1007      3670      3905      3906
 -1      1926    8    0    1
 -2       941       928      1008      3684      3907      3908
 -1      1927    8    0    1
 -2       928      1003      1008      3887      3909      3907
 -1      1928    8    0    1
 -2       990       932      1009      3844      3910      3911
 -1      1929    8    0    1
 -2       955       990      1009      3903      3911      3912
 -1      1930    8    0    1
 -2       932       996      1009      3859      3913      3910
 -1      1931    8    0    1
 -2       750       768       836      3389      3914      3693
 -1      1932    8    0    1
 -2       916       893      1010      3598      3915      3916
 -1      1933    8    0    1
 -2      1006       916      1010      3899      3916      3917
 -1      1934    8    0    1
 -2       893       973      1010      3793      3918      3915
 -1      1935    8    0    1
 -2       938       846      1001      3678      3879      3919
 -1      1936    8    0    1
 -2       922       994      1000      3855      3920      3872
 -1      1937    8    0    1
 -2       918       917      1011      3605      3921      3922
 -1      1938    8    0    1
 -2       947       918      1011      3716      3922      3923
 -1      1939    8    0    1
 -2       917       974      1011      3796      3924      3921
 -1      1940    8    0    1
 -2       927       997       999      3862      3925      3867
 -1      1941    8    0    1
 -2      1004       914      1012      3890      3926      3927
 -1      1942    8    0    1
 -2       914       935      1012      3666      3928      3926
 -1      1943    8    0    1
 -2       836       768       871      3914      3734      3629
 -1      1944    8    0    1
 -2       925       988       942      3840      3929      3689
 -1      1945    8    0    1
 -2       891       860       998      3655      3930      3864
 -1      1946    8    0    1
 -2       872       930      1013      3643      3931      3932
 -1      1947    8    0    1
 -2       994       872      1013      3854      3932      3933
 -1      1948    8    0    1
 -2       930       939      1013      3700      3934      3931
 -1      1949    8    0    1
 -2       939       954      1014      3737      3935      3936
 -1      1950    8    0    1
 -2       939      1014      1013      3936      3937      3934
 -1      1951    8    0    1
 -2      1001       953      1015      3888      3938      3939
 -1      1952    8    0    1
 -2      1001      1015       938      3939      3940      3919
 -1      1953    8    0    1
 -2       946       931      1016      3712      3941      3942
 -1      1954    8    0    1
 -2       931      1004      1016      3891      3943      3941
 -1      1955    8    0    1
 -2      1003       945       992      3886      3897      3944
 -1      1956    8    0    1
 -2       949       948      1017      3721      3945      3946
 -1      1957    8    0    1
 -2       950       949      1018      3724      3947      3948
 -1      1958    8    0    1
 -2       949      1017      1018      3946      3949      3947
 -1      1959    8    0    1
 -2       951       950      1019      3727      3950      3951
 -1      1960    8    0    1
 -2       950      1018      1019      3948      3952      3950
 -1      1961    8    0    1
 -2       952       951      1020      3730      3953      3954
 -1      1962    8    0    1
 -2       951      1019      1020      3951      3955      3953
 -1      1963    8    0    1
 -2       953       952      1021      3733      3956      3957
 -1      1964    8    0    1
 -2      1015       953      1021      3938      3957      3958
 -1      1965    8    0    1
 -2       952      1020      1021      3954      3959      3956
 -1      1966    8    0    1
 -2       937       946      1022      3892      3960      3961
 -1      1967    8    0    1
 -2       987       937      1022      3838      3961      3962
 -1      1968    8    0    1
 -2       946      1016      1022      3942      3963      3960
 -1      1969    8    0    1
 -2       954       941      1023      3738      3964      3965
 -1      1970    8    0    1
 -2       941      1008      1023      3908      3966      3964
 -1      1971    8    0    1
 -2       956       955      1024      3743      3967      3968
 -1      1972    8    0    1
 -2       955      1009      1024      3912      3969      3967
 -1      1973    8    0    1
 -2       957       956      1025      3746      3970      3971
 -1      1974    8    0    1
 -2       956      1024      1025      3968      3972      3970
 -1      1975    8    0    1
 -2       958       957      1026      3749      3973      3974
 -1      1976    8    0    1
 -2       957      1025      1026      3971      3975      3973
 -1      1977    8    0    1
 -2       959       958      1027      3752      3976      3977
 -1      1978    8    0    1
 -2       958      1026      1027      3974      3978      3976
 -1      1979    8    0    1
 -2       960       959      1028      3755      3979      3980
 -1      1980    8    0    1
 -2       959      1027      1028      3977      3981      3979
 -1      1981    8    0    1
 -2       961       960      1029      3758      3982      3983
 -1      1982    8    0    1
 -2       960      1028      1029      3980      3984      3982
 -1      1983    8    0    1
 -2       962       961      1030      3761      3985      3986
 -1      1984    8    0    1
 -2       961      1029      1030      3983      3987      3985
 -1      1985    8    0    1
 -2       963       962      1031      3764      3988      3989
 -1      1986    8    0    1
 -2       962      1030      1031      3986      3990      3988
 -1      1987    8    0    1
 -2       964       963      1032      3767      3991      3992
 -1      1988    8    0    1
 -2       963      1031      1032      3989      3993      3991
 -1      1989    8    0    1
 -2       965       964      1033      3770      3994      3995
 -1      1990    8    0    1
 -2       964      1032      1033      3992      3996      3994
 -1      1991    8    0    1
 -2       966       965      1034      3773      3997      3998
 -1      1992    8    0    1
 -2       965      1033      1034      3995      3999      3997
 -1      1993    8    0    1
 -2       967       966      1035      3776      4000      4001
 -1      1994    8    0    1
 -2       966      1034      1035      3998      4002      4000
 -1      1995    8    0    1
 -2       968       967      1036      3779      4003      4004
 -1      1996    8    0    1
 -2       967      1035      1036      4001      4005      4003
 -1      1997    8    0    1
 -2       969       968      1037      3782      4006      4007
 -1      1998    8    0    1
 -2       968      1036      1037      4004      4008      4006
 -1      1999    8    0    1
 -2       970       969      1038      3785      4009      4010
 -1      2000    8    0    1
 -2       969      1037      1038      4007      4011      4009
 -1      2001    8    0    1
 -2       972       971      1039      3791      4012      4013
 -1      2002    8    0    1
 -2       976       977      1040      3807      4014      4015
 -1      2003    8    0    1
 -2       971       976      1041      3804      4016      4017
 -1      2004    8    0    1
 -2       971      1041      1039      4017      4018      4012
 -1      2005    8    0    1
 -2       993       999      1042      3869      4019      4020
 -1      2006    8    0    1
 -2       977       978      1043      3810      4021      4022
 -1      2007    8    0    1
 -2       977      1043      1040      4022      4023      4014
 -1      2008    8    0    1
 -2       996       995      1044      3860      4024      4025
 -1      2009    8    0    1
 -2       988       936      1045      3902      4026      4027
 -1      2010    8    0    1
 -2       978       979      1046      3813      4028      4029
 -1      2011    8    0    1
 -2       978      1046      1043      4029      4030      4021
 -1      2012    8    0    1
 -2       979       980      1047      3816      4031      4032
 -1      2013    8    0    1
 -2       979      1047      1046      4032      4033      4028
 -1      2014    8    0    1
 -2       980       981      1048      3819      4034      4035
 -1      2015    8    0    1
 -2       980      1048      1047      4035      4036      4031
 -1      2016    8    0    1
 -2       981       982      1049      3822      4037      4038
 -1      2017    8    0    1
 -2       981      1049      1048      4038      4039      4034
 -1      2018    8    0    1
 -2       982       983      1050      3825      4040      4041
 -1      2019    8    0    1
 -2       982      1050      1049      4041      4042      4037
 -1      2020    8    0    1
 -2       983       984      1051      3828      4043      4044
 -1      2021    8    0    1
 -2       983      1051      1050      4044      4045      4040
 -1      2022    8    0    1
 -2       984       985      1052      3831      4046      4047
 -1      2023    8    0    1
 -2       984      1052      1051      4047      4048      4043
 -1      2024    8    0    1
 -2       985       986      1053      3834      4049      4050
 -1      2025    8    0    1
 -2       985      1053      1052      4050      4051      4046
 -1      2026    8    0    1
 -2      1007       938      1015      3904      3940      4052
 -1      2027    8    0    1
 -2       936      1007      1045      3906      4053      4026
 -1      2028    8    0    1
 -2       948       989      1054      3843      4054      4055
 -1      2029    8    0    1
 -2       948      1054      1017      4055      4056      3945
 -1      2030    8    0    1
 -2       973       998      1055      3866      4057      4058
 -1      2031    8    0    1
 -2       935       944       970      3898      3896      4059
 -1      2032    8    0    1
 -2       997       991      1056      3863      4060      4061
 -1      2033    8    0    1
 -2       994      1013      1057      3933      4062      4063
 -1      2034    8    0    1
 -2      1013      1014      1057      3937      4064      4062
 -1      2035    8    0    1
 -2       995       929      1058      3885      4065      4066
 -1      2036    8    0    1
 -2      1044       995      1058      4024      4066      4067
 -1      2037    8    0    1
 -2       929      1002      1058      3883      4068      4065
 -1      2038    8    0    1
 -2      1000       994      1057      3920      4063      4069
 -1      2039    8    0    1
 -2       999       997      1059      3925      4070      4071
 -1      2040    8    0    1
 -2       997      1056      1059      4061      4072      4070
 -1      2041    8    0    1
 -2       989      1000      1060      3874      4073      4074
 -1      2042    8    0    1
 -2       989      1060      1054      4074      4075      4054
 -1      2043    8    0    1
 -2      1016      1004      1061      3943      4076      4077
 -1      2044    8    0    1
 -2       973      1055      1062      4058      4078      4079
 -1      2045    8    0    1
 -2       973      1062      1010      4079      4080      3918
 -1      2046    8    0    1
 -2       974       975      1063      3800      4081      4082
 -1      2047    8    0    1
 -2      1041       976      1040      4016      4015      4083
 -1      2048    8    0    1
 -2       996      1044      1064      4025      4084      4085
 -1      2049    8    0    1
 -2       996      1064      1009      4085      4086      3913
 -1      2050    8    0    1
 -2      1005       993      1065      3895      4087      4088
 -1      2051    8    0    1
 -2       993      1042      1065      4020      4089      4087
 -1      2052    8    0    1
 -2      1042       999      1059      4019      4071      4090
 -1      2053    8    0    1
 -2       992       933      1003      3851      4091      3944
 -1      2054    8    0    1
 -2       988      1045      1055      4027      4092      4093
 -1      2055    8    0    1
 -2      1007      1015      1066      4052      4094      4095
 -1      2056    8    0    1
 -2       986       987      1022      3837      3962      4096
 -1      2057    8    0    1
 -2      1055       998       988      4057      4097      4093
 -1      2058    8    0    1
 -2      1008      1003      1067      3909      4098      4099
 -1      2059    8    0    1
 -2       935       970      1012      4059      4100      3928
 -1      2060    8    0    1
 -2       933      1005      1003      3894      4101      4091
 -1      2061    8    0    1
 -2      1056       991      1068      4060      4102      4103
 -1      2062    8    0    1
 -2       991      1006      1068      3901      4104      4102
 -1      2063    8    0    1
 -2      1014       954      1023      3935      3965      4105
 -1      2064    8    0    1
 -2       974      1063      1069      4082      4106      4107
 -1      2065    8    0    1
 -2       974      1069      1011      4107      4108      3924
 -1      2066    8    0    1
 -2      1045      1007      1070      4053      4109      4110
 -1      2067    8    0    1
 -2      1055      1045      1070      4092      4110      4111
 -1      2068    8    0    1
 -2      1007      1066      1070      4095      4112      4109
 -1      2069    8    0    1
 -2       975       972      1071      3801      4113      4114
 -1      2070    8    0    1
 -2       972      1039      1071      4013      4115      4113
 -1      2071    8    0    1
 -2      1004      1012      1072      3927      4116      4117
 -1      2072    8    0    1
 -2      1004      1072      1061      4117      4118      4076
 -1      2073    8    0    1
 -2      1000      1057      1060      4069      4119      4073
 -1      2074    8    0    1
 -2       943       947      1073      3715      4120      4121
 -1      2075    8    0    1
 -2      1002       943      1073      3884      4121      4122
 -1      2076    8    0    1
 -2       947      1011      1073      3923      4123      4120
 -1      2077    8    0    1
 -2       986      1022      1053      4096      4124      4049
 -1      2078    8    0    1
 -2      1018      1017      1074      3949      4125      4126
 -1      2079    8    0    1
 -2      1063       975      1071      4081      4114      4127
 -1      2080    8    0    1
 -2      1041      1040      1075      4083      4128      4129
 -1      2081    8    0    1
 -2      1019      1018      1076      3952      4130      4131
 -1      2082    8    0    1
 -2      1018      1074      1076      4126      4132      4130
 -1      2083    8    0    1
 -2      1020      1019      1077      3955      4133      4134
 -1      2084    8    0    1
 -2      1019      1076      1077      4131      4135      4133
 -1      2085    8    0    1
 -2      1024      1009      1064      3969      4086      4136
 -1      2086    8    0    1
 -2      1025      1024      1078      3972      4137      4138
 -1      2087    8    0    1
 -2      1024      1064      1078      4136      4139      4137
 -1      2088    8    0    1
 -2      1026      1025      1079      3975      4140      4141
 -1      2089    8    0    1
 -2      1025      1078      1079      4138      4142      4140
 -1      2090    8    0    1
 -2      1027      1026      1080      3978      4143      4144
 -1      2091    8    0    1
 -2      1026      1079      1080      4141      4145      4143
 -1      2092    8    0    1
 -2      1028      1027      1081      3981      4146      4147
 -1      2093    8    0    1
 -2      1027      1080      1081      4144      4148      4146
 -1      2094    8    0    1
 -2      1029      1028      1082      3984      4149      4150
 -1      2095    8    0    1
 -2      1028      1081      1082      4147      4151      4149
 -1      2096    8    0    1
 -2      1030      1029      1083      3987      4152      4153
 -1      2097    8    0    1
 -2      1029      1082      1083      4150      4154      4152
 -1      2098    8    0    1
 -2      1031      1030      1084      3990      4155      4156
 -1      2099    8    0    1
 -2      1030      1083      1084      4153      4157      4155
 -1      2100    8    0    1
 -2      1032      1031      1085      3993      4158      4159
 -1      2101    8    0    1
 -2      1031      1084      1085      4156      4160      4158
 -1      2102    8    0    1
 -2      1033      1032      1086      3996      4161      4162
 -1      2103    8    0    1
 -2      1032      1085      1086      4159      4163      4161
 -1      2104    8    0    1
 -2      1034      1033      1087      3999      4164      4165
 -1      2105    8    0    1
 -2      1033      1086      1087      4162      4166      4164
 -1      2106    8    0    1
 -2      1035      1034      1088      4002      4167      4168
 -1      2107    8    0    1
 -2      1034      1087      1088      4165      4169      4167
 -1      2108    8    0    1
 -2      1036      1035      1089      4005      4170      4171
 -1      2109    8    0    1
 -2      1035      1088      1089      4168      4172      4170
 -1      2110    8    0    1
 -2      1037      1036      1090      4008      4173      4174
 -1      2111    8    0    1
 -2      1036      1089      1090      4171      4175      4173
 -1      2112    8    0    1
 -2      1042      1059      1091      4090      4176      4177
 -1      2113    8    0    1
 -2      1039      1041      1092      4018      4178      4179
 -1      2114    8    0    1
 -2      1041      1075      1092      4129      4180      4178
 -1      2115    8    0    1
 -2      1066      1015      1021      4094      3958      4181
 -1      2116    8    0    1
 -2      1040      1043      1093      4023      4182      4183
 -1      2117    8    0    1
 -2      1040      1093      1075      4183      4184      4128
 -1      2118    8    0    1
 -2      1047      1048      1094      4036      4185      4186
 -1      2119    8    0    1
 -2      1043      1046      1095      4030      4187      4188
 -1      2120    8    0    1
 -2      1043      1095      1093      4188      4189      4182
 -1      2121    8    0    1
 -2      1048      1049      1096      4039      4190      4191
 -1      2122    8    0    1
 -2      1048      1096      1094      4191      4192      4185
 -1      2123    8    0    1
 -2      1049      1050      1097      4042      4193      4194
 -1      2124    8    0    1
 -2      1049      1097      1096      4194      4195      4190
 -1      2125    8    0    1
 -2      1050      1051      1098      4045      4196      4197
 -1      2126    8    0    1
 -2      1050      1098      1097      4197      4198      4193
 -1      2127    8    0    1
 -2      1051      1052      1099      4048      4199      4200
 -1      2128    8    0    1
 -2      1051      1099      1098      4200      4201      4196
 -1      2129    8    0    1
 -2      1023      1008      1100      3966      4202      4203
 -1      2130    8    0    1
 -2      1008      1067      1100      4099      4204      4202
 -1      2131    8    0    1
 -2      1057      1014      1101      4064      4205      4206
 -1      2132    8    0    1
 -2      1014      1023      1101      4105      4207      4205
 -1      2133    8    0    1
 -2      1067      1003      1005      4098      4101      4208
 -1      2134    8    0    1
 -2      1012       970      1038      4100      4010      4209
 -1      2135    8    0    1
 -2      1012      1038      1072      4209      4210      4116
 -1      2136    8    0    1
 -2      1017      1054      1102      4056      4211      4212
 -1      2137    8    0    1
 -2      1017      1102      1074      4212      4213      4125
 -1      2138    8    0    1
 -2      1046      1047      1103      4033      4214      4215
 -1      2139    8    0    1
 -2      1095      1046      1103      4187      4215      4216
 -1      2140    8    0    1
 -2      1047      1094      1103      4186      4217      4214
 -1      2141    8    0    1
 -2      1053      1022      1016      4124      3963      4218
 -1      2142    8    0    1
 -2       797       842       860      3871      3430      3661
 -1      2143    8    0    1
 -2      1006      1010      1104      3917      4219      4220
 -1      2144    8    0    1
 -2      1010      1062      1104      4080      4221      4219
 -1      2145    8    0    1
 -2      1059      1056      1105      4072      4222      4223
 -1      2146    8    0    1
 -2      1059      1105      1091      4223      4224      4176
 -1      2147    8    0    1
 -2      1054      1060      1106      4075      4225      4226
 -1      2148    8    0    1
 -2      1054      1106      1102      4226      4227      4211
 -1      2149    8    0    1
 -2      1060      1057      1107      4119      4228      4229
 -1      2150    8    0    1
 -2      1106      1060      1107      4225      4229      4230
 -1      2151    8    0    1
 -2      1057      1101      1107      4206      4231      4228
 -1      2152    8    0    1
 -2      1067      1005      1065      4208      4088      4232
 -1      2153    8    0    1
 -2      1053      1016      1061      4218      4077      4233
 -1      2154    8    0    1
 -2      1063      1071      1108      4127      4234      4235
 -1      2155    8    0    1
 -2      1042      1091      1109      4177      4236      4237
 -1      2156    8    0    1
 -2      1042      1109      1065      4237      4238      4089
 -1      2157    8    0    1
 -2      1021      1020      1110      3959      4239      4240
 -1      2158    8    0    1
 -2      1020      1077      1110      4134      4241      4239
 -1      2159    8    0    1
 -2      1064      1044      1111      4084      4242      4243
 -1      2160    8    0    1
 -2      1064      1111      1078      4243      4244      4139
 -1      2161    8    0    1
 -2      1006      1104      1068      4220      4245      4104
 -1      2162    8    0    1
 -2      1038      1037      1072      4011      4246      4210
 -1      2163    8    0    1
 -2      1039      1092      1112      4179      4247      4248
 -1      2164    8    0    1
 -2      1039      1112      1071      4248      4249      4115
 -1      2165    8    0    1
 -2      1037      1090      1072      4174      4250      4246
 -1      2166    8    0    1
 -2      1062      1055      1070      4078      4111      4251
 -1      2167    8    0    1
 -2      1066      1021      1110      4181      4240      4252
 -1      2168    8    0    1
 -2      1023      1100      1101      4203      4253      4207
 -1      2169    8    0    1
 -2      1052      1053      1113      4051      4254      4255
 -1      2170    8    0    1
 -2      1052      1113      1099      4255      4256      4199
 -1      2171    8    0    1
 -2      1063      1108      1114      4235      4257      4258
 -1      2172    8    0    1
 -2      1063      1114      1069      4258      4259      4106
 -1      2173    8    0    1
 -2      1053      1061      1113      4233      4260      4254
 -1      2174    8    0    1
 -2      1113      1061      1115      4260      4261      4262
 -1      2175    8    0    1
 -2      1099      1113      1115      4256      4262      4263
 -1      2176    8    0    1
 -2      1061      1072      1115      4118      4264      4261
 -1      2177    8    0    1
 -2      1070      1066      1116      4112      4265      4266
 -1      2178    8    0    1
 -2      1066      1110      1116      4252      4267      4265
 -1      2179    8    0    1
 -2      1056      1068      1117      4103      4268      4269
 -1      2180    8    0    1
 -2      1056      1117      1105      4269      4270      4222
 -1      2181    8    0    1
 -2      1058      1002      1118      4068      4271      4272
 -1      2182    8    0    1
 -2      1002      1073      1118      4122      4273      4271
 -1      2183    8    0    1
 -2      1073      1011      1069      4123      4108      4274
 -1      2184    8    0    1
 -2      1044      1058      1119      4067      4275      4276
 -1      2185    8    0    1
 -2      1111      1044      1119      4242      4276      4277
 -1      2186    8    0    1
 -2      1058      1118      1119      4272      4278      4275
 -1      2187    8    0    1
 -2      1067      1065      1120      4232      4279      4280
 -1      2188    8    0    1
 -2      1100      1067      1120      4204      4280      4281
 -1      2189    8    0    1
 -2      1065      1109      1120      4238      4282      4279
 -1      2190    8    0    1
 -2      1091      1105      1102      4224      4283      4284
 -1      2191    8    0    1
 -2      1091      1102      1106      4284      4227      4285
 -1      2192    8    0    1
 -2      1108      1071      1112      4234      4249      4286
 -1      2193    8    0    1
 -2       988       998       942      4097      4287      3929
 -1      2194    8    0    1
 -2      1110      1077      1121      4241      4288      4289
 -1      2195    8    0    1
 -2      1110      1121      1116      4289      4290      4267
 -1      2196    8    0    1
 -2      1092      1075      1122      4180      4291      4292
 -1      2197    8    0    1
 -2      1101      1100      1107      4253      4293      4231
 -1      2198    8    0    1
 -2      1068      1104      1121      4245      4294      4295
 -1      2199    8    0    1
 -2      1079      1078      1123      4142      4296      4297
 -1      2200    8    0    1
 -2      1078      1111      1123      4244      4298      4296
 -1      2201    8    0    1
 -2      1080      1079      1124      4145      4299      4300
 -1      2202    8    0    1
 -2      1079      1123      1124      4297      4301      4299
 -1      2203    8    0    1
 -2      1081      1080      1122      4148      4302      4303
 -1      2204    8    0    1
 -2      1082      1081      1122      4151      4303      4304
 -1      2205    8    0    1
 -2      1083      1082      1125      4154      4305      4306
 -1      2206    8    0    1
 -2      1084      1083      1126      4157      4307      4308
 -1      2207    8    0    1
 -2      1083      1125      1126      4306      4309      4307
 -1      2208    8    0    1
 -2      1085      1084      1127      4160      4310      4311
 -1      2209    8    0    1
 -2      1084      1126      1127      4308      4312      4310
 -1      2210    8    0    1
 -2      1086      1085      1128      4163      4313      4314
 -1      2211    8    0    1
 -2      1085      1127      1128      4311      4315      4313
 -1      2212    8    0    1
 -2      1087      1086      1129      4166      4316      4317
 -1      2213    8    0    1
 -2      1086      1128      1129      4314      4318      4316
 -1      2214    8    0    1
 -2      1088      1087      1130      4169      4319      4320
 -1      2215    8    0    1
 -2      1087      1129      1130      4317      4321      4319
 -1      2216    8    0    1
 -2      1089      1088      1131      4172      4322      4323
 -1      2217    8    0    1
 -2      1088      1130      1131      4320      4324      4322
 -1      2218    8    0    1
 -2      1094      1096      1129      4192      4325      4326
 -1      2219    8    0    1
 -2      1096      1097      1130      4195      4327      4328
 -1      2220    8    0    1
 -2      1072      1090      1115      4250      4329      4264
 -1      2221    8    0    1
 -2      1093      1095      1126      4189      4330      4331
 -1      2222    8    0    1
 -2      1097      1098      1131      4198      4332      4333
 -1      2223    8    0    1
 -2      1098      1099      1132      4201      4334      4335
 -1      2224    8    0    1
 -2      1131      1098      1132      4332      4335      4336
 -1      2225    8    0    1
 -2      1099      1115      1132      4263      4337      4334
 -1      2226    8    0    1
 -2      1102      1105      1074      4283      4338      4213
 -1      2227    8    0    1
 -2      1062      1070      1116      4251      4266      4339
 -1      2228    8    0    1
 -2      1091      1106      1109      4285      4340      4236
 -1      2229    8    0    1
 -2      1074      1105      1117      4338      4270      4341
 -1      2230    8    0    1
 -2       998       860       942      3930      3688      4287
 -1      2231    8    0    1
 -2      1076      1074      1117      4132      4341      4342
 -1      2232    8    0    1
 -2      1104      1062      1116      4221      4339      4343
 -1      2233    8    0    1
 -2      1075      1093      1125      4184      4344      4345
 -1      2234    8    0    1
 -2      1073      1069      1118      4274      4346      4273
 -1      2235    8    0    1
 -2      1123      1111      1114      4298      4347      4348
 -1      2236    8    0    1
 -2      1122      1075      1125      4291      4345      4349
 -1      2237    8    0    1
 -2      1077      1076      1133      4135      4350      4351
 -1      2238    8    0    1
 -2      1107      1100      1120      4293      4281      4352
 -1      2239    8    0    1
 -2      1121      1104      1116      4294      4343      4290
 -1      2240    8    0    1
 -2      1089      1131      1132      4323      4336      4353
 -1      2241    8    0    1
 -2      1082      1122      1125      4304      4349      4305
 -1      2242    8    0    1
 -2      1094      1129      1128      4326      4318      4354
 -1      2243    8    0    1
 -2      1129      1096      1130      4325      4328      4321
 -1      2244    8    0    1
 -2      1090      1089      1132      4175      4353      4355
 -1      2245    8    0    1
 -2      1108      1112      1124      4286      4356      4357
 -1      2246    8    0    1
 -2      1112      1092      1124      4247      4358      4356
 -1      2247    8    0    1
 -2      1115      1090      1132      4329      4355      4337
 -1      2248    8    0    1
 -2      1126      1095      1127      4330      4359      4312
 -1      2249    8    0    1
 -2      1097      1131      1130      4333      4324      4327
 -1      2250    8    0    1
 -2      1069      1114      1118      4259      4360      4346
 -1      2251    8    0    1
 -2      1092      1122      1124      4292      4361      4358
 -1      2252    8    0    1
 -2      1095      1103      1127      4216      4362      4359
 -1      2253    8    0    1
 -2      1114      1108      1123      4257      4363      4348
 -1      2254    8    0    1
 -2      1093      1126      1125      4331      4309      4344
 -1      2255    8    0    1
 -2      1117      1068      1133      4268      4364      4365
 -1      2256    8    0    1
 -2      1076      1117      1133      4342      4365      4350
 -1      2257    8    0    1
 -2      1106      1107      1109      4230      4366      4340
 -1      2258    8    0    1
 -2      1103      1094      1128      4217      4354      4367
 -1      2259    8    0    1
 -2      1077      1133      1121      4351      4368      4288
 -1      2260    8    0    1
 -2      1123      1108      1124      4363      4357      4301
 -1      2261    8    0    1
 -2      1133      1068      1121      4364      4295      4368
 -1      2262    8    0    1
 -2      1122      1080      1124      4302      4300      4361
 -1      2263    8    0    1
 -2      1128      1127      1103      4315      4362      4367
 -1      2264    8    0    1
 -2      1111      1119      1114      4277      4369      4347
 -1      2265    8    0    1
 -2      1118      1114      1119      4360      4369      4278
 -1      2266    8    0    1
 -2      1109      1107      1120      4366      4352      4282
 -3
    1PSTEP                         1           1           1          
  100CL  101 1.000000000        4369                     0    1           1
 -4  DISP        4    1
 -5  D1          1    2    1    0
 -5  D2          1    2    2    0
 -5  D3          1    2    3    0
 -5  ALL         1    2    0    0    1ALL
 -1         1 7.53294E-03-7.18561E-04-2.61268E-14
 -1         2 8.80590E-03 4.43520E-05-2.91036E-14
 -1         3 1.52476E-02 8.95670E-04-1.20140E-13
 -1         4 1.51426E-02-5.35388E-04-1.26858E-13
 -1         5 0.00000E+00 0.00000E+00 0.00000E+00
 -1         6 0.00000E+00 0.00000E+00 0.00000E+00
 -1         7 0.00000E+00 0.00000E+00 0.00000E+00
 -1         8 0.00000E+00 0.00000E+00 0.00000E+00
 -1         9 0.00000E+00 0.00000E+00 0.00000E+00
 -1        10 0.00000E+00 0.00000E+00 0.00000E+00
 -1        11 0.00000E+00 0.00000E+00 0.00000E+00
 -1        12 0.00000E+00 0.00000E+00 0.00000E+00
 -1        13 0.00000E+00 0.00000E+00 0.00000E+00
 -1        14 0.00000E+00 0.00000E+00 0.00000E+00
 -1        15 0.00000E+00 0.00000E+00 0.00000E+00
 -1        16 0.00000E+00 0.00000E+00 0.00000E+00
 -1        17 0.00000E+00 0.00000E+00 0.00000E+00
 -1        18 0.00000E+00 0.00000E+00 0.00000E+00
 -1        19 0.00000E+00 0.00000E+00 0.00000E+00
 -1        20 0.00000E+00 0.00000E+00 0.00000E+00
 -1        21 0.00000E+00 0.00000E+00 0.00000E+00
 -1        22 0.00000E+00 0.00000E+00 0.00000E+00
 -1        23 4.08526E-04-2.56725E-04 2.52755E-17
 -1        24 6.99791E-04-3.92234E-04-7.36986E-17
 -1        25 9.70556E-04-4.84240E-04-2.93365E-16
 -1        26 1.23706E-03-5.47070E-04-6.30128E-16
 -1        27 1.50417E-03-5.89866E-04-1.08005E-15
 -1        28 1.77444E-03-6.18082E-04-1.64181E-15
 -1        29 2.04947E-03-6.35626E-04-2.31506E-15
 -1        30 2.33047E-03-6.45610E-04-3.09757E-15
 -1        31 2.61851E-03-6.50765E-04-3.98824E-15
 -1        32 2.91461E-03-6.53749E-04-4.98651E-15
 -1        33 3.21977E-03-6.57384E-04-6.08851E-15
 -1        34 3.53484E-03-6.64859E-04-7.28988E-15
 -1        35 3.86028E-03-6.79856E-04-8.59504E-15
 -1        36 4.19566E-03-7.06491E-04-1.00012E-14
 -1        37 4.53910E-03-7.48914E-04-1.15083E-14
 -1        38 4.88647E-03-8.10329E-04-1.31174E-14
 -1        39 5.23105E-03-8.91253E-04-1.48293E-14
 -1        40 5.56403E-03-9.87221E-04-1.66413E-14
 -1        41 5.87673E-03-1.08690E-03-1.85617E-14
 -1        42 6.16445E-03-1.17246E-03-2.05948E-14
 -1        43 6.43036E-03-1.22398E-03-2.27444E-14
 -1        44 6.68620E-03-1.22716E-03-2.50163E-14
 -1        45 6.94820E-03-1.18009E-03-2.74161E-14
 -1        46 7.22990E-03-1.09428E-03-2.99465E-14
 -1        47 7.53692E-03-9.88980E-04-3.25996E-14
 -1        48 7.86642E-03-8.83204E-04-3.53747E-14
 -1        49 8.21046E-03-7.90234E-04-3.82765E-14
 -1        50 8.56011E-03-7.16314E-04-4.13017E-14
 -1        51 8.90816E-03-6.62155E-04-4.44468E-14
 -1        52 9.25002E-03-6.25278E-04-4.77125E-14
 -1        53 9.58351E-03-6.01971E-04-5.10775E-14
 -1        54 9.90815E-03-5.88480E-04-5.45328E-14
 -1        55 1.02245E-02-5.81586E-04-5.80764E-14
 -1        56 1.05336E-02-5.78773E-04-6.17049E-14
 -1        57 1.08367E-02-5.78206E-04-6.54202E-14
 -1        58 1.11349E-02-5.78612E-04-6.92131E-14
 -1        59 1.14294E-02-5.79159E-04-7.30720E-14
 -1        60 1.17211E-02-5.79340E-04-7.69741E-14
 -1        61 1.20106E-02-5.78875E-04-8.09288E-14
 -1        62 1.22987E-02-5.77642E-04-8.49341E-14
 -1        63 1.25857E-02-5.75620E-04-8.89895E-14
 -1        64 1.28720E-02-5.72852E-04-9.30965E-14
 -1        65 1.31579E-02-5.69414E-04-9.72550E-14
 -1        66 1.34435E-02-5.65405E-04-1.01458E-13
 -1        67 1.37290E-02-5.60928E-04-1.05680E-13
 -1        68 1.40144E-02-5.56089E-04-1.09910E-13
 -1        69 1.42999E-02-5.50990E-04-1.14169E-13
 -1        70 1.45855E-02-5.45733E-04-1.18443E-13
 -1        71 1.48712E-02-5.40418E-04-1.22744E-13
 -1        72 4.10881E-04 2.57398E-04 6.56857E-17
 -1        73 6.99591E-04 3.94874E-04 4.07660E-17
 -1        74 9.71050E-04 4.85928E-04-7.64058E-17
 -1        75 1.23783E-03 5.48645E-04-2.92101E-16
 -1        76 1.50507E-03 5.91411E-04-6.09833E-16
 -1        77 1.77543E-03 6.19599E-04-1.03133E-15
 -1        78 2.05057E-03 6.37084E-04-1.55543E-15
 -1        79 2.33174E-03 6.46950E-04-2.18157E-15
 -1        80 2.62007E-03 6.51916E-04-2.90790E-15
 -1        81 2.91670E-03 6.54635E-04-3.73619E-15
 -1        82 3.22278E-03 6.57963E-04-4.67049E-15
 -1        83 3.53937E-03 6.65182E-04-5.70778E-15
 -1        84 3.86720E-03 6.80174E-04-6.84757E-15
 -1        85 4.20619E-03 7.07427E-04-8.09082E-15
 -1        86 4.55473E-03 7.51683E-04-9.44520E-15
 -1        87 4.90881E-03 8.16953E-04-1.09153E-14
 -1        88 5.26141E-03 9.04615E-04-1.24981E-14
 -1        89 5.60277E-03 1.01068E-03-1.41947E-14
 -1        90 5.92274E-03 1.12327E-03-1.60110E-14
 -1        91 6.21526E-03 1.22257E-03-1.79507E-14
 -1        92 6.48312E-03 1.28572E-03-2.00246E-14
 -1        93 6.73941E-03 1.29595E-03-2.22229E-14
 -1        94 7.00267E-03 1.25105E-03-2.45510E-14
 -1        95 7.28826E-03 1.16449E-03-2.69928E-14
 -1        96 7.60195E-03 1.05850E-03-2.95438E-14
 -1        97 7.93970E-03 9.54408E-04-3.22087E-14
 -1        98 8.29201E-03 8.66440E-04-3.49871E-14
 -1        99 8.64884E-03 8.00604E-04-3.78695E-14
 -1       100 9.00248E-03 7.56822E-04-4.08544E-14
 -1       101 9.34835E-03 7.31769E-04-4.39394E-14
 -1       102 9.68455E-03 7.21067E-04-4.71047E-14
 -1       103 1.00109E-02 7.20526E-04-5.03496E-14
 -1       104 1.03283E-02 7.26679E-04-5.36697E-14
 -1       105 1.06380E-02 7.36889E-04-5.70778E-14
 -1       106 1.09414E-02 7.49270E-04-6.05897E-14
 -1       107 1.12398E-02 7.62542E-04-6.41864E-14
 -1       108 1.15344E-02 7.75883E-04-6.78592E-14
 -1       109 1.18261E-02 7.88799E-04-7.16093E-14
 -1       110 1.21157E-02 8.01025E-04-7.54410E-14
 -1       111 1.24037E-02 8.12453E-04-7.93307E-14
 -1       112 1.26907E-02 8.23069E-04-8.32840E-14
 -1       113 1.29770E-02 8.32924E-04-8.72757E-14
 -1       114 1.32629E-02 8.42102E-04-9.12935E-14
 -1       115 1.35485E-02 8.50702E-04-9.53525E-14
 -1       116 1.38340E-02 8.58830E-04-9.94405E-14
 -1       117 1.41194E-02 8.66594E-04-1.03554E-13
 -1       118 1.44049E-02 8.74097E-04-1.07709E-13
 -1       119 1.46905E-02 8.81442E-04-1.11901E-13
 -1       120 1.49762E-02 8.88729E-04-1.16129E-13
 -1       121 1.52404E-02 8.11378E-04-1.20600E-13
 -1       122 1.52332E-02 7.27040E-04-1.21073E-13
 -1       123 1.52260E-02 6.42632E-04-1.21521E-13
 -1       124 1.52190E-02 5.58169E-04-1.21948E-13
 -1       125 1.52121E-02 4.73679E-04-1.22358E-13
 -1       126 1.52055E-02 3.90617E-04-1.22753E-13
 -1       127 1.51989E-02 3.06131E-04-1.23131E-13
 -1       128 1.51925E-02 2.21657E-04-1.23518E-13
 -1       129 1.51864E-02 1.37187E-04-1.23935E-13
 -1       130 1.51803E-02 5.27131E-05-1.24327E-13
 -1       131 1.51745E-02-3.17715E-05-1.24723E-13
 -1       132 1.51689E-02-1.14833E-04-1.25120E-13
 -1       133 1.51634E-02-1.99321E-04-1.25518E-13
 -1       134 1.51581E-02-2.83782E-04-1.25887E-13
 -1       135 1.51529E-02-3.68188E-04-1.26224E-13
 -1       136 1.51477E-02-4.52525E-04-1.26552E-13
 -1       137 8.75241E-03 2.26385E-04-2.88554E-14
 -1       138 8.61360E-03 3.83887E-04-2.83857E-14
 -1       139 8.38237E-03 5.35058E-04-2.76802E-14
 -1       140 8.08378E-03 6.63470E-04-2.68344E-14
 -1       141 7.72597E-03 7.67342E-04-2.58700E-14
 -1       142 7.30112E-03 8.43758E-04-2.47750E-14
 -1       143 6.80928E-03 8.84403E-04-2.35442E-14
 -1       144 6.34669E-03 8.78955E-04-2.24469E-14
 -1       145 5.86000E-03 8.27581E-04-2.13415E-14
 -1       146 5.43070E-03 7.37271E-04-2.04028E-14
 -1       147 5.06561E-03 6.18063E-04-1.96432E-14
 -1       148 4.79029E-03 4.83839E-04-1.90979E-14
 -1       149 4.57104E-03 3.19326E-04-1.86969E-14
 -1       150 4.45887E-03 1.59533E-04-1.85312E-14
 -1       151 4.43277E-03-8.60319E-06-1.85592E-14
 -1       152 4.50344E-03-1.80940E-04-1.87986E-14
 -1       153 4.65900E-03-3.37349E-04-1.92112E-14
 -1       154 4.90806E-03-4.86360E-04-1.98226E-14
 -1       155 5.25080E-03-6.19063E-04-2.06405E-14
 -1       156 5.66428E-03-7.21194E-04-2.16166E-14
 -1       157 6.13418E-03-7.86632E-04-2.27358E-14
 -1       158 6.58906E-03-8.06223E-04-2.38230E-14
 -1       159 7.05779E-03-7.85453E-04-2.49578E-14
 -1       160 7.95186E-03-6.15727E-04-2.71526E-14
 -1       161 8.30425E-03-4.80589E-04-2.80144E-14
 -1       162 8.57033E-03-3.23498E-04-2.86484E-14
 -1       163 8.74483E-03-1.43327E-04-2.90363E-14
 -1       164 2.40628E-04-1.22308E-04-2.60852E-17
 -1       165 2.25911E-04-9.10845E-05-4.16232E-17
 -1       166 2.20131E-04-6.91108E-05-4.95209E-17
 -1       167 2.17089E-04-5.16103E-05-5.33427E-17
 -1       168 2.15269E-04-3.69699E-05-5.47116E-17
 -1       169 2.14117E-04-2.37272E-05-5.45625E-17
 -1       170 2.13477E-04-1.14919E-05-5.36883E-17
 -1       171 2.13277E-04 2.66727E-07-5.24212E-17
 -1       172 2.13499E-04 1.20371E-05-5.06458E-17
 -1       173 2.14164E-04 2.43109E-05-4.80132E-17
 -1       174 2.15319E-04 3.73941E-05-4.43879E-17
 -1       175 2.17200E-04 5.24057E-05-3.89330E-17
 -1       176 2.20297E-04 7.01351E-05-3.05305E-17
 -1       177 2.26082E-04 9.24698E-05-1.75302E-17
 -1       178 2.39562E-04 1.24362E-04 2.98494E-18
 -1       179 2.97040E-04 1.81992E-04 2.56041E-17
 -1       180 4.68201E-04-2.57270E-04-6.99717E-17
 -1       181 7.66984E-04-3.70536E-04-2.50291E-16
 -1       182 1.05250E-03-4.47472E-04-5.42108E-16
 -1       183 1.33281E-03-4.99681E-04-9.44469E-16
 -1       184 1.61191E-03-5.34170E-04-1.45668E-15
 -1       185 1.89230E-03-5.55711E-04-2.07765E-15
 -1       186 2.17568E-03-5.67866E-04-2.80670E-15
 -1       187 2.46334E-03-5.73567E-04-3.64320E-15
 -1       188 2.75633E-03-5.75503E-04-4.58541E-15
 -1       189 3.05553E-03-5.76399E-04-5.63222E-15
 -1       190 3.36173E-03-5.79276E-04-6.78060E-15
 -1       191 3.67542E-03-5.87644E-04-8.02779E-15
 -1       192 3.99670E-03-6.05597E-04-9.37788E-15
 -1       193 4.32495E-03-6.37649E-04-1.08281E-14
 -1       194 4.65845E-03-6.88103E-04-1.23793E-14
 -1       195 4.99410E-03-7.59666E-04-1.40308E-14
 -1       196 5.32735E-03-8.51194E-04-1.57852E-14
 -1       197 5.65289E-03-9.55054E-04-1.76455E-14
 -1       198 5.96629E-03-1.05566E-03-1.96184E-14
 -1       199 6.26642E-03-1.13153E-03-2.17046E-14
 -1       200 6.55720E-03-1.16236E-03-2.39121E-14
 -1       201 6.84687E-03-1.13830E-03-2.62453E-14
 -1       202 7.14422E-03-1.06519E-03-2.87071E-14
 -1       203 7.45457E-03-9.61448E-04-3.12956E-14
 -1       204 7.77809E-03-8.49094E-04-3.40042E-14
 -1       205 8.11104E-03-7.45719E-04-3.68366E-14
 -1       206 8.44822E-03-6.61079E-04-3.97913E-14
 -1       207 8.78491E-03-5.97892E-04-4.28643E-14
 -1       208 9.11772E-03-5.54393E-04-4.60527E-14
 -1       209 9.44474E-03-5.26784E-04-4.93524E-14
 -1       210 9.76525E-03-5.10881E-04-5.27459E-14
 -1       211 1.00793E-02-5.02954E-04-5.62299E-14
 -1       212 1.03875E-02-5.00032E-04-5.98019E-14
 -1       213 1.06906E-02-4.99919E-04-6.34579E-14
 -1       214 1.09894E-02-5.01084E-04-6.71961E-14
 -1       215 1.12847E-02-5.02518E-04-7.10067E-14
 -1       216 1.15774E-02-5.03599E-04-7.48702E-14
 -1       217 1.18680E-02-5.03981E-04-7.87830E-14
 -1       218 1.21570E-02-5.03504E-04-8.27512E-14
 -1       219 1.24448E-02-5.02132E-04-8.67733E-14
 -1       220 1.27318E-02-4.99904E-04-9.08475E-14
 -1       221 1.30183E-02-4.96904E-04-9.49653E-14
 -1       222 1.33043E-02-4.93237E-04-9.91257E-14
 -1       223 1.35902E-02-4.89017E-04-1.03325E-13
 -1       224 1.38759E-02-4.84358E-04-1.07546E-13
 -1       225 1.41616E-02-4.79373E-04-1.11784E-13
 -1       226 1.44472E-02-4.74171E-04-1.16045E-13
 -1       227 1.47329E-02-4.68858E-04-1.20326E-13
 -1       228 6.03878E-04 3.22633E-04-2.01289E-17
 -1       229 8.93944E-04 4.18670E-04-1.53384E-16
 -1       230 1.17497E-03 4.84218E-04-3.81504E-16
 -1       231 1.45288E-03 5.28456E-04-7.08651E-16
 -1       232 1.73107E-03 5.57216E-04-1.13705E-15
 -1       233 2.01169E-03 5.74614E-04-1.66781E-15
 -1       234 2.29626E-03 5.83856E-04-2.29964E-15
 -1       235 2.58600E-03 5.87706E-04-3.03173E-15
 -1       236 2.88198E-03 5.88822E-04-3.86467E-15
 -1       237 3.18518E-03 5.90035E-04-4.80004E-15
 -1       238 3.49643E-03 5.94614E-04-5.83893E-15
 -1       239 3.81629E-03 6.06472E-04-6.97939E-15
 -1       240 4.14472E-03 6.30239E-04-8.22409E-15
 -1       241 4.48076E-03 6.70999E-04-9.57610E-15
 -1       242 4.82199E-03 7.33396E-04-1.10412E-14
 -1       243 5.16417E-03 8.19760E-04-1.26173E-14
 -1       244 5.50147E-03 9.27190E-04-1.43073E-14
 -1       245 5.82757E-03 1.04447E-03-1.61137E-14
 -1       246 6.13822E-03 1.15125E-03-1.80449E-14
 -1       247 6.43421E-03 1.22255E-03-2.01089E-14
 -1       248 6.72259E-03 1.23870E-03-2.23016E-14
 -1       249 7.01414E-03 1.19556E-03-2.46202E-14
 -1       250 7.31816E-03 1.10684E-03-2.70546E-14
 -1       251 7.63832E-03 9.96552E-04-2.96016E-14
 -1       252 7.97236E-03 8.88007E-04-3.22613E-14
 -1       253 8.31460E-03 7.96656E-04-3.50325E-14
 -1       254 8.65887E-03 7.28888E-04-3.79097E-14
 -1       255 9.00027E-03 6.84466E-04-4.08870E-14
 -1       256 9.33573E-03 6.59699E-04-4.39624E-14
 -1       257 9.66385E-03 6.49835E-04-4.71208E-14
 -1       258 9.98441E-03 6.50396E-04-5.03618E-14
 -1       259 1.02979E-02 6.57714E-04-5.36845E-14
 -1       260 1.06052E-02 6.69034E-04-5.70946E-14
 -1       261 1.09072E-02 6.82408E-04-6.06011E-14
 -1       262 1.12051E-02 6.96530E-04-6.41943E-14
 -1       263 1.14996E-02 7.10576E-04-6.78620E-14
 -1       264 1.17914E-02 7.24060E-04-7.16018E-14
 -1       265 1.20814E-02 7.36736E-04-7.54198E-14
 -1       266 1.23699E-02 7.48509E-04-7.93049E-14
 -1       267 1.26573E-02 7.59388E-04-8.32488E-14
 -1       268 1.29440E-02 7.69435E-04-8.72409E-14
 -1       269 1.32303E-02 7.78750E-04-9.12655E-14
 -1       270 1.35162E-02 7.87443E-04-9.53231E-14
 -1       271 1.38019E-02 7.95631E-04-9.94121E-14
 -1       272 1.40876E-02 8.03428E-04-1.03520E-13
 -1       273 1.43732E-02 8.10944E-04-1.07670E-13
 -1       274 1.46589E-02 8.18286E-04-1.11854E-13
 -1       275 1.49446E-02 8.25561E-04-1.16074E-13
 -1       276 1.49893E-02 7.62899E-04-1.17166E-13
 -1       277 1.49821E-02 6.78570E-04-1.17618E-13
 -1       278 1.49750E-02 5.94219E-04-1.18057E-13
 -1       279 1.49680E-02 5.09861E-04-1.18480E-13
 -1       280 1.49613E-02 4.26939E-04-1.18880E-13
 -1       281 1.49547E-02 3.42602E-04-1.19278E-13
 -1       282 1.49483E-02 2.58280E-04-1.19675E-13
 -1       283 1.49420E-02 1.73968E-04-1.20074E-13
 -1       284 1.49359E-02 8.96555E-05-1.20472E-13
 -1       285 1.49299E-02 5.33393E-06-1.20864E-13
 -1       286 1.49243E-02-7.75733E-05-1.21243E-13
 -1       287 1.49187E-02-1.61924E-04-1.21616E-13
 -1       288 1.49133E-02-2.46281E-04-1.21976E-13
 -1       289 1.49080E-02-3.30630E-04-1.22322E-13
 -1       290 1.48204E-02-3.99759E-04-1.21331E-13
 -1       291 8.81700E-03 8.88392E-05-3.03589E-14
 -1       292 8.67394E-03 1.96122E-04-2.96934E-14
 -1       293 8.42773E-03 3.22555E-04-2.89752E-14
 -1       294 8.10879E-03 4.84490E-04-2.79709E-14
 -1       295 7.75185E-03 6.51370E-04-2.68721E-14
 -1       296 7.37488E-03 8.08269E-04-2.56356E-14
 -1       297 6.96464E-03 9.34377E-04-2.42841E-14
 -1       298 6.58886E-03 9.63911E-04-2.28844E-14
 -1       299 6.20788E-03 9.08489E-04-2.15725E-14
 -1       300 5.81833E-03 7.66248E-04-2.03182E-14
 -1       301 5.40482E-03 5.91526E-04-1.94377E-14
 -1       302 5.03961E-03 4.24498E-04-1.87470E-14
 -1       303 4.73579E-03 2.54828E-04-1.80841E-14
 -1       304 4.50764E-03 1.49001E-04-1.79149E-14
 -1       305 4.40909E-03 5.35053E-05-1.78392E-14
 -1       306 4.43812E-03-3.51682E-05-1.78885E-14
 -1       307 4.59840E-03-1.46993E-04-1.83452E-14
 -1       308 4.86111E-03-2.80684E-04-1.89174E-14
 -1       309 5.21097E-03-4.48008E-04-1.97233E-14
 -1       310 5.62245E-03-6.23840E-04-2.06924E-14
 -1       311 6.03887E-03-7.86079E-04-2.18872E-14
 -1       312 6.41074E-03-8.71681E-04-2.32267E-14
 -1       313 6.77750E-03-8.76048E-04-2.45530E-14
 -1       314 7.15745E-03-7.87941E-04-2.59967E-14
 -1       315 7.58998E-03-6.28029E-04-2.72118E-14
 -1       316 7.99261E-03-4.44844E-04-2.83541E-14
 -1       317 8.35764E-03-2.69605E-04-2.92660E-14
 -1       318 8.64636E-03-1.22567E-04-2.98922E-14
 -1       319 8.81127E-03-2.00952E-06-3.03226E-14
 -1       320 4.56787E-04-1.57152E-04-1.67865E-16
 -1       321 4.75492E-04-2.05491E-04-1.43487E-16
 -1       322 4.40558E-04-8.74524E-05-1.87753E-16
 -1       323 4.36749E-04-5.97389E-05-1.89580E-16
 -1       324 4.34442E-04-3.46012E-05-1.88563E-16
 -1       325 4.33354E-04-1.08981E-05-1.85737E-16
 -1       326 4.33390E-04 1.23595E-05-1.81248E-16
 -1       327 4.34556E-04 3.61200E-05-1.74638E-16
 -1       328 4.36903E-04 6.09368E-05-1.65487E-16
 -1       329 4.40812E-04 8.88149E-05-1.52690E-16
 -1       330 4.47001E-04 1.20900E-04-1.34610E-16
 -1       331 4.57317E-04 1.59613E-04-1.08922E-16
 -1       332 4.77102E-04 2.09503E-04-7.18962E-17
 -1       333 5.32641E-04 2.62020E-04-5.19434E-17
 -1       334 8.26250E-04 3.59948E-04-1.94628E-16
 -1       335 8.65967E-04-3.42568E-04-4.44960E-16
 -1       336 1.15440E-03-4.04910E-04-8.03695E-16
 -1       337 1.44027E-03-4.46944E-04-1.26885E-15
 -1       338 1.72538E-03-4.73830E-04-1.84049E-15
 -1       339 2.01122E-03-4.89500E-04-2.51847E-15
 -1       340 2.29900E-03-4.97115E-04-3.30202E-15
 -1       341 2.58969E-03-4.99424E-04-4.19027E-15
 -1       342 2.88415E-03-4.99069E-04-5.18230E-15
 -1       343 3.18315E-03-4.98850E-04-6.27661E-15
 -1       344 3.48739E-03-5.01960E-04-7.46980E-15
 -1       345 3.79752E-03-5.12170E-04-8.76281E-15
 -1       346 4.11406E-03-5.33873E-04-1.01568E-14
 -1       347 4.43720E-03-5.71824E-04-1.16507E-14
 -1       348 4.76653E-03-6.30334E-04-1.32448E-14
 -1       349 5.10043E-03-7.11558E-04-1.49390E-14
 -1       350 5.43559E-03-8.12699E-04-1.67391E-14
 -1       351 5.76707E-03-9.22866E-04-1.86481E-14
 -1       352 6.09007E-03-1.02168E-03-2.06708E-14
 -1       353 6.40333E-03-1.08338E-03-2.28122E-14
 -1       354 6.71153E-03-1.08789E-03-2.50784E-14
 -1       355 7.02292E-03-1.03246E-03-2.74723E-14
 -1       356 7.34357E-03-9.33446E-04-2.99976E-14
 -1       357 7.67372E-03-8.16388E-04-3.26425E-14
 -1       358 8.00922E-03-7.03808E-04-3.54074E-14
 -1       359 8.34494E-03-6.09181E-04-3.82938E-14
 -1       360 8.67713E-03-5.37218E-04-4.12983E-14
 -1       361 9.00386E-03-4.86902E-04-4.44206E-14
 -1       362 9.32452E-03-4.54492E-04-4.76482E-14
 -1       363 9.63926E-03-4.35540E-04-5.09790E-14
 -1       364 9.94860E-03-4.25941E-04-5.44010E-14
 -1       365 1.02532E-02-4.22349E-04-5.79149E-14
 -1       366 1.05537E-02-4.22244E-04-6.15142E-14
 -1       367 1.08509E-02-4.23835E-04-6.51981E-14
 -1       368 1.11453E-02-4.25926E-04-6.89579E-14
 -1       369 1.14375E-02-4.27761E-04-7.27794E-14
 -1       370 1.17279E-02-4.28905E-04-7.66559E-14
 -1       371 1.20170E-02-4.29146E-04-8.05853E-14
 -1       372 1.23050E-02-4.28416E-04-8.45695E-14
 -1       373 1.25923E-02-4.26742E-04-8.86049E-14
 -1       374 1.28790E-02-4.24204E-04-9.26911E-14
 -1       375 1.31653E-02-4.20910E-04-9.68186E-14
 -1       376 1.34514E-02-4.16981E-04-1.00984E-13
 -1       377 1.37373E-02-4.12539E-04-1.05185E-13
 -1       378 1.40231E-02-4.07703E-04-1.09407E-13
 -1       379 1.43088E-02-4.02586E-04-1.13646E-13
 -1       380 1.45646E-02-4.01203E-04-1.17478E-13
 -1       381 1.11375E-03 4.27990E-04-4.29707E-16
 -1       382 1.39766E-03 4.74068E-04-7.61588E-16
 -1       383 1.68063E-03 5.03973E-04-1.19309E-15
 -1       384 1.96458E-03 5.21926E-04-1.72564E-15
 -1       385 2.25099E-03 5.31216E-04-2.35874E-15
 -1       386 2.54101E-03 5.34644E-04-3.09116E-15
 -1       387 2.83564E-03 5.34858E-04-3.92426E-15
 -1       388 3.13576E-03 5.34642E-04-4.85808E-15
 -1       389 3.44216E-03 5.37186E-04-5.89433E-15
 -1       390 3.75550E-03 5.46321E-04-7.03143E-15
 -1       391 4.07616E-03 5.66643E-04-8.27231E-15
 -1       392 4.40406E-03 6.03351E-04-9.61929E-15
 -1       393 4.73828E-03 6.61527E-04-1.10768E-14
 -1       394 5.07666E-03 7.44465E-04-1.26440E-14
 -1       395 5.41540E-03 8.50826E-04-1.43229E-14
 -1       396 5.74924E-03 9.71023E-04-1.61172E-14
 -1       397 6.07320E-03 1.08517E-03-1.80371E-14
 -1       398 6.38568E-03 1.16627E-03-2.00881E-14
 -1       399 6.69101E-03 1.19073E-03-2.22697E-14
 -1       400 6.99797E-03 1.15126E-03-2.45767E-14
 -1       401 7.31438E-03 1.06150E-03-2.70032E-14
 -1       402 7.64256E-03 9.47695E-04-2.95416E-14
 -1       403 7.97946E-03 8.35407E-04-3.21937E-14
 -1       404 8.31978E-03 7.41213E-04-3.49544E-14
 -1       405 8.65875E-03 6.71712E-04-3.78222E-14
 -1       406 8.99320E-03 6.26468E-04-4.07892E-14
 -1       407 9.32151E-03 6.01521E-04-4.38558E-14
 -1       408 9.64320E-03 5.91889E-04-4.70075E-14
 -1       409 9.95846E-03 5.92922E-04-5.02427E-14
 -1       410 1.02679E-02 6.00832E-04-5.35624E-14
 -1       411 1.05722E-02 6.12779E-04-5.69684E-14
 -1       412 1.08722E-02 6.26762E-04-6.04690E-14
 -1       413 1.11687E-02 6.41444E-04-6.40567E-14
 -1       414 1.14624E-02 6.55981E-04-6.77194E-14
 -1       415 1.17539E-02 6.69886E-04-7.14515E-14
 -1       416 1.20436E-02 6.82910E-04-7.52586E-14
 -1       417 1.23321E-02 6.94966E-04-7.91350E-14
 -1       418 1.26197E-02 7.06069E-04-8.30736E-14
 -1       419 1.29066E-02 7.16290E-04-8.70610E-14
 -1       420 1.31930E-02 7.25736E-04-9.10872E-14
 -1       421 1.34790E-02 7.34525E-04-9.51433E-14
 -1       422 1.37649E-02 7.42780E-04-9.92289E-14
 -1       423 1.40507E-02 7.50619E-04-1.03337E-13
 -1       424 1.43364E-02 7.58158E-04-1.07478E-13
 -1       425 1.46221E-02 7.65506E-04-1.11659E-13
 -1       426 1.48057E-02 7.64207E-04-1.14407E-13
 -1       427 1.47240E-02 5.45912E-04-1.14609E-13
 -1       428 1.47311E-02 6.30184E-04-1.14177E-13
 -1       429 1.47684E-02 6.97192E-04-1.14295E-13
 -1       430 1.47173E-02 4.63099E-04-1.15020E-13
 -1       431 1.47106E-02 3.78894E-04-1.15424E-13
 -1       432 1.47040E-02 2.94725E-04-1.15824E-13
 -1       433 1.46977E-02 2.10581E-04-1.16225E-13
 -1       434 1.46915E-02 1.26445E-04-1.16621E-13
 -1       435 1.46855E-02 4.23010E-05-1.17010E-13
 -1       436 1.46797E-02-4.04412E-05-1.17381E-13
 -1       437 1.46740E-02-1.24645E-04-1.17745E-13
 -1       438 1.46685E-02-2.08885E-04-1.18095E-13
 -1       439 1.46632E-02-2.93157E-04-1.18443E-13
 -1       440 8.54637E-03 1.94285E-04-3.05436E-14
 -1       441 8.85104E-03 4.43032E-05-3.15202E-14
 -1       442 8.75067E-03 1.12584E-04-3.12188E-14
 -1       443 8.21935E-03 3.43723E-04-2.93448E-14
 -1       444 7.86254E-03 5.17438E-04-2.82125E-14
 -1       445 4.46596E-04-1.19028E-04-1.81340E-16
 -1       446 7.16094E-03 8.73628E-04-2.54263E-14
 -1       447 6.73467E-03 9.96566E-04-2.34189E-14
 -1       448 6.44839E-03 9.82405E-04-2.20902E-14
 -1       449 6.08877E-03 8.63574E-04-2.05676E-14
 -1       450 5.64060E-03 6.32635E-04-1.91007E-14
 -1       451 5.26846E-03 4.46461E-04-1.83935E-14
 -1       452 4.94619E-03 2.88627E-04-1.77418E-14
 -1       453 4.58931E-03 1.32327E-04-1.70882E-14
 -1       454 4.43221E-03 7.06207E-05-1.71174E-14
 -1       455 4.38750E-03 1.84709E-05-1.70530E-14
 -1       456 4.51112E-03-5.10810E-05-1.73691E-14
 -1       457 4.74288E-03-1.40983E-04-1.77797E-14
 -1       458 5.08638E-03-2.91965E-04-1.85306E-14
 -1       459 5.42509E-03-4.64086E-04-1.94500E-14
 -1       460 5.86754E-03-6.93938E-04-2.08070E-14
 -1       461 6.28351E-03-8.68066E-04-2.25250E-14
 -1       462 6.58485E-03-9.18027E-04-2.38894E-14
 -1       463 6.91193E-03-8.71991E-04-2.54857E-14
 -1       464 7.35248E-03-6.84649E-04-2.73826E-14
 -1       465 7.69399E-03-5.08258E-04-2.85368E-14
 -1       466 8.12428E-03-2.86238E-04-2.99053E-14
 -1       467 8.49240E-03-1.28767E-04-3.06490E-14
 -1       468 8.74350E-03-1.89188E-05-3.14662E-14
 -1       469 7.49490E-03 7.16665E-04-2.66993E-14
 -1       470 8.84656E-03 7.15432E-05-3.23862E-14
 -1       471 7.12639E-03-7.94952E-04-2.68491E-14
 -1       472 4.74001E-03 1.79435E-04-1.67417E-14
 -1       473 6.94345E-03 9.64014E-04-2.45334E-14
 -1       474 6.08147E-03-7.98129E-04-2.14171E-14
 -1       475 9.34683E-04 3.29226E-04-3.83279E-16
 -1       476 6.63276E-04-6.86184E-05-4.02703E-16
 -1       477 6.68666E-04-1.06812E-04-4.01565E-16
 -1       478 6.59288E-04 1.06798E-06-3.92369E-16
 -1       479 6.60365E-04 3.53018E-05-3.81517E-16
 -1       480 6.63472E-04 7.02765E-05-3.66613E-16
 -1       481 6.68993E-04 1.08609E-04-3.46155E-16
 -1       482 6.77579E-04 1.51387E-04-3.18691E-16
 -1       483 6.90811E-04 2.00713E-04-2.80991E-16
 -1       484 1.22257E-03 3.83031E-04-6.89536E-16
 -1       485 9.79875E-04-3.10684E-04-6.59103E-16
 -1       486 7.36730E-03 7.74699E-04-2.67868E-14
 -1       487 1.26749E-03-3.58844E-04-1.07999E-15
 -1       488 1.55486E-03-3.91079E-04-1.60450E-15
 -1       489 1.84216E-03-4.10879E-04-2.23319E-15
 -1       490 2.12995E-03-4.21339E-04-2.96578E-15
 -1       491 2.41884E-03-4.25165E-04-3.80162E-15
 -1       492 2.70948E-03-4.24870E-04-4.73975E-15
 -1       493 3.00249E-03-4.22979E-04-5.77965E-15
 -1       494 3.29864E-03-4.22263E-04-6.91954E-15
 -1       495 3.59885E-03-4.25946E-04-8.15696E-15
 -1       496 3.90434E-03-4.37880E-04-9.49491E-15
 -1       497 4.21665E-03-4.62604E-04-1.09327E-14
 -1       498 4.53752E-03-5.05151E-04-1.24689E-14
 -1       499 4.86827E-03-5.70300E-04-1.41043E-14
 -1       500 5.20848E-03-6.60647E-04-1.58416E-14
 -1       501 5.55443E-03-7.72653E-04-1.76881E-14
 -1       502 5.89866E-03-8.91729E-04-1.96443E-14
 -1       503 6.23356E-03-9.89560E-04-2.17201E-14
 -1       504 6.55841E-03-1.03213E-03-2.39202E-14
 -1       505 6.88181E-03-1.00094E-03-2.62453E-14
 -1       506 7.21386E-03-9.07215E-04-2.87039E-14
 -1       507 7.55648E-03-7.82913E-04-3.12867E-14
 -1       508 7.90317E-03-6.59466E-04-3.39899E-14
 -1       509 8.24596E-03-5.55085E-04-3.68120E-14
 -1       510 8.58006E-03-4.75768E-04-3.97506E-14
 -1       511 8.90438E-03-4.20184E-04-4.28045E-14
 -1       512 9.21994E-03-3.84059E-04-4.59689E-14
 -1       513 9.52848E-03-3.62561E-04-4.92330E-14
 -1       514 9.83164E-03-3.51332E-04-5.25929E-14
 -1       515 1.01307E-02-3.46830E-04-5.60461E-14
 -1       516 1.04267E-02-3.46363E-04-5.95874E-14
 -1       517 1.07202E-02-3.47989E-04-6.32155E-14
 -1       518 1.10119E-02-3.50375E-04-6.69232E-14
 -1       519 1.13022E-02-3.52660E-04-7.07013E-14
 -1       520 1.15913E-02-3.54326E-04-7.45389E-14
 -1       521 1.18794E-02-3.55102E-04-7.84320E-14
 -1       522 1.21669E-02-3.54884E-04-8.23778E-14
 -1       523 1.24539E-02-3.53674E-04-8.63766E-14
 -1       524 1.27405E-02-3.51539E-04-9.04298E-14
 -1       525 1.30268E-02-3.48584E-04-9.45223E-14
 -1       526 1.33129E-02-3.44930E-04-9.86569E-14
 -1       527 1.35988E-02-3.40701E-04-1.02828E-13
 -1       528 1.38847E-02-3.36019E-04-1.07030E-13
 -1       529 1.41705E-02-3.30999E-04-1.11251E-13
 -1       530 8.68524E-03 1.32919E-04-3.23003E-14
 -1       531 1.79618E-03 4.41856E-04-1.59413E-15
 -1       532 2.08348E-03 4.54323E-04-2.19518E-15
 -1       533 2.37230E-03 4.59496E-04-2.89491E-15
 -1       534 2.66341E-03 4.59973E-04-3.69290E-15
 -1       535 2.95756E-03 4.58336E-04-4.59088E-15
 -1       536 3.25551E-03 4.57408E-04-5.59000E-15
 -1       537 3.55809E-03 4.60504E-04-6.68947E-15
 -1       538 3.86631E-03 4.71647E-04-7.88915E-15
 -1       539 4.18133E-03 4.95669E-04-9.19362E-15
 -1       540 4.50444E-03 5.38038E-04-1.06047E-14
 -1       541 4.83655E-03 6.04082E-04-1.21224E-14
 -1       542 5.17732E-03 6.97066E-04-1.37485E-14
 -1       543 5.52349E-03 8.14770E-04-1.54871E-14
 -1       544 5.86843E-03 9.43857E-04-1.73472E-14
 -1       545 6.20473E-03 1.05749E-03-1.93350E-14
 -1       546 6.53036E-03 1.12107E-03-2.14533E-14
 -1       547 6.85235E-03 1.11124E-03-2.37014E-14
 -1       548 7.18128E-03 1.03295E-03-2.60752E-14
 -1       549 7.52134E-03 9.15688E-04-2.85666E-14
 -1       550 7.86803E-03 7.93139E-04-3.11703E-14
 -1       551 8.21365E-03 6.87763E-04-3.38824E-14
 -1       552 8.55270E-03 6.08712E-04-3.67030E-14
 -1       553 8.88307E-03 5.56101E-04-3.96216E-14
 -1       554 9.20495E-03 5.25806E-04-4.26422E-14
 -1       555 9.51953E-03 5.12532E-04-4.57584E-14
 -1       556 9.82811E-03 5.11298E-04-4.89565E-14
 -1       557 1.01318E-02 5.17997E-04-5.22423E-14
 -1       558 1.04317E-02 5.29501E-04-5.56108E-14
 -1       559 1.07283E-02 5.43565E-04-5.90703E-14
 -1       560 1.10224E-02 5.58655E-04-6.26220E-14
 -1       561 1.13145E-02 5.73781E-04-6.62554E-14
 -1       562 1.16050E-02 5.88347E-04-6.99579E-14
 -1       563 1.18942E-02 6.02036E-04-7.37262E-14
 -1       564 1.21824E-02 6.14717E-04-7.75699E-14
 -1       565 1.24698E-02 6.26378E-04-8.14804E-14
 -1       566 1.27567E-02 6.37082E-04-8.54466E-14
 -1       567 1.30432E-02 6.46929E-04-8.94543E-14
 -1       568 1.33294E-02 6.56042E-04-9.34990E-14
 -1       569 1.36154E-02 6.64549E-04-9.75717E-14
 -1       570 1.39013E-02 6.72572E-04-1.01670E-13
 -1       571 1.41871E-02 6.80232E-04-1.05792E-13
 -1       572 1.44728E-02 6.87642E-04-1.09957E-13
 -1       573 1.44665E-02 4.14994E-04-1.11579E-13
 -1       574 1.44599E-02 3.30970E-04-1.11982E-13
 -1       575 1.44801E-02 5.81824E-04-1.10751E-13
 -1       576 1.44732E-02 4.98374E-04-1.11171E-13
 -1       577 1.44535E-02 2.47000E-04-1.12383E-13
 -1       578 1.44472E-02 1.63059E-04-1.12780E-13
 -1       579 1.44411E-02 7.91176E-05-1.13166E-13
 -1       580 1.44352E-02-3.42961E-06-1.13534E-13
 -1       581 1.44294E-02-8.74532E-05-1.13891E-13
 -1       582 1.44238E-02-1.71545E-04-1.14242E-13
 -1       583 1.44184E-02-2.55708E-04-1.14586E-13
 -1       584 8.85495E-03 2.70601E-05-3.30687E-14
 -1       585 1.50952E-03 4.19224E-04-1.09244E-15
 -1       586 8.38294E-03 2.49687E-04-3.12078E-14
 -1       587 8.62450E-03-5.27373E-05-3.23254E-14
 -1       588 7.14974E-04-2.39270E-04-3.73050E-16
 -1       589 8.08899E-03 3.85170E-04-3.00304E-14
 -1       590 4.88451E-03-1.87530E-04-1.73301E-14
 -1       591 5.40405E-03 4.94247E-04-1.78255E-14
 -1       592 6.60238E-04-3.31316E-05-3.99451E-16
 -1       593 5.87759E-03 7.59564E-04-1.92203E-14
 -1       594 6.58171E-03 1.01682E-03-2.25332E-14
 -1       595 4.44576E-03 7.22444E-05-1.61016E-14
 -1       596 6.27925E-03 9.48876E-04-2.09904E-14
 -1       597 5.11513E-03 3.44116E-04-1.71927E-14
 -1       598 4.35920E-03 3.58207E-05-1.60409E-14
 -1       599 4.39539E-03-3.39793E-06-1.62338E-14
 -1       600 4.57715E-03-6.71422E-05-1.66595E-14
 -1       601 5.25675E-03-3.65805E-04-1.82187E-14
 -1       602 8.33224E-03-1.68659E-04-3.15543E-14
 -1       603 5.64449E-03-5.74043E-04-1.95138E-14
 -1       604 6.42601E-03-9.19648E-04-2.30627E-14
 -1       605 6.72371E-03-9.29184E-04-2.47428E-14
 -1       606 7.53938E-03-5.76820E-04-2.89017E-14
 -1       607 7.91408E-03-3.70438E-04-3.02863E-14
 -1       608 7.06014E-04 2.78937E-04-1.95797E-16
 -1       609 7.68443E-03 5.99753E-04-2.83102E-14
 -1       610 6.77031E-04-1.49218E-04-3.94741E-16
 -1       611 8.82377E-03 9.45811E-05-3.34838E-14
 -1       612 8.80180E-03-1.44157E-06-3.39423E-14
 -1       613 1.43635E-02-3.29141E-04-1.14122E-13
 -1       614 6.93029E-03-8.89069E-04-2.60727E-14
 -1       615 8.91409E-03 5.03232E-05-3.39507E-14
 -1       616 5.62497E-03 6.36532E-04-1.79239E-14
 -1       617 4.54021E-03 1.10062E-04-1.57595E-14
 -1       618 7.15974E-03 8.92647E-04-2.58601E-14
 -1       619 6.78144E-03 1.01851E-03-2.36182E-14
 -1       620 5.84276E-03-6.93419E-04-2.00937E-14
 -1       621 8.94172E-04 6.71741E-05-6.48136E-16
 -1       622 8.91020E-04 2.28036E-05-6.68502E-16
 -1       623 9.10625E-04 1.64152E-04-5.84277E-16
 -1       624 9.25461E-04 2.20570E-04-5.36135E-16
 -1       625 1.05217E-03 2.94294E-04-6.01444E-16
 -1       626 4.66078E-03-1.17737E-04-1.60889E-14
 -1       627 7.54931E-03 7.08643E-04-2.82130E-14
 -1       628 1.33909E-03 3.35059E-04-9.76480E-16
 -1       629 6.08960E-03 8.90460E-04-1.96958E-14
 -1       630 1.38639E-03-3.09886E-04-1.37152E-15
 -1       631 1.67326E-03-3.33204E-04-1.95221E-15
 -1       632 1.96033E-03-3.46664E-04-2.63512E-15
 -1       633 2.24752E-03-3.52657E-04-3.41960E-15
 -1       634 2.53498E-03-3.53441E-04-4.30534E-15
 -1       635 2.82303E-03-3.51215E-04-5.29153E-15
 -1       636 3.11219E-03-3.48273E-04-6.37751E-15
 -1       637 3.40329E-03-3.47180E-04-7.56083E-15
 -1       638 3.69768E-03-3.50968E-04-8.84398E-15
 -1       639 3.99743E-03-3.63360E-04-1.02249E-14
 -1       640 4.30548E-03-3.88993E-04-1.17040E-14
 -1       641 4.62560E-03-4.33570E-04-1.32818E-14
 -1       642 4.96141E-03-5.03778E-04-1.49583E-14
 -1       643 5.31334E-03-6.04425E-04-1.67393E-14
 -1       644 5.67707E-03-7.33812E-04-1.86298E-14
 -1       645 6.03858E-03-8.68996E-04-2.06370E-14
 -1       646 6.38838E-03-9.65394E-04-2.27670E-14
 -1       647 6.72842E-03-9.75056E-04-2.50251E-14
 -1       648 7.07467E-03-8.90430E-04-2.74141E-14
 -1       649 7.43416E-03-7.52452E-04-2.99353E-14
 -1       650 7.79851E-03-6.11600E-04-3.25795E-14
 -1       651 8.15439E-03-4.94711E-04-3.53413E-14
 -1       652 8.49476E-03-4.09201E-04-3.82179E-14
 -1       653 8.81887E-03-3.50958E-04-4.12060E-14
 -1       654 9.12990E-03-3.13574E-04-4.43062E-14
 -1       655 9.43169E-03-2.91220E-04-4.75057E-14
 -1       656 9.72743E-03-2.79250E-04-5.08037E-14
 -1       657 1.00194E-02-2.74117E-04-5.41951E-14
 -1       658 1.03091E-02-2.73180E-04-5.76783E-14
 -1       659 1.05974E-02-2.74527E-04-6.12479E-14
 -1       660 1.08849E-02-2.76816E-04-6.49046E-14
 -1       661 1.11718E-02-2.79153E-04-6.86363E-14
 -1       662 1.14584E-02-2.80981E-04-7.24320E-14
 -1       663 1.17448E-02-2.81987E-04-7.62880E-14
 -1       664 1.20310E-02-2.82031E-04-8.01966E-14
 -1       665 1.23171E-02-2.81089E-04-8.41610E-14
 -1       666 1.26031E-02-2.79210E-04-8.81781E-14
 -1       667 1.28890E-02-2.76486E-04-9.22405E-14
 -1       668 1.31749E-02-2.73030E-04-9.63415E-14
 -1       669 1.34607E-02-2.68962E-04-1.00485E-13
 -1       670 1.37465E-02-2.64401E-04-1.04657E-13
 -1       671 1.40323E-02-2.59462E-04-1.08859E-13
 -1       672 8.17710E-03-2.55001E-04-3.21965E-14
 -1       673 1.91369E-03 3.78009E-04-2.01747E-15
 -1       674 2.77886E-03 3.85902E-04-4.31245E-15
 -1       675 3.06970E-03 3.83130E-04-5.27492E-15
 -1       676 3.36284E-03 3.81961E-04-6.33694E-15
 -1       677 3.65941E-03 3.85618E-04-7.49919E-15
 -1       678 3.96112E-03 3.98058E-04-8.76228E-15
 -1       679 4.27047E-03 4.24168E-04-1.01287E-14
 -1       680 4.59071E-03 4.69854E-04-1.16003E-14
 -1       681 4.92515E-03 5.41501E-04-1.31750E-14
 -1       682 5.27549E-03 6.44490E-04-1.48582E-14
 -1       683 5.63698E-03 7.77348E-04-1.66575E-14
 -1       684 5.99959E-03 9.22020E-04-1.85838E-14
 -1       685 6.35065E-03 1.03641E-03-2.06385E-14
 -1       686 6.69098E-03 1.07220E-03-2.28231E-14
 -1       687 7.03398E-03 1.01179E-03-2.51383E-14
 -1       688 7.38991E-03 8.87063E-04-2.75804E-14
 -1       689 7.75376E-03 7.47972E-04-3.01401E-14
 -1       690 8.11265E-03 6.28984E-04-3.28097E-14
 -1       691 8.45813E-03 5.41508E-04-3.55840E-14
 -1       692 8.78817E-03 4.84109E-04-3.84580E-14
 -1       693 9.10504E-03 4.50835E-04-4.14324E-14
 -1       694 9.41223E-03 4.35451E-04-4.45028E-14
 -1       695 9.71279E-03 4.32641E-04-4.76643E-14
 -1       696 1.00090E-02 4.38214E-04-5.09154E-14
 -1       697 1.03022E-02 4.49007E-04-5.42527E-14
 -1       698 1.05935E-02 4.62724E-04-5.76735E-14
 -1       699 1.08834E-02 4.77757E-04-6.11875E-14
 -1       700 1.11722E-02 4.93037E-04-6.47862E-14
 -1       701 1.14603E-02 5.07893E-04-6.84571E-14
 -1       702 1.17478E-02 5.21945E-04-7.21969E-14
 -1       703 1.20349E-02 5.35015E-04-7.60090E-14
 -1       704 1.23216E-02 5.47057E-04-7.98910E-14
 -1       705 1.26080E-02 5.58113E-04-8.38329E-14
 -1       706 1.28942E-02 5.68271E-04-8.78182E-14
 -1       707 1.31803E-02 5.77648E-04-9.18468E-14
 -1       708 1.34662E-02 5.86368E-04-9.59091E-14
 -1       709 1.37521E-02 5.94555E-04-9.99949E-14
 -1       710 1.40379E-02 6.02328E-04-1.04110E-13
 -1       711 1.42590E-02 5.92153E-04-1.07418E-13
 -1       712 1.42031E-02 1.99457E-04-1.08956E-13
 -1       713 1.42253E-02-2.57631E-04-1.11717E-13
 -1       714 1.42158E-02 3.66979E-04-1.08161E-13
 -1       715 1.41969E-02 1.15752E-04-1.09341E-13
 -1       716 1.42094E-02 2.83185E-04-1.08562E-13
 -1       717 8.61379E-03 1.86365E-04-3.33851E-14
 -1       718 1.41909E-02 3.34431E-05-1.09706E-13
 -1       719 1.41850E-02-5.03503E-05-1.10064E-13
 -1       720 1.41792E-02-1.34241E-04-1.10413E-13
 -1       721 1.62633E-03 3.62010E-04-1.44785E-15
 -1       722 7.93286E-03 4.99342E-04-3.02203E-14
 -1       723 8.54566E-03-9.93899E-05-3.36649E-14
 -1       724 5.41481E-03-4.87077E-04-1.81337E-14
 -1       725 8.74329E-04-2.31647E-04-5.88458E-16
 -1       726 4.34055E-03 4.98527E-05-1.51409E-14
 -1       727 6.20970E-03-8.72679E-04-2.18102E-14
 -1       728 2.48958E-03 3.87570E-04-3.44935E-15
 -1       729 2.20133E-03 3.85718E-04-2.68491E-15
 -1       730 1.12941E-03-2.76112E-04-9.39654E-16
 -1       731 5.20566E-03 4.11009E-04-1.66380E-14
 -1       732 8.28913E-03 3.23200E-04-3.19455E-14
 -1       733 9.00553E-04 1.13689E-04-6.20648E-16
 -1       734 4.82246E-03 2.30771E-04-1.57989E-14
 -1       735 9.00162E-04-1.11328E-04-6.92436E-16
 -1       736 6.41932E-03 1.01542E-03-2.13656E-14
 -1       737 4.97907E-03-2.64059E-04-1.67520E-14
 -1       738 6.55935E-03-9.56614E-04-2.38422E-14
 -1       739 7.32207E-03-7.19714E-04-2.84351E-14
 -1       740 4.40434E-03-3.17746E-05-1.53211E-14
 -1       741 4.29742E-03 1.53545E-05-1.50733E-14
 -1       742 7.78688E-03-4.67007E-04-3.08562E-14
 -1       743 9.09991E-04-1.61588E-04-6.86849E-16
 -1       744 8.90958E-04-2.07801E-05-6.82563E-16
 -1       745 5.84452E-03 7.86826E-04-1.83675E-14
 -1       746 8.78246E-03 1.40063E-04-3.45878E-14
 -1       747 8.91628E-03 2.89546E-05-3.48377E-14
 -1       748 1.42224E-02 4.50159E-04-1.07757E-13
 -1       749 1.42406E-02 5.21112E-04-1.07591E-13
 -1       750 5.59370E-03-6.02438E-04-1.86805E-14
 -1       751 4.39118E-03 7.90976E-05-1.48076E-14
 -1       752 8.93958E-04-6.49195E-05-6.90522E-16
 -1       753 1.41057E-02-1.96850E-04-1.09640E-13
 -1       754 1.16086E-03 2.23516E-04-8.75151E-16
 -1       755 6.83373E-03-9.32951E-04-2.56229E-14
 -1       756 4.43935E-03-8.81742E-05-1.46069E-14
 -1       757 1.79362E-03-2.74024E-04-2.31158E-15
 -1       758 2.07888E-03-2.82134E-04-3.04582E-15
 -1       759 2.36363E-03-2.84536E-04-3.87972E-15
 -1       760 2.64768E-03-2.83033E-04-4.81335E-15
 -1       761 2.93108E-03-2.79438E-04-5.84640E-15
 -1       762 3.21425E-03-2.75664E-04-6.97624E-15
 -1       763 3.49813E-03-2.73863E-04-8.20414E-15
 -1       764 3.78442E-03-2.76631E-04-9.52931E-15
 -1       765 4.07605E-03-2.87353E-04-1.09519E-14
 -1       766 4.37753E-03-3.10832E-04-1.24720E-14
 -1       767 4.69487E-03-3.53699E-04-1.40897E-14
 -1       768 5.03592E-03-4.28651E-04-1.58071E-14
 -1       769 8.08155E-03-4.25609E-04-3.38806E-14
 -1       770 8.42875E-03-3.34336E-04-3.66996E-14
 -1       771 8.75138E-03-2.76595E-04-3.96261E-14
 -1       772 9.05584E-03-2.41355E-04-4.26598E-14
 -1       773 9.34879E-03-2.20716E-04-4.57967E-14
 -1       774 9.63518E-03-2.09579E-04-4.90320E-14
 -1       775 9.91829E-03-2.04564E-04-5.23621E-14
 -1       776 1.02001E-02-2.03335E-04-5.57868E-14
 -1       777 1.04817E-02-2.04228E-04-5.93003E-14
 -1       778 1.07637E-02-2.06063E-04-6.29009E-14
 -1       779 1.10462E-02-2.08025E-04-6.65838E-14
 -1       780 1.13294E-02-2.09582E-04-7.03355E-14
 -1       781 1.16131E-02-2.10420E-04-7.41520E-14
 -1       782 1.18973E-02-2.10380E-04-7.80251E-14
 -1       783 1.21820E-02-2.09417E-04-8.19578E-14
 -1       784 1.24669E-02-2.07560E-04-8.59365E-14
 -1       785 1.27521E-02-2.04883E-04-8.99677E-14
 -1       786 1.30375E-02-2.01485E-04-9.40425E-14
 -1       787 1.33230E-02-1.97474E-04-9.81520E-14
 -1       788 1.36086E-02-1.92961E-04-1.02295E-13
 -1       789 1.38571E-02-1.95012E-04-1.05959E-13
 -1       790 2.60292E-03 3.16780E-04-4.02396E-15
 -1       791 2.88800E-03 3.13692E-04-4.95067E-15
 -1       792 3.74738E-03 3.12330E-04-8.32473E-15
 -1       793 4.04049E-03 3.24295E-04-9.64972E-15
 -1       794 4.34249E-03 3.49627E-04-1.10759E-14
 -1       795 4.65856E-03 3.95478E-04-1.26049E-14
 -1       796 4.99613E-03 4.69468E-04-1.42345E-14
 -1       797 5.36143E-03 5.86616E-04-1.59726E-14
 -1       798 8.38166E-03 4.66029E-04-3.44652E-14
 -1       799 8.71170E-03 4.07045E-04-3.72975E-14
 -1       800 9.02251E-03 3.74354E-04-4.02256E-14
 -1       801 9.32069E-03 3.59567E-04-4.32508E-14
 -1       802 9.61141E-03 3.56789E-04-4.63695E-14
 -1       803 9.89814E-03 3.61930E-04-4.95836E-14
 -1       804 1.01830E-02 3.72092E-04-5.28864E-14
 -1       805 1.04672E-02 3.85185E-04-5.62754E-14
 -1       806 1.07512E-02 3.99719E-04-5.97530E-14
 -1       807 1.10355E-02 4.14662E-04-6.33172E-14
 -1       808 1.13201E-02 4.29335E-04-6.69591E-14
 -1       809 1.16049E-02 4.43331E-04-7.06688E-14
 -1       810 1.18900E-02 4.56435E-04-7.44528E-14
 -1       811 1.21752E-02 4.68571E-04-7.83046E-14
 -1       812 1.24607E-02 4.79752E-04-8.22193E-14
 -1       813 1.27462E-02 4.90048E-04-8.61832E-14
 -1       814 1.30318E-02 4.99558E-04-9.01901E-14
 -1       815 1.33175E-02 5.08397E-04-9.42337E-14
 -1       816 1.36032E-02 5.16682E-04-9.83134E-14
 -1       817 1.38889E-02 5.24527E-04-1.02418E-13
 -1       818 1.40647E-02 5.22877E-04-1.04998E-13
 -1       819 1.24801E-03 2.77340E-04-9.30733E-16
 -1       820 1.12824E-03 5.29329E-05-1.00957E-15
 -1       821 1.39528E-02 1.52151E-04-1.05544E-13
 -1       822 1.39348E-02-9.69833E-05-1.06614E-13
 -1       823 1.39468E-02 7.01327E-05-1.05907E-13
 -1       824 8.20426E-03 4.33231E-04-3.24632E-14
 -1       825 8.00197E-03 5.65915E-04-3.15174E-14
 -1       826 1.39407E-02-1.33651E-05-1.06267E-13
 -1       827 3.45911E-03 3.08853E-04-7.09985E-15
 -1       828 3.17313E-03 3.10257E-04-5.97535E-15
 -1       829 1.50834E-03-2.58368E-04-1.67749E-15
 -1       830 4.23206E-03 3.30594E-05-1.41553E-14
 -1       831 8.42044E-03-1.88651E-04-3.43289E-14
 -1       832 2.31754E-03 3.17410E-04-3.19533E-15
 -1       833 2.03175E-03 3.13583E-04-2.46367E-15
 -1       834 5.37070E-03 5.44350E-04-1.64794E-14
 -1       835 4.25495E-03-8.86294E-06-1.42535E-14
 -1       836 5.08972E-03-3.89538E-04-1.64114E-14
 -1       837 8.80214E-03-3.77132E-05-3.57199E-14
 -1       838 4.68976E-03-1.94773E-04-1.52299E-14
 -1       839 4.55806E-03 1.48337E-04-1.48006E-14
 -1       840 8.09024E-03-3.48584E-04-3.29558E-14
 -1       841 8.95611E-03 7.27008E-05-3.53029E-14
 -1       842 4.93701E-03 3.26357E-04-1.52624E-14
 -1       843 8.55904E-03 2.65799E-04-3.43115E-14
 -1       844 1.12609E-03 1.21737E-06-1.03364E-15
 -1       845 1.13457E-03 1.06035E-04-9.76331E-16
 -1       846 4.24564E-03-5.42029E-05-1.35676E-14
 -1       847 8.73887E-03 2.09481E-04-3.55340E-14
 -1       848 9.01193E-03 5.17643E-05-3.62082E-14
 -1       849 1.39718E-02 4.02345E-04-1.04367E-13
 -1       850 1.14528E-03 1.62428E-04-9.32095E-16
 -1       851 8.71205E-03-1.06998E-04-3.64073E-14
 -1       852 1.74567E-03 3.03297E-04-1.82852E-15
 -1       853 1.39654E-02 3.18727E-04-1.04769E-13
 -1       854 1.39590E-02 2.35407E-04-1.05162E-13
 -1       855 1.49678E-03 2.94703E-04-1.34071E-15
 -1       856 4.24361E-03 5.66500E-05-1.38354E-14
 -1       857 1.25303E-03-2.34071E-04-1.19636E-15
 -1       858 8.94456E-03 6.11545E-08-3.66396E-14
 -1       859 1.13422E-03-1.03442E-04-1.05664E-15
 -1       860 4.65509E-03 2.27211E-04-1.42846E-14
 -1       861 1.38959E-02-1.45985E-04-1.06289E-13
 -1       862 1.14475E-03-1.59652E-04-1.05503E-15
 -1       863 2.19767E-03-2.18038E-04-3.46492E-15
 -1       864 2.47867E-03-2.17823E-04-4.34607E-15
 -1       865 2.75777E-03-2.14811E-04-5.32560E-15
 -1       866 3.03478E-03-2.10352E-04-6.40341E-15
 -1       867 3.30992E-03-2.05840E-04-7.57748E-15
 -1       868 3.58397E-03-2.02825E-04-8.84694E-15
 -1       869 3.85865E-03-2.03227E-04-1.02137E-14
 -1       870 4.13717E-03-2.09784E-04-1.16763E-14
 -1       871 4.42590E-03-2.27935E-04-1.32365E-14
 -1       872 1.63223E-03-2.04699E-04-1.99767E-15
 -1       873 8.71071E-03-1.96319E-04-3.80623E-14
 -1       874 9.00157E-03-1.67192E-04-4.10341E-14
 -1       875 9.28074E-03-1.51071E-04-4.41085E-14
 -1       876 9.55431E-03-1.42559E-04-4.72809E-14
 -1       877 9.82618E-03-1.38580E-04-5.05499E-14
 -1       878 1.00984E-02-1.37364E-04-5.39133E-14
 -1       879 1.03720E-02-1.37718E-04-5.73690E-14
 -1       880 1.06474E-02-1.38779E-04-6.09171E-14
 -1       881 1.09246E-02-1.39932E-04-6.45500E-14
 -1       882 1.12036E-02-1.40750E-04-6.82568E-14
 -1       883 1.14840E-02-1.40963E-04-7.20306E-14
 -1       884 1.17658E-02-1.40424E-04-7.58620E-14
 -1       885 1.20485E-02-1.39079E-04-7.97593E-14
 -1       886 1.23321E-02-1.36939E-04-8.37091E-14
 -1       887 1.26162E-02-1.34060E-04-8.77074E-14
 -1       888 1.29009E-02-1.30521E-04-9.17525E-14
 -1       889 1.31859E-02-1.26413E-04-9.58320E-14
 -1       890 1.34711E-02-1.21830E-04-9.99502E-14
 -1       891 4.39258E-03 2.70695E-04-1.20334E-14
 -1       892 4.10280E-03 2.49897E-04-1.05498E-14
 -1       893 3.82246E-03 2.40755E-04-9.16535E-15
 -1       894 2.43228E-03 2.50407E-04-3.72625E-15
 -1       895 3.26930E-03 2.40521E-04-6.69364E-15
 -1       896 8.66262E-03 3.23353E-04-3.61358E-14
 -1       897 9.52321E-03 2.83797E-04-4.50758E-14
 -1       898 9.79802E-03 2.89538E-04-4.82467E-14
 -1       899 1.00726E-02 2.99376E-04-5.15160E-14
 -1       900 1.03481E-02 3.11702E-04-5.48727E-14
 -1       901 1.06252E-02 3.25344E-04-5.83151E-14
 -1       902 1.09037E-02 3.39446E-04-6.18485E-14
 -1       903 1.11838E-02 3.53411E-04-6.54604E-14
 -1       904 1.14651E-02 3.66853E-04-6.91426E-14
 -1       905 1.17476E-02 3.79549E-04-7.28959E-14
 -1       906 1.20308E-02 3.91400E-04-7.67188E-14
 -1       907 1.23148E-02 4.02394E-04-8.06037E-14
 -1       908 1.25993E-02 4.12574E-04-8.45470E-14
 -1       909 1.28842E-02 4.22020E-04-8.85327E-14
 -1       910 1.31693E-02 4.30827E-04-9.25630E-14
 -1       911 1.34547E-02 4.39098E-04-9.66290E-14
 -1       912 1.37402E-02 4.46932E-04-1.00723E-13
 -1       913 1.40182E-02 4.62553E-04-1.04685E-13
 -1       914 1.37028E-02 1.05863E-04-1.02143E-13
 -1       915 2.99200E-03 2.44320E-04-5.60638E-15
 -1       916 3.54561E-03 2.38605E-04-7.87990E-15
 -1       917 9.24578E-03 2.84471E-04-4.20025E-14
 -1       918 8.96141E-03 2.95302E-04-3.90222E-14
 -1       919 4.10778E-03 1.08738E-05-1.30136E-14
 -1       920 2.14992E-03 2.49455E-04-2.93172E-15
 -1       921 1.12809E-03-5.03743E-05-1.04927E-15
 -1       922 1.91527E-03-2.14106E-04-2.68228E-15
 -1       923 1.40801E-03 2.40709E-04-1.27364E-15
 -1       924 8.99488E-03 1.08687E-04-3.68425E-14
 -1       925 4.35590E-03 1.06678E-04-1.38327E-14
 -1       926 4.42060E-03-1.50841E-04-1.37896E-14
 -1       927 2.71304E-03 2.48167E-04-4.61820E-15
 -1       928 1.37047E-03 8.85837E-05-1.41234E-15
 -1       929 9.09055E-03 8.09064E-05-3.77713E-14
 -1       930 1.37875E-03-1.88132E-04-1.46992E-15
 -1       931 1.37090E-02 1.88766E-04-1.01774E-13
 -1       932 8.95410E-03-4.39116E-05-3.80954E-14
 -1       933 1.86640E-03 2.43734E-04-2.23308E-15
 -1       934 1.36835E-02-1.33957E-04-1.03111E-13
 -1       935 1.36966E-02 2.27390E-05-1.02500E-13
 -1       936 4.08481E-03 3.37498E-05-1.27133E-14
 -1       937 1.37338E-02 3.63443E-04-1.01129E-13
 -1       938 4.04944E-03-2.70083E-05-1.23662E-14
 -1       939 1.37022E-03-8.56386E-05-1.49114E-15
 -1       940 8.39450E-03-2.52306E-04-3.51912E-14
 -1       941 1.36516E-03 3.01284E-05-1.44990E-15
 -1       942 4.42389E-03 1.71656E-04-1.33365E-14
 -1       943 8.99068E-03 1.63751E-04-3.78156E-14
 -1       944 1.37059E-02-6.78123E-05-1.03109E-13
 -1       945 1.38096E-03 1.49242E-04-1.36219E-15
 -1       946 1.37152E-02 2.71713E-04-1.01392E-13
 -1       947 8.96956E-03 2.26689E-04-3.84246E-14
 -1       948 2.59368E-03-1.53210E-04-4.81690E-15
 -1       949 2.86673E-03-1.49521E-04-5.84105E-15
 -1       950 3.13592E-03-1.44769E-04-6.96164E-15
 -1       951 3.40100E-03-1.39753E-04-8.17752E-15
 -1       952 3.66215E-03-1.35274E-04-9.48838E-15
 -1       953 3.92045E-03-1.32477E-04-1.08946E-14
 -1       954 1.36509E-03-2.73703E-05-1.47587E-15
 -1       955 9.22832E-03-8.40202E-05-4.24400E-14
 -1       956 9.48362E-03-7.93271E-05-4.55499E-14
 -1       957 9.74113E-03-7.69388E-05-4.87551E-14
 -1       958 1.00020E-02-7.58619E-05-5.20588E-14
 -1       959 1.02664E-02-7.55221E-05-5.54574E-14
 -1       960 1.05345E-02-7.54694E-05-5.89516E-14
 -1       961 1.08059E-02-7.53721E-05-6.25328E-14
 -1       962 1.10802E-02-7.49670E-05-6.61910E-14
 -1       963 1.13569E-02-7.40716E-05-6.99217E-14
 -1       964 1.16358E-02-7.25782E-05-7.37126E-14
 -1       965 1.19163E-02-7.04413E-05-7.75681E-14
 -1       966 1.21982E-02-6.76640E-05-8.14834E-14
 -1       967 1.24812E-02-6.42832E-05-8.54532E-14
 -1       968 1.27649E-02-6.03569E-05-8.94652E-14
 -1       969 1.30493E-02-5.59546E-05-9.35215E-14
 -1       970 1.33341E-02-5.11523E-05-9.76092E-14
 -1       971 1.02345E-02 2.42879E-04-5.34651E-14
 -1       972 9.96888E-03 2.31492E-04-5.01404E-14
 -1       973 3.88504E-03 1.72205E-04-1.00192E-14
 -1       974 9.44719E-03 2.14660E-04-4.37881E-14
 -1       975 9.70664E-03 2.21771E-04-4.69134E-14
 -1       976 1.05035E-02 2.55240E-04-5.68747E-14
 -1       977 1.07756E-02 2.67997E-04-6.03729E-14
 -1       978 1.10506E-02 2.80708E-04-6.39555E-14
 -1       979 1.13279E-02 2.93059E-04-6.76124E-14
 -1       980 1.16072E-02 3.04850E-04-7.13378E-14
 -1       981 1.18881E-02 3.15978E-04-7.51321E-14
 -1       982 1.21703E-02 3.26408E-04-7.89923E-14
 -1       983 1.24534E-02 3.36159E-04-8.29117E-14
 -1       984 1.27373E-02 3.45285E-04-8.68791E-14
 -1       985 1.30218E-02 3.53857E-04-9.08908E-14
 -1       986 1.33067E-02 3.61954E-04-9.49436E-14
 -1       987 1.35202E-02 3.62808E-04-9.80272E-14
 -1       988 4.16588E-03 8.24138E-05-1.27396E-14
 -1       989 2.31732E-03-1.54991E-04-3.89109E-15
 -1       990 8.89123E-03-1.18403E-04-3.89091E-14
 -1       991 3.09270E-03 1.78636E-04-6.28065E-15
 -1       992 1.63738E-03 2.45232E-04-1.71932E-15
 -1       993 2.26858E-03 1.86318E-04-3.42113E-15
 -1       994 1.75805E-03-1.49275E-04-2.33066E-15
 -1       995 9.13377E-03 3.26959E-05-3.87151E-14
 -1       996 9.18342E-03-7.53627E-07-4.02163E-14
 -1       997 2.82136E-03 1.82565E-04-5.23017E-15
 -1       998 4.14558E-03 1.76956E-04-1.14602E-14
 -1       999 2.54648E-03 1.85498E-04-4.27718E-15
 -1      1000 2.03844E-03-1.53962E-04-3.06231E-15
 -1      1001 4.14352E-03-1.01292E-04-1.24278E-14
 -1      1002 9.11310E-03 1.24917E-04-3.87693E-14
 -1      1003 1.61706E-03 1.27407E-04-1.87329E-15
 -1      1004 1.34591E-02 1.41860E-04-9.84008E-14
 -1      1005 1.98845E-03 1.83897E-04-2.66110E-15
 -1      1006 3.36021E-03 1.74812E-04-7.42882E-15
 -1      1007 3.94477E-03 9.77430E-06-1.16926E-14
 -1      1008 1.60765E-03 6.36761E-05-1.92802E-15
 -1      1009 9.20475E-03-3.96862E-05-4.13263E-14
 -1      1010 3.62403E-03 1.72240E-04-8.67463E-15
 -1      1011 9.21138E-03 2.17253E-04-4.10703E-14
 -1      1012 1.34529E-02 5.91956E-05-9.87610E-14
 -1      1013 1.56285E-03-1.16944E-04-1.88905E-15
 -1      1014 1.55448E-03-5.43456E-05-1.87526E-15
 -1      1015 3.84598E-03-5.55339E-05-1.08513E-14
 -1      1016 1.34653E-02 2.24349E-04-9.80276E-14
 -1      1017 2.71044E-03-9.12408E-05-5.29114E-15
 -1      1018 2.97686E-03-8.78004E-05-6.35673E-15
 -1      1019 3.23733E-03-8.35266E-05-7.51904E-15
 -1      1020 3.49088E-03-7.87236E-05-8.77562E-15
 -1      1021 3.67264E-03-6.71366E-05-9.78627E-15
 -1      1022 1.34927E-02 2.93478E-04-9.80315E-14
 -1      1023 1.60446E-03 1.60444E-06-1.96788E-15
 -1      1024 9.44328E-03-3.75765E-05-4.43947E-14
 -1      1025 9.68865E-03-3.60922E-05-4.75587E-14
 -1      1026 9.94045E-03-3.48769E-05-5.08198E-14
 -1      1027 1.01981E-02-3.37929E-05-5.41786E-14
 -1      1028 1.04608E-02-3.26702E-05-5.76341E-14
 -1      1029 1.07279E-02-3.13792E-05-6.11782E-14
 -1      1030 1.09989E-02-2.97873E-05-6.48046E-14
 -1      1031 1.12730E-02-2.77871E-05-6.85033E-14
 -1      1032 1.15498E-02-2.53121E-05-7.22689E-14
 -1      1033 1.18288E-02-2.23332E-05-7.60961E-14
 -1      1034 1.21094E-02-1.88534E-05-7.99836E-14
 -1      1035 1.23915E-02-1.49002E-05-8.39328E-14
 -1      1036 1.26745E-02-1.05170E-05-8.79243E-14
 -1      1037 1.29584E-02-5.75302E-06-9.19608E-14
 -1      1038 1.32429E-02-6.75473E-07-9.60343E-14
 -1      1039 1.01233E-02 1.79199E-04-5.20527E-14
 -1      1040 1.06493E-02 2.00685E-04-5.88947E-14
 -1      1041 1.03838E-02 1.89794E-04-5.54306E-14
 -1      1042 2.38888E-03 1.24709E-04-3.93007E-15
 -1      1043 1.09190E-02 2.11598E-04-6.24449E-14
 -1      1044 9.32266E-03 4.30287E-05-4.14729E-14
 -1      1045 3.97381E-03 6.16248E-05-1.15938E-14
 -1      1046 1.11921E-02 2.22320E-04-6.60761E-14
 -1      1047 1.14681E-02 2.32699E-04-6.97786E-14
 -1      1048 1.17464E-02 2.42638E-04-7.35460E-14
 -1      1049 1.20266E-02 2.52094E-04-7.73785E-14
 -1      1050 1.23083E-02 2.61066E-04-8.12758E-14
 -1      1051 1.25911E-02 2.69577E-04-8.52279E-14
 -1      1052 1.28748E-02 2.77673E-04-8.92223E-14
 -1      1053 1.31591E-02 2.85407E-04-9.32550E-14
 -1      1054 2.43912E-03-9.34790E-05-4.32198E-15
 -1      1055 3.93814E-03 1.09856E-04-1.08833E-14
 -1      1056 2.93011E-03 1.20614E-04-5.86028E-15
 -1      1057 1.74588E-03-8.31709E-05-2.31996E-15
 -1      1058 9.24324E-03 8.13761E-05-4.01207E-14
 -1      1059 2.66178E-03 1.23270E-04-4.84624E-15
 -1      1060 2.16399E-03-9.40750E-05-3.44976E-15
 -1      1061 1.32157E-02 1.77378E-04-9.46807E-14
 -1      1062 3.69778E-03 1.11584E-04-9.48326E-15
 -1      1063 9.62042E-03 1.59905E-04-4.55840E-14
 -1      1064 9.37041E-03 1.16602E-05-4.26126E-14
 -1      1065 2.11249E-03 1.24233E-04-3.10996E-15
 -1      1066 3.72999E-03-2.60915E-06-1.02382E-14
 -1      1067 1.85309E-03 9.96078E-05-2.46397E-15
 -1      1068 3.19296E-03 1.17407E-04-6.97105E-15
 -1      1069 9.40235E-03 1.56958E-04-4.28228E-14
 -1      1070 3.80977E-03 5.09027E-05-1.05728E-14
 -1      1071 9.86848E-03 1.69162E-04-4.87701E-14
 -1      1072 1.32095E-02 9.52637E-05-9.50448E-14
 -1      1073 9.15718E-03 1.68890E-04-3.99173E-14
 -1      1074 2.83149E-03-3.22037E-05-5.76513E-15
 -1      1075 1.05222E-02 1.37545E-04-5.74125E-14
 -1      1076 3.09147E-03-3.00073E-05-6.87173E-15
 -1      1077 3.34360E-03-2.72172E-05-8.07488E-15
 -1      1078 9.59740E-03 1.31516E-05-4.57161E-14
 -1      1079 9.83625E-03 1.53209E-05-4.89134E-14
 -1      1080 1.00843E-02 1.79870E-05-5.22103E-14
 -1      1081 1.03397E-02 2.08759E-05-5.56036E-14
 -1      1082 1.06013E-02 2.41600E-05-5.90922E-14
 -1      1083 1.08678E-02 2.76752E-05-6.26644E-14
 -1      1084 1.11384E-02 3.14835E-05-6.63152E-14
 -1      1085 1.14124E-02 3.55868E-05-7.00369E-14
 -1      1086 1.16891E-02 3.99856E-05-7.38222E-14
 -1      1087 1.19681E-02 4.46705E-05-7.76677E-14
 -1      1088 1.22488E-02 4.96230E-05-8.15797E-14
 -1      1089 1.25309E-02 5.48180E-05-8.55436E-14
 -1      1090 1.28141E-02 6.02237E-05-8.95491E-14
 -1      1091 2.51260E-03 6.49528E-05-4.45782E-15
 -1      1092 1.02629E-02 1.29018E-04-5.39797E-14
 -1      1093 1.07869E-02 1.46169E-04-6.09324E-14
 -1      1094 1.16050E-02 1.71566E-04-7.19565E-14
 -1      1095 1.10562E-02 1.54769E-04-6.45344E-14
 -1      1096 1.18833E-02 1.79643E-04-7.57623E-14
 -1      1097 1.21636E-02 1.87475E-04-7.96380E-14
 -1      1098 1.24453E-02 1.95063E-04-8.35694E-14
 -1      1099 1.27281E-02 2.02423E-04-8.75493E-14
 -1      1100 1.84572E-03 3.42318E-05-2.52054E-15
 -1      1101 1.79298E-03-2.46877E-05-2.42630E-15
 -1      1102 2.56496E-03-3.38085E-05-4.75550E-15
 -1      1103 1.13291E-02 1.63260E-04-6.82121E-14
 -1      1104 3.44909E-03 1.14296E-04-8.17806E-15
 -1      1105 2.78064E-03 6.40338E-05-5.43348E-15
 -1      1106 2.29341E-03-3.47159E-05-3.84118E-15
 -1      1107 2.04408E-03-2.99813E-05-3.09434E-15
 -1      1108 9.76594E-03 1.12898E-04-4.73983E-14
 -1      1109 2.23988E-03 6.50853E-05-3.57921E-15
 -1      1110 3.52652E-03-1.76725E-05-9.04269E-15
 -1      1111 9.53821E-03 4.59502E-05-4.45387E-14
 -1      1112 1.00103E-02 1.20868E-04-5.06411E-14
 -1      1113 1.30118E-02 2.09578E-04-9.15669E-14
 -1      1114 9.55619E-03 1.09809E-04-4.45825E-14
 -1      1115 1.29687E-02 1.49371E-04-9.12819E-14
 -1      1116 3.60178E-03 3.92726E-05-9.36526E-15
 -1      1117 3.04248E-03 6.26868E-05-6.50586E-15
 -1      1118 9.31041E-03 1.16319E-04-4.13034E-14
 -1      1119 9.43639E-03 8.10066E-05-4.29133E-14
 -1      1120 2.04302E-03 4.97479E-05-3.02811E-15
 -1      1121 3.41911E-03 3.23828E-05-8.38391E-15
 -1      1122 1.03910E-02 7.81950E-05-5.59251E-14
 -1      1123 9.76894E-03 4.97343E-05-4.76967E-14
 -1      1124 1.00113E-02 5.40556E-05-5.09543E-14
 -1      1125 1.07425E-02 8.45697E-05-6.06321E-14
 -1      1126 1.10103E-02 9.06545E-05-6.42298E-14
 -1      1127 1.12821E-02 9.68466E-05-6.79081E-14
 -1      1128 1.15570E-02 1.03107E-04-7.16544E-14
 -1      1129 1.18346E-02 1.09409E-04-7.54602E-14
 -1      1130 1.21143E-02 1.15733E-04-7.93303E-14
 -1      1131 1.23956E-02 1.22066E-04-8.32635E-14
 -1      1132 1.26816E-02 1.35634E-04-8.72551E-14
 -1      1133 3.21552E-03 2.41716E-05-7.38550E-15
 -1      1134 0.00000E+00 0.00000E+00 0.00000E+00
 -1      1135 0.00000E+00 0.00000E+00 0.00000E+00
 -1      1136 0.00000E+00 0.00000E+00 0.00000E+00
 -1      1137 0.00000E+00 0.00000E+00 0.00000E+00
 -1      1138 0.00000E+00 0.00000E+00 0.00000E+00
 -1      1139 0.00000E+00 0.00000E+00 0.00000E+00
 -1      1140 0.00000E+00 0.00000E+00 0.00000E+00
 -1      1141 0.00000E+00 0.00000E+00 0.00000E+00
 -1      1142 0.00000E+00 0.00000E+00 0.00000E+00
 -1      1143 0.00000E+00 0.00000E+00 0.00000E+00
 -1      1144 0.00000E+00 0.00000E+00 0.00000E+00
 -1      1145 0.00000E+00 0.00000E+00 0.00000E+00
 -1      1146 0.00000E+00 0.00000E+00 0.00000E+00
 -1      1147 0.00000E+00 0.00000E+00 0.00000E+00
 -1      1148 0.00000E+00 0.00000E+00 0.00000E+00
 -1      1149 0.00000E+00 0.00000E+00 0.00000E+00
 -1      1150 0.00000E+00 0.00000E+00 0.00000E+00
 -1      1151 2.10113E-04-1.46661E-04 1.05845E-17
 -1      1152 5.48504E-04-3.31497E-04-4.06034E-17
 -1      1153 8.30395E-04-4.47792E-04-1.97298E-16
 -1      1154 1.10136E-03-5.23755E-04-4.76317E-16
 -1      1155 1.36961E-03-5.74747E-04-8.70913E-16
 -1      1156 1.63908E-03-6.08655E-04-1.37714E-15
 -1      1157 1.91215E-03-6.30227E-04-1.99444E-15
 -1      1158 2.19043E-03-6.42859E-04-2.72245E-15
 -1      1159 2.47513E-03-6.49362E-04-3.55879E-15
 -1      1160 2.76732E-03-6.52347E-04-4.50246E-15
 -1      1161 3.06801E-03-6.54489E-04-5.55246E-15
 -1      1162 3.37813E-03-6.58759E-04-6.70439E-15
 -1      1163 3.69829E-03-6.68617E-04-7.95659E-15
 -1      1164 4.02851E-03-6.88084E-04-9.31265E-15
 -1      1165 4.36766E-03-7.21574E-04-1.07695E-14
 -1      1166 4.71277E-03-7.73238E-04-1.23282E-14
 -1      1167 5.05855E-03-8.45553E-04-1.39895E-14
 -1      1168 5.39734E-03-9.37087E-04-1.57523E-14
 -1      1169 5.72039E-03-1.03997E-03-1.76174E-14
 -1      1170 6.02085E-03-1.13873E-03-1.95942E-14
 -1      1171 6.29770E-03-1.21262E-03-2.16887E-14
 -1      1172 6.55834E-03-1.24245E-03-2.39005E-14
 -1      1173 6.81699E-03-1.21903E-03-2.62349E-14
 -1      1174 7.08880E-03-1.14782E-03-2.86988E-14
 -1      1175 7.38337E-03-1.04611E-03-3.12922E-14
 -1      1176 7.70189E-03-9.35075E-04-3.40068E-14
 -1      1177 8.03874E-03-8.32028E-04-3.68423E-14
 -1      1178 8.38545E-03-7.46909E-04-3.98030E-14
 -1      1179 8.73404E-03-6.82738E-04-4.28898E-14
 -1      1180 9.07873E-03-6.37994E-04-4.60974E-14
 -1      1181 9.41620E-03-6.09049E-04-4.94111E-14
 -1      1182 9.74516E-03-5.91830E-04-5.28203E-14
 -1      1183 1.00656E-02-5.82676E-04-5.63164E-14
 -1      1184 1.03784E-02-5.78655E-04-5.99001E-14
 -1      1185 1.06845E-02-5.77591E-04-6.35724E-14
 -1      1186 1.09853E-02-5.77956E-04-6.73264E-14
 -1      1187 1.12818E-02-5.78734E-04-7.11514E-14
 -1      1188 1.15749E-02-5.79291E-04-7.50331E-14
 -1      1189 1.18656E-02-5.79262E-04-7.89608E-14
 -1      1190 1.21545E-02-5.78470E-04-8.29407E-14
 -1      1191 1.24421E-02-5.76863E-04-8.69688E-14
 -1      1192 1.27287E-02-5.74462E-04-9.10489E-14
 -1      1193 1.30149E-02-5.71340E-04-9.51831E-14
 -1      1194 1.33006E-02-5.67588E-04-9.93641E-14
 -1      1195 1.35862E-02-5.63312E-04-1.03575E-13
 -1      1196 1.38717E-02-5.58619E-04-1.07799E-13
 -1      1197 1.41572E-02-5.53615E-04-1.12044E-13
 -1      1198 1.44427E-02-5.48403E-04-1.16311E-13
 -1      1199 1.47283E-02-5.43088E-04-1.20596E-13
 -1      1200 1.50069E-02-5.37899E-04-1.24805E-13
 -1      1201 2.26702E-04 1.58913E-04 3.28242E-17
 -1      1202 5.50625E-04 3.36042E-04 4.25143E-17
 -1      1203 8.31282E-04 4.49888E-04-2.90837E-17
 -1      1204 1.10221E-03 5.25343E-04-1.97054E-16
 -1      1205 1.37046E-03 5.76269E-04-4.65109E-16
 -1      1206 1.63999E-03 6.10171E-04-8.35080E-16
 -1      1207 1.91317E-03 6.31707E-04-1.30844E-15
 -1      1208 2.19160E-03 6.44252E-04-1.88297E-15
 -1      1209 2.47654E-03 6.50597E-04-2.55930E-15
 -1      1210 2.76916E-03 6.53335E-04-3.33650E-15
 -1      1211 3.07060E-03 6.55147E-04-4.21802E-15
 -1      1212 3.38196E-03 6.59053E-04-5.20379E-15
 -1      1213 3.70410E-03 6.68644E-04-6.29299E-15
 -1      1214 4.03733E-03 6.88217E-04-7.48567E-15
 -1      1215 4.38082E-03 7.22675E-04-8.78461E-15
 -1      1216 4.73184E-03 7.76919E-04-1.01977E-14
 -1      1217 5.08498E-03 8.54373E-04-1.17233E-14
 -1      1218 5.43200E-03 9.54447E-04-1.33632E-14
 -1      1219 5.76294E-03 1.06940E-03-1.51216E-14
 -1      1220 6.06947E-03 1.18245E-03-1.70009E-14
 -1      1221 6.34965E-03 1.27004E-03-1.90079E-14
 -1      1222 6.61136E-03 1.30971E-03-2.11432E-14
 -1      1223 6.87073E-03 1.29052E-03-2.34039E-14
 -1      1224 7.14504E-03 1.21895E-03-2.57870E-14
 -1      1225 7.44490E-03 1.11539E-03-2.82861E-14
 -1      1226 7.77090E-03 1.00415E-03-3.08932E-14
 -1      1227 8.11604E-03 9.04300E-04-3.36145E-14
 -1      1228 8.47048E-03 8.25950E-04-3.64422E-14
 -1      1229 8.82546E-03 7.71372E-04-3.93735E-14
 -1      1230 9.17496E-03 7.38068E-04-4.24095E-14
 -1      1231 9.51581E-03 7.21593E-04-4.55348E-14
 -1      1232 9.84700E-03 7.17314E-04-4.87414E-14
 -1      1233 1.01689E-02 7.21248E-04-5.20227E-14
 -1      1234 1.04825E-02 7.30303E-04-5.53850E-14
 -1      1235 1.07891E-02 7.42238E-04-5.88456E-14
 -1      1236 1.10901E-02 7.55509E-04-6.23972E-14
 -1      1237 1.13867E-02 7.69110E-04-6.60293E-14
 -1      1238 1.16799E-02 7.82421E-04-6.97448E-14
 -1      1239 1.19707E-02 7.95096E-04-7.35371E-14
 -1      1240 1.22595E-02 8.06972E-04-7.73969E-14
 -1      1241 1.25471E-02 8.18007E-04-8.13170E-14
 -1      1242 1.28338E-02 8.28233E-04-8.52859E-14
 -1      1243 1.31199E-02 8.37726E-04-8.92869E-14
 -1      1244 1.34056E-02 8.46584E-04-9.33239E-14
 -1      1245 1.36912E-02 8.54914E-04-9.73937E-14
 -1      1246 1.39767E-02 8.62824E-04-1.01498E-13
 -1      1247 1.42622E-02 8.70421E-04-1.05636E-13
 -1      1248 1.45477E-02 8.77811E-04-1.09808E-13
 -1      1249 1.48333E-02 8.85097E-04-1.14015E-13
 -1      1250 1.51119E-02 8.92195E-04-1.18141E-13
 -1      1251 1.52440E-02 8.53523E-04-1.20369E-13
 -1      1252 1.52368E-02 7.69213E-04-1.20845E-13
 -1      1253 1.52296E-02 6.84839E-04-1.21301E-13
 -1      1254 1.52224E-02 6.00403E-04-1.21732E-13
 -1      1255 1.52154E-02 5.15925E-04-1.22153E-13
 -1      1256 1.52087E-02 4.32149E-04-1.22556E-13
 -1      1257 1.52021E-02 3.48374E-04-1.22946E-13
 -1      1258 1.51957E-02 2.63894E-04-1.23323E-13
 -1      1259 1.51894E-02 1.79422E-04-1.23725E-13
 -1      1260 1.51833E-02 9.49497E-05-1.24127E-13
 -1      1261 1.51773E-02 1.04701E-05-1.24515E-13
 -1      1262 1.51716E-02-7.33030E-05-1.24915E-13
 -1      1263 1.51661E-02-1.57078E-04-1.25319E-13
 -1      1264 1.51607E-02-2.41554E-04-1.25706E-13
 -1      1265 1.51554E-02-3.25988E-04-1.26051E-13
 -1      1266 1.51503E-02-4.10359E-04-1.26385E-13
 -1      1267 1.51452E-02-4.93955E-04-1.26713E-13
 -1      1268 8.83122E-03 1.21933E-04-2.90270E-14
 -1      1269 8.71666E-03 2.71528E-04-2.86624E-14
 -1      1270 8.50690E-03 4.19183E-04-2.80768E-14
 -1      1271 8.21617E-03 5.67786E-04-2.73045E-14
 -1      1272 7.87166E-03 7.05313E-04-2.64069E-14
 -1      1273 7.47928E-03 8.22666E-04-2.53763E-14
 -1      1274 7.03480E-03 9.03186E-04-2.42065E-14
 -1      1275 6.58027E-03 9.28071E-04-2.30379E-14
 -1      1276 6.12811E-03 8.88592E-04-2.19298E-14
 -1      1277 5.68098E-03 7.92051E-04-2.08982E-14
 -1      1278 5.27744E-03 6.60931E-04-2.00364E-14
 -1      1279 4.93825E-03 5.15182E-04-1.93721E-14
 -1      1280 4.66243E-03 3.61364E-04-1.88810E-14
 -1      1281 4.47461E-03 2.10202E-04-1.85945E-14
 -1      1282 4.39361E-03 6.85488E-05-1.85233E-14
 -1      1283 4.41956E-03-7.66522E-05-1.86594E-14
 -1      1284 4.55170E-03-2.23144E-04-1.89960E-14
 -1      1285 4.77933E-03-3.72231E-04-1.95143E-14
 -1      1286 5.09972E-03-5.26012E-04-2.02392E-14
 -1      1287 5.49158E-03-6.68691E-04-2.11510E-14
 -1      1288 5.92998E-03-7.79945E-04-2.22120E-14
 -1      1289 6.37469E-03-8.39730E-04-2.33282E-14
 -1      1290 6.81192E-03-8.39762E-04-2.44436E-14
 -1      1291 7.26563E-03-7.79554E-04-2.55996E-14
 -1      1292 7.70833E-03-6.67994E-04-2.66961E-14
 -1      1293 8.10689E-03-5.22596E-04-2.76376E-14
 -1      1294 8.44192E-03-3.62781E-04-2.83779E-14
 -1      1295 8.69148E-03-1.99050E-04-2.88880E-14
 -1      1296 8.82758E-03-3.62316E-05-2.91174E-14
 -1      1297 1.66087E-04-1.08865E-04-6.23416E-18
 -1      1298 1.12746E-04-5.55437E-05-2.52890E-17
 -1      1299 1.17645E-04-6.62694E-05-2.00171E-17
 -1      1300 1.08764E-04-4.17988E-05-3.38000E-17
 -1      1301 1.10579E-04-4.80084E-05-3.12792E-17
 -1      1302 2.26918E-04-1.04398E-04-7.36580E-17
 -1      1303 1.07158E-04-3.18047E-05-3.80284E-17
 -1      1304 1.08028E-04-3.65426E-05-3.68358E-17
 -1      1305 2.19828E-04-7.88912E-05-8.85116E-17
 -1      1306 1.06271E-04-2.36220E-05-4.03730E-17
 -1      1307 1.06764E-04-2.75791E-05-3.99122E-17
 -1      1308 2.16440E-04-5.96554E-05-9.64804E-17
 -1      1309 1.05732E-04-1.66306E-05-4.12810E-17
 -1      1310 1.06033E-04-2.00370E-05-4.11726E-17
 -1      1311 2.14490E-04-4.38632E-05-1.00560E-16
 -1      1312 1.05388E-04-1.02195E-05-4.14030E-17
 -1      1313 1.05571E-04-1.33673E-05-4.15385E-17
 -1      1314 2.13251E-04-3.00767E-05-1.02037E-16
 -1      1315 1.05209E-04-4.22944E-06-4.09015E-17
 -1      1316 1.05296E-04-7.19737E-06-4.11319E-17
 -1      1317 2.12487E-04-1.74582E-05-1.01752E-16
 -1      1318 1.05182E-04 1.58810E-06-3.99529E-17
 -1      1319 1.05180E-04-1.32310E-06-4.02646E-17
 -1      1320 2.12124E-04-5.56519E-06-1.00194E-16
 -1      1321 1.05306E-04 7.47188E-06-3.86518E-17
 -1      1322 1.05215E-04 4.49762E-06-3.90177E-17
 -1      1323 2.12133E-04 6.09955E-06-9.76460E-17
 -1      1324 1.05590E-04 1.36672E-05-3.66596E-17
 -1      1325 1.05402E-04 1.05045E-05-3.72288E-17
 -1      1326 2.12517E-04 1.80177E-05-9.40003E-17
 -1      1327 1.06058E-04 2.03239E-05-3.40304E-17
 -1      1328 1.05752E-04 1.68944E-05-3.48707E-17
 -1      1329 2.13296E-04 3.05818E-05-8.89181E-17
 -1      1330 1.06810E-04 2.80060E-05-3.00188E-17
 -1      1331 1.06309E-04 2.40046E-05-3.14148E-17
 -1      1332 2.14561E-04 4.44603E-05-8.18708E-17
 -1      1333 1.08071E-04 3.71207E-05-2.43810E-17
 -1      1334 1.07195E-04 3.23101E-05-2.65494E-17
 -1      1335 2.16560E-04 6.05719E-05-7.17742E-17
 -1      1336 1.10559E-04 4.87443E-05-1.56125E-17
 -1      1337 1.08771E-04 4.24653E-05-1.92988E-17
 -1      1338 2.19935E-04 8.01292E-05-5.74085E-17
 -1      1339 1.16961E-04 6.63149E-05-2.73761E-18
 -1      1340 1.12394E-04 5.63412E-05-8.82270E-18
 -1      1341 2.26903E-04 1.06203E-04-3.68629E-17
 -1      1342 1.56860E-04 1.08496E-04 1.67374E-17
 -1      1343 1.35483E-04 8.47282E-05 5.13641E-18
 -1      1344 2.56073E-04 1.48989E-04-1.28478E-17
 -1      1345 3.33736E-04 2.17299E-04 2.01255E-17
 -1      1346 4.20199E-04-2.56982E-04-5.12557E-17
 -1      1347 5.73220E-04-3.29514E-04-1.04382E-16
 -1      1348 7.20613E-04-3.87446E-04-1.89342E-16
 -1      1349 8.64266E-04-4.33939E-04-3.03644E-16
 -1      1350 6.12131E-04-3.22203E-04-1.76874E-16
 -1      1351 1.00509E-03-4.72069E-04-4.45946E-16
 -1      1352 1.14405E-03-5.02986E-04-6.17006E-16
 -1      1353 9.06558E-04-4.17172E-04-4.12580E-16
 -1      1354 1.28204E-03-5.28527E-04-8.16093E-16
 -1      1355 1.41958E-03-5.49191E-04-1.04337E-15
 -1      1356 1.19132E-03-4.80275E-04-7.59944E-16
 -1      1357 1.55719E-03-5.66019E-04-1.29786E-15
 -1      1358 1.69516E-03-5.79381E-04-1.57974E-15
 -1      1359 1.47201E-03-5.22083E-04-1.21736E-15
 -1      1360 1.83383E-03-5.89895E-04-1.88922E-15
 -1      1361 1.97337E-03-5.97914E-04-2.22622E-15
 -1      1362 1.75227E-03-5.48779E-04-1.78386E-15
 -1      1363 2.11400E-03-6.03856E-04-2.59023E-15
 -1      1364 2.25587E-03-6.08063E-04-2.98168E-15
 -1      1365 2.03446E-03-5.64483E-04-2.45863E-15
 -1      1366 2.39914E-03-6.10860E-04-3.40015E-15
 -1      1367 2.54392E-03-6.12592E-04-3.84480E-15
 -1      1368 2.32019E-03-5.72360E-04-3.24159E-15
 -1      1369 2.69036E-03-6.13559E-04-4.31657E-15
 -1      1370 2.83857E-03-6.14121E-04-4.81399E-15
 -1      1371 2.61067E-03-5.75139E-04-4.13103E-15
 -1      1372 2.98867E-03-6.14599E-04-5.33745E-15
 -1      1373 3.14075E-03-6.15388E-04-5.88775E-15
 -1      1374 2.90686E-03-5.75459E-04-5.12479E-15
 -1      1375 3.29490E-03-6.16874E-04-6.46228E-15
 -1      1376 3.45118E-03-6.19497E-04-7.06173E-15
 -1      1377 3.20961E-03-5.76144E-04-6.22160E-15
 -1      1378 3.60963E-03-6.23745E-04-7.68733E-15
 -1      1379 3.77024E-03-6.30103E-04-8.33784E-15
 -1      1380 3.51952E-03-5.80449E-04-7.41903E-15
 -1      1381 3.93296E-03-6.39176E-04-9.01442E-15
 -1      1382 4.09766E-03-6.51464E-04-9.71639E-15
 -1      1383 3.83686E-03-5.92233E-04-8.71835E-15
 -1      1384 4.26416E-03-6.67661E-04-1.04429E-14
 -1      1385 4.43213E-03-6.88201E-04-1.11951E-14
 -1      1386 4.16135E-03-6.15982E-04-1.01188E-14
 -1      1387 4.60119E-03-7.13738E-04-1.19725E-14
 -1      1388 4.77081E-03-7.44486E-04-1.27752E-14
 -1      1389 4.49183E-03-6.56461E-04-1.16189E-14
 -1      1390 4.94038E-03-7.80789E-04-1.36030E-14
 -1      1391 5.10914E-03-8.22383E-04-1.44576E-14
 -1      1392 4.82598E-03-7.17733E-04-1.32201E-14
 -1      1393 5.27631E-03-8.68905E-04-1.53373E-14
 -1      1394 5.44105E-03-9.19332E-04-1.62424E-14
 -1      1395 5.16012E-03-8.01233E-04-1.49242E-14
 -1      1396 5.60261E-03-9.72201E-04-1.71743E-14
 -1      1397 5.76031E-03-1.02554E-03-1.81331E-14
 -1      1398 5.48946E-03-9.03018E-04-1.67321E-14
 -1      1399 5.91374E-03-1.07677E-03-1.91201E-14
 -1      1400 6.06279E-03-1.12324E-03-2.01364E-14
 -1      1401 5.80915E-03-1.01119E-03-1.86480E-14
 -1      1402 6.20772E-03-1.16186E-03-2.11823E-14
 -1      1403 6.34924E-03-1.19017E-03-2.22593E-14
 -1      1404 6.11620E-03-1.10577E-03-2.06786E-14
 -1      1405 6.48832E-03-1.20587E-03-2.33640E-14
 -1      1406 6.62638E-03-1.20778E-03-2.44986E-14
 -1      1407 6.41181E-03-1.16357E-03-2.28269E-14
 -1      1408 6.76475E-03-1.19559E-03-2.56674E-14
 -1      1409 6.90496E-03-1.17001E-03-2.68650E-14
 -1      1410 6.70206E-03-1.16753E-03-2.50984E-14
 -1      1411 7.04811E-03-1.13288E-03-2.80962E-14
 -1      1412 7.19516E-03-1.08643E-03-2.93606E-14
 -1      1413 6.99568E-03-1.11538E-03-2.74952E-14
 -1      1414 7.34655E-03-1.03369E-03-3.06541E-14
 -1      1415 7.50240E-03-9.77347E-04-3.19808E-14
 -1      1416 7.29981E-03-1.02087E-03-3.00201E-14
 -1      1417 7.66245E-03-9.20230E-04-3.33374E-14
 -1      1418 7.82615E-03-8.64533E-04-3.47227E-14
 -1      1419 7.61701E-03-9.06574E-04-3.26683E-14
 -1      1420 7.99281E-03-8.12036E-04-3.61405E-14
 -1      1421 8.16162E-03-7.64026E-04-3.75873E-14
 -1      1422 7.94528E-03-7.94030E-04-3.54385E-14
 -1      1423 8.33179E-03-7.21135E-04-3.90659E-14
 -1      1424 8.50254E-03-6.83813E-04-4.05756E-14
 -1      1425 8.28011E-03-6.97479E-04-3.83321E-14
 -1      1426 8.67323E-03-6.51871E-04-4.21154E-14
 -1      1427 8.84328E-03-6.25222E-04-4.36864E-14
 -1      1428 8.61665E-03-6.22854E-04-4.13456E-14
 -1      1429 9.01227E-03-6.03279E-04-4.52849E-14
 -1      1430 9.17984E-03-5.85687E-04-4.69105E-14
 -1      1431 8.95101E-03-5.69978E-04-4.44766E-14
 -1      1432 9.34579E-03-5.71774E-04-4.85636E-14
 -1      1433 9.50997E-03-5.61100E-04-5.02413E-14
 -1      1434 9.28063E-03-5.35464E-04-4.77208E-14
 -1      1435 9.67232E-03-5.53074E-04-5.19408E-14
 -1      1436 9.83282E-03-5.47271E-04-5.36631E-14
 -1      1437 9.60423E-03-5.14898E-04-5.10656E-14
 -1      1438 9.99153E-03-5.43237E-04-5.54073E-14
 -1      1439 1.01485E-02-5.40612E-04-5.71729E-14
 -1      1440 9.92147E-03-5.04091E-04-5.45019E-14
 -1      1441 1.03039E-02-5.39077E-04-5.89621E-14
 -1      1442 1.04577E-02-5.38344E-04-6.07729E-14
 -1      1443 1.02326E-02-4.99588E-04-5.80278E-14
 -1      1444 1.06102E-02-5.38208E-04-6.26052E-14
 -1      1445 1.07614E-02-5.38452E-04-6.44579E-14
 -1      1446 1.05383E-02-4.98785E-04-6.16421E-14
 -1      1447 1.09114E-02-5.38953E-04-6.63310E-14
 -1      1448 1.10604E-02-5.39555E-04-6.82211E-14
 -1      1449 1.08394E-02-4.99834E-04-6.53393E-14
 -1      1450 1.12085E-02-5.40193E-04-7.01272E-14
 -1      1451 1.13558E-02-5.40759E-04-7.20508E-14
 -1      1452 1.11366E-02-5.01498E-04-6.91104E-14
 -1      1453 1.15023E-02-5.41226E-04-7.39874E-14
 -1      1454 1.16483E-02-5.41524E-04-7.59366E-14
 -1      1455 1.14307E-02-5.02997E-04-7.29467E-14
 -1      1456 1.17937E-02-5.41650E-04-7.78971E-14
 -1      1457 1.19386E-02-5.41560E-04-7.98695E-14
 -1      1458 1.17224E-02-5.03879E-04-7.68350E-14
 -1      1459 1.20831E-02-5.41266E-04-8.18577E-14
 -1      1460 1.22273E-02-5.40743E-04-8.38585E-14
 -1      1461 1.20122E-02-5.03915E-04-8.07781E-14
 -1      1462 1.23713E-02-5.40010E-04-8.58686E-14
 -1      1463 1.25149E-02-5.39056E-04-8.78927E-14
 -1      1464 1.23007E-02-5.03030E-04-8.47707E-14
 -1      1465 1.26584E-02-5.37904E-04-8.99318E-14
 -1      1466 1.28017E-02-5.36551E-04-9.19825E-14
 -1      1467 1.25882E-02-5.01238E-04-8.88161E-14
 -1      1468 1.29449E-02-5.35020E-04-9.40453E-14
 -1      1469 1.30879E-02-5.33315E-04-9.61206E-14
 -1      1470 1.28750E-02-4.98613E-04-9.29118E-14
 -1      1471 1.32309E-02-5.31457E-04-9.82060E-14
 -1      1472 1.33738E-02-5.29453E-04-1.00300E-13
 -1      1473 1.31612E-02-4.95256E-04-9.70518E-14
 -1      1474 1.35167E-02-5.27324E-04-1.02401E-13
 -1      1475 1.36596E-02-5.25078E-04-1.04507E-13
 -1      1476 1.34472E-02-4.91283E-04-1.01232E-13
 -1      1477 1.38024E-02-5.22734E-04-1.06617E-13
 -1      1478 1.39452E-02-5.20302E-04-1.08734E-13
 -1      1479 1.37330E-02-4.86812E-04-1.05438E-13
 -1      1480 1.40880E-02-5.17797E-04-1.10855E-13
 -1      1481 1.42308E-02-5.15232E-04-1.12981E-13
 -1      1482 1.40187E-02-4.81956E-04-1.09668E-13
 -1      1483 1.43736E-02-5.12622E-04-1.15113E-13
 -1      1484 1.45164E-02-5.09977E-04-1.17249E-13
 -1      1485 1.43044E-02-4.76829E-04-1.13916E-13
 -1      1486 1.46592E-02-5.07313E-04-1.19391E-13
 -1      1487 1.48020E-02-5.04642E-04-1.21541E-13
 -1      1488 1.45901E-02-4.71538E-04-1.18186E-13
 -1      1489 1.50094E-02-4.96469E-04-1.24654E-13
 -1      1490 1.49403E-02-4.60678E-04-1.23437E-13
 -1      1491 6.41419E-04 3.63603E-04-1.49484E-17
 -1      1492 4.91308E-04 2.97853E-04 1.37829E-17
 -1      1493 4.44323E-04 2.60268E-04-1.07336E-17
 -1      1494 9.27884E-04 4.57990E-04-1.42491E-16
 -1      1495 7.86432E-04 4.15356E-04-6.69224E-17
 -1      1496 7.44717E-04 3.79737E-04-9.94620E-17
 -1      1497 1.20495E-03 5.21261E-04-3.66081E-16
 -1      1498 1.06702E-03 4.92726E-04-2.41696E-16
 -1      1499 1.03236E-03 4.59220E-04-2.81242E-16
 -1      1500 1.47923E-03 5.63686E-04-6.89309E-16
 -1      1501 1.34210E-03 5.44683E-04-5.15091E-16
 -1      1502 1.31317E-03 5.12457E-04-5.59855E-16
 -1      1503 1.75449E-03 5.91193E-04-1.11461E-15
 -1      1504 1.61654E-03 5.79044E-04-8.88910E-16
 -1      1505 1.59193E-03 5.47482E-04-9.38038E-16
 -1      1506 2.03302E-03 6.07786E-04-1.64141E-15
 -1      1507 1.89323E-03 6.00648E-04-1.36531E-15
 -1      1508 1.87173E-03 5.69309E-04-1.41754E-15
 -1      1509 2.31639E-03 6.16552E-04-2.27012E-15
 -1      1510 2.17402E-03 6.12962E-04-1.94320E-15
 -1      1511 2.15458E-03 5.81525E-04-1.99866E-15
 -1      1512 2.60586E-03 6.20172E-04-2.99898E-15
 -1      1513 2.46029E-03 6.18822E-04-2.62198E-15
 -1      1514 2.44192E-03 5.87023E-04-2.68028E-15
 -1      1515 2.90253E-03 6.21253E-04-3.83087E-15
 -1      1516 2.75322E-03 6.20836E-04-3.40225E-15
 -1      1517 2.73493E-03 5.88432E-04-3.46279E-15
 -1      1518 3.20745E-03 6.22603E-04-4.76553E-15
 -1      1519 3.05389E-03 6.21676E-04-4.28512E-15
 -1      1520 3.03462E-03 5.88426E-04-4.34724E-15
 -1      1521 3.52147E-03 6.27493E-04-5.80273E-15
 -1      1522 3.36327E-03 6.24356E-04-5.27100E-15
 -1      1523 3.34189E-03 5.90005E-04-5.33403E-15
 -1      1524 3.84512E-03 6.39871E-04-6.94469E-15
 -1      1525 3.68207E-03 6.32468E-04-6.36074E-15
 -1      1526 3.65739E-03 5.96761E-04-6.42376E-15
 -1      1527 4.17818E-03 6.64444E-04-8.19000E-15
 -1      1528 4.01051E-03 6.50348E-04-7.55450E-15
 -1      1529 3.98135E-03 6.13052E-04-7.61802E-15
 -1      1530 4.51920E-03 7.06406E-04-9.54457E-15
 -1      1531 4.34782E-03 6.83017E-04-8.85281E-15
 -1      1532 4.31326E-03 6.43981E-04-8.91686E-15
 -1      1533 4.86493E-03 7.70503E-04-1.10111E-14
 -1      1534 4.69174E-03 7.35610E-04-1.02637E-14
 -1      1535 4.65144E-03 6.94880E-04-1.03253E-14
 -1      1536 5.21001E-03 8.59051E-04-1.25907E-14
 -1      1537 5.03798E-03 8.11957E-04-1.17873E-14
 -1      1538 4.99268E-03 7.69929E-04-1.18458E-14
 -1      1539 5.54727E-03 9.68873E-04-1.42857E-14
 -1      1540 5.38015E-03 9.12019E-04-1.34237E-14
 -1      1541 5.33213E-03 8.69611E-04-1.34796E-14
 -1      1542 5.86940E-03 1.08813E-03-1.61008E-14
 -1      1543 5.71068E-03 1.02856E-03-1.51779E-14
 -1      1544 5.66383E-03 9.87243E-04-1.52292E-14
 -1      1545 6.17200E-03 1.19570E-03-1.80385E-14
 -1      1546 6.02326E-03 1.14491E-03-1.70536E-14
 -1      1547 5.98246E-03 1.10637E-03-1.71007E-14
 -1      1548 6.45688E-03 1.26610E-03-2.01060E-14
 -1      1549 6.31624E-03 1.23681E-03-1.90552E-14
 -1      1550 6.28605E-03 1.20222E-03-1.90982E-14
 -1      1551 6.73307E-03 1.27982E-03-2.22997E-14
 -1      1552 6.59522E-03 1.28040E-03-2.11866E-14
 -1      1553 6.57839E-03 1.24963E-03-2.12254E-14
 -1      1554 7.01363E-03 1.23342E-03-2.46178E-14
 -1      1555 6.87192E-03 1.26335E-03-2.34435E-14
 -1      1556 6.86847E-03 1.23486E-03-2.34779E-14
 -1      1557 7.30967E-03 1.14150E-03-2.70558E-14
 -1      1558 7.15920E-03 1.19161E-03-2.58227E-14
 -1      1559 7.16651E-03 1.16331E-03-2.58531E-14
 -1      1560 7.62575E-03 1.02876E-03-2.96078E-14
 -1      1561 7.46519E-03 1.08614E-03-2.83181E-14
 -1      1562 7.47891E-03 1.05642E-03-2.83457E-14
 -1      1563 7.95947E-03 9.18833E-04-3.22678E-14
 -1      1564 7.79076E-03 9.72346E-04-3.09235E-14
 -1      1565 7.80614E-03 9.40553E-04-3.09493E-14
 -1      1566 8.30424E-03 8.27110E-04-3.50426E-14
 -1      1567 8.13097E-03 8.70223E-04-3.36418E-14
 -1      1568 8.14411E-03 8.36531E-04-3.36648E-14
 -1      1569 8.65268E-03 7.59653E-04-3.79176E-14
 -1      1570 8.47845E-03 7.90344E-04-3.64666E-14
 -1      1571 8.48696E-03 7.55324E-04-3.64866E-14
 -1      1572 8.99881E-03 7.15841E-04-4.08972E-14
 -1      1573 8.82636E-03 7.35032E-04-3.93945E-14
 -1      1574 8.82933E-03 6.99323E-04-3.94114E-14
 -1      1575 9.33881E-03 6.91701E-04-4.39739E-14
 -1      1576 9.16976E-03 7.01629E-04-4.24248E-14
 -1      1577 9.16739E-03 6.65759E-04-4.24367E-14
 -1      1578 9.67083E-03 6.82330E-04-4.71390E-14
 -1      1579 9.50588E-03 6.85469E-04-4.55460E-14
 -1      1580 9.49896E-03 6.49804E-04-4.55540E-14
 -1      1581 9.99449E-03 6.83198E-04-5.03802E-14
 -1      1582 9.83370E-03 6.81729E-04-4.87495E-14
 -1      1583 9.82322E-03 6.46484E-04-4.87545E-14
 -1      1584 1.03103E-02 6.90652E-04-5.37015E-14
 -1      1585 1.01533E-02 6.86287E-04-5.20308E-14
 -1      1586 1.01403E-02 6.51558E-04-5.20356E-14
 -1      1587 1.06193E-02 7.01976E-04-5.71149E-14
 -1      1588 1.04656E-02 6.95962E-04-5.53962E-14
 -1      1589 1.04507E-02 6.61769E-04-5.54017E-14
 -1      1590 1.09224E-02 7.15265E-04-6.06200E-14
 -1      1591 1.07715E-02 7.08464E-04-5.88554E-14
 -1      1592 1.07555E-02 6.74776E-04-5.88607E-14
 -1      1593 1.12210E-02 7.29252E-04-6.42093E-14
 -1      1594 1.10722E-02 7.22229E-04-6.24054E-14
 -1      1595 1.10556E-02 6.88989E-04-6.24094E-14
 -1      1596 1.15158E-02 7.43138E-04-6.78804E-14
 -1      1597 1.13688E-02 7.36242E-04-6.60349E-14
 -1      1598 1.13519E-02 7.03386E-04-6.60375E-14
 -1      1599 1.18079E-02 7.56461E-04-7.16302E-14
 -1      1600 1.16622E-02 7.49889E-04-6.97459E-14
 -1      1601 1.16451E-02 7.17350E-04-6.97440E-14
 -1      1602 1.20979E-02 7.68983E-04-7.54512E-14
 -1      1603 1.19531E-02 7.62830E-04-7.35306E-14
 -1      1604 1.19361E-02 7.30547E-04-7.35229E-14
 -1      1605 1.23864E-02 7.80618E-04-7.93372E-14
 -1      1606 1.22423E-02 7.74913E-04-7.73873E-14
 -1      1607 1.22254E-02 7.42831E-04-7.73743E-14
 -1      1608 1.26737E-02 7.91377E-04-8.32828E-14
 -1      1609 1.25301E-02 7.86104E-04-8.13025E-14
 -1      1610 1.25134E-02 7.54178E-04-8.12883E-14
 -1      1611 1.29603E-02 8.01324E-04-8.72656E-14
 -1      1612 1.28171E-02 7.96447E-04-8.52703E-14
 -1      1613 1.28006E-02 7.64637E-04-8.52523E-14
 -1      1614 1.32465E-02 8.10556E-04-9.12887E-14
 -1      1615 1.31034E-02 8.06023E-04-8.92721E-14
 -1      1616 1.30871E-02 7.74299E-04-8.92576E-14
 -1      1617 1.35323E-02 8.19183E-04-9.53421E-14
 -1      1618 1.33894E-02 8.14938E-04-9.33125E-14
 -1      1619 1.33732E-02 7.83275E-04-9.32968E-14
 -1      1620 1.38179E-02 8.27319E-04-9.94274E-14
 -1      1621 1.36751E-02 8.23306E-04-9.73810E-14
 -1      1622 1.36590E-02 7.91684E-04-9.73669E-14
 -1      1623 1.41035E-02 8.35076E-04-1.03549E-13
 -1      1624 1.39607E-02 8.31238E-04-1.01484E-13
 -1      1625 1.39448E-02 7.99642E-04-1.01468E-13
 -1      1626 1.43891E-02 8.42562E-04-1.07699E-13
 -1      1627 1.42463E-02 8.38846E-04-1.05619E-13
 -1      1628 1.42304E-02 8.07264E-04-1.05599E-13
 -1      1629 1.46747E-02 8.49884E-04-1.11886E-13
 -1      1630 1.45319E-02 8.46237E-04-1.09789E-13
 -1      1631 1.45161E-02 8.14659E-04-1.09768E-13
 -1      1632 1.49604E-02 8.57148E-04-1.16103E-13
 -1      1633 1.48175E-02 8.53517E-04-1.13992E-13
 -1      1634 1.48017E-02 8.21937E-04-1.13968E-13
 -1      1635 1.51083E-02 8.50050E-04-1.18366E-13
 -1      1636 1.51112E-02 7.44963E-04-1.19119E-13
 -1      1637 1.51149E-02 7.87128E-04-1.18890E-13
 -1      1638 1.51040E-02 6.60601E-04-1.19568E-13
 -1      1639 1.51076E-02 7.02787E-04-1.19347E-13
 -1      1640 1.49857E-02 7.20736E-04-1.17395E-13
 -1      1641 1.50969E-02 5.76203E-04-1.19997E-13
 -1      1642 1.51005E-02 6.18405E-04-1.19784E-13
 -1      1643 1.49785E-02 6.36395E-04-1.17839E-13
 -1      1644 1.50900E-02 4.91788E-04-1.20418E-13
 -1      1645 1.50934E-02 5.33997E-04-1.20211E-13
 -1      1646 1.49714E-02 5.52040E-04-1.18269E-13
 -1      1647 1.50833E-02 4.08801E-04-1.20817E-13
 -1      1648 1.50866E-02 4.50294E-04-1.20619E-13
 -1      1649 1.49646E-02 4.68400E-04-1.18685E-13
 -1      1650 1.50767E-02 3.24391E-04-1.21210E-13
 -1      1651 1.50800E-02 3.66594E-04-1.21015E-13
 -1      1652 1.49579E-02 3.84771E-04-1.19085E-13
 -1      1653 1.50703E-02 2.39991E-04-1.21597E-13
 -1      1654 1.50735E-02 2.82189E-04-1.21401E-13
 -1      1655 1.49514E-02 3.00441E-04-1.19478E-13
 -1      1656 1.50641E-02 1.55596E-04-1.22000E-13
 -1      1657 1.50672E-02 1.97793E-04-1.21799E-13
 -1      1658 1.49450E-02 2.16124E-04-1.19874E-13
 -1      1659 1.50580E-02 7.12004E-05-1.22395E-13
 -1      1660 1.50610E-02 1.13399E-04-1.22203E-13
 -1      1661 1.49388E-02 1.31811E-04-1.20274E-13
 -1      1662 1.50521E-02-1.32039E-05-1.22787E-13
 -1      1663 1.50551E-02 2.89995E-05-1.22590E-13
 -1      1664 1.49328E-02 4.74942E-05-1.20667E-13
 -1      1665 1.50465E-02-9.61870E-05-1.23173E-13
 -1      1666 1.50493E-02-5.46945E-05-1.22981E-13
 -1      1667 1.49270E-02-3.61202E-05-1.21050E-13
 -1      1668 1.50410E-02-1.80604E-04-1.23562E-13
 -1      1669 1.50437E-02-1.38396E-04-1.23369E-13
 -1      1670 1.49214E-02-1.19749E-04-1.21428E-13
 -1      1671 1.50356E-02-2.65012E-04-1.23929E-13
 -1      1672 1.50383E-02-2.22810E-04-1.23751E-13
 -1      1673 1.49159E-02-2.04103E-04-1.21800E-13
 -1      1674 1.50304E-02-3.49392E-04-1.24269E-13
 -1      1675 1.50330E-02-3.07206E-04-1.24104E-13
 -1      1676 1.49106E-02-2.88457E-04-1.22156E-13
 -1      1677 1.49841E-02-4.26126E-04-1.23940E-13
 -1      1678 1.49866E-02-3.83962E-04-1.23772E-13
 -1      1679 1.48642E-02-3.65199E-04-1.21830E-13
 -1      1680 1.47767E-02-4.34316E-04-1.20834E-13
 -1      1681 8.82472E-03 1.14823E-04-2.96187E-14
 -1      1682 8.86068E-03 7.07428E-05-2.97419E-14
 -1      1683 8.65750E-03 2.30645E-04-2.90548E-14
 -1      1684 8.74672E-03 1.79046E-04-2.92917E-14
 -1      1685 8.38677E-03 3.69238E-04-2.83458E-14
 -1      1686 8.52407E-03 3.01242E-04-2.87012E-14
 -1      1687 8.05458E-03 5.35253E-04-2.74332E-14
 -1      1688 8.21483E-03 4.58675E-04-2.78570E-14
 -1      1689 7.68832E-03 7.02379E-04-2.64101E-14
 -1      1690 7.85986E-03 6.25395E-04-2.68959E-14
 -1      1691 7.30152E-03 8.54005E-04-2.52476E-14
 -1      1692 7.48237E-03 7.87246E-04-2.57998E-14
 -1      1693 6.88308E-03 9.62313E-04-2.39576E-14
 -1      1694 7.06831E-03 9.22038E-04-2.45733E-14
 -1      1695 6.50092E-03 9.71288E-04-2.27141E-14
 -1      1696 6.67305E-03 9.76463E-04-2.32590E-14
 -1      1697 6.10021E-03 8.93460E-04-2.15062E-14
 -1      1698 6.28881E-03 9.42057E-04-2.20552E-14
 -1      1699 5.70174E-03 7.39807E-04-2.04054E-14
 -1      1700 5.88532E-03 8.16955E-04-2.08698E-14
 -1      1701 5.28843E-03 5.64685E-04-1.95756E-14
 -1      1702 5.46805E-03 6.48714E-04-1.99527E-14
 -1      1703 4.93574E-03 4.01112E-04-1.89465E-14
 -1      1704 5.08848E-03 4.75151E-04-1.92172E-14
 -1      1705 4.63947E-03 2.36925E-04-1.84046E-14
 -1      1706 4.77325E-03 3.03924E-04-1.86021E-14
 -1      1707 4.44291E-03 1.31404E-04-1.82296E-14
 -1      1708 4.51529E-03 1.80542E-04-1.83113E-14
 -1      1709 4.37307E-03 3.37669E-05-1.82039E-14
 -1      1710 4.38986E-03 7.75565E-05-1.81899E-14
 -1      1711 4.43588E-03-6.26016E-05-1.83509E-14
 -1      1712 4.38898E-03-1.70930E-05-1.82332E-14
 -1      1713 4.61989E-03-1.82614E-04-1.87913E-14
 -1      1714 4.52195E-03-1.27408E-04-1.85877E-14
 -1      1715 4.90705E-03-3.27812E-04-1.93889E-14
 -1      1716 4.76193E-03-2.56490E-04-1.90860E-14
 -1      1717 5.27543E-03-5.03122E-04-2.02095E-14
 -1      1718 5.09662E-03-4.19222E-04-1.98027E-14
 -1      1719 5.69225E-03-6.78193E-04-2.11901E-14
 -1      1720 5.50386E-03-5.95823E-04-2.07044E-14
 -1      1721 6.11456E-03-8.27070E-04-2.23567E-14
 -1      1722 5.92758E-03-7.64868E-04-2.17982E-14
 -1      1723 6.49075E-03-8.91376E-04-2.35757E-14
 -1      1724 6.31987E-03-8.71242E-04-2.30342E-14
 -1      1725 6.87016E-03-8.74777E-04-2.48048E-14
 -1      1726 6.69591E-03-8.94315E-04-2.42382E-14
 -1      1727 7.27042E-03-7.67081E-04-2.61076E-14
 -1      1728 7.08231E-03-8.29052E-04-2.55203E-14
 -1      1729 7.70725E-03-6.00492E-04-2.72209E-14
 -1      1730 7.51602E-03-6.82274E-04-2.67064E-14
 -1      1731 8.10979E-03-4.15318E-04-2.82146E-14
 -1      1732 7.92674E-03-5.01603E-04-2.77810E-14
 -1      1733 8.46231E-03-2.44329E-04-2.89754E-14
 -1      1734 8.30789E-03-3.20174E-04-2.86579E-14
 -1      1735 8.72845E-03-1.01057E-04-2.94750E-14
 -1      1736 8.61888E-03-1.63858E-04-2.92792E-14
 -1      1737 8.85743E-03 1.69633E-05-2.97202E-14
 -1      1738 8.81688E-03-3.08305E-05-2.96863E-14
 -1      1739 7.89875E-03 5.40981E-04-2.74550E-14
 -1      1740 8.25993E-03 3.60263E-04-2.84964E-14
 -1      1741 1.50925E-02 8.18460E-04-1.18342E-13
 -1      1742 1.49670E-02 7.94233E-04-1.16623E-13
 -1      1743 8.78937E-03 1.11502E-04-3.00405E-14
 -1      1744 8.57011E-03 2.15543E-04-2.93517E-14
 -1      1745 8.86991E-03 4.63190E-05-3.03508E-14
 -1      1746 7.52243E-03 7.29884E-04-2.62934E-14
 -1      1747 7.12922E-03 8.98813E-04-2.49995E-14
 -1      1748 6.77108E-03 9.95439E-04-2.36228E-14
 -1      1749 6.41324E-03 9.79872E-04-2.22686E-14
 -1      1750 6.04682E-03 8.60196E-04-2.09830E-14
 -1      1751 5.65501E-03 6.70447E-04-1.99125E-14
 -1      1752 5.24842E-03 4.75465E-04-1.91182E-14
 -1      1753 4.88720E-03 2.93295E-04-1.84301E-14
 -1      1754 4.59281E-03 1.63490E-04-1.80085E-14
 -1      1755 4.41097E-03 8.08229E-05-1.78816E-14
 -1      1756 4.37168E-03 1.36180E-05-1.78701E-14
 -1      1757 4.47926E-03-5.73678E-05-1.81272E-14
 -1      1758 4.71513E-03-1.68995E-04-1.86477E-14
 -1      1759 5.04911E-03-3.23893E-04-1.93422E-14
 -1      1760 5.45304E-03-5.15781E-04-2.02366E-14
 -1      1761 5.87363E-03-7.15108E-04-2.13245E-14
 -1      1762 6.24605E-03-8.66367E-04-2.25981E-14
 -1      1763 6.59672E-03-9.19956E-04-2.39351E-14
 -1      1764 6.94577E-03-8.70466E-04-2.53155E-14
 -1      1765 7.32775E-03-7.19696E-04-2.66412E-14
 -1      1766 7.75617E-03-5.18879E-04-2.78135E-14
 -1      1767 8.16182E-03-3.17339E-04-2.88322E-14
 -1      1768 8.52002E-03-1.52152E-04-2.95929E-14
 -1      1769 8.77380E-03-3.09288E-05-3.01161E-14
 -1      1770 2.84788E-04-1.73064E-04-4.55771E-17
 -1      1771 3.33252E-04-1.11209E-04-1.40092E-16
 -1      1772 3.37459E-04-1.27537E-04-1.32422E-16
 -1      1773 3.43285E-04-1.46683E-04-1.22583E-16
 -1      1774 3.52582E-04-1.68897E-04-1.08380E-16
 -1      1775 4.59914E-04-1.80551E-04-1.92270E-16
 -1      1776 3.24710E-04-6.06290E-05-1.54485E-16
 -1      1777 3.26134E-04-7.15373E-05-1.52764E-16
 -1      1778 3.22675E-04-4.02549E-05-1.55854E-16
 -1      1779 3.23590E-04-5.01304E-05-1.55488E-16
 -1      1780 4.36292E-04-7.32959E-05-2.28618E-16
 -1      1781 3.21477E-04-2.16286E-05-1.54838E-16
 -1      1782 3.21990E-04-3.07574E-05-1.55515E-16
 -1      1783 4.33515E-04-4.69715E-05-2.29526E-16
 -1      1784 3.20991E-04-3.91032E-06-1.52141E-16
 -1      1785 3.21151E-04-1.26866E-05-1.53740E-16
 -1      1786 4.31953E-04-2.26521E-05-2.27493E-16
 -1      1787 3.21181E-04 1.36448E-05-1.48021E-16
 -1      1788 3.21000E-04 4.85868E-06-1.50365E-16
 -1      1789 4.31467E-04 7.27558E-07-2.23305E-16
 -1      1790 3.22064E-04 3.17686E-05-1.42112E-16
 -1      1791 3.21527E-04 2.26075E-05-1.45459E-16
 -1      1792 4.32023E-04 2.41361E-05-2.16813E-16
 -1      1793 3.23683E-04 5.09038E-05-1.33845E-16
 -1      1794 3.22761E-04 4.11471E-05-1.38344E-16
 -1      1795 4.33645E-04 4.83330E-05-2.07598E-16
 -1      1796 3.26310E-04 7.26558E-05-1.22434E-16
 -1      1797 3.24830E-04 6.14649E-05-1.28844E-16
 -1      1798 4.36485E-04 7.45696E-05-1.95062E-16
 -1      1799 3.30484E-04 9.80859E-05-1.06265E-16
 -1      1800 3.28119E-04 8.48761E-05-1.15224E-16
 -1      1801 4.40990E-04 1.04439E-04-1.77768E-16
 -1      1802 3.37724E-04 1.29602E-04-8.30905E-17
 -1      1803 3.33494E-04 1.13018E-04-9.60332E-17
 -1      1804 4.48146E-04 1.39716E-04-1.53401E-16
 -1      1805 3.53106E-04 1.72456E-04-5.06187E-17
 -1      1806 3.43877E-04 1.49403E-04-6.86164E-17
 -1      1807 4.60894E-04 1.83879E-04-1.19696E-16
 -1      1808 4.07761E-04 2.28279E-04-2.59531E-17
 -1      1809 3.78651E-04 1.97358E-04-4.14572E-17
 -1      1810 4.97054E-04 2.36384E-04-8.85522E-17
 -1      1811 5.58878E-04 2.94501E-04-6.14878E-17
 -1      1812 3.40274E-04-1.86465E-04-7.93365E-17
 -1      1813 8.55026E-04 3.93421E-04-2.01431E-16
 -1      1814 7.07947E-04 3.48607E-04-1.20048E-16
 -1      1815 6.74761E-04 3.18253E-04-1.37545E-16
 -1      1816 4.59788E-04-2.30030E-04-1.41014E-16
 -1      1817 8.09157E-04-3.60984E-04-3.76571E-16
 -1      1818 9.55313E-04-3.99114E-04-5.25716E-16
 -1      1819 1.09930E-03-4.30584E-04-7.01953E-16
 -1      1820 1.24240E-03-4.56095E-04-9.05621E-16
 -1      1821 1.00787E-03-3.79957E-04-6.42851E-16
 -1      1822 1.38456E-03-4.77010E-04-1.13600E-15
 -1      1823 1.52640E-03-4.93641E-04-1.39358E-15
 -1      1824 1.29618E-03-4.31063E-04-1.05409E-15
 -1      1825 1.66811E-03-5.06897E-04-1.67832E-15
 -1      1826 1.81000E-03-5.17049E-04-1.98969E-15
 -1      1827 1.58238E-03-4.64394E-04-1.57232E-15
 -1      1828 1.95227E-03-5.24715E-04-2.32742E-15
 -1      1829 2.09511E-03-5.30153E-04-2.69220E-15
 -1      1830 1.86829E-03-4.84613E-04-2.19688E-15
 -1      1831 2.23867E-03-5.33827E-04-3.08385E-15
 -1      1832 2.38312E-03-5.35995E-04-3.50207E-15
 -1      1833 2.15537E-03-4.95263E-04-2.92721E-15
 -1      1834 2.52855E-03-5.37052E-04-3.94643E-15
 -1      1835 2.67512E-03-5.37268E-04-4.41697E-15
 -1      1836 2.44479E-03-4.99253E-04-3.76314E-15
 -1      1837 2.82288E-03-5.37029E-04-4.91340E-15
 -1      1838 2.97199E-03-5.36633E-04-5.43517E-15
 -1      1839 2.73748E-03-4.99223E-04-4.70311E-15
 -1      1840 3.12249E-03-5.36508E-04-5.98270E-15
 -1      1841 3.27450E-03-5.36997E-04-6.55513E-15
 -1      1842 3.03425E-03-4.97848E-04-5.74557E-15
 -1      1843 3.42806E-03-5.38609E-04-7.15300E-15
 -1      1844 3.58323E-03-5.41749E-04-7.77597E-15
 -1      1845 3.33584E-03-4.98099E-04-6.88880E-15
 -1      1846 3.74007E-03-5.47030E-04-8.42420E-15
 -1      1847 3.89852E-03-5.54928E-04-9.09807E-15
 -1      1848 3.64290E-03-5.03474E-04-8.13238E-15
 -1      1849 4.05870E-03-5.66141E-04-9.79570E-15
 -1      1850 4.22032E-03-5.81195E-04-1.05194E-14
 -1      1851 3.95603E-03-5.18149E-04-9.47571E-15
 -1      1852 4.38362E-03-6.00789E-04-1.12683E-14
 -1      1853 4.54797E-03-6.25412E-04-1.20418E-14
 -1      1854 4.27563E-03-5.46924E-04-1.09192E-14
 -1      1855 4.71373E-03-6.55556E-04-1.28401E-14
 -1      1856 4.87986E-03-6.91497E-04-1.36638E-14
 -1      1857 4.60170E-03-5.94733E-04-1.24629E-14
 -1      1858 5.04682E-03-7.33189E-04-1.45149E-14
 -1      1859 5.21316E-03-7.80304E-04-1.53908E-14
 -1      1860 4.93344E-03-6.65425E-04-1.41078E-14
 -1      1861 5.37929E-03-8.31856E-04-1.62932E-14
 -1      1862 5.54371E-03-8.86561E-04-1.72219E-14
 -1      1863 5.26853E-03-7.59348E-04-1.58560E-14
 -1      1864 5.70657E-03-9.42248E-04-1.81787E-14
 -1      1865 5.86687E-03-9.96342E-04-1.91630E-14
 -1      1866 5.60277E-03-8.70043E-04-1.77110E-14
 -1      1867 6.02437E-03-1.04575E-03-2.01761E-14
 -1      1868 6.17946E-03-1.08726E-03-2.12198E-14
 -1      1869 5.93071E-03-9.81252E-04-1.96773E-14
 -1      1870 6.33148E-03-1.11786E-03-2.22922E-14
 -1      1871 6.48258E-03-1.13500E-03-2.33954E-14
 -1      1872 6.24849E-03-1.06781E-03-2.17591E-14
 -1      1873 6.63188E-03-1.13720E-03-2.45310E-14
 -1      1874 6.78248E-03-1.12413E-03-2.56973E-14
 -1      1875 6.55770E-03-1.10397E-03-2.39647E-14
 -1      1876 6.93350E-03-1.09667E-03-2.68955E-14
 -1      1877 7.08744E-03-1.05687E-03-2.81254E-14
 -1      1878 6.86579E-03-1.07668E-03-2.62959E-14
 -1      1879 7.24359E-03-1.00748E-03-2.93858E-14
 -1      1880 7.40280E-03-9.51700E-04-3.06778E-14
 -1      1881 7.18113E-03-9.93761E-04-2.87540E-14
 -1      1882 7.56468E-03-8.92740E-04-3.20021E-14
 -1      1883 7.72859E-03-8.33423E-04-3.33562E-14
 -1      1884 7.50701E-03-8.78856E-04-3.13377E-14
 -1      1885 7.89459E-03-7.76201E-04-3.47405E-14
 -1      1886 8.06120E-03-7.22749E-04-3.61543E-14
 -1      1887 7.84077E-03-7.58397E-04-3.40439E-14
 -1      1888 8.22881E-03-6.74354E-04-3.76004E-14
 -1      1889 8.39593E-03-6.31551E-04-3.90746E-14
 -1      1890 8.17708E-03-6.51403E-04-3.68706E-14
 -1      1891 8.56302E-03-5.94610E-04-4.05783E-14
 -1      1892 8.72896E-03-5.63396E-04-4.21129E-14
 -1      1893 8.51127E-03-5.66790E-04-3.98158E-14
 -1      1894 8.89413E-03-5.37539E-04-4.36758E-14
 -1      1895 9.05783E-03-5.16609E-04-4.52661E-14
 -1      1896 8.84064E-03-5.05728E-04-4.28786E-14
 -1      1897 9.22032E-03-4.99966E-04-4.68821E-14
 -1      1898 9.38127E-03-4.87120E-04-4.85258E-14
 -1      1899 9.16410E-03-4.65189E-04-4.60513E-14
 -1      1900 9.54083E-03-4.77405E-04-5.01950E-14
 -1      1901 9.69890E-03-4.70375E-04-5.18864E-14
 -1      1902 9.48158E-03-4.40609E-04-4.93284E-14
 -1      1903 9.85555E-03-4.65461E-04-5.36022E-14
 -1      1904 1.00109E-02-4.62300E-04-5.53381E-14
 -1      1905 9.79348E-03-4.27434E-04-5.27059E-14
 -1      1906 1.01648E-02-4.60456E-04-5.70983E-14
 -1      1907 1.03176E-02-4.59653E-04-5.88805E-14
 -1      1908 1.01004E-02-4.21803E-04-5.61727E-14
 -1      1909 1.04693E-02-4.59583E-04-6.06826E-14
 -1      1910 1.06199E-02-4.60042E-04-6.25068E-14
 -1      1911 1.04029E-02-4.20732E-04-5.97285E-14
 -1      1912 1.07695E-02-4.60831E-04-6.43525E-14
 -1      1913 1.09183E-02-4.61805E-04-6.62168E-14
 -1      1914 1.07018E-02-4.22069E-04-6.33686E-14
 -1      1915 1.10663E-02-4.62844E-04-6.80978E-14
 -1      1916 1.12136E-02-4.63850E-04-6.99959E-14
 -1      1917 1.09977E-02-4.24341E-04-6.70893E-14
 -1      1918 1.13602E-02-4.64759E-04-7.19090E-14
 -1      1919 1.15063E-02-4.65506E-04-7.38371E-14
 -1      1920 1.12910E-02-4.26604E-04-7.08777E-14
 -1      1921 1.16519E-02-4.66067E-04-7.57785E-14
 -1      1922 1.17971E-02-4.66401E-04-7.77328E-14
 -1      1923 1.15824E-02-4.28291E-04-7.47245E-14
 -1      1924 1.19419E-02-4.66508E-04-7.97015E-14
 -1      1925 1.20864E-02-4.66366E-04-8.16833E-14
 -1      1926 1.18722E-02-4.29106E-04-7.86293E-14
 -1      1927 1.22305E-02-4.65987E-04-8.36769E-14
 -1      1928 1.23745E-02-4.65361E-04-8.56826E-14
 -1      1929 1.21608E-02-4.28929E-04-8.25847E-14
 -1      1930 1.25182E-02-4.64511E-04-8.77041E-14
 -1      1931 1.26617E-02-4.63432E-04-8.97370E-14
 -1      1932 1.24485E-02-4.27758E-04-8.65950E-14
 -1      1933 1.28051E-02-4.62150E-04-9.17806E-14
 -1      1934 1.29484E-02-4.60667E-04-9.38372E-14
 -1      1935 1.27355E-02-4.25657E-04-9.06535E-14
 -1      1936 1.30916E-02-4.59008E-04-9.59054E-14
 -1      1937 1.32347E-02-4.57179E-04-9.79820E-14
 -1      1938 1.30221E-02-4.22730E-04-9.47607E-14
 -1      1939 1.33777E-02-4.55204E-04-1.00069E-13
 -1      1940 1.35207E-02-4.53090E-04-1.02162E-13
 -1      1941 1.33083E-02-4.19098E-04-9.89081E-14
 -1      1942 1.36637E-02-4.50860E-04-1.04261E-13
 -1      1943 1.38066E-02-4.48522E-04-1.06369E-13
 -1      1944 1.35943E-02-4.14887E-04-1.03088E-13
 -1      1945 1.39494E-02-4.46096E-04-1.08481E-13
 -1      1946 1.40923E-02-4.43591E-04-1.10599E-13
 -1      1947 1.38802E-02-4.10219E-04-1.07296E-13
 -1      1948 1.42352E-02-4.41026E-04-1.12722E-13
 -1      1949 1.43780E-02-4.38410E-04-1.14850E-13
 -1      1950 1.41659E-02-4.05213E-04-1.11527E-13
 -1      1951 1.45059E-02-4.37712E-04-1.16767E-13
 -1      1952 1.46488E-02-4.35042E-04-1.18905E-13
 -1      1953 1.46925E-02-4.00493E-04-1.19404E-13
 -1      1954 1.44367E-02-4.01931E-04-1.15564E-13
 -1      1955 1.14225E-03 4.60062E-04-4.34020E-16
 -1      1956 9.99248E-04 4.30052E-04-3.05474E-16
 -1      1957 9.67443E-04 4.00801E-04-3.26711E-16
 -1      1958 1.42485E-03 5.04530E-04-7.64634E-16
 -1      1959 1.28377E-03 4.84672E-04-5.86933E-16
 -1      1960 1.25455E-03 4.56697E-04-6.10596E-16
 -1      1961 1.70641E-03 5.33096E-04-1.19512E-15
 -1      1962 1.56555E-03 5.20545E-04-9.67461E-16
 -1      1963 1.53879E-03 4.93462E-04-9.93034E-16
 -1      1964 1.98933E-03 5.50029E-04-1.72594E-15
 -1      1965 1.84757E-03 5.42824E-04-1.44774E-15
 -1      1966 1.82271E-03 5.16260E-04-1.47496E-15
 -1      1967 2.27528E-03 5.58570E-04-2.35799E-15
 -1      1968 2.13183E-03 5.55185E-04-2.02934E-15
 -1      1969 2.10818E-03 5.28842E-04-2.05699E-15
 -1      1970 2.56553E-03 5.61471E-04-3.09007E-15
 -1      1971 2.41979E-03 5.60571E-04-2.71196E-15
 -1      1972 2.39660E-03 5.34196E-04-2.73981E-15
 -1      1973 2.86112E-03 5.61350E-04-3.92385E-15
 -1      1974 2.71258E-03 5.61627E-04-3.49398E-15
 -1      1975 2.68906E-03 5.34983E-04-3.52242E-15
 -1      1976 3.16298E-03 5.60992E-04-4.85866E-15
 -1      1977 3.01119E-03 5.61019E-04-4.37829E-15
 -1      1978 2.98652E-03 5.33855E-04-4.40576E-15
 -1      1979 3.47188E-03 5.63630E-04-5.89501E-15
 -1      1980 3.31649E-03 5.61724E-04-5.36444E-15
 -1      1981 3.28980E-03 5.33753E-04-5.39125E-15
 -1      1982 3.78834E-03 5.73188E-04-7.03554E-15
 -1      1983 3.62912E-03 5.67294E-04-6.45209E-15
 -1      1984 3.59959E-03 5.38181E-04-6.47774E-15
 -1      1985 4.11247E-03 5.94413E-04-8.27971E-15
 -1      1986 3.94946E-03 5.82063E-04-7.64400E-15
 -1      1987 3.91640E-03 5.51420E-04-7.66749E-15
 -1      1988 4.44368E-03 6.32692E-04-9.63010E-15
 -1      1989 4.27729E-03 6.11148E-04-8.94114E-15
 -1      1990 4.24038E-03 5.78576E-04-8.96187E-15
 -1      1991 4.78033E-03 6.93251E-04-1.10906E-14
 -1      1992 4.61157E-03 6.60007E-04-1.03468E-14
 -1      1993 4.57110E-03 6.25207E-04-1.03646E-14
 -1      1994 5.11942E-03 7.79301E-04-1.26633E-14
 -1      1995 4.94998E-03 7.33155E-04-1.18629E-14
 -1      1996 4.90721E-03 6.96162E-04-1.18767E-14
 -1      1997 5.45648E-03 8.88978E-04-1.43488E-14
 -1      1998 5.28875E-03 8.31712E-04-1.34918E-14
 -1      1999 5.24593E-03 7.93242E-04-1.35013E-14
 -1      2000 5.78608E-03 1.01162E-03-1.61527E-14
 -1      2001 5.62272E-03 9.49797E-04-1.52355E-14
 -1      2002 5.58281E-03 9.11535E-04-1.52390E-14
 -1      2003 6.10386E-03 1.12622E-03-1.80808E-14
 -1      2004 5.94665E-03 1.07150E-03-1.71008E-14
 -1      2005 5.91242E-03 1.03583E-03-1.70980E-14
 -1      2006 6.40928E-03 1.20538E-03-2.01378E-14
 -1      2007 6.25775E-03 1.17168E-03-1.90931E-14
 -1      2008 6.23076E-03 1.14068E-03-1.90842E-14
 -1      2009 6.70766E-03 1.22630E-03-2.23223E-14
 -1      2010 6.55846E-03 1.22366E-03-2.12140E-14
 -1      2011 6.53881E-03 1.19766E-03-2.11997E-14
 -1      2012 7.00831E-03 1.18306E-03-2.46303E-14
 -1      2013 6.85675E-03 1.21198E-03-2.34611E-14
 -1      2014 6.84373E-03 1.18920E-03-2.34407E-14
 -1      2015 7.31927E-03 1.09015E-03-2.70605E-14
 -1      2016 7.16197E-03 1.14126E-03-2.58311E-14
 -1      2017 7.15486E-03 1.11906E-03-2.58062E-14
 -1      2018 7.64323E-03 9.73983E-04-2.96053E-14
 -1      2019 7.47964E-03 1.03336E-03-2.83181E-14
 -1      2020 7.47752E-03 1.00987E-03-2.82887E-14
 -1      2021 7.97770E-03 8.60172E-04-3.22593E-14
 -1      2022 7.80954E-03 9.15713E-04-3.09186E-14
 -1      2023 7.81078E-03 8.90321E-04-3.08845E-14
 -1      2024 8.31762E-03 7.65289E-04-3.50266E-14
 -1      2025 8.14747E-03 8.09941E-04-3.36297E-14
 -1      2026 8.14987E-03 7.82935E-04-3.35914E-14
 -1      2027 8.65793E-03 6.95801E-04-3.78947E-14
 -1      2028 8.48814E-03 7.27409E-04-3.64477E-14
 -1      2029 8.48956E-03 6.99333E-04-3.64056E-14
 -1      2030 8.99489E-03 6.51015E-04-4.08659E-14
 -1      2031 8.82712E-03 6.70581E-04-3.93682E-14
 -1      2032 8.82602E-03 6.41918E-04-3.93212E-14
 -1      2033 9.32625E-03 6.26718E-04-4.39328E-14
 -1      2034 9.16143E-03 6.36624E-04-4.23875E-14
 -1      2035 9.15708E-03 6.07719E-04-4.23363E-14
 -1      2036 9.65099E-03 6.17731E-04-4.70893E-14
 -1      2037 9.48951E-03 6.20599E-04-4.54998E-14
 -1      2038 9.48183E-03 5.91686E-04-4.54445E-14
 -1      2039 9.96899E-03 6.19295E-04-5.03268E-14
 -1      2040 9.81083E-03 6.17423E-04-4.86980E-14
 -1      2041 9.80015E-03 5.88653E-04-4.86386E-14
 -1      2042 1.02807E-02 6.27584E-04-5.36482E-14
 -1      2043 1.01256E-02 6.22766E-04-5.19782E-14
 -1      2044 1.01124E-02 5.94230E-04-5.19175E-14
 -1      2045 1.05868E-02 6.39765E-04-5.70596E-14
 -1      2046 1.04344E-02 6.33303E-04-5.53416E-14
 -1      2047 1.04193E-02 6.05046E-04-5.52799E-14
 -1      2048 1.08882E-02 6.53862E-04-6.05611E-14
 -1      2049 1.07380E-02 6.46649E-04-5.87985E-14
 -1      2050 1.07216E-02 6.18683E-04-5.87336E-14
 -1      2051 1.11856E-02 6.68569E-04-6.41465E-14
 -1      2052 1.10373E-02 6.61185E-04-6.23442E-14
 -1      2053 1.10199E-02 6.33499E-04-6.22756E-14
 -1      2054 1.14800E-02 6.83074E-04-6.78097E-14
 -1      2055 1.13332E-02 6.75872E-04-6.59681E-14
 -1      2056 1.13151E-02 6.48442E-04-6.58986E-14
 -1      2057 1.17719E-02 6.96910E-04-7.15501E-14
 -1      2058 1.16262E-02 6.90088E-04-6.96713E-14
 -1      2059 1.16078E-02 6.62883E-04-6.95971E-14
 -1      2060 1.20619E-02 7.09850E-04-7.53605E-14
 -1      2061 1.19171E-02 7.03496E-04-7.34464E-14
 -1      2062 1.18985E-02 6.76482E-04-7.33672E-14
 -1      2063 1.23506E-02 7.21816E-04-7.92399E-14
 -1      2064 1.22064E-02 7.15953E-04-7.72916E-14
 -1      2065 1.21877E-02 6.89097E-04-7.72099E-14
 -1      2066 1.26382E-02 7.32831E-04-8.31770E-14
 -1      2067 1.24945E-02 7.27438E-04-8.12019E-14
 -1      2068 1.24757E-02 7.00710E-04-8.11150E-14
 -1      2069 1.29251E-02 7.42973E-04-8.71600E-14
 -1      2070 1.27817E-02 7.38005E-04-8.51634E-14
 -1      2071 1.27630E-02 7.11378E-04-8.50738E-14
 -1      2072 1.32115E-02 7.52348E-04-9.11840E-14
 -1      2073 1.30683E-02 7.47749E-04-8.91672E-14
 -1      2074 1.30497E-02 7.21201E-04-8.90769E-14
 -1      2075 1.34975E-02 7.61078E-04-9.52380E-14
 -1      2076 1.33545E-02 7.56787E-04-9.32078E-14
 -1      2077 1.33359E-02 7.30297E-04-9.31166E-14
 -1      2078 1.37834E-02 7.69282E-04-9.93213E-14
 -1      2079 1.36405E-02 7.65239E-04-9.72768E-14
 -1      2080 1.36219E-02 7.38791E-04-9.71841E-14
 -1      2081 1.40691E-02 7.77082E-04-1.03436E-13
 -1      2082 1.39263E-02 7.73226E-04-1.01374E-13
 -1      2083 1.39078E-02 7.46808E-04-1.01282E-13
 -1      2084 1.43548E-02 7.84589E-04-1.07585E-13
 -1      2085 1.42120E-02 7.80866E-04-1.05508E-13
 -1      2086 1.41935E-02 7.54466E-04-1.05409E-13
 -1      2087 1.46405E-02 7.91916E-04-1.11768E-13
 -1      2088 1.44977E-02 7.88269E-04-1.09673E-13
 -1      2089 1.44792E-02 7.61877E-04-1.09577E-13
 -1      2090 1.48751E-02 7.94889E-04-1.15248E-13
 -1      2091 1.47323E-02 7.91265E-04-1.13139E-13
 -1      2092 1.47139E-02 7.64874E-04-1.13043E-13
 -1      2093 1.48975E-02 7.63557E-04-1.15792E-13
 -1      2094 1.48460E-02 5.27907E-04-1.16546E-13
 -1      2095 1.48495E-02 5.70059E-04-1.16332E-13
 -1      2096 1.48530E-02 6.12216E-04-1.16116E-13
 -1      2097 1.48566E-02 6.54374E-04-1.15900E-13
 -1      2098 1.47275E-02 5.88053E-04-1.14399E-13
 -1      2099 1.48752E-02 6.87887E-04-1.15960E-13
 -1      2100 1.48789E-02 7.30045E-04-1.15734E-13
 -1      2101 1.47870E-02 7.30708E-04-1.14359E-13
 -1      2102 1.47497E-02 6.63695E-04-1.14242E-13
 -1      2103 1.48392E-02 4.45043E-04-1.16953E-13
 -1      2104 1.48426E-02 4.86472E-04-1.16751E-13
 -1      2105 1.47206E-02 5.04507E-04-1.14821E-13
 -1      2106 1.48326E-02 3.60775E-04-1.17356E-13
 -1      2107 1.48359E-02 4.02905E-04-1.17155E-13
 -1      2108 1.47138E-02 4.20997E-04-1.15228E-13
 -1      2109 1.48261E-02 2.76528E-04-1.17752E-13
 -1      2110 1.48293E-02 3.18649E-04-1.17556E-13
 -1      2111 1.47072E-02 3.36810E-04-1.15630E-13
 -1      2112 1.48198E-02 1.92297E-04-1.18151E-13
 -1      2113 1.48229E-02 2.34411E-04-1.17950E-13
 -1      2114 1.47008E-02 2.52653E-04-1.16028E-13
 -1      2115 1.48136E-02 1.08069E-04-1.18547E-13
 -1      2116 1.48167E-02 1.50184E-04-1.18349E-13
 -1      2117 1.46945E-02 1.68513E-04-1.16426E-13
 -1      2118 1.48076E-02 2.38322E-05-1.18933E-13
 -1      2119 1.48106E-02 6.59524E-05-1.18742E-13
 -1      2120 1.46884E-02 8.43732E-05-1.16817E-13
 -1      2121 1.48019E-02-5.89959E-05-1.19308E-13
 -1      2122 1.48048E-02-1.75795E-05-1.19121E-13
 -1      2123 1.46825E-02 9.29577E-07-1.17197E-13
 -1      2124 1.47963E-02-1.43276E-04-1.19678E-13
 -1      2125 1.47991E-02-1.01133E-04-1.19495E-13
 -1      2126 1.46768E-02-8.25437E-05-1.17565E-13
 -1      2127 1.47908E-02-2.27577E-04-1.20040E-13
 -1      2128 1.47935E-02-1.85425E-04-1.19860E-13
 -1      2129 1.46712E-02-1.66767E-04-1.17926E-13
 -1      2130 1.47856E-02-3.11891E-04-1.20383E-13
 -1      2131 1.47882E-02-2.69734E-04-1.20214E-13
 -1      2132 1.46658E-02-2.51026E-04-1.18276E-13
 -1      2133 8.48550E-03 2.03637E-04-2.97769E-14
 -1      2134 8.62009E-03 1.53675E-04-3.01410E-14
 -1      2135 8.87327E-03 5.38130E-05-3.09537E-14
 -1      2136 8.86820E-03 3.70806E-05-3.09334E-14
 -1      2137 8.73315E-03 1.11380E-04-3.04732E-14
 -1      2138 8.81707E-03 8.25585E-05-3.08064E-14
 -1      2139 8.67364E-03 1.18022E-04-3.09027E-14
 -1      2140 8.13698E-03 3.66372E-04-2.86849E-14
 -1      2141 8.30579E-03 2.85823E-04-2.91872E-14
 -1      2142 7.76294E-03 5.56921E-04-2.75772E-14
 -1      2143 7.93854E-03 4.62036E-04-2.81305E-14
 -1      2144 3.27872E-04-8.35658E-05-1.49972E-16
 -1      2145 3.30174E-04-9.65952E-05-1.45608E-16
 -1      2146 4.47631E-04-1.37526E-04-2.12571E-16
 -1      2147 4.40646E-04-1.02846E-04-2.23603E-16
 -1      2148 7.03969E-03 9.32218E-04-2.48931E-14
 -1      2149 7.20864E-03 8.53741E-04-2.55755E-14
 -1      2150 6.67059E-03 1.02217E-03-2.31950E-14
 -1      2151 6.81858E-03 1.00271E-03-2.38918E-14
 -1      2152 6.36786E-03 9.79554E-04-2.18762E-14
 -1      2153 6.51818E-03 1.01427E-03-2.25296E-14
 -1      2154 6.59609E-03 1.02981E-03-2.27897E-14
 -1      2155 6.01066E-03 8.24174E-04-2.04852E-14
 -1      2156 6.17768E-03 9.10778E-04-2.11098E-14
 -1      2157 5.58287E-03 5.89277E-04-1.93069E-14
 -1      2158 5.77066E-03 6.93664E-04-1.97417E-14
 -1      2159 5.19220E-03 3.92724E-04-1.86007E-14
 -1      2160 5.37464E-03 4.86021E-04-1.89431E-14
 -1      2161 4.84851E-03 2.26095E-04-1.79332E-14
 -1      2162 5.01471E-03 3.05055E-04-1.82640E-14
 -1      2163 5.12323E-03 3.29080E-04-1.80910E-14
 -1      2164 4.52990E-03 1.05322E-04-1.75145E-14
 -1      2165 4.65127E-03 1.43363E-04-1.75971E-14
 -1      2166 4.38379E-03 5.29294E-05-1.74868E-14
 -1      2167 4.43914E-03 7.55717E-05-1.75239E-14
 -1      2168 4.37580E-03 1.17648E-05-1.74794E-14
 -1      2169 4.36041E-03 2.85085E-05-1.74551E-14
 -1      2170 4.53580E-03-5.29671E-05-1.78710E-14
 -1      2171 4.44476E-03-2.01831E-05-1.76439E-14
 -1      2172 4.80877E-03-1.54383E-04-1.83648E-14
 -1      2173 4.66585E-03-9.91016E-05-1.80835E-14
 -1      2174 5.18158E-03-3.23315E-04-1.91499E-14
 -1      2175 5.00119E-03-2.36885E-04-1.87517E-14
 -1      2176 5.56419E-03-5.24381E-04-2.00982E-14
 -1      2177 5.37003E-03-4.20762E-04-1.96197E-14
 -1      2178 5.28011E-03-3.46857E-04-1.90157E-14
 -1      2179 5.98858E-03-7.53112E-04-2.13828E-14
 -1      2180 5.80642E-03-6.53401E-04-2.07879E-14
 -1      2181 6.35940E-03-9.05671E-04-2.29216E-14
 -1      2182 6.20471E-03-8.52234E-04-2.22494E-14
 -1      2183 6.66264E-03-9.37540E-04-2.42685E-14
 -1      2184 6.51930E-03-9.34963E-04-2.36072E-14
 -1      2185 6.98922E-03-8.57275E-04-2.57842E-14
 -1      2186 6.83488E-03-9.11002E-04-2.50633E-14
 -1      2187 7.40698E-03-6.51344E-04-2.73389E-14
 -1      2188 7.22090E-03-7.50371E-04-2.67262E-14
 -1      2189 7.78960E-03-4.45322E-04-2.84829E-14
 -1      2190 7.59610E-03-5.52816E-04-2.79081E-14
 -1      2191 7.48237E-03-5.91429E-04-2.79952E-14
 -1      2192 8.21465E-03-2.29526E-04-2.96130E-14
 -1      2193 8.02580E-03-3.21118E-04-2.91539E-14
 -1      2194 8.57852E-03-8.33682E-05-3.02884E-14
 -1      2195 8.42060E-03-1.45302E-04-2.99746E-14
 -1      2196 8.81044E-03 8.45540E-06-3.09077E-14
 -1      2197 8.71636E-03-2.45955E-05-3.06917E-14
 -1      2198 7.39224E-03 7.66099E-04-2.62075E-14
 -1      2199 7.56493E-03 6.70154E-04-2.68295E-14
 -1      2200 7.64378E-03 6.02593E-04-2.74896E-14
 -1      2201 6.09160E-04-2.88737E-04-2.28563E-16
 -1      2202 7.28501E-03 8.05656E-04-2.61006E-14
 -1      2203 6.65686E-04-2.81478E-04-3.05826E-16
 -1      2204 8.85752E-03 6.30333E-05-3.13880E-14
 -1      2205 8.88233E-03 5.46528E-05-3.19735E-14
 -1      2206 8.82802E-03 6.94462E-05-3.18232E-14
 -1      2207 8.38808E-03 2.24797E-04-2.99673E-14
 -1      2208 1.47418E-02-3.46455E-04-1.19890E-13
 -1      2209 8.84616E-03 2.85374E-05-3.15117E-14
 -1      2210 8.01869E-03 3.96366E-04-2.88095E-14
 -1      2211 8.64650E-03-3.39065E-05-3.10756E-14
 -1      2212 7.88374E-03-3.67952E-04-2.92492E-14
 -1      2213 7.09514E-03-8.08283E-04-2.64663E-14
 -1      2214 6.99925E-03-8.55495E-04-2.62040E-14
 -1      2215 7.19594E-03-7.50448E-04-2.71569E-14
 -1      2216 6.74046E-03-9.36014E-04-2.47235E-14
 -1      2217 6.44832E-03-9.31161E-04-2.32452E-14
 -1      2218 5.68523E-03-5.72765E-04-2.01546E-14
 -1      2219 4.91519E-03-1.74683E-04-1.81766E-14
 -1      2220 4.60400E-03-5.93629E-05-1.75927E-14
 -1      2221 4.40113E-03 3.03887E-06-1.72249E-14
 -1      2222 4.36408E-03 3.62997E-05-1.70961E-14
 -1      2223 4.74810E-03 1.63143E-04-1.74292E-14
 -1      2224 4.84384E-03 1.89991E-04-1.72591E-14
 -1      2225 4.65740E-03 1.21854E-04-1.69349E-14
 -1      2226 5.49111E-03 5.19094E-04-1.87775E-14
 -1      2227 6.29207E-03 9.56974E-04-2.13603E-14
 -1      2228 6.92247E-03 9.78447E-04-2.44519E-14
 -1      2229 7.01690E-03 9.41754E-04-2.50193E-14
 -1      2230 6.83126E-03 1.01081E-03-2.40127E-14
 -1      2231 5.90247E-03 7.57445E-04-1.98611E-14
 -1      2232 4.47754E-03 7.49367E-05-1.71160E-14
 -1      2233 6.10792E-03-8.08228E-04-2.16947E-14
 -1      2234 6.01493E-03-7.57314E-04-2.11473E-14
 -1      2235 6.20364E-03-8.54499E-04-2.20065E-14
 -1      2236 8.30718E-03-1.65005E-04-3.03008E-14
 -1      2237 1.02066E-03 3.81451E-04-4.36039E-16
 -1      2238 8.75212E-04 3.48263E-04-3.12169E-16
 -1      2239 5.45915E-04-5.04748E-05-3.25545E-16
 -1      2240 5.47425E-04-6.60013E-05-3.25911E-16
 -1      2241 5.49398E-04-8.22707E-05-3.25315E-16
 -1      2242 5.51850E-04-9.93644E-05-3.23445E-16
 -1      2243 6.63512E-04-8.75411E-05-4.41148E-16
 -1      2244 5.43766E-04 8.09355E-06-3.15381E-16
 -1      2245 5.43743E-04-6.28737E-06-3.19108E-16
 -1      2246 5.44926E-04 3.72773E-05-3.05677E-16
 -1      2247 5.44160E-04 2.25908E-05-3.11030E-16
 -1      2248 6.57650E-04 1.81413E-05-4.25048E-16
 -1      2249 5.47600E-04 6.74417E-05-2.92342E-16
 -1      2250 5.46068E-04 5.21232E-05-2.99592E-16
 -1      2251 6.59663E-04 5.26783E-05-4.11428E-16
 -1      2252 5.52142E-04 1.00958E-04-2.74019E-16
 -1      2253 5.49624E-04 8.37809E-05-2.83871E-16
 -1      2254 6.63764E-04 8.92695E-05-3.92684E-16
 -1      2255 5.59207E-04 1.39021E-04-2.48784E-16
 -1      2256 5.55315E-04 1.19340E-04-2.62404E-16
 -1      2257 6.70424E-04 1.29815E-04-3.67165E-16
 -1      2258 5.70418E-04 1.84059E-04-2.14387E-16
 -1      2259 5.64203E-04 1.60534E-04-2.33063E-16
 -1      2260 6.80609E-04 1.75945E-04-3.32715E-16
 -1      2261 1.30877E-03 4.31432E-04-7.55675E-16
 -1      2262 1.16499E-03 4.09065E-04-5.83572E-16
 -1      2263 1.07642E-03 3.61233E-04-5.52387E-16
 -1      2264 9.18803E-04-3.29933E-04-5.82162E-16
 -1      2265 1.06384E-03-3.60009E-04-7.63888E-16
 -1      2266 7.23551E-03 8.32823E-04-2.61417E-14
 -1      2267 7.38260E-03 7.44771E-04-2.67860E-14
 -1      2268 1.20821E-03-3.84966E-04-9.71567E-16
 -1      2269 1.35236E-03-4.05208E-04-1.20577E-15
 -1      2270 1.12161E-03-3.39220E-04-8.88951E-16
 -1      2271 1.49610E-03-4.21587E-04-1.46645E-15
 -1      2272 1.63973E-03-4.34397E-04-1.75367E-15
 -1      2273 1.41000E-03-3.78759E-04-1.36099E-15
 -1      2274 1.78330E-03-4.44312E-04-2.06695E-15
 -1      2275 1.92700E-03-4.51577E-04-2.40612E-15
 -1      2276 1.69792E-03-4.03949E-04-1.93732E-15
 -1      2277 2.07092E-03-4.56718E-04-2.77156E-15
 -1      2278 2.21520E-03-4.59964E-04-3.16365E-15
 -1      2279 1.98585E-03-4.18227E-04-2.61733E-15
 -1      2280 2.35992E-03-4.61750E-04-3.58123E-15
 -1      2281 2.50522E-03-4.62309E-04-4.02502E-15
 -1      2282 2.27443E-03-4.24509E-04-3.40087E-15
 -1      2283 2.65115E-03-4.62037E-04-4.49459E-15
 -1      2284 2.79784E-03-4.61186E-04-4.98958E-15
 -1      2285 2.56434E-03-4.25382E-04-4.28742E-15
 -1      2286 2.94535E-03-4.60161E-04-5.50994E-15
 -1      2287 3.09381E-03-4.59256E-04-6.05546E-15
 -1      2288 2.85621E-03-4.23332E-04-5.27601E-15
 -1      2289 3.24328E-03-4.58921E-04-6.62605E-15
 -1      2290 3.39388E-03-4.59518E-04-7.22157E-15
 -1      2291 3.15075E-03-4.20977E-04-6.36568E-15
 -1      2292 3.54571E-03-4.61568E-04-7.84250E-15
 -1      2293 3.69887E-03-4.65532E-04-8.48815E-15
 -1      2294 3.44879E-03-4.21299E-04-7.55429E-15
 -1      2295 3.85356E-03-4.71999E-04-9.15744E-15
 -1      2296 4.00975E-03-4.81553E-04-9.85251E-15
 -1      2297 3.75142E-03-4.27861E-04-8.84224E-15
 -1      2298 4.16780E-03-4.94810E-04-1.05729E-14
 -1      2299 4.32753E-03-5.12479E-04-1.13184E-14
 -1      2300 4.06008E-03-4.44953E-04-1.02293E-14
 -1      2301 4.48946E-03-5.35096E-04-1.20888E-14
 -1      2302 4.65307E-03-5.63376E-04-1.28834E-14
 -1      2303 4.37657E-03-4.77584E-04-1.17162E-14
 -1      2304 4.81903E-03-5.97566E-04-1.37030E-14
 -1      2305 4.98638E-03-6.38188E-04-1.45496E-14
 -1      2306 4.70266E-03-5.31061E-04-1.33024E-14
 -1      2307 5.15575E-03-6.84900E-04-1.54220E-14
 -1      2308 5.32553E-03-7.37213E-04-1.63204E-14
 -1      2309 5.03921E-03-6.09893E-04-1.49901E-14
 -1      2310 5.49608E-03-7.93860E-04-1.72451E-14
 -1      2311 5.66563E-03-8.52918E-04-1.81982E-14
 -1      2312 5.38418E-03-7.14510E-04-1.67825E-14
 -1      2313 5.83398E-03-9.11914E-04-1.91798E-14
 -1      2314 5.99980E-03-9.66650E-04-2.01891E-14
 -1      2315 5.73145E-03-8.36628E-04-1.86838E-14
 -1      2316 6.16230E-03-1.01404E-03-2.12290E-14
 -1      2317 6.32262E-03-1.04918E-03-2.22992E-14
 -1      2318 6.07167E-03-9.53785E-04-2.07006E-14
 -1      2319 6.47968E-03-1.06950E-03-2.33999E-14
 -1      2320 6.63686E-03-1.07234E-03-2.45333E-14
 -1      2321 6.39890E-03-1.03097E-03-2.28385E-14
 -1      2322 6.79311E-03-1.05733E-03-2.56994E-14
 -1      2323 6.95227E-03-1.02610E-03-2.68961E-14
 -1      2324 6.71836E-03-1.03764E-03-2.51027E-14
 -1      2325 7.11326E-03-9.80754E-04-2.81246E-14
 -1      2326 7.27779E-03-9.25898E-04-2.93836E-14
 -1      2327 7.04269E-03-9.69402E-04-2.74952E-14
 -1      2328 7.44497E-03-8.64775E-04-3.06743E-14
 -1      2329 7.61406E-03-8.01757E-04-3.19969E-14
 -1      2330 7.37987E-03-8.51793E-04-3.00141E-14
 -1      2331 7.78470E-03-7.39515E-04-3.33493E-14
 -1      2332 7.95508E-03-6.80861E-04-3.47329E-14
 -1      2333 7.72653E-03-7.20565E-04-3.26570E-14
 -1      2334 8.12540E-03-6.27307E-04-3.61452E-14
 -1      2335 8.29401E-03-5.79580E-04-3.75868E-14
 -1      2336 8.07337E-03-6.02239E-04-3.54218E-14
 -1      2337 8.46148E-03-5.38251E-04-3.90574E-14
 -1      2338 8.62671E-03-5.03013E-04-4.05564E-14
 -1      2339 8.41310E-03-5.08766E-04-3.83016E-14
 -1      2340 8.79035E-03-4.73762E-04-4.20847E-14
 -1      2341 8.95182E-03-4.49810E-04-4.36427E-14
 -1      2342 8.74277E-03-4.41321E-04-4.12962E-14
 -1      2343 9.11168E-03-4.30705E-04-4.52264E-14
 -1      2344 9.26969E-03-4.15745E-04-4.68348E-14
 -1      2345 9.06267E-03-3.96266E-04-4.44040E-14
 -1      2346 9.42622E-03-4.04366E-04-4.84703E-14
 -1      2347 9.58127E-03-3.95981E-04-5.01303E-14
 -1      2348 9.37449E-03-3.68539E-04-4.76169E-14
 -1      2349 9.73504E-03-3.90050E-04-5.18134E-14
 -1      2350 9.88762E-03-3.86129E-04-5.35206E-14
 -1      2351 9.68009E-03-3.53271E-04-5.09272E-14
 -1      2352 1.00391E-02-3.83768E-04-5.52510E-14
 -1      2353 1.01897E-02-3.82645E-04-5.70031E-14
 -1      2354 9.98102E-03-3.46384E-04-5.43337E-14
 -1      2355 1.03393E-02-3.82418E-04-5.87784E-14
 -1      2356 1.04882E-02-3.82862E-04-6.05733E-14
 -1      2357 1.02784E-02-3.44710E-04-5.78312E-14
 -1      2358 1.06364E-02-3.83738E-04-6.23906E-14
 -1      2359 1.07839E-02-3.84891E-04-6.42282E-14
 -1      2360 1.05731E-02-3.45927E-04-6.14163E-14
 -1      2361 1.09308E-02-3.86167E-04-6.60843E-14
 -1      2362 1.10772E-02-3.87462E-04-6.79579E-14
 -1      2363 1.08657E-02-3.48411E-04-6.50830E-14
 -1      2364 1.12232E-02-3.88686E-04-6.98477E-14
 -1      2365 1.13687E-02-3.89774E-04-7.17537E-14
 -1      2366 1.11567E-02-3.51092E-04-6.88227E-14
 -1      2367 1.15139E-02-3.90679E-04-7.36742E-14
 -1      2368 1.16587E-02-3.91363E-04-7.56110E-14
 -1      2369 1.14464E-02-3.53306E-04-7.26282E-14
 -1      2370 1.18032E-02-3.91810E-04-7.75589E-14
 -1      2371 1.19475E-02-3.92000E-04-7.95211E-14
 -1      2372 1.17351E-02-3.54685E-04-7.64923E-14
 -1      2373 1.20916E-02-3.91937E-04-8.14987E-14
 -1      2374 1.22355E-02-3.91612E-04-8.34878E-14
 -1      2375 1.20230E-02-3.55061E-04-8.04115E-14
 -1      2376 1.23792E-02-3.91040E-04-8.54891E-14
 -1      2377 1.25227E-02-3.90223E-04-8.75039E-14
 -1      2378 1.23103E-02-3.54400E-04-8.43872E-14
 -1      2379 1.26662E-02-3.89180E-04-8.95298E-14
 -1      2380 1.28095E-02-3.87916E-04-9.15685E-14
 -1      2381 1.25971E-02-3.52751E-04-8.84090E-14
 -1      2382 1.29527E-02-3.86456E-04-9.36193E-14
 -1      2383 1.30959E-02-3.84806E-04-9.56807E-14
 -1      2384 1.28835E-02-3.50210E-04-9.24816E-14
 -1      2385 1.32390E-02-3.82989E-04-9.77504E-14
 -1      2386 1.33820E-02-3.81016E-04-9.98303E-14
 -1      2387 1.31698E-02-3.46896E-04-9.65964E-14
 -1      2388 1.35250E-02-3.78908E-04-1.01917E-13
 -1      2389 1.36680E-02-3.76675E-04-1.04010E-13
 -1      2390 1.34558E-02-3.42936E-04-1.00747E-13
 -1      2391 1.38109E-02-3.74337E-04-1.06112E-13
 -1      2392 1.39538E-02-3.71904E-04-1.08219E-13
 -1      2393 1.37417E-02-3.38458E-04-1.04930E-13
 -1      2394 1.40967E-02-3.69396E-04-1.10333E-13
 -1      2395 1.42396E-02-3.66823E-04-1.12451E-13
 -1      2396 1.40275E-02-3.33583E-04-1.09140E-13
 -1      2397 8.62607E-03 1.25643E-04-3.14416E-14
 -1      2398 8.73171E-03 9.62846E-05-3.17829E-14
 -1      2399 1.88109E-03 4.83640E-04-1.68992E-15
 -1      2400 1.73797E-03 4.75243E-04-1.41938E-15
 -1      2401 2.16841E-03 4.93800E-04-2.30626E-15
 -1      2402 2.02452E-03 4.89745E-04-1.98569E-15
 -1      2403 1.93973E-03 4.50550E-04-1.91051E-15
 -1      2404 2.45810E-03 4.97324E-04-3.02208E-15
 -1      2405 2.31289E-03 4.96244E-04-2.65163E-15
 -1      2406 2.22806E-03 4.58451E-04-2.56048E-15
 -1      2407 2.75109E-03 4.96822E-04-3.83772E-15
 -1      2408 2.60411E-03 4.97428E-04-3.41745E-15
 -1      2409 2.51819E-03 4.60337E-04-3.30894E-15
 -1      2410 3.04823E-03 4.94959E-04-4.75404E-15
 -1      2411 2.89908E-03 4.95897E-04-4.28298E-15
 -1      2412 2.81091E-03 4.58750E-04-4.15717E-15
 -1      2413 3.35029E-03 4.94744E-04-5.77102E-15
 -1      2414 3.19858E-03 4.94452E-04-5.25002E-15
 -1      2415 3.10697E-03 4.56350E-04-5.10572E-15
 -1      2416 3.65802E-03 4.99794E-04-6.88968E-15
 -1      2417 3.50340E-03 4.96373E-04-6.31748E-15
 -1      2418 3.40714E-03 4.56178E-04-6.15492E-15
 -1      2419 3.97216E-03 5.14540E-04-8.11090E-15
 -1      2420 3.81428E-03 5.05662E-04-7.48723E-15
 -1      2421 3.71235E-03 4.61915E-04-7.30493E-15
 -1      2422 4.29334E-03 5.44241E-04-9.43692E-15
 -1      2423 4.13191E-03 5.27177E-04-8.76025E-15
 -1      2424 4.02371E-03 4.78078E-04-8.55707E-15
 -1      2425 4.62191E-03 5.94577E-04-1.08711E-14
 -1      2426 4.45685E-03 5.66477E-04-1.01407E-14
 -1      2427 4.34255E-03 5.10044E-04-9.91527E-15
 -1      2428 4.95747E-03 6.70381E-04-1.24140E-14
 -1      2429 4.78913E-03 6.29057E-04-1.16287E-14
 -1      2430 4.67017E-03 5.63662E-04-1.13801E-14
 -1      2431 5.29809E-03 7.73108E-04-1.40674E-14
 -1      2432 5.12766E-03 7.18467E-04-1.32267E-14
 -1      2433 5.00719E-03 6.43943E-04-1.29524E-14
 -1      2434 5.63931E-03 8.96773E-04-1.58371E-14
 -1      2435 5.46929E-03 8.33136E-04-1.49375E-14
 -1      2436 5.35214E-03 7.52483E-04-1.46360E-14
 -1      2437 5.97466E-03 1.02364E-03-1.77285E-14
 -1      2438 5.80820E-03 9.61468E-04-1.67663E-14
 -1      2439 5.69963E-03 8.82216E-04-1.64365E-14
 -1      2440 6.29893E-03 1.12474E-03-1.97486E-14
 -1      2441 6.13803E-03 1.07963E-03-1.87224E-14
 -1      2442 6.04130E-03 1.01236E-03-1.83609E-14
 -1      2443 6.61331E-03 1.16934E-03-2.18970E-14
 -1      2444 6.45635E-03 1.15571E-03-2.08069E-14
 -1      2445 6.37073E-03 1.10886E-03-2.04136E-14
 -1      2446 6.92663E-03 1.14209E-03-2.41721E-14
 -1      2447 6.76876E-03 1.16451E-03-2.30197E-14
 -1      2448 6.69073E-03 1.13816E-03-2.25967E-14
 -1      2449 7.24874E-03 1.05402E-03-2.65712E-14
 -1      2450 7.08585E-03 1.10392E-03-2.53562E-14
 -1      2451 7.01285E-03 1.08936E-03-2.49062E-14
 -1      2452 7.58259E-03 9.34423E-04-2.90853E-14
 -1      2453 7.41439E-03 9.96070E-04-2.78130E-14
 -1      2454 7.34677E-03 9.83000E-04-2.73370E-14
 -1      2455 7.92378E-03 8.13595E-04-3.17118E-14
 -1      2456 7.75290E-03 8.72606E-04-3.03847E-14
 -1      2457 7.69171E-03 8.54928E-04-2.98833E-14
 -1      2458 8.26583E-03 7.11511E-04-3.44508E-14
 -1      2459 8.09534E-03 7.59503E-04-3.30683E-14
 -1      2460 8.03973E-03 7.35607E-04-3.25438E-14
 -1      2461 8.60383E-03 6.36076E-04-3.72909E-14
 -1      2462 8.43576E-03 6.70390E-04-3.58579E-14
 -1      2463 8.38324E-03 6.41038E-04-3.53103E-14
 -1      2464 8.93544E-03 5.86856E-04-4.02345E-14
 -1      2465 8.77065E-03 6.08413E-04-3.87509E-14
 -1      2466 8.71832E-03 5.74919E-04-3.81801E-14
 -1      2467 9.26008E-03 5.59529E-04-4.32749E-14
 -1      2468 9.09870E-03 5.70779E-04-4.17430E-14
 -1      2469 9.04436E-03 5.34254E-04-4.11491E-14
 -1      2470 9.57810E-03 5.48677E-04-4.64065E-14
 -1      2471 9.41991E-03 5.52355E-04-4.48290E-14
 -1      2472 9.36233E-03 5.13685E-04-4.42151E-14
 -1      2473 9.89016E-03 5.49283E-04-4.96241E-14
 -1      2474 9.73483E-03 5.47808E-04-4.80040E-14
 -1      2475 9.67366E-03 5.07700E-04-4.73698E-14
 -1      2476 1.01970E-02 5.57270E-04-5.29265E-14
 -1      2477 1.00442E-02 5.52554E-04-5.12637E-14
 -1      2478 9.97964E-03 5.11573E-04-5.06105E-14
 -1      2479 1.04995E-02 5.69591E-04-5.63174E-14
 -1      2480 1.03488E-02 5.63035E-04-5.46120E-14
 -1      2481 1.02813E-02 5.21616E-04-5.39415E-14
 -1      2482 1.07982E-02 5.84098E-04-5.97960E-14
 -1      2483 1.06493E-02 5.76673E-04-5.80452E-14
 -1      2484 1.05795E-02 5.35133E-04-5.73571E-14
 -1      2485 1.10939E-02 5.99356E-04-6.33625E-14
 -1      2486 1.09464E-02 5.91701E-04-6.15687E-14
 -1      2487 1.08750E-02 5.50255E-04-6.08613E-14
 -1      2488 1.13872E-02 6.14463E-04-6.70063E-14
 -1      2489 1.12408E-02 6.06972E-04-6.51745E-14
 -1      2490 1.11681E-02 5.65753E-04-6.44509E-14
 -1      2491 1.16784E-02 6.28893E-04-7.07241E-14
 -1      2492 1.15330E-02 6.21788E-04-6.88552E-14
 -1      2493 1.14594E-02 5.80865E-04-6.81152E-14
 -1      2494 1.19681E-02 6.42383E-04-7.45143E-14
 -1      2495 1.18234E-02 6.35770E-04-7.26122E-14
 -1      2496 1.17493E-02 5.95167E-04-7.18533E-14
 -1      2497 1.22567E-02 6.54837E-04-7.83730E-14
 -1      2498 1.21125E-02 6.48745E-04-7.64343E-14
 -1      2499 1.20380E-02 6.08458E-04-7.56610E-14
 -1      2500 1.25443E-02 6.66270E-04-8.22924E-14
 -1      2501 1.24006E-02 6.60681E-04-8.03251E-14
 -1      2502 1.23259E-02 6.20687E-04-7.95374E-14
 -1      2503 1.28313E-02 6.76759E-04-8.62647E-14
 -1      2504 1.26879E-02 6.71629E-04-8.42736E-14
 -1      2505 1.26131E-02 6.31894E-04-8.34720E-14
 -1      2506 1.31179E-02 6.86415E-04-9.02780E-14
 -1      2507 1.29747E-02 6.81686E-04-8.82659E-14
 -1      2508 1.28998E-02 6.42172E-04-8.74561E-14
 -1      2509 1.34041E-02 6.95364E-04-9.43249E-14
 -1      2510 1.32610E-02 6.90972E-04-9.22974E-14
 -1      2511 1.31862E-02 6.51641E-04-9.14780E-14
 -1      2512 1.36901E-02 7.03734E-04-9.84043E-14
 -1      2513 1.35471E-02 6.99615E-04-9.63627E-14
 -1      2514 1.34723E-02 6.60431E-04-9.55358E-14
 -1      2515 1.39759E-02 7.11652E-04-1.02506E-13
 -1      2516 1.38330E-02 7.07744E-04-1.00451E-13
 -1      2517 1.37583E-02 6.68671E-04-9.96211E-14
 -1      2518 1.42617E-02 7.19234E-04-1.06647E-13
 -1      2519 1.41188E-02 7.15479E-04-1.04572E-13
 -1      2520 1.40442E-02 6.76486E-04-1.03734E-13
 -1      2521 1.45475E-02 7.26595E-04-1.10820E-13
 -1      2522 1.44046E-02 7.22936E-04-1.08728E-13
 -1      2523 1.43299E-02 6.83993E-04-1.07881E-13
 -1      2524 1.46952E-02 7.31369E-04-1.12985E-13
 -1      2525 1.45885E-02 3.96977E-04-1.13507E-13
 -1      2526 1.45918E-02 4.39043E-04-1.13304E-13
 -1      2527 1.45819E-02 3.12879E-04-1.13908E-13
 -1      2528 1.45852E-02 3.54922E-04-1.13708E-13
 -1      2529 1.44631E-02 3.72982E-04-1.11790E-13
 -1      2530 1.46020E-02 5.63899E-04-1.12684E-13
 -1      2531 1.46056E-02 6.06016E-04-1.12468E-13
 -1      2532 1.45952E-02 4.80768E-04-1.13100E-13
 -1      2533 1.45986E-02 5.22148E-04-1.12893E-13
 -1      2534 1.44766E-02 5.40105E-04-1.10971E-13
 -1      2535 1.44698E-02 4.56686E-04-1.11383E-13
 -1      2536 1.45755E-02 2.28819E-04-1.14308E-13
 -1      2537 1.45787E-02 2.70845E-04-1.14109E-13
 -1      2538 1.44566E-02 2.88984E-04-1.12193E-13
 -1      2539 1.45693E-02 1.44776E-04-1.14702E-13
 -1      2540 1.45724E-02 1.86796E-04-1.14505E-13
 -1      2541 1.44503E-02 2.05029E-04-1.12590E-13
 -1      2542 1.45632E-02 6.07266E-05-1.15087E-13
 -1      2543 1.45662E-02 1.02753E-04-1.14895E-13
 -1      2544 1.44441E-02 1.21089E-04-1.12977E-13
 -1      2545 1.45574E-02-2.19250E-05-1.15457E-13
 -1      2546 1.45603E-02 1.94050E-05-1.15274E-13
 -1      2547 1.44381E-02 3.78448E-05-1.13354E-13
 -1      2548 1.45517E-02-1.06046E-04-1.15822E-13
 -1      2549 1.45545E-02-6.39797E-05-1.15641E-13
 -1      2550 1.44323E-02-4.54408E-05-1.13719E-13
 -1      2551 1.45461E-02-1.90220E-04-1.16174E-13
 -1      2552 1.45489E-02-1.48127E-04-1.15999E-13
 -1      2553 1.44265E-02-1.29501E-04-1.14077E-13
 -1      2554 1.45407E-02-2.74445E-04-1.16516E-13
 -1      2555 1.45434E-02-2.32328E-04-1.16345E-13
 -1      2556 1.44210E-02-2.13633E-04-1.14423E-13
 -1      2557 1.46139E-02-3.47196E-04-1.17966E-13
 -1      2558 8.88129E-03 3.99865E-05-3.23121E-14
 -1      2559 8.82679E-03 2.80134E-05-3.22842E-14
 -1      2560 1.59501E-03 4.63996E-04-1.17342E-15
 -1      2561 1.45199E-03 4.49649E-04-9.52092E-16
 -1      2562 1.65234E-03 4.33934E-04-1.35936E-15
 -1      2563 8.28953E-03 2.53192E-04-3.02972E-14
 -1      2564 8.45789E-03 1.85534E-04-3.09017E-14
 -1      2565 8.70030E-03-7.72017E-06-3.19168E-14
 -1      2566 8.56506E-03-4.87401E-05-3.15052E-14
 -1      2567 5.90550E-04-2.28068E-04-2.80348E-16
 -1      2568 7.84217E-04-2.91135E-04-4.44469E-16
 -1      2569 8.43847E-04-2.78465E-04-5.39607E-16
 -1      2570 5.80965E-04-2.00256E-04-2.95594E-16
 -1      2571 7.95164E-03 4.17532E-04-2.91488E-14
 -1      2572 8.12499E-03 3.29116E-04-2.97196E-14
 -1      2573 8.22887E-03 2.85967E-04-3.06449E-14
 -1      2574 4.99601E-03-1.99509E-04-1.79514E-14
 -1      2575 4.82267E-03-1.27733E-04-1.75802E-14
 -1      2576 5.37698E-03 4.43050E-04-1.81444E-14
 -1      2577 5.55148E-03 5.43829E-04-1.84910E-14
 -1      2578 5.44089E-04-2.07682E-05-3.22008E-16
 -1      2579 5.44805E-04-3.54215E-05-3.24163E-16
 -1      2580 6.59498E-04-5.07595E-05-4.40159E-16
 -1      2581 6.57589E-04-1.59926E-05-4.34630E-16
 -1      2582 5.80590E-03 6.95074E-04-1.91988E-14
 -1      2583 6.01126E-03 8.19244E-04-1.99258E-14
 -1      2584 6.53000E-03 1.03030E-03-2.23522E-14
 -1      2585 6.65011E-03 1.03862E-03-2.30137E-14
 -1      2586 4.41810E-03 5.22245E-05-1.66225E-14
 -1      2587 4.49546E-03 7.02247E-05-1.66082E-14
 -1      2588 6.21901E-03 9.27089E-04-2.08182E-14
 -1      2589 6.37567E-03 9.93385E-04-2.15767E-14
 -1      2590 6.44333E-03 1.01703E-03-2.17907E-14
 -1      2591 5.05448E-03 2.79656E-04-1.74956E-14
 -1      2592 5.21600E-03 3.58732E-04-1.78183E-14
 -1      2593 5.27996E-03 3.94389E-04-1.75388E-14
 -1      2594 4.34381E-03 2.91694E-05-1.65596E-14
 -1      2595 4.36675E-03 3.67540E-05-1.65908E-14
 -1      2596 4.36895E-03 4.03156E-05-1.60893E-14
 -1      2597 4.42702E-03 2.59373E-07-1.68156E-14
 -1      2598 4.36241E-03 1.51943E-05-1.66587E-14
 -1      2599 4.64985E-03-6.46033E-05-1.72367E-14
 -1      2600 4.53182E-03-3.00491E-05-1.70355E-14
 -1      2601 5.36979E-03-3.86183E-04-1.88608E-14
 -1      2602 5.20370E-03-2.98234E-04-1.84069E-14
 -1      2603 8.40201E-03-1.09666E-04-3.11269E-14
 -1      2604 8.21691E-03-1.86264E-04-3.07523E-14
 -1      2605 8.48871E-03-7.52154E-05-3.19638E-14
 -1      2606 5.78693E-03-6.28414E-04-2.01885E-14
 -1      2607 5.58147E-03-5.04610E-04-1.95167E-14
 -1      2608 5.47492E-03-4.53761E-04-1.88907E-14
 -1      2609 6.50596E-03-9.50384E-04-2.35175E-14
 -1      2610 6.38043E-03-9.21476E-04-2.28358E-14
 -1      2611 6.79529E-03-9.30700E-04-2.51548E-14
 -1      2612 6.65807E-03-9.55064E-04-2.43593E-14
 -1      2613 7.57015E-03-5.29952E-04-2.87598E-14
 -1      2614 7.41285E-03-6.26159E-04-2.81769E-14
 -1      2615 7.98609E-03-2.97600E-04-3.01282E-14
 -1      2616 7.77474E-03-4.13155E-04-2.94390E-14
 -1      2617 7.69793E-03-4.59853E-04-2.96240E-14
 -1      2618 7.60251E-04 3.21524E-04-2.24145E-16
 -1      2619 6.13171E-04 2.75044E-04-1.42112E-16
 -1      2620 5.86627E-04 2.48491E-04-1.52873E-16
 -1      2621 8.16754E-04 3.08597E-04-3.08943E-16
 -1      2622 7.55406E-03 6.44577E-04-2.75380E-14
 -1      2623 7.73003E-03 5.38969E-04-2.83019E-14
 -1      2624 7.49581E-03 6.84651E-04-2.75817E-14
 -1      2625 6.10470E-03 8.75583E-04-2.01296E-14
 -1      2626 6.69984E-04-1.27817E-04-4.36459E-16
 -1      2627 5.54911E-04-1.17555E-04-3.20178E-16
 -1      2628 5.58668E-04-1.37020E-04-3.15218E-16
 -1      2629 1.36490E-03 4.05462E-04-9.07030E-16
 -1      2630 5.74274E-04 2.18182E-04-1.79395E-16
 -1      2631 7.86445E-03 4.70688E-04-2.91982E-14
 -1      2632 8.80054E-03 7.78329E-05-3.23674E-14
 -1      2633 8.85614E-03 6.87933E-05-3.29581E-14
 -1      2634 8.77471E-03 9.07275E-05-3.29141E-14
 -1      2635 8.84987E-03 2.72023E-05-3.35288E-14
 -1      2636 8.78295E-03 1.60837E-05-3.27185E-14
 -1      2637 8.73182E-03-2.25056E-07-3.31531E-14
 -1      2638 8.54908E-03 1.57076E-04-3.17780E-14
 -1      2639 1.46206E-02 6.92445E-04-1.12129E-13
 -1      2640 1.46019E-02 6.58947E-04-1.12070E-13
 -1      2641 8.11188E-03-2.36968E-04-3.09459E-14
 -1      2642 1.44641E-02-3.65191E-04-1.15800E-13
 -1      2643 1.45133E-02-3.11184E-04-1.16282E-13
 -1      2644 1.43909E-02-2.92443E-04-1.14359E-13
 -1      2645 1.43362E-02-3.65890E-04-1.13889E-13
 -1      2646 6.90006E-03-9.01788E-04-2.58226E-14
 -1      2647 6.81899E-03-9.34583E-04-2.54435E-14
 -1      2648 7.00089E-03-8.62494E-04-2.65008E-14
 -1      2649 8.90290E-03 4.84663E-05-3.27496E-14
 -1      2650 8.91291E-03 4.51020E-05-3.35324E-14
 -1      2651 8.90838E-03 5.30018E-05-3.31900E-14
 -1      2652 6.92003E-04 2.39146E-04-2.70495E-16
 -1      2653 4.71805E-03-9.26619E-05-1.70175E-14
 -1      2654 6.27947E-03-8.90520E-04-2.22681E-14
 -1      2655 5.08153E-03-2.46443E-04-1.78001E-14
 -1      2656 7.30294E-03-6.95298E-04-2.79035E-14
 -1      2657 4.33425E-03 2.15938E-05-1.61566E-14
 -1      2658 5.73464E-04-1.75471E-04-3.07236E-16
 -1      2659 5.54743E-03 5.54739E-04-1.79120E-14
 -1      2660 5.67637E-03 6.21065E-04-1.85485E-14
 -1      2661 5.77422E-03 6.94097E-04-1.86019E-14
 -1      2662 4.55954E-03 8.85817E-05-1.64392E-14
 -1      2663 4.62755E-03 1.12082E-04-1.62687E-14
 -1      2664 4.47577E-03 6.95963E-05-1.59513E-14
 -1      2665 7.12549E-03 8.95375E-04-2.56860E-14
 -1      2666 7.23256E-03 8.45376E-04-2.63626E-14
 -1      2667 7.03501E-03 9.46991E-04-2.52316E-14
 -1      2668 6.75101E-03 1.03442E-03-2.35603E-14
 -1      2669 6.84476E-03 1.01664E-03-2.41133E-14
 -1      2670 6.68254E-03 1.04662E-03-2.31103E-14
 -1      2671 4.92969E-03 2.25754E-04-1.69924E-14
 -1      2672 5.98543E-03-7.53102E-04-2.07840E-14
 -1      2673 5.89417E-03-6.93397E-04-2.04858E-14
 -1      2674 5.77388E-03-6.33833E-04-1.98357E-14
 -1      2675 4.45433E-03-1.06822E-05-1.64675E-14
 -1      2676 6.57801E-03-9.60804E-04-2.39331E-14
 -1      2677 1.44764E-02 6.34744E-04-1.10367E-13
 -1      2678 1.42670E-02-3.30108E-04-1.12686E-13
 -1      2679 7.76377E-04 7.03967E-05-5.33089E-16
 -1      2680 7.74496E-04 5.03783E-05-5.43077E-16
 -1      2681 7.73208E-04 3.04518E-05-5.51696E-16
 -1      2682 7.72560E-04 1.08367E-05-5.59042E-16
 -1      2683 8.90312E-04 4.49300E-05-6.94811E-16
 -1      2684 7.91476E-04 1.60462E-04-4.73729E-16
 -1      2685 7.86438E-04 1.36163E-04-4.92079E-16
 -1      2686 8.05240E-04 2.14141E-04-4.28748E-16
 -1      2687 7.97724E-04 1.86387E-04-4.52871E-16
 -1      2688 9.15056E-04 1.92447E-04-5.93601E-16
 -1      2689 1.13448E-03 3.40266E-04-6.75892E-16
 -1      2690 9.90066E-04 3.14541E-04-5.17164E-16
 -1      2691 4.76939E-03-1.21388E-04-1.67298E-14
 -1      2692 4.61663E-03-6.69234E-05-1.64006E-14
 -1      2693 7.43418E-03 7.39067E-04-2.75336E-14
 -1      2694 7.58308E-03 6.49402E-04-2.83010E-14
 -1      2695 1.42276E-03 3.78842E-04-1.06516E-15
 -1      2696 1.27861E-03 3.61581E-04-8.58282E-16
 -1      2697 1.19377E-03 3.18409E-04-8.06430E-16
 -1      2698 6.01512E-03 8.36999E-04-1.94945E-14
 -1      2699 6.20068E-03 9.34669E-04-2.03752E-14
 -1      2700 1.32495E-03-3.36532E-04-1.25608E-15
 -1      2701 1.46896E-03-3.51755E-04-1.51963E-15
 -1      2702 1.61288E-03-3.63868E-04-1.80863E-15
 -1      2703 1.75684E-03-3.73109E-04-2.12365E-15
 -1      2704 1.52864E-03-3.24268E-04-1.68129E-15
 -1      2705 1.90076E-03-3.79970E-04-2.46415E-15
 -1      2706 2.04477E-03-3.84662E-04-2.83021E-15
 -1      2707 1.81610E-03-3.42032E-04-2.31235E-15
 -1      2708 2.18884E-03-3.87614E-04-3.22255E-15
 -1      2709 2.33309E-03-3.89030E-04-3.64006E-15
 -1      2710 2.10355E-03-3.51060E-04-3.04574E-15
 -1      2711 2.47752E-03-3.89296E-04-4.08269E-15
 -1      2712 2.62225E-03-3.88620E-04-4.55109E-15
 -1      2713 2.39107E-03-3.53701E-04-3.88021E-15
 -1      2714 2.76728E-03-3.87376E-04-5.04513E-15
 -1      2715 2.91275E-03-3.85800E-04-5.56369E-15
 -1      2716 2.67891E-03-3.52173E-04-4.81596E-15
 -1      2717 3.05870E-03-3.84277E-04-6.10712E-15
 -1      2718 3.20528E-03-3.83101E-04-6.67534E-15
 -1      2719 2.96748E-03-3.48697E-04-5.85145E-15
 -1      2720 3.35258E-03-3.82691E-04-7.26853E-15
 -1      2721 3.50078E-03-3.83437E-04-7.88714E-15
 -1      2722 3.25746E-03-3.45678E-04-6.98604E-15
 -1      2723 3.65007E-03-3.85796E-04-8.52930E-15
 -1      2724 3.80066E-03-3.90306E-04-9.19595E-15
 -1      2725 3.54995E-03-3.45893E-04-8.21858E-15
 -1      2726 3.95288E-03-3.97452E-04-9.88833E-15
 -1      2727 4.10691E-03-4.07979E-04-1.06052E-14
 -1      2728 3.84671E-03-3.52714E-04-9.55007E-15
 -1      2729 4.26332E-03-4.22339E-04-1.13472E-14
 -1      2730 4.42219E-03-4.41573E-04-1.21134E-14
 -1      2731 4.15036E-03-3.70348E-04-1.09806E-14
 -1      2732 4.58433E-03-4.66037E-04-1.29040E-14
 -1      2733 4.74942E-03-4.96887E-04-1.37195E-14
 -1      2734 4.46455E-03-4.04145E-04-1.25088E-14
 -1      2735 4.91839E-03-5.34239E-04-1.45612E-14
 -1      2736 5.09029E-03-5.79286E-04-1.54291E-14
 -1      2737 4.79341E-03-4.60580E-04-1.41363E-14
 -1      2738 5.26589E-03-6.31534E-04-1.63236E-14
 -1      2739 5.44297E-03-6.90379E-04-1.72434E-14
 -1      2740 5.13973E-03-5.47194E-04-1.58665E-14
 -1      2741 5.62184E-03-7.54287E-04-1.81921E-14
 -1      2742 5.79934E-03-8.20482E-04-1.91694E-14
 -1      2743 5.50151E-03-6.66022E-04-1.77039E-14
 -1      2744 5.97509E-03-8.86470E-04-2.01752E-14
 -1      2745 6.14700E-03-9.43789E-04-2.12114E-14
 -1      2746 5.86742E-03-8.08229E-04-1.96533E-14
 -1      2747 6.31379E-03-9.88934E-04-2.22789E-14
 -1      2748 6.47863E-03-1.01484E-03-2.33769E-14
 -1      2749 6.22216E-03-9.37807E-04-2.17210E-14
 -1      2750 6.63990E-03-1.01930E-03-2.45080E-14
 -1      2751 6.80356E-03-1.00093E-03-2.56724E-14
 -1      2752 6.55943E-03-9.98257E-04-2.39157E-14
 -1      2753 6.96836E-03-9.60917E-04-2.68675E-14
 -1      2754 7.13834E-03-9.06145E-04-2.80946E-14
 -1      2755 6.89416E-03-9.56103E-04-2.62396E-14
 -1      2756 7.31187E-03-8.39982E-04-2.93541E-14
 -1      2757 7.48860E-03-7.70332E-04-3.06438E-14
 -1      2758 7.24376E-03-8.32345E-04-2.86944E-14
 -1      2759 7.66796E-03-7.00487E-04-3.19662E-14
 -1      2760 7.84576E-03-6.34792E-04-3.33185E-14
 -1      2761 7.60895E-03-6.81264E-04-3.12773E-14
 -1      2762 8.02264E-03-5.75026E-04-3.46998E-14
 -1      2763 8.19633E-03-5.22374E-04-3.61105E-14
 -1      2764 7.97343E-03-5.46581E-04-3.39805E-14
 -1      2765 8.36739E-03-4.77313E-04-3.75501E-14
 -1      2766 8.53450E-03-4.39077E-04-3.90168E-14
 -1      2767 8.32426E-03-4.43829E-04-3.68004E-14
 -1      2768 8.69859E-03-4.07678E-04-4.05123E-14
 -1      2769 8.85925E-03-3.81887E-04-4.20357E-14
 -1      2770 8.65772E-03-3.72475E-04-3.97323E-14
 -1      2771 9.01732E-03-3.61431E-04-4.35864E-14
 -1      2772 9.17283E-03-3.45243E-04-4.51641E-14
 -1      2773 8.97553E-03-3.25863E-04-4.27745E-14
 -1      2774 9.32636E-03-3.32922E-04-4.67688E-14
 -1      2775 9.47813E-03-3.23670E-04-4.83962E-14
 -1      2776 9.28174E-03-2.97284E-04-4.59231E-14
 -1      2777 9.62850E-03-3.17061E-04-5.00471E-14
 -1      2778 9.77769E-03-3.12543E-04-5.17220E-14
 -1      2779 9.58016E-03-2.81300E-04-4.91721E-14
 -1      2780 9.92590E-03-3.09724E-04-5.34209E-14
 -1      2781 1.00733E-02-3.08232E-04-5.51441E-14
 -1      2782 9.87370E-03-2.73752E-04-5.25142E-14
 -1      2783 1.02201E-02-3.07745E-04-5.68890E-14
 -1      2784 1.03663E-02-3.08015E-04-5.86557E-14
 -1      2785 1.01643E-02-2.71540E-04-5.59515E-14
 -1      2786 1.05121E-02-3.08796E-04-6.04454E-14
 -1      2787 1.06574E-02-3.09929E-04-6.22556E-14
 -1      2788 1.04531E-02-2.72397E-04-5.94780E-14
 -1      2789 1.08024E-02-3.11238E-04-6.40851E-14
 -1      2790 1.09472E-02-3.12624E-04-6.59343E-14
 -1      2791 1.07409E-02-2.74715E-04-6.30918E-14
 -1      2792 1.10917E-02-3.13973E-04-6.78014E-14
 -1      2793 1.12360E-02-3.15222E-04-6.96848E-14
 -1      2794 1.10281E-02-2.77399E-04-6.67832E-14
 -1      2795 1.13801E-02-3.16307E-04-7.15839E-14
 -1      2796 1.15240E-02-3.17192E-04-7.35000E-14
 -1      2797 1.13149E-02-2.79748E-04-7.05436E-14
 -1      2798 1.16678E-02-3.17844E-04-7.54287E-14
 -1      2799 1.18115E-02-3.18249E-04-7.73706E-14
 -1      2800 1.16014E-02-2.81349E-04-7.43668E-14
 -1      2801 1.19550E-02-3.18396E-04-7.93288E-14
 -1      2802 1.20985E-02-3.18282E-04-8.13025E-14
 -1      2803 1.18877E-02-2.81994E-04-7.82497E-14
 -1      2804 1.22418E-02-3.17912E-04-8.32863E-14
 -1      2805 1.23851E-02-3.17289E-04-8.52820E-14
 -1      2806 1.21739E-02-2.81619E-04-8.21884E-14
 -1      2807 1.25283E-02-3.16429E-04-8.72923E-14
 -1      2808 1.26715E-02-3.15338E-04-8.93132E-14
 -1      2809 1.24599E-02-2.80249E-04-8.61759E-14
 -1      2810 1.28146E-02-3.14036E-04-9.13478E-14
 -1      2811 1.29577E-02-3.12533E-04-9.33917E-14
 -1      2812 1.27459E-02-2.77964E-04-9.02165E-14
 -1      2813 1.31007E-02-3.10850E-04-9.54443E-14
 -1      2814 1.32437E-02-3.08997E-04-9.75096E-14
 -1      2815 1.30318E-02-2.74874E-04-9.42972E-14
 -1      2816 1.33867E-02-3.06996E-04-9.95832E-14
 -1      2817 1.35296E-02-3.04857E-04-1.01663E-13
 -1      2818 1.33177E-02-2.71103E-04-9.84210E-14
 -1      2819 1.36726E-02-3.02600E-04-1.03752E-13
 -1      2820 1.38155E-02-3.00235E-04-1.05848E-13
 -1      2821 1.36035E-02-2.66774E-04-1.02576E-13
 -1      2822 1.39584E-02-2.97782E-04-1.07947E-13
 -1      2823 1.41013E-02-2.95251E-04-1.10056E-13
 -1      2824 1.38893E-02-2.62004E-04-1.06760E-13
 -1      2825 8.23731E-03-1.84789E-04-3.19062E-14
 -1      2826 8.03237E-03-2.84934E-04-3.12662E-14
 -1      2827 1.99853E-03 4.17112E-04-2.13646E-15
 -1      2828 1.85452E-03 4.11422E-04-1.83180E-15
 -1      2829 2.86866E-03 4.20953E-04-4.48131E-15
 -1      2830 2.72251E-03 4.22411E-04-4.02843E-15
 -1      2831 3.16294E-03 4.18177E-04-5.46167E-15
 -1      2832 3.01542E-03 4.19443E-04-4.95896E-15
 -1      2833 2.92435E-03 3.83579E-04-4.80968E-15
 -1      2834 3.46062E-03 4.18111E-04-6.54251E-15
 -1      2835 3.31129E-03 4.17605E-04-5.98967E-15
 -1      2836 3.21624E-03 3.80532E-04-5.82184E-15
 -1      2837 3.76285E-03 4.24429E-04-7.72379E-15
 -1      2838 3.61108E-03 4.20212E-04-7.12051E-15
 -1      2839 3.51088E-03 3.80552E-04-6.93397E-15
 -1      2840 4.07121E-03 4.41660E-04-9.00797E-15
 -1      2841 3.91617E-03 4.31340E-04-8.35317E-15
 -1      2842 3.80970E-03 3.87229E-04-8.14676E-15
 -1      2843 4.38788E-03 4.75260E-04-1.03972E-14
 -1      2844 4.22844E-03 4.55982E-04-9.68930E-15
 -1      2845 4.11492E-03 4.05041E-04-9.46248E-15
 -1      2846 4.71528E-03 5.31355E-04-1.18909E-14
 -1      2847 4.55026E-03 5.00004E-04-1.11305E-14
 -1      2848 4.42963E-03 4.39548E-04-1.08808E-14
 -1      2849 5.05518E-03 6.15484E-04-1.34927E-14
 -1      2850 4.88390E-03 5.69524E-04-1.26787E-14
 -1      2851 4.75754E-03 4.97410E-04-1.24045E-14
 -1      2852 5.40658E-03 7.29981E-04-1.52066E-14
 -1      2853 5.23011E-03 6.68917E-04-1.43352E-14
 -1      2854 5.10173E-03 5.85087E-04-1.40352E-14
 -1      2855 5.76274E-03 8.67335E-04-1.70375E-14
 -1      2856 5.58510E-03 7.97065E-04-1.61071E-14
 -1      2857 5.46124E-03 7.07245E-04-1.57776E-14
 -1      2858 6.11216E-03 1.00289E-03-1.89952E-14
 -1      2859 5.93905E-03 9.38116E-04-1.79996E-14
 -1      2860 5.82692E-03 8.54740E-04-1.76391E-14
 -1      2861 6.44680E-03 1.09510E-03-2.10806E-14
 -1      2862 6.28073E-03 1.05773E-03-2.00217E-14
 -1      2863 6.18384E-03 9.97353E-04-1.96292E-14
 -1      2864 6.77227E-03 1.10594E-03-2.32972E-14
 -1      2865 6.60886E-03 1.11206E-03-2.21725E-14
 -1      2866 6.52408E-03 1.08192E-03-2.17486E-14
 -1      2867 7.10366E-03 1.03115E-03-2.56406E-14
 -1      2868 6.93539E-03 1.07720E-03-2.44544E-14
 -1      2869 6.85757E-03 1.06748E-03-2.39999E-14
 -1      2870 7.45034E-03 9.04860E-04-2.81063E-14
 -1      2871 7.27505E-03 9.71055E-04-2.68585E-14
 -1      2872 7.20246E-03 9.62973E-04-2.63777E-14
 -1      2873 7.80656E-03 7.70521E-04-3.06853E-14
 -1      2874 7.62859E-03 8.36398E-04-2.93815E-14
 -1      2875 7.56417E-03 8.18941E-04-2.88786E-14
 -1      2876 8.15980E-03 6.55865E-04-3.33778E-14
 -1      2877 7.98454E-03 7.09737E-04-3.20173E-14
 -1      2878 7.92972E-03 6.82967E-04-3.14915E-14
 -1      2879 8.50259E-03 5.71363E-04-3.61730E-14
 -1      2880 8.33301E-03 6.09891E-04-3.47627E-14
 -1      2881 8.28482E-03 5.76954E-04-3.42136E-14
 -1      2882 8.83304E-03 5.15886E-04-3.90700E-14
 -1      2883 8.66951E-03 5.40392E-04-3.76089E-14
 -1      2884 8.62390E-03 5.04494E-04-3.70390E-14
 -1      2885 9.15249E-03 4.84196E-04-4.20659E-14
 -1      2886 8.99408E-03 4.97523E-04-4.05564E-14
 -1      2887 8.94763E-03 4.60222E-04-3.99625E-14
 -1      2888 9.46342E-03 4.70281E-04-4.51545E-14
 -1      2889 9.30890E-03 4.75399E-04-4.35979E-14
 -1      2890 9.25945E-03 4.37256E-04-4.29828E-14
 -1      2891 9.76809E-03 4.68834E-04-4.83350E-14
 -1      2892 9.61642E-03 4.68297E-04-4.67345E-14
 -1      2893 9.56298E-03 4.29481E-04-4.60977E-14
 -1      2894 1.00682E-02 4.75584E-04-5.16028E-14
 -1      2895 9.91861E-03 4.71404E-04-4.99582E-14
 -1      2896 9.86103E-03 4.32024E-04-4.93040E-14
 -1      2897 1.03650E-02 4.87310E-04-5.49593E-14
 -1      2898 1.02169E-02 4.80981E-04-5.32688E-14
 -1      2899 1.01555E-02 4.41168E-04-5.25982E-14
 -1      2900 1.06592E-02 5.01702E-04-5.83999E-14
 -1      2901 1.05123E-02 4.94281E-04-5.66696E-14
 -1      2902 1.04476E-02 4.54185E-04-5.59790E-14
 -1      2903 1.09515E-02 5.17176E-04-6.19309E-14
 -1      2904 1.08055E-02 5.09375E-04-6.01548E-14
 -1      2905 1.07381E-02 4.69143E-04-5.94476E-14
 -1      2906 1.12422E-02 5.32702E-04-6.55398E-14
 -1      2907 1.10970E-02 5.24977E-04-6.37251E-14
 -1      2908 1.10275E-02 4.84729E-04-6.30007E-14
 -1      2909 1.15317E-02 5.47658E-04-6.92260E-14
 -1      2910 1.13870E-02 5.40277E-04-6.73755E-14
 -1      2911 1.13160E-02 5.00102E-04-6.66341E-14
 -1      2912 1.18202E-02 5.61708E-04-7.29844E-14
 -1      2913 1.16760E-02 5.54810E-04-7.10947E-14
 -1      2914 1.16038E-02 5.14766E-04-7.03391E-14
 -1      2915 1.21080E-02 5.74710E-04-7.68106E-14
 -1      2916 1.19642E-02 5.68345E-04-7.48898E-14
 -1      2917 1.18911E-02 5.28464E-04-7.41162E-14
 -1      2918 1.23952E-02 5.86648E-04-8.07016E-14
 -1      2919 1.22517E-02 5.80811E-04-7.87476E-14
 -1      2920 1.21780E-02 5.41103E-04-7.79612E-14
 -1      2921 1.26820E-02 5.97583E-04-8.46521E-14
 -1      2922 1.25387E-02 5.92237E-04-8.26709E-14
 -1      2923 1.24646E-02 5.52697E-04-8.18704E-14
 -1      2924 1.29684E-02 6.07619E-04-8.86458E-14
 -1      2925 1.28253E-02 6.02707E-04-8.66447E-14
 -1      2926 1.27510E-02 5.63323E-04-8.58326E-14
 -1      2927 1.32546E-02 6.16880E-04-9.26785E-14
 -1      2928 1.31116E-02 6.12340E-04-9.06578E-14
 -1      2929 1.30371E-02 5.73091E-04-8.98363E-14
 -1      2930 1.35407E-02 6.25498E-04-9.67457E-14
 -1      2931 1.33977E-02 6.21263E-04-9.47071E-14
 -1      2932 1.33231E-02 5.82130E-04-9.38794E-14
 -1      2933 1.38266E-02 6.33601E-04-1.00838E-13
 -1      2934 1.36836E-02 6.29608E-04-9.87906E-14
 -1      2935 1.36091E-02 5.90566E-04-9.79539E-14
 -1      2936 1.41124E-02 6.41311E-04-1.04962E-13
 -1      2937 1.39695E-02 6.37499E-04-1.02894E-13
 -1      2938 1.38949E-02 5.98526E-04-1.02057E-13
 -1      2939 1.43659E-02 6.39914E-04-1.08699E-13
 -1      2940 1.42230E-02 6.36220E-04-1.06620E-13
 -1      2941 1.41484E-02 5.97294E-04-1.05772E-13
 -1      2942 1.43695E-02 5.87026E-04-1.09094E-13
 -1      2943 1.43251E-02 1.81289E-04-1.10871E-13
 -1      2944 1.43282E-02 2.23205E-04-1.10678E-13
 -1      2945 1.41978E-02-2.94338E-04-1.11490E-13
 -1      2946 1.42944E-02-2.93400E-04-1.12923E-13
 -1      2947 1.41287E-02-2.58586E-04-1.10291E-13
 -1      2948 1.43378E-02 3.49014E-04-1.10081E-13
 -1      2949 1.43411E-02 3.90983E-04-1.09877E-13
 -1      2950 1.43189E-02 9.74581E-05-1.11255E-13
 -1      2951 1.43220E-02 1.39374E-04-1.11065E-13
 -1      2952 1.41999E-02 1.57605E-04-1.09158E-13
 -1      2953 1.43314E-02 2.65129E-04-1.10479E-13
 -1      2954 1.43346E-02 3.07063E-04-1.10279E-13
 -1      2955 1.42125E-02 3.25078E-04-1.08373E-13
 -1      2956 1.42062E-02 2.41319E-04-1.08769E-13
 -1      2957 8.50223E-03 1.87262E-04-3.23125E-14
 -1      2958 8.65110E-03 1.35918E-04-3.28670E-14
 -1      2959 1.43130E-02 1.50209E-05-1.11620E-13
 -1      2960 1.43159E-02 5.62448E-05-1.11438E-13
 -1      2961 1.41938E-02 7.45997E-05-1.09531E-13
 -1      2962 1.43071E-02-6.88985E-05-1.11982E-13
 -1      2963 1.43100E-02-2.69299E-05-1.11803E-13
 -1      2964 1.41879E-02-8.45036E-06-1.09894E-13
 -1      2965 1.43014E-02-1.52903E-04-1.12334E-13
 -1      2966 1.43043E-02-1.10890E-04-1.12159E-13
 -1      2967 1.41820E-02-9.22941E-05-1.10249E-13
 -1      2968 1.71062E-03 4.03354E-04-1.55153E-15
 -1      2969 1.56669E-03 3.92676E-04-1.29601E-15
 -1      2970 1.48158E-03 3.51708E-04-1.22935E-15
 -1      2971 1.76939E-03 3.72463E-04-1.74971E-15
 -1      2972 7.78863E-03 5.31268E-04-2.92935E-14
 -1      2973 7.98298E-03 4.23919E-04-3.01601E-14
 -1      2974 8.58444E-03-4.95615E-05-3.30200E-14
 -1      2975 8.43986E-03-1.01240E-04-3.26290E-14
 -1      2976 5.55081E-03-5.16898E-04-1.88504E-14
 -1      2977 5.36490E-03-4.12459E-04-1.82113E-14
 -1      2978 7.91363E-04-2.38420E-04-5.10388E-16
 -1      2979 9.23100E-04-2.71455E-04-6.59236E-16
 -1      2980 4.32836E-03 3.55464E-05-1.56081E-14
 -1      2981 4.37238E-03 4.50254E-05-1.56375E-14
 -1      2982 6.32857E-03-9.19387E-04-2.24694E-14
 -1      2983 6.17452E-03-8.52544E-04-2.16512E-14
 -1      2984 2.57694E-03 4.23417E-04-3.60097E-15
 -1      2985 2.43181E-03 4.23727E-04-3.19783E-15
 -1      2986 2.63428E-03 3.86753E-04-3.89721E-15
 -1      2987 2.28710E-03 4.22956E-04-2.81890E-15
 -1      2988 2.14268E-03 4.20885E-04-2.46553E-15
 -1      2989 2.34540E-03 3.87525E-04-3.08327E-15
 -1      2990 1.05181E-03-2.96179E-04-8.28669E-16
 -1      2991 1.19568E-03-3.18469E-04-1.04311E-15
 -1      2992 1.25605E-03-2.95768E-04-1.17841E-15
 -1      2993 9.99167E-04-2.56601E-04-7.87903E-16
 -1      2994 5.18280E-03 3.55217E-04-1.69485E-14
 -1      2995 5.32331E-03 4.30652E-04-1.72603E-14
 -1      2996 8.17780E-03 3.26436E-04-3.10102E-14
 -1      2997 8.32202E-03 2.61397E-04-3.16037E-14
 -1      2998 7.82285E-04 1.13248E-04-5.07596E-16
 -1      2999 7.78977E-04 9.13616E-05-5.21217E-16
 -1      3000 8.94977E-04 9.03454E-05-6.69969E-16
 -1      3001 9.02988E-04 1.38867E-04-6.36928E-16
 -1      3002 4.79122E-03 1.75693E-04-1.62955E-14
 -1      3003 4.97182E-03 2.54298E-04-1.65160E-14
 -1      3004 7.78693E-04-8.93436E-05-5.75874E-16
 -1      3005 7.81923E-04-1.11152E-04-5.74939E-16
 -1      3006 6.36880E-03 1.00448E-03-2.12164E-14
 -1      3007 6.50241E-03 1.04053E-03-2.19839E-14
 -1      3008 6.54394E-04-1.77177E-04-3.92739E-16
 -1      3009 5.12790E-03-2.88023E-04-1.75078E-14
 -1      3010 4.94844E-03-2.00672E-04-1.70709E-14
 -1      3011 6.63507E-03-9.68500E-04-2.43310E-14
 -1      3012 6.50355E-03-9.62801E-04-2.34912E-14
 -1      3013 7.39546E-03-6.51860E-04-2.87087E-14
 -1      3014 7.20216E-03-7.64275E-04-2.76762E-14
 -1      3015 1.43218E-02-2.56699E-04-1.13156E-13
 -1      3016 4.47456E-03-2.45539E-05-1.60072E-14
 -1      3017 4.38408E-03-2.42470E-06-1.57984E-14
 -1      3018 4.32275E-03 1.60854E-05-1.56690E-14
 -1      3019 4.30410E-03 2.37953E-05-1.55738E-14
 -1      3020 7.81885E-03-4.04030E-04-3.06072E-14
 -1      3021 7.64142E-03-5.09497E-04-2.99086E-14
 -1      3022 8.05974E-04 2.63814E-04-3.63790E-16
 -1      3023 7.85980E-04-1.33960E-04-5.72337E-16
 -1      3024 7.90865E-04-1.58009E-04-5.67417E-16
 -1      3025 9.02492E-04-1.36396E-04-7.26917E-16
 -1      3026 7.53161E-03-5.92456E-04-2.96687E-14
 -1      3027 8.88738E-04 1.01068E-06-7.12551E-16
 -1      3028 7.72528E-04-8.70693E-06-5.64964E-16
 -1      3029 7.73112E-04-2.83076E-05-5.69830E-16
 -1      3030 6.27086E-03 9.78213E-04-2.05552E-14
 -1      3031 4.51093E-03-4.97012E-05-1.57290E-14
 -1      3032 7.72121E-03 5.96052E-04-2.92418E-14
 -1      3033 5.88835E-03 7.74586E-04-1.88332E-14
 -1      3034 5.98335E-03 8.46160E-04-1.90618E-14
 -1      3035 5.76042E-03 7.13802E-04-1.81834E-14
 -1      3036 8.73780E-03 1.14032E-04-3.34605E-14
 -1      3037 8.81437E-03 1.00214E-04-3.40580E-14
 -1      3038 8.70895E-03 1.43526E-04-3.40052E-14
 -1      3039 7.96423E-03-3.43072E-04-3.15576E-14
 -1      3040 5.01921E-03 2.94627E-04-1.62463E-14
 -1      3041 8.90195E-03 3.77418E-05-3.39728E-14
 -1      3042 8.88187E-03 2.73446E-05-3.44135E-14
 -1      3043 8.94025E-03 4.36383E-05-3.44190E-14
 -1      3044 1.42190E-02 4.08567E-04-1.07973E-13
 -1      3045 1.43444E-02 4.32619E-04-1.09675E-13
 -1      3046 1.43477E-02 4.74275E-04-1.09471E-13
 -1      3047 8.36513E-03-1.47766E-04-3.29568E-14
 -1      3048 8.10142E-03 3.90560E-04-3.11067E-14
 -1      3049 2.05724E-03 3.83550E-04-2.36761E-15
 -1      3050 6.39853E-03-9.47711E-04-2.28491E-14
 -1      3051 4.31814E-03 3.86395E-06-1.52218E-14
 -1      3052 8.45619E-03 2.28388E-04-3.26871E-14
 -1      3053 1.43569E-02 5.09782E-04-1.09389E-13
 -1      3054 1.43603E-02 5.51482E-04-1.09182E-13
 -1      3055 1.42497E-02 5.56645E-04-1.07521E-13
 -1      3056 1.42314E-02 4.85641E-04-1.07689E-13
 -1      3057 4.28507E-03 2.84460E-05-1.51296E-14
 -1      3058 4.67215E-03 1.42042E-04-1.58071E-14
 -1      3059 1.43245E-02-2.14624E-04-1.12990E-13
 -1      3060 4.81947E-03-1.64791E-04-1.64487E-14
 -1      3061 7.10705E-03-8.24769E-04-2.72773E-14
 -1      3062 8.69374E-03-2.47263E-05-3.38318E-14
 -1      3063 8.90890E-03 6.14511E-05-3.37433E-14
 -1      3064 5.64858E-03-5.81251E-04-1.91309E-14
 -1      3065 5.52381E-03-5.39540E-04-1.84401E-14
 -1      3066 5.73668E-03-6.44700E-04-1.94135E-14
 -1      3067 5.20981E-03-3.55905E-04-1.74672E-14
 -1      3068 5.43347E-03 5.09077E-04-1.73075E-14
 -1      3069 4.34708E-03 5.21012E-05-1.49968E-14
 -1      3070 4.40806E-03 5.81798E-05-1.54704E-14
 -1      3071 4.45045E-03 7.46305E-05-1.53030E-14
 -1      3072 6.05200E-03-8.01673E-04-2.09755E-14
 -1      3073 7.71260E-04-1.89183E-04-5.23873E-16
 -1      3074 6.95293E-03 9.87335E-04-2.47634E-14
 -1      3075 7.74323E-04-4.81192E-05-5.73136E-16
 -1      3076 7.76165E-04-6.84384E-05-5.75237E-16
 -1      3077 8.94675E-04-8.80360E-05-7.28990E-16
 -1      3078 8.90181E-04-4.27940E-05-7.23990E-16
 -1      3079 6.59649E-03 1.05390E-03-2.25130E-14
 -1      3080 7.33518E-03 8.08062E-04-2.70601E-14
 -1      3081 1.41654E-02-2.27250E-04-1.10685E-13
 -1      3082 1.42647E-02-1.84250E-04-1.11945E-13
 -1      3083 1.41424E-02-1.65564E-04-1.10036E-13
 -1      3084 1.40689E-02-2.28179E-04-1.09255E-13
 -1      3085 8.67484E-04 2.50877E-04-4.55948E-16
 -1      3086 9.85415E-04 2.57742E-04-6.00526E-16
 -1      3087 1.04094E-03 2.24925E-04-7.25955E-16
 -1      3088 1.03275E-03 1.94451E-04-7.54903E-16
 -1      3089 6.77372E-03-9.51967E-04-2.52227E-14
 -1      3090 6.69425E-03-9.72874E-04-2.47608E-14
 -1      3091 4.54271E-03-8.21822E-05-1.53673E-14
 -1      3092 4.41478E-03-4.47535E-05-1.49912E-14
 -1      3093 1.73235E-03-3.04699E-04-2.16235E-15
 -1      3094 1.87572E-03-3.10790E-04-2.50379E-15
 -1      3095 2.01900E-03-3.15004E-04-2.87049E-15
 -1      3096 2.16225E-03-3.17517E-04-3.26273E-15
 -1      3097 1.93548E-03-2.79472E-04-2.69778E-15
 -1      3098 2.30539E-03-3.18672E-04-3.67978E-15
 -1      3099 2.44848E-03-3.18636E-04-4.12166E-15
 -1      3100 2.22075E-03-2.84150E-04-3.48131E-15
 -1      3101 2.59148E-03-3.17741E-04-4.58879E-15
 -1      3102 2.73448E-03-3.16162E-04-5.08138E-15
 -1      3103 2.50527E-03-2.83957E-04-4.36459E-15
 -1      3104 2.87748E-03-3.14226E-04-5.59812E-15
 -1      3105 3.02059E-03-3.12139E-04-6.13919E-15
 -1      3106 2.78899E-03-2.80692E-04-5.34714E-15
 -1      3107 3.16386E-03-3.10237E-04-6.70584E-15
 -1      3108 3.30749E-03-3.08792E-04-7.29695E-15
 -1      3109 3.07216E-03-2.76194E-04-6.42847E-15
 -1      3110 3.45157E-03-3.08151E-04-7.91176E-15
 -1      3111 3.59639E-03-3.08705E-04-8.55090E-15
 -1      3112 3.35542E-03-2.72458E-04-7.60766E-15
 -1      3113 3.74220E-03-3.10803E-04-9.21570E-15
 -1      3114 3.88939E-03-3.15051E-04-9.90434E-15
 -1      3115 3.64012E-03-2.71801E-04-8.88397E-15
 -1      3116 4.03840E-03-3.21777E-04-1.06170E-14
 -1      3117 4.18975E-03-3.31937E-04-1.13551E-14
 -1      3118 3.92865E-03-2.77120E-04-1.02576E-14
 -1      3119 4.34414E-03-3.45765E-04-1.21175E-14
 -1      3120 4.50213E-03-3.64891E-04-1.29037E-14
 -1      3121 4.22493E-03-2.92352E-04-1.17283E-14
 -1      3122 4.66487E-03-3.89479E-04-1.37142E-14
 -1      3123 4.83240E-03-4.21693E-04-1.45511E-14
 -1      3124 4.53479E-03-3.23601E-04-1.32971E-14
 -1      3125 5.00616E-03-4.61403E-04-1.54141E-14
 -1      3126 5.18477E-03-5.11733E-04-1.63029E-14
 -1      3127 4.86592E-03-3.79575E-04-1.49652E-14
 -1      3128 5.46603E-03-5.96388E-04-1.77352E-14
 -1      3129 5.65594E-03-6.70611E-04-1.86938E-14
 -1      3130 5.84646E-03-7.52000E-04-1.96810E-14
 -1      3131 6.47536E-03-9.80000E-04-2.33395E-14
 -1      3132 6.64574E-03-9.86294E-04-2.44682E-14
 -1      3133 7.17049E-03-8.21906E-04-2.79632E-14
 -1      3134 7.35866E-03-7.38000E-04-2.92225E-14
 -1      3135 7.92772E-03-5.15192E-04-3.32630E-14
 -1      3136 8.10927E-03-4.56017E-04-3.46431E-14
 -1      3137 8.28629E-03-4.07461E-04-3.60525E-14
 -1      3138 8.45655E-03-3.67196E-04-3.74906E-14
 -1      3139 8.25377E-03-3.68268E-04-3.53082E-14
 -1      3140 8.62187E-03-3.35316E-04-3.89561E-14
 -1      3141 8.78200E-03-3.09420E-04-4.04472E-14
 -1      3142 8.59131E-03-2.95720E-04-3.81826E-14
 -1      3143 8.93819E-03-2.89376E-04-4.19667E-14
 -1      3144 9.09090E-03-2.73500E-04-4.35117E-14
 -1      3145 8.90549E-03-2.51563E-04-4.11620E-14
 -1      3146 9.24091E-03-2.61569E-04-4.50824E-14
 -1      3147 9.38881E-03-2.52494E-04-4.66796E-14
 -1      3148 9.20399E-03-2.25494E-04-4.42482E-14
 -1      3149 9.53506E-03-2.46007E-04-4.82986E-14
 -1      3150 9.68013E-03-2.41451E-04-4.99428E-14
 -1      3151 9.49321E-03-2.11033E-04-4.74305E-14
 -1      3152 9.82425E-03-2.38544E-04-5.16112E-14
 -1      3153 9.96778E-03-2.36884E-04-5.33021E-14
 -1      3154 9.77751E-03-2.04036E-04-5.07120E-14
 -1      3155 1.01108E-02-2.36210E-04-5.50189E-14
 -1      3156 1.02536E-02-2.36277E-04-5.67567E-14
 -1      3157 1.00596E-02-2.01746E-04-5.40904E-14
 -1      3158 1.03961E-02-2.36864E-04-5.85167E-14
 -1      3159 1.05386E-02-2.37822E-04-6.02992E-14
 -1      3160 1.03411E-02-2.02223E-04-5.75597E-14
 -1      3161 1.06810E-02-2.38981E-04-6.20998E-14
 -1      3162 1.08234E-02-2.40250E-04-6.39241E-14
 -1      3163 1.06227E-02-2.04082E-04-6.11148E-14
 -1      3164 1.09658E-02-2.41508E-04-6.57672E-14
 -1      3165 1.11082E-02-2.42704E-04-6.76275E-14
 -1      3166 1.09048E-02-2.06354E-04-6.47549E-14
 -1      3167 1.12507E-02-2.43756E-04-6.95065E-14
 -1      3168 1.13932E-02-2.44641E-04-7.13998E-14
 -1      3169 1.11876E-02-2.08387E-04-6.84711E-14
 -1      3170 1.15358E-02-2.45309E-04-7.33085E-14
 -1      3171 1.16784E-02-2.45753E-04-7.52326E-14
 -1      3172 1.14710E-02-2.09780E-04-7.22539E-14
 -1      3173 1.18210E-02-2.45949E-04-7.71707E-14
 -1      3174 1.19637E-02-2.45900E-04-7.91261E-14
 -1      3175 1.17550E-02-2.10312E-04-7.60967E-14
 -1      3176 1.21064E-02-2.45600E-04-8.10927E-14
 -1      3177 1.22492E-02-2.45055E-04-8.30717E-14
 -1      3178 1.20395E-02-2.09898E-04-7.99987E-14
 -1      3179 1.23919E-02-2.44273E-04-8.50645E-14
 -1      3180 1.25347E-02-2.43265E-04-8.70684E-14
 -1      3181 1.23243E-02-2.08541E-04-8.39549E-14
 -1      3182 1.26775E-02-2.42042E-04-8.90857E-14
 -1      3183 1.28203E-02-2.40617E-04-9.11152E-14
 -1      3184 1.26094E-02-2.06302E-04-8.79591E-14
 -1      3185 1.29632E-02-2.39008E-04-9.31519E-14
 -1      3186 1.31060E-02-2.37225E-04-9.51997E-14
 -1      3187 1.28947E-02-2.03274E-04-9.20098E-14
 -1      3188 1.32489E-02-2.35288E-04-9.72578E-14
 -1      3189 1.33917E-02-2.33207E-04-9.93252E-14
 -1      3190 1.31802E-02-1.99569E-04-9.60996E-14
 -1      3191 1.35346E-02-2.31001E-04-1.01401E-13
 -1      3192 1.36774E-02-2.28682E-04-1.03484E-13
 -1      3193 1.34657E-02-1.95298E-04-1.00227E-13
 -1      3194 1.38017E-02-2.29738E-04-1.05316E-13
 -1      3195 1.39446E-02-2.27247E-04-1.07409E-13
 -1      3196 1.39813E-02-1.95976E-04-1.07803E-13
 -1      3197 1.37328E-02-1.94042E-04-1.04130E-13
 -1      3198 2.69039E-03 3.50501E-04-4.19790E-15
 -1      3199 2.54667E-03 3.51800E-04-3.76291E-15
 -1      3200 6.86932E-03-9.30492E-04-2.58873E-14
 -1      3201 2.97820E-03 3.46779E-04-5.14206E-15
 -1      3202 2.83419E-03 3.48754E-04-4.65776E-15
 -1      3203 2.74524E-03 3.14790E-04-4.50363E-15
 -1      3204 3.85295E-03 3.50249E-04-8.57336E-15
 -1      3205 3.70488E-03 3.45790E-04-7.93850E-15
 -1      3206 4.15446E-03 3.67991E-04-9.91903E-15
 -1      3207 4.00266E-03 3.57348E-04-9.23359E-15
 -1      3208 3.89261E-03 3.13311E-04-9.00336E-15
 -1      3209 4.46675E-03 4.02441E-04-1.13677E-14
 -1      3210 4.30903E-03 3.82567E-04-1.06308E-14
 -1      3211 4.18981E-03 3.30177E-04-1.03792E-14
 -1      3212 4.79489E-03 4.61057E-04-1.29196E-14
 -1      3213 4.62872E-03 4.28005E-04-1.21303E-14
 -1      3214 4.49909E-03 3.63586E-04-1.18572E-14
 -1      3215 5.14430E-03 5.51622E-04-1.45776E-14
 -1      3216 4.96725E-03 5.01287E-04-1.37347E-14
 -1      3217 4.82763E-03 4.21682E-04-1.34367E-14
 -1      3218 5.51407E-03 6.82140E-04-1.63495E-14
 -1      3219 5.32798E-03 6.11881E-04-1.54497E-14
 -1      3220 5.18232E-03 5.15344E-04-1.51224E-14
 -1      3221 5.94103E-03 8.63809E-04-1.85153E-14
 -1      3222 5.75297E-03 7.80923E-04-1.75442E-14
 -1      3223 6.56374E-03 1.06970E-03-2.21230E-14
 -1      3224 6.39139E-03 1.04112E-03-2.10383E-14
 -1      3225 6.90375E-03 1.03164E-03-2.44119E-14
 -1      3226 6.72845E-03 1.06394E-03-2.32614E-14
 -1      3227 7.25908E-03 8.91763E-04-2.67563E-14
 -1      3228 7.07256E-03 9.67979E-04-2.55434E-14
 -1      3229 7.63368E-03 7.23653E-04-2.92097E-14
 -1      3230 7.44136E-03 8.05873E-04-2.79377E-14
 -1      3231 8.41455E-03 4.99225E-04-3.50538E-14
 -1      3232 8.24117E-03 5.41145E-04-3.36643E-14
 -1      3233 8.74657E-03 4.40828E-04-3.79061E-14
 -1      3234 8.58325E-03 4.66518E-04-3.64685E-14
 -1      3235 8.54766E-03 4.26111E-04-3.58975E-14
 -1      3236 9.06144E-03 4.08177E-04-4.08585E-14
 -1      3237 8.90586E-03 4.21999E-04-3.93699E-14
 -1      3238 8.86889E-03 3.82360E-04-3.87776E-14
 -1      3239 9.36464E-03 3.93560E-04-4.39022E-14
 -1      3240 9.21421E-03 3.99088E-04-4.23696E-14
 -1      3241 9.17322E-03 3.60583E-04-4.17551E-14
 -1      3242 9.66051E-03 3.91333E-04-4.70436E-14
 -1      3243 9.51326E-03 3.91228E-04-4.54607E-14
 -1      3244 9.46722E-03 3.53360E-04-4.48254E-14
 -1      3245 9.95208E-03 3.97276E-04-5.02751E-14
 -1      3246 9.80667E-03 3.93506E-04-4.86475E-14
 -1      3247 9.75548E-03 3.55776E-04-4.79910E-14
 -1      3248 1.02412E-02 4.08312E-04-5.35954E-14
 -1      3249 1.00969E-02 4.02310E-04-5.19245E-14
 -1      3250 1.00409E-02 3.64401E-04-5.12497E-14
 -1      3251 1.05291E-02 4.22218E-04-5.70026E-14
 -1      3252 1.03853E-02 4.15010E-04-5.52874E-14
 -1      3253 1.03251E-02 3.76790E-04-5.45962E-14
 -1      3254 1.08162E-02 4.37428E-04-6.04967E-14
 -1      3255 1.06727E-02 4.29729E-04-5.87378E-14
 -1      3256 1.06091E-02 3.91191E-04-5.80278E-14
 -1      3257 1.11029E-02 4.52889E-04-6.40721E-14
 -1      3258 1.09596E-02 4.45171E-04-6.22754E-14
 -1      3259 1.08932E-02 4.06372E-04-6.15478E-14
 -1      3260 1.13894E-02 4.67932E-04-6.77280E-14
 -1      3261 1.12461E-02 4.60489E-04-6.58905E-14
 -1      3262 1.11776E-02 4.21504E-04-6.51499E-14
 -1      3263 1.16757E-02 4.82169E-04-7.14552E-14
 -1      3264 1.15325E-02 4.75164E-04-6.95829E-14
 -1      3265 1.14622E-02 4.36068E-04-6.88258E-14
 -1      3266 1.19619E-02 4.95416E-04-7.52528E-14
 -1      3267 1.18188E-02 4.88921E-04-7.33438E-14
 -1      3268 1.17472E-02 4.49776E-04-7.25736E-14
 -1      3269 1.22480E-02 5.07622E-04-7.91134E-14
 -1      3270 1.21049E-02 5.01648E-04-7.71755E-14
 -1      3271 1.20324E-02 4.62498E-04-7.63881E-14
 -1      3272 1.25340E-02 5.18822E-04-8.30387E-14
 -1      3273 1.23910E-02 5.13343E-04-8.10684E-14
 -1      3274 1.23178E-02 4.74218E-04-8.02690E-14
 -1      3275 1.28199E-02 5.29104E-04-8.70107E-14
 -1      3276 1.26770E-02 5.24072E-04-8.50198E-14
 -1      3277 1.26033E-02 4.84990E-04-8.42065E-14
 -1      3278 1.31058E-02 5.38583E-04-9.10279E-14
 -1      3279 1.29629E-02 5.33937E-04-8.90162E-14
 -1      3280 1.28889E-02 4.94905E-04-8.81929E-14
 -1      3281 1.33917E-02 5.47383E-04-9.50784E-14
 -1      3282 1.32488E-02 5.43061E-04-9.30480E-14
 -1      3283 1.31745E-02 5.04079E-04-9.22188E-14
 -1      3284 1.36775E-02 5.55629E-04-9.91614E-14
 -1      3285 1.35346E-02 5.51569E-04-9.71147E-14
 -1      3286 1.34602E-02 5.12632E-04-9.62774E-14
 -1      3287 1.39633E-02 5.63441E-04-1.03273E-13
 -1      3288 1.38204E-02 5.59583E-04-1.01214E-13
 -1      3289 1.37459E-02 5.20683E-04-1.00369E-13
 -1      3290 1.41618E-02 5.57531E-04-1.06221E-13
 -1      3291 1.40512E-02 5.62620E-04-1.04566E-13
 -1      3292 1.39767E-02 5.23745E-04-1.03717E-13
 -1      3293 1.41526E-02 5.22030E-04-1.06306E-13
 -1      3294 1.14803E-03 2.88800E-04-7.87537E-16
 -1      3295 1.08403E-03 2.51808E-04-7.50200E-16
 -1      3296 1.20213E-03 2.51031E-04-9.34406E-16
 -1      3297 1.29154E-03 3.07323E-04-9.84591E-16
 -1      3298 1.00898E-03 6.14457E-05-8.53782E-16
 -1      3299 1.00716E-03 3.71142E-05-8.66400E-16
 -1      3300 1.40748E-02 1.33984E-04-1.07447E-13
 -1      3301 1.40779E-02 1.75771E-04-1.07257E-13
 -1      3302 1.40569E-02-1.15620E-04-1.08518E-13
 -1      3303 1.40598E-02-7.37181E-05-1.08344E-13
 -1      3304 1.40688E-02 5.18103E-05-1.07810E-13
 -1      3305 1.40718E-02 9.29023E-05-1.07630E-13
 -1      3306 1.39497E-02 1.11144E-04-1.05736E-13
 -1      3307 8.05959E-03 4.49215E-04-3.13636E-14
 -1      3308 8.23098E-03 3.63934E-04-3.22341E-14
 -1      3309 7.86414E-03 6.55593E-04-3.08585E-14
 -1      3310 7.76726E-03 6.22247E-04-2.98771E-14
 -1      3311 7.94769E-03 5.23132E-04-3.09022E-14
 -1      3312 8.04835E-03 5.93265E-04-3.21948E-14
 -1      3313 1.40628E-02-3.18485E-05-1.08170E-13
 -1      3314 1.40657E-02 9.99219E-06-1.07990E-13
 -1      3315 1.39437E-02 2.83901E-05-1.06096E-13
 -1      3316 1.39377E-02-5.51671E-05-1.06448E-13
 -1      3317 3.55809E-03 3.43546E-04-7.32911E-15
 -1      3318 3.41223E-03 3.42934E-04-6.74478E-15
 -1      3319 3.60236E-03 3.07042E-04-7.72849E-15
 -1      3320 3.26709E-03 3.43530E-04-6.18585E-15
 -1      3321 3.12244E-03 3.44945E-04-5.65159E-15
 -1      3322 3.31559E-03 3.07209E-04-6.55385E-15
 -1      3323 6.31688E-03-9.39361E-04-2.23247E-14
 -1      3324 1.44574E-03-2.85616E-04-1.55545E-15
 -1      3325 1.58904E-03-2.96368E-04-1.84626E-15
 -1      3326 1.64982E-03-2.68084E-04-2.01427E-15
 -1      3327 4.24477E-03 2.41603E-05-1.46337E-14
 -1      3328 4.26799E-03 3.49082E-05-1.46668E-14
 -1      3329 6.24250E-03 9.85352E-04-2.02023E-14
 -1      3330 8.47750E-03-1.24679E-04-3.40281E-14
 -1      3331 8.29487E-03-1.98788E-04-3.32868E-14
 -1      3332 2.40305E-03 3.52300E-04-3.35210E-15
 -1      3333 2.25943E-03 3.51810E-04-2.96541E-15
 -1      3334 2.45997E-03 3.17428E-04-3.62578E-15
 -1      3335 2.11585E-03 3.49975E-04-2.60402E-15
 -1      3336 1.97223E-03 3.46612E-04-2.26699E-15
 -1      3337 2.17423E-03 3.16533E-04-2.84618E-15
 -1      3338 6.99078E-03-9.01231E-04-2.67822E-14
 -1      3339 7.56979E-03-6.19490E-04-3.04372E-14
 -1      3340 8.88610E-04-1.96692E-04-6.75024E-16
 -1      3341 5.30905E-03 4.66307E-04-1.65963E-14
 -1      3342 5.51308E-03 5.79390E-04-1.72295E-14
 -1      3343 4.31109E-03-8.08966E-06-1.48077E-14
 -1      3344 4.25929E-03 8.79207E-06-1.46845E-14
 -1      3345 5.26101E-03-4.22590E-04-1.72942E-14
 -1      3346 5.05194E-03-3.13454E-04-1.66160E-14
 -1      3347 7.76313E-03-5.37229E-04-3.17589E-14
 -1      3348 8.80818E-03-3.44958E-06-3.48538E-14
 -1      3349 8.68727E-03-4.57805E-05-3.47139E-14
 -1      3350 4.83401E-03-2.07801E-04-1.60117E-14
 -1      3351 4.68296E-03-1.37859E-04-1.56885E-14
 -1      3352 4.55656E-03-1.22729E-04-1.49485E-14
 -1      3353 4.54660E-03 1.08535E-04-1.53016E-14
 -1      3354 4.68106E-03 1.64533E-04-1.53215E-14
 -1      3355 8.11530E-03-2.85797E-04-3.26103E-14
 -1      3356 7.92848E-03-3.91976E-04-3.19323E-14
 -1      3357 6.13723E-03-8.80088E-04-2.12595E-14
 -1      3358 8.91107E-03 7.09532E-05-3.44125E-14
 -1      3359 8.95625E-03 5.79351E-05-3.46494E-14
 -1      3360 4.89053E-03 2.60592E-04-1.55616E-14
 -1      3361 5.07744E-03 3.47324E-04-1.59740E-14
 -1      3362 8.42425E-03 2.73179E-04-3.31432E-14
 -1      3363 8.58122E-03 2.08892E-04-3.38719E-14
 -1      3364 6.77418E-03-9.72103E-04-2.53615E-14
 -1      3365 6.05943E-03 9.12782E-04-1.91769E-14
 -1      3366 5.97545E-03-7.95266E-04-2.04060E-14
 -1      3367 1.00622E-03 1.30771E-05-8.77038E-16
 -1      3368 1.00619E-03-1.08412E-05-8.85739E-16
 -1      3369 1.12489E-03 2.70526E-05-1.05753E-15
 -1      3370 1.01173E-03 8.61962E-05-8.39389E-16
 -1      3371 1.12911E-03 7.94356E-05-1.02842E-15
 -1      3372 1.01540E-03 1.11644E-04-8.22327E-16
 -1      3373 5.62486E-03 6.61764E-04-1.74431E-14
 -1      3374 4.33074E-03-5.87246E-05-1.41113E-14
 -1      3375 4.32141E-03-3.08394E-05-1.44589E-14
 -1      3376 4.23894E-03-2.24949E-05-1.39367E-14
 -1      3377 8.67508E-03 1.81070E-04-3.44756E-14
 -1      3378 8.76302E-03 1.59856E-04-3.50828E-14
 -1      3379 8.65287E-03 2.22544E-04-3.49425E-14
 -1      3380 8.97755E-03 5.09763E-05-3.50970E-14
 -1      3381 8.98519E-03 4.47244E-05-3.55447E-14
 -1      3382 9.00533E-03 5.90177E-05-3.57781E-14
 -1      3383 1.40938E-02 3.84713E-04-1.06272E-13
 -1      3384 1.40970E-02 4.26259E-04-1.06071E-13
 -1      3385 1.02580E-03 1.65561E-04-7.80436E-16
 -1      3386 1.02010E-03 1.38075E-04-8.02716E-16
 -1      3387 1.13756E-03 1.34210E-04-9.88928E-16
 -1      3388 1.15059E-03 1.93096E-04-9.37076E-16
 -1      3389 5.31792E-03-4.95607E-04-1.72436E-14
 -1      3390 1.01484E-03-2.16726E-04-8.46450E-16
 -1      3391 6.94719E-03-9.27640E-04-2.65485E-14
 -1      3392 8.76145E-03-5.75782E-05-3.60933E-14
 -1      3393 8.62680E-03-8.46877E-05-3.50533E-14
 -1      3394 8.57212E-03-1.29016E-04-3.53919E-14
 -1      3395 1.88801E-03 3.10110E-04-2.16359E-15
 -1      3396 1.82861E-03 3.41343E-04-1.95383E-15
 -1      3397 1.68493E-03 3.33978E-04-1.66485E-15
 -1      3398 3.03026E-03 3.10647E-04-5.47911E-15
 -1      3399 8.24989E-03-2.49804E-04-3.36729E-14
 -1      3400 8.37971E-03 3.30877E-04-3.34086E-14
 -1      3401 8.18988E-03 5.03397E-04-3.30061E-14
 -1      3402 1.40873E-02 3.01002E-04-1.06671E-13
 -1      3403 1.40905E-02 3.42843E-04-1.06473E-13
 -1      3404 1.39685E-02 3.60529E-04-1.04578E-13
 -1      3405 1.40810E-02 2.17473E-04-1.07063E-13
 -1      3406 1.40841E-02 2.59273E-04-1.06868E-13
 -1      3407 1.39621E-02 2.77060E-04-1.04975E-13
 -1      3408 1.39559E-02 1.93776E-04-1.05363E-13
 -1      3409 8.09228E-03 4.90539E-04-3.20194E-14
 -1      3410 1.56009E-03 3.29312E-04-1.42548E-15
 -1      3411 1.41638E-03 3.16990E-04-1.18262E-15
 -1      3412 1.37089E-03 2.88490E-04-1.15603E-15
 -1      3413 1.62018E-03 3.01017E-04-1.60492E-15
 -1      3414 4.28074E-03 4.48251E-05-1.45042E-14
 -1      3415 4.30118E-03 5.66801E-05-1.43415E-14
 -1      3416 4.22059E-03 3.95362E-05-1.40192E-14
 -1      3417 1.31730E-03-2.72366E-04-1.31728E-15
 -1      3418 1.37903E-03-2.48145E-04-1.46020E-15
 -1      3419 1.18909E-03-2.56852E-04-1.09931E-15
 -1      3420 4.21377E-03 1.51889E-05-1.42314E-14
 -1      3421 8.94363E-03 2.37474E-05-3.57614E-14
 -1      3422 8.88181E-03 1.29226E-05-3.53066E-14
 -1      3423 8.88775E-03-5.84535E-06-3.62066E-14
 -1      3424 4.45952E-03 9.46822E-05-1.48297E-14
 -1      3425 4.89334E-03-2.73356E-04-1.58476E-14
 -1      3426 8.89897E-03 8.98065E-05-3.49698E-14
 -1      3427 1.01145E-03-8.37491E-05-9.00430E-16
 -1      3428 1.01502E-03-1.09148E-04-9.01528E-16
 -1      3429 4.74322E-03 2.09882E-04-1.50602E-14
 -1      3430 4.79580E-03 2.59698E-04-1.47962E-14
 -1      3431 4.60713E-03 1.71395E-04-1.45682E-14
 -1      3432 5.16138E-03 4.16073E-04-1.58967E-14
 -1      3433 1.40007E-02-1.71425E-04-1.07968E-13
 -1      3434 1.40375E-02-1.40162E-04-1.08355E-13
 -1      3435 1.39153E-02-1.21498E-04-1.06457E-13
 -1      3436 1.38765E-02-1.70516E-04-1.06129E-13
 -1      3437 7.92232E-03-4.31941E-04-3.23886E-14
 -1      3438 1.13710E-03-1.31518E-04-1.09244E-15
 -1      3439 1.01961E-03-1.35469E-04-9.00674E-16
 -1      3440 1.02519E-03-1.62889E-04-8.97245E-16
 -1      3441 2.13745E-03-2.50243E-04-3.28553E-15
 -1      3442 2.27918E-03-2.51048E-04-3.70182E-15
 -1      3443 2.42057E-03-2.50850E-04-4.14290E-15
 -1      3444 2.56165E-03-2.49764E-04-4.60869E-15
 -1      3445 2.33753E-03-2.18301E-04-3.92397E-15
 -1      3446 2.70232E-03-2.48067E-04-5.09880E-15
 -1      3447 2.84268E-03-2.45878E-04-5.61385E-15
 -1      3448 2.61764E-03-2.16152E-04-4.85338E-15
 -1      3449 2.98266E-03-2.43471E-04-6.15348E-15
 -1      3450 3.12241E-03-2.40992E-04-6.71770E-15
 -1      3451 2.89561E-03-2.11802E-04-5.88157E-15
 -1      3452 3.26193E-03-2.38709E-04-7.30591E-15
 -1      3453 3.40146E-03-2.36831E-04-7.91808E-15
 -1      3454 3.17146E-03-2.06592E-04-7.00700E-15
 -1      3455 3.54106E-03-2.35613E-04-8.55423E-15
 -1      3456 3.68116E-03-2.35395E-04-9.21547E-15
 -1      3457 3.44566E-03-2.01930E-04-8.22861E-15
 -1      3458 3.82194E-03-2.36394E-04-9.90099E-15
 -1      3459 3.96408E-03-2.39232E-04-1.06096E-14
 -1      3460 3.71950E-03-1.99430E-04-9.54663E-15
 -1      3461 4.10796E-03-2.44049E-04-1.13434E-14
 -1      3462 4.25467E-03-2.52091E-04-1.21016E-14
 -1      3463 3.99548E-03-2.01187E-04-1.09620E-14
 -1      3464 4.40466E-03-2.63403E-04-1.28827E-14
 -1      3465 4.55965E-03-2.80317E-04-1.36886E-14
 -1      3466 4.27838E-03-2.10574E-04-1.24730E-14
 -1      3467 1.56879E-03-2.32515E-04-1.86885E-15
 -1      3468 1.71105E-03-2.39506E-04-2.18585E-15
 -1      3469 8.56916E-03-2.54044E-04-3.74108E-14
 -1      3470 8.72683E-03-2.30177E-04-3.88740E-14
 -1      3471 8.87899E-03-2.12828E-04-4.03626E-14
 -1      3472 9.02692E-03-1.99260E-04-4.18762E-14
 -1      3473 8.85908E-03-1.72652E-04-3.95659E-14
 -1      3474 9.17153E-03-1.89409E-04-4.34155E-14
 -1      3475 9.31398E-03-1.81901E-04-4.49804E-14
 -1      3476 9.14379E-03-1.52984E-04-4.25884E-14
 -1      3477 9.45466E-03-1.76607E-04-4.65692E-14
 -1      3478 9.59437E-03-1.72826E-04-4.81809E-14
 -1      3479 9.41946E-03-1.42604E-04-4.57113E-14
 -1      3480 9.73330E-03-1.70393E-04-4.98197E-14
 -1      3481 9.87196E-03-1.68940E-04-5.14814E-14
 -1      3482 9.69155E-03-1.37570E-04-4.89316E-14
 -1      3483 1.00104E-02-1.68284E-04-5.31661E-14
 -1      3484 1.01490E-02-1.68229E-04-5.48759E-14
 -1      3485 9.96310E-03-1.35818E-04-5.22476E-14
 -1      3486 1.02876E-02-1.68598E-04-5.66066E-14
 -1      3487 1.04265E-02-1.69285E-04-5.83610E-14
 -1      3488 1.02356E-02-1.36007E-04-5.56583E-14
 -1      3489 1.05657E-02-1.70137E-04-6.01354E-14
 -1      3490 1.07051E-02-1.71098E-04-6.19308E-14
 -1      3491 1.05099E-02-1.37178E-04-5.91586E-14
 -1      3492 1.08449E-02-1.72048E-04-6.37488E-14
 -1      3493 1.09850E-02-1.72961E-04-6.55856E-14
 -1      3494 1.07860E-02-1.38634E-04-6.27475E-14
 -1      3495 1.11254E-02-1.73747E-04-6.74402E-14
 -1      3496 1.12661E-02-1.74399E-04-6.93135E-14
 -1      3497 1.10640E-02-1.39880E-04-6.64149E-14
 -1      3498 1.14070E-02-1.74856E-04-7.12026E-14
 -1      3499 1.15482E-02-1.75124E-04-7.31060E-14
 -1      3500 1.13436E-02-1.40585E-04-7.01539E-14
 -1      3501 1.16896E-02-1.75166E-04-7.50256E-14
 -1      3502 1.18312E-02-1.74993E-04-7.69594E-14
 -1      3503 1.16247E-02-1.40556E-04-7.39562E-14
 -1      3504 1.19730E-02-1.74586E-04-7.89072E-14
 -1      3505 1.21149E-02-1.73961E-04-8.08709E-14
 -1      3506 1.19069E-02-1.39704E-04-7.78185E-14
 -1      3507 1.22570E-02-1.73111E-04-8.28468E-14
 -1      3508 1.23992E-02-1.72054E-04-8.48352E-14
 -1      3509 1.21901E-02-1.38020E-04-8.17407E-14
 -1      3510 1.25415E-02-1.70793E-04-8.68349E-14
 -1      3511 1.26840E-02-1.69343E-04-8.88474E-14
 -1      3512 1.24740E-02-1.35545E-04-8.57128E-14
 -1      3513 1.28265E-02-1.67714E-04-9.08728E-14
 -1      3514 1.29690E-02-1.65922E-04-9.29047E-14
 -1      3515 1.27584E-02-1.32353E-04-8.97345E-14
 -1      3516 1.31116E-02-1.63978E-04-9.49455E-14
 -1      3517 1.32543E-02-1.61896E-04-9.69969E-14
 -1      3518 1.30433E-02-1.28535E-04-9.37956E-14
 -1      3519 1.33970E-02-1.59688E-04-9.90597E-14
 -1      3520 1.35398E-02-1.57369E-04-1.01130E-13
 -1      3521 1.33284E-02-1.24188E-04-9.78931E-14
 -1      3522 4.52484E-03 3.23048E-04-1.23475E-14
 -1      3523 4.37013E-03 3.04716E-04-1.15825E-14
 -1      3524 4.22000E-03 2.91824E-04-1.08418E-14
 -1      3525 4.07296E-03 2.82547E-04-1.01262E-14
 -1      3526 4.24462E-03 2.52507E-04-1.13069E-14
 -1      3527 3.92847E-03 2.76614E-04-9.43668E-15
 -1      3528 3.78553E-03 2.72909E-04-8.77164E-15
 -1      3529 3.96041E-03 2.39969E-04-9.87295E-15
 -1      3530 5.61261E-03 6.78426E-04-1.71809E-14
 -1      3531 1.07810E-03-1.98808E-04-9.59709E-16
 -1      3532 2.51635E-03 2.83028E-04-3.90511E-15
 -1      3533 2.37453E-03 2.83681E-04-3.48700E-15
 -1      3534 3.36199E-03 2.71712E-04-6.92624E-15
 -1      3535 3.22138E-03 2.73291E-04-6.36093E-15
 -1      3536 8.68244E-03 3.58443E-04-3.67432E-14
 -1      3537 8.52062E-03 3.83059E-04-3.53253E-14
 -1      3538 9.56659E-03 3.16609E-04-4.57500E-14
 -1      3539 9.42495E-03 3.16057E-04-4.41908E-14
 -1      3540 9.84748E-03 3.22724E-04-4.89441E-14
 -1      3541 9.70726E-03 3.18986E-04-4.73361E-14
 -1      3542 9.66194E-03 2.83061E-04-4.66791E-14
 -1      3543 1.01272E-02 3.33306E-04-5.22281E-14
 -1      3544 9.98735E-03 3.27583E-04-5.05734E-14
 -1      3545 9.93609E-03 2.91842E-04-4.98988E-14
 -1      3546 1.04070E-02 3.46519E-04-5.56011E-14
 -1      3547 1.02670E-02 3.39668E-04-5.39036E-14
 -1      3548 1.02108E-02 3.03662E-04-5.32106E-14
 -1      3549 1.06876E-02 3.61036E-04-5.90597E-14
 -1      3550 1.05472E-02 3.53671E-04-5.73197E-14
 -1      3551 1.04868E-02 3.17206E-04-5.66088E-14
 -1      3552 1.09690E-02 3.75914E-04-6.26046E-14
 -1      3553 1.08282E-02 3.68466E-04-6.08216E-14
 -1      3554 1.07644E-02 3.31504E-04-6.00951E-14
 -1      3555 1.12514E-02 3.90524E-04-6.62288E-14
 -1      3556 1.11101E-02 3.83274E-04-6.44079E-14
 -1      3557 1.10436E-02 3.45855E-04-6.36645E-14
 -1      3558 1.15345E-02 4.04473E-04-6.99291E-14
 -1      3559 1.13928E-02 3.97592E-04-6.80701E-14
 -1      3560 1.13243E-02 3.59790E-04-6.73131E-14
 -1      3561 1.18183E-02 4.17553E-04-7.36937E-14
 -1      3562 1.16763E-02 4.11126E-04-7.18012E-14
 -1      3563 1.16061E-02 3.73023E-04-7.10309E-14
 -1      3564 1.21027E-02 4.29684E-04-7.75285E-14
 -1      3565 1.19604E-02 4.23736E-04-7.56038E-14
 -1      3566 1.18890E-02 3.85408E-04-7.48176E-14
 -1      3567 1.23874E-02 4.40872E-04-8.14260E-14
 -1      3568 1.22450E-02 4.35391E-04-7.94704E-14
 -1      3569 1.21726E-02 3.96903E-04-7.86708E-14
 -1      3570 1.26725E-02 4.51183E-04-8.53771E-14
 -1      3571 1.25299E-02 4.46132E-04-8.33952E-14
 -1      3572 1.24569E-02 4.07533E-04-8.25846E-14
 -1      3573 1.29578E-02 4.60712E-04-8.93747E-14
 -1      3574 1.28151E-02 4.56039E-04-8.73694E-14
 -1      3575 1.27416E-02 4.17367E-04-8.65487E-14
 -1      3576 1.32432E-02 4.69570E-04-9.34087E-14
 -1      3577 1.31005E-02 4.65218E-04-9.13878E-14
 -1      3578 1.30266E-02 4.26501E-04-9.05550E-14
 -1      3579 1.35288E-02 4.77869E-04-9.74777E-14
 -1      3580 1.33860E-02 4.73783E-04-9.54392E-14
 -1      3581 1.33119E-02 4.35038E-04-9.46023E-14
 -1      3582 1.38144E-02 4.85721E-04-1.01578E-13
 -1      3583 1.36716E-02 4.81844E-04-9.95227E-14
 -1      3584 1.35973E-02 4.43081E-04-9.86795E-14
 -1      3585 8.28503E-03 4.40423E-04-3.34877E-14
 -1      3586 1.41203E-02 4.56393E-04-1.06230E-13
 -1      3587 1.41293E-02 4.91843E-04-1.06148E-13
 -1      3588 1.40414E-02 4.92724E-04-1.04853E-13
 -1      3589 1.39949E-02 4.32450E-04-1.04536E-13
 -1      3590 1.38247E-02 8.80321E-05-1.04029E-13
 -1      3591 1.38277E-02 1.28962E-04-1.03850E-13
 -1      3592 3.08081E-03 2.75322E-04-5.82091E-15
 -1      3593 2.94004E-03 2.77581E-04-5.30495E-15
 -1      3594 3.12995E-03 2.40874E-04-6.16666E-15
 -1      3595 3.64380E-03 2.71200E-04-8.13183E-15
 -1      3596 3.50267E-03 2.70899E-04-7.51662E-15
 -1      3597 3.40640E-03 2.37063E-04-7.30306E-15
 -1      3598 3.68245E-03 2.35969E-04-8.53886E-15
 -1      3599 9.28208E-03 3.17545E-04-4.26533E-14
 -1      3600 9.13715E-03 3.21961E-04-4.11411E-14
 -1      3601 9.38647E-03 2.79144E-04-4.35554E-14
 -1      3602 8.98963E-03 3.29451E-04-3.96530E-14
 -1      3603 8.83839E-03 3.41625E-04-3.81867E-14
 -1      3604 8.81481E-03 2.99037E-04-3.75932E-14
 -1      3605 9.10620E-03 2.82912E-04-4.05276E-14
 -1      3606 8.43817E-03 3.57908E-04-3.43052E-14
 -1      3607 8.60507E-03 2.83370E-04-3.52444E-14
 -1      3608 4.16619E-03 5.20580E-06-1.36530E-14
 -1      3609 4.15667E-03 2.16792E-05-1.36044E-14
 -1      3610 2.23247E-03 2.83324E-04-3.09324E-15
 -1      3611 2.09014E-03 2.81819E-04-2.72403E-15
 -1      3612 2.29055E-03 2.50452E-04-3.34609E-15
 -1      3613 1.00705E-03-3.48184E-05-8.92475E-16
 -1      3614 1.00879E-03-5.90282E-05-8.97394E-16
 -1      3615 1.12887E-03-7.68515E-05-1.08939E-15
 -1      3616 1.85330E-03-2.44668E-04-2.52751E-15
 -1      3617 1.99549E-03-2.48155E-04-2.89420E-15
 -1      3618 2.05565E-03-2.16911E-04-3.09266E-15
 -1      3619 1.32629E-03 2.60888E-04-1.12678E-15
 -1      3620 1.28262E-03 2.34129E-04-1.09548E-15
 -1      3621 1.45062E-03 2.68342E-04-1.33861E-15
 -1      3622 8.90415E-03 1.09922E-04-3.57285E-14
 -1      3623 8.98715E-03 8.22159E-05-3.60932E-14
 -1      3624 4.36611E-03 7.99688E-05-1.43410E-14
 -1      3625 4.44507E-03 1.10411E-04-1.43368E-14
 -1      3626 4.28245E-03 7.00700E-05-1.38597E-14
 -1      3627 4.54996E-03-1.57204E-04-1.45297E-14
 -1      3628 4.42971E-03-1.07605E-04-1.42263E-14
 -1      3629 4.74378E-03-2.79921E-04-1.48088E-14
 -1      3630 4.56162E-03-1.98677E-04-1.42479E-14
 -1      3631 2.79909E-03 2.79753E-04-4.81345E-15
 -1      3632 2.65784E-03 2.81672E-04-4.34705E-15
 -1      3633 2.85201E-03 2.45487E-04-5.12882E-15
 -1      3634 1.27363E-03 2.01389E-04-1.13031E-15
 -1      3635 4.32241E-03-8.86720E-05-1.37091E-14
 -1      3636 1.25063E-03 9.86750E-05-1.21772E-15
 -1      3637 1.24709E-03 7.04168E-05-1.23710E-15
 -1      3638 9.03288E-03 7.15197E-05-3.65526E-14
 -1      3639 9.06692E-03 6.34764E-05-3.70108E-14
 -1      3640 9.05758E-03 8.78496E-05-3.73278E-14
 -1      3641 1.77262E-03-2.10635E-04-2.36019E-15
 -1      3642 1.44129E-03-2.23263E-04-1.60684E-15
 -1      3643 1.50395E-03-1.97695E-04-1.75726E-15
 -1      3644 1.31404E-03-2.12366E-04-1.36486E-15
 -1      3645 1.37058E-02 1.47314E-04-1.01966E-13
 -1      3646 1.38308E-02 1.70504E-04-1.03663E-13
 -1      3647 1.38339E-02 2.12052E-04-1.03472E-13
 -1      3648 8.88298E-03-2.90868E-05-3.69267E-14
 -1      3649 8.84423E-03-6.14286E-05-3.72767E-14
 -1      3650 8.07305E-03-3.78574E-04-3.34523E-14
 -1      3651 1.94763E-03 2.78850E-04-2.37862E-15
 -1      3652 1.80495E-03 2.74277E-04-2.05778E-15
 -1      3653 2.00738E-03 2.47644E-04-2.59975E-15
 -1      3654 4.67754E-03 3.04448E-04-1.34723E-14
 -1      3655 4.52962E-03 2.39041E-04-1.31661E-14
 -1      3656 1.36460E-02-1.63479E-04-1.02710E-13
 -1      3657 1.37702E-02-1.64479E-04-1.04536E-13
 -1      3658 1.37896E-02-1.40001E-04-1.04702E-13
 -1      3659 1.35772E-02-1.27923E-04-1.01534E-13
 -1      3660 4.84164E-03 3.36914E-04-1.42966E-14
 -1      3661 5.01383E-03 3.78725E-04-1.51473E-14
 -1      3662 1.12482E-03-2.45550E-05-1.07772E-15
 -1      3663 2.57220E-03 2.49210E-04-4.18884E-15
 -1      3664 1.38186E-02 4.70712E-06-1.04388E-13
 -1      3665 1.38216E-02 4.63815E-05-1.04210E-13
 -1      3666 1.36996E-02 6.43092E-05-1.02331E-13
 -1      3667 1.39535E-02 4.93575E-04-1.03560E-13
 -1      3668 4.14959E-03 3.10699E-05-1.34495E-14
 -1      3669 4.14983E-03 4.07656E-05-1.32940E-14
 -1      3670 4.08281E-03 2.18992E-05-1.28898E-14
 -1      3671 1.38791E-02 4.54792E-04-1.02708E-13
 -1      3672 1.38559E-02 4.24702E-04-1.02551E-13
 -1      3673 1.38495E-02 3.41146E-04-1.02952E-13
 -1      3674 1.38527E-02 3.82900E-04-1.02753E-13
 -1      3675 1.37369E-02 4.05176E-04-1.00932E-13
 -1      3676 4.14829E-03-1.24770E-05-1.33195E-14
 -1      3677 4.06679E-03-4.37366E-06-1.27157E-14
 -1      3678 4.13506E-03-3.38025E-05-1.29876E-14
 -1      3679 1.24688E-03-6.76521E-05-1.29599E-15
 -1      3680 1.25035E-03-9.58951E-05-1.30039E-15
 -1      3681 9.00803E-03 3.34125E-05-3.64520E-14
 -1      3682 8.23080E-03-3.27109E-04-3.45678E-14
 -1      3683 8.40331E-03-2.85516E-04-3.59769E-14
 -1      3684 1.36555E-03 5.93190E-05-1.46587E-15
 -1      3685 1.24469E-03 4.25492E-05-1.25404E-15
 -1      3686 1.24348E-03 1.49884E-05-1.26819E-15
 -1      3687 4.49104E-03 1.45153E-04-1.40858E-14
 -1      3688 4.53374E-03 1.85076E-04-1.38315E-14
 -1      3689 4.38423E-03 1.26219E-04-1.36103E-14
 -1      3690 8.88770E-03 1.39226E-04-3.62113E-14
 -1      3691 8.99979E-03 1.26429E-04-3.73516E-14
 -1      3692 8.87479E-03 1.73064E-04-3.66897E-14
 -1      3693 5.35000E-03-4.80760E-04-1.75573E-14
 -1      3694 8.23974E-03-2.83748E-04-3.40983E-14
 -1      3695 8.95668E-03-1.22883E-05-3.73924E-14
 -1      3696 8.40077E-03-2.07384E-04-3.47925E-14
 -1      3697 8.55661E-03-1.61752E-04-3.58302E-14
 -1      3698 8.55471E-03-2.10547E-04-3.66448E-14
 -1      3699 1.38091E-02-1.15531E-04-1.04866E-13
 -1      3700 1.37115E-03-1.36218E-04-1.51899E-15
 -1      3701 1.25308E-03-1.44458E-04-1.29120E-15
 -1      3702 1.36946E-02-1.00886E-04-1.03116E-13
 -1      3703 1.38203E-02-8.24038E-05-1.04864E-13
 -1      3704 1.38233E-02-4.06469E-05-1.04694E-13
 -1      3705 1.35885E-02-9.48918E-05-1.01536E-13
 -1      3706 1.25540E-03 1.27694E-04-1.19505E-15
 -1      3707 1.37348E-03 1.18876E-04-1.42124E-15
 -1      3708 1.26135E-03 1.57608E-04-1.16903E-15
 -1      3709 8.69638E-03 2.54570E-04-3.58612E-14
 -1      3710 1.38370E-02 2.53614E-04-1.03280E-13
 -1      3711 1.38402E-02 2.95200E-04-1.03084E-13
 -1      3712 1.37120E-02 2.30231E-04-1.01588E-13
 -1      3713 8.82327E-03 2.61590E-04-3.73002E-14
 -1      3714 8.85518E-03 2.07498E-04-3.69923E-14
 -1      3715 8.98342E-03 1.86558E-04-3.81466E-14
 -1      3716 8.96589E-03 2.53879E-04-3.87523E-14
 -1      3717 2.53510E-03-1.84917E-04-4.61152E-15
 -1      3718 2.67353E-03-1.83209E-04-5.09952E-15
 -1      3719 2.81119E-03-1.81084E-04-5.61206E-15
 -1      3720 2.94813E-03-1.78584E-04-6.14976E-15
 -1      3721 2.72944E-03-1.51016E-04-5.34632E-15
 -1      3722 3.08424E-03-1.75932E-04-6.71112E-15
 -1      3723 3.21966E-03-1.73172E-04-7.29652E-15
 -1      3724 3.00039E-03-1.46301E-04-6.41788E-15
 -1      3725 3.35427E-03-1.70515E-04-7.90574E-15
 -1      3726 3.48838E-03-1.68045E-04-8.53851E-15
 -1      3727 3.26718E-03-1.40801E-04-7.58559E-15
 -1      3728 3.62186E-03-1.65950E-04-9.19597E-15
 -1      3729 3.75530E-03-1.64431E-04-9.87756E-15
 -1      3730 3.52974E-03-1.35238E-04-8.84878E-15
 -1      3731 3.88850E-03-1.63593E-04-1.05831E-14
 -1      3732 4.02258E-03-1.63917E-04-1.13130E-14
 -1      3733 3.78864E-03-1.30392E-04-1.02076E-14
 -1      3734 4.72105E-03-3.03178E-04-1.45213E-14
 -1      3735 1.24344E-03-1.23812E-05-1.27990E-15
 -1      3736 1.24457E-03-3.98816E-05-1.28904E-15
 -1      3737 1.36539E-03-5.64613E-05-1.51944E-15
 -1      3738 1.36286E-03 1.38434E-06-1.49834E-15
 -1      3739 9.12124E-03-1.17261E-04-4.17668E-14
 -1      3740 9.25501E-03-1.12739E-04-4.32996E-14
 -1      3741 9.38749E-03-1.09598E-04-4.48591E-14
 -1      3742 9.51983E-03-1.07363E-04-4.64411E-14
 -1      3743 9.35875E-03-7.75810E-05-4.40105E-14
 -1      3744 9.65193E-03-1.05891E-04-4.80476E-14
 -1      3745 9.78446E-03-1.05003E-04-4.96782E-14
 -1      3746 9.61430E-03-7.53804E-05-4.71696E-14
 -1      3747 9.91729E-03-1.04539E-04-5.13338E-14
 -1      3748 1.00508E-02-1.04450E-04-5.30131E-14
 -1      3749 9.87279E-03-7.44777E-05-5.04241E-14
 -1      3750 1.01848E-02-1.04574E-04-5.47140E-14
 -1      3751 1.03196E-02-1.04908E-04-5.64401E-14
 -1      3752 1.01349E-02-7.43303E-05-5.37760E-14
 -1      3753 1.04550E-02-1.05300E-04-5.81868E-14
 -1      3754 1.05911E-02-1.05770E-04-5.99577E-14
 -1      3755 1.04009E-02-7.45370E-05-5.72196E-14
 -1      3756 1.07279E-02-1.06193E-04-6.17493E-14
 -1      3757 1.08653E-02-1.06591E-04-6.35610E-14
 -1      3758 1.06703E-02-7.47586E-05-6.07545E-14
 -1      3759 1.10033E-02-1.06863E-04-6.53930E-14
 -1      3760 1.11418E-02-1.07037E-04-6.72420E-14
 -1      3761 1.09430E-02-7.47312E-05-6.43733E-14
 -1      3762 1.12808E-02-1.07036E-04-6.91085E-14
 -1      3763 1.14203E-02-1.06890E-04-7.09916E-14
 -1      3764 1.12184E-02-7.42455E-05-6.80668E-14
 -1      3765 1.15603E-02-1.06545E-04-7.28877E-14
 -1      3766 1.17006E-02-1.06030E-04-7.48018E-14
 -1      3767 1.14962E-02-7.31699E-05-7.18250E-14
 -1      3768 1.18412E-02-1.05310E-04-7.67329E-14
 -1      3769 1.19822E-02-1.04413E-04-7.86764E-14
 -1      3770 1.17759E-02-7.14378E-05-7.56474E-14
 -1      3771 1.21235E-02-1.03318E-04-8.06347E-14
 -1      3772 1.22649E-02-1.02051E-04-8.26088E-14
 -1      3773 1.20571E-02-6.90363E-05-7.95318E-14
 -1      3774 1.24066E-02-1.00602E-04-8.45922E-14
 -1      3775 1.25485E-02-9.89947E-05-8.65883E-14
 -1      3776 1.23395E-02-6.59920E-05-8.34723E-14
 -1      3777 1.26906E-02-9.72262E-05-8.85980E-14
 -1      3778 1.28327E-02-9.53167E-05-9.06179E-14
 -1      3779 1.26229E-02-6.23582E-05-8.74622E-14
 -1      3780 1.29750E-02-9.32696E-05-9.26455E-14
 -1      3781 1.31174E-02-9.11022E-05-9.46814E-14
 -1      3782 1.29069E-02-5.82023E-05-9.14954E-14
 -1      3783 1.32599E-02-8.88207E-05-9.67277E-14
 -1      3784 1.34025E-02-8.64386E-05-9.87847E-14
 -1      3785 1.31916E-02-5.36020E-05-9.55666E-14
 -1      3786 1.25968E-03-1.74874E-04-1.28855E-15
 -1      3787 1.02915E-02 2.75299E-04-5.41957E-14
 -1      3788 1.01560E-02 2.68911E-04-5.25147E-14
 -1      3789 1.00211E-02 2.62919E-04-5.08571E-14
 -1      3790 9.88672E-03 2.57378E-04-4.92224E-14
 -1      3791 1.01024E-02 2.35439E-04-5.18191E-14
 -1      3792 3.98830E-03 2.04094E-04-1.03124E-14
 -1      3793 3.85306E-03 2.02214E-04-9.61824E-15
 -1      3794 1.39168E-03 1.94533E-04-1.35315E-15
 -1      3795 9.48575E-03 2.45134E-04-4.44593E-14
 -1      3796 9.35180E-03 2.43206E-04-4.29206E-14
 -1      3797 1.19604E-03-1.96388E-04-1.16087E-15
 -1      3798 9.75288E-03 2.52473E-04-4.76117E-14
 -1      3799 9.61920E-03 2.48335E-04-4.60239E-14
 -1      3800 9.57891E-03 2.14783E-04-4.53682E-14
 -1      3801 9.83903E-03 2.24202E-04-4.85467E-14
 -1      3802 1.05643E-02 2.88723E-04-5.76222E-14
 -1      3803 1.04276E-02 2.81911E-04-5.58983E-14
 -1      3804 1.03693E-02 2.47814E-04-5.51852E-14
 -1      3805 1.08395E-02 3.02499E-04-6.11338E-14
 -1      3806 1.07016E-02 2.95588E-04-5.93670E-14
 -1      3807 1.06397E-02 2.60752E-04-5.86379E-14
 -1      3808 1.11170E-02 3.16120E-04-6.47292E-14
 -1      3809 1.09780E-02 3.09341E-04-6.29226E-14
 -1      3810 1.09131E-02 2.73771E-04-6.21781E-14
 -1      3811 1.13963E-02 3.29245E-04-6.84001E-14
 -1      3812 1.12564E-02 3.22751E-04-6.65537E-14
 -1      3813 1.11891E-02 2.86514E-04-6.57969E-14
 -1      3814 1.16771E-02 3.41672E-04-7.21365E-14
 -1      3815 1.15365E-02 3.35547E-04-7.02604E-14
 -1      3816 1.14674E-02 2.98740E-04-6.94868E-14
 -1      3817 1.19592E-02 3.53305E-04-7.59436E-14
 -1      3818 1.18180E-02 3.47586E-04-7.40310E-14
 -1      3819 1.17474E-02 3.10307E-04-7.32454E-14
 -1      3820 1.22423E-02 3.64128E-04-7.98154E-14
 -1      3821 1.21006E-02 3.58813E-04-7.78724E-14
 -1      3822 1.20290E-02 3.21159E-04-7.70721E-14
 -1      3823 1.25261E-02 3.74178E-04-8.37441E-14
 -1      3824 1.23841E-02 3.69244E-04-8.17724E-14
 -1      3825 1.23117E-02 3.31296E-04-8.09614E-14
 -1      3826 1.28106E-02 3.83525E-04-8.77190E-14
 -1      3827 1.26683E-02 3.78933E-04-8.57266E-14
 -1      3828 1.25952E-02 3.40762E-04-8.49051E-14
 -1      3829 1.30954E-02 3.92259E-04-9.17391E-14
 -1      3830 1.29529E-02 3.87962E-04-8.97238E-14
 -1      3831 1.28794E-02 3.49624E-04-8.88929E-14
 -1      3832 1.33805E-02 4.00474E-04-9.57952E-14
 -1      3833 1.32379E-02 3.96424E-04-9.37638E-14
 -1      3834 1.31641E-02 3.57962E-04-9.29239E-14
 -1      3835 1.36300E-02 4.04823E-04-9.93812E-14
 -1      3836 1.34874E-02 4.00958E-04-9.73358E-14
 -1      3837 1.34133E-02 3.62421E-04-9.64906E-14
 -1      3838 1.36269E-02 3.63161E-04-9.95821E-14
 -1      3839 4.19652E-03 6.23104E-05-1.33077E-14
 -1      3840 4.24947E-03 8.42260E-05-1.33057E-14
 -1      3841 2.25634E-03-1.86357E-04-3.70822E-15
 -1      3842 2.39604E-03-1.85984E-04-4.14756E-15
 -1      3843 2.45476E-03-1.54170E-04-4.37230E-15
 -1      3844 8.92663E-03-7.12343E-05-3.85300E-14
 -1      3845 8.80281E-03-1.02532E-04-3.76770E-14
 -1      3846 3.17807E-03 2.07459E-04-6.51675E-15
 -1      3847 3.04153E-03 2.09808E-04-5.97059E-15
 -1      3848 1.69004E-03 2.74728E-04-1.80525E-15
 -1      3849 1.56570E-03 2.71267E-04-1.55580E-15
 -1      3850 1.52136E-03 2.44597E-04-1.51837E-15
 -1      3851 1.75087E-03 2.45740E-04-1.99752E-15
 -1      3852 2.34866E-03 2.18003E-04-3.60383E-15
 -1      3853 2.20824E-03 2.17810E-04-3.20302E-15
 -1      3854 1.69360E-03-1.77584E-04-2.19556E-15
 -1      3855 1.83466E-03-1.81571E-04-2.53684E-15
 -1      3856 9.08406E-03 4.45923E-05-3.74786E-14
 -1      3857 9.05630E-03 2.35950E-05-3.77001E-14
 -1      3858 9.06917E-03 6.39409E-06-3.84369E-14
 -1      3859 9.08183E-03-1.37716E-05-3.91780E-14
 -1      3860 9.16807E-03 2.05584E-05-3.94894E-14
 -1      3861 2.90435E-03 2.12111E-04-5.44835E-15
 -1      3862 2.76640E-03 2.14286E-04-4.95020E-15
 -1      3863 2.95624E-03 1.79703E-04-5.77190E-15
 -1      3864 4.26234E-03 2.13286E-04-1.17746E-14
 -1      3865 4.12428E-03 2.07576E-04-1.10314E-14
 -1      3866 4.01200E-03 1.68928E-04-1.07546E-14
 -1      3867 2.62781E-03 2.16071E-04-4.47697E-15
 -1      3868 2.48852E-03 2.17397E-04-4.02837E-15
 -1      3869 2.40686E-03 1.86058E-04-3.86608E-15
 -1      3870 5.37864E-03 5.58962E-04-1.62620E-14
 -1      3871 5.16350E-03 4.41532E-04-1.56509E-14
 -1      3872 1.97553E-03-1.84284E-04-2.90292E-15
 -1      3873 2.11616E-03-1.85808E-04-3.29336E-15
 -1      3874 2.17702E-03-1.54917E-04-3.49593E-15
 -1      3875 8.80414E-03-1.47287E-04-3.85132E-14
 -1      3876 8.94561E-03-1.36304E-04-3.99952E-14
 -1      3877 4.42406E-03-1.80179E-04-1.35413E-14
 -1      3878 4.27279E-03-1.14799E-04-1.31276E-14
 -1      3879 4.19194E-03-7.01883E-05-1.30208E-14
 -1      3880 8.70618E-03-1.41600E-04-3.72621E-14
 -1      3881 4.27474E-03-1.50676E-04-1.28602E-14
 -1      3882 9.06036E-03 1.09669E-04-3.78234E-14
 -1      3883 9.11294E-03 9.64937E-05-3.82946E-14
 -1      3884 9.06187E-03 1.35931E-04-3.83153E-14
 -1      3885 9.13652E-03 5.64550E-05-3.82705E-14
 -1      3886 1.49752E-03 1.39589E-04-1.63916E-15
 -1      3887 1.49175E-03 1.08023E-04-1.66764E-15
 -1      3888 4.03077E-03-1.11915E-04-1.16774E-14
 -1      3889 4.14091E-03-1.48284E-04-1.20832E-14
 -1      3890 1.35809E-02 1.23912E-04-1.00276E-13
 -1      3891 1.35840E-02 1.65262E-04-1.00090E-13
 -1      3892 1.37244E-02 3.17557E-04-1.01265E-13
 -1      3893 2.06741E-03 2.16570E-04-2.82668E-15
 -1      3894 1.92619E-03 2.14176E-04-2.47401E-15
 -1      3895 2.12770E-03 1.85678E-04-3.05864E-15
 -1      3896 1.35199E-02-5.95130E-05-1.00355E-13
 -1      3897 1.50595E-03 1.96466E-04-1.57120E-15
 -1      3898 1.37012E-02-2.25126E-05-1.02813E-13
 -1      3899 3.44919E-03 2.03501E-04-7.68324E-15
 -1      3900 3.31388E-03 2.05318E-04-7.08742E-15
 -1      3901 3.22536E-03 1.75146E-04-6.87081E-15
 -1      3902 4.10721E-03 5.19960E-05-1.27549E-14
 -1      3903 9.06625E-03-9.27524E-05-4.06851E-14
 -1      3904 3.98410E-03-6.07321E-06-1.20553E-14
 -1      3905 4.01959E-03 1.12463E-05-1.23710E-14
 -1      3906 4.00503E-03 2.16504E-05-1.22244E-14
 -1      3907 1.48739E-03 7.70664E-05-1.69281E-15
 -1      3908 1.48447E-03 4.65810E-05-1.71441E-15
 -1      3909 1.61015E-03 9.54771E-05-1.93414E-15
 -1      3910 9.08444E-03-3.46766E-05-3.97235E-14
 -1      3911 9.06102E-03-6.80425E-05-4.01389E-14
 -1      3912 9.22009E-03-5.67350E-05-4.19087E-14
 -1      3913 9.20040E-03-1.50070E-05-4.07960E-14
 -1      3914 5.07093E-03-4.00469E-04-1.61407E-14
 -1      3915 3.71857E-03 2.01754E-04-8.94865E-15
 -1      3916 3.58392E-03 2.02247E-04-8.30371E-15
 -1      3917 3.49053E-03 1.71084E-04-8.06692E-15
 -1      3918 3.75221E-03 1.68557E-04-9.36202E-15
 -1      3919 4.08378E-03-5.58985E-05-1.24274E-14
 -1      3920 1.89713E-03-1.52339E-04-2.71631E-15
 -1      3921 9.22935E-03 2.45516E-04-4.15634E-14
 -1      3922 9.09281E-03 2.47112E-04-4.00698E-14
 -1      3923 9.09472E-03 2.14641E-04-3.97642E-14
 -1      3924 9.33257E-03 2.10976E-04-4.24472E-14
 -1      3925 2.68326E-03 1.83698E-04-4.77025E-15
 -1      3926 1.35778E-02 8.24681E-05-1.00456E-13
 -1      3927 1.34560E-02 1.00535E-04-9.85886E-14
 -1      3928 1.35747E-02 4.10031E-05-1.00633E-13
 -1      3929 4.27686E-03 1.11746E-04-1.30651E-14
 -1      3930 4.39065E-03 1.84666E-04-1.28596E-14
 -1      3931 1.46873E-03-1.53795E-04-1.70939E-15
 -1      3932 1.59488E-03-1.60285E-04-1.97931E-15
 -1      3933 1.65878E-03-1.33317E-04-2.13729E-15
 -1      3934 1.46466E-03-1.01354E-04-1.71873E-15
 -1      3935 1.45795E-03-4.06396E-05-1.70350E-15
 -1      3936 1.46061E-03-7.07720E-05-1.71246E-15
 -1      3937 1.55645E-03-8.55746E-05-1.91702E-15
 -1      3938 3.87508E-03-8.82138E-05-1.09051E-14
 -1      3939 3.98332E-03-7.16672E-05-1.16551E-14
 -1      3940 3.94478E-03-3.78168E-05-1.16247E-14
 -1      3941 1.35870E-02 2.06617E-04-9.99038E-14
 -1      3942 1.35901E-02 2.47993E-04-9.97130E-14
 -1      3943 1.34621E-02 1.83098E-04-9.82216E-14
 -1      3944 1.62386E-03 1.85455E-04-1.83345E-15
 -1      3945 2.65041E-03-1.21505E-04-5.08388E-15
 -1      3946 2.78577E-03-1.19641E-04-5.59347E-15
 -1      3947 2.91994E-03-1.17513E-04-6.12802E-15
 -1      3948 3.05290E-03-1.15063E-04-6.68634E-15
 -1      3949 2.84272E-03-8.91501E-05-5.84134E-15
 -1      3950 3.18444E-03-1.12490E-04-7.26846E-15
 -1      3951 3.31466E-03-1.09692E-04-7.87448E-15
 -1      3952 3.10590E-03-8.49479E-05-6.95418E-15
 -1      3953 3.44327E-03-1.06886E-04-8.50444E-15
 -1      3954 3.57048E-03-1.03912E-04-9.15792E-15
 -1      3955 3.36242E-03-7.99134E-05-8.16313E-15
 -1      3956 3.66262E-03-9.76504E-05-9.66845E-15
 -1      3957 3.78657E-03-9.45204E-05-1.03642E-14
 -1      3958 3.75600E-03-5.88638E-05-1.03407E-14
 -1      3959 3.57924E-03-7.11229E-05-9.30256E-15
 -1      3960 1.36039E-02 2.82642E-04-9.97151E-14
 -1      3961 1.36131E-02 3.28411E-04-9.95856E-14
 -1      3962 1.35064E-02 3.28123E-04-9.80374E-14
 -1      3963 1.34789E-02 2.58894E-04-9.80377E-14
 -1      3964 1.48299E-03 1.64998E-05-1.73237E-15
 -1      3965 1.48296E-03-1.34934E-05-1.74746E-15
 -1      3966 1.60379E-03 3.26154E-05-1.98191E-15
 -1      3967 9.34257E-03-5.57116E-05-4.34423E-14
 -1      3968 9.46639E-03-5.50232E-05-4.49997E-14
 -1      3969 9.32753E-03-3.47380E-05-4.28752E-14
 -1      3970 9.59107E-03-5.44491E-05-4.65802E-14
 -1      3971 9.71715E-03-5.40963E-05-4.81840E-14
 -1      3972 9.56827E-03-3.43596E-05-4.59930E-14
 -1      3973 9.84434E-03-5.37747E-05-4.98142E-14
 -1      3974 9.97287E-03-5.35971E-05-5.14691E-14
 -1      3975 9.81604E-03-3.38212E-05-4.92060E-14
 -1      3976 1.01025E-02-5.34197E-05-5.31475E-14
 -1      3977 1.02334E-02-5.33264E-05-5.48480E-14
 -1      3978 1.00702E-02-3.31774E-05-5.25186E-14
 -1      3979 1.03654E-02-5.31800E-05-5.65709E-14
 -1      3980 1.04984E-02-5.30513E-05-5.83174E-14
 -1      3981 1.03299E-02-3.24301E-05-5.59240E-14
 -1      3982 1.06325E-02-5.28433E-05-6.00863E-14
 -1      3983 1.07674E-02-5.25992E-05-6.18771E-14
 -1      3984 1.05946E-02-3.14620E-05-5.94207E-14
 -1      3985 1.09032E-02-5.22343E-05-6.36878E-14
 -1      3986 1.10398E-02-5.17865E-05-6.55176E-14
 -1      3987 1.08634E-02-3.02074E-05-6.30033E-14
 -1      3988 1.11771E-02-5.11928E-05-6.73645E-14
 -1      3989 1.13151E-02-5.04845E-05-6.92285E-14
 -1      3990 1.11359E-02-2.85457E-05-6.66634E-14
 -1      3991 1.14537E-02-4.96159E-05-7.11092E-14
 -1      3992 1.15928E-02-4.86146E-05-7.30043E-14
 -1      3993 1.14113E-02-2.64057E-05-7.03931E-14
 -1      3994 1.17325E-02-4.74497E-05-7.49159E-14
 -1      3995 1.18725E-02-4.61459E-05-7.68458E-14
 -1      3996 1.16891E-02-2.37478E-05-7.41880E-14
 -1      3997 1.20130E-02-4.46840E-05-7.87902E-14
 -1      3998 1.21538E-02-4.30860E-05-8.07469E-14
 -1      3999 1.19689E-02-2.05656E-05-7.80457E-14
 -1      4000 1.22949E-02-4.13418E-05-8.27179E-14
 -1      4001 1.24362E-02-3.94709E-05-8.47010E-14
 -1      4002 1.22503E-02-1.68796E-05-8.19640E-14
 -1      4003 1.25778E-02-3.74697E-05-8.66974E-14
 -1      4004 1.27196E-02-3.53550E-05-8.87047E-14
 -1      4005 1.25328E-02-1.27295E-05-8.59326E-14
 -1      4006 1.28616E-02-3.31265E-05-9.07197E-14
 -1      4007 1.30037E-02-3.07998E-05-9.27460E-14
 -1      4008 1.28163E-02-8.16678E-06-8.99447E-14
 -1      4009 1.31460E-02-2.83813E-05-9.47822E-14
 -1      4010 1.32884E-02-2.58790E-05-9.68249E-14
 -1      4011 1.31005E-02-3.24963E-06-9.39980E-14
 -1      4012 1.01800E-02 2.09132E-04-5.27859E-14
 -1      4013 1.00495E-02 2.03375E-04-5.11246E-14
 -1      4014 1.07129E-02 2.33156E-04-5.96577E-14
 -1      4015 1.05782E-02 2.27055E-04-5.79082E-14
 -1      4016 1.04444E-02 2.21016E-04-5.61795E-14
 -1      4017 1.03116E-02 2.14992E-04-5.44712E-14
 -1      4018 1.02542E-02 1.83457E-04-5.37585E-14
 -1      4019 2.46545E-03 1.54676E-04-4.13317E-15
 -1      4020 2.32732E-03 1.55206E-04-3.70247E-15
 -1      4021 1.09850E-02 2.45221E-04-6.32243E-14
 -1      4022 1.08485E-02 2.39198E-04-6.14307E-14
 -1      4023 1.07842E-02 2.05639E-04-6.06833E-14
 -1      4024 9.23478E-03 3.94567E-05-4.01111E-14
 -1      4025 9.26622E-03 2.44621E-05-4.08711E-14
 -1      4026 4.02121E-03 4.45150E-05-1.21743E-14
 -1      4027 4.06031E-03 6.67581E-05-1.21863E-14
 -1      4028 1.12601E-02 2.56964E-04-6.68666E-14
 -1      4029 1.11222E-02 2.51132E-04-6.50371E-14
 -1      4030 1.10555E-02 2.16625E-04-6.42743E-14
 -1      4031 1.15376E-02 2.68217E-04-7.05791E-14
 -1      4032 1.13986E-02 2.62649E-04-6.87131E-14
 -1      4033 1.13299E-02 2.27302E-04-6.79401E-14
 -1      4034 1.18172E-02 2.78886E-04-7.43569E-14
 -1      4035 1.16772E-02 2.73620E-04-7.24598E-14
 -1      4036 1.16071E-02 2.37551E-04-7.16722E-14
 -1      4037 1.20983E-02 2.88937E-04-7.82039E-14
 -1      4038 1.19576E-02 2.83983E-04-7.62726E-14
 -1      4039 1.18863E-02 2.47312E-04-7.54723E-14
 -1      4040 1.23807E-02 2.98383E-04-8.21097E-14
 -1      4041 1.22394E-02 2.93730E-04-8.01499E-14
 -1      4042 1.21673E-02 2.56568E-04-7.93382E-14
 -1      4043 1.26641E-02 3.07267E-04-8.60662E-14
 -1      4044 1.25223E-02 3.02889E-04-8.40817E-14
 -1      4045 1.24495E-02 2.65336E-04-8.32595E-14
 -1      4046 1.29482E-02 3.15649E-04-9.00683E-14
 -1      4047 1.28060E-02 3.11515E-04-8.80622E-14
 -1      4048 1.27328E-02 2.73654E-04-8.72311E-14
 -1      4049 1.32328E-02 3.23601E-04-9.41098E-14
 -1      4050 1.30904E-02 3.19674E-04-9.20849E-14
 -1      4051 1.30168E-02 2.81576E-04-9.12442E-14
 -1      4052 3.88468E-03-1.90565E-05-1.13007E-14
 -1      4053 3.94389E-03 3.36364E-05-1.16736E-14
 -1      4054 2.37665E-03-1.23893E-04-4.13650E-15
 -1      4055 2.51402E-03-1.22912E-04-4.59787E-15
 -1      4056 2.57395E-03-9.22770E-05-4.82436E-15
 -1      4057 4.03176E-03 1.35829E-04-1.11995E-14
 -1      4058 3.90828E-03 1.36170E-04-1.04769E-14
 -1      4059 1.35153E-02-1.43569E-05-1.00058E-13
 -1      4060 3.00819E-03 1.48368E-04-6.10028E-15
 -1      4061 2.87414E-03 1.50402E-04-5.57163E-15
 -1      4062 1.65285E-03-1.00733E-04-2.13292E-15
 -1      4063 1.74983E-03-1.16114E-04-2.35945E-15
 -1      4064 1.64848E-03-6.87179E-05-2.12462E-15
 -1      4065 9.17482E-03 7.83987E-05-3.89630E-14
 -1      4066 9.20677E-03 5.69863E-05-3.94465E-14
 -1      4067 9.29620E-03 6.19008E-05-4.08233E-14
 -1      4068 9.19344E-03 9.77767E-05-3.94703E-14
 -1      4069 1.88963E-03-1.18286E-04-2.71177E-15
 -1      4070 2.73897E-03 1.52159E-04-5.06785E-15
 -1      4071 2.60268E-03 1.53659E-04-4.58819E-15
 -1      4072 2.79511E-03 1.21522E-04-5.36996E-15
 -1      4073 2.09963E-03-1.24048E-04-3.28679E-15
 -1      4074 2.23849E-03-1.24273E-04-3.69957E-15
 -1      4075 2.30068E-03-9.39297E-05-3.90427E-15
 -1      4076 1.33373E-02 1.59687E-04-9.65450E-14
 -1      4077 1.33404E-02 2.00806E-04-9.63596E-14
 -1      4078 3.81463E-03 1.07390E-04-1.01977E-14
 -1      4079 3.78408E-03 1.37086E-04-9.77819E-15
 -1      4080 3.65815E-03 1.38501E-04-9.10428E-15
 -1      4081 9.66575E-03 1.87627E-04-4.62808E-14
 -1      4082 9.54027E-03 1.82940E-04-4.47126E-14
 -1      4083 1.05169E-02 1.94510E-04-5.71763E-14
 -1      4084 9.35431E-03 2.94199E-05-4.20679E-14
 -1      4085 9.28318E-03 8.63501E-06-4.14323E-14
 -1      4086 9.29818E-03-9.04031E-06-4.19953E-14
 -1      4087 2.18847E-03 1.55040E-04-3.29584E-15
 -1      4088 2.04900E-03 1.54135E-04-2.91286E-15
 -1      4089 2.24983E-03 1.24700E-04-3.53783E-15
 -1      4090 2.52456E-03 1.23921E-04-4.40510E-15
 -1      4091 1.73795E-03 1.84377E-04-2.08709E-15
 -1      4092 3.94878E-03 8.10185E-05-1.12651E-14
 -1      4093 4.05053E-03 9.06161E-05-1.18201E-14
 -1      4094 3.77718E-03-2.66070E-05-1.05727E-14
 -1      4095 3.83351E-03 4.38519E-06-1.09802E-14
 -1      4096 1.33996E-02 3.27785E-04-9.64948E-14
 -1      4097 4.15255E-03 1.20390E-04-1.21246E-14
 -1      4098 1.73374E-03 1.14304E-04-2.18976E-15
 -1      4099 1.72863E-03 8.16037E-05-2.22011E-15
 -1      4100 1.33934E-02 3.99294E-06-9.81945E-14
 -1      4101 1.80067E-03 1.56042E-04-2.28276E-15
 -1      4102 3.14093E-03 1.46280E-04-6.65222E-15
 -1      4103 3.06046E-03 1.18149E-04-6.43169E-15
 -1      4104 3.27242E-03 1.44096E-04-7.22805E-15
 -1      4105 1.57735E-03-2.65408E-05-1.95559E-15
 -1      4106 9.51451E-03 1.55476E-04-4.42206E-14
 -1      4107 9.42780E-03 1.81492E-04-4.33306E-14
 -1      4108 9.31515E-03 1.80496E-04-4.19696E-14
 -1      4109 3.86817E-03 2.89276E-05-1.11545E-14
 -1      4110 3.88581E-03 5.39442E-05-1.11038E-14
 -1      4111 3.86225E-03 7.60641E-05-1.07575E-14
 -1      4112 3.75890E-03 2.38201E-05-1.04349E-14
 -1      4113 9.92035E-03 1.97890E-04-4.94861E-14
 -1      4114 9.79233E-03 1.92571E-04-4.78717E-14
 -1      4115 9.99697E-03 1.72758E-04-5.04293E-14
 -1      4116 1.33311E-02 7.72873E-05-9.69043E-14
 -1      4117 1.33342E-02 1.18492E-04-9.67248E-14
 -1      4118 1.32126E-02 1.36319E-04-9.48709E-14
 -1      4119 1.95397E-03-8.92950E-05-2.88907E-15
 -1      4120 9.07142E-03 1.88880E-04-3.91964E-14
 -1      4121 9.07879E-03 1.59118E-04-3.88852E-14
 -1      4122 9.14038E-03 1.40477E-04-3.93681E-14
 -1      4123 9.18694E-03 1.87268E-04-4.05199E-14
 -1      4124 1.33258E-02 2.89491E-04-9.56481E-14
 -1      4125 2.76863E-03-6.10666E-05-5.55776E-15
 -1      4126 2.90083E-03-5.95565E-05-6.08861E-15
 -1      4127 9.74622E-03 1.62529E-04-4.71952E-14
 -1      4128 1.05869E-02 1.68125E-04-5.81789E-14
 -1      4129 1.04553E-02 1.63112E-04-5.64451E-14
 -1      4130 3.03135E-03-5.79168E-05-6.64373E-15
 -1      4131 3.16013E-03-5.59992E-05-7.22243E-15
 -1      4132 2.96039E-03-3.09150E-05-6.33573E-15
 -1      4133 3.28687E-03-5.39824E-05-7.82443E-15
 -1      4134 3.41143E-03-5.16016E-05-8.45103E-15
 -1      4135 3.21607E-03-2.82056E-05-7.48951E-15
 -1      4136 9.41170E-03-9.37955E-06-4.35280E-14
 -1      4137 9.52778E-03-9.20556E-06-4.50843E-14
 -1      4138 9.64667E-03-9.01892E-06-4.66616E-14
 -1      4139 9.48699E-03 1.40611E-05-4.41791E-14
 -1      4140 9.76771E-03-8.50443E-06-4.82652E-14
 -1      4141 9.89101E-03-7.99202E-06-4.98937E-14
 -1      4142 9.71884E-03 1.52962E-05-4.73311E-14
 -1      4143 1.00161E-02-7.26969E-06-5.15459E-14
 -1      4144 1.01431E-02-6.55736E-06-5.32226E-14
 -1      4145 9.96156E-03 1.73482E-05-5.05799E-14
 -1      4146 1.02716E-02-5.70695E-06-5.49228E-14
 -1      4147 1.04016E-02-4.81568E-06-5.66448E-14
 -1      4148 1.02128E-02 1.98816E-05-5.39261E-14
 -1      4149 1.05329E-02-3.78983E-06-5.83897E-14
 -1      4150 1.06655E-02-2.75010E-06-6.01557E-14
 -1      4151 1.04709E-02 2.28719E-05-5.73646E-14
 -1      4152 1.07992E-02-1.58656E-06-6.19445E-14
 -1      4153 1.09339E-02-3.63614E-07-6.37534E-14
 -1      4154 1.07347E-02 2.61374E-05-6.08909E-14
 -1      4155 1.10695E-02 9.83902E-07-6.55800E-14
 -1      4156 1.12060E-02 2.40453E-06-6.74246E-14
 -1      4157 1.10031E-02 2.97253E-05-6.45004E-14
 -1      4158 1.13433E-02 3.94999E-06-6.92865E-14
 -1      4159 1.14813E-02 5.58050E-06-7.11658E-14
 -1      4160 1.12753E-02 3.36250E-05-6.81837E-14
 -1      4161 1.16199E-02 7.33276E-06-7.30607E-14
 -1      4162 1.17590E-02 9.17528E-06-7.49705E-14
 -1      4163 1.15506E-02 3.78360E-05-7.19365E-14
 -1      4164 1.18987E-02 1.11327E-05-7.68984E-14
 -1      4165 1.20388E-02 1.31798E-05-7.88412E-14
 -1      4166 1.18284E-02 4.23500E-05-7.57523E-14
 -1      4167 1.21793E-02 1.53320E-05-8.07968E-14
 -1      4168 1.23201E-02 1.75692E-05-8.27664E-14
 -1      4169 1.21083E-02 4.71502E-05-7.96316E-14
 -1      4170 1.24612E-02 1.98995E-05-8.47478E-14
 -1      4171 1.26027E-02 2.23074E-05-8.67429E-14
 -1      4172 1.23897E-02 5.22125E-05-8.35667E-14
 -1      4173 1.27443E-02 2.47945E-05-8.87468E-14
 -1      4174 1.28861E-02 2.73513E-05-9.07599E-14
 -1      4175 1.26723E-02 5.75069E-05-8.75496E-14
 -1      4176 2.58458E-03 9.38023E-05-4.68203E-15
 -1      4177 2.44885E-03 9.44461E-05-4.22134E-15
 -1      4178 1.03250E-02 1.58174E-04-5.47323E-14
 -1      4179 1.01962E-02 1.53215E-04-5.30422E-14
 -1      4180 1.03930E-02 1.32841E-04-5.57119E-14
 -1      4181 3.69286E-03-3.22396E-05-1.00429E-14
 -1      4182 1.08537E-02 1.78081E-04-6.17126E-14
 -1      4183 1.07197E-02 1.73089E-04-5.99351E-14
 -1      4184 1.06548E-02 1.41538E-04-5.91870E-14
 -1      4185 1.16758E-02 2.06696E-04-7.27684E-14
 -1      4186 1.15370E-02 2.02115E-04-7.08846E-14
 -1      4187 1.11246E-02 1.87899E-04-6.53288E-14
 -1      4188 1.09887E-02 1.82997E-04-6.35106E-14
 -1      4189 1.09216E-02 1.50243E-04-6.27464E-14
 -1      4190 1.19550E-02 2.15554E-04-7.65908E-14
 -1      4191 1.18152E-02 2.11165E-04-7.46718E-14
 -1      4192 1.17440E-02 1.75554E-04-7.38708E-14
 -1      4193 1.22359E-02 2.24029E-04-8.04734E-14
 -1      4194 1.20953E-02 2.19833E-04-7.85244E-14
 -1      4195 1.20233E-02 1.83537E-04-7.77101E-14
 -1      4196 1.25181E-02 2.32139E-04-8.44101E-14
 -1      4197 1.23769E-02 2.28124E-04-8.24358E-14
 -1      4198 1.23042E-02 1.91266E-04-8.16101E-14
 -1      4199 1.28014E-02 2.39913E-04-8.83950E-14
 -1      4200 1.26596E-02 2.36062E-04-8.63978E-14
 -1      4201 1.25865E-02 1.98751E-04-8.55638E-14
 -1      4202 1.72517E-03 4.94979E-05-2.24653E-15
 -1      4203 1.72343E-03 1.76424E-05-2.26888E-15
 -1      4204 1.84714E-03 6.68320E-05-2.52526E-15
 -1      4205 1.67215E-03-4.00925E-05-2.17533E-15
 -1      4206 1.76736E-03-5.40220E-05-2.40640E-15
 -1      4207 1.69710E-03-1.13382E-05-2.22352E-15
 -1      4208 1.91805E-03 1.41251E-04-2.59589E-15
 -1      4209 1.33478E-02 2.91895E-05-9.74020E-14
 -1      4210 1.32261E-02 4.73514E-05-9.55463E-14
 -1      4211 2.50000E-03-6.32672E-05-4.56827E-15
 -1      4212 2.63498E-03-6.22704E-05-5.05096E-15
 -1      4213 2.69733E-03-3.29353E-05-5.27763E-15
 -1      4214 1.13989E-02 1.97465E-04-6.90145E-14
 -1      4215 1.12613E-02 1.92706E-04-6.71624E-14
 -1      4216 1.11926E-02 1.58866E-04-6.63842E-14
 -1      4217 1.14669E-02 1.67321E-04-7.00940E-14
 -1      4218 1.33121E-02 2.55026E-04-9.56461E-14
 -1      4219 3.53109E-03 1.40173E-04-8.45520E-15
 -1      4220 3.40240E-03 1.42102E-04-7.82974E-15
 -1      4221 3.57127E-03 1.10783E-04-8.84557E-15
 -1      4222 2.85221E-03 9.17986E-05-5.67649E-15
 -1      4223 2.71907E-03 9.29469E-05-5.16681E-15
 -1      4224 2.64574E-03 6.43700E-05-4.96336E-15
 -1      4225 2.22681E-03-6.42771E-05-3.67587E-15
 -1      4226 2.36390E-03-6.39196E-05-4.10994E-15
 -1      4227 2.42831E-03-3.42840E-05-4.31595E-15
 -1      4228 1.89342E-03-5.72659E-05-2.72699E-15
 -1      4229 2.10168E-03-6.17924E-05-3.30214E-15
 -1      4230 2.16767E-03-3.24021E-05-3.48849E-15
 -1      4231 1.91726E-03-2.74396E-05-2.78152E-15
 -1      4232 1.98144E-03 1.12132E-04-2.80848E-15
 -1      4233 1.31874E-02 2.31401E-04-9.39807E-14
 -1      4234 9.82062E-03 1.38997E-04-4.81143E-14
 -1      4235 9.69949E-03 1.34276E-04-4.65187E-14
 -1      4236 2.37535E-03 6.50544E-05-4.03663E-15
 -1      4237 2.31207E-03 9.46879E-05-3.78439E-15
 -1      4238 2.17439E-03 9.45691E-05-3.37211E-15
 -1      4239 3.50271E-03-4.62175E-05-8.93887E-15
 -1      4240 3.59212E-03-4.06304E-05-9.44122E-15
 -1      4241 3.43256E-03-2.17968E-05-8.57899E-15
 -1      4242 9.43406E-03 4.51385E-05-4.30199E-14
 -1      4243 9.46158E-03 3.01762E-05-4.35985E-14
 -1      4244 9.57313E-03 3.09169E-05-4.51533E-14
 -1      4245 3.31956E-03 1.14437E-04-7.59050E-15
 -1      4246 1.30839E-02 4.45888E-05-9.35108E-14
 -1      4247 1.01375E-02 1.24295E-04-5.23255E-14
 -1      4248 1.00692E-02 1.48455E-04-5.13754E-14
 -1      4249 9.94387E-03 1.43640E-04-4.97336E-14
 -1      4250 1.30116E-02 7.76275E-05-9.22956E-14
 -1      4251 3.74819E-03 7.77090E-05-1.00508E-14
 -1      4252 3.62519E-03-9.37156E-06-9.65815E-15
 -1      4253 1.81716E-03 4.66391E-06-2.50672E-15
 -1      4254 1.30854E-02 2.47393E-04-9.24227E-14
 -1      4255 1.29433E-02 2.43685E-04-9.04053E-14
 -1      4256 1.28698E-02 2.06014E-04-8.95636E-14
 -1      4257 9.66374E-03 1.10226E-04-4.60079E-14
 -1      4258 9.59292E-03 1.32228E-04-4.51133E-14
 -1      4259 9.48778E-03 1.29978E-04-4.37253E-14
 -1      4260 1.31137E-02 1.93539E-04-9.31313E-14
 -1      4261 1.30921E-02 1.63333E-04-9.29870E-14
 -1      4262 1.29902E-02 1.79443E-04-9.14353E-14
 -1      4263 1.28483E-02 1.76036E-04-8.94202E-14
 -1      4264 1.30890E-02 1.22434E-04-9.31657E-14
 -1      4265 3.65892E-03 1.78454E-05-9.82542E-15
 -1      4266 3.70184E-03 4.40949E-05-9.98659E-15
 -1      4267 3.55633E-03 1.11445E-05-9.23349E-15
 -1      4268 3.11365E-03 8.91253E-05-6.76733E-15
 -1      4269 2.98376E-03 9.05681E-05-6.21015E-15
 -1      4270 2.91057E-03 6.30453E-05-5.98672E-15
 -1      4271 9.21901E-03 1.15856E-04-4.00522E-14
 -1      4272 9.28464E-03 9.56613E-05-4.07378E-14
 -1      4273 9.24489E-03 1.36169E-04-4.06366E-14
 -1      4274 9.28555E-03 1.57651E-04-4.13846E-14
 -1      4275 9.34496E-03 7.98811E-05-4.15324E-14
 -1      4276 9.38866E-03 6.15922E-05-4.22182E-14
 -1      4277 9.49473E-03 6.37064E-05-4.37485E-14
 -1      4278 9.38302E-03 9.62309E-05-4.21316E-14
 -1      4279 2.07516E-03 8.67047E-05-3.10242E-15
 -1      4280 1.94643E-03 7.49757E-05-2.77026E-15
 -1      4281 1.94302E-03 4.20041E-05-2.79997E-15
 -1      4282 2.14018E-03 5.74457E-05-3.32843E-15
 -1      4283 2.66798E-03 1.54844E-05-5.12510E-15
 -1      4284 2.53408E-03 1.54144E-05-4.64083E-15
 -1      4285 2.39887E-03 1.52327E-05-4.18091E-15
 -1      4286 9.88961E-03 1.15989E-04-4.90352E-14
 -1      4287 4.28243E-03 1.64436E-04-1.24073E-14
 -1      4288 3.37521E-03 3.03584E-06-8.25903E-15
 -1      4289 3.46664E-03 7.24868E-06-8.73967E-15
 -1      4290 3.50747E-03 3.53517E-05-8.89450E-15
 -1      4291 1.04585E-02 1.07263E-04-5.66950E-14
 -1      4292 1.03296E-02 1.03587E-04-5.49758E-14
 -1      4293 1.94263E-03 2.45926E-06-2.83274E-15
 -1      4294 3.42571E-03 7.12135E-05-8.31492E-15
 -1      4295 3.30170E-03 7.24689E-05-7.69446E-15
 -1      4296 9.68814E-03 3.21831E-05-4.67316E-14
 -1      4297 9.80633E-03 3.34595E-05-4.83336E-14
 -1      4298 9.65591E-03 4.81849E-05-4.61328E-14
 -1      4299 9.92715E-03 3.50592E-05-4.99609E-14
 -1      4300 1.00504E-02 3.66810E-05-5.16121E-14
 -1      4301 9.89159E-03 5.20760E-05-4.93422E-14
 -1      4302 1.02400E-02 4.76451E-05-5.40851E-14
 -1      4303 1.03680E-02 4.98050E-05-5.57946E-14
 -1      4304 1.04975E-02 5.19449E-05-5.75244E-14
 -1      4305 1.06735E-02 5.42661E-05-5.98870E-14
 -1      4306 1.08062E-02 5.65972E-05-6.16688E-14
 -1      4307 1.09401E-02 5.90273E-05-6.34731E-14
 -1      4308 1.10751E-02 6.14743E-05-6.52930E-14
 -1      4309 1.08765E-02 8.75872E-05-6.24454E-14
 -1      4310 1.12110E-02 6.40061E-05-6.71318E-14
 -1      4311 1.13477E-02 6.65596E-05-6.89892E-14
 -1      4312 1.11461E-02 9.37333E-05-6.60826E-14
 -1      4313 1.14852E-02 6.91841E-05-7.08609E-14
 -1      4314 1.16234E-02 7.18330E-05-7.27506E-14
 -1      4315 1.14194E-02 9.99655E-05-6.97901E-14
 -1      4316 1.17622E-02 7.45418E-05-7.46580E-14
 -1      4317 1.19015E-02 7.72757E-05-7.65809E-14
 -1      4318 1.16957E-02 1.06251E-04-7.35653E-14
 -1      4319 1.20413E-02 8.00601E-05-7.85160E-14
 -1      4320 1.21816E-02 8.28692E-05-8.04679E-14
 -1      4321 1.19743E-02 1.12567E-04-7.74027E-14
 -1      4322 1.23223E-02 8.57203E-05-8.24354E-14
 -1      4323 1.24632E-02 8.85950E-05-8.44133E-14
 -1      4324 1.22547E-02 1.18898E-04-8.13024E-14
 -1      4325 1.18592E-02 1.44399E-04-7.56330E-14
 -1      4326 1.17201E-02 1.40793E-04-7.37206E-14
 -1      4327 1.21391E-02 1.51505E-04-7.95012E-14
 -1      4328 1.19989E-02 1.47961E-04-7.75587E-14
 -1      4329 1.28914E-02 1.04689E-04-9.04261E-14
 -1      4330 1.10342E-02 1.22463E-04-6.44089E-14
 -1      4331 1.08997E-02 1.18739E-04-6.25990E-14
 -1      4332 1.24205E-02 1.58489E-04-8.34294E-14
 -1      4333 1.22796E-02 1.55007E-04-8.14590E-14
 -1      4334 1.27049E-02 1.68978E-04-8.74101E-14
 -1      4335 1.25634E-02 1.65532E-04-8.54166E-14
 -1      4336 1.25384E-02 1.28825E-04-8.52618E-14
 -1      4337 1.28250E-02 1.42487E-04-8.92703E-14
 -1      4338 2.80043E-03 1.56878E-05-5.63388E-15
 -1      4339 3.63955E-03 7.25450E-05-9.45577E-15
 -1      4340 2.26256E-03 1.51170E-05-3.74456E-15
 -1      4341 2.93119E-03 1.57727E-05-6.16624E-15
 -1      4342 3.06011E-03 1.60864E-05-6.72319E-15
 -1      4343 3.52005E-03 7.39545E-05-8.79457E-15
 -1      4344 1.07662E-02 1.15064E-04-6.08083E-14
 -1      4345 1.06339E-02 1.11360E-04-5.90396E-14
 -1      4346 9.36060E-03 1.32791E-04-4.20862E-14
 -1      4347 9.55794E-03 7.70916E-05-4.45913E-14
 -1      4348 9.67133E-03 7.98029E-05-4.61595E-14
 -1      4349 1.05665E-02 8.13352E-05-5.82827E-14
 -1      4350 3.14965E-03-2.37465E-06-7.15724E-15
 -1      4351 3.27471E-03-1.49400E-06-7.75575E-15
 -1      4352 2.04059E-03 9.84298E-06-3.09519E-15
 -1      4353 1.26063E-02 9.51050E-05-8.64084E-14
 -1      4354 1.15815E-02 1.37176E-04-7.18227E-14
 -1      4355 1.27478E-02 9.80589E-05-8.84087E-14
 -1      4356 1.00162E-02 8.69236E-05-5.08311E-14
 -1      4357 9.89429E-03 8.37360E-05-4.91938E-14
 -1      4358 1.01404E-02 9.03879E-05-5.24915E-14
 -1      4359 1.11698E-02 1.26147E-04-6.62364E-14
 -1      4360 9.43788E-03 1.10817E-04-4.29559E-14
 -1      4361 1.02010E-02 6.57905E-05-5.34415E-14
 -1      4362 1.13063E-02 1.29852E-04-6.80813E-14
 -1      4363 9.77497E-03 8.07940E-05-4.75799E-14
 -1      4364 3.19691E-03 6.92107E-05-7.21160E-15
 -1      4365 3.12659E-03 4.27705E-05-6.96771E-15
 -1      4366 2.13839E-03 1.73401E-05-3.36841E-15
 -1      4367 1.14435E-02 1.33513E-04-6.99430E-14
 -1      4368 3.31511E-03 2.81083E-05-7.90412E-15
 -1      4369 9.50114E-03 9.38829E-05-4.37711E-14
 -3
    1PSTEP                         2           1           1          
  100CL  101 1.000000000        4369                     0    1           1
 -4  STRESS      6    1
 -5  SXX         1    4    1    1
 -5  SYY         1    4    2    2
 -5  SZZ         1    4    3    3
 -5  SXY         1    4    1    2
 -5  SYZ         1    4    2    3
 -5  SZX         1    4    3    1
 -1         1 4.16706E+01 8.45797E+00 2.22884E+00-1.79045E+01-1.07778E-12 2.22988E-12
 -1         2-8.81293E-01-2.41419E+01-3.31861E+00-9.91648E-02 2.77130E-13 1.27242E-13
 -1         3 2.00001E+01 3.68861E-04 4.29639E-04 3.49650E-04-7.97504E-13-7.98394E-13
 -1         4 2.00001E+01 2.96593E-04 3.82134E-04-2.85455E-04 1.69211E-13 6.38543E-14
 -1         5 3.24988E+01 6.09393E+00 2.69607E+00 6.16884E+00-3.73868E-14 2.59616E-12
 -1         6 3.54383E+01 1.21460E+01 5.04828E+00-8.56131E+00-1.48104E-13 2.14118E-12
 -1         7 2.08034E+01 6.09252E+00-1.17244E-01-4.65256E+00-1.96926E-14 3.04881E-13
 -1         8 1.97087E+01 5.94406E+00 5.70104E-02-3.18201E+00-2.60347E-14-2.36281E-13
 -1         9 1.91928E+01 5.78716E+00 5.25675E-02-2.41817E+00-1.96614E-14-5.17272E-13
 -1        10 1.89457E+01 5.70606E+00 5.19416E-02-1.83848E+00-1.14136E-14-6.47432E-13
 -1        11 1.88061E+01 5.65995E+00 4.88415E-02-1.35136E+00-7.09849E-15-6.91114E-13
 -1        12 1.87210E+01 5.63193E+00 4.54197E-02-9.30112E-01-3.12901E-15-6.99505E-13
 -1        13 1.86689E+01 5.61498E+00 4.26897E-02-5.40129E-01 1.95894E-15-6.80186E-13
 -1        14 1.86443E+01 5.60702E+00 4.12309E-02-1.72207E-01 5.20889E-15-6.53121E-13
 -1        15 1.86449E+01 5.60721E+00 4.12720E-02 1.88734E-01 1.00901E-14-6.22390E-13
 -1        16 1.86708E+01 5.61557E+00 4.28349E-02 5.57472E-01 1.10101E-14-5.88689E-13
 -1        17 1.87244E+01 5.63285E+00 4.57607E-02 9.49464E-01 1.73845E-14-5.35739E-13
 -1        18 1.88108E+01 5.66127E+00 4.94282E-02 1.37386E+00 1.97091E-14-4.52392E-13
 -1        19 1.89520E+01 5.70789E+00 5.24666E-02 1.86696E+00 2.89456E-14-3.10485E-13
 -1        20 1.91986E+01 5.78982E+00 5.23185E-02 2.45520E+00 3.31020E-14-8.28396E-14
 -1        21 1.97041E+01 5.95828E+00 5.20520E-02 3.21613E+00 3.46979E-14 3.34342E-13
 -1        22 2.11708E+01 6.36848E+00 1.44732E-01 4.45199E+00 3.74700E-15 1.07436E-12
 -1        23 2.29186E+01-1.37619E+00-9.38509E-01-6.92584E-01-1.01148E-13 1.62816E-12
 -1        24 1.93704E+01-9.95972E-02-3.07505E-01 6.46162E-02-2.48265E-14 1.15803E-12
 -1        25 1.87719E+01-5.72388E-02-6.86990E-02 6.07857E-02-1.58712E-14 7.08048E-13
 -1        26 1.86682E+01-2.39057E-02-8.17318E-03 3.31542E-02 5.06778E-15 3.71474E-13
 -1        27 1.88037E+01-1.44268E-02-1.37051E-03 2.33048E-02 6.00095E-15 2.18846E-13
 -1        28 1.90809E+01-9.64381E-03-2.30098E-03 1.79036E-02-6.58436E-16 9.17998E-14
 -1        29 1.94557E+01-7.22186E-03-3.51067E-03 1.50908E-02-1.03446E-14-4.65383E-14
 -1        30 1.99098E+01-5.96453E-03-4.45151E-03 1.40023E-02-5.95937E-15-7.55776E-14
 -1        31 2.04372E+01-5.16459E-03-5.20642E-03 1.42708E-02 2.49312E-15-1.12983E-13
 -1        32 2.10361E+01-4.25476E-03-5.50284E-03 1.56925E-02-3.82756E-14-2.18394E-13
 -1        33 2.17012E+01-2.65703E-03-4.65557E-03 1.79883E-02 7.18462E-14-2.96081E-13
 -1        34 2.24149E+01 2.61202E-04-1.56193E-03 2.05421E-02-8.12353E-15-2.44135E-13
 -1        35 2.31349E+01 5.09886E-03 5.22354E-03 2.20549E-02-1.84127E-14-4.89405E-13
 -1        36 2.37808E+01 1.21268E-02 1.70463E-02 2.01569E-02 7.64850E-15-4.79696E-13
 -1        37 2.42235E+01 2.06656E-02 3.38402E-02 1.12736E-02-2.44687E-14-4.67360E-13
 -1        38 2.42897E+01 2.83521E-02 5.20440E-02-8.51012E-03-2.26858E-14-5.73598E-13
 -1        39 2.38024E+01 3.07383E-02 6.22538E-02-4.03962E-02 2.07705E-14-5.35008E-13
 -1        40 2.26737E+01 2.27524E-02 5.14196E-02-7.81220E-02 1.57467E-14-2.80082E-13
 -1        41 2.10326E+01 2.35949E-03 1.03312E-02-1.04482E-01-2.23025E-14-3.58224E-13
 -1        42 1.93047E+01-2.49646E-02-5.15364E-02-9.70954E-02-3.87732E-15-5.30558E-13
 -1        43 1.81125E+01-4.62691E-02-1.02741E-01-4.65807E-02-1.93920E-14-3.41267E-13
 -1        44 1.79650E+01-4.91960E-02-1.09777E-01 2.76924E-02 1.77809E-14-1.56314E-13
 -1        45 1.89327E+01-3.19604E-02-6.77983E-02 8.76062E-02-3.72237E-14-3.72407E-13
 -1        46 2.06005E+01-4.92916E-03-5.20764E-03 1.06677E-01 1.93628E-14-7.03708E-13
 -1        47 2.23418E+01 1.80853E-02 4.31566E-02 8.73581E-02 2.16081E-15-3.61142E-13
 -1        48 2.36612E+01 2.92768E-02 6.15233E-02 5.07054E-02-3.14393E-14-2.59077E-13
 -1        49 2.43555E+01 2.90296E-02 5.51505E-02 1.64395E-02 7.46770E-14-5.68789E-13
 -1        50 2.44703E+01 2.21346E-02 3.76950E-02-6.28711E-03-5.61556E-14-8.47335E-13
 -1        51 2.41726E+01 1.34026E-02 1.97635E-02-1.72730E-02 1.55582E-14-1.19156E-12
 -1        52 2.36446E+01 5.78739E-03 6.29939E-03-2.00713E-02-1.05370E-14-1.00204E-12
 -1        53 2.30307E+01 3.62666E-04-1.93932E-03-1.84436E-02-1.31501E-14-9.63269E-13
 -1        54 2.24251E+01-2.91660E-03-6.05284E-03-1.50445E-02 3.00102E-14-7.89317E-13
 -1        55 2.18794E+01-4.54012E-03-7.49171E-03-1.13695E-02-1.14833E-13-7.61032E-13
 -1        56 2.14155E+01-5.05463E-03-7.42894E-03-8.10566E-03-6.85915E-14-1.13663E-12
 -1        57 2.10372E+01-4.90769E-03-6.64370E-03-5.47876E-03 2.09532E-14-1.13437E-12
 -1        58 2.07387E+01-4.41552E-03-5.59450E-03-3.49004E-03-1.82881E-15-1.12681E-12
 -1        59 2.05094E+01-3.78123E-03-4.52585E-03-2.05037E-03 8.40121E-16-1.03453E-12
 -1        60 2.03379E+01-3.12522E-03-3.55408E-03-1.04753E-03-5.32585E-14-8.09875E-13
 -1        61 2.02128E+01-2.51268E-03-2.72414E-03-3.75631E-04 7.11370E-14-7.68194E-13
 -1        62 2.01242E+01-1.97412E-03-2.04368E-03 5.45069E-05 1.43780E-14-2.65348E-13
 -1        63 2.00636E+01-1.51935E-03-1.50240E-03 3.13736E-04-8.68867E-14-2.12825E-13
 -1        64 2.00241E+01-1.14648E-03-1.08243E-03 4.56441E-04 2.42799E-14-7.49937E-13
 -1        65 2.00002E+01-8.47368E-04-7.63807E-04 5.23475E-04-1.67880E-14-1.01171E-12
 -1        66 1.99875E+01-6.10770E-04-5.26844E-04 5.45107E-04 9.04902E-14-6.97816E-13
 -1        67 1.99828E+01-4.23809E-04-3.52153E-04 5.43548E-04 4.92508E-15-2.61743E-13
 -1        68 1.99835E+01-2.71884E-04-2.16511E-04 5.34907E-04 1.20098E-13-1.02989E-13
 -1        69 1.99876E+01-1.38620E-04-8.21309E-05 5.25795E-04-5.90552E-14 5.48384E-14
 -1        70 1.99933E+01-1.81100E-05 9.95010E-05 4.85476E-04-2.66301E-15 3.83537E-13
 -1        71 1.99985E+01-1.67510E-06 3.51651E-04 3.43953E-04-5.64046E-14 4.03655E-13
 -1        72 2.09470E+01-4.02667E-01-9.78796E-01-3.13181E-01 2.91642E-14 2.47481E-12
 -1        73 1.93352E+01-6.61031E-02-2.89004E-01-5.40760E-02 1.56875E-14 2.05910E-12
 -1        74 1.87801E+01-2.15013E-02-6.43502E-02-1.96087E-02 1.48240E-14 1.74316E-12
 -1        75 1.86762E+01-1.14622E-02-1.10983E-02-1.41798E-02 3.48419E-15 1.51739E-12
 -1        76 1.88125E+01-7.31826E-03-2.43738E-03-1.09227E-02 9.97070E-15 1.32403E-12
 -1        77 1.90910E+01-5.33662E-03-2.61591E-03-8.76497E-03 1.19564E-14 1.17864E-12
 -1        78 1.94692E+01-4.40167E-03-3.76510E-03-7.49688E-03-9.95720E-15 1.13503E-12
 -1        79 1.99306E+01-3.95533E-03-4.88375E-03-7.04374E-03-4.05654E-15 1.08254E-12
 -1        80 2.04713E+01-3.60041E-03-5.91645E-03-7.52617E-03-1.12878E-14 1.00720E-12
 -1        81 2.10927E+01-2.94470E-03-6.55998E-03-9.19468E-03 2.20112E-14 8.88555E-13
 -1        82 2.17939E+01-1.52728E-03-6.08290E-03-1.23357E-02 1.04892E-14 7.73506E-13
 -1        83 2.25617E+01 1.18337E-03-3.23978E-03-1.70920E-02 1.77923E-14 6.55112E-13
 -1        84 2.33579E+01 5.66256E-03 3.73443E-03-2.30816E-02-4.76962E-15 6.22364E-13
 -1        85 2.41021E+01 1.19597E-02 1.66997E-02-2.87057E-02-1.49901E-14 6.87774E-13
 -1        86 2.46562E+01 1.90324E-02 3.61663E-02-3.02468E-02-2.20059E-14 5.80915E-13
 -1        87 2.48230E+01 2.39706E-02 5.85053E-02-2.14827E-02-2.72471E-14 6.24616E-13
 -1        88 2.43843E+01 2.20741E-02 7.27448E-02 4.47126E-03-1.45695E-14 5.51670E-13
 -1        89 2.32065E+01 9.61453E-03 6.17433E-02 4.84603E-02 4.70819E-14 3.24483E-13
 -1        90 2.14051E+01-1.16211E-02 1.33211E-02 9.63268E-02-9.79029E-14 2.35249E-13
 -1        91 1.94603E+01-3.16867E-02-6.12441E-02 1.18508E-01 2.92242E-14 3.44627E-13
 -1        92 1.81137E+01-3.85812E-02-1.22029E-01 8.91242E-02 8.58818E-15 3.05079E-13
 -1        93 1.79804E+01-2.84924E-02-1.27459E-01 1.49262E-02 2.21559E-14 5.07379E-13
 -1        94 1.91307E+01-8.72669E-03-7.34646E-02-6.26210E-02 1.54822E-14 1.80529E-13
 -1        95 2.10377E+01 9.80492E-03 2.30998E-03-1.03025E-01-1.57685E-14 1.50088E-13
 -1        96 2.29481E+01 2.01650E-02 5.65702E-02-9.79139E-02 1.69429E-14 4.76837E-13
 -1        97 2.43096E+01 2.16543E-02 7.31320E-02-6.62533E-02 1.41679E-14 3.51101E-13
 -1        98 2.49387E+01 1.73314E-02 6.15703E-02-3.08750E-02-5.94401E-14 2.03521E-13
 -1        99 2.49332E+01 1.09570E-02 3.92769E-02-4.44913E-03 6.19036E-15 1.65822E-14
 -1       100 2.45069E+01 5.07423E-03 1.84046E-02 1.05632E-02 4.37184E-14-4.10737E-13
 -1       101 2.38685E+01 7.72145E-04 3.81625E-03 1.67203E-02-7.32097E-15-5.03682E-13
 -1       102 2.31712E+01-1.86682E-03-4.44909E-03 1.75231E-02-7.00646E-15-2.49955E-13
 -1       103 2.25078E+01-3.19150E-03-8.11861E-03 1.56965E-02 1.07576E-14 6.42281E-14
 -1       104 2.19247E+01-3.63359E-03-9.01637E-03 1.29206E-02 2.79114E-14 2.94521E-13
 -1       105 2.14380E+01-3.55273E-03-8.48110E-03 1.00778E-02-2.84259E-14 1.65630E-13
 -1       106 2.10467E+01-3.20206E-03-7.33757E-03 7.55830E-03-5.33901E-14 1.55318E-13
 -1       107 2.07411E+01-2.74177E-03-6.03692E-03 5.48663E-03-1.89546E-14-1.32252E-13
 -1       108 2.05085E+01-2.26488E-03-4.80008E-03 3.86030E-03 8.14397E-14-5.09180E-13
 -1       109 2.03357E+01-1.82048E-03-3.71941E-03 2.62461E-03 5.95089E-15-4.22261E-13
 -1       110 2.02103E+01-1.43083E-03-2.82069E-03 1.70992E-03-2.41015E-14-5.21904E-13
 -1       111 2.01220E+01-1.10263E-03-2.09771E-03 1.04845E-03 1.00687E-13-3.38586E-13
 -1       112 2.00618E+01-8.34109E-04-1.53066E-03 5.80832E-04-7.38323E-14 1.29057E-13
 -1       113 2.00228E+01-6.19176E-04-1.09542E-03 2.57686E-04 1.69486E-14 2.77067E-13
 -1       114 1.99993E+01-4.49807E-04-7.68049E-04 3.90104E-05-7.78286E-14-2.07503E-13
 -1       115 1.99870E+01-3.17135E-04-5.26357E-04-1.07415E-04 1.06033E-13-8.16597E-13
 -1       116 1.99825E+01-2.11463E-04-3.48907E-04-2.08178E-04 7.05447E-14-1.22804E-12
 -1       117 1.99834E+01-1.22345E-04-2.10328E-04-2.85867E-04 1.27230E-13-1.73720E-12
 -1       118 1.99877E+01-3.93303E-05-7.20470E-05-3.58938E-04-1.00211E-13-1.50768E-12
 -1       119 1.99935E+01 6.25079E-05 1.32891E-04-4.40130E-04 3.99366E-14-1.53167E-12
 -1       120 1.99985E+01 4.34494E-06 3.08866E-04-3.99539E-04 3.74143E-13-1.79588E-12
 -1       121 1.99999E+01-1.51963E-03 2.39435E-04-4.22146E-04-1.68066E-12 2.21104E-13
 -1       122 1.99998E+01-6.25875E-03 8.83444E-06-4.19069E-04-8.90974E-13 2.64159E-13
 -1       123 1.99997E+01-1.09129E-02-1.72630E-04-3.00081E-04 2.21846E-13 1.66759E-13
 -1       124 1.99997E+01-1.38555E-02-1.99919E-04-1.57852E-04 2.44238E-13-3.73714E-14
 -1       125 1.99997E+01-1.49022E-02-1.42176E-04-4.98866E-05 5.14866E-13-9.02320E-14
 -1       126 1.99998E+01-1.46281E-02-6.32780E-05 8.35567E-06 5.33245E-13 1.70781E-13
 -1       127 1.99998E+01-1.38118E-02 8.76469E-06 2.55180E-05 9.50135E-13 6.69693E-14
 -1       128 1.99998E+01-1.31823E-02 4.98615E-05 1.26389E-05-6.58153E-14-6.64195E-14
 -1       129 1.99998E+01-1.31642E-02 4.99678E-05-1.08694E-05-2.53924E-13 1.74281E-13
 -1       130 1.99998E+01-1.37587E-02 9.04951E-06-2.39609E-05 7.70168E-14-1.36213E-13
 -1       131 1.99998E+01-1.45441E-02-6.23589E-05-6.02067E-06-9.81717E-13-9.70393E-15
 -1       132 1.99997E+01-1.47954E-02-1.42671E-04 5.14389E-05-1.66954E-12 2.24525E-13
 -1       133 1.99997E+01-1.37260E-02-1.98023E-04 1.59596E-04-1.38389E-12 1.34668E-13
 -1       134 1.99997E+01-1.07854E-02-1.71341E-04 3.05986E-04-5.58648E-13 1.27781E-14
 -1       135 1.99998E+01-6.24755E-03-5.13564E-06 5.79365E-04-4.85881E-13 3.30719E-14
 -1       136 1.99999E+01-1.63889E-03 2.25972E-04 5.23422E-04-5.57056E-13-8.19658E-14
 -1       137-1.44694E+00-1.91693E+01-3.00934E+00-3.63058E+00 1.21142E-12 2.32495E-13
 -1       138-1.51354E+00-8.22381E+00-2.25365E+00-2.89188E+00 1.71940E-12 8.64669E-13
 -1       139 3.10468E+00 3.55974E+00-1.07597E+00 3.61622E+00 2.45021E-12 2.05624E-12
 -1       140 1.48774E+01 1.02891E+01 2.97278E-01 1.23053E+01 2.59132E-12 2.87803E-12
 -1       141 3.27948E+01 1.02682E+01 1.66093E+00 1.79432E+01 1.35614E-12 2.35556E-12
 -1       142 5.25675E+01 5.54011E+00 2.85919E+00 1.56879E+01 4.08354E-13 9.55513E-13
 -1       143 6.50375E+01 1.43160E+00 3.52343E+00 5.33546E+00-1.09128E-13-2.87853E-13
 -1       144 6.37315E+01 1.90285E+00 3.47836E+00-7.92955E+00 3.13386E-13-1.25625E-12
 -1       145 4.86208E+01 6.83416E+00 2.66142E+00-1.70190E+01 9.98382E-13-2.55618E-12
 -1       146 2.83171E+01 1.06272E+01 1.36839E+00-1.68453E+01 2.02022E-12-3.08198E-12
 -1       147 1.05822E+01 8.90902E+00-1.26055E-01-9.73992E+00 2.97024E-12-2.97834E-12
 -1       148 1.20903E+00 3.66232E-01-1.44136E+00-1.39413E+00 3.10740E-12-1.98641E-12
 -1       149-1.85650E+00-1.22768E+01-2.55634E+00 3.95541E+00 2.16960E-12-9.10383E-13
 -1       150-1.07714E+00-2.19107E+01-3.20397E+00 3.19240E+00 5.53835E-13-1.70460E-13
 -1       151-7.71033E-01-2.42009E+01-3.34934E+00-1.11906E+00-1.30120E-12-9.99652E-14
 -1       152-1.56789E+00-1.76626E+01-2.94190E+00-4.01671E+00-2.46958E-12-7.01911E-13
 -1       153-1.21826E+00-5.97689E+00-2.07539E+00-2.20053E+00-2.74353E-12-1.33138E-12
 -1       154 4.64697E+00 5.48725E+00-8.20359E-01 5.26506E+00-2.61968E-12-2.20401E-12
 -1       155 1.95502E+01 1.09221E+01 7.20316E-01 1.43732E+01-2.10854E-12-2.54929E-12
 -1       156 4.02867E+01 8.82989E+00 2.15023E+00 1.79511E+01-1.13934E-12-2.37110E-12
 -1       157 5.86545E+01 3.65624E+00 3.18668E+00 1.26326E+01-3.95777E-13-1.74699E-12
 -1       158 6.59642E+01 9.21259E-01 3.56575E+00 5.87311E-01-1.06120E-13-2.52852E-13
 -1       159 5.95273E+01 3.32395E+00 3.22162E+00-1.17679E+01-2.54973E-13 1.08882E-12
 -1       160 2.04580E+01 1.11138E+01 7.87455E-01-1.49175E+01-1.94195E-12 2.49928E-12
 -1       161 5.15504E+00 5.98979E+00-7.35026E-01-5.73603E+00-2.62462E-12 2.07456E-12
 -1       162-1.23518E+00-5.90901E+00-2.06450E+00 2.23474E+00-1.88116E-12 1.13298E-12
 -1       163-1.49481E+00-1.88954E+01-3.02040E+00 3.88472E+00-4.13447E-13 8.92272E-14
 -1       164 2.10445E+01 3.67281E+00-5.58789E-02-3.50878E+00-3.25686E-13 2.81199E-14
 -1       165 2.00525E+01 4.20460E+00-4.46688E-02-2.69485E+00-2.81422E-13-3.02546E-13
 -1       166 1.95642E+01 4.49405E+00-3.10045E-02-2.07452E+00-2.17613E-13-4.81330E-13
 -1       167 1.93020E+01 4.64814E+00-2.31708E-02-1.55896E+00-1.51248E-13-5.60010E-13
 -1       168 1.91404E+01 4.74550E+00-1.88173E-02-1.11931E+00-8.72332E-14-5.74280E-13
 -1       169 1.90374E+01 4.80758E+00-1.65546E-02-7.19111E-01-3.69106E-14-5.67331E-13
 -1       170 1.89798E+01 4.84250E+00-1.54350E-02-3.48393E-01 2.73834E-14-5.50336E-13
 -1       171 1.89617E+01 4.85350E+00-1.51052E-02 8.08863E-03 8.39021E-14-5.23134E-13
 -1       172 1.89817E+01 4.84138E+00-1.54706E-02 3.64874E-01 1.42687E-13-5.03237E-13
 -1       173 1.90416E+01 4.80482E+00-1.66169E-02 7.36571E-01 1.85492E-13-4.67465E-13
 -1       174 1.91451E+01 4.74127E+00-1.89140E-02 1.13170E+00 2.42565E-13-3.99001E-13
 -1       175 1.93117E+01 4.63919E+00-2.33307E-02 1.58196E+00 2.97956E-13-2.94239E-13
 -1       176 1.95818E+01 4.47569E+00-3.21222E-02 2.10555E+00 3.50978E-13-1.32772E-13
 -1       177 2.00747E+01 4.18109E+00-4.60921E-02 2.73223E+00 3.67820E-13 1.44273E-13
 -1       178 2.11622E+01 3.44525E+00-5.84005E-02 3.43772E+00 3.23342E-13 6.12635E-13
 -1       179 2.23908E+01 1.13162E+00-3.33453E-01 2.94181E+00 2.07949E-13 1.21239E-12
 -1       180 2.19816E+01 8.50326E-01 8.52256E-04-1.88466E+00-2.95316E-13 4.43777E-13
 -1       181 2.05265E+01 1.90735E-01-9.41406E-03-6.90914E-01-2.53693E-13 3.06702E-13
 -1       182 1.98323E+01 1.07298E-01 1.40502E-02-2.03167E-01-1.95582E-13 1.93513E-13
 -1       183 1.95919E+01 5.69806E-02 1.05761E-02 3.53484E-02-1.12407E-13 8.31687E-14
 -1       184 1.95883E+01 3.62599E-02 5.90091E-03 1.73571E-01-8.41527E-14 2.82276E-14
 -1       185 1.97362E+01 2.71108E-02 3.32216E-03 2.66992E-01-9.81996E-14-2.17406E-14
 -1       186 1.99898E+01 2.34502E-02 2.12297E-03 3.39763E-01-3.82046E-14-7.24340E-14
 -1       187 2.03253E+01 2.22888E-02 1.50035E-03 4.03475E-01-2.98164E-14-9.40514E-14
 -1       188 2.07290E+01 2.13963E-02 1.02095E-03 4.62421E-01-5.02048E-14-4.70745E-14
 -1       189 2.11904E+01 1.83607E-02 4.57265E-04 5.14681E-01-5.64442E-14-3.99009E-14
 -1       190 2.16954E+01 1.01087E-02-3.26734E-04 5.51347E-01-2.59650E-14-1.55655E-13
 -1       191 2.22201E+01-7.19989E-03-1.38373E-03 5.55019E-01-1.03489E-13-2.05081E-13
 -1       192 2.27240E+01-3.75259E-02-2.62663E-03 4.98988E-01-9.65504E-15-2.52601E-13
 -1       193 2.31445E+01-8.26876E-02-3.73115E-03 3.49898E-01 5.09467E-15-2.50674E-13
 -1       194 2.33973E+01-1.37644E-01-4.22553E-03 7.86268E-02-3.74297E-14-1.95776E-13
 -1       195 2.33871E+01-1.83591E-01-3.46308E-03-3.15449E-01 3.10971E-14-1.99309E-13
 -1       196 2.30405E+01-1.86037E-01-1.60142E-03-7.68945E-01 5.04193E-14-2.25972E-13
 -1       197 2.23617E+01-1.07157E-01 8.93742E-04-1.13167E+00-1.62565E-14-2.65251E-13
 -1       198 2.14896E+01 5.88891E-02 2.20515E-03-1.19782E+00-9.71563E-14-2.22720E-13
 -1       199 2.07095E+01 2.48544E-01 1.95338E-03-8.28497E-01 2.80414E-14-3.43001E-13
 -1       200 2.03471E+01 3.48475E-01 1.48190E-03-1.01540E-01 2.60495E-14-3.80639E-13
 -1       201 2.05749E+01 2.88741E-01 1.91832E-03 6.75257E-01-1.38533E-13-4.15614E-13
 -1       202 2.12901E+01 1.12441E-01 2.68532E-03 1.16002E+00-3.84521E-14-2.96311E-13
 -1       203 2.21894E+01-6.85806E-02 1.86419E-03 1.20616E+00 8.32231E-14-2.24579E-13
 -1       204 2.29633E+01-1.71974E-01-4.84095E-04 9.07064E-01-2.03431E-14-2.63039E-13
 -1       205 2.34319E+01-1.87314E-01-2.91482E-03 4.65930E-01-1.46668E-13-3.16473E-13
 -1       206 2.35622E+01-1.48177E-01-3.98605E-03 5.49724E-02-1.56119E-13-3.96575E-13
 -1       207 2.34145E+01-9.25132E-02-3.76307E-03-2.40654E-01-8.49858E-14-4.79987E-13
 -1       208 2.30834E+01-4.32451E-02-2.74829E-03-4.08451E-01 5.23219E-14-3.14736E-13
 -1       209 2.26588E+01-8.46888E-03-1.51136E-03-4.73107E-01-4.48881E-14-3.16714E-13
 -1       210 2.22095E+01 1.22338E-02-4.28685E-04-4.68871E-01 3.12644E-14-2.13131E-13
 -1       211 2.17805E+01 2.23712E-02 3.42352E-04-4.25679E-01-9.58920E-14-3.41038E-13
 -1       212 2.13969E+01 2.56688E-02 7.97829E-04-3.65006E-01-7.34360E-14-4.62623E-13
 -1       213 2.10694E+01 2.50353E-02 1.00319E-03-3.00385E-01 5.89653E-14-4.14376E-13
 -1       214 2.07996E+01 2.24338E-02 1.03882E-03-2.39398E-01-3.57580E-14-5.02098E-13
 -1       215 2.05835E+01 1.90687E-02 9.73771E-04-1.85681E-01 1.27453E-13-3.19942E-13
 -1       216 2.04149E+01 1.56210E-02 8.58253E-04-1.40469E-01-4.00531E-14-4.21100E-13
 -1       217 2.02863E+01 1.24400E-02 7.24894E-04-1.03655E-01 7.96426E-14-1.88200E-13
 -1       218 2.01905E+01 9.67762E-03 5.92981E-04-7.44532E-02 1.10790E-13-1.82695E-13
 -1       219 2.01210E+01 7.37390E-03 4.72671E-04-5.17978E-02 2.36711E-14-2.59401E-13
 -1       220 2.00721E+01 5.50945E-03 3.68299E-04-3.45723E-02-2.58577E-13-2.92970E-13
 -1       221 2.00388E+01 4.03593E-03 2.80679E-04-2.17281E-02 3.90592E-14-1.42336E-13
 -1       222 2.00175E+01 2.89294E-03 2.08518E-04-1.23449E-02 1.64960E-13 1.59730E-13
 -1       223 2.00048E+01 2.01601E-03 1.49275E-04-5.65545E-03 2.05635E-13 7.49756E-14
 -1       224 1.99983E+01 1.33858E-03 9.98979E-05-1.05720E-03 1.46579E-13 1.03898E-13
 -1       225 1.99960E+01 7.81739E-04 5.95014E-05 1.87561E-03 1.31111E-13 1.10729E-13
 -1       226 1.99963E+01 2.24255E-04 3.44038E-05 3.34378E-03 1.60305E-13 1.31615E-13
 -1       227 1.99978E+01-5.03080E-04 3.16230E-05 3.31097E-03 3.55545E-14 2.42996E-13
 -1       228 2.09947E+01 2.74999E-01-5.02627E-02 1.10270E+00 2.15276E-13 1.06780E-12
 -1       229 1.99765E+01 1.28715E-01 8.77253E-03 3.79902E-01 1.72243E-13 8.95682E-13
 -1       230 1.95604E+01 6.31836E-02 1.30361E-02 7.48540E-02 1.24003E-13 7.45073E-13
 -1       231 1.94639E+01 3.58512E-02 7.96202E-03-8.57209E-02 1.07573E-13 6.60982E-13
 -1       232 1.95599E+01 2.42151E-02 4.22625E-03-1.85204E-01 5.39226E-14 6.18292E-13
 -1       233 1.97840E+01 1.93806E-02 2.35355E-03-2.57174E-01 2.81810E-14 5.68176E-13
 -1       234 2.01041E+01 1.79234E-02 1.43647E-03-3.17650E-01 3.15084E-14 4.86469E-13
 -1       235 2.05043E+01 1.79847E-02 8.69149E-04-3.74422E-01 6.07972E-14 4.53556E-13
 -1       236 2.09763E+01 1.79851E-02 3.70433E-04-4.29817E-01 7.33143E-14 3.14902E-13
 -1       237 2.15119E+01 1.60072E-02-1.74047E-04-4.80722E-01 4.03725E-14 3.90657E-13
 -1       238 2.20961E+01 9.40840E-03-7.65450E-04-5.17177E-01 9.30124E-14 3.71640E-13
 -1       239 2.26986E+01-5.29706E-03-1.25763E-03-5.20331E-01 6.52202E-16 2.71778E-13
 -1       240 2.32655E+01-3.18348E-02-1.30833E-03-4.61237E-01 1.60477E-14 2.66892E-13
 -1       241 2.37117E+01-7.18715E-02-4.41774E-04-3.03861E-01-3.63689E-14 3.05756E-13
 -1       242 2.39234E+01-1.20152E-01 1.57204E-03-1.83336E-02 2.31299E-14 3.88485E-13
 -1       243 2.37798E+01-1.57860E-01 4.11987E-03 3.90319E-01-3.06309E-15 3.30190E-13
 -1       244 2.32059E+01-1.49855E-01 5.15143E-03 8.39597E-01 1.03112E-13 3.32396E-13
 -1       245 2.22574E+01-6.35897E-02 2.02206E-03 1.14849E+00 5.70849E-14 3.16067E-13
 -1       246 2.11858E+01 9.36598E-02-5.23446E-03 1.09835E+00-1.72145E-14 2.65487E-13
 -1       247 2.03999E+01 2.45285E-01-1.20416E-02 5.92607E-01-3.46615E-14 4.75649E-13
 -1       248 2.02653E+01 2.88429E-01-1.23033E-02-1.96352E-01 1.48354E-14 4.19853E-13
 -1       249 2.08561E+01 1.90885E-01-5.05897E-03-8.92894E-01 1.80198E-13 2.36590E-13
 -1       250 2.18957E+01 2.63700E-02 3.66431E-03-1.19155E+00-1.52137E-14 2.49800E-14
 -1       251 2.29590E+01-1.04567E-01 7.33555E-03-1.05459E+00-1.03337E-13-8.75437E-14
 -1       252 2.37206E+01-1.55484E-01 5.52971E-03-6.59211E-01-1.18109E-14 1.32529E-13
 -1       253 2.40578E+01-1.41020E-01 1.72664E-03-2.19927E-01 4.19586E-15 3.56097E-13
 -1       254 2.40092E+01-9.71135E-02-1.14060E-03 1.28198E-01 1.47933E-13 2.89109E-13
 -1       255 2.36885E+01-5.16286E-02-2.31178E-03 3.43432E-01 1.44276E-13 2.10517E-13
 -1       256 2.32173E+01-1.70859E-02-2.18521E-03 4.41179E-01-1.12406E-14 3.77493E-14
 -1       257 2.26930E+01 4.54350E-03-1.47896E-03 4.56721E-01-1.21185E-13 1.06885E-14
 -1       258 2.21806E+01 1.58252E-02-7.00555E-04 4.24043E-01-4.61092E-14 4.63996E-14
 -1       259 2.17171E+01 2.02032E-02-8.80578E-05 3.68364E-01 6.02867E-14-2.23502E-13
 -1       260 2.13190E+01 2.05361E-02 3.04858E-04 3.05775E-01-1.43349E-14-2.17793E-13
 -1       261 2.09897E+01 1.87895E-02 5.10475E-04 2.45357E-01-2.90844E-14-2.23728E-13
 -1       262 2.07255E+01 1.61727E-02 5.84381E-04 1.91536E-01 1.50552E-13-2.38557E-13
 -1       263 2.05188E+01 1.33684E-02 5.77158E-04 1.45936E-01 1.27290E-13-3.01860E-13
 -1       264 2.03607E+01 1.07283E-02 5.26108E-04 1.08627E-01-1.15562E-13-2.71987E-13
 -1       265 2.02424E+01 8.40903E-03 4.55719E-04 7.89054E-02-3.15120E-14-2.01590E-13
 -1       266 2.01561E+01 6.45905E-03 3.80725E-04 5.57416E-02-7.30107E-14 5.19026E-14
 -1       267 2.00948E+01 4.86984E-03 3.09223E-04 3.80368E-02-2.30505E-13 2.18864E-13
 -1       268 2.00526E+01 3.60566E-03 2.45055E-04 2.47508E-02 1.90468E-13 8.82498E-14
 -1       269 2.00250E+01 2.61977E-03 1.89394E-04 1.49641E-02 1.93516E-13-1.44435E-13
 -1       270 2.00080E+01 1.86281E-03 1.41777E-04 7.90096E-03 4.33705E-13-3.47413E-13
 -1       271 1.99988E+01 1.28559E-03 1.01038E-04 2.93572E-03 2.36532E-13-6.90688E-13
 -1       272 1.99950E+01 8.34878E-04 6.68829E-05-4.03400E-04 2.63613E-13-5.62484E-13
 -1       273 1.99947E+01 4.53223E-04 4.45788E-05-2.41243E-03 3.71643E-15-8.24782E-13
 -1       274 1.99963E+01 3.67947E-05 4.96933E-05-3.17930E-03-2.47077E-14-9.98671E-13
 -1       275 1.99984E+01-6.59124E-04 8.39652E-05-2.49650E-03-1.32219E-13-6.23149E-13
 -1       276 1.99995E+01-2.26238E-03 2.04741E-05-3.13238E-03-3.51371E-13 5.65587E-13
 -1       277 2.00002E+01-3.88807E-03 1.17968E-06-2.92544E-03-2.83551E-13 5.36175E-13
 -1       278 2.00004E+01-4.81278E-03-1.30073E-06-1.72869E-03 1.10585E-13 4.46553E-13
 -1       279 2.00003E+01-4.83610E-03 3.22716E-06-4.29710E-04 2.36241E-13 3.32634E-13
 -1       280 2.00001E+01-4.13254E-03 2.60354E-06 4.63841E-04 1.25223E-13-4.03942E-14
 -1       281 1.99998E+01-3.09794E-03-3.01618E-07 7.81164E-04-9.47385E-14 9.07917E-14
 -1       282 1.99996E+01-2.22459E-03-3.62025E-06 5.55333E-04 9.13112E-14-2.14713E-13
 -1       283 1.99996E+01-1.88229E-03-4.99048E-06 1.26089E-05 1.93717E-13-2.99681E-14
 -1       284 1.99996E+01-2.20757E-03-3.67146E-06-5.30762E-04-1.49976E-13-1.14282E-14
 -1       285 1.99998E+01-3.06524E-03-5.52232E-07-7.58660E-04-2.57140E-13-5.39829E-13
 -1       286 2.00001E+01-4.06917E-03 2.53504E-06-4.54885E-04-3.54034E-13-3.34248E-13
 -1       287 2.00003E+01-4.77844E-03 2.60035E-06 4.40825E-04-1.93526E-13 1.13616E-13
 -1       288 2.00004E+01-4.76427E-03-4.08013E-06 1.74473E-03-2.63384E-13 4.03584E-13
 -1       289 2.00001E+01-3.72361E-03 1.03688E-05 2.79887E-03-3.61364E-13 8.42716E-14
 -1       290 1.99996E+01-1.88785E-03-7.00010E-07 3.73126E-03-2.41135E-13 1.57424E-14
 -1       291-3.43421E-01-8.57379E+00-6.12094E-01 1.63981E+00 1.37085E-13 5.91693E-13
 -1       292 3.04558E+00-8.11845E+00-7.10770E-01 3.63489E+00 5.44176E-13 5.63570E-13
 -1       293 9.65910E+00-5.03429E+00-4.79140E-01 5.62148E+00 5.95218E-13 1.08906E-12
 -1       294 1.82489E+01-1.03272E+00-1.24679E-01 7.07332E+00 7.81958E-13 1.04095E-12
 -1       295 2.82385E+01 2.25387E+00 2.91784E-01 7.56217E+00 9.60343E-13 5.39679E-13
 -1       296 3.78028E+01 4.69824E+00 6.84745E-01 6.44832E+00 8.63922E-13 2.34784E-13
 -1       297 4.19234E+01 6.58872E+00 6.28283E-01 2.08535E+00 6.79873E-13-5.84532E-14
 -1       298 4.59854E+01 6.84371E+00 9.34406E-01-4.23464E-01 6.12899E-13-5.93798E-13
 -1       299 4.24695E+01 6.12660E+00 7.63066E-01-3.41613E+00 7.19952E-13-7.21728E-13
 -1       300 3.51057E+01 3.36044E+00 3.88329E-01-4.97178E+00 8.85469E-13-7.02383E-13
 -1       301 2.57883E+01 1.02778E+00 1.63506E-01-7.32084E+00 1.16340E-12-1.06243E-12
 -1       302 1.54364E+01-2.18446E+00-2.49804E-01-6.68881E+00 1.06526E-12-1.25489E-12
 -1       303 8.22205E+00-6.21110E+00-4.49806E-01-5.63877E+00 4.98518E-13-9.43745E-13
 -1       304 1.26060E+00-9.40184E+00-8.73074E-01-2.66702E+00 3.63293E-13-9.29076E-13
 -1       305-1.17575E+00-1.10794E+01-1.00981E+00-5.20052E-01-2.04496E-13-9.48797E-13
 -1       306-1.69197E-01-9.55861E+00-8.04009E-01 1.90540E+00-5.94955E-13-7.01300E-13
 -1       307 3.67378E+00-7.92175E+00-7.66450E-01 3.74265E+00-1.03526E-12-6.27359E-13
 -1       308 1.07117E+01-4.20294E+00-4.53168E-01 5.85909E+00-1.08863E-12-9.25524E-13
 -1       309 2.04837E+01-1.43267E-01-2.72892E-02 7.40664E+00-1.04791E-12-1.01111E-12
 -1       310 3.14898E+01 2.61211E+00 3.57321E-01 6.62218E+00-8.55774E-13-9.87099E-13
 -1       311 3.89344E+01 5.16643E+00 5.09338E-01 3.62147E+00-7.72410E-13-7.60558E-13
 -1       312 4.52175E+01 6.66352E+00 9.16185E-01 1.87462E+00-8.46462E-13-4.62158E-13
 -1       313 4.45906E+01 6.89021E+00 8.31394E-01-1.36347E+00-7.99777E-13-4.95576E-14
 -1       314 3.93426E+01 5.35147E+00 5.35196E-01-3.42747E+00-7.65117E-13 1.98674E-13
 -1       315 3.20871E+01 3.40590E+00 4.61559E-01-7.45503E+00-7.82943E-13 7.51288E-13
 -1       316 2.10239E+01 1.60188E-01 3.81917E-03-7.45693E+00-8.80435E-13 8.06494E-13
 -1       317 1.08064E+01-3.97436E+00-4.48184E-01-5.83820E+00-5.67379E-13 8.54594E-13
 -1       318 3.18187E+00-8.19025E+00-8.12681E-01-3.49351E+00-2.34396E-13 9.21783E-13
 -1       319-6.21871E-01-9.71740E+00-8.12423E-01-1.41650E+00 3.31679E-14 1.81688E-13
 -1       320 2.02143E+01 3.03552E+00-1.77187E-02-1.97107E+00-2.92593E-13-2.78276E-13
 -1       321 2.08246E+01 2.20741E+00-1.73243E-02-2.24113E+00-3.41105E-13-7.79845E-14
 -1       322 1.95856E+01 3.77197E+00-1.51703E-02-1.18996E+00-1.57391E-13-4.24926E-13
 -1       323 1.94222E+01 3.95490E+00-1.30328E-02-8.21110E-01-9.02401E-14-4.32495E-13
 -1       324 1.93202E+01 4.06556E+00-1.18824E-02-4.77788E-01-1.03654E-14-4.08594E-13
 -1       325 1.92716E+01 4.11731E+00-1.13792E-02-1.50721E-01 7.29502E-14-4.02053E-13
 -1       326 1.92732E+01 4.11577E+00-1.13968E-02 1.70929E-01 1.41245E-13-3.71069E-13
 -1       327 1.93251E+01 4.06055E+00-1.19306E-02 4.98294E-01 1.99634E-13-3.67223E-13
 -1       328 1.94286E+01 3.94805E+00-1.31015E-02 8.36146E-01 2.57953E-13-3.12625E-13
 -1       329 1.95969E+01 3.75914E+00-1.51879E-02 1.20413E+00 3.29881E-13-2.19831E-13
 -1       330 1.98523E+01 3.45990E+00-1.85466E-02 1.59690E+00 3.77786E-13-1.15669E-13
 -1       331 2.02497E+01 2.97542E+00-2.25458E-02 1.98747E+00 4.08507E-13 4.79183E-14
 -1       332 2.08174E+01 2.12843E+00-2.98911E-02 2.20123E+00 3.76792E-13 3.48348E-13
 -1       333 2.11498E+01 1.18297E+00-2.41101E-02 1.82415E+00 3.08796E-13 6.30799E-13
 -1       334 2.05025E+01 4.97066E-01 8.75992E-03 8.20051E-01 2.45943E-13 5.21946E-13
 -1       335 2.05812E+01 6.93231E-01 1.29000E-02-8.89084E-01-2.74858E-13-2.25805E-14
 -1       336 2.02258E+01 3.70669E-01 7.57441E-03-2.90120E-01-2.07237E-13-2.27858E-14
 -1       337 2.00572E+01 2.25149E-01 4.70503E-03 6.55846E-02-1.14541E-13-4.12012E-14
 -1       338 2.00303E+01 1.54128E-01 2.61021E-03 2.98930E-01-1.07228E-13-5.50385E-14
 -1       339 2.01113E+01 1.19670E-01 1.64394E-03 4.67834E-01-1.08619E-13-4.87073E-14
 -1       340 2.02752E+01 1.03586E-01 1.22980E-03 6.03154E-01-3.11066E-14-6.35075E-14
 -1       341 2.05054E+01 9.48118E-02 9.90950E-04 7.20351E-01-1.92239E-14-6.23961E-14
 -1       342 2.07913E+01 8.38770E-02 7.23161E-04 8.23790E-01-3.46471E-14-6.38811E-14
 -1       343 2.11248E+01 6.02699E-02 2.79548E-04 9.07387E-01-8.96693E-14-6.75179E-14
 -1       344 2.14980E+01 1.12987E-02-4.69797E-04 9.53406E-01-9.51604E-14-7.41956E-14
 -1       345 2.19005E+01-7.71139E-02-1.61596E-03 9.30909E-01-8.76908E-14-2.46243E-14
 -1       346 2.23158E+01-2.15831E-01-3.13470E-03 7.96291E-01 1.44972E-14-1.56019E-14
 -1       347 2.27163E+01-4.00993E-01-4.66093E-03 5.00376E-01-1.14880E-14-1.90220E-14
 -1       348 2.30545E+01-5.94182E-01-5.81298E-03 9.51578E-03 1.83555E-14-6.14144E-14
 -1       349 2.32551E+01-7.00574E-01-5.18985E-03-6.51126E-01 9.80075E-15-6.14773E-14
 -1       350 2.32272E+01-5.83899E-01-3.56558E-03-1.33910E+00 4.74525E-14-2.36559E-14
 -1       351 2.29189E+01-1.39384E-01-1.92126E-04-1.77380E+00-2.67451E-15-7.67090E-14
 -1       352 2.24128E+01 5.48663E-01 1.03598E-03-1.62273E+00-1.23548E-13-1.57859E-13
 -1       353 2.19839E+01 1.13142E+00 1.26148E-03-7.64652E-01-4.63319E-14-1.98314E-13
 -1       354 2.19296E+01 1.21374E+00 1.20990E-03 4.76088E-01-6.32680E-14-3.18264E-13
 -1       355 2.22959E+01 7.35013E-01 1.71238E-03 1.48712E+00-1.39905E-15-1.81377E-13
 -1       356 2.28282E+01 3.53987E-02 1.77839E-03 1.83513E+00 3.07471E-14-2.16417E-13
 -1       357 2.32218E+01-4.90514E-01-1.09395E-03 1.53384E+00-7.44173E-14-4.18460E-13
 -1       358 2.33418E+01-6.87490E-01-4.82393E-03 8.89733E-01 3.23441E-14-4.81025E-13
 -1       359 2.32162E+01-6.22833E-01-5.72337E-03 2.14734E-01-3.04424E-14-2.22236E-13
 -1       360 2.29346E+01-4.38795E-01-4.91669E-03-3.12113E-01-9.41014E-14-3.54699E-14
 -1       361 2.25783E+01-2.43806E-01-3.35689E-03-6.40880E-01 6.92695E-14 2.70163E-14
 -1       362 2.22019E+01-8.96825E-02-1.77152E-03-7.94968E-01-2.45864E-14-1.40112E-13
 -1       363 2.18370E+01 1.21723E-02-5.16713E-04-8.23132E-01 1.89688E-14-2.24384E-13
 -1       364 2.15011E+01 6.94083E-02 3.12062E-04-7.73297E-01 1.03000E-14-2.52942E-13
 -1       365 2.12029E+01 9.48971E-02 7.71949E-04-6.82755E-01-1.21043E-13 1.29024E-15
 -1       366 2.09460E+01 1.00393E-01 9.64028E-04-5.76908E-01-2.07503E-14 2.46462E-14
 -1       367 2.07301E+01 9.46426E-02 9.85516E-04-4.71333E-01-7.10283E-14 1.21670E-13
 -1       368 2.05528E+01 8.34608E-02 9.11479E-04-3.74545E-01 8.70505E-14 8.75798E-14
 -1       369 2.04103E+01 7.04053E-02 7.93002E-04-2.90422E-01-3.21968E-14 5.27574E-14
 -1       370 2.02981E+01 5.74909E-02 6.61546E-04-2.20010E-01 1.91720E-13 3.36372E-13
 -1       371 2.02114E+01 4.57477E-02 5.34792E-04-1.62752E-01 1.24826E-13 1.33185E-13
 -1       372 2.01459E+01 3.56103E-02 4.21480E-04-1.17286E-01 2.06595E-13 2.37902E-13
 -1       373 2.00974E+01 2.71702E-02 3.24932E-04-8.19311E-02-1.63259E-13 2.03845E-13
 -1       374 2.00625E+01 2.03323E-02 2.45330E-04-5.49702E-02-8.00721E-14 3.17260E-13
 -1       375 2.00381E+01 1.49083E-02 1.81236E-04-3.48109E-02 2.47469E-13 2.06251E-13
 -1       376 2.00216E+01 1.06685E-02 1.30261E-04-2.00650E-02 1.91098E-13 3.26377E-13
 -1       377 2.00111E+01 7.36423E-03 8.94147E-05-9.58581E-03 1.34921E-13 3.19825E-13
 -1       378 2.00049E+01 4.73273E-03 5.76734E-05-2.49509E-03-9.02620E-15 2.93187E-13
 -1       379 2.00015E+01 2.46161E-03 3.56754E-05 1.85062E-03-2.19189E-14 2.55646E-13
 -1       380 2.00000E+01 3.41482E-04-5.11847E-06 3.72940E-03 4.22075E-14 1.46305E-13
 -1       381 2.00747E+01 2.46696E-01 1.11705E-02 2.69146E-01 2.06719E-13 4.44905E-13
 -1       382 1.98808E+01 1.43582E-01 6.72719E-03-4.52369E-02 1.44709E-13 3.62912E-13
 -1       383 1.98673E+01 9.59228E-02 3.55025E-03-2.43788E-01 8.65910E-14 3.41896E-13
 -1       384 1.99816E+01 7.42835E-02 2.10041E-03-3.84774E-01 7.17357E-14 2.79746E-13
 -1       385 2.01917E+01 6.57677E-02 1.51488E-03-4.98344E-01 6.17737E-14 2.03540E-13
 -1       386 2.04786E+01 6.32661E-02 1.22817E-03-5.99789E-01 7.22318E-14 2.02655E-13
 -1       387 2.08310E+01 6.10628E-02 9.57657E-04-6.94712E-01 1.25305E-13 2.38847E-13
 -1       388 2.12403E+01 5.27119E-02 5.28745E-04-7.79826E-01 2.81058E-14 2.65734E-13
 -1       389 2.16960E+01 2.98247E-02-1.99573E-04-8.41507E-01 7.09641E-14 1.83458E-13
 -1       390 2.21816E+01-1.81802E-02-1.31738E-03-8.53359E-01 6.44914E-14 2.21815E-13
 -1       391 2.26691E+01-1.02147E-01-2.77611E-03-7.74798E-01 1.06920E-13 1.70273E-13
 -1       392 2.31143E+01-2.26550E-01-4.28118E-03-5.54849E-01-5.36925E-14 1.56573E-13
 -1       393 2.34521E+01-3.75297E-01-5.26345E-03-1.48923E-01-5.46056E-14 2.29536E-13
 -1       394 2.35979E+01-4.93874E-01-5.24158E-03 4.43489E-01 2.49518E-14 3.63728E-13
 -1       395 2.34612E+01-4.77962E-01-3.64945E-03 1.12053E+00 1.73059E-13 2.88411E-13
 -1       396 2.30044E+01-2.24722E-01-1.67904E-03 1.63012E+00 1.14560E-13 2.20971E-13
 -1       397 2.23308E+01 2.57077E-01-2.83141E-04 1.64134E+00-8.53941E-14 1.97218E-13
 -1       398 2.17332E+01 7.45616E-01 6.12078E-04 9.62910E-01-7.67641E-14 3.00602E-13
 -1       399 2.15591E+01 9.12958E-01 1.23473E-03-1.93035E-01 9.47827E-14 2.48550E-13
 -1       400 2.19309E+01 6.28250E-01 2.04696E-03-1.25905E+00 2.95529E-13 1.28645E-13
 -1       401 2.26212E+01 1.09439E-01 2.76453E-03-1.73715E+00 9.66554E-14-2.46981E-14
 -1       402 2.32683E+01-3.19543E-01 1.73523E-04-1.54855E+00-8.44036E-14-1.13424E-13
 -1       403 2.36392E+01-4.97088E-01-3.98366E-03-9.59877E-01-1.46941E-13-1.65243E-13
 -1       404 2.36928E+01-4.61088E-01-6.34822E-03-2.97599E-01-2.77235E-14-9.60529E-14
 -1       405 2.34975E+01-3.23952E-01-6.10037E-03 2.32733E-01 1.69761E-13 1.81174E-13
 -1       406 2.31480E+01-1.76585E-01-4.48442E-03 5.65779E-01 2.26996E-13 1.98593E-13
 -1       407 2.27249E+01-6.18448E-02-2.50990E-03 7.21489E-01 1.34703E-13 3.62850E-13
 -1       408 2.22856E+01 1.17993E-02-8.63092E-04 7.50390E-01-1.30322E-14 2.93558E-13
 -1       409 2.18669E+01 5.14321E-02 2.59007E-04 7.02593E-01 4.32313E-14-1.06724E-13
 -1       410 2.14897E+01 6.77599E-02 8.91310E-04 6.16377E-01 6.47562E-14-1.07960E-13
 -1       411 2.11633E+01 7.00539E-02 1.16171E-03 5.16989E-01-2.88993E-14-6.42034E-14
 -1       412 2.08900E+01 6.48835E-02 1.20242E-03 4.19262E-01 2.92484E-14-5.67974E-14
 -1       413 2.06671E+01 5.64018E-02 1.11618E-03 3.30853E-01 1.98906E-13 2.84524E-14
 -1       414 2.04895E+01 4.70198E-02 9.71747E-04 2.54924E-01 1.04775E-13 1.56646E-14
 -1       415 2.03509E+01 3.80224E-02 8.10599E-04 1.92029E-01-8.73806E-14 8.45152E-14
 -1       416 2.02451E+01 3.00141E-02 6.55392E-04 1.41342E-01-5.02158E-14-4.42271E-15
 -1       417 2.01660E+01 2.32101E-02 5.16968E-04 1.01402E-01-3.15050E-13-8.38481E-14
 -1       418 2.01082E+01 1.76147E-02 3.99243E-04 7.05458E-02-1.00995E-13 1.50440E-13
 -1       419 2.00671E+01 1.31264E-02 3.02313E-04 4.71424E-02 3.35342E-14-2.78769E-14
 -1       420 2.00388E+01 9.59664E-03 2.24205E-04 2.97172E-02 2.37275E-13 2.12179E-13
 -1       421 2.00203E+01 6.86153E-03 1.61923E-04 1.70053E-02 4.03780E-13 3.08246E-13
 -1       422 2.00088E+01 4.75476E-03 1.11936E-04 7.97059E-03 4.30415E-13 5.88118E-13
 -1       423 2.00025E+01 3.09926E-03 7.21037E-05 1.81175E-03 2.59996E-13 2.06273E-13
 -1       424 1.99996E+01 1.70095E-03 3.91371E-05-2.00519E-03 2.14060E-13 2.08271E-13
 -1       425 1.99988E+01 2.87314E-04 1.87478E-05-3.74144E-03 2.99228E-14 3.14187E-13
 -1       426 1.99991E+01-8.36165E-04-1.78084E-06-3.80995E-03-1.56562E-13 4.27016E-13
 -1       427 2.00018E+01 2.54142E-03 1.44925E-05-1.49037E-04 2.01876E-14 3.95054E-13
 -1       428 2.00018E+01 7.11982E-04 7.10748E-06-2.14309E-03-1.14510E-13 1.00094E-12
 -1       429 2.00007E+01-5.58250E-04-9.29836E-07-3.51888E-03-1.74490E-13 6.07140E-13
 -1       430 2.00012E+01 4.83588E-03 1.12787E-05 1.42803E-03-8.90618E-14-3.73410E-13
 -1       431 2.00002E+01 7.20993E-03 5.44369E-06 2.10441E-03 1.56804E-14 2.60618E-13
 -1       432 1.99993E+01 9.14045E-03-3.87874E-07 1.77316E-03-2.93799E-14-1.24888E-13
 -1       433 1.99988E+01 1.02200E-02-4.04632E-06 6.93298E-04-2.21385E-13-2.26199E-13
 -1       434 1.99988E+01 1.02193E-02-4.11237E-06-6.60809E-04-1.86007E-13-1.80927E-13
 -1       435 1.99993E+01 9.13867E-03-4.83892E-07-1.74137E-03-2.44022E-13-4.29218E-13
 -1       436 2.00002E+01 7.24915E-03 5.22029E-06-2.07801E-03 2.66394E-14-3.71973E-13
 -1       437 2.00011E+01 4.87765E-03 9.77159E-06-1.42694E-03 2.79249E-13 1.83590E-13
 -1       438 2.00018E+01 2.55754E-03 1.15448E-05 1.58931E-04 7.57474E-14 1.82243E-13
 -1       439 2.00018E+01 6.19584E-04 2.67190E-06 2.24869E-03-1.40941E-13-7.44614E-14
 -1       440 1.09424E+01-5.41505E+00-1.76402E-02 6.89720E+00 2.07057E-14 7.48859E-13
 -1       441 1.37136E+00-4.04085E+00-2.15471E-02-3.86072E-01 6.57018E-14 2.22433E-13
 -1       442 5.06748E+00-4.38317E+00 2.39826E-02 4.97044E+00 1.10037E-13 5.00461E-13
 -1       443 1.89627E+01-5.31191E+00-2.44034E-02 6.56540E+00 1.12091E-13 8.03538E-13
 -1       444 2.64562E+01-3.55017E+00-7.92060E-03 4.29589E+00 4.10671E-13-1.38139E-13
 -1       445 1.98451E+01 3.48096E+00-1.73665E-02-1.59683E+00-2.28302E-13-3.94973E-13
 -1       446 3.38212E+01 4.08936E+00-2.04972E-02-3.56632E-01 5.76025E-13-3.99764E-13
 -1       447 3.45047E+01 7.78333E+00-3.84239E-02-2.49914E-01 7.39131E-13-2.11331E-13
 -1       448 3.52310E+01 7.48252E+00 3.20570E-02 3.46525E-01 6.60916E-13-1.33615E-13
 -1       449 3.37037E+01 3.93350E+00-8.78118E-03 3.44088E-01 5.41733E-13-8.66807E-14
 -1       450 3.01467E+01-1.65359E+00-2.54640E-02-1.95220E+00 3.64465E-13 5.57332E-14
 -1       451 2.41357E+01-4.19795E+00-1.79616E-02-5.35092E+00 1.93331E-13-2.26805E-13
 -1       452 1.69587E+01-5.42038E+00-2.10961E-02-6.79655E+00-1.63758E-13-5.35794E-13
 -1       453 7.91505E+00-4.90744E+00 1.87721E-02-6.26542E+00-2.44596E-13-7.47846E-13
 -1       454 2.25365E+00-5.03878E+00-1.09240E-01-3.20379E+00-1.48950E-13-1.10287E-12
 -1       455 1.20277E+00-4.44863E+00-7.53026E-02 8.39182E-01-5.80005E-14-8.68750E-13
 -1       456 5.13564E+00-5.01717E+00-4.92888E-02 5.28237E+00-7.98250E-14-6.20115E-13
 -1       457 1.23600E+01-5.51534E+00 1.16372E-03 7.13682E+00-1.71696E-13-3.16216E-13
 -1       458 2.09547E+01-5.32582E+00 8.96965E-03 6.22990E+00-1.04278E-13-2.04683E-13
 -1       459 2.72305E+01-3.25954E+00-2.72722E-02 3.85374E+00-1.83020E-13-4.92939E-14
 -1       460 3.22545E+01 1.29263E+00-3.75482E-02 5.54257E-01-2.23661E-13 3.44724E-14
 -1       461 3.52125E+01 6.57504E+00 4.96373E-02-8.07749E-02-8.03954E-13-6.61693E-14
 -1       462 3.53560E+01 8.04002E+00 4.13631E-02-2.17434E-02-8.94868E-13-1.60609E-13
 -1       463 3.39607E+01 6.56894E+00-6.22387E-02 6.13894E-01-7.12597E-13-1.71758E-13
 -1       464 3.23064E+01 1.57522E+00-3.78260E-02-7.28563E-01-4.58772E-13-2.52173E-13
 -1       465 2.88307E+01-2.02418E+00 2.37983E-02-3.40600E+00-2.84009E-13 9.44522E-14
 -1       466 2.09130E+01-5.06509E+00-1.61389E-02-6.23988E+00 1.11133E-13 1.32519E-13
 -1       467 1.12055E+01-5.65205E+00-9.14907E-02-6.86675E+00 9.92539E-14 6.52738E-13
 -1       468 4.80932E+00-4.56169E+00-8.76799E-03-5.00611E+00 9.20375E-14 7.49831E-13
 -1       469 3.19708E+01 5.83756E-01 5.42045E-02 2.19278E+00 6.13197E-13-3.14387E-13
 -1       470 4.57406E+00-2.05515E+00 1.40375E-01 2.71539E+00 9.54202E-14 5.81007E-13
 -1       471 3.08274E+01 3.33499E+00-1.09646E-01 1.79641E+00-4.75994E-13-4.71713E-13
 -1       472 1.45014E+01-5.09030E+00 7.53833E-02-7.01574E+00-5.42566E-13-4.31225E-13
 -1       473 3.07346E+01 5.78254E+00-1.49188E-01-1.61211E+00 5.79911E-13-2.93224E-13
 -1       474 3.10897E+01 3.45149E+00-1.07793E-01-1.56437E+00-3.13048E-13 2.94313E-13
 -1       475 2.05035E+01 8.70336E-01 4.14088E-03 8.00195E-01 2.58752E-13 1.55562E-13
 -1       476 1.96404E+01 3.28234E+00-5.04177E-03-5.27176E-01-5.00173E-14-3.62258E-13
 -1       477 1.97861E+01 3.07530E+00-5.49748E-03-8.03985E-01-1.17537E-13-3.80304E-13
 -1       478 1.95282E+01 3.43449E+00-4.63500E-03 8.43468E-03 9.66866E-14-3.37631E-13
 -1       479 1.95587E+01 3.39405E+00-4.73404E-03 2.73441E-01 1.59904E-13-3.31057E-13
 -1       480 1.96453E+01 3.27601E+00-5.10367E-03 5.39050E-01 2.21132E-13-3.00861E-13
 -1       481 1.97928E+01 3.06506E+00-5.73975E-03 8.15295E-01 2.97067E-13-2.14169E-13
 -1       482 2.00041E+01 2.73932E+00-6.41013E-03 1.08734E+00 3.31265E-13-1.44229E-13
 -1       483 2.02963E+01 2.25150E+00-5.64866E-03 1.32728E+00 3.43055E-13-4.30600E-14
 -1       484 2.02983E+01 5.15420E-01 5.35543E-03 2.47928E-01 1.92527E-13 1.48244E-13
 -1       485 2.04659E+01 1.03199E+00 2.90619E-03-7.44242E-01-2.36980E-13-1.35314E-13
 -1       486 3.01811E+01 3.55648E-01-1.24160E-01-1.16026E+00 4.75637E-13-4.96742E-13
 -1       487 2.03394E+01 6.33767E-01 2.55416E-03-2.18656E-01-1.64085E-13-1.26127E-13
 -1       488 2.02514E+01 4.21830E-01 1.38477E-03 1.53328E-01-1.23765E-13-1.37849E-13
 -1       489 2.02261E+01 3.09762E-01 8.05698E-04 4.24153E-01-1.05989E-13-1.15905E-13
 -1       490 2.02609E+01 2.51588E-01 5.65409E-04 6.34571E-01-5.51744E-14-6.07006E-14
 -1       491 2.03485E+01 2.21006E-01 4.62961E-04 8.10197E-01-6.43728E-14-9.65363E-14
 -1       492 2.04828E+01 1.98323E-01 3.83823E-04 9.64495E-01-3.22685E-14-1.38983E-13
 -1       493 2.06619E+01 1.64316E-01 2.55739E-04 1.09992E+00-4.88547E-14-1.45588E-13
 -1       494 2.08887E+01 9.69098E-02 1.43924E-05 1.20742E+00-7.27453E-14-9.37058E-14
 -1       495 2.11725E+01-2.97115E-02-4.11796E-04 1.26467E+00-3.66853E-14-8.89742E-15
 -1       496 2.15289E+01-2.41622E-01-1.08562E-03 1.23394E+00 4.57766E-15 6.16379E-14
 -1       497 2.19762E+01-5.53120E-01-2.00360E-03 1.06155E+00 1.75736E-16 1.21563E-14
 -1       498 2.25233E+01-9.39932E-01-2.56440E-03 6.83222E-01-5.30305E-15 8.21726E-14
 -1       499 2.31369E+01-1.29552E+00-3.91561E-03 4.69065E-02 2.31694E-14 1.37939E-13
 -1       500 2.37027E+01-1.38433E+00-2.41744E-03-8.15549E-01 2.04410E-14 1.15200E-13
 -1       501 2.40156E+01-9.20008E-01-6.78022E-03-1.70139E+00-9.57426E-14 8.85234E-14
 -1       502 2.39188E+01 2.36115E-01-1.10221E-02-2.14438E+00-8.62817E-14 8.16818E-14
 -1       503 2.34844E+01 1.71698E+00-1.73737E-02-1.64556E+00-1.36956E-13 1.30559E-13
 -1       504 2.31984E+01 2.52406E+00-2.18682E-02-2.07576E-01-1.28842E-13-6.81101E-14
 -1       505 2.33830E+01 2.03731E+00-1.89272E-02 1.37481E+00-3.42920E-14-2.23742E-13
 -1       506 2.38335E+01 6.51792E-01-1.06434E-02 2.16043E+00 2.78683E-15-1.22740E-13
 -1       507 2.40676E+01-6.66217E-01-1.63840E-03 1.92823E+00-8.86522E-14-1.52776E-13
 -1       508 2.38555E+01-1.31152E+00-4.46341E-03 1.12261E+00-1.38046E-13-3.25049E-13
 -1       509 2.33476E+01-1.33207E+00-3.91436E-03 2.36007E-01 1.15757E-13-4.31302E-13
 -1       510 2.27472E+01-1.01552E+00-3.07244E-03-4.51525E-01 7.69823E-14-2.28616E-13
 -1       511 2.21937E+01-6.18484E-01-2.10973E-03-8.76091E-01 1.77953E-14-1.22204E-13
 -1       512 2.17377E+01-2.78813E-01-1.18826E-03-1.07636E+00-7.92552E-14-5.56178E-14
 -1       513 2.13778E+01-3.92411E-02-4.52916E-04-1.11754E+00-3.92434E-15-1.88593E-14
 -1       514 2.10951E+01 1.06130E-01 2.36359E-05-1.05937E+00-1.27827E-14-6.61689E-14
 -1       515 2.08703E+01 1.80007E-01 2.93362E-04-9.47233E-01 6.69529E-14-1.44003E-13
 -1       516 2.06889E+01 2.06088E-01 4.16516E-04-8.12340E-01-5.31957E-14-6.93539E-14
 -1       517 2.05412E+01 2.03353E-01 4.46384E-04-6.74529E-01 1.16401E-14 1.72600E-15
 -1       518 2.04206E+01 1.85166E-01 4.22882E-04-5.45346E-01-6.24665E-14 2.26528E-13
 -1       519 2.03227E+01 1.60178E-01 3.73336E-04-4.30675E-01 6.12640E-14 3.33260E-13
 -1       520 2.02438E+01 1.33601E-01 3.14503E-04-3.32745E-01 2.47036E-13 3.70907E-13
 -1       521 2.01812E+01 1.08338E-01 2.56061E-04-2.51561E-01-5.49490E-14 1.23301E-13
 -1       522 2.01322E+01 8.58251E-02 2.02950E-04-1.85880E-01 1.94706E-13 1.24130E-13
 -1       523 2.00944E+01 6.66030E-02 1.57234E-04-1.33859E-01-1.07196E-14 1.95572E-13
 -1       524 2.00659E+01 5.06946E-02 1.19310E-04-9.34519E-02 1.36838E-14 2.69199E-13
 -1       525 2.00448E+01 3.78398E-02 8.85427E-05-6.26597E-02-9.28313E-14 7.31094E-14
 -1       526 2.00295E+01 2.76352E-02 6.42551E-05-3.96656E-02 3.24587E-13 5.10905E-14
 -1       527 2.00187E+01 1.96165E-02 4.53908E-05-2.29074E-02 1.29188E-13 2.67800E-13
 -1       528 2.00112E+01 1.32728E-02 3.10625E-05-1.11143E-02 8.45151E-14 2.44551E-13
 -1       529 2.00063E+01 8.08130E-03 2.23300E-05-3.31193E-03 1.72150E-14 3.21731E-13
 -1       530 1.11222E+01-3.30202E+00 1.47466E-01 6.12309E+00 3.93713E-14 7.03743E-13
 -1       531 2.01637E+01 2.39443E-01 1.51056E-03-3.79077E-01 1.23510E-13 7.84223E-14
 -1       532 2.02229E+01 1.94621E-01 9.89238E-04-5.77581E-01 1.14022E-13 4.60722E-14
 -1       533 2.03485E+01 1.74917E-01 7.88093E-04-7.43904E-01 7.30025E-14 1.49085E-15
 -1       534 2.05302E+01 1.64777E-01 6.66033E-04-8.93321E-01 4.29182E-14 2.59711E-14
 -1       535 2.07621E+01 1.49601E-01 4.95719E-04-1.02997E+00 4.41813E-14 1.17244E-13
 -1       536 2.10423E+01 1.12113E-01 1.77144E-04-1.14651E+00 9.61490E-14 1.13950E-13
 -1       537 2.13726E+01 3.06013E-02-3.85862E-04-1.22205E+00 9.79705E-14 9.52793E-14
 -1       538 2.17589E+01-1.19869E-01-1.25319E-03-1.21938E+00 4.39014E-14 9.84536E-14
 -1       539 2.22082E+01-3.59595E-01-2.35076E-03-1.08383E+00-5.83610E-15 2.03819E-13
 -1       540 2.27210E+01-6.83486E-01-3.36686E-03-7.48204E-01-8.37340E-14 1.30495E-13
 -1       541 2.32687E+01-1.02165E+00-3.68512E-03-1.57477E-01-9.52127E-14 1.68347E-13
 -1       542 2.37641E+01-1.20657E+00-4.72180E-03 6.83067E-01 9.32761E-14 1.75582E-13
 -1       543 2.40277E+01-9.45556E-01-4.43139E-03 1.59209E+00 1.42287E-13 4.38325E-13
 -1       544 2.39081E+01-7.52361E-02-8.01221E-03 2.15180E+00 1.17976E-14 3.35407E-13
 -1       545 2.34592E+01 1.19785E+00-1.23045E-02 1.84224E+00-1.21034E-13 2.41856E-13
 -1       546 2.30795E+01 2.09789E+00-1.38816E-02 5.50097E-01 1.34279E-13 2.42919E-13
 -1       547 2.31674E+01 1.90762E+00-1.61524E-02-1.08650E+00 2.33425E-13 4.89214E-14
 -1       548 2.36386E+01 7.86563E-01-1.24482E-02-2.09567E+00 3.23817E-13 2.08199E-14
 -1       549 2.40267E+01-4.19537E-01-4.46415E-03-2.08307E+00 1.03767E-13-1.00912E-13
 -1       550 2.40224E+01-1.08284E+00-3.79784E-03-1.36019E+00-6.09235E-15-3.15263E-13
 -1       551 2.36775E+01-1.16241E+00-5.30077E-03-4.53579E-01-4.34107E-14-3.53606E-13
 -1       552 2.31725E+01-9.01263E-01-4.75696E-03 3.00132E-01 2.96920E-15-3.53852E-13
 -1       553 2.26516E+01-5.49037E-01-3.60621E-03 7.88651E-01 2.75459E-14-2.62547E-13
 -1       554 2.21832E+01-2.44886E-01-2.08047E-03 1.03247E+00 2.29829E-14 1.54969E-13
 -1       555 2.17826E+01-3.27727E-02-8.33667E-04 1.09709E+00 1.26097E-13 1.25114E-13
 -1       556 2.14451E+01 9.28896E-02 3.14300E-05 1.04857E+00 1.67164E-13 1.44700E-13
 -1       557 2.11611E+01 1.54214E-01 5.30713E-04 9.38778E-01 1.18786E-13 7.29002E-14
 -1       558 2.09228E+01 1.73800E-01 7.57437E-04 8.03382E-01-1.21252E-13 1.25113E-13
 -1       559 2.07238E+01 1.69180E-01 8.09703E-04 6.64614E-01 8.90678E-15 2.66557E-13
 -1       560 2.05596E+01 1.52242E-01 7.63816E-04 5.35009E-01 1.33931E-13 1.63093E-13
 -1       561 2.04257E+01 1.30368E-01 6.71089E-04 4.20663E-01 1.91520E-13 1.82151E-13
 -1       562 2.03183E+01 1.07807E-01 5.62889E-04 3.23664E-01 1.56626E-13 1.21163E-13
 -1       563 2.02335E+01 8.67978E-02 4.56665E-04 2.43776E-01-8.95100E-15 9.95920E-15
 -1       564 2.01677E+01 6.83573E-02 3.60979E-04 1.79528E-01-4.48359E-14 9.07154E-14
 -1       565 2.01177E+01 5.27961E-02 2.79156E-04 1.28907E-01-3.22626E-13-1.11787E-13
 -1       566 2.00803E+01 4.00373E-02 2.11601E-04 8.97633E-02-5.14660E-14 1.55383E-13
 -1       567 2.00531E+01 2.98068E-02 1.57269E-04 6.00395E-02 9.56374E-14 1.54960E-13
 -1       568 2.00337E+01 2.17426E-02 1.14113E-04 3.78977E-02-3.91945E-15 2.53578E-13
 -1       569 2.00204E+01 1.54521E-02 7.96718E-05 2.17739E-02 2.22000E-13 6.24523E-13
 -1       570 2.00116E+01 1.05350E-02 5.51201E-05 1.04055E-02 3.51857E-13 7.62669E-13
 -1       571 2.00060E+01 6.57140E-03 3.76969E-05 2.80329E-03 1.79127E-13 6.76087E-13
 -1       572 2.00027E+01 3.05185E-03 2.02612E-05-1.72470E-03 3.74000E-14 8.36130E-13
 -1       573 2.00011E+01 1.65926E-02 2.94275E-06 4.83312E-03 2.08489E-13 2.38727E-13
 -1       574 1.99991E+01 2.04748E-02 5.90606E-07 4.34950E-03 1.77608E-13 6.61127E-14
 -1       575 2.00040E+01 7.48371E-03-6.95631E-06 1.52041E-03-1.41077E-13 6.01068E-13
 -1       576 2.00030E+01 1.20438E-02 4.48932E-06 3.81324E-03-2.65761E-13 1.05498E-13
 -1       577 1.99976E+01 2.30665E-02-1.36594E-06 2.55506E-03-7.51132E-14-4.47141E-13
 -1       578 1.99970E+01 2.39692E-02-2.25635E-06 1.14223E-05-4.54323E-14-8.58524E-14
 -1       579 1.99976E+01 2.30434E-02-1.33428E-06-2.53093E-03 3.17564E-15-2.03528E-13
 -1       580 1.99990E+01 2.04936E-02 7.50978E-07-4.30211E-03 2.64166E-13-3.17278E-13
 -1       581 2.00011E+01 1.66107E-02 5.68267E-07-4.80384E-03 2.67929E-13-2.15812E-13
 -1       582 2.00030E+01 1.20773E-02-2.07458E-06-3.77570E-03-2.03784E-13-2.34017E-13
 -1       583 2.00039E+01 7.59383E-03 6.57874E-06-1.56745E-03-4.19335E-13 1.06262E-13
 -1       584 5.76503E+00-1.39845E+00 1.90803E-01-2.77846E+00 4.22024E-14 1.83881E-13
 -1       585 2.01848E+01 3.32100E-01 2.83671E-03-1.19809E-01 1.43960E-13 1.06356E-13
 -1       586 1.83460E+01-5.19207E+00 9.52998E-02 6.37910E+00-9.90180E-14 5.87952E-13
 -1       587 1.13939E+01-3.89456E+00 1.16963E-01-6.55591E+00 2.82802E-13 5.62758E-13
 -1       588 2.04845E+01 1.79464E+00-6.00901E-03-1.37179E+00-2.80854E-13-2.01451E-13
 -1       589 2.37541E+01-5.51320E+00 1.11624E-02 4.45689E+00 3.03854E-14-9.91256E-14
 -1       590 1.87742E+01-5.38660E+00 7.35543E-02 6.41072E+00 2.45144E-13 1.36412E-13
 -1       591 2.68019E+01-4.41997E+00-4.15612E-02-2.43818E+00-7.98979E-14 2.13732E-13
 -1       592 1.95554E+01 3.39816E+00-4.73616E-03-2.56735E-01 2.42913E-14-3.41364E-13
 -1       593 2.97521E+01 9.17314E-02-1.38170E-01 1.35253E+00 2.65590E-13 2.27769E-13
 -1       594 2.99724E+01 7.02404E+00-1.81181E-01 2.74940E-01 5.25260E-13-9.55009E-14
 -1       595 7.53858E+00-2.33146E+00 1.74566E-01-4.64293E+00-3.62183E-13-7.41074E-13
 -1       596 3.04402E+01 5.14352E+00-1.47747E-01 1.74708E+00 4.66863E-13 1.69607E-13
 -1       597 2.28705E+01-5.55388E+00 5.54434E-02-5.09767E+00-4.61714E-13-1.32351E-13
 -1       598 4.91982E+00-1.33347E+00 1.86867E-01-1.32189E+00-1.33903E-13-8.25506E-13
 -1       599 5.94186E+00-1.82718E+00 1.69235E-01 3.46840E+00 2.31926E-13-5.81049E-13
 -1       600 1.11937E+01-3.67815E+00 1.30745E-01 6.45322E+00 2.87714E-13-3.15817E-13
 -1       601 2.53480E+01-5.14114E+00 5.63086E-03 3.52273E+00 3.23942E-13 4.23855E-13
 -1       602 1.84892E+01-5.43916E+00 6.05108E-02-6.52289E+00 3.77857E-13 1.34425E-13
 -1       603 2.89454E+01-2.34841E+00-7.09514E-02 2.17746E-01 1.57822E-13 4.24487E-13
 -1       604 2.99370E+01 6.58600E+00-1.80673E-01-1.07502E+00-6.99690E-13 1.32526E-13
 -1       605 2.94843E+01 6.76219E+00-1.96850E-01 7.31658E-01-7.91228E-13-6.01758E-14
 -1       606 2.92503E+01-1.90759E+00-8.94346E-02 2.00738E-03-2.93760E-13-5.70564E-13
 -1       607 2.58586E+01-4.90367E+00-5.28790E-03-3.41193E+00 1.51566E-13 6.63081E-14
 -1       608 2.06825E+01 1.32174E+00-8.62477E-04 1.40642E+00 3.24347E-13 2.35507E-13
 -1       609 2.85426E+01-3.20644E+00-4.69437E-02 9.40651E-01 3.57471E-13-5.48075E-13
 -1       610 1.99853E+01 2.75421E+00-9.39326E-03-1.07059E+00-1.90808E-13-3.65292E-13
 -1       611 9.20397E+00-1.44069E+00 1.59330E-01 4.44449E+00-2.90046E-14 4.54331E-13
 -1       612 1.01439E+01-1.65679E+00 1.46677E-01-4.82311E+00 3.34278E-13 5.60434E-13
 -1       613 2.00039E+01 4.85373E-03 1.44466E-05 1.92015E-04-1.14825E-13 3.71708E-13
 -1       614 2.81358E+01 4.60124E+00-1.47175E-01 1.97036E+00-3.64195E-13-2.16702E-13
 -1       615 6.69530E+00-3.06073E-01 1.85593E-01 1.03298E-02 2.28007E-13 5.47375E-13
 -1       616 2.81255E+01-2.79247E+00-3.82247E-02 4.39148E-01-2.62715E-14 2.29608E-13
 -1       617 1.20933E+01-2.95910E+00 1.24382E-01-5.93744E+00-5.09724E-13-3.86566E-13
 -1       618 2.88322E+01 2.48298E+00-1.36567E-01-2.42880E+00 4.25687E-13-3.83943E-13
 -1       619 2.80605E+01 5.90782E+00-1.60419E-01-1.04517E+00 5.47958E-13-3.56779E-13
 -1       620 2.87685E+01-1.69470E-01-1.03682E-01-1.66348E+00 8.58827E-14 4.69375E-13
 -1       621 1.97989E+01 2.71115E+00-1.48092E-03 2.89452E-01 1.74497E-13-2.78078E-13
 -1       622 1.97379E+01 2.80482E+00-1.39848E-03 9.98396E-02 1.08662E-13-2.88877E-13
 -1       623 2.00826E+01 2.22462E+00-1.56461E-03 6.49330E-01 2.73825E-13-1.50487E-13
 -1       624 2.02752E+01 1.80096E+00-2.17887E-03 7.76566E-01 2.90351E-13-9.61876E-14
 -1       625 2.04215E+01 1.13126E+00 2.87569E-03 6.04225E-01 2.43594E-13-7.42304E-15
 -1       626 1.64494E+01-3.77411E+00 8.67529E-02 5.98413E+00 3.49384E-13 1.09433E-13
 -1       627 2.77876E+01-1.88677E+00-7.57525E-02-1.37441E+00 3.79816E-13-3.08881E-13
 -1       628 2.03406E+01 7.48248E-01 1.27258E-03 1.28200E-01 1.75573E-13-2.91459E-14
 -1       629 2.78654E+01 2.17788E+00-1.21562E-01 2.41575E+00 2.65676E-13 3.15928E-13
 -1       630 2.03335E+01 8.43624E-01 6.85907E-04-7.72759E-02-1.43769E-13-2.22978E-13
 -1       631 2.02849E+01 6.07205E-01 2.88586E-04 2.66302E-01-8.99945E-14-1.77473E-13
 -1       632 2.02493E+01 4.74066E-01 1.90481E-04 5.37577E-01-2.39952E-14-1.11915E-13
 -1       633 2.02363E+01 4.01270E-01 1.51712E-04 7.61905E-01-8.08711E-14-1.00094E-13
 -1       634 2.02490E+01 3.58303E-01 1.40984E-04 9.58203E-01-4.95781E-14-1.13905E-13
 -1       635 2.02911E+01 3.17765E-01 1.27661E-04 1.13734E+00 1.07150E-14-7.86050E-14
 -1       636 2.03713E+01 2.50250E-01 8.85828E-05 1.30161E+00-5.48950E-14 2.22881E-14
 -1       637 2.05075E+01 1.21094E-01-2.28964E-06 1.44347E+00 2.19020E-14 1.79904E-14
 -1       638 2.07316E+01-1.09759E-01-2.06303E-04 1.54291E+00-3.13909E-14 4.05018E-14
 -1       639 2.10921E+01-4.81105E-01-5.97454E-04 1.56217E+00 2.40364E-15 2.17436E-14
 -1       640 2.16493E+01-1.00953E+00-1.26411E-03 1.43928E+00 3.49457E-14 4.30303E-14
 -1       641 2.24632E+01-1.64678E+00 3.87084E-04 1.08074E+00 7.14049E-14 5.49936E-14
 -1       642 2.35038E+01-2.17575E+00-3.63080E-03 3.45775E-01 3.47829E-14 3.89732E-14
 -1       643 2.45769E+01-2.21780E+00-5.82134E-03-7.12403E-01-6.09348E-14 1.24822E-13
 -1       644 2.52874E+01-9.69711E-01-2.01011E-02-1.95229E+00-2.62308E-14 2.70607E-13
 -1       645 2.53392E+01 1.35554E+00-5.69830E-02-2.47397E+00 3.22398E-15 4.00245E-13
 -1       646 2.48871E+01 3.67073E+00-8.30603E-02-1.32338E+00-2.76012E-13 4.14375E-13
 -1       647 2.48523E+01 4.00131E+00-7.65298E-02 8.14676E-01-4.15109E-13 2.29273E-13
 -1       648 2.51606E+01 2.02642E+00-7.33110E-02 2.33583E+00-7.37015E-14-1.07337E-13
 -1       649 2.53790E+01-4.66337E-01-4.57759E-02 2.27245E+00-1.21097E-13-3.55384E-13
 -1       650 2.48860E+01-1.95964E+00-8.08587E-03 1.18329E+00-1.42784E-13-4.66571E-13
 -1       651 2.38224E+01-2.22073E+00-4.24510E-03-2.66175E-02-8.59854E-15-1.04091E-13
 -1       652 2.27392E+01-1.76986E+00-1.92423E-03-8.37044E-01 2.25686E-13 2.25998E-14
 -1       653 2.18638E+01-1.12623E+00-1.02357E-03-1.26448E+00 7.63283E-14 8.25249E-14
 -1       654 2.12447E+01-5.54261E-01-5.96661E-04-1.42077E+00-4.60206E-14-5.51996E-14
 -1       655 2.08390E+01-1.38009E-01-1.89995E-04-1.41106E+00-6.92309E-14 5.61879E-14
 -1       656 2.05829E+01 1.25139E-01 1.24713E-05-1.30892E+00 9.45914E-14 1.94842E-13
 -1       657 2.04220E+01 2.68456E-01 1.11356E-04-1.16104E+00-3.67240E-14 1.29673E-13
 -1       658 2.03181E+01 3.28834E-01 1.51334E-04-9.96350E-01 3.01294E-14 9.79685E-14
 -1       659 2.02475E+01 3.36928E-01 1.58653E-04-8.32476E-01-1.22639E-13 1.11173E-14
 -1       660 2.01963E+01 3.15134E-01 1.48411E-04-6.79718E-01 5.03066E-14 1.49142E-13
 -1       661 2.01569E+01 2.78538E-01 1.30494E-04-5.43504E-01-6.77600E-14 1.56475E-13
 -1       662 2.01252E+01 2.36662E-01 1.09694E-04-4.26039E-01-6.41329E-14-2.30426E-14
 -1       663 2.00993E+01 1.95135E-01 8.92582E-05-3.27445E-01-4.07440E-14-3.95735E-13
 -1       664 2.00779E+01 1.57007E-01 7.07950E-05-2.46574E-01 9.53215E-14-4.07291E-13
 -1       665 2.00604E+01 1.23679E-01 5.49379E-05-1.81581E-01 7.93742E-14-3.87610E-13
 -1       666 2.00461E+01 9.55464E-02 4.18080E-05-1.30331E-01-5.90726E-14-5.06510E-13
 -1       667 2.00346E+01 7.24220E-02 3.11303E-05-9.06532E-02-1.10304E-13-4.05815E-13
 -1       668 2.00255E+01 5.37988E-02 2.21261E-05-6.05115E-02 3.42275E-13-4.50720E-15
 -1       669 2.00183E+01 3.90047E-02 1.49845E-05-3.81026E-02 3.84374E-13 1.20718E-13
 -1       670 2.00127E+01 2.73083E-02 1.79389E-05-2.18833E-02 1.01316E-13 2.49753E-13
 -1       671 2.00084E+01 1.79040E-02 5.35323E-06-1.06738E-02 1.02630E-13 4.24243E-13
 -1       672 2.28660E+01-5.16274E+00 2.71812E-02-4.29402E+00 3.90441E-13 8.48462E-14
 -1       673 2.02537E+01 4.06386E-01 3.56516E-04-5.03182E-01 1.17272E-13-4.24037E-14
 -1       674 2.03875E+01 2.94378E-01 2.44605E-04-1.10524E+00-1.87367E-14-2.03609E-14
 -1       675 2.05054E+01 2.55080E-01 1.80900E-04-1.27308E+00 4.95436E-14 3.90281E-15
 -1       676 2.06724E+01 1.67810E-01 4.71060E-05-1.42050E+00 1.05383E-13 5.47113E-14
 -1       677 2.09118E+01-5.07376E-03-1.96300E-04-1.52659E+00-1.49158E-14 1.03677E-13
 -1       678 2.12617E+01-3.04443E-01-5.50622E-04-1.55286E+00-2.57050E-14 1.51656E-13
 -1       679 2.17737E+01-7.58130E-01-9.66686E-04-1.43787E+00-2.23325E-14 1.90164E-13
 -1       680 2.25021E+01-1.34333E+00-8.54817E-04-1.09041E+00-1.14911E-13 2.04783E-13
 -1       681 2.34470E+01-1.90458E+00 1.14895E-03-4.28083E-01-8.85811E-14 2.15468E-13
 -1       682 2.44606E+01-2.07705E+00-6.40921E-03 6.60759E-01-1.74038E-14 4.30054E-13
 -1       683 2.51749E+01-1.32864E+00-2.00852E-02 1.81005E+00 1.15686E-13 5.79093E-13
 -1       684 2.52507E+01 6.76009E-01-3.91974E-02 2.44831E+00 4.65461E-14 5.27371E-13
 -1       685 2.48257E+01 3.00043E+00-7.77015E-02 1.67286E+00-5.20729E-14 3.23468E-13
 -1       686 2.46382E+01 3.79810E+00-6.75294E-02-3.95534E-01 2.50983E-13 2.50221E-13
 -1       687 2.49034E+01 2.32093E+00-6.36175E-02-2.16916E+00 4.30328E-13 4.58071E-14
 -1       688 2.52647E+01-6.60576E-02-2.96493E-02-2.44250E+00 4.29276E-13 2.73618E-14
 -1       689 2.50250E+01-1.69169E+00-5.73002E-03-1.52413E+00 1.62794E-13-2.20276E-13
 -1       690 2.41641E+01-2.06636E+00-5.63521E-03-3.35042E-01-4.92867E-14-2.59232E-13
 -1       691 2.31573E+01-1.71148E+00-2.17819E-03 5.93337E-01-1.40577E-13-7.91383E-14
 -1       692 2.22859E+01-1.10738E+00-1.86204E-03 1.13784E+00 2.87698E-14-3.48078E-15
 -1       693 2.16407E+01-5.51026E-01-1.00209E-03 1.37719E+00-1.92956E-13 5.51720E-14
 -1       694 2.11953E+01-1.44372E-01-4.88434E-04 1.41650E+00 4.43202E-14 2.19209E-13
 -1       695 2.08943E+01 1.10148E-01-9.78392E-05 1.33764E+00 1.46791E-13 1.37373E-13
 -1       696 2.06873E+01 2.45775E-01 1.32362E-04 1.19705E+00 2.10124E-13 9.95815E-14
 -1       697 2.05387E+01 3.00577E-01 2.40637E-04 1.03111E+00 9.83610E-14 5.03065E-14
 -1       698 2.04265E+01 3.05832E-01 2.74981E-04 8.62239E-01-1.02608E-13-1.20668E-13
 -1       699 2.03382E+01 2.83777E-01 2.68372E-04 7.03464E-01-2.48965E-14 1.69313E-14
 -1       700 2.02668E+01 2.48901E-01 2.41009E-04 5.61592E-01 2.71348E-13 3.12978E-14
 -1       701 2.02084E+01 2.10026E-01 2.05415E-04 4.39384E-01 2.39859E-13-3.12142E-14
 -1       702 2.01608E+01 1.72150E-01 1.68873E-04 3.37066E-01 9.34952E-14 1.65092E-14
 -1       703 2.01223E+01 1.37831E-01 1.35068E-04 2.53392E-01-1.42894E-13 8.39031E-14
 -1       704 2.00914E+01 1.08144E-01 1.05614E-04 1.86348E-01-2.41154E-13 3.18074E-13
 -1       705 2.00672E+01 8.32928E-02 8.09536E-05 1.33621E-01-3.21354E-13 3.10037E-13
 -1       706 2.00484E+01 6.30033E-02 6.08342E-05 9.28879E-02 4.56997E-14 3.70884E-13
 -1       707 2.00341E+01 4.67575E-02 4.49957E-05 6.19902E-02 1.54354E-13 4.21772E-13
 -1       708 2.00234E+01 3.39288E-02 3.21424E-05 3.90244E-02-1.55535E-13-1.05661E-14
 -1       709 2.00156E+01 2.38592E-02 2.38528E-05 2.24011E-02 2.14509E-13 2.66487E-13
 -1       710 2.00099E+01 1.58842E-02 3.26442E-05 1.08336E-02 1.81936E-13 5.61988E-13
 -1       711 2.00066E+01 1.17931E-02 1.64858E-05 5.30019E-03 1.67691E-14 5.57853E-13
 -1       712 1.99941E+01 3.92485E-02-1.49880E-06 2.32681E-03 2.00148E-13-1.16244E-13
 -1       713 2.00060E+01 1.24550E-02-6.53704E-06-5.37184E-03-3.70619E-14 1.38943E-13
 -1       714 1.99992E+01 3.15140E-02-1.53155E-06 9.11908E-03 2.50730E-14 4.21601E-14
 -1       715 1.99941E+01 3.92213E-02-1.12245E-06-2.33432E-03 1.55236E-13-4.44891E-13
 -1       716 1.99959E+01 3.65551E-02-1.28307E-06 6.45968E-03-9.83029E-14-4.93689E-13
 -1       717 1.65126E+01-3.35138E+00 8.02317E-02 5.57633E+00-2.11914E-13 4.00409E-13
 -1       718 1.99959E+01 3.65534E-02-1.03864E-06-6.39618E-03 2.67944E-14-1.35542E-13
 -1       719 1.99991E+01 3.15085E-02-4.70229E-06-9.06441E-03 1.46922E-13-4.64410E-13
 -1       720 2.00028E+01 2.47839E-02-6.47759E-06-9.61469E-03 1.01491E-13-5.29401E-13
 -1       721 2.02812E+01 5.27546E-01 7.29817E-04-2.27672E-01 1.57688E-13-5.18671E-14
 -1       722 2.60216E+01-4.47009E+00-2.24977E-02 1.55284E+00 1.65897E-13-4.07991E-13
 -1       723 1.69035E+01-3.78422E+00 1.00572E-01-5.91860E+00 4.48804E-13 1.78590E-13
 -1       724 2.66196E+01-3.83365E+00-1.90372E-02 8.06700E-01 2.05018E-13 3.32089E-13
 -1       725 2.03414E+01 1.77315E+00 1.01888E-04-9.37007E-01-2.24100E-13-2.82925E-13
 -1       726 8.66363E+00-5.86889E-01 1.51934E-01-2.82135E+00-1.85388E-13-6.98268E-13
 -1       727 2.80336E+01 3.90011E+00-1.35050E-01-2.14466E+00-2.85869E-13 3.86233E-13
 -1       728 2.03078E+01 3.16273E-01 2.76764E-04-9.24627E-01 4.93750E-14-1.90693E-14
 -1       729 2.02628E+01 3.45814E-01 3.05709E-04-7.28150E-01 1.21251E-13-2.68487E-14
 -1       730 2.03650E+01 1.20718E+00-1.40570E-04-4.68699E-01-1.83139E-13-2.44488E-13
 -1       731 2.48868E+01-4.92878E+00 2.31894E-02-2.83304E+00-3.20320E-13 1.57483E-13
 -1       732 2.20528E+01-4.82004E+00 3.57942E-02 4.33203E+00-2.01856E-13-5.01577E-14
 -1       733 1.99163E+01 2.52117E+00-1.57439E-03 4.76244E-01 2.29521E-13-2.07466E-13
 -1       734 1.94747E+01-4.69521E+00 5.61654E-02-5.61778E+00-5.09086E-13-2.43562E-13
 -1       735 1.99106E+01 2.53009E+00-1.50838E-03-4.67768E-01-8.68830E-14-3.16921E-13
 -1       736 2.67866E+01 4.84067E+00-1.65845E-01 1.44142E+00 2.12989E-13 7.73652E-14
 -1       737 2.24584E+01-4.92841E+00 2.98165E-02 4.24174E+00 2.51106E-13 3.32373E-13
 -1       738 2.65682E+01 5.58625E+00-1.54162E-01-3.01563E-01-5.34447E-13 1.41269E-13
 -1       739 2.81996E+01 2.86904E-01-8.60894E-02 2.15545E+00-2.45481E-13-3.00773E-13
 -1       740 1.12355E+01-1.37086E+00 1.32453E-01 4.61832E+00 2.87576E-13-3.84262E-13
 -1       741 8.00083E+00-4.58021E-02 1.47193E-01 1.06609E+00 6.16946E-14-4.14092E-13
 -1       742 2.68548E+01-3.83126E+00-4.01908E-02-5.84075E-01 7.18102E-14-4.73684E-13
 -1       743 2.00799E+01 2.24078E+00-1.10983E-03-6.53513E-01-1.41576E-13-3.18434E-13
 -1       744 1.97371E+01 2.80600E+00-1.38631E-03-8.98164E-02 4.39383E-14-2.84098E-13
 -1       745 2.73283E+01-6.01542E-01-5.16037E-02 2.12426E+00 1.31097E-13 3.84991E-13
 -1       746 1.42313E+01-1.81286E+00 9.81616E-02 4.93175E+00-2.57912E-13 6.04617E-13
 -1       747 8.95545E+00-2.66475E-01 1.24595E-01-2.46151E+00 1.73095E-13 2.07612E-13
 -1       748 2.00029E+01 2.48188E-02-8.50421E-06 9.69114E-03 1.22659E-13 3.57383E-13
 -1       749 2.00054E+01 1.81376E-02-2.56636E-06 8.14256E-03 8.72794E-14 8.13937E-14
 -1       750 2.69343E+01-2.48897E+00-4.53717E-02-9.53119E-01 1.15887E-13 4.05133E-13
 -1       751 1.16393E+01-1.19746E+00 1.05693E-01-4.32949E+00-2.68771E-13-3.69312E-13
 -1       752 1.97961E+01 2.71558E+00-1.42354E-03-2.79773E-01-1.46676E-14-2.84458E-13
 -1       753 2.00057E+01 2.19489E-02-4.54674E-06-1.06165E-02-1.70379E-13-7.93511E-13
 -1       754 2.02503E+01 1.51184E+00 3.34926E-04 3.67086E-01 2.10472E-13-1.31092E-13
 -1       755 2.62884E+01 4.57962E+00-1.20862E-01 1.46870E+00-4.62672E-13-2.26087E-14
 -1       756 1.57166E+01-1.86318E+00 4.73415E-02 4.63496E+00 2.12519E-13 1.37737E-14
 -1       757 2.02149E+01 7.67417E-01 9.55069E-06 3.67298E-01-1.60482E-14-2.17860E-13
 -1       758 2.01494E+01 6.31112E-01 3.41379E-05 6.17158E-01-4.24720E-14-1.86690E-13
 -1       759 2.00781E+01 5.54578E-01 3.63463E-05 8.36391E-01-6.44494E-14-1.40172E-13
 -1       760 2.00100E+01 5.04422E-01 4.80163E-05 1.03965E+00 8.69935E-15-1.11990E-13
 -1       761 1.99555E+01 4.47280E-01 5.89969E-05 1.23770E+00 4.87749E-14-1.38347E-13
 -1       762 1.99322E+01 3.44893E-01 6.25976E-05 1.43690E+00 1.99311E-14-2.79634E-14
 -1       763 1.99716E+01 1.51068E-01 5.10671E-05 1.63785E+00 4.16512E-14 3.56313E-14
 -1       764 2.01270E+01-1.88771E-01-8.80260E-05 1.83216E+00 3.63658E-14 1.77643E-13
 -1       765 2.04863E+01-7.31792E-01-1.25551E-04 1.99016E+00-1.93367E-16 1.64126E-13
 -1       766 2.11572E+01-1.49793E+00 1.72175E-04 2.03652E+00-6.78580E-15 1.66826E-13
 -1       767 2.22447E+01-2.49350E+00-1.12896E-02 1.88128E+00 5.96155E-14 1.42449E-13
 -1       768 2.39355E+01-3.24066E+00 3.42654E-02 1.20061E+00 5.50983E-14 1.41122E-13
 -1       769 2.43902E+01-3.26711E+00 5.68323E-03-8.22297E-01 1.40484E-13-4.03731E-14
 -1       770 2.26687E+01-2.64091E+00 3.35946E-03-1.63792E+00 2.89523E-13-1.44680E-13
 -1       771 2.13953E+01-1.68869E+00 1.37136E-03-1.93093E+00 2.14787E-13-8.04109E-15
 -1       772 2.05973E+01-8.46369E-01-1.03868E-05-1.90712E+00-1.86713E-14 1.74361E-13
 -1       773 2.01578E+01-2.39384E-01 1.75613E-04-1.74846E+00 2.08890E-14 3.78119E-13
 -1       774 1.99431E+01 1.48258E-01 1.25568E-04-1.54216E+00 9.41037E-15 4.86255E-13
 -1       775 1.98597E+01 3.65909E-01 1.05370E-04-1.32788E+00-1.35643E-13 1.12442E-13
 -1       776 1.98454E+01 4.65120E-01 8.48147E-05-1.12235E+00-1.01565E-13-1.28960E-13
 -1       777 1.98634E+01 4.87813E-01 6.64371E-05-9.32846E-01 8.92851E-15-6.89311E-14
 -1       778 1.98928E+01 4.64918E-01 5.13949E-05-7.62831E-01 1.03955E-15 8.15200E-14
 -1       779 1.99231E+01 4.17808E-01 4.14987E-05-6.13703E-01-1.03422E-13 2.80953E-14
 -1       780 1.99494E+01 3.60439E-01 3.26267E-05-4.85593E-01-1.02120E-13 1.41006E-13
 -1       781 1.99702E+01 3.01466E-01 2.52122E-05-3.77689E-01-1.66350E-13 6.94394E-14
 -1       782 1.99855E+01 2.45887E-01 1.92556E-05-2.88497E-01-6.67388E-15-5.59374E-14
 -1       783 1.99961E+01 1.96273E-01 1.45438E-05-2.16086E-01 1.28826E-13-8.83868E-14
 -1       784 2.00029E+01 1.53638E-01 1.08653E-05-1.58313E-01 2.40042E-14-1.30121E-13
 -1       785 2.00067E+01 1.18032E-01 8.06439E-06-1.13007E-01 5.00502E-14 1.19828E-13
 -1       786 2.00084E+01 8.89652E-02 5.17595E-06-7.81084E-02 2.71887E-13 5.10380E-14
 -1       787 2.00086E+01 6.56290E-02 2.89672E-06-5.17154E-02 3.48868E-13-2.81106E-13
 -1       788 2.00079E+01 4.70368E-02 6.28956E-06-3.23098E-02 1.66414E-13-4.48373E-13
 -1       789 2.00072E+01 3.30557E-02 1.91541E-08-1.97327E-02 7.45005E-14-5.71752E-13
 -1       790 2.01072E+01 4.72913E-01 9.09563E-05-1.03528E+00 1.96312E-14-1.02765E-13
 -1       791 2.00820E+01 4.38328E-01 8.52647E-05-1.23537E+00 3.04541E-14-1.69239E-13
 -1       792 2.02923E+01-5.49807E-02-1.64327E-05-1.80658E+00-5.17600E-14-5.59677E-14
 -1       793 2.06190E+01-5.23975E-01 9.18088E-05-1.94196E+00-6.61370E-14-1.09420E-13
 -1       794 2.12217E+01-1.22040E+00 2.36226E-04-1.96522E+00-9.32266E-14 2.40863E-14
 -1       795 2.22806E+01-2.10540E+00-2.47440E-03-1.70686E+00-1.57461E-13 1.07552E-13
 -1       796 2.36275E+01-2.99514E+00-3.80696E-02-1.16613E+00-2.08385E-13 2.02368E-13
 -1       797 2.58157E+01-3.18250E+00 3.89918E-02 1.24835E-01-8.66893E-14 2.58064E-13
 -1       798 2.31935E+01-2.69844E+00 3.72026E-03 1.31507E+00-1.94491E-13-2.65202E-14
 -1       799 2.18535E+01-1.76424E+00 5.24472E-04 1.77915E+00-1.39016E-13-3.23693E-14
 -1       800 2.09844E+01-9.11984E-01 5.83791E-04 1.87040E+00-2.02391E-13 2.06999E-13
 -1       801 2.04767E+01-2.83221E-01-6.89472E-05 1.77641E+00-1.58994E-13 3.55571E-13
 -1       802 2.02100E+01 1.18408E-01-6.89342E-06 1.60145E+00 2.21377E-13 2.22616E-13
 -1       803 2.00844E+01 3.41715E-01 7.67004E-05 1.39838E+00 1.80757E-13 2.80360E-14
 -1       804 2.00341E+01 4.41666E-01 9.96213E-05 1.19240E+00 9.65848E-14 4.28902E-14
 -1       805 2.00199E+01 4.63578E-01 9.83501E-05 9.96466E-01 8.25911E-14 3.06516E-13
 -1       806 2.00206E+01 4.40264E-01 8.95410E-05 8.17408E-01-3.86158E-14 6.68896E-14
 -1       807 2.00253E+01 3.93741E-01 7.70024E-05 6.58703E-01 5.19531E-14-1.13615E-14
 -1       808 2.00295E+01 3.38002E-01 6.36304E-05 5.21620E-01 9.64486E-14 1.33271E-14
 -1       809 2.00317E+01 2.81428E-01 5.13703E-05 4.05862E-01-5.75191E-14 3.56784E-13
 -1       810 2.00316E+01 2.28662E-01 4.06700E-05 3.10086E-01-1.97979E-13 5.68121E-13
 -1       811 2.00298E+01 1.81956E-01 3.16203E-05 2.32323E-01-1.81473E-13 5.11502E-13
 -1       812 2.00269E+01 1.42095E-01 2.41594E-05 1.70295E-01-1.71888E-13 1.92566E-15
 -1       813 2.00234E+01 1.08997E-01 1.81423E-05 1.21666E-01-1.11821E-13-2.12931E-13
 -1       814 2.00196E+01 8.20993E-02 1.32043E-05 8.42018E-02-1.01848E-14-1.36677E-13
 -1       815 2.00160E+01 6.06022E-02 9.07025E-06 5.58791E-02 3.94396E-14 3.00660E-13
 -1       816 2.00125E+01 4.35655E-02 3.95208E-06 3.49301E-02 1.27449E-13 7.06043E-14
 -1       817 2.00093E+01 3.01602E-02 5.83142E-06 1.99774E-02 1.50051E-13-2.71361E-13
 -1       818 2.00071E+01 2.39359E-02-2.62393E-05 1.32672E-02 6.70718E-14-1.80044E-13
 -1       819 2.03333E+01 1.11425E+00 1.36330E-04 2.66687E-01 1.84306E-13-6.54785E-14
 -1       820 1.98910E+01 2.24235E+00-2.96361E-04 1.09557E-01 1.24055E-13-2.38819E-13
 -1       821 1.99884E+01 5.80196E-02-2.18184E-07-3.43385E-05 2.23270E-13-4.97063E-13
 -1       822 1.99999E+01 4.19418E-02-1.51683E-06-1.67370E-02-2.70754E-13-3.56192E-13
 -1       823 1.99899E+01 5.60949E-02 1.18912E-06-7.32222E-03-3.95760E-14-2.67626E-13
 -1       824 2.38686E+01-3.92585E+00 8.92547E-03 2.08301E+00-1.64855E-13-2.09976E-13
 -1       825 2.50177E+01-3.18963E+00-3.11077E-03 2.03860E-01-7.51742E-15-6.37164E-14
 -1       826 1.99940E+01 5.05207E-02-5.32148E-06-1.33561E-02-1.99462E-13-1.17354E-13
 -1       827 2.01394E+01 2.22961E-01 3.80149E-05-1.62723E+00 9.62936E-16-6.11107E-14
 -1       828 2.00845E+01 3.69490E-01 7.29707E-05-1.43314E+00 1.47867E-14-1.55219E-13
 -1       829 2.02627E+01 1.00063E+00-1.37430E-04 6.98266E-02-9.44824E-14-2.19976E-13
 -1       830 1.02631E+01 4.12164E-01 9.38782E-02-9.61035E-01-1.31770E-14-4.59365E-13
 -1       831 2.07496E+01-3.96180E+00 3.73806E-02-4.27766E+00 3.36830E-13 4.91811E-14
 -1       832 2.01476E+01 5.08170E-01 1.02224E-04-8.27417E-01 7.26943E-14-8.49186E-14
 -1       833 2.01970E+01 5.74471E-01 8.53807E-05-6.00110E-01 1.29153E-13-9.07883E-14
 -1       834 2.63218E+01-3.83309E+00 2.70803E-02-4.03456E-01-1.28727E-13 1.19491E-13
 -1       835 1.12239E+01 6.98412E-02 8.63545E-02 2.49874E+00 1.21479E-13-2.95708E-13
 -1       836 2.42244E+01-4.03311E+00 6.11044E-03 1.85685E+00 7.87927E-14 1.61843E-13
 -1       837 1.44725E+01-1.58995E+00 7.07262E-02-4.60068E+00 4.10820E-13 2.60226E-13
 -1       838 2.00176E+01-3.51910E+00 1.27273E-02 4.29278E+00 1.74206E-13 1.51845E-13
 -1       839 1.60966E+01-2.70215E+00 8.07450E-02-5.20699E+00-3.15451E-13-3.13945E-13
 -1       840 2.43642E+01-4.20982E+00 1.30253E-02-2.04855E+00 2.31102E-13-2.13283E-13
 -1       841 9.75711E+00 7.98120E-02 1.09781E-01 2.14326E+00-3.46077E-16 3.17437E-13
 -1       842 2.22579E+01-4.34185E+00-6.58728E-02-3.55824E+00-2.40009E-13-1.08368E-13
 -1       843 2.00092E+01-3.31010E+00 2.54033E-02 4.09899E+00-3.83541E-13 1.76551E-14
 -1       844 1.98606E+01 2.29189E+00-2.88958E-04 4.25894E-03 8.13290E-14-2.42551E-13
 -1       845 1.99770E+01 2.09573E+00-2.31834E-04 2.11319E-01 1.67346E-13-1.91861E-13
 -1       846 1.46117E+01-4.96259E-01 2.94155E-02 3.44733E+00 1.86697E-13-2.26786E-13
 -1       847 1.80164E+01-2.23895E+00 3.26742E-02 4.22025E+00-2.96528E-13-1.96241E-14
 -1       848 1.01311E+01 5.81223E-01 8.27378E-02-1.56437E-01 2.24810E-13 3.63463E-13
 -1       849 2.00000E+01 4.20234E-02 7.96853E-06 1.67922E-02 5.63534E-14 3.40815E-13
 -1       850 2.01084E+01 1.85007E+00 1.41385E-04 3.03790E-01 2.19035E-13-1.33235E-13
 -1       851 1.80527E+01-2.38835E+00 2.58055E-02-4.30191E+00 3.30894E-13 3.46756E-13
 -1       852 2.02504E+01 7.03401E-01-2.94146E-05-3.37165E-01 1.38022E-13-7.29535E-14
 -1       853 1.99941E+01 5.05665E-02 1.42066E-06 1.33759E-02-7.88987E-14-2.27527E-13
 -1       854 1.99899E+01 5.61209E-02-1.38409E-06 7.37211E-03 1.98276E-13 3.99701E-14
 -1       855 2.02970E+01 8.63272E-01-5.57564E-05-6.50594E-02 1.73763E-13-7.80556E-14
 -1       856 1.18691E+01 6.98100E-02 6.89517E-02-2.51910E+00-1.26600E-13-4.36972E-13
 -1       857 2.02715E+01 1.34173E+00 9.34764E-05-2.48028E-01-1.32880E-13-2.55354E-13
 -1       858 1.28380E+01-2.85234E-01 8.15805E-02-3.44420E+00 3.10348E-13 2.36304E-13
 -1       859 1.99755E+01 2.10006E+00-2.54988E-04-2.07935E-01-4.98316E-14-2.35412E-13
 -1       860 1.98619E+01-3.29609E+00 2.10620E-02-4.25677E+00-2.79107E-13-2.62076E-13
 -1       861 2.00035E+01 3.81127E-02 6.44948E-05-1.87277E-02-2.87553E-13-6.78641E-13
 -1       862 2.01032E+01 1.86010E+00 2.87927E-04-3.01107E-01-1.12686E-13-2.72832E-13
 -1       863 1.99609E+01 7.73226E-01 2.23145E-05 6.41350E-01 4.12905E-16-1.53524E-13
 -1       864 1.98186E+01 7.03507E-01 6.66875E-06 8.42662E-01-1.59488E-14-8.82834E-14
 -1       865 1.96582E+01 6.54738E-01 9.00307E-06 1.04287E+00 4.55878E-15-1.03724E-13
 -1       866 1.94921E+01 5.89886E-01 1.66022E-05 1.25626E+00 9.14657E-14-1.22711E-13
 -1       867 1.93402E+01 4.64980E-01 5.86658E-06 1.49796E+00 8.83489E-14-7.65721E-14
 -1       868 1.92392E+01 2.25635E-01 9.48163E-05 1.78382E+00 7.13629E-14-4.86236E-14
 -1       869 1.92491E+01-1.92676E-01-1.74920E-04 2.12975E+00 1.40913E-14-9.92018E-14
 -1       870 1.94976E+01-8.91371E-01-4.07318E-03 2.54860E+00 4.87177E-14 2.48904E-14
 -1       871 2.01564E+01-1.96626E+00 1.19969E-02 3.04407E+00 8.96083E-14 9.65057E-14
 -1       872 2.01503E+01 1.11495E+00 3.61905E-04 1.83427E-01-1.98563E-14-2.30605E-13
 -1       873 2.04083E+01-2.16620E+00 5.99228E-03-2.93044E+00 2.38024E-13-4.65192E-14
 -1       874 1.95569E+01-1.03122E+00 4.34970E-03-2.54689E+00 2.41733E-13-9.53702E-14
 -1       875 1.92026E+01-2.64794E-01 7.17530E-04-2.12682E+00 6.77608E-14 5.78662E-14
 -1       876 1.91158E+01 2.21081E-01 2.84620E-04-1.74797E+00 1.27493E-13 1.45166E-13
 -1       877 1.91655E+01 4.93050E-01 1.31237E-04-1.43502E+00-2.26256E-13 4.76203E-14
 -1       878 1.92747E+01 6.20068E-01 7.46280E-05-1.17716E+00-2.70179E-13 1.53137E-13
 -1       879 1.94019E+01 6.52693E-01 4.02983E-05-9.62095E-01-1.39064E-13 3.32592E-14
 -1       880 1.95257E+01 6.27302E-01 1.77652E-05-7.81081E-01 2.26044E-13 4.98078E-15
 -1       881 1.96358E+01 5.69735E-01 1.63776E-05-6.28068E-01-6.39765E-14-1.28289E-13
 -1       882 1.97283E+01 4.97138E-01 1.26349E-05-4.99025E-01-4.48370E-15-1.82600E-13
 -1       883 1.98031E+01 4.20667E-01 9.36187E-06-3.91073E-01-1.08388E-13-9.91727E-14
 -1       884 1.98616E+01 3.47131E-01 7.18787E-06-3.01791E-01-1.12705E-13 1.44295E-13
 -1       885 1.99061E+01 2.80322E-01 5.68709E-06-2.28939E-01-2.40530E-14-1.29499E-14
 -1       886 1.99390E+01 2.21999E-01 4.77001E-06-1.70357E-01 1.31168E-13-1.53124E-13
 -1       887 1.99626E+01 1.72602E-01 4.02785E-06-1.23962E-01 1.28494E-13-1.12375E-13
 -1       888 1.99789E+01 1.31725E-01 2.31452E-06-8.78195E-02 1.82668E-13-3.39441E-14
 -1       889 1.99897E+01 9.86133E-02 7.10914E-06-6.01985E-02 2.70274E-13 2.08463E-13
 -1       890 1.99964E+01 7.18491E-02-3.99980E-05-3.93499E-02 1.97633E-13 9.07288E-15
 -1       891 2.03560E+01-1.63007E+00 1.74505E-02-2.76116E+00-1.67602E-13-6.87219E-14
 -1       892 1.96526E+01-6.79024E-01-1.04752E-03-2.42799E+00-1.58236E-13-6.53380E-14
 -1       893 1.94343E+01-5.83554E-02-1.66856E-05-2.07416E+00-5.67880E-14-9.19201E-14
 -1       894 1.99150E+01 6.69164E-01 4.70179E-05-8.58357E-01 6.35981E-14-1.67309E-13
 -1       895 1.95082E+01 5.00924E-01-3.20140E-05-1.50566E+00-7.11363E-14-1.47062E-13
 -1       896 2.09915E+01-2.40296E+00 1.40433E-02 2.85176E+00-2.68127E-13 6.87428E-14
 -1       897 1.93326E+01 1.64280E-01 2.86540E-05 1.84141E+00 1.00468E-13 6.43387E-14
 -1       898 1.93377E+01 4.61126E-01 4.27351E-05 1.53598E+00 3.09003E-13 1.79049E-13
 -1       899 1.94168E+01 5.99225E-01 4.60845E-05 1.27537E+00 5.86281E-14 2.69860E-13
 -1       900 1.95208E+01 6.35795E-01 3.55766E-05 1.05254E+00 3.92669E-14 1.89021E-13
 -1       901 1.96247E+01 6.11740E-01 3.24663E-05 8.60857E-01-2.18256E-14 1.58535E-13
 -1       902 1.97172E+01 5.54617E-01 2.56249E-05 6.96036E-01 2.93738E-14 1.71111E-13
 -1       903 1.97941E+01 4.82627E-01 1.78814E-05 5.55356E-01 4.63489E-14 6.03141E-14
 -1       904 1.98552E+01 4.07232E-01 1.26451E-05 4.36653E-01-1.29505E-13 2.02837E-13
 -1       905 1.99019E+01 3.35191E-01 9.07289E-06 3.37879E-01-2.84393E-13 1.80209E-13
 -1       906 1.99366E+01 2.70120E-01 6.54348E-06 2.56930E-01-1.14036E-13 5.60081E-14
 -1       907 1.99615E+01 2.13596E-01 4.69128E-06 1.91626E-01 1.20889E-13 9.80131E-14
 -1       908 1.99788E+01 1.65916E-01 3.34042E-06 1.39782E-01-1.52158E-13 2.10333E-13
 -1       909 1.99903E+01 1.26621E-01 2.14220E-06 9.92998E-02-1.22756E-13 1.71523E-13
 -1       910 1.99975E+01 9.48232E-02 1.01219E-06 6.82324E-02-1.70236E-13 2.62975E-13
 -1       911 2.00016E+01 6.94922E-02 1.16702E-05 4.49640E-02 9.44775E-14 1.58264E-13
 -1       912 2.00035E+01 4.92630E-02 7.15541E-06 2.77845E-02-1.21042E-14 4.81342E-13
 -1       913 2.00042E+01 3.27546E-02 1.28047E-05 1.58517E-02-9.76096E-15 3.35606E-13
 -1       914 1.99805E+01 7.95221E-02-2.08338E-06-5.78478E-03 9.37693E-14-7.56504E-13
 -1       915 1.96385E+01 5.92831E-01 1.25894E-05-1.27495E+00-3.25967E-15-1.39360E-13
 -1       916 1.94201E+01 3.06563E-01-1.05103E-04-1.76832E+00-2.79287E-14-1.42840E-13
 -1       917 1.94859E+01-3.63653E-01 6.83251E-04 2.19449E+00-2.41808E-13 3.00071E-13
 -1       918 1.99476E+01-1.20704E+00 3.10776E-03 2.57088E+00-2.44482E-13 2.90402E-13
 -1       919 1.25270E+01 7.81617E-01 3.78264E-02 5.66188E-01 3.35131E-14-3.18873E-13
 -1       920 2.00358E+01 7.30459E-01 1.61558E-04-6.46789E-01 8.49487E-14-1.73932E-13
 -1       921 1.98902E+01 2.24433E+00-2.15757E-04-1.01220E-01 2.86008E-14-2.36508E-13
 -1       922 2.00756E+01 8.97286E-01-4.60603E-05 4.25792E-01 4.63064E-15-1.79907E-13
 -1       923 2.02506E+01 1.17338E+00 5.95581E-05 4.72443E-02 1.56088E-13-1.61793E-13
 -1       924 1.33342E+01-1.26728E-01 4.75542E-02 3.08994E+00-9.37389E-14 3.15397E-13
 -1       925 1.45281E+01-1.09796E+00 4.57644E-02-4.11512E+00-2.12910E-13-3.56506E-13
 -1       926 1.83461E+01-1.85337E+00 2.90830E-02 3.83217E+00 1.31150E-13 3.28895E-14
 -1       927 1.97796E+01 6.34945E-01 4.00040E-05-1.06340E+00 4.06456E-14-1.77484E-13
 -1       928 1.99801E+01 1.76243E+00 3.41579E-05 3.25465E-02 1.46999E-13-1.99135E-13
 -1       929 1.25474E+01 6.46892E-01 4.43028E-02 1.60966E+00 4.53807E-14 1.14339E-13
 -1       930 2.01646E+01 1.42521E+00-2.36941E-04-6.67830E-02-8.34988E-14-2.48915E-13
 -1       931 1.99806E+01 7.95441E-02 1.15902E-07 5.81731E-03-6.23736E-14-1.73536E-13
 -1       932 1.57592E+01-7.42734E-01 2.59154E-02-3.55793E+00 2.18346E-13 3.81640E-13
 -1       933 2.01347E+01 8.50738E-01-1.61937E-04-4.13271E-01 1.42975E-13-1.58511E-13
 -1       934 2.00011E+01 5.31828E-02 9.66207E-06-2.80156E-02 6.24737E-14 8.31337E-15
 -1       935 1.99849E+01 7.43262E-02 4.88756E-06-1.63381E-02-1.45771E-13-3.46556E-13
 -1       936 1.29731E+01 8.13147E-01 3.41838E-02-7.55679E-01-1.57612E-14-3.06007E-13
 -1       937 1.99939E+01 6.25041E-02-2.64718E-05 2.46127E-02 4.66973E-14-7.36826E-14
 -1       938 1.44332E+01 5.23152E-01 1.15843E-02 1.88273E+00 8.74396E-14-1.63091E-13
 -1       939 1.99775E+01 1.76780E+00-3.79871E-04-2.61272E-02 6.84029E-15-1.80268E-13
 -1       940 2.21022E+01-3.55046E+00 2.12015E-02-3.00581E+00 1.80442E-13 1.85620E-14
 -1       941 1.99232E+01 1.85806E+00-3.23002E-07 1.41161E-02 1.13605E-13-2.24101E-13
 -1       942 1.77921E+01-1.84035E+00 4.34230E-02-4.00278E+00-2.11075E-13-2.26033E-13
 -1       943 1.63473E+01-7.07724E-01 1.71850E-02 3.38975E+00-2.20461E-13 9.42417E-14
 -1       944 1.99940E+01 6.21278E-02 1.35071E-05-2.40806E-02-3.29338E-13-4.45734E-13
 -1       945 2.00836E+01 1.57600E+00 1.27449E-04 5.03202E-02 1.71819E-13-1.24286E-13
 -1       946 1.99849E+01 7.43478E-02-2.18324E-05 1.65608E-02 2.04762E-13 8.66239E-14
 -1       947 1.84495E+01-1.10222E+00 9.04056E-03 3.12274E+00-3.16190E-13-5.65791E-16
 -1       948 1.94870E+01 8.43079E-01-6.82047E-05 7.64148E-01 3.57030E-14-5.83229E-14
 -1       949 1.92193E+01 8.07196E-01-1.02462E-04 9.49841E-01 5.45943E-14-3.33759E-14
 -1       950 1.89161E+01 7.50961E-01-1.01222E-04 1.16849E+00 5.95596E-14-6.76571E-14
 -1       951 1.85868E+01 6.30470E-01-3.43840E-04 1.44656E+00 9.23308E-14-1.07449E-13
 -1       952 1.82514E+01 3.83765E-01-1.86763E-03 1.82702E+00 2.20347E-14-1.23744E-13
 -1       953 1.79719E+01-5.32486E-02 4.62309E-04 2.35064E+00 9.73723E-14-7.21671E-14
 -1       954 1.99231E+01 1.85816E+00-1.17257E-04-5.15036E-03 6.15632E-14-1.94922E-13
 -1       955 1.77801E+01-1.15610E-01-5.86260E-04-2.43013E+00 1.06834E-13 1.28057E-13
 -1       956 1.80292E+01 3.94278E-01 1.32057E-05-1.84568E+00 1.19226E-13-1.77450E-13
 -1       957 1.83203E+01 6.72101E-01-3.84506E-04-1.43043E+00-4.93270E-15-3.00180E-13
 -1       958 1.86126E+01 7.98935E-01-2.82683E-04-1.12701E+00-7.96795E-14-1.43172E-13
 -1       959 1.88808E+01 8.28170E-01-1.55159E-04-8.97309E-01-1.68913E-13 1.73763E-13
 -1       960 1.91162E+01 7.94127E-01-1.57193E-04-7.17326E-01 5.54569E-15 1.74030E-13
 -1       961 1.93153E+01 7.24602E-01-8.67449E-05-5.72877E-01 3.57168E-14 9.60821E-14
 -1       962 1.94797E+01 6.37095E-01-5.92515E-05-4.54658E-01-2.41107E-14 2.28957E-13
 -1       963 1.96124E+01 5.44001E-01-4.44371E-05-3.57422E-01 3.68569E-14 3.35464E-13
 -1       964 1.97174E+01 4.53296E-01-3.37221E-05-2.77565E-01 1.29548E-13 1.09089E-13
 -1       965 1.97988E+01 3.69749E-01-2.53886E-05-2.12447E-01-9.45966E-14 2.93777E-13
 -1       966 1.98607E+01 2.95835E-01-1.87396E-05-1.59901E-01-3.62135E-14 3.49586E-13
 -1       967 1.99066E+01 2.32436E-01-1.29092E-05-1.18034E-01 2.19729E-13 1.66996E-13
 -1       968 1.99398E+01 1.79459E-01 3.20358E-06-8.51066E-02 8.70710E-14 7.35393E-14
 -1       969 1.99632E+01 1.35860E-01-2.20320E-05-5.97646E-02 1.78809E-13-1.46575E-13
 -1       970 1.99790E+01 1.00954E-01 3.04342E-05-4.02278E-02 2.01731E-13-2.95800E-13
 -1       971 1.89475E+01 8.18457E-01-6.76694E-05 1.00932E+00 2.34272E-13 3.17062E-13
 -1       972 1.86917E+01 7.80966E-01-5.38163E-05 1.25099E+00-3.62093E-14 2.63320E-13
 -1       973 1.82149E+01 6.40874E-02-3.54719E-04-2.26584E+00-8.35857E-14-1.42745E-13
 -1       974 1.81690E+01 3.08507E-01-3.52599E-04 1.99265E+00 4.67259E-14-1.95427E-13
 -1       975 1.84216E+01 6.31887E-01 2.86084E-05 1.56647E+00 5.26609E-14-1.10684E-13
 -1       976 1.91728E+01 7.89010E-01-2.31156E-06 8.17107E-01 2.83145E-14 3.19482E-13
 -1       977 1.93635E+01 7.20712E-01 1.41850E-05 6.59282E-01 3.85999E-14 2.53991E-13
 -1       978 1.95202E+01 6.33376E-01 7.75734E-06 5.27895E-01 1.53674E-13 1.37504E-13
 -1       979 1.96457E+01 5.40289E-01 4.54702E-06 4.18123E-01-1.18556E-13 1.76659E-13
 -1       980 1.97441E+01 4.49746E-01 2.79610E-06 3.26792E-01-2.85498E-13 1.06145E-13
 -1       981 1.98197E+01 3.66562E-01 1.69260E-06 2.51524E-01 2.13437E-14-5.34225E-14
 -1       982 1.98766E+01 2.93150E-01 1.01741E-06 1.90266E-01-1.27493E-13-1.66384E-13
 -1       983 1.99184E+01 2.30319E-01 7.39707E-07 1.41116E-01-1.10876E-13 3.77168E-14
 -1       984 1.99484E+01 1.77844E-01 6.56687E-07 1.02281E-01-1.92353E-13 8.49886E-14
 -1       985 1.99693E+01 1.34888E-01 3.00914E-06 7.21175E-02-2.43009E-13 2.05326E-13
 -1       986 1.99833E+01 1.00285E-01-6.32527E-06 4.91140E-02 5.68472E-14 1.56695E-13
 -1       987 1.99896E+01 8.00096E-02 3.67621E-05 3.53670E-02-1.48627E-13 3.26863E-13
 -1       988 1.44183E+01 5.82692E-02 3.48827E-02-2.78551E+00-1.31692E-13-3.45880E-13
 -1       989 1.97129E+01 8.95401E-01-3.41173E-06 5.92946E-01 3.21850E-14-6.82541E-14
 -1       990 1.84701E+01-1.37911E+00 1.18727E-02-3.31125E+00 1.65080E-13 3.00178E-13
 -1       991 1.90792E+01 7.58686E-01-1.04507E-04-1.20391E+00-4.38005E-14-1.27865E-13
 -1       992 2.02069E+01 9.80849E-01 1.72212E-04-2.02790E-01 1.45386E-13-1.45551E-13
 -1       993 1.98022E+01 8.67052E-01-4.39588E-05-6.22024E-01 9.99436E-14-1.10141E-13
 -1       994 2.00098E+01 1.18396E+00 2.02139E-04 2.35265E-01 4.24882E-14-1.18565E-13
 -1       995 1.29080E+01 8.29489E-01 2.95051E-02-1.26780E+00 1.42075E-13 2.74860E-13
 -1       996 1.48954E+01 5.10758E-01 1.06903E-02-2.10068E+00-6.85307E-14 2.81839E-13
 -1       997 1.93564E+01 7.95858E-01 3.13935E-05-9.92402E-01 2.43317E-14-1.59865E-13
 -1       998 1.80540E+01-5.80690E-01 8.73097E-03-2.89194E+00-1.25740E-13-1.90410E-13
 -1       999 1.95989E+01 8.20165E-01-3.58516E-07-8.04077E-01 7.08612E-14-1.44713E-13
 -1      1000 1.98903E+01 9.94805E-01-4.62590E-04 4.18777E-01 2.84919E-14-7.09497E-14
 -1      1001 1.68930E+01-4.86817E-01 1.17123E-02 3.06421E+00 1.75818E-13-6.09924E-14
 -1      1002 1.49415E+01 1.70791E-01 2.12675E-02 2.62138E+00-9.68271E-14 3.21258E-13
 -1      1003 2.00062E+01 1.37541E+00-1.14456E-04-1.16025E-01 1.57048E-13-1.47278E-13
 -1      1004 1.99674E+01 1.07163E-01-2.19262E-07-5.09975E-05-1.53949E-13-2.68229E-13
 -1      1005 1.99602E+01 9.68689E-01-1.81748E-04-4.29948E-01 1.07392E-13-1.15757E-13
 -1      1006 1.87793E+01 6.62643E-01-4.56560E-04-1.46113E+00-3.72139E-14-1.22497E-13
 -1      1007 1.43541E+01 9.97135E-01 1.22215E-02 3.34358E-01 6.29042E-14-3.26965E-13
 -1      1008 1.99252E+01 1.50647E+00 5.07011E-05-5.81558E-02 1.35558E-13-1.84345E-13
 -1      1009 1.64423E+01 1.53613E-01 4.39999E-03-2.43530E+00-8.27427E-14 1.47346E-13
 -1      1010 1.84748E+01 4.57876E-01-5.62427E-04-1.79908E+00-6.92756E-14-1.43145E-13
 -1      1011 1.81519E+01-2.37348E-01 4.41618E-04 2.50528E+00-1.90707E-13-2.91108E-15
 -1      1012 1.99703E+01 1.03878E-01-6.78883E-06-1.67567E-02 7.02800E-14-7.56903E-13
 -1      1013 2.00093E+01 1.44960E+00-1.17041E-04 8.76975E-02 3.16988E-14-1.22676E-13
 -1      1014 1.99318E+01 1.57401E+00-7.08486E-05 4.58305E-02 5.64260E-14-1.66072E-13
 -1      1015 1.62745E+01 6.60580E-01 8.51350E-03 1.70274E+00 1.81707E-13-5.42845E-14
 -1      1016 1.99706E+01 1.03705E-01-2.97026E-06 1.64836E-02-8.57072E-14-1.98953E-13
 -1      1017 1.91166E+01 9.66994E-01-3.14911E-04 5.84137E-01 4.08569E-14-1.13572E-13
 -1      1018 1.87292E+01 9.54326E-01-3.74213E-04 7.35607E-01 4.74095E-14-1.50328E-13
 -1      1019 1.82611E+01 9.24615E-01-4.07680E-04 9.32763E-01 1.38987E-14-1.09231E-13
 -1      1020 1.77004E+01 8.37701E-01 9.88987E-04 1.20673E+00 5.05380E-14-2.01179E-13
 -1      1021 1.70622E+01 7.77257E-01 5.01685E-03 1.41923E+00 1.43943E-13-1.47658E-13
 -1      1022 1.99790E+01 9.34678E-02 2.77766E-05 2.76506E-02 8.39652E-15 1.37219E-13
 -1      1023 1.98964E+01 1.55099E+00-2.62400E-05 6.14484E-03 8.43149E-14-1.66505E-13
 -1      1024 1.70902E+01 6.00689E-01 7.17862E-04-1.75545E+00 6.06546E-14 1.00156E-13
 -1      1025 1.76379E+01 8.40182E-01-1.34738E-04-1.30406E+00-5.70977E-14 1.70437E-13
 -1      1026 1.81042E+01 9.42411E-01-3.49221E-05-9.94470E-01-2.56729E-14-6.50319E-15
 -1      1027 1.84943E+01 9.55877E-01 1.12796E-04-7.75086E-01-3.74165E-14 1.08536E-13
 -1      1028 1.88183E+01 9.09796E-01-8.92052E-05-6.09281E-01 1.25134E-13 5.21370E-13
 -1      1029 1.90842E+01 8.29893E-01 1.63033E-05-4.82795E-01 1.54469E-14 5.83154E-13
 -1      1030 1.93006E+01 7.31771E-01 2.23670E-05-3.81467E-01-6.78416E-14 4.03482E-13
 -1      1031 1.94744E+01 6.27716E-01 1.10286E-05-2.99646E-01 3.75614E-14 4.23142E-13
 -1      1032 1.96121E+01 5.25909E-01 4.41342E-06-2.33107E-01 1.42222E-14 5.28840E-13
 -1      1033 1.97195E+01 4.31508E-01 3.09590E-07-1.79095E-01 2.40021E-14 1.89319E-13
 -1      1034 1.98018E+01 3.47366E-01-1.67853E-06-1.35549E-01 1.23696E-14 1.35247E-13
 -1      1035 1.98637E+01 2.74665E-01-2.59546E-06-1.00792E-01-1.05182E-14 1.39988E-13
 -1      1036 1.99093E+01 2.13382E-01 8.78891E-08-7.34268E-02 3.59053E-14 1.23113E-13
 -1      1037 1.99418E+01 1.62887E-01-2.55462E-05-5.19159E-02-2.55518E-14 8.39168E-14
 -1      1038 1.99645E+01 1.22041E-01-8.87846E-06-3.56528E-02 1.39787E-13-2.08703E-13
 -1      1039 1.83322E+01 1.00170E+00-2.57946E-04 8.34215E-01-2.59420E-14-2.05965E-13
 -1      1040 1.89930E+01 8.78744E-01 2.81914E-05 5.35210E-01 6.40623E-14-2.76096E-14
 -1      1041 1.86964E+01 9.59579E-01-3.12092E-05 6.66924E-01 5.16721E-14-8.11412E-14
 -1      1042 1.95296E+01 9.76890E-01-1.63771E-04-5.10415E-01 9.28250E-14-1.12848E-13
 -1      1043 1.92323E+01 7.77692E-01-4.84720E-06 4.29007E-01 1.08090E-13-1.18745E-13
 -1      1044 1.46427E+01 1.07595E+00 7.47998E-03-5.78009E-01 6.38890E-14 2.45013E-13
 -1      1045 1.48713E+01 7.29391E-01 8.28228E-03-1.51208E+00 3.74247E-14-3.08063E-13
 -1      1046 1.94233E+01 6.69422E-01-6.38797E-06 3.41750E-01-2.73025E-14 2.57496E-15
 -1      1047 1.95740E+01 5.62815E-01-6.75928E-06 2.69401E-01-2.98846E-13 2.87709E-13
 -1      1048 1.96912E+01 4.63452E-01-6.51109E-06 2.09557E-01-6.96519E-15 3.17036E-13
 -1      1049 1.97810E+01 3.74490E-01-6.38693E-06 1.60478E-01-1.40852E-14 5.38179E-14
 -1      1050 1.98486E+01 2.97296E-01-5.59441E-06 1.20714E-01-1.78300E-13 3.78516E-14
 -1      1051 1.98985E+01 2.32010E-01-5.09575E-06 8.89373E-02-2.61598E-13 1.25062E-13
 -1      1052 1.99345E+01 1.77936E-01-8.73372E-07 6.39541E-02-1.91856E-13 1.93780E-13
 -1      1053 1.99595E+01 1.34123E-01 1.06707E-06 4.44461E-02-4.97606E-14 1.44134E-13
 -1      1054 1.94339E+01 9.93110E-01-2.90326E-04 4.55560E-01 2.30189E-14-1.21501E-13
 -1      1055 1.65963E+01 3.49656E-01 1.89438E-03-2.15867E+00-1.99167E-14-1.74787E-13
 -1      1056 1.88748E+01 9.46447E-01-7.79890E-05-8.02099E-01-2.75641E-14-1.17717E-13
 -1      1057 1.99131E+01 1.33109E+00-4.14671E-05 1.44059E-01 4.87193E-14-1.90935E-13
 -1      1058 1.40759E+01 9.78635E-01 2.03479E-02 9.63491E-01-4.49135E-14 4.93993E-14
 -1      1059 1.92353E+01 9.52587E-01-1.06158E-04-6.48178E-01 7.43033E-14-1.23019E-13
 -1      1060 1.96851E+01 1.06221E+00-7.83764E-05 3.36954E-01 2.42809E-14-1.33125E-13
 -1      1061 1.99502E+01 1.39036E-01 8.41321E-06 1.18967E-02-1.51417E-13-3.92923E-13
 -1      1062 1.72994E+01 6.92658E-01-5.26254E-04-1.61173E+00-4.49012E-14-1.36581E-13
 -1      1063 1.73373E+01 8.62259E-01 3.66623E-04 1.39278E+00-6.64368E-14-1.71684E-13
 -1      1064 1.56209E+01 9.02204E-01 4.28572E-03-1.32321E+00-2.18379E-14 4.84570E-13
 -1      1065 1.97567E+01 1.05357E+00-2.44816E-04-3.74375E-01 9.63648E-14-1.62526E-13
 -1      1066 1.59361E+01 1.06063E+00 6.27830E-04 4.39144E-01 1.72346E-13-1.31802E-13
 -1      1067 1.98741E+01 1.23480E+00-1.21293E-04-2.01652E-01 1.31484E-13-1.78000E-13
 -1      1068 1.84297E+01 9.35328E-01 1.14884E-04-1.00064E+00-8.09335E-14-1.44744E-13
 -1      1069 1.68452E+01 5.95833E-01 1.26388E-03 1.86119E+00-2.68069E-17-1.95139E-13
 -1      1070 1.56731E+01 9.86921E-01 4.24991E-03-9.13769E-01 3.00963E-14-2.83060E-13
 -1      1071 1.78844E+01 9.82919E-01-7.29341E-05 1.06493E+00-1.71226E-13-1.50218E-13
 -1      1072 1.99503E+01 1.38793E-01 2.24589E-06-1.19230E-02-3.64256E-13-4.65173E-13
 -1      1073 1.67595E+01-9.57901E-02 5.72681E-03 2.69389E+00-1.68710E-13-1.61329E-13
 -1      1074 1.87456E+01 1.06555E+00 5.11664E-06 2.90428E-01 2.98497E-14-6.28650E-14
 -1      1075 1.86463E+01 1.01106E+00 2.77048E-04 3.11490E-01-7.13790E-14-1.73750E-13
 -1      1076 1.82441E+01 1.07498E+00-4.20675E-04 3.72950E-01 2.48553E-15-1.07517E-13
 -1      1077 1.76061E+01 1.07613E+00 5.21169E-04 4.91749E-01 4.05125E-14-8.59343E-14
 -1      1078 1.66341E+01 1.06029E+00-3.53682E-04-9.27156E-01 1.24129E-13 1.21581E-13
 -1      1079 1.73831E+01 1.11962E+00-8.94995E-04-6.73714E-01-4.82077E-14 3.19926E-13
 -1      1080 1.79567E+01 1.11150E+00-9.06994E-04-5.02207E-01 3.84243E-14 4.02522E-13
 -1      1081 1.84192E+01 1.04992E+00 1.59299E-03-3.85607E-01 1.91587E-13 2.70092E-13
 -1      1082 1.87694E+01 9.62256E-01 1.14388E-04-3.03253E-01 5.45549E-14 2.28348E-13
 -1      1083 1.90567E+01 8.52389E-01 3.15496E-05-2.35391E-01-2.87474E-14 4.03550E-13
 -1      1084 1.92856E+01 7.36866E-01 1.33500E-06-1.83602E-01 7.62904E-14 4.00443E-13
 -1      1085 1.94669E+01 6.22666E-01-7.05762E-07-1.42421E-01-6.59007E-16 2.19584E-13
 -1      1086 1.96089E+01 5.15482E-01-1.29888E-06-1.09518E-01-8.08121E-14 8.99588E-14
 -1      1087 1.97186E+01 4.18763E-01-9.76280E-07-8.32210E-02-8.97184E-14-7.53128E-14
 -1      1088 1.98021E+01 3.34181E-01-2.25575E-06-6.22973E-02 2.40631E-14-5.02250E-14
 -1      1089 1.98645E+01 2.62186E-01-6.93737E-06-4.57524E-02 9.05577E-14 7.77092E-14
 -1      1090 1.99102E+01 2.02018E-01-2.41112E-05-3.27642E-02 5.84647E-14-1.33693E-13
 -1      1091 1.92475E+01 1.05544E+00-1.54646E-04-3.00554E-01 6.84424E-14-1.08298E-13
 -1      1092 1.82426E+01 1.10308E+00-1.95184E-04 3.95590E-01 8.48113E-15-1.16454E-13
 -1      1093 1.89626E+01 8.99982E-01 3.16825E-06 2.50303E-01-2.47350E-14-6.95038E-14
 -1      1094 1.95668E+01 5.51710E-01-2.46983E-05 1.26545E-01-1.53692E-13-2.02837E-13
 -1      1095 1.92134E+01 7.81446E-01-5.60450E-05 2.01537E-01 6.43578E-14-4.33856E-14
 -1      1096 1.96869E+01 4.50224E-01-1.47439E-05 9.81911E-02 7.68043E-14-7.54435E-14
 -1      1097 1.97785E+01 3.60937E-01-6.34505E-06 7.49100E-02-8.60529E-14 4.71987E-14
 -1      1098 1.98474E+01 2.84411E-01 1.52691E-05 5.60910E-02-1.45048E-13-1.77922E-13
 -1      1099 1.98979E+01 2.20321E-01 1.57357E-05 4.10435E-02-1.63372E-13-3.36440E-13
 -1      1100 1.98111E+01 1.31776E+00-1.34671E-04-6.74510E-02 1.02208E-13-1.24158E-13
 -1      1101 1.98402E+01 1.36120E+00 8.77007E-04 5.89742E-02 8.52630E-14-1.28298E-13
 -1      1102 1.91536E+01 1.06372E+00 1.81343E-04 2.26483E-01 2.24097E-14-7.88189E-14
 -1      1103 1.94116E+01 6.63400E-01-3.82080E-05 1.60678E-01-3.00259E-13-8.31522E-14
 -1      1104 1.79178E+01 8.63401E-01 8.49404E-04-1.25357E+00-4.04517E-14-6.87991E-14
 -1      1105 1.88627E+01 1.05618E+00 6.95643E-06-3.72932E-01 7.40301E-15-6.18940E-14
 -1      1106 1.94726E+01 1.10244E+00 2.03239E-04 1.71179E-01 4.73230E-14-1.07877E-13
 -1      1107 1.96888E+01 1.19201E+00-4.50372E-04 1.10863E-01 5.90270E-14-1.26329E-13
 -1      1108 1.70699E+01 1.16953E+00 7.42010E-04 6.31202E-01-8.75818E-14 1.30612E-13
 -1      1109 1.95455E+01 1.10128E+00-2.50816E-04-2.30093E-01 6.42352E-14-1.12149E-13
 -1      1110 1.69450E+01 1.07523E+00-9.52377E-04 5.12568E-01 7.19999E-14-3.29031E-14
 -1      1111 1.59932E+01 1.17515E+00 5.69640E-05-3.84894E-01-1.27521E-13 2.32663E-14
 -1      1112 1.77550E+01 1.15236E+00 3.52933E-03 4.95993E-01 8.59006E-15-2.69449E-14
 -1      1113 1.99340E+01 1.67699E-01-4.29525E-05 2.93845E-02-1.75295E-13-4.42188E-13
 -1      1114 1.63267E+01 1.11358E+00 1.72096E-03 8.96818E-01 7.33902E-14 2.47101E-13
 -1      1115 1.99245E+01 1.79019E-01 1.95702E-05 6.99030E-03-2.15577E-13-4.06147E-13
 -1      1116 1.65947E+01 1.10234E+00-3.08775E-04-4.75119E-01 5.83932E-14-2.25496E-13
 -1      1117 1.83730E+01 1.07667E+00-3.99571E-04-4.58321E-01 1.57372E-14-6.78100E-14
 -1      1118 1.54787E+01 7.69859E-01 5.34417E-03 1.64001E+00 5.59512E-14 2.00326E-13
 -1      1119 1.54188E+01 1.14840E+00-6.87481E-04 5.05677E-01 5.14657E-14 5.47432E-14
 -1      1120 1.97015E+01 1.18934E+00 1.67248E-03-1.38594E-01 6.07939E-14-1.06114E-13
 -1      1121 1.72705E+01 1.12586E+00-6.95574E-04-2.93451E-01 1.84121E-14-1.61066E-13
 -1      1122 1.83788E+01 1.08984E+00-9.50615E-04-7.24306E-03 2.49880E-14 4.47846E-14
 -1      1123 1.69237E+01 1.21991E+00-1.18068E-03-2.78868E-01 9.13917E-14-2.04943E-14
 -1      1124 1.76212E+01 1.20096E+00-1.78053E-03-1.93514E-01 4.17472E-14 4.17154E-14
 -1      1125 1.88621E+01 9.40012E-01-3.01781E-04-9.27782E-03 7.71339E-14-1.88981E-13
 -1      1126 1.91334E+01 8.19889E-01 7.56298E-05-3.90332E-03-1.45126E-14-7.84905E-14
 -1      1127 1.93491E+01 6.98490E-01 6.22538E-05-7.99633E-04-5.27436E-14 5.60590E-14
 -1      1128 1.95183E+01 5.83016E-01 4.65348E-05 8.40184E-04-1.60226E-13-1.19305E-13
 -1      1129 1.96498E+01 4.77489E-01 3.39122E-05 1.55117E-03-7.23664E-14-1.79303E-13
 -1      1130 1.97505E+01 3.84144E-01 2.40766E-05 1.71086E-03-4.40164E-15-2.25869E-13
 -1      1131 1.98264E+01 3.03771E-01 3.29763E-06 1.57929E-03-1.69312E-14-3.02393E-13
 -1      1132 1.98834E+01 2.35408E-01 1.23603E-05 5.60491E-03-1.74566E-14-4.69642E-13
 -1      1133 1.78670E+01 1.12545E+00-2.14449E-04-1.52446E-01 2.26250E-14-1.76680E-14
 -1      1134 2.78095E+01 9.03272E+00 2.29933E+00-6.62304E+00-4.11893E-14 1.20048E-12
 -1      1135 2.05526E+01 6.23047E+00 2.15638E-01-3.82109E+00-2.18991E-14 9.15309E-14
 -1      1136 1.94814E+01 5.86870E+00 8.08737E-02-2.78687E+00-1.42525E-14-3.63121E-13
 -1      1137 1.90799E+01 5.74292E+00 6.32032E-02-2.12391E+00-9.71445E-15-5.68009E-13
 -1      1138 1.88815E+01 5.68174E+00 5.75719E-02-1.59213E+00-4.55191E-15-6.56482E-13
 -1      1139 1.87679E+01 5.64632E+00 5.31205E-02-1.13872E+00-3.12597E-15-6.83950E-13
 -1      1140 1.86987E+01 5.62446E+00 4.94765E-02-7.33809E-01-1.11283E-15-6.77772E-13
 -1      1141 1.86600E+01 5.61212E+00 4.70260E-02-3.55524E-01 1.30625E-15-6.54176E-13
 -1      1142 1.86480E+01 5.60826E+00 4.62120E-02 8.24336E-03 3.63143E-15-6.24467E-13
 -1      1143 1.86613E+01 5.61255E+00 4.71504E-02 3.72410E-01 4.30688E-15-5.94691E-13
 -1      1144 1.87014E+01 5.62534E+00 4.97711E-02 7.52048E-01 7.25201E-15-5.48371E-13
 -1      1145 1.87724E+01 5.64791E+00 5.39059E-02 1.15962E+00 8.82974E-15-4.81712E-13
 -1      1146 1.88876E+01 5.68384E+00 5.85227E-02 1.61747E+00 1.13139E-14-3.67625E-13
 -1      1147 1.90858E+01 5.74473E+00 6.32708E-02 2.15682E+00 1.37737E-14-1.84719E-13
 -1      1148 1.94784E+01 5.86601E+00 7.49603E-02 2.82731E+00 1.78677E-14 1.37732E-13
 -1      1149 2.04587E+01 6.18562E+00 1.59995E-01 3.79667E+00 1.81799E-14 7.11164E-13
 -1      1150 2.50920E+01 7.95188E+00 1.41414E+00 5.77741E+00 2.79221E-14 1.78638E-12
 -1      1151 2.85984E+01 3.56938E+00 1.23654E+00-4.16651E+00-1.71974E-13 1.90170E-12
 -1      1152 2.01766E+01-1.78738E-01-6.16064E-01-1.03106E-01-5.52752E-14 1.48775E-12
 -1      1153 1.88814E+01-9.74681E-02-2.35609E-01 6.33088E-02-2.05964E-14 9.26721E-13
 -1      1154 1.86385E+01-5.05052E-02-6.17254E-02 4.07810E-02-1.53046E-14 5.30721E-13
 -1      1155 1.86922E+01-2.84550E-02-1.96201E-02 2.73824E-02-1.72605E-16 2.94993E-13
 -1      1156 1.89151E+01-1.82627E-02-1.13594E-02 2.03845E-02-1.10307E-15 1.67442E-13
 -1      1157 1.92485E+01-1.31744E-02-9.76197E-03 1.65862E-02-1.04513E-14 1.39992E-14
 -1      1158 1.96663E+01-1.06526E-02-9.57297E-03 1.47890E-02-4.90504E-15-6.95451E-14
 -1      1159 2.01584E+01-9.36150E-03-9.82375E-03 1.44539E-02-1.03886E-14-8.80459E-14
 -1      1160 2.07227E+01-8.34099E-03-9.88541E-03 1.53174E-02-6.41674E-15-1.61317E-13
 -1      1161 2.13573E+01-6.66552E-03-8.76175E-03 1.71356E-02 1.51480E-14-2.78284E-13
 -1      1162 2.20526E+01-3.27905E-03-4.95860E-03 1.94458E-02 1.93997E-14-2.30156E-13
 -1      1163 2.27810E+01 3.01844E-03 3.49602E-03 2.12765E-02-1.48281E-14-3.97394E-13
 -1      1164 2.34834E+01 1.33199E-02 1.86601E-02 2.07998E-02 6.20402E-15-5.07431E-13
 -1      1165 2.40557E+01 2.79164E-02 4.13895E-02 1.51004E-02-2.11133E-14-4.88465E-13
 -1      1166 2.43425E+01 4.48469E-02 6.87969E-02 5.34176E-04-7.19737E-15-5.05080E-13
 -1      1167 2.41567E+01 5.82668E-02 9.09785E-02-2.53388E-02-1.01854E-14-6.01658E-13
 -1      1168 2.33459E+01 5.77270E-02 9.05439E-02-5.99841E-02 2.70782E-14-3.99888E-13
 -1      1169 2.19109E+01 3.27895E-02 5.00310E-02-9.18214E-02 7.12624E-15-2.71519E-13
 -1      1170 2.01296E+01-1.79165E-02-3.12797E-02-1.01210E-01-6.82484E-15-4.71650E-13
 -1      1171 1.85636E+01-7.50964E-02-1.21500E-01-7.21500E-02 3.98986E-16-4.84758E-13
 -1      1172 1.78390E+01-1.05078E-01-1.68284E-01-9.48002E-03-4.15813E-15-1.93024E-13
 -1      1173 1.82817E+01-8.72036E-02-1.40270E-01 5.79251E-02 9.45338E-15-1.99542E-13
 -1      1174 1.96973E+01-3.40970E-02-5.66987E-02 9.75670E-02-2.67611E-14-6.01269E-13
 -1      1175 2.15059E+01 2.08229E-02 3.11192E-02 9.75273E-02 7.35805E-15-5.89903E-13
 -1      1176 2.30997E+01 5.30703E-02 8.33796E-02 6.97263E-02-2.28819E-14-2.68799E-13
 -1      1177 2.41200E+01 5.88773E-02 9.26190E-02 3.44666E-02-1.19176E-15-3.98008E-13
 -1      1178 2.45044E+01 4.77978E-02 7.40548E-02 5.99873E-03 2.16376E-14-7.41357E-13
 -1      1179 2.43807E+01 3.08343E-02 4.64033E-02-1.10342E-02-4.55382E-14-1.01710E-12
 -1      1180 2.39378E+01 1.51399E-02 2.16110E-02-1.82179E-02 4.24580E-14-1.19345E-12
 -1      1181 2.33448E+01 3.56440E-03 4.13597E-03-1.90906E-02-2.55113E-14-1.05215E-12
 -1      1182 2.27214E+01-3.68107E-03-6.13022E-03-1.67933E-02 1.37692E-14-8.63785E-13
 -1      1183 2.21388E+01-7.48598E-03-1.10168E-02-1.33860E-02-1.60088E-14-8.00080E-13
 -1      1184 2.16314E+01-8.94021E-03-1.24827E-02-9.97444E-03-7.95785E-14-9.31503E-13
 -1      1185 2.12104E+01-8.96240E-03-1.20371E-02-7.03801E-03-1.49007E-14-1.17604E-12
 -1      1186 2.08735E+01-8.21134E-03-1.06746E-02-4.71106E-03 3.05297E-14-1.04270E-12
 -1      1187 2.06116E+01-7.11498E-03-8.98736E-03-2.96468E-03-2.02541E-14-1.24197E-12
 -1      1188 2.04134E+01-5.93028E-03-7.29791E-03-1.70762E-03-2.86853E-15-9.14261E-13
 -1      1189 2.02671E+01-4.79926E-03-5.76406E-03-8.36101E-04 1.84686E-14-8.26606E-13
 -1      1190 2.01620E+01-3.79142E-03-4.44879E-03-2.55081E-04 4.31049E-14-5.01489E-13
 -1      1191 2.00889E+01-2.93272E-03-3.36357E-03 1.14618E-04-6.33101E-15-8.25646E-14
 -1      1192 2.00401E+01-2.22432E-03-2.49372E-03 3.35670E-04-3.75551E-14-4.61215E-13
 -1      1193 2.00094E+01-1.65406E-03-1.81271E-03 4.56176E-04-3.94758E-16-1.01533E-12
 -1      1194 1.99919E+01-1.20326E-03-1.28980E-03 5.12315E-04 2.60332E-14-8.56905E-13
 -1      1195 1.99838E+01-8.50225E-04-8.93081E-04 5.30887E-04 5.81270E-14-3.90458E-13
 -1      1196 1.99822E+01-5.71587E-04-5.88301E-04 5.31332E-04 2.06705E-14-1.57056E-13
 -1      1197 1.99850E+01-3.41854E-04-3.30092E-04 5.25520E-04 8.37165E-15-4.04184E-14
 -1      1198 1.99903E+01-1.27273E-04-5.48937E-05 5.03898E-04 2.04868E-14 2.61090E-13
 -1      1199 1.99962E+01 7.21365E-05 3.19444E-04 4.37800E-04-3.22363E-14 3.14240E-13
 -1      1200 1.99995E+01 1.24094E-04 3.84567E-04 7.43882E-05 6.10559E-14 2.78219E-13
 -1      1201 2.75880E+01 5.20401E-01 3.53898E-01 1.94901E+00-2.88866E-14 2.64849E-12
 -1      1202 2.00389E+01-6.73380E-02-5.72660E-01 1.27059E-01 9.42302E-15 2.29786E-12
 -1      1203 1.89544E+01-4.23610E-02-1.93104E-01 1.95407E-02 9.87231E-15 1.91009E-12
 -1      1204 1.86664E+01-2.41759E-02-5.29058E-02 2.76547E-03 9.20141E-15 1.63912E-12
 -1      1205 1.87050E+01-1.62952E-02-1.79292E-02-2.04553E-03 6.03792E-15 1.44970E-12
 -1      1206 1.89230E+01-1.25434E-02-1.12415E-02-3.05308E-03 1.27199E-14 1.25659E-12
 -1      1207 1.92563E+01-1.08203E-02-1.06593E-02-3.05162E-03 3.08000E-15 1.18093E-12
 -1      1208 1.96778E+01-1.02057E-02-1.13370E-02-2.92897E-03-1.00576E-14 1.12708E-12
 -1      1209 2.01786E+01-1.00779E-02-1.24186E-02-3.13010E-03-4.01491E-15 1.06112E-12
 -1      1210 2.07589E+01-9.79873E-03-1.33810E-02-4.07010E-03-2.56002E-15 9.77907E-13
 -1      1211 2.14199E+01-8.53567E-03-1.32569E-02-6.22377E-03 2.59850E-14 8.09589E-13
 -1      1212 2.21569E+01-5.15652E-03-1.04124E-02-1.00882E-02 6.87341E-15 7.39138E-13
 -1      1213 2.29468E+01 1.73016E-03-2.46006E-03-1.59837E-02 3.49871E-15 6.25323E-13
 -1      1214 2.37341E+01 1.33717E-02 1.34195E-02-2.35692E-02-2.04568E-14 6.93955E-13
 -1      1215 2.44125E+01 2.97680E-02 3.90695E-02-3.09770E-02-5.43511E-15 6.22138E-13
 -1      1216 2.48138E+01 4.77637E-02 7.22162E-02-3.38124E-02-1.97359E-14 6.42245E-13
 -1      1217 2.47206E+01 5.91283E-02 1.02034E-01-2.50447E-02-2.40710E-14 5.95517E-13
 -1      1218 2.39352E+01 5.17097E-02 1.07502E-01 1.87611E-03 5.73586E-15 4.51736E-13
 -1      1219 2.24206E+01 1.78544E-02 6.63851E-02 4.53854E-02-1.42629E-14 2.34451E-13
 -1      1220 2.04626E+01-3.36988E-02-2.28789E-02 8.87134E-02-3.36534E-14 3.66873E-13
 -1      1221 1.87008E+01-7.53073E-02-1.23411E-01 1.04119E-01 5.22802E-14 2.61111E-13
 -1      1222 1.78761E+01-8.05963E-02-1.75685E-01 7.38301E-02-2.28446E-14 5.09690E-13
 -1      1223 1.83801E+01-4.95796E-02-1.46387E-01 1.00071E-02 2.21862E-14 3.55285E-13
 -1      1224 1.99758E+01-6.96332E-03-5.94017E-02-5.22256E-02 2.45689E-14 1.49353E-13
 -1      1225 2.19715E+01 2.35089E-02 2.89644E-02-8.39266E-02-8.06646E-15 3.42393E-13
 -1      1226 2.36693E+01 3.46828E-02 7.85494E-02-8.07808E-02 8.15710E-15 4.61312E-13
 -1      1227 2.46884E+01 3.17955E-02 8.50480E-02-5.70851E-02 1.05545E-14 2.66689E-13
 -1      1228 2.49965E+01 2.28039E-02 6.58414E-02-2.94368E-02-2.08796E-14 1.16561E-13
 -1      1229 2.47647E+01 1.32463E-02 3.96986E-02-7.58303E-03 2.83554E-14-1.45332E-13
 -1      1230 2.42151E+01 5.63841E-03 1.75017E-02 5.93933E-03 1.68784E-14-4.76206E-13
 -1      1231 2.35333E+01 5.02947E-04 2.62508E-03 1.24472E-02 1.17696E-14-4.59965E-13
 -1      1232 2.28434E+01-2.51068E-03-5.66147E-03 1.43257E-02 1.29848E-14-6.69499E-14
 -1      1233 2.22144E+01-3.99296E-03-9.33332E-03 1.36446E-02-2.00843E-14 2.27377E-13
 -1      1234 2.16765E+01-4.48487E-03-1.02373E-02 1.18092E-02-2.02695E-14 2.48641E-13
 -1      1235 2.12363E+01-4.39377E-03-9.68568E-03 9.63988E-03-1.56603E-14 1.25308E-13
 -1      1236 2.08876E+01-3.99586E-03-8.48799E-03 7.55661E-03-3.46508E-14 7.89551E-14
 -1      1237 2.06190E+01-3.46563E-03-7.09749E-03 5.74072E-03 7.29136E-14-3.30851E-13
 -1      1238 2.04169E+01-2.90677E-03-5.74656E-03 4.24447E-03 2.20490E-14-4.84998E-13
 -1      1239 2.02685E+01-2.37664E-03-4.54087E-03 3.05688E-03 2.77336E-14-5.26423E-13
 -1      1240 2.01625E+01-1.90356E-03-3.51734E-03 2.14013E-03 1.15215E-14-3.40705E-13
 -1      1241 2.00889E+01-1.49829E-03-2.67757E-03 1.44829E-03 1.34503E-14-2.73617E-13
 -1      1242 2.00399E+01-1.16133E-03-2.00630E-03 9.36387E-04-2.46227E-14 2.44937E-13
 -1      1243 2.00092E+01-8.87360E-04-1.48130E-03 5.64010E-04-3.95898E-14 1.88262E-13
 -1      1244 1.99917E+01-6.67753E-04-1.07825E-03 2.96314E-04 2.77860E-14-4.58586E-13
 -1      1245 1.99836E+01-4.91266E-04-7.71866E-04 1.03292E-04 6.80312E-14-9.56468E-13
 -1      1246 1.99821E+01-3.42601E-04-5.32594E-04-4.16280E-05 5.90505E-14-1.49084E-12
 -1      1247 1.99849E+01-2.01211E-04-3.18511E-04-1.63089E-04 6.73300E-15-1.69716E-12
 -1      1248 1.99902E+01-3.21896E-05-5.92910E-05-2.85403E-04 1.01582E-14-1.36339E-12
 -1      1249 1.99962E+01 2.13005E-04 3.24152E-04-3.93220E-04 1.33882E-13-1.74096E-12
 -1      1250 1.99996E+01 8.80505E-05 3.80029E-04-8.13865E-05-7.74853E-15-1.40755E-12
 -1      1251 1.99998E+01-2.79988E-04 3.33055E-04-1.17459E-04-1.40199E-12-6.78307E-14
 -1      1252 1.99999E+01-3.66942E-03 2.04211E-04-3.67892E-04-1.44510E-12-2.43727E-14
 -1      1253 1.99997E+01-8.77824E-03-1.49589E-04-3.58636E-04-3.04019E-13 1.68810E-13
 -1      1254 1.99996E+01-1.27221E-02-2.92118E-04-2.32202E-04 3.34446E-13 1.49174E-14
 -1      1255 1.99997E+01-1.46762E-02-2.59979E-04-1.09799E-04 4.86179E-13 2.88170E-14
 -1      1256 1.99997E+01-1.49294E-02-1.50259E-04-2.52513E-05 2.95370E-13-4.86879E-14
 -1      1257 1.99998E+01-1.42360E-02-2.61743E-05 1.25693E-05 9.64414E-13 1.15510E-13
 -1      1258 1.99999E+01-1.34003E-02 6.60201E-05 1.66582E-05 5.25156E-13-1.80547E-13
 -1      1259 1.99999E+01-1.30350E-02 9.97524E-05 9.08569E-07-4.54780E-13 7.95250E-15
 -1      1260 1.99999E+01-1.33643E-02 6.63390E-05-1.49165E-05 2.09898E-13 1.12999E-13
 -1      1261 1.99998E+01-1.41661E-02-2.53597E-05-1.07572E-05-4.72624E-13-7.33055E-14
 -1      1262 1.99997E+01-1.48301E-02-1.47932E-04 2.85591E-05-1.37906E-12 4.95185E-14
 -1      1263 1.99997E+01-1.45560E-02-2.58880E-04 1.11067E-04-1.64837E-12 7.21676E-14
 -1      1264 1.99996E+01-1.25786E-02-2.86672E-04 2.35742E-04-9.36460E-13 8.26745E-14
 -1      1265 1.99998E+01-8.59082E-03-1.09118E-04 4.20200E-04-4.11713E-13 7.61267E-14
 -1      1266 1.99999E+01-3.53652E-03 2.69981E-04 5.06273E-04-5.74499E-13-4.49445E-14
 -1      1267 1.99998E+01-3.58498E-04 2.96392E-04 1.68023E-04-2.01757E-13 3.63347E-14
 -1      1268-1.32935E+00-2.34961E+01-3.69766E+00-2.20472E+00 9.11382E-13 2.34368E-13
 -1      1269-1.87261E+00-1.50068E+01-3.10979E+00-3.99173E+00 1.39155E-12 5.59330E-13
 -1      1270 2.00593E-01-2.57894E+00-1.88986E+00-1.98804E-01 2.10720E-12 1.44706E-12
 -1      1271 8.53673E+00 7.39870E+00-3.80343E-01 7.89761E+00 2.79421E-12 2.68940E-12
 -1      1272 2.39458E+01 1.10215E+01 1.22288E+00 1.56084E+01 2.05325E-12 2.69407E-12
 -1      1273 4.40333E+01 8.53322E+00 2.82591E+00 1.78066E+01 8.52762E-13 1.72595E-12
 -1      1274 6.09432E+01 3.94490E+00 3.89842E+00 1.10731E+01 1.56250E-13 3.00759E-13
 -1      1275 6.73265E+01 1.75620E+00 4.35382E+00-1.35605E+00 5.14588E-14-7.28306E-13
 -1      1276 5.84614E+01 4.68697E+00 3.78029E+00-1.33297E+01 6.38517E-13-1.99629E-12
 -1      1277 3.94323E+01 9.64574E+00 2.54548E+00-1.77345E+01 1.47948E-12-2.92233E-12
 -1      1278 1.94995E+01 1.06780E+01 9.07964E-01-1.37854E+01 2.62257E-12-3.19988E-12
 -1      1279 5.29960E+00 4.92128E+00-8.71703E-01-5.29406E+00 3.14393E-12-2.59992E-12
 -1      1280-8.75087E-01-6.41345E+00-2.25929E+00 1.88083E+00 2.77200E-12-1.56120E-12
 -1      1281-1.65877E+00-1.84433E+01-3.29754E+00 4.18571E+00 1.44407E-12-5.12090E-13
 -1      1282-9.07441E-01-2.48778E+01-3.76756E+00 1.19611E+00-4.45421E-13-8.97338E-14
 -1      1283-1.33176E+00-2.24826E+01-3.60264E+00-2.94210E+00-1.96432E-12-4.58876E-13
 -1      1284-1.75028E+00-1.28303E+01-2.88491E+00-3.80504E+00-2.72116E-12-1.04539E-12
 -1      1285 1.16320E+00-3.03393E-01-1.60269E+00 1.01999E+00-2.71072E-12-1.80567E-12
 -1      1286 1.17181E+01 8.91809E+00 5.70678E-02 9.96094E+00-2.48379E-12-2.51754E-12
 -1      1287 3.05839E+01 1.08171E+01 1.89730E+00 1.69953E+01-1.63070E-12-2.52576E-12
 -1      1288 5.11714E+01 6.87849E+00 3.30588E+00 1.61398E+01-7.69773E-13-2.18625E-12
 -1      1289 6.50670E+01 2.44706E+00 4.19503E+00 7.04869E+00-2.35170E-13-1.06148E-12
 -1      1290 6.54754E+01 2.34441E+00 4.21600E+00-5.96067E+00-1.52232E-13 4.21274E-13
 -1      1291 5.23563E+01 6.51738E+00 3.37989E+00-1.56251E+01-6.41376E-13 1.65112E-12
 -1      1292 3.17406E+01 1.06050E+01 1.93505E+00-1.73311E+01-1.57430E-12 2.55085E-12
 -1      1293 1.24453E+01 9.21213E+00 1.15965E-01-1.04582E+01-2.29261E-12 2.35234E-12
 -1      1294 1.41212E+00 7.00649E-02-1.53091E+00-1.26512E+00-2.46603E-12 1.75238E-12
 -1      1295-1.64811E+00-1.34616E+01-2.89441E+00 3.83902E+00-1.11067E-12 5.21305E-13
 -1      1296-1.19090E+00-2.35257E+01-3.70487E+00 2.22317E+00-1.15241E-13 7.97903E-14
 -1      1297 2.21984E+01 1.83620E+00-7.19778E-01-2.74387E+00-6.33660E-14 9.51073E-13
 -1      1298 2.03908E+01 4.68250E+00-4.59474E-02-3.21380E+00-1.65465E-13-1.21972E-13
 -1      1299 2.08727E+01 4.79247E+00-1.09208E-01-4.07220E+00-2.15328E-13 1.16955E-13
 -1      1300 1.95884E+01 4.99709E+00-1.84715E-02-2.54451E+00-1.53787E-13-4.58772E-13
 -1      1301 1.98795E+01 5.09135E+00 3.50074E-03-2.94159E+00-1.77740E-13-3.17579E-13
 -1      1302 2.05726E+01 3.94362E+00-2.43057E-02-2.96906E+00-2.81455E-13-1.08913E-13
 -1      1303 1.92361E+01 5.09781E+00-3.64724E-03-1.95501E+00-1.15769E-13-6.12749E-13
 -1      1304 1.93902E+01 5.15437E+00 1.28156E-02-2.24897E+00-1.36498E-13-5.44429E-13
 -1      1305 1.98134E+01 4.37427E+00-2.31942E-02-2.37161E+00-2.40951E-13-3.85074E-13
 -1      1306 1.90408E+01 5.15104E+00 2.27757E-03-1.45500E+00-8.06352E-14-6.74022E-13
 -1      1307 1.91304E+01 5.18407E+00 1.38673E-02-1.70039E+00-9.38642E-14-6.49373E-13
 -1      1308 1.94376E+01 4.58096E+00-1.90898E-02-1.81343E+00-1.74623E-13-5.15067E-13
 -1      1309 1.89215E+01 5.18570E+00 4.94860E-03-1.02501E+00-4.24322E-14-6.86746E-13
 -1      1310 1.89772E+01 5.20603E+00 1.31405E-02-1.23640E+00-5.54574E-14-6.80393E-13
 -1      1311 1.92247E+01 4.70328E+00-1.52571E-02-1.33632E+00-1.16207E-13-5.61190E-13
 -1      1312 1.88466E+01 5.20883E+00 6.32224E-03-6.29860E-01-1.06989E-14-6.72490E-13
 -1      1313 1.88808E+01 5.22106E+00 1.16241E-02-8.25235E-01-2.46643E-14-6.83686E-13
 -1      1314 1.90916E+01 4.78125E+00-1.31492E-02-9.17567E-01-6.17674E-14-5.70634E-13
 -1      1315 1.88078E+01 5.22312E+00 7.43678E-03-2.60383E-01 2.24358E-14-6.49559E-13
 -1      1316 1.88240E+01 5.22885E+00 1.00223E-02-4.44620E-01 1.19778E-14-6.62198E-13
 -1      1317 1.90110E+01 4.82902E+00-1.20200E-02-5.32809E-01-4.31794E-15-5.47909E-13
 -1      1318 1.88011E+01 5.22957E+00 8.65846E-03 9.85370E-02 5.34765E-14-6.19328E-13
 -1      1319 1.88007E+01 5.22941E+00 8.58650E-03-8.21934E-02 4.45106E-14-6.36964E-13
 -1      1320 1.89729E+01 4.85165E+00-1.15462E-02-1.69858E-01 5.42786E-14-5.34836E-13
 -1      1321 1.88260E+01 5.22861E+00 1.01233E-02 4.61527E-01 8.47629E-14-5.91936E-13
 -1      1322 1.88090E+01 5.22256E+00 7.37559E-03 2.76876E-01 7.88938E-14-6.10673E-13
 -1      1323 1.89739E+01 4.85109E+00-1.15621E-02 1.86145E-01 1.06797E-13-5.07250E-13
 -1      1324 1.88847E+01 5.22007E+00 1.17532E-02 8.43598E-01 1.14977E-13-5.45498E-13
 -1      1325 1.88496E+01 5.20764E+00 6.27481E-03 6.47253E-01 1.02524E-13-5.74445E-13
 -1      1326 1.90140E+01 4.82715E+00-1.20675E-02 5.49727E-01 1.53583E-13-4.82482E-13
 -1      1327 1.89819E+01 5.20439E+00 1.33657E-02 1.25372E+00 1.46598E-13-4.68457E-13
 -1      1328 1.89253E+01 5.18362E+00 4.87073E-03 1.04091E+00 1.35300E-13-5.14547E-13
 -1      1329 1.90964E+01 4.77796E+00-1.30984E-02 9.32466E-01 2.03817E-13-4.26967E-13
 -1      1330 1.91391E+01 5.18056E+00 1.41850E-02 1.72601E+00 1.83246E-13-3.42240E-13
 -1      1331 1.90476E+01 5.14672E+00 2.14391E-03 1.47784E+00 1.65905E-13-4.18455E-13
 -1      1332 1.92319E+01 4.69697E+00-1.52600E-02 1.35409E+00 2.57446E-13-3.41241E-13
 -1      1333 1.94016E+01 5.14824E+00 1.24624E-02 2.28286E+00 2.17285E-13-1.42390E-13
 -1      1334 1.92462E+01 5.08984E+00-4.45113E-03 1.98438E+00 2.00326E-13-2.61902E-13
 -1      1335 1.94519E+01 4.56868E+00-1.90118E-02 1.83918E+00 3.06928E-13-2.08871E-13
 -1      1336 1.99044E+01 5.10021E+00 9.22434E-03 2.97979E+00 2.28879E-13 2.07050E-13
 -1      1337 1.96002E+01 4.98832E+00-1.92858E-02 2.58630E+00 2.08014E-13-2.61943E-15
 -1      1338 1.98347E+01 4.35480E+00-2.33291E-02 2.41002E+00 3.40252E-13 1.69448E-14
 -1      1339 2.11023E+01 4.88805E+00 1.07732E-02 3.96805E+00 1.86129E-13 8.07257E-13
 -1      1340 2.03651E+01 4.72525E+00-4.52638E-02 3.32213E+00 1.83631E-13 4.46504E-13
 -1      1341 2.06101E+01 3.90723E+00-2.07022E-02 3.07160E+00 3.29559E-13 3.85331E-13
 -1      1342 2.70609E+01 3.17834E+00 9.11267E-01 4.51855E+00 7.11237E-14 1.85446E-12
 -1      1343 2.19855E+01 3.50799E+00-1.78714E-01 3.81380E+00 8.11573E-14 1.13917E-12
 -1      1344 2.21092E+01 2.54741E+00-3.10840E-02 3.36780E+00 2.83447E-13 9.30145E-13
 -1      1345 2.13694E+01 3.55680E-01-7.59264E-01 1.14577E+00 1.35489E-13 1.82299E-12
 -1      1346 2.19613E+01 1.29029E-01-3.98835E-01-1.24131E+00-1.83298E-13 1.01125E-12
 -1      1347 2.06868E+01 3.03637E-01-1.62475E-01-7.68453E-01-1.70960E-13 7.90368E-13
 -1      1348 2.01219E+01 1.53600E-01-7.24093E-02-3.65118E-01-1.36117E-13 7.07146E-13
 -1      1349 1.96977E+01 9.22909E-02-1.39004E-02-2.93203E-01-1.33105E-13 5.08701E-13
 -1      1350 2.10156E+01 3.65982E-01-1.03889E-01-1.20055E+00-2.94466E-13 3.87183E-13
 -1      1351 1.93811E+01 6.68500E-02 3.52144E-03-9.46072E-02-1.11090E-13 4.42705E-13
 -1      1352 1.92773E+01 4.45466E-02 1.37950E-02-7.53490E-02-9.54237E-14 2.87437E-13
 -1      1353 2.00380E+01 1.35696E-01-3.58413E-02-4.26776E-01-2.30663E-13 2.56493E-13
 -1      1354 1.91669E+01 3.58846E-02 1.34291E-02 2.27571E-02-5.48936E-14 2.23717E-13
 -1      1355 1.92104E+01 2.45363E-02 1.15298E-02 3.46067E-02-5.32369E-14 1.45477E-13
 -1      1356 1.96495E+01 6.12955E-02-9.70189E-03-7.76086E-02-1.56979E-13 1.44287E-13
 -1      1357 1.92178E+01 2.22799E-02 8.85929E-03 9.10807E-02-3.32898E-14 1.12438E-13
 -1      1358 1.93422E+01 1.60193E-02 6.91874E-03 9.91523E-02-3.98848E-14 6.06303E-14
 -1      1359 1.95515E+01 3.35548E-02-5.21668E-03 1.07137E-01-9.43082E-14 5.06453E-14
 -1      1360 1.94237E+01 1.60433E-02 4.65812E-03 1.37271E-01-4.90270E-14 1.60930E-14
 -1      1361 1.96015E+01 1.21940E-02 4.11830E-03 1.43594E-01-5.34958E-14-3.82645E-14
 -1      1362 1.96364E+01 2.24955E-02-4.44329E-03 2.21694E-01-9.89308E-14 5.60012E-15
 -1      1363 1.97348E+01 1.32677E-02 2.26443E-03 1.73354E-01-1.67869E-14-5.70499E-14
 -1      1364 1.99546E+01 1.06000E-02 2.61342E-03 1.79028E-01-2.12794E-14-8.55887E-14
 -1      1365 1.98439E+01 1.81683E-02-4.06078E-03 3.04154E-01-6.13043E-14-3.39707E-14
 -1      1366 2.01283E+01 1.21885E-02 8.90365E-04 2.05190E-01-1.39483E-14-8.18850E-14
 -1      1367 2.03854E+01 9.91571E-03 1.65924E-03 2.10753E-01-9.68539E-15-9.42805E-14
 -1      1368 2.01421E+01 1.68600E-02-3.77155E-03 3.72110E-01-4.56733E-14-1.00252E-13
 -1      1369 2.05934E+01 1.16294E-02-6.97650E-05 2.35053E-01-1.96229E-14-8.19067E-14
 -1      1370 2.08856E+01 9.06751E-03 8.72640E-04 2.40564E-01-4.44480E-14-1.24272E-13
 -1      1371 2.05141E+01 1.64989E-02-3.56885E-03 4.33418E-01-3.73031E-14-8.45541E-14
 -1      1372 2.11228E+01 1.04394E-02-8.62854E-04 2.62148E-01-5.79017E-14-1.35893E-13
 -1      1373 2.14464E+01 6.85876E-03 1.20720E-04 2.67097E-01-1.37282E-15-1.90981E-13
 -1      1374 2.09491E+01 1.52286E-02-3.30209E-03 4.89281E-01-6.17117E-14-3.18276E-14
 -1      1375 2.17062E+01 7.21077E-03-1.48792E-03 2.82180E-01 3.72680E-14-2.20615E-13
 -1      1376 2.20511E+01 1.80174E-03-5.53838E-04 2.85287E-01-1.31887E-14-2.12889E-13
 -1      1377 2.14362E+01 1.08046E-02-2.67586E-03 5.34354E-01-2.75769E-14-9.77018E-14
 -1      1378 2.23213E+01 1.67327E-04-1.72702E-03 2.86508E-01-6.54001E-14-2.30383E-13
 -1      1379 2.26657E+01-7.83630E-03-9.18786E-04 2.85482E-01-7.82133E-14-3.39586E-13
 -1      1380 2.19576E+01 3.50897E-04-1.26310E-03 5.55555E-01-7.57514E-14-1.97821E-13
 -1      1381 2.29254E+01-1.26515E-02-1.13220E-03 2.61557E-01-1.03789E-14-3.61357E-13
 -1      1382 2.32294E+01-2.35575E-02-5.30002E-04 2.52972E-01 4.27176E-15-3.71671E-13
 -1      1383 2.24825E+01-1.93963E-02 1.47318E-03 5.30827E-01-5.68482E-14-2.33653E-13
 -1      1384 2.34460E+01-3.25498E-02 9.04733E-04 1.89849E-01 1.32346E-14-3.76746E-13
 -1      1385 2.36479E+01-4.53348E-02 1.12071E-03 1.69560E-01-1.07761E-14-3.79084E-13
 -1      1386 2.29599E+01-5.08324E-02 6.05353E-03 4.29881E-01-9.00755E-15-2.77576E-13
 -1      1387 2.37765E+01-5.82740E-02 4.72607E-03 5.50789E-02-2.85596E-14-3.42741E-13
 -1      1388 2.37966E+01-6.92531E-02 4.21058E-03 1.98763E-02-3.48679E-14-3.75534E-13
 -1      1389 2.33152E+01-9.23715E-02 1.25942E-02 2.20677E-01-8.64239E-15-2.35974E-13
 -1      1390 2.37861E+01-8.28092E-02 9.74886E-03-1.45859E-01-4.39145E-15-3.92641E-13
 -1      1391 2.35475E+01-8.48072E-02 7.70791E-03-1.94459E-01-4.33681E-16-3.73979E-13
 -1      1392 2.34540E+01-1.33647E-01 2.00122E-02-1.13277E-01-1.87385E-14-1.95428E-13
 -1      1393 2.33579E+01-9.16360E-02 1.33465E-02-3.84308E-01 5.04163E-14-3.57363E-13
 -1      1394 2.28290E+01-7.56761E-02 9.02776E-03-4.35398E-01 3.64353E-14-2.68077E-13
 -1      1395 2.32828E+01-1.51832E-01 2.50954E-02-5.42538E-01 4.36595E-14-2.09679E-13
 -1      1396 2.24612E+01-6.62273E-02 1.18015E-02-5.85867E-01-7.84442E-15-2.65121E-13
 -1      1397 2.17099E+01-2.77426E-02 4.74291E-03-6.17168E-01-5.59067E-14-3.16192E-13
 -1      1398 2.27554E+01-1.17508E-01 2.23748E-02-9.60802E-01 2.39600E-14-2.56141E-13
 -1      1399 2.12379E+01 1.57626E-03 2.20189E-03-6.42607E-01-5.50887E-14-3.12049E-13
 -1      1400 2.04600E+01 5.36266E-02-6.09917E-03-6.28816E-01-6.32203E-14-4.01221E-13
 -1      1401 2.19363E+01-1.42441E-02 7.32684E-03-1.18635E+00-5.05793E-14-2.50062E-13
 -1      1402 2.00374E+01 9.08459E-02-1.21596E-02-4.72758E-01 2.60902E-14-4.21989E-13
 -1      1403 1.95066E+01 1.32073E-01-1.84067E-02-4.05715E-01 3.26475E-15-3.56819E-13
 -1      1404 2.10475E+01 1.30501E-01-1.84002E-02-1.03791E+00-4.91118E-14-2.87713E-13
 -1      1405 1.93100E+01 1.52482E-01-2.22328E-02-1.01738E-01 2.26069E-14-3.10287E-13
 -1      1406 1.92450E+01 1.58150E-01-2.30082E-02-6.22362E-03 1.96319E-14-2.69530E-13
 -1      1407 2.04250E+01 2.45970E-01-4.09003E-02-4.78107E-01 3.25902E-14-3.75022E-13
 -1      1408 1.93681E+01 1.45909E-01-2.06414E-02 3.18314E-01-4.72313E-14-3.03375E-13
 -1      1409 1.97992E+01 1.12382E-01-1.54963E-02 3.96753E-01-7.93515E-14-3.58429E-13
 -1      1410 2.03505E+01 2.61752E-01-4.41032E-02 2.94702E-01-7.81406E-14-4.20616E-13
 -1      1411 2.01860E+01 7.73171E-02-9.36000E-03 6.00662E-01-5.00745E-14-3.84262E-13
 -1      1412 2.09354E+01 2.54836E-02-1.15102E-03 6.29321E-01-4.12196E-14-4.81483E-13
 -1      1413 2.08638E+01 1.68125E-01-2.52687E-02 9.40696E-01-5.68053E-14-3.46249E-13
 -1      1414 2.14215E+01-7.71328E-03 2.66661E-03 6.50851E-01 6.05709E-14-4.60416E-13
 -1      1415 2.22159E+01-5.12918E-02 1.03400E-02 6.29745E-01 5.18600E-14-3.18696E-13
 -1      1416 2.17340E+01 2.36691E-02 1.37201E-03 1.20667E+00-1.41397E-14-2.39902E-13
 -1      1417 2.26340E+01-6.59783E-02 8.77510E-03 5.06226E-01 9.08648E-15-2.97699E-13
 -1      1418 2.32490E+01-8.77849E-02 1.39236E-02 4.58392E-01-2.78614E-14-2.49713E-13
 -1      1419 2.26209E+01-9.49369E-02 1.98397E-02 1.07022E+00 4.64958E-14-2.88949E-13
 -1      1420 2.35031E+01-8.42032E-02 8.50508E-03 2.74060E-01-7.56296E-14-3.14620E-13
 -1      1421 2.38382E+01-8.60249E-02 1.10772E-02 2.23955E-01-3.66478E-14-4.43479E-13
 -1      1422 2.32640E+01-1.47047E-01 2.51622E-02 6.89052E-01-1.00347E-13-2.93998E-13
 -1      1423 2.39117E+01-7.30640E-02 5.12539E-03 5.12613E-02-2.12868E-14-5.04098E-13
 -1      1424 2.39784E+01-6.35896E-02 6.07584E-03 1.29905E-02-9.85418E-14-6.30664E-13
 -1      1425 2.35606E+01-1.39284E-01 2.13483E-02 2.56219E-01-1.45823E-13-3.30391E-13
 -1      1426 2.39044E+01-4.97273E-02 1.72396E-03-1.11696E-01-8.38513E-14-6.83089E-13
 -1      1427 2.37738E+01-3.69657E-02 1.79959E-03-1.34662E-01-4.45468E-14-8.12982E-13
 -1      1428 2.35359E+01-1.00835E-01 1.40465E-02-9.92488E-02-1.29519E-13-4.95295E-13
 -1      1429 2.36034E+01-2.64752E-02-3.83025E-04-2.05679E-01-3.94216E-15-7.13516E-13
 -1      1430 2.33584E+01-1.50075E-02-7.26032E-04-2.15735E-01 1.27385E-14-6.61741E-13
 -1      1431 2.32773E+01-5.73671E-02 7.04255E-03-3.30385E-01-3.53415E-14-3.44157E-13
 -1      1432 2.31394E+01-8.75861E-03-1.15288E-03-2.43311E-01-3.78261E-14-6.48537E-13
 -1      1433 2.28481E+01-2.25915E-04-1.70933E-03-2.44599E-01-1.50023E-14-6.45678E-13
 -1      1434 2.28830E+01-2.23446E-02 1.87870E-03-4.45037E-01 5.88722E-15-3.97895E-13
 -1      1435 2.26167E+01 2.56876E-03-1.07598E-03-2.43130E-01 2.12578E-14-5.29798E-13
 -1      1436 2.23253E+01 8.16047E-03-1.75049E-03-2.39396E-01 2.50813E-14-4.84859E-13
 -1      1437 2.24343E+01 7.74782E-04-1.31329E-03-4.73667E-01 2.08744E-14-2.46473E-13
 -1      1438 2.21050E+01 8.68312E-03-6.48436E-04-2.21505E-01-2.35488E-14-5.70381E-13
 -1      1439 2.18397E+01 1.19494E-02-1.37644E-03-2.15440E-01-8.28388E-14-5.98363E-13
 -1      1440 2.19879E+01 1.35808E-02-2.96863E-03-4.48732E-01-6.27950E-14-2.44428E-13
 -1      1441 2.16432E+01 1.12110E-02-1.85034E-04-1.90183E-01-8.97947E-14-5.94788E-13
 -1      1442 2.14159E+01 1.28545E-02-9.09071E-04-1.83469E-01-7.85830E-14-8.10348E-13
 -1      1443 2.15780E+01 1.91233E-02-3.60399E-03-3.95981E-01-3.94203E-14-4.28932E-13
 -1      1444 2.12487E+01 1.15516E-02 1.74592E-04-1.56546E-01-3.14286E-14-7.33731E-13
 -1      1445 2.10621E+01 1.21559E-02-4.98972E-04-1.50118E-01 5.72225E-14-8.06259E-13
 -1      1446 2.12213E+01 2.02024E-02-3.63491E-03-3.32836E-01-8.86082E-14-4.17362E-13
 -1      1447 2.09248E+01 1.07076E-02 3.99339E-04-1.24716E-01-9.33455E-15-7.24076E-13
 -1      1448 2.07766E+01 1.06956E-02-1.93286E-04-1.19022E-01-2.82049E-14-7.17246E-13
 -1      1449 2.09229E+01 1.88641E-02-3.34589E-03-2.69759E-01 6.15890E-14-5.06308E-13
 -1      1450 2.06670E+01 9.32502E-03 5.07981E-04-9.66627E-02 7.15183E-14-7.58638E-13
 -1      1451 2.05526E+01 8.97994E-03 1.03326E-05-9.18617E-02 8.91886E-14-6.63089E-13
 -1      1452 2.06810E+01 1.64267E-02-2.91455E-03-2.12275E-01-5.71223E-15-4.63117E-13
 -1      1453 2.04673E+01 7.78737E-03 5.33694E-04-7.30595E-02 2.10127E-14-6.77970E-13
 -1      1454 2.03812E+01 7.28868E-03 1.32056E-04-6.91497E-02-3.55324E-14-6.16460E-13
 -1      1455 2.04902E+01 1.36659E-02-2.44462E-03-1.62765E-01 6.27196E-14-3.60161E-13
 -1      1456 2.03164E+01 6.30457E-03 5.07633E-04-5.38548E-02-1.35105E-14-4.11515E-13
 -1      1457 2.02533E+01 5.76050E-03 1.94621E-04-5.07557E-02 5.96028E-14-4.94890E-13
 -1      1458 2.03431E+01 1.09987E-02-1.99278E-03-1.21755E-01 5.49409E-15-2.96659E-13
 -1      1459 2.02052E+01 4.97881E-03 4.53574E-04-3.86356E-02 9.27410E-14-4.87013E-13
 -1      1460 2.01602E+01 4.45087E-03 2.17467E-04-3.62341E-02 6.21760E-14-3.14415E-13
 -1      1461 2.02323E+01 8.62318E-03-1.58700E-03-8.87730E-02 7.90998E-14-2.40824E-13
 -1      1462 2.01254E+01 3.84886E-03 3.87640E-04-2.68412E-02 4.08157E-14-2.94330E-13
 -1      1463 2.00944E+01 3.36884E-03 2.15293E-04-2.50177E-02-7.29884E-14-2.83226E-13
 -1      1464 2.01510E+01 6.61120E-03-1.23833E-03-6.28811E-02 1.28913E-13-1.88423E-13
 -1      1465 2.00700E+01 2.91804E-03 3.19760E-04-1.78839E-02-1.79483E-13-3.23443E-13
 -1      1466 2.00496E+01 2.49925E-03 1.98396E-04-1.65258E-02-8.87109E-14-5.09156E-13
 -1      1467 2.00928E+01 4.96623E-03-9.48169E-04-4.29800E-02-1.95300E-13-3.10724E-13
 -1      1468 2.00331E+01 2.17105E-03 2.55390E-04-1.12126E-02-3.10302E-14-4.68005E-13
 -1      1469 2.00206E+01 1.81555E-03 1.73494E-04-1.02208E-02 4.71454E-15-5.87929E-13
 -1      1470 2.00526E+01 3.65729E-03-7.12635E-04-2.79825E-02-1.38002E-13-2.17169E-13
 -1      1471 2.00101E+01 1.58376E-03 1.96916E-04-6.34378E-03 4.56975E-14-3.38959E-13
 -1      1472 2.00032E+01 1.28675E-03 1.44568E-04-5.63485E-03 9.61314E-14-2.86873E-13
 -1      1473 2.00260E+01 2.63818E-03-5.25255E-04-1.69018E-02 1.80155E-13 3.40252E-14
 -1      1474 1.99971E+01 1.12826E-03 1.44761E-04-2.87405E-03 1.47941E-13-3.49372E-13
 -1      1475 1.99942E+01 8.80540E-04 1.13827E-04-2.38091E-03 1.28179E-13-1.79951E-13
 -1      1476 2.00096E+01 1.85712E-03-3.78479E-04-8.89297E-03 1.55278E-13 8.20832E-14
 -1      1477 1.99912E+01 7.74679E-04 9.86371E-05-4.85488E-04 5.86231E-14-1.32422E-13
 -1      1478 1.99911E+01 5.63557E-04 8.36726E-05-1.57634E-04 9.84072E-14-4.46661E-14
 -1      1479 2.00004E+01 1.26061E-03-2.64139E-04-3.27029E-03 2.06575E-13 6.31112E-14
 -1      1480 1.99902E+01 4.89199E-04 6.07480E-05 1.04879E-03 1.47701E-13 5.77772E-14
 -1      1481 1.99919E+01 2.95917E-04 6.19677E-05 1.24238E-03-1.09154E-14 1.04343E-13
 -1      1482 1.99964E+01 7.90986E-04-1.72403E-04 4.81824E-04 1.44154E-13 1.07956E-13
 -1      1483 1.99922E+01 2.19947E-04 4.23214E-05 1.83939E-03 6.12149E-14 7.90882E-14
 -1      1484 1.99947E+01 1.59318E-05 6.16493E-05 1.89889E-03 9.63199E-14 2.84006E-13
 -1      1485 1.99958E+01 3.66409E-04-8.92249E-05 2.67513E-03 8.80066E-14 4.67744E-14
 -1      1486 1.99956E+01-6.83367E-05 7.43832E-05 1.83533E-03 1.32179E-14 3.67061E-13
 -1      1487 1.99979E+01-3.15702E-04 1.31126E-04 1.77176E-03-2.40330E-14 3.85211E-13
 -1      1488 1.99969E+01-1.67859E-04-2.36788E-06 3.36768E-03 1.24051E-13 2.01332E-13
 -1      1489 1.99992E+01-5.55760E-04 2.88582E-04 5.05884E-04-2.74107E-13 2.33394E-13
 -1      1490 1.99990E+01-1.25792E-03 1.05992E-04 2.01397E-03-2.22852E-13 9.66880E-14
 -1      1491 2.02771E+01 7.50929E-02-1.50124E-01 4.52269E-01 1.28210E-13 1.55299E-12
 -1      1492 2.14977E+01 2.15834E-01-2.28449E-01 6.86952E-01 1.09024E-13 1.72815E-12
 -1      1493 2.17235E+01 8.72047E-01-8.63399E-02 1.99803E+00 2.08014E-13 1.18688E-12
 -1      1494 1.94316E+01 3.33989E-02-2.06968E-02 1.53807E-01 1.00746E-13 1.30359E-12
 -1      1495 1.98078E+01 1.14615E-01-6.14446E-02 2.06270E-01 8.82454E-14 1.43598E-12
 -1      1496 2.03700E+01 1.86373E-01-5.54235E-02 7.24445E-01 1.88495E-13 9.96453E-13
 -1      1497 1.91452E+01 1.72437E-02 5.52744E-03 1.50244E-02 5.81115E-14 1.11822E-12
 -1      1498 1.92339E+01 5.44663E-02 1.66727E-03 4.31524E-02 6.42802E-14 1.22351E-12
 -1      1499 1.97073E+01 7.40917E-02-1.28935E-02 2.30567E-01 1.55112E-13 8.41051E-13
 -1      1500 1.91546E+01 1.03196E-02 6.40501E-03-5.86603E-02 5.94793E-14 9.88071E-13
 -1      1501 1.91065E+01 3.05177E-02 1.15025E-02-4.11886E-02 4.80280E-14 1.07020E-12
 -1      1502 1.94723E+01 3.59567E-02-3.71494E-03-1.42717E-03 1.06225E-13 7.09892E-13
 -1      1503 1.93370E+01 7.47395E-03 3.89768E-03-1.04865E-01 3.52656E-14 8.78049E-13
 -1      1504 1.92107E+01 2.03633E-02 8.87601E-03-9.23459E-02 3.37922E-14 9.39375E-13
 -1      1505 1.94834E+01 2.06126E-02-3.39141E-03-1.31995E-01 8.20520E-14 6.51613E-13
 -1      1506 1.96359E+01 6.40787E-03 2.10773E-03-1.39089E-01 1.44416E-14 8.40477E-13
 -1      1507 1.94564E+01 1.58631E-02 5.73866E-03-1.28753E-01 1.83725E-14 8.61913E-13
 -1      1508 1.96495E+01 1.42719E-02-4.00647E-03-2.18123E-01 3.40882E-14 6.12673E-13
 -1      1509 2.00257E+01 6.20605E-03 1.00604E-03-1.68686E-01 1.50782E-14 7.74679E-13
 -1      1510 1.98030E+01 1.41440E-02 3.81446E-03-1.59020E-01 9.14546E-15 7.97225E-13
 -1      1511 1.99246E+01 1.19849E-02-4.44546E-03-2.84545E-01 3.18443E-14 5.46071E-13
 -1      1512 2.04959E+01 6.31919E-03 2.23634E-04-1.97222E-01 2.76996E-14 7.18351E-13
 -1      1513 2.02331E+01 1.38138E-02 2.67938E-03-1.87376E-01 2.60785E-14 7.54369E-13
 -1      1514 2.02859E+01 1.16213E-02-4.82825E-03-3.43242E-01 4.28186E-14 4.77910E-13
 -1      1515 2.10423E+01 6.20348E-03-3.54155E-04-2.25614E-01 3.82788E-14 6.10683E-13
 -1      1516 2.07397E+01 1.38585E-02 1.89681E-03-2.15308E-01 2.16984E-14 6.44571E-13
 -1      1517 2.07224E+01 1.18184E-02-5.21331E-03-3.99399E-01 6.56046E-14 3.75852E-13
 -1      1518 2.16597E+01 5.14589E-03-6.00686E-04-2.51971E-01 4.23461E-14 5.78152E-13
 -1      1519 2.13189E+01 1.31489E-02 1.25845E-03-2.41651E-01 5.36034E-14 6.10434E-13
 -1      1520 2.12268E+01 1.12001E-02-5.44207E-03-4.52802E-01 6.49827E-14 3.41863E-13
 -1      1521 2.23330E+01 2.16054E-03-1.53984E-04-2.70740E-01 6.99153E-14 4.96386E-13
 -1      1522 2.19617E+01 1.01551E-02 7.35230E-04-2.61911E-01 4.65904E-14 5.59719E-13
 -1      1523 2.17888E+01 7.97174E-03-5.12926E-03-4.97166E-01 4.92363E-14 3.97241E-13
 -1      1524 2.30270E+01-3.99589E-03 1.61352E-03-2.71507E-01-5.18563E-15 4.24166E-13
 -1      1525 2.26448E+01 2.81424E-03 4.75205E-04-2.67213E-01 6.99755E-15 4.41794E-13
 -1      1526 2.23876E+01-3.00137E-04-3.63181E-03-5.18412E-01 5.89484E-14 3.28576E-13
 -1      1527 2.36734E+01-1.44951E-02 5.51123E-03-2.38285E-01-1.49143E-14 4.87794E-13
 -1      1528 2.33201E+01-1.12410E-02 8.38428E-04-2.43502E-01-8.01356E-15 4.43321E-13
 -1      1529 2.29828E+01-1.65366E-02-7.07004E-05-4.92958E-01 9.86667E-15 2.70682E-13
 -1      1530 2.41605E+01-2.94331E-02 1.20457E-02-1.51190E-01-2.53591E-14 4.32613E-13
 -1      1531 2.39023E+01-3.35974E-02 2.33555E-03-1.72542E-01-1.11335E-14 4.70341E-13
 -1      1532 2.35067E+01-4.30675E-02 6.38994E-03-3.88380E-01-4.42354E-15 2.90110E-13
 -1      1533 2.43355E+01-4.59861E-02 2.02771E-02 6.09184E-03-1.04170E-15 5.00373E-13
 -1      1534 2.42639E+01-6.25839E-02 5.24095E-03-3.75653E-02-1.40330E-14 4.77834E-13
 -1      1535 2.38592E+01-7.87864E-02 1.57438E-02-1.71053E-01-3.20525E-14 3.75791E-13
 -1      1536 2.40350E+01-5.61580E-02 2.62523E-02 2.29927E-01 7.76549E-15 4.44193E-13
 -1      1537 2.42475E+01-8.95689E-02 8.79973E-03 1.63392E-01-7.66054E-15 4.64240E-13
 -1      1538 2.39181E+01-1.14447E-01 2.57950E-02 1.73290E-01 2.23155E-14 3.39317E-13
 -1      1539 2.31641E+01-4.72060E-02 2.26273E-02 4.73196E-01 6.70583E-14 3.23311E-13
 -1      1540 2.37153E+01-9.67984E-02 1.02406E-02 3.96646E-01 4.66849E-14 4.14002E-13
 -1      1541 2.35743E+01-1.28144E-01 3.11733E-02 6.04094E-01 6.55830E-14 3.38039E-13
 -1      1542 2.18142E+01-1.01316E-02 2.84659E-03 6.34689E-01-1.26229E-14 2.47385E-13
 -1      1543 2.26438E+01-6.42253E-02 5.30862E-03 5.78000E-01 8.15307E-14 3.11806E-13
 -1      1544 2.28038E+01-9.01206E-02 2.49916E-02 9.91285E-01 9.03401E-14 3.49800E-13
 -1      1545 2.03457E+01 4.69023E-02-2.98939E-02 5.95210E-01 2.25102E-14 2.82434E-13
 -1      1546 2.12313E+01 1.19971E-02-8.03855E-03 5.94601E-01-5.87737E-14 2.55539E-13
 -1      1547 2.17537E+01 1.39867E-02 4.91043E-03 1.13246E+00-1.46038E-14 2.86743E-13
 -1      1548 1.93145E+01 9.29466E-02-5.77865E-02 3.06762E-01 8.48280E-15 3.20251E-13
 -1      1549 1.99223E+01 1.01824E-01-2.45722E-02 3.77640E-01 2.41630E-14 3.77628E-13
 -1      1550 2.07669E+01 1.52732E-01-2.07372E-02 8.61710E-01 1.27866E-14 4.11986E-13
 -1      1551 1.91903E+01 9.55837E-02-5.94940E-02-1.29650E-01 3.56711E-14 4.30517E-13
 -1      1552 1.92469E+01 1.52013E-01-3.26515E-02-1.45011E-02-2.87773E-14 3.76817E-13
 -1      1553 2.02599E+01 2.45563E-01-3.68684E-02 2.10645E-01-6.42680E-14 4.52254E-13
 -1      1554 2.00410E+01 5.29227E-02-3.12297E-02-5.05615E-01 1.06217E-13 2.00590E-13
 -1      1555 1.95162E+01 1.30277E-01-2.41753E-02-4.02346E-01 1.18926E-13 3.58588E-13
 -1      1556 2.04755E+01 2.23417E-01-3.45397E-02-5.42745E-01 1.26243E-13 3.66871E-13
 -1      1557 2.14802E+01-4.06158E-03 7.70496E-03-6.57379E-01-1.16772E-14 8.38149E-14
 -1      1558 2.06088E+01 5.62822E-02-3.94300E-03-6.08827E-01 2.05990E-14 1.12181E-13
 -1      1559 2.13108E+01 9.87718E-02-1.90674E-02-1.04772E+00 1.05371E-13 1.22079E-13
 -1      1560 2.29379E+01-4.32475E-02 3.38468E-02-5.71366E-01-6.34748E-14 1.78718E-13
 -1      1561 2.20587E+01-2.06426E-02 1.46441E-02-5.81613E-01-7.26606E-14 3.81015E-14
 -1      1562 2.23964E+01-4.46354E-02-2.68286E-03-1.12903E+00-4.57733E-14 2.56045E-15
 -1      1563 2.39851E+01-5.42357E-02 3.91855E-02-3.49907E-01 8.36657E-15 2.14877E-13
 -1      1564 2.33514E+01-6.52147E-02 2.22349E-02-3.94603E-01 5.66387E-15 2.79166E-13
 -1      1565 2.33395E+01-1.31695E-01 7.06556E-03-8.59614E-01-8.68264E-14 3.73677E-14
 -1      1566 2.44675E+01-4.53482E-02 3.02304E-02-1.11156E-01-2.21923E-14 2.84720E-13
 -1      1567 2.41692E+01-7.32095E-02 1.93201E-02-1.62555E-01 1.21778E-14 3.01092E-13
 -1      1568 2.39078E+01-1.46105E-01 9.85960E-03-4.39618E-01 8.78637E-15 2.23313E-13
 -1      1569 2.44475E+01-2.91422E-02 1.70838E-02 7.36633E-02 6.81911E-14 1.09930E-13
 -1      1570 2.44452E+01-5.87181E-02 1.16202E-02 3.23327E-02 3.79774E-14 1.94404E-13
 -1      1571 2.40589E+01-1.14363E-01 8.62177E-03-4.49914E-02 8.41376E-14 3.46945E-13
 -1      1572 2.40829E+01-1.40718E-02 6.05810E-03 1.84975E-01 8.50400E-14-1.37956E-13
 -1      1573 2.42813E+01-3.72275E-02 4.24359E-03 1.58688E-01 6.04703E-14 6.01411E-14
 -1      1574 2.38727E+01-6.89747E-02 6.04727E-03 2.36491E-01 1.16207E-13 2.56113E-13
 -1      1575 2.35360E+01-3.32075E-03-8.43167E-04 2.33324E-01-4.68577E-14-2.19980E-13
 -1      1576 2.38385E+01-1.80328E-02-6.05431E-04 2.20310E-01-2.29244E-15-1.96208E-13
 -1      1577 2.34711E+01-2.97038E-02 3.60569E-03 3.92534E-01 9.09017E-14 1.00240E-13
 -1      1578 2.29307E+01 3.04833E-03-4.16847E-03 2.38744E-01-7.44425E-14-1.24184E-13
 -1      1579 2.32647E+01-4.38842E-03-2.85523E-03 2.35033E-01-3.39351E-14-2.38174E-13
 -1      1580 2.29668E+01-3.02056E-03 1.80642E-03 4.48880E-01-3.14482E-14-8.98673E-15
 -1      1581 2.23462E+01 6.13657E-03-5.17412E-03 2.19674E-01-3.59788E-14 2.50754E-14
 -1      1582 2.26665E+01 3.83462E-03-3.35063E-03 2.21514E-01-4.76314E-14-8.61550E-14
 -1      1583 2.24428E+01 1.19986E-02 6.44627E-04 4.40226E-01-7.82738E-14 2.49961E-14
 -1      1584 2.18246E+01 7.13640E-03-4.95697E-03 1.89398E-01 5.31675E-14 1.67678E-14
 -1      1585 2.21081E+01 7.97631E-03-2.95529E-03 1.94034E-01 5.56001E-15-3.45002E-14
 -1      1586 2.19506E+01 1.86661E-02-4.18177E-05 3.96096E-01-3.25720E-14-3.37829E-14
 -1      1587 2.13829E+01 6.96567E-03-4.22986E-03 1.56183E-01-9.26104E-15-5.13478E-15
 -1      1588 2.16208E+01 9.46153E-03-2.25569E-03 1.61856E-01 3.90948E-14 1.74149E-14
 -1      1589 2.15171E+01 2.02130E-02-4.16803E-04 3.37062E-01 6.06598E-14-2.73104E-13
 -1      1590 2.10226E+01 6.22721E-03-3.38025E-03 1.24569E-01-7.35106E-14-3.14822E-14
 -1      1591 2.12148E+01 9.40250E-03-1.55811E-03 1.30270E-01-4.78120E-14-3.77996E-15
 -1      1592 2.11518E+01 1.90146E-02-5.98619E-04 2.75656E-01-3.54994E-14-1.92922E-13
 -1      1593 2.07373E+01 5.27887E-03-2.58766E-03 9.66865E-02 6.39353E-14-2.07720E-13
 -1      1594 2.08881E+01 8.55042E-03-9.83770E-04 1.01900E-01 5.60710E-14-4.35724E-14
 -1      1595 2.08544E+01 1.65824E-02-6.63362E-04 2.18610E-01 8.04239E-14-2.13769E-13
 -1      1596 2.05171E+01 4.31572E-03-1.91820E-03 7.32471E-02 1.25891E-13-4.45608E-13
 -1      1597 2.06324E+01 7.36827E-03-5.56986E-04 7.77565E-02 7.09969E-14-2.77448E-13
 -1      1598 2.06187E+01 1.37866E-02-6.58599E-04 1.68942E-01 1.40768E-13-2.87018E-13
 -1      1599 2.03511E+01 3.43374E-03-1.38308E-03 5.41952E-02-6.46024E-14-3.73039E-13
 -1      1600 2.04371E+01 6.12088E-03-2.61230E-04 5.79528E-02-2.04269E-14-3.87391E-13
 -1      1601 2.04364E+01 1.10826E-02-6.14386E-04 1.27505E-01 1.38231E-14-2.77604E-13
 -1      1602 2.02287E+01 2.67214E-03-9.70325E-04 3.91055E-02-1.67119E-15-3.42002E-13
 -1      1603 2.02914E+01 4.94755E-03-6.81426E-05 4.21521E-02-1.03324E-16-2.79433E-13
 -1      1604 2.02985E+01 8.67962E-03-5.50057E-04 9.39875E-02-7.55023E-14-2.63185E-13
 -1      1605 2.01409E+01 2.03940E-03-6.60341E-04 2.74085E-02 1.10594E-14-1.16269E-13
 -1      1606 2.01854E+01 3.91241E-03 4.99193E-05 2.98259E-02-7.93580E-14-2.39998E-13
 -1      1607 2.01966E+01 6.64975E-03-4.78112E-04 6.75304E-02-8.21993E-14-1.39027E-13
 -1      1608 2.00798E+01 1.52835E-03-4.32890E-04 1.85145E-02-1.61163E-13 1.53090E-13
 -1      1609 2.01102E+01 3.03652E-03 1.15665E-04 2.03982E-02-6.42062E-14-4.01662E-14
 -1      1610 2.01232E+01 4.99334E-03-4.06476E-04 4.70753E-02-1.34650E-13 1.79411E-13
 -1      1611 2.00389E+01 1.12474E-03-2.69884E-04 1.18747E-02 8.54802E-14 1.97233E-13
 -1      1612 2.00588E+01 2.31752E-03 1.46258E-04 1.33197E-02 1.93567E-14 2.16398E-13
 -1      1613 2.00719E+01 3.67657E-03-3.39918E-04 3.15563E-02-3.78551E-14 9.00753E-14
 -1      1614 2.00130E+01 8.11744E-04-1.56262E-04 7.00926E-03 9.08391E-14-1.91571E-13
 -1      1615 2.00252E+01 1.74107E-03 1.53982E-04 8.10245E-03 9.20267E-14 3.98187E-14
 -1      1616 2.00373E+01 2.65187E-03-2.81037E-04 1.99964E-02 1.61939E-13 1.42045E-14
 -1      1617 1.99982E+01 5.72203E-04-7.98993E-05 3.51696E-03 2.85016E-13-6.43136E-13
 -1      1618 2.00047E+01 1.28730E-03 1.47197E-04 4.33357E-03 1.99920E-13-3.50494E-13
 -1      1619 2.00153E+01 1.86859E-03-2.30915E-04 1.15491E-02 3.37414E-13-2.01450E-13
 -1      1620 1.99912E+01 3.89016E-04-3.06280E-05 1.07620E-03 1.67244E-13-1.05144E-12
 -1      1621 1.99938E+01 9.33665E-04 1.31414E-04 1.67821E-03 1.59540E-13-8.81803E-13
 -1      1622 2.00025E+01 1.27745E-03-1.89326E-04 5.51423E-03 3.44814E-13-4.84066E-13
 -1      1623 1.99896E+01 2.43305E-04 2.72973E-06-5.52772E-04 2.35569E-13-1.14066E-12
 -1      1624 1.99895E+01 6.54085E-04 1.10957E-04-1.19037E-04 1.60140E-13-9.51908E-13
 -1      1625 1.99962E+01 8.30529E-04-1.53642E-04 1.34188E-03 2.05057E-13-6.33033E-13
 -1      1626 1.99914E+01 1.12716E-04 3.71412E-05-1.51622E-03-1.39843E-13-1.22834E-12
 -1      1627 1.99896E+01 4.15760E-04 9.23351E-05-1.22507E-03 3.00495E-14-1.28808E-12
 -1      1628 1.99943E+01 4.74637E-04-1.16535E-04-1.35522E-03 1.61205E-13-6.64787E-13
 -1      1629 1.99949E+01-3.59866E-05 9.83070E-05-1.84454E-03 3.88285E-14-1.20934E-12
 -1      1630 1.99924E+01 1.69813E-04 8.90018E-05-1.70084E-03-2.93954E-14-1.15558E-12
 -1      1631 1.99952E+01 1.49285E-04-5.99658E-05-2.76862E-03-4.46206E-14-9.42107E-13
 -1      1632 1.99983E+01-3.01759E-04 1.72503E-04-1.38838E-03 8.28486E-15-1.15932E-12
 -1      1633 1.99961E+01-1.84065E-04 1.20755E-04-1.45059E-03 1.25955E-15-1.09854E-12
 -1      1634 1.99972E+01-3.52187E-04 2.73134E-05-2.87279E-03 1.44752E-14-8.16739E-13
 -1      1635 1.99992E+01-6.27471E-04 2.57591E-04-5.24439E-04-6.11830E-13-6.52679E-13
 -1      1636 1.99998E+01-4.19144E-03 1.79729E-05-1.75674E-03-5.78240E-13 4.44431E-13
 -1      1637 1.99996E+01-2.12373E-03 8.22238E-05-1.62226E-03-1.00016E-12 2.71165E-13
 -1      1638 2.00000E+01-7.20951E-03-4.89410E-05-1.55261E-03-9.50306E-14 2.80982E-13
 -1      1639 1.99999E+01-5.12710E-03 3.50014E-06-1.66172E-03-5.59325E-13 4.23857E-13
 -1      1640 1.99998E+01-3.11578E-03-5.45993E-06-3.10620E-03-3.23521E-13 5.84733E-13
 -1      1641 2.00001E+01-9.14072E-03-5.89108E-05-8.86377E-04 1.64226E-13 3.22694E-14
 -1      1642 2.00001E+01-7.77989E-03-3.01320E-05-1.05040E-03 1.68642E-13 3.30532E-13
 -1      1643 2.00002E+01-4.51469E-03-7.34538E-05-2.35363E-03-3.77488E-14 5.92967E-13
 -1      1644 2.00000E+01-9.73796E-03-4.50138E-05-2.04267E-04 3.90553E-13 1.97935E-13
 -1      1645 2.00000E+01-9.21765E-03-2.97040E-05-3.38151E-04 2.26313E-13 2.74453E-13
 -1      1646 2.00003E+01-5.00355E-03-7.27961E-05-1.07258E-03 1.69601E-13 2.82043E-13
 -1      1647 1.99999E+01-9.32993E-03-2.90442E-05 2.44446E-04 3.42121E-13 1.44910E-13
 -1      1648 2.00000E+01-9.41178E-03-1.69955E-05 1.75702E-04 3.21786E-13-1.65667E-13
 -1      1649 2.00001E+01-4.59870E-03-4.41690E-05 4.20308E-05 1.38107E-13-4.79166E-14
 -1      1650 1.99998E+01-8.47615E-03-1.47830E-05 3.88318E-04 3.87668E-13 9.99506E-14
 -1      1651 1.99998E+01-8.81873E-03-7.24934E-06 3.85695E-04 2.49852E-13 1.61199E-13
 -1      1652 2.00000E+01-3.62987E-03-3.64913E-06 6.50938E-04 5.18222E-14 1.49786E-13
 -1      1653 1.99997E+01-7.76323E-03-4.95580E-06 2.56257E-04 4.52496E-14-1.92432E-13
 -1      1654 1.99997E+01-8.03570E-03-1.15684E-06 3.03293E-04 4.14938E-13-6.34210E-14
 -1      1655 1.99998E+01-2.58191E-03 3.07663E-05 6.89692E-04-7.09008E-15-3.13604E-14
 -1      1656 1.99997E+01-7.58077E-03-3.19512E-07-2.58497E-05-1.08328E-13 6.39935E-14
 -1      1657 1.99997E+01-7.58938E-03-4.24807E-07 3.92544E-05 5.62241E-14-9.62702E-14
 -1      1658 1.99997E+01-1.91891E-03 5.04947E-05 2.91879E-04 1.48653E-13-3.05177E-13
 -1      1659 1.99997E+01-8.00129E-03-1.07177E-06-2.90302E-04-6.00101E-14-5.38266E-14
 -1      1660 1.99997E+01-7.74539E-03-5.01999E-06-2.43146E-04-8.78241E-14 1.42712E-13
 -1      1661 1.99997E+01-1.91034E-03 5.04744E-05-2.66894E-04 4.06686E-15 1.01621E-13
 -1      1662 1.99998E+01-8.76161E-03-7.37381E-06-3.73934E-04-5.60374E-13-2.89759E-13
 -1      1663 1.99998E+01-8.43272E-03-1.48198E-05-3.76551E-04-1.19693E-13-3.19458E-13
 -1      1664 1.99998E+01-2.55629E-03 3.06760E-05-6.66082E-04-2.25310E-13-2.64790E-13
 -1      1665 1.99999E+01-9.32985E-03-1.76890E-05-1.70839E-04-9.26715E-13-2.65465E-15
 -1      1666 1.99999E+01-9.25790E-03-2.94142E-05-2.37704E-04-6.51673E-13-1.67841E-13
 -1      1667 2.00000E+01-3.57873E-03-2.67100E-06-6.34359E-04-3.85876E-13-5.11116E-13
 -1      1668 2.00000E+01-9.12408E-03-2.89345E-05 3.44102E-04-7.84510E-13 2.38285E-14
 -1      1669 2.00000E+01-9.65631E-03-4.61778E-05 2.10633E-04-9.04705E-13 1.94873E-13
 -1      1670 2.00001E+01-4.53568E-03-4.27214E-05-3.21446E-05-2.95539E-13 3.87190E-14
 -1      1671 2.00000E+01-7.70547E-03-3.93918E-05 1.06449E-03-4.91761E-13 1.71395E-13
 -1      1672 2.00001E+01-9.04866E-03-5.87395E-05 8.93244E-04-7.88594E-13 3.81994E-13
 -1      1673 2.00003E+01-4.94496E-03-7.22524E-05 1.08096E-03-2.45639E-13 2.72252E-13
 -1      1674 2.00000E+01-5.12283E-03-1.08731E-05 1.61782E-03-4.35347E-13 8.89893E-14
 -1      1675 2.00000E+01-7.11960E-03-5.81984E-05 1.49693E-03-4.70042E-13 4.37826E-14
 -1      1676 2.00001E+01-4.40417E-03-7.61429E-05 2.35517E-03-3.70988E-13 1.38462E-13
 -1      1677 1.99996E+01-2.12427E-03 3.00748E-05 1.98923E-03-4.08707E-13-7.31251E-14
 -1      1678 1.99997E+01-4.05655E-03-5.35089E-05 2.20588E-03-3.66576E-13 4.69462E-14
 -1      1679 2.00001E+01-2.59665E-03 1.12136E-04 3.25419E-03-3.07224E-13 1.46848E-13
 -1      1680 1.99988E+01-9.34526E-04 1.06582E-04 3.49308E-03-8.65234E-14 2.71258E-14
 -1      1681-3.73475E-01-1.32483E+01-1.42748E+00-6.15309E-01 6.65912E-13 4.28296E-13
 -1      1682-4.52931E-01-1.53235E+01-1.59752E+00 4.76974E-01 2.21420E-13 4.30128E-13
 -1      1683 1.41766E+00-7.87440E+00-1.16098E+00 5.06756E-01 1.11477E-12 6.96221E-13
 -1      1684 7.34926E-01-1.26634E+01-1.61057E+00 1.04329E-02 8.28226E-13 3.74253E-13
 -1      1685 6.90185E+00-7.05943E-01-5.62076E-01 4.42837E+00 1.51146E-12 1.49281E-12
 -1      1686 3.92407E+00-6.05570E+00-1.28152E+00 1.67516E+00 1.18661E-12 9.76441E-13
 -1      1687 1.65680E+01 4.75027E+00 1.73222E-01 9.31307E+00 1.70552E-12 1.89015E-12
 -1      1688 1.05092E+01 1.31537E+00-6.81371E-01 5.73185E+00 1.56031E-12 1.60505E-12
 -1      1689 2.99716E+01 6.40434E+00 9.00893E-01 1.23812E+01 1.20759E-12 1.41576E-12
 -1      1690 2.14652E+01 5.76716E+00 6.58696E-02 1.01707E+01 1.60938E-12 1.61648E-12
 -1      1691 4.39024E+01 5.18561E+00 1.44273E+00 1.10168E+01 6.62720E-13 6.30052E-13
 -1      1692 3.50222E+01 6.76254E+00 8.34978E-01 1.21615E+01 1.04733E-12 1.22413E-12
 -1      1693 5.21037E+01 3.88863E+00 1.62747E+00 4.00557E+00 2.88630E-13-1.26787E-13
 -1      1694 4.67810E+01 5.23719E+00 1.29866E+00 8.38620E+00 5.36432E-13 3.66485E-13
 -1      1695 5.38490E+01 3.86774E+00 1.73942E+00-3.68372E+00 4.44700E-13-8.84792E-13
 -1      1696 5.43437E+01 3.64967E+00 1.72646E+00 2.00641E+00 2.35312E-13-4.80282E-13
 -1      1697 4.49975E+01 5.58394E+00 1.23846E+00-9.84367E+00 8.14182E-13-1.52922E-12
 -1      1698 5.18101E+01 3.99381E+00 1.74231E+00-5.89100E+00 5.45314E-13-1.03245E-12
 -1      1699 3.16948E+01 6.00019E+00 5.14314E-01-1.08015E+01 1.33565E-12-1.79989E-12
 -1      1700 4.06515E+01 5.12292E+00 1.22369E+00-1.06265E+01 9.67948E-13-1.55553E-12
 -1      1701 1.80178E+01 4.58905E+00-1.93481E-01-8.85104E+00 1.96476E-12-2.03682E-12
 -1      1702 2.63595E+01 5.88275E+00 6.29045E-01-1.16529E+01 1.64135E-12-2.06191E-12
 -1      1703 8.12314E+00-6.03124E-01-8.58280E-01-4.40585E+00 2.00751E-12-1.62736E-12
 -1      1704 1.31200E+01 3.49294E+00-6.92846E-02-7.86401E+00 2.03704E-12-2.04370E-12
 -1      1705 3.02794E+00-8.45994E+00-1.35236E+00-1.15815E+00 1.32494E-12-9.72722E-13
 -1      1706 5.31488E+00-2.97415E+00-7.14593E-01-3.39311E+00 1.77569E-12-1.35342E-12
 -1      1707-6.75755E-03-1.48535E+01-1.84120E+00 3.65124E-01 4.91163E-13-5.61579E-13
 -1      1708 2.67062E-01-1.05055E+01-1.41590E+00 4.79108E-01 1.22136E-12-8.32355E-13
 -1      1709-7.23961E-01-1.68765E+01-1.87369E+00-5.15349E-01-7.05082E-13-4.57273E-13
 -1      1710-7.45703E-01-1.59134E+01-1.80602E+00 1.02537E+00 1.26121E-13-5.38597E-13
 -1      1711-2.96851E-01-1.31330E+01-1.53305E+00-7.01366E-01-1.46227E-12-6.51951E-13
 -1      1712-3.77036E-01-1.59502E+01-1.78067E+00 2.01971E-01-9.58372E-13-4.20691E-13
 -1      1713 1.86180E+00-6.73762E+00-1.13006E+00 8.34066E-01-1.89804E-12-9.08523E-13
 -1      1714 9.29063E-01-1.19659E+01-1.66858E+00-1.07314E-01-1.74216E-12-6.70929E-13
 -1      1715 8.07503E+00 7.43075E-01-4.35839E-01 5.28935E+00-1.85985E-12-1.50879E-12
 -1      1716 4.48105E+00-4.64960E+00-1.25034E+00 2.10023E+00-1.88072E-12-1.13459E-12
 -1      1717 1.97075E+01 5.56166E+00 3.53336E-01 1.04771E+01-1.61859E-12-1.74183E-12
 -1      1718 1.22789E+01 2.59258E+00-5.84481E-01 6.69915E+00-1.78246E-12-1.62492E-12
 -1      1719 3.48382E+01 5.73594E+00 9.94906E-01 1.19390E+01-1.00986E-12-1.64757E-12
 -1      1720 2.54419E+01 5.99690E+00 2.25458E-01 1.06614E+01-1.40299E-12-1.71196E-12
 -1      1721 4.74003E+01 4.45879E+00 1.46409E+00 8.07607E+00-5.92727E-13-1.23490E-12
 -1      1722 3.94129E+01 6.04042E+00 9.13214E-01 1.04866E+01-9.00446E-13-1.53644E-12
 -1      1723 5.43328E+01 3.54751E+00 1.79290E+00 1.61818E+00-4.95715E-13-3.61655E-13
 -1      1724 5.10526E+01 4.48183E+00 1.56354E+00 6.82902E+00-5.89612E-13-9.82991E-13
 -1      1725 5.10974E+01 4.39410E+00 1.50320E+00-6.05434E+00-5.21472E-13 4.87943E-13
 -1      1726 5.40517E+01 3.64811E+00 1.75345E+00-7.79456E-01-4.60132E-13-9.22595E-14
 -1      1727 4.03091E+01 5.95395E+00 9.68624E-01-1.03607E+01-8.73107E-13 1.14397E-12
 -1      1728 4.80034E+01 4.33568E+00 1.46856E+00-7.65228E+00-5.26447E-13 7.00329E-13
 -1      1729 2.60438E+01 6.66431E+00 3.30811E-01-1.13522E+01-1.30251E-12 1.63602E-12
 -1      1730 3.58261E+01 6.08216E+00 1.11767E+00-1.24477E+01-9.63174E-13 1.50058E-12
 -1      1731 1.29039E+01 2.94795E+00-5.10306E-01-6.98447E+00-1.68532E-12 1.39733E-12
 -1      1732 2.05287E+01 5.79492E+00 4.33631E-01-1.07651E+01-1.43463E-12 1.58173E-12
 -1      1733 4.52112E+00-4.49704E+00-1.24639E+00-2.11876E+00-1.19527E-12 1.05543E-12
 -1      1734 8.35531E+00 1.06585E+00-4.10597E-01-5.51111E+00-1.59606E-12 1.40221E-12
 -1      1735 6.74049E-01-1.26672E+01-1.73271E+00 2.60382E-01-3.43281E-13 4.93102E-13
 -1      1736 1.59904E+00-6.90089E+00-1.16867E+00-6.50815E-01-1.00930E-12 9.34031E-13
 -1      1737-5.35404E-01-1.59613E+01-1.71643E+00-4.78614E-01 1.09773E-13 1.26898E-13
 -1      1738-5.20620E-01-1.37736E+01-1.57136E+00 8.29705E-01-1.71585E-13 1.72362E-13
 -1      1739 2.34621E+01 8.19029E-01 2.05941E-01 7.40101E+00 9.34586E-13 7.73936E-13
 -1      1740 1.37756E+01-3.24015E+00-3.93625E-01 6.26024E+00 7.00662E-13 1.22213E-12
 -1      1741 1.99993E+01-1.19705E-03 1.77842E-04-1.48806E-03-8.23412E-13-2.40763E-13
 -1      1742 1.99989E+01-1.33755E-03 9.03992E-05-2.82517E-03-3.49887E-13-3.83002E-14
 -1      1743 8.10148E-01-9.37240E+00-1.06477E+00 2.51956E+00 3.37286E-13 5.50116E-13
 -1      1744 5.94843E+00-7.12778E+00-8.55697E-01 4.54498E+00 5.93969E-13 8.87665E-13
 -1      1745-1.04313E+00-1.00842E+01-1.09482E+00 9.75194E-02 9.76927E-14 4.17166E-13
 -1      1746 3.37152E+01 3.93958E+00 8.15757E-01 7.23772E+00 9.72666E-13 4.26104E-13
 -1      1747 4.13559E+01 6.21175E+00 1.19286E+00 4.47231E+00 7.85150E-13 9.59233E-14
 -1      1748 4.52818E+01 7.41463E+00 1.32942E+00 9.57501E-01 6.33604E-13-2.70839E-13
 -1      1749 4.56936E+01 7.23109E+00 1.45783E+00-2.02720E+00 6.77680E-13-7.54619E-13
 -1      1750 3.97068E+01 5.39112E+00 1.02266E+00-4.29017E+00 8.22689E-13-6.82010E-13
 -1      1751 3.13736E+01 2.65354E+00 6.49034E-01-6.41258E+00 1.07098E-12-9.81548E-13
 -1      1752 2.07880E+01-3.68122E-01 6.60389E-02-7.16690E+00 1.17462E-12-1.22213E-12
 -1      1753 1.14482E+01-4.72526E+00-5.65662E-01-5.89069E+00 8.12905E-13-1.12249E-12
 -1      1754 4.33254E+00-8.07032E+00-8.42083E-01-4.17327E+00 5.24025E-13-1.01762E-12
 -1      1755-4.16210E-01-1.11173E+01-1.29676E+00-1.50542E+00 7.05547E-14-9.65894E-13
 -1      1756-1.17086E+00-1.11616E+01-1.26804E+00 6.64789E-01-4.64601E-13-8.33555E-13
 -1      1757 1.31943E+00-9.60951E+00-1.12669E+00 2.70264E+00-8.30835E-13-7.15095E-13
 -1      1758 6.84027E+00-6.52232E+00-8.24174E-01 4.70207E+00-1.08924E-12-7.75047E-13
 -1      1759 1.55351E+01-2.21124E+00-2.56693E-01 6.62734E+00-1.09268E-12-1.04683E-12
 -1      1760 2.65793E+01 1.66443E+00 4.41857E-01 7.32127E+00-9.99534E-13-1.02818E-12
 -1      1761 3.64368E+01 4.46647E+00 9.09286E-01 5.39889E+00-8.23716E-13-9.58345E-13
 -1      1762 4.31198E+01 6.57558E+00 1.17876E+00 2.91988E+00-7.85372E-13-6.33327E-13
 -1      1763 4.63823E+01 7.51705E+00 1.48782E+00 2.26412E-01-8.58924E-13-2.71859E-13
 -1      1764 4.31262E+01 6.79198E+00 1.18153E+00-2.54259E+00-7.53397E-13 1.43996E-13
 -1      1765 3.70652E+01 4.95108E+00 9.91838E-01-5.80677E+00-8.01317E-13 4.68514E-13
 -1      1766 2.69782E+01 2.12802E+00 4.51954E-01-7.60178E+00-8.39162E-13 8.82516E-13
 -1      1767 1.59043E+01-1.95082E+00-2.25709E-01-6.65676E+00-8.20011E-13 8.25895E-13
 -1      1768 6.67108E+00-6.52317E+00-8.25790E-01-4.58045E+00-4.16889E-13 9.51100E-13
 -1      1769 7.77481E-01-9.85473E+00-1.17306E+00-2.38577E+00-7.23865E-14 6.12926E-13
 -1      1770 2.28185E+01 1.97070E+00-2.49296E-02-2.65629E+00-2.17482E-13 7.62446E-13
 -1      1771 1.98847E+01 3.73161E+00-3.57830E-02-2.02305E+00-2.49734E-13-3.40172E-13
 -1      1772 2.01252E+01 3.57145E+00-3.89168E-02-2.31796E+00-2.95201E-13-2.51549E-13
 -1      1773 2.04276E+01 3.17816E+00-4.55121E-02-2.46800E+00-2.98142E-13-1.30701E-13
 -1      1774 2.06384E+01 2.79980E+00-1.40046E-01-2.74282E+00-3.31617E-13 1.31631E-14
 -1      1775 2.04952E+01 2.70298E+00-3.66460E-03-2.09522E+00-3.13980E-13-1.68872E-13
 -1      1776 1.93558E+01 4.25245E+00-2.05325E-02-1.15718E+00-1.24558E-13-4.55733E-13
 -1      1777 1.94474E+01 4.20615E+00-1.64325E-02-1.37295E+00-1.56378E-13-4.47108E-13
 -1      1778 1.92248E+01 4.37681E+00-1.68518E-02-7.72284E-01-6.69850E-14-4.52796E-13
 -1      1779 1.92846E+01 4.34855E+00-1.32254E-02-9.69354E-01-9.05426E-14-4.56215E-13
 -1      1780 1.95094E+01 3.87701E+00-8.30450E-03-1.00404E+00-1.24467E-13-4.33617E-13
 -1      1781 1.91470E+01 4.45088E+00-1.45260E-02-4.14736E-01 1.19655E-14-4.28763E-13
 -1      1782 1.91809E+01 4.43527E+00-1.22838E-02-5.97582E-01-2.38281E-14-4.37246E-13
 -1      1783 1.93753E+01 4.02048E+00-8.03829E-03-6.48452E-01-5.12494E-14-4.21621E-13
 -1      1784 1.91155E+01 4.48323E+00-1.30683E-02-7.25687E-02 8.07669E-14-4.12073E-13
 -1      1785 1.91261E+01 4.47833E+00-1.23632E-02-2.48527E-01 4.79338E-14-4.29556E-13
 -1      1786 1.92994E+01 4.10002E+00-7.84233E-03-3.13765E-01 3.01286E-14-4.08918E-13
 -1      1787 1.91281E+01 4.47708E+00-1.23033E-02 2.66930E-01 1.46471E-13-3.88847E-13
 -1      1788 1.91161E+01 4.48244E+00-1.31583E-02 9.08304E-02 1.12303E-13-4.00697E-13
 -1      1789 1.92757E+01 4.12467E+00-7.77130E-03 1.00899E-02 1.06033E-13-3.87863E-13
 -1      1790 1.91855E+01 4.43142E+00-1.22919E-02 6.16641E-01 1.94401E-13-3.71939E-13
 -1      1791 1.91502E+01 4.44789E+00-1.46346E-02 4.33332E-01 1.73675E-13-3.93194E-13
 -1      1792 1.93026E+01 4.09685E+00-7.87133E-03 3.34107E-01 1.67484E-13-3.73916E-13
 -1      1793 1.92903E+01 4.34299E+00-1.32923E-02 9.83066E-01 2.53231E-13-3.11157E-13
 -1      1794 1.92299E+01 4.37185E+00-1.70154E-02 7.88636E-01 2.19392E-13-3.48613E-13
 -1      1795 1.93811E+01 4.01460E+00-8.02359E-03 6.66240E-01 2.24510E-13-3.41720E-13
 -1      1796 1.94585E+01 4.19505E+00-1.62694E-02 1.39178E+00 3.19679E-13-2.17364E-13
 -1      1797 1.93633E+01 4.24366E+00-2.08196E-02 1.17097E+00 2.84982E-13-2.68433E-13
 -1      1798 1.95178E+01 3.86778E+00-8.32667E-03 1.01875E+00 2.87883E-13-2.63293E-13
 -1      1799 1.97193E+01 3.95440E+00-2.40750E-02 1.84810E+00 3.68096E-13-8.99419E-14
 -1      1800 1.95716E+01 4.03844E+00-2.73462E-02 1.59381E+00 3.34752E-13-1.67758E-13
 -1      1801 1.97319E+01 3.63204E+00-8.08575E-03 1.39907E+00 3.46011E-13-1.68426E-13
 -1      1802 2.01431E+01 3.53166E+00-4.38973E-02 2.34491E+00 3.90892E-13 1.22395E-13
 -1      1803 1.98983E+01 3.70024E+00-3.98739E-02 2.05310E+00 3.75729E-13-4.66294E-15
 -1      1804 2.00613E+01 3.25863E+00-4.97946E-03 1.79309E+00 3.91248E-13-2.54172E-14
 -1      1805 2.09702E+01 2.67306E+00-5.62356E-02 2.74831E+00 3.47763E-13 4.98296E-13
 -1      1806 2.04773E+01 3.09438E+00-4.99634E-02 2.49828E+00 3.68874E-13 2.70124E-13
 -1      1807 2.05865E+01 2.61952E+00 3.22940E-03 2.11384E+00 3.85383E-13 1.93772E-13
 -1      1808 2.17452E+01 1.20542E+00-1.20667E-01 2.24647E+00 2.63976E-13 9.39498E-13
 -1      1809 2.13111E+01 2.25095E+00 3.10386E-06 2.64249E+00 3.11284E-13 6.49925E-13
 -1      1810 2.10010E+01 1.68305E+00-2.15901E-02 2.02987E+00 3.46365E-13 4.93175E-13
 -1      1811 2.09982E+01 7.75665E-01-6.07191E-02 1.44269E+00 2.61159E-13 8.55946E-13
 -1      1812 2.18128E+01 2.44107E+00 8.97586E-02-2.95711E+00-2.91073E-13 2.88630E-13
 -1      1813 2.02138E+01 3.03745E-01-7.55999E-03 5.70616E-01 2.15768E-13 7.13431E-13
 -1      1814 2.07267E+01 4.43038E-01-1.15945E-02 9.50483E-01 2.23689E-13 7.90605E-13
 -1      1815 2.08244E+01 8.45551E-01 1.58281E-03 1.31328E+00 2.71547E-13 5.87003E-13
 -1      1816 2.15470E+01 1.73621E+00 7.88225E-02-2.23654E+00-3.13360E-13 1.78926E-13
 -1      1817 2.06245E+01 5.08776E-01 3.29308E-02-8.17486E-01-2.49693E-13 1.35312E-13
 -1      1818 2.02346E+01 3.66026E-01 9.45575E-03-5.19378E-01-2.21056E-13 7.63868E-14
 -1      1819 2.00721E+01 2.76055E-01 2.77940E-02-2.66924E-01-1.99079E-13 7.60234E-14
 -1      1820 1.99322E+01 2.02282E-01 1.24902E-02-1.16420E-01-1.55891E-13 3.26388E-14
 -1      1821 2.03520E+01 5.08062E-01-6.82259E-03-5.71413E-01-2.44322E-13-2.27110E-14
 -1      1822 1.98520E+01 1.61216E-01 1.72492E-02 3.78232E-02-1.10779E-13 2.64389E-14
 -1      1823 1.98385E+01 1.26973E-01 9.53138E-03 1.27053E-01-9.50394E-14-5.09879E-15
 -1      1824 2.01013E+01 2.83332E-01-6.85991E-03-1.05242E-01-1.62695E-13-2.87912E-14
 -1      1825 1.98269E+01 1.06522E-01 9.51844E-03 2.28224E-01-1.02656E-13-1.07319E-14
 -1      1826 1.98947E+01 9.02948E-02 7.19391E-03 2.88518E-01-9.95072E-14-3.25267E-14
 -1      1827 2.00146E+01 1.79042E-01-5.96807E-03 1.85886E-01-1.15350E-13-4.86640E-14
 -1      1828 1.99357E+01 8.00163E-02 5.26588E-03 3.61873E-01-1.05470E-13-1.92268E-14
 -1      1829 2.00595E+01 7.28148E-02 5.99658E-03 4.08247E-01-6.74187E-14-6.17262E-14
 -1      1830 2.00494E+01 1.29056E-01-5.04668E-03 3.85276E-01-1.16321E-13-3.70056E-14
 -1      1831 2.01412E+01 6.76382E-02 3.01840E-03 4.67307E-01-4.67087E-14-7.62855E-14
 -1      1832 2.03076E+01 6.47626E-02 5.33460E-03 5.07073E-01-3.36098E-14-8.26117E-14
 -1      1833 2.01769E+01 1.05475E-01-4.16517E-03 5.36483E-01-7.29395E-14-7.01845E-14
 -1      1834 2.04220E+01 6.15662E-02 1.76171E-03 5.58571E-01-3.03776E-14-6.36137E-14
 -1      1835 2.06233E+01 5.96144E-02 4.69711E-03 5.94568E-01-2.91865E-14-5.03085E-14
 -1      1836 2.03773E+01 9.41221E-02-3.47985E-03 6.62358E-01-2.44998E-14-5.75843E-14
 -1      1837 2.07655E+01 5.56650E-02 9.69676E-04 6.40310E-01-4.14772E-14-3.89499E-14
 -1      1838 2.09952E+01 5.12264E-02 3.66380E-03 6.71672E-01-3.77336E-14-2.92223E-14
 -1      1839 2.06378E+01 8.50528E-02-3.00253E-03 7.72732E-01-2.53132E-14-7.29613E-14
 -1      1840 2.11616E+01 4.34380E-02 3.80384E-04 7.08760E-01-6.84366E-14-3.33676E-14
 -1      1841 2.14118E+01 3.24359E-02 1.81140E-03 7.30598E-01-6.48371E-14-6.98777E-14
 -1      1842 2.09499E+01 6.85470E-02-2.67060E-03 8.66783E-01-6.73030E-14-6.92033E-14
 -1      1843 2.15992E+01 1.70489E-02-1.31673E-04 7.50817E-01-6.82514E-14-1.15994E-13
 -1      1844 2.18566E+01-5.38701E-03-1.27622E-03 7.53488E-01-7.39594E-14-1.36887E-13
 -1      1845 2.13060E+01 3.32513E-02-2.40242E-03 9.32692E-01-9.38661E-14-7.90628E-14
 -1      1846 2.20605E+01-3.25651E-02-6.07275E-04 7.42523E-01-7.37791E-14-1.32225E-13
 -1      1847 2.23038E+01-7.12707E-02-5.86203E-03 7.11302E-01-4.47804E-14-1.35187E-13
 -1      1848 2.16976E+01-3.39896E-02-2.09128E-03 9.46196E-01-8.29007E-14-4.23598E-14
 -1      1849 2.25169E+01-1.13488E-01-1.05621E-03 6.48946E-01-2.86576E-15-1.53958E-13
 -1      1850 2.27143E+01-1.70538E-01-1.17025E-02 5.65567E-01 6.99094E-16-1.27717E-13
 -1      1851 2.21116E+01-1.45434E-01-1.53984E-03 8.69943E-01-4.53353E-14-3.42820E-14
 -1      1852 2.29230E+01-2.26591E-01-1.52584E-03 4.29056E-01-9.91568E-15-1.08902E-13
 -1      1853 2.30333E+01-2.95693E-01-1.75699E-02 2.77640E-01-9.93823E-15-8.99805E-14
 -1      1854 2.25264E+01-3.04482E-01-3.17887E-04 6.57028E-01-4.38408E-15-1.21866E-14
 -1      1855 2.32126E+01-3.53902E-01-2.53650E-03 5.17328E-02-1.36453E-14-8.84262E-14
 -1      1856 2.31928E+01-4.12213E-01-2.06445E-02-1.68428E-01 3.63945E-14-9.61186E-14
 -1      1857 2.29047E+01-4.89614E-01 2.28377E-03 2.64683E-01 2.42384E-15-6.97673E-14
 -1      1858 2.33013E+01-4.43382E-01-4.47513E-03-4.70895E-01 3.75151E-14-1.20694E-13
 -1      1859 2.31230E+01-4.48935E-01-1.72275E-02-7.25517E-01 5.15993E-15-1.29411E-13
 -1      1860 2.31844E+01-6.34418E-01 6.85464E-03-3.14239E-01 2.62099E-14-7.29600E-14
 -1      1861 2.31091E+01-4.11257E-01-8.18590E-03-1.03757E+00 4.43855E-14-1.51606E-13
 -1      1862 2.27853E+01-3.17649E-01-5.19651E-03-1.24481E+00 5.43203E-14-1.34504E-13
 -1      1863 2.32782E+01-6.24129E-01 1.22048E-02-9.98659E-01-1.56992E-16-7.17078E-14
 -1      1864 2.26171E+01-1.78106E-01-1.11999E-02-1.43685E+00 2.91525E-14-1.54653E-13
 -1      1865 2.22202E+01 2.32519E-02 1.19453E-02-1.48083E+00-3.03882E-14-1.29079E-13
 -1      1866 2.31066E+01-3.43698E-01 1.35583E-02-1.57750E+00 3.75199E-14-2.99639E-14
 -1      1867 2.19421E+01 2.38106E-01-1.00028E-02-1.40459E+00-1.02253E-13-1.69401E-13
 -1      1868 2.15998E+01 4.70441E-01 2.27376E-02-1.20319E+00-4.93876E-14-2.34948E-13
 -1      1869 2.26753E+01 2.12398E-01 5.18523E-03-1.73523E+00-7.13687E-14-1.19346E-13
 -1      1870 2.13626E+01 6.52496E-01 3.70517E-04-8.10285E-01-4.51809E-14-2.67267E-13
 -1      1871 2.12074E+01 7.75533E-01 1.89979E-02-4.03640E-01-2.81181E-14-3.06006E-13
 -1      1872 2.21687E+01 8.23915E-01-1.36879E-02-1.22735E+00-1.04642E-13-1.84461E-13
 -1      1873 2.11769E+01 8.01148E-01 1.56021E-02 1.58962E-01-3.49061E-14-3.34939E-13
 -1      1874 2.12754E+01 7.27662E-01 4.58040E-03 5.94430E-01-1.33754E-13-3.49556E-13
 -1      1875 2.19034E+01 1.14116E+00-2.56195E-02-1.49205E-01-3.49720E-14-2.74140E-13
 -1      1876 2.14772E+01 5.78149E-01 2.35138E-02 1.05542E+00-7.73947E-14-2.92868E-13
 -1      1877 2.17900E+01 3.61877E-01-7.45922E-03 1.32274E+00 1.80246E-14-2.35185E-13
 -1      1878 2.20738E+01 9.52371E-01-1.80671E-02 1.00965E+00-4.49432E-14-2.44468E-13
 -1      1879 2.20824E+01 1.43276E-01 1.67176E-02 1.48764E+00 6.41002E-15-2.58868E-13
 -1      1880 2.24883E+01-7.68939E-02-1.04872E-02 1.50643E+00 6.46252E-14-1.96948E-13
 -1      1881 2.25611E+01 3.86354E-01 1.18821E-03 1.69971E+00 7.12321E-15-2.05807E-13
 -1      1882 2.27025E+01-2.41643E-01 7.84398E-05 1.37612E+00 2.68986E-14-3.05393E-13
 -1      1883 2.30679E+01-3.65151E-01-7.95482E-03 1.20380E+00-3.89810E-14-3.11713E-13
 -1      1884 2.30539E+01-2.09951E-01 1.43952E-02 1.71039E+00 5.34859E-15-3.20740E-13
 -1      1885 2.31311E+01-4.27864E-01-1.45428E-02 9.12885E-01-2.11879E-14-3.71865E-13
 -1      1886 2.33661E+01-4.43716E-01-4.80585E-03 6.64560E-01-6.33599E-14-3.75019E-13
 -1      1887 2.33187E+01-5.71073E-01 1.35494E-02 1.21935E+00-5.45289E-14-5.12086E-13
 -1      1888 2.32964E+01-4.25485E-01-2.04324E-02 3.55936E-01-1.06260E-13-2.55257E-13
 -1      1889 2.33751E+01-3.75331E-01-2.32710E-03 1.26431E-01-1.04059E-13-2.32408E-13
 -1      1890 2.33101E+01-6.41114E-01 8.02426E-03 5.47356E-01 1.76916E-14-3.60683E-13
 -1      1891 2.32238E+01-3.20133E-01-1.86624E-02-1.15925E-01-1.77365E-13-2.20353E-13
 -1      1892 2.31666E+01-2.50035E-01-1.05562E-03-2.80733E-01-1.06522E-13-2.73756E-13
 -1      1893 2.30963E+01-5.22071E-01 3.01799E-03-5.81835E-02-7.22265E-14-1.02117E-13
 -1      1894 2.29791E+01-1.91174E-01-1.32061E-02-4.32458E-01 1.71148E-14-1.81489E-13
 -1      1895 2.28277E+01-1.29000E-01-3.97568E-04-5.26088E-01 1.26434E-13-1.37041E-13
 -1      1896 2.27679E+01-3.36860E-01-2.92283E-05-4.85752E-01-1.95746E-14-6.46215E-14
 -1      1897 2.26331E+01-8.23023E-02-7.21660E-03-5.97495E-01 4.93529E-16-1.93519E-13
 -1      1898 2.24307E+01-3.80711E-02 8.36511E-05-6.33518E-01-8.11519E-14-2.43723E-13
 -1      1899 2.23942E+01-1.65505E-01-1.50206E-03-7.24980E-01 1.59354E-14 3.31315E-14
 -1      1900 2.22446E+01-7.01672E-03-2.32321E-03-6.47077E-01-7.53287E-15-2.16390E-13
 -1      1901 2.20258E+01 1.95686E-02 5.18629E-04-6.44296E-01 6.01090E-14-2.46146E-13
 -1      1902 2.20182E+01-3.97653E-02-2.10985E-03-8.13655E-01 1.86278E-14-2.32283E-13
 -1      1903 2.18564E+01 3.72620E-02 1.01010E-03-6.22158E-01-1.58055E-14-2.28209E-13
 -1      1904 2.16446E+01 5.03769E-02 8.78905E-04-5.97160E-01-8.55691E-14-2.06909E-13
 -1      1905 2.16641E+01 3.83277E-02-2.32078E-03-8.00812E-01 2.45508E-14-2.33613E-13
 -1      1906 2.14955E+01 5.85522E-02 2.92729E-03-5.56500E-01-1.28561E-13-2.05395E-13
 -1      1907 2.13043E+01 6.27784E-02 1.12497E-03-5.21330E-01-4.92552E-14-2.34018E-13
 -1      1908 2.13449E+01 7.88913E-02-2.34782E-03-7.29210E-01-8.37175E-14-1.49524E-13
 -1      1909 2.11765E+01 6.49344E-02 3.78589E-03-4.73778E-01-1.03346E-13-2.31114E-13
 -1      1910 2.10121E+01 6.39447E-02 1.24629E-03-4.36136E-01-8.21392E-16-1.76988E-13
 -1      1911 2.10664E+01 9.40796E-02-2.27129E-03-6.30119E-01-6.57868E-14 5.15934E-15
 -1      1912 2.09052E+01 6.26812E-02 3.94945E-03-3.88772E-01 9.93498E-15-2.31220E-13
 -1      1913 2.07690E+01 5.90186E-02 1.25977E-03-3.53053E-01 6.24912E-15-3.05981E-13
 -1      1914 2.08299E+01 9.39924E-02-2.12440E-03-5.23894E-01-4.53568E-14 4.45185E-14
 -1      1915 2.06815E+01 5.60634E-02 3.70852E-03-3.09712E-01 6.46367E-14-3.07263E-13
 -1      1916 2.05719E+01 5.13287E-02 1.19473E-03-2.78079E-01 1.35827E-13-1.16836E-13
 -1      1917 2.06337E+01 8.57816E-02-1.92862E-03-4.22455E-01 2.56573E-14 9.86161E-14
 -1      1918 2.05017E+01 4.77430E-02 3.26677E-03-2.40485E-01 2.74326E-14-1.13568E-13
 -1      1919 2.04158E+01 4.28655E-02 1.08120E-03-2.13717E-01-8.49470E-14-1.50230E-13
 -1      1920 2.04746E+01 7.40336E-02-1.70348E-03-3.31903E-01 5.50986E-14 4.35994E-14
 -1      1921 2.03606E+01 3.92553E-02 2.75413E-03-1.82313E-01 6.31529E-14-3.90354E-14
 -1      1922 2.02949E+01 3.47262E-02 9.43983E-04-1.60404E-01 1.73371E-13 4.02088E-14
 -1      1923 2.03482E+01 6.14642E-02-1.46713E-03-2.54631E-01 5.89161E-14 2.25805E-13
 -1      1924 2.02523E+01 3.14070E-02 2.24659E-03-1.34917E-01 1.29694E-13-5.29025E-14
 -1      1925 2.02031E+01 2.74491E-02 8.01056E-04-1.17449E-01 1.28446E-13 6.24117E-14
 -1      1926 2.02496E+01 4.95497E-02-1.23468E-03-1.90841E-01 1.32584E-13 1.93587E-13
 -1      1927 2.01710E+01 2.45599E-02 1.78402E-03-9.72498E-02 1.75278E-13 9.49610E-14
 -1      1928 2.01352E+01 2.12395E-02 6.64058E-04-8.36295E-02 1.64704E-13 8.45069E-14
 -1      1929 2.01745E+01 3.89946E-02-1.01714E-03-1.39547E-01 2.10052E-13 1.56944E-13
 -1      1930 2.01114E+01 1.88171E-02 1.38365E-03-6.79521E-02-1.14047E-13-3.70568E-15
 -1      1931 2.00861E+01 1.61145E-02 5.39534E-04-5.75437E-02-2.12483E-13-1.79379E-14
 -1      1932 2.01183E+01 3.00477E-02-8.21289E-04-9.92112E-02-4.78052E-14 1.77008E-13
 -1      1933 2.00690E+01 1.41391E-02 1.04929E-03-4.56111E-02-1.89419E-13 7.78051E-14
 -1      1934 2.00517E+01 1.19909E-02 4.30217E-04-3.78105E-02-3.92887E-14 1.23121E-13
 -1      1935 2.00773E+01 2.27021E-02-6.50347E-04-6.81249E-02-4.65706E-14 2.82904E-13
 -1      1936 2.00398E+01 1.04139E-02 7.77339E-04-2.89050E-02 2.08116E-13 8.79914E-14
 -1      1937 2.00285E+01 8.73760E-03 3.36088E-04-2.31772E-02 2.81708E-13 1.83718E-13
 -1      1938 2.00482E+01 1.68167E-02-5.04762E-04-4.46292E-02 4.86005E-14 3.00279E-13
 -1      1939 2.00205E+01 7.49656E-03 5.60472E-04-1.66749E-02 1.76865E-13 2.72683E-13
 -1      1940 2.00138E+01 6.20217E-03 2.54923E-04-1.25710E-02 1.61250E-13 4.20376E-13
 -1      1941 2.00283E+01 1.21867E-02-3.82990E-04-2.72312E-02 2.41525E-13 1.89443E-13
 -1      1942 2.00087E+01 5.22787E-03 3.89862E-04-7.95845E-03 1.73805E-13 2.59219E-13
 -1      1943 2.00051E+01 4.22195E-03 1.82655E-04-5.12405E-03 1.96617E-13 2.80262E-13
 -1      1944 2.00153E+01 8.57880E-03-2.82684E-04-1.46624E-02 1.39639E-13 3.08752E-13
 -1      1945 2.00021E+01 3.43996E-03 2.56728E-04-2.00685E-03 9.66088E-14 1.62603E-13
 -1      1946 2.00007E+01 2.63035E-03 1.20474E-04-1.91870E-04 1.16952E-13 1.61163E-13
 -1      1947 2.00072E+01 5.74658E-03-1.99588E-04-5.90671E-03 6.29186E-14 2.82517E-13
 -1      1948 1.99991E+01 1.92032E-03 1.47505E-04 1.72657E-03 6.61603E-14 8.51908E-14
 -1      1949 1.99990E+01 1.18948E-03 6.42957E-05 2.63997E-03 8.28029E-14 2.01936E-13
 -1      1950 2.00027E+01 3.44724E-03-1.26809E-04-2.14594E-04-2.57871E-14 2.61726E-13
 -1      1951 1.99983E+01 5.38456E-04 9.17724E-05 3.45383E-03 1.48024E-13 1.00094E-13
 -1      1952 1.99989E+01-2.79077E-04 1.84063E-05 3.47121E-03 9.59173E-14 3.68179E-14
 -1      1953 1.99996E+01-8.77101E-04-7.06824E-05 3.82401E-03-8.22031E-14 8.12504E-14
 -1      1954 2.00004E+01 1.21555E-03-1.13584E-04 2.88047E-03 3.04410E-14 2.24149E-13
 -1      1955 1.98133E+01 1.54860E-01 9.12574E-03 1.55682E-01 1.83431E-13 5.93397E-13
 -1      1956 2.00391E+01 2.14307E-01 1.71968E-02 3.37150E-01 1.92270E-13 6.75501E-13
 -1      1957 2.02476E+01 3.62337E-01-2.26895E-03 5.37135E-01 2.32118E-13 4.92772E-13
 -1      1958 1.96753E+01 9.14138E-02 8.39874E-03-7.62511E-02 1.38967E-13 5.09081E-13
 -1      1959 1.97326E+01 1.18931E-01 1.51387E-02 2.61334E-02 1.32552E-13 5.51900E-13
 -1      1960 1.99385E+01 1.86856E-01-2.87351E-03 1.09504E-01 1.71398E-13 4.10076E-13
 -1      1961 1.97190E+01 6.23671E-02 6.21752E-03-2.22307E-01 5.89472E-14 4.84669E-13
 -1      1962 1.96751E+01 7.59736E-02 9.57517E-03-1.55709E-01 9.40715E-14 5.01375E-13
 -1      1963 1.98451E+01 1.11979E-01-3.92356E-03-1.45107E-01 1.26918E-13 3.53759E-13
 -1      1964 1.98894E+01 4.92908E-02 5.03031E-03-3.27260E-01 4.99672E-14 4.22996E-13
 -1      1965 1.97788E+01 5.61234E-02 5.90246E-03-2.77460E-01 5.68341E-14 4.72070E-13
 -1      1966 1.99025E+01 7.84372E-02-4.18318E-03-3.13822E-01 6.80974E-14 3.24252E-13
 -1      1967 2.01551E+01 4.42691E-02 4.50686E-03-4.13556E-01 4.89088E-14 3.59355E-13
 -1      1968 1.99951E+01 4.76784E-02 3.97298E-03-3.71058E-01 5.10572E-14 3.96102E-13
 -1      1969 2.00690E+01 6.41684E-02-3.94829E-03-4.40534E-01 7.54149E-14 2.46211E-13
 -1      1970 2.04991E+01 4.28156E-02 4.17929E-03-4.92360E-01 6.98335E-14 3.38696E-13
 -1      1971 2.02984E+01 4.48515E-02 2.95597E-03-4.52373E-01 5.04393E-14 3.44380E-13
 -1      1972 2.03200E+01 5.91252E-02-3.66254E-03-5.47748E-01 6.50411E-14 2.02570E-13
 -1      1973 2.09113E+01 4.11499E-02 3.71257E-03-5.67335E-01 9.23944E-14 2.78266E-13
 -1      1974 2.06748E+01 4.35937E-02 2.28816E-03-5.28329E-01 8.72486E-14 3.19179E-13
 -1      1975 2.06413E+01 5.70318E-02-3.49550E-03-6.45900E-01 1.02724E-13 2.06998E-13
 -1      1976 2.13828E+01 3.48778E-02 2.80840E-03-6.34952E-01 1.40045E-14 3.33301E-13
 -1      1977 2.11155E+01 3.97510E-02 1.61953E-03-5.98710E-01 5.81406E-14 2.82322E-13
 -1      1978 2.10237E+01 5.20041E-02-3.44570E-03-7.36247E-01 7.61865E-14 2.78721E-13
 -1      1979 2.19004E+01 1.82427E-02 1.16345E-03-6.82997E-01 6.80292E-14 2.98818E-13
 -1      1980 2.16108E+01 2.80631E-02 6.98155E-04-6.55508E-01 3.98132E-14 2.92704E-13
 -1      1981 2.14584E+01 3.68918E-02-3.42335E-03-8.10529E-01 5.96953E-14 2.27035E-13
 -1      1982 2.24398E+01-1.59252E-02-1.44797E-03-6.88309E-01 3.32461E-14 2.72492E-13
 -1      1983 2.21441E+01 1.72967E-03-6.58259E-04-6.81046E-01 7.48020E-14 3.08956E-13
 -1      1984 2.19328E+01 2.56091E-03-3.25595E-03-8.48987E-01 5.20178E-14 2.00694E-13
 -1      1985 2.29596E+01-7.46388E-02-4.93944E-03-6.15545E-01 7.53534E-14 2.13049E-13
 -1      1986 2.26856E+01-4.68878E-02-2.50849E-03-6.46262E-01 5.17151E-14 2.29676E-13
 -1      1987 2.24253E+01-6.12691E-02-2.63767E-03-8.18337E-01 9.16485E-14 2.06625E-13
 -1      1988 2.33958E+01-1.59782E-01-8.54581E-03-4.20844E-01-4.47385E-14 2.26738E-13
 -1      1989 2.31853E+01-1.22983E-01-4.69985E-03-5.11903E-01-6.08628E-15 2.14248E-13
 -1      1990 2.29007E+01-1.61807E-01-1.07813E-03-6.72681E-01 2.55668E-14 1.65328E-13
 -1      1991 2.36618E+01-2.58251E-01-1.06336E-02-6.75183E-02-3.00879E-14 3.30881E-13
 -1      1992 2.35680E+01-2.21358E-01-6.81862E-03-2.37949E-01-6.96301E-14 2.52447E-13
 -1      1993 2.33041E+01-2.92901E-01 2.03596E-03-3.63164E-01-5.43671E-14 1.70429E-13
 -1      1994 2.36607E+01-3.30019E-01-8.97368E-03 4.40111E-01-2.58873E-14 3.73486E-13
 -1      1995 2.37357E+01-3.14615E-01-8.35573E-03 1.91682E-01 2.86993E-14 3.62707E-13
 -1      1996 2.35590E+01-4.19681E-01 6.83890E-03 1.35118E-01-1.57834E-14 2.81296E-13
 -1      1997 2.33151E+01-3.04362E-01-2.77150E-03 1.00468E+00 1.14774E-13 3.01316E-13
 -1      1998 2.35871E+01-3.42109E-01-8.62492E-03 7.27147E-01 5.44009E-14 3.24905E-13
 -1      1999 2.35736E+01-4.63811E-01 1.24848E-02 7.75946E-01 1.17959E-13 3.77889E-13
 -1      2000 2.26327E+01-1.19805E-01 4.19848E-03 1.40541E+00 9.18055E-14 2.54331E-13
 -1      2001 2.30720E+01-2.28537E-01-7.02813E-03 1.20800E+00 1.07481E-13 2.66643E-13
 -1      2002 2.32747E+01-3.28284E-01 1.43819E-02 1.38417E+00 1.29926E-13 2.40657E-13
 -1      2003 2.17773E+01 2.02678E-01 4.98682E-03 1.36728E+00-7.14463E-14 2.11517E-13
 -1      2004 2.22746E+01 5.16749E-02-2.93602E-03 1.38277E+00-2.71450E-14 2.21205E-13
 -1      2005 2.26896E+01 2.86704E-02 8.04713E-03 1.66252E+00 3.34364E-14 2.04777E-13
 -1      2006 2.10848E+01 5.05628E-01-3.46910E-03 7.56900E-01-6.44554E-14 4.12857E-13
 -1      2007 2.14643E+01 3.97810E-01 4.02201E-03 1.04186E+00-5.82416E-14 3.25202E-13
 -1      2008 2.20197E+01 4.89904E-01-6.60562E-03 1.33348E+00-9.76025E-14 2.63698E-13
 -1      2009 2.09142E+01 5.84112E-01-1.37081E-02-2.21652E-01 5.30617E-14 3.53183E-13
 -1      2010 2.10079E+01 5.99950E-01 1.09211E-02 2.26748E-01 8.43076E-16 3.80840E-13
 -1      2011 2.16074E+01 7.99174E-01-1.79336E-02 3.97190E-01 1.03390E-15 2.25511E-13
 -1      2012 2.13828E+01 3.78868E-01-1.38935E-02-1.09585E+00 2.36741E-13 1.62852E-13
 -1      2013 2.11364E+01 5.11515E-01 1.28765E-02-7.03749E-01 1.83159E-13 2.92025E-13
 -1      2014 2.17072E+01 7.45101E-01-1.52656E-02-7.43075E-01 2.00990E-13 2.45588E-13
 -1      2015 2.22515E+01 4.34558E-02-2.88128E-03-1.47296E+00 1.83295E-15-3.26336E-14
 -1      2016 2.17700E+01 2.01691E-01 7.98543E-03-1.30397E+00 1.22689E-13 5.26974E-14
 -1      2017 2.22594E+01 3.65337E-01-2.08491E-03-1.52754E+00 2.20947E-13-1.05280E-14
 -1      2018 2.31206E+01-2.20295E-01 8.34441E-03-1.30116E+00-7.66973E-14-1.17276E-13
 -1      2019 2.25980E+01-1.21325E-01-1.03966E-03-1.36868E+00-6.17319E-14-7.95284E-14
 -1      2020 2.29480E+01-9.20153E-02 7.09055E-03-1.66332E+00-3.71881E-15-7.17551E-14
 -1      2021 2.36971E+01-3.21419E-01 1.23342E-02-8.03640E-01-9.77170E-14 1.24067E-14
 -1      2022 2.33012E+01-3.02933E-01-9.03928E-03-1.00871E+00-1.28205E-13-1.39715E-13
 -1      2023 2.34653E+01-3.94390E-01 5.59643E-03-1.25864E+00-1.24490E-13-1.34634E-13
 -1      2024 2.38939E+01-2.90998E-01 9.97399E-03-2.50738E-01-1.28526E-14 1.45650E-13
 -1      2025 2.37007E+01-3.25418E-01-1.25774E-02-4.80254E-01-7.36737E-15 3.18018E-14
 -1      2026 2.36786E+01-4.70389E-01 4.61204E-04-6.22834E-01-6.34701E-14-1.33877E-13
 -1      2027 2.37670E+01-2.01057E-01 5.37072E-03 1.88153E-01 1.75982E-13 3.21973E-13
 -1      2028 2.37688E+01-2.52536E-01-1.17980E-02 4.35048E-03 7.53911E-14 3.16390E-13
 -1      2029 2.36064E+01-3.88787E-01-2.73487E-03-2.35363E-02 5.52327E-14 4.11982E-14
 -1      2030 2.34251E+01-1.07470E-01 1.33328E-03 4.60568E-01 1.64298E-13 2.85409E-13
 -1      2031 2.35700E+01-1.53126E-01-8.64506E-03 3.44559E-01 1.86491E-13 2.91201E-13
 -1      2032 2.33318E+01-2.49489E-01-3.29323E-03 4.06814E-01 2.12703E-13 1.69757E-13
 -1      2033 2.29725E+01-3.56546E-02-1.05682E-03 5.85129E-01 6.46807E-14 2.38832E-13
 -1      2034 2.31998E+01-6.73644E-02-4.96552E-03 5.29963E-01 1.57488E-13 3.52040E-13
 -1      2035 2.29427E+01-1.19750E-01-2.48223E-03 6.48597E-01 1.69085E-13 2.31670E-13
 -1      2036 2.24872E+01 9.96611E-03-2.01243E-03 6.05380E-01-7.85819E-14 1.27601E-13
 -1      2037 2.27467E+01-8.20595E-03-1.79407E-03 5.93652E-01 1.69056E-14 1.87312E-13
 -1      2038 2.25085E+01-2.61639E-02-1.47799E-03 7.38584E-01 7.75931E-14 3.84694E-13
 -1      2039 2.20201E+01 3.42358E-02-2.08151E-03 5.63650E-01 2.89339E-14-1.59538E-14
 -1      2040 2.22770E+01 2.61108E-02 4.73900E-04 5.78163E-01-7.21634E-14 1.20641E-14
 -1      2041 2.20766E+01 3.01626E-02-7.79267E-04 7.27529E-01-1.14049E-14 8.71783E-14
 -1      2042 2.15993E+01 4.39961E-02-1.74306E-03 4.91723E-01 6.19277E-14-1.91014E-13
 -1      2043 2.18336E+01 4.22492E-02 1.84850E-03 5.19406E-01 2.35979E-14-3.46366E-14
 -1      2044 2.16764E+01 5.79610E-02-4.34135E-04 6.59571E-01 7.02557E-14-1.66008E-13
 -1      2045 2.12374E+01 4.50733E-02-1.29142E-03 4.10184E-01-6.09244E-14-1.51940E-13
 -1      2046 2.14397E+01 4.68716E-02 2.51281E-03 4.42467E-01 3.02763E-14-2.21151E-13
 -1      2047 2.13230E+01 6.71851E-02-3.31882E-04 5.66287E-01 4.09562E-14-9.62921E-14
 -1      2048 2.09367E+01 4.15640E-02-8.69845E-04 3.30873E-01-6.13810E-15-1.32235E-13
 -1      2049 2.11046E+01 4.50251E-02 2.68888E-03 3.62748E-01-5.47568E-14-1.56433E-13
 -1      2050 2.10224E+01 6.57477E-02-3.48556E-04 4.67539E-01-2.82318E-14-6.26064E-14
 -1      2051 2.06938E+01 3.60461E-02-5.30430E-04 2.59724E-01 1.43248E-13-9.25882E-14
 -1      2052 2.08289E+01 4.00387E-02 2.56891E-03 2.88617E-01 9.45576E-14-1.64406E-13
 -1      2053 2.07740E+01 5.89981E-02-3.99031E-04 3.74442E-01 1.08052E-13-1.15278E-14
 -1      2054 2.05022E+01 3.00113E-02-2.79893E-04 1.99046E-01 1.21855E-13-9.64614E-14
 -1      2055 2.06082E+01 3.39149E-02 2.29422E-03 2.23891E-01 1.25284E-13-1.19871E-13
 -1      2056 2.05738E+01 5.01990E-02-4.39518E-04 2.92323E-01 1.64882E-13 4.70612E-14
 -1      2057 2.03544E+01 2.42517E-02-1.06504E-04 1.49093E-01-1.19959E-13-1.12950E-13
 -1      2058 2.04357E+01 2.77637E-02 1.95803E-03 1.69697E-01 1.17692E-14-6.56242E-14
 -1      2059 2.04161E+01 4.11765E-02-4.54561E-04 2.22993E-01 6.45839E-14 6.76268E-14
 -1      2060 2.02428E+01 1.91377E-02 6.48014E-06 1.09062E-01-1.01368E-13-1.08783E-13
 -1      2061 2.03037E+01 2.21412E-02 1.61642E-03 1.25687E-01-1.38355E-13-1.18295E-13
 -1      2062 2.02944E+01 3.28556E-02-4.43904E-04 1.66291E-01-1.14409E-13-1.22815E-14
 -1      2063 2.01604E+01 1.47984E-02 7.50303E-05 7.76845E-02-1.86594E-13-4.39769E-15
 -1      2064 2.02049E+01 1.72788E-02 1.29981E-03 9.08057E-02-1.70389E-13-1.25727E-13
 -1      2065 2.02025E+01 2.56307E-02-4.13589E-04 1.21062E-01-1.74498E-13-1.92551E-14
 -1      2066 2.01011E+01 1.12325E-02 1.12333E-04 5.35656E-02-1.89487E-13 1.84884E-13
 -1      2067 2.01328E+01 1.32275E-02 1.02223E-03 6.37243E-02-9.29352E-14 1.64853E-13
 -1      2068 2.01345E+01 1.96013E-02-3.71031E-04 8.57366E-02-2.22165E-13 2.83396E-14
 -1      2069 2.00596E+01 8.37316E-03 1.28430E-04 3.53639E-02 1.42778E-13-2.50103E-14
 -1      2070 2.00815E+01 9.94371E-03 7.87798E-04 4.30917E-02-5.96577E-14 4.31642E-14
 -1      2071 2.00855E+01 1.47127E-02-3.22735E-04 5.86670E-02 8.30390E-15 1.87438E-14
 -1      2072 2.00318E+01 6.12458E-03 1.30406E-04 2.18803E-02 2.19622E-13 8.13538E-14
 -1      2073 2.00462E+01 7.33894E-03 5.94995E-04 2.76585E-02 2.52064E-13 1.16314E-13
 -1      2074 2.00513E+01 1.08372E-02-2.73572E-04 3.83011E-02 9.88630E-14 8.46080E-14
 -1      2075 2.00141E+01 4.38123E-03 1.22759E-04 1.20951E-02 3.91427E-13-5.16301E-15
 -1      2076 2.00230E+01 5.30715E-03 4.39222E-04 1.63370E-02 2.99799E-13 9.46723E-14
 -1      2077 2.00282E+01 7.81837E-03-2.26808E-04 2.32701E-02 3.25962E-13 2.63801E-13
 -1      2078 2.00039E+01 3.03505E-03 1.07650E-04 5.18000E-03 3.76990E-13 2.01278E-14
 -1      2079 2.00088E+01 3.73764E-03 3.14394E-04 8.22339E-03 4.61907E-13 1.70823E-13
 -1      2080 2.00135E+01 5.49302E-03-1.84289E-04 1.24245E-02 4.01293E-13 4.42427E-13
 -1      2081 1.99988E+01 1.97013E-03 8.61280E-05 5.02349E-04 2.30231E-13-2.10153E-13
 -1      2082 2.00009E+01 2.51573E-03 2.14340E-04 2.60441E-03 1.82516E-13-1.94528E-13
 -1      2083 2.00049E+01 3.69475E-03-1.46322E-04 4.84555E-03 3.33483E-13 4.12910E-13
 -1      2084 1.99972E+01 1.05160E-03 5.86800E-05-2.34552E-03 1.42157E-13-2.16980E-13
 -1      2085 1.99975E+01 1.51034E-03 1.34258E-04-1.02739E-03 2.27511E-13-1.67614E-13
 -1      2086 2.00005E+01 2.23547E-03-1.11995E-04-1.33245E-04 2.45912E-13 8.22873E-14
 -1      2087 1.99976E+01 1.10283E-04 4.67525E-05-3.48607E-03-8.12992E-14-4.23348E-13
 -1      2088 1.99969E+01 5.62262E-04 7.43243E-05-2.96776E-03 1.06795E-13-2.43305E-13
 -1      2089 1.99989E+01 9.08400E-04-7.47514E-05-2.94045E-03 1.59816E-13 2.84937E-13
 -1      2090 1.99987E+01-8.95743E-04 3.08107E-05-3.11975E-03-1.40364E-13-7.18616E-14
 -1      2091 1.99977E+01-2.56970E-04 3.73533E-05-3.44787E-03-1.29708E-13-3.15603E-13
 -1      2092 1.99988E+01-2.00172E-04-2.24147E-05-3.78892E-03-1.06814E-13 3.37188E-13
 -1      2093 1.99993E+01-1.56091E-03 2.87311E-05-3.49547E-03-2.59785E-13 5.01384E-13
 -1      2094 2.00010E+01-1.12962E-03-2.24744E-05-2.69248E-04 2.12857E-13 3.29108E-13
 -1      2095 2.00012E+01-1.06034E-03 6.53020E-05-9.84768E-04 9.28146E-14 4.62832E-13
 -1      2096 2.00011E+01-1.99249E-03-9.10569E-08-1.90883E-03 5.30459E-14 8.00237E-13
 -1      2097 2.00009E+01-1.57410E-03 4.02393E-05-2.58273E-03-1.65101E-13 8.20170E-13
 -1      2098 2.00017E+01 1.54527E-03-3.12768E-05-1.15240E-03-1.99094E-14 6.68651E-13
 -1      2099 2.00005E+01-2.21029E-03 1.67523E-05-3.18927E-03-2.34847E-13 6.03075E-13
 -1      2100 1.99999E+01-1.52467E-03 1.14088E-05-3.33327E-03-2.54972E-13 5.88825E-13
 -1      2101 1.99999E+01-7.81651E-04-5.59640E-06-3.65943E-03-1.66678E-13 5.06648E-13
 -1      2102 2.00012E+01-6.10382E-05-5.83285E-05-2.90537E-03-1.72178E-13 8.02661E-13
 -1      2103 2.00005E+01 3.27301E-04-4.07215E-05 9.37604E-04-5.93318E-14-2.11567E-13
 -1      2104 2.00008E+01 7.27644E-05 6.96903E-05 4.61586E-04 3.07694E-14 6.09822E-15
 -1      2105 2.00015E+01 3.65934E-03-5.53973E-06 6.79016E-04-5.57990E-14-2.26030E-15
 -1      2106 1.99999E+01 1.99260E-03-5.21064E-05 1.41018E-03-4.23488E-14 7.63053E-14
 -1      2107 2.00002E+01 1.57241E-03 4.92992E-05 1.26924E-03-4.23132E-15 2.36027E-13
 -1      2108 2.00007E+01 6.07152E-03 2.40675E-05 1.81564E-03 8.58317E-15 6.87762E-14
 -1      2109 1.99994E+01 3.37380E-03-5.21108E-05 1.11656E-03-2.94477E-15-1.07719E-13
 -1      2110 1.99996E+01 3.00823E-03 1.80356E-05 1.29031E-03-5.31110E-14 4.15110E-14
 -1      2111 1.99998E+01 8.30528E-03 5.28715E-05 1.98268E-03 4.87551E-14-2.40770E-14
 -1      2112 1.99991E+01 4.08714E-03-3.90837E-05 3.03654E-04 1.07952E-14-2.11449E-13
 -1      2113 1.99992E+01 3.94179E-03-1.43095E-05 6.61107E-04-2.62060E-14-2.21868E-13
 -1      2114 1.99991E+01 9.87004E-03 7.31998E-05 1.25860E-03-1.52899E-13-2.09660E-13
 -1      2115 1.99992E+01 3.94998E-03-1.42034E-05-6.32458E-04-1.65141E-13-8.51518E-14
 -1      2116 1.99991E+01 4.08682E-03-3.93289E-05-2.74793E-04 1.34779E-14 9.80660E-15
 -1      2117 1.99989E+01 1.04312E-02 8.03810E-05 1.61954E-05-1.58895E-13-2.05617E-13
 -1      2118 1.99996E+01 3.02218E-03 1.71759E-05-1.26285E-03-2.39177E-13-4.99496E-13
 -1      2119 1.99994E+01 3.38248E-03-5.20176E-05-1.08874E-03-2.17750E-13-2.09288E-13
 -1      2120 1.99991E+01 9.86935E-03 7.27519E-05-1.22647E-03-2.70975E-13-2.66946E-13
 -1      2121 2.00002E+01 1.62240E-03 4.80433E-05-1.25256E-03-2.07527E-13-4.84491E-13
 -1      2122 1.99999E+01 2.02639E-03-5.24822E-05-1.38471E-03-1.96619E-13-4.81079E-13
 -1      2123 1.99998E+01 8.32454E-03 5.42955E-05-1.95239E-03-1.12361E-13-4.81760E-13
 -1      2124 2.00008E+01 1.17582E-04 6.75271E-05-4.54791E-04 2.87453E-14 2.33756E-13
 -1      2125 2.00005E+01 3.78708E-04-4.19933E-05-9.32303E-04-2.22267E-14-2.35030E-14
 -1      2126 2.00007E+01 6.11555E-03 2.37063E-05-1.80307E-03 1.48697E-13-1.54717E-13
 -1      2127 2.00012E+01-1.03012E-03 6.28052E-05 9.87618E-04-3.54898E-14 2.58424E-13
 -1      2128 2.00010E+01-1.09321E-03-2.39504E-05 2.78966E-04 2.69412E-14 1.25291E-13
 -1      2129 2.00014E+01 3.68690E-03-9.41918E-06-6.68197E-04 2.26603E-13 2.17206E-13
 -1      2130 2.00008E+01-1.68169E-03-2.90090E-05 2.66504E-03-2.23660E-13 4.09063E-14
 -1      2131 2.00012E+01-1.97664E-03 1.40248E-05 1.91821E-03-1.94361E-13 1.25661E-13
 -1      2132 2.00018E+01 1.58410E-03-1.36075E-05 1.16152E-03-1.66335E-13 3.74011E-14
 -1      2133 1.05493E+01-5.15347E+00-1.17082E-01 6.40742E+00 3.10640E-13 8.32730E-13
 -1      2134 7.00588E+00-6.51790E+00-3.49486E-01 5.26766E+00 2.57794E-13 6.41376E-13
 -1      2135 5.12316E-01-6.23496E+00-2.97505E-01 7.54440E-01 1.04972E-13 4.16389E-13
 -1      2136 4.14431E-01-6.82338E+00-3.85442E-01-1.12951E+00 3.19328E-14 1.84630E-13
 -1      2137 4.23280E+00-6.19116E+00-2.54929E-01 4.52067E+00 3.10196E-13 5.15449E-13
 -1      2138 2.33007E+00-6.13363E+00-2.30825E-01 3.24008E+00 1.36446E-13 5.16309E-13
 -1      2139 7.76636E+00-5.23158E+00-1.28676E-01 5.93410E+00 6.25056E-14 6.15674E-13
 -1      2140 1.87230E+01-3.14916E+00 8.08479E-03 6.82789E+00 4.55302E-13 8.76854E-13
 -1      2141 1.42048E+01-5.08983E+00-3.12418E-01 6.09537E+00 2.97651E-13 9.45299E-13
 -1      2142 2.72666E+01-6.73440E-01 1.72765E-01 5.86238E+00 6.81399E-13 1.62870E-13
 -1      2143 2.24507E+01-2.54943E+00-1.82295E-01 5.68012E+00 5.70766E-13 4.05342E-13
 -1      2144 1.95605E+01 4.05806E+00-2.53963E-02-1.57194E+00-1.85317E-13-4.33632E-13
 -1      2145 1.96995E+01 3.97655E+00-2.36776E-02-1.82517E+00-2.25888E-13-3.94507E-13
 -1      2146 2.00203E+01 3.27298E+00-1.83373E-02-1.78508E+00-2.47810E-13-3.44929E-13
 -1      2147 1.97183E+01 3.65541E+00-6.01279E-03-1.38488E+00-1.87544E-13-4.04728E-13
 -1      2148 3.71851E+01 5.25234E+00 1.18532E-01 1.00107E+00 6.49869E-13-1.81966E-13
 -1      2149 3.59584E+01 4.12663E+00 2.61999E-01 2.64096E+00 6.93612E-13-8.01581E-14
 -1      2150 4.00271E+01 7.30635E+00 3.97723E-01 8.78098E-03 6.99663E-13-3.49491E-13
 -1      2151 3.79082E+01 7.04311E+00 1.51691E-01 6.66663E-01 7.06935E-13-1.84963E-13
 -1      2152 3.84800E+01 6.54368E+00 1.97212E-01-1.20425E+00 6.48481E-13-4.89830E-13
 -1      2153 4.00928E+01 7.03516E+00 3.31156E-01-3.17329E-01 6.44595E-13-4.15043E-13
 -1      2154 3.55072E+01 8.04558E+00 2.69071E-01 3.77513E-02 7.29250E-13-1.73167E-13
 -1      2155 3.41717E+01 3.45179E+00 3.37943E-02-2.06810E+00 7.03076E-13-3.96627E-13
 -1      2156 3.76532E+01 5.00738E+00 3.04897E-01-1.68645E+00 6.45317E-13-4.19664E-13
 -1      2157 2.80936E+01-6.58024E-01-4.13218E-02-4.45189E+00 7.27279E-13-4.98268E-13
 -1      2158 3.20816E+01 8.04935E-01 7.17742E-02-3.55685E+00 6.59528E-13-3.51441E-13
 -1      2159 1.97741E+01-3.34058E+00-2.38370E-01-6.00401E+00 5.88751E-13-7.42961E-13
 -1      2160 2.47435E+01-1.63055E+00 5.28675E-02-6.26995E+00 6.94056E-13-5.32852E-13
 -1      2161 1.26163E+01-5.53336E+00-2.00325E-01-6.33826E+00 1.96176E-13-7.33927E-13
 -1      2162 1.64241E+01-3.84682E+00-3.51564E-02-6.85113E+00 4.65628E-13-8.68250E-13
 -1      2163 2.06494E+01-4.90246E+00 7.10121E-04-6.08700E+00 2.27596E-15-4.60743E-13
 -1      2164 4.56802E+00-7.08724E+00-4.57439E-01-4.38653E+00 3.73035E-14-8.68999E-13
 -1      2165 8.03317E+00-5.67364E+00-2.18536E-01-5.96234E+00 7.42184E-14-8.12295E-13
 -1      2166 5.59183E-01-7.77653E+00-4.92537E-01-1.68065E+00-1.89238E-13-1.05266E-12
 -1      2167 1.93185E+00-7.08605E+00-3.92613E-01-3.11014E+00 1.07581E-13-9.73610E-13
 -1      2168 6.26271E-01-6.75720E+00-3.37573E-01 1.54751E+00-3.39451E-13-7.57727E-13
 -1      2169 1.41046E-01-7.53890E+00-4.66121E-01-8.43817E-02-1.02925E-13-9.44411E-13
 -1      2170 4.66094E+00-6.35937E+00-2.97690E-01 4.72393E+00-5.64493E-13-6.03156E-13
 -1      2171 2.47551E+00-7.00044E+00-3.76704E-01 3.45880E+00-3.05200E-13-6.55698E-13
 -1      2172 1.17962E+01-4.87202E+00-1.12429E-01 6.62984E+00-5.96523E-13-5.30832E-13
 -1      2173 8.03956E+00-6.48252E+00-3.70862E-01 5.50441E+00-5.58442E-13-4.35166E-13
 -1      2174 2.07997E+01-2.89750E+00 3.74266E-02 6.75617E+00-5.61440E-13-5.30298E-13
 -1      2175 1.59343E+01-4.82270E+00-2.82385E-01 6.14656E+00-5.22082E-13-6.01963E-13
 -1      2176 2.88731E+01-4.06186E-01 7.81475E-02 5.19621E+00-5.39291E-13-4.79561E-13
 -1      2177 2.38937E+01-2.06961E+00-1.62860E-01 5.49470E+00-5.71432E-13-5.04985E-13
 -1      2178 2.43359E+01-4.23378E+00 9.54786E-02 5.03066E+00-1.80578E-13-1.27870E-13
 -1      2179 3.49108E+01 3.18118E+00 7.68203E-02 2.15817E+00-5.16642E-13-4.01790E-13
 -1      2180 3.19437E+01 1.71555E+00 5.80724E-02 3.25394E+00-5.10925E-13-4.99378E-13
 -1      2181 4.00636E+01 6.62940E+00 4.75563E-01 1.19402E+00-8.30058E-13-3.00093E-13
 -1      2182 3.70495E+01 5.73096E+00 2.17207E-01 1.65719E+00-7.88647E-13-3.66041E-13
 -1      2183 3.95195E+01 7.22462E+00 2.44230E-01-3.95128E-01-8.46156E-13-1.39833E-13
 -1      2184 3.99711E+01 7.15455E+00 3.43155E-01 5.67350E-01-8.60978E-13-3.14276E-13
 -1      2185 3.65018E+01 5.78191E+00 1.19850E-01-1.17097E+00-7.08822E-13-7.63278E-14
 -1      2186 3.90780E+01 6.78933E+00 3.71088E-01-6.96328E-01-7.41407E-13-1.28092E-13
 -1      2187 3.23881E+01 2.09043E+00 1.10978E-01-3.71772E+00-5.90333E-13 1.94289E-13
 -1      2188 3.51996E+01 3.45058E+00 1.22840E-01-2.08970E+00-6.30856E-13-1.40998E-14
 -1      2189 2.49756E+01-1.19846E+00-1.22011E-01-5.36276E+00-4.56024E-13 4.62408E-13
 -1      2190 3.01322E+01 6.06021E-01 1.83926E-01-5.35508E+00-5.23109E-13 3.72369E-13
 -1      2191 3.11099E+01 3.62954E-02 1.99919E-01-2.06532E+00-4.19595E-13-7.62723E-14
 -1      2192 1.59429E+01-4.58022E+00-2.96160E-01-6.08807E+00-1.91624E-13 4.37317E-13
 -1      2193 2.09978E+01-2.56666E+00 3.23160E-02-6.81497E+00-4.01568E-13 4.38760E-13
 -1      2194 7.11353E+00-6.65553E+00-4.46194E-01-5.14899E+00-7.64944E-14 7.77323E-13
 -1      2195 1.11366E+01-4.75905E+00-1.79346E-01-6.43685E+00-2.25597E-13 7.11597E-13
 -1      2196 2.08192E+00-6.76651E+00-3.35299E-01-3.06390E+00 7.15539E-14 3.86635E-13
 -1      2197 4.26060E+00-6.28552E+00-2.83505E-01-4.54813E+00-3.15303E-14 8.93702E-13
 -1      2198 3.44295E+01 2.61428E+00 2.73532E-01 4.34640E+00 7.33028E-13-9.70335E-14
 -1      2199 2.99458E+01 1.15129E+00 2.09062E-03 4.74067E+00 7.69079E-13 1.22680E-13
 -1      2200 2.94831E+01-1.38694E+00 1.38595E-01 3.22678E+00 5.35932E-13-2.13662E-13
 -1      2201 2.08094E+01 1.10885E+00-1.97055E-02-1.51444E+00-2.94490E-13 1.07107E-13
 -1      2202 3.36147E+01 2.72935E+00 2.81598E-01 9.93742E-01 5.65728E-13-3.81251E-13
 -1      2203 2.07172E+01 1.33954E+00-1.87198E-02-1.54805E+00-3.16762E-13-3.94511E-14
 -1      2204 2.37565E+00-5.00611E+00-1.56872E-01 2.26138E+00 1.12937E-13 5.72764E-13
 -1      2205 2.98919E+00-2.99653E+00 6.52925E-02 1.33702E+00 1.10169E-13 4.28491E-13
 -1      2206 4.69141E+00-3.35790E+00 1.19186E-02 3.72684E+00 8.23508E-14 5.69489E-13
 -1      2207 1.48653E+01-5.61840E+00-7.85983E-02 6.72516E+00 1.01252E-13 8.58855E-13
 -1      2208 2.00007E+01-9.23460E-04-3.50989E-06 3.03086E-03-1.78883E-13 6.06800E-14
 -1      2209 2.67654E+00-4.65069E+00-1.51112E-01-2.70950E+00 7.90479E-14 3.51885E-13
 -1      2210 2.29149E+01-4.44018E+00 2.75430E-02 5.54531E+00 2.88936E-13 3.97932E-13
 -1      2211 7.72921E+00-5.52082E+00-1.85503E-01-5.92497E+00 1.08524E-13 8.51985E-13
 -1      2212 2.51348E+01-3.58730E+00 7.24891E-02-4.85641E+00-1.00364E-13 2.00839E-13
 -1      2213 3.45168E+01 4.22597E+00 1.05914E-01-4.36785E-01-6.91419E-13-2.48579E-13
 -1      2214 3.21878E+01 4.91912E+00-1.21820E-01 1.25891E+00-5.77705E-13-3.41477E-13
 -1      2215 3.18287E+01 2.67141E+00 4.73846E-02 5.94675E-01-5.26329E-13-4.20664E-13
 -1      2216 3.53234E+01 7.65883E+00 2.30451E-01 3.05465E-01-8.18734E-13-1.23845E-13
 -1      2217 3.59399E+01 7.66267E+00 3.07256E-01-8.71463E-02-8.52762E-13-1.42497E-13
 -1      2218 3.03748E+01-7.17001E-01 1.75678E-01 2.29593E+00-2.28546E-13-1.69864E-14
 -1      2219 1.67097E+01-5.57984E+00-1.22186E-02 6.76675E+00-1.27287E-13-3.52211E-13
 -1      2220 8.63469E+00-5.47932E+00-1.12357E-01 6.27357E+00-1.84741E-13-4.52749E-13
 -1      2221 2.86411E+00-5.06776E+00-1.79345E-01 3.09259E+00-9.40914E-14-7.36411E-13
 -1      2222 1.48691E+00-5.11252E+00-2.38112E-01-1.18530E+00-1.22680E-13-1.06654E-12
 -1      2223 1.17654E+01-5.55864E+00-8.79529E-02-6.47120E+00-1.14464E-13-6.63553E-13
 -1      2224 1.53665E+01-5.62962E+00-1.57277E-01-6.91727E+00-3.76588E-13-4.56551E-13
 -1      2225 1.14090E+01-4.75966E+00 1.51388E-01-6.75630E+00-3.72591E-13-5.58137E-13
 -1      2226 2.76062E+01-2.67883E+00 1.56346E-01-3.82470E+00 3.23575E-13-1.07470E-13
 -1      2227 3.49900E+01 6.04076E+00 2.19443E-01 3.60087E-01 5.81257E-13-1.87017E-13
 -1      2228 3.57773E+01 6.21196E+00 1.81679E-01-3.15744E-03 6.46205E-13-1.87433E-13
 -1      2229 3.24718E+01 5.06380E+00-3.00761E-03-9.40281E-01 5.70155E-13-3.65097E-13
 -1      2230 3.25987E+01 6.75335E+00-9.12311E-02-9.90371E-01 6.79679E-13-2.47108E-13
 -1      2231 3.23985E+01 1.21010E+00 9.79452E-02-8.19258E-01 5.00183E-13-3.55271E-15
 -1      2232 4.92669E+00-5.18726E+00-1.30114E-01-4.80687E+00-1.28508E-13-9.60731E-13
 -1      2233 3.46172E+01 4.20104E+00 1.41921E-01 7.30080E-01-5.51503E-13-1.83409E-13
 -1      2234 3.19240E+01 2.61310E+00 7.22367E-02-4.65574E-01-2.57100E-13 1.94372E-13
 -1      2235 3.28480E+01 4.80824E+00-1.51664E-01-8.96119E-01-5.59608E-13 9.58678E-14
 -1      2236 1.61430E+01-5.42145E+00-4.87884E-02-6.71878E+00 1.26121E-13 3.75276E-13
 -1      2237 2.03077E+01 5.37171E-01 5.41178E-03 5.25746E-01 2.27124E-13 3.03692E-13
 -1      2238 2.05375E+01 7.22262E-01 2.08764E-02 8.30415E-01 2.49191E-13 3.39217E-13
 -1      2239 1.94767E+01 3.66712E+00-1.13738E-02-5.05636E-01-3.01642E-14-3.85047E-13
 -1      2240 1.95313E+01 3.61246E+00-9.72042E-03-6.71202E-01-7.27675E-14-4.01560E-13
 -1      2241 1.95996E+01 3.50594E+00-1.33204E-02-8.16556E-01-9.80010E-14-4.07888E-13
 -1      2242 1.96847E+01 3.41352E+00-1.19003E-02-9.93050E-01-1.41465E-13-4.03786E-13
 -1      2243 1.97195E+01 3.19621E+00 1.12664E-03-6.65130E-01-8.23835E-14-3.70942E-13
 -1      2244 1.93995E+01 3.77021E+00-9.28380E-03 8.72374E-02 1.23216E-13-3.56680E-13
 -1      2245 1.93987E+01 3.77101E+00-9.28288E-03-6.86883E-02 8.32971E-14-3.72714E-13
 -1      2246 1.94415E+01 3.72224E+00-9.13726E-03 3.83387E-01 1.83244E-13-3.50989E-13
 -1      2247 1.94135E+01 3.74937E+00-1.00909E-02 2.24908E-01 1.48066E-13-3.54218E-13
 -1      2248 1.95484E+01 3.42708E+00 2.66416E-04 1.40797E-01 1.26789E-13-3.35178E-13
 -1      2249 1.95368E+01 3.60581E+00-9.83134E-03 6.84607E-01 2.46811E-13-3.12412E-13
 -1      2250 1.94816E+01 3.66125E+00-1.14612E-02 5.21736E-01 2.07209E-13-3.42108E-13
 -1      2251 1.96077E+01 3.34909E+00 5.59500E-04 4.05866E-01 1.87596E-13-3.19122E-13
 -1      2252 1.96933E+01 3.40253E+00-1.20256E-02 1.00543E+00 3.16761E-13-2.24033E-13
 -1      2253 1.96063E+01 3.49753E+00-1.34025E-02 8.29683E-01 2.73482E-13-2.67242E-13
 -1      2254 1.97255E+01 3.18808E+00 1.09431E-03 6.76816E-01 2.54776E-13-2.54397E-13
 -1      2255 1.99207E+01 3.08170E+00-1.71658E-02 1.33475E+00 3.57432E-13-1.34459E-13
 -1      2256 1.97970E+01 3.23629E+00-1.58872E-02 1.15103E+00 3.28365E-13-1.88467E-13
 -1      2257 1.99071E+01 2.92573E+00 2.46726E-03 9.51626E-01 3.12760E-13-1.82451E-13
 -1      2258 2.02380E+01 2.58624E+00-2.74537E-02 1.63791E+00 3.83668E-13 2.04697E-16
 -1      2259 2.00688E+01 2.83897E+00-1.77755E-02 1.46315E+00 3.60762E-13-8.05449E-14
 -1      2260 2.01547E+01 2.53363E+00 6.07392E-03 1.20402E+00 3.32595E-13-8.65653E-14
 -1      2261 2.01071E+01 3.15991E-01 6.89010E-03 9.26659E-02 1.75503E-13 2.51486E-13
 -1      2262 2.02190E+01 4.06899E-01 2.03582E-02 2.69997E-01 1.96895E-13 2.93487E-13
 -1      2263 2.03655E+01 6.83255E-01-3.33744E-03 5.11578E-01 2.25963E-13 1.61022E-13
 -1      2264 2.05263E+01 8.93578E-01 1.38743E-02-8.33769E-01-2.57180E-13-7.78373E-14
 -1      2265 2.03477E+01 6.75890E-01-2.75689E-03-5.08888E-01-2.25418E-13-7.98528E-14
 -1      2266 3.16330E+01 2.14631E+00-1.67791E-01-7.26349E-01 5.22221E-13-4.56191E-13
 -1      2267 3.11570E+01 3.98215E-01-4.81100E-02 3.02054E-01 5.10474E-13-3.82527E-13
 -1      2268 2.03036E+01 5.29307E-01 1.60681E-02-2.67095E-01-1.82044E-13-6.41293E-14
 -1      2269 2.02074E+01 4.15930E-01 2.28712E-03-7.04449E-02-1.33117E-13-8.61413E-14
 -1      2270 2.03863E+01 8.21520E-01-1.81629E-03-4.72339E-01-2.12850E-13-1.26822E-13
 -1      2271 2.01720E+01 3.41411E-01 1.07852E-02 1.00193E-01-1.17920E-13-8.98732E-14
 -1      2272 2.01496E+01 2.82070E-01 3.29600E-03 2.30700E-01-1.06920E-13-9.41076E-14
 -1      2273 2.02745E+01 5.18031E-01-4.54208E-03-2.68882E-02-1.41163E-13-1.39300E-13
 -1      2274 2.01411E+01 2.43025E-01 6.38299E-03 3.54971E-01-1.01005E-13-8.19397E-14
 -1      2275 2.01763E+01 2.12628E-01 3.66790E-03 4.49674E-01-1.00285E-13-7.86313E-14
 -1      2276 2.02207E+01 3.58777E-01-4.60276E-03 2.92080E-01-1.16976E-13-1.26211E-13
 -1      2277 2.01953E+01 1.92414E-01 3.64768E-03 5.46435E-01-8.27456E-14-6.56104E-14
 -1      2278 2.02746E+01 1.77499E-01 3.86609E-03 6.21868E-01-3.86160E-14-6.08913E-14
 -1      2279 2.02290E+01 2.75156E-01-4.02704E-03 5.31270E-01-9.20981E-14-8.99808E-14
 -1      2280 2.03185E+01 1.66679E-01 2.05014E-03 7.03066E-01-4.12942E-14-6.70584E-14
 -1      2281 2.04325E+01 1.58513E-01 3.84899E-03 7.67724E-01-3.48094E-14-8.65196E-14
 -1      2282 2.02931E+01 2.31883E-01-3.37470E-03 7.23480E-01-5.73752E-14-7.51343E-14
 -1      2283 2.04993E+01 1.50090E-01 1.20948E-03 8.39505E-01-3.01419E-14-1.03352E-13
 -1      2284 2.06416E+01 1.41167E-01 3.47539E-03 8.96043E-01-3.11708E-14-1.06285E-13
 -1      2285 2.04062E+01 2.06018E-01-2.90491E-03 8.88117E-01-5.07158E-14-1.31822E-13
 -1      2286 2.07311E+01 1.28246E-01 9.67039E-04 9.59267E-01-4.56909E-14-1.01313E-13
 -1      2287 2.08966E+01 1.10421E-01 2.52838E-03 1.00492E+00-6.73180E-14-1.17682E-13
 -1      2288 2.05642E+01 1.78150E-01-2.73409E-03 1.03313E+00-3.18905E-14-1.31277E-13
 -1      2289 2.10114E+01 8.49964E-02 1.30613E-03 1.05481E+00-6.42469E-14-1.01303E-13
 -1      2290 2.11949E+01 4.85942E-02 7.22774E-04 1.08089E+00-7.83096E-14-6.49571E-14
 -1      2291 2.07675E+01 1.27614E-01-2.96921E-03 1.15527E+00-7.29718E-14-1.44727E-13
 -1      2292 2.13408E+01 1.28149E-03 2.27945E-03 1.10608E+00-6.79982E-14-5.33567E-14
 -1      2293 2.15358E+01-6.44867E-02-2.25321E-03 1.09733E+00-5.68646E-14-7.44630E-16
 -1      2294 2.10222E+01 3.03764E-02-3.74260E-03 1.23896E+00-5.45071E-14-5.39487E-14
 -1      2295 2.17221E+01-1.43040E-01 3.89734E-03 1.07872E+00-4.20886E-14 4.48534E-14
 -1      2296 2.19186E+01-2.47059E-01-6.61157E-03 1.01361E+00 1.22385E-14 6.23366E-14
 -1      2297 2.13402E+01-1.39666E-01-5.15357E-03 1.25427E+00-1.36429E-14 5.25429E-14
 -1      2298 2.21554E+01-3.61488E-01 5.89230E-03 9.24256E-01 5.11093E-15 2.08856E-14
 -1      2299 2.23387E+01-5.02948E-01-1.20819E-02 7.78343E-01-7.37431E-15 2.91255E-14
 -1      2300 2.17389E+01-4.02690E-01-7.02539E-03 1.15550E+00-1.48059E-15 2.77912E-14
 -1      2301 2.26298E+01-6.42910E-01 7.53679E-03 5.86698E-01-4.24552E-15 2.08950E-14
 -1      2302 2.27764E+01-7.96738E-01-1.74672E-02 3.42485E-01 1.37538E-14 1.28188E-14
 -1      2303 2.22336E+01-7.53775E-01-8.39937E-03 8.83339E-01-9.43234E-15 4.03652E-14
 -1      2304 2.31015E+01-9.21539E-01 5.86780E-03 2.55897E-02 1.62279E-14 1.34441E-14
 -1      2305 2.31808E+01-1.01849E+00-1.91361E-02-3.08172E-01 2.43182E-14 3.79140E-14
 -1      2306 2.28168E+01-1.12467E+00-7.16071E-03 3.78336E-01 1.72210E-14 1.10927E-13
 -1      2307 2.34714E+01-1.04118E+00-6.05532E-04-7.29250E-01 1.73325E-14 1.97938E-14
 -1      2308 2.34513E+01-9.74616E-01-1.25641E-02-1.08410E+00 1.50752E-14 4.58403E-14
 -1      2309 2.34194E+01-1.34233E+00-8.99507E-04-3.75554E-01 4.17862E-15 1.27976E-13
 -1      2310 2.35962E+01-7.95069E-01-1.62522E-02-1.50145E+00 1.34094E-15 4.37991E-14
 -1      2311 2.34695E+01-4.68468E-01 3.09036E-03-1.74025E+00-4.42927E-14-1.59603E-14
 -1      2312 2.38858E+01-1.13988E+00 1.05578E-02-1.26516E+00-1.79967E-14 1.12115E-13
 -1      2313 2.33778E+01-3.90883E-02-3.13443E-02-1.93241E+00-8.03837E-14 1.06408E-14
 -1      2314 2.31860E+01 4.99334E-01 1.98877E-02-1.87735E+00-1.32341E-13-1.61091E-14
 -1      2315 2.40065E+01-3.28104E-01 7.22998E-03-1.95456E+00-9.86780E-14 6.64122E-14
 -1      2316 2.29171E+01 1.03060E+00-3.49310E-02-1.61703E+00-1.40322E-13-4.28841E-14
 -1      2317 2.27662E+01 1.50292E+00 1.81696E-02-1.18521E+00-7.49904E-14-5.10621E-14
 -1      2318 2.37339E+01 1.00039E+00-1.39351E-03-1.95686E+00-1.12500E-13 1.15569E-13
 -1      2319 2.25906E+01 1.79254E+00-1.45500E-02-4.92919E-01-4.54463E-14-1.39388E-13
 -1      2320 2.25727E+01 1.86059E+00-6.44173E-03 1.47113E-01-7.22061E-14-2.15086E-13
 -1      2321 2.33455E+01 2.11677E+00-2.80002E-02-9.61447E-01-1.29492E-13 3.83370E-14
 -1      2322 2.26838E+01 1.68569E+00 1.30011E-02 9.04504E-01-5.21007E-14-2.97174E-13
 -1      2323 2.28160E+01 1.29541E+00-3.07809E-02 1.41887E+00-2.40381E-14-2.10837E-13
 -1      2324 2.32869E+01 2.27507E+00-3.21736E-02 6.04429E-01-8.06421E-14-1.69279E-13
 -1      2325 2.30925E+01 7.96893E-01 2.27520E-02 1.81135E+00 1.11196E-14-1.79703E-13
 -1      2326 2.32904E+01 2.42652E-01-3.29184E-02 1.97115E+00 2.15007E-14-1.55763E-13
 -1      2327 2.36364E+01 1.35488E+00-8.81827E-03 1.82462E+00-9.34496E-15-1.89287E-13
 -1      2328 2.34539E+01-2.37583E-01 1.15509E-02 1.88458E+00-4.70485E-14-1.84801E-13
 -1      2329 2.36125E+01-6.31721E-01-1.71130E-02 1.71077E+00-9.08214E-14-2.61583E-13
 -1      2330 2.39953E+01 1.86764E-02 1.42748E-02 2.09093E+00-4.06988E-14-1.31229E-13
 -1      2331 2.35279E+01-8.78398E-01-8.71865E-03 1.33437E+00-1.28501E-13-3.65368E-13
 -1      2332 2.35876E+01-1.00671E+00-3.88746E-03 9.97974E-01-4.89782E-14-3.81481E-13
 -1      2333 2.39875E+01-9.78255E-01 1.07626E-02 1.53685E+00-1.21720E-13-2.31841E-13
 -1      2334 2.33290E+01-1.02531E+00-1.88085E-02 5.68921E-01 9.63006E-14-3.67679E-13
 -1      2335 2.32859E+01-9.57431E-01 5.17370E-03 2.26998E-01 7.97543E-14-3.13897E-13
 -1      2336 2.36067E+01-1.32151E+00 7.41331E-04 6.71767E-01-2.71578E-14-3.74454E-13
 -1      2337 2.29684E+01-8.48241E-01-1.85974E-02-1.14113E-01 3.30391E-14-2.20621E-13
 -1      2338 2.28508E+01-6.99109E-01 7.88242E-03-3.76790E-01 3.90282E-14-5.67356E-14
 -1      2339 2.30362E+01-1.18075E+00-6.48791E-03-1.20645E-01 1.15439E-13-3.71034E-13
 -1      2340 2.25554E+01-5.56297E-01-1.37095E-02-5.91302E-01-1.34563E-14-8.24058E-14
 -1      2341 2.23962E+01-4.06129E-01 6.98496E-03-7.53411E-01 1.97073E-14-6.22392E-14
 -1      2342 2.24539E+01-8.24532E-01-8.57187E-03-6.75627E-01 1.21538E-14-1.68817E-13
 -1      2343 2.21534E+01-2.81853E-01-8.05904E-03-8.56970E-01 2.66172E-15-4.31816E-14
 -1      2344 2.19780E+01-1.65875E-01 4.98454E-03-9.31570E-01 4.60992E-15-9.95823E-14
 -1      2345 2.19510E+01-4.54637E-01-7.50431E-03-9.84900E-01-1.38366E-14-8.39375E-14
 -1      2346 2.17884E+01-7.73202E-02-3.38636E-03-9.55640E-01 1.34621E-14-1.57484E-13
 -1      2347 2.16134E+01-1.65662E-03 3.14547E-03-9.67211E-01 5.05428E-15-1.53747E-13
 -1      2348 2.15465E+01-1.63376E-01-5.53773E-03-1.10258E+00-6.05993E-14 6.36305E-15
 -1      2349 2.14669E+01 5.25617E-02-1.12243E-04-9.41540E-01-3.79924E-14-1.75535E-13
 -1      2350 2.13024E+01 9.45982E-02 1.82192E-03-9.13899E-01 2.35285E-14-1.84473E-13
 -1      2351 2.12281E+01 3.01935E-02-3.83057E-03-1.09171E+00 9.31410E-15-4.39930E-14
 -1      2352 2.11881E+01 1.22555E-01 1.89805E-03-8.61257E-01 5.43795E-14-2.60283E-13
 -1      2353 2.10399E+01 1.40810E-01 9.97325E-04-8.13009E-01-1.19316E-14-1.51819E-14
 -1      2354 2.09761E+01 1.40437E-01-2.67090E-03-1.00489E+00 1.93503E-14-1.14203E-13
 -1      2355 2.09493E+01 1.51159E-01 2.94570E-03-7.49008E-01-9.27402E-14 4.62485E-15
 -1      2356 2.08201E+01 1.54415E-01 5.32946E-04-6.92945E-01-1.98451E-14 1.03828E-14
 -1      2357 2.07740E+01 1.90743E-01-1.97332E-03-8.80286E-01 2.72986E-15-1.06647E-13
 -1      2358 2.07474E+01 1.54129E-01 3.33005E-03-6.27424E-01 5.85566E-14 4.39989E-14
 -1      2359 2.06378E+01 1.48909E-01 2.93113E-04-5.71484E-01 1.04703E-14 1.16032E-13
 -1      2360 2.06100E+01 2.02614E-01-1.57255E-03-7.43274E-01 1.65503E-15-2.76067E-14
 -1      2361 2.05792E+01 1.42900E-01 3.29649E-03-5.10107E-01-7.89360E-14 2.43516E-13
 -1      2362 2.04886E+01 1.33570E-01 1.79257E-04-4.58697E-01-1.68563E-14 2.15376E-13
 -1      2363 2.04763E+01 1.92320E-01-1.33220E-03-6.09418E-01-5.73654E-14 7.73230E-14
 -1      2364 2.04414E+01 1.25008E-01 3.02616E-03-4.04310E-01 9.83382E-15 2.34922E-13
 -1      2365 2.03681E+01 1.14269E-01 1.29804E-04-3.59482E-01 1.29494E-14 1.40787E-13
 -1      2366 2.03674E+01 1.70908E-01-1.16551E-03-4.87328E-01 2.70740E-14 3.17062E-13
 -1      2367 2.03304E+01 1.05060E-01 2.64271E-03-3.13135E-01 9.79072E-14 2.88591E-13
 -1      2368 2.02724E+01 9.44639E-02 1.09825E-04-2.75480E-01 1.91377E-13 4.06207E-13
 -1      2369 2.02795E+01 1.45317E-01-1.02704E-03-3.80988E-01 1.67082E-13 3.50451E-13
 -1      2370 2.02426E+01 8.56683E-02 2.22506E-03-2.37146E-01 8.50546E-14 3.13049E-13
 -1      2371 2.01975E+01 7.60209E-02 1.01304E-04-2.06414E-01 1.56457E-14 1.80180E-13
 -1      2372 2.02092E+01 1.19601E-01-8.97735E-04-2.91463E-01 7.77920E-14 2.43229E-13
 -1      2373 2.01743E+01 6.81634E-02 1.82008E-03-1.75474E-01 1.60369E-13 8.96892E-14
 -1      2374 2.01400E+01 5.98123E-02 9.57806E-05-1.50980E-01 2.33005E-13 1.71998E-13
 -1      2375 2.01538E+01 9.59171E-02-7.72494E-04-2.18100E-01 3.40985E-14 9.70863E-14
 -1      2376 2.01222E+01 5.30939E-02 1.45282E-03-1.26532E-01 2.87356E-14 1.74160E-13
 -1      2377 2.00967E+01 4.61173E-02 8.97745E-05-1.07414E-01-8.21378E-14 1.83295E-13
 -1      2378 2.01109E+01 7.52447E-02-6.52289E-04-1.59333E-01 5.52167E-14 1.75824E-13
 -1      2379 2.00833E+01 4.05519E-02 1.13432E-03-8.84681E-02 9.70254E-15 2.26993E-13
 -1      2380 2.00648E+01 3.48784E-02 8.20704E-05-7.38351E-02 4.84625E-14 2.42284E-13
 -1      2381 2.00782E+01 5.78588E-02-5.39754E-04-1.13206E-01 6.39874E-14 2.62950E-13
 -1      2382 2.00549E+01 3.03781E-02 8.66955E-04-5.94306E-02-8.86911E-14 1.93715E-13
 -1      2383 2.00419E+01 2.58595E-02 7.21860E-05-4.84484E-02 7.17945E-14 1.85635E-13
 -1      2384 2.00537E+01 4.36367E-02-4.37316E-04-7.76883E-02-7.18996E-14 2.22901E-13
 -1      2385 2.00348E+01 2.22847E-02 6.48437E-04-3.77162E-02 2.48745E-13 1.24860E-13
 -1      2386 2.00259E+01 1.87378E-02 5.99363E-05-2.96537E-02 2.62039E-13 1.58309E-13
 -1      2387 2.00359E+01 3.22452E-02-3.46407E-04-5.08670E-02 1.22212E-13 7.96471E-15
 -1      2388 2.00209E+01 1.59263E-02 4.73979E-04-2.18484E-02 1.73452E-13 1.49502E-13
 -1      2389 2.00152E+01 1.31523E-02 4.39536E-05-1.60978E-02 1.36101E-13 1.87086E-13
 -1      2390 2.00231E+01 2.32526E-02-2.66656E-04-3.10516E-02 2.12892E-13 2.01792E-13
 -1      2391 2.00117E+01 1.09245E-02 3.37274E-04-1.06147E-02 1.05259E-13 2.67162E-13
 -1      2392 2.00082E+01 8.72720E-03 2.96887E-05-6.71082E-03 6.54958E-14 2.61194E-13
 -1      2393 2.00142E+01 1.61708E-02-1.99414E-04-1.68181E-02 1.08431E-13 2.56341E-13
 -1      2394 2.00060E+01 6.84235E-03 2.17233E-04-3.07075E-03-1.80754E-14 3.77901E-13
 -1      2395 2.00040E+01 5.09910E-03 4.22193E-05-7.10542E-04-4.16007E-14 3.51625E-13
 -1      2396 2.00082E+01 1.05342E-02-1.37566E-04-7.04133E-03 8.65409E-14 2.19865E-13
 -1      2397 1.09272E+01-4.31899E+00 6.60475E-02 6.58936E+00 3.63876E-14 6.66578E-13
 -1      2398 8.13541E+00-3.68442E+00 1.14138E-01 5.48927E+00 1.04222E-13 5.20084E-13
 -1      2399 2.00823E+01 1.55194E-01 5.20678E-03-3.88298E-01 8.54139E-14 1.76248E-13
 -1      2400 2.00310E+01 1.77545E-01 7.44635E-03-3.06664E-01 1.01305E-13 2.16135E-13
 -1      2401 2.02148E+01 1.30619E-01 4.94271E-03-5.43671E-01 7.77807E-14 1.13812E-13
 -1      2402 2.01132E+01 1.40454E-01 4.37845E-03-4.77981E-01 9.48112E-14 1.48518E-13
 -1      2403 2.01758E+01 2.10455E-01-4.55005E-03-4.80155E-01 1.26721E-13 5.92495E-14
 -1      2404 2.04196E+01 1.20341E-01 4.78474E-03-6.77113E-01 6.68141E-14 1.00552E-13
 -1      2405 2.02781E+01 1.24120E-01 2.65754E-03-6.18924E-01 6.01334E-14 8.43551E-14
 -1      2406 2.02717E+01 1.79474E-01-3.84529E-03-6.61687E-01 9.56819E-14 3.22904E-14
 -1      2407 2.06853E+01 1.13864E-01 4.43554E-03-7.98857E-01 9.67624E-14 1.31399E-13
 -1      2408 2.05106E+01 1.16874E-01 1.69175E-03-7.44985E-01 5.58933E-14 1.10225E-13
 -1      2409 2.04279E+01 1.65412E-01-3.28106E-03-8.19181E-01 4.91455E-14 7.69724E-15
 -1      2410 2.10041E+01 1.00467E-01 3.58221E-03-9.09082E-01 3.30423E-14 1.73562E-13
 -1      2411 2.08014E+01 1.08494E-01 1.18359E-03-8.61130E-01 9.96145E-14 1.79594E-13
 -1      2412 2.06366E+01 1.53339E-01-2.96506E-03-9.62292E-01 5.83595E-14 8.70892E-14
 -1      2413 2.13696E+01 6.69432E-02 1.85038E-03-9.97007E-01 9.92562E-14 1.36237E-13
 -1      2414 2.11450E+01 8.72806E-02 1.01347E-03-9.62070E-01 7.83114E-14 1.94366E-13
 -1      2415 2.08939E+01 1.27427E-01-2.94231E-03-1.08949E+00 6.11654E-14 1.22697E-13
 -1      2416 2.17740E+01-3.20549E-03-1.16334E-03-1.03866E+00 6.24989E-14 1.21655E-13
 -1      2417 2.15370E+01 3.84390E-02 1.16141E-03-1.03048E+00 8.05102E-14 1.39596E-13
 -1      2418 2.12000E+01 6.82218E-02-3.27805E-03-1.18679E+00 1.10721E-13 9.10437E-14
 -1      2419 2.22063E+01-1.27784E-01-5.73283E-03-9.94852E-01 1.04466E-13 1.13487E-13
 -1      2420 2.19717E+01-5.56887E-02 1.65428E-03-1.03445E+00 8.05893E-14 1.13887E-13
 -1      2421 2.15586E+01-4.76262E-02-4.02533E-03-1.22528E+00 6.13818E-14 7.41701E-14
 -1      2422 2.26482E+01-3.17825E-01-1.16685E-02-8.12678E-01-2.96356E-14 1.62026E-13
 -1      2423 2.24385E+01-2.11257E-01 2.45597E-03-9.26250E-01 6.21011E-14 2.12554E-13
 -1      2424 2.19764E+01-2.42763E-01-5.05365E-03-1.15902E+00 1.75643E-14 1.85920E-13
 -1      2425 2.30682E+01-5.58458E-01-1.76290E-02-4.36514E-01-5.30418E-14 1.64810E-13
 -1      2426 2.29149E+01-4.30219E-01 3.17303E-03-6.47162E-01-6.05453E-14 1.58871E-13
 -1      2427 2.24578E+01-5.24708E-01-5.71668E-03-9.26793E-01-3.71305E-14 1.55002E-13
 -1      2428 2.34114E+01-7.80731E-01-2.10526E-02 1.59905E-01-4.72287E-14 2.34621E-13
 -1      2429 2.33530E+01-6.74985E-01 2.64112E-03-1.48344E-01-6.79378E-14 2.11266E-13
 -1      2430 2.29915E+01-8.54929E-01-4.33489E-03-4.65397E-01-8.44750E-14 1.22590E-13
 -1      2431 2.35958E+01-8.35685E-01-1.65219E-02 9.21665E-01 1.68073E-13 2.55430E-13
 -1      2432 2.36658E+01-8.42062E-01-2.10336E-03 5.64318E-01 7.82534E-14 2.54601E-13
 -1      2433 2.35243E+01-1.11267E+00 6.62553E-04 2.51470E-01-1.09639E-14 1.64405E-13
 -1      2434 2.35156E+01-5.30356E-01-2.09039E-03 1.62335E+00 1.05081E-13 3.26737E-13
 -1      2435 2.37193E+01-7.40540E-01-1.19138E-02 1.34900E+00 1.77937E-13 3.53712E-13
 -1      2436 2.39228E+01-1.06339E+00 9.55248E-03 1.14186E+00 1.32544E-13 3.26074E-13
 -1      2437 2.31473E+01 1.89330E-01 1.56090E-02 1.89099E+00-4.08215E-14 2.82706E-13
 -1      2438 2.34301E+01-2.23823E-01-2.39240E-02 1.87247E+00 3.97202E-14 2.83801E-13
 -1      2439 2.40094E+01-4.88034E-01 1.39625E-02 1.90133E+00 6.07364E-14 4.07699E-13
 -1      2440 2.26424E+01 1.05523E+00 2.02918E-02 1.37683E+00-8.40491E-14 2.73843E-13
 -1      2441 2.28842E+01 6.34077E-01-2.68780E-02 1.72617E+00-1.09851E-13 2.38554E-13
 -1      2442 2.37118E+01 5.77984E-01 7.40377E-04 2.05244E+00-5.69041E-14 2.68733E-13
 -1      2443 2.23543E+01 1.50454E+00 3.28144E-03 1.51036E-01 9.38156E-14 1.80138E-13
 -1      2444 2.24284E+01 1.36842E+00-1.10606E-02 7.56580E-01 4.31773E-14 2.64462E-13
 -1      2445 2.32657E+01 1.64351E+00-2.13614E-02 1.24126E+00-3.27169E-15 2.72959E-13
 -1      2446 2.25487E+01 1.18072E+00-2.14174E-02-1.17570E+00 2.47521E-13 9.98854E-14
 -1      2447 2.24087E+01 1.44049E+00 1.10500E-02-6.26386E-01 1.92547E-13 1.04174E-13
 -1      2448 2.31071E+01 1.98730E+00-3.13974E-02-2.76850E-01 1.89328E-13 8.81043E-14
 -1      2449 2.30975E+01 3.45238E-01-2.80579E-02-1.89666E+00 2.03656E-13 3.25330E-14
 -1      2450 2.28204E+01 7.92832E-01 1.98585E-02-1.66751E+00 2.69975E-13 4.67612E-14
 -1      2451 2.34127E+01 1.34638E+00-1.64130E-02-1.64502E+00 2.72674E-13 2.37974E-14
 -1      2452 2.36060E+01-4.29139E-01-1.69529E-02-1.79468E+00-1.54334E-14-1.04338E-13
 -1      2453 2.33262E+01-7.81019E-02 1.05344E-02-1.91012E+00 9.33453E-14-1.37399E-14
 -1      2454 2.38677E+01 2.02198E-01 6.26164E-03-2.13982E+00 2.14988E-13-1.51892E-14
 -1      2455 2.37997E+01-7.98869E-01-4.88715E-03-1.15119E+00-1.11314E-13-2.42768E-13
 -1      2456 2.36200E+01-6.69201E-01-7.80416E-03-1.45957E+00-7.09328E-14-1.62652E-13
 -1      2457 2.40591E+01-7.32006E-01 1.38245E-02-1.74049E+00 3.97085E-14-2.18024E-13
 -1      2458 2.36684E+01-7.89748E-01 1.87123E-03-3.76239E-01-5.51763E-14-2.72065E-13
 -1      2459 2.36246E+01-8.33880E-01-1.91287E-02-7.12900E-01-7.15122E-14-2.81141E-13
 -1      2460 2.38671E+01-1.11538E+00 5.05489E-03-9.03599E-01-2.35922E-15-3.26664E-13
 -1      2461 2.33289E+01-5.81702E-01 4.14734E-03 2.62091E-01 7.44084E-14-1.75159E-13
 -1      2462 2.34036E+01-7.01856E-01-2.01600E-02-3.77061E-03-3.38913E-14-2.63268E-13
 -1      2463 2.34261E+01-1.03245E+00-3.26648E-03-6.45498E-02-3.10646E-14-3.84738E-13
 -1      2464 2.29002E+01-3.35873E-01 3.65426E-03 6.72976E-01 1.43593E-13-5.62148E-14
 -1      2465 2.30554E+01-4.59203E-01-1.53536E-02 5.07076E-01 1.42268E-13-8.33201E-14
 -1      2466 2.29053E+01-7.28736E-01-6.64158E-03 5.56804E-01 5.32278E-14-3.33077E-13
 -1      2467 2.24579E+01-1.34418E-01 2.59011E-03 8.73928E-01 6.35999E-14 1.95335E-13
 -1      2468 2.26559E+01-2.28882E-01-9.15437E-03 7.96978E-01 1.25381E-13 1.86030E-13
 -1      2469 2.24092E+01-4.00534E-01-6.37239E-03 9.20058E-01-1.95048E-15-5.78169E-14
 -1      2470 2.20398E+01 9.49046E-04 1.69791E-03 9.21691E-01 2.86724E-14 2.50012E-13
 -1      2471 2.22513E+01-5.93851E-02-3.82500E-03 9.08516E-01 8.98033E-14 2.20349E-13
 -1      2472 2.19753E+01-1.42085E-01-4.91944E-03 1.07104E+00 5.68480E-14 1.09576E-13
 -1      2473 2.16624E+01 7.80302E-02 1.16774E-03 8.74099E-01 1.08494E-13 1.44797E-14
 -1      2474 2.18677E+01 4.56074E-02-5.45006E-05 8.99835E-01 9.27821E-14 1.56202E-13
 -1      2475 2.16069E+01 2.70465E-02-3.54044E-03 1.07646E+00 1.80476E-13 1.71224E-13
 -1      2476 2.13319E+01 1.13257E-01 9.03267E-04 7.76336E-01 7.90729E-14-4.59387E-14
 -1      2477 2.15193E+01 1.00023E-01 2.24048E-03 8.21825E-01 1.05564E-13-6.74612E-14
 -1      2478 2.12964E+01 1.20631E-01-2.59113E-03 9.95438E-01 1.07708E-13 1.11128E-13
 -1      2479 2.10492E+01 1.22107E-01 7.82126E-04 6.59024E-01-3.81275E-14 1.06389E-13
 -1      2480 2.12128E+01 1.20555E-01 3.39449E-03 7.11467E-01-5.99629E-15 4.61196E-14
 -1      2481 2.10354E+01 1.61138E-01-2.03088E-03 8.71647E-01 1.82948E-14 2.54355E-14
 -1      2482 2.08125E+01 1.16135E-01 7.18950E-04 5.40809E-01 2.78135E-14 1.07803E-13
 -1      2483 2.09505E+01 1.20896E-01 3.77394E-03 5.92567E-01 7.84811E-15 1.39567E-13
 -1      2484 2.08169E+01 1.68717E-01-1.71287E-03 7.33857E-01-3.92688E-14 2.37457E-13
 -1      2485 2.06182E+01 1.02970E-01 6.68872E-04 4.31846E-01 1.48964E-13 4.20533E-14
 -1      2486 2.07314E+01 1.10594E-01 3.68122E-03 4.78890E-01 1.08845E-13 6.40205E-14
 -1      2487 2.06356E+01 1.58106E-01-1.51223E-03 5.99297E-01 7.43924E-14 2.42847E-13
 -1      2488 2.04617E+01 8.72395E-02 6.14227E-04 3.36779E-01 1.53692E-13 1.04599E-13
 -1      2489 2.05524E+01 9.56801E-02 3.33426E-03 3.77385E-01 2.22132E-13 1.57536E-13
 -1      2490 2.04870E+01 1.38935E-01-1.35449E-03 4.77160E-01 1.24181E-13 9.26530E-14
 -1      2491 2.03380E+01 7.15419E-02 5.51734E-04 2.56927E-01 3.04046E-14 1.55612E-13
 -1      2492 2.04091E+01 7.96802E-02 2.87668E-03 2.90732E-01 9.78276E-14 2.04753E-14
 -1      2493 2.03669E+01 1.16994E-01-1.20578E-03 3.71454E-01 2.17519E-13 1.06887E-13
 -1      2494 2.02420E+01 5.71982E-02 4.84076E-04 1.91750E-01-4.34237E-14 4.52199E-14
 -1      2495 2.02966E+01 6.44890E-02 2.39615E-03 2.19128E-01-8.72428E-14 1.20494E-13
 -1      2496 2.02715E+01 9.55026E-02-1.05606E-03 2.83048E-01 9.47839E-14 5.90973E-14
 -1      2497 2.01690E+01 4.47675E-02 4.15413E-04 1.39772E-01-2.13152E-13-4.62174E-14
 -1      2498 2.02100E+01 5.10033E-02 1.94169E-03 1.61451E-01 2.95858E-14 9.47663E-14
 -1      2499 2.01969E+01 7.60668E-02-9.06511E-04 2.11052E-01-3.95291E-14 1.19220E-13
 -1      2500 2.01146E+01 3.43769E-02 3.49371E-04 9.91457E-02-1.97581E-13 3.74166E-14
 -1      2501 2.01447E+01 3.95387E-02 1.53739E-03 1.15977E-01-3.48184E-13-3.01907E-14
 -1      2502 2.01396E+01 5.93357E-02-7.62020E-04 1.53703E-01-2.34762E-13-6.16126E-15
 -1      2503 2.00750E+01 2.59220E-02 2.88334E-04 6.79760E-02-5.65861E-14 1.14294E-13
 -1      2504 2.00965E+01 3.00895E-02 1.19207E-03 8.08061E-02-6.78176E-14 1.37381E-13
 -1      2505 2.00964E+01 4.54176E-02-6.27404E-04 1.08907E-01-1.50468E-13-4.82394E-14
 -1      2506 2.00469E+01 1.91849E-02 2.33240E-04 4.44947E-02 1.59687E-13 1.64735E-13
 -1      2507 2.00618E+01 2.24841E-02 9.05781E-04 5.40967E-02 4.80476E-14 1.19005E-13
 -1      2508 2.00647E+01 3.41333E-02-5.05966E-04 7.45529E-02-2.07370E-15 2.34847E-13
 -1      2509 2.00277E+01 1.39003E-02 1.83622E-04 2.71497E-02 2.69680E-13 3.01866E-13
 -1      2510 2.00376E+01 1.64750E-02 6.73696E-04 3.41916E-02 1.90972E-13 2.64800E-13
 -1      2511 2.00418E+01 2.51647E-02-3.99329E-04 4.86896E-02 5.59266E-14 1.47162E-13
 -1      2512 2.00151E+01 9.78789E-03 1.37536E-04 1.46423E-02 2.94517E-13 5.93800E-13
 -1      2513 2.00213E+01 1.17864E-02 4.88741E-04 1.96744E-02 2.87191E-13 5.31016E-13
 -1      2514 2.00259E+01 1.81370E-02-3.07757E-04 2.96149E-02 7.66914E-14 4.51481E-13
 -1      2515 2.00073E+01 6.56894E-03 9.93280E-05 5.94383E-03 3.80562E-13 5.02378E-13
 -1      2516 2.00109E+01 8.13593E-03 3.43554E-04 9.39089E-03 3.82537E-13 6.70317E-13
 -1      2517 2.00151E+01 1.26581E-02-2.29694E-04 1.59114E-02 3.01869E-13 7.03072E-13
 -1      2518 2.00029E+01 3.89592E-03 5.48365E-05 2.74231E-04 1.90162E-13 4.19249E-13
 -1      2519 2.00047E+01 5.21111E-03 2.24991E-04 2.42897E-03 2.78942E-13 5.22275E-13
 -1      2520 2.00081E+01 8.34993E-03-1.64625E-04 6.47224E-03 2.82742E-13 7.10597E-13
 -1      2521 2.00007E+01 1.47256E-03 9.88397E-06-2.78967E-03 4.38231E-14 5.71319E-13
 -1      2522 2.00014E+01 2.71131E-03 1.52597E-04-1.74808E-03 1.52310E-13 5.83058E-13
 -1      2523 2.00039E+01 4.56151E-03-1.37888E-04 3.84234E-04 9.18724E-14 7.82029E-13
 -1      2524 1.99999E+01 1.06286E-04 7.71154E-05-3.58442E-03-8.92921E-14 5.00100E-13
 -1      2525 2.00005E+01 1.17701E-02-9.44260E-05 3.40818E-03 1.19153E-13 2.87249E-13
 -1      2526 2.00013E+01 1.07369E-02 7.09599E-05 3.12622E-03 1.05692E-13-1.30896E-13
 -1      2527 1.99990E+01 1.46562E-02-9.47742E-05 2.98610E-03 8.46893E-14-3.76840E-14
 -1      2528 1.99997E+01 1.38232E-02 4.04773E-05 3.24649E-03 1.20573E-13 1.16092E-13
 -1      2529 2.00002E+01 1.87397E-02 7.83905E-05 4.65970E-03 2.15192E-13 1.34734E-13
 -1      2530 2.00028E+01 5.00452E-03-4.35938E-05 6.74958E-04-8.71534E-14 4.88275E-13
 -1      2531 2.00029E+01 4.20699E-03 5.54293E-05-3.06774E-04-1.09682E-13 8.98620E-13
 -1      2532 2.00019E+01 8.35744E-03-7.61188E-05 2.58321E-03-1.90138E-13-1.97558E-13
 -1      2533 2.00026E+01 7.35304E-03 8.43792E-05 1.82439E-03-2.30800E-13 2.42249E-13
 -1      2534 2.00036E+01 9.83783E-03 3.04064E-05 2.72809E-03-1.96040E-13 2.30106E-13
 -1      2535 2.00021E+01 1.44405E-02 4.01829E-05 4.38719E-03 1.65672E-14 1.01828E-13
 -1      2536 1.99981E+01 1.64976E-02-7.63227E-05 1.54705E-03-1.51406E-13-2.42530E-13
 -1      2537 1.99985E+01 1.60326E-02-1.10614E-06 2.20949E-03-5.72035E-14-2.75049E-13
 -1      2538 1.99984E+01 2.20499E-02 1.09261E-04 3.50208E-03 1.36833E-14-2.04785E-13
 -1      2539 1.99979E+01 1.69778E-02-4.29855E-05-3.90777E-04-9.89222E-14-2.11822E-13
 -1      2540 1.99979E+01 1.69781E-02-4.31862E-05 4.18598E-04-1.74372E-13-1.08312E-13
 -1      2541 1.99974E+01 2.38377E-02 1.25724E-04 1.30111E-03-4.38313E-14-2.25722E-13
 -1      2542 1.99985E+01 1.60187E-02-2.02393E-06-2.18052E-03-1.48194E-13-2.63930E-13
 -1      2543 1.99981E+01 1.64874E-02-7.59570E-05-1.51906E-03-1.39830E-13-2.53660E-13
 -1      2544 1.99974E+01 2.38268E-02 1.25081E-04-1.27790E-03 8.73939E-15-2.26015E-13
 -1      2545 1.99997E+01 1.38516E-02 3.94414E-05-3.21011E-03 1.73899E-13-2.29696E-13
 -1      2546 1.99990E+01 1.46626E-02-9.46077E-05-2.94657E-03-5.18315E-14-3.84933E-13
 -1      2547 1.99984E+01 2.20459E-02 1.10830E-04-3.46493E-03 7.46373E-14-3.22605E-13
 -1      2548 2.00012E+01 1.07712E-02 6.73341E-05-3.11292E-03 2.97911E-13-4.43725E-14
 -1      2549 2.00004E+01 1.18056E-02-9.45323E-05-3.38274E-03 1.75553E-13-2.40772E-13
 -1      2550 2.00001E+01 1.87630E-02 7.84027E-05-4.62526E-03 3.24475E-13-3.19450E-13
 -1      2551 2.00025E+01 7.30487E-03 6.27623E-05-1.79913E-03-7.01490E-16 6.17326E-14
 -1      2552 2.00019E+01 8.39098E-03-6.67247E-05-2.58833E-03 1.16711E-13 3.33900E-14
 -1      2553 2.00021E+01 1.44764E-02 4.57280E-05-4.35400E-03 5.37168E-14-1.62292E-13
 -1      2554 2.00029E+01 4.11957E-03 4.91143E-05 3.18366E-04-2.88337E-13-1.26794E-14
 -1      2555 2.00028E+01 5.02387E-03-3.38087E-05-7.01806E-04-2.68840E-13 1.82623E-13
 -1      2556 2.00035E+01 9.78199E-03-3.15806E-05-2.72673E-03-3.35086E-13-1.24597E-13
 -1      2557 2.00011E+01 7.33964E-04 8.34688E-05 2.94505E-03-5.56477E-14 1.51100E-13
 -1      2558 3.56429E+00-2.65130E+00 9.32251E-02-1.54961E+00 5.00988E-14 1.80411E-13
 -1      2559 5.18013E+00-2.94719E+00 7.97445E-02-3.89163E+00 5.67046E-14 4.24438E-13
 -1      2560 2.00387E+01 2.08302E-01 5.89562E-03-1.89179E-01 1.24153E-13 2.23406E-13
 -1      2561 2.00553E+01 2.54012E-01 1.27470E-02-7.52750E-02 1.37087E-13 2.35482E-13
 -1      2562 2.01519E+01 2.77258E-01-5.06959E-03-2.52793E-01 1.30598E-13 9.52684E-14
 -1      2563 1.85788E+01-5.35371E+00 1.68893E-02 6.52883E+00 3.92464E-14 6.84178E-13
 -1      2564 1.47667E+01-5.17884E+00 5.69178E-02 6.61846E+00-3.98293E-14 7.56978E-13
 -1      2565 8.15121E+00-4.06774E+00 7.60657E-02-5.82690E+00 1.41331E-13 7.82208E-13
 -1      2566 1.12596E+01-4.84158E+00 3.43892E-03-6.81965E+00 1.76859E-13 6.33216E-13
 -1      2567 2.06287E+01 1.97384E+00-1.28093E-02-1.75408E+00-3.01639E-13-1.46064E-13
 -1      2568 2.05166E+01 1.23899E+00-7.61725E-03-1.13643E+00-2.83104E-13-1.11232E-13
 -1      2569 2.04824E+01 1.43172E+00 7.47868E-03-1.05822E+00-2.53847E-13-1.55961E-13
 -1      2570 2.03704E+01 2.42700E+00 4.94464E-05-1.68399E+00-2.87828E-13-2.36760E-13
 -1      2571 2.48145E+01-4.65184E+00-6.09227E-02 4.45020E+00 2.37199E-13-9.53959E-14
 -1      2572 2.14850E+01-5.37171E+00-4.48033E-03 5.41534E+00 5.54556E-14 3.48027E-13
 -1      2573 2.11804E+01-5.38464E+00 8.94890E-02 5.41884E+00-3.34732E-14 2.33643E-13
 -1      2574 1.95785E+01-5.44862E+00-3.48561E-02 6.38258E+00 6.49480E-14-6.07361E-14
 -1      2575 1.57263E+01-5.34166E+00 7.24729E-02 6.65955E+00 5.98688E-14-1.85352E-13
 -1      2576 2.56640E+01-4.37005E+00-2.76003E-02-3.76560E+00 6.00353E-14-3.47222E-14
 -1      2577 2.81257E+01-3.11828E+00-9.88125E-02-2.17534E+00 1.49131E-13 1.49575E-13
 -1      2578 1.94111E+01 3.75221E+00-1.00552E-02-2.06391E-01 5.28206E-14-3.80560E-13
 -1      2579 1.94375E+01 3.72693E+00-9.07413E-03-3.64797E-01 3.43814E-15-3.79067E-13
 -1      2580 1.96033E+01 3.35424E+00 4.59302E-04-3.91602E-01-1.47038E-14-3.45978E-13
 -1      2581 1.95468E+01 3.42902E+00 2.40556E-04-1.23996E-01 5.68229E-14-3.47274E-13
 -1      2582 3.01088E+01-6.36473E-01-3.94168E-02-2.32102E-01 2.99927E-13 1.77858E-13
 -1      2583 3.15495E+01 1.84443E+00-1.26271E-01 7.02030E-01 4.25521E-13 1.23318E-13
 -1      2584 3.25183E+01 7.22184E+00-8.79236E-02 4.55838E-01 5.76372E-13-2.79360E-14
 -1      2585 3.20762E+01 7.31471E+00-1.70413E-01-1.08539E-01 6.11566E-13-1.75429E-13
 -1      2586 5.01602E+00-3.57943E+00 6.21723E-02-3.88539E+00-2.56406E-13-9.09550E-13
 -1      2587 7.57033E+00-3.64115E+00 7.33505E-02-5.45050E+00-3.00038E-13-7.31526E-13
 -1      2588 3.20079E+01 4.62461E+00-8.10161E-02 1.17065E+00 4.50640E-13 8.29337E-14
 -1      2589 3.26446E+01 6.16512E+00-1.27232E-01 8.81482E-01 5.88862E-13 7.03604E-14
 -1      2590 3.04531E+01 6.22943E+00-8.41377E-02 1.00626E+00 5.07844E-13 3.30153E-14
 -1      2591 2.01566E+01-5.47534E+00 4.41153E-02-5.84490E+00-3.46001E-13-3.41921E-13
 -1      2592 2.32972E+01-5.02527E+00-4.45273E-02-5.24305E+00-1.32949E-13-2.06501E-13
 -1      2593 2.50363E+01-5.01661E+00 5.19544E-02-3.72558E+00-2.61027E-13-9.63118E-15
 -1      2594 3.10060E+00-2.71445E+00 8.76463E-02-1.87580E-01-1.03292E-13-8.61922E-13
 -1      2595 3.60966E+00-3.07789E+00 5.92253E-02-2.34296E+00-1.58540E-13-9.39138E-13
 -1      2596 6.18664E+00-1.94972E+00 1.59821E-01-3.02879E+00-2.48551E-13-8.17096E-13
 -1      2597 5.44915E+00-3.39967E+00 4.90137E-02 4.44301E+00 7.70772E-14-6.23501E-13
 -1      2598 3.59345E+00-2.98732E+00 7.19645E-02 2.11646E+00 9.32657E-14-6.63136E-13
 -1      2599 1.15812E+01-4.63919E+00 1.56961E-02 6.83459E+00 3.60545E-14-3.07643E-13
 -1      2600 8.32333E+00-4.23049E+00 6.91089E-02 5.77753E+00 1.58429E-13-4.51250E-13
 -1      2601 2.60320E+01-4.35432E+00-8.39992E-02 3.78928E+00 7.00828E-14 2.04059E-13
 -1      2602 2.32983E+01-5.12942E+00 3.00289E-02 4.74823E+00 1.19155E-13 1.52670E-13
 -1      2603 1.50728E+01-5.42017E+00 2.31094E-02-6.64409E+00 2.46025E-13 3.10797E-13
 -1      2604 1.93958E+01-5.36441E+00-6.22667E-02-6.45982E+00 2.47413E-13 1.10884E-13
 -1      2605 1.50397E+01-4.74741E+00 1.16999E-01-6.59597E+00 3.45807E-13 3.15581E-13
 -1      2606 3.02532E+01-6.42566E-01-1.45630E-01 4.43673E-01-5.03625E-14 2.28956E-13
 -1      2607 2.82831E+01-2.71519E+00-3.40431E-02 1.90570E+00 1.17684E-14 1.99230E-13
 -1      2608 2.74495E+01-3.74364E+00 4.34629E-02 1.80242E+00 2.33973E-13 4.36345E-13
 -1      2609 3.23505E+01 7.20018E+00-1.51749E-01-4.22477E-01-7.88203E-13-1.03112E-14
 -1      2610 3.25386E+01 6.51385E+00-8.93799E-02-8.24810E-01-7.30305E-13 3.80806E-14
 -1      2611 3.16247E+01 6.62256E+00-1.82646E-01 8.00438E-01-7.62335E-13-7.33996E-14
 -1      2612 3.22802E+01 7.36106E+00-1.11576E-01 2.23219E-01-8.38607E-13-9.87283E-14
 -1      2613 2.91578E+01-1.92894E+00-8.03122E-03-1.52868E+00-3.44058E-13-2.41029E-13
 -1      2614 3.05088E+01-3.23250E-01-1.48550E-01-5.23220E-01-3.52322E-13-4.00624E-13
 -1      2615 2.35525E+01-4.86836E+00 2.52802E-02-4.68274E+00 1.12771E-13 1.40471E-13
 -1      2616 2.69825E+01-3.64573E+00-8.87871E-02-3.48737E+00-9.43412E-14 1.15907E-13
 -1      2617 2.78222E+01-3.41910E+00 1.69152E-02-1.73966E+00-7.09016E-14-2.66620E-13
 -1      2618 2.05971E+01 8.88785E-01-5.73139E-03 1.10182E+00 2.83799E-13 3.77603E-13
 -1      2619 2.09181E+01 1.26273E+00-5.50386E-03 1.60903E+00 3.13090E-13 4.28125E-13
 -1      2620 2.07283E+01 1.72334E+00-1.57625E-02 1.79095E+00 3.46716E-13 2.94563E-13
 -1      2621 2.05613E+01 1.08511E+00-9.76672E-03 1.08550E+00 2.99665E-13 1.98391E-13
 -1      2622 2.99541E+01-1.51725E+00-7.18808E-02 1.58391E+00 5.21985E-13-4.06730E-13
 -1      2623 2.75349E+01-3.33069E+00-3.85268E-02 2.48062E+00 3.56049E-13-3.79446E-13
 -1      2624 2.96187E+01-1.35219E+00 3.72358E-04-1.57646E-01 4.28591E-13-5.01293E-13
 -1      2625 3.03826E+01 2.63209E+00-9.10213E-02 1.61784E+00 3.52218E-13 1.93151E-13
 -1      2626 1.98978E+01 2.93652E+00 1.72270E-03-9.39342E-01-1.59925E-13-3.74301E-13
 -1      2627 1.97857E+01 3.24707E+00-1.68448E-02-1.13890E+00-1.70076E-13-3.97952E-13
 -1      2628 1.99107E+01 3.08947E+00-1.81803E-02-1.32352E+00-2.10242E-13-3.79707E-13
 -1      2629 2.02143E+01 4.12423E-01-4.66392E-03 5.79767E-02 1.72687E-13 1.22668E-13
 -1      2630 2.05051E+01 2.13427E+00-1.26115E-02 1.73284E+00 3.61020E-13 1.37543E-13
 -1      2631 2.64189E+01-4.42847E+00 3.74697E-02 2.76559E+00 2.04142E-13-2.96138E-13
 -1      2632 7.37726E+00-2.89356E+00 1.05947E-01 4.71923E+00 7.15261E-14 4.73677E-13
 -1      2633 6.96301E+00-1.65904E+00 1.91341E-01 3.63382E+00 5.01682E-14 4.70457E-13
 -1      2634 1.00853E+01-2.44089E+00 1.06005E-01 5.14316E+00-8.16014E-15 5.85310E-13
 -1      2635 7.97031E+00-1.51042E+00 1.72624E-01-3.86812E+00 1.50074E-13 4.40648E-13
 -1      2636 7.82366E+00-2.92715E+00 1.36147E-01-4.88215E+00 1.83797E-13 6.96665E-13
 -1      2637 1.04954E+01-2.86825E+00 3.99128E-02-5.67636E+00 3.13166E-13 5.77816E-13
 -1      2638 1.46683E+01-4.37947E+00 1.03983E-01 6.39278E+00-1.91236E-14 7.56228E-13
 -1      2639 2.00015E+01 1.35096E-03-2.45015E-05-2.70445E-03-4.56162E-14 6.16027E-13
 -1      2640 2.00024E+01 2.07809E-03 2.62553E-05-1.86044E-03-5.44186E-14 8.50487E-13
 -1      2641 2.23755E+01-5.25189E+00 6.90493E-02-5.07781E+00 2.60097E-13 1.45800E-13
 -1      2642 2.00020E+01 2.49023E-03 4.34891E-05 1.97285E-03-6.05488E-14 3.02753E-13
 -1      2643 2.00027E+01 2.75033E-03-6.68806E-05 1.33785E-03-9.11566E-14 1.01318E-13
 -1      2644 2.00040E+01 6.38482E-03 7.26938E-05-7.38287E-04-2.37714E-13 2.60780E-13
 -1      2645 2.00029E+01 3.92451E-03 1.48349E-04 9.01198E-04-7.78072E-14 3.30609E-13
 -1      2646 3.09210E+01 5.43013E+00-1.23653E-01 1.36722E+00-4.97519E-13-2.02227E-13
 -1      2647 2.88559E+01 5.68065E+00-1.53059E-01 1.36905E+00-5.77677E-13-1.15380E-13
 -1      2648 2.94630E+01 4.19472E+00-9.07633E-02 1.83959E+00-3.25850E-13-3.36203E-13
 -1      2649 4.33839E+00-1.98702E+00 1.38547E-01-1.91451E-01 1.29219E-13 3.75810E-13
 -1      2650 6.16595E+00-9.38295E-01 1.44162E-01-1.31880E+00 1.35357E-13 3.03313E-13
 -1      2651 5.52287E+00-1.15594E+00 1.48456E-01 1.30465E+00 1.75207E-13 5.48200E-13
 -1      2652 2.05181E+01 1.84705E+00 1.22868E-02 1.40250E+00 3.31677E-13 9.45155E-14
 -1      2653 1.50218E+01-4.58725E+00 1.22937E-01 6.54540E+00 2.17715E-13-1.17892E-13
 -1      2654 3.08775E+01 5.15420E+00-6.77960E-02-1.28179E+00-5.32546E-13 2.00021E-13
 -1      2655 2.22654E+01-5.34149E+00 7.21522E-02 5.06745E+00 3.04534E-13 2.58515E-13
 -1      2656 3.02961E+01 7.02745E-01-6.40161E-02 9.84235E-01-3.73868E-13-4.84807E-13
 -1      2657 5.29948E+00-1.65187E+00 1.64850E-01 1.06992E+00 6.19470E-14-7.16260E-13
 -1      2658 2.01831E+01 2.65916E+00-9.32782E-03-1.52136E+00-2.54465E-13-3.08621E-13
 -1      2659 2.77543E+01-3.43498E+00 6.55390E-02-9.73211E-01-4.75921E-14 2.56864E-13
 -1      2660 2.90532E+01-2.38070E+00-6.20715E-02-6.19419E-01 1.33220E-13 1.66228E-13
 -1      2661 2.87400E+01-1.37806E+00-1.19424E-01 9.46962E-01 1.08157E-13 1.99743E-13
 -1      2662 1.03098E+01-3.87531E+00 1.38323E-01-6.09147E+00-3.93630E-13-5.48422E-13
 -1      2663 1.28994E+01-4.13131E+00-2.52192E-02-6.39607E+00-5.34406E-13-4.01845E-13
 -1      2664 9.87918E+00-2.60367E+00 1.74256E-01-5.34447E+00-4.20469E-13-5.36959E-13
 -1      2665 3.12755E+01 3.19207E+00-7.54490E-02-1.41021E+00 4.89969E-13-3.75255E-13
 -1      2666 2.96997E+01 1.62906E+00-3.63878E-02-1.75883E+00 4.58425E-13-4.54053E-13
 -1      2667 2.96430E+01 4.02825E+00-2.31851E-01-1.96896E+00 4.79200E-13-2.76695E-13
 -1      2668 3.11494E+01 6.64924E+00-1.26760E-01-6.91998E-01 6.37684E-13-2.40773E-13
 -1      2669 2.94687E+01 5.85362E+00-1.53049E-01-1.35267E+00 5.91582E-13-3.15969E-13
 -1      2670 2.90656E+01 6.58840E+00-1.23790E-01-3.62626E-01 5.64215E-13-2.24612E-13
 -1      2671 1.88372E+01-5.36486E+00 1.00739E-01-6.25373E+00-4.75675E-13-2.93683E-13
 -1      2672 2.95798E+01 1.41524E+00-2.40507E-01-1.58665E+00-9.75192E-14 3.88883E-13
 -1      2673 3.05053E+01 4.44999E-01-4.65606E-02-5.70097E-01-7.08877E-14 2.93099E-13
 -1      2674 2.90377E+01-1.16540E+00-5.15579E-03-5.77059E-01 1.06512E-13 4.20733E-13
 -1      2675 8.56097E+00-2.82783E+00 1.56133E-01 5.02828E+00 2.72421E-13-4.77340E-13
 -1      2676 2.99769E+01 6.85037E+00-9.44030E-02-1.49609E-01-7.43183E-13 1.11456E-14
 -1      2677 2.00036E+01 5.33721E-03 4.80175E-05-6.94736E-05-8.96933E-14 8.46951E-13
 -1      2678 2.00047E+01 6.22099E-03-1.46084E-04-1.49605E-03-6.53704E-14 3.61841E-13
 -1      2679 1.97194E+01 2.98527E+00-5.90906E-03 4.10381E-01 1.95756E-13-2.85518E-13
 -1      2680 1.96757E+01 3.04451E+00-6.30777E-03 2.85196E-01 1.67957E-13-3.07702E-13
 -1      2681 1.96458E+01 3.09209E+00-5.58609E-03 1.83041E-01 1.34839E-13-3.14271E-13
 -1      2682 1.96305E+01 3.11232E+00-5.71943E-03 5.75988E-02 1.05915E-13-3.07921E-13
 -1      2683 1.97747E+01 2.77429E+00 4.74929E-03 1.94588E-01 1.39996E-13-2.90557E-13
 -1      2684 2.00337E+01 2.46663E+00-9.77931E-03 8.61182E-01 3.11390E-13-1.52807E-13
 -1      2685 1.99363E+01 2.63369E+00-7.38844E-03 7.37620E-01 2.87439E-13-1.78996E-13
 -1      2686 2.02686E+01 2.00335E+00-1.11152E-02 1.03395E+00 3.19317E-13-7.18731E-14
 -1      2687 2.01463E+01 2.26005E+00-5.87672E-03 9.41838E-01 3.08099E-13-1.15507E-13
 -1      2688 2.01891E+01 2.03937E+00 6.75887E-03 7.17152E-01 2.82648E-13-1.22370E-13
 -1      2689 2.03601E+01 8.07864E-01-1.64427E-03 4.20061E-01 2.09005E-13 7.33721E-14
 -1      2690 2.04724E+01 1.01723E+00 9.15447E-03 7.07722E-01 2.42192E-13 7.29810E-14
 -1      2691 1.72873E+01-4.70255E+00-2.58604E-02 6.25052E+00 2.82815E-13 1.53960E-13
 -1      2692 1.39697E+01-3.63625E+00 1.49622E-01 6.14690E+00 3.05506E-13-1.48714E-13
 -1      2693 2.88897E+01-9.37615E-01-1.63409E-01-1.15442E+00 3.99472E-13-3.95239E-13
 -1      2694 2.82828E+01-2.32957E+00-1.11105E-02-3.09043E-01 3.06616E-13-4.28088E-13
 -1      2695 2.02698E+01 5.28463E-01 4.85911E-04 9.49460E-04 1.69316E-13 4.11559E-14
 -1      2696 2.03327E+01 6.50121E-01 1.01596E-02 1.96838E-01 1.75940E-13 6.34728E-14
 -1      2697 2.03699E+01 9.34422E-01-2.45495E-04 3.58627E-01 2.13785E-13-1.66481E-14
 -1      2698 2.89181E+01 1.22525E+00-1.02806E-01 1.91995E+00 2.62623E-13 2.68230E-13
 -1      2699 2.90034E+01 3.48513E+00-1.97621E-01 2.01797E+00 3.74256E-13 2.07681E-13
 -1      2700 2.03465E+01 7.53932E-01 7.25700E-03-1.54579E-01-1.45121E-13-1.79707E-13
 -1      2701 2.02951E+01 6.22360E-01-1.18346E-03 4.09774E-02-1.29606E-13-1.84521E-13
 -1      2702 2.02786E+01 5.27223E-01 5.78520E-03 2.04052E-01-1.08596E-13-1.63027E-13
 -1      2703 2.02595E+01 4.52723E-01 4.29782E-04 3.47655E-01-9.50798E-14-1.60148E-13
 -1      2704 2.03000E+01 7.20223E-01-1.94345E-03 9.87367E-02-1.17857E-13-2.01316E-13
 -1      2705 2.02460E+01 4.00467E-01 3.63237E-03 4.76431E-01-6.71510E-14-1.20532E-13
 -1      2706 2.02594E+01 3.60139E-01 1.60067E-03 5.88200E-01-3.28742E-14-9.03930E-14
 -1      2707 2.02577E+01 5.36834E-01-2.43973E-03 4.04536E-01-6.32426E-14-1.39390E-13
 -1      2708 2.02548E+01 3.31858E-01 1.99375E-03 6.94931E-01-5.44784E-14-7.10371E-14
 -1      2709 2.02965E+01 3.10279E-01 2.32594E-03 7.87864E-01-7.50299E-14-9.70259E-14
 -1      2710 2.02347E+01 4.34534E-01-2.30214E-03 6.51297E-01-4.89879E-14-1.08698E-13
 -1      2711 2.03034E+01 2.93257E-01 9.67385E-04 8.81663E-01-5.77474E-14-1.01824E-13
 -1      2712 2.03698E+01 2.78163E-01 2.69725E-03 9.62861E-01-2.84932E-14-1.25920E-13
 -1      2713 2.02358E+01 3.77223E-01-2.08514E-03 8.60962E-01-7.70448E-14-1.04452E-13
 -1      2714 2.03909E+01 2.61196E-01 5.73704E-04 1.04875E+00-5.53042E-15-9.49485E-14
 -1      2715 2.04802E+01 2.40491E-01 2.73355E-03 1.11991E+00-1.14195E-14-1.01510E-13
 -1      2716 2.02640E+01 3.35810E-01-2.06091E-03 1.04840E+00-1.05887E-14-1.06988E-13
 -1      2717 2.05210E+01 2.11543E-01 9.05429E-04 1.19846E+00-5.04960E-14-6.41411E-14
 -1      2718 2.06337E+01 1.71399E-01 2.38053E-03 1.25570E+00-6.69062E-14-5.31124E-14
 -1      2719 2.03246E+01 2.81694E-01-2.48880E-03 1.22021E+00-2.47682E-14-1.13246E-14
 -1      2720 2.07046E+01 1.16291E-01 2.15648E-03 1.32229E+00-3.68060E-14-3.03446E-14
 -1      2721 2.08442E+01 4.03769E-02 1.48613E-03 1.35548E+00-1.61222E-14-1.53667E-14
 -1      2722 2.04304E+01 1.82563E-01-3.66777E-03 1.37383E+00-2.10985E-14 2.97235E-14
 -1      2723 2.09626E+01-5.69716E-02 4.57475E-03 1.39880E+00-2.20146E-14 5.42390E-14
 -1      2724 2.11352E+01-1.86057E-01-2.72372E-04 1.39055E+00-5.70280E-15 4.94585E-14
 -1      2725 2.06052E+01 6.57180E-04-5.97095E-03 1.49564E+00 6.47003E-15 4.18667E-15
 -1      2726 2.13272E+01-3.40231E-01 8.33565E-03 1.38997E+00-9.66989E-15-2.11750E-15
 -1      2727 2.15400E+01-5.34677E-01-3.37087E-03 1.31526E+00-2.73880E-15-3.65929E-15
 -1      2728 2.08881E+01-3.04095E-01-9.75856E-03 1.55710E+00-2.53027E-14 1.81525E-14
 -1      2729 2.18372E+01-7.49311E-01 1.31680E-02 1.23807E+00 1.93444E-14 1.68290E-15
 -1      2730 2.20918E+01-1.00177E+00-8.12953E-03 1.06621E+00 1.64246E-14 2.93402E-14
 -1      2731 2.13337E+01-7.59134E-01-1.47826E-02 1.50857E+00 2.00495E-14 4.80471E-14
 -1      2732 2.25218E+01-1.25000E+00 1.85539E-02 8.64365E-01 2.91295E-14 6.99700E-14
 -1      2733 2.27994E+01-1.50656E+00-1.50129E-02 5.68797E-01 5.95795E-14 1.21718E-13
 -1      2734 2.20039E+01-1.34961E+00-1.92317E-02 1.27325E+00 5.34416E-14 1.25453E-14
 -1      2735 2.33433E+01-1.69555E+00 1.56629E-02 1.84808E-01 2.86455E-14 1.08339E-13
 -1      2736 2.35972E+01-1.79887E+00-1.71751E-02-2.31664E-01 1.51942E-14 1.07664E-13
 -1      2737 2.29314E+01-1.93659E+00-1.78592E-02 7.34363E-01 5.69483E-14 4.89140E-14
 -1      2738 2.41382E+01-1.76740E+00 6.77772E-04-7.64586E-01-1.13624E-15 1.14419E-13
 -1      2739 2.43040E+01-1.52939E+00-1.26990E-02-1.21384E+00-9.70253E-14 1.33707E-13
 -1      2740 2.39935E+01-2.18761E+00-1.70939E-02-1.71588E-01-1.18272E-14 8.58905E-14
 -1      2741 2.46167E+01-1.02404E+00-3.22003E-02-1.79508E+00-8.83009E-14 1.73909E-13
 -1      2742 2.45877E+01-2.87079E-01-1.10194E-02-2.02663E+00-4.78922E-14 1.68542E-13
 -1      2743 2.49854E+01-1.65167E+00 4.34654E-03-1.36177E+00-3.88075E-14 2.12098E-13
 -1      2744 2.45664E+01 6.32973E-01-6.61876E-02-2.21557E+00-5.02853E-15 2.23175E-13
 -1      2745 2.44269E+01 1.67452E+00 6.44887E-03-1.99779E+00-7.12104E-14 2.89698E-13
 -1      2746 2.53406E+01 1.50742E-01-5.13248E-02-2.23884E+00-1.05610E-14 3.38028E-13
 -1      2747 2.41347E+01 2.56008E+00-8.05973E-02-1.44744E+00-2.03993E-13 2.85919E-13
 -1      2748 2.40502E+01 3.15303E+00-2.89685E-02-7.38577E-01-2.24959E-13 2.20662E-13
 -1      2749 2.51988E+01 2.52286E+00-3.49472E-02-1.94851E+00-1.36439E-13 4.03982E-13
 -1      2750 2.39937E+01 3.29022E+00-4.06762E-02 2.96417E-01-2.66946E-13 8.77863E-14
 -1      2751 2.40702E+01 2.93700E+00-6.39177E-02 1.08914E+00-1.89210E-13-2.31553E-14
 -1      2752 2.48987E+01 3.90584E+00-7.86920E-02-2.60413E-01-3.52274E-13 3.35329E-13
 -1      2753 2.43132E+01 2.17080E+00-7.15898E-03 1.81833E+00-4.16472E-14-1.55572E-13
 -1      2754 2.44539E+01 1.18879E+00-8.11285E-02 2.17897E+00-3.01911E-14-1.24081E-13
 -1      2755 2.50997E+01 3.06244E+00-5.55985E-02 1.62363E+00-2.25486E-13 1.88287E-14
 -1      2756 2.46298E+01 2.07610E-01 5.67491E-03 2.18783E+00-8.03819E-14-2.16194E-13
 -1      2757 2.46890E+01-6.76411E-01-3.94714E-02 2.03290E+00-6.80098E-14-2.56958E-13
 -1      2758 2.54109E+01 8.40214E-01 2.27310E-03 2.38399E+00-1.01280E-13-2.46324E-13
 -1      2759 2.44443E+01-1.26195E+00-7.12874E-03 1.51581E+00-1.34846E-13-3.20395E-13
 -1      2760 2.43318E+01-1.62657E+00-3.96753E-03 1.11914E+00-1.50880E-13-3.93715E-13
 -1      2761 2.51669E+01-1.19538E+00-1.24835E-02 1.75936E+00-1.49977E-13-4.44937E-13
 -1      2762 2.38253E+01-1.78327E+00-2.18058E-02 5.45105E-01-8.84936E-14-2.81148E-13
 -1      2763 2.36028E+01-1.73536E+00 1.45653E-02 1.17043E-01 3.22372E-14-3.03826E-13
 -1      2764 2.42818E+01-2.13058E+00-2.72052E-02 5.60274E-01-8.31253E-14-3.26076E-13
 -1      2765 2.30409E+01-1.58585E+00-1.75754E-02-3.05464E-01 1.65703E-13-2.99429E-13
 -1      2766 2.27727E+01-1.34762E+00 1.85469E-02-6.27332E-01 1.80155E-13-1.92773E-13
 -1      2767 2.32256E+01-2.02415E+00-2.07701E-02-4.53429E-01 9.58785E-14-1.74214E-14
 -1      2768 2.23095E+01-1.10066E+00-1.02673E-02-8.63285E-01 8.82699E-14-1.68589E-13
 -1      2769 2.20550E+01-8.36727E-01 1.50410E-02-1.05662E+00 6.65719E-14-7.00707E-14
 -1      2770 2.22475E+01-1.47118E+00-2.04612E-02-1.06605E+00 1.74198E-13 2.74597E-14
 -1      2771 2.17248E+01-6.06686E-01-4.68612E-03-1.15225E+00 3.26811E-14-1.33107E-13
 -1      2772 2.15099E+01-3.92535E-01 9.92845E-03-1.23945E+00-6.90588E-14-1.11734E-13
 -1      2773 2.15134E+01-8.56287E-01-1.60595E-02-1.35197E+00 1.94922E-14 4.63075E-14
 -1      2774 2.12933E+01-2.20585E-01-1.14227E-03-1.24606E+00-1.00831E-13 2.54821E-14
 -1      2775 2.11201E+01-7.41251E-02 5.68915E-03-1.25880E+00-2.64247E-14 3.87364E-14
 -1      2776 2.10154E+01-3.55796E-01-1.07141E-02-1.42120E+00-7.05505E-14 3.38153E-14
 -1      2777 2.09843E+01 3.66378E-02 8.84949E-04-1.21465E+00 4.45766E-14 8.45516E-14
 -1      2778 2.08456E+01 1.23433E-01 2.71728E-03-1.18101E+00 3.14441E-14 8.86063E-14
 -1      2779 2.06955E+01-1.18885E-02-6.46053E-03-1.36277E+00 2.04382E-14 7.06676E-14
 -1      2780 2.07617E+01 1.84944E-01 1.97001E-03-1.11120E+00-5.02102E-14 7.97101E-14
 -1      2781 2.06496E+01 2.27663E-01 8.74986E-04-1.05239E+00-1.39832E-14-1.69311E-14
 -1      2782 2.04939E+01 1.93865E-01-3.64464E-03-1.23623E+00 1.95163E-14 1.95297E-13
 -1      2783 2.05970E+01 2.54631E-01 2.49681E-03-9.72679E-01 5.98147E-14-5.16343E-14
 -1      2784 2.05052E+01 2.68215E-01-1.53349E-04-9.03346E-01 1.05362E-14-2.52855E-14
 -1      2785 2.03654E+01 2.97047E-01-1.98383E-03-1.07900E+00 3.32523E-15 7.39070E-14
 -1      2786 2.04709E+01 2.73270E-01 2.67640E-03-8.23327E-01-6.44051E-14-2.28926E-14
 -1      2787 2.03951E+01 2.69368E-01-6.53351E-04-7.52888E-01-4.91316E-14-6.11468E-14
 -1      2788 2.02802E+01 3.31924E-01-1.08953E-03-9.14140E-01-6.75922E-14 9.70516E-14
 -1      2789 2.03713E+01 2.61842E-01 2.63316E-03-6.78097E-01 1.44981E-14 4.03509E-14
 -1      2790 2.03088E+01 2.48603E-01-8.36707E-04-6.12107E-01-1.68225E-15 1.91549E-13
 -1      2791 2.02201E+01 3.25346E-01-6.49613E-04-7.55500E-01 8.00356E-15-4.29476E-15
 -1      2792 2.02913E+01 2.34793E-01 2.45114E-03-5.45425E-01-1.40418E-14 2.25716E-13
 -1      2793 2.02399E+01 2.17506E-01-8.44449E-04-4.86759E-01 2.81379E-14 2.83049E-13
 -1      2794 2.01751E+01 2.96252E-01-4.52904E-04-6.10857E-01-1.44211E-14 2.13659E-13
 -1      2795 2.02263E+01 2.01377E-01 2.19064E-03-4.29338E-01-1.38390E-15 1.32584E-13
 -1      2796 2.01847E+01 1.83253E-01-7.65004E-04-3.79114E-01 1.31517E-13 7.42897E-14
 -1      2797 2.01397E+01 2.57052E-01-3.71955E-04-4.83972E-01-1.02690E-13 7.97376E-14
 -1      2798 2.01737E+01 1.67142E-01 1.89532E-03-3.31017E-01 1.12827E-13-7.92565E-14
 -1      2799 2.01404E+01 1.49989E-01-6.50213E-04-2.89262E-01-3.82364E-14-1.66258E-13
 -1      2800 2.01110E+01 2.15374E-01-3.37825E-04-3.75967E-01-2.92674E-14-2.28996E-13
 -1      2801 2.01315E+01 1.35154E-01 1.59584E-03-2.49902E-01 1.49816E-14-2.61519E-13
 -1      2802 2.01052E+01 1.19873E-01-5.28979E-04-2.16016E-01 1.42686E-13-1.92740E-13
 -1      2803 2.00874E+01 1.75576E-01-3.16734E-04-2.86300E-01 2.98442E-14-3.59031E-13
 -1      2804 2.00979E+01 1.06895E-01 1.31218E-03-1.84462E-01 1.14296E-13-1.43362E-13
 -1      2805 2.00775E+01 9.38275E-02-4.16257E-04-1.57539E-01 7.48955E-15-1.44093E-13
 -1      2806 2.00680E+01 1.39888E-01-2.94715E-04-2.13453E-01 6.75205E-14-3.64359E-13
 -1      2807 2.00716E+01 8.28739E-02 1.05600E-03-1.32718E-01 2.75452E-14-1.06358E-13
 -1      2808 2.00561E+01 7.20330E-02-3.18770E-04-1.11739E-01 7.26527E-15-1.32125E-13
 -1      2809 2.00522E+01 1.09208E-01-2.67782E-04-1.55424E-01 1.15917E-14-4.15105E-13
 -1      2810 2.00514E+01 6.30345E-02 8.32816E-04-9.25701E-02-1.15801E-13-7.63599E-14
 -1      2811 2.00398E+01 5.42487E-02-2.38851E-04-7.65317E-02-1.20433E-13-1.39071E-13
 -1      2812 2.00395E+01 8.36343E-02-2.36133E-04-1.10049E-01-5.32575E-14-6.05364E-13
 -1      2813 2.00360E+01 4.70076E-02 6.43900E-04-6.20059E-02 4.50574E-14-9.39040E-14
 -1      2814 2.00276E+01 4.00100E-02-1.76738E-04-4.99909E-02 3.26355E-13-9.43993E-14
 -1      2815 2.00293E+01 6.28172E-02-2.02188E-04-7.52210E-02 7.68931E-14-1.37904E-13
 -1      2816 2.00246E+01 3.42630E-02 4.88640E-04-3.92174E-02 4.50383E-13 7.12598E-14
 -1      2817 2.00186E+01 2.87483E-02-1.29949E-04-3.04349E-02 2.76230E-13 3.02682E-13
 -1      2818 2.00213E+01 4.61635E-02-1.67948E-04-4.90152E-02 4.21467E-13-6.19816E-16
 -1      2819 2.00162E+01 2.42194E-02 3.67684E-04-2.26568E-02 9.91135E-14 3.16884E-13
 -1      2820 2.00120E+01 1.98494E-02-9.18792E-05-1.64425E-02 5.36680E-14 2.82961E-13
 -1      2821 2.00150E+01 3.29849E-02-1.31844E-04-2.97658E-02 2.31607E-13 1.86157E-13
 -1      2822 2.00102E+01 1.61626E-02 2.54599E-04-1.10865E-02 5.00237E-14 3.61897E-13
 -1      2823 2.00074E+01 1.27739E-02-2.29994E-05-6.98008E-03 1.01166E-13 3.11593E-13
 -1      2824 2.00101E+01 2.24052E-02-1.38634E-04-1.60518E-02 6.32877E-14 4.08718E-13
 -1      2825 2.08830E+01-5.15932E+00 1.10955E-01-5.30633E+00 3.87385E-13 1.55029E-13
 -1      2826 2.40337E+01-5.21223E+00-1.05043E-01-3.93667E+00 2.87534E-13 1.33983E-13
 -1      2827 2.02441E+01 2.98356E-01 2.55077E-03-5.43209E-01 1.14283E-13-1.43088E-16
 -1      2828 2.02188E+01 3.32225E-01 4.57909E-03-4.35791E-01 1.30581E-13 1.27292E-14
 -1      2829 2.05790E+01 2.22298E-01 3.37844E-03-1.06918E+00 1.75260E-14 5.06868E-14
 -1      2830 2.04631E+01 2.32434E-01 5.78470E-04-9.96870E-01 1.90006E-14 4.64722E-15
 -1      2831 2.07775E+01 1.82161E-01 2.84017E-03-1.21101E+00 6.56740E-14 8.17419E-14
 -1      2832 2.06379E+01 2.06023E-01 5.92406E-04-1.14923E+00 4.05310E-14 7.08139E-14
 -1      2833 2.04397E+01 2.72243E-01-2.38856E-03-1.18980E+00 9.46994E-15-1.85663E-14
 -1      2834 2.10257E+01 9.43278E-02 1.62248E-03-1.32223E+00 1.04356E-13 8.74334E-14
 -1      2835 2.08626E+01 1.46365E-01 1.41970E-03-1.28077E+00 9.75967E-14 7.94865E-14
 -1      2836 2.05811E+01 2.08668E-01-3.10472E-03-1.34802E+00 9.29678E-14 2.30742E-14
 -1      2837 2.13382E+01-7.28874E-02-5.70547E-04-1.37396E+00-1.65422E-15 1.35392E-13
 -1      2838 2.11503E+01 2.42692E-02 3.30679E-03-1.37035E+00 5.65471E-14 1.29550E-13
 -1      2839 2.07808E+01 7.74303E-02-4.76874E-03-1.47601E+00 5.15779E-14 7.50727E-14
 -1      2840 2.17375E+01-3.50263E-01-4.05623E-03-1.31976E+00-1.91473E-14 1.77343E-13
 -1      2841 2.15232E+01-1.92768E-01 6.50366E-03-1.37986E+00-1.14672E-14 1.81149E-13
 -1      2842 2.10686E+01-1.61238E-01-7.69856E-03-1.54432E+00-3.83283E-14 1.33479E-13
 -1      2843 2.22488E+01-7.48753E-01-9.11163E-03-1.09539E+00-5.90975E-14 1.69212E-13
 -1      2844 2.20105E+01-5.29197E-01 1.09690E-02-1.25119E+00-1.30916E-14 1.85487E-13
 -1      2845 2.14892E+01-5.42111E-01-1.18362E-02-1.50321E+00-2.85942E-15 1.54893E-13
 -1      2846 2.28822E+01-1.21467E+00-1.43926E-02-6.27021E-01-1.05101E-13 1.71578E-13
 -1      2847 2.26350E+01-9.72400E-01 1.56926E-02-9.07245E-01-1.03728E-13 1.77521E-13
 -1      2848 2.20954E+01-1.06707E+00-1.62712E-02-1.27840E+00-6.66821E-14 1.91212E-13
 -1      2849 2.35942E+01-1.58815E+00-2.04148E-02 1.27080E-01 1.68815E-14 2.00531E-13
 -1      2850 2.33778E+01-1.41982E+00 1.77248E-02-2.77592E-01-7.40894E-14 1.99124E-13
 -1      2851 2.29209E+01-1.64565E+00-1.77240E-02-7.74774E-01-1.08668E-13 1.97679E-13
 -1      2852 2.42318E+01-1.49380E+00-1.57823E-02 1.13085E+00 6.70555E-14 4.24456E-13
 -1      2853 2.41185E+01-1.62876E+00 4.99961E-03 6.69541E-01 2.54198E-14 3.22377E-13
 -1      2854 2.39294E+01-2.02283E+00-1.10052E-02 9.46047E-02-3.63716E-14 3.30785E-13
 -1      2855 2.45506E+01-5.98251E-01-1.92248E-03 1.99048E+00 9.56492E-14 4.82332E-13
 -1      2856 2.45671E+01-1.16853E+00-2.58492E-02 1.67941E+00 1.30753E-13 5.23306E-13
 -1      2857 2.48208E+01-1.67589E+00-3.36933E-03 1.23699E+00 3.60371E-14 4.99880E-13
 -1      2858 2.43805E+01 1.09923E+00 9.10709E-03 2.14352E+00-3.09648E-14 3.68880E-13
 -1      2859 2.45225E+01 1.72302E-01-6.25240E-02 2.26562E+00 3.64214E-14 4.21618E-13
 -1      2860 2.52850E+01-3.39184E-01-5.79392E-03 2.19095E+00 8.41306E-14 5.66179E-13
 -1      2861 2.39888E+01 2.62928E+00-8.05839E-03 1.08981E+00 5.14588E-14 2.91209E-13
 -1      2862 2.40904E+01 1.94054E+00-7.98604E-02 1.71170E+00-8.29718E-14 2.92434E-13
 -1      2863 2.51155E+01 1.90190E+00-2.93234E-02 2.15137E+00-2.29955E-14 4.40148E-13
 -1      2864 2.38935E+01 2.78095E+00-5.19563E-02-7.23025E-01 2.56916E-13 2.21470E-13
 -1      2865 2.38408E+01 2.91730E+00-4.65092E-02 8.51772E-02 2.41123E-13 2.89397E-13
 -1      2866 2.48185E+01 3.50192E+00-4.27599E-02 6.95678E-01 1.24303E-13 2.72118E-13
 -1      2867 2.42560E+01 1.39249E+00-7.93718E-02-2.07734E+00 4.07788E-13 9.87318E-14
 -1      2868 2.40920E+01 2.23062E+00-9.30428E-03-1.59827E+00 3.18766E-13 1.66039E-13
 -1      2869 2.48776E+01 3.07901E+00-4.14442E-02-1.30405E+00 3.24865E-13 1.74569E-13
 -1      2870 2.46185E+01-3.45641E-01-5.14578E-02-2.21664E+00 2.69318E-13-3.95500E-14
 -1      2871 2.45028E+01 5.12717E-01 8.01628E-03-2.25241E+00 3.93241E-13 3.87030E-14
 -1      2872 2.52315E+01 1.10838E+00-1.07767E-02-2.38075E+00 4.17003E-13 9.20444E-15
 -1      2873 2.44966E+01-1.39009E+00-1.29145E-02-1.42063E+00 5.36123E-14-2.90772E-13
 -1      2874 2.45289E+01-9.73264E-01-1.88349E-03-1.79666E+00 1.25814E-13-1.74972E-13
 -1      2875 2.52245E+01-8.76199E-01 2.99074E-03-2.04757E+00 3.26376E-13-8.73884E-14
 -1      2876 2.39297E+01-1.58356E+00 9.18216E-03-3.99946E-01-5.75386E-14-2.72123E-13
 -1      2877 2.40813E+01-1.57681E+00-1.87447E-02-8.49254E-01 1.71287E-14-3.05937E-13
 -1      2878 2.45783E+01-1.86643E+00-8.31439E-03-9.32377E-01 6.12615E-14-2.49394E-13
 -1      2879 2.31888E+01-1.26229E+00 1.65464E-02 4.32556E-01-4.49425E-14-1.41040E-13
 -1      2880 2.34090E+01-1.46980E+00-2.02994E-02 7.09183E-02-6.90719E-14-1.90242E-13
 -1      2881 2.36198E+01-1.90729E+00-1.49721E-02 1.49479E-01-1.21941E-13-2.20603E-13
 -1      2882 2.24920E+01-7.90223E-01 1.40857E-02 9.50849E-01 2.45584E-14-9.08188E-14
 -1      2883 2.27276E+01-1.03763E+00-1.43005E-02 7.21486E-01 5.78756E-14-1.00592E-13
 -1      2884 2.26746E+01-1.43127E+00-1.86579E-02 8.82725E-01-2.71100E-14 7.35675E-15
 -1      2885 2.19292E+01-3.71274E-01 9.64157E-03 1.19618E+00-1.12482E-13 1.24230E-13
 -1      2886 2.21478E+01-5.74520E-01-7.85429E-03 1.08476E+00-1.29905E-13-8.61243E-14
 -1      2887 2.19260E+01-8.43776E-01-1.52729E-02 1.26865E+00-8.50103E-14-4.29553E-14
 -1      2888 2.15001E+01-7.20907E-02 5.57829E-03 1.25134E+00 1.19138E-13 1.19964E-13
 -1      2889 2.16918E+01-2.10109E-01-3.07885E-03 1.22563E+00 4.74299E-14 2.13140E-13
 -1      2890 2.13932E+01-3.56863E-01-1.04914E-02 1.40358E+00-8.93965E-14 2.02909E-13
 -1      2891 2.11763E+01 1.10495E-01 2.74518E-03 1.18978E+00 1.71626E-13 1.59845E-13
 -1      2892 2.13413E+01 3.03255E-02 2.56968E-05 1.21822E+00 1.99798E-13 1.54090E-13
 -1      2893 2.10298E+01-2.23883E-02-6.47300E-03 1.38078E+00 8.78667E-14 1.97254E-13
 -1      2894 2.09280E+01 2.04021E-01 1.01376E-03 1.06584E+00 1.37023E-13 1.12361E-13
 -1      2895 2.10692E+01 1.65964E-01 1.87531E-03 1.12373E+00 1.57964E-13 1.34691E-13
 -1      2896 2.07820E+01 1.74893E-01-3.76388E-03 1.26911E+00 1.86687E-13 8.54263E-14
 -1      2897 2.07330E+01 2.38206E-01 7.17664E-05 9.15846E-01-5.77910E-14 2.78539E-14
 -1      2898 2.08532E+01 2.27269E-01 2.84265E-03 9.86061E-01 1.34425E-13 8.66584E-14
 -1      2899 2.06076E+01 2.71230E-01-2.18641E-03 1.11463E+00 1.69137E-13 7.89024E-14
 -1      2900 2.05767E+01 2.36842E-01-3.71078E-04 7.62385E-01-3.27135E-14 9.80006E-14
 -1      2901 2.06780E+01 2.41622E-01 3.22273E-03 8.34119E-01-1.33666E-13 2.24766E-14
 -1      2902 2.04789E+01 3.01767E-01-1.36265E-03 9.46490E-01-3.07318E-14-1.85675E-14
 -1      2903 2.04500E+01 2.16516E-01-5.27478E-04 6.18397E-01 7.07631E-14 1.96260E-13
 -1      2904 2.05345E+01 2.29296E-01 3.22909E-03 6.85461E-01-1.06997E-14 1.24592E-13
 -1      2905 2.03794E+01 2.93582E-01-9.66728E-04 7.82258E-01-7.38307E-14-5.79120E-14
 -1      2906 2.03471E+01 1.87828E-01-5.34544E-04 4.90420E-01 1.87880E-13 6.17356E-14
 -1      2907 2.04165E+01 2.03785E-01 3.01250E-03 5.49741E-01 1.98215E-13 1.81172E-13
 -1      2908 2.02998E+01 2.65220E-01-7.83221E-04 6.31740E-01 1.64187E-13 1.10668E-13
 -1      2909 2.02641E+01 1.57093E-01-4.73317E-04 3.80919E-01 2.44382E-13 5.55500E-15
 -1      2910 2.03202E+01 1.73415E-01 2.67813E-03 4.31402E-01 2.30832E-13 5.69931E-14
 -1      2911 2.02351E+01 2.28421E-01-6.90731E-04 4.99643E-01 2.51874E-13-3.17236E-14
 -1      2912 2.01978E+01 1.27790E-01-3.88478E-04 2.89905E-01 1.12387E-13-1.13044E-13
 -1      2913 2.02423E+01 1.42974E-01 2.29728E-03 3.31626E-01 1.80827E-13 6.71495E-14
 -1      2914 2.01823E+01 1.90128E-01-6.28322E-04 3.87406E-01 1.67384E-13-3.39337E-14
 -1      2915 2.01456E+01 1.01620E-01-3.02853E-04 2.16025E-01-1.08917E-13 6.91372E-14
 -1      2916 2.01803E+01 1.14973E-01 1.91540E-03 2.49696E-01-5.54261E-14-3.04516E-14
 -1      2917 2.01394E+01 1.54126E-01-5.70008E-04 2.94482E-01-1.90011E-14 2.61611E-14
 -1      2918 2.01051E+01 7.92261E-02-2.26803E-04 1.57268E-01-2.62430E-13 4.71963E-14
 -1      2919 2.01316E+01 9.05274E-02 1.55923E-03 1.83890E-01-1.01732E-13 1.53642E-13
 -1      2920 2.01050E+01 1.22230E-01-5.07864E-04 2.19217E-01-2.15457E-13 2.35082E-13
 -1      2921 2.00742E+01 6.06428E-02-1.64075E-04 1.11400E-01-2.08905E-13 2.20178E-13
 -1      2922 2.00941E+01 6.99418E-02 1.24258E-03 1.32059E-01-3.50203E-13 2.53136E-14
 -1      2923 2.00777E+01 9.50711E-02-4.41963E-04 1.59430E-01-2.81105E-13 2.88114E-13
 -1      2924 2.00511E+01 4.55815E-02-1.15130E-04 7.62326E-02 7.78644E-14 2.48916E-13
 -1      2925 2.00657E+01 5.30664E-02 9.70744E-04 9.19737E-02 1.90984E-14 2.64639E-13
 -1      2926 2.00564E+01 7.26083E-02-3.75073E-04 1.12795E-01-1.62107E-13 4.01381E-13
 -1      2927 2.00342E+01 3.35948E-02-7.93812E-05 4.97664E-02-1.52648E-14 2.58356E-13
 -1      2928 2.00447E+01 3.95189E-02 7.43953E-04 6.15324E-02 1.06286E-13 2.36769E-13
 -1      2929 2.00401E+01 5.44414E-02-3.10125E-04 7.70664E-02 1.16194E-13 4.10559E-13
 -1      2930 2.00221E+01 2.41700E-02-5.63344E-05 3.02697E-02 1.06769E-14 2.34150E-13
 -1      2931 2.00294E+01 2.88102E-02 5.58920E-04 3.88661E-02-1.64762E-13 7.60341E-14
 -1      2932 2.00279E+01 3.99945E-02-2.49748E-04 5.02088E-02 2.04302E-14 1.51455E-13
 -1      2933 2.00137E+01 1.67927E-02-3.49249E-05 1.63152E-02 2.94993E-13 5.81048E-13
 -1      2934 2.00186E+01 2.04153E-02 4.10704E-04 2.23936E-02 2.55241E-13 4.55359E-13
 -1      2935 2.00188E+01 2.86280E-02-1.93450E-04 3.04705E-02 1.98774E-14 7.72922E-14
 -1      2936 2.00082E+01 1.09977E-02 3.99537E-05 6.81800E-03 1.68985E-13 6.23902E-13
 -1      2937 2.00112E+01 1.37454E-02 2.82337E-04 1.08050E-02 2.20544E-13 6.99722E-13
 -1      2938 2.00122E+01 1.97138E-02-1.40992E-04 1.63995E-02 1.97376E-13 4.46559E-13
 -1      2939 2.00048E+01 7.15246E-03 3.62889E-05 1.70913E-03-5.54239E-14 8.72726E-13
 -1      2940 2.00066E+01 9.54998E-03 1.72386E-04 4.20921E-03 5.09085E-14 6.27749E-13
 -1      2941 2.00078E+01 1.35902E-02-1.82293E-04 7.94905E-03 1.38855E-13 5.51499E-13
 -1      2942 2.00051E+01 9.39062E-03-1.27295E-04 3.32889E-03-1.13317E-13 6.16652E-13
 -1      2943 1.99954E+01 3.14051E-02-8.97639E-05 1.06089E-03 7.33860E-14-7.88444E-14
 -1      2944 1.99958E+01 3.10071E-02-3.77529E-05 2.52690E-03 9.13778E-14-3.63346E-13
 -1      2945 2.00064E+01 1.05884E-02 1.70489E-04-4.48393E-03 6.48030E-14 3.13017E-13
 -1      2946 2.00050E+01 8.51814E-03 1.23792E-05-2.63127E-03-3.59120E-14 3.28774E-13
 -1      2947 2.00069E+01 1.49453E-02-1.43798E-04-7.90501E-03 6.95375E-14 3.06401E-13
 -1      2948 1.99988E+01 2.57611E-02-1.47739E-04 6.61885E-03 1.13603E-13 1.02588E-13
 -1      2949 2.00003E+01 2.40284E-02 6.16164E-05 6.99505E-03 1.13419E-13 2.71777E-13
 -1      2950 1.99958E+01 3.09804E-02-3.84340E-05-2.51685E-03 9.87421E-14-2.54261E-13
 -1      2951 1.99954E+01 3.13935E-02-8.91610E-05-1.05304E-03 1.00878E-13-2.10193E-13
 -1      2952 1.99943E+01 3.97080E-02 1.87597E-04-4.06111E-06 1.54861E-13-2.56913E-13
 -1      2953 1.99965E+01 2.95768E-02-1.29415E-04 4.38859E-03-1.33030E-13-5.21430E-13
 -1      2954 1.99976E+01 2.84302E-02 1.70217E-05 5.45992E-03 3.86232E-14-1.52623E-13
 -1      2955 1.99977E+01 3.44098E-02 1.44118E-04 7.87326E-03-2.66485E-14-1.80278E-13
 -1      2956 1.99952E+01 3.83494E-02 1.77644E-04 4.44041E-03 4.76611E-14-3.67882E-13
 -1      2957 1.71807E+01-4.32463E+00 3.28091E-02 6.03386E+00-1.83215E-13 4.87152E-13
 -1      2958 1.39281E+01-3.26554E+00 1.32755E-01 5.84741E+00-1.10009E-13 6.34853E-13
 -1      2959 1.99976E+01 2.84384E-02 1.62556E-05-5.40453E-03 1.26266E-13-2.54788E-13
 -1      2960 1.99965E+01 2.95614E-02-1.29102E-04-4.34675E-03 3.27014E-14-2.05398E-13
 -1      2961 1.99952E+01 3.83297E-02 1.79126E-04-4.41139E-03 5.92342E-14-2.88726E-13
 -1      2962 2.00003E+01 2.40300E-02 5.40560E-05-6.95976E-03 2.23374E-13-4.23316E-13
 -1      2963 1.99988E+01 2.57745E-02-1.48127E-04-6.57352E-03 2.60291E-13-3.88504E-13
 -1      2964 1.99976E+01 3.44099E-02 1.43315E-04-7.81875E-03 4.19063E-14-2.37765E-13
 -1      2965 2.00030E+01 1.82913E-02 1.08510E-05-6.67282E-03-8.13342E-14-3.81664E-13
 -1      2966 2.00017E+01 2.05199E-02-1.33794E-04-7.17746E-03 1.52947E-13-2.78749E-13
 -1      2967 2.00010E+01 2.84895E-02 9.96998E-05-9.46254E-03 1.37495E-13-4.37804E-13
 -1      2968 2.02290E+01 3.77126E-01 1.65049E-03-3.06878E-01 1.47327E-13 3.39293E-15
 -1      2969 2.02457E+01 4.43352E-01 7.33581E-03-1.66898E-01 1.49695E-13 3.88507E-14
 -1      2970 2.02990E+01 6.30919E-01-2.64194E-03-5.33989E-02 1.64104E-13-2.78374E-14
 -1      2971 2.02553E+01 4.61030E-01-3.32812E-03-3.68178E-01 1.43091E-13-5.73469E-14
 -1      2972 2.70517E+01-4.01009E+00-1.20930E-01 1.35168E+00 2.51549E-13-4.99475E-13
 -1      2973 2.50541E+01-4.82761E+00 4.21443E-02 2.91321E+00 1.21500E-13-3.05825E-13
 -1      2974 1.43940E+01-3.73904E+00 1.73797E-01-6.17465E+00 3.97932E-13 2.03282E-13
 -1      2975 1.73996E+01-4.70291E+00-9.11835E-03-6.29131E+00 4.02317E-13 1.34268E-13
 -1      2976 2.75259E+01-3.20006E+00-1.13471E-01 5.41478E-01 1.51834E-13 3.98070E-13
 -1      2977 2.61741E+01-4.31386E+00 6.05571E-02 1.98574E+00 2.42167E-13 3.70926E-13
 -1      2978 2.03958E+01 1.77572E+00-9.55969E-03-1.14859E+00-2.47304E-13-2.47509E-13
 -1      2979 2.03823E+01 1.40694E+00-5.38140E-03-8.34170E-01-2.29682E-13-2.22328E-13
 -1      2980 6.82150E+00-9.68581E-01 1.60365E-01-2.05222E+00-1.68032E-13-7.47541E-13
 -1      2981 8.02989E+00-1.50584E+00 1.27907E-01-3.74149E+00-2.66828E-13-7.06074E-13
 -1      2982 2.88472E+01 5.16871E+00-2.14569E-01-1.57704E+00-5.17059E-13 2.91815E-13
 -1      2983 2.97375E+01 3.71897E+00-7.27649E-02-1.92968E+00-3.17302E-13 3.53190E-13
 -1      2984 2.04238E+01 2.41206E-01 3.44303E-03-9.10944E-01 3.49924E-14 2.21259E-16
 -1      2985 2.03335E+01 2.49183E-01 1.23401E-03-8.31301E-01 6.30827E-14 3.34890E-15
 -1      2986 2.03404E+01 3.02603E-01-2.29013E-03-1.01548E+00 1.01279E-14-1.79316E-14
 -1      2987 2.03110E+01 2.60231E-01 3.15359E-03-7.38408E-01 1.06574E-13-1.15996E-15
 -1      2988 2.02502E+01 2.75949E-01 2.53712E-03-6.48924E-01 1.22607E-13 3.07214E-14
 -1      2989 2.02766E+01 3.27747E-01-2.56898E-03-8.27267E-01 9.49960E-14-2.47544E-14
 -1      2990 2.04181E+01 1.12954E+00 4.72633E-03-6.09019E-01-2.01926E-13-1.99770E-13
 -1      2991 2.03487E+01 9.10882E-01-3.45009E-03-3.40762E-01-1.72218E-13-1.87792E-13
 -1      2992 2.03435E+01 1.02697E+00 1.19164E-03-2.69101E-01-1.66382E-13-2.23101E-13
 -1      2993 2.03456E+01 1.49808E+00 1.41009E-03-6.91315E-01-2.13168E-13-2.68616E-13
 -1      2994 2.40114E+01-5.07766E+00 1.07508E-01-3.83737E+00-4.02151E-13-4.53804E-15
 -1      2995 2.56364E+01-4.83044E+00-9.85166E-02-2.74214E+00-2.00881E-13 1.95975E-13
 -1      2996 2.26654E+01-5.25138E+00-5.45446E-02 4.46239E+00-8.69443E-14-8.64916E-14
 -1      2997 2.03235E+01-4.88812E+00 9.96430E-02 5.24157E+00-1.75956E-13 1.72785E-13
 -1      2998 1.98499E+01 2.78244E+00-7.18685E-03 6.40665E-01 2.69190E-13-2.07717E-13
 -1      2999 1.97777E+01 2.88933E+00-6.99762E-03 5.12002E-01 2.28522E-13-2.46783E-13
 -1      3000 1.98647E+01 2.63432E+00 5.25937E-03 3.82931E-01 2.00236E-13-2.40604E-13
 -1      3001 2.00076E+01 2.39456E+00 6.26302E-03 5.63546E-01 2.42738E-13-1.75080E-13
 -1      3002 1.72866E+01-4.67283E+00 1.73710E-01-6.20213E+00-5.35488E-13-3.50671E-13
 -1      3003 2.07498E+01-5.26957E+00-6.25525E-02-5.43262E+00-4.83114E-13-1.51355E-13
 -1      3004 1.97724E+01 2.89708E+00-6.88315E-03-5.01892E-01-6.42266E-14-3.43573E-13
 -1      3005 1.98440E+01 2.79259E+00-6.84339E-03-6.30756E-01-1.05912E-13-3.50476E-13
 -1      3006 2.85935E+01 5.05641E+00-1.25169E-01 1.69769E+00 3.59213E-13 1.21542E-13
 -1      3007 2.82984E+01 5.79659E+00-2.20508E-01 7.90454E-01 4.01013E-13 3.22659E-15
 -1      3008 2.01329E+01 2.59847E+00-2.57280E-03-1.28630E+00-2.29545E-13-3.27578E-13
 -1      3009 2.35298E+01-5.23037E+00-1.10917E-01 3.97262E+00 2.95888E-13 3.49675E-13
 -1      3010 2.08978E+01-4.99091E+00 1.41064E-01 5.20158E+00 2.54144E-13 3.11724E-13
 -1      3011 2.79544E+01 6.16304E+00-1.89533E-01 2.72830E-01-6.81982E-13 2.40571E-14
 -1      3012 2.82351E+01 6.08212E+00-1.56792E-01-7.53351E-01-6.28886E-13 1.40606E-13
 -1      3013 2.88496E+01-5.63582E-01-8.15801E-03 1.20939E+00-2.91434E-13-4.29434E-13
 -1      3014 2.93000E+01 1.55526E+00-2.02675E-01 1.79484E+00-3.40283E-13-3.08337E-13
 -1      3015 2.00048E+01 1.00529E-02-2.38405E-05-3.41998E-03-2.48911E-13 5.91690E-14
 -1      3016 1.09938E+01-2.55067E+00 6.91545E-02 5.56439E+00 2.75335E-13-3.57131E-13
 -1      3017 8.70274E+00-1.52605E+00 1.70689E-01 4.02365E+00 2.63727E-13-4.79505E-13
 -1      3018 6.89784E+00-9.46762E-01 1.17163E-01 2.25708E+00 1.38251E-13-4.96686E-13
 -1      3019 6.44908E+00-6.91624E-01 1.48650E-01-1.20915E-01-1.04534E-14-6.05432E-13
 -1      3020 2.65349E+01-4.19293E+00 5.28686E-02-1.90030E+00 1.50206E-13-3.20632E-13
 -1      3021 2.76767E+01-3.12940E+00-2.02198E-01-4.79619E-01-1.37876E-13-5.76553E-13
 -1      3022 2.04347E+01 1.55290E+00-1.13590E-03 1.09133E+00 3.01887E-13 5.30583E-14
 -1      3023 1.99287E+01 2.64909E+00-6.49341E-03-7.29880E-01-1.28163E-13-3.47548E-13
 -1      3024 2.00227E+01 2.50162E+00-5.80373E-03-8.51626E-01-1.69665E-13-3.40514E-13
 -1      3025 2.00004E+01 2.40707E+00 6.49412E-03-5.58079E-01-1.15956E-13-3.14618E-13
 -1      3026 2.78219E+01-1.75856E+00 1.00730E-02 9.23993E-01-9.97882E-14-3.64278E-13
 -1      3027 1.97437E+01 2.82105E+00 4.59662E-03 5.03199E-03 7.91676E-14-2.80650E-13
 -1      3028 1.96298E+01 3.11290E+00-5.80454E-03-4.42568E-02 6.94181E-14-3.09444E-13
 -1      3029 1.96441E+01 3.09485E+00-5.46155E-03-1.69826E-01 3.01530E-14-3.17484E-13
 -1      3030 2.75551E+01 3.60343E+00-7.93694E-02 2.02044E+00 2.28775E-13 1.77511E-13
 -1      3031 1.38010E+01-2.58161E+00 1.39124E-01 5.37804E+00 3.22228E-13-1.71627E-13
 -1      3032 2.71064E+01-3.26721E+00-3.00554E-02 1.48748E-01 2.43430E-13-3.79627E-13
 -1      3033 2.85198E+01-3.80698E-01-1.17083E-01 1.72873E+00 1.93658E-13 2.46442E-13
 -1      3034 2.75948E+01 8.02535E-01-7.45988E-02 2.31259E+00 1.96065E-13 3.83776E-13
 -1      3035 2.77616E+01-1.43617E+00 1.05886E-02 1.28423E+00 6.31578E-14 2.29358E-13
 -1      3036 1.28564E+01-2.57582E+00 1.25619E-01 5.53194E+00-1.37390E-13 6.85452E-13
 -1      3037 1.18009E+01-1.59256E+00 1.45335E-01 4.72552E+00-1.74985E-13 5.42677E-13
 -1      3038 1.53072E+01-2.58959E+00 6.87143E-02 5.15592E+00-2.48440E-13 5.67747E-13
 -1      3039 2.51064E+01-4.54022E+00 3.55745E-02-2.55664E+00 2.85660E-13-2.34687E-13
 -1      3040 2.22027E+01-4.87255E+00 5.17856E-02-4.34964E+00-4.26506E-13-8.28860E-14
 -1      3041 7.58443E+00-8.27454E-01 2.03982E-01-2.63785E+00 1.01266E-13 1.73972E-13
 -1      3042 9.46517E+00-1.01031E+00 1.11654E-01-3.50370E+00 2.48170E-13 3.70481E-13
 -1      3043 7.76524E+00-3.11035E-01 1.36789E-01-1.34844E+00 1.71085E-13 4.02289E-13
 -1      3044 2.00011E+01 2.84449E-02 8.01439E-05 9.50870E-03 4.97777E-14 2.80819E-13
 -1      3045 2.00017E+01 2.05380E-02-1.37129E-04 7.16386E-03 1.47304E-13 3.06901E-13
 -1      3046 2.00031E+01 1.84391E-02 7.75465E-05 6.72759E-03-3.32974E-14 1.71400E-13
 -1      3047 1.99355E+01-4.55351E+00 8.79913E-02-5.16926E+00 3.93865E-13 1.50473E-13
 -1      3048 2.42211E+01-4.66092E+00 5.28238E-02 2.94596E+00-2.65066E-15-2.25042E-13
 -1      3049 2.02475E+01 3.71965E-01-3.04517E-03-6.17285E-01 1.16445E-13-4.18175E-14
 -1      3050 2.73918E+01 4.89757E+00-1.23166E-01-1.23842E+00-4.16445E-13 2.55660E-13
 -1      3051 9.56817E+00-6.66784E-01 1.73504E-01 2.89708E+00 1.64535E-13-4.15196E-13
 -1      3052 1.93276E+01-4.15676E+00 7.77639E-02 5.08995E+00-2.27290E-13 2.01242E-13
 -1      3053 2.00040E+01 1.49273E-02-1.19288E-04 5.89263E-03-6.19484E-14 1.37202E-13
 -1      3054 2.00049E+01 1.27696E-02 6.99487E-05 4.82033E-03-6.90773E-14 2.20945E-13
 -1      3055 2.00062E+01 1.52372E-02 1.29366E-04 6.82966E-03 6.04093E-14 2.03272E-13
 -1      3056 2.00043E+01 2.16983E-02 8.05583E-05 8.99493E-03 1.74240E-13 2.18734E-13
 -1      3057 8.25490E+00-2.88453E-01 1.72761E-01-8.95891E-01-5.75616E-14-5.81118E-13
 -1      3058 1.59044E+01-3.80989E+00 1.30792E-01-5.91584E+00-5.05582E-13-3.43447E-13
 -1      3059 2.00046E+01 1.26227E-02 7.35926E-05-4.67155E-03-2.31945E-13-2.05103E-13
 -1      3060 1.96068E+01-4.37619E+00 9.27031E-02 5.23421E+00 2.70894E-13 2.50047E-13
 -1      3061 2.83043E+01 2.50969E+00-8.78586E-02 2.16695E+00-3.37522E-13-2.85022E-13
 -1      3062 1.34520E+01-2.73661E+00 1.33690E-01-5.54505E+00 3.99389E-13 2.96069E-13
 -1      3063 7.69432E+00-9.17081E-01 1.64677E-01 2.30448E+00 1.34170E-13 4.66321E-13
 -1      3064 2.79243E+01-2.40833E+00-4.93096E-02-4.43956E-01 1.27096E-13 4.22218E-13
 -1      3065 2.68630E+01-2.96671E+00 4.80973E-02-1.09389E-01 1.59140E-13 3.93571E-13
 -1      3066 2.76686E+01-1.40095E+00-1.49037E-01-1.31620E+00 8.26353E-14 4.17999E-13
 -1      3067 2.47798E+01-4.51872E+00 2.92804E-02 2.51345E+00 2.61180E-13 2.93494E-13
 -1      3068 2.66854E+01-3.98604E+00-3.59654E-03-1.16744E+00-1.57145E-13 2.26374E-13
 -1      3069 1.01996E+01-9.06929E-01 1.32834E-01-3.63624E+00-2.32460E-13-4.97546E-13
 -1      3070 9.80062E+00-1.72438E+00 1.70148E-01-4.44223E+00-3.28279E-13-5.12923E-13
 -1      3071 1.16141E+01-2.13498E+00 2.95304E-02-5.07263E+00-3.75810E-13-3.67581E-13
 -1      3072 2.87131E+01 1.94998E+00-4.50878E-02-2.02266E+00-9.26759E-14 4.34722E-13
 -1      3073 2.01794E+01 2.27349E+00 6.59719E-04-1.02020E+00-2.00901E-13-3.19891E-13
 -1      3074 2.86925E+01 4.34534E+00-1.11959E-01-1.80991E+00 5.12312E-13-3.66387E-13
 -1      3075 1.96725E+01 3.04887E+00-6.31608E-03-2.71997E-01 6.97605E-15-3.03294E-13
 -1      3076 1.97156E+01 2.99093E+00-5.76984E-03-3.99612E-01-3.53684E-14-3.19417E-13
 -1      3077 1.98604E+01 2.64075E+00 5.26865E-03-3.73967E-01-5.19398E-14-2.98863E-13
 -1      3078 1.97731E+01 2.77691E+00 4.77647E-03-1.84642E-01 1.50547E-14-2.87884E-13
 -1      3079 2.74890E+01 5.58170E+00-1.37521E-01 2.74119E-01 3.50386E-13-1.38292E-13
 -1      3080 2.84350E+01 2.44878E-01-8.91720E-02-2.01535E+00 3.94358E-13-3.77198E-13
 -1      3081 2.00058E+01 1.70440E-02-5.93838E-05-7.97666E-03-1.78313E-13-3.63942E-13
 -1      3082 2.00041E+01 1.69913E-02-6.44789E-05-7.00236E-03-2.40928E-13-5.07728E-13
 -1      3083 2.00045E+01 2.37592E-02 1.67127E-04-1.01645E-02 7.61201E-15-6.59461E-13
 -1      3084 2.00074E+01 2.04604E-02 2.32253E-04-1.08238E-02-5.04401E-14-2.53082E-13
 -1      3085 2.03684E+01 1.66638E+00-2.14950E-03 9.65860E-01 2.91126E-13-1.67756E-14
 -1      3086 2.03496E+01 1.47769E+00 2.84420E-03 6.96998E-01 2.73214E-13-5.19948E-14
 -1      3087 2.02534E+01 1.64551E+00-5.56910E-03 5.64042E-01 2.51398E-13-1.18762E-13
 -1      3088 2.01718E+01 1.85885E+00-1.61533E-03 5.14611E-01 2.40615E-13-1.36619E-13
 -1      3089 2.78737E+01 5.55480E+00-1.59320E-01 1.08204E+00-6.04350E-13-8.81933E-14
 -1      3090 2.65118E+01 5.10821E+00-1.26480E-01 6.26232E-01-4.92162E-13 6.45074E-14
 -1      3091 1.58958E+01-2.84726E+00 1.32002E-02 5.31908E+00 2.73191E-13 8.01928E-14
 -1      3092 1.35645E+01-1.60639E+00 9.28095E-02 4.64820E+00 2.55296E-13-1.97453E-13
 -1      3093 2.02550E+01 6.95272E-01 2.61846E-03 3.13690E-01-5.74626E-14-1.83287E-13
 -1      3094 2.02331E+01 6.16033E-01-5.55998E-04 4.53208E-01-2.58762E-14-1.59384E-13
 -1      3095 2.02036E+01 5.58118E-01 1.55715E-03 5.74956E-01-3.72978E-14-1.46045E-13
 -1      3096 2.01945E+01 5.13818E-01 6.56940E-04 6.90354E-01-6.72950E-14-1.54523E-13
 -1      3097 2.01792E+01 6.98019E-01-3.86658E-04 4.94021E-01-2.85454E-14-2.01748E-13
 -1      3098 2.01603E+01 4.81223E-01 5.23011E-04 7.97377E-01-7.40325E-14-1.12511E-13
 -1      3099 2.01657E+01 4.55696E-01 1.57555E-03 8.98066E-01-6.64410E-14-1.27881E-13
 -1      3100 2.01110E+01 5.91853E-01-5.37457E-04 7.27767E-01-5.55078E-14-1.58056E-13
 -1      3101 2.01318E+01 4.33247E-01-1.44795E-04 9.97612E-01-2.72961E-14-1.14456E-13
 -1      3102 2.01532E+01 4.11319E-01 2.31009E-03 1.08925E+00 6.69728E-15-1.12914E-13
 -1      3103 2.00417E+01 5.28766E-01-6.32682E-04 9.38477E-01-3.79680E-14-1.26090E-13
 -1      3104 2.01257E+01 3.83996E-01-2.98109E-04 1.18627E+00 3.77239E-14-9.76773E-14
 -1      3105 2.01670E+01 3.49329E-01 2.97771E-03 1.27063E+00 5.52938E-15-5.20649E-14
 -1      3106 1.99801E+01 4.75101E-01-9.96995E-04 1.13876E+00 3.60408E-14-1.19622E-13
 -1      3107 2.01557E+01 2.99973E-01 2.91589E-04 1.36742E+00-3.52011E-14-2.26068E-14
 -1      3108 2.02254E+01 2.33196E-01 3.66240E-03 1.44186E+00 1.47655E-14-4.99993E-16
 -1      3109 1.99393E+01 3.94755E-01-1.97805E-03 1.33721E+00 2.40126E-14-8.52751E-14
 -1      3110 2.02473E+01 1.41343E-01 1.98589E-03 1.53719E+00 4.64420E-14 4.76202E-14
 -1      3111 2.03606E+01 1.94565E-02 4.32723E-03 1.59356E+00 1.70735E-16 3.90574E-14
 -1      3112 1.99423E+01 2.44996E-01-4.06168E-03 1.53737E+00 3.48020E-14 1.62787E-14
 -1      3113 2.04443E+01-1.38013E-01 5.31341E-03 1.68069E+00-2.96517E-14 9.84943E-14
 -1      3114 2.06236E+01-3.39925E-01 4.41601E-03 1.70319E+00 2.38107E-14 1.22053E-13
 -1      3115 2.00296E+01-2.50858E-02-7.91212E-03 1.73547E+00 2.49681E-14 8.18821E-14
 -1      3116 2.08148E+01-5.83797E-01 1.10429E-02 1.76338E+00 1.20075E-14 1.19454E-13
 -1      3117 2.10874E+01-8.82605E-01 3.03199E-03 1.72463E+00 9.46031E-15 1.41055E-13
 -1      3118 2.02685E+01-4.73017E-01-1.45026E-02 1.91376E+00 2.85990E-14 2.07432E-13
 -1      3119 2.14448E+01-1.21545E+00 1.96436E-02 1.71880E+00 2.00512E-14 1.39543E-13
 -1      3120 2.18372E+01-1.59502E+00 2.22287E-03 1.57408E+00 4.04054E-14 1.06079E-13
 -1      3121 2.07594E+01-1.13856E+00-2.31401E-02 2.02046E+00-1.37130E-15 1.36575E-13
 -1      3122 2.24312E+01-2.00456E+00 2.83204E-02 1.44282E+00 6.41301E-14 8.29805E-14
 -1      3123 2.29334E+01-2.38386E+00-1.09586E-02 1.11504E+00 5.63924E-14 5.09098E-14
 -1      3124 2.16152E+01-2.00843E+00-3.18555E-02 1.97014E+00 1.97303E-14 1.55572E-13
 -1      3125 2.37836E+01-2.61265E+00 3.52837E-02 6.90522E-01 5.32387E-14 8.70519E-14
 -1      3126 2.42661E+01-2.74333E+00-2.87924E-03 2.35014E-01-1.36575E-14 1.26456E-13
 -1      3127 2.30295E+01-2.88978E+00-6.91782E-03 1.57446E+00 6.81850E-14 1.31237E-13
 -1      3128 2.56621E+01-2.40788E+00-1.55174E-02-7.67989E-01 1.54928E-14 2.68763E-13
 -1      3129 2.61372E+01-1.59980E+00-3.12330E-02-1.48221E+00 5.02098E-14 3.43323E-13
 -1      3130 2.64048E+01-3.46475E-01-2.34361E-02-1.89033E+00 4.09291E-14 4.03157E-13
 -1      3131 2.56510E+01 4.59072E+00-1.43908E-01-7.95449E-01-3.95989E-13 2.52375E-13
 -1      3132 2.56962E+01 4.79665E+00-1.06155E-01 2.29276E-01-4.69333E-13 2.08539E-13
 -1      3133 2.65731E+01 1.39063E+00-7.68251E-02 2.24794E+00-1.84172E-13-2.56250E-13
 -1      3134 2.66070E+01-2.65527E-01-1.40219E-01 2.14968E+00-1.52302E-13-3.28758E-13
 -1      3135 2.47422E+01-2.67094E+00-4.95540E-03 1.97244E-01 4.02612E-14-1.97699E-13
 -1      3136 2.42054E+01-2.67795E+00 3.91576E-02-3.81817E-01 1.03905E-13-4.73198E-14
 -1      3137 2.32754E+01-2.48029E+00-1.10843E-02-8.48344E-01 1.36496E-13-7.52549E-14
 -1      3138 2.27656E+01-2.13655E+00 3.41662E-02-1.20272E+00 2.36246E-13 1.02654E-14
 -1      3139 2.34182E+01-3.01579E+00-3.75307E-02-1.25369E+00 2.11739E-13-1.22048E-13
 -1      3140 2.20918E+01-1.76171E+00-3.26731E-03-1.40000E+00 2.27692E-13 5.49365E-14
 -1      3141 2.16755E+01-1.35990E+00 2.37340E-02-1.57292E+00 1.39287E-13 8.68894E-14
 -1      3142 2.19265E+01-2.20824E+00-3.43961E-02-1.80388E+00 2.57102E-13-7.95553E-14
 -1      3143 2.12523E+01-1.00268E+00 2.23992E-03-1.59731E+00 1.66061E-14 1.38577E-13
 -1      3144 2.09514E+01-6.74145E-01 1.34993E-02-1.64946E+00-4.39279E-14 8.95540E-14
 -1      3145 2.09223E+01-1.29474E+00-2.61734E-02-1.92841E+00 1.18488E-13 8.11599E-14
 -1      3146 2.07164E+01-4.03335E-01 4.19164E-03-1.59138E+00-5.21309E-14 1.68991E-13
 -1      3147 2.05154E+01-1.75347E-01 6.78093E-03-1.57196E+00-2.96553E-14 2.16870E-13
 -1      3148 2.03351E+01-5.57852E-01-1.60815E-02-1.83075E+00-2.42781E-14 2.91091E-13
 -1      3149 2.04006E+01 3.26902E-03 4.21714E-03-1.48016E+00-6.62822E-14 2.71111E-13
 -1      3150 2.02714E+01 1.42477E-01 2.61692E-03-1.42185E+00 4.81263E-14 3.71678E-13
 -1      3151 2.00280E+01-5.28775E-02-8.84087E-03-1.64608E+00-1.08545E-15 4.47605E-13
 -1      3152 2.02269E+01 2.45892E-01 3.64037E-03-1.32007E+00-4.59520E-14 2.38338E-13
 -1      3153 2.01442E+01 3.18758E-01 2.67060E-04-1.24303E+00-8.46325E-14 1.12681E-13
 -1      3154 1.98913E+01 2.54050E-01-4.31870E-03-1.43485E+00-3.40850E-14 3.44731E-13
 -1      3155 2.01369E+01 3.68291E-01 3.05268E-03-1.14243E+00-6.06813E-14 1.50198E-14
 -1      3156 2.00824E+01 3.96246E-01-9.58655E-04-1.05907E+00-5.94329E-14 1.70063E-14
 -1      3157 1.98492E+01 4.14692E-01-1.73543E-03-1.22457E+00-1.47558E-13-6.14686E-14
 -1      3158 2.00928E+01 4.10486E-01 2.60117E-03-9.64950E-01-1.61569E-14 1.57080E-14
 -1      3159 2.00547E+01 4.10429E-01-1.51191E-03-8.82901E-01-7.48844E-14 5.31096E-14
 -1      3160 1.98543E+01 4.76676E-01-3.86139E-04-1.02686E+00-3.45741E-14-1.67184E-13
 -1      3161 2.00716E+01 4.03459E-01 2.26242E-03-7.97905E-01-1.03351E-13 7.44678E-14
 -1      3162 2.00433E+01 3.87531E-01-1.67476E-03-7.21698E-01 1.03853E-14 2.99658E-14
 -1      3163 1.98793E+01 4.76966E-01 2.40023E-04-8.47009E-01 2.29805E-15 1.00750E-13
 -1      3164 2.00609E+01 3.69170E-01 1.98984E-03-6.46987E-01-6.94327E-14 1.08011E-13
 -1      3165 2.00387E+01 3.45522E-01-1.62171E-03-5.79046E-01-1.06084E-13 4.85239E-14
 -1      3166 1.99095E+01 4.42014E-01 4.62281E-04-6.87402E-01-2.37014E-14-1.98849E-14
 -1      3167 2.00543E+01 3.22182E-01 1.74873E-03-5.14880E-01-1.68612E-13 1.60104E-13
 -1      3168 2.00361E+01 2.95981E-01-1.46098E-03-4.56206E-01-1.30815E-13 1.12499E-13
 -1      3169 1.99376E+01 3.89682E-01 4.82870E-04-5.48791E-01-1.07958E-13 1.01481E-13
 -1      3170 2.00489E+01 2.71625E-01 1.52112E-03-4.02242E-01-1.17542E-13 6.54220E-14
 -1      3171 2.00338E+01 2.45949E-01-1.25567E-03-3.52881E-01-1.13371E-13-1.78945E-13
 -1      3172 1.99609E+01 3.31371E-01 4.14035E-04-4.30829E-01-1.28942E-13 1.11213E-13
 -1      3173 2.00435E+01 2.22852E-01 1.30312E-03-3.08370E-01-7.20876E-14-2.20670E-13
 -1      3174 2.00310E+01 1.99379E-01-1.04270E-03-2.67773E-01 1.07658E-14-2.68641E-13
 -1      3175 1.99786E+01 2.73958E-01 3.17479E-04-3.32351E-01-7.13482E-14 6.85964E-14
 -1      3176 2.00380E+01 1.78712E-01 1.09690E-03-2.31726E-01 1.03005E-13-1.96716E-13
 -1      3177 2.00276E+01 1.58213E-01-8.42487E-04-1.99006E-01 1.29470E-13-1.91422E-13
 -1      3178 1.99913E+01 2.21247E-01 2.23360E-04-2.51635E-01 6.02832E-14-1.43965E-13
 -1      3179 2.00325E+01 1.40441E-01 9.06564E-04-1.70320E-01 6.59723E-14-2.07835E-13
 -1      3180 2.00240E+01 1.23124E-01-6.65440E-04-1.44441E-01-6.61138E-14-2.94881E-13
 -1      3181 1.99997E+01 1.75036E-01 1.44304E-04-1.86633E-01 7.61897E-14-1.15688E-13
 -1      3182 2.00272E+01 1.08288E-01 7.35696E-04-1.22006E-01-1.02395E-13-2.12590E-13
 -1      3183 2.00203E+01 9.40296E-02-5.15204E-04-1.01911E-01-2.10888E-14-2.30397E-13
 -1      3184 2.00048E+01 1.35854E-01 8.34402E-05-1.35182E-01 1.41671E-14-4.27257E-15
 -1      3185 2.00222E+01 8.19277E-02 5.85916E-04-8.46739E-02 1.21416E-13-7.03157E-14
 -1      3186 2.00167E+01 7.04212E-02-3.92474E-04-6.93638E-02 3.78383E-13 7.40450E-14
 -1      3187 2.00075E+01 1.03482E-01 4.11450E-05-9.51631E-02 1.74908E-13 3.56878E-14
 -1      3188 2.00176E+01 6.07140E-02 4.57323E-04-5.63672E-02 3.73377E-13-3.44772E-14
 -1      3189 2.00133E+01 5.15489E-02-2.96083E-04-4.49503E-02 2.76966E-13-1.13970E-13
 -1      3190 2.00084E+01 7.72645E-02 1.24669E-05-6.45929E-02 3.15880E-13-1.73459E-13
 -1      3191 2.00135E+01 4.38378E-02 3.48454E-04-3.53957E-02 1.79526E-13-1.17501E-13
 -1      3192 2.00102E+01 3.66235E-02-1.90450E-04-2.71203E-02 1.14991E-13-1.76117E-13
 -1      3193 2.00081E+01 5.63420E-02 7.97754E-06-4.17459E-02 2.63333E-13-3.17405E-13
 -1      3194 2.00103E+01 3.08349E-02 2.79557E-04-2.09935E-02 9.30076E-14-1.41943E-13
 -1      3195 2.00077E+01 2.50963E-02-1.10206E-04-1.51536E-02 9.59400E-14-1.61011E-13
 -1      3196 2.00061E+01 2.71608E-02-1.60189E-04-1.50272E-02-3.82351E-14-7.34329E-13
 -1      3197 2.00073E+01 3.98559E-02-9.57516E-05-2.58547E-02 1.00503E-13-5.18459E-13
 -1      3198 2.02504E+01 3.84016E-01 2.59485E-03-1.07124E+00-1.16843E-14-6.90543E-14
 -1      3199 2.02104E+01 3.96737E-01 1.43779E-05-9.78301E-01 4.01879E-14-6.52093E-14
 -1      3200 2.71244E+01 4.61911E+00-1.38890E-01 1.62111E+00-4.29615E-13-1.22291E-13
 -1      3201 2.02971E+01 3.47162E-01 3.03829E-03-1.25516E+00 2.78282E-14-7.78139E-14
 -1      3202 2.02373E+01 3.67920E-01-3.50457E-04-1.16893E+00-1.06124E-14-6.72710E-14
 -1      3203 2.00915E+01 4.54624E-01-1.07931E-03-1.13552E+00 1.02059E-14-1.37843E-13
 -1      3204 2.07877E+01-1.86054E-01 3.35305E-03-1.68398E+00-5.49335E-14 2.60630E-14
 -1      3205 2.06144E+01-1.91472E-02 4.46737E-03-1.66095E+00-3.75324E-14 7.53095E-15
 -1      3206 2.12113E+01-6.55151E-01 1.77118E-03-1.69755E+00-5.47896E-14 7.58335E-14
 -1      3207 2.09623E+01-3.92970E-01 9.83227E-03-1.73666E+00-4.98066E-14 2.48445E-14
 -1      3208 2.04244E+01-2.99812E-01-1.20805E-02-1.87692E+00-6.09914E-14-9.82573E-14
 -1      3209 2.18833E+01-1.31023E+00-1.51919E-03-1.54230E+00-1.05673E-13 1.21791E-13
 -1      3210 2.15348E+01-9.52842E-01 1.81226E-02-1.68299E+00-5.61497E-14 1.19082E-13
 -1      3211 2.08678E+01-8.95799E-01-2.08417E-02-1.95925E+00-8.05523E-14-5.57831E-14
 -1      3212 2.28791E+01-2.02009E+00 6.93645E-03-1.12282E+00-1.52396E-13 1.59327E-13
 -1      3213 2.24067E+01-1.65564E+00 2.94611E-02-1.39873E+00-1.36285E-13 1.61782E-13
 -1      3214 2.16087E+01-1.71067E+00-4.34239E-02-1.85896E+00-1.26156E-13 6.94852E-14
 -1      3215 2.40818E+01-2.62857E+00-3.93182E-02-2.70530E-01-8.69235E-14 2.93423E-13
 -1      3216 2.36336E+01-2.38648E+00 3.09043E-02-7.61247E-01-1.53127E-13 2.25946E-13
 -1      3217 2.28766E+01-2.54658E+00-4.29184E-02-1.43170E+00-1.90173E-13 1.56722E-13
 -1      3218 2.53085E+01-2.13739E+00-2.64384E-02 1.03742E+00 3.31540E-14 4.07827E-13
 -1      3219 2.51057E+01-2.48853E+00 4.91037E-02 5.04294E-01-5.33636E-14 3.65171E-13
 -1      3220 2.46251E+01-3.22613E+00-4.61679E-02-5.95983E-01-1.64646E-13 2.38631E-13
 -1      3221 2.61971E+01 2.13036E-01-3.48946E-02 2.24526E+00 9.71029E-14 5.14783E-13
 -1      3222 2.61640E+01-1.08288E+00-5.25016E-02 1.92326E+00 9.22543E-14 5.29656E-13
 -1      3223 2.56273E+01 4.48462E+00-1.01664E-01 4.72653E-01 2.02977E-13 1.09168E-13
 -1      3224 2.56951E+01 3.76233E+00-1.80000E-01 1.49197E+00 7.74381E-14 1.96222E-13
 -1      3225 2.62542E+01 4.00558E+00-1.47989E-01-1.63386E+00 4.80310E-13-2.42284E-13
 -1      3226 2.61906E+01 4.79572E+00-1.34184E-01-7.55914E-01 3.38063E-13-1.15692E-13
 -1      3227 2.67986E+01 9.62791E-01-1.27682E-01-2.36334E+00 4.06716E-13-2.04423E-13
 -1      3228 2.67108E+01 2.55452E+00-9.08262E-02-2.32791E+00 4.30975E-13-2.79839E-13
 -1      3229 2.62853E+01-1.84918E+00-3.80039E-02-1.43851E+00 3.31520E-13-2.13593E-13
 -1      3230 2.64638E+01-7.55627E-01-3.77631E-02-1.97221E+00 4.41855E-13-1.49998E-13
 -1      3231 2.32386E+01-2.13557E+00 3.25885E-02 9.19517E-01-2.26776E-13-1.00803E-13
 -1      3232 2.37046E+01-2.42467E+00-1.49266E-02 4.96607E-01-1.18920E-13-9.42978E-14
 -1      3233 2.21174E+01-1.38529E+00 2.47318E-02 1.43356E+00-5.13036E-14-7.54800E-15
 -1      3234 2.25258E+01-1.77815E+00-7.86234E-03 1.20240E+00-1.42162E-13-3.67486E-14
 -1      3235 2.24261E+01-2.27851E+00-3.54899E-02 1.57597E+00-1.74579E-13-1.05659E-13
 -1      3236 2.13439E+01-7.00406E-01 1.52588E-02 1.60804E+00-1.90048E-13 7.34851E-14
 -1      3237 2.16542E+01-1.03177E+00-5.92294E-04 1.51476E+00-1.08930E-13 3.12918E-14
 -1      3238 2.13454E+01-1.36536E+00-2.57282E-02 1.83516E+00-1.63665E-13 8.76773E-14
 -1      3239 2.08544E+01-1.96879E-01 7.82281E-03 1.58788E+00-7.05949E-14 2.80349E-13
 -1      3240 2.10727E+01-4.28205E-01 2.31326E-03 1.58307E+00-1.52693E-13 2.01309E-13
 -1      3241 2.06852E+01-6.13457E-01-1.68520E-02 1.82820E+00-1.87416E-13 2.86591E-13
 -1      3242 2.05616E+01 1.22383E-01 3.24291E-03 1.46538E+00 1.80774E-13 1.53699E-13
 -1      3243 2.07116E+01-1.76552E-02 3.19774E-03 1.51225E+00 1.44162E-13 2.32128E-13
 -1      3244 2.03192E+01-9.02313E-02-9.66574E-03 1.69075E+00 1.49281E-14 3.70238E-13
 -1      3245 2.03898E+01 2.96673E-01 6.16759E-04 1.29595E+00 1.65670E-13 5.41045E-14
 -1      3246 2.04947E+01 2.24722E-01 3.26780E-03 1.36956E+00 1.42001E-13 3.48275E-14
 -1      3247 2.01360E+01 2.26657E-01-4.82468E-03 1.50041E+00 1.89512E-13 9.61727E-14
 -1      3248 2.02875E+01 3.71122E-01-7.63729E-04 1.11119E+00 1.40621E-13 1.05406E-13
 -1      3249 2.03640E+01 3.44526E-01 3.08726E-03 1.19549E+00 1.97435E-13 1.61808E-13
 -1      3250 2.00550E+01 3.90593E-01-2.04036E-03 1.29520E+00 1.56209E-13 3.52790E-14
 -1      3251 2.02230E+01 3.83137E-01-1.38514E-03 9.29319E-01 4.64421E-16 1.21985E-13
 -1      3252 2.02817E+01 3.84082E-01 2.85751E-03 1.01429E+00 1.33140E-13 2.27989E-13
 -1      3253 2.00262E+01 4.52559E-01-6.20075E-04 1.09387E+00 1.04149E-13 1.08184E-13
 -1      3254 2.01786E+01 3.59701E-01-1.57112E-03 7.60594E-01-6.60067E-14-2.52327E-14
 -1      3255 2.02255E+01 3.75734E-01 2.62439E-03 8.40305E-01-6.96513E-14-5.07700E-14
 -1      3256 2.00207E+01 4.52205E-01 6.64505E-06 9.06164E-01-6.20218E-15 2.47406E-13
 -1      3257 2.01452E+01 3.18747E-01-1.52352E-03 6.10338E-01 1.72806E-13-8.11817E-15
 -1      3258 2.01836E+01 3.41761E-01 2.38202E-03 6.81627E-01 3.90458E-14-5.68436E-14
 -1      3259 2.00237E+01 4.17319E-01 2.19010E-04 7.37179E-01 3.62371E-14 8.42211E-15
 -1      3260 2.01182E+01 2.71479E-01-1.36276E-03 4.80660E-01 1.75774E-13 2.18866E-14
 -1      3261 2.01499E+01 2.96500E-01 2.12403E-03 5.42211E-01 2.10188E-13-5.27398E-14
 -1      3262 2.00280E+01 3.66094E-01 2.34186E-04 5.89261E-01 7.02333E-14-1.25329E-14
 -1      3263 2.00956E+01 2.24455E-01-1.15887E-03 3.71573E-01 2.41377E-14 2.23326E-13
 -1      3264 2.01217E+01 2.48635E-01 1.85568E-03 4.23256E-01 1.06199E-13 1.34454E-13
 -1      3265 2.00309E+01 3.09816E-01 1.71985E-04 4.62874E-01 1.89866E-14 1.31464E-13
 -1      3266 2.00765E+01 1.81192E-01-9.50990E-04 2.81801E-01-1.56978E-13 3.37878E-13
 -1      3267 2.00978E+01 2.03057E-01 1.58745E-03 3.24202E-01-1.04231E-13 3.10175E-13
 -1      3268 2.00317E+01 2.55039E-01 9.30082E-05 3.57176E-01-1.19451E-13 4.55155E-13
 -1      3269 2.00603E+01 1.43299E-01-7.59198E-04 2.09361E-01-2.75580E-13 4.34397E-13
 -1      3270 2.00774E+01 1.62227E-01 1.33016E-03 2.43446E-01-1.80661E-13 4.25237E-13
 -1      3271 2.00305E+01 2.05226E-01 2.38233E-05 2.70496E-01-1.95741E-13 6.17113E-13
 -1      3272 2.00468E+01 1.11239E-01-5.92435E-04 1.51959E-01-2.33729E-13 1.24631E-13
 -1      3273 2.00604E+01 1.27116E-01 1.09255E-03 1.78853E-01-2.46475E-13 2.02151E-13
 -1      3274 2.00281E+01 1.61896E-01-2.68072E-05 2.00698E-01-1.89535E-13 2.10436E-13
 -1      3275 2.00358E+01 8.48147E-02-4.53466E-04 1.07264E-01-7.41938E-14 6.46031E-14
 -1      3276 2.00463E+01 9.78128E-02 8.80383E-04 1.28107E-01-1.77040E-13 6.15020E-14
 -1      3277 2.00248E+01 1.25395E-01-5.85015E-05 1.45466E-01-1.33101E-13-1.27587E-13
 -1      3278 2.00268E+01 6.34782E-02-3.41194E-04 7.30771E-02 4.48005E-14 1.85829E-13
 -1      3279 2.00349E+01 7.39170E-02 6.96334E-04 8.89379E-02 5.75691E-15 1.21591E-13
 -1      3280 2.00211E+01 9.53935E-02-7.44039E-05 1.02509E-01-4.68247E-14-1.83501E-13
 -1      3281 2.00196E+01 4.65107E-02-2.55156E-04 4.74299E-02 2.27957E-14 1.68957E-13
 -1      3282 2.00258E+01 5.47809E-02 5.41745E-04 5.92569E-02 2.11351E-13 4.41553E-13
 -1      3283 2.00174E+01 7.12061E-02-7.85957E-05 6.96952E-02 2.88583E-14 1.08521E-13
 -1      3284 2.00140E+01 3.31300E-02-1.84955E-04 2.86535E-02 1.42443E-13 3.39755E-14
 -1      3285 2.00185E+01 3.96315E-02 4.14004E-04 3.72351E-02-1.80734E-14 1.38931E-13
 -1      3286 2.00139E+01 5.19450E-02-8.31433E-05 4.51160E-02 3.65217E-14 2.31230E-13
 -1      3287 2.00097E+01 2.27251E-02-4.24690E-05 1.54324E-02 1.63812E-13 5.19850E-15
 -1      3288 2.00129E+01 2.76358E-02 2.91929E-04 2.13451E-02 1.66409E-13 6.89533E-14
 -1      3289 2.00106E+01 3.67785E-02-6.71867E-05 2.71837E-02 1.84556E-13-9.63146E-14
 -1      3290 2.00071E+01 1.77741E-02 4.55933E-05 9.31680E-03 1.37966E-13 9.75413E-14
 -1      3291 2.00088E+01 2.02617E-02 1.59571E-04 1.22206E-02 1.36509E-13 1.76015E-13
 -1      3292 2.00080E+01 2.70380E-02-7.92676E-05 1.65690E-02 5.58450E-14-2.62845E-13
 -1      3293 2.00060E+01 2.07620E-02-1.56513E-04 1.06484E-02 8.74686E-14-6.65805E-14
 -1      3294 2.03711E+01 1.12090E+00-6.31533E-04 4.34078E-01 2.16899E-13-4.58574E-14
 -1      3295 2.03103E+01 1.45372E+00 2.01868E-03 5.21283E-01 2.38067E-13-7.83171E-14
 -1      3296 2.02926E+01 1.31626E+00 9.70951E-04 3.17922E-01 2.01738E-13-1.01660E-13
 -1      3297 2.03299E+01 9.30536E-01-2.21731E-03 1.95041E-01 1.78009E-13-5.12457E-14
 -1      3298 1.98413E+01 2.46781E+00-4.22904E-03 1.95165E-01 1.52364E-13-2.53864E-13
 -1      3299 1.98113E+01 2.51504E+00-4.10347E-03 1.08874E-01 1.06824E-13-2.66986E-13
 -1      3300 1.99912E+01 4.83636E-02-9.35051E-05-1.32057E-03 1.82503E-13-4.62358E-13
 -1      3301 1.99912E+01 4.83800E-02-9.25386E-05 1.28428E-03 1.96191E-13-1.89157E-13
 -1      3302 2.00015E+01 3.31480E-02-5.42656E-06-1.31621E-02-8.13434E-14-4.48412E-13
 -1      3303 1.99991E+01 3.64083E-02-1.95933E-04-1.28209E-02-8.07443E-17-3.81024E-13
 -1      3304 1.99930E+01 4.61541E-02-1.88501E-05-6.96301E-03-1.61450E-15-1.56424E-13
 -1      3305 1.99918E+01 4.73383E-02-1.54735E-04-4.67300E-03 8.05130E-14-4.34627E-13
 -1      3306 1.99895E+01 5.76865E-02 2.60673E-04-3.71067E-03 1.47964E-13-4.55466E-13
 -1      3307 2.47449E+01-4.22397E+00-5.20402E-02 1.83950E+00-8.15320E-16-2.68805E-13
 -1      3308 2.31294E+01-4.24538E+00 7.63496E-02 3.09134E+00-1.66141E-13-2.00308E-13
 -1      3309 2.50545E+01-2.45996E+00-1.34921E-02-6.37439E-01 1.42101E-13-1.55337E-13
 -1      3310 2.62658E+01-2.72047E+00-5.49674E-02-5.35058E-01 2.17796E-13-1.83527E-13
 -1      3311 2.55508E+01-3.72590E+00 2.78402E-02 7.82972E-01 2.96568E-14-1.87208E-13
 -1      3312 2.46451E+01-2.58320E+00 1.36559E-02-7.27831E-02 4.88498E-15-1.34305E-13
 -1      3313 1.99968E+01 4.09191E-02 4.33909E-05-1.12536E-02-7.56482E-14-3.31644E-13
 -1      3314 1.99946E+01 4.31806E-02-1.99175E-04-9.70170E-03-3.93870E-14-1.34972E-13
 -1      3315 1.99923E+01 5.38649E-02 2.30712E-04-1.04365E-02-1.15795E-13-1.17431E-13
 -1      3316 1.99970E+01 4.66808E-02 1.28375E-04-1.52222E-02-1.77229E-13-2.54136E-13
 -1      3317 2.05325E+01 1.06621E-01 3.58204E-03-1.57911E+00 2.69343E-15 8.29741E-15
 -1      3318 2.04123E+01 2.00570E-01 1.44583E-03-1.52098E+00 5.83133E-14 5.66609E-15
 -1      3319 2.01999E+01 7.89501E-02-6.54201E-03-1.71788E+00-1.23980E-14-5.89222E-14
 -1      3320 2.03830E+01 2.68306E-01 3.37778E-03-1.42805E+00 6.31827E-14-4.21822E-14
 -1      3321 2.02983E+01 3.14690E-01 1.82486E-05-1.35144E+00 4.43683E-14-6.08500E-14
 -1      3322 2.01042E+01 2.93908E-01-3.31274E-03-1.53049E+00 7.54713E-16-1.08955E-13
 -1      3323 2.63469E+01 3.91956E+00-9.70531E-02-1.74539E+00-2.70062E-13 3.61579E-13
 -1      3324 2.03017E+01 9.30182E-01 2.57656E-03-6.77444E-03-1.21059E-13-2.19229E-13
 -1      3325 2.02734E+01 7.96799E-01-1.98576E-03 1.68814E-01-9.38266E-14-2.04216E-13
 -1      3326 2.02364E+01 8.81885E-01-1.41995E-04 2.21160E-01-5.93755E-14-2.23518E-13
 -1      3327 9.04297E+00 1.45905E-01 8.45690E-02 1.02146E-02 1.85208E-14-4.19914E-13
 -1      3328 9.44609E+00-1.09351E-01 1.10211E-01-1.88058E+00-1.03667E-13-5.85754E-13
 -1      3329 2.63384E+01 2.78265E+00-7.71368E-02 2.08553E+00 8.60284E-14 3.37820E-13
 -1      3330 1.89066E+01-3.82708E+00 7.74740E-02-5.04852E+00 3.89730E-13 1.63050E-13
 -1      3331 2.15939E+01-4.65342E+00-3.32007E-02-4.35263E+00 3.44634E-13 4.39891E-14
 -1      3332 2.02306E+01 4.11676E-01 1.98910E-03-8.77173E-01 6.21947E-14-6.26287E-14
 -1      3333 2.02093E+01 4.30869E-01 9.29427E-04-7.75484E-01 8.53374E-14-5.08030E-14
 -1      3334 2.01238E+01 4.89266E-01-9.84626E-04-9.31904E-01 6.08498E-14-9.34139E-14
 -1      3335 2.02327E+01 4.57837E-01 1.12020E-03-6.65505E-01 1.18356E-13-6.43399E-14
 -1      3336 2.02310E+01 4.96825E-01 2.16403E-03-5.48423E-01 1.27364E-13-5.92185E-14
 -1      3337 2.01677E+01 5.39617E-01-1.09218E-03-7.14994E-01 9.33363E-14-8.79809E-14
 -1      3338 2.64841E+01 3.12448E+00-1.64474E-01 2.11084E+00-2.53617E-13-1.11418E-13
 -1      3339 2.63082E+01-1.93647E+00-3.11903E-02 1.06536E+00-8.73884E-14-3.68785E-13
 -1      3340 2.02083E+01 2.02603E+00 6.99542E-04-8.02268E-01-1.78171E-13-3.04960E-13
 -1      3341 2.57791E+01-4.14756E+00 1.17658E-01-1.45143E+00-2.03310E-13 1.99278E-13
 -1      3342 2.69294E+01-3.48932E+00-1.21547E-01-1.24433E-01-7.43754E-14 1.74846E-13
 -1      3343 1.10760E+01-6.86701E-01 6.26169E-02 3.50241E+00 2.11720E-13-3.31041E-13
 -1      3344 9.66435E+00 1.76487E-02 1.31844E-01 1.81352E+00 8.65905E-14-3.25101E-13
 -1      3345 2.52581E+01-4.13698E+00-9.57813E-02 1.37141E+00 1.67876E-13 2.39914E-13
 -1      3346 2.36159E+01-4.20493E+00 1.29716E-01 2.86912E+00 1.67362E-13 2.64039E-13
 -1      3347 2.58573E+01-2.79028E+00-1.98839E-02 4.50661E-01-4.05596E-14-3.30399E-13
 -1      3348 1.24560E+01-1.57546E+00 1.41764E-01-4.73255E+00 3.83735E-13 3.10044E-13
 -1      3349 1.54488E+01-2.68561E+00 4.37626E-02-5.26413E+00 4.58363E-13 2.46941E-13
 -1      3350 2.09186E+01-4.38316E+00-1.01118E-01 4.36404E+00 1.99132E-13 2.50640E-13
 -1      3351 1.84763E+01-3.53484E+00 1.09732E-01 5.06013E+00 2.68639E-13 1.83034E-13
 -1      3352 1.79900E+01-2.68920E+00 7.38797E-02 4.51165E+00 1.94976E-13 1.05603E-13
 -1      3353 1.43074E+01-2.74081E+00 1.68877E-01-5.55965E+00-4.07091E-13-3.71259E-13
 -1      3354 1.75276E+01-3.77970E+00-5.19105E-03-5.41049E+00-4.25271E-13-2.81428E-13
 -1      3355 2.38088E+01-4.56679E+00 7.58536E-02-3.07708E+00 2.99663E-13-1.04878E-13
 -1      3356 2.55145E+01-4.18051E+00-4.48270E-02-1.42031E+00 1.81263E-13-3.60347E-13
 -1      3357 2.63902E+01 2.39450E+00-1.81949E-01-2.22218E+00-1.28203E-13 3.69295E-13
 -1      3358 9.30481E+00-7.17204E-01 9.76097E-02 3.26880E+00-4.73233E-15 3.65930E-13
 -1      3359 8.19949E+00-1.27902E-01 1.37346E-01 1.10461E+00 1.02435E-13 4.31516E-13
 -1      3360 2.08757E+01-4.44634E+00-7.97250E-03-4.56884E+00-4.00090E-13-1.95149E-13
 -1      3361 2.32855E+01-4.72780E+00-1.03542E-01-3.31784E+00-2.92481E-13 1.61824E-14
 -1      3362 2.08227E+01-4.16674E+00-3.86391E-02 4.28195E+00-3.01259E-13-2.25618E-14
 -1      3363 1.83714E+01-3.28197E+00 7.35504E-02 4.80561E+00-2.76678E-13 1.60576E-13
 -1      3364 2.55945E+01 4.31762E+00-9.10408E-02 1.19384E+00-4.67654E-13 1.26933E-13
 -1      3365 2.64395E+01 1.23688E+00-1.26863E-01 2.39346E+00 1.49582E-13 4.56322E-13
 -1      3366 2.70811E+01 8.53170E-01-3.97178E-02-2.22749E+00 3.76227E-14 4.08930E-13
 -1      3367 1.97960E+01 2.53982E+00-4.07634E-03 4.79717E-02 9.64869E-14-2.60929E-13
 -1      3368 1.97957E+01 2.54051E+00-3.99715E-03-3.86939E-02 5.97327E-14-2.59869E-13
 -1      3369 1.98826E+01 2.28416E+00 6.25167E-03 5.69346E-02 1.03839E-13-2.42530E-13
 -1      3370 1.98852E+01 2.39426E+00-4.18600E-03 2.54737E-01 1.72865E-13-2.37720E-13
 -1      3371 1.99413E+01 2.18677E+00 6.49185E-03 1.60651E-01 1.49845E-13-2.13219E-13
 -1      3372 1.99417E+01 2.29826E+00-4.78918E-03 3.38622E-01 2.01773E-13-2.04942E-13
 -1      3373 2.68516E+01-2.34469E+00-4.68542E-02 8.38632E-01 9.60885E-15 1.91666E-13
 -1      3374 1.50216E+01-1.22480E+00-1.25581E-02 4.01067E+00 2.13485E-13-1.42289E-13
 -1      3375 1.31690E+01-9.20210E-01 1.01370E-01 3.96028E+00 2.32425E-13-3.14915E-13
 -1      3376 1.29564E+01-2.12577E-01 5.07073E-02 3.03959E+00 1.51986E-13-2.89803E-13
 -1      3377 1.73549E+01-2.77928E+00 6.77579E-02 4.88389E+00-1.87406E-13 1.53391E-13
 -1      3378 1.61446E+01-2.06849E+00 4.06079E-02 4.58066E+00-2.34607E-13 3.77233E-13
 -1      3379 1.89809E+01-2.73158E+00 3.16712E-02 4.11247E+00-3.14512E-13 1.15706E-15
 -1      3380 8.65561E+00 1.45509E-01 1.68354E-01-2.50956E-02 1.95565E-13 5.26815E-13
 -1      3381 9.37706E+00 1.02675E-01 4.72917E-02-1.28299E+00 2.13750E-13 3.38812E-13
 -1      3382 9.95891E+00 3.36912E-01 9.81470E-02 9.00258E-01 5.87604E-14 3.52315E-13
 -1      3383 1.99992E+01 3.64735E-02-1.85261E-04 1.28263E-02-1.95750E-14 7.94024E-14
 -1      3384 2.00016E+01 3.33358E-02 5.99571E-05 1.32104E-02 6.12120E-14 4.65032E-13
 -1      3385 2.00856E+01 2.02481E+00-6.36702E-03 4.69009E-01 2.43763E-13-1.44453E-13
 -1      3386 2.00093E+01 2.17597E+00-4.13616E-03 3.94492E-01 2.15973E-13-1.76585E-13
 -1      3387 2.00504E+01 1.99258E+00 7.26120E-03 2.58127E-01 1.88418E-13-1.58851E-13
 -1      3388 2.01890E+01 1.69814E+00 6.81120E-03 3.38526E-01 2.13330E-13-1.26688E-13
 -1      3389 2.53032E+01-3.08184E+00-2.48917E-02 2.38494E-01 8.67808E-14 2.52105E-13
 -1      3390 2.02329E+01 1.72486E+00-1.45016E-03-5.77250E-01-1.66249E-13-2.86160E-13
 -1      3391 2.57190E+01 3.23287E+00-9.24243E-02 1.93621E+00-2.50369E-13-2.23779E-14
 -1      3392 1.62099E+01-1.99121E+00 2.78701E-02-4.50856E+00 3.53523E-13 3.02723E-13
 -1      3393 1.75933E+01-3.03771E+00 8.50793E-02-5.01301E+00 4.06092E-13 2.95236E-13
 -1      3394 1.92510E+01-3.20347E+00-6.37560E-03-4.29944E+00 3.75311E-13 1.84418E-13
 -1      3395 2.02186E+01 6.35831E-01-1.25178E-03-4.70676E-01 1.38006E-13-8.55577E-14
 -1      3396 2.02543E+01 5.49721E-01-8.66748E-05-4.21801E-01 1.27523E-13-5.18647E-14
 -1      3397 2.02719E+01 6.24237E-01 3.11995E-03-2.78376E-01 1.48541E-13-6.38696E-14
 -1      3398 2.00791E+01 4.02699E-01-1.70680E-03-1.33436E+00 3.28489E-14-1.85460E-13
 -1      3399 2.27043E+01-4.19426E+00 3.61378E-02-3.22831E+00 2.72202E-13-5.13577E-14
 -1      3400 2.20250E+01-3.73001E+00 1.54147E-02 3.18449E+00-2.66356E-13-1.37827E-13
 -1      3401 2.40218E+01-2.95079E+00-1.85806E-02 7.79744E-01-8.59590E-14-2.57953E-15
 -1      3402 1.99947E+01 4.32080E-02-1.97565E-04 9.75055E-03-1.08756E-13-3.24320E-13
 -1      3403 1.99968E+01 4.09581E-02 4.94484E-05 1.12965E-02-3.55703E-14-1.18784E-13
 -1      3404 1.99971E+01 4.67024E-02 1.32738E-04 1.52427E-02-3.64249E-14-4.23212E-14
 -1      3405 1.99918E+01 4.73677E-02-1.55524E-04 4.68987E-03 2.02460E-13 5.09197E-14
 -1      3406 1.99930E+01 4.61655E-02-1.98834E-05 7.02033E-03 6.71255E-14-2.38299E-13
 -1      3407 1.99923E+01 5.39033E-02 2.28130E-04 1.04749E-02 3.58993E-14-1.42181E-13
 -1      3408 1.99895E+01 5.77045E-02 2.56099E-04 3.69917E-03 1.93266E-13-1.44664E-13
 -1      3409 2.44905E+01-3.58328E+00-1.01973E-02 1.15636E+00-1.16461E-13-9.00243E-14
 -1      3410 2.02898E+01 6.89995E-01-1.11769E-03-1.47554E-01 1.64419E-13-6.27106E-14
 -1      3411 2.03227E+01 8.13447E-01 3.08966E-03 3.50115E-02 1.64026E-13-6.55366E-14
 -1      3412 2.03112E+01 9.92223E-01 6.55570E-04 9.89136E-02 1.74018E-13-7.13015E-14
 -1      3413 2.02692E+01 7.82305E-01-9.17283E-04-2.03095E-01 1.58740E-13-6.79412E-14
 -1      3414 1.04296E+01-2.38982E-01 1.31272E-01-2.62378E+00-1.59886E-13-5.56319E-13
 -1      3415 1.15983E+01-6.05541E-01 3.58924E-02-3.38343E+00-2.06085E-13-3.93297E-13
 -1      3416 1.11007E+01 2.20436E-01 8.13925E-02-1.81056E+00-7.57970E-14-4.68701E-13
 -1      3417 2.02971E+01 1.08825E+00-3.10126E-03-1.60662E-01-1.49523E-13-2.45427E-13
 -1      3418 2.02653E+01 1.17278E+00 1.15581E-03-8.50935E-02-1.12813E-13-2.32260E-13
 -1      3419 2.03160E+01 1.27669E+00-6.80607E-04-3.60950E-01-1.60493E-13-2.49126E-13
 -1      3420 1.06152E+01 3.09857E-01 1.18560E-01 7.99311E-01 5.75295E-14-3.55910E-13
 -1      3421 1.09714E+01-2.29594E-01 1.26849E-01-3.02166E+00 2.32141E-13 2.62110E-13
 -1      3422 1.15680E+01-9.46362E-01 1.07717E-01-4.11433E+00 3.23207E-13 3.94518E-13
 -1      3423 1.36946E+01-9.80751E-01 7.63405E-02-3.95226E+00 3.45992E-13 2.64011E-13
 -1      3424 1.39193E+01-1.97587E+00 1.18366E-01-4.87085E+00-2.65121E-13-3.79433E-13
 -1      3425 2.21786E+01-3.85203E+00-1.35968E-03 3.19399E+00 1.03820E-13 1.57902E-13
 -1      3426 1.17958E+01-8.53627E-01 1.07916E-01 3.68684E+00-1.09461E-13 3.82708E-13
 -1      3427 1.98821E+01 2.39780E+00-4.52405E-03-2.47504E-01-2.50151E-14-2.64134E-13
 -1      3428 1.99371E+01 2.30472E+00-4.87278E-03-3.31913E-01-6.79970E-14-2.74514E-13
 -1      3429 1.97658E+01-3.92545E+00 9.14846E-02-4.84338E+00-3.91333E-13-2.54276E-13
 -1      3430 2.09198E+01-4.08850E+00-1.27115E-01-4.00001E+00-2.85758E-13-2.24178E-13
 -1      3431 1.78805E+01-2.80799E+00 7.80658E-02-4.70839E+00-3.03434E-13-2.85598E-13
 -1      3432 2.45532E+01-3.96905E+00 9.55277E-02-1.91054E+00-1.71599E-13 4.80588E-14
 -1      3433 2.00046E+01 2.95646E-02-9.19255E-05-1.46496E-02-2.09430E-13-7.18840E-13
 -1      3434 2.00029E+01 3.10721E-02-1.22682E-04-1.39790E-02-5.07813E-14-6.70149E-13
 -1      3435 2.00018E+01 4.03472E-02 1.49545E-04-1.77648E-02-3.18956E-13-5.16995E-13
 -1      3436 2.00056E+01 3.60226E-02 2.25627E-04-1.93555E-02-1.28253E-13-6.17887E-13
 -1      3437 2.53688E+01-3.58221E+00-3.39731E-02-7.30062E-01 9.68036E-14-1.83944E-13
 -1      3438 2.00423E+01 1.99373E+00 4.21482E-03-2.56200E-01-8.16454E-14-2.49103E-13
 -1      3439 2.00074E+01 2.18259E+00-3.75058E-03-3.88264E-01-9.70169E-14-2.92227E-13
 -1      3440 2.00845E+01 2.03230E+00-5.73016E-03-4.68773E-01-1.30395E-13-3.04586E-13
 -1      3441 2.00560E+01 7.04624E-01-1.10720E-04 6.28577E-01-2.23552E-14-1.70265E-13
 -1      3442 2.00192E+01 6.62273E-01 2.52347E-04 7.38653E-01-3.38839E-14-1.51782E-13
 -1      3443 1.99484E+01 6.29762E-01-9.00164E-04 8.39310E-01-4.04806E-14-1.16461E-13
 -1      3444 1.99147E+01 6.04023E-01 1.28532E-03 9.40982E-01-1.65270E-15-1.08135E-13
 -1      3445 1.98920E+01 7.39435E-01 1.17929E-03 7.42430E-01-1.17544E-14-1.08559E-13
 -1      3446 1.98337E+01 5.78758E-01-1.54419E-03 1.04136E+00 4.01551E-15-1.08452E-13
 -1      3447 1.98084E+01 5.52668E-01 2.40792E-03 1.14032E+00 1.02623E-14-1.41432E-13
 -1      3448 1.97409E+01 6.80276E-01 9.68734E-04 9.42562E-01 2.64316E-15-8.49470E-14
 -1      3449 1.97236E+01 5.16685E-01-1.86437E-03 1.24708E+00 6.02948E-14-1.47826E-13
 -1      3450 1.97156E+01 4.70720E-01 3.84901E-03 1.34721E+00 6.92525E-14-8.41810E-14
 -1      3451 1.95772E+01 6.23437E-01 5.30129E-04 1.14875E+00 3.65876E-14-1.34345E-13
 -1      3452 1.96379E+01 4.02724E-01-1.63532E-03 1.46685E+00 6.72707E-14-4.67711E-14
 -1      3453 1.96631E+01 3.13148E-01 5.84733E-03 1.56988E+00 7.13928E-14-3.14162E-14
 -1      3454 1.94160E+01 5.28000E-01-5.55811E-04 1.37559E+00 9.24375E-14-9.27427E-14
 -1      3455 1.96116E+01 1.87241E-01-3.70905E-04 1.70827E+00 5.40419E-14-7.10223E-15
 -1      3456 1.96970E+01 2.54337E-02 8.73225E-03 1.81239E+00 5.97922E-14 4.66087E-14
 -1      3457 1.92838E+01 3.44033E-01-2.88506E-03 1.63865E+00 7.89369E-14-4.70080E-14
 -1      3458 1.97051E+01-1.88474E-01 2.75955E-03 1.97410E+00 4.19191E-14 3.74817E-14
 -1      3459 1.98948E+01-4.56350E-01 1.24880E-02 2.06968E+00 1.54258E-14 5.95009E-14
 -1      3460 1.92276E+01 1.19368E-02-6.97214E-03 1.95297E+00 3.69822E-14-8.93798E-14
 -1      3461 2.00272E+01-7.95734E-01 9.33916E-03 2.25048E+00 2.87749E-14 5.10958E-14
 -1      3462 2.03746E+01-1.19978E+00 1.35998E-02 2.30814E+00 2.85090E-14 8.31592E-14
 -1      3463 1.93278E+01-5.46428E-01-1.53342E-02 2.33387E+00 3.44147E-14-3.88613E-14
 -1      3464 2.07376E+01-1.64617E+00 3.10277E-02 2.44110E+00 4.08944E-14 1.29342E-13
 -1      3465 2.12565E+01-2.22329E+00 1.91316E-02 2.45855E+00 7.75092E-14 1.73021E-13
 -1      3466 1.97703E+01-1.44537E+00-2.99200E-02 2.75368E+00 8.41506E-14 7.42284E-14
 -1      3467 2.02062E+01 1.06092E+00 2.43010E-04 1.25112E-01-5.81284E-14-2.20879E-13
 -1      3468 2.01810E+01 9.35816E-01-1.47142E-03 2.74900E-01-1.84682E-14-2.19224E-13
 -1      3469 2.15943E+01-2.44754E+00 1.13046E-02-2.32620E+00 2.90314E-13-1.31152E-13
 -1      3470 2.09764E+01-1.87780E+00 3.37196E-02-2.40417E+00 2.28949E-13-1.05738E-13
 -1      3471 2.05149E+01-1.36878E+00 1.42005E-02-2.26174E+00 2.25250E-13-5.59030E-14
 -1      3472 2.01218E+01-9.18044E-01 1.63659E-02-2.20806E+00 1.22408E-13 3.32526E-14
 -1      3473 1.98762E+01-1.61741E+00-2.77038E-02-2.74081E+00 2.29994E-13-9.36222E-14
 -1      3474 1.99265E+01-5.52585E-01 1.18477E-02-2.02833E+00-2.35163E-14 1.30396E-13
 -1      3475 1.97000E+01-2.46179E-01 5.01566E-03-1.92892E+00 3.86182E-14 2.09518E-13
 -1      3476 1.93344E+01-6.74136E-01-1.79659E-02-2.33671E+00 1.62338E-13-2.20613E-14
 -1      3477 1.96525E+01-2.41901E-03 9.41738E-03-1.75363E+00 8.17104E-14 2.65606E-13
 -1      3478 1.95371E+01 1.83632E-01 2.84912E-04-1.64217E+00 1.03780E-13 3.10144E-13
 -1      3479 1.91370E+01-2.75708E-02-8.38940E-03-1.93385E+00 8.70164E-14 1.07856E-13
 -1      3480 1.95622E+01 3.26477E-01 6.35256E-03-1.49075E+00-8.64905E-14 2.08287E-13
 -1      3481 1.95140E+01 4.26174E-01-1.70219E-03-1.38118E+00-1.58118E-13 9.07058E-14
 -1      3482 1.91342E+01 3.55733E-01-3.11481E-03-1.58884E+00-2.73861E-14 8.65649E-14
 -1      3483 1.95706E+01 4.97432E-01 4.22339E-03-1.25301E+00-1.95001E-13 4.88803E-14
 -1      3484 1.95586E+01 5.38640E-01-2.45230E-03-1.15064E+00-1.72260E-13-1.23272E-14
 -1      3485 1.92211E+01 5.57528E-01-3.36809E-04-1.30412E+00-2.62638E-13 9.68437E-14
 -1      3486 1.96249E+01 5.62369E-01 2.88166E-03-1.04198E+00-1.44055E-13-9.45222E-14
 -1      3487 1.96299E+01 5.66225E-01-2.63901E-03-9.48804E-01-8.50453E-14-1.47728E-13
 -1      3488 1.93424E+01 6.38249E-01 9.67889E-04-1.06814E+00-2.33625E-13 1.18283E-13
 -1      3489 1.96948E+01 5.60445E-01 2.07505E-03-8.56463E-01 1.11423E-13-2.57260E-14
 -1      3490 1.97063E+01 5.42267E-01-2.54425E-03-7.73349E-01 9.86889E-14 5.02790E-14
 -1      3491 1.94689E+01 6.42145E-01 1.50697E-03-8.70380E-01 1.17841E-13-3.99976E-16
 -1      3492 1.97642E+01 5.19873E-01 1.59375E-03-6.94962E-01-4.14035E-14-1.86611E-14
 -1      3493 1.97765E+01 4.90211E-01-2.31169E-03-6.22164E-01-5.18896E-14-5.98396E-14
 -1      3494 1.95857E+01 6.00533E-01 1.60186E-03-7.03569E-01 1.65636E-14-7.67590E-14
 -1      3495 1.98255E+01 4.59811E-01 1.29851E-03-5.55987E-01-7.41459E-14-3.74978E-14
 -1      3496 1.98363E+01 4.25567E-01-2.02650E-03-4.93406E-01-1.87486E-16 1.80405E-14
 -1      3497 1.96864E+01 5.35182E-01 1.49169E-03-5.62660E-01-5.59796E-15-1.83141E-13
 -1      3498 1.98762E+01 3.92714E-01 1.09401E-03-4.38093E-01-5.24238E-14-8.94453E-15
 -1      3499 1.98845E+01 3.58216E-01-1.72729E-03-3.85281E-01-1.49711E-13 1.55144E-14
 -1      3500 1.97693E+01 4.60330E-01 1.28607E-03-4.44258E-01-2.09624E-14-1.31829E-13
 -1      3501 1.99160E+01 3.26275E-01 9.34802E-04-3.39624E-01-1.73483E-13 7.48121E-14
 -1      3502 1.99219E+01 2.94040E-01-1.43771E-03-2.95859E-01-7.25005E-14 4.76370E-14
 -1      3503 1.98352E+01 3.85021E-01 1.05556E-03-3.45728E-01-1.40125E-13 9.66470E-14
 -1      3504 1.99460E+01 2.64878E-01 7.98231E-04-2.58698E-01 4.49866E-15-6.24457E-14
 -1      3505 1.99498E+01 2.36202E-01-1.17178E-03-2.23067E-01 4.98665E-14-8.45154E-14
 -1      3506 1.98860E+01 3.14578E-01 8.35560E-04-2.64746E-01-7.75371E-14 8.64299E-14
 -1      3507 1.99678E+01 2.10693E-01 6.75237E-04-1.93268E-01 1.01552E-13-9.31671E-14
 -1      3508 1.99699E+01 1.86074E-01-9.36580E-04-1.64754E-01 9.68449E-14-6.23744E-14
 -1      3509 1.99242E+01 2.51788E-01 6.42256E-04-1.99113E-01 6.51779E-14-1.08419E-13
 -1      3510 1.99830E+01 1.64457E-01 5.63550E-04-1.41225E-01 8.50529E-14-1.01600E-13
 -1      3511 1.99839E+01 1.43887E-01-7.36487E-04-1.18795E-01 1.42661E-13 9.44424E-14
 -1      3512 1.99520E+01 1.97750E-01 4.81474E-04-1.46706E-01 1.23843E-13-1.26478E-13
 -1      3513 1.99931E+01 1.26009E-01 4.62908E-04-1.00522E-01 1.75048E-13 1.14072E-13
 -1      3514 1.99931E+01 1.09195E-01-5.70325E-04-8.31939E-02 2.37003E-13 1.57616E-13
 -1      3515 1.99716E+01 1.52472E-01 3.49269E-04-1.05507E-01 1.67682E-13-1.66182E-13
 -1      3516 1.99993E+01 9.47180E-02 3.72245E-04-6.92577E-02 1.68333E-13 1.69101E-13
 -1      3517 1.99987E+01 8.12377E-02-4.22545E-04-5.61235E-02 2.89262E-13-2.67257E-14
 -1      3518 1.99849E+01 1.15375E-01 2.51760E-04-7.36875E-02 1.95096E-13 1.46892E-13
 -1      3519 2.00027E+01 6.94916E-02 2.50676E-04-4.56156E-02 3.16857E-13-1.49912E-13
 -1      3520 2.00021E+01 5.88880E-02-2.33689E-04-3.60347E-02 2.44288E-13-1.63476E-13
 -1      3521 1.99933E+01 8.55600E-02 1.91250E-04-4.94994E-02 2.34000E-13 4.12171E-14
 -1      3522 2.14283E+01-1.86409E+00 3.15371E-02-2.20510E+00-1.56111E-13 2.24508E-14
 -1      3523 2.08427E+01-1.38773E+00 3.18969E-02-2.32750E+00-1.30362E-13-6.31786E-15
 -1      3524 2.04714E+01-9.60046E-01 9.22071E-03-2.21095E+00-1.40191E-13-3.82950E-14
 -1      3525 2.01699E+01-5.85545E-01 1.02341E-02-2.17101E+00-1.06497E-13-9.01348E-14
 -1      3526 1.99149E+01-1.21014E+00-2.80150E-02-2.60972E+00-1.65166E-13-5.88219E-14
 -1      3527 2.00482E+01-2.86869E-01 1.04965E-02-2.01583E+00-5.33710E-14-9.91155E-14
 -1      3528 1.98773E+01-5.22754E-02 2.78569E-03-1.93468E+00-5.88891E-14-4.09798E-14
 -1      3529 1.95057E+01-3.78154E-01-1.44239E-02-2.24707E+00-1.04466E-13-7.73533E-14
 -1      3530 2.63185E+01-2.02463E+00-7.16413E-02 1.11735E+00 6.94583E-15 3.24418E-13
 -1      3531 2.01862E+01 1.77887E+00 4.89591E-04-4.56237E-01-1.40176E-13-2.77916E-13
 -1      3532 2.00119E+01 5.70795E-01 1.37333E-03-9.46852E-01 4.68366E-14-1.31012E-13
 -1      3533 2.00322E+01 5.90137E-01-5.40560E-04-8.42210E-01 7.38688E-14-1.21163E-13
 -1      3534 1.98296E+01 3.65506E-01 5.01958E-03-1.56778E+00-4.64635E-14-1.07692E-13
 -1      3535 1.97977E+01 4.33904E-01-1.57618E-03-1.46893E+00-3.70593E-14-1.35600E-13
 -1      3536 2.14930E+01-2.00525E+00 4.08742E-02 2.26064E+00-2.03755E-13 9.92023E-15
 -1      3537 2.20878E+01-2.62042E+00-8.41072E-03 2.12700E+00-2.16995E-13-2.78944E-15
 -1      3538 1.97809E+01 1.43328E-01 1.30552E-03 1.71765E+00 1.66483E-13 1.54531E-13
 -1      3539 1.99210E+01-5.48003E-02 8.90362E-03 1.81465E+00-2.31632E-14 2.69344E-13
 -1      3540 1.97136E+01 3.99755E-01-1.17328E-03 1.46640E+00 2.63587E-13 1.34702E-13
 -1      3541 1.97823E+01 2.94198E-01 6.20321E-03 1.57104E+00 2.70715E-13 1.74677E-13
 -1      3542 1.93257E+01 3.10678E-01-4.33243E-03 1.68665E+00 2.10686E-13 9.20655E-14
 -1      3543 1.97245E+01 5.17345E-01-2.23739E-03 1.23451E+00 1.63771E-14 1.14254E-13
 -1      3544 1.97544E+01 4.74229E-01 4.30074E-03 1.33744E+00 1.55800E-13 9.84360E-14
 -1      3545 1.93768E+01 5.30783E-01-9.32898E-04 1.40392E+00 2.04843E-13 1.86959E-13
 -1      3546 1.97680E+01 5.46103E-01-2.57037E-03 1.02564E+00 5.10703E-14 2.14676E-13
 -1      3547 1.97789E+01 5.41909E-01 3.05736E-03 1.12227E+00 1.61067E-14 1.53369E-13
 -1      3548 1.94722E+01 6.19262E-01 7.08675E-04 1.16256E+00 1.32026E-14 2.67505E-13
 -1      3549 1.98199E+01 5.22342E-01-2.54037E-03 8.40359E-01-2.46758E-14 1.41703E-13
 -1      3550 1.98228E+01 5.40515E-01 2.31236E-03 9.28266E-01 5.76747E-14 2.36716E-13
 -1      3551 1.95774E+01 6.25761E-01 1.33603E-03 9.55548E-01 4.96094E-14 1.42005E-13
 -1      3552 1.98686E+01 4.70656E-01-2.33718E-03 6.78497E-01 1.93074E-14 1.51900E-13
 -1      3553 1.98691E+01 5.00152E-01 1.87078E-03 7.56375E-01 1.50966E-14 1.12416E-13
 -1      3554 1.96755E+01 5.85046E-01 1.46329E-03 7.77418E-01-1.96243E-14 1.42129E-13
 -1      3555 1.99095E+01 4.07058E-01-2.05552E-03 5.39442E-01 4.64753E-14 9.05832E-14
 -1      3556 1.99100E+01 4.40789E-01 1.58154E-03 6.06820E-01 3.23379E-14 6.41260E-14
 -1      3557 1.97596E+01 5.20199E-01 1.34628E-03 6.24754E-01 5.76664E-14 1.23365E-13
 -1      3558 1.99415E+01 3.41414E-01-1.74926E-03 4.22025E-01-1.42497E-13 2.73592E-13
 -1      3559 1.99427E+01 3.75087E-01 1.36506E-03 4.79073E-01-4.95415E-14 1.62508E-13
 -1      3560 1.98278E+01 4.46177E-01 1.13203E-03 4.95140E-01-5.38194E-14 1.28394E-13
 -1      3561 1.99652E+01 2.79384E-01-1.45058E-03 3.24580E-01-2.31599E-13 3.10871E-13
 -1      3562 1.99673E+01 3.10598E-01 1.18158E-03 3.71926E-01-2.06483E-13 3.29455E-13
 -1      3563 1.98809E+01 3.72153E-01 8.99498E-04 3.86482E-01-2.12777E-13 2.50323E-13
 -1      3564 1.99820E+01 2.23872E-01-1.17689E-03 2.45077E-01-1.21895E-13 3.43033E-13
 -1      3565 1.99846E+01 2.51455E-01 1.01399E-03 2.83646E-01-1.62683E-13 3.87177E-13
 -1      3566 1.99210E+01 3.03337E-01 6.85628E-04 2.96707E-01-2.15682E-13 3.61863E-14
 -1      3567 1.99933E+01 1.76038E-01-9.36586E-04 1.81294E-01 1.64761E-14 6.95853E-14
 -1      3568 1.99962E+01 1.99590E-01 8.57583E-04 2.12159E-01 3.71522E-14 2.85916E-13
 -1      3569 1.99503E+01 2.42333E-01 5.04960E-04 2.23670E-01 5.97476E-15 1.68082E-13
 -1      3570 2.00004E+01 1.35975E-01-7.32352E-04 1.30966E-01-9.72760E-14 1.23889E-15
 -1      3571 2.00034E+01 1.55563E-01 7.13066E-04 1.55243E-01-1.03067E-13 8.11611E-14
 -1      3572 1.99710E+01 1.90074E-01 3.60335E-04 1.65186E-01-3.94092E-14 1.23329E-13
 -1      3573 2.00045E+01 1.03165E-01-5.64021E-04 9.19230E-02-5.91538E-14 1.04116E-14
 -1      3574 2.00074E+01 1.19117E-01 5.82534E-04 1.10687E-01-7.25534E-14 2.66980E-14
 -1      3575 1.99851E+01 1.46471E-01 2.49302E-04 1.19108E-01-8.71440E-14 2.74199E-13
 -1      3576 2.00064E+01 7.67533E-02-4.29837E-04 6.21793E-02-1.47458E-13 2.24555E-13
 -1      3577 2.00090E+01 8.95426E-02 4.67507E-04 7.64119E-02-4.86109E-14 6.77508E-14
 -1      3578 1.99942E+01 1.10846E-01 1.66437E-04 8.34118E-02-1.69072E-13 1.71609E-13
 -1      3579 2.00067E+01 5.57802E-02-3.25578E-04 3.99366E-02 9.22058E-14 5.21668E-14
 -1      3580 2.00091E+01 6.59720E-02 3.87019E-04 5.05646E-02 1.95131E-15 1.40005E-13
 -1      3581 1.99997E+01 8.22052E-02 1.01070E-04 5.63140E-02-3.36579E-14 2.79288E-13
 -1      3582 2.00063E+01 3.92784E-02-1.59502E-04 2.39059E-02 1.61295E-13 4.32614E-14
 -1      3583 2.00083E+01 4.71445E-02 2.94554E-04 3.15242E-02 1.49875E-13 1.53099E-13
 -1      3584 2.00024E+01 5.91288E-02-6.67411E-05 3.61029E-02 2.80233E-14 2.59957E-13
 -1      3585 2.35895E+01-3.22605E+00 5.21458E-02 1.66216E+00-1.96370E-13-4.92423E-14
 -1      3586 2.00033E+01 2.84795E-02-1.52619E-04 1.27187E-02 2.24963E-14 2.36157E-13
 -1      3587 2.00050E+01 2.52564E-02 1.85544E-05 1.19753E-02 2.94399E-14 2.19327E-13
 -1      3588 2.00058E+01 2.83956E-02 2.01772E-05 1.46176E-02 1.78920E-14 1.25797E-13
 -1      3589 2.00020E+01 3.75181E-02 2.77887E-05 1.63715E-02 7.19942E-14 3.25880E-13
 -1      3590 1.99853E+01 6.75332E-02-7.18629E-05-6.72070E-03-2.87053E-15-5.59068E-13
 -1      3591 1.99843E+01 6.83870E-02-1.69659E-04-2.71234E-03 1.84980E-13-7.05947E-13
 -1      3592 1.98643E+01 4.83471E-01 3.43119E-03-1.35441E+00-8.51207E-16-1.39097E-13
 -1      3593 1.98603E+01 5.14421E-01-1.73179E-03-1.25514E+00 2.90295E-14-1.42666E-13
 -1      3594 1.95736E+01 5.47531E-01-3.63244E-04-1.38928E+00-3.28675E-14-1.42347E-13
 -1      3595 1.98676E+01 1.30343E-01 7.26521E-03-1.79101E+00-3.71093E-14-7.40986E-14
 -1      3596 1.97852E+01 2.64746E-01-4.13408E-04-1.69571E+00-1.73320E-14-9.87723E-14
 -1      3597 1.94596E+01 4.03099E-01-2.41500E-03-1.63532E+00-5.67084E-14-1.47753E-13
 -1      3598 1.94115E+01 1.19947E-01-6.63362E-03-1.91913E+00-3.65083E-14-1.21381E-13
 -1      3599 2.00053E+01-3.14470E-01 6.47592E-03 1.97527E+00-1.95406E-13 3.31686E-13
 -1      3600 2.02653E+01-6.37595E-01 1.21203E-02 2.04277E+00-2.04822E-13 2.86290E-13
 -1      3601 1.93832E+01-1.07118E-01-1.03640E-02 2.01576E+00-8.28263E-14 2.37303E-13
 -1      3602 2.05176E+01-1.03409E+00 1.78226E-02 2.19751E+00-2.49212E-13 2.71072E-13
 -1      3603 2.09515E+01-1.50369E+00 1.21643E-02 2.19047E+00-2.50924E-13 1.27707E-13
 -1      3604 2.03777E+01-1.81089E+00-1.50951E-02 2.71432E+00-2.65170E-13 1.33764E-13
 -1      3605 1.96645E+01-7.96504E-01-1.67627E-02 2.38096E+00-2.43072E-13 2.89551E-13
 -1      3606 2.22447E+01-3.22909E+00-2.40057E-02 2.51504E+00-2.07533E-13-8.89080E-14
 -1      3607 2.06375E+01-2.78944E+00 6.80016E-02 3.44120E+00-3.33345E-13 4.89452E-14
 -1      3608 1.17934E+01 4.31016E-01 4.31801E-02 1.47171E+00 7.53571E-14-3.01363E-13
 -1      3609 1.14115E+01 6.14183E-01 7.08036E-02-1.40623E-01 3.28470E-14-3.70592E-13
 -1      3610 2.00919E+01 6.17448E-01 4.61808E-04-7.37159E-01 8.40662E-14-1.27252E-13
 -1      3611 2.01183E+01 6.56118E-01 4.84861E-04-6.22228E-01 1.05288E-13-1.21048E-13
 -1      3612 1.99763E+01 7.00219E-01 7.81375E-04-7.53148E-01 6.64408E-14-1.75867E-13
 -1      3613 1.98104E+01 2.51639E+00-4.16625E-03-9.96770E-02 4.38802E-14-2.58195E-13
 -1      3614 1.98401E+01 2.47122E+00-3.93543E-03-1.85999E-01 6.37766E-15-2.66717E-13
 -1      3615 1.99419E+01 2.18966E+00 7.14363E-03-1.53971E-01-1.24728E-14-2.33803E-13
 -1      3616 2.01466E+01 8.36461E-01 5.20432E-04 3.95485E-01-4.08988E-15-2.06967E-13
 -1      3617 2.01114E+01 7.60819E-01-8.45111E-04 5.21085E-01-1.39094E-14-1.88304E-13
 -1      3618 2.00203E+01 8.36294E-01 1.37936E-03 5.34589E-01 3.89445E-16-1.62073E-13
 -1      3619 2.02927E+01 1.14676E+00 3.57467E-04 1.55965E-01 1.66292E-13-1.12725E-13
 -1      3620 2.02474E+01 1.33732E+00-1.31835E-03 2.04013E-01 1.84028E-13-1.39735E-13
 -1      3621 2.02699E+01 1.01691E+00-1.69997E-03-1.13422E-02 1.67705E-13-1.24111E-13
 -1      3622 1.36119E+01-9.55739E-01 5.17831E-02 3.97917E+00-1.58290E-13 3.71869E-13
 -1      3623 1.16159E+01-2.09606E-02 8.88472E-02 2.67798E+00-3.69600E-14 3.47146E-13
 -1      3624 1.32225E+01-1.09386E+00 1.21959E-01-4.22157E+00-2.33868E-13-3.80806E-13
 -1      3625 1.51631E+01-1.92453E+00 2.30910E-02-4.63272E+00-2.53526E-13-3.17676E-13
 -1      3626 1.32468E+01-5.23578E-01 8.39718E-02-3.37858E+00-1.65045E-13-3.83554E-13
 -1      3627 1.90382E+01-2.62973E+00 3.81873E-03 3.98359E+00 1.45979E-13 7.07871E-14
 -1      3628 1.72396E+01-1.79840E+00 1.03822E-01 4.22383E+00 1.75916E-13 2.34465E-14
 -1      3629 2.19071E+01-3.03667E+00-2.28159E-02 2.60355E+00 6.37589E-14 9.91082E-14
 -1      3630 2.01657E+01-2.59720E+00 6.70346E-02 3.59058E+00 1.10816E-13 7.35570E-14
 -1      3631 1.99322E+01 5.37743E-01 2.30581E-03-1.14943E+00 2.85828E-14-1.64187E-13
 -1      3632 1.99434E+01 5.53793E-01-1.31042E-03-1.04915E+00 1.75692E-14-1.23367E-13
 -1      3633 1.97108E+01 6.14873E-01 5.05537E-04-1.16868E+00 1.54619E-14-1.62122E-13
 -1      3634 2.01826E+01 1.50451E+00-1.07481E-03 1.84169E-01 1.91393E-13-1.46590E-13
 -1      3635 1.65090E+01-1.22815E+00 3.74689E-02 3.73403E+00 1.70228E-13-9.45979E-14
 -1      3636 1.99746E+01 1.91990E+00-3.67164E-03 1.17283E-01 1.53515E-13-1.88174E-13
 -1      3637 1.99325E+01 1.99356E+00-3.34247E-03 7.53954E-02 1.35431E-13-2.18477E-13
 -1      3638 1.13533E+01 3.62607E-01 9.93096E-02 1.88318E+00 4.04052E-14 2.70305E-13
 -1      3639 1.12109E+01 5.56297E-01 3.13119E-03 7.62893E-01 1.43385E-13 2.43167E-13
 -1      3640 1.29618E+01 2.44984E-01 5.02803E-02 2.31672E+00-3.21691E-14 2.60989E-13
 -1      3641 2.01160E+01 1.00417E+00 1.50160E-03 3.06318E-01-1.16477E-14-2.02158E-13
 -1      3642 2.02117E+01 1.20767E+00-2.21502E-03 1.38788E-03-8.87138E-14-2.38304E-13
 -1      3643 2.01600E+01 1.27051E+00 2.04140E-03 6.00958E-02-5.03069E-14-2.50115E-13
 -1      3644 2.02166E+01 1.38086E+00-1.42990E-03-1.55834E-01-1.05139E-13-2.56191E-13
 -1      3645 1.99809E+01 8.03761E-02 3.49187E-04 2.06982E-05 2.27440E-14-4.54085E-13
 -1      3646 1.99843E+01 6.83993E-02-1.68297E-04 2.68697E-03 4.44997E-14-3.16180E-13
 -1      3647 1.99853E+01 6.75439E-02-7.82182E-05 6.74669E-03 8.45492E-14-5.15041E-14
 -1      3648 1.52084E+01-1.14025E+00 7.36305E-02-4.08530E+00 2.86660E-13 3.34496E-13
 -1      3649 1.68290E+01-1.54055E+00 2.78046E-02-3.92639E+00 2.21460E-13 3.69677E-13
 -1      3650 2.43803E+01-3.61636E+00 5.20699E-02-1.39363E+00 1.71295E-13-1.46699E-13
 -1      3651 2.01651E+01 7.09520E-01-5.17494E-04-5.06972E-01 1.40262E-13-1.27335E-13
 -1      3652 2.01955E+01 7.82593E-01 1.30199E-03-3.73807E-01 1.51399E-13-1.14537E-13
 -1      3653 2.00854E+01 7.91304E-01 1.07136E-03-5.31682E-01 1.13496E-13-1.64486E-13
 -1      3654 2.13723E+01-2.75738E+00 1.17438E-02-2.87412E+00-2.03054E-13-4.67230E-14
 -1      3655 1.99142E+01-2.37628E+00-2.81064E-02-3.44235E+00-2.03771E-13-1.60575E-13
 -1      3656 2.00047E+01 5.05910E-02 1.86201E-04-3.03341E-02 1.99929E-13-2.77656E-13
 -1      3657 2.00042E+01 4.27236E-02-9.54025E-05-2.39540E-02 1.04317E-13-2.29624E-13
 -1      3658 2.00023E+01 4.52987E-02-6.97556E-05-2.32458E-02-1.43735E-13-3.14777E-13
 -1      3659 1.99990E+01 6.26046E-02 7.60117E-05-3.37002E-02 1.72976E-13 5.69741E-14
 -1      3660 2.22570E+01-3.20545E+00 7.50664E-02-2.67470E+00-2.42381E-13-1.20398E-14
 -1      3661 2.32448E+01-3.63325E+00 3.30443E-02-2.27807E+00-1.87191E-13-1.95156E-14
 -1      3662 1.98822E+01 2.28504E+00 6.24468E-03-4.85793E-02 5.51088E-14-2.39325E-13
 -1      3663 1.98489E+01 6.52842E-01 7.41174E-04-9.60931E-01 5.59859E-14-1.78328E-13
 -1      3664 1.99897E+01 6.23935E-02 7.26383E-05-1.50660E-02-2.41330E-13-1.47389E-13
 -1      3665 1.99870E+01 6.47706E-02-2.46767E-04-1.16616E-02-1.10844E-13-3.47546E-13
 -1      3666 1.99832E+01 7.77777E-02 3.75757E-04-1.11599E-02 1.30415E-15-6.15889E-13
 -1      3667 2.00068E+01 3.18188E-02 1.08160E-04 1.80218E-02 9.28523E-14 1.08263E-13
 -1      3668 1.17620E+01 6.16933E-01 7.68529E-02-8.06671E-01-1.19368E-14-3.65166E-13
 -1      3669 1.23208E+01 4.25329E-01 1.77101E-02-1.59093E+00-7.69445E-14-3.74742E-13
 -1      3670 1.27968E+01 7.71477E-01 4.23472E-02-1.42554E-01 3.07315E-14-3.06411E-13
 -1      3671 2.00038E+01 4.09639E-02 2.13050E-05 2.15925E-02 3.52559E-14 4.68968E-13
 -1      3672 2.00013E+01 4.55998E-02-1.12059E-04 2.20552E-02 4.58947E-14 5.14971E-13
 -1      3673 1.99935E+01 5.62487E-02-2.54113E-04 1.87267E-02 1.42121E-14-1.53762E-13
 -1      3674 1.99973E+01 5.23364E-02 1.10652E-04 2.07365E-02 2.08544E-14 1.49358E-13
 -1      3675 1.99990E+01 5.64684E-02 2.19683E-04 2.64445E-02-9.85543E-14 2.94517E-13
 -1      3676 1.30534E+01 3.19251E-01 7.70960E-02 2.14904E+00 9.33481E-14-2.65381E-13
 -1      3677 1.34462E+01 6.50714E-01 1.23921E-02 1.26948E+00 4.20029E-14-2.47739E-13
 -1      3678 1.43573E+01-1.73203E-02-2.94278E-02 2.62517E+00 1.30068E-13-2.11704E-13
 -1      3679 1.99308E+01 1.99428E+00-3.94600E-03-6.76270E-02 1.98625E-14-2.09751E-13
 -1      3680 1.99763E+01 1.92742E+00-2.10977E-03-1.11323E-01-2.72602E-14-2.03385E-13
 -1      3681 1.13139E+01 1.80694E-01 9.00157E-02-1.90814E+00 2.69465E-13 2.58904E-13
 -1      3682 2.32997E+01-3.48373E+00-5.87881E-03-1.91079E+00 1.27509E-13-1.58150E-14
 -1      3683 2.24869E+01-2.99899E+00 5.66198E-02-2.24438E+00 2.31762E-13-1.35587E-13
 -1      3684 1.99585E+01 1.82713E+00 6.49025E-03 2.34245E-02 1.34454E-13-2.11197E-13
 -1      3685 1.99034E+01 2.04129E+00-3.60035E-03 5.74204E-02 1.24195E-13-2.35199E-13
 -1      3686 1.98888E+01 2.06630E+00-3.37529E-03 1.33757E-02 9.57496E-14-2.39308E-13
 -1      3687 1.70592E+01-2.28616E+00 6.40893E-02-4.55937E+00-2.51851E-13-2.62089E-13
 -1      3688 1.85069E+01-2.44951E+00-4.32862E-03-4.16749E+00-2.53046E-13-2.42056E-13
 -1      3689 1.61400E+01-1.49267E+00 2.63945E-02-4.07937E+00-2.16303E-13-3.04423E-13
 -1      3690 1.54213E+01-1.22933E+00 7.28978E-02 4.06816E+00-2.25623E-13 4.37938E-13
 -1      3691 1.48577E+01-4.53443E-01 1.73080E-02 3.30927E+00-1.36655E-13 2.40218E-13
 -1      3692 1.71101E+01-1.43707E+00 2.96487E-02 3.77617E+00-2.91901E-13 9.55278E-14
 -1      3693 2.55605E+01-3.53277E+00-6.81939E-02 5.17872E-01 1.30094E-13 2.43146E-13
 -1      3694 2.30456E+01-3.99912E+00-5.64461E-02-2.58777E+00 2.20779E-13-5.20851E-14
 -1      3695 1.42950E+01-5.82280E-01 2.02718E-02-3.50100E+00 2.85246E-13 2.91305E-13
 -1      3696 2.16083E+01-3.65235E+00 1.06892E-01-3.61751E+00 2.74837E-13 2.06519E-14
 -1      3697 2.01314E+01-3.01304E+00 3.86677E-02-3.73728E+00 2.92679E-13 1.67095E-13
 -1      3698 2.11014E+01-2.91166E+00-3.57224E-02-2.99759E+00 2.15028E-13 5.30825E-16
 -1      3699 2.00002E+01 4.73432E-02-1.43506E-04-2.21556E-02-2.32289E-13-2.45060E-13
 -1      3700 2.00696E+01 1.61760E+00 2.94341E-03-4.70085E-02-3.87022E-14-1.99668E-13
 -1      3701 2.00686E+01 1.75973E+00-1.97377E-03-1.49157E-01-6.62327E-14-2.28577E-13
 -1      3702 1.99974E+01 5.81420E-02 8.66722E-05-2.61450E-02-1.62287E-13-2.83678E-13
 -1      3703 1.99972E+01 5.20303E-02 9.24855E-05-2.04373E-02-2.99641E-13-3.83515E-13
 -1      3704 1.99935E+01 5.58387E-02-3.00814E-04-1.86372E-02-2.84480E-13-2.58206E-13
 -1      3705 1.99948E+01 6.68860E-02-1.43625E-04-3.15188E-02-5.25782E-14-2.64242E-13
 -1      3706 2.00264E+01 1.82561E+00-3.44798E-03 1.34220E-01 1.64066E-13-1.53164E-13
 -1      3707 2.00403E+01 1.68553E+00 7.07122E-03 4.08349E-02 1.59158E-13-1.42940E-13
 -1      3708 2.00897E+01 1.70346E+00-4.09074E-03 1.70158E-01 2.00562E-13-1.31412E-13
 -1      3709 1.95791E+01-2.38021E+00 7.69019E-03 3.54195E+00-3.12845E-13 1.73334E-14
 -1      3710 1.99870E+01 6.48159E-02-2.44185E-04 1.17028E-02 1.77022E-13-4.99590E-14
 -1      3711 1.99898E+01 6.23404E-02 3.72639E-05 1.50661E-02 7.86665E-14-6.95073E-14
 -1      3712 1.99831E+01 7.77448E-02 3.07741E-04 1.12500E-02 3.82106E-14-9.35651E-14
 -1      3713 1.97153E+01-1.75109E+00 1.83390E-02 3.01135E+00-3.19430E-13 4.47641E-14
 -1      3714 1.82548E+01-1.64947E+00 3.02935E-02 3.64411E+00-3.63166E-13-5.67064E-14
 -1      3715 1.73518E+01-9.36032E-01-8.57752E-03 3.26988E+00-2.77229E-13 9.37618E-16
 -1      3716 1.92007E+01-1.15698E+00 5.27161E-03 2.83102E+00-2.32177E-13 1.66540E-13
 -1      3717 1.96496E+01 7.71115E-01-2.45834E-03 8.04765E-01 5.56608E-15-6.01662E-14
 -1      3718 1.95711E+01 7.50033E-01 1.00105E-03 9.02324E-01 2.08733E-14-5.09878E-14
 -1      3719 1.94347E+01 7.26670E-01-3.40112E-03 9.98228E-01 3.20404E-14-5.54759E-14
 -1      3720 1.93552E+01 7.02031E-01 2.37993E-03 1.10202E+00 6.15970E-14-5.84021E-14
 -1      3721 1.93615E+01 8.28487E-01 2.85986E-03 8.56120E-01 3.65767E-14-4.08277E-14
 -1      3722 1.91994E+01 6.63591E-01-4.42085E-03 1.21464E+00 8.44723E-14-7.46388E-14
 -1      3723 1.91297E+01 6.14769E-01 4.46150E-03 1.33274E+00 7.44390E-14-7.90208E-14
 -1      3724 1.90771E+01 7.82913E-01 2.91899E-03 1.05734E+00 5.95537E-14-4.22000E-14
 -1      3725 1.89599E+01 5.37723E-01-5.47425E-03 1.47458E+00 8.26210E-14-7.05667E-14
 -1      3726 1.89192E+01 4.39308E-01 7.69395E-03 1.61608E+00 8.86286E-14-6.72334E-14
 -1      3727 1.87616E+01 6.94864E-01 2.68943E-03 1.30428E+00 6.25001E-14-9.34711E-14
 -1      3728 1.87481E+01 2.91414E-01-6.58989E-03 1.80371E+00 6.09306E-14-9.51441E-14
 -1      3729 1.87678E+01 1.13283E-01 1.20613E-02 1.97612E+00 1.39712E-14-1.11369E-13
 -1      3730 1.84314E+01 5.13919E-01 2.31003E-03 1.63137E+00 6.87497E-14-1.23029E-13
 -1      3731 1.86169E+01-1.38902E-01-7.16971E-03 2.22796E+00 4.89290E-14-8.80598E-14
 -1      3732 1.87603E+01-4.46049E-01 1.46179E-02 2.44063E+00 7.33841E-14-2.46799E-14
 -1      3733 1.81328E+01 1.83172E-01 8.86904E-03 2.07560E+00 4.48320E-14-6.34588E-14
 -1      3734 2.19403E+01-2.79572E+00-2.28013E-02 2.28469E+00 7.16666E-14 1.23606E-13
 -1      3735 1.98889E+01 2.06571E+00-3.55118E-03-5.33983E-03 7.65087E-14-2.24408E-13
 -1      3736 1.99037E+01 2.04239E+00-3.34368E-03-4.99479E-02 4.11189E-14-2.17484E-13
 -1      3737 1.99565E+01 1.82630E+00 5.38438E-03-1.56407E-02 3.33646E-14-1.86444E-13
 -1      3738 1.99302E+01 1.87372E+00 6.17348E-03 4.57363E-03 8.66346E-14-2.10922E-13
 -1      3739 1.86879E+01-5.71210E-01 1.41389E-02-2.51347E+00 1.90365E-13 4.97943E-14
 -1      3740 1.85159E+01-1.97394E-01 2.90281E-04-2.28113E+00 1.21362E-13 5.57690E-14
 -1      3741 1.86296E+01 8.24214E-02 1.36510E-02-1.99274E+00 8.39068E-14-2.96765E-14
 -1      3742 1.85748E+01 2.94299E-01-4.89316E-03-1.80172E+00 1.39254E-13-2.74326E-14
 -1      3743 1.79086E+01 1.42930E-01-1.84382E-03-2.12563E+00 6.62688E-14-2.95423E-14
 -1      3744 1.87218E+01 4.58581E-01 7.64996E-03-1.59200E+00 2.68431E-14-4.38446E-14
 -1      3745 1.87393E+01 5.71683E-01-5.29722E-03-1.43795E+00-1.20088E-13-9.23233E-14
 -1      3746 1.81826E+01 5.37140E-01 1.21039E-03-1.63198E+00 8.76116E-14-2.27906E-13
 -1      3747 1.88884E+01 6.53782E-01 4.37613E-03-1.28171E+00-1.37651E-13-4.96357E-14
 -1      3748 1.89381E+01 7.01231E-01-4.69273E-03-1.15687E+00-1.72623E-13 1.29731E-13
 -1      3749 1.84765E+01 7.39974E-01 2.28813E-03-1.27472E+00-4.37953E-14-3.05374E-13
 -1      3750 1.90752E+01 7.29014E-01 2.47498E-03-1.03701E+00-2.30348E-13 2.09283E-13
 -1      3751 1.91355E+01 7.33976E-01-4.01466E-03-9.33807E-01-1.22938E-13 1.99844E-13
 -1      3752 1.87567E+01 8.17554E-01 2.60818E-03-1.00961E+00-1.14588E-13 7.84287E-14
 -1      3753 1.92560E+01 7.26818E-01 1.41809E-03-8.39023E-01 8.34920E-15 1.56631E-13
 -1      3754 1.93155E+01 7.05668E-01-3.40179E-03-7.52696E-01 1.60798E-13 1.02142E-13
 -1      3755 1.90076E+01 8.14894E-01 2.61482E-03-8.05377E-01-7.33992E-14 2.26128E-13
 -1      3756 1.94175E+01 6.78367E-01 8.29762E-04-6.76265E-01 9.36223E-14 3.03036E-14
 -1      3757 1.94708E+01 6.43072E-01-2.83866E-03-6.03364E-01-2.44707E-14-3.44540E-14
 -1      3758 1.92235E+01 7.62429E-01 2.34035E-03-6.43778E-01 1.16678E-14 7.81169E-14
 -1      3759 1.95551E+01 6.05355E-01 5.51044E-04-5.40723E-01-5.63497E-14 9.08354E-14
 -1      3760 1.96000E+01 5.63705E-01-2.37318E-03-4.79222E-01-4.48864E-15 4.26507E-15
 -1      3761 1.94040E+01 6.83425E-01 2.06797E-03-5.12716E-01-1.27799E-15 1.67524E-13
 -1      3762 1.96683E+01 5.22224E-01 4.03762E-04-4.27720E-01 3.19462E-14 3.49137E-14
 -1      3763 1.97045E+01 4.79459E-01-1.97193E-03-3.76180E-01 1.22071E-14 9.97383E-14
 -1      3764 1.95513E+01 5.92627E-01 1.75040E-03-4.05202E-01 4.33120E-14 2.23461E-13
 -1      3765 1.97586E+01 4.38446E-01 3.28296E-04-3.33958E-01-4.24470E-14 3.16351E-14
 -1      3766 1.97869E+01 3.97786E-01-1.62214E-03-2.91227E-01 1.61202E-14 1.21823E-13
 -1      3767 1.96692E+01 5.00295E-01 1.44476E-03-3.16806E-01 5.66543E-14 2.60181E-13
 -1      3768 1.98290E+01 3.59748E-01 2.84779E-04-2.56882E-01-5.27023E-14 1.98404E-13
 -1      3769 1.98504E+01 3.22998E-01-1.31791E-03-2.21917E-01-6.68073E-14 1.48638E-13
 -1      3770 1.97615E+01 4.12800E-01 1.16739E-03-2.44437E-01 2.38456E-14 1.46486E-13
 -1      3771 1.98825E+01 2.89237E-01 2.53424E-04-1.94281E-01-7.20089E-14 1.18585E-13
 -1      3772 1.98983E+01 2.57223E-01-1.05604E-03-1.66081E-01 3.49620E-15-3.83241E-15
 -1      3773 1.98323E+01 3.33764E-01 9.25371E-04-1.85703E-01-6.13293E-14 3.30529E-13
 -1      3774 1.99222E+01 2.28229E-01 2.25725E-04-1.44129E-01 1.90606E-13-2.70903E-14
 -1      3775 1.99334E+01 2.01131E-01-8.32326E-04-1.21731E-01 2.04386E-13 2.34055E-14
 -1      3776 1.98856E+01 2.64860E-01 7.20535E-04-1.38579E-01 8.81838E-14 2.38048E-13
 -1      3777 1.99508E+01 1.76881E-01 2.01515E-04-1.04530E-01 8.82027E-14-4.86918E-14
 -1      3778 1.99585E+01 1.54429E-01-6.53088E-04-8.70136E-02 1.44980E-13-6.97130E-14
 -1      3779 1.99247E+01 2.06466E-01 5.57284E-04-1.01274E-01 1.21354E-13 1.11113E-13
 -1      3780 1.99709E+01 1.34530E-01 1.71336E-04-7.37895E-02 1.32005E-13-1.44133E-13
 -1      3781 1.99758E+01 1.16338E-01-5.04184E-04-6.03636E-02 2.94926E-13-9.93293E-15
 -1      3782 1.99526E+01 1.58050E-01 4.27491E-04-7.21451E-02 1.53565E-13-3.04829E-14
 -1      3783 1.99843E+01 1.00318E-01 1.49545E-04-5.03375E-02 3.10388E-13-1.39269E-13
 -1      3784 1.99876E+01 8.58677E-02-2.19106E-04-4.01157E-02 1.58177E-13-2.66754E-13
 -1      3785 1.99719E+01 1.18619E-01 2.86237E-04-4.98983E-02 2.00690E-13-2.18905E-13
 -1      3786 2.01363E+01 1.64285E+00 1.58504E-03-1.85593E-01-1.01953E-13-2.47210E-13
 -1      3787 1.92284E+01 7.20450E-01-4.33566E-03 1.03376E+00 1.24750E-13 2.18359E-13
 -1      3788 1.91818E+01 7.13915E-01 3.20297E-03 1.14102E+00 1.49272E-13 3.28507E-13
 -1      3789 1.90489E+01 6.81655E-01-4.97482E-03 1.26599E+00 5.71787E-14 2.96122E-13
 -1      3790 1.90172E+01 6.28995E-01 5.45647E-03 1.39307E+00 1.49599E-13 1.92619E-13
 -1      3791 1.88308E+01 8.04395E-01 3.24819E-03 1.12762E+00 7.57423E-14 2.51416E-13
 -1      3792 1.89616E+01-2.88480E-01 1.73104E-02-2.35266E+00-1.23279E-13-1.16254E-13
 -1      3793 1.88339E+01-8.85093E-03-3.97261E-03-2.16605E+00-7.97189E-14-1.10186E-13
 -1      3794 2.01715E+01 1.39289E+00 4.68288E-03 5.33614E-02 1.61564E-13-1.49393E-13
 -1      3795 1.87552E+01 2.25861E-01-4.84384E-03 1.91743E+00 6.82764E-14-8.01973E-14
 -1      3796 1.88437E+01-1.01633E-02 1.40485E-02 2.10228E+00-9.90677E-14 5.39159E-14
 -1      3797 2.01906E+01 1.60958E+00 2.60439E-03-2.78470E-01-1.21751E-13-2.59934E-13
 -1      3798 1.88764E+01 5.36375E-01-5.30555E-03 1.55343E+00 1.62595E-13 4.09425E-14
 -1      3799 1.88856E+01 4.10807E-01 9.37218E-03 1.70588E+00 8.54170E-14-7.05886E-14
 -1      3800 1.82991E+01 4.73599E-01-4.54013E-04 1.77328E+00 4.68857E-14-1.92102E-13
 -1      3801 1.85664E+01 7.10930E-01 2.50120E-03 1.40505E+00 7.67005E-15 1.03526E-13
 -1      3802 1.93934E+01 6.94914E-01-3.68359E-03 8.41509E-01-2.86893E-14 2.07885E-13
 -1      3803 1.93453E+01 7.15676E-01 1.94025E-03 9.33354E-01 8.58442E-14 2.19777E-13
 -1      3804 1.90707E+01 8.07953E-01 3.28333E-03 9.11630E-01 1.71978E-13 3.21083E-13
 -1      3805 1.95357E+01 6.33071E-01-3.12623E-03 6.79823E-01 3.40673E-14 1.94091E-13
 -1      3806 1.94924E+01 6.68666E-01 1.30186E-03 7.58718E-01-7.51873E-15 2.59607E-13
 -1      3807 1.92774E+01 7.58537E-01 3.04278E-03 7.36999E-01-1.34818E-14 3.52392E-13
 -1      3808 1.96532E+01 5.54085E-01-2.63996E-03 5.43417E-01 9.32317E-14 1.15941E-13
 -1      3809 1.96172E+01 5.96036E-01 9.63203E-04 6.10857E-01 8.16407E-14 1.34072E-13
 -1      3810 1.94496E+01 6.80094E-01 2.63747E-03 5.92630E-01 1.01141E-13 1.19556E-13
 -1      3811 1.97472E+01 4.70407E-01-2.20602E-03 4.28833E-01-1.44268E-13 1.33027E-13
 -1      3812 1.97188E+01 5.13286E-01 7.81142E-04 4.85902E-01-7.36604E-14 8.44814E-14
 -1      3813 1.95892E+01 5.89289E-01 2.19495E-03 4.72200E-01 1.04505E-14 1.76088E-13
 -1      3814 1.98204E+01 3.89608E-01-1.82116E-03 3.33479E-01-2.45774E-13 1.47457E-13
 -1      3815 1.97988E+01 4.30176E-01 6.73554E-04 3.81131E-01-1.46709E-13 1.43198E-13
 -1      3816 1.96998E+01 4.96949E-01 1.77657E-03 3.71752E-01-1.67017E-13 1.87021E-13
 -1      3817 1.98761E+01 3.15926E-01-1.48324E-03 2.55115E-01-2.57224E-14-1.35424E-13
 -1      3818 1.98603E+01 3.52431E-01 5.94744E-04 2.94313E-01-9.24815E-14 9.63291E-14
 -1      3819 1.97857E+01 4.09641E-01 1.40560E-03 2.88537E-01-1.67879E-13 5.43678E-14
 -1      3820 1.99174E+01 2.51360E-01-1.19067E-03 1.91625E-01-6.24693E-14-1.15246E-13
 -1      3821 1.99063E+01 2.83043E-01 5.24708E-04 2.23364E-01-1.18460E-13-1.66501E-13
 -1      3822 1.98510E+01 3.30978E-01 1.08981E-03 2.20353E-01-3.48096E-14-1.30066E-13
 -1      3823 1.99474E+01 1.96464E-01-9.41891E-04 1.40960E-01-1.95637E-13 7.62426E-14
 -1      3824 1.99399E+01 2.23205E-01 4.56916E-04 1.66249E-01-3.36617E-14-2.90050E-14
 -1      3825 1.98996E+01 2.62565E-01 8.29403E-04 1.65225E-01-1.39550E-13-4.46179E-14
 -1      3826 1.99684E+01 1.50893E-01-7.34604E-04 1.01169E-01-1.12387E-13 1.28049E-13
 -1      3827 1.99636E+01 1.72961E-01 3.90962E-04 1.20987E-01-9.96418E-14 1.11575E-13
 -1      3828 1.99349E+01 2.04684E-01 6.19773E-04 1.21303E-01-1.05696E-13 2.99940E-14
 -1      3829 1.99827E+01 1.13803E-01-5.57348E-04 7.04555E-02-2.17853E-13 2.14584E-13
 -1      3830 1.99799E+01 1.31673E-01 3.28208E-04 8.57066E-02-2.17174E-13 1.46841E-13
 -1      3831 1.99599E+01 1.56791E-01 4.54797E-04 8.68630E-02-2.68179E-13 2.02121E-13
 -1      3832 1.99921E+01 8.41252E-02-3.60797E-04 4.73366E-02 9.89672E-14 2.50767E-13
 -1      3833 1.99905E+01 9.82555E-02 2.53865E-04 5.86446E-02-1.96603E-14 2.30311E-13
 -1      3834 1.99770E+01 1.17902E-01 3.27570E-04 6.02954E-02-8.22026E-14 1.37806E-13
 -1      3835 1.99966E+01 6.40154E-02-1.66982E-04 3.18077E-02-1.55852E-13 4.88876E-13
 -1      3836 1.99959E+01 7.54642E-02 2.93277E-04 4.03080E-02 1.08798E-14 3.10710E-13
 -1      3837 1.99865E+01 9.04703E-02 1.54397E-04 4.20845E-02-2.40691E-14 2.67980E-13
 -1      3838 1.99916E+01 7.04807E-02-2.59596E-04 2.99327E-02-8.92908E-14 1.05733E-13
 -1      3839 1.32120E+01 1.03626E-01 7.77564E-02-2.63168E+00-1.25783E-13-3.78385E-13
 -1      3840 1.43621E+01-5.30688E-01 1.43176E-02-3.44656E+00-1.72399E-13-3.54619E-13
 -1      3841 1.98347E+01 8.34354E-01-1.45858E-03 6.18126E-01 2.53762E-14-9.74426E-14
 -1      3842 1.97636E+01 7.98665E-01-6.08448E-05 7.16489E-01 6.25601E-15-7.99874E-14
 -1      3843 1.96072E+01 8.72069E-01 2.79483E-03 6.78216E-01 3.79584E-14-7.09774E-14
 -1      3844 1.70687E+01-1.12550E+00-1.51668E-02-3.47078E+00 1.93248E-13 3.56737E-13
 -1      3845 1.82792E+01-1.87936E+00 1.47733E-02-3.77307E+00 2.25150E-13 3.65616E-13
 -1      3846 1.92948E+01 6.34723E-01 3.78126E-03-1.35409E+00-5.98338E-14-1.51686E-13
 -1      3847 1.93550E+01 6.70188E-01-3.93185E-03-1.24139E+00-1.88622E-14-1.52767E-13
 -1      3848 2.02257E+01 8.38558E-01-1.58209E-03-2.71149E-01 1.47754E-13-1.12952E-13
 -1      3849 2.02552E+01 9.25825E-01 1.53214E-03-1.33369E-01 1.61618E-13-1.11435E-13
 -1      3850 2.02269E+01 1.07302E+00-8.48561E-04-8.25954E-02 1.52334E-13-1.56424E-13
 -1      3851 2.01689E+01 9.17542E-01 1.12522E-04-3.12925E-01 1.52270E-13-1.48801E-13
 -1      3852 1.98569E+01 7.66817E-01-5.24833E-05-7.39101E-01 7.55272E-14-1.49972E-13
 -1      3853 1.99177E+01 7.99417E-01-1.09441E-03-6.34621E-01 8.70150E-14-1.56604E-13
 -1      3854 2.00776E+01 1.14858E+00-1.44817E-03 2.09479E-01 9.18112E-15-1.79296E-13
 -1      3855 2.00388E+01 1.03705E+00-1.82516E-03 3.29955E-01 1.55923E-14-1.51174E-13
 -1      3856 1.16366E+01 7.81866E-01 1.02672E-01-7.58447E-01 2.14160E-13 2.90580E-13
 -1      3857 1.27344E+01 2.58424E-01 2.30508E-02-2.31234E+00 2.22758E-13 1.96246E-13
 -1      3858 1.40041E+01 1.19707E-01 6.31134E-02-2.69696E+00 1.49965E-13 2.14780E-13
 -1      3859 1.53101E+01-7.82163E-02 3.11915E-02-2.78714E+00 9.20249E-14 3.40058E-13
 -1      3860 1.38687E+01 6.10727E-01-1.70781E-02-1.73547E+00 2.53846E-14 2.27431E-13
 -1      3861 1.94967E+01 6.96762E-01 2.09152E-03-1.13259E+00-3.48614E-15-1.53651E-13
 -1      3862 1.95645E+01 7.12267E-01-2.93848E-03-1.02943E+00 3.52495E-14-1.64966E-13
 -1      3863 1.92267E+01 7.80686E-01 2.82724E-03-1.09669E+00-3.23423E-15-1.54582E-13
 -1      3864 1.91655E+01-1.12414E+00 9.46127E-03-2.89404E+00-1.46711E-13-1.48432E-13
 -1      3865 1.88980E+01-6.21687E-01 1.22536E-02-2.65203E+00-1.31957E-13-1.31132E-13
 -1      3866 1.81527E+01-2.71804E-01 1.84154E-03-2.57579E+00-1.09343E-13-1.66859E-13
 -1      3867 1.96879E+01 7.27931E-01 8.99884E-04-9.32634E-01 6.07028E-14-1.63020E-13
 -1      3868 1.97546E+01 7.43527E-01-2.00731E-03-8.32169E-01 6.01734E-14-1.52133E-13
 -1      3869 1.97068E+01 8.46027E-01 2.47845E-03-7.13184E-01 8.19608E-14-1.30808E-13
 -1      3870 2.59654E+01-3.53366E+00-5.11359E-03-1.88689E-01-1.29602E-13 1.51094E-13
 -1      3871 2.46170E+01-3.74493E+00 1.26757E-01-1.65865E+00-1.19077E-13 6.59403E-14
 -1      3872 1.99824E+01 9.48123E-01-7.21943E-04 4.23502E-01 1.64189E-14-1.27229E-13
 -1      3873 1.99224E+01 8.82443E-01-1.23894E-03 5.29112E-01 2.06316E-14-1.24247E-13
 -1      3874 1.98078E+01 9.50329E-01 3.16631E-03 5.06700E-01 2.60252E-14-6.13303E-14
 -1      3875 1.95197E+01-1.77735E+00 2.74816E-02-3.10190E+00 1.89526E-13 1.16378E-13
 -1      3876 1.90566E+01-1.18316E+00 1.94960E-02-2.88760E+00 1.98276E-13 9.43124E-14
 -1      3877 1.93382E+01-1.88433E+00 3.13049E-02 3.40689E+00 8.72414E-14 7.09042E-14
 -1      3878 1.74506E+01-1.24375E+00-3.78805E-02 3.46708E+00 1.52079E-13 4.94049E-15
 -1      3879 1.59078E+01-4.05607E-01 8.64778E-02 3.22682E+00 1.87297E-13-9.76250E-14
 -1      3880 1.93432E+01-2.23819E+00 3.93420E-02-3.58331E+00 2.82040E-13 1.99770E-13
 -1      3881 1.85381E+01-1.25708E+00 7.42763E-03 3.10465E+00 1.33669E-13 1.62442E-14
 -1      3882 1.42440E+01 2.90832E-02 5.76245E-02 2.85842E+00-8.52061E-14 3.11036E-13
 -1      3883 1.36782E+01 3.53183E-01-3.62531E-03 2.17340E+00 2.06649E-14 2.17770E-13
 -1      3884 1.56432E+01-2.81296E-01 2.28824E-02 2.99205E+00-1.89041E-13 9.58539E-14
 -1      3885 1.26098E+01 7.79468E-01 4.30309E-02 1.12716E-01 9.41812E-14 2.22492E-13
 -1      3886 2.00431E+01 1.46945E+00-2.41234E-03-4.08225E-02 1.74033E-13-1.27947E-13
 -1      3887 1.99885E+01 1.55981E+00-3.47469E-03-3.92747E-02 1.50006E-13-1.74661E-13
 -1      3888 1.75135E+01-2.52465E-01 2.10739E-02 2.66278E+00 1.37274E-13-9.39381E-14
 -1      3889 1.82807E+01-7.16872E-01 7.13138E-03 2.82761E+00 8.77886E-14-1.90984E-14
 -1      3890 1.99738E+01 9.28747E-02-1.64761E-04-3.15035E-03 1.76244E-16-5.43763E-13
 -1      3891 1.99739E+01 9.29222E-02-1.54101E-04 3.13522E-03-6.54791E-14-2.35795E-13
 -1      3892 1.99896E+01 6.91560E-02 2.12068E-04 2.07944E-02 2.06552E-13 2.08613E-14
 -1      3893 1.99964E+01 8.47485E-01-6.97662E-04-5.38335E-01 9.81694E-14-1.44850E-13
 -1      3894 2.00453E+01 9.08546E-01-1.79015E-03-4.19804E-01 1.09038E-13-1.39637E-13
 -1      3895 1.98859E+01 9.19109E-01 1.77450E-03-5.28199E-01 1.10497E-13-1.00686E-13
 -1      3896 1.99874E+01 8.09014E-02 1.23428E-04-3.19126E-02-4.55978E-14-3.43407E-13
 -1      3897 2.01446E+01 1.27320E+00-1.73776E-03-6.73960E-02 1.50316E-13-1.42948E-13
 -1      3898 1.99895E+01 6.87160E-02 1.60990E-04-2.04935E-02-3.10434E-13-2.79170E-13
 -1      3899 1.91044E+01 4.94412E-01 6.63456E-03-1.61521E+00-4.53521E-14-1.53692E-13
 -1      3900 1.91398E+01 5.74371E-01-4.93717E-03-1.48565E+00-5.73946E-14-1.50186E-13
 -1      3901 1.89382E+01 7.15106E-01 2.43250E-03-1.33059E+00-4.07388E-14-1.13236E-13
 -1      3902 1.36462E+01 4.72272E-01 5.18908E-02-1.77912E+00-9.14321E-14-3.55545E-13
 -1      3903 1.80513E+01-7.17228E-01-1.84496E-04-2.86968E+00 1.50305E-13 2.36318E-13
 -1      3904 1.42862E+01 7.39447E-01-1.44926E-02 1.08573E+00 8.16010E-14-2.14669E-13
 -1      3905 1.35684E+01 9.16174E-01 6.02509E-02 4.70463E-01 2.52294E-14-3.49290E-13
 -1      3906 1.36471E+01 8.79389E-01 7.81521E-03-2.02909E-01 2.14169E-14-3.34654E-13
 -1      3907 1.99496E+01 1.62606E+00-3.18238E-03-1.68880E-02 1.43618E-13-2.04886E-13
 -1      3908 1.99211E+01 1.67409E+00-3.00854E-03-1.78848E-02 1.28146E-13-2.03016E-13
 -1      3909 1.99726E+01 1.45576E+00 6.09837E-03-8.80829E-02 1.40492E-13-1.67558E-13
 -1      3910 1.61499E+01-2.59188E-01 3.43741E-02-2.96564E+00 9.90811E-14 3.45519E-13
 -1      3911 1.73935E+01-5.68689E-01 2.01726E-02-2.91353E+00 7.83121E-14 2.89730E-13
 -1      3912 1.70844E+01-8.30955E-03-1.44472E-02-2.43173E+00 1.64376E-14 1.61580E-13
 -1      3913 1.55986E+01 2.69944E-01-3.06560E-02-2.28689E+00-1.09943E-13 2.49766E-13
 -1      3914 2.41334E+01-3.58052E+00 6.79410E-02 1.51684E+00 5.91610E-14 1.64318E-13
 -1      3915 1.89676E+01 2.14856E-01 1.14620E-02-1.93970E+00-4.79664E-14-1.12806E-13
 -1      3916 1.89466E+01 3.72043E-01-5.47204E-03-1.78475E+00-3.55872E-14-1.43576E-13
 -1      3917 1.86331E+01 5.64047E-01 7.98119E-04-1.62533E+00-5.90527E-14-1.46510E-13
 -1      3918 1.83445E+01 2.63113E-01-1.73681E-03-2.02386E+00-7.78916E-14-1.28605E-13
 -1      3919 1.56181E+01 1.98936E-02 1.24555E-02 2.53569E+00 1.52190E-13-1.20744E-13
 -1      3920 1.99549E+01 1.08733E+00 1.18018E-03 3.29213E-01 2.78431E-14-9.13846E-14
 -1      3921 1.88299E+01-3.07834E-01-1.50222E-03 2.34578E+00-2.47452E-13 1.72059E-13
 -1      3922 1.90611E+01-6.99159E-01 1.80246E-02 2.55458E+00-1.98823E-13 2.17874E-13
 -1      3923 1.82637E+01-6.80028E-01-8.97631E-03 2.81203E+00-2.33103E-13 2.53103E-14
 -1      3924 1.81491E+01 2.88501E-02-6.59496E-03 2.24284E+00-7.00806E-14-9.27056E-14
 -1      3925 1.94850E+01 8.11005E-01 2.68921E-03-8.97746E-01 4.80733E-14-1.54615E-13
 -1      3926 1.99751E+01 9.09065E-02-3.27818E-04-1.10290E-02 9.24715E-14-7.18424E-13
 -1      3927 1.99695E+01 1.06409E-01 4.43328E-04-8.49369E-03-6.52644E-14-6.06769E-13
 -1      3928 1.99778E+01 8.85624E-02-1.00858E-04-1.66577E-02 2.27041E-14-5.20030E-13
 -1      3929 1.60000E+01-8.47587E-01 5.14064E-02-3.46568E+00-1.84503E-13-2.65683E-13
 -1      3930 1.85714E+01-1.74253E+00-7.21131E-04-3.50943E+00-1.88013E-13-2.20417E-13
 -1      3931 2.00827E+01 1.43954E+00-2.05514E-03 1.96307E-02-2.50751E-14-1.93080E-13
 -1      3932 2.00774E+01 1.28778E+00-2.05032E-05 1.35724E-01 6.32353E-15-1.79692E-13
 -1      3933 2.00089E+01 1.31563E+00-7.65753E-05 1.58011E-01 4.60338E-14-1.09366E-13
 -1      3934 1.99937E+01 1.60697E+00-5.73196E-04 2.60382E-02 1.75953E-14-1.60945E-13
 -1      3935 1.99237E+01 1.70835E+00-3.33077E-03 1.73231E-02 6.21658E-14-1.75622E-13
 -1      3936 1.99511E+01 1.66424E+00-2.96361E-03 1.26152E-02 3.55141E-14-1.85911E-13
 -1      3937 1.99756E+01 1.52255E+00 4.49891E-03 6.64455E-02 4.10884E-14-1.61524E-13
 -1      3938 1.70455E+01 2.59902E-01-2.44633E-02 2.06117E+00 1.17015E-13-7.48871E-14
 -1      3939 1.64471E+01 8.73650E-02-2.16924E-02 2.33961E+00 1.70617E-13-6.97142E-14
 -1      3940 1.54949E+01 6.61709E-01 6.50800E-02 1.79130E+00 1.49566E-13-8.38537E-14
 -1      3941 1.99752E+01 9.10903E-02-2.61001E-04 1.09251E-02-7.42942E-14-2.24611E-13
 -1      3942 1.99779E+01 8.87691E-02-4.94022E-05 1.67193E-02 3.29288E-14-9.04081E-14
 -1      3943 1.99695E+01 1.06491E-01 4.66922E-04 8.33823E-03-1.33636E-13-1.26226E-13
 -1      3944 2.01075E+01 1.19624E+00 2.73697E-03-1.56950E-01 1.48248E-13-1.38724E-13
 -1      3945 1.92951E+01 9.00105E-01-4.07238E-03 6.77138E-01 5.12200E-14-9.29442E-14
 -1      3946 1.91637E+01 8.88542E-01 1.41627E-04 7.64451E-01 4.93382E-14-8.28460E-14
 -1      3947 1.89652E+01 8.73038E-01-5.64526E-03 8.46833E-01 5.07879E-14-1.10099E-13
 -1      3948 1.88181E+01 8.57202E-01 1.41382E-03 9.49196E-01 3.85012E-14-1.10106E-13
 -1      3949 1.89385E+01 9.66801E-01 5.15352E-03 6.58718E-01 3.85906E-14-1.24814E-13
 -1      3950 1.85773E+01 8.25375E-01-7.76951E-03 1.05574E+00 3.18974E-14-9.51562E-14
 -1      3951 1.84190E+01 7.84922E-01 2.70378E-03 1.18640E+00 4.99394E-14-1.33311E-13
 -1      3952 1.85156E+01 9.47299E-01 6.46188E-03 8.31038E-01 4.14817E-14-1.25485E-13
 -1      3953 1.81280E+01 7.17598E-01-1.06831E-02 1.32956E+00 6.96304E-14-1.62714E-13
 -1      3954 1.79554E+01 6.21544E-01 1.24534E-04 1.51505E+00 3.77132E-14-1.92724E-13
 -1      3955 1.80131E+01 8.90312E-01 9.58584E-03 1.06504E+00 1.74187E-14-1.40415E-13
 -1      3956 1.76178E+01 5.48724E-01-1.85657E-02 1.63352E+00 6.24312E-14-1.37719E-13
 -1      3957 1.74485E+01 3.65536E-01-6.69408E-03 1.89374E+00 1.06385E-13-1.05524E-13
 -1      3958 1.67573E+01 7.73966E-01 4.75654E-02 1.54639E+00 1.57015E-13-9.45728E-14
 -1      3959 1.74482E+01 8.29131E-01 2.55131E-02 1.30241E+00 1.03290E-13-1.91754E-13
 -1      3960 1.99816E+01 8.31594E-02-3.04870E-04 2.20971E-02 1.27159E-13 1.18390E-13
 -1      3961 1.99867E+01 7.76014E-02-6.04117E-05 2.63714E-02 8.68314E-14-1.44115E-14
 -1      3962 1.99841E+01 8.70841E-02 6.75962E-05 3.16305E-02-6.79108E-14 1.82307E-13
 -1      3963 1.99749E+01 9.91222E-02 1.99029E-04 2.23260E-02-3.45841E-14-8.27522E-14
 -1      3964 1.99066E+01 1.69659E+00-3.08869E-03 4.82388E-03 9.76158E-14-1.90790E-13
 -1      3965 1.99084E+01 1.69887E+00-1.95678E-03 4.33025E-03 7.08902E-14-1.83229E-13
 -1      3966 1.99168E+01 1.54312E+00 5.64050E-03-2.64193E-02 1.11886E-13-1.70383E-13
 -1      3967 1.74473E+01 2.72124E-01 1.48921E-02-2.07533E+00 1.99147E-14 1.18678E-13
 -1      3968 1.75345E+01 4.73088E-01-1.47332E-02-1.80218E+00 5.17518E-14-4.42676E-14
 -1      3969 1.68064E+01 3.88474E-01 1.18175E-02-2.08489E+00-2.99421E-14 6.20875E-14
 -1      3970 1.78348E+01 6.35156E-01 7.77923E-03-1.56592E+00 2.83562E-14-3.13389E-16
 -1      3971 1.79609E+01 7.38146E-01-1.12255E-02-1.36981E+00-2.72123E-14-1.02448E-13
 -1      3972 1.73909E+01 7.32921E-01 9.33191E-03-1.52272E+00 1.53983E-14 1.72429E-13
 -1      3973 1.82125E+01 8.17627E-01 4.24802E-03-1.20545E+00 2.15490E-14-2.09211E-13
 -1      3974 1.83458E+01 8.57891E-01-7.84050E-03-1.06347E+00-4.81993E-14-1.61498E-13
 -1      3975 1.78932E+01 9.00697E-01 7.19561E-03-1.14502E+00-5.55945E-14 8.18071E-14
 -1      3976 1.85530E+01 8.82857E-01 2.27238E-03-9.45270E-01-7.60900E-14-6.19962E-14
 -1      3977 1.86783E+01 8.83232E-01-5.48754E-03-8.38507E-01-1.06076E-13 6.44779E-14
 -1      3978 1.83171E+01 9.56348E-01 5.95512E-03-8.81940E-01-4.41267E-14-7.41245E-15
 -1      3979 1.88488E+01 8.72287E-01 1.20072E-03-7.48517E-01-2.76219E-14 2.19734E-13
 -1      3980 1.89606E+01 8.45543E-01-4.08274E-03-6.65484E-01 6.84744E-14 2.87193E-13
 -1      3981 1.86699E+01 9.38947E-01 4.67163E-03-6.90197E-01 3.70771E-14 3.22389E-13
 -1      3982 1.90993E+01 8.13372E-01 4.90847E-04-5.96277E-01-2.01597E-14 3.63485E-13
 -1      3983 1.91946E+01 7.72614E-01-2.99238E-03-5.29571E-01 3.43875E-14 3.53003E-13
 -1      3984 1.89623E+01 8.74113E-01 3.69892E-03-5.44971E-01 6.25957E-14 5.86855E-13
 -1      3985 1.93071E+01 7.28868E-01 2.37177E-04-4.74033E-01-2.65315E-15 3.25239E-13
 -1      3986 1.93861E+01 6.80940E-01-2.30805E-03-4.19484E-01-2.46748E-14 3.52556E-13
 -1      3987 1.92012E+01 7.84439E-01 3.10023E-03-4.31204E-01-3.07670E-14 4.24564E-13
 -1      3988 1.94763E+01 6.32676E-01 7.48464E-05-3.74621E-01-1.02795E-14 3.41132E-13
 -1      3989 1.95402E+01 5.83190E-01-1.81372E-03-3.29662E-01 1.95027E-14 3.80246E-13
 -1      3990 1.93946E+01 6.82598E-01 2.52411E-03-3.39894E-01-4.90513E-15 4.48643E-13
 -1      3991 1.96117E+01 5.35049E-01 6.05296E-06-2.93240E-01-8.61423E-14 4.26510E-13
 -1      3992 1.96622E+01 4.87536E-01-1.44072E-03-2.56214E-01 9.49828E-14 3.17547E-13
 -1      3993 1.95489E+01 5.79096E-01 2.04930E-03-2.65854E-01-3.07847E-14 4.26794E-13
 -1      3994 1.97180E+01 4.42433E-01-1.64770E-05-2.26735E-01 1.50744E-13 1.90475E-13
 -1      3995 1.97571E+01 3.99019E-01-1.14695E-03-1.96441E-01-5.09580E-14 2.40852E-13
 -1      3996 1.96702E+01 4.80522E-01 1.65005E-03-2.05680E-01 1.03791E-13 3.76454E-13
 -1      3997 1.98000E+01 3.58578E-01-1.71157E-05-1.72761E-01-7.77198E-14 2.74797E-13
 -1      3998 1.98296E+01 3.20346E-01-9.09546E-04-1.48227E-01 3.27709E-15 3.01060E-13
 -1      3999 1.97641E+01 3.90863E-01 1.31373E-03-1.56978E-01-4.90056E-15 1.67855E-13
 -1      4000 1.98619E+01 2.85278E-01-8.90245E-06-1.29404E-01 5.35319E-15 3.15960E-13
 -1      4001 1.98838E+01 2.52573E-01-7.16166E-04-1.09780E-01 1.16561E-13 1.56823E-13
 -1      4002 1.98354E+01 3.12121E-01 1.03292E-03-1.17892E-01-5.05498E-14 1.17854E-13
 -1      4003 1.99077E+01 2.22956E-01 4.12767E-07-9.50118E-02 5.72189E-14 1.11391E-13
 -1      4004 1.99235E+01 1.95681E-01-5.54156E-04-7.95509E-02 4.45254E-14 8.88478E-14
 -1      4005 1.98885E+01 2.44879E-01 8.02099E-04-8.68607E-02 3.74784E-14 8.91691E-14
 -1      4006 1.99408E+01 1.71104E-01-3.05668E-06-6.80668E-02 1.57692E-14 5.80334E-14
 -1      4007 1.99517E+01 1.48571E-01-5.22890E-04-5.62510E-02 6.95064E-14-5.24920E-14
 -1      4008 1.99272E+01 1.88860E-01 6.95324E-04-6.24703E-02-5.05394E-15 1.21561E-13
 -1      4009 1.99638E+01 1.29097E-01 1.67167E-05-4.72820E-02 1.42456E-13-7.64729E-14
 -1      4010 1.99714E+01 1.11184E-01-2.06713E-04-3.81792E-02 1.43302E-13-1.48802E-13
 -1      4011 1.99541E+01 1.43265E-01 4.98377E-04-4.37404E-02 8.84338E-14-5.93971E-14
 -1      4012 1.86290E+01 8.99714E-01-6.68303E-03 9.27134E-01 9.61548E-14 6.41322E-14
 -1      4013 1.85068E+01 8.97582E-01 2.23520E-03 1.03924E+00-3.78478E-14 3.91723E-14
 -1      4014 1.91712E+01 7.94121E-01-3.89540E-03 6.00531E-01 3.63006E-14 7.58335E-14
 -1      4015 1.90786E+01 8.35628E-01 3.83623E-04 6.73521E-01 2.76184E-14 1.54046E-13
 -1      4016 1.89259E+01 8.66750E-01-5.00452E-03 7.46024E-01 3.80556E-14 1.65842E-13
 -1      4017 1.88171E+01 8.91757E-01 8.64601E-04 8.35079E-01 1.51540E-13 1.78716E-13
 -1      4018 1.85337E+01 9.87678E-01 6.19188E-03 7.49089E-01 1.61148E-14-1.92018E-13
 -1      4019 1.95602E+01 8.97622E-01-7.01637E-04-6.55062E-01 8.61933E-14-1.32410E-13
 -1      4020 1.96617E+01 9.20235E-01-2.51140E-03-5.68079E-01 9.99789E-14-1.12234E-13
 -1      4021 1.93706E+01 7.01114E-01-3.12697E-03 4.81110E-01 1.44574E-13-5.59838E-14
 -1      4022 1.92942E+01 7.50384E-01 1.19493E-04 5.42004E-01 7.90446E-14-2.47057E-14
 -1      4023 1.91246E+01 8.32894E-01 4.10551E-03 4.81226E-01 9.95199E-14-6.79151E-14
 -1      4024 1.39121E+01 9.90006E-01 5.69821E-02-8.99856E-01 9.52719E-14 2.83489E-13
 -1      4025 1.47529E+01 8.08600E-01 1.93906E-02-1.31834E+00-1.31319E-15 3.10518E-13
 -1      4026 1.39376E+01 7.75389E-01 2.68941E-02-1.15346E+00-1.57654E-15-3.34023E-13
 -1      4027 1.45953E+01 3.86858E-01 2.48766E-03-2.09751E+00-4.92401E-14-3.58569E-13
 -1      4028 1.95300E+01 6.01271E-01-2.53446E-03 3.82050E-01-7.38768E-14 4.32623E-14
 -1      4029 1.94688E+01 6.52330E-01 2.89930E-05 4.33137E-01 7.47554E-14 3.87648E-14
 -1      4030 1.93372E+01 7.27244E-01 3.29968E-03 3.84719E-01 5.02810E-14-5.67102E-14
 -1      4031 1.96554E+01 5.03321E-01-2.06071E-03 2.99767E-01-2.98486E-13 1.69378E-13
 -1      4032 1.96076E+01 5.52404E-01 2.83899E-05 3.42472E-01-1.87240E-13 1.74246E-13
 -1      4033 1.95061E+01 6.19028E-01 2.64497E-03 3.05032E-01-1.78467E-13 9.72665E-14
 -1      4034 1.97526E+01 4.12552E-01-1.66976E-03 2.31847E-01-8.08075E-15 7.84663E-14
 -1      4035 1.97160E+01 4.57426E-01 5.62714E-05 2.67213E-01-1.74346E-13 2.30326E-13
 -1      4036 1.96384E+01 5.15405E-01 2.10177E-03 2.39013E-01-1.34414E-13 4.13857E-13
 -1      4037 1.98266E+01 3.31792E-01-1.34226E-03 1.76383E-01-7.14260E-14 3.91012E-14
 -1      4038 1.97991E+01 3.71326E-01 8.53491E-05 2.05304E-01 3.93099E-15 3.53085E-14
 -1      4039 1.97406E+01 4.20721E-01 1.65084E-03 1.84614E-01 1.47390E-14 1.00755E-13
 -1      4040 1.98818E+01 2.62152E-01-1.06631E-03 1.31687E-01-1.47800E-13 5.94901E-14
 -1      4041 1.98617E+01 2.95982E-01 1.05900E-04 1.54998E-01-1.68559E-13 2.65759E-14
 -1      4042 1.98182E+01 3.37224E-01 1.27929E-03 1.40245E-01-1.26228E-13 5.03504E-14
 -1      4043 1.99222E+01 2.03585E-01-8.37011E-04 9.61903E-02-2.70047E-13 1.27837E-13
 -1      4044 1.99079E+01 2.31862E-01 1.16105E-04 1.14691E-01-1.02487E-13 1.17048E-13
 -1      4045 1.98761E+01 2.65651E-01 9.76875E-04 1.04530E-01-1.83295E-13 4.19983E-14
 -1      4046 1.99509E+01 1.55342E-01-6.46276E-04 6.84538E-02-2.11724E-13 2.65948E-13
 -1      4047 1.99411E+01 1.78523E-01 1.19746E-04 8.28955E-02-3.17968E-13 2.36750E-13
 -1      4048 1.99183E+01 2.05694E-01 7.29647E-04 7.61922E-02-3.06027E-13 1.84722E-13
 -1      4049 1.99709E+01 1.16381E-01-4.02657E-04 4.71261E-02-4.51441E-14 1.03773E-13
 -1      4050 1.99643E+01 1.34972E-01 1.17396E-04 5.82483E-02-9.91895E-14 1.70810E-13
 -1      4051 1.99484E+01 1.56394E-01 5.00329E-04 5.41386E-02-6.71371E-14 2.13710E-13
 -1      4052 1.52898E+01 7.95542E-01-7.39793E-03 1.08872E+00 1.58020E-13-1.65744E-13
 -1      4053 1.45833E+01 8.84480E-01 2.26134E-02-6.09684E-01 3.92532E-14-3.14169E-13
 -1      4054 1.95681E+01 9.41267E-01-3.07389E-03 5.26351E-01 2.42511E-14-9.38017E-14
 -1      4055 1.94564E+01 9.17872E-01-6.46332E-04 6.07590E-01 3.94228E-14-1.09762E-13
 -1      4056 1.92880E+01 9.85025E-01 4.42054E-03 5.19170E-01 3.82373E-14-1.22849E-13
 -1      4057 1.73309E+01-1.19179E-01 7.91140E-03-2.54048E+00-1.03138E-13-1.81873E-13
 -1      4058 1.73615E+01 1.79770E-01-2.03055E-02-2.21167E+00-5.29323E-14-1.70789E-13
 -1      4059 1.99813E+01 8.72712E-02-2.25573E-04-2.75349E-02 1.81267E-14-3.06169E-13
 -1      4060 1.89725E+01 8.55123E-01 9.47108E-04-9.99939E-01-4.15202E-14-1.20048E-13
 -1      4061 1.91080E+01 8.64824E-01-4.77705E-03-9.00570E-01-3.59467E-16-1.54224E-13
 -1      4062 1.99577E+01 1.38749E+00-1.88977E-03 1.18299E-01 3.91770E-14-1.48579E-13
 -1      4063 1.99608E+01 1.26729E+00 2.43128E-03 1.88273E-01 5.39521E-14-1.51070E-13
 -1      4064 1.99171E+01 1.44811E+00-2.90360E-03 9.15604E-02 4.50801E-14-1.85703E-13
 -1      4065 1.33922E+01 8.93967E-01 7.72563E-02 1.26446E+00-1.49967E-14 2.25635E-14
 -1      4066 1.33550E+01 8.76613E-01-7.38168E-03-7.94774E-02 4.48062E-14 1.68334E-13
 -1      4067 1.42523E+01 1.01715E+00-1.26856E-02 1.67351E-01 3.18140E-14 1.62063E-13
 -1      4068 1.44706E+01 5.96564E-01 2.66677E-02 1.77595E+00-2.95035E-14 2.01450E-13
 -1      4069 1.98995E+01 1.15683E+00-1.69265E-03 2.72626E-01 3.99814E-14-1.34861E-13
 -1      4070 1.92918E+01 8.74828E-01 1.67287E-04-8.17847E-01 5.59582E-14-1.52916E-13
 -1      4071 1.94114E+01 8.82630E-01-3.44869E-03-7.28721E-01 7.43290E-14-1.36412E-13
 -1      4072 1.90694E+01 9.55650E-01 5.11830E-03-7.24152E-01 2.49461E-14-1.35157E-13
 -1      4073 1.97836E+01 1.02969E+00-1.52588E-03 3.79727E-01 2.79194E-14-9.67585E-14
 -1      4074 1.96939E+01 9.77838E-01-1.41781E-03 4.63470E-01 2.24835E-14-9.64522E-14
 -1      4075 1.95694E+01 1.03201E+00 3.78803E-03 3.96164E-01 1.98208E-14-1.06152E-13
 -1      4076 1.99585E+01 1.22250E-01-3.28246E-04 5.73450E-03-1.70034E-13-2.65342E-13
 -1      4077 1.99605E+01 1.20873E-01-1.10294E-04 1.44434E-02-8.35241E-14-2.49970E-13
 -1      4078 1.69775E+01 5.30626E-01 1.01259E-02-1.87393E+00-3.55898E-14-1.64977E-13
 -1      4079 1.77585E+01 4.03460E-01 1.18016E-02-1.93453E+00-7.42652E-14-1.50037E-13
 -1      4080 1.78665E+01 5.51098E-01-1.55572E-02-1.70834E+00-8.10324E-14-1.45182E-13
 -1      4081 1.78655E+01 7.26816E-01-1.13580E-02 1.48854E+00 1.14916E-14-1.38634E-13
 -1      4082 1.77546E+01 6.04923E-01 1.02426E-02 1.69174E+00 5.83450E-15-1.31655E-13
 -1      4083 1.88600E+01 9.25022E-01 5.12707E-03 5.99670E-01 6.10903E-14 1.11424E-14
 -1      4084 1.50876E+01 9.43457E-01-1.94436E-02-9.63830E-01-4.07487E-15 3.79424E-13
 -1      4085 1.52916E+01 7.34732E-01 2.83865E-02-1.69884E+00-9.66212E-14 4.10923E-13
 -1      4086 1.60231E+01 5.50463E-01 1.55031E-02-1.87718E+00-8.57868E-14 2.19641E-13
 -1      4087 1.97767E+01 9.58584E-01-8.88769E-04-4.96470E-01 1.05257E-13-1.34043E-13
 -1      4088 1.98540E+01 1.00801E+00-3.30365E-03-4.04140E-01 1.05734E-13-1.39782E-13
 -1      4089 1.96530E+01 1.01709E+00 3.25853E-03-4.43441E-01 1.02575E-13-1.33657E-13
 -1      4090 1.93940E+01 9.69312E-01 4.23495E-03-5.79021E-01 8.12264E-14-1.20569E-13
 -1      4091 2.00695E+01 1.11408E+00-3.46042E-04-2.57690E-01 1.39837E-13-1.47526E-13
 -1      4092 1.57096E+01 5.14631E-01-1.34872E-02-1.86650E+00 2.57927E-14-2.30058E-13
 -1      4093 1.56427E+01 1.80083E-01 2.23940E-02-2.44281E+00-7.29522E-14-2.49592E-13
 -1      4094 1.60233E+01 8.36052E-01-2.05463E-02 1.05763E+00 2.04963E-13-9.78410E-14
 -1      4095 1.52541E+01 1.06261E+00 3.74484E-02 3.88836E-01 1.33100E-13-2.19425E-13
 -1      4096 1.99807E+01 9.71830E-02 1.82460E-06 3.81210E-02 6.67597E-15 1.69950E-13
 -1      4097 1.63041E+01-3.51298E-01-5.05345E-03-2.94260E+00-1.28804E-13-2.65912E-13
 -1      4098 1.99390E+01 1.29347E+00-3.29352E-03-1.61491E-01 1.46660E-13-1.76161E-13
 -1      4099 1.98974E+01 1.36317E+00-2.52331E-03-1.26211E-01 1.31583E-13-1.73863E-13
 -1      4100 1.99740E+01 1.03604E-01 1.76661E-04-2.85935E-02 1.43339E-13-4.10694E-13
 -1      4101 1.99850E+01 1.16506E+00 3.82626E-04-2.68738E-01 1.23929E-13-1.39159E-13
 -1      4102 1.87521E+01 8.33202E-01-6.12571E-03-1.09925E+00-5.80963E-14-1.13673E-13
 -1      4103 1.86824E+01 9.44961E-01 8.22643E-03-8.95056E-01-4.38750E-14-1.27896E-13
 -1      4104 1.86068E+01 8.01592E-01 2.89799E-03-1.21995E+00-5.67354E-14-9.86807E-14
 -1      4105 1.99203E+01 1.57451E+00 5.06075E-03 2.78733E-02 7.46344E-14-1.60005E-13
 -1      4106 1.71185E+01 7.39082E-01 9.02406E-03 1.61678E+00-3.31573E-14-1.51963E-13
 -1      4107 1.74933E+01 4.29466E-01-1.16514E-02 1.93890E+00 1.64972E-15-1.61207E-13
 -1      4108 1.75033E+01 2.03505E-01 1.55139E-02 2.19610E+00-1.05665E-13-1.42271E-13
 -1      4109 1.49574E+01 9.68848E-01-1.36973E-02-3.46142E-01 4.13688E-14-3.26954E-13
 -1      4110 1.53035E+01 8.71376E-01 1.86167E-02-1.20396E+00 3.10485E-14-2.97486E-13
 -1      4111 1.61072E+01 6.85497E-01 1.10720E-02-1.54518E+00 1.60249E-14-2.29258E-13
 -1      4112 1.57945E+01 1.03599E+00 6.88739E-03-2.09253E-01 9.34556E-14-2.07888E-13
 -1      4113 1.82747E+01 8.67140E-01-8.86250E-03 1.16440E+00-1.32072E-13 6.92979E-14
 -1      4114 1.81497E+01 8.18249E-01 5.12908E-03 1.31216E+00-9.10058E-14-1.00586E-13
 -1      4115 1.81323E+01 1.00192E+00 7.60891E-03 9.46288E-01-9.29845E-14-1.63122E-13
 -1      4116 1.99607E+01 1.21148E-01 4.47900E-05-1.47168E-02-2.12788E-13-6.83104E-13
 -1      4117 1.99585E+01 1.22432E-01-2.36522E-04-5.81539E-03-2.63595E-13-4.31908E-13
 -1      4118 1.99506E+01 1.39940E-01 4.09155E-04-1.57210E-04-2.34226E-13-4.03607E-13
 -1      4119 1.98112E+01 1.18872E+00 2.08495E-03 2.39948E-01 4.23216E-14-1.66123E-13
 -1      4120 1.76194E+01-5.82043E-01 2.26940E-02 2.91839E+00-2.30782E-13-8.77256E-14
 -1      4121 1.65583E+01-4.11922E-01 1.19014E-02 3.03337E+00-1.78278E-13-9.64584E-14
 -1      4122 1.58379E+01 5.19604E-03-5.18411E-03 2.65347E+00-1.88509E-13 9.44271E-14
 -1      4123 1.74567E+01-1.79401E-01-4.38607E-03 2.58549E+00-1.58383E-13-1.27395E-13
 -1      4124 1.99701E+01 1.13437E-01 1.82768E-04 3.55954E-02-7.63525E-14 1.13641E-13
 -1      4125 1.89243E+01 1.00621E+00-6.13869E-03 4.41106E-01 2.90298E-14-1.12999E-13
 -1      4126 1.87343E+01 1.00792E+00-1.53281E-03 5.07008E-01 3.39423E-14-1.11668E-13
 -1      4127 1.76406E+01 9.33980E-01 8.95863E-03 1.22322E+00-1.13695E-13-2.19168E-13
 -1      4128 1.88098E+01 9.37680E-01-4.64005E-03 4.28898E-01-8.92933E-15-6.42398E-14
 -1      4129 1.86631E+01 9.84604E-01-1.28917E-03 4.85110E-01-4.05931E-15-1.29868E-13
 -1      4130 1.84713E+01 1.00404E+00-8.62605E-03 5.63575E-01 4.00878E-14-1.37047E-13
 -1      4131 1.82466E+01 1.00211E+00-4.45839E-04 6.50164E-01 2.00264E-14-1.26143E-13
 -1      4132 1.85234E+01 1.08486E+00 1.09352E-02 3.30339E-01 1.21002E-14-6.15051E-14
 -1      4133 1.79137E+01 9.86342E-01-1.04323E-02 7.20357E-01 1.20471E-14-9.60938E-14
 -1      4134 1.76252E+01 9.54902E-01-5.70473E-03 8.45181E-01 2.75361E-14-1.21143E-13
 -1      4135 1.79722E+01 1.08167E+00 1.22228E-02 4.29538E-01 2.54813E-14-1.21705E-13
 -1      4136 1.63302E+01 7.16716E-01-1.66919E-02-1.57011E+00 8.21457E-14 2.69418E-13
 -1      4137 1.68428E+01 8.43736E-01 3.40923E-03-1.33765E+00 1.17798E-13 1.36249E-13
 -1      4138 1.71110E+01 9.27522E-01-1.36864E-02-1.13399E+00 5.66214E-14 1.88013E-13
 -1      4139 1.61808E+01 9.95119E-01 1.53362E-02-1.11646E+00 6.44859E-14 3.20958E-13
 -1      4140 1.74949E+01 9.86397E-01 1.73944E-04-9.85641E-01-3.13856E-14 2.35382E-13
 -1      4141 1.77250E+01 1.01640E+00-9.63324E-03-8.46814E-01-6.54612E-14 2.05039E-13
 -1      4142 1.70445E+01 1.10184E+00 1.02784E-02-7.95801E-01 8.47853E-14 1.85534E-13
 -1      4143 1.80206E+01 1.02722E+00-7.24984E-04-7.47146E-01 7.23583E-15 2.03243E-13
 -1      4144 1.82111E+01 1.02075E+00-7.71976E-03-6.51052E-01 3.76678E-14 2.63543E-13
 -1      4145 1.77003E+01 1.12458E+00 8.72317E-03-5.84656E-01-2.00307E-14 3.60997E-13
 -1      4146 1.84448E+01 1.00730E+00 1.12989E-04-5.77501E-01 8.53472E-14 2.97975E-13
 -1      4147 1.86057E+01 9.74368E-01-4.42008E-03-5.03837E-01 1.39833E-13 4.76244E-13
 -1      4148 1.82025E+01 1.08781E+00 5.05148E-03-4.39037E-01 1.20874E-13 3.11774E-13
 -1      4149 1.87866E+01 9.34558E-01-1.36202E-03-4.53417E-01 7.06582E-14 4.68124E-13
 -1      4150 1.89194E+01 8.89937E-01-3.69236E-03-3.97251E-01 4.96674E-14 4.22021E-13
 -1      4151 1.86069E+01 1.00834E+00 4.22656E-03-3.47172E-01 9.79469E-14 2.27855E-13
 -1      4152 1.90654E+01 8.41320E-01-6.84298E-04-3.56827E-01 7.40808E-15 4.83043E-13
 -1      4153 1.91729E+01 7.87958E-01-2.82370E-03-3.12106E-01-5.89106E-14 3.81773E-13
 -1      4154 1.89270E+01 9.12772E-01 5.00664E-03-2.68314E-01 4.56064E-14 2.99900E-13
 -1      4155 1.92889E+01 7.34282E-01-6.83356E-04-2.80830E-01 9.35139E-15 4.58311E-13
 -1      4156 1.93755E+01 6.79097E-01-2.22739E-03-2.44520E-01 9.96363E-14 4.84941E-13
 -1      4157 1.91819E+01 7.98803E-01 3.76052E-03-2.09142E-01 5.94467E-14 4.14449E-13
 -1      4158 1.94674E+01 6.25193E-01-5.85888E-04-2.19701E-01 1.45883E-15 2.87770E-13
 -1      4159 1.95360E+01 5.71749E-01-1.77751E-03-1.90061E-01 5.34856E-14 3.90703E-13
 -1      4160 1.93847E+01 6.83060E-01 2.99547E-03-1.62694E-01 5.69408E-15 3.19919E-13
 -1      4161 1.96079E+01 5.20756E-01-4.81739E-04-1.70286E-01 4.06110E-14 3.26068E-13
 -1      4162 1.96614E+01 4.71454E-01-1.42098E-03-1.46120E-01-4.74370E-14 1.57718E-13
 -1      4163 1.95445E+01 5.71663E-01 2.39049E-03-1.25714E-01-4.53675E-15 1.52722E-13
 -1      4164 1.97171E+01 4.25252E-01-3.81571E-04-1.30380E-01-9.05374E-14 6.98257E-16
 -1      4165 1.97581E+01 3.81420E-01-1.13056E-03-1.10805E-01 1.17563E-14 2.01064E-14
 -1      4166 1.96689E+01 4.69144E-01 1.89706E-03-9.61561E-02-1.48795E-13-1.32197E-14
 -1      4167 1.98004E+01 3.40932E-01-2.92519E-04-9.83460E-02 7.16473E-14-4.23658E-14
 -1      4168 1.98313E+01 3.03095E-01-8.96926E-04-8.26479E-02 1.63867E-15 7.13586E-14
 -1      4169 1.97643E+01 3.78039E-01 1.49162E-03-7.25812E-02 2.31748E-14-7.45933E-14
 -1      4170 1.98630E+01 2.68582E-01-2.09533E-04-7.29002E-02 4.68587E-14 3.01822E-14
 -1      4171 1.98856E+01 2.36674E-01-7.20790E-04-6.04653E-02 1.32745E-13 7.85961E-14
 -1      4172 1.98364E+01 2.99345E-01 1.17824E-03-5.38780E-02 3.15594E-14 5.45725E-14
 -1      4173 1.99088E+01 2.08034E-01-1.39950E-04-5.29170E-02 9.77255E-14-4.38805E-14
 -1      4174 1.99248E+01 1.81581E-01-6.50777E-04-4.27594E-02 4.37425E-14-7.69222E-15
 -1      4175 1.98895E+01 2.33161E-01 9.12350E-04-3.92868E-02 9.67026E-14-7.95947E-14
 -1      4176 1.92372E+01 1.00031E+00-2.20424E-03-4.71439E-01 7.09573E-14-1.08160E-13
 -1      4177 1.93855E+01 1.01107E+00-3.33381E-03-4.09624E-01 7.21603E-14-1.13432E-13
 -1      4178 1.84593E+01 1.01961E+00-6.34530E-03 5.35083E-01 6.09299E-14-1.76612E-13
 -1      4179 1.82768E+01 1.04842E+00-2.84646E-03 6.05952E-01 2.19721E-14-1.59280E-13
 -1      4180 1.84709E+01 1.06588E+00 9.13090E-03 3.52321E-01-2.41868E-14-1.78942E-13
 -1      4181 1.64478E+01 8.91677E-01-1.71937E-02 9.57862E-01 1.79351E-13-1.33712E-13
 -1      4182 1.90901E+01 8.34360E-01-3.38574E-03 3.43996E-01 2.82567E-14-1.41986E-14
 -1      4183 1.89714E+01 8.89270E-01-1.05820E-03 3.90200E-01-5.66577E-16-3.96734E-14
 -1      4184 1.88205E+01 9.61771E-01 5.66209E-03 2.79357E-01-3.57636E-14-1.17994E-13
 -1      4185 1.96257E+01 5.05412E-01-1.65153E-03 1.70093E-01-1.03688E-13 1.03918E-13
 -1      4186 1.95673E+01 5.57122E-01-6.47307E-04 1.96904E-01-2.42289E-13 1.13120E-13
 -1      4187 1.93128E+01 7.22022E-01-2.64061E-03 2.74973E-01-4.80574E-15 4.63266E-14
 -1      4188 1.92178E+01 7.79185E-01-1.01087E-03 3.13345E-01 4.02233E-14-5.36071E-14
 -1      4189 1.91006E+01 8.45421E-01 4.28188E-03 2.25021E-01 1.80838E-14-8.89097E-14
 -1      4190 1.97314E+01 4.10605E-01-1.30758E-03 1.30918E-01 7.95858E-14-5.49090E-14
 -1      4191 1.96867E+01 4.56818E-01-4.97254E-04 1.53102E-01 7.03413E-14 9.28049E-14
 -1      4192 1.96327E+01 5.03072E-01 2.05693E-03 1.11979E-01 1.63541E-15-1.13438E-13
 -1      4193 1.98116E+01 3.27711E-01-1.02615E-03 9.90197E-02-1.19255E-13 1.16429E-13
 -1      4194 1.97780E+01 3.67788E-01-3.72014E-04 1.17147E-01-8.17000E-14 1.05783E-13
 -1      4195 1.97372E+01 4.07137E-01 1.59326E-03 8.62586E-02-5.97960E-14-4.00762E-14
 -1      4196 1.98714E+01 2.57129E-01-7.81215E-04 7.33754E-02-2.26779E-13-4.01611E-14
 -1      4197 1.98466E+01 2.91022E-01-2.72704E-04 8.79934E-02-1.26425E-13 4.90041E-14
 -1      4198 1.98162E+01 3.23801E-01 1.19256E-03 6.53118E-02-7.73016E-14-4.40545E-14
 -1      4199 1.99151E+01 1.98322E-01-5.89092E-04 5.31186E-02-1.72358E-13-1.55293E-13
 -1      4200 1.98971E+01 2.26399E-01-1.91819E-04 6.47294E-02-2.16536E-13-7.57731E-14
 -1      4201 1.98749E+01 2.53021E-01 8.30839E-04 4.84096E-02-1.68679E-13-2.18350E-13
 -1      4202 1.98672E+01 1.40406E+00-2.63064E-03-6.56090E-02 1.20717E-13-1.47895E-13
 -1      4203 1.98532E+01 1.42912E+00-1.54912E-03-2.65738E-02 9.36349E-14-1.46742E-13
 -1      4204 1.98479E+01 1.28629E+00 3.99330E-03-1.35029E-01 1.16610E-13-1.42909E-13
 -1      4205 1.98874E+01 1.46295E+00-3.93429E-04 5.61539E-02 6.37407E-14-1.45349E-13
 -1      4206 1.98793E+01 1.35719E+00 3.90434E-03 1.04269E-01 6.60184E-14-1.57339E-13
 -1      4207 1.98624E+01 1.44633E+00-4.00672E-03 3.18451E-02 8.83260E-14-1.55480E-13
 -1      4208 1.99201E+01 1.10932E+00 3.09463E-03-3.13739E-01 1.20480E-13-1.55923E-13
 -1      4209 1.99668E+01 1.12682E-01-2.59353E-04-2.60778E-02 1.00265E-13-5.43917E-13
 -1      4210 1.99567E+01 1.30805E-01-9.29198E-05-2.42014E-02-1.38860E-13-3.87249E-13
 -1      4211 1.92886E+01 1.02067E+00-4.66346E-03 3.42851E-01 3.56624E-14-1.18474E-13
 -1      4212 1.91327E+01 1.01206E+00-1.68575E-03 3.99440E-01 4.12695E-14-1.00596E-13
 -1      4213 1.89814E+01 1.07638E+00 1.16277E-02 2.58938E-01 3.52938E-14-7.07696E-14
 -1      4214 1.94885E+01 6.10407E-01-2.08309E-03 2.17652E-01-3.14866E-13 1.44916E-13
 -1      4215 1.94135E+01 6.66138E-01-8.19267E-04 2.49765E-01-1.58557E-13 2.33012E-14
 -1      4216 1.93223E+01 7.26105E-01 3.34651E-03 1.80387E-01-1.17381E-13-3.78372E-14
 -1      4217 1.94968E+01 6.10352E-01 2.62921E-03 1.43085E-01-2.42219E-13-1.67319E-13
 -1      4218 1.99645E+01 1.18675E-01-1.90180E-04 2.95737E-02-3.81375E-14-8.40371E-14
 -1      4219 1.81991E+01 6.76407E-01 8.23386E-03-1.51786E+00-6.01989E-14-9.87844E-14
 -1      4220 1.83326E+01 7.46826E-01-1.07066E-02-1.35519E+00-4.27287E-14-8.00852E-14
 -1      4221 1.76401E+01 7.87671E-01 9.39514E-03-1.42554E+00-2.84213E-14-8.50470E-14
 -1      4222 1.88638E+01 9.98771E-01-1.86089E-03-5.84266E-01-4.05259E-15-7.73035E-14
 -1      4223 1.90440E+01 9.96384E-01-4.86824E-03-5.16668E-01 3.17764E-14-7.27814E-14
 -1      4224 1.90837E+01 1.06638E+00 1.02013E-02-3.36519E-01 3.19590E-14-7.81032E-14
 -1      4225 1.95725E+01 1.07496E+00-4.71220E-03 2.53988E-01 3.51905E-14-1.32984E-13
 -1      4226 1.94511E+01 1.04413E+00-1.67407E-03 3.08157E-01 2.96961E-14-1.18001E-13
 -1      4227 1.93380E+01 1.09172E+00 9.42834E-03 1.98960E-01 3.03340E-14-1.01524E-13
 -1      4228 1.98057E+01 1.25328E+00-1.74313E-03 1.35392E-01 6.27849E-14-1.57624E-13
 -1      4229 1.96887E+01 1.12825E+00 6.04427E-04 2.19100E-01 5.04116E-14-1.48480E-13
 -1      4230 1.95957E+01 1.15777E+00 7.18859E-03 1.39445E-01 6.27560E-14-1.17980E-13
 -1      4231 1.97728E+01 1.27021E+00 7.40610E-04 8.25828E-02 6.98218E-14-1.24791E-13
 -1      4232 1.98183E+01 1.14693E+00 1.79759E-03-2.84905E-01 1.05373E-13-1.67081E-13
 -1      4233 1.99541E+01 1.38003E-01 2.15370E-04 2.83746E-02-3.82688E-14-1.46523E-13
 -1      4234 1.74571E+01 1.05285E+00-1.31713E-02 8.63966E-01-1.26471E-13 1.18227E-14
 -1      4235 1.71940E+01 1.02441E+00 2.62159E-03 1.00417E+00-1.46923E-13-4.92882E-14
 -1      4236 1.94176E+01 1.08551E+00 7.49429E-03-2.66248E-01 7.49100E-14-1.16301E-13
 -1      4237 1.95340E+01 1.03513E+00-2.20079E-03-3.67465E-01 8.25825E-14-1.10521E-13
 -1      4238 1.96477E+01 1.07236E+00-3.40065E-03-3.05668E-01 8.13634E-14-1.39594E-13
 -1      4239 1.72866E+01 9.39557E-01-1.34383E-02 8.76883E-01 5.94260E-14-1.15256E-13
 -1      4240 1.69570E+01 9.11001E-01-1.41360E-02 9.59912E-01 1.17240E-13-1.03328E-13
 -1      4241 1.73265E+01 1.10055E+00 1.99565E-02 5.00531E-01 5.45606E-14-4.56733E-14
 -1      4242 1.54223E+01 1.14013E+00 2.89009E-02-4.73023E-01-6.41724E-14 1.12044E-13
 -1      4243 1.58041E+01 1.04525E+00 2.05749E-03-8.32927E-01-8.94704E-14 2.91390E-13
 -1      4244 1.62863E+01 1.10043E+00-1.38935E-02-6.75828E-01-3.38542E-14 1.00395E-13
 -1      4245 1.81968E+01 9.03463E-01 5.80807E-03-1.12408E+00-7.91459E-14-9.88206E-14
 -1      4246 1.99453E+01 1.51289E-01-4.88353E-05-3.10435E-02-2.15082E-13-1.90851E-13
 -1      4247 1.80182E+01 1.13406E+00 7.68109E-03 4.50427E-01-1.54750E-14-2.24373E-14
 -1      4248 1.80196E+01 1.06889E+00-7.82817E-03 6.71609E-01-4.24133E-14-1.28231E-13
 -1      4249 1.78005E+01 1.07520E+00 2.01211E-04 7.72482E-01-4.96805E-14-9.94472E-14
 -1      4250 1.99321E+01 1.70289E-01 5.01564E-04-2.17475E-02-1.68065E-13-2.47745E-13
 -1      4251 1.64498E+01 8.05206E-01-2.18287E-02-1.29040E+00 4.34115E-15-1.94076E-13
 -1      4252 1.65252E+01 1.09384E+00 2.71585E-02 4.71362E-01 1.21950E-13-8.57808E-14
 -1      4253 1.98226E+01 1.34707E+00 1.70726E-03-4.02550E-03 9.36288E-14-1.23898E-13
 -1      4254 1.99459E+01 1.50468E-01-4.05250E-04 3.75023E-02-9.55160E-14-2.68605E-14
 -1      4255 1.99336E+01 1.73118E-01-8.70577E-05 4.63580E-02-1.57581E-13-9.43767E-14
 -1      4256 1.99175E+01 1.94262E-01 4.85856E-04 3.50569E-02-1.85652E-13-4.31832E-13
 -1      4257 1.67637E+01 1.16645E+00 2.39245E-02 7.51138E-01-6.57676E-14 1.51259E-13
 -1      4258 1.68044E+01 9.46973E-01-1.96850E-02 1.16880E+00-3.10810E-14 7.98450E-15
 -1      4259 1.65991E+01 8.62797E-01 1.04371E-02 1.37163E+00 7.92628E-14 2.92064E-14
 -1      4260 1.99418E+01 1.52978E-01-2.03394E-04 2.03782E-02-1.73407E-13-4.43168E-13
 -1      4261 1.99379E+01 1.58641E-01 6.54014E-05 9.52685E-03-2.42470E-13-4.17347E-13
 -1      4262 1.99294E+01 1.73601E-01 1.16084E-04 1.83424E-02-1.44294E-13-5.56407E-13
 -1      4263 1.99104E+01 1.98833E-01-4.57691E-04 2.30392E-02-1.39942E-13-4.05046E-13
 -1      4264 1.99366E+01 1.57784E-01-5.60275E-04-2.92285E-03-3.03481E-13-3.47570E-13
 -1      4265 1.62165E+01 1.05053E+00-2.29303E-02-2.61628E-02 1.09683E-13-1.77377E-13
 -1      4266 1.61949E+01 1.06224E+00 2.00957E-02-6.85365E-01 6.41126E-14-2.33103E-13
 -1      4267 1.67557E+01 1.08572E+00-3.24413E-03 4.17837E-02 6.76490E-14-1.21081E-13
 -1      4268 1.83833E+01 9.98331E-01-6.07821E-03-7.26611E-01-2.34073E-14-1.24628E-13
 -1      4269 1.86150E+01 9.99179E-01-7.92945E-03-6.40432E-01 5.55274E-15-9.92667E-14
 -1      4270 1.86538E+01 1.07950E+00 1.18136E-02-4.12984E-01 2.63888E-14-7.62931E-14
 -1      4271 1.52121E+01 4.90514E-01 1.99749E-02 2.11612E+00-4.90996E-14 3.01570E-13
 -1      4272 1.47476E+01 8.20692E-01-1.50730E-02 1.30990E+00-2.31148E-14 1.44475E-13
 -1      4273 1.61188E+01 3.65570E-01 2.31083E-02 2.18026E+00-7.01212E-14 6.45820E-14
 -1      4274 1.67778E+01 2.53294E-01-2.91823E-03 2.27054E+00-8.56049E-14-1.81730E-13
 -1      4275 1.48604E+01 1.08512E+00 3.87310E-02 7.31239E-01 1.76846E-14 8.09188E-14
 -1      4276 1.49642E+01 1.10310E+00-1.64710E-02-1.17942E-02 4.54528E-14 9.71705E-14
 -1      4277 1.56397E+01 1.13792E+00-2.26845E-02 5.92235E-02-3.30226E-14 2.54696E-14
 -1      4278 1.54703E+01 9.69508E-01 1.36067E-02 1.04486E+00 6.97775E-14 1.29304E-13
 -1      4279 1.97280E+01 1.12678E+00 1.90280E-03-2.55217E-01 8.13709E-14-1.40829E-13
 -1      4280 1.97822E+01 1.20654E+00-2.99675E-03-1.73609E-01 1.00662E-13-1.42429E-13
 -1      4281 1.97578E+01 1.25018E+00 3.08628E-04-1.02357E-01 7.90569E-14-1.14722E-13
 -1      4282 1.96326E+01 1.14980E+00 4.67056E-03-1.82497E-01 5.86743E-14-1.10282E-13
 -1      4283 1.89776E+01 1.05398E+00-8.40181E-03-6.44851E-02 1.08169E-14-6.86591E-14
 -1      4284 1.91738E+01 1.06099E+00-5.55130E-03-3.95843E-02 3.12794E-14-8.32878E-14
 -1      4285 1.93378E+01 1.07412E+00-6.65280E-03-5.61440E-02 6.74039E-14-9.78130E-14
 -1      4286 1.74517E+01 1.16906E+00 1.24703E-02 5.55752E-01-1.20341E-15 5.73727E-14
 -1      4287 1.79050E+01-1.12096E+00 4.95536E-02-3.38159E+00-1.48084E-13-1.93919E-13
 -1      4288 1.74180E+01 1.09584E+00-4.96638E-03 1.16984E-01 5.60722E-14-8.59625E-14
 -1      4289 1.70702E+01 1.08190E+00-1.55396E-02 1.07961E-01 5.46526E-14-7.55441E-14
 -1      4290 1.69815E+01 1.12944E+00 1.56971E-02-3.81384E-01 3.19797E-14-2.00338E-13
 -1      4291 1.85000E+01 1.04495E+00-4.41760E-03 1.56037E-01-3.02329E-14-8.87530E-14
 -1      4292 1.82930E+01 1.09205E+00-5.86929E-03 1.87107E-01-8.66603E-15-6.09417E-14
 -1      4293 1.97452E+01 1.25446E+00-1.76727E-03 1.49456E-02 7.12955E-14-1.30474E-13
 -1      4294 1.75758E+01 1.00501E+00 2.59055E-03-7.82025E-01-2.17433E-14-1.58812E-13
 -1      4295 1.78403E+01 1.02978E+00-5.61034E-03-6.78698E-01-4.94773E-14-1.90368E-13
 -1      4296 1.67772E+01 1.13650E+00-3.26575E-03-5.81472E-01 1.18539E-13 2.89984E-14
 -1      4297 1.71448E+01 1.15093E+00-1.02198E-02-4.80548E-01 2.45527E-14 1.26451E-13
 -1      4298 1.65148E+01 1.22669E+00 2.08766E-02-3.33156E-01 2.04275E-15 6.39419E-14
 -1      4299 1.75030E+01 1.15137E+00-3.98153E-03-4.20297E-01 1.14892E-14 1.76982E-13
 -1      4300 1.77861E+01 1.13904E+00-8.12824E-03-3.51965E-01 6.01438E-14 2.87983E-13
 -1      4301 1.73316E+01 1.23242E+00 1.96005E-02-2.44816E-01 7.06160E-14-7.43818E-14
 -1      4302 1.81651E+01 1.10861E+00-2.83200E-04-2.37212E-01-2.90421E-14 2.16537E-13
 -1      4303 1.83855E+01 1.06529E+00-3.13667E-03-1.97608E-01 1.26064E-13 1.15137E-13
 -1      4304 1.85679E+01 1.02367E+00-2.55749E-03-1.66004E-01 5.76401E-14 1.31847E-13
 -1      4305 1.88094E+01 9.50708E-01-1.54914E-03-1.50535E-01 8.23247E-14 4.62094E-14
 -1      4306 1.89505E+01 8.91874E-01-3.40841E-03-1.25127E-01 3.31868E-14 1.00958E-13
 -1      4307 1.90890E+01 8.34698E-01-1.65368E-03-1.15997E-01-1.06640E-13 2.37436E-13
 -1      4308 1.92034E+01 7.75140E-01-2.47069E-03-9.58940E-02-2.70506E-14 1.17482E-13
 -1      4309 1.90113E+01 8.85893E-01 5.12608E-03-7.22843E-03 2.89876E-14-1.25315E-13
 -1      4310 1.93127E+01 7.16539E-01-1.31379E-03-8.92771E-02-5.41418E-14 1.73570E-13
 -1      4311 1.94032E+01 6.58090E-01-1.94694E-03-7.32164E-02-4.41984E-14 9.54112E-14
 -1      4312 1.92525E+01 7.63455E-01 4.07794E-03-2.81626E-03-2.01922E-14-4.29232E-14
 -1      4313 1.94891E+01 6.01969E-01-1.03350E-03-6.85083E-02-8.74658E-14 5.13495E-14
 -1      4314 1.95598E+01 5.47319E-01-1.54767E-03-5.55478E-02-1.01849E-13-1.82611E-14
 -1      4315 1.94424E+01 6.44036E-01 3.19121E-03-2.76253E-04-9.30466E-14-5.12524E-15
 -1      4316 1.96266E+01 4.95838E-01-8.05807E-04-5.22113E-02-7.57623E-14-8.32714E-14
 -1      4317 1.96812E+01 4.46625E-01-1.23045E-03-4.17358E-02-1.01719E-13-9.20434E-14
 -1      4318 1.95907E+01 5.32770E-01 2.49545E-03 1.01768E-03-1.00530E-13-1.57008E-13
 -1      4319 1.97325E+01 4.00989E-01-6.21060E-04-3.93929E-02-3.87670E-14-5.52426E-14
 -1      4320 1.97740E+01 3.58000E-01-9.75501E-04-3.09535E-02-7.46367E-15-1.49950E-13
 -1      4321 1.97053E+01 4.32734E-01 1.94073E-03 1.53754E-03-7.68721E-14-1.06125E-13
 -1      4322 1.98127E+01 3.18697E-01-4.79007E-04-2.93366E-02-2.48616E-14-9.73976E-14
 -1      4323 1.98434E+01 2.81991E-01-8.55233E-04-2.24870E-02 3.34340E-14-2.94966E-14
 -1      4324 1.97923E+01 3.45415E-01 1.48626E-03 1.58109E-03 8.88471E-15-3.23194E-13
 -1      4325 1.96653E+01 4.63532E-01-8.07514E-04 5.08605E-02-2.08846E-14-1.34803E-13
 -1      4326 1.96048E+01 5.12822E-01-1.41634E-03 6.16906E-02-7.70671E-14-2.05917E-13
 -1      4327 1.97622E+01 3.72430E-01-5.86630E-04 3.90295E-02-3.46630E-15-2.33516E-13
 -1      4328 1.97161E+01 4.15692E-01-1.12125E-03 4.80414E-02-1.33429E-14-1.38703E-13
 -1      4329 1.99170E+01 1.91099E-01 9.54643E-05-1.20630E-02-1.39056E-13-1.63764E-13
 -1      4330 1.91668E+01 7.98888E-01-1.96204E-03 1.01229E-01 1.22658E-13-1.21453E-13
 -1      4331 1.90405E+01 8.57031E-01-2.74844E-03 1.18965E-01 3.69308E-14-7.91271E-14
 -1      4332 1.98355E+01 2.94219E-01-3.13016E-04 2.93989E-02-8.18447E-14-3.68204E-13
 -1      4333 1.98006E+01 3.31122E-01-8.62513E-04 3.66597E-02-8.24601E-15-2.10623E-13
 -1      4334 1.98900E+01 2.28036E-01-1.21202E-04 2.37272E-02-6.23005E-14-4.48733E-13
 -1      4335 1.98641E+01 2.58753E-01-6.77950E-04 2.96915E-02-8.35175E-14-3.89056E-13
 -1      4336 1.98577E+01 2.70599E-01 1.07895E-03 3.70141E-03-6.64466E-14-3.91370E-13
 -1      4337 1.99057E+01 2.08216E-01 8.05139E-04 6.50986E-03-6.58298E-14-4.05998E-13
 -1      4338 1.87709E+01 1.06053E+00-6.68906E-03-4.53216E-02 3.01823E-14-7.06822E-14
 -1      4339 1.69264E+01 9.16878E-01 6.15189E-03-1.04837E+00 1.97778E-14-1.86352E-13
 -1      4340 1.94918E+01 1.10592E+00-3.11897E-03-3.16839E-02 5.48108E-14-1.05056E-13
 -1      4341 1.85271E+01 1.06640E+00-8.29020E-03-6.86157E-02 2.44713E-14-4.50225E-14
 -1      4342 1.82795E+01 1.08247E+00-2.72694E-03-4.88885E-02-2.91902E-15-5.66646E-14
 -1      4343 1.72258E+01 9.62711E-01-1.50514E-02-8.96048E-01-3.90009E-15-1.72650E-13
 -1      4344 1.89029E+01 9.17440E-01-2.71265E-03 1.23635E-01 1.71760E-14-1.58346E-13
 -1      4345 1.87452E+01 9.73199E-01-3.17516E-03 1.44934E-01-1.87089E-14-1.77665E-13
 -1      4346 1.61541E+01 6.58869E-01-9.71139E-03 1.75341E+00 8.75472E-14 4.72443E-14
 -1      4347 1.60823E+01 1.15019E+00-8.84494E-03 2.66785E-01 1.14114E-14 1.30018E-13
 -1      4348 1.65614E+01 1.16637E+00-1.26019E-02 2.74313E-01 3.34507E-14 1.76818E-13
 -1      4349 1.86434E+01 1.01953E+00 5.48841E-03-1.21798E-02 8.26493E-14-4.53594E-14
 -1      4350 1.80204E+01 1.08662E+00-1.41783E-02 1.14535E-01 9.03970E-15-5.26898E-14
 -1      4351 1.77098E+01 1.09346E+00-9.10481E-03 1.65943E-01 4.85254E-14-5.85335E-14
 -1      4352 1.96807E+01 1.19636E+00-1.69851E-03-1.42937E-02 4.69017E-14-1.06438E-13
 -1      4353 1.98726E+01 2.48808E-01-3.14278E-04-1.93021E-02-2.12412E-14-1.23617E-13
 -1      4354 1.95386E+01 5.66717E-01-1.08867E-03 6.50335E-02-1.69435E-13-2.43494E-13
 -1      4355 1.98950E+01 2.17869E-01-7.44764E-04-1.41035E-02 5.31291E-15-2.20638E-13
 -1      4356 1.76435E+01 1.17139E+00-8.93666E-03 1.52378E-01 2.33754E-15-4.48772E-14
 -1      4357 1.73033E+01 1.18467E+00-1.01308E-02 1.94217E-01 1.02786E-14-1.90967E-14
 -1      4358 1.79216E+01 1.15991E+00-1.36127E-03 1.21187E-01-3.71838E-14 2.16276E-14
 -1      4359 1.92754E+01 7.37537E-01-2.22231E-03 9.68338E-02 4.64729E-14 5.60408E-14
 -1      4360 1.59450E+01 9.47251E-01 9.16062E-03 1.25815E+00 1.42914E-13 2.18921E-13
 -1      4361 1.80499E+01 1.15124E+00 9.51511E-03-8.73529E-02-2.04402E-14 1.26887E-13
 -1      4362 1.93752E+01 6.79833E-01-1.46088E-03 8.17381E-02-1.47388E-13-1.87006E-14
 -1      4363 1.69345E+01 1.18480E+00-1.48421E-02 1.84279E-01 2.80388E-14 2.17660E-14
 -1      4364 1.81336E+01 1.03747E+00 1.73984E-03-5.86757E-01-2.92534E-14-1.11213E-13
 -1      4365 1.81491E+01 1.11436E+00 1.18418E-02-3.12082E-01 8.17754E-15-3.69635E-14
 -1      4366 1.96025E+01 1.14860E+00-3.53533E-03-5.13972E-02 5.37017E-14-1.08996E-13
 -1      4367 1.94605E+01 6.21119E-01-1.77549E-03 7.78685E-02-2.15576E-13-1.41710E-13
 -1      4368 1.76006E+01 1.12878E+00 6.88022E-03-2.22180E-01 2.21457E-14-8.55585E-14
 -1      4369 1.58962E+01 1.13083E+00 6.24462E-03 7.04888E-01 1.10967E-13 2.02127E-13
 -3
    1PSTEP                         3           1           1          
  100CL  101 1.000000000        4369                     0    1           1
 -4  TOSTRAIN    6    1
 -5  EXX         1    4    1    1
 -5  EYY         1    4    2    2
 -5  EZZ         1    4    3    3
 -5  EXY         1    4    1    2
 -5  EYZ         1    4    2    3
 -5  EZX         1    4    3    1
 -1         1 1.83164E-04-2.24374E-05-6.09987E-05-1.10837E-04-6.67250E-18 1.38062E-17
 -1         2 3.50327E-05-1.08962E-04 1.99446E-05-6.13877E-07 1.71567E-18 7.87555E-19
 -1         3 9.52377E-05-2.85705E-05-2.85701E-05 2.16450E-09-4.93693E-18-4.94244E-18
 -1         4 9.52375E-05-2.85707E-05-2.85702E-05-1.76710E-09 1.04750E-18 3.95288E-19
 -1         5 1.42199E-04-2.12597E-05-4.22941E-05 3.81880E-05-2.31452E-19 1.60714E-17
 -1         6 1.44191E-04 2.56244E-10-4.39382E-05-5.29986E-05-9.17548E-19 1.32552E-17
 -1         7 9.05279E-05-5.39724E-07-3.89811E-05-2.88016E-05-1.21443E-19 1.88732E-18
 -1         8 8.52780E-05 6.83383E-08-3.63753E-05-1.96982E-05-1.61095E-19-1.46268E-18
 -1         9 8.30520E-05 6.44566E-08-3.54354E-05-1.49696E-05-1.21721E-19-3.20218E-18
 -1        10 8.19920E-05 3.22178E-08-3.49695E-05-1.13811E-05-7.06677E-20-4.00794E-18
 -1        11 8.13976E-05 1.64430E-08-3.47190E-05-8.36559E-06-4.39299E-20-4.27833E-18
 -1        12 8.10372E-05 9.52623E-09-3.45737E-05-5.75783E-06-1.93759E-20-4.33028E-18
 -1        13 8.08169E-05 7.22429E-09-3.44879E-05-3.34365E-06 1.21347E-20-4.21067E-18
 -1        14 8.07133E-05 6.50458E-09-3.44483E-05-1.06604E-06 3.22456E-20-4.04313E-18
 -1        15 8.07159E-05 6.48138E-09-3.44493E-05 1.16835E-06 6.24608E-20-3.85289E-18
 -1        16 8.08250E-05 7.08793E-09-3.44908E-05 3.45102E-06 6.81613E-20-3.64426E-18
 -1        17 8.10515E-05 8.57883E-09-3.45782E-05 5.87763E-06 1.07620E-19-3.31648E-18
 -1        18 8.14170E-05 1.52521E-08-3.47247E-05 8.50487E-06 1.22003E-19-2.80052E-18
 -1        19 8.20187E-05 3.11363E-08-3.49786E-05 1.15574E-05 1.79181E-19-1.92205E-18
 -1        20 8.30761E-05 6.92314E-08-3.54486E-05 1.51989E-05 2.04903E-19-5.12816E-19
 -1        21 8.52426E-05 1.49767E-07-3.64126E-05 1.99094E-05 2.14749E-19 2.06976E-18
 -1        22 9.15089E-05-1.24690E-07-3.86527E-05 2.75599E-05 2.32934E-20 6.65078E-18
 -1        23 1.12443E-04-3.79534E-05-3.52440E-05-4.28742E-06-6.26116E-19 1.00792E-17
 -1        24 9.28215E-05-2.77070E-05-2.89940E-05 4.00005E-07-1.53703E-19 7.16868E-18
 -1        25 8.95697E-05-2.69914E-05-2.70623E-05 3.76293E-07-9.82376E-20 4.38316E-18
 -1        26 8.89420E-05-2.67710E-05-2.66736E-05 2.05240E-07 3.13717E-20 2.29956E-18
 -1        27 8.95641E-05-2.69292E-05-2.68484E-05 1.44268E-07 3.71479E-20 1.35475E-18
 -1        28 9.08783E-05-2.73010E-05-2.72556E-05 1.10832E-07-4.07800E-21 5.68300E-19
 -1        29 9.26614E-05-2.78232E-05-2.78002E-05 9.34192E-08-6.40349E-20-2.88097E-19
 -1        30 9.48234E-05-2.84646E-05-2.84552E-05 8.66811E-08-3.68883E-20-4.67863E-19
 -1        31 9.73348E-05-2.92132E-05-2.92134E-05 8.83430E-08 1.54335E-20-6.99431E-19
 -1        32 1.00186E-04-3.00639E-05-3.00717E-05 9.71440E-08-2.36944E-19-1.35197E-18
 -1        33 1.03350E-04-3.10077E-05-3.10201E-05 1.11356E-07 4.44763E-19-1.83290E-18
 -1        34 1.06739E-04-3.20178E-05-3.20291E-05 1.27165E-07-5.02885E-20-1.51131E-18
 -1        35 1.10151E-04-3.30330E-05-3.30322E-05 1.36530E-07-1.13983E-19-3.02966E-18
 -1        36 1.13200E-04-3.39391E-05-3.39087E-05 1.24781E-07 4.73470E-20-2.96955E-18
 -1        37 1.15272E-04-3.45549E-05-3.44734E-05 6.97891E-08-1.51471E-19-2.89318E-18
 -1        38 1.15550E-04-3.46389E-05-3.44923E-05-5.26817E-08-1.40434E-19-3.55084E-18
 -1        39 1.13212E-04-3.39459E-05-3.37508E-05-2.50072E-07 1.28572E-19-3.31196E-18
 -1        40 1.07864E-04-3.23561E-05-3.21786E-05-4.83612E-07 9.74733E-20-1.73382E-18
 -1        41 1.00137E-04-3.00501E-05-3.00007E-05-6.46794E-07-1.38062E-19-2.21743E-18
 -1        42 9.20363E-05-2.76234E-05-2.77878E-05-6.01067E-07-2.40031E-20-3.28448E-18
 -1        43 8.64629E-05-2.59486E-05-2.62982E-05-2.88357E-07-1.20040E-19-2.11259E-18
 -1        44 8.57746E-05-2.57417E-05-2.61167E-05 1.71429E-07 1.10068E-19-9.67656E-19
 -1        45 9.02982E-05-2.71021E-05-2.73239E-05 5.42324E-07-2.30441E-19-2.30533E-18
 -1        46 9.81120E-05-2.94453E-05-2.94470E-05 6.60383E-07 1.19865E-19-4.35634E-18
 -1        47 1.06302E-04-3.18923E-05-3.17371E-05 5.40788E-07 1.33747E-20-2.23561E-18
 -1        48 1.12543E-04-3.37501E-05-3.35505E-05 3.13891E-07-1.94631E-19-1.60387E-18
 -1        49 1.15858E-04-3.47341E-05-3.45724E-05 1.01768E-07 4.62285E-19-3.52111E-18
 -1        50 1.16440E-04-3.49060E-05-3.48097E-05-3.89202E-08-3.47634E-19-5.24540E-18
 -1        51 1.15060E-04-3.44967E-05-3.44573E-05-1.06928E-07 9.63119E-20-7.37633E-18
 -1        52 1.12576E-04-3.37595E-05-3.37563E-05-1.24251E-07-6.52300E-20-6.20313E-18
 -1        53 1.09672E-04-3.28966E-05-3.29108E-05-1.14175E-07-8.14050E-20-5.96308E-18
 -1        54 1.06799E-04-3.20411E-05-3.20606E-05-9.31325E-08 1.85778E-19-4.88627E-18
 -1        55 1.04205E-04-3.12672E-05-3.12855E-05-7.03828E-08-7.10871E-19-4.71114E-18
 -1        56 1.01996E-04-3.06070E-05-3.06217E-05-5.01779E-08-4.24613E-19-7.03629E-18
 -1        57 1.00194E-04-3.00671E-05-3.00778E-05-3.39161E-08 1.29710E-19-7.02228E-18
 -1        58 9.87698E-05-2.96397E-05-2.96470E-05-2.16050E-08-1.13216E-20-6.97551E-18
 -1        59 9.76757E-05-2.93107E-05-2.93153E-05-1.26928E-08 5.20007E-21-6.40422E-18
 -1        60 9.68564E-05-2.90639E-05-2.90665E-05-6.48471E-09-3.29696E-19-5.01351E-18
 -1        61 9.62587E-05-2.88834E-05-2.88848E-05-2.32534E-09 4.40372E-19-4.75549E-18
 -1        62 9.58350E-05-2.87553E-05-2.87557E-05 3.37424E-10 8.90061E-20-1.64263E-18
 -1        63 9.55451E-05-2.86673E-05-2.86672E-05 1.94218E-09-5.37870E-19-1.31749E-18
 -1        64 9.53560E-05-2.86098E-05-2.86094E-05 2.82559E-09 1.50304E-19-4.64247E-18
 -1        65 9.52412E-05-2.85746E-05-2.85741E-05 3.24056E-09-1.03926E-19-6.26297E-18
 -1        66 9.51802E-05-2.85557E-05-2.85552E-05 3.37447E-09 5.60178E-19-4.31981E-18
 -1        67 9.51573E-05-2.85484E-05-2.85479E-05 3.36482E-09 3.04887E-20-1.62031E-18
 -1        68 9.51602E-05-2.85488E-05-2.85485E-05 3.31133E-09 7.43465E-19-6.37550E-19
 -1        69 9.51793E-05-2.85542E-05-2.85539E-05 3.25492E-09-3.65580E-19 3.39475E-19
 -1        70 9.52060E-05-2.85621E-05-2.85613E-05 3.00533E-09-1.64853E-20 2.37428E-18
 -1        71 9.52306E-05-2.85698E-05-2.85676E-05 2.12923E-09-3.49171E-19 2.49882E-18
 -1        72 1.01721E-04-3.04435E-05-3.40100E-05-1.93874E-06 1.80471E-19 1.53203E-17
 -1        73 9.25799E-05-2.75237E-05-2.89035E-05-3.34756E-07 9.71242E-20 1.27468E-17
 -1        74 8.95517E-05-2.68392E-05-2.71044E-05-1.21387E-07 9.17641E-20 1.07910E-17
 -1        75 8.89667E-05-2.67191E-05-2.67168E-05-8.77799E-08 2.15663E-20 9.39333E-18
 -1        76 8.95973E-05-2.69064E-05-2.68762E-05-6.76167E-08 6.17259E-20 8.19641E-18
 -1        77 9.09209E-05-2.72945E-05-2.72777E-05-5.42593E-08 7.40165E-20 7.29635E-18
 -1        78 9.27224E-05-2.78288E-05-2.78248E-05-4.64093E-08-6.16411E-20 7.02635E-18
 -1        79 9.49201E-05-2.84841E-05-2.84898E-05-4.36041E-08-2.51109E-20 6.70145E-18
 -1        80 9.74958E-05-2.92533E-05-2.92677E-05-4.65906E-08-6.98773E-20 6.23506E-18
 -1        81 1.00455E-04-3.01371E-05-3.01594E-05-5.69194E-08 1.36259E-19 5.50057E-18
 -1        82 1.03791E-04-3.11327E-05-3.11609E-05-7.63641E-08 6.49320E-20 4.78838E-18
 -1        83 1.07440E-04-3.22207E-05-3.22481E-05-1.05807E-07 1.10143E-19 4.05549E-18
 -1        84 1.11215E-04-3.33468E-05-3.33587E-05-1.42886E-07-2.95267E-20 3.85274E-18
 -1        85 1.14731E-04-3.43985E-05-3.43691E-05-1.77702E-07-9.27960E-20 4.25766E-18
 -1        86 1.17332E-04-3.51841E-05-3.50781E-05-1.87242E-07-1.36233E-19 3.59615E-18
 -1        87 1.18087E-04-3.54308E-05-3.52170E-05-1.32988E-07-1.68679E-19 3.86666E-18
 -1        88 1.15980E-04-3.48335E-05-3.45198E-05 2.76793E-08-9.01925E-20 3.41508E-18
 -1        89 1.10405E-04-3.31946E-05-3.28719E-05 2.99993E-07 2.91456E-19 2.00866E-18
 -1        90 1.01927E-04-3.06531E-05-3.04987E-05 5.96309E-07-6.06064E-19 1.45629E-18
 -1        91 9.28009E-05-2.78639E-05-2.80468E-05 7.33620E-07 1.80921E-19 2.13336E-18
 -1        92 8.64852E-05-2.58861E-05-2.64027E-05 5.51722E-07 5.31629E-20 1.88861E-18
 -1        93 8.58438E-05-2.56399E-05-2.62526E-05 9.24001E-08 1.37160E-19 3.14090E-18
 -1        94 9.12159E-05-2.72661E-05-2.76669E-05-3.87654E-07 9.58405E-20 1.11755E-18
 -1        95 1.00162E-04-3.00105E-05-3.00569E-05-6.37774E-07-9.76135E-20 9.29275E-19
 -1        96 1.09167E-04-3.27678E-05-3.25425E-05-6.06133E-07 1.04889E-19 2.95186E-18
 -1        97 1.15625E-04-3.47294E-05-3.44107E-05-4.10139E-07 8.77142E-20 2.17354E-18
 -1        98 1.18643E-04-3.56321E-05-3.53582E-05-1.91131E-07-3.67968E-19 1.25991E-18
 -1        99 1.18658E-04-3.56228E-05-3.54475E-05-2.75422E-08 3.83200E-20 1.02650E-19
 -1       100 1.16666E-04-3.50120E-05-3.49295E-05 6.53910E-08 2.70639E-19-2.54263E-18
 -1       101 1.13653E-04-3.40997E-05-3.40808E-05 1.03506E-07-4.53204E-20-3.11802E-18
 -1       102 1.10348E-04-3.31042E-05-3.31202E-05 1.08477E-07-4.33734E-20-1.54734E-18
 -1       103 1.07196E-04-3.21576E-05-3.21881E-05 9.71686E-08 6.65952E-20 3.97629E-19
 -1       104 1.04421E-04-3.13254E-05-3.13588E-05 7.99844E-08 1.72785E-19 1.82323E-18
 -1       105 1.02103E-04-3.06306E-05-3.06611E-05 6.23865E-08-1.75970E-19 1.02533E-18
 -1       106 1.00237E-04-3.00715E-05-3.00971E-05 4.67895E-08-3.30511E-19 9.61490E-19
 -1       107 9.87799E-05-2.96346E-05-2.96550E-05 3.39648E-08-1.17339E-19-8.18700E-19
 -1       108 9.76698E-05-2.93018E-05-2.93175E-05 2.38971E-08 5.04151E-19-3.15207E-18
 -1       109 9.68444E-05-2.90543E-05-2.90661E-05 1.62476E-08 3.68389E-20-2.61400E-18
 -1       110 9.62458E-05-2.88747E-05-2.88833E-05 1.05852E-08-1.49200E-19-3.23084E-18
 -1       111 9.58236E-05-2.87480E-05-2.87541E-05 6.49039E-09 6.23302E-19-2.09601E-18
 -1       112 9.55360E-05-2.86616E-05-2.86659E-05 3.59563E-09-4.57057E-19 7.98927E-19
 -1       113 9.53492E-05-2.86054E-05-2.86084E-05 1.59520E-09 1.04920E-19 1.71518E-18
 -1       114 9.52366E-05-2.85715E-05-2.85735E-05 2.41493E-10-4.81796E-19-1.28454E-18
 -1       115 9.51773E-05-2.85536E-05-2.85549E-05-6.64949E-10 6.56394E-19-5.05512E-18
 -1       116 9.51557E-05-2.85470E-05-2.85478E-05-1.28872E-09 4.36705E-19-7.60213E-18
 -1       117 9.51597E-05-2.85480E-05-2.85486E-05-1.76965E-09 7.87616E-19-1.07541E-17
 -1       118 9.51797E-05-2.85539E-05-2.85541E-05-2.22200E-09-6.20356E-19-9.33323E-18
 -1       119 9.52069E-05-2.85620E-05-2.85616E-05-2.72461E-09 2.47227E-19-9.48177E-18
 -1       120 9.52306E-05-2.85697E-05-2.85678E-05-2.47334E-09 2.31612E-18-1.11174E-17
 -1       121 9.52392E-05-2.85788E-05-2.85679E-05-2.61328E-09-1.04041E-17 1.36874E-18
 -1       122 9.52461E-05-2.86010E-05-2.85622E-05-2.59424E-09-5.51555E-18 1.63527E-18
 -1       123 9.52527E-05-2.86228E-05-2.85563E-05-1.85764E-09 1.37333E-18 1.03232E-18
 -1       124 9.52568E-05-2.86367E-05-2.85522E-05-9.77181E-10 1.51195E-18-2.31347E-19
 -1       125 9.52584E-05-2.86418E-05-2.85504E-05-3.08822E-10 3.18727E-18-5.58579E-19
 -1       126 9.52580E-05-2.86407E-05-2.85505E-05 5.17256E-11 3.30104E-18 1.05722E-18
 -1       127 9.52570E-05-2.86370E-05-2.85514E-05 1.57969E-10 5.88179E-18 4.14572E-19
 -1       128 9.52561E-05-2.86341E-05-2.85521E-05 7.82407E-11-4.07428E-19-4.11169E-19
 -1       129 9.52561E-05-2.86340E-05-2.85522E-05-6.72865E-11-1.57191E-18 1.07888E-18
 -1       130 9.52569E-05-2.86367E-05-2.85515E-05-1.48329E-10 4.76771E-19-8.43226E-19
 -1       131 9.52579E-05-2.86403E-05-2.85506E-05-3.72708E-11-6.07729E-18-6.00719E-20
 -1       132 9.52582E-05-2.86413E-05-2.85506E-05 3.18431E-10-1.03353E-17 1.38991E-18
 -1       133 9.52566E-05-2.86361E-05-2.85524E-05 9.87975E-10-8.56695E-18 8.33661E-19
 -1       134 9.52525E-05-2.86222E-05-2.85565E-05 1.89420E-09-3.45829E-18 7.91026E-20
 -1       135 9.52463E-05-2.86009E-05-2.85623E-05 3.58654E-09-3.00784E-18 2.04731E-19
 -1       136 9.52394E-05-2.85794E-05-2.85678E-05 3.24023E-09-3.44844E-18-5.07407E-19
 -1       137 2.47936E-05-8.49164E-05 1.51216E-05-2.24750E-05 7.50069E-18 1.43948E-18
 -1       138 7.76046E-06-3.37793E-05 3.17885E-06-1.79021E-05 1.06451E-17 5.35219E-18
 -1       139 1.12359E-05 1.40530E-05-1.46443E-05 2.23861E-05 1.51674E-17 1.27296E-17
 -1       140 5.57216E-05 2.73174E-05-3.45366E-05 7.61759E-05 1.60394E-17 1.78169E-17
 -1       141 1.39124E-04-3.26282E-07-5.36093E-05 1.11077E-04 8.39558E-18 1.45821E-17
 -1       142 2.38322E-04-5.27995E-05-6.93956E-05 9.71156E-05 2.52765E-18 5.91441E-18
 -1       143 3.02624E-04-9.11271E-05-7.81776E-05 3.30290E-05-6.75535E-19-1.78258E-18
 -1       144 2.95796E-04-8.69528E-05-7.71997E-05-4.90877E-05 1.93986E-18-7.77661E-18
 -1       145 2.17962E-04-4.07166E-05-6.65479E-05-1.05356E-04 6.18069E-18-1.58230E-17
 -1       146 1.17707E-04 8.19811E-06-4.91186E-05-1.04280E-04 1.25052E-17-1.90786E-17
 -1       147 3.78442E-05 2.74866E-05-2.84448E-05-6.02947E-05 1.83857E-17-1.84365E-17
 -1       148 7.29318E-06 2.07586E-06-9.11399E-06-8.63034E-06 1.92344E-17-1.22962E-17
 -1       149 1.23497E-05-5.21569E-05 8.01740E-06 2.44858E-05 1.34322E-17-5.63584E-18
 -1       150 3.07488E-05-9.82207E-05 1.75828E-05 1.97625E-05 3.42921E-18-1.05522E-18
 -1       151 3.56859E-05-1.09356E-04 1.97250E-05-6.92749E-06-8.05528E-18-6.18916E-19
 -1       152 2.19688E-05-7.76651E-05 1.34631E-05-2.48653E-05-1.52889E-17-4.34507E-18
 -1       153 5.70202E-06-2.37562E-05 3.95977E-07-1.36223E-05-1.69839E-17-8.24100E-18
 -1       154 1.54615E-05 2.06632E-05-1.83839E-05 3.25932E-05-1.62143E-17-1.36440E-17
 -1       155 7.64642E-05 2.30521E-05-4.01018E-05 8.89767E-05-1.30536E-17-1.57806E-17
 -1       156 1.76156E-04-1.85771E-05-5.99274E-05 1.11126E-04-7.05282E-18-1.46770E-17
 -1       157 2.69531E-04-7.09338E-05-7.38406E-05 7.82016E-05-2.44994E-18-1.08141E-17
 -1       158 3.07705E-04-9.49416E-05-7.85709E-05 3.63573E-06-6.56795E-19-1.56522E-18
 -1       159 2.74112E-04-7.38129E-05-7.44464E-05-7.28489E-05-1.57843E-18 6.74026E-18
 -1       160 8.04171E-05 2.25721E-05-4.13527E-05-9.23462E-05-1.20219E-17 1.54711E-17
 -1       161 1.70410E-05 2.22085E-05-1.94213E-05-3.55088E-05-1.62486E-17 1.28427E-17
 -1       162 5.50890E-06-2.34243E-05 3.75032E-07 1.38341E-05-1.16476E-17 7.01428E-18
 -1       163 2.41902E-05-8.35279E-05 1.47460E-05 2.40482E-05-2.55889E-18 5.52424E-19
 -1       164 9.50449E-05-1.24942E-05-3.55765E-05-2.17210E-05-2.01612E-18 1.74065E-19
 -1       165 8.95456E-05-8.56076E-06-3.48658E-05-1.66824E-05-1.74215E-18-1.87287E-18
 -1       166 8.67872E-05-6.50438E-06-3.45166E-05-1.28422E-05-1.34713E-18-2.97964E-18
 -1       167 8.53074E-05-5.40726E-06-3.43249E-05-9.65071E-06-9.36291E-19-3.46674E-18
 -1       168 8.43924E-05-4.71892E-06-3.42123E-05-6.92904E-06-5.40014E-19-3.55507E-18
 -1       169 8.38100E-05-4.27941E-06-3.41431E-05-4.45164E-06-2.28495E-19-3.51204E-18
 -1       170 8.34841E-05-4.03239E-06-3.41053E-05-2.15672E-06 1.69517E-19-3.40682E-18
 -1       171 8.33816E-05-3.95458E-06-3.40936E-05 5.00725E-08 5.19394E-19-3.23845E-18
 -1       172 8.34949E-05-4.04044E-06-3.41066E-05 2.25874E-06 8.83299E-19-3.11528E-18
 -1       173 8.38340E-05-4.29844E-06-3.41454E-05 4.55972E-06 1.14828E-18-2.89385E-18
 -1       174 8.44208E-05-4.74559E-06-3.42134E-05 7.00577E-06 1.50159E-18-2.47003E-18
 -1       175 8.53664E-05-5.46342E-06-3.43267E-05 9.79309E-06 1.84449E-18-1.82149E-18
 -1       176 8.68989E-05-6.61538E-06-3.45209E-05 1.30344E-05 2.17272E-18-8.21913E-19
 -1       177 8.96868E-05-8.70238E-06-3.48707E-05 1.69138E-05 2.27697E-18 8.93051E-19
 -1       178 9.59340E-05-1.37423E-05-3.54316E-05 2.12812E-05 2.00168E-18 3.79240E-18
 -1       179 1.05483E-04-2.61218E-05-3.51913E-05 1.82112E-05 1.28725E-18 7.50551E-18
 -1       180 1.03458E-04-2.73544E-05-3.26130E-05-1.16669E-05-1.82814E-18 2.74727E-18
 -1       181 9.74860E-05-2.84018E-05-2.96408E-05-4.27708E-06-1.57049E-18 1.89862E-18
 -1       182 9.42661E-05-2.78410E-05-2.84182E-05-1.25770E-06-1.21075E-18 1.19794E-18
 -1       183 9.31983E-05-2.77322E-05-2.80195E-05 2.18824E-07-6.95852E-19 5.14854E-19
 -1       184 9.32173E-05-2.78190E-05-2.80070E-05 1.07449E-06-5.20945E-19 1.74742E-19
 -1       185 9.39382E-05-2.80701E-05-2.82174E-05 1.65281E-06-6.07902E-19-1.34586E-19
 -1       186 9.51530E-05-2.84482E-05-2.85803E-05 2.10329E-06-2.36505E-19-4.48401E-19
 -1       187 9.67531E-05-2.89321E-05-2.90608E-05 2.49770E-06-1.84577E-19-5.82223E-19
 -1       188 9.86776E-05-2.95125E-05-2.96386E-05 2.86261E-06-3.10792E-19-2.91414E-19
 -1       189 1.00880E-04-3.01853E-05-3.02961E-05 3.18612E-06-3.49416E-19-2.47004E-19
 -1       190 1.03298E-04-3.09449E-05-3.10095E-05 3.41310E-06-1.60736E-19-9.63577E-19
 -1       191 1.05822E-04-3.17753E-05-3.17393E-05 3.43583E-06-6.40645E-19-1.26955E-18
 -1       192 1.08267E-04-3.26377E-05-3.24217E-05 3.08897E-06-5.97704E-20-1.56373E-18
 -1       193 1.10335E-04-3.34520E-05-3.29632E-05 2.16604E-06 3.15421E-20-1.55179E-18
 -1       194 1.11618E-04-3.40741E-05-3.32481E-05 4.86737E-07-2.31713E-19-1.21195E-18
 -1       195 1.11634E-04-3.42794E-05-3.31643E-05-1.95278E-06 1.92501E-19-1.23382E-18
 -1       196 1.09985E-04-3.37986E-05-3.26569E-05-4.76013E-06 3.12118E-19-1.39888E-18
 -1       197 1.06636E-04-3.24568E-05-3.17879E-05-7.00555E-06-1.00635E-19-1.64203E-18
 -1       198 1.02244E-04-3.04222E-05-3.07731E-05-7.41510E-06-6.01446E-19-1.37874E-18
 -1       199 9.82588E-05-2.84042E-05-2.99307E-05-5.12879E-06 1.73569E-19-2.12335E-18
 -1       200 9.63909E-05-2.74100E-05-2.95580E-05-6.28583E-07 1.61247E-19-2.35634E-18
 -1       201 9.75605E-05-2.80205E-05-2.97961E-05 4.18016E-06-8.57578E-19-2.57286E-18
 -1       202 1.01217E-04-2.98828E-05-3.05622E-05 7.18107E-06-2.38038E-19-1.83431E-18
 -1       203 1.05759E-04-3.20284E-05-3.15923E-05 7.46668E-06 5.15189E-19-1.39023E-18
 -1       204 1.09595E-04-3.36229E-05-3.25613E-05 5.61516E-06-1.25930E-19-1.62833E-18
 -1       205 1.11852E-04-3.43619E-05-3.32204E-05 2.88433E-06-9.07950E-19-1.95911E-18
 -1       206 1.12418E-04-3.43602E-05-3.34675E-05 3.40305E-07-9.66455E-19-2.45499E-18
 -1       207 1.11635E-04-3.38845E-05-3.33351E-05-1.48977E-06-5.26102E-19-2.97135E-18
 -1       208 1.09987E-04-3.31783E-05-3.29276E-05-2.52851E-06 3.23897E-19-1.94837E-18
 -1       209 1.07913E-04-3.24079E-05-3.23648E-05-2.92876E-06-2.77879E-19-1.96060E-18
 -1       210 1.05743E-04-3.16690E-05-3.17474E-05-2.90253E-06 1.93542E-19-1.31939E-18
 -1       211 1.03684E-04-3.10089E-05-3.11453E-05-2.63515E-06-5.93617E-19-2.11118E-18
 -1       212 1.01852E-04-3.04459E-05-3.05998E-05-2.25956E-06-4.54605E-19-2.86386E-18
 -1       213 1.00293E-04-2.99813E-05-3.01301E-05-1.85953E-06 3.65023E-19-2.56518E-18
 -1       214 9.90119E-05-2.96083E-05-2.97407E-05-1.48199E-06-2.21359E-19-3.10823E-18
 -1       215 9.79881E-05-2.93156E-05-2.94276E-05-1.14945E-06 7.88994E-19-1.98060E-18
 -1       216 9.71902E-05-2.90910E-05-2.91823E-05-8.69572E-07-2.47949E-19-2.60681E-18
 -1       217 9.65826E-05-2.89222E-05-2.89947E-05-6.41676E-07 4.93025E-19-1.16505E-18
 -1       218 9.61307E-05-2.87984E-05-2.88546E-05-4.60901E-07 6.85842E-19-1.13097E-18
 -1       219 9.58032E-05-2.87099E-05-2.87526E-05-3.20653E-07 1.46536E-19-1.60581E-18
 -1       220 9.55728E-05-2.86487E-05-2.86805E-05-2.14019E-07-1.60072E-18-1.81363E-18
 -1       221 9.54169E-05-2.86081E-05-2.86313E-05-1.34508E-07 2.41795E-19-8.81130E-19
 -1       222 9.53168E-05-2.85829E-05-2.85995E-05-7.64210E-08 1.02118E-18 9.88806E-19
 -1       223 9.52577E-05-2.85688E-05-2.85804E-05-3.50099E-08 1.27298E-18 4.64134E-19
 -1       224 9.52278E-05-2.85627E-05-2.85704E-05-6.54456E-09 9.07391E-19 6.43178E-19
 -1       225 9.52178E-05-2.85621E-05-2.85665E-05 1.16109E-08 8.11638E-19 6.85464E-19
 -1       226 9.52200E-05-2.85651E-05-2.85663E-05 2.06996E-08 9.92362E-19 8.14759E-19
 -1       227 9.52282E-05-2.85707E-05-2.85674E-05 2.04965E-08 2.20100E-19 1.50426E-18
 -1       228 9.96539E-05-2.86112E-05-3.06247E-05 6.82625E-06 1.33269E-18 6.61015E-18
 -1       229 9.49295E-05-2.79374E-05-2.86799E-05 2.35177E-06 1.06625E-18 5.54470E-18
 -1       230 9.30360E-05-2.76612E-05-2.79716E-05 4.63382E-07 7.67643E-19 4.61236E-18
 -1       231 9.26228E-05-2.76463E-05-2.78189E-05-5.30653E-07 6.65925E-19 4.09179E-18
 -1       232 9.31017E-05-2.78334E-05-2.79572E-05-1.14650E-06 3.33805E-19 3.82751E-18
 -1       233 9.41787E-05-2.81740E-05-2.82794E-05-1.59203E-06 1.74455E-19 3.51729E-18
 -1       234 9.57061E-05-2.86368E-05-2.87389E-05-1.96640E-06 1.95050E-19 3.01148E-18
 -1       235 9.76126E-05-2.92075E-05-2.93134E-05-2.31785E-06 3.76364E-19 2.80773E-18
 -1       236 9.98608E-05-2.98810E-05-2.99900E-05-2.66077E-06 4.53851E-19 1.94939E-18
 -1       237 1.02415E-04-3.06548E-05-3.07550E-05-2.97590E-06 2.49924E-19 2.41836E-18
 -1       238 1.05207E-04-3.15199E-05-3.15829E-05-3.20157E-06 5.75792E-19 2.30063E-18
 -1       239 1.08098E-04-3.24501E-05-3.24251E-05-3.22109E-06 4.03912E-21 1.68243E-18
 -1       240 1.10836E-04-3.33862E-05-3.31972E-05-2.85528E-06 9.93427E-20 1.65218E-18
 -1       241 1.13016E-04-3.42155E-05-3.37733E-05-1.88104E-06-2.25134E-19 1.89277E-18
 -1       242 1.14090E-04-3.47507E-05-3.39972E-05-1.13494E-07 1.43185E-19 2.40491E-18
 -1       243 1.13457E-04-3.47287E-05-3.37260E-05 2.41626E-06-1.89755E-20 2.04404E-18
 -1       244 1.10711E-04-3.38722E-05-3.29126E-05 5.19751E-06 6.38299E-19 2.05769E-18
 -1       245 1.06076E-04-3.21020E-05-3.16958E-05 7.10968E-06 3.53385E-19 1.95662E-18
 -1       246 1.00758E-04-2.98119E-05-3.04241E-05 6.79930E-06-1.06567E-19 1.64350E-18
 -1       247 9.68090E-05-2.79574E-05-2.95504E-05 3.66852E-06-2.14577E-19 2.94451E-18
 -1       248 9.61071E-05-2.75594E-05-2.94211E-05-1.21551E-06 9.18634E-20 2.59908E-18
 -1       249 9.90493E-05-2.88782E-05-3.00912E-05-5.52744E-06 1.11550E-18 1.46461E-18
 -1       250 1.04222E-04-3.11592E-05-3.12998E-05-7.37625E-06-9.41795E-20 1.54656E-19
 -1       251 1.09467E-04-3.33070E-05-3.26143E-05-6.52843E-06-6.39705E-19-5.41962E-19
 -1       252 1.13169E-04-3.46348E-05-3.36381E-05-4.08083E-06-7.31228E-20 8.20418E-19
 -1       253 1.14760E-04-3.50422E-05-3.41585E-05-1.36146E-06 2.59801E-20 2.20441E-18
 -1       254 1.14470E-04-3.47597E-05-3.41656E-05 7.93604E-07 9.15773E-19 1.78973E-18
 -1       255 1.12879E-04-3.40832E-05-3.37780E-05 2.12601E-06 8.93142E-19 1.30320E-18
 -1       256 1.10586E-04-3.32458E-05-3.31536E-05 2.73111E-06-6.95845E-20 2.33679E-19
 -1       257 1.08058E-04-3.23948E-05-3.24321E-05 2.82732E-06-7.50194E-19 6.61744E-20
 -1       258 1.05600E-04-3.16102E-05-3.17125E-05 2.62503E-06-2.85437E-19 2.87237E-19
 -1       259 1.03386E-04-3.09281E-05-3.10537E-05 2.28035E-06 3.73203E-19-1.38358E-18
 -1       260 1.01489E-04-3.03583E-05-3.04835E-05 1.89290E-06-8.87420E-20-1.34824E-18
 -1       261 9.99236E-05-2.98966E-05-3.00098E-05 1.51888E-06-1.80047E-19-1.38498E-18
 -1       262 9.86691E-05-2.95317E-05-2.96282E-05 1.18570E-06 9.31991E-19-1.47678E-18
 -1       263 9.76885E-05-2.92497E-05-2.93289E-05 9.03412E-07 7.87983E-19-1.86866E-18
 -1       264 9.69394E-05-2.90363E-05-2.90995E-05 6.72455E-07-7.15382E-19-1.68373E-18
 -1       265 9.63798E-05-2.88784E-05-2.89276E-05 4.88462E-07-1.95074E-19-1.24794E-18
 -1       266 9.59717E-05-2.87642E-05-2.88018E-05 3.45067E-07-4.51971E-19 3.21302E-19
 -1       267 9.56820E-05-2.86841E-05-2.87123E-05 2.35466E-07-1.42693E-18 1.35487E-18
 -1       268 9.54833E-05-2.86298E-05-2.86506E-05 1.53219E-07 1.17909E-18 5.46308E-19
 -1       269 9.53531E-05-2.85949E-05-2.86100E-05 9.26346E-08 1.19796E-18-8.94121E-19
 -1       270 9.52735E-05-2.85743E-05-2.85849E-05 4.89107E-08 2.68484E-18-2.15065E-18
 -1       271 9.52306E-05-2.85638E-05-2.85711E-05 1.81735E-08 1.46424E-18-4.27569E-18
 -1       272 9.52131E-05-2.85604E-05-2.85652E-05-2.49724E-09 1.63189E-18-3.48205E-18
 -1       273 9.52122E-05-2.85618E-05-2.85643E-05-1.49341E-08 2.30065E-20-5.10579E-18
 -1       274 9.52203E-05-2.85660E-05-2.85659E-05-1.96814E-08-1.52952E-19-6.18225E-18
 -1       275 9.52313E-05-2.85724E-05-2.85678E-05-1.54545E-08-8.18498E-19-3.85759E-18
 -1       276 9.52387E-05-2.85815E-05-2.85673E-05-1.93909E-08-2.17515E-18 3.50125E-18
 -1       277 9.52445E-05-2.85902E-05-2.85661E-05-1.81098E-08-1.75531E-18 3.31918E-18
 -1       278 9.52469E-05-2.85949E-05-2.85651E-05-1.07014E-08 6.84577E-19 2.76438E-18
 -1       279 9.52465E-05-2.85949E-05-2.85649E-05-2.66011E-09 1.46244E-18 2.05916E-18
 -1       280 9.52444E-05-2.85912E-05-2.85656E-05 2.87140E-09 7.75191E-19-2.50059E-19
 -1       281 9.52417E-05-2.85859E-05-2.85668E-05 4.83577E-09-5.86477E-19 5.62044E-19
 -1       282 9.52396E-05-2.85815E-05-2.85678E-05 3.43778E-09 5.65260E-19-1.32918E-18
 -1       283 9.52387E-05-2.85798E-05-2.85682E-05 7.80553E-11 1.19920E-18-1.85517E-19
 -1       284 9.52395E-05-2.85814E-05-2.85678E-05-3.28567E-09-9.28426E-19-7.07463E-20
 -1       285 9.52417E-05-2.85858E-05-2.85668E-05-4.69647E-09-1.59182E-18-3.34180E-18
 -1       286 9.52443E-05-2.85909E-05-2.85657E-05-2.81595E-09-2.19164E-18-2.06916E-18
 -1       287 9.52464E-05-2.85946E-05-2.85650E-05 2.72892E-09-1.19802E-18 7.03335E-19
 -1       288 9.52468E-05-2.85947E-05-2.85652E-05 1.08007E-08-1.63047E-18 2.49837E-18
 -1       289 9.52440E-05-2.85893E-05-2.85662E-05 1.73263E-08-2.23701E-18 5.21681E-19
 -1       290 9.52390E-05-2.85799E-05-2.85682E-05 2.30983E-08-1.49274E-18 9.74529E-20
 -1       291 1.14873E-05-3.94625E-05 9.82413E-06 1.01512E-05 8.48409E-19 3.66236E-18
 -1       292 2.71159E-05-4.19947E-05 3.86234E-06 2.25017E-05 3.36886E-18 3.48882E-18
 -1       293 5.38720E-05-3.70871E-05-8.88848E-06 3.47996E-05 3.68523E-18 6.74185E-18
 -1       294 8.85530E-05-3.08095E-05-2.51883E-05 4.37872E-05 4.84058E-18 6.44465E-18
 -1       295 1.30832E-04-3.00248E-05-4.21710E-05 4.68135E-05 5.94501E-18 3.34154E-18
 -1       296 1.72324E-04-3.26097E-05-5.74551E-05 3.99182E-05 5.34805E-18 1.45287E-18
 -1       297 1.89325E-04-2.94132E-05-6.63112E-05 1.29093E-05 4.20880E-18-3.61789E-19
 -1       298 2.07866E-04-3.44392E-05-7.10205E-05-2.62144E-06 3.79471E-18-3.67596E-18
 -1       299 1.92393E-04-3.25865E-05-6.57893E-05-2.11475E-05 4.45688E-18-4.46873E-18
 -1       300 1.61815E-04-3.47037E-05-5.31024E-05-3.07777E-05 5.48135E-18-4.34867E-18
 -1       301 1.21100E-04-3.21798E-05-3.75301E-05-4.53195E-05 7.20232E-18-6.57679E-18
 -1       302 7.69842E-05-3.20973E-05-2.01209E-05-4.14069E-05 6.59458E-18-7.76877E-18
 -1       303 4.86682E-05-4.06799E-05-5.01473E-06-3.49067E-05 3.08595E-18-5.84238E-18
 -1       304 2.06813E-05-4.53243E-05 7.47286E-06-1.65101E-05 2.24908E-18-5.75162E-18
 -1       305 1.16715E-05-4.96368E-05 1.26987E-05-3.21937E-06-1.26584E-18-5.87311E-18
 -1       306 1.39980E-05-4.41269E-05 1.00683E-05 1.17953E-05-3.68290E-18-4.34157E-18
 -1       307 2.99059E-05-4.18760E-05 2.41877E-06 2.31688E-05-6.40907E-18-3.88365E-18
 -1       308 5.76599E-05-3.46691E-05-1.14562E-05 3.62705E-05-6.73899E-18-5.72933E-18
 -1       309 9.77849E-05-2.99056E-05-2.91877E-05 4.58506E-05-6.48721E-18-6.25915E-18
 -1       310 1.45709E-04-3.30572E-05-4.70155E-05 4.09944E-05-5.29750E-18-6.11007E-18
 -1       311 1.77294E-04-3.17461E-05-6.05757E-05 2.24187E-05-4.78155E-18-4.70781E-18
 -1       312 2.04493E-04-3.41742E-05-6.97529E-05 1.16048E-05-5.23985E-18-2.86138E-18
 -1       313 2.01305E-04-3.20780E-05-6.95850E-05-8.44052E-06-4.95070E-18-3.06467E-19
 -1       314 1.78936E-04-3.14851E-05-6.13001E-05-2.12176E-05-4.73645E-18 1.23032E-18
 -1       315 1.47271E-04-3.02796E-05-4.85064E-05-4.61502E-05-4.84672E-18 4.65106E-18
 -1       316 9.98796E-05-2.92768E-05-3.02448E-05-4.61620E-05-5.45066E-18 4.99284E-18
 -1       317 5.77770E-05-3.37230E-05-1.18943E-05-3.61412E-05-3.51286E-18 5.29025E-18
 -1       318 2.80131E-05-4.23858E-05 3.28492E-06-2.16265E-05-1.45076E-18 5.70620E-18
 -1       319 1.20813E-05-4.42243E-05 1.09017E-05-8.76879E-06 2.05035E-19 1.12475E-18
 -1       320 9.19473E-05-1.43973E-05-3.32984E-05-1.22018E-05-1.81129E-18-1.72269E-18
 -1       321 9.60361E-05-1.92132E-05-3.29854E-05-1.38737E-05-2.11160E-18-4.82703E-19
 -1       322 8.78979E-05-9.99597E-06-3.34402E-05-7.36643E-06-9.74324E-19-2.63049E-18
 -1       323 8.68556E-05-8.89459E-06-3.34580E-05-5.08306E-06-5.58629E-19-2.67736E-18
 -1       324 8.62102E-05-8.22360E-06-3.34649E-05-2.95773E-06-6.41665E-20-2.52940E-18
 -1       325 8.59041E-05-7.90841E-06-3.34670E-05-9.33037E-07 4.51596E-19-2.48890E-18
 -1       326 8.59136E-05-7.91791E-06-3.34671E-05 1.05813E-06 8.74377E-19-2.29709E-18
 -1       327 8.62406E-05-8.25430E-06-3.34649E-05 3.08468E-06 1.23583E-18-2.27329E-18
 -1       328 8.68958E-05-8.93622E-06-3.34576E-05 5.17614E-06 1.59685E-18-1.93531E-18
 -1       329 8.79699E-05-1.00732E-05-3.34380E-05 7.45417E-06 2.04212E-18-1.36087E-18
 -1       330 8.96183E-05-1.18581E-05-3.33914E-05 9.88560E-06 2.33868E-18-7.16051E-19
 -1       331 9.22087E-05-1.47273E-05-3.32861E-05 1.23034E-05 2.52886E-18 2.96620E-19
 -1       332 9.61327E-05-1.95611E-05-3.29221E-05 1.36267E-05 2.33252E-18 2.15643E-18
 -1       333 9.90578E-05-2.45463E-05-3.20188E-05 1.12923E-05 1.91161E-18 3.90495E-18
 -1       334 9.69084E-05-2.69348E-05-2.99577E-05 5.07651E-06 1.52251E-18 3.23108E-18
 -1       335 9.69971E-05-2.61191E-05-3.03307E-05-5.50385E-06-1.70150E-18-1.39785E-19
 -1       336 9.57730E-05-2.71397E-05-2.93875E-05-1.79598E-06-1.28289E-18-1.41055E-19
 -1       337 9.51819E-05-2.75877E-05-2.89523E-05 4.06000E-07-7.09067E-19-2.55052E-19
 -1       338 9.51583E-05-2.78845E-05-2.88224E-05 1.85052E-06-6.63793E-19-3.40715E-19
 -1       339 9.55947E-05-2.81629E-05-2.88935E-05 2.89612E-06-6.72406E-19-3.01521E-19
 -1       340 9.63987E-05-2.84730E-05-2.91066E-05 3.73381E-06-1.92564E-19-3.93142E-19
 -1       341 9.75081E-05-2.88434E-05-2.94242E-05 4.45932E-06-1.19005E-19-3.86262E-19
 -1       342 9.88854E-05-2.93035E-05-2.98183E-05 5.09965E-06-2.14482E-19-3.95455E-19
 -1       343 1.00508E-04-2.98917E-05-3.02631E-05 5.61715E-06-5.55096E-19-4.17968E-19
 -1       344 1.02356E-04-3.06570E-05-3.07298E-05 5.90204E-06-5.89088E-19-4.59306E-19
 -1       345 1.04400E-04-3.16513E-05-3.11839E-05 5.76277E-06-5.42848E-19-1.52437E-19
 -1       346 1.06579E-04-3.29030E-05-3.15863E-05 4.92942E-06 8.97437E-20-9.65820E-20
 -1       347 1.08753E-04-3.43547E-05-3.19013E-05 3.09757E-06-7.11169E-20-1.17755E-19
 -1       348 1.10641E-04-3.57561E-05-3.21139E-05 5.89072E-08 1.13631E-19-3.80185E-19
 -1       349 1.11747E-04-3.65502E-05-3.22455E-05-4.03078E-06 6.06687E-20-3.80573E-19
 -1       350 1.11445E-04-3.59571E-05-3.23646E-05-8.28964E-06 2.93753E-19-1.46444E-19
 -1       351 1.09337E-04-3.34047E-05-3.25430E-05-1.09806E-05-1.65577E-20-4.74866E-19
 -1       352 1.05943E-04-2.94071E-05-3.27972E-05-1.00455E-05-7.64818E-19-9.77226E-19
 -1       353 1.03067E-04-2.60197E-05-3.30159E-05-4.73356E-06-2.86820E-19-1.22766E-18
 -1       354 1.02691E-04-2.55499E-05-3.30561E-05 2.94721E-06-3.91647E-19-1.97021E-18
 -1       355 1.05119E-04-2.83537E-05-3.28932E-05 9.20599E-06-8.66389E-21-1.12281E-18
 -1       356 1.08653E-04-3.24457E-05-3.26538E-05 1.13603E-05 1.90336E-19-1.33972E-18
 -1       357 1.11282E-04-3.55082E-05-3.24785E-05 9.49517E-06-4.60678E-19-2.59046E-18
 -1       358 1.12140E-04-3.66123E-05-3.23862E-05 5.50787E-06 2.00232E-19-2.97777E-18
 -1       359 1.11451E-04-3.61238E-05-3.23036E-05 1.32931E-06-1.88455E-19-1.37575E-18
 -1       360 1.09846E-04-3.48461E-05-3.21602E-05-1.93213E-06-5.82538E-19-2.19578E-19
 -1       361 1.07869E-04-3.34109E-05-3.19224E-05-3.96735E-06 4.28809E-19 1.67244E-19
 -1       362 1.05854E-04-3.21415E-05-3.15973E-05-4.92123E-06-1.52202E-19-8.67361E-19
 -1       363 1.03969E-04-3.11370E-05-3.12156E-05-5.09558E-06 1.17426E-19-1.38904E-18
 -1       364 1.02286E-04-3.03857E-05-3.08135E-05-4.78708E-06 6.37609E-20-1.56583E-18
 -1       365 1.00830E-04-2.98391E-05-3.04218E-05-4.22658E-06-7.49316E-19 7.98715E-21
 -1       366 9.95979E-05-2.94461E-05-3.00616E-05-3.57134E-06-1.28454E-19 1.52572E-19
 -1       367 9.85781E-05-2.91652E-05-2.97449E-05-2.91777E-06-4.39699E-19 7.53195E-19
 -1       368 9.77501E-05-2.89651E-05-2.94761E-05-2.31861E-06 5.38885E-19 5.42161E-19
 -1       369 9.70904E-05-2.88235E-05-2.92544E-05-1.79785E-06-1.99313E-19 3.26593E-19
 -1       370 9.65745E-05-2.87244E-05-2.90762E-05-1.36196E-06 1.18684E-18 2.08231E-18
 -1       371 9.61787E-05-2.86564E-05-2.89363E-05-1.00751E-06 7.72733E-19 8.24476E-19
 -1       372 9.58813E-05-2.86109E-05-2.88287E-05-7.26057E-07 1.27892E-18 1.47272E-18
 -1       373 9.56627E-05-2.85817E-05-2.87479E-05-5.07192E-07-1.01065E-18 1.26190E-18
 -1       374 9.55063E-05-2.85642E-05-2.86886E-05-3.40292E-07-4.95685E-19 1.96399E-18
 -1       375 9.53978E-05-2.85551E-05-2.86463E-05-2.15496E-07 1.53195E-18 1.27679E-18
 -1       376 9.53257E-05-2.85517E-05-2.86170E-05-1.24212E-07 1.18299E-18 2.02043E-18
 -1       377 9.52805E-05-2.85524E-05-2.85974E-05-5.93407E-08 8.35226E-19 1.97987E-18
 -1       378 9.52545E-05-2.85560E-05-2.85849E-05-1.54458E-08-5.58765E-20 1.81497E-18
 -1       379 9.52418E-05-2.85619E-05-2.85769E-05 1.14562E-08-1.35689E-19 1.58257E-18
 -1       380 9.52374E-05-2.85697E-05-2.85719E-05 2.30868E-08 2.61284E-19 9.05695E-19
 -1       381 9.52256E-05-2.75194E-05-2.89774E-05 1.66614E-06 1.27968E-18 2.75419E-18
 -1       382 9.44558E-05-2.77270E-05-2.85742E-05-2.80038E-07 8.95818E-19 2.24660E-18
 -1       383 9.44639E-05-2.79301E-05-2.85019E-05-1.50916E-06 5.36040E-19 2.11650E-18
 -1       384 9.50415E-05-2.81945E-05-2.86413E-05-2.38193E-06 4.44077E-19 1.73176E-18
 -1       385 9.60549E-05-2.85343E-05-2.89320E-05-3.08498E-06 3.82409E-19 1.26001E-18
 -1       386 9.74250E-05-2.89556E-05-2.93397E-05-3.71298E-06 4.47149E-19 1.25453E-18
 -1       387 9.91067E-05-2.94692E-05-2.98413E-05-4.30060E-06 7.75700E-19 1.47858E-18
 -1       388 1.01068E-04-3.00930E-05-3.04160E-05-4.82749E-06 1.73988E-19 1.64502E-18
 -1       389 1.03272E-04-3.08520E-05-3.10379E-05-5.20933E-06 4.39302E-19 1.13569E-18
 -1       390 1.05654E-04-3.17727E-05-3.16683E-05-5.28270E-06 3.99233E-19 1.37314E-18
 -1       391 1.08098E-04-3.28668E-05-3.22517E-05-4.79637E-06 6.61888E-19 1.05407E-18
 -1       392 1.10398E-04-3.40931E-05-3.27171E-05-3.43478E-06-3.32381E-19 9.69259E-19
 -1       393 1.12220E-04-3.52826E-05-3.29919E-05-9.21907E-07-3.38032E-19 1.42094E-18
 -1       394 1.13084E-04-3.60556E-05-3.30307E-05 2.74541E-06 1.54461E-19 2.25165E-18
 -1       395 1.12408E-04-3.57869E-05-3.28506E-05 6.93660E-06 1.07133E-18 1.78541E-18
 -1       396 1.09868E-04-3.39311E-05-3.25503E-05 1.00912E-05 7.09187E-19 1.36792E-18
 -1       397 1.05970E-04-3.06765E-05-3.22697E-05 1.01607E-05-5.28630E-19 1.22089E-18
 -1       398 1.02425E-04-2.74977E-05-3.21096E-05 5.96087E-06-4.75195E-19 1.86088E-18
 -1       399 1.01357E-04-2.64531E-05-3.20971E-05-1.19498E-06 5.86762E-19 1.53864E-18
 -1       400 1.03532E-04-2.83411E-05-3.22176E-05-7.79410E-06 1.82947E-18 7.96366E-19
 -1       401 1.07560E-04-3.17988E-05-3.24592E-05-1.07538E-05 5.98339E-19-1.52899E-19
 -1       402 1.11258E-04-3.47623E-05-3.27831E-05-9.58627E-06-5.22502E-19-7.02147E-19
 -1       403 1.13284E-04-3.61317E-05-3.30792E-05-5.94209E-06-9.09631E-19-1.02294E-18
 -1       404 1.13491E-04-3.60335E-05-3.32185E-05-1.84228E-06-1.71630E-19-5.94614E-19
 -1       405 1.12365E-04-3.51018E-05-3.31342E-05 1.44073E-06 1.05090E-18 1.12156E-18
 -1       406 1.10487E-04-3.39030E-05-3.28376E-05 3.50244E-06 1.40521E-18 1.22939E-18
 -1       407 1.08306E-04-3.27550E-05-3.23877E-05 4.46636E-06 8.33875E-19 2.24621E-18
 -1       408 1.06106E-04-3.17792E-05-3.18576E-05 4.64527E-06-8.06760E-20 1.81726E-18
 -1       409 1.04054E-04-3.09939E-05-3.13107E-05 4.34939E-06 2.67623E-19-6.60675E-19
 -1       410 1.02234E-04-3.03781E-05-3.07921E-05 3.81566E-06 4.00871E-19-6.68326E-19
 -1       411 1.00676E-04-2.99014E-05-3.03279E-05 3.20041E-06-1.78902E-19-3.97449E-19
 -1       412 9.93819E-05-2.95356E-05-2.99299E-05 2.59543E-06 1.81063E-19-3.51603E-19
 -1       413 9.83326E-05-2.92575E-05-2.95997E-05 2.04814E-06 1.23132E-18 1.76134E-19
 -1       414 9.75004E-05-2.90482E-05-2.93332E-05 1.57810E-06 6.48607E-19 9.69715E-20
 -1       415 9.68538E-05-2.88929E-05-2.91232E-05 1.18875E-06-5.40928E-19 5.23190E-19
 -1       416 9.63615E-05-2.87796E-05-2.89613E-05 8.74973E-07-3.10860E-19-2.73787E-20
 -1       417 9.59946E-05-2.86988E-05-2.88392E-05 6.27729E-07-1.95031E-18-5.19060E-19
 -1       418 9.57274E-05-2.86426E-05-2.87492E-05 4.36712E-07-6.25206E-19 9.31298E-19
 -1       419 9.55383E-05-2.86052E-05-2.86846E-05 2.91834E-07 2.07593E-19-1.72571E-19
 -1       420 9.54089E-05-2.85815E-05-2.86395E-05 1.83964E-07 1.46885E-18 1.31349E-18
 -1       421 9.53245E-05-2.85679E-05-2.86094E-05 1.05271E-07 2.49959E-18 1.90819E-18
 -1       422 9.52731E-05-2.85615E-05-2.85903E-05 4.93417E-08 2.66447E-18 3.64073E-18
 -1       423 9.52453E-05-2.85603E-05-2.85790E-05 1.12156E-08 1.60950E-18 1.27693E-18
 -1       424 9.52336E-05-2.85628E-05-2.85731E-05-1.24131E-08 1.32513E-18 1.28930E-18
 -1       425 9.52321E-05-2.85684E-05-2.85701E-05-2.31613E-08 1.85236E-19 1.94496E-18
 -1       426 9.52349E-05-2.85741E-05-2.85689E-05-2.35854E-08-9.69196E-19 2.64343E-18
 -1       427 9.52431E-05-2.85620E-05-2.85776E-05-9.22607E-10 1.24971E-19 2.44557E-18
 -1       428 9.52455E-05-2.85706E-05-2.85749E-05-1.32667E-08-7.08871E-19 6.19627E-18
 -1       429 9.52422E-05-2.85751E-05-2.85716E-05-2.17835E-08-1.08018E-18 3.75849E-18
 -1       430 9.52367E-05-2.85501E-05-2.85799E-05 8.84019E-09-5.51335E-19-2.31159E-18
 -1       431 9.52287E-05-2.85374E-05-2.85820E-05 1.30273E-08 9.70689E-20 1.61335E-18
 -1       432 9.52218E-05-2.85269E-05-2.85835E-05 1.09767E-08-1.81875E-19-7.73119E-19
 -1       433 9.52178E-05-2.85210E-05-2.85843E-05 4.29185E-09-1.37048E-18-1.40028E-18
 -1       434 9.52178E-05-2.85210E-05-2.85843E-05-4.09072E-09-1.15147E-18-1.12003E-18
 -1       435 9.52217E-05-2.85269E-05-2.85835E-05-1.07799E-08-1.51061E-18-2.65706E-18
 -1       436 9.52285E-05-2.85371E-05-2.85820E-05-1.28638E-08 1.64911E-19-2.30269E-18
 -1       437 9.52365E-05-2.85498E-05-2.85800E-05-8.83345E-09 1.72869E-18 1.13651E-18
 -1       438 9.52430E-05-2.85618E-05-2.85776E-05 9.83860E-10 4.68912E-19 1.12817E-18
 -1       439 9.52456E-05-2.85710E-05-2.85748E-05 1.39204E-08-8.72492E-19-4.60951E-19
 -1       440 5.98676E-05-4.13928E-05-7.98019E-06 4.26969E-05 1.28114E-19 4.63560E-18
 -1       441 1.23337E-05-2.11705E-05 3.71096E-06-2.38997E-06 4.06774E-19 1.37664E-18
 -1       442 3.03583E-05-2.81458E-05-8.63377E-07 3.07694E-05 6.81226E-19 3.09813E-18
 -1       443 9.79219E-05-5.23496E-05-1.96173E-05 4.06430E-05 6.93720E-19 4.97431E-18
 -1       444 1.31065E-04-5.46889E-05-3.27607E-05 2.65936E-05 2.54200E-18-8.54868E-19
 -1       445 8.95523E-05-1.17493E-05-3.34056E-05-9.88516E-06-1.41330E-18-2.44508E-18
 -1       446 1.55241E-04-2.88135E-05-5.42555E-05-2.20772E-06 3.56548E-18-2.47471E-18
 -1       447 1.53244E-04-1.21741E-05-6.05944E-05-1.54709E-06 4.57599E-18-1.30824E-18
 -1       448 1.57032E-04-1.47448E-05-6.08667E-05 2.14515E-06 4.09128E-18-8.27128E-19
 -1       449 1.54887E-04-2.94046E-05-5.38092E-05 2.13007E-06 3.35340E-18-5.36278E-19
 -1       450 1.45954E-04-5.09046E-05-4.08257E-05-1.20850E-05 2.25626E-18 3.45272E-19
 -1       451 1.20955E-04-5.44442E-05-2.85681E-05-3.31248E-05 1.19654E-18-1.40417E-18
 -1       452 8.85291E-05-5.00079E-05-1.65837E-05-4.20739E-05-1.01347E-18-3.31688E-18
 -1       453 4.46745E-05-3.47028E-05-4.20720E-06-3.87860E-05-1.51460E-18-4.62962E-18
 -1       454 1.80860E-05-2.70576E-05 3.45856E-06-1.98330E-05-9.21784E-19-6.82740E-18
 -1       455 1.21902E-05-2.27946E-05 4.27836E-06 5.19494E-06-3.59049E-19-5.37771E-18
 -1       456 3.16932E-05-3.11575E-05-4.03945E-07 3.27004E-05-4.94455E-19-3.83875E-18
 -1       457 6.67346E-05-4.39224E-05-9.77257E-06 4.41803E-05-1.06313E-18-1.95752E-18
 -1       458 1.07380E-04-5.53091E-05-2.22842E-05 3.85661E-05-6.45863E-19-1.26711E-18
 -1       459 1.34364E-04-5.43833E-05-3.43740E-05 2.38565E-05-1.13307E-18-3.05038E-19
 -1       460 1.51800E-04-3.98688E-05-4.81032E-05 3.43111E-06-1.38455E-18 2.13558E-19
 -1       461 1.58215E-04-1.90648E-05-5.94602E-05-5.00035E-07-4.97706E-18-4.09646E-19
 -1       462 1.56817E-04-1.22818E-05-6.17973E-05-1.34602E-07-5.54002E-18-9.94268E-19
 -1       463 1.52422E-04-1.71457E-05-5.81958E-05 3.80030E-06-4.41135E-18-1.06308E-18
 -1       464 1.51643E-04-3.85968E-05-4.85824E-05-4.51015E-06-2.83994E-18-1.56087E-18
 -1       465 1.40147E-04-5.08596E-05-3.81817E-05-2.10848E-05-1.75812E-18 5.84982E-19
 -1       466 1.06845E-04-5.39721E-05-2.27167E-05-3.86278E-05 6.87791E-19 8.20193E-19
 -1       467 6.15644E-05-4.27916E-05-8.36911E-06-4.25085E-05 6.14205E-19 4.04077E-18
 -1       468 2.94308E-05-2.85802E-05-3.95523E-07-3.09902E-05 5.69947E-19 4.64195E-18
 -1       469 1.51330E-04-4.29702E-05-4.62484E-05 1.35744E-05 3.79598E-18-1.94553E-18
 -1       470 2.45166E-05-1.65213E-05-2.93000E-06 1.68096E-05 5.90673E-19 3.59640E-18
 -1       471 1.42189E-04-2.80016E-05-4.93255E-05 1.11206E-05-2.94640E-18-2.92004E-18
 -1       472 7.62184E-05-4.50635E-05-1.30854E-05-4.34308E-05-3.35891E-18-2.66945E-18
 -1       473 1.38308E-04-1.61576E-05-5.28778E-05-9.97970E-06 3.58973E-18-1.81514E-18
 -1       474 1.43269E-04-2.78241E-05-4.98578E-05-9.68417E-06-1.93780E-18 1.82191E-18
 -1       475 9.63863E-05-2.51521E-05-3.05143E-05 4.95359E-06 1.60179E-18 9.63005E-19
 -1       476 8.88441E-05-1.24204E-05-3.27708E-05-3.26347E-06-3.09631E-19-2.24255E-18
 -1       477 8.98341E-05-1.36137E-05-3.26853E-05-4.97705E-06-7.27609E-19-2.35426E-18
 -1       478 8.80916E-05-1.15361E-05-3.28259E-05 5.22147E-08 5.98536E-19-2.09010E-18
 -1       479 8.82947E-05-1.17721E-05-3.28121E-05 1.69273E-06 9.89880E-19-2.04939E-18
 -1       480 8.88762E-05-1.24574E-05-3.27690E-05 3.33698E-06 1.36891E-18-1.86247E-18
 -1       481 8.98812E-05-1.36718E-05-3.26815E-05 5.04707E-06 1.83899E-18-1.32581E-18
 -1       482 9.13537E-05-1.55238E-05-3.25212E-05 6.73117E-06 2.05069E-18-8.92841E-19
 -1       483 9.34406E-05-1.82652E-05-3.22380E-05 8.21652E-06 2.12367E-18-2.66559E-19
 -1       484 9.59146E-05-2.65508E-05-2.97084E-05 1.53479E-06 1.19184E-18 9.17706E-19
 -1       485 9.59782E-05-2.43269E-05-3.06974E-05-4.60721E-06-1.46702E-18-8.37657E-19
 -1       486 1.43389E-04-4.12449E-05-4.42151E-05-7.18258E-06 2.94442E-18-3.07526E-18
 -1       487 9.59451E-05-2.60419E-05-2.99494E-05-1.35359E-06-1.01577E-18-7.80785E-19
 -1       488 9.58308E-05-2.69239E-05-2.95266E-05 9.49175E-07-7.66167E-19-8.53353E-19
 -1       489 9.58712E-05-2.74205E-05-2.93331E-05 2.62571E-06-6.56120E-19-7.17510E-19
 -1       490 9.61204E-05-2.77470E-05-2.93009E-05 3.92830E-06-3.41556E-19-3.75766E-19
 -1       491 9.65811E-05-2.80175E-05-2.93828E-05 5.01550E-06-3.98498E-19-5.97606E-19
 -1       492 9.72533E-05-2.83173E-05-2.95427E-05 5.97068E-06-1.99757E-19-8.60371E-19
 -1       493 9.81548E-05-2.87349E-05-2.97505E-05 6.80904E-06-3.02434E-19-9.01257E-19
 -1       494 9.93316E-05-2.93796E-05-2.99794E-05 7.47450E-06-4.50328E-19-5.80084E-19
 -1       495 1.00864E-04-3.03873E-05-3.02060E-05 7.82893E-06-2.27100E-19-5.50791E-20
 -1       496 1.02865E-04-3.19046E-05-3.04155E-05 7.63867E-06 2.83383E-20 3.81568E-19
 -1       497 1.05442E-04-3.40257E-05-3.06140E-05 6.57151E-06 1.08785E-21 7.52529E-20
 -1       498 1.08600E-04-3.66484E-05-3.08456E-05 4.22947E-06-3.28262E-20 5.08688E-19
 -1       499 1.12032E-04-3.92163E-05-3.12207E-05 2.90374E-07 1.43431E-19 8.53906E-19
 -1       500 1.14851E-04-4.04496E-05-3.18949E-05-5.04864E-06 1.26538E-19 7.13146E-19
 -1       501 1.15684E-04-3.86793E-05-3.30260E-05-1.05324E-05-5.92693E-19 5.48001E-19
 -1       502 1.13577E-04-3.30296E-05-3.45595E-05-1.32747E-05-5.34125E-19 5.05651E-19
 -1       503 1.09402E-04-2.53482E-05-3.60847E-05-1.01868E-05-8.47827E-19 8.08227E-19
 -1       504 1.06894E-04-2.10900E-05-3.68505E-05-1.28499E-06-7.97581E-19-4.21634E-19
 -1       505 1.08464E-04-2.36758E-05-3.64049E-05 8.51076E-06-2.12274E-19-1.38507E-18
 -1       506 1.12577E-04-3.09289E-05-3.50297E-05 1.33741E-05 1.72533E-20-7.59811E-19
 -1       507 1.15562E-04-3.75525E-05-3.34384E-05 1.19366E-05-5.48801E-19-9.45759E-19
 -1       508 1.15477E-04-4.03182E-05-3.22269E-05 6.94948E-06-8.54568E-19-2.01221E-18
 -1       509 1.13088E-04-3.96914E-05-3.14695E-05 1.46100E-06 7.16594E-19-2.66996E-18
 -1       510 1.09775E-04-3.73274E-05-3.10599E-05-2.79516E-06 4.76557E-19-1.41524E-18
 -1       511 1.06571E-04-3.46474E-05-3.08317E-05-5.42342E-06 1.10162E-19-7.56502E-19
 -1       512 1.03913E-04-3.23799E-05-3.06612E-05-6.66316E-06-4.90627E-19-3.44301E-19
 -1       513 1.01856E-04-3.07259E-05-3.04858E-05-6.91811E-06-2.42941E-20-1.16748E-19
 -1       514 1.00301E-04-2.96304E-05-3.02873E-05-6.55801E-06-7.91306E-20-4.09617E-19
 -1       515 9.91246E-05-2.89579E-05-3.00704E-05-5.86382E-06 4.14471E-19-8.91450E-19
 -1       516 9.82235E-05-2.85748E-05-2.98480E-05-5.02877E-06-3.29307E-19-4.29334E-19
 -1       517 9.75240E-05-2.83768E-05-2.96329E-05-4.17565E-06 7.20578E-20 1.06846E-20
 -1       518 9.69759E-05-2.82912E-05-2.94348E-05-3.37595E-06-3.86698E-19 1.40232E-18
 -1       519 9.65452E-05-2.82702E-05-2.92594E-05-2.66608E-06 3.79253E-19 2.06304E-18
 -1       520 9.62079E-05-2.82840E-05-2.91091E-05-2.05985E-06 1.52927E-18 2.29609E-18
 -1       521 9.59458E-05-2.83148E-05-2.89838E-05-1.55728E-06-3.40160E-19 7.63294E-19
 -1       522 9.57446E-05-2.83518E-05-2.88819E-05-1.15069E-06 1.20532E-18 7.68422E-19
 -1       523 9.55924E-05-2.83894E-05-2.88007E-05-8.28650E-07-6.63592E-20 1.21069E-18
 -1       524 9.54793E-05-2.84243E-05-2.87374E-05-5.78512E-07 8.47092E-20 1.66647E-18
 -1       525 9.53971E-05-2.84553E-05-2.86890E-05-3.87893E-07-5.74670E-19 4.52582E-19
 -1       526 9.53389E-05-2.84820E-05-2.86527E-05-2.45549E-07 2.00935E-18 3.16275E-19
 -1       527 9.52989E-05-2.85047E-05-2.86259E-05-1.41808E-07 7.99735E-19 1.65781E-18
 -1       528 9.52726E-05-2.85243E-05-2.86063E-05-6.88030E-08 5.23189E-19 1.51389E-18
 -1       529 9.52564E-05-2.85419E-05-2.85918E-05-2.05024E-08 1.06569E-19 1.99167E-18
 -1       530 5.74692E-05-3.18234E-05-1.04694E-05 3.79048E-05 2.43628E-19 4.35671E-18
 -1       531 9.56735E-05-2.76673E-05-2.91402E-05-2.34667E-06 7.64585E-19 4.85472E-19
 -1       532 9.60203E-05-2.79646E-05-2.91632E-05-3.57550E-06 7.05848E-19 2.85208E-19
 -1       533 9.66466E-05-2.82375E-05-2.93154E-05-4.60512E-06 4.51920E-19 9.22906E-21
 -1       534 9.75266E-05-2.85452E-05-2.95611E-05-5.53008E-06 2.65684E-19 1.60774E-19
 -1       535 9.86529E-05-2.89485E-05-2.98715E-05-6.37599E-06 2.73504E-19 7.25797E-19
 -1       536 1.00041E-04-2.95268E-05-3.02197E-05-7.09744E-06 5.95208E-19 7.05404E-19
 -1       537 1.01731E-04-3.03860E-05-3.05779E-05-7.56505E-06 6.06484E-19 5.89825E-19
 -1       538 1.03787E-04-3.16531E-05-3.09188E-05-7.54855E-06 2.71770E-19 6.09475E-19
 -1       539 1.06270E-04-3.34350E-05-3.12235E-05-6.70942E-06-3.61288E-20 1.26174E-18
 -1       540 1.09177E-04-3.57085E-05-3.14982E-05-4.63174E-06-5.18350E-19 8.07825E-19
 -1       541 1.12268E-04-3.81007E-05-3.17990E-05-9.74856E-07-5.89413E-19 1.04215E-18
 -1       542 1.14893E-04-3.96876E-05-3.22476E-05 4.22851E-06 5.77425E-19 1.08693E-18
 -1       543 1.15775E-04-3.88216E-05-3.29956E-05 9.85578E-06 8.80825E-19 2.71344E-18
 -1       544 1.13967E-04-3.45012E-05-3.40851E-05 1.33206E-05 7.30384E-20 2.07633E-18
 -1       545 1.10017E-04-2.77915E-05-3.52830E-05 1.14044E-05-7.49254E-19 1.49721E-18
 -1       546 1.06925E-04-2.29610E-05-3.60339E-05 3.40536E-06 8.31264E-19 1.50378E-18
 -1       547 1.07619E-04-2.39893E-05-3.58984E-05-6.72595E-06 1.44502E-18 3.02849E-19
 -1       548 1.11459E-04-3.00061E-05-3.49523E-05-1.29732E-05 2.00457E-18 1.28888E-19
 -1       549 1.15019E-04-3.63153E-05-3.37458E-05-1.28952E-05 6.42364E-19-6.24699E-19
 -1       550 1.15945E-04-3.94687E-05-3.27889E-05-8.42021E-06-3.77145E-20-1.95163E-18
 -1       551 1.14418E-04-3.93528E-05-3.21897E-05-2.80787E-06-2.68732E-19-2.18899E-18
 -1       552 1.11640E-04-3.73885E-05-3.18387E-05 1.85796E-06 1.83816E-20-2.19051E-18
 -1       553 1.08654E-04-3.49688E-05-3.15923E-05 4.88212E-06 1.70524E-19-1.62529E-18
 -1       554 1.05987E-04-3.28534E-05-3.13503E-05 6.39151E-06 1.42275E-19 9.59330E-19
 -1       555 1.03775E-04-3.12729E-05-3.10752E-05 6.79148E-06 7.80601E-19 7.74516E-19
 -1       556 1.01987E-04-3.01935E-05-3.07684E-05 6.49112E-06 1.03482E-18 8.95761E-19
 -1       557 1.00546E-04-2.94966E-05-3.04480E-05 5.81148E-06 7.35345E-19 4.51287E-19
 -1       558 9.93828E-05-2.90631E-05-3.01343E-05 4.97332E-06-7.50609E-19 7.74510E-19
 -1       559 9.84421E-05-2.88010E-05-2.98433E-05 4.11428E-06 5.51374E-20 1.65012E-18
 -1       560 9.76842E-05-2.86470E-05-2.95847E-05 3.31196E-06 8.29099E-19 1.00962E-18
 -1       561 9.70782E-05-2.85598E-05-2.93627E-05 2.60410E-06 1.18560E-18 1.12760E-18
 -1       562 9.65990E-05-2.85136E-05-2.91775E-05 2.00364E-06 9.69588E-19 7.50055E-19
 -1       563 9.62254E-05-2.84923E-05-2.90268E-05 1.50909E-06-5.54109E-20 6.16521E-20
 -1       564 9.59386E-05-2.84860E-05-2.89070E-05 1.11136E-06-2.77556E-19 5.61571E-19
 -1       565 9.57225E-05-2.84885E-05-2.88136E-05 7.97999E-07-1.99721E-18-6.92018E-19
 -1       566 9.55630E-05-2.84958E-05-2.87423E-05 5.55678E-07-3.18599E-19 9.61892E-19
 -1       567 9.54480E-05-2.85055E-05-2.86891E-05 3.71673E-07 5.92041E-19 9.59275E-19
 -1       568 9.53675E-05-2.85162E-05-2.86501E-05 2.34605E-07-2.42633E-20 1.56977E-18
 -1       569 9.53131E-05-2.85271E-05-2.86223E-05 1.34791E-07 1.37428E-18 3.86609E-18
 -1       570 9.52782E-05-2.85379E-05-2.86028E-05 6.44149E-08 2.17816E-18 4.72128E-18
 -1       571 9.52572E-05-2.85488E-05-2.85892E-05 1.73537E-08 1.10888E-18 4.18530E-18
 -1       572 9.52466E-05-2.85608E-05-2.85796E-05-1.06767E-08 2.31524E-19 5.17604E-18
 -1       573 9.52198E-05-2.84940E-05-2.85967E-05 2.99193E-08 1.29065E-18 1.47783E-18
 -1       574 9.52044E-05-2.84726E-05-2.85994E-05 2.69255E-08 1.09948E-18 4.09269E-19
 -1       575 9.52465E-05-2.85415E-05-2.85879E-05 9.41204E-09-8.73333E-19 3.72090E-18
 -1       576 9.52354E-05-2.85184E-05-2.85930E-05 2.36058E-08-1.64519E-18 6.53080E-19
 -1       577 9.51935E-05-2.84581E-05-2.86009E-05 1.58170E-08-4.64986E-19-2.76801E-18
 -1       578 9.51896E-05-2.84530E-05-2.86014E-05 7.07097E-11-2.81248E-19-5.31467E-19
 -1       579 9.51935E-05-2.84582E-05-2.86009E-05-1.56676E-08 1.96587E-20-1.25994E-18
 -1       580 9.52042E-05-2.84725E-05-2.85993E-05-2.66321E-08 1.63531E-18-1.96410E-18
 -1       581 9.52195E-05-2.84939E-05-2.85967E-05-2.97380E-08 1.65861E-18-1.33598E-18
 -1       582 9.52351E-05-2.85182E-05-2.85930E-05-2.33734E-08-1.26152E-18-1.44868E-18
 -1       583 9.52458E-05-2.85409E-05-2.85878E-05-9.70324E-09-2.59589E-18 6.57810E-19
 -1       584 2.91777E-05-1.51676E-05-5.32940E-06-1.72000E-05 2.61363E-19 1.13831E-18
 -1       585 9.56396E-05-2.72581E-05-2.92964E-05-7.41677E-07 8.91181E-19 6.58396E-19
 -1       586 9.46431E-05-5.10689E-05-1.83376E-05 3.94896E-05-6.13040E-19 3.63966E-18
 -1       587 5.96532E-05-3.49896E-05-1.01564E-05-4.05842E-05 1.75092E-18 3.48363E-18
 -1       588 9.49899E-05-2.07090E-05-3.18559E-05-8.49200E-06-1.73862E-18-1.24707E-18
 -1       589 1.20975E-04-6.02037E-05-2.60052E-05 2.75903E-05 1.88147E-19-6.13583E-19
 -1       590 9.69910E-05-5.25758E-05-1.87749E-05 3.96854E-05 1.51767E-18 8.44518E-19
 -1       591 1.34002E-04-5.92765E-05-3.21721E-05-1.50935E-05-4.94680E-19 1.32307E-18
 -1       592 8.82732E-05-1.17478E-05-3.28134E-05-1.58931E-06 1.50375E-19-2.11321E-18
 -1       593 1.41743E-04-4.18687E-05-4.32919E-05 8.37282E-06 1.64412E-18 1.40989E-18
 -1       594 1.32950E-04-9.11107E-06-5.37148E-05 1.70201E-06 3.25176E-18-5.91186E-19
 -1       595 3.89793E-05-2.21210E-05-6.60747E-06-2.87419E-05-2.24220E-18-4.58753E-18
 -1       596 1.37817E-04-1.87820E-05-5.15375E-05 1.08152E-05 2.89008E-18 1.04995E-18
 -1       597 1.16762E-04-5.91984E-05-2.44741E-05-3.15570E-05-2.85826E-18-8.19306E-19
 -1       598 2.50657E-05-1.36451E-05-4.23352E-06-8.18315E-06-8.28901E-19-5.11047E-18
 -1       599 3.06631E-05-1.74310E-05-5.07224E-06 2.14710E-05 1.43575E-18-3.59682E-18
 -1       600 5.83709E-05-3.36927E-05-1.01138E-05 3.99485E-05 1.78126E-18-1.95500E-18
 -1       601 1.28041E-04-6.07011E-05-2.88401E-05 2.18074E-05 2.00543E-18 2.62382E-18
 -1       602 9.57278E-05-5.24004E-05-1.83548E-05-4.03798E-05 2.33913E-18 8.32190E-19
 -1       603 1.41291E-04-5.24321E-05-3.83335E-05 1.34795E-06 9.76973E-19 2.62776E-18
 -1       604 1.33407E-04-1.11471E-05-5.30361E-05-6.65490E-06-4.33130E-18 8.20351E-19
 -1       605 1.31023E-04-9.63834E-06-5.27181E-05 4.52931E-06-4.89807E-18-3.72562E-19
 -1       606 1.42140E-04-5.07421E-05-3.94868E-05 1.24266E-08-1.81847E-18-3.53202E-18
 -1       607 1.30149E-04-6.02842E-05-2.99609E-05-2.11215E-05 9.38195E-19 4.10652E-19
 -1       608 9.66012E-05-2.32512E-05-3.14387E-05 8.70643E-06 2.00787E-18 1.45790E-18
 -1       609 1.40565E-04-5.59769E-05-3.64181E-05 5.82308E-06 2.21289E-18-3.39290E-18
 -1       610 9.12469E-05-1.54217E-05-3.25297E-05-6.62746E-06-1.18119E-18-2.26133E-18
 -1       611 4.56589E-05-2.02365E-05-1.03317E-05 2.75135E-05-1.79465E-19 2.81247E-18
 -1       612 5.04618E-05-2.25904E-05-1.14260E-05-2.98573E-05 2.06941E-18 3.46929E-18
 -1       613 9.52497E-05-2.85539E-05-2.85839E-05 1.18866E-09-7.10820E-19 2.30105E-18
 -1       614 1.27617E-04-1.80732E-05-4.74681E-05 1.21975E-05-2.25470E-18-1.34146E-18
 -1       615 3.20545E-05-1.12873E-05-8.24369E-06 6.39465E-08 1.41146E-18 3.38840E-18
 -1       616 1.37975E-04-5.34221E-05-3.63721E-05 2.71853E-06-1.62591E-19 1.42135E-18
 -1       617 6.16367E-05-3.15448E-05-1.24565E-05-3.67556E-05-3.15530E-18-2.39297E-18
 -1       618 1.33944E-04-2.91701E-05-4.53863E-05-1.50354E-05 2.63523E-18-2.37685E-18
 -1       619 1.25411E-04-1.17248E-05-4.92901E-05-6.47011E-06 3.39210E-18-2.20864E-18
 -1       620 1.37383E-04-4.17568E-05-4.13495E-05-1.02977E-05 5.31672E-19 2.90543E-18
 -1       621 9.04094E-05-1.53718E-05-3.21642E-05 1.79184E-06 1.08022E-18-1.72144E-18
 -1       622 8.99850E-05-1.48387E-05-3.22105E-05 6.18054E-07 6.72668E-19-1.78828E-18
 -1       623 9.24554E-05-1.80937E-05-3.18748E-05 4.01967E-06 1.69511E-18-9.31589E-19
 -1       624 9.39790E-05-2.03855E-05-3.15478E-05 4.80731E-06 1.79741E-18-5.95447E-19
 -1       625 9.56252E-05-2.37908E-05-3.07760E-05 3.74044E-06 1.50796E-18-4.59503E-20
 -1       626 8.35982E-05-4.15950E-05-1.76945E-05 3.70446E-05 2.16277E-18 6.77415E-19
 -1       627 1.35125E-04-4.85729E-05-3.73619E-05-8.50826E-06 2.35126E-18-1.91210E-18
 -1       628 9.57891E-05-2.54967E-05-3.01208E-05 7.93620E-07 1.08688E-18-1.80426E-19
 -1       629 1.29755E-04-2.92632E-05-4.34978E-05 1.49546E-05 1.64454E-18 1.95572E-18
 -1       630 9.56201E-05-2.50316E-05-3.02498E-05-4.78375E-07-8.89996E-19-1.38034E-18
 -1       631 9.57268E-05-2.60874E-05-2.98445E-05 1.64854E-06-5.57109E-19-1.09864E-18
 -1       632 9.57479E-05-2.66704E-05-2.96040E-05 3.32786E-06-1.48541E-19-6.92807E-19
 -1       633 9.57899E-05-2.69984E-05-2.94815E-05 4.71656E-06-5.00631E-19-6.19628E-19
 -1       634 9.59117E-05-2.72211E-05-2.94383E-05 5.93173E-06-3.06912E-19-7.05128E-19
 -1       635 9.61702E-05-2.74743E-05-2.94406E-05 7.04069E-06 6.63306E-20-4.86602E-19
 -1       636 9.66485E-05-2.79103E-05-2.94589E-05 8.05757E-06-3.39826E-19 1.37974E-19
 -1       637 9.74820E-05-2.87198E-05-2.94695E-05 8.93575E-06 1.35584E-19 1.11369E-19
 -1       638 9.88792E-05-3.01390E-05-2.94608E-05 9.55133E-06-1.94324E-19 2.50726E-19
 -1       639 1.01127E-04-3.24217E-05-2.94471E-05 9.67058E-06 1.48785E-20 1.34602E-19
 -1       640 1.04536E-04-3.57331E-05-2.94915E-05 8.90986E-06 2.16331E-19 2.66381E-19
 -1       641 1.09319E-04-3.99326E-05-2.97359E-05 6.69028E-06 4.42032E-19 3.40436E-19
 -1       642 1.15036E-04-4.39324E-05-3.04859E-05 2.14051E-06 2.15323E-19 2.41255E-19
 -1       643 1.20209E-04-4.56625E-05-3.19693E-05-4.41012E-06-3.77211E-19 7.72706E-19
 -1       644 1.21830E-04-4.07138E-05-3.48352E-05-1.20856E-05-1.62392E-19 1.67519E-18
 -1       645 1.18808E-04-2.96626E-05-3.84068E-05-1.53151E-05 1.99648E-20 2.47769E-18
 -1       646 1.13385E-04-1.79547E-05-4.11925E-05-8.19237E-06-1.70862E-18 2.56520E-18
 -1       647 1.12737E-04-1.63401E-05-4.15838E-05 5.04323E-06-2.56974E-18 1.41932E-18
 -1       648 1.17022E-04-2.61893E-05-3.91877E-05 1.44599E-05-4.56246E-19-6.64436E-19
 -1       649 1.21584E-04-3.84109E-05-3.58075E-05 1.40676E-05-7.49664E-19-2.20002E-18
 -1       650 1.21316E-04-4.48715E-05-3.27905E-05 7.32515E-06-8.83897E-19-2.88828E-18
 -1       651 1.16619E-04-4.46009E-05-3.08798E-05-1.64775E-07-5.32291E-20-6.44379E-19
 -1       652 1.10813E-04-4.09096E-05-2.99653E-05-5.18170E-06 1.39710E-18 1.39908E-19
 -1       653 1.05724E-04-3.65956E-05-2.96300E-05-7.82775E-06 4.72509E-19 5.10869E-19
 -1       654 1.01958E-04-3.29881E-05-2.95606E-05-8.79524E-06-2.84889E-19-3.41710E-19
 -1       655 9.94310E-05-3.04270E-05-2.95738E-05-8.73516E-06-4.28573E-19 3.47830E-19
 -1       656 9.78351E-05-2.88083E-05-2.95829E-05-8.10284E-06 5.85566E-19 1.20616E-18
 -1       657 9.68638E-05-2.78960E-05-2.95572E-05-7.18739E-06-2.27339E-19 8.02739E-19
 -1       658 9.62829E-05-2.74602E-05-2.94949E-05-6.16788E-06 1.86515E-19 6.06472E-19
 -1       659 9.59350E-05-2.73208E-05-2.94055E-05-5.15343E-06-7.59193E-19 6.88212E-20
 -1       660 9.57223E-05-2.73514E-05-2.93013E-05-4.20778E-06 3.11422E-19 9.23259E-19
 -1       661 9.55869E-05-2.74693E-05-2.91928E-05-3.36455E-06-4.19467E-19 9.68653E-19
 -1       662 9.54962E-05-2.76235E-05-2.90879E-05-2.63738E-06-3.97013E-19-1.42645E-19
 -1       663 9.54322E-05-2.77842E-05-2.89917E-05-2.02704E-06-2.52224E-19-2.44979E-18
 -1       664 9.53849E-05-2.79352E-05-2.89067E-05-1.52641E-06 5.90085E-19-2.52132E-18
 -1       665 9.53489E-05-2.80688E-05-2.88341E-05-1.12408E-06 4.91364E-19-2.39949E-18
 -1       666 9.53210E-05-2.81824E-05-2.87736E-05-8.06809E-07-3.65687E-19-3.13554E-18
 -1       667 9.52994E-05-2.82760E-05-2.87242E-05-5.61187E-07-6.82837E-19-2.51219E-18
 -1       668 9.52825E-05-2.83517E-05-2.86846E-05-3.74595E-07 2.11884E-18-2.79017E-20
 -1       669 9.52695E-05-2.84119E-05-2.86532E-05-2.35873E-07 2.37946E-18 7.47303E-19
 -1       670 9.52597E-05-2.84596E-05-2.86285E-05-1.35468E-07 6.27192E-19 1.54609E-18
 -1       671 9.52525E-05-2.84982E-05-2.86090E-05-6.60760E-08 6.35330E-19 2.62626E-18
 -1       672 1.16222E-04-5.72891E-05-2.51610E-05-2.65820E-05 2.41701E-18 5.25230E-19
 -1       673 9.58652E-05-2.69992E-05-2.95127E-05-3.11493E-06 7.25972E-19-2.62499E-19
 -1       674 9.66626E-05-2.77236E-05-2.95444E-05-6.84196E-06-1.15989E-19-1.26044E-19
 -1       675 9.72799E-05-2.80790E-05-2.96569E-05-7.88099E-06 3.06699E-19 2.41603E-20
 -1       676 9.82004E-05-2.87330E-05-2.97716E-05-8.79358E-06 6.52370E-19 3.38689E-19
 -1       677 9.95874E-05-2.98978E-05-2.98677E-05-9.45032E-06-9.23357E-20 6.41808E-19
 -1       678 1.01682E-04-3.18228E-05-2.99416E-05-9.61295E-06-1.59125E-19 9.38823E-19
 -1       679 1.04769E-04-3.47141E-05-3.00269E-05-8.90111E-06-1.38249E-19 1.17721E-18
 -1       680 1.09073E-04-3.85415E-05-3.02309E-05-6.75013E-06-7.11353E-19 1.26770E-18
 -1       681 1.14371E-04-4.25667E-05-3.07694E-05-2.65004E-06-5.48361E-19 1.33385E-18
 -1       682 1.19455E-04-4.48253E-05-3.20070E-05 4.09041E-06-1.07730E-19 2.66224E-18
 -1       683 1.21807E-04-4.22623E-05-3.41617E-05 1.12051E-05 7.16153E-19 3.58486E-18
 -1       684 1.19332E-04-3.27974E-05-3.72249E-05 1.51562E-05 2.88137E-19 3.26466E-18
 -1       685 1.14042E-04-2.10666E-05-4.01217E-05 1.03558E-05-3.22349E-19 2.00243E-18
 -1       686 1.11995E-04-1.70147E-05-4.09448E-05-2.44854E-06 1.55370E-18 1.54900E-18
 -1       687 1.15363E-04-2.44334E-05-3.91949E-05-1.34281E-05 2.66389E-18 2.83577E-19
 -1       688 1.20445E-04-3.63646E-05-3.61392E-05-1.51202E-05 2.65741E-18 1.69374E-19
 -1       689 1.21592E-04-4.37975E-05-3.33606E-05-9.43508E-06 1.00777E-18-1.36362E-18
 -1       690 1.18027E-04-4.43519E-05-3.15951E-05-2.07407E-06-3.05106E-19-1.60478E-18
 -1       691 1.12721E-04-4.12286E-05-3.06473E-05 3.67304E-06-8.70242E-19-4.89907E-19
 -1       692 1.07708E-04-3.71076E-05-3.02639E-05 7.04376E-06 1.78102E-19-2.15501E-20
 -1       693 1.03840E-04-3.35378E-05-3.01329E-05 8.52548E-06-1.19449E-18 3.41539E-19
 -1       694 1.01137E-04-3.09657E-05-3.00750E-05 8.76884E-06 2.74364E-19 1.35701E-18
 -1       695 9.93392E-05-2.93243E-05-3.00068E-05 8.28061E-06 9.08705E-19 8.50402E-19
 -1       696 9.81595E-05-2.83831E-05-2.99037E-05 7.41032E-06 1.30077E-18 6.16457E-19
 -1       697 9.73735E-05-2.79100E-05-2.97692E-05 6.38307E-06 6.08901E-19 3.11421E-19
 -1       698 9.68318E-05-2.77248E-05-2.96163E-05 5.33767E-06-6.35194E-19-7.46994E-19
 -1       699 9.64427E-05-2.77036E-05-2.94587E-05 4.35478E-06-1.54121E-19 1.04813E-19
 -1       700 9.61526E-05-2.77676E-05-2.93070E-05 3.47652E-06 1.67977E-18 1.93748E-19
 -1       701 9.59303E-05-2.78694E-05-2.91682E-05 2.71999E-06 1.48484E-18-1.93231E-19
 -1       702 9.57577E-05-2.79816E-05-2.90463E-05 2.08660E-06 5.78780E-19 1.02200E-19
 -1       703 9.56232E-05-2.80899E-05-2.89423E-05 1.56862E-06-8.84584E-19 5.19400E-19
 -1       704 9.55189E-05-2.81872E-05-2.88560E-05 1.15358E-06-1.49286E-18 1.96903E-18
 -1       705 9.54389E-05-2.82709E-05-2.87860E-05 8.27175E-07-1.98934E-18 1.91928E-18
 -1       706 9.53785E-05-2.83407E-05-2.87303E-05 5.75020E-07 2.82903E-19 2.29595E-18
 -1       707 9.53337E-05-2.83976E-05-2.86868E-05 3.83749E-07 9.55527E-19 2.61097E-18
 -1       708 9.53012E-05-2.84434E-05-2.86532E-05 2.41580E-07-9.62838E-19-6.54094E-20
 -1       709 9.52781E-05-2.84801E-05-2.86276E-05 1.38674E-07 1.32791E-18 1.64968E-18
 -1       710 9.52625E-05-2.85100E-05-2.86081E-05 6.70648E-08 1.12627E-18 3.47897E-18
 -1       711 9.52527E-05-2.85247E-05-2.85976E-05 3.28107E-08 1.03809E-19 3.45337E-18
 -1       712 9.51537E-05-2.83760E-05-2.86190E-05 1.44041E-08 1.23901E-18-7.19603E-19
 -1       713 9.52488E-05-2.85206E-05-2.85978E-05-3.32543E-08-2.29431E-19 8.60123E-19
 -1       714 9.51890E-05-2.84201E-05-2.86152E-05 5.64514E-08 1.55214E-19 2.60991E-19
 -1       715 9.51538E-05-2.83762E-05-2.86190E-05-1.44506E-08 9.60985E-19-2.75408E-18
 -1       716 9.51664E-05-2.83915E-05-2.86178E-05 3.99885E-08-6.08542E-19-3.05617E-18
 -1       717 8.33046E-05-3.96630E-05-1.84197E-05 3.45201E-05-1.31184E-18 2.47875E-18
 -1       718 9.51662E-05-2.83915E-05-2.86178E-05-3.95954E-08 1.65870E-19-8.39069E-19
 -1       719 9.51887E-05-2.84201E-05-2.86152E-05-5.61130E-08 9.09518E-19-2.87492E-18
 -1       720 9.52161E-05-2.84574E-05-2.86109E-05-5.95195E-08 6.28276E-19-3.27724E-18
 -1       721 9.58224E-05-2.64620E-05-2.97233E-05-1.40940E-06 9.76166E-19-3.21082E-19
 -1       722 1.30331E-04-5.84278E-05-3.08950E-05 9.61281E-06 1.02693E-18-2.52567E-18
 -1       723 8.57554E-05-4.23117E-05-1.82630E-05-3.66389E-05 2.77832E-18 1.10555E-18
 -1       724 1.32264E-04-5.62563E-05-3.26420E-05 4.99386E-06 1.26915E-18 2.05584E-18
 -1       725 9.43304E-05-2.06157E-05-3.15917E-05-5.80052E-06-1.38729E-18-1.75144E-18
 -1       726 4.18767E-05-1.53884E-05-1.08147E-05-1.74655E-05-1.14766E-18-4.32262E-18
 -1       727 1.28115E-04-2.12832E-05-4.62627E-05-1.32764E-05-1.76972E-18 2.39092E-18
 -1       728 9.62516E-05-2.75055E-05-2.94617E-05-5.72388E-06 3.05655E-19-1.18048E-19
 -1       729 9.59952E-05-2.73006E-05-2.94395E-05-4.50760E-06 7.50603E-19-1.66206E-19
 -1       730 9.52517E-05-2.33441E-05-3.08180E-05-2.90147E-06-1.13372E-18-1.51349E-18
 -1       731 1.25516E-04-5.90560E-05-2.84010E-05-1.75379E-05-1.98298E-18 9.74856E-19
 -1       732 1.11848E-04-5.45078E-05-2.44478E-05 2.68173E-05-1.24965E-18-3.10504E-19
 -1       733 9.12401E-05-1.64440E-05-3.20610E-05 2.94818E-06 1.42084E-18-1.28432E-18
 -1       734 9.93638E-05-5.02594E-05-2.08461E-05-3.47768E-05-3.15157E-18-1.50776E-18
 -1       735 9.12000E-05-1.63935E-05-3.20653E-05-2.89571E-06-5.37846E-19-1.96189E-18
 -1       736 1.20877E-04-1.49788E-05-4.59716E-05 8.92308E-06 1.31851E-18 4.78918E-19
 -1       737 1.13943E-04-5.55947E-05-2.49009E-05 2.62584E-05 1.55449E-18 2.05755E-18
 -1       738 1.18755E-04-1.11332E-05-4.66690E-05-1.86682E-06-3.30862E-18 8.74527E-19
 -1       739 1.33997E-04-3.87959E-05-4.11049E-05 1.33433E-05-1.51968E-18-1.86196E-18
 -1       740 5.52717E-05-2.27679E-05-1.34617E-05 2.85896E-05 1.78028E-18-2.37881E-18
 -1       741 3.79544E-05-1.18581E-05-1.06634E-05 6.59962E-06 3.81932E-19-2.56333E-18
 -1       742 1.33411E-04-5.65507E-05-3.30822E-05-3.61570E-06 4.44507E-19-2.93234E-18
 -1       743 9.24191E-05-1.80136E-05-3.18920E-05-4.04556E-06-8.76421E-19-1.97126E-18
 -1       744 8.99798E-05-1.48320E-05-3.22111E-05-5.56006E-07 2.71999E-19-1.75870E-18
 -1       745 1.31068E-04-4.18312E-05-3.84268E-05 1.31502E-05 8.11590E-19 2.38327E-18
 -1       746 7.02178E-05-2.91034E-05-1.72732E-05 3.05299E-05-1.59664E-18 3.74283E-18
 -1       747 4.28477E-05-1.42404E-05-1.18195E-05-1.52379E-05 1.07156E-18 1.28532E-18
 -1       748 9.52163E-05-2.84573E-05-2.86110E-05 5.99928E-08 7.59321E-19 2.21237E-18
 -1       749 9.52379E-05-2.84928E-05-2.86051E-05 5.04064E-08 5.40301E-19 5.03865E-19
 -1       750 1.31879E-04-5.02650E-05-3.51380E-05-5.90026E-06 7.17401E-19 2.50797E-18
 -1       751 5.69849E-05-2.24808E-05-1.44136E-05-2.68016E-05-1.66381E-18-2.28627E-18
 -1       752 9.03898E-05-1.53468E-05-3.21663E-05-1.73193E-06-9.07992E-20-1.76093E-18
 -1       753 9.52338E-05-2.84750E-05-2.86109E-05-6.57214E-08-1.05473E-18-4.91221E-18
 -1       754 9.42695E-05-2.17302E-05-3.10871E-05 2.27244E-06 1.30292E-18-8.11524E-19
 -1       755 1.18813E-04-1.55745E-05-4.46727E-05 9.09193E-06-2.86422E-18-1.39919E-19
 -1       756 7.74348E-05-3.13921E-05-1.95651E-05 2.86926E-05 1.31559E-18 8.53121E-20
 -1       757 9.51649E-05-2.52240E-05-2.99746E-05 2.27375E-06-9.93457E-20-1.34866E-18
 -1       758 9.50478E-05-2.57796E-05-2.96863E-05 3.82050E-06-2.62922E-19-1.15570E-18
 -1       759 9.48175E-05-2.60421E-05-2.94750E-05 5.17766E-06-3.98972E-19-8.67734E-19
 -1       760 9.45651E-05-2.61838E-05-2.93061E-05 6.43592E-06 5.38532E-20-6.93270E-19
 -1       761 9.43873E-05-2.63781E-05-2.91466E-05 7.66195E-06 3.01940E-19-8.56433E-19
 -1       762 9.44227E-05-2.68324E-05-2.89670E-05 8.89508E-06 1.23383E-19-1.73107E-19
 -1       763 9.48870E-05-2.78116E-05-2.87464E-05 1.01390E-05 2.57841E-19 2.20574E-19
 -1       764 9.61127E-05-2.96517E-05-2.84836E-05 1.13419E-05 2.25122E-19 1.09969E-18
 -1       765 9.85993E-05-3.27507E-05-2.82213E-05 1.23200E-05-1.19621E-21 1.01602E-18
 -1       766 1.02888E-04-3.73578E-05-2.80839E-05 1.26070E-05-4.20059E-20 1.03273E-18
 -1       767 1.09505E-04-4.36358E-05-2.82697E-05 1.16460E-05 3.69052E-19 8.81814E-19
 -1       768 1.18559E-04-4.96743E-05-2.94009E-05 7.43237E-06 3.41086E-19 8.73615E-19
 -1       769 1.20803E-04-5.04089E-05-3.01488E-05-5.09041E-06 8.69658E-19-2.49941E-19
 -1       770 1.11714E-04-4.49644E-05-2.85951E-05-1.01395E-05 1.79228E-18-8.95634E-19
 -1       771 1.04293E-04-3.86080E-05-2.81457E-05-1.19534E-05 1.32963E-18-4.97756E-20
 -1       772 9.92913E-05-3.34550E-05-2.82156E-05-1.18060E-05-1.15582E-19 1.07938E-18
 -1       773 9.63311E-05-2.99370E-05-2.84540E-05-1.08238E-05 1.29313E-19 2.34074E-18
 -1       774 9.47552E-05-2.77843E-05-2.87014E-05-9.54669E-06 5.82550E-20 3.01015E-18
 -1       775 9.40470E-05-2.66287E-05-2.88932E-05-8.22019E-06-8.39693E-19 6.96071E-19
 -1       776 9.38375E-05-2.61359E-05-2.90147E-05-6.94786E-06-6.28734E-19-7.98322E-19
 -1       777 9.38905E-05-2.60534E-05-2.90728E-05-5.77476E-06 5.52716E-20-4.26716E-19
 -1       778 9.40634E-05-2.62045E-05-2.90822E-05-4.72228E-06 6.43535E-21 5.04647E-19
 -1       779 9.42748E-05-2.64720E-05-2.90582E-05-3.79912E-06-6.40229E-19 1.73923E-19
 -1       780 9.44821E-05-2.67828E-05-2.90139E-05-3.00605E-06-6.32171E-19 8.72892E-19
 -1       781 9.46655E-05-2.70934E-05-2.89594E-05-2.33808E-06-1.02979E-18 4.29863E-19
 -1       782 9.48180E-05-2.73799E-05-2.89020E-05-1.78594E-06-4.13145E-20-3.46279E-19
 -1       783 9.49392E-05-2.76313E-05-2.88462E-05-1.33768E-06 7.97497E-19-5.47156E-19
 -1       784 9.50322E-05-2.78439E-05-2.87949E-05-9.80030E-07 1.48598E-19-8.05509E-19
 -1       785 9.51013E-05-2.80189E-05-2.87496E-05-6.99570E-07 3.09835E-19 7.41790E-19
 -1       786 9.51510E-05-2.81598E-05-2.87105E-05-4.83528E-07 1.68311E-18 3.15950E-19
 -1       787 9.51855E-05-2.82713E-05-2.86775E-05-3.20143E-07 2.15966E-18-1.74018E-18
 -1       788 9.52087E-05-2.83588E-05-2.86499E-05-2.00013E-07 1.03018E-18-2.77564E-18
 -1       789 9.52251E-05-2.84243E-05-2.86289E-05-1.22155E-07 4.61193E-19-3.53942E-18
 -1       790 9.50728E-05-2.64727E-05-2.93997E-05-6.40890E-06 1.21527E-19-6.36162E-19
 -1       791 9.50024E-05-2.66015E-05-2.93144E-05-7.64751E-06 1.88525E-19-1.04767E-18
 -1       792 9.67085E-05-2.92508E-05-2.89105E-05-1.11836E-05-3.20421E-19-3.46467E-19
 -1       793 9.89340E-05-3.19509E-05-2.87067E-05-1.20216E-05-4.09421E-19-6.77363E-19
 -1       794 1.02799E-04-3.61284E-05-2.85721E-05-1.21657E-05-5.77116E-19 1.49106E-19
 -1       795 1.09110E-04-4.18517E-05-2.88336E-05-1.05663E-05-9.74769E-19 6.65794E-19
 -1       796 1.16845E-04-4.79618E-05-2.96561E-05-7.21893E-06-1.29001E-18 1.25276E-18
 -1       797 1.27423E-04-5.20901E-05-3.21475E-05 7.72788E-07-5.36655E-19 1.59752E-18
 -1       798 1.14295E-04-4.59886E-05-2.92610E-05 8.14089E-06-1.20399E-18-1.64172E-19
 -1       799 1.06584E-04-3.96212E-05-2.86965E-05 1.10138E-05-8.60579E-19-2.00382E-19
 -1       800 1.01228E-04-3.43213E-05-2.86720E-05 1.15787E-05-1.25290E-18 1.28143E-18
 -1       801 9.79128E-05-3.06010E-05-2.88482E-05 1.09968E-05-9.84249E-19 2.20116E-18
 -1       802 9.60692E-05-2.83076E-05-2.90407E-05 9.91372E-06 1.37043E-18 1.37810E-18
 -1       803 9.51516E-05-2.70649E-05-2.91798E-05 8.65662E-06 1.11897E-18 1.73556E-19
 -1       804 9.47692E-05-2.65171E-05-2.92506E-05 7.38152E-06 5.97906E-19 2.65511E-19
 -1       805 9.46706E-05-2.63925E-05-2.92617E-05 6.16860E-06 5.11278E-19 1.89748E-18
 -1       806 9.47069E-05-2.65044E-05-2.92293E-05 5.06014E-06-2.39050E-19 4.14078E-19
 -1       807 9.47961E-05-2.67328E-05-2.91697E-05 4.07769E-06 3.21615E-19-7.03328E-20
 -1       808 9.48958E-05-2.70042E-05-2.90962E-05 3.22908E-06 5.97063E-19 8.25015E-20
 -1       809 9.49868E-05-2.72766E-05-2.90185E-05 2.51248E-06-3.56070E-19 2.20866E-18
 -1       810 9.50619E-05-2.75278E-05-2.89430E-05 1.91958E-06-1.22558E-18 3.51694E-18
 -1       811 9.51201E-05-2.77476E-05-2.88738E-05 1.43819E-06-1.12341E-18 3.16644E-18
 -1       812 9.51632E-05-2.79333E-05-2.88127E-05 1.05421E-06-1.06407E-18 1.19207E-20
 -1       813 9.51937E-05-2.80858E-05-2.87605E-05 7.53169E-07-6.92223E-19-1.31815E-18
 -1       814 9.52143E-05-2.82086E-05-2.87167E-05 5.21249E-07-6.30486E-20-8.46093E-19
 -1       815 9.52275E-05-2.83057E-05-2.86808E-05 3.45918E-07 2.44150E-19 1.86123E-18
 -1       816 9.52354E-05-2.83818E-05-2.86515E-05 2.16234E-07 7.88972E-19 4.37075E-19
 -1       817 9.52393E-05-2.84411E-05-2.86278E-05 1.23670E-07 9.28887E-19-1.67986E-18
 -1       818 9.52378E-05-2.84676E-05-2.86159E-05 8.21302E-08 4.15207E-19-1.11456E-18
 -1       819 9.52331E-05-2.37418E-05-3.06387E-05 1.65092E-06 1.14094E-18-4.05343E-19
 -1       820 9.15160E-05-1.77374E-05-3.16204E-05 6.78210E-07 7.67961E-19-1.47840E-18
 -1       821 9.51002E-05-2.82786E-05-2.86378E-05-2.12571E-10 1.38215E-18-3.07706E-18
 -1       822 9.51776E-05-2.83715E-05-2.86312E-05-1.03610E-07-1.67609E-18-2.20500E-18
 -1       823 9.51099E-05-2.82899E-05-2.86372E-05-4.53280E-08-2.44994E-19-1.65673E-18
 -1       824 1.19255E-04-5.28052E-05-2.84471E-05 1.28949E-05-1.02053E-18-1.29984E-18
 -1       825 1.23693E-04-5.09238E-05-3.11977E-05 1.26199E-06-4.65405E-20-3.94426E-19
 -1       826 9.51375E-05-2.83223E-05-2.86351E-05-8.26807E-08-1.23477E-18-7.26475E-19
 -1       827 9.55834E-05-2.77089E-05-2.90889E-05-1.00733E-05 5.96093E-21-3.78304E-19
 -1       828 9.51125E-05-2.69328E-05-2.92196E-05-8.87184E-06 9.15366E-20-9.60879E-19
 -1       829 9.50598E-05-2.41816E-05-3.03768E-05 4.32260E-07-5.84891E-19-1.36175E-18
 -1       830 4.81489E-05-1.28330E-05-1.48033E-05-5.94927E-06-8.15699E-20-2.84367E-18
 -1       831 1.04414E-04-4.85614E-05-2.38046E-05-2.64808E-05 2.08509E-18 3.04429E-19
 -1       832 9.52148E-05-2.63626E-05-2.95077E-05-5.12210E-06 4.50012E-19-5.25687E-19
 -1       833 9.53553E-05-2.61174E-05-2.96731E-05-3.71496E-06 7.99517E-19-5.62023E-19
 -1       834 1.30779E-04-5.58941E-05-3.19978E-05-2.49759E-06-7.96884E-19 7.39764E-19
 -1       835 5.32241E-05-1.58249E-05-1.57227E-05 1.54684E-05 7.52010E-19-1.83065E-18
 -1       836 1.21107E-04-5.38202E-05-2.88155E-05 1.14948E-05 4.87786E-19 1.00190E-18
 -1       837 7.10868E-05-2.83472E-05-1.80668E-05-2.84804E-05 2.54319E-18 1.61094E-18
 -1       838 1.00331E-04-4.53723E-05-2.35086E-05 2.65744E-05 1.07844E-18 9.39942E-19
 -1       839 8.03952E-05-3.59778E-05-1.87504E-05-3.22338E-05-1.95277E-18-1.94346E-18
 -1       840 1.22015E-04-5.48714E-05-2.87300E-05-1.26815E-05 1.43062E-18-1.32031E-18
 -1       841 4.61916E-05-1.37155E-05-1.35300E-05 1.32678E-05-2.14405E-21 1.96509E-18
 -1       842 1.12287E-04-5.23784E-05-2.59080E-05-2.20272E-05-1.48574E-18-6.70857E-19
 -1       843 9.99743E-05-4.43832E-05-2.37349E-05 2.53747E-05-2.37429E-18 1.09327E-19
 -1       844 9.13005E-05-1.74581E-05-3.16478E-05 2.63649E-08 5.03465E-19-1.50150E-18
 -1       845 9.21351E-05-1.85586E-05-3.15336E-05 1.30816E-06 1.03595E-18-1.18771E-18
 -1       846 7.02464E-05-2.32790E-05-2.00248E-05 2.13406E-05 1.15575E-18-1.40392E-18
 -1       847 8.89443E-05-3.64461E-05-2.23837E-05 2.61253E-05-1.83565E-18-1.21476E-19
 -1       848 4.72948E-05-1.18235E-05-1.49093E-05-9.68422E-07 1.39169E-18 2.25006E-18
 -1       849 9.51780E-05-2.83713E-05-2.86314E-05 1.03952E-07 3.48855E-19 2.10981E-18
 -1       850 9.31112E-05-1.99167E-05-3.13686E-05 1.88060E-06 1.35593E-18-8.24787E-19
 -1       851 8.93403E-05-3.71996E-05-2.22548E-05-2.66309E-05 2.04841E-18 2.14657E-18
 -1       852 9.54259E-05-2.55796E-05-2.99342E-05-2.08721E-06 8.54422E-19-4.51617E-19
 -1       853 9.51378E-05-2.83222E-05-2.86352E-05 8.28034E-08-4.88420E-19-1.40850E-18
 -1       854 9.51100E-05-2.82898E-05-2.86372E-05 4.56369E-08 1.22742E-18 2.47434E-19
 -1       855 9.54194E-05-2.48849E-05-3.02293E-05-4.02749E-07 1.07567E-18-4.83202E-19
 -1       856 5.63214E-05-1.67220E-05-1.67273E-05-1.55944E-05-7.83721E-19-2.70515E-18
 -1       857 9.46139E-05-2.25702E-05-3.08755E-05-1.53541E-06-8.22592E-19-1.58077E-18
 -1       858 6.14244E-05-1.98148E-05-1.75441E-05-2.13213E-05 1.92119E-18 1.46279E-18
 -1       859 9.21216E-05-1.85358E-05-3.15377E-05-1.28721E-06-3.08481E-19-1.45731E-18
 -1       860 9.92593E-05-4.40999E-05-2.35652E-05-2.63514E-05-1.72782E-18-1.62237E-18
 -1       861 9.52002E-05-2.83950E-05-2.86306E-05-1.15933E-07-1.78009E-18-4.20111E-18
 -1       862 9.30720E-05-1.98617E-05-3.13748E-05-1.86400E-06-6.97580E-19-1.68896E-18
 -1       863 9.39471E-05-2.48335E-05-2.96200E-05 3.97026E-06 2.55607E-21-9.50384E-19
 -1       864 9.33691E-05-2.49622E-05-2.93172E-05 5.21648E-06-9.87305E-20-5.46517E-19
 -1       865 9.26753E-05-2.49654E-05-2.90185E-05 6.45584E-06 2.82210E-20-6.42102E-19
 -1       866 9.19767E-05-2.50369E-05-2.86884E-05 7.77686E-06 5.66217E-19-7.59637E-19
 -1       867 9.14320E-05-2.54147E-05-2.82931E-05 9.27312E-06 5.46922E-19-4.74018E-19
 -1       868 9.12930E-05-2.64103E-05-2.78065E-05 1.10427E-05 4.41771E-19-3.01004E-19
 -1       869 9.19379E-05-2.84160E-05-2.72243E-05 1.31842E-05 8.72316E-20-6.14106E-19
 -1       870 9.41249E-05-3.20925E-05-2.65997E-05 1.57770E-05 3.01586E-19 1.54083E-19
 -1       871 9.87748E-05-3.81752E-05-2.59288E-05 1.88442E-05 5.54726E-19 5.97419E-19
 -1       872 9.43603E-05-2.34773E-05-3.03771E-05 1.13550E-06-1.22920E-19-1.42755E-18
 -1       873 1.00268E-04-3.94785E-05-2.60315E-05-1.81408E-05 1.47348E-18-2.87985E-19
 -1       874 9.45953E-05-3.28553E-05-2.64446E-05-1.57665E-05 1.49645E-18-5.90389E-19
 -1       875 9.18182E-05-2.86942E-05-2.70506E-05-1.31660E-05 4.19471E-19 3.58218E-19
 -1       876 9.07113E-05-2.62559E-05-2.76227E-05-1.08207E-05 7.89242E-19 8.98650E-19
 -1       877 9.05599E-05-2.50317E-05-2.80831E-05-8.88348E-06-1.40063E-18 2.94793E-19
 -1       878 9.08983E-05-2.45827E-05-2.84207E-05-7.28718E-06-1.67254E-18 9.47994E-19
 -1       879 9.14576E-05-2.46090E-05-2.86493E-05-5.95583E-06-8.60871E-19 2.05890E-19
 -1       880 9.20835E-05-2.49068E-05-2.87900E-05-4.83526E-06 1.39932E-18 3.08337E-20
 -1       881 9.26897E-05-2.53381E-05-2.88649E-05-3.88804E-06-3.96045E-19-7.94171E-19
 -1       882 9.32341E-05-2.58160E-05-2.88934E-05-3.08920E-06-2.77560E-20-1.13038E-18
 -1       883 9.36995E-05-2.62870E-05-2.88911E-05-2.42093E-06-6.70975E-19-6.13926E-19
 -1       884 9.40832E-05-2.67207E-05-2.88696E-05-1.86823E-06-6.97700E-19 8.93258E-19
 -1       885 9.43906E-05-2.71025E-05-2.88377E-05-1.41724E-06-1.48900E-19-8.01662E-20
 -1       886 9.46305E-05-2.74272E-05-2.88014E-05-1.05459E-06 8.11994E-19-9.47908E-19
 -1       887 9.48134E-05-2.76961E-05-2.87646E-05-7.67384E-07 7.95439E-19-6.95655E-19
 -1       888 9.49496E-05-2.79141E-05-2.87295E-05-5.43644E-07 1.13080E-18-2.10130E-19
 -1       889 9.50482E-05-2.80872E-05-2.86976E-05-3.72658E-07 1.67312E-18 1.29048E-18
 -1       890 9.51183E-05-2.82241E-05-2.86691E-05-2.43595E-07 1.22344E-18 5.61655E-20
 -1       891 9.92370E-05-3.68671E-05-2.66682E-05-1.70929E-05-1.03754E-18-4.25412E-19
 -1       892 9.45553E-05-3.13071E-05-2.71101E-05-1.50304E-05-9.79557E-19-4.04471E-19
 -1       893 9.26275E-05-2.80411E-05-2.76799E-05-1.28400E-05-3.51544E-19-5.69029E-19
 -1       894 9.38773E-05-2.52636E-05-2.94057E-05-5.31364E-06 3.93703E-19-1.03573E-18
 -1       895 9.21806E-05-2.54834E-05-2.85846E-05-9.32077E-06-4.40368E-19-9.10387E-19
 -1       896 1.03372E-04-4.14505E-05-2.64882E-05 1.76538E-05-1.65983E-18 4.25546E-19
 -1       897 9.18251E-05-2.68357E-05-2.78525E-05 1.13992E-05 6.21947E-19 3.98287E-19
 -1       898 9.14256E-05-2.54296E-05-2.82839E-05 9.50844E-06 1.91287E-18 1.10840E-18
 -1       899 9.16047E-05-2.48849E-05-2.85941E-05 7.89513E-06 3.62936E-19 1.67056E-18
 -1       900 9.20478E-05-2.48593E-05-2.87949E-05 6.51572E-06 2.43081E-19 1.17013E-18
 -1       901 9.25770E-05-2.51223E-05-2.89090E-05 5.32911E-06-1.35111E-19 9.81406E-19
 -1       902 9.30990E-05-2.55264E-05-2.89596E-05 4.30879E-06 1.81838E-19 1.05926E-18
 -1       903 9.35681E-05-2.59791E-05-2.89667E-05 3.43792E-06 2.86922E-19 3.73373E-19
 -1       904 9.39666E-05-2.64253E-05-2.89462E-05 2.70309E-06-8.01697E-19 1.25566E-18
 -1       905 9.42921E-05-2.68352E-05-2.89101E-05 2.09163E-06-1.76053E-18 1.11558E-18
 -1       906 9.45502E-05-2.71946E-05-2.88667E-05 1.59052E-06-7.05935E-19 3.46717E-19
 -1       907 9.47497E-05-2.74993E-05-2.88216E-05 1.18625E-06 7.48360E-19 6.06748E-19
 -1       908 9.49002E-05-2.77511E-05-2.87782E-05 8.65320E-07-9.41929E-19 1.30206E-18
 -1       909 9.50111E-05-2.79546E-05-2.87385E-05 6.14713E-07-7.59920E-19 1.06181E-18
 -1       910 9.50908E-05-2.81163E-05-2.87033E-05 4.22391E-07-1.05384E-18 1.62794E-18
 -1       911 9.51463E-05-2.82428E-05-2.86729E-05 2.78349E-07 5.84861E-19 9.79731E-19
 -1       912 9.51842E-05-2.83418E-05-2.86467E-05 1.71999E-07-7.49307E-20 2.97974E-18
 -1       913 9.52114E-05-2.84215E-05-2.86242E-05 9.81295E-08-6.04250E-20 2.07756E-18
 -1       914 9.50319E-05-2.81650E-05-2.86573E-05-3.58105E-08 5.80477E-19-4.68312E-18
 -1       915 9.26697E-05-2.52320E-05-2.89018E-05-7.89253E-06-2.01790E-20-8.62708E-19
 -1       916 9.20391E-05-2.62831E-05-2.81815E-05-1.09468E-05-1.72892E-19-8.84248E-19
 -1       917 9.33084E-05-2.95696E-05-2.73142E-05 1.35849E-05-1.49691E-18 1.85758E-18
 -1       918 9.67083E-05-3.42488E-05-2.67574E-05 1.59149E-05-1.51346E-18 1.79773E-18
 -1       919 5.84819E-05-1.42278E-05-1.88322E-05 3.50497E-06 2.07463E-19-1.97401E-18
 -1       920 9.43650E-05-2.51445E-05-2.96654E-05-4.00393E-06 5.25873E-19-1.07672E-18
 -1       921 9.15093E-05-1.77269E-05-3.16218E-05-6.26599E-07 1.77052E-19-1.46410E-18
 -1       922 9.43163E-05-2.44066E-05-2.99615E-05 2.63585E-06 2.86660E-20-1.11371E-18
 -1       923 9.47551E-05-2.33420E-05-3.06054E-05 2.92465E-07 9.66261E-19-1.00157E-18
 -1       924 6.36093E-05-1.97203E-05-1.86414E-05 1.91282E-05-5.80284E-19 1.95250E-18
 -1       925 7.06846E-05-2.60482E-05-1.89680E-05-2.54745E-05-1.31804E-18-2.20689E-18
 -1       926 8.99687E-05-3.50759E-05-2.34226E-05 2.37230E-05 8.11878E-19 2.03609E-19
 -1       927 9.32814E-05-2.52331E-05-2.91634E-05-6.58294E-06 2.51616E-19-1.09871E-18
 -1       928 9.26257E-05-2.01506E-05-3.10607E-05 2.01478E-07 9.09993E-19-1.23274E-18
 -1       929 5.87622E-05-1.49077E-05-1.86381E-05 9.96455E-06 2.80921E-19 7.07835E-19
 -1       930 9.39861E-05-2.20195E-05-3.08437E-05-4.13419E-07-5.16898E-19-1.54090E-18
 -1       931 9.50320E-05-2.81649E-05-2.86573E-05 3.60119E-08-3.86123E-19-1.07427E-18
 -1       932 7.60679E-05-2.60870E-05-2.13287E-05-2.20253E-05 1.35168E-18 2.36254E-18
 -1       933 9.46643E-05-2.47125E-05-2.99799E-05-2.55834E-06 8.85086E-19-9.81260E-19
 -1       934 9.51675E-05-2.83198E-05-2.86490E-05-1.73430E-07 3.86742E-19 5.14637E-20
 -1       935 9.50598E-05-2.81959E-05-2.86560E-05-1.01141E-07-9.02393E-19-2.14534E-18
 -1       936 6.05662E-05-1.47097E-05-1.95319E-05-4.67801E-06-9.75695E-20-1.89432E-18
 -1       937 9.51200E-05-2.82651E-05-2.86522E-05 1.52364E-07 2.89079E-19-4.56130E-19
 -1       938 6.79654E-05-1.81441E-05-2.13110E-05 1.16550E-05 5.41291E-19-1.00961E-18
 -1       939 9.26059E-05-2.01206E-05-3.10665E-05-1.61740E-07 4.23445E-20-1.11594E-18
 -1       940 1.10291E-04-4.85119E-05-2.64016E-05-1.86074E-05 1.11702E-18 1.14914E-19
 -1       941 9.22180E-05-1.96138E-05-3.11161E-05 8.73851E-08 7.03269E-19-1.38729E-18
 -1       942 8.72915E-05-3.42429E-05-2.25815E-05-2.47791E-05-1.30666E-18-1.39925E-18
 -1       943 7.88310E-05-2.67480E-05-2.22605E-05 2.09842E-05-1.36476E-18 5.83401E-19
 -1       944 9.51207E-05-2.82670E-05-2.86515E-05-1.49070E-07-2.03876E-18-2.75930E-18
 -1       945 9.33846E-05-2.11863E-05-3.09417E-05 3.11506E-07 1.06364E-18-7.69388E-19
 -1       946 9.50602E-05-2.81958E-05-2.86562E-05 1.02519E-07 1.26757E-18 5.36243E-19
 -1       947 8.94163E-05-3.16180E-05-2.47387E-05 1.93312E-05-1.95736E-18-3.49835E-21
 -1       948 9.15910E-05-2.38238E-05-2.90433E-05 4.73044E-06 2.21018E-19-3.61046E-19
 -1       949 9.03675E-05-2.36122E-05-2.86098E-05 5.87997E-06 3.37965E-19-2.06613E-19
 -1       950 8.90040E-05-2.34468E-05-2.80963E-05 7.23348E-06 3.68702E-19-4.18830E-19
 -1       951 8.76085E-05-2.35499E-05-2.74549E-05 8.95490E-06 5.71572E-19-6.65162E-19
 -1       952 8.63659E-05-2.42433E-05-2.66306E-05 1.13101E-05 1.36405E-19-7.66036E-19
 -1       953 8.56558E-05-2.59283E-05-2.55959E-05 1.45516E-05 6.02776E-19-4.46745E-19
 -1       954 9.22176E-05-1.96131E-05-3.11167E-05-3.18832E-08 3.81105E-19-1.20666E-18
 -1       955 8.48333E-05-2.59499E-05-2.52378E-05-1.50437E-05 6.61350E-19 7.92731E-19
 -1       956 8.52903E-05-2.38786E-05-2.63193E-05-1.14256E-05 7.38068E-19-1.09850E-18
 -1       957 8.62799E-05-2.29708E-05-2.71338E-05-8.85502E-06-3.05353E-20-1.85825E-18
 -1       958 8.74907E-05-2.27846E-05-2.77322E-05-6.97675E-06-4.93255E-19-8.86303E-19
 -1       959 8.87259E-05-2.30288E-05-2.81565E-05-5.55477E-06-1.04565E-18 1.07568E-18
 -1       960 8.98954E-05-2.35271E-05-2.84441E-05-4.44059E-06 3.43303E-20 1.07733E-18
 -1       961 9.09426E-05-2.41427E-05-2.86288E-05-3.54638E-06 2.21104E-19 5.94794E-19
 -1       962 9.18504E-05-2.47943E-05-2.87385E-05-2.81455E-06-1.49256E-19 1.41735E-18
 -1       963 9.26155E-05-2.54272E-05-2.87951E-05-2.21261E-06 2.28162E-19 2.07668E-18
 -1       964 9.32451E-05-2.60092E-05-2.88155E-05-1.71826E-06 8.01965E-19 6.75312E-19
 -1       965 9.37521E-05-2.65233E-05-2.88124E-05-1.31515E-06-5.85598E-19 1.81862E-18
 -1       966 9.41520E-05-2.69636E-05-2.87951E-05-9.89864E-07-2.24179E-19 2.16410E-18
 -1       967 9.44612E-05-2.73311E-05-2.87701E-05-7.30687E-07 1.36023E-18 1.03379E-18
 -1       968 9.46951E-05-2.76309E-05-2.87418E-05-5.26850E-07 5.39011E-19 4.55243E-19
 -1       969 9.48689E-05-2.78719E-05-2.87131E-05-3.69971E-07 1.10691E-18-9.07367E-19
 -1       970 9.49940E-05-2.80608E-05-2.86855E-05-2.49029E-07 1.24881E-18-1.83114E-18
 -1       971 8.90572E-05-2.31704E-05-2.82374E-05 6.24817E-06 1.45025E-18 1.96276E-18
 -1       972 8.78925E-05-2.29835E-05-2.78183E-05 7.74425E-06-2.24153E-19 1.63008E-18
 -1       973 8.66468E-05-2.57157E-05-2.61146E-05-1.40266E-05-5.17433E-19-8.83659E-19
 -1       974 8.60787E-05-2.44861E-05-2.63981E-05 1.23355E-05 2.89257E-19-1.20979E-18
 -1       975 8.68190E-05-2.33076E-05-2.72191E-05 9.69718E-06 3.25996E-19-6.85184E-19
 -1       976 9.01718E-05-2.36325E-05-2.85168E-05 5.05828E-06 1.75280E-19 1.97775E-18
 -1       977 9.11776E-05-2.42302E-05-2.86917E-05 4.08127E-06 2.38952E-19 1.57233E-18
 -1       978 9.20485E-05-2.48699E-05-2.87908E-05 3.26792E-06 9.51316E-19 8.51215E-19
 -1       979 9.27793E-05-2.54925E-05-2.88372E-05 2.58838E-06-7.33918E-19 1.09360E-18
 -1       980 9.33772E-05-2.60643E-05-2.88484E-05 2.02300E-06-1.76737E-18 6.57088E-19
 -1       981 9.38559E-05-2.65684E-05-2.88375E-05 1.55705E-06 1.32128E-19-3.30711E-19
 -1       982 9.42315E-05-2.69991E-05-2.88139E-05 1.17784E-06-7.89243E-19-1.03000E-18
 -1       983 9.45205E-05-2.73581E-05-2.87839E-05 8.73572E-07-6.86374E-19 2.33485E-19
 -1       984 9.47384E-05-2.76509E-05-2.87518E-05 6.33168E-07-1.19076E-18 5.26120E-19
 -1       985 9.48993E-05-2.78853E-05-2.87203E-05 4.46442E-07-1.50434E-18 1.27107E-18
 -1       986 9.50151E-05-2.80699E-05-2.86908E-05 3.04039E-07 3.51911E-19 9.70015E-19
 -1       987 9.50743E-05-2.81757E-05-2.86707E-05 2.18938E-07-9.20074E-19 2.02344E-18
 -1       988 6.85257E-05-2.03700E-05-2.05148E-05-1.72436E-05-8.15239E-19-2.14117E-18
 -1       989 9.25919E-05-2.38975E-05-2.94405E-05 3.67062E-06 1.99240E-19-4.22525E-19
 -1       990 8.99059E-05-3.29700E-05-2.43591E-05-2.04982E-05 1.02192E-18 1.85825E-18
 -1       991 8.97697E-05-2.36431E-05-2.83404E-05-7.45280E-06-2.71146E-19-7.91543E-19
 -1       992 9.48221E-05-2.41966E-05-3.02675E-05-1.25537E-06 9.00006E-19-9.01031E-19
 -1       993 9.30576E-05-2.41600E-05-2.95277E-05-3.85062E-06 6.18699E-19-6.81828E-19
 -1       994 9.35932E-05-2.29479E-05-3.02758E-05 1.45640E-06 2.63022E-19-7.33975E-19
 -1       995 6.02394E-05-1.45322E-05-1.94844E-05-7.84830E-06 8.79510E-19 1.70152E-18
 -1       996 7.01856E-05-1.88622E-05-2.19579E-05-1.30042E-05-4.24237E-19 1.74471E-18
 -1       997 9.10362E-05-2.38622E-05-2.87887E-05-6.14344E-06 1.50625E-19-9.89638E-19
 -1       998 8.67883E-05-2.85690E-05-2.49202E-05-1.79025E-05-7.78394E-19-1.17873E-18
 -1       999 9.21566E-05-2.40929E-05-2.91702E-05-4.97762E-06 4.38665E-19-8.95840E-19
 -1      1000 9.32953E-05-2.36769E-05-2.98381E-05 2.59243E-06 1.76379E-19-4.39213E-19
 -1      1001 8.11217E-05-2.64678E-05-2.33817E-05 1.89689E-05 1.08840E-18-3.77575E-19
 -1      1002 7.08755E-05-2.05620E-05-2.14877E-05 1.62276E-05-5.99410E-19 1.98874E-18
 -1      1003 9.33027E-05-2.20305E-05-3.05456E-05-7.18248E-07 9.72200E-19-9.11724E-19
 -1      1004 9.49295E-05-2.80145E-05-2.86779E-05-3.15699E-10-9.53015E-19-1.66046E-18
 -1      1005 9.36649E-05-2.39015E-05-2.98993E-05-2.66158E-06 6.64808E-19-7.16589E-19
 -1      1006 8.84792E-05-2.36715E-05-2.77764E-05-9.04508E-06-2.30372E-19-7.58318E-19
 -1      1007 6.69107E-05-1.57750E-05-2.18721E-05 2.06983E-06 3.89406E-19-2.02407E-18
 -1      1008 9.27297E-05-2.12910E-05-3.06164E-05-3.60012E-07 8.39172E-19-1.14119E-18
 -1      1009 7.80708E-05-2.27637E-05-2.36874E-05-1.50757E-05-5.12218E-19 9.12143E-19
 -1      1010 8.73221E-05-2.42114E-05-2.70494E-05-1.11371E-05-4.28848E-19-8.86133E-19
 -1      1011 8.67760E-05-2.70621E-05-2.55901E-05 1.55089E-05-1.18057E-18-1.80201E-20
 -1      1012 9.49482E-05-2.80343E-05-2.86774E-05-1.03732E-07 4.35067E-19-4.68559E-18
 -1      1013 9.32117E-05-2.16817E-05-3.06562E-05 5.42889E-07 1.96231E-19-7.59425E-19
 -1      1014 9.26648E-05-2.09786E-05-3.07229E-05 2.83713E-07 3.49304E-19-1.02807E-18
 -1      1015 7.65417E-05-2.01158E-05-2.41524E-05 1.05407E-05 1.12485E-18-3.36048E-19
 -1      1016 9.49498E-05-2.80355E-05-2.86775E-05 1.02041E-07-5.30569E-19-1.23162E-18
 -1      1017 8.96504E-05-2.27042E-05-2.86923E-05 3.61608E-06 2.52924E-19-7.03067E-19
 -1      1018 8.78238E-05-2.22110E-05-2.81211E-05 4.55376E-06 2.93487E-19-9.30605E-19
 -1      1019 8.56373E-05-2.16838E-05-2.74101E-05 5.77425E-06 8.60401E-20-6.76190E-19
 -1      1020 8.30895E-05-2.12987E-05-2.64783E-05 7.47021E-06 3.12853E-19-1.24540E-18
 -1      1021 8.01310E-05-2.06805E-05-2.54611E-05 8.78573E-06 8.91071E-19-9.14076E-19
 -1      1022 9.50044E-05-2.80963E-05-2.86748E-05 1.71171E-07 5.19785E-20 8.49452E-19
 -1      1023 9.25289E-05-2.10377E-05-3.06392E-05 3.80395E-08 5.21949E-19-1.03074E-18
 -1      1024 8.05227E-05-2.15551E-05-2.52693E-05-1.08671E-05 3.75480E-19 6.20013E-19
 -1      1025 8.27897E-05-2.11959E-05-2.63978E-05-8.07274E-06-3.53461E-19 1.05509E-18
 -1      1026 8.48644E-05-2.13755E-05-2.72097E-05-6.15624E-06-1.58928E-19-4.02581E-20
 -1      1027 8.67024E-05-2.18688E-05-2.77854E-05-4.79815E-06-2.31626E-19 6.71886E-19
 -1      1028 8.83114E-05-2.25508E-05-2.81834E-05-3.77174E-06 7.74636E-19 3.22753E-18
 -1      1029 8.96914E-05-2.33113E-05-2.84486E-05-2.98873E-06 9.56237E-20 3.61000E-18
 -1      1030 9.08622E-05-2.40877E-05-2.86176E-05-2.36146E-06-4.19972E-19 2.49774E-18
 -1      1031 9.18387E-05-2.48315E-05-2.87173E-05-1.85495E-06 2.32523E-19 2.61945E-18
 -1      1032 9.26399E-05-2.55130E-05-2.87686E-05-1.44304E-06 8.80418E-20 3.27377E-18
 -1      1033 9.32860E-05-2.61159E-05-2.87872E-05-1.10868E-06 1.48584E-19 1.17197E-18
 -1      1034 9.37981E-05-2.66342E-05-2.87845E-05-8.39112E-07 7.65739E-20 8.37241E-19
 -1      1035 9.41966E-05-2.70688E-05-2.87691E-05-6.23949E-07-6.51128E-20 8.66589E-19
 -1      1036 9.45012E-05-2.74257E-05-2.87466E-05-4.54547E-07 2.22271E-19 7.62125E-19
 -1      1037 9.47282E-05-2.77126E-05-2.87211E-05-3.21384E-07-1.58178E-19 5.19485E-19
 -1      1038 9.48947E-05-2.79396E-05-2.86951E-05-2.20708E-07 8.65349E-19-1.29197E-18
 -1      1039 8.58654E-05-2.14184E-05-2.76210E-05 5.16419E-06-1.60593E-19-1.27502E-18
 -1      1040 8.91877E-05-2.29485E-05-2.83881E-05 3.31320E-06 3.96576E-19-1.70917E-19
 -1      1041 8.76595E-05-2.21396E-05-2.80801E-05 4.12858E-06 3.19875E-19-5.02303E-19
 -1      1042 9.16029E-05-2.32474E-05-2.92958E-05-3.15971E-06 5.74632E-19-6.98584E-19
 -1      1043 9.04712E-05-2.37713E-05-2.85857E-05 2.65576E-06 6.69126E-19-7.35090E-19
 -1      1044 6.81794E-05-1.58053E-05-2.24196E-05-3.57815E-06 3.95511E-19 1.51675E-18
 -1      1045 6.97618E-05-1.77832E-05-2.22472E-05-9.36052E-06 2.31677E-19-1.90705E-18
 -1      1046 9.15357E-05-2.45599E-05-2.87039E-05 2.11560E-06-1.69016E-19 1.59401E-20
 -1      1047 9.24055E-05-2.52828E-05-2.87669E-05 1.66772E-06-1.85000E-18 1.78105E-18
 -1      1048 9.31058E-05-2.59234E-05-2.87925E-05 1.29725E-06-4.31177E-20 1.96261E-18
 -1      1049 9.36605E-05-2.64753E-05-2.87936E-05 9.93435E-07-8.71945E-20 3.33158E-19
 -1      1050 9.40926E-05-2.69395E-05-2.87799E-05 7.47275E-07-1.10376E-18 2.34319E-19
 -1      1051 9.44234E-05-2.73216E-05-2.87579E-05 5.50564E-07-1.61942E-18 7.74192E-19
 -1      1052 9.46720E-05-2.76305E-05-2.87321E-05 3.95906E-07-1.18768E-18 1.19959E-18
 -1      1053 9.48536E-05-2.78749E-05-2.87052E-05 2.75143E-07-3.08042E-19 8.92259E-19
 -1      1054 9.11243E-05-2.30333E-05-2.91829E-05 2.82014E-06 1.42498E-19-7.52147E-19
 -1      1055 7.85280E-05-2.20467E-05-2.41995E-05-1.33632E-05-1.23294E-19-1.08202E-18
 -1      1056 8.85280E-05-2.24570E-05-2.83164E-05-4.96537E-06-1.70634E-19-7.28725E-19
 -1      1057 9.29230E-05-2.21088E-05-3.03491E-05 8.91791E-07 3.01596E-19-1.18198E-18
 -1      1058 6.56009E-05-1.54773E-05-2.14096E-05 5.96447E-06-2.78039E-19 3.05795E-19
 -1      1059 9.02360E-05-2.29427E-05-2.88403E-05-4.01253E-06 4.59973E-19-7.61547E-19
 -1      1060 9.22215E-05-2.30634E-05-2.96394E-05 2.08590E-06 1.50310E-19-8.24106E-19
 -1      1061 9.48023E-05-2.78382E-05-2.86989E-05 7.36464E-08-9.37346E-19-2.43238E-18
 -1      1062 8.13893E-05-2.14143E-05-2.57054E-05-9.97738E-06-2.77960E-19-8.45500E-19
 -1      1063 8.13262E-05-2.06621E-05-2.59976E-05 8.62199E-06-4.11276E-19-1.06280E-18
 -1      1064 7.30904E-05-1.80255E-05-2.35841E-05-8.19127E-06-1.35189E-19 2.99972E-18
 -1      1065 9.25748E-05-2.32065E-05-2.97301E-05-2.31756E-06 5.96544E-19-1.00611E-18
 -1      1066 7.43702E-05-1.77162E-05-2.42781E-05 2.71851E-06 1.06691E-18-8.15917E-19
 -1      1067 9.28746E-05-2.25114E-05-3.01561E-05-1.24832E-06 8.13951E-19-1.10190E-18
 -1      1068 8.64239E-05-2.18743E-05-2.76637E-05-6.19443E-06-5.01017E-19-8.96034E-19
 -1      1069 7.93620E-05-2.12290E-05-2.49097E-05 1.15216E-05-1.65643E-22-1.20800E-18
 -1      1070 7.32177E-05-1.76965E-05-2.37797E-05-5.65667E-06 1.86310E-19-1.75227E-18
 -1      1071 8.37599E-05-2.08685E-05-2.69537E-05 6.59239E-06-1.05997E-18-9.29919E-19
 -1      1072 9.48030E-05-2.78395E-05-2.86987E-05-7.38093E-08-2.25492E-18-2.87964E-18
 -1      1073 7.99357E-05-2.44064E-05-2.37780E-05 1.66765E-05-1.04439E-18-9.98704E-19
 -1      1074 8.77426E-05-2.17054E-05-2.83016E-05 1.79789E-06 1.84785E-19-3.89164E-19
 -1      1075 8.73473E-05-2.18235E-05-2.80807E-05 1.92827E-06-4.41870E-19-1.07559E-18
 -1      1076 8.53416E-05-2.09434E-05-2.76007E-05 2.30874E-06 1.53861E-20-6.65585E-19
 -1      1077 8.23005E-05-2.00279E-05-2.66864E-05 3.04416E-06 2.50792E-19-5.31976E-19
 -1      1078 7.76957E-05-1.87135E-05-2.52793E-05-5.73954E-06 7.68418E-19 7.52645E-19
 -1      1079 8.11786E-05-1.95002E-05-2.64368E-05-4.17061E-06-2.98428E-19 1.98049E-18
 -1      1080 8.39217E-05-2.03583E-05-2.72447E-05-3.10890E-06 2.37865E-19 2.49180E-18
 -1      1081 8.62083E-05-2.13158E-05-2.78054E-05-2.38709E-06 1.18601E-18 1.67200E-18
 -1      1082 8.80032E-05-2.22314E-05-2.81875E-05-1.87728E-06 3.37721E-19 1.41359E-18
 -1      1083 8.95286E-05-2.31650E-05-2.84415E-05-1.45718E-06-1.77960E-19 2.49817E-18
 -1      1084 9.07835E-05-2.40420E-05-2.86035E-05-1.13658E-06 4.72274E-19 2.47893E-18
 -1      1085 9.18099E-05-2.48447E-05-2.86993E-05-8.81655E-07-4.07936E-21 1.35933E-18
 -1      1086 9.26392E-05-2.55580E-05-2.87491E-05-6.77966E-07-5.00265E-19 5.56888E-19
 -1      1087 9.33000E-05-2.61754E-05-2.87677E-05-5.15178E-07-5.55400E-19-4.66222E-19
 -1      1088 9.38185E-05-2.66974E-05-2.87662E-05-3.85650E-07 1.48962E-19-3.10917E-19
 -1      1089 9.42181E-05-2.71293E-05-2.87524E-05-2.83229E-07 5.60595E-19 4.81057E-19
 -1      1090 9.45217E-05-2.74811E-05-2.87318E-05-2.02826E-07 3.61924E-19-8.27624E-19
 -1      1091 9.01474E-05-2.24703E-05-2.90050E-05-1.86057E-06 4.23691E-19-6.70416E-19
 -1      1092 8.52941E-05-2.08078E-05-2.76376E-05 2.44889E-06 5.25027E-20-7.20905E-19
 -1      1093 8.90122E-05-2.28037E-05-2.83750E-05 1.54949E-06-1.53122E-19-4.30262E-19
 -1      1094 9.23870E-05-2.53253E-05-2.87408E-05 7.83376E-07-9.51427E-19-1.25566E-18
 -1      1095 9.03760E-05-2.37264E-05-2.85643E-05 1.24761E-06 3.98406E-19-2.68578E-19
 -1      1096 9.31039E-05-2.59802E-05-2.87674E-05 6.07850E-07 4.75455E-19-4.67031E-19
 -1      1097 9.36678E-05-2.65363E-05-2.87707E-05 4.63728E-07-5.32709E-19 2.92183E-19
 -1      1098 9.41049E-05-2.69991E-05-2.87596E-05 3.47230E-07-8.97919E-19-1.10142E-18
 -1      1099 9.44373E-05-2.73765E-05-2.87403E-05 2.54079E-07-1.01135E-18-2.08272E-18
 -1      1100 9.24561E-05-2.20263E-05-3.01847E-05-4.17554E-07 6.32717E-19-7.68595E-19
 -1      1101 9.25312E-05-2.18625E-05-3.02835E-05 3.65079E-07 5.27818E-19-7.94225E-19
 -1      1102 8.96877E-05-2.22972E-05-2.88810E-05 1.40204E-06 1.38727E-19-4.87925E-19
 -1      1103 9.14884E-05-2.45717E-05-2.86787E-05 9.94674E-07-1.85875E-18-5.14752E-19
 -1      1104 8.40881E-05-2.14866E-05-2.68262E-05-7.76019E-06-2.50417E-19-4.25898E-19
 -1      1105 8.83137E-05-2.19174E-05-2.84555E-05-2.30863E-06 4.58273E-20-3.83153E-19
 -1      1106 9.11512E-05-2.25685E-05-2.93919E-05 1.05968E-06 2.92951E-19-6.67813E-19
 -1      1107 9.20542E-05-2.24500E-05-2.98319E-05 6.86296E-07 3.65405E-19-7.82039E-19
 -1      1108 7.96132E-05-1.88174E-05-2.60527E-05 3.90744E-06-5.42173E-19 8.08548E-19
 -1      1109 9.15010E-05-2.26776E-05-2.94966E-05-1.42439E-06 3.97647E-19-6.94253E-19
 -1      1110 7.91560E-05-1.90857E-05-2.57478E-05 3.17304E-06 4.45712E-19-2.03686E-19
 -1      1111 7.44794E-05-1.72516E-05-2.45260E-05-2.38268E-06-7.89415E-19 1.44029E-19
 -1      1112 8.28964E-05-1.98819E-05-2.69937E-05 3.07043E-06 5.31765E-20-1.66800E-19
 -1      1113 9.46841E-05-2.76785E-05-2.87169E-05 1.81904E-07-1.08516E-18-2.73736E-18
 -1      1114 7.61527E-05-1.80235E-05-2.49064E-05 5.55173E-06 4.54320E-19 1.52967E-18
 -1      1115 9.46229E-05-2.76112E-05-2.87193E-05 4.32733E-08-1.33452E-18-2.51424E-18
 -1      1116 7.74481E-05-1.84570E-05-2.52830E-05-2.94121E-06 3.61482E-19-1.39593E-18
 -1      1117 8.59531E-05-2.11196E-05-2.77872E-05-2.83722E-06 9.74202E-20-4.19777E-19
 -1      1118 7.26007E-05-1.84541E-05-2.31868E-05 1.01524E-05 3.46362E-19 1.24011E-18
 -1      1119 7.17835E-05-1.65574E-05-2.36708E-05 3.13038E-06 3.18598E-19 3.38885E-19
 -1      1120 9.21154E-05-2.24839E-05-2.98361E-05-8.57961E-07 3.76344E-19-6.56896E-19
 -1      1121 8.06332E-05-1.93100E-05-2.62839E-05-1.81660E-06 1.13978E-19-9.97075E-19
 -1      1122 8.59627E-05-2.10644E-05-2.78169E-05-4.48380E-08 1.54687E-19 2.77238E-19
 -1      1123 7.88481E-05-1.83660E-05-2.59251E-05-1.72633E-06 5.65759E-19-1.26870E-19
 -1      1124 8.21975E-05-1.94518E-05-2.68973E-05-1.19795E-06 2.58436E-19 2.58239E-19
 -1      1125 8.84773E-05-2.24692E-05-2.82902E-05-5.74341E-08 4.77496E-19-1.16988E-18
 -1      1126 8.99403E-05-2.34294E-05-2.85044E-05-2.41634E-08-8.98400E-20-4.85893E-19
 -1      1127 9.11407E-05-2.43155E-05-2.86391E-05-4.95011E-09-3.26508E-19 3.47032E-19
 -1      1128 9.21115E-05-2.51071E-05-2.87160E-05 5.20114E-09-9.91874E-19-7.38557E-19
 -1      1129 9.28881E-05-2.57974E-05-2.87530E-05 9.60250E-09-4.47982E-19-1.10997E-18
 -1      1130 9.35011E-05-2.63857E-05-2.87636E-05 1.05910E-08-2.72482E-20-1.39824E-18
 -1      1131 9.39775E-05-2.68769E-05-2.87574E-05 9.77658E-09-1.04812E-19-1.87196E-18
 -1      1132 9.43465E-05-2.72839E-05-2.87411E-05 3.46971E-08-1.08065E-19-2.90731E-18
 -1      1133 8.34736E-05-2.01647E-05-2.71331E-05-9.43715E-07 1.40058E-19-1.09373E-19
 -1      1134 1.16238E-04 2.56244E-10-4.16826E-05-4.09998E-05-2.55380E-19 7.43187E-18
 -1      1135 8.86606E-05 7.27165E-11-3.72346E-05-2.36543E-05-1.35208E-19 5.66506E-19
 -1      1136 8.42694E-05 4.20989E-11-3.58294E-05-1.72521E-05-8.81444E-20-2.24788E-18
 -1      1137 8.25620E-05 3.21214E-11-3.51601E-05-1.31480E-05-6.01393E-20-3.51628E-18
 -1      1138 8.17130E-05 2.68279E-11-3.48162E-05-9.85603E-06-2.81903E-20-4.06394E-18
 -1      1139 8.12290E-05 2.34923E-11-3.46245E-05-7.04924E-06-1.93362E-20-4.23399E-18
 -1      1140 8.09358E-05 2.13416E-11-3.45118E-05-4.54263E-06-6.88876E-21-4.19572E-18
 -1      1141 8.07728E-05 2.01216E-11-3.44506E-05-2.20086E-06 8.08652E-21-4.04966E-18
 -1      1142 8.07220E-05 1.97369E-11-3.44317E-05 5.10303E-08 2.24786E-20-3.86575E-18
 -1      1143 8.07782E-05 2.01645E-11-3.44525E-05 2.30540E-06 2.66683E-20-3.68142E-18
 -1      1144 8.09468E-05 2.14421E-11-3.45154E-05 4.65554E-06 4.48927E-20-3.39466E-18
 -1      1145 8.12471E-05 2.36514E-11-3.46295E-05 7.17859E-06 5.46601E-20-2.98202E-18
 -1      1146 8.17375E-05 2.71285E-11-3.48234E-05 1.00129E-05 7.00523E-20-2.27579E-18
 -1      1147 8.25877E-05 3.26140E-11-3.51709E-05 1.33517E-05 8.52856E-20-1.14350E-18
 -1      1148 8.42671E-05 4.25695E-11-3.58493E-05 1.75024E-05 1.10644E-19 8.52631E-19
 -1      1149 8.83572E-05 6.76182E-11-3.73014E-05 2.35032E-05 1.12338E-19 4.40248E-18
 -1      1150 1.06106E-04 1.63918E-10-4.04715E-05 3.57649E-05 1.72583E-19 1.10582E-17
 -1      1151 1.29317E-04-2.56243E-05-4.00657E-05-2.57927E-05-1.06493E-18 1.17721E-17
 -1      1152 9.72145E-05-2.87948E-05-3.15020E-05-6.38274E-07-3.42254E-19 9.21000E-18
 -1      1153 9.03873E-05-2.71010E-05-2.79562E-05 3.91911E-07-1.27518E-19 5.73682E-18
 -1      1154 8.89151E-05-2.67788E-05-2.68482E-05 2.52454E-07-9.47420E-20 3.28538E-18
 -1      1155 8.90792E-05-2.68106E-05-2.67559E-05 1.69510E-07-1.06872E-21 1.82610E-18
 -1      1156 9.01141E-05-2.70923E-05-2.70495E-05 1.26190E-07-6.82920E-21 1.03656E-18
 -1      1157 9.16924E-05-2.75467E-05-2.75256E-05 1.02677E-07-6.46971E-20 8.66885E-20
 -1      1158 9.36778E-05-2.81317E-05-2.81250E-05 9.15512E-08-3.03617E-20-4.30504E-19
 -1      1159 9.60200E-05-2.88283E-05-2.88312E-05 8.94766E-08-6.43108E-20-5.45066E-19
 -1      1160 9.87057E-05-2.96295E-05-2.96391E-05 9.48223E-08-3.97220E-20-9.98625E-19
 -1      1161 1.01723E-04-3.05296E-05-3.05426E-05 1.06078E-07 9.37733E-20-1.72271E-18
 -1      1162 1.05024E-04-3.15122E-05-3.15226E-05 1.20379E-07 1.20093E-19-1.42476E-18
 -1      1163 1.08472E-04-3.25349E-05-3.25320E-05 1.31712E-07-9.17926E-20-2.46007E-18
 -1      1164 1.11780E-04-3.35110E-05-3.34779E-05 1.28761E-07 3.84068E-20-3.14122E-18
 -1      1165 1.14452E-04-3.42914E-05-3.42080E-05 9.34788E-08-1.30706E-19-3.02383E-18
 -1      1166 1.15754E-04-3.46597E-05-3.45114E-05 3.30680E-09-4.45586E-20-3.12668E-18
 -1      1167 1.14819E-04-3.43621E-05-3.41596E-05-1.56859E-07-6.30510E-20-3.72451E-18
 -1      1168 1.10959E-04-3.32057E-05-3.30025E-05-3.71330E-07 1.67620E-19-2.47551E-18
 -1      1169 1.04219E-04-3.12166E-05-3.11099E-05-5.68418E-07 4.41185E-20-1.68073E-18
 -1      1170 9.59257E-05-2.87973E-05-2.88800E-05-6.26539E-07-4.22491E-20-2.91983E-18
 -1      1171 8.86789E-05-2.67035E-05-2.69907E-05-4.46643E-07 2.47492E-21-3.00083E-18
 -1      1172 8.53384E-05-2.57443E-05-2.61356E-05-5.86858E-08-2.57485E-20-1.19490E-18
 -1      1173 8.73807E-05-2.63316E-05-2.66601E-05 3.58584E-07 5.85048E-20-1.23529E-18
 -1      1174 9.39263E-05-2.82204E-05-2.83603E-05 6.03986E-07-1.65661E-19-3.72218E-18
 -1      1175 1.02335E-04-3.06680E-05-3.06042E-05 6.03740E-07 4.55479E-20-3.65188E-18
 -1      1176 1.09804E-04-3.28660E-05-3.26784E-05 4.31639E-07-1.41653E-19-1.66405E-18
 -1      1177 1.14641E-04-3.43091E-05-3.41002E-05 2.13365E-07-7.39499E-21-2.46386E-18
 -1      1178 1.16514E-04-3.48845E-05-3.47219E-05 3.71350E-08 1.33937E-19-4.58935E-18
 -1      1179 1.15988E-04-3.47490E-05-3.46526E-05-6.83067E-08-2.81906E-19-6.29631E-18
 -1      1180 1.13937E-04-3.41556E-05-3.41156E-05-1.12778E-07 2.62837E-19-7.38801E-18
 -1      1181 1.11155E-04-3.33387E-05-3.33351E-05-1.18180E-07-1.57927E-19-6.51334E-18
 -1      1182 1.08211E-04-3.24680E-05-3.24831E-05-1.03959E-07 8.52383E-20-5.34724E-18
 -1      1183 1.05449E-04-3.16467E-05-3.16686E-05-8.28658E-08-9.91016E-20-4.95287E-18
 -1      1184 1.03037E-04-3.09268E-05-3.09487E-05-6.17466E-08-4.92627E-19-5.76644E-18
 -1      1185 1.01032E-04-3.03261E-05-3.03451E-05-4.35686E-08-9.22414E-20-7.28023E-18
 -1      1186 9.94245E-05-2.98431E-05-2.98584E-05-2.91637E-08 1.88993E-19-6.45480E-18
 -1      1187 9.81736E-05-2.94662E-05-2.94778E-05-1.83528E-08-1.25382E-19-7.68840E-18
 -1      1188 9.72254E-05-2.91798E-05-2.91882E-05-1.05710E-08-1.77579E-20-5.65971E-18
 -1      1189 9.65250E-05-2.89676E-05-2.89736E-05-5.17587E-09 1.14328E-19-5.11708E-18
 -1      1190 9.60214E-05-2.88146E-05-2.88186E-05-1.57907E-09 2.66840E-19-3.10445E-18
 -1      1191 9.56705E-05-2.87076E-05-2.87103E-05 7.09539E-10-3.91918E-20-5.11114E-19
 -1      1192 9.54359E-05-2.86358E-05-2.86374E-05 2.07796E-09-2.32484E-19-2.85514E-18
 -1      1193 9.52878E-05-2.85901E-05-2.85911E-05 2.82395E-09-2.44411E-21-6.28539E-18
 -1      1194 9.52029E-05-2.85637E-05-2.85642E-05 3.17147E-09 1.61158E-19-5.30465E-18
 -1      1195 9.51633E-05-2.85510E-05-2.85513E-05 3.28644E-09 3.59834E-19-2.41712E-18
 -1      1196 9.51551E-05-2.85479E-05-2.85480E-05 3.28920E-09 1.27960E-19-9.72254E-19
 -1      1197 9.51676E-05-2.85512E-05-2.85511E-05 3.25322E-09 5.18245E-20-2.50209E-19
 -1      1198 9.51921E-05-2.85581E-05-2.85576E-05 3.11937E-09 1.26823E-19 1.61627E-18
 -1      1199 9.52194E-05-2.85661E-05-2.85646E-05 2.71019E-09-1.99558E-19 1.94530E-18
 -1      1200 9.52352E-05-2.85707E-05-2.85691E-05 4.60498E-10 3.77965E-19 1.72231E-18
 -1      1201 1.30123E-04-3.74389E-05-3.84697E-05 1.20653E-05-1.78883E-19 1.63952E-17
 -1      1202 9.63378E-05-2.81296E-05-3.12578E-05 7.86557E-07 5.82600E-20 1.42248E-17
 -1      1203 9.05955E-05-2.70036E-05-2.79368E-05 1.20966E-07 6.11253E-20 1.18244E-17
 -1      1204 8.89980E-05-2.67059E-05-2.68838E-05 1.71196E-08 5.69563E-20 1.01470E-17
 -1      1205 8.91202E-05-2.67734E-05-2.67835E-05-1.26628E-08 3.73819E-20 8.97437E-18
 -1      1206 9.01436E-05-2.70766E-05-2.70685E-05-1.89000E-08 7.87443E-20 7.77891E-18
 -1      1207 9.17272E-05-2.75453E-05-2.75443E-05-1.88910E-08 1.90657E-20 7.31050E-18
 -1      1208 9.37344E-05-2.81435E-05-2.81505E-05-1.81317E-08-6.22619E-20 6.97720E-18
 -1      1209 9.61209E-05-2.88569E-05-2.88714E-05-1.93768E-08-2.48518E-20 6.56883E-18
 -1      1210 9.88848E-05-2.96830E-05-2.97052E-05-2.51959E-08-1.58471E-20 6.05372E-18
 -1      1211 1.02031E-04-3.06216E-05-3.06509E-05-3.85281E-08 1.60859E-19 5.01176E-18
 -1      1212 1.05531E-04-3.16624E-05-3.16949E-05-6.24505E-08 4.25485E-20 4.57565E-18
 -1      1213 1.09272E-04-3.27694E-05-3.27954E-05-9.89469E-08 2.16589E-20 3.87107E-18
 -1      1214 1.12981E-04-3.38614E-05-3.38611E-05-1.45905E-07-1.26639E-19 4.29594E-18
 -1      1215 1.16152E-04-3.47891E-05-3.47315E-05-1.91762E-07-3.36464E-20 3.85131E-18
 -1      1216 1.17989E-04-3.53240E-05-3.51726E-05-2.09315E-07-1.22178E-19 3.97581E-18
 -1      1217 1.17487E-04-3.51794E-05-3.49138E-05-1.55039E-07-1.49005E-19 3.68655E-18
 -1      1218 1.13750E-04-3.41005E-05-3.37552E-05 1.16140E-08 3.55059E-20 2.79648E-18
 -1      1219 1.06644E-04-3.20392E-05-3.17387E-05 2.80957E-07-8.82933E-20 1.45139E-18
 -1      1220 9.75219E-05-2.93601E-05-2.92931E-05 5.49178E-07-2.08330E-19 2.27132E-18
 -1      1221 8.93352E-05-2.68977E-05-2.71955E-05 6.44546E-07 3.23639E-19 1.61630E-18
 -1      1222 8.54906E-05-2.56701E-05-2.62588E-05 4.57043E-07-1.41415E-19 3.15525E-18
 -1      1223 8.78044E-05-2.62843E-05-2.68836E-05 6.19489E-08 1.37345E-19 2.19943E-18
 -1      1224 9.52175E-05-2.84851E-05-2.88097E-05-3.23302E-07 1.52095E-19 9.24431E-19
 -1      1225 1.04551E-04-3.13172E-05-3.12835E-05-5.19546E-07-4.99344E-20 2.11970E-18
 -1      1226 1.12549E-04-3.37603E-05-3.34887E-05-5.00072E-07 5.04977E-20 2.85567E-18
 -1      1227 1.17397E-04-3.52392E-05-3.49096E-05-3.53384E-07 6.53407E-20 1.65097E-18
 -1      1228 1.18904E-04-3.56947E-05-3.54283E-05-1.82228E-07-1.29262E-19 7.21566E-19
 -1      1229 1.17852E-04-3.53718E-05-3.52081E-05-4.69426E-08 1.75529E-19-8.99708E-19
 -1      1230 1.15277E-04-3.45911E-05-3.45177E-05 3.67673E-08 1.04486E-19-2.94794E-18
 -1      1231 1.12059E-04-3.36203E-05-3.36072E-05 7.70542E-08 7.28597E-20-2.84735E-18
 -1      1232 1.08790E-04-3.26373E-05-3.26568E-05 8.86829E-08 8.03823E-20-4.14411E-19
 -1      1233 1.05802E-04-3.17406E-05-3.17736E-05 8.44663E-08-1.24331E-19 1.40756E-18
 -1      1234 1.03243E-04-3.09732E-05-3.10088E-05 7.31047E-08-1.25478E-19 1.53922E-18
 -1      1235 1.01145E-04-3.03446E-05-3.03774E-05 5.96754E-08-9.69447E-20 7.75710E-19
 -1      1236 9.94828E-05-2.98464E-05-2.98742E-05 4.67790E-08-2.14505E-19 4.88771E-19
 -1      1237 9.82006E-05-2.94620E-05-2.94845E-05 3.55378E-08 4.51369E-19-2.04813E-18
 -1      1238 9.72356E-05-2.91726E-05-2.91902E-05 2.62753E-08 1.36494E-19-3.00237E-18
 -1      1239 9.65268E-05-2.89599E-05-2.89733E-05 1.89236E-08 1.71684E-19-3.25881E-18
 -1      1240 9.60195E-05-2.88076E-05-2.88175E-05 1.32484E-08 7.13239E-20-2.10912E-18
 -1      1241 9.56674E-05-2.87017E-05-2.87090E-05 8.96563E-09 8.32636E-20-1.69382E-18
 -1      1242 9.54327E-05-2.86311E-05-2.86364E-05 5.79668E-09-1.52426E-19 1.51628E-18
 -1      1243 9.52851E-05-2.85866E-05-2.85903E-05 3.49149E-09-2.45080E-19 1.16543E-18
 -1      1244 9.52008E-05-2.85611E-05-2.85637E-05 1.83433E-09 1.72009E-19-2.83887E-18
 -1      1245 9.51618E-05-2.85492E-05-2.85510E-05 6.39428E-10 4.21145E-19-5.92099E-18
 -1      1246 9.51541E-05-2.85467E-05-2.85479E-05-2.57697E-10 3.65551E-19-9.22902E-18
 -1      1247 9.51670E-05-2.85504E-05-2.85511E-05-1.00960E-09 4.16805E-20-1.05062E-17
 -1      1248 9.51918E-05-2.85576E-05-2.85577E-05-1.76678E-09 6.28842E-20-8.44002E-18
 -1      1249 9.52191E-05-2.85654E-05-2.85647E-05-2.43422E-09 8.28795E-19-1.07774E-17
 -1      1250 9.52354E-05-2.85709E-05-2.85691E-05-5.03821E-10-4.79670E-20-8.71342E-18
 -1      1251 9.52373E-05-2.85730E-05-2.85692E-05-7.27125E-10-8.67896E-18-4.19904E-19
 -1      1252 9.52424E-05-2.85890E-05-2.85650E-05-2.27742E-09-8.94588E-18-1.50879E-19
 -1      1253 9.52494E-05-2.86126E-05-2.85592E-05-2.22013E-09-1.88203E-18 1.04502E-18
 -1      1254 9.52549E-05-2.86311E-05-2.85541E-05-1.43744E-09 2.07038E-18 9.23456E-20
 -1      1255 9.52578E-05-2.86404E-05-2.85512E-05-6.79709E-10 3.00968E-18 1.78391E-19
 -1      1256 9.52583E-05-2.86419E-05-2.85504E-05-1.56318E-10 1.82848E-18-3.01401E-19
 -1      1257 9.52576E-05-2.86389E-05-2.85509E-05 7.78099E-11 5.97018E-18 7.15065E-19
 -1      1258 9.52565E-05-2.86351E-05-2.85518E-05 1.03122E-10 3.25097E-18-1.11767E-18
 -1      1259 9.52561E-05-2.86335E-05-2.85522E-05 5.62448E-12-2.81531E-18 4.92297E-20
 -1      1260 9.52565E-05-2.86350E-05-2.85518E-05-9.23400E-11 1.29937E-18 6.99518E-19
 -1      1261 9.52575E-05-2.86386E-05-2.85510E-05-6.65921E-11-2.92576E-18-4.53796E-19
 -1      1262 9.52582E-05-2.86414E-05-2.85506E-05 1.76794E-10-8.53702E-18 3.06543E-19
 -1      1263 9.52576E-05-2.86399E-05-2.85514E-05 6.87558E-10-1.02042E-17 4.46752E-19
 -1      1264 9.52547E-05-2.86304E-05-2.85543E-05 1.45935E-09-5.79713E-18 5.11795E-19
 -1      1265 9.52494E-05-2.86118E-05-2.85593E-05 2.60124E-09-2.54870E-18 4.71261E-19
 -1      1266 9.52424E-05-2.85885E-05-2.85650E-05 3.13407E-09-3.55642E-18-2.78228E-19
 -1      1267 9.52374E-05-2.85733E-05-2.85693E-05 1.04014E-09-1.24897E-18 2.24929E-19
 -1      1268 3.25180E-05-1.04705E-04 1.78570E-05-1.36483E-05 5.64124E-18 1.45105E-18
 -1      1269 1.69636E-05-6.43431E-05 9.30486E-06-2.47107E-05 8.61517E-18 3.46267E-18
 -1      1270 7.33919E-06-9.86741E-06-5.60168E-06-1.23069E-06 1.30443E-17 8.95737E-18
 -1      1271 3.06249E-05 2.35799E-05-2.45761E-05 4.88900E-05 1.72947E-17 1.66476E-17
 -1      1272 9.65357E-05 1.65283E-05-4.41301E-05 9.66233E-05 1.27097E-17 1.66781E-17
 -1      1273 1.93455E-04-2.63074E-05-6.16383E-05 1.10231E-04 5.27913E-18 1.06862E-17
 -1      1274 2.79001E-04-7.38456E-05-7.41333E-05 6.85478E-05 9.67100E-19 1.86178E-18
 -1      1275 3.11874E-04-9.40375E-05-7.79570E-05-8.39459E-06 3.18590E-19-4.50865E-18
 -1      1276 2.66292E-04-6.65978E-05-7.22106E-05-8.25171E-05 3.95289E-18-1.23574E-17
 -1      1277 1.70357E-04-1.40362E-05-5.79902E-05-1.09785E-04 9.15812E-18-1.80892E-17
 -1      1278 7.63035E-05 2.16942E-05-3.87872E-05-8.53379E-05 1.62317E-17-1.98087E-17
 -1      1279 1.94511E-05 1.71091E-05-1.87522E-05-3.27727E-05 1.94614E-17-1.60928E-17
 -1      1280 8.22255E-06-2.60625E-05-3.46334E-07 1.16432E-05 1.71592E-17-9.66465E-18
 -1      1281 2.31594E-05-8.07446E-05 1.30146E-05 2.59115E-05 8.94128E-18-3.16981E-18
 -1      1282 3.66008E-05-1.11787E-04 1.88953E-05 7.40449E-06-2.75709E-18-5.55442E-19
 -1      1283 3.09229E-05-1.00011E-04 1.68651E-05-1.82130E-05-1.21596E-17-2.84063E-18
 -1      1284 1.41156E-05-5.44749E-05 7.09171E-06-2.35550E-05-1.68483E-17-6.47133E-18
 -1      1285 8.26201E-06-8.16887E-07-8.86014E-06 6.31423E-06-1.67831E-17-1.11783E-17
 -1      1286 4.29786E-05 2.56455E-05-2.92084E-05 6.16629E-05-1.53736E-17-1.55837E-17
 -1      1287 1.27474E-04 5.10811E-06-5.01095E-05 1.05209E-04-1.00932E-17-1.56362E-17
 -1      1288 2.29124E-04-4.50700E-05-6.71861E-05 9.99133E-05-4.76498E-18-1.35314E-17
 -1      1289 3.00354E-04-8.72930E-05-7.64722E-05 4.36348E-05-1.45568E-18-6.57043E-18
 -1      1290 3.02416E-04-8.83953E-05-7.68093E-05-3.68994E-05-9.42351E-19 2.60801E-18
 -1      1291 2.35177E-04-4.85881E-05-6.80106E-05-9.67267E-05-3.97089E-18 1.02211E-17
 -1      1292 1.33231E-04 2.39197E-06-5.12792E-05-1.07288E-04-9.74766E-18 1.57921E-17
 -1      1293 4.59377E-05 2.59225E-05-3.03870E-05-6.47414E-05-1.41912E-17 1.45622E-17
 -1      1294 8.81133E-06 5.03339E-07-9.40747E-06-7.83172E-06-1.52669E-17 1.08471E-17
 -1      1295 1.55175E-05-5.76135E-05 7.80238E-06 2.37654E-05-6.87621E-18 3.22762E-18
 -1      1296 3.32299E-05-1.05033E-04 1.76672E-05 1.37625E-05-7.14049E-19 4.94085E-19
 -1      1297 1.04112E-04-2.19399E-05-3.77627E-05-1.69858E-05-3.91964E-19 5.88773E-18
 -1      1298 9.04752E-05-6.76639E-06-3.60377E-05-1.98950E-05-1.02433E-18-7.55130E-19
 -1      1299 9.27034E-05-6.84085E-06-3.71845E-05-2.52089E-05-1.33238E-18 7.23948E-19
 -1      1300 8.61657E-05-4.16132E-06-3.52101E-05-1.57517E-05-9.51959E-19-2.84002E-18
 -1      1301 8.73858E-05-4.15971E-06-3.56559E-05-1.82099E-05-1.10019E-18-1.96591E-18
 -1      1302 9.23657E-05-1.05756E-05-3.51389E-05-1.83799E-05-1.74235E-18-6.74132E-19
 -1      1303 8.43231E-05-3.19964E-06-3.47801E-05-1.21024E-05-7.16643E-19-3.79325E-18
 -1      1304 8.49527E-05-3.17399E-06-3.50027E-05-1.39222E-05-8.45021E-19-3.37026E-18
 -1      1305 8.81337E-05-7.44188E-06-3.46643E-05-1.46814E-05-1.49161E-18-2.38382E-18
 -1      1306 8.33085E-05-2.67562E-06-3.45489E-05-9.00714E-06-4.99160E-19-4.17252E-18
 -1      1307 8.36715E-05-2.66289E-06-3.46689E-05-1.05262E-05-5.81065E-19-4.01997E-18
 -1      1308 8.60433E-05-5.92672E-06-3.44032E-05-1.12260E-05-1.08100E-18-3.18852E-18
 -1      1309 8.26870E-05-2.34391E-06-3.44153E-05-6.34532E-06-2.62679E-19-4.25128E-18
 -1      1310 8.29119E-05-2.33850E-06-3.44850E-05-7.65390E-06-3.43293E-19-4.21196E-18
 -1      1311 8.48491E-05-5.04550E-06-3.42555E-05-8.27248E-06-7.19379E-19-3.47400E-18
 -1      1312 8.22957E-05-2.12887E-06-3.43349E-05-3.89913E-06-6.62307E-20-4.16302E-18
 -1      1313 8.24335E-05-2.12706E-06-3.43759E-05-5.10860E-06-1.52678E-19-4.23233E-18
 -1      1314 8.41009E-05-4.48710E-06-3.41667E-05-5.68018E-06-3.82369E-19-3.53248E-18
 -1      1315 8.20889E-05-2.00698E-06-3.42945E-05-1.61189E-06 1.38889E-19-4.02105E-18
 -1      1316 8.21541E-05-2.00650E-06-3.43135E-05-2.75241E-06 7.41485E-20-4.09931E-18
 -1      1317 8.36471E-05-4.14605E-06-3.41144E-05-3.29834E-06-2.67287E-20-3.39181E-18
 -1      1318 8.20461E-05-1.96843E-06-3.42884E-05 6.09991E-07 3.31043E-19-3.83394E-18
 -1      1319 8.20444E-05-1.96850E-06-3.42879E-05-5.08816E-07 2.75540E-19-3.94310E-18
 -1      1320 8.34328E-05-3.98458E-06-3.40901E-05-1.05150E-06 3.36010E-19-3.31088E-18
 -1      1321 8.21640E-05-2.01067E-06-3.43156E-05 2.85707E-06 5.24727E-19-3.66436E-18
 -1      1322 8.20954E-05-2.01123E-06-3.42957E-05 1.71399E-06 4.88390E-19-3.78036E-18
 -1      1323 8.34382E-05-3.98858E-06-3.40907E-05 1.15233E-06 6.61127E-19-3.14012E-18
 -1      1324 8.24531E-05-2.13746E-06-3.43794E-05 5.22227E-06 7.11753E-19-3.37692E-18
 -1      1325 8.23113E-05-2.13860E-06-3.43375E-05 4.00680E-06 6.34676E-19-3.55610E-18
 -1      1326 8.36640E-05-4.15912E-06-3.41162E-05 3.40307E-06 9.50751E-19-2.98680E-18
 -1      1327 8.29363E-05-2.35335E-06-3.44883E-05 7.76113E-06 9.07516E-19-2.89995E-18
 -1      1328 8.27083E-05-2.35917E-06-3.44181E-05 6.44373E-06 8.37570E-19-3.18527E-18
 -1      1329 8.41281E-05-4.50960E-06-3.41686E-05 5.77241E-06 1.26172E-18-2.64314E-18
 -1      1330 8.37174E-05-2.69246E-06-3.46748E-05 1.06848E-05 1.13439E-18-2.11863E-18
 -1      1331 8.33474E-05-2.70572E-06-3.45531E-05 9.14853E-06 1.02702E-18-2.59041E-18
 -1      1332 8.48925E-05-5.08587E-06-3.42568E-05 8.38246E-06 1.59372E-18-2.11245E-18
 -1      1333 8.50161E-05-3.21892E-06-3.50119E-05 1.41320E-05 1.34509E-18-8.81444E-19
 -1      1334 8.43835E-05-3.25083E-06-3.47869E-05 1.22842E-05 1.24012E-18-1.62130E-18
 -1      1335 8.61287E-05-6.00568E-06-3.44057E-05 1.13854E-05 1.90003E-18-1.29302E-18
 -1      1336 8.74839E-05-4.16140E-06-3.56770E-05 1.84463E-05 1.41693E-18 1.28172E-18
 -1      1337 8.62358E-05-4.21888E-06-3.52183E-05 1.60104E-05 1.28768E-18-1.61730E-20
 -1      1338 8.82633E-05-7.56487E-06-3.46676E-05 1.49192E-05 2.10632E-18 1.04900E-19
 -1      1339 9.34887E-05-6.88506E-06-3.70777E-05 2.45641E-05 1.15218E-18 4.99723E-18
 -1      1340 9.02911E-05-6.52719E-06-3.60589E-05 2.05655E-05 1.13688E-18 2.76403E-18
 -1      1341 9.25913E-05-1.08076E-05-3.51234E-05 1.90146E-05 2.04016E-18 2.38530E-18
 -1      1342 1.23019E-04-2.48253E-05-3.88596E-05 2.79720E-05 4.40245E-19 1.14798E-17
 -1      1343 9.99368E-05-1.44479E-05-3.72703E-05 2.36093E-05 5.02291E-19 7.05208E-18
 -1      1344 1.01687E-04-1.94096E-05-3.53717E-05 2.08483E-05 1.75471E-18 5.75792E-18
 -1      1345 1.02336E-04-2.77493E-05-3.46514E-05 7.09287E-06 8.38774E-19 1.12854E-17
 -1      1346 1.04963E-04-3.01891E-05-3.34569E-05-7.68431E-06-1.13471E-18 6.26053E-18
 -1      1347 9.83071E-05-2.78746E-05-3.07601E-05-4.75709E-06-1.05837E-18 4.89278E-18
 -1      1348 9.57026E-05-2.79107E-05-2.93098E-05-2.26026E-06-8.42639E-19 4.37754E-18
 -1      1349 9.36864E-05-2.76802E-05-2.83376E-05-1.81506E-06-8.24004E-19 3.14911E-18
 -1      1350 9.97000E-05-2.81311E-05-3.10399E-05-7.43198E-06-1.82292E-18 2.39684E-18
 -1      1351 9.21906E-05-2.73741E-05-2.77661E-05-5.85664E-07-6.87698E-19 2.74060E-18
 -1      1352 9.17134E-05-2.73466E-05-2.75370E-05-4.66446E-07-5.90746E-19 1.77940E-18
 -1      1353 9.52766E-05-2.79284E-05-2.89903E-05-2.64195E-06-1.42786E-18 1.58783E-18
 -1      1354 9.12006E-05-2.72296E-05-2.73686E-05 1.40877E-07-3.39812E-19 1.38493E-18
 -1      1355 9.14268E-05-2.73431E-05-2.74236E-05 2.14232E-07-3.29562E-19 9.00528E-19
 -1      1356 9.34953E-05-2.77650E-05-2.82045E-05-4.80434E-07-9.71759E-19 8.93209E-19
 -1      1357 9.14689E-05-2.73606E-05-2.74436E-05 5.63833E-07-2.06077E-19 6.96023E-19
 -1      1358 9.20730E-05-2.75653E-05-2.76217E-05 6.13800E-07-2.46907E-19 3.75341E-19
 -1      1359 9.30617E-05-2.77634E-05-2.80034E-05 6.63230E-07-5.83817E-19 3.13521E-19
 -1      1360 9.24640E-05-2.76783E-05-2.77488E-05 8.49771E-07-3.03501E-19 9.96323E-20
 -1      1361 9.33173E-05-2.79500E-05-2.80000E-05 8.88913E-07-3.31160E-19-2.36885E-19
 -1      1362 9.34810E-05-2.79386E-05-2.81053E-05 1.37239E-06-6.12428E-19 3.46622E-20
 -1      1363 9.39532E-05-2.81327E-05-2.82008E-05 1.07314E-06-1.03917E-19-3.53153E-19
 -1      1364 9.50028E-05-2.84598E-05-2.85092E-05 1.10827E-06-1.31727E-19-5.29832E-19
 -1      1365 9.44747E-05-2.82561E-05-2.83937E-05 1.88286E-06-3.79501E-19-2.10292E-19
 -1      1366 9.58305E-05-2.86980E-05-2.87679E-05 1.27022E-06-8.63428E-20-5.06910E-19
 -1      1367 9.70567E-05-2.90771E-05-2.91282E-05 1.30466E-06-5.99565E-20-5.83652E-19
 -1      1368 9.58963E-05-2.86888E-05-2.88165E-05 2.30354E-06-2.82737E-19-6.20604E-19
 -1      1369 9.80471E-05-2.93636E-05-2.94360E-05 1.45509E-06-1.21475E-19-5.07042E-19
 -1      1370 9.94410E-05-2.97946E-05-2.98453E-05 1.48920E-06-2.75153E-19-7.69304E-19
 -1      1371 9.76678E-05-2.92222E-05-2.93465E-05 2.68306E-06-2.30926E-19-5.23427E-19
 -1      1372 1.00571E-04-3.01245E-05-3.01945E-05 1.62282E-06-3.58440E-19-8.41249E-19
 -1      1373 1.02116E-04-3.06053E-05-3.06470E-05 1.65346E-06-8.49845E-21-1.18227E-18
 -1      1374 9.97407E-05-2.98501E-05-2.99648E-05 3.02888E-06-3.82023E-19-1.97028E-19
 -1      1375 1.03355E-04-3.09724E-05-3.10262E-05 1.74683E-06 2.30706E-19-1.36571E-18
 -1      1376 1.05004E-04-3.14923E-05-3.15068E-05 1.76607E-06-8.16444E-20-1.31788E-18
 -1      1377 1.02065E-04-3.05678E-05-3.06513E-05 3.30790E-06-1.70714E-19-6.04816E-19
 -1      1378 1.06294E-04-3.18843E-05-3.18960E-05 1.77362E-06-4.04856E-19-1.42618E-18
 -1      1379 1.07944E-04-3.24156E-05-3.23728E-05 1.76727E-06-4.84178E-19-2.10219E-18
 -1      1380 1.04561E-04-3.13645E-05-3.13745E-05 3.43915E-06-4.68937E-19-1.22461E-18
 -1      1381 1.09188E-04-3.28092E-05-3.27379E-05 1.61916E-06-6.42488E-20-2.23697E-18
 -1      1382 1.10651E-04-3.32963E-05-3.31538E-05 1.56602E-06 2.64466E-20-2.30081E-18
 -1      1383 1.07085E-04-3.22123E-05-3.20831E-05 3.28607E-06-3.51921E-19-1.44643E-18
 -1      1384 1.11693E-04-3.36506E-05-3.34435E-05 1.17525E-06 8.19273E-20-2.33223E-18
 -1      1385 1.12672E-04-3.40002E-05-3.37126E-05 1.04965E-06-6.67038E-20-2.34671E-18
 -1      1386 1.09397E-04-3.30506E-05-3.26984E-05 2.66117E-06-5.57652E-20-1.71833E-18
 -1      1387 1.13298E-04-3.42506E-05-3.38606E-05 3.40965E-07-1.76792E-19-2.12173E-18
 -1      1388 1.13410E-04-3.43310E-05-3.38762E-05 1.23044E-07-2.15848E-19-2.32473E-18
 -1      1389 1.11139E-04-3.37653E-05-3.31155E-05 1.36610E-06-5.34954E-20-1.46079E-18
 -1      1390 1.13372E-04-3.43884E-05-3.38155E-05-9.02937E-07-2.71778E-20-2.43063E-18
 -1      1391 1.12241E-04-3.40541E-05-3.34814E-05-1.20379E-06-2.69330E-21-2.31515E-18
 -1      1392 1.11848E-04-3.41707E-05-3.32194E-05-7.01241E-07-1.16010E-19-1.20979E-18
 -1      1393 1.11340E-04-3.38239E-05-3.31740E-05-2.37905E-06 3.12092E-19-2.21229E-18
 -1      1394 1.08805E-04-3.29861E-05-3.24618E-05-2.69532E-06 2.25549E-19-1.65955E-18
 -1      1395 1.11051E-04-3.40200E-05-3.29247E-05-3.35857E-06 2.70256E-19-1.29801E-18
 -1      1396 1.07036E-04-3.24197E-05-3.19366E-05-3.62679E-06-4.85621E-20-1.64123E-18
 -1      1397 1.03413E-04-3.11530E-05-3.09519E-05-3.82056E-06-3.46086E-19-1.95733E-18
 -1      1398 1.08495E-04-3.30992E-05-3.22332E-05-5.94782E-06 1.48323E-19-1.58561E-18
 -1      1399 1.01128E-04-3.03355E-05-3.03317E-05-3.97804E-06-3.41025E-19-1.93166E-18
 -1      1400 9.73605E-05-2.89644E-05-2.93342E-05-3.89267E-06-3.91362E-19-2.48382E-18
 -1      1401 1.04468E-04-3.14158E-05-3.12823E-05-7.34409E-06-3.13111E-19-1.54799E-18
 -1      1402 9.53039E-05-2.81749E-05-2.88126E-05-2.92660E-06 1.61499E-19-2.61236E-18
 -1      1403 9.27260E-05-2.72113E-05-2.81428E-05-2.51157E-06 2.02097E-20-2.20890E-18
 -1      1404 1.00066E-04-2.94201E-05-3.03419E-05-6.42517E-06-3.04045E-19-1.78110E-18
 -1      1405 9.17661E-05-2.68278E-05-2.79094E-05-6.29807E-07 1.39932E-19-1.92081E-18
 -1      1406 9.14500E-05-2.67069E-05-2.78284E-05-3.85272E-08 1.21536E-19-1.66850E-18
 -1      1407 9.69688E-05-2.79488E-05-2.97247E-05-2.95971E-06 2.01753E-19-2.32159E-18
 -1      1408 9.20500E-05-2.69444E-05-2.79754E-05 1.97051E-06-2.92385E-19-1.87806E-18
 -1      1409 9.41436E-05-2.77273E-05-2.85189E-05 2.45609E-06-4.91239E-19-2.21883E-18
 -1      1410 9.65962E-05-2.77627E-05-2.96561E-05 1.82435E-06-4.83709E-19-2.60382E-18
 -1      1411 9.60266E-05-2.84556E-05-2.89921E-05 3.71838E-06-3.09991E-19-2.37868E-18
 -1      1412 9.96578E-05-2.97848E-05-2.99496E-05 3.89580E-06-2.55169E-19-2.98060E-18
 -1      1413 9.91472E-05-2.89687E-05-3.01659E-05 5.82336E-06-3.51651E-19-2.14346E-18
 -1      1414 1.02014E-04-3.06427E-05-3.05784E-05 4.02908E-06 3.74964E-19-2.85027E-18
 -1      1415 1.05849E-04-3.19960E-05-3.16145E-05 3.89842E-06 3.21042E-19-1.97285E-18
 -1      1416 1.03459E-04-3.09378E-05-3.10759E-05 7.46984E-06-8.75289E-20-1.48511E-18
 -1      1417 1.07863E-04-3.26610E-05-3.21982E-05 3.13378E-06 5.62483E-20-1.84288E-18
 -1      1418 1.10815E-04-3.36508E-05-3.30212E-05 2.83766E-06-1.72477E-19-1.54586E-18
 -1      1419 1.07826E-04-3.27959E-05-3.20854E-05 6.62517E-06 2.87832E-19-1.78871E-18
 -1      1420 1.12028E-04-3.39890E-05-3.34151E-05 1.69656E-06-4.68184E-19-1.94765E-18
 -1      1421 1.13622E-04-3.44801E-05-3.38790E-05 1.38639E-06-2.26859E-19-2.74535E-18
 -1      1422 1.10955E-04-3.39704E-05-3.29044E-05 4.26556E-06-6.21186E-19-1.81998E-18
 -1      1423 1.13962E-04-3.45148E-05-3.40307E-05 3.17332E-07-1.31773E-19-3.12061E-18
 -1      1424 1.14265E-04-3.45663E-05-3.41350E-05 8.04172E-08-6.10029E-19-3.90411E-18
 -1      1425 1.12362E-04-3.43518E-05-3.33574E-05 1.58612E-06-9.02706E-19-2.04527E-18
 -1      1426 1.13899E-04-3.43885E-05-3.40700E-05-6.91452E-07-5.19082E-19-4.22865E-18
 -1      1427 1.13259E-04-3.41412E-05-3.39013E-05-8.33625E-07-2.75772E-19-5.03274E-18
 -1      1428 1.12199E-04-3.41229E-05-3.34117E-05-6.14397E-07-8.01776E-19-3.06611E-18
 -1      1429 1.12436E-04-3.38447E-05-3.36832E-05-1.27325E-06-2.44051E-20-4.41701E-18
 -1      1430 1.11253E-04-3.34395E-05-3.33511E-05-1.33550E-06 7.88568E-20-4.09649E-18
 -1      1431 1.10916E-04-3.35366E-05-3.31378E-05-2.04524E-06-2.18783E-19-2.13049E-18
 -1      1432 1.10202E-04-3.30963E-05-3.30492E-05-1.50621E-06-2.34163E-19-4.01474E-18
 -1      1433 1.08803E-04-3.26387E-05-3.26479E-05-1.51418E-06-9.28709E-20-3.99704E-18
 -1      1434 1.08996E-04-3.27991E-05-3.26492E-05-2.75499E-06 3.64423E-20-2.46316E-18
 -1      1435 1.07696E-04-3.22958E-05-3.23183E-05-1.50509E-06 1.31596E-19-3.27970E-18
 -1      1436 1.06302E-04-3.18519E-05-3.19133E-05-1.48197E-06 1.55266E-19-3.00153E-18
 -1      1437 1.06831E-04-3.20434E-05-3.20564E-05-2.93222E-06 1.29222E-19-1.52578E-18
 -1      1438 1.05250E-04-3.15362E-05-3.15940E-05-1.37122E-06-1.45777E-19-3.53093E-18
 -1      1439 1.03983E-04-3.11407E-05-3.12232E-05-1.33367E-06-5.12811E-19-3.70415E-18
 -1      1440 1.04689E-04-3.13424E-05-3.14449E-05-2.77787E-06-3.88731E-19-1.51313E-18
 -1      1441 1.03047E-04-3.08653E-05-3.09358E-05-1.17732E-06-5.55872E-19-3.68202E-18
 -1      1442 1.01963E-04-3.05316E-05-3.06169E-05-1.13576E-06-4.86465E-19-5.01644E-18
 -1      1443 1.02730E-04-3.07295E-05-3.08702E-05-2.45131E-06-2.44032E-19-2.65529E-18
 -1      1444 1.01168E-04-3.03006E-05-3.03710E-05-9.69094E-07-1.94559E-19-4.54213E-18
 -1      1445 1.00279E-04-3.00302E-05-3.01085E-05-9.29302E-07 3.54233E-19-4.99113E-18
 -1      1446 1.01030E-04-3.02147E-05-3.03623E-05-2.06041E-06-5.48530E-19-2.58367E-18
 -1      1447 9.96260E-05-2.98421E-05-2.99060E-05-7.72049E-07-5.77868E-20-4.48237E-18
 -1      1448 9.89213E-05-2.96297E-05-2.96971E-05-7.36802E-07-1.74604E-19-4.44009E-18
 -1      1449 9.96107E-05-2.97952E-05-2.99327E-05-1.66993E-06 3.81264E-19-3.13429E-18
 -1      1450 9.84003E-05-2.94806E-05-2.95352E-05-5.98388E-07 4.42733E-19-4.69633E-18
 -1      1451 9.78568E-05-2.93181E-05-2.93737E-05-5.68668E-07 5.52119E-19-4.10484E-18
 -1      1452 9.84619E-05-2.94620E-05-2.95817E-05-1.31409E-06-3.53620E-20-2.86691E-18
 -1      1453 9.74515E-05-2.92027E-05-2.92476E-05-4.52273E-07 1.30077E-19-4.19696E-18
 -1      1454 9.70430E-05-2.90815E-05-2.91259E-05-4.28070E-07-2.19962E-19-3.81618E-18
 -1      1455 9.75561E-05-2.92031E-05-2.93028E-05-1.00759E-06 3.88264E-19-2.22957E-18
 -1      1456 9.67350E-05-2.89941E-05-2.90300E-05-3.33387E-07-8.36375E-20-2.54747E-18
 -1      1457 9.64358E-05-2.89061E-05-2.89406E-05-3.14202E-07 3.68970E-19-3.06361E-18
 -1      1458 9.68588E-05-2.90063E-05-2.90867E-05-7.53719E-07 3.40104E-20-1.83646E-18
 -1      1459 9.62073E-05-2.88415E-05-2.88695E-05-2.39173E-07 5.74110E-19-3.01484E-18
 -1      1460 9.59943E-05-2.87794E-05-2.88056E-05-2.24306E-07 3.84899E-19-1.94638E-18
 -1      1461 9.63343E-05-2.88600E-05-2.89232E-05-5.49547E-07 4.89665E-19-1.49081E-18
 -1      1462 9.58291E-05-2.87328E-05-2.87542E-05-1.66160E-07 2.52669E-19-1.82204E-18
 -1      1463 9.56826E-05-2.86906E-05-2.87101E-05-1.54872E-07-4.51833E-19-1.75330E-18
 -1      1464 9.59493E-05-2.87538E-05-2.88024E-05-3.89264E-07 7.98032E-19-1.16643E-18
 -1      1465 9.55668E-05-2.86580E-05-2.86741E-05-1.10710E-07-1.11109E-18-2.00226E-18
 -1      1466 9.54704E-05-2.86307E-05-2.86449E-05-1.02303E-07-5.49163E-19-3.15192E-18
 -1      1467 9.56743E-05-2.86790E-05-2.87156E-05-2.66067E-07-1.20900E-18-1.92353E-18
 -1      1468 9.53924E-05-2.86088E-05-2.86206E-05-6.94115E-08-1.92092E-19-2.89717E-18
 -1      1469 9.53332E-05-2.85924E-05-2.86026E-05-6.32719E-08 2.91854E-20-3.63956E-18
 -1      1470 9.54844E-05-2.86282E-05-2.86552E-05-1.73225E-07-8.54299E-19-1.34438E-18
 -1      1471 9.52835E-05-2.85786E-05-2.85871E-05-3.92710E-08 2.82889E-19-2.09831E-18
 -1      1472 9.52513E-05-2.85701E-05-2.85772E-05-3.48824E-08 5.95099E-19-1.77588E-18
 -1      1473 9.53590E-05-2.85953E-05-2.86149E-05-1.04630E-07 1.11524E-18 2.10632E-19
 -1      1474 9.52223E-05-2.85621E-05-2.85682E-05-1.77918E-08 9.15826E-19-2.16278E-18
 -1      1475 9.52092E-05-2.85592E-05-2.85639E-05-1.47390E-08 7.93491E-19-1.11398E-18
 -1      1476 9.52816E-05-2.85757E-05-2.85896E-05-5.50517E-08 9.61247E-19 5.08134E-19
 -1      1477 9.51950E-05-2.85553E-05-2.85595E-05-3.00540E-09 3.62905E-19-8.19754E-19
 -1      1478 9.51949E-05-2.85562E-05-2.85592E-05-9.75829E-10 6.09188E-19-2.76505E-19
 -1      1479 9.52388E-05-2.85657E-05-2.85751E-05-2.02447E-08 1.27880E-18 3.90689E-19
 -1      1480 9.51906E-05-2.85552E-05-2.85578E-05 6.49253E-09 9.14339E-19 3.57669E-19
 -1      1481 9.51988E-05-2.85585E-05-2.85599E-05 7.69093E-09-6.75718E-20 6.45931E-19
 -1      1482 9.52202E-05-2.85623E-05-2.85683E-05 2.98272E-09 8.92380E-19 6.68301E-19
 -1      1483 9.52006E-05-2.85593E-05-2.85604E-05 1.13867E-08 3.78950E-19 4.89594E-19
 -1      1484 9.52126E-05-2.85638E-05-2.85635E-05 1.17550E-08 5.96266E-19 1.75813E-18
 -1      1485 9.52175E-05-2.85635E-05-2.85663E-05 1.65603E-08 5.44803E-19 2.89556E-19
 -1      1486 9.52170E-05-2.85655E-05-2.85646E-05 1.13616E-08 8.18252E-20 2.27228E-18
 -1      1487 9.52284E-05-2.85701E-05-2.85674E-05 1.09680E-08-1.48775E-19 2.38464E-18
 -1      1488 9.52236E-05-2.85678E-05-2.85668E-05 2.08476E-08 7.67933E-19 1.24634E-18
 -1      1489 9.52348E-05-2.85734E-05-2.85682E-05 3.13166E-09-1.69685E-18 1.44482E-18
 -1      1490 9.52349E-05-2.85761E-05-2.85677E-05 1.24674E-08-1.37956E-18 5.98545E-19
 -1      1491 9.66648E-05-2.83952E-05-2.97894E-05 2.79976E-06 7.93670E-19 9.61374E-18
 -1      1492 1.02388E-04-2.93568E-05-3.21071E-05 4.25256E-06 6.74874E-19 1.06979E-17
 -1      1493 1.02323E-04-2.67576E-05-3.26905E-05 1.23688E-05 1.28765E-18 7.34748E-18
 -1      1494 9.25134E-05-2.75709E-05-2.79057E-05 9.52141E-07 6.23654E-19 8.06982E-18
 -1      1495 9.42469E-05-2.76633E-05-2.87532E-05 1.27691E-06 5.46257E-19 8.88938E-18
 -1      1496 9.68127E-05-2.81333E-05-2.96301E-05 4.48466E-06 1.16689E-18 6.16851E-18
 -1      1497 9.11352E-05-2.72761E-05-2.73486E-05 9.30081E-08 3.59731E-19 6.92230E-18
 -1      1498 9.15099E-05-2.72201E-05-2.75469E-05 2.67134E-07 3.97927E-19 7.57412E-18
 -1      1499 9.37571E-05-2.77821E-05-2.83206E-05 1.42732E-06 9.60218E-19 5.20649E-18
 -1      1500 9.11887E-05-2.73238E-05-2.73480E-05-3.63135E-07 3.68208E-19 6.11661E-18
 -1      1501 9.09231E-05-2.71661E-05-2.72838E-05-2.54977E-07 2.97312E-19 6.62507E-18
 -1      1502 9.26793E-05-2.76411E-05-2.78867E-05-8.83484E-09 6.57569E-19 4.39457E-18
 -1      1503 9.20647E-05-2.75943E-05-2.76164E-05-6.49167E-07 2.18313E-19 5.43554E-18
 -1      1504 9.14377E-05-2.73596E-05-2.74307E-05-5.71665E-07 2.09189E-19 5.81517E-18
 -1      1505 9.27535E-05-2.77304E-05-2.78790E-05-8.17113E-07 5.07935E-19 4.03378E-18
 -1      1506 9.34923E-05-2.80238E-05-2.80505E-05-8.61025E-07 8.94017E-20 5.20295E-18
 -1      1507 9.26185E-05-2.77275E-05-2.77901E-05-7.97044E-07 1.13736E-19 5.33567E-18
 -1      1508 9.35546E-05-2.79971E-05-2.81102E-05-1.35028E-06 2.11024E-19 3.79273E-18
 -1      1509 9.53502E-05-2.85800E-05-2.86122E-05-1.04424E-06 9.33407E-20 4.79564E-18
 -1      1510 9.42743E-05-2.82281E-05-2.82920E-05-9.84410E-07 5.66172E-20 4.93520E-18
 -1      1511 9.48682E-05-2.84003E-05-2.85020E-05-1.76147E-06 1.97132E-19 3.38045E-18
 -1      1512 9.75900E-05-2.92500E-05-2.92878E-05-1.22090E-06 1.71472E-19 4.44692E-18
 -1      1513 9.63243E-05-2.88424E-05-2.89113E-05-1.15994E-06 1.61441E-19 4.66991E-18
 -1      1514 9.65897E-05-2.89176E-05-2.90194E-05-2.12483E-06 2.65065E-19 2.95849E-18
 -1      1515 1.00193E-04-3.00303E-05-3.00709E-05-1.39666E-06 2.36962E-19 3.78041E-18
 -1      1516 9.87381E-05-2.95649E-05-2.96390E-05-1.33286E-06 1.34323E-19 3.99021E-18
 -1      1517 9.86684E-05-2.95396E-05-2.96451E-05-2.47247E-06 4.06123E-19 2.32670E-18
 -1      1518 1.03135E-04-3.09170E-05-3.09526E-05-1.55982E-06 2.62141E-19 3.57903E-18
 -1      1519 1.01498E-04-3.03948E-05-3.04684E-05-1.49593E-06 3.31830E-19 3.77887E-18
 -1      1520 1.01072E-04-3.02629E-05-3.03659E-05-2.80306E-06 4.02274E-19 2.11629E-18
 -1      1521 1.06345E-04-3.18938E-05-3.19082E-05-1.67601E-06 4.32809E-19 3.07288E-18
 -1      1522 1.04564E-04-3.13265E-05-3.13848E-05-1.62135E-06 2.88416E-19 3.46492E-18
 -1      1523 1.03752E-04-3.10816E-05-3.11627E-05-3.07770E-06 3.04797E-19 2.45911E-18
 -1      1524 1.09656E-04-3.29171E-05-3.28824E-05-1.68076E-06-3.21016E-20 2.62578E-18
 -1      1525 1.07828E-04-3.23371E-05-3.23515E-05-1.65417E-06 4.33178E-20 2.73496E-18
 -1      1526 1.06613E-04-3.19785E-05-3.19991E-05-3.20922E-06 3.64918E-19 2.03405E-18
 -1      1527 1.12743E-04-3.38960E-05-3.37722E-05-1.47510E-06-9.23316E-20 3.01966E-18
 -1      1528 1.11063E-04-3.33692E-05-3.32944E-05-1.50739E-06-4.96093E-20 2.74436E-18
 -1      1529 1.09466E-04-3.29113E-05-3.28093E-05-3.05164E-06 6.10856E-20 1.67565E-18
 -1      1530 1.15075E-04-3.46724E-05-3.44156E-05-9.35936E-07-1.56989E-19 2.67807E-18
 -1      1531 1.13865E-04-3.43095E-05-3.40871E-05-1.06812E-06-6.89141E-20 2.91165E-18
 -1      1532 1.11989E-04-3.37952E-05-3.34890E-05-2.40426E-06-2.73830E-20 1.79593E-18
 -1      1533 1.15920E-04-3.50129E-05-3.46027E-05 3.77114E-08-6.45201E-21 3.09755E-18
 -1      1534 1.15624E-04-3.49682E-05-3.45483E-05-2.32547E-07-8.68804E-20 2.95802E-18
 -1      1535 1.13705E-04-3.44823E-05-3.38971E-05-1.05890E-06-1.98417E-19 2.32632E-18
 -1      1536 1.14495E-04-3.46406E-05-3.41305E-05 1.42336E-06 4.80691E-20 2.74976E-18
 -1      1537 1.15580E-04-3.50784E-05-3.44694E-05 1.01147E-06-4.74338E-20 2.87385E-18
 -1      1538 1.14022E-04-3.47506E-05-3.38824E-05 1.07275E-06 1.38146E-19 2.10054E-18
 -1      1539 1.10340E-04-3.33487E-05-3.29164E-05 2.92931E-06 4.15112E-19 2.00138E-18
 -1      1540 1.13054E-04-3.43546E-05-3.36919E-05 2.45543E-06 2.88990E-19 2.56286E-18
 -1      1541 1.12397E-04-3.43323E-05-3.33460E-05 3.73963E-06 4.05993E-19 2.09262E-18
 -1      1542 1.03888E-04-3.12155E-05-3.11352E-05 3.92903E-06-7.81388E-20 1.53138E-18
 -1      1543 1.07912E-04-3.26617E-05-3.22312E-05 3.57810E-06 5.04713E-19 1.93018E-18
 -1      1544 1.08683E-04-3.30417E-05-3.23291E-05 6.13652E-06 5.59240E-19 2.16544E-18
 -1      1545 9.68600E-05-2.87992E-05-2.92746E-05 3.68463E-06 1.39350E-19 1.74838E-18
 -1      1546 1.01096E-04-3.02618E-05-3.03858E-05 3.68086E-06-3.63837E-19 1.58194E-18
 -1      1547 1.03562E-04-3.10171E-05-3.10733E-05 7.01047E-06-9.04009E-20 1.77506E-18
 -1      1548 9.19234E-05-2.70669E-05-2.80000E-05 1.89900E-06 5.24896E-20 1.98248E-18
 -1      1549 9.47575E-05-2.79404E-05-2.87228E-05 2.33777E-06 1.49581E-19 2.33765E-18
 -1      1550 9.87014E-05-2.89101E-05-2.99839E-05 5.33439E-06 7.91579E-20 2.55040E-18
 -1      1551 9.13307E-05-2.68745E-05-2.78345E-05-8.02592E-07 2.20824E-19 2.66510E-18
 -1      1552 9.14816E-05-2.67251E-05-2.78683E-05-8.97690E-08-1.78128E-19 2.33266E-18
 -1      1553 9.61774E-05-2.77206E-05-2.94690E-05 1.30399E-06-3.97841E-19 2.79967E-18
 -1      1554 9.54026E-05-2.83334E-05-2.88544E-05-3.13000E-06 6.57529E-19 1.24170E-18
 -1      1555 9.27826E-05-2.72253E-05-2.81815E-05-2.49072E-06 7.36217E-19 2.21981E-18
 -1      1556 9.72324E-05-2.81374E-05-2.97343E-05-3.35985E-06 7.81481E-19 2.27111E-18
 -1      1557 1.02282E-04-3.07164E-05-3.06436E-05-4.06949E-06-7.22865E-20 5.18914E-19
 -1      1558 9.80622E-05-2.91674E-05-2.95403E-05-3.76893E-06 1.27518E-19 6.94461E-19
 -1      1559 1.01366E-04-2.99464E-05-3.06759E-05-6.48591E-06 6.52288E-19 7.55712E-19
 -1      1560 1.09242E-04-3.30227E-05-3.25455E-05-3.53703E-06-3.92950E-19 1.10644E-18
 -1      1561 1.05050E-04-3.16316E-05-3.14132E-05-3.60046E-06-4.49794E-19 2.35899E-19
 -1      1562 1.06717E-04-3.22036E-05-3.19439E-05-6.98924E-06-2.83352E-19 1.58554E-20
 -1      1563 1.14236E-04-3.45787E-05-3.40003E-05-2.16609E-06 5.17815E-20 1.33021E-18
 -1      1564 1.11259E-04-3.37015E-05-3.31601E-05-2.44278E-06 3.50592E-20 1.72811E-18
 -1      1565 1.11319E-04-3.39794E-05-3.31204E-05-5.32142E-06-5.37495E-19 2.31346E-19
 -1      1566 1.16534E-04-3.52127E-05-3.47449E-05-6.88106E-07-1.37378E-19 1.76257E-18
 -1      1567 1.15168E-04-3.49036E-05-3.43308E-05-1.00629E-06 7.53793E-20 1.86392E-18
 -1      1568 1.14041E-04-3.48638E-05-3.38983E-05-2.72145E-06 5.43689E-20 1.38242E-18
 -1      1569 1.16434E-04-3.50881E-05-3.48020E-05 4.56011E-07 4.22133E-19 6.80528E-19
 -1      1570 1.16473E-04-3.52180E-05-3.47825E-05 2.00155E-07 2.35085E-19 1.20347E-18
 -1      1571 1.14717E-04-3.49268E-05-3.41655E-05-2.78518E-07 5.20833E-19 2.14775E-18
 -1      1572 1.14692E-04-3.44799E-05-3.43552E-05 1.14508E-06 5.26438E-19-8.54008E-19
 -1      1573 1.15672E-04-3.48709E-05-3.46142E-05 9.82354E-07 3.74342E-19 3.72297E-19
 -1      1574 1.13770E-04-3.44410E-05-3.39766E-05 1.46399E-06 7.19376E-19 1.58547E-18
 -1      1575 1.12082E-04-3.36374E-05-3.36221E-05 1.44438E-06-2.90072E-19-1.36178E-18
 -1      1576 1.13543E-04-3.41400E-05-3.40321E-05 1.36383E-06-1.41911E-20-1.21461E-18
 -1      1577 1.11804E-04-3.36768E-05-3.34706E-05 2.42997E-06 5.62724E-19 6.20538E-19
 -1      1578 1.09195E-04-3.27377E-05-3.27824E-05 1.47794E-06-4.60835E-19-7.68735E-19
 -1      1579 1.10795E-04-3.32521E-05-3.32426E-05 1.45497E-06-2.10075E-19-1.47441E-18
 -1      1580 1.09368E-04-3.28267E-05-3.27968E-05 2.77878E-06-1.94680E-19-5.56362E-20
 -1      1581 1.06409E-04-3.18866E-05-3.19566E-05 1.35988E-06-2.22726E-19 1.55245E-19
 -1      1582 1.07935E-04-3.23577E-05-3.24022E-05 1.37128E-06-2.94863E-19-5.33326E-19
 -1      1583 1.06852E-04-3.20049E-05-3.20752E-05 2.72521E-06-4.84551E-19 1.54739E-19
 -1      1584 1.03924E-04-3.11370E-05-3.12119E-05 1.17246E-06 3.29131E-19 1.03808E-19
 -1      1585 1.05269E-04-3.15408E-05-3.16085E-05 1.20116E-06 3.44215E-20-2.13565E-19
 -1      1586 1.04500E-04-3.12691E-05-3.13849E-05 2.45202E-06-2.01637E-19-2.09134E-19
 -1      1587 1.01819E-04-3.05078E-05-3.05771E-05 9.66844E-07-5.73294E-20-3.17935E-20
 -1      1588 1.02946E-04-3.08386E-05-3.09111E-05 1.00197E-06 2.42015E-19 1.07811E-19
 -1      1589 1.02434E-04-3.06418E-05-3.07695E-05 2.08657E-06 3.75514E-19-1.69065E-18
 -1      1590 1.00103E-04-2.99978E-05-3.00573E-05 7.71140E-07-4.55067E-19-1.94890E-19
 -1      1591 1.01012E-04-3.02599E-05-3.03278E-05 8.06435E-07-2.95979E-19-2.33993E-20
 -1      1592 1.00697E-04-3.01255E-05-3.02469E-05 1.70644E-06-2.19760E-19-1.19428E-18
 -1      1593 9.87453E-05-2.95959E-05-2.96446E-05 5.98536E-07 3.95788E-19-1.28589E-18
 -1      1594 9.94565E-05-2.97981E-05-2.98571E-05 6.30811E-07 3.47106E-19-2.69740E-19
 -1      1595 9.92838E-05-2.97120E-05-2.98188E-05 1.35330E-06 4.97865E-19-1.32333E-18
 -1      1596 9.76972E-05-2.92869E-05-2.93255E-05 4.53434E-07 7.79325E-19-2.75853E-18
 -1      1597 9.82399E-05-2.94390E-05-2.94881E-05 4.81350E-07 4.39504E-19-1.71753E-18
 -1      1598 9.81655E-05-2.93887E-05-2.94781E-05 1.04583E-06 8.71418E-19-1.77678E-18
 -1      1599 9.69069E-05-2.90546E-05-2.90844E-05 3.35494E-07-3.99919E-19-2.30929E-18
 -1      1600 9.73113E-05-2.91664E-05-2.92059E-05 3.58755E-07-1.26451E-19-2.39814E-18
 -1      1601 9.73011E-05-2.91412E-05-2.92136E-05 7.89315E-07 8.55694E-20-1.71850E-18
 -1      1602 9.63249E-05-2.88841E-05-2.89066E-05 2.42081E-07-1.03455E-20-2.11715E-18
 -1      1603 9.66189E-05-2.89641E-05-2.89952E-05 2.60941E-07-6.39824E-22-1.72983E-18
 -1      1604 9.66480E-05-2.89558E-05-2.90129E-05 5.81827E-07-4.67393E-19-1.62924E-18
 -1      1605 9.59072E-05-2.87621E-05-2.87788E-05 1.69672E-07 6.84633E-20-7.19761E-19
 -1      1606 9.61151E-05-2.88177E-05-2.88416E-05 1.84636E-07-4.91263E-19-1.48570E-18
 -1      1607 9.61656E-05-2.88200E-05-2.88641E-05 4.18045E-07-5.08853E-19-8.60643E-19
 -1      1608 9.56165E-05-2.86775E-05-2.86897E-05 1.14614E-07-9.97673E-19 9.47699E-19
 -1      1609 9.57585E-05-2.87146E-05-2.87327E-05 1.26275E-07-3.97467E-19-2.48648E-19
 -1      1610 9.58182E-05-2.87231E-05-2.87565E-05 2.91418E-07-8.33545E-19 1.11064E-18
 -1      1611 9.54219E-05-2.86212E-05-2.86298E-05 7.35098E-08 5.29163E-19 1.22097E-18
 -1      1612 9.55146E-05-2.86446E-05-2.86581E-05 8.24552E-08 1.19827E-19 1.33961E-18
 -1      1613 9.55755E-05-2.86561E-05-2.86810E-05 1.95349E-07-2.34341E-19 5.57609E-19
 -1      1614 9.52991E-05-2.85859E-05-2.85919E-05 4.33906E-08 5.62337E-19-1.18591E-18
 -1      1615 9.53554E-05-2.85994E-05-2.86092E-05 5.01580E-08 5.69689E-19 2.46497E-19
 -1      1616 9.54124E-05-2.86117E-05-2.86299E-05 1.23787E-07 1.00248E-18 8.79322E-20
 -1      1617 9.52286E-05-2.85660E-05-2.85700E-05 2.17716E-08 1.76439E-18-3.98132E-18
 -1      1618 9.52586E-05-2.85723E-05-2.85793E-05 2.68269E-08 1.23760E-18-2.16972E-18
 -1      1619 9.53086E-05-2.85841E-05-2.85971E-05 7.14947E-08 2.08875E-18-1.24707E-18
 -1      1620 9.51955E-05-2.85569E-05-2.85595E-05 6.66216E-09 1.03532E-18-6.50894E-18
 -1      1621 9.52069E-05-2.85583E-05-2.85632E-05 1.03889E-08 9.87631E-19-5.45878E-18
 -1      1622 9.52484E-05-2.85686E-05-2.85777E-05 3.41357E-08 2.13456E-18-2.99660E-18
 -1      1623 9.51880E-05-2.85553E-05-2.85568E-05-3.42192E-09 1.45828E-18-7.06124E-18
 -1      1624 9.51869E-05-2.85534E-05-2.85568E-05-7.36896E-10 9.91346E-19-5.89276E-18
 -1      1625 9.52190E-05-2.85618E-05-2.85679E-05 8.30687E-09 1.26940E-18-3.91878E-18
 -1      1626 9.51969E-05-2.85587E-05-2.85591E-05-9.38615E-09-8.65694E-19-7.60400E-18
 -1      1627 9.51880E-05-2.85548E-05-2.85568E-05-7.58379E-09 1.86021E-19-7.97380E-18
 -1      1628 9.52105E-05-2.85609E-05-2.85646E-05-8.38945E-09 9.97935E-19-4.11535E-18
 -1      1629 9.52138E-05-2.85645E-05-2.85637E-05-1.14186E-08 2.40367E-19-7.48636E-18
 -1      1630 9.52016E-05-2.85599E-05-2.85604E-05-1.05290E-08-1.81971E-19-7.15361E-18
 -1      1631 9.52149E-05-2.85637E-05-2.85650E-05-1.71391E-08-2.76222E-19-5.83209E-18
 -1      1632 9.52303E-05-2.85707E-05-2.85678E-05-8.59474E-09 5.12872E-20-7.17673E-18
 -1      1633 9.52198E-05-2.85670E-05-2.85651E-05-8.97984E-09 7.79721E-21-6.80051E-18
 -1      1634 9.52253E-05-2.85692E-05-2.85668E-05-1.77840E-08 8.96087E-20-5.05600E-18
 -1      1635 9.52350E-05-2.85737E-05-2.85682E-05-3.24652E-09-3.78752E-18-4.04039E-18
 -1      1636 9.52429E-05-2.85911E-05-2.85650E-05-1.08751E-08-3.57958E-18 2.75124E-18
 -1      1637 9.52390E-05-2.85810E-05-2.85674E-05-1.00425E-08-6.19146E-18 1.67864E-18
 -1      1638 9.52486E-05-2.86057E-05-2.85614E-05-9.61139E-09-5.88285E-19 1.73942E-18
 -1      1639 9.52450E-05-2.85957E-05-2.85640E-05-1.02868E-08-3.46249E-18 2.62388E-18
 -1      1640 9.52417E-05-2.85860E-05-2.85668E-05-1.92288E-08-2.00275E-18 3.61977E-18
 -1      1641 9.52516E-05-2.86150E-05-2.85588E-05-5.48709E-09 1.01664E-18 1.99763E-19
 -1      1642 9.52495E-05-2.86085E-05-2.85605E-05-6.50246E-09 1.04398E-18 2.04615E-18
 -1      1643 9.52456E-05-2.85931E-05-2.85656E-05-1.45701E-08-2.33683E-19 3.67075E-18
 -1      1644 9.52522E-05-2.86178E-05-2.85578E-05-1.26451E-09 2.41771E-18 1.22531E-18
 -1      1645 9.52515E-05-2.86153E-05-2.85585E-05-2.09332E-09 1.40099E-18 1.69900E-18
 -1      1646 9.52466E-05-2.85955E-05-2.85650E-05-6.63980E-09 1.04991E-18 1.74598E-18
 -1      1647 9.52510E-05-2.86157E-05-2.85581E-05 1.51324E-09 2.11789E-18 8.97064E-19
 -1      1648 9.52513E-05-2.86162E-05-2.85580E-05 1.08768E-09 1.99201E-18-1.02556E-18
 -1      1649 9.52454E-05-2.85935E-05-2.85653E-05 2.60191E-10 8.54950E-19-2.96627E-19
 -1      1650 9.52492E-05-2.86115E-05-2.85591E-05 2.40387E-09 2.39985E-18 6.18742E-19
 -1      1651 9.52499E-05-2.86132E-05-2.85586E-05 2.38763E-09 1.54670E-18 9.97896E-19
 -1      1652 9.52431E-05-2.85886E-05-2.85662E-05 4.02962E-09 3.20804E-19 9.27245E-19
 -1      1653 9.52478E-05-2.86080E-05-2.85599E-05 1.58635E-09 2.80117E-19-1.19125E-18
 -1      1654 9.52483E-05-2.86093E-05-2.85596E-05 1.87753E-09 2.56867E-18-3.92606E-19
 -1      1655 9.52407E-05-2.85835E-05-2.85673E-05 4.26952E-09-4.38910E-20-1.94136E-19
 -1      1656 9.52475E-05-2.86071E-05-2.85602E-05-1.60022E-10-6.70601E-19 3.96150E-19
 -1      1657 9.52475E-05-2.86071E-05-2.85601E-05 2.43003E-10 3.48054E-19-5.95959E-19
 -1      1658 9.52392E-05-2.85802E-05-2.85680E-05 1.80687E-09 9.20235E-19-1.88919E-18
 -1      1659 9.52483E-05-2.86092E-05-2.85596E-05-1.79711E-09-3.71491E-19-3.33212E-19
 -1      1660 9.52478E-05-2.86079E-05-2.85600E-05-1.50519E-09-5.43673E-19 8.83452E-19
 -1      1661 9.52392E-05-2.85801E-05-2.85680E-05-1.65220E-09 2.51758E-20 6.29080E-19
 -1      1662 9.52498E-05-2.86129E-05-2.85587E-05-2.31483E-09-3.46898E-18-1.79375E-18
 -1      1663 9.52491E-05-2.86113E-05-2.85591E-05-2.33103E-09-7.40959E-19-1.97760E-18
 -1      1664 9.52406E-05-2.85833E-05-2.85673E-05-4.12336E-09-1.39477E-18-1.63918E-18
 -1      1665 9.52512E-05-2.86158E-05-2.85581E-05-1.05758E-09-5.73681E-18-1.64335E-20
 -1      1666 9.52509E-05-2.86153E-05-2.85582E-05-1.47150E-09-4.03416E-18-1.03901E-18
 -1      1667 9.52430E-05-2.85884E-05-2.85663E-05-3.92699E-09-2.38876E-18-3.16405E-18
 -1      1668 9.52514E-05-2.86149E-05-2.85586E-05 2.13015E-09-4.85649E-18 1.47510E-19
 -1      1669 9.52520E-05-2.86174E-05-2.85579E-05 1.30392E-09-5.60056E-18 1.20635E-18
 -1      1670 9.52453E-05-2.85932E-05-2.85653E-05-1.98991E-10-1.82953E-18 2.39689E-19
 -1      1671 9.52493E-05-2.86081E-05-2.85607E-05 6.58973E-09-3.04424E-18 1.06102E-18
 -1      1672 9.52515E-05-2.86146E-05-2.85589E-05 5.52961E-09-4.88177E-18 2.36472E-18
 -1      1673 9.52465E-05-2.85953E-05-2.85651E-05 6.69163E-09-1.52062E-18 1.68537E-18
 -1      1674 9.52453E-05-2.85958E-05-2.85641E-05 1.00150E-08-2.69501E-18 5.50886E-19
 -1      1675 9.52484E-05-2.86053E-05-2.85615E-05 9.26673E-09-2.90978E-18 2.71035E-19
 -1      1676 9.52452E-05-2.85925E-05-2.85657E-05 1.45796E-08-2.29659E-18 8.57149E-19
 -1      1677 9.52390E-05-2.85809E-05-2.85676E-05 1.23143E-08-2.53009E-18-4.52679E-19
 -1      1678 9.52426E-05-2.85903E-05-2.85655E-05 1.36555E-08-2.26928E-18 2.90619E-19
 -1      1679 9.52422E-05-2.85841E-05-2.85673E-05 2.01450E-08-1.90186E-18 9.09059E-19
 -1      1680 9.52336E-05-2.85743E-05-2.85679E-05 2.16238E-08-5.35621E-19 1.67922E-19
 -1      1681 1.91869E-05-6.05141E-05 1.26621E-05-3.80906E-06 4.12251E-18 2.65121E-18
 -1      1682 2.20161E-05-7.00400E-05 1.49306E-05 2.95270E-06 1.37071E-18 2.66222E-18
 -1      1683 1.96584E-05-3.78638E-05 3.69543E-06 3.13706E-06 6.90078E-18 4.30970E-18
 -1      1684 2.38910E-05-5.90509E-05 9.37128E-06 6.45847E-08 5.12794E-18 2.31686E-18
 -1      1685 3.46774E-05-1.24185E-05-1.15278E-05 2.74137E-05 9.35802E-18 9.24113E-18
 -1      1686 2.91678E-05-3.26117E-05-3.05729E-06 1.03701E-05 7.34716E-18 6.04400E-18
 -1      1687 7.18616E-05-1.29568E-06-2.96298E-05 5.76523E-05 1.05574E-17 1.17018E-17
 -1      1688 4.91381E-05-7.77612E-06-2.01369E-05 3.54829E-05 9.65787E-18 9.93654E-18
 -1      1689 1.32286E-04-1.36067E-05-4.76757E-05 7.66455E-05 7.47549E-18 8.76425E-18
 -1      1690 9.38823E-05-3.29600E-06-3.85897E-05 6.29613E-05 9.96280E-18 1.00085E-17
 -1      1691 1.99590E-04-4.00853E-05-6.32556E-05 6.81995E-05 4.10218E-18 3.89974E-18
 -1      1692 1.55919E-04-1.90219E-05-5.57163E-05 7.52857E-05 6.48319E-18 7.57756E-18
 -1      1693 2.40233E-04-5.82416E-05-7.22393E-05 2.47964E-05 1.78682E-18-7.85200E-19
 -1      1694 2.13430E-04-4.37462E-05-6.81275E-05 5.19146E-05 3.32058E-18 2.26920E-18
 -1      1695 2.48413E-04-6.09942E-05-7.41695E-05-2.28040E-05 2.75307E-18-5.47734E-18
 -1      1696 2.51099E-04-6.27209E-05-7.46264E-05 1.24206E-05 1.45647E-18-2.97330E-18
 -1      1697 2.04527E-04-3.94612E-05-6.63618E-05-6.09370E-05 5.04027E-18-9.46813E-18
 -1      1698 2.38520E-04-5.74852E-05-7.14231E-05-3.64681E-05 3.37585E-18-6.39171E-18
 -1      1699 1.41621E-04-1.74407E-05-5.14009E-05-6.68667E-05 8.26831E-18-1.11410E-17
 -1      1700 1.84512E-04-3.54268E-05-5.95649E-05-6.57828E-05 5.99212E-18-9.62907E-18
 -1      1701 7.95197E-05-3.61070E-06-3.32169E-05-5.47921E-05 1.21625E-17-1.26089E-17
 -1      1702 1.16219E-04-1.05419E-05-4.30648E-05-7.21368E-05 1.01610E-17-1.27665E-17
 -1      1703 4.07693E-05-1.32504E-05-1.48299E-05-2.72743E-05 1.24268E-17-1.00729E-17
 -1      1704 5.75854E-05-2.01087E-06-2.40628E-05-4.86820E-05 1.26123E-17-1.26513E-17
 -1      1705 2.84363E-05-4.26791E-05 1.32022E-06-7.16949E-06 8.20351E-18-6.02198E-18
 -1      1706 3.05786E-05-2.07345E-05-6.74672E-06-2.10050E-05 1.09911E-17-8.37885E-18
 -1      1707 2.38174E-05-6.80909E-05 1.24613E-05 2.26029E-06 3.04127E-18-3.47665E-18
 -1      1708 1.83023E-05-4.83852E-05 7.88400E-06 2.96590E-06 7.56062E-18-5.15277E-18
 -1      1709 2.33386E-05-7.66534E-05 1.62212E-05-3.19026E-06-4.36476E-18-2.83078E-18
 -1      1710 2.17625E-05-7.21327E-05 1.51986E-05 6.34751E-06 7.80541E-19-3.33413E-18
 -1      1711 1.95379E-05-5.99238E-05 1.18852E-05-4.34179E-06-9.05182E-18-4.03590E-18
 -1      1712 2.35344E-05-7.28708E-05 1.48452E-05 1.25030E-06-5.93283E-18-2.60441E-18
 -1      1713 2.01053E-05-3.31292E-05 1.58419E-06 5.16326E-06-1.17509E-17-5.62366E-18
 -1      1714 2.39020E-05-5.59243E-05 7.82135E-06-6.64325E-07-1.07853E-17-4.15332E-18
 -1      1715 3.80136E-05-7.37468E-06-1.46727E-05 3.27436E-05-1.15137E-17-9.34023E-18
 -1      1716 2.97668E-05-2.67563E-05-5.71321E-06 1.30014E-05-1.16459E-17-7.02317E-18
 -1      1717 8.53951E-05-2.17420E-06-3.44162E-05 6.48582E-05-1.00204E-17-1.07810E-17
 -1      1718 5.56021E-05-4.36067E-06-2.40282E-05 4.14710E-05-1.10318E-17-1.00585E-17
 -1      1719 1.56281E-04-2.38762E-05-5.32254E-05 7.39079E-05-6.25110E-18-1.02017E-17
 -1      1720 1.12263E-04-8.11093E-06-4.38389E-05 6.59991E-05-8.68590E-18-1.05972E-17
 -1      1721 2.17255E-04-4.85740E-05-6.71126E-05 4.99947E-05-3.66903E-18-7.64363E-18
 -1      1722 1.77747E-04-2.88448E-05-6.05847E-05 6.49172E-05-5.57390E-18-9.51133E-18
 -1      1723 2.51098E-04-6.32866E-05-7.41485E-05 1.00173E-05-3.06880E-18-2.23850E-18
 -1      1724 2.34471E-04-5.38238E-05-7.18894E-05 4.22749E-05-3.64986E-18-6.08466E-18
 -1      1725 2.34896E-04-5.42195E-05-7.21155E-05-3.74793E-05-3.22825E-18 3.02137E-18
 -1      1726 2.49673E-04-6.23497E-05-7.40785E-05-4.82520E-06-2.84836E-18-5.71112E-19
 -1      1727 1.82059E-04-3.06161E-05-6.14776E-05-6.41379E-05-5.40534E-18 7.08289E-18
 -1      1728 2.20296E-04-5.00281E-05-6.77770E-05-4.73712E-05-3.25907E-18 4.33511E-18
 -1      1729 1.14025E-04-5.94321E-06-4.51506E-05-7.02758E-05-8.06375E-18 1.01271E-17
 -1      1730 1.60315E-04-2.38142E-05-5.45468E-05-7.70570E-05-5.96269E-18 9.28856E-18
 -1      1731 5.79646E-05-3.66723E-06-2.50755E-05-4.32372E-05-1.04329E-17 8.65159E-18
 -1      1732 8.88577E-05-2.35131E-06-3.55402E-05-6.66412E-05-8.88114E-18 9.79170E-18
 -1      1733 2.97340E-05-2.60927E-05-5.96959E-06-1.31161E-05-7.39968E-18 6.53401E-18
 -1      1734 3.88511E-05-6.27413E-06-1.54140E-05-3.41164E-05-9.88149E-18 8.68039E-18
 -1      1735 2.37811E-05-5.88077E-05 8.88207E-06 1.61189E-06-2.12351E-18 3.05249E-18
 -1      1736 1.91424E-05-3.34762E-05 2.00899E-06-4.02885E-06-6.24856E-18 5.78269E-18
 -1      1737 2.27043E-05-7.27892E-05 1.53932E-05-2.96285E-06 6.79638E-19 7.85200E-19
 -1      1738 1.94422E-05-6.25998E-05 1.29376E-05 5.13627E-06-1.06218E-18 1.06684E-18
 -1      1739 1.10260E-04-2.99114E-05-3.37067E-05 4.58158E-05 5.78524E-18 4.79082E-18
 -1      1740 7.07890E-05-3.45463E-05-1.69250E-05 3.87539E-05 4.33766E-18 7.56570E-18
 -1      1741 9.52363E-05-2.85764E-05-2.85679E-05-9.21183E-09-5.09731E-18-1.49044E-18
 -1      1742 9.52348E-05-2.85764E-05-2.85676E-05-1.74891E-08-2.16597E-18-2.37097E-19
 -1      1743 1.87681E-05-4.42667E-05 7.16144E-06 1.55973E-05 2.08878E-18 3.40571E-18
 -1      1744 3.97308E-05-4.12171E-05-2.38997E-06 2.81356E-05 3.67782E-18 5.49521E-18
 -1      1745 1.10028E-05-4.49658E-05 1.06828E-05 6.03691E-07 6.04834E-19 2.58218E-18
 -1      1746 1.53755E-04-3.05701E-05-4.99080E-05 4.48049E-05 6.02156E-18 2.63766E-18
 -1      1747 1.86355E-04-3.12041E-05-6.22735E-05 2.76857E-05 4.86028E-18 5.93770E-19
 -1      1748 2.03136E-04-3.12798E-05-6.89501E-05 5.92739E-06 3.92176E-18-1.67670E-18
 -1      1749 2.05176E-04-3.29254E-05-6.86646E-05-1.25493E-05 4.19578E-18-4.67160E-18
 -1      1750 1.79917E-04-3.25129E-05-5.95558E-05-2.65582E-05 5.09279E-18-4.22288E-18
 -1      1751 1.44680E-04-3.31107E-05-4.55196E-05-3.96969E-05 6.62973E-18-6.07746E-18
 -1      1752 9.94222E-05-3.15445E-05-2.88568E-05-4.43665E-05 7.27093E-18-7.56485E-18
 -1      1753 6.20739E-05-3.80478E-05-1.22979E-05-3.64662E-05 5.03138E-18-6.94863E-18
 -1      1754 3.33632E-05-4.34165E-05 1.32976E-06-2.58345E-05 3.24414E-18-6.29954E-18
 -1      1755 1.57524E-05-5.04924E-05 1.03014E-05-9.31926E-06 4.36645E-19-5.97836E-18
 -1      1756 1.21811E-05-4.96665E-05 1.15796E-05 4.11536E-06-2.87599E-18-5.16012E-18
 -1      1757 2.16204E-05-4.60349E-05 6.47775E-06 1.67306E-05-5.14361E-18-4.42702E-18
 -1      1758 4.30677E-05-3.96531E-05-4.37886E-06 2.91080E-05-6.74238E-18-4.79770E-18
 -1      1759 7.75023E-05-3.23560E-05-2.02564E-05 4.10264E-05-6.76441E-18-6.48065E-18
 -1      1760 1.23559E-04-3.06758E-05-3.82441E-05 4.53221E-05-6.18758E-18-6.36376E-18
 -1      1761 1.65829E-04-3.20826E-05-5.41033E-05 3.34217E-05-5.09914E-18-5.93347E-18
 -1      1762 1.94255E-04-3.19714E-05-6.53803E-05 1.80754E-05-4.86176E-18-3.92049E-18
 -1      1763 2.08004E-04-3.25905E-05-6.99143E-05 1.40160E-06-5.31683E-18-1.68300E-18
 -1      1764 1.93972E-04-3.09539E-05-6.56853E-05-1.57398E-05-4.66419E-18 8.91502E-19
 -1      1765 1.68011E-04-3.07907E-05-5.53002E-05-3.59467E-05-4.96049E-18 2.89855E-18
 -1      1766 1.24782E-04-2.90525E-05-3.94282E-05-4.70586E-05-5.19443E-18 5.46336E-18
 -1      1767 7.88441E-05-3.16876E-05-2.10083E-05-4.12085E-05-5.07627E-18 5.11311E-18
 -1      1768 4.22655E-05-3.94131E-05-4.14363E-06-2.83551E-05-2.58006E-18 5.88773E-18
 -1      1769 1.94563E-05-4.63622E-05 7.38151E-06-1.47690E-05-4.48080E-19 3.79428E-18
 -1      1770 1.05880E-04-2.31780E-05-3.55319E-05-1.64437E-05-1.34625E-18 4.72009E-18
 -1      1771 8.94093E-05-1.05860E-05-3.39080E-05-1.25236E-05-1.54598E-18-2.10583E-18
 -1      1772 9.07876E-05-1.16877E-05-3.40376E-05-1.43493E-05-1.82744E-18-1.55724E-18
 -1      1773 9.27988E-05-1.39831E-05-3.39392E-05-1.52781E-05-1.84565E-18-8.09049E-19
 -1      1774 9.44786E-05-1.59510E-05-3.41501E-05-1.69794E-05-2.05285E-18 8.14210E-20
 -1      1775 9.37400E-05-1.64023E-05-3.31577E-05-1.29704E-05-1.94369E-18-1.04542E-18
 -1      1776 8.61249E-05-7.37208E-06-3.38238E-05-7.16347E-06-7.71071E-19-2.82122E-18
 -1      1777 8.66214E-05-7.72924E-06-3.38691E-05-8.49923E-06-9.68059E-19-2.76784E-18
 -1      1778 8.53181E-05-6.59793E-06-3.37968E-05-4.78080E-06-4.14666E-19-2.80303E-18
 -1      1779 8.56383E-05-6.82320E-06-3.38247E-05-6.00076E-06-5.60501E-19-2.82419E-18
 -1      1780 8.73752E-05-9.39678E-06-3.34487E-05-6.21546E-06-7.70512E-19-2.68429E-18
 -1      1781 8.48388E-05-6.13752E-06-3.37805E-05-2.56741E-06 7.40724E-20-2.65423E-18
 -1      1782 8.50189E-05-6.26336E-06-3.37958E-05-3.69932E-06-1.47507E-19-2.70676E-18
 -1      1783 8.65313E-05-8.52239E-06-3.34608E-05-4.01423E-06-3.17258E-19-2.61002E-18
 -1      1784 8.46404E-05-5.94054E-06-3.37748E-05-4.49235E-07 4.99985E-19-2.55096E-18
 -1      1785 8.46969E-05-5.98001E-06-3.37795E-05-1.53850E-06 2.96733E-19-2.65917E-18
 -1      1786 8.60561E-05-8.03551E-06-3.34651E-05-1.94236E-06 1.86510E-19-2.53140E-18
 -1      1787 8.47077E-05-5.98880E-06-3.37802E-05 1.65243E-06 9.06724E-19-2.40716E-18
 -1      1788 8.46444E-05-5.94499E-06-3.37749E-05 5.62283E-07 6.95211E-19-2.48051E-18
 -1      1789 8.59080E-05-7.88438E-06-3.34662E-05 6.24610E-08 6.56394E-19-2.40107E-18
 -1      1790 8.50465E-05-6.28831E-06-3.37970E-05 3.81730E-06 1.20343E-18-2.30247E-18
 -1      1791 8.48584E-05-6.15614E-06-3.37813E-05 2.68253E-06 1.07513E-18-2.43406E-18
 -1      1792 8.60756E-05-8.05504E-06-3.34652E-05 2.06828E-06 1.03681E-18-2.31474E-18
 -1      1793 8.56733E-05-6.85768E-06-3.38251E-05 6.08564E-06 1.56762E-18-1.92623E-18
 -1      1794 8.53498E-05-6.62866E-06-3.37978E-05 4.88203E-06 1.35814E-18-2.15809E-18
 -1      1795 8.65673E-05-8.55872E-06-3.34606E-05 4.12434E-06 1.38982E-18-2.11543E-18
 -1      1796 8.66897E-05-7.79814E-06-3.38682E-05 8.61579E-06 1.97897E-18-1.34562E-18
 -1      1797 8.61733E-05-7.42413E-06-3.38233E-05 7.24885E-06 1.76417E-18-1.66175E-18
 -1      1798 8.74284E-05-9.45268E-06-3.34476E-05 6.30654E-06 1.78213E-18-1.62991E-18
 -1      1799 8.82869E-05-9.30560E-06-3.39343E-05 1.14406E-05 2.27869E-18-5.56765E-19
 -1      1800 8.74677E-05-8.68961E-06-3.38588E-05 9.86642E-06 2.07228E-18-1.03853E-18
 -1      1801 8.87841E-05-1.08814E-05-3.34155E-05 8.66088E-06 2.14198E-18-1.04264E-18
 -1      1802 9.09371E-05-1.18958E-05-3.40302E-05 1.45161E-05 2.41980E-18 7.57671E-19
 -1      1803 8.95249E-05-1.07490E-05-3.39021E-05 1.27097E-05 2.32595E-18-2.88521E-20
 -1      1804 9.08819E-05-1.31346E-05-3.33379E-05 1.11001E-05 2.42201E-18-1.57350E-19
 -1      1805 9.61200E-05-1.71483E-05-3.40439E-05 1.70134E-05 2.15281E-18 3.08463E-18
 -1      1806 9.31618E-05-1.44468E-05-3.39117E-05 1.54655E-05 2.28349E-18 1.67220E-18
 -1      1807 9.42841E-05-1.69400E-05-3.31360E-05 1.30857E-05 2.38570E-18 1.19953E-18
 -1      1808 1.01999E-04-2.51521E-05-3.33612E-05 1.39067E-05 1.63403E-18 5.81605E-18
 -1      1809 9.82658E-05-1.97256E-05-3.36601E-05 1.63582E-05 1.92700E-18 4.02330E-18
 -1      1810 9.76310E-05-2.19560E-05-3.25085E-05 1.25659E-05 2.14414E-18 3.05300E-18
 -1      1811 9.89700E-05-2.62170E-05-3.13946E-05 8.93092E-06 1.61672E-18 5.29872E-18
 -1      1812 1.00255E-04-1.96652E-05-3.42210E-05-1.83059E-05-1.80189E-18 1.78682E-18
 -1      1813 9.58329E-05-2.74196E-05-2.93467E-05 3.53238E-06 1.33568E-18 4.41647E-18
 -1      1814 9.80824E-05-2.74834E-05-3.02978E-05 5.88394E-06 1.38474E-18 4.89421E-18
 -1      1815 9.79534E-05-2.57249E-05-3.09495E-05 8.12980E-06 1.68104E-18 3.63383E-18
 -1      1816 1.00012E-04-2.26263E-05-3.28863E-05-1.38452E-05-1.93984E-18 1.10771E-18
 -1      1817 9.74379E-05-2.70878E-05-3.00335E-05-5.06062E-06-1.54568E-18 8.37644E-19
 -1      1818 9.58186E-05-2.71770E-05-2.93844E-05-3.21519E-06-1.36843E-18 4.72856E-19
 -1      1819 9.51473E-05-2.73996E-05-2.89364E-05-1.65239E-06-1.23239E-18 4.70619E-19
 -1      1820 9.46083E-05-2.75291E-05-2.87040E-05-7.20697E-07-9.65035E-19 2.02047E-19
 -1      1821 9.61983E-05-2.66452E-05-2.98326E-05-3.53732E-06-1.51246E-18-1.40594E-19
 -1      1822 9.42783E-05-2.76169E-05-2.85082E-05 2.34143E-07-6.85772E-19 1.63676E-19
 -1      1823 9.42741E-05-2.77497E-05-2.84767E-05 7.86516E-07-5.88350E-19-3.15619E-20
 -1      1824 9.53253E-05-2.73571E-05-2.91535E-05-6.51498E-07-1.00716E-18-1.78224E-19
 -1      1825 9.42480E-05-2.78305E-05-2.84310E-05 1.41282E-06-6.35486E-19-6.64358E-20
 -1      1826 9.45973E-05-2.80013E-05-2.85157E-05 1.78606E-06-6.15993E-19-2.01357E-19
 -1      1827 9.50604E-05-2.77312E-05-2.88765E-05 1.15072E-06-7.14069E-19-3.01254E-19
 -1      1828 9.48100E-05-2.81060E-05-2.85688E-05 2.24016E-06-6.52909E-19-1.19023E-19
 -1      1829 9.54091E-05-2.83183E-05-2.87320E-05 2.52724E-06-4.17352E-19-3.82114E-19
 -1      1830 9.52963E-05-2.80203E-05-2.88504E-05 2.38504E-06-7.20084E-19-2.29082E-19
 -1      1831 9.58094E-05-2.84553E-05-2.88553E-05 2.89285E-06-2.89148E-19-4.72243E-19
 -1      1832 9.66030E-05-2.87102E-05-2.90780E-05 3.13902E-06-2.08059E-19-5.11406E-19
 -1      1833 9.59358E-05-2.83159E-05-2.89947E-05 3.32109E-06-4.51529E-19-4.34476E-19
 -1      1834 9.71573E-05-2.88837E-05-2.92539E-05 3.45782E-06-1.88052E-19-3.93798E-19
 -1      1835 9.81143E-05-2.91847E-05-2.95246E-05 3.68066E-06-1.80679E-19-3.11434E-19
 -1      1836 9.69052E-05-2.86573E-05-2.92615E-05 4.10031E-06-1.51665E-19-3.56474E-19
 -1      1837 9.88023E-05-2.94013E-05-2.97399E-05 3.96382E-06-2.56763E-19-2.41119E-19
 -1      1838 9.98987E-05-2.97544E-05-3.00489E-05 4.15797E-06-2.33589E-19-1.80900E-19
 -1      1839 9.81582E-05-2.90733E-05-2.96184E-05 4.78358E-06-1.56699E-19-4.51665E-19
 -1      1840 1.00707E-04-3.00246E-05-3.02912E-05 4.38756E-06-4.23655E-19-2.06562E-19
 -1      1841 1.01912E-04-3.04364E-05-3.06260E-05 4.52275E-06-4.01374E-19-4.32577E-19
 -1      1842 9.96671E-05-2.95981E-05-3.00390E-05 5.36580E-06-4.16638E-19-4.28403E-19
 -1      1843 1.02829E-04-3.07746E-05-3.08810E-05 4.64791E-06-4.22509E-19-7.18056E-19
 -1      1844 1.04088E-04-3.12475E-05-3.12221E-05 4.66445E-06-4.57844E-19-8.47400E-19
 -1      1845 1.01413E-04-3.02754E-05-3.04961E-05 5.77380E-06-5.81076E-19-4.89436E-19
 -1      1846 1.05098E-04-3.16693E-05-3.14714E-05 4.59657E-06-4.56727E-19-8.18532E-19
 -1      1847 1.06319E-04-3.21936E-05-3.17887E-05 4.40330E-06-2.77210E-19-8.36869E-19
 -1      1848 1.03373E-04-3.11554E-05-3.09580E-05 5.85741E-06-5.13194E-19-2.62226E-19
 -1      1849 1.07387E-04-3.27059E-05-3.20099E-05 4.01729E-06-1.77414E-20-9.53071E-19
 -1      1850 1.08424E-04-3.32444E-05-3.22611E-05 3.50113E-06 4.32450E-21-7.90632E-19
 -1      1851 1.05503E-04-3.22784E-05-3.13876E-05 5.38536E-06-2.80647E-19-2.12221E-19
 -1      1852 1.09483E-04-3.38240E-05-3.24307E-05 2.65606E-06-6.13801E-20-6.74152E-19
 -1      1853 1.10130E-04-3.42877E-05-3.25660E-05 1.71872E-06-6.15158E-20-5.57023E-19
 -1      1854 1.07704E-04-3.36301E-05-3.17472E-05 4.06731E-06-2.71381E-20-7.54405E-20
 -1      1855 1.11046E-04-3.48425E-05-3.26674E-05 3.20251E-07-8.44783E-20-5.47398E-19
 -1      1856 1.11060E-04-3.50660E-05-3.26420E-05-1.04265E-06 2.25291E-19-5.95020E-19
 -1      1857 1.09766E-04-3.50557E-05-3.20107E-05 1.63851E-06 1.50051E-20-4.31893E-19
 -1      1858 1.11598E-04-3.53925E-05-3.26755E-05-2.91506E-06 2.32239E-19-7.47150E-19
 -1      1859 1.10775E-04-3.51460E-05-3.24735E-05-4.49129E-06 3.19358E-20-8.01124E-19
 -1      1860 1.11298E-04-3.61514E-05-3.21816E-05-1.94529E-06 1.62250E-19-4.51657E-19
 -1      1861 1.10643E-04-3.49597E-05-3.24645E-05-6.42304E-06 2.74770E-19-9.38519E-19
 -1      1862 1.08963E-04-3.40556E-05-3.21214E-05-7.70597E-06 3.36275E-19-8.32640E-19
 -1      1863 1.11723E-04-3.62441E-05-3.23049E-05-6.18218E-06-9.66147E-22-4.43908E-19
 -1      1864 1.07971E-04-3.31423E-05-3.21090E-05-8.89476E-06 1.80468E-19-9.57379E-19
 -1      1865 1.05760E-04-3.16494E-05-3.17194E-05-9.16703E-06-1.88119E-19-7.99056E-19
 -1      1866 1.10503E-04-3.46654E-05-3.24538E-05-9.76546E-06 2.32266E-19-1.85497E-19
 -1      1867 1.04160E-04-3.01977E-05-3.17336E-05-8.69511E-06-6.32998E-19-1.04867E-18
 -1      1868 1.02152E-04-2.86492E-05-3.14207E-05-7.44835E-06-3.05733E-19-1.45445E-18
 -1      1869 1.07667E-04-3.13892E-05-3.26720E-05-1.07419E-05-4.41805E-19-7.38815E-19
 -1      1870 1.00794E-04-2.74114E-05-3.14484E-05-5.01605E-06-2.79693E-19-1.65452E-18
 -1      1871 9.98525E-05-2.66304E-05-3.13137E-05-2.49872E-06-1.74092E-19-1.89433E-18
 -1      1872 1.04408E-04-2.77266E-05-3.29117E-05-7.59787E-06-6.47782E-19-1.14190E-18
 -1      1873 9.96758E-05-2.64601E-05-3.13230E-05 9.84049E-07-2.16126E-19-2.07343E-18
 -1      1874 1.00265E-04-2.69349E-05-3.14112E-05 3.67981E-06-8.28001E-19-2.16393E-18
 -1      1875 1.02708E-04-2.58199E-05-3.30428E-05-9.23648E-07-2.16496E-19-1.69706E-18
 -1      1876 1.01413E-04-2.79623E-05-3.13957E-05 6.53358E-06-4.79103E-19-1.81299E-18
 -1      1877 1.03256E-04-2.93947E-05-3.16811E-05 8.18842E-06 1.11577E-19-1.45593E-18
 -1      1878 1.03778E-04-2.69730E-05-3.29805E-05 6.25021E-06-2.78197E-19-1.51337E-18
 -1      1879 1.04926E-04-3.08879E-05-3.16713E-05 9.20922E-06 3.96815E-20-1.60252E-18
 -1      1880 1.07212E-04-3.24773E-05-3.20662E-05 9.32553E-06 4.00059E-19-1.21920E-18
 -1      1881 1.06880E-04-3.03920E-05-3.27764E-05 1.05220E-05 4.40887E-20-1.27404E-18
 -1      1882 1.08452E-04-3.35830E-05-3.20866E-05 8.51881E-06 1.66511E-19-1.89050E-18
 -1      1883 1.10380E-04-3.46816E-05-3.24704E-05 7.45210E-06-2.41305E-19-1.92966E-18
 -1      1884 1.10060E-04-3.39545E-05-3.25657E-05 1.05881E-05 3.31087E-20-1.98553E-18
 -1      1885 1.10780E-04-3.50611E-05-3.25025E-05 5.65119E-06-1.31171E-19-2.30202E-18
 -1      1886 1.11908E-04-3.54862E-05-3.27691E-05 4.11394E-06-3.92229E-19-2.32155E-18
 -1      1887 1.11838E-04-3.60512E-05-3.24321E-05 7.54838E-06-3.37556E-19-3.17006E-18
 -1      1888 1.11572E-04-3.52775E-05-3.27701E-05 2.20341E-06-6.57800E-19-1.58016E-18
 -1      1889 1.11849E-04-3.51769E-05-3.28679E-05 7.82665E-07-6.44182E-19-1.43872E-18
 -1      1890 1.11905E-04-3.63645E-05-3.23460E-05 3.38840E-06 1.09519E-19-2.23280E-18
 -1      1891 1.11074E-04-3.46747E-05-3.28084E-05-7.17634E-07-1.09797E-18-1.36409E-18
 -1      1892 1.10676E-04-3.42842E-05-3.27429E-05-1.73787E-06-6.59415E-19-1.69468E-18
 -1      1893 1.10724E-04-3.54851E-05-3.22345E-05-3.60183E-07-4.47121E-19-6.32156E-19
 -1      1894 1.09716E-04-3.37188E-05-3.26171E-05-2.67712E-06 1.05945E-19-1.12350E-18
 -1      1895 1.08888E-04-3.32248E-05-3.24287E-05-3.25673E-06 7.82685E-19-8.48342E-19
 -1      1896 1.08900E-04-3.41296E-05-3.20445E-05-3.00704E-06-1.21179E-19-4.00038E-19
 -1      1897 1.07904E-04-3.27146E-05-3.22498E-05-3.69878E-06 3.05561E-21-1.19797E-18
 -1      1898 1.06867E-04-3.22253E-05-3.19891E-05-3.92177E-06-5.02370E-19-1.50876E-18
 -1      1899 1.06878E-04-3.27777E-05-3.17624E-05-4.48797E-06 9.86463E-20 2.05098E-19
 -1      1900 1.05940E-04-3.18082E-05-3.17791E-05-4.00571E-06-4.66325E-20-1.33955E-18
 -1      1901 1.04856E-04-3.13730E-05-3.14910E-05-3.98850E-06 3.72103E-19-1.52376E-18
 -1      1902 1.04908E-04-3.16409E-05-3.14078E-05-5.03691E-06 1.15315E-19-1.43794E-18
 -1      1903 1.04024E-04-3.10475E-05-3.12719E-05-3.85145E-06-9.78431E-20-1.41272E-18
 -1      1904 1.02997E-04-3.06823E-05-3.09887E-05-3.69671E-06-5.29715E-19-1.28086E-18
 -1      1905 1.03111E-04-3.07629E-05-3.10146E-05-4.95741E-06 1.51981E-19-1.44617E-18
 -1      1906 1.02272E-04-3.04332E-05-3.07776E-05-3.44500E-06-7.95853E-19-1.27149E-18
 -1      1907 1.01358E-04-3.01374E-05-3.05191E-05-3.22728E-06-3.04913E-19-1.44868E-18
 -1      1908 1.01533E-04-3.01137E-05-3.06167E-05-4.51415E-06-5.18252E-19-9.25625E-19
 -1      1909 1.00742E-04-2.99484E-05-3.03269E-05-2.93291E-06-6.39761E-19-1.43071E-18
 -1      1910 9.99647E-05-2.97146E-05-3.01028E-05-2.69989E-06-5.08882E-21-1.09564E-18
 -1      1911 1.00185E-04-2.96436E-05-3.02401E-05-3.90074E-06-4.07252E-19 3.19387E-20
 -1      1912 9.94536E-05-2.95718E-05-2.99354E-05-2.40668E-06 6.15017E-20-1.43136E-18
 -1      1913 9.88140E-05-2.93908E-05-2.97483E-05-2.18557E-06 3.86864E-20-1.89417E-18
 -1      1914 9.90586E-05-2.93063E-05-2.99013E-05-3.24315E-06-2.80781E-19 2.75591E-19
 -1      1915 9.83979E-05-2.92833E-05-2.96074E-05-1.91727E-06 4.00133E-19-1.90210E-18
 -1      1916 9.78864E-05-2.91457E-05-2.94561E-05-1.72144E-06 8.40832E-19-7.23268E-19
 -1      1917 9.81361E-05-2.90655E-05-2.96085E-05-2.61520E-06 1.58830E-19 6.10481E-19
 -1      1918 9.75543E-05-2.90655E-05-2.93408E-05-1.48871E-06 1.69819E-19-7.03038E-19
 -1      1919 9.71554E-05-2.89629E-05-2.92215E-05-1.32301E-06-5.25862E-19-9.29998E-19
 -1      1920 9.73948E-05-2.88945E-05-2.93633E-05-2.05464E-06 3.41087E-19 2.69901E-19
 -1      1921 9.68952E-05-2.89036E-05-2.91295E-05-1.12860E-06 3.90947E-19-2.41647E-19
 -1      1922 9.65912E-05-2.88286E-05-2.90378E-05-9.92977E-07 1.07325E-18 2.48911E-19
 -1      1923 9.68103E-05-2.87740E-05-2.91636E-05-1.57629E-06 3.64719E-19 1.39784E-18
 -1      1924 9.63914E-05-2.87855E-05-2.89660E-05-8.35199E-07 8.02868E-19-3.27492E-19
 -1      1925 9.61651E-05-2.87321E-05-2.88970E-05-7.27065E-07 7.95143E-19 3.86358E-19
 -1      1926 9.63579E-05-2.86904E-05-2.90047E-05-1.18140E-06 8.20758E-19 1.19840E-18
 -1      1927 9.60147E-05-2.87013E-05-2.88423E-05-6.02023E-07 1.08505E-18 5.87854E-19
 -1      1928 9.58505E-05-2.86644E-05-2.87917E-05-5.17707E-07 1.01960E-18 5.23138E-19
 -1      1929 9.60146E-05-2.86335E-05-2.88812E-05-8.63864E-07 1.30032E-18 9.71559E-19
 -1      1930 9.57399E-05-2.86430E-05-2.87509E-05-4.20656E-07-7.06006E-19-2.29399E-20
 -1      1931 9.56242E-05-2.86184E-05-2.87149E-05-3.56223E-07-1.31537E-18-1.11044E-19
 -1      1932 9.57596E-05-2.85961E-05-2.87872E-05-6.14164E-07-2.95937E-19 1.09576E-18
 -1      1933 9.55450E-05-2.86042E-05-2.86852E-05-2.82354E-07-1.17260E-18 4.81650E-19
 -1      1934 9.54665E-05-2.85888E-05-2.86604E-05-2.34065E-07-2.43216E-19 7.62180E-19
 -1      1935 9.55747E-05-2.85728E-05-2.87174E-05-4.21726E-07-2.88294E-19 1.75131E-18
 -1      1936 9.54115E-05-2.85798E-05-2.86394E-05-1.78935E-07 1.28834E-18 5.44709E-19
 -1      1937 9.53610E-05-2.85711E-05-2.86231E-05-1.43478E-07 1.74391E-18 1.13730E-18
 -1      1938 9.54445E-05-2.85595E-05-2.86668E-05-2.76276E-07 3.00860E-19 1.85887E-18
 -1      1939 9.53243E-05-2.85658E-05-2.86088E-05-1.03225E-07 1.09488E-18 1.68804E-18
 -1      1940 9.52944E-05-2.85619E-05-2.85987E-05-7.78205E-08 9.98215E-19 2.60233E-18
 -1      1941 9.53561E-05-2.85533E-05-2.86311E-05-1.68574E-07 1.49516E-18 1.17274E-18
 -1      1942 9.52713E-05-2.85595E-05-2.85894E-05-4.92666E-08 1.07594E-18 1.60469E-18
 -1      1943 9.52560E-05-2.85588E-05-2.85838E-05-3.17203E-08 1.21716E-18 1.73495E-18
 -1      1944 9.52989E-05-2.85520E-05-2.86068E-05-9.07672E-08 8.64433E-19 1.91132E-18
 -1      1945 9.52426E-05-2.85584E-05-2.85781E-05-1.24233E-08 5.98054E-19 1.00659E-18
 -1      1946 9.52374E-05-2.85600E-05-2.85756E-05-1.18777E-09 7.23989E-19 9.97673E-19
 -1      1947 9.52646E-05-2.85541E-05-2.85909E-05-3.65654E-08 3.89496E-19 1.74892E-18
 -1      1948 9.52307E-05-2.85611E-05-2.85721E-05 1.06883E-08 4.09564E-19 5.27372E-19
 -1      1949 9.52316E-05-2.85645E-05-2.85714E-05 1.63427E-08 5.12590E-19 1.25008E-18
 -1      1950 9.52461E-05-2.85587E-05-2.85808E-05-1.32844E-09-1.59635E-19 1.62021E-18
 -1      1951 9.52291E-05-2.85666E-05-2.85693E-05 2.13808E-08 9.16339E-19 6.19629E-19
 -1      1952 9.52331E-05-2.85712E-05-2.85693E-05 2.14884E-08 5.93774E-19 2.27920E-19
 -1      1953 9.52378E-05-2.85750E-05-2.85700E-05 2.36724E-08-5.08876E-19 5.02979E-19
 -1      1954 9.52385E-05-2.85661E-05-2.85743E-05 1.78315E-08 1.88445E-19 1.38759E-18
 -1      1955 9.41148E-05-2.75803E-05-2.84825E-05 9.63748E-07 1.13552E-18 3.67340E-18
 -1      1956 9.50937E-05-2.76314E-05-2.88516E-05 2.08712E-06 1.19023E-18 4.18167E-18
 -1      1957 9.59028E-05-2.71965E-05-2.94536E-05 3.32512E-06 1.43694E-18 3.05050E-18
 -1      1958 9.35495E-05-2.76843E-05-2.81982E-05-4.72031E-07 8.60268E-19 3.15145E-18
 -1      1959 9.37733E-05-2.76447E-05-2.82873E-05 1.61778E-07 8.20563E-19 3.41653E-18
 -1      1960 9.46824E-05-2.75897E-05-2.87642E-05 6.77882E-07 1.06103E-18 2.53856E-18
 -1      1961 9.38019E-05-2.78819E-05-2.82295E-05-1.37619E-06 3.64909E-19 3.00033E-18
 -1      1962 9.35686E-05-2.77591E-05-2.81702E-05-9.63915E-07 5.82348E-19 3.10375E-18
 -1      1963 9.43462E-05-2.78113E-05-2.85288E-05-8.98284E-07 7.85689E-19 2.18993E-18
 -1      1964 9.46338E-05-2.81859E-05-2.84599E-05-2.02590E-06 3.09324E-19 2.61855E-18
 -1      1965 9.40960E-05-2.79965E-05-2.83074E-05-1.71761E-06 3.51833E-19 2.92234E-18
 -1      1966 9.46678E-05-2.80527E-05-2.85641E-05-1.94271E-06 4.21558E-19 2.00727E-18
 -1      1967 9.59072E-05-2.85887E-05-2.88348E-05-2.56011E-06 3.02770E-19 2.22458E-18
 -1      1968 9.51411E-05-2.83431E-05-2.86137E-05-2.29703E-06 3.16069E-19 2.45206E-18
 -1      1969 9.54807E-05-2.83588E-05-2.87805E-05-2.72712E-06 4.66854E-19 1.52416E-18
 -1      1970 9.75477E-05-2.90865E-05-2.93257E-05-3.04794E-06 4.32304E-19 2.09669E-18
 -1      1971 9.65907E-05-2.87883E-05-2.90477E-05-2.80041E-06 3.12241E-19 2.13187E-18
 -1      1972 9.66829E-05-2.87418E-05-2.91305E-05-3.39082E-06 4.02635E-19 1.25401E-18
 -1      1973 9.95134E-05-2.96826E-05-2.99144E-05-3.51207E-06 5.71966E-19 1.72260E-18
 -1      1974 9.83858E-05-2.93311E-05-2.95868E-05-3.27061E-06 5.40111E-19 1.97587E-18
 -1      1975 9.82156E-05-2.92111E-05-2.95858E-05-3.99843E-06 6.35913E-19 1.28141E-18
 -1      1976 1.01769E-04-3.03848E-05-3.05834E-05-3.93065E-06 8.66951E-20 2.06329E-18
 -1      1977 1.00491E-04-2.99780E-05-3.02141E-05-3.70630E-06 3.59918E-19 1.74771E-18
 -1      1978 1.00044E-04-2.97813E-05-3.01246E-05-4.55772E-06 4.71630E-19 1.72541E-18
 -1      1979 1.04260E-04-3.12011E-05-3.13068E-05-4.22808E-06 4.21133E-19 1.84983E-18
 -1      1980 1.02867E-04-3.07399E-05-3.09093E-05-4.05791E-06 2.46463E-19 1.81198E-18
 -1      1981 1.02135E-04-3.04743E-05-3.07239E-05-5.01756E-06 3.69543E-19 1.40546E-18
 -1      1982 1.06881E-04-3.21306E-05-3.20410E-05-4.26096E-06 2.05808E-19 1.68685E-18
 -1      1983 1.05447E-04-3.16253E-05-3.16401E-05-4.21600E-06 4.63060E-19 1.91259E-18
 -1      1984 1.04443E-04-3.13157E-05-3.13517E-05-5.25563E-06 3.22015E-19 1.24239E-18
 -1      1985 1.09445E-04-3.31478E-05-3.27163E-05-3.81052E-06 4.66474E-19 1.31887E-18
 -1      1986 1.08097E-04-3.26277E-05-3.23530E-05-4.00067E-06 3.20142E-19 1.42181E-18
 -1      1987 1.06879E-04-3.23242E-05-3.19612E-05-5.06589E-06 5.67348E-19 1.27911E-18
 -1      1988 1.11649E-04-3.41712E-05-3.32350E-05-2.60523E-06-2.76943E-19 1.40361E-18
 -1      1989 1.10589E-04-3.37008E-05-3.29686E-05-3.16892E-06-3.76764E-20 1.32629E-18
 -1      1990 1.09284E-04-3.34842E-05-3.24892E-05-4.16422E-06 1.58276E-19 1.02346E-18
 -1      1991 1.13059E-04-3.50171E-05-3.34842E-05-4.17971E-07-1.86255E-19 2.04831E-18
 -1      1992 1.12554E-04-3.47129E-05-3.33848E-05-1.47302E-06-4.31060E-19 1.56277E-18
 -1      1993 1.11387E-04-3.46892E-05-3.28634E-05-2.24816E-06-3.36557E-19 1.05503E-18
 -1      1994 1.13154E-04-3.53597E-05-3.33723E-05 2.72450E-06-1.60255E-19 2.31205E-18
 -1      1995 1.13489E-04-3.53944E-05-3.34985E-05 1.18660E-06 1.77665E-19 2.24532E-18
 -1      1996 1.12775E-04-3.56640E-05-3.30236E-05 8.36442E-07-9.77132E-20 1.74136E-18
 -1      1997 1.11463E-04-3.47527E-05-3.28857E-05 6.21944E-06 7.10502E-19 1.86527E-18
 -1      1998 1.12821E-04-3.53127E-05-3.32483E-05 4.50139E-06 3.36775E-19 2.01131E-18
 -1      1999 1.12900E-04-3.59030E-05-3.29545E-05 4.80348E-06 7.30222E-19 2.33931E-18
 -1      2000 1.07940E-04-3.29089E-05-3.21412E-05 8.70018E-06 5.68321E-19 1.57442E-18
 -1      2001 1.10203E-04-3.40382E-05-3.26670E-05 7.47808E-06 6.65358E-19 1.65063E-18
 -1      2002 1.11280E-04-3.48333E-05-3.27121E-05 8.56865E-06 8.04304E-19 1.48978E-18
 -1      2003 1.03405E-04-3.01524E-05-3.13762E-05 8.46411E-06-4.42297E-19 1.30938E-18
 -1      2004 1.06000E-04-3.15706E-05-3.19087E-05 8.55997E-06-1.68037E-19 1.36940E-18
 -1      2005 1.07993E-04-3.22887E-05-3.24163E-05 1.02918E-05 2.06990E-19 1.26768E-18
 -1      2006 9.96865E-05-2.77085E-05-3.08600E-05 4.68557E-06-3.98992E-19 2.55579E-18
 -1      2007 1.01637E-04-2.87748E-05-3.12125E-05 6.44959E-06-3.60518E-19 2.01316E-18
 -1      2008 1.04165E-04-2.91144E-05-3.21880E-05 8.25486E-06-6.04199E-19 1.63243E-18
 -1      2009 9.87766E-05-2.70764E-05-3.07772E-05-1.37213E-06 3.28477E-19 2.18636E-18
 -1      2010 9.91648E-05-2.71699E-05-3.08163E-05 1.40368E-06 5.21455E-21 2.35759E-18
 -1      2011 1.01776E-04-2.70365E-05-3.20948E-05 2.45880E-06 6.40569E-21 1.39602E-18
 -1      2012 1.01301E-04-2.87229E-05-3.11543E-05-6.78380E-06 1.46553E-18 1.00813E-18
 -1      2013 9.99002E-05-2.77774E-05-3.08642E-05-4.35654E-06 1.13385E-18 1.80778E-18
 -1      2014 1.02325E-04-2.74404E-05-3.21474E-05-4.59999E-06 1.24424E-18 1.52031E-18
 -1      2015 1.05902E-04-3.15768E-05-3.18637E-05-9.11833E-06 1.13423E-20-2.02004E-19
 -1      2016 1.03367E-04-3.01510E-05-3.13501E-05-8.07220E-06 7.59484E-19 3.26214E-19
 -1      2017 1.05478E-04-3.00565E-05-3.23310E-05-9.45618E-06 1.36777E-18-6.51752E-20
 -1      2018 1.10401E-04-3.40903E-05-3.26750E-05-8.05477E-06-4.74795E-19-7.26000E-19
 -1      2019 1.07784E-04-3.28591E-05-3.21145E-05-8.47275E-06-3.82154E-19-4.92285E-19
 -1      2020 1.09397E-04-3.32311E-05-3.26176E-05-1.02968E-05-2.30287E-20-4.44196E-19
 -1      2021 1.13285E-04-3.54012E-05-3.33351E-05-4.97492E-06-6.04901E-19 7.67954E-20
 -1      2022 1.11404E-04-3.47170E-05-3.28977E-05-6.24441E-06-7.93643E-19-8.64900E-19
 -1      2023 1.12295E-04-3.54079E-05-3.29318E-05-7.79161E-06-7.70641E-19-8.33461E-19
 -1      2024 1.14182E-04-3.55341E-05-3.36709E-05-1.55219E-06-7.95483E-20 9.01647E-19
 -1      2025 1.13343E-04-3.53898E-05-3.34532E-05-2.97300E-06-4.56074E-20 1.96859E-19
 -1      2026 1.13427E-04-3.60672E-05-3.31524E-05-3.85564E-06-3.92931E-19-8.28769E-19
 -1      2027 1.13456E-04-3.49179E-05-3.36401E-05 1.16476E-06 1.08942E-18 1.99317E-18
 -1      2028 1.13562E-04-3.51411E-05-3.36508E-05 2.69315E-08 4.66715E-19 1.95861E-18
 -1      2029 1.12971E-04-3.55708E-05-3.31810E-05-1.45701E-07 3.41930E-19 2.55035E-19
 -1      2030 1.11700E-04-3.39781E-05-3.33046E-05 2.85114E-06 1.01708E-18 1.76682E-18
 -1      2031 1.12469E-04-3.43883E-05-3.34939E-05 2.13298E-06 1.15447E-18 1.80268E-18
 -1      2032 1.11465E-04-3.45144E-05-3.29904E-05 2.51837E-06 1.31673E-18 1.05088E-18
 -1      2033 1.09445E-04-3.29861E-05-3.27719E-05 3.62223E-06 4.00405E-19 1.47848E-18
 -1      2034 1.10579E-04-3.34563E-05-3.30700E-05 3.28072E-06 9.74925E-19 2.17930E-18
 -1      2035 1.09426E-04-3.33420E-05-3.26160E-05 4.01512E-06 1.04671E-18 1.43414E-18
 -1      2036 1.07071E-04-3.20743E-05-3.21485E-05 3.74759E-06-4.86459E-19 7.89908E-19
 -1      2037 1.08332E-04-3.25317E-05-3.24920E-05 3.67499E-06 1.04654E-19 1.15955E-18
 -1      2038 1.07223E-04-3.22774E-05-3.21246E-05 4.57219E-06 4.80338E-19 2.38144E-18
 -1      2039 1.04812E-04-3.12913E-05-3.15161E-05 3.48926E-06 1.79114E-19-9.87587E-20
 -1      2040 1.06043E-04-3.17006E-05-3.18593E-05 3.57911E-06-4.46726E-19 7.46878E-20
 -1      2041 1.05085E-04-3.13933E-05-3.15848E-05 4.50375E-06-7.06019E-20 5.39676E-19
 -1      2042 1.02794E-04-3.06442E-05-3.09274E-05 3.04400E-06 3.83361E-19-1.18247E-18
 -1      2043 1.03906E-04-3.09923E-05-3.12424E-05 3.21537E-06 1.46083E-19-2.14418E-19
 -1      2044 1.03139E-04-3.06896E-05-3.10511E-05 4.08306E-06 4.34919E-19-1.02767E-18
 -1      2045 1.01068E-04-3.01227E-05-3.04097E-05 2.53923E-06-3.77151E-19-9.40578E-19
 -1      2046 1.02023E-04-3.04085E-05-3.06831E-05 2.73908E-06 1.87424E-19-1.36903E-18
 -1      2047 1.01443E-04-3.01411E-05-3.05590E-05 3.50559E-06 2.53536E-19-5.96094E-19
 -1      2048 9.96406E-05-2.97105E-05-2.99732E-05 2.04826E-06-3.79965E-20-8.18597E-19
 -1      2049 1.00430E-04-2.99389E-05-3.02010E-05 2.24559E-06-3.38972E-19-9.68392E-19
 -1      2050 1.00013E-04-2.97184E-05-3.01276E-05 2.89429E-06-1.74767E-19-3.87563E-19
 -1      2051 9.84913E-05-2.93902E-05-2.96166E-05 1.60781E-06 8.86772E-19-5.73165E-19
 -1      2052 9.91246E-05-2.95687E-05-2.98006E-05 1.78667E-06 5.85358E-19-1.01775E-18
 -1      2053 9.88401E-05-2.93956E-05-2.97633E-05 2.31797E-06 6.68898E-19-7.13625E-20
 -1      2054 9.75873E-05-2.91456E-05-2.93331E-05 1.23219E-06 7.54341E-19-5.97142E-19
 -1      2055 9.80827E-05-2.92821E-05-2.94779E-05 1.38599E-06 7.75569E-19-7.42060E-19
 -1      2056 9.78996E-05-2.91515E-05-2.94650E-05 1.80962E-06 1.02070E-18 2.91332E-19
 -1      2057 9.68914E-05-2.89621E-05-2.91129E-05 9.22957E-07-7.42606E-19-6.99215E-19
 -1      2058 9.72702E-05-2.90644E-05-2.92241E-05 1.05050E-06 7.28572E-20-4.06245E-19
 -1      2059 9.71615E-05-2.89692E-05-2.92269E-05 1.38043E-06 3.99805E-19 4.18642E-19
 -1      2060 9.63670E-05-2.88272E-05-2.89456E-05 6.75146E-07-6.27518E-19-6.73419E-19
 -1      2061 9.66502E-05-2.89021E-05-2.90292E-05 7.78065E-07-8.56480E-19-7.32300E-19
 -1      2062 9.65938E-05-2.88350E-05-2.90411E-05 1.02942E-06-7.08246E-19-7.60285E-20
 -1      2063 9.59807E-05-2.87302E-05-2.88214E-05 4.80904E-07-1.15511E-18-2.72238E-20
 -1      2064 9.61874E-05-2.87838E-05-2.88827E-05 5.62131E-07-1.05479E-18-7.78307E-19
 -1      2065 9.61663E-05-2.87380E-05-2.88993E-05 7.49431E-07-1.08023E-18-1.19198E-19
 -1      2066 9.57032E-05-2.86625E-05-2.87313E-05 3.31596E-07-1.17301E-18 1.14452E-18
 -1      2067 9.58501E-05-2.86996E-05-2.87752E-05 3.94484E-07-5.75314E-19 1.02052E-18
 -1      2068 9.58512E-05-2.86697E-05-2.87934E-05 5.30750E-07-1.37530E-18 1.75435E-19
 -1      2069 9.55099E-05-2.86169E-05-2.86680E-05 2.18919E-07 8.83861E-19-1.54826E-19
 -1      2070 9.56108E-05-2.86416E-05-2.86983E-05 2.66758E-07-3.69310E-19 2.67207E-19
 -1      2071 9.56249E-05-2.86231E-05-2.87162E-05 3.63177E-07 5.14051E-20 1.16033E-19
 -1      2072 9.53806E-05-2.85879E-05-2.86250E-05 1.35450E-07 1.35957E-18 5.03619E-19
 -1      2073 9.54468E-05-2.86033E-05-2.86451E-05 1.71219E-07 1.56040E-18 7.20041E-19
 -1      2074 9.54672E-05-2.85927E-05-2.86615E-05 2.37102E-07 6.12009E-19 5.23764E-19
 -1      2075 9.52990E-05-2.85709E-05-2.85973E-05 7.48746E-08 2.42312E-18-3.19614E-20
 -1      2076 9.53395E-05-2.85797E-05-2.86098E-05 1.01134E-07 1.85590E-18 5.86067E-19
 -1      2077 9.53617E-05-2.85742E-05-2.86240E-05 1.44053E-07 2.01786E-18 1.63305E-18
 -1      2078 9.52520E-05-2.85627E-05-2.85808E-05 3.20667E-08 2.33375E-18 1.24601E-19
 -1      2079 9.52740E-05-2.85666E-05-2.85878E-05 5.09067E-08 2.85942E-18 1.05748E-18
 -1      2080 9.52950E-05-2.85644E-05-2.85995E-05 7.69134E-08 2.48419E-18 2.73883E-18
 -1      2081 9.52295E-05-2.85605E-05-2.85721E-05 3.10978E-09 1.42524E-18-1.30094E-18
 -1      2082 9.52386E-05-2.85611E-05-2.85753E-05 1.61226E-08 1.12986E-18-1.20422E-18
 -1      2083 9.52564E-05-2.85606E-05-2.85844E-05 2.99963E-08 2.06442E-18 2.55611E-18
 -1      2084 9.52231E-05-2.85625E-05-2.85686E-05-1.45199E-08 8.80020E-19-1.34321E-18
 -1      2085 9.52239E-05-2.85609E-05-2.85694E-05-6.36001E-09 1.40840E-18-1.03761E-18
 -1      2086 9.52375E-05-2.85613E-05-2.85759E-05-8.24850E-10 1.52231E-18 5.09397E-19
 -1      2087 9.52264E-05-2.85675E-05-2.85679E-05-2.15804E-08-5.03281E-19-2.62072E-18
 -1      2088 9.52225E-05-2.85644E-05-2.85675E-05-1.83719E-08 6.61109E-19-1.50618E-18
 -1      2089 9.52315E-05-2.85654E-05-2.85715E-05-1.82028E-08 9.89334E-19 1.76389E-18
 -1      2090 9.52330E-05-2.85738E-05-2.85681E-05-1.93127E-08-8.68922E-19-4.44857E-19
 -1      2091 9.52274E-05-2.85694E-05-2.85676E-05-2.13440E-08-8.02951E-19-1.95373E-18
 -1      2092 9.52328E-05-2.85707E-05-2.85696E-05-2.34552E-08-6.61227E-19 2.08735E-18
 -1      2093 9.52369E-05-2.85779E-05-2.85681E-05-2.16386E-08-1.60819E-18 3.10380E-18
 -1      2094 9.52446E-05-2.85782E-05-2.85714E-05-1.66678E-09 1.31768E-18 2.03733E-18
 -1      2095 9.52450E-05-2.85782E-05-2.85713E-05-6.09618E-09 5.74567E-19 2.86515E-18
 -1      2096 9.52463E-05-2.85825E-05-2.85702E-05-1.18166E-08 3.28379E-19 4.95385E-18
 -1      2097 9.52447E-05-2.85803E-05-2.85703E-05-1.59884E-08-1.02205E-18 5.07725E-18
 -1      2098 9.52442E-05-2.85665E-05-2.85763E-05-7.13392E-09-1.23248E-19 4.13927E-18
 -1      2099 9.52437E-05-2.85827E-05-2.85689E-05-1.97431E-08-1.45382E-18 3.73332E-18
 -1      2100 9.52400E-05-2.85786E-05-2.85691E-05-2.06345E-08-1.57840E-18 3.64511E-18
 -1      2101 9.52389E-05-2.85750E-05-2.85702E-05-2.26536E-08-1.03182E-18 3.13639E-18
 -1      2102 9.52438E-05-2.85733E-05-2.85733E-05-1.79857E-08-1.06586E-18 4.96885E-18
 -1      2103 9.52402E-05-2.85706E-05-2.85728E-05 5.80422E-09-3.67292E-19-1.30970E-18
 -1      2104 9.52418E-05-2.85724E-05-2.85724E-05 2.85743E-09 1.90477E-19 3.77509E-20
 -1      2105 9.52399E-05-2.85561E-05-2.85788E-05 4.20343E-09-3.45423E-19-1.39923E-20
 -1      2106 9.52348E-05-2.85617E-05-2.85744E-05 8.72971E-09-2.62159E-19 4.72366E-19
 -1      2107 9.52369E-05-2.85643E-05-2.85738E-05 7.85721E-09-2.61939E-20 1.46112E-18
 -1      2108 9.52327E-05-2.85435E-05-2.85810E-05 1.12397E-08 5.31339E-20 4.25758E-19
 -1      2109 9.52304E-05-2.85544E-05-2.85756E-05 6.91206E-09-1.82295E-20-6.66835E-19
 -1      2110 9.52320E-05-2.85566E-05-2.85751E-05 7.98763E-09-3.28782E-19 2.56973E-19
 -1      2111 9.52252E-05-2.85317E-05-2.85828E-05 1.22737E-08 3.01817E-19-1.49048E-19
 -1      2112 9.52282E-05-2.85507E-05-2.85762E-05 1.87977E-09 6.68274E-20-1.30897E-18
 -1      2113 9.52288E-05-2.85515E-05-2.85760E-05 4.09256E-09-1.62227E-19-1.37347E-18
 -1      2114 9.52198E-05-2.85233E-05-2.85840E-05 7.79134E-09-9.46515E-19-1.29790E-18
 -1      2115 9.52288E-05-2.85515E-05-2.85760E-05-3.91522E-09-1.02230E-18-5.27130E-19
 -1      2116 9.52282E-05-2.85507E-05-2.85762E-05-1.70110E-09 8.34348E-20 6.07075E-20
 -1      2117 9.52179E-05-2.85203E-05-2.85844E-05 1.00257E-10-9.83634E-19-1.27287E-18
 -1      2118 9.52320E-05-2.85565E-05-2.85751E-05-7.81762E-09-1.48062E-18-3.09212E-18
 -1      2119 9.52304E-05-2.85544E-05-2.85756E-05-6.73984E-09-1.34798E-18-1.29559E-18
 -1      2120 9.52198E-05-2.85233E-05-2.85840E-05-7.59243E-09-1.67747E-18-1.65253E-18
 -1      2121 9.52367E-05-2.85641E-05-2.85738E-05-7.75391E-09-1.28469E-18-2.99923E-18
 -1      2122 9.52347E-05-2.85615E-05-2.85744E-05-8.57201E-09-1.21716E-18-2.97811E-18
 -1      2123 9.52252E-05-2.85316E-05-2.85828E-05-1.20862E-08-6.95566E-19-2.98233E-18
 -1      2124 9.52417E-05-2.85721E-05-2.85724E-05-2.81537E-09 1.77947E-19 1.44706E-18
 -1      2125 9.52400E-05-2.85703E-05-2.85729E-05-5.77140E-09-1.37594E-19-1.45495E-19
 -1      2126 9.52325E-05-2.85433E-05-2.85810E-05-1.11618E-08 9.20505E-19-9.57770E-19
 -1      2127 9.52450E-05-2.85781E-05-2.85713E-05 6.11383E-09-2.19699E-19 1.59977E-18
 -1      2128 9.52445E-05-2.85780E-05-2.85714E-05 1.72693E-09 1.66779E-19 7.75608E-19
 -1      2129 9.52397E-05-2.85559E-05-2.85788E-05-4.13646E-09 1.40278E-18 1.34461E-18
 -1      2130 9.52442E-05-2.85805E-05-2.85703E-05 1.64979E-08-1.38456E-18 2.53230E-19
 -1      2131 9.52465E-05-2.85825E-05-2.85702E-05 1.18746E-08-1.20319E-18 7.77903E-19
 -1      2132 9.52442E-05-2.85664E-05-2.85763E-05 7.19039E-09-1.02969E-18 2.31531E-19
 -1      2133 5.77641E-05-3.94435E-05-8.26586E-06 3.96650E-05 1.92361E-18 5.15486E-18
 -1      2134 4.31719E-05-4.05468E-05-2.36134E-06 3.26093E-05 1.59581E-18 3.97026E-18
 -1      2135 1.17717E-05-2.99972E-05 6.75852E-06 4.67034E-06 6.49992E-19 2.57752E-18
 -1      2136 1.22718E-05-3.25337E-05 7.32021E-06-6.99222E-06 1.97570E-19 1.14307E-18
 -1      2137 2.93649E-05-3.51644E-05 1.58371E-06 2.79851E-05 1.92065E-18 3.19077E-18
 -1      2138 2.01877E-05-3.22067E-05 4.33449E-06 2.00576E-05 8.44492E-19 3.19586E-18
 -1      2139 4.46402E-05-3.58233E-05-4.23386E-06 3.67349E-05 3.86459E-19 3.81122E-18
 -1      2140 9.36443E-05-4.17547E-05-2.22098E-05 4.22679E-05 2.81850E-18 5.42863E-18
 -1      2141 7.53593E-05-4.40835E-05-1.45090E-05 3.77332E-05 1.84272E-18 5.85194E-18
 -1      2142 1.30556E-04-4.24060E-05-3.71676E-05 3.62910E-05 4.21780E-18 1.00882E-18
 -1      2143 1.10811E-04-4.39522E-05-2.92985E-05 3.51627E-05 3.53297E-18 2.50891E-18
 -1      2144 8.73842E-05-8.58318E-06-3.38617E-05-9.73107E-06-1.14720E-18-2.68441E-18
 -1      2145 8.81600E-05-9.17230E-06-3.39356E-05-1.12987E-05-1.39836E-18-2.44218E-18
 -1      2146 9.06850E-05-1.29886E-05-3.33634E-05-1.10505E-05-1.53406E-18-2.13530E-18
 -1      2147 8.86830E-05-1.07536E-05-3.34196E-05-8.57307E-06-1.16099E-18-2.50547E-18
 -1      2148 1.69399E-04-2.82797E-05-6.00604E-05 6.19707E-06 4.02277E-18-1.12655E-18
 -1      2149 1.64961E-04-3.20928E-05-5.60168E-05 1.63488E-05 4.29361E-18-4.96361E-19
 -1      2150 1.79600E-04-2.29576E-05-6.57253E-05 5.43584E-08 4.33130E-18-2.16351E-18
 -1      2151 1.70237E-04-2.08327E-05-6.34938E-05 4.12696E-06 4.37620E-18-1.14477E-18
 -1      2152 1.73608E-04-2.40927E-05-6.33804E-05-7.45487E-06 4.01494E-18-3.03280E-18
 -1      2153 1.80395E-04-2.42477E-05-6.57487E-05-1.96442E-06 3.99037E-18-2.56937E-18
 -1      2154 1.57204E-04-1.27966E-05-6.09369E-05 2.33699E-07 4.51469E-18-1.07192E-18
 -1      2155 1.57743E-04-3.24279E-05-5.35870E-05-1.28025E-05 4.35227E-18-2.45512E-18
 -1      2156 1.71712E-04-3.03811E-05-5.94918E-05-1.04399E-05 3.99461E-18-2.59827E-18
 -1      2157 1.34778E-04-4.32082E-05-3.93905E-05-2.75593E-05 4.50240E-18-3.08532E-18
 -1      2158 1.51517E-04-4.21003E-05-4.66390E-05-2.20186E-05 4.08275E-18-2.17603E-18
 -1      2159 9.92750E-05-4.38157E-05-2.46115E-05-3.71677E-05 3.64394E-18-4.60024E-18
 -1      2160 1.20080E-04-4.31879E-05-3.27668E-05-3.88140E-05 4.29615E-18-3.29919E-18
 -1      2161 6.82684E-05-4.40864E-05-1.10724E-05-3.92368E-05 1.21422E-18-4.54333E-18
 -1      2162 8.37557E-05-4.17310E-05-1.81350E-05-4.24118E-05 2.88245E-18-5.37485E-18
 -1      2163 1.05333E-04-5.28452E-05-2.24923E-05-3.76814E-05 1.39760E-20-2.85238E-18
 -1      2164 3.25306E-05-3.96210E-05 1.42061E-06-2.71547E-05 2.30816E-19-5.37951E-18
 -1      2165 4.66706E-05-3.81811E-05-4.41141E-06-3.69097E-05 4.58668E-19-5.02852E-18
 -1      2166 1.44757E-05-3.71263E-05 7.96508E-06-1.04041E-05-1.17134E-18-6.51665E-18
 -1      2167 1.98831E-05-3.59420E-05 5.49356E-06-1.92532E-05 6.65768E-19-6.02685E-18
 -1      2168 1.31176E-05-3.25896E-05 7.15099E-06 9.57985E-06-2.10128E-18-4.69002E-18
 -1      2169 1.21074E-05-3.54351E-05 8.34874E-06-5.22363E-07-6.37128E-19-5.84622E-18
 -1      2170 3.17051E-05-3.65159E-05 1.00876E-06 2.92434E-05-3.49486E-18-3.73393E-18
 -1      2171 2.23269E-05-3.63337E-05 4.67036E-06 2.14116E-05-1.88952E-18-4.05941E-18
 -1      2172 6.32929E-05-3.98912E-05-1.04270E-05 4.10419E-05-3.69264E-18-3.28612E-18
 -1      2173 4.80742E-05-4.18244E-05-3.99035E-06 3.40749E-05-3.45674E-18-2.69409E-18
 -1      2174 1.03132E-04-4.35650E-05-2.53964E-05 4.18239E-05-3.47538E-18-3.28225E-18
 -1      2175 8.31708E-05-4.53252E-05-1.72185E-05 3.80501E-05-3.23185E-18-3.72673E-18
 -1      2176 1.37960E-04-4.32931E-05-4.02949E-05 3.21670E-05-3.33816E-18-2.96885E-18
 -1      2177 1.16969E-04-4.37565E-05-3.19528E-05 3.40148E-05-3.53763E-18-3.12555E-18
 -1      2178 1.21797E-04-5.50629E-05-2.82627E-05 3.11422E-05-1.11766E-18-7.91341E-19
 -1      2179 1.61587E-04-3.48338E-05-5.40513E-05 1.33601E-05-3.19829E-18-2.48774E-18
 -1      2180 1.49579E-04-3.75475E-05-4.78081E-05 2.01434E-05-3.16287E-18-3.09082E-18
 -1      2181 1.80629E-04-2.63445E-05-6.44397E-05 7.39153E-06-5.13810E-18-1.85797E-18
 -1      2182 1.67929E-04-2.59479E-05-6.00807E-05 1.02588E-05-4.88230E-18-2.26624E-18
 -1      2183 1.77518E-04-2.24024E-05-6.56144E-05-2.44603E-06-5.23805E-18-8.65456E-19
 -1      2184 1.79628E-04-2.35225E-05-6.56883E-05 3.51217E-06-5.32911E-18-1.94574E-18
 -1      2185 1.65387E-04-2.47837E-05-5.98346E-05-7.24886E-06-4.38763E-18-4.71797E-19
 -1      2186 1.75857E-04-2.40257E-05-6.37577E-05-4.31060E-06-4.58965E-18-7.92399E-19
 -1      2187 1.51084E-04-3.64728E-05-4.87266E-05-2.30145E-05-3.65447E-18 1.20406E-18
 -1      2188 1.62512E-04-3.40294E-05-5.46297E-05-1.29362E-05-3.90546E-18-8.68209E-20
 -1      2189 1.20818E-04-4.12121E-05-3.45483E-05-3.31981E-05-2.82358E-18 2.86255E-18
 -1      2190 1.42358E-04-4.04230E-05-4.30359E-05-3.31505E-05-3.23842E-18 2.30562E-18
 -1      2191 1.47805E-04-4.45555E-05-4.35426E-05-1.27853E-05-2.59751E-18-4.72644E-19
 -1      2192 8.28847E-05-4.41630E-05-1.76427E-05-3.76880E-05-1.18585E-18 2.70669E-18
 -1      2193 1.03610E-04-4.22652E-05-2.61763E-05-4.21879E-05-2.48689E-18 2.71643E-18
 -1      2194 4.40193E-05-4.12178E-05-2.77902E-06-3.18747E-05-4.74338E-19 4.81205E-18
 -1      2195 6.00865E-05-3.83154E-05-9.96489E-06-3.98472E-05-1.39591E-18 4.40510E-18
 -1      2196 2.00593E-05-3.47166E-05 5.09561E-06-1.89670E-05 4.42998E-19 2.39372E-18
 -1      2197 2.96729E-05-3.56126E-05 1.54272E-06-2.81551E-05-1.94818E-19 5.53240E-18
 -1      2198 1.59825E-04-3.71269E-05-5.16172E-05 2.69063E-05 4.53782E-18-5.99699E-19
 -1      2199 1.40951E-04-3.73003E-05-4.44144E-05 2.93470E-05 4.76075E-18 7.60636E-19
 -1      2200 1.42179E-04-4.89212E-05-3.94774E-05 1.99753E-05 3.31740E-18-1.32222E-18
 -1      2201 9.75365E-05-2.44193E-05-3.14056E-05-9.37508E-06-1.82300E-18 6.63094E-19
 -1      2202 1.55769E-04-3.54264E-05-5.05792E-05 6.15174E-06 3.50195E-18-2.35941E-18
 -1      2203 9.67662E-05-2.31904E-05-3.15987E-05-9.58316E-06-1.96091E-18-2.44197E-19
 -1      2204 1.86883E-05-2.70083E-05 3.01079E-06 1.39990E-05 6.98802E-19 3.54526E-18
 -1      2205 1.84217E-05-1.86327E-05 3.21404E-07 8.27681E-06 6.81967E-19 2.65206E-18
 -1      2206 2.71200E-05-2.27091E-05-1.84826E-06 2.30709E-05 5.09702E-19 3.52514E-18
 -1      2207 7.89257E-05-4.78782E-05-1.35841E-05 4.16319E-05 6.26381E-19 5.31647E-18
 -1      2208 9.52428E-05-2.85768E-05-2.85712E-05 1.87625E-08-1.10737E-18 3.75638E-19
 -1      2209 1.96051E-05-2.57539E-05 2.10064E-06-1.67731E-05 4.89585E-19 2.17857E-18
 -1      2210 1.15423E-04-5.39187E-05-2.62614E-05 3.43281E-05 1.78978E-18 2.46360E-18
 -1      2211 4.49577E-05-3.70663E-05-4.03820E-06-3.66784E-05 6.71697E-19 5.27426E-18
 -1      2212 1.24711E-04-5.30928E-05-3.04369E-05-3.00635E-05-6.20875E-19 1.24323E-18
 -1      2213 1.58177E-04-2.93373E-05-5.48424E-05-2.70391E-06-4.28006E-18-1.53821E-18
 -1      2214 1.46422E-04-2.23841E-05-5.35900E-05 7.79325E-06-3.57638E-18-2.11377E-18
 -1      2215 1.47681E-04-3.28163E-05-4.90603E-05 3.68132E-06-3.25832E-18-2.60420E-18
 -1      2216 1.56936E-04-1.43206E-05-6.03058E-05 1.89098E-06-5.06822E-18-7.66459E-19
 -1      2217 1.59757E-04-1.52927E-05-6.08262E-05-5.39477E-07-5.27956E-18-8.82185E-19
 -1      2218 1.45415E-04-4.70578E-05-4.15317E-05 1.42129E-05-1.41486E-18-1.05032E-19
 -1      2219 8.75585E-05-5.04242E-05-1.59579E-05 4.18894E-05-7.88164E-19-2.18042E-18
 -1      2220 4.91057E-05-3.82667E-05-5.04271E-06 3.88364E-05-1.14349E-18-2.80283E-18
 -1      2221 2.11345E-05-2.79676E-05 2.29405E-06 1.91446E-05-5.82335E-19-4.55873E-18
 -1      2222 1.47243E-05-2.61293E-05 4.04557E-06-7.33755E-06-7.59312E-19-6.60305E-18
 -1      2223 6.40923E-05-4.31518E-05-9.28561E-06-4.00598E-05-7.09390E-19-4.10769E-18
 -1      2224 8.14407E-05-4.85351E-05-1.46587E-05-4.28212E-05-2.33103E-18-2.82628E-18
 -1      2225 6.09117E-05-3.91798E-05-8.77812E-06-4.18247E-05-2.30605E-18-3.45505E-18
 -1      2226 1.35062E-04-5.24171E-05-3.48660E-05-2.36767E-05 2.00302E-18-6.64921E-19
 -1      2227 1.57676E-04-2.15336E-05-5.75704E-05 2.22911E-06 3.59777E-18-1.15789E-18
 -1      2228 1.61234E-04-2.17892E-05-5.91195E-05-1.95460E-08 4.00075E-18-1.16001E-18
 -1      2229 1.47398E-04-2.22707E-05-5.36366E-05-5.82079E-06 3.52959E-18-2.26052E-18
 -1      2230 1.45715E-04-1.42805E-05-5.66517E-05-6.13087E-06 4.20721E-18-1.52974E-18
 -1      2231 1.52410E-04-4.06612E-05-4.75459E-05-5.07160E-06 3.09638E-18-2.20229E-20
 -1      2232 3.10567E-05-3.15535E-05-2.47346E-07-2.97568E-05-7.95787E-19-5.94787E-18
 -1      2233 1.58640E-04-2.96509E-05-5.47788E-05 4.51954E-06-3.41397E-18-1.13545E-18
 -1      2234 1.48183E-04-3.32656E-05-4.89948E-05-2.88213E-06-1.59136E-18 1.20321E-18
 -1      2235 1.49767E-04-2.38127E-05-5.45168E-05-5.54740E-06-3.46415E-18 5.93558E-19
 -1      2236 8.46862E-05-4.88082E-05-1.55489E-05-4.15924E-05 7.80541E-19 2.32315E-18
 -1      2237 9.59284E-05-2.64608E-05-2.97527E-05 3.25462E-06 1.40600E-18 1.88000E-18
 -1      2238 9.67362E-05-2.59298E-05-3.02717E-05 5.14066E-06 1.54265E-18 2.09992E-18
 -1      2239 8.75238E-05-1.03452E-05-3.31168E-05-3.13013E-06-1.86731E-19-2.38362E-18
 -1      2240 8.78596E-05-1.06858E-05-3.31088E-05-4.15506E-06-4.50465E-19-2.48584E-18
 -1      2241 8.83421E-05-1.12855E-05-3.30714E-05-5.05487E-06-6.06673E-19-2.52503E-18
 -1      2242 8.88770E-05-1.18491E-05-3.30541E-05-6.14745E-06-8.75736E-19-2.49963E-18
 -1      2243 8.93345E-05-1.29522E-05-3.27313E-05-4.11747E-06-5.09993E-19-2.29631E-18
 -1      2244 8.70056E-05-9.74685E-06-3.31437E-05 5.40041E-07 7.62766E-19-2.20802E-18
 -1      2245 8.70007E-05-9.74192E-06-3.31438E-05-4.25213E-07 5.15649E-19-2.30728E-18
 -1      2246 8.72742E-05-1.00356E-05-3.31346E-05 2.37335E-06 1.13437E-18-2.17279E-18
 -1      2247 8.71032E-05-9.86494E-06-3.31378E-05 1.39229E-06 9.16600E-19-2.19278E-18
 -1      2248 8.81914E-05-1.16073E-05-3.28208E-05 8.71598E-07 7.84881E-19-2.07491E-18
 -1      2249 8.78952E-05-1.07251E-05-3.31077E-05 4.23804E-06 1.52788E-18-1.93397E-18
 -1      2250 8.75556E-05-1.03800E-05-3.31158E-05 3.22980E-06 1.28272E-18-2.11782E-18
 -1      2251 8.85846E-05-1.20637E-05-3.27927E-05 2.51251E-06 1.16131E-18-1.97552E-18
 -1      2252 8.89339E-05-1.19135E-05-3.30512E-05 6.22411E-06 1.96090E-18-1.38688E-18
 -1      2253 8.83860E-05-1.13349E-05-3.30693E-05 5.13614E-06 1.69298E-18-1.65435E-18
 -1      2254 8.93749E-05-1.29995E-05-3.27284E-05 4.18981E-06 1.57719E-18-1.57484E-18
 -1      2255 9.04827E-05-1.37589E-05-3.29424E-05 8.26275E-06 2.21267E-18-8.32362E-19
 -1      2256 8.96707E-05-1.28478E-05-3.29803E-05 7.12542E-06 2.03273E-18-1.16670E-18
 -1      2257 9.06124E-05-1.45101E-05-3.26065E-05 5.89102E-06 1.93614E-18-1.12946E-18
 -1      2258 9.27160E-05-1.65568E-05-3.27368E-05 1.01394E-05 2.37509E-18 1.27055E-21
 -1      2259 9.15353E-05-1.51254E-05-3.28100E-05 9.05760E-06 2.23329E-18-4.98611E-19
 -1      2260 9.23467E-05-1.67362E-05-3.23830E-05 7.45346E-06 2.05892E-18-5.35877E-19
 -1      2261 9.52866E-05-2.72295E-05-2.91430E-05 5.73646E-07 1.08645E-18 1.55682E-18
 -1      2262 9.56706E-05-2.69758E-05-2.93686E-05 1.67141E-06 1.21888E-18 1.81684E-18
 -1      2263 9.60071E-05-2.58352E-05-3.00855E-05 3.16691E-06 1.39883E-18 9.96809E-19
 -1      2264 9.64478E-05-2.50879E-05-3.05337E-05-5.16142E-06-1.59207E-18-4.81849E-19
 -1      2265 9.59322E-05-2.58457E-05-3.00468E-05-3.15026E-06-1.39544E-18-4.94328E-19
 -1      2266 1.47807E-04-3.47298E-05-4.90552E-05-4.49645E-06 3.23291E-18-2.82422E-18
 -1      2267 1.47866E-04-4.25450E-05-4.53079E-05 1.86986E-06 3.16007E-18-2.36830E-18
 -1      2268 9.59048E-05-2.65076E-05-2.96848E-05-1.65344E-06-1.12694E-18-3.96990E-19
 -1      2269 9.56280E-05-2.68903E-05-2.94509E-05-4.36087E-07-8.24062E-19-5.33256E-19
 -1      2270 9.59065E-05-2.52087E-05-3.03055E-05-2.92400E-06-1.31764E-18-7.85086E-19
 -1      2271 9.55539E-05-2.72068E-05-2.92535E-05 6.20242E-07-7.29982E-19-5.56358E-19
 -1      2272 9.55428E-05-2.74467E-05-2.91724E-05 1.42814E-06-6.61883E-19-5.82571E-19
 -1      2273 9.58118E-05-2.64903E-05-2.97253E-05-1.66451E-07-8.73868E-19-8.62333E-19
 -1      2274 9.55536E-05-2.76248E-05-2.90897E-05 2.19744E-06-6.25269E-19-5.07245E-19
 -1      2275 9.57688E-05-2.78160E-05-2.91096E-05 2.78370E-06-6.20815E-19-4.86765E-19
 -1      2276 9.57833E-05-2.71717E-05-2.94212E-05 1.80812E-06-7.24139E-19-7.81305E-19
 -1      2277 9.58881E-05-2.79394E-05-2.91080E-05 3.38270E-06-5.12235E-19-4.06160E-19
 -1      2278 9.62866E-05-2.81240E-05-2.91989E-05 3.84966E-06-2.39052E-19-3.76946E-19
 -1      2279 9.59413E-05-2.75826E-05-2.93109E-05 3.28881E-06-5.70132E-19-5.57024E-19
 -1      2280 9.65139E-05-2.82357E-05-2.92548E-05 4.35232E-06-2.55630E-19-4.15123E-19
 -1      2281 9.70658E-05-2.84400E-05-2.93974E-05 4.75258E-06-2.15486E-19-5.35598E-19
 -1      2282 9.63075E-05-2.78812E-05-2.93375E-05 4.47868E-06-3.55179E-19-4.65117E-19
 -1      2283 9.73997E-05-2.85718E-05-2.94934E-05 5.19694E-06-1.86593E-19-6.39796E-19
 -1      2284 9.80867E-05-2.88207E-05-2.96731E-05 5.54693E-06-1.92961E-19-6.57956E-19
 -1      2285 9.68822E-05-2.81665E-05-2.94598E-05 5.49787E-06-3.13955E-19-8.16039E-19
 -1      2286 9.85350E-05-2.90066E-05-2.97945E-05 5.93832E-06-2.82848E-19-6.27173E-19
 -1      2287 9.93462E-05-2.93301E-05-2.99980E-05 6.22091E-06-4.16731E-19-7.28507E-19
 -1      2288 9.76741E-05-2.85252E-05-2.96449E-05 6.39555E-06-1.97417E-19-8.12669E-19
 -1      2289 9.99309E-05-2.96134E-05-3.01315E-05 6.52978E-06-3.97719E-19-6.27115E-19
 -1      2290 1.00858E-04-3.00481E-05-3.03444E-05 6.69122E-06-4.84774E-19-4.02115E-19
 -1      2291 9.87150E-05-2.90560E-05-2.98644E-05 7.15166E-06-4.51730E-19-8.95932E-19
 -1      2292 1.01618E-04-3.04841E-05-3.04779E-05 6.84717E-06-4.20941E-19-3.30303E-19
 -1      2293 1.02647E-04-3.10692E-05-3.06840E-05 6.79299E-06-3.52019E-19-4.61029E-21
 -1      2294 1.00067E-04-2.98816E-05-3.00929E-05 7.66972E-06-3.37425E-19-3.33968E-19
 -1      2295 1.03637E-04-3.17182E-05-3.08086E-05 6.67779E-06-2.60549E-19 2.77664E-19
 -1      2296 1.04737E-04-3.24793E-05-3.09908E-05 6.27473E-06 7.57606E-20 3.85895E-19
 -1      2297 1.01827E-04-3.11437E-05-3.03110E-05 7.76451E-06-8.44564E-20 3.25266E-19
 -1      2298 1.06010E-04-3.33804E-05-3.11062E-05 5.72158E-06 3.16388E-20 1.29291E-19
 -1      2299 1.07110E-04-3.42901E-05-3.12514E-05 4.81831E-06-4.56488E-20 1.80301E-19
 -1      2300 1.04104E-04-3.29631E-05-3.05138E-05 7.15307E-06-9.16516E-21 1.72041E-19
 -1      2301 1.08669E-04-3.54006E-05-3.13740E-05 3.63194E-06-2.62828E-20 1.29350E-19
 -1      2302 1.09622E-04-3.63068E-05-3.14827E-05 2.12015E-06 8.51434E-20 7.93547E-20
 -1      2303 1.06963E-04-3.53396E-05-3.07254E-05 5.46829E-06-5.83907E-20 2.49880E-19
 -1      2304 1.11315E-04-3.73988E-05-3.16577E-05 1.58412E-07 1.00459E-19 8.32243E-20
 -1      2305 1.11867E-04-3.79380E-05-3.17516E-05-1.90773E-06 1.50540E-19 2.34706E-19
 -1      2306 1.10268E-04-3.79407E-05-3.10228E-05 2.34208E-06 1.06610E-19 6.86689E-19
 -1      2307 1.13257E-04-3.84877E-05-3.20461E-05-4.51440E-06 1.07295E-19 1.22534E-19
 -1      2308 1.13083E-04-3.81249E-05-3.21694E-05-6.71108E-06 9.33192E-20 2.83773E-19
 -1      2309 1.13440E-04-3.98470E-05-3.15429E-05-2.32486E-06 2.58668E-20 7.92231E-19
 -1      2310 1.13522E-04-3.74716E-05-3.26504E-05-9.29472E-06 8.30324E-21 2.71137E-19
 -1      2311 1.12425E-04-3.57631E-05-3.28440E-05-1.07730E-05-2.74192E-19-9.88009E-20
 -1      2312 1.15355E-04-3.95656E-05-3.24438E-05-7.83196E-06-1.11412E-19 6.94049E-19
 -1      2313 1.11423E-04-3.35382E-05-3.34903E-05-1.19625E-05-4.97615E-19 6.58700E-20
 -1      2314 1.09668E-04-3.07735E-05-3.37416E-05-1.16217E-05-8.19246E-19-9.97348E-20
 -1      2315 1.14775E-04-3.58677E-05-3.37918E-05-1.20997E-05-6.10860E-19 4.11115E-19
 -1      2316 1.07707E-04-2.77812E-05-3.43774E-05-1.00102E-05-8.68652E-19-2.65477E-19
 -1      2317 1.06237E-04-2.53923E-05-3.45836E-05-7.33701E-06-4.64227E-19-3.16100E-19
 -1      2318 1.11592E-04-2.91399E-05-3.53414E-05-1.21139E-05-6.96420E-19 7.15425E-19
 -1      2319 1.05034E-04-2.37156E-05-3.49024E-05-3.05140E-06-2.81347E-19-8.62880E-19
 -1      2320 1.04840E-04-2.33776E-05-3.49354E-05 9.10696E-07-4.46982E-19-1.33148E-18
 -1      2321 1.08185E-04-2.32309E-05-3.65080E-05-5.95182E-06-8.01637E-19 2.37328E-19
 -1      2322 1.05591E-04-2.43969E-05-3.47516E-05 5.59931E-06-3.22521E-19-1.83965E-18
 -1      2323 1.06841E-04-2.63816E-05-3.45914E-05 8.78348E-06-1.48813E-19-1.30518E-18
 -1      2324 1.07686E-04-2.23873E-05-3.66703E-05 3.74171E-06-4.99167E-19-1.04792E-18
 -1      2325 1.08794E-04-2.92271E-05-3.40194E-05 1.12131E-05 6.88347E-20-1.11244E-18
 -1      2326 1.10607E-04-3.20695E-05-3.37754E-05 1.22023E-05 1.33100E-19-9.64249E-19
 -1      2327 1.10632E-04-2.73020E-05-3.57439E-05 1.12953E-05-5.78497E-20-1.17178E-18
 -1      2328 1.12008E-04-3.46534E-05-3.31112E-05 1.16664E-05-2.91254E-19-1.14401E-18
 -1      2329 1.13367E-04-3.67158E-05-3.29111E-05 1.05905E-05-5.62231E-19-1.61933E-18
 -1      2330 1.14216E-04-3.42104E-05-3.42376E-05 1.29438E-05-2.51949E-19-8.12381E-19
 -1      2331 1.13305E-04-3.77817E-05-3.23979E-05 8.26038E-06-7.95481E-19-2.26181E-18
 -1      2332 1.13766E-04-3.84849E-05-3.22770E-05 6.17793E-06-3.03198E-19-2.36155E-18
 -1      2333 1.15608E-04-3.89416E-05-3.28191E-05 9.51386E-06-7.53502E-19-1.43521E-18
 -1      2334 1.12582E-04-3.81827E-05-3.19520E-05 3.52189E-06 5.96146E-19-2.27611E-18
 -1      2335 1.12246E-04-3.78322E-05-3.18732E-05 1.40523E-06 4.93719E-19-1.94317E-18
 -1      2336 1.14300E-04-4.00178E-05-3.18324E-05 4.15856E-06-1.68119E-19-2.31805E-18
 -1      2337 1.10612E-04-3.68246E-05-3.16887E-05-7.06414E-07 2.04532E-19-1.36575E-18
 -1      2338 1.09801E-04-3.59844E-05-3.16078E-05-2.33251E-06 2.41600E-19-3.51223E-19
 -1      2339 1.11392E-04-3.85222E-05-3.12529E-05-7.46848E-07 7.14623E-19-2.29688E-18
 -1      2340 1.08221E-04-3.48514E-05-3.14926E-05-3.66044E-06-8.33037E-20-5.10133E-19
 -1      2341 1.07219E-04-3.39386E-05-3.13812E-05-4.66397E-06 1.21998E-19-3.85288E-19
 -1      2342 1.08114E-04-3.59911E-05-3.09400E-05-4.18245E-06 7.52379E-20-1.04506E-18
 -1      2343 1.05907E-04-3.29784E-05-3.12835E-05-5.30505E-06 1.64758E-20-2.67313E-19
 -1      2344 1.04887E-04-3.21942E-05-3.11365E-05-5.76686E-06 2.85369E-20-6.16462E-19
 -1      2345 1.05189E-04-3.35128E-05-3.07448E-05-6.09700E-06-8.56541E-20-5.19613E-19
 -1      2346 1.03870E-04-3.14897E-05-3.10320E-05-5.91587E-06 8.33372E-20-9.74899E-19
 -1      2347 1.02919E-04-3.08887E-05-3.08590E-05-5.98750E-06 3.12879E-20-9.51768E-19
 -1      2348 1.02844E-04-3.15508E-05-3.05737E-05-6.82550E-06-3.75138E-19 3.93901E-20
 -1      2349 1.02148E-04-3.04165E-05-3.07426E-05-5.82858E-06-2.35191E-19-1.08665E-18
 -1      2350 1.01302E-04-2.99842E-05-3.05585E-05-5.65747E-06 1.45653E-19-1.14197E-18
 -1      2351 1.01048E-04-3.01766E-05-3.03872E-05-6.75823E-06 5.76588E-20-2.72338E-19
 -1      2352 1.00718E-04-2.96878E-05-3.04347E-05-5.33159E-06 3.36635E-19-1.61128E-18
 -1      2353 9.99874E-05-2.93879E-05-3.02534E-05-5.03291E-06-7.38619E-20-9.39830E-20
 -1      2354 9.96893E-05-2.92933E-05-3.01792E-05-6.22076E-06 1.19788E-19-7.06969E-19
 -1      2355 9.95383E-05-2.92119E-05-3.01294E-05-4.63672E-06-5.74105E-19 2.86301E-20
 -1      2356 9.89219E-05-2.90084E-05-2.99610E-05-4.28966E-06-1.22851E-19 6.42746E-20
 -1      2357 9.86541E-05-2.87660E-05-2.99590E-05-5.44939E-06 1.68991E-20-6.60198E-19
 -1      2358 9.85721E-05-2.89099E-05-2.98434E-05-3.88405E-06 3.62493E-19 2.72374E-19
 -1      2359 9.80623E-05-2.87740E-05-2.96940E-05-3.53776E-06 6.48166E-20 7.18292E-19
 -1      2360 9.78557E-05-2.84758E-05-2.97398E-05-4.60122E-06 1.02455E-20-1.70898E-19
 -1      2361 9.77875E-05-2.87231E-05-2.95874E-05-3.15780E-06-4.88652E-19 1.50748E-18
 -1      2362 9.73738E-05-2.86337E-05-2.94594E-05-2.83956E-06-1.04348E-19 1.33328E-18
 -1      2363 9.72333E-05-2.83341E-05-2.95329E-05-3.77259E-06-3.55119E-19 4.78666E-19
 -1      2364 9.71573E-05-2.86111E-05-2.93662E-05-2.50287E-06 6.08768E-20 1.45428E-18
 -1      2365 9.68277E-05-2.85534E-05-2.92600E-05-2.22537E-06 8.01633E-20 8.71540E-19
 -1      2366 9.67452E-05-2.82808E-05-2.93460E-05-3.01679E-06 1.67601E-19 1.96276E-18
 -1      2367 9.66577E-05-2.85470E-05-2.91810E-05-1.93846E-06 6.06092E-19 1.78651E-18
 -1      2368 9.63999E-05-2.85108E-05-2.90949E-05-1.70535E-06 1.18471E-18 2.51462E-18
 -1      2369 9.63627E-05-2.82772E-05-2.91831E-05-2.35850E-06 1.03432E-18 2.16946E-18
 -1      2370 9.62676E-05-2.85132E-05-2.90297E-05-1.46805E-06 5.26528E-19 1.93792E-18
 -1      2371 9.60698E-05-2.84917E-05-2.89617E-05-1.27780E-06 9.68542E-20 1.11540E-18
 -1      2372 9.60646E-05-2.82994E-05-2.90454E-05-1.80429E-06 4.81570E-19 1.50571E-18
 -1      2373 9.59679E-05-2.84984E-05-2.89091E-05-1.08627E-06 9.92758E-19 5.55219E-19
 -1      2374 9.58192E-05-2.84867E-05-2.88564E-05-9.34639E-07 1.44241E-18 1.06475E-18
 -1      2375 9.58346E-05-2.83333E-05-2.89319E-05-1.35014E-06 2.11086E-19 6.01010E-19
 -1      2376 9.57420E-05-2.84952E-05-2.88149E-05-7.83291E-07 1.77887E-19 1.07813E-18
 -1      2377 9.56327E-05-2.84901E-05-2.87751E-05-6.64944E-07-5.08472E-19 1.13468E-18
 -1      2378 9.56595E-05-2.83706E-05-2.88404E-05-9.86349E-07 3.41818E-19 1.08843E-18
 -1      2379 9.55752E-05-2.84990E-05-2.87430E-05-5.47660E-07 6.00630E-20 1.40520E-18
 -1      2380 9.54969E-05-2.84981E-05-2.87135E-05-4.57075E-07 3.00006E-19 1.49985E-18
 -1      2381 9.55285E-05-2.84068E-05-2.87683E-05-7.00800E-07 3.96112E-19 1.62779E-18
 -1      2382 9.54550E-05-2.85065E-05-2.86892E-05-3.67904E-07-5.49040E-19 1.19919E-18
 -1      2383 9.54007E-05-2.85083E-05-2.86679E-05-2.99919E-07 4.44442E-19 1.14917E-18
 -1      2384 9.54323E-05-2.84398E-05-2.87126E-05-4.80928E-07-4.45092E-19 1.37986E-18
 -1      2385 9.53709E-05-2.85159E-05-2.86499E-05-2.33481E-07 1.53985E-18 7.72942E-19
 -1      2386 9.53347E-05-2.85193E-05-2.86350E-05-1.83570E-07 1.62215E-18 9.80007E-19
 -1      2387 9.53633E-05-2.84686E-05-2.86704E-05-3.14891E-07 7.56552E-19 4.93053E-20
 -1      2388 9.53143E-05-2.85261E-05-2.86218E-05-1.35252E-07 1.07375E-18 9.25488E-19
 -1      2389 9.52915E-05-2.85305E-05-2.86117E-05-9.96532E-08 8.42529E-19 1.15815E-18
 -1      2390 9.53153E-05-2.84933E-05-2.86389E-05-1.92224E-07 1.31790E-18 1.24919E-18
 -1      2391 9.52779E-05-2.85367E-05-2.86022E-05-6.57102E-08 6.51603E-19 1.65386E-18
 -1      2392 9.52648E-05-2.85417E-05-2.85955E-05-4.15432E-08 4.05450E-19 1.61692E-18
 -1      2393 9.52831E-05-2.85145E-05-2.86158E-05-1.04112E-07 6.71239E-19 1.58687E-18
 -1      2394 9.52563E-05-2.85477E-05-2.85887E-05-1.90094E-08-1.11895E-19 2.33939E-18
 -1      2395 9.52499E-05-2.85530E-05-2.85843E-05-4.39860E-09-2.57528E-19 2.17673E-18
 -1      2396 9.52624E-05-2.85328E-05-2.85989E-05-4.35892E-08 5.35729E-19 1.36107E-18
 -1      2397 5.81097E-05-3.62712E-05-9.12574E-06 4.07913E-05 2.25311E-19 4.12632E-18
 -1      2398 4.38405E-05-2.93299E-05-5.81505E-06 3.39812E-05 6.45016E-19 3.21957E-18
 -1      2399 9.54007E-05-2.79574E-05-2.88859E-05-2.40375E-06 5.28750E-19 1.09106E-18
 -1      2400 9.51217E-05-2.77810E-05-2.88340E-05-1.89840E-06 6.27129E-19 1.33798E-18
 -1      2401 9.60675E-05-2.82634E-05-2.90414E-05-3.36558E-06 4.81499E-19 7.04553E-19
 -1      2402 9.55705E-05-2.80706E-05-2.89130E-05-2.95893E-06 5.86926E-19 9.19398E-19
 -1      2403 9.57810E-05-2.78139E-05-2.91449E-05-2.97239E-06 7.84463E-19 3.66781E-19
 -1      2404 9.70574E-05-2.86046E-05-2.93200E-05-4.19165E-06 4.13610E-19 6.22463E-19
 -1      2405 9.63814E-05-2.83815E-05-2.91334E-05-3.83144E-06 3.72255E-19 5.22198E-19
 -1      2406 9.62812E-05-2.80995E-05-2.92343E-05-4.09616E-06 5.92318E-19 1.99893E-19
 -1      2407 9.83322E-05-2.90145E-05-2.96919E-05-4.94531E-06 5.99008E-19 8.13425E-19
 -1      2408 9.75000E-05-2.87467E-05-2.94597E-05-4.61181E-06 3.46007E-19 6.82345E-19
 -1      2409 9.70443E-05-2.83904E-05-2.94347E-05-5.07112E-06 3.04234E-19 4.76499E-20
 -1      2410 9.98709E-05-2.95326E-05-3.01323E-05-5.62765E-06 2.04547E-19 1.07443E-18
 -1      2411 9.88977E-05-2.92014E-05-2.98657E-05-5.33080E-06 6.16662E-19 1.11177E-18
 -1      2412 9.80545E-05-2.87464E-05-2.97140E-05-5.95705E-06 3.61273E-19 5.39123E-19
 -1      2413 1.01662E-04-3.02118E-05-3.06148E-05-6.17195E-06 6.14444E-19 8.43373E-19
 -1      2414 1.00565E-04-2.97930E-05-3.03271E-05-5.95567E-06 4.84785E-19 1.20322E-18
 -1      2415 9.93168E-05-2.92374E-05-3.00444E-05-6.74448E-06 3.78643E-19 7.59554E-19
 -1      2416 1.03692E-04-3.11193E-05-3.11067E-05-6.42977E-06 3.86898E-19 7.53099E-19
 -1      2417 1.02501E-04-3.05858E-05-3.08166E-05-6.37917E-06 4.98396E-19 8.64166E-19
 -1      2418 1.00859E-04-2.99561E-05-3.03987E-05-7.34681E-06 6.85415E-19 5.63604E-19
 -1      2419 1.05935E-04-3.23236E-05-3.15680E-05-6.15861E-06 6.46693E-19 7.02539E-19
 -1      2420 1.04704E-04-3.16557E-05-3.13007E-05-6.40372E-06 4.98884E-19 7.05013E-19
 -1      2421 1.02734E-04-3.10191E-05-3.07492E-05-7.58506E-06 3.79982E-19 4.59149E-19
 -1      2422 1.08319E-04-3.38513E-05-3.19561E-05-5.03086E-06-1.83455E-19 1.00302E-18
 -1      2423 1.07148E-04-3.30645E-05-3.17415E-05-5.73393E-06 3.84434E-19 1.31581E-18
 -1      2424 1.05004E-04-3.25436E-05-3.10721E-05-7.17490E-06 1.08730E-19 1.15093E-18
 -1      2425 1.10672E-04-3.55887E-05-3.22407E-05-2.70223E-06-3.28348E-19 1.02025E-18
 -1      2426 1.09729E-04-3.47888E-05-3.21059E-05-4.00624E-06-3.74802E-19 9.83488E-19
 -1      2427 1.07700E-04-3.45730E-05-3.13602E-05-5.73729E-06-2.29855E-19 9.59539E-19
 -1      2428 1.12628E-04-3.71326E-05-3.24298E-05 9.89889E-07-2.92379E-19 1.45242E-18
 -1      2429 1.12165E-04-3.65794E-05-3.23846E-05-9.18322E-07-4.20568E-19 1.30784E-18
 -1      2430 1.10711E-04-3.69098E-05-3.16443E-05-2.88103E-06-5.22939E-19 7.58893E-19
 -1      2431 1.13578E-04-3.76641E-05-3.25931E-05 5.70555E-06 1.04045E-18 1.58124E-18
 -1      2432 1.13900E-04-3.78151E-05-3.26153E-05 3.49340E-06 4.84417E-19 1.57610E-18
 -1      2433 1.13609E-04-3.89055E-05-3.20134E-05 1.55672E-06-6.78718E-20 1.01774E-18
 -1      2434 1.12740E-04-3.61162E-05-3.28460E-05 1.00493E-05 6.50501E-19 2.02266E-18
 -1      2435 1.14024E-04-3.73941E-05-3.28836E-05 8.35092E-06 1.10152E-18 2.18965E-18
 -1      2436 1.15424E-04-3.92528E-05-3.26108E-05 7.06869E-06 8.20510E-19 2.01855E-18
 -1      2437 1.09933E-04-3.21884E-05-3.32638E-05 1.17061E-05-2.52707E-19 1.75010E-18
 -1      2438 1.11926E-04-3.45033E-05-3.32658E-05 1.15915E-05 2.45889E-19 1.75687E-18
 -1      2439 1.15008E-04-3.66430E-05-3.35354E-05 1.17702E-05 3.75990E-19 2.52385E-18
 -1      2440 1.06285E-04-2.73504E-05-3.37572E-05 8.52325E-06-5.20290E-19 1.69523E-18
 -1      2441 1.08105E-04-2.96340E-05-3.37256E-05 1.06858E-05-6.80028E-19 1.47678E-18
 -1      2442 1.12087E-04-3.11227E-05-3.46961E-05 1.27056E-05-3.52260E-19 1.66359E-18
 -1      2443 1.04295E-04-2.47749E-05-3.40684E-05 9.34985E-07 5.80773E-19 1.11514E-18
 -1      2444 1.04863E-04-2.55085E-05-3.40481E-05 4.68359E-06 2.67279E-19 1.63715E-18
 -1      2445 1.08472E-04-2.53799E-05-3.56863E-05 7.68402E-06-2.02626E-20 1.68974E-18
 -1      2446 1.05719E-04-2.65594E-05-3.40012E-05-7.27812E-06 1.53228E-18 6.18327E-19
 -1      2447 1.04634E-04-2.51687E-05-3.40176E-05-3.87763E-06 1.19200E-18 6.44885E-19
 -1      2448 1.07240E-04-2.35020E-05-3.59987E-05-1.71384E-06 1.17206E-18 5.45409E-19
 -1      2449 1.09535E-04-3.13123E-05-3.36232E-05-1.17412E-05 1.26073E-18 2.01395E-19
 -1      2450 1.07508E-04-2.88536E-05-3.36386E-05-1.03227E-05 1.67128E-18 2.89467E-19
 -1      2451 1.09589E-04-2.70120E-05-3.54483E-05-1.01835E-05 1.68800E-18 1.47318E-19
 -1      2452 1.13047E-04-3.57422E-05-3.31905E-05-1.11099E-05-9.55394E-20-6.45906E-19
 -1      2453 1.11173E-04-3.37101E-05-3.31613E-05-1.18246E-05 5.77850E-19-8.50606E-20
 -1      2454 1.13358E-04-3.31428E-05-3.43557E-05-1.32465E-05 1.33087E-18-9.40273E-20
 -1      2455 1.14480E-04-3.77968E-05-3.28817E-05-7.12640E-06-6.89088E-19-1.50285E-18
 -1      2456 1.13443E-04-3.69184E-05-3.28240E-05-9.03546E-06-4.39107E-19-1.00690E-18
 -1      2457 1.15593E-04-3.78757E-05-3.32586E-05-1.07745E-05 2.45812E-19-1.34967E-18
 -1      2458 1.13832E-04-3.75754E-05-3.26749E-05-2.32910E-06-3.41573E-19-1.68421E-18
 -1      2459 1.13717E-04-3.76930E-05-3.26493E-05-4.41319E-06-4.42700E-19-1.74040E-18
 -1      2460 1.15239E-04-3.94144E-05-3.24784E-05-5.59371E-06-1.46047E-20-2.02221E-18
 -1      2461 1.11915E-04-3.61030E-05-3.24763E-05 1.62247E-06 4.60624E-19-1.08432E-18
 -1      2462 1.12477E-04-3.67470E-05-3.25270E-05-2.33419E-08-2.09813E-19-1.62975E-18
 -1      2463 1.13032E-04-3.83776E-05-3.20064E-05-3.99594E-07-1.92303E-19-2.38171E-18
 -1      2464 1.09523E-04-3.43192E-05-3.22173E-05 4.16604E-06 8.88908E-19-3.47997E-19
 -1      2465 1.10466E-04-3.51011E-05-3.23534E-05 3.13904E-06 8.80706E-19-5.15793E-19
 -1      2466 1.10124E-04-3.61826E-05-3.17125E-05 3.44688E-06 3.29502E-19-2.06191E-18
 -1      2467 1.07131E-04-3.27266E-05-3.18784E-05 5.41003E-06 3.93712E-19 1.20922E-18
 -1      2468 1.08225E-04-3.34424E-05-3.20822E-05 4.93367E-06 7.76167E-19 1.15161E-18
 -1      2469 1.07292E-04-3.39113E-05-3.14713E-05 5.69560E-06-1.20752E-20-3.57914E-19
 -1      2470 1.04948E-04-3.14834E-05-3.14787E-05 5.70571E-06 1.77496E-19 1.54769E-18
 -1      2471 1.06049E-04-3.20649E-05-3.17210E-05 5.62415E-06 5.55923E-19 1.36406E-18
 -1      2472 1.04854E-04-3.20629E-05-3.12137E-05 6.63027E-06 3.51914E-19 6.78326E-19
 -1      2473 1.03041E-04-3.05764E-05-3.10522E-05 5.41109E-06 6.71632E-19 8.96362E-20
 -1      2474 1.04067E-04-3.10224E-05-3.13051E-05 5.57041E-06 5.74365E-19 9.66964E-19
 -1      2475 1.02856E-04-3.07332E-05-3.09225E-05 6.66378E-06 1.11723E-18 1.05996E-18
 -1      2476 1.01417E-04-2.99361E-05-3.06316E-05 4.80589E-06 4.89499E-19-2.84383E-19
 -1      2477 1.02327E-04-3.02687E-05-3.08740E-05 5.08749E-06 6.53493E-19-4.17617E-19
 -1      2478 1.01243E-04-2.98453E-05-3.06081E-05 6.16224E-06 6.66766E-19 6.87933E-19
 -1      2479 1.00059E-04-2.94899E-05-3.02410E-05 4.07967E-06-2.36026E-19 6.58597E-19
 -1      2480 1.00836E-04-2.97348E-05-3.04600E-05 4.40432E-06-3.71206E-20 2.85502E-19
 -1      2481 9.99411E-05-2.92803E-05-3.02904E-05 5.39591E-06 1.13254E-19 1.57458E-19
 -1      2482 9.89401E-05-2.91801E-05-2.98946E-05 3.34787E-06 1.72179E-19 6.67349E-19
 -1      2483 9.95863E-05-2.93590E-05-3.00841E-05 3.66827E-06 4.85836E-20 8.63989E-19
 -1      2484 9.88893E-05-2.89325E-05-2.99875E-05 4.54293E-06-2.43093E-19 1.46997E-18
 -1      2485 9.80338E-05-2.89652E-05-2.95985E-05 2.67333E-06 9.22157E-19 2.60330E-19
 -1      2486 9.85579E-05-2.90950E-05-2.97568E-05 2.96456E-06 6.73802E-19 3.96317E-19
 -1      2487 9.80409E-05-2.87243E-05-2.97124E-05 3.70993E-06 4.60525E-19 1.50334E-18
 -1      2488 9.73112E-05-2.88165E-05-2.93527E-05 2.08482E-06 9.51426E-19 6.47515E-19
 -1      2489 9.77271E-05-2.89097E-05-2.94814E-05 2.33619E-06 1.37510E-18 9.75225E-19
 -1      2490 9.73604E-05-2.86036E-05-2.94720E-05 2.95385E-06 7.68738E-19 5.73566E-19
 -1      2491 9.67447E-05-2.87144E-05-2.91539E-05 1.59050E-06 1.88218E-19 9.63310E-19
 -1      2492 9.70681E-05-2.87805E-05-2.92559E-05 1.79977E-06 6.05599E-19 1.26752E-19
 -1      2493 9.68199E-05-2.85368E-05-2.92685E-05 2.29948E-06 1.34655E-18 6.61683E-19
 -1      2494 9.63083E-05-2.86455E-05-2.89966E-05 1.18702E-06-2.68813E-19 2.79933E-19
 -1      2495 9.65548E-05-2.86914E-05-2.90758E-05 1.35651E-06-5.40075E-19 7.45915E-19
 -1      2496 9.63959E-05-2.85030E-05-2.91007E-05 1.75220E-06 5.86757E-19 3.65840E-19
 -1      2497 9.59784E-05-2.86003E-05-2.88749E-05 8.65254E-07-1.31951E-18-2.86108E-19
 -1      2498 9.61623E-05-2.86313E-05-2.89350E-05 9.99459E-07 1.83150E-19 5.86649E-19
 -1      2499 9.60681E-05-2.84891E-05-2.89656E-05 1.30651E-06-2.44704E-19 7.38027E-19
 -1      2500 9.57342E-05-2.85719E-05-2.87826E-05 6.13759E-07-1.22312E-18 2.31626E-19
 -1      2501 9.58682E-05-2.85920E-05-2.88272E-05 7.17955E-07-2.15543E-18-1.86895E-19
 -1      2502 9.58190E-05-2.84872E-05-2.88592E-05 9.51497E-07-1.45329E-18-3.81412E-20
 -1      2503 9.55576E-05-2.85555E-05-2.87142E-05 4.20804E-07-3.50295E-19 7.07532E-19
 -1      2504 9.56527E-05-2.85676E-05-2.87465E-05 5.00228E-07-4.19824E-19 8.50457E-19
 -1      2505 9.56334E-05-2.84920E-05-2.87771E-05 6.74188E-07-9.31467E-19-2.98625E-19
 -1      2506 9.54337E-05-2.85474E-05-2.86647E-05 2.75443E-07 9.88540E-19 1.01979E-18
 -1      2507 9.54988E-05-2.85539E-05-2.86875E-05 3.34884E-07 2.97438E-19 7.36699E-19
 -1      2508 9.54980E-05-2.85005E-05-2.87150E-05 4.61518E-07-1.28374E-20 1.45382E-18
 -1      2509 9.53498E-05-2.85450E-05-2.86300E-05 1.68069E-07 1.66945E-18 1.86869E-18
 -1      2510 9.53924E-05-2.85476E-05-2.86454E-05 2.11663E-07 1.18221E-18 1.63924E-18
 -1      2511 9.54019E-05-2.85108E-05-2.86690E-05 3.01412E-07 3.46212E-19 9.11000E-19
 -1      2512 9.52958E-05-2.85466E-05-2.86063E-05 9.06430E-08 1.82320E-18 3.67590E-18
 -1      2513 9.53219E-05-2.85464E-05-2.86163E-05 1.21794E-07 1.77785E-18 3.28724E-18
 -1      2514 9.53358E-05-2.85216E-05-2.86358E-05 1.83330E-07 4.74756E-19 2.79488E-18
 -1      2515 9.52635E-05-2.85508E-05-2.85908E-05 3.67951E-08 2.35586E-18 3.10996E-18
 -1      2516 9.52777E-05-2.85487E-05-2.85969E-05 5.81341E-08 2.36809E-18 4.14958E-18
 -1      2517 9.52924E-05-2.85324E-05-2.86122E-05 9.84990E-08 1.86871E-18 4.35235E-18
 -1      2518 9.52465E-05-2.85572E-05-2.85809E-05 1.69762E-09 1.17719E-18 2.59535E-18
 -1      2519 9.52525E-05-2.85536E-05-2.85845E-05 1.50365E-08 1.72678E-18 3.23313E-18
 -1      2520 9.52652E-05-2.85431E-05-2.85958E-05 4.00662E-08 1.75031E-18 4.39894E-18
 -1      2521 9.52395E-05-2.85655E-05-2.85745E-05-1.72694E-08 2.71286E-19 3.53674E-18
 -1      2522 9.52406E-05-2.85607E-05-2.85766E-05-1.08214E-08 9.42870E-19 3.60940E-18
 -1      2523 9.52504E-05-2.85551E-05-2.85842E-05 2.37859E-09 5.68734E-19 4.84113E-18
 -1      2524 9.52375E-05-2.85709E-05-2.85711E-05-2.21893E-08-5.52761E-19 3.09586E-18
 -1      2525 9.52237E-05-2.85159E-05-2.85894E-05 2.10982E-08 7.37616E-19 1.77821E-18
 -1      2526 9.52288E-05-2.85222E-05-2.85883E-05 1.93528E-08 6.54286E-19-8.10306E-19
 -1      2527 9.52126E-05-2.85001E-05-2.85914E-05 1.84854E-08 5.24267E-19-2.33282E-19
 -1      2528 9.52171E-05-2.85053E-05-2.85906E-05 2.00973E-08 7.46405E-19 7.18664E-19
 -1      2529 9.52121E-05-2.84826E-05-2.85981E-05 2.88458E-08 1.33214E-18 8.34065E-19
 -1      2530 9.52445E-05-2.85516E-05-2.85828E-05 4.17831E-09-5.39521E-19 3.02265E-18
 -1      2531 9.52458E-05-2.85556E-05-2.85813E-05-1.89908E-09-6.78982E-19 5.56289E-18
 -1      2532 9.52355E-05-2.85343E-05-2.85865E-05 1.59913E-08-1.17705E-18-1.22298E-18
 -1      2533 9.52397E-05-2.85402E-05-2.85852E-05 1.12939E-08-1.42876E-18 1.49964E-18
 -1      2534 9.52412E-05-2.85298E-05-2.85905E-05 1.68882E-08-1.21358E-18 1.42446E-18
 -1      2535 9.52276E-05-2.85058E-05-2.85949E-05 2.71588E-08 1.02559E-19 6.30367E-19
 -1      2536 9.52054E-05-2.84900E-05-2.85926E-05 9.57697E-09-9.37276E-19-1.50138E-18
 -1      2537 9.52080E-05-2.84929E-05-2.85922E-05 1.36778E-08-3.54117E-19-1.70268E-18
 -1      2538 9.51990E-05-2.84644E-05-2.86002E-05 2.16795E-08 8.47061E-20-1.26772E-18
 -1      2539 9.52037E-05-2.84875E-05-2.85928E-05-2.41910E-09-6.12375E-19-1.31128E-18
 -1      2540 9.52038E-05-2.84875E-05-2.85928E-05 2.59132E-09-1.07945E-18-6.70504E-19
 -1      2541 9.51916E-05-2.84544E-05-2.86012E-05 8.05450E-09-2.71336E-19-1.39732E-18
 -1      2542 9.52080E-05-2.84930E-05-2.85922E-05-1.34984E-08-9.17394E-19-1.63385E-18
 -1      2543 9.52054E-05-2.84900E-05-2.85926E-05-9.40372E-09-8.65615E-19-1.57027E-18
 -1      2544 9.51916E-05-2.84545E-05-2.86012E-05-7.91078E-09 5.41010E-20-1.39914E-18
 -1      2545 9.52169E-05-2.85051E-05-2.85906E-05-1.98721E-08 1.07652E-18-1.42193E-18
 -1      2546 9.52125E-05-2.85000E-05-2.85914E-05-1.82407E-08-3.20862E-19-2.38292E-18
 -1      2547 9.51989E-05-2.84644E-05-2.86001E-05-2.14496E-08 4.62041E-19-1.99708E-18
 -1      2548 9.52285E-05-2.85220E-05-2.85883E-05-1.92704E-08 1.84421E-18-2.74687E-19
 -1      2549 9.52234E-05-2.85157E-05-2.85894E-05-2.09407E-08 1.08676E-18-1.49050E-18
 -1      2550 9.52119E-05-2.84824E-05-2.85981E-05-2.86326E-08 2.00866E-18-1.97755E-18
 -1      2551 9.52395E-05-2.85403E-05-2.85852E-05-1.11374E-08-4.34255E-21 3.82154E-19
 -1      2552 9.52354E-05-2.85341E-05-2.85865E-05-1.60230E-08 7.22499E-19 2.06700E-19
 -1      2553 9.52273E-05-2.85055E-05-2.85949E-05-2.69533E-08 3.32533E-19-1.00466E-18
 -1      2554 9.52458E-05-2.85560E-05-2.85812E-05 1.97084E-09-1.78494E-18-7.84916E-20
 -1      2555 9.52444E-05-2.85515E-05-2.85828E-05-4.34451E-09-1.66425E-18 1.13052E-18
 -1      2556 9.52407E-05-2.85298E-05-2.85905E-05-1.68797E-08-2.07434E-18-7.71317E-19
 -1      2557 9.52422E-05-2.85696E-05-2.85737E-05 1.82312E-08-3.44486E-19 9.35384E-19
 -1      2558 2.06272E-05-1.78503E-05-8.60337E-07-9.59281E-06 3.10173E-19 1.11681E-18
 -1      2559 2.87636E-05-2.15483E-05-2.81018E-06-2.40910E-05 3.51307E-19 2.62792E-18
 -1      2560 9.51165E-05-2.76433E-05-2.88962E-05-1.17111E-06 7.68570E-19 1.38299E-18
 -1      2561 9.51202E-05-2.74590E-05-2.89525E-05-4.65988E-07 8.48636E-19 1.45775E-18
 -1      2562 9.55727E-05-2.74609E-05-2.92087E-05-1.56491E-06 8.08466E-19 5.89756E-19
 -1      2563 9.60943E-05-5.20591E-05-1.88125E-05 4.04165E-05 2.42675E-19 4.23530E-18
 -1      2564 7.76349E-05-4.58378E-05-1.34260E-05 4.09714E-05-2.46275E-19 4.68616E-18
 -1      2565 4.45177E-05-3.11234E-05-5.47131E-06-3.60713E-05 8.74773E-19 4.84228E-18
 -1      2566 6.05289E-05-3.91453E-05-9.15227E-06-4.22169E-05 1.09500E-18 3.91986E-18
 -1      2567 9.54305E-05-2.00521E-05-3.23504E-05-1.08586E-05-1.86728E-18-9.04194E-19
 -1      2568 9.59388E-05-2.33985E-05-3.11156E-05-7.03506E-06-1.75254E-18-6.88579E-19
 -1      2569 9.54794E-05-2.24536E-05-3.12703E-05-6.55086E-06-1.57144E-18-9.65474E-19
 -1      2570 9.35348E-05-1.75435E-05-3.25675E-05-1.04247E-05-1.78180E-18-1.46566E-18
 -1      2571 1.24897E-04-5.75139E-05-2.90939E-05 2.75489E-05 1.46854E-18-5.90594E-19
 -1      2572 1.09990E-04-5.62660E-05-2.30403E-05 3.35235E-05 3.43472E-19 2.15443E-18
 -1      2573 1.08424E-04-5.60267E-05-2.21392E-05 3.35452E-05-2.07205E-19 1.44634E-18
 -1      2574 1.01065E-04-5.38653E-05-2.03515E-05 3.95112E-05 4.01917E-19-3.76003E-19
 -1      2575 8.24147E-05-4.80062E-05-1.44901E-05 4.12258E-05 3.69942E-19-1.14746E-18
 -1      2576 1.28492E-04-5.74331E-05-3.05513E-05-2.33108E-05 3.71530E-19-2.14723E-19
 -1      2577 1.38528E-04-5.48874E-05-3.61955E-05-1.34664E-05 9.23160E-19 9.26231E-19
 -1      2578 8.70878E-05-9.84810E-06-3.31383E-05-1.27766E-06 3.26984E-19-2.35585E-18
 -1      2579 8.72484E-05-1.00076E-05-3.31353E-05-2.25827E-06 2.12836E-20-2.34662E-18
 -1      2580 8.85565E-05-1.20328E-05-3.27943E-05-2.42420E-06-9.10234E-20-2.14177E-18
 -1      2581 8.81809E-05-1.15956E-05-3.28214E-05-7.67595E-07 3.51761E-19-2.14979E-18
 -1      2582 1.44341E-04-4.59870E-05-4.22910E-05-1.43682E-06 1.85654E-18 1.10114E-18
 -1      2583 1.47781E-04-3.61073E-05-4.83069E-05 4.34590E-06 2.63427E-18 7.63812E-19
 -1      2584 1.44658E-04-1.19394E-05-5.71904E-05 2.82185E-06 3.56770E-18-1.72901E-19
 -1      2585 1.42538E-04-1.07478E-05-5.70843E-05-6.71909E-07 3.78666E-18-1.08592E-18
 -1      2586 2.89105E-05-2.42995E-05-1.75622E-06-2.40524E-05-1.58723E-18-5.63044E-18
 -1      2587 4.11461E-05-2.82583E-05-5.26383E-06-3.37412E-05-1.85776E-18-4.52824E-18
 -1      2588 1.45928E-04-2.35879E-05-5.27180E-05 7.24691E-06 2.78970E-18 5.13514E-19
 -1      2589 1.46825E-04-1.70957E-05-5.60484E-05 5.45679E-06 3.64478E-18 4.35587E-19
 -1      2590 1.36236E-04-1.37203E-05-5.28043E-05 6.22921E-06 3.14376E-18 2.04347E-19
 -1      2591 1.03743E-04-5.49312E-05-2.07632E-05-3.61827E-05-2.14172E-18-2.11674E-18
 -1      2592 1.18182E-04-5.71480E-05-2.63148E-05-3.24570E-05-8.22893E-19-1.27817E-18
 -1      2593 1.26313E-04-5.97290E-05-2.83521E-05-2.30631E-05-1.61593E-18-5.95041E-20
 -1      2594 1.85173E-05-1.74806E-05-1.34277E-07-1.16121E-06-6.39397E-19-5.33504E-18
 -1      2595 2.15012E-05-1.98979E-05-4.77647E-07-1.45041E-05-9.81394E-19-5.81361E-18
 -1      2596 3.20172E-05-1.83508E-05-5.29169E-06-1.87496E-05-1.53858E-18-5.05785E-18
 -1      2597 3.07350E-05-2.40434E-05-2.69443E-06 2.75044E-05 4.76880E-19-3.85908E-18
 -1      2598 2.12765E-05-1.94616E-05-5.23217E-07 1.31019E-05 5.77359E-19-4.10472E-18
 -1      2599 6.17535E-05-3.86583E-05-9.84238E-06 4.23094E-05 2.22770E-19-1.90455E-18
 -1      2600 4.55798E-05-3.21344E-05-5.51783E-06 3.57657E-05 9.80864E-19-2.79309E-18
 -1      2601 1.30302E-04-5.78034E-05-3.13681E-05 2.34575E-05 4.33787E-19 1.26324E-18
 -1      2602 1.18229E-04-5.77520E-05-2.58126E-05 2.93938E-05 7.37342E-19 9.44865E-19
 -1      2603 7.94853E-05-4.73759E-05-1.36794E-05-4.11301E-05 1.52297E-18 1.92401E-18
 -1      2604 1.00113E-04-5.31641E-05-2.03413E-05-3.99894E-05 1.53144E-18 6.86441E-19
 -1      2605 7.82326E-05-4.42592E-05-1.41462E-05-4.08322E-05 2.14088E-18 1.95368E-18
 -1      2606 1.45189E-04-4.60707E-05-4.29944E-05 2.74655E-06-3.11814E-19 1.41751E-18
 -1      2607 1.38609E-04-5.32852E-05-3.66876E-05 1.17972E-05 7.28448E-20 1.23307E-18
 -1      2608 1.35998E-04-5.71025E-05-3.36586E-05 1.11578E-05 1.44837E-18 2.70129E-18
 -1      2609 1.43981E-04-1.17116E-05-5.72235E-05-2.61534E-06-4.87891E-18-6.37922E-20
 -1      2610 1.45768E-04-1.53377E-05-5.62148E-05-5.10596E-06-4.52104E-18 2.35687E-19
 -1      2611 1.41394E-04-1.33812E-05-5.55087E-05 4.95509E-06-4.71924E-18-4.54433E-19
 -1      2612 1.43359E-04-1.09025E-05-5.71617E-05 1.38183E-06-5.19104E-18-6.11200E-19
 -1      2613 1.41614E-04-5.08279E-05-3.89366E-05-9.46328E-06-2.12989E-18-1.49205E-18
 -1      2614 1.45954E-04-4.49111E-05-4.38296E-05-3.23898E-06-2.18111E-18-2.47969E-18
 -1      2615 1.19073E-04-5.68652E-05-2.65712E-05-2.89884E-05 6.97955E-19 8.69479E-19
 -1      2616 1.33823E-04-5.57802E-05-3.37610E-05-2.15885E-05-5.84029E-19 7.17437E-19
 -1      2617 1.37347E-04-5.60516E-05-3.47810E-05-1.07693E-05-4.38816E-19-1.65034E-18
 -1      2618 9.68201E-05-2.51840E-05-3.07215E-05 6.82077E-06 1.75688E-18 2.33754E-18
 -1      2619 9.78137E-05-2.38621E-05-3.17130E-05 9.96066E-06 1.93817E-18 2.65029E-18
 -1      2620 9.62668E-05-2.13830E-05-3.21488E-05 1.10868E-05 2.14634E-18 1.82349E-18
 -1      2621 9.63750E-05-2.41922E-05-3.09700E-05 6.71975E-06 1.85507E-18 1.22813E-18
 -1      2622 1.44909E-04-4.99140E-05-4.09664E-05 9.80515E-06 3.23138E-18-2.51759E-18
 -1      2623 1.35932E-04-5.51410E-05-3.47609E-05 1.53562E-05 2.20398E-18-2.34903E-18
 -1      2624 1.42972E-04-4.87519E-05-4.03789E-05-9.75903E-07 2.65317E-18-3.10332E-18
 -1      2625 1.41049E-04-3.07399E-05-4.75973E-05 1.00152E-05 2.18047E-18 1.19559E-18
 -1      2626 9.05538E-05-1.44444E-05-3.26122E-05-5.81497E-06-9.90014E-19-2.31710E-18
 -1      2627 8.96031E-05-1.27790E-05-3.29842E-05-7.05035E-06-1.05285E-18-2.46352E-18
 -1      2628 9.04255E-05-1.37062E-05-3.29440E-05-8.19321E-06-1.30150E-18-2.35058E-18
 -1      2629 9.56762E-05-2.69070E-05-2.94890E-05 3.58903E-07 1.06901E-18 7.59372E-19
 -1      2630 9.46126E-05-1.91118E-05-3.24021E-05 1.07271E-05 2.23489E-18 8.51453E-19
 -1      2631 1.32077E-04-5.88828E-05-3.12365E-05 1.71203E-05 1.26377E-18-1.83340E-18
 -1      2632 3.91121E-05-2.44692E-05-5.90078E-06 2.92143E-05 4.42786E-19 2.93222E-18
 -1      2633 3.52539E-05-1.81207E-05-6.66595E-06 2.24951E-05 3.10649E-19 2.91231E-18
 -1      2634 5.13607E-05-2.61823E-05-1.04158E-05 3.18386E-05-5.05043E-20 3.62340E-18
 -1      2635 3.98650E-05-1.88252E-05-8.40639E-06-2.39455E-05 9.29195E-19 2.72787E-18
 -1      2636 4.12427E-05-2.53100E-05-6.34670E-06-3.02229E-05 1.13778E-18 4.31288E-18
 -1      2637 5.40184E-05-2.87087E-05-1.07058E-05-3.51394E-05 1.93875E-18 3.57681E-18
 -1      2638 7.59567E-05-4.19578E-05-1.42031E-05 3.95744E-05-1.18373E-19 4.68134E-18
 -1      2639 9.52431E-05-2.85670E-05-2.85756E-05-1.67418E-08-2.82386E-19 3.81350E-18
 -1      2640 9.52463E-05-2.85649E-05-2.85776E-05-1.15170E-08-3.36877E-19 5.26492E-18
 -1      2641 1.13954E-04-5.70726E-05-2.41334E-05-3.14341E-05 1.61000E-18 9.02672E-19
 -1      2642 9.52439E-05-2.85625E-05-2.85776E-05 1.22129E-08-3.74826E-19 1.87418E-18
 -1      2643 9.52471E-05-2.85621E-05-2.85795E-05 8.28193E-09-5.64303E-19 6.27206E-19
 -1      2644 9.52481E-05-2.85469E-05-2.85860E-05-4.57035E-09-1.47157E-18 1.61435E-18
 -1      2645 9.52462E-05-2.85571E-05-2.85805E-05 5.57885E-09-4.81663E-19 2.04663E-18
 -1      2646 1.39662E-04-1.81384E-05-5.25190E-05 8.46377E-06-3.07981E-18-1.25191E-18
 -1      2647 1.29512E-04-1.39533E-05-5.00667E-05 8.47507E-06-3.57638E-18-7.14366E-19
 -1      2648 1.34437E-04-2.19855E-05-4.85147E-05 1.13879E-05-2.01700E-18-2.08127E-18
 -1      2649 2.32997E-05-1.58576E-05-2.69935E-06-1.18517E-06 7.99950E-19 2.32659E-18
 -1      2650 3.04961E-05-1.34825E-05-6.78159E-06-8.16398E-06 8.37954E-19 1.87766E-18
 -1      2651 2.77386E-05-1.36064E-05-5.53154E-06 8.07643E-06 1.08460E-18 3.39321E-18
 -1      2652 9.50488E-05-2.05336E-05-3.18916E-05 8.68215E-06 2.05324E-18 5.85101E-19
 -1      2653 7.79100E-05-4.34794E-05-1.43211E-05 4.05192E-05 1.34763E-18-7.29825E-19
 -1      2654 1.39769E-04-1.94701E-05-5.17967E-05-7.93489E-06-3.29708E-18 1.23815E-18
 -1      2655 1.13553E-04-5.73465E-05-2.38335E-05 3.13699E-05 1.88528E-18 1.60020E-18
 -1      2656 1.43355E-04-3.98423E-05-4.45889E-05 6.09289E-06-2.31452E-18-3.00104E-18
 -1      2657 2.73599E-05-1.56723E-05-4.42587E-06 6.62331E-06 3.83468E-19-4.43401E-18
 -1      2658 9.23243E-05-1.61570E-05-3.26761E-05-9.41794E-06-1.57526E-18-1.91052E-18
 -1      2659 1.36977E-04-5.60996E-05-3.44298E-05-6.02464E-06-2.94642E-19 1.59009E-18
 -1      2660 1.41838E-04-5.27526E-05-3.83991E-05-3.83450E-06 8.24719E-19 1.02936E-18
 -1      2661 1.38996E-04-4.74487E-05-3.96571E-05 5.86214E-06 6.69527E-19 1.23635E-18
 -1      2662 5.44328E-05-3.33797E-05-8.53344E-06-3.77091E-05-2.43670E-18-3.39512E-18
 -1      2663 6.73636E-05-3.80646E-05-1.26459E-05-3.95947E-05-3.30809E-18-2.48742E-18
 -1      2664 5.05143E-05-2.67605E-05-9.56379E-06-3.30848E-05-2.60293E-18-3.32397E-18
 -1      2665 1.44479E-04-2.93711E-05-4.95987E-05-8.72987E-06 3.03322E-18-2.32362E-18
 -1      2666 1.39152E-04-3.46187E-05-4.49286E-05-1.08880E-05 2.83788E-18-2.81109E-18
 -1      2667 1.35734E-04-2.28338E-05-4.92059E-05-1.21888E-05 2.96631E-18-1.71302E-18
 -1      2668 1.39013E-04-1.26550E-05-5.46017E-05-4.28380E-06 3.94760E-18-1.49046E-18
 -1      2669 1.32184E-04-1.40052E-05-5.11893E-05-8.37366E-06 3.66215E-18-1.95606E-18
 -1      2670 1.29172E-04-9.97208E-06-5.15237E-05-2.24483E-06 3.49274E-18-1.39043E-18
 -1      2671 9.72213E-05-5.26012E-05-1.87665E-05-3.87136E-05-2.94450E-18-1.81809E-18
 -1      2672 1.39178E-04-3.51740E-05-4.54239E-05-9.82213E-06-6.03617E-19 2.40706E-18
 -1      2673 1.44694E-04-4.13934E-05-4.44364E-05-3.52917E-06-4.38763E-19 1.81434E-18
 -1      2674 1.39947E-04-4.70247E-05-3.98422E-05-3.57227E-06 6.59362E-19 2.60431E-18
 -1      2675 4.45832E-05-2.59188E-05-7.44672E-06 3.11274E-05 1.68676E-18-2.95466E-18
 -1      2676 1.33096E-04-1.00684E-05-5.30599E-05-9.26154E-07-4.60024E-18 6.89538E-20
 -1      2677 9.52474E-05-2.85512E-05-2.85839E-05-4.30075E-10-5.55244E-19 5.24303E-18
 -1      2678 9.52520E-05-2.85484E-05-2.85878E-05-9.26127E-09-4.04674E-19 2.23997E-18
 -1      2679 8.96458E-05-1.39466E-05-3.24634E-05 2.54045E-06 1.21182E-18-1.76749E-18
 -1      2680 8.93533E-05-1.36014E-05-3.24874E-05 1.76550E-06 1.03973E-18-1.90482E-18
 -1      2681 8.91421E-05-1.33332E-05-3.25093E-05 1.13311E-06 8.34717E-19-1.94549E-18
 -1      2682 8.90404E-05-1.32148E-05-3.25169E-05 3.56564E-07 6.55661E-19-1.90618E-18
 -1      2683 9.01953E-05-1.50455E-05-3.21903E-05 1.20460E-06 8.66640E-19-1.79869E-18
 -1      2684 9.18889E-05-1.68598E-05-3.21899E-05 5.33113E-06 1.92765E-18-9.45944E-19
 -1      2685 9.11828E-05-1.59284E-05-3.22780E-05 4.56622E-06 1.77938E-18-1.10807E-18
 -1      2686 9.36711E-05-1.93995E-05-3.18700E-05 6.40067E-06 1.97672E-18-4.44929E-19
 -1      2687 9.27143E-05-1.80098E-05-3.20370E-05 5.83042E-06 1.90728E-18-7.15041E-19
 -1      2688 9.32156E-05-1.91399E-05-3.17228E-05 4.43951E-06 1.74972E-18-7.57527E-19
 -1      2689 9.58009E-05-2.52365E-05-3.02477E-05 2.60037E-06 1.29385E-18 4.54208E-19
 -1      2690 9.60213E-05-2.44154E-05-3.06559E-05 4.38114E-06 1.49928E-18 4.51789E-19
 -1      2691 8.90751E-05-4.70523E-05-1.81013E-05 3.86937E-05 1.75092E-18 9.53124E-19
 -1      2692 7.15033E-05-3.74859E-05-1.40496E-05 3.80522E-05 1.89111E-18-9.20725E-19
 -1      2693 1.39143E-04-4.55024E-05-4.07097E-05-7.14642E-06 2.47297E-18-2.44665E-18
 -1      2694 1.38024E-04-5.14813E-05-3.71289E-05-1.91313E-06 1.89812E-18-2.64994E-18
 -1      2695 9.57673E-05-2.64411E-05-2.97095E-05 5.87761E-09 1.04814E-18 2.54776E-19
 -1      2696 9.58792E-05-2.59654E-05-2.99271E-05 1.21852E-06 1.08915E-18 3.92928E-19
 -1      2697 9.56649E-05-2.46498E-05-3.04359E-05 2.22007E-06 1.32343E-18-1.03060E-19
 -1      2698 1.36102E-04-3.53302E-05-4.35515E-05 1.18854E-05 1.62556E-18 1.66029E-18
 -1      2699 1.33415E-04-2.45553E-05-4.73533E-05 1.24922E-05 2.31685E-18 1.28569E-18
 -1      2700 9.58009E-05-2.54867E-05-3.01090E-05-9.56917E-07-8.98367E-19-1.11247E-18
 -1      2701 9.57559E-05-2.60277E-05-2.98877E-05 2.53669E-07-8.02324E-19-1.14227E-18
 -1      2702 9.58034E-05-2.64671E-05-2.96951E-05 1.26318E-06-6.72264E-19-1.00922E-18
 -1      2703 9.58263E-05-2.67869E-05-2.95868E-05 2.15215E-06-5.88590E-19-9.91394E-19
 -1      2704 9.56405E-05-2.55676E-05-3.00381E-05 6.11227E-07-7.29589E-19-1.24624E-18
 -1      2705 9.58322E-05-2.70211E-05-2.94777E-05 2.94933E-06-4.15696E-19-7.46149E-19
 -1      2706 9.59565E-05-2.72293E-05-2.94488E-05 3.64124E-06-2.03508E-19-5.59576E-19
 -1      2707 9.57017E-05-2.63797E-05-2.97181E-05 2.50427E-06-3.91502E-19-8.62889E-19
 -1      2708 9.59743E-05-2.73579E-05-2.93999E-05 4.30195E-06-3.37247E-19-4.39754E-19
 -1      2709 9.62034E-05-2.75208E-05-2.94272E-05 4.87725E-06-4.64471E-19-6.00637E-19
 -1      2710 9.57381E-05-2.68342E-05-2.95384E-05 4.03184E-06-3.03258E-19-6.72894E-19
 -1      2711 9.62623E-05-2.76097E-05-2.94191E-05 5.45791E-06-3.57484E-19-6.30340E-19
 -1      2712 9.65977E-05-2.77789E-05-2.94842E-05 5.96057E-06-1.76386E-19-7.79503E-19
 -1      2713 9.58252E-05-2.71091E-05-2.94572E-05 5.32976E-06-4.76944E-19-6.46607E-19
 -1      2714 9.67257E-05-2.78869E-05-2.95003E-05 6.49226E-06-3.42359E-20-5.87776E-19
 -1      2715 9.71772E-05-2.81161E-05-2.95879E-05 6.93275E-06-7.06921E-20-6.28393E-19
 -1      2716 9.60183E-05-2.73465E-05-2.94381E-05 6.49010E-06-6.55494E-20-6.62307E-19
 -1      2717 9.74158E-05-2.83097E-05-2.96137E-05 7.41901E-06-3.12594E-19-3.97064E-19
 -1      2718 9.80075E-05-2.86640E-05-2.97103E-05 7.77340E-06-4.14181E-19-3.28791E-19
 -1      2719 9.63851E-05-2.76902E-05-2.94494E-05 7.55365E-06-1.53327E-19-7.01042E-20
 -1      2720 9.84241E-05-2.90273E-05-2.97339E-05 8.18562E-06-2.27847E-19-1.87847E-19
 -1      2721 9.91982E-05-2.95873E-05-2.98280E-05 8.39107E-06-9.98043E-20-9.51270E-20
 -1      2722 9.70321E-05-2.83117E-05-2.94646E-05 8.50463E-06-1.30610E-19 1.84003E-19
 -1      2723 9.98965E-05-3.02243E-05-2.98433E-05 8.65924E-06-1.36280E-19 3.35765E-19
 -1      2724 1.00910E-04-3.10788E-05-2.99287E-05 8.60818E-06-3.53041E-20 3.06172E-19
 -1      2725 9.81274E-05-2.94243E-05-2.94653E-05 9.25871E-06 4.00525E-20 2.59174E-20
 -1      2726 1.02032E-04-3.20995E-05-2.99417E-05 8.60459E-06-5.98613E-20-1.31087E-20
 -1      2727 1.03340E-04-3.33126E-05-3.00236E-05 8.14208E-06-1.69547E-20-2.26544E-20
 -1      2728 9.99154E-05-3.12742E-05-2.94521E-05 9.63917E-06-1.56635E-19 1.12373E-19
 -1      2729 1.05038E-04-3.47829E-05-3.00628E-05 7.66427E-06 1.19751E-19 1.04167E-20
 -1      2730 1.06642E-04-3.63184E-05-3.01673E-05 6.60035E-06 1.01675E-19 1.81631E-19
 -1      2731 1.02695E-04-3.40706E-05-2.94627E-05 9.33880E-06 1.24115E-19 2.97436E-19
 -1      2732 1.09006E-04-3.81529E-05-3.03000E-05 5.35083E-06 1.80326E-19 4.33148E-19
 -1      2733 1.10742E-04-3.97232E-05-3.04898E-05 3.52112E-06 3.68830E-19 7.53490E-19
 -1      2734 1.06736E-04-3.78333E-05-2.95976E-05 7.88200E-06 3.30833E-19 7.76640E-20
 -1      2735 1.13559E-04-4.14441E-05-3.08508E-05 1.14405E-06 1.77328E-19 6.70671E-19
 -1      2736 1.14962E-04-4.22519E-05-3.12223E-05-1.43411E-06 9.40612E-20 6.66486E-19
 -1      2737 1.11989E-04-4.19556E-05-3.00777E-05 4.54606E-06 3.52537E-19 3.02804E-19
 -1      2738 1.17468E-04-4.29003E-05-3.19551E-05-4.73315E-06-7.03434E-21 7.08311E-19
 -1      2739 1.17936E-04-4.19846E-05-3.25956E-05-7.51422E-06-6.00629E-19 8.27710E-19
 -1      2740 1.17404E-04-4.46692E-05-3.12327E-05-1.06221E-06-7.32187E-20 5.31702E-19
 -1      2741 1.18731E-04-3.99971E-05-3.38572E-05-1.11124E-05-5.46641E-19 1.07659E-18
 -1      2742 1.17510E-04-3.64766E-05-3.47676E-05-1.25458E-05-2.96541E-19 1.04336E-18
 -1      2743 1.21331E-04-4.35647E-05-3.33131E-05-8.42999E-06-2.40207E-19 1.31298E-18
 -1      2744 1.16173E-04-3.19862E-05-3.63143E-05-1.37154E-05-3.11285E-20 1.38157E-18
 -1      2745 1.13917E-04-2.69309E-05-3.72570E-05-1.23673E-05-4.40828E-19 1.79339E-18
 -1      2746 1.20528E-04-3.54097E-05-3.66606E-05-1.38595E-05-6.53274E-20 2.09257E-18
 -1      2747 1.11385E-04-2.21721E-05-3.85192E-05-8.96035E-06-1.26285E-18 1.76999E-18
 -1      2748 1.10062E-04-1.93016E-05-3.89997E-05-4.57214E-06-1.39258E-18 1.36601E-18
 -1      2749 1.16440E-04-2.39347E-05-3.97687E-05-1.20622E-05-8.44651E-19 2.50089E-18
 -1      2750 1.09614E-04-1.85509E-05-3.91708E-05 1.83496E-06-1.65246E-18 5.43436E-19
 -1      2751 1.10516E-04-2.03090E-05-3.88861E-05 6.74227E-06-1.17131E-18-1.43336E-19
 -1      2752 1.13098E-04-1.68580E-05-4.15241E-05-1.61208E-06-2.18063E-18 2.07587E-18
 -1      2753 1.12686E-04-2.43858E-05-3.78684E-05 1.12564E-05-2.57816E-19-9.63061E-19
 -1      2754 1.14865E-04-2.91573E-05-3.70187E-05 1.34889E-05-1.86890E-19-7.68110E-19
 -1      2755 1.15227E-04-2.11942E-05-4.04964E-05 1.00511E-05-1.39586E-18 1.16546E-19
 -1      2756 1.16980E-04-3.42049E-05-3.54550E-05 1.35437E-05-4.97592E-19-1.33833E-18
 -1      2757 1.18589E-04-3.84346E-05-3.44917E-05 1.25846E-05-4.21017E-19-1.59069E-18
 -1      2758 1.19801E-04-3.23035E-05-3.74908E-05 1.47580E-05-6.27016E-19-1.52488E-18
 -1      2759 1.18215E-04-4.09196E-05-3.31516E-05 9.38357E-06-8.34759E-19-1.98341E-18
 -1      2760 1.18195E-04-4.24996E-05-3.24549E-05 6.92800E-06-9.34019E-19-2.43727E-18
 -1      2761 1.21568E-04-4.16271E-05-3.43044E-05 1.08913E-05-9.28454E-19-2.75437E-18
 -1      2762 1.16033E-04-4.24968E-05-3.15925E-05 3.37446E-06-5.47817E-19-1.74045E-18
 -1      2763 1.14852E-04-4.20027E-05-3.11698E-05 7.24552E-07 1.99566E-19-1.88082E-18
 -1      2764 1.18710E-04-4.47950E-05-3.17742E-05 3.46836E-06-5.14586E-19-2.01857E-18
 -1      2765 1.12009E-04-4.04421E-05-3.07337E-05-1.89097E-06 1.02578E-18-1.85361E-18
 -1      2766 1.10340E-04-3.89762E-05-3.05190E-05-3.88348E-06 1.11524E-18-1.19335E-18
 -1      2767 1.13520E-04-4.27886E-05-3.03867E-05-2.80694E-06 5.93531E-19-1.07846E-19
 -1      2768 1.07823E-04-3.70972E-05-3.03472E-05-5.34415E-06 5.46429E-19-1.04364E-18
 -1      2769 1.06197E-04-3.55130E-05-3.02401E-05-6.54097E-06 4.12112E-19-4.33770E-19
 -1      2770 1.08071E-04-3.87585E-05-2.97778E-05-6.59937E-06 1.07836E-18 1.69990E-19
 -1      2771 1.04325E-04-3.39177E-05-3.01911E-05-7.13296E-06 2.02310E-19-8.23997E-19
 -1      2772 1.02975E-04-3.26118E-05-3.01203E-05-7.67276E-06-4.27507E-19-6.91685E-19
 -1      2773 1.03691E-04-3.47881E-05-2.95867E-05-8.36932E-06 1.20667E-19 2.86667E-19
 -1      2774 1.01714E-04-3.14678E-05-3.01094E-05-7.71371E-06-6.24189E-19 1.57746E-19
 -1      2775 1.00669E-04-3.05326E-05-3.00385E-05-7.79258E-06-1.63581E-19 2.39796E-19
 -1      2776 1.00597E-04-3.17010E-05-2.95648E-05-8.79787E-06-4.36743E-19 2.09334E-19
 -1      2777 9.98716E-05-2.98044E-05-3.00257E-05-7.51923E-06 2.75950E-19 5.23415E-19
 -1      2778 9.90845E-05-2.91955E-05-2.99428E-05-7.31103E-06 1.94654E-19 5.48515E-19
 -1      2779 9.85761E-05-2.96123E-05-2.95787E-05-8.43620E-06 1.26522E-19 4.37466E-19
 -1      2780 9.85983E-05-2.87817E-05-2.99144E-05-6.87884E-06-3.10825E-19 4.93443E-19
 -1      2781 9.80048E-05-2.84165E-05-2.98205E-05-6.51477E-06-8.65628E-20-1.04812E-19
 -1      2782 9.73183E-05-2.83486E-05-2.95713E-05-7.65282E-06 1.20815E-19 1.20898E-18
 -1      2783 9.77137E-05-2.82154E-05-2.97762E-05-6.02135E-06 3.70281E-19-3.19641E-19
 -1      2784 9.72608E-05-2.80157E-05-2.96770E-05-5.59214E-06 6.52242E-20-1.56529E-19
 -1      2785 9.65567E-05-2.76761E-05-2.95273E-05-6.67949E-06 2.05845E-20 4.57520E-19
 -1      2786 9.70862E-05-2.79467E-05-2.96218E-05-5.09679E-06-3.98698E-19-1.41716E-19
 -1      2787 9.67357E-05-2.78522E-05-2.95238E-05-4.66073E-06-3.04148E-19-3.78528E-19
 -1      2788 9.60996E-05-2.73895E-05-2.94510E-05-5.65896E-06-4.18428E-19 6.00796E-19
 -1      2789 9.66285E-05-2.78588E-05-2.94634E-05-4.19774E-06 8.97497E-20 2.49791E-19
 -1      2790 9.63546E-05-2.78275E-05-2.93717E-05-3.78923E-06-1.04140E-20 1.18578E-18
 -1      2791 9.58224E-05-2.73357E-05-2.93538E-05-4.67691E-06 4.95458E-20-2.65866E-20
 -1      2792 9.62861E-05-2.78729E-05-2.93112E-05-3.37644E-06-8.69257E-20 1.39729E-18
 -1      2793 9.60712E-05-2.78773E-05-2.92289E-05-3.01327E-06 1.74187E-19 1.75221E-18
 -1      2794 9.56495E-05-2.74103E-05-2.92470E-05-3.78150E-06-8.92738E-20 1.32265E-18
 -1      2795 9.60250E-05-2.79389E-05-2.91720E-05-2.65781E-06-8.56690E-21 8.20757E-19
 -1      2796 9.58568E-05-2.79615E-05-2.91007E-05-2.34690E-06 8.14154E-19 4.59889E-19
 -1      2797 9.55368E-05-2.75465E-05-2.91400E-05-2.99601E-06-6.35702E-19 4.93614E-19
 -1      2798 9.58239E-05-2.80264E-05-2.90494E-05-2.04916E-06 6.98455E-19-4.90635E-19
 -1      2799 9.56933E-05-2.80568E-05-2.89893E-05-1.79067E-06-2.36701E-19-1.02921E-18
 -1      2800 9.54596E-05-2.77040E-05-2.90393E-05-2.32741E-06-1.81179E-19-1.41759E-18
 -1      2801 9.56688E-05-2.81179E-05-2.89447E-05-1.54701E-06 9.27431E-20-1.61892E-18
 -1      2802 9.55685E-05-2.81501E-05-2.88955E-05-1.33724E-06 8.83293E-19-1.19315E-18
 -1      2803 9.54041E-05-2.78598E-05-2.89487E-05-1.77233E-06 1.84750E-19-2.22257E-18
 -1      2804 9.55498E-05-2.82042E-05-2.88578E-05-1.14191E-06 7.07549E-19-8.87481E-19
 -1      2805 9.54739E-05-2.82348E-05-2.88182E-05-9.75239E-07 4.63639E-20-8.92006E-19
 -1      2806 9.53627E-05-2.80021E-05-2.88699E-05-1.32138E-06 4.17984E-19-2.25556E-18
 -1      2807 9.54593E-05-2.82806E-05-2.87871E-05-8.21586E-07 1.70518E-19-6.58405E-19
 -1      2808 9.54029E-05-2.83081E-05-2.87560E-05-6.91715E-07 4.49755E-20-8.17917E-19
 -1      2809 9.53312E-05-2.81256E-05-2.88033E-05-9.62147E-07 7.17581E-20-2.56970E-18
 -1      2810 9.53916E-05-2.83459E-05-2.87309E-05-5.73053E-07-7.16865E-19-4.72704E-19
 -1      2811 9.53505E-05-2.83696E-05-2.87069E-05-4.73768E-07-7.45538E-19-8.60919E-19
 -1      2812 9.53069E-05-2.82292E-05-2.87484E-05-6.81255E-07-3.29690E-19-3.74749E-18
 -1      2813 9.53416E-05-2.84000E-05-2.86870E-05-3.83846E-07 2.78927E-19-5.81311E-19
 -1      2814 9.53125E-05-2.84201E-05-2.86688E-05-3.09467E-07 2.02029E-18-5.84377E-19
 -1      2815 9.52881E-05-2.83139E-05-2.87040E-05-4.65654E-07 4.76005E-19-8.53688E-19
 -1      2816 9.53056E-05-2.84441E-05-2.86532E-05-2.42774E-07 2.78809E-18 4.41132E-19
 -1      2817 9.52856E-05-2.84609E-05-2.86396E-05-1.88407E-07 1.71000E-18 1.87374E-18
 -1      2818 9.52737E-05-2.83818E-05-2.86686E-05-3.03427E-07 2.60908E-18-3.83695E-21
 -1      2819 9.52803E-05-2.84798E-05-2.86275E-05-1.40256E-07 6.13560E-19 1.96166E-18
 -1      2820 9.52672E-05-2.84940E-05-2.86174E-05-1.01787E-07 3.32231E-19 1.75167E-18
 -1      2821 9.52627E-05-2.84356E-05-2.86406E-05-1.84264E-07 1.43376E-18 1.15240E-18
 -1      2822 9.52632E-05-2.85094E-05-2.86079E-05-6.86307E-08 3.09670E-19 2.24031E-18
 -1      2823 9.52551E-05-2.85211E-05-2.86003E-05-4.32100E-08 6.26267E-19 1.92891E-18
 -1      2824 9.52545E-05-2.84790E-05-2.86186E-05-9.93686E-08 3.91781E-19 2.53016E-18
 -1      2825 1.06655E-04-5.45595E-05-2.19340E-05-3.28487E-05 2.39816E-18 9.59715E-19
 -1      2826 1.22042E-04-5.90039E-05-2.73880E-05-2.43699E-05 1.77993E-18 8.29404E-19
 -1      2827 9.59708E-05-2.75031E-05-2.93343E-05-3.36273E-06 7.07468E-19-8.85704E-22
 -1      2828 9.57987E-05-2.73085E-05-2.93368E-05-2.69775E-06 8.08360E-19 7.87999E-20
 -1      2829 9.76729E-05-2.83449E-05-2.97001E-05-6.61873E-06 1.08495E-19 3.13775E-19
 -1      2830 9.71106E-05-2.81271E-05-2.95623E-05-6.17110E-06 1.17623E-19 2.87687E-20
 -1      2831 9.86760E-05-2.88187E-05-2.99288E-05-7.49671E-06 4.06553E-19 5.06021E-19
 -1      2832 9.79805E-05-2.85025E-05-2.97742E-05-7.11429E-06 2.50906E-19 4.38371E-19
 -1      2833 9.69464E-05-2.78998E-05-2.95999E-05-7.36543E-06 5.86233E-20-1.14934E-19
 -1      2834 9.99855E-05-2.95899E-05-3.01638E-05-8.18525E-06 6.46011E-19 5.41255E-19
 -1      2835 9.91348E-05-2.91088E-05-3.00061E-05-7.92858E-06 6.04170E-19 4.92060E-19
 -1      2836 9.77114E-05-2.84034E-05-2.97144E-05-8.34491E-06 5.75515E-19 1.42840E-19
 -1      2837 1.01716E-04-3.08294E-05-3.03818E-05-8.50547E-06-1.02401E-20 8.38143E-19
 -1      2838 1.00676E-04-3.01039E-05-3.02337E-05-8.48312E-06 3.50054E-19 8.01977E-19
 -1      2839 9.88524E-05-2.93113E-05-2.98202E-05-9.13722E-06 3.19292E-19 4.64736E-19
 -1      2840 1.04018E-04-3.27156E-05-3.05724E-05-8.16993E-06-1.18533E-19 1.09783E-18
 -1      2841 1.02758E-04-3.16747E-05-3.04411E-05-8.54201E-06-7.09866E-20 1.12140E-18
 -1      2842 1.00568E-04-3.08548E-05-2.99043E-05-9.56009E-06-2.37270E-19 8.26299E-19
 -1      2843 1.07029E-04-3.53364E-05-3.07577E-05-6.78101E-06-3.65839E-19 1.04750E-18
 -1      2844 1.05552E-04-3.39792E-05-3.06353E-05-7.74543E-06-8.10434E-20 1.14825E-18
 -1      2845 1.03121E-04-3.32635E-05-2.99808E-05-9.30559E-06-1.77008E-20 9.58859E-19
 -1      2846 1.10719E-04-3.84524E-05-3.10222E-05-3.88156E-06-6.50630E-19 1.06215E-18
 -1      2847 1.09152E-04-3.69885E-05-3.08718E-05-5.61628E-06-6.42125E-19 1.09894E-18
 -1      2848 1.06764E-04-3.66228E-05-3.01179E-05-7.91388E-06-4.12795E-19 1.18370E-18
 -1      2849 1.14651E-04-4.12395E-05-3.15344E-05 7.86684E-07 1.04503E-19 1.24138E-18
 -1      2850 1.13326E-04-4.01833E-05-3.12842E-05-1.71843E-06-4.58655E-19 1.23267E-18
 -1      2851 1.11523E-04-4.05552E-05-3.04776E-05-4.79622E-06-6.72710E-19 1.22373E-18
 -1      2852 1.17546E-04-4.17077E-05-3.25580E-05 7.00049E-06 4.15109E-19 2.62759E-18
 -1      2853 1.17169E-04-4.22181E-05-3.21043E-05 4.14478E-06 1.57364E-19 1.99566E-18
 -1      2854 1.16855E-04-4.38017E-05-3.13475E-05 5.85648E-07-2.25157E-19 2.04772E-18
 -1      2855 1.17765E-04-3.79184E-05-3.42268E-05 1.23220E-05 5.92129E-19 2.98587E-18
 -1      2856 1.18692E-04-4.06233E-05-3.35496E-05 1.03964E-05 8.09425E-19 3.23952E-18
 -1      2857 1.20593E-04-4.34338E-05-3.30802E-05 7.65757E-06 2.23087E-19 3.09450E-18
 -1      2858 1.14514E-04-2.96079E-05-3.63563E-05 1.32694E-05-1.91694E-19 2.28353E-18
 -1      2859 1.16617E-04-3.41223E-05-3.55760E-05 1.40253E-05 2.25470E-19 2.61002E-18
 -1      2860 1.20898E-04-3.77284E-05-3.56645E-05 1.35630E-05 5.20806E-19 3.50494E-18
 -1      2861 1.10488E-04-2.17379E-05-3.80642E-05 6.74643E-06 3.18537E-19 1.80272E-18
 -1      2862 1.12058E-04-2.50601E-05-3.75673E-05 1.05962E-05-5.13646E-19 1.81031E-18
 -1      2863 1.16923E-04-2.67808E-05-3.87360E-05 1.33180E-05-1.42354E-19 2.72472E-18
 -1      2864 1.09880E-04-2.08167E-05-3.83537E-05-4.47587E-06 1.59046E-18 1.37100E-18
 -1      2865 1.09426E-04-2.00999E-05-3.84473E-05 5.27288E-07 1.49268E-18 1.79151E-18
 -1      2866 1.13242E-04-1.87182E-05-4.06614E-05 4.30658E-06 7.69582E-19 1.68456E-18
 -1      2867 1.13629E-04-2.79071E-05-3.70186E-05-1.28597E-05 2.52440E-18 6.11194E-19
 -1      2868 1.11550E-04-2.37818E-05-3.76480E-05-9.89404E-06 1.97324E-18 1.02786E-18
 -1      2869 1.14126E-04-2.08183E-05-4.01354E-05-8.07268E-06 2.01104E-18 1.08063E-18
 -1      2870 1.17798E-04-3.67418E-05-3.49206E-05-1.37220E-05 1.66719E-18-2.44836E-19
 -1      2871 1.15936E-04-3.25739E-05-3.56983E-05-1.39435E-05 2.43437E-18 2.39588E-19
 -1      2872 1.18582E-04-3.07515E-05-3.76797E-05-1.47380E-05 2.58144E-18 5.69497E-20
 -1      2873 1.18655E-04-4.15961E-05-3.30707E-05-8.79436E-06 3.31883E-19-1.80002E-18
 -1      2874 1.18197E-04-3.96732E-05-3.36599E-05-1.11222E-05 7.78844E-19-1.08317E-18
 -1      2875 1.21364E-04-4.02117E-05-3.47691E-05-1.26755E-05 2.02041E-18-5.40989E-19
 -1      2876 1.16200E-04-4.17392E-05-3.18793E-05-2.47586E-06-3.56190E-19-1.68457E-18
 -1      2877 1.16952E-04-4.18837E-05-3.22385E-05-5.25729E-06 1.06033E-19-1.89390E-18
 -1      2878 1.19718E-04-4.39877E-05-3.24851E-05-5.77186E-06 3.79237E-19-1.54387E-18
 -1      2879 1.12202E-04-3.91614E-05-3.12447E-05 2.67773E-06-2.78214E-19-8.73107E-19
 -1      2880 1.13600E-04-4.04114E-05-3.14383E-05 4.39018E-07-4.27580E-19-1.17769E-18
 -1      2881 1.15221E-04-4.28036E-05-3.10892E-05 9.25347E-07-7.54874E-19-1.36564E-18
 -1      2882 1.08214E-04-3.59146E-05-3.09355E-05 5.88621E-06 1.52028E-19-5.62212E-19
 -1      2883 1.09729E-04-3.73887E-05-3.10538E-05 4.46634E-06 3.58277E-19-6.22708E-19
 -1      2884 1.10046E-04-3.91812E-05-3.04365E-05 5.46449E-06-1.67822E-19 4.55413E-20
 -1      2885 1.04941E-04-3.31092E-05-3.07511E-05 7.40494E-06-6.96315E-19 7.69041E-19
 -1      2886 1.06298E-04-3.43643E-05-3.08564E-05 6.71519E-06-8.04168E-19-5.33151E-19
 -1      2887 1.05637E-04-3.53190E-05-3.01901E-05 7.85357E-06-5.26251E-19-2.65913E-19
 -1      2888 1.02476E-04-3.10657E-05-3.05849E-05 7.74640E-06 7.37519E-19 7.42632E-19
 -1      2889 1.03599E-04-3.19845E-05-3.07028E-05 7.58720E-06 2.93614E-19 1.31944E-18
 -1      2890 1.02397E-04-3.22461E-05-3.01019E-05 8.68882E-06-5.53407E-19 1.25611E-18
 -1      2891 1.00678E-04-2.97296E-05-3.03966E-05 7.36531E-06 1.06245E-18 9.89519E-19
 -1      2892 1.01582E-04-3.03432E-05-3.05308E-05 7.54137E-06 1.23684E-18 9.53893E-19
 -1      2893 1.00183E-04-3.01400E-05-3.00414E-05 8.54769E-06 5.43937E-19 1.22109E-18
 -1      2894 9.93644E-05-2.89271E-05-3.01838E-05 6.59805E-06 8.48238E-19 6.95571E-19
 -1      2895 1.00090E-04-2.93112E-05-3.03270E-05 6.95640E-06 9.77875E-19 8.33802E-19
 -1      2896 9.87176E-05-2.88504E-05-2.99564E-05 7.85640E-06 1.15568E-18 5.28830E-19
 -1      2897 9.83882E-05-2.84844E-05-2.99585E-05 5.66952E-06-3.57754E-19 1.72429E-19
 -1      2898 9.89720E-05-2.87120E-05-3.01014E-05 6.10419E-06 8.32157E-19 5.36457E-19
 -1      2899 9.77473E-05-2.81448E-05-2.98374E-05 6.90008E-06 1.04704E-18 4.88443E-19
 -1      2900 9.76464E-05-2.82669E-05-2.97354E-05 4.71952E-06-2.02512E-19 6.06670E-19
 -1      2901 9.81171E-05-2.83941E-05-2.98699E-05 5.16360E-06-8.27456E-19 1.39141E-19
 -1      2902 9.70895E-05-2.78167E-05-2.96932E-05 5.85922E-06-1.90244E-19-1.14942E-19
 -1      2903 9.70723E-05-2.81825E-05-2.95261E-05 3.82817E-06 4.38057E-19 1.21494E-18
 -1      2904 9.74509E-05-2.82477E-05-2.96471E-05 4.24333E-06-6.62357E-20 7.71283E-19
 -1      2905 9.66266E-05-2.77140E-05-2.95374E-05 4.84255E-06-4.57047E-19-3.58503E-19
 -1      2906 9.66236E-05-2.81722E-05-2.93382E-05 3.03594E-06 1.16306E-18 3.82173E-19
 -1      2907 9.69261E-05-2.82003E-05-2.94432E-05 3.40316E-06 1.22705E-18 1.12154E-18
 -1      2908 9.62880E-05-2.77357E-05-2.93823E-05 3.91077E-06 1.01640E-18 6.85086E-19
 -1      2909 9.62722E-05-2.82000E-05-2.91754E-05 2.35807E-06 1.51284E-18 3.43882E-20
 -1      2910 9.65112E-05-2.82069E-05-2.92638E-05 2.67058E-06 1.42896E-18 3.52814E-19
 -1      2911 9.60324E-05-2.78186E-05-2.92369E-05 3.09303E-06 1.55922E-18-1.96384E-19
 -1      2912 9.59982E-05-2.82450E-05-2.90385E-05 1.79465E-06 6.95727E-19-6.99795E-19
 -1      2913 9.61846E-05-2.82401E-05-2.91109E-05 2.05292E-06 1.11941E-18 4.15687E-19
 -1      2914 9.58355E-05-2.79256E-05-2.91065E-05 2.39823E-06 1.03619E-18-2.10066E-19
 -1      2915 9.57866E-05-2.82951E-05-2.89260E-05 1.33730E-06-6.74248E-19 4.27992E-19
 -1      2916 9.59297E-05-2.82843E-05-2.89841E-05 1.54574E-06-3.43114E-19-1.88510E-19
 -1      2917 9.56826E-05-2.80359E-05-2.89935E-05 1.82298E-06-1.17626E-19 1.61950E-19
 -1      2918 9.56255E-05-2.83439E-05-2.88358E-05 9.73562E-07-1.62456E-18 2.92168E-19
 -1      2919 9.57334E-05-2.83306E-05-2.88814E-05 1.13837E-06-6.29767E-19 9.51119E-19
 -1      2920 9.55641E-05-2.81386E-05-2.88984E-05 1.35705E-06-1.33378E-18 1.45527E-18
 -1      2921 9.55049E-05-2.83884E-05-2.87648E-05 6.89619E-07-1.29322E-18 1.36301E-18
 -1      2922 9.55846E-05-2.83746E-05-2.87999E-05 8.17506E-07-2.16792E-18 1.56703E-19
 -1      2923 9.54729E-05-2.82291E-05-2.88204E-05 9.86947E-07-1.74017E-18 1.78356E-18
 -1      2924 9.54164E-05-2.84272E-05-2.87101E-05 4.71916E-07 4.82018E-19 1.54091E-18
 -1      2925 9.54739E-05-2.84140E-05-2.87365E-05 5.69361E-07 1.18228E-19 1.63824E-18
 -1      2926 9.54037E-05-2.83058E-05-2.87576E-05 6.98257E-07-1.00352E-18 2.48474E-18
 -1      2927 9.53531E-05-2.84602E-05-2.86687E-05 3.08078E-07-9.44964E-20 1.59935E-18
 -1      2928 9.53934E-05-2.84481E-05-2.86882E-05 3.80915E-07 6.57962E-19 1.46572E-18
 -1      2929 9.53520E-05-2.83691E-05-2.87080E-05 4.77077E-07 7.19297E-19 2.54156E-18
 -1      2930 9.53090E-05-2.84879E-05-2.86378E-05 1.87384E-07 6.60950E-20 1.44950E-18
 -1      2931 9.53363E-05-2.84771E-05-2.86520E-05 2.40599E-07-1.01995E-18 4.70687E-19
 -1      2932 9.53141E-05-2.84205E-05-2.86696E-05 3.10816E-07 1.26473E-19 9.37580E-19
 -1      2933 9.52795E-05-2.85110E-05-2.86152E-05 1.00999E-07 1.82615E-18 3.59697E-18
 -1      2934 9.52971E-05-2.85014E-05-2.86253E-05 1.38627E-07 1.58006E-18 2.81889E-18
 -1      2935 9.52870E-05-2.84617E-05-2.86401E-05 1.88627E-07 1.23050E-19 4.78476E-19
 -1      2936 9.52612E-05-2.85308E-05-2.85986E-05 4.22067E-08 1.04610E-18 3.86225E-18
 -1      2937 9.52713E-05-2.85224E-05-2.86057E-05 6.68884E-08 1.36527E-18 4.33161E-18
 -1      2938 9.52680E-05-2.84947E-05-2.86176E-05 1.01521E-07 1.22185E-18 2.76442E-18
 -1      2939 9.52506E-05-2.85443E-05-2.85883E-05 1.05803E-08-3.43100E-19 5.40259E-18
 -1      2940 9.52558E-05-2.85357E-05-2.85937E-05 2.60570E-08 3.15148E-19 3.88606E-18
 -1      2941 9.52561E-05-2.85176E-05-2.86029E-05 4.92084E-08 8.59577E-19 3.41404E-18
 -1      2942 9.52490E-05-2.85338E-05-2.85927E-05 2.06074E-08-7.01484E-19 3.81737E-18
 -1      2943 9.51715E-05-2.84152E-05-2.86102E-05 6.56741E-09 4.54295E-19-4.88084E-19
 -1      2944 9.51739E-05-2.84177E-05-2.86099E-05 1.56427E-08 5.65672E-19-2.24929E-18
 -1      2945 9.52534E-05-2.85304E-05-2.85949E-05-2.77577E-08 4.01162E-19 1.93773E-18
 -1      2946 9.52498E-05-2.85381E-05-2.85907E-05-1.62888E-08-2.22313E-19 2.03527E-18
 -1      2947 9.52497E-05-2.85099E-05-2.86033E-05-4.89358E-08 4.30470E-19 1.89677E-18
 -1      2948 9.51960E-05-2.84469E-05-2.86073E-05 4.09738E-08 7.03254E-19 6.35067E-19
 -1      2949 9.52052E-05-2.84576E-05-2.86059E-05 4.33027E-08 7.02120E-19 1.68243E-18
 -1      2950 9.51739E-05-2.84179E-05-2.86099E-05-1.55805E-08 6.11261E-19-1.57400E-18
 -1      2951 9.51716E-05-2.84153E-05-2.86102E-05-6.51879E-09 6.24483E-19-1.30120E-18
 -1      2952 9.51538E-05-2.83744E-05-2.86191E-05-2.51402E-11 9.58660E-19-1.59041E-18
 -1      2953 9.51795E-05-2.84254E-05-2.86093E-05 2.71675E-08-8.23517E-19-3.22790E-18
 -1      2954 9.51861E-05-2.84327E-05-2.86085E-05 3.37995E-08 2.39096E-19-9.44808E-19
 -1      2955 9.51777E-05-2.84045E-05-2.86166E-05 4.87392E-08-1.64967E-19-1.11601E-18
 -1      2956 9.51601E-05-2.83822E-05-2.86185E-05 2.74883E-08 2.95045E-19-2.27737E-18
 -1      2957 8.79439E-05-4.51842E-05-1.82096E-05 3.73524E-05-1.13418E-18 3.01575E-18
 -1      2958 7.07999E-05-3.56372E-05-1.46001E-05 3.61983E-05-6.81226E-19 3.93002E-18
 -1      2959 9.51858E-05-2.84326E-05-2.86085E-05-3.34566E-08 7.81648E-19-1.57726E-18
 -1      2960 9.51794E-05-2.84255E-05-2.86093E-05-2.69085E-08 2.02437E-19-1.27151E-18
 -1      2961 9.51601E-05-2.83823E-05-2.86184E-05-2.73086E-08 3.66688E-19-1.78735E-18
 -1      2962 9.52049E-05-2.84574E-05-2.86059E-05-4.30842E-08 1.38279E-18-2.62053E-18
 -1      2963 9.51957E-05-2.84468E-05-2.86072E-05-4.06932E-08 1.61132E-18-2.40502E-18
 -1      2964 9.51775E-05-2.84044E-05-2.86165E-05-4.84018E-08 2.59420E-19-1.47188E-18
 -1      2965 9.52262E-05-2.84886E-05-2.86018E-05-4.13079E-08-5.03497E-19-2.36268E-18
 -1      2966 9.52171E-05-2.84760E-05-2.86038E-05-4.44319E-08 9.46817E-19-1.72559E-18
 -1      2967 9.52022E-05-2.84374E-05-2.86131E-05-5.85776E-08 8.51159E-19-2.71022E-18
 -1      2968 9.57874E-05-2.71051E-05-2.94294E-05-1.89972E-06 9.12026E-19 2.10045E-20
 -1      2969 9.57642E-05-2.68217E-05-2.95208E-05-1.03318E-06 9.26685E-19 2.40505E-19
 -1      2970 9.57642E-05-2.59904E-05-2.99124E-05-3.30564E-07 1.01588E-18-1.72327E-19
 -1      2971 9.58000E-05-2.67360E-05-2.96106E-05-2.27920E-06 8.85799E-19-3.55005E-19
 -1      2972 1.34719E-04-5.75681E-05-3.34924E-05 8.36755E-06 1.55711E-18-3.09193E-18
 -1      2973 1.26142E-04-5.88404E-05-2.86943E-05 1.80342E-05 7.52165E-19-1.89307E-18
 -1      2974 7.36362E-05-3.86161E-05-1.43938E-05-3.82240E-05 2.46360E-18 1.25837E-18
 -1      2975 8.95868E-05-4.72384E-05-1.81816E-05-3.89462E-05 2.49049E-18 8.31151E-19
 -1      2976 1.35809E-04-5.43989E-05-3.52915E-05 3.35201E-06 9.39935E-19 2.46418E-18
 -1      2977 1.30715E-04-5.80203E-05-3.09406E-05 1.22927E-05 1.49917E-18 2.29620E-18
 -1      2978 9.46000E-05-2.06675E-05-3.17192E-05-7.11031E-06-1.53093E-18-1.53219E-18
 -1      2979 9.50563E-05-2.24102E-05-3.11531E-05-5.16391E-06-1.42184E-18-1.37632E-18
 -1      2980 3.36379E-05-1.45864E-05-7.59767E-06-1.27042E-05-1.04021E-18-4.62755E-18
 -1      2981 4.02061E-05-1.88247E-05-8.71098E-06-2.31616E-05-1.65182E-18-4.37111E-18
 -1      2982 1.30290E-04-1.62909E-05-4.96160E-05-9.76265E-06-3.20115E-18 1.80640E-18
 -1      2983 1.36398E-04-2.46688E-05-4.81414E-05-1.19457E-05-1.96406E-18 2.18630E-18
 -1      2984 9.69065E-05-2.80331E-05-2.95050E-05-5.63918E-06 2.16619E-19 1.36981E-21
 -1      2985 9.64686E-05-2.78631E-05-2.93980E-05-5.14615E-06 3.90512E-19 2.07311E-20
 -1      2986 9.64303E-05-2.76135E-05-2.95010E-05-6.28629E-06 6.26964E-20-1.11005E-19
 -1      2987 9.63426E-05-2.77810E-05-2.93724E-05-4.57110E-06 6.59743E-19-7.18065E-21
 -1      2988 9.60319E-05-2.76185E-05-2.93110E-05-4.01715E-06 7.58997E-19 1.90180E-19
 -1      2989 9.60909E-05-2.74023E-05-2.94471E-05-5.12118E-06 5.88070E-19-1.53242E-19
 -1      2990 9.56086E-05-2.37967E-05-3.07598E-05-3.77012E-06-1.25002E-18-1.23667E-18
 -1      2991 9.56021E-05-2.47271E-05-3.03872E-05-2.10948E-06-1.06611E-18-1.16252E-18
 -1      2992 9.54050E-05-2.41735E-05-3.05236E-05-1.66586E-06-1.02998E-18-1.38110E-18
 -1      2993 9.47418E-05-2.19335E-05-3.11986E-05-4.27957E-06-1.31961E-18-1.66286E-18
 -1      2994 1.21440E-04-5.86350E-05-2.65363E-05-2.37551E-05-2.48954E-18-2.81109E-20
 -1      2995 1.29120E-04-5.94848E-05-3.01920E-05-1.69751E-05-1.24366E-18 1.21311E-18
 -1      2996 1.15510E-04-5.73078E-05-2.51369E-05 2.76243E-05-5.38184E-19-5.35371E-19
 -1      2997 1.03619E-04-5.24527E-05-2.15761E-05 3.24478E-05-1.08928E-18 1.06962E-18
 -1      2998 9.05589E-05-1.50971E-05-3.23662E-05 3.96602E-06 1.66642E-18-1.28586E-18
 -1      2999 9.00617E-05-1.44851E-05-3.24147E-05 3.16954E-06 1.41466E-18-1.52770E-18
 -1      3000 9.08228E-05-1.58412E-05-3.21164E-05 2.37052E-06 1.23956E-18-1.48946E-18
 -1      3001 9.18447E-05-1.71886E-05-3.19733E-05 3.48862E-06 1.50266E-18-1.08383E-18
 -1      3002 8.87444E-05-4.71948E-05-1.71925E-05-3.83941E-05-3.31486E-18-2.17079E-18
 -1      3003 1.06426E-04-5.46465E-05-2.24125E-05-3.36305E-05-2.99066E-18-9.36977E-19
 -1      3004 9.00255E-05-1.44409E-05-3.24178E-05-3.10695E-06-3.97593E-19-2.12688E-18
 -1      3005 9.05154E-05-1.50407E-05-3.23705E-05-3.90468E-06-6.55645E-19-2.16961E-18
 -1      3006 1.29115E-04-1.65909E-05-4.86673E-05 1.05095E-05 2.22389E-18 7.52377E-19
 -1      3007 1.26788E-04-1.25085E-05-4.97571E-05 4.89328E-06 2.48244E-18 1.99582E-20
 -1      3008 9.21627E-05-1.63840E-05-3.24857E-05-7.96280E-06-1.42099E-18-2.02788E-18
 -1      3009 1.19677E-04-5.83621E-05-2.66703E-05 2.45924E-05 1.83181E-18 2.16463E-18
 -1      3010 1.06442E-04-5.38217E-05-2.20524E-05 3.22003E-05 1.57358E-18 1.92977E-18
 -1      3011 1.24583E-04-1.03163E-05-4.96418E-05 1.68895E-06-4.22182E-18 1.48893E-19
 -1      3012 1.25988E-04-1.11493E-05-4.97712E-05-4.66360E-06-3.89296E-18 8.70406E-19
 -1      3013 1.38196E-04-4.38857E-05-4.04474E-05 7.48669E-06-1.80397E-18-2.65831E-18
 -1      3014 1.37592E-04-3.41617E-05-4.50441E-05 1.11109E-05-2.10636E-18-1.90889E-18
 -1      3015 9.52467E-05-2.85304E-05-2.85928E-05-2.11713E-08-1.54088E-18 3.66285E-19
 -1      3016 5.58966E-05-2.79503E-05-1.17324E-05 3.44462E-05 1.70455E-18-2.21076E-18
 -1      3017 4.33778E-05-1.99432E-05-9.43961E-06 2.49083E-05 1.63271E-18-2.96800E-18
 -1      3018 3.40320E-05-1.45298E-05-7.94362E-06 1.39724E-05 8.55874E-19-3.07452E-18
 -1      3019 3.14856E-05-1.27188E-05-7.51708E-06-7.48522E-07-6.47318E-20-3.74791E-18
 -1      3020 1.32271E-04-5.79489E-05-3.16654E-05-1.17638E-05 9.29830E-19-1.98470E-18
 -1      3021 1.36553E-04-5.41513E-05-3.60305E-05-2.96907E-06-8.53518E-19-3.56897E-18
 -1      3022 9.50912E-05-2.17960E-05-3.14162E-05 6.75588E-06 1.86882E-18 3.28454E-19
 -1      3023 9.11233E-05-1.58455E-05-3.22849E-05-4.51831E-06-7.93391E-19-2.15149E-18
 -1      3024 9.17807E-05-1.66831E-05-3.22052E-05-5.27197E-06-1.05031E-18-2.10794E-18
 -1      3025 9.17921E-05-1.71190E-05-3.19797E-05-3.45477E-06-7.17819E-19-1.94764E-18
 -1      3026 1.34983E-04-4.81340E-05-3.71854E-05 5.71996E-06-6.17699E-19-2.25480E-18
 -1      3027 8.99808E-05-1.47782E-05-3.22134E-05 3.11504E-08 4.90085E-19-1.73736E-18
 -1      3028 8.90365E-05-1.32109E-05-3.25172E-05-2.73971E-07 4.29731E-19-1.91561E-18
 -1      3029 8.91299E-05-1.33178E-05-3.25102E-05-1.05130E-06 1.86661E-19-1.96538E-18
 -1      3030 1.26180E-04-2.20919E-05-4.48901E-05 1.25075E-05 1.41624E-18 1.09887E-18
 -1      3031 6.92083E-05-3.22078E-05-1.53652E-05 3.32926E-05 1.99466E-18-1.06229E-18
 -1      3032 1.33788E-04-5.42386E-05-3.41991E-05 9.20820E-07 1.50699E-18-2.35015E-18
 -1      3033 1.36520E-04-4.23882E-05-4.07563E-05 1.07016E-05 1.19876E-18 1.52551E-18
 -1      3034 1.30364E-04-3.54930E-05-4.09229E-05 1.43160E-05 1.21369E-18 2.37577E-18
 -1      3035 1.34235E-04-4.65135E-05-3.75574E-05 7.95002E-06 3.90959E-19 1.41973E-18
 -1      3036 6.47214E-05-3.08116E-05-1.40884E-05 3.42453E-05-8.50633E-19 4.24342E-18
 -1      3037 5.82624E-05-2.46497E-05-1.38913E-05 2.92532E-05-1.08325E-18 3.35944E-18
 -1      3038 7.64928E-05-3.42970E-05-1.78408E-05 3.19176E-05-1.53795E-18 3.51460E-18
 -1      3039 1.25989E-04-5.75372E-05-2.92109E-05-1.58268E-05 1.76829E-18-1.45282E-18
 -1      3040 1.12614E-04-5.49947E-05-2.45107E-05-2.69263E-05-2.64020E-18-5.13130E-19
 -1      3041 3.70070E-05-1.50666E-05-8.68147E-06-1.63296E-05 6.26963E-19 1.07743E-18
 -1      3042 4.63561E-05-1.84922E-05-1.15467E-05-2.16896E-05 1.53625E-18 2.29355E-18
 -1      3043 3.72262E-05-1.27697E-05-9.99748E-06-8.34752E-06 1.05916E-18 2.49007E-18
 -1      3044 9.52025E-05-2.84376E-05-2.86132E-05 5.88634E-08 3.08148E-19 1.73840E-18
 -1      3045 9.52172E-05-2.84759E-05-2.86039E-05 4.43477E-08 9.11880E-19 1.89986E-18
 -1      3046 9.52266E-05-2.84882E-05-2.86019E-05 4.16470E-08-2.06127E-19 1.06105E-18
 -1      3047 1.01310E-04-5.02884E-05-2.15553E-05-3.20002E-05 2.43818E-18 9.31524E-19
 -1      3048 1.21921E-04-5.68718E-05-2.76915E-05 1.82369E-05-1.65171E-20-1.39305E-18
 -1      3049 9.58898E-05-2.71494E-05-2.94709E-05-3.82129E-06 7.20850E-19-2.58870E-19
 -1      3050 1.23617E-04-1.56335E-05-4.67142E-05-7.66639E-06-2.57794E-18 1.58268E-18
 -1      3051 4.62674E-05-1.70918E-05-1.18901E-05 1.79343E-05 1.01856E-18-2.57032E-18
 -1      3052 9.78633E-05-4.75160E-05-2.13023E-05 3.15092E-05-1.40719E-18 1.24583E-18
 -1      3053 9.52360E-05-2.85059E-05-2.85990E-05 3.64782E-08-3.83490E-19 8.49347E-19
 -1      3054 9.52430E-05-2.85177E-05-2.85963E-05 2.98401E-08-4.27621E-19 1.36775E-18
 -1      3055 9.52457E-05-2.85079E-05-2.86014E-05 4.22788E-08 3.73963E-19 1.25835E-18
 -1      3056 9.52273E-05-2.84743E-05-2.86081E-05 5.56829E-08 1.07863E-18 1.35407E-18
 -1      3057 3.94743E-05-1.34131E-05-1.05580E-05-5.54599E-06-3.56336E-19-3.59724E-18
 -1      3058 8.09911E-05-4.10497E-05-1.66550E-05-3.66219E-05-3.12979E-18-2.12605E-18
 -1      3059 9.52417E-05-2.85180E-05-2.85956E-05-2.89191E-08-1.43585E-18-1.26969E-18
 -1      3060 9.94852E-05-4.89812E-05-2.13166E-05 3.24023E-05 1.67691E-18 1.54793E-18
 -1      3061 1.31323E-04-2.83584E-05-4.44384E-05 1.34145E-05-2.08931E-18-1.76426E-18
 -1      3062 6.77756E-05-3.24396E-05-1.46711E-05-3.43265E-05 2.47249E-18 1.83287E-18
 -1      3063 3.77145E-05-1.55942E-05-8.89760E-06 1.42658E-05 8.30622E-19 2.88669E-18
 -1      3064 1.36484E-04-5.12896E-05-3.66862E-05-2.74830E-06 7.86788E-19 2.61373E-18
 -1      3065 1.32088E-04-5.25716E-05-3.39085E-05-6.77168E-07 9.85152E-19 2.43638E-18
 -1      3066 1.33969E-04-4.59848E-05-3.82349E-05-8.14792E-06 5.11502E-19 2.58753E-18
 -1      3067 1.24413E-04-5.69593E-05-2.88050E-05 1.55594E-05 1.61693E-18 1.81689E-18
 -1      3068 1.32773E-04-5.70980E-05-3.24447E-05-7.22702E-06-9.72817E-19 1.40136E-18
 -1      3069 4.96754E-05-1.90793E-05-1.26427E-05-2.25101E-05-1.43911E-18-3.08002E-18
 -1      3070 4.88899E-05-2.24553E-05-1.07273E-05-2.74995E-05-2.03235E-18-3.17531E-18
 -1      3071 5.83131E-05-2.68004E-05-1.34010E-05-3.14020E-05-2.32648E-18-2.27555E-18
 -1      3072 1.34008E-04-3.16687E-05-4.40191E-05-1.25213E-05-5.73759E-19 2.69092E-18
 -1      3073 9.28434E-05-1.80024E-05-3.20724E-05-6.31551E-06-1.24368E-18-1.98028E-18
 -1      3074 1.30583E-04-2.01372E-05-4.77300E-05-1.12042E-05 3.17140E-18-2.26825E-18
 -1      3075 8.93319E-05-1.35760E-05-3.24891E-05-1.68379E-06 4.31853E-20-1.87753E-18
 -1      3076 8.96194E-05-1.39144E-05-3.24654E-05-2.47379E-06-2.18947E-19-1.97735E-18
 -1      3077 9.07934E-05-1.58046E-05-3.21194E-05-2.31503E-06-3.21532E-19-1.85010E-18
 -1      3078 9.01839E-05-1.50308E-05-3.21916E-05-1.14302E-06 9.31958E-20-1.78214E-18
 -1      3079 1.23123E-04-1.24940E-05-4.78987E-05 1.69693E-06 2.16883E-18-8.56086E-19
 -1      3080 1.35182E-04-3.93279E-05-4.13958E-05-1.24760E-05 2.44125E-18-2.33506E-18
 -1      3081 9.52415E-05-2.84985E-05-2.86044E-05-4.93793E-08-1.10384E-18-2.25298E-18
 -1      3082 9.52336E-05-2.84963E-05-2.86019E-05-4.33479E-08-1.49146E-18-3.14308E-18
 -1      3083 9.52253E-05-2.84649E-05-2.86110E-05-6.29230E-08 4.71220E-20-4.08238E-18
 -1      3084 9.52436E-05-2.84848E-05-2.86101E-05-6.70045E-08-3.12248E-19-1.56670E-18
 -1      3085 9.46151E-05-2.11595E-05-3.14886E-05 5.97913E-06 1.80221E-18-1.03851E-19
 -1      3086 9.47880E-05-2.20384E-05-3.11684E-05 4.31475E-06 1.69132E-18-3.21873E-19
 -1      3087 9.41021E-05-2.10897E-05-3.13107E-05 3.49169E-06 1.55627E-18-7.35192E-19
 -1      3088 9.34029E-05-1.99629E-05-3.14800E-05 3.18569E-06 1.48952E-18-8.45738E-19
 -1      3089 1.25024E-04-1.31405E-05-4.85136E-05 6.69833E-06-3.74113E-18-5.45966E-19
 -1      3090 1.19130E-04-1.33685E-05-4.57737E-05 3.87668E-06-3.04667E-18 3.99323E-19
 -1      3091 7.97431E-05-3.62856E-05-1.85780E-05 3.29276E-05 1.69115E-18 4.96467E-19
 -1      3092 6.67553E-05-2.71600E-05-1.66411E-05 2.87746E-05 1.58046E-18-1.22237E-18
 -1      3093 9.54555E-05-2.56287E-05-2.99165E-05 1.94189E-06-3.55721E-19-1.13463E-18
 -1      3094 9.54689E-05-2.59702E-05-2.97871E-05 2.80557E-06-1.60186E-19-9.86663E-19
 -1      3095 9.54081E-05-2.62068E-05-2.96522E-05 3.55925E-06-2.30891E-19-9.04086E-19
 -1      3096 9.54295E-05-2.64035E-05-2.95802E-05 4.27362E-06-4.16588E-19-9.56569E-19
 -1      3097 9.50948E-05-2.55030E-05-2.98264E-05 3.05822E-06-1.76709E-19-1.24892E-18
 -1      3098 9.53130E-05-2.65096E-05-2.94853E-05 4.93615E-06-4.58297E-19-6.96496E-19
 -1      3099 9.53738E-05-2.66404E-05-2.94516E-05 5.55945E-06-4.11302E-19-7.91642E-19
 -1      3100 9.49220E-05-2.59109E-05-2.95781E-05 4.50522E-06-3.43620E-19-9.78440E-19
 -1      3101 9.52471E-05-2.66965E-05-2.93794E-05 6.17569E-06-1.68976E-19-7.08539E-19
 -1      3102 9.53767E-05-2.68349E-05-2.93669E-05 6.74301E-06 4.14591E-20-6.98991E-19
 -1      3103 9.46823E-05-2.61122E-05-2.93894E-05 5.80962E-06-2.35040E-19-7.80560E-19
 -1      3104 9.52887E-05-2.69221E-05-2.93010E-05 7.34357E-06 2.33529E-19-6.04669E-19
 -1      3105 9.55300E-05-2.71508E-05-2.92949E-05 7.86582E-06 3.42296E-20-3.22306E-19
 -1      3106 9.44662E-05-2.62792E-05-2.92265E-05 7.04945E-06 2.23110E-19-7.40516E-19
 -1      3107 9.55507E-05-2.73659E-05-2.92210E-05 8.46495E-06-2.17912E-19-1.39946E-19
 -1      3108 9.59731E-05-2.77882E-05-2.92091E-05 8.92577E-06 9.14048E-20-3.09541E-21
 -1      3109 9.43877E-05-2.66020E-05-2.90580E-05 8.27796E-06 1.48650E-19-5.27893E-19
 -1      3110 9.62112E-05-2.82545E-05-2.91172E-05 9.51592E-06 2.87498E-19 2.94791E-19
 -1      3111 9.69211E-05-2.90001E-05-2.90937E-05 9.86491E-06 1.05683E-21 2.41784E-19
 -1      3112 9.46189E-05-2.73165E-05-2.88583E-05 9.51704E-06 2.15441E-19 1.00773E-19
 -1      3113 9.75432E-05-2.98709E-05-2.89836E-05 1.04043E-05-1.83558E-19 6.09727E-19
 -1      3114 9.86871E-05-3.10873E-05-2.89557E-05 1.05436E-05 1.47399E-19 7.55567E-19
 -1      3115 9.54260E-05-2.87218E-05-2.86155E-05 1.07434E-05 1.54565E-19 5.06889E-19
 -1      3116 9.99361E-05-3.25311E-05-2.88488E-05 1.09161E-05 7.43313E-20 7.39475E-19
 -1      3117 1.01673E-04-3.43320E-05-2.88495E-05 1.06763E-05 5.85640E-20 8.73202E-19
 -1      3118 9.72133E-05-3.11868E-05-2.83484E-05 1.18471E-05 1.77041E-19 1.28410E-18
 -1      3119 1.03826E-04-3.64513E-05-2.88055E-05 1.06402E-05 1.24130E-19 8.63841E-19
 -1      3120 1.06262E-04-3.87945E-05-2.89068E-05 9.74428E-06 2.50134E-19 6.56671E-19
 -1      3121 1.00514E-04-3.50449E-05-2.81399E-05 1.25076E-05-8.48687E-21 8.45463E-19
 -1      3122 1.09638E-04-4.16305E-05-2.90460E-05 8.93172E-06 3.96987E-19 5.13682E-19
 -1      3123 1.12628E-04-4.40981E-05-2.94087E-05 6.90261E-06 3.49097E-19 3.15149E-19
 -1      3124 1.05844E-04-4.03973E-05-2.81614E-05 1.21961E-05 1.22138E-19 9.63063E-19
 -1      3125 1.16937E-04-4.64682E-05-3.00762E-05 4.27466E-06 3.29575E-19 5.38898E-19
 -1      3126 1.19476E-04-4.77252E-05-3.07605E-05 1.45485E-06-8.45577E-20 7.82824E-19
 -1      3127 1.13802E-04-4.66502E-05-2.88039E-05 9.74663E-06 4.22100E-19 8.12407E-19
 -1      3128 1.25663E-04-4.81041E-05-3.32942E-05-4.75422E-06 9.59132E-20 1.66377E-18
 -1      3129 1.26793E-04-4.49123E-05-3.52021E-05-9.17560E-06 3.10835E-19 2.12534E-18
 -1      3130 1.26265E-04-3.93375E-05-3.73377E-05-1.17020E-05 2.53422E-19 2.49570E-18
 -1      3131 1.15795E-04-1.45782E-05-4.38878E-05-4.92421E-06-2.45131E-18 1.56232E-18
 -1      3132 1.15662E-04-1.37160E-05-4.40667E-05 1.41933E-06-2.90543E-18 1.29096E-18
 -1      3133 1.24662E-04-3.12297E-05-4.03140E-05 1.39158E-05-1.14000E-18-1.58631E-18
 -1      3134 1.27280E-04-3.90741E-05-3.82984E-05 1.33075E-05-9.42854E-19-2.03518E-18
 -1      3135 1.21643E-04-4.80577E-05-3.15540E-05 1.22104E-06 2.49239E-19-1.22386E-18
 -1      3136 1.19034E-04-4.73872E-05-3.05670E-05-2.36363E-06 6.43221E-19-2.92928E-19
 -1      3137 1.14394E-04-4.50457E-05-2.97601E-05-5.25166E-06 8.44968E-19-4.65871E-19
 -1      3138 1.11411E-04-4.27452E-05-2.93074E-05-7.44542E-06 1.46247E-18 6.35572E-20
 -1      3139 1.15877E-04-4.77619E-05-2.93251E-05-7.76092E-06 1.31076E-18-7.55540E-19
 -1      3140 1.07720E-04-3.99441E-05-2.90586E-05-8.66667E-06 1.40952E-18 3.40089E-19
 -1      3141 1.05126E-04-3.74746E-05-2.89093E-05-9.73713E-06 8.62253E-19 5.37890E-19
 -1      3142 1.07616E-04-4.17899E-05-2.83327E-05-1.11669E-05 1.59158E-18-4.92483E-19
 -1      3143 1.02630E-04-3.51382E-05-2.89173E-05-9.88812E-06 1.02800E-19 8.57858E-19
 -1      3144 1.00712E-04-3.31601E-05-2.89032E-05-1.02109E-05-2.71933E-19 5.54384E-19
 -1      3145 1.01517E-04-3.60171E-05-2.81640E-05-1.19378E-05 7.33498E-19 5.02416E-19
 -1      3146 9.92198E-05-3.15215E-05-2.89987E-05-9.85142E-06-3.22715E-19 1.04613E-18
 -1      3147 9.79330E-05-3.01523E-05-2.90249E-05-9.73120E-06-1.83582E-19 1.34253E-18
 -1      3148 9.76537E-05-3.16836E-05-2.83298E-05-1.13332E-05-1.50294E-19 1.80199E-18
 -1      3149 9.71351E-05-2.91342E-05-2.91283E-05-9.16292E-06-4.10318E-19 1.67830E-18
 -1      3150 9.63234E-05-2.82845E-05-2.91503E-05-8.80191E-06 2.97925E-19 2.30086E-18
 -1      3151 9.54598E-05-2.88507E-05-2.85780E-05-1.01900E-05-6.71877E-21 2.77089E-18
 -1      3152 9.59620E-05-2.77298E-05-2.92295E-05-8.17189E-06-2.84465E-19 1.47542E-18
 -1      3153 9.54689E-05-2.72599E-05-2.92315E-05-7.69495E-06-5.23916E-19 6.97551E-19
 -1      3154 9.43638E-05-2.72002E-05-2.87997E-05-8.88243E-06-2.11003E-19 2.13405E-18
 -1      3155 9.53597E-05-2.70176E-05-2.92786E-05-7.07218E-06-3.75646E-19 9.29795E-20
 -1      3156 9.50658E-05-2.68009E-05-2.92598E-05-6.55612E-06-3.67918E-19 1.05277E-19
 -1      3157 9.39300E-05-2.63788E-05-2.89567E-05-7.58069E-06-9.13453E-19-3.80520E-19
 -1      3158 9.50897E-05-2.67530E-05-2.92780E-05-5.97350E-06-1.00019E-19 9.72399E-20
 -1      3159 9.49146E-05-2.66930E-05-2.92432E-05-5.46558E-06-4.63570E-19 3.28774E-19
 -1      3160 9.38639E-05-2.60928E-05-2.90461E-05-6.35678E-06-2.14030E-19-1.03495E-18
 -1      3161 9.49996E-05-2.67557E-05-2.92393E-05-4.93941E-06-6.39792E-19 4.60991E-19
 -1      3162 9.48932E-05-2.67855E-05-2.91949E-05-4.46765E-06 6.42900E-20 1.85502E-19
 -1      3163 9.39817E-05-2.61281E-05-2.90793E-05-5.24339E-06 1.42259E-20 6.23691E-19
 -1      3164 9.49980E-05-2.69034E-05-2.91764E-05-4.00516E-06-4.29822E-19 6.68641E-19
 -1      3165 9.49309E-05-2.69790E-05-2.91280E-05-3.58457E-06-6.56709E-19 3.00386E-19
 -1      3166 9.41749E-05-2.63379E-05-2.90713E-05-4.25534E-06-1.46723E-19-1.23097E-19
 -1      3167 9.50340E-05-2.71173E-05-2.91010E-05-3.18735E-06-1.04379E-18 9.91120E-19
 -1      3168 9.49894E-05-2.72115E-05-2.90528E-05-2.82413E-06-8.09807E-19 6.96425E-19
 -1      3169 9.43836E-05-2.66274E-05-2.90367E-05-3.39728E-06-6.68314E-19 6.28214E-19
 -1      3170 9.50807E-05-2.73500E-05-2.90221E-05-2.49007E-06-7.27644E-19 4.04993E-19
 -1      3171 9.50494E-05-2.74467E-05-2.89770E-05-2.18450E-06-7.01819E-19-1.10776E-18
 -1      3172 9.45778E-05-2.69382E-05-2.89869E-05-2.66704E-06-7.98215E-19 6.88458E-19
 -1      3173 9.51252E-05-2.75743E-05-2.89458E-05-1.90896E-06-4.46256E-19-1.36605E-18
 -1      3174 9.51022E-05-2.76647E-05-2.89054E-05-1.65764E-06 6.66455E-20-1.66301E-18
 -1      3175 9.47444E-05-2.72368E-05-2.89307E-05-2.05741E-06-4.41679E-19 4.24645E-19
 -1      3176 9.51624E-05-2.77763E-05-2.88759E-05-1.43449E-06 6.37649E-19-1.21777E-18
 -1      3177 9.51449E-05-2.78563E-05-2.88410E-05-1.23194E-06 8.01482E-19-1.18500E-18
 -1      3178 9.48801E-05-2.75057E-05-2.88740E-05-1.55774E-06 3.73182E-19-8.91211E-19
 -1      3179 9.51911E-05-2.79504E-05-2.88142E-05-1.05436E-06 4.08400E-19-1.28660E-18
 -1      3180 9.51776E-05-2.80185E-05-2.87848E-05-8.94160E-07-4.09276E-19-1.82545E-18
 -1      3181 9.49864E-05-2.77377E-05-2.88204E-05-1.15535E-06 4.71651E-19-7.16166E-19
 -1      3182 9.52118E-05-2.80957E-05-2.87615E-05-7.55275E-07-6.33874E-19-1.31603E-18
 -1      3183 9.52013E-05-2.81520E-05-2.87372E-05-6.30881E-07-1.30550E-19-1.42626E-18
 -1      3184 9.50669E-05-2.79315E-05-2.87720E-05-8.36842E-07 8.77011E-20-2.64492E-20
 -1      3185 9.52259E-05-2.82138E-05-2.87174E-05-5.24172E-07 7.51621E-19-4.35288E-19
 -1      3186 9.52176E-05-2.82594E-05-2.86978E-05-4.29395E-07 2.34237E-18 4.58374E-19
 -1      3187 9.51259E-05-2.80894E-05-2.87298E-05-5.89105E-07 1.08276E-18 2.20925E-19
 -1      3188 9.52346E-05-2.83081E-05-2.86812E-05-3.48940E-07 2.31138E-18-2.13430E-19
 -1      3189 9.52283E-05-2.83445E-05-2.86655E-05-2.78264E-07 1.71455E-18-7.05526E-19
 -1      3190 9.51678E-05-2.82155E-05-2.86938E-05-3.99861E-07 1.95545E-18-1.07379E-18
 -1      3191 9.52394E-05-2.83825E-05-2.86517E-05-2.19116E-07 1.11135E-18-7.27386E-19
 -1      3192 9.52348E-05-2.84114E-05-2.86393E-05-1.67888E-07 7.11851E-19-1.09025E-18
 -1      3193 9.51964E-05-2.83148E-05-2.86635E-05-2.58427E-07 1.63015E-18-1.96489E-18
 -1      3194 9.52428E-05-2.84397E-05-2.86289E-05-1.29960E-07 5.75762E-19-8.78696E-19
 -1      3195 9.52392E-05-2.84628E-05-2.86189E-05-9.38079E-08 5.93914E-19-9.96735E-19
 -1      3196 9.52288E-05-2.84506E-05-2.86198E-05-9.30253E-08-2.36694E-19-4.54585E-18
 -1      3197 9.52162E-05-2.83920E-05-2.86393E-05-1.60053E-07 6.22160E-19-3.20951E-18
 -1      3198 9.58780E-05-2.71042E-05-2.94653E-05-6.63147E-06-7.23312E-20-4.27479E-19
 -1      3199 9.56730E-05-2.69827E-05-2.94386E-05-6.05615E-06 2.48782E-19-4.03677E-19
 -1      3200 1.22763E-04-1.65549E-05-4.60092E-05 1.00355E-05-2.65968E-18-7.57036E-19
 -1      3201 9.61526E-05-2.73471E-05-2.94773E-05-7.77003E-06 1.72269E-19-4.81705E-19
 -1      3202 9.58429E-05-2.71579E-05-2.94377E-05-7.23622E-06-6.56961E-20-4.16440E-19
 -1      3203 9.50258E-05-2.65357E-05-2.93567E-05-7.02943E-06 6.31794E-20-8.53312E-19
 -1      3204 9.92500E-05-3.05875E-05-2.94149E-05-1.04246E-05-3.40066E-19 1.61343E-19
 -1      3205 9.81847E-05-2.95467E-05-2.94005E-05-1.02821E-05-2.32344E-19 4.66204E-20
 -1      3206 1.01940E-04-3.34242E-05-2.93575E-05-1.05086E-05-3.39175E-19 4.69444E-19
 -1      3207 1.00368E-04-3.18315E-05-2.93379E-05-1.07508E-05-3.08326E-19 1.53799E-19
 -1      3208 9.77044E-05-3.05881E-05-2.88069E-05-1.16191E-05-3.77567E-19-6.08260E-19
 -1      3209 1.06080E-04-3.74988E-05-2.93973E-05-9.54755E-06-6.54166E-19 7.53949E-19
 -1      3210 1.03882E-04-3.53273E-05-2.93165E-05-1.04185E-05-3.47594E-19 7.37173E-19
 -1      3211 1.00680E-04-3.40471E-05-2.86307E-05-1.21287E-05-4.98661E-19-3.45330E-19
 -1      3212 1.11824E-04-4.23138E-05-2.97655E-05-6.95077E-06-9.43406E-19 9.86305E-19
 -1      3213 1.09022E-04-3.99357E-05-2.95041E-05-8.65883E-06-8.43666E-19 1.00151E-18
 -1      3214 1.05404E-04-3.89535E-05-2.86325E-05-1.15078E-05-7.80964E-19 4.30147E-19
 -1      3215 1.18486E-04-4.68634E-05-3.08347E-05-1.67471E-06-5.38104E-19 1.81643E-18
 -1      3216 1.15906E-04-4.51707E-05-3.02059E-05-4.71248E-06-9.47932E-19 1.39872E-18
 -1      3217 1.12636E-04-4.47461E-05-2.92473E-05-8.86293E-06-1.17727E-18 9.70197E-19
 -1      3218 1.23608E-04-4.62952E-05-3.32275E-05 6.42215E-06 2.05220E-19 2.52463E-18
 -1      3219 1.23036E-04-4.77855E-05-3.20764E-05 3.12182E-06-3.30356E-19 2.26059E-18
 -1      3220 1.21937E-04-5.04752E-05-3.07897E-05-3.68942E-06-1.01926E-18 1.47721E-18
 -1      3221 1.24494E-04-3.63602E-05-3.78950E-05 1.38992E-05 6.01076E-19 3.18674E-18
 -1      3222 1.26212E-04-4.24587E-05-3.60801E-05 1.19059E-05 5.71085E-19 3.27880E-18
 -1      3223 1.15773E-04-1.51099E-05-4.35011E-05 2.92595E-06 1.25636E-18 6.75818E-19
 -1      3224 1.17240E-04-1.85342E-05-4.29391E-05 9.23600E-06 4.79421E-19 1.21473E-18
 -1      3225 1.19509E-04-1.82203E-05-4.39329E-05-1.01144E-05 2.97351E-18-1.49986E-18
 -1      3226 1.18058E-04-1.43868E-05-4.49052E-05-4.67947E-06 2.09259E-18-7.16166E-19
 -1      3227 1.26419E-04-3.35165E-05-4.02671E-05-1.46302E-05 2.51781E-18-1.26547E-18
 -1      3228 1.23675E-04-2.58642E-05-4.22401E-05-1.44109E-05 2.66794E-18-1.73234E-18
 -1      3229 1.27864E-04-4.63017E-05-3.50897E-05-8.90505E-06 2.05225E-18-1.32223E-18
 -1      3230 1.27152E-04-4.13497E-05-3.69058E-05-1.22089E-05 2.73523E-18-9.28560E-19
 -1      3231 1.13664E-04-4.34140E-05-2.99920E-05 5.69224E-06-1.40385E-18-6.24020E-19
 -1      3232 1.16364E-04-4.53884E-05-3.04709E-05 3.07424E-06-7.36178E-19-5.83758E-19
 -1      3233 1.07265E-04-3.82283E-05-2.94996E-05 8.87444E-06-3.17588E-19-4.67291E-20
 -1      3234 1.09817E-04-4.06358E-05-2.96769E-05 7.44341E-06-8.80051E-19-2.27491E-19
 -1      3235 1.10097E-04-4.28366E-05-2.89512E-05 9.75599E-06-1.08072E-18-6.54081E-19
 -1      3236 1.02616E-04-3.38484E-05-2.94181E-05 9.95451E-06-1.17648E-18 4.54905E-19
 -1      3237 1.04590E-04-3.58468E-05-2.94634E-05 9.37706E-06-6.74324E-19 1.93708E-19
 -1      3238 1.03632E-04-3.69584E-05-2.86655E-05 1.13605E-05-1.01316E-18 5.42766E-19
 -1      3239 9.95768E-05-3.07407E-05-2.94735E-05 9.82971E-06-4.37015E-19 1.73549E-18
 -1      3240 1.00955E-04-3.21463E-05-2.94812E-05 9.79996E-06-9.45246E-19 1.24620E-18
 -1      3241 9.94015E-05-3.24475E-05-2.87542E-05 1.13174E-05-1.16020E-18 1.77413E-18
 -1      3242 9.77327E-05-2.87955E-05-2.95330E-05 9.07138E-06 1.11907E-18 9.51469E-19
 -1      3243 9.86472E-05-2.96766E-05-2.95475E-05 9.36152E-06 8.92432E-19 1.43699E-18
 -1      3244 9.69009E-05-2.94433E-05-2.89446E-05 1.04665E-05 9.24122E-20 2.29195E-18
 -1      3245 9.66698E-05-2.77165E-05-2.95492E-05 8.02252E-06 1.02558E-18 3.34932E-19
 -1      3246 9.72680E-05-2.82127E-05-2.95836E-05 8.47824E-06 8.79054E-19 2.15599E-19
 -1      3247 9.55689E-05-2.76795E-05-2.91125E-05 9.28825E-06 1.17317E-18 5.95355E-19
 -1      3248 9.60781E-05-2.72138E-05-2.95160E-05 6.87879E-06 8.70509E-19 6.52512E-19
 -1      3249 9.64749E-05-2.74552E-05-2.95689E-05 7.40064E-06 1.22222E-18 1.00167E-18
 -1      3250 9.49451E-05-2.67872E-05-2.92178E-05 8.01788E-06 9.67006E-19 2.18394E-19
 -1      3251 9.57546E-05-2.70635E-05-2.94439E-05 5.75293E-06 2.87502E-21 7.55144E-19
 -1      3252 9.60266E-05-2.71489E-05-2.95089E-05 6.27891E-06 8.24200E-19 1.41136E-18
 -1      3253 9.47170E-05-2.64529E-05-2.92583E-05 6.77156E-06 6.44732E-19 6.69713E-19
 -1      3254 9.55770E-05-2.71115E-05-2.93479E-05 4.70844E-06-4.08613E-19-1.56203E-19
 -1      3255 9.57714E-05-2.71081E-05-2.94178E-05 5.20189E-06-4.31174E-19-3.14291E-19
 -1      3256 9.46907E-05-2.64477E-05-2.92470E-05 5.60958E-06-3.83941E-20 1.53156E-18
 -1      3257 9.54762E-05-2.72588E-05-2.92414E-05 3.77828E-06 1.06975E-18-5.02553E-20
 -1      3258 9.56207E-05-2.72097E-05-2.93106E-05 4.21960E-06 2.41712E-19-3.51889E-19
 -1      3259 9.47544E-05-2.66184E-05-2.92004E-05 4.56349E-06 2.24325E-19 5.21369E-20
 -1      3260 9.54151E-05-2.74456E-05-2.91346E-05 2.97551E-06 1.08813E-18 1.35489E-19
 -1      3261 9.55254E-05-2.73767E-05-2.91991E-05 3.35654E-06 1.30116E-18-3.26485E-19
 -1      3262 9.48482E-05-2.68685E-05-2.91333E-05 3.64781E-06 4.34778E-19-7.75846E-20
 -1      3263 9.53744E-05-2.76375E-05-2.90342E-05 2.30021E-06 1.49424E-19 1.38249E-18
 -1      3264 9.54599E-05-2.75640E-05-2.90917E-05 2.62016E-06 6.57423E-19 8.32332E-19
 -1      3265 9.49425E-05-2.71405E-05-2.90574E-05 2.86541E-06 1.17536E-19 8.13825E-19
 -1      3266 9.53447E-05-2.78165E-05-2.89440E-05 1.74448E-06-9.71771E-19 2.09163E-18
 -1      3267 9.54113E-05-2.77464E-05-2.89936E-05 2.00697E-06-6.45240E-19 1.92013E-18
 -1      3268 9.50245E-05-2.74023E-05-2.89806E-05 2.21109E-06-7.39457E-19 2.81762E-18
 -1      3269 9.53216E-05-2.79741E-05-2.88659E-05 1.29604E-06-1.70597E-18 2.68913E-18
 -1      3270 9.53732E-05-2.79115E-05-2.89075E-05 1.50705E-06-1.11838E-18 2.63242E-18
 -1      3271 9.50903E-05-2.76378E-05-2.89081E-05 1.67450E-06-1.21173E-18 3.82022E-18
 -1      3272 9.53030E-05-2.81078E-05-2.88001E-05 9.40698E-07-1.44689E-18 7.71525E-19
 -1      3273 9.53426E-05-2.80540E-05-2.88341E-05 1.10718E-06-1.52580E-18 1.25141E-18
 -1      3274 9.51405E-05-2.78405E-05-2.88429E-05 1.24242E-06-1.17331E-18 1.30270E-18
 -1      3275 9.52878E-05-2.82180E-05-2.87458E-05 6.64013E-07-4.59295E-19 3.99924E-19
 -1      3276 9.53178E-05-2.81731E-05-2.87732E-05 7.93043E-07-1.09596E-18 3.80727E-19
 -1      3277 9.51770E-05-2.80096E-05-2.87862E-05 9.00504E-07-8.23958E-19-7.89822E-19
 -1      3278 9.52755E-05-2.83069E-05-2.87020E-05 4.52382E-07 2.77336E-19 1.15037E-18
 -1      3279 9.52977E-05-2.82703E-05-2.87236E-05 5.50568E-07 3.56380E-20 7.52707E-19
 -1      3280 9.52025E-05-2.81472E-05-2.87382E-05 6.34580E-07-2.89867E-19-1.13596E-18
 -1      3281 9.52655E-05-2.83776E-05-2.86671E-05 2.93614E-07 1.41116E-19 1.04592E-18
 -1      3282 9.52817E-05-2.83481E-05-2.86839E-05 3.66828E-07 1.30836E-18 2.73342E-18
 -1      3283 9.52195E-05-2.82571E-05-2.86984E-05 4.31446E-07 1.78647E-19 6.71798E-19
 -1      3284 9.52577E-05-2.84334E-05-2.86396E-05 1.77379E-07 8.81790E-19 2.10325E-19
 -1      3285 9.52691E-05-2.84098E-05-2.86526E-05 2.30503E-07-1.11883E-19 8.60049E-19
 -1      3286 9.52301E-05-2.83438E-05-2.86659E-05 2.79289E-07 2.26087E-19 1.43142E-18
 -1      3287 9.52518E-05-2.84770E-05-2.86179E-05 9.55339E-08 1.01408E-18 3.21812E-20
 -1      3288 9.52595E-05-2.84586E-05-2.86279E-05 1.32136E-07 1.03015E-18 4.26854E-19
 -1      3289 9.52361E-05-2.84113E-05-2.86394E-05 1.68280E-07 1.14249E-18-5.96233E-19
 -1      3290 9.52462E-05-2.84969E-05-2.86067E-05 5.76755E-08 8.54075E-19 6.03827E-19
 -1      3291 9.52509E-05-2.84878E-05-2.86122E-05 7.56515E-08 8.45059E-19 1.08962E-18
 -1      3292 9.52376E-05-2.84540E-05-2.86218E-05 1.02570E-07 3.45707E-19-1.62714E-18
 -1      3293 9.52373E-05-2.84809E-05-2.86104E-05 6.59187E-08 5.41472E-19-4.12165E-19
 -1      3294 9.54047E-05-2.37630E-05-3.07058E-05 2.68715E-06 1.34271E-18-2.83880E-19
 -1      3295 9.46360E-05-2.20951E-05-3.10818E-05 3.22699E-06 1.47374E-18-4.84820E-19
 -1      3296 9.47494E-05-2.27228E-05-3.08651E-05 1.96809E-06 1.24885E-18-6.29323E-19
 -1      3297 9.54827E-05-2.46084E-05-3.03825E-05 1.20740E-06 1.10196E-18-3.17235E-19
 -1      3298 9.09628E-05-1.65871E-05-3.18903E-05 1.20817E-06 9.43205E-19-1.57154E-18
 -1      3299 9.07525E-05-1.63196E-05-3.19143E-05 6.73981E-07 6.61292E-19-1.65277E-18
 -1      3300 9.51271E-05-2.83284E-05-2.86284E-05-8.17498E-09 1.12978E-18-2.86222E-18
 -1      3301 9.51271E-05-2.83283E-05-2.86284E-05 7.95033E-09 1.21452E-18-1.17097E-18
 -1      3302 9.51978E-05-2.84157E-05-2.86209E-05-8.14799E-08-5.03555E-19-2.77588E-18
 -1      3303 9.51823E-05-2.83966E-05-2.86232E-05-7.93677E-08-4.99847E-22-2.35872E-18
 -1      3304 9.51387E-05-2.83416E-05-2.86274E-05-4.31043E-08-9.99456E-21-9.68340E-19
 -1      3305 9.51315E-05-2.83340E-05-2.86280E-05-2.89281E-08 4.98414E-19-2.69055E-18
 -1      3306 9.51052E-05-2.82821E-05-2.86376E-05-2.29708E-08 9.15969E-19-2.81955E-18
 -1      3307 1.23941E-04-5.53896E-05-2.95634E-05 1.13874E-05-5.10867E-21-1.66400E-18
 -1      3308 1.16096E-04-5.33671E-05-2.66135E-05 1.91369E-05-1.02850E-18-1.24001E-18
 -1      3309 1.22841E-04-4.74869E-05-3.23421E-05-3.94605E-06 8.79675E-19-9.61607E-19
 -1      3310 1.29040E-04-5.03987E-05-3.38980E-05-3.31226E-06 1.34826E-18-1.13614E-18
 -1      3311 1.26953E-04-5.42833E-05-3.10458E-05 4.84697E-06 1.83601E-19-1.15893E-18
 -1      3312 1.21028E-04-4.75278E-05-3.14520E-05-4.50562E-07 3.02351E-20-8.31416E-19
 -1      3313 9.51642E-05-2.83720E-05-2.86251E-05-6.96654E-08-4.68299E-19-2.05304E-18
 -1      3314 9.51511E-05-2.83578E-05-2.86264E-05-6.00582E-08-2.43824E-19-8.35539E-19
 -1      3315 9.51239E-05-2.83042E-05-2.86362E-05-6.46066E-08-7.16824E-19-7.26955E-19
 -1      3316 9.51571E-05-2.83451E-05-2.86333E-05-9.42328E-08-1.09713E-18-1.57322E-18
 -1      3317 9.76162E-05-2.88295E-05-2.94673E-05-9.77546E-06 1.66733E-20 5.13650E-20
 -1      3318 9.69128E-05-2.82074E-05-2.94401E-05-9.41557E-06 3.60987E-19 3.50761E-20
 -1      3319 9.60864E-05-2.84716E-05-2.90009E-05-1.06345E-05-7.67497E-20-3.64756E-19
 -1      3320 9.66737E-05-2.78457E-05-2.94858E-05-8.84034E-06 3.91132E-19-2.61128E-19
 -1      3321 9.62092E-05-2.74991E-05-2.94471E-05-8.36607E-06 2.74661E-19-3.76691E-19
 -1      3322 9.53189E-05-2.73159E-05-2.91559E-05-9.47449E-06 4.67181E-21-6.74485E-19
 -1      3323 1.20001E-04-1.88353E-05-4.37000E-05-1.08048E-05-1.67173E-18 2.23842E-18
 -1      3324 9.53421E-05-2.45766E-05-3.03190E-05-4.19370E-08-7.49415E-19-1.35713E-18
 -1      3325 9.54045E-05-2.51649E-05-3.01097E-05 1.04504E-06-5.80832E-19-1.26420E-18
 -1      3326 9.51042E-05-2.47095E-05-3.01697E-05 1.36908E-06-3.67563E-19-1.38368E-18
 -1      3327 4.27325E-05-1.23446E-05-1.27243E-05 6.32332E-08 1.14654E-19-2.59954E-18
 -1      3328 4.49802E-05-1.41726E-05-1.28134E-05-1.16417E-05-6.41747E-19-3.62615E-18
 -1      3329 1.21556E-04-2.42654E-05-4.19688E-05 1.29104E-05 5.32466E-19 2.09127E-18
 -1      3330 9.53878E-05-4.53442E-05-2.11732E-05-3.12527E-05 2.41256E-18 1.00935E-18
 -1      3331 1.09523E-04-5.29601E-05-2.43588E-05-2.69449E-05 2.13336E-18 2.72321E-19
 -1      3332 9.57451E-05-2.69433E-05-2.94795E-05-5.43012E-06 3.85015E-19-3.87701E-19
 -1      3333 9.56179E-05-2.68200E-05-2.94815E-05-4.80061E-06 5.28279E-19-3.14495E-19
 -1      3334 9.51302E-05-2.64171E-05-2.94520E-05-5.76893E-06 3.76689E-19-5.78277E-19
 -1      3335 9.56904E-05-2.67252E-05-2.95525E-05-4.11979E-06 7.32679E-19-3.98294E-19
 -1      3336 9.56254E-05-2.65387E-05-2.96009E-05-3.39500E-06 7.88444E-19-3.66591E-19
 -1      3337 9.52675E-05-2.62399E-05-2.95871E-05-4.42615E-06 5.77796E-19-5.44644E-19
 -1      3338 1.21886E-04-2.27209E-05-4.30812E-05 1.30671E-05-1.57008E-18-6.89644E-19
 -1      3339 1.28088E-04-4.67598E-05-3.49652E-05 6.59510E-06-5.40989E-19-2.28294E-18
 -1      3340 9.33345E-05-1.92222E-05-3.17599E-05-4.96642E-06-1.10297E-18-1.88785E-18
 -1      3341 1.28515E-04-5.67457E-05-3.03420E-05-8.98506E-06-1.25860E-18 1.23370E-18
 -1      3342 1.33394E-04-5.49127E-05-3.40646E-05-7.70300E-07-4.60402E-19 1.08240E-18
 -1      3343 5.36344E-05-1.91823E-05-1.45437E-05 2.16816E-05 1.31060E-18-2.04929E-18
 -1      3344 4.58072E-05-1.39105E-05-1.32036E-05 1.12266E-05 5.36053E-19-2.01266E-18
 -1      3345 1.26323E-04-5.56460E-05-3.06291E-05 8.48966E-06 1.03928E-18 1.48521E-18
 -1      3346 1.18279E-04-5.39458E-05-2.71123E-05 1.77612E-05 1.03606E-18 1.63451E-18
 -1      3347 1.27145E-04-5.01977E-05-3.30476E-05 2.78981E-06-2.51106E-19-2.04532E-18
 -1      3348 6.13625E-05-2.54990E-05-1.48686E-05-2.92967E-05 2.37556E-18 1.91927E-18
 -1      3349 7.73396E-05-3.49208E-05-1.80247E-05-3.25875E-05 2.83756E-18 1.52868E-18
 -1      3350 1.06018E-04-5.06114E-05-2.41035E-05 2.70155E-05 1.23280E-18 1.55155E-18
 -1      3351 9.28756E-05-4.33841E-05-2.08225E-05 3.13246E-05 1.66299E-18 1.13301E-18
 -1      3352 8.94030E-05-3.86113E-05-2.15065E-05 2.79293E-05 1.20702E-18 6.53698E-19
 -1      3353 7.18049E-05-3.37319E-05-1.57196E-05-3.44169E-05-2.52013E-18-2.29837E-18
 -1      3354 8.88717E-05-4.30306E-05-1.96646E-05-3.34935E-05-2.63268E-18-1.74224E-18
 -1      3355 1.19791E-04-5.58676E-05-2.71274E-05-1.90486E-05 1.85506E-18-6.49251E-19
 -1      3356 1.27534E-04-5.62924E-05-3.06906E-05-8.79238E-06 1.12207E-18-2.23077E-18
 -1      3357 1.22507E-04-2.60379E-05-4.19874E-05-1.37564E-05-7.93617E-19 2.28609E-18
 -1      3358 4.51938E-05-1.68473E-05-1.18032E-05 2.02354E-05-2.93285E-20 2.26507E-18
 -1      3359 3.90317E-05-1.25188E-05-1.08768E-05 6.83805E-06 6.34110E-19 2.67122E-18
 -1      3360 1.05771E-04-5.09841E-05-2.35085E-05-2.82833E-05-2.47678E-18-1.20808E-18
 -1      3361 1.17785E-04-5.56303E-05-2.70040E-05-2.05390E-05-1.81064E-18 1.00142E-19
 -1      3362 1.05163E-04-4.95332E-05-2.39782E-05 2.65073E-05-1.86495E-18-1.39602E-19
 -1      3363 9.20661E-05-4.19783E-05-2.12060E-05 2.97490E-05-1.71273E-18 9.94073E-19
 -1      3364 1.15840E-04-1.58734E-05-4.31651E-05 7.39046E-06-2.89505E-18 7.85782E-19
 -1      3365 1.24317E-04-3.16996E-05-4.01418E-05 1.48166E-05 9.26019E-19 2.82485E-18
 -1      3366 1.27795E-04-3.45678E-05-4.00952E-05-1.37892E-05 2.32828E-19 2.53131E-18
 -1      3367 9.06440E-05-1.61797E-05-3.19277E-05 2.96967E-07 5.97300E-19-1.61527E-18
 -1      3368 9.06418E-05-1.61763E-05-3.19279E-05-2.39534E-07 3.69774E-19-1.60871E-18
 -1      3369 9.14072E-05-1.75357E-05-3.16371E-05 3.52452E-07 6.42814E-19-1.50137E-18
 -1      3370 9.12772E-05-1.70003E-05-3.18478E-05 1.57694E-06 1.07011E-18-1.47160E-18
 -1      3371 9.18251E-05-1.80836E-05-3.15806E-05 9.94506E-07 9.27611E-19-1.31993E-18
 -1      3372 9.16842E-05-1.75373E-05-3.17942E-05 2.09623E-06 1.24907E-18-1.26869E-18
 -1      3373 1.31281E-04-4.94577E-05-3.52330E-05 5.19153E-06 5.94743E-20 1.18643E-18
 -1      3374 7.32991E-05-2.72739E-05-1.97695E-05 2.48279E-05 1.32156E-18-8.80808E-19
 -1      3375 6.38793E-05-2.33396E-05-1.70156E-05 2.45160E-05 1.43882E-18-1.94945E-18
 -1      3376 6.19284E-05-1.95939E-05-1.79640E-05 1.88165E-05 9.40842E-19-1.79404E-18
 -1      3377 8.65159E-05-3.81241E-05-2.04996E-05 3.02336E-05-1.16012E-18 9.49550E-19
 -1      3378 7.97760E-05-3.29717E-05-1.99154E-05 2.83565E-05-1.45234E-18 2.33524E-18
 -1      3379 9.42424E-05-4.01684E-05-2.30625E-05 2.54582E-05-1.94698E-18 7.18655E-21
 -1      3380 4.07688E-05-1.19128E-05-1.17713E-05-1.55353E-07 1.21065E-18 3.26118E-18
 -1      3381 4.44384E-05-1.29744E-05-1.33173E-05-7.94231E-06 1.32324E-18 2.09725E-18
 -1      3382 4.68019E-05-1.27629E-05-1.42410E-05 5.57303E-06 3.63746E-19 2.18106E-18
 -1      3383 9.51825E-05-2.83964E-05-2.86233E-05 7.94007E-08-1.21178E-19 4.91539E-19
 -1      3384 9.51982E-05-2.84151E-05-2.86211E-05 8.17785E-08 3.78932E-19 2.87877E-18
 -1      3385 9.27621E-05-1.90427E-05-3.16166E-05 2.90339E-06 1.50901E-18-8.94236E-19
 -1      3386 9.21798E-05-1.82171E-05-3.17130E-05 2.44210E-06 1.33698E-18-1.09314E-18
 -1      3387 9.26212E-05-1.91653E-05-3.14554E-05 1.59793E-06 1.16640E-18-9.83361E-19
 -1      3388 9.37023E-05-2.07647E-05-3.12349E-05 2.09564E-06 1.32061E-18-7.84257E-19
 -1      3389 1.24930E-04-5.07874E-05-3.18634E-05 1.47639E-06 5.37201E-19 1.56063E-18
 -1      3390 9.38852E-05-2.06885E-05-3.13751E-05-3.57345E-06-1.02916E-18-1.77146E-18
 -1      3391 1.17985E-04-2.12148E-05-4.18000E-05 1.19861E-05-1.54996E-18-1.38516E-19
 -1      3392 7.99949E-05-3.26788E-05-2.01797E-05-2.79101E-05 2.18847E-18 1.87406E-18
 -1      3393 8.79957E-05-3.97201E-05-2.03886E-05-3.10329E-05 2.51389E-18 1.82766E-18
 -1      3394 9.62571E-05-4.27470E-05-2.29554E-05-2.66156E-05 2.32337E-18 1.14164E-18
 -1      3395 9.53724E-05-2.58541E-05-2.97980E-05-2.91371E-06 8.54320E-19-5.29643E-19
 -1      3396 9.56641E-05-2.63169E-05-2.97205E-05-2.61115E-06 7.89427E-19-3.21067E-19
 -1      3397 9.56364E-05-2.59917E-05-2.98367E-05-1.72328E-06 9.19541E-19-3.95383E-19
 -1      3398 9.50420E-05-2.67644E-05-2.92679E-05-8.26030E-06 2.03350E-19-1.14808E-18
 -1      3399 1.14056E-04-5.24590E-05-2.62708E-05-1.99848E-05 1.68501E-18-3.17920E-19
 -1      3400 1.10187E-04-4.92482E-05-2.60622E-05 1.97135E-05-1.64891E-18-8.53194E-19
 -1      3401 1.18631E-04-4.83416E-05-3.01899E-05 4.82699E-06-5.32135E-19-1.59679E-20
 -1      3402 9.51513E-05-2.83578E-05-2.86265E-05 6.03606E-08-6.73249E-19-2.00770E-18
 -1      3403 9.51645E-05-2.83719E-05-2.86252E-05 6.99304E-08-2.20197E-19-7.35327E-19
 -1      3404 9.51576E-05-2.83451E-05-2.86334E-05 9.43597E-08-2.25487E-19-2.61988E-19
 -1      3405 9.51314E-05-2.83339E-05-2.86281E-05 2.90325E-08 1.25332E-18 3.15217E-19
 -1      3406 9.51389E-05-2.83416E-05-2.86275E-05 4.34592E-08 4.15539E-19-1.47518E-18
 -1      3407 9.51240E-05-2.83040E-05-2.86363E-05 6.48449E-08 2.22233E-19-8.80168E-19
 -1      3408 9.51051E-05-2.82820E-05-2.86376E-05 2.28996E-08 1.19641E-18-8.95537E-19
 -1      3409 1.21755E-04-5.20351E-05-2.99159E-05 7.15843E-06-7.20942E-19-5.57301E-19
 -1      3410 9.56338E-05-2.56981E-05-2.99764E-05-9.13432E-07 1.01783E-18-3.88209E-19
 -1      3411 9.56085E-05-2.51634E-05-3.01799E-05 2.16738E-07 1.01540E-18-4.05703E-19
 -1      3412 9.53016E-05-2.42921E-05-3.04303E-05 6.12322E-07 1.07725E-18-4.41390E-19
 -1      3413 9.54035E-05-2.52294E-05-3.00779E-05-1.25726E-06 9.82675E-19-4.20589E-19
 -1      3414 4.98185E-05-1.62249E-05-1.39329E-05-1.62424E-05-9.89798E-19-3.44393E-18
 -1      3415 5.60436E-05-1.95038E-05-1.55330E-05-2.09450E-05-1.27576E-18-2.43485E-18
 -1      3416 5.24292E-05-1.49247E-05-1.57854E-05-1.12082E-05-4.69203E-19-2.90156E-18
 -1      3417 9.51027E-05-2.38093E-05-3.05653E-05-9.94577E-07-9.25616E-19-1.51931E-18
 -1      3418 9.48245E-05-2.33674E-05-3.06204E-05-5.26769E-07-6.98367E-19-1.43780E-18
 -1      3419 9.49200E-05-2.29424E-05-3.08499E-05-2.23445E-06-9.93526E-19-1.54221E-18
 -1      3420 4.99363E-05-1.38584E-05-1.50426E-05 4.94811E-06 3.56144E-19-2.20329E-18
 -1      3421 5.23916E-05-1.69480E-05-1.47414E-05-1.87055E-05 1.43704E-18 1.62270E-18
 -1      3422 5.62840E-05-2.11861E-05-1.46609E-05-2.54697E-05 2.00074E-18 2.44231E-18
 -1      3423 6.65042E-05-2.43430E-05-1.77991E-05-2.44664E-05 2.14186E-18 1.63432E-18
 -1      3424 6.89360E-05-2.94627E-05-1.64984E-05-3.01529E-05-1.64123E-18-2.34882E-18
 -1      3425 1.11117E-04-5.00248E-05-2.61873E-05 1.97723E-05 6.42739E-19 9.77473E-19
 -1      3426 5.72359E-05-2.10702E-05-1.51178E-05 2.28233E-05-6.77626E-19 2.36920E-18
 -1      3427 9.12579E-05-1.69785E-05-3.18500E-05-1.53217E-06-1.54855E-19-1.63512E-18
 -1      3428 9.16532E-05-1.74998E-05-3.17973E-05-2.05470E-06-4.20934E-19-1.69937E-18
 -1      3429 9.96001E-05-4.70602E-05-2.21935E-05-2.99829E-05-2.42257E-18-1.57405E-18
 -1      3430 1.05640E-04-4.91729E-05-2.46500E-05-2.47620E-05-1.76898E-18-1.38773E-18
 -1      3431 8.90454E-05-3.90265E-05-2.11605E-05-2.91472E-05-1.87837E-18-1.76797E-18
 -1      3432 1.22453E-04-5.41127E-05-2.89510E-05-1.18272E-05-1.06223E-18 2.97494E-19
 -1      3433 9.52178E-05-2.84371E-05-2.86206E-05-9.06879E-08-1.29647E-18-4.44996E-18
 -1      3434 9.52079E-05-2.84275E-05-2.86206E-05-8.65364E-08-3.14360E-19-4.14854E-18
 -1      3435 9.51888E-05-2.83821E-05-2.86309E-05-1.09973E-07-1.97449E-18-3.20045E-18
 -1      3436 9.52130E-05-2.84082E-05-2.86298E-05-1.19820E-07-7.93948E-19-3.82501E-18
 -1      3437 1.25970E-04-5.32508E-05-3.12855E-05-4.51943E-06 5.99223E-19-1.13874E-18
 -1      3438 9.25852E-05-1.91439E-05-3.14599E-05-1.58600E-06-5.05424E-19-1.54207E-18
 -1      3439 9.21608E-05-1.81834E-05-3.17179E-05-2.40354E-06-6.00580E-19-1.80902E-18
 -1      3440 9.27451E-05-1.90063E-05-3.16226E-05-2.90193E-06-8.07207E-19-1.88553E-18
 -1      3441 9.44983E-05-2.52959E-05-2.96585E-05 3.89119E-06-1.38389E-19-1.05402E-18
 -1      3442 9.43829E-05-2.54455E-05-2.95437E-05 4.57261E-06-2.09758E-19-9.39603E-19
 -1      3443 9.40939E-05-2.54975E-05-2.94016E-05 5.19573E-06-2.50594E-19-7.20947E-19
 -1      3444 9.39674E-05-2.55752E-05-2.93064E-05 5.82512E-06-1.02310E-20-6.69409E-19
 -1      3445 9.36656E-05-2.48977E-05-2.94678E-05 4.59600E-06-7.27653E-20-6.72034E-19
 -1      3446 9.36215E-05-2.55756E-05-2.91680E-05 6.44653E-06 2.48580E-20-6.71368E-19
 -1      3447 9.35327E-05-2.56694E-05-2.90758E-05 7.05911E-06 6.35287E-20-8.75532E-19
 -1      3448 9.30311E-05-2.49633E-05-2.91685E-05 5.83490E-06 1.63621E-20-5.25862E-19
 -1      3449 9.31867E-05-2.57136E-05-2.89236E-05 7.72004E-06 3.73254E-19-9.15110E-19
 -1      3450 9.32060E-05-2.59292E-05-2.88193E-05 8.33985E-06 4.28706E-19-5.21120E-19
 -1      3451 9.23335E-05-2.49995E-05-2.88556E-05 7.11129E-06 2.26495E-19-8.31662E-19
 -1      3452 9.29409E-05-2.61341E-05-2.86373E-05 9.08048E-06 4.16438E-19-2.89536E-19
 -1      3453 9.31779E-05-2.66073E-05-2.85096E-05 9.71830E-06 4.41955E-19-1.94482E-19
 -1      3454 9.17036E-05-2.52220E-05-2.84941E-05 8.51558E-06 5.72233E-19-5.74121E-19
 -1      3455 9.31218E-05-2.71245E-05-2.82859E-05 1.05750E-05 3.34545E-19-4.39667E-20
 -1      3456 9.37466E-05-2.80300E-05-2.81334E-05 1.12195E-05 3.70143E-19 2.88530E-19
 -1      3457 9.13404E-05-2.59060E-05-2.80535E-05 1.01440E-05 4.88657E-19-2.91002E-19
 -1      3458 9.40991E-05-2.90516E-05-2.78677E-05 1.22206E-05 2.59499E-19 2.32030E-19
 -1      3459 9.53710E-05-3.06120E-05-2.77097E-05 1.28123E-05 9.54930E-20 3.68340E-19
 -1      3460 9.15529E-05-2.74012E-05-2.75182E-05 1.20898E-05 2.28938E-19-5.53304E-19
 -1      3461 9.64910E-05-3.24128E-05-2.74290E-05 1.39315E-05 1.78133E-19 3.16309E-19
 -1      3462 9.87164E-05-3.48392E-05-2.73278E-05 1.42885E-05 1.76490E-19 5.14799E-19
 -1      3463 9.28396E-05-3.01912E-05-2.69035E-05 1.44478E-05 2.13043E-19-2.40571E-19
 -1      3464 1.01058E-04-3.75084E-05-2.71258E-05 1.51116E-05 2.53170E-19 8.00688E-19
 -1      3465 1.04370E-04-4.09809E-05-2.70992E-05 1.52196E-05 4.79831E-19 1.07109E-18
 -1      3466 9.62519E-05-3.50833E-05-2.63210E-05 1.70466E-05 5.20942E-19 4.59509E-19
 -1      3467 9.47043E-05-2.38144E-05-3.03805E-05 7.74504E-07-3.59843E-19-1.36735E-18
 -1      3468 9.47650E-05-2.43716E-05-3.01738E-05 1.70176E-06-1.14327E-19-1.35710E-18
 -1      3469 1.06311E-04-4.25201E-05-2.72987E-05-1.44003E-05 1.79718E-18-8.11886E-19
 -1      3470 1.02522E-04-3.89563E-05-2.71231E-05-1.48830E-05 1.41730E-18-6.54565E-19
 -1      3471 9.96253E-05-3.58453E-05-2.72841E-05-1.40012E-05 1.39440E-18-3.46062E-19
 -1      3472 9.71064E-05-3.31405E-05-2.73561E-05-1.36689E-05 7.57765E-19 2.05849E-19
 -1      3473 9.69986E-05-3.60569E-05-2.62159E-05-1.69669E-05 1.42377E-18-5.79569E-19
 -1      3474 9.56607E-05-3.11148E-05-2.76207E-05-1.25563E-05-1.45575E-19 8.07214E-19
 -1      3475 9.41541E-05-2.93223E-05-2.77673E-05-1.19409E-05 2.39066E-19 1.29702E-18
 -1      3476 9.30573E-05-3.08051E-05-2.67431E-05-1.44653E-05 1.00495E-18-1.36571E-19
 -1      3477 9.35731E-05-2.80999E-05-2.80266E-05-1.08558E-05 5.05827E-19 1.64423E-18
 -1      3478 9.27711E-05-2.70361E-05-2.81711E-05-1.01658E-05 6.42450E-19 1.91994E-18
 -1      3479 9.11801E-05-2.74579E-05-2.73392E-05-1.19714E-05 5.38674E-19 6.67680E-19
 -1      3480 9.26777E-05-2.64004E-05-2.83821E-05-9.22845E-06-5.35417E-19 1.28940E-18
 -1      3481 9.23176E-05-2.58454E-05-2.84941E-05-8.55019E-06-9.78824E-19 5.61512E-19
 -1      3482 9.06117E-05-2.56362E-05-2.78577E-05-9.83568E-06-1.69533E-19 5.35878E-19
 -1      3483 9.24769E-05-2.55954E-05-2.86486E-05-7.75672E-06-1.20715E-18 3.02592E-19
 -1      3484 9.23700E-05-2.53723E-05-2.87220E-05-7.12304E-06-1.06637E-18-7.63114E-20
 -1      3485 9.07330E-05-2.48033E-05-2.82568E-05-8.07312E-06-1.62585E-18 5.99509E-19
 -1      3486 9.26444E-05-2.53617E-05-2.88252E-05-6.45036E-06-8.91772E-19-5.85138E-19
 -1      3487 9.26708E-05-2.53427E-05-2.88642E-05-5.87355E-06-5.26471E-19-9.14504E-19
 -1      3488 9.11936E-05-2.45941E-05-2.85392E-05-6.61227E-06-1.44625E-18 7.32231E-19
 -1      3489 9.29811E-05-2.54696E-05-2.89262E-05-5.30191E-06 6.89763E-19-1.59256E-19
 -1      3490 9.30683E-05-2.55659E-05-2.89386E-05-4.78740E-06 6.10931E-19 3.11251E-19
 -1      3491 9.17898E-05-2.47571E-05-2.87230E-05-5.38806E-06 7.29492E-19-2.47596E-21
 -1      3492 9.33701E-05-2.57612E-05-2.89696E-05-4.30214E-06-2.56307E-19-1.15521E-19
 -1      3493 9.34770E-05-2.59146E-05-2.89635E-05-3.85149E-06-3.21221E-19-3.70436E-19
 -1      3494 9.24053E-05-2.51223E-05-2.88299E-05-4.35543E-06 1.02536E-19-4.75174E-19
 -1      3495 9.37486E-05-2.61345E-05-2.89729E-05-3.44183E-06-4.58998E-19-2.32129E-19
 -1      3496 9.38536E-05-2.63082E-05-2.89552E-05-3.05442E-06-1.16064E-21 1.11679E-19
 -1      3497 9.29782E-05-2.55771E-05-2.88809E-05-3.48313E-06-3.46537E-20-1.13373E-18
 -1      3498 9.40860E-05-2.65261E-05-2.89504E-05-2.71200E-06-3.24528E-19-5.53707E-20
 -1      3499 9.41790E-05-2.66982E-05-2.89264E-05-2.38507E-06-9.26782E-19 9.60412E-20
 -1      3500 9.34802E-05-2.60517E-05-2.88934E-05-2.75017E-06-1.29767E-19-8.16084E-19
 -1      3501 9.43707E-05-2.68991E-05-2.89131E-05-2.10243E-06-1.07394E-18 4.63123E-19
 -1      3502 9.44480E-05-2.70576E-05-2.88867E-05-1.83151E-06-4.48812E-19 2.94895E-19
 -1      3503 9.39019E-05-2.65041E-05-2.88810E-05-2.14022E-06-8.67442E-19 5.98291E-19
 -1      3504 9.46016E-05-2.72341E-05-2.88689E-05-1.60147E-06 2.78488E-20-3.86568E-19
 -1      3505 9.46631E-05-2.73732E-05-2.88427E-05-1.38089E-06 3.08697E-19-5.23191E-19
 -1      3506 9.42448E-05-2.69118E-05-2.88541E-05-1.63890E-06-4.79992E-19 5.35042E-19
 -1      3507 9.47830E-05-2.75231E-05-2.88232E-05-1.19642E-06 6.28654E-19-5.76748E-19
 -1      3508 9.48302E-05-2.76410E-05-2.87987E-05-1.01991E-06 5.99516E-19-3.86127E-19
 -1      3509 9.45164E-05-2.72650E-05-2.88197E-05-1.23260E-06 4.03482E-19-6.71163E-19
 -1      3510 9.49216E-05-2.77649E-05-2.87794E-05-8.74251E-07 5.26518E-19-6.28955E-19
 -1      3511 9.49567E-05-2.78621E-05-2.87574E-05-7.35399E-07 8.83137E-19 5.84643E-19
 -1      3512 9.47261E-05-2.75618E-05-2.87830E-05-9.08179E-07 7.66649E-19-7.82958E-19
 -1      3513 9.50247E-05-2.79622E-05-2.87394E-05-6.22279E-07 1.08363E-18 7.06163E-19
 -1      3514 9.50500E-05-2.80407E-05-2.87203E-05-5.15010E-07 1.46716E-18 9.75718E-19
 -1      3515 9.48844E-05-2.78052E-05-2.87470E-05-6.53139E-07 1.03803E-18-1.02875E-18
 -1      3516 9.50991E-05-2.81200E-05-2.87040E-05-4.28738E-07 1.04206E-18 1.04681E-18
 -1      3517 9.51166E-05-2.81822E-05-2.86877E-05-3.47431E-07 1.79067E-18-1.65445E-19
 -1      3518 9.50008E-05-2.80008E-05-2.87134E-05-4.56161E-07 1.20774E-18 9.09332E-19
 -1      3519 9.51514E-05-2.82447E-05-2.86734E-05-2.82382E-07 1.96150E-18-9.28024E-19
 -1      3520 9.51641E-05-2.82936E-05-2.86596E-05-2.23072E-07 1.51226E-18-1.01199E-18
 -1      3521 9.50839E-05-2.81548E-05-2.86832E-05-3.06425E-07 1.44857E-18 2.55154E-19
 -1      3522 1.04657E-04-3.95335E-05-2.77986E-05-1.36506E-05-9.66393E-19 1.38993E-19
 -1      3523 1.01188E-04-3.64291E-05-2.76410E-05-1.44084E-05-8.06999E-19-3.91091E-20
 -1      3524 9.88413E-05-3.38297E-05-2.78295E-05-1.36868E-05-8.67851E-19-2.37061E-19
 -1      3525 9.68690E-05-3.16171E-05-2.79289E-05-1.34396E-05-6.59266E-19-5.57977E-19
 -1      3526 9.66018E-05-3.41725E-05-2.68545E-05-1.61554E-05-1.02247E-18-3.64128E-19
 -1      3527 9.58625E-05-3.00213E-05-2.81805E-05-1.24789E-05-3.30391E-19-6.13572E-19
 -1      3528 9.47245E-05-2.86491E-05-2.83082E-05-1.19766E-05-3.64553E-19-2.53685E-19
 -1      3529 9.34453E-05-2.96455E-05-2.73938E-05-1.39105E-05-6.46694E-19-4.78852E-19
 -1      3530 1.28321E-04-4.71365E-05-3.50466E-05 6.91692E-06 4.30134E-20 2.00832E-18
 -1      3531 9.35827E-05-2.03673E-05-3.13763E-05-2.82432E-06-8.67758E-19-1.72043E-18
 -1      3532 9.44772E-05-2.58723E-05-2.93973E-05-5.86147E-06 2.89940E-19-8.11028E-19
 -1      3533 9.45489E-05-2.58064E-05-2.94630E-05-5.21368E-06 4.57283E-19-7.50059E-19
 -1      3534 9.38971E-05-2.65946E-05-2.88262E-05-9.70530E-06-2.87631E-19-6.66667E-19
 -1      3535 9.36572E-05-2.62140E-05-2.89098E-05-9.09339E-06-2.29415E-19-8.39431E-19
 -1      3536 1.05154E-04-4.03115E-05-2.76450E-05 1.39944E-05-1.26136E-18 6.14124E-20
 -1      3537 1.08935E-04-4.40201E-05-2.78506E-05 1.31671E-05-1.34330E-18-1.72715E-20
 -1      3538 9.39879E-05-2.75777E-05-2.84569E-05 1.06331E-05 1.03061E-18 9.56622E-19
 -1      3539 9.49274E-05-2.87322E-05-2.83379E-05 1.12336E-05-1.43390E-19 1.66737E-18
 -1      3540 9.33050E-05-2.62570E-05-2.87390E-05 9.07770E-06 1.63173E-18 8.33868E-19
 -1      3541 9.37722E-05-2.68683E-05-2.86511E-05 9.72551E-06 1.67586E-18 1.08133E-18
 -1      3542 9.15893E-05-2.61225E-05-2.80725E-05 1.04412E-05 1.30425E-18 5.69930E-19
 -1      3543 9.31903E-05-2.57111E-05-2.89276E-05 7.64222E-06 1.01382E-19 7.07286E-19
 -1      3544 9.33850E-05-2.59685E-05-2.88776E-05 8.27938E-06 9.64478E-19 6.09366E-19
 -1      3545 9.15133E-05-2.51522E-05-2.84438E-05 8.69090E-06 1.26808E-18 1.15736E-18
 -1      3546 9.33568E-05-2.56358E-05-2.90324E-05 6.34921E-06 3.16150E-19 1.32895E-18
 -1      3547 9.34069E-05-2.56795E-05-2.90152E-05 6.94739E-06 9.97084E-20 9.49428E-19
 -1      3548 9.18390E-05-2.48696E-05-2.86987E-05 7.19681E-06 8.17304E-20 1.65599E-18
 -1      3549 9.36377E-05-2.58231E-05-2.90724E-05 5.20223E-06-1.52754E-19 8.77208E-19
 -1      3550 9.36190E-05-2.57478E-05-2.90795E-05 5.74641E-06 3.57034E-19 1.46538E-18
 -1      3551 9.23297E-05-2.49898E-05-2.88552E-05 5.91530E-06 3.07106E-19 8.79077E-19
 -1      3552 9.39433E-05-2.61391E-05-2.90672E-05 4.20022E-06 1.19522E-19 9.40332E-19
 -1      3553 9.38977E-05-2.60054E-05-2.90900E-05 4.68232E-06 9.34552E-20 6.95911E-19
 -1      3554 9.28550E-05-2.53240E-05-2.89367E-05 4.81259E-06-1.21484E-19 8.79845E-19
 -1      3555 9.42285E-05-2.65008E-05-2.90334E-05 3.33941E-06 2.87705E-19 5.60753E-19
 -1      3556 9.41774E-05-2.63461E-05-2.90650E-05 3.75651E-06 2.00187E-19 3.96970E-19
 -1      3557 9.33482E-05-2.57528E-05-2.89647E-05 3.86752E-06 3.56983E-19 7.63687E-19
 -1      3558 9.44742E-05-2.68595E-05-2.89839E-05 2.61254E-06-8.82127E-19 1.69366E-18
 -1      3559 9.44275E-05-2.67054E-05-2.90189E-05 2.96569E-06-3.06685E-19 1.00600E-18
 -1      3560 9.37790E-05-2.62024E-05-2.89574E-05 3.06515E-06-3.33167E-19 7.94823E-19
 -1      3561 9.46754E-05-2.71893E-05-2.89278E-05 2.00930E-06-1.43371E-18 1.92444E-18
 -1      3562 9.46368E-05-2.70473E-05-2.89627E-05 2.30240E-06-1.27823E-18 2.03948E-18
 -1      3563 9.41382E-05-2.66305E-05-2.89287E-05 2.39251E-06-1.31719E-18 1.54962E-18
 -1      3564 9.48342E-05-2.74780E-05-2.88711E-05 1.51715E-06-7.54588E-19 2.12354E-18
 -1      3565 9.48043E-05-2.73535E-05-2.89039E-05 1.75590E-06-1.00709E-18 2.39681E-18
 -1      3566 9.44275E-05-2.70151E-05-2.88886E-05 1.83676E-06-1.33517E-18 2.24011E-19
 -1      3567 9.49560E-05-2.77222E-05-2.88178E-05 1.12229E-06 1.01995E-19 4.30766E-19
 -1      3568 9.49338E-05-2.76168E-05-2.88471E-05 1.31337E-06 2.29990E-19 1.76996E-18
 -1      3569 9.46543E-05-2.73471E-05-2.88442E-05 1.38462E-06 3.69866E-20 1.04051E-18
 -1      3570 9.50469E-05-2.79235E-05-2.87698E-05 8.10740E-07-6.02185E-19 7.66933E-21
 -1      3571 9.50311E-05-2.78366E-05-2.87951E-05 9.61028E-07-6.38033E-19 5.02426E-19
 -1      3572 9.48278E-05-2.76254E-05-2.87998E-05 1.02258E-06-2.43962E-19 7.63468E-19
 -1      3573 9.51129E-05-2.80858E-05-2.87279E-05 5.69047E-07-3.66190E-19 6.44530E-20
 -1      3574 9.51022E-05-2.80156E-05-2.87493E-05 6.85203E-07-4.49140E-19 1.65273E-19
 -1      3575 9.49574E-05-2.78530E-05-2.87582E-05 7.37333E-07-5.39463E-19 1.69742E-18
 -1      3576 9.51594E-05-2.82144E-05-2.86922E-05 3.84920E-07-9.12832E-19 1.39010E-18
 -1      3577 9.51526E-05-2.81586E-05-2.87100E-05 4.73026E-07-3.00924E-19 4.19409E-19
 -1      3578 9.50520E-05-2.80356E-05-2.87207E-05 5.16359E-07-1.04664E-18 1.06234E-18
 -1      3579 9.51909E-05-2.83150E-05-2.86623E-05 2.47227E-07 5.70798E-19 3.22937E-19
 -1      3580 9.51868E-05-2.82709E-05-2.86769E-05 3.13019E-07 1.20796E-20 8.66698E-19
 -1      3581 9.51190E-05-2.81797E-05-2.86879E-05 3.48610E-07-2.08358E-19 1.72892E-18
 -1      3582 9.52121E-05-2.83931E-05-2.86373E-05 1.47989E-07 9.98491E-19 2.67809E-19
 -1      3583 9.52099E-05-2.83592E-05-2.86492E-05 1.95150E-07 9.27797E-19 9.47758E-19
 -1      3584 9.51651E-05-2.82932E-05-2.86596E-05 2.23494E-07 1.73477E-19 1.60926E-18
 -1      3585 1.16865E-04-4.91359E-05-2.88423E-05 1.02896E-05-1.21562E-18-3.04833E-19
 -1      3586 9.52134E-05-2.84403E-05-2.86176E-05 7.87346E-08 1.39263E-19 1.46193E-18
 -1      3587 9.52257E-05-2.84583E-05-2.86145E-05 7.41331E-08 1.82247E-19 1.35774E-18
 -1      3588 9.52249E-05-2.84445E-05-2.86201E-05 9.04899E-08 1.10760E-19 7.78741E-19
 -1      3589 9.51942E-05-2.83957E-05-2.86278E-05 1.01347E-07 4.45678E-19 2.01735E-18
 -1      3590 9.50715E-05-2.82287E-05-2.86472E-05-4.16044E-08-1.77699E-20-3.46089E-18
 -1      3591 9.50658E-05-2.82231E-05-2.86475E-05-1.67907E-08 1.14512E-18-4.37015E-18
 -1      3592 9.38964E-05-2.60802E-05-2.90519E-05-8.38444E-06-5.26955E-21-8.61076E-19
 -1      3593 9.38402E-05-2.59197E-05-2.91149E-05-7.76990E-06 1.79707E-19-8.83171E-19
 -1      3594 9.24259E-05-2.53545E-05-2.87462E-05-8.60032E-06-2.03466E-19-8.81198E-19
 -1      3595 9.44109E-05-2.77720E-05-2.85339E-05-1.10872E-05-2.29724E-19-4.58706E-19
 -1      3596 9.38375E-05-2.70032E-05-2.86447E-05-1.04973E-05-1.07293E-19-6.11448E-19
 -1      3597 9.20925E-05-2.58765E-05-2.83868E-05-1.01234E-05-3.51052E-19-9.14662E-19
 -1      3598 9.22738E-05-2.71500E-05-2.79336E-05-1.18804E-05-2.26004E-19-7.51409E-19
 -1      3599 9.57034E-05-3.00857E-05-2.80989E-05 1.22279E-05-1.20966E-18 2.05329E-18
 -1      3600 9.73948E-05-3.20039E-05-2.79818E-05 1.26457E-05-1.26795E-18 1.77227E-18
 -1      3601 9.24690E-05-2.81856E-05-2.75867E-05 1.24785E-05-5.12732E-19 1.46902E-18
 -1      3602 9.91545E-05-3.42605E-05-2.77487E-05 1.36036E-05-1.54275E-18 1.67807E-18
 -1      3603 1.01900E-04-3.71084E-05-2.77246E-05 1.35601E-05-1.55334E-18 7.90565E-19
 -1      3604 9.96454E-05-3.77128E-05-2.65960E-05 1.68029E-05-1.64153E-18 8.28067E-19
 -1      3605 9.48023E-05-3.18611E-05-2.70341E-05 1.47393E-05-1.50473E-18 1.79246E-18
 -1      3606 1.10574E-04-4.71204E-05-2.72794E-05 1.55693E-05-1.28470E-18-5.50399E-19
 -1      3607 1.02162E-04-4.28624E-05-2.51734E-05 2.13027E-05-2.06353E-18 3.02986E-19
 -1      3608 5.54818E-05-1.48570E-05-1.72579E-05 9.11061E-06 4.66496E-19-1.86564E-18
 -1      3609 5.33621E-05-1.34787E-05-1.68424E-05-8.70526E-07 2.03343E-19-2.29424E-18
 -1      3610 9.47932E-05-2.57632E-05-2.95827E-05-4.56336E-06 5.20410E-19-7.87749E-19
 -1      3611 9.48635E-05-2.56168E-05-2.96755E-05-3.85189E-06 6.51780E-19-7.49347E-19
 -1      3612 9.41237E-05-2.52043E-05-2.95341E-05-4.66235E-06 4.11300E-19-1.08870E-18
 -1      3613 9.07462E-05-1.63117E-05-3.19152E-05-6.17048E-07 2.71639E-19-1.59835E-18
 -1      3614 9.09519E-05-1.65696E-05-3.18920E-05-1.15143E-06 3.94805E-20-1.65111E-18
 -1      3615 9.18233E-05-1.80717E-05-3.15826E-05-9.53153E-07-7.72125E-20-1.44735E-18
 -1      3616 9.47404E-05-2.47984E-05-2.99733E-05 2.44824E-06-2.53186E-20-1.28122E-18
 -1      3617 9.46831E-05-2.51065E-05-2.98215E-05 3.22576E-06-8.61055E-20-1.16569E-18
 -1      3618 9.41380E-05-2.46200E-05-2.97886E-05 3.30936E-06 2.41092E-21-1.00331E-18
 -1      3619 9.49929E-05-2.35292E-05-3.06260E-05 9.65497E-07 1.02942E-18-6.97824E-19
 -1      3620 9.45077E-05-2.25548E-05-3.08416E-05 1.26294E-06 1.13922E-18-8.65024E-19
 -1      3621 9.50733E-05-2.41122E-05-3.04179E-05-7.02137E-08 1.03817E-18-7.68304E-19
 -1      3622 6.61099E-05-2.40707E-05-1.78336E-05 2.46330E-05-9.79938E-19 2.30202E-18
 -1      3623 5.52167E-05-1.68208E-05-1.61411E-05 1.65780E-05-2.28818E-19 2.14913E-18
 -1      3624 6.43530E-05-2.42725E-05-1.67459E-05-2.61336E-05-1.44776E-18-2.35735E-18
 -1      3625 7.49215E-05-3.08590E-05-1.88023E-05-2.86788E-05-1.56945E-18-1.96655E-18
 -1      3626 6.37078E-05-2.15371E-05-1.77761E-05-2.09150E-05-1.02175E-18-2.37445E-18
 -1      3627 9.44092E-05-3.97253E-05-2.34224E-05 2.46603E-05 9.03668E-19 4.38194E-19
 -1      3628 8.45144E-05-3.33402E-05-2.15645E-05 2.61475E-05 1.08899E-18 1.45134E-19
 -1      3629 1.08690E-04-4.57236E-05-2.70664E-05 1.61172E-05 3.94704E-19 6.13503E-19
 -1      3630 9.96418E-05-4.12716E-05-2.47787E-05 2.22274E-05 6.86021E-19 4.55360E-19
 -1      3631 9.41439E-05-2.59172E-05-2.92318E-05-7.11550E-06 1.76942E-19-1.01639E-18
 -1      3632 9.41795E-05-2.58516E-05-2.92880E-05-6.49476E-06 1.08762E-19-7.63698E-19
 -1      3633 9.29818E-05-2.52310E-05-2.90343E-05-7.23467E-06 9.57168E-20-1.00362E-18
 -1      3634 9.39598E-05-2.16664E-05-3.09867E-05 1.14009E-06 1.18481E-18-9.07464E-19
 -1      3635 8.03150E-05-2.94861E-05-2.16513E-05 2.31154E-05 1.05379E-18-5.85617E-19
 -1      3636 9.23795E-05-1.93874E-05-3.12953E-05 7.26035E-07 9.50333E-19-1.16489E-18
 -1      3637 9.20736E-05-1.89771E-05-3.13389E-05 4.66733E-07 8.38382E-19-1.35248E-18
 -1      3638 5.34035E-05-1.46342E-05-1.62641E-05 1.16578E-05 2.50126E-19 1.67331E-18
 -1      3639 5.25861E-05-1.33710E-05-1.67954E-05 4.72267E-06 8.87618E-19 1.50539E-18
 -1      3640 6.13010E-05-1.74221E-05-1.86274E-05 1.43416E-05-1.99149E-19 1.61572E-18
 -1      3641 9.43536E-05-2.39575E-05-3.01645E-05 1.89625E-06-7.21050E-20-1.25145E-18
 -1      3642 9.45239E-05-2.31198E-05-3.06096E-05 8.59165E-09-5.49180E-19-1.47522E-18
 -1      3643 9.41819E-05-2.27528E-05-3.06052E-05 3.72022E-07-3.11424E-19-1.54833E-18
 -1      3644 9.42989E-05-2.23033E-05-3.08603E-05-9.64684E-07-6.50858E-19-1.58594E-18
 -1      3645 9.50320E-05-2.81620E-05-2.86574E-05 1.28131E-10 1.40796E-19-2.81101E-18
 -1      3646 9.50659E-05-2.82231E-05-2.86475E-05 1.66336E-08 2.75474E-19-1.95731E-18
 -1      3647 9.50715E-05-2.82286E-05-2.86472E-05 4.17652E-08 5.23400E-19-3.18835E-19
 -1      3648 7.39447E-05-2.72612E-05-1.97468E-05-2.52900E-05 1.77459E-18 2.07070E-18
 -1      3649 8.22990E-05-3.14171E-05-2.17082E-05-2.43062E-05 1.37095E-18 2.28847E-18
 -1      3650 1.21189E-04-5.21242E-05-2.94149E-05-8.62725E-06 1.06038E-18-9.08152E-19
 -1      3651 9.50112E-05-2.54278E-05-2.98233E-05-3.13840E-06 8.68291E-19-7.88266E-19
 -1      3652 9.50494E-05-2.51260E-05-2.99626E-05-2.31404E-06 9.37230E-19-7.09037E-19
 -1      3653 9.45127E-05-2.49268E-05-2.98187E-05-3.29137E-06 7.02592E-19-1.01825E-18
 -1      3654 1.05695E-04-4.36791E-05-2.65369E-05-1.77922E-05-1.25701E-18-2.89235E-19
 -1      3655 9.82641E-05-3.97242E-05-2.51880E-05-2.13098E-05-1.26144E-18-9.94053E-19
 -1      3656 9.51880E-05-2.83375E-05-2.86496E-05-1.87783E-07 1.23766E-18-1.71882E-18
 -1      3657 9.51973E-05-2.83739E-05-2.86390E-05-1.48287E-07 6.45770E-19-1.42148E-18
 -1      3658 9.51843E-05-2.83589E-05-2.86397E-05-1.43902E-07-8.89791E-19-1.94862E-18
 -1      3659 9.51436E-05-2.82719E-05-2.86590E-05-2.08620E-07 1.07081E-18 3.52697E-19
 -1      3660 1.10458E-04-4.71670E-05-2.68590E-05-1.65576E-05-1.50047E-18-7.45124E-20
 -1      3661 1.15833E-04-5.05553E-05-2.78591E-05-1.41023E-05-1.15879E-18-1.20808E-19
 -1      3662 9.14037E-05-1.75309E-05-3.16377E-05-3.00729E-07 3.41150E-19-1.48154E-18
 -1      3663 9.35849E-05-2.52479E-05-2.92847E-05-5.94862E-06 3.46579E-19-1.10393E-18
 -1      3664 9.50999E-05-2.82597E-05-2.86455E-05-9.32657E-08-1.49395E-18-9.12411E-19
 -1      3665 9.50839E-05-2.82440E-05-2.86465E-05-7.21907E-08-6.86175E-19-2.15147E-18
 -1      3666 9.50463E-05-2.81776E-05-2.86567E-05-6.90849E-08 8.07332E-21-3.81264E-18
 -1      3667 9.52250E-05-2.84298E-05-2.86261E-05 1.11564E-07 5.74800E-19 6.70199E-19
 -1      3668 5.50184E-05-1.39749E-05-1.73182E-05-4.99368E-06-7.38838E-20-2.26057E-18
 -1      3669 5.80376E-05-1.56011E-05-1.81244E-05-9.84864E-06-4.76320E-19-2.31984E-18
 -1      3670 5.97744E-05-1.46679E-05-1.91816E-05-8.82478E-07 1.90245E-19-1.89685E-18
 -1      3671 9.51977E-05-2.83818E-05-2.86353E-05 1.33668E-07 2.18251E-19 2.90313E-18
 -1      3672 9.51795E-05-2.83560E-05-2.86390E-05 1.36532E-07 2.84110E-19 3.18791E-18
 -1      3673 9.51269E-05-2.82939E-05-2.86436E-05 1.15927E-07 8.79799E-20-9.51858E-19
 -1      3674 9.51501E-05-2.83184E-05-2.86418E-05 1.28369E-07 1.29098E-19 9.24600E-19
 -1      3675 9.51524E-05-2.83014E-05-2.86496E-05 1.63704E-07-6.10098E-19 1.82320E-18
 -1      3676 6.15931E-05-1.72377E-05-1.87367E-05 1.33036E-05 5.77882E-19-1.64282E-18
 -1      3677 6.30822E-05-1.61279E-05-2.00794E-05 7.85870E-06 2.60013E-19-1.53366E-18
 -1      3678 6.84349E-05-2.05509E-05-2.06258E-05 1.62510E-05 8.05188E-19-1.31053E-18
 -1      3679 9.20654E-05-1.89704E-05-3.13404E-05-4.18643E-07 1.22958E-19-1.29846E-18
 -1      3680 9.23750E-05-1.93564E-05-3.13011E-05-6.89141E-07-1.68754E-19-1.25905E-18
 -1      3681 5.34889E-05-1.54308E-05-1.59922E-05-1.18123E-05 1.66807E-18 1.60259E-18
 -1      3682 1.15936E-04-4.98661E-05-2.83366E-05-1.18287E-05 7.89355E-19-9.79018E-20
 -1      3683 1.11284E-04-4.64859E-05-2.75702E-05-1.38938E-05 1.43473E-18-8.39339E-19
 -1      3684 9.24211E-05-1.98208E-05-3.10914E-05 1.45009E-07 8.32335E-19-1.30741E-18
 -1      3685 9.18673E-05-1.87079E-05-3.13668E-05 3.55459E-07 7.68824E-19-1.45599E-18
 -1      3686 9.17614E-05-1.85682E-05-3.13805E-05 8.28019E-08 5.92735E-19-1.48143E-18
 -1      3687 8.44088E-05-3.53483E-05-2.07992E-05-2.82247E-05-1.55908E-18-1.62241E-18
 -1      3688 9.16334E-05-3.80965E-05-2.29597E-05-2.57987E-05-1.56647E-18-1.49843E-18
 -1      3689 7.89517E-05-3.02028E-05-2.07990E-05-2.52533E-05-1.33903E-18-1.88449E-18
 -1      3690 7.50870E-05-2.79886E-05-1.99271E-05 2.51839E-05-1.39673E-18 2.71101E-18
 -1      3691 7.13741E-05-2.34093E-05-2.04951E-05 2.04859E-05-8.45974E-19 1.48707E-18
 -1      3692 8.34871E-05-3.13285E-05-2.22488E-05 2.33763E-05-1.80701E-18 5.91361E-19
 -1      3693 1.26861E-04-5.32403E-05-3.17929E-05 3.20588E-06 8.05370E-19 1.50520E-18
 -1      3694 1.15535E-04-5.18851E-05-2.74780E-05-1.60195E-05 1.36673E-18-3.22435E-19
 -1      3695 6.88742E-05-2.32231E-05-1.94930E-05-2.16729E-05 1.76581E-18 1.80333E-18
 -1      3696 1.07962E-04-4.84139E-05-2.51424E-05-2.23941E-05 1.70136E-18 1.27829E-19
 -1      3697 1.00113E-04-4.31621E-05-2.42706E-05-2.31356E-05 1.81180E-18 1.03439E-18
 -1      3698 1.04693E-04-4.39588E-05-2.61554E-05-1.85565E-05 1.33112E-18 3.28225E-21
 -1      3699 9.51715E-05-2.83460E-05-2.86400E-05-1.37153E-07-1.43798E-18-1.51704E-18
 -1      3700 9.32545E-05-2.09722E-05-3.09677E-05-2.91005E-07-2.39585E-19-1.23604E-18
 -1      3701 9.30535E-05-2.02869E-05-3.11927E-05-9.23355E-07-4.10012E-19-1.41500E-18
 -1      3702 9.51425E-05-2.82910E-05-2.86503E-05-1.61850E-07-1.00463E-18-1.75610E-18
 -1      3703 9.51504E-05-2.83198E-05-2.86413E-05-1.26517E-07-1.85492E-18-2.37414E-18
 -1      3704 9.51276E-05-2.82958E-05-2.86433E-05-1.15373E-07-1.76107E-18-1.59842E-18
 -1      3705 9.51179E-05-2.82453E-05-2.86602E-05-1.95116E-07-3.25484E-19-1.63579E-18
 -1      3706 9.27609E-05-1.99109E-05-3.12336E-05 8.30888E-07 1.01565E-18-9.48159E-19
 -1      3707 9.30120E-05-2.06128E-05-3.10032E-05 2.52788E-07 9.85263E-19-8.84870E-19
 -1      3708 9.32375E-05-2.05820E-05-3.11525E-05 1.05336E-06 1.24158E-18-8.13504E-19
 -1      3709 9.66229E-05-3.93154E-05-2.45332E-05 2.19264E-05-1.93665E-18 1.07295E-19
 -1      3710 9.50841E-05-2.82439E-05-2.86467E-05 7.24458E-08 1.09585E-18-3.09270E-19
 -1      3711 9.51003E-05-2.82600E-05-2.86457E-05 9.32665E-08 4.86983E-19-4.30283E-19
 -1      3712 9.50460E-05-2.81775E-05-2.86568E-05 6.96428E-08 2.36542E-19-5.79212E-19
 -1      3713 9.63578E-05-3.65295E-05-2.55758E-05 1.86417E-05-1.97743E-18 2.77117E-19
 -1      3714 8.92406E-05-3.39762E-05-2.35776E-05 2.25588E-05-2.24818E-18-3.51042E-19
 -1      3715 8.39772E-05-2.92334E-05-2.34920E-05 2.02421E-05-1.71617E-18 5.81012E-21
 -1      3716 9.30771E-05-3.29465E-05-2.57516E-05 1.75254E-05-1.43730E-18 1.03096E-18
 -1      3717 9.24713E-05-2.43953E-05-2.91841E-05 4.98188E-06 3.44566E-20-3.72458E-19
 -1      3718 9.21229E-05-2.43886E-05-2.90255E-05 5.58581E-06 1.29216E-19-3.15638E-19
 -1      3719 9.15128E-05-2.42986E-05-2.88181E-05 6.17951E-06 1.98346E-19-3.43422E-19
 -1      3720 9.11613E-05-2.43107E-05-2.86418E-05 6.82200E-06 3.81315E-19-3.61537E-19
 -1      3721 9.10099E-05-2.37182E-05-2.88292E-05 5.29979E-06 2.26427E-19-2.52743E-19
 -1      3722 9.04841E-05-2.42615E-05-2.83968E-05 7.51922E-06 5.22925E-19-4.62050E-19
 -1      3723 9.02094E-05-2.44071E-05-2.81852E-05 8.25029E-06 4.60813E-19-4.89177E-19
 -1      3724 8.97208E-05-2.35290E-05-2.83576E-05 6.54546E-06 3.68666E-19-2.61238E-19
 -1      3725 8.95247E-05-2.45171E-05-2.78798E-05 9.12836E-06 5.11464E-19-4.36842E-19
 -1      3726 8.94528E-05-2.49465E-05-2.76184E-05 1.00043E-05 5.48653E-19-4.16208E-19
 -1      3727 8.83446E-05-2.34973E-05-2.77822E-05 8.07411E-06 3.86905E-19-5.78631E-19
 -1      3728 8.88700E-05-2.53860E-05-2.72308E-05 1.11658E-05 3.77190E-19-5.88988E-19
 -1      3729 8.91912E-05-2.62889E-05-2.69155E-05 1.22331E-05 8.64888E-20-6.89429E-19
 -1      3730 8.70309E-05-2.38866E-05-2.70537E-05 1.00990E-05 4.25594E-19-7.61607E-19
 -1      3731 8.88608E-05-2.72468E-05-2.64313E-05 1.37921E-05 3.02895E-19-5.45129E-19
 -1      3732 8.99510E-05-2.89453E-05-2.60936E-05 1.51086E-05 4.54281E-19-1.52777E-19
 -1      3733 8.60724E-05-2.50445E-05-2.61235E-05 1.28489E-05 2.77531E-19-3.92840E-19
 -1      3734 1.08504E-04-4.46236E-05-2.74579E-05 1.41433E-05 4.43653E-19 7.65182E-19
 -1      3735 9.17630E-05-1.85709E-05-3.13806E-05-3.30561E-08 4.73625E-19-1.38919E-18
 -1      3736 9.18664E-05-1.87034E-05-3.13674E-05-3.09201E-07 2.54545E-19-1.34633E-18
 -1      3737 9.24142E-05-1.98203E-05-3.10926E-05-9.68231E-08 2.06542E-19-1.15418E-18
 -1      3738 9.22202E-05-1.95581E-05-3.11191E-05 2.83130E-08 5.36309E-19-1.30571E-18
 -1      3739 8.97856E-05-2.94372E-05-2.58136E-05-1.55596E-05 1.17844E-18 3.08250E-19
 -1      3740 8.84524E-05-2.73916E-05-2.61679E-05-1.41213E-05 7.51285E-19 3.45237E-19
 -1      3741 8.85752E-05-2.62407E-05-2.66665E-05-1.23360E-05 5.19424E-19-1.83712E-19
 -1      3742 8.80381E-05-2.51271E-05-2.69792E-05-1.11535E-05 8.62047E-19-1.69821E-19
 -1      3743 8.50773E-05-2.49004E-05-2.57966E-05-1.31587E-05 4.10235E-19-1.82880E-19
 -1      3744 8.84852E-05-2.45726E-05-2.73641E-05-9.85521E-06 1.66171E-19-2.71418E-19
 -1      3745 8.84258E-05-2.40406E-05-2.76124E-05-8.90161E-06-7.43402E-19-5.71525E-19
 -1      3746 8.58149E-05-2.34191E-05-2.67368E-05-1.01027E-05 5.42358E-19-1.41085E-18
 -1      3747 8.90047E-05-2.38765E-05-2.78966E-05-7.93439E-06-8.52127E-19-3.07268E-19
 -1      3748 8.91864E-05-2.37085E-05-2.80785E-05-7.16157E-06-1.06862E-18 8.03096E-19
 -1      3749 8.69230E-05-2.28746E-05-2.74412E-05-7.89111E-06-2.71115E-19-1.89041E-18
 -1      3750 8.97895E-05-2.37824E-05-2.82800E-05-6.41957E-06-1.42596E-18 1.29556E-18
 -1      3751 9.00787E-05-2.38356E-05-2.84041E-05-5.78071E-06-7.61045E-19 1.23713E-18
 -1      3752 8.81459E-05-2.29059E-05-2.79508E-05-6.24998E-06-7.09355E-19 4.85511E-19
 -1      3753 9.06550E-05-2.40496E-05-2.85402E-05-5.19395E-06 5.16854E-20 9.69623E-19
 -1      3754 9.09755E-05-2.42284E-05-2.86179E-05-4.65955E-06 9.95417E-19 6.32309E-19
 -1      3755 8.93443E-05-2.32769E-05-2.83053E-05-4.98567E-06-4.54377E-19 1.39984E-18
 -1      3756 9.14941E-05-2.45102E-05-2.87045E-05-4.18640E-06 5.79567E-19 1.87594E-19
 -1      3757 9.18034E-05-2.47491E-05-2.87476E-05-3.73511E-06-1.51485E-19-2.13287E-19
 -1      3758 9.04479E-05-2.38349E-05-2.85402E-05-3.98529E-06 7.22289E-20 4.83581E-19
 -1      3759 9.22541E-05-2.50541E-05-2.87981E-05-3.34733E-06-3.48832E-19 5.62315E-19
 -1      3760 9.25315E-05-2.53123E-05-2.88166E-05-2.96661E-06-2.77864E-20 2.64029E-20
 -1      3761 9.14205E-05-2.44685E-05-2.86864E-05-3.17395E-06-7.91110E-21 1.03705E-18
 -1      3762 9.29118E-05-2.56113E-05-2.88416E-05-2.64779E-06 1.97762E-19 2.16132E-19
 -1      3763 9.31489E-05-2.58633E-05-2.88436E-05-2.32873E-06 7.55677E-20 6.17428E-19
 -1      3764 9.22525E-05-2.51110E-05-2.87688E-05-2.50839E-06 2.68122E-19 1.38333E-18
 -1      3765 9.34619E-05-2.61393E-05-2.88514E-05-2.06736E-06-2.62767E-19 1.95836E-19
 -1      3766 9.36575E-05-2.63705E-05-2.88430E-05-1.80283E-06 9.97917E-20 7.54144E-19
 -1      3767 9.29459E-05-2.57185E-05-2.88066E-05-1.96118E-06 3.50717E-19 1.61064E-18
 -1      3768 9.39096E-05-2.66145E-05-2.88397E-05-1.59022E-06-3.26252E-19 1.22821E-18
 -1      3769 9.40664E-05-2.68178E-05-2.88255E-05-1.37377E-06-4.13569E-19 9.20143E-19
 -1      3770 9.35108E-05-2.62666E-05-2.88148E-05-1.51318E-06 1.47616E-19 9.06816E-19
 -1      3771 9.42652E-05-2.70267E-05-2.88156E-05-1.20269E-06-4.45769E-19 7.34099E-19
 -1      3772 9.43877E-05-2.71997E-05-2.87986E-05-1.02812E-06 2.16431E-20-2.37245E-20
 -1      3773 9.39615E-05-2.67438E-05-2.88043E-05-1.14959E-06-3.79658E-19 2.04613E-18
 -1      3774 9.45413E-05-2.73738E-05-2.87853E-05-8.92227E-07 1.17994E-18-1.67702E-19
 -1      3775 9.46348E-05-2.75173E-05-2.87676E-05-7.53574E-07 1.26525E-18 1.44891E-19
 -1      3776 9.43138E-05-2.71477E-05-2.87829E-05-8.57871E-07 5.45900E-19 1.47363E-18
 -1      3777 9.47510E-05-2.76592E-05-2.87529E-05-6.47093E-07 5.46017E-19-3.01425E-19
 -1      3778 9.48208E-05-2.77758E-05-2.87359E-05-5.38655E-07 8.97497E-19-4.31557E-19
 -1      3779 9.45836E-05-2.74814E-05-2.87561E-05-6.26933E-07 7.51242E-19 6.87845E-19
 -1      3780 9.49069E-05-2.78894E-05-2.87212E-05-4.56792E-07 8.17175E-19-8.92254E-19
 -1      3781 9.49575E-05-2.79822E-05-2.87055E-05-3.73679E-07 1.82573E-18-6.14896E-20
 -1      3782 9.47860E-05-2.77517E-05-2.87275E-05-4.46613E-07 9.50643E-19-1.88704E-19
 -1      3783 9.50198E-05-2.80715E-05-2.86916E-05-3.11613E-07 1.92145E-18-8.62142E-19
 -1      3784 9.50566E-05-2.81445E-05-2.86774E-05-2.48336E-07 9.79189E-19-1.65134E-18
 -1      3785 9.49342E-05-2.79668E-05-2.86993E-05-3.08894E-07 1.24237E-18-1.35513E-18
 -1      3786 9.35381E-05-2.09454E-05-3.11056E-05-1.14891E-06-6.31135E-19-1.53035E-18
 -1      3787 9.05408E-05-2.40322E-05-2.85190E-05 6.39948E-06 7.72262E-19 1.35175E-18
 -1      3788 9.03173E-05-2.40075E-05-2.84072E-05 7.06347E-06 9.24066E-19 2.03361E-18
 -1      3789 8.97423E-05-2.39596E-05-2.82102E-05 7.83705E-06 3.53963E-19 1.83314E-18
 -1      3790 8.96517E-05-2.41800E-05-2.80400E-05 8.62378E-06 9.26088E-19 1.19240E-18
 -1      3791 8.85169E-05-2.30754E-05-2.80349E-05 6.98051E-06 4.68881E-19 1.55639E-18
 -1      3792 9.06809E-05-2.84865E-05-2.65935E-05-1.45641E-05-7.63158E-19-7.19668E-19
 -1      3793 8.97036E-05-2.69421E-05-2.69119E-05-1.34089E-05-4.93498E-19-6.82102E-19
 -1      3794 9.40581E-05-2.21903E-05-3.07839E-05 3.30332E-07 1.00016E-18-9.24813E-19
 -1      3795 8.89947E-05-2.57107E-05-2.71389E-05 1.18698E-05 4.22664E-19-4.96460E-19
 -1      3796 8.97264E-05-2.69881E-05-2.68382E-05 1.30141E-05-6.13275E-19 3.33764E-19
 -1      3797 9.38424E-05-2.11827E-05-3.11307E-05-1.72386E-06-7.53697E-19-1.60912E-18
 -1      3798 8.91292E-05-2.44046E-05-2.77579E-05 9.61649E-06 1.00654E-18 2.53454E-19
 -1      3799 8.93311E-05-2.50366E-05-2.75216E-05 1.05602E-05 5.28772E-19-4.36977E-19
 -1      3800 8.64626E-05-2.38857E-05-2.68203E-05 1.09774E-05 2.90245E-19-1.18920E-18
 -1      3801 8.73924E-05-2.31417E-05-2.75272E-05 8.69795E-06 4.74812E-20 6.40875E-19
 -1      3802 9.13620E-05-2.43905E-05-2.87151E-05 5.20934E-06-1.77601E-19 1.28691E-18
 -1      3803 9.10952E-05-2.42309E-05-2.86493E-05 5.77790E-06 5.31416E-19 1.36053E-18
 -1      3804 8.96541E-05-2.34012E-05-2.83825E-05 5.64342E-06 1.06462E-18 1.98766E-18
 -1      3805 9.21270E-05-2.48890E-05-2.88273E-05 4.20843E-06 2.10893E-19 1.20152E-18
 -1      3806 9.18639E-05-2.46640E-05-2.87953E-05 4.69682E-06-4.65444E-20 1.60709E-18
 -1      3807 9.07091E-05-2.39314E-05-2.86082E-05 4.56237E-06-8.34587E-20 2.18148E-18
 -1      3808 9.27988E-05-2.54337E-05-2.88801E-05 3.36401E-06 5.77149E-19 7.17729E-19
 -1      3809 9.25623E-05-2.51877E-05-2.88714E-05 3.78149E-06 5.05394E-19 8.29972E-19
 -1      3810 9.16417E-05-2.45503E-05-2.87441E-05 3.66866E-06 6.26110E-19 7.40110E-19
 -1      3811 9.33654E-05-2.59671E-05-2.88928E-05 2.65468E-06-8.93085E-19 8.23503E-19
 -1      3812 9.31644E-05-2.57265E-05-2.88992E-05 3.00796E-06-4.55993E-19 5.22980E-19
 -1      3813 9.24369E-05-2.51816E-05-2.88160E-05 2.92315E-06 6.46937E-20 1.09007E-18
 -1      3814 9.38289E-05-2.64570E-05-2.88801E-05 2.06439E-06-1.52146E-18 9.12832E-19
 -1      3815 9.36647E-05-2.62366E-05-2.88954E-05 2.35938E-06-9.08200E-19 8.86464E-19
 -1      3816 9.30963E-05-2.57787E-05-2.88441E-05 2.30132E-06-1.03391E-18 1.15775E-18
 -1      3817 9.41988E-05-2.68879E-05-2.88528E-05 1.57928E-06-1.59234E-19-8.38338E-19
 -1      3818 9.40686E-05-2.66945E-05-2.88725E-05 1.82194E-06-5.72504E-19 5.96323E-19
 -1      3819 9.36304E-05-2.63166E-05-2.88438E-05 1.78618E-06-1.03925E-18 3.36563E-19
 -1      3820 9.44875E-05-2.72548E-05-2.88182E-05 1.18625E-06-3.86715E-19-7.13426E-19
 -1      3821 9.43868E-05-2.70905E-05-2.88394E-05 1.38273E-06-7.33321E-19-1.03072E-18
 -1      3822 9.40541E-05-2.67840E-05-2.88262E-05 1.36409E-06-2.15488E-19-8.05172E-19
 -1      3823 9.47082E-05-2.75594E-05-2.87814E-05 8.72609E-07-1.21109E-18 4.71978E-19
 -1      3824 9.46322E-05-2.74233E-05-2.88022E-05 1.02916E-06-2.08382E-19-1.79555E-19
 -1      3825 9.43836E-05-2.71788E-05-2.87991E-05 1.02282E-06-8.63880E-19-2.76206E-19
 -1      3826 9.48733E-05-2.78068E-05-2.87454E-05 6.26286E-07-6.95730E-19 7.92687E-19
 -1      3827 9.48173E-05-2.76964E-05-2.87647E-05 7.48966E-07-6.16830E-19 6.90704E-19
 -1      3828 9.46349E-05-2.75047E-05-2.87679E-05 7.50926E-07-6.54309E-19 1.85677E-19
 -1      3829 9.49941E-05-2.80040E-05-2.87120E-05 4.36153E-07-1.34862E-18 1.32838E-18
 -1      3830 9.49538E-05-2.79162E-05-2.87293E-05 5.30564E-07-1.34441E-18 9.09019E-19
 -1      3831 9.48227E-05-2.77682E-05-2.87360E-05 5.37724E-07-1.66015E-18 1.25122E-18
 -1      3832 9.50807E-05-2.81590E-05-2.86820E-05 2.93036E-07 6.12654E-19 1.55237E-18
 -1      3833 9.50523E-05-2.80904E-05-2.86970E-05 3.63038E-07-1.21707E-19 1.42574E-18
 -1      3834 9.49598E-05-2.79776E-05-2.87055E-05 3.73257E-07-5.08873E-19 8.53084E-19
 -1      3835 9.51306E-05-2.82615E-05-2.86588E-05 1.96905E-07-9.64801E-19 3.02638E-18
 -1      3836 9.51102E-05-2.82066E-05-2.86719E-05 2.49526E-07 6.73512E-20 1.92344E-18
 -1      3837 9.50445E-05-2.81216E-05-2.86807E-05 2.60523E-07-1.48999E-19 1.65892E-18
 -1      3838 9.50978E-05-2.82234E-05-2.86614E-05 1.85298E-07-5.52752E-19 6.54537E-19
 -1      3839 6.26553E-05-1.84920E-05-1.86521E-05-1.62913E-05-7.78661E-19-2.34231E-18
 -1      3840 6.91285E-05-2.30648E-05-1.96909E-05-2.13358E-05-1.06725E-18-2.19530E-18
 -1      3841 9.32611E-05-2.43601E-05-2.95342E-05 3.82650E-06 1.57090E-19-6.03216E-19
 -1      3842 9.29713E-05-2.44304E-05-2.93749E-05 4.43541E-06 3.87274E-20-4.95160E-19
 -1      3843 9.21179E-05-2.38616E-05-2.92428E-05 4.19848E-06 2.34981E-19-4.39384E-19
 -1      3844 8.29092E-05-2.97218E-05-2.28483E-05-2.14858E-05 1.19629E-18 2.20840E-18
 -1      3845 8.97075E-05-3.50836E-05-2.33580E-05-2.33571E-05 1.39379E-18 2.26332E-18
 -1      3846 9.09679E-05-2.45469E-05-2.84527E-05-8.38245E-06-3.70401E-19-9.39009E-19
 -1      3847 9.12147E-05-2.44529E-05-2.86261E-05-7.68479E-06-1.16766E-19-9.45700E-19
 -1      3848 9.51173E-05-2.48985E-05-3.00994E-05-1.67854E-06 9.14670E-19-6.99226E-19
 -1      3849 9.51286E-05-2.45295E-05-3.02513E-05-8.25621E-07 1.00049E-18-6.89839E-19
 -1      3850 9.47869E-05-2.37847E-05-3.04325E-05-5.11305E-07 9.43020E-19-9.68341E-19
 -1      3851 9.47314E-05-2.44436E-05-3.01229E-05-1.93715E-06 9.42622E-19-9.21149E-19
 -1      3852 9.34611E-05-2.47153E-05-2.94626E-05-4.57538E-06 4.67549E-19-9.28397E-19
 -1      3853 9.37058E-05-2.46456E-05-2.96011E-05-3.92861E-06 5.38664E-19-9.69451E-19
 -1      3854 9.39688E-05-2.32108E-05-3.03300E-05 1.29677E-06 5.68354E-20-1.10993E-18
 -1      3855 9.39441E-05-2.36860E-05-3.01171E-05 2.04258E-06 9.65235E-20-9.35838E-19
 -1      3856 5.41486E-05-1.30472E-05-1.72517E-05-4.69515E-06 1.32575E-18 1.79886E-18
 -1      3857 6.02378E-05-1.69943E-05-1.84514E-05-1.43145E-05 1.37898E-18 1.21486E-18
 -1      3858 6.64250E-05-1.95260E-05-1.98763E-05-1.66955E-05 9.28355E-19 1.32962E-18
 -1      3859 7.29725E-05-2.22886E-05-2.16113E-05-1.72537E-05 5.69679E-19 2.10512E-18
 -1      3860 6.51936E-05-1.68799E-05-2.07663E-05-1.07434E-05 1.57146E-19 1.40790E-18
 -1      3861 9.18430E-05-2.45375E-05-2.88378E-05-7.01125E-06-2.15807E-20-9.51174E-19
 -1      3862 9.21509E-05-2.45533E-05-2.89808E-05-6.37265E-06 2.18211E-19-1.02122E-18
 -1      3863 9.04364E-05-2.37532E-05-2.85685E-05-6.78903E-06-2.00212E-20-9.56933E-19
 -1      3864 9.28565E-05-3.27458E-05-2.57283E-05-1.79155E-05-9.08218E-19-9.18879E-19
 -1      3865 9.08609E-05-2.99750E-05-2.60506E-05-1.64173E-05-8.16882E-19-8.11762E-19
 -1      3866 8.68273E-05-2.72294E-05-2.55354E-05-1.59454E-05-6.76885E-19-1.03293E-18
 -1      3867 9.27105E-05-2.46605E-05-2.91611E-05-5.77345E-06 3.75779E-19-1.00917E-18
 -1      3868 9.30100E-05-2.46773E-05-2.92925E-05-5.15152E-06 3.72502E-19-9.41775E-19
 -1      3869 9.26296E-05-2.41274E-05-2.93493E-05-4.41495E-06 5.07376E-19-8.09766E-19
 -1      3870 1.28700E-04-5.39132E-05-3.20698E-05-1.16807E-06-8.02289E-19 9.35363E-19
 -1      3871 1.22392E-04-5.31811E-05-2.92136E-05-1.02678E-05-7.37134E-19 4.08164E-19
 -1      3872 9.38011E-05-2.40304E-05-2.99042E-05 2.62168E-06 1.01641E-19-7.87609E-19
 -1      3873 9.36098E-05-2.42567E-05-2.97271E-05 3.27546E-06 1.27719E-19-7.69151E-19
 -1      3874 9.29605E-05-2.37759E-05-2.96393E-05 3.13671E-06 1.61108E-19-3.79664E-19
 -1      3875 9.54506E-05-3.63881E-05-2.52153E-05-1.92022E-05 1.17325E-18 7.20430E-19
 -1      3876 9.24083E-05-3.28857E-05-2.54407E-05-1.78756E-05 1.22743E-18 5.83836E-19
 -1      3877 9.47341E-05-3.66438E-05-2.47851E-05 2.10903E-05 5.40061E-19 4.38952E-19
 -1      3878 8.49290E-05-3.07979E-05-2.33330E-05 2.14629E-05 9.41441E-19 3.05991E-20
 -1      3879 7.62072E-05-2.47804E-05-2.17342E-05 1.99756E-05 1.15946E-18-6.04332E-19
 -1      3880 9.52516E-05-3.83474E-05-2.42484E-05-2.21824E-05 1.74597E-18 1.23665E-18
 -1      3881 9.00617E-05-3.24796E-05-2.46517E-05 1.92192E-05 8.27478E-19 1.00550E-19
 -1      3882 6.77049E-05-2.02925E-05-2.01158E-05 1.76950E-05-5.27470E-19 1.92546E-18
 -1      3883 6.46349E-05-1.78533E-05-2.00621E-05 1.34544E-05 1.27928E-19 1.34808E-18
 -1      3884 7.48608E-05-2.37197E-05-2.18367E-05 1.85222E-05-1.17026E-18 5.93393E-19
 -1      3885 5.88718E-05-1.43638E-05-1.89227E-05 6.97766E-07 5.83020E-19 1.37733E-18
 -1      3886 9.33474E-05-2.16321E-05-3.07436E-05-2.52711E-07 1.07734E-18-7.92049E-19
 -1      3887 9.29602E-05-2.11224E-05-3.07999E-05-2.43129E-07 9.28608E-19-1.08124E-18
 -1      3888 8.37283E-05-2.62517E-05-2.45583E-05 1.64839E-05 8.49787E-19-5.81525E-19
 -1      3889 8.80649E-05-2.95392E-05-2.50572E-05 1.75043E-05 5.43454E-19-1.18227E-19
 -1      3890 9.49811E-05-2.80916E-05-2.86675E-05-1.95022E-08 1.09104E-21-3.36615E-18
 -1      3891 9.49811E-05-2.80914E-05-2.86676E-05 1.94085E-08-4.05347E-19-1.45968E-18
 -1      3892 9.50894E-05-2.82275E-05-2.86543E-05 1.28727E-07 1.27865E-18 1.29142E-19
 -1      3893 9.40111E-05-2.45296E-05-2.97802E-05-3.33255E-06 6.07716E-19-8.96688E-19
 -1      3894 9.41584E-05-2.43072E-05-2.99426E-05-2.59879E-06 6.75000E-19-8.64423E-19
 -1      3895 9.33790E-05-2.40342E-05-2.97129E-05-3.26980E-06 6.84030E-19-6.23293E-19
 -1      3896 9.50622E-05-2.81683E-05-2.86684E-05-1.97554E-07-2.82272E-19-2.12585E-18
 -1      3897 9.41102E-05-2.27126E-05-3.06051E-05-4.17213E-07 9.30528E-19-8.84914E-19
 -1      3898 9.50898E-05-2.82295E-05-2.86539E-05-1.26865E-07-1.92173E-18-1.72819E-18
 -1      3899 9.02575E-05-2.49471E-05-2.79667E-05-9.99894E-06-2.80751E-19-9.51424E-19
 -1      3900 9.03286E-05-2.46005E-05-2.81867E-05-9.19691E-06-3.55300E-19-9.29723E-19
 -1      3901 8.91566E-05-2.36527E-05-2.80645E-05-8.23698E-06-2.52193E-19-7.00987E-19
 -1      3902 6.42329E-05-1.73197E-05-1.99221E-05-1.10136E-05-5.66008E-19-2.20100E-18
 -1      3903 8.69832E-05-2.92026E-05-2.47638E-05-1.77647E-05 9.30456E-19 1.46292E-18
 -1      3904 6.69937E-05-1.68669E-05-2.15342E-05 6.72119E-06 5.05144E-19-1.32890E-18
 -1      3905 6.32165E-05-1.51067E-05-2.04053E-05 2.91239E-06 1.56183E-19-2.16228E-18
 -1      3906 6.37190E-05-1.53195E-05-2.07150E-05-1.25610E-06 1.32585E-19-2.07166E-18
 -1      3907 9.26796E-05-2.07517E-05-3.08375E-05-1.04545E-07 8.89062E-19-1.26834E-18
 -1      3908 9.24751E-05-2.04825E-05-3.08646E-05-1.10715E-07 7.93286E-19-1.25677E-18
 -1      3909 9.30192E-05-2.16088E-05-3.05829E-05-5.45275E-07 8.69711E-19-1.03727E-18
 -1      3910 7.72254E-05-2.43546E-05-2.25373E-05-1.83587E-05 6.13358E-19 2.13892E-18
 -1      3911 8.36099E-05-2.75848E-05-2.39394E-05-1.80362E-05 4.84792E-19 1.79357E-18
 -1      3912 8.13869E-05-2.44253E-05-2.44632E-05-1.50536E-05 1.01756E-19 1.00025E-18
 -1      3913 7.39372E-05-2.09545E-05-2.28153E-05-1.41569E-05-6.80604E-19 1.54618E-18
 -1      3914 1.19939E-04-5.16235E-05-2.90378E-05 9.38996E-06 3.66209E-19 1.01722E-18
 -1      3915 8.99988E-05-2.60899E-05-2.73490E-05-1.20077E-05-2.96934E-19-6.98320E-19
 -1      3916 8.96983E-05-2.52871E-05-2.76241E-05-1.10484E-05-2.20302E-19-8.88805E-19
 -1      3917 8.79219E-05-2.39339E-05-2.74206E-05-1.00616E-05-3.65564E-19-9.06965E-19
 -1      3918 8.69816E-05-2.49511E-05-2.65906E-05-1.25287E-05-4.82186E-19-7.96127E-19
 -1      3919 7.43259E-05-2.22347E-05-2.22807E-05 1.56972E-05 9.42126E-19-7.47467E-19
 -1      3920 9.34682E-05-2.33309E-05-3.00547E-05 2.03799E-06 1.72362E-19-5.65714E-19
 -1      3921 9.01079E-05-2.83635E-05-2.64672E-05 1.45215E-05-1.53185E-18 1.06513E-18
 -1      3922 9.17404E-05-3.05853E-05-2.61456E-05 1.58141E-05-1.23081E-18 1.34874E-18
 -1      3923 8.79541E-05-2.93163E-05-2.51622E-05 1.74078E-05-1.44302E-18 1.56683E-19
 -1      3924 8.63923E-05-2.57804E-05-2.59998E-05 1.38842E-05-4.33832E-19-5.73891E-19
 -1      3925 9.16234E-05-2.39777E-05-2.89815E-05-5.55748E-06 2.97597E-19-9.57140E-19
 -1      3926 9.49901E-05-2.81025E-05-2.86673E-05-6.82747E-08 5.72443E-19-4.44739E-18
 -1      3927 9.49401E-05-2.80217E-05-2.86777E-05-5.25800E-08-4.04018E-19-3.75619E-18
 -1      3928 9.50058E-05-2.81178E-05-2.86666E-05-1.03119E-07 1.40549E-19-3.21923E-18
 -1      3929 7.73278E-05-2.69667E-05-2.14015E-05-2.14542E-05-1.14216E-18-1.64474E-18
 -1      3930 9.09258E-05-3.48273E-05-2.40447E-05-2.17250E-05-1.16389E-18-1.36449E-18
 -1      3931 9.35785E-05-2.18317E-05-3.07559E-05 1.21523E-07-1.55227E-19-1.19526E-18
 -1      3932 9.37670E-05-2.25497E-05-3.05218E-05 8.40198E-07 3.91457E-20-1.11238E-18
 -1      3933 9.34012E-05-2.23192E-05-3.04640E-05 9.78164E-07 2.84971E-19-6.77027E-19
 -1      3934 9.29133E-05-2.09094E-05-3.08609E-05 1.61189E-07 1.08923E-19-9.96328E-19
 -1      3935 9.24390E-05-2.03227E-05-3.09188E-05 1.07238E-07 3.84836E-19-1.08718E-18
 -1      3936 9.26319E-05-2.05724E-05-3.08931E-05 7.80943E-08 2.19849E-19-1.15088E-18
 -1      3937 9.29404E-05-2.12928E-05-3.06902E-05 4.11329E-07 2.54357E-19-9.99909E-19
 -1      3938 8.08325E-05-2.30781E-05-2.48384E-05 1.27596E-05 7.24375E-19-4.63588E-19
 -1      3939 7.82258E-05-2.30489E-05-2.37240E-05 1.44833E-05 1.05620E-18-4.31563E-19
 -1      3940 7.27470E-05-1.90775E-05-2.27710E-05 1.10890E-05 9.25880E-19-5.19098E-19
 -1      3941 9.49903E-05-2.81019E-05-2.86674E-05 6.76318E-08-4.59916E-19-1.39045E-18
 -1      3942 9.50060E-05-2.81171E-05-2.86669E-05 1.03501E-07 2.03845E-19-5.59669E-19
 -1      3943 9.49402E-05-2.80215E-05-2.86778E-05 5.16176E-08-8.27273E-19-7.81402E-19
 -1      3944 9.40372E-05-2.30325E-05-3.04209E-05-9.71595E-07 9.17727E-19-8.58769E-19
 -1      3945 9.06016E-05-2.32725E-05-2.88697E-05 4.19181E-06 3.17076E-19-5.75369E-19
 -1      3946 8.99860E-05-2.31457E-05-2.86453E-05 4.73232E-06 3.05427E-19-5.12856E-19
 -1      3947 8.90711E-05-2.29277E-05-2.83672E-05 5.24230E-06 3.14401E-19-6.81568E-19
 -1      3948 8.83832E-05-2.28031E-05-2.81008E-05 5.87598E-06 2.38341E-19-6.81611E-19
 -1      3949 8.87948E-05-2.24585E-05-2.84116E-05 4.07778E-06 2.38894E-19-7.72655E-19
 -1      3950 8.72954E-05-2.25976E-05-2.77551E-05 6.53554E-06 1.97460E-19-5.89063E-19
 -1      3951 8.65845E-05-2.25791E-05-2.74214E-05 7.34440E-06 3.09149E-19-8.25261E-19
 -1      3952 8.68072E-05-2.19492E-05-2.77734E-05 5.14452E-06 2.56791E-19-7.76813E-19
 -1      3953 8.53138E-05-2.24647E-05-2.69731E-05 8.23062E-06 4.31046E-19-1.00727E-18
 -1      3954 8.46139E-05-2.26910E-05-2.65379E-05 9.37890E-06 2.33465E-19-1.19305E-18
 -1      3955 8.44912E-05-2.15071E-05-2.69593E-05 6.59310E-06 1.07831E-19-8.69239E-19
 -1      3956 8.31370E-05-2.25288E-05-2.60406E-05 1.01123E-05 3.86479E-19-8.52552E-19
 -1      3957 8.25755E-05-2.31762E-05-2.54805E-05 1.17232E-05 6.58569E-19-6.53246E-19
 -1      3958 7.86230E-05-2.03214E-05-2.48181E-05 9.57291E-06 9.71998E-19-5.85451E-19
 -1      3959 8.18660E-05-2.10143E-05-2.59890E-05 8.06254E-06 6.39417E-19-1.18705E-18
 -1      3960 9.50323E-05-2.81488E-05-2.86654E-05 1.36791E-07 7.87174E-19 7.32889E-19
 -1      3961 9.50638E-05-2.81828E-05-2.86635E-05 1.63252E-07 5.37528E-19-8.92139E-20
 -1      3962 9.50378E-05-2.81341E-05-2.86728E-05 1.95808E-07-4.20400E-19 1.12857E-18
 -1      3963 9.49765E-05-2.80638E-05-2.86762E-05 1.38209E-07-2.14092E-19-5.12276E-19
 -1      3964 9.23741E-05-2.03546E-05-3.08764E-05 2.98621E-08 6.04288E-19-1.18108E-18
 -1      3965 9.23778E-05-2.03479E-05-3.08769E-05 2.68063E-08 4.38844E-19-1.13427E-18
 -1      3966 9.26295E-05-2.11125E-05-3.06302E-05-1.63548E-07 6.92629E-19-1.05475E-18
 -1      3967 8.26725E-05-2.36502E-05-2.52426E-05-1.28473E-05 1.23281E-19 7.34667E-19
 -1      3968 8.28427E-05-2.27754E-05-2.57953E-05-1.11563E-05 3.20367E-19-2.74039E-19
 -1      3969 7.94585E-05-2.21761E-05-2.45078E-05-1.29065E-05-1.85356E-19 3.84351E-19
 -1      3970 8.40091E-05-2.24648E-05-2.63486E-05-9.69377E-06 1.75539E-19-1.93974E-21
 -1      3971 8.44898E-05-2.21275E-05-2.67664E-05-8.47979E-06-1.68457E-19-6.34201E-19
 -1      3972 8.17535E-05-2.13674E-05-2.58468E-05-9.42635E-06 9.53235E-20 1.06742E-18
 -1      3973 8.55522E-05-2.21305E-05-2.71657E-05-7.46228E-06 1.33399E-19-1.29512E-18
 -1      3974 8.61466E-05-2.21119E-05-2.74712E-05-6.58336E-06-2.98377E-19-9.99751E-19
 -1      3975 8.39085E-05-2.12829E-05-2.68141E-05-7.08824E-06-3.44158E-19 5.06425E-19
 -1      3976 8.70831E-05-2.23034E-05-2.77547E-05-5.85167E-06-4.71033E-19-3.83786E-19
 -1      3977 8.76905E-05-2.24696E-05-2.79712E-05-5.19076E-06-6.56662E-19 3.99149E-19
 -1      3978 8.58495E-05-2.16217E-05-2.75051E-05-5.45963E-06-2.73166E-19-4.58868E-20
 -1      3979 8.85083E-05-2.27748E-05-2.81672E-05-4.63368E-06-1.70993E-19 1.36026E-18
 -1      3980 8.90863E-05-2.30543E-05-2.83139E-05-4.11966E-06 4.23889E-19 1.77786E-18
 -1      3981 8.75563E-05-2.22068E-05-2.79904E-05-4.27265E-06 2.29524E-19 1.99574E-18
 -1      3982 8.97862E-05-2.34122E-05-2.84443E-05-3.69124E-06-1.24798E-19 2.25014E-18
 -1      3983 9.03034E-05-2.37375E-05-2.85389E-05-3.27829E-06 2.12875E-19 2.18525E-18
 -1      3984 8.90429E-05-2.29319E-05-2.83202E-05-3.37363E-06 3.87497E-19 3.63291E-18
 -1      3985 9.08970E-05-2.41111E-05-2.86217E-05-2.93449E-06-1.64243E-20 2.01338E-18
 -1      3986 9.13453E-05-2.44486E-05-2.86782E-05-2.59681E-06-1.52749E-19 2.18249E-18
 -1      3987 9.03094E-05-2.36993E-05-2.85362E-05-2.66936E-06-1.90463E-19 2.62825E-18
 -1      3988 9.18404E-05-2.48107E-05-2.87268E-05-2.31908E-06-6.36353E-20 2.11177E-18
 -1      3989 9.22181E-05-2.51349E-05-2.87564E-05-2.04077E-06 1.20731E-19 2.35391E-18
 -1      3990 9.13764E-05-2.44597E-05-2.86697E-05-2.10410E-06-3.03654E-20 2.77732E-18
 -1      3991 9.26245E-05-2.54688E-05-2.87810E-05-1.81529E-06-5.33262E-19 2.64030E-18
 -1      3992 9.29350E-05-2.57652E-05-2.87922E-05-1.58609E-06 5.87989E-19 1.96577E-18
 -1      3993 9.22598E-05-2.51723E-05-2.87445E-05-1.64576E-06-1.90572E-19 2.64206E-18
 -1      3994 9.32632E-05-2.60617E-05-2.88007E-05-1.40360E-06 9.33177E-19 1.17913E-18
 -1      3995 9.35129E-05-2.63227E-05-2.87999E-05-1.21606E-06-3.15454E-19 1.49099E-18
 -1      3996 9.29790E-05-2.58145E-05-2.87789E-05-1.27325E-06 6.42517E-19 2.33043E-18
 -1      3997 9.37733E-05-2.65781E-05-2.87980E-05-1.06947E-06-4.81123E-19 1.70112E-18
 -1      3998 9.39701E-05-2.68012E-05-2.87899E-05-9.17595E-07 2.02867E-20 1.86371E-18
 -1      3999 9.35544E-05-2.63750E-05-2.87865E-05-9.71769E-07-3.03368E-20 1.03910E-18
 -1      4000 9.41730E-05-2.70157E-05-2.87817E-05-8.01072E-07 3.31388E-20 1.95594E-18
 -1      4001 9.43250E-05-2.72017E-05-2.87697E-05-6.79591E-07 7.21567E-19 9.70807E-19
 -1      4002 9.40068E-05-2.68514E-05-2.87772E-05-7.29806E-07-3.12927E-19 7.29573E-19
 -1      4003 9.44802E-05-2.73779E-05-2.87581E-05-5.88168E-07 3.54212E-19 6.89566E-19
 -1      4004 9.45949E-05-2.75295E-05-2.87443E-05-4.92458E-07 2.75633E-19 5.50010E-19
 -1      4005 9.43559E-05-2.72471E-05-2.87581E-05-5.37709E-07 2.32009E-19 5.51999E-19
 -1      4006 9.47117E-05-2.76721E-05-2.87313E-05-4.21366E-07 9.76190E-20 3.59254E-19
 -1      4007 9.47965E-05-2.77942E-05-2.87171E-05-3.48221E-07 4.30278E-19-3.24950E-19
 -1      4008 9.46208E-05-2.75691E-05-2.87340E-05-3.86721E-07-3.12863E-20 7.52519E-19
 -1      4009 9.48811E-05-2.79050E-05-2.87040E-05-2.92698E-07 8.81872E-19-4.73404E-19
 -1      4010 9.49434E-05-2.80008E-05-2.86904E-05-2.36347E-07 8.87107E-19-9.21153E-19
 -1      4011 9.48142E-05-2.78244E-05-2.87081E-05-2.70774E-07 5.47447E-19-3.67696E-19
 -1      4012 8.74339E-05-2.23190E-05-2.79300E-05 5.73940E-06 5.95244E-19 3.97009E-19
 -1      4013 8.68421E-05-2.21673E-05-2.77099E-05 6.43338E-06-2.34295E-19 2.42495E-19
 -1      4014 9.01626E-05-2.36004E-05-2.85405E-05 3.71757E-06 2.24718E-19 4.69446E-19
 -1      4015 8.96559E-05-2.32764E-05-2.84470E-05 4.16941E-06 1.70971E-19 9.53616E-19
 -1      4016 8.88924E-05-2.29025E-05-2.82991E-05 4.61824E-06 2.35582E-19 1.02664E-18
 -1      4017 8.83299E-05-2.26363E-05-2.81513E-05 5.16954E-06 9.38106E-19 1.10634E-18
 -1      4018 8.68361E-05-2.17824E-05-2.78583E-05 4.63721E-06 9.97586E-20-1.18868E-18
 -1      4019 9.18626E-05-2.36678E-05-2.92288E-05-4.05514E-06 5.33578E-19-8.19680E-19
 -1      4020 9.23159E-05-2.37024E-05-2.94147E-05-3.51668E-06 6.18917E-19-6.94783E-19
 -1      4021 9.12436E-05-2.43291E-05-2.86887E-05 2.97830E-06 8.94985E-19-3.46566E-19
 -1      4022 9.08051E-05-2.39901E-05-2.86346E-05 3.35526E-06 4.89324E-19-1.52940E-19
 -1      4023 8.98738E-05-2.33606E-05-2.84912E-05 2.97902E-06 6.16076E-19-4.20426E-19
 -1      4024 6.47526E-05-1.52416E-05-2.10174E-05-5.57054E-06 5.89786E-19 1.75493E-18
 -1      4025 6.90689E-05-1.72527E-05-2.21383E-05-8.16117E-06-8.12953E-21 1.92226E-18
 -1      4026 6.52232E-05-1.62569E-05-2.08904E-05-7.14047E-06-9.76239E-21-2.06775E-18
 -1      4027 6.89451E-05-1.90118E-05-2.13912E-05-1.29846E-05-3.04823E-19-2.21973E-18
 -1      4028 9.21445E-05-2.50331E-05-2.87710E-05 2.36507E-06-4.57332E-19 2.67814E-19
 -1      4029 9.17767E-05-2.47063E-05-2.87444E-05 2.68133E-06 4.62771E-19 2.39972E-19
 -1      4030 9.10385E-05-2.41663E-05-2.86478E-05 2.38159E-06 3.11264E-19-3.51063E-19
 -1      4031 9.28813E-05-2.56795E-05-2.88081E-05 1.85570E-06-1.84777E-18 1.04853E-18
 -1      4032 9.25804E-05-2.53804E-05-2.87999E-05 2.12006E-06-1.15911E-18 1.07867E-18
 -1      4033 9.19980E-05-2.49218E-05-2.87376E-05 1.88829E-06-1.10479E-18 6.02126E-19
 -1      4034 9.34731E-05-2.62511E-05-2.88153E-05 1.43525E-06-5.00235E-20 4.85744E-19
 -1      4035 9.32322E-05-2.59876E-05-2.88189E-05 1.65418E-06-1.07929E-18 1.42583E-18
 -1      4036 9.27768E-05-2.56035E-05-2.87811E-05 1.47960E-06-8.32088E-19 2.56197E-18
 -1      4037 9.39401E-05-2.67418E-05-2.88040E-05 1.09190E-06-4.42161E-19 2.42055E-19
 -1      4038 9.37511E-05-2.65164E-05-2.88146E-05 1.27093E-06 2.43348E-20 2.18577E-19
 -1      4039 9.33993E-05-2.61997E-05-2.87940E-05 1.14285E-06 9.12414E-20 6.23721E-19
 -1      4040 9.43022E-05-2.71527E-05-2.87821E-05 8.15204E-07-9.14951E-19 3.68272E-19
 -1      4041 9.41567E-05-2.69646E-05-2.87962E-05 9.59513E-07-1.04346E-18 1.64517E-19
 -1      4042 9.38888E-05-2.67077E-05-2.87874E-05 8.68185E-07-7.81409E-19 3.11693E-19
 -1      4043 9.45778E-05-2.74896E-05-2.87550E-05 5.95464E-07-1.67172E-18 7.91372E-19
 -1      4044 9.44680E-05-2.73359E-05-2.87705E-05 7.09990E-07-6.34446E-19 7.24581E-19
 -1      4045 9.42671E-05-2.71308E-05-2.87693E-05 6.47090E-07-1.13469E-18 2.59989E-19
 -1      4046 9.47834E-05-2.77607E-05-2.87263E-05 4.23762E-07-1.31067E-18 1.64635E-18
 -1      4047 9.47023E-05-2.76373E-05-2.87417E-05 5.13163E-07-1.96837E-18 1.46560E-18
 -1      4048 9.45543E-05-2.74763E-05-2.87451E-05 4.71666E-07-1.89445E-18 1.14352E-18
 -1      4049 9.49340E-05-2.79751E-05-2.86981E-05 2.91733E-07-2.79464E-19 6.42406E-19
 -1      4050 9.48750E-05-2.78778E-05-2.87127E-05 3.60584E-07-6.14030E-19 1.05740E-18
 -1      4051 9.47680E-05-2.77536E-05-2.87187E-05 3.35144E-07-4.15611E-19 1.32296E-18
 -1      4052 7.16826E-05-1.80437E-05-2.30143E-05 6.73969E-06 9.78217E-19-1.02603E-18
 -1      4053 6.81484E-05-1.66538E-05-2.19891E-05-3.77424E-06 2.42997E-19-1.94484E-18
 -1      4054 9.18413E-05-2.34679E-05-2.93138E-05 3.25836E-06 1.50126E-19-5.80677E-19
 -1      4055 9.13391E-05-2.34231E-05-2.91092E-05 3.76127E-06 2.44046E-19-6.79479E-19
 -1      4056 9.04340E-05-2.28700E-05-2.89404E-05 3.21391E-06 2.36707E-19-7.60492E-19
 -1      4057 8.26869E-05-2.53372E-05-2.45504E-05-1.57268E-05-6.38471E-19-1.12589E-18
 -1      4058 8.24460E-05-2.39171E-05-2.51557E-05-1.36913E-05-3.27675E-19-1.05726E-18
 -1      4059 9.50249E-05-2.81289E-05-2.86705E-05-1.70454E-07 1.12213E-19-1.89533E-18
 -1      4060 8.91222E-05-2.30329E-05-2.83206E-05-6.19010E-06-2.57029E-19-7.43155E-19
 -1      4061 8.97617E-05-2.31721E-05-2.85553E-05-5.57496E-06-2.22553E-21-9.54717E-19
 -1      4062 9.30571E-05-2.19012E-05-3.05021E-05 7.32327E-07 2.42524E-19-9.19776E-19
 -1      4063 9.32376E-05-2.24842E-05-3.03143E-05 1.16550E-06 3.33990E-19-9.35196E-19
 -1      4064 9.27790E-05-2.15531E-05-3.05356E-05 5.66802E-07 2.79067E-19-1.14959E-18
 -1      4065 6.23849E-05-1.49851E-05-2.00409E-05 7.82762E-06-9.28361E-20 1.39694E-19
 -1      4066 6.23534E-05-1.48937E-05-2.03660E-05-4.92003E-07 2.77383E-19 1.04206E-18
 -1      4067 6.64333E-05-1.54988E-05-2.18740E-05 1.03598E-06 1.96948E-19 1.00324E-18
 -1      4068 6.80174E-05-1.78696E-05-2.13976E-05 1.09940E-05-1.82641E-19 1.24707E-18
 -1      4069 9.31091E-05-2.29167E-05-3.00885E-05 1.68768E-06 2.47504E-19-8.34854E-19
 -1      4070 9.06157E-05-2.33941E-05-2.88087E-05-5.06286E-06 3.46408E-19-9.46620E-19
 -1      4071 9.11794E-05-2.35227E-05-2.90079E-05-4.51113E-06 4.60132E-19-8.44455E-19
 -1      4072 8.94339E-05-2.26985E-05-2.85828E-05-4.48284E-06 1.54429E-19-8.36686E-19
 -1      4073 9.27389E-05-2.33568E-05-2.97406E-05 2.35069E-06 1.72834E-19-5.98981E-19
 -1      4074 9.23858E-05-2.34758E-05-2.95379E-05 2.86910E-06 1.39184E-19-5.97084E-19
 -1      4075 9.17077E-05-2.30473E-05-2.94125E-05 2.45244E-06 1.22700E-19-6.57134E-19
 -1      4076 9.48662E-05-2.79295E-05-2.86883E-05 3.54993E-08-1.05259E-18-1.64259E-18
 -1      4077 9.48775E-05-2.79393E-05-2.86882E-05 8.94118E-08-5.17054E-19-1.54744E-18
 -1      4078 8.00727E-05-2.17412E-05-2.49634E-05-1.16005E-05-2.20315E-19-1.02128E-18
 -1      4079 8.39712E-05-2.34649E-05-2.58895E-05-1.19757E-05-4.59738E-19-9.28796E-19
 -1      4080 8.43134E-05-2.28770E-05-2.63849E-05-1.05754E-05-5.01630E-19-8.98747E-19
 -1      4081 8.40516E-05-2.20448E-05-2.66145E-05 9.21478E-06 7.11375E-20-8.58210E-19
 -1      4082 8.36671E-05-2.24978E-05-2.61792E-05 1.04727E-05 3.61183E-20-8.15009E-19
 -1      4083 8.84808E-05-2.25453E-05-2.82399E-05 3.71224E-06 3.78179E-19 6.89763E-20
 -1      4084 7.05255E-05-1.70332E-05-2.29940E-05-5.96657E-06-2.52224E-20 2.34881E-18
 -1      4085 7.17271E-05-1.83870E-05-2.27596E-05-1.05166E-05-5.98132E-19 2.54381E-18
 -1      4086 7.54918E-05-2.02910E-05-2.36026E-05-1.16206E-05-5.31062E-19 1.35968E-18
 -1      4087 9.28066E-05-2.36865E-05-2.96260E-05-3.07339E-06 6.51594E-19-8.29789E-19
 -1      4088 9.31076E-05-2.35581E-05-2.98186E-05-2.50182E-06 6.54542E-19-8.65320E-19
 -1      4089 9.21280E-05-2.32371E-05-2.95132E-05-2.74511E-06 6.34990E-19-8.27401E-19
 -1      4090 9.09617E-05-2.30960E-05-2.90703E-05-3.58442E-06 5.02831E-19-7.46382E-19
 -1      4091 9.39780E-05-2.33651E-05-3.02639E-05-1.59523E-06 8.65658E-19-9.13259E-19
 -1      4092 7.40917E-05-1.99724E-05-2.32417E-05-1.15545E-05 1.59672E-19-1.42416E-18
 -1      4093 7.41999E-05-2.15212E-05-2.24974E-05-1.51221E-05-4.51613E-19-1.54510E-18
 -1      4094 7.51366E-05-1.88799E-05-2.41827E-05 6.54721E-06 1.26882E-18-6.05681E-19
 -1      4095 7.10670E-05-1.67850E-05-2.31312E-05 2.40708E-06 8.23959E-19-1.35835E-18
 -1      4096 9.50075E-05-2.80811E-05-2.86827E-05 2.35987E-07 4.13274E-20 1.05207E-18
 -1      4097 7.81476E-05-2.49572E-05-2.28138E-05-1.82161E-05-7.97361E-19-1.64614E-18
 -1      4098 9.31044E-05-2.23202E-05-3.03477E-05-9.99704E-07 9.07894E-19-1.09052E-18
 -1      4099 9.28056E-05-2.19299E-05-3.03842E-05-7.81309E-07 8.14560E-19-1.07630E-18
 -1      4100 9.49662E-05-2.80412E-05-2.86815E-05-1.77007E-07 8.87337E-19-2.54239E-18
 -1      4101 9.35017E-05-2.30026E-05-3.02125E-05-1.66362E-06 7.67180E-19-8.61461E-19
 -1      4102 8.81143E-05-2.28124E-05-2.80082E-05-6.80489E-06-3.59643E-19-7.03692E-19
 -1      4103 8.76020E-05-2.22011E-05-2.79999E-05-5.54082E-06-2.71606E-19-7.91740E-19
 -1      4104 8.74544E-05-2.27681E-05-2.77124E-05-7.55207E-06-3.51221E-19-6.10881E-19
 -1      4105 9.26021E-05-2.09671E-05-3.06828E-05 1.72549E-07 4.62023E-19-9.90507E-19
 -1      4106 8.04478E-05-2.09484E-05-2.54678E-05 1.00086E-05-2.05259E-19-9.40723E-19
 -1      4107 8.27044E-05-2.29287E-05-2.56594E-05 1.20027E-05 1.02124E-20-9.97948E-19
 -1      4108 8.30359E-05-2.40577E-05-2.52215E-05 1.35949E-05-6.54117E-19-8.80722E-19
 -1      4109 6.98614E-05-1.67346E-05-2.28171E-05-2.14278E-06 2.56095E-19-2.02399E-18
 -1      4110 7.16025E-05-1.77394E-05-2.30184E-05-7.45307E-06 1.92210E-19-1.84158E-18
 -1      4111 7.57057E-05-1.97618E-05-2.39368E-05-9.56540E-06 9.92005E-20-1.41921E-18
 -1      4112 7.37220E-05-1.76401E-05-2.40107E-05-1.29538E-06 5.78537E-19-1.28692E-18
 -1      4113 8.57965E-05-2.19649E-05-2.73878E-05 7.20818E-06-8.17586E-19 4.28988E-19
 -1      4114 8.52510E-05-2.20391E-05-2.70727E-05 8.12292E-06-5.63370E-19-6.22676E-19
 -1      4115 8.49021E-05-2.11431E-05-2.72984E-05 5.85797E-06-5.75619E-19-1.00980E-18
 -1      4116 9.48776E-05-2.79384E-05-2.86881E-05-9.11041E-08-1.31726E-18-4.22874E-18
 -1      4117 9.48662E-05-2.79289E-05-2.86882E-05-3.60000E-08-1.63178E-18-2.67372E-18
 -1      4118 9.48022E-05-2.78350E-05-2.86988E-05-9.73206E-10-1.44997E-18-2.49852E-18
 -1      4119 9.26377E-05-2.26441E-05-2.99899E-05 1.48539E-06 2.61991E-19-1.02838E-18
 -1      4120 8.47011E-05-2.79747E-05-2.42310E-05 1.80662E-05-1.42864E-18-5.43059E-19
 -1      4121 7.94204E-05-2.56332E-05-2.30095E-05 1.87780E-05-1.10362E-18-5.97138E-19
 -1      4122 7.54186E-05-2.25934E-05-2.26577E-05 1.64263E-05-1.16696E-18 5.84545E-19
 -1      4123 8.33896E-05-2.57861E-05-2.47027E-05 1.60054E-05-9.80465E-19-7.88636E-19
 -1      4124 9.49334E-05-2.79888E-05-2.86899E-05 2.20353E-07-4.72658E-19 7.03491E-19
 -1      4125 8.86871E-05-2.22345E-05-2.85014E-05 2.73065E-06 1.79709E-19-6.99516E-19
 -1      4126 8.77734E-05-2.19615E-05-2.82105E-05 3.13862E-06 2.10119E-19-6.91279E-19
 -1      4127 8.26558E-05-2.07661E-05-2.64924E-05 7.57233E-06-7.03828E-19-1.35676E-18
 -1      4128 8.82377E-05-2.23994E-05-2.82328E-05 2.65508E-06-5.52766E-20-3.97675E-19
 -1      4129 8.74670E-05-2.19711E-05-2.80742E-05 3.00306E-06-2.51287E-20-8.03943E-19
 -1      4130 8.65368E-05-2.15942E-05-2.78631E-05 3.48880E-06 2.48162E-19-8.48388E-19
 -1      4131 8.54574E-05-2.12939E-05-2.75002E-05 4.02482E-06 1.23973E-19-7.80885E-19
 -1      4132 8.66412E-05-2.13116E-05-2.79597E-05 2.04495E-06 7.49058E-20-3.80746E-19
 -1      4133 8.39092E-05-2.08792E-05-2.70497E-05 4.45936E-06 7.45778E-20-5.94866E-19
 -1      4134 8.25735E-05-2.06236E-05-2.65702E-05 5.23207E-06 1.70460E-19-7.49936E-19
 -1      4135 8.40191E-05-2.05412E-05-2.71616E-05 2.65904E-06 1.57740E-19-7.53411E-19
 -1      4136 7.67629E-05-1.98921E-05-2.44322E-05-9.71970E-06 5.08521E-19 1.66783E-18
 -1      4137 7.89935E-05-2.00482E-05-2.52502E-05-8.28072E-06 7.29230E-19 8.43447E-19
 -1      4138 8.01755E-05-2.00080E-05-2.58345E-05-7.01995E-06 3.50514E-19 1.16389E-18
 -1      4139 7.56080E-05-1.83987E-05-2.44640E-05-6.91144E-06 3.99199E-19 1.98688E-18
 -1      4140 8.18995E-05-2.02958E-05-2.64010E-05-6.10158E-06-1.94291E-19 1.45713E-18
 -1      4141 8.29664E-05-2.04676E-05-2.68193E-05-5.24218E-06-4.05237E-19 1.26929E-18
 -1      4142 7.95754E-05-1.91171E-05-2.58743E-05-4.92639E-06 5.24863E-19 1.14855E-18
 -1      4143 8.43460E-05-2.08511E-05-2.72146E-05-4.62519E-06 4.47929E-20 1.25817E-18
 -1      4144 8.52721E-05-2.11440E-05-2.75108E-05-4.03032E-06 2.33182E-19 1.63145E-18
 -1      4145 8.26681E-05-1.99434E-05-2.68511E-05-3.61930E-06-1.24000E-19 2.23474E-18
 -1      4146 8.63934E-05-2.15533E-05-2.77882E-05-3.57500E-06 5.28340E-19 1.84461E-18
 -1      4147 8.72131E-05-2.19335E-05-2.79926E-05-3.11899E-06 8.65632E-19 2.94818E-18
 -1      4148 8.51174E-05-2.08307E-05-2.75336E-05-2.71785E-06 7.48267E-19 1.93003E-18
 -1      4149 8.81268E-05-2.23858E-05-2.81796E-05-2.80687E-06 4.37408E-19 2.89791E-18
 -1      4150 8.88263E-05-2.27846E-05-2.83166E-05-2.45917E-06 3.07465E-19 2.61251E-18
 -1      4151 8.71578E-05-2.17857E-05-2.80017E-05-2.14916E-06 6.06339E-19 1.41053E-18
 -1      4152 8.95865E-05-2.32290E-05-2.84414E-05-2.20893E-06 4.58595E-20 2.99026E-18
 -1      4153 9.01779E-05-2.36336E-05-2.85290E-05-1.93208E-06-3.64684E-19 2.36336E-18
 -1      4154 8.88175E-05-2.26992E-05-2.83187E-05-1.66099E-06 2.82325E-19 1.85652E-18
 -1      4155 9.08041E-05-2.40581E-05-2.86079E-05-1.73847E-06 5.78895E-20 2.83716E-18
 -1      4156 9.12974E-05-2.44423E-05-2.86601E-05-1.51370E-06 6.16796E-19 3.00202E-18
 -1      4157 9.01959E-05-2.36043E-05-2.85260E-05-1.29469E-06 3.68003E-19 2.56564E-18
 -1      4158 9.18094E-05-2.48326E-05-2.87064E-05-1.36005E-06 9.03105E-21 1.78143E-18
 -1      4159 9.22142E-05-2.51834E-05-2.87338E-05-1.17657E-06 3.31101E-19 2.41864E-18
 -1      4160 9.13278E-05-2.44440E-05-2.86539E-05-1.00715E-06 3.52494E-20 1.98045E-18
 -1      4161 9.26277E-05-2.55308E-05-2.87575E-05-1.05415E-06 2.51401E-19 2.01851E-18
 -1      4162 9.29544E-05-2.58407E-05-2.87680E-05-9.04551E-07-2.93658E-19 9.76351E-19
 -1      4163 9.22488E-05-2.52019E-05-2.87259E-05-7.78227E-07-2.80846E-20 9.45419E-19
 -1      4164 9.32838E-05-2.61417E-05-2.87765E-05-8.07115E-07-5.60470E-19 4.32257E-21
 -1      4165 9.35428E-05-2.64079E-05-2.87761E-05-6.85936E-07 7.27768E-20 1.24468E-19
 -1      4166 9.29884E-05-2.58671E-05-2.87596E-05-5.95252E-07-9.21109E-19-8.18363E-20
 -1      4167 9.38012E-05-2.66624E-05-2.87748E-05-6.08809E-07 4.43531E-19-2.62265E-19
 -1      4168 9.40029E-05-2.68858E-05-2.87677E-05-5.11630E-07 1.01441E-20 4.41744E-19
 -1      4169 9.35737E-05-2.64367E-05-2.87677E-05-4.49312E-07 1.43463E-19-4.61768E-19
 -1      4170 9.42023E-05-2.70965E-05-2.87604E-05-4.51287E-07 2.90077E-19 1.86842E-19
 -1      4171 9.43564E-05-2.72800E-05-2.87496E-05-3.74309E-07 8.21757E-19 4.86548E-19
 -1      4172 9.40298E-05-2.69140E-05-2.87598E-05-3.33531E-07 1.95368E-19 3.37830E-19
 -1      4173 9.45070E-05-2.74504E-05-2.87390E-05-3.27581E-07 6.04968E-19-2.71641E-19
 -1      4174 9.46213E-05-2.75983E-05-2.87264E-05-2.64701E-07 2.70787E-19-4.76185E-20
 -1      4175 9.43777E-05-2.73046E-05-2.87424E-05-2.43204E-07 5.98635E-19-4.92729E-19
 -1      4176 9.01797E-05-2.27151E-05-2.89212E-05-2.91843E-06 4.39260E-19-6.69559E-19
 -1      4177 9.08724E-05-2.28742E-05-2.91539E-05-2.53577E-06 4.46707E-19-7.02196E-19
 -1      4178 8.64538E-05-2.15061E-05-2.78572E-05 3.31242E-06 3.77185E-19-1.09331E-18
 -1      4179 8.55386E-05-2.11131E-05-2.76210E-05 3.75113E-06 1.36019E-19-9.86023E-19
 -1      4180 8.64210E-05-2.13245E-05-2.78662E-05 2.18103E-06-1.49728E-19-1.10773E-18
 -1      4181 7.70738E-05-1.92263E-05-2.48526E-05 5.92962E-06 1.11026E-18-8.27743E-19
 -1      4182 8.97183E-05-2.32936E-05-2.84797E-05 2.12950E-06 1.74922E-19-8.78953E-20
 -1      4183 8.90713E-05-2.28659E-05-2.83775E-05 2.41552E-06-3.50787E-21-2.45597E-19
 -1      4184 8.82392E-05-2.23146E-05-2.82334E-05 1.72935E-06-2.21394E-19-7.30437E-19
 -1      4185 9.27359E-05-2.56276E-05-2.87666E-05 1.05295E-06-6.41879E-19 6.43304E-19
 -1      4186 9.23829E-05-2.52995E-05-2.87523E-05 1.21893E-06-1.49989E-18 7.00265E-19
 -1      4187 9.09380E-05-2.41477E-05-2.86337E-05 1.70222E-06-2.97499E-20 2.86784E-19
 -1      4188 9.04018E-05-2.37422E-05-2.85720E-05 1.93975E-06 2.49002E-19-3.31853E-19
 -1      4189 8.97414E-05-2.32669E-05-2.84739E-05 1.39299E-06 1.11947E-19-5.50394E-19
 -1      4190 9.33743E-05-2.62306E-05-2.87805E-05 8.10444E-07 4.92674E-19-3.39913E-19
 -1      4191 9.30944E-05-2.59478E-05-2.87788E-05 9.47776E-07 4.35446E-19 5.74507E-19
 -1      4192 9.27673E-05-2.56540E-05-2.87556E-05 6.93203E-07 1.01240E-20-7.02236E-19
 -1      4193 9.38743E-05-2.67403E-05-2.87753E-05 6.12979E-07-7.38248E-19 7.20752E-19
 -1      4194 9.36560E-05-2.65024E-05-2.87814E-05 7.25197E-07-5.05762E-19 6.54847E-19
 -1      4195 9.34026E-05-2.62595E-05-2.87700E-05 5.33982E-07-3.70165E-19-2.48091E-19
 -1      4196 9.42596E-05-2.71622E-05-2.87588E-05 4.54229E-07-1.40387E-18-2.48617E-19
 -1      4197 9.40922E-05-2.69660E-05-2.87693E-05 5.44721E-07-7.82633E-19 3.03359E-19
 -1      4198 9.38985E-05-2.67686E-05-2.87657E-05 4.04311E-07-4.78534E-19-2.72718E-19
 -1      4199 9.45511E-05-2.75049E-05-2.87362E-05 3.28829E-07-1.06698E-18-9.61341E-19
 -1      4200 9.44251E-05-2.73461E-05-2.87488E-05 4.00706E-07-1.34046E-18-4.69072E-19
 -1      4201 9.42800E-05-2.71891E-05-2.87503E-05 2.99679E-07-1.04420E-18-1.35169E-18
 -1      4202 9.26037E-05-2.16920E-05-3.04001E-05-4.06151E-07 7.47296E-19-9.15540E-19
 -1      4203 9.24998E-05-2.15542E-05-3.04107E-05-1.64504E-07 5.79644E-19-9.08404E-19
 -1      4204 9.26704E-05-2.22346E-05-3.01726E-05-8.35895E-07 7.21874E-19-8.84673E-19
 -1      4205 9.26127E-05-2.14436E-05-3.05024E-05 3.47619E-07 3.94585E-19-8.99782E-19
 -1      4206 9.27191E-05-2.19418E-05-3.03193E-05 6.45475E-07 4.08685E-19-9.74005E-19
 -1      4207 9.25226E-05-2.14819E-05-3.04602E-05 1.97136E-07 5.46780E-19-9.62494E-19
 -1      4208 9.32686E-05-2.31793E-05-3.00273E-05-1.94219E-06 7.45828E-19-9.65240E-19
 -1      4209 9.49193E-05-2.79870E-05-2.86862E-05-1.61434E-07 6.20685E-19-3.36710E-18
 -1      4210 9.48451E-05-2.78865E-05-2.86969E-05-1.49818E-07-8.59611E-19-2.39725E-18
 -1      4211 9.03993E-05-2.26882E-05-2.90355E-05 2.12241E-06 2.20767E-19-7.33410E-19
 -1      4212 8.96648E-05-2.25107E-05-2.87863E-05 2.47272E-06 2.55478E-19-6.22736E-19
 -1      4213 8.88331E-05-2.20072E-05-2.85985E-05 1.60295E-06 2.18486E-19-4.38097E-19
 -1      4214 9.19333E-05-2.49310E-05-2.87226E-05 1.34737E-06-1.94917E-18 8.97102E-19
 -1      4215 9.14950E-05-2.45604E-05-2.86892E-05 1.54617E-06-9.81542E-19 1.44245E-19
 -1      4216 9.09686E-05-2.41504E-05-2.86246E-05 1.11668E-06-7.26643E-19-2.34230E-19
 -1      4217 9.19660E-05-2.49498E-05-2.87119E-05 8.85767E-07-1.49945E-18-1.03578E-18
 -1      4218 9.48997E-05-2.79553E-05-2.86911E-05 1.83075E-07-2.36089E-19-5.20229E-19
 -1      4219 8.56844E-05-2.27895E-05-2.69258E-05-9.39628E-06-3.72659E-19-6.11521E-19
 -1      4220 8.62464E-05-2.26178E-05-2.73073E-05-8.38928E-06-2.64511E-19-4.95766E-19
 -1      4221 8.28617E-05-2.14627E-05-2.62806E-05-8.82479E-06-1.75943E-19-5.26481E-19
 -1      4222 8.84033E-05-2.21895E-05-2.83839E-05-3.61688E-06-2.50880E-20-4.78547E-19
 -1      4223 8.92694E-05-2.24541E-05-2.86523E-05-3.19842E-06 1.96711E-19-4.50552E-19
 -1      4224 8.93367E-05-2.21990E-05-2.87372E-05-2.08321E-06 1.97843E-19-4.83494E-19
 -1      4225 9.16733E-05-2.28351E-05-2.95187E-05 1.57231E-06 2.17846E-19-8.23231E-19
 -1      4226 9.11350E-05-2.28128E-05-2.92868E-05 1.90764E-06 1.83833E-19-7.30481E-19
 -1      4227 9.05129E-05-2.24406E-05-2.91405E-05 1.23165E-06 1.87782E-19-6.28480E-19
 -1      4228 9.25249E-05-2.23233E-05-3.00926E-05 8.38142E-07 3.88668E-19-9.75769E-19
 -1      4229 9.21429E-05-2.27549E-05-2.97356E-05 1.35633E-06 3.12072E-19-9.19164E-19
 -1      4230 9.16485E-05-2.24909E-05-2.96135E-05 8.63231E-07 3.88490E-19-7.30352E-19
 -1      4231 9.23407E-05-2.21993E-05-3.00580E-05 5.11227E-07 4.32230E-19-7.72513E-19
 -1      4232 9.27318E-05-2.28529E-05-2.99418E-05-1.76370E-06 6.52312E-19-1.03431E-18
 -1      4233 9.48220E-05-2.78490E-05-2.87020E-05 1.75653E-07-2.36902E-19-9.07044E-19
 -1      4234 8.16439E-05-1.99064E-05-2.65055E-05 5.34836E-06-7.82916E-19 7.31877E-20
 -1      4235 8.04092E-05-1.96885E-05-2.60139E-05 6.21628E-06-9.09528E-19-3.05117E-19
 -1      4236 9.09031E-05-2.25810E-05-2.92544E-05-1.64820E-06 4.63728E-19-7.19959E-19
 -1      4237 9.15433E-05-2.29733E-05-2.93949E-05-2.27479E-06 5.11225E-19-6.84179E-19
 -1      4238 9.20332E-05-2.29568E-05-2.96162E-05-1.89223E-06 5.03678E-19-8.64154E-19
 -1      4239 8.09942E-05-2.02019E-05-2.61014E-05 5.42833E-06 3.67870E-19-7.13488E-19
 -1      4240 7.94664E-05-1.98660E-05-2.55930E-05 5.94231E-06 7.25771E-19-6.39645E-19
 -1      4241 8.09066E-05-1.95400E-05-2.62294E-05 3.09853E-06 3.37758E-19-2.82740E-19
 -1      4242 7.17697E-05-1.66440E-05-2.35230E-05-2.92823E-06-3.97258E-19 6.93606E-19
 -1      4243 7.37615E-05-1.76029E-05-2.40607E-05-5.15621E-06-5.53867E-19 1.80384E-18
 -1      4244 7.60015E-05-1.80061E-05-2.49043E-05-4.18370E-06-2.09574E-19 6.21493E-19
 -1      4245 8.53525E-05-2.17015E-05-2.72585E-05-6.95858E-06-4.89952E-19-6.11745E-19
 -1      4246 9.47618E-05-2.77729E-05-2.87097E-05-1.92174E-07-1.33146E-18-1.18146E-18
 -1      4247 8.41700E-05-2.03510E-05-2.73238E-05 2.78836E-06-9.57974E-20-1.38899E-19
 -1      4248 8.42919E-05-2.06412E-05-2.73066E-05 4.15758E-06-2.62559E-19-7.93810E-19
 -1      4249 8.32279E-05-2.03096E-05-2.69643E-05 4.78203E-06-3.07545E-19-6.15626E-19
 -1      4250 9.46709E-05-2.76643E-05-2.87153E-05-1.34627E-07-1.04040E-18-1.53366E-18
 -1      4251 7.72133E-05-1.96342E-05-2.47540E-05-7.98822E-06 2.68734E-20-1.20142E-18
 -1      4252 7.70899E-05-1.84375E-05-2.50407E-05 2.91795E-06 7.54928E-19-5.31020E-19
 -1      4253 9.24667E-05-2.19059E-05-3.02343E-05-2.49198E-08 5.79607E-19-7.66985E-19
 -1      4254 9.47663E-05-2.77771E-05-2.87111E-05 2.32157E-07-5.91290E-19-1.66279E-19
 -1      4255 9.46748E-05-2.76521E-05-2.87243E-05 2.86978E-07-9.75503E-19-5.84237E-19
 -1      4256 9.45669E-05-2.75292E-05-2.87287E-05 2.17019E-07-1.14927E-18-2.67324E-18
 -1      4257 7.81264E-05-1.84278E-05-2.55005E-05 4.64990E-06-4.07134E-19 9.36363E-19
 -1      4258 7.86964E-05-1.94688E-05-2.54529E-05 7.23541E-06-1.92407E-19 4.94265E-20
 -1      4259 7.77957E-05-1.96193E-05-2.48958E-05 8.49103E-06 4.90674E-19 1.80800E-19
 -1      4260 9.47428E-05-2.77596E-05-2.87078E-05 1.26151E-07-1.07347E-18-2.74342E-18
 -1      4261 9.47159E-05-2.77274E-05-2.87091E-05 5.89757E-08-1.50100E-18-2.58358E-18
 -1      4262 9.46538E-05-2.76441E-05-2.87180E-05 1.13548E-07-8.93250E-19-3.44442E-18
 -1      4263 9.45282E-05-2.74960E-05-2.87297E-05 1.42623E-07-8.66310E-19-2.50743E-18
 -1      4264 9.47116E-05-2.77287E-05-2.87089E-05-1.80938E-08-1.87869E-18-2.15162E-18
 -1      4265 7.57533E-05-1.81311E-05-2.47763E-05-1.61960E-07 6.78991E-19-1.09805E-18
 -1      4266 7.55725E-05-1.81060E-05-2.45574E-05-4.24273E-06 3.96886E-19-1.44302E-18
 -1      4267 7.82426E-05-1.87620E-05-2.55032E-05 2.58661E-07 4.18779E-19-7.49551E-19
 -1      4268 8.61218E-05-2.14992E-05-2.77169E-05-4.49807E-06-1.44903E-19-7.71503E-19
 -1      4269 8.72270E-05-2.18236E-05-2.80581E-05-3.96458E-06 3.43745E-20-6.14510E-19
 -1      4270 8.72688E-05-2.15247E-05-2.81342E-05-2.55657E-06 1.63359E-19-4.72292E-19
 -1      4271 7.17092E-05-1.94243E-05-2.23372E-05 1.30998E-05-3.03951E-19 1.86687E-18
 -1      4272 6.90757E-05-1.71384E-05-2.23122E-05 8.10889E-06-1.43091E-19 8.94374E-19
 -1      4273 7.62010E-05-2.13191E-05-2.34391E-05 1.34969E-05-4.34085E-19 3.99793E-19
 -1      4274 7.95365E-05-2.27579E-05-2.43440E-05 1.40557E-05-5.29935E-19-1.12500E-18
 -1      4275 6.91583E-05-1.61173E-05-2.25949E-05 4.52672E-06 1.09476E-19 5.00924E-19
 -1      4276 6.97057E-05-1.61010E-05-2.30317E-05-7.30117E-08 2.81375E-19 6.01529E-19
 -1      4277 7.28816E-05-1.68914E-05-2.40761E-05 3.66622E-07-2.04426E-19 1.57666E-19
 -1      4278 7.22638E-05-1.75032E-05-2.34207E-05 6.46820E-06 4.31957E-19 8.00456E-19
 -1      4279 9.23304E-05-2.28199E-05-2.97834E-05-1.57992E-06 5.03724E-19-8.71796E-19
 -1      4280 9.24815E-05-2.25106E-05-2.99982E-05-1.07472E-06 6.23143E-19-8.81704E-19
 -1      4281 9.22981E-05-2.22726E-05-3.00099E-05-6.33637E-07 4.89401E-19-7.10185E-19
 -1      4282 9.18393E-05-2.25780E-05-2.96669E-05-1.12974E-06 3.63222E-19-6.82699E-19
 -1      4283 8.88756E-05-2.20798E-05-2.86565E-05-3.99194E-07 6.69607E-20-4.25030E-19
 -1      4284 8.97961E-05-2.23309E-05-2.89333E-05-2.45046E-07 1.93636E-19-5.15589E-19
 -1      4285 9.05597E-05-2.25011E-05-2.91915E-05-3.47558E-07 4.17261E-19-6.05508E-19
 -1      4286 8.14157E-05-1.93819E-05-2.65418E-05 3.44037E-06-7.44959E-21 3.55167E-19
 -1      4287 8.67927E-05-3.09873E-05-2.37413E-05-2.09337E-05-9.16715E-19-1.20044E-18
 -1      4288 8.13844E-05-1.96574E-05-2.64720E-05 7.24189E-07 3.47113E-19-5.32150E-19
 -1      4289 7.97631E-05-1.92118E-05-2.60055E-05 6.68328E-07 3.38322E-19-4.67655E-19
 -1      4290 7.92286E-05-1.89035E-05-2.57981E-05-2.36095E-06 1.97968E-19-1.24019E-18
 -1      4291 8.66088E-05-2.14463E-05-2.79424E-05 9.65946E-07-1.87156E-19-5.49424E-19
 -1      4292 8.55578E-05-2.09242E-05-2.77209E-05 1.15828E-06-5.36476E-20-3.77258E-19
 -1      4293 9.22354E-05-2.22314E-05-3.00080E-05 9.25204E-08 4.41353E-19-8.07696E-19
 -1      4294 8.22551E-05-2.03263E-05-2.65317E-05-4.84110E-06-1.34602E-19-9.83124E-19
 -1      4295 8.34905E-05-2.05744E-05-2.69839E-05-4.20147E-06-3.06288E-19-1.17847E-18
 -1      4296 7.82728E-05-1.85509E-05-2.56066E-05-3.59959E-06 7.33813E-19 1.79512E-19
 -1      4297 8.00124E-05-1.89974E-05-2.61854E-05-2.97482E-06 1.51993E-19 7.82793E-19
 -1      4298 7.68595E-05-1.77809E-05-2.52455E-05-2.06239E-06 1.26476E-20 3.95827E-19
 -1      4299 8.17083E-05-1.95158E-05-2.66680E-05-2.60184E-06 7.11235E-20 1.09561E-18
 -1      4300 8.30803E-05-1.99731E-05-2.70747E-05-2.17883E-06 3.72318E-19 1.78275E-18
 -1      4301 8.07430E-05-1.89188E-05-2.64267E-05-1.51553E-06 4.37148E-19-4.60458E-19
 -1      4302 8.49173E-05-2.06707E-05-2.75353E-05-1.46845E-06-1.79784E-19 1.34047E-18
 -1      4303 8.60324E-05-2.11877E-05-2.78017E-05-1.22329E-06 7.80396E-19 7.12754E-19
 -1      4304 8.69601E-05-2.16474E-05-2.80002E-05-1.02764E-06 3.56821E-19 8.16195E-19
 -1      4305 8.82128E-05-2.23412E-05-2.82362E-05-9.31884E-07 5.09629E-19 2.86058E-19
 -1      4306 8.89710E-05-2.28202E-05-2.83624E-05-7.74593E-07 2.05442E-19 6.24979E-19
 -1      4307 8.97101E-05-2.32929E-05-2.84704E-05-7.18074E-07-6.60152E-19 1.46984E-18
 -1      4308 9.03409E-05-2.37387E-05-2.85525E-05-5.93629E-07-1.67456E-19 7.27267E-19
 -1      4309 8.92572E-05-2.29478E-05-2.84002E-05-4.47474E-08 1.79447E-19-7.75761E-19
 -1      4310 9.09437E-05-2.41757E-05-2.86195E-05-5.52667E-07-3.35164E-19 1.07448E-18
 -1      4311 9.14588E-05-2.45823E-05-2.86682E-05-4.53244E-07-2.73609E-19 5.90641E-19
 -1      4312 9.05822E-05-2.38739E-05-2.85748E-05-1.74340E-08-1.25000E-19-2.65715E-19
 -1      4313 9.19466E-05-2.49735E-05-2.87064E-05-4.24099E-07-5.41455E-19 3.17878E-19
 -1      4314 9.23623E-05-2.53341E-05-2.87319E-05-3.43867E-07-6.30491E-19-1.13045E-19
 -1      4315 9.16583E-05-2.47126E-05-2.86797E-05-1.71014E-09-5.76003E-19-3.17278E-20
 -1      4316 9.27529E-05-2.56757E-05-2.87502E-05-3.23213E-07-4.69004E-19-5.15490E-19
 -1      4317 9.30838E-05-2.59875E-05-2.87599E-05-2.58365E-07-6.29686E-19-5.69792E-19
 -1      4318 9.25246E-05-2.54533E-05-2.87360E-05 6.29994E-09-6.22330E-19-9.71952E-19
 -1      4319 9.33924E-05-2.62789E-05-2.87651E-05-2.43861E-07-2.39986E-19-3.41978E-19
 -1      4320 9.36518E-05-2.65424E-05-2.87646E-05-1.91617E-07-4.62038E-20-9.28260E-19
 -1      4321 9.32136E-05-2.60925E-05-2.87593E-05 9.51809E-09-4.75875E-19-6.56965E-19
 -1      4322 9.38916E-05-2.67856E-05-2.87614E-05-1.81608E-07-1.53905E-19-6.02937E-19
 -1      4323 9.40910E-05-2.70037E-05-2.87547E-05-1.39205E-07 2.06972E-19-1.82598E-19
 -1      4324 9.37537E-05-2.66321E-05-2.87611E-05 9.78769E-09 5.50008E-20-2.00073E-18
 -1      4325 9.29833E-05-2.58849E-05-2.87593E-05 3.14851E-07-1.29285E-19-8.34494E-19
 -1      4326 9.26258E-05-2.55629E-05-2.87463E-05 3.81894E-07-4.77082E-19-1.27473E-18
 -1      4327 9.35747E-05-2.64575E-05-2.87666E-05 2.41611E-07-2.14581E-20-1.44558E-18
 -1      4328 9.32938E-05-2.61847E-05-2.87650E-05 2.97399E-07-8.25990E-20-8.58635E-19
 -1      4329 9.45698E-05-2.75430E-05-2.87254E-05-7.46754E-08-8.60822E-19-1.01378E-18
 -1      4330 9.01318E-05-2.35741E-05-2.85317E-05 6.26654E-07 7.59311E-19-7.51852E-19
 -1      4331 8.94487E-05-2.31157E-05-2.84381E-05 7.36453E-07 2.28619E-19-4.89835E-19
 -1      4332 9.40348E-05-2.69349E-05-2.87582E-05 1.81993E-07-5.06658E-19-2.27936E-18
 -1      4333 9.38167E-05-2.67085E-05-2.87637E-05 2.26941E-07-5.10467E-20-1.30386E-18
 -1      4334 9.43886E-05-2.73282E-05-2.87406E-05 1.46883E-07-3.85670E-19-2.77787E-18
 -1      4335 9.42223E-05-2.71442E-05-2.87502E-05 1.83805E-07-5.17013E-19-2.40844E-18
 -1      4336 9.41725E-05-2.70811E-05-2.87496E-05 2.29135E-08-4.11336E-19-2.42277E-18
 -1      4337 9.44906E-05-2.74464E-05-2.87304E-05 4.02991E-08-4.07518E-19-2.51332E-18
 -1      4338 8.78799E-05-2.17559E-05-2.83625E-05-2.80562E-07 1.86842E-19-4.37556E-19
 -1      4339 7.92833E-05-1.98233E-05-2.54611E-05-6.48991E-06 1.22434E-19-1.15361E-18
 -1      4340 9.12429E-05-2.25747E-05-2.94402E-05-1.96139E-07 3.39305E-19-6.50345E-19
 -1      4341 8.67129E-05-2.13774E-05-2.80303E-05-4.24764E-07 1.51490E-19-2.78709E-19
 -1      4342 8.55026E-05-2.09550E-05-2.76729E-05-3.02643E-07-1.80702E-20-3.50780E-19
 -1      4343 8.06738E-05-2.00025E-05-2.60553E-05-5.54696E-06-2.41446E-20-1.06878E-18
 -1      4344 8.87070E-05-2.26315E-05-2.83277E-05 7.65357E-07 1.06328E-19-9.80238E-19
 -1      4345 8.78769E-05-2.21400E-05-2.81842E-05 8.97209E-07-1.15817E-19-1.09983E-18
 -1      4346 7.59969E-05-1.99259E-05-2.40648E-05 1.08545E-05 5.41958E-19 2.92465E-19
 -1      4347 7.49520E-05-1.74850E-05-2.46600E-05 1.65153E-06 7.06445E-20 8.04875E-19
 -1      4348 7.72153E-05-1.80869E-05-2.53853E-05 1.69813E-06 2.07079E-19 1.09459E-18
 -1      4349 8.73140E-05-2.17864E-05-2.80638E-05-7.53990E-08 5.11639E-19-2.80797E-19
 -1      4350 8.42795E-05-2.05488E-05-2.73633E-05 7.09029E-07 5.59584E-20-3.26175E-19
 -1      4351 8.27834E-05-2.00798E-05-2.69052E-05 1.02726E-06 3.00396E-19-3.62350E-19
 -1      4352 9.20110E-05-2.24159E-05-2.98325E-05-8.84849E-08 2.90344E-19-6.58904E-19
 -1      4353 9.42767E-05-2.72042E-05-2.87464E-05-1.19489E-07-1.31493E-19-7.65248E-19
 -1      4354 9.22331E-05-2.52121E-05-2.87271E-05 4.02589E-07-1.04888E-18-1.50734E-18
 -1      4355 9.44281E-05-2.73830E-05-2.87363E-05-8.73071E-08 3.28895E-20-1.36586E-18
 -1      4356 8.23560E-05-1.96142E-05-2.69210E-05 9.43292E-07 1.44703E-20-2.77809E-19
 -1      4357 8.07187E-05-1.90632E-05-2.64596E-05 1.20229E-06 6.36284E-20-1.18217E-19
 -1      4358 8.36857E-05-2.00769E-05-2.72657E-05 7.50208E-07-2.30185E-19 1.33886E-19
 -1      4359 9.07373E-05-2.40211E-05-2.86005E-05 5.99448E-07 2.87690E-19 3.46919E-19
 -1      4360 7.45624E-05-1.82810E-05-2.40882E-05 7.78852E-06 8.84704E-19 1.35522E-18
 -1      4361 8.42936E-05-2.03170E-05-2.73849E-05-5.40756E-07-1.26535E-19 7.85494E-19
 -1      4362 9.12939E-05-2.44395E-05-2.86571E-05 5.05998E-07-9.12401E-19-1.15766E-19
 -1      4363 7.89690E-05-1.85290E-05-2.59554E-05 1.14077E-06 1.73574E-19 1.34743E-19
 -1      4364 8.48660E-05-2.09673E-05-2.73790E-05-3.63231E-06-1.81093E-19-6.88459E-19
 -1      4365 8.48154E-05-2.06377E-05-2.74628E-05-1.93193E-06 5.06212E-20-2.28821E-19
 -1      4366 9.17093E-05-2.25290E-05-2.96612E-05-3.18173E-07 3.32440E-19-6.74736E-19
 -1      4367 9.17842E-05-2.48404E-05-2.86964E-05 4.82043E-07-1.33452E-18-8.77255E-19
 -1      4368 8.21901E-05-1.97784E-05-2.67235E-05-1.37540E-06 1.37090E-19-5.29648E-19
 -1      4369 7.40718E-05-1.73329E-05-2.42946E-05 4.36359E-06 6.86937E-19 1.25126E-18
 -3
    1PSTEP                         4           1           1          
  100CL  101 1.000000000        4369                     0    1           1
 -4  ERROR       1    1
 -5  STR(%)      1    1    0    0
 -1         1 1.33873E+01
 -1         2 2.70472E+01
 -1         3 1.52490E-03
 -1         4 1.59920E-03
 -1         5 1.39503E+01
 -1         6 1.30528E+01
 -1         7 1.30528E+01
 -1         8 3.57942E+00
 -1         9 1.78644E+00
 -1        10 1.28210E+00
 -1        11 1.03389E+00
 -1        12 8.75491E-01
 -1        13 7.69761E-01
 -1        14 6.99501E-01
 -1        15 7.02249E-01
 -1        16 7.74084E-01
 -1        17 8.75676E-01
 -1        18 1.04003E+00
 -1        19 1.30038E+00
 -1        20 1.79650E+00
 -1        21 3.42175E+00
 -1        22 8.50582E+00
 -1        23 1.30528E+01
 -1        24 4.33175E+00
 -1        25 3.32030E+00
 -1        26 2.08151E+00
 -1        27 1.45307E+00
 -1        28 1.13031E+00
 -1        29 9.01184E-01
 -1        30 7.19536E-01
 -1        31 6.67366E-01
 -1        32 7.07641E-01
 -1        33 7.19030E-01
 -1        34 9.41282E-01
 -1        35 1.15378E+00
 -1        36 1.28511E+00
 -1        37 1.28511E+00
 -1        38 1.29829E+00
 -1        39 1.29829E+00
 -1        40 1.64231E+00
 -1        41 2.61214E+00
 -1        42 3.67160E+00
 -1        43 3.74384E+00
 -1        44 3.81183E+00
 -1        45 3.81183E+00
 -1        46 2.96950E+00
 -1        47 1.73320E+00
 -1        48 1.33389E+00
 -1        49 1.30391E+00
 -1        50 1.27654E+00
 -1        51 1.27654E+00
 -1        52 1.18702E+00
 -1        53 1.00265E+00
 -1        54 7.99968E-01
 -1        55 6.36621E-01
 -1        56 5.07705E-01
 -1        57 4.31058E-01
 -1        58 3.52174E-01
 -1        59 2.78624E-01
 -1        60 2.14193E-01
 -1        61 1.60188E-01
 -1        62 1.16428E-01
 -1        63 9.54096E-02
 -1        64 7.77826E-02
 -1        65 6.15500E-02
 -1        66 4.70571E-02
 -1        67 3.43323E-02
 -1        68 2.33458E-02
 -1        69 1.74548E-02
 -1        70 1.08269E-02
 -1        71 5.78261E-03
 -1        72 1.39503E+01
 -1        73 3.42966E+00
 -1        74 2.43358E+00
 -1        75 1.68407E+00
 -1        76 1.28711E+00
 -1        77 1.10573E+00
 -1        78 9.68815E-01
 -1        79 8.59626E-01
 -1        80 7.63214E-01
 -1        81 7.45338E-01
 -1        82 7.71662E-01
 -1        83 7.74239E-01
 -1        84 8.50348E-01
 -1        85 1.07076E+00
 -1        86 1.19012E+00
 -1        87 1.42153E+00
 -1        88 1.57496E+00
 -1        89 1.73249E+00
 -1        90 2.06098E+00
 -1        91 3.11859E+00
 -1        92 3.53521E+00
 -1        93 4.05292E+00
 -1        94 4.05292E+00
 -1        95 3.39765E+00
 -1        96 2.01845E+00
 -1        97 1.33039E+00
 -1        98 1.16784E+00
 -1        99 1.37469E+00
 -1       100 1.37469E+00
 -1       101 1.34463E+00
 -1       102 1.18867E+00
 -1       103 1.00197E+00
 -1       104 8.26259E-01
 -1       105 6.52239E-01
 -1       106 4.95637E-01
 -1       107 3.63321E-01
 -1       108 2.84613E-01
 -1       109 2.17600E-01
 -1       110 1.62053E-01
 -1       111 1.17416E-01
 -1       112 8.24531E-02
 -1       113 5.56721E-02
 -1       114 4.45880E-02
 -1       115 3.58322E-02
 -1       116 2.75517E-02
 -1       117 1.99861E-02
 -1       118 1.65481E-02
 -1       119 1.15027E-02
 -1       120 5.47911E-03
 -1       121 3.12208E-03
 -1       122 9.17884E-04
 -1       123 1.33610E-03
 -1       124 1.33610E-03
 -1       125 1.12673E-03
 -1       126 6.44206E-04
 -1       127 4.55513E-04
 -1       128 5.70287E-04
 -1       129 5.70287E-04
 -1       130 4.55703E-04
 -1       131 6.29223E-04
 -1       132 1.12199E-03
 -1       133 1.35316E-03
 -1       134 1.35316E-03
 -1       135 1.03580E-03
 -1       136 3.10279E-03
 -1       137 2.70472E+01
 -1       138 4.74912E+01
 -1       139 4.74912E+01
 -1       140 2.06163E+01
 -1       141 1.21052E+01
 -1       142 1.34908E+01
 -1       143 1.34908E+01
 -1       144 1.29441E+01
 -1       145 1.29441E+01
 -1       146 1.30130E+01
 -1       147 2.75918E+01
 -1       148 2.83725E+01
 -1       149 2.83725E+01
 -1       150 2.45976E+01
 -1       151 2.54478E+01
 -1       152 2.54478E+01
 -1       153 4.54478E+01
 -1       154 4.54478E+01
 -1       155 1.79962E+01
 -1       156 1.33350E+01
 -1       157 1.33350E+01
 -1       158 1.27834E+01
 -1       159 1.33873E+01
 -1       160 1.71170E+01
 -1       161 4.50354E+01
 -1       162 4.50354E+01
 -1       163 2.57813E+01
 -1       164 5.95053E+00
 -1       165 2.26194E+00
 -1       166 1.50747E+00
 -1       167 1.15401E+00
 -1       168 9.57388E-01
 -1       169 8.32742E-01
 -1       170 7.48739E-01
 -1       171 6.97062E-01
 -1       172 7.52223E-01
 -1       173 8.35143E-01
 -1       174 9.64836E-01
 -1       175 1.16846E+00
 -1       176 1.52716E+00
 -1       177 2.25080E+00
 -1       178 3.85743E+00
 -1       179 1.39503E+01
 -1       180 4.33175E+00
 -1       181 3.32030E+00
 -1       182 2.08151E+00
 -1       183 1.45307E+00
 -1       184 1.13031E+00
 -1       185 9.01184E-01
 -1       186 7.19536E-01
 -1       187 6.13138E-01
 -1       188 6.67366E-01
 -1       189 7.07641E-01
 -1       190 7.44212E-01
 -1       191 9.41282E-01
 -1       192 1.15378E+00
 -1       193 1.28511E+00
 -1       194 1.24223E+00
 -1       195 1.29829E+00
 -1       196 1.16639E+00
 -1       197 1.64231E+00
 -1       198 2.61214E+00
 -1       199 3.67160E+00
 -1       200 3.74384E+00
 -1       201 3.81183E+00
 -1       202 2.96950E+00
 -1       203 1.84448E+00
 -1       204 1.33389E+00
 -1       205 1.30391E+00
 -1       206 1.23980E+00
 -1       207 1.27654E+00
 -1       208 1.18702E+00
 -1       209 1.00265E+00
 -1       210 8.36881E-01
 -1       211 7.21212E-01
 -1       212 6.00864E-01
 -1       213 4.77824E-01
 -1       214 3.64909E-01
 -1       215 2.78624E-01
 -1       216 2.17182E-01
 -1       217 1.68232E-01
 -1       218 1.27063E-01
 -1       219 9.54096E-02
 -1       220 7.77826E-02
 -1       221 6.15500E-02
 -1       222 4.70571E-02
 -1       223 3.43323E-02
 -1       224 2.43410E-02
 -1       225 1.74548E-02
 -1       226 1.08269E-02
 -1       227 5.78261E-03
 -1       228 3.42966E+00
 -1       229 2.43358E+00
 -1       230 1.68407E+00
 -1       231 1.28711E+00
 -1       232 1.10573E+00
 -1       233 9.68815E-01
 -1       234 8.59626E-01
 -1       235 7.63214E-01
 -1       236 6.93299E-01
 -1       237 7.45338E-01
 -1       238 7.71662E-01
 -1       239 7.74239E-01
 -1       240 8.60801E-01
 -1       241 1.07076E+00
 -1       242 1.19012E+00
 -1       243 1.42153E+00
 -1       244 1.57496E+00
 -1       245 1.73249E+00
 -1       246 2.15756E+00
 -1       247 3.11859E+00
 -1       248 3.53521E+00
 -1       249 4.05292E+00
 -1       250 3.39765E+00
 -1       251 2.01845E+00
 -1       252 1.33039E+00
 -1       253 1.11168E+00
 -1       254 1.16784E+00
 -1       255 1.37469E+00
 -1       256 1.34463E+00
 -1       257 1.18867E+00
 -1       258 1.00197E+00
 -1       259 8.32619E-01
 -1       260 6.76760E-01
 -1       261 5.29132E-01
 -1       262 3.99570E-01
 -1       263 2.91771E-01
 -1       264 2.17600E-01
 -1       265 1.62053E-01
 -1       266 1.18493E-01
 -1       267 8.56202E-02
 -1       268 5.99741E-02
 -1       269 4.45880E-02
 -1       270 3.58322E-02
 -1       271 2.75517E-02
 -1       272 1.99861E-02
 -1       273 1.65481E-02
 -1       274 1.15027E-02
 -1       275 5.47911E-03
 -1       276 1.92627E-03
 -1       277 2.46282E-03
 -1       278 2.46282E-03
 -1       279 2.38033E-03
 -1       280 1.79157E-03
 -1       281 1.22392E-03
 -1       282 1.54446E-03
 -1       283 1.54446E-03
 -1       284 1.54333E-03
 -1       285 1.21863E-03
 -1       286 1.76518E-03
 -1       287 2.33809E-03
 -1       288 2.92825E-03
 -1       289 2.92825E-03
 -1       290 3.65621E-03
 -1       291 2.95713E+01
 -1       292 2.86740E+01
 -1       293 4.74912E+01
 -1       294 2.19858E+01
 -1       295 1.11935E+01
 -1       296 1.21052E+01
 -1       297 1.34908E+01
 -1       298 1.22946E+01
 -1       299 1.29441E+01
 -1       300 1.25428E+01
 -1       301 1.30130E+01
 -1       302 2.79100E+01
 -1       303 2.83725E+01
 -1       304 2.45976E+01
 -1       305 2.93620E+01
 -1       306 2.93620E+01
 -1       307 3.85009E+01
 -1       308 4.54478E+01
 -1       309 1.82151E+01
 -1       310 1.16184E+01
 -1       311 1.33350E+01
 -1       312 1.25207E+01
 -1       313 1.27834E+01
 -1       314 1.33873E+01
 -1       315 1.14793E+01
 -1       316 1.74721E+01
 -1       317 4.50354E+01
 -1       318 3.92147E+01
 -1       319 2.95713E+01
 -1       320 1.03284E+00
 -1       321 2.40661E+00
 -1       322 7.92029E-01
 -1       323 6.80782E-01
 -1       324 6.05366E-01
 -1       325 5.49258E-01
 -1       326 5.52730E-01
 -1       327 6.08022E-01
 -1       328 6.87339E-01
 -1       329 7.93049E-01
 -1       330 9.35324E-01
 -1       331 1.14260E+00
 -1       332 1.29357E+00
 -1       333 2.13619E+00
 -1       334 1.82437E+00
 -1       335 1.68346E+00
 -1       336 1.19500E+00
 -1       337 8.08726E-01
 -1       338 6.85462E-01
 -1       339 5.62575E-01
 -1       340 4.36696E-01
 -1       341 4.94840E-01
 -1       342 5.41327E-01
 -1       343 6.16118E-01
 -1       344 7.35597E-01
 -1       345 8.75593E-01
 -1       346 9.49877E-01
 -1       347 8.95542E-01
 -1       348 7.32672E-01
 -1       349 7.80664E-01
 -1       350 1.10259E+00
 -1       351 1.64523E+00
 -1       352 2.16196E+00
 -1       353 2.33672E+00
 -1       354 2.30442E+00
 -1       355 2.27022E+00
 -1       356 1.73072E+00
 -1       357 1.26948E+00
 -1       358 7.45271E-01
 -1       359 7.47996E-01
 -1       360 8.56386E-01
 -1       361 9.66570E-01
 -1       362 9.36066E-01
 -1       363 8.36378E-01
 -1       364 7.50173E-01
 -1       365 6.58153E-01
 -1       366 5.49766E-01
 -1       367 4.41331E-01
 -1       368 3.42366E-01
 -1       369 2.57379E-01
 -1       370 1.87601E-01
 -1       371 1.32345E-01
 -1       372 9.35110E-02
 -1       373 6.68660E-02
 -1       374 4.86487E-02
 -1       375 3.68196E-02
 -1       376 2.89030E-02
 -1       377 2.13954E-02
 -1       378 1.44571E-02
 -1       379 9.32209E-03
 -1       380 6.14717E-03
 -1       381 1.12220E+00
 -1       382 7.96536E-01
 -1       383 6.63652E-01
 -1       384 6.32376E-01
 -1       385 5.90760E-01
 -1       386 5.39591E-01
 -1       387 5.67072E-01
 -1       388 6.59263E-01
 -1       389 7.94336E-01
 -1       390 9.19078E-01
 -1       391 9.56110E-01
 -1       392 9.56110E-01
 -1       393 8.48078E-01
 -1       394 6.53336E-01
 -1       395 8.40232E-01
 -1       396 1.56607E+00
 -1       397 1.99999E+00
 -1       398 2.07435E+00
 -1       399 1.96969E+00
 -1       400 2.27992E+00
 -1       401 2.19324E+00
 -1       402 1.50042E+00
 -1       403 8.80280E-01
 -1       404 6.62116E-01
 -1       405 9.21703E-01
 -1       406 9.94566E-01
 -1       407 1.02235E+00
 -1       408 9.65375E-01
 -1       409 8.65949E-01
 -1       410 7.57796E-01
 -1       411 6.30600E-01
 -1       412 5.04056E-01
 -1       413 3.89293E-01
 -1       414 2.91347E-01
 -1       415 2.11738E-01
 -1       416 1.59677E-01
 -1       417 1.18493E-01
 -1       418 8.56202E-02
 -1       419 5.99741E-02
 -1       420 4.03756E-02
 -1       421 2.63362E-02
 -1       422 2.08202E-02
 -1       423 1.57157E-02
 -1       424 1.07734E-02
 -1       425 6.32239E-03
 -1       426 3.63088E-03
 -1       427 3.25289E-03
 -1       428 3.25289E-03
 -1       429 3.75051E-03
 -1       430 2.92657E-03
 -1       431 2.32281E-03
 -1       432 2.99173E-03
 -1       433 2.99173E-03
 -1       434 2.97579E-03
 -1       435 2.97579E-03
 -1       436 2.34014E-03
 -1       437 2.95768E-03
 -1       438 3.15846E-03
 -1       439 4.33897E-03
 -1       440 2.86740E+01
 -1       441 2.95713E+01
 -1       442 2.23890E+01
 -1       443 1.67240E+01
 -1       444 9.65913E+00
 -1       445 9.14886E-01
 -1       446 8.63422E+00
 -1       447 1.08575E+01
 -1       448 1.07012E+01
 -1       449 9.02039E+00
 -1       450 6.33467E+00
 -1       451 1.16837E+01
 -1       452 1.92738E+01
 -1       453 2.31951E+01
 -1       454 3.58200E+01
 -1       455 3.58200E+01
 -1       456 2.63644E+01
 -1       457 2.72697E+01
 -1       458 1.55337E+01
 -1       459 7.96385E+00
 -1       460 7.51627E+00
 -1       461 9.57529E+00
 -1       462 1.04022E+01
 -1       463 1.01688E+01
 -1       464 7.60593E+00
 -1       465 8.37766E+00
 -1       466 1.55978E+01
 -1       467 2.80904E+01
 -1       468 2.93477E+01
 -1       469 7.17968E+00
 -1       470 2.84187E+01
 -1       471 7.71044E+00
 -1       472 1.71684E+01
 -1       473 8.94099E+00
 -1       474 7.89393E+00
 -1       475 9.86543E-01
 -1       476 4.73245E-01
 -1       477 5.15794E-01
 -1       478 3.90524E-01
 -1       479 4.29202E-01
 -1       480 4.73646E-01
 -1       481 5.12028E-01
 -1       482 5.20811E-01
 -1       483 6.38296E-01
 -1       484 7.96536E-01
 -1       485 7.19509E-01
 -1       486 4.30846E+00
 -1       487 5.88965E-01
 -1       488 4.28123E-01
 -1       489 3.56154E-01
 -1       490 2.79077E-01
 -1       491 3.08184E-01
 -1       492 4.04198E-01
 -1       493 5.43791E-01
 -1       494 6.68106E-01
 -1       495 7.65104E-01
 -1       496 8.92647E-01
 -1       497 1.01086E+00
 -1       498 1.07552E+00
 -1       499 1.24813E+00
 -1       500 1.42222E+00
 -1       501 1.63320E+00
 -1       502 1.77959E+00
 -1       503 2.61301E+00
 -1       504 2.70885E+00
 -1       505 2.67978E+00
 -1       506 1.88430E+00
 -1       507 1.81882E+00
 -1       508 1.36407E+00
 -1       509 1.33961E+00
 -1       510 1.10697E+00
 -1       511 1.09716E+00
 -1       512 1.00489E+00
 -1       513 8.80850E-01
 -1       514 7.98000E-01
 -1       515 7.06359E-01
 -1       516 5.98978E-01
 -1       517 4.90615E-01
 -1       518 3.90203E-01
 -1       519 3.02291E-01
 -1       520 2.28461E-01
 -1       521 1.68471E-01
 -1       522 1.21082E-01
 -1       523 8.46022E-02
 -1       524 5.72293E-02
 -1       525 3.72426E-02
 -1       526 2.36649E-02
 -1       527 1.64235E-02
 -1       528 1.19908E-02
 -1       529 8.45449E-03
 -1       530 1.83081E+01
 -1       531 4.89233E-01
 -1       532 3.96387E-01
 -1       533 3.72106E-01
 -1       534 4.34003E-01
 -1       535 5.65827E-01
 -1       536 7.10336E-01
 -1       537 8.23803E-01
 -1       538 9.19078E-01
 -1       539 1.03223E+00
 -1       540 1.08394E+00
 -1       541 1.11858E+00
 -1       542 1.34585E+00
 -1       543 1.49562E+00
 -1       544 1.72714E+00
 -1       545 2.28164E+00
 -1       546 2.68463E+00
 -1       547 2.75613E+00
 -1       548 2.03620E+00
 -1       549 1.66363E+00
 -1       550 1.29575E+00
 -1       551 1.25571E+00
 -1       552 1.08494E+00
 -1       553 1.12679E+00
 -1       554 1.06896E+00
 -1       555 9.57321E-01
 -1       556 8.81546E-01
 -1       557 7.85238E-01
 -1       558 6.66367E-01
 -1       559 5.44240E-01
 -1       560 4.30538E-01
 -1       561 3.31148E-01
 -1       562 2.48092E-01
 -1       563 1.81067E-01
 -1       564 1.28540E-01
 -1       565 8.84536E-02
 -1       566 5.86540E-02
 -1       567 3.92401E-02
 -1       568 2.80482E-02
 -1       569 2.08202E-02
 -1       570 1.57157E-02
 -1       571 1.07734E-02
 -1       572 7.20148E-03
 -1       573 3.86936E-03
 -1       574 5.06874E-03
 -1       575 4.22308E-03
 -1       576 3.83891E-03
 -1       577 5.26797E-03
 -1       578 5.26797E-03
 -1       579 5.24596E-03
 -1       580 5.07324E-03
 -1       581 3.86282E-03
 -1       582 4.39649E-03
 -1       583 4.15017E-03
 -1       584 2.93477E+01
 -1       585 5.66209E-01
 -1       586 1.28163E+01
 -1       587 1.98134E+01
 -1       588 8.36339E-01
 -1       589 7.60451E+00
 -1       590 1.21681E+01
 -1       591 5.57213E+00
 -1       592 4.29489E-01
 -1       593 3.83334E+00
 -1       594 7.61986E+00
 -1       595 2.31951E+01
 -1       596 6.46260E+00
 -1       597 1.15773E+01
 -1       598 3.58200E+01
 -1       599 2.63644E+01
 -1       600 1.79896E+01
 -1       601 8.28987E+00
 -1       602 1.27576E+01
 -1       603 4.64133E+00
 -1       604 7.70466E+00
 -1       605 7.89789E+00
 -1       606 4.71957E+00
 -1       607 8.92072E+00
 -1       608 1.25848E+00
 -1       609 5.84973E+00
 -1       610 5.61322E-01
 -1       611 1.82867E+01
 -1       612 1.56262E+01
 -1       613 6.14717E-03
 -1       614 5.83456E+00
 -1       615 2.30192E+01
 -1       616 4.29411E+00
 -1       617 1.36481E+01
 -1       618 5.61942E+00
 -1       619 6.93616E+00
 -1       620 4.31300E+00
 -1       621 3.35885E-01
 -1       622 2.99699E-01
 -1       623 3.63080E-01
 -1       624 3.63080E-01
 -1       625 4.71968E-01
 -1       626 1.00104E+01
 -1       627 3.33369E+00
 -1       628 3.80348E-01
 -1       629 4.40373E+00
 -1       630 2.50988E-01
 -1       631 1.81779E-01
 -1       632 1.48999E-01
 -1       633 2.15106E-01
 -1       634 3.32938E-01
 -1       635 4.70601E-01
 -1       636 6.21755E-01
 -1       637 7.77633E-01
 -1       638 9.22836E-01
 -1       639 1.13484E+00
 -1       640 1.39545E+00
 -1       641 1.69862E+00
 -1       642 1.95163E+00
 -1       643 3.29388E+00
 -1       644 2.01481E+00
 -1       645 4.31300E+00
 -1       646 4.51954E+00
 -1       647 3.18616E+00
 -1       648 3.58392E+00
 -1       649 3.20790E+00
 -1       650 2.42653E+00
 -1       651 2.15794E+00
 -1       652 1.76280E+00
 -1       653 1.54116E+00
 -1       654 1.27614E+00
 -1       655 1.03873E+00
 -1       656 9.11925E-01
 -1       657 7.75698E-01
 -1       658 6.42570E-01
 -1       659 5.20885E-01
 -1       660 4.14198E-01
 -1       661 3.23451E-01
 -1       662 2.48116E-01
 -1       663 1.86898E-01
 -1       664 1.38132E-01
 -1       665 1.00028E-01
 -1       666 7.08366E-02
 -1       667 4.89342E-02
 -1       668 3.28790E-02
 -1       669 2.14121E-02
 -1       670 1.34926E-02
 -1       671 7.74057E-03
 -1       672 7.54430E+00
 -1       673 2.15149E-01
 -1       674 4.77838E-01
 -1       675 6.36588E-01
 -1       676 7.94972E-01
 -1       677 9.36134E-01
 -1       678 1.10836E+00
 -1       679 1.35381E+00
 -1       680 1.62120E+00
 -1       681 1.71379E+00
 -1       682 2.68424E+00
 -1       683 2.37033E+00
 -1       684 2.53315E+00
 -1       685 4.40373E+00
 -1       686 4.83918E+00
 -1       687 5.16362E+00
 -1       688 3.33369E+00
 -1       689 2.97996E+00
 -1       690 2.21726E+00
 -1       691 1.73569E+00
 -1       692 1.55721E+00
 -1       693 1.34135E+00
 -1       694 1.11308E+00
 -1       695 9.83335E-01
 -1       696 8.54066E-01
 -1       697 7.17101E-01
 -1       698 5.85889E-01
 -1       699 4.67615E-01
 -1       700 3.65386E-01
 -1       701 2.79816E-01
 -1       702 2.10053E-01
 -1       703 1.54473E-01
 -1       704 1.11129E-01
 -1       705 7.80291E-02
 -1       706 5.33002E-02
 -1       707 3.52670E-02
 -1       708 2.24869E-02
 -1       709 1.37325E-02
 -1       710 9.20639E-03
 -1       711 7.20148E-03
 -1       712 8.60851E-03
 -1       713 4.60577E-03
 -1       714 7.72169E-03
 -1       715 8.59540E-03
 -1       716 8.60851E-03
 -1       717 1.03407E+01
 -1       718 8.59540E-03
 -1       719 7.71765E-03
 -1       720 6.24933E-03
 -1       721 2.74292E-01
 -1       722 4.93170E+00
 -1       723 1.25905E+01
 -1       724 5.50146E+00
 -1       725 5.61322E-01
 -1       726 1.39880E+01
 -1       727 4.84832E+00
 -1       728 3.29521E-01
 -1       729 1.99433E-01
 -1       730 3.82982E-01
 -1       731 6.92268E+00
 -1       732 7.21957E+00
 -1       733 3.62805E-01
 -1       734 1.17437E+01
 -1       735 3.59288E-01
 -1       736 5.54149E+00
 -1       737 8.06008E+00
 -1       738 5.62571E+00
 -1       739 3.58392E+00
 -1       740 1.41554E+01
 -1       741 1.28476E+01
 -1       742 5.36332E+00
 -1       743 4.29280E-01
 -1       744 3.00378E-01
 -1       745 2.53315E+00
 -1       746 1.08745E+01
 -1       747 1.07838E+01
 -1       748 6.30132E-03
 -1       749 4.71486E-03
 -1       750 3.29388E+00
 -1       751 9.14055E+00
 -1       752 3.34639E-01
 -1       753 4.79061E-03
 -1       754 2.64562E-01
 -1       755 4.45193E+00
 -1       756 8.44288E+00
 -1       757 1.89869E-01
 -1       758 2.35728E-01
 -1       759 3.09310E-01
 -1       760 4.06679E-01
 -1       761 5.48294E-01
 -1       762 7.24614E-01
 -1       763 9.66790E-01
 -1       764 1.25422E+00
 -1       765 1.53876E+00
 -1       766 1.91408E+00
 -1       767 3.66875E+00
 -1       768 4.62110E+00
 -1       769 3.31918E+00
 -1       770 2.85500E+00
 -1       771 2.31739E+00
 -1       772 1.68735E+00
 -1       773 1.40036E+00
 -1       774 1.12164E+00
 -1       775 8.82438E-01
 -1       776 7.00759E-01
 -1       777 5.49995E-01
 -1       778 4.44599E-01
 -1       779 3.51141E-01
 -1       780 2.70633E-01
 -1       781 2.03791E-01
 -1       782 1.49890E-01
 -1       783 1.07513E-01
 -1       784 7.65274E-02
 -1       785 5.32173E-02
 -1       786 3.67737E-02
 -1       787 2.52175E-02
 -1       788 1.68844E-02
 -1       789 9.16549E-03
 -1       790 3.77480E-01
 -1       791 5.32602E-01
 -1       792 1.20158E+00
 -1       793 1.45393E+00
 -1       794 1.85120E+00
 -1       795 2.82406E+00
 -1       796 4.15385E+00
 -1       797 7.28642E+00
 -1       798 3.45839E+00
 -1       799 2.30566E+00
 -1       800 1.79290E+00
 -1       801 1.45188E+00
 -1       802 1.19718E+00
 -1       803 9.65230E-01
 -1       804 7.77680E-01
 -1       805 6.16256E-01
 -1       806 4.80984E-01
 -1       807 3.70242E-01
 -1       808 2.84550E-01
 -1       809 2.16017E-01
 -1       810 1.61683E-01
 -1       811 1.19114E-01
 -1       812 8.62207E-02
 -1       813 6.12043E-02
 -1       814 4.25189E-02
 -1       815 2.88387E-02
 -1       816 1.90884E-02
 -1       817 1.22424E-02
 -1       818 7.17057E-03
 -1       819 2.35444E-01
 -1       820 2.46924E-01
 -1       821 1.27222E-02
 -1       822 9.44080E-03
 -1       823 1.30796E-02
 -1       824 4.71463E+00
 -1       825 2.97996E+00
 -1       826 1.30796E-02
 -1       827 9.45467E-01
 -1       828 7.21271E-01
 -1       829 1.83985E-01
 -1       830 9.36092E+00
 -1       831 6.25941E+00
 -1       832 2.76262E-01
 -1       833 2.04510E-01
 -1       834 4.88132E+00
 -1       835 9.36092E+00
 -1       836 5.32762E+00
 -1       837 9.14825E+00
 -1       838 5.91187E+00
 -1       839 8.62120E+00
 -1       840 4.54299E+00
 -1       841 1.10605E+01
 -1       842 7.28642E+00
 -1       843 5.76685E+00
 -1       844 2.14707E-01
 -1       845 2.68390E-01
 -1       846 6.86278E+00
 -1       847 6.05024E+00
 -1       848 9.58559E+00
 -1       849 9.54285E-03
 -1       850 2.68390E-01
 -1       851 5.79269E+00
 -1       852 1.62229E-01
 -1       853 1.29066E-02
 -1       854 1.29066E-02
 -1       855 1.60576E-01
 -1       856 6.73697E+00
 -1       857 3.01801E-01
 -1       858 8.88327E+00
 -1       859 2.72111E-01
 -1       860 7.28642E+00
 -1       861 8.27362E-03
 -1       862 2.88658E-01
 -1       863 3.16508E-01
 -1       864 4.10088E-01
 -1       865 5.48294E-01
 -1       866 7.11146E-01
 -1       867 9.47066E-01
 -1       868 1.24558E+00
 -1       869 1.79385E+00
 -1       870 3.45897E+00
 -1       871 4.62110E+00
 -1       872 2.29901E-01
 -1       873 3.73335E+00
 -1       874 2.31739E+00
 -1       875 2.00995E+00
 -1       876 1.42384E+00
 -1       877 1.06477E+00
 -1       878 8.40942E-01
 -1       879 6.86676E-01
 -1       880 5.49995E-01
 -1       881 4.33351E-01
 -1       882 3.36208E-01
 -1       883 2.56738E-01
 -1       884 1.92782E-01
 -1       885 1.42125E-01
 -1       886 1.02658E-01
 -1       887 7.24432E-02
 -1       888 5.03040E-02
 -1       889 3.43648E-02
 -1       890 2.25931E-02
 -1       891 3.06333E+00
 -1       892 2.36849E+00
 -1       893 1.63045E+00
 -1       894 3.89303E-01
 -1       895 9.00356E-01
 -1       896 3.89428E+00
 -1       897 1.53760E+00
 -1       898 1.14955E+00
 -1       899 8.97831E-01
 -1       900 7.30785E-01
 -1       901 5.86833E-01
 -1       902 4.62373E-01
 -1       903 3.57930E-01
 -1       904 2.72321E-01
 -1       905 2.03511E-01
 -1       906 1.49189E-01
 -1       907 1.07056E-01
 -1       908 7.51617E-02
 -1       909 5.24176E-02
 -1       910 3.55154E-02
 -1       911 2.32789E-02
 -1       912 1.84924E-02
 -1       913 8.13293E-03
 -1       914 1.97729E-02
 -1       915 6.77784E-01
 -1       916 1.18565E+00
 -1       917 2.03109E+00
 -1       918 2.84568E+00
 -1       919 5.88424E+00
 -1       920 2.97441E-01
 -1       921 2.46859E-01
 -1       922 2.49694E-01
 -1       923 2.41638E-01
 -1       924 8.22632E+00
 -1       925 6.02271E+00
 -1       926 6.12356E+00
 -1       927 5.14197E-01
 -1       928 1.72980E-01
 -1       929 7.17012E+00
 -1       930 2.64581E-01
 -1       931 1.87710E-02
 -1       932 5.20546E+00
 -1       933 2.71279E-01
 -1       934 1.38570E-02
 -1       935 1.97729E-02
 -1       936 5.88424E+00
 -1       937 1.87954E-02
 -1       938 5.69028E+00
 -1       939 2.42610E-01
 -1       940 5.37812E+00
 -1       941 1.47942E-01
 -1       942 5.09714E+00
 -1       943 5.02394E+00
 -1       944 1.89611E-02
 -1       945 2.52801E-01
 -1       946 1.87954E-02
 -1       947 3.10262E+00
 -1       948 5.24610E-01
 -1       949 7.09106E-01
 -1       950 9.47066E-01
 -1       951 1.24558E+00
 -1       952 1.82554E+00
 -1       953 2.86173E+00
 -1       954 1.48111E-01
 -1       955 2.84813E+00
 -1       956 1.74681E+00
 -1       957 1.36958E+00
 -1       958 1.06477E+00
 -1       959 8.24697E-01
 -1       960 6.38910E-01
 -1       961 4.93518E-01
 -1       962 3.79759E-01
 -1       963 2.89952E-01
 -1       964 2.19110E-01
 -1       965 1.63433E-01
 -1       966 1.20018E-01
 -1       967 8.65303E-02
 -1       968 6.10380E-02
 -1       969 4.20409E-02
 -1       970 2.86614E-02
 -1       971 8.97831E-01
 -1       972 1.14955E+00
 -1       973 2.31547E+00
 -1       974 1.81998E+00
 -1       975 1.46710E+00
 -1       976 6.98786E-01
 -1       977 5.42321E-01
 -1       978 4.18196E-01
 -1       979 3.19706E-01
 -1       980 2.41728E-01
 -1       981 1.80339E-01
 -1       982 1.32429E-01
 -1       983 9.54694E-02
 -1       984 6.73526E-02
 -1       985 4.63039E-02
 -1       986 3.16826E-02
 -1       987 2.19155E-02
 -1       988 5.12629E+00
 -1       989 3.79703E-01
 -1       990 3.85938E+00
 -1       991 9.00356E-01
 -1       992 2.71279E-01
 -1       993 3.56522E-01
 -1       994 2.07809E-01
 -1       995 7.17012E+00
 -1       996 4.00303E+00
 -1       997 6.76441E-01
 -1       998 4.97290E+00
 -1       999 4.97523E-01
 -1      1000 2.82427E-01
 -1      1001 4.84344E+00
 -1      1002 4.75006E+00
 -1      1003 2.71279E-01
 -1      1004 2.64387E-02
 -1      1005 2.70266E-01
 -1      1006 1.18565E+00
 -1      1007 4.21122E+00
 -1      1008 1.82005E-01
 -1      1009 3.11703E+00
 -1      1010 1.59893E+00
 -1      1011 2.21811E+00
 -1      1012 2.58208E-02
 -1      1013 2.29901E-01
 -1      1014 1.40968E-01
 -1      1015 4.21122E+00
 -1      1016 2.64387E-02
 -1      1017 6.02960E-01
 -1      1018 8.34646E-01
 -1      1019 1.14643E+00
 -1      1020 1.47588E+00
 -1      1021 2.29267E+00
 -1      1022 2.46517E-02
 -1      1023 1.55007E-01
 -1      1024 2.33444E+00
 -1      1025 1.61347E+00
 -1      1026 1.14177E+00
 -1      1027 8.31662E-01
 -1      1028 6.20453E-01
 -1      1029 4.68659E-01
 -1      1030 3.57136E-01
 -1      1031 2.72114E-01
 -1      1032 2.06376E-01
 -1      1033 1.55168E-01
 -1      1034 1.15281E-01
 -1      1035 8.43557E-02
 -1      1036 6.06273E-02
 -1      1037 5.01289E-02
 -1      1038 2.73127E-02
 -1      1039 1.04483E+00
 -1      1040 5.86113E-01
 -1      1041 7.75401E-01
 -1      1042 4.20830E-01
 -1      1043 4.45464E-01
 -1      1044 3.51485E+00
 -1      1045 3.96548E+00
 -1      1046 3.39136E-01
 -1      1047 2.57240E-01
 -1      1048 1.93586E-01
 -1      1049 1.44026E-01
 -1      1050 1.05610E-01
 -1      1051 7.60839E-02
 -1      1052 5.36653E-02
 -1      1053 3.69449E-02
 -1      1054 4.34635E-01
 -1      1055 4.43659E+00
 -1      1056 7.84849E-01
 -1      1057 2.84830E-01
 -1      1058 4.45536E+00
 -1      1059 5.84547E-01
 -1      1060 3.07883E-01
 -1      1061 3.11247E-02
 -1      1062 2.61772E+00
 -1      1063 1.81998E+00
 -1      1064 2.51933E+00
 -1      1065 2.97788E-01
 -1      1066 2.84552E+00
 -1      1067 2.31507E-01
 -1      1068 1.70682E+00
 -1      1069 2.16023E+00
 -1      1070 2.84552E+00
 -1      1071 1.44032E+00
 -1      1072 5.01289E-02
 -1      1073 2.81069E+00
 -1      1074 7.01357E-01
 -1      1075 6.30608E-01
 -1      1076 8.96612E-01
 -1      1077 1.07621E+00
 -1      1078 2.12751E+00
 -1      1079 1.40232E+00
 -1      1080 1.04487E+00
 -1      1081 6.99595E-01
 -1      1082 6.34989E-01
 -1      1083 3.84172E-01
 -1      1084 2.99248E-01
 -1      1085 2.32947E-01
 -1      1086 1.79671E-01
 -1      1087 1.36957E-01
 -1      1088 1.02873E-01
 -1      1089 7.61081E-02
 -1      1090 5.52227E-02
 -1      1091 4.79487E-01
 -1      1092 1.01704E+00
 -1      1093 4.23331E-01
 -1      1094 1.95011E-01
 -1      1095 3.27187E-01
 -1      1096 1.48447E-01
 -1      1097 1.11511E-01
 -1      1098 8.23051E-02
 -1      1099 5.93860E-02
 -1      1100 2.01036E-01
 -1      1101 2.54453E-01
 -1      1102 5.42019E-01
 -1      1103 2.53533E-01
 -1      1104 2.09523E+00
 -1      1105 6.34162E-01
 -1      1106 4.02106E-01
 -1      1107 2.84830E-01
 -1      1108 1.44861E+00
 -1      1109 3.56264E-01
 -1      1110 1.67381E+00
 -1      1111 2.25405E+00
 -1      1112 1.07331E+00
 -1      1113 4.19434E-02
 -1      1114 2.16023E+00
 -1      1115 4.96005E-02
 -1      1116 2.43341E+00
 -1      1117 8.31723E-01
 -1      1118 2.81069E+00
 -1      1119 2.39130E+00
 -1      1120 2.28184E-01
 -1      1121 1.85108E+00
 -1      1122 1.04487E+00
 -1      1123 1.51050E+00
 -1      1124 1.12551E+00
 -1      1125 6.34989E-01
 -1      1126 3.59931E-01
 -1      1127 2.78761E-01
 -1      1128 2.15255E-01
 -1      1129 1.64848E-01
 -1      1130 1.24762E-01
 -1      1131 9.29869E-02
 -1      1132 7.01369E-02
 -1      1133 1.58375E+00
 -1      1134 1.30528E+01
 -1      1135 8.31613E+00
 -1      1136 2.68293E+00
 -1      1137 1.53427E+00
 -1      1138 1.15800E+00
 -1      1139 9.54692E-01
 -1      1140 8.22626E-01
 -1      1141 7.34631E-01
 -1      1142 7.00875E-01
 -1      1143 7.38167E-01
 -1      1144 8.24880E-01
 -1      1145 9.57853E-01
 -1      1146 1.17021E+00
 -1      1147 1.54844E+00
 -1      1148 2.60913E+00
 -1      1149 5.96379E+00
 -1      1150 1.12281E+01
 -1      1151 1.30528E+01
 -1      1152 8.69229E+00
 -1      1153 3.82602E+00
 -1      1154 2.70090E+00
 -1      1155 1.76729E+00
 -1      1156 1.29169E+00
 -1      1157 1.01574E+00
 -1      1158 8.10360E-01
 -1      1159 6.93451E-01
 -1      1160 6.87504E-01
 -1      1161 7.13336E-01
 -1      1162 8.30156E-01
 -1      1163 1.04753E+00
 -1      1164 1.21945E+00
 -1      1165 1.28511E+00
 -1      1166 1.29170E+00
 -1      1167 1.29829E+00
 -1      1168 1.47030E+00
 -1      1169 2.12723E+00
 -1      1170 3.14187E+00
 -1      1171 3.70772E+00
 -1      1172 3.77783E+00
 -1      1173 3.81183E+00
 -1      1174 3.39066E+00
 -1      1175 2.35135E+00
 -1      1176 1.53355E+00
 -1      1177 1.31890E+00
 -1      1178 1.29022E+00
 -1      1179 1.27654E+00
 -1      1180 1.23178E+00
 -1      1181 1.09483E+00
 -1      1182 9.01309E-01
 -1      1183 7.18294E-01
 -1      1184 5.72163E-01
 -1      1185 4.69382E-01
 -1      1186 3.91616E-01
 -1      1187 3.15399E-01
 -1      1188 2.46408E-01
 -1      1189 1.87190E-01
 -1      1190 1.38308E-01
 -1      1191 1.05919E-01
 -1      1192 8.65961E-02
 -1      1193 6.96663E-02
 -1      1194 5.43036E-02
 -1      1195 4.06947E-02
 -1      1196 2.88391E-02
 -1      1197 2.04003E-02
 -1      1198 1.41408E-02
 -1      1199 8.30474E-03
 -1      1200 3.69090E-03
 -1      1201 1.39503E+01
 -1      1202 8.68998E+00
 -1      1203 2.93162E+00
 -1      1204 2.05882E+00
 -1      1205 1.48559E+00
 -1      1206 1.19642E+00
 -1      1207 1.03727E+00
 -1      1208 9.14221E-01
 -1      1209 8.11420E-01
 -1      1210 7.54276E-01
 -1      1211 7.58500E-01
 -1      1212 7.72951E-01
 -1      1213 8.12294E-01
 -1      1214 9.60554E-01
 -1      1215 1.13044E+00
 -1      1216 1.30583E+00
 -1      1217 1.49824E+00
 -1      1218 1.65372E+00
 -1      1219 1.89674E+00
 -1      1220 2.58979E+00
 -1      1221 3.32690E+00
 -1      1222 3.79407E+00
 -1      1223 4.05292E+00
 -1      1224 3.72529E+00
 -1      1225 2.70805E+00
 -1      1226 1.67442E+00
 -1      1227 1.24912E+00
 -1      1228 1.27127E+00
 -1      1229 1.37469E+00
 -1      1230 1.35966E+00
 -1      1231 1.26665E+00
 -1      1232 1.09532E+00
 -1      1233 9.14116E-01
 -1      1234 7.39249E-01
 -1      1235 5.73938E-01
 -1      1236 4.29479E-01
 -1      1237 3.23967E-01
 -1      1238 2.51107E-01
 -1      1239 1.89827E-01
 -1      1240 1.39735E-01
 -1      1241 9.99347E-02
 -1      1242 6.90626E-02
 -1      1243 5.01301E-02
 -1      1244 4.02101E-02
 -1      1245 3.16920E-02
 -1      1246 2.37689E-02
 -1      1247 1.82671E-02
 -1      1248 1.40254E-02
 -1      1249 8.49092E-03
 -1      1250 3.50200E-03
 -1      1251 2.32349E-03
 -1      1252 2.01998E-03
 -1      1253 1.12699E-03
 -1      1254 1.33610E-03
 -1      1255 1.23142E-03
 -1      1256 8.85469E-04
 -1      1257 5.49859E-04
 -1      1258 5.12900E-04
 -1      1259 5.70287E-04
 -1      1260 5.12995E-04
 -1      1261 5.42463E-04
 -1      1262 8.75605E-04
 -1      1263 1.23757E-03
 -1      1264 1.35316E-03
 -1      1265 1.19448E-03
 -1      1266 2.06929E-03
 -1      1267 2.35099E-03
 -1      1268 2.70472E+01
 -1      1269 3.72692E+01
 -1      1270 4.74912E+01
 -1      1271 3.40537E+01
 -1      1272 1.63607E+01
 -1      1273 1.27980E+01
 -1      1274 1.34908E+01
 -1      1275 1.32175E+01
 -1      1276 1.29441E+01
 -1      1277 1.29786E+01
 -1      1278 2.03024E+01
 -1      1279 2.79822E+01
 -1      1280 2.83725E+01
 -1      1281 2.64851E+01
 -1      1282 2.50227E+01
 -1      1283 2.54478E+01
 -1      1284 3.54478E+01
 -1      1285 4.54478E+01
 -1      1286 3.17220E+01
 -1      1287 1.56656E+01
 -1      1288 1.33350E+01
 -1      1289 1.30592E+01
 -1      1290 1.30853E+01
 -1      1291 1.33873E+01
 -1      1292 1.52521E+01
 -1      1293 3.10762E+01
 -1      1294 4.50354E+01
 -1      1295 3.54084E+01
 -1      1296 2.64143E+01
 -1      1297 1.30528E+01
 -1      1298 4.76498E+00
 -1      1299 9.50168E+00
 -1      1300 2.02419E+00
 -1      1301 2.92068E+00
 -1      1302 4.10623E+00
 -1      1303 1.39479E+00
 -1      1304 1.64696E+00
 -1      1305 1.88470E+00
 -1      1306 1.09395E+00
 -1      1307 1.21806E+00
 -1      1308 1.33074E+00
 -1      1309 9.16439E-01
 -1      1310 9.95641E-01
 -1      1311 1.05570E+00
 -1      1312 8.01252E-01
 -1      1313 8.54117E-01
 -1      1314 8.95065E-01
 -1      1315 7.24120E-01
 -1      1316 7.59250E-01
 -1      1317 7.90741E-01
 -1      1318 6.99656E-01
 -1      1319 6.98281E-01
 -1      1320 7.22900E-01
 -1      1321 7.63153E-01
 -1      1322 7.27236E-01
 -1      1323 7.24642E-01
 -1      1324 8.55410E-01
 -1      1325 8.04613E-01
 -1      1326 7.93683E-01
 -1      1327 1.00243E+00
 -1      1328 9.20256E-01
 -1      1329 8.99989E-01
 -1      1330 1.23442E+00
 -1      1331 1.10425E+00
 -1      1332 1.06665E+00
 -1      1333 1.66183E+00
 -1      1334 1.41377E+00
 -1      1335 1.34781E+00
 -1      1336 2.83628E+00
 -1      1337 2.02365E+00
 -1      1338 1.88898E+00
 -1      1339 6.18163E+00
 -1      1340 3.63959E+00
 -1      1341 3.05412E+00
 -1      1342 1.39503E+01
 -1      1343 1.12281E+01
 -1      1344 8.90386E+00
 -1      1345 1.39503E+01
 -1      1346 8.69229E+00
 -1      1347 4.33175E+00
 -1      1348 3.82602E+00
 -1      1349 3.32030E+00
 -1      1350 3.82602E+00
 -1      1351 2.70090E+00
 -1      1352 2.08151E+00
 -1      1353 2.70090E+00
 -1      1354 1.76729E+00
 -1      1355 1.45307E+00
 -1      1356 1.76729E+00
 -1      1357 1.29169E+00
 -1      1358 1.13031E+00
 -1      1359 1.29169E+00
 -1      1360 1.01574E+00
 -1      1361 9.01184E-01
 -1      1362 1.01574E+00
 -1      1363 8.10360E-01
 -1      1364 7.19536E-01
 -1      1365 8.10360E-01
 -1      1366 6.66337E-01
 -1      1367 6.40252E-01
 -1      1368 6.66337E-01
 -1      1369 6.67366E-01
 -1      1370 6.87504E-01
 -1      1371 6.40252E-01
 -1      1372 7.07641E-01
 -1      1373 7.13336E-01
 -1      1374 6.87504E-01
 -1      1375 7.31621E-01
 -1      1376 8.42747E-01
 -1      1377 7.25926E-01
 -1      1378 9.41282E-01
 -1      1379 1.04753E+00
 -1      1380 8.42747E-01
 -1      1381 1.15378E+00
 -1      1382 1.21945E+00
 -1      1383 1.04753E+00
 -1      1384 1.28511E+00
 -1      1385 1.28511E+00
 -1      1386 1.21945E+00
 -1      1387 1.26367E+00
 -1      1388 1.27026E+00
 -1      1389 1.26367E+00
 -1      1390 1.29829E+00
 -1      1391 1.29829E+00
 -1      1392 1.27026E+00
 -1      1393 1.23234E+00
 -1      1394 1.40435E+00
 -1      1395 1.23234E+00
 -1      1396 1.64231E+00
 -1      1397 2.12723E+00
 -1      1398 1.40435E+00
 -1      1399 2.61214E+00
 -1      1400 3.14187E+00
 -1      1401 2.12723E+00
 -1      1402 3.67160E+00
 -1      1403 3.70772E+00
 -1      1404 3.14187E+00
 -1      1405 3.74384E+00
 -1      1406 3.77783E+00
 -1      1407 3.70772E+00
 -1      1408 3.81183E+00
 -1      1409 3.81183E+00
 -1      1410 3.77783E+00
 -1      1411 3.39066E+00
 -1      1412 2.96950E+00
 -1      1413 3.39066E+00
 -1      1414 2.40699E+00
 -1      1415 1.78884E+00
 -1      1416 2.40699E+00
 -1      1417 1.53355E+00
 -1      1418 1.33389E+00
 -1      1419 1.58919E+00
 -1      1420 1.31890E+00
 -1      1421 1.30391E+00
 -1      1422 1.31890E+00
 -1      1423 1.27186E+00
 -1      1424 1.25817E+00
 -1      1425 1.27186E+00
 -1      1426 1.27654E+00
 -1      1427 1.27654E+00
 -1      1428 1.25817E+00
 -1      1429 1.23178E+00
 -1      1430 1.18702E+00
 -1      1431 1.23178E+00
 -1      1432 1.09483E+00
 -1      1433 1.00265E+00
 -1      1434 1.09483E+00
 -1      1435 9.19765E-01
 -1      1436 8.18424E-01
 -1      1437 9.19765E-01
 -1      1438 7.60590E-01
 -1      1439 6.78916E-01
 -1      1440 7.79046E-01
 -1      1441 6.18742E-01
 -1      1442 5.54285E-01
 -1      1443 6.61038E-01
 -1      1444 4.92765E-01
 -1      1445 4.54441E-01
 -1      1446 5.39344E-01
 -1      1447 3.97983E-01
 -1      1448 3.58542E-01
 -1      1449 4.21366E-01
 -1      1450 3.15399E-01
 -1      1451 2.78624E-01
 -1      1452 3.21766E-01
 -1      1453 2.47903E-01
 -1      1454 2.15688E-01
 -1      1455 2.47903E-01
 -1      1456 1.91212E-01
 -1      1457 1.64210E-01
 -1      1458 1.92707E-01
 -1      1459 1.43625E-01
 -1      1460 1.21745E-01
 -1      1461 1.47647E-01
 -1      1462 1.05919E-01
 -1      1463 9.54096E-02
 -1      1464 1.11236E-01
 -1      1465 8.65961E-02
 -1      1466 7.77826E-02
 -1      1467 8.65961E-02
 -1      1468 6.96663E-02
 -1      1469 6.15500E-02
 -1      1470 6.96663E-02
 -1      1471 5.43036E-02
 -1      1472 4.70571E-02
 -1      1473 5.43036E-02
 -1      1474 4.06947E-02
 -1      1475 3.43323E-02
 -1      1476 4.06947E-02
 -1      1477 2.93366E-02
 -1      1478 2.38434E-02
 -1      1479 2.93366E-02
 -1      1480 2.04003E-02
 -1      1481 1.74548E-02
 -1      1482 2.08979E-02
 -1      1483 1.41408E-02
 -1      1484 1.08269E-02
 -1      1485 1.41408E-02
 -1      1486 8.30474E-03
 -1      1487 5.78261E-03
 -1      1488 8.30474E-03
 -1      1489 4.44270E-03
 -1      1490 4.44270E-03
 -1      1491 3.42966E+00
 -1      1492 8.68998E+00
 -1      1493 8.68998E+00
 -1      1494 2.43358E+00
 -1      1495 2.93162E+00
 -1      1496 2.93162E+00
 -1      1497 1.68407E+00
 -1      1498 2.05882E+00
 -1      1499 2.05882E+00
 -1      1500 1.28711E+00
 -1      1501 1.48559E+00
 -1      1502 1.48559E+00
 -1      1503 1.10573E+00
 -1      1504 1.19642E+00
 -1      1505 1.19642E+00
 -1      1506 9.68815E-01
 -1      1507 1.03727E+00
 -1      1508 1.03727E+00
 -1      1509 8.59626E-01
 -1      1510 9.14221E-01
 -1      1511 9.14221E-01
 -1      1512 7.63214E-01
 -1      1513 8.11420E-01
 -1      1514 8.11420E-01
 -1      1515 7.19318E-01
 -1      1516 7.28257E-01
 -1      1517 7.28257E-01
 -1      1518 7.58500E-01
 -1      1519 7.45338E-01
 -1      1520 7.19318E-01
 -1      1521 7.72951E-01
 -1      1522 7.71662E-01
 -1      1523 7.58500E-01
 -1      1524 8.12294E-01
 -1      1525 7.74239E-01
 -1      1526 7.72951E-01
 -1      1527 9.65780E-01
 -1      1528 8.55574E-01
 -1      1529 8.17520E-01
 -1      1530 1.13044E+00
 -1      1531 1.07076E+00
 -1      1532 9.65780E-01
 -1      1533 1.30583E+00
 -1      1534 1.19012E+00
 -1      1535 1.13044E+00
 -1      1536 1.49824E+00
 -1      1537 1.42153E+00
 -1      1538 1.30583E+00
 -1      1539 1.65372E+00
 -1      1540 1.57496E+00
 -1      1541 1.49824E+00
 -1      1542 1.89674E+00
 -1      1543 1.73249E+00
 -1      1544 1.65372E+00
 -1      1545 2.63807E+00
 -1      1546 2.10927E+00
 -1      1547 1.94502E+00
 -1      1548 3.32690E+00
 -1      1549 3.11859E+00
 -1      1550 2.63807E+00
 -1      1551 3.79407E+00
 -1      1552 3.53521E+00
 -1      1553 3.32690E+00
 -1      1554 4.05292E+00
 -1      1555 4.05292E+00
 -1      1556 3.79407E+00
 -1      1557 3.39765E+00
 -1      1558 3.72529E+00
 -1      1559 3.72529E+00
 -1      1560 2.01845E+00
 -1      1561 2.70805E+00
 -1      1562 2.70805E+00
 -1      1563 1.33039E+00
 -1      1564 1.67442E+00
 -1      1565 1.67442E+00
 -1      1566 1.13976E+00
 -1      1567 1.22103E+00
 -1      1568 1.22103E+00
 -1      1569 1.27127E+00
 -1      1570 1.16784E+00
 -1      1571 1.13976E+00
 -1      1572 1.37469E+00
 -1      1573 1.37469E+00
 -1      1574 1.27127E+00
 -1      1575 1.34463E+00
 -1      1576 1.35966E+00
 -1      1577 1.35966E+00
 -1      1578 1.18867E+00
 -1      1579 1.26665E+00
 -1      1580 1.26665E+00
 -1      1581 1.00197E+00
 -1      1582 1.09532E+00
 -1      1583 1.09532E+00
 -1      1584 8.29439E-01
 -1      1585 9.17296E-01
 -1      1586 9.17296E-01
 -1      1587 6.64499E-01
 -1      1588 7.51509E-01
 -1      1589 7.54690E-01
 -1      1590 5.12385E-01
 -1      1591 5.90685E-01
 -1      1592 6.02946E-01
 -1      1593 3.81445E-01
 -1      1594 4.47604E-01
 -1      1595 4.64351E-01
 -1      1596 2.88192E-01
 -1      1597 3.27546E-01
 -1      1598 3.45670E-01
 -1      1599 2.17600E-01
 -1      1600 2.51107E-01
 -1      1601 2.54686E-01
 -1      1602 1.62053E-01
 -1      1603 1.89827E-01
 -1      1604 1.89827E-01
 -1      1605 1.17954E-01
 -1      1606 1.40273E-01
 -1      1607 1.40273E-01
 -1      1608 8.40367E-02
 -1      1609 1.01518E-01
 -1      1610 1.02056E-01
 -1      1611 5.78231E-02
 -1      1612 7.12136E-02
 -1      1613 7.27972E-02
 -1      1614 4.45880E-02
 -1      1615 5.01301E-02
 -1      1616 5.22810E-02
 -1      1617 3.58322E-02
 -1      1618 4.02101E-02
 -1      1619 4.02101E-02
 -1      1620 2.75517E-02
 -1      1621 3.16920E-02
 -1      1622 3.16920E-02
 -1      1623 1.99861E-02
 -1      1624 2.37689E-02
 -1      1625 2.37689E-02
 -1      1626 1.65481E-02
 -1      1627 1.82671E-02
 -1      1628 1.82671E-02
 -1      1629 1.15027E-02
 -1      1630 1.40254E-02
 -1      1631 1.40254E-02
 -1      1632 5.47911E-03
 -1      1633 8.49092E-03
 -1      1634 8.49092E-03
 -1      1635 4.30059E-03
 -1      1636 1.42208E-03
 -1      1637 2.52418E-03
 -1      1638 1.89946E-03
 -1      1639 1.69035E-03
 -1      1640 2.19454E-03
 -1      1641 1.89946E-03
 -1      1642 1.89946E-03
 -1      1643 2.46282E-03
 -1      1644 1.75353E-03
 -1      1645 1.85821E-03
 -1      1646 2.42157E-03
 -1      1647 1.21789E-03
 -1      1648 1.45915E-03
 -1      1649 2.08595E-03
 -1      1650 8.39715E-04
 -1      1651 9.34062E-04
 -1      1652 1.50775E-03
 -1      1653 1.05737E-03
 -1      1654 9.99985E-04
 -1      1655 1.38419E-03
 -1      1656 1.05737E-03
 -1      1657 1.05737E-03
 -1      1658 1.54446E-03
 -1      1659 9.99516E-04
 -1      1660 1.05681E-03
 -1      1661 1.54389E-03
 -1      1662 9.23926E-04
 -1      1663 8.37166E-04
 -1      1664 1.38098E-03
 -1      1665 1.44358E-03
 -1      1666 1.19720E-03
 -1      1667 1.49190E-03
 -1      1668 1.84562E-03
 -1      1669 1.73004E-03
 -1      1670 2.05163E-03
 -1      1671 2.14070E-03
 -1      1672 2.14070E-03
 -1      1673 2.63317E-03
 -1      1674 1.98202E-03
 -1      1675 2.14070E-03
 -1      1676 2.92825E-03
 -1      1677 3.37950E-03
 -1      1678 2.34600E-03
 -1      1679 3.29223E-03
 -1      1680 4.71941E-03
 -1      1681 2.83093E+01
 -1      1682 2.83093E+01
 -1      1683 3.80826E+01
 -1      1684 2.78606E+01
 -1      1685 4.74912E+01
 -1      1686 4.74912E+01
 -1      1687 2.13010E+01
 -1      1688 3.47385E+01
 -1      1689 1.16493E+01
 -1      1690 1.59049E+01
 -1      1691 1.27980E+01
 -1      1692 1.21052E+01
 -1      1693 1.34908E+01
 -1      1694 1.34908E+01
 -1      1695 1.26194E+01
 -1      1696 1.28927E+01
 -1      1697 1.29441E+01
 -1      1698 1.29441E+01
 -1      1699 1.27779E+01
 -1      1700 1.27435E+01
 -1      1701 2.03024E+01
 -1      1702 1.30130E+01
 -1      1703 2.81412E+01
 -1      1704 2.77509E+01
 -1      1705 2.83725E+01
 -1      1706 2.83725E+01
 -1      1707 2.45976E+01
 -1      1708 2.64851E+01
 -1      1709 2.74049E+01
 -1      1710 2.69798E+01
 -1      1711 2.74049E+01
 -1      1712 2.74049E+01
 -1      1713 4.19743E+01
 -1      1714 3.19743E+01
 -1      1715 4.54478E+01
 -1      1716 4.54478E+01
 -1      1717 1.81056E+01
 -1      1718 3.18315E+01
 -1      1719 1.24767E+01
 -1      1720 1.48073E+01
 -1      1721 1.33350E+01
 -1      1722 1.33350E+01
 -1      1723 1.26520E+01
 -1      1724 1.29279E+01
 -1      1725 1.30853E+01
 -1      1726 1.27834E+01
 -1      1727 1.33873E+01
 -1      1728 1.33873E+01
 -1      1729 1.42982E+01
 -1      1730 1.24333E+01
 -1      1731 3.12538E+01
 -1      1732 1.72946E+01
 -1      1733 4.50354E+01
 -1      1734 4.50354E+01
 -1      1735 3.24980E+01
 -1      1736 4.21251E+01
 -1      1737 2.83093E+01
 -1      1738 2.76763E+01
 -1      1739 1.65896E+01
 -1      1740 3.47385E+01
 -1      1741 4.30059E-03
 -1      1742 3.70269E-03
 -1      1743 2.91226E+01
 -1      1744 3.80826E+01
 -1      1745 2.95713E+01
 -1      1746 1.16493E+01
 -1      1747 1.27980E+01
 -1      1748 1.28927E+01
 -1      1749 1.26194E+01
 -1      1750 1.27435E+01
 -1      1751 1.27779E+01
 -1      1752 2.04615E+01
 -1      1753 2.81412E+01
 -1      1754 2.64851E+01
 -1      1755 2.69798E+01
 -1      1756 2.93620E+01
 -1      1757 3.39314E+01
 -1      1758 4.19743E+01
 -1      1759 3.18315E+01
 -1      1760 1.49168E+01
 -1      1761 1.24767E+01
 -1      1762 1.29279E+01
 -1      1763 1.26520E+01
 -1      1764 1.30853E+01
 -1      1765 1.24333E+01
 -1      1766 1.44757E+01
 -1      1767 3.12538E+01
 -1      1768 4.21251E+01
 -1      1769 3.43930E+01
 -1      1770 9.50168E+00
 -1      1771 1.27016E+00
 -1      1772 1.64739E+00
 -1      1773 2.33427E+00
 -1      1774 4.17857E+00
 -1      1775 1.71973E+00
 -1      1776 8.74709E-01
 -1      1777 9.73018E-01
 -1      1778 7.56762E-01
 -1      1779 8.19085E-01
 -1      1780 7.36406E-01
 -1      1781 6.77053E-01
 -1      1782 7.19054E-01
 -1      1783 6.43074E-01
 -1      1784 6.23160E-01
 -1      1785 6.48998E-01
 -1      1786 5.77312E-01
 -1      1787 6.52477E-01
 -1      1788 6.24896E-01
 -1      1789 5.50994E-01
 -1      1790 7.21582E-01
 -1      1791 6.80122E-01
 -1      1792 5.80376E-01
 -1      1793 8.26087E-01
 -1      1794 7.61241E-01
 -1      1795 6.47680E-01
 -1      1796 9.80755E-01
 -1      1797 8.78942E-01
 -1      1798 7.40194E-01
 -1      1799 1.23124E+00
 -1      1800 1.05189E+00
 -1      1801 8.64186E-01
 -1      1802 1.69670E+00
 -1      1803 1.33488E+00
 -1      1804 1.03896E+00
 -1      1805 2.57550E+00
 -1      1806 1.77219E+00
 -1      1807 1.21808E+00
 -1      1808 8.04324E+00
 -1      1809 2.99681E+00
 -1      1810 1.71488E+00
 -1      1811 2.78293E+00
 -1      1812 5.14114E+00
 -1      1813 2.12897E+00
 -1      1814 2.62702E+00
 -1      1815 1.98028E+00
 -1      1816 3.36918E+00
 -1      1817 2.50188E+00
 -1      1818 1.88248E+00
 -1      1819 1.63825E+00
 -1      1820 1.32403E+00
 -1      1821 1.43923E+00
 -1      1822 1.13090E+00
 -1      1823 9.69516E-01
 -1      1824 1.00186E+00
 -1      1825 9.07884E-01
 -1      1826 7.93323E-01
 -1      1827 7.47094E-01
 -1      1828 7.31880E-01
 -1      1829 6.41056E-01
 -1      1830 6.24018E-01
 -1      1831 5.78116E-01
 -1      1832 5.24917E-01
 -1      1833 4.99636E-01
 -1      1834 5.53989E-01
 -1      1835 5.81103E-01
 -1      1836 4.65768E-01
 -1      1837 6.04347E-01
 -1      1838 6.24484E-01
 -1      1839 5.18083E-01
 -1      1840 6.61880E-01
 -1      1841 6.80165E-01
 -1      1842 5.78723E-01
 -1      1843 7.39905E-01
 -1      1844 8.38440E-01
 -1      1845 6.75858E-01
 -1      1846 9.08437E-01
 -1      1847 1.01469E+00
 -1      1848 8.05595E-01
 -1      1849 1.05183E+00
 -1      1850 1.11750E+00
 -1      1851 9.12735E-01
 -1      1852 1.09033E+00
 -1      1853 1.06888E+00
 -1      1854 9.22709E-01
 -1      1855 9.87449E-01
 -1      1856 1.01548E+00
 -1      1857 8.14107E-01
 -1      1858 1.03948E+00
 -1      1859 9.73527E-01
 -1      1860 7.56668E-01
 -1      1861 1.13449E+00
 -1      1862 1.37245E+00
 -1      1863 9.41625E-01
 -1      1864 1.64377E+00
 -1      1865 2.12869E+00
 -1      1866 1.37391E+00
 -1      1867 2.38705E+00
 -1      1868 2.91678E+00
 -1      1869 1.90360E+00
 -1      1870 3.00416E+00
 -1      1871 3.04028E+00
 -1      1872 2.24934E+00
 -1      1873 3.02413E+00
 -1      1874 3.05812E+00
 -1      1875 2.32057E+00
 -1      1876 3.04102E+00
 -1      1877 2.61986E+00
 -1      1878 2.28732E+00
 -1      1879 2.35011E+00
 -1      1880 1.78760E+00
 -1      1881 2.00047E+00
 -1      1882 1.55698E+00
 -1      1883 1.30169E+00
 -1      1884 1.50010E+00
 -1      1885 1.03958E+00
 -1      1886 1.02459E+00
 -1      1887 1.00738E+00
 -1      1888 1.02595E+00
 -1      1889 9.93897E-01
 -1      1890 7.46634E-01
 -1      1891 1.04809E+00
 -1      1892 1.06646E+00
 -1      1893 8.02191E-01
 -1      1894 1.12155E+00
 -1      1895 1.07680E+00
 -1      1896 9.11478E-01
 -1      1897 1.06154E+00
 -1      1898 9.69358E-01
 -1      1899 9.51318E-01
 -1      1900 9.19514E-01
 -1      1901 8.36629E-01
 -1      1902 8.86222E-01
 -1      1903 7.93527E-01
 -1      1904 7.35693E-01
 -1      1905 7.93276E-01
 -1      1906 6.89682E-01
 -1      1907 6.29508E-01
 -1      1908 7.04163E-01
 -1      1909 5.75315E-01
 -1      1910 5.13795E-01
 -1      1911 6.03959E-01
 -1      1912 4.59578E-01
 -1      1913 4.03120E-01
 -1      1914 4.95548E-01
 -1      1915 3.53637E-01
 -1      1916 3.10495E-01
 -1      1917 3.91849E-01
 -1      1918 2.68001E-01
 -1      1919 2.37281E-01
 -1      1920 2.99873E-01
 -1      1921 2.02392E-01
 -1      1922 1.77916E-01
 -1      1923 2.22490E-01
 -1      1924 1.50288E-01
 -1      1925 1.29704E-01
 -1      1926 1.59973E-01
 -1      1927 1.10287E-01
 -1      1928 9.44603E-02
 -1      1929 1.12928E-01
 -1      1930 8.11378E-02
 -1      1931 7.23243E-02
 -1      1932 8.01885E-02
 -1      1933 6.32157E-02
 -1      1934 5.50994E-02
 -1      1935 5.77573E-02
 -1      1936 4.91848E-02
 -1      1937 4.19384E-02
 -1      1938 4.27342E-02
 -1      1939 3.79800E-02
 -1      1940 3.16176E-02
 -1      1941 3.28613E-02
 -1      1942 2.78639E-02
 -1      1943 2.28682E-02
 -1      1944 2.51492E-02
 -1      1945 1.93990E-02
 -1      1946 1.59560E-02
 -1      1947 1.79262E-02
 -1      1948 1.33885E-02
 -1      1949 1.00745E-02
 -1      1950 1.18896E-02
 -1      1951 8.48702E-03
 -1      1952 5.96489E-03
 -1      1953 4.90169E-03
 -1      1954 7.73463E-03
 -1      1955 1.40313E+00
 -1      1956 1.77789E+00
 -1      1957 1.47329E+00
 -1      1958 1.04182E+00
 -1      1959 1.24030E+00
 -1      1960 9.59368E-01
 -1      1961 8.84692E-01
 -1      1962 9.75383E-01
 -1      1963 7.30094E-01
 -1      1964 8.00596E-01
 -1      1965 8.69053E-01
 -1      1966 6.48014E-01
 -1      1967 7.25193E-01
 -1      1968 7.79788E-01
 -1      1969 6.11568E-01
 -1      1970 6.51403E-01
 -1      1971 6.99609E-01
 -1      1972 5.65176E-01
 -1      1973 6.30185E-01
 -1      1974 6.65143E-01
 -1      1975 5.53331E-01
 -1      1976 7.02301E-01
 -1      1977 6.76281E-01
 -1      1978 6.13168E-01
 -1      1979 7.82999E-01
 -1      1980 7.69837E-01
 -1      1981 7.26800E-01
 -1      1982 8.46659E-01
 -1      1983 8.45370E-01
 -1      1984 8.56707E-01
 -1      1985 9.08455E-01
 -1      1986 8.65175E-01
 -1      1987 9.37594E-01
 -1      1988 1.01344E+00
 -1      1989 9.08455E-01
 -1      1990 9.56110E-01
 -1      1991 1.01910E+00
 -1      1992 9.59419E-01
 -1      1993 9.02094E-01
 -1      1994 1.03743E+00
 -1      1995 9.21730E-01
 -1      1996 7.50707E-01
 -1      1997 1.20760E+00
 -1      1998 1.13088E+00
 -1      1999 7.46784E-01
 -1      2000 1.64928E+00
 -1      2001 1.57051E+00
 -1      2002 1.20315E+00
 -1      2003 2.07877E+00
 -1      2004 1.86624E+00
 -1      2005 1.78303E+00
 -1      2006 2.59647E+00
 -1      2007 2.11595E+00
 -1      2008 2.03717E+00
 -1      2009 2.75245E+00
 -1      2010 2.54414E+00
 -1      2011 2.02202E+00
 -1      2012 3.16642E+00
 -1      2013 2.90757E+00
 -1      2014 2.12481E+00
 -1      2015 2.79545E+00
 -1      2016 3.12308E+00
 -1      2017 2.23658E+00
 -1      2018 1.75943E+00
 -1      2019 2.44904E+00
 -1      2020 1.84683E+00
 -1      2021 1.10533E+00
 -1      2022 1.44936E+00
 -1      2023 1.19035E+00
 -1      2024 8.86899E-01
 -1      2025 9.96252E-01
 -1      2026 7.71198E-01
 -1      2027 1.04477E+00
 -1      2028 1.01669E+00
 -1      2029 7.91909E-01
 -1      2030 1.18463E+00
 -1      2031 1.08120E+00
 -1      2032 9.58135E-01
 -1      2033 1.18349E+00
 -1      2034 1.19852E+00
 -1      2035 1.00846E+00
 -1      2036 1.07702E+00
 -1      2037 1.15500E+00
 -1      2038 9.93863E-01
 -1      2039 9.33961E-01
 -1      2040 1.02731E+00
 -1      2041 9.15662E-01
 -1      2042 7.95208E-01
 -1      2043 8.79885E-01
 -1      2044 8.11873E-01
 -1      2045 6.53680E-01
 -1      2046 7.31609E-01
 -1      2047 6.94198E-01
 -1      2048 5.16594E-01
 -1      2049 5.90408E-01
 -1      2050 5.67328E-01
 -1      2051 3.94432E-01
 -1      2052 4.59213E-01
 -1      2053 4.46675E-01
 -1      2054 2.91559E-01
 -1      2055 3.45458E-01
 -1      2056 3.40320E-01
 -1      2057 2.14669E-01
 -1      2058 2.51755E-01
 -1      2059 2.51543E-01
 -1      2060 1.60865E-01
 -1      2061 1.88639E-01
 -1      2062 1.85708E-01
 -1      2063 1.18493E-01
 -1      2064 1.40273E-01
 -1      2065 1.39085E-01
 -1      2066 8.56202E-02
 -1      2067 1.02056E-01
 -1      2068 1.02056E-01
 -1      2069 5.99741E-02
 -1      2070 7.27972E-02
 -1      2071 7.27972E-02
 -1      2072 4.24818E-02
 -1      2073 5.01748E-02
 -1      2074 5.01748E-02
 -1      2075 3.10842E-02
 -1      2076 3.54621E-02
 -1      2077 3.33559E-02
 -1      2078 2.41860E-02
 -1      2079 2.83262E-02
 -1      2080 2.35782E-02
 -1      2081 1.78509E-02
 -1      2082 2.16337E-02
 -1      2083 1.82680E-02
 -1      2084 1.36608E-02
 -1      2085 1.53797E-02
 -1      2086 1.32445E-02
 -1      2087 8.91256E-03
 -1      2088 1.14353E-02
 -1      2089 8.54790E-03
 -1      2090 4.55499E-03
 -1      2091 7.56680E-03
 -1      2092 4.97663E-03
 -1      2093 2.77858E-03
 -1      2094 2.81661E-03
 -1      2095 2.85785E-03
 -1      2096 2.85785E-03
 -1      2097 2.85785E-03
 -1      2098 3.25289E-03
 -1      2099 3.10666E-03
 -1      2100 2.83839E-03
 -1      2101 3.69069E-03
 -1      2102 3.50170E-03
 -1      2103 2.35907E-03
 -1      2104 2.65345E-03
 -1      2105 3.08973E-03
 -1      2106 1.77337E-03
 -1      2107 2.05719E-03
 -1      2108 2.62469E-03
 -1      2109 2.26810E-03
 -1      2110 2.10783E-03
 -1      2111 2.65727E-03
 -1      2112 2.26810E-03
 -1      2113 2.26810E-03
 -1      2114 2.99173E-03
 -1      2115 2.25956E-03
 -1      2116 2.26012E-03
 -1      2117 2.98376E-03
 -1      2118 2.09721E-03
 -1      2119 2.25956E-03
 -1      2120 2.97579E-03
 -1      2121 2.05266E-03
 -1      2122 1.77938E-03
 -1      2123 2.65796E-03
 -1      2124 2.64788E-03
 -1      2125 2.36143E-03
 -1      2126 2.64891E-03
 -1      2127 3.04335E-03
 -1      2128 2.74828E-03
 -1      2129 3.05807E-03
 -1      2130 3.63361E-03
 -1      2131 3.63361E-03
 -1      2132 3.74871E-03
 -1      2133 3.80826E+01
 -1      2134 2.86740E+01
 -1      2135 2.95713E+01
 -1      2136 2.95713E+01
 -1      2137 2.55315E+01
 -1      2138 2.59802E+01
 -1      2139 2.55315E+01
 -1      2140 1.93549E+01
 -1      2141 3.21076E+01
 -1      2142 1.04263E+01
 -1      2143 1.58224E+01
 -1      2144 1.03445E+00
 -1      2145 1.21118E+00
 -1      2146 9.73864E-01
 -1      2147 8.53458E-01
 -1      2148 1.10625E+01
 -1      2149 1.03697E+01
 -1      2150 1.15761E+01
 -1      2151 1.21742E+01
 -1      2152 1.18226E+01
 -1      2153 1.14979E+01
 -1      2154 1.07793E+01
 -1      2155 1.07816E+01
 -1      2156 1.09822E+01
 -1      2157 9.67385E+00
 -1      2158 9.43874E+00
 -1      2159 1.97968E+01
 -1      2160 1.23484E+01
 -1      2161 2.38232E+01
 -1      2162 2.35919E+01
 -1      2163 1.54788E+01
 -1      2164 2.38964E+01
 -1      2165 2.57838E+01
 -1      2166 3.25910E+01
 -1      2167 3.02088E+01
 -1      2168 3.25910E+01
 -1      2169 3.25910E+01
 -1      2170 3.24326E+01
 -1      2171 2.78632E+01
 -1      2172 3.63588E+01
 -1      2173 3.28853E+01
 -1      2174 1.68744E+01
 -1      2175 3.04908E+01
 -1      2176 9.79115E+00
 -1      2177 1.30895E+01
 -1      2178 1.17488E+01
 -1      2179 1.04256E+01
 -1      2180 9.56736E+00
 -1      2181 1.10480E+01
 -1      2182 1.14552E+01
 -1      2183 1.15928E+01
 -1      2184 1.14615E+01
 -1      2185 1.17780E+01
 -1      2186 1.14761E+01
 -1      2187 9.54262E+00
 -1      2188 1.04966E+01
 -1      2189 1.29249E+01
 -1      2190 9.92849E+00
 -1      2191 7.99179E+00
 -1      2192 3.03166E+01
 -1      2193 1.65350E+01
 -1      2194 3.36525E+01
 -1      2195 3.65629E+01
 -1      2196 2.94595E+01
 -1      2197 3.42812E+01
 -1      2198 9.64242E+00
 -1      2199 9.18657E+00
 -1      2200 8.41941E+00
 -1      2201 2.86346E+00
 -1      2202 7.90695E+00
 -1      2203 2.04503E+00
 -1      2204 2.89950E+01
 -1      2205 2.89950E+01
 -1      2206 2.54039E+01
 -1      2207 2.26990E+01
 -1      2208 3.99759E-03
 -1      2209 2.94595E+01
 -1      2210 1.31916E+01
 -1      2211 2.87190E+01
 -1      2212 1.19877E+01
 -1      2213 1.05489E+01
 -1      2214 8.93961E+00
 -1      2215 7.65819E+00
 -1      2216 1.02855E+01
 -1      2217 9.98877E+00
 -1      2218 7.74006E+00
 -1      2219 2.14017E+01
 -1      2220 2.68171E+01
 -1      2221 3.10922E+01
 -1      2222 3.58200E+01
 -1      2223 2.27705E+01
 -1      2224 1.82211E+01
 -1      2225 2.01818E+01
 -1      2226 9.00920E+00
 -1      2227 9.86079E+00
 -1      2228 1.12159E+01
 -1      2229 8.78760E+00
 -1      2230 9.89923E+00
 -1      2231 7.67753E+00
 -1      2232 2.95075E+01
 -1      2233 1.06145E+01
 -1      2234 7.70510E+00
 -1      2235 8.73461E+00
 -1      2236 2.18441E+01
 -1      2237 1.05437E+00
 -1      2238 1.40546E+00
 -1      2239 5.39306E-01
 -1      2240 5.77014E-01
 -1      2241 5.98288E-01
 -1      2242 6.53911E-01
 -1      2243 4.94519E-01
 -1      2244 4.71627E-01
 -1      2245 4.69891E-01
 -1      2246 5.18612E-01
 -1      2247 4.90966E-01
 -1      2248 4.09863E-01
 -1      2249 5.80493E-01
 -1      2250 5.40834E-01
 -1      2251 4.51424E-01
 -1      2252 6.52539E-01
 -1      2253 5.99684E-01
 -1      2254 4.92837E-01
 -1      2255 7.28067E-01
 -1      2256 6.56930E-01
 -1      2257 5.16419E-01
 -1      2258 8.90446E-01
 -1      2259 7.86810E-01
 -1      2260 5.79553E-01
 -1      2261 7.96536E-01
 -1      2262 9.59368E-01
 -1      2263 8.91539E-01
 -1      2264 1.20148E+00
 -1      2265 9.57253E-01
 -1      2266 6.47134E+00
 -1      2267 5.74407E+00
 -1      2268 8.91981E-01
 -1      2269 6.98846E-01
 -1      2270 6.54237E-01
 -1      2271 6.18425E-01
 -1      2272 5.56792E-01
 -1      2273 5.08544E-01
 -1      2274 5.20808E-01
 -1      2275 4.59365E-01
 -1      2276 3.92139E-01
 -1      2277 4.20826E-01
 -1      2278 3.57886E-01
 -1      2279 3.17616E-01
 -1      2280 3.72440E-01
 -1      2281 4.01512E-01
 -1      2282 2.93630E-01
 -1      2283 4.49519E-01
 -1      2284 4.72762E-01
 -1      2285 3.56191E-01
 -1      2286 5.42559E-01
 -1      2287 5.79955E-01
 -1      2288 4.73994E-01
 -1      2289 6.42112E-01
 -1      2290 7.01852E-01
 -1      2291 6.05949E-01
 -1      2292 7.50351E-01
 -1      2293 8.20349E-01
 -1      2294 7.16605E-01
 -1      2295 8.84120E-01
 -1      2296 9.21262E-01
 -1      2297 8.28875E-01
 -1      2298 9.80371E-01
 -1      2299 9.53203E-01
 -1      2300 9.51755E-01
 -1      2301 9.85531E-01
 -1      2302 9.04096E-01
 -1      2303 1.04319E+00
 -1      2304 9.90402E-01
 -1      2305 1.01440E+00
 -1      2306 1.16183E+00
 -1      2307 1.10144E+00
 -1      2308 1.26240E+00
 -1      2309 1.33518E+00
 -1      2310 1.36789E+00
 -1      2311 1.63921E+00
 -1      2312 1.52771E+00
 -1      2313 1.71241E+00
 -1      2314 1.97078E+00
 -1      2315 1.70640E+00
 -1      2316 2.38749E+00
 -1      2317 2.47487E+00
 -1      2318 2.19630E+00
 -1      2319 2.52279E+00
 -1      2320 2.50664E+00
 -1      2321 2.66093E+00
 -1      2322 2.49210E+00
 -1      2323 2.47500E+00
 -1      2324 2.69432E+00
 -1      2325 2.07726E+00
 -1      2326 1.80751E+00
 -1      2327 2.28204E+00
 -1      2328 1.77477E+00
 -1      2329 1.54415E+00
 -1      2330 1.85156E+00
 -1      2331 1.31678E+00
 -1      2332 1.05467E+00
 -1      2333 1.59145E+00
 -1      2334 1.04244E+00
 -1      2335 1.04380E+00
 -1      2336 1.35184E+00
 -1      2337 9.27484E-01
 -1      2338 9.81679E-01
 -1      2339 1.22329E+00
 -1      2340 9.76773E-01
 -1      2341 1.03187E+00
 -1      2342 1.10207E+00
 -1      2343 9.85729E-01
 -1      2344 9.70477E-01
 -1      2345 1.05102E+00
 -1      2346 9.08458E-01
 -1      2347 8.58614E-01
 -1      2348 9.42868E-01
 -1      2349 8.17189E-01
 -1      2350 7.74087E-01
 -1      2351 8.39425E-01
 -1      2352 7.28266E-01
 -1      2353 6.82256E-01
 -1      2354 7.52179E-01
 -1      2355 6.28565E-01
 -1      2356 5.74372E-01
 -1      2357 6.52668E-01
 -1      2358 5.20190E-01
 -1      2359 4.65973E-01
 -1      2360 5.44797E-01
 -1      2361 4.15767E-01
 -1      2362 3.66285E-01
 -1      2363 4.40409E-01
 -1      2364 3.22329E-01
 -1      2365 2.79835E-01
 -1      2366 3.46247E-01
 -1      2367 2.42920E-01
 -1      2368 2.08031E-01
 -1      2369 2.65376E-01
 -1      2370 1.78036E-01
 -1      2371 1.50408E-01
 -1      2372 1.98466E-01
 -1      2373 1.26713E-01
 -1      2374 1.07296E-01
 -1      2375 1.44776E-01
 -1      2376 8.90566E-02
 -1      2377 7.57341E-02
 -1      2378 1.02842E-01
 -1      2379 6.20476E-02
 -1      2380 5.29390E-02
 -1      2381 7.09158E-02
 -1      2382 4.29457E-02
 -1      2383 3.70311E-02
 -1      2384 4.72360E-02
 -1      2385 3.02423E-02
 -1      2386 2.62839E-02
 -1      2387 3.04538E-02
 -1      2388 2.26632E-02
 -1      2389 1.89095E-02
 -1      2390 2.00442E-02
 -1      2391 1.66931E-02
 -1      2392 1.32239E-02
 -1      2393 1.42071E-02
 -1      2394 1.14558E-02
 -1      2395 8.88829E-03
 -1      2396 1.02226E-02
 -1      2397 2.34910E+01
 -1      2398 2.03485E+01
 -1      2399 5.60804E-01
 -1      2400 5.76442E-01
 -1      2401 4.93574E-01
 -1      2402 5.14381E-01
 -1      2403 4.42810E-01
 -1      2404 4.55849E-01
 -1      2405 4.81433E-01
 -1      2406 3.84247E-01
 -1      2407 5.00537E-01
 -1      2408 4.86797E-01
 -1      2409 4.03055E-01
 -1      2410 6.12545E-01
 -1      2411 5.66450E-01
 -1      2412 4.99915E-01
 -1      2413 7.52336E-01
 -1      2414 6.84800E-01
 -1      2415 6.38082E-01
 -1      2416 8.71441E-01
 -1      2417 8.09069E-01
 -1      2418 7.67070E-01
 -1      2419 9.37594E-01
 -1      2420 9.19078E-01
 -1      2421 8.71441E-01
 -1      2422 9.94169E-01
 -1      2423 9.94169E-01
 -1      2424 9.75652E-01
 -1      2425 9.66007E-01
 -1      2426 1.02002E+00
 -1      2427 1.05808E+00
 -1      2428 8.85959E-01
 -1      2429 9.83330E-01
 -1      2430 1.10126E+00
 -1      2431 1.09304E+00
 -1      2432 9.99593E-01
 -1      2433 1.23222E+00
 -1      2434 1.53084E+00
 -1      2435 1.16793E+00
 -1      2436 1.42074E+00
 -1      2437 1.86357E+00
 -1      2438 1.64661E+00
 -1      2439 1.61138E+00
 -1      2440 2.17800E+00
 -1      2441 2.14082E+00
 -1      2442 2.00439E+00
 -1      2443 2.32716E+00
 -1      2444 2.37949E+00
 -1      2445 2.48313E+00
 -1      2446 2.51803E+00
 -1      2447 2.36291E+00
 -1      2448 2.72038E+00
 -1      2449 2.11472E+00
 -1      2450 2.15806E+00
 -1      2451 2.39617E+00
 -1      2452 1.58202E+00
 -1      2453 1.92843E+00
 -1      2454 1.84992E+00
 -1      2455 1.08802E+00
 -1      2456 1.39809E+00
 -1      2457 1.47969E+00
 -1      2458 9.58912E-01
 -1      2459 1.06799E+00
 -1      2460 1.27573E+00
 -1      2461 1.00332E+00
 -1      2462 8.73526E-01
 -1      2463 1.17032E+00
 -1      2464 1.06068E+00
 -1      2465 1.02425E+00
 -1      2466 1.10586E+00
 -1      2467 1.04565E+00
 -1      2468 1.03176E+00
 -1      2469 1.09787E+00
 -1      2470 9.61348E-01
 -1      2471 9.89836E-01
 -1      2472 1.01314E+00
 -1      2473 8.73747E-01
 -1      2474 9.23461E-01
 -1      2475 9.19433E-01
 -1      2476 7.71517E-01
 -1      2477 8.25593E-01
 -1      2478 8.33392E-01
 -1      2479 6.48483E-01
 -1      2480 7.12082E-01
 -1      2481 7.25802E-01
 -1      2482 5.24148E-01
 -1      2483 5.87420E-01
 -1      2484 6.05304E-01
 -1      2485 4.09916E-01
 -1      2486 4.67297E-01
 -1      2487 4.87389E-01
 -1      2488 3.11248E-01
 -1      2489 3.60221E-01
 -1      2490 3.80843E-01
 -1      2491 2.29915E-01
 -1      2492 2.69720E-01
 -1      2493 2.89620E-01
 -1      2494 1.70372E-01
 -1      2495 1.96403E-01
 -1      2496 2.14580E-01
 -1      2497 1.23516E-01
 -1      2498 1.44108E-01
 -1      2499 1.54804E-01
 -1      2500 8.70369E-02
 -1      2501 1.03473E-01
 -1      2502 1.08497E-01
 -1      2503 5.93140E-02
 -1      2504 7.21371E-02
 -1      2505 7.35538E-02
 -1      2506 3.98079E-02
 -1      2507 4.96071E-02
 -1      2508 4.89471E-02
 -1      2509 2.71922E-02
 -1      2510 3.42119E-02
 -1      2511 3.36442E-02
 -1      2512 2.08202E-02
 -1      2513 2.35782E-02
 -1      2514 2.44342E-02
 -1      2515 1.57157E-02
 -1      2516 1.82680E-02
 -1      2517 1.82680E-02
 -1      2518 1.07734E-02
 -1      2519 1.32445E-02
 -1      2520 1.32445E-02
 -1      2521 6.76193E-03
 -1      2522 8.98745E-03
 -1      2523 8.98745E-03
 -1      2524 5.03645E-03
 -1      2525 3.09609E-03
 -1      2526 3.39796E-03
 -1      2527 4.03024E-03
 -1      2528 3.69578E-03
 -1      2529 4.46905E-03
 -1      2530 3.73798E-03
 -1      2531 3.73798E-03
 -1      2532 3.38274E-03
 -1      2533 3.54590E-03
 -1      2534 4.03100E-03
 -1      2535 3.85413E-03
 -1      2536 4.12985E-03
 -1      2537 4.12985E-03
 -1      2538 5.16836E-03
 -1      2539 4.12188E-03
 -1      2540 4.12985E-03
 -1      2541 5.26797E-03
 -1      2542 4.11088E-03
 -1      2543 4.11088E-03
 -1      2544 5.25697E-03
 -1      2545 3.70669E-03
 -1      2546 4.02451E-03
 -1      2547 5.15960E-03
 -1      2548 3.41025E-03
 -1      2549 3.10148E-03
 -1      2550 4.46803E-03
 -1      2551 3.77748E-03
 -1      2552 3.67708E-03
 -1      2553 4.12966E-03
 -1      2554 4.24457E-03
 -1      2555 3.65432E-03
 -1      2556 4.27333E-03
 -1      2557 5.24307E-03
 -1      2558 2.94595E+01
 -1      2559 2.93477E+01
 -1      2560 6.14931E-01
 -1      2561 6.81372E-01
 -1      2562 5.27721E-01
 -1      2563 1.47701E+01
 -1      2564 2.07451E+01
 -1      2565 2.45805E+01
 -1      2566 2.39519E+01
 -1      2567 1.62148E+00
 -1      2568 1.25990E+00
 -1      2569 7.77924E-01
 -1      2570 9.34591E-01
 -1      2571 8.63182E+00
 -1      2572 1.21643E+01
 -1      2573 1.02104E+01
 -1      2574 1.38509E+01
 -1      2575 1.97189E+01
 -1      2576 8.62792E+00
 -1      2577 5.95340E+00
 -1      2578 4.89374E-01
 -1      2579 5.17428E-01
 -1      2580 4.51367E-01
 -1      2581 4.10007E-01
 -1      2582 5.08401E+00
 -1      2583 6.42687E+00
 -1      2584 9.16052E+00
 -1      2585 9.23867E+00
 -1      2586 2.95075E+01
 -1      2587 2.31951E+01
 -1      2588 7.74150E+00
 -1      2589 8.58189E+00
 -1      2590 7.04123E+00
 -1      2591 1.54256E+01
 -1      2592 1.16305E+01
 -1      2593 8.57471E+00
 -1      2594 3.58200E+01
 -1      2595 3.58200E+01
 -1      2596 2.95075E+01
 -1      2597 2.63644E+01
 -1      2598 3.10922E+01
 -1      2599 2.26297E+01
 -1      2600 2.21770E+01
 -1      2601 8.12686E+00
 -1      2602 1.19118E+01
 -1      2603 2.04240E+01
 -1      2604 1.41777E+01
 -1      2605 1.62855E+01
 -1      2606 6.07880E+00
 -1      2607 6.30259E+00
 -1      2608 6.46560E+00
 -1      2609 9.05345E+00
 -1      2610 8.63998E+00
 -1      2611 9.03333E+00
 -1      2612 9.15006E+00
 -1      2613 6.54862E+00
 -1      2614 6.16275E+00
 -1      2615 1.22593E+01
 -1      2616 8.64919E+00
 -1      2617 6.82015E+00
 -1      2618 1.54142E+00
 -1      2619 1.69734E+00
 -1      2620 1.27602E+00
 -1      2621 1.12251E+00
 -1      2622 6.51471E+00
 -1      2623 7.75443E+00
 -1      2624 5.07910E+00
 -1      2625 5.14797E+00
 -1      2626 5.38558E-01
 -1      2627 6.76675E-01
 -1      2628 7.38104E-01
 -1      2629 6.81372E-01
 -1      2630 1.20054E+00
 -1      2631 6.72712E+00
 -1      2632 2.03379E+01
 -1      2633 2.33527E+01
 -1      2634 1.82974E+01
 -1      2635 2.24869E+01
 -1      2636 2.24869E+01
 -1      2637 1.77198E+01
 -1      2638 1.55622E+01
 -1      2639 5.47599E-03
 -1      2640 5.22718E-03
 -1      2641 1.08392E+01
 -1      2642 6.14717E-03
 -1      2643 5.24307E-03
 -1      2644 5.14867E-03
 -1      2645 7.73463E-03
 -1      2646 8.00167E+00
 -1      2647 6.86622E+00
 -1      2648 6.77250E+00
 -1      2649 2.62953E+01
 -1      2650 2.61834E+01
 -1      2651 2.57190E+01
 -1      2652 9.48386E-01
 -1      2653 1.50789E+01
 -1      2654 7.79930E+00
 -1      2655 1.02290E+01
 -1      2656 6.21501E+00
 -1      2657 3.10922E+01
 -1      2658 8.75613E-01
 -1      2659 4.93312E+00
 -1      2660 5.31439E+00
 -1      2661 4.06373E+00
 -1      2662 1.84216E+01
 -1      2663 1.54083E+01
 -1      2664 1.84216E+01
 -1      2665 7.12682E+00
 -1      2666 4.96394E+00
 -1      2667 7.28020E+00
 -1      2668 8.89682E+00
 -1      2669 7.93858E+00
 -1      2670 7.27801E+00
 -1      2671 1.43729E+01
 -1      2672 6.10346E+00
 -1      2673 5.91463E+00
 -1      2674 4.47716E+00
 -1      2675 2.21770E+01
 -1      2676 7.80127E+00
 -1      2677 5.71228E-03
 -1      2678 7.30083E-03
 -1      2679 4.04766E-01
 -1      2680 3.82544E-01
 -1      2681 3.64450E-01
 -1      2682 3.45111E-01
 -1      2683 3.17792E-01
 -1      2684 4.41945E-01
 -1      2685 4.37554E-01
 -1      2686 5.00688E-01
 -1      2687 4.41945E-01
 -1      2688 3.63080E-01
 -1      2689 6.34252E-01
 -1      2690 7.29255E-01
 -1      2691 1.10893E+01
 -1      2692 1.40000E+01
 -1      2693 3.82108E+00
 -1      2694 4.59171E+00
 -1      2695 4.73279E-01
 -1      2696 5.88442E-01
 -1      2697 4.26158E-01
 -1      2698 4.11853E+00
 -1      2699 5.43316E+00
 -1      2700 4.19977E-01
 -1      2701 3.39556E-01
 -1      2702 3.04951E-01
 -1      2703 2.68967E-01
 -1      2704 2.16384E-01
 -1      2705 2.52576E-01
 -1      2706 2.14038E-01
 -1      2707 1.65389E-01
 -1      2708 2.47092E-01
 -1      2709 2.61645E-01
 -1      2710 1.82052E-01
 -1      2711 3.20561E-01
 -1      2712 3.68568E-01
 -1      2713 2.74022E-01
 -1      2714 4.37399E-01
 -1      2715 5.07196E-01
 -1      2716 4.01769E-01
 -1      2717 5.82773E-01
 -1      2718 6.44930E-01
 -1      2719 5.46178E-01
 -1      2720 7.22870E-01
 -1      2721 7.71369E-01
 -1      2722 6.99694E-01
 -1      2723 8.43970E-01
 -1      2724 9.07741E-01
 -1      2725 8.50235E-01
 -1      2726 1.01374E+00
 -1      2727 1.07285E+00
 -1      2728 1.02884E+00
 -1      2729 1.20316E+00
 -1      2730 1.23548E+00
 -1      2731 1.26514E+00
 -1      2732 1.38707E+00
 -1      2733 1.47338E+00
 -1      2734 1.54703E+00
 -1      2735 1.59988E+00
 -1      2736 1.68692E+00
 -1      2737 1.82512E+00
 -1      2738 2.35805E+00
 -1      2739 2.46354E+00
 -1      2740 2.62275E+00
 -1      2741 1.82400E+00
 -1      2742 1.89720E+00
 -1      2743 2.65434E+00
 -1      2744 3.04629E+00
 -1      2745 3.46301E+00
 -1      2746 3.16390E+00
 -1      2747 3.56628E+00
 -1      2748 3.61420E+00
 -1      2749 4.41627E+00
 -1      2750 2.94750E+00
 -1      2751 2.93297E+00
 -1      2752 3.85285E+00
 -1      2753 3.13185E+00
 -1      2754 2.73411E+00
 -1      2755 3.38504E+00
 -1      2756 2.54610E+00
 -1      2757 2.51336E+00
 -1      2758 3.39591E+00
 -1      2759 2.12267E+00
 -1      2760 1.89530E+00
 -1      2761 2.81722E+00
 -1      2762 1.76100E+00
 -1      2763 1.74877E+00
 -1      2764 2.29223E+00
 -1      2765 1.55121E+00
 -1      2766 1.43489E+00
 -1      2767 1.96037E+00
 -1      2768 1.32406E+00
 -1      2769 1.31916E+00
 -1      2770 1.65198E+00
 -1      2771 1.18665E+00
 -1      2772 1.14051E+00
 -1      2773 1.40865E+00
 -1      2774 1.02181E+00
 -1      2775 9.59789E-01
 -1      2776 1.15743E+00
 -1      2777 8.96387E-01
 -1      2778 8.54962E-01
 -1      2779 9.75327E-01
 -1      2780 7.86849E-01
 -1      2781 7.41028E-01
 -1      2782 8.43811E-01
 -1      2783 6.74464E-01
 -1      2784 6.20774E-01
 -1      2785 7.09134E-01
 -1      2786 5.59932E-01
 -1      2787 5.05750E-01
 -1      2788 5.81727E-01
 -1      2789 4.52406E-01
 -1      2790 4.02200E-01
 -1      2791 4.67541E-01
 -1      2792 3.56827E-01
 -1      2793 3.12871E-01
 -1      2794 3.68824E-01
 -1      2795 2.75204E-01
 -1      2796 2.38288E-01
 -1      2797 2.85784E-01
 -1      2798 2.07679E-01
 -1      2799 1.77684E-01
 -1      2800 2.17507E-01
 -1      2801 1.53301E-01
 -1      2802 1.29607E-01
 -1      2803 1.62515E-01
 -1      2804 1.10555E-01
 -1      2805 9.23153E-02
 -1      2806 1.19080E-01
 -1      2807 7.77194E-02
 -1      2808 6.40330E-02
 -1      2809 8.54325E-02
 -1      2810 5.30818E-02
 -1      2811 4.30884E-02
 -1      2812 5.98854E-02
 -1      2813 3.50608E-02
 -1      2814 2.82720E-02
 -1      2815 4.09066E-02
 -1      2816 2.25385E-02
 -1      2817 1.89178E-02
 -1      2818 2.71455E-02
 -1      2819 1.49581E-02
 -1      2820 1.27417E-02
 -1      2821 1.74523E-02
 -1      2822 9.86566E-03
 -1      2823 8.09753E-03
 -1      2824 1.06166E-02
 -1      2825 1.01509E+01
 -1      2826 8.23251E+00
 -1      2827 3.05768E-01
 -1      2828 3.52191E-01
 -1      2829 5.21833E-01
 -1      2830 4.55921E-01
 -1      2831 6.73462E-01
 -1      2832 6.01208E-01
 -1      2833 5.57213E-01
 -1      2834 8.09388E-01
 -1      2835 7.52654E-01
 -1      2836 7.15780E-01
 -1      2837 9.27606E-01
 -1      2838 8.79968E-01
 -1      2839 8.65553E-01
 -1      2840 1.07030E+00
 -1      2841 1.01372E+00
 -1      2842 1.02225E+00
 -1      2843 1.21887E+00
 -1      2844 1.19302E+00
 -1      2845 1.23109E+00
 -1      2846 1.36989E+00
 -1      2847 1.35257E+00
 -1      2848 1.48751E+00
 -1      2849 1.52982E+00
 -1      2850 1.41618E+00
 -1      2851 1.66749E+00
 -1      2852 2.08993E+00
 -1      2853 2.01504E+00
 -1      2854 2.19901E+00
 -1      2855 2.04874E+00
 -1      2856 1.93298E+00
 -1      2857 2.52728E+00
 -1      2858 2.40740E+00
 -1      2859 2.13015E+00
 -1      2860 2.45174E+00
 -1      2861 3.54418E+00
 -1      2862 3.34269E+00
 -1      2863 3.46844E+00
 -1      2864 3.79766E+00
 -1      2865 3.76190E+00
 -1      2866 4.62146E+00
 -1      2867 3.59991E+00
 -1      2868 3.95987E+00
 -1      2869 5.00140E+00
 -1      2870 2.49866E+00
 -1      2871 2.68495E+00
 -1      2872 4.24866E+00
 -1      2873 2.13786E+00
 -1      2874 2.32179E+00
 -1      2875 3.15683E+00
 -1      2876 1.73649E+00
 -1      2877 1.75651E+00
 -1      2878 2.59861E+00
 -1      2879 1.41031E+00
 -1      2880 1.49570E+00
 -1      2881 1.97648E+00
 -1      2882 1.34200E+00
 -1      2883 1.32107E+00
 -1      2884 1.64645E+00
 -1      2885 1.20515E+00
 -1      2886 1.23407E+00
 -1      2887 1.44928E+00
 -1      2888 1.03520E+00
 -1      2889 1.09102E+00
 -1      2890 1.22721E+00
 -1      2891 9.32441E-01
 -1      2892 9.70328E-01
 -1      2893 1.04821E+00
 -1      2894 8.19652E-01
 -1      2895 8.67806E-01
 -1      2896 9.18701E-01
 -1      2897 6.91734E-01
 -1      2898 7.51169E-01
 -1      2899 7.85584E-01
 -1      2900 5.65065E-01
 -1      2901 6.26128E-01
 -1      2902 6.51495E-01
 -1      2903 4.49076E-01
 -1      2904 5.05928E-01
 -1      2905 5.26752E-01
 -1      2906 3.48267E-01
 -1      2907 3.97962E-01
 -1      2908 4.16501E-01
 -1      2909 2.63954E-01
 -1      2910 3.05482E-01
 -1      2911 3.22601E-01
 -1      2912 1.95560E-01
 -1      2913 2.29073E-01
 -1      2914 2.44934E-01
 -1      2915 1.41506E-01
 -1      2916 1.67770E-01
 -1      2917 1.82263E-01
 -1      2918 9.97912E-02
 -1      2919 1.19834E-01
 -1      2920 1.32801E-01
 -1      2921 6.83416E-02
 -1      2922 8.32414E-02
 -1      2923 9.45790E-02
 -1      2924 4.62702E-02
 -1      2925 5.59771E-02
 -1      2926 6.56646E-02
 -1      2927 3.16576E-02
 -1      2928 3.72536E-02
 -1      2929 4.42836E-02
 -1      2930 2.16536E-02
 -1      2931 2.52676E-02
 -1      2932 2.88770E-02
 -1      2933 1.47241E-02
 -1      2934 1.72764E-02
 -1      2935 1.81097E-02
 -1      2936 9.98990E-03
 -1      2937 1.24610E-02
 -1      2938 1.14695E-02
 -1      2939 7.20148E-03
 -1      2940 8.98745E-03
 -1      2941 8.20393E-03
 -1      2942 5.71228E-03
 -1      2943 6.93824E-03
 -1      2944 6.93824E-03
 -1      2945 6.53013E-03
 -1      2946 5.37647E-03
 -1      2947 6.17317E-03
 -1      2948 6.39522E-03
 -1      2949 5.79552E-03
 -1      2950 6.92068E-03
 -1      2951 6.93169E-03
 -1      2952 8.60196E-03
 -1      2953 6.93824E-03
 -1      2954 6.83863E-03
 -1      2955 8.16510E-03
 -1      2956 8.60851E-03
 -1      2957 1.15785E+01
 -1      2958 1.43244E+01
 -1      2959 6.83432E-03
 -1      2960 6.92068E-03
 -1      2961 8.59540E-03
 -1      2962 5.79024E-03
 -1      2963 6.39544E-03
 -1      2964 8.15652E-03
 -1      2965 5.32291E-03
 -1      2966 5.05608E-03
 -1      2967 6.98349E-03
 -1      2968 3.81762E-01
 -1      2969 4.20250E-01
 -1      2970 3.27320E-01
 -1      2971 2.44720E-01
 -1      2972 5.39072E+00
 -1      2973 6.26811E+00
 -1      2974 1.62019E+01
 -1      2975 1.26740E+01
 -1      2976 5.07139E+00
 -1      2977 6.89567E+00
 -1      2978 6.98831E-01
 -1      2979 6.40415E-01
 -1      2980 2.49040E+01
 -1      2981 1.85916E+01
 -1      2982 6.27649E+00
 -1      2983 6.37112E+00
 -1      2984 3.81762E-01
 -1      2985 3.50813E-01
 -1      2986 4.03679E-01
 -1      2987 2.85770E-01
 -1      2988 2.97910E-01
 -1      2989 2.64477E-01
 -1      2990 5.51246E-01
 -1      2991 4.85974E-01
 -1      2992 3.16985E-01
 -1      2993 4.72152E-01
 -1      2994 9.24998E+00
 -1      2995 6.24740E+00
 -1      2996 7.41204E+00
 -1      2997 1.00179E+01
 -1      2998 4.37416E-01
 -1      2999 4.18225E-01
 -1      3000 3.49345E-01
 -1      3001 3.62942E-01
 -1      3002 1.44561E+01
 -1      3003 1.16605E+01
 -1      3004 4.16266E-01
 -1      3005 4.37541E-01
 -1      3006 6.00204E+00
 -1      3007 6.58068E+00
 -1      3008 7.38104E-01
 -1      3009 8.17498E+00
 -1      3010 1.01141E+01
 -1      3011 6.76180E+00
 -1      3012 6.66519E+00
 -1      3013 4.15175E+00
 -1      3014 5.64718E+00
 -1      3015 4.37797E-03
 -1      3016 1.60725E+01
 -1      3017 2.02599E+01
 -1      3018 1.96060E+01
 -1      3019 2.43338E+01
 -1      3020 7.14202E+00
 -1      3021 5.04144E+00
 -1      3022 8.12419E-01
 -1      3023 4.72537E-01
 -1      3024 4.95301E-01
 -1      3025 3.94284E-01
 -1      3026 4.47362E+00
 -1      3027 3.00038E-01
 -1      3028 3.45451E-01
 -1      3029 3.64934E-01
 -1      3030 4.97261E+00
 -1      3031 1.20829E+01
 -1      3032 4.13270E+00
 -1      3033 3.18324E+00
 -1      3034 3.46844E+00
 -1      3035 3.41363E+00
 -1      3036 1.45913E+01
 -1      3037 1.45806E+01
 -1      3038 1.06076E+01
 -1      3039 6.45381E+00
 -1      3040 9.33320E+00
 -1      3041 2.00657E+01
 -1      3042 1.32050E+01
 -1      3043 1.69015E+01
 -1      3044 7.01151E-03
 -1      3045 5.08534E-03
 -1      3046 5.07012E-03
 -1      3047 1.00674E+01
 -1      3048 6.07564E+00
 -1      3049 2.07291E-01
 -1      3050 5.23702E+00
 -1      3051 1.35015E+01
 -1      3052 8.78014E+00
 -1      3053 4.27689E-03
 -1      3054 4.46897E-03
 -1      3055 5.95817E-03
 -1      3056 5.50809E-03
 -1      3057 1.34178E+01
 -1      3058 1.26959E+01
 -1      3059 4.50113E-03
 -1      3060 9.03525E+00
 -1      3061 4.70924E+00
 -1      3062 1.41083E+01
 -1      3063 2.06530E+01
 -1      3064 3.96760E+00
 -1      3065 4.39767E+00
 -1      3066 3.80344E+00
 -1      3067 6.78077E+00
 -1      3068 5.60840E+00
 -1      3069 1.15643E+01
 -1      3070 1.61678E+01
 -1      3071 1.13943E+01
 -1      3072 4.58066E+00
 -1      3073 5.61322E-01
 -1      3074 6.27779E+00
 -1      3075 3.82064E-01
 -1      3076 4.03942E-01
 -1      3077 3.46963E-01
 -1      3078 3.17508E-01
 -1      3079 6.23883E+00
 -1      3080 4.47656E+00
 -1      3081 4.69819E-03
 -1      3082 4.59355E-03
 -1      3083 5.51997E-03
 -1      3084 6.26559E-03
 -1      3085 5.55132E-01
 -1      3086 4.17524E-01
 -1      3087 3.13821E-01
 -1      3088 3.13821E-01
 -1      3089 6.17491E+00
 -1      3090 5.03882E+00
 -1      3091 9.22666E+00
 -1      3092 1.12991E+01
 -1      3093 1.85824E-01
 -1      3094 1.69434E-01
 -1      3095 1.92363E-01
 -1      3096 2.25417E-01
 -1      3097 2.12798E-01
 -1      3098 2.62208E-01
 -1      3099 3.21124E-01
 -1      3100 2.72519E-01
 -1      3101 3.69808E-01
 -1      3102 4.38640E-01
 -1      3103 3.57994E-01
 -1      3104 5.09447E-01
 -1      3105 5.85024E-01
 -1      3106 4.77486E-01
 -1      3107 6.73184E-01
 -1      3108 7.51124E-01
 -1      3109 6.36454E-01
 -1      3110 8.72212E-01
 -1      3111 9.44813E-01
 -1      3112 8.45702E-01
 -1      3113 1.08853E+00
 -1      3114 1.19453E+00
 -1      3115 1.11050E+00
 -1      3116 1.33680E+00
 -1      3117 1.46711E+00
 -1      3118 1.39649E+00
 -1      3119 1.65476E+00
 -1      3120 1.80635E+00
 -1      3121 1.72642E+00
 -1      3122 2.68368E+00
 -1      3123 2.81019E+00
 -1      3124 2.79141E+00
 -1      3125 3.28636E+00
 -1      3126 3.95749E+00
 -1      3127 4.14492E+00
 -1      3128 3.29388E+00
 -1      3129 2.65434E+00
 -1      3130 3.80344E+00
 -1      3131 5.07263E+00
 -1      3132 4.40594E+00
 -1      3133 3.58392E+00
 -1      3134 3.39591E+00
 -1      3135 2.87285E+00
 -1      3136 2.73856E+00
 -1      3137 2.50647E+00
 -1      3138 2.30890E+00
 -1      3139 3.08709E+00
 -1      3140 2.04009E+00
 -1      3141 1.92927E+00
 -1      3142 2.58619E+00
 -1      3143 1.61425E+00
 -1      3144 1.48174E+00
 -1      3145 2.00237E+00
 -1      3146 1.33825E+00
 -1      3147 1.21954E+00
 -1      3148 1.54385E+00
 -1      3149 1.08019E+00
 -1      3150 1.01678E+00
 -1      3151 1.26100E+00
 -1      3152 8.97182E-01
 -1      3153 8.29068E-01
 -1      3154 1.00204E+00
 -1      3155 7.38229E-01
 -1      3156 6.71665E-01
 -1      3157 7.91599E-01
 -1      3158 5.96283E-01
 -1      3159 5.35440E-01
 -1      3160 6.25377E-01
 -1      3161 4.82742E-01
 -1      3162 4.29398E-01
 -1      3163 4.97297E-01
 -1      3164 3.82669E-01
 -1      3165 3.37296E-01
 -1      3166 3.97870E-01
 -1      3167 2.97042E-01
 -1      3168 2.59374E-01
 -1      3169 3.10887E-01
 -1      3170 2.25953E-01
 -1      3171 1.95344E-01
 -1      3172 2.37212E-01
 -1      3173 1.68394E-01
 -1      3174 1.44011E-01
 -1      3175 1.76840E-01
 -1      3176 1.22822E-01
 -1      3177 1.03771E-01
 -1      3178 1.28701E-01
 -1      3179 8.82779E-02
 -1      3180 7.36820E-02
 -1      3181 9.20202E-02
 -1      3182 6.20270E-02
 -1      3183 5.10758E-02
 -1      3184 6.48724E-02
 -1      3185 4.28540E-02
 -1      3186 3.48264E-02
 -1      3187 4.49955E-02
 -1      3188 2.90483E-02
 -1      3189 2.33148E-02
 -1      3190 3.09956E-02
 -1      3191 1.91482E-02
 -1      3192 1.51885E-02
 -1      3193 2.10510E-02
 -1      3194 1.13290E-02
 -1      3195 8.45303E-03
 -1      3196 6.97805E-03
 -1      3197 1.30249E-02
 -1      3198 4.27659E-01
 -1      3199 3.53500E-01
 -1      3200 5.14324E+00
 -1      3201 5.84595E-01
 -1      3202 5.05220E-01
 -1      3203 4.55041E-01
 -1      3204 1.15497E+00
 -1      3205 1.06886E+00
 -1      3206 1.40387E+00
 -1      3207 1.28115E+00
 -1      3208 1.32776E+00
 -1      3209 1.73620E+00
 -1      3210 1.60251E+00
 -1      3211 1.65257E+00
 -1      3212 2.26892E+00
 -1      3213 2.22263E+00
 -1      3214 2.33763E+00
 -1      3215 3.41905E+00
 -1      3216 2.93382E+00
 -1      3217 3.48896E+00
 -1      3218 4.82837E+00
 -1      3219 4.98533E+00
 -1      3220 5.72013E+00
 -1      3221 2.53315E+00
 -1      3222 2.45174E+00
 -1      3223 5.19034E+00
 -1      3224 4.97261E+00
 -1      3225 6.04989E+00
 -1      3226 5.88767E+00
 -1      3227 4.47656E+00
 -1      3228 5.39152E+00
 -1      3229 3.15683E+00
 -1      3230 3.33369E+00
 -1      3231 2.59704E+00
 -1      3232 2.83782E+00
 -1      3233 1.93144E+00
 -1      3234 2.02068E+00
 -1      3235 2.88202E+00
 -1      3236 1.56713E+00
 -1      3237 1.67506E+00
 -1      3238 2.04928E+00
 -1      3239 1.28248E+00
 -1      3240 1.39661E+00
 -1      3241 1.62239E+00
 -1      3242 1.09026E+00
 -1      3243 1.15513E+00
 -1      3244 1.32453E+00
 -1      3245 9.09648E-01
 -1      3246 9.74283E-01
 -1      3247 1.08120E+00
 -1      3248 7.47390E-01
 -1      3249 8.15873E-01
 -1      3250 8.71455E-01
 -1      3251 6.01072E-01
 -1      3252 6.66678E-01
 -1      3253 6.96968E-01
 -1      3254 4.74299E-01
 -1      3255 5.33436E-01
 -1      3256 5.48620E-01
 -1      3257 3.67814E-01
 -1      3258 4.18929E-01
 -1      3259 4.25613E-01
 -1      3260 2.82183E-01
 -1      3261 3.24968E-01
 -1      3262 3.27396E-01
 -1      3263 2.13035E-01
 -1      3264 2.47916E-01
 -1      3265 2.50283E-01
 -1      3266 1.58078E-01
 -1      3267 1.85868E-01
 -1      3268 1.88850E-01
 -1      3269 1.15121E-01
 -1      3270 1.36793E-01
 -1      3271 1.40398E-01
 -1      3272 8.21249E-02
 -1      3273 9.86747E-02
 -1      3274 1.02667E-01
 -1      3275 5.72522E-02
 -1      3276 6.96167E-02
 -1      3277 7.37125E-02
 -1      3278 3.88930E-02
 -1      3279 4.79095E-02
 -1      3280 5.18616E-02
 -1      3281 2.56628E-02
 -1      3282 3.20528E-02
 -1      3283 3.56788E-02
 -1      3284 1.64105E-02
 -1      3285 2.07876E-02
 -1      3286 2.39635E-02
 -1      3287 1.07244E-02
 -1      3288 1.29875E-02
 -1      3289 1.56654E-02
 -1      3290 7.18603E-03
 -1      3291 8.18848E-03
 -1      3292 9.70651E-03
 -1      3293 5.94272E-03
 -1      3294 3.53706E-01
 -1      3295 2.99262E-01
 -1      3296 2.50003E-01
 -1      3297 3.07896E-01
 -1      3298 2.91405E-01
 -1      3299 2.73311E-01
 -1      3300 1.06588E-02
 -1      3301 1.06653E-02
 -1      3302 7.84507E-03
 -1      3303 8.57923E-03
 -1      3304 1.08375E-02
 -1      3305 1.08375E-02
 -1      3306 1.29009E-02
 -1      3307 4.82316E+00
 -1      3308 5.96710E+00
 -1      3309 2.97996E+00
 -1      3310 3.15683E+00
 -1      3311 3.95583E+00
 -1      3312 2.59861E+00
 -1      3313 1.03986E-02
 -1      3314 1.08375E-02
 -1      3315 1.30796E-02
 -1      3316 1.12602E-02
 -1      3317 9.40800E-01
 -1      3318 8.70219E-01
 -1      3319 1.07352E+00
 -1      3320 7.58121E-01
 -1      3321 6.78929E-01
 -1      3322 8.33369E-01
 -1      3323 4.68393E+00
 -1      3324 2.17487E-01
 -1      3325 1.82882E-01
 -1      3326 1.86927E-01
 -1      3327 1.11042E+01
 -1      3328 1.16745E+01
 -1      3329 4.40373E+00
 -1      3330 9.42494E+00
 -1      3331 6.90186E+00
 -1      3332 3.02891E-01
 -1      3333 2.37847E-01
 -1      3334 3.26871E-01
 -1      3335 2.01971E-01
 -1      3336 2.09830E-01
 -1      3337 2.40386E-01
 -1      3338 4.70924E+00
 -1      3339 4.28561E+00
 -1      3340 4.95301E-01
 -1      3341 5.90200E+00
 -1      3342 4.58771E+00
 -1      3343 1.17582E+01
 -1      3344 1.11042E+01
 -1      3345 5.41454E+00
 -1      3346 6.69385E+00
 -1      3347 3.89492E+00
 -1      3348 1.23872E+01
 -1      3349 1.08694E+01
 -1      3350 6.98597E+00
 -1      3351 7.96115E+00
 -1      3352 7.17737E+00
 -1      3353 1.11346E+01
 -1      3354 1.01825E+01
 -1      3355 6.04365E+00
 -1      3356 4.95316E+00
 -1      3357 4.58066E+00
 -1      3358 1.46736E+01
 -1      3359 1.70399E+01
 -1      3360 9.51507E+00
 -1      3361 7.10455E+00
 -1      3362 6.49321E+00
 -1      3363 8.05378E+00
 -1      3364 3.81904E+00
 -1      3365 3.46844E+00
 -1      3366 4.31300E+00
 -1      3367 2.57203E-01
 -1      3368 2.57543E-01
 -1      3369 2.30816E-01
 -1      3370 3.02138E-01
 -1      3371 2.57657E-01
 -1      3372 3.15597E-01
 -1      3373 3.70723E+00
 -1      3374 7.65283E+00
 -1      3375 1.05091E+01
 -1      3376 8.11185E+00
 -1      3377 8.19547E+00
 -1      3378 8.46237E+00
 -1      3379 5.90854E+00
 -1      3380 1.63024E+01
 -1      3381 1.01847E+01
 -1      3382 1.03231E+01
 -1      3383 8.63227E-03
 -1      3384 7.92208E-03
 -1      3385 3.15735E-01
 -1      3386 3.15597E-01
 -1      3387 2.68390E-01
 -1      3388 2.66476E-01
 -1      3389 3.95749E+00
 -1      3390 4.06131E-01
 -1      3391 4.01793E+00
 -1      3392 7.47047E+00
 -1      3393 9.19157E+00
 -1      3394 6.02605E+00
 -1      3395 1.83369E-01
 -1      3396 1.88689E-01
 -1      3397 2.18260E-01
 -1      3398 6.26937E-01
 -1      3399 5.40120E+00
 -1      3400 5.24074E+00
 -1      3401 3.21918E+00
 -1      3402 1.07576E-02
 -1      3403 1.03142E-02
 -1      3404 1.12247E-02
 -1      3405 1.07576E-02
 -1      3406 1.07576E-02
 -1      3407 1.29066E-02
 -1      3408 1.28144E-02
 -1      3409 3.84730E+00
 -1      3410 2.17434E-01
 -1      3411 2.70462E-01
 -1      3412 1.98010E-01
 -1      3413 1.61402E-01
 -1      3414 1.03625E+01
 -1      3415 7.93876E+00
 -1      3416 8.04894E+00
 -1      3417 2.76394E-01
 -1      3418 2.42893E-01
 -1      3419 3.42391E-01
 -1      3420 9.36092E+00
 -1      3421 9.83355E+00
 -1      3422 1.22547E+01
 -1      3423 9.01576E+00
 -1      3424 8.88087E+00
 -1      3425 5.61974E+00
 -1      3426 1.09675E+01
 -1      3427 3.03375E-01
 -1      3428 3.15699E-01
 -1      3429 9.51507E+00
 -1      3430 7.28642E+00
 -1      3431 7.95381E+00
 -1      3432 6.08387E+00
 -1      3433 6.53212E-03
 -1      3434 7.26148E-03
 -1      3435 8.85721E-03
 -1      3436 8.71956E-03
 -1      3437 4.34125E+00
 -1      3438 2.80385E-01
 -1      3439 3.23973E-01
 -1      3440 3.58969E-01
 -1      3441 2.76118E-01
 -1      3442 3.12909E-01
 -1      3443 3.59699E-01
 -1      3444 4.08383E-01
 -1      3445 3.63298E-01
 -1      3446 4.77486E-01
 -1      3447 5.48294E-01
 -1      3448 4.79191E-01
 -1      3449 6.29720E-01
 -1      3450 7.17880E-01
 -1      3451 6.29720E-01
 -1      3452 8.35840E-01
 -1      3453 9.56928E-01
 -1      3454 8.29106E-01
 -1      3455 1.10619E+00
 -1      3456 1.24990E+00
 -1      3457 1.09633E+00
 -1      3458 1.52403E+00
 -1      3459 1.66630E+00
 -1      3460 1.51972E+00
 -1      3461 2.49887E+00
 -1      3462 2.68652E+00
 -1      3463 2.62641E+00
 -1      3464 3.26759E+00
 -1      3465 4.14492E+00
 -1      3466 4.04004E+00
 -1      3467 2.06943E-01
 -1      3468 2.09885E-01
 -1      3469 3.29417E+00
 -1      3470 3.02537E+00
 -1      3471 2.31739E+00
 -1      3472 2.00237E+00
 -1      3473 3.02537E+00
 -1      3474 1.84865E+00
 -1      3475 1.70515E+00
 -1      3476 2.16367E+00
 -1      3477 1.41210E+00
 -1      3478 1.27274E+00
 -1      3479 1.71689E+00
 -1      3480 1.09320E+00
 -1      3481 9.73602E-01
 -1      3482 1.24431E+00
 -1      3483 8.61690E-01
 -1      3484 7.70851E-01
 -1      3485 9.52854E-01
 -1      3486 6.93718E-01
 -1      3487 6.18335E-01
 -1      3488 7.63809E-01
 -1      3489 5.49995E-01
 -1      3490 4.97297E-01
 -1      3491 6.18335E-01
 -1      3492 4.38975E-01
 -1      3493 3.92246E-01
 -1      3494 4.91673E-01
 -1      3495 3.43675E-01
 -1      3496 3.03421E-01
 -1      3497 3.84780E-01
 -1      3498 2.63685E-01
 -1      3499 2.30264E-01
 -1      3500 2.96473E-01
 -1      3501 1.98286E-01
 -1      3502 1.71336E-01
 -1      3503 2.24760E-01
 -1      3504 1.46007E-01
 -1      3505 1.24819E-01
 -1      3506 1.67454E-01
 -1      3507 1.05085E-01
 -1      3508 8.95925E-02
 -1      3509 1.22391E-01
 -1      3510 7.44853E-02
 -1      3511 6.28302E-02
 -1      3512 8.75504E-02
 -1      3513 5.17606E-02
 -1      3514 4.35388E-02
 -1      3515 6.13736E-02
 -1      3516 3.55693E-02
 -1      3517 2.97912E-02
 -1      3518 4.23344E-02
 -1      3519 2.39053E-02
 -1      3520 1.97387E-02
 -1      3521 2.84790E-02
 -1      3522 2.94369E+00
 -1      3523 2.45726E+00
 -1      3524 2.10985E+00
 -1      3525 1.91121E+00
 -1      3526 2.71591E+00
 -1      3527 1.54219E+00
 -1      3528 1.41601E+00
 -1      3529 1.99947E+00
 -1      3530 4.90978E+00
 -1      3531 3.65540E-01
 -1      3532 3.83391E-01
 -1      3533 3.32783E-01
 -1      3534 9.22912E-01
 -1      3535 8.10814E-01
 -1      3536 3.09997E+00
 -1      3537 3.67633E+00
 -1      3538 1.36739E+00
 -1      3539 1.49474E+00
 -1      3540 1.05739E+00
 -1      3541 1.17336E+00
 -1      3542 1.34357E+00
 -1      3543 8.37755E-01
 -1      3544 9.31530E-01
 -1      3545 1.02369E+00
 -1      3546 6.73520E-01
 -1      3547 7.54232E-01
 -1      3548 8.14308E-01
 -1      3549 5.33909E-01
 -1      3550 6.01544E-01
 -1      3551 6.58809E-01
 -1      3552 4.16308E-01
 -1      3553 4.71678E-01
 -1      3554 5.24603E-01
 -1      3555 3.21240E-01
 -1      3556 3.64086E-01
 -1      3557 4.10151E-01
 -1      3558 2.44169E-01
 -1      3559 2.78435E-01
 -1      3560 3.15125E-01
 -1      3561 1.82597E-01
 -1      3562 2.09764E-01
 -1      3563 2.37916E-01
 -1      3564 1.34152E-01
 -1      3565 1.55436E-01
 -1      3566 1.76350E-01
 -1      3567 9.66384E-02
 -1      3568 1.13085E-01
 -1      3569 1.28123E-01
 -1      3570 6.81830E-02
 -1      3571 8.06912E-02
 -1      3572 9.11089E-02
 -1      3573 4.74682E-02
 -1      3574 5.68110E-02
 -1      3575 6.37897E-02
 -1      3576 3.21770E-02
 -1      3577 3.90171E-02
 -1      3578 4.39665E-02
 -1      3579 2.11837E-02
 -1      3580 2.60588E-02
 -1      3581 2.93971E-02
 -1      3582 1.53674E-02
 -1      3583 1.87904E-02
 -1      3584 2.08857E-02
 -1      3585 4.08651E+00
 -1      3586 7.21713E-03
 -1      3587 6.42390E-03
 -1      3588 7.65175E-03
 -1      3589 8.83789E-03
 -1      3590 1.64263E-02
 -1      3591 1.62476E-02
 -1      3592 6.99527E-01
 -1      3593 6.05193E-01
 -1      3594 7.89070E-01
 -1      3595 1.19362E+00
 -1      3596 1.06556E+00
 -1      3597 1.04301E+00
 -1      3598 1.40805E+00
 -1      3599 1.74148E+00
 -1      3600 1.91200E+00
 -1      3601 1.78434E+00
 -1      3602 2.31929E+00
 -1      3603 2.57567E+00
 -1      3604 3.36998E+00
 -1      3605 2.43839E+00
 -1      3606 4.30445E+00
 -1      3607 4.83056E+00
 -1      3608 7.62258E+00
 -1      3609 7.62258E+00
 -1      3610 2.86852E-01
 -1      3611 2.50976E-01
 -1      3612 3.43372E-01
 -1      3613 2.73618E-01
 -1      3614 2.90749E-01
 -1      3615 2.59485E-01
 -1      3616 2.19781E-01
 -1      3617 2.42711E-01
 -1      3618 2.83101E-01
 -1      3619 2.38541E-01
 -1      3620 2.53100E-01
 -1      3621 2.01107E-01
 -1      3622 9.55041E+00
 -1      3623 9.64343E+00
 -1      3624 7.58163E+00
 -1      3625 7.32195E+00
 -1      3626 6.37984E+00
 -1      3627 6.01771E+00
 -1      3628 7.28322E+00
 -1      3629 4.97436E+00
 -1      3630 5.26649E+00
 -1      3631 5.23400E-01
 -1      3632 4.45838E-01
 -1      3633 5.95990E-01
 -1      3634 2.55014E-01
 -1      3635 6.49317E+00
 -1      3636 2.20685E-01
 -1      3637 2.09952E-01
 -1      3638 9.11533E+00
 -1      3639 8.37786E+00
 -1      3640 7.69822E+00
 -1      3641 2.39797E-01
 -1      3642 2.24283E-01
 -1      3643 2.47241E-01
 -1      3644 2.83191E-01
 -1      3645 1.92720E-02
 -1      3646 1.57466E-02
 -1      3647 1.58388E-02
 -1      3648 7.17685E+00
 -1      3649 5.49907E+00
 -1      3650 3.93109E+00
 -1      3651 2.37894E-01
 -1      3652 2.16754E-01
 -1      3653 2.84360E-01
 -1      3654 5.05524E+00
 -1      3655 5.17487E+00
 -1      3656 1.53707E-02
 -1      3657 1.15113E-02
 -1      3658 1.10653E-02
 -1      3659 1.82251E-02
 -1      3660 5.72013E+00
 -1      3661 7.28642E+00
 -1      3662 2.30783E-01
 -1      3663 4.51750E-01
 -1      3664 1.64263E-02
 -1      3665 1.64263E-02
 -1      3666 1.97729E-02
 -1      3667 1.01877E-02
 -1      3668 7.62258E+00
 -1      3669 6.31060E+00
 -1      3670 5.88424E+00
 -1      3671 1.33127E-02
 -1      3672 1.40176E-02
 -1      3673 1.58510E-02
 -1      3674 1.41691E-02
 -1      3675 1.86439E-02
 -1      3676 7.52560E+00
 -1      3677 5.78726E+00
 -1      3678 6.27653E+00
 -1      3679 2.44734E-01
 -1      3680 2.57361E-01
 -1      3681 9.23443E+00
 -1      3682 4.34865E+00
 -1      3683 4.11656E+00
 -1      3684 1.60461E-01
 -1      3685 1.97433E-01
 -1      3686 1.81325E-01
 -1      3687 6.85917E+00
 -1      3688 6.19178E+00
 -1      3689 5.55992E+00
 -1      3690 7.94923E+00
 -1      3691 6.62513E+00
 -1      3692 5.53709E+00
 -1      3693 4.31075E+00
 -1      3694 4.96056E+00
 -1      3695 7.04436E+00
 -1      3696 5.81877E+00
 -1      3697 5.58540E+00
 -1      3698 4.55573E+00
 -1      3699 1.16489E-02
 -1      3700 2.53596E-01
 -1      3701 2.68346E-01
 -1      3702 1.64091E-02
 -1      3703 1.42010E-02
 -1      3704 1.60204E-02
 -1      3705 2.07771E-02
 -1      3706 2.60596E-01
 -1      3707 2.12891E-01
 -1      3708 2.60596E-01
 -1      3709 4.97226E+00
 -1      3710 1.58510E-02
 -1      3711 1.58510E-02
 -1      3712 1.87832E-02
 -1      3713 3.49845E+00
 -1      3714 4.57643E+00
 -1      3715 4.06328E+00
 -1      3716 2.97415E+00
 -1      3717 4.67349E-01
 -1      3718 5.36452E-01
 -1      3719 6.28700E-01
 -1      3720 7.10126E-01
 -1      3721 6.16858E-01
 -1      3722 8.29106E-01
 -1      3723 9.47066E-01
 -1      3724 8.28086E-01
 -1      3725 1.09633E+00
 -1      3726 1.24558E+00
 -1      3727 1.09633E+00
 -1      3728 1.53556E+00
 -1      3729 1.80969E+00
 -1      3730 1.53556E+00
 -1      3731 2.32779E+00
 -1      3732 3.16035E+00
 -1      3733 2.34363E+00
 -1      3734 4.62110E+00
 -1      3735 1.81409E-01
 -1      3736 1.97485E-01
 -1      3737 1.95360E-01
 -1      3738 1.48026E-01
 -1      3739 2.58276E+00
 -1      3740 2.42904E+00
 -1      3741 1.87838E+00
 -1      3742 1.58533E+00
 -1      3743 2.29747E+00
 -1      3744 1.39671E+00
 -1      3745 1.21717E+00
 -1      3746 1.55819E+00
 -1      3747 1.06477E+00
 -1      3748 9.52854E-01
 -1      3749 1.21717E+00
 -1      3750 8.32819E-01
 -1      3751 7.55686E-01
 -1      3752 9.44732E-01
 -1      3753 6.62793E-01
 -1      3754 5.94453E-01
 -1      3755 7.31803E-01
 -1      3756 5.21757E-01
 -1      3757 4.63434E-01
 -1      3758 5.66214E-01
 -1      3759 4.06555E-01
 -1      3760 3.57984E-01
 -1      3761 4.36639E-01
 -1      3762 3.13080E-01
 -1      3763 2.73345E-01
 -1      3764 3.34856E-01
 -1      3765 2.37924E-01
 -1      3766 2.05946E-01
 -1      3767 2.54531E-01
 -1      3768 1.78107E-01
 -1      3769 1.52779E-01
 -1      3770 1.91271E-01
 -1      3771 1.31072E-01
 -1      3772 1.11338E-01
 -1      3773 1.41725E-01
 -1      3774 9.45939E-02
 -1      3775 7.94867E-02
 -1      3776 1.03274E-01
 -1      3777 6.67406E-02
 -1      3778 5.56710E-02
 -1      3779 7.37842E-02
 -1      3780 4.61724E-02
 -1      3781 3.82029E-02
 -1      3782 5.15394E-02
 -1      3783 3.15131E-02
 -1      3784 2.56272E-02
 -1      3785 3.53511E-02
 -1      3786 2.76620E-01
 -1      3787 8.14308E-01
 -1      3788 8.97831E-01
 -1      3789 1.02369E+00
 -1      3790 1.14955E+00
 -1      3791 1.02369E+00
 -1      3792 2.34198E+00
 -1      3793 1.97296E+00
 -1      3794 2.47219E-01
 -1      3795 1.67879E+00
 -1      3796 1.92554E+00
 -1      3797 2.95229E-01
 -1      3798 1.30832E+00
 -1      3799 1.50235E+00
 -1      3800 1.64354E+00
 -1      3801 1.30832E+00
 -1      3802 6.42810E-01
 -1      3803 7.14785E-01
 -1      3804 7.98308E-01
 -1      3805 5.02347E-01
 -1      3806 5.64577E-01
 -1      3807 6.20554E-01
 -1      3808 3.88063E-01
 -1      3809 4.40285E-01
 -1      3810 4.80259E-01
 -1      3811 2.96013E-01
 -1      3812 3.38818E-01
 -1      3813 3.68951E-01
 -1      3814 2.22620E-01
 -1      3815 2.57025E-01
 -1      3816 2.80717E-01
 -1      3817 1.64764E-01
 -1      3818 1.91925E-01
 -1      3819 2.11033E-01
 -1      3820 1.19743E-01
 -1      3821 1.40809E-01
 -1      3822 1.56384E-01
 -1      3823 8.53155E-02
 -1      3824 1.01263E-01
 -1      3825 1.13949E-01
 -1      3826 5.98851E-02
 -1      3827 7.12571E-02
 -1      3828 8.14110E-02
 -1      3829 4.09096E-02
 -1      3830 4.93608E-02
 -1      3831 5.68282E-02
 -1      3832 2.74808E-02
 -1      3833 3.35990E-02
 -1      3834 3.89932E-02
 -1      3835 2.02039E-02
 -1      3836 2.25972E-02
 -1      3837 2.67990E-02
 -1      3838 2.03554E-02
 -1      3839 5.93163E+00
 -1      3840 5.57450E+00
 -1      3841 3.48105E-01
 -1      3842 3.94895E-01
 -1      3843 4.52156E-01
 -1      3844 4.53242E+00
 -1      3845 4.82603E+00
 -1      3846 9.00356E-01
 -1      3847 7.89070E-01
 -1      3848 2.16754E-01
 -1      3849 2.15927E-01
 -1      3850 2.56458E-01
 -1      3851 2.71279E-01
 -1      3852 3.72912E-01
 -1      3853 3.26982E-01
 -1      3854 2.18855E-01
 -1      3855 2.28751E-01
 -1      3856 8.37786E+00
 -1      3857 8.02670E+00
 -1      3858 6.44315E+00
 -1      3859 4.60424E+00
 -1      3860 5.58658E+00
 -1      3861 6.77112E-01
 -1      3862 5.95319E-01
 -1      3863 7.88399E-01
 -1      3864 4.01811E+00
 -1      3865 3.67070E+00
 -1      3866 3.64418E+00
 -1      3867 5.05860E-01
 -1      3868 4.43413E-01
 -1      3869 4.27022E-01
 -1      3870 6.08387E+00
 -1      3871 7.28642E+00
 -1      3872 2.66061E-01
 -1      3873 2.99468E-01
 -1      3874 3.31065E-01
 -1      3875 3.79637E+00
 -1      3876 3.08838E+00
 -1      3877 5.37233E+00
 -1      3878 5.48350E+00
 -1      3879 5.85311E+00
 -1      3880 4.76302E+00
 -1      3881 4.73227E+00
 -1      3882 6.48819E+00
 -1      3883 5.96009E+00
 -1      3884 4.88700E+00
 -1      3885 7.17012E+00
 -1      3886 2.62040E-01
 -1      3887 2.22129E-01
 -1      3888 3.85259E+00
 -1      3889 4.15121E+00
 -1      3890 2.31058E-02
 -1      3891 2.26048E-02
 -1      3892 1.87954E-02
 -1      3893 2.83854E-01
 -1      3894 2.70772E-01
 -1      3895 3.13394E-01
 -1      3896 2.38112E-02
 -1      3897 2.62040E-01
 -1      3898 1.93670E-02
 -1      3899 1.18565E+00
 -1      3900 1.04301E+00
 -1      3901 1.04301E+00
 -1      3902 5.50526E+00
 -1      3903 3.35376E+00
 -1      3904 4.95075E+00
 -1      3905 5.04773E+00
 -1      3906 5.04773E+00
 -1      3907 1.77492E-01
 -1      3908 1.64973E-01
 -1      3909 2.26642E-01
 -1      3910 4.16124E+00
 -1      3911 3.48821E+00
 -1      3912 2.98258E+00
 -1      3913 3.56003E+00
 -1      3914 4.97436E+00
 -1      3915 1.61469E+00
 -1      3916 1.39229E+00
 -1      3917 1.39229E+00
 -1      3918 1.95720E+00
 -1      3919 5.26686E+00
 -1      3920 2.45118E-01
 -1      3921 2.12460E+00
 -1      3922 2.53190E+00
 -1      3923 2.66037E+00
 -1      3924 2.01905E+00
 -1      3925 5.86982E-01
 -1      3926 2.27969E-02
 -1      3927 2.61298E-02
 -1      3928 2.27969E-02
 -1      3929 5.11171E+00
 -1      3930 6.12966E+00
 -1      3931 2.47241E-01
 -1      3932 2.29901E-01
 -1      3933 2.18855E-01
 -1      3934 2.36256E-01
 -1      3935 1.44540E-01
 -1      3936 1.91789E-01
 -1      3937 1.85435E-01
 -1      3938 3.53647E+00
 -1      3939 4.52733E+00
 -1      3940 4.95075E+00
 -1      3941 2.26048E-02
 -1      3942 2.26171E-02
 -1      3943 2.64387E-02
 -1      3944 2.71279E-01
 -1      3945 5.63785E-01
 -1      3946 6.56033E-01
 -1      3947 7.71876E-01
 -1      3948 8.90856E-01
 -1      3949 7.18803E-01
 -1      3950 1.04675E+00
 -1      3951 1.19601E+00
 -1      3952 9.90538E-01
 -1      3953 1.36073E+00
 -1      3954 1.65071E+00
 -1      3955 1.31115E+00
 -1      3956 2.05910E+00
 -1      3957 2.57720E+00
 -1      3958 3.25194E+00
 -1      3959 1.88427E+00
 -1      3960 2.17236E-02
 -1      3961 2.17236E-02
 -1      3962 2.32836E-02
 -1      3963 2.55452E-02
 -1      3964 1.51475E-01
 -1      3965 1.51559E-01
 -1      3966 1.68506E-01
 -1      3967 2.59129E+00
 -1      3968 2.04062E+00
 -1      3969 2.72574E+00
 -1      3970 1.68014E+00
 -1      3971 1.49152E+00
 -1      3972 1.97396E+00
 -1      3973 1.25567E+00
 -1      3974 1.10327E+00
 -1      3975 1.37762E+00
 -1      3976 9.48214E-01
 -1      3977 8.28179E-01
 -1      3978 9.86715E-01
 -1      3979 7.22575E-01
 -1      3980 6.29682E-01
 -1      3981 7.26058E-01
 -1      3982 5.53784E-01
 -1      3983 4.81088E-01
 -1      3984 5.44556E-01
 -1      3985 4.25327E-01
 -1      3986 3.68448E-01
 -1      3987 4.12898E-01
 -1      3988 3.25937E-01
 -1      3989 2.81033E-01
 -1      3990 3.14625E-01
 -1      3991 2.48164E-01
 -1      3992 2.12743E-01
 -1      3993 2.39245E-01
 -1      3994 1.87139E-01
 -1      3995 1.59300E-01
 -1      3996 1.80772E-01
 -1      3997 1.39357E-01
 -1      3998 1.17650E-01
 -1      3999 1.35225E-01
 -1      4000 1.02187E-01
 -1      4001 8.54430E-02
 -1      4002 9.98183E-02
 -1      4003 7.35788E-02
 -1      4004 6.08327E-02
 -1      4005 7.24915E-02
 -1      4006 5.55835E-02
 -1      4007 4.60849E-02
 -1      4008 5.53781E-02
 -1      4009 3.46768E-02
 -1      4010 2.79870E-02
 -1      4011 3.87208E-02
 -1      4012 9.71331E-01
 -1      4013 1.09719E+00
 -1      4014 5.64217E-01
 -1      4015 6.42449E-01
 -1      4016 7.37093E-01
 -1      4017 8.36616E-01
 -1      4018 9.10116E-01
 -1      4019 4.59176E-01
 -1      4020 3.88676E-01
 -1      4021 4.31830E-01
 -1      4022 4.93892E-01
 -1      4023 5.15788E-01
 -1      4024 5.34249E+00
 -1      4025 3.75894E+00
 -1      4026 4.92486E+00
 -1      4027 4.54588E+00
 -1      4028 3.29421E-01
 -1      4029 3.78666E-01
 -1      4030 3.92300E-01
 -1      4031 2.49484E-01
 -1      4032 2.88473E-01
 -1      4033 2.98188E-01
 -1      4034 1.86962E-01
 -1      4035 2.17657E-01
 -1      4036 2.25413E-01
 -1      4037 1.38227E-01
 -1      4038 1.62182E-01
 -1      4039 1.68806E-01
 -1      4040 1.00540E-01
 -1      4041 1.19020E-01
 -1      4042 1.24818E-01
 -1      4043 7.17182E-02
 -1      4044 8.57766E-02
 -1      4045 9.08471E-02
 -1      4046 4.99846E-02
 -1      4047 6.05090E-02
 -1      4048 6.48746E-02
 -1      4049 3.43137E-02
 -1      4050 4.16244E-02
 -1      4051 4.53051E-02
 -1      4052 4.21122E+00
 -1      4053 4.08835E+00
 -1      4054 4.07169E-01
 -1      4055 4.79623E-01
 -1      4056 5.18798E-01
 -1      4057 4.70474E+00
 -1      4058 3.37603E+00
 -1      4059 2.42172E-02
 -1      4060 8.42603E-01
 -1      4061 7.30645E-01
 -1      4062 2.57365E-01
 -1      4063 2.46319E-01
 -1      4064 2.12899E-01
 -1      4065 5.81274E+00
 -1      4066 5.81274E+00
 -1      4067 3.98511E+00
 -1      4068 4.60271E+00
 -1      4069 2.83628E-01
 -1      4070 6.30494E-01
 -1      4071 5.41035E-01
 -1      4072 6.84698E-01
 -1      4073 2.95155E-01
 -1      4074 3.43793E-01
 -1      4075 3.71259E-01
 -1      4076 2.87817E-02
 -1      4077 2.87817E-02
 -1      4078 3.52715E+00
 -1      4079 2.46660E+00
 -1      4080 2.10832E+00
 -1      4081 1.64354E+00
 -1      4082 1.81998E+00
 -1      4083 6.80757E-01
 -1      4084 3.01709E+00
 -1      4085 3.26118E+00
 -1      4086 2.81818E+00
 -1      4087 3.27155E-01
 -1      4088 2.84027E-01
 -1      4089 3.59309E-01
 -1      4090 5.02688E-01
 -1      4091 2.71279E-01
 -1      4092 4.20103E+00
 -1      4093 4.78144E+00
 -1      4094 3.52837E+00
 -1      4095 3.52837E+00
 -1      4096 2.81671E-02
 -1      4097 5.04959E+00
 -1      4098 2.51393E-01
 -1      4099 2.06756E-01
 -1      4100 2.72411E-02
 -1      4101 2.70772E-01
 -1      4102 1.30359E+00
 -1      4103 1.24584E+00
 -1      4104 1.44624E+00
 -1      4105 1.47988E-01
 -1      4106 1.99011E+00
 -1      4107 1.99011E+00
 -1      4108 2.18917E+00
 -1      4109 3.52837E+00
 -1      4110 3.40550E+00
 -1      4111 3.64105E+00
 -1      4112 2.84552E+00
 -1      4113 1.29493E+00
 -1      4114 1.45371E+00
 -1      4115 1.24257E+00
 -1      4116 3.79749E-02
 -1      4117 3.82838E-02
 -1      4118 4.06268E-02
 -1      4119 2.96356E-01
 -1      4120 2.95666E+00
 -1      4121 3.91732E+00
 -1      4122 3.78038E+00
 -1      4123 2.51440E+00
 -1      4124 3.07983E-02
 -1      4125 6.52159E-01
 -1      4126 7.68002E-01
 -1      4127 1.63015E+00
 -1      4128 6.08360E-01
 -1      4129 7.03005E-01
 -1      4130 8.65629E-01
 -1      4131 1.02152E+00
 -1      4132 7.98985E-01
 -1      4133 1.11132E+00
 -1      4134 1.27604E+00
 -1      4135 9.86409E-01
 -1      4136 2.42689E+00
 -1      4137 2.23098E+00
 -1      4138 1.87049E+00
 -1      4139 2.32342E+00
 -1      4140 1.50790E+00
 -1      4141 1.27205E+00
 -1      4142 1.76492E+00
 -1      4143 1.09332E+00
 -1      4144 9.38267E-01
 -1      4145 1.22360E+00
 -1      4146 7.65628E-01
 -1      4147 6.60024E-01
 -1      4148 8.72234E-01
 -1      4149 6.27721E-01
 -1      4150 5.51824E-01
 -1      4151 6.67292E-01
 -1      4152 4.26415E-01
 -1      4153 3.70654E-01
 -1      4154 5.09581E-01
 -1      4155 3.28192E-01
 -1      4156 2.85681E-01
 -1      4157 3.41710E-01
 -1      4158 2.52531E-01
 -1      4159 2.19662E-01
 -1      4160 2.66097E-01
 -1      4161 1.93024E-01
 -1      4162 1.67420E-01
 -1      4163 2.06309E-01
 -1      4164 1.46063E-01
 -1      4165 1.26119E-01
 -1      4166 1.58314E-01
 -1      4167 1.09077E-01
 -1      4168 9.36141E-02
 -1      4169 1.19915E-01
 -1      4170 8.02319E-02
 -1      4171 6.83677E-02
 -1      4172 8.94903E-02
 -1      4173 5.79250E-02
 -1      4174 5.26758E-02
 -1      4175 6.56654E-02
 -1      4176 5.32017E-01
 -1      4177 4.50158E-01
 -1      4178 8.96220E-01
 -1      4179 1.03094E+00
 -1      4180 8.23824E-01
 -1      4181 2.56910E+00
 -1      4182 4.34397E-01
 -1      4183 5.04722E-01
 -1      4184 5.26969E-01
 -1      4185 1.94298E-01
 -1      4186 2.26125E-01
 -1      4187 3.33161E-01
 -1      4188 3.86325E-01
 -1      4189 3.75259E-01
 -1      4190 1.46236E-01
 -1      4191 1.71016E-01
 -1      4192 1.71729E-01
 -1      4193 1.08560E-01
 -1      4194 1.27768E-01
 -1      4195 1.29979E-01
 -1      4196 7.91945E-02
 -1      4197 9.39577E-02
 -1      4198 9.69079E-02
 -1      4199 5.65257E-02
 -1      4200 6.77350E-02
 -1      4201 7.08456E-02
 -1      4202 1.91521E-01
 -1      4203 1.78022E-01
 -1      4204 2.16271E-01
 -1      4205 1.97711E-01
 -1      4206 2.69641E-01
 -1      4207 2.04730E-01
 -1      4208 2.50886E-01
 -1      4209 2.65667E-02
 -1      4210 3.87208E-02
 -1      4211 4.88327E-01
 -1      4212 5.72489E-01
 -1      4213 6.21688E-01
 -1      4214 2.55386E-01
 -1      4215 2.96335E-01
 -1      4216 2.90360E-01
 -1      4217 2.24272E-01
 -1      4218 3.16918E-02
 -1      4219 1.84708E+00
 -1      4220 1.64044E+00
 -1      4221 2.35647E+00
 -1      4222 7.09506E-01
 -1      4223 6.09355E-01
 -1      4224 5.56825E-01
 -1      4225 3.54995E-01
 -1      4226 4.18371E-01
 -1      4227 4.72062E-01
 -1      4228 2.84830E-01
 -1      4229 2.96356E-01
 -1      4230 3.43468E-01
 -1      4231 2.69641E-01
 -1      4232 2.64647E-01
 -1      4233 3.40348E-02
 -1      4234 1.44446E+00
 -1      4235 1.63429E+00
 -1      4236 4.17876E-01
 -1      4237 3.88547E-01
 -1      4238 3.27026E-01
 -1      4239 1.57484E+00
 -1      4240 1.98324E+00
 -1      4241 1.37501E+00
 -1      4242 2.88445E+00
 -1      4243 2.38669E+00
 -1      4244 2.19078E+00
 -1      4245 1.90103E+00
 -1      4246 5.01289E-02
 -1      4247 1.04517E+00
 -1      4248 1.05907E+00
 -1      4249 1.25681E+00
 -1      4250 5.26758E-02
 -1      4251 2.73162E+00
 -1      4252 2.25966E+00
 -1      4253 2.27745E-01
 -1      4254 3.94441E-02
 -1      4255 4.78043E-02
 -1      4256 5.06647E-02
 -1      4257 1.80442E+00
 -1      4258 1.99011E+00
 -1      4259 2.16023E+00
 -1      4260 3.65340E-02
 -1      4261 4.03626E-02
 -1      4262 4.57719E-02
 -1      4263 5.44933E-02
 -1      4264 4.98647E-02
 -1      4265 2.63946E+00
 -1      4266 2.63946E+00
 -1      4267 2.05361E+00
 -1      4268 1.26927E+00
 -1      4269 8.08286E-01
 -1      4270 7.32942E-01
 -1      4271 3.78038E+00
 -1      4272 3.63303E+00
 -1      4273 2.81069E+00
 -1      4274 2.48546E+00
 -1      4275 3.42333E+00
 -1      4276 2.95308E+00
 -1      4277 2.32267E+00
 -1      4278 2.60100E+00
 -1      4279 2.62986E-01
 -1      4280 2.29845E-01
 -1      4281 2.14610E-01
 -1      4282 2.92224E-01
 -1      4283 5.88090E-01
 -1      4284 5.10753E-01
 -1      4285 4.40797E-01
 -1      4286 1.26096E+00
 -1      4287 5.03502E+00
 -1      4288 1.46364E+00
 -1      4289 1.76244E+00
 -1      4290 2.14224E+00
 -1      4291 8.37740E-01
 -1      4292 1.03096E+00
 -1      4293 2.42933E-01
 -1      4294 1.97316E+00
 -1      4295 1.77895E+00
 -1      4296 1.81901E+00
 -1      4297 1.45641E+00
 -1      4298 1.88227E+00
 -1      4299 1.26392E+00
 -1      4300 1.08519E+00
 -1      4301 1.31800E+00
 -1      4302 1.04487E+00
 -1      4303 8.72234E-01
 -1      4304 8.39931E-01
 -1      4305 6.34989E-01
 -1      4306 5.09581E-01
 -1      4307 3.72051E-01
 -1      4308 3.29590E-01
 -1      4309 4.97460E-01
 -1      4310 2.89004E-01
 -1      4311 2.55854E-01
 -1      4312 3.19346E-01
 -1      4313 2.24101E-01
 -1      4314 1.97463E-01
 -1      4315 2.47008E-01
 -1      4316 1.72260E-01
 -1      4317 1.50903E-01
 -1      4318 1.90051E-01
 -1      4319 1.30860E-01
 -1      4320 1.13817E-01
 -1      4321 1.44805E-01
 -1      4322 9.79297E-02
 -1      4323 8.45475E-02
 -1      4324 1.08875E-01
 -1      4325 1.56647E-01
 -1      4326 1.79929E-01
 -1      4327 1.18136E-01
 -1      4328 1.36604E-01
 -1      4329 5.24116E-02
 -1      4330 3.43559E-01
 -1      4331 3.91631E-01
 -1      4332 8.76460E-02
 -1      4333 1.02249E-01
 -1      4334 6.47615E-02
 -1      4335 7.62210E-02
 -1      4336 8.15619E-02
 -1      4337 5.98687E-02
 -1      4338 6.67760E-01
 -1      4339 2.52556E+00
 -1      4340 3.79185E-01
 -1      4341 7.66540E-01
 -1      4342 8.64167E-01
 -1      4343 2.26432E+00
 -1      4344 5.29160E-01
 -1      4345 6.32799E-01
 -1      4346 2.48546E+00
 -1      4347 2.20714E+00
 -1      4348 1.83537E+00
 -1      4349 8.39931E-01
 -1      4350 1.24018E+00
 -1      4351 1.32998E+00
 -1      4352 2.56507E-01
 -1      4353 7.31225E-02
 -1      4354 2.05133E-01
 -1      4355 6.26798E-02
 -1      4356 1.09941E+00
 -1      4357 1.28706E+00
 -1      4358 1.07127E+00
 -1      4359 3.02974E-01
 -1      4360 2.48546E+00
 -1      4361 1.08519E+00
 -1      4362 2.66147E-01
 -1      4363 1.47955E+00
 -1      4364 1.64529E+00
 -1      4365 1.20774E+00
 -1      4366 3.20547E-01
 -1      4367 2.34394E-01
 -1      4368 1.71742E+00
 -1      4369 2.27577E+00
 -3
 9999
