    1C
    1UUSER                                                              
    1UDATE              27.october.2022                                 
    1UTIME              00:39:52                                        
    1UHOST                                                              
    1UPGM               CalculiX                                        
    1UVERSION           Version 2.17                             
    1UCOMPILETIME       Thu Jul 23 21:43:50 CEST 2020                    
    1UDIR                                                               
    1UDBN                                                               
    1UMAT    1SOLIDMATERIAL                                             
    2C                          4284                                     1
 -1         1 1.22314E+02 3.14137E+01 0.00000E+00
 -1         2 1.33528E+02 2.58239E+01 0.00000E+00
 -1         3 1.50000E+02 0.00000E+00 0.00000E+00
 -1         4 1.50000E+02 5.00000E+01 0.00000E+00
 -1         5 0.00000E+00 0.00000E+00 0.00000E+00
 -1         6 0.00000E+00 5.00000E+01 0.00000E+00
 -1         7 0.00000E+00 4.70500E+01 0.00000E+00
 -1         8 0.00000E+00 4.41000E+01 0.00000E+00
 -1         9 0.00000E+00 4.11500E+01 0.00000E+00
 -1        10 0.00000E+00 3.82000E+01 0.00000E+00
 -1        11 0.00000E+00 3.52500E+01 0.00000E+00
 -1        12 0.00000E+00 3.23500E+01 0.00000E+00
 -1        13 0.00000E+00 2.94000E+01 0.00000E+00
 -1        14 0.00000E+00 2.64500E+01 0.00000E+00
 -1        15 0.00000E+00 2.35000E+01 0.00000E+00
 -1        16 0.00000E+00 2.05500E+01 0.00000E+00
 -1        17 0.00000E+00 1.76000E+01 0.00000E+00
 -1        18 0.00000E+00 1.47000E+01 0.00000E+00
 -1        19 0.00000E+00 1.17500E+01 0.00000E+00
 -1        20 0.00000E+00 8.80000E+00 0.00000E+00
 -1        21 0.00000E+00 5.85000E+00 0.00000E+00
 -1        22 0.00000E+00 2.90000E+00 0.00000E+00
 -1        23 3.15000E+00 5.00000E+01 0.00000E+00
 -1        24 6.15000E+00 5.00000E+01 0.00000E+00
 -1        25 9.15000E+00 5.00000E+01 0.00000E+00
 -1        26 1.21500E+01 5.00000E+01 0.00000E+00
 -1        27 1.51500E+01 5.00000E+01 0.00000E+00
 -1        28 1.81500E+01 5.00000E+01 0.00000E+00
 -1        29 2.11500E+01 5.00000E+01 0.00000E+00
 -1        30 2.41500E+01 5.00000E+01 0.00000E+00
 -1        31 2.71500E+01 5.00000E+01 0.00000E+00
 -1        32 3.01500E+01 5.00000E+01 0.00000E+00
 -1        33 3.31500E+01 5.00000E+01 0.00000E+00
 -1        34 3.61500E+01 5.00000E+01 0.00000E+00
 -1        35 3.91500E+01 5.00000E+01 0.00000E+00
 -1        36 4.21500E+01 5.00000E+01 0.00000E+00
 -1        37 4.51500E+01 5.00000E+01 0.00000E+00
 -1        38 4.81500E+01 5.00000E+01 0.00000E+00
 -1        39 5.11500E+01 5.00000E+01 0.00000E+00
 -1        40 5.41500E+01 5.00000E+01 0.00000E+00
 -1        41 5.71500E+01 5.00000E+01 0.00000E+00
 -1        42 6.01500E+01 5.00000E+01 0.00000E+00
 -1        43 6.31500E+01 5.00000E+01 0.00000E+00
 -1        44 6.61500E+01 5.00000E+01 0.00000E+00
 -1        45 6.91500E+01 5.00000E+01 0.00000E+00
 -1        46 7.21500E+01 5.00000E+01 0.00000E+00
 -1        47 7.51500E+01 5.00000E+01 0.00000E+00
 -1        48 7.81500E+01 5.00000E+01 0.00000E+00
 -1        49 8.11500E+01 5.00000E+01 0.00000E+00
 -1        50 8.41500E+01 5.00000E+01 0.00000E+00
 -1        51 8.71500E+01 5.00000E+01 0.00000E+00
 -1        52 9.01500E+01 5.00000E+01 0.00000E+00
 -1        53 9.31500E+01 5.00000E+01 0.00000E+00
 -1        54 9.61500E+01 5.00000E+01 0.00000E+00
 -1        55 9.91500E+01 5.00000E+01 0.00000E+00
 -1        56 1.02150E+02 5.00000E+01 0.00000E+00
 -1        57 1.05150E+02 5.00000E+01 0.00000E+00
 -1        58 1.08150E+02 5.00000E+01 0.00000E+00
 -1        59 1.11150E+02 5.00000E+01 0.00000E+00
 -1        60 1.14150E+02 5.00000E+01 0.00000E+00
 -1        61 1.17150E+02 5.00000E+01 0.00000E+00
 -1        62 1.20150E+02 5.00000E+01 0.00000E+00
 -1        63 1.23150E+02 5.00000E+01 0.00000E+00
 -1        64 1.26150E+02 5.00000E+01 0.00000E+00
 -1        65 1.29150E+02 5.00000E+01 0.00000E+00
 -1        66 1.32150E+02 5.00000E+01 0.00000E+00
 -1        67 1.35150E+02 5.00000E+01 0.00000E+00
 -1        68 1.38150E+02 5.00000E+01 0.00000E+00
 -1        69 1.41150E+02 5.00000E+01 0.00000E+00
 -1        70 1.44150E+02 5.00000E+01 0.00000E+00
 -1        71 1.47150E+02 5.00000E+01 0.00000E+00
 -1        72 3.15000E+00 0.00000E+00 0.00000E+00
 -1        73 6.15000E+00 0.00000E+00 0.00000E+00
 -1        74 9.15000E+00 0.00000E+00 0.00000E+00
 -1        75 1.21500E+01 0.00000E+00 0.00000E+00
 -1        76 1.51500E+01 0.00000E+00 0.00000E+00
 -1        77 1.81500E+01 0.00000E+00 0.00000E+00
 -1        78 2.11500E+01 0.00000E+00 0.00000E+00
 -1        79 2.41500E+01 0.00000E+00 0.00000E+00
 -1        80 2.71500E+01 0.00000E+00 0.00000E+00
 -1        81 3.01500E+01 0.00000E+00 0.00000E+00
 -1        82 3.31500E+01 0.00000E+00 0.00000E+00
 -1        83 3.61500E+01 0.00000E+00 0.00000E+00
 -1        84 3.91500E+01 0.00000E+00 0.00000E+00
 -1        85 4.21500E+01 0.00000E+00 0.00000E+00
 -1        86 4.51500E+01 0.00000E+00 0.00000E+00
 -1        87 4.81500E+01 0.00000E+00 0.00000E+00
 -1        88 5.11500E+01 0.00000E+00 0.00000E+00
 -1        89 5.41500E+01 0.00000E+00 0.00000E+00
 -1        90 5.71500E+01 0.00000E+00 0.00000E+00
 -1        91 6.01500E+01 0.00000E+00 0.00000E+00
 -1        92 6.31500E+01 0.00000E+00 0.00000E+00
 -1        93 6.61500E+01 0.00000E+00 0.00000E+00
 -1        94 6.91500E+01 0.00000E+00 0.00000E+00
 -1        95 7.21500E+01 0.00000E+00 0.00000E+00
 -1        96 7.51500E+01 0.00000E+00 0.00000E+00
 -1        97 7.81500E+01 0.00000E+00 0.00000E+00
 -1        98 8.11500E+01 0.00000E+00 0.00000E+00
 -1        99 8.41500E+01 0.00000E+00 0.00000E+00
 -1       100 8.71500E+01 0.00000E+00 0.00000E+00
 -1       101 9.01500E+01 0.00000E+00 0.00000E+00
 -1       102 9.31500E+01 0.00000E+00 0.00000E+00
 -1       103 9.61500E+01 0.00000E+00 0.00000E+00
 -1       104 9.91500E+01 0.00000E+00 0.00000E+00
 -1       105 1.02150E+02 0.00000E+00 0.00000E+00
 -1       106 1.05150E+02 0.00000E+00 0.00000E+00
 -1       107 1.08150E+02 0.00000E+00 0.00000E+00
 -1       108 1.11150E+02 0.00000E+00 0.00000E+00
 -1       109 1.14150E+02 0.00000E+00 0.00000E+00
 -1       110 1.17150E+02 0.00000E+00 0.00000E+00
 -1       111 1.20150E+02 0.00000E+00 0.00000E+00
 -1       112 1.23150E+02 0.00000E+00 0.00000E+00
 -1       113 1.26150E+02 0.00000E+00 0.00000E+00
 -1       114 1.29150E+02 0.00000E+00 0.00000E+00
 -1       115 1.32150E+02 0.00000E+00 0.00000E+00
 -1       116 1.35150E+02 0.00000E+00 0.00000E+00
 -1       117 1.38150E+02 0.00000E+00 0.00000E+00
 -1       118 1.41150E+02 0.00000E+00 0.00000E+00
 -1       119 1.44150E+02 0.00000E+00 0.00000E+00
 -1       120 1.47150E+02 0.00000E+00 0.00000E+00
 -1       121 1.50000E+02 2.95000E+00 0.00000E+00
 -1       122 1.50000E+02 5.90000E+00 0.00000E+00
 -1       123 1.50000E+02 8.85000E+00 0.00000E+00
 -1       124 1.50000E+02 1.18000E+01 0.00000E+00
 -1       125 1.50000E+02 1.47500E+01 0.00000E+00
 -1       126 1.50000E+02 1.76500E+01 0.00000E+00
 -1       127 1.50000E+02 2.06000E+01 0.00000E+00
 -1       128 1.50000E+02 2.35500E+01 0.00000E+00
 -1       129 1.50000E+02 2.65000E+01 0.00000E+00
 -1       130 1.50000E+02 2.94500E+01 0.00000E+00
 -1       131 1.50000E+02 3.24000E+01 0.00000E+00
 -1       132 1.50000E+02 3.53000E+01 0.00000E+00
 -1       133 1.50000E+02 3.82500E+01 0.00000E+00
 -1       134 1.50000E+02 4.12000E+01 0.00000E+00
 -1       135 1.50000E+02 4.41500E+01 0.00000E+00
 -1       136 1.50000E+02 4.71000E+01 0.00000E+00
 -1       137 1.33387E+02 2.44281E+01 0.00000E+00
 -1       138 1.32929E+02 2.29905E+01 0.00000E+00
 -1       139 1.32165E+02 2.16744E+01 0.00000E+00
 -1       140 1.31192E+02 2.06047E+01 0.00000E+00
 -1       141 1.29954E+02 1.97200E+01 0.00000E+00
 -1       142 1.28603E+02 1.91386E+01 0.00000E+00
 -1       143 1.27079E+02 1.88456E+01 0.00000E+00
 -1       144 1.25468E+02 1.89045E+01 0.00000E+00
 -1       145 1.24053E+02 1.92761E+01 0.00000E+00
 -1       146 1.22735E+02 1.99402E+01 0.00000E+00
 -1       147 1.21575E+02 2.08771E+01 0.00000E+00
 -1       148 1.20648E+02 2.20251E+01 0.00000E+00
 -1       149 1.19973E+02 2.33658E+01 0.00000E+00
 -1       150 1.19608E+02 2.47661E+01 0.00000E+00
 -1       151 1.19540E+02 2.62394E+01 0.00000E+00
 -1       152 1.19827E+02 2.78500E+01 0.00000E+00
 -1       153 1.20403E+02 2.92137E+01 0.00000E+00
 -1       154 1.21286E+02 3.04636E+01 0.00000E+00
 -1       155 1.23480E+02 3.21255E+01 0.00000E+00
 -1       156 1.24746E+02 3.25934E+01 0.00000E+00
 -1       157 1.26104E+02 3.28110E+01 0.00000E+00
 -1       158 1.27582E+02 3.27440E+01 0.00000E+00
 -1       159 1.28942E+02 3.23944E+01 0.00000E+00
 -1       160 1.30237E+02 3.17604E+01 0.00000E+00
 -1       161 1.31349E+02 3.08985E+01 0.00000E+00
 -1       162 1.32273E+02 2.98230E+01 0.00000E+00
 -1       163 1.32941E+02 2.86279E+01 0.00000E+00
 -1       164 1.33370E+02 2.72989E+01 0.00000E+00
 -1       165 2.59800E+00 4.55750E+01 0.00000E+00
 -1       166 2.59800E+00 4.26250E+01 0.00000E+00
 -1       167 2.59800E+00 3.96750E+01 0.00000E+00
 -1       168 2.59800E+00 3.67250E+01 0.00000E+00
 -1       169 2.59800E+00 3.38250E+01 0.00000E+00
 -1       170 2.59800E+00 3.08750E+01 0.00000E+00
 -1       171 2.59800E+00 2.79250E+01 0.00000E+00
 -1       172 2.59800E+00 2.49750E+01 0.00000E+00
 -1       173 2.59800E+00 2.20250E+01 0.00000E+00
 -1       174 2.59800E+00 1.90750E+01 0.00000E+00
 -1       175 2.59800E+00 1.61750E+01 0.00000E+00
 -1       176 2.59800E+00 1.32250E+01 0.00000E+00
 -1       177 2.59800E+00 1.02750E+01 0.00000E+00
 -1       178 2.59800E+00 7.32500E+00 0.00000E+00
 -1       179 2.59800E+00 4.37500E+00 0.00000E+00
 -1       180 2.87400E+00 2.18750E+00 0.00000E+00
 -1       181 4.65000E+00 4.74020E+01 0.00000E+00
 -1       182 7.65000E+00 4.74020E+01 0.00000E+00
 -1       183 1.06500E+01 4.74020E+01 0.00000E+00
 -1       184 1.36500E+01 4.74020E+01 0.00000E+00
 -1       185 1.66500E+01 4.74020E+01 0.00000E+00
 -1       186 1.96500E+01 4.74020E+01 0.00000E+00
 -1       187 2.26500E+01 4.74020E+01 0.00000E+00
 -1       188 2.56500E+01 4.74020E+01 0.00000E+00
 -1       189 2.86500E+01 4.74020E+01 0.00000E+00
 -1       190 3.16500E+01 4.74020E+01 0.00000E+00
 -1       191 3.46500E+01 4.74020E+01 0.00000E+00
 -1       192 3.76500E+01 4.74020E+01 0.00000E+00
 -1       193 4.06500E+01 4.74020E+01 0.00000E+00
 -1       194 4.36500E+01 4.74020E+01 0.00000E+00
 -1       195 4.66500E+01 4.74020E+01 0.00000E+00
 -1       196 4.96500E+01 4.74020E+01 0.00000E+00
 -1       197 5.26500E+01 4.74020E+01 0.00000E+00
 -1       198 5.56500E+01 4.74020E+01 0.00000E+00
 -1       199 5.86500E+01 4.74020E+01 0.00000E+00
 -1       200 6.16500E+01 4.74020E+01 0.00000E+00
 -1       201 6.46500E+01 4.74020E+01 0.00000E+00
 -1       202 6.76500E+01 4.74020E+01 0.00000E+00
 -1       203 7.06500E+01 4.74020E+01 0.00000E+00
 -1       204 7.36500E+01 4.74020E+01 0.00000E+00
 -1       205 7.66500E+01 4.74020E+01 0.00000E+00
 -1       206 7.96500E+01 4.74020E+01 0.00000E+00
 -1       207 8.26500E+01 4.74020E+01 0.00000E+00
 -1       208 8.56500E+01 4.74020E+01 0.00000E+00
 -1       209 8.86500E+01 4.74020E+01 0.00000E+00
 -1       210 9.16500E+01 4.74020E+01 0.00000E+00
 -1       211 9.46500E+01 4.74020E+01 0.00000E+00
 -1       212 9.76500E+01 4.74020E+01 0.00000E+00
 -1       213 1.00650E+02 4.74020E+01 0.00000E+00
 -1       214 1.03650E+02 4.74020E+01 0.00000E+00
 -1       215 1.06650E+02 4.74020E+01 0.00000E+00
 -1       216 1.09650E+02 4.74020E+01 0.00000E+00
 -1       217 1.12650E+02 4.74020E+01 0.00000E+00
 -1       218 1.15650E+02 4.74020E+01 0.00000E+00
 -1       219 1.18650E+02 4.74020E+01 0.00000E+00
 -1       220 1.21650E+02 4.74020E+01 0.00000E+00
 -1       221 1.24650E+02 4.74020E+01 0.00000E+00
 -1       222 1.27650E+02 4.74020E+01 0.00000E+00
 -1       223 1.30650E+02 4.74020E+01 0.00000E+00
 -1       224 1.33650E+02 4.74020E+01 0.00000E+00
 -1       225 1.36650E+02 4.74020E+01 0.00000E+00
 -1       226 1.39650E+02 4.74020E+01 0.00000E+00
 -1       227 1.42650E+02 4.74020E+01 0.00000E+00
 -1       228 1.45650E+02 4.74020E+01 0.00000E+00
 -1       229 5.87400E+00 2.18750E+00 0.00000E+00
 -1       230 8.87400E+00 2.18750E+00 0.00000E+00
 -1       231 1.18740E+01 2.18750E+00 0.00000E+00
 -1       232 1.48740E+01 2.18750E+00 0.00000E+00
 -1       233 1.78740E+01 2.18750E+00 0.00000E+00
 -1       234 2.08740E+01 2.18750E+00 0.00000E+00
 -1       235 2.38740E+01 2.18750E+00 0.00000E+00
 -1       236 2.68740E+01 2.18750E+00 0.00000E+00
 -1       237 2.98740E+01 2.18750E+00 0.00000E+00
 -1       238 3.28740E+01 2.18750E+00 0.00000E+00
 -1       239 3.58740E+01 2.18750E+00 0.00000E+00
 -1       240 3.88740E+01 2.18750E+00 0.00000E+00
 -1       241 4.18740E+01 2.18750E+00 0.00000E+00
 -1       242 4.48740E+01 2.18750E+00 0.00000E+00
 -1       243 4.78740E+01 2.18750E+00 0.00000E+00
 -1       244 5.08740E+01 2.18750E+00 0.00000E+00
 -1       245 5.38740E+01 2.18750E+00 0.00000E+00
 -1       246 5.68740E+01 2.18750E+00 0.00000E+00
 -1       247 5.98740E+01 2.18750E+00 0.00000E+00
 -1       248 6.28740E+01 2.18750E+00 0.00000E+00
 -1       249 6.58740E+01 2.18750E+00 0.00000E+00
 -1       250 6.88740E+01 2.18750E+00 0.00000E+00
 -1       251 7.18740E+01 2.18750E+00 0.00000E+00
 -1       252 7.48740E+01 2.18750E+00 0.00000E+00
 -1       253 7.78740E+01 2.18750E+00 0.00000E+00
 -1       254 8.08740E+01 2.18750E+00 0.00000E+00
 -1       255 8.38740E+01 2.18750E+00 0.00000E+00
 -1       256 8.68740E+01 2.18750E+00 0.00000E+00
 -1       257 8.98740E+01 2.18750E+00 0.00000E+00
 -1       258 9.28740E+01 2.18750E+00 0.00000E+00
 -1       259 9.58740E+01 2.18750E+00 0.00000E+00
 -1       260 9.88740E+01 2.18750E+00 0.00000E+00
 -1       261 1.01874E+02 2.18750E+00 0.00000E+00
 -1       262 1.04874E+02 2.18750E+00 0.00000E+00
 -1       263 1.07874E+02 2.18750E+00 0.00000E+00
 -1       264 1.10874E+02 2.18750E+00 0.00000E+00
 -1       265 1.13874E+02 2.18750E+00 0.00000E+00
 -1       266 1.16874E+02 2.18750E+00 0.00000E+00
 -1       267 1.19874E+02 2.18750E+00 0.00000E+00
 -1       268 1.22874E+02 2.18750E+00 0.00000E+00
 -1       269 1.25874E+02 2.18750E+00 0.00000E+00
 -1       270 1.28874E+02 2.18750E+00 0.00000E+00
 -1       271 1.31874E+02 2.18750E+00 0.00000E+00
 -1       272 1.34874E+02 2.18750E+00 0.00000E+00
 -1       273 1.37874E+02 2.18750E+00 0.00000E+00
 -1       274 1.40874E+02 2.18750E+00 0.00000E+00
 -1       275 1.43874E+02 2.18750E+00 0.00000E+00
 -1       276 1.46874E+02 2.18750E+00 0.00000E+00
 -1       277 1.47402E+02 4.42500E+00 0.00000E+00
 -1       278 1.47402E+02 7.37500E+00 0.00000E+00
 -1       279 1.47402E+02 1.03250E+01 0.00000E+00
 -1       280 1.47402E+02 1.32750E+01 0.00000E+00
 -1       281 1.47402E+02 1.61750E+01 0.00000E+00
 -1       282 1.47402E+02 1.91250E+01 0.00000E+00
 -1       283 1.47402E+02 2.20750E+01 0.00000E+00
 -1       284 1.47402E+02 2.50250E+01 0.00000E+00
 -1       285 1.47402E+02 2.79750E+01 0.00000E+00
 -1       286 1.47402E+02 3.09250E+01 0.00000E+00
 -1       287 1.47402E+02 3.38250E+01 0.00000E+00
 -1       288 1.47402E+02 3.67750E+01 0.00000E+00
 -1       289 1.47402E+02 3.97250E+01 0.00000E+00
 -1       290 1.47402E+02 4.26750E+01 0.00000E+00
 -1       291 1.46526E+02 4.50385E+01 0.00000E+00
 -1       292 1.34664E+02 2.50045E+01 0.00000E+00
 -1       293 1.34393E+02 2.33155E+01 0.00000E+00
 -1       294 1.33668E+02 2.16821E+01 0.00000E+00
 -1       295 1.32576E+02 2.03239E+01 0.00000E+00
 -1       296 1.31376E+02 1.90396E+01 0.00000E+00
 -1       297 1.29758E+02 1.83156E+01 0.00000E+00
 -1       298 1.28070E+02 1.78015E+01 0.00000E+00
 -1       299 1.26217E+02 1.73286E+01 0.00000E+00
 -1       300 1.24431E+02 1.78366E+01 0.00000E+00
 -1       301 1.22810E+02 1.84507E+01 0.00000E+00
 -1       302 1.21341E+02 1.94002E+01 0.00000E+00
 -1       303 1.19973E+02 2.05316E+01 0.00000E+00
 -1       304 1.19153E+02 2.21128E+01 0.00000E+00
 -1       305 1.18537E+02 2.37387E+01 0.00000E+00
 -1       306 1.18279E+02 2.54429E+01 0.00000E+00
 -1       307 1.18325E+02 2.72870E+01 0.00000E+00
 -1       308 1.18998E+02 2.90035E+01 0.00000E+00
 -1       309 1.19718E+02 3.06349E+01 0.00000E+00
 -1       310 1.20920E+02 3.18905E+01 0.00000E+00
 -1       311 1.22265E+02 3.28043E+01 0.00000E+00
 -1       312 1.23693E+02 3.34967E+01 0.00000E+00
 -1       313 1.25233E+02 3.38993E+01 0.00000E+00
 -1       314 1.26902E+02 3.40723E+01 0.00000E+00
 -1       315 1.28564E+02 3.37434E+01 0.00000E+00
 -1       316 1.30159E+02 3.32416E+01 0.00000E+00
 -1       317 1.31587E+02 3.23541E+01 0.00000E+00
 -1       318 1.32731E+02 3.11506E+01 0.00000E+00
 -1       319 1.33665E+02 2.98174E+01 0.00000E+00
 -1       320 1.34389E+02 2.83616E+01 0.00000E+00
 -1       321 1.34821E+02 2.67076E+01 0.00000E+00
 -1       322 5.19600E+00 4.11500E+01 0.00000E+00
 -1       323 5.19600E+00 4.41000E+01 0.00000E+00
 -1       324 5.19600E+00 3.52750E+01 0.00000E+00
 -1       325 5.19600E+00 3.23250E+01 0.00000E+00
 -1       326 5.19600E+00 2.93750E+01 0.00000E+00
 -1       327 5.19600E+00 2.64250E+01 0.00000E+00
 -1       328 5.19600E+00 2.34750E+01 0.00000E+00
 -1       329 5.19600E+00 2.05250E+01 0.00000E+00
 -1       330 5.19600E+00 1.76250E+01 0.00000E+00
 -1       331 5.19600E+00 1.46750E+01 0.00000E+00
 -1       332 5.19600E+00 1.17250E+01 0.00000E+00
 -1       333 5.19600E+00 8.77500E+00 0.00000E+00
 -1       334 5.19600E+00 5.82500E+00 0.00000E+00
 -1       335 5.53500E+00 4.00625E+00 0.00000E+00
 -1       336 8.53500E+00 4.00625E+00 0.00000E+00
 -1       337 9.15000E+00 4.48040E+01 0.00000E+00
 -1       338 1.21500E+01 4.48040E+01 0.00000E+00
 -1       339 1.51500E+01 4.48040E+01 0.00000E+00
 -1       340 1.81500E+01 4.48040E+01 0.00000E+00
 -1       341 2.11500E+01 4.48040E+01 0.00000E+00
 -1       342 2.41500E+01 4.48040E+01 0.00000E+00
 -1       343 2.71500E+01 4.48040E+01 0.00000E+00
 -1       344 3.01500E+01 4.48040E+01 0.00000E+00
 -1       345 3.31500E+01 4.48040E+01 0.00000E+00
 -1       346 3.61500E+01 4.48040E+01 0.00000E+00
 -1       347 3.91500E+01 4.48040E+01 0.00000E+00
 -1       348 4.21500E+01 4.48040E+01 0.00000E+00
 -1       349 4.51500E+01 4.48040E+01 0.00000E+00
 -1       350 4.81500E+01 4.48040E+01 0.00000E+00
 -1       351 5.11500E+01 4.48040E+01 0.00000E+00
 -1       352 5.41500E+01 4.48040E+01 0.00000E+00
 -1       353 5.71500E+01 4.48040E+01 0.00000E+00
 -1       354 6.01500E+01 4.48040E+01 0.00000E+00
 -1       355 6.31500E+01 4.48040E+01 0.00000E+00
 -1       356 6.61500E+01 4.48040E+01 0.00000E+00
 -1       357 6.91500E+01 4.48040E+01 0.00000E+00
 -1       358 7.21500E+01 4.48040E+01 0.00000E+00
 -1       359 7.51500E+01 4.48040E+01 0.00000E+00
 -1       360 7.81500E+01 4.48040E+01 0.00000E+00
 -1       361 8.11500E+01 4.48040E+01 0.00000E+00
 -1       362 8.41500E+01 4.48040E+01 0.00000E+00
 -1       363 8.71500E+01 4.48040E+01 0.00000E+00
 -1       364 9.01500E+01 4.48040E+01 0.00000E+00
 -1       365 9.31500E+01 4.48040E+01 0.00000E+00
 -1       366 9.61500E+01 4.48040E+01 0.00000E+00
 -1       367 9.91500E+01 4.48040E+01 0.00000E+00
 -1       368 1.02150E+02 4.48040E+01 0.00000E+00
 -1       369 1.05150E+02 4.48040E+01 0.00000E+00
 -1       370 1.08150E+02 4.48040E+01 0.00000E+00
 -1       371 1.11150E+02 4.48040E+01 0.00000E+00
 -1       372 1.14150E+02 4.48040E+01 0.00000E+00
 -1       373 1.17150E+02 4.48040E+01 0.00000E+00
 -1       374 1.20150E+02 4.48040E+01 0.00000E+00
 -1       375 1.23150E+02 4.48040E+01 0.00000E+00
 -1       376 1.26150E+02 4.48040E+01 0.00000E+00
 -1       377 1.29150E+02 4.48040E+01 0.00000E+00
 -1       378 1.32150E+02 4.48040E+01 0.00000E+00
 -1       379 1.35150E+02 4.48040E+01 0.00000E+00
 -1       380 1.38150E+02 4.48040E+01 0.00000E+00
 -1       381 1.41150E+02 4.48040E+01 0.00000E+00
 -1       382 1.43838E+02 4.49212E+01 0.00000E+00
 -1       383 1.15350E+01 4.00625E+00 0.00000E+00
 -1       384 1.45350E+01 4.00625E+00 0.00000E+00
 -1       385 1.75350E+01 4.00625E+00 0.00000E+00
 -1       386 2.05350E+01 4.00625E+00 0.00000E+00
 -1       387 2.35350E+01 4.00625E+00 0.00000E+00
 -1       388 2.65350E+01 4.00625E+00 0.00000E+00
 -1       389 2.95350E+01 4.00625E+00 0.00000E+00
 -1       390 3.25350E+01 4.00625E+00 0.00000E+00
 -1       391 3.55350E+01 4.00625E+00 0.00000E+00
 -1       392 3.85350E+01 4.00625E+00 0.00000E+00
 -1       393 4.15350E+01 4.00625E+00 0.00000E+00
 -1       394 4.45350E+01 4.00625E+00 0.00000E+00
 -1       395 4.75350E+01 4.00625E+00 0.00000E+00
 -1       396 5.05350E+01 4.00625E+00 0.00000E+00
 -1       397 5.35350E+01 4.00625E+00 0.00000E+00
 -1       398 5.65350E+01 4.00625E+00 0.00000E+00
 -1       399 5.95350E+01 4.00625E+00 0.00000E+00
 -1       400 6.25350E+01 4.00625E+00 0.00000E+00
 -1       401 6.55350E+01 4.00625E+00 0.00000E+00
 -1       402 6.85350E+01 4.00625E+00 0.00000E+00
 -1       403 7.15350E+01 4.00625E+00 0.00000E+00
 -1       404 7.45350E+01 4.00625E+00 0.00000E+00
 -1       405 7.75350E+01 4.00625E+00 0.00000E+00
 -1       406 8.05350E+01 4.00625E+00 0.00000E+00
 -1       407 8.35350E+01 4.00625E+00 0.00000E+00
 -1       408 8.65350E+01 4.00625E+00 0.00000E+00
 -1       409 8.95350E+01 4.00625E+00 0.00000E+00
 -1       410 9.25350E+01 4.00625E+00 0.00000E+00
 -1       411 9.55350E+01 4.00625E+00 0.00000E+00
 -1       412 9.85350E+01 4.00625E+00 0.00000E+00
 -1       413 1.01535E+02 4.00625E+00 0.00000E+00
 -1       414 1.04535E+02 4.00625E+00 0.00000E+00
 -1       415 1.07535E+02 4.00625E+00 0.00000E+00
 -1       416 1.10535E+02 4.00625E+00 0.00000E+00
 -1       417 1.13535E+02 4.00625E+00 0.00000E+00
 -1       418 1.16535E+02 4.00625E+00 0.00000E+00
 -1       419 1.19535E+02 4.00625E+00 0.00000E+00
 -1       420 1.22535E+02 4.00625E+00 0.00000E+00
 -1       421 1.25535E+02 4.00625E+00 0.00000E+00
 -1       422 1.28535E+02 4.00625E+00 0.00000E+00
 -1       423 1.31535E+02 4.00625E+00 0.00000E+00
 -1       424 1.34535E+02 4.00625E+00 0.00000E+00
 -1       425 1.37535E+02 4.00625E+00 0.00000E+00
 -1       426 1.40535E+02 4.00625E+00 0.00000E+00
 -1       427 1.43535E+02 4.00625E+00 0.00000E+00
 -1       428 1.45469E+02 4.21562E+00 0.00000E+00
 -1       429 1.44804E+02 1.18000E+01 0.00000E+00
 -1       430 1.44804E+02 8.85000E+00 0.00000E+00
 -1       431 1.45136E+02 6.53281E+00 0.00000E+00
 -1       432 1.44804E+02 1.47000E+01 0.00000E+00
 -1       433 1.44804E+02 1.76500E+01 0.00000E+00
 -1       434 1.44804E+02 2.06000E+01 0.00000E+00
 -1       435 1.44804E+02 2.35500E+01 0.00000E+00
 -1       436 1.44804E+02 2.65000E+01 0.00000E+00
 -1       437 1.44804E+02 2.94500E+01 0.00000E+00
 -1       438 1.44804E+02 3.23500E+01 0.00000E+00
 -1       439 1.44804E+02 3.53000E+01 0.00000E+00
 -1       440 1.44804E+02 3.82500E+01 0.00000E+00
 -1       441 1.44804E+02 4.12000E+01 0.00000E+00
 -1       442 1.35368E+02 2.19052E+01 0.00000E+00
 -1       443 1.36200E+02 2.57212E+01 0.00000E+00
 -1       444 1.35891E+02 2.39414E+01 0.00000E+00
 -1       445 1.34197E+02 2.01382E+01 0.00000E+00
 -1       446 1.33106E+02 1.86251E+01 0.00000E+00
 -1       447 5.19600E+00 3.82125E+01 0.00000E+00
 -1       448 1.29365E+02 1.65782E+01 0.00000E+00
 -1       449 1.27512E+02 1.61052E+01 0.00000E+00
 -1       450 1.24969E+02 1.63359E+01 0.00000E+00
 -1       451 1.23102E+02 1.67749E+01 0.00000E+00
 -1       452 1.21281E+02 1.76960E+01 0.00000E+00
 -1       453 1.19777E+02 1.89024E+01 0.00000E+00
 -1       454 1.18412E+02 2.07257E+01 0.00000E+00
 -1       455 1.17319E+02 2.23475E+01 0.00000E+00
 -1       456 1.17126E+02 2.43973E+01 0.00000E+00
 -1       457 1.16588E+02 2.64077E+01 0.00000E+00
 -1       458 1.17455E+02 2.86186E+01 0.00000E+00
 -1       459 1.18019E+02 3.04097E+01 0.00000E+00
 -1       460 1.19322E+02 3.22173E+01 0.00000E+00
 -1       461 1.20817E+02 3.34888E+01 0.00000E+00
 -1       462 1.22304E+02 3.45430E+01 0.00000E+00
 -1       463 1.23844E+02 3.49456E+01 0.00000E+00
 -1       464 1.25916E+02 3.54418E+01 0.00000E+00
 -1       465 1.28033E+02 3.54260E+01 0.00000E+00
 -1       466 1.29629E+02 3.49241E+01 0.00000E+00
 -1       467 1.31646E+02 3.40410E+01 0.00000E+00
 -1       468 1.33098E+02 3.26454E+01 0.00000E+00
 -1       469 1.34259E+02 3.12280E+01 0.00000E+00
 -1       470 1.35338E+02 2.97415E+01 0.00000E+00
 -1       471 1.36184E+02 2.79466E+01 0.00000E+00
 -1       472 1.31130E+02 1.74180E+01 0.00000E+00
 -1       473 1.18217E+02 1.90965E+01 0.00000E+00
 -1       474 1.26264E+02 1.51125E+01 0.00000E+00
 -1       475 1.00350E+01 6.60425E+00 0.00000E+00
 -1       476 7.79400E+00 3.08500E+01 0.00000E+00
 -1       477 7.79400E+00 3.38000E+01 0.00000E+00
 -1       478 7.79400E+00 2.49500E+01 0.00000E+00
 -1       479 7.79400E+00 2.20000E+01 0.00000E+00
 -1       480 7.79400E+00 1.91000E+01 0.00000E+00
 -1       481 7.79400E+00 1.61500E+01 0.00000E+00
 -1       482 7.79400E+00 1.32000E+01 0.00000E+00
 -1       483 7.79400E+00 1.02500E+01 0.00000E+00
 -1       484 1.30350E+01 6.60425E+00 0.00000E+00
 -1       485 1.06500E+01 4.22060E+01 0.00000E+00
 -1       486 1.33013E+02 1.65580E+01 0.00000E+00
 -1       487 1.36500E+01 4.22060E+01 0.00000E+00
 -1       488 1.66500E+01 4.22060E+01 0.00000E+00
 -1       489 1.96500E+01 4.22060E+01 0.00000E+00
 -1       490 2.26500E+01 4.22060E+01 0.00000E+00
 -1       491 2.56500E+01 4.22060E+01 0.00000E+00
 -1       492 2.86500E+01 4.22060E+01 0.00000E+00
 -1       493 3.16500E+01 4.22060E+01 0.00000E+00
 -1       494 3.46500E+01 4.22060E+01 0.00000E+00
 -1       495 3.76500E+01 4.22060E+01 0.00000E+00
 -1       496 4.06500E+01 4.22060E+01 0.00000E+00
 -1       497 4.36500E+01 4.22060E+01 0.00000E+00
 -1       498 4.66500E+01 4.22060E+01 0.00000E+00
 -1       499 4.96500E+01 4.22060E+01 0.00000E+00
 -1       500 5.26500E+01 4.22060E+01 0.00000E+00
 -1       501 5.56500E+01 4.22060E+01 0.00000E+00
 -1       502 5.86500E+01 4.22060E+01 0.00000E+00
 -1       503 6.16500E+01 4.22060E+01 0.00000E+00
 -1       504 6.46500E+01 4.22060E+01 0.00000E+00
 -1       505 6.76500E+01 4.22060E+01 0.00000E+00
 -1       506 7.06500E+01 4.22060E+01 0.00000E+00
 -1       507 7.36500E+01 4.22060E+01 0.00000E+00
 -1       508 7.66500E+01 4.22060E+01 0.00000E+00
 -1       509 7.96500E+01 4.22060E+01 0.00000E+00
 -1       510 8.26500E+01 4.22060E+01 0.00000E+00
 -1       511 8.56500E+01 4.22060E+01 0.00000E+00
 -1       512 8.86500E+01 4.22060E+01 0.00000E+00
 -1       513 9.16500E+01 4.22060E+01 0.00000E+00
 -1       514 9.46500E+01 4.22060E+01 0.00000E+00
 -1       515 9.76500E+01 4.22060E+01 0.00000E+00
 -1       516 1.00650E+02 4.22060E+01 0.00000E+00
 -1       517 1.03650E+02 4.22060E+01 0.00000E+00
 -1       518 1.06650E+02 4.22060E+01 0.00000E+00
 -1       519 1.09650E+02 4.22060E+01 0.00000E+00
 -1       520 1.12650E+02 4.22060E+01 0.00000E+00
 -1       521 1.15650E+02 4.22060E+01 0.00000E+00
 -1       522 1.18650E+02 4.22060E+01 0.00000E+00
 -1       523 1.21650E+02 4.22060E+01 0.00000E+00
 -1       524 1.24650E+02 4.22060E+01 0.00000E+00
 -1       525 1.27650E+02 4.22060E+01 0.00000E+00
 -1       526 1.30650E+02 4.22060E+01 0.00000E+00
 -1       527 1.33650E+02 4.22060E+01 0.00000E+00
 -1       528 1.36650E+02 4.22060E+01 0.00000E+00
 -1       529 1.39650E+02 4.22060E+01 0.00000E+00
 -1       530 1.90350E+01 6.60425E+00 0.00000E+00
 -1       531 2.20350E+01 6.60425E+00 0.00000E+00
 -1       532 2.50350E+01 6.60425E+00 0.00000E+00
 -1       533 2.80350E+01 6.60425E+00 0.00000E+00
 -1       534 3.10350E+01 6.60425E+00 0.00000E+00
 -1       535 3.40350E+01 6.60425E+00 0.00000E+00
 -1       536 3.70350E+01 6.60425E+00 0.00000E+00
 -1       537 4.00350E+01 6.60425E+00 0.00000E+00
 -1       538 4.30350E+01 6.60425E+00 0.00000E+00
 -1       539 4.60350E+01 6.60425E+00 0.00000E+00
 -1       540 4.90350E+01 6.60425E+00 0.00000E+00
 -1       541 5.20350E+01 6.60425E+00 0.00000E+00
 -1       542 5.50350E+01 6.60425E+00 0.00000E+00
 -1       543 5.80350E+01 6.60425E+00 0.00000E+00
 -1       544 6.10350E+01 6.60425E+00 0.00000E+00
 -1       545 6.40350E+01 6.60425E+00 0.00000E+00
 -1       546 6.70350E+01 6.60425E+00 0.00000E+00
 -1       547 7.00350E+01 6.60425E+00 0.00000E+00
 -1       548 7.30350E+01 6.60425E+00 0.00000E+00
 -1       549 7.60350E+01 6.60425E+00 0.00000E+00
 -1       550 7.90350E+01 6.60425E+00 0.00000E+00
 -1       551 8.20350E+01 6.60425E+00 0.00000E+00
 -1       552 8.50350E+01 6.60425E+00 0.00000E+00
 -1       553 8.80350E+01 6.60425E+00 0.00000E+00
 -1       554 9.10350E+01 6.60425E+00 0.00000E+00
 -1       555 9.40350E+01 6.60425E+00 0.00000E+00
 -1       556 9.70350E+01 6.60425E+00 0.00000E+00
 -1       557 1.00035E+02 6.60425E+00 0.00000E+00
 -1       558 1.03035E+02 6.60425E+00 0.00000E+00
 -1       559 1.06035E+02 6.60425E+00 0.00000E+00
 -1       560 1.09035E+02 6.60425E+00 0.00000E+00
 -1       561 1.12035E+02 6.60425E+00 0.00000E+00
 -1       562 1.15035E+02 6.60425E+00 0.00000E+00
 -1       563 1.18035E+02 6.60425E+00 0.00000E+00
 -1       564 1.21035E+02 6.60425E+00 0.00000E+00
 -1       565 1.24035E+02 6.60425E+00 0.00000E+00
 -1       566 1.27035E+02 6.60425E+00 0.00000E+00
 -1       567 1.30035E+02 6.60425E+00 0.00000E+00
 -1       568 1.33035E+02 6.60425E+00 0.00000E+00
 -1       569 1.36035E+02 6.60425E+00 0.00000E+00
 -1       570 1.39035E+02 6.60425E+00 0.00000E+00
 -1       571 1.42035E+02 6.60425E+00 0.00000E+00
 -1       572 1.42206E+02 1.61750E+01 0.00000E+00
 -1       573 1.42206E+02 1.91250E+01 0.00000E+00
 -1       574 1.42206E+02 1.03250E+01 0.00000E+00
 -1       575 1.42206E+02 1.32500E+01 0.00000E+00
 -1       576 1.42206E+02 2.20750E+01 0.00000E+00
 -1       577 1.42206E+02 2.50250E+01 0.00000E+00
 -1       578 1.42206E+02 2.79750E+01 0.00000E+00
 -1       579 1.42206E+02 3.08750E+01 0.00000E+00
 -1       580 1.42206E+02 3.38250E+01 0.00000E+00
 -1       581 1.42206E+02 3.67750E+01 0.00000E+00
 -1       582 1.42206E+02 3.97250E+01 0.00000E+00
 -1       583 1.37488E+02 2.45807E+01 0.00000E+00
 -1       584 1.36212E+02 2.00742E+01 0.00000E+00
 -1       585 1.60350E+01 6.60425E+00 0.00000E+00
 -1       586 1.37907E+02 2.68464E+01 0.00000E+00
 -1       587 1.37210E+02 2.25179E+01 0.00000E+00
 -1       588 7.92300E+00 4.16780E+01 0.00000E+00
 -1       589 1.37312E+02 2.95753E+01 0.00000E+00
 -1       590 1.24481E+02 3.68616E+01 0.00000E+00
 -1       591 1.20665E+02 3.52782E+01 0.00000E+00
 -1       592 7.79400E+00 2.79000E+01 0.00000E+00
 -1       593 1.23701E+02 1.51305E+01 0.00000E+00
 -1       594 1.28945E+02 1.43551E+01 0.00000E+00
 -1       595 1.26986E+02 3.69814E+01 0.00000E+00
 -1       596 1.21455E+02 1.57798E+01 0.00000E+00
 -1       597 1.19456E+02 1.69614E+01 0.00000E+00
 -1       598 1.16652E+02 2.07187E+01 0.00000E+00
 -1       599 1.15599E+02 2.32194E+01 0.00000E+00
 -1       600 1.15060E+02 2.52297E+01 0.00000E+00
 -1       601 1.15269E+02 2.82007E+01 0.00000E+00
 -1       602 1.15832E+02 2.99919E+01 0.00000E+00
 -1       603 1.17415E+02 3.22188E+01 0.00000E+00
 -1       604 1.19171E+02 3.40067E+01 0.00000E+00
 -1       605 1.22941E+02 3.64590E+01 0.00000E+00
 -1       606 1.33502E+02 3.45196E+01 0.00000E+00
 -1       607 1.29295E+02 3.66513E+01 0.00000E+00
 -1       608 1.31258E+02 3.59002E+01 0.00000E+00
 -1       609 1.35006E+02 3.30236E+01 0.00000E+00
 -1       610 1.36084E+02 3.15371E+01 0.00000E+00
 -1       611 1.30912E+02 1.56006E+01 0.00000E+00
 -1       612 7.61550E+00 6.21462E+00 0.00000E+00
 -1       613 1.35122E+02 1.85611E+01 0.00000E+00
 -1       614 1.24996E+02 1.39071E+01 0.00000E+00
 -1       615 7.79400E+00 3.67375E+01 0.00000E+00
 -1       616 1.35028E+02 1.64940E+01 0.00000E+00
 -1       617 1.13741E+02 2.70228E+01 0.00000E+00
 -1       618 1.14931E+02 2.15906E+01 0.00000E+00
 -1       619 1.27698E+02 1.33624E+01 0.00000E+00
 -1       620 1.41678E+02 4.22645E+01 0.00000E+00
 -1       621 1.03920E+01 2.05500E+01 0.00000E+00
 -1       622 1.03920E+01 2.35000E+01 0.00000E+00
 -1       623 1.03920E+01 1.46750E+01 0.00000E+00
 -1       624 1.03920E+01 1.17250E+01 0.00000E+00
 -1       625 1.15350E+01 9.20225E+00 0.00000E+00
 -1       626 1.14953E+02 3.22933E+01 0.00000E+00
 -1       627 1.39285E+02 2.85760E+01 0.00000E+00
 -1       628 1.38081E+02 3.14218E+01 0.00000E+00
 -1       629 1.51500E+01 3.96080E+01 0.00000E+00
 -1       630 1.81500E+01 3.96080E+01 0.00000E+00
 -1       631 2.11500E+01 3.96080E+01 0.00000E+00
 -1       632 2.41500E+01 3.96080E+01 0.00000E+00
 -1       633 2.71500E+01 3.96080E+01 0.00000E+00
 -1       634 3.01500E+01 3.96080E+01 0.00000E+00
 -1       635 3.31500E+01 3.96080E+01 0.00000E+00
 -1       636 3.61500E+01 3.96080E+01 0.00000E+00
 -1       637 3.91500E+01 3.96080E+01 0.00000E+00
 -1       638 4.21500E+01 3.96080E+01 0.00000E+00
 -1       639 4.51500E+01 3.96080E+01 0.00000E+00
 -1       640 4.81500E+01 3.96080E+01 0.00000E+00
 -1       641 5.11500E+01 3.96080E+01 0.00000E+00
 -1       642 5.41500E+01 3.96080E+01 0.00000E+00
 -1       643 5.71500E+01 3.96080E+01 0.00000E+00
 -1       644 6.01500E+01 3.96080E+01 0.00000E+00
 -1       645 6.31500E+01 3.96080E+01 0.00000E+00
 -1       646 6.61500E+01 3.96080E+01 0.00000E+00
 -1       647 6.91500E+01 3.96080E+01 0.00000E+00
 -1       648 7.21500E+01 3.96080E+01 0.00000E+00
 -1       649 7.51500E+01 3.96080E+01 0.00000E+00
 -1       650 7.81500E+01 3.96080E+01 0.00000E+00
 -1       651 8.11500E+01 3.96080E+01 0.00000E+00
 -1       652 8.41500E+01 3.96080E+01 0.00000E+00
 -1       653 8.71500E+01 3.96080E+01 0.00000E+00
 -1       654 9.01500E+01 3.96080E+01 0.00000E+00
 -1       655 9.31500E+01 3.96080E+01 0.00000E+00
 -1       656 9.61500E+01 3.96080E+01 0.00000E+00
 -1       657 9.91500E+01 3.96080E+01 0.00000E+00
 -1       658 1.02150E+02 3.96080E+01 0.00000E+00
 -1       659 1.05150E+02 3.96080E+01 0.00000E+00
 -1       660 1.08150E+02 3.96080E+01 0.00000E+00
 -1       661 1.11150E+02 3.96080E+01 0.00000E+00
 -1       662 1.14150E+02 3.96080E+01 0.00000E+00
 -1       663 1.17150E+02 3.96080E+01 0.00000E+00
 -1       664 1.20150E+02 3.96080E+01 0.00000E+00
 -1       665 1.23150E+02 3.96080E+01 0.00000E+00
 -1       666 1.26150E+02 3.96080E+01 0.00000E+00
 -1       667 1.29150E+02 3.96080E+01 0.00000E+00
 -1       668 1.32150E+02 3.96080E+01 0.00000E+00
 -1       669 1.35150E+02 3.96080E+01 0.00000E+00
 -1       670 1.38150E+02 3.96080E+01 0.00000E+00
 -1       671 2.35350E+01 9.20225E+00 0.00000E+00
 -1       672 1.39206E+02 1.03250E+01 0.00000E+00
 -1       673 2.05350E+01 9.20225E+00 0.00000E+00
 -1       674 2.95350E+01 9.20225E+00 0.00000E+00
 -1       675 3.25350E+01 9.20225E+00 0.00000E+00
 -1       676 3.55350E+01 9.20225E+00 0.00000E+00
 -1       677 3.85350E+01 9.20225E+00 0.00000E+00
 -1       678 4.15350E+01 9.20225E+00 0.00000E+00
 -1       679 4.45350E+01 9.20225E+00 0.00000E+00
 -1       680 4.75350E+01 9.20225E+00 0.00000E+00
 -1       681 5.05350E+01 9.20225E+00 0.00000E+00
 -1       682 5.35350E+01 9.20225E+00 0.00000E+00
 -1       683 5.65350E+01 9.20225E+00 0.00000E+00
 -1       684 5.95350E+01 9.20225E+00 0.00000E+00
 -1       685 6.25350E+01 9.20225E+00 0.00000E+00
 -1       686 6.55350E+01 9.20225E+00 0.00000E+00
 -1       687 6.85350E+01 9.20225E+00 0.00000E+00
 -1       688 7.15350E+01 9.20225E+00 0.00000E+00
 -1       689 7.45350E+01 9.20225E+00 0.00000E+00
 -1       690 7.75350E+01 9.20225E+00 0.00000E+00
 -1       691 8.05350E+01 9.20225E+00 0.00000E+00
 -1       692 8.35350E+01 9.20225E+00 0.00000E+00
 -1       693 8.65350E+01 9.20225E+00 0.00000E+00
 -1       694 8.95350E+01 9.20225E+00 0.00000E+00
 -1       695 9.25350E+01 9.20225E+00 0.00000E+00
 -1       696 9.55350E+01 9.20225E+00 0.00000E+00
 -1       697 9.85350E+01 9.20225E+00 0.00000E+00
 -1       698 1.01535E+02 9.20225E+00 0.00000E+00
 -1       699 1.04535E+02 9.20225E+00 0.00000E+00
 -1       700 1.07535E+02 9.20225E+00 0.00000E+00
 -1       701 1.10535E+02 9.20225E+00 0.00000E+00
 -1       702 1.13535E+02 9.20225E+00 0.00000E+00
 -1       703 1.16535E+02 9.20225E+00 0.00000E+00
 -1       704 1.19535E+02 9.20225E+00 0.00000E+00
 -1       705 1.22535E+02 9.20225E+00 0.00000E+00
 -1       706 1.25535E+02 9.20225E+00 0.00000E+00
 -1       707 1.28535E+02 9.20225E+00 0.00000E+00
 -1       708 1.31535E+02 9.20225E+00 0.00000E+00
 -1       709 1.34535E+02 9.20225E+00 0.00000E+00
 -1       710 1.36870E+02 9.76363E+00 0.00000E+00
 -1       711 1.40156E+02 2.35500E+01 0.00000E+00
 -1       712 1.40178E+02 3.96665E+01 0.00000E+00
 -1       713 1.39608E+02 1.76500E+01 0.00000E+00
 -1       714 1.39821E+02 2.65000E+01 0.00000E+00
 -1       715 1.39882E+02 2.06000E+01 0.00000E+00
 -1       716 1.39821E+02 3.23500E+01 0.00000E+00
 -1       717 1.39821E+02 3.53000E+01 0.00000E+00
 -1       718 1.18589E+02 3.62041E+01 0.00000E+00
 -1       719 1.31009E+02 3.81906E+01 0.00000E+00
 -1       720 1.38454E+02 2.05847E+01 0.00000E+00
 -1       721 9.78035E+00 3.93914E+01 0.00000E+00
 -1       722 1.19498E+02 1.47498E+01 0.00000E+00
 -1       723 1.75350E+01 9.20225E+00 0.00000E+00
 -1       724 2.65350E+01 9.20225E+00 0.00000E+00
 -1       725 1.24652E+01 3.94997E+01 0.00000E+00
 -1       726 1.33254E+02 3.68099E+01 0.00000E+00
 -1       727 1.45350E+01 9.20225E+00 0.00000E+00
 -1       728 1.32743E+02 1.43662E+01 0.00000E+00
 -1       729 1.16260E+02 1.87750E+01 0.00000E+00
 -1       730 1.03920E+01 1.76125E+01 0.00000E+00
 -1       731 1.03920E+01 3.23250E+01 0.00000E+00
 -1       732 1.30776E+02 1.31207E+01 0.00000E+00
 -1       733 1.20859E+02 3.76884E+01 0.00000E+00
 -1       734 1.17499E+02 1.66398E+01 0.00000E+00
 -1       735 1.13835E+02 2.38240E+01 0.00000E+00
 -1       736 1.13914E+02 2.96111E+01 0.00000E+00
 -1       737 1.35464E+02 3.49873E+01 0.00000E+00
 -1       738 1.23277E+02 3.83197E+01 0.00000E+00
 -1       739 1.16834E+02 3.44162E+01 0.00000E+00
 -1       740 1.37466E+02 1.80206E+01 0.00000E+00
 -1       741 1.36772E+02 3.32046E+01 0.00000E+00
 -1       742 1.22102E+02 1.38075E+01 0.00000E+00
 -1       743 1.03920E+01 3.52625E+01 0.00000E+00
 -1       744 1.03920E+01 2.64500E+01 0.00000E+00
 -1       745 1.34759E+02 1.43022E+01 0.00000E+00
 -1       746 1.39608E+02 1.47250E+01 0.00000E+00
 -1       747 1.39048E+02 2.33204E+01 0.00000E+00
 -1       748 1.14539E+02 1.96469E+01 0.00000E+00
 -1       749 1.03920E+01 2.93875E+01 0.00000E+00
 -1       750 1.29529E+02 1.21280E+01 0.00000E+00
 -1       751 1.12516E+02 2.56171E+01 0.00000E+00
 -1       752 1.28372E+02 3.84312E+01 0.00000E+00
 -1       753 1.23396E+02 1.25841E+01 0.00000E+00
 -1       754 1.29900E+01 1.32000E+01 0.00000E+00
 -1       755 1.96500E+01 3.70100E+01 0.00000E+00
 -1       756 2.26500E+01 3.70100E+01 0.00000E+00
 -1       757 2.56500E+01 3.70100E+01 0.00000E+00
 -1       758 2.86500E+01 3.70100E+01 0.00000E+00
 -1       759 3.16500E+01 3.70100E+01 0.00000E+00
 -1       760 3.46500E+01 3.70100E+01 0.00000E+00
 -1       761 3.76500E+01 3.70100E+01 0.00000E+00
 -1       762 4.06500E+01 3.70100E+01 0.00000E+00
 -1       763 4.36500E+01 3.70100E+01 0.00000E+00
 -1       764 4.66500E+01 3.70100E+01 0.00000E+00
 -1       765 4.96500E+01 3.70100E+01 0.00000E+00
 -1       766 5.26500E+01 3.70100E+01 0.00000E+00
 -1       767 5.56500E+01 3.70100E+01 0.00000E+00
 -1       768 5.86500E+01 3.70100E+01 0.00000E+00
 -1       769 6.16500E+01 3.70100E+01 0.00000E+00
 -1       770 6.46500E+01 3.70100E+01 0.00000E+00
 -1       771 6.76500E+01 3.70100E+01 0.00000E+00
 -1       772 7.06500E+01 3.70100E+01 0.00000E+00
 -1       773 7.36500E+01 3.70100E+01 0.00000E+00
 -1       774 7.66500E+01 3.70100E+01 0.00000E+00
 -1       775 7.96500E+01 3.70100E+01 0.00000E+00
 -1       776 8.26500E+01 3.70100E+01 0.00000E+00
 -1       777 8.56500E+01 3.70100E+01 0.00000E+00
 -1       778 8.86500E+01 3.70100E+01 0.00000E+00
 -1       779 9.16500E+01 3.70100E+01 0.00000E+00
 -1       780 9.46500E+01 3.70100E+01 0.00000E+00
 -1       781 9.76500E+01 3.70100E+01 0.00000E+00
 -1       782 1.00650E+02 3.70100E+01 0.00000E+00
 -1       783 1.03650E+02 3.70100E+01 0.00000E+00
 -1       784 1.06650E+02 3.70100E+01 0.00000E+00
 -1       785 1.09650E+02 3.70100E+01 0.00000E+00
 -1       786 1.12650E+02 3.70100E+01 0.00000E+00
 -1       787 1.36650E+02 3.70100E+01 0.00000E+00
 -1       788 2.20350E+01 1.18003E+01 0.00000E+00
 -1       789 3.40350E+01 1.18003E+01 0.00000E+00
 -1       790 3.10350E+01 1.18003E+01 0.00000E+00
 -1       791 4.00350E+01 1.18003E+01 0.00000E+00
 -1       792 4.30350E+01 1.18003E+01 0.00000E+00
 -1       793 4.60350E+01 1.18003E+01 0.00000E+00
 -1       794 4.90350E+01 1.18003E+01 0.00000E+00
 -1       795 5.20350E+01 1.18003E+01 0.00000E+00
 -1       796 5.50350E+01 1.18003E+01 0.00000E+00
 -1       797 5.80350E+01 1.18003E+01 0.00000E+00
 -1       798 6.10350E+01 1.18003E+01 0.00000E+00
 -1       799 6.40350E+01 1.18003E+01 0.00000E+00
 -1       800 6.70350E+01 1.18003E+01 0.00000E+00
 -1       801 7.00350E+01 1.18003E+01 0.00000E+00
 -1       802 7.30350E+01 1.18003E+01 0.00000E+00
 -1       803 7.60350E+01 1.18003E+01 0.00000E+00
 -1       804 7.90350E+01 1.18003E+01 0.00000E+00
 -1       805 8.20350E+01 1.18003E+01 0.00000E+00
 -1       806 8.50350E+01 1.18003E+01 0.00000E+00
 -1       807 8.80350E+01 1.18003E+01 0.00000E+00
 -1       808 9.10350E+01 1.18003E+01 0.00000E+00
 -1       809 9.40350E+01 1.18003E+01 0.00000E+00
 -1       810 9.70350E+01 1.18003E+01 0.00000E+00
 -1       811 1.00035E+02 1.18003E+01 0.00000E+00
 -1       812 1.03035E+02 1.18003E+01 0.00000E+00
 -1       813 1.06035E+02 1.18003E+01 0.00000E+00
 -1       814 1.09035E+02 1.18003E+01 0.00000E+00
 -1       815 1.12035E+02 1.18003E+01 0.00000E+00
 -1       816 1.15035E+02 1.18003E+01 0.00000E+00
 -1       817 1.18035E+02 1.18003E+01 0.00000E+00
 -1       818 1.29900E+01 2.20250E+01 0.00000E+00
 -1       819 1.16129E+02 3.68638E+01 0.00000E+00
 -1       820 1.12365E+02 3.17529E+01 0.00000E+00
 -1       821 1.90350E+01 1.18003E+01 0.00000E+00
 -1       822 1.11615E+02 2.84651E+01 0.00000E+00
 -1       823 1.37625E+01 1.12011E+01 0.00000E+00
 -1       824 1.12693E+02 2.18776E+01 0.00000E+00
 -1       825 1.17090E+02 1.42053E+01 0.00000E+00
 -1       826 3.70350E+01 1.18003E+01 0.00000E+00
 -1       827 1.15107E+02 1.66782E+01 0.00000E+00
 -1       828 1.25941E+02 1.16249E+01 0.00000E+00
 -1       829 1.66500E+01 3.70100E+01 0.00000E+00
 -1       830 1.32857E+02 1.20112E+01 0.00000E+00
 -1       831 1.14248E+02 3.47409E+01 0.00000E+00
 -1       832 1.37335E+02 1.55196E+01 0.00000E+00
 -1       833 1.20102E+02 1.23507E+01 0.00000E+00
 -1       834 1.29900E+01 2.49750E+01 0.00000E+00
 -1       835 1.39652E+01 3.69017E+01 0.00000E+00
 -1       836 2.80350E+01 1.18003E+01 0.00000E+00
 -1       837 2.50350E+01 1.18003E+01 0.00000E+00
 -1       838 1.37603E+02 3.38250E+01 0.00000E+00
 -1       839 1.29900E+01 1.61375E+01 0.00000E+00
 -1       840 1.35815E+02 1.20329E+01 0.00000E+00
 -1       841 1.11374E+02 2.36707E+01 0.00000E+00
 -1       842 1.29900E+01 3.08563E+01 0.00000E+00
 -1       843 1.63988E+01 1.15007E+01 0.00000E+00
 -1       844 1.29900E+01 1.90812E+01 0.00000E+00
 -1       845 1.29900E+01 3.37938E+01 0.00000E+00
 -1       846 1.11146E+02 3.46077E+01 0.00000E+00
 -1       847 1.09951E+02 2.63724E+01 0.00000E+00
 -1       848 2.41500E+01 3.44120E+01 0.00000E+00
 -1       849 2.71500E+01 3.44120E+01 0.00000E+00
 -1       850 3.01500E+01 3.44120E+01 0.00000E+00
 -1       851 3.31500E+01 3.44120E+01 0.00000E+00
 -1       852 3.61500E+01 3.44120E+01 0.00000E+00
 -1       853 3.91500E+01 3.44120E+01 0.00000E+00
 -1       854 4.21500E+01 3.44120E+01 0.00000E+00
 -1       855 4.51500E+01 3.44120E+01 0.00000E+00
 -1       856 4.81500E+01 3.44120E+01 0.00000E+00
 -1       857 5.11500E+01 3.44120E+01 0.00000E+00
 -1       858 5.41500E+01 3.44120E+01 0.00000E+00
 -1       859 5.71500E+01 3.44120E+01 0.00000E+00
 -1       860 6.01500E+01 3.44120E+01 0.00000E+00
 -1       861 6.31500E+01 3.44120E+01 0.00000E+00
 -1       862 6.61500E+01 3.44120E+01 0.00000E+00
 -1       863 6.91500E+01 3.44120E+01 0.00000E+00
 -1       864 7.21500E+01 3.44120E+01 0.00000E+00
 -1       865 7.51500E+01 3.44120E+01 0.00000E+00
 -1       866 7.81500E+01 3.44120E+01 0.00000E+00
 -1       867 8.11500E+01 3.44120E+01 0.00000E+00
 -1       868 8.41500E+01 3.44120E+01 0.00000E+00
 -1       869 8.71500E+01 3.44120E+01 0.00000E+00
 -1       870 9.01500E+01 3.44120E+01 0.00000E+00
 -1       871 9.31500E+01 3.44120E+01 0.00000E+00
 -1       872 9.61500E+01 3.44120E+01 0.00000E+00
 -1       873 9.91500E+01 3.44120E+01 0.00000E+00
 -1       874 1.02150E+02 3.44120E+01 0.00000E+00
 -1       875 1.05150E+02 3.44120E+01 0.00000E+00
 -1       876 1.08150E+02 3.44120E+01 0.00000E+00
 -1       877 3.25350E+01 1.43982E+01 0.00000E+00
 -1       878 4.45350E+01 1.43982E+01 0.00000E+00
 -1       879 4.15350E+01 1.43982E+01 0.00000E+00
 -1       880 5.05350E+01 1.43982E+01 0.00000E+00
 -1       881 5.35350E+01 1.43982E+01 0.00000E+00
 -1       882 5.65350E+01 1.43982E+01 0.00000E+00
 -1       883 5.95350E+01 1.43982E+01 0.00000E+00
 -1       884 6.25350E+01 1.43982E+01 0.00000E+00
 -1       885 6.55350E+01 1.43982E+01 0.00000E+00
 -1       886 6.85350E+01 1.43982E+01 0.00000E+00
 -1       887 7.15350E+01 1.43982E+01 0.00000E+00
 -1       888 7.45350E+01 1.43982E+01 0.00000E+00
 -1       889 7.75350E+01 1.43982E+01 0.00000E+00
 -1       890 8.05350E+01 1.43982E+01 0.00000E+00
 -1       891 8.35350E+01 1.43982E+01 0.00000E+00
 -1       892 8.65350E+01 1.43982E+01 0.00000E+00
 -1       893 8.95350E+01 1.43982E+01 0.00000E+00
 -1       894 9.25350E+01 1.43982E+01 0.00000E+00
 -1       895 9.55350E+01 1.43982E+01 0.00000E+00
 -1       896 9.85350E+01 1.43982E+01 0.00000E+00
 -1       897 1.01535E+02 1.43982E+01 0.00000E+00
 -1       898 1.04535E+02 1.43982E+01 0.00000E+00
 -1       899 1.07535E+02 1.43982E+01 0.00000E+00
 -1       900 1.10535E+02 1.43982E+01 0.00000E+00
 -1       901 1.09665E+02 3.06399E+01 0.00000E+00
 -1       902 1.37431E+02 1.25704E+01 0.00000E+00
 -1       903 2.05350E+01 1.43982E+01 0.00000E+00
 -1       904 2.11500E+01 3.44120E+01 0.00000E+00
 -1       905 1.12295E+02 1.96686E+01 0.00000E+00
 -1       906 1.29900E+01 2.79188E+01 0.00000E+00
 -1       907 1.12862E+02 1.66998E+01 0.00000E+00
 -1       908 1.13949E+02 1.42500E+01 0.00000E+00
 -1       909 2.35350E+01 1.43982E+01 0.00000E+00
 -1       910 4.75350E+01 1.43982E+01 0.00000E+00
 -1       911 1.81500E+01 3.44120E+01 0.00000E+00
 -1       912 1.54652E+01 3.43037E+01 0.00000E+00
 -1       913 1.56263E+01 1.34996E+01 0.00000E+00
 -1       914 1.08000E+02 2.85471E+01 0.00000E+00
 -1       915 3.55350E+01 1.43982E+01 0.00000E+00
 -1       916 2.95350E+01 1.43982E+01 0.00000E+00
 -1       917 3.85350E+01 1.43982E+01 0.00000E+00
 -1       918 2.65350E+01 1.43982E+01 0.00000E+00
 -1       919 1.10641E+02 2.11068E+01 0.00000E+00
 -1       920 1.75351E+01 1.43983E+01 0.00000E+00
 -1       921 1.55880E+01 2.93875E+01 0.00000E+00
 -1       922 1.55880E+01 2.35000E+01 0.00000E+00
 -1       923 1.55880E+01 2.05562E+01 0.00000E+00
 -1       924 2.86500E+01 3.18140E+01 0.00000E+00
 -1       925 3.16500E+01 3.18140E+01 0.00000E+00
 -1       926 3.46500E+01 3.18140E+01 0.00000E+00
 -1       927 3.76500E+01 3.18140E+01 0.00000E+00
 -1       928 4.06500E+01 3.18140E+01 0.00000E+00
 -1       929 4.36500E+01 3.18140E+01 0.00000E+00
 -1       930 4.66500E+01 3.18140E+01 0.00000E+00
 -1       931 4.96500E+01 3.18140E+01 0.00000E+00
 -1       932 5.26500E+01 3.18140E+01 0.00000E+00
 -1       933 5.56500E+01 3.18140E+01 0.00000E+00
 -1       934 5.86500E+01 3.18140E+01 0.00000E+00
 -1       935 6.16500E+01 3.18140E+01 0.00000E+00
 -1       936 6.46500E+01 3.18140E+01 0.00000E+00
 -1       937 6.76500E+01 3.18140E+01 0.00000E+00
 -1       938 7.06500E+01 3.18140E+01 0.00000E+00
 -1       939 7.36500E+01 3.18140E+01 0.00000E+00
 -1       940 7.66500E+01 3.18140E+01 0.00000E+00
 -1       941 7.96500E+01 3.18140E+01 0.00000E+00
 -1       942 8.26500E+01 3.18140E+01 0.00000E+00
 -1       943 8.56500E+01 3.18140E+01 0.00000E+00
 -1       944 8.86500E+01 3.18140E+01 0.00000E+00
 -1       945 9.16500E+01 3.18140E+01 0.00000E+00
 -1       946 9.46500E+01 3.18140E+01 0.00000E+00
 -1       947 9.76500E+01 3.18140E+01 0.00000E+00
 -1       948 1.00650E+02 3.18140E+01 0.00000E+00
 -1       949 1.03650E+02 3.18140E+01 0.00000E+00
 -1       950 1.06650E+02 3.18140E+01 0.00000E+00
 -1       951 5.80350E+01 1.69963E+01 0.00000E+00
 -1       952 4.30350E+01 1.69963E+01 0.00000E+00
 -1       953 5.50350E+01 1.69963E+01 0.00000E+00
 -1       954 5.20350E+01 1.69963E+01 0.00000E+00
 -1       955 6.10350E+01 1.69963E+01 0.00000E+00
 -1       956 6.40350E+01 1.69963E+01 0.00000E+00
 -1       957 6.70350E+01 1.69963E+01 0.00000E+00
 -1       958 7.00350E+01 1.69963E+01 0.00000E+00
 -1       959 7.30350E+01 1.69963E+01 0.00000E+00
 -1       960 7.60350E+01 1.69963E+01 0.00000E+00
 -1       961 7.90350E+01 1.69963E+01 0.00000E+00
 -1       962 8.20350E+01 1.69963E+01 0.00000E+00
 -1       963 8.50350E+01 1.69963E+01 0.00000E+00
 -1       964 8.80350E+01 1.69963E+01 0.00000E+00
 -1       965 9.10350E+01 1.69963E+01 0.00000E+00
 -1       966 9.40350E+01 1.69963E+01 0.00000E+00
 -1       967 9.70350E+01 1.69963E+01 0.00000E+00
 -1       968 1.00035E+02 1.69963E+01 0.00000E+00
 -1       969 1.03035E+02 1.69963E+01 0.00000E+00
 -1       970 1.06035E+02 1.69963E+01 0.00000E+00
 -1       971 1.09035E+02 1.69963E+01 0.00000E+00
 -1       972 2.20350E+01 1.69963E+01 0.00000E+00
 -1       973 2.26500E+01 3.18140E+01 0.00000E+00
 -1       974 1.90351E+01 1.69963E+01 0.00000E+00
 -1       975 1.08700E+02 2.39879E+01 0.00000E+00
 -1       976 1.52625E+01 1.67398E+01 0.00000E+00
 -1       977 1.55880E+01 2.64438E+01 0.00000E+00
 -1       978 1.96500E+01 3.18140E+01 0.00000E+00
 -1       979 2.56500E+01 3.18140E+01 0.00000E+00
 -1       980 4.90350E+01 1.69963E+01 0.00000E+00
 -1       981 3.40350E+01 1.69963E+01 0.00000E+00
 -1       982 3.10350E+01 1.69963E+01 0.00000E+00
 -1       983 4.00350E+01 1.69963E+01 0.00000E+00
 -1       984 1.81860E+01 2.79156E+01 0.00000E+00
 -1       985 2.50350E+01 1.69963E+01 0.00000E+00
 -1       986 4.60350E+01 1.69963E+01 0.00000E+00
 -1       987 1.06750E+02 2.61626E+01 0.00000E+00
 -1       988 1.81860E+01 2.49719E+01 0.00000E+00
 -1       989 1.81860E+01 2.20281E+01 0.00000E+00
 -1       990 1.07831E+02 2.13082E+01 0.00000E+00
 -1       991 1.09078E+02 1.89953E+01 0.00000E+00
 -1       992 1.05200E+02 2.89883E+01 0.00000E+00
 -1       993 3.70350E+01 1.69963E+01 0.00000E+00
 -1       994 3.31500E+01 2.92160E+01 0.00000E+00
 -1       995 3.61500E+01 2.92160E+01 0.00000E+00
 -1       996 3.91500E+01 2.92160E+01 0.00000E+00
 -1       997 4.21500E+01 2.92160E+01 0.00000E+00
 -1       998 4.51500E+01 2.92160E+01 0.00000E+00
 -1       999 4.81500E+01 2.92160E+01 0.00000E+00
 -1      1000 5.11500E+01 2.92160E+01 0.00000E+00
 -1      1001 5.41500E+01 2.92160E+01 0.00000E+00
 -1      1002 5.71500E+01 2.92160E+01 0.00000E+00
 -1      1003 6.01500E+01 2.92160E+01 0.00000E+00
 -1      1004 6.31500E+01 2.92160E+01 0.00000E+00
 -1      1005 6.61500E+01 2.92160E+01 0.00000E+00
 -1      1006 6.91500E+01 2.92160E+01 0.00000E+00
 -1      1007 7.21500E+01 2.92160E+01 0.00000E+00
 -1      1008 7.51500E+01 2.92160E+01 0.00000E+00
 -1      1009 7.81500E+01 2.92160E+01 0.00000E+00
 -1      1010 8.11500E+01 2.92160E+01 0.00000E+00
 -1      1011 8.41500E+01 2.92160E+01 0.00000E+00
 -1      1012 8.71500E+01 2.92160E+01 0.00000E+00
 -1      1013 9.01500E+01 2.92160E+01 0.00000E+00
 -1      1014 9.31500E+01 2.92160E+01 0.00000E+00
 -1      1015 9.61500E+01 2.92160E+01 0.00000E+00
 -1      1016 9.91500E+01 2.92160E+01 0.00000E+00
 -1      1017 1.02175E+02 2.91021E+01 0.00000E+00
 -1      1018 6.25350E+01 1.95942E+01 0.00000E+00
 -1      1019 5.65350E+01 1.95942E+01 0.00000E+00
 -1      1020 5.35350E+01 1.95942E+01 0.00000E+00
 -1      1021 6.55350E+01 1.95942E+01 0.00000E+00
 -1      1022 6.85350E+01 1.95942E+01 0.00000E+00
 -1      1023 7.15350E+01 1.95942E+01 0.00000E+00
 -1      1024 7.45350E+01 1.95942E+01 0.00000E+00
 -1      1025 7.75350E+01 1.95942E+01 0.00000E+00
 -1      1026 8.05350E+01 1.95942E+01 0.00000E+00
 -1      1027 8.35350E+01 1.95942E+01 0.00000E+00
 -1      1028 8.65350E+01 1.95942E+01 0.00000E+00
 -1      1029 8.95350E+01 1.95942E+01 0.00000E+00
 -1      1030 9.25350E+01 1.95942E+01 0.00000E+00
 -1      1031 9.55350E+01 1.95942E+01 0.00000E+00
 -1      1032 9.85350E+01 1.95942E+01 0.00000E+00
 -1      1033 1.01535E+02 1.95942E+01 0.00000E+00
 -1      1034 1.04535E+02 1.95942E+01 0.00000E+00
 -1      1035 2.80350E+01 1.69963E+01 0.00000E+00
 -1      1036 2.41500E+01 2.92160E+01 0.00000E+00
 -1      1037 2.05351E+01 1.95943E+01 0.00000E+00
 -1      1038 2.71500E+01 2.92160E+01 0.00000E+00
 -1      1039 3.01500E+01 2.92160E+01 0.00000E+00
 -1      1040 2.11680E+01 2.85658E+01 0.00000E+00
 -1      1041 1.05881E+02 2.34829E+01 0.00000E+00
 -1      1042 2.11680E+01 2.56221E+01 0.00000E+00
 -1      1043 5.95350E+01 1.95942E+01 0.00000E+00
 -1      1044 3.25350E+01 1.95942E+01 0.00000E+00
 -1      1045 5.05350E+01 1.95942E+01 0.00000E+00
 -1      1046 3.55350E+01 1.95942E+01 0.00000E+00
 -1      1047 4.15350E+01 1.95942E+01 0.00000E+00
 -1      1048 2.11680E+01 2.26783E+01 0.00000E+00
 -1      1049 2.35351E+01 1.95943E+01 0.00000E+00
 -1      1050 4.45350E+01 1.95942E+01 0.00000E+00
 -1      1051 3.46500E+01 2.66180E+01 0.00000E+00
 -1      1052 3.76500E+01 2.66180E+01 0.00000E+00
 -1      1053 4.06500E+01 2.66180E+01 0.00000E+00
 -1      1054 4.36500E+01 2.66180E+01 0.00000E+00
 -1      1055 4.66500E+01 2.66180E+01 0.00000E+00
 -1      1056 4.96500E+01 2.66180E+01 0.00000E+00
 -1      1057 5.26500E+01 2.66180E+01 0.00000E+00
 -1      1058 5.56500E+01 2.66180E+01 0.00000E+00
 -1      1059 5.86500E+01 2.66180E+01 0.00000E+00
 -1      1060 6.16500E+01 2.66180E+01 0.00000E+00
 -1      1061 6.46500E+01 2.66180E+01 0.00000E+00
 -1      1062 6.76500E+01 2.66180E+01 0.00000E+00
 -1      1063 7.06500E+01 2.66180E+01 0.00000E+00
 -1      1064 7.36500E+01 2.66180E+01 0.00000E+00
 -1      1065 7.66500E+01 2.66180E+01 0.00000E+00
 -1      1066 7.96500E+01 2.66180E+01 0.00000E+00
 -1      1067 8.26500E+01 2.66180E+01 0.00000E+00
 -1      1068 8.56500E+01 2.66180E+01 0.00000E+00
 -1      1069 8.86500E+01 2.66180E+01 0.00000E+00
 -1      1070 9.16500E+01 2.66180E+01 0.00000E+00
 -1      1071 9.46500E+01 2.66180E+01 0.00000E+00
 -1      1072 9.76500E+01 2.66180E+01 0.00000E+00
 -1      1073 6.40350E+01 2.21922E+01 0.00000E+00
 -1      1074 3.16500E+01 2.66180E+01 0.00000E+00
 -1      1075 5.80350E+01 2.21922E+01 0.00000E+00
 -1      1076 7.00350E+01 2.21922E+01 0.00000E+00
 -1      1077 7.30350E+01 2.21922E+01 0.00000E+00
 -1      1078 7.60350E+01 2.21922E+01 0.00000E+00
 -1      1079 7.90350E+01 2.21922E+01 0.00000E+00
 -1      1080 8.20350E+01 2.21922E+01 0.00000E+00
 -1      1081 8.50350E+01 2.21922E+01 0.00000E+00
 -1      1082 8.80350E+01 2.21922E+01 0.00000E+00
 -1      1083 9.10350E+01 2.21922E+01 0.00000E+00
 -1      1084 9.40350E+01 2.21922E+01 0.00000E+00
 -1      1085 9.70350E+01 2.21922E+01 0.00000E+00
 -1      1086 1.00035E+02 2.21922E+01 0.00000E+00
 -1      1087 1.02958E+02 2.28376E+01 0.00000E+00
 -1      1088 3.85350E+01 1.95942E+01 0.00000E+00
 -1      1089 2.95350E+01 1.95942E+01 0.00000E+00
 -1      1090 2.56500E+01 2.66180E+01 0.00000E+00
 -1      1091 4.75350E+01 1.95942E+01 0.00000E+00
 -1      1092 1.03827E+02 2.55173E+01 0.00000E+00
 -1      1093 2.65350E+01 1.95943E+01 0.00000E+00
 -1      1094 2.86500E+01 2.66180E+01 0.00000E+00
 -1      1095 5.50350E+01 2.21922E+01 0.00000E+00
 -1      1096 2.34090E+01 2.61200E+01 0.00000E+00
 -1      1097 6.70350E+01 2.21922E+01 0.00000E+00
 -1      1098 6.10350E+01 2.21922E+01 0.00000E+00
 -1      1099 1.00675E+02 2.65041E+01 0.00000E+00
 -1      1100 5.20350E+01 2.21922E+01 0.00000E+00
 -1      1101 2.34090E+01 2.31763E+01 0.00000E+00
 -1      1102 4.00350E+01 2.21922E+01 0.00000E+00
 -1      1103 3.10350E+01 2.21922E+01 0.00000E+00
 -1      1104 3.40350E+01 2.21922E+01 0.00000E+00
 -1      1105 4.30350E+01 2.21922E+01 0.00000E+00
 -1      1106 3.91500E+01 2.40200E+01 0.00000E+00
 -1      1107 4.81500E+01 2.40200E+01 0.00000E+00
 -1      1108 2.80350E+01 2.21923E+01 0.00000E+00
 -1      1109 4.55925E+01 2.31061E+01 0.00000E+00
 -1      1110 3.65925E+01 2.31061E+01 0.00000E+00
 -1      1111 2.57220E+01 2.26843E+01 0.00000E+00
 -1      1112 2.50931E+01 2.38329E+01 0.00000E+00
 -1      1113 0.00000E+00 4.85250E+01 0.00000E+00
 -1      1114 0.00000E+00 4.55750E+01 0.00000E+00
 -1      1115 0.00000E+00 4.26250E+01 0.00000E+00
 -1      1116 0.00000E+00 3.96750E+01 0.00000E+00
 -1      1117 0.00000E+00 3.67250E+01 0.00000E+00
 -1      1118 0.00000E+00 3.38000E+01 0.00000E+00
 -1      1119 0.00000E+00 3.08750E+01 0.00000E+00
 -1      1120 0.00000E+00 2.79250E+01 0.00000E+00
 -1      1121 0.00000E+00 2.49750E+01 0.00000E+00
 -1      1122 0.00000E+00 2.20250E+01 0.00000E+00
 -1      1123 0.00000E+00 1.90750E+01 0.00000E+00
 -1      1124 0.00000E+00 1.61500E+01 0.00000E+00
 -1      1125 0.00000E+00 1.32250E+01 0.00000E+00
 -1      1126 0.00000E+00 1.02750E+01 0.00000E+00
 -1      1127 0.00000E+00 7.32500E+00 0.00000E+00
 -1      1128 0.00000E+00 4.37500E+00 0.00000E+00
 -1      1129 0.00000E+00 1.45000E+00 0.00000E+00
 -1      1130 1.57500E+00 5.00000E+01 0.00000E+00
 -1      1131 4.65000E+00 5.00000E+01 0.00000E+00
 -1      1132 7.65000E+00 5.00000E+01 0.00000E+00
 -1      1133 1.06500E+01 5.00000E+01 0.00000E+00
 -1      1134 1.36500E+01 5.00000E+01 0.00000E+00
 -1      1135 1.66500E+01 5.00000E+01 0.00000E+00
 -1      1136 1.96500E+01 5.00000E+01 0.00000E+00
 -1      1137 2.26500E+01 5.00000E+01 0.00000E+00
 -1      1138 2.56500E+01 5.00000E+01 0.00000E+00
 -1      1139 2.86500E+01 5.00000E+01 0.00000E+00
 -1      1140 3.16500E+01 5.00000E+01 0.00000E+00
 -1      1141 3.46500E+01 5.00000E+01 0.00000E+00
 -1      1142 3.76500E+01 5.00000E+01 0.00000E+00
 -1      1143 4.06500E+01 5.00000E+01 0.00000E+00
 -1      1144 4.36500E+01 5.00000E+01 0.00000E+00
 -1      1145 4.66500E+01 5.00000E+01 0.00000E+00
 -1      1146 4.96500E+01 5.00000E+01 0.00000E+00
 -1      1147 5.26500E+01 5.00000E+01 0.00000E+00
 -1      1148 5.56500E+01 5.00000E+01 0.00000E+00
 -1      1149 5.86500E+01 5.00000E+01 0.00000E+00
 -1      1150 6.16500E+01 5.00000E+01 0.00000E+00
 -1      1151 6.46500E+01 5.00000E+01 0.00000E+00
 -1      1152 6.76500E+01 5.00000E+01 0.00000E+00
 -1      1153 7.06500E+01 5.00000E+01 0.00000E+00
 -1      1154 7.36500E+01 5.00000E+01 0.00000E+00
 -1      1155 7.66500E+01 5.00000E+01 0.00000E+00
 -1      1156 7.96500E+01 5.00000E+01 0.00000E+00
 -1      1157 8.26500E+01 5.00000E+01 0.00000E+00
 -1      1158 8.56500E+01 5.00000E+01 0.00000E+00
 -1      1159 8.86500E+01 5.00000E+01 0.00000E+00
 -1      1160 9.16500E+01 5.00000E+01 0.00000E+00
 -1      1161 9.46500E+01 5.00000E+01 0.00000E+00
 -1      1162 9.76500E+01 5.00000E+01 0.00000E+00
 -1      1163 1.00650E+02 5.00000E+01 0.00000E+00
 -1      1164 1.03650E+02 5.00000E+01 0.00000E+00
 -1      1165 1.06650E+02 5.00000E+01 0.00000E+00
 -1      1166 1.09650E+02 5.00000E+01 0.00000E+00
 -1      1167 1.12650E+02 5.00000E+01 0.00000E+00
 -1      1168 1.15650E+02 5.00000E+01 0.00000E+00
 -1      1169 1.18650E+02 5.00000E+01 0.00000E+00
 -1      1170 1.21650E+02 5.00000E+01 0.00000E+00
 -1      1171 1.24650E+02 5.00000E+01 0.00000E+00
 -1      1172 1.27650E+02 5.00000E+01 0.00000E+00
 -1      1173 1.30650E+02 5.00000E+01 0.00000E+00
 -1      1174 1.33650E+02 5.00000E+01 0.00000E+00
 -1      1175 1.36650E+02 5.00000E+01 0.00000E+00
 -1      1176 1.39650E+02 5.00000E+01 0.00000E+00
 -1      1177 1.42650E+02 5.00000E+01 0.00000E+00
 -1      1178 1.45650E+02 5.00000E+01 0.00000E+00
 -1      1179 1.48575E+02 5.00000E+01 0.00000E+00
 -1      1180 1.57500E+00 0.00000E+00 0.00000E+00
 -1      1181 4.65000E+00 0.00000E+00 0.00000E+00
 -1      1182 7.65000E+00 0.00000E+00 0.00000E+00
 -1      1183 1.06500E+01 0.00000E+00 0.00000E+00
 -1      1184 1.36500E+01 0.00000E+00 0.00000E+00
 -1      1185 1.66500E+01 0.00000E+00 0.00000E+00
 -1      1186 1.96500E+01 0.00000E+00 0.00000E+00
 -1      1187 2.26500E+01 0.00000E+00 0.00000E+00
 -1      1188 2.56500E+01 0.00000E+00 0.00000E+00
 -1      1189 2.86500E+01 0.00000E+00 0.00000E+00
 -1      1190 3.16500E+01 0.00000E+00 0.00000E+00
 -1      1191 3.46500E+01 0.00000E+00 0.00000E+00
 -1      1192 3.76500E+01 0.00000E+00 0.00000E+00
 -1      1193 4.06500E+01 0.00000E+00 0.00000E+00
 -1      1194 4.36500E+01 0.00000E+00 0.00000E+00
 -1      1195 4.66500E+01 0.00000E+00 0.00000E+00
 -1      1196 4.96500E+01 0.00000E+00 0.00000E+00
 -1      1197 5.26500E+01 0.00000E+00 0.00000E+00
 -1      1198 5.56500E+01 0.00000E+00 0.00000E+00
 -1      1199 5.86500E+01 0.00000E+00 0.00000E+00
 -1      1200 6.16500E+01 0.00000E+00 0.00000E+00
 -1      1201 6.46500E+01 0.00000E+00 0.00000E+00
 -1      1202 6.76500E+01 0.00000E+00 0.00000E+00
 -1      1203 7.06500E+01 0.00000E+00 0.00000E+00
 -1      1204 7.36500E+01 0.00000E+00 0.00000E+00
 -1      1205 7.66500E+01 0.00000E+00 0.00000E+00
 -1      1206 7.96500E+01 0.00000E+00 0.00000E+00
 -1      1207 8.26500E+01 0.00000E+00 0.00000E+00
 -1      1208 8.56500E+01 0.00000E+00 0.00000E+00
 -1      1209 8.86500E+01 0.00000E+00 0.00000E+00
 -1      1210 9.16500E+01 0.00000E+00 0.00000E+00
 -1      1211 9.46500E+01 0.00000E+00 0.00000E+00
 -1      1212 9.76500E+01 0.00000E+00 0.00000E+00
 -1      1213 1.00650E+02 0.00000E+00 0.00000E+00
 -1      1214 1.03650E+02 0.00000E+00 0.00000E+00
 -1      1215 1.06650E+02 0.00000E+00 0.00000E+00
 -1      1216 1.09650E+02 0.00000E+00 0.00000E+00
 -1      1217 1.12650E+02 0.00000E+00 0.00000E+00
 -1      1218 1.15650E+02 0.00000E+00 0.00000E+00
 -1      1219 1.18650E+02 0.00000E+00 0.00000E+00
 -1      1220 1.21650E+02 0.00000E+00 0.00000E+00
 -1      1221 1.24650E+02 0.00000E+00 0.00000E+00
 -1      1222 1.27650E+02 0.00000E+00 0.00000E+00
 -1      1223 1.30650E+02 0.00000E+00 0.00000E+00
 -1      1224 1.33650E+02 0.00000E+00 0.00000E+00
 -1      1225 1.36650E+02 0.00000E+00 0.00000E+00
 -1      1226 1.39650E+02 0.00000E+00 0.00000E+00
 -1      1227 1.42650E+02 0.00000E+00 0.00000E+00
 -1      1228 1.45650E+02 0.00000E+00 0.00000E+00
 -1      1229 1.48575E+02 0.00000E+00 0.00000E+00
 -1      1230 1.50000E+02 1.47500E+00 0.00000E+00
 -1      1231 1.50000E+02 4.42500E+00 0.00000E+00
 -1      1232 1.50000E+02 7.37500E+00 0.00000E+00
 -1      1233 1.50000E+02 1.03250E+01 0.00000E+00
 -1      1234 1.50000E+02 1.32750E+01 0.00000E+00
 -1      1235 1.50000E+02 1.62000E+01 0.00000E+00
 -1      1236 1.50000E+02 1.91250E+01 0.00000E+00
 -1      1237 1.50000E+02 2.20750E+01 0.00000E+00
 -1      1238 1.50000E+02 2.50250E+01 0.00000E+00
 -1      1239 1.50000E+02 2.79750E+01 0.00000E+00
 -1      1240 1.50000E+02 3.09250E+01 0.00000E+00
 -1      1241 1.50000E+02 3.38500E+01 0.00000E+00
 -1      1242 1.50000E+02 3.67750E+01 0.00000E+00
 -1      1243 1.50000E+02 3.97250E+01 0.00000E+00
 -1      1244 1.50000E+02 4.26750E+01 0.00000E+00
 -1      1245 1.50000E+02 4.56250E+01 0.00000E+00
 -1      1246 1.50000E+02 4.85500E+01 0.00000E+00
 -1      1247 1.33492E+02 2.51224E+01 0.00000E+00
 -1      1248 1.33197E+02 2.36969E+01 0.00000E+00
 -1      1249 1.32583E+02 2.23117E+01 0.00000E+00
 -1      1250 1.31706E+02 2.11144E+01 0.00000E+00
 -1      1251 1.30598E+02 2.01286E+01 0.00000E+00
 -1      1252 1.29294E+02 1.93937E+01 0.00000E+00
 -1      1253 1.27849E+02 1.89498E+01 0.00000E+00
 -1      1254 1.26272E+02 1.88285E+01 0.00000E+00
 -1      1255 1.24750E+02 1.90532E+01 0.00000E+00
 -1      1256 1.23376E+02 1.95733E+01 0.00000E+00
 -1      1257 1.22130E+02 2.03777E+01 0.00000E+00
 -1      1258 1.21081E+02 2.14266E+01 0.00000E+00
 -1      1259 1.20275E+02 2.26773E+01 0.00000E+00
 -1      1260 1.19754E+02 2.40565E+01 0.00000E+00
 -1      1261 1.19535E+02 2.55009E+01 0.00000E+00
 -1      1262 1.19636E+02 2.70531E+01 0.00000E+00
 -1      1263 1.20079E+02 2.85471E+01 0.00000E+00
 -1      1264 1.20810E+02 2.98628E+01 0.00000E+00
 -1      1265 1.21776E+02 3.09644E+01 0.00000E+00
 -1      1266 1.22880E+02 3.17981E+01 0.00000E+00
 -1      1267 1.24102E+02 3.23900E+01 0.00000E+00
 -1      1268 1.25420E+02 3.27356E+01 0.00000E+00
 -1      1269 1.26845E+02 3.28167E+01 0.00000E+00
 -1      1270 1.28271E+02 3.26034E+01 0.00000E+00
 -1      1271 1.29606E+02 3.21109E+01 0.00000E+00
 -1      1272 1.30815E+02 3.13575E+01 0.00000E+00
 -1      1273 1.31838E+02 3.03842E+01 0.00000E+00
 -1      1274 1.32636E+02 2.92418E+01 0.00000E+00
 -1      1275 1.33189E+02 2.79741E+01 0.00000E+00
 -1      1276 1.33488E+02 2.65656E+01 0.00000E+00
 -1      1277 1.57500E+00 4.85250E+01 0.00000E+00
 -1      1278 1.29900E+00 4.48375E+01 0.00000E+00
 -1      1279 1.29900E+00 4.63125E+01 0.00000E+00
 -1      1280 1.29900E+00 4.18875E+01 0.00000E+00
 -1      1281 1.29900E+00 4.33625E+01 0.00000E+00
 -1      1282 2.59800E+00 4.41000E+01 0.00000E+00
 -1      1283 1.29900E+00 3.89375E+01 0.00000E+00
 -1      1284 1.29900E+00 4.04125E+01 0.00000E+00
 -1      1285 2.59800E+00 4.11500E+01 0.00000E+00
 -1      1286 1.29900E+00 3.59875E+01 0.00000E+00
 -1      1287 1.29900E+00 3.74625E+01 0.00000E+00
 -1      1288 2.59800E+00 3.82000E+01 0.00000E+00
 -1      1289 1.29900E+00 3.30875E+01 0.00000E+00
 -1      1290 1.29900E+00 3.45375E+01 0.00000E+00
 -1      1291 2.59800E+00 3.52750E+01 0.00000E+00
 -1      1292 1.29900E+00 3.01375E+01 0.00000E+00
 -1      1293 1.29900E+00 3.16125E+01 0.00000E+00
 -1      1294 2.59800E+00 3.23500E+01 0.00000E+00
 -1      1295 1.29900E+00 2.71875E+01 0.00000E+00
 -1      1296 1.29900E+00 2.86625E+01 0.00000E+00
 -1      1297 2.59800E+00 2.94000E+01 0.00000E+00
 -1      1298 1.29900E+00 2.42375E+01 0.00000E+00
 -1      1299 1.29900E+00 2.57125E+01 0.00000E+00
 -1      1300 2.59800E+00 2.64500E+01 0.00000E+00
 -1      1301 1.29900E+00 2.12875E+01 0.00000E+00
 -1      1302 1.29900E+00 2.27625E+01 0.00000E+00
 -1      1303 2.59800E+00 2.35000E+01 0.00000E+00
 -1      1304 1.29900E+00 1.83375E+01 0.00000E+00
 -1      1305 1.29900E+00 1.98125E+01 0.00000E+00
 -1      1306 2.59800E+00 2.05500E+01 0.00000E+00
 -1      1307 1.29900E+00 1.54375E+01 0.00000E+00
 -1      1308 1.29900E+00 1.68875E+01 0.00000E+00
 -1      1309 2.59800E+00 1.76250E+01 0.00000E+00
 -1      1310 1.29900E+00 1.24875E+01 0.00000E+00
 -1      1311 1.29900E+00 1.39625E+01 0.00000E+00
 -1      1312 2.59800E+00 1.47000E+01 0.00000E+00
 -1      1313 1.29900E+00 9.53750E+00 0.00000E+00
 -1      1314 1.29900E+00 1.10125E+01 0.00000E+00
 -1      1315 2.59800E+00 1.17500E+01 0.00000E+00
 -1      1316 1.29900E+00 6.58750E+00 0.00000E+00
 -1      1317 1.29900E+00 8.06250E+00 0.00000E+00
 -1      1318 2.59800E+00 8.80000E+00 0.00000E+00
 -1      1319 1.29900E+00 3.63750E+00 0.00000E+00
 -1      1320 1.29900E+00 5.11250E+00 0.00000E+00
 -1      1321 2.59800E+00 5.85000E+00 0.00000E+00
 -1      1322 1.43700E+00 1.09375E+00 0.00000E+00
 -1      1323 1.43700E+00 2.54375E+00 0.00000E+00
 -1      1324 2.73600E+00 3.28125E+00 0.00000E+00
 -1      1325 3.01200E+00 1.09375E+00 0.00000E+00
 -1      1326 3.90000E+00 4.87010E+01 0.00000E+00
 -1      1327 5.40000E+00 4.87010E+01 0.00000E+00
 -1      1328 6.90000E+00 4.87010E+01 0.00000E+00
 -1      1329 8.40000E+00 4.87010E+01 0.00000E+00
 -1      1330 6.15000E+00 4.74020E+01 0.00000E+00
 -1      1331 9.90000E+00 4.87010E+01 0.00000E+00
 -1      1332 1.14000E+01 4.87010E+01 0.00000E+00
 -1      1333 9.15000E+00 4.74020E+01 0.00000E+00
 -1      1334 1.29000E+01 4.87010E+01 0.00000E+00
 -1      1335 1.44000E+01 4.87010E+01 0.00000E+00
 -1      1336 1.21500E+01 4.74020E+01 0.00000E+00
 -1      1337 1.59000E+01 4.87010E+01 0.00000E+00
 -1      1338 1.74000E+01 4.87010E+01 0.00000E+00
 -1      1339 1.51500E+01 4.74020E+01 0.00000E+00
 -1      1340 1.89000E+01 4.87010E+01 0.00000E+00
 -1      1341 2.04000E+01 4.87010E+01 0.00000E+00
 -1      1342 1.81500E+01 4.74020E+01 0.00000E+00
 -1      1343 2.19000E+01 4.87010E+01 0.00000E+00
 -1      1344 2.34000E+01 4.87010E+01 0.00000E+00
 -1      1345 2.11500E+01 4.74020E+01 0.00000E+00
 -1      1346 2.49000E+01 4.87010E+01 0.00000E+00
 -1      1347 2.64000E+01 4.87010E+01 0.00000E+00
 -1      1348 2.41500E+01 4.74020E+01 0.00000E+00
 -1      1349 2.79000E+01 4.87010E+01 0.00000E+00
 -1      1350 2.94000E+01 4.87010E+01 0.00000E+00
 -1      1351 2.71500E+01 4.74020E+01 0.00000E+00
 -1      1352 3.09000E+01 4.87010E+01 0.00000E+00
 -1      1353 3.24000E+01 4.87010E+01 0.00000E+00
 -1      1354 3.01500E+01 4.74020E+01 0.00000E+00
 -1      1355 3.39000E+01 4.87010E+01 0.00000E+00
 -1      1356 3.54000E+01 4.87010E+01 0.00000E+00
 -1      1357 3.31500E+01 4.74020E+01 0.00000E+00
 -1      1358 3.69000E+01 4.87010E+01 0.00000E+00
 -1      1359 3.84000E+01 4.87010E+01 0.00000E+00
 -1      1360 3.61500E+01 4.74020E+01 0.00000E+00
 -1      1361 3.99000E+01 4.87010E+01 0.00000E+00
 -1      1362 4.14000E+01 4.87010E+01 0.00000E+00
 -1      1363 3.91500E+01 4.74020E+01 0.00000E+00
 -1      1364 4.29000E+01 4.87010E+01 0.00000E+00
 -1      1365 4.44000E+01 4.87010E+01 0.00000E+00
 -1      1366 4.21500E+01 4.74020E+01 0.00000E+00
 -1      1367 4.59000E+01 4.87010E+01 0.00000E+00
 -1      1368 4.74000E+01 4.87010E+01 0.00000E+00
 -1      1369 4.51500E+01 4.74020E+01 0.00000E+00
 -1      1370 4.89000E+01 4.87010E+01 0.00000E+00
 -1      1371 5.04000E+01 4.87010E+01 0.00000E+00
 -1      1372 4.81500E+01 4.74020E+01 0.00000E+00
 -1      1373 5.19000E+01 4.87010E+01 0.00000E+00
 -1      1374 5.34000E+01 4.87010E+01 0.00000E+00
 -1      1375 5.11500E+01 4.74020E+01 0.00000E+00
 -1      1376 5.49000E+01 4.87010E+01 0.00000E+00
 -1      1377 5.64000E+01 4.87010E+01 0.00000E+00
 -1      1378 5.41500E+01 4.74020E+01 0.00000E+00
 -1      1379 5.79000E+01 4.87010E+01 0.00000E+00
 -1      1380 5.94000E+01 4.87010E+01 0.00000E+00
 -1      1381 5.71500E+01 4.74020E+01 0.00000E+00
 -1      1382 6.09000E+01 4.87010E+01 0.00000E+00
 -1      1383 6.24000E+01 4.87010E+01 0.00000E+00
 -1      1384 6.01500E+01 4.74020E+01 0.00000E+00
 -1      1385 6.39000E+01 4.87010E+01 0.00000E+00
 -1      1386 6.54000E+01 4.87010E+01 0.00000E+00
 -1      1387 6.31500E+01 4.74020E+01 0.00000E+00
 -1      1388 6.69000E+01 4.87010E+01 0.00000E+00
 -1      1389 6.84000E+01 4.87010E+01 0.00000E+00
 -1      1390 6.61500E+01 4.74020E+01 0.00000E+00
 -1      1391 6.99000E+01 4.87010E+01 0.00000E+00
 -1      1392 7.14000E+01 4.87010E+01 0.00000E+00
 -1      1393 6.91500E+01 4.74020E+01 0.00000E+00
 -1      1394 7.29000E+01 4.87010E+01 0.00000E+00
 -1      1395 7.44000E+01 4.87010E+01 0.00000E+00
 -1      1396 7.21500E+01 4.74020E+01 0.00000E+00
 -1      1397 7.59000E+01 4.87010E+01 0.00000E+00
 -1      1398 7.74000E+01 4.87010E+01 0.00000E+00
 -1      1399 7.51500E+01 4.74020E+01 0.00000E+00
 -1      1400 7.89000E+01 4.87010E+01 0.00000E+00
 -1      1401 8.04000E+01 4.87010E+01 0.00000E+00
 -1      1402 7.81500E+01 4.74020E+01 0.00000E+00
 -1      1403 8.19000E+01 4.87010E+01 0.00000E+00
 -1      1404 8.34000E+01 4.87010E+01 0.00000E+00
 -1      1405 8.11500E+01 4.74020E+01 0.00000E+00
 -1      1406 8.49000E+01 4.87010E+01 0.00000E+00
 -1      1407 8.64000E+01 4.87010E+01 0.00000E+00
 -1      1408 8.41500E+01 4.74020E+01 0.00000E+00
 -1      1409 8.79000E+01 4.87010E+01 0.00000E+00
 -1      1410 8.94000E+01 4.87010E+01 0.00000E+00
 -1      1411 8.71500E+01 4.74020E+01 0.00000E+00
 -1      1412 9.09000E+01 4.87010E+01 0.00000E+00
 -1      1413 9.24000E+01 4.87010E+01 0.00000E+00
 -1      1414 9.01500E+01 4.74020E+01 0.00000E+00
 -1      1415 9.39000E+01 4.87010E+01 0.00000E+00
 -1      1416 9.54000E+01 4.87010E+01 0.00000E+00
 -1      1417 9.31500E+01 4.74020E+01 0.00000E+00
 -1      1418 9.69000E+01 4.87010E+01 0.00000E+00
 -1      1419 9.84000E+01 4.87010E+01 0.00000E+00
 -1      1420 9.61500E+01 4.74020E+01 0.00000E+00
 -1      1421 9.99000E+01 4.87010E+01 0.00000E+00
 -1      1422 1.01400E+02 4.87010E+01 0.00000E+00
 -1      1423 9.91500E+01 4.74020E+01 0.00000E+00
 -1      1424 1.02900E+02 4.87010E+01 0.00000E+00
 -1      1425 1.04400E+02 4.87010E+01 0.00000E+00
 -1      1426 1.02150E+02 4.74020E+01 0.00000E+00
 -1      1427 1.05900E+02 4.87010E+01 0.00000E+00
 -1      1428 1.07400E+02 4.87010E+01 0.00000E+00
 -1      1429 1.05150E+02 4.74020E+01 0.00000E+00
 -1      1430 1.08900E+02 4.87010E+01 0.00000E+00
 -1      1431 1.10400E+02 4.87010E+01 0.00000E+00
 -1      1432 1.08150E+02 4.74020E+01 0.00000E+00
 -1      1433 1.11900E+02 4.87010E+01 0.00000E+00
 -1      1434 1.13400E+02 4.87010E+01 0.00000E+00
 -1      1435 1.11150E+02 4.74020E+01 0.00000E+00
 -1      1436 1.14900E+02 4.87010E+01 0.00000E+00
 -1      1437 1.16400E+02 4.87010E+01 0.00000E+00
 -1      1438 1.14150E+02 4.74020E+01 0.00000E+00
 -1      1439 1.17900E+02 4.87010E+01 0.00000E+00
 -1      1440 1.19400E+02 4.87010E+01 0.00000E+00
 -1      1441 1.17150E+02 4.74020E+01 0.00000E+00
 -1      1442 1.20900E+02 4.87010E+01 0.00000E+00
 -1      1443 1.22400E+02 4.87010E+01 0.00000E+00
 -1      1444 1.20150E+02 4.74020E+01 0.00000E+00
 -1      1445 1.23900E+02 4.87010E+01 0.00000E+00
 -1      1446 1.25400E+02 4.87010E+01 0.00000E+00
 -1      1447 1.23150E+02 4.74020E+01 0.00000E+00
 -1      1448 1.26900E+02 4.87010E+01 0.00000E+00
 -1      1449 1.28400E+02 4.87010E+01 0.00000E+00
 -1      1450 1.26150E+02 4.74020E+01 0.00000E+00
 -1      1451 1.29900E+02 4.87010E+01 0.00000E+00
 -1      1452 1.31400E+02 4.87010E+01 0.00000E+00
 -1      1453 1.29150E+02 4.74020E+01 0.00000E+00
 -1      1454 1.32900E+02 4.87010E+01 0.00000E+00
 -1      1455 1.34400E+02 4.87010E+01 0.00000E+00
 -1      1456 1.32150E+02 4.74020E+01 0.00000E+00
 -1      1457 1.35900E+02 4.87010E+01 0.00000E+00
 -1      1458 1.37400E+02 4.87010E+01 0.00000E+00
 -1      1459 1.35150E+02 4.74020E+01 0.00000E+00
 -1      1460 1.38900E+02 4.87010E+01 0.00000E+00
 -1      1461 1.40400E+02 4.87010E+01 0.00000E+00
 -1      1462 1.38150E+02 4.74020E+01 0.00000E+00
 -1      1463 1.41900E+02 4.87010E+01 0.00000E+00
 -1      1464 1.43400E+02 4.87010E+01 0.00000E+00
 -1      1465 1.41150E+02 4.74020E+01 0.00000E+00
 -1      1466 1.44900E+02 4.87010E+01 0.00000E+00
 -1      1467 1.46400E+02 4.87010E+01 0.00000E+00
 -1      1468 1.44150E+02 4.74020E+01 0.00000E+00
 -1      1469 1.48575E+02 4.85500E+01 0.00000E+00
 -1      1470 1.47825E+02 4.72510E+01 0.00000E+00
 -1      1471 6.01200E+00 1.09375E+00 0.00000E+00
 -1      1472 4.51200E+00 1.09375E+00 0.00000E+00
 -1      1473 4.37400E+00 2.18750E+00 0.00000E+00
 -1      1474 9.01200E+00 1.09375E+00 0.00000E+00
 -1      1475 7.51200E+00 1.09375E+00 0.00000E+00
 -1      1476 7.37400E+00 2.18750E+00 0.00000E+00
 -1      1477 1.20120E+01 1.09375E+00 0.00000E+00
 -1      1478 1.05120E+01 1.09375E+00 0.00000E+00
 -1      1479 1.03740E+01 2.18750E+00 0.00000E+00
 -1      1480 1.50120E+01 1.09375E+00 0.00000E+00
 -1      1481 1.35120E+01 1.09375E+00 0.00000E+00
 -1      1482 1.33740E+01 2.18750E+00 0.00000E+00
 -1      1483 1.80120E+01 1.09375E+00 0.00000E+00
 -1      1484 1.65120E+01 1.09375E+00 0.00000E+00
 -1      1485 1.63740E+01 2.18750E+00 0.00000E+00
 -1      1486 2.10120E+01 1.09375E+00 0.00000E+00
 -1      1487 1.95120E+01 1.09375E+00 0.00000E+00
 -1      1488 1.93740E+01 2.18750E+00 0.00000E+00
 -1      1489 2.40120E+01 1.09375E+00 0.00000E+00
 -1      1490 2.25120E+01 1.09375E+00 0.00000E+00
 -1      1491 2.23740E+01 2.18750E+00 0.00000E+00
 -1      1492 2.70120E+01 1.09375E+00 0.00000E+00
 -1      1493 2.55120E+01 1.09375E+00 0.00000E+00
 -1      1494 2.53740E+01 2.18750E+00 0.00000E+00
 -1      1495 3.00120E+01 1.09375E+00 0.00000E+00
 -1      1496 2.85120E+01 1.09375E+00 0.00000E+00
 -1      1497 2.83740E+01 2.18750E+00 0.00000E+00
 -1      1498 3.30120E+01 1.09375E+00 0.00000E+00
 -1      1499 3.15120E+01 1.09375E+00 0.00000E+00
 -1      1500 3.13740E+01 2.18750E+00 0.00000E+00
 -1      1501 3.60120E+01 1.09375E+00 0.00000E+00
 -1      1502 3.45120E+01 1.09375E+00 0.00000E+00
 -1      1503 3.43740E+01 2.18750E+00 0.00000E+00
 -1      1504 3.90120E+01 1.09375E+00 0.00000E+00
 -1      1505 3.75120E+01 1.09375E+00 0.00000E+00
 -1      1506 3.73740E+01 2.18750E+00 0.00000E+00
 -1      1507 4.20120E+01 1.09375E+00 0.00000E+00
 -1      1508 4.05120E+01 1.09375E+00 0.00000E+00
 -1      1509 4.03740E+01 2.18750E+00 0.00000E+00
 -1      1510 4.50120E+01 1.09375E+00 0.00000E+00
 -1      1511 4.35120E+01 1.09375E+00 0.00000E+00
 -1      1512 4.33740E+01 2.18750E+00 0.00000E+00
 -1      1513 4.80120E+01 1.09375E+00 0.00000E+00
 -1      1514 4.65120E+01 1.09375E+00 0.00000E+00
 -1      1515 4.63740E+01 2.18750E+00 0.00000E+00
 -1      1516 5.10120E+01 1.09375E+00 0.00000E+00
 -1      1517 4.95120E+01 1.09375E+00 0.00000E+00
 -1      1518 4.93740E+01 2.18750E+00 0.00000E+00
 -1      1519 5.40120E+01 1.09375E+00 0.00000E+00
 -1      1520 5.25120E+01 1.09375E+00 0.00000E+00
 -1      1521 5.23740E+01 2.18750E+00 0.00000E+00
 -1      1522 5.70120E+01 1.09375E+00 0.00000E+00
 -1      1523 5.55120E+01 1.09375E+00 0.00000E+00
 -1      1524 5.53740E+01 2.18750E+00 0.00000E+00
 -1      1525 6.00120E+01 1.09375E+00 0.00000E+00
 -1      1526 5.85120E+01 1.09375E+00 0.00000E+00
 -1      1527 5.83740E+01 2.18750E+00 0.00000E+00
 -1      1528 6.30120E+01 1.09375E+00 0.00000E+00
 -1      1529 6.15120E+01 1.09375E+00 0.00000E+00
 -1      1530 6.13740E+01 2.18750E+00 0.00000E+00
 -1      1531 6.60120E+01 1.09375E+00 0.00000E+00
 -1      1532 6.45120E+01 1.09375E+00 0.00000E+00
 -1      1533 6.43740E+01 2.18750E+00 0.00000E+00
 -1      1534 6.90120E+01 1.09375E+00 0.00000E+00
 -1      1535 6.75120E+01 1.09375E+00 0.00000E+00
 -1      1536 6.73740E+01 2.18750E+00 0.00000E+00
 -1      1537 7.20120E+01 1.09375E+00 0.00000E+00
 -1      1538 7.05120E+01 1.09375E+00 0.00000E+00
 -1      1539 7.03740E+01 2.18750E+00 0.00000E+00
 -1      1540 7.50120E+01 1.09375E+00 0.00000E+00
 -1      1541 7.35120E+01 1.09375E+00 0.00000E+00
 -1      1542 7.33740E+01 2.18750E+00 0.00000E+00
 -1      1543 7.80120E+01 1.09375E+00 0.00000E+00
 -1      1544 7.65120E+01 1.09375E+00 0.00000E+00
 -1      1545 7.63740E+01 2.18750E+00 0.00000E+00
 -1      1546 8.10120E+01 1.09375E+00 0.00000E+00
 -1      1547 7.95120E+01 1.09375E+00 0.00000E+00
 -1      1548 7.93740E+01 2.18750E+00 0.00000E+00
 -1      1549 8.40120E+01 1.09375E+00 0.00000E+00
 -1      1550 8.25120E+01 1.09375E+00 0.00000E+00
 -1      1551 8.23740E+01 2.18750E+00 0.00000E+00
 -1      1552 8.70120E+01 1.09375E+00 0.00000E+00
 -1      1553 8.55120E+01 1.09375E+00 0.00000E+00
 -1      1554 8.53740E+01 2.18750E+00 0.00000E+00
 -1      1555 9.00120E+01 1.09375E+00 0.00000E+00
 -1      1556 8.85120E+01 1.09375E+00 0.00000E+00
 -1      1557 8.83740E+01 2.18750E+00 0.00000E+00
 -1      1558 9.30120E+01 1.09375E+00 0.00000E+00
 -1      1559 9.15120E+01 1.09375E+00 0.00000E+00
 -1      1560 9.13740E+01 2.18750E+00 0.00000E+00
 -1      1561 9.60120E+01 1.09375E+00 0.00000E+00
 -1      1562 9.45120E+01 1.09375E+00 0.00000E+00
 -1      1563 9.43740E+01 2.18750E+00 0.00000E+00
 -1      1564 9.90120E+01 1.09375E+00 0.00000E+00
 -1      1565 9.75120E+01 1.09375E+00 0.00000E+00
 -1      1566 9.73740E+01 2.18750E+00 0.00000E+00
 -1      1567 1.02012E+02 1.09375E+00 0.00000E+00
 -1      1568 1.00512E+02 1.09375E+00 0.00000E+00
 -1      1569 1.00374E+02 2.18750E+00 0.00000E+00
 -1      1570 1.05012E+02 1.09375E+00 0.00000E+00
 -1      1571 1.03512E+02 1.09375E+00 0.00000E+00
 -1      1572 1.03374E+02 2.18750E+00 0.00000E+00
 -1      1573 1.08012E+02 1.09375E+00 0.00000E+00
 -1      1574 1.06512E+02 1.09375E+00 0.00000E+00
 -1      1575 1.06374E+02 2.18750E+00 0.00000E+00
 -1      1576 1.11012E+02 1.09375E+00 0.00000E+00
 -1      1577 1.09512E+02 1.09375E+00 0.00000E+00
 -1      1578 1.09374E+02 2.18750E+00 0.00000E+00
 -1      1579 1.14012E+02 1.09375E+00 0.00000E+00
 -1      1580 1.12512E+02 1.09375E+00 0.00000E+00
 -1      1581 1.12374E+02 2.18750E+00 0.00000E+00
 -1      1582 1.17012E+02 1.09375E+00 0.00000E+00
 -1      1583 1.15512E+02 1.09375E+00 0.00000E+00
 -1      1584 1.15374E+02 2.18750E+00 0.00000E+00
 -1      1585 1.20012E+02 1.09375E+00 0.00000E+00
 -1      1586 1.18512E+02 1.09375E+00 0.00000E+00
 -1      1587 1.18374E+02 2.18750E+00 0.00000E+00
 -1      1588 1.23012E+02 1.09375E+00 0.00000E+00
 -1      1589 1.21512E+02 1.09375E+00 0.00000E+00
 -1      1590 1.21374E+02 2.18750E+00 0.00000E+00
 -1      1591 1.26012E+02 1.09375E+00 0.00000E+00
 -1      1592 1.24512E+02 1.09375E+00 0.00000E+00
 -1      1593 1.24374E+02 2.18750E+00 0.00000E+00
 -1      1594 1.29012E+02 1.09375E+00 0.00000E+00
 -1      1595 1.27512E+02 1.09375E+00 0.00000E+00
 -1      1596 1.27374E+02 2.18750E+00 0.00000E+00
 -1      1597 1.32012E+02 1.09375E+00 0.00000E+00
 -1      1598 1.30512E+02 1.09375E+00 0.00000E+00
 -1      1599 1.30374E+02 2.18750E+00 0.00000E+00
 -1      1600 1.35012E+02 1.09375E+00 0.00000E+00
 -1      1601 1.33512E+02 1.09375E+00 0.00000E+00
 -1      1602 1.33374E+02 2.18750E+00 0.00000E+00
 -1      1603 1.38012E+02 1.09375E+00 0.00000E+00
 -1      1604 1.36512E+02 1.09375E+00 0.00000E+00
 -1      1605 1.36374E+02 2.18750E+00 0.00000E+00
 -1      1606 1.41012E+02 1.09375E+00 0.00000E+00
 -1      1607 1.39512E+02 1.09375E+00 0.00000E+00
 -1      1608 1.39374E+02 2.18750E+00 0.00000E+00
 -1      1609 1.44012E+02 1.09375E+00 0.00000E+00
 -1      1610 1.42512E+02 1.09375E+00 0.00000E+00
 -1      1611 1.42374E+02 2.18750E+00 0.00000E+00
 -1      1612 1.47012E+02 1.09375E+00 0.00000E+00
 -1      1613 1.45512E+02 1.09375E+00 0.00000E+00
 -1      1614 1.45374E+02 2.18750E+00 0.00000E+00
 -1      1615 1.48575E+02 1.47500E+00 0.00000E+00
 -1      1616 1.48701E+02 5.16250E+00 0.00000E+00
 -1      1617 1.48701E+02 3.68750E+00 0.00000E+00
 -1      1618 1.48701E+02 8.11250E+00 0.00000E+00
 -1      1619 1.48701E+02 6.63750E+00 0.00000E+00
 -1      1620 1.47402E+02 5.90000E+00 0.00000E+00
 -1      1621 1.48701E+02 1.10625E+01 0.00000E+00
 -1      1622 1.48701E+02 9.58750E+00 0.00000E+00
 -1      1623 1.47402E+02 8.85000E+00 0.00000E+00
 -1      1624 1.48701E+02 1.40125E+01 0.00000E+00
 -1      1625 1.48701E+02 1.25375E+01 0.00000E+00
 -1      1626 1.47402E+02 1.18000E+01 0.00000E+00
 -1      1627 1.48701E+02 1.69125E+01 0.00000E+00
 -1      1628 1.48701E+02 1.54625E+01 0.00000E+00
 -1      1629 1.47402E+02 1.47250E+01 0.00000E+00
 -1      1630 1.48701E+02 1.98625E+01 0.00000E+00
 -1      1631 1.48701E+02 1.83875E+01 0.00000E+00
 -1      1632 1.47402E+02 1.76500E+01 0.00000E+00
 -1      1633 1.48701E+02 2.28125E+01 0.00000E+00
 -1      1634 1.48701E+02 2.13375E+01 0.00000E+00
 -1      1635 1.47402E+02 2.06000E+01 0.00000E+00
 -1      1636 1.48701E+02 2.57625E+01 0.00000E+00
 -1      1637 1.48701E+02 2.42875E+01 0.00000E+00
 -1      1638 1.47402E+02 2.35500E+01 0.00000E+00
 -1      1639 1.48701E+02 2.87125E+01 0.00000E+00
 -1      1640 1.48701E+02 2.72375E+01 0.00000E+00
 -1      1641 1.47402E+02 2.65000E+01 0.00000E+00
 -1      1642 1.48701E+02 3.16625E+01 0.00000E+00
 -1      1643 1.48701E+02 3.01875E+01 0.00000E+00
 -1      1644 1.47402E+02 2.94500E+01 0.00000E+00
 -1      1645 1.48701E+02 3.45625E+01 0.00000E+00
 -1      1646 1.48701E+02 3.31125E+01 0.00000E+00
 -1      1647 1.47402E+02 3.23750E+01 0.00000E+00
 -1      1648 1.48701E+02 3.75125E+01 0.00000E+00
 -1      1649 1.48701E+02 3.60375E+01 0.00000E+00
 -1      1650 1.47402E+02 3.53000E+01 0.00000E+00
 -1      1651 1.48701E+02 4.04625E+01 0.00000E+00
 -1      1652 1.48701E+02 3.89875E+01 0.00000E+00
 -1      1653 1.47402E+02 3.82500E+01 0.00000E+00
 -1      1654 1.48701E+02 4.34125E+01 0.00000E+00
 -1      1655 1.48701E+02 4.19375E+01 0.00000E+00
 -1      1656 1.47402E+02 4.12000E+01 0.00000E+00
 -1      1657 1.48263E+02 4.60692E+01 0.00000E+00
 -1      1658 1.48263E+02 4.45942E+01 0.00000E+00
 -1      1659 1.46964E+02 4.38568E+01 0.00000E+00
 -1      1660 1.46088E+02 4.62202E+01 0.00000E+00
 -1      1661 1.34025E+02 2.47163E+01 0.00000E+00
 -1      1662 1.34096E+02 2.54142E+01 0.00000E+00
 -1      1663 1.33661E+02 2.31530E+01 0.00000E+00
 -1      1664 1.33890E+02 2.38718E+01 0.00000E+00
 -1      1665 1.32917E+02 2.16782E+01 0.00000E+00
 -1      1666 1.33298E+02 2.23363E+01 0.00000E+00
 -1      1667 1.31884E+02 2.04643E+01 0.00000E+00
 -1      1668 1.32370E+02 2.09991E+01 0.00000E+00
 -1      1669 1.30665E+02 1.93798E+01 0.00000E+00
 -1      1670 1.31284E+02 1.98221E+01 0.00000E+00
 -1      1671 1.29180E+02 1.87271E+01 0.00000E+00
 -1      1672 1.29856E+02 1.90178E+01 0.00000E+00
 -1      1673 1.27574E+02 1.83236E+01 0.00000E+00
 -1      1674 1.28337E+02 1.84701E+01 0.00000E+00
 -1      1675 1.25842E+02 1.81166E+01 0.00000E+00
 -1      1676 1.26648E+02 1.80871E+01 0.00000E+00
 -1      1677 1.24242E+02 1.85563E+01 0.00000E+00
 -1      1678 1.24950E+02 1.83706E+01 0.00000E+00
 -1      1679 1.22773E+02 1.91955E+01 0.00000E+00
 -1      1680 1.23431E+02 1.88634E+01 0.00000E+00
 -1      1681 1.21458E+02 2.01386E+01 0.00000E+00
 -1      1682 1.22038E+02 1.96702E+01 0.00000E+00
 -1      1683 1.20310E+02 2.12784E+01 0.00000E+00
 -1      1684 1.20774E+02 2.07043E+01 0.00000E+00
 -1      1685 1.19563E+02 2.27393E+01 0.00000E+00
 -1      1686 1.19900E+02 2.20690E+01 0.00000E+00
 -1      1687 1.19072E+02 2.42524E+01 0.00000E+00
 -1      1688 1.19255E+02 2.35522E+01 0.00000E+00
 -1      1689 1.18910E+02 2.58412E+01 0.00000E+00
 -1      1690 1.18944E+02 2.51045E+01 0.00000E+00
 -1      1691 1.19076E+02 2.75685E+01 0.00000E+00
 -1      1692 1.18933E+02 2.67632E+01 0.00000E+00
 -1      1693 1.19701E+02 2.91086E+01 0.00000E+00
 -1      1694 1.19413E+02 2.84268E+01 0.00000E+00
 -1      1695 1.20502E+02 3.05492E+01 0.00000E+00
 -1      1696 1.20060E+02 2.99243E+01 0.00000E+00
 -1      1697 1.21617E+02 3.16521E+01 0.00000E+00
 -1      1698 1.21103E+02 3.11770E+01 0.00000E+00
 -1      1699 1.22872E+02 3.24649E+01 0.00000E+00
 -1      1700 1.22290E+02 3.21090E+01 0.00000E+00
 -1      1701 1.24220E+02 3.30451E+01 0.00000E+00
 -1      1702 1.23586E+02 3.28111E+01 0.00000E+00
 -1      1703 1.25668E+02 3.33552E+01 0.00000E+00
 -1      1704 1.24990E+02 3.32464E+01 0.00000E+00
 -1      1705 1.27242E+02 3.34082E+01 0.00000E+00
 -1      1706 1.26503E+02 3.34417E+01 0.00000E+00
 -1      1707 1.28753E+02 3.30689E+01 0.00000E+00
 -1      1708 1.28073E+02 3.32437E+01 0.00000E+00
 -1      1709 1.30198E+02 3.25010E+01 0.00000E+00
 -1      1710 1.29550E+02 3.28180E+01 0.00000E+00
 -1      1711 1.31468E+02 3.16263E+01 0.00000E+00
 -1      1712 1.30912E+02 3.20573E+01 0.00000E+00
 -1      1713 1.32502E+02 3.04868E+01 0.00000E+00
 -1      1714 1.32040E+02 3.10246E+01 0.00000E+00
 -1      1715 1.33303E+02 2.92227E+01 0.00000E+00
 -1      1716 1.32969E+02 2.98202E+01 0.00000E+00
 -1      1717 1.33880E+02 2.78302E+01 0.00000E+00
 -1      1718 1.33665E+02 2.84947E+01 0.00000E+00
 -1      1719 1.34174E+02 2.62657E+01 0.00000E+00
 -1      1720 1.34096E+02 2.70033E+01 0.00000E+00
 -1      1721 1.31976E+02 1.96817E+01 0.00000E+00
 -1      1722 1.33122E+02 2.10030E+01 0.00000E+00
 -1      1723 1.48437E+02 2.56875E+00 0.00000E+00
 -1      1724 1.47138E+02 3.30625E+00 0.00000E+00
 -1      1725 1.34528E+02 2.41600E+01 0.00000E+00
 -1      1726 1.34030E+02 2.24988E+01 0.00000E+00
 -1      1727 1.34742E+02 2.58560E+01 0.00000E+00
 -1      1728 1.30567E+02 1.86776E+01 0.00000E+00
 -1      1729 1.28914E+02 1.80586E+01 0.00000E+00
 -1      1730 1.27143E+02 1.75651E+01 0.00000E+00
 -1      1731 1.25324E+02 1.75826E+01 0.00000E+00
 -1      1732 1.23621E+02 1.81437E+01 0.00000E+00
 -1      1733 1.22076E+02 1.89255E+01 0.00000E+00
 -1      1734 1.20657E+02 1.99659E+01 0.00000E+00
 -1      1735 1.19563E+02 2.13222E+01 0.00000E+00
 -1      1736 1.18845E+02 2.29257E+01 0.00000E+00
 -1      1737 1.18408E+02 2.45908E+01 0.00000E+00
 -1      1738 1.18302E+02 2.63650E+01 0.00000E+00
 -1      1739 1.18662E+02 2.81453E+01 0.00000E+00
 -1      1740 1.19358E+02 2.98192E+01 0.00000E+00
 -1      1741 1.20319E+02 3.12627E+01 0.00000E+00
 -1      1742 1.21593E+02 3.23474E+01 0.00000E+00
 -1      1743 1.22979E+02 3.31505E+01 0.00000E+00
 -1      1744 1.24463E+02 3.36980E+01 0.00000E+00
 -1      1745 1.26067E+02 3.39858E+01 0.00000E+00
 -1      1746 1.27733E+02 3.39079E+01 0.00000E+00
 -1      1747 1.29362E+02 3.34925E+01 0.00000E+00
 -1      1748 1.30873E+02 3.27979E+01 0.00000E+00
 -1      1749 1.32159E+02 3.17524E+01 0.00000E+00
 -1      1750 1.33198E+02 3.04840E+01 0.00000E+00
 -1      1751 1.34027E+02 2.90895E+01 0.00000E+00
 -1      1752 1.34605E+02 2.75346E+01 0.00000E+00
 -1      1753 2.87400E+00 4.77875E+01 0.00000E+00
 -1      1754 3.89700E+00 4.04125E+01 0.00000E+00
 -1      1755 3.89700E+00 4.18875E+01 0.00000E+00
 -1      1756 3.89700E+00 4.33625E+01 0.00000E+00
 -1      1757 3.89700E+00 4.48375E+01 0.00000E+00
 -1      1758 5.19600E+00 4.26250E+01 0.00000E+00
 -1      1759 3.89700E+00 3.45500E+01 0.00000E+00
 -1      1760 3.89700E+00 3.60000E+01 0.00000E+00
 -1      1761 3.89700E+00 3.16000E+01 0.00000E+00
 -1      1762 3.89700E+00 3.30750E+01 0.00000E+00
 -1      1763 5.19600E+00 3.38000E+01 0.00000E+00
 -1      1764 3.89700E+00 2.86500E+01 0.00000E+00
 -1      1765 3.89700E+00 3.01250E+01 0.00000E+00
 -1      1766 5.19600E+00 3.08500E+01 0.00000E+00
 -1      1767 3.89700E+00 2.57000E+01 0.00000E+00
 -1      1768 3.89700E+00 2.71750E+01 0.00000E+00
 -1      1769 5.19600E+00 2.79000E+01 0.00000E+00
 -1      1770 3.89700E+00 2.27500E+01 0.00000E+00
 -1      1771 3.89700E+00 2.42250E+01 0.00000E+00
 -1      1772 5.19600E+00 2.49500E+01 0.00000E+00
 -1      1773 3.89700E+00 1.98000E+01 0.00000E+00
 -1      1774 3.89700E+00 2.12750E+01 0.00000E+00
 -1      1775 5.19600E+00 2.20000E+01 0.00000E+00
 -1      1776 3.89700E+00 1.69000E+01 0.00000E+00
 -1      1777 3.89700E+00 1.83500E+01 0.00000E+00
 -1      1778 5.19600E+00 1.90750E+01 0.00000E+00
 -1      1779 3.89700E+00 1.39500E+01 0.00000E+00
 -1      1780 3.89700E+00 1.54250E+01 0.00000E+00
 -1      1781 5.19600E+00 1.61500E+01 0.00000E+00
 -1      1782 3.89700E+00 1.10000E+01 0.00000E+00
 -1      1783 3.89700E+00 1.24750E+01 0.00000E+00
 -1      1784 5.19600E+00 1.32000E+01 0.00000E+00
 -1      1785 3.89700E+00 8.05000E+00 0.00000E+00
 -1      1786 3.89700E+00 9.52500E+00 0.00000E+00
 -1      1787 5.19600E+00 1.02500E+01 0.00000E+00
 -1      1788 3.89700E+00 5.10000E+00 0.00000E+00
 -1      1789 3.89700E+00 6.57500E+00 0.00000E+00
 -1      1790 5.19600E+00 7.30000E+00 0.00000E+00
 -1      1791 4.20450E+00 3.09687E+00 0.00000E+00
 -1      1792 4.06650E+00 4.19063E+00 0.00000E+00
 -1      1793 5.36550E+00 4.91563E+00 0.00000E+00
 -1      1794 5.70450E+00 3.09687E+00 0.00000E+00
 -1      1795 3.62400E+00 4.64885E+01 0.00000E+00
 -1      1796 8.70450E+00 3.09687E+00 0.00000E+00
 -1      1797 7.20450E+00 3.09687E+00 0.00000E+00
 -1      1798 7.03500E+00 4.00625E+00 0.00000E+00
 -1      1799 4.92300E+00 4.57510E+01 0.00000E+00
 -1      1800 8.40000E+00 4.61030E+01 0.00000E+00
 -1      1801 9.90000E+00 4.61030E+01 0.00000E+00
 -1      1802 1.14000E+01 4.61030E+01 0.00000E+00
 -1      1803 1.29000E+01 4.61030E+01 0.00000E+00
 -1      1804 1.06500E+01 4.48040E+01 0.00000E+00
 -1      1805 1.44000E+01 4.61030E+01 0.00000E+00
 -1      1806 1.59000E+01 4.61030E+01 0.00000E+00
 -1      1807 1.36500E+01 4.48040E+01 0.00000E+00
 -1      1808 1.74000E+01 4.61030E+01 0.00000E+00
 -1      1809 1.89000E+01 4.61030E+01 0.00000E+00
 -1      1810 1.66500E+01 4.48040E+01 0.00000E+00
 -1      1811 2.04000E+01 4.61030E+01 0.00000E+00
 -1      1812 2.19000E+01 4.61030E+01 0.00000E+00
 -1      1813 1.96500E+01 4.48040E+01 0.00000E+00
 -1      1814 2.34000E+01 4.61030E+01 0.00000E+00
 -1      1815 2.49000E+01 4.61030E+01 0.00000E+00
 -1      1816 2.26500E+01 4.48040E+01 0.00000E+00
 -1      1817 2.64000E+01 4.61030E+01 0.00000E+00
 -1      1818 2.79000E+01 4.61030E+01 0.00000E+00
 -1      1819 2.56500E+01 4.48040E+01 0.00000E+00
 -1      1820 2.94000E+01 4.61030E+01 0.00000E+00
 -1      1821 3.09000E+01 4.61030E+01 0.00000E+00
 -1      1822 2.86500E+01 4.48040E+01 0.00000E+00
 -1      1823 3.24000E+01 4.61030E+01 0.00000E+00
 -1      1824 3.39000E+01 4.61030E+01 0.00000E+00
 -1      1825 3.16500E+01 4.48040E+01 0.00000E+00
 -1      1826 3.54000E+01 4.61030E+01 0.00000E+00
 -1      1827 3.69000E+01 4.61030E+01 0.00000E+00
 -1      1828 3.46500E+01 4.48040E+01 0.00000E+00
 -1      1829 3.84000E+01 4.61030E+01 0.00000E+00
 -1      1830 3.99000E+01 4.61030E+01 0.00000E+00
 -1      1831 3.76500E+01 4.48040E+01 0.00000E+00
 -1      1832 4.14000E+01 4.61030E+01 0.00000E+00
 -1      1833 4.29000E+01 4.61030E+01 0.00000E+00
 -1      1834 4.06500E+01 4.48040E+01 0.00000E+00
 -1      1835 4.44000E+01 4.61030E+01 0.00000E+00
 -1      1836 4.59000E+01 4.61030E+01 0.00000E+00
 -1      1837 4.36500E+01 4.48040E+01 0.00000E+00
 -1      1838 4.74000E+01 4.61030E+01 0.00000E+00
 -1      1839 4.89000E+01 4.61030E+01 0.00000E+00
 -1      1840 4.66500E+01 4.48040E+01 0.00000E+00
 -1      1841 5.04000E+01 4.61030E+01 0.00000E+00
 -1      1842 5.19000E+01 4.61030E+01 0.00000E+00
 -1      1843 4.96500E+01 4.48040E+01 0.00000E+00
 -1      1844 5.34000E+01 4.61030E+01 0.00000E+00
 -1      1845 5.49000E+01 4.61030E+01 0.00000E+00
 -1      1846 5.26500E+01 4.48040E+01 0.00000E+00
 -1      1847 5.64000E+01 4.61030E+01 0.00000E+00
 -1      1848 5.79000E+01 4.61030E+01 0.00000E+00
 -1      1849 5.56500E+01 4.48040E+01 0.00000E+00
 -1      1850 5.94000E+01 4.61030E+01 0.00000E+00
 -1      1851 6.09000E+01 4.61030E+01 0.00000E+00
 -1      1852 5.86500E+01 4.48040E+01 0.00000E+00
 -1      1853 6.24000E+01 4.61030E+01 0.00000E+00
 -1      1854 6.39000E+01 4.61030E+01 0.00000E+00
 -1      1855 6.16500E+01 4.48040E+01 0.00000E+00
 -1      1856 6.54000E+01 4.61030E+01 0.00000E+00
 -1      1857 6.69000E+01 4.61030E+01 0.00000E+00
 -1      1858 6.46500E+01 4.48040E+01 0.00000E+00
 -1      1859 6.84000E+01 4.61030E+01 0.00000E+00
 -1      1860 6.99000E+01 4.61030E+01 0.00000E+00
 -1      1861 6.76500E+01 4.48040E+01 0.00000E+00
 -1      1862 7.14000E+01 4.61030E+01 0.00000E+00
 -1      1863 7.29000E+01 4.61030E+01 0.00000E+00
 -1      1864 7.06500E+01 4.48040E+01 0.00000E+00
 -1      1865 7.44000E+01 4.61030E+01 0.00000E+00
 -1      1866 7.59000E+01 4.61030E+01 0.00000E+00
 -1      1867 7.36500E+01 4.48040E+01 0.00000E+00
 -1      1868 7.74000E+01 4.61030E+01 0.00000E+00
 -1      1869 7.89000E+01 4.61030E+01 0.00000E+00
 -1      1870 7.66500E+01 4.48040E+01 0.00000E+00
 -1      1871 8.04000E+01 4.61030E+01 0.00000E+00
 -1      1872 8.19000E+01 4.61030E+01 0.00000E+00
 -1      1873 7.96500E+01 4.48040E+01 0.00000E+00
 -1      1874 8.34000E+01 4.61030E+01 0.00000E+00
 -1      1875 8.49000E+01 4.61030E+01 0.00000E+00
 -1      1876 8.26500E+01 4.48040E+01 0.00000E+00
 -1      1877 8.64000E+01 4.61030E+01 0.00000E+00
 -1      1878 8.79000E+01 4.61030E+01 0.00000E+00
 -1      1879 8.56500E+01 4.48040E+01 0.00000E+00
 -1      1880 8.94000E+01 4.61030E+01 0.00000E+00
 -1      1881 9.09000E+01 4.61030E+01 0.00000E+00
 -1      1882 8.86500E+01 4.48040E+01 0.00000E+00
 -1      1883 9.24000E+01 4.61030E+01 0.00000E+00
 -1      1884 9.39000E+01 4.61030E+01 0.00000E+00
 -1      1885 9.16500E+01 4.48040E+01 0.00000E+00
 -1      1886 9.54000E+01 4.61030E+01 0.00000E+00
 -1      1887 9.69000E+01 4.61030E+01 0.00000E+00
 -1      1888 9.46500E+01 4.48040E+01 0.00000E+00
 -1      1889 9.84000E+01 4.61030E+01 0.00000E+00
 -1      1890 9.99000E+01 4.61030E+01 0.00000E+00
 -1      1891 9.76500E+01 4.48040E+01 0.00000E+00
 -1      1892 1.01400E+02 4.61030E+01 0.00000E+00
 -1      1893 1.02900E+02 4.61030E+01 0.00000E+00
 -1      1894 1.00650E+02 4.48040E+01 0.00000E+00
 -1      1895 1.04400E+02 4.61030E+01 0.00000E+00
 -1      1896 1.05900E+02 4.61030E+01 0.00000E+00
 -1      1897 1.03650E+02 4.48040E+01 0.00000E+00
 -1      1898 1.07400E+02 4.61030E+01 0.00000E+00
 -1      1899 1.08900E+02 4.61030E+01 0.00000E+00
 -1      1900 1.06650E+02 4.48040E+01 0.00000E+00
 -1      1901 1.10400E+02 4.61030E+01 0.00000E+00
 -1      1902 1.11900E+02 4.61030E+01 0.00000E+00
 -1      1903 1.09650E+02 4.48040E+01 0.00000E+00
 -1      1904 1.13400E+02 4.61030E+01 0.00000E+00
 -1      1905 1.14900E+02 4.61030E+01 0.00000E+00
 -1      1906 1.12650E+02 4.48040E+01 0.00000E+00
 -1      1907 1.16400E+02 4.61030E+01 0.00000E+00
 -1      1908 1.17900E+02 4.61030E+01 0.00000E+00
 -1      1909 1.15650E+02 4.48040E+01 0.00000E+00
 -1      1910 1.19400E+02 4.61030E+01 0.00000E+00
 -1      1911 1.20900E+02 4.61030E+01 0.00000E+00
 -1      1912 1.18650E+02 4.48040E+01 0.00000E+00
 -1      1913 1.22400E+02 4.61030E+01 0.00000E+00
 -1      1914 1.23900E+02 4.61030E+01 0.00000E+00
 -1      1915 1.21650E+02 4.48040E+01 0.00000E+00
 -1      1916 1.25400E+02 4.61030E+01 0.00000E+00
 -1      1917 1.26900E+02 4.61030E+01 0.00000E+00
 -1      1918 1.24650E+02 4.48040E+01 0.00000E+00
 -1      1919 1.28400E+02 4.61030E+01 0.00000E+00
 -1      1920 1.29900E+02 4.61030E+01 0.00000E+00
 -1      1921 1.27650E+02 4.48040E+01 0.00000E+00
 -1      1922 1.31400E+02 4.61030E+01 0.00000E+00
 -1      1923 1.32900E+02 4.61030E+01 0.00000E+00
 -1      1924 1.30650E+02 4.48040E+01 0.00000E+00
 -1      1925 1.34400E+02 4.61030E+01 0.00000E+00
 -1      1926 1.35900E+02 4.61030E+01 0.00000E+00
 -1      1927 1.33650E+02 4.48040E+01 0.00000E+00
 -1      1928 1.37400E+02 4.61030E+01 0.00000E+00
 -1      1929 1.38900E+02 4.61030E+01 0.00000E+00
 -1      1930 1.36650E+02 4.48040E+01 0.00000E+00
 -1      1931 1.40400E+02 4.61030E+01 0.00000E+00
 -1      1932 1.41900E+02 4.61030E+01 0.00000E+00
 -1      1933 1.39650E+02 4.48040E+01 0.00000E+00
 -1      1934 1.43244E+02 4.61616E+01 0.00000E+00
 -1      1935 1.44744E+02 4.61616E+01 0.00000E+00
 -1      1936 1.45182E+02 4.49799E+01 0.00000E+00
 -1      1937 1.42494E+02 4.48626E+01 0.00000E+00
 -1      1938 1.17045E+01 3.09687E+00 0.00000E+00
 -1      1939 1.02045E+01 3.09687E+00 0.00000E+00
 -1      1940 1.00350E+01 4.00625E+00 0.00000E+00
 -1      1941 1.47045E+01 3.09687E+00 0.00000E+00
 -1      1942 1.32045E+01 3.09687E+00 0.00000E+00
 -1      1943 1.30350E+01 4.00625E+00 0.00000E+00
 -1      1944 1.77045E+01 3.09687E+00 0.00000E+00
 -1      1945 1.62045E+01 3.09687E+00 0.00000E+00
 -1      1946 1.60350E+01 4.00625E+00 0.00000E+00
 -1      1947 2.07045E+01 3.09687E+00 0.00000E+00
 -1      1948 1.92045E+01 3.09687E+00 0.00000E+00
 -1      1949 1.90350E+01 4.00625E+00 0.00000E+00
 -1      1950 2.37045E+01 3.09687E+00 0.00000E+00
 -1      1951 2.22045E+01 3.09687E+00 0.00000E+00
 -1      1952 2.20350E+01 4.00625E+00 0.00000E+00
 -1      1953 2.67045E+01 3.09687E+00 0.00000E+00
 -1      1954 2.52045E+01 3.09687E+00 0.00000E+00
 -1      1955 2.50350E+01 4.00625E+00 0.00000E+00
 -1      1956 2.97045E+01 3.09687E+00 0.00000E+00
 -1      1957 2.82045E+01 3.09687E+00 0.00000E+00
 -1      1958 2.80350E+01 4.00625E+00 0.00000E+00
 -1      1959 3.27045E+01 3.09687E+00 0.00000E+00
 -1      1960 3.12045E+01 3.09687E+00 0.00000E+00
 -1      1961 3.10350E+01 4.00625E+00 0.00000E+00
 -1      1962 3.57045E+01 3.09687E+00 0.00000E+00
 -1      1963 3.42045E+01 3.09687E+00 0.00000E+00
 -1      1964 3.40350E+01 4.00625E+00 0.00000E+00
 -1      1965 3.87045E+01 3.09687E+00 0.00000E+00
 -1      1966 3.72045E+01 3.09687E+00 0.00000E+00
 -1      1967 3.70350E+01 4.00625E+00 0.00000E+00
 -1      1968 4.17045E+01 3.09687E+00 0.00000E+00
 -1      1969 4.02045E+01 3.09687E+00 0.00000E+00
 -1      1970 4.00350E+01 4.00625E+00 0.00000E+00
 -1      1971 4.47045E+01 3.09687E+00 0.00000E+00
 -1      1972 4.32045E+01 3.09687E+00 0.00000E+00
 -1      1973 4.30350E+01 4.00625E+00 0.00000E+00
 -1      1974 4.77045E+01 3.09687E+00 0.00000E+00
 -1      1975 4.62045E+01 3.09687E+00 0.00000E+00
 -1      1976 4.60350E+01 4.00625E+00 0.00000E+00
 -1      1977 5.07045E+01 3.09687E+00 0.00000E+00
 -1      1978 4.92045E+01 3.09687E+00 0.00000E+00
 -1      1979 4.90350E+01 4.00625E+00 0.00000E+00
 -1      1980 5.37045E+01 3.09687E+00 0.00000E+00
 -1      1981 5.22045E+01 3.09687E+00 0.00000E+00
 -1      1982 5.20350E+01 4.00625E+00 0.00000E+00
 -1      1983 5.67045E+01 3.09687E+00 0.00000E+00
 -1      1984 5.52045E+01 3.09687E+00 0.00000E+00
 -1      1985 5.50350E+01 4.00625E+00 0.00000E+00
 -1      1986 5.97045E+01 3.09687E+00 0.00000E+00
 -1      1987 5.82045E+01 3.09687E+00 0.00000E+00
 -1      1988 5.80350E+01 4.00625E+00 0.00000E+00
 -1      1989 6.27045E+01 3.09687E+00 0.00000E+00
 -1      1990 6.12045E+01 3.09687E+00 0.00000E+00
 -1      1991 6.10350E+01 4.00625E+00 0.00000E+00
 -1      1992 6.57045E+01 3.09687E+00 0.00000E+00
 -1      1993 6.42045E+01 3.09687E+00 0.00000E+00
 -1      1994 6.40350E+01 4.00625E+00 0.00000E+00
 -1      1995 6.87045E+01 3.09687E+00 0.00000E+00
 -1      1996 6.72045E+01 3.09687E+00 0.00000E+00
 -1      1997 6.70350E+01 4.00625E+00 0.00000E+00
 -1      1998 7.17045E+01 3.09687E+00 0.00000E+00
 -1      1999 7.02045E+01 3.09687E+00 0.00000E+00
 -1      2000 7.00350E+01 4.00625E+00 0.00000E+00
 -1      2001 7.47045E+01 3.09687E+00 0.00000E+00
 -1      2002 7.32045E+01 3.09687E+00 0.00000E+00
 -1      2003 7.30350E+01 4.00625E+00 0.00000E+00
 -1      2004 7.77045E+01 3.09687E+00 0.00000E+00
 -1      2005 7.62045E+01 3.09687E+00 0.00000E+00
 -1      2006 7.60350E+01 4.00625E+00 0.00000E+00
 -1      2007 8.07045E+01 3.09687E+00 0.00000E+00
 -1      2008 7.92045E+01 3.09687E+00 0.00000E+00
 -1      2009 7.90350E+01 4.00625E+00 0.00000E+00
 -1      2010 8.37045E+01 3.09687E+00 0.00000E+00
 -1      2011 8.22045E+01 3.09687E+00 0.00000E+00
 -1      2012 8.20350E+01 4.00625E+00 0.00000E+00
 -1      2013 8.67045E+01 3.09687E+00 0.00000E+00
 -1      2014 8.52045E+01 3.09687E+00 0.00000E+00
 -1      2015 8.50350E+01 4.00625E+00 0.00000E+00
 -1      2016 8.97045E+01 3.09687E+00 0.00000E+00
 -1      2017 8.82045E+01 3.09687E+00 0.00000E+00
 -1      2018 8.80350E+01 4.00625E+00 0.00000E+00
 -1      2019 9.27045E+01 3.09687E+00 0.00000E+00
 -1      2020 9.12045E+01 3.09687E+00 0.00000E+00
 -1      2021 9.10350E+01 4.00625E+00 0.00000E+00
 -1      2022 9.57045E+01 3.09687E+00 0.00000E+00
 -1      2023 9.42045E+01 3.09687E+00 0.00000E+00
 -1      2024 9.40350E+01 4.00625E+00 0.00000E+00
 -1      2025 9.87045E+01 3.09687E+00 0.00000E+00
 -1      2026 9.72045E+01 3.09687E+00 0.00000E+00
 -1      2027 9.70350E+01 4.00625E+00 0.00000E+00
 -1      2028 1.01704E+02 3.09687E+00 0.00000E+00
 -1      2029 1.00204E+02 3.09687E+00 0.00000E+00
 -1      2030 1.00035E+02 4.00625E+00 0.00000E+00
 -1      2031 1.04704E+02 3.09687E+00 0.00000E+00
 -1      2032 1.03204E+02 3.09687E+00 0.00000E+00
 -1      2033 1.03035E+02 4.00625E+00 0.00000E+00
 -1      2034 1.07704E+02 3.09687E+00 0.00000E+00
 -1      2035 1.06204E+02 3.09687E+00 0.00000E+00
 -1      2036 1.06035E+02 4.00625E+00 0.00000E+00
 -1      2037 1.10704E+02 3.09687E+00 0.00000E+00
 -1      2038 1.09204E+02 3.09687E+00 0.00000E+00
 -1      2039 1.09035E+02 4.00625E+00 0.00000E+00
 -1      2040 1.13704E+02 3.09687E+00 0.00000E+00
 -1      2041 1.12204E+02 3.09687E+00 0.00000E+00
 -1      2042 1.12035E+02 4.00625E+00 0.00000E+00
 -1      2043 1.16704E+02 3.09687E+00 0.00000E+00
 -1      2044 1.15204E+02 3.09687E+00 0.00000E+00
 -1      2045 1.15035E+02 4.00625E+00 0.00000E+00
 -1      2046 1.19704E+02 3.09687E+00 0.00000E+00
 -1      2047 1.18204E+02 3.09687E+00 0.00000E+00
 -1      2048 1.18035E+02 4.00625E+00 0.00000E+00
 -1      2049 1.22704E+02 3.09687E+00 0.00000E+00
 -1      2050 1.21204E+02 3.09687E+00 0.00000E+00
 -1      2051 1.21035E+02 4.00625E+00 0.00000E+00
 -1      2052 1.25704E+02 3.09687E+00 0.00000E+00
 -1      2053 1.24204E+02 3.09687E+00 0.00000E+00
 -1      2054 1.24035E+02 4.00625E+00 0.00000E+00
 -1      2055 1.28704E+02 3.09687E+00 0.00000E+00
 -1      2056 1.27204E+02 3.09687E+00 0.00000E+00
 -1      2057 1.27035E+02 4.00625E+00 0.00000E+00
 -1      2058 1.31704E+02 3.09687E+00 0.00000E+00
 -1      2059 1.30204E+02 3.09687E+00 0.00000E+00
 -1      2060 1.30035E+02 4.00625E+00 0.00000E+00
 -1      2061 1.34704E+02 3.09687E+00 0.00000E+00
 -1      2062 1.33204E+02 3.09687E+00 0.00000E+00
 -1      2063 1.33035E+02 4.00625E+00 0.00000E+00
 -1      2064 1.37704E+02 3.09687E+00 0.00000E+00
 -1      2065 1.36204E+02 3.09687E+00 0.00000E+00
 -1      2066 1.36035E+02 4.00625E+00 0.00000E+00
 -1      2067 1.40704E+02 3.09687E+00 0.00000E+00
 -1      2068 1.39204E+02 3.09687E+00 0.00000E+00
 -1      2069 1.39035E+02 4.00625E+00 0.00000E+00
 -1      2070 1.43704E+02 3.09687E+00 0.00000E+00
 -1      2071 1.42204E+02 3.09687E+00 0.00000E+00
 -1      2072 1.42035E+02 4.00625E+00 0.00000E+00
 -1      2073 1.46171E+02 3.20156E+00 0.00000E+00
 -1      2074 1.44671E+02 3.20156E+00 0.00000E+00
 -1      2075 1.44502E+02 4.11094E+00 0.00000E+00
 -1      2076 1.46435E+02 4.32031E+00 0.00000E+00
 -1      2077 1.46103E+02 1.25375E+01 0.00000E+00
 -1      2078 1.46103E+02 1.10625E+01 0.00000E+00
 -1      2079 1.46103E+02 9.58750E+00 0.00000E+00
 -1      2080 1.46103E+02 8.11250E+00 0.00000E+00
 -1      2081 1.44804E+02 1.03250E+01 0.00000E+00
 -1      2082 1.46269E+02 6.95391E+00 0.00000E+00
 -1      2083 1.46269E+02 5.47891E+00 0.00000E+00
 -1      2084 1.45302E+02 5.37422E+00 0.00000E+00
 -1      2085 1.44970E+02 7.69141E+00 0.00000E+00
 -1      2086 1.46103E+02 1.54375E+01 0.00000E+00
 -1      2087 1.46103E+02 1.39875E+01 0.00000E+00
 -1      2088 1.44804E+02 1.32500E+01 0.00000E+00
 -1      2089 1.46103E+02 1.83875E+01 0.00000E+00
 -1      2090 1.46103E+02 1.69125E+01 0.00000E+00
 -1      2091 1.44804E+02 1.61750E+01 0.00000E+00
 -1      2092 1.46103E+02 2.13375E+01 0.00000E+00
 -1      2093 1.46103E+02 1.98625E+01 0.00000E+00
 -1      2094 1.44804E+02 1.91250E+01 0.00000E+00
 -1      2095 1.46103E+02 2.42875E+01 0.00000E+00
 -1      2096 1.46103E+02 2.28125E+01 0.00000E+00
 -1      2097 1.44804E+02 2.20750E+01 0.00000E+00
 -1      2098 1.46103E+02 2.72375E+01 0.00000E+00
 -1      2099 1.46103E+02 2.57625E+01 0.00000E+00
 -1      2100 1.44804E+02 2.50250E+01 0.00000E+00
 -1      2101 1.46103E+02 3.01875E+01 0.00000E+00
 -1      2102 1.46103E+02 2.87125E+01 0.00000E+00
 -1      2103 1.44804E+02 2.79750E+01 0.00000E+00
 -1      2104 1.46103E+02 3.30875E+01 0.00000E+00
 -1      2105 1.46103E+02 3.16375E+01 0.00000E+00
 -1      2106 1.44804E+02 3.09000E+01 0.00000E+00
 -1      2107 1.46103E+02 3.60375E+01 0.00000E+00
 -1      2108 1.46103E+02 3.45625E+01 0.00000E+00
 -1      2109 1.44804E+02 3.38250E+01 0.00000E+00
 -1      2110 1.46103E+02 3.89875E+01 0.00000E+00
 -1      2111 1.46103E+02 3.75125E+01 0.00000E+00
 -1      2112 1.44804E+02 3.67750E+01 0.00000E+00
 -1      2113 1.46103E+02 4.19375E+01 0.00000E+00
 -1      2114 1.46103E+02 4.04625E+01 0.00000E+00
 -1      2115 1.44804E+02 3.97250E+01 0.00000E+00
 -1      2116 1.34518E+02 2.17936E+01 0.00000E+00
 -1      2117 1.34881E+02 2.26103E+01 0.00000E+00
 -1      2118 1.35432E+02 2.53628E+01 0.00000E+00
 -1      2119 1.35511E+02 2.62144E+01 0.00000E+00
 -1      2120 1.35142E+02 2.36284E+01 0.00000E+00
 -1      2121 1.35277E+02 2.44729E+01 0.00000E+00
 -1      2122 1.33387E+02 2.02310E+01 0.00000E+00
 -1      2123 1.33933E+02 2.09101E+01 0.00000E+00
 -1      2124 1.32241E+02 1.88324E+01 0.00000E+00
 -1      2125 1.32841E+02 1.94745E+01 0.00000E+00
 -1      2126 3.89700E+00 3.74688E+01 0.00000E+00
 -1      2127 3.89700E+00 3.89437E+01 0.00000E+00
 -1      2128 5.19600E+00 3.96813E+01 0.00000E+00
 -1      2129 5.19600E+00 3.67438E+01 0.00000E+00
 -1      2130 1.28717E+02 1.71898E+01 0.00000E+00
 -1      2131 1.29561E+02 1.74469E+01 0.00000E+00
 -1      2132 1.26864E+02 1.67169E+01 0.00000E+00
 -1      2133 1.27791E+02 1.69534E+01 0.00000E+00
 -1      2134 1.28438E+02 1.63417E+01 0.00000E+00
 -1      2135 1.24700E+02 1.70862E+01 0.00000E+00
 -1      2136 1.25593E+02 1.68322E+01 0.00000E+00
 -1      2137 1.22956E+02 1.76128E+01 0.00000E+00
 -1      2138 1.23767E+02 1.73057E+01 0.00000E+00
 -1      2139 1.21311E+02 1.85481E+01 0.00000E+00
 -1      2140 1.22046E+02 1.80734E+01 0.00000E+00
 -1      2141 1.19875E+02 1.97170E+01 0.00000E+00
 -1      2142 1.20559E+02 1.91513E+01 0.00000E+00
 -1      2143 1.18782E+02 2.14192E+01 0.00000E+00
 -1      2144 1.19192E+02 2.06286E+01 0.00000E+00
 -1      2145 1.17928E+02 2.30431E+01 0.00000E+00
 -1      2146 1.18236E+02 2.22302E+01 0.00000E+00
 -1      2147 1.17703E+02 2.49201E+01 0.00000E+00
 -1      2148 1.17831E+02 2.40680E+01 0.00000E+00
 -1      2149 1.17456E+02 2.68473E+01 0.00000E+00
 -1      2150 1.17433E+02 2.59253E+01 0.00000E+00
 -1      2151 1.18227E+02 2.88110E+01 0.00000E+00
 -1      2152 1.17890E+02 2.79528E+01 0.00000E+00
 -1      2153 1.18868E+02 3.05223E+01 0.00000E+00
 -1      2154 1.18508E+02 2.97066E+01 0.00000E+00
 -1      2155 1.20121E+02 3.20539E+01 0.00000E+00
 -1      2156 1.19520E+02 3.14261E+01 0.00000E+00
 -1      2157 1.21541E+02 3.31466E+01 0.00000E+00
 -1      2158 1.20869E+02 3.26896E+01 0.00000E+00
 -1      2159 1.22998E+02 3.40198E+01 0.00000E+00
 -1      2160 1.22284E+02 3.36736E+01 0.00000E+00
 -1      2161 1.24539E+02 3.44225E+01 0.00000E+00
 -1      2162 1.23768E+02 3.42211E+01 0.00000E+00
 -1      2163 1.23074E+02 3.47443E+01 0.00000E+00
 -1      2164 1.26409E+02 3.47571E+01 0.00000E+00
 -1      2165 1.25575E+02 3.46706E+01 0.00000E+00
 -1      2166 1.28299E+02 3.45847E+01 0.00000E+00
 -1      2167 1.27467E+02 3.47492E+01 0.00000E+00
 -1      2168 1.29894E+02 3.40829E+01 0.00000E+00
 -1      2169 1.29096E+02 3.43338E+01 0.00000E+00
 -1      2170 1.28831E+02 3.51751E+01 0.00000E+00
 -1      2171 1.31616E+02 3.31976E+01 0.00000E+00
 -1      2172 1.30902E+02 3.36413E+01 0.00000E+00
 -1      2173 1.32915E+02 3.18980E+01 0.00000E+00
 -1      2174 1.32343E+02 3.24998E+01 0.00000E+00
 -1      2175 1.33962E+02 3.05227E+01 0.00000E+00
 -1      2176 1.33495E+02 3.11893E+01 0.00000E+00
 -1      2177 1.34864E+02 2.90515E+01 0.00000E+00
 -1      2178 1.34502E+02 2.97795E+01 0.00000E+00
 -1      2179 1.35503E+02 2.73271E+01 0.00000E+00
 -1      2180 1.35287E+02 2.81541E+01 0.00000E+00
 -1      2181 1.30444E+02 1.78668E+01 0.00000E+00
 -1      2182 1.31253E+02 1.82288E+01 0.00000E+00
 -1      2183 1.33652E+02 1.93816E+01 0.00000E+00
 -1      2184 6.42300E+00 4.57510E+01 0.00000E+00
 -1      2185 1.32118E+02 1.80216E+01 0.00000E+00
 -1      2186 1.30248E+02 1.69981E+01 0.00000E+00
 -1      2187 7.17300E+00 4.44520E+01 0.00000E+00
 -1      2188 1.35630E+02 2.29233E+01 0.00000E+00
 -1      2189 1.36045E+02 2.48313E+01 0.00000E+00
 -1      2190 1.45665E+02 4.31193E+01 0.00000E+00
 -1      2191 1.34783E+02 2.10217E+01 0.00000E+00
 -1      2192 1.36192E+02 2.68339E+01 0.00000E+00
 -1      2193 1.35761E+02 2.88441E+01 0.00000E+00
 -1      2194 1.34799E+02 3.04847E+01 0.00000E+00
 -1      2195 1.33679E+02 3.19367E+01 0.00000E+00
 -1      2196 1.30637E+02 3.44826E+01 0.00000E+00
 -1      2197 1.24880E+02 3.51937E+01 0.00000E+00
 -1      2198 1.21560E+02 3.40159E+01 0.00000E+00
 -1      2199 1.20070E+02 3.28530E+01 0.00000E+00
 -1      2200 1.18671E+02 3.13135E+01 0.00000E+00
 -1      2201 1.17737E+02 2.95141E+01 0.00000E+00
 -1      2202 1.17021E+02 2.75131E+01 0.00000E+00
 -1      2203 1.16857E+02 2.54025E+01 0.00000E+00
 -1      2204 1.17223E+02 2.33724E+01 0.00000E+00
 -1      2205 1.17866E+02 2.15366E+01 0.00000E+00
 -1      2206 1.19095E+02 1.98141E+01 0.00000E+00
 -1      2207 1.18997E+02 1.89995E+01 0.00000E+00
 -1      2208 1.18314E+02 1.99111E+01 0.00000E+00
 -1      2209 1.20529E+02 1.82992E+01 0.00000E+00
 -1      2210 1.22192E+02 1.72354E+01 0.00000E+00
 -1      2211 1.25617E+02 1.57242E+01 0.00000E+00
 -1      2212 1.26241E+02 1.62205E+01 0.00000E+00
 -1      2213 1.26888E+02 1.56088E+01 0.00000E+00
 -1      2214 1.24036E+02 1.65554E+01 0.00000E+00
 -1      2215 1.26975E+02 3.54339E+01 0.00000E+00
 -1      2216 1.32372E+02 3.33432E+01 0.00000E+00
 -1      2217 1.07850E+01 5.30525E+00 0.00000E+00
 -1      2218 9.28500E+00 5.30525E+00 0.00000E+00
 -1      2219 6.49500E+00 3.01125E+01 0.00000E+00
 -1      2220 6.49500E+00 3.15875E+01 0.00000E+00
 -1      2221 6.49500E+00 3.30625E+01 0.00000E+00
 -1      2222 6.49500E+00 3.45375E+01 0.00000E+00
 -1      2223 7.79400E+00 3.23250E+01 0.00000E+00
 -1      2224 6.49500E+00 2.42125E+01 0.00000E+00
 -1      2225 6.49500E+00 2.56875E+01 0.00000E+00
 -1      2226 6.49500E+00 2.12625E+01 0.00000E+00
 -1      2227 6.49500E+00 2.27375E+01 0.00000E+00
 -1      2228 7.79400E+00 2.34750E+01 0.00000E+00
 -1      2229 6.49500E+00 1.83625E+01 0.00000E+00
 -1      2230 6.49500E+00 1.98125E+01 0.00000E+00
 -1      2231 7.79400E+00 2.05500E+01 0.00000E+00
 -1      2232 6.49500E+00 1.54125E+01 0.00000E+00
 -1      2233 6.49500E+00 1.68875E+01 0.00000E+00
 -1      2234 7.79400E+00 1.76250E+01 0.00000E+00
 -1      2235 6.49500E+00 1.24625E+01 0.00000E+00
 -1      2236 6.49500E+00 1.39375E+01 0.00000E+00
 -1      2237 7.79400E+00 1.46750E+01 0.00000E+00
 -1      2238 6.49500E+00 9.51250E+00 0.00000E+00
 -1      2239 6.49500E+00 1.09875E+01 0.00000E+00
 -1      2240 7.79400E+00 1.17250E+01 0.00000E+00
 -1      2241 1.37850E+01 5.30525E+00 0.00000E+00
 -1      2242 1.22850E+01 5.30525E+00 0.00000E+00
 -1      2243 1.15350E+01 6.60425E+00 0.00000E+00
 -1      2244 9.90000E+00 4.35050E+01 0.00000E+00
 -1      2245 1.14000E+01 4.35050E+01 0.00000E+00
 -1      2246 1.32072E+02 1.69880E+01 0.00000E+00
 -1      2247 1.33060E+02 1.75915E+01 0.00000E+00
 -1      2248 1.29000E+01 4.35050E+01 0.00000E+00
 -1      2249 1.44000E+01 4.35050E+01 0.00000E+00
 -1      2250 1.21500E+01 4.22060E+01 0.00000E+00
 -1      2251 1.59000E+01 4.35050E+01 0.00000E+00
 -1      2252 1.74000E+01 4.35050E+01 0.00000E+00
 -1      2253 1.51500E+01 4.22060E+01 0.00000E+00
 -1      2254 1.89000E+01 4.35050E+01 0.00000E+00
 -1      2255 2.04000E+01 4.35050E+01 0.00000E+00
 -1      2256 1.81500E+01 4.22060E+01 0.00000E+00
 -1      2257 2.19000E+01 4.35050E+01 0.00000E+00
 -1      2258 2.34000E+01 4.35050E+01 0.00000E+00
 -1      2259 2.11500E+01 4.22060E+01 0.00000E+00
 -1      2260 2.49000E+01 4.35050E+01 0.00000E+00
 -1      2261 2.64000E+01 4.35050E+01 0.00000E+00
 -1      2262 2.41500E+01 4.22060E+01 0.00000E+00
 -1      2263 2.79000E+01 4.35050E+01 0.00000E+00
 -1      2264 2.94000E+01 4.35050E+01 0.00000E+00
 -1      2265 2.71500E+01 4.22060E+01 0.00000E+00
 -1      2266 3.09000E+01 4.35050E+01 0.00000E+00
 -1      2267 3.24000E+01 4.35050E+01 0.00000E+00
 -1      2268 3.01500E+01 4.22060E+01 0.00000E+00
 -1      2269 3.39000E+01 4.35050E+01 0.00000E+00
 -1      2270 3.54000E+01 4.35050E+01 0.00000E+00
 -1      2271 3.31500E+01 4.22060E+01 0.00000E+00
 -1      2272 3.69000E+01 4.35050E+01 0.00000E+00
 -1      2273 3.84000E+01 4.35050E+01 0.00000E+00
 -1      2274 3.61500E+01 4.22060E+01 0.00000E+00
 -1      2275 3.99000E+01 4.35050E+01 0.00000E+00
 -1      2276 4.14000E+01 4.35050E+01 0.00000E+00
 -1      2277 3.91500E+01 4.22060E+01 0.00000E+00
 -1      2278 4.29000E+01 4.35050E+01 0.00000E+00
 -1      2279 4.44000E+01 4.35050E+01 0.00000E+00
 -1      2280 4.21500E+01 4.22060E+01 0.00000E+00
 -1      2281 4.59000E+01 4.35050E+01 0.00000E+00
 -1      2282 4.74000E+01 4.35050E+01 0.00000E+00
 -1      2283 4.51500E+01 4.22060E+01 0.00000E+00
 -1      2284 4.89000E+01 4.35050E+01 0.00000E+00
 -1      2285 5.04000E+01 4.35050E+01 0.00000E+00
 -1      2286 4.81500E+01 4.22060E+01 0.00000E+00
 -1      2287 5.19000E+01 4.35050E+01 0.00000E+00
 -1      2288 5.34000E+01 4.35050E+01 0.00000E+00
 -1      2289 5.11500E+01 4.22060E+01 0.00000E+00
 -1      2290 5.49000E+01 4.35050E+01 0.00000E+00
 -1      2291 5.64000E+01 4.35050E+01 0.00000E+00
 -1      2292 5.41500E+01 4.22060E+01 0.00000E+00
 -1      2293 5.79000E+01 4.35050E+01 0.00000E+00
 -1      2294 5.94000E+01 4.35050E+01 0.00000E+00
 -1      2295 5.71500E+01 4.22060E+01 0.00000E+00
 -1      2296 6.09000E+01 4.35050E+01 0.00000E+00
 -1      2297 6.24000E+01 4.35050E+01 0.00000E+00
 -1      2298 6.01500E+01 4.22060E+01 0.00000E+00
 -1      2299 6.39000E+01 4.35050E+01 0.00000E+00
 -1      2300 6.54000E+01 4.35050E+01 0.00000E+00
 -1      2301 6.31500E+01 4.22060E+01 0.00000E+00
 -1      2302 6.69000E+01 4.35050E+01 0.00000E+00
 -1      2303 6.84000E+01 4.35050E+01 0.00000E+00
 -1      2304 6.61500E+01 4.22060E+01 0.00000E+00
 -1      2305 6.99000E+01 4.35050E+01 0.00000E+00
 -1      2306 7.14000E+01 4.35050E+01 0.00000E+00
 -1      2307 6.91500E+01 4.22060E+01 0.00000E+00
 -1      2308 7.29000E+01 4.35050E+01 0.00000E+00
 -1      2309 7.44000E+01 4.35050E+01 0.00000E+00
 -1      2310 7.21500E+01 4.22060E+01 0.00000E+00
 -1      2311 7.59000E+01 4.35050E+01 0.00000E+00
 -1      2312 7.74000E+01 4.35050E+01 0.00000E+00
 -1      2313 7.51500E+01 4.22060E+01 0.00000E+00
 -1      2314 7.89000E+01 4.35050E+01 0.00000E+00
 -1      2315 8.04000E+01 4.35050E+01 0.00000E+00
 -1      2316 7.81500E+01 4.22060E+01 0.00000E+00
 -1      2317 8.19000E+01 4.35050E+01 0.00000E+00
 -1      2318 8.34000E+01 4.35050E+01 0.00000E+00
 -1      2319 8.11500E+01 4.22060E+01 0.00000E+00
 -1      2320 8.49000E+01 4.35050E+01 0.00000E+00
 -1      2321 8.64000E+01 4.35050E+01 0.00000E+00
 -1      2322 8.41500E+01 4.22060E+01 0.00000E+00
 -1      2323 8.79000E+01 4.35050E+01 0.00000E+00
 -1      2324 8.94000E+01 4.35050E+01 0.00000E+00
 -1      2325 8.71500E+01 4.22060E+01 0.00000E+00
 -1      2326 9.09000E+01 4.35050E+01 0.00000E+00
 -1      2327 9.24000E+01 4.35050E+01 0.00000E+00
 -1      2328 9.01500E+01 4.22060E+01 0.00000E+00
 -1      2329 9.39000E+01 4.35050E+01 0.00000E+00
 -1      2330 9.54000E+01 4.35050E+01 0.00000E+00
 -1      2331 9.31500E+01 4.22060E+01 0.00000E+00
 -1      2332 9.69000E+01 4.35050E+01 0.00000E+00
 -1      2333 9.84000E+01 4.35050E+01 0.00000E+00
 -1      2334 9.61500E+01 4.22060E+01 0.00000E+00
 -1      2335 9.99000E+01 4.35050E+01 0.00000E+00
 -1      2336 1.01400E+02 4.35050E+01 0.00000E+00
 -1      2337 9.91500E+01 4.22060E+01 0.00000E+00
 -1      2338 1.02900E+02 4.35050E+01 0.00000E+00
 -1      2339 1.04400E+02 4.35050E+01 0.00000E+00
 -1      2340 1.02150E+02 4.22060E+01 0.00000E+00
 -1      2341 1.05900E+02 4.35050E+01 0.00000E+00
 -1      2342 1.07400E+02 4.35050E+01 0.00000E+00
 -1      2343 1.05150E+02 4.22060E+01 0.00000E+00
 -1      2344 1.08900E+02 4.35050E+01 0.00000E+00
 -1      2345 1.10400E+02 4.35050E+01 0.00000E+00
 -1      2346 1.08150E+02 4.22060E+01 0.00000E+00
 -1      2347 1.11900E+02 4.35050E+01 0.00000E+00
 -1      2348 1.13400E+02 4.35050E+01 0.00000E+00
 -1      2349 1.11150E+02 4.22060E+01 0.00000E+00
 -1      2350 1.14900E+02 4.35050E+01 0.00000E+00
 -1      2351 1.16400E+02 4.35050E+01 0.00000E+00
 -1      2352 1.14150E+02 4.22060E+01 0.00000E+00
 -1      2353 1.17900E+02 4.35050E+01 0.00000E+00
 -1      2354 1.19400E+02 4.35050E+01 0.00000E+00
 -1      2355 1.17150E+02 4.22060E+01 0.00000E+00
 -1      2356 1.20900E+02 4.35050E+01 0.00000E+00
 -1      2357 1.22400E+02 4.35050E+01 0.00000E+00
 -1      2358 1.20150E+02 4.22060E+01 0.00000E+00
 -1      2359 1.23900E+02 4.35050E+01 0.00000E+00
 -1      2360 1.25400E+02 4.35050E+01 0.00000E+00
 -1      2361 1.23150E+02 4.22060E+01 0.00000E+00
 -1      2362 1.26900E+02 4.35050E+01 0.00000E+00
 -1      2363 1.28400E+02 4.35050E+01 0.00000E+00
 -1      2364 1.26150E+02 4.22060E+01 0.00000E+00
 -1      2365 1.29900E+02 4.35050E+01 0.00000E+00
 -1      2366 1.31400E+02 4.35050E+01 0.00000E+00
 -1      2367 1.29150E+02 4.22060E+01 0.00000E+00
 -1      2368 1.32900E+02 4.35050E+01 0.00000E+00
 -1      2369 1.34400E+02 4.35050E+01 0.00000E+00
 -1      2370 1.32150E+02 4.22060E+01 0.00000E+00
 -1      2371 1.35900E+02 4.35050E+01 0.00000E+00
 -1      2372 1.37400E+02 4.35050E+01 0.00000E+00
 -1      2373 1.35150E+02 4.22060E+01 0.00000E+00
 -1      2374 1.38900E+02 4.35050E+01 0.00000E+00
 -1      2375 1.40400E+02 4.35050E+01 0.00000E+00
 -1      2376 1.38150E+02 4.22060E+01 0.00000E+00
 -1      2377 1.97850E+01 5.30525E+00 0.00000E+00
 -1      2378 1.82850E+01 5.30525E+00 0.00000E+00
 -1      2379 2.27850E+01 5.30525E+00 0.00000E+00
 -1      2380 2.12850E+01 5.30525E+00 0.00000E+00
 -1      2381 2.05350E+01 6.60425E+00 0.00000E+00
 -1      2382 2.57850E+01 5.30525E+00 0.00000E+00
 -1      2383 2.42850E+01 5.30525E+00 0.00000E+00
 -1      2384 2.35350E+01 6.60425E+00 0.00000E+00
 -1      2385 2.87850E+01 5.30525E+00 0.00000E+00
 -1      2386 2.72850E+01 5.30525E+00 0.00000E+00
 -1      2387 2.65350E+01 6.60425E+00 0.00000E+00
 -1      2388 3.17850E+01 5.30525E+00 0.00000E+00
 -1      2389 3.02850E+01 5.30525E+00 0.00000E+00
 -1      2390 2.95350E+01 6.60425E+00 0.00000E+00
 -1      2391 3.47850E+01 5.30525E+00 0.00000E+00
 -1      2392 3.32850E+01 5.30525E+00 0.00000E+00
 -1      2393 3.25350E+01 6.60425E+00 0.00000E+00
 -1      2394 3.77850E+01 5.30525E+00 0.00000E+00
 -1      2395 3.62850E+01 5.30525E+00 0.00000E+00
 -1      2396 3.55350E+01 6.60425E+00 0.00000E+00
 -1      2397 4.07850E+01 5.30525E+00 0.00000E+00
 -1      2398 3.92850E+01 5.30525E+00 0.00000E+00
 -1      2399 3.85350E+01 6.60425E+00 0.00000E+00
 -1      2400 4.37850E+01 5.30525E+00 0.00000E+00
 -1      2401 4.22850E+01 5.30525E+00 0.00000E+00
 -1      2402 4.15350E+01 6.60425E+00 0.00000E+00
 -1      2403 4.67850E+01 5.30525E+00 0.00000E+00
 -1      2404 4.52850E+01 5.30525E+00 0.00000E+00
 -1      2405 4.45350E+01 6.60425E+00 0.00000E+00
 -1      2406 4.97850E+01 5.30525E+00 0.00000E+00
 -1      2407 4.82850E+01 5.30525E+00 0.00000E+00
 -1      2408 4.75350E+01 6.60425E+00 0.00000E+00
 -1      2409 5.27850E+01 5.30525E+00 0.00000E+00
 -1      2410 5.12850E+01 5.30525E+00 0.00000E+00
 -1      2411 5.05350E+01 6.60425E+00 0.00000E+00
 -1      2412 5.57850E+01 5.30525E+00 0.00000E+00
 -1      2413 5.42850E+01 5.30525E+00 0.00000E+00
 -1      2414 5.35350E+01 6.60425E+00 0.00000E+00
 -1      2415 5.87850E+01 5.30525E+00 0.00000E+00
 -1      2416 5.72850E+01 5.30525E+00 0.00000E+00
 -1      2417 5.65350E+01 6.60425E+00 0.00000E+00
 -1      2418 6.17850E+01 5.30525E+00 0.00000E+00
 -1      2419 6.02850E+01 5.30525E+00 0.00000E+00
 -1      2420 5.95350E+01 6.60425E+00 0.00000E+00
 -1      2421 6.47850E+01 5.30525E+00 0.00000E+00
 -1      2422 6.32850E+01 5.30525E+00 0.00000E+00
 -1      2423 6.25350E+01 6.60425E+00 0.00000E+00
 -1      2424 6.77850E+01 5.30525E+00 0.00000E+00
 -1      2425 6.62850E+01 5.30525E+00 0.00000E+00
 -1      2426 6.55350E+01 6.60425E+00 0.00000E+00
 -1      2427 7.07850E+01 5.30525E+00 0.00000E+00
 -1      2428 6.92850E+01 5.30525E+00 0.00000E+00
 -1      2429 6.85350E+01 6.60425E+00 0.00000E+00
 -1      2430 7.37850E+01 5.30525E+00 0.00000E+00
 -1      2431 7.22850E+01 5.30525E+00 0.00000E+00
 -1      2432 7.15350E+01 6.60425E+00 0.00000E+00
 -1      2433 7.67850E+01 5.30525E+00 0.00000E+00
 -1      2434 7.52850E+01 5.30525E+00 0.00000E+00
 -1      2435 7.45350E+01 6.60425E+00 0.00000E+00
 -1      2436 7.97850E+01 5.30525E+00 0.00000E+00
 -1      2437 7.82850E+01 5.30525E+00 0.00000E+00
 -1      2438 7.75350E+01 6.60425E+00 0.00000E+00
 -1      2439 8.27850E+01 5.30525E+00 0.00000E+00
 -1      2440 8.12850E+01 5.30525E+00 0.00000E+00
 -1      2441 8.05350E+01 6.60425E+00 0.00000E+00
 -1      2442 8.57850E+01 5.30525E+00 0.00000E+00
 -1      2443 8.42850E+01 5.30525E+00 0.00000E+00
 -1      2444 8.35350E+01 6.60425E+00 0.00000E+00
 -1      2445 8.87850E+01 5.30525E+00 0.00000E+00
 -1      2446 8.72850E+01 5.30525E+00 0.00000E+00
 -1      2447 8.65350E+01 6.60425E+00 0.00000E+00
 -1      2448 9.17850E+01 5.30525E+00 0.00000E+00
 -1      2449 9.02850E+01 5.30525E+00 0.00000E+00
 -1      2450 8.95350E+01 6.60425E+00 0.00000E+00
 -1      2451 9.47850E+01 5.30525E+00 0.00000E+00
 -1      2452 9.32850E+01 5.30525E+00 0.00000E+00
 -1      2453 9.25350E+01 6.60425E+00 0.00000E+00
 -1      2454 9.77850E+01 5.30525E+00 0.00000E+00
 -1      2455 9.62850E+01 5.30525E+00 0.00000E+00
 -1      2456 9.55350E+01 6.60425E+00 0.00000E+00
 -1      2457 1.00785E+02 5.30525E+00 0.00000E+00
 -1      2458 9.92850E+01 5.30525E+00 0.00000E+00
 -1      2459 9.85350E+01 6.60425E+00 0.00000E+00
 -1      2460 1.03785E+02 5.30525E+00 0.00000E+00
 -1      2461 1.02285E+02 5.30525E+00 0.00000E+00
 -1      2462 1.01535E+02 6.60425E+00 0.00000E+00
 -1      2463 1.06785E+02 5.30525E+00 0.00000E+00
 -1      2464 1.05285E+02 5.30525E+00 0.00000E+00
 -1      2465 1.04535E+02 6.60425E+00 0.00000E+00
 -1      2466 1.09785E+02 5.30525E+00 0.00000E+00
 -1      2467 1.08285E+02 5.30525E+00 0.00000E+00
 -1      2468 1.07535E+02 6.60425E+00 0.00000E+00
 -1      2469 1.12785E+02 5.30525E+00 0.00000E+00
 -1      2470 1.11285E+02 5.30525E+00 0.00000E+00
 -1      2471 1.10535E+02 6.60425E+00 0.00000E+00
 -1      2472 1.15785E+02 5.30525E+00 0.00000E+00
 -1      2473 1.14285E+02 5.30525E+00 0.00000E+00
 -1      2474 1.13535E+02 6.60425E+00 0.00000E+00
 -1      2475 1.18785E+02 5.30525E+00 0.00000E+00
 -1      2476 1.17285E+02 5.30525E+00 0.00000E+00
 -1      2477 1.16535E+02 6.60425E+00 0.00000E+00
 -1      2478 1.21785E+02 5.30525E+00 0.00000E+00
 -1      2479 1.20285E+02 5.30525E+00 0.00000E+00
 -1      2480 1.19535E+02 6.60425E+00 0.00000E+00
 -1      2481 1.24785E+02 5.30525E+00 0.00000E+00
 -1      2482 1.23285E+02 5.30525E+00 0.00000E+00
 -1      2483 1.22535E+02 6.60425E+00 0.00000E+00
 -1      2484 1.27785E+02 5.30525E+00 0.00000E+00
 -1      2485 1.26285E+02 5.30525E+00 0.00000E+00
 -1      2486 1.25535E+02 6.60425E+00 0.00000E+00
 -1      2487 1.30785E+02 5.30525E+00 0.00000E+00
 -1      2488 1.29285E+02 5.30525E+00 0.00000E+00
 -1      2489 1.28535E+02 6.60425E+00 0.00000E+00
 -1      2490 1.33785E+02 5.30525E+00 0.00000E+00
 -1      2491 1.32285E+02 5.30525E+00 0.00000E+00
 -1      2492 1.31535E+02 6.60425E+00 0.00000E+00
 -1      2493 1.36785E+02 5.30525E+00 0.00000E+00
 -1      2494 1.35285E+02 5.30525E+00 0.00000E+00
 -1      2495 1.34535E+02 6.60425E+00 0.00000E+00
 -1      2496 1.39785E+02 5.30525E+00 0.00000E+00
 -1      2497 1.38285E+02 5.30525E+00 0.00000E+00
 -1      2498 1.37535E+02 6.60425E+00 0.00000E+00
 -1      2499 1.42785E+02 5.30525E+00 0.00000E+00
 -1      2500 1.41285E+02 5.30525E+00 0.00000E+00
 -1      2501 1.40535E+02 6.60425E+00 0.00000E+00
 -1      2502 1.44336E+02 5.26953E+00 0.00000E+00
 -1      2503 1.43505E+02 1.69125E+01 0.00000E+00
 -1      2504 1.43505E+02 1.54375E+01 0.00000E+00
 -1      2505 1.43505E+02 1.98625E+01 0.00000E+00
 -1      2506 1.43505E+02 1.83875E+01 0.00000E+00
 -1      2507 1.42206E+02 1.76500E+01 0.00000E+00
 -1      2508 1.43505E+02 1.10625E+01 0.00000E+00
 -1      2509 1.43505E+02 9.58750E+00 0.00000E+00
 -1      2510 1.43505E+02 1.39750E+01 0.00000E+00
 -1      2511 1.43505E+02 1.25250E+01 0.00000E+00
 -1      2512 1.42206E+02 1.17875E+01 0.00000E+00
 -1      2513 1.42206E+02 1.47125E+01 0.00000E+00
 -1      2514 1.43505E+02 2.28125E+01 0.00000E+00
 -1      2515 1.43505E+02 2.13375E+01 0.00000E+00
 -1      2516 1.42206E+02 2.06000E+01 0.00000E+00
 -1      2517 1.43505E+02 2.57625E+01 0.00000E+00
 -1      2518 1.43505E+02 2.42875E+01 0.00000E+00
 -1      2519 1.42206E+02 2.35500E+01 0.00000E+00
 -1      2520 1.43505E+02 2.87125E+01 0.00000E+00
 -1      2521 1.43505E+02 2.72375E+01 0.00000E+00
 -1      2522 1.42206E+02 2.65000E+01 0.00000E+00
 -1      2523 1.43505E+02 3.16125E+01 0.00000E+00
 -1      2524 1.43505E+02 3.01625E+01 0.00000E+00
 -1      2525 1.42206E+02 2.94250E+01 0.00000E+00
 -1      2526 1.43505E+02 3.45625E+01 0.00000E+00
 -1      2527 1.43505E+02 3.30875E+01 0.00000E+00
 -1      2528 1.42206E+02 3.23500E+01 0.00000E+00
 -1      2529 1.43505E+02 3.75125E+01 0.00000E+00
 -1      2530 1.43505E+02 3.60375E+01 0.00000E+00
 -1      2531 1.42206E+02 3.53000E+01 0.00000E+00
 -1      2532 1.43505E+02 4.04625E+01 0.00000E+00
 -1      2533 1.43505E+02 3.89875E+01 0.00000E+00
 -1      2534 1.42206E+02 3.82500E+01 0.00000E+00
 -1      2535 1.36689E+02 2.42611E+01 0.00000E+00
 -1      2536 1.36844E+02 2.51509E+01 0.00000E+00
 -1      2537 1.35205E+02 2.01062E+01 0.00000E+00
 -1      2538 1.35790E+02 2.09897E+01 0.00000E+00
 -1      2539 1.67850E+01 5.30525E+00 0.00000E+00
 -1      2540 1.52850E+01 5.30525E+00 0.00000E+00
 -1      2541 1.75350E+01 6.60425E+00 0.00000E+00
 -1      2542 1.44321E+02 4.30606E+01 0.00000E+00
 -1      2543 1.37053E+02 2.62838E+01 0.00000E+00
 -1      2544 1.37045E+02 2.73965E+01 0.00000E+00
 -1      2545 1.36289E+02 2.22116E+01 0.00000E+00
 -1      2546 1.36550E+02 2.32297E+01 0.00000E+00
 -1      2547 6.55950E+00 4.28890E+01 0.00000E+00
 -1      2548 8.53650E+00 4.32410E+01 0.00000E+00
 -1      2549 9.28650E+00 4.19420E+01 0.00000E+00
 -1      2550 6.55950E+00 4.14140E+01 0.00000E+00
 -1      2551 1.36748E+02 2.87609E+01 0.00000E+00
 -1      2552 1.36325E+02 2.96584E+01 0.00000E+00
 -1      2553 1.25199E+02 3.61517E+01 0.00000E+00
 -1      2554 1.24162E+02 3.59036E+01 0.00000E+00
 -1      2555 1.21484E+02 3.49106E+01 0.00000E+00
 -1      2556 1.20741E+02 3.43835E+01 0.00000E+00
 -1      2557 6.49500E+00 2.71625E+01 0.00000E+00
 -1      2558 6.49500E+00 2.86375E+01 0.00000E+00
 -1      2559 7.79400E+00 2.93750E+01 0.00000E+00
 -1      2560 7.79400E+00 2.64250E+01 0.00000E+00
 -1      2561 1.23401E+02 1.59527E+01 0.00000E+00
 -1      2562 1.24335E+02 1.57332E+01 0.00000E+00
 -1      2563 1.28229E+02 1.52302E+01 0.00000E+00
 -1      2564 1.29155E+02 1.54666E+01 0.00000E+00
 -1      2565 1.27510E+02 3.62037E+01 0.00000E+00
 -1      2566 1.26451E+02 3.62116E+01 0.00000E+00
 -1      2567 1.21368E+02 1.67379E+01 0.00000E+00
 -1      2568 1.22279E+02 1.62773E+01 0.00000E+00
 -1      2569 1.19617E+02 1.79319E+01 0.00000E+00
 -1      2570 1.20369E+02 1.73287E+01 0.00000E+00
 -1      2571 1.16986E+02 2.15331E+01 0.00000E+00
 -1      2572 1.17532E+02 2.07222E+01 0.00000E+00
 -1      2573 1.16362E+02 2.38083E+01 0.00000E+00
 -1      2574 1.16459E+02 2.27834E+01 0.00000E+00
 -1      2575 1.15824E+02 2.58187E+01 0.00000E+00
 -1      2576 1.16093E+02 2.48135E+01 0.00000E+00
 -1      2577 1.15329E+02 2.42246E+01 0.00000E+00
 -1      2578 1.16362E+02 2.84096E+01 0.00000E+00
 -1      2579 1.15928E+02 2.73042E+01 0.00000E+00
 -1      2580 1.16925E+02 3.02008E+01 0.00000E+00
 -1      2581 1.16644E+02 2.93052E+01 0.00000E+00
 -1      2582 1.15550E+02 2.90963E+01 0.00000E+00
 -1      2583 1.18369E+02 3.22180E+01 0.00000E+00
 -1      2584 1.17717E+02 3.13143E+01 0.00000E+00
 -1      2585 1.19994E+02 3.37477E+01 0.00000E+00
 -1      2586 1.19246E+02 3.31120E+01 0.00000E+00
 -1      2587 1.19918E+02 3.46425E+01 0.00000E+00
 -1      2588 1.23392E+02 3.57023E+01 0.00000E+00
 -1      2589 1.22622E+02 3.55010E+01 0.00000E+00
 -1      2590 1.23711E+02 3.66603E+01 0.00000E+00
 -1      2591 1.33300E+02 3.35825E+01 0.00000E+00
 -1      2592 1.32574E+02 3.42803E+01 0.00000E+00
 -1      2593 1.29462E+02 3.57877E+01 0.00000E+00
 -1      2594 1.28664E+02 3.60386E+01 0.00000E+00
 -1      2595 1.31452E+02 3.49706E+01 0.00000E+00
 -1      2596 1.30443E+02 3.54122E+01 0.00000E+00
 -1      2597 1.34633E+02 3.21258E+01 0.00000E+00
 -1      2598 1.34052E+02 3.28345E+01 0.00000E+00
 -1      2599 1.35711E+02 3.06393E+01 0.00000E+00
 -1      2600 1.35172E+02 3.13825E+01 0.00000E+00
 -1      2601 1.35545E+02 3.22803E+01 0.00000E+00
 -1      2602 1.30139E+02 1.60894E+01 0.00000E+00
 -1      2603 1.31021E+02 1.65093E+01 0.00000E+00
 -1      2604 8.07525E+00 5.11044E+00 0.00000E+00
 -1      2605 6.57525E+00 5.11044E+00 0.00000E+00
 -1      2606 6.40575E+00 6.01981E+00 0.00000E+00
 -1      2607 8.82525E+00 6.40944E+00 0.00000E+00
 -1      2608 1.34114E+02 1.85931E+01 0.00000E+00
 -1      2609 1.34659E+02 1.93497E+01 0.00000E+00
 -1      2610 1.35667E+02 1.93177E+01 0.00000E+00
 -1      2611 1.24348E+02 1.45188E+01 0.00000E+00
 -1      2612 1.24982E+02 1.51215E+01 0.00000E+00
 -1      2613 1.25630E+02 1.45098E+01 0.00000E+00
 -1      2614 7.79400E+00 3.52687E+01 0.00000E+00
 -1      2615 6.49500E+00 3.60062E+01 0.00000E+00
 -1      2616 6.49500E+00 3.74750E+01 0.00000E+00
 -1      2617 1.45350E+01 6.60425E+00 0.00000E+00
 -1      2618 6.40575E+00 7.49481E+00 0.00000E+00
 -1      2619 1.34067E+02 1.75596E+01 0.00000E+00
 -1      2620 1.35075E+02 1.75276E+01 0.00000E+00
 -1      2621 1.34020E+02 1.65260E+01 0.00000E+00
 -1      2622 1.37610E+02 2.82108E+01 0.00000E+00
 -1      2623 1.36698E+02 3.05562E+01 0.00000E+00
 -1      2624 1.31962E+02 1.60793E+01 0.00000E+00
 -1      2625 1.43586E+02 6.56853E+00 0.00000E+00
 -1      2626 1.43419E+02 7.72713E+00 0.00000E+00
 -1      2627 1.32380E+02 3.52099E+01 0.00000E+00
 -1      2628 1.37697E+02 2.57135E+01 0.00000E+00
 -1      2629 1.37349E+02 2.35493E+01 0.00000E+00
 -1      2630 1.36711E+02 2.12961E+01 0.00000E+00
 -1      2631 1.30277E+02 3.62757E+01 0.00000E+00
 -1      2632 7.70475E+00 8.23231E+00 0.00000E+00
 -1      2633 1.16624E+02 3.11054E+01 0.00000E+00
 -1      2634 1.25734E+02 3.69215E+01 0.00000E+00
 -1      2635 1.15164E+02 2.67152E+01 0.00000E+00
 -1      2636 1.14401E+02 2.61263E+01 0.00000E+00
 -1      2637 1.14505E+02 2.76118E+01 0.00000E+00
 -1      2638 1.16125E+02 2.19690E+01 0.00000E+00
 -1      2639 1.15791E+02 2.11546E+01 0.00000E+00
 -1      2640 1.15265E+02 2.24050E+01 0.00000E+00
 -1      2641 1.18836E+02 1.80289E+01 0.00000E+00
 -1      2642 1.21803E+02 3.58686E+01 0.00000E+00
 -1      2643 1.20456E+02 1.63706E+01 0.00000E+00
 -1      2644 1.28141E+02 3.68163E+01 0.00000E+00
 -1      2645 6.55950E+00 3.99453E+01 0.00000E+00
 -1      2646 1.17434E+02 1.99076E+01 0.00000E+00
 -1      2647 1.27605E+02 1.47338E+01 0.00000E+00
 -1      2648 1.28322E+02 1.38587E+01 0.00000E+00
 -1      2649 1.26981E+02 1.42374E+01 0.00000E+00
 -1      2650 1.29929E+02 1.49778E+01 0.00000E+00
 -1      2651 1.22578E+02 1.54551E+01 0.00000E+00
 -1      2652 1.18293E+02 3.31128E+01 0.00000E+00
 -1      2653 1.34254E+02 3.37716E+01 0.00000E+00
 -1      2654 1.42758E+02 4.35929E+01 0.00000E+00
 -1      2655 1.43241E+02 4.17323E+01 0.00000E+00
 -1      2656 1.41942E+02 4.09948E+01 0.00000E+00
 -1      2657 1.41414E+02 4.35342E+01 0.00000E+00
 -1      2658 1.42120E+02 8.46463E+00 0.00000E+00
 -1      2659 1.40664E+02 4.22352E+01 0.00000E+00
 -1      2660 9.09300E+00 1.98250E+01 0.00000E+00
 -1      2661 9.09300E+00 2.12750E+01 0.00000E+00
 -1      2662 9.09300E+00 2.27500E+01 0.00000E+00
 -1      2663 9.09300E+00 2.42250E+01 0.00000E+00
 -1      2664 1.03920E+01 2.20250E+01 0.00000E+00
 -1      2665 9.09300E+00 1.39375E+01 0.00000E+00
 -1      2666 9.09300E+00 1.54125E+01 0.00000E+00
 -1      2667 9.09300E+00 1.09875E+01 0.00000E+00
 -1      2668 9.09300E+00 1.24625E+01 0.00000E+00
 -1      2669 1.03920E+01 1.32000E+01 0.00000E+00
 -1      2670 1.22850E+01 7.90325E+00 0.00000E+00
 -1      2671 1.07850E+01 7.90325E+00 0.00000E+00
 -1      2672 1.16184E+02 3.22561E+01 0.00000E+00
 -1      2673 1.15393E+02 3.11426E+01 0.00000E+00
 -1      2674 1.38596E+02 2.77112E+01 0.00000E+00
 -1      2675 1.38299E+02 2.90756E+01 0.00000E+00
 -1      2676 8.91450E+00 8.42712E+00 0.00000E+00
 -1      2677 1.37697E+02 3.04985E+01 0.00000E+00
 -1      2678 1.37082E+02 3.14795E+01 0.00000E+00
 -1      2679 1.44000E+01 4.09070E+01 0.00000E+00
 -1      2680 1.59000E+01 4.09070E+01 0.00000E+00
 -1      2681 1.74000E+01 4.09070E+01 0.00000E+00
 -1      2682 1.89000E+01 4.09070E+01 0.00000E+00
 -1      2683 1.66500E+01 3.96080E+01 0.00000E+00
 -1      2684 2.04000E+01 4.09070E+01 0.00000E+00
 -1      2685 2.19000E+01 4.09070E+01 0.00000E+00
 -1      2686 1.96500E+01 3.96080E+01 0.00000E+00
 -1      2687 2.34000E+01 4.09070E+01 0.00000E+00
 -1      2688 2.49000E+01 4.09070E+01 0.00000E+00
 -1      2689 2.26500E+01 3.96080E+01 0.00000E+00
 -1      2690 2.64000E+01 4.09070E+01 0.00000E+00
 -1      2691 2.79000E+01 4.09070E+01 0.00000E+00
 -1      2692 2.56500E+01 3.96080E+01 0.00000E+00
 -1      2693 2.94000E+01 4.09070E+01 0.00000E+00
 -1      2694 3.09000E+01 4.09070E+01 0.00000E+00
 -1      2695 2.86500E+01 3.96080E+01 0.00000E+00
 -1      2696 3.24000E+01 4.09070E+01 0.00000E+00
 -1      2697 3.39000E+01 4.09070E+01 0.00000E+00
 -1      2698 3.16500E+01 3.96080E+01 0.00000E+00
 -1      2699 3.54000E+01 4.09070E+01 0.00000E+00
 -1      2700 3.69000E+01 4.09070E+01 0.00000E+00
 -1      2701 3.46500E+01 3.96080E+01 0.00000E+00
 -1      2702 3.84000E+01 4.09070E+01 0.00000E+00
 -1      2703 3.99000E+01 4.09070E+01 0.00000E+00
 -1      2704 3.76500E+01 3.96080E+01 0.00000E+00
 -1      2705 4.14000E+01 4.09070E+01 0.00000E+00
 -1      2706 4.29000E+01 4.09070E+01 0.00000E+00
 -1      2707 4.06500E+01 3.96080E+01 0.00000E+00
 -1      2708 4.44000E+01 4.09070E+01 0.00000E+00
 -1      2709 4.59000E+01 4.09070E+01 0.00000E+00
 -1      2710 4.36500E+01 3.96080E+01 0.00000E+00
 -1      2711 4.74000E+01 4.09070E+01 0.00000E+00
 -1      2712 4.89000E+01 4.09070E+01 0.00000E+00
 -1      2713 4.66500E+01 3.96080E+01 0.00000E+00
 -1      2714 5.04000E+01 4.09070E+01 0.00000E+00
 -1      2715 5.19000E+01 4.09070E+01 0.00000E+00
 -1      2716 4.96500E+01 3.96080E+01 0.00000E+00
 -1      2717 5.34000E+01 4.09070E+01 0.00000E+00
 -1      2718 5.49000E+01 4.09070E+01 0.00000E+00
 -1      2719 5.26500E+01 3.96080E+01 0.00000E+00
 -1      2720 5.64000E+01 4.09070E+01 0.00000E+00
 -1      2721 5.79000E+01 4.09070E+01 0.00000E+00
 -1      2722 5.56500E+01 3.96080E+01 0.00000E+00
 -1      2723 5.94000E+01 4.09070E+01 0.00000E+00
 -1      2724 6.09000E+01 4.09070E+01 0.00000E+00
 -1      2725 5.86500E+01 3.96080E+01 0.00000E+00
 -1      2726 6.24000E+01 4.09070E+01 0.00000E+00
 -1      2727 6.39000E+01 4.09070E+01 0.00000E+00
 -1      2728 6.16500E+01 3.96080E+01 0.00000E+00
 -1      2729 6.54000E+01 4.09070E+01 0.00000E+00
 -1      2730 6.69000E+01 4.09070E+01 0.00000E+00
 -1      2731 6.46500E+01 3.96080E+01 0.00000E+00
 -1      2732 6.84000E+01 4.09070E+01 0.00000E+00
 -1      2733 6.99000E+01 4.09070E+01 0.00000E+00
 -1      2734 6.76500E+01 3.96080E+01 0.00000E+00
 -1      2735 7.14000E+01 4.09070E+01 0.00000E+00
 -1      2736 7.29000E+01 4.09070E+01 0.00000E+00
 -1      2737 7.06500E+01 3.96080E+01 0.00000E+00
 -1      2738 7.44000E+01 4.09070E+01 0.00000E+00
 -1      2739 7.59000E+01 4.09070E+01 0.00000E+00
 -1      2740 7.36500E+01 3.96080E+01 0.00000E+00
 -1      2741 7.74000E+01 4.09070E+01 0.00000E+00
 -1      2742 7.89000E+01 4.09070E+01 0.00000E+00
 -1      2743 7.66500E+01 3.96080E+01 0.00000E+00
 -1      2744 8.04000E+01 4.09070E+01 0.00000E+00
 -1      2745 8.19000E+01 4.09070E+01 0.00000E+00
 -1      2746 7.96500E+01 3.96080E+01 0.00000E+00
 -1      2747 8.34000E+01 4.09070E+01 0.00000E+00
 -1      2748 8.49000E+01 4.09070E+01 0.00000E+00
 -1      2749 8.26500E+01 3.96080E+01 0.00000E+00
 -1      2750 8.64000E+01 4.09070E+01 0.00000E+00
 -1      2751 8.79000E+01 4.09070E+01 0.00000E+00
 -1      2752 8.56500E+01 3.96080E+01 0.00000E+00
 -1      2753 8.94000E+01 4.09070E+01 0.00000E+00
 -1      2754 9.09000E+01 4.09070E+01 0.00000E+00
 -1      2755 8.86500E+01 3.96080E+01 0.00000E+00
 -1      2756 9.24000E+01 4.09070E+01 0.00000E+00
 -1      2757 9.39000E+01 4.09070E+01 0.00000E+00
 -1      2758 9.16500E+01 3.96080E+01 0.00000E+00
 -1      2759 9.54000E+01 4.09070E+01 0.00000E+00
 -1      2760 9.69000E+01 4.09070E+01 0.00000E+00
 -1      2761 9.46500E+01 3.96080E+01 0.00000E+00
 -1      2762 9.84000E+01 4.09070E+01 0.00000E+00
 -1      2763 9.99000E+01 4.09070E+01 0.00000E+00
 -1      2764 9.76500E+01 3.96080E+01 0.00000E+00
 -1      2765 1.01400E+02 4.09070E+01 0.00000E+00
 -1      2766 1.02900E+02 4.09070E+01 0.00000E+00
 -1      2767 1.00650E+02 3.96080E+01 0.00000E+00
 -1      2768 1.04400E+02 4.09070E+01 0.00000E+00
 -1      2769 1.05900E+02 4.09070E+01 0.00000E+00
 -1      2770 1.03650E+02 3.96080E+01 0.00000E+00
 -1      2771 1.07400E+02 4.09070E+01 0.00000E+00
 -1      2772 1.08900E+02 4.09070E+01 0.00000E+00
 -1      2773 1.06650E+02 3.96080E+01 0.00000E+00
 -1      2774 1.10400E+02 4.09070E+01 0.00000E+00
 -1      2775 1.11900E+02 4.09070E+01 0.00000E+00
 -1      2776 1.09650E+02 3.96080E+01 0.00000E+00
 -1      2777 1.13400E+02 4.09070E+01 0.00000E+00
 -1      2778 1.14900E+02 4.09070E+01 0.00000E+00
 -1      2779 1.12650E+02 3.96080E+01 0.00000E+00
 -1      2780 1.16400E+02 4.09070E+01 0.00000E+00
 -1      2781 1.17900E+02 4.09070E+01 0.00000E+00
 -1      2782 1.15650E+02 3.96080E+01 0.00000E+00
 -1      2783 1.19400E+02 4.09070E+01 0.00000E+00
 -1      2784 1.20900E+02 4.09070E+01 0.00000E+00
 -1      2785 1.18650E+02 3.96080E+01 0.00000E+00
 -1      2786 1.22400E+02 4.09070E+01 0.00000E+00
 -1      2787 1.23900E+02 4.09070E+01 0.00000E+00
 -1      2788 1.21650E+02 3.96080E+01 0.00000E+00
 -1      2789 1.25400E+02 4.09070E+01 0.00000E+00
 -1      2790 1.26900E+02 4.09070E+01 0.00000E+00
 -1      2791 1.24650E+02 3.96080E+01 0.00000E+00
 -1      2792 1.28400E+02 4.09070E+01 0.00000E+00
 -1      2793 1.29900E+02 4.09070E+01 0.00000E+00
 -1      2794 1.27650E+02 3.96080E+01 0.00000E+00
 -1      2795 1.31400E+02 4.09070E+01 0.00000E+00
 -1      2796 1.32900E+02 4.09070E+01 0.00000E+00
 -1      2797 1.30650E+02 3.96080E+01 0.00000E+00
 -1      2798 1.34400E+02 4.09070E+01 0.00000E+00
 -1      2799 1.35900E+02 4.09070E+01 0.00000E+00
 -1      2800 1.33650E+02 3.96080E+01 0.00000E+00
 -1      2801 1.37400E+02 4.09070E+01 0.00000E+00
 -1      2802 1.38900E+02 4.09070E+01 0.00000E+00
 -1      2803 1.36650E+02 3.96080E+01 0.00000E+00
 -1      2804 2.42850E+01 7.90325E+00 0.00000E+00
 -1      2805 2.27850E+01 7.90325E+00 0.00000E+00
 -1      2806 1.40706E+02 1.03250E+01 0.00000E+00
 -1      2807 1.40620E+02 8.46463E+00 0.00000E+00
 -1      2808 1.39120E+02 8.46463E+00 0.00000E+00
 -1      2809 2.12850E+01 7.90325E+00 0.00000E+00
 -1      2810 1.97850E+01 7.90325E+00 0.00000E+00
 -1      2811 2.20350E+01 9.20225E+00 0.00000E+00
 -1      2812 3.02850E+01 7.90325E+00 0.00000E+00
 -1      2813 2.87850E+01 7.90325E+00 0.00000E+00
 -1      2814 3.32850E+01 7.90325E+00 0.00000E+00
 -1      2815 3.17850E+01 7.90325E+00 0.00000E+00
 -1      2816 3.10350E+01 9.20225E+00 0.00000E+00
 -1      2817 3.62850E+01 7.90325E+00 0.00000E+00
 -1      2818 3.47850E+01 7.90325E+00 0.00000E+00
 -1      2819 3.40350E+01 9.20225E+00 0.00000E+00
 -1      2820 3.92850E+01 7.90325E+00 0.00000E+00
 -1      2821 3.77850E+01 7.90325E+00 0.00000E+00
 -1      2822 3.70350E+01 9.20225E+00 0.00000E+00
 -1      2823 4.22850E+01 7.90325E+00 0.00000E+00
 -1      2824 4.07850E+01 7.90325E+00 0.00000E+00
 -1      2825 4.00350E+01 9.20225E+00 0.00000E+00
 -1      2826 4.52850E+01 7.90325E+00 0.00000E+00
 -1      2827 4.37850E+01 7.90325E+00 0.00000E+00
 -1      2828 4.30350E+01 9.20225E+00 0.00000E+00
 -1      2829 4.82850E+01 7.90325E+00 0.00000E+00
 -1      2830 4.67850E+01 7.90325E+00 0.00000E+00
 -1      2831 4.60350E+01 9.20225E+00 0.00000E+00
 -1      2832 5.12850E+01 7.90325E+00 0.00000E+00
 -1      2833 4.97850E+01 7.90325E+00 0.00000E+00
 -1      2834 4.90350E+01 9.20225E+00 0.00000E+00
 -1      2835 5.42850E+01 7.90325E+00 0.00000E+00
 -1      2836 5.27850E+01 7.90325E+00 0.00000E+00
 -1      2837 5.20350E+01 9.20225E+00 0.00000E+00
 -1      2838 5.72850E+01 7.90325E+00 0.00000E+00
 -1      2839 5.57850E+01 7.90325E+00 0.00000E+00
 -1      2840 5.50350E+01 9.20225E+00 0.00000E+00
 -1      2841 6.02850E+01 7.90325E+00 0.00000E+00
 -1      2842 5.87850E+01 7.90325E+00 0.00000E+00
 -1      2843 5.80350E+01 9.20225E+00 0.00000E+00
 -1      2844 6.32850E+01 7.90325E+00 0.00000E+00
 -1      2845 6.17850E+01 7.90325E+00 0.00000E+00
 -1      2846 6.10350E+01 9.20225E+00 0.00000E+00
 -1      2847 6.62850E+01 7.90325E+00 0.00000E+00
 -1      2848 6.47850E+01 7.90325E+00 0.00000E+00
 -1      2849 6.40350E+01 9.20225E+00 0.00000E+00
 -1      2850 6.92850E+01 7.90325E+00 0.00000E+00
 -1      2851 6.77850E+01 7.90325E+00 0.00000E+00
 -1      2852 6.70350E+01 9.20225E+00 0.00000E+00
 -1      2853 7.22850E+01 7.90325E+00 0.00000E+00
 -1      2854 7.07850E+01 7.90325E+00 0.00000E+00
 -1      2855 7.00350E+01 9.20225E+00 0.00000E+00
 -1      2856 7.52850E+01 7.90325E+00 0.00000E+00
 -1      2857 7.37850E+01 7.90325E+00 0.00000E+00
 -1      2858 7.30350E+01 9.20225E+00 0.00000E+00
 -1      2859 7.82850E+01 7.90325E+00 0.00000E+00
 -1      2860 7.67850E+01 7.90325E+00 0.00000E+00
 -1      2861 7.60350E+01 9.20225E+00 0.00000E+00
 -1      2862 8.12850E+01 7.90325E+00 0.00000E+00
 -1      2863 7.97850E+01 7.90325E+00 0.00000E+00
 -1      2864 7.90350E+01 9.20225E+00 0.00000E+00
 -1      2865 8.42850E+01 7.90325E+00 0.00000E+00
 -1      2866 8.27850E+01 7.90325E+00 0.00000E+00
 -1      2867 8.20350E+01 9.20225E+00 0.00000E+00
 -1      2868 8.72850E+01 7.90325E+00 0.00000E+00
 -1      2869 8.57850E+01 7.90325E+00 0.00000E+00
 -1      2870 8.50350E+01 9.20225E+00 0.00000E+00
 -1      2871 9.02850E+01 7.90325E+00 0.00000E+00
 -1      2872 8.87850E+01 7.90325E+00 0.00000E+00
 -1      2873 8.80350E+01 9.20225E+00 0.00000E+00
 -1      2874 9.32850E+01 7.90325E+00 0.00000E+00
 -1      2875 9.17850E+01 7.90325E+00 0.00000E+00
 -1      2876 9.10350E+01 9.20225E+00 0.00000E+00
 -1      2877 9.62850E+01 7.90325E+00 0.00000E+00
 -1      2878 9.47850E+01 7.90325E+00 0.00000E+00
 -1      2879 9.40350E+01 9.20225E+00 0.00000E+00
 -1      2880 9.92850E+01 7.90325E+00 0.00000E+00
 -1      2881 9.77850E+01 7.90325E+00 0.00000E+00
 -1      2882 9.70350E+01 9.20225E+00 0.00000E+00
 -1      2883 1.02285E+02 7.90325E+00 0.00000E+00
 -1      2884 1.00785E+02 7.90325E+00 0.00000E+00
 -1      2885 1.00035E+02 9.20225E+00 0.00000E+00
 -1      2886 1.05285E+02 7.90325E+00 0.00000E+00
 -1      2887 1.03785E+02 7.90325E+00 0.00000E+00
 -1      2888 1.03035E+02 9.20225E+00 0.00000E+00
 -1      2889 1.08285E+02 7.90325E+00 0.00000E+00
 -1      2890 1.06785E+02 7.90325E+00 0.00000E+00
 -1      2891 1.06035E+02 9.20225E+00 0.00000E+00
 -1      2892 1.11285E+02 7.90325E+00 0.00000E+00
 -1      2893 1.09785E+02 7.90325E+00 0.00000E+00
 -1      2894 1.09035E+02 9.20225E+00 0.00000E+00
 -1      2895 1.14285E+02 7.90325E+00 0.00000E+00
 -1      2896 1.12785E+02 7.90325E+00 0.00000E+00
 -1      2897 1.12035E+02 9.20225E+00 0.00000E+00
 -1      2898 1.17285E+02 7.90325E+00 0.00000E+00
 -1      2899 1.15785E+02 7.90325E+00 0.00000E+00
 -1      2900 1.15035E+02 9.20225E+00 0.00000E+00
 -1      2901 1.20285E+02 7.90325E+00 0.00000E+00
 -1      2902 1.18785E+02 7.90325E+00 0.00000E+00
 -1      2903 1.18035E+02 9.20225E+00 0.00000E+00
 -1      2904 1.23285E+02 7.90325E+00 0.00000E+00
 -1      2905 1.21785E+02 7.90325E+00 0.00000E+00
 -1      2906 1.21035E+02 9.20225E+00 0.00000E+00
 -1      2907 1.26285E+02 7.90325E+00 0.00000E+00
 -1      2908 1.24785E+02 7.90325E+00 0.00000E+00
 -1      2909 1.24035E+02 9.20225E+00 0.00000E+00
 -1      2910 1.29285E+02 7.90325E+00 0.00000E+00
 -1      2911 1.27785E+02 7.90325E+00 0.00000E+00
 -1      2912 1.27035E+02 9.20225E+00 0.00000E+00
 -1      2913 1.32285E+02 7.90325E+00 0.00000E+00
 -1      2914 1.30785E+02 7.90325E+00 0.00000E+00
 -1      2915 1.30035E+02 9.20225E+00 0.00000E+00
 -1      2916 1.35285E+02 7.90325E+00 0.00000E+00
 -1      2917 1.33785E+02 7.90325E+00 0.00000E+00
 -1      2918 1.33035E+02 9.20225E+00 0.00000E+00
 -1      2919 1.37953E+02 8.18394E+00 0.00000E+00
 -1      2920 1.36453E+02 8.18394E+00 0.00000E+00
 -1      2921 1.35703E+02 9.48294E+00 0.00000E+00
 -1      2922 1.38038E+02 1.00443E+01 0.00000E+00
 -1      2923 1.41181E+02 2.42875E+01 0.00000E+00
 -1      2924 1.41181E+02 2.28125E+01 0.00000E+00
 -1      2925 1.39914E+02 4.09362E+01 0.00000E+00
 -1      2926 1.40928E+02 4.09655E+01 0.00000E+00
 -1      2927 1.39164E+02 3.96372E+01 0.00000E+00
 -1      2928 1.40907E+02 1.83875E+01 0.00000E+00
 -1      2929 1.40907E+02 1.69125E+01 0.00000E+00
 -1      2930 1.41013E+02 2.72375E+01 0.00000E+00
 -1      2931 1.41013E+02 2.57625E+01 0.00000E+00
 -1      2932 1.41044E+02 2.13375E+01 0.00000E+00
 -1      2933 1.41044E+02 1.98625E+01 0.00000E+00
 -1      2934 1.39745E+02 1.91250E+01 0.00000E+00
 -1      2935 1.40019E+02 2.20750E+01 0.00000E+00
 -1      2936 1.40746E+02 2.97255E+01 0.00000E+00
 -1      2937 1.40746E+02 2.82755E+01 0.00000E+00
 -1      2938 1.41013E+02 3.30875E+01 0.00000E+00
 -1      2939 1.41013E+02 3.16125E+01 0.00000E+00
 -1      2940 1.41013E+02 3.60375E+01 0.00000E+00
 -1      2941 1.41013E+02 3.45625E+01 0.00000E+00
 -1      2942 1.39821E+02 3.38250E+01 0.00000E+00
 -1      2943 1.19627E+02 3.57412E+01 0.00000E+00
 -1      2944 1.18880E+02 3.51054E+01 0.00000E+00
 -1      2945 1.31134E+02 3.70454E+01 0.00000E+00
 -1      2946 1.30152E+02 3.74209E+01 0.00000E+00
 -1      2947 1.37333E+02 2.03294E+01 0.00000E+00
 -1      2948 1.37832E+02 2.15513E+01 0.00000E+00
 -1      2949 8.85168E+00 4.05347E+01 0.00000E+00
 -1      2950 1.02152E+01 4.07987E+01 0.00000E+00
 -1      2951 1.19477E+02 1.58556E+01 0.00000E+00
 -1      2952 1.20476E+02 1.52648E+01 0.00000E+00
 -1      2953 1.82850E+01 7.90325E+00 0.00000E+00
 -1      2954 1.67850E+01 7.90325E+00 0.00000E+00
 -1      2955 1.90350E+01 9.20225E+00 0.00000E+00
 -1      2956 2.72850E+01 7.90325E+00 0.00000E+00
 -1      2957 2.57850E+01 7.90325E+00 0.00000E+00
 -1      2958 2.50350E+01 9.20225E+00 0.00000E+00
 -1      2959 2.80350E+01 9.20225E+00 0.00000E+00
 -1      2960 1.15576E+01 4.08528E+01 0.00000E+00
 -1      2961 1.30576E+01 4.08528E+01 0.00000E+00
 -1      2962 1.38076E+01 3.95538E+01 0.00000E+00
 -1      2963 1.11228E+01 3.94455E+01 0.00000E+00
 -1      2964 1.33378E+02 3.56647E+01 0.00000E+00
 -1      2965 1.32256E+02 3.63551E+01 0.00000E+00
 -1      2966 1.32132E+02 3.75002E+01 0.00000E+00
 -1      2967 1.52850E+01 7.90325E+00 0.00000E+00
 -1      2968 1.37850E+01 7.90325E+00 0.00000E+00
 -1      2969 1.30350E+01 9.20225E+00 0.00000E+00
 -1      2970 1.60350E+01 9.20225E+00 0.00000E+00
 -1      2971 1.31828E+02 1.49834E+01 0.00000E+00
 -1      2972 1.32878E+02 1.54621E+01 0.00000E+00
 -1      2973 1.16456E+02 1.97468E+01 0.00000E+00
 -1      2974 1.17238E+02 1.89358E+01 0.00000E+00
 -1      2975 9.09300E+00 1.68813E+01 0.00000E+00
 -1      2976 9.09300E+00 1.83563E+01 0.00000E+00
 -1      2977 1.03920E+01 1.90812E+01 0.00000E+00
 -1      2978 1.03920E+01 1.61437E+01 0.00000E+00
 -1      2979 9.09300E+00 3.15875E+01 0.00000E+00
 -1      2980 9.09300E+00 3.30625E+01 0.00000E+00
 -1      2981 1.29861E+02 1.37379E+01 0.00000E+00
 -1      2982 1.30844E+02 1.43606E+01 0.00000E+00
 -1      2983 1.31760E+02 1.37434E+01 0.00000E+00
 -1      2984 1.21900E+02 3.70737E+01 0.00000E+00
 -1      2985 1.20762E+02 3.64833E+01 0.00000E+00
 -1      2986 1.17858E+02 1.78682E+01 0.00000E+00
 -1      2987 1.18478E+02 1.68006E+01 0.00000E+00
 -1      2988 1.16880E+02 1.77074E+01 0.00000E+00
 -1      2989 1.14447E+02 2.45269E+01 0.00000E+00
 -1      2990 1.14717E+02 2.35217E+01 0.00000E+00
 -1      2991 1.26568E+02 3.82947E+01 0.00000E+00
 -1      2992 1.25315E+02 3.82348E+01 0.00000E+00
 -1      2993 1.14873E+02 2.98015E+01 0.00000E+00
 -1      2994 1.14592E+02 2.89059E+01 0.00000E+00
 -1      2995 1.35235E+02 3.40054E+01 0.00000E+00
 -1      2996 1.34483E+02 3.47534E+01 0.00000E+00
 -1      2997 1.23879E+02 3.75907E+01 0.00000E+00
 -1      2998 1.23109E+02 3.73894E+01 0.00000E+00
 -1      2999 1.18002E+02 3.42114E+01 0.00000E+00
 -1      3000 1.17125E+02 3.33175E+01 0.00000E+00
 -1      3001 1.17712E+02 3.53101E+01 0.00000E+00
 -1      3002 7.48818E+00 3.88019E+01 0.00000E+00
 -1      3003 1.36294E+02 1.82909E+01 0.00000E+00
 -1      3004 1.36839E+02 1.90474E+01 0.00000E+00
 -1      3005 1.41192E+02 3.96958E+01 0.00000E+00
 -1      3006 1.36428E+02 3.23708E+01 0.00000E+00
 -1      3007 1.35889E+02 3.31141E+01 0.00000E+00
 -1      3008 1.36118E+02 3.40959E+01 0.00000E+00
 -1      3009 1.37427E+02 3.23132E+01 0.00000E+00
 -1      3010 1.21778E+02 1.47936E+01 0.00000E+00
 -1      3011 1.22901E+02 1.44690E+01 0.00000E+00
 -1      3012 9.09300E+00 3.45313E+01 0.00000E+00
 -1      3013 9.09300E+00 3.60000E+01 0.00000E+00
 -1      3014 1.03920E+01 3.37938E+01 0.00000E+00
 -1      3015 1.03920E+01 2.49750E+01 0.00000E+00
 -1      3016 9.09300E+00 2.57000E+01 0.00000E+00
 -1      3017 9.09300E+00 2.71750E+01 0.00000E+00
 -1      3018 1.19724E+02 3.69463E+01 0.00000E+00
 -1      3019 1.14434E+02 3.09522E+01 0.00000E+00
 -1      3020 1.33886E+02 1.54301E+01 0.00000E+00
 -1      3021 1.34893E+02 1.53981E+01 0.00000E+00
 -1      3022 1.33751E+02 1.43342E+01 0.00000E+00
 -1      3023 9.66450E+00 9.72612E+00 0.00000E+00
 -1      3024 1.39608E+02 1.61875E+01 0.00000E+00
 -1      3025 1.40907E+02 1.54500E+01 0.00000E+00
 -1      3026 1.40907E+02 1.39875E+01 0.00000E+00
 -1      3027 1.39988E+02 2.50250E+01 0.00000E+00
 -1      3028 1.39553E+02 3.04630E+01 0.00000E+00
 -1      3029 1.40706E+02 1.17875E+01 0.00000E+00
 -1      3030 8.78718E+00 3.80644E+01 0.00000E+00
 -1      3031 1.26347E+02 1.36347E+01 0.00000E+00
 -1      3032 1.41192E+02 3.82207E+01 0.00000E+00
 -1      3033 1.20800E+02 1.42786E+01 0.00000E+00
 -1      3034 1.09635E+01 1.04636E+01 0.00000E+00
 -1      3035 1.18499E+02 1.56948E+01 0.00000E+00
 -1      3036 1.37960E+02 1.93027E+01 0.00000E+00
 -1      3037 1.38129E+02 2.29192E+01 0.00000E+00
 -1      3038 1.38268E+02 2.39506E+01 0.00000E+00
 -1      3039 1.13828E+02 2.83170E+01 0.00000E+00
 -1      3040 1.38654E+02 2.55404E+01 0.00000E+00
 -1      3041 1.38864E+02 2.66732E+01 0.00000E+00
 -1      3042 1.14383E+02 2.27073E+01 0.00000E+00
 -1      3043 1.14735E+02 2.06187E+01 0.00000E+00
 -1      3044 1.15596E+02 2.01828E+01 0.00000E+00
 -1      3045 1.15400E+02 1.92109E+01 0.00000E+00
 -1      3046 1.39999E+02 3.74832E+01 0.00000E+00
 -1      3047 9.09300E+00 2.86437E+01 0.00000E+00
 -1      3048 9.09300E+00 3.01187E+01 0.00000E+00
 -1      3049 1.03920E+01 3.08563E+01 0.00000E+00
 -1      3050 1.03920E+01 2.79188E+01 0.00000E+00
 -1      3051 1.29237E+02 1.32416E+01 0.00000E+00
 -1      3052 1.30153E+02 1.26244E+01 0.00000E+00
 -1      3053 1.28613E+02 1.27452E+01 0.00000E+00
 -1      3054 1.13128E+02 2.63200E+01 0.00000E+00
 -1      3055 1.13788E+02 2.54234E+01 0.00000E+00
 -1      3056 1.13175E+02 2.47206E+01 0.00000E+00
 -1      3057 1.34359E+02 3.58986E+01 0.00000E+00
 -1      3058 1.22068E+02 3.80040E+01 0.00000E+00
 -1      3059 1.28833E+02 3.75413E+01 0.00000E+00
 -1      3060 1.27679E+02 3.77063E+01 0.00000E+00
 -1      3061 1.39553E+02 2.75380E+01 0.00000E+00
 -1      3062 1.15894E+02 3.33547E+01 0.00000E+00
 -1      3063 1.36247E+02 1.72573E+01 0.00000E+00
 -1      3064 1.22749E+02 1.31958E+01 0.00000E+00
 -1      3065 1.23549E+02 1.38573E+01 0.00000E+00
 -1      3066 1.24196E+02 1.32456E+01 0.00000E+00
 -1      3067 1.38751E+02 2.19526E+01 0.00000E+00
 -1      3068 1.29691E+02 3.83109E+01 0.00000E+00
 -1      3069 1.16910E+01 1.24625E+01 0.00000E+00
 -1      3070 1.16910E+01 1.39375E+01 0.00000E+00
 -1      3071 1.38683E+02 2.99989E+01 0.00000E+00
 -1      3072 1.89000E+01 3.83090E+01 0.00000E+00
 -1      3073 2.04000E+01 3.83090E+01 0.00000E+00
 -1      3074 2.19000E+01 3.83090E+01 0.00000E+00
 -1      3075 2.34000E+01 3.83090E+01 0.00000E+00
 -1      3076 2.11500E+01 3.70100E+01 0.00000E+00
 -1      3077 2.49000E+01 3.83090E+01 0.00000E+00
 -1      3078 2.64000E+01 3.83090E+01 0.00000E+00
 -1      3079 2.41500E+01 3.70100E+01 0.00000E+00
 -1      3080 2.79000E+01 3.83090E+01 0.00000E+00
 -1      3081 2.94000E+01 3.83090E+01 0.00000E+00
 -1      3082 2.71500E+01 3.70100E+01 0.00000E+00
 -1      3083 3.09000E+01 3.83090E+01 0.00000E+00
 -1      3084 3.24000E+01 3.83090E+01 0.00000E+00
 -1      3085 3.01500E+01 3.70100E+01 0.00000E+00
 -1      3086 3.39000E+01 3.83090E+01 0.00000E+00
 -1      3087 3.54000E+01 3.83090E+01 0.00000E+00
 -1      3088 3.31500E+01 3.70100E+01 0.00000E+00
 -1      3089 3.69000E+01 3.83090E+01 0.00000E+00
 -1      3090 3.84000E+01 3.83090E+01 0.00000E+00
 -1      3091 3.61500E+01 3.70100E+01 0.00000E+00
 -1      3092 3.99000E+01 3.83090E+01 0.00000E+00
 -1      3093 4.14000E+01 3.83090E+01 0.00000E+00
 -1      3094 3.91500E+01 3.70100E+01 0.00000E+00
 -1      3095 4.29000E+01 3.83090E+01 0.00000E+00
 -1      3096 4.44000E+01 3.83090E+01 0.00000E+00
 -1      3097 4.21500E+01 3.70100E+01 0.00000E+00
 -1      3098 4.59000E+01 3.83090E+01 0.00000E+00
 -1      3099 4.74000E+01 3.83090E+01 0.00000E+00
 -1      3100 4.51500E+01 3.70100E+01 0.00000E+00
 -1      3101 4.89000E+01 3.83090E+01 0.00000E+00
 -1      3102 5.04000E+01 3.83090E+01 0.00000E+00
 -1      3103 4.81500E+01 3.70100E+01 0.00000E+00
 -1      3104 5.19000E+01 3.83090E+01 0.00000E+00
 -1      3105 5.34000E+01 3.83090E+01 0.00000E+00
 -1      3106 5.11500E+01 3.70100E+01 0.00000E+00
 -1      3107 5.49000E+01 3.83090E+01 0.00000E+00
 -1      3108 5.64000E+01 3.83090E+01 0.00000E+00
 -1      3109 5.41500E+01 3.70100E+01 0.00000E+00
 -1      3110 5.79000E+01 3.83090E+01 0.00000E+00
 -1      3111 5.94000E+01 3.83090E+01 0.00000E+00
 -1      3112 5.71500E+01 3.70100E+01 0.00000E+00
 -1      3113 6.09000E+01 3.83090E+01 0.00000E+00
 -1      3114 6.24000E+01 3.83090E+01 0.00000E+00
 -1      3115 6.01500E+01 3.70100E+01 0.00000E+00
 -1      3116 6.39000E+01 3.83090E+01 0.00000E+00
 -1      3117 6.54000E+01 3.83090E+01 0.00000E+00
 -1      3118 6.31500E+01 3.70100E+01 0.00000E+00
 -1      3119 6.69000E+01 3.83090E+01 0.00000E+00
 -1      3120 6.84000E+01 3.83090E+01 0.00000E+00
 -1      3121 6.61500E+01 3.70100E+01 0.00000E+00
 -1      3122 6.99000E+01 3.83090E+01 0.00000E+00
 -1      3123 7.14000E+01 3.83090E+01 0.00000E+00
 -1      3124 6.91500E+01 3.70100E+01 0.00000E+00
 -1      3125 7.29000E+01 3.83090E+01 0.00000E+00
 -1      3126 7.44000E+01 3.83090E+01 0.00000E+00
 -1      3127 7.21500E+01 3.70100E+01 0.00000E+00
 -1      3128 7.59000E+01 3.83090E+01 0.00000E+00
 -1      3129 7.74000E+01 3.83090E+01 0.00000E+00
 -1      3130 7.51500E+01 3.70100E+01 0.00000E+00
 -1      3131 7.89000E+01 3.83090E+01 0.00000E+00
 -1      3132 8.04000E+01 3.83090E+01 0.00000E+00
 -1      3133 7.81500E+01 3.70100E+01 0.00000E+00
 -1      3134 8.19000E+01 3.83090E+01 0.00000E+00
 -1      3135 8.34000E+01 3.83090E+01 0.00000E+00
 -1      3136 8.11500E+01 3.70100E+01 0.00000E+00
 -1      3137 8.49000E+01 3.83090E+01 0.00000E+00
 -1      3138 8.64000E+01 3.83090E+01 0.00000E+00
 -1      3139 8.41500E+01 3.70100E+01 0.00000E+00
 -1      3140 8.79000E+01 3.83090E+01 0.00000E+00
 -1      3141 8.94000E+01 3.83090E+01 0.00000E+00
 -1      3142 8.71500E+01 3.70100E+01 0.00000E+00
 -1      3143 9.09000E+01 3.83090E+01 0.00000E+00
 -1      3144 9.24000E+01 3.83090E+01 0.00000E+00
 -1      3145 9.01500E+01 3.70100E+01 0.00000E+00
 -1      3146 9.39000E+01 3.83090E+01 0.00000E+00
 -1      3147 9.54000E+01 3.83090E+01 0.00000E+00
 -1      3148 9.31500E+01 3.70100E+01 0.00000E+00
 -1      3149 9.69000E+01 3.83090E+01 0.00000E+00
 -1      3150 9.84000E+01 3.83090E+01 0.00000E+00
 -1      3151 9.61500E+01 3.70100E+01 0.00000E+00
 -1      3152 9.99000E+01 3.83090E+01 0.00000E+00
 -1      3153 1.01400E+02 3.83090E+01 0.00000E+00
 -1      3154 9.91500E+01 3.70100E+01 0.00000E+00
 -1      3155 1.02900E+02 3.83090E+01 0.00000E+00
 -1      3156 1.04400E+02 3.83090E+01 0.00000E+00
 -1      3157 1.02150E+02 3.70100E+01 0.00000E+00
 -1      3158 1.05900E+02 3.83090E+01 0.00000E+00
 -1      3159 1.07400E+02 3.83090E+01 0.00000E+00
 -1      3160 1.05150E+02 3.70100E+01 0.00000E+00
 -1      3161 1.08900E+02 3.83090E+01 0.00000E+00
 -1      3162 1.10400E+02 3.83090E+01 0.00000E+00
 -1      3163 1.08150E+02 3.70100E+01 0.00000E+00
 -1      3164 1.11900E+02 3.83090E+01 0.00000E+00
 -1      3165 1.13400E+02 3.83090E+01 0.00000E+00
 -1      3166 1.11150E+02 3.70100E+01 0.00000E+00
 -1      3167 1.30080E+02 3.88993E+01 0.00000E+00
 -1      3168 1.31580E+02 3.88993E+01 0.00000E+00
 -1      3169 1.35900E+02 3.83090E+01 0.00000E+00
 -1      3170 1.37400E+02 3.83090E+01 0.00000E+00
 -1      3171 2.27850E+01 1.05013E+01 0.00000E+00
 -1      3172 2.12850E+01 1.05013E+01 0.00000E+00
 -1      3173 3.47850E+01 1.05013E+01 0.00000E+00
 -1      3174 3.32850E+01 1.05013E+01 0.00000E+00
 -1      3175 3.17850E+01 1.05013E+01 0.00000E+00
 -1      3176 3.02850E+01 1.05013E+01 0.00000E+00
 -1      3177 3.25350E+01 1.18003E+01 0.00000E+00
 -1      3178 4.07850E+01 1.05013E+01 0.00000E+00
 -1      3179 3.92850E+01 1.05013E+01 0.00000E+00
 -1      3180 4.37850E+01 1.05013E+01 0.00000E+00
 -1      3181 4.22850E+01 1.05013E+01 0.00000E+00
 -1      3182 4.15350E+01 1.18003E+01 0.00000E+00
 -1      3183 4.67850E+01 1.05013E+01 0.00000E+00
 -1      3184 4.52850E+01 1.05013E+01 0.00000E+00
 -1      3185 4.45350E+01 1.18003E+01 0.00000E+00
 -1      3186 4.97850E+01 1.05013E+01 0.00000E+00
 -1      3187 4.82850E+01 1.05013E+01 0.00000E+00
 -1      3188 4.75350E+01 1.18003E+01 0.00000E+00
 -1      3189 5.27850E+01 1.05013E+01 0.00000E+00
 -1      3190 5.12850E+01 1.05013E+01 0.00000E+00
 -1      3191 5.05350E+01 1.18003E+01 0.00000E+00
 -1      3192 5.57850E+01 1.05013E+01 0.00000E+00
 -1      3193 5.42850E+01 1.05013E+01 0.00000E+00
 -1      3194 5.35350E+01 1.18003E+01 0.00000E+00
 -1      3195 5.87850E+01 1.05013E+01 0.00000E+00
 -1      3196 5.72850E+01 1.05013E+01 0.00000E+00
 -1      3197 5.65350E+01 1.18003E+01 0.00000E+00
 -1      3198 6.17850E+01 1.05013E+01 0.00000E+00
 -1      3199 6.02850E+01 1.05013E+01 0.00000E+00
 -1      3200 5.95350E+01 1.18003E+01 0.00000E+00
 -1      3201 6.47850E+01 1.05013E+01 0.00000E+00
 -1      3202 6.32850E+01 1.05013E+01 0.00000E+00
 -1      3203 6.25350E+01 1.18003E+01 0.00000E+00
 -1      3204 6.77850E+01 1.05013E+01 0.00000E+00
 -1      3205 6.62850E+01 1.05013E+01 0.00000E+00
 -1      3206 6.55350E+01 1.18003E+01 0.00000E+00
 -1      3207 7.07850E+01 1.05013E+01 0.00000E+00
 -1      3208 6.92850E+01 1.05013E+01 0.00000E+00
 -1      3209 6.85350E+01 1.18003E+01 0.00000E+00
 -1      3210 7.37850E+01 1.05013E+01 0.00000E+00
 -1      3211 7.22850E+01 1.05013E+01 0.00000E+00
 -1      3212 7.15350E+01 1.18003E+01 0.00000E+00
 -1      3213 7.67850E+01 1.05013E+01 0.00000E+00
 -1      3214 7.52850E+01 1.05013E+01 0.00000E+00
 -1      3215 7.45350E+01 1.18003E+01 0.00000E+00
 -1      3216 7.97850E+01 1.05013E+01 0.00000E+00
 -1      3217 7.82850E+01 1.05013E+01 0.00000E+00
 -1      3218 7.75350E+01 1.18003E+01 0.00000E+00
 -1      3219 8.27850E+01 1.05013E+01 0.00000E+00
 -1      3220 8.12850E+01 1.05013E+01 0.00000E+00
 -1      3221 8.05350E+01 1.18003E+01 0.00000E+00
 -1      3222 8.57850E+01 1.05013E+01 0.00000E+00
 -1      3223 8.42850E+01 1.05013E+01 0.00000E+00
 -1      3224 8.35350E+01 1.18003E+01 0.00000E+00
 -1      3225 8.87850E+01 1.05013E+01 0.00000E+00
 -1      3226 8.72850E+01 1.05013E+01 0.00000E+00
 -1      3227 8.65350E+01 1.18003E+01 0.00000E+00
 -1      3228 9.17850E+01 1.05013E+01 0.00000E+00
 -1      3229 9.02850E+01 1.05013E+01 0.00000E+00
 -1      3230 8.95350E+01 1.18003E+01 0.00000E+00
 -1      3231 9.47850E+01 1.05013E+01 0.00000E+00
 -1      3232 9.32850E+01 1.05013E+01 0.00000E+00
 -1      3233 9.25350E+01 1.18003E+01 0.00000E+00
 -1      3234 9.77850E+01 1.05013E+01 0.00000E+00
 -1      3235 9.62850E+01 1.05013E+01 0.00000E+00
 -1      3236 9.55350E+01 1.18003E+01 0.00000E+00
 -1      3237 1.00785E+02 1.05013E+01 0.00000E+00
 -1      3238 9.92850E+01 1.05013E+01 0.00000E+00
 -1      3239 9.85350E+01 1.18003E+01 0.00000E+00
 -1      3240 1.03785E+02 1.05013E+01 0.00000E+00
 -1      3241 1.02285E+02 1.05013E+01 0.00000E+00
 -1      3242 1.01535E+02 1.18003E+01 0.00000E+00
 -1      3243 1.06785E+02 1.05013E+01 0.00000E+00
 -1      3244 1.05285E+02 1.05013E+01 0.00000E+00
 -1      3245 1.04535E+02 1.18003E+01 0.00000E+00
 -1      3246 1.09785E+02 1.05013E+01 0.00000E+00
 -1      3247 1.08285E+02 1.05013E+01 0.00000E+00
 -1      3248 1.07535E+02 1.18003E+01 0.00000E+00
 -1      3249 1.12785E+02 1.05013E+01 0.00000E+00
 -1      3250 1.11285E+02 1.05013E+01 0.00000E+00
 -1      3251 1.10535E+02 1.18003E+01 0.00000E+00
 -1      3252 1.15785E+02 1.05013E+01 0.00000E+00
 -1      3253 1.14285E+02 1.05013E+01 0.00000E+00
 -1      3254 1.13535E+02 1.18003E+01 0.00000E+00
 -1      3255 1.18785E+02 1.05013E+01 0.00000E+00
 -1      3256 1.17285E+02 1.05013E+01 0.00000E+00
 -1      3257 1.16535E+02 1.18003E+01 0.00000E+00
 -1      3258 1.24466E+02 1.08932E+01 0.00000E+00
 -1      3259 1.22966E+02 1.08932E+01 0.00000E+00
 -1      3260 1.30532E+02 1.06651E+01 0.00000E+00
 -1      3261 1.29032E+02 1.06651E+01 0.00000E+00
 -1      3262 1.16910E+01 2.12875E+01 0.00000E+00
 -1      3263 1.16910E+01 2.27625E+01 0.00000E+00
 -1      3264 1.17359E+02 3.65339E+01 0.00000E+00
 -1      3265 1.16482E+02 3.56400E+01 0.00000E+00
 -1      3266 1.24713E+02 3.89638E+01 0.00000E+00
 -1      3267 1.39407E+02 1.25250E+01 0.00000E+00
 -1      3268 1.13659E+02 3.20231E+01 0.00000E+00
 -1      3269 1.13140E+02 3.06820E+01 0.00000E+00
 -1      3270 1.27261E+02 3.90196E+01 0.00000E+00
 -1      3271 1.97850E+01 1.05013E+01 0.00000E+00
 -1      3272 1.82850E+01 1.05013E+01 0.00000E+00
 -1      3273 2.05350E+01 1.18003E+01 0.00000E+00
 -1      3274 1.28761E+02 3.90196E+01 0.00000E+00
 -1      3275 1.12765E+02 2.90381E+01 0.00000E+00
 -1      3276 1.12678E+02 2.77440E+01 0.00000E+00
 -1      3277 1.32702E+02 3.82090E+01 0.00000E+00
 -1      3278 1.26488E+01 1.02017E+01 0.00000E+00
 -1      3279 1.20772E+01 1.14631E+01 0.00000E+00
 -1      3280 1.33763E+01 1.22006E+01 0.00000E+00
 -1      3281 1.41488E+01 1.02017E+01 0.00000E+00
 -1      3282 1.39435E+02 2.49102E+01 0.00000E+00
 -1      3283 1.13264E+02 2.28508E+01 0.00000E+00
 -1      3284 1.13812E+02 2.17341E+01 0.00000E+00
 -1      3285 1.17295E+02 1.54226E+01 0.00000E+00
 -1      3286 1.18294E+02 1.44776E+01 0.00000E+00
 -1      3287 3.77850E+01 1.05013E+01 0.00000E+00
 -1      3288 3.62850E+01 1.05013E+01 0.00000E+00
 -1      3289 3.55350E+01 1.18003E+01 0.00000E+00
 -1      3290 3.85350E+01 1.18003E+01 0.00000E+00
 -1      3291 1.15683E+02 1.77266E+01 0.00000E+00
 -1      3292 1.16303E+02 1.66590E+01 0.00000E+00
 -1      3293 1.25469E+02 1.27660E+01 0.00000E+00
 -1      3294 1.26820E+02 1.24936E+01 0.00000E+00
 -1      3295 1.00862E+01 3.73269E+01 0.00000E+00
 -1      3296 1.59000E+01 3.83090E+01 0.00000E+00
 -1      3297 1.74000E+01 3.83090E+01 0.00000E+00
 -1      3298 1.81500E+01 3.70100E+01 0.00000E+00
 -1      3299 1.31816E+02 1.25660E+01 0.00000E+00
 -1      3300 1.32800E+02 1.31887E+01 0.00000E+00
 -1      3301 1.36057E+02 3.59986E+01 0.00000E+00
 -1      3302 1.34952E+02 3.69100E+01 0.00000E+00
 -1      3303 1.15541E+02 3.45786E+01 0.00000E+00
 -1      3304 1.14600E+02 3.35171E+01 0.00000E+00
 -1      3305 1.15188E+02 3.58024E+01 0.00000E+00
 -1      3306 1.36181E+02 1.60068E+01 0.00000E+00
 -1      3307 1.37401E+02 1.67701E+01 0.00000E+00
 -1      3308 1.19800E+02 1.35503E+01 0.00000E+00
 -1      3309 1.21102E+02 1.30791E+01 0.00000E+00
 -1      3310 1.34202E+02 3.82090E+01 0.00000E+00
 -1      3311 1.16910E+01 2.42375E+01 0.00000E+00
 -1      3312 1.16910E+01 2.57125E+01 0.00000E+00
 -1      3313 1.29900E+01 2.35000E+01 0.00000E+00
 -1      3314 1.11990E+02 3.01090E+01 0.00000E+00
 -1      3315 1.38951E+02 3.18859E+01 0.00000E+00
 -1      3316 1.33808E+02 1.31567E+01 0.00000E+00
 -1      3317 1.38471E+02 1.65848E+01 0.00000E+00
 -1      3318 1.38471E+02 1.51223E+01 0.00000E+00
 -1      3319 1.32152E+01 3.82007E+01 0.00000E+00
 -1      3320 1.45576E+01 3.82548E+01 0.00000E+00
 -1      3321 1.53076E+01 3.69558E+01 0.00000E+00
 -1      3322 1.14390E+02 3.69369E+01 0.00000E+00
 -1      3323 1.15140E+02 3.82359E+01 0.00000E+00
 -1      3324 1.12065E+02 2.70411E+01 0.00000E+00
 -1      3325 1.16640E+02 3.82359E+01 0.00000E+00
 -1      3326 1.17870E+02 3.79060E+01 0.00000E+00
 -1      3327 1.19370E+02 3.79060E+01 0.00000E+00
 -1      3328 1.20504E+02 3.86482E+01 0.00000E+00
 -1      3329 1.22004E+02 3.86482E+01 0.00000E+00
 -1      3330 1.14286E+01 3.73811E+01 0.00000E+00
 -1      3331 1.14823E+02 1.81625E+01 0.00000E+00
 -1      3332 1.16098E+02 1.54417E+01 0.00000E+00
 -1      3333 2.95350E+01 1.18003E+01 0.00000E+00
 -1      3334 2.87850E+01 1.05013E+01 0.00000E+00
 -1      3335 2.72850E+01 1.05013E+01 0.00000E+00
 -1      3336 1.19818E+02 1.07765E+01 0.00000E+00
 -1      3337 1.19068E+02 1.20755E+01 0.00000E+00
 -1      3338 1.21318E+02 1.07765E+01 0.00000E+00
 -1      3339 1.27238E+02 1.04136E+01 0.00000E+00
 -1      3340 1.25738E+02 1.04136E+01 0.00000E+00
 -1      3341 1.33696E+02 1.06067E+01 0.00000E+00
 -1      3342 1.32196E+02 1.06067E+01 0.00000E+00
 -1      3343 1.38985E+02 3.74540E+01 0.00000E+00
 -1      3344 2.57850E+01 1.05013E+01 0.00000E+00
 -1      3345 2.42850E+01 1.05013E+01 0.00000E+00
 -1      3346 2.65350E+01 1.18003E+01 0.00000E+00
 -1      3347 1.38537E+02 1.78353E+01 0.00000E+00
 -1      3348 1.13307E+02 3.32469E+01 0.00000E+00
 -1      3349 1.38712E+02 3.45625E+01 0.00000E+00
 -1      3350 1.38712E+02 3.30875E+01 0.00000E+00
 -1      3351 1.36047E+02 1.49109E+01 0.00000E+00
 -1      3352 1.29900E+01 1.46687E+01 0.00000E+00
 -1      3353 1.16910E+01 1.54063E+01 0.00000E+00
 -1      3354 1.16910E+01 1.68750E+01 0.00000E+00
 -1      3355 1.38235E+02 3.61550E+01 0.00000E+00
 -1      3356 1.35175E+02 1.06176E+01 0.00000E+00
 -1      3357 1.34336E+02 1.20221E+01 0.00000E+00
 -1      3358 1.35287E+02 1.31675E+01 0.00000E+00
 -1      3359 1.36343E+02 1.08983E+01 0.00000E+00
 -1      3360 1.37126E+02 3.54175E+01 0.00000E+00
 -1      3361 1.37842E+02 3.26234E+01 0.00000E+00
 -1      3362 1.12604E+02 2.37474E+01 0.00000E+00
 -1      3363 1.12033E+02 2.27742E+01 0.00000E+00
 -1      3364 1.11945E+02 2.46439E+01 0.00000E+00
 -1      3365 1.17562E+02 1.30028E+01 0.00000E+00
 -1      3366 1.18766E+02 1.32750E+01 0.00000E+00
 -1      3367 1.13616E+02 2.07622E+01 0.00000E+00
 -1      3368 1.24669E+02 1.21045E+01 0.00000E+00
 -1      3369 1.16910E+01 3.01219E+01 0.00000E+00
 -1      3370 1.16910E+01 3.15906E+01 0.00000E+00
 -1      3371 1.69669E+01 1.03515E+01 0.00000E+00
 -1      3372 1.54669E+01 1.03515E+01 0.00000E+00
 -1      3373 1.50806E+01 1.13509E+01 0.00000E+00
 -1      3374 1.77169E+01 1.16505E+01 0.00000E+00
 -1      3375 2.35350E+01 1.18003E+01 0.00000E+00
 -1      3376 1.16910E+01 1.83469E+01 0.00000E+00
 -1      3377 1.16910E+01 1.98156E+01 0.00000E+00
 -1      3378 1.29900E+01 2.05531E+01 0.00000E+00
 -1      3379 1.29900E+01 1.76094E+01 0.00000E+00
 -1      3380 1.39031E+02 1.91174E+01 0.00000E+00
 -1      3381 1.39168E+02 2.05924E+01 0.00000E+00
 -1      3382 1.16910E+01 3.30594E+01 0.00000E+00
 -1      3383 1.16910E+01 3.45281E+01 0.00000E+00
 -1      3384 1.29900E+01 3.23250E+01 0.00000E+00
 -1      3385 1.39465E+02 2.19602E+01 0.00000E+00
 -1      3386 1.12697E+02 3.46743E+01 0.00000E+00
 -1      3387 1.11756E+02 3.31803E+01 0.00000E+00
 -1      3388 1.13449E+02 3.58755E+01 0.00000E+00
 -1      3389 1.10783E+02 2.74187E+01 0.00000E+00
 -1      3390 1.11233E+02 2.59948E+01 0.00000E+00
 -1      3391 2.34000E+01 3.57110E+01 0.00000E+00
 -1      3392 2.49000E+01 3.57110E+01 0.00000E+00
 -1      3393 2.64000E+01 3.57110E+01 0.00000E+00
 -1      3394 2.79000E+01 3.57110E+01 0.00000E+00
 -1      3395 2.56500E+01 3.44120E+01 0.00000E+00
 -1      3396 2.94000E+01 3.57110E+01 0.00000E+00
 -1      3397 3.09000E+01 3.57110E+01 0.00000E+00
 -1      3398 2.86500E+01 3.44120E+01 0.00000E+00
 -1      3399 3.24000E+01 3.57110E+01 0.00000E+00
 -1      3400 3.39000E+01 3.57110E+01 0.00000E+00
 -1      3401 3.16500E+01 3.44120E+01 0.00000E+00
 -1      3402 3.54000E+01 3.57110E+01 0.00000E+00
 -1      3403 3.69000E+01 3.57110E+01 0.00000E+00
 -1      3404 3.46500E+01 3.44120E+01 0.00000E+00
 -1      3405 3.84000E+01 3.57110E+01 0.00000E+00
 -1      3406 3.99000E+01 3.57110E+01 0.00000E+00
 -1      3407 3.76500E+01 3.44120E+01 0.00000E+00
 -1      3408 4.14000E+01 3.57110E+01 0.00000E+00
 -1      3409 4.29000E+01 3.57110E+01 0.00000E+00
 -1      3410 4.06500E+01 3.44120E+01 0.00000E+00
 -1      3411 4.44000E+01 3.57110E+01 0.00000E+00
 -1      3412 4.59000E+01 3.57110E+01 0.00000E+00
 -1      3413 4.36500E+01 3.44120E+01 0.00000E+00
 -1      3414 4.74000E+01 3.57110E+01 0.00000E+00
 -1      3415 4.89000E+01 3.57110E+01 0.00000E+00
 -1      3416 4.66500E+01 3.44120E+01 0.00000E+00
 -1      3417 5.04000E+01 3.57110E+01 0.00000E+00
 -1      3418 5.19000E+01 3.57110E+01 0.00000E+00
 -1      3419 4.96500E+01 3.44120E+01 0.00000E+00
 -1      3420 5.34000E+01 3.57110E+01 0.00000E+00
 -1      3421 5.49000E+01 3.57110E+01 0.00000E+00
 -1      3422 5.26500E+01 3.44120E+01 0.00000E+00
 -1      3423 5.64000E+01 3.57110E+01 0.00000E+00
 -1      3424 5.79000E+01 3.57110E+01 0.00000E+00
 -1      3425 5.56500E+01 3.44120E+01 0.00000E+00
 -1      3426 5.94000E+01 3.57110E+01 0.00000E+00
 -1      3427 6.09000E+01 3.57110E+01 0.00000E+00
 -1      3428 5.86500E+01 3.44120E+01 0.00000E+00
 -1      3429 6.24000E+01 3.57110E+01 0.00000E+00
 -1      3430 6.39000E+01 3.57110E+01 0.00000E+00
 -1      3431 6.16500E+01 3.44120E+01 0.00000E+00
 -1      3432 6.54000E+01 3.57110E+01 0.00000E+00
 -1      3433 6.69000E+01 3.57110E+01 0.00000E+00
 -1      3434 6.46500E+01 3.44120E+01 0.00000E+00
 -1      3435 6.84000E+01 3.57110E+01 0.00000E+00
 -1      3436 6.99000E+01 3.57110E+01 0.00000E+00
 -1      3437 6.76500E+01 3.44120E+01 0.00000E+00
 -1      3438 7.14000E+01 3.57110E+01 0.00000E+00
 -1      3439 7.29000E+01 3.57110E+01 0.00000E+00
 -1      3440 7.06500E+01 3.44120E+01 0.00000E+00
 -1      3441 7.44000E+01 3.57110E+01 0.00000E+00
 -1      3442 7.59000E+01 3.57110E+01 0.00000E+00
 -1      3443 7.36500E+01 3.44120E+01 0.00000E+00
 -1      3444 7.74000E+01 3.57110E+01 0.00000E+00
 -1      3445 7.89000E+01 3.57110E+01 0.00000E+00
 -1      3446 7.66500E+01 3.44120E+01 0.00000E+00
 -1      3447 8.04000E+01 3.57110E+01 0.00000E+00
 -1      3448 8.19000E+01 3.57110E+01 0.00000E+00
 -1      3449 7.96500E+01 3.44120E+01 0.00000E+00
 -1      3450 8.34000E+01 3.57110E+01 0.00000E+00
 -1      3451 8.49000E+01 3.57110E+01 0.00000E+00
 -1      3452 8.26500E+01 3.44120E+01 0.00000E+00
 -1      3453 8.64000E+01 3.57110E+01 0.00000E+00
 -1      3454 8.79000E+01 3.57110E+01 0.00000E+00
 -1      3455 8.56500E+01 3.44120E+01 0.00000E+00
 -1      3456 8.94000E+01 3.57110E+01 0.00000E+00
 -1      3457 9.09000E+01 3.57110E+01 0.00000E+00
 -1      3458 8.86500E+01 3.44120E+01 0.00000E+00
 -1      3459 9.24000E+01 3.57110E+01 0.00000E+00
 -1      3460 9.39000E+01 3.57110E+01 0.00000E+00
 -1      3461 9.16500E+01 3.44120E+01 0.00000E+00
 -1      3462 9.54000E+01 3.57110E+01 0.00000E+00
 -1      3463 9.69000E+01 3.57110E+01 0.00000E+00
 -1      3464 9.46500E+01 3.44120E+01 0.00000E+00
 -1      3465 9.84000E+01 3.57110E+01 0.00000E+00
 -1      3466 9.99000E+01 3.57110E+01 0.00000E+00
 -1      3467 9.76500E+01 3.44120E+01 0.00000E+00
 -1      3468 1.01400E+02 3.57110E+01 0.00000E+00
 -1      3469 1.02900E+02 3.57110E+01 0.00000E+00
 -1      3470 1.00650E+02 3.44120E+01 0.00000E+00
 -1      3471 1.04400E+02 3.57110E+01 0.00000E+00
 -1      3472 1.05900E+02 3.57110E+01 0.00000E+00
 -1      3473 1.03650E+02 3.44120E+01 0.00000E+00
 -1      3474 1.07400E+02 3.57110E+01 0.00000E+00
 -1      3475 1.08900E+02 3.57110E+01 0.00000E+00
 -1      3476 1.06650E+02 3.44120E+01 0.00000E+00
 -1      3477 1.10398E+02 3.58088E+01 0.00000E+00
 -1      3478 1.11898E+02 3.58088E+01 0.00000E+00
 -1      3479 1.23213E+02 3.89638E+01 0.00000E+00
 -1      3480 3.32850E+01 1.30992E+01 0.00000E+00
 -1      3481 3.17850E+01 1.30992E+01 0.00000E+00
 -1      3482 4.52850E+01 1.30992E+01 0.00000E+00
 -1      3483 4.37850E+01 1.30992E+01 0.00000E+00
 -1      3484 4.22850E+01 1.30992E+01 0.00000E+00
 -1      3485 4.07850E+01 1.30992E+01 0.00000E+00
 -1      3486 4.30350E+01 1.43982E+01 0.00000E+00
 -1      3487 5.12850E+01 1.30992E+01 0.00000E+00
 -1      3488 4.97850E+01 1.30992E+01 0.00000E+00
 -1      3489 5.42850E+01 1.30992E+01 0.00000E+00
 -1      3490 5.27850E+01 1.30992E+01 0.00000E+00
 -1      3491 5.20350E+01 1.43982E+01 0.00000E+00
 -1      3492 5.72850E+01 1.30992E+01 0.00000E+00
 -1      3493 5.57850E+01 1.30992E+01 0.00000E+00
 -1      3494 5.50350E+01 1.43982E+01 0.00000E+00
 -1      3495 6.02850E+01 1.30992E+01 0.00000E+00
 -1      3496 5.87850E+01 1.30992E+01 0.00000E+00
 -1      3497 5.80350E+01 1.43982E+01 0.00000E+00
 -1      3498 6.32850E+01 1.30992E+01 0.00000E+00
 -1      3499 6.17850E+01 1.30992E+01 0.00000E+00
 -1      3500 6.10350E+01 1.43982E+01 0.00000E+00
 -1      3501 6.62850E+01 1.30992E+01 0.00000E+00
 -1      3502 6.47850E+01 1.30992E+01 0.00000E+00
 -1      3503 6.40350E+01 1.43982E+01 0.00000E+00
 -1      3504 6.92850E+01 1.30992E+01 0.00000E+00
 -1      3505 6.77850E+01 1.30992E+01 0.00000E+00
 -1      3506 6.70350E+01 1.43982E+01 0.00000E+00
 -1      3507 7.22850E+01 1.30992E+01 0.00000E+00
 -1      3508 7.07850E+01 1.30992E+01 0.00000E+00
 -1      3509 7.00350E+01 1.43982E+01 0.00000E+00
 -1      3510 7.52850E+01 1.30992E+01 0.00000E+00
 -1      3511 7.37850E+01 1.30992E+01 0.00000E+00
 -1      3512 7.30350E+01 1.43982E+01 0.00000E+00
 -1      3513 7.82850E+01 1.30992E+01 0.00000E+00
 -1      3514 7.67850E+01 1.30992E+01 0.00000E+00
 -1      3515 7.60350E+01 1.43982E+01 0.00000E+00
 -1      3516 8.12850E+01 1.30992E+01 0.00000E+00
 -1      3517 7.97850E+01 1.30992E+01 0.00000E+00
 -1      3518 7.90350E+01 1.43982E+01 0.00000E+00
 -1      3519 8.42850E+01 1.30992E+01 0.00000E+00
 -1      3520 8.27850E+01 1.30992E+01 0.00000E+00
 -1      3521 8.20350E+01 1.43982E+01 0.00000E+00
 -1      3522 8.72850E+01 1.30992E+01 0.00000E+00
 -1      3523 8.57850E+01 1.30992E+01 0.00000E+00
 -1      3524 8.50350E+01 1.43982E+01 0.00000E+00
 -1      3525 9.02850E+01 1.30992E+01 0.00000E+00
 -1      3526 8.87850E+01 1.30992E+01 0.00000E+00
 -1      3527 8.80350E+01 1.43982E+01 0.00000E+00
 -1      3528 9.32850E+01 1.30992E+01 0.00000E+00
 -1      3529 9.17850E+01 1.30992E+01 0.00000E+00
 -1      3530 9.10350E+01 1.43982E+01 0.00000E+00
 -1      3531 9.62850E+01 1.30992E+01 0.00000E+00
 -1      3532 9.47850E+01 1.30992E+01 0.00000E+00
 -1      3533 9.40350E+01 1.43982E+01 0.00000E+00
 -1      3534 9.92850E+01 1.30992E+01 0.00000E+00
 -1      3535 9.77850E+01 1.30992E+01 0.00000E+00
 -1      3536 9.70350E+01 1.43982E+01 0.00000E+00
 -1      3537 1.02285E+02 1.30992E+01 0.00000E+00
 -1      3538 1.00785E+02 1.30992E+01 0.00000E+00
 -1      3539 1.00035E+02 1.43982E+01 0.00000E+00
 -1      3540 1.05285E+02 1.30992E+01 0.00000E+00
 -1      3541 1.03785E+02 1.30992E+01 0.00000E+00
 -1      3542 1.03035E+02 1.43982E+01 0.00000E+00
 -1      3543 1.08285E+02 1.30992E+01 0.00000E+00
 -1      3544 1.06785E+02 1.30992E+01 0.00000E+00
 -1      3545 1.06035E+02 1.43982E+01 0.00000E+00
 -1      3546 1.11285E+02 1.30992E+01 0.00000E+00
 -1      3547 1.09785E+02 1.30992E+01 0.00000E+00
 -1      3548 1.09035E+02 1.43982E+01 0.00000E+00
 -1      3549 1.16062E+02 1.30028E+01 0.00000E+00
 -1      3550 1.21749E+02 1.24674E+01 0.00000E+00
 -1      3551 1.27735E+02 1.18765E+01 0.00000E+00
 -1      3552 1.31193E+02 1.20696E+01 0.00000E+00
 -1      3553 1.11015E+02 3.11964E+01 0.00000E+00
 -1      3554 1.10640E+02 2.95525E+01 0.00000E+00
 -1      3555 1.38319E+02 1.14477E+01 0.00000E+00
 -1      3556 1.37151E+02 1.11670E+01 0.00000E+00
 -1      3557 1.36575E+02 1.37762E+01 0.00000E+00
 -1      3558 2.12850E+01 1.30992E+01 0.00000E+00
 -1      3559 1.97850E+01 1.30992E+01 0.00000E+00
 -1      3560 1.36533E+02 3.44062E+01 0.00000E+00
 -1      3561 2.04000E+01 3.57110E+01 0.00000E+00
 -1      3562 2.19000E+01 3.57110E+01 0.00000E+00
 -1      3563 2.26500E+01 3.44120E+01 0.00000E+00
 -1      3564 1.12494E+02 2.07731E+01 0.00000E+00
 -1      3565 1.13417E+02 1.96577E+01 0.00000E+00
 -1      3566 1.39602E+02 2.34352E+01 0.00000E+00
 -1      3567 1.16910E+01 2.71844E+01 0.00000E+00
 -1      3568 1.16910E+01 2.86531E+01 0.00000E+00
 -1      3569 1.29900E+01 2.93875E+01 0.00000E+00
 -1      3570 1.21786E+01 3.60821E+01 0.00000E+00
 -1      3571 1.13701E+02 1.81734E+01 0.00000E+00
 -1      3572 1.13984E+02 1.66890E+01 0.00000E+00
 -1      3573 1.12579E+02 1.81842E+01 0.00000E+00
 -1      3574 1.14528E+02 1.54641E+01 0.00000E+00
 -1      3575 1.15519E+02 1.42277E+01 0.00000E+00
 -1      3576 1.14492E+02 1.30251E+01 0.00000E+00
 -1      3577 1.13405E+02 1.54749E+01 0.00000E+00
 -1      3578 1.38520E+02 1.36477E+01 0.00000E+00
 -1      3579 2.42850E+01 1.30992E+01 0.00000E+00
 -1      3580 2.27850E+01 1.30992E+01 0.00000E+00
 -1      3581 2.20350E+01 1.43982E+01 0.00000E+00
 -1      3582 4.82850E+01 1.30992E+01 0.00000E+00
 -1      3583 4.67850E+01 1.30992E+01 0.00000E+00
 -1      3584 4.60350E+01 1.43982E+01 0.00000E+00
 -1      3585 4.90350E+01 1.43982E+01 0.00000E+00
 -1      3586 1.74000E+01 3.57110E+01 0.00000E+00
 -1      3587 1.89000E+01 3.57110E+01 0.00000E+00
 -1      3588 1.96500E+01 3.44120E+01 0.00000E+00
 -1      3589 1.36623E+02 1.23016E+01 0.00000E+00
 -1      3590 1.37383E+02 1.40450E+01 0.00000E+00
 -1      3591 1.47152E+01 3.56027E+01 0.00000E+00
 -1      3592 1.60576E+01 3.56568E+01 0.00000E+00
 -1      3593 1.68076E+01 3.43578E+01 0.00000E+00
 -1      3594 1.46944E+01 1.23503E+01 0.00000E+00
 -1      3595 1.43081E+01 1.33498E+01 0.00000E+00
 -1      3596 1.60125E+01 1.25001E+01 0.00000E+00
 -1      3597 1.09808E+02 2.85061E+01 0.00000E+00
 -1      3598 1.08976E+02 2.74597E+01 0.00000E+00
 -1      3599 1.08832E+02 2.95935E+01 0.00000E+00
 -1      3600 1.09648E+02 3.45098E+01 0.00000E+00
 -1      3601 3.47850E+01 1.30992E+01 0.00000E+00
 -1      3602 3.40350E+01 1.43982E+01 0.00000E+00
 -1      3603 3.62850E+01 1.30992E+01 0.00000E+00
 -1      3604 3.02850E+01 1.30992E+01 0.00000E+00
 -1      3605 2.87850E+01 1.30992E+01 0.00000E+00
 -1      3606 3.10350E+01 1.43982E+01 0.00000E+00
 -1      3607 4.00350E+01 1.43982E+01 0.00000E+00
 -1      3608 3.92850E+01 1.30992E+01 0.00000E+00
 -1      3609 3.77850E+01 1.30992E+01 0.00000E+00
 -1      3610 1.12992E+02 1.30251E+01 0.00000E+00
 -1      3611 1.12242E+02 1.43241E+01 0.00000E+00
 -1      3612 1.10406E+02 3.26238E+01 0.00000E+00
 -1      3613 2.72850E+01 1.30992E+01 0.00000E+00
 -1      3614 2.57850E+01 1.30992E+01 0.00000E+00
 -1      3615 2.50350E+01 1.43982E+01 0.00000E+00
 -1      3616 2.80350E+01 1.43982E+01 0.00000E+00
 -1      3617 1.37188E+02 3.35148E+01 0.00000E+00
 -1      3618 1.10662E+02 2.50215E+01 0.00000E+00
 -1      3619 1.43081E+01 1.48185E+01 0.00000E+00
 -1      3620 1.11667E+02 2.14922E+01 0.00000E+00
 -1      3621 1.11468E+02 2.03877E+01 0.00000E+00
 -1      3622 1.29900E+01 2.64469E+01 0.00000E+00
 -1      3623 1.11007E+02 2.23887E+01 0.00000E+00
 -1      3624 1.90350E+01 1.43983E+01 0.00000E+00
 -1      3625 1.82850E+01 1.30993E+01 0.00000E+00
 -1      3626 1.42890E+01 2.86531E+01 0.00000E+00
 -1      3627 1.42890E+01 3.01219E+01 0.00000E+00
 -1      3628 1.42890E+01 2.27625E+01 0.00000E+00
 -1      3629 1.42890E+01 2.42375E+01 0.00000E+00
 -1      3630 1.42890E+01 1.98188E+01 0.00000E+00
 -1      3631 1.42890E+01 2.12906E+01 0.00000E+00
 -1      3632 1.55880E+01 2.20281E+01 0.00000E+00
 -1      3633 1.69669E+01 1.29495E+01 0.00000E+00
 -1      3634 1.55266E+01 3.18456E+01 0.00000E+00
 -1      3635 1.42276E+01 3.25800E+01 0.00000E+00
 -1      3636 2.79000E+01 3.31130E+01 0.00000E+00
 -1      3637 2.94000E+01 3.31130E+01 0.00000E+00
 -1      3638 3.09000E+01 3.31130E+01 0.00000E+00
 -1      3639 3.24000E+01 3.31130E+01 0.00000E+00
 -1      3640 3.01500E+01 3.18140E+01 0.00000E+00
 -1      3641 3.39000E+01 3.31130E+01 0.00000E+00
 -1      3642 3.54000E+01 3.31130E+01 0.00000E+00
 -1      3643 3.31500E+01 3.18140E+01 0.00000E+00
 -1      3644 3.69000E+01 3.31130E+01 0.00000E+00
 -1      3645 3.84000E+01 3.31130E+01 0.00000E+00
 -1      3646 3.61500E+01 3.18140E+01 0.00000E+00
 -1      3647 3.99000E+01 3.31130E+01 0.00000E+00
 -1      3648 4.14000E+01 3.31130E+01 0.00000E+00
 -1      3649 3.91500E+01 3.18140E+01 0.00000E+00
 -1      3650 4.29000E+01 3.31130E+01 0.00000E+00
 -1      3651 4.44000E+01 3.31130E+01 0.00000E+00
 -1      3652 4.21500E+01 3.18140E+01 0.00000E+00
 -1      3653 4.59000E+01 3.31130E+01 0.00000E+00
 -1      3654 4.74000E+01 3.31130E+01 0.00000E+00
 -1      3655 4.51500E+01 3.18140E+01 0.00000E+00
 -1      3656 4.89000E+01 3.31130E+01 0.00000E+00
 -1      3657 5.04000E+01 3.31130E+01 0.00000E+00
 -1      3658 4.81500E+01 3.18140E+01 0.00000E+00
 -1      3659 5.19000E+01 3.31130E+01 0.00000E+00
 -1      3660 5.34000E+01 3.31130E+01 0.00000E+00
 -1      3661 5.11500E+01 3.18140E+01 0.00000E+00
 -1      3662 5.49000E+01 3.31130E+01 0.00000E+00
 -1      3663 5.64000E+01 3.31130E+01 0.00000E+00
 -1      3664 5.41500E+01 3.18140E+01 0.00000E+00
 -1      3665 5.79000E+01 3.31130E+01 0.00000E+00
 -1      3666 5.94000E+01 3.31130E+01 0.00000E+00
 -1      3667 5.71500E+01 3.18140E+01 0.00000E+00
 -1      3668 6.09000E+01 3.31130E+01 0.00000E+00
 -1      3669 6.24000E+01 3.31130E+01 0.00000E+00
 -1      3670 6.01500E+01 3.18140E+01 0.00000E+00
 -1      3671 6.39000E+01 3.31130E+01 0.00000E+00
 -1      3672 6.54000E+01 3.31130E+01 0.00000E+00
 -1      3673 6.31500E+01 3.18140E+01 0.00000E+00
 -1      3674 6.69000E+01 3.31130E+01 0.00000E+00
 -1      3675 6.84000E+01 3.31130E+01 0.00000E+00
 -1      3676 6.61500E+01 3.18140E+01 0.00000E+00
 -1      3677 6.99000E+01 3.31130E+01 0.00000E+00
 -1      3678 7.14000E+01 3.31130E+01 0.00000E+00
 -1      3679 6.91500E+01 3.18140E+01 0.00000E+00
 -1      3680 7.29000E+01 3.31130E+01 0.00000E+00
 -1      3681 7.44000E+01 3.31130E+01 0.00000E+00
 -1      3682 7.21500E+01 3.18140E+01 0.00000E+00
 -1      3683 7.59000E+01 3.31130E+01 0.00000E+00
 -1      3684 7.74000E+01 3.31130E+01 0.00000E+00
 -1      3685 7.51500E+01 3.18140E+01 0.00000E+00
 -1      3686 7.89000E+01 3.31130E+01 0.00000E+00
 -1      3687 8.04000E+01 3.31130E+01 0.00000E+00
 -1      3688 7.81500E+01 3.18140E+01 0.00000E+00
 -1      3689 8.19000E+01 3.31130E+01 0.00000E+00
 -1      3690 8.34000E+01 3.31130E+01 0.00000E+00
 -1      3691 8.11500E+01 3.18140E+01 0.00000E+00
 -1      3692 8.49000E+01 3.31130E+01 0.00000E+00
 -1      3693 8.64000E+01 3.31130E+01 0.00000E+00
 -1      3694 8.41500E+01 3.18140E+01 0.00000E+00
 -1      3695 8.79000E+01 3.31130E+01 0.00000E+00
 -1      3696 8.94000E+01 3.31130E+01 0.00000E+00
 -1      3697 8.71500E+01 3.18140E+01 0.00000E+00
 -1      3698 9.09000E+01 3.31130E+01 0.00000E+00
 -1      3699 9.24000E+01 3.31130E+01 0.00000E+00
 -1      3700 9.01500E+01 3.18140E+01 0.00000E+00
 -1      3701 9.39000E+01 3.31130E+01 0.00000E+00
 -1      3702 9.54000E+01 3.31130E+01 0.00000E+00
 -1      3703 9.31500E+01 3.18140E+01 0.00000E+00
 -1      3704 9.69000E+01 3.31130E+01 0.00000E+00
 -1      3705 9.84000E+01 3.31130E+01 0.00000E+00
 -1      3706 9.61500E+01 3.18140E+01 0.00000E+00
 -1      3707 9.99000E+01 3.31130E+01 0.00000E+00
 -1      3708 1.01400E+02 3.31130E+01 0.00000E+00
 -1      3709 9.91500E+01 3.18140E+01 0.00000E+00
 -1      3710 1.02900E+02 3.31130E+01 0.00000E+00
 -1      3711 1.04400E+02 3.31130E+01 0.00000E+00
 -1      3712 1.02150E+02 3.18140E+01 0.00000E+00
 -1      3713 1.05900E+02 3.31130E+01 0.00000E+00
 -1      3714 1.07400E+02 3.31130E+01 0.00000E+00
 -1      3715 1.05150E+02 3.18140E+01 0.00000E+00
 -1      3716 5.87850E+01 1.56973E+01 0.00000E+00
 -1      3717 5.72850E+01 1.56973E+01 0.00000E+00
 -1      3718 4.37850E+01 1.56973E+01 0.00000E+00
 -1      3719 4.22850E+01 1.56973E+01 0.00000E+00
 -1      3720 1.08907E+02 3.25259E+01 0.00000E+00
 -1      3721 5.57850E+01 1.56973E+01 0.00000E+00
 -1      3722 5.42850E+01 1.56973E+01 0.00000E+00
 -1      3723 5.65350E+01 1.69963E+01 0.00000E+00
 -1      3724 5.27850E+01 1.56973E+01 0.00000E+00
 -1      3725 5.12850E+01 1.56973E+01 0.00000E+00
 -1      3726 5.35350E+01 1.69963E+01 0.00000E+00
 -1      3727 6.17850E+01 1.56973E+01 0.00000E+00
 -1      3728 6.02850E+01 1.56973E+01 0.00000E+00
 -1      3729 5.95350E+01 1.69963E+01 0.00000E+00
 -1      3730 6.47850E+01 1.56973E+01 0.00000E+00
 -1      3731 6.32850E+01 1.56973E+01 0.00000E+00
 -1      3732 6.25350E+01 1.69963E+01 0.00000E+00
 -1      3733 6.77850E+01 1.56973E+01 0.00000E+00
 -1      3734 6.62850E+01 1.56973E+01 0.00000E+00
 -1      3735 6.55350E+01 1.69963E+01 0.00000E+00
 -1      3736 7.07850E+01 1.56973E+01 0.00000E+00
 -1      3737 6.92850E+01 1.56973E+01 0.00000E+00
 -1      3738 6.85350E+01 1.69963E+01 0.00000E+00
 -1      3739 7.37850E+01 1.56973E+01 0.00000E+00
 -1      3740 7.22850E+01 1.56973E+01 0.00000E+00
 -1      3741 7.15350E+01 1.69963E+01 0.00000E+00
 -1      3742 7.67850E+01 1.56973E+01 0.00000E+00
 -1      3743 7.52850E+01 1.56973E+01 0.00000E+00
 -1      3744 7.45350E+01 1.69963E+01 0.00000E+00
 -1      3745 7.97850E+01 1.56973E+01 0.00000E+00
 -1      3746 7.82850E+01 1.56973E+01 0.00000E+00
 -1      3747 7.75350E+01 1.69963E+01 0.00000E+00
 -1      3748 8.27850E+01 1.56973E+01 0.00000E+00
 -1      3749 8.12850E+01 1.56973E+01 0.00000E+00
 -1      3750 8.05350E+01 1.69963E+01 0.00000E+00
 -1      3751 8.57850E+01 1.56973E+01 0.00000E+00
 -1      3752 8.42850E+01 1.56973E+01 0.00000E+00
 -1      3753 8.35350E+01 1.69963E+01 0.00000E+00
 -1      3754 8.87850E+01 1.56973E+01 0.00000E+00
 -1      3755 8.72850E+01 1.56973E+01 0.00000E+00
 -1      3756 8.65350E+01 1.69963E+01 0.00000E+00
 -1      3757 9.17850E+01 1.56973E+01 0.00000E+00
 -1      3758 9.02850E+01 1.56973E+01 0.00000E+00
 -1      3759 8.95350E+01 1.69963E+01 0.00000E+00
 -1      3760 9.47850E+01 1.56973E+01 0.00000E+00
 -1      3761 9.32850E+01 1.56973E+01 0.00000E+00
 -1      3762 9.25350E+01 1.69963E+01 0.00000E+00
 -1      3763 9.77850E+01 1.56973E+01 0.00000E+00
 -1      3764 9.62850E+01 1.56973E+01 0.00000E+00
 -1      3765 9.55350E+01 1.69963E+01 0.00000E+00
 -1      3766 1.00785E+02 1.56973E+01 0.00000E+00
 -1      3767 9.92850E+01 1.56973E+01 0.00000E+00
 -1      3768 9.85350E+01 1.69963E+01 0.00000E+00
 -1      3769 1.03785E+02 1.56973E+01 0.00000E+00
 -1      3770 1.02285E+02 1.56973E+01 0.00000E+00
 -1      3771 1.01535E+02 1.69963E+01 0.00000E+00
 -1      3772 1.06785E+02 1.56973E+01 0.00000E+00
 -1      3773 1.05285E+02 1.56973E+01 0.00000E+00
 -1      3774 1.04535E+02 1.69963E+01 0.00000E+00
 -1      3775 1.09785E+02 1.56973E+01 0.00000E+00
 -1      3776 1.08285E+02 1.56973E+01 0.00000E+00
 -1      3777 1.07535E+02 1.69963E+01 0.00000E+00
 -1      3778 1.10665E+02 1.83324E+01 0.00000E+00
 -1      3779 1.10949E+02 1.68480E+01 0.00000E+00
 -1      3780 2.27850E+01 1.56973E+01 0.00000E+00
 -1      3781 2.12850E+01 1.56973E+01 0.00000E+00
 -1      3782 1.65807E+01 1.39489E+01 0.00000E+00
 -1      3783 2.19000E+01 3.31130E+01 0.00000E+00
 -1      3784 2.34000E+01 3.31130E+01 0.00000E+00
 -1      3785 1.34776E+01 3.53477E+01 0.00000E+00
 -1      3786 1.97850E+01 1.56973E+01 0.00000E+00
 -1      3787 1.82851E+01 1.56973E+01 0.00000E+00
 -1      3788 2.05350E+01 1.69963E+01 0.00000E+00
 -1      3789 1.09325E+02 2.51801E+01 0.00000E+00
 -1      3790 1.10037E+02 2.38293E+01 0.00000E+00
 -1      3791 1.54444E+01 1.51197E+01 0.00000E+00
 -1      3792 1.41263E+01 1.64386E+01 0.00000E+00
 -1      3793 1.41263E+01 1.79105E+01 0.00000E+00
 -1      3794 1.63988E+01 1.55690E+01 0.00000E+00
 -1      3795 1.42890E+01 2.57094E+01 0.00000E+00
 -1      3796 1.42890E+01 2.71812E+01 0.00000E+00
 -1      3797 1.55880E+01 2.79156E+01 0.00000E+00
 -1      3798 1.55880E+01 2.49719E+01 0.00000E+00
 -1      3799 1.11699E+02 1.55490E+01 0.00000E+00
 -1      3800 1.89000E+01 3.31130E+01 0.00000E+00
 -1      3801 2.04000E+01 3.31130E+01 0.00000E+00
 -1      3802 2.11500E+01 3.18140E+01 0.00000E+00
 -1      3803 2.49000E+01 3.31130E+01 0.00000E+00
 -1      3804 2.64000E+01 3.31130E+01 0.00000E+00
 -1      3805 2.41500E+01 3.18140E+01 0.00000E+00
 -1      3806 1.42276E+01 3.40487E+01 0.00000E+00
 -1      3807 1.09671E+02 2.25473E+01 0.00000E+00
 -1      3808 1.08157E+02 3.12269E+01 0.00000E+00
 -1      3809 1.07325E+02 3.01806E+01 0.00000E+00
 -1      3810 3.70350E+01 1.43982E+01 0.00000E+00
 -1      3811 5.05350E+01 1.69963E+01 0.00000E+00
 -1      3812 4.97850E+01 1.56973E+01 0.00000E+00
 -1      3813 4.82850E+01 1.56973E+01 0.00000E+00
 -1      3814 3.47850E+01 1.56973E+01 0.00000E+00
 -1      3815 3.32850E+01 1.56973E+01 0.00000E+00
 -1      3816 3.17850E+01 1.56973E+01 0.00000E+00
 -1      3817 3.02850E+01 1.56973E+01 0.00000E+00
 -1      3818 3.25350E+01 1.69963E+01 0.00000E+00
 -1      3819 4.15350E+01 1.69963E+01 0.00000E+00
 -1      3820 4.07850E+01 1.56973E+01 0.00000E+00
 -1      3821 3.92850E+01 1.56973E+01 0.00000E+00
 -1      3822 1.68870E+01 2.71797E+01 0.00000E+00
 -1      3823 1.68870E+01 2.86516E+01 0.00000E+00
 -1      3824 2.42850E+01 1.56973E+01 0.00000E+00
 -1      3825 2.35350E+01 1.69963E+01 0.00000E+00
 -1      3826 2.57850E+01 1.56973E+01 0.00000E+00
 -1      3827 4.52850E+01 1.56973E+01 0.00000E+00
 -1      3828 4.45350E+01 1.69963E+01 0.00000E+00
 -1      3829 4.67850E+01 1.56973E+01 0.00000E+00
 -1      3830 1.08350E+02 2.62675E+01 0.00000E+00
 -1      3831 1.07725E+02 2.50752E+01 0.00000E+00
 -1      3832 1.07375E+02 2.73548E+01 0.00000E+00
 -1      3833 1.54253E+01 1.86480E+01 0.00000E+00
 -1      3834 1.71488E+01 1.68680E+01 0.00000E+00
 -1      3835 1.68870E+01 2.42359E+01 0.00000E+00
 -1      3836 1.68870E+01 2.57078E+01 0.00000E+00
 -1      3837 1.81860E+01 2.64438E+01 0.00000E+00
 -1      3838 1.68870E+01 2.12922E+01 0.00000E+00
 -1      3839 1.68870E+01 2.27641E+01 0.00000E+00
 -1      3840 1.81860E+01 2.35000E+01 0.00000E+00
 -1      3841 2.71500E+01 3.18140E+01 0.00000E+00
 -1      3842 1.76190E+01 3.06007E+01 0.00000E+00
 -1      3843 1.75576E+01 3.30588E+01 0.00000E+00
 -1      3844 1.08266E+02 2.26480E+01 0.00000E+00
 -1      3845 1.09236E+02 2.12075E+01 0.00000E+00
 -1      3846 1.89180E+01 2.98648E+01 0.00000E+00
 -1      3847 1.08454E+02 2.01518E+01 0.00000E+00
 -1      3848 1.09859E+02 2.00510E+01 0.00000E+00
 -1      3849 1.10686E+02 1.93319E+01 0.00000E+00
 -1      3850 1.05925E+02 3.04011E+01 0.00000E+00
 -1      3851 1.06600E+02 2.87677E+01 0.00000E+00
 -1      3852 1.05975E+02 2.75754E+01 0.00000E+00
 -1      3853 1.04425E+02 3.04011E+01 0.00000E+00
 -1      3854 3.62850E+01 1.56973E+01 0.00000E+00
 -1      3855 3.55350E+01 1.69963E+01 0.00000E+00
 -1      3856 3.77850E+01 1.56973E+01 0.00000E+00
 -1      3857 3.24000E+01 3.05150E+01 0.00000E+00
 -1      3858 3.39000E+01 3.05150E+01 0.00000E+00
 -1      3859 3.54000E+01 3.05150E+01 0.00000E+00
 -1      3860 3.69000E+01 3.05150E+01 0.00000E+00
 -1      3861 3.46500E+01 2.92160E+01 0.00000E+00
 -1      3862 3.84000E+01 3.05150E+01 0.00000E+00
 -1      3863 3.99000E+01 3.05150E+01 0.00000E+00
 -1      3864 3.76500E+01 2.92160E+01 0.00000E+00
 -1      3865 4.14000E+01 3.05150E+01 0.00000E+00
 -1      3866 4.29000E+01 3.05150E+01 0.00000E+00
 -1      3867 4.06500E+01 2.92160E+01 0.00000E+00
 -1      3868 4.44000E+01 3.05150E+01 0.00000E+00
 -1      3869 4.59000E+01 3.05150E+01 0.00000E+00
 -1      3870 4.36500E+01 2.92160E+01 0.00000E+00
 -1      3871 4.74000E+01 3.05150E+01 0.00000E+00
 -1      3872 4.89000E+01 3.05150E+01 0.00000E+00
 -1      3873 4.66500E+01 2.92160E+01 0.00000E+00
 -1      3874 5.04000E+01 3.05150E+01 0.00000E+00
 -1      3875 5.19000E+01 3.05150E+01 0.00000E+00
 -1      3876 4.96500E+01 2.92160E+01 0.00000E+00
 -1      3877 5.34000E+01 3.05150E+01 0.00000E+00
 -1      3878 5.49000E+01 3.05150E+01 0.00000E+00
 -1      3879 5.26500E+01 2.92160E+01 0.00000E+00
 -1      3880 5.64000E+01 3.05150E+01 0.00000E+00
 -1      3881 5.79000E+01 3.05150E+01 0.00000E+00
 -1      3882 5.56500E+01 2.92160E+01 0.00000E+00
 -1      3883 5.94000E+01 3.05150E+01 0.00000E+00
 -1      3884 6.09000E+01 3.05150E+01 0.00000E+00
 -1      3885 5.86500E+01 2.92160E+01 0.00000E+00
 -1      3886 6.24000E+01 3.05150E+01 0.00000E+00
 -1      3887 6.39000E+01 3.05150E+01 0.00000E+00
 -1      3888 6.16500E+01 2.92160E+01 0.00000E+00
 -1      3889 6.54000E+01 3.05150E+01 0.00000E+00
 -1      3890 6.69000E+01 3.05150E+01 0.00000E+00
 -1      3891 6.46500E+01 2.92160E+01 0.00000E+00
 -1      3892 6.84000E+01 3.05150E+01 0.00000E+00
 -1      3893 6.99000E+01 3.05150E+01 0.00000E+00
 -1      3894 6.76500E+01 2.92160E+01 0.00000E+00
 -1      3895 7.14000E+01 3.05150E+01 0.00000E+00
 -1      3896 7.29000E+01 3.05150E+01 0.00000E+00
 -1      3897 7.06500E+01 2.92160E+01 0.00000E+00
 -1      3898 7.44000E+01 3.05150E+01 0.00000E+00
 -1      3899 7.59000E+01 3.05150E+01 0.00000E+00
 -1      3900 7.36500E+01 2.92160E+01 0.00000E+00
 -1      3901 7.74000E+01 3.05150E+01 0.00000E+00
 -1      3902 7.89000E+01 3.05150E+01 0.00000E+00
 -1      3903 7.66500E+01 2.92160E+01 0.00000E+00
 -1      3904 8.04000E+01 3.05150E+01 0.00000E+00
 -1      3905 8.19000E+01 3.05150E+01 0.00000E+00
 -1      3906 7.96500E+01 2.92160E+01 0.00000E+00
 -1      3907 8.34000E+01 3.05150E+01 0.00000E+00
 -1      3908 8.49000E+01 3.05150E+01 0.00000E+00
 -1      3909 8.26500E+01 2.92160E+01 0.00000E+00
 -1      3910 8.64000E+01 3.05150E+01 0.00000E+00
 -1      3911 8.79000E+01 3.05150E+01 0.00000E+00
 -1      3912 8.56500E+01 2.92160E+01 0.00000E+00
 -1      3913 8.94000E+01 3.05150E+01 0.00000E+00
 -1      3914 9.09000E+01 3.05150E+01 0.00000E+00
 -1      3915 8.86500E+01 2.92160E+01 0.00000E+00
 -1      3916 9.24000E+01 3.05150E+01 0.00000E+00
 -1      3917 9.39000E+01 3.05150E+01 0.00000E+00
 -1      3918 9.16500E+01 2.92160E+01 0.00000E+00
 -1      3919 9.54000E+01 3.05150E+01 0.00000E+00
 -1      3920 9.69000E+01 3.05150E+01 0.00000E+00
 -1      3921 9.46500E+01 2.92160E+01 0.00000E+00
 -1      3922 9.84000E+01 3.05150E+01 0.00000E+00
 -1      3923 9.99000E+01 3.05150E+01 0.00000E+00
 -1      3924 9.76500E+01 2.92160E+01 0.00000E+00
 -1      3925 1.01412E+02 3.04581E+01 0.00000E+00
 -1      3926 1.02912E+02 3.04581E+01 0.00000E+00
 -1      3927 1.03687E+02 2.90452E+01 0.00000E+00
 -1      3928 1.00662E+02 2.91591E+01 0.00000E+00
 -1      3929 6.32850E+01 1.82952E+01 0.00000E+00
 -1      3930 6.17850E+01 1.82952E+01 0.00000E+00
 -1      3931 5.72850E+01 1.82952E+01 0.00000E+00
 -1      3932 5.57850E+01 1.82952E+01 0.00000E+00
 -1      3933 5.42850E+01 1.82952E+01 0.00000E+00
 -1      3934 5.27850E+01 1.82952E+01 0.00000E+00
 -1      3935 5.50350E+01 1.95942E+01 0.00000E+00
 -1      3936 6.62850E+01 1.82952E+01 0.00000E+00
 -1      3937 6.47850E+01 1.82952E+01 0.00000E+00
 -1      3938 6.40350E+01 1.95942E+01 0.00000E+00
 -1      3939 6.92850E+01 1.82952E+01 0.00000E+00
 -1      3940 6.77850E+01 1.82952E+01 0.00000E+00
 -1      3941 6.70350E+01 1.95942E+01 0.00000E+00
 -1      3942 7.22850E+01 1.82952E+01 0.00000E+00
 -1      3943 7.07850E+01 1.82952E+01 0.00000E+00
 -1      3944 7.00350E+01 1.95942E+01 0.00000E+00
 -1      3945 7.52850E+01 1.82952E+01 0.00000E+00
 -1      3946 7.37850E+01 1.82952E+01 0.00000E+00
 -1      3947 7.30350E+01 1.95942E+01 0.00000E+00
 -1      3948 7.82850E+01 1.82952E+01 0.00000E+00
 -1      3949 7.67850E+01 1.82952E+01 0.00000E+00
 -1      3950 7.60350E+01 1.95942E+01 0.00000E+00
 -1      3951 8.12850E+01 1.82952E+01 0.00000E+00
 -1      3952 7.97850E+01 1.82952E+01 0.00000E+00
 -1      3953 7.90350E+01 1.95942E+01 0.00000E+00
 -1      3954 8.42850E+01 1.82952E+01 0.00000E+00
 -1      3955 8.27850E+01 1.82952E+01 0.00000E+00
 -1      3956 8.20350E+01 1.95942E+01 0.00000E+00
 -1      3957 8.72850E+01 1.82952E+01 0.00000E+00
 -1      3958 8.57850E+01 1.82952E+01 0.00000E+00
 -1      3959 8.50350E+01 1.95942E+01 0.00000E+00
 -1      3960 9.02850E+01 1.82952E+01 0.00000E+00
 -1      3961 8.87850E+01 1.82952E+01 0.00000E+00
 -1      3962 8.80350E+01 1.95942E+01 0.00000E+00
 -1      3963 9.32850E+01 1.82952E+01 0.00000E+00
 -1      3964 9.17850E+01 1.82952E+01 0.00000E+00
 -1      3965 9.10350E+01 1.95942E+01 0.00000E+00
 -1      3966 9.62850E+01 1.82952E+01 0.00000E+00
 -1      3967 9.47850E+01 1.82952E+01 0.00000E+00
 -1      3968 9.40350E+01 1.95942E+01 0.00000E+00
 -1      3969 9.92850E+01 1.82952E+01 0.00000E+00
 -1      3970 9.77850E+01 1.82952E+01 0.00000E+00
 -1      3971 9.70350E+01 1.95942E+01 0.00000E+00
 -1      3972 1.02285E+02 1.82952E+01 0.00000E+00
 -1      3973 1.00785E+02 1.82952E+01 0.00000E+00
 -1      3974 1.00035E+02 1.95942E+01 0.00000E+00
 -1      3975 1.05285E+02 1.82952E+01 0.00000E+00
 -1      3976 1.03785E+02 1.82952E+01 0.00000E+00
 -1      3977 1.03035E+02 1.95942E+01 0.00000E+00
 -1      3978 1.09056E+02 1.79958E+01 0.00000E+00
 -1      3979 1.07556E+02 1.79958E+01 0.00000E+00
 -1      3980 2.87850E+01 1.56973E+01 0.00000E+00
 -1      3981 2.72850E+01 1.56973E+01 0.00000E+00
 -1      3982 2.95350E+01 1.69963E+01 0.00000E+00
 -1      3983 2.34000E+01 3.05150E+01 0.00000E+00
 -1      3984 2.49000E+01 3.05150E+01 0.00000E+00
 -1      3985 2.12850E+01 1.82953E+01 0.00000E+00
 -1      3986 1.97851E+01 1.82953E+01 0.00000E+00
 -1      3987 2.64000E+01 3.05150E+01 0.00000E+00
 -1      3988 2.79000E+01 3.05150E+01 0.00000E+00
 -1      3989 2.56500E+01 2.92160E+01 0.00000E+00
 -1      3990 2.94000E+01 3.05150E+01 0.00000E+00
 -1      3991 3.09000E+01 3.05150E+01 0.00000E+00
 -1      3992 3.16500E+01 2.92160E+01 0.00000E+00
 -1      3993 1.73115E+01 1.87763E+01 0.00000E+00
 -1      3994 2.04090E+01 3.01899E+01 0.00000E+00
 -1      3995 2.19090E+01 3.01899E+01 0.00000E+00
 -1      3996 2.26590E+01 2.88909E+01 0.00000E+00
 -1      3997 1.96770E+01 2.82407E+01 0.00000E+00
 -1      3998 1.07290E+02 2.37354E+01 0.00000E+00
 -1      3999 1.06856E+02 2.23955E+01 0.00000E+00
 -1      4000 1.06315E+02 2.48228E+01 0.00000E+00
 -1      4001 1.96770E+01 2.52970E+01 0.00000E+00
 -1      4002 1.96770E+01 2.67688E+01 0.00000E+00
 -1      4003 2.11680E+01 2.70939E+01 0.00000E+00
 -1      4004 6.02850E+01 1.82952E+01 0.00000E+00
 -1      4005 5.87850E+01 1.82952E+01 0.00000E+00
 -1      4006 6.10350E+01 1.95942E+01 0.00000E+00
 -1      4007 1.80615E+01 2.00753E+01 0.00000E+00
 -1      4008 1.06806E+02 1.92948E+01 0.00000E+00
 -1      4009 3.32850E+01 1.82952E+01 0.00000E+00
 -1      4010 3.17850E+01 1.82952E+01 0.00000E+00
 -1      4011 5.12850E+01 1.82952E+01 0.00000E+00
 -1      4012 4.97850E+01 1.82952E+01 0.00000E+00
 -1      4013 5.20350E+01 1.95942E+01 0.00000E+00
 -1      4014 5.80350E+01 1.95942E+01 0.00000E+00
 -1      4015 3.62850E+01 1.82952E+01 0.00000E+00
 -1      4016 3.47850E+01 1.82952E+01 0.00000E+00
 -1      4017 3.40350E+01 1.95942E+01 0.00000E+00
 -1      4018 4.22850E+01 1.82952E+01 0.00000E+00
 -1      4019 4.07850E+01 1.82952E+01 0.00000E+00
 -1      4020 1.96770E+01 2.23532E+01 0.00000E+00
 -1      4021 1.96770E+01 2.38251E+01 0.00000E+00
 -1      4022 2.11680E+01 2.41502E+01 0.00000E+00
 -1      4023 1.06183E+02 2.04512E+01 0.00000E+00
 -1      4024 2.65350E+01 1.69963E+01 0.00000E+00
 -1      4025 2.27850E+01 1.82953E+01 0.00000E+00
 -1      4026 2.20351E+01 1.95943E+01 0.00000E+00
 -1      4027 2.42850E+01 1.82953E+01 0.00000E+00
 -1      4028 4.75350E+01 1.69963E+01 0.00000E+00
 -1      4029 2.86500E+01 2.92160E+01 0.00000E+00
 -1      4030 3.85350E+01 1.69963E+01 0.00000E+00
 -1      4031 1.05208E+02 2.15386E+01 0.00000E+00
 -1      4032 4.52850E+01 1.82952E+01 0.00000E+00
 -1      4033 4.37850E+01 1.82952E+01 0.00000E+00
 -1      4034 4.30350E+01 1.95942E+01 0.00000E+00
 -1      4035 3.39000E+01 2.79170E+01 0.00000E+00
 -1      4036 3.54000E+01 2.79170E+01 0.00000E+00
 -1      4037 3.69000E+01 2.79170E+01 0.00000E+00
 -1      4038 3.84000E+01 2.79170E+01 0.00000E+00
 -1      4039 3.61500E+01 2.66180E+01 0.00000E+00
 -1      4040 3.99000E+01 2.79170E+01 0.00000E+00
 -1      4041 4.14000E+01 2.79170E+01 0.00000E+00
 -1      4042 3.91500E+01 2.66180E+01 0.00000E+00
 -1      4043 4.29000E+01 2.79170E+01 0.00000E+00
 -1      4044 4.44000E+01 2.79170E+01 0.00000E+00
 -1      4045 4.21500E+01 2.66180E+01 0.00000E+00
 -1      4046 4.59000E+01 2.79170E+01 0.00000E+00
 -1      4047 4.74000E+01 2.79170E+01 0.00000E+00
 -1      4048 4.51500E+01 2.66180E+01 0.00000E+00
 -1      4049 4.89000E+01 2.79170E+01 0.00000E+00
 -1      4050 5.04000E+01 2.79170E+01 0.00000E+00
 -1      4051 4.81500E+01 2.66180E+01 0.00000E+00
 -1      4052 5.19000E+01 2.79170E+01 0.00000E+00
 -1      4053 5.34000E+01 2.79170E+01 0.00000E+00
 -1      4054 5.11500E+01 2.66180E+01 0.00000E+00
 -1      4055 5.49000E+01 2.79170E+01 0.00000E+00
 -1      4056 5.64000E+01 2.79170E+01 0.00000E+00
 -1      4057 5.41500E+01 2.66180E+01 0.00000E+00
 -1      4058 5.79000E+01 2.79170E+01 0.00000E+00
 -1      4059 5.94000E+01 2.79170E+01 0.00000E+00
 -1      4060 5.71500E+01 2.66180E+01 0.00000E+00
 -1      4061 6.09000E+01 2.79170E+01 0.00000E+00
 -1      4062 6.24000E+01 2.79170E+01 0.00000E+00
 -1      4063 6.01500E+01 2.66180E+01 0.00000E+00
 -1      4064 6.39000E+01 2.79170E+01 0.00000E+00
 -1      4065 6.54000E+01 2.79170E+01 0.00000E+00
 -1      4066 6.31500E+01 2.66180E+01 0.00000E+00
 -1      4067 6.69000E+01 2.79170E+01 0.00000E+00
 -1      4068 6.84000E+01 2.79170E+01 0.00000E+00
 -1      4069 6.61500E+01 2.66180E+01 0.00000E+00
 -1      4070 6.99000E+01 2.79170E+01 0.00000E+00
 -1      4071 7.14000E+01 2.79170E+01 0.00000E+00
 -1      4072 6.91500E+01 2.66180E+01 0.00000E+00
 -1      4073 7.29000E+01 2.79170E+01 0.00000E+00
 -1      4074 7.44000E+01 2.79170E+01 0.00000E+00
 -1      4075 7.21500E+01 2.66180E+01 0.00000E+00
 -1      4076 7.59000E+01 2.79170E+01 0.00000E+00
 -1      4077 7.74000E+01 2.79170E+01 0.00000E+00
 -1      4078 7.51500E+01 2.66180E+01 0.00000E+00
 -1      4079 7.89000E+01 2.79170E+01 0.00000E+00
 -1      4080 8.04000E+01 2.79170E+01 0.00000E+00
 -1      4081 7.81500E+01 2.66180E+01 0.00000E+00
 -1      4082 8.19000E+01 2.79170E+01 0.00000E+00
 -1      4083 8.34000E+01 2.79170E+01 0.00000E+00
 -1      4084 8.11500E+01 2.66180E+01 0.00000E+00
 -1      4085 8.49000E+01 2.79170E+01 0.00000E+00
 -1      4086 8.64000E+01 2.79170E+01 0.00000E+00
 -1      4087 8.41500E+01 2.66180E+01 0.00000E+00
 -1      4088 8.79000E+01 2.79170E+01 0.00000E+00
 -1      4089 8.94000E+01 2.79170E+01 0.00000E+00
 -1      4090 8.71500E+01 2.66180E+01 0.00000E+00
 -1      4091 9.09000E+01 2.79170E+01 0.00000E+00
 -1      4092 9.24000E+01 2.79170E+01 0.00000E+00
 -1      4093 9.01500E+01 2.66180E+01 0.00000E+00
 -1      4094 9.39000E+01 2.79170E+01 0.00000E+00
 -1      4095 9.54000E+01 2.79170E+01 0.00000E+00
 -1      4096 9.31500E+01 2.66180E+01 0.00000E+00
 -1      4097 9.69000E+01 2.79170E+01 0.00000E+00
 -1      4098 9.84000E+01 2.79170E+01 0.00000E+00
 -1      4099 9.61500E+01 2.66180E+01 0.00000E+00
 -1      4100 6.47850E+01 2.08932E+01 0.00000E+00
 -1      4101 6.32850E+01 2.08932E+01 0.00000E+00
 -1      4102 3.09000E+01 2.79170E+01 0.00000E+00
 -1      4103 3.24000E+01 2.79170E+01 0.00000E+00
 -1      4104 3.31500E+01 2.66180E+01 0.00000E+00
 -1      4105 5.87850E+01 2.08932E+01 0.00000E+00
 -1      4106 5.72850E+01 2.08932E+01 0.00000E+00
 -1      4107 7.07850E+01 2.08932E+01 0.00000E+00
 -1      4108 6.92850E+01 2.08932E+01 0.00000E+00
 -1      4109 7.37850E+01 2.08932E+01 0.00000E+00
 -1      4110 7.22850E+01 2.08932E+01 0.00000E+00
 -1      4111 7.15350E+01 2.21922E+01 0.00000E+00
 -1      4112 7.67850E+01 2.08932E+01 0.00000E+00
 -1      4113 7.52850E+01 2.08932E+01 0.00000E+00
 -1      4114 7.45350E+01 2.21922E+01 0.00000E+00
 -1      4115 7.97850E+01 2.08932E+01 0.00000E+00
 -1      4116 7.82850E+01 2.08932E+01 0.00000E+00
 -1      4117 7.75350E+01 2.21922E+01 0.00000E+00
 -1      4118 8.27850E+01 2.08932E+01 0.00000E+00
 -1      4119 8.12850E+01 2.08932E+01 0.00000E+00
 -1      4120 8.05350E+01 2.21922E+01 0.00000E+00
 -1      4121 8.57850E+01 2.08932E+01 0.00000E+00
 -1      4122 8.42850E+01 2.08932E+01 0.00000E+00
 -1      4123 8.35350E+01 2.21922E+01 0.00000E+00
 -1      4124 8.87850E+01 2.08932E+01 0.00000E+00
 -1      4125 8.72850E+01 2.08932E+01 0.00000E+00
 -1      4126 8.65350E+01 2.21922E+01 0.00000E+00
 -1      4127 9.17850E+01 2.08932E+01 0.00000E+00
 -1      4128 9.02850E+01 2.08932E+01 0.00000E+00
 -1      4129 8.95350E+01 2.21922E+01 0.00000E+00
 -1      4130 9.47850E+01 2.08932E+01 0.00000E+00
 -1      4131 9.32850E+01 2.08932E+01 0.00000E+00
 -1      4132 9.25350E+01 2.21922E+01 0.00000E+00
 -1      4133 9.77850E+01 2.08932E+01 0.00000E+00
 -1      4134 9.62850E+01 2.08932E+01 0.00000E+00
 -1      4135 9.55350E+01 2.21922E+01 0.00000E+00
 -1      4136 1.00785E+02 2.08932E+01 0.00000E+00
 -1      4137 9.92850E+01 2.08932E+01 0.00000E+00
 -1      4138 9.85350E+01 2.21922E+01 0.00000E+00
 -1      4139 1.03746E+02 2.12159E+01 0.00000E+00
 -1      4140 1.02246E+02 2.12159E+01 0.00000E+00
 -1      4141 1.01496E+02 2.25149E+01 0.00000E+00
 -1      4142 1.04419E+02 2.31602E+01 0.00000E+00
 -1      4143 4.00350E+01 1.95942E+01 0.00000E+00
 -1      4144 3.92850E+01 1.82952E+01 0.00000E+00
 -1      4145 3.77850E+01 1.82952E+01 0.00000E+00
 -1      4146 3.10350E+01 1.95942E+01 0.00000E+00
 -1      4147 3.02850E+01 1.82952E+01 0.00000E+00
 -1      4148 2.87850E+01 1.82952E+01 0.00000E+00
 -1      4149 2.49000E+01 2.79170E+01 0.00000E+00
 -1      4150 2.64000E+01 2.79170E+01 0.00000E+00
 -1      4151 4.82850E+01 1.82952E+01 0.00000E+00
 -1      4152 4.67850E+01 1.82952E+01 0.00000E+00
 -1      4153 4.60350E+01 1.95942E+01 0.00000E+00
 -1      4154 1.05288E+02 2.58399E+01 0.00000E+00
 -1      4155 1.04854E+02 2.45001E+01 0.00000E+00
 -1      4156 1.03392E+02 2.41774E+01 0.00000E+00
 -1      4157 2.72850E+01 1.82953E+01 0.00000E+00
 -1      4158 2.57850E+01 1.82953E+01 0.00000E+00
 -1      4159 2.50350E+01 1.95943E+01 0.00000E+00
 -1      4160 2.80350E+01 1.95943E+01 0.00000E+00
 -1      4161 2.79000E+01 2.79170E+01 0.00000E+00
 -1      4162 2.94000E+01 2.79170E+01 0.00000E+00
 -1      4163 2.71500E+01 2.66180E+01 0.00000E+00
 -1      4164 5.57850E+01 2.08932E+01 0.00000E+00
 -1      4165 5.42850E+01 2.08932E+01 0.00000E+00
 -1      4166 5.65350E+01 2.21922E+01 0.00000E+00
 -1      4167 1.93605E+01 2.08112E+01 0.00000E+00
 -1      4168 1.04513E+02 2.72528E+01 0.00000E+00
 -1      4169 2.22885E+01 2.73429E+01 0.00000E+00
 -1      4170 2.37795E+01 2.76680E+01 0.00000E+00
 -1      4171 2.45295E+01 2.63690E+01 0.00000E+00
 -1      4172 2.22885E+01 2.58710E+01 0.00000E+00
 -1      4173 6.77850E+01 2.08932E+01 0.00000E+00
 -1      4174 6.62850E+01 2.08932E+01 0.00000E+00
 -1      4175 6.55350E+01 2.21922E+01 0.00000E+00
 -1      4176 6.85350E+01 2.21922E+01 0.00000E+00
 -1      4177 2.08515E+01 2.11363E+01 0.00000E+00
 -1      4178 6.17850E+01 2.08932E+01 0.00000E+00
 -1      4179 6.02850E+01 2.08932E+01 0.00000E+00
 -1      4180 6.25350E+01 2.21922E+01 0.00000E+00
 -1      4181 9.91625E+01 2.65611E+01 0.00000E+00
 -1      4182 9.99125E+01 2.78601E+01 0.00000E+00
 -1      4183 1.01425E+02 2.78031E+01 0.00000E+00
 -1      4184 4.90350E+01 1.95942E+01 0.00000E+00
 -1      4185 5.95350E+01 2.21922E+01 0.00000E+00
 -1      4186 5.27850E+01 2.08932E+01 0.00000E+00
 -1      4187 5.12850E+01 2.08932E+01 0.00000E+00
 -1      4188 5.35350E+01 2.21922E+01 0.00000E+00
 -1      4189 1.03001E+02 2.73097E+01 0.00000E+00
 -1      4190 3.70350E+01 1.95942E+01 0.00000E+00
 -1      4191 2.22885E+01 2.29273E+01 0.00000E+00
 -1      4192 2.22885E+01 2.43992E+01 0.00000E+00
 -1      4193 2.34090E+01 2.46482E+01 0.00000E+00
 -1      4194 2.23515E+01 2.11363E+01 0.00000E+00
 -1      4195 4.07850E+01 2.08932E+01 0.00000E+00
 -1      4196 3.92850E+01 2.08932E+01 0.00000E+00
 -1      4197 3.17850E+01 2.08932E+01 0.00000E+00
 -1      4198 3.02850E+01 2.08932E+01 0.00000E+00
 -1      4199 3.01500E+01 2.66180E+01 0.00000E+00
 -1      4200 3.47850E+01 2.08932E+01 0.00000E+00
 -1      4201 3.32850E+01 2.08932E+01 0.00000E+00
 -1      4202 3.25350E+01 2.21922E+01 0.00000E+00
 -1      4203 4.37850E+01 2.08932E+01 0.00000E+00
 -1      4204 4.22850E+01 2.08932E+01 0.00000E+00
 -1      4205 4.15350E+01 2.21922E+01 0.00000E+00
 -1      4206 3.84000E+01 2.53190E+01 0.00000E+00
 -1      4207 3.99000E+01 2.53190E+01 0.00000E+00
 -1      4208 4.18425E+01 2.44051E+01 0.00000E+00
 -1      4209 4.33425E+01 2.44051E+01 0.00000E+00
 -1      4210 4.74000E+01 2.53190E+01 0.00000E+00
 -1      4211 4.89000E+01 2.53190E+01 0.00000E+00
 -1      4212 5.08425E+01 2.44051E+01 0.00000E+00
 -1      4213 5.23425E+01 2.44051E+01 0.00000E+00
 -1      4214 5.38425E+01 2.44051E+01 0.00000E+00
 -1      4215 5.53425E+01 2.44051E+01 0.00000E+00
 -1      4216 5.68425E+01 2.44051E+01 0.00000E+00
 -1      4217 5.83425E+01 2.44051E+01 0.00000E+00
 -1      4218 5.98425E+01 2.44051E+01 0.00000E+00
 -1      4219 6.13425E+01 2.44051E+01 0.00000E+00
 -1      4220 6.28425E+01 2.44051E+01 0.00000E+00
 -1      4221 6.43425E+01 2.44051E+01 0.00000E+00
 -1      4222 6.58425E+01 2.44051E+01 0.00000E+00
 -1      4223 6.73425E+01 2.44051E+01 0.00000E+00
 -1      4224 6.88425E+01 2.44051E+01 0.00000E+00
 -1      4225 7.03425E+01 2.44051E+01 0.00000E+00
 -1      4226 7.18425E+01 2.44051E+01 0.00000E+00
 -1      4227 7.33425E+01 2.44051E+01 0.00000E+00
 -1      4228 7.48425E+01 2.44051E+01 0.00000E+00
 -1      4229 7.63425E+01 2.44051E+01 0.00000E+00
 -1      4230 7.78425E+01 2.44051E+01 0.00000E+00
 -1      4231 7.93425E+01 2.44051E+01 0.00000E+00
 -1      4232 8.08425E+01 2.44051E+01 0.00000E+00
 -1      4233 8.23425E+01 2.44051E+01 0.00000E+00
 -1      4234 8.38425E+01 2.44051E+01 0.00000E+00
 -1      4235 8.53425E+01 2.44051E+01 0.00000E+00
 -1      4236 8.68425E+01 2.44051E+01 0.00000E+00
 -1      4237 8.83425E+01 2.44051E+01 0.00000E+00
 -1      4238 8.98425E+01 2.44051E+01 0.00000E+00
 -1      4239 9.13425E+01 2.44051E+01 0.00000E+00
 -1      4240 9.28425E+01 2.44051E+01 0.00000E+00
 -1      4241 9.43425E+01 2.44051E+01 0.00000E+00
 -1      4242 9.58425E+01 2.44051E+01 0.00000E+00
 -1      4243 9.73425E+01 2.44051E+01 0.00000E+00
 -1      4244 4.93425E+01 2.18071E+01 0.00000E+00
 -1      4245 4.78425E+01 2.18071E+01 0.00000E+00
 -1      4246 3.28425E+01 2.44051E+01 0.00000E+00
 -1      4247 3.43425E+01 2.44051E+01 0.00000E+00
 -1      4248 9.88425E+01 2.44051E+01 0.00000E+00
 -1      4249 1.01816E+02 2.46709E+01 0.00000E+00
 -1      4250 1.00355E+02 2.43482E+01 0.00000E+00
 -1      4251 2.95350E+01 2.21923E+01 0.00000E+00
 -1      4252 2.87850E+01 2.08933E+01 0.00000E+00
 -1      4253 2.72850E+01 2.08933E+01 0.00000E+00
 -1      4254 2.98425E+01 2.44051E+01 0.00000E+00
 -1      4255 3.13425E+01 2.44051E+01 0.00000E+00
 -1      4256 2.68425E+01 2.44051E+01 0.00000E+00
 -1      4257 2.83425E+01 2.44051E+01 0.00000E+00
 -1      4258 4.65638E+01 2.13502E+01 0.00000E+00
 -1      4259 4.50638E+01 2.13502E+01 0.00000E+00
 -1      4260 4.43138E+01 2.26492E+01 0.00000E+00
 -1      4261 4.68713E+01 2.35631E+01 0.00000E+00
 -1      4262 3.56213E+01 2.48621E+01 0.00000E+00
 -1      4263 3.71213E+01 2.48621E+01 0.00000E+00
 -1      4264 3.78713E+01 2.35631E+01 0.00000E+00
 -1      4265 3.53138E+01 2.26492E+01 0.00000E+00
 -1      4266 2.34720E+01 2.13853E+01 0.00000E+00
 -1      4267 1.02251E+02 2.60107E+01 0.00000E+00
 -1      4268 5.00925E+01 2.31061E+01 0.00000E+00
 -1      4269 4.61213E+01 2.48621E+01 0.00000E+00
 -1      4270 4.46213E+01 2.48621E+01 0.00000E+00
 -1      4271 2.61285E+01 2.11393E+01 0.00000E+00
 -1      4272 2.46285E+01 2.11393E+01 0.00000E+00
 -1      4273 2.45655E+01 2.29303E+01 0.00000E+00
 -1      4274 2.68785E+01 2.24383E+01 0.00000E+00
 -1      4275 2.42510E+01 2.49765E+01 0.00000E+00
 -1      4276 2.53715E+01 2.52254E+01 0.00000E+00
 -1      4277 3.60638E+01 2.13502E+01 0.00000E+00
 -1      4278 3.83138E+01 2.26492E+01 0.00000E+00
 -1      4279 3.75638E+01 2.13502E+01 0.00000E+00
 -1      4280 3.95925E+01 2.31061E+01 0.00000E+00
 -1      4281 4.10925E+01 2.31061E+01 0.00000E+00
 -1      4282 2.42510E+01 2.35046E+01 0.00000E+00
 -1      4283 2.54075E+01 2.32586E+01 0.00000E+00
 -1      4284 2.65640E+01 2.30126E+01 0.00000E+00
 -3
    3C                          2060                                     1
 -1       165    8    0    1
 -2         6         7        23      1113      1277      1130
 -1       166    8    0    1
 -2         7         8       165      1114      1278      1279
 -1       167    8    0    1
 -2         8         9       166      1115      1280      1281
 -1       168    8    0    1
 -2         8       166       165      1281      1282      1278
 -1       169    8    0    1
 -2         9        10       167      1116      1283      1284
 -1       170    8    0    1
 -2         9       167       166      1284      1285      1280
 -1       171    8    0    1
 -2        10        11       168      1117      1286      1287
 -1       172    8    0    1
 -2        10       168       167      1287      1288      1283
 -1       173    8    0    1
 -2        11        12       169      1118      1289      1290
 -1       174    8    0    1
 -2        11       169       168      1290      1291      1286
 -1       175    8    0    1
 -2        12        13       170      1119      1292      1293
 -1       176    8    0    1
 -2        12       170       169      1293      1294      1289
 -1       177    8    0    1
 -2        13        14       171      1120      1295      1296
 -1       178    8    0    1
 -2        13       171       170      1296      1297      1292
 -1       179    8    0    1
 -2        14        15       172      1121      1298      1299
 -1       180    8    0    1
 -2        14       172       171      1299      1300      1295
 -1       181    8    0    1
 -2        15        16       173      1122      1301      1302
 -1       182    8    0    1
 -2        15       173       172      1302      1303      1298
 -1       183    8    0    1
 -2        16        17       174      1123      1304      1305
 -1       184    8    0    1
 -2        16       174       173      1305      1306      1301
 -1       185    8    0    1
 -2        17        18       175      1124      1307      1308
 -1       186    8    0    1
 -2        17       175       174      1308      1309      1304
 -1       187    8    0    1
 -2        18        19       176      1125      1310      1311
 -1       188    8    0    1
 -2        18       176       175      1311      1312      1307
 -1       189    8    0    1
 -2        19        20       177      1126      1313      1314
 -1       190    8    0    1
 -2        19       177       176      1314      1315      1310
 -1       191    8    0    1
 -2        20        21       178      1127      1316      1317
 -1       192    8    0    1
 -2        20       178       177      1317      1318      1313
 -1       193    8    0    1
 -2        21        22       179      1128      1319      1320
 -1       194    8    0    1
 -2        21       179       178      1320      1321      1316
 -1       195    8    0    1
 -2        22         5       180      1129      1322      1323
 -1       196    8    0    1
 -2       179        22       180      1319      1323      1324
 -1       197    8    0    1
 -2         5        72       180      1180      1325      1322
 -1       198    8    0    1
 -2        24        23       181      1131      1326      1327
 -1       199    8    0    1
 -2        25        24       182      1132      1328      1329
 -1       200    8    0    1
 -2        24       181       182      1327      1330      1328
 -1       201    8    0    1
 -2        26        25       183      1133      1331      1332
 -1       202    8    0    1
 -2        25       182       183      1329      1333      1331
 -1       203    8    0    1
 -2        27        26       184      1134      1334      1335
 -1       204    8    0    1
 -2        26       183       184      1332      1336      1334
 -1       205    8    0    1
 -2        28        27       185      1135      1337      1338
 -1       206    8    0    1
 -2        27       184       185      1335      1339      1337
 -1       207    8    0    1
 -2        29        28       186      1136      1340      1341
 -1       208    8    0    1
 -2        28       185       186      1338      1342      1340
 -1       209    8    0    1
 -2        30        29       187      1137      1343      1344
 -1       210    8    0    1
 -2        29       186       187      1341      1345      1343
 -1       211    8    0    1
 -2        31        30       188      1138      1346      1347
 -1       212    8    0    1
 -2        30       187       188      1344      1348      1346
 -1       213    8    0    1
 -2        32        31       189      1139      1349      1350
 -1       214    8    0    1
 -2        31       188       189      1347      1351      1349
 -1       215    8    0    1
 -2        33        32       190      1140      1352      1353
 -1       216    8    0    1
 -2        32       189       190      1350      1354      1352
 -1       217    8    0    1
 -2        34        33       191      1141      1355      1356
 -1       218    8    0    1
 -2        33       190       191      1353      1357      1355
 -1       219    8    0    1
 -2        35        34       192      1142      1358      1359
 -1       220    8    0    1
 -2        34       191       192      1356      1360      1358
 -1       221    8    0    1
 -2        36        35       193      1143      1361      1362
 -1       222    8    0    1
 -2        35       192       193      1359      1363      1361
 -1       223    8    0    1
 -2        37        36       194      1144      1364      1365
 -1       224    8    0    1
 -2        36       193       194      1362      1366      1364
 -1       225    8    0    1
 -2        38        37       195      1145      1367      1368
 -1       226    8    0    1
 -2        37       194       195      1365      1369      1367
 -1       227    8    0    1
 -2        39        38       196      1146      1370      1371
 -1       228    8    0    1
 -2        38       195       196      1368      1372      1370
 -1       229    8    0    1
 -2        40        39       197      1147      1373      1374
 -1       230    8    0    1
 -2        39       196       197      1371      1375      1373
 -1       231    8    0    1
 -2        41        40       198      1148      1376      1377
 -1       232    8    0    1
 -2        40       197       198      1374      1378      1376
 -1       233    8    0    1
 -2        42        41       199      1149      1379      1380
 -1       234    8    0    1
 -2        41       198       199      1377      1381      1379
 -1       235    8    0    1
 -2        43        42       200      1150      1382      1383
 -1       236    8    0    1
 -2        42       199       200      1380      1384      1382
 -1       237    8    0    1
 -2        44        43       201      1151      1385      1386
 -1       238    8    0    1
 -2        43       200       201      1383      1387      1385
 -1       239    8    0    1
 -2        45        44       202      1152      1388      1389
 -1       240    8    0    1
 -2        44       201       202      1386      1390      1388
 -1       241    8    0    1
 -2        46        45       203      1153      1391      1392
 -1       242    8    0    1
 -2        45       202       203      1389      1393      1391
 -1       243    8    0    1
 -2        47        46       204      1154      1394      1395
 -1       244    8    0    1
 -2        46       203       204      1392      1396      1394
 -1       245    8    0    1
 -2        48        47       205      1155      1397      1398
 -1       246    8    0    1
 -2        47       204       205      1395      1399      1397
 -1       247    8    0    1
 -2        49        48       206      1156      1400      1401
 -1       248    8    0    1
 -2        48       205       206      1398      1402      1400
 -1       249    8    0    1
 -2        50        49       207      1157      1403      1404
 -1       250    8    0    1
 -2        49       206       207      1401      1405      1403
 -1       251    8    0    1
 -2        51        50       208      1158      1406      1407
 -1       252    8    0    1
 -2        50       207       208      1404      1408      1406
 -1       253    8    0    1
 -2        52        51       209      1159      1409      1410
 -1       254    8    0    1
 -2        51       208       209      1407      1411      1409
 -1       255    8    0    1
 -2        53        52       210      1160      1412      1413
 -1       256    8    0    1
 -2        52       209       210      1410      1414      1412
 -1       257    8    0    1
 -2        54        53       211      1161      1415      1416
 -1       258    8    0    1
 -2        53       210       211      1413      1417      1415
 -1       259    8    0    1
 -2        55        54       212      1162      1418      1419
 -1       260    8    0    1
 -2        54       211       212      1416      1420      1418
 -1       261    8    0    1
 -2        56        55       213      1163      1421      1422
 -1       262    8    0    1
 -2        55       212       213      1419      1423      1421
 -1       263    8    0    1
 -2        57        56       214      1164      1424      1425
 -1       264    8    0    1
 -2        56       213       214      1422      1426      1424
 -1       265    8    0    1
 -2        58        57       215      1165      1427      1428
 -1       266    8    0    1
 -2        57       214       215      1425      1429      1427
 -1       267    8    0    1
 -2        59        58       216      1166      1430      1431
 -1       268    8    0    1
 -2        58       215       216      1428      1432      1430
 -1       269    8    0    1
 -2        60        59       217      1167      1433      1434
 -1       270    8    0    1
 -2        59       216       217      1431      1435      1433
 -1       271    8    0    1
 -2        61        60       218      1168      1436      1437
 -1       272    8    0    1
 -2        60       217       218      1434      1438      1436
 -1       273    8    0    1
 -2        62        61       219      1169      1439      1440
 -1       274    8    0    1
 -2        61       218       219      1437      1441      1439
 -1       275    8    0    1
 -2        63        62       220      1170      1442      1443
 -1       276    8    0    1
 -2        62       219       220      1440      1444      1442
 -1       277    8    0    1
 -2        64        63       221      1171      1445      1446
 -1       278    8    0    1
 -2        63       220       221      1443      1447      1445
 -1       279    8    0    1
 -2        65        64       222      1172      1448      1449
 -1       280    8    0    1
 -2        64       221       222      1446      1450      1448
 -1       281    8    0    1
 -2        66        65       223      1173      1451      1452
 -1       282    8    0    1
 -2        65       222       223      1449      1453      1451
 -1       283    8    0    1
 -2        67        66       224      1174      1454      1455
 -1       284    8    0    1
 -2        66       223       224      1452      1456      1454
 -1       285    8    0    1
 -2        68        67       225      1175      1457      1458
 -1       286    8    0    1
 -2        67       224       225      1455      1459      1457
 -1       287    8    0    1
 -2        69        68       226      1176      1460      1461
 -1       288    8    0    1
 -2        68       225       226      1458      1462      1460
 -1       289    8    0    1
 -2        70        69       227      1177      1463      1464
 -1       290    8    0    1
 -2        69       226       227      1461      1465      1463
 -1       291    8    0    1
 -2        71        70       228      1178      1466      1467
 -1       292    8    0    1
 -2        70       227       228      1464      1468      1466
 -1       293    8    0    1
 -2         4        71       136      1179      1469      1246
 -1       294    8    0    1
 -2       136        71       228      1469      1467      1470
 -1       295    8    0    1
 -2        72        73       229      1181      1471      1472
 -1       296    8    0    1
 -2        72       229       180      1472      1473      1325
 -1       297    8    0    1
 -2        73        74       230      1182      1474      1475
 -1       298    8    0    1
 -2        73       230       229      1475      1476      1471
 -1       299    8    0    1
 -2        74        75       231      1183      1477      1478
 -1       300    8    0    1
 -2        74       231       230      1478      1479      1474
 -1       301    8    0    1
 -2        75        76       232      1184      1480      1481
 -1       302    8    0    1
 -2        75       232       231      1481      1482      1477
 -1       303    8    0    1
 -2        76        77       233      1185      1483      1484
 -1       304    8    0    1
 -2        76       233       232      1484      1485      1480
 -1       305    8    0    1
 -2        77        78       234      1186      1486      1487
 -1       306    8    0    1
 -2        77       234       233      1487      1488      1483
 -1       307    8    0    1
 -2        78        79       235      1187      1489      1490
 -1       308    8    0    1
 -2        78       235       234      1490      1491      1486
 -1       309    8    0    1
 -2        79        80       236      1188      1492      1493
 -1       310    8    0    1
 -2        79       236       235      1493      1494      1489
 -1       311    8    0    1
 -2        80        81       237      1189      1495      1496
 -1       312    8    0    1
 -2        80       237       236      1496      1497      1492
 -1       313    8    0    1
 -2        81        82       238      1190      1498      1499
 -1       314    8    0    1
 -2        81       238       237      1499      1500      1495
 -1       315    8    0    1
 -2        82        83       239      1191      1501      1502
 -1       316    8    0    1
 -2        82       239       238      1502      1503      1498
 -1       317    8    0    1
 -2        83        84       240      1192      1504      1505
 -1       318    8    0    1
 -2        83       240       239      1505      1506      1501
 -1       319    8    0    1
 -2        84        85       241      1193      1507      1508
 -1       320    8    0    1
 -2        84       241       240      1508      1509      1504
 -1       321    8    0    1
 -2        85        86       242      1194      1510      1511
 -1       322    8    0    1
 -2        85       242       241      1511      1512      1507
 -1       323    8    0    1
 -2        86        87       243      1195      1513      1514
 -1       324    8    0    1
 -2        86       243       242      1514      1515      1510
 -1       325    8    0    1
 -2        87        88       244      1196      1516      1517
 -1       326    8    0    1
 -2        87       244       243      1517      1518      1513
 -1       327    8    0    1
 -2        88        89       245      1197      1519      1520
 -1       328    8    0    1
 -2        88       245       244      1520      1521      1516
 -1       329    8    0    1
 -2        89        90       246      1198      1522      1523
 -1       330    8    0    1
 -2        89       246       245      1523      1524      1519
 -1       331    8    0    1
 -2        90        91       247      1199      1525      1526
 -1       332    8    0    1
 -2        90       247       246      1526      1527      1522
 -1       333    8    0    1
 -2        91        92       248      1200      1528      1529
 -1       334    8    0    1
 -2        91       248       247      1529      1530      1525
 -1       335    8    0    1
 -2        92        93       249      1201      1531      1532
 -1       336    8    0    1
 -2        92       249       248      1532      1533      1528
 -1       337    8    0    1
 -2        93        94       250      1202      1534      1535
 -1       338    8    0    1
 -2        93       250       249      1535      1536      1531
 -1       339    8    0    1
 -2        94        95       251      1203      1537      1538
 -1       340    8    0    1
 -2        94       251       250      1538      1539      1534
 -1       341    8    0    1
 -2        95        96       252      1204      1540      1541
 -1       342    8    0    1
 -2        95       252       251      1541      1542      1537
 -1       343    8    0    1
 -2        96        97       253      1205      1543      1544
 -1       344    8    0    1
 -2        96       253       252      1544      1545      1540
 -1       345    8    0    1
 -2        97        98       254      1206      1546      1547
 -1       346    8    0    1
 -2        97       254       253      1547      1548      1543
 -1       347    8    0    1
 -2        98        99       255      1207      1549      1550
 -1       348    8    0    1
 -2        98       255       254      1550      1551      1546
 -1       349    8    0    1
 -2        99       100       256      1208      1552      1553
 -1       350    8    0    1
 -2        99       256       255      1553      1554      1549
 -1       351    8    0    1
 -2       100       101       257      1209      1555      1556
 -1       352    8    0    1
 -2       100       257       256      1556      1557      1552
 -1       353    8    0    1
 -2       101       102       258      1210      1558      1559
 -1       354    8    0    1
 -2       101       258       257      1559      1560      1555
 -1       355    8    0    1
 -2       102       103       259      1211      1561      1562
 -1       356    8    0    1
 -2       102       259       258      1562      1563      1558
 -1       357    8    0    1
 -2       103       104       260      1212      1564      1565
 -1       358    8    0    1
 -2       103       260       259      1565      1566      1561
 -1       359    8    0    1
 -2       104       105       261      1213      1567      1568
 -1       360    8    0    1
 -2       104       261       260      1568      1569      1564
 -1       361    8    0    1
 -2       105       106       262      1214      1570      1571
 -1       362    8    0    1
 -2       105       262       261      1571      1572      1567
 -1       363    8    0    1
 -2       106       107       263      1215      1573      1574
 -1       364    8    0    1
 -2       106       263       262      1574      1575      1570
 -1       365    8    0    1
 -2       107       108       264      1216      1576      1577
 -1       366    8    0    1
 -2       107       264       263      1577      1578      1573
 -1       367    8    0    1
 -2       108       109       265      1217      1579      1580
 -1       368    8    0    1
 -2       108       265       264      1580      1581      1576
 -1       369    8    0    1
 -2       109       110       266      1218      1582      1583
 -1       370    8    0    1
 -2       109       266       265      1583      1584      1579
 -1       371    8    0    1
 -2       110       111       267      1219      1585      1586
 -1       372    8    0    1
 -2       110       267       266      1586      1587      1582
 -1       373    8    0    1
 -2       111       112       268      1220      1588      1589
 -1       374    8    0    1
 -2       111       268       267      1589      1590      1585
 -1       375    8    0    1
 -2       112       113       269      1221      1591      1592
 -1       376    8    0    1
 -2       112       269       268      1592      1593      1588
 -1       377    8    0    1
 -2       113       114       270      1222      1594      1595
 -1       378    8    0    1
 -2       113       270       269      1595      1596      1591
 -1       379    8    0    1
 -2       114       115       271      1223      1597      1598
 -1       380    8    0    1
 -2       114       271       270      1598      1599      1594
 -1       381    8    0    1
 -2       115       116       272      1224      1600      1601
 -1       382    8    0    1
 -2       115       272       271      1601      1602      1597
 -1       383    8    0    1
 -2       116       117       273      1225      1603      1604
 -1       384    8    0    1
 -2       116       273       272      1604      1605      1600
 -1       385    8    0    1
 -2       117       118       274      1226      1606      1607
 -1       386    8    0    1
 -2       117       274       273      1607      1608      1603
 -1       387    8    0    1
 -2       118       119       275      1227      1609      1610
 -1       388    8    0    1
 -2       118       275       274      1610      1611      1606
 -1       389    8    0    1
 -2       119       120       276      1228      1612      1613
 -1       390    8    0    1
 -2       119       276       275      1613      1614      1609
 -1       391    8    0    1
 -2       120         3       121      1229      1230      1615
 -1       392    8    0    1
 -2       121       122       277      1231      1616      1617
 -1       393    8    0    1
 -2       122       123       278      1232      1618      1619
 -1       394    8    0    1
 -2       122       278       277      1619      1620      1616
 -1       395    8    0    1
 -2       123       124       279      1233      1621      1622
 -1       396    8    0    1
 -2       123       279       278      1622      1623      1618
 -1       397    8    0    1
 -2       124       125       280      1234      1624      1625
 -1       398    8    0    1
 -2       124       280       279      1625      1626      1621
 -1       399    8    0    1
 -2       125       126       281      1235      1627      1628
 -1       400    8    0    1
 -2       125       281       280      1628      1629      1624
 -1       401    8    0    1
 -2       126       127       282      1236      1630      1631
 -1       402    8    0    1
 -2       126       282       281      1631      1632      1627
 -1       403    8    0    1
 -2       127       128       283      1237      1633      1634
 -1       404    8    0    1
 -2       127       283       282      1634      1635      1630
 -1       405    8    0    1
 -2       128       129       284      1238      1636      1637
 -1       406    8    0    1
 -2       128       284       283      1637      1638      1633
 -1       407    8    0    1
 -2       129       130       285      1239      1639      1640
 -1       408    8    0    1
 -2       129       285       284      1640      1641      1636
 -1       409    8    0    1
 -2       130       131       286      1240      1642      1643
 -1       410    8    0    1
 -2       130       286       285      1643      1644      1639
 -1       411    8    0    1
 -2       131       132       287      1241      1645      1646
 -1       412    8    0    1
 -2       131       287       286      1646      1647      1642
 -1       413    8    0    1
 -2       132       133       288      1242      1648      1649
 -1       414    8    0    1
 -2       132       288       287      1649      1650      1645
 -1       415    8    0    1
 -2       133       134       289      1243      1651      1652
 -1       416    8    0    1
 -2       133       289       288      1652      1653      1648
 -1       417    8    0    1
 -2       134       135       290      1244      1654      1655
 -1       418    8    0    1
 -2       134       290       289      1655      1656      1651
 -1       419    8    0    1
 -2       135       136       291      1245      1657      1658
 -1       420    8    0    1
 -2       290       135       291      1654      1658      1659
 -1       421    8    0    1
 -2       136       228       291      1470      1660      1657
 -1       422    8    0    1
 -2         2       137       292      1247      1661      1662
 -1       423    8    0    1
 -2       137       138       293      1248      1663      1664
 -1       424    8    0    1
 -2       138       139       294      1249      1665      1666
 -1       425    8    0    1
 -2       139       140       295      1250      1667      1668
 -1       426    8    0    1
 -2       140       141       296      1251      1669      1670
 -1       427    8    0    1
 -2       141       142       297      1252      1671      1672
 -1       428    8    0    1
 -2       142       143       298      1253      1673      1674
 -1       429    8    0    1
 -2       143       144       299      1254      1675      1676
 -1       430    8    0    1
 -2       144       145       300      1255      1677      1678
 -1       431    8    0    1
 -2       145       146       301      1256      1679      1680
 -1       432    8    0    1
 -2       146       147       302      1257      1681      1682
 -1       433    8    0    1
 -2       147       148       303      1258      1683      1684
 -1       434    8    0    1
 -2       148       149       304      1259      1685      1686
 -1       435    8    0    1
 -2       149       150       305      1260      1687      1688
 -1       436    8    0    1
 -2       150       151       306      1261      1689      1690
 -1       437    8    0    1
 -2       151       152       307      1262      1691      1692
 -1       438    8    0    1
 -2       152       153       308      1263      1693      1694
 -1       439    8    0    1
 -2       153       154       309      1264      1695      1696
 -1       440    8    0    1
 -2       154         1       310      1265      1697      1698
 -1       441    8    0    1
 -2         1       155       311      1266      1699      1700
 -1       442    8    0    1
 -2       155       156       312      1267      1701      1702
 -1       443    8    0    1
 -2       156       157       313      1268      1703      1704
 -1       444    8    0    1
 -2       157       158       314      1269      1705      1706
 -1       445    8    0    1
 -2       158       159       315      1270      1707      1708
 -1       446    8    0    1
 -2       159       160       316      1271      1709      1710
 -1       447    8    0    1
 -2       160       161       317      1272      1711      1712
 -1       448    8    0    1
 -2       161       162       318      1273      1713      1714
 -1       449    8    0    1
 -2       162       163       319      1274      1715      1716
 -1       450    8    0    1
 -2       163       164       320      1275      1717      1718
 -1       451    8    0    1
 -2       164         2       321      1276      1719      1720
 -1       452    8    0    1
 -2       295       140       296      1667      1670      1721
 -1       453    8    0    1
 -2       294       139       295      1665      1668      1722
 -1       454    8    0    1
 -2       120       121       276      1615      1723      1612
 -1       455    8    0    1
 -2       121       277       276      1617      1724      1723
 -1       456    8    0    1
 -2       292       137       293      1661      1664      1725
 -1       457    8    0    1
 -2       293       138       294      1663      1666      1726
 -1       458    8    0    1
 -2         2       292       321      1662      1727      1719
 -1       459    8    0    1
 -2       141       297       296      1672      1728      1669
 -1       460    8    0    1
 -2       142       298       297      1674      1729      1671
 -1       461    8    0    1
 -2       143       299       298      1676      1730      1673
 -1       462    8    0    1
 -2       144       300       299      1678      1731      1675
 -1       463    8    0    1
 -2       145       301       300      1680      1732      1677
 -1       464    8    0    1
 -2       146       302       301      1682      1733      1679
 -1       465    8    0    1
 -2       147       303       302      1684      1734      1681
 -1       466    8    0    1
 -2       148       304       303      1686      1735      1683
 -1       467    8    0    1
 -2       149       305       304      1688      1736      1685
 -1       468    8    0    1
 -2       150       306       305      1690      1737      1687
 -1       469    8    0    1
 -2       151       307       306      1692      1738      1689
 -1       470    8    0    1
 -2       152       308       307      1694      1739      1691
 -1       471    8    0    1
 -2       153       309       308      1696      1740      1693
 -1       472    8    0    1
 -2       154       310       309      1698      1741      1695
 -1       473    8    0    1
 -2         1       311       310      1700      1742      1697
 -1       474    8    0    1
 -2       155       312       311      1702      1743      1699
 -1       475    8    0    1
 -2       156       313       312      1704      1744      1701
 -1       476    8    0    1
 -2       157       314       313      1706      1745      1703
 -1       477    8    0    1
 -2       158       315       314      1708      1746      1705
 -1       478    8    0    1
 -2       159       316       315      1710      1747      1707
 -1       479    8    0    1
 -2       160       317       316      1712      1748      1709
 -1       480    8    0    1
 -2       161       318       317      1714      1749      1711
 -1       481    8    0    1
 -2       162       319       318      1716      1750      1713
 -1       482    8    0    1
 -2       163       320       319      1718      1751      1715
 -1       483    8    0    1
 -2       164       321       320      1720      1752      1717
 -1       484    8    0    1
 -2        23         7       165      1277      1279      1753
 -1       485    8    0    1
 -2       166       167       322      1285      1754      1755
 -1       486    8    0    1
 -2       165       166       323      1282      1756      1757
 -1       487    8    0    1
 -2       166       322       323      1755      1758      1756
 -1       488    8    0    1
 -2       168       169       324      1291      1759      1760
 -1       489    8    0    1
 -2       169       170       325      1294      1761      1762
 -1       490    8    0    1
 -2       169       325       324      1762      1763      1759
 -1       491    8    0    1
 -2       170       171       326      1297      1764      1765
 -1       492    8    0    1
 -2       170       326       325      1765      1766      1761
 -1       493    8    0    1
 -2       171       172       327      1300      1767      1768
 -1       494    8    0    1
 -2       171       327       326      1768      1769      1764
 -1       495    8    0    1
 -2       172       173       328      1303      1770      1771
 -1       496    8    0    1
 -2       172       328       327      1771      1772      1767
 -1       497    8    0    1
 -2       173       174       329      1306      1773      1774
 -1       498    8    0    1
 -2       173       329       328      1774      1775      1770
 -1       499    8    0    1
 -2       174       175       330      1309      1776      1777
 -1       500    8    0    1
 -2       174       330       329      1777      1778      1773
 -1       501    8    0    1
 -2       175       176       331      1312      1779      1780
 -1       502    8    0    1
 -2       175       331       330      1780      1781      1776
 -1       503    8    0    1
 -2       176       177       332      1315      1782      1783
 -1       504    8    0    1
 -2       176       332       331      1783      1784      1779
 -1       505    8    0    1
 -2       177       178       333      1318      1785      1786
 -1       506    8    0    1
 -2       177       333       332      1786      1787      1782
 -1       507    8    0    1
 -2       178       179       334      1321      1788      1789
 -1       508    8    0    1
 -2       178       334       333      1789      1790      1785
 -1       509    8    0    1
 -2       179       180       335      1324      1791      1792
 -1       510    8    0    1
 -2       334       179       335      1788      1792      1793
 -1       511    8    0    1
 -2       180       229       335      1473      1794      1791
 -1       512    8    0    1
 -2       181        23       165      1326      1753      1795
 -1       513    8    0    1
 -2       229       230       336      1476      1796      1797
 -1       514    8    0    1
 -2       229       336       335      1797      1798      1794
 -1       515    8    0    1
 -2       181       165       323      1795      1757      1799
 -1       516    8    0    1
 -2       183       182       337      1333      1800      1801
 -1       517    8    0    1
 -2       184       183       338      1336      1802      1803
 -1       518    8    0    1
 -2       183       337       338      1801      1804      1802
 -1       519    8    0    1
 -2       185       184       339      1339      1805      1806
 -1       520    8    0    1
 -2       184       338       339      1803      1807      1805
 -1       521    8    0    1
 -2       186       185       340      1342      1808      1809
 -1       522    8    0    1
 -2       185       339       340      1806      1810      1808
 -1       523    8    0    1
 -2       187       186       341      1345      1811      1812
 -1       524    8    0    1
 -2       186       340       341      1809      1813      1811
 -1       525    8    0    1
 -2       188       187       342      1348      1814      1815
 -1       526    8    0    1
 -2       187       341       342      1812      1816      1814
 -1       527    8    0    1
 -2       189       188       343      1351      1817      1818
 -1       528    8    0    1
 -2       188       342       343      1815      1819      1817
 -1       529    8    0    1
 -2       190       189       344      1354      1820      1821
 -1       530    8    0    1
 -2       189       343       344      1818      1822      1820
 -1       531    8    0    1
 -2       191       190       345      1357      1823      1824
 -1       532    8    0    1
 -2       190       344       345      1821      1825      1823
 -1       533    8    0    1
 -2       192       191       346      1360      1826      1827
 -1       534    8    0    1
 -2       191       345       346      1824      1828      1826
 -1       535    8    0    1
 -2       193       192       347      1363      1829      1830
 -1       536    8    0    1
 -2       192       346       347      1827      1831      1829
 -1       537    8    0    1
 -2       194       193       348      1366      1832      1833
 -1       538    8    0    1
 -2       193       347       348      1830      1834      1832
 -1       539    8    0    1
 -2       195       194       349      1369      1835      1836
 -1       540    8    0    1
 -2       194       348       349      1833      1837      1835
 -1       541    8    0    1
 -2       196       195       350      1372      1838      1839
 -1       542    8    0    1
 -2       195       349       350      1836      1840      1838
 -1       543    8    0    1
 -2       197       196       351      1375      1841      1842
 -1       544    8    0    1
 -2       196       350       351      1839      1843      1841
 -1       545    8    0    1
 -2       198       197       352      1378      1844      1845
 -1       546    8    0    1
 -2       197       351       352      1842      1846      1844
 -1       547    8    0    1
 -2       199       198       353      1381      1847      1848
 -1       548    8    0    1
 -2       198       352       353      1845      1849      1847
 -1       549    8    0    1
 -2       200       199       354      1384      1850      1851
 -1       550    8    0    1
 -2       199       353       354      1848      1852      1850
 -1       551    8    0    1
 -2       201       200       355      1387      1853      1854
 -1       552    8    0    1
 -2       200       354       355      1851      1855      1853
 -1       553    8    0    1
 -2       202       201       356      1390      1856      1857
 -1       554    8    0    1
 -2       201       355       356      1854      1858      1856
 -1       555    8    0    1
 -2       203       202       357      1393      1859      1860
 -1       556    8    0    1
 -2       202       356       357      1857      1861      1859
 -1       557    8    0    1
 -2       204       203       358      1396      1862      1863
 -1       558    8    0    1
 -2       203       357       358      1860      1864      1862
 -1       559    8    0    1
 -2       205       204       359      1399      1865      1866
 -1       560    8    0    1
 -2       204       358       359      1863      1867      1865
 -1       561    8    0    1
 -2       206       205       360      1402      1868      1869
 -1       562    8    0    1
 -2       205       359       360      1866      1870      1868
 -1       563    8    0    1
 -2       207       206       361      1405      1871      1872
 -1       564    8    0    1
 -2       206       360       361      1869      1873      1871
 -1       565    8    0    1
 -2       208       207       362      1408      1874      1875
 -1       566    8    0    1
 -2       207       361       362      1872      1876      1874
 -1       567    8    0    1
 -2       209       208       363      1411      1877      1878
 -1       568    8    0    1
 -2       208       362       363      1875      1879      1877
 -1       569    8    0    1
 -2       210       209       364      1414      1880      1881
 -1       570    8    0    1
 -2       209       363       364      1878      1882      1880
 -1       571    8    0    1
 -2       211       210       365      1417      1883      1884
 -1       572    8    0    1
 -2       210       364       365      1881      1885      1883
 -1       573    8    0    1
 -2       212       211       366      1420      1886      1887
 -1       574    8    0    1
 -2       211       365       366      1884      1888      1886
 -1       575    8    0    1
 -2       213       212       367      1423      1889      1890
 -1       576    8    0    1
 -2       212       366       367      1887      1891      1889
 -1       577    8    0    1
 -2       214       213       368      1426      1892      1893
 -1       578    8    0    1
 -2       213       367       368      1890      1894      1892
 -1       579    8    0    1
 -2       215       214       369      1429      1895      1896
 -1       580    8    0    1
 -2       214       368       369      1893      1897      1895
 -1       581    8    0    1
 -2       216       215       370      1432      1898      1899
 -1       582    8    0    1
 -2       215       369       370      1896      1900      1898
 -1       583    8    0    1
 -2       217       216       371      1435      1901      1902
 -1       584    8    0    1
 -2       216       370       371      1899      1903      1901
 -1       585    8    0    1
 -2       218       217       372      1438      1904      1905
 -1       586    8    0    1
 -2       217       371       372      1902      1906      1904
 -1       587    8    0    1
 -2       219       218       373      1441      1907      1908
 -1       588    8    0    1
 -2       218       372       373      1905      1909      1907
 -1       589    8    0    1
 -2       220       219       374      1444      1910      1911
 -1       590    8    0    1
 -2       219       373       374      1908      1912      1910
 -1       591    8    0    1
 -2       221       220       375      1447      1913      1914
 -1       592    8    0    1
 -2       220       374       375      1911      1915      1913
 -1       593    8    0    1
 -2       222       221       376      1450      1916      1917
 -1       594    8    0    1
 -2       221       375       376      1914      1918      1916
 -1       595    8    0    1
 -2       223       222       377      1453      1919      1920
 -1       596    8    0    1
 -2       222       376       377      1917      1921      1919
 -1       597    8    0    1
 -2       224       223       378      1456      1922      1923
 -1       598    8    0    1
 -2       223       377       378      1920      1924      1922
 -1       599    8    0    1
 -2       225       224       379      1459      1925      1926
 -1       600    8    0    1
 -2       224       378       379      1923      1927      1925
 -1       601    8    0    1
 -2       226       225       380      1462      1928      1929
 -1       602    8    0    1
 -2       225       379       380      1926      1930      1928
 -1       603    8    0    1
 -2       227       226       381      1465      1931      1932
 -1       604    8    0    1
 -2       226       380       381      1929      1933      1931
 -1       605    8    0    1
 -2       228       227       382      1468      1934      1935
 -1       606    8    0    1
 -2       291       228       382      1660      1935      1936
 -1       607    8    0    1
 -2       227       381       382      1932      1937      1934
 -1       608    8    0    1
 -2       230       231       383      1479      1938      1939
 -1       609    8    0    1
 -2       230       383       336      1939      1940      1796
 -1       610    8    0    1
 -2       231       232       384      1482      1941      1942
 -1       611    8    0    1
 -2       231       384       383      1942      1943      1938
 -1       612    8    0    1
 -2       232       233       385      1485      1944      1945
 -1       613    8    0    1
 -2       232       385       384      1945      1946      1941
 -1       614    8    0    1
 -2       233       234       386      1488      1947      1948
 -1       615    8    0    1
 -2       233       386       385      1948      1949      1944
 -1       616    8    0    1
 -2       234       235       387      1491      1950      1951
 -1       617    8    0    1
 -2       234       387       386      1951      1952      1947
 -1       618    8    0    1
 -2       235       236       388      1494      1953      1954
 -1       619    8    0    1
 -2       235       388       387      1954      1955      1950
 -1       620    8    0    1
 -2       236       237       389      1497      1956      1957
 -1       621    8    0    1
 -2       236       389       388      1957      1958      1953
 -1       622    8    0    1
 -2       237       238       390      1500      1959      1960
 -1       623    8    0    1
 -2       237       390       389      1960      1961      1956
 -1       624    8    0    1
 -2       238       239       391      1503      1962      1963
 -1       625    8    0    1
 -2       238       391       390      1963      1964      1959
 -1       626    8    0    1
 -2       239       240       392      1506      1965      1966
 -1       627    8    0    1
 -2       239       392       391      1966      1967      1962
 -1       628    8    0    1
 -2       240       241       393      1509      1968      1969
 -1       629    8    0    1
 -2       240       393       392      1969      1970      1965
 -1       630    8    0    1
 -2       241       242       394      1512      1971      1972
 -1       631    8    0    1
 -2       241       394       393      1972      1973      1968
 -1       632    8    0    1
 -2       242       243       395      1515      1974      1975
 -1       633    8    0    1
 -2       242       395       394      1975      1976      1971
 -1       634    8    0    1
 -2       243       244       396      1518      1977      1978
 -1       635    8    0    1
 -2       243       396       395      1978      1979      1974
 -1       636    8    0    1
 -2       244       245       397      1521      1980      1981
 -1       637    8    0    1
 -2       244       397       396      1981      1982      1977
 -1       638    8    0    1
 -2       245       246       398      1524      1983      1984
 -1       639    8    0    1
 -2       245       398       397      1984      1985      1980
 -1       640    8    0    1
 -2       246       247       399      1527      1986      1987
 -1       641    8    0    1
 -2       246       399       398      1987      1988      1983
 -1       642    8    0    1
 -2       247       248       400      1530      1989      1990
 -1       643    8    0    1
 -2       247       400       399      1990      1991      1986
 -1       644    8    0    1
 -2       248       249       401      1533      1992      1993
 -1       645    8    0    1
 -2       248       401       400      1993      1994      1989
 -1       646    8    0    1
 -2       249       250       402      1536      1995      1996
 -1       647    8    0    1
 -2       249       402       401      1996      1997      1992
 -1       648    8    0    1
 -2       250       251       403      1539      1998      1999
 -1       649    8    0    1
 -2       250       403       402      1999      2000      1995
 -1       650    8    0    1
 -2       251       252       404      1542      2001      2002
 -1       651    8    0    1
 -2       251       404       403      2002      2003      1998
 -1       652    8    0    1
 -2       252       253       405      1545      2004      2005
 -1       653    8    0    1
 -2       252       405       404      2005      2006      2001
 -1       654    8    0    1
 -2       253       254       406      1548      2007      2008
 -1       655    8    0    1
 -2       253       406       405      2008      2009      2004
 -1       656    8    0    1
 -2       254       255       407      1551      2010      2011
 -1       657    8    0    1
 -2       254       407       406      2011      2012      2007
 -1       658    8    0    1
 -2       255       256       408      1554      2013      2014
 -1       659    8    0    1
 -2       255       408       407      2014      2015      2010
 -1       660    8    0    1
 -2       256       257       409      1557      2016      2017
 -1       661    8    0    1
 -2       256       409       408      2017      2018      2013
 -1       662    8    0    1
 -2       257       258       410      1560      2019      2020
 -1       663    8    0    1
 -2       257       410       409      2020      2021      2016
 -1       664    8    0    1
 -2       258       259       411      1563      2022      2023
 -1       665    8    0    1
 -2       258       411       410      2023      2024      2019
 -1       666    8    0    1
 -2       259       260       412      1566      2025      2026
 -1       667    8    0    1
 -2       259       412       411      2026      2027      2022
 -1       668    8    0    1
 -2       260       261       413      1569      2028      2029
 -1       669    8    0    1
 -2       260       413       412      2029      2030      2025
 -1       670    8    0    1
 -2       261       262       414      1572      2031      2032
 -1       671    8    0    1
 -2       261       414       413      2032      2033      2028
 -1       672    8    0    1
 -2       262       263       415      1575      2034      2035
 -1       673    8    0    1
 -2       262       415       414      2035      2036      2031
 -1       674    8    0    1
 -2       263       264       416      1578      2037      2038
 -1       675    8    0    1
 -2       263       416       415      2038      2039      2034
 -1       676    8    0    1
 -2       264       265       417      1581      2040      2041
 -1       677    8    0    1
 -2       264       417       416      2041      2042      2037
 -1       678    8    0    1
 -2       265       266       418      1584      2043      2044
 -1       679    8    0    1
 -2       265       418       417      2044      2045      2040
 -1       680    8    0    1
 -2       266       267       419      1587      2046      2047
 -1       681    8    0    1
 -2       266       419       418      2047      2048      2043
 -1       682    8    0    1
 -2       267       268       420      1590      2049      2050
 -1       683    8    0    1
 -2       267       420       419      2050      2051      2046
 -1       684    8    0    1
 -2       268       269       421      1593      2052      2053
 -1       685    8    0    1
 -2       268       421       420      2053      2054      2049
 -1       686    8    0    1
 -2       269       270       422      1596      2055      2056
 -1       687    8    0    1
 -2       269       422       421      2056      2057      2052
 -1       688    8    0    1
 -2       270       271       423      1599      2058      2059
 -1       689    8    0    1
 -2       270       423       422      2059      2060      2055
 -1       690    8    0    1
 -2       271       272       424      1602      2061      2062
 -1       691    8    0    1
 -2       271       424       423      2062      2063      2058
 -1       692    8    0    1
 -2       272       273       425      1605      2064      2065
 -1       693    8    0    1
 -2       272       425       424      2065      2066      2061
 -1       694    8    0    1
 -2       273       274       426      1608      2067      2068
 -1       695    8    0    1
 -2       273       426       425      2068      2069      2064
 -1       696    8    0    1
 -2       274       275       427      1611      2070      2071
 -1       697    8    0    1
 -2       274       427       426      2071      2072      2067
 -1       698    8    0    1
 -2       275       276       428      1614      2073      2074
 -1       699    8    0    1
 -2       427       275       428      2070      2074      2075
 -1       700    8    0    1
 -2       276       277       428      1724      2076      2073
 -1       701    8    0    1
 -2       279       280       429      1626      2077      2078
 -1       702    8    0    1
 -2       278       279       430      1623      2079      2080
 -1       703    8    0    1
 -2       279       429       430      2078      2081      2079
 -1       704    8    0    1
 -2       277       278       431      1620      2082      2083
 -1       705    8    0    1
 -2       428       277       431      2076      2083      2084
 -1       706    8    0    1
 -2       278       430       431      2080      2085      2082
 -1       707    8    0    1
 -2       280       281       432      1629      2086      2087
 -1       708    8    0    1
 -2       280       432       429      2087      2088      2077
 -1       709    8    0    1
 -2       281       282       433      1632      2089      2090
 -1       710    8    0    1
 -2       281       433       432      2090      2091      2086
 -1       711    8    0    1
 -2       282       283       434      1635      2092      2093
 -1       712    8    0    1
 -2       282       434       433      2093      2094      2089
 -1       713    8    0    1
 -2       283       284       435      1638      2095      2096
 -1       714    8    0    1
 -2       283       435       434      2096      2097      2092
 -1       715    8    0    1
 -2       284       285       436      1641      2098      2099
 -1       716    8    0    1
 -2       284       436       435      2099      2100      2095
 -1       717    8    0    1
 -2       285       286       437      1644      2101      2102
 -1       718    8    0    1
 -2       285       437       436      2102      2103      2098
 -1       719    8    0    1
 -2       286       287       438      1647      2104      2105
 -1       720    8    0    1
 -2       286       438       437      2105      2106      2101
 -1       721    8    0    1
 -2       287       288       439      1650      2107      2108
 -1       722    8    0    1
 -2       287       439       438      2108      2109      2104
 -1       723    8    0    1
 -2       288       289       440      1653      2110      2111
 -1       724    8    0    1
 -2       288       440       439      2111      2112      2107
 -1       725    8    0    1
 -2       289       290       441      1656      2113      2114
 -1       726    8    0    1
 -2       289       441       440      2114      2115      2110
 -1       727    8    0    1
 -2       293       294       442      1726      2116      2117
 -1       728    8    0    1
 -2       321       292       443      1727      2118      2119
 -1       729    8    0    1
 -2       292       293       444      1725      2120      2121
 -1       730    8    0    1
 -2       294       295       445      1722      2122      2123
 -1       731    8    0    1
 -2       295       296       446      1721      2124      2125
 -1       732    8    0    1
 -2       167       168       447      1288      2126      2127
 -1       733    8    0    1
 -2       322       167       447      1754      2127      2128
 -1       734    8    0    1
 -2       168       324       447      1760      2129      2126
 -1       735    8    0    1
 -2       297       298       448      1729      2130      2131
 -1       736    8    0    1
 -2       298       299       449      1730      2132      2133
 -1       737    8    0    1
 -2       298       449       448      2133      2134      2130
 -1       738    8    0    1
 -2       299       300       450      1731      2135      2136
 -1       739    8    0    1
 -2       300       301       451      1732      2137      2138
 -1       740    8    0    1
 -2       301       302       452      1733      2139      2140
 -1       741    8    0    1
 -2       302       303       453      1734      2141      2142
 -1       742    8    0    1
 -2       303       304       454      1735      2143      2144
 -1       743    8    0    1
 -2       304       305       455      1736      2145      2146
 -1       744    8    0    1
 -2       305       306       456      1737      2147      2148
 -1       745    8    0    1
 -2       306       307       457      1738      2149      2150
 -1       746    8    0    1
 -2       307       308       458      1739      2151      2152
 -1       747    8    0    1
 -2       308       309       459      1740      2153      2154
 -1       748    8    0    1
 -2       309       310       460      1741      2155      2156
 -1       749    8    0    1
 -2       310       311       461      1742      2157      2158
 -1       750    8    0    1
 -2       311       312       462      1743      2159      2160
 -1       751    8    0    1
 -2       312       313       463      1744      2161      2162
 -1       752    8    0    1
 -2       312       463       462      2162      2163      2159
 -1       753    8    0    1
 -2       313       314       464      1745      2164      2165
 -1       754    8    0    1
 -2       314       315       465      1746      2166      2167
 -1       755    8    0    1
 -2       315       316       466      1747      2168      2169
 -1       756    8    0    1
 -2       315       466       465      2169      2170      2166
 -1       757    8    0    1
 -2       316       317       467      1748      2171      2172
 -1       758    8    0    1
 -2       317       318       468      1749      2173      2174
 -1       759    8    0    1
 -2       318       319       469      1750      2175      2176
 -1       760    8    0    1
 -2       319       320       470      1751      2177      2178
 -1       761    8    0    1
 -2       320       321       471      1752      2179      2180
 -1       762    8    0    1
 -2       296       297       472      1728      2181      2182
 -1       763    8    0    1
 -2       445       295       446      2122      2125      2183
 -1       764    8    0    1
 -2       181       323       182      1799      2184      1330
 -1       765    8    0    1
 -2       446       296       472      2124      2182      2185
 -1       766    8    0    1
 -2       297       448       472      2131      2186      2181
 -1       767    8    0    1
 -2       337       182       323      1800      2184      2187
 -1       768    8    0    1
 -2       444       293       442      2120      2117      2188
 -1       769    8    0    1
 -2       443       292       444      2118      2121      2189
 -1       770    8    0    1
 -2       441       290       291      2113      1659      2190
 -1       771    8    0    1
 -2       442       294       445      2116      2123      2191
 -1       772    8    0    1
 -2       321       443       471      2119      2192      2179
 -1       773    8    0    1
 -2       470       320       471      2177      2180      2193
 -1       774    8    0    1
 -2       469       319       470      2175      2178      2194
 -1       775    8    0    1
 -2       468       318       469      2173      2176      2195
 -1       776    8    0    1
 -2       466       316       467      2168      2172      2196
 -1       777    8    0    1
 -2       463       313       464      2161      2165      2197
 -1       778    8    0    1
 -2       461       311       462      2157      2160      2198
 -1       779    8    0    1
 -2       460       310       461      2155      2158      2199
 -1       780    8    0    1
 -2       459       309       460      2153      2156      2200
 -1       781    8    0    1
 -2       458       308       459      2151      2154      2201
 -1       782    8    0    1
 -2       457       307       458      2149      2152      2202
 -1       783    8    0    1
 -2       456       306       457      2147      2150      2203
 -1       784    8    0    1
 -2       455       305       456      2145      2148      2204
 -1       785    8    0    1
 -2       454       304       455      2143      2146      2205
 -1       786    8    0    1
 -2       453       303       473      2141      2206      2207
 -1       787    8    0    1
 -2       303       454       473      2144      2208      2206
 -1       788    8    0    1
 -2       452       302       453      2139      2142      2209
 -1       789    8    0    1
 -2       451       301       452      2137      2140      2210
 -1       790    8    0    1
 -2       299       450       474      2136      2211      2212
 -1       791    8    0    1
 -2       299       474       449      2212      2213      2132
 -1       792    8    0    1
 -2       450       300       451      2135      2138      2214
 -1       793    8    0    1
 -2       464       314       465      2164      2167      2215
 -1       794    8    0    1
 -2       467       317       468      2171      2174      2216
 -1       795    8    0    1
 -2       336       383       475      1940      2217      2218
 -1       796    8    0    1
 -2       325       326       476      1766      2219      2220
 -1       797    8    0    1
 -2       324       325       477      1763      2221      2222
 -1       798    8    0    1
 -2       325       476       477      2220      2223      2221
 -1       799    8    0    1
 -2       327       328       478      1772      2224      2225
 -1       800    8    0    1
 -2       328       329       479      1775      2226      2227
 -1       801    8    0    1
 -2       328       479       478      2227      2228      2224
 -1       802    8    0    1
 -2       329       330       480      1778      2229      2230
 -1       803    8    0    1
 -2       329       480       479      2230      2231      2226
 -1       804    8    0    1
 -2       330       331       481      1781      2232      2233
 -1       805    8    0    1
 -2       330       481       480      2233      2234      2229
 -1       806    8    0    1
 -2       331       332       482      1784      2235      2236
 -1       807    8    0    1
 -2       331       482       481      2236      2237      2232
 -1       808    8    0    1
 -2       332       333       483      1787      2238      2239
 -1       809    8    0    1
 -2       332       483       482      2239      2240      2235
 -1       810    8    0    1
 -2       383       384       484      1943      2241      2242
 -1       811    8    0    1
 -2       383       484       475      2242      2243      2217
 -1       812    8    0    1
 -2       338       337       485      1804      2244      2245
 -1       813    8    0    1
 -2       446       472       486      2185      2246      2247
 -1       814    8    0    1
 -2       339       338       487      1807      2248      2249
 -1       815    8    0    1
 -2       338       485       487      2245      2250      2248
 -1       816    8    0    1
 -2       340       339       488      1810      2251      2252
 -1       817    8    0    1
 -2       339       487       488      2249      2253      2251
 -1       818    8    0    1
 -2       341       340       489      1813      2254      2255
 -1       819    8    0    1
 -2       340       488       489      2252      2256      2254
 -1       820    8    0    1
 -2       342       341       490      1816      2257      2258
 -1       821    8    0    1
 -2       341       489       490      2255      2259      2257
 -1       822    8    0    1
 -2       343       342       491      1819      2260      2261
 -1       823    8    0    1
 -2       342       490       491      2258      2262      2260
 -1       824    8    0    1
 -2       344       343       492      1822      2263      2264
 -1       825    8    0    1
 -2       343       491       492      2261      2265      2263
 -1       826    8    0    1
 -2       345       344       493      1825      2266      2267
 -1       827    8    0    1
 -2       344       492       493      2264      2268      2266
 -1       828    8    0    1
 -2       346       345       494      1828      2269      2270
 -1       829    8    0    1
 -2       345       493       494      2267      2271      2269
 -1       830    8    0    1
 -2       347       346       495      1831      2272      2273
 -1       831    8    0    1
 -2       346       494       495      2270      2274      2272
 -1       832    8    0    1
 -2       348       347       496      1834      2275      2276
 -1       833    8    0    1
 -2       347       495       496      2273      2277      2275
 -1       834    8    0    1
 -2       349       348       497      1837      2278      2279
 -1       835    8    0    1
 -2       348       496       497      2276      2280      2278
 -1       836    8    0    1
 -2       350       349       498      1840      2281      2282
 -1       837    8    0    1
 -2       349       497       498      2279      2283      2281
 -1       838    8    0    1
 -2       351       350       499      1843      2284      2285
 -1       839    8    0    1
 -2       350       498       499      2282      2286      2284
 -1       840    8    0    1
 -2       352       351       500      1846      2287      2288
 -1       841    8    0    1
 -2       351       499       500      2285      2289      2287
 -1       842    8    0    1
 -2       353       352       501      1849      2290      2291
 -1       843    8    0    1
 -2       352       500       501      2288      2292      2290
 -1       844    8    0    1
 -2       354       353       502      1852      2293      2294
 -1       845    8    0    1
 -2       353       501       502      2291      2295      2293
 -1       846    8    0    1
 -2       355       354       503      1855      2296      2297
 -1       847    8    0    1
 -2       354       502       503      2294      2298      2296
 -1       848    8    0    1
 -2       356       355       504      1858      2299      2300
 -1       849    8    0    1
 -2       355       503       504      2297      2301      2299
 -1       850    8    0    1
 -2       357       356       505      1861      2302      2303
 -1       851    8    0    1
 -2       356       504       505      2300      2304      2302
 -1       852    8    0    1
 -2       358       357       506      1864      2305      2306
 -1       853    8    0    1
 -2       357       505       506      2303      2307      2305
 -1       854    8    0    1
 -2       359       358       507      1867      2308      2309
 -1       855    8    0    1
 -2       358       506       507      2306      2310      2308
 -1       856    8    0    1
 -2       360       359       508      1870      2311      2312
 -1       857    8    0    1
 -2       359       507       508      2309      2313      2311
 -1       858    8    0    1
 -2       361       360       509      1873      2314      2315
 -1       859    8    0    1
 -2       360       508       509      2312      2316      2314
 -1       860    8    0    1
 -2       362       361       510      1876      2317      2318
 -1       861    8    0    1
 -2       361       509       510      2315      2319      2317
 -1       862    8    0    1
 -2       363       362       511      1879      2320      2321
 -1       863    8    0    1
 -2       362       510       511      2318      2322      2320
 -1       864    8    0    1
 -2       364       363       512      1882      2323      2324
 -1       865    8    0    1
 -2       363       511       512      2321      2325      2323
 -1       866    8    0    1
 -2       365       364       513      1885      2326      2327
 -1       867    8    0    1
 -2       364       512       513      2324      2328      2326
 -1       868    8    0    1
 -2       366       365       514      1888      2329      2330
 -1       869    8    0    1
 -2       365       513       514      2327      2331      2329
 -1       870    8    0    1
 -2       367       366       515      1891      2332      2333
 -1       871    8    0    1
 -2       366       514       515      2330      2334      2332
 -1       872    8    0    1
 -2       368       367       516      1894      2335      2336
 -1       873    8    0    1
 -2       367       515       516      2333      2337      2335
 -1       874    8    0    1
 -2       369       368       517      1897      2338      2339
 -1       875    8    0    1
 -2       368       516       517      2336      2340      2338
 -1       876    8    0    1
 -2       370       369       518      1900      2341      2342
 -1       877    8    0    1
 -2       369       517       518      2339      2343      2341
 -1       878    8    0    1
 -2       371       370       519      1903      2344      2345
 -1       879    8    0    1
 -2       370       518       519      2342      2346      2344
 -1       880    8    0    1
 -2       372       371       520      1906      2347      2348
 -1       881    8    0    1
 -2       371       519       520      2345      2349      2347
 -1       882    8    0    1
 -2       373       372       521      1909      2350      2351
 -1       883    8    0    1
 -2       372       520       521      2348      2352      2350
 -1       884    8    0    1
 -2       374       373       522      1912      2353      2354
 -1       885    8    0    1
 -2       373       521       522      2351      2355      2353
 -1       886    8    0    1
 -2       375       374       523      1915      2356      2357
 -1       887    8    0    1
 -2       374       522       523      2354      2358      2356
 -1       888    8    0    1
 -2       376       375       524      1918      2359      2360
 -1       889    8    0    1
 -2       375       523       524      2357      2361      2359
 -1       890    8    0    1
 -2       377       376       525      1921      2362      2363
 -1       891    8    0    1
 -2       376       524       525      2360      2364      2362
 -1       892    8    0    1
 -2       378       377       526      1924      2365      2366
 -1       893    8    0    1
 -2       377       525       526      2363      2367      2365
 -1       894    8    0    1
 -2       379       378       527      1927      2368      2369
 -1       895    8    0    1
 -2       378       526       527      2366      2370      2368
 -1       896    8    0    1
 -2       380       379       528      1930      2371      2372
 -1       897    8    0    1
 -2       379       527       528      2369      2373      2371
 -1       898    8    0    1
 -2       381       380       529      1933      2374      2375
 -1       899    8    0    1
 -2       380       528       529      2372      2376      2374
 -1       900    8    0    1
 -2       385       386       530      1949      2377      2378
 -1       901    8    0    1
 -2       386       387       531      1952      2379      2380
 -1       902    8    0    1
 -2       386       531       530      2380      2381      2377
 -1       903    8    0    1
 -2       387       388       532      1955      2382      2383
 -1       904    8    0    1
 -2       387       532       531      2383      2384      2379
 -1       905    8    0    1
 -2       388       389       533      1958      2385      2386
 -1       906    8    0    1
 -2       388       533       532      2386      2387      2382
 -1       907    8    0    1
 -2       389       390       534      1961      2388      2389
 -1       908    8    0    1
 -2       389       534       533      2389      2390      2385
 -1       909    8    0    1
 -2       390       391       535      1964      2391      2392
 -1       910    8    0    1
 -2       390       535       534      2392      2393      2388
 -1       911    8    0    1
 -2       391       392       536      1967      2394      2395
 -1       912    8    0    1
 -2       391       536       535      2395      2396      2391
 -1       913    8    0    1
 -2       392       393       537      1970      2397      2398
 -1       914    8    0    1
 -2       392       537       536      2398      2399      2394
 -1       915    8    0    1
 -2       393       394       538      1973      2400      2401
 -1       916    8    0    1
 -2       393       538       537      2401      2402      2397
 -1       917    8    0    1
 -2       394       395       539      1976      2403      2404
 -1       918    8    0    1
 -2       394       539       538      2404      2405      2400
 -1       919    8    0    1
 -2       395       396       540      1979      2406      2407
 -1       920    8    0    1
 -2       395       540       539      2407      2408      2403
 -1       921    8    0    1
 -2       396       397       541      1982      2409      2410
 -1       922    8    0    1
 -2       396       541       540      2410      2411      2406
 -1       923    8    0    1
 -2       397       398       542      1985      2412      2413
 -1       924    8    0    1
 -2       397       542       541      2413      2414      2409
 -1       925    8    0    1
 -2       398       399       543      1988      2415      2416
 -1       926    8    0    1
 -2       398       543       542      2416      2417      2412
 -1       927    8    0    1
 -2       399       400       544      1991      2418      2419
 -1       928    8    0    1
 -2       399       544       543      2419      2420      2415
 -1       929    8    0    1
 -2       400       401       545      1994      2421      2422
 -1       930    8    0    1
 -2       400       545       544      2422      2423      2418
 -1       931    8    0    1
 -2       401       402       546      1997      2424      2425
 -1       932    8    0    1
 -2       401       546       545      2425      2426      2421
 -1       933    8    0    1
 -2       402       403       547      2000      2427      2428
 -1       934    8    0    1
 -2       402       547       546      2428      2429      2424
 -1       935    8    0    1
 -2       403       404       548      2003      2430      2431
 -1       936    8    0    1
 -2       403       548       547      2431      2432      2427
 -1       937    8    0    1
 -2       404       405       549      2006      2433      2434
 -1       938    8    0    1
 -2       404       549       548      2434      2435      2430
 -1       939    8    0    1
 -2       405       406       550      2009      2436      2437
 -1       940    8    0    1
 -2       405       550       549      2437      2438      2433
 -1       941    8    0    1
 -2       406       407       551      2012      2439      2440
 -1       942    8    0    1
 -2       406       551       550      2440      2441      2436
 -1       943    8    0    1
 -2       407       408       552      2015      2442      2443
 -1       944    8    0    1
 -2       407       552       551      2443      2444      2439
 -1       945    8    0    1
 -2       408       409       553      2018      2445      2446
 -1       946    8    0    1
 -2       408       553       552      2446      2447      2442
 -1       947    8    0    1
 -2       409       410       554      2021      2448      2449
 -1       948    8    0    1
 -2       409       554       553      2449      2450      2445
 -1       949    8    0    1
 -2       410       411       555      2024      2451      2452
 -1       950    8    0    1
 -2       410       555       554      2452      2453      2448
 -1       951    8    0    1
 -2       411       412       556      2027      2454      2455
 -1       952    8    0    1
 -2       411       556       555      2455      2456      2451
 -1       953    8    0    1
 -2       412       413       557      2030      2457      2458
 -1       954    8    0    1
 -2       412       557       556      2458      2459      2454
 -1       955    8    0    1
 -2       413       414       558      2033      2460      2461
 -1       956    8    0    1
 -2       413       558       557      2461      2462      2457
 -1       957    8    0    1
 -2       414       415       559      2036      2463      2464
 -1       958    8    0    1
 -2       414       559       558      2464      2465      2460
 -1       959    8    0    1
 -2       415       416       560      2039      2466      2467
 -1       960    8    0    1
 -2       415       560       559      2467      2468      2463
 -1       961    8    0    1
 -2       416       417       561      2042      2469      2470
 -1       962    8    0    1
 -2       416       561       560      2470      2471      2466
 -1       963    8    0    1
 -2       417       418       562      2045      2472      2473
 -1       964    8    0    1
 -2       417       562       561      2473      2474      2469
 -1       965    8    0    1
 -2       418       419       563      2048      2475      2476
 -1       966    8    0    1
 -2       418       563       562      2476      2477      2472
 -1       967    8    0    1
 -2       419       420       564      2051      2478      2479
 -1       968    8    0    1
 -2       419       564       563      2479      2480      2475
 -1       969    8    0    1
 -2       420       421       565      2054      2481      2482
 -1       970    8    0    1
 -2       420       565       564      2482      2483      2478
 -1       971    8    0    1
 -2       421       422       566      2057      2484      2485
 -1       972    8    0    1
 -2       421       566       565      2485      2486      2481
 -1       973    8    0    1
 -2       422       423       567      2060      2487      2488
 -1       974    8    0    1
 -2       422       567       566      2488      2489      2484
 -1       975    8    0    1
 -2       423       424       568      2063      2490      2491
 -1       976    8    0    1
 -2       423       568       567      2491      2492      2487
 -1       977    8    0    1
 -2       424       425       569      2066      2493      2494
 -1       978    8    0    1
 -2       424       569       568      2494      2495      2490
 -1       979    8    0    1
 -2       425       426       570      2069      2496      2497
 -1       980    8    0    1
 -2       425       570       569      2497      2498      2493
 -1       981    8    0    1
 -2       426       427       571      2072      2499      2500
 -1       982    8    0    1
 -2       426       571       570      2500      2501      2496
 -1       983    8    0    1
 -2       427       428       431      2075      2084      2502
 -1       984    8    0    1
 -2       432       433       572      2091      2503      2504
 -1       985    8    0    1
 -2       433       434       573      2094      2505      2506
 -1       986    8    0    1
 -2       433       573       572      2506      2507      2503
 -1       987    8    0    1
 -2       430       429       574      2081      2508      2509
 -1       988    8    0    1
 -2       429       432       575      2088      2510      2511
 -1       989    8    0    1
 -2       574       429       575      2508      2511      2512
 -1       990    8    0    1
 -2       432       572       575      2504      2513      2510
 -1       991    8    0    1
 -2       434       435       576      2097      2514      2515
 -1       992    8    0    1
 -2       434       576       573      2515      2516      2505
 -1       993    8    0    1
 -2       435       436       577      2100      2517      2518
 -1       994    8    0    1
 -2       435       577       576      2518      2519      2514
 -1       995    8    0    1
 -2       436       437       578      2103      2520      2521
 -1       996    8    0    1
 -2       436       578       577      2521      2522      2517
 -1       997    8    0    1
 -2       437       438       579      2106      2523      2524
 -1       998    8    0    1
 -2       437       579       578      2524      2525      2520
 -1       999    8    0    1
 -2       438       439       580      2109      2526      2527
 -1      1000    8    0    1
 -2       438       580       579      2527      2528      2523
 -1      1001    8    0    1
 -2       439       440       581      2112      2529      2530
 -1      1002    8    0    1
 -2       439       581       580      2530      2531      2526
 -1      1003    8    0    1
 -2       440       441       582      2115      2532      2533
 -1      1004    8    0    1
 -2       440       582       581      2533      2534      2529
 -1      1005    8    0    1
 -2       443       444       583      2189      2535      2536
 -1      1006    8    0    1
 -2       442       445       584      2191      2537      2538
 -1      1007    8    0    1
 -2       384       385       585      1946      2539      2540
 -1      1008    8    0    1
 -2       385       530       585      2378      2541      2539
 -1      1009    8    0    1
 -2       441       291       382      2190      1936      2542
 -1      1010    8    0    1
 -2       471       443       586      2192      2543      2544
 -1      1011    8    0    1
 -2       444       442       587      2188      2545      2546
 -1      1012    8    0    1
 -2       337       323       588      2187      2547      2548
 -1      1013    8    0    1
 -2       485       337       588      2244      2548      2549
 -1      1014    8    0    1
 -2       323       322       588      1758      2550      2547
 -1      1015    8    0    1
 -2       470       471       589      2193      2551      2552
 -1      1016    8    0    1
 -2       463       464       590      2197      2553      2554
 -1      1017    8    0    1
 -2       461       462       591      2198      2555      2556
 -1      1018    8    0    1
 -2       326       327       592      1769      2557      2558
 -1      1019    8    0    1
 -2       476       326       592      2219      2558      2559
 -1      1020    8    0    1
 -2       327       478       592      2225      2560      2557
 -1      1021    8    0    1
 -2       450       451       593      2214      2561      2562
 -1      1022    8    0    1
 -2       448       449       594      2134      2563      2564
 -1      1023    8    0    1
 -2       464       465       595      2215      2565      2566
 -1      1024    8    0    1
 -2       451       452       596      2210      2567      2568
 -1      1025    8    0    1
 -2       452       453       597      2209      2569      2570
 -1      1026    8    0    1
 -2       454       455       598      2205      2571      2572
 -1      1027    8    0    1
 -2       455       456       599      2204      2573      2574
 -1      1028    8    0    1
 -2       456       457       600      2203      2575      2576
 -1      1029    8    0    1
 -2       456       600       599      2576      2577      2573
 -1      1030    8    0    1
 -2       457       458       601      2202      2578      2579
 -1      1031    8    0    1
 -2       458       459       602      2201      2580      2581
 -1      1032    8    0    1
 -2       458       602       601      2581      2582      2578
 -1      1033    8    0    1
 -2       459       460       603      2200      2583      2584
 -1      1034    8    0    1
 -2       460       461       604      2199      2585      2586
 -1      1035    8    0    1
 -2       461       591       604      2556      2587      2585
 -1      1036    8    0    1
 -2       462       463       605      2163      2588      2589
 -1      1037    8    0    1
 -2       463       590       605      2554      2590      2588
 -1      1038    8    0    1
 -2       467       468       606      2216      2591      2592
 -1      1039    8    0    1
 -2       465       466       607      2170      2593      2594
 -1      1040    8    0    1
 -2       466       467       608      2196      2595      2596
 -1      1041    8    0    1
 -2       468       469       609      2195      2597      2598
 -1      1042    8    0    1
 -2       469       470       610      2194      2599      2600
 -1      1043    8    0    1
 -2       469       610       609      2600      2601      2597
 -1      1044    8    0    1
 -2       472       448       611      2186      2602      2603
 -1      1045    8    0    1
 -2       335       336       612      1798      2604      2605
 -1      1046    8    0    1
 -2       334       335       612      1793      2605      2606
 -1      1047    8    0    1
 -2       336       475       612      2218      2607      2604
 -1      1048    8    0    1
 -2       445       446       613      2183      2608      2609
 -1      1049    8    0    1
 -2       445       613       584      2609      2610      2537
 -1      1050    8    0    1
 -2       450       593       614      2562      2611      2612
 -1      1051    8    0    1
 -2       450       614       474      2612      2613      2211
 -1      1052    8    0    1
 -2       324       477       615      2222      2614      2615
 -1      1053    8    0    1
 -2       324       615       447      2615      2616      2129
 -1      1054    8    0    1
 -2       484       384       585      2241      2540      2617
 -1      1055    8    0    1
 -2       333       334       612      1790      2606      2618
 -1      1056    8    0    1
 -2       613       446       616      2608      2619      2620
 -1      1057    8    0    1
 -2       446       486       616      2247      2621      2619
 -1      1058    8    0    1
 -2       589       471       586      2551      2544      2622
 -1      1059    8    0    1
 -2       610       470       589      2599      2552      2623
 -1      1060    8    0    1
 -2       472       611       486      2603      2624      2246
 -1      1061    8    0    1
 -2       427       431       571      2502      2625      2499
 -1      1062    8    0    1
 -2       431       430       571      2085      2626      2625
 -1      1063    8    0    1
 -2       608       467       606      2595      2592      2627
 -1      1064    8    0    1
 -2       443       583       586      2536      2628      2543
 -1      1065    8    0    1
 -2       583       444       587      2535      2546      2629
 -1      1066    8    0    1
 -2       442       584       587      2538      2630      2545
 -1      1067    8    0    1
 -2       607       466       608      2593      2596      2631
 -1      1068    8    0    1
 -2       333       612       483      2618      2632      2238
 -1      1069    8    0    1
 -2       602       459       603      2580      2584      2633
 -1      1070    8    0    1
 -2       590       464       595      2553      2566      2634
 -1      1071    8    0    1
 -2       600       457       617      2575      2635      2636
 -1      1072    8    0    1
 -2       457       601       617      2579      2637      2635
 -1      1073    8    0    1
 -2       598       455       618      2571      2638      2639
 -1      1074    8    0    1
 -2       455       599       618      2574      2640      2638
 -1      1075    8    0    1
 -2       597       453       473      2569      2207      2641
 -1      1076    8    0    1
 -2       462       605       591      2589      2642      2555
 -1      1077    8    0    1
 -2       596       452       597      2567      2570      2643
 -1      1078    8    0    1
 -2       595       465       607      2565      2594      2644
 -1      1079    8    0    1
 -2       588       322       447      2550      2128      2645
 -1      1080    8    0    1
 -2       473       454       598      2208      2572      2646
 -1      1081    8    0    1
 -2       594       449       619      2563      2647      2648
 -1      1082    8    0    1
 -2       449       474       619      2213      2649      2647
 -1      1083    8    0    1
 -2       448       594       611      2564      2650      2602
 -1      1084    8    0    1
 -2       451       596       593      2568      2651      2561
 -1      1085    8    0    1
 -2       603       460       604      2583      2586      2652
 -1      1086    8    0    1
 -2       606       468       609      2591      2598      2653
 -1      1087    8    0    1
 -2       441       382       620      2542      2654      2655
 -1      1088    8    0    1
 -2       582       441       620      2532      2655      2656
 -1      1089    8    0    1
 -2       382       381       620      1937      2657      2654
 -1      1090    8    0    1
 -2       571       430       574      2626      2509      2658
 -1      1091    8    0    1
 -2       620       381       529      2657      2375      2659
 -1      1092    8    0    1
 -2       479       480       621      2231      2660      2661
 -1      1093    8    0    1
 -2       478       479       622      2228      2662      2663
 -1      1094    8    0    1
 -2       479       621       622      2661      2664      2662
 -1      1095    8    0    1
 -2       481       482       623      2237      2665      2666
 -1      1096    8    0    1
 -2       482       483       624      2240      2667      2668
 -1      1097    8    0    1
 -2       482       624       623      2668      2669      2665
 -1      1098    8    0    1
 -2       475       484       625      2243      2670      2671
 -1      1099    8    0    1
 -2       602       603       626      2633      2672      2673
 -1      1100    8    0    1
 -2       589       586       627      2622      2674      2675
 -1      1101    8    0    1
 -2       612       475       483      2607      2676      2632
 -1      1102    8    0    1
 -2       610       589       628      2623      2677      2678
 -1      1103    8    0    1
 -2       488       487       629      2253      2679      2680
 -1      1104    8    0    1
 -2       489       488       630      2256      2681      2682
 -1      1105    8    0    1
 -2       488       629       630      2680      2683      2681
 -1      1106    8    0    1
 -2       490       489       631      2259      2684      2685
 -1      1107    8    0    1
 -2       489       630       631      2682      2686      2684
 -1      1108    8    0    1
 -2       491       490       632      2262      2687      2688
 -1      1109    8    0    1
 -2       490       631       632      2685      2689      2687
 -1      1110    8    0    1
 -2       492       491       633      2265      2690      2691
 -1      1111    8    0    1
 -2       491       632       633      2688      2692      2690
 -1      1112    8    0    1
 -2       493       492       634      2268      2693      2694
 -1      1113    8    0    1
 -2       492       633       634      2691      2695      2693
 -1      1114    8    0    1
 -2       494       493       635      2271      2696      2697
 -1      1115    8    0    1
 -2       493       634       635      2694      2698      2696
 -1      1116    8    0    1
 -2       495       494       636      2274      2699      2700
 -1      1117    8    0    1
 -2       494       635       636      2697      2701      2699
 -1      1118    8    0    1
 -2       496       495       637      2277      2702      2703
 -1      1119    8    0    1
 -2       495       636       637      2700      2704      2702
 -1      1120    8    0    1
 -2       497       496       638      2280      2705      2706
 -1      1121    8    0    1
 -2       496       637       638      2703      2707      2705
 -1      1122    8    0    1
 -2       498       497       639      2283      2708      2709
 -1      1123    8    0    1
 -2       497       638       639      2706      2710      2708
 -1      1124    8    0    1
 -2       499       498       640      2286      2711      2712
 -1      1125    8    0    1
 -2       498       639       640      2709      2713      2711
 -1      1126    8    0    1
 -2       500       499       641      2289      2714      2715
 -1      1127    8    0    1
 -2       499       640       641      2712      2716      2714
 -1      1128    8    0    1
 -2       501       500       642      2292      2717      2718
 -1      1129    8    0    1
 -2       500       641       642      2715      2719      2717
 -1      1130    8    0    1
 -2       502       501       643      2295      2720      2721
 -1      1131    8    0    1
 -2       501       642       643      2718      2722      2720
 -1      1132    8    0    1
 -2       503       502       644      2298      2723      2724
 -1      1133    8    0    1
 -2       502       643       644      2721      2725      2723
 -1      1134    8    0    1
 -2       504       503       645      2301      2726      2727
 -1      1135    8    0    1
 -2       503       644       645      2724      2728      2726
 -1      1136    8    0    1
 -2       505       504       646      2304      2729      2730
 -1      1137    8    0    1
 -2       504       645       646      2727      2731      2729
 -1      1138    8    0    1
 -2       506       505       647      2307      2732      2733
 -1      1139    8    0    1
 -2       505       646       647      2730      2734      2732
 -1      1140    8    0    1
 -2       507       506       648      2310      2735      2736
 -1      1141    8    0    1
 -2       506       647       648      2733      2737      2735
 -1      1142    8    0    1
 -2       508       507       649      2313      2738      2739
 -1      1143    8    0    1
 -2       507       648       649      2736      2740      2738
 -1      1144    8    0    1
 -2       509       508       650      2316      2741      2742
 -1      1145    8    0    1
 -2       508       649       650      2739      2743      2741
 -1      1146    8    0    1
 -2       510       509       651      2319      2744      2745
 -1      1147    8    0    1
 -2       509       650       651      2742      2746      2744
 -1      1148    8    0    1
 -2       511       510       652      2322      2747      2748
 -1      1149    8    0    1
 -2       510       651       652      2745      2749      2747
 -1      1150    8    0    1
 -2       512       511       653      2325      2750      2751
 -1      1151    8    0    1
 -2       511       652       653      2748      2752      2750
 -1      1152    8    0    1
 -2       513       512       654      2328      2753      2754
 -1      1153    8    0    1
 -2       512       653       654      2751      2755      2753
 -1      1154    8    0    1
 -2       514       513       655      2331      2756      2757
 -1      1155    8    0    1
 -2       513       654       655      2754      2758      2756
 -1      1156    8    0    1
 -2       515       514       656      2334      2759      2760
 -1      1157    8    0    1
 -2       514       655       656      2757      2761      2759
 -1      1158    8    0    1
 -2       516       515       657      2337      2762      2763
 -1      1159    8    0    1
 -2       515       656       657      2760      2764      2762
 -1      1160    8    0    1
 -2       517       516       658      2340      2765      2766
 -1      1161    8    0    1
 -2       516       657       658      2763      2767      2765
 -1      1162    8    0    1
 -2       518       517       659      2343      2768      2769
 -1      1163    8    0    1
 -2       517       658       659      2766      2770      2768
 -1      1164    8    0    1
 -2       519       518       660      2346      2771      2772
 -1      1165    8    0    1
 -2       518       659       660      2769      2773      2771
 -1      1166    8    0    1
 -2       520       519       661      2349      2774      2775
 -1      1167    8    0    1
 -2       519       660       661      2772      2776      2774
 -1      1168    8    0    1
 -2       521       520       662      2352      2777      2778
 -1      1169    8    0    1
 -2       520       661       662      2775      2779      2777
 -1      1170    8    0    1
 -2       522       521       663      2355      2780      2781
 -1      1171    8    0    1
 -2       521       662       663      2778      2782      2780
 -1      1172    8    0    1
 -2       523       522       664      2358      2783      2784
 -1      1173    8    0    1
 -2       522       663       664      2781      2785      2783
 -1      1174    8    0    1
 -2       524       523       665      2361      2786      2787
 -1      1175    8    0    1
 -2       523       664       665      2784      2788      2786
 -1      1176    8    0    1
 -2       525       524       666      2364      2789      2790
 -1      1177    8    0    1
 -2       524       665       666      2787      2791      2789
 -1      1178    8    0    1
 -2       526       525       667      2367      2792      2793
 -1      1179    8    0    1
 -2       525       666       667      2790      2794      2792
 -1      1180    8    0    1
 -2       527       526       668      2370      2795      2796
 -1      1181    8    0    1
 -2       526       667       668      2793      2797      2795
 -1      1182    8    0    1
 -2       528       527       669      2373      2798      2799
 -1      1183    8    0    1
 -2       527       668       669      2796      2800      2798
 -1      1184    8    0    1
 -2       529       528       670      2376      2801      2802
 -1      1185    8    0    1
 -2       528       669       670      2799      2803      2801
 -1      1186    8    0    1
 -2       531       532       671      2384      2804      2805
 -1      1187    8    0    1
 -2       571       574       672      2658      2806      2807
 -1      1188    8    0    1
 -2       571       672       570      2807      2808      2501
 -1      1189    8    0    1
 -2       530       531       673      2381      2809      2810
 -1      1190    8    0    1
 -2       531       671       673      2805      2811      2809
 -1      1191    8    0    1
 -2       533       534       674      2390      2812      2813
 -1      1192    8    0    1
 -2       534       535       675      2393      2814      2815
 -1      1193    8    0    1
 -2       534       675       674      2815      2816      2812
 -1      1194    8    0    1
 -2       535       536       676      2396      2817      2818
 -1      1195    8    0    1
 -2       535       676       675      2818      2819      2814
 -1      1196    8    0    1
 -2       536       537       677      2399      2820      2821
 -1      1197    8    0    1
 -2       536       677       676      2821      2822      2817
 -1      1198    8    0    1
 -2       537       538       678      2402      2823      2824
 -1      1199    8    0    1
 -2       537       678       677      2824      2825      2820
 -1      1200    8    0    1
 -2       538       539       679      2405      2826      2827
 -1      1201    8    0    1
 -2       538       679       678      2827      2828      2823
 -1      1202    8    0    1
 -2       539       540       680      2408      2829      2830
 -1      1203    8    0    1
 -2       539       680       679      2830      2831      2826
 -1      1204    8    0    1
 -2       540       541       681      2411      2832      2833
 -1      1205    8    0    1
 -2       540       681       680      2833      2834      2829
 -1      1206    8    0    1
 -2       541       542       682      2414      2835      2836
 -1      1207    8    0    1
 -2       541       682       681      2836      2837      2832
 -1      1208    8    0    1
 -2       542       543       683      2417      2838      2839
 -1      1209    8    0    1
 -2       542       683       682      2839      2840      2835
 -1      1210    8    0    1
 -2       543       544       684      2420      2841      2842
 -1      1211    8    0    1
 -2       543       684       683      2842      2843      2838
 -1      1212    8    0    1
 -2       544       545       685      2423      2844      2845
 -1      1213    8    0    1
 -2       544       685       684      2845      2846      2841
 -1      1214    8    0    1
 -2       545       546       686      2426      2847      2848
 -1      1215    8    0    1
 -2       545       686       685      2848      2849      2844
 -1      1216    8    0    1
 -2       546       547       687      2429      2850      2851
 -1      1217    8    0    1
 -2       546       687       686      2851      2852      2847
 -1      1218    8    0    1
 -2       547       548       688      2432      2853      2854
 -1      1219    8    0    1
 -2       547       688       687      2854      2855      2850
 -1      1220    8    0    1
 -2       548       549       689      2435      2856      2857
 -1      1221    8    0    1
 -2       548       689       688      2857      2858      2853
 -1      1222    8    0    1
 -2       549       550       690      2438      2859      2860
 -1      1223    8    0    1
 -2       549       690       689      2860      2861      2856
 -1      1224    8    0    1
 -2       550       551       691      2441      2862      2863
 -1      1225    8    0    1
 -2       550       691       690      2863      2864      2859
 -1      1226    8    0    1
 -2       551       552       692      2444      2865      2866
 -1      1227    8    0    1
 -2       551       692       691      2866      2867      2862
 -1      1228    8    0    1
 -2       552       553       693      2447      2868      2869
 -1      1229    8    0    1
 -2       552       693       692      2869      2870      2865
 -1      1230    8    0    1
 -2       553       554       694      2450      2871      2872
 -1      1231    8    0    1
 -2       553       694       693      2872      2873      2868
 -1      1232    8    0    1
 -2       554       555       695      2453      2874      2875
 -1      1233    8    0    1
 -2       554       695       694      2875      2876      2871
 -1      1234    8    0    1
 -2       555       556       696      2456      2877      2878
 -1      1235    8    0    1
 -2       555       696       695      2878      2879      2874
 -1      1236    8    0    1
 -2       556       557       697      2459      2880      2881
 -1      1237    8    0    1
 -2       556       697       696      2881      2882      2877
 -1      1238    8    0    1
 -2       557       558       698      2462      2883      2884
 -1      1239    8    0    1
 -2       557       698       697      2884      2885      2880
 -1      1240    8    0    1
 -2       558       559       699      2465      2886      2887
 -1      1241    8    0    1
 -2       558       699       698      2887      2888      2883
 -1      1242    8    0    1
 -2       559       560       700      2468      2889      2890
 -1      1243    8    0    1
 -2       559       700       699      2890      2891      2886
 -1      1244    8    0    1
 -2       560       561       701      2471      2892      2893
 -1      1245    8    0    1
 -2       560       701       700      2893      2894      2889
 -1      1246    8    0    1
 -2       561       562       702      2474      2895      2896
 -1      1247    8    0    1
 -2       561       702       701      2896      2897      2892
 -1      1248    8    0    1
 -2       562       563       703      2477      2898      2899
 -1      1249    8    0    1
 -2       562       703       702      2899      2900      2895
 -1      1250    8    0    1
 -2       563       564       704      2480      2901      2902
 -1      1251    8    0    1
 -2       563       704       703      2902      2903      2898
 -1      1252    8    0    1
 -2       564       565       705      2483      2904      2905
 -1      1253    8    0    1
 -2       564       705       704      2905      2906      2901
 -1      1254    8    0    1
 -2       565       566       706      2486      2907      2908
 -1      1255    8    0    1
 -2       565       706       705      2908      2909      2904
 -1      1256    8    0    1
 -2       566       567       707      2489      2910      2911
 -1      1257    8    0    1
 -2       566       707       706      2911      2912      2907
 -1      1258    8    0    1
 -2       567       568       708      2492      2913      2914
 -1      1259    8    0    1
 -2       567       708       707      2914      2915      2910
 -1      1260    8    0    1
 -2       568       569       709      2495      2916      2917
 -1      1261    8    0    1
 -2       568       709       708      2917      2918      2913
 -1      1262    8    0    1
 -2       569       570       710      2498      2919      2920
 -1      1263    8    0    1
 -2       709       569       710      2916      2920      2921
 -1      1264    8    0    1
 -2       570       672       710      2808      2922      2919
 -1      1265    8    0    1
 -2       576       577       711      2519      2923      2924
 -1      1266    8    0    1
 -2       620       529       712      2659      2925      2926
 -1      1267    8    0    1
 -2       529       670       712      2802      2927      2925
 -1      1268    8    0    1
 -2       572       573       713      2507      2928      2929
 -1      1269    8    0    1
 -2       577       578       714      2522      2930      2931
 -1      1270    8    0    1
 -2       573       576       715      2516      2932      2933
 -1      1271    8    0    1
 -2       713       573       715      2928      2933      2934
 -1      1272    8    0    1
 -2       576       711       715      2924      2935      2932
 -1      1273    8    0    1
 -2       578       579       627      2525      2936      2937
 -1      1274    8    0    1
 -2       579       580       716      2528      2938      2939
 -1      1275    8    0    1
 -2       580       581       717      2531      2940      2941
 -1      1276    8    0    1
 -2       580       717       716      2941      2942      2938
 -1      1277    8    0    1
 -2       604       591       718      2587      2943      2944
 -1      1278    8    0    1
 -2       607       608       719      2631      2945      2946
 -1      1279    8    0    1
 -2       587       584       720      2630      2947      2948
 -1      1280    8    0    1
 -2       485       588       721      2549      2949      2950
 -1      1281    8    0    1
 -2       596       597       722      2643      2951      2952
 -1      1282    8    0    1
 -2       585       530       723      2541      2953      2954
 -1      1283    8    0    1
 -2       530       673       723      2810      2955      2953
 -1      1284    8    0    1
 -2       532       533       724      2387      2956      2957
 -1      1285    8    0    1
 -2       671       532       724      2804      2957      2958
 -1      1286    8    0    1
 -2       533       674       724      2813      2959      2956
 -1      1287    8    0    1
 -2       487       485       725      2250      2960      2961
 -1      1288    8    0    1
 -2       629       487       725      2679      2961      2962
 -1      1289    8    0    1
 -2       485       721       725      2950      2963      2960
 -1      1290    8    0    1
 -2       608       606       726      2627      2964      2965
 -1      1291    8    0    1
 -2       608       726       719      2965      2966      2945
 -1      1292    8    0    1
 -2       484       585       727      2617      2967      2968
 -1      1293    8    0    1
 -2       625       484       727      2670      2968      2969
 -1      1294    8    0    1
 -2       585       723       727      2954      2970      2967
 -1      1295    8    0    1
 -2       486       611       728      2624      2971      2972
 -1      1296    8    0    1
 -2       473       598       729      2646      2973      2974
 -1      1297    8    0    1
 -2       480       481       730      2234      2975      2976
 -1      1298    8    0    1
 -2       621       480       730      2660      2976      2977
 -1      1299    8    0    1
 -2       481       623       730      2666      2978      2975
 -1      1300    8    0    1
 -2       477       476       731      2223      2979      2980
 -1      1301    8    0    1
 -2       611       594       732      2650      2981      2982
 -1      1302    8    0    1
 -2       611       732       728      2982      2983      2971
 -1      1303    8    0    1
 -2       591       605       733      2642      2984      2985
 -1      1304    8    0    1
 -2       597       473       734      2641      2986      2987
 -1      1305    8    0    1
 -2       473       729       734      2974      2988      2986
 -1      1306    8    0    1
 -2       599       600       735      2577      2989      2990
 -1      1307    8    0    1
 -2       590       595       666      2634      2991      2992
 -1      1308    8    0    1
 -2       601       602       736      2582      2993      2994
 -1      1309    8    0    1
 -2       606       609       737      2653      2995      2996
 -1      1310    8    0    1
 -2       605       590       738      2590      2997      2998
 -1      1311    8    0    1
 -2       603       604       739      2652      2999      3000
 -1      1312    8    0    1
 -2       604       718       739      2944      3001      2999
 -1      1313    8    0    1
 -2       588       447       721      2645      3002      2949
 -1      1314    8    0    1
 -2       584       613       740      2610      3003      3004
 -1      1315    8    0    1
 -2       582       620       712      2656      2926      3005
 -1      1316    8    0    1
 -2       609       610       741      2601      3006      3007
 -1      1317    8    0    1
 -2       737       609       741      2995      3007      3008
 -1      1318    8    0    1
 -2       610       628       741      2678      3009      3006
 -1      1319    8    0    1
 -2       593       596       742      2651      3010      3011
 -1      1320    8    0    1
 -2       615       477       743      2614      3012      3013
 -1      1321    8    0    1
 -2       477       731       743      2980      3014      3012
 -1      1322    8    0    1
 -2       478       622       744      2663      3015      3016
 -1      1323    8    0    1
 -2       478       744       592      3016      3017      2560
 -1      1324    8    0    1
 -2       591       733       718      2985      3018      2943
 -1      1325    8    0    1
 -2       602       626       736      2673      3019      2993
 -1      1326    8    0    1
 -2       616       486       745      2621      3020      3021
 -1      1327    8    0    1
 -2       486       728       745      2972      3022      3020
 -1      1328    8    0    1
 -2       483       475       625      2676      2671      3023
 -1      1329    8    0    1
 -2       572       713       746      2929      3024      3025
 -1      1330    8    0    1
 -2       572       746       575      3025      3026      2513
 -1      1331    8    0    1
 -2       711       577       714      2923      2931      3027
 -1      1332    8    0    1
 -2       627       579       716      2936      2939      3028
 -1      1333    8    0    1
 -2       574       575       672      2512      3029      2806
 -1      1334    8    0    1
 -2       721       447       615      3002      2616      3030
 -1      1335    8    0    1
 -2       474       614       619      2613      3031      2649
 -1      1336    8    0    1
 -2       581       582       712      2534      3005      3032
 -1      1337    8    0    1
 -2       742       596       722      3010      2952      3033
 -1      1338    8    0    1
 -2       624       483       625      2667      3023      3034
 -1      1339    8    0    1
 -2       722       597       734      2951      2987      3035
 -1      1340    8    0    1
 -2       584       740       720      3004      3036      2947
 -1      1341    8    0    1
 -2       583       587       747      2629      3037      3038
 -1      1342    8    0    1
 -2       617       601       736      2637      2994      3039
 -1      1343    8    0    1
 -2       586       583       714      2628      3040      3041
 -1      1344    8    0    1
 -2       618       599       735      2640      2990      3042
 -1      1345    8    0    1
 -2       598       618       748      2639      3043      3044
 -1      1346    8    0    1
 -2       598       748       729      3044      3045      2973
 -1      1347    8    0    1
 -2       717       581       712      2940      3032      3046
 -1      1348    8    0    1
 -2       476       592       749      2559      3047      3048
 -1      1349    8    0    1
 -2       731       476       749      2979      3048      3049
 -1      1350    8    0    1
 -2       592       744       749      3017      3050      3047
 -1      1351    8    0    1
 -2       732       594       750      2981      3051      3052
 -1      1352    8    0    1
 -2       594       619       750      2648      3053      3051
 -1      1353    8    0    1
 -2       600       617       751      2636      3054      3055
 -1      1354    8    0    1
 -2       600       751       735      3055      3056      2989
 -1      1355    8    0    1
 -2       726       606       737      2964      2996      3057
 -1      1356    8    0    1
 -2       733       605       738      2984      2998      3058
 -1      1357    8    0    1
 -2       595       607       752      2644      3059      3060
 -1      1358    8    0    1
 -2       586       714       627      3041      3061      2674
 -1      1359    8    0    1
 -2       603       739       626      3000      3062      2672
 -1      1360    8    0    1
 -2       740       613       616      3003      2620      3063
 -1      1361    8    0    1
 -2       593       742       753      3011      3064      3065
 -1      1362    8    0    1
 -2       593       753       614      3065      3066      2611
 -1      1363    8    0    1
 -2       747       587       720      3037      2948      3067
 -1      1364    8    0    1
 -2       752       607       719      3059      2946      3068
 -1      1365    8    0    1
 -2       623       624       754      2669      3069      3070
 -1      1366    8    0    1
 -2       589       627       628      2675      3071      2677
 -1      1367    8    0    1
 -2       631       630       755      2686      3072      3073
 -1      1368    8    0    1
 -2       632       631       756      2689      3074      3075
 -1      1369    8    0    1
 -2       631       755       756      3073      3076      3074
 -1      1370    8    0    1
 -2       633       632       757      2692      3077      3078
 -1      1371    8    0    1
 -2       632       756       757      3075      3079      3077
 -1      1372    8    0    1
 -2       634       633       758      2695      3080      3081
 -1      1373    8    0    1
 -2       633       757       758      3078      3082      3080
 -1      1374    8    0    1
 -2       635       634       759      2698      3083      3084
 -1      1375    8    0    1
 -2       634       758       759      3081      3085      3083
 -1      1376    8    0    1
 -2       636       635       760      2701      3086      3087
 -1      1377    8    0    1
 -2       635       759       760      3084      3088      3086
 -1      1378    8    0    1
 -2       637       636       761      2704      3089      3090
 -1      1379    8    0    1
 -2       636       760       761      3087      3091      3089
 -1      1380    8    0    1
 -2       638       637       762      2707      3092      3093
 -1      1381    8    0    1
 -2       637       761       762      3090      3094      3092
 -1      1382    8    0    1
 -2       639       638       763      2710      3095      3096
 -1      1383    8    0    1
 -2       638       762       763      3093      3097      3095
 -1      1384    8    0    1
 -2       640       639       764      2713      3098      3099
 -1      1385    8    0    1
 -2       639       763       764      3096      3100      3098
 -1      1386    8    0    1
 -2       641       640       765      2716      3101      3102
 -1      1387    8    0    1
 -2       640       764       765      3099      3103      3101
 -1      1388    8    0    1
 -2       642       641       766      2719      3104      3105
 -1      1389    8    0    1
 -2       641       765       766      3102      3106      3104
 -1      1390    8    0    1
 -2       643       642       767      2722      3107      3108
 -1      1391    8    0    1
 -2       642       766       767      3105      3109      3107
 -1      1392    8    0    1
 -2       644       643       768      2725      3110      3111
 -1      1393    8    0    1
 -2       643       767       768      3108      3112      3110
 -1      1394    8    0    1
 -2       645       644       769      2728      3113      3114
 -1      1395    8    0    1
 -2       644       768       769      3111      3115      3113
 -1      1396    8    0    1
 -2       646       645       770      2731      3116      3117
 -1      1397    8    0    1
 -2       645       769       770      3114      3118      3116
 -1      1398    8    0    1
 -2       647       646       771      2734      3119      3120
 -1      1399    8    0    1
 -2       646       770       771      3117      3121      3119
 -1      1400    8    0    1
 -2       648       647       772      2737      3122      3123
 -1      1401    8    0    1
 -2       647       771       772      3120      3124      3122
 -1      1402    8    0    1
 -2       649       648       773      2740      3125      3126
 -1      1403    8    0    1
 -2       648       772       773      3123      3127      3125
 -1      1404    8    0    1
 -2       650       649       774      2743      3128      3129
 -1      1405    8    0    1
 -2       649       773       774      3126      3130      3128
 -1      1406    8    0    1
 -2       651       650       775      2746      3131      3132
 -1      1407    8    0    1
 -2       650       774       775      3129      3133      3131
 -1      1408    8    0    1
 -2       652       651       776      2749      3134      3135
 -1      1409    8    0    1
 -2       651       775       776      3132      3136      3134
 -1      1410    8    0    1
 -2       653       652       777      2752      3137      3138
 -1      1411    8    0    1
 -2       652       776       777      3135      3139      3137
 -1      1412    8    0    1
 -2       654       653       778      2755      3140      3141
 -1      1413    8    0    1
 -2       653       777       778      3138      3142      3140
 -1      1414    8    0    1
 -2       655       654       779      2758      3143      3144
 -1      1415    8    0    1
 -2       654       778       779      3141      3145      3143
 -1      1416    8    0    1
 -2       656       655       780      2761      3146      3147
 -1      1417    8    0    1
 -2       655       779       780      3144      3148      3146
 -1      1418    8    0    1
 -2       657       656       781      2764      3149      3150
 -1      1419    8    0    1
 -2       656       780       781      3147      3151      3149
 -1      1420    8    0    1
 -2       658       657       782      2767      3152      3153
 -1      1421    8    0    1
 -2       657       781       782      3150      3154      3152
 -1      1422    8    0    1
 -2       659       658       783      2770      3155      3156
 -1      1423    8    0    1
 -2       658       782       783      3153      3157      3155
 -1      1424    8    0    1
 -2       660       659       784      2773      3158      3159
 -1      1425    8    0    1
 -2       659       783       784      3156      3160      3158
 -1      1426    8    0    1
 -2       661       660       785      2776      3161      3162
 -1      1427    8    0    1
 -2       660       784       785      3159      3163      3161
 -1      1428    8    0    1
 -2       662       661       786      2779      3164      3165
 -1      1429    8    0    1
 -2       661       785       786      3162      3166      3164
 -1      1430    8    0    1
 -2       668       667       719      2797      3167      3168
 -1      1431    8    0    1
 -2       670       669       787      2803      3169      3170
 -1      1432    8    0    1
 -2       578       627       714      2937      3061      2930
 -1      1433    8    0    1
 -2       673       671       788      2811      3171      3172
 -1      1434    8    0    1
 -2       675       676       789      2819      3173      3174
 -1      1435    8    0    1
 -2       674       675       790      2816      3175      3176
 -1      1436    8    0    1
 -2       675       789       790      3174      3177      3175
 -1      1437    8    0    1
 -2       677       678       791      2825      3178      3179
 -1      1438    8    0    1
 -2       678       679       792      2828      3180      3181
 -1      1439    8    0    1
 -2       678       792       791      3181      3182      3178
 -1      1440    8    0    1
 -2       679       680       793      2831      3183      3184
 -1      1441    8    0    1
 -2       679       793       792      3184      3185      3180
 -1      1442    8    0    1
 -2       680       681       794      2834      3186      3187
 -1      1443    8    0    1
 -2       680       794       793      3187      3188      3183
 -1      1444    8    0    1
 -2       681       682       795      2837      3189      3190
 -1      1445    8    0    1
 -2       681       795       794      3190      3191      3186
 -1      1446    8    0    1
 -2       682       683       796      2840      3192      3193
 -1      1447    8    0    1
 -2       682       796       795      3193      3194      3189
 -1      1448    8    0    1
 -2       683       684       797      2843      3195      3196
 -1      1449    8    0    1
 -2       683       797       796      3196      3197      3192
 -1      1450    8    0    1
 -2       684       685       798      2846      3198      3199
 -1      1451    8    0    1
 -2       684       798       797      3199      3200      3195
 -1      1452    8    0    1
 -2       685       686       799      2849      3201      3202
 -1      1453    8    0    1
 -2       685       799       798      3202      3203      3198
 -1      1454    8    0    1
 -2       686       687       800      2852      3204      3205
 -1      1455    8    0    1
 -2       686       800       799      3205      3206      3201
 -1      1456    8    0    1
 -2       687       688       801      2855      3207      3208
 -1      1457    8    0    1
 -2       687       801       800      3208      3209      3204
 -1      1458    8    0    1
 -2       688       689       802      2858      3210      3211
 -1      1459    8    0    1
 -2       688       802       801      3211      3212      3207
 -1      1460    8    0    1
 -2       689       690       803      2861      3213      3214
 -1      1461    8    0    1
 -2       689       803       802      3214      3215      3210
 -1      1462    8    0    1
 -2       690       691       804      2864      3216      3217
 -1      1463    8    0    1
 -2       690       804       803      3217      3218      3213
 -1      1464    8    0    1
 -2       691       692       805      2867      3219      3220
 -1      1465    8    0    1
 -2       691       805       804      3220      3221      3216
 -1      1466    8    0    1
 -2       692       693       806      2870      3222      3223
 -1      1467    8    0    1
 -2       692       806       805      3223      3224      3219
 -1      1468    8    0    1
 -2       693       694       807      2873      3225      3226
 -1      1469    8    0    1
 -2       693       807       806      3226      3227      3222
 -1      1470    8    0    1
 -2       694       695       808      2876      3228      3229
 -1      1471    8    0    1
 -2       694       808       807      3229      3230      3225
 -1      1472    8    0    1
 -2       695       696       809      2879      3231      3232
 -1      1473    8    0    1
 -2       695       809       808      3232      3233      3228
 -1      1474    8    0    1
 -2       696       697       810      2882      3234      3235
 -1      1475    8    0    1
 -2       696       810       809      3235      3236      3231
 -1      1476    8    0    1
 -2       697       698       811      2885      3237      3238
 -1      1477    8    0    1
 -2       697       811       810      3238      3239      3234
 -1      1478    8    0    1
 -2       698       699       812      2888      3240      3241
 -1      1479    8    0    1
 -2       698       812       811      3241      3242      3237
 -1      1480    8    0    1
 -2       699       700       813      2891      3243      3244
 -1      1481    8    0    1
 -2       699       813       812      3244      3245      3240
 -1      1482    8    0    1
 -2       700       701       814      2894      3246      3247
 -1      1483    8    0    1
 -2       700       814       813      3247      3248      3243
 -1      1484    8    0    1
 -2       701       702       815      2897      3249      3250
 -1      1485    8    0    1
 -2       701       815       814      3250      3251      3246
 -1      1486    8    0    1
 -2       702       703       816      2900      3252      3253
 -1      1487    8    0    1
 -2       702       816       815      3253      3254      3249
 -1      1488    8    0    1
 -2       703       704       817      2903      3255      3256
 -1      1489    8    0    1
 -2       703       817       816      3256      3257      3252
 -1      1490    8    0    1
 -2       705       706       753      2909      3258      3259
 -1      1491    8    0    1
 -2       707       708       750      2915      3260      3261
 -1      1492    8    0    1
 -2       622       621       818      2664      3262      3263
 -1      1493    8    0    1
 -2       739       718       819      3001      3264      3265
 -1      1494    8    0    1
 -2       738       590       666      2997      2992      3266
 -1      1495    8    0    1
 -2       672       575       746      3029      3026      3267
 -1      1496    8    0    1
 -2       736       626       820      3019      3268      3269
 -1      1497    8    0    1
 -2       666       595       752      2991      3060      3270
 -1      1498    8    0    1
 -2       723       673       821      2955      3271      3272
 -1      1499    8    0    1
 -2       673       788       821      3172      3273      3271
 -1      1500    8    0    1
 -2       752       719       667      3068      3167      3274
 -1      1501    8    0    1
 -2       617       736       822      3039      3275      3276
 -1      1502    8    0    1
 -2       719       726       668      2966      3277      3168
 -1      1503    8    0    1
 -2       624       625       823      3034      3278      3279
 -1      1504    8    0    1
 -2       754       624       823      3069      3279      3280
 -1      1505    8    0    1
 -2       625       727       823      2969      3281      3278
 -1      1506    8    0    1
 -2       714       583       747      3040      3038      3282
 -1      1507    8    0    1
 -2       618       735       824      3042      3283      3284
 -1      1508    8    0    1
 -2       722       734       825      3035      3285      3286
 -1      1509    8    0    1
 -2       676       677       826      2822      3287      3288
 -1      1510    8    0    1
 -2       789       676       826      3173      3288      3289
 -1      1511    8    0    1
 -2       677       791       826      3179      3290      3287
 -1      1512    8    0    1
 -2       734       729       827      2988      3291      3292
 -1      1513    8    0    1
 -2       619       614       828      3031      3293      3294
 -1      1514    8    0    1
 -2       721       615       743      3030      3013      3295
 -1      1515    8    0    1
 -2       630       629       829      2683      3296      3297
 -1      1516    8    0    1
 -2       630       829       755      3297      3298      3072
 -1      1517    8    0    1
 -2       728       732       830      2983      3299      3300
 -1      1518    8    0    1
 -2       726       737       787      3057      3301      3302
 -1      1519    8    0    1
 -2       626       739       831      3062      3303      3304
 -1      1520    8    0    1
 -2       739       819       831      3265      3305      3303
 -1      1521    8    0    1
 -2       740       616       832      3063      3306      3307
 -1      1522    8    0    1
 -2       742       722       833      3033      3308      3309
 -1      1523    8    0    1
 -2       668       726       669      3277      3310      2800
 -1      1524    8    0    1
 -2       669       726       787      3310      3302      3169
 -1      1525    8    0    1
 -2       744       622       834      3015      3311      3312
 -1      1526    8    0    1
 -2       622       818       834      3263      3313      3311
 -1      1527    8    0    1
 -2       736       820       822      3269      3314      3275
 -1      1528    8    0    1
 -2       628       627       716      3071      3028      3315
 -1      1529    8    0    1
 -2       745       728       830      3022      3300      3316
 -1      1530    8    0    1
 -2       746       713       832      3024      3317      3318
 -1      1531    8    0    1
 -2       629       725       835      2962      3319      3320
 -1      1532    8    0    1
 -2       629       835       829      3320      3321      3296
 -1      1533    8    0    1
 -2       662       786       819      3165      3322      3323
 -1      1534    8    0    1
 -2       617       822       751      3276      3324      3054
 -1      1535    8    0    1
 -2       663       662       819      2782      3323      3325
 -1      1536    8    0    1
 -2       664       663       718      2785      3326      3327
 -1      1537    8    0    1
 -2       665       664       733      2788      3328      3329
 -1      1538    8    0    1
 -2       667       666       752      2794      3270      3274
 -1      1539    8    0    1
 -2       725       721       743      2963      3295      3330
 -1      1540    8    0    1
 -2       827       729       748      3291      3045      3331
 -1      1541    8    0    1
 -2       734       827       825      3292      3332      3285
 -1      1542    8    0    1
 -2       674       790       836      3176      3333      3334
 -1      1543    8    0    1
 -2       674       836       724      3334      3335      2959
 -1      1544    8    0    1
 -2       817       704       833      3255      3336      3337
 -1      1545    8    0    1
 -2       704       705       833      2906      3338      3336
 -1      1546    8    0    1
 -2       706       707       828      2912      3339      3340
 -1      1547    8    0    1
 -2       708       709       830      2918      3341      3342
 -1      1548    8    0    1
 -2       712       670       717      2927      3343      3046
 -1      1549    8    0    1
 -2       671       724       837      2958      3344      3345
 -1      1550    8    0    1
 -2       724       836       837      3335      3346      3344
 -1      1551    8    0    1
 -2       740       832       713      3307      3317      3347
 -1      1552    8    0    1
 -2       820       626       831      3268      3304      3348
 -1      1553    8    0    1
 -2       716       717       838      2942      3349      3350
 -1      1554    8    0    1
 -2       616       745       832      3021      3351      3306
 -1      1555    8    0    1
 -2       623       754       839      3070      3352      3353
 -1      1556    8    0    1
 -2       623       839       730      3353      3354      2978
 -1      1557    8    0    1
 -2       718       663       819      3326      3325      3264
 -1      1558    8    0    1
 -2       717       670       787      3343      3170      3355
 -1      1559    8    0    1
 -2       733       664       718      3328      3327      3018
 -1      1560    8    0    1
 -2       830       709       840      3341      3356      3357
 -1      1561    8    0    1
 -2       745       830       840      3316      3357      3358
 -1      1562    8    0    1
 -2       709       710       840      2921      3359      3356
 -1      1563    8    0    1
 -2       838       717       787      3349      3355      3360
 -1      1564    8    0    1
 -2       628       716       838      3315      3350      3361
 -1      1565    8    0    1
 -2       824       735       841      3283      3362      3363
 -1      1566    8    0    1
 -2       735       751       841      3056      3364      3362
 -1      1567    8    0    1
 -2       722       825       817      3286      3365      3366
 -1      1568    8    0    1
 -2       748       618       824      3043      3284      3367
 -1      1569    8    0    1
 -2       833       722       817      3308      3366      3337
 -1      1570    8    0    1
 -2       828       614       753      3293      3066      3368
 -1      1571    8    0    1
 -2       731       749       842      3049      3369      3370
 -1      1572    8    0    1
 -2       727       723       843      2970      3371      3372
 -1      1573    8    0    1
 -2       823       727       843      3281      3372      3373
 -1      1574    8    0    1
 -2       723       821       843      3272      3374      3371
 -1      1575    8    0    1
 -2       671       837       788      3345      3375      3171
 -1      1576    8    0    1
 -2       621       730       844      2977      3376      3377
 -1      1577    8    0    1
 -2       818       621       844      3262      3377      3378
 -1      1578    8    0    1
 -2       730       839       844      3354      3379      3376
 -1      1579    8    0    1
 -2       740       713       720      3347      3380      3036
 -1      1580    8    0    1
 -2       720       713       715      3380      2934      3381
 -1      1581    8    0    1
 -2       743       731       845      3014      3382      3383
 -1      1582    8    0    1
 -2       731       842       845      3370      3384      3382
 -1      1583    8    0    1
 -2       747       720       715      3067      3381      3385
 -1      1584    8    0    1
 -2       820       831       846      3348      3386      3387
 -1      1585    8    0    1
 -2       819       786       831      3322      3388      3305
 -1      1586    8    0    1
 -2       751       822       847      3324      3389      3390
 -1      1587    8    0    1
 -2       757       756       848      3079      3391      3392
 -1      1588    8    0    1
 -2       758       757       849      3082      3393      3394
 -1      1589    8    0    1
 -2       757       848       849      3392      3395      3393
 -1      1590    8    0    1
 -2       759       758       850      3085      3396      3397
 -1      1591    8    0    1
 -2       758       849       850      3394      3398      3396
 -1      1592    8    0    1
 -2       760       759       851      3088      3399      3400
 -1      1593    8    0    1
 -2       759       850       851      3397      3401      3399
 -1      1594    8    0    1
 -2       761       760       852      3091      3402      3403
 -1      1595    8    0    1
 -2       760       851       852      3400      3404      3402
 -1      1596    8    0    1
 -2       762       761       853      3094      3405      3406
 -1      1597    8    0    1
 -2       761       852       853      3403      3407      3405
 -1      1598    8    0    1
 -2       763       762       854      3097      3408      3409
 -1      1599    8    0    1
 -2       762       853       854      3406      3410      3408
 -1      1600    8    0    1
 -2       764       763       855      3100      3411      3412
 -1      1601    8    0    1
 -2       763       854       855      3409      3413      3411
 -1      1602    8    0    1
 -2       765       764       856      3103      3414      3415
 -1      1603    8    0    1
 -2       764       855       856      3412      3416      3414
 -1      1604    8    0    1
 -2       766       765       857      3106      3417      3418
 -1      1605    8    0    1
 -2       765       856       857      3415      3419      3417
 -1      1606    8    0    1
 -2       767       766       858      3109      3420      3421
 -1      1607    8    0    1
 -2       766       857       858      3418      3422      3420
 -1      1608    8    0    1
 -2       768       767       859      3112      3423      3424
 -1      1609    8    0    1
 -2       767       858       859      3421      3425      3423
 -1      1610    8    0    1
 -2       769       768       860      3115      3426      3427
 -1      1611    8    0    1
 -2       768       859       860      3424      3428      3426
 -1      1612    8    0    1
 -2       770       769       861      3118      3429      3430
 -1      1613    8    0    1
 -2       769       860       861      3427      3431      3429
 -1      1614    8    0    1
 -2       771       770       862      3121      3432      3433
 -1      1615    8    0    1
 -2       770       861       862      3430      3434      3432
 -1      1616    8    0    1
 -2       772       771       863      3124      3435      3436
 -1      1617    8    0    1
 -2       771       862       863      3433      3437      3435
 -1      1618    8    0    1
 -2       773       772       864      3127      3438      3439
 -1      1619    8    0    1
 -2       772       863       864      3436      3440      3438
 -1      1620    8    0    1
 -2       774       773       865      3130      3441      3442
 -1      1621    8    0    1
 -2       773       864       865      3439      3443      3441
 -1      1622    8    0    1
 -2       775       774       866      3133      3444      3445
 -1      1623    8    0    1
 -2       774       865       866      3442      3446      3444
 -1      1624    8    0    1
 -2       776       775       867      3136      3447      3448
 -1      1625    8    0    1
 -2       775       866       867      3445      3449      3447
 -1      1626    8    0    1
 -2       777       776       868      3139      3450      3451
 -1      1627    8    0    1
 -2       776       867       868      3448      3452      3450
 -1      1628    8    0    1
 -2       778       777       869      3142      3453      3454
 -1      1629    8    0    1
 -2       777       868       869      3451      3455      3453
 -1      1630    8    0    1
 -2       779       778       870      3145      3456      3457
 -1      1631    8    0    1
 -2       778       869       870      3454      3458      3456
 -1      1632    8    0    1
 -2       780       779       871      3148      3459      3460
 -1      1633    8    0    1
 -2       779       870       871      3457      3461      3459
 -1      1634    8    0    1
 -2       781       780       872      3151      3462      3463
 -1      1635    8    0    1
 -2       780       871       872      3460      3464      3462
 -1      1636    8    0    1
 -2       782       781       873      3154      3465      3466
 -1      1637    8    0    1
 -2       781       872       873      3463      3467      3465
 -1      1638    8    0    1
 -2       783       782       874      3157      3468      3469
 -1      1639    8    0    1
 -2       782       873       874      3466      3470      3468
 -1      1640    8    0    1
 -2       784       783       875      3160      3471      3472
 -1      1641    8    0    1
 -2       783       874       875      3469      3473      3471
 -1      1642    8    0    1
 -2       785       784       876      3163      3474      3475
 -1      1643    8    0    1
 -2       784       875       876      3472      3476      3474
 -1      1644    8    0    1
 -2       786       785       846      3166      3477      3478
 -1      1645    8    0    1
 -2       665       733       738      3329      3058      3479
 -1      1646    8    0    1
 -2       666       665       738      2791      3479      3266
 -1      1647    8    0    1
 -2       790       789       877      3177      3480      3481
 -1      1648    8    0    1
 -2       706       828       753      3340      3368      3258
 -1      1649    8    0    1
 -2       792       793       878      3185      3482      3483
 -1      1650    8    0    1
 -2       791       792       879      3182      3484      3485
 -1      1651    8    0    1
 -2       792       878       879      3483      3486      3484
 -1      1652    8    0    1
 -2       794       795       880      3191      3487      3488
 -1      1653    8    0    1
 -2       795       796       881      3194      3489      3490
 -1      1654    8    0    1
 -2       795       881       880      3490      3491      3487
 -1      1655    8    0    1
 -2       796       797       882      3197      3492      3493
 -1      1656    8    0    1
 -2       796       882       881      3493      3494      3489
 -1      1657    8    0    1
 -2       797       798       883      3200      3495      3496
 -1      1658    8    0    1
 -2       797       883       882      3496      3497      3492
 -1      1659    8    0    1
 -2       798       799       884      3203      3498      3499
 -1      1660    8    0    1
 -2       798       884       883      3499      3500      3495
 -1      1661    8    0    1
 -2       799       800       885      3206      3501      3502
 -1      1662    8    0    1
 -2       799       885       884      3502      3503      3498
 -1      1663    8    0    1
 -2       800       801       886      3209      3504      3505
 -1      1664    8    0    1
 -2       800       886       885      3505      3506      3501
 -1      1665    8    0    1
 -2       801       802       887      3212      3507      3508
 -1      1666    8    0    1
 -2       801       887       886      3508      3509      3504
 -1      1667    8    0    1
 -2       802       803       888      3215      3510      3511
 -1      1668    8    0    1
 -2       802       888       887      3511      3512      3507
 -1      1669    8    0    1
 -2       803       804       889      3218      3513      3514
 -1      1670    8    0    1
 -2       803       889       888      3514      3515      3510
 -1      1671    8    0    1
 -2       804       805       890      3221      3516      3517
 -1      1672    8    0    1
 -2       804       890       889      3517      3518      3513
 -1      1673    8    0    1
 -2       805       806       891      3224      3519      3520
 -1      1674    8    0    1
 -2       805       891       890      3520      3521      3516
 -1      1675    8    0    1
 -2       806       807       892      3227      3522      3523
 -1      1676    8    0    1
 -2       806       892       891      3523      3524      3519
 -1      1677    8    0    1
 -2       807       808       893      3230      3525      3526
 -1      1678    8    0    1
 -2       807       893       892      3526      3527      3522
 -1      1679    8    0    1
 -2       808       809       894      3233      3528      3529
 -1      1680    8    0    1
 -2       808       894       893      3529      3530      3525
 -1      1681    8    0    1
 -2       809       810       895      3236      3531      3532
 -1      1682    8    0    1
 -2       809       895       894      3532      3533      3528
 -1      1683    8    0    1
 -2       810       811       896      3239      3534      3535
 -1      1684    8    0    1
 -2       810       896       895      3535      3536      3531
 -1      1685    8    0    1
 -2       811       812       897      3242      3537      3538
 -1      1686    8    0    1
 -2       811       897       896      3538      3539      3534
 -1      1687    8    0    1
 -2       812       813       898      3245      3540      3541
 -1      1688    8    0    1
 -2       812       898       897      3541      3542      3537
 -1      1689    8    0    1
 -2       813       814       899      3248      3543      3544
 -1      1690    8    0    1
 -2       813       899       898      3544      3545      3540
 -1      1691    8    0    1
 -2       814       815       900      3251      3546      3547
 -1      1692    8    0    1
 -2       814       900       899      3547      3548      3543
 -1      1693    8    0    1
 -2       816       817       825      3257      3365      3549
 -1      1694    8    0    1
 -2       705       753       833      3259      3550      3338
 -1      1695    8    0    1
 -2       828       707       750      3339      3261      3551
 -1      1696    8    0    1
 -2       708       830       750      3342      3552      3260
 -1      1697    8    0    1
 -2       822       820       901      3314      3553      3554
 -1      1698    8    0    1
 -2       710       672       902      2922      3555      3556
 -1      1699    8    0    1
 -2       832       745       840      3351      3358      3557
 -1      1700    8    0    1
 -2       821       788       903      3273      3558      3559
 -1      1701    8    0    1
 -2       787       737       838      3301      3560      3360
 -1      1702    8    0    1
 -2       756       755       904      3076      3561      3562
 -1      1703    8    0    1
 -2       756       904       848      3562      3563      3391
 -1      1704    8    0    1
 -2       748       824       905      3367      3564      3565
 -1      1705    8    0    1
 -2       714       747       711      3282      3566      3027
 -1      1706    8    0    1
 -2       749       744       906      3050      3567      3568
 -1      1707    8    0    1
 -2       749       906       842      3568      3569      3369
 -1      1708    8    0    1
 -2       725       743       835      3330      3570      3319
 -1      1709    8    0    1
 -2       619       828       750      3294      3551      3053
 -1      1710    8    0    1
 -2       827       748       907      3331      3571      3572
 -1      1711    8    0    1
 -2       748       905       907      3565      3573      3571
 -1      1712    8    0    1
 -2       825       827       908      3332      3574      3575
 -1      1713    8    0    1
 -2       816       825       908      3549      3575      3576
 -1      1714    8    0    1
 -2       827       907       908      3572      3577      3574
 -1      1715    8    0    1
 -2       672       746       902      3267      3578      3555
 -1      1716    8    0    1
 -2       788       837       909      3375      3579      3580
 -1      1717    8    0    1
 -2       788       909       903      3580      3581      3558
 -1      1718    8    0    1
 -2       793       794       910      3188      3582      3583
 -1      1719    8    0    1
 -2       878       793       910      3482      3583      3584
 -1      1720    8    0    1
 -2       794       880       910      3488      3585      3582
 -1      1721    8    0    1
 -2       753       742       833      3064      3309      3550
 -1      1722    8    0    1
 -2       755       829       911      3298      3586      3587
 -1      1723    8    0    1
 -2       755       911       904      3587      3588      3561
 -1      1724    8    0    1
 -2       831       786       846      3388      3478      3386
 -1      1725    8    0    1
 -2       710       902       840      3556      3589      3359
 -1      1726    8    0    1
 -2       711       747       715      3566      3385      2935
 -1      1727    8    0    1
 -2       746       832       902      3318      3590      3578
 -1      1728    8    0    1
 -2       829       835       912      3321      3591      3592
 -1      1729    8    0    1
 -2       829       912       911      3592      3593      3586
 -1      1730    8    0    1
 -2       732       750       830      3052      3552      3299
 -1      1731    8    0    1
 -2       754       823       913      3280      3594      3595
 -1      1732    8    0    1
 -2       823       843       913      3373      3596      3594
 -1      1733    8    0    1
 -2       847       822       914      3389      3597      3598
 -1      1734    8    0    1
 -2       822       901       914      3554      3599      3597
 -1      1735    8    0    1
 -2       785       876       846      3475      3600      3477
 -1      1736    8    0    1
 -2       877       789       915      3480      3601      3602
 -1      1737    8    0    1
 -2       789       826       915      3289      3603      3601
 -1      1738    8    0    1
 -2       836       790       916      3333      3604      3605
 -1      1739    8    0    1
 -2       790       877       916      3481      3606      3604
 -1      1740    8    0    1
 -2       791       879       917      3485      3607      3608
 -1      1741    8    0    1
 -2       791       917       826      3608      3609      3290
 -1      1742    8    0    1
 -2       900       815       908      3546      3610      3611
 -1      1743    8    0    1
 -2       815       816       908      3254      3576      3610
 -1      1744    8    0    1
 -2       901       820       846      3553      3387      3612
 -1      1745    8    0    1
 -2       837       836       918      3346      3613      3614
 -1      1746    8    0    1
 -2       909       837       918      3579      3614      3615
 -1      1747    8    0    1
 -2       836       916       918      3605      3616      3613
 -1      1748    8    0    1
 -2       737       741       838      3008      3617      3560
 -1      1749    8    0    1
 -2       751       847       841      3390      3618      3364
 -1      1750    8    0    1
 -2       839       754       913      3352      3595      3619
 -1      1751    8    0    1
 -2       905       824       919      3564      3620      3621
 -1      1752    8    0    1
 -2       906       744       834      3567      3312      3622
 -1      1753    8    0    1
 -2       919       824       841      3620      3363      3623
 -1      1754    8    0    1
 -2       821       903       920      3559      3624      3625
 -1      1755    8    0    1
 -2       842       906       921      3569      3626      3627
 -1      1756    8    0    1
 -2       628       838       741      3361      3617      3009
 -1      1757    8    0    1
 -2       834       818       922      3313      3628      3629
 -1      1758    8    0    1
 -2       818       844       923      3378      3630      3631
 -1      1759    8    0    1
 -2       818       923       922      3631      3632      3628
 -1      1760    8    0    1
 -2       843       821       920      3374      3625      3633
 -1      1761    8    0    1
 -2       842       921       912      3627      3634      3635
 -1      1762    8    0    1
 -2       850       849       924      3398      3636      3637
 -1      1763    8    0    1
 -2       851       850       925      3401      3638      3639
 -1      1764    8    0    1
 -2       850       924       925      3637      3640      3638
 -1      1765    8    0    1
 -2       852       851       926      3404      3641      3642
 -1      1766    8    0    1
 -2       851       925       926      3639      3643      3641
 -1      1767    8    0    1
 -2       853       852       927      3407      3644      3645
 -1      1768    8    0    1
 -2       852       926       927      3642      3646      3644
 -1      1769    8    0    1
 -2       854       853       928      3410      3647      3648
 -1      1770    8    0    1
 -2       853       927       928      3645      3649      3647
 -1      1771    8    0    1
 -2       855       854       929      3413      3650      3651
 -1      1772    8    0    1
 -2       854       928       929      3648      3652      3650
 -1      1773    8    0    1
 -2       856       855       930      3416      3653      3654
 -1      1774    8    0    1
 -2       855       929       930      3651      3655      3653
 -1      1775    8    0    1
 -2       857       856       931      3419      3656      3657
 -1      1776    8    0    1
 -2       856       930       931      3654      3658      3656
 -1      1777    8    0    1
 -2       858       857       932      3422      3659      3660
 -1      1778    8    0    1
 -2       857       931       932      3657      3661      3659
 -1      1779    8    0    1
 -2       859       858       933      3425      3662      3663
 -1      1780    8    0    1
 -2       858       932       933      3660      3664      3662
 -1      1781    8    0    1
 -2       860       859       934      3428      3665      3666
 -1      1782    8    0    1
 -2       859       933       934      3663      3667      3665
 -1      1783    8    0    1
 -2       861       860       935      3431      3668      3669
 -1      1784    8    0    1
 -2       860       934       935      3666      3670      3668
 -1      1785    8    0    1
 -2       862       861       936      3434      3671      3672
 -1      1786    8    0    1
 -2       861       935       936      3669      3673      3671
 -1      1787    8    0    1
 -2       863       862       937      3437      3674      3675
 -1      1788    8    0    1
 -2       862       936       937      3672      3676      3674
 -1      1789    8    0    1
 -2       864       863       938      3440      3677      3678
 -1      1790    8    0    1
 -2       863       937       938      3675      3679      3677
 -1      1791    8    0    1
 -2       865       864       939      3443      3680      3681
 -1      1792    8    0    1
 -2       864       938       939      3678      3682      3680
 -1      1793    8    0    1
 -2       866       865       940      3446      3683      3684
 -1      1794    8    0    1
 -2       865       939       940      3681      3685      3683
 -1      1795    8    0    1
 -2       867       866       941      3449      3686      3687
 -1      1796    8    0    1
 -2       866       940       941      3684      3688      3686
 -1      1797    8    0    1
 -2       868       867       942      3452      3689      3690
 -1      1798    8    0    1
 -2       867       941       942      3687      3691      3689
 -1      1799    8    0    1
 -2       869       868       943      3455      3692      3693
 -1      1800    8    0    1
 -2       868       942       943      3690      3694      3692
 -1      1801    8    0    1
 -2       870       869       944      3458      3695      3696
 -1      1802    8    0    1
 -2       869       943       944      3693      3697      3695
 -1      1803    8    0    1
 -2       871       870       945      3461      3698      3699
 -1      1804    8    0    1
 -2       870       944       945      3696      3700      3698
 -1      1805    8    0    1
 -2       872       871       946      3464      3701      3702
 -1      1806    8    0    1
 -2       871       945       946      3699      3703      3701
 -1      1807    8    0    1
 -2       873       872       947      3467      3704      3705
 -1      1808    8    0    1
 -2       872       946       947      3702      3706      3704
 -1      1809    8    0    1
 -2       874       873       948      3470      3707      3708
 -1      1810    8    0    1
 -2       873       947       948      3705      3709      3707
 -1      1811    8    0    1
 -2       875       874       949      3473      3710      3711
 -1      1812    8    0    1
 -2       874       948       949      3708      3712      3710
 -1      1813    8    0    1
 -2       876       875       950      3476      3713      3714
 -1      1814    8    0    1
 -2       875       949       950      3711      3715      3713
 -1      1815    8    0    1
 -2       882       883       951      3497      3716      3717
 -1      1816    8    0    1
 -2       879       878       952      3486      3718      3719
 -1      1817    8    0    1
 -2       901       846       876      3612      3600      3720
 -1      1818    8    0    1
 -2       881       882       953      3494      3721      3722
 -1      1819    8    0    1
 -2       882       951       953      3717      3723      3721
 -1      1820    8    0    1
 -2       880       881       954      3491      3724      3725
 -1      1821    8    0    1
 -2       881       953       954      3722      3726      3724
 -1      1822    8    0    1
 -2       883       884       955      3500      3727      3728
 -1      1823    8    0    1
 -2       883       955       951      3728      3729      3716
 -1      1824    8    0    1
 -2       884       885       956      3503      3730      3731
 -1      1825    8    0    1
 -2       884       956       955      3731      3732      3727
 -1      1826    8    0    1
 -2       885       886       957      3506      3733      3734
 -1      1827    8    0    1
 -2       885       957       956      3734      3735      3730
 -1      1828    8    0    1
 -2       886       887       958      3509      3736      3737
 -1      1829    8    0    1
 -2       886       958       957      3737      3738      3733
 -1      1830    8    0    1
 -2       887       888       959      3512      3739      3740
 -1      1831    8    0    1
 -2       887       959       958      3740      3741      3736
 -1      1832    8    0    1
 -2       888       889       960      3515      3742      3743
 -1      1833    8    0    1
 -2       888       960       959      3743      3744      3739
 -1      1834    8    0    1
 -2       889       890       961      3518      3745      3746
 -1      1835    8    0    1
 -2       889       961       960      3746      3747      3742
 -1      1836    8    0    1
 -2       890       891       962      3521      3748      3749
 -1      1837    8    0    1
 -2       890       962       961      3749      3750      3745
 -1      1838    8    0    1
 -2       891       892       963      3524      3751      3752
 -1      1839    8    0    1
 -2       891       963       962      3752      3753      3748
 -1      1840    8    0    1
 -2       892       893       964      3527      3754      3755
 -1      1841    8    0    1
 -2       892       964       963      3755      3756      3751
 -1      1842    8    0    1
 -2       893       894       965      3530      3757      3758
 -1      1843    8    0    1
 -2       893       965       964      3758      3759      3754
 -1      1844    8    0    1
 -2       894       895       966      3533      3760      3761
 -1      1845    8    0    1
 -2       894       966       965      3761      3762      3757
 -1      1846    8    0    1
 -2       895       896       967      3536      3763      3764
 -1      1847    8    0    1
 -2       895       967       966      3764      3765      3760
 -1      1848    8    0    1
 -2       896       897       968      3539      3766      3767
 -1      1849    8    0    1
 -2       896       968       967      3767      3768      3763
 -1      1850    8    0    1
 -2       897       898       969      3542      3769      3770
 -1      1851    8    0    1
 -2       897       969       968      3770      3771      3766
 -1      1852    8    0    1
 -2       898       899       970      3545      3772      3773
 -1      1853    8    0    1
 -2       898       970       969      3773      3774      3769
 -1      1854    8    0    1
 -2       899       900       971      3548      3775      3776
 -1      1855    8    0    1
 -2       899       971       970      3776      3777      3772
 -1      1856    8    0    1
 -2       907       905       971      3573      3778      3779
 -1      1857    8    0    1
 -2       903       909       972      3581      3780      3781
 -1      1858    8    0    1
 -2       913       843       920      3596      3633      3782
 -1      1859    8    0    1
 -2       848       904       973      3563      3783      3784
 -1      1860    8    0    1
 -2       743       845       835      3383      3785      3570
 -1      1861    8    0    1
 -2       920       903       974      3624      3786      3787
 -1      1862    8    0    1
 -2       903       972       974      3781      3788      3786
 -1      1863    8    0    1
 -2       841       847       975      3618      3789      3790
 -1      1864    8    0    1
 -2       839       913       976      3619      3791      3792
 -1      1865    8    0    1
 -2       844       839       976      3379      3792      3793
 -1      1866    8    0    1
 -2       913       920       976      3782      3794      3791
 -1      1867    8    0    1
 -2       906       834       977      3622      3795      3796
 -1      1868    8    0    1
 -2       921       906       977      3626      3796      3797
 -1      1869    8    0    1
 -2       834       922       977      3629      3798      3795
 -1      1870    8    0    1
 -2       900       908       907      3611      3577      3799
 -1      1871    8    0    1
 -2       904       911       978      3588      3800      3801
 -1      1872    8    0    1
 -2       904       978       973      3801      3802      3783
 -1      1873    8    0    1
 -2       902       832       840      3590      3557      3589
 -1      1874    8    0    1
 -2       849       848       979      3395      3803      3804
 -1      1875    8    0    1
 -2       848       973       979      3784      3805      3803
 -1      1876    8    0    1
 -2       842       912       845      3635      3806      3384
 -1      1877    8    0    1
 -2       919       841       975      3623      3790      3807
 -1      1878    8    0    1
 -2       900       907       971      3799      3779      3775
 -1      1879    8    0    1
 -2       901       876       950      3720      3714      3808
 -1      1880    8    0    1
 -2       835       845       912      3785      3806      3591
 -1      1881    8    0    1
 -2       914       901       950      3599      3808      3809
 -1      1882    8    0    1
 -2       915       826       917      3603      3609      3810
 -1      1883    8    0    1
 -2       880       954       980      3725      3811      3812
 -1      1884    8    0    1
 -2       880       980       910      3812      3813      3585
 -1      1885    8    0    1
 -2       877       915       981      3602      3814      3815
 -1      1886    8    0    1
 -2       916       877       982      3606      3816      3817
 -1      1887    8    0    1
 -2       877       981       982      3815      3818      3816
 -1      1888    8    0    1
 -2       879       952       983      3719      3819      3820
 -1      1889    8    0    1
 -2       879       983       917      3820      3821      3607
 -1      1890    8    0    1
 -2       921       977       984      3797      3822      3823
 -1      1891    8    0    1
 -2       972       909       985      3780      3824      3825
 -1      1892    8    0    1
 -2       909       918       985      3615      3826      3824
 -1      1893    8    0    1
 -2       952       878       986      3718      3827      3828
 -1      1894    8    0    1
 -2       878       910       986      3584      3829      3827
 -1      1895    8    0    1
 -2       975       847       987      3789      3830      3831
 -1      1896    8    0    1
 -2       847       914       987      3598      3832      3830
 -1      1897    8    0    1
 -2       844       976       923      3793      3833      3630
 -1      1898    8    0    1
 -2       920       974       976      3787      3834      3794
 -1      1899    8    0    1
 -2       977       922       988      3798      3835      3836
 -1      1900    8    0    1
 -2       977       988       984      3836      3837      3822
 -1      1901    8    0    1
 -2       922       923       989      3632      3838      3839
 -1      1902    8    0    1
 -2       922       989       988      3839      3840      3835
 -1      1903    8    0    1
 -2       924       849       979      3636      3804      3841
 -1      1904    8    0    1
 -2       912       921       978      3634      3842      3843
 -1      1905    8    0    1
 -2       919       975       990      3807      3844      3845
 -1      1906    8    0    1
 -2       921       984       978      3823      3846      3842
 -1      1907    8    0    1
 -2       919       990       991      3845      3847      3848
 -1      1908    8    0    1
 -2       919       991       905      3848      3849      3621
 -1      1909    8    0    1
 -2       914       950       992      3809      3850      3851
 -1      1910    8    0    1
 -2       987       914       992      3832      3851      3852
 -1      1911    8    0    1
 -2       950       949       992      3715      3853      3850
 -1      1912    8    0    1
 -2       981       915       993      3814      3854      3855
 -1      1913    8    0    1
 -2       915       917       993      3810      3856      3854
 -1      1914    8    0    1
 -2       926       925       994      3643      3857      3858
 -1      1915    8    0    1
 -2       927       926       995      3646      3859      3860
 -1      1916    8    0    1
 -2       926       994       995      3858      3861      3859
 -1      1917    8    0    1
 -2       928       927       996      3649      3862      3863
 -1      1918    8    0    1
 -2       927       995       996      3860      3864      3862
 -1      1919    8    0    1
 -2       929       928       997      3652      3865      3866
 -1      1920    8    0    1
 -2       928       996       997      3863      3867      3865
 -1      1921    8    0    1
 -2       930       929       998      3655      3868      3869
 -1      1922    8    0    1
 -2       929       997       998      3866      3870      3868
 -1      1923    8    0    1
 -2       931       930       999      3658      3871      3872
 -1      1924    8    0    1
 -2       930       998       999      3869      3873      3871
 -1      1925    8    0    1
 -2       932       931      1000      3661      3874      3875
 -1      1926    8    0    1
 -2       931       999      1000      3872      3876      3874
 -1      1927    8    0    1
 -2       933       932      1001      3664      3877      3878
 -1      1928    8    0    1
 -2       932      1000      1001      3875      3879      3877
 -1      1929    8    0    1
 -2       934       933      1002      3667      3880      3881
 -1      1930    8    0    1
 -2       933      1001      1002      3878      3882      3880
 -1      1931    8    0    1
 -2       935       934      1003      3670      3883      3884
 -1      1932    8    0    1
 -2       934      1002      1003      3881      3885      3883
 -1      1933    8    0    1
 -2       936       935      1004      3673      3886      3887
 -1      1934    8    0    1
 -2       935      1003      1004      3884      3888      3886
 -1      1935    8    0    1
 -2       937       936      1005      3676      3889      3890
 -1      1936    8    0    1
 -2       936      1004      1005      3887      3891      3889
 -1      1937    8    0    1
 -2       938       937      1006      3679      3892      3893
 -1      1938    8    0    1
 -2       937      1005      1006      3890      3894      3892
 -1      1939    8    0    1
 -2       939       938      1007      3682      3895      3896
 -1      1940    8    0    1
 -2       938      1006      1007      3893      3897      3895
 -1      1941    8    0    1
 -2       940       939      1008      3685      3898      3899
 -1      1942    8    0    1
 -2       939      1007      1008      3896      3900      3898
 -1      1943    8    0    1
 -2       941       940      1009      3688      3901      3902
 -1      1944    8    0    1
 -2       940      1008      1009      3899      3903      3901
 -1      1945    8    0    1
 -2       942       941      1010      3691      3904      3905
 -1      1946    8    0    1
 -2       941      1009      1010      3902      3906      3904
 -1      1947    8    0    1
 -2       943       942      1011      3694      3907      3908
 -1      1948    8    0    1
 -2       942      1010      1011      3905      3909      3907
 -1      1949    8    0    1
 -2       944       943      1012      3697      3910      3911
 -1      1950    8    0    1
 -2       943      1011      1012      3908      3912      3910
 -1      1951    8    0    1
 -2       945       944      1013      3700      3913      3914
 -1      1952    8    0    1
 -2       944      1012      1013      3911      3915      3913
 -1      1953    8    0    1
 -2       946       945      1014      3703      3916      3917
 -1      1954    8    0    1
 -2       945      1013      1014      3914      3918      3916
 -1      1955    8    0    1
 -2       947       946      1015      3706      3919      3920
 -1      1956    8    0    1
 -2       946      1014      1015      3917      3921      3919
 -1      1957    8    0    1
 -2       948       947      1016      3709      3922      3923
 -1      1958    8    0    1
 -2       947      1015      1016      3920      3924      3922
 -1      1959    8    0    1
 -2       949       948      1017      3712      3925      3926
 -1      1960    8    0    1
 -2       992       949      1017      3853      3926      3927
 -1      1961    8    0    1
 -2       948      1016      1017      3923      3928      3925
 -1      1962    8    0    1
 -2       955       956      1018      3732      3929      3930
 -1      1963    8    0    1
 -2       953       951      1019      3723      3931      3932
 -1      1964    8    0    1
 -2       954       953      1020      3726      3933      3934
 -1      1965    8    0    1
 -2       953      1019      1020      3932      3935      3933
 -1      1966    8    0    1
 -2       956       957      1021      3735      3936      3937
 -1      1967    8    0    1
 -2       956      1021      1018      3937      3938      3929
 -1      1968    8    0    1
 -2       957       958      1022      3738      3939      3940
 -1      1969    8    0    1
 -2       957      1022      1021      3940      3941      3936
 -1      1970    8    0    1
 -2       958       959      1023      3741      3942      3943
 -1      1971    8    0    1
 -2       958      1023      1022      3943      3944      3939
 -1      1972    8    0    1
 -2       959       960      1024      3744      3945      3946
 -1      1973    8    0    1
 -2       959      1024      1023      3946      3947      3942
 -1      1974    8    0    1
 -2       960       961      1025      3747      3948      3949
 -1      1975    8    0    1
 -2       960      1025      1024      3949      3950      3945
 -1      1976    8    0    1
 -2       961       962      1026      3750      3951      3952
 -1      1977    8    0    1
 -2       961      1026      1025      3952      3953      3948
 -1      1978    8    0    1
 -2       962       963      1027      3753      3954      3955
 -1      1979    8    0    1
 -2       962      1027      1026      3955      3956      3951
 -1      1980    8    0    1
 -2       963       964      1028      3756      3957      3958
 -1      1981    8    0    1
 -2       963      1028      1027      3958      3959      3954
 -1      1982    8    0    1
 -2       964       965      1029      3759      3960      3961
 -1      1983    8    0    1
 -2       964      1029      1028      3961      3962      3957
 -1      1984    8    0    1
 -2       965       966      1030      3762      3963      3964
 -1      1985    8    0    1
 -2       965      1030      1029      3964      3965      3960
 -1      1986    8    0    1
 -2       966       967      1031      3765      3966      3967
 -1      1987    8    0    1
 -2       966      1031      1030      3967      3968      3963
 -1      1988    8    0    1
 -2       967       968      1032      3768      3969      3970
 -1      1989    8    0    1
 -2       967      1032      1031      3970      3971      3966
 -1      1990    8    0    1
 -2       968       969      1033      3771      3972      3973
 -1      1991    8    0    1
 -2       968      1033      1032      3973      3974      3969
 -1      1992    8    0    1
 -2       969       970      1034      3774      3975      3976
 -1      1993    8    0    1
 -2       969      1034      1033      3976      3977      3972
 -1      1994    8    0    1
 -2       970       971       991      3777      3978      3979
 -1      1995    8    0    1
 -2       971       905       991      3778      3849      3978
 -1      1996    8    0    1
 -2       918       916      1035      3616      3980      3981
 -1      1997    8    0    1
 -2       916       982      1035      3817      3982      3980
 -1      1998    8    0    1
 -2       979       973      1036      3805      3983      3984
 -1      1999    8    0    1
 -2       974       972      1037      3788      3985      3986
 -1      2000    8    0    1
 -2       924       979      1038      3841      3987      3988
 -1      2001    8    0    1
 -2       979      1036      1038      3984      3989      3987
 -1      2002    8    0    1
 -2       925       924      1039      3640      3990      3991
 -1      2003    8    0    1
 -2       925      1039       994      3991      3992      3857
 -1      2004    8    0    1
 -2       923       976       974      3833      3834      3993
 -1      2005    8    0    1
 -2       973       978      1040      3802      3994      3995
 -1      2006    8    0    1
 -2      1036       973      1040      3983      3995      3996
 -1      2007    8    0    1
 -2       978       984      1040      3846      3997      3994
 -1      2008    8    0    1
 -2       990       975      1041      3844      3998      3999
 -1      2009    8    0    1
 -2       975       987      1041      3831      4000      3998
 -1      2010    8    0    1
 -2       984       988      1042      3837      4001      4002
 -1      2011    8    0    1
 -2       984      1042      1040      4002      4003      3997
 -1      2012    8    0    1
 -2       951       955      1043      3729      4004      4005
 -1      2013    8    0    1
 -2       955      1018      1043      3930      4006      4004
 -1      2014    8    0    1
 -2       911       912       978      3593      3843      3800
 -1      2015    8    0    1
 -2       923       974      1037      3993      3986      4007
 -1      2016    8    0    1
 -2       970       991      1034      3979      4008      3975
 -1      2017    8    0    1
 -2       982       981      1044      3818      4009      4010
 -1      2018    8    0    1
 -2       980       954      1045      3811      4011      4012
 -1      2019    8    0    1
 -2       954      1020      1045      3934      4013      4011
 -1      2020    8    0    1
 -2      1019       951      1043      3931      4005      4014
 -1      2021    8    0    1
 -2       981       993      1046      3855      4015      4016
 -1      2022    8    0    1
 -2       981      1046      1044      4016      4017      4009
 -1      2023    8    0    1
 -2       983       952      1047      3819      4018      4019
 -1      2024    8    0    1
 -2       988       989      1048      3840      4020      4021
 -1      2025    8    0    1
 -2       988      1048      1042      4021      4022      4001
 -1      2026    8    0    1
 -2       991       990      1034      3847      4023      4008
 -1      2027    8    0    1
 -2       918      1035       985      3981      4024      3826
 -1      2028    8    0    1
 -2      1037       972      1049      3985      4025      4026
 -1      2029    8    0    1
 -2       972       985      1049      3825      4027      4025
 -1      2030    8    0    1
 -2       986       910       980      3829      3813      4028
 -1      2031    8    0    1
 -2       924      1038      1039      3988      4029      3990
 -1      2032    8    0    1
 -2       993       917       983      3856      3821      4030
 -1      2033    8    0    1
 -2      1034       990      1041      4023      3999      4031
 -1      2034    8    0    1
 -2       952       986      1050      3828      4032      4033
 -1      2035    8    0    1
 -2       952      1050      1047      4033      4034      4018
 -1      2036    8    0    1
 -2       995       994      1051      3861      4035      4036
 -1      2037    8    0    1
 -2       996       995      1052      3864      4037      4038
 -1      2038    8    0    1
 -2       995      1051      1052      4036      4039      4037
 -1      2039    8    0    1
 -2       997       996      1053      3867      4040      4041
 -1      2040    8    0    1
 -2       996      1052      1053      4038      4042      4040
 -1      2041    8    0    1
 -2       998       997      1054      3870      4043      4044
 -1      2042    8    0    1
 -2       997      1053      1054      4041      4045      4043
 -1      2043    8    0    1
 -2       999       998      1055      3873      4046      4047
 -1      2044    8    0    1
 -2       998      1054      1055      4044      4048      4046
 -1      2045    8    0    1
 -2      1000       999      1056      3876      4049      4050
 -1      2046    8    0    1
 -2       999      1055      1056      4047      4051      4049
 -1      2047    8    0    1
 -2      1001      1000      1057      3879      4052      4053
 -1      2048    8    0    1
 -2      1000      1056      1057      4050      4054      4052
 -1      2049    8    0    1
 -2      1002      1001      1058      3882      4055      4056
 -1      2050    8    0    1
 -2      1001      1057      1058      4053      4057      4055
 -1      2051    8    0    1
 -2      1003      1002      1059      3885      4058      4059
 -1      2052    8    0    1
 -2      1002      1058      1059      4056      4060      4058
 -1      2053    8    0    1
 -2      1004      1003      1060      3888      4061      4062
 -1      2054    8    0    1
 -2      1003      1059      1060      4059      4063      4061
 -1      2055    8    0    1
 -2      1005      1004      1061      3891      4064      4065
 -1      2056    8    0    1
 -2      1004      1060      1061      4062      4066      4064
 -1      2057    8    0    1
 -2      1006      1005      1062      3894      4067      4068
 -1      2058    8    0    1
 -2      1005      1061      1062      4065      4069      4067
 -1      2059    8    0    1
 -2      1007      1006      1063      3897      4070      4071
 -1      2060    8    0    1
 -2      1006      1062      1063      4068      4072      4070
 -1      2061    8    0    1
 -2      1008      1007      1064      3900      4073      4074
 -1      2062    8    0    1
 -2      1007      1063      1064      4071      4075      4073
 -1      2063    8    0    1
 -2      1009      1008      1065      3903      4076      4077
 -1      2064    8    0    1
 -2      1008      1064      1065      4074      4078      4076
 -1      2065    8    0    1
 -2      1010      1009      1066      3906      4079      4080
 -1      2066    8    0    1
 -2      1009      1065      1066      4077      4081      4079
 -1      2067    8    0    1
 -2      1011      1010      1067      3909      4082      4083
 -1      2068    8    0    1
 -2      1010      1066      1067      4080      4084      4082
 -1      2069    8    0    1
 -2      1012      1011      1068      3912      4085      4086
 -1      2070    8    0    1
 -2      1011      1067      1068      4083      4087      4085
 -1      2071    8    0    1
 -2      1013      1012      1069      3915      4088      4089
 -1      2072    8    0    1
 -2      1012      1068      1069      4086      4090      4088
 -1      2073    8    0    1
 -2      1014      1013      1070      3918      4091      4092
 -1      2074    8    0    1
 -2      1013      1069      1070      4089      4093      4091
 -1      2075    8    0    1
 -2      1015      1014      1071      3921      4094      4095
 -1      2076    8    0    1
 -2      1014      1070      1071      4092      4096      4094
 -1      2077    8    0    1
 -2      1016      1015      1072      3924      4097      4098
 -1      2078    8    0    1
 -2      1015      1071      1072      4095      4099      4097
 -1      2079    8    0    1
 -2      1018      1021      1073      3938      4100      4101
 -1      2080    8    0    1
 -2       994      1039      1074      3992      4102      4103
 -1      2081    8    0    1
 -2       994      1074      1051      4103      4104      4035
 -1      2082    8    0    1
 -2      1019      1043      1075      4014      4105      4106
 -1      2083    8    0    1
 -2      1022      1023      1076      3944      4107      4108
 -1      2084    8    0    1
 -2      1023      1024      1077      3947      4109      4110
 -1      2085    8    0    1
 -2      1023      1077      1076      4110      4111      4107
 -1      2086    8    0    1
 -2      1024      1025      1078      3950      4112      4113
 -1      2087    8    0    1
 -2      1024      1078      1077      4113      4114      4109
 -1      2088    8    0    1
 -2      1025      1026      1079      3953      4115      4116
 -1      2089    8    0    1
 -2      1025      1079      1078      4116      4117      4112
 -1      2090    8    0    1
 -2      1026      1027      1080      3956      4118      4119
 -1      2091    8    0    1
 -2      1026      1080      1079      4119      4120      4115
 -1      2092    8    0    1
 -2      1027      1028      1081      3959      4121      4122
 -1      2093    8    0    1
 -2      1027      1081      1080      4122      4123      4118
 -1      2094    8    0    1
 -2      1028      1029      1082      3962      4124      4125
 -1      2095    8    0    1
 -2      1028      1082      1081      4125      4126      4121
 -1      2096    8    0    1
 -2      1029      1030      1083      3965      4127      4128
 -1      2097    8    0    1
 -2      1029      1083      1082      4128      4129      4124
 -1      2098    8    0    1
 -2      1030      1031      1084      3968      4130      4131
 -1      2099    8    0    1
 -2      1030      1084      1083      4131      4132      4127
 -1      2100    8    0    1
 -2      1031      1032      1085      3971      4133      4134
 -1      2101    8    0    1
 -2      1031      1085      1084      4134      4135      4130
 -1      2102    8    0    1
 -2      1032      1033      1086      3974      4136      4137
 -1      2103    8    0    1
 -2      1032      1086      1085      4137      4138      4133
 -1      2104    8    0    1
 -2      1033      1034      1087      3977      4139      4140
 -1      2105    8    0    1
 -2      1086      1033      1087      4136      4140      4141
 -1      2106    8    0    1
 -2      1034      1041      1087      4031      4142      4139
 -1      2107    8    0    1
 -2       983      1047      1088      4019      4143      4144
 -1      2108    8    0    1
 -2       983      1088       993      4144      4145      4030
 -1      2109    8    0    1
 -2       982      1044      1089      4010      4146      4147
 -1      2110    8    0    1
 -2       982      1089      1035      4147      4148      3982
 -1      2111    8    0    1
 -2      1038      1036      1090      3989      4149      4150
 -1      2112    8    0    1
 -2       986       980      1091      4028      4151      4152
 -1      2113    8    0    1
 -2       986      1091      1050      4152      4153      4032
 -1      2114    8    0    1
 -2      1041       987      1092      4000      4154      4155
 -1      2115    8    0    1
 -2      1041      1092      1087      4155      4156      4142
 -1      2116    8    0    1
 -2       985      1035      1093      4024      4157      4158
 -1      2117    8    0    1
 -2      1049       985      1093      4027      4158      4159
 -1      2118    8    0    1
 -2      1035      1089      1093      4148      4160      4157
 -1      2119    8    0    1
 -2      1039      1038      1094      4029      4161      4162
 -1      2120    8    0    1
 -2      1038      1090      1094      4150      4163      4161
 -1      2121    8    0    1
 -2      1020      1019      1095      3935      4164      4165
 -1      2122    8    0    1
 -2      1019      1075      1095      4106      4166      4164
 -1      2123    8    0    1
 -2       923      1037       989      4007      4167      3838
 -1      2124    8    0    1
 -2       987       992      1092      3852      4168      4154
 -1      2125    8    0    1
 -2      1036      1040      1096      3996      4169      4170
 -1      2126    8    0    1
 -2      1090      1036      1096      4149      4170      4171
 -1      2127    8    0    1
 -2      1040      1042      1096      4003      4172      4169
 -1      2128    8    0    1
 -2      1021      1022      1097      3941      4173      4174
 -1      2129    8    0    1
 -2      1073      1021      1097      4100      4174      4175
 -1      2130    8    0    1
 -2      1022      1076      1097      4108      4176      4173
 -1      2131    8    0    1
 -2       989      1037      1048      4167      4177      4020
 -1      2132    8    0    1
 -2      1043      1018      1098      4006      4178      4179
 -1      2133    8    0    1
 -2      1018      1073      1098      4101      4180      4178
 -1      2134    8    0    1
 -2      1016      1072      1099      4098      4181      4182
 -1      2135    8    0    1
 -2      1016      1099      1017      4182      4183      3928
 -1      2136    8    0    1
 -2       980      1045      1091      4012      4184      4151
 -1      2137    8    0    1
 -2      1043      1098      1075      4179      4185      4105
 -1      2138    8    0    1
 -2      1045      1020      1100      4013      4186      4187
 -1      2139    8    0    1
 -2      1020      1095      1100      4165      4188      4186
 -1      2140    8    0    1
 -2       992      1017      1092      3927      4189      4168
 -1      2141    8    0    1
 -2      1046       993      1088      4015      4145      4190
 -1      2142    8    0    1
 -2      1042      1048      1101      4022      4191      4192
 -1      2143    8    0    1
 -2      1042      1101      1096      4192      4193      4172
 -1      2144    8    0    1
 -2      1048      1037      1049      4177      4026      4194
 -1      2145    8    0    1
 -2      1088      1047      1102      4143      4195      4196
 -1      2146    8    0    1
 -2      1089      1044      1103      4146      4197      4198
 -1      2147    8    0    1
 -2      1074      1039      1094      4102      4162      4199
 -1      2148    8    0    1
 -2      1044      1046      1104      4017      4200      4201
 -1      2149    8    0    1
 -2      1044      1104      1103      4201      4202      4197
 -1      2150    8    0    1
 -2      1047      1050      1105      4034      4203      4204
 -1      2151    8    0    1
 -2      1047      1105      1102      4204      4205      4195
 -1      2152    8    0    1
 -2      1053      1052      1106      4042      4206      4207
 -1      2153    8    0    1
 -2      1054      1053      1105      4045      4208      4209
 -1      2154    8    0    1
 -2      1056      1055      1107      4051      4210      4211
 -1      2155    8    0    1
 -2      1057      1056      1100      4054      4212      4213
 -1      2156    8    0    1
 -2      1058      1057      1095      4057      4214      4215
 -1      2157    8    0    1
 -2      1059      1058      1075      4060      4216      4217
 -1      2158    8    0    1
 -2      1060      1059      1098      4063      4218      4219
 -1      2159    8    0    1
 -2      1061      1060      1073      4066      4220      4221
 -1      2160    8    0    1
 -2      1062      1061      1097      4069      4222      4223
 -1      2161    8    0    1
 -2      1063      1062      1076      4072      4224      4225
 -1      2162    8    0    1
 -2      1064      1063      1077      4075      4226      4227
 -1      2163    8    0    1
 -2      1065      1064      1078      4078      4228      4229
 -1      2164    8    0    1
 -2      1066      1065      1079      4081      4230      4231
 -1      2165    8    0    1
 -2      1067      1066      1080      4084      4232      4233
 -1      2166    8    0    1
 -2      1068      1067      1081      4087      4234      4235
 -1      2167    8    0    1
 -2      1069      1068      1082      4090      4236      4237
 -1      2168    8    0    1
 -2      1070      1069      1083      4093      4238      4239
 -1      2169    8    0    1
 -2      1071      1070      1084      4096      4240      4241
 -1      2170    8    0    1
 -2      1072      1071      1085      4099      4242      4243
 -1      2171    8    0    1
 -2      1075      1058      1095      4216      4215      4166
 -1      2172    8    0    1
 -2      1091      1045      1107      4184      4244      4245
 -1      2173    8    0    1
 -2      1051      1074      1104      4104      4246      4247
 -1      2174    8    0    1
 -2      1079      1065      1078      4230      4229      4117
 -1      2175    8    0    1
 -2      1078      1064      1077      4228      4227      4114
 -1      2176    8    0    1
 -2      1076      1077      1063      4111      4226      4225
 -1      2177    8    0    1
 -2      1079      1080      1066      4120      4232      4231
 -1      2178    8    0    1
 -2      1080      1081      1067      4123      4234      4233
 -1      2179    8    0    1
 -2      1081      1082      1068      4126      4236      4235
 -1      2180    8    0    1
 -2      1082      1083      1069      4129      4238      4237
 -1      2181    8    0    1
 -2      1083      1084      1070      4132      4240      4239
 -1      2182    8    0    1
 -2      1084      1085      1071      4135      4242      4241
 -1      2183    8    0    1
 -2      1085      1086      1072      4138      4248      4243
 -1      2184    8    0    1
 -2      1086      1087      1099      4141      4249      4250
 -1      2185    8    0    1
 -2      1089      1103      1108      4198      4251      4252
 -1      2186    8    0    1
 -2      1089      1108      1093      4252      4253      4160
 -1      2187    8    0    1
 -2      1075      1098      1059      4185      4218      4217
 -1      2188    8    0    1
 -2      1074      1094      1103      4199      4254      4255
 -1      2189    8    0    1
 -2      1094      1090      1108      4163      4256      4257
 -1      2190    8    0    1
 -2      1050      1091      1109      4153      4258      4259
 -1      2191    8    0    1
 -2      1105      1050      1109      4203      4259      4260
 -1      2192    8    0    1
 -2      1091      1107      1109      4245      4261      4258
 -1      2193    8    0    1
 -2      1052      1051      1110      4039      4262      4263
 -1      2194    8    0    1
 -2      1106      1052      1110      4206      4263      4264
 -1      2195    8    0    1
 -2      1051      1104      1110      4247      4265      4262
 -1      2196    8    0    1
 -2      1076      1062      1097      4224      4223      4176
 -1      2197    8    0    1
 -2      1048      1049      1101      4194      4266      4191
 -1      2198    8    0    1
 -2      1073      1060      1098      4220      4219      4180
 -1      2199    8    0    1
 -2      1087      1092      1099      4156      4267      4249
 -1      2200    8    0    1
 -2      1103      1094      1108      4254      4257      4251
 -1      2201    8    0    1
 -2      1092      1017      1099      4189      4183      4267
 -1      2202    8    0    1
 -2      1095      1057      1100      4214      4213      4188
 -1      2203    8    0    1
 -2      1074      1103      1104      4255      4202      4246
 -1      2204    8    0    1
 -2      1061      1073      1097      4221      4175      4222
 -1      2205    8    0    1
 -2      1072      1086      1099      4248      4250      4181
 -1      2206    8    0    1
 -2      1100      1056      1107      4212      4211      4268
 -1      2207    8    0    1
 -2      1107      1055      1109      4210      4269      4261
 -1      2208    8    0    1
 -2      1054      1105      1109      4209      4260      4270
 -1      2209    8    0    1
 -2      1109      1055      1054      4269      4048      4270
 -1      2210    8    0    1
 -2      1107      1045      1100      4244      4187      4268
 -1      2211    8    0    1
 -2      1049      1093      1111      4159      4271      4272
 -1      2212    8    0    1
 -2      1101      1049      1111      4266      4272      4273
 -1      2213    8    0    1
 -2      1093      1108      1111      4253      4274      4271
 -1      2214    8    0    1
 -2      1090      1096      1112      4171      4275      4276
 -1      2215    8    0    1
 -2      1104      1046      1110      4200      4277      4265
 -1      2216    8    0    1
 -2      1088      1102      1110      4196      4278      4279
 -1      2217    8    0    1
 -2      1088      1110      1046      4279      4277      4190
 -1      2218    8    0    1
 -2      1110      1102      1106      4278      4280      4264
 -1      2219    8    0    1
 -2      1105      1053      1106      4208      4207      4281
 -1      2220    8    0    1
 -2      1102      1105      1106      4205      4281      4280
 -1      2221    8    0    1
 -2      1112      1096      1101      4275      4193      4282
 -1      2222    8    0    1
 -2      1112      1101      1111      4282      4273      4283
 -1      2223    8    0    1
 -2      1090      1112      1108      4276      4284      4256
 -1      2224    8    0    1
 -2      1108      1112      1111      4284      4283      4274
 -3
    1PSTEP                         1           1           1          
  100CL  101 1.000000000        4284                     0    1           1
 -4  DISP        4    1
 -5  D1          1    2    1    0
 -5  D2          1    2    2    0
 -5  D3          1    2    3    0
 -5  ALL         1    2    0    0    1ALL
 -1         1 1.11688E-02-8.16729E-04-8.00232E-14
 -1         2 1.50504E-02-9.13566E-05-9.22592E-14
 -1         3 1.43647E-02 1.32328E-04-1.10904E-13
 -1         4 1.44989E-02-2.78124E-04-1.10061E-13
 -1         5 0.00000E+00 0.00000E+00 0.00000E+00
 -1         6 0.00000E+00 0.00000E+00 0.00000E+00
 -1         7 0.00000E+00 0.00000E+00 0.00000E+00
 -1         8 0.00000E+00 0.00000E+00 0.00000E+00
 -1         9 0.00000E+00 0.00000E+00 0.00000E+00
 -1        10 0.00000E+00 0.00000E+00 0.00000E+00
 -1        11 0.00000E+00 0.00000E+00 0.00000E+00
 -1        12 0.00000E+00 0.00000E+00 0.00000E+00
 -1        13 0.00000E+00 0.00000E+00 0.00000E+00
 -1        14 0.00000E+00 0.00000E+00 0.00000E+00
 -1        15 0.00000E+00 0.00000E+00 0.00000E+00
 -1        16 0.00000E+00 0.00000E+00 0.00000E+00
 -1        17 0.00000E+00 0.00000E+00 0.00000E+00
 -1        18 0.00000E+00 0.00000E+00 0.00000E+00
 -1        19 0.00000E+00 0.00000E+00 0.00000E+00
 -1        20 0.00000E+00 0.00000E+00 0.00000E+00
 -1        21 0.00000E+00 0.00000E+00 0.00000E+00
 -1        22 0.00000E+00 0.00000E+00 0.00000E+00
 -1        23 4.11414E-04-2.60743E-04 4.75592E-17
 -1        24 7.03435E-04-4.00992E-04-4.27786E-17
 -1        25 9.73547E-04-4.98381E-04-2.68689E-16
 -1        26 1.23809E-03-5.67147E-04-6.28109E-16
 -1        27 1.50167E-03-6.16435E-04-1.11899E-15
 -1        28 1.76639E-03-6.51631E-04-1.73811E-15
 -1        29 2.03321E-03-6.76449E-04-2.48666E-15
 -1        30 2.30248E-03-6.93588E-04-3.35955E-15
 -1        31 2.57426E-03-7.05073E-04-4.35708E-15
 -1        32 2.84841E-03-7.12433E-04-5.47413E-15
 -1        33 3.12469E-03-7.16826E-04-6.70651E-15
 -1        34 3.40282E-03-7.19117E-04-8.04945E-15
 -1        35 3.68250E-03-7.19942E-04-9.50312E-15
 -1        36 3.96347E-03-7.19755E-04-1.10623E-14
 -1        37 4.24548E-03-7.18870E-04-1.27199E-14
 -1        38 4.52831E-03-7.17486E-04-1.44710E-14
 -1        39 4.81178E-03-7.15718E-04-1.63076E-14
 -1        40 5.09578E-03-7.13612E-04-1.82302E-14
 -1        41 5.38023E-03-7.11163E-04-2.02352E-14
 -1        42 5.66509E-03-7.08327E-04-2.23207E-14
 -1        43 5.95039E-03-7.05034E-04-2.44864E-14
 -1        44 6.23623E-03-7.01201E-04-2.67228E-14
 -1        45 6.52280E-03-6.96744E-04-2.90371E-14
 -1        46 6.81035E-03-6.91599E-04-3.14379E-14
 -1        47 7.09927E-03-6.85746E-04-3.39127E-14
 -1        48 7.39008E-03-6.79246E-04-3.64526E-14
 -1        49 7.68347E-03-6.72282E-04-3.90571E-14
 -1        50 7.98029E-03-6.65235E-04-4.17211E-14
 -1        51 8.28163E-03-6.58767E-04-4.44473E-14
 -1        52 8.58874E-03-6.53944E-04-4.72364E-14
 -1        53 8.90307E-03-6.52384E-04-5.00835E-14
 -1        54 9.22609E-03-6.56430E-04-5.29803E-14
 -1        55 9.55911E-03-6.69316E-04-5.59221E-14
 -1        56 9.90278E-03-6.95240E-04-5.89063E-14
 -1        57 1.02565E-02-7.39192E-04-6.19258E-14
 -1        58 1.06172E-02-8.06240E-04-6.49692E-14
 -1        59 1.09787E-02-8.99901E-04-6.80304E-14
 -1        60 1.13307E-02-1.01934E-03-7.11107E-14
 -1        61 1.16604E-02-1.15587E-03-7.42090E-14
 -1        62 1.19563E-02-1.29055E-03-7.73340E-14
 -1        63 1.22141E-02-1.39621E-03-8.05216E-14
 -1        64 1.24414E-02-1.44573E-03-8.37430E-14
 -1        65 1.26562E-02-1.42369E-03-8.70007E-14
 -1        66 1.28787E-02-1.33325E-03-9.02772E-14
 -1        67 1.31213E-02-1.19248E-03-9.35696E-14
 -1        68 1.33847E-02-1.02338E-03-9.68681E-14
 -1        69 1.36619E-02-8.41912E-04-1.00171E-13
 -1        70 1.39445E-02-6.54784E-04-1.03494E-13
 -1        71 1.42283E-02-4.63035E-04-1.06850E-13
 -1        72 4.13859E-04 2.61447E-04 4.26430E-17
 -1        73 7.03259E-04 4.03699E-04-5.79438E-17
 -1        74 9.74084E-04 5.00155E-04-2.95892E-16
 -1        75 1.23891E-03 5.68860E-04-6.69722E-16
 -1        76 1.50263E-03 6.18196E-04-1.17675E-15
 -1        77 1.76742E-03 6.53482E-04-1.81528E-15
 -1        78 2.03427E-03 6.78411E-04-2.58409E-15
 -1        79 2.30357E-03 6.95672E-04-3.47714E-15
 -1        80 2.57537E-03 7.07285E-04-4.48851E-15
 -1        81 2.84952E-03 7.14776E-04-5.61732E-15
 -1        82 3.12581E-03 7.19302E-04-6.86225E-15
 -1        83 3.40394E-03 7.21727E-04-8.21741E-15
 -1        84 3.68363E-03 7.22685E-04-9.68207E-15
 -1        85 3.96460E-03 7.22633E-04-1.12546E-14
 -1        86 4.24661E-03 7.21881E-04-1.29306E-14
 -1        87 4.52944E-03 7.20632E-04-1.47050E-14
 -1        88 4.81292E-03 7.19000E-04-1.65723E-14
 -1        89 5.09693E-03 7.17031E-04-1.85204E-14
 -1        90 5.38138E-03 7.14722E-04-2.05562E-14
 -1        91 5.66625E-03 7.12030E-04-2.26725E-14
 -1        92 5.95156E-03 7.08890E-04-2.48653E-14
 -1        93 6.23743E-03 7.05221E-04-2.71316E-14
 -1        94 6.52401E-03 7.00950E-04-2.94706E-14
 -1        95 6.81158E-03 6.96022E-04-3.18760E-14
 -1        96 7.10051E-03 6.90434E-04-3.43450E-14
 -1        97 7.39130E-03 6.84266E-04-3.68719E-14
 -1        98 7.68460E-03 6.77731E-04-3.94577E-14
 -1        99 7.98122E-03 6.71239E-04-4.20978E-14
 -1       100 8.28213E-03 6.65482E-04-4.47983E-14
 -1       101 8.58843E-03 6.61538E-04-4.75676E-14
 -1       102 8.90130E-03 6.60996E-04-5.03917E-14
 -1       103 9.22184E-03 6.66075E-04-5.32733E-14
 -1       104 9.55083E-03 6.79711E-04-5.61878E-14
 -1       105 9.88830E-03 7.05512E-04-5.91386E-14
 -1       106 1.02329E-02 7.47454E-04-6.21356E-14
 -1       107 1.05812E-02 8.09087E-04-6.51867E-14
 -1       108 1.09270E-02 8.92041E-04-6.82796E-14
 -1       109 1.12615E-02 9.93808E-04-7.14096E-14
 -1       110 1.15745E-02 1.10537E-03-7.45649E-14
 -1       111 1.18577E-02 1.21018E-03-7.77506E-14
 -1       112 1.21090E-02 1.28644E-03-8.09758E-14
 -1       113 1.23354E-02 1.31351E-03-8.42344E-14
 -1       114 1.25512E-02 1.27984E-03-8.75243E-14
 -1       115 1.27724E-02 1.18738E-03-9.08461E-14
 -1       116 1.30095E-02 1.04919E-03-9.41836E-14
 -1       117 1.32647E-02 8.82104E-04-9.75329E-14
 -1       118 1.35339E-02 6.99760E-04-1.00905E-13
 -1       119 1.38115E-02 5.09910E-04-1.04295E-13
 -1       120 1.40939E-02 3.16373E-04-1.07692E-13
 -1       121 1.45543E-02 4.74098E-05-1.10843E-13
 -1       122 1.47452E-02-4.02797E-05-1.10791E-13
 -1       123 1.49451E-02-1.28623E-04-1.10708E-13
 -1       124 1.51593E-02-2.08683E-04-1.10625E-13
 -1       125 1.53854E-02-2.66008E-04-1.10544E-13
 -1       126 1.56047E-02-2.84726E-04-1.10452E-13
 -1       127 1.57969E-02-2.55443E-04-1.10354E-13
 -1       128 1.59230E-02-1.81062E-04-1.10243E-13
 -1       129 1.59546E-02-8.23835E-05-1.10150E-13
 -1       130 1.58844E-02 9.26621E-06-1.10068E-13
 -1       131 1.57304E-02 6.59754E-05-1.10061E-13
 -1       132 1.55294E-02 7.48829E-05-1.10096E-13
 -1       133 1.53072E-02 3.97010E-05-1.10122E-13
 -1       134 1.50887E-02-2.65607E-05-1.10139E-13
 -1       135 1.48828E-02-1.08725E-04-1.10127E-13
 -1       136 1.46872E-02-1.94412E-04-1.10101E-13
 -1       137 1.49954E-02 1.06275E-04-9.21323E-14
 -1       138 1.48210E-02 3.08942E-04-9.16477E-14
 -1       139 1.45365E-02 4.95684E-04-9.08087E-14
 -1       140 1.41813E-02 6.48368E-04-8.97416E-14
 -1       141 1.37402E-02 7.75287E-04-8.83946E-14
 -1       142 1.32676E-02 8.58055E-04-8.69308E-14
 -1       143 1.27431E-02 8.97764E-04-8.52868E-14
 -1       144 1.22044E-02 8.84882E-04-8.35528E-14
 -1       145 1.17341E-02 8.27628E-04-8.20337E-14
 -1       146 1.13037E-02 7.30432E-04-8.06217E-14
 -1       147 1.09292E-02 5.98966E-04-7.93785E-14
 -1       148 1.06331E-02 4.43852E-04-7.83839E-14
 -1       149 1.04189E-02 2.67015E-04-7.76584E-14
 -1       150 1.03033E-02 8.51777E-05-7.72555E-14
 -1       151 1.02817E-02-1.05866E-04-7.71603E-14
 -1       152 1.03724E-02-3.16163E-04-7.74421E-14
 -1       153 1.05549E-02-5.00784E-04-7.80297E-14
 -1       154 1.08371E-02-6.75872E-04-7.89450E-14
 -1       155 1.15496E-02-9.28917E-04-8.12543E-14
 -1       156 1.19684E-02-1.00908E-03-8.26093E-14
 -1       157 1.24239E-02-1.05381E-03-8.40769E-14
 -1       158 1.29259E-02-1.05595E-03-8.56846E-14
 -1       159 1.33964E-02-1.01352E-03-8.71739E-14
 -1       160 1.38511E-02-9.27072E-04-8.85928E-14
 -1       161 1.42490E-02-8.06259E-04-8.98187E-14
 -1       162 1.45854E-02-6.54337E-04-9.08355E-14
 -1       163 1.48325E-02-4.85216E-04-9.15790E-14
 -1       164 1.49924E-02-2.97832E-04-9.20659E-14
 -1       165 2.40425E-04-1.25515E-04-1.98612E-17
 -1       166 2.25286E-04-9.46088E-05-4.06711E-17
 -1       167 2.19518E-04-7.27664E-05-5.27397E-17
 -1       168 2.16712E-04-5.50919E-05-5.96277E-17
 -1       169 2.15212E-04-3.99559E-05-6.33953E-17
 -1       170 2.14372E-04-2.59090E-05-6.54350E-17
 -1       171 2.13951E-04-1.26411E-05-6.64887E-17
 -1       172 2.13828E-04 2.72529E-07-6.72578E-17
 -1       173 2.13970E-04 1.31986E-05-6.72544E-17
 -1       174 2.14413E-04 2.65063E-05-6.65870E-17
 -1       175 2.15261E-04 4.03839E-05-6.48556E-17
 -1       176 2.16815E-04 5.59028E-05-6.17182E-17
 -1       177 2.19677E-04 7.38054E-05-5.55823E-17
 -1       178 2.25456E-04 9.60086E-05-4.46352E-17
 -1       179 2.39354E-04 1.27591E-04-2.39710E-17
 -1       180 2.97735E-04 1.85500E-04-2.80198E-18
 -1       181 4.68667E-04-2.63551E-04-5.61651E-17
 -1       182 7.66842E-04-3.82146E-04-2.43525E-16
 -1       183 1.05072E-03-4.65042E-04-5.58188E-16
 -1       184 1.32815E-03-5.23841E-04-1.00071E-15
 -1       185 1.60279E-03-5.65562E-04-1.57004E-15
 -1       186 1.87672E-03-5.94899E-04-2.26498E-15
 -1       187 2.15107E-03-6.15158E-04-3.08511E-15
 -1       188 2.42643E-03-6.28767E-04-4.02609E-15
 -1       189 2.70306E-03-6.37541E-04-5.08728E-15
 -1       190 2.98103E-03-6.42843E-04-6.26382E-15
 -1       191 3.26027E-03-6.45693E-04-7.55186E-15
 -1       192 3.54068E-03-6.46841E-04-8.94902E-15
 -1       193 3.82210E-03-6.46825E-04-1.04539E-14
 -1       194 4.10439E-03-6.46022E-04-1.20592E-14
 -1       195 4.38741E-03-6.44678E-04-1.37610E-14
 -1       196 4.67102E-03-6.42939E-04-1.55530E-14
 -1       197 4.95514E-03-6.40874E-04-1.74312E-14
 -1       198 5.23971E-03-6.38490E-04-1.93938E-14
 -1       199 5.52469E-03-6.35749E-04-2.14376E-14
 -1       200 5.81010E-03-6.32581E-04-2.35596E-14
 -1       201 6.09601E-03-6.28890E-04-2.57600E-14
 -1       202 6.38254E-03-6.24574E-04-2.80358E-14
 -1       203 6.66989E-03-6.19535E-04-3.03920E-14
 -1       204 6.95833E-03-6.13701E-04-3.28273E-14
 -1       205 7.24821E-03-6.07057E-04-3.53290E-14
 -1       206 7.54001E-03-5.99681E-04-3.78977E-14
 -1       207 7.83432E-03-5.91807E-04-4.05251E-14
 -1       208 8.13185E-03-5.83899E-04-4.32163E-14
 -1       209 8.43346E-03-5.76761E-04-4.59694E-14
 -1       210 8.74008E-03-5.71681E-04-4.87833E-14
 -1       211 9.05270E-03-5.70605E-04-5.16501E-14
 -1       212 9.37221E-03-5.76339E-04-5.45631E-14
 -1       213 9.69924E-03-5.92719E-04-5.75169E-14
 -1       214 1.00338E-02-6.24647E-04-6.05092E-14
 -1       215 1.03749E-02-6.77745E-04-6.35354E-14
 -1       216 1.07198E-02-7.57275E-04-6.65863E-14
 -1       217 1.10640E-02-8.65864E-04-6.96550E-14
 -1       218 1.14006E-02-9.99918E-04-7.27440E-14
 -1       219 1.17222E-02-1.14571E-03-7.58553E-14
 -1       220 1.20232E-02-1.27810E-03-7.90081E-14
 -1       221 1.23036E-02-1.36567E-03-8.22048E-14
 -1       222 1.25702E-02-1.38307E-03-8.54381E-14
 -1       223 1.28343E-02-1.32336E-03-8.86968E-14
 -1       224 1.31051E-02-1.20034E-03-9.19736E-14
 -1       225 1.33858E-02-1.03846E-03-9.52627E-14
 -1       226 1.36736E-02-8.59360E-04-9.85625E-14
 -1       227 1.39638E-02-6.74342E-04-1.01878E-13
 -1       228 1.42524E-02-4.85285E-04-1.05212E-13
 -1       229 6.04622E-04 3.31039E-04-1.20211E-16
 -1       230 8.93749E-04 4.32663E-04-3.66162E-16
 -1       231 1.17267E-03 5.04425E-04-7.42651E-16
 -1       232 1.44706E-03 5.55536E-04-1.24856E-15
 -1       233 1.71992E-03 5.91821E-04-1.88335E-15
 -1       234 1.99286E-03 6.17261E-04-2.64566E-15
 -1       235 2.26673E-03 6.34731E-04-3.53142E-15
 -1       236 2.54193E-03 6.46368E-04-4.53579E-15
 -1       237 2.81859E-03 6.53777E-04-5.65577E-15
 -1       238 3.09669E-03 6.58165E-04-6.89027E-15
 -1       239 3.37613E-03 6.60429E-04-8.23491E-15
 -1       240 3.65675E-03 6.61226E-04-9.68804E-15
 -1       241 3.93838E-03 6.61024E-04-1.12466E-14
 -1       242 4.22086E-03 6.60143E-04-1.29067E-14
 -1       243 4.50403E-03 6.58785E-04-1.46657E-14
 -1       244 4.78779E-03 6.57064E-04-1.65176E-14
 -1       245 5.07204E-03 6.55026E-04-1.84568E-14
 -1       246 5.35672E-03 6.52658E-04-2.04808E-14
 -1       247 5.64183E-03 6.49914E-04-2.25846E-14
 -1       248 5.92740E-03 6.46714E-04-2.47671E-14
 -1       249 6.21351E-03 6.42968E-04-2.70241E-14
 -1       250 6.50033E-03 6.38581E-04-2.93537E-14
 -1       251 6.78807E-03 6.33480E-04-3.17449E-14
 -1       252 7.07704E-03 6.27631E-04-3.42007E-14
 -1       253 7.36766E-03 6.21079E-04-3.67211E-14
 -1       254 7.66042E-03 6.13993E-04-3.93010E-14
 -1       255 7.95597E-03 6.06730E-04-4.19361E-14
 -1       256 8.25502E-03 5.99925E-04-4.46308E-14
 -1       257 8.55841E-03 5.94592E-04-4.73908E-14
 -1       258 8.86696E-03 5.92264E-04-5.02089E-14
 -1       259 9.18144E-03 5.95127E-04-5.30805E-14
 -1       260 9.50237E-03 6.06134E-04-5.59908E-14
 -1       261 9.82973E-03 6.29018E-04-5.89407E-14
 -1       262 1.01626E-02 6.68046E-04-6.19365E-14
 -1       263 1.04988E-02 7.27298E-04-6.49754E-14
 -1       264 1.08344E-02 8.09212E-04-6.80574E-14
 -1       265 1.11638E-02 9.12258E-04-7.11752E-14
 -1       266 1.14806E-02 1.02822E-03-7.43222E-14
 -1       267 1.17792E-02 1.14057E-03-7.74973E-14
 -1       268 1.20577E-02 1.22624E-03-8.07100E-14
 -1       269 1.23193E-02 1.26230E-03-8.39609E-14
 -1       270 1.25725E-02 1.23493E-03-8.72404E-14
 -1       271 1.28269E-02 1.14525E-03-9.05442E-14
 -1       272 1.30891E-02 1.00714E-03-9.38696E-14
 -1       273 1.33610E-02 8.39057E-04-9.72078E-14
 -1       274 1.36402E-02 6.55896E-04-1.00567E-13
 -1       275 1.39233E-02 4.65722E-04-1.03949E-13
 -1       276 1.42079E-02 2.71902E-04-1.07337E-13
 -1       277 1.44010E-02 1.73146E-04-1.07890E-13
 -1       278 1.45951E-02 8.79949E-05-1.07824E-13
 -1       279 1.48034E-02 6.19104E-06-1.07751E-13
 -1       280 1.50293E-02-6.54032E-05-1.07678E-13
 -1       281 1.52611E-02-1.17089E-04-1.07597E-13
 -1       282 1.54843E-02-1.42646E-04-1.07510E-13
 -1       283 1.56587E-02-1.38420E-04-1.07429E-13
 -1       284 1.57460E-02-1.11748E-04-1.07350E-13
 -1       285 1.57241E-02-7.94364E-05-1.07289E-13
 -1       286 1.55999E-02-6.07814E-05-1.07248E-13
 -1       287 1.54084E-02-6.83588E-05-1.07234E-13
 -1       288 1.51815E-02-1.04962E-04-1.07231E-13
 -1       289 1.49526E-02-1.65157E-04-1.07228E-13
 -1       290 1.47371E-02-2.40130E-04-1.07219E-13
 -1       291 1.44910E-02-3.61828E-04-1.06220E-13
 -1       292 1.50629E-02-3.89120E-05-9.34897E-14
 -1       293 1.49039E-02 7.83237E-05-9.32181E-14
 -1       294 1.45963E-02 2.36790E-04-9.24452E-14
 -1       295 1.42108E-02 4.34060E-04-9.12594E-14
 -1       296 1.37645E-02 6.30957E-04-8.99536E-14
 -1       297 1.33436E-02 8.21670E-04-8.81916E-14
 -1       298 1.29180E-02 9.44910E-04-8.63633E-14
 -1       299 1.24885E-02 9.88749E-04-8.43700E-14
 -1       300 1.20782E-02 9.07596E-04-8.24525E-14
 -1       301 1.16813E-02 7.62076E-04-8.07235E-14
 -1       302 1.12798E-02 5.73981E-04-7.91596E-14
 -1       303 1.09101E-02 3.70969E-04-7.77116E-14
 -1       304 1.05757E-02 2.14078E-04-7.68368E-14
 -1       305 1.03498E-02 8.03767E-05-7.61748E-14
 -1       306 1.02504E-02-2.85461E-05-7.58848E-14
 -1       307 1.02960E-02-1.36880E-04-7.59130E-14
 -1       308 1.04908E-02-2.79560E-04-7.65894E-14
 -1       309 1.08005E-02-4.32929E-04-7.73195E-14
 -1       310 1.11614E-02-6.30927E-04-7.85606E-14
 -1       311 1.15280E-02-8.23912E-04-7.99656E-14
 -1       312 1.19008E-02-9.87737E-04-8.14745E-14
 -1       313 1.22715E-02-1.10157E-03-8.31210E-14
 -1       314 1.26555E-02-1.14437E-03-8.49222E-14
 -1       315 1.30520E-02-1.08900E-03-8.67327E-14
 -1       316 1.34493E-02-9.58817E-04-8.84748E-14
 -1       317 1.38649E-02-7.76252E-04-9.00390E-14
 -1       318 1.42780E-02-5.88349E-04-9.12991E-14
 -1       319 1.46350E-02-4.13132E-04-9.23319E-14
 -1       320 1.49062E-02-2.63419E-04-9.31416E-14
 -1       321 1.50649E-02-1.44264E-04-9.36324E-14
 -1       322 4.55406E-04-1.64797E-04-1.80862E-16
 -1       323 4.74293E-04-2.12976E-04-1.45605E-16
 -1       324 4.40429E-04-9.40058E-05-2.16657E-16
 -1       325 4.37459E-04-6.49033E-05-2.25033E-16
 -1       326 4.35832E-04-3.78997E-05-2.29980E-16
 -1       327 4.35119E-04-1.20156E-05-2.32673E-16
 -1       328 4.35150E-04 1.35333E-05-2.33459E-16
 -1       329 4.35930E-04 3.94746E-05-2.32070E-16
 -1       330 4.37603E-04 6.61273E-05-2.28357E-16
 -1       331 4.40669E-04 9.53999E-05-2.21435E-16
 -1       332 4.46069E-04 1.28311E-04-2.09400E-16
 -1       333 4.55916E-04 1.67292E-04-1.89254E-16
 -1       334 4.75923E-04 2.17037E-04-1.55705E-16
 -1       335 5.32061E-04 2.69968E-04-1.44975E-16
 -1       336 8.24568E-04 3.73508E-04-3.93647E-16
 -1       337 8.63338E-04-3.57399E-04-4.70371E-16
 -1       338 1.14972E-03-4.26173E-04-8.68964E-16
 -1       339 1.43253E-03-4.75367E-04-1.39112E-15
 -1       340 1.71327E-03-5.10135E-04-2.03638E-15
 -1       341 1.99308E-03-5.34279E-04-2.80485E-15
 -1       342 2.27270E-03-5.50624E-04-3.69347E-15
 -1       343 2.55261E-03-5.61289E-04-4.69941E-15
 -1       344 2.83306E-03-5.67867E-04-5.82211E-15
 -1       345 3.11417E-03-5.71552E-04-7.05659E-15
 -1       346 3.39597E-03-5.73225E-04-8.39971E-15
 -1       347 3.67841E-03-5.73527E-04-9.85064E-15
 -1       348 3.96145E-03-5.72909E-04-1.14043E-14
 -1       349 4.24501E-03-5.71673E-04-1.30563E-14
 -1       350 4.52903E-03-5.70008E-04-1.48030E-14
 -1       351 4.81345E-03-5.68013E-04-1.66358E-14
 -1       352 5.09822E-03-5.65717E-04-1.85543E-14
 -1       353 5.38333E-03-5.63097E-04-2.05560E-14
 -1       354 5.66878E-03-5.60087E-04-2.26382E-14
 -1       355 5.95462E-03-5.56594E-04-2.47988E-14
 -1       356 6.24091E-03-5.52508E-04-2.70359E-14
 -1       357 6.52777E-03-5.47712E-04-2.93512E-14
 -1       358 6.81537E-03-5.42103E-04-3.17445E-14
 -1       359 7.10394E-03-5.35615E-04-3.42103E-14
 -1       360 7.39375E-03-5.28250E-04-3.67412E-14
 -1       361 7.68517E-03-5.20129E-04-3.93351E-14
 -1       362 7.97865E-03-5.11554E-04-4.19914E-14
 -1       363 8.27468E-03-5.03101E-04-4.47116E-14
 -1       364 8.57389E-03-4.95744E-04-4.74909E-14
 -1       365 8.87693E-03-4.91011E-04-5.03251E-14
 -1       366 9.18455E-03-4.91176E-04-5.32095E-14
 -1       367 9.49750E-03-4.99461E-04-5.61362E-14
 -1       368 9.81652E-03-5.20197E-04-5.91041E-14
 -1       369 1.01422E-02-5.58787E-04-6.21093E-14
 -1       370 1.04748E-02-6.21239E-04-6.51443E-14
 -1       371 1.08136E-02-7.12805E-04-6.82020E-14
 -1       372 1.11561E-02-8.35193E-04-7.12790E-14
 -1       373 1.14970E-02-9.82109E-04-7.43750E-14
 -1       374 1.18290E-02-1.13448E-03-7.75052E-14
 -1       375 1.21460E-02-1.25981E-03-8.06748E-14
 -1       376 1.24484E-02-1.32166E-03-8.38883E-14
 -1       377 1.27447E-02-1.29858E-03-8.71300E-14
 -1       378 1.30451E-02-1.19677E-03-9.03906E-14
 -1       379 1.33533E-02-1.04343E-03-9.36655E-14
 -1       380 1.36653E-02-8.67594E-04-9.69530E-14
 -1       381 1.39742E-02-6.86455E-04-1.00252E-13
 -1       382 1.42365E-02-5.26364E-04-1.03225E-13
 -1       383 1.11008E-03 4.47840E-04-7.68554E-16
 -1       384 1.39086E-03 5.00924E-04-1.27024E-15
 -1       385 1.66920E-03 5.38567E-04-1.89837E-15
 -1       386 1.94664E-03 5.64895E-04-2.65192E-15
 -1       387 2.22409E-03 5.82917E-04-3.52809E-15
 -1       388 2.50211E-03 5.94874E-04-4.52196E-15
 -1       389 2.78096E-03 6.02448E-04-5.63151E-15
 -1       390 3.06074E-03 6.06899E-04-6.85390E-15
 -1       391 3.34144E-03 6.09164E-04-8.18599E-15
 -1       392 3.62301E-03 6.09926E-04-9.62562E-15
 -1       393 3.90535E-03 6.09674E-04-1.11696E-14
 -1       394 4.18836E-03 6.08738E-04-1.28150E-14
 -1       395 4.47194E-03 6.07331E-04-1.45583E-14
 -1       396 4.75601E-03 6.05570E-04-1.63956E-14
 -1       397 5.04050E-03 6.03501E-04-1.83233E-14
 -1       398 5.32538E-03 6.01114E-04-2.03339E-14
 -1       399 5.61065E-03 5.98357E-04-2.24267E-14
 -1       400 5.89633E-03 5.95147E-04-2.45957E-14
 -1       401 6.18249E-03 5.91385E-04-2.68421E-14
 -1       402 6.46927E-03 5.86967E-04-2.91603E-14
 -1       403 6.75684E-03 5.81803E-04-3.15415E-14
 -1       404 7.04545E-03 5.75839E-04-3.39875E-14
 -1       405 7.33542E-03 5.69093E-04-3.64976E-14
 -1       406 7.62714E-03 5.61697E-04-3.90690E-14
 -1       407 7.92109E-03 5.53962E-04-4.16980E-14
 -1       408 8.21784E-03 5.46462E-04-4.43842E-14
 -1       409 8.51803E-03 5.40140E-04-4.71365E-14
 -1       410 8.82231E-03 5.36440E-04-4.99469E-14
 -1       411 9.13134E-03 5.37455E-04-5.28103E-14
 -1       412 9.44565E-03 5.46058E-04-5.57164E-14
 -1       413 9.76552E-03 5.65947E-04-5.86603E-14
 -1       414 1.00907E-02 6.01481E-04-6.16509E-14
 -1       415 1.04203E-02 6.57088E-04-6.46835E-14
 -1       416 1.07521E-02 7.35955E-04-6.77583E-14
 -1       417 1.10826E-02 8.37785E-04-7.08672E-14
 -1       418 1.14067E-02 9.55836E-04-7.40029E-14
 -1       419 1.17190E-02 1.07450E-03-7.71708E-14
 -1       420 1.20162E-02 1.16996E-03-8.03723E-14
 -1       421 1.22994E-02 1.21654E-03-8.36132E-14
 -1       422 1.25749E-02 1.19721E-03-8.68819E-14
 -1       423 1.28509E-02 1.11153E-03-9.01731E-14
 -1       424 1.31328E-02 9.74369E-04-9.34848E-14
 -1       425 1.34210E-02 8.06237E-04-9.68168E-14
 -1       426 1.37123E-02 6.23539E-04-1.00165E-13
 -1       427 1.40031E-02 4.34584E-04-1.03535E-13
 -1       428 1.42024E-02 3.04578E-04-1.05715E-13
 -1       429 1.46593E-02 1.19244E-04-1.04809E-13
 -1       430 1.44428E-02 2.08366E-04-1.04875E-13
 -1       431 1.43192E-02 2.57717E-04-1.05296E-13
 -1       432 1.48926E-02 3.71198E-05-1.04739E-13
 -1       433 1.51374E-02-3.20299E-05-1.04667E-13
 -1       434 1.53581E-02-7.75927E-05-1.04596E-13
 -1       435 1.55082E-02-9.70249E-05-1.04528E-13
 -1       436 1.55460E-02-1.00841E-04-1.04472E-13
 -1       437 1.54603E-02-1.09497E-04-1.04429E-13
 -1       438 1.52825E-02-1.39231E-04-1.04395E-13
 -1       439 1.50524E-02-1.95236E-04-1.04370E-13
 -1       440 1.48134E-02-2.70769E-04-1.04346E-13
 -1       441 1.45886E-02-3.56165E-04-1.04330E-13
 -1       442 1.47441E-02 7.73340E-05-9.42845E-14
 -1       443 1.51067E-02-9.02472E-05-9.51299E-14
 -1       444 1.50177E-02-2.93322E-05-9.48234E-14
 -1       445 1.43393E-02 2.58637E-04-9.30286E-14
 -1       446 1.39304E-02 4.52790E-04-9.18489E-14
 -1       447 4.45681E-04-1.26405E-04-2.02790E-16
 -1       448 1.30507E-02 9.06603E-04-8.77765E-14
 -1       449 1.27101E-02 1.00716E-03-8.57732E-14
 -1       450 1.22766E-02 9.78985E-04-8.30386E-14
 -1       451 1.19371E-02 8.48573E-04-8.10487E-14
 -1       452 1.15506E-02 6.43476E-04-7.91154E-14
 -1       453 1.11719E-02 4.33368E-04-7.75284E-14
 -1       454 1.07447E-02 2.19214E-04-7.60890E-14
 -1       455 1.04552E-02 8.24342E-05-7.49412E-14
 -1       456 1.02709E-02-7.96786E-07-7.47163E-14
 -1       457 1.02295E-02-6.42355E-05-7.41406E-14
 -1       458 1.03882E-02-1.59126E-04-7.50057E-14
 -1       459 1.06422E-02-2.70034E-04-7.55683E-14
 -1       460 1.10424E-02-4.72272E-04-7.68945E-14
 -1       461 1.14319E-02-6.93932E-04-7.84382E-14
 -1       462 1.17930E-02-8.98740E-04-7.99902E-14
 -1       463 1.20844E-02-1.04906E-03-8.16210E-14
 -1       464 1.24615E-02-1.16814E-03-8.38338E-14
 -1       465 1.28233E-02-1.15734E-03-8.61228E-14
 -1       466 1.31284E-02-1.05811E-03-8.78623E-14
 -1       467 1.35670E-02-8.41263E-04-9.00640E-14
 -1       468 1.40111E-02-6.15013E-04-9.16614E-14
 -1       469 1.44104E-02-4.21180E-04-9.29418E-14
 -1       470 1.47518E-02-2.64621E-04-9.41343E-14
 -1       471 1.50108E-02-1.57917E-04-9.50759E-14
 -1       472 1.34398E-02 7.22531E-04-8.96941E-14
 -1       473 1.09557E-02 3.01361E-04-7.59036E-14
 -1       474 1.24947E-02 1.02974E-03-8.44324E-14
 -1       475 9.31311E-04 3.46032E-04-6.40553E-16
 -1       476 6.65803E-04-7.51294E-05-4.85313E-16
 -1       477 6.69780E-04-1.15888E-04-4.72682E-16
 -1       478 6.63125E-04 1.10443E-06-4.95755E-16
 -1       479 6.63846E-04 3.87641E-05-4.94959E-16
 -1       480 6.65991E-04 7.68154E-05-4.89944E-16
 -1       481 6.70092E-04 1.17725E-04-4.80064E-16
 -1       482 6.77113E-04 1.62343E-04-4.63168E-16
 -1       483 6.89041E-04 2.12707E-04-4.36239E-16
 -1       484 1.21721E-03 4.06536E-04-1.09503E-15
 -1       485 9.76346E-04-3.28625E-04-7.26121E-16
 -1       486 1.36277E-02 5.82343E-04-9.17552E-14
 -1       487 1.26227E-03-3.83527E-04-1.20360E-15
 -1       488 1.54731E-03-4.23301E-04-1.80138E-15
 -1       489 1.83145E-03-4.51396E-04-2.52044E-15
 -1       490 2.11500E-03-4.70714E-04-3.35823E-15
 -1       491 2.39828E-03-4.83547E-04-4.31214E-15
 -1       492 2.68154E-03-4.91667E-04-5.38127E-15
 -1       493 2.96494E-03-4.96422E-04-6.56225E-15
 -1       494 3.24856E-03-4.98821E-04-7.85326E-15
 -1       495 3.53245E-03-4.99605E-04-9.25168E-15
 -1       496 3.81662E-03-4.99303E-04-1.07539E-14
 -1       497 4.10106E-03-4.98281E-04-1.23561E-14
 -1       498 4.38574E-03-4.96773E-04-1.40546E-14
 -1       499 4.67065E-03-4.94915E-04-1.58428E-14
 -1       500 4.95577E-03-4.92765E-04-1.77166E-14
 -1       501 5.24110E-03-4.90319E-04-1.96764E-14
 -1       502 5.52663E-03-4.87530E-04-2.17179E-14
 -1       503 5.81238E-03-4.84313E-04-2.38401E-14
 -1       504 6.09838E-03-4.80562E-04-2.60377E-14
 -1       505 6.38470E-03-4.76156E-04-2.83145E-14
 -1       506 6.67140E-03-4.70979E-04-3.06690E-14
 -1       507 6.95860E-03-4.64933E-04-3.30955E-14
 -1       508 7.24643E-03-4.57972E-04-3.55899E-14
 -1       509 7.53506E-03-4.50130E-04-3.81497E-14
 -1       510 7.82470E-03-4.41581E-04-4.07718E-14
 -1       511 8.11560E-03-4.32706E-04-4.34576E-14
 -1       512 8.40808E-03-4.24190E-04-4.62059E-14
 -1       513 8.70255E-03-4.17148E-04-4.90081E-14
 -1       514 8.99955E-03-4.13277E-04-5.18625E-14
 -1       515 9.29982E-03-4.15042E-04-5.47636E-14
 -1       516 9.60446E-03-4.25865E-04-5.77062E-14
 -1       517 9.91505E-03-4.50289E-04-6.06883E-14
 -1       518 1.02337E-02-4.94003E-04-6.37032E-14
 -1       519 1.05629E-02-5.63501E-04-6.67478E-14
 -1       520 1.09045E-02-6.64843E-04-6.98121E-14
 -1       521 1.12575E-02-8.00456E-04-7.28941E-14
 -1       522 1.16155E-02-9.62517E-04-7.60031E-14
 -1       523 1.19672E-02-1.12475E-03-7.91518E-14
 -1       524 1.23036E-02-1.24095E-03-8.23457E-14
 -1       525 1.26284E-02-1.26579E-03-8.55695E-14
 -1       526 1.29557E-02-1.18836E-03-8.88157E-14
 -1       527 1.32940E-02-1.03919E-03-9.20770E-14
 -1       528 1.36380E-02-8.61821E-04-9.53516E-14
 -1       529 1.39753E-02-6.83715E-04-9.86296E-14
 -1       530 1.78410E-03 4.81155E-04-2.37462E-15
 -1       531 2.06612E-03 5.02553E-04-3.19673E-15
 -1       532 2.34788E-03 5.16929E-04-4.13696E-15
 -1       533 2.62973E-03 5.26197E-04-5.19243E-15
 -1       534 2.91189E-03 5.31806E-04-6.36155E-15
 -1       535 3.19444E-03 5.34840E-04-7.64024E-15
 -1       536 3.47744E-03 5.36100E-04-9.02537E-15
 -1       537 3.76087E-03 5.36160E-04-1.05156E-14
 -1       538 4.04471E-03 5.35420E-04-1.21083E-14
 -1       539 4.32891E-03 5.34143E-04-1.37993E-14
 -1       540 4.61344E-03 5.32486E-04-1.55853E-14
 -1       541 4.89826E-03 5.30524E-04-1.74629E-14
 -1       542 5.18336E-03 5.28266E-04-1.94282E-14
 -1       543 5.46872E-03 5.25676E-04-2.14772E-14
 -1       544 5.75437E-03 5.22678E-04-2.36059E-14
 -1       545 6.04034E-03 5.19174E-04-2.58095E-14
 -1       546 6.32669E-03 5.15052E-04-2.80859E-14
 -1       547 6.61354E-03 5.10203E-04-3.04320E-14
 -1       548 6.90102E-03 5.04539E-04-3.28412E-14
 -1       549 7.18930E-03 4.98021E-04-3.53170E-14
 -1       550 7.47861E-03 4.90695E-04-3.78545E-14
 -1       551 7.76923E-03 4.82746E-04-4.04543E-14
 -1       552 8.06150E-03 4.74562E-04-4.31109E-14
 -1       553 8.35583E-03 4.66832E-04-4.58303E-14
 -1       554 8.65268E-03 4.60654E-04-4.86114E-14
 -1       555 8.95262E-03 4.57676E-04-5.14471E-14
 -1       556 9.25633E-03 4.60239E-04-5.43280E-14
 -1       557 9.56457E-03 4.71497E-04-5.72527E-14
 -1       558 9.87823E-03 4.95454E-04-6.02206E-14
 -1       559 1.01982E-02 5.36763E-04-6.32309E-14
 -1       560 1.05250E-02 6.00079E-04-6.62833E-14
 -1       561 1.08581E-02 6.88577E-04-6.93721E-14
 -1       562 1.11949E-02 8.01217E-04-7.24874E-14
 -1       563 1.15301E-02 9.28822E-04-7.56319E-14
 -1       564 1.18563E-02 1.05058E-03-7.88075E-14
 -1       565 1.21692E-02 1.13586E-03-8.20189E-14
 -1       566 1.24714E-02 1.15535E-03-8.52612E-14
 -1       567 1.27719E-02 1.09731E-03-8.85298E-14
 -1       568 1.30786E-02 9.74040E-04-9.18197E-14
 -1       569 1.33920E-02 8.11401E-04-9.51313E-14
 -1       570 1.37065E-02 6.32371E-04-9.84594E-14
 -1       571 1.40149E-02 4.48697E-04-1.01808E-13
 -1       572 1.47527E-02 9.65136E-05-1.01823E-13
 -1       573 1.50150E-02 3.02201E-06-1.01763E-13
 -1       574 1.42788E-02 3.11386E-04-1.01939E-13
 -1       575 1.45022E-02 2.03468E-04-1.01883E-13
 -1       576 1.52397E-02-6.05262E-05-1.01704E-13
 -1       577 1.53592E-02-9.24926E-05-1.01649E-13
 -1       578 1.53267E-02-1.15456E-04-1.01605E-13
 -1       579 1.51624E-02-1.59932E-04-1.01570E-13
 -1       580 1.49200E-02-2.37704E-04-1.01532E-13
 -1       581 1.46641E-02-3.39229E-04-1.01495E-13
 -1       582 1.44281E-02-4.48113E-04-1.01464E-13
 -1       583 1.51081E-02-7.17452E-05-9.65360E-14
 -1       584 1.45391E-02 1.27929E-04-9.52167E-14
 -1       585 1.50134E-03 4.50231E-04-1.67325E-15
 -1       586 1.51347E-02-1.11703E-04-9.69507E-14
 -1       587 1.49356E-02-1.45218E-05-9.62672E-14
 -1       588 7.12678E-04-2.51725E-04-4.07443E-16
 -1       589 1.49017E-02-1.87542E-04-9.62676E-14
 -1       590 1.22631E-02-1.13504E-03-8.22723E-14
 -1       591 1.16091E-02-7.78259E-04-7.82566E-14
 -1       592 6.63734E-04-3.65197E-05-4.92726E-16
 -1       593 1.21157E-02 9.38276E-04-8.16932E-14
 -1       594 1.28584E-02 9.77892E-04-8.73335E-14
 -1       595 1.26202E-02-1.19760E-03-8.49621E-14
 -1       596 1.17511E-02 7.52221E-04-7.93108E-14
 -1       597 1.13632E-02 5.24615E-04-7.72046E-14
 -1       598 1.06008E-02 1.33797E-04-7.42689E-14
 -1       599 1.02992E-02 1.46880E-05-7.31622E-14
 -1       600 1.01950E-02-3.39744E-05-7.25882E-14
 -1       601 1.02730E-02-9.66843E-05-7.27659E-14
 -1       602 1.04463E-02-1.64131E-04-7.33218E-14
 -1       603 1.08335E-02-3.35935E-04-7.49223E-14
 -1       604 1.12665E-02-5.70691E-04-7.67145E-14
 -1       605 1.20258E-02-1.02618E-03-8.06382E-14
 -1       606 1.37890E-02-6.89340E-04-9.20597E-14
 -1       607 1.29630E-02-1.12201E-03-8.74657E-14
 -1       608 1.33049E-02-9.60088E-04-8.96053E-14
 -1       609 1.42024E-02-4.73708E-04-9.37140E-14
 -1       610 1.45452E-02-3.19581E-04-9.49055E-14
 -1       611 1.32169E-02 8.14471E-04-8.94645E-14
 -1       612 7.03859E-04 2.90889E-04-3.56221E-16
 -1       613 1.41914E-02 2.83334E-04-9.40467E-14
 -1       614 1.23150E-02 1.01838E-03-8.30769E-14
 -1       615 6.76586E-04-1.60118E-04-4.52973E-16
 -1       616 1.39143E-02 4.22059E-04-9.39572E-14
 -1       617 1.01641E-02-6.21610E-05-7.12158E-14
 -1       618 1.03903E-02 6.06226E-05-7.24887E-14
 -1       619 1.26621E-02 1.03466E-03-8.59873E-14
 -1       620 1.41909E-02-5.68585E-04-1.00860E-13
 -1       621 8.99733E-04 7.41159E-05-8.46426E-16
 -1       622 8.97642E-04 2.51802E-05-8.51129E-16
 -1       623 9.11827E-04 1.78237E-04-8.15174E-16
 -1       624 9.24209E-04 2.36803E-04-7.83692E-16
 -1       625 1.04892E-03 3.13932E-04-9.14365E-16
 -1       626 1.05982E-02-2.46116E-04-7.23804E-14
 -1       627 1.51110E-02-1.36402E-04-9.84167E-14
 -1       628 1.47542E-02-2.44241E-04-9.70719E-14
 -1       629 1.38332E-03-3.37090E-04-1.56278E-15
 -1       630 1.66952E-03-3.68032E-04-2.23302E-15
 -1       631 1.95573E-03-3.89853E-04-3.02154E-15
 -1       632 2.24178E-03-4.04700E-04-3.92561E-15
 -1       633 2.52763E-03-4.14368E-04-4.94276E-15
 -1       634 2.81335E-03-4.20275E-04-6.07127E-15
 -1       635 3.09897E-03-4.23514E-04-7.30997E-15
 -1       636 3.38454E-03-4.24903E-04-8.65591E-15
 -1       637 3.67009E-03-4.25036E-04-1.01069E-14
 -1       638 3.95564E-03-4.24335E-04-1.16598E-14
 -1       639 4.24121E-03-4.23080E-04-1.33096E-14
 -1       640 4.52680E-03-4.21444E-04-1.50523E-14
 -1       641 4.81243E-03-4.19516E-04-1.68824E-14
 -1       642 5.09809E-03-4.17317E-04-1.87987E-14
 -1       643 5.38379E-03-4.14822E-04-2.08009E-14
 -1       644 5.66953E-03-4.11964E-04-2.28836E-14
 -1       645 5.95533E-03-4.08649E-04-2.50447E-14
 -1       646 6.24119E-03-4.04767E-04-2.72821E-14
 -1       647 6.52711E-03-4.00200E-04-2.95976E-14
 -1       648 6.81312E-03-3.94841E-04-3.19861E-14
 -1       649 7.09922E-03-3.88611E-04-3.44427E-14
 -1       650 7.38544E-03-3.81491E-04-3.69657E-14
 -1       651 7.67179E-03-3.73559E-04-3.95550E-14
 -1       652 7.95833E-03-3.65039E-04-4.22091E-14
 -1       653 8.24511E-03-3.56375E-04-4.49245E-14
 -1       654 8.53227E-03-3.48317E-04-4.76955E-14
 -1       655 8.82009E-03-3.42028E-04-5.05208E-14
 -1       656 9.10908E-03-3.39214E-04-5.33943E-14
 -1       657 9.40019E-03-3.42281E-04-5.63129E-14
 -1       658 9.69511E-03-3.54523E-04-5.92729E-14
 -1       659 9.99663E-03-3.80377E-04-6.22685E-14
 -1       660 1.03090E-02-4.25770E-04-6.52946E-14
 -1       661 1.06375E-02-4.98424E-04-6.83440E-14
 -1       662 1.09875E-02-6.07376E-04-7.14127E-14
 -1       663 1.13594E-02-7.59503E-04-7.45030E-14
 -1       664 1.17442E-02-9.46207E-04-7.76319E-14
 -1       665 1.21238E-02-1.12603E-03-8.08042E-14
 -1       666 1.24868E-02-1.22375E-03-8.40123E-14
 -1       667 1.28460E-02-1.18553E-03-8.72461E-14
 -1       668 1.32182E-02-1.03492E-03-9.04969E-14
 -1       669 1.35999E-02-8.42904E-04-9.37593E-14
 -1       670 1.39719E-02-6.60556E-04-9.70254E-14
 -1       671 2.19073E-03 4.37588E-04-3.75338E-15
 -1       672 1.39468E-02 4.82242E-04-9.86054E-14
 -1       673 1.90573E-03 4.20787E-04-2.86529E-15
 -1       674 2.76018E-03 4.55598E-04-5.87162E-15
 -1       675 3.04486E-03 4.59569E-04-7.09824E-15
 -1       676 3.32960E-03 4.61482E-04-8.43039E-15
 -1       677 3.61444E-03 4.61994E-04-9.86779E-15
 -1       678 3.89941E-03 4.61569E-04-1.14082E-14
 -1       679 4.18450E-03 4.60524E-04-1.30480E-14
 -1       680 4.46970E-03 4.59057E-04-1.47826E-14
 -1       681 4.75503E-03 4.57275E-04-1.66113E-14
 -1       682 5.04047E-03 4.55216E-04-1.85298E-14
 -1       683 5.32602E-03 4.52861E-04-2.05355E-14
 -1       684 5.61169E-03 4.50152E-04-2.26208E-14
 -1       685 5.89750E-03 4.47002E-04-2.47841E-14
 -1       686 6.18347E-03 4.43301E-04-2.70200E-14
 -1       687 6.46963E-03 4.38937E-04-2.93263E-14
 -1       688 6.75603E-03 4.33804E-04-3.17008E-14
 -1       689 7.04275E-03 4.27826E-04-3.41389E-14
 -1       690 7.32985E-03 4.20987E-04-3.66437E-14
 -1       691 7.61746E-03 4.13369E-04-3.92119E-14
 -1       692 7.90572E-03 4.05203E-04-4.18372E-14
 -1       693 8.19483E-03 3.96944E-04-4.45268E-14
 -1       694 8.48508E-03 3.89356E-04-4.72773E-14
 -1       695 8.77687E-03 3.83620E-04-5.00837E-14
 -1       696 9.07085E-03 3.81466E-04-5.29407E-14
 -1       697 9.36795E-03 3.85304E-04-5.58440E-14
 -1       698 9.66961E-03 3.98363E-04-5.87900E-14
 -1       699 9.97784E-03 4.24781E-04-6.17790E-14
 -1       700 1.02952E-02 4.69569E-04-6.48115E-14
 -1       701 1.06242E-02 5.38194E-04-6.78803E-14
 -1       702 1.09662E-02 6.35149E-04-7.09776E-14
 -1       703 1.13184E-02 7.60289E-04-7.40999E-14
 -1       704 1.16729E-02 9.02261E-04-7.72546E-14
 -1       705 1.20178E-02 1.03033E-03-8.04360E-14
 -1       706 1.23478E-02 1.10111E-03-8.36521E-14
 -1       707 1.26714E-02 1.08071E-03-8.68961E-14
 -1       708 1.30020E-02 9.71211E-04-9.01655E-14
 -1       709 1.33434E-02 8.07681E-04-9.34548E-14
 -1       710 1.36426E-02 6.44875E-04-9.60268E-14
 -1       711 1.51835E-02-6.97086E-05-9.94381E-14
 -1       712 1.42072E-02-5.51240E-04-9.92381E-14
 -1       713 1.46132E-02 1.24878E-04-9.89442E-14
 -1       714 1.52241E-02-1.03501E-04-9.90279E-14
 -1       715 1.49388E-02 1.68066E-06-9.91934E-14
 -1       716 1.48196E-02-2.42213E-04-9.89497E-14
 -1       717 1.45303E-02-3.70610E-04-9.89086E-14
 -1       718 1.13820E-02-6.63761E-04-7.60707E-14
 -1       719 1.31310E-02-1.05909E-03-8.92903E-14
 -1       720 1.48139E-02 2.97423E-05-9.76428E-14
 -1       721 8.72366E-04-2.47159E-04-6.63369E-16
 -1       722 1.15276E-02 6.55690E-04-7.72522E-14
 -1       723 1.62037E-03 3.96269E-04-2.09522E-15
 -1       724 2.47550E-03 4.48670E-04-4.75548E-15
 -1       725 1.12695E-03-2.97130E-04-1.06561E-15
 -1       726 1.35283E-02-8.39074E-04-9.17481E-14
 -1       727 1.33466E-03 3.61585E-04-1.44405E-15
 -1       728 1.33933E-02 7.16449E-04-9.14678E-14
 -1       729 1.07754E-02 2.25404E-04-7.38789E-14
 -1       730 9.04192E-04 1.24623E-04-8.35039E-16
 -1       731 9.03820E-04-1.22210E-04-8.26050E-16
 -1       732 1.30529E-02 9.02313E-04-8.93282E-14
 -1       733 1.17787E-02-9.13668E-04-7.84161E-14
 -1       734 1.11243E-02 4.14805E-04-7.51692E-14
 -1       735 1.01924E-02-7.25501E-06-7.13443E-14
 -1       736 1.02977E-02-1.22460E-04-7.13568E-14
 -1       737 1.40160E-02-5.68300E-04-9.41782E-14
 -1       738 1.21236E-02-1.10067E-03-8.09638E-14
 -1       739 1.10035E-02-4.41131E-04-7.42845E-14
 -1       740 1.44095E-02 1.87053E-04-9.66036E-14
 -1       741 1.43974E-02-3.83595E-04-9.56253E-14
 -1       742 1.19262E-02 8.76546E-04-7.99972E-14
 -1       743 9.11224E-04-1.75600E-04-8.01754E-16
 -1       744 8.97579E-04-2.31585E-05-8.49588E-16
 -1       745 1.36705E-02 5.68424E-04-9.36743E-14
 -1       746 1.43317E-02 2.62948E-04-9.89857E-14
 -1       747 1.51066E-02-5.83386E-05-9.82446E-14
 -1       748 1.05258E-02 1.35760E-04-7.20968E-14
 -1       749 8.99524E-04-7.18297E-05-8.41358E-16
 -1       750 1.28578E-02 9.92380E-04-8.79743E-14
 -1       751 1.00989E-02-3.65918E-05-6.99777E-14
 -1       752 1.27775E-02-1.19073E-03-8.64297E-14
 -1       753 1.21141E-02 9.81401E-04-8.13706E-14
 -1       754 1.16155E-03 2.43674E-04-1.22882E-15
 -1       755 1.79730E-03-3.09563E-04-2.68562E-15
 -1       756 2.08495E-03-3.25680E-04-3.54005E-15
 -1       757 2.37275E-03-3.36501E-04-4.50779E-15
 -1       758 2.66044E-03-3.43379E-04-5.58591E-15
 -1       759 2.94794E-03-3.47403E-04-6.77246E-15
 -1       760 3.23520E-03-3.49413E-04-8.06690E-15
 -1       761 3.52223E-03-3.50039E-04-9.46655E-15
 -1       762 3.80902E-03-3.49736E-04-1.09682E-14
 -1       763 4.09562E-03-3.48816E-04-1.25692E-14
 -1       764 4.38204E-03-3.47482E-04-1.42654E-14
 -1       765 4.66830E-03-3.45852E-04-1.60527E-14
 -1       766 4.95442E-03-3.43973E-04-1.79258E-14
 -1       767 5.24041E-03-3.41843E-04-1.98873E-14
 -1       768 5.52627E-03-3.39419E-04-2.19304E-14
 -1       769 5.81199E-03-3.36626E-04-2.40536E-14
 -1       770 6.09755E-03-3.33370E-04-2.62529E-14
 -1       771 6.38291E-03-3.29548E-04-2.85294E-14
 -1       772 6.66802E-03-3.25054E-04-3.08801E-14
 -1       773 6.95280E-03-3.19802E-04-3.33009E-14
 -1       774 7.23716E-03-3.13741E-04-3.57895E-14
 -1       775 7.52098E-03-3.06884E-04-3.83443E-14
 -1       776 7.80413E-03-2.99345E-04-4.09649E-14
 -1       777 8.08647E-03-2.91388E-04-4.36465E-14
 -1       778 8.36788E-03-2.83476E-04-4.63872E-14
 -1       779 8.64832E-03-2.76343E-04-4.91844E-14
 -1       780 8.92793E-03-2.71066E-04-5.20306E-14
 -1       781 9.20718E-03-2.69150E-04-5.49256E-14
 -1       782 9.48717E-03-2.72643E-04-5.78600E-14
 -1       783 9.77007E-03-2.84344E-04-6.08344E-14
 -1       784 1.00598E-02-3.08268E-04-6.38414E-14
 -1       785 1.03626E-02-3.50688E-04-6.68766E-14
 -1       786 1.06878E-02-4.21838E-04-6.99341E-14
 -1       787 1.39816E-02-6.14601E-04-9.54335E-14
 -1       788 2.03274E-03 3.57744E-04-3.37226E-15
 -1       789 3.18001E-03 3.86026E-04-7.84098E-15
 -1       790 2.89345E-03 3.83401E-04-6.56049E-15
 -1       791 3.75269E-03 3.87061E-04-1.07143E-14
 -1       792 4.03885E-03 3.86342E-04-1.23030E-14
 -1       793 4.32491E-03 3.85152E-04-1.39880E-14
 -1       794 4.61089E-03 3.83632E-04-1.57679E-14
 -1       795 4.89681E-03 3.81846E-04-1.76393E-14
 -1       796 5.18267E-03 3.79801E-04-1.95986E-14
 -1       797 5.46848E-03 3.77459E-04-2.16413E-14
 -1       798 5.75424E-03 3.74749E-04-2.37626E-14
 -1       799 6.03994E-03 3.71579E-04-2.59597E-14
 -1       800 6.32557E-03 3.67840E-04-2.82276E-14
 -1       801 6.61111E-03 3.63424E-04-3.05639E-14
 -1       802 6.89654E-03 3.58240E-04-3.29676E-14
 -1       803 7.18183E-03 3.52231E-04-3.54363E-14
 -1       804 7.46696E-03 3.45403E-04-3.79724E-14
 -1       805 7.75191E-03 3.37867E-04-4.05704E-14
 -1       806 8.03669E-03 3.29884E-04-4.32262E-14
 -1       807 8.32139E-03 3.21928E-04-4.59454E-14
 -1       808 8.60619E-03 3.14760E-04-4.87228E-14
 -1       809 8.89150E-03 3.09522E-04-5.15545E-14
 -1       810 9.17810E-03 3.07839E-04-5.44335E-14
 -1       811 9.46736E-03 3.11959E-04-5.73596E-14
 -1       812 9.76149E-03 3.24942E-04-6.03269E-14
 -1       813 1.00639E-02 3.50967E-04-6.33375E-14
 -1       814 1.03793E-02 3.95732E-04-6.63896E-14
 -1       815 1.07129E-02 4.66786E-04-6.94710E-14
 -1       816 1.10684E-02 5.72437E-04-7.25764E-14
 -1       817 1.14431E-02 7.16798E-04-7.57049E-14
 -1       818 1.13822E-03 5.90599E-05-1.29444E-15
 -1       819 1.10971E-02-5.52983E-04-7.35079E-14
 -1       820 1.03311E-02-1.79237E-04-6.97382E-14
 -1       821 1.74570E-03 3.39152E-04-2.53619E-15
 -1       822 1.01064E-02-8.33465E-05-6.90204E-14
 -1       823 1.24624E-03 3.00865E-04-1.33924E-15
 -1       824 1.02264E-02 3.86842E-05-7.01851E-14
 -1       825 1.12292E-02 5.39828E-04-7.47366E-14
 -1       826 3.46642E-03 3.87075E-04-9.22637E-15
 -1       827 1.08250E-02 3.07493E-04-7.26897E-14
 -1       828 1.24203E-02 1.06597E-03-8.40949E-14
 -1       829 1.51021E-03-2.86562E-04-1.94648E-15
 -1       830 1.32705E-02 8.05955E-04-9.15989E-14
 -1       831 1.07266E-02-3.53611E-04-7.16131E-14
 -1       832 1.41243E-02 3.35352E-04-9.64861E-14
 -1       833 1.16951E-02 8.08804E-04-7.78791E-14
 -1       834 1.13685E-03 1.19680E-06-1.29667E-15
 -1       835 1.25388E-03-2.56252E-04-1.38568E-15
 -1       836 2.60670E-03 3.78489E-04-5.38636E-15
 -1       837 2.31979E-03 3.70346E-04-4.32301E-15
 -1       838 1.44225E-02-3.82412E-04-9.65178E-14
 -1       839 1.14978E-03 1.79129E-04-1.26268E-15
 -1       840 1.36492E-02 6.11230E-04-9.48430E-14
 -1       841 1.00743E-02-1.43677E-06-6.88268E-14
 -1       842 1.14197E-03-1.15204E-04-1.27350E-15
 -1       843 1.49560E-03 3.24161E-04-1.89128E-15
 -1       844 1.14234E-03 1.17951E-04-1.28353E-15
 -1       845 1.14923E-03-1.76162E-04-1.24699E-15
 -1       846 1.03944E-02-2.76584E-04-6.84455E-14
 -1       847 9.97050E-03-4.37511E-05-6.73525E-14
 -1       848 2.21830E-03-2.58964E-04-4.07667E-15
 -1       849 2.50737E-03-2.66298E-04-5.10544E-15
 -1       850 2.79638E-03-2.70815E-04-6.24126E-15
 -1       851 3.08515E-03-2.73303E-04-7.48424E-15
 -1       852 3.37356E-03-2.74372E-04-8.83314E-15
 -1       853 3.66160E-03-2.74472E-04-1.02838E-14
 -1       854 3.94927E-03-2.73926E-04-1.18344E-14
 -1       855 4.23658E-03-2.72951E-04-1.34836E-14
 -1       856 4.52356E-03-2.71680E-04-1.52260E-14
 -1       857 4.81023E-03-2.70182E-04-1.70581E-14
 -1       858 5.09662E-03-2.68476E-04-1.89776E-14
 -1       859 5.38272E-03-2.66542E-04-2.09825E-14
 -1       860 5.66852E-03-2.64330E-04-2.30658E-14
 -1       861 5.95398E-03-2.61768E-04-2.52273E-14
 -1       862 6.23903E-03-2.58773E-04-2.74657E-14
 -1       863 6.52359E-03-2.55255E-04-2.97793E-14
 -1       864 6.80751E-03-2.51133E-04-3.21632E-14
 -1       865 7.09062E-03-2.46347E-04-3.46154E-14
 -1       866 7.37272E-03-2.40877E-04-3.71370E-14
 -1       867 7.65355E-03-2.34768E-04-3.97250E-14
 -1       868 7.93281E-03-2.28159E-04-4.23752E-14
 -1       869 8.21018E-03-2.21319E-04-4.50841E-14
 -1       870 8.48534E-03-2.14679E-04-4.78514E-14
 -1       871 8.75804E-03-2.08871E-04-5.06728E-14
 -1       872 9.02817E-03-2.04750E-04-5.35403E-14
 -1       873 9.29596E-03-2.03424E-04-5.64508E-14
 -1       874 9.56225E-03-2.06323E-04-5.94023E-14
 -1       875 9.82902E-03-2.15411E-04-6.23919E-14
 -1       876 1.01001E-02-2.33857E-04-6.54109E-14
 -1       877 3.02940E-03 3.09870E-04-7.25755E-15
 -1       878 4.17926E-03 3.10677E-04-1.31997E-14
 -1       879 3.89225E-03 3.11521E-04-1.15653E-14
 -1       880 4.75252E-03 3.08046E-04-1.67538E-14
 -1       881 5.03881E-03 3.06377E-04-1.86681E-14
 -1       882 5.32487E-03 3.04468E-04-2.06689E-14
 -1       883 5.61072E-03 3.02270E-04-2.27483E-14
 -1       884 5.89632E-03 2.99709E-04-2.49052E-14
 -1       885 6.18163E-03 2.96695E-04-2.71345E-14
 -1       886 6.46659E-03 2.93130E-04-2.94330E-14
 -1       887 6.75112E-03 2.88920E-04-3.18007E-14
 -1       888 7.03509E-03 2.83991E-04-3.42351E-14
 -1       889 7.31840E-03 2.78304E-04-3.67371E-14
 -1       890 7.60088E-03 2.71885E-04-3.93045E-14
 -1       891 7.88239E-03 2.64854E-04-4.19314E-14
 -1       892 8.16280E-03 2.57462E-04-4.46178E-14
 -1       893 8.44207E-03 2.50141E-04-4.73651E-14
 -1       894 8.72027E-03 2.43549E-04-5.01693E-14
 -1       895 8.99779E-03 2.38636E-04-5.30258E-14
 -1       896 9.27546E-03 2.36720E-04-5.59294E-14
 -1       897 9.55491E-03 2.39635E-04-5.88764E-14
 -1       898 9.83900E-03 2.50028E-04-6.18661E-14
 -1       899 1.01324E-02 2.72012E-04-6.48968E-14
 -1       900 1.04423E-02 3.12541E-04-6.79614E-14
 -1       901 1.00635E-02-1.28622E-04-6.70071E-14
 -1       902 1.38897E-02 4.85512E-04-9.66167E-14
 -1       903 1.87588E-03 2.78815E-04-2.99611E-15
 -1       904 1.92951E-03-2.47842E-04-3.15851E-15
 -1       905 1.03299E-02 1.09724E-04-6.97858E-14
 -1       906 1.13806E-03-5.65186E-05-1.28974E-15
 -1       907 1.05729E-02 2.48113E-04-7.03711E-14
 -1       908 1.08339E-02 4.03915E-04-7.14802E-14
 -1       909 2.16419E-03 2.92135E-04-3.89541E-15
 -1       910 4.46601E-03 3.09490E-04-1.49304E-14
 -1       911 1.64159E-03-2.31802E-04-2.35405E-15
 -1       912 1.38492E-03-2.09745E-04-1.73312E-15
 -1       913 1.41042E-03 2.65981E-04-1.75908E-15
 -1       914 9.88153E-03-7.91349E-05-6.53524E-14
 -1       915 3.31733E-03 3.11435E-04-8.59076E-15
 -1       916 2.74117E-03 3.06638E-04-6.02852E-15
 -1       917 3.60495E-03 3.11859E-04-1.00271E-14
 -1       918 2.45272E-03 3.01032E-04-4.90688E-15
 -1       919 1.01238E-02 5.85459E-05-6.80898E-14
 -1       920 1.58834E-03 2.59746E-04-2.21226E-15
 -1       921 1.38386E-03-9.70685E-05-1.81200E-15
 -1       922 1.38099E-03 3.41117E-05-1.83000E-15
 -1       923 1.38414E-03 9.99774E-05-1.82190E-15
 -1       924 2.64523E-03-1.94285E-04-5.71668E-15
 -1       925 2.93513E-03-1.96909E-04-6.90888E-15
 -1       926 3.22472E-03-1.98227E-04-8.20764E-15
 -1       927 3.51387E-03-1.98639E-04-9.60779E-15
 -1       928 3.80254E-03-1.98439E-04-1.11082E-14
 -1       929 4.09072E-03-1.97831E-04-1.27086E-14
 -1       930 4.37844E-03-1.96949E-04-1.44064E-14
 -1       931 4.66571E-03-1.95870E-04-1.61947E-14
 -1       932 4.95257E-03-1.94626E-04-1.80731E-14
 -1       933 5.23901E-03-1.93217E-04-2.00368E-14
 -1       934 5.52502E-03-1.91616E-04-2.20818E-14
 -1       935 5.81055E-03-1.89776E-04-2.42057E-14
 -1       936 6.09555E-03-1.87639E-04-2.64069E-14
 -1       937 6.37988E-03-1.85138E-04-2.86822E-14
 -1       938 6.66338E-03-1.82209E-04-3.10302E-14
 -1       939 6.94586E-03-1.78799E-04-3.34485E-14
 -1       940 7.22703E-03-1.74877E-04-3.59339E-14
 -1       941 7.50657E-03-1.70455E-04-3.84893E-14
 -1       942 7.78409E-03-1.65599E-04-4.11060E-14
 -1       943 8.05912E-03-1.60456E-04-4.37815E-14
 -1       944 8.33117E-03-1.55270E-04-4.65191E-14
 -1       945 8.59967E-03-1.50394E-04-4.93138E-14
 -1       946 8.86408E-03-1.46295E-04-5.21591E-14
 -1       947 9.12386E-03-1.43529E-04-5.50446E-14
 -1       948 9.37859E-03-1.42720E-04-5.79724E-14
 -1       949 9.62808E-03-1.44545E-04-6.09409E-14
 -1       950 9.87304E-03-1.50004E-04-6.39457E-14
 -1       951 5.46706E-03 2.29420E-04-2.17400E-14
 -1       952 4.03306E-03 2.35598E-04-1.24190E-14
 -1       953 5.18099E-03 2.31061E-04-1.97009E-14
 -1       954 4.89457E-03 2.32490E-04-1.77438E-14
 -1       955 5.75273E-03 2.27516E-04-2.38563E-14
 -1       956 6.03794E-03 2.25282E-04-2.60467E-14
 -1       957 6.32262E-03 2.22638E-04-2.83093E-14
 -1       958 6.60664E-03 2.19505E-04-3.06391E-14
 -1       959 6.88983E-03 2.15805E-04-3.30392E-14
 -1       960 7.17200E-03 2.11485E-04-3.55060E-14
 -1       961 7.45290E-03 2.06520E-04-3.80404E-14
 -1       962 7.73226E-03 2.00939E-04-4.06377E-14
 -1       963 8.00979E-03 1.94847E-04-4.32956E-14
 -1       964 8.28522E-03 1.88444E-04-4.60127E-14
 -1       965 8.55831E-03 1.82051E-04-4.87887E-14
 -1       966 8.82897E-03 1.76127E-04-5.16198E-14
 -1       967 9.09736E-03 1.71299E-04-5.44995E-14
 -1       968 9.36411E-03 1.68408E-04-5.74259E-14
 -1       969 9.63058E-03 1.68651E-04-6.03963E-14
 -1       970 9.89969E-03 1.74133E-04-6.34034E-14
 -1       971 1.01761E-02 1.88408E-04-6.64472E-14
 -1       972 2.01012E-03 2.15264E-04-3.47538E-15
 -1       973 2.06553E-03-1.82903E-04-3.65116E-15
 -1       974 1.72171E-03 2.02506E-04-2.62838E-15
 -1       975 9.90783E-03-1.36049E-06-6.61014E-14
 -1       976 1.36249E-03 1.85348E-04-1.72298E-15
 -1       977 1.38090E-03-3.12610E-05-1.82660E-15
 -1       978 1.77677E-03-1.72744E-04-2.78410E-15
 -1       979 2.35523E-03-1.89832E-04-4.62998E-15
 -1       980 4.60778E-03 2.33732E-04-1.58761E-14
 -1       981 3.16782E-03 2.35254E-04-7.96266E-15
 -1       982 2.87858E-03 2.33345E-04-6.68147E-15
 -1       983 3.74509E-03 2.36073E-04-1.08338E-14
 -1       984 1.62906E-03-7.01655E-05-2.43779E-15
 -1       985 2.29944E-03 2.24063E-04-4.43444E-15
 -1       986 4.32062E-03 2.34784E-04-1.41012E-14
 -1       987 9.76921E-03-3.51477E-05-6.41156E-14
 -1       988 1.62749E-03 1.56378E-06-2.44868E-15
 -1       989 1.62925E-03 7.33192E-05-2.44622E-15
 -1       990 9.90978E-03 5.54931E-05-6.52324E-14
 -1       991 1.00932E-02 1.19527E-04-6.64980E-14
 -1       992 9.69065E-03-8.51128E-05-6.25301E-14
 -1       993 3.45668E-03 2.36043E-04-9.34706E-15
 -1       994 3.07634E-03-1.21921E-04-7.58847E-15
 -1       995 3.36637E-03-1.22437E-04-8.93956E-15
 -1       996 3.65588E-03-1.22469E-04-1.03901E-14
 -1       997 3.94483E-03-1.22178E-04-1.19414E-14
 -1       998 4.23322E-03-1.21669E-04-1.35920E-14
 -1       999 4.52107E-03-1.21012E-04-1.53366E-14
 -1      1000 4.80840E-03-1.20240E-04-1.71711E-14
 -1      1001 5.09523E-03-1.19364E-04-1.90939E-14
 -1      1002 5.38154E-03-1.18375E-04-2.11015E-14
 -1      1003 5.66729E-03-1.17249E-04-2.31873E-14
 -1      1004 5.95243E-03-1.15953E-04-2.53512E-14
 -1      1005 6.23682E-03-1.14448E-04-2.75899E-14
 -1      1006 6.52031E-03-1.12694E-04-2.99001E-14
 -1      1007 6.80266E-03-1.10655E-04-3.22813E-14
 -1      1008 7.08360E-03-1.08310E-04-3.47348E-14
 -1      1009 7.36277E-03-1.05657E-04-3.72547E-14
 -1      1010 7.63973E-03-1.02729E-04-3.98396E-14
 -1      1011 7.91397E-03-9.96032E-05-4.24826E-14
 -1      1012 8.18489E-03-9.64154E-05-4.51872E-14
 -1      1013 8.45179E-03-9.33634E-05-4.79534E-14
 -1      1014 8.71388E-03-9.07056E-05-5.07721E-14
 -1      1015 8.97019E-03-8.87385E-05-5.36370E-14
 -1      1016 9.21959E-03-8.77580E-05-5.65456E-14
 -1      1017 9.46117E-03-8.57177E-05-5.95166E-14
 -1      1018 5.89454E-03 1.53406E-04-2.49638E-14
 -1      1019 5.32334E-03 1.56084E-04-2.07348E-14
 -1      1020 5.03697E-03 1.57149E-04-1.87376E-14
 -1      1021 6.17920E-03 1.51697E-04-2.71895E-14
 -1      1022 6.46308E-03 1.49664E-04-2.94847E-14
 -1      1023 6.74597E-03 1.47247E-04-3.18488E-14
 -1      1024 7.02765E-03 1.44391E-04-3.42828E-14
 -1      1025 7.30782E-03 1.41056E-04-3.67840E-14
 -1      1026 7.58612E-03 1.37226E-04-3.93502E-14
 -1      1027 7.86215E-03 1.32918E-04-4.19778E-14
 -1      1028 8.13549E-03 1.28192E-04-4.46651E-14
 -1      1029 8.40565E-03 1.23162E-04-4.74143E-14
 -1      1030 8.67217E-03 1.17992E-04-5.02191E-14
 -1      1031 8.93464E-03 1.12895E-04-5.30739E-14
 -1      1032 9.19270E-03 1.08105E-04-5.59769E-14
 -1      1033 9.44629E-03 1.03896E-04-5.89252E-14
 -1      1034 9.69569E-03 1.00892E-04-6.19117E-14
 -1      1035 2.58904E-03 2.29827E-04-5.50370E-15
 -1      1036 2.20491E-03-1.14920E-04-4.16188E-15
 -1      1037 1.85862E-03 1.41092E-04-3.06484E-15
 -1      1038 2.49531E-03-1.18489E-04-5.19834E-15
 -1      1039 2.78592E-03-1.20702E-04-6.34104E-15
 -1      1040 1.91604E-03-9.24688E-05-3.24587E-15
 -1      1041 9.72319E-03 1.41890E-05-6.32583E-14
 -1      1042 1.91372E-03-1.53117E-05-3.26219E-15
 -1      1043 5.60922E-03 1.54851E-04-2.28121E-14
 -1      1044 3.01860E-03 1.58856E-04-7.34363E-15
 -1      1045 4.75012E-03 1.58076E-04-1.68264E-14
 -1      1046 3.30845E-03 1.59810E-04-8.67602E-15
 -1      1047 3.88668E-03 1.59955E-04-1.16454E-14
 -1      1048 1.91476E-03 6.17348E-05-3.26312E-15
 -1      1049 2.14790E-03 1.48610E-04-3.97151E-15
 -1      1050 4.17499E-03 1.59513E-04-1.32773E-14
 -1      1051 3.21965E-03-4.61542E-05-8.27789E-15
 -1      1052 3.50976E-03-4.62124E-05-9.68116E-15
 -1      1053 3.79928E-03-4.61164E-05-1.11833E-14
 -1      1054 4.08822E-03-4.59130E-05-1.27846E-14
 -1      1055 4.37655E-03-4.56426E-05-1.44833E-14
 -1      1056 4.66431E-03-4.53217E-05-1.62751E-14
 -1      1057 4.95151E-03-4.49563E-05-1.81556E-14
 -1      1058 5.23815E-03-4.45515E-05-2.01230E-14
 -1      1059 5.52420E-03-4.40987E-05-2.21715E-14
 -1      1060 5.80961E-03-4.35880E-05-2.42971E-14
 -1      1061 6.09427E-03-4.30067E-05-2.64990E-14
 -1      1062 6.37803E-03-4.23419E-05-2.87742E-14
 -1      1063 6.66067E-03-4.15830E-05-3.11207E-14
 -1      1064 6.94193E-03-4.07251E-05-3.35373E-14
 -1      1065 7.22146E-03-3.97738E-05-3.60250E-14
 -1      1066 7.49883E-03-3.87501E-05-3.85743E-14
 -1      1067 7.77352E-03-3.76970E-05-4.11847E-14
 -1      1068 8.04495E-03-3.66863E-05-4.38555E-14
 -1      1069 8.31240E-03-3.58239E-05-4.65917E-14
 -1      1070 8.57504E-03-3.52529E-05-4.93843E-14
 -1      1071 8.83185E-03-3.51504E-05-5.22232E-14
 -1      1072 9.08151E-03-3.57185E-05-5.51101E-14
 -1      1073 6.03625E-03 8.01124E-05-2.60719E-14
 -1      1074 2.92906E-03-4.58692E-05-6.97731E-15
 -1      1075 5.46583E-03 8.16109E-05-2.17715E-14
 -1      1076 6.60329E-03 7.79610E-05-3.06613E-14
 -1      1077 6.88503E-03 7.65510E-05-3.30618E-14
 -1      1078 7.16519E-03 7.48709E-05-3.55305E-14
 -1      1079 7.44338E-03 7.28907E-05-3.80653E-14
 -1      1080 7.71916E-03 7.05886E-05-4.06626E-14
 -1      1081 7.99201E-03 6.79528E-05-4.33216E-14
 -1      1082 8.26132E-03 6.49827E-05-4.60408E-14
 -1      1083 8.52642E-03 6.16854E-05-4.88193E-14
 -1      1084 8.78655E-03 5.80674E-05-5.16494E-14
 -1      1085 9.04082E-03 5.41208E-05-5.45269E-14
 -1      1086 9.28806E-03 4.98077E-05-5.74530E-14
 -1      1087 9.51307E-03 3.19837E-05-6.03424E-14
 -1      1088 3.59783E-03 1.60105E-04-1.01100E-14
 -1      1089 2.72838E-03 1.56947E-04-6.11288E-15
 -1      1090 2.34734E-03-4.41796E-05-4.68883E-15
 -1      1091 4.46280E-03 1.58867E-04-1.50057E-14
 -1      1092 9.56228E-03-1.96241E-05-6.11942E-14
 -1      1093 2.43801E-03 1.53696E-04-4.98792E-15
 -1      1094 2.63818E-03-4.52543E-05-5.78111E-15
 -1      1095 5.17966E-03 8.21930E-05-1.97350E-14
 -1      1096 2.13018E-03-2.94380E-05-3.94502E-15
 -1      1097 6.32028E-03 7.91359E-05-2.83331E-14
 -1      1098 5.75139E-03 8.09265E-05-2.38827E-14
 -1      1099 9.32369E-03-3.50122E-05-5.80650E-14
 -1      1100 4.89293E-03 8.26913E-05-1.77810E-14
 -1      1101 2.13066E-03 5.06100E-05-3.94912E-15
 -1      1102 3.74052E-03 8.38666E-05-1.08797E-14
 -1      1103 2.87033E-03 8.26818E-05-6.73216E-15
 -1      1104 3.16088E-03 8.34573E-05-8.01325E-15
 -1      1105 4.02948E-03 8.37375E-05-1.24630E-14
 -1      1106 3.65451E-03 3.01792E-05-1.04322E-14
 -1      1107 4.52049E-03 3.00833E-05-1.53830E-14
 -1      1108 2.57954E-03 8.12970E-05-5.55396E-15
 -1      1109 4.27511E-03 5.68366E-05-1.38900E-14
 -1      1110 3.40774E-03 5.69454E-05-9.18743E-15
 -1      1111 2.35492E-03 6.58819E-05-4.71996E-15
 -1      1112 2.29324E-03 3.34979E-05-4.50523E-15
 -1      1113 0.00000E+00 0.00000E+00 0.00000E+00
 -1      1114 0.00000E+00 0.00000E+00 0.00000E+00
 -1      1115 0.00000E+00 0.00000E+00 0.00000E+00
 -1      1116 0.00000E+00 0.00000E+00 0.00000E+00
 -1      1117 0.00000E+00 0.00000E+00 0.00000E+00
 -1      1118 0.00000E+00 0.00000E+00 0.00000E+00
 -1      1119 0.00000E+00 0.00000E+00 0.00000E+00
 -1      1120 0.00000E+00 0.00000E+00 0.00000E+00
 -1      1121 0.00000E+00 0.00000E+00 0.00000E+00
 -1      1122 0.00000E+00 0.00000E+00 0.00000E+00
 -1      1123 0.00000E+00 0.00000E+00 0.00000E+00
 -1      1124 0.00000E+00 0.00000E+00 0.00000E+00
 -1      1125 0.00000E+00 0.00000E+00 0.00000E+00
 -1      1126 0.00000E+00 0.00000E+00 0.00000E+00
 -1      1127 0.00000E+00 0.00000E+00 0.00000E+00
 -1      1128 0.00000E+00 0.00000E+00 0.00000E+00
 -1      1129 0.00000E+00 0.00000E+00 0.00000E+00
 -1      1130 2.11679E-04-1.48334E-04 2.13452E-17
 -1      1131 5.51676E-04-3.37511E-04-1.56396E-17
 -1      1132 8.33533E-04-4.59003E-04-1.71290E-16
 -1      1133 1.10315E-03-5.40693E-04-4.65204E-16
 -1      1134 1.36861E-03-5.97960E-04-8.91174E-16
 -1      1135 1.63348E-03-6.38698E-04-1.44668E-15
 -1      1136 1.89960E-03-6.67559E-04-2.13069E-15
 -1      1137 2.16783E-03-6.87667E-04-2.94099E-15
 -1      1138 2.43845E-03-7.01311E-04-3.87510E-15
 -1      1139 2.71146E-03-7.10219E-04-4.93204E-15
 -1      1140 2.98669E-03-7.15703E-04-6.10651E-15
 -1      1141 3.26389E-03-7.18747E-04-7.39462E-15
 -1      1142 3.54279E-03-7.20085E-04-8.79268E-15
 -1      1143 3.82311E-03-7.20245E-04-1.02981E-14
 -1      1144 4.10458E-03-7.19598E-04-1.19051E-14
 -1      1145 4.38698E-03-7.18392E-04-1.36088E-14
 -1      1146 4.67013E-03-7.16774E-04-1.54024E-14
 -1      1147 4.95386E-03-7.14818E-04-1.72805E-14
 -1      1148 5.23808E-03-7.12540E-04-1.92430E-14
 -1      1149 5.52274E-03-7.09907E-04-2.12890E-14
 -1      1150 5.80783E-03-7.06859E-04-2.34162E-14
 -1      1151 6.09343E-03-7.03312E-04-2.56171E-14
 -1      1152 6.37966E-03-6.99175E-04-2.78917E-14
 -1      1153 6.66676E-03-6.94366E-04-3.02481E-14
 -1      1154 6.95505E-03-6.88830E-04-3.26855E-14
 -1      1155 7.24499E-03-6.82570E-04-3.51907E-14
 -1      1156 7.53717E-03-6.75685E-04-3.77631E-14
 -1      1157 7.83237E-03-6.68428E-04-4.03974E-14
 -1      1158 8.13155E-03-6.61282E-04-4.30957E-14
 -1      1159 8.43587E-03-6.55067E-04-4.58523E-14
 -1      1160 8.74667E-03-6.51076E-04-4.86671E-14
 -1      1161 9.06537E-03-6.51249E-04-5.15381E-14
 -1      1162 9.39334E-03-6.58365E-04-5.44551E-14
 -1      1163 9.73152E-03-6.76211E-04-5.74180E-14
 -1      1164 1.00799E-02-7.09605E-04-6.04210E-14
 -1      1165 1.04367E-02-7.64041E-04-6.34524E-14
 -1      1166 1.07974E-02-8.44566E-04-6.65039E-14
 -1      1167 1.11540E-02-9.53463E-04-6.95750E-14
 -1      1168 1.14950E-02-1.08668E-03-7.26648E-14
 -1      1169 1.18081E-02-1.23017E-03-7.57758E-14
 -1      1170 1.20852E-02-1.35910E-03-7.89334E-14
 -1      1171 1.23274E-02-1.44341E-03-8.21371E-14
 -1      1172 1.25479E-02-1.45926E-03-8.53791E-14
 -1      1173 1.27662E-02-1.40006E-03-8.86460E-14
 -1      1174 1.29989E-02-1.27842E-03-9.19277E-14
 -1      1175 1.32525E-02-1.11731E-03-9.52223E-14
 -1      1176 1.35234E-02-9.37755E-04-9.85196E-14
 -1      1177 1.38034E-02-7.51362E-04-1.01834E-13
 -1      1178 1.40863E-02-5.60894E-04-1.05173E-13
 -1      1179 1.43632E-02-3.71779E-04-1.08461E-13
 -1      1180 2.28438E-04 1.60712E-04 2.24430E-17
 -1      1181 5.53849E-04 3.42144E-04-2.36221E-17
 -1      1182 8.34463E-04 4.61172E-04-1.92920E-16
 -1      1183 1.10405E-03 5.42381E-04-4.99844E-16
 -1      1184 1.36951E-03 5.99641E-04-9.41101E-16
 -1      1185 1.63443E-03 6.40468E-04-1.51368E-15
 -1      1186 1.90061E-03 6.69435E-04-2.21790E-15
 -1      1187 2.16887E-03 6.89661E-04-3.04810E-15
 -1      1188 2.43952E-03 7.03433E-04-4.00004E-15
 -1      1189 2.71255E-03 7.12474E-04-5.06883E-15
 -1      1190 2.98779E-03 7.18092E-04-6.25578E-15
 -1      1191 3.26500E-03 7.21273E-04-7.55563E-15
 -1      1192 3.54391E-03 7.22747E-04-8.96470E-15
 -1      1193 3.82423E-03 7.23044E-04-1.04834E-14
 -1      1194 4.10571E-03 7.22534E-04-1.21079E-14
 -1      1195 4.38811E-03 7.21464E-04-1.38329E-14
 -1      1196 4.67126E-03 7.19983E-04-1.56540E-14
 -1      1197 4.95500E-03 7.18165E-04-1.75610E-14
 -1      1198 5.23923E-03 7.16026E-04-1.95504E-14
 -1      1199 5.52389E-03 7.13536E-04-2.16277E-14
 -1      1200 5.80900E-03 7.10636E-04-2.37828E-14
 -1      1201 6.09461E-03 7.07247E-04-2.60087E-14
 -1      1202 6.38086E-03 7.03284E-04-2.83084E-14
 -1      1203 6.66797E-03 6.98673E-04-3.06805E-14
 -1      1204 6.95627E-03 6.93374E-04-3.31221E-14
 -1      1205 7.24619E-03 6.87407E-04-3.56216E-14
 -1      1206 7.53831E-03 6.80897E-04-3.81756E-14
 -1      1207 7.83335E-03 6.74128E-04-4.07856E-14
 -1      1208 8.13220E-03 6.67618E-04-4.34573E-14
 -1      1209 8.43587E-03 6.62215E-04-4.61936E-14
 -1      1210 8.74550E-03 6.59220E-04-4.89871E-14
 -1      1211 9.06221E-03 6.60518E-04-5.18387E-14
 -1      1212 9.38690E-03 6.68711E-04-5.47390E-14
 -1      1213 9.71997E-03 6.87175E-04-5.76667E-14
 -1      1214 1.00607E-02 7.19944E-04-6.06409E-14
 -1      1215 1.04068E-02 7.71206E-04-6.36650E-14
 -1      1216 1.07536E-02 8.44166E-04-6.67365E-14
 -1      1217 1.10936E-02 9.39051E-04-6.98518E-14
 -1      1218 1.14174E-02 1.05049E-03-7.29932E-14
 -1      1219 1.17157E-02 1.16533E-03-7.61662E-14
 -1      1220 1.19830E-02 1.26293E-03-7.93713E-14
 -1      1221 1.22217E-02 1.31989E-03-8.26098E-14
 -1      1222 1.24426E-02 1.31825E-03-8.58794E-14
 -1      1223 1.26610E-02 1.25287E-03-8.91898E-14
 -1      1224 1.28903E-02 1.13271E-03-9.25177E-14
 -1      1225 1.31368E-02 9.74898E-04-9.58568E-14
 -1      1226 1.33994E-02 7.96229E-04-9.92197E-14
 -1      1227 1.36728E-02 6.07680E-04-1.02602E-13
 -1      1228 1.39526E-02 4.14471E-04-1.05994E-13
 -1      1229 1.42292E-02 2.24782E-04-1.09298E-13
 -1      1230 1.44595E-02 9.05798E-05-1.10872E-13
 -1      1231 1.46483E-02 4.85012E-06-1.10816E-13
 -1      1232 1.48423E-02-8.27325E-05-1.10749E-13
 -1      1233 1.50498E-02-1.66693E-04-1.10663E-13
 -1      1234 1.52737E-02-2.35506E-04-1.10589E-13
 -1      1235 1.55038E-02-2.73919E-04-1.10506E-13
 -1      1236 1.57199E-02-2.69615E-04-1.10413E-13
 -1      1237 1.58889E-02-2.18299E-04-1.10307E-13
 -1      1238 1.59731E-02-1.31744E-04-1.10200E-13
 -1      1239 1.59522E-02-3.63976E-05-1.10107E-13
 -1      1240 1.58323E-02 3.75504E-05-1.10054E-13
 -1      1241 1.56444E-02 6.94419E-05-1.10077E-13
 -1      1242 1.54238E-02 5.57256E-05-1.10112E-13
 -1      1243 1.51977E-02 4.57918E-06-1.10134E-13
 -1      1244 1.49833E-02-6.95261E-05-1.10138E-13
 -1      1245 1.47831E-02-1.53121E-04-1.10117E-13
 -1      1246 1.45925E-02-2.37572E-04-1.10088E-13
 -1      1247 1.50856E-02-6.21716E-06-9.22360E-14
 -1      1248 1.49537E-02 1.71388E-04-9.19358E-14
 -1      1249 1.46928E-02 3.58381E-04-9.12612E-14
 -1      1250 1.43414E-02 5.39040E-04-9.02972E-14
 -1      1251 1.39247E-02 7.04573E-04-8.90976E-14
 -1      1252 1.34662E-02 8.39837E-04-8.76910E-14
 -1      1253 1.29852E-02 9.24679E-04-8.61330E-14
 -1      1254 1.24798E-02 9.43072E-04-8.44331E-14
 -1      1255 1.19986E-02 8.93929E-04-8.27923E-14
 -1      1256 1.15584E-02 7.89881E-04-8.13144E-14
 -1      1257 1.11486E-02 6.46632E-04-7.99803E-14
 -1      1258 1.07917E-02 4.82843E-04-7.88513E-14
 -1      1259 1.05073E-02 3.12952E-04-7.79818E-14
 -1      1260 1.03182E-02 1.46148E-04-7.74184E-14
 -1      1261 1.02373E-02-1.63451E-05-7.71648E-14
 -1      1262 1.02753E-02-1.89575E-04-7.72455E-14
 -1      1263 1.04356E-02-3.68265E-04-7.76962E-14
 -1      1264 1.06967E-02-5.46551E-04-7.84549E-14
 -1      1265 1.10303E-02-7.19490E-04-7.94692E-14
 -1      1266 1.13992E-02-8.71653E-04-8.06301E-14
 -1      1267 1.17966E-02-9.94958E-04-8.19325E-14
 -1      1268 1.22172E-02-1.07757E-03-8.33519E-14
 -1      1269 1.26708E-02-1.10776E-03-8.48906E-14
 -1      1270 1.31336E-02-1.07671E-03-8.64412E-14
 -1      1271 1.35843E-02-9.87479E-04-8.78990E-14
 -1      1272 1.40151E-02-8.54108E-04-8.92246E-14
 -1      1273 1.44031E-02-6.94885E-04-9.03550E-14
 -1      1274 1.47237E-02-5.25200E-04-9.12336E-14
 -1      1275 1.49557E-02-3.54864E-04-9.18570E-14
 -1      1276 1.50843E-02-1.80280E-04-9.22027E-14
 -1      1277 1.66711E-04-1.10341E-04 1.26039E-18
 -1      1278 1.12549E-04-5.69697E-05-2.39880E-17
 -1      1279 1.17631E-04-6.75791E-05-1.71982E-17
 -1      1280 1.08426E-04-4.34841E-05-3.54263E-17
 -1      1281 1.10291E-04-4.95996E-05-3.18213E-17
 -1      1282 2.26345E-04-1.07615E-04-7.47964E-17
 -1      1283 1.06842E-04-3.36060E-05-4.19451E-17
 -1      1284 1.07689E-04-3.83278E-05-3.99664E-17
 -1      1285 2.19111E-04-8.24464E-05-9.54776E-17
 -1      1286 1.06061E-04-2.53456E-05-4.61192E-17
 -1      1287 1.06493E-04-2.93783E-05-4.50622E-17
 -1      1288 2.15869E-04-6.32669E-05-1.08285E-16
 -1      1289 1.05655E-04-1.80868E-05-4.84096E-17
 -1      1290 1.05886E-04-2.16538E-05-4.78675E-17
 -1      1291 2.14204E-04-4.71774E-05-1.16213E-16
 -1      1292 1.05433E-04-1.12365E-05-4.99140E-17
 -1      1293 1.05557E-04-1.46208E-05-4.96700E-17
 -1      1294 2.13283E-04-3.27462E-05-1.20970E-16
 -1      1295 1.05333E-04-4.68810E-06-5.06593E-17
 -1      1296 1.05386E-04-7.94070E-06-5.05238E-17
 -1      1297 2.12785E-04-1.91862E-05-1.23843E-16
 -1      1298 1.05321E-04 1.74244E-06-5.11608E-17
 -1      1299 1.05319E-04-1.47030E-06-5.10659E-17
 -1      1300 2.12569E-04-6.15928E-06-1.25429E-16
 -1      1301 1.05394E-04 8.22267E-06-5.09575E-17
 -1      1302 1.05337E-04 4.96353E-06-5.09846E-17
 -1      1303 2.12577E-04 6.70680E-06-1.25917E-16
 -1      1304 1.05573E-04 1.49285E-05-5.03612E-17
 -1      1305 1.05445E-04 1.15291E-05-5.05645E-17
 -1      1306 2.12810E-04 1.97598E-05-1.25103E-16
 -1      1307 1.05909E-04 2.19463E-05-4.88298E-17
 -1      1308 1.05672E-04 1.83555E-05-4.92228E-17
 -1      1309 2.13325E-04 3.32597E-05-1.22840E-16
 -1      1310 1.06535E-04 2.98125E-05-4.62683E-17
 -1      1311 1.06095E-04 2.57357E-05-4.71492E-17
 -1      1312 2.14270E-04 4.77858E-05-1.18571E-16
 -1      1313 1.07728E-04 3.89114E-05-4.17689E-17
 -1      1314 1.06876E-04 3.41177E-05-4.34358E-17
 -1      1315 2.15980E-04 6.41980E-05-1.11551E-16
 -1      1316 1.10271E-04 5.03393E-05-3.39626E-17
 -1      1317 1.08431E-04 4.41550E-05-3.73914E-17
 -1      1318 2.19213E-04 8.36965E-05-9.97873E-17
 -1      1319 1.16947E-04 6.76146E-05-2.02068E-17
 -1      1320 1.12195E-04 5.77688E-05-2.68882E-17
 -1      1321 2.26332E-04 1.09434E-04-8.04207E-17
 -1      1322 1.57590E-04 1.09858E-04 1.95156E-18
 -1      1323 1.35672E-04 8.60872E-05-1.24548E-17
 -1      1324 2.56059E-04 1.52085E-04-5.65547E-17
 -1      1325 3.35109E-04 2.20733E-04-2.04643E-17
 -1      1326 4.21572E-04-2.61732E-04-3.57516E-17
 -1      1327 5.74684E-04-3.36789E-04-8.65329E-17
 -1      1328 7.21888E-04-3.97390E-04-1.73256E-16
 -1      1329 8.65073E-04-4.46686E-04-2.93209E-16
 -1      1330 6.12123E-04-3.30878E-04-1.68648E-16
 -1      1331 1.00512E-03-4.87762E-04-4.45065E-16
 -1      1332 1.14298E-03-5.21757E-04-6.29745E-16
 -1      1333 9.05388E-04-4.31578E-04-4.19518E-16
 -1      1334 1.27949E-03-5.50539E-04-8.46423E-16
 -1      1335 1.41516E-03-5.74586E-04-1.09584E-15
 -1      1336 1.18785E-03-5.01011E-04-7.98285E-16
 -1      1337 1.55043E-03-5.94964E-04-1.37732E-15
 -1      1338 1.68555E-03-6.12007E-04-1.69014E-15
 -1      1339 1.46482E-03-5.49804E-04-1.30444E-15
 -1      1340 1.82076E-03-6.26344E-04-2.03479E-15
 -1      1341 1.95617E-03-6.38267E-04-2.41112E-15
 -1      1342 1.73955E-03-5.84139E-04-1.93670E-15
 -1      1343 2.09191E-03-6.48179E-04-2.81799E-15
 -1      1344 2.22802E-03-6.56331E-04-3.25631E-15
 -1      1345 2.01390E-03-6.08001E-04-2.69378E-15
 -1      1346 2.36455E-03-6.62998E-04-3.72541E-15
 -1      1347 2.50152E-03-6.68385E-04-4.22420E-15
 -1      1348 2.28886E-03-6.24206E-04-3.57391E-15
 -1      1349 2.63894E-03-6.72688E-04-4.75333E-15
 -1      1350 2.77679E-03-6.76072E-04-5.31217E-15
 -1      1351 2.56490E-03-6.34830E-04-4.57453E-15
 -1      1352 2.91508E-03-6.78675E-04-5.89912E-15
 -1      1353 3.05377E-03-6.80628E-04-6.51498E-15
 -1      1354 2.84222E-03-6.41430E-04-5.69236E-15
 -1      1355 3.19286E-03-6.82029E-04-7.15881E-15
 -1      1356 3.33232E-03-6.82979E-04-7.83087E-15
 -1      1357 3.12082E-03-6.45172E-04-6.92408E-15
 -1      1358 3.47212E-03-6.83545E-04-8.52978E-15
 -1      1359 3.61223E-03-6.83803E-04-9.25533E-15
 -1      1360 3.40064E-03-6.46919E-04-8.26681E-15
 -1      1361 3.75264E-03-6.83798E-04-1.00076E-14
 -1      1362 3.89331E-03-6.83585E-04-1.07850E-14
 -1      1363 3.68153E-03-6.47300E-04-9.71783E-15
 -1      1364 4.03423E-03-6.83193E-04-1.15876E-14
 -1      1365 4.17536E-03-6.82660E-04-1.24151E-14
 -1      1366 3.96337E-03-6.46759E-04-1.12719E-14
 -1      1367 4.31669E-03-6.82002E-04-1.32661E-14
 -1      1368 4.45820E-03-6.81245E-04-1.41402E-14
 -1      1369 4.24601E-03-6.45596E-04-1.29242E-14
 -1      1370 4.59988E-03-6.80392E-04-1.50360E-14
 -1      1371 4.74169E-03-6.79461E-04-1.59533E-14
 -1      1372 4.52931E-03-6.43999E-04-1.46704E-14
 -1      1373 4.88365E-03-6.78448E-04-1.68923E-14
 -1      1374 5.02572E-03-6.77362E-04-1.78521E-14
 -1      1375 4.81316E-03-6.42066E-04-1.65045E-14
 -1      1376 5.16791E-03-6.76192E-04-1.88338E-14
 -1      1377 5.31021E-03-6.74942E-04-1.98357E-14
 -1      1378 5.09750E-03-6.39831E-04-1.84245E-14
 -1      1379 5.45263E-03-6.73598E-04-2.08570E-14
 -1      1380 5.59515E-03-6.72157E-04-2.19002E-14
 -1      1381 5.38227E-03-6.37273E-04-2.04270E-14
 -1      1382 5.73779E-03-6.70603E-04-2.29627E-14
 -1      1383 5.88055E-03-6.68931E-04-2.40439E-14
 -1      1384 5.66748E-03-6.34330E-04-2.25098E-14
 -1      1385 6.02344E-03-6.67120E-04-2.51444E-14
 -1      1386 6.16649E-03-6.65168E-04-2.62631E-14
 -1      1387 5.95316E-03-6.30916E-04-2.46721E-14
 -1      1388 6.30972E-03-6.63051E-04-2.74016E-14
 -1      1389 6.45315E-03-6.60769E-04-2.85587E-14
 -1      1390 6.23941E-03-6.26923E-04-2.69109E-14
 -1      1391 6.59681E-03-6.58298E-04-2.97370E-14
 -1      1392 6.74073E-03-6.55644E-04-3.09358E-14
 -1      1393 6.52639E-03-6.22245E-04-2.92266E-14
 -1      1394 6.88498E-03-6.52783E-04-3.21522E-14
 -1      1395 7.02959E-03-6.49734E-04-3.33867E-14
 -1      1396 6.81433E-03-6.16785E-04-3.16207E-14
 -1      1397 7.17463E-03-6.46476E-04-3.46389E-14
 -1      1398 7.32015E-03-6.43045E-04-3.59072E-14
 -1      1399 7.10355E-03-6.10485E-04-3.40879E-14
 -1      1400 7.46626E-03-6.39430E-04-3.71917E-14
 -1      1401 7.61301E-03-6.35690E-04-3.84916E-14
 -1      1402 7.39447E-03-6.03358E-04-3.66216E-14
 -1      1403 7.76051E-03-6.31833E-04-3.98079E-14
 -1      1404 7.90887E-03-6.27949E-04-4.11403E-14
 -1      1405 7.68763E-03-5.95535E-04-3.92202E-14
 -1      1406 8.05820E-03-6.24078E-04-4.24873E-14
 -1      1407 8.20862E-03-6.20355E-04-4.38502E-14
 -1      1408 7.98366E-03-5.87332E-04-4.18808E-14
 -1      1409 8.36027E-03-6.16866E-04-4.52277E-14
 -1      1410 8.51328E-03-6.13808E-04-4.66184E-14
 -1      1411 8.28336E-03-5.79342E-04-4.46031E-14
 -1      1412 8.66780E-03-6.11339E-04-4.80257E-14
 -1      1413 8.82398E-03-6.09732E-04-4.94475E-14
 -1      1414 8.58759E-03-5.72566E-04-4.73860E-14
 -1      1415 8.98196E-03-6.09249E-04-5.08817E-14
 -1      1416 9.14187E-03-6.10255E-04-5.23257E-14
 -1      1417 8.89729E-03-5.68574E-04-5.02248E-14
 -1      1418 9.30383E-03-6.13160E-04-5.37827E-14
 -1      1419 9.46792E-03-6.18427E-04-5.52511E-14
 -1      1420 9.21339E-03-5.69714E-04-5.31131E-14
 -1      1421 9.63418E-03-6.26649E-04-5.67312E-14
 -1      1422 9.80261E-03-6.38380E-04-5.82202E-14
 -1      1423 9.53658E-03-5.79324E-04-5.60451E-14
 -1      1424 9.97310E-03-6.54408E-04-5.97183E-14
 -1      1425 1.01455E-02-6.75322E-04-6.12261E-14
 -1      1426 9.86714E-03-6.01895E-04-5.90195E-14
 -1      1427 1.03194E-02-7.02042E-04-6.27396E-14
 -1      1428 1.04944E-02-7.35064E-04-6.42571E-14
 -1      1429 1.02045E-02-6.42995E-04-6.20281E-14
 -1      1430 1.06699E-02-7.75218E-04-6.57824E-14
 -1      1431 1.08452E-02-8.22647E-04-6.73137E-14
 -1      1432 1.05470E-02-7.08649E-04-6.50640E-14
 -1      1433 1.10192E-02-8.77657E-04-6.88483E-14
 -1      1434 1.11909E-02-9.39633E-04-7.03895E-14
 -1      1435 1.08909E-02-8.03678E-04-6.81229E-14
 -1      1436 1.13592E-02-1.00773E-03-7.19338E-14
 -1      1437 1.15228E-02-1.08011E-03-7.34822E-14
 -1      1438 1.12310E-02-9.28583E-04-7.12023E-14
 -1      1439 1.16808E-02-1.15427E-03-7.50412E-14
 -1      1440 1.18324E-02-1.22702E-03-7.66084E-14
 -1      1441 1.15602E-02-1.07521E-03-7.43045E-14
 -1      1442 1.19770E-02-1.29436E-03-7.81837E-14
 -1      1443 1.21149E-02-1.35235E-03-7.97723E-14
 -1      1444 1.18718E-02-1.22329E-03-7.74361E-14
 -1      1445 1.22467E-02-1.39684E-03-8.13741E-14
 -1      1446 1.23735E-02-1.42466E-03-8.29835E-14
 -1      1447 1.21627E-02-1.34194E-03-8.06113E-14
 -1      1448 1.24968E-02-1.43347E-03-8.46023E-14
 -1      1449 1.26187E-02-1.42237E-03-8.62290E-14
 -1      1450 1.24361E-02-1.39938E-03-8.38285E-14
 -1      1451 1.27406E-02-1.39201E-03-8.78583E-14
 -1      1452 1.28644E-02-1.34407E-03-8.94904E-14
 -1      1453 1.27013E-02-1.37750E-03-8.70730E-14
 -1      1454 1.29909E-02-1.28156E-03-9.11297E-14
 -1      1455 1.31208E-02-1.20749E-03-9.27749E-14
 -1      1456 1.29689E-02-1.28074E-03-9.03377E-14
 -1      1457 1.32543E-02-1.12532E-03-9.44216E-14
 -1      1458 1.33908E-02-1.03777E-03-9.60659E-14
 -1      1459 1.32452E-02-1.13136E-03-9.36199E-14
 -1      1460 1.35299E-02-9.47058E-04-9.77156E-14
 -1      1461 1.36708E-02-8.54707E-04-9.93701E-14
 -1      1462 1.35300E-02-9.55384E-04-9.69135E-14
 -1      1463 1.38128E-02-7.61280E-04-1.01029E-13
 -1      1464 1.39553E-02-6.67151E-04-1.02691E-13
 -1      1465 1.38193E-02-7.70422E-04-1.00220E-13
 -1      1466 1.40979E-02-5.71942E-04-1.04360E-13
 -1      1467 1.42405E-02-4.75753E-04-1.06037E-13
 -1      1468 1.41085E-02-5.82419E-04-1.03547E-13
 -1      1469 1.44569E-02-3.30376E-04-1.08479E-13
 -1      1470 1.44696E-02-3.42300E-04-1.07655E-13
 -1      1471 6.43133E-04 3.72004E-04-1.25903E-16
 -1      1472 4.92991E-04 3.03683E-04-5.55383E-17
 -1      1473 4.44919E-04 2.65884E-04-8.24536E-17
 -1      1474 9.28752E-04 4.71970E-04-3.68791E-16
 -1      1475 7.87872E-04 4.26477E-04-2.30569E-16
 -1      1476 7.44809E-04 3.90703E-04-2.61306E-16
 -1      1477 1.20368E-03 5.41401E-04-7.43993E-16
 -1      1478 1.06700E-03 5.09715E-04-5.39689E-16
 -1      1479 1.03089E-03 4.76148E-04-5.72974E-16
 -1      1480 1.47427E-03 5.90617E-04-1.25033E-15
 -1      1481 1.33920E-03 5.68147E-04-9.81000E-16
 -1      1482 1.30884E-03 5.35986E-04-1.01473E-15
 -1      1483 1.74385E-03 6.25543E-04-1.88674E-15
 -1      1484 1.60901E-03 6.09625E-04-1.55195E-15
 -1      1485 1.58310E-03 5.78298E-04-1.58487E-15
 -1      1486 2.01410E-03 6.50049E-04-2.65138E-15
 -1      1487 1.87881E-03 6.38926E-04-2.25327E-15
 -1      1488 1.85631E-03 6.08061E-04-2.28328E-15
 -1      1489 2.28584E-03 6.66883E-04-3.53892E-15
 -1      1490 2.14975E-03 6.59294E-04-3.08022E-15
 -1      1491 2.12986E-03 6.28662E-04-3.10701E-15
 -1      1492 2.55937E-03 6.78093E-04-4.54648E-15
 -1      1493 2.42237E-03 6.73090E-04-4.02804E-15
 -1      1494 2.40447E-03 6.42552E-04-4.05160E-15
 -1      1495 2.83475E-03 6.85220E-04-5.66974E-15
 -1      1496 2.69683E-03 6.82089E-04-5.09347E-15
 -1      1497 2.68043E-03 6.51561E-04-5.11314E-15
 -1      1498 3.11188E-03 6.89428E-04-6.90851E-15
 -1      1499 2.97311E-03 6.87630E-04-6.27502E-15
 -1      1500 2.95782E-03 6.57064E-04-6.28981E-15
 -1      1501 3.39059E-03 6.91583E-04-8.25791E-15
 -1      1502 3.25105E-03 6.90719E-04-7.56930E-15
 -1      1503 3.23658E-03 6.60089E-04-7.57899E-15
 -1      1504 3.67066E-03 6.92322E-04-9.71587E-15
 -1      1505 3.53047E-03 6.92099E-04-8.97333E-15
 -1      1506 3.51660E-03 6.61396E-04-8.97736E-15
 -1      1507 3.95188E-03 6.92093E-04-1.12807E-14
 -1      1508 3.81114E-03 6.92307E-04-1.04849E-14
 -1      1509 3.79770E-03 6.61531E-04-1.04829E-14
 -1      1510 4.23405E-03 6.91207E-04-1.29476E-14
 -1      1511 4.09286E-03 6.91718E-04-1.21015E-14
 -1      1512 4.07973E-03 6.60876E-04-1.20917E-14
 -1      1513 4.51700E-03 6.89859E-04-1.47133E-14
 -1      1514 4.37544E-03 6.90582E-04-1.38187E-14
 -1      1515 4.36254E-03 6.59682E-04-1.38012E-14
 -1      1516 4.80058E-03 6.88156E-04-1.65721E-14
 -1      1517 4.65872E-03 6.89048E-04-1.56316E-14
 -1      1518 4.64600E-03 6.58098E-04-1.56066E-14
 -1      1519 5.08469E-03 6.86141E-04-1.85142E-14
 -1      1520 4.94257E-03 6.87187E-04-1.75332E-14
 -1      1521 4.92999E-03 6.56197E-04-1.75021E-14
 -1      1522 5.36925E-03 6.83800E-04-2.05425E-14
 -1      1523 5.22691E-03 6.85013E-04-1.95177E-14
 -1      1524 5.21446E-03 6.53990E-04-1.94820E-14
 -1      1525 5.65425E-03 6.81085E-04-2.26539E-14
 -1      1526 5.51170E-03 6.82492E-04-2.15883E-14
 -1      1527 5.49936E-03 6.51441E-04-2.15465E-14
 -1      1528 5.93974E-03 6.77919E-04-2.48392E-14
 -1      1529 5.79693E-03 6.79562E-04-2.37368E-14
 -1      1530 5.78470E-03 6.48481E-04-2.36889E-14
 -1      1531 6.22580E-03 6.74212E-04-2.70972E-14
 -1      1532 6.08269E-03 6.76136E-04-2.59590E-14
 -1      1533 6.07057E-03 6.45021E-04-2.59061E-14
 -1      1534 6.51260E-03 6.69872E-04-2.94277E-14
 -1      1535 6.36909E-03 6.72121E-04-2.82542E-14
 -1      1536 6.35706E-03 6.40960E-04-2.81970E-14
 -1      1537 6.80039E-03 6.64827E-04-3.18292E-14
 -1      1538 6.65635E-03 6.67434E-04-3.06203E-14
 -1      1539 6.64438E-03 6.36204E-04-3.05574E-14
 -1      1540 7.08952E-03 6.59049E-04-3.42941E-14
 -1      1541 6.94477E-03 6.62020E-04-3.30537E-14
 -1      1542 6.93279E-03 6.30688E-04-3.29842E-14
 -1      1543 7.38045E-03 6.52587E-04-3.68165E-14
 -1      1544 7.23473E-03 6.55884E-04-3.55476E-14
 -1      1545 7.22265E-03 6.24402E-04-3.54727E-14
 -1      1546 7.67376E-03 6.45613E-04-3.93962E-14
 -1      1547 7.52677E-03 6.49130E-04-3.80996E-14
 -1      1548 7.51443E-03 6.17432E-04-3.80212E-14
 -1      1549 7.97015E-03 6.38492E-04-4.20341E-14
 -1      1550 7.82152E-03 6.42019E-04-4.07076E-14
 -1      1551 7.80868E-03 6.10015E-04-4.06275E-14
 -1      1552 8.27047E-03 6.31865E-04-4.47351E-14
 -1      1553 8.11977E-03 6.35040E-04-4.33763E-14
 -1      1554 8.10608E-03 6.02616E-04-4.32935E-14
 -1      1555 8.57564E-03 6.26756E-04-4.74964E-14
 -1      1556 8.42239E-03 6.29012E-04-4.61087E-14
 -1      1557 8.40739E-03 5.96026E-04-4.60211E-14
 -1      1558 8.88662E-03 6.24714E-04-5.03157E-14
 -1      1559 8.73034E-03 6.25206E-04-4.88991E-14
 -1      1560 8.71344E-03 5.91485E-04-4.88086E-14
 -1      1561 9.20425E-03 6.27950E-04-5.31882E-14
 -1      1562 9.04455E-03 6.25487E-04-5.17455E-14
 -1      1563 9.02499E-03 5.90834E-04-5.16510E-14
 -1      1564 9.52906E-03 6.39462E-04-5.61015E-14
 -1      1565 9.36573E-03 6.32452E-04-5.46411E-14
 -1      1566 9.34265E-03 5.96658E-04-5.45422E-14
 -1      1567 9.86088E-03 6.63047E-04-5.90503E-14
 -1      1568 9.69411E-03 6.49511E-04-5.75709E-14
 -1      1569 9.66662E-03 6.12387E-04-5.74704E-14
 -1      1570 1.01985E-02 7.03059E-04-6.20482E-14
 -1      1571 1.00291E-02 6.80799E-04-6.05429E-14
 -1      1572 9.99643E-03 6.42228E-04-6.04438E-14
 -1      1573 1.05389E-02 7.63665E-04-6.50924E-14
 -1      1574 1.03686E-02 7.30706E-04-6.35648E-14
 -1      1575 1.03305E-02 6.90737E-04-6.34613E-14
 -1      1576 1.08773E-02 8.47313E-04-6.81788E-14
 -1      1577 1.07087E-02 8.02774E-04-6.66290E-14
 -1      1578 1.06659E-02 7.61749E-04-6.65216E-14
 -1      1579 1.12069E-02 9.52308E-04-7.13022E-14
 -1      1580 1.10437E-02 8.97700E-04-6.97368E-14
 -1      1581 1.09979E-02 8.56394E-04-6.96223E-14
 -1      1582 1.15202E-02 1.07000E-03-7.44528E-14
 -1      1583 1.13661E-02 1.01061E-03-7.28745E-14
 -1      1584 1.13208E-02 9.70298E-04-7.27535E-14
 -1      1585 1.18110E-02 1.18324E-03-7.76381E-14
 -1      1586 1.16687E-02 1.12860E-03-7.60418E-14
 -1      1587 1.16286E-02 1.09091E-03-7.59175E-14
 -1      1588 1.20776E-02 1.26840E-03-8.08567E-14
 -1      1589 1.19472E-02 1.23077E-03-7.92416E-14
 -1      1590 1.19173E-02 1.19716E-03-7.91121E-14
 -1      1591 1.23249E-02 1.30241E-03-8.41038E-14
 -1      1592 1.22031E-02 1.29273E-03-8.24778E-14
 -1      1593 1.21876E-02 1.26381E-03-8.23421E-14
 -1      1594 1.25628E-02 1.27188E-03-8.73891E-14
 -1      1595 1.24442E-02 1.29523E-03-8.57420E-14
 -1      1596 1.24452E-02 1.27038E-03-8.56048E-14
 -1      1597 1.28030E-02 1.17861E-03-9.07018E-14
 -1      1598 1.26820E-02 1.23224E-03-8.90426E-14
 -1      1599 1.26992E-02 1.20990E-03-8.88957E-14
 -1      1600 1.30534E-02 1.03716E-03-9.40289E-14
 -1      1601 1.29266E-02 1.11268E-03-9.23646E-14
 -1      1602 1.29579E-02 1.09122E-03-9.22095E-14
 -1      1603 1.33163E-02 8.66396E-04-9.73753E-14
 -1      1604 1.31834E-02 9.54385E-04-9.57000E-14
 -1      1605 1.32254E-02 9.32812E-04-9.55415E-14
 -1      1606 1.35893E-02 6.81260E-04-1.00744E-13
 -1      1607 1.34518E-02 7.75011E-04-9.90561E-14
 -1      1608 1.35011E-02 7.53093E-04-9.88925E-14
 -1      1609 1.38685E-02 4.89644E-04-1.04124E-13
 -1      1610 1.37283E-02 5.85999E-04-1.02431E-13
 -1      1611 1.37822E-02 5.63948E-04-1.02261E-13
 -1      1612 1.41513E-02 2.94941E-04-1.07508E-13
 -1      1613 1.40096E-02 3.92534E-04-1.05816E-13
 -1      1614 1.40658E-02 3.70486E-04-1.05641E-13
 -1      1615 1.43239E-02 1.82580E-04-1.09266E-13
 -1      1616 1.45718E-02 6.81295E-05-1.09335E-13
 -1      1617 1.44771E-02 1.10757E-04-1.09364E-13
 -1      1618 1.47684E-02-1.61568E-05-1.09266E-13
 -1      1619 1.46686E-02 2.56210E-05-1.09305E-13
 -1      1620 1.44958E-02 1.32011E-04-1.07856E-13
 -1      1621 1.49814E-02-9.39379E-05-1.09189E-13
 -1      1622 1.48726E-02-5.63858E-05-1.09226E-13
 -1      1623 1.46960E-02 4.91000E-05-1.07788E-13
 -1      1624 1.52117E-02-1.55906E-04-1.09113E-13
 -1      1625 1.50947E-02-1.27604E-04-1.09152E-13
 -1      1626 1.49148E-02-2.71692E-05-1.07716E-13
 -1      1627 1.54441E-02-1.90896E-04-1.09031E-13
 -1      1628 1.53284E-02-1.77232E-04-1.09071E-13
 -1      1629 1.51491E-02-8.87321E-05-1.07640E-13
 -1      1630 1.56597E-02-1.92331E-04-1.08937E-13
 -1      1631 1.55567E-02-1.96157E-04-1.08984E-13
 -1      1632 1.53859E-02-1.28051E-04-1.07556E-13
 -1      1633 1.58161E-02-1.59738E-04-1.08843E-13
 -1      1634 1.57477E-02-1.79804E-04-1.08890E-13
 -1      1635 1.55959E-02-1.39600E-04-1.07471E-13
 -1      1636 1.58772E-02-1.05221E-04-1.08755E-13
 -1      1637 1.58601E-02-1.34004E-04-1.08798E-13
 -1      1638 1.57355E-02-1.24797E-04-1.07389E-13
 -1      1639 1.58278E-02-4.98912E-05-1.08679E-13
 -1      1640 1.58661E-02-7.61778E-05-1.08717E-13
 -1      1641 1.57704E-02-9.56057E-05-1.07315E-13
 -1      1642 1.56818E-02-1.50509E-05-1.08651E-13
 -1      1643 1.57651E-02-2.88415E-05-1.08658E-13
 -1      1644 1.56919E-02-7.05668E-05-1.07260E-13
 -1      1645 1.54781E-02-1.30392E-05-1.08658E-13
 -1      1646 1.55851E-02-9.75060E-06-1.08652E-13
 -1      1647 1.55237E-02-6.59721E-05-1.07234E-13
 -1      1648 1.52475E-02-4.48014E-05-1.08673E-13
 -1      1649 1.53638E-02-2.50032E-05-1.08667E-13
 -1      1650 1.53041E-02-8.87621E-05-1.07231E-13
 -1      1651 1.50203E-02-1.03231E-04-1.08682E-13
 -1      1652 1.51324E-02-7.13477E-05-1.08680E-13
 -1      1653 1.50686E-02-1.37560E-04-1.07232E-13
 -1      1654 1.48084E-02-1.77817E-04-1.08673E-13
 -1      1655 1.49123E-02-1.39191E-04-1.08682E-13
 -1      1656 1.48427E-02-2.04996E-04-1.07228E-13
 -1      1657 1.45883E-02-2.80266E-04-1.08159E-13
 -1      1658 1.46861E-02-2.38992E-04-1.08173E-13
 -1      1659 1.46120E-02-3.03018E-04-1.06725E-13
 -1      1660 1.43705E-02-4.25238E-04-1.05723E-13
 -1      1661 1.50805E-02-7.40682E-06-9.28153E-14
 -1      1662 1.51165E-02-6.06394E-05-9.28767E-14
 -1      1663 1.48833E-02 1.26081E-04-9.24335E-14
 -1      1664 1.49948E-02 5.91077E-05-9.26790E-14
 -1      1665 1.45488E-02 2.99634E-04-9.16198E-14
 -1      1666 1.47171E-02 2.15110E-04-9.20387E-14
 -1      1667 1.41515E-02 5.00819E-04-9.04961E-14
 -1      1668 1.43411E-02 4.08935E-04-9.10232E-14
 -1      1669 1.36964E-02 7.00336E-04-8.91809E-14
 -1      1670 1.39043E-02 6.04352E-04-8.98493E-14
 -1      1671 1.32688E-02 8.75120E-04-8.75748E-14
 -1      1672 1.34683E-02 8.03302E-04-8.83055E-14
 -1      1673 1.28316E-02 9.78976E-04-8.58400E-14
 -1      1674 1.30342E-02 9.40688E-04-8.66612E-14
 -1      1675 1.23944E-02 9.92663E-04-8.39759E-14
 -1      1676 1.25902E-02 1.00419E-03-8.48437E-14
 -1      1677 1.19767E-02 8.94145E-04-8.22519E-14
 -1      1678 1.21612E-02 9.46777E-04-8.30135E-14
 -1      1679 1.15683E-02 7.35613E-04-8.06784E-14
 -1      1680 1.17565E-02 8.15477E-04-8.13828E-14
 -1      1681 1.11615E-02 5.43694E-04-7.92769E-14
 -1      1682 1.13471E-02 6.34439E-04-7.98954E-14
 -1      1683 1.07969E-02 3.46094E-04-7.80518E-14
 -1      1684 1.09624E-02 4.30827E-04-7.85491E-14
 -1      1685 1.04812E-02 1.90980E-04-7.72462E-14
 -1      1686 1.06126E-02 2.62998E-04-7.76088E-14
 -1      1687 1.02834E-02 5.95345E-05-7.67160E-14
 -1      1688 1.03593E-02 1.15522E-04-7.69150E-14
 -1      1689 1.02152E-02-5.24964E-05-7.65215E-14
 -1      1690 1.02294E-02-2.21445E-06-7.65697E-14
 -1      1691 1.02990E-02-1.74735E-04-7.66718E-14
 -1      1692 1.02391E-02-1.15757E-04-7.65308E-14
 -1      1693 1.05183E-02-3.25638E-04-7.73066E-14
 -1      1694 1.04037E-02-2.56544E-04-7.70117E-14
 -1      1695 1.08512E-02-4.94427E-04-7.81363E-14
 -1      1696 1.06880E-02-4.07486E-04-7.76774E-14
 -1      1697 1.12185E-02-6.92295E-04-7.93003E-14
 -1      1698 1.10468E-02-6.03198E-04-7.87633E-14
 -1      1699 1.15934E-02-8.81009E-04-8.06211E-14
 -1      1700 1.14173E-02-7.97131E-04-8.00068E-14
 -1      1701 1.19729E-02-1.03524E-03-8.20573E-14
 -1      1702 1.17985E-02-9.69337E-04-8.13786E-14
 -1      1703 1.23528E-02-1.13329E-03-8.36106E-14
 -1      1704 1.21773E-02-1.09605E-03-8.28826E-14
 -1      1705 1.27544E-02-1.15524E-03-8.53112E-14
 -1      1706 1.25667E-02-1.15739E-03-8.45118E-14
 -1      1707 1.31603E-02-1.08397E-03-8.69540E-14
 -1      1708 1.29751E-02-1.12630E-03-8.62130E-14
 -1      1709 1.35736E-02-9.38660E-04-8.85294E-14
 -1      1710 1.33784E-02-1.01434E-03-8.78232E-14
 -1      1711 1.39944E-02-7.52297E-04-8.99238E-14
 -1      1712 1.38022E-02-8.40968E-04-8.93123E-14
 -1      1713 1.44039E-02-5.63574E-04-9.10675E-14
 -1      1714 1.42213E-02-6.52211E-04-9.05578E-14
 -1      1715 1.47444E-02-3.92522E-04-9.19539E-14
 -1      1716 1.45970E-02-4.67627E-04-9.15833E-14
 -1      1717 1.49925E-02-2.45919E-04-9.26035E-14
 -1      1718 1.48903E-02-3.07472E-04-9.23584E-14
 -1      1719 1.51173E-02-1.22323E-04-9.29450E-14
 -1      1720 1.50782E-02-1.75518E-04-9.28489E-14
 -1      1721 1.39517E-02 5.05579E-04-9.06044E-14
 -1      1722 1.43969E-02 2.88616E-04-9.18452E-14
 -1      1723 1.43807E-02 1.60168E-04-1.09088E-13
 -1      1724 1.43039E-02 2.23582E-04-1.07608E-13
 -1      1725 1.50392E-02-8.71731E-06-9.33598E-14
 -1      1726 1.47784E-02 1.09468E-04-9.28319E-14
 -1      1727 1.51291E-02-9.36491E-05-9.35648E-14
 -1      1728 1.35120E-02 7.32284E-04-8.90810E-14
 -1      1729 1.30963E-02 9.18994E-04-8.72900E-14
 -1      1730 1.26857E-02 1.01979E-03-8.53791E-14
 -1      1731 1.23113E-02 9.95288E-04-8.34214E-14
 -1      1732 1.19217E-02 8.57704E-04-8.15932E-14
 -1      1733 1.15243E-02 6.59902E-04-7.99449E-14
 -1      1734 1.11219E-02 4.37233E-04-7.84388E-14
 -1      1735 1.07427E-02 2.45509E-04-7.72747E-14
 -1      1736 1.04327E-02 1.04934E-04-7.65041E-14
 -1      1737 1.02496E-02 5.22050E-06-7.60289E-14
 -1      1738 1.02171E-02-7.47729E-05-7.58939E-14
 -1      1739 1.03526E-02-1.70331E-04-7.62434E-14
 -1      1740 1.06344E-02-3.08883E-04-7.69516E-14
 -1      1741 1.10004E-02-4.90184E-04-7.79428E-14
 -1      1742 1.13846E-02-7.07958E-04-7.92714E-14
 -1      1743 1.17601E-02-9.14902E-04-8.07318E-14
 -1      1744 1.21206E-02-1.07965E-03-8.23098E-14
 -1      1745 1.24758E-02-1.17315E-03-8.40332E-14
 -1      1746 1.28338E-02-1.16532E-03-8.58326E-14
 -1      1747 1.32129E-02-1.05326E-03-8.76036E-14
 -1      1748 1.36122E-02-8.65613E-04-8.92536E-14
 -1      1749 1.40391E-02-6.51510E-04-9.06686E-14
 -1      1750 1.44519E-02-4.52905E-04-9.18168E-14
 -1      1751 1.47974E-02-2.89642E-04-9.27388E-14
 -1      1752 1.50393E-02-1.72450E-04-9.33879E-14
 -1      1753 2.85263E-04-1.76224E-04-3.65647E-17
 -1      1754 3.32178E-04-1.16754E-04-1.53266E-16
 -1      1755 3.36334E-04-1.33001E-04-1.41502E-16
 -1      1756 3.42230E-04-1.51989E-04-1.27556E-16
 -1      1757 3.51788E-04-1.73994E-04-1.08515E-16
 -1      1758 4.58352E-04-1.88065E-04-2.05090E-16
 -1      1759 3.24546E-04-6.53639E-05-1.79910E-16
 -1      1760 3.25696E-04-7.66519E-05-1.75370E-16
 -1      1761 3.23056E-04-4.38753E-05-1.86307E-16
 -1      1762 3.23710E-04-5.43619E-05-1.83366E-16
 -1      1763 4.36485E-04-7.92739E-05-2.68503E-16
 -1      1764 3.22271E-04-2.37634E-05-1.89844E-16
 -1      1765 3.22603E-04-3.36734E-05-1.88312E-16
 -1      1766 4.34490E-04-5.13029E-05-2.76336E-16
 -1      1767 3.21977E-04-4.33587E-06-1.91877E-16
 -1      1768 3.22074E-04-1.39847E-05-1.90996E-16
 -1      1769 4.33468E-04-2.49161E-05-2.80890E-16
 -1      1770 3.22100E-04 1.49750E-05-1.92039E-16
 -1      1771 3.21985E-04 5.31612E-06-1.92256E-16
 -1      1772 4.33171E-04 7.56757E-07-2.83004E-16
 -1      1773 3.22667E-04 3.47170E-05-1.90223E-16
 -1      1774 3.22315E-04 2.47745E-05-1.91280E-16
 -1      1775 4.33527E-04 2.64582E-05-2.82408E-16
 -1      1776 3.23798E-04 5.51480E-05-1.86279E-16
 -1      1777 3.23134E-04 4.47884E-05-1.88651E-16
 -1      1778 4.34605E-04 5.27053E-05-2.79033E-16
 -1      1779 3.25859E-04 7.77942E-05-1.79381E-16
 -1      1780 3.24659E-04 6.62156E-05-1.83325E-16
 -1      1781 4.36664E-04 8.05775E-05-2.72839E-16
 -1      1782 3.29553E-04 1.03629E-04-1.67631E-16
 -1      1783 3.27402E-04 9.02802E-05-1.74448E-16
 -1      1784 4.40318E-04 1.11541E-04-2.61875E-16
 -1      1785 3.36593E-04 1.35087E-04-1.48400E-16
 -1      1786 3.32408E-04 1.18588E-04-1.59378E-16
 -1      1787 4.46795E-04 1.47308E-04-2.43864E-16
 -1      1788 3.52325E-04 1.77584E-04-1.16525E-16
 -1      1789 3.42827E-04 1.54736E-04-1.34617E-16
 -1      1790 4.59338E-04 1.91429E-04-2.14645E-16
 -1      1791 4.07730E-04 2.33669E-04-9.61010E-17
 -1      1792 3.78117E-04 2.02643E-04-1.10223E-16
 -1      1793 4.95889E-04 2.43971E-04-1.88882E-16
 -1      1794 5.58591E-04 3.02483E-04-1.69407E-16
 -1      1795 3.40049E-04-1.90896E-04-7.33869E-17
 -1      1796 8.53641E-04 4.07092E-04-4.17269E-16
 -1      1797 7.07222E-04 3.59352E-04-2.77230E-16
 -1      1798 6.73452E-04 3.28783E-04-2.89468E-16
 -1      1799 4.58988E-04-2.36697E-04-1.39293E-16
 -1      1800 8.07296E-04-3.74085E-04-3.89459E-16
 -1      1801 9.52577E-04-4.15269E-04-5.52238E-16
 -1      1802 1.09543E-03-4.49960E-04-7.46338E-16
 -1      1803 1.23712E-03-4.78859E-04-9.72028E-16
 -1      1804 1.00400E-03-3.97884E-04-6.90962E-16
 -1      1805 1.37754E-03-5.03349E-04-1.22852E-15
 -1      1806 1.51724E-03-5.23729E-04-1.51700E-15
 -1      1807 1.28971E-03-4.55856E-04-1.15065E-15
 -1      1808 1.65642E-03-5.40917E-04-1.83648E-15
 -1      1809 1.79528E-03-5.55153E-04-2.18682E-15
 -1      1810 1.57214E-03-4.96815E-04-1.73383E-15
 -1      1811 1.93402E-03-5.67046E-04-2.56761E-15
 -1      1812 2.07270E-03-5.76800E-04-2.97925E-15
 -1      1813 1.85279E-03-5.25382E-04-2.44016E-15
 -1      1814 2.21147E-03-5.84832E-04-3.42157E-15
 -1      1815 2.35032E-03-5.91314E-04-3.89344E-15
 -1      1816 2.13272E-03-5.44899E-04-3.26815E-15
 -1      1817 2.48939E-03-5.96542E-04-4.39502E-15
 -1      1818 2.62862E-03-6.00657E-04-4.92575E-15
 -1      1819 2.41261E-03-5.57819E-04-4.21486E-15
 -1      1820 2.76810E-03-6.03871E-04-5.48581E-15
 -1      1821 2.90779E-03-6.06297E-04-6.07389E-15
 -1      1822 2.69287E-03-5.65979E-04-5.27894E-15
 -1      1823 3.04773E-03-6.08087E-04-6.69011E-15
 -1      1824 3.18789E-03-6.09328E-04-7.33404E-15
 -1      1825 2.97369E-03-5.70749E-04-6.45675E-15
 -1      1826 3.32830E-03-6.10130E-04-8.00557E-15
 -1      1827 3.46891E-03-6.10557E-04-8.70425E-15
 -1      1828 3.25516E-03-5.73151E-04-7.74507E-15
 -1      1829 3.60974E-03-6.10686E-04-9.42970E-15
 -1      1830 3.75076E-03-6.10564E-04-1.01810E-14
 -1      1831 3.53729E-03-5.73931E-04-9.14240E-15
 -1      1832 3.89197E-03-6.10242E-04-1.09572E-14
 -1      1833 4.03334E-03-6.09753E-04-1.17585E-14
 -1      1834 3.82003E-03-5.73620E-04-1.06439E-14
 -1      1835 4.17489E-03-6.09129E-04-1.25841E-14
 -1      1836 4.31656E-03-6.08393E-04-1.34338E-14
 -1      1837 4.10332E-03-5.72585E-04-1.22453E-14
 -1      1838 4.45839E-03-6.07560E-04-1.43057E-14
 -1      1839 4.60033E-03-6.06644E-04-1.52000E-14
 -1      1840 4.38711E-03-5.71062E-04-1.39428E-14
 -1      1841 4.74239E-03-6.05649E-04-1.61185E-14
 -1      1842 4.88456E-03-6.04584E-04-1.70566E-14
 -1      1843 4.67132E-03-5.69188E-04-1.57317E-14
 -1      1844 5.02684E-03-6.03442E-04-1.80155E-14
 -1      1845 5.16921E-03-6.02226E-04-1.89957E-14
 -1      1846 4.95591E-03-5.67019E-04-1.76075E-14
 -1      1847 5.31168E-03-6.00924E-04-1.99971E-14
 -1      1848 5.45425E-03-5.99536E-04-2.10179E-14
 -1      1849 5.24085E-03-5.64553E-04-1.95669E-14
 -1      1850 5.59692E-03-5.98041E-04-2.20591E-14
 -1      1851 5.73970E-03-5.96439E-04-2.31203E-14
 -1      1852 5.52614E-03-5.61741E-04-2.16091E-14
 -1      1853 5.88259E-03-5.94705E-04-2.42008E-14
 -1      1854 6.02561E-03-5.92836E-04-2.53005E-14
 -1      1855 5.81180E-03-5.58497E-04-2.37304E-14
 -1      1856 6.16877E-03-5.90807E-04-2.64198E-14
 -1      1857 6.31209E-03-5.88614E-04-2.75587E-14
 -1      1858 6.09788E-03-5.54714E-04-2.59298E-14
 -1      1859 6.45558E-03-5.86231E-04-2.87160E-14
 -1      1860 6.59928E-03-5.83657E-04-2.98931E-14
 -1      1861 6.38449E-03-5.50270E-04-2.82059E-14
 -1      1862 6.74320E-03-5.80867E-04-3.10897E-14
 -1      1863 6.88741E-03-5.77868E-04-3.23036E-14
 -1      1864 6.67176E-03-5.45047E-04-3.05593E-14
 -1      1865 7.03190E-03-5.74637E-04-3.35368E-14
 -1      1866 7.17677E-03-5.71192E-04-3.47867E-14
 -1      1867 6.95989E-03-5.38948E-04-3.29869E-14
 -1      1868 7.32201E-03-5.67520E-04-3.60527E-14
 -1      1869 7.46773E-03-5.63653E-04-3.73344E-14
 -1      1870 7.24914E-03-5.31925E-04-3.54844E-14
 -1      1871 7.61394E-03-5.59598E-04-3.86338E-14
 -1      1872 7.76077E-03-5.55406E-04-3.99472E-14
 -1      1873 7.53983E-03-5.24019E-04-3.80478E-14
 -1      1874 7.90822E-03-5.51116E-04-4.12762E-14
 -1      1875 8.05646E-03-5.46810E-04-4.26221E-14
 -1      1876 7.83235E-03-5.15414E-04-4.06732E-14
 -1      1877 8.20547E-03-5.42573E-04-4.39820E-14
 -1      1878 8.35544E-03-5.38528E-04-4.53571E-14
 -1      1879 8.12717E-03-5.06516E-04-4.33620E-14
 -1      1880 8.50638E-03-5.34832E-04-4.67474E-14
 -1      1881 8.65848E-03-5.31665E-04-4.81515E-14
 -1      1882 8.42485E-03-4.98062E-04-4.61106E-14
 -1      1883 8.81172E-03-5.29283E-04-4.95693E-14
 -1      1884 8.96634E-03-5.27943E-04-5.10002E-14
 -1      1885 8.72601E-03-4.91261E-04-4.89159E-14
 -1      1886 9.12229E-03-5.28037E-04-5.24436E-14
 -1      1887 9.27978E-03-5.29916E-04-5.38963E-14
 -1      1888 9.03131E-03-4.87980E-04-5.17744E-14
 -1      1889 9.43881E-03-5.34145E-04-5.53607E-14
 -1      1890 9.59946E-03-5.41189E-04-5.68362E-14
 -1      1891 9.34148E-03-4.90960E-04-5.46789E-14
 -1      1892 9.76179E-03-5.51798E-04-5.83227E-14
 -1      1893 9.92569E-03-5.66557E-04-5.98169E-14
 -1      1894 9.65725E-03-5.04027E-04-5.76266E-14
 -1      1895 1.00913E-02-5.86357E-04-6.13197E-14
 -1      1896 1.02583E-02-6.11870E-04-6.28293E-14
 -1      1897 9.97929E-03-5.32218E-04-6.06127E-14
 -1      1898 1.04269E-02-6.43972E-04-6.43476E-14
 -1      1899 1.05962E-02-6.83287E-04-6.58715E-14
 -1      1900 1.03081E-02-5.81604E-04-6.36312E-14
 -1      1901 1.07668E-02-7.30344E-04-6.73972E-14
 -1      1902 1.09370E-02-7.85385E-04-6.89315E-14
 -1      1903 1.06436E-02-6.58467E-04-6.66757E-14
 -1      1904 1.11076E-02-8.48066E-04-7.04720E-14
 -1      1905 1.12764E-02-9.17679E-04-7.20152E-14
 -1      1906 1.09846E-02-7.67245E-04-6.97408E-14
 -1      1907 1.14440E-02-9.92433E-04-7.35652E-14
 -1      1908 1.16083E-02-1.06994E-03-7.51247E-14
 -1      1909 1.13273E-02-9.06699E-04-7.28290E-14
 -1      1910 1.17693E-02-1.14673E-03-7.66935E-14
 -1      1911 1.19259E-02-1.21864E-03-7.82670E-14
 -1      1912 1.16651E-02-1.06450E-03-7.59449E-14
 -1      1913 1.20777E-02-1.28115E-03-7.98521E-14
 -1      1914 1.22258E-02-1.32962E-03-8.14506E-14
 -1      1915 1.19901E-02-1.21335E-03-7.90984E-14
 -1      1916 1.23692E-02-1.36032E-03-8.30565E-14
 -1      1917 1.25114E-02-1.37051E-03-8.46735E-14
 -1      1918 1.22985E-02-1.31506E-03-8.22879E-14
 -1      1919 1.26512E-02-1.35920E-03-8.62931E-14
 -1      1920 1.27925E-02-1.32726E-03-8.79164E-14
 -1      1921 1.25951E-02-1.33678E-03-8.55144E-14
 -1      1922 1.29343E-02-1.27675E-03-8.95508E-14
 -1      1923 1.30787E-02-1.21125E-03-9.11858E-14
 -1      1924 1.28916E-02-1.27013E-03-8.87634E-14
 -1      1925 1.32250E-02-1.13435E-03-9.28230E-14
 -1      1926 1.33729E-02-1.04986E-03-9.44661E-14
 -1      1927 1.31960E-02-1.13495E-03-9.20318E-14
 -1      1928 1.35224E-02-9.60808E-04-9.61117E-14
 -1      1929 1.36719E-02-8.69411E-04-9.77596E-14
 -1      1930 1.35077E-02-9.63486E-04-9.53106E-14
 -1      1931 1.38217E-02-7.77126E-04-9.94129E-14
 -1      1932 1.39701E-02-6.84392E-04-1.01070E-13
 -1      1933 1.38196E-02-7.81005E-04-9.86058E-14
 -1      1934 1.40987E-02-6.02841E-04-1.02558E-13
 -1      1935 1.42446E-02-5.08835E-04-1.04225E-13
 -1      1936 1.43640E-02-4.46990E-04-1.04725E-13
 -1      1937 1.41058E-02-6.09358E-04-1.01743E-13
 -1      1938 1.13872E-03 4.80057E-04-7.93026E-16
 -1      1939 9.96939E-04 4.46804E-04-5.88979E-16
 -1      1940 9.64547E-04 4.17347E-04-6.01068E-16
 -1      1941 1.41787E-03 5.31549E-04-1.29668E-15
 -1      1942 1.27870E-03 5.08094E-04-1.02877E-15
 -1      1943 1.24905E-03 4.79954E-04-1.03925E-15
 -1      1944 1.69429E-03 5.67863E-04-1.92759E-15
 -1      1945 1.55624E-03 5.51358E-04-1.59633E-15
 -1      1946 1.52935E-03 5.24182E-04-1.60387E-15
 -1      1947 1.96990E-03 5.93180E-04-2.68484E-15
 -1      1948 1.83210E-03 5.81726E-04-2.29055E-15
 -1      1949 1.80763E-03 5.55187E-04-2.29459E-15
 -1      1950 2.24577E-03 6.10458E-04-3.56436E-15
 -1      1951 2.10776E-03 6.02698E-04-3.10963E-15
 -1      1952 2.08528E-03 5.76564E-04-3.10899E-15
 -1      1953 2.52247E-03 6.21875E-04-4.56289E-15
 -1      1954 2.38400E-03 6.16805E-04-4.04893E-15
 -1      1955 2.36313E-03 5.90917E-04-4.04340E-15
 -1      1956 2.80025E-03 6.29064E-04-5.67623E-15
 -1      1957 2.66122E-03 6.25928E-04-5.10491E-15
 -1      1958 2.64163E-03 6.00180E-04-5.09404E-15
 -1      1959 3.07917E-03 6.33245E-04-6.90379E-15
 -1      1960 2.93957E-03 6.31478E-04-6.27604E-15
 -1      1961 2.92097E-03 6.05801E-04-6.25922E-15
 -1      1962 3.35920E-03 6.35326E-04-8.24170E-15
 -1      1963 3.21906E-03 6.34510E-04-7.55921E-15
 -1      1964 3.20122E-03 6.08858E-04-7.53648E-15
 -1      1965 3.64025E-03 6.35967E-04-9.68735E-15
 -1      1966 3.49961E-03 6.35800E-04-8.95120E-15
 -1      1967 3.48235E-03 6.10145E-04-8.92225E-15
 -1      1968 3.92218E-03 6.35637E-04-1.12372E-14
 -1      1969 3.78111E-03 6.35905E-04-1.04491E-14
 -1      1970 3.76430E-03 6.10233E-04-1.04130E-14
 -1      1971 4.20487E-03 6.34655E-04-1.28893E-14
 -1      1972 4.06344E-03 6.35216E-04-1.20509E-14
 -1      1973 4.04696E-03 6.09521E-04-1.20076E-14
 -1      1974 4.48821E-03 6.33223E-04-1.46400E-14
 -1      1975 4.34647E-03 6.33989E-04-1.37529E-14
 -1      1976 4.33025E-03 6.08269E-04-1.37024E-14
 -1      1977 4.77210E-03 6.31451E-04-1.64838E-14
 -1      1978 4.63009E-03 6.32376E-04-1.55500E-14
 -1      1979 4.61406E-03 6.06635E-04-1.54923E-14
 -1      1980 5.05645E-03 6.29379E-04-1.84149E-14
 -1      1981 4.91422E-03 6.30452E-04-1.74387E-14
 -1      1982 4.89834E-03 6.04694E-04-1.73739E-14
 -1      1983 5.34123E-03 6.26992E-04-2.04315E-14
 -1      1984 5.19879E-03 6.28227E-04-1.94130E-14
 -1      1985 5.18302E-03 6.02456E-04-1.93416E-14
 -1      1986 5.62643E-03 6.24237E-04-2.25298E-14
 -1      1987 5.48378E-03 6.25664E-04-2.14702E-14
 -1      1988 5.46810E-03 5.99886E-04-2.13933E-14
 -1      1989 5.91208E-03 6.21029E-04-2.47042E-14
 -1      1990 5.76920E-03 6.22694E-04-2.36077E-14
 -1      1991 5.75358E-03 5.96911E-04-2.35237E-14
 -1      1992 6.19828E-03 6.17266E-04-2.69532E-14
 -1      1993 6.05511E-03 6.19220E-04-2.58195E-14
 -1      1994 6.03952E-03 5.93433E-04-2.57310E-14
 -1      1995 6.48516E-03 6.12844E-04-2.92728E-14
 -1      1996 6.34162E-03 6.15140E-04-2.81045E-14
 -1      1997 6.32602E-03 5.89344E-04-2.80106E-14
 -1      1998 6.77292E-03 6.07673E-04-3.16620E-14
 -1      1999 6.62891E-03 6.10352E-04-3.04597E-14
 -1      2000 6.61324E-03 5.84538E-04-3.03604E-14
 -1      2001 7.06184E-03 6.01699E-04-3.41147E-14
 -1      2002 6.91721E-03 6.04781E-04-3.28798E-14
 -1      2003 6.90138E-03 5.78932E-04-3.27751E-14
 -1      2004 7.35230E-03 5.94941E-04-3.66277E-14
 -1      2005 7.20685E-03 5.98405E-04-3.53630E-14
 -1      2006 7.19072E-03 5.72492E-04-3.52527E-14
 -1      2007 7.64474E-03 5.87535E-04-3.92022E-14
 -1      2008 7.49823E-03 5.91296E-04-3.79077E-14
 -1      2009 7.48163E-03 5.65273E-04-3.77923E-14
 -1      2010 7.93971E-03 5.79798E-04-4.18343E-14
 -1      2011 7.79186E-03 5.83670E-04-4.05114E-14
 -1      2012 7.77454E-03 5.57475E-04-4.03930E-14
 -1      2013 8.23785E-03 5.72314E-04-4.45280E-14
 -1      2014 8.08833E-03 5.75966E-04-4.31735E-14
 -1      2015 8.06997E-03 5.49510E-04-4.30521E-14
 -1      2016 8.53985E-03 5.66047E-04-4.72819E-14
 -1      2017 8.38830E-03 5.68943E-04-4.58971E-14
 -1      2018 8.36851E-03 5.42104E-04-4.57715E-14
 -1      2019 8.84644E-03 5.62477E-04-5.00938E-14
 -1      2020 8.69251E-03 5.63806E-04-4.86805E-14
 -1      2021 8.67079E-03 5.36420E-04-4.85515E-14
 -1      2022 9.15826E-03 5.63759E-04-5.29565E-14
 -1      2023 9.00163E-03 5.62354E-04-5.15192E-14
 -1      2024 8.97744E-03 5.34206E-04-5.13864E-14
 -1      2025 9.47575E-03 5.72857E-04-5.58641E-14
 -1      2026 9.31626E-03 5.67132E-04-5.44055E-14
 -1      2027 9.28902E-03 5.37957E-04-5.42686E-14
 -1      2028 9.79897E-03 5.93603E-04-5.88134E-14
 -1      2029 9.63665E-03 5.81544E-04-5.73340E-14
 -1      2030 9.60593E-03 5.51027E-04-5.71938E-14
 -1      2031 1.01273E-02 6.30518E-04-6.18046E-14
 -1      2032 9.96258E-03 6.09809E-04-6.03032E-14
 -1      2033 9.92817E-03 5.77625E-04-6.01625E-14
 -1      2034 1.04591E-02 6.88160E-04-6.48416E-14
 -1      2035 1.02930E-02 6.56585E-04-6.33177E-14
 -1      2036 1.02552E-02 6.22487E-04-6.31726E-14
 -1      2037 1.07915E-02 7.69700E-04-6.79170E-14
 -1      2038 1.06256E-02 7.25967E-04-6.63737E-14
 -1      2039 1.05856E-02 6.89962E-04-6.62254E-14
 -1      2040 1.11201E-02 8.74505E-04-7.10284E-14
 -1      2041 1.09568E-02 8.19571E-04-6.94691E-14
 -1      2042 1.09166E-02 7.82185E-04-6.93166E-14
 -1      2043 1.14398E-02 9.95072E-04-7.41731E-14
 -1      2044 1.12816E-02 9.33692E-04-7.25974E-14
 -1      2045 1.12442E-02 8.96223E-04-7.24393E-14
 -1      2046 1.17452E-02 1.11481E-03-7.73464E-14
 -1      2047 1.15946E-02 1.05641E-03-7.57556E-14
 -1      2048 1.15629E-02 1.02091E-03-7.55952E-14
 -1      2049 1.20337E-02 1.20921E-03-8.05538E-14
 -1      2050 1.18915E-02 1.16669E-03-7.89456E-14
 -1      2051 1.18680E-02 1.13536E-03-7.87785E-14
 -1      2052 1.23076E-02 1.25285E-03-8.37957E-14
 -1      2053 1.21719E-02 1.23844E-03-8.21713E-14
 -1      2054 1.21579E-02 1.21252E-03-8.19989E-14
 -1      2055 1.25735E-02 1.22968E-03-8.70675E-14
 -1      2056 1.24407E-02 1.24972E-03-8.54279E-14
 -1      2057 1.24364E-02 1.22872E-03-8.52515E-14
 -1      2058 1.28400E-02 1.14023E-03-9.03637E-14
 -1      2059 1.27060E-02 1.19239E-03-8.87129E-14
 -1      2060 1.27115E-02 1.17444E-03-8.85301E-14
 -1      2061 1.31127E-02 9.99762E-04-9.36803E-14
 -1      2062 1.29753E-02 1.07510E-03-9.20208E-14
 -1      2063 1.29905E-02 1.05827E-03-9.18304E-14
 -1      2064 1.33927E-02 8.28770E-04-9.70183E-14
 -1      2065 1.32519E-02 9.17017E-04-9.53475E-14
 -1      2066 1.32762E-02 9.00282E-04-9.51537E-14
 -1      2067 1.36774E-02 6.43576E-04-1.00374E-13
 -1      2068 1.35348E-02 7.37413E-04-9.86942E-14
 -1      2069 1.35667E-02 7.20804E-04-9.84948E-14
 -1      2070 1.39636E-02 4.52379E-04-1.03747E-13
 -1      2071 1.38206E-02 5.48583E-04-1.02059E-13
 -1      2072 1.38581E-02 5.32567E-04-1.01855E-13
 -1      2073 1.42053E-02 2.89640E-04-1.06521E-13
 -1      2074 1.40624E-02 3.87009E-04-1.04832E-13
 -1      2075 1.41027E-02 3.71570E-04-1.04627E-13
 -1      2076 1.43013E-02 2.40354E-04-1.06798E-13
 -1      2077 1.48471E-02 3.06787E-05-1.06248E-13
 -1      2078 1.47321E-02 6.91988E-05-1.06282E-13
 -1      2079 1.46228E-02 1.10510E-04-1.06313E-13
 -1      2080 1.45186E-02 1.52214E-04-1.06348E-13
 -1      2081 1.45480E-02 1.65873E-04-1.04845E-13
 -1      2082 1.44563E-02 1.75219E-04-1.06559E-13
 -1      2083 1.43596E-02 2.17668E-04-1.06588E-13
 -1      2084 1.42596E-02 2.83054E-04-1.05502E-13
 -1      2085 1.43788E-02 2.35420E-04-1.05083E-13
 -1      2086 1.50851E-02-3.64651E-05-1.06172E-13
 -1      2087 1.49646E-02-5.21008E-06-1.06210E-13
 -1      2088 1.47758E-02 7.91007E-05-1.04781E-13
 -1      2089 1.53261E-02-8.52311E-05-1.06094E-13
 -1      2090 1.52075E-02-6.40500E-05-1.06135E-13
 -1      2091 1.50219E-02 1.42728E-06-1.04710E-13
 -1      2092 1.55299E-02-1.08291E-04-1.06019E-13
 -1      2093 1.54354E-02-9.99348E-05-1.06056E-13
 -1      2094 1.52657E-02-5.79565E-05-1.04639E-13
 -1      2095 1.56514E-02-1.07605E-04-1.05946E-13
 -1      2096 1.56036E-02-1.09657E-04-1.05980E-13
 -1      2097 1.54629E-02-9.06826E-05-1.04568E-13
 -1      2098 1.56577E-02-9.64714E-05-1.05883E-13
 -1      2099 1.56699E-02-1.01220E-04-1.05913E-13
 -1      2100 1.55636E-02-9.98742E-05-1.04503E-13
 -1      2101 1.55479E-02-9.42115E-05-1.05840E-13
 -1      2102 1.56158E-02-9.23907E-05-1.05860E-13
 -1      2103 1.55375E-02-1.02802E-04-1.04453E-13
 -1      2104 1.53573E-02-1.14273E-04-1.05816E-13
 -1      2105 1.54602E-02-1.00869E-04-1.05824E-13
 -1      2106 1.53960E-02-1.20832E-04-1.04417E-13
 -1      2107 1.51233E-02-1.60099E-04-1.05802E-13
 -1      2108 1.52428E-02-1.34446E-04-1.05808E-13
 -1      2109 1.51806E-02-1.64875E-04-1.04388E-13
 -1      2110 1.48855E-02-2.25941E-04-1.05790E-13
 -1      2111 1.50033E-02-1.91451E-04-1.05794E-13
 -1      2112 1.49366E-02-2.32883E-04-1.04366E-13
 -1      2113 1.46632E-02-3.03609E-04-1.05776E-13
 -1      2114 1.47720E-02-2.64187E-04-1.05783E-13
 -1      2115 1.46996E-02-3.15064E-04-1.04344E-13
 -1      2116 1.46738E-02 9.62072E-05-9.33622E-14
 -1      2117 1.48425E-02 3.34152E-05-9.37534E-14
 -1      2118 1.51321E-02-8.15171E-05-9.43149E-14
 -1      2119 1.51344E-02-1.00754E-04-9.43836E-14
 -1      2120 1.49951E-02-2.12473E-05-9.40245E-14
 -1      2121 1.50840E-02-5.15526E-05-9.41605E-14
 -1      2122 1.42473E-02 2.94326E-04-9.21368E-14
 -1      2123 1.44516E-02 1.95758E-04-9.27280E-14
 -1      2124 1.38037E-02 5.15357E-04-9.09013E-14
 -1      2125 1.40201E-02 4.01749E-04-9.15471E-14
 -1      2126 3.27170E-04-8.89447E-05-1.69718E-16
 -1      2127 3.29257E-04-1.02114E-04-1.62197E-16
 -1      2128 4.46298E-04-1.45078E-04-2.35828E-16
 -1      2129 4.39993E-04-1.09913E-04-2.55655E-16
 -1      2130 1.29626E-02 9.63488E-04-8.70800E-14
 -1      2131 1.31366E-02 8.85274E-04-8.79947E-14
 -1      2132 1.26109E-02 1.04539E-03-8.50833E-14
 -1      2133 1.27788E-02 1.01855E-03-8.60807E-14
 -1      2134 1.28563E-02 9.97279E-04-8.67826E-14
 -1      2135 1.22241E-02 9.77825E-04-8.27553E-14
 -1      2136 1.23886E-02 1.02751E-03-8.37155E-14
 -1      2137 1.18744E-02 8.13672E-04-8.08912E-14
 -1      2138 1.20433E-02 9.03786E-04-8.17566E-14
 -1      2139 1.14778E-02 5.86233E-04-7.91454E-14
 -1      2140 1.16649E-02 6.97442E-04-7.99242E-14
 -1      2141 1.10792E-02 3.59880E-04-7.76262E-14
 -1      2142 1.12693E-02 4.68329E-04-7.83483E-14
 -1      2143 1.06683E-02 1.67056E-04-7.64630E-14
 -1      2144 1.08437E-02 2.43068E-04-7.69011E-14
 -1      2145 1.03826E-02 4.41840E-05-7.55592E-14
 -1      2146 1.05073E-02 9.16250E-05-7.58877E-14
 -1      2147 1.02215E-02-2.26752E-05-7.53013E-14
 -1      2148 1.02778E-02 4.00852E-06-7.54453E-14
 -1      2149 1.02248E-02-7.45315E-05-7.50230E-14
 -1      2150 1.01997E-02-5.31991E-05-7.50128E-14
 -1      2151 1.04214E-02-1.68138E-04-7.57944E-14
 -1      2152 1.03111E-02-1.21647E-04-7.54555E-14
 -1      2153 1.07300E-02-2.94457E-04-7.64422E-14
 -1      2154 1.05648E-02-2.26052E-04-7.60759E-14
 -1      2155 1.11389E-02-5.07683E-04-7.77338E-14
 -1      2156 1.09514E-02-4.04642E-04-7.71119E-14
 -1      2157 1.15301E-02-7.41427E-04-7.92113E-14
 -1      2158 1.13519E-02-6.31193E-04-7.85090E-14
 -1      2159 1.18929E-02-9.55500E-04-8.07460E-14
 -1      2160 1.17288E-02-8.55908E-04-7.99922E-14
 -1      2161 1.22002E-02-1.11248E-03-8.23818E-14
 -1      2162 1.20485E-02-1.04038E-03-8.15622E-14
 -1      2163 1.19770E-02-9.91591E-04-8.08170E-14
 -1      2164 1.25497E-02-1.20324E-03-8.43891E-14
 -1      2165 1.24013E-02-1.17801E-03-8.34915E-14
 -1      2166 1.28944E-02-1.16262E-03-8.64298E-14
 -1      2167 1.27405E-02-1.19777E-03-8.55298E-14
 -1      2168 1.32261E-02-1.02460E-03-8.81653E-14
 -1      2169 1.30585E-02-1.10583E-03-8.72975E-14
 -1      2170 1.29474E-02-1.14398E-03-8.69930E-14
 -1      2171 1.36526E-02-7.91350E-04-9.00486E-14
 -1      2172 1.34612E-02-9.01123E-04-8.92676E-14
 -1      2173 1.41007E-02-5.58538E-04-9.14835E-14
 -1      2174 1.38954E-02-6.65362E-04-9.08515E-14
 -1      2175 1.45099E-02-3.64242E-04-9.26412E-14
 -1      2176 1.43204E-02-4.51186E-04-9.21242E-14
 -1      2177 1.48472E-02-2.19784E-04-9.36397E-14
 -1      2178 1.46968E-02-2.77834E-04-9.32358E-14
 -1      2179 1.50789E-02-1.32631E-04-9.43578E-14
 -1      2180 1.49891E-02-1.62704E-04-9.41124E-14
 -1      2181 1.33466E-02 7.81465E-04-8.89532E-14
 -1      2182 1.35398E-02 6.66953E-04-8.98300E-14
 -1      2183 1.41114E-02 3.20202E-04-9.24336E-14
 -1      2184 6.07923E-04-2.98100E-04-2.31992E-16
 -1      2185 1.36472E-02 5.77801E-04-9.07727E-14
 -1      2186 1.32046E-02 8.34780E-04-8.87412E-14
 -1      2187 6.63640E-04-2.92381E-04-3.21696E-16
 -1      2188 1.49228E-02-1.40862E-05-9.45581E-14
 -1      2189 1.51177E-02-7.53302E-05-9.49819E-14
 -1      2190 1.45371E-02-3.63128E-04-1.05279E-13
 -1      2191 1.45523E-02 1.19567E-04-9.36548E-14
 -1      2192 1.51210E-02-1.10800E-04-9.51097E-14
 -1      2193 1.49201E-02-1.71205E-04-9.46118E-14
 -1      2194 1.45906E-02-2.94507E-04-9.35441E-14
 -1      2195 1.41911E-02-4.78781E-04-9.23085E-14
 -1      2196 1.33068E-02-9.66450E-04-8.89617E-14
 -1      2197 1.22994E-02-1.15239E-03-8.27374E-14
 -1      2198 1.16564E-02-7.91086E-04-7.92247E-14
 -1      2199 1.12673E-02-5.53102E-04-7.76726E-14
 -1      2200 1.08453E-02-3.25572E-04-7.62320E-14
 -1      2201 1.04942E-02-1.73690E-04-7.52851E-14
 -1      2202 1.02583E-02-8.45446E-05-7.45723E-14
 -1      2203 1.01999E-02-4.15075E-05-7.44282E-14
 -1      2204 1.03254E-02 1.17440E-05-7.48299E-14
 -1      2205 1.05860E-02 1.05554E-04-7.55148E-14
 -1      2206 1.09726E-02 2.82364E-04-7.68107E-14
 -1      2207 1.10868E-02 3.29704E-04-7.67181E-14
 -1      2208 1.08697E-02 2.20439E-04-7.59975E-14
 -1      2209 1.13982E-02 5.17287E-04-7.83270E-14
 -1      2210 1.17870E-02 7.53096E-04-8.00864E-14
 -1      2211 1.24082E-02 1.04270E-03-8.37462E-14
 -1      2212 1.25022E-02 1.05154E-03-8.44158E-14
 -1      2213 1.25931E-02 1.05686E-03-8.51138E-14
 -1      2214 1.21386E-02 9.45958E-04-8.20488E-14
 -1      2215 1.26398E-02-1.21362E-03-8.49847E-14
 -1      2216 1.37483E-02-7.12279E-04-9.08654E-14
 -1      2217 1.01666E-03 3.99785E-04-7.42597E-16
 -1      2218 8.72181E-04 3.63401E-04-5.50544E-16
 -1      2219 5.47754E-04-5.52912E-05-3.94406E-16
 -1      2220 5.48794E-04-7.20064E-05-3.90326E-16
 -1      2221 5.50220E-04-8.93283E-05-3.85000E-16
 -1      2222 5.52086E-04-1.07314E-04-3.78197E-16
 -1      2223 6.65260E-04-9.54785E-05-5.25757E-16
 -1      2224 5.46368E-04 8.85466E-06-4.01534E-16
 -1      2225 5.46348E-04-6.98030E-06-4.01114E-16
 -1      2226 5.47125E-04 4.08604E-05-3.99800E-16
 -1      2227 5.46623E-04 2.47886E-05-4.01182E-16
 -1      2228 6.61297E-04 1.99277E-05-5.43361E-16
 -1      2229 5.48958E-04 7.34768E-05-3.94514E-16
 -1      2230 5.47892E-04 5.69871E-05-3.97631E-16
 -1      2231 6.62628E-04 5.77784E-05-5.40122E-16
 -1      2232 5.52361E-04 1.08945E-04-3.84756E-16
 -1      2233 5.50431E-04 9.08721E-05-3.90340E-16
 -1      2234 6.65498E-04 9.72420E-05-5.31923E-16
 -1      2235 5.58254E-04 1.48276E-04-3.68182E-16
 -1      2236 5.54929E-04 1.28053E-04-3.77492E-16
 -1      2237 6.70604E-04 1.40009E-04-5.17503E-16
 -1      2238 5.68598E-04 1.93872E-04-3.41822E-16
 -1      2239 5.62751E-04 1.70155E-04-3.56553E-16
 -1      2240 6.79270E-04 1.87549E-04-4.94030E-16
 -1      2241 1.30214E-03 4.56730E-04-1.22000E-15
 -1      2242 1.15980E-03 4.30786E-04-9.65712E-16
 -1      2243 1.07183E-03 3.81305E-04-8.89818E-16
 -1      2244 9.15230E-04-3.46342E-04-6.32659E-16
 -1      2245 1.05933E-03-3.79664E-04-8.36110E-16
 -1      2246 1.34978E-02 6.44838E-04-9.07283E-14
 -1      2247 1.37322E-02 5.01935E-04-9.17997E-14
 -1      2248 1.20260E-03-4.08059E-04-1.07015E-15
 -1      2249 1.34541E-03-4.31935E-04-1.33469E-15
 -1      2250 1.11701E-03-3.60490E-04-9.87586E-16
 -1      2251 1.48760E-03-4.52154E-04-1.62968E-15
 -1      2252 1.62938E-03-4.68998E-04-1.95574E-15
 -1      2253 1.40335E-03-4.07256E-04-1.52454E-15
 -1      2254 1.77081E-03-4.83137E-04-2.31186E-15
 -1      2255 1.91200E-03-4.94786E-04-2.69801E-15
 -1      2256 1.68849E-03-4.40502E-04-2.18198E-15
 -1      2257 2.05304E-03-5.04440E-04-3.11371E-15
 -1      2258 2.19396E-03-5.12274E-04-3.55976E-15
 -1      2259 1.97269E-03-4.63567E-04-2.95940E-15
 -1      2260 2.33487E-03-5.18649E-04-4.03479E-15
 -1      2261 2.47576E-03-5.23709E-04-4.53913E-15
 -1      2262 2.25633E-03-4.79091E-04-3.85446E-15
 -1      2263 2.61671E-03-5.27717E-04-5.07230E-15
 -1      2264 2.75771E-03-5.30788E-04-5.63370E-15
 -1      2265 2.53975E-03-4.89113E-04-4.86578E-15
 -1      2266 2.89881E-03-5.33113E-04-6.22313E-15
 -1      2267 3.03999E-03-5.34782E-04-6.84039E-15
 -1      2268 2.82317E-03-4.95185E-04-5.99020E-15
 -1      2269 3.18129E-03-5.35934E-04-7.48483E-15
 -1      2270 3.32269E-03-5.36636E-04-8.15667E-15
 -1      2271 3.10674E-03-4.98474E-04-7.22546E-15
 -1      2272 3.46421E-03-5.36986E-04-8.85556E-15
 -1      2273 3.60582E-03-5.37035E-04-9.58066E-15
 -1      2274 3.39053E-03-4.99842E-04-8.56963E-15
 -1      2275 3.74756E-03-5.36848E-04-1.03313E-14
 -1      2276 3.88939E-03-5.36464E-04-1.11072E-14
 -1      2277 3.67458E-03-4.99916E-04-1.00195E-14
 -1      2278 4.03133E-03-5.35923E-04-1.19069E-14
 -1      2279 4.17335E-03-5.35251E-04-1.27317E-14
 -1      2280 3.95890E-03-4.99131E-04-1.15704E-14
 -1      2281 4.31547E-03-5.34473E-04-1.35809E-14
 -1      2282 4.45766E-03-5.33604E-04-1.44521E-14
 -1      2283 4.24347E-03-4.97780E-04-1.32185E-14
 -1      2284 4.59994E-03-5.32655E-04-1.53460E-14
 -1      2285 4.74230E-03-5.31634E-04-1.62628E-14
 -1      2286 4.52827E-03-4.96040E-04-1.49619E-14
 -1      2287 4.88473E-03-5.30542E-04-1.72007E-14
 -1      2288 5.02722E-03-5.29381E-04-1.81586E-14
 -1      2289 4.81329E-03-4.94001E-04-1.67928E-14
 -1      2290 5.16979E-03-5.28142E-04-1.91376E-14
 -1      2291 5.31243E-03-5.26826E-04-2.01382E-14
 -1      2292 5.09852E-03-4.91685E-04-1.87097E-14
 -1      2293 5.45514E-03-5.25416E-04-2.11592E-14
 -1      2294 5.59793E-03-5.23908E-04-2.21998E-14
 -1      2295 5.38395E-03-4.89061E-04-2.07098E-14
 -1      2296 5.74079E-03-5.22283E-04-2.32605E-14
 -1      2297 5.88374E-03-5.20534E-04-2.43407E-14
 -1      2298 5.66960E-03-4.86058E-04-2.27912E-14
 -1      2299 6.02677E-03-5.18638E-04-2.54406E-14
 -1      2300 6.16991E-03-5.16588E-04-2.65594E-14
 -1      2301 5.95550E-03-4.82574E-04-2.49516E-14
 -1      2302 6.31316E-03-5.14359E-04-2.76982E-14
 -1      2303 6.45655E-03-5.11946E-04-2.88553E-14
 -1      2304 6.24168E-03-4.78491E-04-2.71900E-14
 -1      2305 6.60006E-03-5.09322E-04-3.00307E-14
 -1      2306 6.74375E-03-5.06487E-04-3.12253E-14
 -1      2307 6.52822E-03-4.73680E-04-2.95038E-14
 -1      2308 6.88762E-03-5.03418E-04-3.24390E-14
 -1      2309 7.03170E-03-5.00120E-04-3.36700E-14
 -1      2310 6.81521E-03-4.68027E-04-3.18921E-14
 -1      2311 7.17600E-03-4.96578E-04-3.49190E-14
 -1      2312 7.32059E-03-4.92807E-04-3.61827E-14
 -1      2313 7.10277E-03-4.61445E-04-3.43536E-14
 -1      2314 7.46545E-03-4.88808E-04-3.74638E-14
 -1      2315 7.61068E-03-4.84609E-04-3.87611E-14
 -1      2316 7.39104E-03-4.53912E-04-3.68814E-14
 -1      2317 7.75626E-03-4.80237E-04-4.00717E-14
 -1      2318 7.90229E-03-4.75742E-04-4.13999E-14
 -1      2319 7.68022E-03-4.45510E-04-3.94725E-14
 -1      2320 8.04875E-03-4.71190E-04-4.27423E-14
 -1      2321 8.19578E-03-4.66663E-04-4.41012E-14
 -1      2322 7.97052E-03-4.36491E-04-4.21242E-14
 -1      2323 8.34335E-03-4.62282E-04-4.54756E-14
 -1      2324 8.49161E-03-4.58176E-04-4.68635E-14
 -1      2325 8.26222E-03-4.27356E-04-4.48408E-14
 -1      2326 8.64053E-03-4.54546E-04-4.82656E-14
 -1      2327 8.79028E-03-4.51583E-04-4.96804E-14
 -1      2328 8.55567E-03-4.18971E-04-4.76157E-14
 -1      2329 8.94085E-03-4.49595E-04-5.11070E-14
 -1      2330 9.09243E-03-4.48864E-04-5.25470E-14
 -1      2331 8.85132E-03-4.12707E-04-5.04425E-14
 -1      2332 9.24502E-03-4.49829E-04-5.39981E-14
 -1      2333 9.39880E-03-4.52895E-04-5.54598E-14
 -1      2334 9.14978E-03-4.10621E-04-5.33180E-14
 -1      2335 9.55388E-03-4.58644E-04-5.69328E-14
 -1      2336 9.71038E-03-4.67647E-04-5.84160E-14
 -1      2337 9.45196E-03-4.15656E-04-5.62407E-14
 -1      2338 9.86854E-03-4.80610E-04-5.99067E-14
 -1      2339 1.00284E-02-4.98308E-04-6.14065E-14
 -1      2340 9.75921E-03-4.31846E-04-5.92022E-14
 -1      2341 1.01903E-02-5.21486E-04-6.29159E-14
 -1      2342 1.03542E-02-5.51118E-04-6.44316E-14
 -1      2343 1.00735E-02-4.64458E-04-6.22015E-14
 -1      2344 1.05207E-02-5.87804E-04-6.59528E-14
 -1      2345 1.06890E-02-6.32571E-04-6.74783E-14
 -1      2346 1.03973E-02-5.19927E-04-6.52290E-14
 -1      2347 1.08603E-02-6.85565E-04-6.90097E-14
 -1      2348 1.10328E-02-7.47337E-04-7.05490E-14
 -1      2349 1.07333E-02-6.05237E-04-6.82808E-14
 -1      2350 1.12076E-02-8.17122E-04-7.20923E-14
 -1      2351 1.13822E-02-8.93981E-04-7.36404E-14
 -1      2352 1.10824E-02-7.25879E-04-7.13541E-14
 -1      2353 1.15570E-02-9.75705E-04-7.51988E-14
 -1      2354 1.17292E-02-1.05845E-03-7.67679E-14
 -1      2355 1.14410E-02-8.80872E-04-7.44532E-14
 -1      2356 1.18985E-02-1.13837E-03-7.83413E-14
 -1      2357 1.20636E-02-1.20873E-03-7.99250E-14
 -1      2358 1.17987E-02-1.05388E-03-7.75842E-14
 -1      2359 1.22232E-02-1.26504E-03-8.15218E-14
 -1      2360 1.23802E-02-1.30064E-03-8.31260E-14
 -1      2361 1.21421E-02-1.20593E-03-8.07550E-14
 -1      2362 1.25329E-02-1.31278E-03-8.47395E-14
 -1      2363 1.26871E-02-1.29997E-03-8.63566E-14
 -1      2364 1.24671E-02-1.28428E-03-8.39629E-14
 -1      2365 1.28410E-02-1.26289E-03-8.79790E-14
 -1      2366 1.29989E-02-1.20631E-03-8.96086E-14
 -1      2367 1.27866E-02-1.25558E-03-8.71984E-14
 -1      2368 1.31592E-02-1.13353E-03-9.12409E-14
 -1      2369 1.33222E-02-1.05106E-03-9.28747E-14
 -1      2370 1.31171E-02-1.13240E-03-9.04492E-14
 -1      2371 1.34868E-02-9.62317E-04-9.45130E-14
 -1      2372 1.36509E-02-8.71489E-04-9.61540E-14
 -1      2373 1.34605E-02-9.59168E-04-9.37177E-14
 -1      2374 1.38142E-02-7.80455E-04-9.77987E-14
 -1      2375 1.39743E-02-6.89976E-04-9.94482E-14
 -1      2376 1.38049E-02-7.75779E-04-9.69951E-14
 -1      2377 1.86534E-03 5.25250E-04-2.54865E-15
 -1      2378 1.72510E-03 5.12498E-04-2.17017E-15
 -1      2379 2.14543E-03 5.44536E-04-3.39655E-15
 -1      2380 2.00543E-03 5.35870E-04-2.95751E-15
 -1      2381 1.92464E-03 4.94633E-04-2.80570E-15
 -1      2382 2.42550E-03 5.57330E-04-4.36226E-15
 -1      2383 2.28545E-03 5.51639E-04-3.86480E-15
 -1      2384 2.20675E-03 5.11899E-04-3.68638E-15
 -1      2385 2.70591E-03 5.65437E-04-5.44378E-15
 -1      2386 2.56566E-03 5.61887E-04-4.88897E-15
 -1      2387 2.48870E-03 5.23215E-04-4.68354E-15
 -1      2388 2.98688E-03 5.70210E-04-6.63810E-15
 -1      2389 2.84633E-03 5.68178E-04-6.02658E-15
 -1      2390 2.77078E-03 5.30248E-04-5.79499E-15
 -1      2391 3.26847E-03 5.72655E-04-7.94258E-15
 -1      2392 3.12760E-03 5.71677E-04-7.27673E-15
 -1      2393 3.05319E-03 5.34252E-04-7.01781E-15
 -1      2394 3.55070E-03 5.73507E-04-9.35433E-15
 -1      2395 3.40952E-03 5.73245E-04-8.63514E-15
 -1      2396 3.33600E-03 5.36154E-04-8.34935E-15
 -1      2397 3.83353E-03 5.73288E-04-1.08708E-14
 -1      2398 3.69205E-03 5.73506E-04-1.01001E-14
 -1      2399 3.61922E-03 5.36629E-04-9.78724E-15
 -1      2400 4.11689E-03 5.72360E-04-1.24881E-14
 -1      2401 3.97515E-03 5.72896E-04-1.16663E-14
 -1      2402 3.90286E-03 5.36154E-04-1.13279E-14
 -1      2403 4.40074E-03 5.70953E-04-1.42050E-14
 -1      2404 4.25876E-03 5.71705E-04-1.33347E-14
 -1      2405 4.18688E-03 5.35051E-04-1.29689E-14
 -1      2406 4.68500E-03 5.69199E-04-1.60154E-14
 -1      2407 4.54282E-03 5.70113E-04-1.50988E-14
 -1      2408 4.47125E-03 5.33521E-04-1.47072E-14
 -1      2409 4.96963E-03 5.67153E-04-1.79163E-14
 -1      2410 4.82727E-03 5.68210E-04-1.69551E-14
 -1      2411 4.75593E-03 5.31672E-04-1.65385E-14
 -1      2412 5.25460E-03 5.64810E-04-1.99040E-14
 -1      2413 5.11207E-03 5.66019E-04-1.88993E-14
 -1      2414 5.04089E-03 5.29542E-04-1.84590E-14
 -1      2415 5.53992E-03 5.62121E-04-2.19737E-14
 -1      2416 5.39722E-03 5.63511E-04-2.09290E-14
 -1      2417 5.32612E-03 5.27112E-04-2.04665E-14
 -1      2418 5.82560E-03 5.59002E-04-2.41218E-14
 -1      2419 5.68271E-03 5.60619E-04-2.30382E-14
 -1      2420 5.61164E-03 5.24318E-04-2.25543E-14
 -1      2421 6.11170E-03 5.55348E-04-2.63450E-14
 -1      2422 5.96859E-03 5.57247E-04-2.52245E-14
 -1      2423 5.89746E-03 5.21070E-04-2.47197E-14
 -1      2424 6.39832E-03 5.51045E-04-2.86398E-14
 -1      2425 6.25494E-03 5.53282E-04-2.74842E-14
 -1      2426 6.18365E-03 5.17256E-04-2.69589E-14
 -1      2427 6.68560E-03 5.45982E-04-3.10045E-14
 -1      2428 6.54186E-03 5.48611E-04-2.98132E-14
 -1      2429 6.47028E-03 5.12757E-04-2.92697E-14
 -1      2430 6.97372E-03 5.40081E-04-3.34333E-14
 -1      2431 6.82953E-03 5.43136E-04-3.22104E-14
 -1      2432 6.75747E-03 5.07465E-04-3.16471E-14
 -1      2433 7.26294E-03 5.33316E-04-3.59233E-14
 -1      2434 7.11817E-03 5.36801E-04-3.46700E-14
 -1      2435 7.04539E-03 5.01305E-04-3.40887E-14
 -1      2436 7.55355E-03 5.25763E-04-3.84784E-14
 -1      2437 7.40803E-03 5.29625E-04-3.71940E-14
 -1      2438 7.33423E-03 4.94263E-04-3.65950E-14
 -1      2439 7.84593E-03 5.17650E-04-4.10915E-14
 -1      2440 7.69948E-03 5.21751E-04-3.97768E-14
 -1      2441 7.62425E-03 4.86437E-04-3.91632E-14
 -1      2442 8.14052E-03 5.09439E-04-4.37670E-14
 -1      2443 7.99290E-03 5.13515E-04-4.24222E-14
 -1      2444 7.91573E-03 4.78088E-04-4.17922E-14
 -1      2445 8.43782E-03 5.01930E-04-4.65010E-14
 -1      2446 8.28878E-03 5.05533E-04-4.51257E-14
 -1      2447 8.20905E-03 4.69727E-04-4.44816E-14
 -1      2448 8.73838E-03 4.96386E-04-4.92937E-14
 -1      2449 8.58763E-03 4.98818E-04-4.78896E-14
 -1      2450 8.50464E-03 4.62221E-04-4.72300E-14
 -1      2451 9.04277E-03 4.94687E-04-5.21384E-14
 -1      2452 8.89004E-03 4.94922E-04-5.07099E-14
 -1      2453 8.80299E-03 4.56918E-04-5.00350E-14
 -1      2454 9.35158E-03 4.99485E-04-5.50318E-14
 -1      2455 9.19658E-03 4.96091E-04-5.35796E-14
 -1      2456 9.10469E-03 4.55805E-04-5.28911E-14
 -1      2457 9.66535E-03 5.14318E-04-5.79685E-14
 -1      2458 9.50784E-03 5.05412E-04-5.64943E-14
 -1      2459 9.41047E-03 4.61656E-04-5.57956E-14
 -1      2460 9.98447E-03 5.43574E-04-6.09467E-14
 -1      2461 9.82429E-03 5.26862E-04-5.94531E-14
 -1      2462 9.72116E-03 4.78139E-04-5.87423E-14
 -1      2463 1.03090E-02 5.92122E-04-6.39685E-14
 -1      2464 1.01462E-02 5.65142E-04-6.24516E-14
 -1      2465 1.00377E-02 5.09781E-04-6.17321E-14
 -1      2466 1.06383E-02 6.64324E-04-6.70284E-14
 -1      2467 1.04733E-02 6.25049E-04-6.54938E-14
 -1      2468 1.03610E-02 5.61602E-04-6.47628E-14
 -1      2469 1.09705E-02 7.62048E-04-7.01251E-14
 -1      2470 1.08045E-02 7.10028E-04-6.85731E-14
 -1      2471 1.06912E-02 6.38109E-04-6.78317E-14
 -1      2472 1.13018E-02 8.81534E-04-7.32532E-14
 -1      2473 1.11368E-02 8.19613E-04-7.16848E-14
 -1      2474 1.10271E-02 7.41174E-04-7.09338E-14
 -1      2475 1.16263E-02 1.00978E-03-7.64101E-14
 -1      2476 1.14654E-02 9.45813E-04-7.48277E-14
 -1      2477 1.13646E-02 8.66394E-04-7.40630E-14
 -1      2478 1.19385E-02 1.12311E-03-7.95978E-14
 -1      2479 1.17842E-02 1.07025E-03-7.79993E-14
 -1      2480 1.16966E-02 9.98807E-04-7.72243E-14
 -1      2481 1.22363E-02 1.19161E-03-8.28242E-14
 -1      2482 1.20887E-02 1.16482E-03-8.12077E-14
 -1      2483 1.20160E-02 1.11073E-03-8.04167E-14
 -1      2484 1.25247E-02 1.19156E-03-8.60752E-14
 -1      2485 1.23806E-02 1.20100E-03-8.44452E-14
 -1      2486 1.23212E-02 1.16875E-03-8.36439E-14
 -1      2487 1.28128E-02 1.11752E-03-8.93555E-14
 -1      2488 1.26678E-02 1.16312E-03-8.77142E-14
 -1      2489 1.26194E-02 1.14959E-03-8.68985E-14
 -1      2490 1.31073E-02 9.84511E-04-9.26569E-14
 -1      2491 1.29590E-02 1.05689E-03-9.10036E-14
 -1      2492 1.29213E-02 1.05408E-03-9.01789E-14
 -1      2493 1.34081E-02 8.16350E-04-9.59774E-14
 -1      2494 1.32572E-02 9.03292E-04-9.43134E-14
 -1      2495 1.32318E-02 9.04464E-04-9.34780E-14
 -1      2496 1.37106E-02 6.33376E-04-9.93179E-14
 -1      2497 1.35597E-02 7.25883E-04-9.76446E-14
 -1      2498 1.35474E-02 7.28243E-04-9.67983E-14
 -1      2499 1.40094E-02 4.45413E-04-1.02677E-13
 -1      2500 1.38609E-02 5.39894E-04-1.00996E-13
 -1      2501 1.38606E-02 5.44250E-04-1.00137E-13
 -1      2502 1.41591E-02 3.48118E-04-1.04418E-13
 -1      2503 1.49567E-02 2.72953E-05-1.03255E-13
 -1      2504 1.48273E-02 7.09065E-05-1.03287E-13
 -1      2505 1.52061E-02-4.40134E-05-1.03189E-13
 -1      2506 1.50851E-02-1.19514E-05-1.03222E-13
 -1      2507 1.48926E-02 4.22502E-05-1.01805E-13
 -1      2508 1.44692E-02 2.15514E-04-1.03380E-13
 -1      2509 1.43617E-02 2.64147E-04-1.03406E-13
 -1      2510 1.47020E-02 1.18364E-04-1.03318E-13
 -1      2511 1.45828E-02 1.66005E-04-1.03349E-13
 -1      2512 1.43857E-02 2.58669E-04-1.01917E-13
 -1      2513 1.46268E-02 1.47513E-04-1.01862E-13
 -1      2514 1.53983E-02-8.45855E-05-1.03126E-13
 -1      2515 1.53136E-02-6.78897E-05-1.03159E-13
 -1      2516 1.51511E-02-3.90550E-05-1.01748E-13
 -1      2517 1.54761E-02-9.97261E-05-1.03068E-13
 -1      2518 1.54547E-02-9.31364E-05-1.03096E-13
 -1      2519 1.53375E-02-8.33572E-05-1.01690E-13
 -1      2520 1.54120E-02-1.13758E-04-1.03023E-13
 -1      2521 1.54612E-02-1.03887E-04-1.03042E-13
 -1      2522 1.53853E-02-1.02093E-04-1.01636E-13
 -1      2523 1.52344E-02-1.51015E-04-1.02987E-13
 -1      2524 1.53338E-02-1.28088E-04-1.03004E-13
 -1      2525 1.52763E-02-1.28528E-04-1.01594E-13
 -1      2526 1.49934E-02-2.19850E-04-1.02955E-13
 -1      2527 1.51176E-02-1.82152E-04-1.02970E-13
 -1      2528 1.50579E-02-1.89030E-04-1.01558E-13
 -1      2529 1.47425E-02-3.09648E-04-1.02929E-13
 -1      2530 1.48669E-02-2.63543E-04-1.02945E-13
 -1      2531 1.47963E-02-2.83343E-04-1.01526E-13
 -1      2532 1.45100E-02-4.06661E-04-1.02902E-13
 -1      2533 1.46232E-02-3.58497E-04-1.02913E-13
 -1      2534 1.45432E-02-3.93339E-04-1.01493E-13
 -1      2535 1.50984E-02-7.36726E-05-9.56849E-14
 -1      2536 1.51474E-02-8.47287E-05-9.58378E-14
 -1      2537 1.44319E-02 1.45934E-04-9.41203E-14
 -1      2538 1.46415E-02 6.30475E-05-9.47516E-14
 -1      2539 1.58457E-03 4.97064E-04-1.82250E-15
 -1      2540 1.44363E-03 4.78735E-04-1.50555E-15
 -1      2541 1.64190E-03 4.69208E-04-2.04476E-15
 -1      2542 1.44083E-02-4.42837E-04-1.03785E-13
 -1      2543 1.51592E-02-9.98172E-05-9.60487E-14
 -1      2544 1.51121E-02-1.11734E-04-9.60239E-14
 -1      2545 1.48612E-02-1.12499E-05-9.52768E-14
 -1      2546 1.50030E-02-4.81928E-05-9.55465E-14
 -1      2547 5.88503E-04-2.37953E-04-3.00798E-16
 -1      2548 7.81339E-04-3.04767E-04-4.80776E-16
 -1      2549 8.40751E-04-2.93574E-04-5.94495E-16
 -1      2550 5.78980E-04-2.10180E-04-3.23404E-16
 -1      2551 1.49817E-02-1.46218E-04-9.56801E-14
 -1      2552 1.48425E-02-1.83659E-04-9.52066E-14
 -1      2553 1.23704E-02-1.18662E-03-8.30641E-14
 -1      2554 1.22142E-02-1.12097E-03-8.19595E-14
 -1      2555 1.17383E-02-8.34779E-04-7.91328E-14
 -1      2556 1.15709E-02-7.23436E-04-7.83566E-14
 -1      2557 5.46562E-04-2.28976E-05-3.99664E-16
 -1      2558 5.47021E-04-3.89360E-05-3.97455E-16
 -1      2559 6.62477E-04-5.58084E-05-5.36450E-16
 -1      2560 6.61244E-04-1.77033E-05-5.42128E-16
 -1      2561 1.20696E-02 9.14299E-04-8.13761E-14
 -1      2562 1.22161E-02 9.86701E-04-8.23724E-14
 -1      2563 1.27768E-02 1.02576E-03-8.65607E-14
 -1      2564 1.29176E-02 9.69766E-04-8.75611E-14
 -1      2565 1.27035E-02-1.21582E-03-8.55479E-14
 -1      2566 1.25539E-02-1.22203E-03-8.44084E-14
 -1      2567 1.17033E-02 6.95314E-04-7.92220E-14
 -1      2568 1.18789E-02 8.07406E-04-8.01848E-14
 -1      2569 1.13119E-02 4.54151E-04-7.73743E-14
 -1      2570 1.14937E-02 5.65603E-04-7.81662E-14
 -1      2571 1.05231E-02 7.24911E-05-7.46056E-14
 -1      2572 1.06764E-02 1.31486E-04-7.51769E-14
 -1      2573 1.02624E-02-1.28364E-05-7.39398E-14
 -1      2574 1.03543E-02 1.32514E-05-7.40511E-14
 -1      2575 1.01802E-02-4.55218E-05-7.33637E-14
 -1      2576 1.02031E-02-3.45614E-05-7.36518E-14
 -1      2577 1.02101E-02-2.55181E-05-7.28738E-14
 -1      2578 1.03093E-02-9.44015E-05-7.38841E-14
 -1      2579 1.02198E-02-6.91971E-05-7.34530E-14
 -1      2580 1.05351E-02-1.71220E-04-7.44423E-14
 -1      2581 1.04082E-02-1.28103E-04-7.41630E-14
 -1      2582 1.03342E-02-1.03957E-04-7.30422E-14
 -1      2583 1.09539E-02-3.60787E-04-7.59109E-14
 -1      2584 1.07500E-02-2.63329E-04-7.52455E-14
 -1      2585 1.13840E-02-6.06638E-04-7.75834E-14
 -1      2586 1.11913E-02-4.90681E-04-7.68117E-14
 -1      2587 1.14704E-02-6.60832E-04-7.74908E-14
 -1      2588 1.20889E-02-1.05637E-03-8.11408E-14
 -1      2589 1.19598E-02-9.75803E-04-8.03272E-14
 -1      2590 1.21691E-02-1.10654E-03-8.14648E-14
 -1      2591 1.38542E-02-6.28552E-04-9.18652E-14
 -1      2592 1.36435E-02-7.51580E-04-9.10629E-14
 -1      2593 1.30079E-02-1.11525E-03-8.76617E-14
 -1      2594 1.28782E-02-1.17158E-03-8.67963E-14
 -1      2595 1.33855E-02-9.04679E-04-8.98353E-14
 -1      2596 1.31864E-02-1.02462E-03-8.87343E-14
 -1      2597 1.42797E-02-4.08355E-04-9.33345E-14
 -1      2598 1.40807E-02-5.06895E-04-9.26924E-14
 -1      2599 1.46488E-02-2.52427E-04-9.45247E-14
 -1      2600 1.44690E-02-3.23403E-04-9.39314E-14
 -1      2601 1.43687E-02-3.61925E-04-9.43173E-14
 -1      2602 1.31061E-02 8.78883E-04-8.86272E-14
 -1      2603 1.32791E-02 7.76460E-04-8.95866E-14
 -1      2604 7.57934E-04 3.34196E-04-4.13989E-16
 -1      2605 6.11510E-04 2.84837E-04-2.78857E-16
 -1      2606 5.84781E-04 2.58066E-04-2.83817E-16
 -1      2607 8.13754E-04 3.22867E-04-5.25879E-16
 -1      2608 1.40384E-02 3.33394E-04-9.29446E-14
 -1      2609 1.42386E-02 2.33187E-04-9.35313E-14
 -1      2610 1.43605E-02 1.71181E-04-9.46312E-14
 -1      2611 1.22397E-02 1.00782E-03-8.23911E-14
 -1      2612 1.23215E-02 1.02895E-03-8.30675E-14
 -1      2613 1.24090E-02 1.05536E-03-8.37655E-14
 -1      2614 6.70188E-04-1.37963E-04-5.08355E-16
 -1      2615 5.54545E-04-1.26225E-04-3.69726E-16
 -1      2616 5.57742E-04-1.46223E-04-3.59156E-16
 -1      2617 1.35786E-03 4.32714E-04-1.40565E-15
 -1      2618 5.72275E-04 2.27869E-04-3.08401E-16
 -1      2619 1.38806E-02 4.09727E-04-9.28973E-14
 -1      2620 1.40261E-02 3.32303E-04-9.39974E-14
 -1      2621 1.37491E-02 4.86730E-04-9.28530E-14
 -1      2622 1.50731E-02-1.24945E-04-9.66213E-14
 -1      2623 1.47470E-02-2.15089E-04-9.55959E-14
 -1      2624 1.33886E-02 7.04646E-04-9.06119E-14
 -1      2625 1.41676E-02 3.56091E-04-1.03551E-13
 -1      2626 1.42262E-02 3.30117E-04-1.03347E-13
 -1      2627 1.35111E-02-8.27028E-04-9.08372E-14
 -1      2628 1.51764E-02-9.39062E-05-9.67524E-14
 -1      2629 1.50657E-02-6.50837E-05-9.64048E-14
 -1      2630 1.47654E-02 1.77333E-05-9.57435E-14
 -1      2631 1.31036E-02-1.06657E-03-8.85372E-14
 -1      2632 6.89558E-04 2.51220E-04-4.40254E-16
 -1      2633 1.06236E-02-2.08053E-04-7.41208E-14
 -1      2634 1.24506E-02-1.21209E-03-8.36235E-14
 -1      2635 1.01780E-02-5.57015E-05-7.26781E-14
 -1      2636 1.01489E-02-4.78008E-05-7.19021E-14
 -1      2637 1.01926E-02-6.48732E-05-7.19901E-14
 -1      2638 1.04182E-02 3.55946E-05-7.37151E-14
 -1      2639 1.04826E-02 6.36553E-05-7.33762E-14
 -1      2640 1.03289E-02 1.45256E-05-7.28249E-14
 -1      2641 1.11881E-02 3.86892E-04-7.65581E-14
 -1      2642 1.18543E-02-9.14772E-04-7.94520E-14
 -1      2643 1.15908E-02 6.33588E-04-7.82618E-14
 -1      2644 1.27777E-02-1.20306E-03-8.62162E-14
 -1      2645 5.71742E-04-1.85302E-04-3.41754E-16
 -1      2646 1.07772E-02 1.76595E-04-7.50848E-14
 -1      2647 1.26748E-02 1.05187E-03-8.58884E-14
 -1      2648 1.27456E-02 1.03618E-03-8.66641E-14
 -1      2649 1.25844E-02 1.06531E-03-8.52182E-14
 -1      2650 1.30056E-02 9.25535E-04-8.84036E-14
 -1      2651 1.19649E-02 8.64926E-04-8.05064E-14
 -1      2652 1.10639E-02-4.19114E-04-7.58201E-14
 -1      2653 1.39721E-02-5.58220E-04-9.28929E-14
 -1      2654 1.42141E-02-5.52435E-04-1.02047E-13
 -1      2655 1.43905E-02-4.63545E-04-1.02598E-13
 -1      2656 1.43058E-02-5.09515E-04-1.01171E-13
 -1      2657 1.40794E-02-6.30531E-04-1.00563E-13
 -1      2658 1.41413E-02 3.83511E-04-1.01881E-13
 -1      2659 1.40826E-02-6.28087E-04-9.97506E-14
 -1      2660 7.80159E-04 7.73280E-05-7.02455E-16
 -1      2661 7.78895E-04 5.54682E-05-7.05992E-16
 -1      2662 7.78047E-04 3.35578E-05-7.07970E-16
 -1      2663 7.77624E-04 1.18952E-05-7.08594E-16
 -1      2664 8.96454E-04 4.96786E-05-8.94697E-16
 -1      2665 7.91526E-04 1.73120E-04-6.70444E-16
 -1      2666 7.87513E-04 1.47706E-04-6.81787E-16
 -1      2667 8.03403E-04 2.28315E-04-6.39015E-16
 -1      2668 7.96774E-04 1.99926E-04-6.56566E-16
 -1      2669 9.14830E-04 2.07819E-04-8.43143E-16
 -1      2670 1.12984E-03 3.61944E-04-1.04319E-15
 -1      2671 9.86238E-04 3.32874E-04-8.12311E-16
 -1      2672 1.07174E-02-2.55516E-04-7.36525E-14
 -1      2673 1.05217E-02-1.77732E-04-7.28533E-14
 -1      2674 1.51536E-02-1.13093E-04-9.76951E-14
 -1      2675 1.50341E-02-1.37167E-04-9.73519E-14
 -1      2676 8.03106E-04 2.78221E-04-5.77690E-16
 -1      2677 1.48403E-02-1.90407E-04-9.66772E-14
 -1      2678 1.46563E-02-2.49026E-04-9.59950E-14
 -1      2679 1.32016E-03-3.62762E-04-1.41769E-15
 -1      2680 1.46338E-03-3.81749E-04-1.71975E-15
 -1      2681 1.60643E-03-3.97836E-04-2.05149E-15
 -1      2682 1.74937E-03-4.11253E-04-2.41328E-15
 -1      2683 1.52498E-03-3.55421E-04-1.92047E-15
 -1      2684 1.89214E-03-4.22471E-04-2.80447E-15
 -1      2685 2.03479E-03-4.31674E-04-3.22453E-15
 -1      2686 1.81166E-03-3.81340E-04-2.64896E-15
 -1      2687 2.17734E-03-4.39240E-04-3.67421E-15
 -1      2688 2.31981E-03-4.45320E-04-4.15282E-15
 -1      2689 2.09812E-03-3.99216E-04-3.49421E-15
 -1      2690 2.46222E-03-4.50204E-04-4.65924E-15
 -1      2691 2.60459E-03-4.54014E-04-5.19444E-15
 -1      2692 2.38429E-03-4.11063E-04-4.45370E-15
 -1      2693 2.74694E-03-4.56968E-04-5.75828E-15
 -1      2694 2.88927E-03-4.59161E-04-6.34876E-15
 -1      2695 2.67024E-03-4.18505E-04-5.52640E-15
 -1      2696 3.03162E-03-4.60753E-04-6.96718E-15
 -1      2697 3.17396E-03-4.61818E-04-7.61248E-15
 -1      2698 2.95601E-03-4.22796E-04-6.71003E-15
 -1      2699 3.31634E-03-4.62473E-04-8.28465E-15
 -1      2700 3.45873E-03-4.62769E-04-8.98404E-15
 -1      2701 3.24168E-03-4.24885E-04-8.00159E-15
 -1      2702 3.60115E-03-4.62790E-04-9.70891E-15
 -1      2703 3.74359E-03-4.62575E-04-1.04594E-14
 -1      2704 3.52729E-03-4.25473E-04-9.39925E-15
 -1      2705 3.88608E-03-4.62178E-04-1.12348E-14
 -1      2706 4.02858E-03-4.61625E-04-1.20343E-14
 -1      2707 3.81288E-03-4.25058E-04-1.08997E-14
 -1      2708 4.17113E-03-4.60953E-04-1.28587E-14
 -1      2709 4.31370E-03-4.60176E-04-1.37068E-14
 -1      2710 4.09846E-03-4.23985E-04-1.24999E-14
 -1      2711 4.45630E-03-4.59315E-04-1.45783E-14
 -1      2712 4.59894E-03-4.58378E-04-1.54715E-14
 -1      2713 4.38406E-03-4.22473E-04-1.41954E-14
 -1      2714 4.74160E-03-4.57372E-04-1.63866E-14
 -1      2715 4.88430E-03-4.56300E-04-1.73237E-14
 -1      2716 4.66968E-03-4.20647E-04-1.59818E-14
 -1      2717 5.02703E-03-4.55160E-04-1.82821E-14
 -1      2718 5.16978E-03-4.53949E-04-1.92613E-14
 -1      2719 4.95534E-03-4.18557E-04-1.78548E-14
 -1      2720 5.31257E-03-4.52658E-04-2.02613E-14
 -1      2721 5.45539E-03-4.51282E-04-2.12821E-14
 -1      2722 5.24103E-03-4.16196E-04-1.98140E-14
 -1      2723 5.59825E-03-4.49805E-04-2.23232E-14
 -1      2724 5.74115E-03-4.48220E-04-2.33842E-14
 -1      2725 5.52676E-03-4.13512E-04-2.18561E-14
 -1      2726 5.88408E-03-4.46507E-04-2.44633E-14
 -1      2727 6.02706E-03-4.44658E-04-2.55628E-14
 -1      2728 5.81255E-03-4.10422E-04-2.39771E-14
 -1      2729 6.17008E-03-4.42650E-04-2.66826E-14
 -1      2730 6.31316E-03-4.40474E-04-2.78212E-14
 -1      2731 6.09840E-03-4.06817E-04-2.61756E-14
 -1      2732 6.45628E-03-4.38108E-04-2.89779E-14
 -1      2733 6.59949E-03-4.35543E-04-3.01525E-14
 -1      2734 6.38431E-03-4.02576E-04-2.84514E-14
 -1      2735 6.74275E-03-4.32761E-04-3.13471E-14
 -1      2736 6.88610E-03-4.29755E-04-3.25591E-14
 -1      2737 6.67031E-03-3.97579E-04-3.08030E-14
 -1      2738 7.02953E-03-4.26513E-04-3.37876E-14
 -1      2739 7.17307E-03-4.23033E-04-3.50346E-14
 -1      2740 6.95639E-03-3.91723E-04-3.32246E-14
 -1      2741 7.31671E-03-4.19317E-04-3.62972E-14
 -1      2742 7.46048E-03-4.15373E-04-3.75765E-14
 -1      2743 7.24258E-03-3.84945E-04-3.57147E-14
 -1      2744 7.60437E-03-4.11219E-04-3.88722E-14
 -1      2745 7.74844E-03-4.06880E-04-4.01824E-14
 -1      2746 7.52889E-03-3.77260E-04-3.82716E-14
 -1      2747 7.89265E-03-4.02405E-04-4.15077E-14
 -1      2748 8.03708E-03-3.97839E-04-4.28491E-14
 -1      2749 7.81534E-03-3.68796E-04-4.08925E-14
 -1      2750 8.18169E-03-3.93275E-04-4.42080E-14
 -1      2751 8.32658E-03-3.88790E-04-4.55804E-14
 -1      2752 8.10198E-03-3.59865E-04-4.35758E-14
 -1      2753 8.47171E-03-3.84536E-04-4.69676E-14
 -1      2754 8.61720E-03-3.80640E-04-4.83674E-14
 -1      2755 8.38889E-03-3.51036E-04-4.63197E-14
 -1      2756 8.76302E-03-3.77328E-04-4.97793E-14
 -1      2757 8.90934E-03-3.74797E-04-5.12037E-14
 -1      2758 8.67626E-03-3.43234E-04-4.91171E-14
 -1      2759 9.05614E-03-3.73367E-04-5.26401E-14
 -1      2760 9.20365E-03-3.73337E-04-5.40882E-14
 -1      2761 8.96444E-03-3.37864E-04-5.19644E-14
 -1      2762 9.35192E-03-3.75127E-04-5.55495E-14
 -1      2763 9.50122E-03-3.79192E-04-5.70207E-14
 -1      2764 9.25416E-03-3.36954E-04-5.48595E-14
 -1      2765 9.65175E-03-3.86037E-04-5.85001E-14
 -1      2766 9.80384E-03-3.96357E-04-5.99884E-14
 -1      2767 9.54672E-03-3.43332E-04-5.77980E-14
 -1      2768 9.95792E-03-4.10698E-04-6.14871E-14
 -1      2769 1.01143E-02-4.30100E-04-6.29942E-14
 -1      2770 9.84443E-03-3.60855E-04-6.07751E-14
 -1      2771 1.02737E-02-4.55058E-04-6.45075E-14
 -1      2772 1.04364E-02-4.87071E-04-6.60261E-14
 -1      2773 1.01510E-02-3.94730E-04-6.37847E-14
 -1      2774 1.06034E-02-5.26439E-04-6.75519E-14
 -1      2775 1.07744E-02-5.75037E-04-6.90812E-14
 -1      2776 1.04716E-02-4.51984E-04-6.68226E-14
 -1      2777 1.09507E-02-6.32830E-04-7.06165E-14
 -1      2778 1.11306E-02-7.01172E-04-7.21583E-14
 -1      2779 1.08125E-02-5.41869E-04-6.98813E-14
 -1      2780 1.13155E-02-7.79058E-04-7.37087E-14
 -1      2781 1.15013E-02-8.65633E-04-7.52672E-14
 -1      2782 1.11776E-02-6.74189E-04-7.29645E-14
 -1      2783 1.16891E-02-9.58303E-04-7.68320E-14
 -1      2784 1.18733E-02-1.05030E-03-7.84052E-14
 -1      2785 1.15624E-02-8.51674E-04-7.60788E-14
 -1      2786 1.20529E-02-1.13729E-03-7.99880E-14
 -1      2787 1.22275E-02-1.20637E-03-8.15833E-14
 -1      2788 1.19483E-02-1.05256E-03-7.92255E-14
 -1      2789 1.23946E-02-1.25279E-03-8.31868E-14
 -1      2790 1.25615E-02-1.26784E-03-8.47976E-14
 -1      2791 1.23142E-02-1.21035E-03-8.24103E-14
 -1      2792 1.27256E-02-1.25005E-03-8.64133E-14
 -1      2793 1.28955E-02-1.20374E-03-8.80352E-14
 -1      2794 1.26623E-02-1.24427E-03-8.56312E-14
 -1      2795 1.30687E-02-1.13192E-03-8.96621E-14
 -1      2796 1.32475E-02-1.04685E-03-9.12909E-14
 -1      2797 1.30191E-02-1.13636E-03-8.88751E-14
 -1      2798 1.34300E-02-9.52939E-04-9.29228E-14
 -1      2799 1.36122E-02-8.58199E-04-9.45573E-14
 -1      2800 1.33971E-02-9.47776E-04-9.21318E-14
 -1      2801 1.37936E-02-7.65413E-04-9.61929E-14
 -1      2802 1.39699E-02-6.76252E-04-9.78317E-14
 -1      2803 1.37806E-02-7.51229E-04-9.53958E-14
 -1      2804 2.26922E-03 4.78624E-04-3.97859E-15
 -1      2805 2.12740E-03 4.71768E-04-3.50779E-15
 -1      2806 1.41131E-02 3.97261E-04-1.00274E-13
 -1      2807 1.39816E-02 4.72978E-04-1.00207E-13
 -1      2808 1.38188E-02 5.63373E-04-9.85384E-14
 -1      2809 1.98548E-03 4.63289E-04-3.06618E-15
 -1      2810 1.84344E-03 4.53025E-04-2.65379E-15
 -1      2811 2.04764E-03 4.31361E-04-3.32972E-15
 -1      2812 2.83628E-03 4.94601E-04-6.14828E-15
 -1      2813 2.69451E-03 4.91993E-04-5.56377E-15
 -1      2814 3.11995E-03 4.97916E-04-7.39891E-15
 -1      2815 2.97810E-03 4.96548E-04-6.75973E-15
 -1      2816 2.90240E-03 4.58583E-04-6.50325E-15
 -1      2817 3.40383E-03 4.99347E-04-8.75724E-15
 -1      2818 3.26187E-03 4.98829E-04-8.06492E-15
 -1      2819 3.18718E-03 4.61275E-04-7.78144E-15
 -1      2820 3.68796E-03 4.99509E-04-1.02212E-14
 -1      2821 3.54587E-03 4.99559E-04-9.47616E-15
 -1      2822 3.47202E-03 4.62294E-04-9.16666E-15
 -1      2823 3.97234E-03 4.98829E-04-1.17851E-14
 -1      2824 3.83013E-03 4.99255E-04-1.09906E-14
 -1      2825 3.75695E-03 4.62191E-04-1.06543E-14
 -1      2826 4.25696E-03 4.97594E-04-1.34495E-14
 -1      2827 4.11463E-03 4.98269E-04-1.26048E-14
 -1      2828 4.04200E-03 4.61350E-04-1.22435E-14
 -1      2829 4.54181E-03 4.95976E-04-1.52101E-14
 -1      2830 4.39936E-03 4.96826E-04-1.43185E-14
 -1      2831 4.32716E-03 4.60020E-04-1.39308E-14
 -1      2832 4.82686E-03 4.94064E-04-1.70614E-14
 -1      2833 4.68431E-03 4.95054E-04-1.61247E-14
 -1      2834 4.61243E-03 4.58346E-04-1.57125E-14
 -1      2835 5.11212E-03 4.91875E-04-1.90028E-14
 -1      2836 4.96947E-03 4.93004E-04-1.80209E-14
 -1      2837 4.89782E-03 4.56395E-04-1.75849E-14
 -1      2838 5.39757E-03 4.89379E-04-2.10283E-14
 -1      2839 5.25482E-03 4.90668E-04-2.00050E-14
 -1      2840 5.18333E-03 4.54172E-04-1.95463E-14
 -1      2841 5.68324E-03 4.86504E-04-2.31347E-14
 -1      2842 5.54038E-03 4.87993E-04-2.20717E-14
 -1      2843 5.46895E-03 4.51633E-04-2.15903E-14
 -1      2844 5.96914E-03 4.83151E-04-2.53165E-14
 -1      2845 5.82615E-03 4.84892E-04-2.42160E-14
 -1      2846 5.75471E-03 4.48701E-04-2.37136E-14
 -1      2847 6.25532E-03 4.79204E-04-2.75721E-14
 -1      2848 6.11219E-03 4.81257E-04-2.64357E-14
 -1      2849 6.04061E-03 4.45271E-04-2.59129E-14
 -1      2850 6.54185E-03 4.74545E-04-2.98963E-14
 -1      2851 6.39853E-03 4.76969E-04-2.87254E-14
 -1      2852 6.32670E-03 4.41226E-04-2.81834E-14
 -1      2853 6.82882E-03 4.69068E-04-3.22897E-14
 -1      2854 6.68527E-03 4.71912E-04-3.10851E-14
 -1      2855 6.61301E-03 4.36449E-04-3.05244E-14
 -1      2856 7.11635E-03 4.62704E-04-3.47434E-14
 -1      2857 6.97250E-03 4.65997E-04-3.35084E-14
 -1      2858 6.89960E-03 4.30838E-04-3.29296E-14
 -1      2859 7.40458E-03 4.55456E-04-3.72667E-14
 -1      2860 7.26035E-03 4.59186E-04-3.59967E-14
 -1      2861 7.18653E-03 4.24336E-04-3.54003E-14
 -1      2862 7.69370E-03 4.47441E-04-3.98479E-14
 -1      2863 7.54900E-03 4.51532E-04-3.85499E-14
 -1      2864 7.47391E-03 4.16960E-04-3.79370E-14
 -1      2865 7.98395E-03 4.38953E-04-4.24932E-14
 -1      2866 7.83865E-03 4.43231E-04-4.11624E-14
 -1      2867 7.76186E-03 4.08846E-04-4.05355E-14
 -1      2868 8.27561E-03 4.30545E-04-4.51969E-14
 -1      2869 8.12956E-03 4.34696E-04-4.38375E-14
 -1      2870 8.05054E-03 4.00317E-04-4.31928E-14
 -1      2871 8.56906E-03 4.23134E-04-4.79584E-14
 -1      2872 8.42207E-03 4.26646E-04-4.65703E-14
 -1      2873 8.34018E-03 3.91957E-04-4.59110E-14
 -1      2874 8.86479E-03 4.18130E-04-5.07773E-14
 -1      2875 8.71658E-03 4.20228E-04-4.93629E-14
 -1      2876 8.63111E-03 3.84714E-04-4.86883E-14
 -1      2877 9.16344E-03 4.17582E-04-5.36445E-14
 -1      2878 9.01368E-03 4.17150E-04-5.22049E-14
 -1      2879 8.92383E-03 3.80025E-04-5.15193E-14
 -1      2880 9.46595E-03 4.24327E-04-5.65594E-14
 -1      2881 9.31415E-03 4.19834E-04-5.50958E-14
 -1      2882 9.21913E-03 3.79955E-04-5.43974E-14
 -1      2883 9.77357E-03 4.42102E-04-5.95167E-14
 -1      2884 9.61905E-03 4.31555E-04-5.80328E-14
 -1      2885 9.51819E-03 3.87339E-04-5.73229E-14
 -1      2886 1.00879E-02 4.75536E-04-6.25173E-14
 -1      2887 9.92986E-03 4.56506E-04-6.10121E-14
 -1      2888 9.82281E-03 4.05930E-04-6.02914E-14
 -1      2889 1.04108E-02 5.29854E-04-6.55566E-14
 -1      2890 1.02483E-02 4.99679E-04-6.40310E-14
 -1      2891 1.01354E-02 4.40459E-04-6.33010E-14
 -1      2892 1.07435E-02 6.09955E-04-6.86316E-14
 -1      2893 1.05762E-02 5.66337E-04-6.70909E-14
 -1      2894 1.04589E-02 4.96519E-04-6.63494E-14
 -1      2895 1.10853E-02 7.18180E-04-7.17378E-14
 -1      2896 1.09138E-02 6.60531E-04-7.01805E-14
 -1      2897 1.07956E-02 5.79830E-04-6.94303E-14
 -1      2898 1.14315E-02 8.49976E-04-7.48727E-14
 -1      2899 1.12587E-02 7.81896E-04-7.33023E-14
 -1      2900 1.11452E-02 6.93808E-04-7.25416E-14
 -1      2901 1.17729E-02 9.88080E-04-7.80358E-14
 -1      2902 1.16036E-02 9.20192E-04-7.64504E-14
 -1      2903 1.15016E-02 8.33943E-04-7.56790E-14
 -1      2904 1.21005E-02 1.09982E-03-8.12341E-14
 -1      2905 1.19387E-02 1.05025E-03-7.96299E-14
 -1      2906 1.18532E-02 9.79963E-04-7.88462E-14
 -1      2907 1.24127E-02 1.14595E-03-8.44616E-14
 -1      2908 1.22572E-02 1.13336E-03-8.28454E-14
 -1      2909 1.21884E-02 1.09084E-03-8.20459E-14
 -1      2910 1.27210E-02 1.10373E-03-8.77177E-14
 -1      2911 1.25657E-02 1.13573E-03-8.60858E-14
 -1      2912 1.25090E-02 1.11997E-03-8.52777E-14
 -1      2913 1.30376E-02 9.83694E-04-9.09980E-14
 -1      2914 1.28773E-02 1.05128E-03-8.93553E-14
 -1      2915 1.28302E-02 1.04961E-03-8.85346E-14
 -1      2916 1.33652E-02 8.17467E-04-9.42986E-14
 -1      2917 1.32006E-02 9.03913E-04-9.26472E-14
 -1      2918 1.31650E-02 9.03693E-04-9.18162E-14
 -1      2919 1.36738E-02 6.45274E-04-9.72458E-14
 -1      2920 1.35078E-02 7.36662E-04-9.55845E-14
 -1      2921 1.34860E-02 7.32935E-04-9.47477E-14
 -1      2922 1.37903E-02 5.65641E-04-9.73197E-14
 -1      2923 1.53007E-02-8.81336E-05-1.00555E-13
 -1      2924 1.52308E-02-7.09443E-05-1.00583E-13
 -1      2925 1.40852E-02-6.19509E-04-9.89450E-14
 -1      2926 1.41967E-02-5.63785E-04-1.00055E-13
 -1      2927 1.40875E-02-6.04577E-04-9.81391E-14
 -1      2928 1.48293E-02 4.82157E-05-1.00362E-13
 -1      2929 1.46856E-02 1.06260E-04-1.00387E-13
 -1      2930 1.52995E-02-1.07234E-04-1.00325E-13
 -1      2931 1.53188E-02-9.59052E-05-1.00349E-13
 -1      2932 1.51137E-02-4.40984E-05-1.00459E-13
 -1      2933 1.49851E-02-5.18150E-06-1.00485E-13
 -1      2934 1.47870E-02 4.54309E-05-9.90780E-14
 -1      2935 1.50967E-02-5.09589E-05-9.93277E-14
 -1      2936 1.51482E-02-1.40331E-04-1.00000E-13
 -1      2937 1.52404E-02-1.16286E-04-1.00019E-13
 -1      2938 1.48753E-02-2.33615E-04-1.00245E-13
 -1      2939 1.50119E-02-1.84688E-04-1.00264E-13
 -1      2940 1.45991E-02-3.53007E-04-1.00211E-13
 -1      2941 1.47351E-02-2.91617E-04-1.00227E-13
 -1      2942 1.46777E-02-2.92892E-04-9.89344E-14
 -1      2943 1.15214E-02-7.08387E-04-7.71707E-14
 -1      2944 1.13602E-02-6.02426E-04-7.64017E-14
 -1      2945 1.31833E-02-1.02476E-03-8.94498E-14
 -1      2946 1.30297E-02-1.11015E-03-8.83776E-14
 -1      2947 1.46879E-02 4.42259E-05-9.64323E-14
 -1      2948 1.48877E-02-1.71137E-05-9.69563E-14
 -1      2949 7.88863E-04-2.52490E-04-5.69206E-16
 -1      2950 9.20052E-04-2.88275E-04-7.36742E-16
 -1      2951 1.14826E-02 5.83219E-04-7.72372E-14
 -1      2952 1.16657E-02 7.00017E-04-7.82886E-14
 -1      2953 1.70122E-03 4.40554E-04-2.27135E-15
 -1      2954 1.55876E-03 4.25674E-04-1.91878E-15
 -1      2955 1.76213E-03 4.11234E-04-2.50197E-15
 -1      2956 2.55275E-03 4.88552E-04-5.00713E-15
 -1      2957 2.41100E-03 4.84175E-04-4.47869E-15
 -1      2958 2.33275E-03 4.44836E-04-4.27420E-15
 -1      2959 2.61763E-03 4.53451E-04-5.33288E-15
 -1      2960 1.04827E-03-3.15845E-04-9.29256E-16
 -1      2961 1.19154E-03-3.41496E-04-1.17452E-15
 -1      2962 1.25305E-03-3.19931E-04-1.34109E-15
 -1      2963 9.96743E-04-2.74848E-04-8.92705E-16
 -1      2964 1.36198E-02-7.61095E-04-9.19097E-14
 -1      2965 1.33919E-02-9.01620E-04-9.06807E-14
 -1      2966 1.33016E-02-9.64536E-04-9.05226E-14
 -1      2967 1.41609E-03 4.07848E-04-1.59641E-15
 -1      2968 1.27304E-03 3.86814E-04-1.30438E-15
 -1      2969 1.18968E-03 3.41491E-04-1.20264E-15
 -1      2970 1.47612E-03 3.82200E-04-1.79234E-15
 -1      2971 1.32806E-02 7.70386E-04-9.04728E-14
 -1      2972 1.34731E-02 6.51133E-04-9.16151E-14
 -1      2973 1.06960E-02 1.49537E-04-7.40731E-14
 -1      2974 1.08773E-02 2.28508E-04-7.48903E-14
 -1      2975 7.84360E-04 1.23451E-04-6.90542E-16
 -1      2976 7.81967E-04 1.00016E-04-6.97291E-16
 -1      2977 8.99571E-04 9.94443E-05-8.86173E-16
 -1      2978 9.05321E-04 1.51583E-04-8.69774E-16
 -1      2979 7.81699E-04-9.79575E-05-6.90542E-16
 -1      2980 7.84019E-04-1.21307E-04-6.81977E-16
 -1      2981 1.29420E-02 9.61065E-04-8.83346E-14
 -1      2982 1.31013E-02 8.74426E-04-8.94026E-14
 -1      2983 1.31974E-02 8.25941E-04-9.04029E-14
 -1      2984 1.19250E-02-9.77807E-04-7.95349E-14
 -1      2985 1.17350E-02-8.49254E-04-7.83458E-14
 -1      2986 1.10738E-02 3.32530E-04-7.55408E-14
 -1      2987 1.12651E-02 4.48345E-04-7.61902E-14
 -1      2988 1.09633E-02 2.95260E-04-7.45255E-14
 -1      2989 1.01697E-02-2.84815E-05-7.19661E-14
 -1      2990 1.02250E-02-1.46799E-05-7.22518E-14
 -1      2991 1.25500E-02-1.23893E-03-8.44945E-14
 -1      2992 1.23986E-02-1.21357E-03-8.31509E-14
 -1      2993 1.03577E-02-1.17371E-04-7.23384E-14
 -1      2994 1.02705E-02-9.16803E-05-7.20623E-14
 -1      2995 1.40835E-02-5.00496E-04-9.39495E-14
 -1      2996 1.38819E-02-6.10100E-04-9.31215E-14
 -1      2997 1.22090E-02-1.13937E-03-8.16276E-14
 -1      2998 1.21035E-02-1.08260E-03-8.08101E-14
 -1      2999 1.11523E-02-4.76616E-04-7.55029E-14
 -1      3000 1.09403E-02-3.61492E-04-7.46066E-14
 -1      3001 1.12110E-02-5.34519E-04-7.51828E-14
 -1      3002 6.52867E-04-1.88385E-04-4.43249E-16
 -1      3003 1.42916E-02 2.05272E-04-9.53217E-14
 -1      3004 1.44634E-02 1.31314E-04-9.59088E-14
 -1      3005 1.43179E-02-4.99415E-04-1.00361E-13
 -1      3006 1.44625E-02-3.23859E-04-9.52729E-14
 -1      3007 1.42903E-02-3.99172E-04-9.46759E-14
 -1      3008 1.41952E-02-4.54455E-04-9.49067E-14
 -1      3009 1.45836E-02-2.85439E-04-9.63559E-14
 -1      3010 1.18756E-02 8.25806E-04-7.96614E-14
 -1      3011 1.20423E-02 9.22608E-04-8.08503E-14
 -1      3012 7.87080E-04-1.45448E-04-6.71541E-16
 -1      3013 7.90948E-04-1.70602E-04-6.58219E-16
 -1      3014 9.04853E-04-1.49048E-04-8.58390E-16
 -1      3015 8.95428E-04 1.01039E-06-8.96242E-16
 -1      3016 7.77595E-04-9.72037E-06-7.07903E-16
 -1      3017 7.77959E-04-3.13665E-05-7.05694E-16
 -1      3018 1.16068E-02-7.88692E-04-7.72499E-14
 -1      3019 1.04284E-02-1.56255E-04-7.18724E-14
 -1      3020 1.36200E-02 5.67176E-04-9.27146E-14
 -1      3021 1.37664E-02 4.90017E-04-9.38139E-14
 -1      3022 1.35139E-02 6.41849E-04-9.25746E-14
 -1      3023 8.64862E-04 2.66541E-04-6.94337E-16
 -1      3024 1.44673E-02 1.85384E-04-9.89717E-14
 -1      3025 1.45472E-02 1.69946E-04-1.00414E-13
 -1      3026 1.44177E-02 2.33141E-04-1.00437E-13
 -1      3027 1.52557E-02-9.02628E-05-9.92475E-14
 -1      3028 1.49940E-02-1.68604E-04-9.86911E-14
 -1      3029 1.42189E-02 3.38281E-04-1.00252E-13
 -1      3030 7.69982E-04-2.02388E-04-5.97287E-16
 -1      3031 1.24950E-02 1.06975E-03-8.45345E-14
 -1      3032 1.44329E-02-4.39220E-04-1.00381E-13
 -1      3033 1.17529E-02 7.74799E-04-7.86280E-14
 -1      3034 9.82950E-04 2.75779E-04-8.89913E-16
 -1      3035 1.13508E-02 5.24454E-04-7.62146E-14
 -1      3036 1.46221E-02 8.04389E-05-9.71255E-14
 -1      3037 1.50491E-02-6.04499E-05-9.72579E-14
 -1      3038 1.51356E-02-7.72300E-05-9.73945E-14
 -1      3039 1.01992E-02-7.66254E-05-7.12886E-14
 -1      3040 1.52069E-02-9.52460E-05-9.77890E-14
 -1      3041 1.52078E-02-1.00912E-04-9.80017E-14
 -1      3042 1.02614E-02 4.05681E-06-7.19156E-14
 -1      3043 1.04521E-02 7.43124E-05-7.22929E-14
 -1      3044 1.05677E-02 1.04619E-04-7.31826E-14
 -1      3045 1.06475E-02 1.52715E-04-7.29874E-14
 -1      3046 1.43556E-02-4.60294E-04-9.90814E-14
 -1      3047 7.78737E-04-5.31499E-05-7.02034E-16
 -1      3048 7.79957E-04-7.53364E-05-6.97088E-16
 -1      3049 8.99284E-04-9.70913E-05-8.78678E-16
 -1      3050 8.96324E-04-4.75260E-05-8.90916E-16
 -1      3051 1.28437E-02 1.00577E-03-8.76595E-14
 -1      3052 1.29392E-02 9.68172E-04-8.86565E-14
 -1      3053 1.27546E-02 1.03979E-03-8.69850E-14
 -1      3054 1.01078E-02-4.59896E-05-7.05963E-14
 -1      3055 1.01297E-02-3.86457E-05-7.12806E-14
 -1      3056 1.01191E-02-2.91590E-05-7.06599E-14
 -1      3057 1.37468E-02-6.97001E-04-9.29676E-14
 -1      3058 1.19739E-02-1.02534E-03-7.96950E-14
 -1      3059 1.28482E-02-1.18505E-03-8.69482E-14
 -1      3060 1.26976E-02-1.22566E-03-8.57017E-14
 -1      3061 1.52072E-02-1.09112E-04-9.87343E-14
 -1      3062 1.07993E-02-3.12701E-04-7.33360E-14
 -1      3063 1.41566E-02 2.78530E-04-9.52789E-14
 -1      3064 1.20418E-02 9.47656E-04-8.06885E-14
 -1      3065 1.21401E-02 9.78436E-04-8.15388E-14
 -1      3066 1.22246E-02 1.02248E-03-8.22309E-14
 -1      3067 1.49964E-02-3.98736E-05-9.79486E-14
 -1      3068 1.29381E-02-1.15650E-03-8.78609E-14
 -1      3069 1.04027E-03 2.43272E-04-1.03513E-15
 -1      3070 1.03364E-03 2.11548E-04-1.05420E-15
 -1      3071 1.49700E-02-1.61300E-04-9.77539E-14
 -1      3072 1.73166E-03-3.40494E-04-2.49368E-15
 -1      3073 1.87533E-03-3.50713E-04-2.88949E-15
 -1      3074 2.01898E-03-3.59213E-04-3.31404E-15
 -1      3075 2.16263E-03-3.66151E-04-3.76749E-15
 -1      3076 1.94013E-03-3.19403E-04-3.13477E-15
 -1      3077 2.30622E-03-3.71803E-04-4.24902E-15
 -1      3078 2.44977E-03-3.76297E-04-4.75828E-15
 -1      3079 2.22816E-03-3.32541E-04-4.04464E-15
 -1      3080 2.59326E-03-3.79853E-04-5.29621E-15
 -1      3081 2.73669E-03-3.82571E-04-5.86170E-15
 -1      3082 2.51613E-03-3.41091E-04-5.06717E-15
 -1      3083 2.88007E-03-3.84623E-04-6.45381E-15
 -1      3084 3.02339E-03-3.86084E-04-7.07332E-15
 -1      3085 2.80389E-03-3.46286E-04-6.19912E-15
 -1      3086 3.16667E-03-3.87082E-04-7.71959E-15
 -1      3087 3.30990E-03-3.87673E-04-8.39243E-15
 -1      3088 3.09139E-03-3.49092E-04-7.43906E-15
 -1      3089 3.45310E-03-3.87951E-04-9.09112E-15
 -1      3090 3.59625E-03-3.87956E-04-9.81591E-15
 -1      3091 3.37861E-03-3.50242E-04-8.78501E-15
 -1      3092 3.73937E-03-3.87755E-04-1.05669E-14
 -1      3093 3.88245E-03-3.87373E-04-1.13419E-14
 -1      3094 3.66558E-03-3.50273E-04-1.02348E-14
 -1      3095 4.02552E-03-3.86856E-04-1.21416E-14
 -1      3096 4.16855E-03-3.86219E-04-1.29658E-14
 -1      3097 3.95232E-03-3.49564E-04-1.17854E-14
 -1      3098 4.31157E-03-3.85492E-04-1.38139E-14
 -1      3099 4.45457E-03-3.84682E-04-1.46849E-14
 -1      3100 4.23886E-03-3.48366E-04-1.34330E-14
 -1      3101 4.59755E-03-3.83804E-04-1.55769E-14
 -1      3102 4.74051E-03-3.82861E-04-1.64918E-14
 -1      3103 4.52522E-03-3.46835E-04-1.51742E-14
 -1      3104 4.88347E-03-3.81857E-04-1.74296E-14
 -1      3105 5.02640E-03-3.80789E-04-1.83882E-14
 -1      3106 4.81143E-03-3.45049E-04-1.70044E-14
 -1      3107 5.16933E-03-3.79655E-04-1.93670E-14
 -1      3108 5.31225E-03-3.78449E-04-2.03676E-14
 -1      3109 5.09750E-03-3.43025E-04-1.89221E-14
 -1      3110 5.45516E-03-3.77161E-04-2.13886E-14
 -1      3111 5.59805E-03-3.75782E-04-2.24301E-14
 -1      3112 5.38344E-03-3.40736E-04-2.09231E-14
 -1      3113 5.74094E-03-3.74299E-04-2.34917E-14
 -1      3114 5.88381E-03-3.72701E-04-2.45707E-14
 -1      3115 5.66925E-03-3.38120E-04-2.30053E-14
 -1      3116 6.02667E-03-3.70971E-04-2.56697E-14
 -1      3117 6.16951E-03-3.69097E-04-2.67893E-14
 -1      3118 5.95491E-03-3.35088E-04-2.51661E-14
 -1      3119 6.31234E-03-3.67063E-04-2.79279E-14
 -1      3120 6.45515E-03-3.64855E-04-2.90841E-14
 -1      3121 6.24039E-03-3.31535E-04-2.74035E-14
 -1      3122 6.59793E-03-3.62458E-04-3.02588E-14
 -1      3123 6.74069E-03-3.59860E-04-3.14522E-14
 -1      3124 6.52565E-03-3.27351E-04-2.97166E-14
 -1      3125 6.88340E-03-3.57051E-04-3.26629E-14
 -1      3126 7.02609E-03-3.54020E-04-3.38899E-14
 -1      3127 6.81062E-03-3.22432E-04-3.21011E-14
 -1      3128 7.16872E-03-3.50769E-04-3.51342E-14
 -1      3129 7.31132E-03-3.47290E-04-3.63959E-14
 -1      3130 7.09521E-03-3.16700E-04-3.45555E-14
 -1      3131 7.45384E-03-3.43599E-04-3.76740E-14
 -1      3132 7.59631E-03-3.39698E-04-3.89683E-14
 -1      3133 7.37931E-03-3.10122E-04-3.70768E-14
 -1      3134 7.73869E-03-3.35627E-04-4.02784E-14
 -1      3135 7.88101E-03-3.31399E-04-4.16033E-14
 -1      3136 7.66278E-03-3.02749E-04-3.96649E-14
 -1      3137 8.02321E-03-3.27087E-04-4.29447E-14
 -1      3138 8.16536E-03-3.22723E-04-4.43009E-14
 -1      3139 7.94549E-03-2.94751E-04-4.23154E-14
 -1      3140 8.30738E-03-3.18424E-04-4.56728E-14
 -1      3141 8.44936E-03-3.14252E-04-4.70584E-14
 -1      3142 8.22729E-03-2.86470E-04-4.50266E-14
 -1      3143 8.59122E-03-3.10375E-04-4.84548E-14
 -1      3144 8.73310E-03-3.06902E-04-4.98650E-14
 -1      3145 8.50807E-03-2.78482E-04-4.77945E-14
 -1      3146 8.87494E-03-3.04062E-04-5.12892E-14
 -1      3147 9.01693E-03-3.02030E-04-5.27237E-14
 -1      3148 8.78786E-03-2.71663E-04-5.06149E-14
 -1      3149 9.15905E-03-3.01098E-04-5.41706E-14
 -1      3150 9.30159E-03-3.01551E-04-5.56297E-14
 -1      3151 9.06694E-03-2.67272E-04-5.34844E-14
 -1      3152 9.44463E-03-3.03729E-04-5.70967E-14
 -1      3153 9.58859E-03-3.08101E-04-5.85744E-14
 -1      3154 9.34606E-03-2.67037E-04-5.63976E-14
 -1      3155 9.73373E-03-3.15024E-04-6.00630E-14
 -1      3156 9.88067E-03-3.25293E-04-6.15595E-14
 -1      3157 9.62687E-03-2.73297E-04-5.93505E-14
 -1      3158 1.00300E-02-3.39232E-04-6.30617E-14
 -1      3159 1.01824E-02-3.58212E-04-6.45731E-14
 -1      3160 9.91249E-03-2.89296E-04-6.23411E-14
 -1      3161 1.03390E-02-3.82424E-04-6.60935E-14
 -1      3162 1.05006E-02-4.14267E-04-6.76160E-14
 -1      3163 1.02083E-02-3.19889E-04-6.53614E-14
 -1      3164 1.06689E-02-4.53772E-04-6.91443E-14
 -1      3165 1.08438E-02-5.04579E-04-7.06791E-14
 -1      3166 1.05230E-02-3.73186E-04-6.84081E-14
 -1      3167 1.29685E-02-1.14895E-03-8.82699E-14
 -1      3168 1.31594E-02-1.05952E-03-8.98968E-14
 -1      3169 1.37706E-02-7.30292E-04-9.45988E-14
 -1      3170 1.39660E-02-6.37512E-04-9.62312E-14
 -1      3171 2.11107E-03 3.98806E-04-3.59710E-15
 -1      3172 1.96784E-03 3.90874E-04-3.15244E-15
 -1      3173 3.25491E-03 4.24327E-04-8.16574E-15
 -1      3174 3.11206E-03 4.23486E-04-7.49945E-15
 -1      3175 2.96917E-03 4.22189E-04-6.85975E-15
 -1      3176 2.82627E-03 4.20372E-04-6.24720E-15
 -1      3177 3.03656E-03 3.85488E-04-7.21898E-15
 -1      3178 3.82622E-03 4.24681E-04-1.10892E-14
 -1      3179 3.68341E-03 4.24939E-04-1.03205E-14
 -1      3180 4.11185E-03 4.23724E-04-1.27015E-14
 -1      3181 3.96904E-03 4.24270E-04-1.18830E-14
 -1      3182 3.89578E-03 3.87025E-04-1.15249E-14
 -1      3183 4.39748E-03 4.22337E-04-1.44120E-14
 -1      3184 4.25467E-03 4.23076E-04-1.35446E-14
 -1      3185 4.18191E-03 3.85990E-04-1.31605E-14
 -1      3186 4.68313E-03 4.20640E-04-1.62151E-14
 -1      3187 4.54031E-03 4.21523E-04-1.53022E-14
 -1      3188 4.46795E-03 3.84579E-04-1.48933E-14
 -1      3189 4.96881E-03 4.18682E-04-1.81088E-14
 -1      3190 4.82597E-03 4.19693E-04-1.71506E-14
 -1      3191 4.75392E-03 3.82889E-04-1.67181E-14
 -1      3192 5.25451E-03 4.16453E-04-2.00892E-14
 -1      3193 5.11166E-03 4.17603E-04-1.90886E-14
 -1      3194 5.03982E-03 3.80951E-04-1.86323E-14
 -1      3195 5.54025E-03 4.13902E-04-2.21525E-14
 -1      3196 5.39738E-03 4.15222E-04-2.11106E-14
 -1      3197 5.32567E-03 3.78744E-04-2.06328E-14
 -1      3198 5.82604E-03 4.10945E-04-2.42936E-14
 -1      3199 5.68314E-03 4.12480E-04-2.32138E-14
 -1      3200 5.61147E-03 3.76211E-04-2.27147E-14
 -1      3201 6.11187E-03 4.07476E-04-2.65099E-14
 -1      3202 5.96895E-03 4.09281E-04-2.53924E-14
 -1      3203 5.89722E-03 3.73265E-04-2.48742E-14
 -1      3204 6.39777E-03 4.03379E-04-2.87943E-14
 -1      3205 6.25481E-03 4.05513E-04-2.76433E-14
 -1      3206 6.18290E-03 3.69799E-04-2.71048E-14
 -1      3207 6.68374E-03 3.98539E-04-3.11511E-14
 -1      3208 6.54074E-03 4.01058E-04-2.99637E-14
 -1      3209 6.46851E-03 3.65699E-04-2.94060E-14
 -1      3210 6.96979E-03 3.92863E-04-3.35704E-14
 -1      3211 6.82675E-03 3.95810E-04-3.23531E-14
 -1      3212 6.75402E-03 3.60858E-04-3.17762E-14
 -1      3213 7.25596E-03 3.86304E-04-3.60581E-14
 -1      3214 7.11285E-03 3.89695E-04-3.48056E-14
 -1      3215 7.03940E-03 3.55192E-04-3.42124E-14
 -1      3216 7.54228E-03 3.78893E-04-3.86085E-14
 -1      3217 7.39909E-03 3.82701E-04-3.73253E-14
 -1      3218 7.32462E-03 3.48663E-04-3.67149E-14
 -1      3219 7.82879E-03 3.70785E-04-4.12209E-14
 -1      3220 7.68549E-03 3.74914E-04-3.99068E-14
 -1      3221 7.60966E-03 3.41315E-04-3.92808E-14
 -1      3222 8.11561E-03 3.62321E-04-4.38944E-14
 -1      3223 7.97214E-03 3.66572E-04-4.25501E-14
 -1      3224 7.89450E-03 3.33317E-04-4.19079E-14
 -1      3225 8.40289E-03 3.54099E-04-4.66268E-14
 -1      3226 8.25916E-03 3.58136E-04-4.52538E-14
 -1      3227 8.17917E-03 3.25016E-04-4.45964E-14
 -1      3228 8.69095E-03 3.47076E-04-4.94184E-14
 -1      3229 8.54678E-03 3.50369E-04-4.80152E-14
 -1      3230 8.46380E-03 3.17009E-04-4.73437E-14
 -1      3231 8.98032E-03 3.42671E-04-5.22584E-14
 -1      3232 8.83541E-03 3.44441E-04-5.08320E-14
 -1      3233 8.74867E-03 3.10225E-04-5.01464E-14
 -1      3234 9.27192E-03 3.42907E-04-5.51510E-14
 -1      3235 9.12575E-03 3.42053E-04-5.36992E-14
 -1      3236 9.03434E-03 3.06024E-04-5.30005E-14
 -1      3237 9.56725E-03 3.50552E-04-5.80867E-14
 -1      3238 9.41899E-03 3.45576E-04-5.66135E-14
 -1      3239 9.32190E-03 3.06319E-04-5.59041E-14
 -1      3240 9.86864E-03 3.69307E-04-6.10653E-14
 -1      3241 9.71701E-03 3.58213E-04-5.95696E-14
 -1      3242 9.61316E-03 3.13737E-04-5.88497E-14
 -1      3243 1.01794E-02 4.04008E-04-6.40839E-14
 -1      3244 1.00227E-02 3.84207E-04-6.25697E-14
 -1      3245 9.91105E-03 3.31881E-04-6.18377E-14
 -1      3246 1.05037E-02 4.60749E-04-6.71413E-14
 -1      3247 1.03398E-02 4.29011E-04-6.56085E-14
 -1      3248 1.02199E-02 3.65714E-04-6.48679E-14
 -1      3249 1.08452E-02 5.46550E-04-7.02280E-14
 -1      3250 1.06725E-02 4.99374E-04-6.86813E-14
 -1      3251 1.05452E-02 4.22200E-04-6.79319E-14
 -1      3252 1.12044E-02 6.66623E-04-7.33413E-14
 -1      3253 1.10233E-02 6.01970E-04-7.17796E-14
 -1      3254 1.08924E-02 5.10370E-04-7.10228E-14
 -1      3255 1.15738E-02 8.17277E-04-7.64829E-14
 -1      3256 1.13893E-02 7.39320E-04-7.49110E-14
 -1      3257 1.12626E-02 6.38539E-04-7.41399E-14
 -1      3258 1.22501E-02 1.06934E-03-8.25155E-14
 -1      3259 1.20766E-02 1.01821E-03-8.09125E-14
 -1      3260 1.29244E-02 9.95712E-04-8.90736E-14
 -1      3261 1.27527E-02 1.05688E-03-8.74422E-14
 -1      3262 1.01652E-03 6.82049E-05-1.10322E-15
 -1      3263 1.01535E-03 4.12229E-05-1.10612E-15
 -1      3264 1.12524E-02-5.92917E-04-7.47952E-14
 -1      3265 1.10717E-02-4.83236E-04-7.39028E-14
 -1      3266 1.23235E-02-1.20191E-03-8.24910E-14
 -1      3267 1.41232E-02 3.73898E-04-9.88039E-14
 -1      3268 1.04555E-02-1.88978E-04-7.10624E-14
 -1      3269 1.03093E-02-1.33952E-04-7.05508E-14
 -1      3270 1.26240E-02-1.24218E-03-8.52238E-14
 -1      3271 1.82456E-03 3.81193E-04-2.73673E-15
 -1      3272 1.68121E-03 3.69592E-04-2.35040E-15
 -1      3273 1.88824E-03 3.50481E-04-2.97584E-15
 -1      3274 1.28036E-02-1.21082E-03-8.68410E-14
 -1      3275 1.01829E-02-8.76699E-05-7.01916E-14
 -1      3276 1.01205E-02-6.49494E-05-7.01212E-14
 -1      3277 1.33410E-02-9.51259E-04-9.11291E-14
 -1      3278 1.14502E-03 3.10568E-04-1.15710E-15
 -1      3279 1.08235E-03 2.71633E-04-1.08359E-15
 -1      3280 1.20142E-03 2.73047E-04-1.32462E-15
 -1      3281 1.28818E-03 3.32545E-04-1.43132E-15
 -1      3282 1.52257E-02-9.03737E-05-9.86431E-14
 -1      3283 1.01935E-02 2.18504E-06-7.07668E-14
 -1      3284 1.02958E-02 2.88583E-05-7.13362E-14
 -1      3285 1.12019E-02 4.67093E-04-7.49565E-14
 -1      3286 1.13937E-02 5.87439E-04-7.59968E-14
 -1      3287 3.54058E-03 4.24994E-04-9.57609E-15
 -1      3288 3.39776E-03 4.24814E-04-8.85744E-15
 -1      3289 3.32313E-03 3.87134E-04-8.55060E-15
 -1      3290 3.60952E-03 3.87503E-04-9.98706E-15
 -1      3291 1.08157E-02 2.46513E-04-7.32825E-14
 -1      3292 1.09827E-02 3.38948E-04-7.39270E-14
 -1      3293 1.23798E-02 1.06816E-03-8.35925E-14
 -1      3294 1.25349E-02 1.07992E-03-8.50452E-14
 -1      3295 8.87886E-04-2.11816E-04-7.76153E-16
 -1      3296 1.44458E-03-3.13756E-04-1.78971E-15
 -1      3297 1.58808E-03-3.28235E-04-2.12708E-15
 -1      3298 1.65235E-03-3.00161E-04-2.33910E-15
 -1      3299 1.31488E-02 8.66030E-04-9.04700E-14
 -1      3300 1.33085E-02 7.69656E-04-9.15422E-14
 -1      3301 1.39804E-02-5.82198E-04-9.48064E-14
 -1      3302 1.37439E-02-7.16274E-04-9.35934E-14
 -1      3303 1.08697E-02-3.73542E-04-7.29526E-14
 -1      3304 1.06706E-02-2.80541E-04-7.20043E-14
 -1      3305 1.09185E-02-4.34882E-04-7.25684E-14
 -1      3306 1.40073E-02 3.63518E-04-9.52182E-14
 -1      3307 1.42545E-02 2.47395E-04-9.65450E-14
 -1      3308 1.16394E-02 7.37969E-04-7.75752E-14
 -1      3309 1.18276E-02 8.48509E-04-7.89436E-14
 -1      3310 1.35456E-02-8.42172E-04-9.27572E-14
 -1      3311 1.01475E-03 1.44480E-05-1.10678E-15
 -1      3312 1.01471E-03-1.22278E-05-1.10575E-15
 -1      3313 1.13543E-03 3.01640E-05-1.33921E-15
 -1      3314 1.01942E-02-1.12899E-04-6.93867E-14
 -1      3315 1.47929E-02-2.25750E-04-9.80152E-14
 -1      3316 1.34447E-02 6.96655E-04-9.26417E-14
 -1      3317 1.43697E-02 2.11134E-04-9.77190E-14
 -1      3318 1.42246E-02 2.91202E-04-9.77372E-14
 -1      3319 1.18783E-03-2.78772E-04-1.26167E-15
 -1      3320 1.31607E-03-2.97305E-04-1.51383E-15
 -1      3321 1.38017E-03-2.73448E-04-1.69352E-15
 -1      3322 1.08931E-02-4.68343E-04-7.17233E-14
 -1      3323 1.10548E-02-5.73346E-04-7.24666E-14
 -1      3324 1.00744E-02-5.48657E-05-6.95027E-14
 -1      3325 1.12467E-02-6.51923E-04-7.40172E-14
 -1      3326 1.13965E-02-7.07781E-04-7.53009E-14
 -1      3327 1.16006E-02-8.12990E-04-7.68640E-14
 -1      3328 1.17816E-02-9.35063E-04-7.80373E-14
 -1      3329 1.19791E-02-1.04221E-03-7.96159E-14
 -1      3330 1.01424E-03-2.34395E-04-9.74793E-16
 -1      3331 1.06801E-02 1.98609E-04-7.23934E-14
 -1      3332 1.10409E-02 4.07803E-04-7.37108E-14
 -1      3333 2.74980E-03 3.81960E-04-5.99263E-15
 -1      3334 2.68332E-03 4.17893E-04-5.66191E-15
 -1      3335 2.54035E-03 4.14669E-04-5.10348E-15
 -1      3336 1.16982E-02 8.61996E-04-7.75749E-14
 -1      3337 1.15812E-02 7.63747E-04-7.67971E-14
 -1      3338 1.18811E-02 9.41859E-04-7.91627E-14
 -1      3339 1.25512E-02 1.10025E-03-8.54986E-14
 -1      3340 1.23860E-02 1.10158E-03-8.38803E-14
 -1      3341 1.32984E-02 8.14268E-04-9.25344E-14
 -1      3342 1.31177E-02 9.05513E-04-9.08911E-14
 -1      3343 1.42365E-02-5.07799E-04-9.79732E-14
 -1      3344 2.39731E-03 4.10510E-04-4.57298E-15
 -1      3345 2.25422E-03 4.05305E-04-4.07066E-15
 -1      3346 2.46281E-03 3.75727E-04-4.87483E-15
 -1      3347 1.45127E-02 1.38617E-04-9.77750E-14
 -1      3348 1.05173E-02-2.40356E-04-7.06826E-14
 -1      3349 1.44726E-02-3.64540E-04-9.77185E-14
 -1      3350 1.46320E-02-2.88161E-04-9.77384E-14
 -1      3351 1.38852E-02 4.41796E-04-9.50824E-14
 -1      3352 1.15306E-03 2.11825E-04-1.28860E-15
 -1      3353 1.02830E-03 1.81163E-04-1.06939E-15
 -1      3354 1.02411E-03 1.51835E-04-1.08165E-15
 -1      3355 1.42555E-02-4.75022E-04-9.71735E-14
 -1      3356 1.34798E-02 7.18959E-04-9.41600E-14
 -1      3357 1.34490E-02 7.13535E-04-9.32294E-14
 -1      3358 1.36441E-02 5.91156E-04-9.42639E-14
 -1      3359 1.36376E-02 6.32445E-04-9.54414E-14
 -1      3360 1.41847E-02-4.85008E-04-9.59788E-14
 -1      3361 1.45915E-02-2.89531E-04-9.68012E-14
 -1      3362 1.01210E-02-1.33722E-05-7.00840E-14
 -1      3363 1.01301E-02 6.54172E-06-6.95068E-14
 -1      3364 1.00664E-02-2.33445E-05-6.94020E-14
 -1      3365 1.13561E-02 6.27617E-04-7.52240E-14
 -1      3366 1.15086E-02 6.84565E-04-7.64891E-14
 -1      3367 1.03549E-02 6.16653E-05-7.11414E-14
 -1      3368 1.22793E-02 1.05543E-03-8.27343E-14
 -1      3369 1.01804E-03-9.29904E-05-1.09042E-15
 -1      3370 1.02043E-03-1.20694E-04-1.08110E-15
 -1      3371 1.55631E-03 3.61504E-04-2.03112E-15
 -1      3372 1.41294E-03 3.45329E-04-1.70026E-15
 -1      3373 1.36911E-03 3.15105E-04-1.64219E-15
 -1      3374 1.61928E-03 3.33901E-04-2.23972E-15
 -1      3375 2.17560E-03 3.65699E-04-3.86860E-15
 -1      3376 1.02080E-03 1.23292E-04-1.09120E-15
 -1      3377 1.01832E-03 9.55241E-05-1.09842E-15
 -1      3378 1.13809E-03 8.86208E-05-1.33295E-15
 -1      3379 1.14371E-03 1.48768E-04-1.31671E-15
 -1      3380 1.47138E-02 6.07073E-05-9.82970E-14
 -1      3381 1.48890E-02-2.37090E-06-9.84246E-14
 -1      3382 1.02364E-03-1.49109E-04-1.06932E-15
 -1      3383 1.02770E-03-1.78349E-04-1.05443E-15
 -1      3384 1.14325E-03-1.45906E-04-1.30347E-15
 -1      3385 1.50486E-02-4.52742E-05-9.87244E-14
 -1      3386 1.05564E-02-2.96145E-04-7.00336E-14
 -1      3387 1.03644E-02-2.14449E-04-6.90984E-14
 -1      3388 1.07162E-02-3.76399E-04-7.07802E-14
 -1      3389 1.00174E-02-5.76482E-05-6.81929E-14
 -1      3390 1.00224E-02-3.96265E-05-6.86649E-14
 -1      3391 2.15036E-03-2.93448E-04-3.84161E-15
 -1      3392 2.29471E-03-2.98364E-04-4.32639E-15
 -1      3393 2.43905E-03-3.02327E-04-4.83847E-15
 -1      3394 2.58337E-03-3.05433E-04-5.37877E-15
 -1      3395 2.36215E-03-2.63667E-04-4.61194E-15
 -1      3396 2.72763E-03-3.07847E-04-5.94562E-15
 -1      3397 2.87183E-03-3.09642E-04-6.53920E-15
 -1      3398 2.65140E-03-2.69380E-04-5.69328E-15
 -1      3399 3.01595E-03-3.10948E-04-7.16015E-15
 -1      3400 3.15999E-03-3.11820E-04-7.80718E-15
 -1      3401 2.94045E-03-2.72700E-04-6.88247E-15
 -1      3402 3.30394E-03-3.12357E-04-8.48033E-15
 -1      3403 3.44781E-03-3.12597E-04-9.17964E-15
 -1      3404 3.22915E-03-2.74327E-04-8.17751E-15
 -1      3405 3.59160E-03-3.12613E-04-9.90474E-15
 -1      3406 3.73530E-03-3.12430E-04-1.06553E-14
 -1      3407 3.51747E-03-2.74792E-04-9.57684E-15
 -1      3408 3.87893E-03-3.12101E-04-1.14305E-14
 -1      3409 4.02248E-03-3.11641E-04-1.22296E-14
 -1      3410 3.80539E-03-2.74477E-04-1.10766E-14
 -1      3411 4.16596E-03-3.11084E-04-1.30538E-14
 -1      3412 4.30938E-03-3.10439E-04-1.39017E-14
 -1      3413 4.09292E-03-2.73648E-04-1.26765E-14
 -1      3414 4.45273E-03-3.09727E-04-1.47718E-14
 -1      3415 4.59602E-03-3.08949E-04-1.56645E-14
 -1      3416 4.38010E-03-2.72475E-04-1.43711E-14
 -1      3417 4.73925E-03-3.08118E-04-1.65802E-14
 -1      3418 4.88243E-03-3.07230E-04-1.75186E-14
 -1      3419 4.66695E-03-2.71057E-04-1.61579E-14
 -1      3420 5.02555E-03-3.06288E-04-1.84773E-14
 -1      3421 5.16862E-03-3.05285E-04-1.94570E-14
 -1      3422 4.95351E-03-2.69433E-04-1.80333E-14
 -1      3423 5.31164E-03-3.04220E-04-2.04581E-14
 -1      3424 5.45461E-03-3.03083E-04-2.14795E-14
 -1      3425 5.23977E-03-2.67599E-04-1.99942E-14
 -1      3426 5.59752E-03-3.01865E-04-2.25209E-14
 -1      3427 5.74037E-03-3.00557E-04-2.35822E-14
 -1      3428 5.52574E-03-2.65517E-04-2.20375E-14
 -1      3429 5.88315E-03-2.99146E-04-2.46625E-14
 -1      3430 6.02586E-03-2.97621E-04-2.57616E-14
 -1      3431 5.81139E-03-2.63122E-04-2.41595E-14
 -1      3432 6.16850E-03-2.95970E-04-2.68801E-14
 -1      3433 6.31105E-03-2.94177E-04-2.80188E-14
 -1      3434 6.09667E-03-2.60332E-04-2.63588E-14
 -1      3435 6.45350E-03-2.92233E-04-2.91756E-14
 -1      3436 6.59585E-03-2.90122E-04-3.03491E-14
 -1      3437 6.38149E-03-2.57057E-04-2.86344E-14
 -1      3438 6.73806E-03-2.87838E-04-3.15412E-14
 -1      3439 6.88014E-03-2.85365E-04-3.27510E-14
 -1      3440 6.66574E-03-2.53205E-04-3.09828E-14
 -1      3441 7.02205E-03-2.82704E-04-3.39779E-14
 -1      3442 7.16379E-03-2.79841E-04-3.52212E-14
 -1      3443 6.94928E-03-2.48699E-04-3.34009E-14
 -1      3444 7.30532E-03-2.76789E-04-3.64818E-14
 -1      3445 7.44663E-03-2.73536E-04-3.77599E-14
 -1      3446 7.23189E-03-2.43489E-04-3.58874E-14
 -1      3447 7.58766E-03-2.70114E-04-3.90529E-14
 -1      3448 7.72843E-03-2.66516E-04-4.03625E-14
 -1      3449 7.51334E-03-2.37577E-04-3.84425E-14
 -1      3450 7.86887E-03-2.62798E-04-4.16863E-14
 -1      3451 8.00898E-03-2.58963E-04-4.30260E-14
 -1      3452 7.79334E-03-2.31043E-04-4.10590E-14
 -1      3453 8.14869E-03-2.55099E-04-4.43814E-14
 -1      3454 8.28802E-03-2.51221E-04-4.57525E-14
 -1      3455 8.07158E-03-2.24077E-04-4.37373E-14
 -1      3456 8.42689E-03-2.47457E-04-4.71359E-14
 -1      3457 8.56536E-03-2.43842E-04-4.85317E-14
 -1      3458 8.34770E-03-2.17012E-04-4.64759E-14
 -1      3459 8.70334E-03-2.40548E-04-4.99422E-14
 -1      3460 8.84092E-03-2.37638E-04-5.13647E-14
 -1      3461 8.62140E-03-2.10358E-04-4.92693E-14
 -1      3462 8.97803E-03-2.35326E-04-5.27979E-14
 -1      3463 9.11487E-03-2.33727E-04-5.42430E-14
 -1      3464 8.89247E-03-2.04831E-04-5.21131E-14
 -1      3465 9.25139E-03-2.33083E-04-5.56992E-14
 -1      3466 9.38792E-03-2.33596E-04-5.71651E-14
 -1      3467 9.16094E-03-2.01370E-04-5.50014E-14
 -1      3468 9.52448E-03-2.35512E-04-5.86414E-14
 -1      3469 9.66167E-03-2.39216E-04-6.01283E-14
 -1      3470 9.42732E-03-2.01155E-04-5.79329E-14
 -1      3471 9.79962E-03-2.44908E-04-6.16206E-14
 -1      3472 9.93935E-03-2.53375E-04-6.31216E-14
 -1      3473 9.69301E-03-2.05695E-04-6.09014E-14
 -1      3474 1.00813E-02-2.64693E-04-6.46307E-14
 -1      3475 1.02270E-02-2.80633E-04-6.61489E-14
 -1      3476 9.96107E-03-2.17162E-04-6.39032E-14
 -1      3477 1.03820E-02-3.05192E-04-6.76684E-14
 -1      3478 1.05397E-02-3.34179E-04-6.91946E-14
 -1      3479 1.21389E-02-1.13077E-03-8.08922E-14
 -1      3480 3.10457E-03 3.48479E-04-7.57978E-15
 -1      3481 2.96084E-03 3.47310E-04-6.93938E-15
 -1      3482 4.25218E-03 3.48158E-04-1.36209E-14
 -1      3483 4.10893E-03 3.48745E-04-1.27789E-14
 -1      3484 3.96562E-03 3.49230E-04-1.19612E-14
 -1      3485 3.82227E-03 3.49604E-04-1.11685E-14
 -1      3486 4.03575E-03 3.11342E-04-1.23992E-14
 -1      3487 4.82479E-03 3.45109E-04-1.72218E-14
 -1      3488 4.68170E-03 3.45964E-04-1.62873E-14
 -1      3489 5.11086E-03 3.43222E-04-1.91570E-14
 -1      3490 4.96784E-03 3.44196E-04-1.81784E-14
 -1      3491 4.89574E-03 3.07330E-04-1.77259E-14
 -1      3492 5.39680E-03 3.41071E-04-2.11769E-14
 -1      3493 5.25385E-03 3.42183E-04-2.01564E-14
 -1      3494 5.18193E-03 3.05525E-04-1.96819E-14
 -1      3495 5.68260E-03 3.38592E-04-2.32769E-14
 -1      3496 5.53972E-03 3.39878E-04-2.22168E-14
 -1      3497 5.46791E-03 3.03461E-04-2.17208E-14
 -1      3498 5.96825E-03 3.35698E-04-2.54528E-14
 -1      3499 5.82545E-03 3.37204E-04-2.43557E-14
 -1      3500 5.75365E-03 3.01074E-04-2.38387E-14
 -1      3501 6.25370E-03 3.32285E-04-2.76997E-14
 -1      3502 6.11100E-03 3.34064E-04-2.65675E-14
 -1      3503 6.03912E-03 2.98277E-04-2.60313E-14
 -1      3504 6.53893E-03 3.28245E-04-3.00171E-14
 -1      3505 6.39635E-03 3.30351E-04-2.88502E-14
 -1      3506 6.32428E-03 2.94971E-04-2.82957E-14
 -1      3507 6.82387E-03 3.23477E-04-3.24018E-14
 -1      3508 6.68144E-03 3.25959E-04-3.12009E-14
 -1      3509 6.60904E-03 2.91055E-04-3.06277E-14
 -1      3510 7.10844E-03 3.17906E-04-3.48547E-14
 -1      3511 6.96620E-03 3.20797E-04-3.36201E-14
 -1      3512 6.89330E-03 2.86436E-04-3.30288E-14
 -1      3513 7.39257E-03 3.11505E-04-3.73728E-14
 -1      3514 7.25056E-03 3.14811E-04-3.61057E-14
 -1      3515 7.17695E-03 2.81050E-04-3.54976E-14
 -1      3516 7.67615E-03 3.04330E-04-3.99534E-14
 -1      3517 7.53442E-03 3.08012E-04-3.86550E-14
 -1      3518 7.45984E-03 2.74880E-04-3.80308E-14
 -1      3519 7.95911E-03 2.96553E-04-4.25964E-14
 -1      3520 7.81770E-03 3.00506E-04-4.12671E-14
 -1      3521 7.74180E-03 2.67986E-04-4.06277E-14
 -1      3522 8.24141E-03 2.88517E-04-4.52979E-14
 -1      3523 8.10033E-03 2.92546E-04-4.39394E-14
 -1      3524 8.02269E-03 2.60537E-04-4.32839E-14
 -1      3525 8.52312E-03 2.80796E-04-4.80596E-14
 -1      3526 8.38231E-03 2.84580E-04-4.66723E-14
 -1      3527 8.30240E-03 2.52859E-04-4.60015E-14
 -1      3528 8.80448E-03 2.74259E-04-5.08758E-14
 -1      3529 8.66380E-03 2.77319E-04-4.94618E-14
 -1      3530 8.58094E-03 2.45477E-04-4.87768E-14
 -1      3531 9.08611E-03 2.70160E-04-5.37423E-14
 -1      3532 8.94518E-03 2.71811E-04-5.23016E-14
 -1      3533 8.85851E-03 2.39167E-04-5.16059E-14
 -1      3534 9.36916E-03 2.70248E-04-5.66571E-14
 -1      3535 9.22732E-03 2.69536E-04-5.51950E-14
 -1      3536 9.13570E-03 2.35026E-04-5.44854E-14
 -1      3537 9.65574E-03 2.76937E-04-5.96133E-14
 -1      3538 9.51180E-03 2.72541E-04-5.81298E-14
 -1      3539 9.41374E-03 2.34569E-04-5.74096E-14
 -1      3540 9.94931E-03 2.93658E-04-6.26105E-14
 -1      3541 9.80134E-03 2.83666E-04-6.11064E-14
 -1      3542 9.69492E-03 2.39903E-04-6.03762E-14
 -1      3543 1.02551E-02 3.25514E-04-6.56496E-14
 -1      3544 1.01003E-02 3.07090E-04-6.41258E-14
 -1      3545 9.98315E-03 2.54255E-04-6.33835E-14
 -1      3546 1.05804E-02 3.80445E-04-6.87202E-14
 -1      3547 1.04149E-02 3.49123E-04-6.71818E-14
 -1      3548 1.02847E-02 2.82797E-04-6.64300E-14
 -1      3549 1.11613E-02 5.49956E-04-7.36585E-14
 -1      3550 1.19196E-02 9.11202E-04-7.96275E-14
 -1      3551 1.26314E-02 1.07324E-03-8.60356E-14
 -1      3552 1.30509E-02 9.21743E-04-8.97919E-14
 -1      3553 1.01845E-02-1.39042E-04-6.83776E-14
 -1      3554 1.00773E-02-9.66811E-05-6.80192E-14
 -1      3555 1.39132E-02 4.86067E-04-9.76153E-14
 -1      3556 1.37536E-02 5.69257E-04-9.63293E-14
 -1      3557 1.38630E-02 4.72744E-04-9.56722E-14
 -1      3558 1.95313E-03 3.19063E-04-3.21966E-15
 -1      3559 1.80915E-03 3.10467E-04-2.80095E-15
 -1      3560 1.42135E-02-4.52750E-04-9.53517E-14
 -1      3561 1.86183E-03-2.80043E-04-2.95651E-15
 -1      3562 2.00605E-03-2.87381E-04-3.38482E-15
 -1      3563 2.07293E-03-2.54669E-04-3.63950E-15
 -1      3564 1.02688E-02 5.87429E-05-6.99899E-14
 -1      3565 1.04225E-02 1.03406E-04-7.09420E-14
 -1      3566 1.51698E-02-7.49741E-05-9.88497E-14
 -1      3567 1.01524E-03-3.89324E-05-1.10295E-15
 -1      3568 1.01633E-03-6.57725E-05-1.09756E-15
 -1      3569 1.13784E-03-8.59739E-05-1.32503E-15
 -1      3570 1.07913E-03-2.16784E-04-1.11627E-15
 -1      3571 1.05613E-02 1.75267E-04-7.12377E-14
 -1      3572 1.07004E-02 2.60353E-04-7.15271E-14
 -1      3573 1.04492E-02 1.61424E-04-7.00822E-14
 -1      3574 1.08430E-02 3.44976E-04-7.20825E-14
 -1      3575 1.10361E-02 4.55757E-04-7.31036E-14
 -1      3576 1.09615E-02 4.81588E-04-7.20266E-14
 -1      3577 1.07089E-02 3.12643E-04-7.09250E-14
 -1      3578 1.41033E-02 3.67471E-04-9.78111E-14
 -1      3579 2.24121E-03 3.32011E-04-4.14356E-15
 -1      3580 2.09716E-03 3.26199E-04-3.66735E-15
 -1      3581 2.01906E-03 2.86959E-04-3.46800E-15
 -1      3582 4.53856E-03 3.46760E-04-1.53750E-14
 -1      3583 4.39540E-03 3.47495E-04-1.44861E-14
 -1      3584 4.32267E-03 3.10268E-04-1.40812E-14
 -1      3585 4.60932E-03 3.08912E-04-1.58574E-14
 -1      3586 1.57399E-03-2.60707E-04-2.18594E-15
 -1      3587 1.71779E-03-2.71203E-04-2.55690E-15
 -1      3588 1.78420E-03-2.41326E-04-2.77976E-15
 -1      3589 1.37612E-02 5.48019E-04-9.57396E-14
 -1      3590 1.39907E-02 4.08476E-04-9.65550E-14
 -1      3591 1.31720E-03-2.34673E-04-1.59567E-15
 -1      3592 1.44538E-03-2.48434E-04-1.87921E-15
 -1      3593 1.51155E-03-2.22149E-04-2.07115E-15
 -1      3594 1.32610E-03 2.85651E-04-1.58306E-15
 -1      3595 1.28389E-03 2.56961E-04-1.52241E-15
 -1      3596 1.45111E-03 2.95987E-04-1.86442E-15
 -1      3597 9.98777E-03-7.49552E-05-6.71872E-14
 -1      3598 9.91412E-03-5.78035E-05-6.63561E-14
 -1      3599 9.95832E-03-9.58044E-05-6.61857E-14
 -1      3600 1.02424E-02-2.43286E-04-6.69311E-14
 -1      3601 3.24825E-03 3.49260E-04-8.24633E-15
 -1      3602 3.17317E-03 3.11224E-04-7.94257E-15
 -1      3603 3.39184E-03 3.49699E-04-8.93811E-15
 -1      3604 2.81703E-03 3.45642E-04-6.32589E-15
 -1      3605 2.67316E-03 3.43410E-04-5.73956E-15
 -1      3606 2.88497E-03 3.09002E-04-6.66214E-15
 -1      3607 3.74855E-03 3.12013E-04-1.08126E-14
 -1      3608 3.67885E-03 3.49826E-04-1.03996E-14
 -1      3609 3.53538E-03 3.49877E-04-9.65567E-15
 -1      3610 1.07808E-02 4.29504E-04-7.04760E-14
 -1      3611 1.06360E-02 3.43496E-04-6.97163E-14
 -1      3612 1.02127E-02-1.82633E-04-6.77351E-14
 -1      3613 2.52922E-03 3.40468E-04-5.18021E-15
 -1      3614 2.38524E-03 3.36731E-04-4.64778E-15
 -1      3615 2.30776E-03 2.97794E-04-4.42238E-15
 -1      3616 2.59647E-03 3.04796E-04-5.48781E-15
 -1      3617 1.44045E-02-3.63464E-04-9.60791E-14
 -1      3618 9.99792E-03-2.57353E-05-6.80931E-14
 -1      3619 1.27725E-03 2.22402E-04-1.54327E-15
 -1      3620 1.01681E-02 3.70941E-05-6.91405E-14
 -1      3621 1.02145E-02 6.97984E-05-6.89408E-14
 -1      3622 1.13535E-03-2.76953E-05-1.33673E-15
 -1      3623 1.00840E-02 1.82857E-05-6.84605E-14
 -1      3624 1.73074E-03 2.71033E-04-2.62728E-15
 -1      3625 1.66531E-03 3.00140E-04-2.41071E-15
 -1      3626 1.25866E-03-7.63298E-05-1.58238E-15
 -1      3627 1.26076E-03-1.07780E-04-1.57301E-15
 -1      3628 1.25742E-03 4.78498E-05-1.59329E-15
 -1      3629 1.25668E-03 1.67839E-05-1.59421E-15
 -1      3630 1.26109E-03 1.10616E-04-1.58346E-15
 -1      3631 1.25888E-03 7.90671E-05-1.58972E-15
 -1      3632 1.38058E-03 6.71602E-05-1.86796E-15
 -1      3633 1.53987E-03 2.93388E-04-2.08895E-15
 -1      3634 1.38147E-03-1.53368E-04-1.81718E-15
 -1      3635 1.26043E-03-1.61097E-04-1.53835E-15
 -1      3636 2.57535E-03-2.30981E-04-5.44274E-15
 -1      3637 2.72021E-03-2.32930E-04-6.01140E-15
 -1      3638 2.86501E-03-2.34408E-04-6.60678E-15
 -1      3639 3.00973E-03-2.35463E-04-7.22897E-15
 -1      3640 2.78971E-03-1.96137E-04-6.33287E-15
 -1      3641 3.15436E-03-2.36190E-04-7.87684E-15
 -1      3642 3.29887E-03-2.36621E-04-8.55063E-15
 -1      3643 3.07961E-03-1.97988E-04-7.57764E-15
 -1      3644 3.44328E-03-2.36829E-04-9.25036E-15
 -1      3645 3.58758E-03-2.36837E-04-9.97499E-15
 -1      3646 3.36910E-03-1.98754E-04-8.92621E-15
 -1      3647 3.73176E-03-2.36698E-04-1.07255E-14
 -1      3648 3.87582E-03-2.36425E-04-1.15006E-14
 -1      3649 3.65810E-03-1.98782E-04-1.03760E-14
 -1      3650 4.01978E-03-2.36056E-04-1.23003E-14
 -1      3651 4.16363E-03-2.35598E-04-1.31249E-14
 -1      3652 3.94658E-03-1.98319E-04-1.19265E-14
 -1      3653 4.30737E-03-2.35075E-04-1.39723E-14
 -1      3654 4.45102E-03-2.34490E-04-1.48426E-14
 -1      3655 4.23458E-03-1.97529E-04-1.35746E-14
 -1      3656 4.59457E-03-2.33858E-04-1.57356E-14
 -1      3657 4.73802E-03-2.33175E-04-1.66526E-14
 -1      3658 4.52211E-03-1.96517E-04-1.53159E-14
 -1      3659 4.88139E-03-2.32451E-04-1.75909E-14
 -1      3660 5.02466E-03-2.31679E-04-1.85502E-14
 -1      3661 4.80921E-03-1.95334E-04-1.71485E-14
 -1      3662 5.16784E-03-2.30861E-04-1.95314E-14
 -1      3663 5.31094E-03-2.29988E-04-2.05329E-14
 -1      3664 5.09588E-03-1.93994E-04-1.90688E-14
 -1      3665 5.45394E-03-2.29060E-04-2.15552E-14
 -1      3666 5.59684E-03-2.28064E-04-2.25971E-14
 -1      3667 5.38212E-03-1.92479E-04-2.10738E-14
 -1      3668 5.73964E-03-2.26997E-04-2.36584E-14
 -1      3669 5.88233E-03-2.25846E-04-2.47385E-14
 -1      3670 5.66792E-03-1.90752E-04-2.31576E-14
 -1      3671 6.02490E-03-2.24604E-04-2.58389E-14
 -1      3672 6.16733E-03-2.23257E-04-2.69577E-14
 -1      3673 5.95320E-03-1.88755E-04-2.53195E-14
 -1      3674 6.30962E-03-2.21801E-04-2.80943E-14
 -1      3675 6.45174E-03-2.20218E-04-2.92506E-14
 -1      3676 6.23788E-03-1.86423E-04-2.75566E-14
 -1      3677 6.59367E-03-2.18507E-04-3.04253E-14
 -1      3678 6.73539E-03-2.16649E-04-3.16165E-14
 -1      3679 6.52182E-03-1.83688E-04-2.98679E-14
 -1      3680 6.87687E-03-2.14650E-04-3.28250E-14
 -1      3681 7.01810E-03-2.12489E-04-3.40511E-14
 -1      3682 6.80483E-03-1.80485E-04-3.22504E-14
 -1      3683 7.15901E-03-2.10180E-04-3.52936E-14
 -1      3684 7.29960E-03-2.07703E-04-3.65549E-14
 -1      3685 7.08665E-03-1.76767E-04-3.47024E-14
 -1      3686 7.43980E-03-2.05087E-04-3.78318E-14
 -1      3687 7.57960E-03-2.02310E-04-3.91245E-14
 -1      3688 7.36700E-03-1.72518E-04-3.72215E-14
 -1      3689 7.71891E-03-1.99421E-04-4.04322E-14
 -1      3690 7.85772E-03-1.96400E-04-4.17559E-14
 -1      3691 7.64549E-03-1.67767E-04-3.98068E-14
 -1      3692 7.99594E-03-1.93319E-04-4.30943E-14
 -1      3693 8.13356E-03-1.90162E-04-4.44485E-14
 -1      3694 7.92169E-03-1.62613E-04-4.24523E-14
 -1      3695 8.27047E-03-1.87031E-04-4.58171E-14
 -1      3696 8.40668E-03-1.83911E-04-4.71996E-14
 -1      3697 8.19510E-03-1.57239E-04-4.51581E-14
 -1      3698 8.54205E-03-1.80939E-04-4.85964E-14
 -1      3699 8.67663E-03-1.78103E-04-5.00061E-14
 -1      3700 8.46517E-03-1.51932E-04-4.79235E-14
 -1      3701 8.81027E-03-1.75575E-04-5.14278E-14
 -1      3702 8.94305E-03-1.73345E-04-5.28601E-14
 -1      3703 8.73131E-03-1.47085E-04-5.07419E-14
 -1      3704 9.07481E-03-1.71614E-04-5.43030E-14
 -1      3705 9.20573E-03-1.70380E-04-5.57574E-14
 -1      3706 8.99295E-03-1.43181E-04-5.36062E-14
 -1      3707 9.33562E-03-1.69860E-04-5.72223E-14
 -1      3708 9.46484E-03-1.70071E-04-5.86977E-14
 -1      3709 9.24957E-03-1.40758E-04-5.65129E-14
 -1      3710 9.59314E-03-1.71222E-04-6.01822E-14
 -1      3711 9.72129E-03-1.73460E-04-6.16737E-14
 -1      3712 9.50080E-03-1.40333E-04-5.94599E-14
 -1      3713 9.84883E-03-1.76956E-04-6.31743E-14
 -1      3714 9.97736E-03-1.82115E-04-6.46827E-14
 -1      3715 9.74673E-03-1.42418E-04-6.24471E-14
 -1      3716 5.53898E-03 2.65940E-04-2.22653E-14
 -1      3717 5.39604E-03 2.66945E-04-2.12261E-14
 -1      3718 4.10616E-03 2.73371E-04-1.28370E-14
 -1      3719 3.96244E-03 2.73777E-04-1.20201E-14
 -1      3720 1.00804E-02-1.71147E-04-6.62161E-14
 -1      3721 5.25302E-03 2.67880E-04-2.02071E-14
 -1      3722 5.10993E-03 2.68754E-04-1.92087E-14
 -1      3723 5.32413E-03 2.30316E-04-2.07330E-14
 -1      3724 4.96677E-03 2.69571E-04-1.82306E-14
 -1      3725 4.82353E-03 2.70338E-04-1.72744E-14
 -1      3726 5.03786E-03 2.31862E-04-1.87364E-14
 -1      3727 5.82460E-03 2.63687E-04-2.44009E-14
 -1      3728 5.68183E-03 2.64858E-04-2.33240E-14
 -1      3729 5.61002E-03 2.28536E-04-2.28104E-14
 -1      3730 6.10985E-03 2.61037E-04-2.66106E-14
 -1      3731 5.96728E-03 2.62418E-04-2.54967E-14
 -1      3732 5.89548E-03 2.26459E-04-2.49631E-14
 -1      3733 6.39464E-03 2.57899E-04-2.88899E-14
 -1      3734 6.25231E-03 2.59536E-04-2.77413E-14
 -1      3735 6.18045E-03 2.24009E-04-2.71890E-14
 -1      3736 6.67886E-03 2.54179E-04-3.12378E-14
 -1      3737 6.53683E-03 2.56119E-04-3.00553E-14
 -1      3738 6.46481E-03 2.21102E-04-2.94845E-14
 -1      3739 6.96237E-03 2.49796E-04-3.36568E-14
 -1      3740 6.82071E-03 2.52078E-04-3.24392E-14
 -1      3741 6.74843E-03 2.17654E-04-3.18509E-14
 -1      3742 7.24500E-03 2.44694E-04-3.61414E-14
 -1      3743 7.10380E-03 2.47341E-04-3.48907E-14
 -1      3744 7.03111E-03 2.13595E-04-3.42854E-14
 -1      3745 7.52654E-03 2.38863E-04-3.86894E-14
 -1      3746 7.38591E-03 2.41874E-04-3.74078E-14
 -1      3747 7.31264E-03 2.08876E-04-3.67854E-14
 -1      3748 7.80676E-03 2.32364E-04-4.13023E-14
 -1      3749 7.66681E-03 2.35698E-04-3.99879E-14
 -1      3750 7.59273E-03 2.03492E-04-3.93506E-14
 -1      3751 8.08544E-03 2.25356E-04-4.39734E-14
 -1      3752 7.94629E-03 2.28918E-04-4.26306E-14
 -1      3753 7.87111E-03 1.97500E-04-4.19777E-14
 -1      3754 8.36240E-03 2.18130E-04-4.67055E-14
 -1      3755 8.22413E-03 2.21757E-04-4.53316E-14
 -1      3756 8.14747E-03 1.91039E-04-4.46641E-14
 -1      3757 8.63756E-03 2.11145E-04-4.94948E-14
 -1      3758 8.50019E-03 2.14584E-04-4.80934E-14
 -1      3759 8.42154E-03 1.84353E-04-4.74103E-14
 -1      3760 8.91105E-03 2.05058E-04-5.23365E-14
 -1      3761 8.77447E-03 2.07951E-04-5.09095E-14
 -1      3762 8.69314E-03 1.77813E-04-5.02141E-14
 -1      3763 9.18339E-03 2.00772E-04-5.52278E-14
 -1      3764 9.04727E-03 2.02626E-04-5.37752E-14
 -1      3765 8.96228E-03 1.71927E-04-5.30681E-14
 -1      3766 9.45576E-03 1.99526E-04-5.81632E-14
 -1      3767 9.31940E-03 1.99663E-04-5.66903E-14
 -1      3768 9.22931E-03 1.67367E-04-5.59704E-14
 -1      3769 9.73044E-03 2.03068E-04-6.11406E-14
 -1      3770 9.59252E-03 2.00511E-04-5.96465E-14
 -1      3771 9.49525E-03 1.65043E-04-5.89167E-14
 -1      3772 1.00116E-02 2.14291E-04-6.41562E-14
 -1      3773 9.86973E-03 2.07347E-04-6.26430E-14
 -1      3774 9.76213E-03 1.66169E-04-6.19034E-14
 -1      3775 1.03061E-02 2.38440E-04-6.72081E-14
 -1      3776 1.01565E-02 2.24053E-04-6.56780E-14
 -1      3777 1.00341E-02 1.73419E-04-6.49263E-14
 -1      3778 1.02602E-02 1.39223E-04-6.81206E-14
 -1      3779 1.03679E-02 2.02005E-04-6.84058E-14
 -1      3780 2.08600E-03 2.54159E-04-3.72055E-15
 -1      3781 1.94151E-03 2.48204E-04-3.27056E-15
 -1      3782 1.49773E-03 2.64524E-04-2.01832E-15
 -1      3783 1.99608E-03-2.16405E-04-3.43920E-15
 -1      3784 2.14077E-03-2.21268E-04-3.89908E-15
 -1      3785 1.19872E-03-2.15952E-04-1.35822E-15
 -1      3786 1.79722E-03 2.41017E-04-2.84892E-15
 -1      3787 1.65321E-03 2.32496E-04-2.45573E-15
 -1      3788 1.86462E-03 2.10102E-04-3.07514E-15
 -1      3789 9.92229E-03-2.38311E-05-6.67342E-14
 -1      3790 9.98129E-03-5.93740E-06-6.74649E-14
 -1      3791 1.38402E-03 2.25882E-04-1.78355E-15
 -1      3792 1.25409E-03 1.83752E-04-1.52535E-15
 -1      3793 1.24988E-03 1.51117E-04-1.53844E-15
 -1      3794 1.47322E-03 2.22697E-04-2.00084E-15
 -1      3795 1.25663E-03-1.41516E-05-1.59291E-15
 -1      3796 1.25729E-03-4.51382E-05-1.58906E-15
 -1      3797 1.38039E-03-6.42810E-05-1.86147E-15
 -1      3798 1.37898E-03 1.42666E-06-1.87048E-15
 -1      3799 1.05140E-02 2.71467E-04-6.91689E-14
 -1      3800 1.70742E-03-2.03526E-04-2.60486E-15
 -1      3801 1.85161E-03-2.10515E-04-3.00789E-15
 -1      3802 1.91989E-03-1.78810E-04-3.24111E-15
 -1      3803 2.28558E-03-2.25252E-04-4.38617E-15
 -1      3804 2.43046E-03-2.28444E-04-4.90100E-15
 -1      3805 2.20945E-03-1.87204E-04-4.16239E-15
 -1      3806 1.26488E-03-1.93980E-04-1.52092E-15
 -1      3807 9.99361E-03 1.86431E-05-6.71003E-14
 -1      3808 9.96586E-03-1.32429E-04-6.54790E-14
 -1      3809 9.86830E-03-1.07723E-04-6.46545E-14
 -1      3810 3.46103E-03 3.12078E-04-9.32686E-15
 -1      3811 4.75123E-03 2.33215E-04-1.68249E-14
 -1      3812 4.68021E-03 2.71054E-04-1.63409E-14
 -1      3813 4.53682E-03 2.71721E-04-1.54297E-14
 -1      3814 3.24235E-03 2.73726E-04-8.30728E-15
 -1      3815 3.09803E-03 2.73060E-04-7.64085E-15
 -1      3816 2.95361E-03 2.72040E-04-7.00027E-15
 -1      3817 2.80911E-03 2.70624E-04-6.38596E-15
 -1      3818 3.02289E-03 2.34813E-04-7.34101E-15
 -1      3819 3.88903E-03 2.36059E-04-1.16432E-14
 -1      3820 3.81862E-03 2.74076E-04-1.12275E-14
 -1      3821 3.67470E-03 2.74258E-04-1.04591E-14
 -1      3822 1.50303E-03-5.02211E-05-2.16232E-15
 -1      3823 1.50458E-03-8.48935E-05-2.15417E-15
 -1      3824 2.23059E-03 2.59069E-04-4.19834E-15
 -1      3825 2.15383E-03 2.20687E-04-3.97699E-15
 -1      3826 2.37525E-03 2.63035E-04-4.70453E-15
 -1      3827 4.24980E-03 2.72889E-04-1.36786E-14
 -1      3828 4.17684E-03 2.35360E-04-1.32759E-14
 -1      3829 4.39335E-03 2.72333E-04-1.45426E-14
 -1      3830 9.86350E-03-3.84047E-05-6.57361E-14
 -1      3831 9.82544E-03-1.94370E-05-6.51142E-14
 -1      3832 9.81170E-03-5.44705E-05-6.47408E-14
 -1      3833 1.37093E-03 1.43034E-04-1.81546E-15
 -1      3834 1.54012E-03 1.95851E-04-2.19228E-15
 -1      3835 1.50233E-03 1.87217E-05-2.16919E-15
 -1      3836 1.50228E-03-1.57239E-05-2.16732E-15
 -1      3837 1.62647E-03-3.43641E-05-2.48444E-15
 -1      3838 1.50482E-03 8.78970E-05-2.16363E-15
 -1      3839 1.50317E-03 5.32242E-05-2.16800E-15
 -1      3840 1.62657E-03 3.75040E-05-2.48866E-15
 -1      3841 2.49956E-03-1.92740E-04-5.19395E-15
 -1      3842 1.57781E-03-1.34365E-04-2.31420E-15
 -1      3843 1.57858E-03-1.94747E-04-2.26869E-15
 -1      3844 9.89681E-03 2.14377E-05-6.56750E-14
 -1      3845 1.00096E-02 4.95666E-05-6.66637E-14
 -1      3846 1.70067E-03-1.20746E-04-2.65048E-15
 -1      3847 9.99048E-03 7.84874E-05-6.58702E-14
 -1      3848 1.01048E-02 7.99909E-05-6.72975E-14
 -1      3849 1.02087E-02 1.03342E-04-6.81421E-14
 -1      3850 9.76962E-03-1.11218E-04-6.32435E-14
 -1      3851 9.78139E-03-7.86907E-05-6.39436E-14
 -1      3852 9.71952E-03-5.74397E-05-6.33297E-14
 -1      3853 9.65398E-03-1.10567E-04-6.17434E-14
 -1      3854 3.38657E-03 2.74123E-04-8.99935E-15
 -1      3855 3.31205E-03 2.36041E-04-8.67356E-15
 -1      3856 3.53068E-03 2.74280E-04-9.71638E-15
 -1      3857 3.00504E-03-1.59778E-04-7.28039E-15
 -1      3858 3.15008E-03-1.60286E-04-7.92903E-15
 -1      3859 3.29501E-03-1.60602E-04-8.60385E-15
 -1      3860 3.43981E-03-1.60741E-04-9.30357E-15
 -1      3861 3.22107E-03-1.22412E-04-8.28310E-15
 -1      3862 3.58448E-03-1.60751E-04-1.00285E-14
 -1      3863 3.72900E-03-1.60641E-04-1.07791E-14
 -1      3864 3.51095E-03-1.22631E-04-9.68358E-15
 -1      3865 3.87340E-03-1.60447E-04-1.15544E-14
 -1      3866 4.01765E-03-1.60172E-04-1.23545E-14
 -1      3867 3.80026E-03-1.22459E-04-1.11843E-14
 -1      3868 4.16178E-03-1.59843E-04-1.31787E-14
 -1      3869 4.30577E-03-1.59458E-04-1.40266E-14
 -1      3870 4.08899E-03-1.22025E-04-1.27845E-14
 -1      3871 4.44964E-03-1.59037E-04-1.48974E-14
 -1      3872 4.59338E-03-1.58573E-04-1.57908E-14
 -1      3873 4.37716E-03-1.21419E-04-1.44801E-14
 -1      3874 4.73700E-03-1.58080E-04-1.67081E-14
 -1      3875 4.88050E-03-1.57551E-04-1.76471E-14
 -1      3876 4.66479E-03-1.20688E-04-1.62689E-14
 -1      3877 5.02389E-03-1.56993E-04-1.86077E-14
 -1      3878 5.16716E-03-1.56397E-04-1.95896E-14
 -1      3879 4.95189E-03-1.19852E-04-1.81471E-14
 -1      3880 5.31030E-03-1.55767E-04-2.05920E-14
 -1      3881 5.45332E-03-1.55092E-04-2.16150E-14
 -1      3882 5.23849E-03-1.18912E-04-2.01117E-14
 -1      3883 5.59622E-03-1.54374E-04-2.26571E-14
 -1      3884 5.73897E-03-1.53600E-04-2.37189E-14
 -1      3885 5.52454E-03-1.17849E-04-2.21573E-14
 -1      3886 5.88157E-03-1.52772E-04-2.47998E-14
 -1      3887 6.02402E-03-1.51874E-04-2.59004E-14
 -1      3888 5.81001E-03-1.16633E-04-2.42812E-14
 -1      3889 6.16628E-03-1.50908E-04-2.70197E-14
 -1      3890 6.30835E-03-1.49858E-04-2.81559E-14
 -1      3891 6.09479E-03-1.15225E-04-2.64819E-14
 -1      3892 6.45019E-03-1.48727E-04-2.93114E-14
 -1      3893 6.59179E-03-1.47498E-04-3.04850E-14
 -1      3894 6.37875E-03-1.13584E-04-2.87571E-14
 -1      3895 6.73311E-03-1.46177E-04-3.16767E-14
 -1      3896 6.87412E-03-1.44744E-04-3.28854E-14
 -1      3897 6.66168E-03-1.11669E-04-3.11031E-14
 -1      3898 7.01478E-03-1.43215E-04-3.41098E-14
 -1      3899 7.15506E-03-1.41567E-04-3.53525E-14
 -1      3900 6.94334E-03-1.09449E-04-3.35189E-14
 -1      3901 7.29489E-03-1.39825E-04-3.66124E-14
 -1      3902 7.43424E-03-1.37963E-04-3.78887E-14
 -1      3903 7.22338E-03-1.06907E-04-3.60036E-14
 -1      3904 7.57303E-03-1.36023E-04-3.91808E-14
 -1      3905 7.71123E-03-1.33974E-04-4.04872E-14
 -1      3906 7.50141E-03-1.04054E-04-3.85548E-14
 -1      3907 7.84874E-03-1.31879E-04-4.18100E-14
 -1      3908 7.98553E-03-1.29702E-04-4.31474E-14
 -1      3909 7.77695E-03-1.00942E-04-4.11680E-14
 -1      3910 8.12148E-03-1.27529E-04-4.45011E-14
 -1      3911 8.25655E-03-1.25319E-04-4.58687E-14
 -1      3912 8.04941E-03-9.76692E-05-4.38426E-14
 -1      3913 8.39061E-03-1.23188E-04-4.72502E-14
 -1      3914 8.52363E-03-1.21082E-04-4.86465E-14
 -1      3915 8.31815E-03-9.43969E-05-4.65780E-14
 -1      3916 8.65545E-03-1.19150E-04-5.00552E-14
 -1      3917 8.78604E-03-1.17317E-04-5.14758E-14
 -1      3918 8.58237E-03-9.13456E-05-4.93682E-14
 -1      3919 8.91520E-03-1.15769E-04-5.29067E-14
 -1      3920 9.04294E-03-1.14395E-04-5.43495E-14
 -1      3921 8.84118E-03-8.87820E-05-5.22079E-14
 -1      3922 9.16899E-03-1.13421E-04-5.58035E-14
 -1      3923 9.29342E-03-1.12677E-04-5.72664E-14
 -1      3924 9.09347E-03-8.69736E-05-5.50927E-14
 -1      3925 9.41595E-03-1.11267E-04-5.87552E-14
 -1      3926 9.53637E-03-1.11214E-04-6.02385E-14
 -1      3927 9.57266E-03-8.30827E-05-6.10273E-14
 -1      3928 9.33823E-03-8.50198E-05-5.80341E-14
 -1      3929 5.96628E-03 1.89418E-04-2.55254E-14
 -1      3930 5.82372E-03 1.90385E-04-2.44307E-14
 -1      3931 5.39526E-03 1.92853E-04-2.12592E-14
 -1      3932 5.25220E-03 1.93562E-04-2.02406E-14
 -1      3933 5.10903E-03 1.94221E-04-1.92432E-14
 -1      3934 4.96575E-03 1.94839E-04-1.82660E-14
 -1      3935 5.18025E-03 1.56673E-04-1.97496E-14
 -1      3936 6.25093E-03 1.87224E-04-2.77680E-14
 -1      3937 6.10869E-03 1.88370E-04-2.66380E-14
 -1      3938 6.03703E-03 1.52589E-04-2.60875E-14
 -1      3939 6.53483E-03 1.84615E-04-3.00801E-14
 -1      3940 6.39298E-03 1.85979E-04-2.89155E-14
 -1      3941 6.32132E-03 1.50708E-04-2.83477E-14
 -1      3942 6.81780E-03 1.81519E-04-3.24646E-14
 -1      3943 6.67644E-03 1.83136E-04-3.12637E-14
 -1      3944 6.60472E-03 1.48465E-04-3.06781E-14
 -1      3945 7.09961E-03 1.77874E-04-3.49140E-14
 -1      3946 6.95886E-03 1.79773E-04-3.36810E-14
 -1      3947 6.88701E-03 1.45801E-04-3.30780E-14
 -1      3948 7.37999E-03 1.73641E-04-3.74317E-14
 -1      3949 7.23999E-03 1.75839E-04-3.61650E-14
 -1      3950 7.16793E-03 1.42663E-04-3.55451E-14
 -1      3951 7.65860E-03 1.68816E-04-4.00108E-14
 -1      3952 7.51953E-03 1.71310E-04-3.87123E-14
 -1      3953 7.44713E-03 1.39018E-04-3.80769E-14
 -1      3954 7.93509E-03 1.63444E-04-4.26543E-14
 -1      3955 7.79713E-03 1.66204E-04-4.13257E-14
 -1      3956 7.72424E-03 1.34859E-04-4.06738E-14
 -1      3957 8.20907E-03 1.57637E-04-4.53563E-14
 -1      3958 8.07241E-03 1.60599E-04-4.39981E-14
 -1      3959 7.99882E-03 1.30217E-04-4.33322E-14
 -1      3960 8.48017E-03 1.51585E-04-4.81165E-14
 -1      3961 8.34499E-03 1.54644E-04-4.67280E-14
 -1      3962 8.27040E-03 1.25169E-04-4.60491E-14
 -1      3963 8.74809E-03 1.45560E-04-5.09338E-14
 -1      3964 8.61452E-03 1.48569E-04-4.95194E-14
 -1      3965 8.53850E-03 1.19840E-04-4.88242E-14
 -1      3966 9.01264E-03 1.39913E-04-5.38003E-14
 -1      3967 8.88075E-03 1.42686E-04-5.23613E-14
 -1      3968 8.80264E-03 1.14398E-04-5.16552E-14
 -1      3969 9.27394E-03 1.35070E-04-5.67130E-14
 -1      3970 9.14362E-03 1.37377E-04-5.52502E-14
 -1      3971 9.06241E-03 1.09026E-04-5.45324E-14
 -1      3972 9.53265E-03 1.31618E-04-5.96689E-14
 -1      3973 9.40346E-03 1.33130E-04-5.81859E-14
 -1      3974 9.31755E-03 1.03889E-04-5.74551E-14
 -1      3975 9.79014E-03 1.30206E-04-6.26634E-14
 -1      3976 9.66125E-03 1.30661E-04-6.11622E-14
 -1      3977 9.56815E-03 9.92815E-05-6.04215E-14
 -1      3978 1.01313E-02 1.45226E-04-6.64765E-14
 -1      3979 9.99744E-03 1.40922E-04-6.49528E-14
 -1      3980 2.66454E-03 2.68704E-04-5.79868E-15
 -1      3981 2.51991E-03 2.66220E-04-5.23820E-15
 -1      3982 2.73334E-03 2.32247E-04-6.11214E-15
 -1      3983 2.13389E-03-1.49678E-04-3.94086E-15
 -1      3984 2.27897E-03-1.52495E-04-4.42982E-15
 -1      3985 1.93293E-03 1.78286E-04-3.30636E-15
 -1      3986 1.78852E-03 1.72892E-04-2.88246E-15
 -1      3987 2.42417E-03-1.54772E-04-4.94635E-15
 -1      3988 2.56943E-03-1.56568E-04-5.48993E-15
 -1      3989 2.34926E-03-1.17174E-04-4.70115E-15
 -1      3990 2.71469E-03-1.57969E-04-6.06070E-15
 -1      3991 2.85990E-03-1.59013E-04-6.65758E-15
 -1      3992 2.93070E-03-1.21613E-04-6.98462E-15
 -1      3993 1.55017E-03 1.49963E-04-2.24987E-15
 -1      3994 1.84461E-03-1.33609E-04-3.05116E-15
 -1      3995 1.98920E-03-1.37523E-04-3.48562E-15
 -1      3996 2.05931E-03-1.04002E-04-3.72734E-15
 -1      3997 1.77099E-03-8.14713E-05-2.86685E-15
 -1      3998 9.81008E-03 3.97492E-06-6.46839E-14
 -1      3999 9.80469E-03 2.99439E-05-6.42514E-14
 -1      4000 9.73409E-03-1.19725E-05-6.36963E-14
 -1      4001 1.76903E-03-6.61352E-06-2.88033E-15
 -1      4002 1.76958E-03-4.40039E-05-2.87540E-15
 -1      4003 1.91332E-03-5.40012E-05-3.29364E-15
 -1      4004 5.68103E-03 1.91272E-04-2.33544E-14
 -1      4005 5.53820E-03 1.92094E-04-2.22973E-14
 -1      4006 5.75202E-03 1.54172E-04-2.38987E-14
 -1      4007 1.61901E-03 1.21200E-04-2.44478E-15
 -1      4008 9.88745E-03 1.02409E-04-6.41985E-14
 -1      4009 3.09278E-03 1.97331E-04-7.68355E-15
 -1      4010 2.94787E-03 1.96543E-04-7.04275E-15
 -1      4011 4.82237E-03 1.95414E-04-1.73108E-14
 -1      4012 4.67889E-03 1.95954E-04-1.63780E-14
 -1      4013 4.89362E-03 1.57679E-04-1.77976E-14
 -1      4014 5.46640E-03 1.55517E-04-2.17860E-14
 -1      4015 3.38227E-03 1.98181E-04-9.04120E-15
 -1      4016 3.23759E-03 1.97869E-04-8.34979E-15
 -1      4017 3.16323E-03 1.59647E-04-8.02785E-15
 -1      4018 3.95977E-03 1.97977E-04-1.20599E-14
 -1      4019 3.81559E-03 1.98198E-04-1.12680E-14
 -1      4020 1.77045E-03 6.81898E-05-2.87956E-15
 -1      4021 1.76931E-03 3.07558E-05-2.88171E-15
 -1      4022 1.91267E-03 2.32595E-05-3.30221E-15
 -1      4023 9.80170E-03 7.40679E-05-6.35742E-14
 -1      4024 2.44356E-03 2.27777E-04-4.99003E-15
 -1      4025 2.07763E-03 1.82821E-04-3.75826E-15
 -1      4026 2.00206E-03 1.45593E-04-3.54179E-15
 -1      4027 2.22255E-03 1.86549E-04-4.23751E-15
 -1      4028 4.46423E-03 2.34389E-04-1.50047E-14
 -1      4029 2.64000E-03-1.19978E-04-5.79013E-15
 -1      4030 3.60077E-03 2.36355E-04-1.01078E-14
 -1      4031 9.70051E-03 5.20119E-05-6.25957E-14
 -1      4032 4.24776E-03 1.97323E-04-1.37169E-14
 -1      4033 4.10382E-03 1.97685E-04-1.28759E-14
 -1      4034 4.03080E-03 1.59872E-04-1.24785E-14
 -1      4035 3.14738E-03-8.42330E-05-7.96462E-15
 -1      4036 3.29255E-03-8.43870E-05-8.64001E-15
 -1      4037 3.43759E-03-8.44574E-05-9.33997E-15
 -1      4038 3.58249E-03-8.44436E-05-1.00657E-14
 -1      4039 3.36446E-03-4.62594E-05-8.99878E-15
 -1      4040 3.72724E-03-8.43764E-05-1.08163E-14
 -1      4041 3.87183E-03-8.42521E-05-1.15919E-14
 -1      4042 3.65438E-03-4.62236E-05-1.04506E-14
 -1      4043 4.01628E-03-8.40924E-05-1.23924E-14
 -1      4044 4.16058E-03-8.38940E-05-1.32167E-14
 -1      4045 3.94368E-03-4.60557E-05-1.20020E-14
 -1      4046 4.30473E-03-8.36745E-05-1.40657E-14
 -1      4047 4.44873E-03-8.34262E-05-1.49373E-14
 -1      4048 4.23237E-03-4.58114E-05-1.36516E-14
 -1      4049 4.59260E-03-8.31625E-05-1.58312E-14
 -1      4050 4.73632E-03-8.28757E-05-1.67488E-14
 -1      4051 4.52046E-03-4.55086E-05-1.53961E-14
 -1      4052 4.87992E-03-8.25739E-05-1.76885E-14
 -1      4053 5.02337E-03-8.22517E-05-1.86498E-14
 -1      4054 4.80797E-03-4.51574E-05-1.72305E-14
 -1      4055 5.16669E-03-8.19141E-05-1.96319E-14
 -1      4056 5.30987E-03-8.15533E-05-2.06356E-14
 -1      4057 5.09492E-03-4.47697E-05-1.91535E-14
 -1      4058 5.45290E-03-8.11727E-05-2.16587E-14
 -1      4059 5.59578E-03-8.07644E-05-2.27013E-14
 -1      4060 5.38129E-03-4.43383E-05-2.11609E-14
 -1      4061 5.73850E-03-8.03306E-05-2.37633E-14
 -1      4062 5.88105E-03-7.98628E-05-2.48446E-14
 -1      4063 5.66704E-03-4.38544E-05-2.32462E-14
 -1      4064 6.02340E-03-7.93632E-05-2.59452E-14
 -1      4065 6.16555E-03-7.88219E-05-2.70645E-14
 -1      4066 5.95210E-03-4.33058E-05-2.54090E-14
 -1      4067 6.30747E-03-7.82426E-05-2.82024E-14
 -1      4068 6.44914E-03-7.76139E-05-2.93575E-14
 -1      4069 6.23633E-03-4.26790E-05-2.76479E-14
 -1      4070 6.59051E-03-7.69422E-05-3.05308E-14
 -1      4071 6.73157E-03-7.62140E-05-3.17219E-14
 -1      4072 6.51954E-03-4.19611E-05-2.99590E-14
 -1      4073 6.87227E-03-7.54406E-05-3.29294E-14
 -1      4074 7.01257E-03-7.46058E-05-3.41539E-14
 -1      4075 6.80151E-03-4.11433E-05-3.23396E-14
 -1      4076 7.15242E-03-7.37284E-05-3.53960E-14
 -1      4077 7.29177E-03-7.27883E-05-3.66555E-14
 -1      4078 7.08190E-03-4.02246E-05-3.47900E-14
 -1      4079 7.43055E-03-7.18150E-05-3.79309E-14
 -1      4080 7.56873E-03-7.07837E-05-3.92207E-14
 -1      4081 7.36032E-03-3.92166E-05-3.73065E-14
 -1      4082 7.70619E-03-6.97380E-05-4.05274E-14
 -1      4083 7.84290E-03-6.86466E-05-4.18486E-14
 -1      4084 7.63630E-03-3.81499E-05-3.98871E-14
 -1      4085 7.97875E-03-6.75718E-05-4.31858E-14
 -1      4086 8.11368E-03-6.64729E-05-4.45386E-14
 -1      4087 7.90926E-03-3.70802E-05-4.25296E-14
 -1      4088 8.24756E-03-6.54361E-05-4.59051E-14
 -1      4089 8.38032E-03-6.44058E-05-4.72864E-14
 -1      4090 8.17855E-03-3.60952E-05-4.52326E-14
 -1      4091 8.51181E-03-6.34985E-05-4.86814E-14
 -1      4092 8.64195E-03-6.26335E-05-5.00886E-14
 -1      4093 8.44336E-03-3.53188E-05-4.79938E-14
 -1      4094 8.77054E-03-6.19676E-05-5.15106E-14
 -1      4095 8.89751E-03-6.13737E-05-5.29408E-14
 -1      4096 8.70275E-03-3.49109E-05-5.08101E-14
 -1      4097 9.02255E-03-6.10668E-05-5.43817E-14
 -1      4098 9.14559E-03-6.08250E-05-5.58357E-14
 -1      4099 8.95551E-03-3.50589E-05-5.36722E-14
 -1      4100 6.10774E-03 1.15991E-04-2.66502E-14
 -1      4101 5.96546E-03 1.16653E-04-2.55379E-14
 -1      4102 2.85670E-03-8.35627E-05-6.69119E-15
 -1      4103 3.00209E-03-8.39608E-05-7.31475E-15
 -1      4104 3.07399E-03-4.61035E-05-7.64789E-15
 -1      4105 5.53756E-03 1.18324E-04-2.23123E-14
 -1      4106 5.39461E-03 1.18798E-04-2.12749E-14
 -1      4107 6.67455E-03 1.12673E-04-3.12758E-14
 -1      4108 6.53324E-03 1.13620E-04-3.00926E-14
 -1      4109 6.95616E-03 1.10521E-04-3.36918E-14
 -1      4110 6.81553E-03 1.11648E-04-3.24752E-14
 -1      4111 6.74435E-03 7.72587E-05-3.18729E-14
 -1      4112 7.23618E-03 1.07980E-04-3.61766E-14
 -1      4113 7.09639E-03 1.09308E-04-3.49252E-14
 -1      4114 7.02530E-03 7.56985E-05-3.43069E-14
 -1      4115 7.51423E-03 1.05022E-04-3.87240E-14
 -1      4116 7.37547E-03 1.06563E-04-3.74432E-14
 -1      4117 7.30446E-03 7.38454E-05-3.68085E-14
 -1      4118 7.78987E-03 1.01633E-04-4.13382E-14
 -1      4119 7.65237E-03 1.03391E-04-4.00227E-14
 -1      4120 7.58140E-03 7.16705E-05-3.93745E-14
 -1      4121 8.06258E-03 9.78257E-05-4.40106E-14
 -1      4122 7.92661E-03 9.97927E-05-4.26667E-14
 -1      4123 7.85563E-03 6.91536E-05-4.20018E-14
 -1      4124 8.33182E-03 9.36384E-05-4.67430E-14
 -1      4125 8.19766E-03 9.57923E-05-4.53710E-14
 -1      4126 8.12656E-03 6.62839E-05-4.46906E-14
 -1      4127 8.59696E-03 8.91309E-05-4.95335E-14
 -1      4128 8.46492E-03 9.14403E-05-4.81307E-14
 -1      4129 8.39356E-03 6.30581E-05-4.74391E-14
 -1      4130 8.85736E-03 8.43708E-05-5.23760E-14
 -1      4131 8.72776E-03 8.68037E-05-5.09492E-14
 -1      4132 8.65586E-03 5.94721E-05-5.02432E-14
 -1      4133 9.11230E-03 7.93982E-05-5.52643E-14
 -1      4134 8.98551E-03 8.19453E-05-5.38143E-14
 -1      4135 8.91263E-03 5.55045E-05-5.30955E-14
 -1      4136 9.36093E-03 7.41473E-05-5.81980E-14
 -1      4137 9.23737E-03 7.68683E-05-5.67256E-14
 -1      4138 9.16277E-03 5.10812E-05-5.59964E-14
 -1      4139 9.59354E-03 6.17497E-05-6.11335E-14
 -1      4140 9.47440E-03 6.47473E-05-5.96423E-14
 -1      4141 9.39830E-03 3.95896E-05-5.89011E-14
 -1      4142 9.61480E-03 2.12017E-05-6.18047E-14
 -1      4143 3.74215E-03 1.60210E-04-1.08950E-14
 -1      4144 3.67127E-03 1.98316E-04-1.05005E-14
 -1      4145 3.52684E-03 1.98325E-04-9.75838E-15
 -1      4146 2.87304E-03 1.58306E-04-6.74774E-15
 -1      4147 2.80287E-03 1.95429E-04-6.42867E-15
 -1      4148 2.65780E-03 1.93956E-04-5.84061E-15
 -1      4149 2.27491E-03-8.00600E-05-4.45847E-15
 -1      4150 2.42029E-03-8.12812E-05-4.97635E-15
 -1      4151 4.53529E-03 1.96451E-04-1.54676E-14
 -1      4152 4.39158E-03 1.96912E-04-1.45810E-14
 -1      4153 4.31891E-03 1.59294E-04-1.41587E-14
 -1      4154 9.66098E-03-2.71829E-05-6.26587E-14
 -1      4155 9.63420E-03-3.86698E-06-6.22333E-14
 -1      4156 9.52982E-03 4.71370E-06-6.07761E-14
 -1      4157 2.51269E-03 1.92028E-04-5.27901E-15
 -1      4158 2.36759E-03 1.89594E-04-4.74446E-15
 -1      4159 2.29208E-03 1.51775E-04-4.50177E-15
 -1      4160 2.58256E-03 1.55831E-04-5.57106E-15
 -1      4161 2.56575E-03-8.22533E-05-5.52144E-15
 -1      4162 2.71124E-03-8.29985E-05-6.09350E-15
 -1      4163 2.49200E-03-4.48629E-05-5.25578E-15
 -1      4164 5.25153E-03 1.19236E-04-2.02576E-14
 -1      4165 5.10831E-03 1.19645E-04-1.92607E-14
 -1      4166 5.32285E-03 8.19288E-05-2.07662E-14
 -1      4167 1.74217E-03 1.06744E-04-2.78732E-15
 -1      4168 9.61304E-03-5.04712E-05-6.18696E-14
 -1      4169 2.02166E-03-6.17908E-05-3.62634E-15
 -1      4170 2.16615E-03-7.21166E-05-4.09178E-15
 -1      4171 2.23780E-03-3.68395E-05-4.34520E-15
 -1      4172 2.02077E-03-2.23339E-05-3.63350E-15
 -1      4173 6.39166E-03 1.14480E-04-2.89275E-14
 -1      4174 6.24981E-03 1.15272E-04-2.77802E-14
 -1      4175 6.17843E-03 7.96420E-05-2.72134E-14
 -1      4176 6.46197E-03 7.85606E-05-2.95085E-14
 -1      4177 1.88505E-03 1.01885E-04-3.20342E-15
 -1      4178 5.82299E-03 1.17256E-04-2.44442E-14
 -1      4179 5.68036E-03 1.17813E-04-2.33688E-14
 -1      4180 5.89397E-03 8.05408E-05-2.49890E-14
 -1      4181 9.20079E-03-3.48700E-05-5.65911E-14
 -1      4182 9.26682E-03-5.98884E-05-5.73125E-14
 -1      4183 9.38533E-03-5.89918E-05-5.88017E-14
 -1      4184 4.60651E-03 1.58552E-04-1.59327E-14
 -1      4185 5.60874E-03 8.12927E-05-2.28398E-14
 -1      4186 4.96496E-03 1.20024E-04-1.82847E-14
 -1      4187 4.82148E-03 1.20381E-04-1.73306E-14
 -1      4188 5.03638E-03 8.24737E-05-1.87728E-14
 -1      4189 9.50193E-03-5.08521E-05-6.03649E-14
 -1      4190 3.45296E-03 1.60193E-04-9.41092E-15
 -1      4191 2.02154E-03 5.65310E-05-3.63597E-15
 -1      4192 2.02073E-03 1.70805E-05-3.63663E-15
 -1      4193 2.12902E-03 1.06097E-05-3.98638E-15
 -1      4194 2.02976E-03 1.04740E-04-3.64835E-15
 -1      4195 3.81338E-03 1.22051E-04-1.12912E-14
 -1      4196 3.66881E-03 1.22118E-04-1.05245E-14
 -1      4197 2.94385E-03 1.20896E-04-7.06850E-15
 -1      4198 2.79852E-03 1.20179E-04-6.45450E-15
 -1      4199 2.78308E-03-4.56777E-05-6.39949E-15
 -1      4200 3.23422E-03 1.21779E-04-8.37466E-15
 -1      4201 3.08909E-03 1.21426E-04-7.70880E-15
 -1      4202 3.01521E-03 8.32472E-05-7.39200E-15
 -1      4203 4.10211E-03 1.21758E-04-1.28987E-14
 -1      4204 3.95782E-03 1.21934E-04-1.20826E-14
 -1      4205 3.88492E-03 8.38832E-05-1.16890E-14
 -1      4206 3.58175E-03-8.03283E-06-1.00863E-14
 -1      4207 3.72658E-03-7.99028E-06-1.08375E-14
 -1      4208 3.91395E-03 1.88986E-05-1.18512E-14
 -1      4209 4.05842E-03 1.89083E-05-1.26593E-14
 -1      4210 4.44841E-03-7.73910E-06-1.49606E-14
 -1      4211 4.59232E-03-7.67686E-06-1.58552E-14
 -1      4212 4.77851E-03 1.88544E-05-1.70532E-14
 -1      4213 4.92208E-03 1.88335E-05-1.80004E-14
 -1      4214 5.06552E-03 1.88038E-05-1.89690E-14
 -1      4215 5.20881E-03 1.87757E-05-1.99591E-14
 -1      4216 5.35195E-03 1.87377E-05-2.09688E-14
 -1      4217 5.49494E-03 1.86995E-05-2.19989E-14
 -1      4218 5.63777E-03 1.86498E-05-2.30490E-14
 -1      4219 5.78042E-03 1.85987E-05-2.41168E-14
 -1      4220 5.92289E-03 1.85331E-05-2.52039E-14
 -1      4221 6.06515E-03 1.84650E-05-2.63104E-14
 -1      4222 6.20719E-03 1.83783E-05-2.74359E-14
 -1      4223 6.34898E-03 1.82879E-05-2.85783E-14
 -1      4224 6.49049E-03 1.81732E-05-2.97392E-14
 -1      4225 6.63169E-03 1.80541E-05-3.09173E-14
 -1      4226 6.77254E-03 1.79029E-05-3.21123E-14
 -1      4227 6.91301E-03 1.77471E-05-3.33244E-14
 -1      4228 7.05305E-03 1.75489E-05-3.45539E-14
 -1      4229 7.19261E-03 1.73459E-05-3.57998E-14
 -1      4230 7.33162E-03 1.70875E-05-3.70633E-14
 -1      4231 7.47005E-03 1.68243E-05-3.83416E-14
 -1      4232 7.60780E-03 1.64886E-05-3.96354E-14
 -1      4233 7.74482E-03 1.61484E-05-4.09454E-14
 -1      4234 7.88102E-03 1.57133E-05-4.22694E-14
 -1      4235 8.01634E-03 1.52738E-05-4.36107E-14
 -1      4236 8.15065E-03 1.47100E-05-4.49670E-14
 -1      4237 8.28389E-03 1.41418E-05-4.63370E-14
 -1      4238 8.41593E-03 1.34098E-05-4.77210E-14
 -1      4239 8.54667E-03 1.26742E-05-4.91177E-14
 -1      4240 8.67596E-03 1.17199E-05-5.05302E-14
 -1      4241 8.80367E-03 1.07662E-05-5.19536E-14
 -1      4242 8.92964E-03 9.51479E-06-5.33881E-14
 -1      4243 9.05367E-03 8.28084E-06-5.48335E-14
 -1      4244 4.63521E-03 9.42852E-05-1.61304E-14
 -1      4245 4.49140E-03 9.45168E-05-1.52274E-14
 -1      4246 3.04393E-03 1.86201E-05-7.52504E-15
 -1      4247 3.18928E-03 1.87161E-05-8.18337E-15
 -1      4248 9.17556E-03 6.62360E-06-5.62906E-14
 -1      4249 9.40860E-03-2.01214E-06-5.92102E-14
 -1      4250 9.29621E-03 6.11688E-06-5.77728E-14
 -1      4251 2.72436E-03 8.22149E-05-6.16343E-15
 -1      4252 2.65314E-03 1.19211E-04-5.86593E-15
 -1      4253 2.50774E-03 1.17976E-04-5.30394E-15
 -1      4254 2.75295E-03 1.83601E-05-6.28624E-15
 -1      4255 2.89848E-03 1.85153E-05-6.89292E-15
 -1      4256 2.46184E-03 1.79513E-05-5.15233E-15
 -1      4257 2.60739E-03 1.81876E-05-5.70636E-15
 -1      4258 4.36885E-03 1.08013E-04-1.44750E-14
 -1      4259 4.22480E-03 1.08230E-04-1.36153E-14
 -1      4260 4.15223E-03 7.03179E-05-1.31979E-14
 -1      4261 4.39778E-03 4.34583E-05-1.46562E-14
 -1      4262 3.31304E-03 5.34139E-06-8.76277E-15
 -1      4263 3.45816E-03 5.38619E-06-9.46724E-15
 -1      4264 3.53090E-03 4.36235E-05-9.83190E-15
 -1      4265 3.28398E-03 7.03367E-05-8.62258E-15
 -1      4266 2.13770E-03 9.97469E-05-4.00057E-15
 -1      4267 9.43993E-03-2.67932E-05-5.96317E-14
 -1      4268 4.70680E-03 5.65214E-05-1.65912E-14
 -1      4269 4.32561E-03 5.55867E-06-1.42183E-14
 -1      4270 4.18142E-03 5.52910E-06-1.33655E-14
 -1      4271 2.39529E-03 1.09849E-04-4.89055E-15
 -1      4272 2.24999E-03 1.08107E-04-4.37656E-15
 -1      4273 2.24183E-03 5.83610E-05-4.36267E-15
 -1      4274 2.46646E-03 7.37250E-05-5.16362E-15
 -1      4275 2.21051E-03 1.68428E-06-4.25830E-15
 -1      4276 2.31910E-03-5.23492E-06-4.63354E-15
 -1      4277 3.35744E-03 1.08562E-04-8.96471E-15
 -1      4278 3.57400E-03 7.05102E-05-1.00481E-14
 -1      4279 3.50236E-03 1.08668E-04-9.67756E-15
 -1      4280 3.69726E-03 5.70828E-05-1.06865E-14
 -1      4281 3.84192E-03 5.70608E-05-1.14577E-14
 -1      4282 2.21097E-03 4.22845E-05-4.25936E-15
 -1      4283 2.32319E-03 4.97530E-05-4.64762E-15
 -1      4284 2.43548E-03 5.72781E-05-5.05229E-15
 -3
    1PSTEP                         2           1           1          
  100CL  101 1.000000000        4284                     0    1           1
 -4  STRESS      6    1
 -5  SXX         1    4    1    1
 -5  SYY         1    4    2    2
 -5  SZZ         1    4    3    3
 -5  SXY         1    4    1    2
 -5  SYZ         1    4    2    3
 -5  SZX         1    4    3    1
 -1         1 2.12262E+01 1.07758E+01 7.31599E-01 1.49424E+01-8.08020E-13-1.00642E-12
 -1         2-8.83855E-01-2.95858E+01-4.09702E+00 1.62926E-01 3.82645E-14 2.12143E-13
 -1         3 2.00138E+01 1.61397E-02 5.03207E-02 1.42316E-02-2.22999E-13-2.20566E-13
 -1         4 1.99958E+01-2.79230E-03 6.15657E-02 4.27537E-03 2.89179E-13-5.98246E-14
 -1         5 3.27688E+01 6.14289E+00 2.74240E+00 6.22428E+00-3.42365E-14 2.62651E-12
 -1         6 3.57528E+01 1.22635E+01 5.12535E+00-8.64663E+00-1.56444E-13 2.85710E-12
 -1         7 2.08199E+01 6.10000E+00-1.28584E-01-4.72526E+00-2.11081E-14 6.55771E-13
 -1         8 1.96727E+01 5.93522E+00 5.10049E-02-3.27429E+00-3.29042E-14-4.88672E-14
 -1         9 1.91375E+01 5.77203E+00 4.91071E-02-2.52601E+00-3.53485E-14-4.52349E-13
 -1        10 1.88954E+01 5.69216E+00 5.10597E-02-1.95084E+00-2.06909E-14-6.59185E-13
 -1        11 1.87736E+01 5.65117E+00 5.02532E-02-1.45565E+00-1.85112E-14-7.62676E-13
 -1        12 1.87096E+01 5.62944E+00 4.87279E-02-1.01483E+00-1.08644E-14-8.11019E-13
 -1        13 1.86759E+01 5.61796E+00 4.74012E-02-5.95175E-01-9.52027E-15-8.26170E-13
 -1        14 1.86617E+01 5.61310E+00 4.66831E-02-1.91155E-01-1.51981E-15-8.36848E-13
 -1        15 1.86622E+01 5.61326E+00 4.67255E-02 2.08130E-01 1.31530E-15-8.45677E-13
 -1        16 1.86774E+01 5.61845E+00 4.75467E-02 6.12990E-01 5.80438E-15-8.47032E-13
 -1        17 1.87124E+01 5.63022E+00 4.90645E-02 1.03465E+00 8.63784E-15-8.32148E-13
 -1        18 1.87775E+01 5.65232E+00 5.08190E-02 1.47865E+00 1.24020E-14-7.92203E-13
 -1        19 1.89011E+01 5.69380E+00 5.15353E-02 1.97973E+00 2.19165E-14-7.04670E-13
 -1        20 1.91429E+01 5.77462E+00 4.87974E-02 2.56333E+00 2.94452E-14-5.28780E-13
 -1        21 1.96682E+01 5.94982E+00 4.59546E-02 3.30837E+00 3.62627E-14-1.45118E-13
 -1        22 2.12026E+01 6.38174E+00 1.39742E-01 4.52279E+00 8.86791E-15 6.72462E-13
 -1        23 2.30308E+01-1.37928E+00-9.38379E-01-7.11081E-01-1.05069E-13 2.29607E-12
 -1        24 1.93687E+01-9.94934E-02-3.09833E-01 6.32435E-02-2.85492E-14 1.78803E-12
 -1        25 1.86808E+01-5.63219E-02-6.87741E-02 6.07323E-02-1.37245E-14 1.27199E-12
 -1        26 1.84786E+01-2.20860E-02-6.47215E-03 3.29765E-02-2.67971E-15 9.17920E-13
 -1        27 1.84903E+01-1.17984E-02 1.58571E-03 2.26197E-02-6.45762E-15 6.49689E-13
 -1        28 1.86047E+01-6.23156E-03 1.79674E-03 1.63229E-02 2.98616E-15 4.98554E-13
 -1        29 1.87648E+01-3.07331E-03 1.73818E-03 1.21739E-02-3.58936E-15 3.26976E-13
 -1        30 1.89392E+01-1.21446E-03 1.92387E-03 9.21863E-03 5.35065E-15 2.27154E-13
 -1        31 1.91100E+01-1.15140E-04 2.09066E-03 6.99682E-03-8.27170E-15 3.80590E-14
 -1        32 1.92675E+01 5.14825E-04 2.12902E-03 5.27437E-03-2.19037E-14-1.62682E-13
 -1        33 1.94067E+01 8.44202E-04 2.04522E-03 3.92027E-03 5.23930E-14-2.55776E-13
 -1        34 1.95258E+01 9.77848E-04 1.87658E-03 2.85119E-03-1.52972E-14-2.70170E-13
 -1        35 1.96251E+01 9.83680E-04 1.65797E-03 2.00780E-03 2.18149E-14-3.19939E-13
 -1        36 1.97059E+01 9.06201E-04 1.41418E-03 1.34459E-03-8.15423E-15-2.27405E-13
 -1        37 1.97706E+01 7.73925E-04 1.16019E-03 8.25306E-04-5.75836E-14-3.63390E-13
 -1        38 1.98218E+01 6.03826E-04 9.02691E-04 4.20968E-04 5.46961E-15-3.99697E-13
 -1        39 1.98624E+01 4.04215E-04 6.41581E-04 1.09085E-04-5.90701E-15-3.01381E-13
 -1        40 1.98959E+01 1.76745E-04 3.71095E-04-1.26478E-04 1.28985E-14-4.05682E-13
 -1        41 1.99255E+01-8.21117E-05 8.06281E-05-2.95249E-04 2.51051E-14-6.13241E-13
 -1        42 1.99551E+01-3.79891E-04-2.44683E-04-3.99527E-04-4.53692E-14-7.53220E-13
 -1        43 1.99891E+01-7.27078E-04-6.23548E-04-4.33397E-04-1.55017E-14-6.74480E-13
 -1        44 2.00326E+01-1.13595E-03-1.07816E-03-3.81248E-04 7.56528E-14-5.16304E-13
 -1        45 2.00915E+01-1.61905E-03-1.63362E-03-2.15694E-04-7.28144E-14-4.58778E-13
 -1        46 2.01731E+01-2.18683E-03-2.31681E-03 1.05254E-04-4.07163E-15-6.04163E-13
 -1        47 2.02862E+01-2.84377E-03-3.15379E-03 6.41798E-04 1.98631E-15-4.49282E-13
 -1        48 2.04411E+01-3.58195E-03-4.16432E-03 1.47655E-03-3.10575E-15-4.42170E-13
 -1        49 2.06499E+01-4.37018E-03-5.35057E-03 2.71844E-03 8.11833E-14-5.63431E-13
 -1        50 2.09263E+01-5.13653E-03-6.67482E-03 4.50371E-03-2.48613E-14-6.90262E-13
 -1        51 2.12845E+01-5.74099E-03-8.01700E-03 6.98802E-03-1.66821E-14-4.07154E-13
 -1        52 2.17377E+01-5.93623E-03-9.09844E-03 1.03161E-02-1.74334E-14-3.84986E-13
 -1        53 2.22940E+01-5.31868E-03-9.35608E-03 1.45427E-02 1.01442E-14-4.19660E-13
 -1        54 2.29500E+01-3.28682E-03-7.76591E-03 1.94582E-02-3.10921E-14-3.82592E-13
 -1        55 2.36794E+01 9.43060E-04-2.67695E-03 2.42541E-02-5.97022E-14-5.74718E-13
 -1        56 2.44172E+01 8.15223E-03 8.12211E-03 2.69853E-02-9.68653E-15-7.85525E-13
 -1        57 2.50389E+01 1.85910E-02 2.66170E-02 2.39366E-02 1.24737E-13-5.08549E-13
 -1        58 2.53467E+01 3.09720E-02 5.23317E-02 9.47060E-03-1.59245E-14-2.45132E-13
 -1        59 2.50800E+01 4.12106E-02 7.84391E-02-2.22219E-02 1.56455E-14-2.24726E-13
 -1        60 2.39890E+01 4.22528E-02 8.89122E-02-7.16008E-02-8.98513E-14 2.56756E-13
 -1        61 2.19919E+01 2.70248E-02 6.27667E-02-1.25113E-01 4.02020E-14 1.28404E-13
 -1        62 1.93719E+01-4.73909E-03-7.67791E-03-1.52141E-01-6.12495E-14-1.87836E-14
 -1        63 1.68391E+01-4.07449E-02-9.54492E-02-1.21349E-01-3.04826E-14-2.85279E-13
 -1        64 1.52609E+01-6.08127E-02-1.45528E-01-3.40472E-02-4.86560E-14-2.78812E-13
 -1        65 1.51311E+01-5.24735E-02-1.21120E-01 6.34661E-02-2.56730E-14 1.05829E-13
 -1        66 1.62197E+01-2.27222E-02-4.25082E-02 1.15741E-01-2.71202E-14 2.65010E-13
 -1        67 1.77647E+01 8.21107E-03 3.33297E-02 1.05461E-01 1.16447E-13 2.80199E-13
 -1        68 1.90188E+01 2.34846E-02 6.42792E-02 5.88974E-02-3.67610E-15 8.64853E-13
 -1        69 1.96594E+01 2.02053E-02 4.86093E-02 1.48784E-02-5.19626E-14 2.97326E-13
 -1        70 1.98316E+01 1.07847E-02 1.75910E-02 3.11559E-03 4.61011E-14 2.41410E-13
 -1        71 1.99071E+01 1.51796E-02 2.22336E-02 1.80056E-02-1.02190E-13-7.57987E-14
 -1        72 2.10434E+01-4.04900E-01-9.80432E-01-3.11648E-01 3.77996E-14 2.32153E-12
 -1        73 1.93332E+01-6.58828E-02-2.91123E-01-5.38402E-02 3.12042E-14 1.62389E-12
 -1        74 1.86902E+01-2.05060E-02-6.42680E-02-2.03495E-02 2.65845E-14 1.11632E-12
 -1        75 1.84877E+01-9.87839E-03-9.31155E-03-1.54503E-02-7.74402E-15 7.79222E-13
 -1        76 1.84993E+01-5.16388E-03 6.79177E-04-1.23855E-02 1.70387E-14 5.62016E-13
 -1        77 1.86130E+01-2.61149E-03 1.74558E-03-1.01169E-02 2.35861E-14 3.32272E-13
 -1        78 1.87720E+01-1.13932E-03 1.88362E-03-8.37909E-03-1.63076E-14 2.47318E-13
 -1        79 1.89454E+01-2.73032E-04 2.07983E-03-6.94940E-03-1.23934E-14 1.52979E-13
 -1        80 1.91153E+01 2.28729E-04 2.22516E-03-5.72018E-03 7.49411E-15 5.64158E-14
 -1        81 1.92719E+01 5.00872E-04 2.24093E-03-4.64864E-03 2.07187E-14-8.09726E-14
 -1        82 1.94103E+01 6.25011E-04 2.13711E-03-3.71592E-03 4.73590E-15-2.40103E-13
 -1        83 1.95287E+01 6.52902E-04 1.95078E-03-2.90960E-03 5.48603E-15-2.82936E-13
 -1        84 1.96274E+01 6.18199E-04 1.71635E-03-2.21762E-03 2.16162E-14-4.60417E-13
 -1        85 1.97077E+01 5.42631E-04 1.45827E-03-1.62675E-03-5.45975E-15-5.73792E-13
 -1        86 1.97719E+01 4.39544E-04 1.19118E-03-1.12262E-03 1.26086E-14-5.50548E-13
 -1        87 1.98228E+01 3.16100E-04 9.21414E-04-6.90371E-04-1.92114E-14-5.74298E-13
 -1        88 1.98632E+01 1.74768E-04 6.48468E-04-3.15487E-04-5.58507E-14-4.02550E-13
 -1        89 1.98965E+01 1.44228E-05 3.66189E-04 1.51643E-05 5.82647E-14-3.56461E-13
 -1        90 1.99260E+01-1.68771E-04 6.37008E-05 3.12277E-04-2.66837E-14-5.51201E-13
 -1        91 1.99556E+01-3.80548E-04-2.73810E-04 5.82883E-04-4.78187E-15-4.04510E-13
 -1        92 1.99896E+01-6.27657E-04-6.64372E-04 8.28866E-04-1.11247E-15-2.43280E-13
 -1        93 2.00331E+01-9.16721E-04-1.12837E-03 1.04498E-03-1.63165E-14-3.23419E-13
 -1        94 2.00919E+01-1.25256E-03-1.68718E-03 1.21609E-03 4.97597E-15-6.92487E-13
 -1        95 2.01731E+01-1.63558E-03-2.36074E-03 1.31340E-03 2.85321E-15-8.36947E-13
 -1        96 2.02849E+01-2.05769E-03-3.16309E-03 1.28915E-03 1.29292E-14-5.21627E-13
 -1        97 2.04369E+01-2.49584E-03-4.09428E-03 1.06963E-03-1.09015E-14-1.15207E-13
 -1        98 2.06399E+01-2.90217E-03-5.12574E-03 5.46469E-04-9.27210E-16 2.07184E-13
 -1        99 2.09053E+01-3.18967E-03-6.17470E-03-4.32632E-04-6.96844E-16-9.82454E-14
 -1       100 2.12440E+01-3.21296E-03-7.06104E-03-2.06964E-03-4.54571E-15-5.53598E-14
 -1       101 2.16639E+01-2.74669E-03-7.43935E-03-4.60796E-03 3.22927E-14 1.76348E-14
 -1       102 2.21658E+01-1.47139E-03-6.70410E-03-8.28751E-03 7.49759E-14-2.77955E-13
 -1       103 2.27370E+01 1.00843E-03-3.88956E-03-1.32197E-02-3.49224E-14-1.28821E-13
 -1       104 2.33409E+01 5.06329E-03 2.34993E-03-1.91152E-02 3.35844E-14 4.35619E-13
 -1       105 2.39048E+01 1.07789E-02 1.34707E-02-2.47999E-02-5.57003E-14 1.53730E-13
 -1       106 2.43071E+01 1.74780E-02 3.01194E-02-2.75619E-02-2.59948E-14-1.99809E-13
 -1       107 2.43741E+01 2.31367E-02 5.02534E-02-2.27470E-02 3.86930E-14-6.49009E-13
 -1       108 2.39037E+01 2.42185E-02 6.67504E-02-4.69743E-03 5.90565E-14-7.67645E-13
 -1       109 2.27368E+01 1.69630E-02 6.69825E-02 2.94663E-02 2.44162E-15-1.90521E-13
 -1       110 2.08783E+01 6.74377E-04 3.83907E-02 7.32976E-02 3.80362E-14-3.02591E-13
 -1       111 1.86196E+01-1.91817E-02-1.86826E-02 1.06928E-01 3.97547E-14-1.93054E-13
 -1       112 1.65369E+01-3.27008E-02-8.14977E-02 1.05845E-01-7.08717E-14 2.35142E-13
 -1       113 1.52675E+01-3.24746E-02-1.13752E-01 6.13642E-02 4.70039E-14 5.37293E-13
 -1       114 1.51503E+01-1.99783E-02-9.45559E-02-5.81598E-03-3.73742E-14-2.36920E-13
 -1       115 1.60107E+01-3.82751E-03-3.89572E-02-5.87479E-02 4.35700E-14-6.59160E-14
 -1       116 1.72986E+01 7.37975E-03 1.60803E-02-7.43385E-02-6.57054E-15 1.47417E-14
 -1       117 1.84581E+01 1.01569E-02 4.17303E-02-5.75059E-02 2.56035E-14-3.60326E-13
 -1       118 1.92201E+01 7.57526E-03 3.60540E-02-3.09411E-02-1.59058E-15-6.53810E-13
 -1       119 1.96389E+01 6.59447E-03 2.11116E-02-1.65942E-02 5.87322E-14-6.05557E-13
 -1       120 1.99015E+01 8.16823E-03 2.75617E-02-2.49896E-02 6.42495E-14-6.84475E-13
 -1       121 1.99974E+01-1.08067E-01 8.36202E-03-4.12110E-02-5.09209E-13-1.08407E-13
 -1       122 1.99756E+01-3.09619E-01-3.62417E-02-4.01624E-02 8.71091E-14-4.16076E-14
 -1       123 1.99555E+01-1.04145E-01-8.38397E-02-1.19532E-02 8.41164E-13 3.29589E-13
 -1       124 1.99450E+01 9.54037E-01-1.15840E-01 4.48370E-02 3.69111E-13-9.91828E-16
 -1       125 1.99562E+01 3.14427E+00-1.06555E-01 1.21450E-01 8.05668E-13-2.45248E-13
 -1       126 1.99930E+01 6.29110E+00-3.84604E-02 1.82861E-01 9.79439E-13 9.85783E-14
 -1       127 2.00485E+01 9.79659E+00 8.22724E-02 1.89457E-01 1.54227E-12 2.92904E-13
 -1       128 2.00967E+01 1.24296E+01 1.95654E-01 1.07731E-01 1.50258E-12-1.42176E-13
 -1       129 2.01090E+01 1.30873E+01 2.25583E-01-3.30670E-02 1.36979E-12 2.09362E-13
 -1       130 2.00779E+01 1.14831E+01 1.49840E-01-1.53677E-01 4.59750E-13-2.93025E-13
 -1       131 2.00230E+01 8.35318E+00 2.36028E-02-1.94442E-01-1.57388E-12-2.10316E-14
 -1       132 1.99733E+01 4.97284E+00-7.64187E-02-1.56704E-01-2.14880E-12 1.46648E-13
 -1       133 1.99499E+01 2.22957E+00-1.15262E-01-8.23347E-02-1.67580E-12-4.66268E-14
 -1       134 1.99482E+01 5.92202E-01-1.01065E-01-1.61096E-02-1.13855E-12 1.26513E-14
 -1       135 1.99742E+01-3.64086E-02-5.14292E-02 1.63304E-02-3.43454E-13 7.34619E-14
 -1       136 1.99779E+01-6.65593E-02-3.74974E-03 5.56613E-02-2.03683E-13 7.01700E-14
 -1       137-1.60596E+00-2.44218E+01-3.72472E+00-4.48582E+00-2.91156E-13-1.62800E-13
 -1       138-1.83646E+00-1.06265E+01-2.62864E+00-3.66737E+00-1.50302E-12-8.41105E-13
 -1       139 3.51653E+00 4.04490E+00-1.04202E+00 4.06331E+00-1.53710E-12-1.20964E-12
 -1       140 1.72357E+01 1.18848E+01 6.56270E-01 1.41327E+01-4.04565E-13-9.65894E-14
 -1       141 3.81222E+01 1.15712E+01 2.21674E+00 2.03914E+01-5.60108E-14-2.67120E-13
 -1       142 5.86169E+01 5.96621E+00 3.34173E+00 1.75200E+01-1.80994E-13-3.28571E-13
 -1       143 7.03738E+01 1.37395E+00 3.84833E+00 5.02582E+00-4.49259E-14-1.20524E-12
 -1       144 6.62844E+01 2.31786E+00 3.54453E+00-9.25670E+00 2.96441E-13-1.99907E-12
 -1       145 4.99639E+01 7.16204E+00 2.63928E+00-1.79249E+01 7.03743E-13-1.78085E-12
 -1       146 2.87018E+01 1.09594E+01 1.31642E+00-1.73699E+01 1.01208E-12-1.58007E-12
 -1       147 1.06404E+01 8.50699E+00-1.85810E-01-9.62875E+00 1.52101E-12-1.45423E-12
 -1       148 6.17405E-01-9.72412E-01-1.56985E+00-4.80562E-01 1.32339E-12-1.00686E-12
 -1       149-2.08104E+00-1.43349E+01-2.69796E+00 4.58001E+00 1.09807E-12-3.79446E-13
 -1       150-1.19305E+00-2.45621E+01-3.33376E+00 3.36054E+00 1.03165E-12 8.37845E-14
 -1       151-9.00326E-01-2.68341E+01-3.48766E+00-1.56051E+00 6.18755E-13-1.57607E-13
 -1       152-1.95064E+00-1.87989E+01-3.02462E+00-4.88944E+00-7.17260E-13-1.60677E-13
 -1       153-1.22256E+00-5.56098E+00-2.04965E+00-2.17260E+00-7.20979E-13-6.87922E-13
 -1       154 6.43982E+00 5.99364E+00-7.03661E-01 6.38858E+00-1.26199E-12-9.64950E-13
 -1       155 4.07194E+01 9.15359E+00 2.08751E+00 1.87162E+01-6.62942E-13-1.55065E-12
 -1       156 5.91551E+01 4.46936E+00 3.18348E+00 1.48356E+01-5.03764E-13-1.81272E-12
 -1       157 7.02392E+01 1.11201E+00 3.84738E+00 3.88044E+00-1.19328E-13-1.48073E-12
 -1       158 6.85182E+01 2.33692E+00 3.83919E+00-9.95222E+00 2.06985E-13-1.22563E-12
 -1       159 5.43484E+01 7.58532E+00 3.16172E+00-1.91945E+01 3.41449E-13-1.01597E-12
 -1       160 3.36259E+01 1.22513E+01 1.94030E+00-1.97634E+01 6.51701E-13-1.07248E-12
 -1       161 1.46638E+01 1.13127E+01 4.06376E-01-1.27529E+01 7.91478E-13-1.01896E-12
 -1       162 2.38846E+00 2.55836E+00-1.24821E+00-2.84381E+00 3.35620E-13-4.26881E-13
 -1       163-1.82473E+00-1.11112E+01-2.67801E+00 3.77683E+00 1.03223E-12-2.53242E-13
 -1       164-1.65980E+00-2.39269E+01-3.70277E+00 4.39183E+00 1.11022E-15-2.54220E-13
 -1       165 2.10145E+01 3.69402E+00-5.73685E-02-3.61008E+00-3.92832E-13 2.69652E-13
 -1       166 1.99917E+01 4.20741E+00-4.57998E-02-2.80879E+00-3.82229E-13-1.73528E-13
 -1       167 1.95071E+01 4.47803E+00-3.17245E-02-2.19468E+00-3.19307E-13-4.35761E-13
 -1       168 1.92680E+01 4.61456E+00-2.38248E-02-1.67437E+00-2.55027E-13-5.76213E-13
 -1       169 1.91366E+01 4.69719E+00-1.95863E-02-1.21873E+00-1.93100E-13-6.49060E-13
 -1       170 1.90626E+01 4.74793E+00-1.74495E-02-7.91947E-01-1.28804E-13-6.86333E-13
 -1       171 1.90253E+01 4.77573E+00-1.64263E-02-3.86818E-01-6.52351E-14-6.89285E-13
 -1       172 1.90144E+01 4.78426E+00-1.61325E-02 8.25927E-03 4.32026E-15-7.09748E-13
 -1       173 1.90270E+01 4.77446E+00-1.64648E-02 4.03668E-01 5.32097E-14-7.19783E-13
 -1       174 1.90664E+01 4.74494E+00-1.75191E-02 8.09834E-01 1.06512E-13-7.09854E-13
 -1       175 1.91411E+01 4.69252E+00-1.96875E-02 1.23125E+00 1.66845E-13-6.84224E-13
 -1       176 1.92770E+01 4.60539E+00-2.40074E-02 1.69790E+00 2.46567E-13-6.21671E-13
 -1       177 1.95242E+01 4.45961E+00-3.28512E-02 2.22624E+00 3.25305E-13-5.05804E-13
 -1       178 2.00140E+01 4.18388E+00-4.72113E-02 2.84648E+00 3.86849E-13-2.69357E-13
 -1       179 2.11361E+01 3.46368E+00-5.97760E-02 3.53646E+00 4.00315E-13 2.14988E-13
 -1       180 2.24206E+01 1.14333E+00-3.36468E-01 3.01463E+00 3.14844E-13 8.74578E-13
 -1       181 2.19728E+01 8.58289E-01 6.08560E-04-1.95864E+00-3.40439E-13 7.78058E-13
 -1       182 2.04488E+01 1.90048E-01-9.98750E-03-7.63908E-01-2.98568E-13 5.94496E-13
 -1       183 1.96733E+01 1.01666E-01 1.35722E-02-2.85527E-01-2.38078E-13 4.29042E-13
 -1       184 1.93338E+01 4.72252E-02 1.00107E-02-6.77525E-02-1.70602E-13 2.62318E-13
 -1       185 1.92043E+01 2.25631E-02 5.16895E-03 3.95626E-02-1.25773E-13 1.45571E-13
 -1       186 1.91910E+01 9.50618E-03 2.43286E-03 9.21526E-02-9.12165E-14 1.02274E-13
 -1       187 1.92397E+01 2.10529E-03 1.12642E-03 1.14489E-01-7.55759E-14 5.73394E-14
 -1       188 1.93189E+01-2.13879E-03 4.91067E-04 1.19349E-01-1.00565E-13 1.95354E-14
 -1       189 1.94098E+01-4.45660E-03 1.55077E-04 1.14136E-01-1.28677E-13-3.21095E-14
 -1       190 1.95012E+01-5.54520E-03-3.21475E-05 1.03447E-01-4.17448E-14-5.41938E-14
 -1       191 1.95867E+01-5.84131E-03-1.33741E-04 9.02315E-02-3.08990E-14-1.87732E-13
 -1       192 1.96630E+01-5.63185E-03-1.81002E-04 7.63998E-02-3.02430E-14-1.76094E-13
 -1       193 1.97290E+01-5.10712E-03-1.92308E-04 6.31754E-02 2.04807E-14-1.74444E-13
 -1       194 1.97847E+01-4.39007E-03-1.79338E-04 5.13331E-02-5.88335E-14-1.63087E-13
 -1       195 1.98312E+01-3.55405E-03-1.49510E-04 4.13624E-02-2.00539E-14-9.96583E-14
 -1       196 1.98701E+01-2.63461E-03-1.07230E-04 3.35906E-02 2.17466E-14-1.37984E-13
 -1       197 1.99035E+01-1.63763E-03-5.46811E-05 2.82753E-02-2.76064E-14-1.62305E-13
 -1       198 1.99337E+01-5.45339E-04 7.62387E-06 2.56776E-02-1.25289E-13-2.71878E-13
 -1       199 1.99636E+01 6.79310E-04 8.04095E-05 2.61199E-02-1.16044E-13-3.47434E-13
 -1       200 1.99965E+01 2.08905E-03 1.65263E-04 3.00326E-02-1.03724E-14-3.65409E-13
 -1       201 2.00360E+01 3.74900E-03 2.64235E-04 3.79897E-02 6.04589E-14-3.63314E-13
 -1       202 2.00866E+01 5.73272E-03 3.79333E-04 5.07347E-02 3.52987E-14-4.32221E-13
 -1       203 2.01534E+01 8.11619E-03 5.11771E-04 6.91908E-02 8.71274E-14-2.19572E-13
 -1       204 2.02425E+01 1.09673E-02 6.60801E-04 9.44485E-02 7.07144E-16-6.82918E-14
 -1       205 2.03609E+01 1.43267E-02 8.21822E-04 1.27712E-01-3.45014E-14-1.15422E-13
 -1       206 2.05165E+01 1.81735E-02 9.83405E-04 1.70177E-01-6.45636E-14-2.05566E-13
 -1       207 2.07179E+01 2.23639E-02 1.12281E-03 2.22782E-01-8.85344E-14-3.62688E-13
 -1       208 2.09739E+01 2.65241E-02 1.19986E-03 2.85749E-01 1.26433E-13-3.05259E-13
 -1       209 2.12921E+01 2.98741E-02 1.15008E-03 3.57781E-01 3.05305E-14-2.54613E-13
 -1       210 2.16772E+01 3.09531E-02 8.80567E-04 4.34716E-01-3.86463E-14-1.56687E-13
 -1       211 2.21272E+01 2.72444E-02 2.77153E-04 5.07432E-01-4.64229E-14-1.56191E-13
 -1       212 2.26288E+01 1.47912E-02-7.62015E-04 5.58909E-01-1.01063E-13-1.98760E-13
 -1       213 2.31502E+01-1.18486E-02-2.24903E-03 5.60899E-01-1.13191E-13-2.19445E-13
 -1       214 2.36330E+01-5.84409E-02-3.98480E-03 4.72061E-01 2.16897E-13-1.42769E-13
 -1       215 2.39854E+01-1.27143E-01-5.42968E-03 2.42181E-01 6.44849E-14-1.99182E-13
 -1       216 2.40838E+01-2.08182E-01-5.73660E-03-1.69408E-01 1.05942E-13-1.99544E-13
 -1       217 2.37930E+01-2.68913E-01-4.29009E-03-7.52971E-01 2.10391E-13-2.11179E-13
 -1       218 2.30191E+01-2.51732E-01-1.35382E-03-1.39172E+00-1.02638E-13 8.86218E-14
 -1       219 2.17972E+01-1.04215E-01 1.01622E-03-1.83545E+00-7.85197E-14-2.40771E-14
 -1       220 2.03733E+01 1.54032E-01 6.89529E-04-1.78846E+00-1.25212E-13 1.26467E-13
 -1       221 1.91784E+01 3.88512E-01-1.30309E-03-1.13680E+00-8.74318E-14 4.17674E-14
 -1       222 1.86101E+01 4.34187E-01-1.42501E-03-1.37721E-01 3.51347E-13 1.78639E-13
 -1       223 1.87523E+01 2.59486E-01 1.18658E-03 7.03167E-01 1.24080E-13 4.69748E-13
 -1       224 1.93204E+01 3.65397E-03 3.38377E-03 1.01591E+00 1.46688E-13 4.68881E-13
 -1       225 1.98988E+01-1.64487E-01 2.88563E-03 8.14917E-01 1.86870E-13 4.43016E-13
 -1       226 2.02189E+01-1.81933E-01 4.14942E-04 3.93918E-01-2.05152E-13 7.23431E-14
 -1       227 2.02446E+01-8.51302E-02-7.26627E-04 6.65443E-02 3.90118E-15 7.38619E-14
 -1       228 2.01065E+01 2.68909E-02 7.93153E-04-1.56486E-02-1.70605E-13 2.68292E-13
 -1       229 2.09648E+01 2.77015E-01-5.13306E-02 1.16467E+00 3.33417E-13 7.19435E-13
 -1       230 1.98702E+01 1.26841E-01 8.31128E-03 4.42980E-01 2.59489E-13 4.96444E-13
 -1       231 1.93641E+01 5.80674E-02 1.27339E-02 1.49933E-01 1.64274E-13 3.12323E-13
 -1       232 1.91546E+01 2.77236E-02 7.62646E-03 1.06487E-02 1.34525E-13 1.85914E-13
 -1       233 1.91050E+01 1.30680E-02 3.82055E-03-5.84785E-02 1.07691E-13 1.20567E-13
 -1       234 1.91410E+01 5.12065E-03 1.90343E-03-9.08894E-02 4.33171E-14 3.58503E-14
 -1       235 1.92202E+01 5.75213E-04 1.00079E-03-1.02627E-01 5.60146E-14-2.14561E-14
 -1       236 1.93178E+01-2.01683E-03 5.40952E-04-1.02397E-01 5.68119E-14-6.65073E-14
 -1       237 1.94193E+01-3.39761E-03 2.78150E-04-9.54004E-02 7.26307E-14-9.81904E-14
 -1       238 1.95161E+01-4.00156E-03 1.18253E-04-8.49126E-02 4.92551E-14-1.10766E-13
 -1       239 1.96037E+01-4.10507E-03 2.14370E-05-7.30443E-02 4.54316E-14-1.61394E-13
 -1       240 1.96800E+01-3.89047E-03-3.32487E-05-6.11547E-02 9.98355E-14-1.80256E-13
 -1       241 1.97448E+01-3.47815E-03-5.88273E-05-5.01089E-02 7.16745E-14-2.90471E-13
 -1       242 1.97987E+01-2.94465E-03-6.39381E-05-4.04499E-02-7.46044E-15-3.28599E-13
 -1       243 1.98432E+01-2.33395E-03-5.43403E-05-3.25227E-02-7.79311E-15-2.75665E-13
 -1       244 1.98804E+01-1.66497E-03-3.37755E-05-2.65669E-02-9.57958E-14-3.12650E-13
 -1       245 1.99126E+01-9.36942E-04-4.55868E-06-2.27875E-02 6.22240E-14-2.86624E-13
 -1       246 1.99425E+01-1.33543E-04 3.19855E-05-2.14109E-02 2.55547E-14-2.28525E-13
 -1       247 1.99732E+01 7.73752E-04 7.51542E-05-2.27278E-02-6.67192E-14-1.69475E-13
 -1       248 2.00083E+01 1.82259E-03 1.24490E-04-2.71256E-02-7.29826E-14 9.32551E-15
 -1       249 2.00519E+01 3.05634E-03 1.79348E-04-3.51092E-02 8.86076E-14 3.59059E-14
 -1       250 2.01086E+01 4.51938E-03 2.38343E-04-4.73087E-02 2.34859E-13-1.72637E-13
 -1       251 2.01841E+01 6.24980E-03 2.98598E-04-6.44665E-02 5.90986E-14-4.00544E-13
 -1       252 2.02848E+01 8.26719E-03 3.54716E-04-8.73929E-02-1.95683E-13-4.46694E-13
 -1       253 2.04177E+01 1.05523E-02 3.97389E-04-1.16870E-01-1.96851E-13-1.89258E-13
 -1       254 2.05906E+01 1.30133E-02 4.11759E-04-1.53470E-01-1.20082E-13-4.63718E-14
 -1       255 2.08113E+01 1.54303E-02 3.75919E-04-1.97239E-01 1.36515E-13 3.89090E-14
 -1       256 2.10865E+01 1.73691E-02 2.60890E-04-2.47174E-01-7.77357E-14-2.47492E-14
 -1       257 2.14200E+01 1.80537E-02 3.49146E-05-3.00382E-01 2.13338E-14-7.50209E-14
 -1       258 2.18100E+01 1.62006E-02-3.22799E-04-3.50839E-01 8.29324E-14-1.45159E-14
 -1       259 2.22449E+01 9.85553E-03-7.92723E-04-3.87718E-01-9.17886E-14 1.90383E-13
 -1       260 2.26969E+01-3.62608E-03-1.26707E-03-3.93535E-01-9.38459E-14 3.30367E-14
 -1       261 2.31161E+01-2.71222E-02-1.50271E-03-3.43061E-01 1.84528E-13 3.03169E-14
 -1       262 2.34243E+01-6.22009E-02-1.13020E-03-2.05220E-01 1.91160E-13-8.27478E-14
 -1       263 2.35165E+01-1.05810E-01 1.66790E-04 4.80804E-02 1.91650E-13-2.13552E-13
 -1       264 2.32751E+01-1.45474E-01 2.21673E-03 4.21754E-01-1.07509E-13-9.03203E-14
 -1       265 2.26092E+01-1.56541E-01 3.82080E-03 8.66762E-01-2.59617E-13 6.43357E-14
 -1       266 2.15184E+01-1.09321E-01 3.12673E-03 1.25559E+00-6.37294E-14 2.46917E-13
 -1       267 2.01583E+01 6.19675E-03-9.34495E-04 1.40223E+00-9.31756E-14 5.95006E-13
 -1       268 1.88509E+01 1.50874E-01-6.71026E-03 1.16323E+00-1.37440E-13 8.11185E-13
 -1       269 1.79708E+01 2.45167E-01-9.58795E-03 5.71888E-01 9.92947E-14 3.44269E-13
 -1       270 1.77428E+01 2.27650E-01-6.32642E-03-1.26468E-01 1.58345E-13 4.65712E-13
 -1       271 1.80978E+01 1.14907E-01 5.57426E-04-6.22206E-01 1.74452E-14 5.37748E-13
 -1       272 1.87352E+01-1.27684E-02 5.76509E-03-7.57587E-01 1.51286E-13 2.36782E-13
 -1       273 1.93319E+01-8.35497E-02 6.30996E-03-6.02961E-01 1.31833E-13 1.85794E-13
 -1       274 1.97140E+01-8.05468E-02 3.38290E-03-3.55742E-01 7.86372E-14 2.85287E-13
 -1       275 1.98818E+01-3.47211E-02 1.06619E-03-1.86395E-01 9.58218E-14 1.21957E-13
 -1       276 1.99481E+01-1.62231E-02 5.33907E-03-1.24106E-01-5.53758E-14-2.26790E-14
 -1       277 2.00460E+01-3.60355E-02 4.80566E-03-9.33091E-02 2.13782E-13 3.91135E-13
 -1       278 2.01943E+01 9.47175E-02 6.46142E-03 2.10545E-01 5.20986E-13 5.09461E-13
 -1       279 2.03157E+01 5.84777E-01 4.38935E-03 8.26822E-01 5.63547E-13-1.10363E-13
 -1       280 2.03558E+01 1.62510E+00 1.97189E-03 1.63482E+00 4.28448E-13 2.19946E-13
 -1       281 2.02417E+01 3.22015E+00-2.46811E-03 2.33930E+00 4.87333E-13-5.82759E-14
 -1       282 1.99356E+01 5.21097E+00-4.71340E-03 2.55182E+00 6.06596E-13 2.42991E-13
 -1       283 1.95376E+01 7.04246E+00-4.26314E-03 1.91227E+00 4.06153E-13 1.54878E-13
 -1       284 1.92861E+01 8.03347E+00-2.95767E-03 4.78508E-01 5.85388E-13-1.59808E-13
 -1       285 1.93693E+01 7.74942E+00-3.12835E-03-1.16291E+00 4.70596E-14-4.99418E-13
 -1       286 1.97179E+01 6.33380E+00-4.95974E-03-2.27365E+00-8.58254E-14-8.67873E-13
 -1       287 2.00903E+01 4.41926E+00-4.02067E-03-2.50466E+00-3.81729E-13-5.30048E-13
 -1       288 2.03118E+01 2.57632E+00-8.01286E-04-2.02359E+00-5.57656E-13 2.26107E-13
 -1       289 2.03414E+01 1.23065E+00 3.26688E-03-1.24102E+00-4.86377E-13 3.16929E-13
 -1       290 2.02345E+01 4.60101E-01 2.06759E-03-5.24614E-01-5.27800E-13 4.37942E-13
 -1       291 2.02337E+01 1.58621E-01 5.59073E-03-2.04481E-01-2.25093E-13 2.33947E-13
 -1       292-1.00853E+00-1.30220E+01-1.19450E+00 1.29005E+00-4.52721E-13-2.97457E-13
 -1       293 3.04960E+00-1.02460E+01-9.06879E-01 4.20851E+00-3.40700E-13-6.53394E-13
 -1       294 1.08139E+01-6.23607E+00-5.28011E-01 6.57140E+00-6.59195E-13-4.57190E-13
 -1       295 2.04711E+01-1.21076E+00-5.73765E-02 8.17693E+00-8.76688E-13-7.49401E-16
 -1       296 3.17635E+01 2.16497E+00 3.64078E-01 7.92657E+00-4.70193E-13-4.37372E-13
 -1       297 4.16190E+01 5.71805E+00 8.56930E-01 7.45492E+00-1.48966E-13-4.03955E-13
 -1       298 4.83932E+01 7.07839E+00 1.11261E+00 4.38165E+00 2.53866E-13-1.18142E-12
 -1       299 4.61426E+01 7.85044E+00 7.30467E-01 3.58854E-01 3.03618E-13-1.25496E-12
 -1       300 4.48745E+01 6.00964E+00 8.38484E-01-3.70182E+00 1.47646E-13-1.36799E-12
 -1       301 3.69243E+01 3.72227E+00 5.40123E-01-6.20960E+00 4.75849E-13-9.37417E-13
 -1       302 2.65353E+01 4.64431E-01 1.43289E-01-7.14784E+00 6.71602E-13-7.49040E-13
 -1       303 1.71276E+01-4.18735E+00-1.90224E-01-6.63926E+00 5.73930E-13-7.38021E-13
 -1       304 7.09802E+00-7.50326E+00-5.94792E-01-4.90566E+00 6.97664E-13-6.31033E-13
 -1       305 1.12711E+00-1.07070E+01-8.29838E-01-2.75245E+00 6.95055E-13-2.41848E-13
 -1       306-1.44040E+00-1.22995E+01-9.35753E-01-5.99547E-01 4.19192E-13-3.47472E-13
 -1       307-2.79684E-01-1.13035E+01-8.45535E-01 1.89439E+00 2.05530E-13-5.67296E-13
 -1       308 4.28495E+00-9.04317E+00-7.80094E-01 3.66485E+00-1.43413E-13-1.58752E-13
 -1       309 1.32309E+01-5.18691E+00-3.59839E-01 6.03144E+00 6.00631E-14-5.14491E-13
 -1       310 2.29221E+01-1.07512E+00-1.22285E-02 6.86581E+00-3.01786E-13-1.09301E-13
 -1       311 3.29315E+01 2.60663E+00 4.18144E-01 6.97335E+00-1.87489E-13-7.87037E-13
 -1       312 4.19254E+01 4.95723E+00 7.79222E-01 5.32982E+00-2.32514E-13-1.05574E-12
 -1       313 4.81596E+01 6.54964E+00 1.07349E+00 2.28932E+00-3.27710E-13-9.94399E-13
 -1       314 4.92375E+01 7.42936E+00 1.08318E+00-1.64474E+00-2.80331E-15-1.14625E-12
 -1       315 4.70279E+01 6.77568E+00 1.05510E+00-5.37779E+00 2.03282E-13-8.56593E-13
 -1       316 3.94160E+01 4.98924E+00 7.18647E-01-7.33199E+00 5.55037E-13-7.77267E-13
 -1       317 2.98833E+01 1.79226E+00 3.30294E-01-8.37724E+00 5.66103E-13-8.73246E-13
 -1       318 1.90295E+01-1.86658E+00-1.29413E-01-7.98335E+00 4.36040E-13-7.86538E-13
 -1       319 9.77604E+00-6.54727E+00-6.08637E-01-6.17081E+00 8.29670E-13-2.98733E-13
 -1       320 3.20521E+00-1.01796E+01-8.85922E-01-4.28116E+00 4.28740E-13-5.61121E-13
 -1       321-7.59781E-01-1.17007E+01-9.97364E-01-1.64353E+00 2.55962E-13-3.39034E-13
 -1       322 2.01464E+01 3.01500E+00-1.78015E-02-2.10986E+00-4.02554E-13-1.97690E-13
 -1       323 2.07558E+01 2.20991E+00-1.78573E-02-2.36308E+00-4.21158E-13 8.65124E-14
 -1       324 1.95823E+01 3.69220E+00-1.56055E-02-1.31826E+00-2.72992E-13-4.55085E-13
 -1       325 1.94598E+01 3.84841E+00-1.36944E-02-9.23619E-01-1.97790E-13-5.13048E-13
 -1       326 1.93905E+01 3.93949E+00-1.27053E-02-5.43757E-01-1.14064E-13-5.27839E-13
 -1       327 1.93599E+01 3.98084E+00-1.22911E-02-1.73215E-01-3.21395E-14-5.33182E-13
 -1       328 1.93612E+01 3.97924E+00-1.23100E-02 1.94356E-01 4.06569E-14-5.52104E-13
 -1       329 1.93947E+01 3.93435E+00-1.27567E-02 5.65237E-01 1.04823E-13-5.55178E-13
 -1       330 1.94657E+01 3.84106E+00-1.37673E-02 9.39082E-01 1.87405E-13-5.37640E-13
 -1       331 1.95929E+01 3.67878E+00-1.56557E-02 1.33305E+00 2.62477E-13-4.97415E-13
 -1       332 1.98088E+01 3.41007E+00-1.88327E-02 1.73831E+00 3.47370E-13-4.05199E-13
 -1       333 2.01797E+01 2.95527E+00-2.29393E-02 2.12684E+00 4.22721E-13-2.71533E-13
 -1       334 2.07498E+01 2.12943E+00-3.04679E-02 2.32183E+00 4.63291E-13 2.39739E-14
 -1       335 2.10966E+01 1.18771E+00-2.49204E-02 1.92163E+00 4.21260E-13 2.95083E-13
 -1       336 2.03930E+01 4.89273E-01 8.33518E-03 9.27049E-01 3.43600E-13 1.98142E-13
 -1       337 2.04597E+01 6.75130E-01 1.25590E-02-1.02545E+00-3.52314E-13 1.42274E-13
 -1       338 2.00377E+01 3.37250E-01 7.18532E-03-4.57614E-01-3.09905E-13 9.40307E-14
 -1       339 1.97838E+01 1.76531E-01 4.16725E-03-1.48435E-01-2.03046E-13 5.67731E-14
 -1       340 1.96484E+01 9.04158E-02 1.90485E-03 2.26579E-02-1.39108E-13-4.65979E-15
 -1       341 1.95930E+01 4.12782E-02 7.89647E-04 1.13737E-01-1.17762E-13-5.07874E-14
 -1       342 1.95876E+01 1.22825E-02 2.70006E-04 1.56812E-01-1.09746E-13-7.45572E-14
 -1       343 1.96115E+01-4.75082E-03 1.22425E-05 1.70750E-01-1.13434E-13-4.92446E-14
 -1       344 1.96507E+01-1.42575E-02-1.22465E-04 1.67297E-01-1.16011E-13-1.48566E-14
 -1       345 1.96963E+01-1.88942E-02-1.89885E-04 1.54042E-01-7.52481E-14-5.38297E-14
 -1       346 1.97425E+01-2.03574E-02-2.15896E-04 1.35975E-01-4.20944E-14-6.69319E-14
 -1       347 1.97862E+01-1.97659E-02-2.15247E-04 1.16388E-01-2.95253E-14-1.24022E-13
 -1       348 1.98258E+01-1.78580E-02-1.97301E-04 9.74446E-02 2.71777E-14-5.18768E-14
 -1       349 1.98609E+01-1.51048E-02-1.68018E-04 8.05674E-02-3.68184E-14-1.32386E-14
 -1       350 1.98917E+01-1.17801E-02-1.30922E-04 6.67112E-02 1.98529E-14-1.80606E-13
 -1       351 1.99191E+01-8.00788E-03-8.77000E-05 5.65689E-02-4.99572E-14-2.34885E-13
 -1       352 1.99446E+01-3.79506E-03-3.86274E-05 5.07280E-02-1.42917E-13-2.65881E-13
 -1       353 1.99698E+01 9.43544E-04 1.71135E-05 4.97911E-02-1.21264E-13-2.17064E-13
 -1       354 1.99967E+01 6.36598E-03 8.11861E-05 5.44698E-02-5.09438E-14-2.34246E-13
 -1       355 2.00278E+01 1.26862E-02 1.55870E-04 6.56557E-02-9.17118E-15-2.57321E-13
 -1       356 2.00659E+01 2.01559E-02 2.43793E-04 8.44693E-02 2.85805E-14-3.05209E-13
 -1       357 2.01144E+01 2.90410E-02 3.47562E-04 1.12283E-01 1.72004E-13-9.66589E-14
 -1       358 2.01769E+01 3.95843E-02 4.69156E-04 1.50708E-01 1.27660E-13-1.85413E-13
 -1       359 2.02578E+01 5.19436E-02 6.08910E-04 2.01525E-01-3.13489E-14-1.69938E-14
 -1       360 2.03618E+01 6.60846E-02 7.63779E-04 2.66525E-01-8.55955E-14-1.01639E-13
 -1       361 2.04940E+01 8.15976E-02 9.24434E-04 3.47199E-01-9.18141E-14-4.72010E-14
 -1       362 2.06596E+01 9.73898E-02 1.07065E-03 4.44186E-01 3.00810E-14 1.10041E-13
 -1       363 2.08635E+01 1.11184E-01 1.16445E-03 5.56338E-01 1.04199E-13-5.93715E-14
 -1       364 2.11096E+01 1.18750E-01 1.14129E-03 6.79197E-01-1.75620E-14-2.81382E-14
 -1       365 2.14003E+01 1.12827E-01 9.01498E-04 8.02659E-01-1.71348E-14-7.89642E-14
 -1       366 2.17351E+01 8.19016E-02 3.08575E-04 9.07631E-01-7.33474E-14-5.90768E-14
 -1       367 2.21099E+01 9.52097E-03-7.90534E-04 9.61843E-01-1.37605E-13 5.47327E-14
 -1       368 2.25146E+01-1.23959E-01-2.50231E-03 9.15968E-01 8.29838E-14-6.22560E-15
 -1       369 2.29298E+01-3.33351E-01-4.76042E-03 7.03467E-01 1.38673E-13-3.60614E-14
 -1       370 2.33187E+01-6.08848E-01-7.04736E-03 2.51692E-01 1.01670E-13 1.08826E-13
 -1       371 2.36131E+01-8.82057E-01-8.21934E-03-4.83299E-01 2.11149E-13 9.78255E-14
 -1       372 2.36991E+01-9.94813E-01-7.39214E-03-1.44552E+00 2.03204E-13 2.02350E-13
 -1       373 2.34386E+01-7.29466E-01-4.25628E-03-2.38711E+00-7.86099E-14 1.34291E-13
 -1       374 2.27735E+01 1.97943E-02-2.59940E-03-2.85269E+00 6.40259E-14 1.06270E-13
 -1       375 2.18951E+01 9.93307E-01-4.62657E-03-2.39955E+00 2.23762E-14 2.91670E-13
 -1       376 2.12476E+01 1.56747E+00-6.61641E-03-1.06310E+00 1.65322E-13 5.08345E-13
 -1       377 2.11485E+01 1.30346E+00-5.41282E-03 4.54618E-01 3.28240E-13 3.98557E-13
 -1       378 2.14466E+01 4.38648E-01-2.31821E-03 1.31767E+00 2.79196E-13 3.62510E-13
 -1       379 2.17007E+01-3.68248E-01-1.46169E-03 1.25806E+00 2.41131E-13 4.45793E-13
 -1       380 2.16230E+01-6.80493E-01-2.64208E-03 6.41620E-01-3.87734E-13 5.43734E-13
 -1       381 2.12163E+01-5.02621E-01-5.00556E-03 6.48796E-03-3.15930E-13 3.38960E-13
 -1       382 2.07073E+01-1.38669E-01 1.92195E-03-2.57535E-01-1.38441E-13 3.02616E-13
 -1       383 1.98915E+01 2.28480E-01 1.07958E-02 3.98408E-01 2.62681E-13 1.32266E-13
 -1       384 1.96030E+01 1.15341E-01 6.17240E-03 1.19728E-01 2.14401E-13 3.77675E-14
 -1       385 1.94685E+01 5.76066E-02 2.80232E-03-2.90566E-02 1.28508E-13-3.34550E-14
 -1       386 1.94288E+01 2.57033E-02 1.17320E-03-1.05835E-01 1.01111E-13-8.56262E-14
 -1       387 1.94445E+01 7.22576E-03 4.45436E-04-1.40923E-01 7.35645E-14-1.34336E-13
 -1       388 1.94905E+01-3.51300E-03 9.83834E-05-1.51237E-01 8.93046E-14-1.26060E-13
 -1       389 1.95506E+01-9.46449E-03-8.36933E-05-1.46980E-01 1.07527E-13-1.49528E-13
 -1       390 1.96148E+01-1.23464E-02-1.79590E-04-1.34615E-01 5.29185E-14-1.45746E-13
 -1       391 1.96772E+01-1.32399E-02-2.22948E-04-1.18338E-01 8.94144E-14-1.25324E-13
 -1       392 1.97344E+01-1.28538E-02-2.32179E-04-1.00892E-01 1.37105E-13-1.24914E-13
 -1       393 1.97849E+01-1.16557E-02-2.18980E-04-8.40627E-02 1.50371E-13-1.35530E-13
 -1       394 1.98286E+01-9.94553E-03-1.90978E-04-6.90060E-02-4.05478E-15-1.42100E-13
 -1       395 1.98659E+01-7.90093E-03-1.52892E-04-5.64813E-02-8.36786E-14-1.26026E-13
 -1       396 1.98983E+01-5.60619E-03-1.07267E-04-4.70213E-02-2.19756E-14-9.97227E-14
 -1       397 1.99272E+01-3.07350E-03-5.50154E-05-4.10619E-02 4.98831E-14-2.43581E-13
 -1       398 1.99548E+01-2.58851E-04 4.18551E-06-3.90423E-02 4.09480E-14-1.60796E-13
 -1       399 1.99834E+01 2.92471E-03 7.15610E-05-4.14808E-02-5.02851E-14-1.56385E-13
 -1       400 2.00159E+01 6.59497E-03 1.48901E-04-4.90299E-02-1.37644E-13-9.19152E-14
 -1       401 2.00554E+01 1.08872E-02 2.38167E-04-6.25107E-02 5.99877E-14-3.81344E-14
 -1       402 2.01057E+01 1.59361E-02 3.40966E-04-8.29223E-02 3.16088E-13-2.23081E-15
 -1       403 2.01711E+01 2.18491E-02 4.57758E-04-1.11416E-01 1.52072E-13 4.57036E-14
 -1       404 2.02565E+01 2.86629E-02 5.86631E-04-1.49218E-01-1.42380E-13 1.01932E-14
 -1       405 2.03671E+01 3.62734E-02 7.21394E-04-1.97467E-01-2.69291E-13-1.02391E-13
 -1       406 2.05087E+01 4.43231E-02 8.48728E-04-2.56921E-01-1.16888E-13-2.31136E-13
 -1       407 2.06868E+01 5.20231E-02 9.44172E-04-3.27469E-01 1.18564E-13-8.97123E-14
 -1       408 2.09062E+01 5.78823E-02 9.67158E-04-4.07333E-01-1.83208E-14 1.93481E-14
 -1       409 2.11698E+01 5.93262E-02 8.56372E-04-4.91846E-01 2.58847E-14 1.06008E-13
 -1       410 2.14772E+01 5.22240E-02 5.29030E-04-5.71693E-01 5.94597E-14 3.73039E-13
 -1       411 2.18220E+01 3.04699E-02-1.09102E-04-6.30605E-01-1.50797E-14 2.68235E-13
 -1       412 2.21893E+01-1.39536E-02-1.13281E-03-6.42884E-01 7.17398E-14-1.58693E-13
 -1       413 2.25515E+01-8.94547E-02-2.52980E-03-5.71987E-01 8.01198E-14-2.70816E-13
 -1       414 2.28651E+01-2.00194E-01-4.11464E-03-3.73039E-01 1.04283E-13 1.59525E-14
 -1       415 2.30678E+01-3.36466E-01-5.42574E-03-4.33077E-03 1.59604E-13 2.95375E-13
 -1       416 2.30792E+01-4.60869E-01-5.80679E-03 5.45886E-01-6.97125E-14 4.95480E-13
 -1       417 2.28145E+01-4.99673E-01-4.77118E-03 1.21634E+00-2.65413E-13 3.64299E-13
 -1       418 2.22208E+01-3.62170E-01-2.73177E-03 1.83217E+00-1.59634E-13 3.20205E-13
 -1       419 2.13430E+01-9.23194E-03 2.28450E-04 2.11885E+00-2.99005E-13 4.55281E-13
 -1       420 2.03852E+01 4.48762E-01 2.21688E-03 1.83543E+00-1.15026E-13 5.66169E-13
 -1       421 1.96633E+01 7.67237E-01 3.40570E-03 9.90586E-01 1.47399E-13 6.81490E-13
 -1       422 1.94163E+01 7.37830E-01 4.50513E-03-6.47284E-02 1.39186E-13 8.69935E-13
 -1       423 1.96147E+01 3.93260E-01 4.97454E-03-8.42187E-01 8.50370E-14 6.65170E-13
 -1       424 1.99943E+01-1.79598E-02 3.17705E-03-1.07320E+00 1.23558E-13 5.59408E-13
 -1       425 2.02797E+01-2.60615E-01-6.57838E-05-8.49365E-01 1.23487E-13 5.18789E-13
 -1       426 2.03461E+01-2.65358E-01-9.29962E-04-4.67945E-01 5.96684E-14 5.67574E-13
 -1       427 2.02352E+01-1.33948E-01-1.03096E-03-1.91308E-01 2.24277E-13 7.81685E-13
 -1       428 2.01524E+01-5.89193E-02 1.65381E-03-1.04043E-01 2.15380E-13 7.33327E-13
 -1       429 2.12722E+01 1.45276E-01 1.10242E-02 1.86826E+00 3.51252E-13-3.70235E-13
 -1       430 2.09379E+01-9.80302E-02 4.70447E-03 7.64712E-01 3.27847E-13 1.66167E-13
 -1       431 2.05054E+01-8.61848E-02 3.80920E-03 1.70913E-01 3.85413E-13 5.98746E-13
 -1       432 2.11656E+01 7.74079E-01 7.17460E-03 3.10968E+00 2.07007E-13 3.55211E-14
 -1       433 2.04021E+01 1.91191E+00 4.43263E-03 3.99957E+00 1.48423E-13 3.46603E-13
 -1       434 1.90281E+01 3.41163E+00 3.78485E-03 3.79652E+00 1.24189E-13 5.22421E-14
 -1       435 1.76997E+01 4.70037E+00 4.48177E-03 2.08967E+00-4.88433E-14 1.26966E-13
 -1       436 1.73419E+01 5.04099E+00 4.05067E-03-6.10164E-01-1.27566E-13-2.75875E-13
 -1       437 1.82466E+01 4.21088E+00 5.11703E-03-2.97263E+00-2.75091E-13-1.01488E-12
 -1       438 1.96817E+01 2.77624E+00 4.17829E-03-3.99296E+00-1.07759E-13-7.45827E-13
 -1       439 2.08151E+01 1.41709E+00 4.62554E-03-3.63512E+00 6.93497E-14 4.16208E-14
 -1       440 2.12576E+01 5.26456E-01 9.55865E-03-2.51448E+00-1.50973E-13 2.31878E-13
 -1       441 2.10911E+01 1.15743E-01 1.04648E-02-1.30067E+00-3.92678E-13 3.46277E-13
 -1       442 1.18008E+01-6.46220E+00-4.36379E-02 8.24689E+00-6.35603E-14-4.10824E-13
 -1       443 1.77750E+00-4.81191E+00-6.28836E-02 3.10214E-01-2.75700E-14-5.96106E-13
 -1       444 4.03228E+00-5.75036E+00-1.03806E-01 4.98067E+00-2.86146E-13-2.77639E-13
 -1       445 2.11131E+01-6.20734E+00-1.57578E-02 7.94677E+00-4.27824E-13-8.38080E-14
 -1       446 2.88985E+01-4.26302E+00 2.09877E-04 5.31065E+00-7.01009E-13 1.46175E-13
 -1       447 1.98031E+01 3.43124E+00-1.76702E-02-1.73777E+00-3.49225E-13-3.73455E-13
 -1       448 3.68905E+01 5.77155E+00 4.90803E-02 6.35089E-01 3.78031E-13-1.06315E-12
 -1       449 3.67827E+01 8.34607E+00-2.02105E-02 5.10083E-01 2.88491E-13-8.41712E-13
 -1       450 3.73153E+01 7.23271E+00 3.58242E-02 1.23769E+00-1.18322E-13-8.61408E-13
 -1       451 3.55991E+01 3.45127E+00 2.85738E-02 4.91767E-01 6.51701E-14-5.92512E-13
 -1       452 3.17927E+01-1.46260E+00 5.61277E-03-1.89193E+00 2.65725E-13-4.16944E-13
 -1       453 2.55065E+01-4.87362E+00-1.66633E-02-4.71577E+00 1.75499E-13-2.19297E-13
 -1       454 1.56445E+01-6.61159E+00-4.70060E-02-6.93695E+00 2.54380E-13-4.61115E-13
 -1       455 8.55314E+00-6.21394E+00 2.61040E-02-6.60386E+00 4.47892E-13-3.87065E-13
 -1       456 1.96734E+00-6.09208E+00-7.84717E-02-3.26044E+00 3.93130E-13-2.01950E-13
 -1       457 1.75075E+00-4.58565E+00 7.22405E-02 1.24324E+00 2.94948E-13-6.18477E-13
 -1       458 5.38045E+00-6.61935E+00-7.38493E-02 5.39531E+00 3.27974E-13-3.62793E-13
 -1       459 1.30082E+01-6.95442E+00-5.23031E-02 6.92357E+00 3.43531E-13-1.71883E-13
 -1       460 2.26242E+01-6.01950E+00-1.73788E-02 5.60203E+00 2.41265E-13-2.90601E-14
 -1       461 2.99079E+01-2.95108E+00 9.96485E-03 2.93237E+00 1.47382E-14-7.27807E-13
 -1       462 3.42454E+01 1.10474E+00 2.27635E-02 4.14002E-02 1.09329E-13-7.19730E-13
 -1       463 3.69686E+01 4.98296E+00 5.13005E-02-8.42749E-01-1.25747E-13-5.70710E-13
 -1       464 3.77178E+01 8.26896E+00 6.01007E-02-1.25224E+00-3.71092E-14-5.05318E-13
 -1       465 3.72483E+01 7.90028E+00 2.72136E-02-5.97351E-01-1.07747E-13-3.25434E-13
 -1       466 3.70512E+01 5.10058E+00 7.84863E-02-9.09871E-01 3.51413E-13-5.59497E-13
 -1       467 3.36908E+01-2.49131E-01 3.37026E-02-2.80209E+00 2.72333E-13-4.02067E-13
 -1       468 2.76629E+01-4.20130E+00 1.12605E-02-6.09541E+00 1.36696E-13-8.03371E-13
 -1       469 1.96601E+01-6.37403E+00-4.23914E-02-8.04756E+00 4.62963E-13-3.35516E-13
 -1       470 1.18507E+01-6.52633E+00-3.68222E-02-8.18461E+00 5.12451E-13-4.21482E-13
 -1       471 5.31232E+00-4.86472E+00 1.87345E-02-5.56157E+00 2.44527E-14-6.03850E-13
 -1       472 3.48284E+01 1.26793E+00 7.16001E-02 2.40621E+00-1.86580E-13-3.15747E-13
 -1       473 2.27452E+01-6.78847E+00 3.16135E-02-5.52532E+00 3.30430E-14-7.84824E-14
 -1       474 3.28004E+01 8.09484E+00-1.51213E-01 1.29144E+00 8.83876E-14-7.41920E-13
 -1       475 2.03741E+01 8.31964E-01 4.02878E-03 9.71602E-01 3.45481E-13-9.98033E-14
 -1       476 1.97320E+01 3.10415E+00-5.35072E-03-6.33564E-01-1.52650E-13-4.58567E-13
 -1       477 1.98292E+01 2.93028E+00-5.72179E-03-9.49339E-01-2.22355E-13-4.26823E-13
 -1       478 1.96643E+01 3.22674E+00-5.02072E-03 8.82546E-03-1.12057E-14-4.76910E-13
 -1       479 1.96828E+01 3.19375E+00-5.10425E-03 3.30379E-01 6.33665E-14-5.08862E-13
 -1       480 1.97367E+01 3.09695E+00-5.41912E-03 6.45671E-01 1.36395E-13-4.95568E-13
 -1       481 1.98355E+01 2.91907E+00-5.96490E-03 9.61185E-01 2.31225E-13-4.56653E-13
 -1       482 1.99913E+01 2.63395E+00-6.52821E-03 1.25643E+00 3.09276E-13-4.03504E-13
 -1       483 2.02336E+01 2.18791E+00-5.69907E-03 1.50111E+00 3.76126E-13-3.05209E-13
 -1       484 2.01123E+01 4.53632E-01 5.07315E-03 4.63783E-01 2.85704E-13-1.35969E-13
 -1       485 2.03445E+01 9.72906E-01 2.77838E-03-9.39662E-01-3.33973E-13-7.64880E-14
 -1       486 3.09305E+01-2.83127E+00-9.41777E-02 1.44971E+00-5.29317E-13-4.74655E-13
 -1       487 2.01724E+01 5.45444E-01 2.33799E-03-4.67356E-01-2.73674E-13-4.60192E-14
 -1       488 2.00249E+01 3.03568E-01 1.11594E-03-1.66153E-01-2.10386E-13-5.41506E-14
 -1       489 1.99241E+01 1.61513E-01 4.65107E-04 1.51942E-02-1.56017E-13-8.90798E-14
 -1       490 1.98652E+01 7.52092E-02 1.59521E-04 1.17702E-01-1.51975E-13-1.12132E-13
 -1       491 1.98377E+01 2.24074E-02 2.06417E-05 1.68902E-01-8.66875E-14-1.15244E-13
 -1       492 1.98314E+01-9.16272E-03-4.79315E-05 1.87352E-01-7.16378E-14-9.79928E-14
 -1       493 1.98384E+01-2.68784E-02-8.28972E-05 1.85643E-01-1.32135E-13-6.52721E-14
 -1       494 1.98529E+01-3.54372E-02-9.80108E-05 1.72319E-01-7.25664E-14-4.96008E-14
 -1       495 1.98711E+01-3.79407E-02-1.00233E-04 1.53188E-01-5.22481E-14-4.32375E-14
 -1       496 1.98905E+01-3.64651E-02-9.40374E-05 1.32182E-01-1.84418E-14-5.87218E-15
 -1       497 1.99096E+01-3.23825E-02-8.23955E-05 1.11948E-01 1.31031E-14-1.08133E-13
 -1       498 1.99279E+01-2.65552E-02-6.71764E-05 9.42862E-02-1.08668E-13-9.56706E-14
 -1       499 1.99453E+01-1.94637E-02-4.93830E-05 8.04633E-02-8.01768E-14-1.10578E-13
 -1       500 1.99622E+01-1.12969E-02-2.93366E-05 7.14578E-02-1.33099E-13-1.56227E-13
 -1       501 1.99791E+01-2.01646E-03-6.84042E-06 6.81441E-02-1.21614E-13-1.93897E-13
 -1       502 1.99972E+01 8.59239E-03 1.87124E-05 7.14342E-02-1.51583E-13-2.20393E-13
 -1       503 2.00176E+01 2.08791E-02 4.82480E-05 8.23846E-02-2.91612E-14-1.91642E-13
 -1       504 2.00418E+01 3.52871E-02 8.29152E-05 1.02270E-01 1.99655E-14-1.80043E-13
 -1       505 2.00714E+01 5.23073E-02 1.23966E-04 1.32625E-01 1.35128E-13-1.19784E-13
 -1       506 2.01083E+01 7.24123E-02 1.72576E-04 1.75244E-01 1.97896E-13-1.07001E-13
 -1       507 2.01546E+01 9.59554E-02 2.29536E-04 2.32129E-01 6.98087E-14-2.23394E-13
 -1       508 2.02125E+01 1.23005E-01 2.94723E-04 3.05349E-01-6.46463E-14-1.45249E-13
 -1       509 2.02844E+01 1.53072E-01 3.66191E-04 3.96786E-01-1.13506E-13-4.41680E-14
 -1       510 2.03727E+01 1.84663E-01 4.38648E-04 5.07677E-01 6.64198E-14 6.78538E-14
 -1       511 2.04802E+01 2.14562E-01 5.01017E-04 6.37894E-01 1.96363E-14 1.57175E-13
 -1       512 2.06099E+01 2.36729E-01 5.32829E-04 7.84786E-01-7.36005E-14 1.91306E-13
 -1       513 2.07660E+01 2.40706E-01 4.99509E-04 9.41455E-01-4.83859E-14 1.12754E-13
 -1       514 2.09552E+01 2.09591E-01 3.47608E-04 1.09423E+00-4.05647E-14 1.06754E-13
 -1       515 2.11889E+01 1.18100E-01 1.45402E-06 1.21918E+00-1.11480E-13 7.38393E-14
 -1       516 2.14866E+01-6.74969E-02-6.28812E-04 1.27759E+00-4.25605E-14 7.98108E-14
 -1       517 2.18771E+01-3.83271E-01-1.62886E-03 1.21101E+00 8.06376E-14 9.33618E-14
 -1       518 2.23948E+01-8.47047E-01-3.05295E-03 9.38472E-01 2.15580E-13 4.18436E-14
 -1       519 2.30575E+01-1.41258E+00-4.50726E-03 3.64152E-01 1.84667E-13 2.32808E-13
 -1       520 2.38160E+01-1.89521E+00-5.05628E-03-5.84166E-01 8.49228E-14 3.88247E-14
 -1       521 2.44787E+01-1.91227E+00-6.91866E-03-1.84538E+00-3.23613E-14-1.94644E-13
 -1       522 2.47321E+01-1.01752E+00-1.25909E-02-3.03690E+00-4.09097E-14 5.73905E-14
 -1       523 2.43533E+01 8.53688E-01-2.85503E-02-3.40927E+00 1.19386E-13 1.22080E-13
 -1       524 2.36779E+01 2.72260E+00-4.44882E-02-2.33244E+00 1.43743E-13 1.87096E-13
 -1       525 2.34107E+01 3.10649E+00-4.77575E-02-2.81432E-01 2.17378E-14 1.94344E-13
 -1       526 2.37173E+01 1.69803E+00-3.63354E-02 1.30865E+00 2.20471E-13 2.13954E-13
 -1       527 2.39837E+01-2.25688E-01-1.75168E-02 1.51308E+00 2.60630E-13 2.38125E-13
 -1       528 2.36624E+01-1.32411E+00-5.92186E-03 6.82791E-01 9.64713E-14 2.92075E-13
 -1       529 2.27742E+01-1.28385E+00-2.67113E-03-3.08453E-01-3.05368E-13 8.45508E-13
 -1       530 1.98102E+01 1.28841E-01 9.92031E-04-1.98787E-02 1.52670E-13-1.41158E-13
 -1       531 1.97521E+01 5.94193E-02 3.59848E-04-1.18304E-01 1.12712E-13-1.38700E-13
 -1       532 1.97332E+01 1.76270E-02 8.24151E-05-1.66321E-01 8.30622E-14-1.69175E-13
 -1       533 1.97390E+01-7.15775E-03-5.34431E-05-1.82830E-01 8.89873E-14-1.64994E-13
 -1       534 1.97592E+01-2.10235E-02-1.23096E-04-1.80184E-01 9.50474E-14-1.06998E-13
 -1       535 1.97865E+01-2.77429E-02-1.54992E-04-1.66608E-01 6.36296E-14-1.55232E-13
 -1       536 1.98164E+01-2.97687E-02-1.63039E-04-1.47612E-01 1.19728E-13-1.71675E-13
 -1       537 1.98460E+01-2.87299E-02-1.55659E-04-1.26886E-01 1.23040E-13-7.66250E-14
 -1       538 1.98738E+01-2.57022E-02-1.38365E-04-1.06891E-01 4.76189E-14-4.64846E-14
 -1       539 1.98993E+01-2.13667E-02-1.14674E-04-8.92761E-02-2.60918E-14-4.69704E-14
 -1       540 1.99225E+01-1.61127E-02-8.65530E-05-7.51787E-02-4.02705E-14-9.55281E-14
 -1       541 1.99440E+01-1.01063E-02-5.48734E-05-6.54536E-02 8.74803E-14-1.95494E-13
 -1       542 1.99649E+01-3.34259E-03-1.96593E-05-6.08440E-02 3.11791E-15-1.39639E-13
 -1       543 1.99865E+01 4.31349E-03 1.97227E-05-6.21134E-02-1.50765E-14-1.09697E-13
 -1       544 2.00103E+01 1.30915E-02 6.43536E-05-7.01399E-02-1.47276E-13-7.34905E-14
 -1       545 2.00382E+01 2.32801E-02 1.15540E-04-8.59794E-02-7.59095E-14-1.48174E-13
 -1       546 2.00725E+01 3.51846E-02 1.74574E-04-1.10895E-01 1.12469E-13-1.35803E-13
 -1       547 2.01156E+01 4.90678E-02 2.42358E-04-1.46340E-01 1.73821E-13 3.60204E-14
 -1       548 2.01703E+01 6.50617E-02 3.18845E-04-1.93886E-01 2.81083E-14 1.97227E-13
 -1       549 2.02397E+01 8.30286E-02 4.02154E-04-2.55059E-01-3.92396E-14 6.47379E-14
 -1       550 2.03271E+01 1.02346E-01 4.87194E-04-3.31044E-01-2.67426E-14-1.41678E-13
 -1       551 2.04358E+01 1.21571E-01 5.63608E-04-4.22203E-01-2.34935E-14-2.57083E-13
 -1       552 2.05693E+01 1.37940E-01 6.12889E-04-5.27302E-01-8.74984E-14-9.11995E-14
 -1       553 2.07309E+01 1.46656E-01 6.04802E-04-6.42352E-01-1.49988E-13 1.44641E-13
 -1       554 2.09236E+01 1.39958E-01 4.93953E-04-7.58930E-01-7.53251E-14 2.15705E-13
 -1       555 2.11504E+01 1.06162E-01 2.18936E-04-8.61901E-01 1.66902E-13 1.45757E-13
 -1       556 2.14143E+01 2.91912E-02-2.92584E-04-9.26637E-01 2.32354E-13-1.78674E-14
 -1       557 2.17181E+01-1.10006E-01-1.10617E-03-9.16266E-01 7.88470E-14 5.33859E-14
 -1       558 2.20631E+01-3.27436E-01-2.21170E-03-7.80542E-01-3.97949E-14 1.40440E-13
 -1       559 2.24427E+01-6.21398E-01-3.45936E-03-4.59997E-01-3.45204E-14 2.60562E-13
 -1       560 2.28291E+01-9.45764E-01-4.36153E-03 9.75600E-02-2.07093E-13 3.71119E-13
 -1       561 2.31518E+01-1.17763E+00-4.33735E-03 8.97003E-01-1.52016E-13 5.21255E-13
 -1       562 2.32846E+01-1.11270E+00-3.46634E-03 1.82742E+00-1.50122E-13 5.40634E-13
 -1       563 2.30822E+01-5.50288E-01-4.16513E-03 2.59544E+00-1.08396E-13 5.03957E-13
 -1       564 2.25269E+01 4.79814E-01-3.21422E-03 2.75347E+00-3.68988E-13 3.50063E-13
 -1       565 2.18548E+01 1.52695E+00-4.65452E-03 2.01737E+00-1.01736E-13 4.09180E-13
 -1       566 2.14773E+01 1.90848E+00-6.11637E-03 6.16718E-01 2.20045E-14 6.68898E-13
 -1       567 2.15642E+01 1.35924E+00-7.15504E-03-7.05366E-01 2.93895E-13 7.05372E-13
 -1       568 2.18515E+01 3.38911E-01-2.25501E-03-1.29273E+00 1.92564E-13 7.84325E-13
 -1       569 2.19342E+01-4.64089E-01-4.41602E-03-1.09490E+00 1.81049E-13 6.62117E-13
 -1       570 2.16637E+01-7.06270E-01-4.00442E-03-5.16690E-01-3.53547E-15 7.56726E-13
 -1       571 2.11413E+01-4.81241E-01-7.27302E-04-5.23077E-03 5.70388E-14 6.78425E-13
 -1       572 2.19359E+01-8.88262E-01 1.29184E-02 4.41883E+00 3.87663E-13-5.63404E-14
 -1       573 1.97489E+01 1.43646E-01 3.22611E-02 5.36524E+00 3.24979E-13 4.32101E-13
 -1       574 2.22038E+01-8.75629E-01 7.28307E-03 1.21997E+00 2.57841E-13 4.06398E-14
 -1       575 2.26249E+01-1.14074E+00 3.69355E-03 2.76312E+00 5.20227E-13-1.58711E-13
 -1       576 1.65678E+01 1.77274E+00 5.20214E-02 4.38407E+00 1.05885E-13-3.25885E-13
 -1       577 1.43999E+01 2.91249E+00 5.55479E-02 1.14716E+00-3.24126E-13-1.19696E-13
 -1       578 1.51546E+01 2.57206E+00 5.85535E-02-2.78359E+00-5.43217E-13-5.51227E-13
 -1       579 1.80142E+01 1.03235E+00 3.49780E-02-5.03483E+00-1.87959E-13-8.16984E-13
 -1       580 2.08926E+01-4.07975E-01 2.04578E-02-5.02040E+00 1.59791E-13-2.02104E-13
 -1       581 2.24118E+01-1.05440E+00 9.53789E-03-3.62875E+00 3.09803E-13-2.78698E-13
 -1       582 2.23884E+01-9.68844E-01-4.89705E-03-1.96611E+00-4.07274E-13 1.75307E-13
 -1       583 6.12105E+00-1.78565E+00 1.62715E-01 3.17848E+00 1.07230E-13-3.04992E-13
 -1       584 1.97921E+01-5.81037E+00 1.14548E-01 8.20159E+00-1.67560E-13-2.53152E-13
 -1       585 1.99250E+01 2.46254E-01 2.43986E-03 1.58373E-01 2.09318E-13-1.39270E-13
 -1       586 6.86668E+00-1.07849E+00 2.18199E-01-2.58908E+00-1.58977E-13-5.03139E-13
 -1       587 1.10294E+01-3.40502E+00 1.58359E-01 7.25544E+00-1.81917E-13-3.85414E-13
 -1       588 2.03977E+01 1.75573E+00-5.96380E-03-1.53665E+00-3.84972E-13-1.35159E-13
 -1       589 1.24729E+01-3.52559E+00 1.44006E-01-7.61097E+00 1.15942E-13-6.53658E-13
 -1       590 3.14779E+01 5.92955E+00-1.73064E-01-2.81494E+00-1.28245E-13-3.33907E-13
 -1       591 3.07496E+01-2.55861E+00-8.81690E-02-7.86152E-01 1.71372E-13-3.96849E-13
 -1       592 1.96799E+01 3.19814E+00-5.09929E-03-3.12824E-01-7.49391E-14-4.77813E-13
 -1       593 3.20435E+01 4.66065E+00-1.60983E-01 2.72055E+00-1.96260E-13-5.06220E-13
 -1       594 3.04852E+01 5.72332E+00-2.15121E-01-9.63783E-01 2.57044E-13-6.26815E-13
 -1       595 3.15683E+01 7.63642E+00-1.89834E-01-7.47589E-01-1.48992E-13-2.85081E-13
 -1       596 3.13336E+01-3.49593E-01-1.14793E-01 1.82783E+00 1.48943E-14-4.76064E-13
 -1       597 2.88495E+01-4.68639E+00-3.57570E-02-1.28695E+00-3.36398E-14-2.41453E-13
 -1       598 1.53625E+01-5.93230E+00 1.05530E-01-6.91372E+00 1.74825E-13-7.16996E-14
 -1       599 7.41145E+00-3.40873E+00 1.65653E-01-4.99418E+00 2.24057E-13-2.67592E-13
 -1       600 5.00835E+00-1.96452E+00 2.05100E-01-1.35333E+00 1.83487E-13-4.42507E-13
 -1       601 7.24016E+00-2.85184E+00 1.96402E-01 4.34163E+00 4.24591E-13-3.78420E-13
 -1       602 1.18745E+01-4.69369E+00 1.34842E-01 6.40144E+00 3.78003E-13 2.84564E-14
 -1       603 2.02838E+01-6.78606E+00 5.88653E-02 5.97475E+00 3.87856E-13-3.53517E-13
 -1       604 2.75125E+01-5.67112E+00-8.67902E-03 2.51809E+00 2.37914E-13-6.06896E-13
 -1       605 3.18590E+01 2.84211E+00-1.31536E-01-3.04197E+00 9.20930E-14-4.61263E-13
 -1       606 3.03354E+01-4.18609E+00-5.89540E-02-2.64249E+00-3.12250E-17-1.03820E-13
 -1       607 3.20319E+01 5.39007E+00-1.70637E-01 9.25352E-01 2.27401E-13-3.98376E-13
 -1       608 3.24593E+01 1.16500E+00-1.11540E-01 5.97855E-01-3.17385E-14-2.53519E-13
 -1       609 2.56461E+01-6.27518E+00 1.83245E-02-6.17283E+00 1.07941E-13-3.75425E-13
 -1       610 1.98010E+01-5.99050E+00 9.80666E-02-8.16009E+00 3.26100E-13 1.93161E-14
 -1       611 3.24008E+01 2.12266E+00-1.33319E-01-7.56941E-01 9.82131E-14-8.48252E-13
 -1       612 2.05859E+01 1.30523E+00-9.98604E-04 1.54752E+00 4.04286E-13-4.45707E-14
 -1       613 2.54351E+01-6.08798E+00 2.08535E-02 6.19094E+00-3.01932E-13 2.40887E-13
 -1       614 2.94706E+01 6.22956E+00-1.86959E-01 2.43077E+00-9.37167E-14-3.78753E-13
 -1       615 1.99727E+01 2.64931E+00-9.81632E-03-1.23885E+00-2.90391E-13-3.71949E-13
 -1       616 2.84232E+01-4.98850E+00-1.06209E-02 3.06285E+00-3.11112E-13-2.77361E-13
 -1       617 7.74199E+00-1.02268E+00 1.62849E-01 1.88143E+00 3.05573E-13-3.32706E-13
 -1       618 1.25382E+01-3.76864E+00 1.38336E-01-6.05867E+00-4.33334E-15-1.34795E-13
 -1       619 2.83949E+01 6.45951E+00-1.81455E-01-1.25008E-02 2.80165E-13-3.63726E-13
 -1       620 2.20357E+01-8.36560E-01 1.21953E-03-7.60303E-01-4.39495E-13 8.90834E-13
 -1       621 1.99594E+01 2.44934E+00-1.58963E-03 3.94169E-01 8.78000E-14-4.25174E-13
 -1       622 1.99276E+01 2.52417E+00-1.51805E-03 1.35760E-01 1.71402E-14-4.40511E-13
 -1       623 2.01201E+01 2.04599E+00-1.58359E-03 8.49950E-01 2.51356E-13-3.71169E-13
 -1       624 2.02386E+01 1.67597E+00-2.24767E-03 9.91801E-01 3.01100E-13-2.94647E-13
 -1       625 2.03195E+01 1.03662E+00 2.90611E-03 8.31073E-01 3.01547E-13-2.26302E-13
 -1       626 1.83274E+01-4.98252E+00 8.98356E-02 5.57685E+00 2.19550E-13-3.51295E-13
 -1       627 1.22507E+01-3.94176E-01 1.31623E-01-5.20310E+00-3.93921E-13-5.52870E-13
 -1       628 1.85630E+01-3.81309E+00 1.35159E-01-7.60863E+00-3.74076E-14 1.21396E-14
 -1       629 2.02394E+01 6.74859E-01 6.00723E-04-3.94171E-01-2.45021E-13-1.55858E-13
 -1       630 2.01673E+01 3.91416E-01 1.94786E-04-1.39881E-01-1.96384E-13-1.43473E-13
 -1       631 2.01017E+01 2.12157E-01 6.33986E-05 2.19685E-02-1.38751E-13-1.07078E-13
 -1       632 2.00514E+01 9.77321E-02 3.93158E-06 1.16843E-01-1.15136E-13-1.10241E-13
 -1       633 2.00163E+01 2.59464E-02-1.64436E-05 1.65357E-01-6.29088E-14-1.06661E-13
 -1       634 1.99937E+01-1.73895E-02-2.66398E-05 1.83216E-01-4.57264E-14-8.27520E-14
 -1       635 1.99806E+01-4.15591E-02-3.17811E-05 1.81773E-01-7.59013E-14 1.58631E-15
 -1       636 1.99743E+01-5.27968E-02-3.31367E-05 1.69113E-01-5.48759E-14 4.53293E-14
 -1       637 1.99726E+01-5.53563E-02-3.17642E-05 1.50909E-01-2.88885E-14 3.56876E-14
 -1       638 1.99740E+01-5.21281E-02-2.85250E-05 1.31093E-01-8.60153E-14 5.23720E-14
 -1       639 1.99774E+01-4.50170E-02-2.40695E-05 1.12378E-01-5.91198E-14-8.28475E-14
 -1       640 1.99822E+01-3.51928E-02-1.87983E-05 9.66650E-02-1.15563E-13-1.57226E-13
 -1       641 1.99881E+01-2.32676E-02-1.28785E-05 8.53531E-02-1.45414E-13-1.63539E-13
 -1       642 1.99949E+01-9.42458E-03-6.30676E-06 7.95816E-02-1.55929E-13-1.42266E-13
 -1       643 2.00026E+01 6.48586E-03 1.06297E-06 8.04135E-02-9.77691E-14-7.36100E-14
 -1       644 2.00116E+01 2.48661E-02 9.48743E-06 8.89746E-02-6.00597E-14 6.05163E-14
 -1       645 2.00220E+01 4.63004E-02 1.93087E-05 1.06552E-01-3.87630E-14 3.25339E-14
 -1       646 2.00341E+01 7.14816E-02 3.09315E-05 1.34655E-01 4.52303E-14-5.00944E-14
 -1       647 2.00484E+01 1.01120E-01 4.47955E-05 1.75038E-01 1.43813E-13-1.49066E-13
 -1       648 2.00651E+01 1.35816E-01 6.13153E-05 2.29672E-01 1.39222E-13-1.69911E-13
 -1       649 2.00844E+01 1.75859E-01 8.07889E-05 3.00651E-01-1.19070E-14-1.22023E-13
 -1       650 2.01066E+01 2.20925E-01 1.03240E-04 3.90022E-01-2.69530E-14-1.41966E-13
 -1       651 2.01317E+01 2.69579E-01 1.28144E-04 4.99498E-01 2.95600E-14-4.00630E-14
 -1       652 2.01602E+01 3.18515E-01 1.53947E-04 6.30013E-01 1.39670E-13-1.68968E-15
 -1       653 2.01933E+01 3.61374E-01 1.77269E-04 7.81099E-01 4.43165E-14 2.96205E-14
 -1       654 2.02341E+01 3.87021E-01 1.91580E-04 9.50001E-01-1.35877E-13 1.64717E-13
 -1       655 2.02896E+01 3.77176E-01 1.85258E-04 1.13045E+00-2.06979E-14 1.33879E-13
 -1       656 2.03747E+01 3.03572E-01 1.39628E-04 1.31091E+00-5.09968E-14 2.66812E-14
 -1       657 2.05179E+01 1.25493E-01 2.18149E-05 1.47183E+00-6.64665E-14 2.15181E-13
 -1       658 2.07686E+01-2.09644E-01-2.03805E-04 1.58063E+00-1.23638E-13 1.46851E-13
 -1       659 2.12041E+01-7.55981E-01-5.99782E-04 1.58196E+00 1.35833E-13 4.69628E-14
 -1       660 2.19247E+01-1.53421E+00-1.51431E-03 1.38218E+00 7.35681E-14-8.63240E-14
 -1       661 2.30194E+01-2.45218E+00-2.32839E-03 8.33297E-01-5.76020E-14-3.47755E-13
 -1       662 2.44633E+01-3.17009E+00-5.96737E-03-2.44080E-01-4.08484E-15-3.36307E-13
 -1       663 2.59560E+01-2.87958E+00-1.54694E-02-1.88710E+00 1.56704E-13-1.88132E-13
 -1       664 2.67822E+01-7.80702E-01-7.41188E-02-3.46096E+00 6.99250E-14 3.89787E-13
 -1       665 2.67304E+01 2.77992E+00-1.09440E-01-3.58640E+00 1.17153E-13 3.06116E-13
 -1       666 2.62672E+01 5.33988E+00-1.27513E-01-1.58016E+00 2.00950E-14-5.41516E-15
 -1       667 2.65054E+01 4.03773E+00-1.19121E-01 9.92813E-01 2.12951E-13-1.49521E-13
 -1       668 2.67071E+01 6.21275E-01-9.70277E-02 1.73990E+00 6.53158E-14-1.55154E-13
 -1       669 2.61785E+01-1.98807E+00-3.11836E-02 5.94119E-01 1.35222E-13-1.56225E-13
 -1       670 2.48047E+01-2.49007E+00-6.01582E-03-9.11483E-01 1.96900E-13-4.64413E-13
 -1       671 1.99730E+01 8.75551E-02 5.53318E-05-1.19294E-01 1.14442E-13-1.75769E-13
 -1       672 2.35922E+01-1.68089E+00-5.57923E-03 5.53849E-01 2.00927E-14 4.54351E-13
 -1       673 2.00268E+01 1.89093E-01 1.63566E-04-2.09820E-02 1.47643E-13-1.64880E-13
 -1       674 1.99252E+01-1.35710E-02-2.91316E-05-1.87117E-01 5.27062E-14-1.61129E-13
 -1       675 1.99205E+01-3.48193E-02-4.50280E-05-1.85402E-01 7.61610E-14-1.29406E-13
 -1       676 1.99229E+01-4.48665E-02-5.17753E-05-1.72235E-01 1.00193E-13-9.26271E-14
 -1       677 1.99295E+01-4.74413E-02-5.22259E-05-1.53382E-01 6.76003E-14-4.80005E-14
 -1       678 1.99385E+01-4.50611E-02-4.84524E-05-1.32802E-01 6.16742E-14 2.89451E-14
 -1       679 1.99487E+01-3.93890E-02-4.19230E-05-1.13201E-01 1.34499E-14-3.15761E-14
 -1       680 1.99593E+01-3.14609E-02-3.34934E-05-9.64498E-02-5.39368E-15-5.38759E-14
 -1       681 1.99702E+01-2.18391E-02-2.36655E-05-8.38974E-02 4.47132E-14-8.28954E-15
 -1       682 1.99815E+01-1.07235E-02-1.26333E-05-7.66150E-02-4.76981E-14 7.27098E-14
 -1       683 1.99935E+01 1.96202E-03-2.32871E-07-7.55790E-02 1.16324E-14 5.47013E-14
 -1       684 2.00069E+01 1.64964E-02 1.38836E-05-8.18076E-02-1.10685E-14 2.93326E-14
 -1       685 2.00222E+01 3.32961E-02 3.01531E-05-9.64545E-02 1.28889E-14-6.33422E-14
 -1       686 2.00404E+01 5.28443E-02 4.90943E-05-1.20865E-01 1.64439E-15-4.38704E-14
 -1       687 2.00625E+01 7.56011E-02 7.11774E-05-1.56584E-01 1.09153E-13 1.54057E-14
 -1       688 2.00896E+01 1.01878E-01 9.67029E-05-2.05317E-01 6.83060E-14 1.02628E-13
 -1       689 2.01229E+01 1.31649E-01 1.25580E-04-2.68804E-01 1.90093E-15 1.35491E-13
 -1       690 2.01637E+01 1.64273E-01 1.56977E-04-3.48604E-01 8.46714E-14 3.48397E-14
 -1       691 2.02137E+01 1.98061E-01 1.88783E-04-4.45732E-01-5.07509E-14 8.98580E-14
 -1       692 2.02747E+01 2.29644E-01 2.16798E-04-5.60102E-01-1.28168E-13 9.14919E-14
 -1       693 2.03495E+01 2.53061E-01 2.33578E-04-6.89713E-01-1.38356E-13 1.68363E-13
 -1       694 2.04424E+01 2.58530E-01 2.26894E-04-8.29483E-01-1.02574E-13 2.72757E-14
 -1       695 2.05604E+01 2.30970E-01 1.77785E-04-9.69629E-01 5.38602E-14 1.50241E-13
 -1       696 2.07159E+01 1.48672E-01 5.88827E-05-1.09347E+00 2.82910E-13 2.87506E-13
 -1       697 2.09284E+01-1.67907E-02-1.72089E-04-1.17455E+00 1.57376E-13 1.55421E-13
 -1       698 2.12276E+01-2.96899E-01-5.83359E-04-1.17290E+00-5.81058E-15-9.33039E-14
 -1       699 2.16515E+01-7.13620E-01-1.14608E-03-1.03110E+00-1.23284E-13 8.97268E-14
 -1       700 2.22349E+01-1.25086E+00-1.81255E-03-6.73103E-01-1.74606E-13 2.27610E-13
 -1       701 2.29761E+01-1.80135E+00-2.03962E-03-1.57491E-02-1.69066E-13 2.72837E-13
 -1       702 2.37775E+01-2.10334E+00-2.03376E-03 9.78077E-01-1.92581E-13 2.63510E-13
 -1       703 2.43922E+01-1.74534E+00-6.42170E-03 2.17605E+00-2.89817E-13 4.63214E-13
 -1       704 2.45331E+01-3.68981E-01-1.60121E-02 3.13159E+00-5.62766E-14 5.89999E-13
 -1       705 2.40762E+01 1.70526E+00-3.57852E-02 3.08094E+00-2.47814E-13 3.50520E-13
 -1       706 2.35061E+01 3.26196E+00-5.45563E-02 1.67486E+00-7.29174E-14 3.18026E-13
 -1       707 2.35080E+01 3.07348E+00-4.01496E-02-2.74013E-01 3.71751E-15 3.66110E-13
 -1       708 2.38955E+01 1.31865E+00-2.52135E-02-1.38918E+00 2.13054E-13 6.16145E-13
 -1       709 2.40371E+01-4.79103E-01-8.71245E-03-1.24274E+00 2.30218E-13 7.71808E-13
 -1       710 2.40632E+01-1.40862E+00-8.25068E-03-4.51366E-01 2.96921E-13 7.15381E-13
 -1       711 1.26719E+01 7.67226E-01 1.34820E-01 3.96185E+00-2.15609E-13-5.32269E-13
 -1       712 2.35617E+01-1.88676E+00-9.53824E-03-1.62682E+00 1.15732E-13-4.13658E-13
 -1       713 2.24086E+01-3.00328E+00 3.71494E-02 5.76641E+00 1.27036E-13 2.77131E-13
 -1       714 1.04432E+01 1.18274E+00 1.54762E-01-1.23578E+00-3.77216E-13-4.72712E-13
 -1       715 1.75481E+01-1.41169E+00 8.08554E-02 6.62810E+00 2.50196E-13-2.12039E-13
 -1       716 1.99178E+01-2.23669E+00 7.10752E-02-6.49930E+00 1.32387E-13-1.62828E-13
 -1       717 2.34832E+01-2.98856E+00 2.54160E-02-4.66249E+00 2.75537E-13-1.73923E-13
 -1       718 2.80725E+01-4.50094E+00-3.37200E-02-4.26970E-01 3.46543E-13-2.90882E-13
 -1       719 2.87163E+01 2.09097E+00-1.32537E-01 1.70275E+00 1.08708E-13-5.25163E-13
 -1       720 1.75651E+01-3.09269E+00 1.25760E-01 7.51937E+00-2.44509E-13-1.65590E-13
 -1       721 2.02807E+01 1.67900E+00 7.31089E-05-1.14025E+00-3.08057E-13-2.16551E-13
 -1       722 2.86970E+01-2.95848E+00-6.38468E-02 1.59723E+00-7.68509E-14-6.23977E-13
 -1       723 2.01054E+01 3.52610E-01 5.48230E-04 1.49079E-01 1.84485E-13-1.54839E-13
 -1       724 1.99410E+01 2.44155E-02 6.48330E-07-1.69053E-01 7.75439E-14-1.75616E-13
 -1       725 2.02909E+01 1.07638E+00-1.39722E-04-7.22869E-01-2.79020E-13-1.89432E-13
 -1       726 2.97375E+01-2.04816E+00-7.00663E-02 3.07127E-01 5.54921E-14-4.76758E-13
 -1       727 2.02057E+01 6.14723E-01 1.11435E-03 4.20218E-01 2.29713E-13-1.83216E-13
 -1       728 2.94571E+01-8.10409E-01-1.01623E-01-8.23898E-01-3.06227E-13-1.01022E-12
 -1       729 2.09748E+01-6.04908E+00 6.12243E-02-5.33790E+00 1.27398E-13-1.29225E-13
 -1       730 2.00237E+01 2.29456E+00-1.64435E-03 6.37691E-01 1.73460E-13-3.92936E-13
 -1       731 2.00183E+01 2.30508E+00-1.52462E-03-6.28820E-01-1.61794E-13-3.85980E-13
 -1       732 2.82468E+01 2.60527E+00-1.32272E-01-1.60992E+00-1.11793E-13-9.20892E-13
 -1       733 2.89750E+01-6.78057E-01-7.74977E-02-3.21186E+00 1.76106E-13 3.57075E-14
 -1       734 2.62021E+01-5.75936E+00-1.15578E-02-2.16363E+00-4.49519E-14-3.96055E-13
 -1       735 8.57126E+00-1.44016E+00 1.63780E-01-3.31780E+00 6.06511E-14-2.97033E-13
 -1       736 1.17665E+01-2.53289E+00 1.34213E-01 5.00887E+00 4.12451E-13-1.36079E-13
 -1       737 2.76980E+01-5.26010E+00-2.36990E-02-3.48452E+00-1.79114E-13 1.40096E-14
 -1       738 2.84481E+01 3.28248E+00-1.66573E-01-3.54372E+00 1.00545E-14 5.05845E-14
 -1       739 2.45331E+01-6.12171E+00 2.73835E-02 3.20901E+00 4.12968E-13-4.43908E-13
 -1       740 2.37273E+01-4.96593E+00 5.16392E-02 6.19999E+00 5.97439E-15 3.25580E-13
 -1       741 2.36940E+01-5.52346E+00 6.08139E-02-6.45908E+00-9.72208E-14 7.01430E-14
 -1       742 2.90616E+01 1.60107E+00-1.23395E-01 3.29310E+00-2.01644E-14-3.26638E-13
 -1       743 2.01187E+01 2.06336E+00-1.14094E-03-8.54272E-01-2.23461E-13-3.38499E-13
 -1       744 1.99267E+01 2.52583E+00-1.49943E-03-1.26542E-01-4.44392E-14-4.08905E-13
 -1       745 2.82788E+01-3.05060E+00-2.83202E-02 5.00342E-01-2.25646E-13-9.29042E-13
 -1       746 2.42261E+01-2.86365E+00 1.50861E-03 3.43521E+00 5.60901E-13-2.13338E-13
 -1       747 1.13069E+01-3.93979E-01 1.56828E-01 5.00519E+00 1.20209E-13-6.92557E-13
 -1       748 1.76272E+01-4.58644E+00 7.85238E-02-5.68494E+00 1.58012E-13-3.38358E-14
 -1       749 1.99564E+01 2.45495E+00-1.53055E-03-3.84584E-01-1.05287E-13-4.01213E-13
 -1       750 2.67776E+01 3.90011E+00-1.13378E-01-1.23011E+00-5.21007E-14-5.41650E-13
 -1       751 9.05666E+00-2.91073E-01 1.15694E-01-3.82009E-01 8.19894E-14-1.68227E-13
 -1       752 2.82031E+01 5.55441E+00-1.83160E-01 5.21620E-01 1.69850E-13-2.44848E-13
 -1       753 2.73463E+01 3.55570E+00-1.03965E-01 3.35318E+00-2.49370E-13-6.24049E-14
 -1       754 2.02643E+01 1.30800E+00 1.26910E-04 6.31281E-01 2.00612E-13-2.98888E-13
 -1       755 2.02613E+01 4.32887E-01-4.19104E-06-9.40494E-02-1.47941E-13-1.71267E-13
 -1       756 2.02216E+01 2.33650E-01-1.47057E-05 3.56247E-02-1.42205E-13-1.82150E-13
 -1       757 2.01801E+01 1.03056E-01-1.39106E-05 1.12461E-01-7.72390E-14-1.41983E-13
 -1       758 2.01425E+01 1.99875E-02-1.07118E-05 1.51804E-01-2.16157E-14-1.38685E-13
 -1       759 2.01106E+01-3.01535E-02-9.59640E-06 1.65654E-01-1.91650E-14-1.20725E-13
 -1       760 2.00847E+01-5.75259E-02-8.86324E-06 1.63294E-01-4.58947E-14-6.69514E-14
 -1       761 2.00642E+01-6.92820E-02-8.14119E-06 1.51590E-01-2.00580E-14-2.94677E-14
 -1       762 2.00484E+01-7.04297E-02-7.31789E-06 1.35473E-01-4.39882E-14-5.51769E-14
 -1       763 2.00366E+01-6.43977E-02-6.33601E-06 1.18427E-01-1.20766E-13-9.67186E-14
 -1       764 2.00280E+01-5.34182E-02-5.20062E-06 1.02908E-01-1.80537E-13-1.25940E-13
 -1       765 2.00219E+01-3.88146E-02-3.94476E-06 9.06923E-02-1.47815E-13-1.41576E-13
 -1       766 2.00177E+01-2.12151E-02-2.60119E-06 8.31432E-02-9.40263E-14-1.07780E-13
 -1       767 2.00149E+01-7.06469E-04-1.09111E-06 8.14244E-02-2.77298E-14 5.82983E-14
 -1       768 2.00127E+01 2.30367E-02 6.34184E-07 8.66631E-02-3.76600E-14 5.15740E-14
 -1       769 2.00106E+01 5.06415E-02 2.62047E-06 1.00067E-01-2.54496E-14 7.42062E-14
 -1       770 2.00079E+01 8.29342E-02 4.94123E-06 1.23000E-01-3.39412E-14 9.44882E-14
 -1       771 2.00036E+01 1.20826E-01 7.72520E-06 1.57026E-01 4.45113E-14 9.06114E-14
 -1       772 1.99968E+01 1.65164E-01 1.11260E-05 2.03903E-01 1.04612E-13 6.65670E-14
 -1       773 1.99860E+01 2.16528E-01 1.53264E-05 2.65540E-01 7.02837E-14-4.71517E-14
 -1       774 1.99699E+01 2.74920E-01 2.05530E-05 3.43896E-01-1.01078E-13-9.71419E-14
 -1       775 1.99465E+01 3.39306E-01 2.70996E-05 4.40828E-01 3.86077E-14-1.16863E-13
 -1       776 1.99142E+01 4.06920E-01 3.53652E-05 5.57896E-01 8.14100E-14-2.10572E-13
 -1       777 1.98714E+01 4.72222E-01 4.58946E-05 6.96135E-01 1.33939E-13-3.02983E-13
 -1       778 1.98184E+01 5.25384E-01 5.93465E-05 8.55870E-01 3.56152E-14-2.89656E-13
 -1       779 1.97582E+01 5.50142E-01 7.61988E-05 1.03660E+00-3.77817E-14-9.36376E-14
 -1       780 1.97005E+01 5.20953E-01 9.68377E-05 1.23705E+00 3.20479E-15-3.01037E-14
 -1       781 1.96667E+01 3.99546E-01 1.28743E-04 1.45508E+00-4.49272E-14-6.73984E-14
 -1       782 1.96989E+01 1.31517E-01 1.89593E-04 1.68669E+00-3.81551E-14-1.90485E-13
 -1       783 1.98726E+01-3.54581E-01 4.30243E-04 1.92117E+00-1.23289E-13-1.52605E-13
 -1       784 2.03187E+01-1.14004E+00 1.41946E-03 2.12298E+00-6.00414E-14-3.71129E-13
 -1       785 2.12169E+01-2.26120E+00 3.37915E-03 2.19203E+00-1.08184E-13-5.42431E-13
 -1       786 2.28009E+01-3.61939E+00 1.39841E-02 1.89844E+00-1.16744E-13-3.71831E-13
 -1       787 2.68067E+01-4.00566E+00 6.41070E-03-2.01230E+00 2.96195E-14-6.00209E-13
 -1       788 2.01702E+01 2.23585E-01 1.10341E-05-3.20749E-02 1.36566E-13-1.83892E-13
 -1       789 2.00408E+01-5.03943E-02-1.40353E-05-1.72973E-01 2.27569E-14-7.76159E-14
 -1       790 2.00612E+01-2.44458E-02-1.21275E-05-1.75141E-01 5.68016E-14-9.23839E-14
 -1       791 2.00165E+01-6.37708E-02-1.37387E-05-1.43393E-01 3.28523E-14-1.06369E-13
 -1       792 2.00103E+01-5.90391E-02-1.24544E-05-1.24950E-01 5.13148E-14-1.27555E-13
 -1       793 2.00068E+01-4.98459E-02-1.01058E-05-1.07890E-01 4.02526E-15-7.56878E-14
 -1       794 2.00054E+01-3.74569E-02-7.46881E-06-9.40495E-02 4.80822E-14-1.19419E-13
 -1       795 2.00057E+01-2.25072E-02-4.85511E-06-8.48186E-02-3.95980E-14-1.49048E-13
 -1       796 2.00071E+01-5.14926E-03-1.97087E-06-8.13525E-02-2.78182E-14-2.04122E-13
 -1       797 2.00096E+01 1.48267E-02 1.40779E-06-8.47512E-02-1.18964E-14-7.07104E-14
 -1       798 2.00127E+01 3.78831E-02 5.29723E-06-9.61765E-02 9.89640E-15-7.31259E-14
 -1       799 2.00164E+01 6.46387E-02 9.88995E-06-1.16935E-01 1.02029E-14-9.14591E-15
 -1       800 2.00203E+01 9.57483E-02 1.53259E-05-1.48519E-01-3.56732E-14 3.80047E-14
 -1       801 2.00241E+01 1.31752E-01 2.17646E-05-1.92594E-01 2.57361E-14 1.25718E-13
 -1       802 2.00277E+01 1.72864E-01 2.93493E-05-2.50942E-01 4.02832E-14 1.60605E-13
 -1       803 2.00307E+01 2.18666E-01 3.81614E-05-3.25325E-01 4.23548E-14 9.97606E-14
 -1       804 2.00329E+01 2.67654E-01 4.81581E-05-4.17277E-01 6.48757E-14 8.47985E-14
 -1       805 2.00345E+01 3.16591E-01 5.90834E-05-5.27783E-01-1.23345E-13-3.37996E-14
 -1       806 2.00368E+01 3.59563E-01 7.03380E-05-6.56858E-01-1.41533E-13-1.52697E-13
 -1       807 2.00426E+01 3.86699E-01 8.07595E-05-8.02976E-01-1.22482E-13 1.80660E-14
 -1       808 2.00587E+01 3.82496E-01 8.80763E-05-9.62339E-01 4.95219E-14-6.18266E-14
 -1       809 2.00980E+01 3.23891E-01 8.71024E-05-1.12784E+00 1.81018E-14-1.75137E-13
 -1       810 2.01836E+01 1.78632E-01 6.78007E-05-1.28742E+00 1.44387E-13 1.72156E-14
 -1       811 2.03545E+01-9.46586E-02-1.22410E-05-1.42101E+00 2.19787E-13 1.78373E-13
 -1       812 2.06711E+01-5.41525E-01-2.94003E-04-1.49425E+00-1.87760E-13 1.91015E-13
 -1       813 2.12169E+01-1.19284E+00-4.06446E-04-1.44678E+00-1.73256E-13 7.21592E-14
 -1       814 2.20835E+01-2.02246E+00-6.02746E-04-1.17290E+00-2.44789E-13 7.58827E-14
 -1       815 2.33152E+01-2.85255E+00-7.62174E-04-5.15455E-01-1.76177E-13 1.14059E-13
 -1       816 2.47878E+01-3.22116E+00-5.80022E-03 6.72939E-01-4.66210E-13 1.11617E-13
 -1       817 2.60696E+01-2.27996E+00-1.85469E-02 2.27810E+00-2.01041E-13-1.17918E-14
 -1       818 2.01384E+01 1.88849E+00-3.03641E-04 1.99114E-01 4.52555E-14-3.69322E-13
 -1       819 2.55207E+01-4.73306E+00-1.56568E-04 7.13582E-01 3.35446E-13-2.94315E-13
 -1       820 1.63372E+01-2.72638E+00 5.15789E-02 4.63625E+00 1.51181E-13-3.70632E-13
 -1       821 2.02205E+01 4.13292E-01-4.83041E-05 1.11280E-01 1.53258E-13-1.67118E-13
 -1       822 1.16957E+01-5.49554E-01 8.57069E-02 2.82706E+00 1.51421E-13-2.09843E-13
 -1       823 2.02777E+01 9.43196E-01 8.43187E-05 5.53069E-01 2.13388E-13-2.30765E-13
 -1       824 1.28698E+01-1.87355E+00 9.50803E-02-4.49813E+00-5.78600E-14-1.09530E-13
 -1       825 2.64705E+01-4.25494E+00-8.27778E-03 2.34309E-01-1.26981E-13-5.32956E-13
 -1       826 2.00263E+01-6.19497E-02-1.44037E-05-1.60633E-01 4.44150E-14-6.38935E-14
 -1       827 2.33055E+01-5.28324E+00 2.84908E-02-3.23544E+00 2.05305E-14-3.14627E-13
 -1       828 2.58768E+01 5.11672E+00-1.28156E-01 1.51975E+00 4.18311E-14-1.12107E-14
 -1       829 2.02890E+01 7.29235E-01-2.25734E-04-2.90918E-01-1.72094E-13-1.95403E-13
 -1       830 2.68057E+01-1.40303E-03-7.96832E-02-1.49716E+00-1.09720E-13-2.44029E-13
 -1       831 2.20999E+01-4.80865E+00 3.80469E-02 3.49127E+00 9.37323E-14-2.81346E-13
 -1       832 2.61122E+01-4.27882E+00 5.33029E-03 3.36806E+00-4.14382E-14-6.76590E-13
 -1       833 2.69398E+01-7.39122E-01-7.74461E-02 3.16851E+00 3.83200E-15 5.25621E-14
 -1       834 2.01264E+01 1.92708E+00-2.94824E-04 3.27581E-03-1.87442E-14-3.76717E-13
 -1       835 2.02878E+01 1.12389E+00 1.97138E-04-5.35597E-01-2.14716E-13-2.53570E-13
 -1       836 2.00891E+01 2.26228E-02-8.75722E-06-1.59734E-01 1.03885E-14-1.36975E-13
 -1       837 2.01254E+01 1.00538E-01-2.92021E-06-1.16571E-01 7.39487E-14-1.50495E-13
 -1       838 2.38470E+01-4.87703E+00 3.64464E-02-5.90139E+00 1.24779E-13-1.63324E-14
 -1       839 2.02213E+01 1.58114E+00-6.85563E-05 5.37026E-01 1.49445E-13-3.27105E-13
 -1       840 2.60910E+01-2.14248E+00-2.46176E-02-1.45202E-01 1.94918E-13 3.23750E-13
 -1       841 1.14715E+01-3.65154E-01 6.91345E-02-2.44629E+00-4.64776E-14-1.50973E-13
 -1       842 2.01692E+01 1.78182E+00-3.93911E-04-3.77371E-01-1.19998E-13-3.44598E-13
 -1       843 2.02496E+01 6.37271E-01 1.44302E-04 2.95487E-01 1.71874E-13-1.84207E-13
 -1       844 2.01712E+01 1.77606E+00-1.42886E-04 3.82009E-01 1.14303E-13-3.53236E-13
 -1       845 2.02152E+01 1.59512E+00 1.05367E-04-5.32091E-01-1.63041E-13-3.03391E-13
 -1       846 1.99310E+01-2.86777E+00 2.40841E-02 3.36851E+00 4.28830E-14-5.07973E-13
 -1       847 1.19667E+01 3.81958E-01 5.13829E-02 4.15738E-01 8.96931E-14-8.02483E-14
 -1       848 2.03041E+01 2.26565E-01-2.08513E-05 4.69317E-02-7.60925E-14-2.11613E-13
 -1       849 2.02679E+01 9.12317E-02-6.71958E-06 1.02538E-01-2.23524E-14-1.74413E-13
 -1       850 2.02287E+01 4.86847E-03-5.39992E-06 1.30130E-01-1.55604E-14-1.24659E-13
 -1       851 2.01908E+01-4.65669E-02-3.28799E-06 1.38616E-01 1.20095E-15-1.48641E-13
 -1       852 2.01562E+01-7.34565E-02-1.60863E-06 1.35033E-01-1.14453E-15-1.60592E-13
 -1       853 2.01261E+01-8.33311E-02-1.04355E-06 1.24690E-01-5.92334E-14-1.66297E-13
 -1       854 2.01005E+01-8.15426E-02-1.16356E-06 1.11453E-01-1.10702E-13-2.16195E-13
 -1       855 2.00791E+01-7.17337E-02-1.01489E-06 9.80851E-02-9.70524E-14-1.42866E-13
 -1       856 2.00615E+01-5.62167E-02-8.65987E-07 8.65838E-02-1.29823E-13-5.62189E-14
 -1       857 2.00467E+01-3.63020E-02-9.61265E-07 7.84413E-02-5.02477E-14 4.96419E-14
 -1       858 2.00338E+01-1.25077E-02-9.73472E-07 7.48421E-02 1.35660E-14 1.07938E-14
 -1       859 2.00216E+01 1.52622E-02-8.82233E-07 7.68498E-02-6.38917E-14-2.46170E-14
 -1       860 2.00090E+01 4.75512E-02-8.02457E-07 8.55263E-02 4.68052E-15 2.13456E-14
 -1       861 1.99945E+01 8.52167E-02-8.36806E-07 1.02014E-01-5.68258E-14 7.35744E-14
 -1       862 1.99763E+01 1.29294E-01-9.45823E-07 1.27591E-01 4.49023E-14 1.90630E-14
 -1       863 1.99523E+01 1.80836E-01-1.08829E-06 1.63683E-01 2.18387E-14-3.81224E-14
 -1       864 1.99203E+01 2.40701E-01-1.21422E-06 2.11855E-01 2.48064E-14-3.95000E-14
 -1       865 1.98773E+01 3.09275E-01-1.24074E-06 2.73755E-01-1.15076E-13-1.70108E-13
 -1       866 1.98201E+01 3.86059E-01-1.01864E-06 3.51044E-01 3.72249E-15-9.73627E-14
 -1       867 1.97451E+01 4.69104E-01-2.74392E-07 4.45335E-01 5.36785E-14-1.61299E-13
 -1       868 1.96486E+01 5.54190E-01 1.50137E-06 5.58183E-01 4.43386E-14-1.72905E-13
 -1       869 1.95272E+01 6.33692E-01 5.23217E-06 6.91248E-01 4.97425E-14-3.54082E-13
 -1       870 1.93790E+01 6.94994E-01 1.23735E-05 8.46789E-01 5.60358E-14-3.46395E-13
 -1       871 1.92048E+01 7.18346E-01 2.47695E-05 1.02871E+00 4.81004E-14-2.64670E-13
 -1       872 1.90120E+01 6.74040E-01 4.90471E-05 1.24433E+00 9.08960E-14-1.91452E-13
 -1       873 1.88194E+01 5.18750E-01 1.32168E-04 1.50718E+00-1.70919E-13-1.87610E-13
 -1       874 1.86679E+01 1.89881E-01 4.64899E-04 1.83890E+00-1.52188E-13-3.13792E-13
 -1       875 1.86335E+01-3.96144E-01 1.78732E-03 2.26892E+00-1.07700E-13-4.94892E-13
 -1       876 1.88805E+01-1.37779E+00 2.17466E-04 2.82944E+00-1.29394E-13-4.64299E-13
 -1       877 2.01571E+01-3.94562E-02-1.70954E-06-1.52088E-01 1.67025E-14-2.07473E-13
 -1       878 2.00615E+01-6.86840E-02-1.19502E-06-1.07797E-01 2.46598E-14-9.37702E-14
 -1       879 2.00788E+01-7.68049E-02-2.19963E-06-1.22910E-01 4.08962E-14-6.08475E-14
 -1       880 2.00367E+01-3.77049E-02 1.11637E-06-8.45200E-02-2.17943E-15-1.86366E-13
 -1       881 2.00276E+01-1.67597E-02 1.11884E-07-7.92610E-02-5.12364E-14-1.06324E-13
 -1       882 2.00197E+01 7.62149E-03 2.81249E-07-7.97935E-02-4.34323E-14-1.52140E-13
 -1       883 2.00119E+01 3.58213E-02 5.51708E-07-8.72195E-02-7.29557E-14-2.25517E-13
 -1       884 2.00032E+01 6.85118E-02 1.07251E-06-1.02718E-01 3.97433E-14-4.14855E-14
 -1       885 1.99924E+01 1.06497E-01 1.82009E-06-1.27615E-01-3.48386E-14 2.34222E-15
 -1       886 1.99783E+01 1.50546E-01 2.83524E-06-1.63405E-01-1.17090E-14-9.02693E-14
 -1       887 1.99592E+01 2.01175E-01 4.20677E-06-2.11733E-01-5.93265E-14-1.16202E-13
 -1       888 1.99336E+01 2.58344E-01 6.06852E-06-2.74345E-01-1.94331E-14-1.19057E-13
 -1       889 1.98996E+01 3.21038E-01 8.61488E-06-3.52991E-01-1.69380E-14-6.18032E-14
 -1       890 1.98558E+01 3.86664E-01 1.21398E-05-4.49300E-01 1.14556E-13 2.15999E-14
 -1       891 1.98012E+01 4.50224E-01 1.71195E-05-5.64647E-01-1.31040E-13-7.18222E-14
 -1       892 1.97362E+01 5.03184E-01 2.43911E-05-7.00054E-01-2.44109E-13-5.13057E-14
 -1       893 1.96638E+01 5.31958E-01 3.54924E-05-8.56178E-01 3.40545E-15-1.47268E-13
 -1       894 1.95923E+01 5.15990E-01 5.30763E-05-1.03342E+00 1.13361E-13 3.34373E-14
 -1       895 1.95382E+01 4.25460E-01 8.06976E-05-1.23201E+00-3.60037E-14-7.08752E-14
 -1       896 1.95326E+01 2.19146E-01 1.27924E-04-1.45140E+00 5.26272E-14 6.19528E-14
 -1       897 1.96296E+01-1.56696E-01 1.50517E-04-1.68795E+00 3.23387E-15 2.63661E-13
 -1       898 1.99179E+01-7.65741E-01-3.93981E-04-1.92371E+00-3.05523E-13 2.12108E-13
 -1       899 2.05370E+01-1.66316E+00 6.11408E-04-2.11352E+00-4.95370E-14 1.21272E-13
 -1       900 2.16798E+01-2.84115E+00 6.22295E-03-2.10174E+00-1.38002E-13 8.15900E-15
 -1       901 1.52278E+01-8.32274E-01 1.75999E-02 3.21538E+00-1.04558E-13-3.13677E-13
 -1       902 2.55501E+01-2.65322E+00 2.05451E-03 1.01221E+00 4.82392E-13 3.63020E-13
 -1       903 2.03005E+01 4.29310E-01 9.71724E-05 6.37570E-02 1.14880E-13-2.00359E-13
 -1       904 2.03311E+01 4.29418E-01 1.20424E-04-4.61418E-02-1.25095E-13-2.30128E-13
 -1       905 1.68577E+01-2.87937E+00 3.49901E-02-4.62571E+00 5.22186E-14-2.56553E-13
 -1       906 2.01372E+01 1.89164E+00-2.27068E-04-1.92367E-01-4.56499E-14-3.73528E-13
 -1       907 2.13005E+01-4.02164E+00 1.77850E-02-3.41864E+00 3.53172E-14-2.54415E-14
 -1       908 2.38763E+01-4.11195E+00 1.31299E-02-1.37556E+00-2.99125E-13-9.83001E-14
 -1       909 2.02686E+01 2.28931E-01 1.94982E-06-4.47765E-02 6.28756E-14-1.55704E-13
 -1       910 2.00477E+01-5.52142E-02 9.61799E-07-9.44586E-02 4.43909E-14-1.75275E-13
 -1       911 2.03318E+01 7.29695E-01 8.94011E-04-1.90623E-01-1.55250E-13-2.54865E-13
 -1       912 2.03023E+01 1.10184E+00-8.36065E-04-3.60614E-01-1.60613E-13-2.75079E-13
 -1       913 2.02977E+01 9.01224E-01-2.40503E-04 3.75403E-01 1.45488E-13-2.43327E-13
 -1       914 1.42878E+01 3.17739E-01 1.32305E-02 1.69694E+00-1.06702E-13-3.60080E-13
 -1       915 2.01263E+01-6.65479E-02-1.06018E-06-1.48777E-01 6.43557E-15-1.27450E-13
 -1       916 2.01923E+01 1.13396E-02-1.85121E-06-1.41566E-01 1.09225E-14-1.84601E-13
 -1       917 2.01003E+01-7.72714E-02-2.63582E-07-1.37603E-01 8.40832E-14-1.34016E-13
 -1       918 2.02306E+01 9.60792E-02-2.81904E-06-1.09213E-01 3.58099E-14-1.60042E-13
 -1       919 1.48262E+01-1.22147E+00 4.05656E-02-3.68992E+00 1.09332E-13-1.34497E-13
 -1       920 2.03137E+01 7.23107E-01-3.30321E-04 2.30623E-01 1.29806E-13-2.41283E-13
 -1       921 2.02848E+01 1.34166E+00-1.22640E-04-1.96815E-01-7.98973E-14-3.03506E-13
 -1       922 2.02744E+01 1.40630E+00 4.73683E-05 6.93452E-02 3.24364E-15-3.45292E-13
 -1       923 2.02899E+01 1.33135E+00 1.60422E-04 1.99312E-01 5.12916E-14-3.14303E-13
 -1       924 2.03240E+01 6.55793E-02-2.03477E-06 8.49608E-02-1.80075E-14-1.82478E-13
 -1       925 2.02825E+01-1.68516E-02-1.53112E-06 1.01090E-01 1.65357E-16-1.63785E-13
 -1       926 2.02400E+01-6.45342E-02 9.41222E-07 1.04636E-01-1.39080E-14-1.40116E-13
 -1       927 2.01997E+01-8.75953E-02 2.19853E-06 1.00410E-01-2.36769E-14-1.45589E-13
 -1       928 2.01632E+01-9.34919E-02 1.54209E-06 9.20717E-02-3.66107E-14-1.22164E-13
 -1       929 2.01311E+01-8.75633E-02 1.72199E-07 8.22828E-02-6.27677E-14-6.03514E-14
 -1       930 2.01033E+01-7.33110E-02 4.79238E-07 7.29850E-02-1.97410E-14-5.76027E-14
 -1       931 2.00791E+01-5.29116E-02 2.22327E-07 6.56358E-02-7.30669E-14 2.76138E-15
 -1       932 2.00574E+01-2.75340E-02-7.95715E-07 6.13175E-02-8.99593E-14-8.61764E-14
 -1       933 2.00371E+01 2.55692E-03-1.40491E-06 6.09423E-02-5.44987E-14-1.32733E-13
 -1       934 2.00163E+01 3.76833E-02-2.41891E-06 6.53759E-02 2.96387E-14-3.64085E-14
 -1       935 1.99933E+01 7.86139E-02-3.98937E-06 7.54862E-02 5.87701E-14 1.00842E-13
 -1       936 1.99657E+01 1.26410E-01-6.11404E-06 9.22086E-02 5.18789E-15 1.20678E-13
 -1       937 1.99309E+01 1.82247E-01-8.85101E-06 1.16574E-01-3.90305E-14 1.27145E-13
 -1       938 1.98857E+01 2.47205E-01-1.23160E-05 1.49706E-01-3.23875E-14-8.68110E-14
 -1       939 1.98267E+01 3.22009E-01-1.66691E-05 1.92794E-01-3.93786E-14-1.48073E-13
 -1       940 1.97495E+01 4.06677E-01-2.21246E-05 2.47060E-01-2.55402E-14-9.24200E-15
 -1       941 1.96493E+01 5.00061E-01-2.89924E-05 3.13735E-01 8.17629E-14 1.98081E-14
 -1       942 1.95208E+01 5.99234E-01-3.77539E-05 3.94102E-01-3.66222E-14 4.90271E-14
 -1       943 1.93581E+01 6.98714E-01-4.91748E-05 4.89710E-01-1.11929E-13-2.02010E-13
 -1       944 1.91550E+01 7.89467E-01-6.45515E-05 6.02924E-01 4.55313E-14-2.45009E-13
 -1       945 1.89053E+01 8.57666E-01-8.68062E-05 7.38103E-01 9.50821E-14-1.82692E-13
 -1       946 1.86031E+01 8.83065E-01-1.20590E-04 9.03765E-01 6.77647E-14-1.46235E-13
 -1       947 1.82442E+01 8.36970E-01-1.63427E-04 1.11604E+00 4.16262E-14-1.47266E-13
 -1       948 1.78263E+01 6.80479E-01-1.41792E-04 1.40604E+00-2.02513E-13-5.43086E-14
 -1       949 1.73612E+01 3.48454E-01-2.85157E-04 1.82745E+00-2.68234E-13-1.51592E-13
 -1       950 1.69130E+01-2.44314E-01 8.30392E-03 2.46834E+00-2.57834E-13-2.44711E-13
 -1       951 2.00195E+01 2.73378E-02 7.61340E-07-7.15993E-02-1.16647E-13-2.07902E-13
 -1       952 2.01188E+01-8.51658E-02 8.10798E-07-9.58123E-02 5.89876E-14-2.02105E-13
 -1       953 2.00364E+01-4.39295E-03 1.23312E-06-6.79258E-02 4.58415E-14-2.47376E-13
 -1       954 2.00535E+01-3.16751E-02 2.06165E-06-6.95403E-02-2.77590E-14-7.40046E-14
 -1       955 2.00012E+01 6.41620E-02-5.27887E-07-8.15339E-02-7.75570E-14-1.84074E-13
 -1       956 1.99796E+01 1.06947E-01-1.84270E-06-9.88125E-02 6.73412E-14-2.36731E-13
 -1       957 1.99528E+01 1.56641E-01-3.22359E-06-1.24647E-01-3.98997E-15-1.75770E-13
 -1       958 1.99182E+01 2.14051E-01-4.69129E-06-1.60405E-01-5.93732E-14-1.80789E-13
 -1       959 1.98733E+01 2.79566E-01-6.25456E-06-2.07600E-01 3.36817E-15-3.01674E-13
 -1       960 1.98149E+01 3.52777E-01-7.91458E-06-2.67878E-01-3.00333E-14-1.91308E-13
 -1       961 1.97401E+01 4.31970E-01-9.67055E-06-3.43003E-01 1.04510E-14-2.76073E-13
 -1       962 1.96458E+01 5.13450E-01-1.15341E-05-4.34881E-01-7.05064E-14-1.14273E-13
 -1       963 1.95295E+01 5.90654E-01-1.35410E-05-5.45700E-01-1.11521E-13-1.58829E-13
 -1       964 1.93902E+01 6.53007E-01-1.56684E-05-6.78285E-01-1.55742E-13-2.00493E-13
 -1       965 1.92290E+01 6.84474E-01-1.72504E-05-8.36831E-01-1.64754E-13-4.17993E-14
 -1       966 1.90518E+01 6.61679E-01-1.49074E-05-1.02821E+00 3.03630E-14 1.80547E-13
 -1       967 1.88728E+01 5.51262E-01 2.24146E-05-1.26374E+00-3.37748E-14 1.86176E-13
 -1       968 1.87207E+01 3.07389E-01 2.84166E-04-1.55991E+00-1.73180E-13 4.32971E-13
 -1       969 1.86439E+01-1.31271E-01-4.21192E-05-1.94426E+00-7.83776E-14 5.50867E-13
 -1       970 1.87673E+01-8.49885E-01 1.37669E-03-2.40842E+00-1.80426E-14 2.88741E-13
 -1       971 1.92653E+01-1.95326E+00 8.70130E-03-2.98049E+00-1.11129E-13 2.00714E-13
 -1       972 2.03585E+01 4.06587E-01 1.04560E-05 2.23357E-02 3.92805E-14-1.88938E-13
 -1       973 2.03796E+01 3.92383E-01-1.61470E-05-1.01559E-02-5.78788E-14-1.38731E-13
 -1       974 2.03602E+01 6.87456E-01 1.41865E-05 1.37193E-01 8.09786E-14-2.29389E-13
 -1       975 1.33735E+01 3.67129E-01 2.92809E-02-1.44068E+00 1.23617E-13-1.05332E-13
 -1       976 2.02938E+01 1.20517E+00 1.68674E-04 3.50654E-01 9.39077E-14-2.91578E-13
 -1       977 2.02739E+01 1.40731E+00-7.55726E-06-6.56057E-02-2.62739E-15-3.56529E-13
 -1       978 2.03789E+01 6.70501E-01 6.10222E-04-1.01822E-01-1.09529E-13-2.35109E-13
 -1       979 2.03590E+01 1.96207E-01-8.02327E-06 5.02424E-02-5.04302E-14-1.37330E-13
 -1       980 2.00722E+01-5.46139E-02 6.23373E-06-7.54367E-02 6.04379E-15-2.11698E-14
 -1       981 2.02198E+01-5.69941E-02 7.67529E-06-1.20991E-01 1.15766E-14-1.66783E-13
 -1       982 2.02603E+01-7.75913E-03 9.53195E-06-1.15663E-01 2.30369E-14-1.50325E-13
 -1       983 2.01482E+01-8.93651E-02 1.65365E-07-1.07284E-01 9.52311E-15-1.97433E-13
 -1       984 2.03667E+01 9.67511E-01-8.54796E-04-7.54912E-02-5.90556E-14-2.47365E-13
 -1       985 2.03359E+01 2.08371E-01-1.61886E-05-5.18080E-02 3.96157E-14-1.61301E-13
 -1       986 2.00937E+01-7.28828E-02 7.25272E-06-8.46659E-02 7.01324E-14-1.16552E-13
 -1       987 1.42715E+01 7.63430E-01 5.44879E-03 1.49571E-01-6.07111E-14-2.87797E-13
 -1       988 2.03691E+01 9.95930E-01 8.82270E-05 2.38650E-03 7.50741E-16-3.59588E-13
 -1       989 2.03665E+01 9.63412E-01-1.07504E-03 7.90552E-02-2.16514E-15-3.09512E-13
 -1       990 1.55404E+01-2.34455E-01 1.18945E-02-2.52365E+00 1.00126E-13-4.48281E-14
 -1       991 1.74244E+01-1.40367E+00 1.19208E-02-3.30060E+00-2.00597E-14-1.11644E-13
 -1       992 1.57070E+01 6.35815E-01 3.73539E-03 1.35678E+00-1.99555E-13-4.67232E-13
 -1       993 2.01820E+01-8.17150E-02 2.76497E-06-1.16741E-01 4.80373E-14-2.20071E-13
 -1       994 2.03084E+01-4.15064E-02-1.58574E-05 6.57116E-02-2.19947E-14-1.90779E-13
 -1       995 2.02626E+01-8.13722E-02 1.73899E-07 6.59924E-02-2.87109E-14-1.59774E-13
 -1       996 2.02188E+01-9.81328E-02 2.78599E-06 6.22964E-02 5.29045E-14-7.54211E-14
 -1       997 2.01788E+01-9.86474E-02-2.40738E-06 5.67262E-02 9.27960E-15-2.89974E-14
 -1       998 2.01430E+01-8.79113E-02 1.50669E-06 5.06722E-02-6.68608E-14-5.47847E-14
 -1       999 2.01113E+01-6.90038E-02 3.80901E-08 4.53999E-02-1.28019E-15-7.84117E-14
 -1      1000 2.00829E+01-4.38677E-02-2.20287E-06 4.17609E-02-5.61262E-14-1.06358E-13
 -1      1001 2.00564E+01-1.33266E-02-2.49687E-06 4.02957E-02-7.50046E-14-3.25859E-14
 -1      1002 2.00300E+01 2.26774E-02-7.56801E-06 4.16992E-02 7.38402E-14 1.52616E-14
 -1      1003 2.00017E+01 6.46660E-02-1.29384E-05 4.65024E-02 7.38315E-14-2.07865E-15
 -1      1004 1.99690E+01 1.13628E-01-1.97115E-05 5.52699E-02-3.38707E-14-1.10223E-13
 -1      1005 1.99289E+01 1.70768E-01-2.79049E-05 6.86131E-02 1.70827E-14-1.66450E-13
 -1      1006 1.98780E+01 2.37299E-01-3.76676E-05 8.71816E-02-1.55471E-13-1.51160E-13
 -1      1007 1.98123E+01 3.14197E-01-4.92212E-05 1.11647E-01-5.72459E-14-6.61142E-14
 -1      1008 1.97271E+01 4.01892E-01-6.28864E-05 1.42677E-01 9.51061E-14-8.35527E-14
 -1      1009 1.96172E+01 4.99880E-01-7.92047E-05 1.80907E-01 6.64496E-14-1.20703E-14
 -1      1010 1.94764E+01 6.06249E-01-9.92151E-05 2.26952E-01-4.88696E-14-1.62980E-13
 -1      1011 1.92976E+01 7.17119E-01-1.25007E-04 2.81507E-01-1.69122E-13-2.73184E-13
 -1      1012 1.90724E+01 8.26040E-01-1.60764E-04 3.45644E-01-7.54301E-14-1.77392E-13
 -1      1013 1.87910E+01 9.23397E-01-2.14778E-04 4.21500E-01 1.53482E-13-3.06144E-13
 -1      1014 1.84402E+01 9.95913E-01-3.05151E-04 5.13694E-01 5.74159E-14-1.54991E-13
 -1      1015 1.80019E+01 1.02597E+00-5.10727E-04 6.32244E-01-6.84807E-14-2.76368E-13
 -1      1016 1.74523E+01 9.89708E-01-6.51318E-04 7.96737E-01-8.13263E-14-7.27949E-13
 -1      1017 1.67077E+01 8.76450E-01 1.29546E-03 1.01888E+00-1.71218E-13-6.31042E-13
 -1      1018 1.99801E+01 9.78526E-02-1.11508E-05-6.62907E-02-7.08054E-15-3.55848E-13
 -1      1019 2.00336E+01 1.37137E-02-1.12409E-06-5.11579E-02-2.26683E-14-1.47440E-14
 -1      1020 2.00574E+01-1.96703E-02 5.34568E-06-5.02839E-02 8.01572E-14-8.17153E-14
 -1      1021 1.99457E+01 1.50451E-01-1.72317E-05-8.21521E-02-4.91385E-14-1.72628E-13
 -1      1022 1.99024E+01 2.11452E-01-2.39471E-05-1.04812E-01-3.82113E-14-2.14841E-13
 -1      1023 1.98468E+01 2.81630E-01-3.12823E-05-1.35397E-01 4.36158E-14-2.23077E-13
 -1      1024 1.97751E+01 3.61165E-01-3.92218E-05-1.75196E-01-1.02739E-13-2.03984E-13
 -1      1025 1.96832E+01 4.49223E-01-4.77825E-05-2.25695E-01-2.41604E-14-1.65648E-13
 -1      1026 1.95665E+01 5.43422E-01-5.71413E-05-2.88651E-01-2.77082E-14-3.09942E-14
 -1      1027 1.94202E+01 6.39165E-01-6.79520E-05-3.66282E-01-1.56229E-13-1.35301E-13
 -1      1028 1.92399E+01 7.28854E-01-8.20672E-05-4.61654E-01-2.34522E-13 1.35324E-13
 -1      1029 1.90209E+01 8.00986E-01-1.03916E-04-5.79434E-01-2.11000E-13-3.48032E-16
 -1      1030 1.87596E+01 8.39152E-01-1.41509E-04-7.27271E-01-1.37545E-13-1.34832E-13
 -1      1031 1.84529E+01 8.20858E-01-2.07980E-04-9.18343E-01-4.56685E-14 6.17541E-15
 -1      1032 1.80998E+01 7.14444E-01-4.27284E-04-1.17671E+00-1.92401E-13 6.98384E-14
 -1      1033 1.77107E+01 4.73081E-01 2.61740E-04-1.54330E+00-2.27976E-13 1.34416E-13
 -1      1034 1.72901E+01 6.14157E-02 1.72547E-03-2.06695E+00 9.40303E-14 1.22909E-13
 -1      1035 2.03005E+01 7.62009E-02 1.54871E-06-9.50112E-02 2.13961E-14-1.74825E-13
 -1      1036 2.04128E+01 3.28945E-01 4.66548E-05 9.74284E-03-5.76162E-14-2.41700E-13
 -1      1037 2.03986E+01 6.18423E-01 5.89463E-04 6.50262E-02 3.86081E-14-2.33637E-13
 -1      1038 2.03903E+01 1.49038E-01-5.71691E-05 4.13582E-02-3.60067E-14-2.22847E-13
 -1      1039 2.03528E+01 3.11449E-02-2.93024E-05 5.86529E-02-2.11014E-14-1.98700E-13
 -1      1040 2.04154E+01 5.98449E-01 4.71561E-04-3.56355E-02-4.30907E-14-2.08585E-13
 -1      1041 1.51410E+01 6.28128E-01 4.68534E-03-1.21700E+00-1.61918E-14-2.00699E-13
 -1      1042 2.04229E+01 6.27328E-01 9.51172E-05-4.66778E-03-2.77229E-14-2.75869E-13
 -1      1043 2.00086E+01 5.26206E-02-5.73989E-06-5.62445E-02-5.49005E-14-2.49697E-13
 -1      1044 2.02987E+01-3.15459E-02 6.55651E-06-8.28286E-02 4.33916E-14-1.48173E-13
 -1      1045 2.00821E+01-4.81712E-02-3.82729E-05-5.30475E-02 6.64235E-15-1.12567E-13
 -1      1046 2.02544E+01-7.44120E-02 3.17172E-05-8.41266E-02 4.27522E-14-1.88838E-13
 -1      1047 2.01731E+01-9.68204E-02-9.44326E-07-7.28404E-02 6.34046E-14-1.86276E-13
 -1      1048 2.04201E+01 6.14270E-01 9.04966E-05 2.62970E-02 1.16525E-14-2.84690E-13
 -1      1049 2.04010E+01 3.54157E-01 6.65054E-07-4.21559E-03 5.01791E-14-2.10554E-13
 -1      1050 2.01390E+01-8.79691E-02 2.97876E-05-6.50821E-02-3.21181E-14-1.75384E-13
 -1      1051 2.03102E+01-6.40501E-02 2.61603E-05 2.59238E-02 1.65765E-14-1.87979E-13
 -1      1052 2.02621E+01-9.39597E-02 2.12748E-05 2.54027E-02 4.95779E-14-9.78702E-14
 -1      1053 2.02176E+01-1.03736E-01-2.09907E-05 2.31712E-02 4.58314E-14-1.60956E-13
 -1      1054 2.01766E+01-9.80597E-02-1.42867E-05 2.10589E-02 1.68229E-15-1.75922E-13
 -1      1055 2.01394E+01-8.23301E-02 7.51518E-06 1.90852E-02-7.54423E-14-1.09544E-13
 -1      1056 2.01066E+01-5.95038E-02 1.83731E-05 1.71073E-02-2.22029E-14-1.25569E-13
 -1      1057 2.00762E+01-3.01287E-02 1.40542E-06 1.61268E-02-2.37799E-14-1.48317E-13
 -1      1058 2.00466E+01 5.00819E-03 1.55131E-05 1.63273E-02 4.05577E-14-1.04934E-13
 -1      1059 2.00158E+01 4.60761E-02 1.53824E-05 1.76527E-02 6.26685E-14-3.63201E-14
 -1      1060 1.99815E+01 9.39608E-02 1.71538E-05 2.03853E-02-5.11030E-14-7.15267E-14
 -1      1061 1.99405E+01 1.49792E-01 2.06748E-05 2.47337E-02-5.50710E-14-1.44093E-13
 -1      1062 1.98895E+01 2.14818E-01 2.59845E-05 3.08878E-02-6.18790E-14-1.47486E-13
 -1      1063 1.98244E+01 2.90162E-01 3.31697E-05 3.90086E-02-1.08733E-14-4.63733E-15
 -1      1064 1.97406E+01 3.76544E-01 4.23494E-05 4.92030E-02 2.81523E-14 5.47114E-14
 -1      1065 1.96327E+01 4.73926E-01 5.36922E-05 6.14886E-02-6.41550E-15-1.38218E-13
 -1      1066 1.94946E+01 5.81107E-01 6.74699E-05 7.57572E-02-9.02824E-14-2.40902E-13
 -1      1067 1.93191E+01 6.95258E-01 8.41364E-05 9.17544E-02-1.18356E-13-3.28342E-13
 -1      1068 1.90977E+01 8.11464E-01 1.04256E-04 1.09101E-01-2.85478E-14-2.81698E-13
 -1      1069 1.88197E+01 9.22351E-01 1.27309E-04 1.27397E-01-5.02559E-14-2.00362E-13
 -1      1070 1.84713E+01 1.01795E+00 1.45584E-04 1.46437E-01 7.87982E-14-4.25725E-13
 -1      1071 1.80320E+01 1.08601E+00 1.16113E-04 1.66482E-01-2.12487E-13-4.47160E-13
 -1      1072 1.74683E+01 1.11333E+00-2.21414E-04 1.88548E-01-3.07857E-13-4.39404E-13
 -1      1073 1.99525E+01 1.34408E-01-4.69152E-06-4.04333E-02-4.29849E-15-1.37714E-13
 -1      1074 2.03579E+01-4.98767E-03 8.17528E-05 2.44544E-02 3.34078E-15-2.60225E-13
 -1      1075 2.00222E+01 3.60700E-02-3.00723E-06-2.92439E-02 8.92382E-14-9.95952E-14
 -1      1076 1.98471E+01 2.67084E-01-1.39379E-05-6.57606E-02-4.93320E-14-1.79014E-13
 -1      1077 1.97713E+01 3.48582E-01-2.29263E-05-8.54544E-02-4.20260E-14-1.36671E-13
 -1      1078 1.96741E+01 4.40319E-01-3.56360E-05-1.11058E-01-7.26082E-14-9.47201E-14
 -1      1079 1.95499E+01 5.41018E-01-5.26213E-05-1.43784E-01-1.74027E-13-5.53136E-14
 -1      1080 1.93928E+01 6.47710E-01-7.43676E-05-1.85232E-01-8.98342E-14 8.37138E-14
 -1      1081 1.91960E+01 7.55173E-01-1.01612E-04-2.37649E-01-1.76527E-13-2.88456E-14
 -1      1082 1.89516E+01 8.55377E-01-1.37033E-04-3.04393E-01-8.46436E-14-2.14917E-13
 -1      1083 1.86502E+01 9.37018E-01-1.91034E-04-3.90744E-01-1.13969E-13-2.72950E-13
 -1      1084 1.82792E+01 9.85242E-01-2.93545E-04-5.05195E-01-4.34270E-14-1.37679E-13
 -1      1085 1.78203E+01 9.81939E-01-4.60730E-04-6.61212E-01-1.21067E-13 4.44523E-18
 -1      1086 1.72427E+01 9.07574E-01-8.67942E-04-8.81931E-01-1.94406E-13-3.51094E-14
 -1      1087 1.63778E+01 8.01884E-01-1.00293E-04-1.02979E+00-1.92883E-14-2.61260E-13
 -1      1088 2.02120E+01-9.42507E-02-5.05146E-05-8.01318E-02-4.94559E-15-1.81312E-13
 -1      1089 2.03417E+01 4.51522E-02-1.97062E-05-7.23374E-02-1.42673E-15-1.30907E-13
 -1      1090 2.04269E+01 2.49992E-01-2.38255E-05 9.80063E-03-3.26817E-14-2.12387E-13
 -1      1091 2.01090E+01-7.12199E-02-2.61371E-05-5.82925E-02-4.26580E-14-1.17076E-13
 -1      1092 1.56501E+01 9.63719E-01-7.54118E-04-1.47477E-01 1.94104E-14-2.04164E-13
 -1      1093 2.03780E+01 1.69107E-01 4.36016E-05-4.81822E-02 5.84123E-15-1.85211E-13
 -1      1094 2.03993E+01 9.52006E-02 9.59880E-05 1.96815E-02-2.96273E-14-2.80910E-13
 -1      1095 2.00514E+01-2.95628E-03 4.16708E-07-2.75950E-02-2.44516E-14-5.22960E-14
 -1      1096 2.04338E+01 4.15552E-01-4.90739E-05-5.66872E-04-5.20589E-14-2.07589E-13
 -1      1097 1.99061E+01 1.95912E-01-8.06218E-06-5.10154E-02-2.30187E-14-2.18805E-13
 -1      1098 1.99902E+01 8.15146E-02-3.23915E-06-3.33608E-02 8.25202E-15-1.14399E-13
 -1      1099 1.67285E+01 1.08117E+00 3.82762E-04 1.90373E-01 1.01062E-14-4.54063E-13
 -1      1100 2.00799E+01-3.62086E-02 2.59534E-05-2.79371E-02-5.45498E-15-1.37386E-13
 -1      1101 2.04302E+01 4.11432E-01-4.18449E-04 2.36109E-03 5.57163E-14-2.89164E-13
 -1      1102 2.02183E+01-1.01402E-01 3.35201E-07-4.12298E-02 4.50429E-14-2.02658E-13
 -1      1103 2.03583E+01 9.56507E-03-6.53618E-06-4.08745E-02 4.87822E-14-1.15149E-13
 -1      1104 2.03128E+01-5.57052E-02 6.29004E-07-4.47249E-02 7.34240E-14-1.13687E-13
 -1      1105 2.01795E+01-9.97070E-02-3.37978E-05-3.75006E-02 9.44107E-16-1.44363E-13
 -1      1106 2.02415E+01-1.01234E-01 1.96415E-04-1.49538E-02 2.71976E-14-1.77802E-13
 -1      1107 2.01244E+01-7.22395E-02 3.21036E-05-1.12705E-02-6.91797E-14-1.78109E-13
 -1      1108 2.03973E+01 1.15983E-01-5.13750E-04-3.03022E-02-4.23015E-14-1.57424E-13
 -1      1109 2.01519E+01-8.90417E-02-3.46190E-05-2.33549E-02-4.83471E-15-2.06152E-13
 -1      1110 2.02782E+01-8.70845E-02-1.07571E-04-3.03625E-02 2.92367E-14-1.20653E-13
 -1      1111 2.04210E+01 2.43969E-01 3.46796E-04-1.51698E-02-5.47795E-14-1.93706E-13
 -1      1112 2.04312E+01 2.88728E-01 4.93406E-04-3.65920E-03-5.66374E-14-2.22908E-13
 -1      1113 2.79641E+01 9.08690E+00 2.32535E+00-6.69826E+00-4.10783E-14 1.72787E-12
 -1      1114 2.05486E+01 6.22752E+00 2.09805E-01-3.90378E+00-2.62290E-14 3.75651E-13
 -1      1115 1.94350E+01 5.85311E+00 7.53216E-02-2.88757E+00-2.03587E-14-2.39139E-13
 -1      1116 1.90263E+01 5.72602E+00 6.04053E-02-2.23477E+00-1.34198E-14-5.36069E-13
 -1      1117 1.88396E+01 5.66915E+00 5.75402E-02-1.70120E+00-8.99975E-15-6.97623E-13
 -1      1118 1.87457E+01 5.64036E+00 5.54999E-02-1.23385E+00-6.01689E-15-7.71635E-13
 -1      1119 1.86964E+01 5.62504E+00 5.37258E-02-8.04163E-01-5.35813E-15-8.05606E-13
 -1      1120 1.86722E+01 5.61743E+00 5.25008E-02-3.92772E-01-1.49143E-15-8.15760E-13
 -1      1121 1.86654E+01 5.61524E+00 5.21099E-02 8.46734E-03-1.63823E-16-8.27198E-13
 -1      1122 1.86733E+01 5.61779E+00 5.26242E-02 4.10119E-01 1.27784E-15-8.30919E-13
 -1      1123 1.86986E+01 5.62579E+00 5.40152E-02 8.22882E-01 3.30638E-15-8.27668E-13
 -1      1124 1.87495E+01 5.64172E+00 5.62279E-02 1.25524E+00 5.22412E-15-7.97348E-13
 -1      1125 1.88450E+01 5.67104E+00 5.84457E-02 1.72699E+00 9.73006E-15-7.31094E-13
 -1      1126 1.90318E+01 5.72766E+00 6.04071E-02 2.26804E+00 1.38119E-14-6.00791E-13
 -1      1127 1.94318E+01 5.85031E+00 6.92390E-02 2.92822E+00 1.97065E-14-3.17558E-13
 -1      1128 2.04546E+01 6.18238E+00 1.53330E-01 3.87835E+00 2.40918E-14 2.66717E-13
 -1      1129 2.52185E+01 7.99472E+00 1.43047E+00 5.84636E+00 5.77316E-14 1.56253E-12
 -1      1130 2.88138E+01 3.61635E+00 1.27118E+00-4.21708E+00-1.81077E-13 2.59398E-12
 -1      1131 2.02292E+01-1.77773E-01-6.16370E-01-1.09848E-01-5.91957E-14 2.16710E-12
 -1      1132 1.88356E+01-9.63567E-02-2.36342E-01 6.25419E-02-1.99112E-14 1.53127E-12
 -1      1133 1.85020E+01-4.80635E-02-5.95856E-02 4.05152E-02-1.55245E-14 1.09644E-12
 -1      1134 1.84471E+01-2.46255E-02-1.52043E-02 2.68046E-02-1.53243E-14 7.76462E-13
 -1      1135 1.85293E+01-1.30497E-02-4.97199E-03 1.90862E-02-2.34144E-15 6.13339E-13
 -1      1136 1.86765E+01-6.60193E-03-1.46233E-03 1.41431E-02-5.42556E-15 3.98351E-13
 -1      1137 1.88493E+01-2.82699E-03 5.78681E-04 1.07146E-02-6.77328E-15 2.99021E-13
 -1      1138 1.90251E+01-5.86866E-04 1.90457E-03 8.17936E-03-2.71074E-15 1.43251E-13
 -1      1139 1.91911E+01 7.15511E-04 2.66031E-03 6.22648E-03-1.04467E-14-5.99382E-14
 -1      1140 1.93403E+01 1.42084E-03 2.97936E-03 4.69066E-03 9.57344E-15-2.40264E-13
 -1      1141 1.94698E+01 1.73844E-03 2.99471E-03 3.47335E-03 1.53557E-14-2.50662E-13
 -1      1142 1.95789E+01 1.80334E-03 2.81333E-03 2.50773E-03 2.31851E-15-3.24732E-13
 -1      1143 1.96687E+01 1.70448E-03 2.51143E-03 1.74393E-03-5.80842E-15-2.60944E-13
 -1      1144 1.97410E+01 1.49986E-03 2.13901E-03 1.14258E-03-2.28899E-14-2.95805E-13
 -1      1145 1.97984E+01 1.22538E-03 1.72534E-03 6.71989E-04-1.28591E-14-4.17703E-13
 -1      1146 1.98438E+01 9.00495E-04 1.28345E-03 3.07084E-04 1.12900E-14-3.41606E-13
 -1      1147 1.98802E+01 5.32054E-04 8.13426E-04 2.90442E-05-1.12372E-14-3.28260E-13
 -1      1148 1.99110E+01 1.17072E-04 3.04815E-04-1.74508E-04 3.27143E-14-5.28922E-13
 -1      1149 1.99398E+01-3.55158E-04-2.61546E-04-3.09011E-04-1.88833E-14-7.26689E-13
 -1      1150 1.99707E+01-9.01316E-04-9.12158E-04-3.72108E-04-1.29910E-14-7.08258E-13
 -1      1151 2.00083E+01-1.54235E-03-1.67959E-03-3.52396E-04 1.84236E-14-5.64617E-13
 -1      1152 2.00582E+01-2.30148E-03-2.60101E-03-2.27651E-04 1.64104E-14-3.97646E-13
 -1      1153 2.01269E+01-3.20123E-03-3.71578E-03 3.75640E-05-6.10439E-14-5.29811E-13
 -1      1154 2.02224E+01-4.25878E-03-5.06111E-03 4.94965E-04 1.90959E-14-5.69756E-13
 -1      1155 2.03542E+01-5.47802E-03-6.66376E-03 1.21615E-03 6.86013E-15-4.12586E-13
 -1      1156 2.05336E+01-6.83611E-03-8.52425E-03 2.29606E-03 4.26999E-14-5.05616E-13
 -1      1157 2.07736E+01-8.26095E-03-1.05875E-02 3.85450E-03 2.35278E-14-6.83691E-13
 -1      1158 2.10884E+01-9.59450E-03-1.26894E-02 6.03116E-03-1.37650E-14-5.56524E-13
 -1      1159 2.14922E+01-1.05358E-02-1.44651E-02 8.96436E-03-6.81573E-15-3.55851E-13
 -1      1160 2.19966E+01-1.05595E-02-1.51991E-02 1.27339E-02-3.89478E-15-4.66467E-13
 -1      1161 2.26057E+01-8.81604E-03-1.36137E-02 1.72334E-02-1.10989E-14-3.67463E-13
 -1      1162 2.33072E+01-4.05323E-03-7.64497E-03 2.19191E-02-1.65669E-14-4.70596E-13
 -1      1163 2.40584E+01 5.32641E-03 5.58607E-03 2.53891E-02-1.83617E-14-7.22578E-13
 -1      1164 2.47679E+01 2.08170E-02 2.91020E-02 2.48279E-02 4.37567E-14-6.61287E-13
 -1      1165 2.52747E+01 4.25746E-02 6.38448E-02 1.56515E-02 5.32777E-14-2.99014E-13
 -1      1166 2.53422E+01 6.70850E-02 1.04195E-01-7.69375E-03-2.08869E-14-2.66519E-13
 -1      1167 2.46947E+01 8.42691E-02 1.32811E-01-4.82232E-02 5.58061E-15 2.12191E-14
 -1      1168 2.31341E+01 7.75811E-02 1.21242E-01-9.94907E-02-4.97389E-14 1.92554E-13
 -1      1169 2.07357E+01 3.24946E-02 4.63306E-02-1.39693E-01 8.59989E-16 2.01381E-13
 -1      1170 1.80131E+01-4.46461E-02-7.84781E-02-1.37848E-01-6.98976E-14-3.00635E-13
 -1      1171 1.58295E+01-1.14415E-01-1.88684E-01-7.85014E-02-1.19696E-14-2.45928E-13
 -1      1172 1.49503E+01-1.28505E-01-2.09750E-01 1.45865E-02 5.18856E-15-7.51812E-14
 -1      1173 1.55229E+01-7.77093E-02-1.27972E-01 9.00336E-02-1.96579E-14 2.60930E-13
 -1      1174 1.69802E+01-2.87468E-03-6.15730E-03 1.11221E-01-3.41386E-14 2.08070E-13
 -1      1175 1.84774E+01 4.68508E-02 7.69077E-02 8.30371E-02 6.83203E-14 5.90208E-13
 -1      1176 1.94399E+01 5.29334E-02 8.80297E-02 3.80437E-02-5.83414E-14 6.92849E-13
 -1      1177 1.97979E+01 2.78384E-02 4.84257E-02 9.15348E-03 1.77454E-14 2.18152E-13
 -1      1178 1.98726E+01-1.03322E-03 1.75813E-02 1.28641E-02-2.17528E-14-6.72223E-14
 -1      1179 1.99569E+01 1.92228E-02 4.50990E-02 1.32700E-02 6.17703E-14-3.65268E-14
 -1      1180 2.77935E+01 5.25751E-01 3.76960E-01 1.96666E+00-3.21340E-14 2.65649E-12
 -1      1181 2.00869E+01-6.62496E-02-5.73635E-01 1.29453E-01 2.11324E-14 2.00157E-12
 -1      1182 1.89101E+01-4.06162E-02-1.93235E-01 1.94067E-02 2.02494E-14 1.37100E-12
 -1      1183 1.85308E+01-2.14322E-02-5.05739E-02 1.45318E-03 1.96705E-14 9.51100E-13
 -1      1184 1.84598E+01-1.24202E-02-1.34294E-02-4.08660E-03 3.78495E-15 6.94143E-13
 -1      1185 1.85356E+01-7.41319E-03-4.68352E-03-5.54741E-03 1.44667E-14 4.36665E-13
 -1      1186 1.86798E+01-4.33372E-03-1.95076E-03-5.74128E-03-2.97939E-16 2.96494E-13
 -1      1187 1.88509E+01-2.35653E-03-3.59171E-04-5.46743E-03-5.26583E-15 2.27339E-13
 -1      1188 1.90258E+01-1.07607E-03 7.68810E-04-4.97820E-03-2.56777E-15 1.04888E-13
 -1      1189 1.91912E+01-2.60513E-04 1.49234E-03-4.38709E-03 9.23052E-15 8.23994E-16
 -1      1190 1.93401E+01 2.37167E-04 1.87489E-03-3.76088E-03 1.86177E-14-1.60072E-13
 -1      1191 1.94695E+01 5.15140E-04 2.00426E-03-3.14173E-03 7.17497E-15-2.73800E-13
 -1      1192 1.95786E+01 6.40445E-04 1.95983E-03-2.55477E-03 1.94032E-14-3.75472E-13
 -1      1193 1.96683E+01 6.58717E-04 1.80118E-03-2.01282E-03 1.69195E-15-4.90889E-13
 -1      1194 1.97407E+01 6.00016E-04 1.56845E-03-1.51977E-03 9.75431E-15-5.92306E-13
 -1      1195 1.97983E+01 4.82500E-04 1.28550E-03-1.07318E-03 2.42753E-16-5.73103E-13
 -1      1196 1.98438E+01 3.14884E-04 9.62773E-04-6.66309E-04-1.18120E-14-5.61891E-13
 -1      1197 1.98804E+01 9.81672E-05 5.99541E-04-2.89846E-04-1.84264E-14-3.08701E-13
 -1      1198 1.99114E+01-1.73049E-04 1.85639E-04 6.65676E-05 3.71512E-14-4.82197E-13
 -1      1199 1.99405E+01-5.09451E-04-2.97192E-04 4.12859E-04-1.31484E-14-4.40907E-13
 -1      1200 1.99716E+01-9.25930E-04-8.74108E-04 7.56968E-04 5.16180E-15-3.41081E-13
 -1      1201 2.00096E+01-1.44020E-03-1.57586E-03 1.10298E-03-8.76808E-16-2.27021E-13
 -1      1202 2.00597E+01-2.07069E-03-2.43688E-03 1.44859E-03 8.02827E-15-4.51718E-13
 -1      1203 2.01283E+01-2.83310E-03-3.49191E-03 1.78163E-03-6.61239E-15-8.36203E-13
 -1      1204 2.02231E+01-3.73451E-03-4.77000E-03 2.07492E-03 1.63273E-14-7.52466E-13
 -1      1205 2.03530E+01-4.76348E-03-6.28347E-03 2.27895E-03-1.45665E-14-3.41265E-13
 -1      1206 2.05281E+01-5.87363E-03-8.00837E-03 2.31162E-03 6.42878E-15 1.73611E-14
 -1      1207 2.07596E+01-6.95750E-03-9.85042E-03 2.04449E-03 1.00370E-14 2.82209E-14
 -1      1208 2.10589E+01-7.80674E-03-1.15883E-02 1.28669E-03-5.38111E-15-5.00398E-14
 -1      1209 2.14359E+01-8.05693E-03-1.27844E-02-2.29021E-04-8.99790E-15-4.78211E-14
 -1      1210 2.18957E+01-7.12288E-03-1.26581E-02-2.84439E-03 5.66572E-14-1.41638E-13
 -1      1211 2.24340E+01-4.15213E-03-9.94038E-03-6.92716E-03 4.59125E-14-3.06574E-13
 -1      1212 2.30283E+01 1.92919E-03-2.79495E-03-1.27168E-02-4.79261E-14 1.18641E-13
 -1      1213 2.36268E+01 1.21271E-02 1.09721E-02-1.99766E-02-1.99531E-14 3.47247E-13
 -1      1214 2.41348E+01 2.66286E-02 3.29967E-02-2.73821E-02-4.26566E-14 2.33511E-14
 -1      1215 2.44049E+01 4.34574E-02 6.22569E-02-3.17601E-02 2.91976E-14-4.55781E-13
 -1      1216 2.42435E+01 5.69833E-02 9.19056E-02-2.78056E-02 8.40621E-14-7.63081E-13
 -1      1217 2.34549E+01 5.79344E-02 1.07141E-01-9.62976E-03-1.67843E-14-4.67952E-13
 -1      1218 2.19397E+01 3.77007E-02 8.89180E-02 2.45803E-02 3.95578E-14-1.50380E-13
 -1      1219 1.98291E+01-2.71906E-03 2.75399E-02 6.62097E-02 2.47653E-15-3.54716E-13
 -1      1220 1.75653E+01-4.66878E-02-6.05945E-02 9.51343E-02 2.23133E-14-5.70655E-14
 -1      1221 1.57961E+01-6.99226E-02-1.32482E-01 9.10214E-02-7.70200E-14 5.54001E-13
 -1      1222 1.50590E+01-6.02158E-02-1.46415E-01 5.09065E-02 3.92030E-14 1.94964E-13
 -1      1223 1.54546E+01-2.89022E-02-9.80005E-02-4.51027E-03 3.41741E-16-2.87444E-13
 -1      1224 1.65927E+01 1.02316E-03-2.39400E-02-4.57812E-02-4.46949E-14 2.02616E-14
 -1      1225 1.78739E+01 1.40912E-02 3.01493E-02-5.71612E-02 2.99899E-14-1.26343E-13
 -1      1226 1.88569E+01 1.01281E-02 4.32270E-02-4.43097E-02 4.31679E-14-5.28542E-13
 -1      1227 1.94386E+01 1.68554E-03 2.88802E-02-2.63693E-02 3.37024E-15-6.79304E-13
 -1      1228 1.97728E+01 7.96283E-03 2.53093E-02-2.25276E-02 9.95951E-14-6.97845E-13
 -1      1229 1.99716E+01 1.30146E-02 4.13456E-02-9.12648E-03-5.75169E-15-4.43925E-13
 -1      1230 2.00061E+01-3.42401E-02 2.83667E-02-1.41016E-02-4.18150E-13-6.32583E-14
 -1      1231 1.99798E+01-2.50325E-01-2.45600E-02-3.67982E-02-4.42979E-13-8.31249E-14
 -1      1232 1.99366E+01-3.26594E-01-9.64743E-02-2.46558E-02 7.04617E-13 1.45348E-13
 -1      1233 1.99006E+01 2.37183E-01-1.57646E-01 1.76904E-02 7.13925E-13 5.57835E-14
 -1      1234 1.98925E+01 1.84637E+00-1.74620E-01 8.32575E-02 5.41983E-13-1.09811E-13
 -1      1235 1.99293E+01 4.59357E+00-1.13642E-01 1.52020E-01 8.62033E-13 4.34808E-15
 -1      1236 2.00262E+01 8.09540E+00 3.61980E-02 1.86475E-01 1.31445E-12 1.89493E-14
 -1      1237 2.01481E+01 1.13867E+01 2.24800E-01 1.48887E-01 1.67952E-12-3.96280E-14
 -1      1238 2.02244E+01 1.31673E+01 3.41069E-01 3.74497E-02 1.29749E-12 3.68854E-14
 -1      1239 2.01995E+01 1.26503E+01 3.03596E-01-9.36729E-02 1.38767E-12 1.64209E-14
 -1      1240 2.00927E+01 1.00919E+01 1.40173E-01-1.74081E-01-8.76244E-13-3.17684E-13
 -1      1241 1.99789E+01 6.62431E+00-4.03497E-02-1.74780E-01-2.11273E-12-3.78434E-14
 -1      1242 1.99078E+01 3.43080E+00-1.50101E-01-1.20047E-01-1.84780E-12 1.01915E-15
 -1      1243 1.98949E+01 1.21330E+00-1.69238E-01-4.91994E-02-1.54866E-12-7.76809E-15
 -1      1244 1.99285E+01 1.03040E-01-1.27201E-01-3.62232E-03-5.76817E-13 4.92514E-14
 -1      1245 1.99362E+01-1.28447E-01-5.55878E-02 4.27660E-02-3.12358E-13 1.12670E-15
 -1      1246 2.00105E+01-4.99553E-02 2.70313E-02 1.99950E-02 3.62106E-14 9.08093E-14
 -1      1247-1.27777E+00-2.92575E+01-4.54041E+00-2.49262E+00 9.70890E-14 4.22648E-14
 -1      1248-2.06463E+00-1.88812E+01-3.62522E+00-4.84914E+00-8.95950E-13-4.10894E-13
 -1      1249 1.79311E-01-3.49777E+00-2.06724E+00-4.41084E-01-1.76459E-12-1.18727E-12
 -1      1250 9.94748E+00 8.67425E+00-1.04593E-01 9.12800E+00-1.04428E-12-7.01883E-13
 -1      1251 2.79625E+01 1.26878E+01 1.78279E+00 1.78909E+01-1.21680E-13-1.49436E-13
 -1      1252 4.97521E+01 9.39911E+00 3.33666E+00 1.99385E+01-1.47882E-13-3.51941E-13
 -1      1253 6.72077E+01 3.72850E+00 4.36047E+00 1.20054E+01-1.33712E-13-6.75460E-13
 -1      1254 7.09053E+01 2.17725E+00 4.48473E+00-2.32184E+00 1.26968E-13-1.55870E-12
 -1      1255 6.04258E+01 5.17300E+00 3.86749E+00-1.44741E+01 4.85251E-13-1.98797E-12
 -1      1256 4.02307E+01 9.82916E+00 2.44449E+00-1.85054E+01 9.05387E-13-1.73772E-12
 -1      1257 1.94782E+01 1.05345E+01 7.35619E-01-1.38814E+01 1.26676E-12-1.44129E-12
 -1      1258 5.02971E+00 4.08653E+00-9.46206E-01-4.77915E+00 1.55320E-12-1.27409E-12
 -1      1259-1.29930E+00-8.20237E+00-2.42594E+00 2.78275E+00 1.22702E-12-6.84008E-13
 -1      1260-1.88823E+00-2.09055E+01-3.48037E+00 4.59132E+00 1.01330E-12-1.90487E-13
 -1      1261-1.06655E+00-2.77100E+01-3.96630E+00 1.06151E+00 9.84657E-13 5.24442E-14
 -1      1262-1.54078E+00-2.45715E+01-3.74313E+00-3.71337E+00-1.70308E-13-2.19269E-13
 -1      1263-2.01037E+00-1.31049E+01-2.90345E+00-4.34671E+00-7.10987E-13-3.45668E-13
 -1      1264 1.95505E+00 3.28609E-01-1.51337E+00 1.68227E+00-9.82991E-13-8.04912E-13
 -1      1265 1.34750E+01 9.01577E+00 8.70061E-02 1.08161E+01-1.07780E-12-1.12399E-12
 -1      1266 3.13816E+01 1.07200E+01 1.73662E+00 1.74736E+01-7.53508E-13-1.20082E-12
 -1      1267 5.12661E+01 7.37495E+00 3.16767E+00 1.75665E+01-5.56444E-13-1.76836E-12
 -1      1268 6.69720E+01 3.07284E+00 4.23759E+00 9.90701E+00-2.37185E-13-1.60616E-12
 -1      1269 7.19348E+01 1.90247E+00 4.59513E+00-3.15537E+00-2.47163E-14-1.22766E-12
 -1      1270 6.36397E+01 5.31018E+00 4.21566E+00-1.53572E+01 3.44225E-13-1.39422E-12
 -1      1271 4.51326E+01 1.07061E+01 3.08716E+00-2.03860E+01 4.67293E-13-8.14682E-13
 -1      1272 2.43373E+01 1.27278E+01 1.49995E+00-1.68003E+01 7.61391E-13-1.04650E-12
 -1      1273 8.05344E+00 7.50669E+00-3.81997E-01-7.71995E+00 5.74651E-13-7.20979E-13
 -1      1274-3.39020E-01-4.63540E+00-2.23120E+00 1.10672E+00 6.28386E-13-1.99618E-13
 -1      1275-2.18657E+00-1.89345E+01-3.70746E+00 4.83559E+00 5.42011E-13-2.64178E-13
 -1      1276-1.45111E+00-2.88334E+01-4.50679E+00 2.62194E+00 4.10783E-15 2.83454E-14
 -1      1277 2.22679E+01 1.83825E+00-7.25892E-01-2.79054E+00-6.52534E-14 1.45028E-12
 -1      1278 2.03604E+01 4.69030E+00-4.86399E-02-3.30681E+00-2.04670E-13 9.05179E-14
 -1      1279 2.08679E+01 4.81080E+00-1.13357E-01-4.16108E+00-2.56323E-13 4.09173E-13
 -1      1280 1.95320E+01 4.99327E+00-1.96959E-02-2.65414E+00-2.12892E-13-3.63837E-13
 -1      1281 1.98306E+01 5.09024E+00 2.60168E-04-3.04526E+00-2.37949E-13-1.63349E-13
 -1      1282 2.05270E+01 3.95277E+00-2.58957E-02-3.07480E+00-3.66217E-13 7.96585E-14
 -1      1283 1.91842E+01 5.08443E+00-3.55293E-03-2.07047E+00-1.76498E-13-6.04759E-13
 -1      1284 1.93330E+01 5.13968E+00 1.05590E-02-2.36329E+00-2.02487E-13-4.95874E-13
 -1      1285 1.97537E+01 4.36590E+00-2.45174E-02-2.48902E+00-3.32090E-13-2.92474E-13
 -1      1286 1.90091E+01 5.13079E+00 3.27230E-03-1.56433E+00-1.40964E-13-7.28601E-13
 -1      1287 1.90869E+01 5.16041E+00 1.25477E-02-1.81436E+00-1.55601E-13-6.71702E-13
 -1      1288 1.93917E+01 4.55488E+00-2.00467E-02-1.93170E+00-2.74376E-13-5.00600E-13
 -1      1289 1.89150E+01 5.16066E+00 6.50960E-03-1.11678E+00-1.02163E-13-7.88439E-13
 -1      1290 1.89576E+01 5.17702E+00 1.26738E-02-1.33818E+00-1.18937E-13-7.58994E-13
 -1      1291 1.92056E+01 4.66156E+00-1.61255E-02-1.44423E+00-2.14409E-13-6.04405E-13
 -1      1292 1.88634E+01 5.18037E+00 8.17697E-03-6.93699E-01-7.02333E-14-8.14356E-13
 -1      1293 1.88864E+01 5.18922E+00 1.19556E-02-9.03864E-01-8.11729E-14-8.04608E-13
 -1      1294 1.91022E+01 4.72688E+00-1.40399E-02-1.00411E+00-1.52795E-13-6.65169E-13
 -1      1295 1.88394E+01 5.19224E+00 9.27937E-03-2.89117E-01-3.00950E-14-8.23919E-13
 -1      1296 1.88493E+01 5.19608E+00 1.10535E-02-4.91178E-01-4.60799E-14-8.14921E-13
 -1      1297 1.90464E+01 4.76571E+00-1.29359E-02-5.88705E-01-9.42805E-14-6.78728E-13
 -1      1298 1.88357E+01 5.19718E+00 1.02130E-02 1.08178E-01 4.67508E-15-8.38947E-13
 -1      1299 1.88354E+01 5.19704E+00 1.01407E-02-9.14356E-02-3.82225E-15-8.33750E-13
 -1      1300 1.90222E+01 4.78370E+00-1.24805E-02-1.89076E-01-2.49606E-14-6.94795E-13
 -1      1301 1.88511E+01 5.19572E+00 1.11526E-02 5.08507E-01 3.67328E-14-8.42593E-13
 -1      1302 1.88404E+01 5.19160E+00 9.21742E-03 3.06024E-01 2.47225E-14-8.42427E-13
 -1      1303 1.90230E+01 4.78307E+00-1.24961E-02 2.05725E-01 2.43960E-14-7.12028E-13
 -1      1304 1.88898E+01 5.18807E+00 1.20885E-02 9.22682E-01 6.58076E-14-8.32112E-13
 -1      1305 1.88660E+01 5.17902E+00 8.12539E-03 7.11550E-01 5.63070E-14-8.38205E-13
 -1      1306 1.90490E+01 4.76365E+00-1.29812E-02 6.06030E-01 7.85088E-14-7.07167E-13
 -1      1307 1.89619E+01 5.17513E+00 1.28970E-02 1.35583E+00 1.03752E-13-7.94182E-13
 -1      1308 1.89185E+01 5.15835E+00 6.44003E-03 1.13297E+00 8.99567E-14-8.16633E-13
 -1      1309 1.91066E+01 4.72324E+00-1.40036E-02 1.01927E+00 1.28220E-13-6.95135E-13
 -1      1310 1.90949E+01 5.15672E+00 1.28281E-02 1.84046E+00 1.50834E-13-7.20753E-13
 -1      1311 1.90152E+01 5.12633E+00 3.13564E-03 1.58767E+00 1.33691E-13-7.66040E-13
 -1      1312 1.92124E+01 4.65489E+00-1.61480E-02 1.46233E+00 2.01214E-13-6.45449E-13
 -1      1313 1.93439E+01 5.13353E+00 1.01772E-02 2.39755E+00 2.04465E-13-5.68941E-13
 -1      1314 1.91936E+01 5.07637E+00-4.38349E-03 2.10027E+00 1.79176E-13-6.62158E-13
 -1      1315 1.94053E+01 4.54248E+00-1.99845E-02 1.95799E+00 2.68180E-13-5.59313E-13
 -1      1316 1.98558E+01 5.09951E+00 6.06360E-03 3.08370E+00 2.42695E-13-2.62748E-13
 -1      1317 1.95437E+01 4.98448E+00-2.05455E-02 2.69629E+00 2.14453E-13-4.53134E-13
 -1      1318 1.97750E+01 4.34647E+00-2.45590E-02 2.52786E+00 3.44844E-13-3.75498E-13
 -1      1319 2.11039E+01 4.90707E+00 8.32721E-03 4.05384E+00 2.29372E-13 3.79793E-13
 -1      1320 2.03348E+01 4.73392E+00-4.79649E-02 3.41613E+00 2.15536E-13-1.18447E-14
 -1      1321 2.05651E+01 3.91597E+00-2.24059E-02 3.17824E+00 3.73625E-13-1.69725E-14
 -1      1322 2.72036E+01 3.20543E+00 9.29027E-01 4.58226E+00 1.22471E-13 1.66017E-12
 -1      1323 2.20208E+01 3.52224E+00-1.81996E-01 3.88493E+00 1.21819E-13 7.58754E-13
 -1      1324 2.21131E+01 2.56180E+00-3.25406E-02 3.45648E+00 3.80989E-13 5.66880E-13
 -1      1325 2.14277E+01 3.59572E-01-7.63535E-01 1.18378E+00 2.08430E-13 1.56875E-12
 -1      1326 2.20021E+01 1.31410E-01-4.00896E-01-1.28558E+00-2.05919E-13 1.51312E-12
 -1      1327 2.06796E+01 3.06701E-01-1.64840E-01-8.05633E-01-1.94754E-13 1.26923E-12
 -1      1328 2.00820E+01 1.53473E-01-7.35239E-02-4.02037E-01-1.56781E-13 1.15255E-12
 -1      1329 1.96123E+01 9.11677E-02-1.49268E-02-3.29890E-01-1.51792E-13 9.26606E-13
 -1      1330 2.09734E+01 3.69031E-01-1.04292E-01-1.27366E+00-3.43232E-13 7.00093E-13
 -1      1331 1.92550E+01 6.45019E-02 3.03941E-03-1.35294E-01-1.28700E-13 8.30988E-13
 -1      1332 1.91007E+01 4.12722E-02 1.32217E-02-1.17494E-01-1.11681E-13 6.67584E-13
 -1      1333 1.99228E+01 1.33896E-01-3.51423E-02-5.03848E-01-2.74142E-13 5.28475E-13
 -1      1334 1.89404E+01 3.15432E-02 1.32411E-02-2.79551E-02-9.31382E-14 5.77316E-13
 -1      1335 1.89210E+01 1.93967E-02 1.10572E-02-1.85654E-02-8.80862E-14 4.38802E-13
 -1      1336 1.94456E+01 5.54645E-02-8.51723E-03-1.69901E-01-2.08774E-13 3.55251E-13
 -1      1337 1.88650E+01 1.60132E-02 8.77776E-03 2.50892E-02-5.68076E-14 3.88830E-13
 -1      1338 1.89075E+01 9.06895E-03 6.43875E-03 2.97171E-02-5.52546E-14 3.22959E-13
 -1      1339 1.92368E+01 2.44274E-02-3.49578E-03-1.10231E-02-1.41675E-13 1.98791E-13
 -1      1340 1.89075E+01 7.84757E-03 4.67312E-03 5.08625E-02-5.28682E-14 2.69344E-13
 -1      1341 1.89779E+01 3.49113E-03 3.64194E-03 5.27475E-02-5.05508E-14 1.96093E-13
 -1      1342 1.91800E+01 1.01860E-02-2.21012E-03 6.76399E-02-1.17653E-13 1.34156E-13
 -1      1343 1.90074E+01 3.17640E-03 2.44170E-03 6.15169E-02-3.09884E-14 1.77795E-13
 -1      1344 1.90879E+01 3.15521E-04 2.20974E-03 6.17783E-02-3.39865E-14 1.28110E-13
 -1      1345 1.92062E+01 2.75923E-03-1.31789E-03 1.04416E-01-7.64387E-14 8.62834E-14
 -1      1346 1.91314E+01 4.26952E-04 1.33112E-03 6.34266E-02-4.55368E-14 1.22380E-13
 -1      1347 1.92122E+01-1.48501E-03 1.43798E-03 6.27348E-02-5.71030E-14 3.15950E-14
 -1      1348 1.92751E+01-1.32794E-03-5.53109E-04 1.17611E-01-9.24792E-14 5.16791E-14
 -1      1349 1.92606E+01-1.16431E-03 7.46659E-04 6.02998E-02-6.86292E-14-5.09228E-15
 -1      1350 1.93361E+01-2.43509E-03 9.69682E-04 5.90859E-02-7.41474E-14-8.86661E-14
 -1      1351 1.93632E+01-3.54079E-03 7.63883E-06 1.17176E-01-1.15144E-13-2.50264E-14
 -1      1352 1.93840E+01-2.01929E-03 4.10947E-04 5.44504E-02-4.03833E-14-1.08427E-13
 -1      1353 1.94514E+01-2.84103E-03 6.58865E-04 5.29983E-02 4.47637E-15-1.47437E-13
 -1      1354 1.94561E+01-4.61109E-03 3.61827E-04 1.09050E-01-9.22171E-14-4.64597E-14
 -1      1355 1.94958E+01-2.39590E-03 2.07953E-04 4.73684E-02 2.19708E-14-2.24672E-13
 -1      1356 1.95538E+01-2.89785E-03 4.44564E-04 4.58640E-02-1.74292E-14-2.30673E-13
 -1      1357 1.95455E+01-4.95973E-03 5.53358E-04 9.69780E-02-2.48204E-14-1.25777E-13
 -1      1358 1.95933E+01-2.46140E-03 8.53662E-05 4.00177E-02-3.93204E-14-2.27487E-13
 -1      1359 1.96419E+01-2.73409E-03 2.96698E-04 3.85801E-02-9.83217E-15-2.45305E-13
 -1      1360 1.96269E+01-4.85246E-03 6.29978E-04 8.33723E-02-3.83467E-14-1.99977E-13
 -1      1361 1.96758E+01-2.32676E-03 1.55016E-05 3.30146E-02 2.59830E-14-2.43422E-13
 -1      1362 1.97156E+01-2.43445E-03 1.97397E-04 3.17178E-02 8.40585E-15-2.08776E-13
 -1      1363 1.96981E+01-4.46322E-03 6.29297E-04 6.97879E-02 3.41947E-15-1.62449E-13
 -1      1364 1.97441E+01-2.06487E-03-1.84679E-05 2.67466E-02-3.29625E-14-1.85352E-13
 -1      1365 1.97762E+01-2.05281E-03 1.34815E-04 2.56352E-02-6.91677E-14-2.62679E-13
 -1      1366 1.97589E+01-3.90511E-03 5.77785E-04 5.72160E-02-2.51227E-14-1.69064E-13
 -1      1367 1.97998E+01-1.72125E-03-2.75726E-05 2.14552E-02-5.77853E-14-2.24511E-13
 -1      1368 1.98254E+01-1.62023E-03 1.00763E-04 2.05564E-02-1.71806E-14-2.66236E-13
 -1      1369 1.98097E+01-3.24786E-03 4.92857E-04 4.62827E-02-4.40768E-14-1.31519E-13
 -1      1370 1.98451E+01-1.32077E-03-1.93033E-05 1.72987E-02 5.51040E-15-2.60664E-13
 -1      1371 1.98656E+01-1.15039E-03 8.95420E-05 1.66314E-02 5.93050E-15-2.30905E-13
 -1      1372 1.98520E+01-2.52867E-03 3.84964E-04 3.73915E-02-6.46792E-15-1.32493E-13
 -1      1373 1.98823E+01-8.72242E-04 1.13046E-06 1.43994E-02-1.08524E-14-2.23272E-13
 -1      1374 1.98993E+01-6.43460E-04 9.72354E-05 1.39814E-02-1.42838E-14-2.72386E-13
 -1      1375 1.98877E+01-1.75951E-03 2.59213E-04 3.08312E-02 1.55112E-14-1.49380E-13
 -1      1376 1.99144E+01-3.71722E-04 2.99665E-05 1.28808E-02-5.73859E-14-3.26051E-13
 -1      1377 1.99297E+01-8.89360E-05 1.21209E-04 1.27347E-02-5.69127E-14-4.10409E-13
 -1      1378 1.99189E+01-9.32199E-04 1.16552E-04 2.68581E-02-9.23625E-14-2.23760E-13
 -1      1379 1.99445E+01 1.95130E-04 6.42525E-05 1.28977E-02-4.28692E-14-4.83722E-13
 -1      1380 1.99599E+01 5.32190E-04 1.59689E-04 1.30558E-02-7.50581E-14-5.63707E-13
 -1      1381 1.99484E+01-2.22148E-05-4.53366E-05 2.57618E-02-1.24496E-13-3.45086E-13
 -1      1382 1.99762E+01 8.51164E-04 1.01285E-04 1.46602E-02-3.31154E-14-5.50581E-13
 -1      1383 1.99938E+01 1.24556E-03 2.11332E-04 1.51680E-02-2.38729E-14-5.69036E-13
 -1      1384 1.99790E+01 1.00855E-03-2.31321E-04 2.79170E-02-6.38823E-14-3.40057E-13
 -1      1385 2.00135E+01 1.62610E-03 1.38031E-04 1.84522E-02 2.91808E-14-5.24246E-13
 -1      1386 2.00359E+01 2.08160E-03 2.74708E-04 1.93722E-02 5.63379E-14-4.68483E-13
 -1      1387 2.00144E+01 2.20940E-03-4.48198E-04 3.38247E-02 2.93869E-14-3.84541E-13
 -1      1388 2.00611E+01 2.55469E-03 1.70464E-04 2.46459E-02 8.78829E-14-4.78424E-13
 -1      1389 2.00913E+01 3.07312E-03 3.47594E-04 2.60592E-02 4.64076E-15-4.71519E-13
 -1      1390 2.00585E+01 3.63830E-03-7.04065E-04 4.41431E-02 3.36814E-14-3.92955E-13
 -1      1391 2.01247E+01 3.67410E-03 1.92716E-04 3.37082E-02-7.23900E-15-4.15255E-13
 -1      1392 2.01663E+01 4.25163E-03 4.25956E-04 3.57161E-02 1.54070E-14-4.13935E-13
 -1      1393 2.01160E+01 5.35831E-03-1.00755E-03 5.97061E-02 5.85676E-14-3.26938E-13
 -1      1394 2.02110E+01 5.01941E-03 1.95991E-04 4.61969E-02 3.76754E-14-3.23815E-13
 -1      1395 2.02683E+01 5.64102E-03 5.02478E-04 4.89190E-02 4.22867E-14-2.73641E-13
 -1      1396 2.01926E+01 7.43135E-03-1.36670E-03 8.15224E-02 4.82447E-14-8.12195E-14
 -1      1397 2.03279E+01 6.61566E-03 1.67187E-04 6.27377E-02-2.78979E-14-2.84500E-13
 -1      1398 2.04059E+01 7.24653E-03 5.64480E-04 6.63061E-02-2.61546E-14-3.01104E-13
 -1      1399 2.02948E+01 9.90674E-03-1.78724E-03 1.10744E-01-1.60983E-14-1.22744E-13
 -1      1400 2.04845E+01 8.46338E-03 8.73304E-05 8.39666E-02-1.88421E-14-3.29708E-13
 -1      1401 2.05891E+01 9.03520E-03 5.91252E-04 8.85128E-02 1.54200E-14-3.71555E-13
 -1      1402 2.04301E+01 1.27997E-02-2.26963E-03 1.48579E-01-5.30830E-14-1.53114E-13
 -1      1403 2.06912E+01 1.05127E-02-6.96663E-05 1.10414E-01-1.87075E-14-4.51677E-13
 -1      1404 2.08290E+01 1.09023E-02 5.51290E-04 1.16040E-01-6.15536E-14-4.92687E-13
 -1      1405 2.06068E+01 1.60521E-02-2.80418E-03 1.96110E-01-7.90446E-14-2.91681E-13
 -1      1406 2.09590E+01 1.26186E-02-3.36416E-04 1.42282E-01 8.45869E-14-4.79794E-13
 -1      1407 2.11367E+01 1.26149E-02 4.01256E-04 1.49009E-01 7.37529E-14-3.89706E-13
 -1      1408 2.08338E+01 1.94623E-02-3.36261E-03 2.53945E-01 3.83682E-14-3.49234E-13
 -1      1409 2.12989E+01 1.44650E-02-7.46056E-04 1.79057E-01-2.62815E-14-3.33518E-13
 -1      1410 2.15223E+01 1.37223E-02 9.11848E-05 1.86723E-01-9.06718E-15-3.41109E-13
 -1      1411 2.11196E+01 2.25651E-02-3.88364E-03 3.21593E-01 4.88875E-14-2.61540E-13
 -1      1412 2.17192E+01 1.54466E-02-1.31352E-03 2.18836E-01-2.52715E-14-2.56302E-13
 -1      1413 2.19915E+01 1.34249E-02-4.14981E-04 2.26938E-01-7.91056E-15-2.80120E-13
 -1      1414 2.14709E+01 2.44384E-02-4.24884E-03 3.96398E-01 9.09277E-15-2.61387E-13
 -1      1415 2.22225E+01 1.44999E-02-1.99210E-03 2.57281E-01-1.00614E-15-2.67449E-13
 -1      1416 2.25408E+01 1.04120E-02-1.08971E-03 2.64696E-01-4.01137E-14-2.57804E-13
 -1      1417 2.18899E+01 2.34217E-02-4.24425E-03 4.71833E-01-2.81903E-14-1.59588E-13
 -1      1418 2.27992E+01 9.91206E-03-2.59214E-03 2.86095E-01-3.13267E-14-2.98480E-13
 -1      1419 2.31492E+01 2.73992E-03-1.75206E-03 2.90696E-01-3.44685E-14-4.03360E-13
 -1      1420 2.23703E+01 1.67842E-02-3.50666E-03 5.34977E-01-1.14790E-13-1.46751E-13
 -1      1421 2.34187E+01-7.65519E-04-2.66690E-03 2.91222E-01-1.13071E-13-3.72646E-13
 -1      1422 2.37668E+01-1.20394E-02-1.95555E-03 2.89429E-01-4.45756E-14-4.89010E-13
 -1      1423 2.28911E+01 5.35000E-04-1.46987E-03 5.63347E-01-1.03040E-13-2.62942E-13
 -1      1424 2.40171E+01-2.03642E-02-1.43309E-03 2.51618E-01 6.83151E-14-4.28478E-13
 -1      1425 2.43022E+01-3.60410E-02-9.45327E-04 2.38161E-01 1.63561E-13-3.54159E-13
 -1      1426 2.34086E+01-3.00837E-02 2.62780E-03 5.22164E-01 5.05576E-14-1.83407E-13
 -1      1427 2.44850E+01-5.06411E-02 2.08929E-03 1.40857E-01 8.94961E-14-3.26903E-13
 -1      1428 2.46130E+01-6.87980E-02 2.09019E-03 1.09473E-01 2.03552E-14-2.47600E-13
 -1      1429 2.38485E+01-7.83631E-02 9.52806E-03 3.65225E-01 1.70810E-13-1.21959E-13
 -1      1430 2.46624E+01-8.88854E-02 8.37044E-03-6.42446E-02 1.89085E-14-2.77712E-13
 -1      1431 2.45147E+01-1.03201E-01 7.14904E-03-1.17854E-01 3.63841E-14-2.23042E-13
 -1      1432 2.41008E+01-1.40770E-01 1.92891E-02 4.57130E-02 6.87835E-14-2.97966E-13
 -1      1433 2.43577E+01-1.22807E-01 1.58812E-02-3.63265E-01 1.42532E-13-1.88207E-13
 -1      1434 2.38278E+01-1.21407E-01 1.20936E-02-4.35112E-01 5.73621E-14-1.29965E-14
 -1      1435 2.40282E+01-1.98638E-01 2.99295E-02-4.54545E-01 1.77563E-13-1.24391E-13
 -1      1436 2.34129E+01-1.27720E-01 1.99391E-02-7.02132E-01-9.02663E-14 2.42500E-13
 -1      1437 2.24771E+01-9.71943E-02 1.19724E-02-7.72054E-01-2.01505E-14 1.22506E-13
 -1      1438 2.35017E+01-2.13551E-01 3.58215E-02-1.07541E+00 3.67033E-14-7.77538E-14
 -1      1439 2.18217E+01-7.62868E-02 1.39135E-02-9.55255E-01-2.63591E-15 3.00177E-14
 -1      1440 2.06198E+01-1.40724E-02 1.72924E-03-9.86731E-01-7.52167E-14-8.65974E-15
 -1      1441 2.24749E+01-1.40594E-01 2.82799E-02-1.63310E+00-6.45577E-14 4.63518E-15
 -1      1442 1.98561E+01 3.33799E-02-4.16583E-03-9.63745E-01-9.05144E-14-1.57097E-14
 -1      1443 1.87064E+01 1.05353E-01-1.70827E-02-9.23582E-01-1.00141E-13-1.14464E-13
 -1      1444 2.10829E+01 2.90764E-02 1.39411E-03-1.84590E+00-9.64387E-14 8.11504E-14
 -1      1445 1.80682E+01 1.51439E-01-2.49142E-02-6.49596E-01-5.83613E-14-1.10960E-13
 -1      1446 1.73453E+01 1.92600E-01-3.24018E-02-5.42703E-01-5.05238E-14-1.40239E-13
 -1      1447 1.96889E+01 2.27989E-01-3.61154E-02-1.49375E+00-1.30295E-13 1.09236E-13
 -1      1448 1.70487E+01 2.00181E-01-3.26277E-02-1.25476E-01 1.38931E-13-3.59417E-14
 -1      1449 1.69628E+01 1.84170E-01-3.05857E-02-5.66376E-03 1.74799E-13 1.30299E-13
 -1      1450 1.87581E+01 3.38826E-01-5.88004E-02-6.43626E-01 1.20421E-13 9.14208E-14
 -1      1451 1.70530E+01 1.45967E-01-2.12618E-02 3.46425E-01-2.75648E-15 3.12271E-13
 -1      1452 1.75089E+01 8.70604E-02-1.18635E-02 4.15768E-01 6.25906E-14 4.17555E-13
 -1      1453 1.85655E+01 2.87652E-01-4.81366E-02 3.05398E-01 2.53686E-13 4.10099E-13
 -1      1454 1.78299E+01 3.47702E-02-1.36644E-03 5.49403E-01 1.22086E-14 3.12361E-13
 -1      1455 1.85052E+01-2.58043E-02 9.29614E-03 5.46215E-01 8.34492E-14 3.60344E-13
 -1      1456 1.89921E+01 1.15320E-01-1.40525E-02 8.92757E-01 1.34491E-13 4.09436E-13
 -1      1457 1.88300E+01-5.53024E-02 1.21302E-02 4.65236E-01 1.97221E-13 4.07813E-13
 -1      1458 1.93995E+01-8.60037E-02 1.91798E-02 4.16386E-01 8.11998E-14 6.28705E-13
 -1      1459 1.96350E+01-5.95202E-02 1.61805E-02 9.37249E-01 1.92164E-13 5.01519E-13
 -1      1460 1.95823E+01-8.16743E-02 1.29741E-02 2.41540E-01-1.06319E-13 4.53939E-13
 -1      1461 1.98949E+01-7.80734E-02 1.60117E-02 1.90267E-01-1.79009E-13 2.73587E-13
 -1      1462 2.01146E+01-1.40682E-01 2.60852E-02 6.07405E-01-4.81039E-14 1.84028E-13
 -1      1463 1.99187E+01-5.07512E-02 5.23918E-03 5.32285E-02 4.36907E-14 1.47819E-13
 -1      1464 2.00227E+01-2.80828E-02 8.30548E-03 3.04973E-02 1.03136E-13 2.16532E-13
 -1      1465 2.02786E+01-1.12132E-01 1.84074E-02 2.19449E-01-1.59017E-13 5.80668E-14
 -1      1466 1.99595E+01 3.39558E-04-6.00134E-04-1.16646E-03-9.78731E-14 2.56948E-13
 -1      1467 2.00057E+01 1.08741E-02 9.65681E-03 3.38091E-03-1.50532E-13 1.50275E-13
 -1      1468 2.01998E+01-1.68514E-02 1.01228E-02 1.18511E-02-4.09204E-14 2.24682E-13
 -1      1469 1.99585E+01-1.31262E-02 1.15102E-02 2.95062E-02-1.37754E-13 1.17426E-13
 -1      1470 2.00465E+01 7.64751E-03 5.39913E-03 1.91589E-02-1.67151E-13 1.90146E-13
 -1      1471 2.02606E+01 7.54737E-02-1.52089E-01 4.83806E-01 1.96659E-13 1.15573E-12
 -1      1472 2.15308E+01 2.16135E-01-2.29286E-01 7.20794E-01 1.63633E-13 1.46297E-12
 -1      1473 2.17294E+01 8.81749E-01-8.54748E-02 2.06474E+00 3.22915E-13 8.84556E-13
 -1      1474 1.93324E+01 3.23810E-02-2.13304E-02 1.85971E-01 1.47399E-13 7.91429E-13
 -1      1475 1.97530E+01 1.13620E-01-6.26977E-02 2.37981E-01 1.40013E-13 1.01619E-12
 -1      1476 2.03042E+01 1.87671E-01-5.51926E-02 7.86093E-01 2.94889E-13 6.24020E-13
 -1      1477 1.89508E+01 1.51064E-02 5.66647E-03 5.34676E-02 7.42913E-14 5.31172E-13
 -1      1478 1.90893E+01 5.16294E-02 9.78769E-04 7.97842E-02 9.70040E-14 6.96297E-13
 -1      1479 1.95592E+01 7.18371E-02-1.21580E-02 2.98908E-01 2.19475E-13 4.22187E-13
 -1      1480 1.88404E+01 7.12117E-03 6.97474E-03-9.03259E-03 8.55887E-14 3.74116E-13
 -1      1481 1.88549E+01 2.58636E-02 1.10882E-02 5.37143E-03 5.77975E-14 4.75332E-13
 -1      1482 1.92240E+01 3.10365E-02-2.46679E-03 8.34102E-02 1.39602E-13 2.54193E-13
 -1      1483 1.88665E+01 3.20628E-03 4.78192E-03-3.92786E-02 6.88642E-14 2.13888E-13
 -1      1484 1.88227E+01 1.38086E-02 8.51899E-03-3.11577E-02 6.15254E-14 3.23684E-13
 -1      1485 1.91074E+01 1.32608E-02-1.62190E-03-2.15665E-02 1.26266E-13 1.66813E-13
 -1      1486 1.89607E+01 1.04804E-03 3.29375E-03-5.26893E-02 1.35316E-14 1.34168E-13
 -1      1487 1.88902E+01 7.27643E-03 5.36598E-03-4.82171E-02 3.04717E-14 1.93071E-13
 -1      1488 1.91086E+01 4.52914E-03-1.63687E-03-7.30267E-02 7.28666E-14 8.97607E-14
 -1      1489 1.90849E+01-2.01990E-04 2.51185E-03-5.66108E-02 2.34034E-14 6.57399E-14
 -1      1490 1.90048E+01 3.43963E-03 3.42938E-03-5.43984E-02 2.56277E-14 1.05920E-13
 -1      1491 1.91713E+01-1.26536E-04-1.38039E-03-9.56169E-02 5.54288E-14 8.65670E-15
 -1      1492 1.92174E+01-9.11012E-04 2.04809E-03-5.50712E-02 3.54144E-14-1.23582E-14
 -1      1493 1.91373E+01 1.10418E-03 2.32724E-03-5.42813E-02 1.12931E-14 2.00378E-14
 -1      1494 1.92631E+01-2.64856E-03-1.00352E-03-1.01738E-01 4.25566E-14-5.56454E-14
 -1      1495 1.93457E+01-1.27441E-03 1.70461E-03-5.05034E-02 4.47533E-14-9.58292E-14
 -1      1496 1.92710E+01-3.06396E-04 1.64945E-03-5.05943E-02 3.63333E-14-3.22342E-14
 -1      1497 1.93649E+01-3.92204E-03-6.59689E-04-9.83838E-02 6.35588E-14-5.90695E-14
 -1      1498 1.94629E+01-1.41218E-03 1.41495E-03-4.44488E-02 2.85322E-14-1.58345E-13
 -1      1499 1.93963E+01-1.11550E-03 1.18966E-03-4.50588E-02 4.12808E-14-1.02349E-13
 -1      1500 1.94656E+01-4.42446E-03-3.94822E-04-8.98242E-02 6.95680E-14-1.08112E-13
 -1      1501 1.95656E+01-1.40361E-03 1.16130E-03-3.78996E-02 3.14766E-14-2.52507E-13
 -1      1502 1.95083E+01-1.52452E-03 8.58774E-04-3.87841E-02 2.95026E-14-2.09586E-13
 -1      1503 1.95589E+01-4.44484E-03-2.05508E-04-7.87738E-02 4.89266E-14-1.19148E-13
 -1      1504 1.96530E+01-1.30200E-03 9.39085E-04-3.14908E-02 5.32078E-14-3.28360E-13
 -1      1505 1.96050E+01-1.66616E-03 6.15271E-04-3.24842E-02 4.67209E-14-2.51595E-13
 -1      1506 1.96415E+01-4.16899E-03-7.68829E-05-6.69817E-02 7.41371E-14-1.87222E-13
 -1      1507 1.97255E+01-1.14258E-03 7.46076E-04-2.56218E-02 2.07257E-14-4.13663E-13
 -1      1508 1.96862E+01-1.62950E-03 4.35999E-04-2.66121E-02 4.20145E-14-3.53102E-13
 -1      1509 1.97124E+01-3.71840E-03 5.01808E-06-5.55703E-02 9.52642E-14-2.17897E-13
 -1      1510 1.97847E+01-9.47308E-04 5.79767E-04-2.05395E-02-2.95554E-15-4.28817E-13
 -1      1511 1.97530E+01-1.47341E-03 3.05844E-04-2.14504E-02 1.83799E-16-4.24933E-13
 -1      1512 1.97720E+01-3.17088E-03 5.07546E-05-4.52502E-02 2.75611E-14-2.96822E-13
 -1      1513 1.98325E+01-7.28037E-04 4.36871E-04-1.63979E-02-2.69704E-14-4.20289E-13
 -1      1514 1.98073E+01-1.23460E-03 2.14058E-04-1.71756E-02 4.65212E-15-4.13503E-13
 -1      1515 1.98213E+01-2.57284E-03 6.74970E-05-3.64702E-02-8.88200E-15-3.38666E-13
 -1      1516 1.98714E+01-4.88719E-04 3.13327E-04-1.33038E-02-8.89802E-14-3.75224E-13
 -1      1517 1.98513E+01-9.32760E-04 1.52705E-04-1.39064E-02-4.30936E-14-4.26269E-13
 -1      1518 1.98621E+01-1.94721E-03 5.93904E-05-2.95250E-02-2.28045E-14-2.94950E-13
 -1      1519 1.99044E+01-2.27040E-04 2.04402E-04-1.13519E-02 6.22398E-14-3.14113E-13
 -1      1520 1.98876E+01-5.74003E-04 1.15845E-04-1.17408E-02-3.98409E-15-3.11634E-13
 -1      1521 1.98967E+01-1.29889E-03 2.78466E-05-2.46377E-02-4.81366E-14-3.17380E-13
 -1      1522 1.99343E+01 6.42800E-05 1.04827E-04-1.06525E-02-2.61991E-14-4.26920E-13
 -1      1523 1.99193E+01-1.53464E-04 9.90302E-05-1.07850E-02 5.15823E-14-3.30810E-13
 -1      1524 1.99275E+01-6.18847E-04-2.82548E-05-2.20236E-02 8.12317E-14-2.66893E-13
 -1      1525 1.99648E+01 3.96374E-04 8.91260E-06-1.13533E-02-4.25835E-14-2.70517E-13
 -1      1526 1.99496E+01 3.42720E-04 9.89414E-05-1.11765E-02-5.45754E-14-3.50680E-13
 -1      1527 1.99575E+01 1.12652E-04-1.12424E-04-2.19397E-02-4.08241E-14-2.16046E-13
 -1      1528 1.99997E+01 7.83145E-04-8.93778E-05-1.36551E-02-5.70643E-14-1.09607E-13
 -1      1529 1.99822E+01 9.35674E-04 1.13071E-04-1.31006E-02-4.27935E-14-2.00371E-13
 -1      1530 1.99899E+01 9.23276E-04-2.30453E-04-2.47222E-02-5.52630E-14-5.38539E-14
 -1      1531 2.00436E+01 1.23996E-03-1.96385E-04-1.78234E-02 4.09342E-14-1.58279E-13
 -1      1532 2.00214E+01 1.65196E-03 1.39369E-04-1.68027E-02 2.97931E-14-1.01209E-13
 -1      1533 2.00286E+01 1.84592E-03-3.90289E-04-3.08135E-02-2.47600E-14 2.64887E-14
 -1      1534 2.01019E+01 1.78176E-03-3.18666E-04-2.41918E-02 1.12900E-13-3.93042E-13
 -1      1535 2.00720E+01 2.52112E-03 1.75805E-04-2.25934E-02 9.82936E-14-2.57432E-13
 -1      1536 2.00780E+01 2.91547E-03-6.01774E-04-4.07773E-02 1.88793E-13-5.90944E-14
 -1      1537 2.01808E+01 2.42002E-03-4.62784E-04-3.31560E-02 2.91995E-14-6.08992E-13
 -1      1538 2.01399E+01 3.57185E-03 2.19788E-04-3.08440E-02 3.65965E-14-5.52587E-13
 -1      1539 2.01432E+01 4.16401E-03-8.76082E-04-5.52958E-02 1.38435E-13-2.69996E-13
 -1      1540 2.02878E+01 3.15771E-03-6.34771E-04-4.51505E-02-9.35406E-14-4.90503E-13
 -1      1541 2.02317E+01 4.82549E-03 2.67387E-04-4.19679E-02-8.70227E-14-6.25361E-13
 -1      1542 2.02300E+01 5.61336E-03-1.22457E-03-7.51429E-02-5.38706E-14-4.51963E-13
 -1      1543 2.04311E+01 3.98097E-03-8.38875E-04-6.05989E-02-1.01410E-13-1.59813E-13
 -1      1544 2.03552E+01 6.28503E-03 3.12310E-04-5.63768E-02-8.44187E-14-3.35069E-13
 -1      1545 2.03454E+01 7.26256E-03-1.65648E-03-1.01115E-01-1.97606E-13-3.17978E-13
 -1      1546 2.06199E+01 4.84540E-03-1.07478E-03-7.98182E-02-6.98485E-14 1.09716E-13
 -1      1547 2.05191E+01 7.91629E-03 3.44748E-04-7.43978E-02-8.17272E-14-5.65225E-14
 -1      1548 2.04967E+01 9.06717E-03-2.17468E-03-1.33898E-01-1.64280E-13-1.24438E-13
 -1      1549 2.08639E+01 5.65412E-03-1.33168E-03-1.02851E-01 8.19208E-14-5.60199E-14
 -1      1550 2.07327E+01 9.61690E-03 3.50492E-04-9.61260E-02 9.35138E-14 1.13286E-13
 -1      1551 2.06917E+01 1.09050E-02-2.76775E-03-1.73821E-01 4.03115E-14 9.63281E-15
 -1      1552 2.11715E+01 6.22424E-03-1.57639E-03-1.29180E-01-3.29226E-14-2.08410E-14
 -1      1553 2.10049E+01 1.11666E-02 3.11534E-04-1.21176E-01-6.22970E-14-5.98631E-14
 -1      1554 2.09379E+01 1.25216E-02-3.39612E-03-2.20445E-01-2.55707E-14 2.60209E-17
 -1      1555 2.15484E+01 6.23952E-03-1.73102E-03-1.57278E-01 2.07903E-14 9.18102E-15
 -1      1556 2.13429E+01 1.21528E-02 2.10733E-04-1.48284E-01-4.43374E-15-2.61492E-14
 -1      1557 2.12408E+01 1.34467E-02-3.96874E-03-2.71898E-01-2.18167E-14-2.56045E-14
 -1      1558 2.19938E+01 5.19297E-03-1.63549E-03-1.83922E-01 8.17446E-14-1.31572E-13
 -1      1559 2.17495E+01 1.18691E-02 4.52343E-05-1.74704E-01 9.40227E-14 2.62342E-14
 -1      1560 2.16021E+01 1.28784E-02-4.30672E-03-3.23846E-01 9.54130E-14-6.05345E-14
 -1      1561 2.24945E+01 2.34093E-03-9.95776E-04-2.03268E-01-6.71981E-14 3.05450E-14
 -1      1562 2.22186E+01 9.20584E-03-1.45380E-04-1.95379E-01 7.10532E-16-5.25413E-14
 -1      1563 2.20159E+01 9.54898E-03-4.09445E-03-3.68052E-01-1.90267E-15 2.17959E-14
 -1      1564 2.30177E+01-3.26844E-03 6.59516E-04-2.05815E-01-4.64477E-14 2.49431E-13
 -1      1565 2.27288E+01 2.60105E-03-2.33515E-04-2.01981E-01-1.02876E-13 4.31079E-14
 -1      1566 2.24638E+01 1.63855E-03-2.83326E-03-3.90611E-01-1.10333E-13 1.28801E-13
 -1      1567 2.35012E+01-1.25560E-02 3.93839E-03-1.77780E-01 6.97235E-14 1.38852E-13
 -1      1568 2.32352E+01-9.77681E-03 4.29813E-05-1.82214E-01 1.32165E-13 2.72825E-13
 -1      1569 2.29085E+01-1.30774E-02 1.52388E-04-3.70418E-01 4.11771E-14-1.42880E-14
 -1      1570 2.38449E+01-2.57403E-02 9.30180E-03-1.02145E-01 7.86125E-14-1.04843E-13
 -1      1571 2.36605E+01-2.92910E-02 1.06829E-03-1.20409E-01 4.96582E-14-1.98210E-14
 -1      1572 2.32873E+01-3.64808E-02 5.53928E-03-2.79413E-01 1.48905E-13-3.68854E-14
 -1      1573 2.39110E+01-4.10428E-02 1.63411E-02 3.63760E-02 1.16073E-13-4.45221E-13
 -1      1574 2.38897E+01-5.51476E-02 3.15075E-03-1.28164E-03 8.61602E-14-2.48405E-13
 -1      1575 2.35086E+01-6.82011E-02 1.35038E-02-8.76174E-02 2.20858E-13-8.51281E-14
 -1      1576 2.35442E+01-5.30754E-02 2.26450E-02 2.39991E-01 4.49319E-14-4.65749E-13
 -1      1577 2.37779E+01-8.17674E-02 6.00274E-03 1.80828E-01 2.32748E-14-4.19153E-13
 -1      1578 2.34578E+01-1.02301E-01 2.28003E-02 2.22744E-01 5.33757E-14-1.33818E-13
 -1      1579 2.26262E+01-5.24964E-02 2.31567E-02 4.80684E-01-1.36609E-13-5.57748E-14
 -1      1580 2.31841E+01-9.67493E-02 8.01585E-03 4.06881E-01-1.69292E-13-2.85244E-13
 -1      1581 2.30227E+01-1.23801E-01 2.98628E-02 6.31837E-01-1.97899E-13 1.82588E-14
 -1      1582 2.11662E+01-2.98686E-02 1.19898E-02 6.87103E-01 1.65493E-15-1.36974E-14
 -1      1583 2.20393E+01-8.32807E-02 6.21758E-03 6.19025E-01-1.29341E-14-1.69031E-14
 -1      1584 2.21460E+01-1.09776E-01 2.92140E-02 1.05347E+00-1.19731E-13 1.73493E-13
 -1      1585 1.93876E+01 1.46555E-02-1.20238E-02 7.57188E-01-2.31228E-15 1.67096E-13
 -1      1586 2.04377E+01-3.12784E-02-1.94288E-03 7.25225E-01-3.78495E-15 5.58859E-14
 -1      1587 2.08964E+01-4.10820E-02 1.71291E-02 1.33055E+00-6.96370E-14 3.88738E-13
 -1      1588 1.77280E+01 6.30624E-02-3.97741E-02 6.15246E-01-7.11124E-14 4.73808E-13
 -1      1589 1.86920E+01 4.66513E-02-1.50747E-02 6.42481E-01-5.71583E-14 3.51302E-13
 -1      1590 1.95161E+01 7.31055E-02-3.74621E-03 1.29315E+00-1.49383E-13 7.58931E-13
 -1      1591 1.66754E+01 8.72121E-02-5.39797E-02 2.84775E-01 8.14349E-14 4.32808E-13
 -1      1592 1.72668E+01 1.13123E-01-2.59952E-02 3.66050E-01-5.30825E-14 3.88710E-13
 -1      1593 1.83728E+01 1.82479E-01-2.29622E-02 8.80025E-01-8.21652E-14 5.56262E-13
 -1      1594 1.65000E+01 7.14041E-02-4.31153E-02-9.60621E-02 9.28268E-14 1.26277E-13
 -1      1595 1.65672E+01 1.29683E-01-2.59816E-02 2.26608E-03 1.39644E-13 4.20212E-13
 -1      1596 1.77899E+01 2.20511E-01-2.96120E-02 2.29089E-01 1.88970E-13 3.53972E-13
 -1      1597 1.70853E+01 2.82240E-02-1.39994E-02-3.58449E-01 1.68632E-14 2.13010E-13
 -1      1598 1.67053E+01 8.99663E-02-1.34773E-02-2.87752E-01-1.30937E-14 1.94275E-13
 -1      1599 1.78549E+01 1.60280E-01-2.22376E-02-3.75966E-01 9.57845E-14 5.74653E-13
 -1      1600 1.80220E+01-1.28749E-02 1.43037E-02-4.21084E-01 4.47329E-14 9.71376E-14
 -1      1601 1.74399E+01 2.55760E-02 3.48845E-03-3.99006E-01 7.53261E-14 1.58991E-13
 -1      1602 1.83726E+01 4.38279E-02-9.29577E-03-6.94709E-01 5.93332E-14 4.01415E-13
 -1      1603 1.88848E+01-3.08023E-02 2.68068E-02-3.28549E-01 1.27968E-13-5.78843E-14
 -1      1604 1.83512E+01-2.27727E-02 1.49122E-02-3.43912E-01 9.59185E-14 8.20177E-14
 -1      1605 1.90134E+01-5.41810E-02 8.89046E-05-6.82549E-01 9.92010E-14 1.26017E-13
 -1      1606 1.94562E+01-2.43194E-02 2.29512E-02-1.91621E-01 7.57701E-14-1.49439E-13
 -1      1607 1.90962E+01-3.53389E-02 1.63729E-02-2.16883E-01 8.86808E-14-6.55448E-14
 -1      1608 1.95157E+01-8.81194E-02 2.26961E-03-4.76713E-01 1.38728E-13 2.55669E-13
 -1      1609 1.97568E+01-9.72981E-03 1.31168E-02-1.00309E-01 1.35872E-14-2.41755E-13
 -1      1610 1.95538E+01-2.08585E-02 1.09835E-02-1.14682E-01-5.56846E-15-2.55315E-13
 -1      1611 1.97939E+01-6.27177E-02 2.94893E-04-2.64430E-01 8.39702E-14 1.70946E-13
 -1      1612 1.99211E+01-7.59635E-03 1.46660E-02-7.08780E-02-3.31432E-14-3.69264E-13
 -1      1613 1.97974E+01-6.77023E-03 8.79125E-03-6.94688E-02 7.32097E-14-2.66485E-13
 -1      1614 1.99140E+01-2.23813E-02 4.21711E-03-1.50395E-01 1.09921E-13 1.88890E-14
 -1      1615 1.99588E+01-3.59947E-02 1.87289E-02-3.67275E-02-2.27238E-13-3.18804E-13
 -1      1616 2.00391E+01-1.32634E-01 5.60054E-04-5.15553E-02 7.40866E-14 1.64113E-13
 -1      1617 2.00133E+01-7.66749E-02 7.15823E-03-5.87477E-02-9.81784E-14 5.09011E-14
 -1      1618 2.01052E+01 7.02471E-02-7.85746E-03 1.25125E-01 6.12999E-13 3.67413E-13
 -1      1619 2.00751E+01-7.28212E-02-5.24952E-03 7.64879E-02 3.92734E-13 1.62906E-13
 -1      1620 2.00973E+01-3.05710E-02-1.69002E-02 4.08125E-02 3.84843E-13 4.11270E-13
 -1      1621 2.01517E+01 8.59709E-01-1.65244E-02 4.66600E-01 4.52981E-13-1.34519E-13
 -1      1622 2.01363E+01 3.19361E-01-1.73708E-02 3.84500E-01 6.69239E-13 1.58939E-13
 -1      1623 2.02174E+01 2.43079E-01-3.10477E-02 5.05215E-01 5.85973E-13 2.64840E-13
 -1      1624 2.01521E+01 2.44814E+00-2.08760E-02 9.01601E-01 6.47003E-13 9.05612E-14
 -1      1625 2.01678E+01 1.39872E+00-2.68493E-02 8.05358E-01 3.37053E-13 2.04338E-13
 -1      1626 2.02772E+01 9.83555E-01-4.58414E-02 1.22668E+00 4.27040E-13-7.37223E-14
 -1      1627 2.00747E+01 4.74462E+00-1.60926E-02 1.26334E+00 7.52898E-13 1.50597E-13
 -1      1628 2.01354E+01 3.28742E+00-2.65152E-02 1.19606E+00 6.33216E-13-1.81155E-13
 -1      1629 2.02415E+01 2.32296E+00-4.36538E-02 2.00121E+00 4.40939E-13-7.87738E-15
 -1      1630 1.99166E+01 7.39081E+00 3.27676E-03 1.33736E+00 1.10907E-12 1.96348E-13
 -1      1631 2.00144E+01 5.80149E+00-1.09120E-02 1.34912E+00 8.16514E-13 1.20849E-13
 -1      1632 2.00669E+01 4.19333E+00-1.63112E-02 2.48431E+00 5.87554E-13 2.09820E-13
 -1      1633 1.97442E+01 9.54434E+00 2.91974E-02 9.45796E-01 9.26426E-13-5.10945E-14
 -1      1634 1.98328E+01 8.36797E+00 1.71842E-02 1.06753E+00 8.49931E-13 2.03369E-13
 -1      1635 1.97812E+01 6.23331E+00 3.62837E-02 2.28309E+00 4.99396E-13 1.20116E-13
 -1      1636 1.96664E+01 1.03675E+01 4.29251E-02 1.55296E-01 8.79975E-13-3.16171E-14
 -1      1637 1.96893E+01 1.00744E+01 3.96856E-02 3.47890E-01 9.55028E-13-1.85636E-13
 -1      1638 1.95251E+01 7.76296E+00 8.87890E-02 1.22800E+00 5.77694E-13-3.08087E-14
 -1      1639 1.97432E+01 9.50334E+00 3.14679E-02-6.96707E-01 2.92960E-13-3.24948E-13
 -1      1640 1.96850E+01 1.02151E+01 3.93380E-02-5.27848E-01 6.55864E-13-1.36557E-14
 -1      1641 1.94602E+01 8.14767E+00 1.03240E-01-3.53081E-01 2.94224E-13-1.89453E-13
 -1      1642 1.99171E+01 7.34126E+00 3.38200E-03-1.23320E+00-6.77416E-13-4.21271E-13
 -1      1643 1.98193E+01 8.74658E+00 1.77916E-02-1.16203E+00 4.25354E-14-6.44347E-13
 -1      1644 1.96275E+01 7.21907E+00 6.72307E-02-1.76334E+00-4.49571E-14-8.26533E-13
 -1      1645 2.00769E+01 4.77819E+00-1.98896E-02-1.30299E+00-1.21499E-12-1.84196E-13
 -1      1646 1.99947E+01 6.32263E+00-6.94346E-03-1.33282E+00-8.73190E-13-3.60689E-13
 -1      1647 1.99177E+01 5.42143E+00 1.08268E-02-2.43582E+00-3.06866E-13-7.63140E-13
 -1      1648 2.01581E+01 2.51308E+00-2.82516E-02-1.01732E+00-1.13964E-12 3.00697E-14
 -1      1649 2.01177E+01 3.80215E+00-2.02479E-02-1.10424E+00-1.24750E-12 2.70037E-13
 -1      1650 2.01593E+01 3.43410E+00-3.18307E-02-2.29246E+00-4.86458E-13 5.22325E-14
 -1      1651 2.01553E+01 1.00636E+00-2.19695E-02-6.00055E-01-9.03213E-13 1.57541E-13
 -1      1652 2.01551E+01 1.80876E+00-1.98414E-02-6.89592E-01-1.10237E-12 1.19149E-13
 -1      1653 2.02671E+01 1.78949E+00-4.63808E-02-1.63587E+00-5.87110E-13 1.13175E-13
 -1      1654 2.01164E+01 2.84327E-01 8.82726E-05-2.52898E-01-3.95649E-13 2.67487E-13
 -1      1655 2.01130E+01 6.12715E-01-1.47042E-02-2.99481E-01-7.47049E-13 2.64256E-13
 -1      1656 2.02498E+01 7.36954E-01-3.67523E-02-8.71319E-01-5.73002E-13 4.31884E-13
 -1      1657 2.00966E+01 6.85348E-02 1.06999E-02-6.72296E-02-2.36844E-13 5.51989E-14
 -1      1658 2.01164E+01 1.20482E-01-4.81602E-03-1.08351E-01-3.05552E-13 1.67933E-13
 -1      1659 2.02323E+01 2.59897E-01-1.29613E-02-3.50159E-01-3.35469E-13 3.85011E-13
 -1      1660 2.01431E+01 5.47201E-02-1.56097E-02-1.08657E-01-1.91299E-13 1.45558E-13
 -1      1661-7.73063E-01-1.80821E+01-2.08731E+00-1.22733E+00-3.85136E-13-2.51077E-13
 -1      1662-7.21944E-01-2.03026E+01-2.28094E+00 3.88953E-01-1.98980E-13-3.73035E-14
 -1      1663 1.36762E+00-1.02369E+01-1.43041E+00 4.45724E-01-8.72191E-13-6.86978E-13
 -1      1664 6.14188E-01-1.63057E+01-2.06685E+00-1.33389E-01-3.83915E-13-3.93650E-13
 -1      1665 7.71794E+00-1.11098E+00-5.64403E-01 5.07762E+00-1.12577E-12-7.79043E-13
 -1      1666 4.30277E+00-7.74119E+00-1.48078E+00 1.80417E+00-1.09379E-12-7.25031E-13
 -1      1667 1.86424E+01 5.44479E+00 3.25278E-01 1.06898E+01-7.67608E-13 4.06342E-14
 -1      1668 1.17237E+01 1.46016E+00-6.70343E-01 6.53368E+00-1.09934E-12-5.70100E-13
 -1      1669 3.42310E+01 6.91345E+00 1.15039E+00 1.36217E+01-2.22933E-13-4.19664E-13
 -1      1670 2.45800E+01 6.25249E+00 2.32533E-01 1.12628E+01-3.63154E-13-3.50830E-13
 -1      1671 4.89708E+01 6.05651E+00 1.85309E+00 1.24962E+01-1.43496E-13-3.89688E-13
 -1      1672 3.95671E+01 7.75907E+00 1.13665E+00 1.38521E+01-8.90954E-14-3.26628E-13
 -1      1673 5.80700E+01 3.94964E+00 2.01113E+00 5.06566E+00 8.74301E-14-1.14331E-12
 -1      1674 5.29343E+01 5.74676E+00 1.79243E+00 1.05116E+01 3.54161E-14-7.12652E-13
 -1      1675 5.52111E+01 4.46316E+00 1.61327E+00-3.85087E+00 3.58824E-13-1.64463E-12
 -1      1676 5.70244E+01 4.27792E+00 1.80071E+00 2.10901E+00 2.22045E-13-1.30639E-12
 -1      1677 4.68635E+01 5.72544E+00 1.27740E+00-1.04484E+01 3.59227E-13-1.60738E-12
 -1      1678 5.40979E+01 4.06795E+00 1.74499E+00-6.63508E+00 1.71030E-13-1.76925E-12
 -1      1679 3.26704E+01 6.50314E+00 5.80477E-01-1.18226E+01 7.55396E-13-1.32516E-12
 -1      1680 4.23980E+01 5.59055E+00 1.36441E+00-1.18383E+01 6.47205E-13-1.34337E-12
 -1      1681 1.84824E+01 4.19371E+00-1.96529E-01-8.75084E+00 1.05005E-12-1.07425E-12
 -1      1682 2.71779E+01 5.90423E+00 7.09041E-01-1.18162E+01 8.58758E-13-1.14087E-12
 -1      1683 8.82475E+00-2.30109E+00-8.70017E-01-4.11271E+00 9.29035E-13-9.27258E-13
 -1      1684 1.40955E+01 2.07625E+00-7.70171E-02-7.68168E+00 1.04206E-12-1.10234E-12
 -1      1685 2.25726E+00-1.01789E+01-1.53603E+00-3.51827E-01 9.27591E-13-4.71206E-13
 -1      1686 4.38750E+00-4.14566E+00-8.46654E-01-2.56570E+00 9.98535E-13-8.01581E-13
 -1      1687-5.66730E-02-1.66868E+01-1.82320E+00 3.75408E-01 8.60201E-13-1.34170E-13
 -1      1688 2.16428E-01-1.21728E+01-1.41689E+00 6.59685E-01 8.66307E-13-3.33136E-13
 -1      1689-8.68891E-01-1.86969E+01-1.85902E+00-6.86432E-01 4.86805E-13-2.54352E-13
 -1      1690-8.75002E-01-1.77477E+01-1.78458E+00 1.05255E+00 7.06435E-13-4.32987E-14
 -1      1691-4.61290E-01-1.46240E+01-1.57860E+00-1.16723E+00-2.26708E-13-3.54841E-13
 -1      1692-5.06428E-01-1.80723E+01-1.85336E+00-9.41848E-02 3.04645E-13-3.75061E-13
 -1      1693 2.13457E+00-7.09749E+00-1.13326E+00 7.37529E-01-4.75175E-13-3.94074E-13
 -1      1694 9.46909E-01-1.30562E+01-1.73898E+00-5.61416E-01-4.31100E-13-1.54765E-13
 -1      1695 1.02741E+01 3.18040E-01-3.64016E-01 5.90031E+00-5.64881E-13-6.57696E-13
 -1      1696 5.90426E+00-5.00570E+00-1.18040E+00 2.41211E+00-3.46612E-13-6.49814E-13
 -1      1697 2.19649E+01 4.92428E+00 4.01819E-01 1.04488E+01-5.43565E-13-5.78648E-13
 -1      1698 1.46609E+01 2.28475E+00-4.75052E-01 7.04942E+00-7.73159E-13-6.11289E-13
 -1      1699 3.61029E+01 6.08350E+00 1.14041E+00 1.25524E+01-4.48530E-13-1.11244E-12
 -1      1700 2.69548E+01 6.08420E+00 3.06064E-01 1.11516E+01-5.26690E-13-8.84404E-13
 -1      1701 4.94778E+01 4.82786E+00 1.72195E+00 1.00483E+01-4.01290E-13-1.42264E-12
 -1      1702 4.10548E+01 6.21062E+00 1.05318E+00 1.18413E+01-4.50084E-13-1.34470E-12
 -1      1703 5.79423E+01 3.61939E+00 2.03442E+00 3.43503E+00-2.24154E-13-1.27304E-12
 -1      1704 5.30232E+01 4.72613E+00 1.67858E+00 8.15160E+00-3.95198E-13-1.46194E-12
 -1      1705 5.79222E+01 4.30217E+00 1.98685E+00-5.23833E+00 3.04201E-14-1.12016E-12
 -1      1706 5.86914E+01 3.82421E+00 2.00685E+00 6.26521E-01-1.05638E-13-1.32783E-12
 -1      1707 5.01086E+01 6.34734E+00 1.65383E+00-1.19422E+01 2.59376E-13-9.46243E-13
 -1      1708 5.64858E+01 4.52027E+00 2.06572E+00-7.91933E+00 2.73032E-13-1.09346E-12
 -1      1709 3.63239E+01 7.67881E+00 9.37616E-01-1.34649E+01 5.73319E-13-8.94396E-13
 -1      1710 4.57537E+01 6.40227E+00 1.67830E+00-1.30479E+01 4.20552E-13-8.20344E-13
 -1      1711 2.22296E+01 5.94375E+00 1.14343E-01-1.08521E+01 6.73794E-13-9.05276E-13
 -1      1712 3.11005E+01 7.05817E+00 1.00821E+00-1.35784E+01 6.26388E-13-1.03628E-12
 -1      1713 1.05341E+01 4.07039E-01-7.75060E-01-5.83207E+00 4.18332E-13-6.82787E-13
 -1      1714 1.68145E+01 4.72986E+00 1.87227E-01-9.91809E+00 6.47482E-13-9.96980E-13
 -1      1715 3.78632E+00-8.12802E+00-1.53388E+00-1.47894E+00 8.79297E-13-1.98674E-13
 -1      1716 6.61415E+00-1.93034E+00-6.99103E-01-4.31214E+00 6.54810E-13-4.04232E-13
 -1      1717 7.20293E-01-1.59269E+01-2.00207E+00 7.20207E-02 1.83409E-13-5.65867E-13
 -1      1718 1.44380E+00-1.03574E+01-1.42655E+00-4.20275E-01 7.23865E-13-4.85750E-13
 -1      1719-6.23719E-01-1.95708E+01-2.16740E+00-4.41820E-01 8.36553E-14-2.67564E-14
 -1      1720-5.96235E-01-1.71113E+01-1.92681E+00 9.24863E-01 1.57208E-13-2.24487E-13
 -1      1721 2.66570E+01 8.15450E-01 3.82722E-01 8.30538E+00-7.50289E-13-1.85074E-13
 -1      1722 1.55114E+01-3.91285E+00-3.61066E-01 7.28493E+00-7.65166E-13-2.09444E-13
 -1      1723 1.99876E+01-5.49603E-02 1.25842E-02-8.46611E-02-2.98045E-13-1.36747E-13
 -1      1724 1.99860E+01-3.91089E-02-1.55988E-03-1.14273E-01-6.21031E-15 2.39094E-13
 -1      1725 4.39759E-01-1.25817E+01-1.46337E+00 2.67545E+00-3.87412E-13-4.76785E-13
 -1      1726 6.55491E+00-8.85970E+00-9.79231E-01 5.32070E+00-5.36016E-13-7.23976E-13
 -1      1727-1.51203E+00-1.34867E+01-1.56928E+00-1.60600E-01-7.69246E-14-2.99150E-13
 -1      1728 3.73035E+01 4.48192E+00 9.47694E-01 7.78812E+00-3.25767E-13-3.66596E-13
 -1      1729 4.63442E+01 7.11066E+00 1.54793E+00 6.12892E+00 5.51503E-14-7.50955E-13
 -1      1730 4.88117E+01 8.15963E+00 1.51125E+00 2.34441E+00 2.85882E-13-1.23049E-12
 -1      1731 4.70954E+01 7.54394E+00 1.36725E+00-1.74110E+00 2.19214E-13-1.39011E-12
 -1      1732 4.19733E+01 5.51177E+00 1.17099E+00-5.14033E+00 3.44634E-13-1.17961E-12
 -1      1733 3.23140E+01 2.50361E+00 6.18584E-01-6.85648E+00 5.63050E-13-8.59868E-13
 -1      1734 2.16636E+01-1.96003E+00-7.33695E-02-6.76229E+00 6.45262E-13-7.17870E-13
 -1      1735 1.19169E+01-5.86084E+00-4.52256E-01-5.88908E+00 6.50702E-13-7.62834E-13
 -1      1736 3.66253E+00-9.76816E+00-1.00805E+00-3.72616E+00 6.70575E-13-4.37844E-13
 -1      1737-6.56708E-01-1.24987E+01-1.28553E+00-1.60044E+00 6.43097E-13-1.97342E-13
 -1      1738-1.44588E+00-1.27293E+01-1.29701E+00 6.16934E-01 2.20365E-13-5.57332E-13
 -1      1739 1.54340E+00-1.11076E+01-1.16815E+00 2.62866E+00 5.78426E-14-2.99205E-13
 -1      1740 8.47583E+00-7.36155E+00-7.22220E-01 4.89635E+00-3.97460E-14-3.81195E-13
 -1      1741 1.80410E+01-3.22531E+00-2.08121E-01 6.39161E+00-1.74971E-13-3.04312E-13
 -1      1742 2.82059E+01 1.03297E+00 3.64577E-01 6.99413E+00-2.67064E-13-4.59632E-13
 -1      1743 3.82470E+01 4.32456E+00 9.77701E-01 6.32301E+00-1.77747E-13-9.40581E-13
 -1      1744 4.62965E+01 6.40848E+00 1.46253E+00 4.04213E+00-2.98428E-13-1.01852E-12
 -1      1745 5.02083E+01 7.71800E+00 1.69940E+00 3.13668E-01-1.40388E-13-1.08172E-12
 -1      1746 4.96368E+01 7.86407E+00 1.69534E+00-3.59652E+00 1.19571E-13-1.02968E-12
 -1      1747 4.43305E+01 6.56902E+00 1.39149E+00-6.52579E+00 3.27377E-13-7.98472E-13
 -1      1748 3.53737E+01 3.88782E+00 8.72178E-01-8.00972E+00 5.56832E-13-8.50098E-13
 -1      1749 2.47954E+01 2.45933E-01 2.73651E-01-8.35750E+00 5.31908E-13-8.56870E-13
 -1      1750 1.42302E+01-4.39226E+00-4.60779E-01-7.03719E+00 6.55365E-13-5.86697E-13
 -1      1751 6.04705E+00-9.11765E+00-1.07072E+00-5.07995E+00 5.85199E-13-2.64178E-13
 -1      1752 6.52474E-01-1.19860E+01-1.37866E+00-2.88982E+00 3.43947E-13-5.15366E-13
 -1      1753 2.28608E+01 1.98499E+00-2.35768E-02-2.72230E+00-2.50844E-13 1.19890E-12
 -1      1754 1.98237E+01 3.71444E+00-3.55631E-02-2.15176E+00-3.52993E-13-2.71741E-13
 -1      1755 2.00591E+01 3.56221E+00-4.02562E-02-2.44476E+00-3.97814E-13-1.49290E-13
 -1      1756 2.03647E+01 3.18183E+00-4.57197E-02-2.58470E+00-3.94012E-13 9.86711E-15
 -1      1757 2.05848E+01 2.81006E+00-1.42521E-01-2.85313E+00-4.07584E-13 2.21587E-13
 -1      1758 2.04245E+01 2.69346E+00-4.43978E-03-2.22571E+00-4.07769E-13-5.09731E-14
 -1      1759 1.93539E+01 4.18957E+00-2.02078E-02-1.27051E+00-2.34162E-13-4.97541E-13
 -1      1760 1.94274E+01 4.14925E+00-1.75075E-02-1.49475E+00-2.69443E-13-4.60791E-13
 -1      1761 1.92575E+01 4.29472E+00-1.68005E-02-8.59546E-01-1.61625E-13-5.44263E-13
 -1      1762 1.93003E+01 4.27098E+00-1.43351E-02-1.07025E+00-1.99341E-13-5.26029E-13
 -1      1763 1.95261E+01 3.78293E+00-9.22010E-03-1.11998E+00-2.34762E-13-4.84189E-13
 -1      1764 1.92058E+01 4.35514E+00-1.48050E-02-4.66671E-01-9.20646E-14-5.49930E-13
 -1      1765 1.92278E+01 4.34235E+00-1.33116E-02-6.66925E-01-1.24314E-13-5.48457E-13
 -1      1766 1.94288E+01 3.90327E+00-9.19468E-03-7.33070E-01-1.52421E-13-5.21227E-13
 -1      1767 1.91863E+01 4.38076E+00-1.36683E-02-8.36058E-02-1.01695E-14-5.59200E-13
 -1      1768 1.91928E+01 4.37684E+00-1.32173E-02-2.79006E-01-4.82572E-14-5.54234E-13
 -1      1769 1.93783E+01 3.96784E+00-9.15865E-03-3.58202E-01-7.07667E-14-5.35441E-13
 -1      1770 1.91944E+01 4.37548E+00-1.31694E-02 2.98047E-01 4.79832E-14-5.78189E-13
 -1      1771 1.91868E+01 4.37993E+00-1.37512E-02 1.02488E-01 2.33463E-14-5.71742E-13
 -1      1772 1.93635E+01 3.98726E+00-9.14640E-03 1.05585E-02 4.34643E-15-5.43524E-13
 -1      1773 1.92319E+01 4.33831E+00-1.33278E-02 6.86674E-01 1.08453E-13-5.70325E-13
 -1      1774 1.92086E+01 4.35199E+00-1.49155E-02 4.85920E-01 7.93526E-14-5.76480E-13
 -1      1775 1.93810E+01 3.96456E+00-9.18783E-03 3.79502E-01 7.09805E-14-5.57597E-13
 -1      1776 1.93057E+01 4.26492E+00-1.44088E-02 1.08423E+00 1.77300E-13-5.51306E-13
 -1      1777 1.92622E+01 4.28937E+00-1.69741E-02 8.76304E-01 1.43592E-13-5.63240E-13
 -1      1778 1.94340E+01 3.89708E+00-9.19346E-03 7.51551E-01 1.42179E-13-5.47749E-13
 -1      1779 1.94377E+01 4.13771E+00-1.74033E-02 1.51416E+00 2.61262E-13-5.00648E-13
 -1      1780 1.93610E+01 4.18028E+00-2.05046E-02 1.28466E+00 2.12909E-13-5.35079E-13
 -1      1781 1.95340E+01 3.77317E+00-9.24264E-03 1.13520E+00 2.20440E-13-5.20108E-13
 -1      1782 1.96674E+01 3.92117E+00-2.51938E-02 1.97919E+00 3.38715E-13-4.06560E-13
 -1      1783 1.95343E+01 3.99793E+00-2.69054E-02 1.72187E+00 2.91049E-13-4.59029E-13
 -1      1784 1.97078E+01 3.56608E+00-8.70077E-03 1.53486E+00 2.99073E-13-4.51972E-13
 -1      1785 2.00766E+01 3.52284E+00-4.51825E-02 2.47161E+00 4.11497E-13-2.25698E-13
 -1      1786 1.98362E+01 3.68329E+00-3.97260E-02 2.18250E+00 3.69768E-13-3.38032E-13
 -1      1787 2.00048E+01 3.22295E+00-5.26870E-03 1.93413E+00 3.81792E-13-3.36812E-13
 -1      1788 2.09224E+01 2.68182E+00-5.76450E-02 2.85736E+00 4.29846E-13 1.52468E-13
 -1      1789 2.04148E+01 3.09696E+00-5.04307E-02 2.61554E+00 4.12437E-13-7.25670E-14
 -1      1790 2.05184E+01 2.60996E+00 3.18733E-03 2.24410E+00 4.36659E-13-1.20830E-13
 -1      1791 2.17330E+01 1.21297E+00-1.22091E-01 2.32951E+00 3.73188E-13 6.30135E-13
 -1      1792 2.12763E+01 2.26304E+00 1.17049E-04 2.74006E+00 4.02825E-13 3.14498E-13
 -1      1793 2.09391E+01 1.68503E+00-2.29550E-02 2.13977E+00 4.41772E-13 1.58751E-13
 -1      1794 2.09544E+01 7.78670E-01-6.24435E-02 1.52382E+00 3.85109E-13 5.11088E-13
 -1      1795 2.17987E+01 2.45828E+00 9.08511E-02-3.04786E+00-3.46138E-13 5.78565E-13
 -1      1796 2.01038E+01 2.97944E-01-8.91086E-03 6.56673E-01 3.05270E-13 3.53549E-13
 -1      1797 2.06558E+01 4.40408E-01-1.24642E-02 1.03371E+00 3.27731E-13 4.53538E-13
 -1      1798 2.07468E+01 8.45119E-01 2.24766E-03 1.41472E+00 3.83488E-13 2.51358E-13
 -1      1799 2.15089E+01 1.74277E+00 7.94478E-02-2.33675E+00-3.75925E-13 4.29649E-13
 -1      1800 2.05234E+01 5.00460E-01 3.25308E-02-9.21233E-01-3.15081E-13 3.76743E-13
 -1      1801 2.00915E+01 3.51862E-01 7.58294E-03-6.29449E-01-2.91883E-13 2.85092E-13
 -1      1802 1.98969E+01 2.57390E-01 2.74152E-02-3.91059E-01-2.72496E-13 2.58120E-13
 -1      1803 1.97060E+01 1.78143E-01 1.04068E-02-2.53183E-01-2.33038E-13 1.85759E-13
 -1      1804 2.02011E+01 4.83838E-01-5.72607E-03-7.22591E-01-3.33937E-13 1.14410E-13
 -1      1805 1.95841E+01 1.32743E-01 1.66793E-02-1.19599E-01-1.87736E-13 1.58075E-13
 -1      1806 1.95061E+01 9.30132E-02 6.97654E-03-4.88431E-02-1.64488E-13 9.17968E-14
 -1      1807 1.98750E+01 2.44122E-01-5.70418E-03-2.95290E-01-2.65133E-13 8.44225E-14
 -1      1808 1.94412E+01 6.82970E-02 8.69000E-03 2.45873E-02-1.35980E-13 8.24818E-14
 -1      1809 1.94267E+01 4.65750E-02 4.10885E-03 6.06849E-02-1.00904E-13 5.87321E-14
 -1      1810 1.96925E+01 1.25108E-01-4.60589E-03-5.85824E-02-1.71650E-13 2.46183E-14
 -1      1811 1.94006E+01 3.22164E-02 4.23020E-03 9.92678E-02-1.01422E-13 3.84384E-14
 -1      1812 1.94203E+01 1.97519E-02 2.42225E-03 1.15931E-01-9.68364E-14 6.83936E-15
 -1      1813 1.96058E+01 6.07002E-02-3.44665E-03 7.07472E-02-1.35639E-13-2.72380E-14
 -1      1814 1.94184E+01 1.10900E-02 1.84573E-03 1.33689E-01-1.00782E-13-4.38777E-16
 -1      1815 1.94553E+01 3.87758E-03 1.43361E-03 1.38971E-01-9.69654E-14-1.87058E-14
 -1      1816 1.95814E+01 2.37441E-02-2.32849E-03 1.36829E-01-1.21010E-13-7.47113E-14
 -1      1817 1.94676E+01-1.34635E-03 5.43546E-04 1.44149E-01-1.17782E-13-8.78762E-15
 -1      1818 1.95114E+01-5.36586E-03 8.16763E-04 1.42751E-01-1.18218E-13-3.74752E-14
 -1      1819 1.95946E+01 2.12766E-03-1.42736E-03 1.64730E-01-1.13106E-13-5.69374E-14
 -1      1820 1.95311E+01-8.38663E-03-1.78946E-04 1.40469E-01-1.17422E-13-1.89543E-14
 -1      1821 1.95760E+01-1.03862E-02 4.18015E-04 1.35327E-01-7.30600E-14-2.66490E-14
 -1      1822 1.96287E+01-1.02322E-02-7.80634E-04 1.69582E-01-1.13547E-13-4.87764E-14
 -1      1823 1.95987E+01-1.19555E-02-5.65890E-04 1.28887E-01-4.90060E-14-5.26077E-14
 -1      1824 1.96411E+01-1.26600E-02 1.62875E-04 1.21893E-01-4.11824E-14-9.86580E-14
 -1      1825 1.96727E+01-1.67286E-02-3.47318E-04 1.60971E-01-1.07316E-13-3.50115E-14
 -1      1826 1.96640E+01-1.32661E-02-7.46679E-04 1.13460E-01-4.39688E-14-1.16925E-13
 -1      1827 1.97022E+01-1.31442E-02 9.03153E-06 1.05849E-01-8.79142E-15-1.35940E-13
 -1      1828 1.97195E+01-1.94361E-02-7.36832E-05 1.45139E-01-5.14701E-14-5.72340E-14
 -1      1829 1.97238E+01-1.31140E-02-7.97592E-04 9.68486E-02-9.34265E-15-1.44862E-13
 -1      1830 1.97570E+01-1.24729E-02-7.09342E-05 8.94197E-02 1.04336E-14-1.24146E-13
 -1      1831 1.97650E+01-1.96913E-02 8.53677E-05 1.26198E-01-3.59660E-14-1.20158E-13
 -1      1832 1.97765E+01-1.20257E-02-7.67028E-04 8.07843E-02 2.75013E-15-1.38212E-13
 -1      1833 1.98047E+01-1.10629E-02-9.53977E-05 7.40528E-02-1.16447E-14-1.16832E-13
 -1      1834 1.98070E+01-1.83731E-02 1.63328E-04 1.06857E-01-9.57703E-16-9.67651E-14
 -1      1835 1.98220E+01-1.03409E-02-6.86593E-04 6.63917E-02-4.69080E-14-9.96566E-14
 -1      1836 1.98456E+01-9.17533E-03-7.61211E-05 6.06897E-02-1.16851E-14-6.40706E-14
 -1      1837 1.98443E+01-1.60520E-02 1.83926E-04 8.88967E-02-5.32907E-15-2.30104E-15
 -1      1838 1.98607E+01-8.26374E-03-5.76774E-04 5.44102E-02 5.56169E-16-1.36868E-13
 -1      1839 1.98806E+01-6.95517E-03-1.96744E-05 4.99632E-02 2.98661E-14-1.44154E-13
 -1      1840 1.98771E+01-1.30777E-02 1.63384E-04 7.34951E-02-3.27215E-14-1.19574E-13
 -1      1841 1.98941E+01-5.89500E-03-4.50331E-04 4.53602E-02 6.38151E-15-1.64249E-13
 -1      1842 1.99112E+01-4.45791E-03 7.15848E-05 4.23449E-02-2.62913E-14-1.79626E-13
 -1      1843 1.99060E+01-9.63478E-03 1.12275E-04 6.14687E-02 5.88662E-15-2.12541E-13
 -1      1844 1.99237E+01-3.25601E-03-3.14559E-04 3.96696E-02-1.00039E-13-2.22974E-13
 -1      1845 1.99393E+01-1.66909E-03 1.98783E-04 3.82585E-02-1.18571E-13-2.62470E-13
 -1      1846 1.99321E+01-5.78073E-03 3.69387E-05 5.34518E-02-1.03989E-13-2.41353E-13
 -1      1847 1.99516E+01-3.05333E-04-1.72922E-04 3.77722E-02-1.18087E-13-2.76992E-13
 -1      1848 1.99672E+01 1.48134E-03 3.65938E-04 3.81690E-02-1.17017E-13-2.92552E-13
 -1      1849 1.99570E+01-1.47356E-03-5.94482E-05 5.00350E-02-1.38986E-13-2.28228E-13
 -1      1850 1.99803E+01 3.04821E-03-2.63103E-05 4.01839E-02-8.49418E-14-2.64380E-13
 -1      1851 1.99974E+01 5.10736E-03 5.79399E-04 4.26516E-02-1.20861E-14-2.32424E-13
 -1      1852 1.99825E+01 3.40769E-03-1.75985E-04 5.18716E-02-8.69751E-14-2.56224E-13
 -1      1853 2.00126E+01 6.93449E-03 1.25924E-04 4.75629E-02 3.53949E-15-2.91647E-13
 -1      1854 2.00332E+01 9.35624E-03 8.47194E-04 5.24443E-02 4.09014E-14-2.66128E-13
 -1      1855 2.00110E+01 9.04581E-03-3.13254E-04 5.97609E-02-4.72911E-14-2.52760E-13
 -1      1856 2.00518E+01 1.15110E-02 2.85012E-04 6.07524E-02 4.35439E-14-3.13094E-13
 -1      1857 2.00781E+01 1.43965E-02 1.17809E-03 6.84849E-02 4.55124E-15-3.47658E-13
 -1      1858 2.00449E+01 1.56691E-02-4.72559E-04 7.47073E-02 3.20605E-14-2.87575E-13
 -1      1859 2.01018E+01 1.69494E-02 4.51806E-04 8.08057E-02 7.72506E-14-2.31528E-13
 -1      1860 2.01363E+01 2.04011E-02 1.58006E-03 9.19256E-02 1.56919E-13-1.72631E-13
 -1      1861 2.00874E+01 2.35316E-02-6.55136E-04 9.79568E-02 7.51767E-14-1.78235E-13
 -1      1862 2.01669E+01 2.34142E-02 6.25691E-04 1.08987E-01 1.14461E-13-1.72172E-13
 -1      1863 2.02128E+01 2.75202E-02 2.05775E-03 1.24119E-01 1.42744E-14-1.31963E-13
 -1      1864 2.01421E+01 3.28843E-02-8.61240E-04 1.31003E-01 1.64812E-13-1.56399E-13
 -1      1865 2.02525E+01 3.10290E-02 8.03278E-04 1.46729E-01-6.71457E-14-8.35130E-14
 -1      1866 2.03132E+01 3.58351E-02 2.60814E-03 1.66554E-01-2.03710E-14-4.91047E-14
 -1      1867 2.02128E+01 4.39276E-02-1.08912E-03 1.75546E-01 3.22822E-14-1.46009E-13
 -1      1868 2.03643E+01 3.98169E-02 9.76793E-04 1.95534E-01-4.03053E-14-9.76301E-14
 -1      1869 2.04438E+01 4.52778E-02 3.21337E-03 2.20710E-01-8.93647E-14-1.67803E-13
 -1      1870 2.03042E+01 5.67298E-02-1.33391E-03 2.33381E-01-4.37151E-14-4.20495E-14
 -1      1871 2.05088E+01 4.95981E-02 1.13221E-03 2.56754E-01-1.06764E-13-1.60501E-13
 -1      1872 2.06114E+01 5.54939E-02 3.82921E-03 2.87769E-01-9.35233E-14-2.11402E-13
 -1      1873 2.04212E+01 7.10855E-02-1.58664E-03 3.06167E-01-1.16708E-13-7.90093E-14
 -1      1874 2.06929E+01 5.98162E-02 1.24744E-03 3.31200E-01-2.03696E-14-1.52319E-13
 -1      1875 2.08228E+01 6.56121E-02 4.36735E-03 3.68104E-01 6.01977E-14-1.09217E-13
 -1      1876 2.05691E+01 8.62761E-02-1.83372E-03 3.95001E-01-8.82302E-15 3.93705E-14
 -1      1877 2.09234E+01 6.92509E-02 1.29144E-03 4.18448E-01 9.29231E-14-1.44306E-13
 -1      1878 2.10841E+01 7.38731E-02 4.67032E-03 4.60390E-01 9.67442E-14-9.59587E-14
 -1      1879 2.07531E+01 1.00671E-01-2.05777E-03 4.99679E-01 5.84261E-14-3.28877E-14
 -1      1880 2.12058E+01 7.55669E-02 1.22640E-03 5.15681E-01 9.76606E-15-1.00418E-13
 -1      1881 2.13992E+01 7.70681E-02 4.48073E-03 5.60160E-01-2.20353E-14-1.03196E-13
 -1      1882 2.09777E+01 1.11101E-01-2.24037E-03 6.17481E-01 1.43439E-14-4.87760E-14
 -1      1883 2.15436E+01 7.46598E-02 1.01642E-03 6.15858E-01-3.81080E-14-9.86349E-14
 -1      1884 2.17678E+01 6.97839E-02 3.41409E-03 6.57567E-01-4.65862E-14-1.18768E-13
 -1      1885 2.12464E+01 1.11939E-01-2.36710E-03 7.41256E-01 2.90209E-14-5.33761E-14
 -1      1886 2.19353E+01 5.98514E-02 6.46400E-04 7.04999E-01-8.54538E-14-1.06724E-13
 -1      1887 2.21827E+01 4.36227E-02 9.61332E-04 7.34249E-01-1.21486E-13-4.65786E-14
 -1      1888 2.15605E+01 9.39526E-02-2.43197E-03 8.56582E-01-7.74168E-14-6.59624E-14
 -1      1889 2.23718E+01 2.12626E-02 1.49086E-04 7.58625E-01-1.63079E-13-3.78547E-14
 -1      1890 2.26250E+01-1.29727E-02-3.42331E-03 7.59612E-01-9.94160E-14-1.08090E-13
 -1      1891 2.19181E+01 4.33354E-02-2.42955E-03 9.37994E-01-1.35777E-13 2.77499E-14
 -1      1892 2.28320E+01-5.36399E-02-3.84004E-04 7.38147E-01-2.22062E-14-5.57093E-14
 -1      1893 2.30603E+01-1.12713E-01-1.00577E-02 6.88073E-01 1.72705E-13-4.90523E-14
 -1      1894 2.23123E+01-5.77835E-02-2.30740E-03 9.44865E-01-2.01464E-14 1.21973E-14
 -1      1895 2.32766E+01-1.76142E-01-8.73024E-04 5.89886E-01 1.87066E-13-1.77120E-14
 -1      1896 2.34336E+01-2.62341E-01-1.84681E-02 4.61353E-01 1.07459E-13-5.46551E-14
 -1      1897 2.27288E+01-2.26459E-01-1.83866E-03 8.19167E-01 1.38238E-13-4.04869E-14
 -1      1898 2.36411E+01-3.45536E-01-1.44170E-03 2.52766E-01 7.02433E-14-1.08920E-13
 -1      1899 2.36669E+01-4.46884E-01-2.64898E-02 2.36197E-02 1.54317E-13 1.83811E-14
 -1      1900 2.31399E+01-4.65037E-01-3.87029E-04 4.90485E-01 1.01474E-13-4.23652E-14
 -1      1901 2.38292E+01-5.28918E-01-2.76064E-03-3.15079E-01 1.76864E-13-9.34105E-15
 -1      1902 2.36635E+01-6.06246E-01-2.96389E-02-6.40155E-01 1.77787E-13-6.71052E-14
 -1      1903 2.34936E+01-7.34163E-01 3.29355E-03-1.01807E-01 1.88639E-13 1.55070E-13
 -1      1904 2.37172E+01-6.38448E-01-6.30753E-03-1.08087E+00 2.23712E-13-6.99735E-14
 -1      1905 2.33272E+01-6.22502E-01-2.23292E-02-1.43976E+00 2.94036E-14 8.99341E-14
 -1      1906 2.36981E+01-9.19920E-01 1.01552E-02-9.56250E-01 2.14824E-13 1.41005E-13
 -1      1907 2.31932E+01-5.37280E-01-1.23361E-02-1.86525E+00-8.78429E-14 6.36114E-14
 -1      1908 2.26110E+01-3.63433E-01-3.13934E-03-2.12136E+00-6.12618E-14 6.22349E-14
 -1      1909 2.36212E+01-8.36913E-01 1.76142E-02-1.92601E+00 2.44379E-14 1.77460E-13
 -1      1910 2.22546E+01-1.27723E-01-1.79191E-02-2.32264E+00 3.98737E-14 1.24163E-13
 -1      1911 2.16018E+01 1.83293E-01 1.76573E-02-2.30836E+00 4.51791E-14 1.83707E-13
 -1      1912 2.31502E+01-3.29754E-01 1.70317E-02-2.65729E+00 1.82985E-14 9.85379E-14
 -1      1913 2.11279E+01 4.88615E-01-1.46137E-02-2.09200E+00-9.93754E-14 2.23290E-13
 -1      1914 2.05872E+01 7.73976E-01 2.26638E-02-1.73483E+00-6.43912E-14 1.63730E-13
 -1      1915 2.23392E+01 5.10914E-01-2.57063E-03-2.68132E+00 1.78069E-14 2.48517E-13
 -1      1916 2.02427E+01 9.54278E-01 2.93092E-03-1.12551E+00-6.57460E-15 2.63276E-13
 -1      1917 1.99699E+01 1.01043E+00 7.72729E-03-5.67775E-01 2.46806E-13 3.20080E-13
 -1      1918 2.15267E+01 1.25309E+00-3.00251E-02-1.76589E+00 9.83467E-14 3.80477E-13
 -1      1919 1.99316E+01 9.28408E-01 2.31326E-02 1.21460E-01 3.38070E-13 3.14748E-13
 -1      1920 1.99600E+01 7.16122E-01-1.12654E-02 5.88490E-01 2.77051E-13 3.92037E-13
 -1      1921 2.11416E+01 1.40060E+00-3.62990E-02-2.88175E-01 2.48777E-13 4.96071E-13
 -1      1922 2.01425E+01 4.46005E-01 2.69214E-02 9.87615E-01 1.99811E-13 3.85008E-13
 -1      1923 2.03662E+01 1.37361E-01-1.71017E-02 1.15376E+00 3.08220E-13 5.41612E-13
 -1      1924 2.12776E+01 8.61057E-01-1.45735E-02 9.36957E-01 2.87501E-13 3.04062E-13
 -1      1925 2.05222E+01-1.15411E-01 1.05706E-02 1.13722E+00 2.13610E-13 5.58286E-13
 -1      1926 2.07765E+01-3.14397E-01-9.28812E-03 1.01772E+00 1.82593E-13 4.79712E-13
 -1      1927 2.15967E+01 5.13765E-02 1.01020E-02 1.33099E+00 3.10908E-13 4.43455E-13
 -1      1928 2.07453E+01-4.13656E-01-1.04416E-02 7.42342E-01-1.31790E-13 4.14658E-13
 -1      1929 2.09074E+01-4.30502E-01 2.06168E-03 5.06818E-01-2.64210E-13 2.78229E-13
 -1      1930 2.16995E+01-5.03707E-01 1.67792E-02 9.62519E-01-5.86532E-14 4.46456E-13
 -1      1931 2.06985E+01-3.78742E-01-2.20038E-02 2.14811E-01-2.19830E-13 9.40784E-14
 -1      1932 2.07321E+01-2.61810E-01 1.01493E-02 3.24440E-02-1.85797E-13 1.14108E-13
 -1      1933 2.14521E+01-5.86611E-01 8.76048E-03 3.12442E-01-3.93542E-13 4.23092E-13
 -1      1934 2.04488E+01-1.56980E-01-2.13386E-02-8.57338E-02-1.00646E-13 1.07036E-13
 -1      1935 2.04145E+01-2.12489E-02 1.61066E-02-1.42337E-01-1.07889E-13 1.33809E-13
 -1      1936 2.04855E+01 7.93761E-03 6.00148E-03-2.51631E-01-1.86288E-13 2.59423E-13
 -1      1937 2.09828E+01-2.87167E-01 1.43591E-02-1.43466E-01-1.88356E-13 3.44852E-13
 -1      1938 1.96214E+01 1.42046E-01 7.88529E-03 2.59039E-01 2.18457E-13 2.25582E-13
 -1      1939 1.98933E+01 2.04104E-01 1.64351E-02 4.32049E-01 2.55651E-13 3.14960E-13
 -1      1940 2.01046E+01 3.50561E-01-1.53012E-03 6.54542E-01 3.09331E-13 1.74141E-13
 -1      1941 1.93792E+01 7.19247E-02 6.94728E-03 5.60457E-02 1.73142E-13 1.04427E-13
 -1      1942 1.94941E+01 1.01812E-01 1.41948E-02 1.44579E-01 1.81672E-13 1.79874E-13
 -1      1943 1.97121E+01 1.65198E-01-1.94672E-03 2.55772E-01 2.38505E-13 9.68505E-14
 -1      1944 1.92890E+01 3.61418E-02 4.42868E-03-4.94148E-02 1.18777E-13 4.63514E-14
 -1      1945 1.93190E+01 5.19626E-02 8.33373E-03-2.20232E-03 1.31051E-13 7.51023E-14
 -1      1946 1.95120E+01 8.06841E-02-2.82656E-03 4.37699E-02 1.76739E-13 9.77343E-15
 -1      1947 1.92875E+01 1.61985E-02 2.86062E-03-1.01889E-01 7.47273E-14-2.77976E-14
 -1      1948 1.92722E+01 2.50621E-02 4.34785E-03-7.72657E-02 9.84410E-14 3.19688E-14
 -1      1949 1.94331E+01 3.74668E-02-2.84303E-03-6.81113E-02 1.12564E-13-5.06348E-14
 -1      1950 1.93348E+01 4.55620E-03 1.98555E-03-1.23952E-01 5.71973E-14-6.20261E-14
 -1      1951 1.92964E+01 9.59436E-03 2.14331E-03-1.12528E-01 4.99024E-14-4.81973E-14
 -1      1952 1.94267E+01 1.36264E-02-2.31270E-03-1.23629E-01 9.13704E-14-1.23483E-13
 -1      1953 1.94064E+01-2.24720E-03 1.44301E-03-1.28111E-01 6.67400E-14-9.72759E-14
 -1      1954 1.93578E+01 5.04828E-04 9.44899E-04-1.24627E-01 6.04103E-14-7.68918E-14
 -1      1955 1.94613E+01 2.78990E-05-1.69092E-03-1.46121E-01 7.86181E-14-1.26841E-13
 -1      1956 1.94868E+01-6.03112E-03 1.06135E-03-1.21900E-01 7.84105E-14-1.37281E-13
 -1      1957 1.94359E+01-4.70401E-03 2.71981E-04-1.23148E-01 7.99427E-14-9.57770E-14
 -1      1958 1.95169E+01-7.59580E-03-1.16806E-03-1.49041E-01 9.82717E-14-1.27203E-13
 -1      1959 1.95670E+01-7.86686E-03 7.76547E-04-1.10090E-01 3.49901E-14-1.40021E-13
 -1      1960 1.95182E+01-7.43944E-03-1.10857E-04-1.14010E-01 6.97298E-14-1.27042E-13
 -1      1961 1.95807E+01-1.15131E-02-7.76144E-04-1.40677E-01 9.10437E-14-1.40490E-13
 -1      1962 1.96417E+01-8.43486E-03 5.62007E-04-9.57723E-02 5.97041E-14-1.19513E-13
 -1      1963 1.95973E+01-8.56899E-03-3.18407E-04-1.01011E-01 6.87470E-14-1.16396E-13
 -1      1964 1.96451E+01-1.30673E-02-4.95990E-04-1.26332E-01 7.47830E-14-1.38502E-13
 -1      1965 1.97082E+01-8.18331E-03 4.02913E-04-8.09578E-02 1.07354E-13-1.27244E-13
 -1      1966 1.96694E+01-8.65638E-03-4.13734E-04-8.66178E-02 6.60326E-14-1.36982E-13
 -1      1967 1.97055E+01-1.31097E-02-3.01853E-04-1.09463E-01 1.07541E-13-1.44806E-13
 -1      1968 1.97656E+01-7.40844E-03 2.89113E-04-6.69437E-02 1.16609E-13-2.31826E-13
 -1      1969 1.97326E+01-8.07459E-03-4.35552E-04-7.24337E-02 1.47795E-13-1.56751E-13
 -1      1970 1.97598E+01-1.21956E-02-1.72376E-04-9.23263E-02 1.59814E-13-1.11470E-13
 -1      1971 1.98142E+01-6.29996E-03 2.13369E-04-5.45610E-02-5.67921E-15-2.53499E-13
 -1      1972 1.97867E+01-7.06692E-03-4.08939E-04-5.94904E-02 2.48111E-14-2.31104E-13
 -1      1973 1.98071E+01-1.06852E-02-9.16605E-05-7.63869E-02 5.74047E-14-1.35848E-13
 -1      1974 1.98551E+01-4.96902E-03 1.70808E-04-4.43494E-02-5.69240E-14-2.00145E-13
 -1      1975 1.98323E+01-5.78324E-03-3.50129E-04-4.84540E-02-4.37832E-14-2.60860E-13
 -1      1976 1.98476E+01-8.80081E-03-4.83387E-05-6.25985E-02-3.15279E-14-1.55715E-13
 -1      1977 1.98898E+01-3.46679E-03 1.58621E-04-3.66878E-02-5.50374E-14-2.01686E-13
 -1      1978 1.98707E+01-4.30320E-03-2.69145E-04-3.97729E-02-9.86906E-15-1.71308E-13
 -1      1979 1.98824E+01-6.66270E-03-3.45988E-05-5.16034E-02-5.87388E-14-1.21046E-13
 -1      1980 1.99203E+01-1.79782E-03 1.75831E-04-3.18934E-02 2.23568E-14-2.83053E-13
 -1      1981 1.99038E+01-2.65226E-03-1.71492E-04-3.37900E-02-4.08645E-14-2.75962E-13
 -1      1982 1.99129E+01-4.31316E-03-4.54582E-05-4.38830E-02 2.36844E-14-1.70845E-13
 -1      1983 1.99491E+01 6.97816E-05 2.23109E-04-3.02994E-02 5.00990E-14-1.95791E-13
 -1      1984 1.99337E+01-8.13568E-04-5.93678E-05-3.08294E-02 7.11425E-14-2.30958E-13
 -1      1985 1.99409E+01-1.73402E-03-7.82027E-05-3.98719E-02 4.29835E-14-2.05770E-13
 -1      1986 1.99789E+01 2.19583E-03 3.02583E-04-3.23130E-02-9.57709E-14-1.97064E-13
 -1      1987 1.99631E+01 1.26243E-03 6.74034E-05-3.12621E-02-3.30522E-14-1.75242E-13
 -1      1988 1.99686E+01 1.13946E-03-1.31921E-04-4.00462E-02 8.57471E-15-1.61489E-13
 -1      1989 2.00128E+01 4.66009E-03 4.17538E-04-3.84594E-02-6.59213E-14-3.39597E-14
 -1      1990 1.99948E+01 3.64966E-03 2.10551E-04-3.55556E-02-6.87580E-14-1.14330E-13
 -1      1991 1.99987E+01 4.40665E-03-2.07114E-04-4.49886E-02-1.02106E-13-1.28237E-13
 -1      1992 2.00545E+01 7.55329E-03 5.71892E-04-4.94083E-02 6.90123E-14-5.47284E-15
 -1      1993 2.00323E+01 6.43770E-03 3.72545E-04-4.43076E-02-6.20185E-15-5.52957E-16
 -1      1994 2.00342E+01 8.18939E-03-3.05345E-04-5.54335E-02-3.91739E-14-4.98399E-14
 -1      1995 2.01084E+01 1.09649E-02 7.69289E-04-6.59818E-02 2.91001E-13-1.02296E-13
 -1      1996 2.00794E+01 9.72088E-03 5.55661E-04-5.82624E-02 2.14718E-13-2.67737E-15
 -1      1997 2.00784E+01 1.26173E-02-4.28841E-04-7.22890E-02 1.92326E-13-5.00949E-14
 -1      1998 2.01793E+01 1.49642E-02 1.01155E-03-8.91337E-02 8.87751E-14-1.85137E-13
 -1      1999 2.01408E+01 1.35822E-02 7.60748E-04-7.83021E-02 2.01264E-13-9.90929E-14
 -1      2000 2.01355E+01 1.78062E-02-5.80016E-04-9.66297E-02 2.42596E-13 4.52275E-15
 -1      2001 2.02728E+01 1.95703E-02 1.29604E-03-1.19886E-01-2.07468E-13-2.48157E-13
 -1      2002 2.02217E+01 1.80681E-02 9.85510E-04-1.05403E-01-5.97084E-14-2.44711E-13
 -1      2003 2.02100E+01 2.38251E-02-7.60872E-04-1.29646E-01 8.44518E-15-2.15144E-15
 -1      2004 2.03952E+01 2.47031E-02 1.61145E-03-1.59197E-01-2.37137E-13-1.64838E-13
 -1      2005 2.03279E+01 2.31473E-02 1.22201E-03-1.40535E-01-2.46606E-13-2.84510E-13
 -1      2006 2.03070E+01 3.06414E-02-9.72233E-04-1.72525E-01-2.30772E-13-3.64462E-14
 -1      2007 2.05531E+01 3.01039E-02 1.93110E-03-2.07717E-01-1.12617E-13-1.44402E-13
 -1      2008 2.04657E+01 2.86447E-02 1.45311E-03-1.84473E-01-1.61913E-13-1.86215E-13
 -1      2009 2.04320E+01 3.80336E-02-1.21272E-03-2.26230E-01-1.83297E-13-1.78942E-13
 -1      2010 2.07532E+01 3.52110E-02 2.20332E-03-2.65378E-01 1.26806E-13 6.31908E-14
 -1      2011 2.06420E+01 3.41357E-02 1.64765E-03-2.37467E-01 1.07228E-15-7.44764E-14
 -1      2012 2.05908E+01 4.54512E-02-1.47731E-03-2.91112E-01-2.52402E-15-2.27428E-13
 -1      2013 2.10010E+01 3.89711E-02 2.33882E-03-3.30720E-01-3.97742E-14-2.30126E-14
 -1      2014 2.08628E+01 3.87831E-02 1.75453E-03-2.98699E-01 2.57797E-14 2.63393E-14
 -1      2015 2.07886E+01 5.17986E-02-1.75515E-03-3.66273E-01 5.22052E-14 2.66354E-14
 -1      2016 2.12998E+01 3.95754E-02 2.19769E-03-3.99836E-01 1.57600E-15-4.32811E-14
 -1      2017 2.11329E+01 4.11011E-02 1.69680E-03-3.65425E-01-3.14956E-14 1.67631E-14
 -1      2018 2.10296E+01 5.51206E-02-2.02560E-03-4.48571E-01-2.24096E-14 3.92355E-14
 -1      2019 2.16479E+01 3.41402E-02 1.58383E-03-4.64854E-01 7.09283E-14 1.58898E-13
 -1      2020 2.14539E+01 3.86468E-02 1.36929E-03-4.31701E-01 7.70196E-14 8.83375E-14
 -1      2021 2.13153E+01 5.21901E-02-2.25068E-03-5.31138E-01 6.73784E-14 2.48794E-13
 -1      2022 2.20358E+01 1.84430E-02 2.64207E-04-5.11919E-01-7.80391E-14 2.23625E-13
 -1      2023 2.18213E+01 2.77019E-02 6.46215E-04-4.86642E-01-2.55826E-14 1.45245E-13
 -1      2024 2.16429E+01 3.80796E-02-2.36046E-03-6.01354E-01 1.21238E-14 3.28426E-13
 -1      2025 2.24415E+01-1.29634E-02-1.95590E-03-5.19031E-01-2.74839E-14-1.14850E-13
 -1      2026 2.22211E+01 3.16154E-03-5.91596E-04-5.12369E-01-2.62883E-14 5.57865E-14
 -1      2027 2.20021E+01 5.99759E-03-2.22775E-03-6.38443E-01 4.90559E-14 7.32847E-14
 -1      2028 2.28260E+01-6.55549E-02-5.06369E-03-4.54850E-01 1.36191E-13-1.50176E-13
 -1      2029 2.26254E+01-4.08425E-02-2.39726E-03-4.82381E-01 4.30532E-14-1.70479E-13
 -1      2030 2.23725E+01-5.19239E-02-1.63007E-03-6.11449E-01 8.54043E-14-2.55355E-13
 -1      2031 2.31287E+01-1.41407E-01-8.57050E-03-2.81101E-01 1.57648E-13-4.14876E-14
 -1      2032 2.29864E+01-1.08602E-01-4.67535E-03-3.62168E-01 1.25261E-13 2.48759E-15
 -1      2033 2.27190E+01-1.41594E-01-2.17033E-04-4.79595E-01 6.65444E-14-6.00184E-14
 -1      2034 2.32676E+01-2.32385E-01-1.12464E-02 3.68299E-02 1.64125E-13 6.52000E-14
 -1      2035 2.32337E+01-1.97445E-01-7.08684E-03-1.15629E-01 2.10405E-13 9.80570E-14
 -1      2036 2.29887E+01-2.60001E-01 2.45265E-03-1.98919E-01 1.47126E-13 1.14045E-13
 -1      2037 2.31480E+01-3.11033E-01-1.12749E-02 5.05732E-01-1.69018E-13 2.24248E-13
 -1      2038 2.32755E+01-2.88986E-01-9.04106E-03 2.77737E-01 4.02629E-14 1.40647E-13
 -1      2039 2.31087E+01-3.83791E-01 6.66132E-03 2.59044E-01 4.22735E-14 4.17128E-13
 -1      2040 2.26867E+01-3.26438E-01-7.39644E-03 1.06717E+00-2.76713E-13 1.17318E-13
 -1      2041 2.30133E+01-3.41085E-01-9.80460E-03 7.92128E-01-2.63825E-13 9.75444E-14
 -1      2042 2.29931E+01-4.58781E-01 1.17874E-02 8.72392E-01-1.43524E-13 4.64477E-13
 -1      2043 2.18586E+01-2.20752E-01-9.00872E-04 1.56569E+00-9.13644E-14 3.78964E-13
 -1      2044 2.23798E+01-2.93282E-01-8.78491E-03 1.32017E+00-1.92804E-13 2.17784E-13
 -1      2045 2.25666E+01-4.05980E-01 1.53255E-02 1.52552E+00-2.67451E-13 3.10390E-13
 -1      2046 2.07567E+01 2.20115E-02 3.64374E-03 1.76905E+00-2.19299E-13 5.42406E-13
 -1      2047 2.14020E+01-1.02068E-01-4.95684E-03 1.66607E+00-1.75766E-13 3.39612E-13
 -1      2048 2.18183E+01-1.66545E-01 1.31722E-02 1.99198E+00-1.50000E-13 3.66523E-13
 -1      2049 1.96314E+01 3.17773E-01 9.40693E-04 1.49012E+00-1.09299E-13 6.82655E-13
 -1      2050 2.02605E+01 1.94714E-01 1.58022E-03 1.61562E+00-1.92394E-13 6.13079E-13
 -1      2051 2.08718E+01 2.21830E-01 3.51631E-03 2.00357E+00-2.81955E-13 5.46764E-13
 -1      2052 1.88221E+01 5.04925E-01-7.28915E-03 7.60181E-01 8.25728E-14 4.76752E-13
 -1      2053 1.92681E+01 4.56912E-01 9.19648E-03 1.09238E+00 2.58179E-14 6.60117E-13
 -1      2054 2.00000E+01 5.87985E-01-9.47267E-03 1.43327E+00 7.42878E-14 5.81224E-13
 -1      2055 1.85708E+01 4.62689E-01-1.21920E-02-1.16710E-01 1.24579E-13 6.94597E-13
 -1      2056 1.87204E+01 5.24001E-01 1.43351E-02 2.75669E-01 1.48020E-13 5.65138E-13
 -1      2057 1.95011E+01 7.24633E-01-1.40593E-02 4.61490E-01 1.37085E-13 7.26020E-13
 -1      2058 1.88437E+01 2.30085E-01-7.71792E-03-7.45415E-01 4.76459E-14 5.48790E-13
 -1      2059 1.87081E+01 3.57721E-01 1.35559E-02-4.69409E-01 8.56398E-14 6.09707E-13
 -1      2060 1.94865E+01 5.50030E-01-6.73327E-03-4.74287E-01 1.12785E-13 8.38818E-13
 -1      2061 1.93630E+01-2.84225E-02 2.65433E-03-9.20166E-01 2.20471E-13 4.09905E-13
 -1      2062 1.90665E+01 8.31838E-02 6.79334E-03-8.42934E-01 1.34260E-13 5.44053E-13
 -1      2063 1.97947E+01 1.91071E-01 3.64534E-03-9.80158E-01 1.08984E-13 5.97514E-13
 -1      2064 1.98202E+01-1.69759E-01 1.14127E-02-7.26060E-01 5.59513E-14 3.59171E-13
 -1      2065 1.95169E+01-1.26801E-01-1.28560E-03-8.03358E-01 1.28437E-13 3.80578E-13
 -1      2066 2.01393E+01-1.28229E-01 6.29225E-03-9.71381E-01 1.15843E-13 5.60585E-13
 -1      2067 2.00545E+01-1.61560E-01 1.46677E-02-4.12082E-01 1.67895E-14 5.05095E-13
 -1      2068 1.98418E+01-1.84254E-01-5.79270E-03-5.33392E-01 9.12126E-14 4.07700E-13
 -1      2069 2.03163E+01-2.54371E-01 3.32386E-03-6.53597E-01 9.01605E-14 4.70655E-13
 -1      2070 2.00778E+01-7.14689E-02 1.18664E-02-1.90096E-01 2.13929E-13 4.43516E-13
 -1      2071 1.99770E+01-1.20853E-01-5.83627E-03-2.66039E-01 1.61240E-13 5.03703E-13
 -1      2072 2.02888E+01-1.99013E-01-1.36170E-03-3.16600E-01 1.40755E-13 6.92335E-13
 -1      2073 2.00426E+01-2.69547E-02 8.21141E-03-1.10887E-01 1.59612E-14 3.83448E-13
 -1      2074 2.00084E+01-5.67235E-02-4.71149E-03-1.43561E-01 1.57326E-13 4.14471E-13
 -1      2075 2.01942E+01-1.13252E-01-4.86375E-03-1.46998E-01 2.71397E-13 6.89100E-13
 -1      2076 2.01153E+01-2.87137E-02 1.28053E-02-9.55985E-02 1.72834E-13 6.57573E-13
 -1      2077 2.08348E+01 9.29321E-01 3.11587E-02 1.77996E+00 4.61053E-13-1.66528E-13
 -1      2078 2.07825E+01 3.92108E-01 5.17454E-03 1.32688E+00 4.58245E-13-2.01126E-13
 -1      2079 2.06739E+01 2.92120E-01 3.20004E-02 8.19900E-01 4.90806E-13 4.27956E-15
 -1      2080 2.05365E+01 2.00076E-02 1.65881E-03 4.85166E-01 4.20951E-13 4.56142E-13
 -1      2081 2.10846E+01-2.19484E-02-1.10793E-02 1.29050E+00 3.07182E-13-1.05298E-13
 -1      2082 2.03908E+01 3.99077E-02 2.44114E-02 2.00585E-01 4.89995E-13 5.82879E-13
 -1      2083 2.02464E+01-4.48327E-02 4.55288E-03 3.06998E-02 3.07830E-13 4.61096E-13
 -1      2084 2.03143E+01-7.64595E-02-7.28316E-04 1.96199E-02 3.72396E-13 6.85653E-13
 -1      2085 2.07346E+01-1.12948E-01 9.88681E-04 4.53507E-01 3.25532E-13 4.20804E-13
 -1      2086 2.06601E+01 2.01309E+00 8.30014E-03 2.74189E+00 2.86406E-13-8.68316E-14
 -1      2087 2.07965E+01 1.24048E+00 1.42206E-02 2.34598E+00 3.06269E-13 6.74235E-14
 -1      2088 2.11856E+01 3.99735E-01-1.96773E-02 2.48955E+00 2.83996E-13-2.35026E-13
 -1      2089 2.00447E+01 3.52323E+00-2.62964E-02 3.26483E+00 4.08625E-13 3.87190E-13
 -1      2090 2.04188E+01 2.60624E+00 2.32096E-02 3.13959E+00 3.12462E-13 2.38213E-13
 -1      2091 2.07509E+01 1.28884E+00-2.21630E-02 3.58914E+00 1.11430E-13 2.13356E-13
 -1      2092 1.91220E+01 5.13469E+00-5.26985E-02 2.80427E+00 2.87138E-13 7.40831E-14
 -1      2093 1.96130E+01 4.32516E+00 2.41738E-02 3.16209E+00 2.53308E-13 1.80939E-13
 -1      2094 1.97058E+01 2.66092E+00-4.92480E-04 3.97090E+00 1.61102E-13 1.89447E-13
 -1      2095 1.83917E+01 6.25961E+00-4.78680E-02 1.21208E+00 2.70049E-13-7.68101E-14
 -1      2096 1.87042E+01 5.83281E+00 3.92112E-03 2.02942E+00 2.57835E-13 1.70496E-13
 -1      2097 1.84099E+01 4.15200E+00 4.61431E-02 3.01931E+00 1.65605E-13 5.08482E-14
 -1      2098 1.83828E+01 6.32489E+00-1.46864E-02-9.39132E-01 2.15990E-14-4.05103E-13
 -1      2099 1.82795E+01 6.44540E+00-3.20591E-02 1.36658E-03 2.80337E-13-1.31943E-13
 -1      2100 1.76114E+01 5.04058E+00 8.23796E-02 7.62187E-01-9.54263E-14-7.04957E-14
 -1      2101 1.90962E+01 5.25841E+00 1.53030E-02-2.63195E+00-2.51087E-13-8.59816E-13
 -1      2102 1.86685E+01 5.87234E+00-5.38071E-02-2.00380E+00-6.49064E-14-8.27408E-13
 -1      2103 1.78707E+01 4.76870E+00 6.98942E-02-1.84572E+00-2.55207E-13-7.29854E-13
 -1      2104 2.00044E+01 3.62637E+00 2.48702E-02-3.22450E+00-3.08226E-13-6.68386E-13
 -1      2105 1.95465E+01 4.48662E+00-4.33766E-02-3.09917E+00-1.41696E-13-7.46538E-13
 -1      2106 1.89897E+01 3.54707E+00 2.73293E-02-3.56322E+00-1.96477E-13-8.89216E-13
 -1      2107 2.06331E+01 2.03879E+00 1.87784E-02-2.79995E+00-1.90230E-13 1.93720E-13
 -1      2108 2.03645E+01 2.90496E+00-1.07581E-02-3.07421E+00-1.33565E-13-1.44711E-13
 -1      2109 2.02220E+01 2.06732E+00-1.40530E-02-3.87029E+00-2.73314E-14-3.54888E-13
 -1      2110 2.08090E+01 9.12267E-01 9.12634E-03-1.85347E+00-2.92047E-13 3.01665E-13
 -1      2111 2.07740E+01 1.58219E+00 2.04503E-02-2.29423E+00-2.75051E-13 1.04316E-13
 -1      2112 2.10008E+01 9.10420E-01-2.35628E-02-3.09275E+00 2.97314E-14 4.30316E-14
 -1      2113 2.06397E+01 3.12045E-01 3.27514E-03-9.00411E-01-4.83657E-13 3.42983E-13
 -1      2114 2.07531E+01 7.12875E-01 3.10720E-02-1.30666E+00-3.95016E-13 3.31552E-13
 -1      2115 2.11555E+01 2.61556E-01-1.46427E-02-1.90358E+00-3.79638E-13 3.47476E-13
 -1      2116 1.15107E+01-6.31058E+00-1.74580E-01 7.57921E+00-3.23297E-13-5.22936E-13
 -1      2117 7.46097E+00-8.06434E+00-4.47359E-01 6.17293E+00-1.97620E-13-6.39433E-13
 -1      2118 5.57539E-01-8.59973E+00-5.10795E-01 1.08387E+00-2.49412E-13-3.54772E-13
 -1      2119 5.98450E-01-7.87892E+00-4.03183E-01-8.57616E-01 1.00864E-13-5.67157E-13
 -1      2120 3.69546E+00-7.76769E+00-3.74961E-01 4.81804E+00-2.71561E-13-4.06897E-13
 -1      2121 1.55823E+00-9.00609E+00-5.66028E-01 2.96386E+00-3.51025E-13-3.22742E-13
 -1      2122 2.08579E+01-3.76228E+00 1.87410E-02 8.05141E+00-6.35825E-13-5.57332E-14
 -1      2123 1.59015E+01-6.13261E+00-3.32628E-01 7.23386E+00-4.81726E-13-1.60566E-13
 -1      2124 2.99562E+01-1.03170E+00 1.51073E-01 6.62506E+00-5.60829E-13-6.25056E-14
 -1      2125 2.48146E+01-3.00760E+00-1.40112E-01 6.71320E+00-6.69520E-13-8.27116E-14
 -1      2126 1.95240E+01 4.01766E+00-2.49879E-02-1.69951E+00-2.99409E-13-4.21349E-13
 -1      2127 1.96482E+01 3.94393E+00-2.46553E-02-1.95584E+00-3.42577E-13-3.48974E-13
 -1      2128 1.99643E+01 3.23748E+00-1.87404E-02-1.92534E+00-3.69570E-13-2.87688E-13
 -1      2129 1.96951E+01 3.58957E+00-6.67702E-03-1.51984E+00-3.02023E-13-4.16929E-13
 -1      2130 4.18545E+01 6.35319E+00 3.83692E-01 2.71216E+00 3.47944E-13-1.18905E-12
 -1      2131 3.90234E+01 5.30591E+00 2.23161E-01 3.65920E+00 8.97615E-14-8.47100E-13
 -1      2132 4.09964E+01 7.95656E+00 1.72102E-01 6.84651E-01 2.22544E-13-1.05375E-12
 -1      2133 4.24886E+01 7.59814E+00 4.74139E-01 1.97562E+00 3.27849E-13-1.04322E-12
 -1      2134 3.76517E+01 7.57791E+00 3.55199E-01 5.99121E-01 3.45779E-13-8.03108E-13
 -1      2135 4.11102E+01 6.45568E+00 3.72928E-01-8.82687E-01 6.89448E-14-1.04428E-12
 -1      2136 4.12546E+01 7.42326E+00 2.33289E-01 5.44270E-01 7.14984E-14-1.02990E-12
 -1      2137 3.60963E+01 3.20614E+00 8.92616E-02-2.54895E+00 2.38476E-13-7.78266E-13
 -1      2138 3.97145E+01 4.67329E+00 3.25980E-01-1.74183E+00 1.34642E-13-9.08384E-13
 -1      2139 2.91717E+01-8.31388E-01-7.86664E-02-4.40464E+00 4.39426E-13-6.02518E-13
 -1      2140 3.40106E+01 1.13921E+00 2.38889E-01-4.04585E+00 3.50386E-13-6.44484E-13
 -1      2141 2.13831E+01-4.42381E+00-1.12171E-01-5.80545E+00 4.06120E-13-4.17721E-13
 -1      2142 2.60849E+01-2.17247E+00 1.55572E-01-6.00707E+00 4.43812E-13-4.44422E-13
 -1      2143 1.13585E+01-7.08667E+00-3.89426E-01-5.85358E+00 4.40981E-13-5.74998E-13
 -1      2144 1.62639E+01-5.45855E+00-1.31253E-01-6.69113E+00 4.40759E-13-6.18949E-13
 -1      2145 4.83589E+00-8.12876E+00-3.61722E-01-4.64491E+00 5.18585E-13-2.62845E-13
 -1      2146 8.09057E+00-6.84806E+00-1.62274E-01-5.94211E+00 5.62661E-13-4.64254E-13
 -1      2147 2.92726E-01-8.86246E+00-4.27079E-01-1.75283E+00 4.17055E-13-2.94209E-13
 -1      2148 1.70154E+00-8.19443E+00-3.44817E-01-3.18980E+00 5.51392E-13-1.63591E-13
 -1      2149 8.85585E-01-7.62632E+00-2.43026E-01 1.84976E+00 2.48551E-13-6.07958E-13
 -1      2150 2.34936E-01-8.09883E+00-3.26964E-01 5.43224E-02 3.68726E-13-5.07927E-13
 -1      2151 5.10382E+00-7.78679E+00-3.17721E-01 4.73104E+00 9.05942E-14-3.31762E-13
 -1      2152 2.46939E+00-8.63594E+00-4.15199E-01 3.50683E+00 4.04010E-13-4.91551E-13
 -1      2153 1.31941E+01-6.02294E+00-1.23688E-01 6.53495E+00 2.44693E-13-4.30378E-13
 -1      2154 8.67976E+00-7.86367E+00-4.39331E-01 5.30875E+00 1.93956E-13-1.58238E-13
 -1      2155 2.28141E+01-3.53120E+00 4.97144E-02 6.24334E+00-4.73510E-14 2.34257E-14
 -1      2156 1.78853E+01-5.61238E+00-2.63880E-01 5.77578E+00 2.24654E-13-2.11331E-13
 -1      2157 3.12281E+01-1.73602E-01 2.12876E-01 4.89226E+00-6.99718E-14-7.60170E-13
 -1      2158 2.63199E+01-2.22647E+00-1.46783E-01 4.84209E+00-4.07452E-14-3.36620E-13
 -1      2159 3.75732E+01 2.98215E+00 3.07299E-01 2.64398E+00-1.66117E-14-9.07496E-13
 -1      2160 3.35410E+01 1.38200E+00 2.11496E-02 3.25781E+00-7.13318E-15-7.79377E-13
 -1      2161 4.19120E+01 5.75147E+00 4.04705E-01 9.23700E-01-2.80886E-13-7.14817E-13
 -1      2162 3.89791E+01 4.61509E+00 1.80878E-01 1.95333E+00-1.58845E-13-7.91367E-13
 -1      2163 3.60939E+01 3.42163E+00 3.02541E-01-4.17105E-01 2.98928E-14-6.23168E-13
 -1      2164 4.28071E+01 7.62698E+00 3.38642E-01-1.13113E+00 7.04992E-14-8.08267E-13
 -1      2165 4.25107E+01 7.20137E+00 3.86750E-01 7.80516E-02-7.19980E-14-7.22145E-13
 -1      2166 4.16918E+01 6.98784E+00 3.15006E-01-2.55434E+00 2.18714E-14-6.58251E-13
 -1      2167 4.25345E+01 7.57720E+00 3.50367E-01-1.39621E+00-2.05391E-14-6.79540E-13
 -1      2168 3.80434E+01 4.70088E+00 1.91346E-01-3.83137E+00 5.16059E-13-6.36713E-13
 -1      2169 4.14555E+01 5.89681E+00 4.36100E-01-3.22093E+00 3.25073E-13-7.02605E-13
 -1      2170 3.77586E+01 6.89476E+00 3.39943E-01-7.57059E-01 1.21458E-13-5.06817E-13
 -1      2171 3.17622E+01 3.99256E-01 1.99010E-02-5.39379E+00 3.89994E-13-6.31273E-13
 -1      2172 3.61443E+01 2.34727E+00 3.16267E-01-5.07825E+00 4.53207E-13-5.87641E-13
 -1      2173 2.33150E+01-3.25185E+00-1.86926E-01-6.98532E+00 2.63900E-13-7.91034E-13
 -1      2174 2.85118E+01-1.17448E+00 1.60170E-01-7.21818E+00 3.84304E-13-8.03912E-13
 -1      2175 1.46423E+01-6.37113E+00-3.78349E-01-7.12186E+00 6.68354E-13-4.57911E-13
 -1      2176 1.94285E+01-4.07143E+00 7.65013E-03-8.04202E+00 4.16001E-13-4.80838E-13
 -1      2177 7.54738E+00-7.99538E+00-4.12437E-01-6.22293E+00 4.57079E-13-3.06533E-13
 -1      2178 1.11338E+01-6.46370E+00-1.72861E-01-7.37059E+00 5.84421E-13-3.78649E-13
 -1      2179 2.37602E+00-7.83321E+00-3.82200E-01-3.46692E+00 1.89043E-13-5.67824E-13
 -1      2180 4.52445E+00-7.30493E+00-2.90092E-01-5.22096E+00 2.57794E-13-4.99323E-13
 -1      2181 3.77978E+01 3.52314E+00 4.06393E-01 4.93211E+00-1.67632E-13-3.46057E-13
 -1      2182 3.30633E+01 1.47772E+00 3.34112E-02 4.99872E+00-3.38757E-13-2.12608E-13
 -1      2183 2.52730E+01-5.09418E+00 9.41598E-02 6.78623E+00-5.62328E-13-5.26801E-14
 -1      2184 2.07369E+01 1.10846E+00-2.09082E-02-1.61533E+00-3.59202E-13 3.40145E-13
 -1      2185 3.21694E+01-1.49574E+00 1.15932E-01 3.86108E+00-4.74010E-13 3.70814E-14
 -1      2186 3.65217E+01 3.84722E+00 3.07400E-01 1.57584E+00 9.63951E-14-7.99860E-13
 -1      2187 2.06282E+01 1.33220E+00-1.78609E-02-1.67697E+00-3.91090E-13 1.42540E-13
 -1      2188 7.71635E+00-6.39719E+00-1.75820E-01 6.72412E+00-1.53655E-13-4.12226E-13
 -1      2189 2.63888E+00-5.66854E+00-2.45836E-01 2.63923E+00-1.94872E-13-3.71037E-13
 -1      2190 2.06424E+01 1.60558E-01 9.29580E-03-6.97704E-01-2.82904E-13 4.15815E-13
 -1      2191 1.64616E+01-6.61563E+00-7.25886E-02 8.11101E+00-1.91069E-13-3.02838E-13
 -1      2192 3.22876E+00-5.20601E+00-1.62983E-01-2.69409E+00 4.20219E-14-6.83120E-13
 -1      2193 8.41585E+00-6.11239E+00-1.40280E-01-6.86059E+00 2.19880E-13-4.10061E-13
 -1      2194 1.56405E+01-6.74887E+00-1.26008E-01-8.08150E+00 5.39624E-13-4.78152E-13
 -1      2195 2.38235E+01-5.30887E+00 3.41087E-02-7.14388E+00 2.32425E-13-5.42177E-13
 -1      2196 3.59263E+01 2.66543E+00 2.45426E-01-1.83692E+00 3.24824E-13-5.06539E-13
 -1      2197 3.81589E+01 7.04132E+00 3.53218E-01-1.02097E+00-1.31839E-13-6.18922E-13
 -1      2198 3.25645E+01-7.77810E-01 1.76008E-01 1.56381E+00-2.83246E-14-7.76157E-13
 -1      2199 2.64730E+01-4.48448E+00 5.77018E-02 4.26607E+00 9.65894E-14-3.62266E-13
 -1      2200 1.78928E+01-6.67128E+00-3.58513E-02 6.32876E+00 3.62488E-13-1.83131E-13
 -1      2201 9.10271E+00-6.99706E+00-1.48053E-01 6.26076E+00 2.10498E-13-1.90514E-13
 -1      2202 3.11604E+00-6.07187E+00-1.66346E-01 3.30956E+00 4.15779E-13-4.49585E-13
 -1      2203 1.52152E+00-5.73148E+00-1.60709E-01-1.00554E+00 2.92467E-13-4.82447E-13
 -1      2204 5.01185E+00-6.38238E+00-1.34271E-01-5.02602E+00 4.52416E-13-2.56239E-13
 -1      2205 1.20045E+01-6.79435E+00-9.99475E-02-6.74274E+00 3.36398E-13-3.78877E-13
 -1      2206 2.03059E+01-5.65365E+00-3.75312E-02-6.05444E+00 3.09974E-13-3.35926E-13
 -1      2207 2.37146E+01-6.21251E+00-2.00541E-01-5.10062E+00 1.15241E-13-1.12743E-13
 -1      2208 1.95145E+01-6.43254E+00 1.36639E-01-6.32190E+00 1.93012E-13-2.85126E-13
 -1      2209 2.89971E+01-3.17272E+00 9.54735E-02-3.35566E+00 2.25903E-13-3.58935E-13
 -1      2210 3.42218E+01 1.20783E+00 2.07362E-01-7.19755E-01 2.03441E-13-5.42455E-13
 -1      2211 3.52036E+01 7.76736E+00 3.51006E-03 1.24964E+00-2.94209E-14-8.04898E-13
 -1      2212 3.90280E+01 8.05899E+00 2.79293E-01 8.87081E-01 8.91509E-14-9.08149E-13
 -1      2213 3.48947E+01 8.27540E+00-3.44409E-02 9.68940E-01 1.45717E-13-8.86001E-13
 -1      2214 3.71134E+01 5.72812E+00 2.93400E-01 8.37724E-01-4.58522E-14-7.57616E-13
 -1      2215 3.82542E+01 8.49635E+00 3.34797E-01-9.40304E-01-8.30447E-14-3.63494E-13
 -1      2216 3.11565E+01-2.10328E+00 1.71468E-01-4.57511E+00 2.78749E-13-5.03320E-13
 -1      2217 2.01491E+01 5.06456E-01 3.73730E-03 6.77579E-01 3.01089E-13 1.13295E-14
 -1      2218 2.04169E+01 6.99988E-01 2.07903E-02 9.69191E-01 3.38521E-13 5.07437E-14
 -1      2219 1.95591E+01 3.51615E+00-1.11161E-02-5.91309E-01-1.31320E-13-4.95191E-13
 -1      2220 1.95947E+01 3.47010E+00-1.05063E-02-7.75698E-01-1.78475E-13-4.89764E-13
 -1      2221 1.96418E+01 3.38149E+00-1.27991E-02-9.39921E-01-2.06892E-13-4.74591E-13
 -1      2222 1.97029E+01 3.30087E+00-1.27714E-02-1.12983E+00-2.52038E-13-4.43508E-13
 -1      2223 1.97862E+01 3.03334E+00 2.91202E-04-7.91602E-01-1.84628E-13-4.44200E-13
 -1      2224 1.95117E+01 3.59871E+00-9.61756E-03 9.94479E-02 1.59571E-14-5.18473E-13
 -1      2225 1.95110E+01 3.59952E+00-9.62438E-03-8.00399E-02-2.68787E-14-5.08142E-13
 -1      2226 1.95378E+01 3.55932E+00-9.72132E-03 4.45497E-01 8.76653E-14-5.38041E-13
 -1      2227 1.95204E+01 3.58188E+00-1.01374E-02 2.64667E-01 5.11336E-14-5.35543E-13
 -1      2228 1.96778E+01 3.22144E+00-9.00713E-04 1.69595E-01 3.01810E-14-4.97160E-13
 -1      2229 1.95999E+01 3.46280E+00-1.06096E-02 7.89442E-01 1.68117E-13-5.24273E-13
 -1      2230 1.95635E+01 3.50980E+00-1.12108E-02 6.08014E-01 1.19366E-13-5.33111E-13
 -1      2231 1.97147E+01 3.15794E+00-5.02424E-04 4.88022E-01 9.67795E-14-5.01895E-13
 -1      2232 1.97109E+01 3.28903E+00-1.29519E-02 1.14277E+00 2.49602E-13-4.85395E-13
 -1      2233 1.96481E+01 3.37237E+00-1.28832E-02 9.53505E-01 2.08816E-13-5.04927E-13
 -1      2234 1.97920E+01 3.02426E+00 2.52584E-04 8.03660E-01 1.83744E-13-4.77716E-13
 -1      2235 1.98906E+01 3.00345E+00-1.81705E-02 1.48984E+00 3.32265E-13-4.07793E-13
 -1      2236 1.97908E+01 3.14473E+00-1.51825E-02 1.29943E+00 2.79982E-13-4.54498E-13
 -1      2237 1.99216E+01 2.79910E+00 1.94154E-03 1.10991E+00 2.63627E-13-4.31545E-13
 -1      2238 2.01694E+01 2.54393E+00-2.83937E-02 1.79416E+00 4.02539E-13-2.90845E-13
 -1      2239 2.00180E+01 2.78329E+00-1.70952E-02 1.61970E+00 3.54203E-13-3.49890E-13
 -1      2240 2.01167E+01 2.44850E+00 5.85272E-03 1.37569E+00 3.39720E-13-3.50645E-13
 -1      2241 1.98721E+01 2.68249E-01 4.72644E-03 2.85034E-01 2.49242E-13-5.06895E-14
 -1      2242 2.00327E+01 3.68008E-01 2.01683E-02 4.42197E-01 2.71143E-13 3.46945E-16
 -1      2243 2.02115E+01 6.34653E-01-2.22164E-03 7.04447E-01 3.24038E-13-1.15405E-13
 -1      2244 2.04027E+01 8.55648E-01 1.35227E-02-9.99200E-01-3.39481E-13 2.05517E-14
 -1      2245 2.01902E+01 6.26974E-01-4.68002E-03-6.91356E-01-3.23084E-13 1.62847E-15
 -1      2246 3.26772E+01-9.31804E-01-5.05157E-02 2.05206E+00-3.74707E-13-4.03622E-13
 -1      2247 3.01286E+01-3.37692E+00-4.26234E-03 3.36469E+00-6.26929E-13-6.12566E-14
 -1      2248 2.01251E+01 4.69843E-01 1.62009E-02-4.74447E-01-2.96211E-13 2.77652E-14
 -1      2249 1.99844E+01 3.44425E-01 8.49200E-05-3.03050E-01-2.35258E-13 1.69600E-14
 -1      2250 2.02457E+01 7.49380E-01-6.71161E-04-6.93519E-01-3.08461E-13-6.21657E-14
 -1      2251 1.99209E+01 2.59384E-01 1.08805E-02-1.65802E-01-2.03763E-13 1.51400E-14
 -1      2252 1.98422E+01 1.87867E-01 7.24731E-04-6.86653E-02-1.75646E-13-3.22639E-14
 -1      2253 2.00811E+01 4.16012E-01-3.62575E-03-3.10188E-01-2.45261E-13-4.08172E-14
 -1      2254 1.97977E+01 1.38350E-01 6.40289E-03 1.32972E-02-1.42830E-13-4.53733E-14
 -1      2255 1.97626E+01 9.59830E-02 7.16123E-04 6.65005E-02-1.22175E-13-5.73887E-14
 -1      2256 1.99601E+01 2.27004E-01-3.60593E-03-7.13390E-02-1.80321E-13-8.38394E-14
 -1      2257 1.97366E+01 6.60498E-02 3.57880E-03 1.12087E-01-1.35951E-13-8.60430E-14
 -1      2258 1.97291E+01 4.04687E-02 6.08891E-04 1.38519E-01-1.22951E-13-1.03023E-13
 -1      2259 1.98841E+01 1.14501E-01-2.92438E-03 6.91128E-02-1.64805E-13-9.93058E-14
 -1      2260 1.97174E+01 2.21594E-02 1.85602E-03 1.60597E-01-9.74407E-14-1.00350E-13
 -1      2261 1.97263E+01 6.84714E-03 4.84835E-04 1.70549E-01-8.81718E-14-1.02869E-13
 -1      2262 1.98443E+01 4.62538E-02-2.11559E-03 1.45018E-01-1.15002E-13-1.06045E-13
 -1      2263 1.97242E+01-4.12286E-03 7.93418E-04 1.77717E-01-8.56373E-14-7.53021E-14
 -1      2264 1.97421E+01-1.28690E-02 3.67582E-04 1.77688E-01-8.68908E-14-5.93718E-14
 -1      2265 1.98299E+01 5.00919E-03-1.42914E-03 1.79204E-01-8.34815E-14-1.23393E-13
 -1      2266 1.97460E+01-1.90456E-02 1.43749E-04 1.75754E-01-1.32988E-13-2.40086E-14
 -1      2267 1.97679E+01-2.35060E-02 2.69713E-04 1.69976E-01-1.20724E-13-4.96153E-14
 -1      2268 1.98321E+01-1.89694E-02-9.10166E-04 1.87142E-01-9.91834E-14-8.22244E-14
 -1      2269 1.97752E+01-2.65060E-02-2.38968E-04 1.62869E-01-8.35778E-14-5.04586E-14
 -1      2270 1.97979E+01-2.81542E-02 1.97277E-04 1.54144E-01-4.52600E-14-7.35564E-14
 -1      2271 1.98441E+01-3.16549E-02-5.41861E-04 1.79332E-01-1.11120E-13-4.90706E-14
 -1      2272 1.98069E+01-2.90467E-02-4.45734E-04 1.44524E-01-5.43689E-14-5.32722E-14
 -1      2273 1.98287E+01-2.88596E-02 1.51180E-04 1.34715E-01-4.64933E-14-8.39060E-14
 -1      2274 1.98612E+01-3.68933E-02-2.93194E-04 1.62905E-01-5.25322E-14-7.69266E-14
 -1      2275 1.98381E+01-2.83623E-02-5.36851E-04 1.24375E-01-3.07283E-14-4.97821E-14
 -1      2276 1.98581E+01-2.69879E-02 1.30331E-04 1.14718E-01 3.03195E-14-8.33349E-15
 -1      2277 1.98805E+01-3.72312E-02-1.35120E-04 1.42701E-01-4.00511E-14-1.43529E-14
 -1      2278 1.98674E+01-2.55767E-02-5.53618E-04 1.04860E-01 1.45656E-14-3.99120E-14
 -1      2279 1.98852E+01-2.34311E-02 1.33808E-04 9.61755E-02-1.60504E-14-2.66930E-14
 -1      2280 1.99001E+01-3.43611E-02-4.43341E-05 1.21989E-01 8.08170E-15-5.40322E-14
 -1      2281 1.98940E+01-2.14058E-02-5.24588E-04 8.76121E-02-8.68825E-14-4.65524E-14
 -1      2282 1.99099E+01-1.87346E-02 1.61764E-04 8.04566E-02-5.45402E-14-1.13298E-13
 -1      2283 1.99189E+01-2.93772E-02-3.32725E-06 1.02979E-01-6.04629E-14-1.34578E-13
 -1      2284 1.99181E+01-1.62631E-02-4.69386E-04 7.37578E-02-2.08923E-14-1.60023E-13
 -1      2285 1.99324E+01-1.31825E-02 2.15723E-04 6.85365E-02-6.73989E-14-1.99358E-13
 -1      2286 1.99367E+01-2.29348E-02 5.20259E-07 8.71902E-02-8.37599E-14-1.08131E-13
 -1      2287 1.99403E+01-1.03311E-02-4.01305E-04 6.41429E-02-9.95228E-14-2.32520E-13
 -1      2288 1.99537E+01-6.85762E-03 2.98619E-04 6.11960E-02-1.28782E-13-2.37472E-13
 -1      2289 1.99537E+01-1.53578E-02-2.39475E-05 7.57379E-02-1.10970E-13-1.45023E-13
 -1      2290 1.99617E+01-3.61377E-03-3.29177E-04 5.95047E-02-1.29250E-13-2.35457E-13
 -1      2291 1.99749E+01 3.14392E-04 4.14685E-04 5.91732E-02-9.69138E-14-1.69627E-13
 -1      2292 1.99705E+01-6.71472E-03-7.07668E-05 6.95413E-02-1.44894E-13-1.70862E-13
 -1      2293 1.99834E+01 4.02504E-03-2.58730E-04 6.06043E-02-1.49297E-13-1.74980E-13
 -1      2294 1.99977E+01 8.53066E-03 5.69235E-04 6.32808E-02-1.16005E-13-2.12928E-13
 -1      2295 1.99877E+01 3.12482E-03-1.36065E-04 6.94884E-02-1.27118E-13-2.10810E-13
 -1      2296 2.00073E+01 1.28294E-02-1.93623E-04 6.83271E-02-3.23566E-14-2.62352E-13
 -1      2297 2.00238E+01 1.80812E-02 7.68304E-04 7.44941E-02-2.41715E-14-2.68643E-13
 -1      2298 2.00067E+01 1.44449E-02-2.17277E-04 7.65598E-02-9.94312E-14-2.40012E-13
 -1      2299 2.00351E+01 2.31221E-02-1.36238E-04 8.37570E-02-2.49381E-14-2.11898E-13
 -1      2300 2.00553E+01 2.93188E-02 1.01805E-03 9.40118E-02 1.27661E-14-2.79989E-13
 -1      2301 2.00286E+01 2.76428E-02-3.12429E-04 9.19183E-02-5.23359E-15-1.41761E-13
 -1      2302 2.00692E+01 3.52724E-02-8.82622E-05 1.08221E-01 7.87919E-14-1.78747E-13
 -1      2303 2.00947E+01 4.26224E-02 1.32374E-03 1.23287E-01 1.49136E-13-1.00890E-13
 -1      2304 2.00551E+01 4.31868E-02-4.19475E-04 1.16968E-01 9.12858E-14-1.66388E-13
 -1      2305 2.01120E+01 4.96525E-02-5.10166E-05 1.43303E-01 1.79831E-13-8.41183E-14
 -1      2306 2.01449E+01 5.83428E-02 1.68810E-03 1.64020E-01 1.83089E-13-1.07554E-13
 -1      2307 2.00879E+01 6.15603E-02-5.35637E-04 1.53374E-01 1.59892E-13-1.04226E-13
 -1      2308 2.01667E+01 6.65702E-02-2.54701E-05 1.90809E-01 1.36978E-13-1.85559E-13
 -1      2309 2.02089E+01 7.67162E-02 2.10861E-03 2.18095E-01 5.62933E-14-1.20925E-13
 -1      2310 2.01290E+01 8.31804E-02-6.56868E-04 2.03038E-01 1.24558E-13-1.77981E-13
 -1      2311 2.02363E+01 8.61596E-02-1.16974E-05 2.52666E-01-3.16280E-14-5.64603E-14
 -1      2312 2.02904E+01 9.77211E-02 2.57331E-03 2.87428E-01-5.92814E-14-7.99535E-14
 -1      2313 2.01806E+01 1.08265E-01-7.77666E-04 2.68004E-01 1.43062E-14-2.04451E-13
 -1      2314 2.03245E+01 1.08199E-01-7.36016E-06 3.30714E-01-8.32868E-14-6.59766E-14
 -1      2315 2.03929E+01 1.20839E-01 3.05433E-03 3.73682E-01-6.36159E-14-3.74890E-14
 -1      2316 2.02450E+01 1.36615E-01-8.91762E-04 3.50263E-01-8.91070E-14-8.49242E-14
 -1      2317 2.04350E+01 1.31805E-01-4.47496E-06 4.26322E-01 1.81441E-14 3.50991E-14
 -1      2318 2.05202E+01 1.44663E-01 3.49825E-03 4.77763E-01 6.08182E-14 1.27811E-13
 -1      2319 2.03247E+01 1.67254E-01-9.94623E-04 4.51397E-01-2.81015E-14 3.64989E-14
 -1      2320 2.05718E+01 1.54943E-01 1.66650E-05 5.39748E-01-2.19329E-14 1.63377E-13
 -1      2321 2.06760E+01 1.66264E-01 3.81263E-03 5.98982E-01 4.16501E-14 5.70903E-14
 -1      2322 2.04223E+01 1.97843E-01-1.08935E-03 5.72000E-01 2.43341E-14 1.18225E-13
 -1      2323 2.07388E+01 1.73647E-01 9.78908E-05 6.69087E-01 3.58341E-14 4.48273E-14
 -1      2324 2.08638E+01 1.80231E-01 3.84855E-03 7.33725E-01-2.21648E-14 4.09238E-14
 -1      2325 2.05407E+01 2.23765E-01-1.19827E-03 7.10744E-01-6.40189E-15 1.39704E-13
 -1      2326 2.09403E+01 1.80871E-01 3.19095E-04 8.08639E-01-2.88191E-14-6.67277E-15
 -1      2327 2.10865E+01 1.77313E-01 3.38111E-03 8.73427E-01 2.14293E-15-4.13502E-14
 -1      2328 2.06834E+01 2.36761E-01-1.38252E-03 8.62946E-01-7.21719E-14 1.64187E-13
 -1      2329 2.11810E+01 1.64968E-01 8.18448E-04 9.46454E-01-2.41067E-14-3.05390E-14
 -1      2330 2.13473E+01 1.42782E-01 2.09282E-03 1.00166E+00-5.28136E-14 1.44838E-14
 -1      2331 2.08556E+01 2.23090E-01-1.76978E-03 1.01845E+00-2.20918E-14 8.38130E-14
 -1      2332 2.14666E+01 1.08103E-01 1.80570E-03 1.06089E+00-9.05120E-14-1.01136E-13
 -1      2333 2.16497E+01 5.51743E-02-4.26863E-04 1.09033E+00-9.59817E-14 5.29421E-14
 -1      2334 2.10661E+01 1.61507E-01-2.58164E-03 1.15863E+00-1.18674E-13 1.06300E-13
 -1      2335 2.18050E+01-1.42528E-02 3.53560E-03 1.11628E+00-7.69547E-14 3.12177E-14
 -1      2336 2.19981E+01-1.12658E-01-4.63474E-03 1.09551E+00 3.61461E-14 3.53918E-14
 -1      2337 2.13293E+01 2.22186E-02-4.12591E-03 1.25241E+00-7.40223E-14 6.00071E-14
 -1      2338 2.22061E+01-2.29830E-01 6.15264E-03 1.05855E+00 7.58556E-14 3.10392E-14
 -1      2339 2.23973E+01-3.85889E-01-1.08599E-02 9.54841E-01 1.32880E-13 3.78105E-15
 -1      2340 2.16689E+01-2.30093E-01-6.66960E-03 1.25143E+00 2.75071E-14 7.40662E-14
 -1      2341 2.26762E+01-5.56320E-01 9.26191E-03 8.14152E-01 1.51255E-13-4.27737E-14
 -1      2342 2.28456E+01-7.66207E-01-1.87663E-02 5.91548E-01 1.43296E-13 2.77263E-14
 -1      2343 2.21167E+01-6.22597E-01-1.00402E-02 1.08610E+00 1.23480E-13 8.11625E-14
 -1      2344 2.32031E+01-9.70516E-01 1.13354E-02 3.00202E-01 1.08078E-13 1.36337E-13
 -1      2345 2.33180E+01-1.18946E+00-2.60971E-02-6.46485E-02 1.83243E-13 1.90866E-13
 -1      2346 2.27013E+01-1.14064E+00-1.28237E-02 6.67523E-01 2.34005E-13 6.94152E-14
 -1      2347 2.37222E+01-1.35663E+00 8.86910E-03-5.37870E-01 1.85775E-13 1.00879E-13
 -1      2348 2.37359E+01-1.46990E+00-2.73594E-02-1.02267E+00 1.47608E-13 1.45317E-13
 -1      2349 2.34150E+01-1.66617E+00-1.13163E-02-9.07585E-02 1.41517E-13 2.05604E-13
 -1      2350 2.40755E+01-1.45961E+00-4.20642E-03-1.63610E+00 7.23987E-14 4.92030E-14
 -1      2351 2.39428E+01-1.29222E+00-1.57416E-02-2.12526E+00-6.96262E-14 4.03432E-15
 -1      2352 2.41480E+01-1.90702E+00-1.26573E-03-1.20281E+00 1.20654E-14-1.23525E-13
 -1      2353 2.40421E+01-9.48116E-01-2.83147E-02-2.68208E+00-5.19133E-14 6.49591E-14
 -1      2354 2.37589E+01-3.89436E-01 7.31160E-03-2.94885E+00-2.72204E-14 4.61181E-14
 -1      2355 2.46425E+01-1.45222E+00 9.63017E-03-2.45626E+00-3.72727E-14-2.04064E-14
 -1      2356 2.35079E+01 2.94672E-01-5.31969E-02-3.09254E+00-7.70911E-15 8.65475E-14
 -1      2357 2.31569E+01 1.06639E+00 1.87302E-02-2.88982E+00 9.80778E-14 1.50225E-13
 -1      2358 2.46080E+01-5.09381E-02 6.93216E-03-3.28886E+00-9.41608E-15 1.59846E-13
 -1      2359 2.27547E+01 1.73794E+00-5.09496E-02-2.35150E+00 1.54488E-13 1.40794E-13
 -1      2360 2.24903E+01 2.20610E+00-3.32164E-03-1.67268E+00 2.28532E-13 3.24693E-13
 -1      2361 2.40623E+01 1.81572E+00-2.37941E-02-2.95279E+00 1.54796E-13 7.42167E-14
 -1      2362 2.23445E+01 2.34323E+00-1.53255E-02-6.91106E-01 1.24838E-13 3.49958E-13
 -1      2363 2.22667E+01 2.12642E+00-4.27344E-02 8.71802E-02 1.61135E-13 3.30961E-13
 -1      2364 2.35583E+01 2.91519E+00-5.52671E-02-1.32532E+00 1.46758E-13 2.01201E-13
 -1      2365 2.24705E+01 1.62385E+00 1.72345E-02 8.59929E-01 2.86396E-13 2.66436E-13
 -1      2366 2.25341E+01 9.26475E-01-5.82568E-02 1.28207E+00 2.44168E-13 1.85080E-13
 -1      2367 2.35946E+01 2.41479E+00-4.06601E-02 5.78858E-01 7.73687E-14 1.92610E-13
 -1      2368 2.27349E+01 2.31379E-01 1.66706E-02 1.41280E+00 2.13340E-13 1.88220E-13
 -1      2369 2.27964E+01-3.89765E-01-3.72927E-02 1.35334E+00 3.09593E-13 2.54910E-13
 -1      2370 2.39117E+01 7.65032E-01-3.52477E-03 1.48803E+00 1.93932E-13 2.25419E-13
 -1      2371 2.26707E+01-7.99267E-01-6.15169E-03 9.80081E-01 2.05287E-13 3.12151E-13
 -1      2372 2.26257E+01-1.01022E+00-5.08831E-03 6.51172E-01-1.11467E-13 4.29473E-13
 -1      2373 2.38696E+01-7.50274E-01 1.37127E-02 1.12803E+00 2.20844E-13 1.42964E-13
 -1      2374 2.21852E+01-1.01228E+00-2.12933E-02 1.70574E-01-4.10647E-13 7.09415E-13
 -1      2375 2.19951E+01-8.67721E-01 5.98640E-03-1.46603E-01-4.13389E-13 6.52617E-13
 -1      2376 2.32352E+01-1.31858E+00 3.90766E-03 1.66699E-01-1.04527E-13 6.20799E-13
 -1      2377 1.96247E+01 7.25136E-02 2.06236E-03-6.63527E-02 1.16198E-13-1.15421E-13
 -1      2378 1.96520E+01 1.04245E-01 6.90413E-03-2.02304E-02 1.39166E-13-9.14238E-14
 -1      2379 1.96011E+01 3.06437E-02 1.33029E-03-1.31967E-01 9.47214E-14-1.64480E-13
 -1      2380 1.95980E+01 4.95757E-02 3.67718E-03-1.09491E-01 1.08683E-13-1.30228E-13
 -1      2381 1.97689E+01 8.97601E-02-3.17796E-03-7.17038E-02 1.31317E-13-1.40558E-13
 -1      2382 1.96131E+01 5.56483E-03 8.64409E-04-1.60310E-01 8.59838E-14-1.60173E-13
 -1      2383 1.95931E+01 1.68372E-02 1.81350E-03-1.52120E-01 9.24385E-14-1.52938E-13
 -1      2384 1.97347E+01 3.57525E-02-2.28197E-03-1.43955E-01 1.03945E-13-1.45599E-13
 -1      2385 1.96451E+01-9.08494E-03 5.43864E-04-1.65856E-01 1.04417E-13-1.56419E-13
 -1      2386 1.96168E+01-2.63173E-03 7.15225E-04-1.66229E-01 1.03455E-13-1.32636E-13
 -1      2387 1.97312E+01 3.57353E-03-1.50986E-03-1.75602E-01 8.25305E-14-1.77644E-13
 -1      2388 1.96867E+01-1.70090E-02 3.20822E-04-1.57951E-01 7.42794E-14-1.29566E-13
 -1      2389 1.96555E+01-1.36760E-02 6.24572E-05-1.63226E-01 1.11928E-13-1.26518E-13
 -1      2390 1.97463E+01-1.49917E-02-9.33015E-04-1.82123E-01 9.02692E-14-1.45298E-13
 -1      2391 1.97312E+01-2.05280E-02 1.71537E-04-1.42759E-01 7.36120E-14-1.44877E-13
 -1      2392 1.97005E+01-1.92341E-02-3.12371E-04-1.50535E-01 6.45389E-14-1.50713E-13
 -1      2393 1.97715E+01-2.47813E-02-5.29922E-04-1.73735E-01 8.42451E-14-1.28177E-13
 -1      2394 1.97747E+01-2.11612E-02 7.99883E-05-1.24371E-01 1.37221E-13-1.60807E-13
 -1      2395 1.97462E+01-2.11947E-02-5.07384E-04-1.33064E-01 1.11569E-13-1.49717E-13
 -1      2396 1.98010E+01-2.88372E-02-2.61874E-04-1.57262E-01 1.04680E-13-1.68409E-13
 -1      2397 1.98147E+01-1.99178E-02 3.42533E-05-1.05499E-01 1.28419E-13-8.66970E-14
 -1      2398 1.97893E+01-2.08077E-02-5.85110E-04-1.14065E-01 1.54707E-13-1.10493E-13
 -1      2399 1.98312E+01-2.91482E-02-9.42005E-05-1.37274E-01 1.16605E-13-1.45765E-13
 -1      2400 1.98506E+01-1.74588E-02 2.59471E-05-8.79357E-02 1.47042E-14-8.68138E-14
 -1      2401 1.98285E+01-1.89006E-02-5.87278E-04-9.56864E-02 9.60170E-14-8.65844E-14
 -1      2402 1.98602E+01-2.70284E-02-3.86521E-08-1.16828E-01 8.79363E-14-5.14707E-14
 -1      2403 1.98822E+01-1.41937E-02 4.99847E-05-7.28720E-02-5.14830E-14-4.48315E-14
 -1      2404 1.98631E+01-1.60045E-02-5.42110E-04-7.93487E-02-7.66199E-15-6.47283E-14
 -1      2405 1.98869E+01-2.33292E-02 4.03171E-05-9.79652E-02 1.32922E-14-7.13506E-14
 -1      2406 1.99101E+01-1.03433E-02 1.04250E-04-6.11366E-02-6.27141E-14-9.17315E-14
 -1      2407 1.98935E+01-1.24318E-02-4.68487E-04-6.60118E-02-6.71199E-14-9.25447E-14
 -1      2408 1.99112E+01-1.85670E-02 4.08615E-05-8.20672E-02-2.90834E-14-8.03687E-14
 -1      2409 1.99356E+01-5.98440E-03 1.89130E-04-5.33715E-02 9.33251E-14-1.99276E-13
 -1      2410 1.99207E+01-8.32968E-03-3.78684E-04-5.63772E-02 4.15822E-14-1.37740E-13
 -1      2411 1.99334E+01-1.30075E-02 1.11060E-05-7.01222E-02 7.07863E-15-1.39046E-13
 -1      2412 1.99602E+01-1.08203E-03 3.07079E-04-5.01678E-02 8.34705E-15-1.85979E-13
 -1      2413 1.99458E+01-3.71761E-03-2.80249E-04-5.10395E-02 5.96486E-14-1.82874E-13
 -1      2414 1.99544E+01-6.72406E-03-4.28375E-05-6.29229E-02 5.57753E-14-1.70142E-13
 -1      2415 1.99856E+01 4.48301E-03 4.62154E-04-5.21684E-02 8.02503E-16-1.55917E-13
 -1      2416 1.99706E+01 1.48267E-03-1.77373E-04-5.06030E-02 4.45351E-15-1.32976E-13
 -1      2417 1.99753E+01 3.56808E-04-1.17342E-04-6.12182E-02-1.07037E-14-1.14435E-13
 -1      2418 2.00141E+01 1.08903E-02 6.59427E-04-6.01421E-02-1.95278E-13-8.21907E-14
 -1      2419 1.99972E+01 7.42190E-03-7.19656E-05-5.57675E-02-8.50049E-14-1.09462E-13
 -1      2420 1.99976E+01 8.41853E-03-2.10431E-04-6.58254E-02-7.43848E-14-1.22797E-13
 -1      2421 2.00483E+01 1.83546E-02 9.04125E-04-7.50318E-02-1.21177E-14-9.13455E-14
 -1      2422 2.00277E+01 1.42994E-02 3.54552E-05-6.73882E-02-1.35460E-13-8.90616E-14
 -1      2423 2.00231E+01 1.77198E-02-3.21098E-04-7.77097E-02-1.32703E-13-9.51596E-14
 -1      2424 2.00910E+01 2.70937E-02 1.20033E-03-9.79723E-02 2.14759E-13-5.49757E-14
 -1      2425 2.00649E+01 2.23352E-02 1.45058E-04-8.65078E-02 1.08748E-13-1.01469E-13
 -1      2426 2.00536E+01 2.85568E-02-4.48627E-04-9.80299E-02 3.73549E-14-1.38419E-13
 -1      2427 2.01458E+01 3.72833E-02 1.54896E-03-1.30268E-01 1.63206E-13 6.95819E-14
 -1      2428 2.01120E+01 3.17329E-02 2.57064E-04-1.14354E-01 2.38279E-13 3.18212E-14
 -1      2429 2.00917E+01 4.12135E-02-5.91879E-04-1.28146E-01 1.42599E-13-8.06019E-14
 -1      2430 2.02164E+01 4.89858E-02 1.94462E-03-1.73314E-01-2.30037E-14 1.20392E-13
 -1      2431 2.01725E+01 4.26237E-02 3.71195E-04-1.52289E-01 8.97996E-14 1.50532E-13
 -1      2432 2.01400E+01 5.58894E-02-7.48651E-04-1.69576E-01 9.36948E-14 1.35182E-13
 -1      2433 2.03069E+01 6.20403E-02 2.37081E-03-2.28431E-01-1.72311E-13 3.50912E-14
 -1      2434 2.02504E+01 5.49792E-02 4.86225E-04-2.01693E-01-1.15758E-13 1.45137E-13
 -1      2435 2.02014E+01 7.25876E-02-9.15179E-04-2.23877E-01-3.47367E-14 1.23803E-13
 -1      2436 2.04218E+01 7.58876E-02 2.79276E-03-2.96566E-01-1.00832E-13-1.77223E-13
 -1      2437 2.03498E+01 6.84739E-02 5.99785E-04-2.63731E-01-1.26217E-13-8.21284E-14
 -1      2438 2.02791E+01 9.09391E-02-1.08606E-03-2.92421E-01 1.21517E-14-6.01011E-14
 -1      2439 2.05654E+01 8.93012E-02 3.14731E-03-3.77798E-01 3.45021E-14-2.34313E-13
 -1      2440 2.04754E+01 8.22704E-02 7.08671E-04-3.38968E-01-6.49992E-14-2.76869E-13
 -1      2441 2.03766E+01 1.09930E-01-1.25505E-03-3.76008E-01-2.84276E-14-2.53542E-13
 -1      2442 2.07418E+01 9.99843E-02 3.32946E-03-4.70542E-01-6.41740E-14-5.08533E-15
 -1      2443 2.06315E+01 9.46910E-02 8.10126E-04-4.26736E-01 1.89871E-14-1.17368E-13
 -1      2444 2.04972E+01 1.27483E-01-1.41751E-03-4.74240E-01-4.65759E-14-1.40989E-13
 -1      2445 2.09538E+01 1.04004E-01 3.17689E-03-5.70351E-01-7.97369E-14 1.06762E-13
 -1      2446 2.08221E+01 1.02740E-01 9.04763E-04-5.24149E-01-1.06337E-13 8.53387E-14
 -1      2447 2.06444E+01 1.39851E-01-1.57514E-03-5.84569E-01-1.26675E-13 2.00362E-14
 -1      2448 2.12025E+01 9.50884E-02 2.45715E-03-6.68185E-01-4.38644E-14 3.36705E-13
 -1      2449 2.10502E+01 1.01465E-01 1.00163E-03-6.24647E-01-2.11170E-14 1.97190E-13
 -1      2450 2.08215E+01 1.40792E-01-1.74330E-03-7.00872E-01-1.26205E-13 1.61817E-13
 -1      2451 2.14860E+01 6.39571E-02 8.68714E-04-7.48114E-01 7.77787E-14 1.83558E-13
 -1      2452 2.13168E+01 8.32253E-02 1.12460E-03-7.15968E-01 7.87345E-14 2.72894E-13
 -1      2453 2.10316E+01 1.20615E-01-1.95835E-03-8.11487E-01 5.58836E-14 1.84925E-13
 -1      2454 2.17980E+01-1.75887E-03-1.92228E-03-7.84714E-01 1.97188E-13-4.96742E-14
 -1      2455 2.16202E+01 3.72093E-02 1.31388E-03-7.77591E-01 1.67570E-13 1.28480E-13
 -1      2456 2.12775E+01 6.54488E-02-2.27705E-03-8.96664E-01 1.59806E-13 6.84218E-14
 -1      2457 2.21262E+01-1.15757E-01-6.16260E-03-7.41037E-01 6.61068E-14-1.37822E-13
 -1      2458 2.19543E+01-4.99997E-02 1.60523E-03-7.78134E-01 1.40404E-13-6.20261E-14
 -1      2459 2.15623E+01-4.22812E-02-2.74759E-03-9.25773E-01 1.94357E-13 1.68720E-14
 -1      2460 2.24498E+01-2.87140E-01-1.17541E-02-5.69434E-01 1.52925E-14 8.23083E-14
 -1      2461 2.23058E+01-1.91024E-01 1.96716E-03-6.74144E-01-2.60501E-14-8.26769E-14
 -1      2462 2.18880E+01-2.20116E-01-3.30150E-03-8.55261E-01-2.71796E-14 6.58824E-14
 -1      2463 2.27350E+01-5.07329E-01-1.77777E-02-2.19575E-01 4.33911E-14 2.40252E-13
 -1      2464 2.26493E+01-3.88722E-01 2.12282E-03-4.13622E-01 1.74158E-14 1.31138E-13
 -1      2465 2.22523E+01-4.75072E-01-3.53204E-03-6.29955E-01-2.90534E-14 2.32450E-13
 -1      2466 2.29299E+01-7.28881E-01-2.18848E-02 3.39528E-01-1.60486E-13 4.23045E-13
 -1      2467 2.29392E+01-6.18874E-01 1.36364E-03 4.96158E-02-4.74941E-14 3.99497E-13
 -1      2468 2.26398E+01-7.82699E-01-2.39259E-03-1.92962E-01-8.80587E-14 2.80147E-13
 -1      2469 2.29604E+01-8.45998E-01-2.03199E-02 1.07744E+00-1.87838E-13 5.69172E-13
 -1      2470 2.30994E+01-8.07244E-01-1.61341E-03 7.22314E-01-1.05112E-13 5.61337E-13
 -1      2471 2.30034E+01-1.05709E+00 1.73109E-03 4.86766E-01-2.23936E-13 4.10551E-13
 -1      2472 2.27417E+01-7.07588E-01-1.00446E-02 1.84745E+00-2.16580E-13 4.02765E-13
 -1      2473 2.30254E+01-8.19919E-01-8.05435E-03 1.51685E+00-2.13794E-13 5.27607E-13
 -1      2474 2.32453E+01-1.13340E+00 9.21748E-03 1.36022E+00-1.17335E-13 5.39086E-13
 -1      2475 2.22259E+01-2.06368E-01 7.27106E-03 2.36209E+00-2.14741E-13 4.16044E-13
 -1      2476 2.26242E+01-5.08635E-01-1.72573E-02 2.20013E+00-9.27305E-14 3.44868E-13
 -1      2477 2.32240E+01-8.11966E-01 1.53960E-02 2.22848E+00-1.02006E-13 4.87357E-13
 -1      2478 2.14938E+01 5.51588E-01 2.08895E-02 2.28049E+00-2.07487E-13 5.29698E-13
 -1      2479 2.19162E+01 1.54536E-01-2.07889E-02 2.42072E+00-3.97926E-13 4.77584E-13
 -1      2480 2.28388E+01-1.59079E-02 1.13279E-02 2.71476E+00-3.37768E-13 4.39969E-13
 -1      2481 2.08041E+01 1.18960E+00 1.68349E-02 1.47687E+00 8.86444E-16 6.19038E-13
 -1      2482 2.11268E+01 9.15513E-01-1.29511E-02 1.92034E+00-9.21164E-14 5.23224E-13
 -1      2483 2.21977E+01 1.01024E+00-3.05371E-03 2.43426E+00-1.82421E-13 3.17270E-13
 -1      2484 2.04711E+01 1.28867E+00-2.21596E-03 2.58431E-01 1.10875E-13 7.81543E-13
 -1      2485 2.06062E+01 1.32389E+00 6.50788E-03 8.11882E-01 1.28295E-13 7.54015E-13
 -1      2486 2.16442E+01 1.70225E+00-2.13328E-02 1.33604E+00-4.46379E-14 5.68238E-13
 -1      2487 2.05819E+01 7.93199E-01-1.84359E-02-7.67109E-01 2.11550E-13 7.72731E-13
 -1      2488 2.05355E+01 1.10047E+00 2.18635E-02-3.71263E-01 2.13059E-13 8.91061E-13
 -1      2489 2.15008E+01 1.61488E+00-2.28825E-02-7.15503E-02 1.26694E-13 6.86864E-13
 -1      2490 2.08953E+01 8.68156E-02-1.81590E-02-1.16482E+00 1.11892E-13 6.83767E-13
 -1      2491 2.07587E+01 4.38445E-01 2.09263E-02-1.05968E+00 1.30292E-13 7.65286E-13
 -1      2492 2.17190E+01 8.54177E-01-1.94429E-03-1.04468E+00 2.60238E-13 7.27810E-13
 -1      2493 2.10846E+01-3.92411E-01-8.23824E-03-9.57813E-01 1.76640E-13 5.77633E-13
 -1      2494 2.09674E+01-1.97014E-01 5.07609E-03-1.08233E+00 8.48254E-14 6.60844E-13
 -1      2495 2.19339E+01-4.66063E-02 1.45914E-02-1.22306E+00 2.11065E-13 8.15559E-13
 -1      2496 2.10006E+01-4.70882E-01 6.31506E-03-4.84460E-01 1.51042E-14 6.41676E-13
 -1      2497 2.09607E+01-4.82520E-01-1.06957E-02-6.82991E-01 7.36872E-14 6.70519E-13
 -1      2498 2.18473E+01-5.77290E-01 1.57462E-02-8.12889E-01 6.20822E-14 7.47841E-13
 -1      2499 2.06787E+01-2.77025E-01 9.50294E-03-1.06637E-01 9.12170E-14 7.50881E-13
 -1      2500 2.07178E+01-3.94989E-01-1.66364E-02-2.44047E-01 1.07624E-13 6.79636E-13
 -1      2501 2.14330E+01-5.65356E-01 1.63222E-02-2.55052E-01 6.69752E-14 6.91909E-13
 -1      2502 2.03684E+01-1.29639E-01-5.90893E-03-9.22856E-03 2.64601E-13 7.22875E-13
 -1      2503 2.10546E+01 5.01744E-01-8.31243E-03 4.21237E+00 1.95610E-13 1.06258E-13
 -1      2504 2.16147E+01-1.80703E-02 2.91108E-02 3.73334E+00 3.47120E-13-2.18727E-14
 -1      2505 1.91642E+01 1.71029E+00-4.51610E-02 4.55712E+00 2.15472E-13 2.16965E-13
 -1      2506 2.02471E+01 1.09486E+00 6.88339E-02 4.63029E+00 2.30231E-13 3.24340E-13
 -1      2507 2.08085E+01-4.35350E-01-1.30264E-02 4.95159E+00 2.90089E-13 2.52751E-13
 -1      2508 2.18130E+01-3.38083E-01 4.24550E-02 1.54490E+00 3.08639E-13-1.28572E-13
 -1      2509 2.15235E+01-5.13269E-01-1.61056E-02 9.84227E-01 2.96719E-13 1.39479E-13
 -1      2510 2.18681E+01-1.42792E-01 2.20503E-02 2.94613E+00 3.47397E-13-2.87964E-14
 -1      2511 2.19147E+01-4.93599E-01-5.80555E-03 2.32311E+00 3.77947E-13-3.12844E-13
 -1      2512 2.24923E+01-1.00680E+00 2.04777E-02 1.96741E+00 4.40412E-13-2.04193E-13
 -1      2513 2.22393E+01-1.03280E+00-1.52683E-02 3.58430E+00 4.63561E-13-3.40125E-14
 -1      2514 1.69244E+01 3.14105E+00-4.89103E-02 3.17842E+00 2.92498E-14 9.06220E-15
 -1      2515 1.80123E+01 2.63870E+00 7.99937E-02 4.06089E+00 1.65121E-13-3.17975E-14
 -1      2516 1.81605E+01 9.36435E-01 3.58227E-02 4.99358E+00 2.17413E-13-1.66984E-14
 -1      2517 1.58387E+01 3.91292E+00-4.74336E-03 2.10958E-01-2.25431E-13-1.96405E-13
 -1      2518 1.61467E+01 3.79172E+00 3.75835E-02 1.64789E+00-1.93286E-13 5.29299E-14
 -1      2519 1.55044E+01 2.43442E+00 9.97875E-02 2.85798E+00-6.22523E-14-2.02026E-13
 -1      2520 1.68669E+01 3.38792E+00 6.41528E-02-2.88353E+00-3.97580E-13-7.83661E-13
 -1      2521 1.61146E+01 3.72220E+00-2.30593E-02-1.63581E+00-3.79584E-13-5.28036E-13
 -1      2522 1.47838E+01 2.87510E+00 1.19212E-01-8.43411E-01-4.30407E-13-4.87603E-13
 -1      2523 1.90305E+01 1.97802E+00 8.00820E-02-4.46642E+00-1.48692E-13-7.32516E-13
 -1      2524 1.78696E+01 2.52433E+00-5.95086E-02-3.93798E+00-1.85681E-13-9.30436E-13
 -1      2525 1.67298E+01 1.84958E+00 1.04263E-01-4.01338E+00-3.87124E-13-6.63487E-13
 -1      2526 2.09759E+01 5.62470E-01 5.08204E-02-4.28611E+00 7.55650E-14-1.49743E-13
 -1      2527 2.01072E+01 1.13797E+00-3.11325E-02-4.50268E+00 7.38921E-14-4.89067E-13
 -1      2528 1.93956E+01 2.72440E-01 3.83093E-03-5.14104E+00-1.65267E-14-4.90587E-13
 -1      2529 2.18376E+01-2.43685E-01 1.05949E-02-3.06435E+00 1.02607E-13-6.92597E-14
 -1      2530 2.15279E+01 1.99473E-01 6.66971E-03-3.64471E+00 1.53963E-13-1.21537E-13
 -1      2531 2.15838E+01-7.82035E-01-2.44562E-02-4.35135E+00 2.03710E-13-1.82922E-13
 -1      2532 2.17319E+01-4.12988E-01 2.66546E-03-1.65058E+00-4.38230E-13 2.27640E-13
 -1      2533 2.18721E+01-1.89404E-01 3.32536E-02-2.23171E+00-3.07408E-13 2.98865E-13
 -1      2534 2.24790E+01-1.02098E+00 1.21077E-02-2.75905E+00 1.65584E-14-1.82433E-13
 -1      2535 5.11313E+00-3.75353E+00 2.60948E-02 4.16912E+00-1.62759E-13-2.28373E-13
 -1      2536 3.97525E+00-3.16772E+00 6.50574E-02 1.69153E+00 3.69912E-14-5.48617E-13
 -1      2537 2.02451E+01-6.15767E+00-9.79723E-03 8.13567E+00-2.72893E-13-1.84627E-13
 -1      2538 1.60298E+01-5.97609E+00 8.82145E-02 8.16011E+00-1.34781E-13-2.56600E-13
 -1      2539 1.97057E+01 1.43295E-01 3.25659E-03 5.96705E-02 1.64456E-13-8.91381E-14
 -1      2540 1.97842E+01 1.98152E-01 1.23787E-02 1.45872E-01 2.11202E-13-4.84003E-14
 -1      2541 1.98499E+01 1.80909E-01-3.85572E-03 6.50979E-02 1.88236E-13-1.46548E-13
 -1      2542 2.08998E+01-8.93201E-02-1.44568E-02-7.39465E-01-2.28630E-13 4.99198E-13
 -1      2543 4.45845E+00-2.88451E+00 1.00075E-01-1.02325E+00-7.78440E-14-5.95912E-13
 -1      2544 5.92382E+00-2.94354E+00 8.83894E-02-4.10865E+00-1.09412E-13-5.72542E-13
 -1      2545 1.11677E+01-4.98329E+00-4.31874E-03 7.84596E+00-1.25122E-13-1.95455E-13
 -1      2546 7.72218E+00-4.40413E+00 8.18990E-02 6.04421E+00-2.45082E-13-3.07032E-13
 -1      2547 2.05481E+01 1.95515E+00-1.37179E-02-1.89534E+00-3.92721E-13-3.63199E-14
 -1      2548 2.04102E+01 1.20902E+00-8.81642E-03-1.28899E+00-3.71495E-13-5.11624E-15
 -1      2549 2.03827E+01 1.38501E+00 9.18857E-03-1.23785E+00-3.56936E-13-9.47150E-14
 -1      2550 2.02955E+01 2.39759E+00 7.02220E-04-1.83557E+00-3.94872E-13-1.53905E-13
 -1      2551 9.05888E+00-4.05519E+00 1.18505E-01-6.53651E+00-2.09555E-14-5.82479E-13
 -1      2552 1.21525E+01-5.06147E+00 3.77248E-02-7.98691E+00 3.36398E-13-5.06983E-13
 -1      2553 3.42713E+01 6.97371E+00-1.55115E-01-1.87451E+00-1.44773E-13-4.16778E-13
 -1      2554 3.41707E+01 5.33180E+00-1.24126E-01-1.99349E+00-1.03195E-13-4.65017E-13
 -1      2555 3.21900E+01-8.95836E-01-1.32802E-01-2.54696E-01 1.65409E-13-5.75151E-13
 -1      2556 3.03842E+01-2.73007E+00-4.33454E-02 9.30813E-01 1.10460E-13-5.74374E-13
 -1      2557 1.95183E+01 3.58489E+00-1.00913E-02-2.45263E-01-5.19557E-14-5.10311E-13
 -1      2558 1.95344E+01 3.56418E+00-9.67250E-03-4.25988E-01-9.54201E-14-5.04107E-13
 -1      2559 1.97107E+01 3.16368E+00-5.67555E-04-4.73234E-01-1.10258E-13-4.64604E-13
 -1      2560 1.96764E+01 3.22354E+00-9.14896E-04-1.51992E-01-4.27297E-14-4.84320E-13
 -1      2561 3.37738E+01 4.13191E+00-8.51701E-02 1.74424E+00-4.68514E-14-5.18086E-13
 -1      2562 3.43383E+01 5.83043E+00-1.70623E-01 1.82137E+00-1.56208E-13-6.33216E-13
 -1      2563 3.32099E+01 6.93496E+00-2.31480E-01-8.21476E-02 2.48468E-13-6.51201E-13
 -1      2564 3.35518E+01 5.73647E+00-1.26007E-01-3.85172E-01 3.15803E-13-7.59698E-13
 -1      2565 3.42886E+01 7.68892E+00-1.40998E-01-5.47437E-01-1.37501E-13-2.65385E-13
 -1      2566 3.44721E+01 7.93481E+00-1.04816E-01-1.19955E+00-1.50102E-13-3.59185E-13
 -1      2567 3.16104E+01-8.49887E-01-5.83229E-02 1.27204E-01 7.38368E-14-3.95184E-13
 -1      2568 3.31523E+01 1.37206E+00-1.35599E-01 1.04483E+00 8.16153E-14-4.80171E-13
 -1      2569 2.74521E+01-4.78605E+00 1.08017E-02-2.85968E+00 1.93873E-14-3.37119E-13
 -1      2570 2.99714E+01-3.28766E+00-1.14253E-01-1.67972E+00 9.32587E-14-2.57100E-13
 -1      2571 1.20261E+01-5.90247E+00 9.23374E-02-6.75475E+00 2.97096E-13-2.71366E-13
 -1      2572 1.55276E+01-6.31208E+00 5.70133E-02-7.07987E+00 2.07667E-13-2.97026E-13
 -1      2573 4.81034E+00-4.68011E+00 5.41884E-02-4.09305E+00 3.18384E-13-1.73139E-13
 -1      2574 7.83626E+00-4.78044E+00 7.93208E-02-5.76692E+00 2.99594E-13-3.72702E-13
 -1      2575 3.34127E+00-3.16726E+00 1.33133E-01-8.89387E-02 2.63715E-13-5.56943E-13
 -1      2576 3.50925E+00-3.95365E+00 8.30941E-02-2.39537E+00 2.96346E-13-3.13083E-13
 -1      2577 6.13710E+00-2.82473E+00 1.68870E-01-3.21223E+00 1.96676E-13-2.83801E-13
 -1      2578 6.34720E+00-4.67906E+00 8.84796E-02 4.96109E+00 3.81334E-13-4.17499E-13
 -1      2579 4.48067E+00-3.58553E+00 1.48965E-01 2.89186E+00 3.42892E-13-4.86555E-13
 -1      2580 1.22506E+01-5.82976E+00 1.74864E-02 6.77416E+00 2.93543E-13-1.99285E-14
 -1      2581 8.82998E+00-5.45335E+00 7.15719E-02 5.84877E+00 2.65732E-13-9.93372E-14
 -1      2582 9.62400E+00-3.86650E+00 1.67270E-01 5.36052E+00 4.35901E-13-2.07334E-13
 -1      2583 2.12205E+01-6.55308E+00-5.32410E-02 5.88556E+00 3.08198E-13-1.97731E-13
 -1      2584 1.67944E+01-6.70866E+00 4.68856E-02 6.37428E+00 3.79141E-13-2.00621E-13
 -1      2585 2.84511E+01-4.43214E+00-7.10199E-02 2.80133E+00 1.26815E-13-6.85979E-13
 -1      2586 2.51937E+01-5.72597E+00 5.82542E-03 3.94607E+00 2.06751E-13-3.76588E-13
 -1      2587 2.93794E+01-4.07764E+00 2.56267E-02 8.84644E-01 1.82618E-13-4.89664E-13
 -1      2588 3.41728E+01 3.71460E+00-1.19465E-01-1.85603E+00 2.06779E-14-5.12201E-13
 -1      2589 3.30505E+01 2.04855E+00-7.85328E-02-1.64876E+00 1.26399E-13-5.64049E-13
 -1      2590 3.19685E+01 4.46191E+00-3.78981E-02-2.93081E+00-3.55271E-14-3.80973E-13
 -1      2591 2.91668E+01-4.15719E+00-3.59458E-03-4.23216E+00 1.25594E-13-4.81282E-13
 -1      2592 3.16212E+01-2.43215E+00-1.29540E-01-2.82133E+00 1.91208E-13-2.10720E-13
 -1      2593 3.44212E+01 5.20314E+00-7.77712E-02 1.71226E-01 2.13551E-13-4.81920E-13
 -1      2594 3.43580E+01 6.49577E+00-1.60195E-01 4.89000E-02 1.28342E-13-3.37702E-13
 -1      2595 3.31527E+01 5.63752E-01-2.27653E-02-9.22520E-01 1.01016E-13-3.35676E-13
 -1      2596 3.44043E+01 2.97308E+00-1.16363E-01-2.96478E-01 1.51379E-13-4.31100E-13
 -1      2597 2.28191E+01-6.25999E+00-6.78605E-03-7.04909E+00 2.91156E-13-3.31624E-13
 -1      2598 2.64147E+01-5.40005E+00-4.14847E-02-6.19381E+00 7.67997E-14-6.58806E-13
 -1      2599 1.59420E+01-6.10444E+00 4.90402E-02-8.13979E+00 4.33487E-13-2.13843E-13
 -1      2600 1.97105E+01-6.24886E+00 2.10367E-02-8.18597E+00 3.39118E-13-1.41252E-13
 -1      2601 2.28225E+01-6.18792E+00 7.30080E-02-7.17951E+00 2.41474E-13-1.01592E-13
 -1      2602 3.42894E+01 3.81296E+00-1.47156E-01 3.78538E-02 2.61013E-13-9.16489E-13
 -1      2603 3.35960E+01 1.70981E+00-5.34274E-02 6.42773E-01-8.03246E-14-7.14651E-13
 -1      2604 2.04914E+01 8.74935E-01-7.31192E-03 1.22643E+00 3.69024E-13 6.92434E-14
 -1      2605 2.08419E+01 1.25693E+00-6.05046E-03 1.72713E+00 3.98695E-13 1.14575E-13
 -1      2606 2.06476E+01 1.71564E+00-1.57901E-02 1.92126E+00 4.35745E-13-6.00561E-15
 -1      2607 2.04499E+01 1.05801E+00-9.39219E-03 1.24114E+00 3.82030E-13-6.80591E-14
 -1      2608 2.68218E+01-5.28650E+00-5.49813E-02 5.70708E+00-5.43926E-13 9.77274E-14
 -1      2609 2.34399E+01-6.17872E+00-5.66675E-03 6.89375E+00-3.53162E-13-1.11300E-14
 -1      2610 2.28358E+01-6.05201E+00 1.02675E-01 7.17614E+00-2.06279E-13 7.84841E-14
 -1      2611 3.09348E+01 5.57051E+00-8.90813E-02 2.54267E+00-1.55514E-13-4.88165E-13
 -1      2612 3.32732E+01 6.68946E+00-5.96807E-02 1.89110E+00-1.26787E-13-5.82034E-13
 -1      2613 3.09442E+01 7.07645E+00-2.52724E-01 1.83511E+00-1.23790E-14-5.33545E-13
 -1      2614 1.99129E+01 2.81057E+00 1.14951E-03-1.09718E+00-2.55654E-13-3.94634E-13
 -1      2615 1.97800E+01 3.15637E+00-1.61754E-02-1.28687E+00-2.79001E-13-4.15576E-13
 -1      2616 1.98830E+01 3.01293E+00-1.85373E-02-1.47678E+00-3.17633E-13-3.79916E-13
 -1      2617 1.99955E+01 3.40185E-01-3.56819E-03 3.04229E-01 2.51940E-13-1.31859E-13
 -1      2618 2.04231E+01 2.11579E+00-1.27815E-02 1.87425E+00 4.12280E-13-1.54605E-13
 -1      2619 2.87625E+01-4.79544E+00-2.13781E-02 4.06578E+00-6.09054E-13 1.57097E-14
 -1      2620 2.71946E+01-5.38181E+00 9.14323E-02 4.64722E+00-3.66748E-13 2.71033E-14
 -1      2621 2.94710E+01-4.00504E+00-1.10099E-01 2.17893E+00-4.56114E-13-3.61572E-13
 -1      2622 9.42556E+00-2.34493E+00 1.64847E-01-5.25316E+00-8.96228E-14-5.65020E-13
 -1      2623 1.61593E+01-4.91423E+00 1.15289E-01-7.89746E+00 2.92266E-13-3.49276E-13
 -1      2624 3.19756E+01-3.78418E-01-4.38161E-02 3.14789E-01-2.76890E-13-7.23727E-13
 -1      2625 2.08184E+01-3.00240E-01-5.30846E-03 1.07221E-01 1.84241E-13 6.35581E-13
 -1      2626 2.11101E+01-2.94037E-01 1.73843E-02 3.95341E-01 2.11338E-13 4.42169E-13
 -1      2627 3.17663E+01-1.49897E+00-5.48821E-03-9.69164E-01-4.00825E-14-8.94285E-14
 -1      2628 6.37524E+00-1.50501E+00 1.66512E-01 3.42218E-01-1.39611E-14-5.38292E-13
 -1      2629 8.64790E+00-2.65996E+00 1.83626E-01 5.27144E+00-1.04527E-13-3.26850E-13
 -1      2630 1.54397E+01-4.73321E+00 1.51353E-01 7.92363E+00-1.71529E-13-3.48277E-13
 -1      2631 3.24882E+01 3.39864E+00-5.24754E-02 7.76113E-01 5.81757E-14-4.39648E-13
 -1      2632 2.04370E+01 1.80810E+00 1.25453E-02 1.56197E+00 3.89851E-13-1.79651E-13
 -1      2633 1.60702E+01-5.84763E+00 1.25686E-01 6.30729E+00 3.87357E-13-1.39597E-13
 -1      2634 3.18524E+01 7.05108E+00-5.39642E-02-1.86534E+00-1.41109E-13-3.40006E-13
 -1      2635 5.13674E+00-2.57813E+00 1.83461E-01 1.56303E+00 3.17309E-13-4.74787E-13
 -1      2636 6.38040E+00-1.47279E+00 1.82160E-01 3.97960E-01 2.39017E-13-4.43146E-13
 -1      2637 7.29915E+00-2.01784E+00 9.85102E-02 3.03151E+00 3.84845E-13-2.83690E-13
 -1      2638 1.08357E+01-4.93552E+00 1.16447E-01-6.30820E+00 2.15356E-13-3.29292E-13
 -1      2639 1.38012E+01-4.87638E+00 7.96820E-02-6.40185E+00 7.87148E-14-5.76761E-14
 -1      2640 1.00054E+01-3.58670E+00 1.44109E-01-5.60995E+00 9.82547E-14-2.88547E-13
 -1      2641 2.61330E+01-5.65332E+00 7.44905E-02-3.54385E+00 2.66454E-15-2.32758E-13
 -1      2642 3.16648E+01 2.17427E-01-3.39591E-02-1.98112E+00 1.57513E-13-4.67293E-13
 -1      2643 3.03269E+01-2.53774E+00-1.33645E-02 3.22084E-01-2.68873E-14-3.58352E-13
 -1      2644 3.21115E+01 6.72239E+00-8.24108E-02 1.39462E-01 9.49796E-14-2.88228E-13
 -1      2645 2.01192E+01 2.61303E+00-9.99579E-03-1.67588E+00-3.70227E-13-2.53124E-13
 -1      2646 1.88832E+01-6.54123E+00 3.25515E-02-6.25762E+00 1.19571E-13-1.56753E-13
 -1      2647 3.22921E+01 7.27422E+00-1.26239E-01 2.57791E-01 3.14471E-13-6.59937E-13
 -1      2648 2.95889E+01 6.17402E+00-1.13425E-01-4.07896E-01 2.71311E-13-5.43177E-13
 -1      2649 3.04246E+01 7.21835E+00-2.26206E-01 6.19543E-01 2.42140E-13-5.41607E-13
 -1      2650 3.18066E+01 4.19000E+00-5.52813E-02-8.71890E-01 2.48634E-13-7.43905E-13
 -1      2651 3.19903E+01 2.31073E+00-4.29081E-02 2.33945E+00-5.24580E-14-5.15032E-13
 -1      2652 2.40963E+01-6.34356E+00 6.08610E-02 4.29918E+00 2.92544E-13-4.60687E-13
 -1      2653 2.82129E+01-5.26703E+00 4.34820E-02-4.47224E+00 3.77476E-14-3.03424E-13
 -1      2654 2.13537E+01-4.47646E-01 1.07559E-02-5.09642E-01-2.58765E-13 6.00875E-13
 -1      2655 2.16081E+01-3.70315E-01 1.96209E-02-1.06836E+00-3.45221E-13 5.51160E-13
 -1      2656 2.22027E+01-9.46869E-01-2.07119E-02-1.36309E+00-4.43553E-13 5.73769E-13
 -1      2657 2.15773E+01-7.09287E-01-2.92608E-02-3.73018E-01-3.74648E-13 6.82190E-13
 -1      2658 2.16470E+01-6.98655E-01-1.29882E-02 5.86069E-01 1.30821E-13 3.39336E-13
 -1      2659 2.24172E+01-1.03307E+00 1.29468E-02-5.42260E-01-3.91781E-13 9.02488E-13
 -1      2660 1.98443E+01 2.76508E+00-6.29688E-03 5.16177E-01 1.10949E-13-4.55728E-13
 -1      2661 1.98194E+01 2.81478E+00-5.70994E-03 3.65354E-01 7.03191E-14-4.62980E-13
 -1      2662 1.98025E+01 2.85229E+00-5.61725E-03 2.29859E-01 4.11776E-14-4.74682E-13
 -1      2663 1.97939E+01 2.86918E+00-5.43242E-03 7.52488E-02 4.46319E-15-4.48447E-13
 -1      2664 1.99489E+01 2.50098E+00 3.64450E-03 2.65253E-01 5.19144E-14-4.42711E-13
 -1      2665 2.00436E+01 2.32393E+00-1.07182E-02 1.04577E+00 2.84751E-13-3.91477E-13
 -1      2666 1.99791E+01 2.47291E+00-6.33094E-03 9.10149E-01 2.39998E-13-4.08997E-13
 -1      2667 2.02169E+01 1.90865E+00-1.19353E-02 1.22710E+00 3.44093E-13-3.09014E-13
 -1      2668 2.01243E+01 2.14634E+00-4.82824E-03 1.13385E+00 3.08961E-13-3.44254E-13
 -1      2669 2.01894E+01 1.88657E+00 6.44585E-03 9.26359E-01 2.76324E-13-3.29985E-13
 -1      2670 2.02133E+01 7.26804E-01-3.48915E-03 6.42517E-01 2.95354E-13-1.86097E-13
 -1      2671 2.03553E+01 9.51668E-01 9.17376E-03 9.06218E-01 3.19449E-13-1.70761E-13
 -1      2672 1.90528E+01-6.01578E+00-1.49177E-02 5.85689E+00 2.94237E-13-3.76532E-13
 -1      2673 1.52571E+01-4.73345E+00 1.49275E-01 5.97637E+00 3.07962E-13-1.47549E-13
 -1      2674 9.60425E+00-6.51696E-01 1.96899E-01-3.82485E+00-2.03129E-13-3.82389E-13
 -1      2675 1.20724E+01-1.97224E+00 8.74553E-02-6.41133E+00-1.17947E-13-6.61471E-13
 -1      2676 2.03384E+01 1.50030E+00-1.90548E-03 1.26671E+00 3.61184E-13-2.05780E-13
 -1      2677 1.56144E+01-3.61294E+00 1.50521E-01-7.45148E+00 5.10703E-14-3.37452E-13
 -1      2678 1.90149E+01-4.96672E+00 7.10668E-02-7.91963E+00 2.26985E-13-7.15678E-14
 -1      2679 2.02157E+01 6.27095E-01 7.82583E-03-4.37080E-01-2.54656E-13-1.06267E-13
 -1      2680 2.01327E+01 4.75829E-01-3.11069E-03-2.77987E-01-2.24383E-13-1.09600E-13
 -1      2681 2.01065E+01 3.62273E-01 6.61955E-03-1.58517E-01-2.00049E-13-8.96836E-14
 -1      2682 2.00473E+01 2.67612E-01-1.74615E-03-6.08882E-02-1.81303E-13-1.25388E-13
 -1      2683 2.01958E+01 5.28594E-01-1.46222E-03-2.61842E-01-2.21484E-13-1.35047E-13
 -1      2684 2.00211E+01 1.97430E-01 4.53515E-03 1.44012E-02-1.56563E-13-9.04306E-14
 -1      2685 1.99852E+01 1.37891E-01-8.34492E-04 7.09637E-02-1.45605E-13-9.74219E-14
 -1      2686 2.01263E+01 2.98464E-01-2.08666E-03-5.55334E-02-1.67511E-13-1.34188E-13
 -1      2687 1.99642E+01 9.37103E-02 2.90609E-03 1.14320E-01-1.29817E-13-8.90874E-14
 -1      2688 1.99461E+01 5.63895E-02-3.00725E-04 1.43704E-01-9.40095E-14-8.08314E-14
 -1      2689 2.00697E+01 1.52375E-01-1.88702E-03 7.17935E-02-1.37050E-13-1.19257E-13
 -1      2690 1.99311E+01 2.89135E-02 1.73537E-03 1.65111E-01-8.30421E-14-8.81323E-14
 -1      2691 1.99251E+01 6.14796E-03 1.77717E-07 1.76943E-01-7.22076E-14-9.67095E-14
 -1      2692 2.00286E+01 5.98997E-02-1.51944E-03 1.42690E-01-9.63884E-14-1.03763E-13
 -1      2693 1.99152E+01-1.03206E-02 9.30854E-04 1.83958E-01-7.10137E-14-8.80615E-14
 -1      2694 1.99170E+01-2.34080E-02 1.59428E-04 1.84831E-01-8.49551E-14-8.41245E-14
 -1      2695 2.00012E+01 2.88599E-03-1.14047E-03 1.75311E-01-4.99318E-14-1.08356E-13
 -1      2696 1.99111E+01-3.25099E-02 3.92483E-04 1.82878E-01-1.01296E-13-4.69472E-14
 -1      2697 1.99175E+01-3.91146E-02 2.39230E-04 1.77315E-01-7.81452E-14-2.59845E-14
 -1      2698 1.99845E+01-3.04407E-02-8.20655E-04 1.83115E-01-6.21278E-14-2.33636E-14
 -1      2699 1.99145E+01-4.32668E-02 4.57578E-05 1.70232E-01-7.68214E-14-2.33660E-15
 -1      2700 1.99232E+01-4.55387E-02 2.76516E-04 1.61332E-01-6.55684E-14-1.47458E-14
 -1      2701 1.99756E+01-4.78288E-02-5.73200E-04 1.75779E-01-6.23324E-14 1.39316E-14
 -1      2702 1.99223E+01-4.63791E-02-1.65850E-04 1.51798E-01-4.85528E-14 1.07151E-14
 -1      2703 1.99319E+01-4.57758E-02 2.93188E-04 1.41674E-01-3.23437E-14 1.01444E-14
 -1      2704 1.99722E+01-5.45034E-02-3.91719E-04 1.60150E-01-4.96382E-14 3.52338E-14
 -1      2705 1.99324E+01-4.44126E-02-2.85046E-04 1.31538E-01-7.60332E-14 3.58730E-15
 -1      2706 1.99422E+01-4.19072E-02 3.03275E-04 1.21626E-01-2.59068E-14-3.58496E-14
 -1      2707 1.99725E+01-5.40172E-02-2.64799E-04 1.41004E-01-6.59032E-14 4.39167E-14
 -1      2708 1.99435E+01-3.90687E-02-3.43754E-04 1.12155E-01-2.76417E-15-1.16506E-13
 -1      2709 1.99530E+01-3.52790E-02 3.16622E-04 1.03437E-01-5.88731E-14-1.27307E-13
 -1      2710 1.99751E+01-4.87515E-02-1.81024E-04 1.21644E-01-6.33387E-14 3.19145E-16
 -1      2711 1.99549E+01-3.14106E-02-3.65576E-04 9.55161E-02-1.12216E-13-1.10629E-13
 -1      2712 1.99641E+01-2.66882E-02 3.40706E-04 8.86875E-02-9.52273E-14-9.90551E-14
 -1      2713 1.99794E+01-4.02306E-02-1.30811E-04 1.04363E-01-8.82144E-14-1.53044E-13
 -1      2714 1.99665E+01-2.20209E-02-3.67856E-04 8.29668E-02-1.14759E-13-1.30972E-13
 -1      2715 1.99755E+01-1.65131E-02 3.81707E-04 7.85647E-02-1.27362E-13-1.34048E-13
 -1      2716 1.99848E+01-2.93355E-02-1.06363E-04 9.07984E-02-1.34508E-13-1.83861E-13
 -1      2717 1.99783E+01-1.11124E-02-3.63443E-04 7.55754E-02-1.58016E-13-1.48983E-13
 -1      2718 1.99875E+01-4.80886E-03 4.45095E-04 7.40739E-02-1.60606E-13-1.90959E-13
 -1      2719 1.99911E+01-1.64559E-02-1.01393E-04 8.22116E-02-1.47654E-13-1.43612E-13
 -1      2720 1.99907E+01 1.38802E-03-3.61968E-04 7.43172E-02-1.26064E-13-1.47276E-13
 -1      2721 2.00006E+01 8.61986E-03 5.35842E-04 7.62019E-02-1.09926E-13-1.83591E-13
 -1      2722 1.99984E+01-1.60286E-03-1.10953E-04 7.96967E-02-1.26968E-13-8.93075E-14
 -1      2723 2.00043E+01 1.57738E-02-3.70775E-04 8.02158E-02-8.60759E-14-1.14297E-13
 -1      2724 2.00154E+01 2.41584E-02 6.58438E-04 8.60387E-02-5.38119E-14-5.77434E-14
 -1      2725 2.00067E+01 1.55045E-02-1.30856E-04 8.43430E-02-7.85850E-14-2.97735E-14
 -1      2726 2.00197E+01 3.25011E-02-3.95646E-04 9.44468E-02-2.53785E-14-6.07811E-14
 -1      2727 2.00329E+01 4.23262E-02 8.16705E-04 1.04864E-01 2.62087E-14-9.07004E-14
 -1      2728 2.00162E+01 3.53638E-02-1.57149E-04 9.73536E-02-5.99991E-14 4.74555E-14
 -1      2729 2.00379E+01 5.21320E-02-4.41232E-04 1.18405E-01 5.43042E-14-1.06667E-13
 -1      2730 2.00540E+01 6.37154E-02 1.01333E-03 1.34197E-01 8.85046E-14-9.81220E-14
 -1      2731 2.00274E+01 5.86183E-02-1.85723E-04 1.20125E-01 1.43739E-14-5.65050E-15
 -1      2732 2.00599E+01 7.52658E-02-5.11106E-04 1.53739E-01 1.48275E-13-1.43924E-13
 -1      2733 2.00799E+01 8.89116E-02 1.24903E-03 1.75808E-01 1.90090E-13-1.45720E-13
 -1      2734 2.00405E+01 8.59748E-02-2.11947E-04 1.54290E-01 8.55680E-14-1.22234E-13
 -1      2735 2.00867E+01 1.02444E-01-6.07386E-04 2.02332E-01 1.88166E-13-1.88431E-13
 -1      2736 2.01116E+01 1.18375E-01 1.52139E-03 2.31674E-01 8.71779E-14-1.86323E-13
 -1      2737 2.00558E+01 1.18095E-01-2.30485E-04 2.01712E-01 1.48968E-13-1.79826E-13
 -1      2738 2.01195E+01 1.34004E-01-7.29639E-04 2.66236E-01 5.44165E-15-1.97052E-13
 -1      2739 2.01505E+01 1.52257E-01 1.82322E-03 3.03868E-01-5.33458E-14-1.81719E-13
 -1      2740 2.00738E+01 1.55432E-01-2.35611E-04 2.64429E-01 6.06893E-14-9.01485E-14
 -1      2741 2.01594E+01 1.69847E-01-8.72628E-04 3.47512E-01-8.34084E-14-1.75676E-13
 -1      2742 2.01977E+01 1.90102E-01 2.14052E-03 3.94338E-01-1.09369E-13-1.02926E-13
 -1      2743 2.00945E+01 1.97979E-01-2.22537E-04 3.44524E-01-4.37874E-14-1.34063E-13
 -1      2744 2.02079E+01 2.09064E-01-1.02219E-03 4.47955E-01-9.75417E-14-4.45452E-14
 -1      2745 2.02546E+01 2.30375E-01 2.45025E-03 5.04541E-01 2.17659E-14 2.91791E-14
 -1      2746 2.01183E+01 2.44863E-01-1.90720E-04 4.43889E-01-6.82135E-15-1.09061E-13
 -1      2747 2.02663E+01 2.49342E-01-1.14809E-03 5.68643E-01 1.00096E-13-1.01862E-14
 -1      2748 2.03227E+01 2.69709E-01 2.71803E-03 6.34861E-01 9.80368E-14 5.13532E-14
 -1      2749 2.01453E+01 2.93715E-01-1.50750E-04 5.63872E-01 8.75125E-14-1.76656E-15
 -1      2750 2.03367E+01 2.86036E-01-1.19238E-03 7.09252E-01 7.92425E-14 4.29099E-14
 -1      2751 2.04040E+01 3.01761E-01 2.89631E-03 7.83734E-01-1.82102E-14 1.24427E-13
 -1      2752 2.01763E+01 3.39688E-01-1.37297E-04 7.04738E-01 8.81996E-14-4.00927E-14
 -1      2753 2.04222E+01 3.10781E-01-1.05124E-03 8.67018E-01-1.34438E-13 2.02275E-13
 -1      2754 2.05024E+01 3.15543E-01 2.92269E-03 9.46351E-01-8.29936E-14 1.84626E-13
 -1      2755 2.02132E+01 3.73979E-01-2.31345E-04 8.64919E-01-5.36618E-14 8.55439E-14
 -1      2756 2.05289E+01 3.09550E-01-5.48851E-04 1.03523E+00-2.30224E-14 1.71586E-13
 -1      2757 2.06248E+01 2.93207E-01 2.71539E-03 1.11282E+00-1.72731E-14 1.38360E-13
 -1      2758 2.02607E+01 3.81753E-01-5.94779E-04 1.03996E+00-6.67097E-14 1.55033E-13
 -1      2759 2.06681E+01 2.60273E-01 5.96810E-04 1.20106E+00-7.16982E-14 1.00880E-13
 -1      2760 2.07847E+01 2.07627E-01 2.15224E-03 1.26559E+00-1.00894E-13 8.59733E-14
 -1      2761 2.03290E+01 3.39481E-01-1.51731E-03 1.22105E+00-5.83070E-14 9.89968E-14
 -1      2762 2.08604E+01 1.30713E-01 2.80317E-03 1.34235E+00-1.07773E-13 1.58951E-13
 -1      2763 2.10063E+01 2.10494E-02 1.00686E-03 1.37583E+00-8.74224E-14 1.36378E-13
 -1      2764 2.04386E+01 2.12210E-01-3.46592E-03 1.39278E+00-3.55572E-14 6.87018E-14
 -1      2765 2.11413E+01-1.21224E-01 6.61430E-03 1.42287E+00-4.46655E-14 1.39332E-13
 -1      2766 2.13291E+01-3.11704E-01-1.21098E-03 1.39843E+00 5.20887E-14 9.25819E-14
 -1      2767 2.06266E+01-4.74440E-02-7.08276E-03 1.52936E+00-1.22548E-13 1.83934E-13
 -1      2768 2.15645E+01-5.39515E-01 1.24807E-02 1.38509E+00 9.64010E-14 5.66810E-14
 -1      2769 2.18080E+01-8.27460E-01-5.42845E-03 1.26541E+00 1.70628E-13 9.08995E-14
 -1      2770 2.09542E+01-4.93963E-01-1.30221E-02 1.58746E+00 2.53760E-14 6.37597E-14
 -1      2771 2.21958E+01-1.14358E+00 1.99375E-02 1.14181E+00 1.86810E-13 4.82392E-14
 -1      2772 2.24996E+01-1.51316E+00-1.27661E-02 8.81528E-01 1.77139E-13 8.22784E-14
 -1      2773 2.15099E+01-1.16534E+00-2.12396E-02 1.49343E+00 1.15664E-13 3.64752E-14
 -1      2774 2.30824E+01-1.86884E+00 2.65785E-02 5.73956E-01 7.30522E-14-4.69585E-14
 -1      2775 2.34196E+01-2.22262E+00-2.21625E-02 1.34316E-01-2.04914E-15-1.55876E-13
 -1      2776 2.23931E+01-2.02633E+00-2.98144E-02 1.12831E+00-3.85282E-15-2.51879E-13
 -1      2777 2.41732E+01-2.46743E+00 2.36050E-02-4.34143E-01 1.07191E-14-1.89695E-13
 -1      2778 2.44649E+01-2.56453E+00-2.78842E-02-1.04040E+00-4.05734E-14-3.23429E-13
 -1      2779 2.36503E+01-2.85059E+00-3.32006E-02 3.27132E-01 1.11825E-15-3.52710E-13
 -1      2780 2.51941E+01-2.39086E+00-4.56582E-03-1.84815E+00 2.64892E-14-2.34767E-13
 -1      2781 2.53155E+01-1.89753E+00-2.40522E-02-2.44592E+00 3.49486E-14-7.18731E-14
 -1      2782 2.51451E+01-3.05779E+00-2.32456E-02-1.05137E+00 7.37960E-14-2.62774E-13
 -1      2783 2.57039E+01-1.03659E+00-6.12321E-02-3.19040E+00 6.70991E-15 1.74864E-13
 -1      2784 2.55584E+01 1.97809E-01-2.01493E-02-3.42705E+00 8.00401E-14 2.97567E-13
 -1      2785 2.64005E+01-1.86453E+00-2.83452E-02-2.70188E+00 1.39548E-13 7.09190E-14
 -1      2786 2.54307E+01 1.59513E+00-1.16470E-01-3.43381E+00 2.07553E-13 2.25434E-13
 -1      2787 2.51717E+01 2.92981E+00-3.61289E-02-2.95404E+00 9.13783E-14 2.07083E-13
 -1      2788 2.68542E+01 1.03071E+00-4.29870E-02-3.61202E+00 1.27356E-13 3.88252E-13
 -1      2789 2.48862E+01 3.85433E+00-1.20355E-01-1.90953E+00 9.63118E-14 1.25413E-13
 -1      2790 2.47897E+01 4.13469E+00-9.69402E-02-9.05208E-01 1.30188E-13 4.70735E-14
 -1      2791 2.65685E+01 4.18122E+00-1.00297E-01-2.68539E+00 6.12843E-14 1.49949E-13
 -1      2792 2.49112E+01 3.69462E+00-5.44852E-02 3.47541E-01 4.40481E-14 7.75022E-14
 -1      2793 2.49934E+01 2.67113E+00-1.28667E-01 1.10512E+00 1.90105E-13 7.08721E-14
 -1      2794 2.64553E+01 4.75609E+00-1.20132E-01-2.10670E-01 1.31922E-13-5.42379E-14
 -1      2795 2.52337E+01 1.35191E+00-1.91120E-02 1.51914E+00 1.95580E-13 1.35662E-13
 -1      2796 2.52736E+01 2.20480E-02-9.73024E-02 1.55929E+00 1.79575E-13 1.69545E-13
 -1      2797 2.67174E+01 2.38769E+00-6.46088E-02 1.46819E+00 1.97953E-13-1.85005E-13
 -1      2798 2.50798E+01-9.99657E-01-1.70016E-02 1.06502E+00 2.46660E-13 1.41963E-13
 -1      2799 2.48969E+01-1.66823E+00-2.32133E-02 6.19263E-01 1.33742E-13 9.37913E-14
 -1      2800 2.65312E+01-6.79774E-01-2.00010E-02 1.23321E+00 6.90489E-14-1.37362E-13
 -1      2801 2.41714E+01-1.89758E+00-2.71944E-02-1.09947E-01 1.41894E-13 7.74658E-14
 -1      2802 2.38005E+01-1.81329E+00 2.51487E-02-5.76764E-01-9.24022E-15 2.44172E-13
 -1      2803 2.53988E+01-2.22792E+00-2.54962E-02-1.92125E-01 1.56460E-13-2.62864E-13
 -1      2804 1.98551E+01 4.90824E-02 4.11618E-05-1.43794E-01 9.73897E-14-1.57315E-13
 -1      2805 1.98691E+01 8.10026E-02 3.16092E-03-1.15545E-01 1.23255E-13-1.38862E-13
 -1      2806 2.28545E+01-1.31793E+00-8.26949E-03 9.36468E-01 1.15230E-13 2.45172E-13
 -1      2807 2.22888E+01-1.03906E+00-1.78155E-03 2.62509E-01-1.06265E-14 4.77477E-13
 -1      2808 2.25579E+01-1.14819E+00-1.60044E-02-4.26821E-03-1.34823E-14 4.77129E-13
 -1      2809 1.98921E+01 1.18621E-01-2.67987E-04-7.10893E-02 1.23470E-13-1.50128E-13
 -1      2810 1.99278E+01 1.70254E-01 5.19238E-03-1.56304E-02 1.50465E-13-1.36460E-13
 -1      2811 1.99916E+01 1.35250E-01-2.33805E-03-7.26393E-02 1.35828E-13-1.89476E-13
 -1      2812 1.98431E+01-1.84915E-02 2.39061E-04-1.84026E-01 7.30650E-14-1.29302E-13
 -1      2813 1.98348E+01-7.39630E-03 8.81057E-04-1.83644E-01 7.70327E-14-1.55535E-13
 -1      2814 1.98541E+01-3.18632E-02 2.49823E-04-1.76210E-01 6.57440E-14-1.24462E-13
 -1      2815 1.98414E+01-2.62327E-02 2.97040E-04-1.82016E-01 8.37626E-14-1.01492E-13
 -1      2816 1.99201E+01-2.51534E-02-8.51026E-04-1.86894E-01 6.16038E-14-1.74586E-13
 -1      2817 1.98700E+01-3.74883E-02 2.44135E-04-1.60022E-01 1.07953E-13-1.31001E-13
 -1      2818 1.98555E+01-3.54839E-02-6.53916E-05-1.69017E-01 9.58901E-14-1.31681E-13
 -1      2819 1.99199E+01-4.04292E-02-5.52396E-04-1.79163E-01 9.33713E-14-1.10421E-13
 -1      2820 1.98880E+01-3.79766E-02 2.36339E-04-1.40175E-01 8.67739E-14-5.26272E-14
 -1      2821 1.98732E+01-3.83629E-02-2.75917E-04-1.50335E-01 8.24178E-14-9.50947E-14
 -1      2822 1.99252E+01-4.64876E-02-3.42841E-04-1.62953E-01 8.45969E-14-8.74903E-14
 -1      2823 1.99064E+01-3.50767E-02 2.34679E-04-1.19866E-01 4.47515E-14 4.53204E-15
 -1      2824 1.98922E+01-3.70313E-02-3.84194E-04-1.29831E-01 9.18753E-14-9.14976E-15
 -1      2825 1.99334E+01-4.64233E-02-2.03632E-04-1.43100E-01 6.84986E-14-2.26169E-14
 -1      2826 1.99241E+01-2.99266E-02 2.44683E-04-1.01265E-01-2.68193E-14-6.32025E-14
 -1      2827 1.99110E+01-3.29230E-02-4.25869E-04-1.10116E-01 1.72096E-14-3.17492E-14
 -1      2828 1.99433E+01-4.23042E-02-1.18410E-04-1.22916E-01 4.32929E-14 1.66978E-15
 -1      2829 1.99411E+01-2.32123E-02 2.70945E-04-8.58701E-02-5.29931E-16-9.32618E-14
 -1      2830 1.99290E+01-2.69445E-02-4.26525E-04-9.29690E-02-9.83656E-16-5.23534E-14
 -1      2831 1.99538E+01-3.54620E-02-7.39407E-05-1.04674E-01 1.27138E-14-5.42763E-14
 -1      2832 1.99574E+01-1.52775E-02 3.17713E-04-7.47800E-02 5.96332E-14-1.19411E-13
 -1      2833 1.99461E+01-1.96072E-02-4.04445E-04-7.96466E-02 3.31610E-14-4.92072E-14
 -1      2834 1.99646E+01-2.66837E-02-6.04295E-05-8.99726E-02 1.76082E-14-2.87032E-14
 -1      2835 1.99736E+01-6.20366E-03 3.89264E-04-6.89003E-02-3.15713E-14-5.23425E-14
 -1      2836 1.99625E+01-1.11209E-02-3.72629E-04-7.11217E-02 2.17056E-14-8.94961E-14
 -1      2837 1.99756E+01-1.63413E-02-7.06385E-05-8.00131E-02-9.39967E-15 6.70566E-15
 -1      2838 1.99906E+01 4.12722E-03 4.89963E-04-6.91002E-02-4.07876E-15-8.46696E-15
 -1      2839 1.99791E+01-1.46479E-03-3.40234E-04-6.82608E-02-1.31855E-14-2.17365E-14
 -1      2840 1.99872E+01-4.49040E-03-9.92160E-05-7.58127E-02-2.22818E-14 8.29614E-14
 -1      2841 2.00094E+01 1.59782E-02 6.24074E-04-7.63274E-02-5.95561E-14-3.00097E-14
 -1      2842 1.99966E+01 9.55440E-03-3.13639E-04-7.19590E-02-2.17419E-14-4.75669E-14
 -1      2843 1.99997E+01 9.05079E-03-1.42265E-04-7.83637E-02-2.62233E-17 1.83606E-14
 -1      2844 2.00313E+01 2.97066E-02 7.95359E-04-9.16861E-02-5.33920E-14-1.48941E-13
 -1      2845 2.00163E+01 2.22508E-02-2.97298E-04-8.32348E-02-6.84527E-14-7.72743E-14
 -1      2846 2.00139E+01 2.46333E-02-1.96678E-04-8.87489E-02 5.61823E-15-9.61974E-15
 -1      2847 2.00578E+01 4.57065E-02 1.00635E-03-1.16478E-01 3.51339E-14-6.89073E-14
 -1      2848 2.00395E+01 3.70065E-02-2.94166E-04-1.03291E-01-2.34412E-14-1.17467E-13
 -1      2849 2.00304E+01 4.27096E-02-2.59782E-04-1.08216E-01 9.85698E-15-7.48324E-14
 -1      2850 2.00907E+01 6.43314E-02 1.25717E-03-1.52201E-01 1.36609E-13-3.85290E-14
 -1      2851 2.00678E+01 5.42061E-02-3.05793E-04-1.33532E-01 1.13520E-13-7.58259E-14
 -1      2852 2.00503E+01 6.37545E-02-3.28843E-04-1.38212E-01 6.97485E-14 1.03604E-14
 -1      2853 2.01319E+01 8.57845E-02 1.54379E-03-2.00485E-01 4.36156E-14 1.25356E-13
 -1      2854 2.01029E+01 7.41465E-02-3.32029E-04-1.75539E-01 1.13961E-13 3.31729E-14
 -1      2855 2.00746E+01 8.81574E-02-4.00901E-04-1.80365E-01 7.96892E-14 3.06011E-14
 -1      2856 2.01836E+01 1.09951E-01 1.85555E-03-2.62952E-01 1.08750E-14 9.33567E-14
 -1      2857 2.01470E+01 9.69018E-02-3.70078E-04-2.30968E-01 2.51817E-14 1.91456E-13
 -1      2858 2.01045E+01 1.16067E-01-4.72983E-04-2.36403E-01 1.21723E-14 1.22928E-13
 -1      2859 2.02479E+01 1.36143E-01 2.17166E-03-3.40960E-01 2.91386E-14-5.16464E-14
 -1      2860 2.02023E+01 1.22119E-01-4.12599E-04-3.01361E-01 6.74426E-14 1.23508E-14
 -1      2861 2.01414E+01 1.47155E-01-5.43091E-04-3.07990E-01 4.96895E-14 5.68321E-14
 -1      2862 2.03275E+01 1.62709E-01 2.45672E-03-4.35174E-01-5.43825E-14-9.49857E-14
 -1      2863 2.02711E+01 1.48703E-01-4.44349E-04-3.87818E-01-2.39891E-14-5.44973E-14
 -1      2864 2.01865E+01 1.80262E-01-6.12657E-04-3.96430E-01 3.08626E-14 6.63274E-14
 -1      2865 2.04249E+01 1.86458E-01 2.65496E-03-5.44909E-01-4.15702E-14 1.77879E-14
 -1      2866 2.03561E+01 1.74347E-01-4.36655E-04-4.90469E-01-4.52026E-14-9.17949E-15
 -1      2867 2.02418E+01 2.12861E-01-6.91477E-04-5.02217E-01-1.07535E-13 1.52299E-13
 -1      2868 2.05430E+01 2.01830E-01 2.68356E-03-6.67147E-01-1.51322E-13 1.73497E-13
 -1      2869 2.04605E+01 1.94836E-01-3.38931E-04-6.07680E-01-1.30457E-13 7.56633E-14
 -1      2870 2.03096E+01 2.40278E-01-8.06478E-04-6.24351E-01-1.35732E-13 1.33957E-13
 -1      2871 2.06854E+01 1.99815E-01 2.42509E-03-7.95117E-01-8.95160E-14 8.56786E-14
 -1      2872 2.05882E+01 2.03099E-01-6.69284E-05-7.34876E-01-1.19730E-13 1.29980E-13
 -1      2873 2.03931E+01 2.54606E-01-1.01556E-03-7.59348E-01-1.03107E-13 1.06746E-13
 -1      2874 2.08574E+01 1.66726E-01 1.71991E-03-9.16371E-01 1.47047E-13 1.23629E-13
 -1      2875 2.07444E+01 1.88024E-01 5.10649E-04-8.62879E-01 3.59778E-14 1.72514E-13
 -1      2876 2.04978E+01 2.43334E-01-1.42606E-03-8.99856E-01-2.05604E-14 7.16000E-14
 -1      2877 2.10663E+01 8.33149E-02 3.57727E-04-1.01031E+00 1.98992E-13 8.35405E-14
 -1      2878 2.09370E+01 1.33312E-01 1.58052E-03-9.75654E-01 2.46304E-13 2.28850E-13
 -1      2879 2.06331E+01 1.87914E-01-2.21200E-03-1.03275E+00 1.90435E-13 2.29230E-13
 -1      2880 2.13236E+01-7.45050E-02-1.93599E-03-1.04537E+00 1.25429E-13 4.12721E-14
 -1      2881 2.11778E+01 1.71564E-02 3.36666E-03-1.04746E+00 2.20205E-13 3.66425E-14
 -1      2882 2.08141E+01 6.30248E-02-3.61449E-03-1.13661E+00 2.11664E-13 2.35252E-13
 -1      2883 2.16444E+01-3.30603E-01-5.46221E-03-9.76551E-01-2.97360E-14 1.43081E-14
 -1      2884 2.14831E+01-1.85395E-01 6.03753E-03-1.03969E+00 6.82023E-15 5.01236E-14
 -1      2885 2.10650E+01-1.61628E-01-5.88583E-03-1.17840E+00 7.40472E-14 3.85369E-14
 -1      2886 2.20440E+01-6.94484E-01-1.04042E-02-7.45427E-01-5.74068E-14 1.91593E-13
 -1      2887 2.18723E+01-4.93646E-01 9.52439E-03-8.98507E-01-5.25706E-14 1.70699E-13
 -1      2888 2.14191E+01-5.13075E-01-9.02459E-03-1.10965E+00-1.04099E-13-2.61369E-14
 -1      2889 2.25251E+01-1.13220E+00-1.62426E-02-2.87348E-01-1.63364E-13 2.49406E-13
 -1      2890 2.23577E+01-9.00802E-01 1.29577E-02-5.56818E-01-1.02546E-13 2.68943E-13
 -1      2891 2.19145E+01-9.94099E-01-1.22686E-02-8.63711E-01-1.41326E-13 1.61415E-13
 -1      2892 2.30517E+01-1.52100E+00-2.04987E-02 4.42800E-01-1.88281E-13 3.22409E-13
 -1      2893 2.29203E+01-1.33627E+00 1.40735E-02 5.08071E-02-1.57831E-13 3.41783E-13
 -1      2894 2.25730E+01-1.54146E+00-1.31948E-02-3.60180E-01-1.40596E-13 2.64788E-13
 -1      2895 2.35162E+01-1.61460E+00-1.81587E-02 1.40832E+00-1.05564E-13 3.64090E-13
 -1      2896 2.34696E+01-1.61924E+00 8.27259E-03 9.41161E-01-1.14589E-13 3.75251E-13
 -1      2897 2.33543E+01-1.96496E+00-7.42936E-03 4.65035E-01-2.19546E-13 2.32869E-13
 -1      2898 2.37274E+01-1.10118E+00-8.73359E-03 2.39050E+00-1.32137E-13 5.21919E-13
 -1      2899 2.38188E+01-1.45326E+00-9.69636E-03 1.98847E+00-1.58096E-13 4.90549E-13
 -1      2900 2.40945E+01-1.92254E+00 5.14187E-03 1.57417E+00-2.22230E-13 3.01046E-13
 -1      2901 2.35236E+01 1.71740E-01 9.98224E-03 2.93645E+00-2.66046E-13 4.42171E-13
 -1      2902 2.37550E+01-5.53604E-01-3.53729E-02 2.82869E+00-1.42018E-13 6.53922E-13
 -1      2903 2.45087E+01-1.06472E+00 7.86326E-03 2.67652E+00-1.83130E-13 6.00756E-13
 -1      2904 2.29911E+01 1.72667E+00 1.42189E-02 2.53325E+00-1.51905E-13 3.25003E-13
 -1      2905 2.32455E+01 9.38470E-01-5.74400E-02 2.86612E+00-2.77193E-13 2.67951E-13
 -1      2906 2.43595E+01 7.35812E-01 4.50592E-04 3.16497E+00-1.48177E-13 3.65078E-13
 -1      2907 2.25356E+01 2.58779E+00-9.93715E-03 1.12853E+00-5.52787E-14 3.94445E-13
 -1      2908 2.26538E+01 2.28997E+00-5.06384E-02 1.81573E+00-6.86829E-14 3.59068E-13
 -1      2909 2.38437E+01 2.57659E+00-1.00894E-02 2.45911E+00-1.51636E-13 4.29294E-13
 -1      2910 2.25167E+01 2.10113E+00-4.91531E-02-4.77114E-01 1.78069E-13 4.03756E-13
 -1      2911 2.24963E+01 2.51985E+00-1.12877E-02 1.87699E-01 4.99184E-14 4.54767E-13
 -1      2912 2.35767E+01 3.22611E+00-2.52652E-02 7.33684E-01-5.24580E-14 3.40066E-13
 -1      2913 2.28225E+01 7.07349E-01-5.36811E-02-1.30575E+00 2.10537E-13 5.70650E-13
 -1      2914 2.27603E+01 1.46167E+00 1.56632E-02-1.03056E+00 2.50498E-13 5.79085E-13
 -1      2915 2.37557E+01 2.15474E+00-3.07189E-02-8.88044E-01 8.28226E-14 4.26858E-13
 -1      2916 2.29215E+01-5.44027E-01-3.87505E-02-1.13383E+00 1.91594E-13 5.40295E-13
 -1      2917 2.29494E+01 2.08344E-02 1.06063E-02-1.26800E+00 1.88724E-13 6.31511E-13
 -1      2918 2.40362E+01 4.43915E-01 8.91965E-03-1.38049E+00 2.78760E-13 7.02842E-13
 -1      2919 2.28046E+01-1.09111E+00-2.09922E-02-4.62226E-01 1.38517E-13 5.87200E-13
 -1      2920 2.29702E+01-8.90186E-01-9.51330E-03-7.77080E-01 2.12138E-13 5.64339E-13
 -1      2921 2.41274E+01-8.95833E-01 2.53366E-02-8.64904E-01 2.14100E-13 7.55012E-13
 -1      2922 2.38818E+01-1.50676E+00 2.86424E-02 5.01270E-02 1.58361E-13 5.09202E-13
 -1      2923 1.32725E+01 1.77734E+00 4.01103E-03 2.54240E+00-3.14332E-13-1.61829E-13
 -1      2924 1.48738E+01 1.32882E+00 1.54360E-01 4.16111E+00 1.19557E-14-4.83627E-13
 -1      2925 2.31359E+01-1.60495E+00-2.01876E-02-9.78646E-01-7.30236E-14 3.58913E-13
 -1      2926 2.27923E+01-1.31400E+00 1.13329E-02-1.16428E+00-2.24096E-13 4.41617E-13
 -1      2927 2.41417E+01-2.25883E+00-3.80701E-02-1.31072E+00 1.11267E-13-4.86881E-13
 -1      2928 2.08170E+01-1.44256E+00-7.03452E-03 5.55613E+00 2.79362E-13 4.52180E-13
 -1      2929 2.22207E+01-1.89550E+00 4.81060E-02 5.05401E+00 2.99913E-13 1.17455E-13
 -1      2930 1.29290E+01 1.80084E+00 7.71577E-02-2.01413E+00-4.17341E-13-5.08149E-13
 -1      2931 1.25412E+01 2.04115E+00 1.11573E-01-3.14425E-02-3.98781E-13-2.58418E-13
 -1      2932 1.67047E+01 1.45028E-01-1.69566E-02 5.45724E+00 2.23110E-13-4.54060E-13
 -1      2933 1.89354E+01-5.45629E-01 1.39665E-01 5.93253E+00 3.41973E-13 1.64393E-13
 -1      2934 2.01492E+01-2.25233E+00 7.26337E-02 6.26146E+00 1.97044E-13 2.54179E-13
 -1      2935 1.50933E+01-2.85958E-01 1.31318E-01 5.41064E+00 1.27481E-13-5.10730E-13
 -1      2936 1.55918E+01 3.99340E-01 1.53137E-01-5.11861E+00-3.47708E-13-6.37393E-13
 -1      2937 1.35815E+01 1.05635E+00 2.34500E-02-3.88338E+00-5.24733E-13-4.05093E-13
 -1      2938 2.06797E+01-1.23658E+00 1.29663E-01-5.67209E+00 1.29820E-13-1.25937E-13
 -1      2939 1.86716E+01-6.78516E-01-3.19363E-02-5.79271E+00-7.38055E-14-5.39652E-13
 -1      2940 2.29010E+01-2.00095E+00 5.49121E-03-4.12901E+00 2.83428E-13-1.21562E-13
 -1      2941 2.20126E+01-1.66909E+00 1.11749E-02-4.85648E+00 2.16347E-13-5.78097E-14
 -1      2942 2.16391E+01-2.69062E+00-5.35483E-03-5.60720E+00 2.48291E-13-3.60510E-14
 -1      2943 2.90403E+01-3.74204E+00-1.69856E-01-4.59926E-01 1.70980E-13-4.08645E-13
 -1      2944 2.78681E+01-4.96494E+00 1.77887E-02 9.35088E-01 3.06775E-13-4.90913E-13
 -1      2945 3.05868E+01 1.73844E+00-8.44289E-02 1.28428E+00-4.04121E-14-4.23578E-13
 -1      2946 3.01376E+01 3.53692E+00-2.25620E-01 1.23295E+00 1.27759E-13-4.26492E-13
 -1      2947 1.82536E+01-4.56011E+00 6.20476E-03 7.91150E+00-1.86823E-13-2.69840E-13
 -1      2948 1.45157E+01-3.15910E+00 1.96418E-01 7.32228E+00-1.97314E-13-3.64819E-13
 -1      2949 2.03202E+01 1.70978E+00-9.82653E-03-1.33145E+00-3.39277E-13-1.76359E-13
 -1      2950 2.02876E+01 1.32816E+00-7.05696E-03-1.03432E+00-3.19828E-13-1.46677E-13
 -1      2951 2.88955E+01-3.59197E+00 2.47877E-02 3.05909E-01-6.22419E-15-4.20719E-13
 -1      2952 2.97504E+01-1.91346E+00-1.97749E-01 1.58429E+00-9.32587E-15-5.73486E-13
 -1      2953 1.99615E+01 2.30955E-01-8.26517E-04 6.24851E-02 1.65483E-13-1.46291E-13
 -1      2954 2.00273E+01 3.14875E-01 7.83997E-03 1.60106E-01 1.95394E-13-1.43999E-13
 -1      2955 2.00563E+01 2.65698E-01-2.74258E-03 6.04533E-02 1.62765E-13-1.43211E-13
 -1      2956 1.98414E+01 6.51583E-03 1.85345E-04-1.76570E-01 7.98360E-14-1.67931E-13
 -1      2957 1.98414E+01 2.58522E-02 1.78635E-03-1.65561E-01 9.27190E-14-1.63588E-13
 -1      2958 1.99510E+01 5.37943E-02-1.76790E-03-1.45825E-01 1.01705E-13-1.77812E-13
 -1      2959 1.99289E+01 3.93980E-03-1.25569E-03-1.79137E-01 5.77453E-14-1.60575E-13
 -1      2960 2.03191E+01 1.03593E+00 5.04023E-03-8.33245E-01-2.98418E-13-1.30386E-13
 -1      2961 2.02253E+01 7.98838E-01-5.16731E-03-5.92911E-01-2.69014E-13-1.26658E-13
 -1      2962 2.02617E+01 8.78654E-01 2.18140E-03-5.53791E-01-2.66898E-13-1.69332E-13
 -1      2963 2.02796E+01 1.38613E+00 1.93224E-03-9.19490E-01-2.96124E-13-1.91762E-13
 -1      2964 3.02229E+01-2.86418E+00 1.29522E-02-1.03205E+00-2.05738E-14-1.93900E-13
 -1      2965 3.07957E+01-6.63283E-01-2.03228E-01 3.53884E-01 6.46705E-15-2.65288E-13
 -1      2966 2.94366E+01 7.80833E-02-6.01661E-02 1.08922E+00 6.38378E-15-5.94719E-13
 -1      2967 2.00702E+01 4.15571E-01-1.61780E-03 2.87531E-01 2.22621E-13-1.68781E-13
 -1      2968 2.01716E+01 5.54017E-01 1.04821E-02 4.50433E-01 2.56742E-13-1.61120E-13
 -1      2969 2.02541E+01 8.21909E-01 8.41500E-04 6.17125E-01 2.69801E-13-1.98626E-13
 -1      2970 2.01463E+01 4.77726E-01-1.88895E-03 2.80113E-01 2.15958E-13-1.73371E-13
 -1      2971 3.07670E+01 4.75785E-01-1.67778E-01-7.06168E-01-1.28619E-13-9.88223E-13
 -1      2972 3.02668E+01-1.70268E+00-7.60737E-02 2.61486E-01-4.01443E-13-7.62196E-13
 -1      2973 1.81858E+01-5.90409E+00 8.98484E-02-6.14207E+00 1.83686E-13-6.88616E-14
 -1      2974 2.15408E+01-6.48112E+00-2.92989E-02-5.47855E+00 8.18512E-14-9.22526E-14
 -1      2975 1.99230E+01 2.59590E+00-7.90107E-03 7.94340E-01 2.07238E-13-4.22694E-13
 -1      2976 1.98791E+01 2.68804E+00-6.14524E-03 6.45321E-01 1.51980E-13-4.42862E-13
 -1      2977 1.99979E+01 2.38848E+00 4.39318E-03 5.16600E-01 1.28199E-13-4.15246E-13
 -1      2978 2.00796E+01 2.19064E+00 5.64593E-03 7.45596E-01 2.12788E-13-3.76487E-13
 -1      2979 1.98741E+01 2.69700E+00-6.01219E-03-6.34868E-01-1.54721E-13-4.26330E-13
 -1      2980 1.99174E+01 2.60726E+00-7.55927E-03-7.83988E-01-1.96852E-13-4.05617E-13
 -1      2981 2.92414E+01 4.11315E+00-2.05053E-01-1.27921E+00 1.09718E-13-7.87620E-13
 -1      2982 3.03476E+01 2.45058E+00-1.04032E-01-1.28526E+00 6.17839E-14-8.90482E-13
 -1      2983 2.90454E+01 8.35155E-01-1.03356E-01-1.24138E+00-2.49967E-13-9.85240E-13
 -1      2984 3.01277E+01 8.58682E-01-1.90601E-01-3.03757E+00 1.60830E-13-3.02980E-13
 -1      2985 2.99224E+01-1.50155E+00-5.03698E-02-2.15515E+00 1.97023E-13-2.58821E-13
 -1      2986 2.47300E+01-6.02036E+00 9.04910E-02-3.72731E+00-8.78464E-15-2.35048E-13
 -1      2987 2.71696E+01-5.43557E+00-1.61331E-01-1.80088E+00-1.06512E-14-2.42320E-13
 -1      2988 2.38424E+01-5.97828E+00 7.04196E-02-3.83780E+00 5.01127E-14-2.90719E-13
 -1      2989 6.72155E+00-1.72946E+00 1.48456E-01-2.34694E+00 7.91520E-14-3.29681E-13
 -1      2990 8.02622E+00-2.42275E+00 1.82889E-01-4.19227E+00 1.89182E-13-2.76279E-13
 -1      2991 2.86330E+01 6.27539E+00-2.33346E-01-1.07126E+00-1.40832E-13-1.90827E-13
 -1      2992 2.87058E+01 5.72884E+00-1.73640E-01-2.28170E+00-1.12799E-13-1.29820E-13
 -1      2993 1.16592E+01-3.69499E+00 5.14025E-02 5.70682E+00 4.32890E-13-1.03556E-13
 -1      2994 9.65873E+00-2.64681E+00 2.03705E-01 4.58839E+00 4.43146E-13-2.34396E-13
 -1      2995 2.68079E+01-5.55172E+00 5.99056E-02-4.69349E+00-6.62109E-14-1.90042E-13
 -1      2996 2.87730E+01-4.90968E+00-1.30169E-01-3.19134E+00-1.03327E-13-1.24484E-14
 -1      2997 2.97915E+01 4.46092E+00-2.20545E-01-3.08350E+00-6.63358E-14-1.86490E-13
 -1      2998 3.00430E+01 3.14660E+00-1.30169E-01-3.38326E+00 1.98730E-14-2.02754E-13
 -1      2999 2.57181E+01-6.09482E+00-9.12606E-02 2.93869E+00 3.12056E-13-5.24462E-13
 -1      3000 2.26105E+01-6.29715E+00 9.51025E-02 4.47333E+00 3.69288E-13-4.62998E-13
 -1      3001 2.64846E+01-5.37450E+00 3.65784E-02 1.45839E+00 4.35200E-13-3.75679E-13
 -1      3002 2.00855E+01 2.52680E+00-2.10737E-03-1.45728E+00-3.32659E-13-2.89281E-13
 -1      3003 2.43984E+01-5.65059E+00-2.64517E-02 6.31444E+00-1.32186E-13 3.15336E-13
 -1      3004 2.20249E+01-5.23438E+00 1.45599E-01 7.04576E+00-4.31322E-14 8.51194E-14
 -1      3005 2.28973E+01-1.46513E+00-2.92033E-02-1.81873E+00-9.81238E-14-1.33778E-13
 -1      3006 2.18070E+01-5.64978E+00 9.12956E-02-7.16075E+00 1.06887E-13 4.18693E-14
 -1      3007 2.44583E+01-5.97930E+00-2.65106E-02-6.39911E+00 1.17129E-14-2.26048E-13
 -1      3008 2.56795E+01-5.45019E+00-4.84274E-03-5.05970E+00-1.55292E-13-3.91215E-14
 -1      3009 2.10772E+01-4.70795E+00 8.65050E-02-7.08081E+00-3.90243E-14 1.59678E-13
 -1      3010 3.02363E+01 8.47363E-01-7.13807E-02 2.67575E+00-1.54737E-14-4.27075E-13
 -1      3011 3.03387E+01 3.01915E+00-2.02251E-01 2.95391E+00-1.29646E-13-4.37442E-13
 -1      3012 1.99721E+01 2.48959E+00-5.42185E-03-9.01648E-01-2.23367E-13-3.78596E-13
 -1      3013 2.00330E+01 2.36013E+00-6.72785E-03-1.03593E+00-2.60180E-13-3.58394E-13
 -1      3014 2.00729E+01 2.20488E+00 5.97757E-03-7.39333E-01-1.94192E-13-3.51101E-13
 -1      3015 1.99324E+01 2.53853E+00 3.44906E-03 4.61948E-03-1.38016E-14-4.10517E-13
 -1      3016 1.97933E+01 2.87001E+00-5.48086E-03-6.18836E-02-2.71796E-14-4.39429E-13
 -1      3017 1.98008E+01 2.85539E+00-5.53326E-03-2.16582E-01-6.19965E-14-4.50661E-13
 -1      3018 2.87893E+01-2.54663E+00 1.54208E-02-1.91558E+00 2.14308E-13-1.74236E-13
 -1      3019 1.51314E+01-3.76226E+00 1.55420E-01 5.38699E+00 3.12778E-13-2.19894E-13
 -1      3020 2.95794E+01-3.08273E+00-7.26138E-02 9.59623E-01-3.27931E-13-7.24754E-13
 -1      3021 2.83137E+01-3.78836E+00 1.66165E-02 1.80432E+00-1.70869E-13-5.82395E-13
 -1      3022 2.88211E+01-1.97550E+00-7.55049E-02-1.64907E-01-2.69590E-13-9.30783E-13
 -1      3023 2.02906E+01 1.58768E+00-1.21483E-03 1.16553E+00 3.46948E-13-2.61622E-13
 -1      3024 2.33446E+01-2.95484E+00 8.98829E-03 4.59770E+00 2.47427E-13-1.12806E-13
 -1      3025 2.30794E+01-1.84635E+00 3.91099E-02 3.92823E+00 4.69810E-13-1.99343E-13
 -1      3026 2.33870E+01-2.03312E+00-1.66247E-02 3.09792E+00 6.04834E-13-5.04180E-14
 -1      3027 1.12762E+01 1.06126E+00 1.45494E-01 1.45247E+00-3.59247E-13-3.24102E-13
 -1      3028 1.62086E+01-1.36093E+00 1.03598E-01-6.16739E+00-2.11553E-13-4.48391E-13
 -1      3029 2.32478E+01-1.47774E+00 2.05276E-02 1.66271E+00 3.38179E-13 1.00428E-13
 -1      3030 2.01443E+01 2.17320E+00 5.11146E-04-1.20652E+00-2.97527E-13-2.99327E-13
 -1      3031 2.92062E+01 6.46702E+00-1.45874E-01 1.18725E+00 8.42104E-14-2.95588E-13
 -1      3032 2.31225E+01-1.49223E+00 3.11359E-02-2.59694E+00 2.73218E-13-5.03118E-13
 -1      3033 2.90420E+01-7.39644E-01-8.33913E-02 2.54946E+00-6.14092E-14-4.86611E-13
 -1      3034 2.02794E+01 1.36639E+00 2.01178E-03 9.19266E-01 3.02060E-13-2.60704E-13
 -1      3035 2.76844E+01-4.39155E+00 6.93091E-03-2.90901E-01-3.13742E-14-5.10328E-13
 -1      3036 2.08081E+01-4.04897E+00 1.30727E-01 6.95739E+00-7.33441E-14 1.57936E-13
 -1      3037 1.09433E+01-1.93713E+00 7.33656E-02 6.12587E+00-5.08760E-14-5.95746E-13
 -1      3038 8.87120E+00-1.06125E+00 1.82198E-01 4.00017E+00 1.94449E-13-3.57298E-13
 -1      3039 9.69781E+00-1.77707E+00 1.77261E-01 3.52342E+00 3.46521E-13-1.76109E-13
 -1      3040 8.12790E+00-1.90024E-01 1.42019E-01 8.55204E-01-1.52616E-13-3.32984E-13
 -1      3041 8.84559E+00 8.03555E-02 1.98740E-01-1.98007E+00-2.53214E-13-5.74762E-13
 -1      3042 1.04306E+01-2.64473E+00 1.55778E-01-4.71839E+00 6.48370E-14-2.70423E-13
 -1      3043 1.50130E+01-4.12389E+00 1.00701E-01-5.92000E+00 7.43017E-14-2.33008E-14
 -1      3044 1.66639E+01-5.23791E+00 1.18274E-01-6.24128E+00 2.01936E-13 3.60822E-14
 -1      3045 1.90453E+01-5.41125E+00-1.61306E-02-5.49769E+00 1.30049E-13-9.00391E-14
 -1      3046 2.37490E+01-2.38099E+00 3.42725E-02-3.03440E+00 1.99714E-13-4.50144E-13
 -1      3047 1.98163E+01 2.81992E+00-5.68727E-03-3.51771E-01-9.07830E-14-4.34256E-13
 -1      3048 1.98404E+01 2.77174E+00-6.17765E-03-5.05318E-01-1.30503E-13-4.22270E-13
 -1      3049 1.99937E+01 2.39636E+00 4.46086E-03-5.07479E-01-1.31584E-13-3.96335E-13
 -1      3050 1.99471E+01 2.50452E+00 3.67790E-03-2.55792E-01-7.25656E-14-4.18014E-13
 -1      3051 2.86413E+01 4.60103E+00-1.77532E-01-1.08555E+00 1.55820E-13-6.15938E-13
 -1      3052 2.76436E+01 3.38145E+00-4.41174E-02-1.40811E+00-8.16569E-14-6.82197E-13
 -1      3053 2.75278E+01 5.15970E+00-1.76659E-01-5.95969E-01 1.15657E-13-5.18308E-13
 -1      3054 8.18136E+00-7.53400E-01 5.37733E-02 7.03345E-01 1.83453E-13-3.19522E-13
 -1      3055 7.33164E+00-1.08259E+00 2.13703E-01-8.40381E-01 1.27852E-13-3.37952E-13
 -1      3056 8.77631E+00-8.48450E-01 1.38478E-01-1.77355E+00 2.36677E-14-2.31731E-13
 -1      3057 2.89544E+01-3.80992E+00-3.78298E-02-1.61037E+00-1.00128E-14-2.27110E-13
 -1      3058 2.88747E+01 1.41143E+00-4.35844E-02-3.42905E+00 1.01641E-13 8.78464E-14
 -1      3059 3.01005E+01 5.57409E+00-1.52461E-01 8.02664E-01 2.05447E-13-2.66745E-13
 -1      3060 2.97151E+01 6.55198E+00-2.18585E-01-1.34716E-01 3.07254E-14-2.17579E-13
 -1      3061 1.15074E+01 4.04858E-01 1.95995E-01-3.10975E+00-3.12667E-13-5.08954E-13
 -1      3062 2.16022E+01-5.62475E+00 1.09732E-01 4.42952E+00 3.21243E-13-4.17164E-13
 -1      3063 2.60735E+01-5.12308E+00 2.15677E-02 4.64141E+00-1.13458E-13-5.96606E-14
 -1      3064 2.83186E+01 2.71620E+00-4.10693E-02 3.33505E+00-1.56347E-13-2.31731E-13
 -1      3065 2.96347E+01 3.98277E+00-1.41740E-01 3.07833E+00-2.60486E-13-3.45765E-13
 -1      3066 2.81814E+01 4.78805E+00-2.22713E-01 2.84341E+00-1.85962E-13-3.05214E-13
 -1      3067 1.44966E+01-1.70408E+00 1.96933E-01 6.38586E+00-1.39402E-13-5.16254E-13
 -1      3068 2.85804E+01 3.92577E+00-1.11564E-01 1.19936E+00 1.69753E-13-3.48013E-13
 -1      3069 2.02400E+01 1.48152E+00-6.06678E-03 8.02825E-01 2.43184E-13-3.02051E-13
 -1      3070 2.02009E+01 1.66945E+00-3.73764E-04 7.46784E-01 2.22681E-13-3.32548E-13
 -1      3071 1.51130E+01-2.15143E+00 9.71412E-02-6.53219E+00-2.91017E-13-3.65555E-13
 -1      3072 2.02205E+01 4.22605E-01 4.02729E-03-1.20535E-01-1.75546E-13-1.60412E-13
 -1      3073 2.01812E+01 3.15024E-01-2.30632E-03-3.55928E-02-1.42318E-13-1.42455E-13
 -1      3074 2.01673E+01 2.31252E-01 3.20537E-03 2.59450E-02-1.45111E-13-1.43403E-13
 -1      3075 2.01369E+01 1.60480E-01-1.31949E-03 7.67510E-02-1.38530E-13-1.62717E-13
 -1      3076 2.02372E+01 3.31694E-01-8.01295E-04-2.64420E-02-1.38106E-13-1.73554E-13
 -1      3077 2.01201E+01 1.06358E-01 2.23297E-03 1.12417E-01-9.54156E-14-1.34173E-13
 -1      3078 2.00989E+01 6.11022E-02-6.33562E-04 1.39433E-01-6.42564E-14-1.26066E-13
 -1      3079 2.01966E+01 1.66697E-01-1.01884E-03 7.59289E-02-1.17741E-13-1.70500E-13
 -1      3080 2.00826E+01 2.70514E-02 1.46947E-03 1.56927E-01-3.27374E-14-1.31789E-13
 -1      3081 2.00689E+01-7.86739E-04-1.97845E-04 1.67980E-01-2.52296E-14-1.07726E-13
 -1      3082 2.01576E+01 6.01246E-02-9.72516E-04 1.33448E-01-5.51887E-14-1.42341E-13
 -1      3083 2.00545E+01-2.11227E-02 8.87325E-04 1.73254E-01-2.67428E-14-8.97363E-14
 -1      3084 2.00464E+01-3.70056E-02 6.98075E-05 1.74120E-01-4.35341E-14-3.97748E-14
 -1      3085 2.01235E+01-6.22439E-03-8.44089E-04 1.59589E-01-1.91991E-14-1.23949E-13
 -1      3086 2.00342E+01-4.79503E-02 4.67688E-04 1.71718E-01-6.36756E-14-2.92628E-14
 -1      3087 2.00302E+01-5.56575E-02 2.28086E-04 1.66551E-01-3.24615E-14 9.37963E-15
 -1      3088 2.00952E+01-4.47461E-02-6.98943E-04 1.64995E-01-3.83462E-14-9.76437E-14
 -1      3089 2.00203E+01-6.02038E-02 1.77968E-04 1.59807E-01-3.78513E-14 1.08830E-14
 -1      3090 2.00191E+01-6.23671E-02 3.16669E-04 1.51548E-01-1.91653E-14-6.07116E-15
 -1      3091 2.00725E+01-6.41108E-02-5.63085E-04 1.57718E-01-4.02348E-14-5.47731E-14
 -1      3092 2.00111E+01-6.25886E-02-1.50505E-05 1.42843E-01-3.82769E-14-3.05865E-14
 -1      3093 2.00118E+01-6.10215E-02 3.63124E-04 1.33544E-01-5.92280E-14-8.32769E-15
 -1      3094 2.00548E+01-7.04013E-02-4.46208E-04 1.43633E-01-2.02707E-14-4.30643E-14
 -1      3095 2.00056E+01-5.83276E-02-1.40212E-04 1.24552E-01-9.55593E-14-1.20300E-14
 -1      3096 2.00076E+01-5.42380E-02 3.87277E-04 1.15637E-01-9.86353E-14-5.93990E-14
 -1      3097 2.00413E+01-6.78322E-02-3.49706E-04 1.26931E-01-8.85954E-14-5.83960E-14
 -1      3098 2.00028E+01-4.95416E-02-2.21113E-04 1.07533E-01-1.39647E-13-9.76990E-14
 -1      3099 2.00056E+01-4.36799E-02 4.03436E-04 1.00008E-01-1.32719E-13-1.44859E-13
 -1      3100 2.00314E+01-5.92290E-02-2.71931E-04 1.10562E-01-1.55063E-13-1.47199E-13
 -1      3101 2.00021E+01-3.75177E-02-2.76223E-04 9.36341E-02-1.21862E-13-1.47281E-13
 -1      3102 2.00055E+01-3.02864E-02 4.21960E-04 8.82413E-02-1.36075E-13-1.46801E-13
 -1      3103 2.00243E+01-4.63646E-02-2.10192E-04 9.66304E-02-1.56117E-13-1.15421E-13
 -1      3104 2.00028E+01-2.29080E-02-3.20122E-04 8.42488E-02-1.34820E-13-1.18844E-13
 -1      3105 2.00068E+01-1.44411E-02 4.50710E-04 8.15894E-02-1.23991E-13-8.67506E-14
 -1      3106 2.00193E+01-3.02084E-02-1.60500E-04 8.66964E-02-1.14220E-13-1.68041E-13
 -1      3107 2.00047E+01-5.87249E-03-3.64513E-04 8.05357E-02-9.01109E-14-2.95048E-14
 -1      3108 2.00093E+01 3.90352E-03 4.95644E-04 8.11639E-02-6.22415E-14-9.16113E-15
 -1      3109 2.00159E+01-1.11124E-02-1.18807E-04 8.20155E-02-5.63620E-14 1.06529E-14
 -1      3110 2.00074E+01 1.38071E-02-4.18771E-04 8.35963E-02-7.38254E-14 3.97404E-15
 -1      3111 2.00128E+01 2.51227E-02 5.61038E-04 8.80896E-02-5.77086E-14 5.43137E-14
 -1      3112 2.00135E+01 1.10477E-02-8.10149E-05 8.37273E-02-4.60740E-14 5.31263E-14
 -1      3113 2.00108E+01 3.66315E-02-4.90649E-04 9.46030E-02-4.54371E-14 1.11828E-13
 -1      3114 2.00170E+01 4.98286E-02 6.49756E-04 1.03611E-01-4.43642E-14 1.32796E-13
 -1      3115 2.00114E+01 3.67545E-02-4.23412E-05 9.29950E-02-2.83297E-14 1.03161E-14
 -1      3116 2.00145E+01 6.32963E-02-5.86706E-04 1.14887E-01-5.45035E-14 1.01587E-13
 -1      3117 2.00218E+01 7.87822E-02 7.63223E-04 1.29161E-01 3.84101E-15 4.05099E-14
 -1      3118 2.00091E+01 6.67411E-02 2.48931E-06 1.11102E-01-2.95448E-14 1.09223E-13
 -1      3119 2.00184E+01 9.45980E-02-7.12310E-04 1.45989E-01 4.12633E-14 2.57229E-14
 -1      3120 2.00269E+01 1.12790E-01 9.01172E-04 1.66393E-01 8.84936E-14-1.91064E-14
 -1      3121 2.00057E+01 1.01884E-01 5.93775E-05 1.39512E-01-1.09920E-15 7.01743E-14
 -1      3122 2.00219E+01 1.31317E-01-8.71350E-04 1.89671E-01 1.00245E-13-1.53359E-14
 -1      3123 2.00319E+01 1.52564E-01 1.06132E-03 2.17164E-01 1.17486E-13-7.77014E-14
 -1      3124 2.00004E+01 1.43070E-01 1.34852E-04 1.79886E-01 6.43409E-14 9.66178E-14
 -1      3125 2.00247E+01 1.74048E-01-1.06548E-03 2.47877E-01 8.70348E-14-7.37485E-14
 -1      3126 2.00362E+01 1.98521E-01 1.23921E-03 2.83465E-01 2.98891E-14-2.03867E-14
 -1      3127 1.99919E+01 1.91023E-01 2.35625E-04 2.34062E-01 1.07670E-13-1.12360E-14
 -1      3128 2.00260E+01 2.22956E-01-1.29262E-03 3.22637E-01-4.11258E-14-6.51208E-14
 -1      3129 2.00392E+01 2.50471E-01 1.42854E-03 3.67288E-01-4.32001E-14-5.83910E-14
 -1      3130 1.99788E+01 2.46044E-01 3.67379E-04 3.03978E-01-1.32098E-14-7.57346E-14
 -1      3131 2.00251E+01 2.77389E-01-1.54436E-03 4.15905E-01-4.74790E-15-1.18780E-13
 -1      3132 2.00401E+01 3.07142E-01 1.62278E-03 4.70408E-01 5.27346E-14-6.16680E-14
 -1      3133 1.99595E+01 3.07625E-01 5.32068E-04 3.91552E-01-7.10108E-14-1.08206E-13
 -1      3134 2.00212E+01 3.35293E-01-1.80164E-03 5.29310E-01 8.25593E-14-1.64582E-13
 -1      3135 2.00380E+01 3.65458E-01 1.81897E-03 5.94067E-01 1.13714E-13-1.00982E-13
 -1      3136 1.99323E+01 3.73867E-01 7.22581E-04 4.98500E-01 8.18692E-14-1.74320E-13
 -1      3137 2.00139E+01 3.92313E-01-2.02770E-03 6.63818E-01 1.39709E-13-1.30439E-13
 -1      3138 2.00331E+01 4.19428E-01 2.02512E-03 7.38561E-01 8.20729E-14-1.38424E-13
 -1      3139 1.98954E+01 4.40606E-01 9.12852E-04 6.26131E-01 1.02996E-13-2.61869E-13
 -1      3140 2.00038E+01 4.40456E-01-2.15655E-03 8.19307E-01-7.88173E-15-1.06409E-13
 -1      3141 2.00269E+01 4.58547E-01 2.27193E-03 9.02721E-01-6.23186E-14-2.37185E-14
 -1      3142 1.98482E+01 5.00111E-01 1.04053E-03 7.75131E-01 9.15891E-14-3.56655E-13
 -1      3143 1.99944E+01 4.66181E-01-2.07384E-03 9.94051E-01-1.03258E-13 4.07832E-14
 -1      3144 2.00250E+01 4.65540E-01 2.62761E-03 1.08328E+00-1.40291E-14 1.48770E-14
 -1      3145 1.97917E+01 5.39234E-01 9.78159E-04 9.45416E-01-2.25978E-14-1.66837E-13
 -1      3146 1.99946E+01 4.47830E-01-1.58323E-03 1.18407E+00-7.06152E-14 2.83120E-14
 -1      3147 2.00400E+01 4.13507E-01 3.20813E-03 1.27404E+00-7.29707E-14 2.77451E-14
 -1      3148 1.97319E+01 5.36860E-01 4.88472E-04 1.13608E+00 3.01949E-14-3.13516E-14
 -1      3149 2.00232E+01 3.52611E-01-3.40387E-04 1.38216E+00-3.65180E-16-1.08240E-14
 -1      3150 2.00976E+01 2.62841E-01 4.14360E-03 1.46457E+00-8.61771E-16 6.98885E-14
 -1      3151 1.96831E+01 4.60697E-01-8.39785E-04 1.34542E+00-2.42763E-14-4.14569E-14
 -1      3152 2.01168E+01 1.33921E-01 2.25900E-03 1.57588E+00-2.50939E-14 6.66320E-14
 -1      3153 2.02446E+01-4.05167E-02 5.47015E-03 1.63715E+00-1.52986E-13-7.52751E-15
 -1      3154 1.96750E+01 2.63715E-01-3.68645E-03 1.57041E+00-2.75433E-14-1.60241E-13
 -1      3155 2.03402E+01-2.68244E-01 7.31231E-03 1.74242E+00-1.98072E-13-9.49138E-16
 -1      3156 2.05584E+01-5.61541E-01 6.63478E-03 1.75967E+00 5.32788E-15-8.44813E-14
 -1      3157 1.97630E+01-1.18024E-01-9.02091E-03 1.80391E+00-1.14803E-13-1.63153E-13
 -1      3158 2.07987E+01-9.17507E-01 1.64763E-02 1.83454E+00 2.91348E-14-1.58799E-13
 -1      3159 2.11527E+01-1.35455E+00 5.86461E-03 1.76773E+00-3.50826E-14-2.99801E-13
 -1      3160 2.00449E+01-7.62908E-01-1.81146E-02 2.02444E+00-4.84017E-14-1.86158E-13
 -1      3161 2.16368E+01-1.84145E+00 3.08915E-02 1.75305E+00-7.95588E-14-3.46957E-13
 -1      3162 2.21605E+01-2.40042E+00-4.09039E-04 1.53624E+00-1.10022E-13-3.69441E-13
 -1      3163 2.06779E+01-1.73340E+00-3.06682E-02 2.16425E+00-1.25929E-13-5.79298E-13
 -1      3164 2.30065E+01-2.93870E+00 5.06064E-02 1.31114E+00-6.50760E-14-3.63615E-13
 -1      3165 2.36765E+01-3.46654E+00-1.01649E-02 8.59936E-01-4.49155E-14-3.67644E-13
 -1      3166 2.18671E+01-2.99717E+00-4.34427E-02 2.06873E+00-6.07561E-14-3.82210E-13
 -1      3167 2.76908E+01 3.33699E+00-4.99647E-02 1.34715E+00 2.62054E-13-3.25809E-13
 -1      3168 2.75747E+01 1.11760E+00-2.18855E-01 1.66785E+00 1.03556E-13-4.32453E-13
 -1      3169 2.64793E+01-3.03363E+00-4.60682E-02-7.37082E-01 2.80912E-14-3.62318E-13
 -1      3170 2.59094E+01-3.17653E+00 4.23427E-02-1.45484E+00 5.68686E-14-5.07108E-13
 -1      3171 2.00726E+01 1.50101E-01-1.14201E-03-7.64552E-02 1.15685E-13-1.77361E-13
 -1      3172 2.01052E+01 2.15568E-01 3.71178E-03-2.31244E-02 1.47590E-13-1.69350E-13
 -1      3173 1.99825E+01-4.81844E-02 2.35609E-04-1.72917E-01 4.61935E-14-7.91804E-14
 -1      3174 1.99822E+01-4.09612E-02 4.44687E-04-1.78365E-01 5.14939E-14-1.08614E-13
 -1      3175 1.99917E+01-3.08467E-02 1.07035E-04-1.80672E-01 6.37213E-14-1.35720E-13
 -1      3176 1.99956E+01-1.62226E-02 9.14718E-04-1.79888E-01 5.51681E-14-1.29113E-13
 -1      3177 2.00484E+01-3.83483E-02-7.42718E-04-1.74622E-01 4.61370E-14-9.84228E-14
 -1      3178 1.99780E+01-5.42092E-02 3.39954E-04-1.38304E-01 2.92314E-14-4.09792E-14
 -1      3179 1.99735E+01-5.53178E-02-7.25358E-05-1.48081E-01 5.38404E-14-6.72904E-14
 -1      3180 1.99799E+01-4.87919E-02 3.58897E-04-1.19258E-01 5.55259E-14-4.10384E-14
 -1      3181 1.99746E+01-5.21399E-02-1.96513E-04-1.28713E-01 5.93172E-14-1.36574E-14
 -1      3182 2.00123E+01-6.17641E-02-3.11464E-04-1.34161E-01 2.79413E-14-1.05004E-13
 -1      3183 1.99835E+01-4.00721E-02 3.74432E-04-1.02344E-01-1.23035E-14-6.03157E-14
 -1      3184 1.99778E+01-4.49647E-02-2.68802E-04-1.10477E-01 4.76529E-14-6.00365E-14
 -1      3185 2.00078E+01-5.47062E-02-2.32785E-04-1.16318E-01 4.93890E-14-1.20405E-13
 -1      3186 1.99883E+01-2.89344E-02 3.95723E-04-8.91557E-02 3.38250E-14-3.73681E-14
 -1      3187 1.99823E+01-3.49869E-02-3.10363E-04-9.52394E-02-4.72296E-15-8.25910E-14
 -1      3188 2.00055E+01-4.38506E-02-1.76763E-04-1.00802E-01 3.20475E-15-8.29635E-14
 -1      3189 1.99941E+01-1.57746E-02 4.29760E-04-8.09198E-02-6.86187E-14-2.05391E-14
 -1      3190 1.99878E+01-2.28384E-02-3.36956E-04-8.43806E-02-2.41175E-14-3.84768E-14
 -1      3191 2.00051E+01-3.01432E-02-1.39935E-04-8.92149E-02 1.27900E-14-1.20455E-13
 -1      3192 2.00009E+01-6.14251E-04 4.82425E-04-7.87021E-02 1.01101E-14-8.19897E-14
 -1      3193 1.99941E+01-8.72169E-03-3.60566E-04-7.90227E-02-1.70972E-14-2.55725E-14
 -1      3194 2.00060E+01-1.39687E-02-1.16284E-04-8.28202E-02-3.41276E-14-1.98026E-13
 -1      3195 2.00089E+01 1.68022E-02 5.58160E-04-8.35598E-02 5.40444E-15-2.42921E-14
 -1      3196 2.00014E+01 7.48717E-03-3.90342E-04-8.02098E-02 2.77686E-14-1.80131E-14
 -1      3197 2.00080E+01 4.70557E-03-1.01815E-04-8.27397E-02-2.54419E-14-1.42561E-13
 -1      3198 2.00183E+01 3.69214E-02 6.60201E-04-9.66493E-02 1.92196E-14-4.50449E-14
 -1      3199 2.00096E+01 2.61457E-02-4.33343E-04-8.90372E-02-4.32892E-15 1.79732E-14
 -1      3200 2.00108E+01 2.62215E-02-9.22829E-05-9.01003E-02-1.17887E-14-5.23247E-14
 -1      3201 2.00293E+01 6.02958E-02 7.90477E-04-1.19293E-01-1.74485E-14-2.64361E-15
 -1      3202 2.00190E+01 4.77626E-02-4.94965E-04-1.06739E-01 2.21246E-14-4.89356E-15
 -1      3203 2.00142E+01 5.11242E-02-8.39678E-05-1.06134E-01 3.77759E-14-8.32094E-14
 -1      3204 2.00425E+01 8.74785E-02 9.49095E-04-1.53007E-01 3.13023E-14 7.55184E-14
 -1      3205 2.00301E+01 7.29045E-02-5.78767E-04-1.34737E-01-7.64723E-15 3.94135E-15
 -1      3206 2.00180E+01 8.00557E-02-7.29934E-05-1.32238E-01-2.63340E-14 9.52662E-15
 -1      3207 2.00581E+01 1.18882E-01 1.13379E-03-1.99469E-01 6.74555E-14 1.57464E-13
 -1      3208 2.00430E+01 1.02075E-01-6.86160E-04-1.74640E-01 7.47325E-14 9.18981E-14
 -1      3209 2.00219E+01 1.13619E-01-5.57211E-05-1.69995E-01-5.75455E-15 8.93377E-14
 -1      3210 2.00767E+01 1.54580E-01 1.33916E-03-2.60434E-01-1.20035E-14 1.55637E-13
 -1      3211 2.00583E+01 1.35551E-01-8.15342E-04-2.28192E-01 3.52255E-14 1.89030E-13
 -1      3212 2.00257E+01 1.52196E-01-2.93175E-05-2.21131E-01 4.13281E-14 1.54092E-13
 -1      3213 2.00987E+01 1.94005E-01 1.55597E-03-3.37552E-01 5.65952E-14 5.27224E-14
 -1      3214 2.00763E+01 1.73135E-01-9.59390E-04-2.97145E-01 3.29356E-14 7.82011E-14
 -1      3215 2.00291E+01 1.95689E-01 6.86440E-06-2.87426E-01 3.94914E-14 9.62082E-14
 -1      3216 2.01249E+01 2.35512E-01 1.77073E-03-4.32088E-01-2.44478E-15 4.76031E-14
 -1      3217 2.00977E+01 2.13798E-01-1.10311E-03-3.83040E-01 8.12448E-14 7.43236E-14
 -1      3218 2.00318E+01 2.43139E-01 4.84879E-05-3.70540E-01 6.15724E-14 1.70499E-13
 -1      3219 2.01562E+01 2.75729E-01 1.96608E-03-5.44488E-01-1.49050E-13 2.92784E-15
 -1      3220 2.01235E+01 2.55143E-01-1.21802E-03-4.86866E-01-7.11143E-14 3.72272E-14
 -1      3221 2.00339E+01 2.92169E-01 8.10727E-05-4.71747E-01-3.39754E-14-8.23252E-15
 -1      3222 2.01948E+01 3.08632E-01 2.12220E-03-6.73764E-01-1.41445E-13-6.02032E-14
 -1      3223 2.01552E+01 2.92632E-01-1.25454E-03-6.08559E-01-1.80415E-13-7.16355E-14
 -1      3224 2.00359E+01 3.38180E-01 7.10670E-05-5.91569E-01-1.39999E-13-4.92592E-14
 -1      3225 2.02442E+01 3.24287E-01 2.21863E-03-8.16642E-01-1.04480E-13 3.47932E-14
 -1      3226 2.01958E+01 3.18504E-01-1.13032E-03-7.46304E-01-1.07629E-13 2.01089E-14
 -1      3227 2.00399E+01 3.73227E-01-4.86862E-05-7.29277E-01-1.39767E-13-1.59088E-13
 -1      3228 2.03116E+01 3.07267E-01 2.23305E-03-9.66405E-01 9.61446E-15 4.93599E-14
 -1      3229 2.02511E+01 3.20343E-01-7.13424E-04-8.95560E-01-1.56459E-14-4.24129E-14
 -1      3230 2.00502E+01 3.84516E-01-4.00947E-04-8.82244E-01-1.85377E-14 3.66485E-15
 -1      3231 2.04097E+01 2.34995E-01 2.12915E-03-1.11130E+00 1.58215E-13 6.91810E-14
 -1      3232 2.03314E+01 2.79418E-01 1.99394E-04-1.04771E+00 2.92168E-14 1.42551E-14
 -1      3233 2.00762E+01 3.52565E-01-1.19362E-03-1.04507E+00 8.35936E-15-1.10082E-13
 -1      3234 2.05602E+01 7.68181E-02 1.81058E-03-1.23229E+00 1.73232E-13 1.72153E-13
 -1      3235 2.04550E+01 1.69257E-01 1.90678E-03-1.18809E+00 2.44035E-13 1.95263E-13
 -1      3236 2.01349E+01 2.49387E-01-2.74945E-03-1.20824E+00 8.74690E-14-9.34732E-14
 -1      3237 2.07977E+01-2.04307E-01 9.70511E-04-1.29965E+00 1.32646E-13 3.74564E-14
 -1      3238 2.06520E+01-4.42718E-02 4.80497E-03-1.29302E+00 1.93212E-13 1.71270E-13
 -1      3239 2.02561E+01 3.76716E-02-5.52622E-03-1.35586E+00 2.23164E-13 4.77555E-14
 -1      3240 2.11711E+01-6.43078E-01-9.90188E-04-1.26765E+00-1.69340E-13 7.11761E-14
 -1      3241 2.09681E+01-3.98635E-01 9.29766E-03-1.32481E+00-7.50750E-14-7.37233E-15
 -1      3242 2.04879E+01-3.26786E-01-1.01126E-02-1.46113E+00 5.41917E-15 2.52552E-13
 -1      3243 2.17376E+01-1.24816E+00-5.15187E-03-1.06808E+00-1.66033E-13 1.22844E-13
 -1      3244 2.14637E+01-9.19301E-01 1.58000E-02-1.22421E+00-1.34947E-13 9.10500E-14
 -1      3245 2.09010E+01-8.82989E-01-1.66781E-02-1.47730E+00-2.03542E-13 1.61509E-13
 -1      3246 2.25391E+01-1.95115E+00-1.22810E-02-6.04667E-01-1.96405E-13 2.16812E-13
 -1      3247 2.22000E+01-1.58636E+00 2.33627E-02-9.01461E-01-1.89012E-13 1.92186E-13
 -1      3248 2.15850E+01-1.63415E+00-2.42944E-02-1.32301E+00-1.98174E-13 1.53985E-14
 -1      3249 2.35509E+01-2.51698E+00-1.90159E-02 2.27175E-01-2.51891E-13 1.96775E-13
 -1      3250 2.31904E+01-2.26564E+00 2.75842E-02-2.39638E-01-1.73065E-13 1.85219E-13
 -1      3251 2.26190E+01-2.47373E+00-2.87029E-02-8.68752E-01-1.89786E-13 9.02579E-14
 -1      3252 2.45972E+01-2.48794E+00-2.14820E-02 1.43305E+00-3.64453E-13 2.75277E-13
 -1      3253 2.43064E+01-2.61806E+00 1.50024E-02 8.37750E-01-2.98612E-13 2.39308E-13
 -1      3254 2.39878E+01-3.04600E+00-1.62522E-02 5.47270E-02-3.37646E-13 1.25537E-13
 -1      3255 2.52958E+01-1.28427E+00-2.85266E-02 2.68371E+00-8.68888E-14 3.20677E-13
 -1      3256 2.52024E+01-2.03176E+00-1.68027E-02 2.20506E+00-3.23608E-13 2.63249E-13
 -1      3257 2.54219E+01-2.78257E+00-9.34967E-03 1.48633E+00-3.45076E-13 2.87687E-14
 -1      3258 2.53362E+01 3.59625E+00-7.64950E-02 2.44767E+00-1.49686E-13 2.24589E-13
 -1      3259 2.55716E+01 2.44720E+00-1.26723E-01 3.16776E+00-2.37060E-13 2.25063E-13
 -1      3260 2.52254E+01 2.42811E+00-1.04041E-01-1.26979E+00 5.11396E-15 9.75088E-14
 -1      3261 2.50721E+01 3.59029E+00-6.30155E-02-7.35199E-01-5.19793E-14-1.95191E-14
 -1      3262 2.00444E+01 2.16058E+00-4.23618E-03 2.92584E-01 7.20968E-14-3.94129E-13
 -1      3263 2.00311E+01 2.19923E+00-3.33931E-03 1.70858E-01 2.60867E-14-4.03342E-13
 -1      3264 2.65589E+01-4.71131E+00-7.16942E-02 2.00660E-01 4.14516E-13-2.81691E-13
 -1      3265 2.51870E+01-5.25811E+00 7.58135E-02 1.82933E+00 3.97845E-13-2.74811E-13
 -1      3266 2.75309E+01 4.55454E+00-9.24862E-02-2.62563E+00 6.66134E-16 1.73056E-14
 -1      3267 2.40638E+01-2.26125E+00 6.52695E-03 1.92449E+00 4.37568E-13 2.54317E-13
 -1      3268 1.70033E+01-3.96707E+00-4.94575E-02 5.13065E+00 1.50685E-13-3.54966E-13
 -1      3269 1.42547E+01-2.55807E+00 1.42341E-01 4.76972E+00 2.87874E-13-2.11900E-13
 -1      3270 2.73310E+01 5.60976E+00-8.08326E-02-5.56254E-01 3.93574E-14-1.52465E-13
 -1      3271 2.01239E+01 2.93483E-01-2.01782E-03 4.42242E-02 1.48815E-13-1.62889E-13
 -1      3272 2.01699E+01 3.94634E-01 4.54893E-03 1.34790E-01 1.62259E-13-1.56284E-13
 -1      3273 2.01892E+01 3.15930E-01-1.43668E-03 3.62773E-02 1.51943E-13-1.70852E-13
 -1      3274 2.73080E+01 4.60699E+00-2.21990E-01 7.15710E-01 1.96509E-13-2.47691E-13
 -1      3275 1.14519E+01-1.61207E+00 1.47406E-02 3.90728E+00 2.28317E-13-1.66339E-13
 -1      3276 9.90728E+00-7.21030E-01 1.88121E-01 2.34029E+00 2.45047E-13-3.11001E-13
 -1      3277 2.82736E+01-4.75528E-01-5.40116E-02 1.07704E+00-1.53905E-14-4.54914E-13
 -1      3278 2.02913E+01 9.89079E-01-4.10187E-04 6.89955E-01 2.51855E-13-2.27943E-13
 -1      3279 2.02672E+01 1.30677E+00 2.90440E-03 7.71021E-01 2.54887E-13-2.61389E-13
 -1      3280 2.02707E+01 1.12743E+00 7.47583E-05 5.93689E-01 2.08273E-13-2.67942E-13
 -1      3281 2.02319E+01 7.75828E-01-3.90264E-03 4.84611E-01 2.15371E-13-2.09433E-13
 -1      3282 1.05734E+01 4.61607E-01 1.64813E-01 1.84877E+00-1.02786E-13-3.41560E-13
 -1      3283 1.06626E+01-1.69107E+00 8.62653E-02-3.96649E+00-2.74364E-14-2.05308E-13
 -1      3284 1.26912E+01-2.76604E+00 1.36189E-01-5.26404E+00-5.39568E-14-1.30576E-13
 -1      3285 2.65347E+01-4.82367E+00 7.91331E-02-8.43828E-01-1.14533E-13-5.51947E-13
 -1      3286 2.73522E+01-3.71290E+00-1.02616E-01 8.49099E-01-6.10744E-14-5.56055E-13
 -1      3287 1.99785E+01-5.47977E-02 3.04671E-04-1.57257E-01 5.50280E-14-5.92650E-14
 -1      3288 1.99755E+01-5.25652E-02 1.29767E-04-1.65915E-01 7.56202E-14-6.66176E-14
 -1      3289 2.00316E+01-5.68537E-02-5.61765E-04-1.67106E-01 4.02985E-14-8.68481E-14
 -1      3290 2.00200E+01-6.33552E-02-4.19002E-04-1.52131E-01 4.15103E-14-8.25250E-14
 -1      3291 2.24681E+01-5.53230E+00 1.55871E-01-4.21179E+00 5.56777E-14-2.55431E-13
 -1      3292 2.43480E+01-5.68137E+00-1.16303E-01-2.79448E+00-2.75405E-14-3.60124E-13
 -1      3293 2.77066E+01 5.63916E+00-1.45332E-01 2.05067E+00-1.26565E-14-1.41873E-13
 -1      3294 2.71424E+01 5.83848E+00-1.56874E-01 7.50836E-01 1.00669E-13-2.39881E-13
 -1      3295 2.01966E+01 1.89136E+00 1.11054E-03-1.00671E+00-2.58528E-13-2.94193E-13
 -1      3296 2.02682E+01 7.12477E-01 3.58715E-03-3.45742E-01-2.08378E-13-1.79682E-13
 -1      3297 2.02265E+01 5.50624E-01-3.53941E-03-2.15088E-01-1.80631E-13-1.76175E-13
 -1      3298 2.02720E+01 5.78208E-01-5.70194E-04-1.89215E-01-1.60983E-13-1.68668E-13
 -1      3299 2.74067E+01 1.09764E+00-1.83708E-01-1.50828E+00-1.80224E-13-6.43846E-13
 -1      3300 2.82262E+01-3.09951E-01-4.62931E-02-1.21414E+00-1.92693E-13-6.88435E-13
 -1      3301 2.74268E+01-4.52270E+00 6.58587E-02-2.67196E+00-4.56579E-14-4.22537E-13
 -1      3302 2.81101E+01-3.24049E+00-5.73712E-02-8.93656E-01 7.69489E-14-5.03306E-13
 -1      3303 2.30450E+01-5.61553E+00-7.03173E-02 3.41499E+00 2.84189E-13-2.85386E-13
 -1      3304 2.04242E+01-4.79462E+00 1.23584E-01 4.43193E+00 1.89362E-13-3.78732E-13
 -1      3305 2.39217E+01-4.86994E+00 2.21370E-02 2.12386E+00 1.83777E-13-1.97467E-13
 -1      3306 2.70441E+01-4.74258E+00-6.34521E-02 3.34505E+00-8.83876E-14-4.57023E-13
 -1      3307 2.49356E+01-4.49684E+00 5.49589E-02 4.74253E+00-3.91666E-14-1.15068E-13
 -1      3308 2.78718E+01-1.66997E+00-2.52992E-02 2.39735E+00-1.02418E-13-2.73725E-13
 -1      3309 2.79298E+01 1.49271E-01-1.68110E-01 3.15661E+00 1.85407E-14-1.35017E-13
 -1      3310 2.78797E+01-2.13452E+00-6.56040E-02 4.34345E-01 6.92901E-14-4.24064E-13
 -1      3311 2.00240E+01 2.21815E+00-3.66886E-03 6.59797E-02 9.14918E-16-4.04893E-13
 -1      3312 2.00236E+01 2.21903E+00-3.61899E-03-5.80658E-02-3.74365E-14-3.86755E-13
 -1      3313 2.01380E+01 1.92239E+00 5.00254E-03 1.01417E-01 1.18045E-14-3.65741E-13
 -1      3314 1.39824E+01-1.59993E+00 1.01089E-01 3.83652E+00 1.03178E-13-2.20143E-13
 -1      3315 1.94221E+01-2.86066E+00 1.91966E-01-7.04574E+00 2.43416E-14-3.72202E-14
 -1      3316 2.76297E+01-1.45826E+00-5.16025E-02-4.95385E-01-2.17777E-13-6.65953E-13
 -1      3317 2.43078E+01-3.69742E+00 5.63008E-02 4.63568E+00-5.46924E-14-2.50881E-13
 -1      3318 2.49548E+01-3.64513E+00-6.14657E-02 3.48643E+00 1.62960E-13-4.26600E-13
 -1      3319 2.02863E+01 1.10386E+00-2.69736E-04-6.31530E-01-2.57424E-13-2.24594E-13
 -1      3320 2.02554E+01 8.92627E-01-4.72354E-03-4.63224E-01-2.38737E-13-2.09567E-13
 -1      3321 2.02866E+01 9.28826E-01 1.35546E-03-4.08495E-01-1.97471E-13-2.26362E-13
 -1      3322 2.39644E+01-4.26420E+00-3.99709E-02 1.36855E+00 7.85821E-14-3.73410E-13
 -1      3323 2.50679E+01-3.86809E+00 4.08082E-02 1.87753E-01 1.39390E-13-3.23041E-13
 -1      3324 1.02989E+01-4.07295E-01 1.07962E-01 1.31327E+00 1.80012E-13-2.57044E-13
 -1      3325 2.58252E+01-3.83202E+00-1.87195E-02-5.81020E-01 2.55518E-13-2.66195E-13
 -1      3326 2.70300E+01-3.63714E+00-1.29405E-02-1.25928E+00 2.62761E-13-1.20695E-13
 -1      3327 2.76483E+01-2.50624E+00-4.13371E-02-2.07298E+00 2.09055E-13 8.06091E-14
 -1      3328 2.77646E+01-8.44829E-01-1.46416E-01-3.29946E+00 8.76937E-14 2.92946E-13
 -1      3329 2.78926E+01 1.20567E+00-8.83485E-02-3.39607E+00 9.18571E-14 2.32772E-13
 -1      3330 2.02169E+01 1.56811E+00-2.14171E-03-8.07433E-01-2.49148E-13-2.76897E-13
 -1      3331 2.06974E+01-4.95074E+00 9.26620E-02-4.52769E+00 7.96307E-14-2.13692E-13
 -1      3332 2.50243E+01-4.89229E+00 7.27698E-03-1.50515E+00-9.13054E-14-5.00662E-13
 -1      3333 2.00718E+01-2.15181E-03-9.58356E-04-1.68370E-01 2.85520E-14-1.00881E-13
 -1      3334 2.00081E+01 2.35467E-03-1.20638E-04-1.73938E-01 1.49083E-14-1.51015E-13
 -1      3335 2.00186E+01 2.78887E-02 1.58849E-03-1.62591E-01 3.79667E-14-1.70371E-13
 -1      3336 2.56960E+01-5.89176E-01-6.66766E-02 3.15242E+00 5.62744E-15 2.68483E-13
 -1      3337 2.64890E+01-1.46293E+00-2.14632E-02 2.71644E+00-1.02411E-13 5.21059E-14
 -1      3338 2.55522E+01 6.67360E-01-4.25782E-02 3.18635E+00-1.41567E-13 1.89094E-13
 -1      3339 2.46006E+01 4.15893E+00-8.87946E-02 5.67499E-01-1.39055E-14 2.39645E-13
 -1      3340 2.45898E+01 4.05592E+00-1.32720E-01 1.54568E+00 1.04430E-14 1.78869E-13
 -1      3341 2.53552E+01-3.65818E-01-6.97367E-02-1.30119E+00 1.25205E-13 5.28251E-13
 -1      3342 2.53337E+01 8.43593E-01-1.74403E-02-1.44382E+00 6.14023E-14 3.53061E-13
 -1      3343 2.43571E+01-2.88607E+00-2.66794E-03-2.76862E+00 2.11208E-13-4.40032E-13
 -1      3344 2.00342E+01 5.89354E-02-5.08160E-04-1.43453E-01 7.18319E-14-1.73146E-13
 -1      3345 2.00542E+01 1.00550E-01 2.51247E-03-1.15408E-01 9.65038E-14-1.62182E-13
 -1      3346 2.01029E+01 5.99677E-02-1.18792E-03-1.39589E-01 4.54205E-14-1.55274E-13
 -1      3347 2.28658E+01-4.09841E+00-4.50043E-02 6.01113E+00 1.07761E-14 2.79284E-13
 -1      3348 1.93391E+01-3.78222E+00 9.58620E-02 4.15308E+00 1.05152E-13-3.88547E-13
 -1      3349 2.37881E+01-3.84940E+00 9.13883E-02-5.26928E+00 2.40759E-13-1.41637E-13
 -1      3350 2.16597E+01-3.57461E+00 2.36918E-02-6.15117E+00 1.83638E-13-9.97813E-15
 -1      3351 2.72207E+01-3.74597E+00-9.50494E-03 1.91782E+00-7.74519E-14-7.60232E-13
 -1      3352 2.02537E+01 1.46111E+00 6.71599E-03 5.88379E-01 1.73713E-13-3.08048E-13
 -1      3353 2.01581E+01 1.80067E+00-7.17601E-03 6.84888E-01 2.01674E-13-3.52394E-13
 -1      3354 2.01228E+01 1.93018E+00-2.71719E-03 5.90120E-01 1.62379E-13-3.60620E-13
 -1      3355 2.50587E+01-3.63123E+00-1.13848E-02-3.41136E+00 1.42956E-13-5.02348E-13
 -1      3356 2.50135E+01-1.23723E+00-1.95153E-02-7.01325E-01 2.22375E-13 7.89009E-13
 -1      3357 2.64889E+01-1.09955E+00-2.32838E-02-8.24495E-01 5.28119E-14 8.22953E-14
 -1      3358 2.71906E+01-2.58174E+00-2.43083E-02 1.76581E-01-1.31624E-13-4.24813E-13
 -1      3359 2.50310E+01-1.77902E+00-2.42262E-02-2.88146E-01 3.09951E-13 7.53544E-13
 -1      3360 2.54208E+01-4.55579E+00-3.49830E-02-3.98955E+00 1.30576E-13-3.94107E-13
 -1      3361 2.11445E+01-4.39491E+00 3.56289E-02-6.83389E+00 4.86416E-14 1.34004E-13
 -1      3362 1.02786E+01-8.52951E-01 1.70135E-01-2.86296E+00-2.07161E-14-2.47843E-13
 -1      3363 1.20930E+01-1.11169E+00 6.59599E-02-3.42912E+00-6.59646E-14-8.02067E-14
 -1      3364 1.00898E+01-4.03538E-01 2.23270E-02-1.49546E+00 2.33424E-14-1.69170E-13
 -1      3365 2.62748E+01-3.24324E+00-2.44572E-02 1.25398E+00-9.64246E-14-2.60291E-13
 -1      3366 2.73410E+01-2.61034E+00-3.10217E-02 1.96531E+00-1.46562E-13-2.93904E-13
 -1      3367 1.50835E+01-3.22838E+00 9.73500E-02-5.17208E+00 4.62616E-14-1.09891E-13
 -1      3368 2.67857E+01 4.46447E+00-6.10027E-02 2.47357E+00-9.50767E-14 6.26096E-14
 -1      3369 2.00602E+01 2.11071E+00-3.53202E-03-3.84063E-01-1.03810E-13-3.73836E-13
 -1      3370 2.00851E+01 2.03269E+00-5.69059E-03-4.96666E-01-1.46693E-13-3.61084E-13
 -1      3371 2.01757E+01 4.86289E-01-2.87920E-03 2.20696E-01 1.87350E-13-1.87335E-13
 -1      3372 2.02315E+01 6.35373E-01 3.98153E-03 3.60496E-01 2.03995E-13-1.82662E-13
 -1      3373 2.02602E+01 7.94352E-01 1.18495E-03 4.21749E-01 1.92544E-13-2.00071E-13
 -1      3374 2.02295E+01 5.22786E-01-1.50712E-03 1.99953E-01 1.62484E-13-1.74857E-13
 -1      3375 2.01426E+01 1.60033E-01-1.37087E-03-7.64447E-02 1.01256E-13-1.75500E-13
 -1      3376 2.00899E+01 2.02478E+00-5.38415E-03 5.04244E-01 1.49307E-13-3.74190E-13
 -1      3377 2.00640E+01 2.10463E+00-3.34743E-03 3.91600E-01 9.71893E-14-3.81834E-13
 -1      3378 2.01613E+01 1.84724E+00 5.48813E-03 2.91417E-01 7.70303E-14-3.64601E-13
 -1      3379 2.02041E+01 1.69700E+00 6.80341E-03 4.62084E-01 1.42653E-13-3.46406E-13
 -1      3380 2.02283E+01-2.95796E+00 1.08818E-01 6.59540E+00 4.38538E-15 1.97405E-13
 -1      3381 1.74622E+01-2.38413E+00 2.66285E-02 7.03859E+00-7.27474E-14-1.26135E-13
 -1      3382 2.01207E+01 1.93959E+00-2.30413E-03-5.84228E-01-1.56789E-13-3.42181E-13
 -1      3383 2.01571E+01 1.81158E+00-6.32938E-03-6.83369E-01-1.93810E-13-3.13645E-13
 -1      3384 2.01994E+01 1.70139E+00 4.86584E-03-4.57182E-01-1.51002E-13-3.24752E-13
 -1      3385 1.45020E+01-8.94306E-01 1.18195E-01 5.93746E+00 1.18794E-13-5.62106E-13
 -1      3386 2.07508E+01-3.90825E+00-5.17127E-02 3.46648E+00 4.51444E-14-4.93140E-13
 -1      3387 1.83399E+01-2.75120E+00 8.92875E-02 3.96202E+00 1.00843E-13-5.17867E-13
 -1      3388 2.25701E+01-4.07721E+00 8.61919E-02 2.58869E+00-5.70095E-14-3.30805E-13
 -1      3389 1.16661E+01-1.10133E-01 2.21853E-02 1.52191E+00 1.94837E-13-2.34236E-13
 -1      3390 1.06999E+01 1.60171E-01 1.59136E-01 5.06874E-02 9.36083E-14-6.20545E-14
 -1      3391 2.02665E+01 2.36085E-01 2.11287E-03 3.93172E-02-1.05680E-13-2.05916E-13
 -1      3392 2.02420E+01 1.60647E-01-1.28490E-03 7.99288E-02-6.88441E-14-1.75082E-13
 -1      3393 2.02271E+01 1.01688E-01 1.62309E-03 1.05873E-01-5.38931E-14-1.70688E-13
 -1      3394 2.02055E+01 5.28507E-02-6.56991E-04 1.27520E-01-2.43793E-14-1.58235E-13
 -1      3395 2.02833E+01 1.57918E-01-4.41312E-04 7.61632E-02-5.54241E-14-1.94334E-13
 -1      3396 2.01881E+01 1.56375E-02 1.13443E-03 1.39671E-01-1.58923E-14-1.27135E-13
 -1      3397 2.01703E+01-1.43054E-02-2.23770E-04 1.48297E-01-1.96902E-14-1.32061E-13
 -1      3398 2.02456E+01 4.70427E-02-5.89995E-04 1.17321E-01-9.31262E-15-1.27836E-13
 -1      3399 2.01526E+01-3.62254E-02 7.37059E-04 1.51135E-01-1.81444E-14-1.45681E-13
 -1      3400 2.01385E+01-5.29060E-02 5.94217E-05 1.51371E-01-2.34216E-14-1.16611E-13
 -1      3401 2.02072E+01-2.17921E-02-6.28797E-04 1.35017E-01-1.95684E-14-1.40685E-13
 -1      3402 2.01219E+01-6.41772E-02 4.34341E-04 1.48415E-01-2.56175E-14-1.03275E-13
 -1      3403 2.01110E+01-7.16618E-02 2.33828E-04 1.43712E-01-6.31346E-15-9.16229E-14
 -1      3404 2.01713E+01-6.08495E-02-6.02957E-04 1.37208E-01 3.13499E-15-1.36108E-13
 -1      3405 2.00961E+01-7.55998E-02 2.12060E-04 1.37593E-01-2.85803E-14-7.64114E-14
 -1      3406 2.00880E+01-7.67842E-02 3.33229E-04 1.30454E-01-4.33618E-14-9.48136E-14
 -1      3407 2.01392E+01-7.91135E-02-5.44926E-04 1.30054E-01-3.10202E-14-1.62509E-13
 -1      3408 2.00751E+01-7.57201E-02 5.19681E-05 1.23075E-01-1.01598E-13-1.37577E-13
 -1      3409 2.00693E+01-7.26114E-02 3.84504E-04 1.15279E-01-1.25531E-13-1.55278E-13
 -1      3410 2.01117E+01-8.30391E-02-4.72702E-04 1.18127E-01-8.62235E-14-1.80805E-13
 -1      3411 2.00583E+01-6.81209E-02-6.44192E-05 1.07994E-01-1.15141E-13-1.44084E-13
 -1      3412 2.00542E+01-6.20362E-02 4.08520E-04 1.00803E-01-1.35580E-13-1.42817E-13
 -1      3413 2.00885E+01-7.71283E-02-3.94144E-04 1.04728E-01-1.04608E-13-2.07361E-13
 -1      3414 2.00450E+01-5.51140E-02-1.53287E-04 9.45824E-02-1.61360E-13-7.66670E-14
 -1      3415 2.00423E+01-4.68445E-02 4.19431E-04 8.89152E-02-1.73380E-13-9.04598E-14
 -1      3416 2.00693E+01-6.43637E-02-3.15334E-04 9.22213E-02-9.02202E-14-8.26054E-14
 -1      3417 2.00343E+01-3.80469E-02-2.27969E-04 8.44831E-02-1.39978E-13-5.00426E-14
 -1      3418 2.00328E+01-2.79805E-02 4.27555E-04 8.10440E-02-6.06711E-14-6.82893E-14
 -1      3419 2.00533E+01-4.65550E-02-2.37563E-04 8.23450E-02-1.27100E-13-1.44051E-14
 -1      3420 2.00257E+01-1.75197E-02-3.00344E-04 7.89783E-02-3.82694E-14-1.51305E-14
 -1      3421 2.00249E+01-5.72710E-03 4.40792E-04 7.83639E-02-1.45694E-14 5.91820E-14
 -1      3422 2.00397E+01-2.46109E-02-1.58348E-04 7.64286E-02 1.58001E-14 3.22270E-14
 -1      3423 2.00180E+01 6.45120E-03-3.80168E-04 7.91872E-02-4.61600E-14 1.79277E-14
 -1      3424 2.00177E+01 2.01391E-02 4.63921E-04 8.19683E-02-4.61911E-14 2.68307E-14
 -1      3425 2.00274E+01 1.25843E-03-7.64105E-05 7.55889E-02-3.61022E-14-2.45945E-14
 -1      3426 2.00105E+01 3.42848E-02-4.75624E-04 8.62111E-02-2.79609E-15 2.35883E-14
 -1      3427 2.00103E+01 5.02107E-02 4.99616E-04 9.29886E-02 3.19501E-15 8.06460E-15
 -1      3428 2.00153E+01 3.13803E-02 1.29189E-05 8.08855E-02-3.88208E-14-1.88644E-14
 -1      3429 2.00020E+01 6.67115E-02-5.94135E-04 1.01232E-01-6.24806E-14 5.25929E-14
 -1      3430 2.00016E+01 8.53321E-02 5.48853E-04 1.12674E-01-4.01305E-14 5.32746E-14
 -1      3431 2.00019E+01 6.64621E-02 1.15056E-04 9.34175E-02-8.32500E-15 6.75371E-14
 -1      3432 1.99913E+01 1.04654E-01-7.42059E-04 1.25575E-01 1.17151E-14 2.21616E-14
 -1      3433 1.99903E+01 1.26474E-01 6.10946E-04 1.42438E-01 4.22030E-14 2.06497E-14
 -1      3434 1.99859E+01 1.07459E-01 2.36310E-04 1.14393E-01-3.21089E-15 5.89678E-14
 -1      3435 1.99770E+01 1.49090E-01-9.24565E-04 1.60745E-01 2.39627E-14 1.80871E-14
 -1      3436 1.99749E+01 1.74580E-01 6.83580E-04 1.83867E-01 6.41005E-14 1.00174E-14
 -1      3437 1.99652E+01 1.55423E-01 3.83991E-04 1.45165E-01 2.29484E-14-3.86441E-14
 -1      3438 1.99572E+01 2.00875E-01-1.14541E-03 2.08406E-01 7.49894E-14-1.06726E-14
 -1      3439 1.99533E+01 2.30355E-01 7.63228E-04 2.38687E-01 6.28595E-14-9.08157E-14
 -1      3440 1.99377E+01 2.11322E-01 5.65941E-04 1.87230E-01 4.80181E-14 6.96856E-15
 -1      3441 1.99299E+01 2.60495E-01-1.40640E-03 2.70345E-01-3.37976E-14-1.44699E-13
 -1      3442 1.99236E+01 2.93977E-01 8.46280E-04 3.08691E-01-1.22428E-13-1.76769E-13
 -1      3443 1.99008E+01 2.75790E-01 7.89736E-04 2.42197E-01-5.46314E-14-1.18651E-13
 -1      3444 1.98928E+01 3.27713E-01-1.70662E-03 3.48376E-01-6.96554E-14-1.43732E-13
 -1      3445 1.98831E+01 3.64664E-01 9.31678E-04 3.95630E-01 4.50186E-14-1.39535E-13
 -1      3446 1.98515E+01 3.48781E-01 1.06117E-03 3.11725E-01-5.93894E-14-1.43904E-13
 -1      3447 1.98431E+01 4.01049E-01-2.04143E-03 4.44236E-01 4.86593E-14-1.99110E-13
 -1      3448 1.98291E+01 4.40050E-01 1.02629E-03 5.01085E-01 4.26686E-14-1.77868E-13
 -1      3449 1.97864E+01 4.29079E-01 1.38142E-03 3.97454E-01 2.52489E-14-1.02136E-13
 -1      3450 1.97781E+01 4.77023E-01-2.40126E-03 5.59476E-01 5.81836E-14-1.79073E-13
 -1      3451 1.97591E+01 5.15272E-01 1.15482E-03 6.26362E-01 7.48274E-14-2.57863E-13
 -1      3452 1.97018E+01 5.13601E-01 1.74208E-03 5.00965E-01 5.54901E-14-2.12126E-13
 -1      3453 1.96955E+01 5.49053E-01-2.76948E-03 6.95427E-01 9.71657E-14-3.59521E-13
 -1      3454 1.96716E+01 5.81667E-01 1.37633E-03 7.72489E-01 8.93987E-14-3.50354E-13
 -1      3455 1.95942E+01 5.96411E-01 2.11636E-03 6.23856E-01 4.08733E-14-3.06376E-13
 -1      3456 1.95944E+01 6.05909E-01-3.11776E-03 8.53335E-01 6.36732E-14-3.33684E-13
 -1      3457 1.95674E+01 6.24942E-01 1.80843E-03 9.40436E-01 1.92593E-14-2.36964E-13
 -1      3458 1.94606E+01 6.67343E-01 2.44376E-03 7.68055E-01 4.76787E-14-3.46190E-13
 -1      3459 1.94771E+01 6.29565E-01-3.39365E-03 1.03480E+00-1.50221E-14-2.13982E-13
 -1      3460 1.94523E+01 6.22708E-01 2.65935E-03 1.13168E+00 9.10886E-14-1.82154E-13
 -1      3461 1.93003E+01 7.10116E-01 2.60326E-03 9.36581E-01 4.13216E-14-2.78496E-13
 -1      3462 1.93527E+01 5.92404E-01-3.48504E-03 1.24265E+00 6.58763E-14-1.29337E-13
 -1      3463 1.93412E+01 5.41354E-01 4.27783E-03 1.34913E+00-1.98349E-14-9.80018E-14
 -1      3464 1.91169E+01 6.99803E-01 2.37099E-03 1.13495E+00 9.41978E-14-2.28534E-13
 -1      3465 1.92421E+01 4.53837E-01-3.10026E-03 1.48216E+00-1.35142E-13-6.48055E-14
 -1      3466 1.92659E+01 3.32211E-01 7.12111E-03 1.59809E+00-1.04730E-13-2.22404E-13
 -1      3467 1.89220E+01 5.99562E-01 1.36713E-03 1.37337E+00-5.31309E-14-1.72787E-13
 -1      3468 1.91885E+01 1.56364E-01-1.51061E-03 1.76134E+00-8.09201E-14-2.64287E-13
 -1      3469 1.92867E+01-7.17430E-02 1.19457E-02 1.88473E+00-1.18858E-13-2.64903E-13
 -1      3470 1.87432E+01 3.55742E-01-1.10267E-03 1.66950E+00-1.41695E-13-2.67182E-13
 -1      3471 1.92730E+01-3.75988E-01 3.30054E-03 2.08781E+00-1.41833E-13-2.94851E-13
 -1      3472 1.95119E+01-7.56615E-01 1.98715E-02 2.20800E+00-9.86806E-14-3.85628E-13
 -1      3473 1.86362E+01-1.06510E-01-5.82781E-03 2.04801E+00-1.38726E-13-3.74071E-13
 -1      3474 1.96474E+01-1.24098E+00 1.44980E-02 2.45273E+00-8.13046E-14-4.01342E-13
 -1      3475 2.01108E+01-1.82262E+00 2.48600E-02 2.53275E+00-1.07079E-13-5.04333E-13
 -1      3476 1.87054E+01-8.89181E-01-1.41922E-02 2.54040E+00-9.99233E-14-5.36052E-13
 -1      3477 2.06520E+01-2.49044E+00 4.51211E-02 2.70501E+00-8.14279E-15-4.49972E-13
 -1      3478 2.14134E+01-3.29054E+00 1.96530E-02 2.65144E+00-6.97289E-14-4.16768E-13
 -1      3479 2.75566E+01 2.94402E+00-1.87436E-01-3.52993E+00 2.37033E-14 2.00034E-13
 -1      3480 2.00997E+01-4.59135E-02 6.35489E-05-1.62938E-01 3.17197E-14-1.32050E-13
 -1      3481 2.01112E+01-2.95976E-02 8.04428E-04-1.62543E-01 4.42026E-14-1.33998E-13
 -1      3482 2.00348E+01-5.87481E-02 4.05432E-04-1.08121E-01 6.67338E-15-1.10875E-13
 -1      3483 2.00363E+01-6.39261E-02-9.56410E-05-1.16134E-01 4.14973E-14-1.39588E-13
 -1      3484 2.00452E+01-6.76002E-02 3.80149E-04-1.24237E-01 2.89672E-14-1.21754E-13
 -1      3485 2.00483E+01-7.00089E-02 2.48438E-05-1.32782E-01 3.73205E-14-9.73759E-14
 -1      3486 2.00689E+01-7.32077E-02-3.75578E-04-1.15318E-01 3.31222E-14-4.69468E-14
 -1      3487 2.00218E+01-2.93275E-02 4.33865E-04-8.49117E-02 2.96720E-15-1.70077E-13
 -1      3488 2.00211E+01-3.80879E-02-2.47393E-04-8.92169E-02 4.17293E-14-1.42140E-13
 -1      3489 2.00180E+01-1.00616E-02 4.54165E-04-8.05412E-02-4.78708E-14-1.47640E-13
 -1      3490 2.00166E+01-2.03011E-02-3.07926E-04-8.20303E-02-1.49157E-14-1.38748E-13
 -1      3491 2.00316E+01-2.74384E-02-1.61617E-04-8.16714E-02-2.66491E-14-1.51131E-13
 -1      3492 2.00152E+01 1.22386E-02 4.87663E-04-8.25050E-02-7.25982E-14-1.18792E-13
 -1      3493 2.00132E+01 4.11929E-04-3.72524E-04-8.06128E-02-7.23175E-14-1.70753E-13
 -1      3494 2.00233E+01-4.70882E-03-9.99741E-05-7.92610E-02-4.58328E-14-1.30964E-13
 -1      3495 2.00129E+01 3.80070E-02 5.37604E-04-9.19322E-02-1.78487E-14-1.66609E-13
 -1      3496 2.00104E+01 2.43346E-02-4.49218E-04-8.60726E-02-3.73639E-14-1.39887E-13
 -1      3497 2.00156E+01 2.16473E-02-3.58537E-05-8.31938E-02-4.77585E-14-1.75510E-13
 -1      3498 2.00104E+01 6.78926E-02 6.06113E-04-1.10063E-01 4.34864E-14-5.53228E-14
 -1      3499 2.00075E+01 5.20208E-02-5.45213E-04-9.95849E-02 5.17335E-14-7.97444E-14
 -1      3500 2.00075E+01 5.21619E-02 3.37393E-05-9.46038E-02-1.37331E-14-1.60765E-13
 -1      3501 2.00070E+01 1.02624E-01 6.93633E-04-1.38301E-01-4.96808E-14 2.86736E-15
 -1      3502 2.00038E+01 8.41750E-02-6.65565E-04-1.22471E-01-1.64624E-14 2.70048E-14
 -1      3503 1.99980E+01 8.75802E-02 1.13715E-04-1.14743E-01-2.01022E-14 7.34961E-15
 -1      3504 2.00018E+01 1.42849E-01 7.99242E-04-1.78221E-01-9.35240E-15-1.00326E-14
 -1      3505 1.99985E+01 1.21507E-01-8.13744E-04-1.56228E-01-1.52359E-14-3.66693E-15
 -1      3506 1.99858E+01 1.28695E-01 2.08580E-04-1.45020E-01-7.16984E-15-4.84109E-14
 -1      3507 1.99941E+01 1.88920E-01 9.20796E-04-2.31532E-01 1.12513E-14 1.86821E-14
 -1      3508 1.99907E+01 1.64551E-01-9.90670E-04-2.02516E-01-1.64141E-14-3.90744E-15
 -1      3509 1.99695E+01 1.76156E-01 3.22097E-04-1.87008E-01-3.70934E-14-1.24269E-13
 -1      3510 1.99827E+01 2.40591E-01 1.05558E-03-2.99980E-01-1.60437E-14-1.41429E-14
 -1      3511 1.99794E+01 2.13405E-01-1.19356E-03-2.63100E-01 2.61023E-14 7.34132E-15
 -1      3512 1.99475E+01 2.30207E-01 4.56054E-04-2.42405E-01-7.03082E-15-1.05480E-13
 -1      3513 1.99668E+01 2.96578E-01 1.20190E-03-3.85202E-01 3.88897E-14 5.16160E-14
 -1      3514 1.99637E+01 2.67374E-01-1.41411E-03-3.39733E-01 1.28785E-14 2.91653E-14
 -1      3515 1.99182E+01 2.90322E-01 6.07982E-04-3.12964E-01-5.65273E-14-1.06458E-13
 -1      3516 1.99456E+01 3.53943E-01 1.36250E-03-4.88510E-01-2.44729E-14-1.05647E-14
 -1      3517 1.99426E+01 3.24445E-01-1.63573E-03-4.33990E-01 9.81143E-14 8.10500E-14
 -1      3518 1.98799E+01 3.54693E-01 7.67235E-04-4.00381E-01 8.59773E-14 3.84248E-14
 -1      3519 1.99194E+01 4.07214E-01 1.55045E-03-6.10611E-01-1.26738E-13-8.54167E-14
 -1      3520 1.99159E+01 3.80549E-01-1.82933E-03-5.47030E-01-1.45011E-13-8.13316E-14
 -1      3521 1.98312E+01 4.19508E-01 9.08410E-04-5.06164E-01-2.75285E-14-7.09491E-14
 -1      3522 1.98899E+01 4.47185E-01 1.79833E-03-7.51297E-01-2.06909E-13-1.98317E-14
 -1      3523 1.98844E+01 4.28528E-01-1.94666E-03-6.79332E-01-1.65881E-13-7.00759E-14
 -1      3524 1.97718E+01 4.77960E-01 9.80563E-04-6.31514E-01-1.46063E-13-2.66903E-14
 -1      3525 1.98622E+01 4.59336E-01 2.16902E-03-9.09083E-01 4.07431E-14-5.22094E-14
 -1      3526 1.98515E+01 4.56755E-01-1.90864E-03-8.30386E-01-4.49062E-14 8.79814E-15
 -1      3527 1.97032E+01 5.18909E-01 8.89750E-04-7.77266E-01-1.46848E-13-1.23271E-13
 -1      3528 1.98472E+01 4.21884E-01 2.75925E-03-1.08078E+00 6.86403E-14-5.54139E-14
 -1      3529 1.98246E+01 4.47361E-01-1.58379E-03-9.98354E-01 9.21770E-14 2.24465E-14
 -1      3530 1.96305E+01 5.25132E-01 4.70808E-04-9.43942E-01 2.65773E-14-4.60406E-14
 -1      3531 1.98652E+01 3.03763E-01 3.68489E-03-1.26072E+00 5.18319E-15-8.11278E-14
 -1      3532 1.98193E+01 3.74209E-01-7.49606E-04-1.17954E+00 6.69184E-15-1.54171E-13
 -1      3533 1.95653E+01 4.71170E-01-5.56879E-04-1.13185E+00 5.28764E-14-3.00186E-14
 -1      3534 1.99521E+01 6.33967E-02 5.01238E-03-1.43898E+00 1.31819E-13 1.79828E-13
 -1      3535 1.98635E+01 2.01146E-01 9.79130E-04-1.36723E+00 4.85784E-14 5.49990E-14
 -1      3536 1.95302E+01 3.21030E-01-2.63994E-03-1.34085E+00-1.04399E-14-4.10363E-14
 -1      3537 2.01656E+01-3.50141E-01 6.30755E-03-1.59728E+00-8.30633E-14 2.43574E-13
 -1      3538 2.00051E+01-1.18036E-01 4.25341E-03-1.54882E+00 1.09391E-13 2.17834E-13
 -1      3539 1.95656E+01 2.66814E-02-6.46551E-03-1.56894E+00 6.11659E-14 1.84819E-13
 -1      3540 2.05925E+01-9.86017E-01 6.97417E-03-1.69671E+00-2.19779E-13 1.51054E-13
 -1      3541 2.03211E+01-6.35682E-01 1.00237E-02-1.69741E+00-2.15762E-13 2.27011E-13
 -1      3542 1.97399E+01-4.73045E-01-1.35707E-02-1.80636E+00-1.88449E-13 2.81117E-13
 -1      3543 2.13433E+01-1.86751E+00 3.43934E-03-1.66257E+00-1.48583E-13 9.94370E-14
 -1      3544 2.09240E+01-1.38954E+00 2.09457E-02-1.75700E+00-9.26644E-14 9.51129E-14
 -1      3545 2.01609E+01-1.23746E+00-2.47171E-02-2.02194E+00-1.68756E-13 1.15205E-13
 -1      3546 2.25179E+01-2.90133E+00-8.92370E-03-1.33980E+00-1.70156E-13 1.17198E-14
 -1      3547 2.19573E+01-2.35794E+00 3.88534E-02-1.59543E+00-2.04958E-13-8.49603E-15
 -1      3548 2.10038E+01-2.30168E+00-3.76652E-02-2.12264E+00-8.01525E-14 1.01016E-13
 -1      3549 2.56480E+01-3.69707E+00 2.28100E-02 4.72439E-01-3.10647E-13-1.60117E-13
 -1      3550 2.72743E+01 1.34886E+00-6.38313E-02 3.39259E+00-8.98587E-14-2.60694E-14
 -1      3551 2.63433E+01 4.77957E+00-1.10957E-01 1.27206E-01 2.08167E-15-4.00043E-13
 -1      3552 2.68661E+01 1.92361E+00-8.40721E-02-1.45297E+00-2.03122E-13-4.08298E-13
 -1      3553 1.55296E+01-1.84179E+00-4.55390E-02 3.93989E+00 3.37265E-14-3.45599E-13
 -1      3554 1.35512E+01-6.82794E-01 6.13401E-02 2.99800E+00-4.36118E-14-1.71134E-13
 -1      3555 2.44694E+01-2.23304E+00-4.90732E-02 7.92112E-01 2.75021E-13 5.69353E-13
 -1      3556 2.47121E+01-2.03246E+00-3.84845E-02 2.98814E-01 4.39237E-13 7.50473E-13
 -1      3557 2.62983E+01-3.19992E+00-2.60001E-03 1.50344E+00 4.66109E-14-4.01682E-13
 -1      3558 2.02346E+01 3.19975E-01-2.16404E-03 1.57066E-02 1.30695E-13-2.07364E-13
 -1      3559 2.02658E+01 4.29750E-01 3.32403E-03 8.96441E-02 1.42644E-13-1.90769E-13
 -1      3560 2.56237E+01-5.11069E+00-1.96447E-02-4.74784E+00-7.61752E-14-7.43017E-14
 -1      3561 2.03001E+01 4.39227E-01 2.82983E-03-7.19099E-02-1.34605E-13-2.07345E-13
 -1      3562 2.02750E+01 3.25806E-01-2.13159E-03-5.37240E-03-1.29405E-13-2.13686E-13
 -1      3563 2.03152E+01 3.27138E-01-1.00349E-04 2.00999E-03-1.04983E-13-2.33916E-13
 -1      3564 1.48047E+01-2.42460E+00 4.24457E-02-4.61402E+00-2.23294E-14-1.62689E-13
 -1      3565 1.70727E+01-3.75187E+00 1.81060E-02-5.15915E+00 1.21368E-13-1.16490E-13
 -1      3566 1.19959E+01 1.78878E-01 1.47695E-01 4.43596E+00-7.39755E-14-6.55725E-13
 -1      3567 2.00299E+01 2.20159E+00-3.34159E-03-1.62869E-01-3.90962E-14-3.91342E-13
 -1      3568 2.00425E+01 2.16494E+00-4.12426E-03-2.84370E-01-7.98400E-14-3.89780E-13
 -1      3569 2.01598E+01 1.85274E+00 5.90567E-03-2.85799E-01-8.14872E-14-3.63769E-13
 -1      3570 2.02175E+01 1.58118E+00 1.27524E-03-6.99131E-01-2.21851E-13-2.85148E-13
 -1      3571 1.97505E+01-4.20891E+00 1.02789E-01-4.48038E+00 1.27714E-13-9.37098E-14
 -1      3572 2.20529E+01-4.75881E+00-7.20801E-02-3.35194E+00 1.08837E-14-1.47733E-13
 -1      3573 1.92561E+01-3.49128E+00 5.97753E-02-4.10959E+00 1.16768E-13-1.45920E-13
 -1      3574 2.37466E+01-4.57150E+00 8.92059E-02-2.20813E+00-1.24143E-13-1.80164E-13
 -1      3575 2.50271E+01-4.30980E+00-4.39728E-02-6.20546E-01-2.64783E-13-2.93349E-13
 -1      3576 2.43230E+01-3.72556E+00-2.45177E-02-3.81267E-01-4.49718E-13-8.19345E-14
 -1      3577 2.26553E+01-4.15130E+00 8.49300E-03-2.42996E+00-1.16228E-13-2.22791E-14
 -1      3578 2.50654E+01-2.76544E+00 5.37461E-02 2.17739E+00 5.24048E-13-1.28370E-16
 -1      3579 2.01971E+01 1.60110E-01-1.30460E-03-8.10131E-02 6.64393E-14-1.56394E-13
 -1      3580 2.02239E+01 2.33218E-01 2.57814E-03-3.61487E-02 1.02761E-13-1.68364E-13
 -1      3581 2.02815E+01 3.27973E-01-3.43985E-04 7.32199E-03 8.63714E-14-1.75533E-13
 -1      3582 2.00272E+01-4.56746E-02 4.20578E-04-9.45099E-02 5.59947E-14-1.61022E-13
 -1      3583 2.00275E+01-5.28441E-02-1.80452E-04-1.01033E-01 2.33357E-14-1.26798E-13
 -1      3584 2.00537E+01-6.23094E-02-2.95148E-04-1.01016E-01 4.00227E-14-1.58074E-13
 -1      3585 2.00415E+01-4.67370E-02-2.24393E-04-8.93167E-02 1.92215E-14-1.69267E-13
 -1      3586 2.03120E+01 7.32996E-01 1.10983E-03-2.44017E-01-1.56767E-13-2.29913E-13
 -1      3587 2.02944E+01 5.73559E-01-2.81959E-03-1.42466E-01-1.49824E-13-2.16153E-13
 -1      3588 2.03307E+01 5.79286E-01 1.05627E-03-1.14272E-01-1.42411E-13-2.24909E-13
 -1      3589 2.58159E+01-2.42465E+00-2.02365E-02 4.74682E-01 3.85471E-13 3.23361E-13
 -1      3590 2.59365E+01-3.35511E+00 2.94145E-02 2.07187E+00 1.59232E-13-3.46296E-13
 -1      3591 2.02926E+01 1.11657E+00-1.54181E-04-4.48163E-01-1.79996E-13-2.69386E-13
 -1      3592 2.02939E+01 9.12705E-01-2.27126E-03-3.24491E-01-1.65922E-13-2.42628E-13
 -1      3593 2.03160E+01 9.04882E-01-1.91628E-03-2.69612E-01-1.54261E-13-2.65756E-13
 -1      3594 2.02877E+01 9.27657E-01 1.04633E-03 4.63607E-01 1.76026E-13-2.38146E-13
 -1      3595 2.02763E+01 1.10062E+00-1.68340E-03 4.99051E-01 1.79991E-13-2.68781E-13
 -1      3596 2.02708E+01 7.68070E-01-1.60420E-03 3.35133E-01 1.43159E-13-2.09437E-13
 -1      3597 1.31614E+01-9.75502E-02 6.60501E-02 2.22388E+00 2.46600E-14-2.33816E-13
 -1      3598 1.30597E+01 3.05325E-01-9.00246E-03 1.09189E+00-3.34932E-14-2.93467E-13
 -1      3599 1.47230E+01-2.17581E-01 2.04886E-02 2.36948E+00-9.21303E-14-2.47047E-13
 -1      3600 1.92833E+01-2.16841E+00-3.28164E-02 3.10128E+00-5.28839E-14-4.12569E-13
 -1      3601 2.00850E+01-5.70393E-02 4.51965E-04-1.60100E-01 1.73973E-14-9.53814E-14
 -1      3602 2.01394E+01-5.38650E-02-6.35602E-04-1.50875E-01 2.30804E-14-1.92604E-13
 -1      3603 2.00770E+01-6.46308E-02 2.33068E-04-1.55081E-01 1.44276E-14-9.16239E-14
 -1      3604 2.01275E+01-8.40486E-03-2.15330E-04-1.58778E-01 2.14485E-14-1.44875E-13
 -1      3605 2.01435E+01 2.05614E-02 1.27936E-03-1.49210E-01 1.38365E-14-1.47333E-13
 -1      3606 2.01720E+01-1.50755E-02-7.07189E-04-1.47564E-01 1.19668E-14-2.06744E-13
 -1      3607 2.00880E+01-7.76140E-02-4.57239E-04-1.30331E-01 5.51822E-14-1.22921E-13
 -1      3608 2.00591E+01-7.04853E-02 3.29973E-04-1.40839E-01 7.09863E-14-1.28919E-13
 -1      3609 2.00643E+01-6.88513E-02 2.00520E-04-1.48574E-01 7.15516E-14-9.00102E-14
 -1      3610 2.36574E+01-3.39884E+00 4.43274E-02-9.06786E-01-2.17392E-13 1.26444E-14
 -1      3611 2.26315E+01-3.51668E+00-2.93363E-02-1.76748E+00-2.17051E-13-4.57273E-15
 -1      3612 1.76034E+01-1.84002E+00 5.51181E-02 3.44088E+00-1.16903E-14-4.46768E-13
 -1      3613 2.01603E+01 5.63059E-02-6.52710E-04-1.34884E-01 1.94261E-14-1.41696E-13
 -1      3614 2.01816E+01 1.03454E-01 1.88408E-03-1.11025E-01 4.59752E-14-1.42694E-13
 -1      3615 2.02463E+01 1.61274E-01-6.54385E-04-7.86217E-02 5.19381E-14-1.75683E-13
 -1      3616 2.02084E+01 5.25456E-02-7.35660E-04-1.26515E-01 2.30082E-14-1.62863E-13
 -1      3617 2.38690E+01-5.11065E+00 1.08030E-01-6.16813E+00-8.31279E-15 4.44488E-14
 -1      3618 1.16246E+01 3.56866E-02 6.30958E-02-9.23733E-01 5.18600E-14-2.90740E-14
 -1      3619 2.02652E+01 1.23496E+00-6.48556E-04 4.63557E-01 1.46730E-13-2.78611E-13
 -1      3620 1.40561E+01-1.50014E+00 1.20347E-01-4.05774E+00 4.41418E-14-9.02264E-14
 -1      3621 1.58014E+01-2.02179E+00 4.87205E-02-4.13114E+00 1.43011E-14-2.17316E-13
 -1      3622 2.01374E+01 1.92403E+00 5.05553E-03-9.47533E-02-3.08216E-14-3.80714E-13
 -1      3623 1.30200E+01-8.81824E-01-3.75306E-03-3.16997E+00 3.79662E-14-1.00711E-13
 -1      3624 2.03037E+01 5.76356E-01 9.05061E-05 1.43351E-01 1.22871E-13-2.14445E-13
 -1      3625 2.02662E+01 5.62587E-01-2.36697E-03 1.72104E-01 1.38460E-13-2.16659E-13
 -1      3626 2.02090E+01 1.61025E+00-2.12512E-03-1.95576E-01-5.96747E-14-3.43978E-13
 -1      3627 2.02208E+01 1.55414E+00-4.23986E-03-2.79874E-01-9.90095E-14-3.34738E-13
 -1      3628 2.02024E+01 1.63926E+00-3.29762E-03 1.30392E-01 2.20234E-14-3.63197E-13
 -1      3629 2.01981E+01 1.65941E+00-2.61235E-03 3.98535E-02-8.40227E-15-3.63159E-13
 -1      3630 2.02215E+01 1.54928E+00-3.94885E-03 2.84128E-01 8.39118E-14-3.37050E-13
 -1      3631 2.02098E+01 1.60646E+00-2.34714E-03 2.01327E-01 4.88698E-14-3.43647E-13
 -1      3632 2.02854E+01 1.38688E+00 5.36176E-03 1.34054E-01 2.56822E-14-3.26864E-13
 -1      3633 2.02852E+01 6.90908E-01 2.73662E-03 2.67083E-01 1.36770E-13-2.11782E-13
 -1      3634 2.02992E+01 1.24410E+00 4.85771E-03-2.84504E-01-1.21994E-13-2.86499E-13
 -1      3635 2.02415E+01 1.44161E+00-5.75654E-04-3.83301E-01-1.39566E-13-3.10797E-13
 -1      3636 2.02981E+01 8.15952E-02 1.07909E-03 9.25905E-02-7.41369E-15-1.50216E-13
 -1      3637 2.02766E+01 3.32713E-02-5.17876E-04 1.07845E-01-1.47989E-14-1.39875E-13
 -1      3638 2.02575E+01-3.69214E-03 7.99319E-04 1.14606E-01-1.66774E-14-1.37838E-13
 -1      3639 2.02372E+01-3.28236E-02-1.43663E-04 1.20254E-01-3.40660E-15-1.39547E-13
 -1      3640 2.03012E+01 2.35843E-02-3.75839E-04 9.36756E-02-1.78609E-14-1.84759E-13
 -1      3641 2.02169E+01-5.39862E-02 5.58675E-04 1.20794E-01 1.86248E-14-1.59640E-13
 -1      3642 2.01989E+01-6.94913E-02 1.03957E-04 1.20276E-01 1.61196E-14-1.71727E-13
 -1      3643 2.02591E+01-4.15097E-02-5.02266E-04 1.03284E-01-7.12685E-15-1.42840E-13
 -1      3644 2.01792E+01-7.95418E-02 3.62019E-04 1.17051E-01-1.70902E-14-1.82116E-13
 -1      3645 2.01637E+01-8.55241E-02 2.54959E-04 1.12989E-01-3.90316E-14-1.76143E-13
 -1      3646 2.02178E+01-7.68568E-02-5.45057E-04 1.02765E-01-2.14501E-14-1.41749E-13
 -1      3647 2.01456E+01-8.78731E-02 2.05946E-04 1.07857E-01-4.93881E-14-1.64829E-13
 -1      3648 2.01327E+01-8.72912E-02 3.36385E-04 1.02177E-01-5.75203E-14-1.40357E-13
 -1      3649 2.01796E+01-9.12584E-02-5.28019E-04 9.63476E-02-2.66843E-14-1.31630E-13
 -1      3650 2.01165E+01-8.43479E-02 8.21270E-05 9.64751E-02-8.17796E-14-1.45598E-13
 -1      3651 2.01059E+01-7.92289E-02 3.74269E-04 9.05596E-02-8.48470E-14-1.08947E-13
 -1      3652 2.01455E+01-9.11430E-02-4.74967E-04 8.71935E-02-5.60113E-14-7.50959E-14
 -1      3653 2.00917E+01-7.25760E-02-1.96246E-05 8.52541E-02-5.26787E-14-7.98303E-14
 -1      3654 2.00831E+01-6.42130E-02 3.86229E-04 8.01152E-02-4.82112E-14-2.48883E-14
 -1      3655 2.01159E+01-8.09495E-02-4.03361E-04 7.75802E-02-3.88744E-14-9.22924E-14
 -1      3656 2.00705E+01-5.48272E-02-1.08322E-04 7.59271E-02-1.10648E-13-3.44023E-14
 -1      3657 2.00635E+01-4.39701E-02 3.82371E-04 7.23212E-02-7.11977E-14 3.93563E-14
 -1      3658 2.00901E+01-6.35123E-02-3.16483E-04 6.92018E-02-5.30270E-14-1.08581E-14
 -1      3659 2.00521E+01-3.23591E-02-1.93888E-04 6.97908E-02-4.32753E-14-7.92897E-15
 -1      3660 2.00461E+01-1.93140E-02 3.73451E-04 6.83120E-02-1.90091E-14-5.68747E-14
 -1      3661 2.00675E+01-4.05039E-02-2.16289E-04 6.33304E-02-8.13168E-14-3.56365E-14
 -1      3662 2.00353E+01-5.58914E-03-2.85651E-04 6.78935E-02-2.27035E-14-7.71305E-14
 -1      3663 2.00298E+01 9.68146E-03 3.64936E-04 6.90763E-02-5.35782E-14-7.38028E-14
 -1      3664 2.00468E+01-1.26494E-02-1.07913E-04 6.09460E-02-6.80805E-14-1.26944E-13
 -1      3665 2.00187E+01 2.56798E-02-3.89861E-04 7.12077E-02-1.82888E-14-5.01486E-14
 -1      3666 2.00130E+01 4.34557E-02 3.59180E-04 7.55736E-02-3.16534E-15-3.86345E-14
 -1      3667 2.00266E+01 2.00902E-02 1.31917E-05 6.29395E-02-1.72827E-14-9.44923E-14
 -1      3668 2.00006E+01 6.20914E-02-5.14043E-04 8.07051E-02 1.89469E-14 5.20872E-14
 -1      3669 1.99941E+01 8.28258E-02 3.57131E-04 8.88050E-02 2.24427E-14 7.59578E-14
 -1      3670 2.00051E+01 5.82672E-02 1.52103E-04 7.01742E-02 4.00100E-14 1.26681E-14
 -1      3671 1.99793E+01 1.04595E-01-6.64800E-04 9.74313E-02-3.36683E-14 9.87078E-14
 -1      3672 1.99710E+01 1.28839E-01 3.57931E-04 1.09871E-01 2.36565E-14 1.07545E-13
 -1      3673 1.99802E+01 1.02803E-01 3.14171E-04 8.35494E-02 4.47319E-14 1.09814E-13
 -1      3674 1.99524E+01 1.54291E-01-8.47676E-04 1.22547E-01-4.67152E-15 7.50793E-14
 -1      3675 1.99414E+01 1.82604E-01 3.59006E-04 1.39992E-01-1.36611E-14-7.48601E-15
 -1      3676 1.99495E+01 1.54827E-01 5.06744E-04 1.04048E-01-2.91704E-14 1.42567E-13
 -1      3677 1.99175E+01 2.12242E-01-1.06758E-03 1.57335E-01 2.92842E-14-3.31126E-14
 -1      3678 1.99026E+01 2.45082E-01 3.56623E-04 1.80503E-01 1.72349E-14-5.65036E-14
 -1      3679 1.99102E+01 2.15478E-01 7.38167E-04 1.32748E-01-2.52016E-14 3.76717E-14
 -1      3680 1.98715E+01 2.79239E-01-1.32876E-03 2.03181E-01-2.27051E-14-1.07636E-13
 -1      3681 1.98513E+01 3.16814E-01 3.46889E-04 2.32813E-01-3.57819E-14-9.17174E-14
 -1      3682 1.98589E+01 2.85671E-01 1.01729E-03 1.70809E-01-3.97183E-14-1.95400E-13
 -1      3683 1.98108E+01 3.55484E-01-1.63512E-03 2.61527E-01-3.38310E-14-7.60191E-14
 -1      3684 1.97836E+01 3.97554E-01 3.27820E-04 2.98352E-01-2.88605E-15-4.04313E-14
 -1      3685 1.97917E+01 3.65790E-01 1.35298E-03 2.19436E-01-5.18253E-15-6.78466E-14
 -1      3686 1.97315E+01 4.40149E-01-1.99132E-03 3.33828E-01 2.44348E-14-3.62168E-14
 -1      3687 1.96956E+01 4.85751E-01 3.03430E-04 3.78534E-01 8.71279E-14 2.80023E-14
 -1      3688 1.97043E+01 4.55285E-01 1.75335E-03 2.79858E-01 2.14225E-14-2.18551E-14
 -1      3689 1.96290E+01 5.30780E-01-2.40535E-03 4.21538E-01 4.05388E-14 1.04619E-14
 -1      3690 1.95825E+01 5.77862E-01 2.91312E-04 4.74777E-01-1.17015E-14 1.63916E-14
 -1      3691 1.95914E+01 5.52132E-01 2.22496E-03 3.53328E-01 4.69933E-14 4.64121E-14
 -1      3692 1.94985E+01 6.22482E-01-2.89339E-03 5.26219E-01-4.70267E-14-1.50596E-13
 -1      3693 1.94398E+01 6.67407E-01 3.35934E-04 5.88695E-01-4.86380E-14-3.00359E-13
 -1      3694 1.94476E+01 6.52138E-01 2.77164E-03 4.41249E-01-1.09079E-13-8.29356E-14
 -1      3695 1.93352E+01 7.06828E-01-3.48756E-03 6.49889E-01 2.01374E-14-2.99497E-13
 -1      3696 1.92635E+01 7.43731E-01 5.30480E-04 7.22637E-01 6.66942E-14-3.00761E-13
 -1      3697 1.92668E+01 7.48057E-01 3.39309E-03 5.45545E-01-2.60684E-14-2.70230E-13
 -1      3698 1.91350E+01 7.70420E-01-4.24560E-03 7.95857E-01 6.53786E-14-2.63164E-13
 -1      3699 1.90512E+01 7.90353E-01 1.04779E-03 8.80811E-01 1.00267E-13-2.12347E-13
 -1      3700 1.90428E+01 8.28465E-01 4.08119E-03 6.69511E-01 6.65524E-14-1.80456E-13
 -1      3701 1.88956E+01 7.92980E-01-5.25663E-03 9.70307E-01 8.95468E-14-1.94948E-13
 -1      3702 1.88040E+01 7.82800E-01 2.18148E-03 1.07130E+00 1.27419E-13-1.14784E-13
 -1      3703 1.87695E+01 8.76329E-01 4.80810E-03 8.19464E-01 1.03173E-13-2.17120E-13
 -1      3704 1.86187E+01 7.44852E-01-6.63164E-03 1.18491E+00 3.83763E-14-1.73252E-13
 -1      3705 1.85300E+01 6.85937E-01 4.50091E-03 1.30907E+00-8.39825E-14-1.94326E-13
 -1      3706 1.84419E+01 8.67093E-01 5.51504E-03 1.00755E+00 4.17322E-14-1.15452E-13
 -1      3707 1.83139E+01 5.83866E-01-8.34952E-03 1.46125E+00-1.75126E-13-1.46620E-13
 -1      3708 1.82506E+01 4.49215E-01 8.91923E-03 1.62057E+00-2.12632E-13-1.72918E-13
 -1      3709 1.80575E+01 7.66967E-01 6.42113E-03 1.25661E+00-5.92119E-14-7.50478E-14
 -1      3710 1.80081E+01 2.47770E-01-1.02539E-02 1.83580E+00-2.76292E-13-2.29767E-13
 -1      3711 1.80097E+01-1.63588E-03 1.56113E-02 2.04721E+00-1.48208E-13-2.97377E-13
 -1      3712 1.76177E+01 5.27011E-01 7.53636E-03 1.60947E+00-2.72952E-13-1.09280E-13
 -1      3713 1.77639E+01-3.46936E-01-8.59405E-03 2.35116E+00-1.24693E-13-4.10048E-13
 -1      3714 1.79087E+01-7.79163E-01 2.14241E-02 2.63661E+00-1.87204E-13-4.49472E-13
 -1      3715 1.71621E+01 6.66448E-02 1.34402E-02 2.13096E+00-2.17649E-13-1.63345E-13
 -1      3716 2.00161E+01 3.25052E-02 4.18361E-04-7.95779E-02-1.11671E-13-1.97181E-13
 -1      3717 2.00193E+01 1.66606E-02-3.86362E-04-7.57709E-02-3.84793E-14-1.92116E-13
 -1      3718 2.00909E+01-7.65221E-02 3.84479E-04-1.02169E-01 4.16700E-14-1.18344E-13
 -1      3719 2.00995E+01-8.07652E-02 6.59686E-05-1.08969E-01 6.04070E-14-1.00081E-13
 -1      3720 1.71753E+01-1.13156E+00 2.17827E-02 3.08987E+00-1.29931E-13-4.77948E-13
 -1      3721 2.00285E+01 2.44918E-03 4.08911E-04-7.40673E-02-1.02216E-14-2.09901E-13
 -1      3722 2.00319E+01-1.12221E-02-2.92814E-04-7.35862E-02-3.16218E-14-1.86761E-13
 -1      3723 2.00277E+01 1.13993E-02-2.82486E-05-6.95225E-02-3.81962E-14-2.56878E-13
 -1      3724 2.00411E+01-2.34543E-02 4.06593E-04-7.46412E-02-5.54213E-14-1.28513E-13
 -1      3725 2.00452E+01-3.51475E-02-2.07332E-04-7.69398E-02-2.63894E-14-1.42760E-13
 -1      3726 2.00444E+01-1.82118E-02-1.32963E-04-6.85228E-02 1.11787E-14-1.67051E-13
 -1      3727 2.00025E+01 6.73647E-02 4.37205E-04-9.22510E-02-4.07626E-14-1.15950E-13
 -1      3728 2.00061E+01 4.89791E-02-4.98244E-04-8.45373E-02-1.01225E-13-1.81929E-13
 -1      3729 2.00104E+01 4.57973E-02 8.50793E-05-7.62827E-02-1.00756E-13-1.60209E-13
 -1      3730 1.99863E+01 1.07866E-01 4.66308E-04-1.13286E-01 1.74858E-14-1.13627E-13
 -1      3731 1.99907E+01 8.64969E-02-6.33409E-04-1.01024E-01 4.86053E-14-1.03620E-13
 -1      3732 1.99909E+01 8.57404E-02 2.14801E-04-8.98420E-02-1.53895E-14-2.21860E-13
 -1      3733 1.99657E+01 1.54864E-01 5.05505E-04-1.44031E-01-1.00196E-14-1.19248E-13
 -1      3734 1.99717E+01 1.30083E-01-7.97171E-04-1.26505E-01 1.94150E-14-1.35743E-13
 -1      3735 1.99671E+01 1.32142E-01 3.66082E-04-1.11345E-01 4.56679E-14-2.45631E-13
 -1      3736 1.99387E+01 2.09016E-01 5.54103E-04-1.85987E-01-6.48926E-14-1.42659E-13
 -1      3737 1.99470E+01 1.80523E-01-9.93012E-04-1.62416E-01-2.29061E-14-1.09030E-13
 -1      3738 1.99369E+01 1.85889E-01 5.43831E-04-1.42081E-01-4.40529E-14-1.12043E-13
 -1      3739 1.99033E+01 2.70489E-01 6.11973E-04-2.40776E-01 7.65911E-15-2.06839E-13
 -1      3740 1.99146E+01 2.38271E-01-1.22242E-03-2.10342E-01-2.80983E-14-2.03683E-13
 -1      3741 1.98977E+01 2.47586E-01 7.51934E-04-1.83492E-01-1.64213E-14-2.38817E-13
 -1      3742 1.98569E+01 3.38564E-01 6.81617E-04-3.10095E-01-1.97202E-14-1.35298E-13
 -1      3743 1.98722E+01 3.03110E-01-1.48434E-03-2.71981E-01-2.57072E-14-1.65096E-13
 -1      3744 1.98467E+01 3.17228E-01 9.91756E-04-2.37160E-01-3.01835E-14-2.37824E-13
 -1      3745 1.97974E+01 4.11088E-01 7.71944E-04-3.95640E-01 6.71706E-14-1.72239E-13
 -1      3746 1.98174E+01 3.73681E-01-1.77458E-03-3.49087E-01 1.36557E-14-1.76351E-13
 -1      3747 1.97810E+01 3.93758E-01 1.25990E-03-3.04788E-01 7.92126E-15-1.99076E-13
 -1      3748 1.97227E+01 4.83733E-01 9.04877E-04-4.99064E-01-7.16994E-14-6.92221E-14
 -1      3749 1.97478E+01 4.46849E-01-2.08532E-03-4.43422E-01 6.06647E-14-7.26558E-14
 -1      3750 1.96973E+01 4.74464E-01 1.54476E-03-3.88210E-01-3.07291E-14-2.07665E-13
 -1      3751 1.96319E+01 5.49002E-01 1.12623E-03-6.22000E-01-1.93592E-13-1.14341E-13
 -1      3752 1.96619E+01 5.16835E-01-2.40452E-03-5.56750E-01-1.43444E-13-6.69258E-14
 -1      3753 1.95930E+01 5.54202E-01 1.82122E-03-4.89465E-01-9.43327E-14-1.26146E-13
 -1      3754 1.95261E+01 5.94926E-01 1.52266E-03-7.66254E-01-4.24130E-14-2.63843E-13
 -1      3755 1.95593E+01 5.74074E-01-2.71425E-03-6.90960E-01-1.65435E-13-1.99894E-13
 -1      3756 1.94662E+01 6.24365E-01 2.04218E-03-6.11037E-01-1.38293E-13-2.27550E-13
 -1      3757 1.94104E+01 6.03400E-01 2.24526E-03-9.34243E-01-3.48474E-14-1.30057E-14
 -1      3758 1.94425E+01 6.03734E-01-2.98376E-03-8.48413E-01-7.63900E-14-1.24275E-13
 -1      3759 1.93166E+01 6.71578E-01 2.12421E-03-7.56393E-01-1.78077E-13-9.50506E-14
 -1      3760 1.92965E+01 5.48066E-01 3.52361E-03-1.12973E+00 2.23264E-16 1.05357E-13
 -1      3761 1.93186E+01 5.83849E-01-3.14418E-03-1.03261E+00 7.43636E-14 9.52895E-14
 -1      3762 1.91474E+01 6.76018E-01 1.91980E-03-9.30989E-01-5.85254E-14 6.88626E-14
 -1      3763 1.92077E+01 3.91813E-01 5.65200E-03-1.35845E+00 2.59930E-14 4.52235E-14
 -1      3764 1.92037E+01 4.83006E-01-3.02001E-03-1.24905E+00-1.49185E-14 1.10102E-13
 -1      3765 1.89678E+01 6.09093E-01 1.15801E-03-1.14383E+00 1.01391E-14 1.83267E-13
 -1      3766 1.91870E+01 8.51970E-02 9.30377E-03-1.62712E+00-1.07245E-13 3.69996E-13
 -1      3767 1.91288E+01 2.57995E-01-2.17129E-03-1.50526E+00-5.63519E-14 1.99860E-13
 -1      3768 1.87979E+01 4.30332E-01-6.01863E-04-1.40882E+00-1.01344E-13 2.68906E-13
 -1      3769 1.93032E+01-4.41249E-01 1.17901E-02-1.94366E+00-2.30101E-13 4.13849E-13
 -1      3770 1.91493E+01-1.46967E-01 4.23242E-04-1.81142E+00-7.13847E-14 4.13357E-13
 -1      3771 1.86745E+01 8.73159E-02-3.85141E-03-1.74576E+00-1.39077E-13 5.07227E-13
 -1      3772 1.96793E+01-1.24848E+00 1.65234E-02-2.28748E+00-5.51796E-14 1.21315E-13
 -1      3773 1.93722E+01-7.97353E-01 9.75495E-03-2.15847E+00-1.81175E-13 1.96528E-13
 -1      3774 1.86748E+01-5.17830E-01-1.51051E-02-2.17947E+00-3.10259E-14 4.71443E-13
 -1      3775 2.04858E+01-2.43858E+00 1.07029E-02-2.60860E+00-1.28383E-13 1.31096E-13
 -1      3776 1.99549E+01-1.76477E+00 3.03367E-02-2.53243E+00-9.26077E-14 1.24286E-13
 -1      3777 1.89115E+01-1.44043E+00-3.62837E-02-2.68030E+00-7.52311E-14 2.16059E-13
 -1      3778 1.82620E+01-2.34512E+00 6.22817E-02-3.74153E+00 4.05734E-14-7.70651E-14
 -1      3779 2.00378E+01-2.99790E+00-3.79743E-02-3.20963E+00-3.00706E-14 1.05516E-13
 -1      3780 2.03124E+01 3.12833E-01-1.92808E-03-1.10104E-02 4.45322E-14-1.58587E-13
 -1      3781 2.03328E+01 4.24373E-01 2.24697E-03 4.44818E-02 6.89856E-14-1.82245E-13
 -1      3782 2.02988E+01 8.09260E-01-3.17610E-03 2.98900E-01 1.40563E-13-2.37159E-13
 -1      3783 2.03578E+01 4.15842E-01 1.74710E-03-2.97474E-02-9.45608E-14-1.92744E-13
 -1      3784 2.03407E+01 3.05257E-01-1.66287E-03 1.82044E-02-6.84980E-14-1.78454E-13
 -1      3785 2.02541E+01 1.36650E+00 1.77634E-03-5.38282E-01-1.80568E-13-2.79684E-13
 -1      3786 2.03260E+01 5.54258E-01-2.96644E-03 1.01021E-01 9.13985E-14-2.00801E-13
 -1      3787 2.03439E+01 7.14692E-01 4.30974E-03 1.83791E-01 1.09092E-13-2.21721E-13
 -1      3788 2.03564E+01 5.51430E-01 1.04547E-03 7.73419E-02 5.91196E-14-2.10998E-13
 -1      3789 1.25446E+01 3.06342E-01-9.95424E-03-5.76353E-01 9.47176E-14-4.83918E-14
 -1      3790 1.25790E+01 1.16463E-01 1.19426E-01-1.90851E+00 4.98785E-14-9.69017E-14
 -1      3791 2.03039E+01 1.06900E+00 5.51430E-03 3.68717E-01 1.22742E-13-2.62372E-13
 -1      3792 2.02501E+01 1.38297E+00-4.70410E-03 4.40758E-01 1.26848E-13-3.08924E-13
 -1      3793 2.02329E+01 1.48317E+00-2.53514E-03 3.71156E-01 1.03309E-13-3.31582E-13
 -1      3794 2.03045E+01 9.55015E-01-2.23732E-03 2.91388E-01 1.20671E-13-2.58404E-13
 -1      3795 2.01977E+01 1.66004E+00-2.66672E-03-3.46025E-02-1.38244E-14-3.74296E-13
 -1      3796 2.02014E+01 1.64142E+00-3.32673E-03-1.25127E-01-2.96972E-14-3.61110E-13
 -1      3797 2.02851E+01 1.39115E+00 6.07183E-03-1.31130E-01-4.07059E-14-3.18826E-13
 -1      3798 2.02798E+01 1.42034E+00 5.01184E-03 1.99283E-03 4.06787E-15-3.59293E-13
 -1      3799 2.15615E+01-3.32961E+00 6.05191E-02-2.69823E+00-3.99343E-14 4.13857E-14
 -1      3800 2.03566E+01 7.11509E-01 4.37080E-03-1.43914E-01-1.30723E-13-2.37638E-13
 -1      3801 2.03505E+01 5.44964E-01-2.74918E-03-7.54385E-02-1.11636E-13-2.14480E-13
 -1      3802 2.03747E+01 5.32980E-01 1.87760E-05-5.46944E-02-9.17820E-14-1.87642E-13
 -1      3803 2.03339E+01 2.15524E-01 1.34387E-03 4.73251E-02-6.48459E-14-1.71585E-13
 -1      3804 2.03132E+01 1.40689E-01-1.04225E-03 7.64925E-02-3.76731E-14-1.55657E-13
 -1      3805 2.03683E+01 2.93665E-01 2.61079E-04 2.13218E-02-5.34483E-14-1.20815E-13
 -1      3806 2.02578E+01 1.35022E+00 2.04720E-04-4.48956E-01-1.65949E-13-2.87041E-13
 -1      3807 1.39629E+01-3.99925E-01 3.07664E-02-2.57073E+00 1.23626E-13-1.10498E-13
 -1      3808 1.61783E+01-5.28738E-01 2.72806E-02 2.81392E+00-1.90598E-13-3.02524E-13
 -1      3809 1.55429E+01-2.05997E-02-1.78820E-02 2.14885E+00-1.84536E-13-2.80527E-13
 -1      3810 2.01114E+01-7.26194E-02-5.45112E-04-1.43418E-01 4.59402E-14-1.09938E-13
 -1      3811 2.00621E+01-4.34586E-02-2.35591E-04-7.23418E-02-1.62723E-14-4.17788E-14
 -1      3812 2.00551E+01-4.54964E-02 4.10633E-04-8.02642E-02 3.12372E-15-1.23014E-13
 -1      3813 2.00602E+01-5.52076E-02-1.26034E-04-8.47798E-02 3.05019E-14-8.57092E-14
 -1      3814 2.01738E+01-6.24194E-02 8.81510E-05-1.35315E-01 6.33831E-15-1.74094E-13
 -1      3815 2.01901E+01-4.64189E-02 6.36867E-04-1.35644E-01 1.28388E-14-1.92249E-13
 -1      3816 2.02093E+01-2.49602E-02-1.74328E-04-1.34271E-01 1.13541E-14-1.67588E-13
 -1      3817 2.02284E+01 4.46939E-03 9.46378E-04-1.27493E-01 1.94671E-14-1.51835E-13
 -1      3818 2.02378E+01-3.32236E-02-5.35507E-04-1.18846E-01 2.74397E-14-1.43594E-13
 -1      3819 2.01319E+01-8.78606E-02-4.73213E-04-1.01565E-01 2.82300E-14-2.15527E-13
 -1      3820 2.01143E+01-8.28943E-02 3.38961E-04-1.15487E-01 1.42192E-14-1.27000E-13
 -1      3821 2.01252E+01-8.26982E-02 2.09416E-04-1.21910E-01 2.69024E-14-1.65612E-13
 -1      3822 2.03199E+01 1.18049E+00-2.13818E-03-7.47190E-02-2.48472E-14-3.02008E-13
 -1      3823 2.03197E+01 1.14186E+00-5.14883E-03-1.35493E-01-6.99442E-14-2.70338E-13
 -1      3824 2.03051E+01 2.23678E-01 1.69430E-03-4.67675E-02 5.21132E-14-1.46238E-13
 -1      3825 2.03457E+01 3.07061E-01 1.34347E-04-1.61626E-02 4.70860E-14-1.56777E-13
 -1      3826 2.02830E+01 1.48750E-01-1.14536E-03-8.06267E-02 4.24129E-14-1.57457E-13
 -1      3827 2.00781E+01-7.08389E-02-3.77209E-05-9.59594E-02 4.72304E-14-1.15242E-13
 -1      3828 2.01049E+01-7.95186E-02-3.96734E-04-9.01887E-02 7.06824E-14-1.66560E-13
 -1      3829 2.00714E+01-6.34888E-02 4.06730E-04-8.98823E-02 3.29620E-14-1.25705E-13
 -1      3830 1.33065E+01 6.02895E-01 7.00634E-02 2.86313E-01-4.13645E-15-1.99779E-13
 -1      3831 1.37489E+01 5.32065E-01-1.58636E-02-6.05315E-01 3.84441E-14-1.76775E-13
 -1      3832 1.42076E+01 5.40653E-01-1.86896E-03 8.79088E-01-1.13551E-13-3.43233E-13
 -1      3833 2.02970E+01 1.28624E+00 5.13426E-03 2.78599E-01 7.06382E-14-3.11853E-13
 -1      3834 2.03254E+01 9.36500E-01-1.48078E-03 2.37427E-01 9.34749E-14-2.56843E-13
 -1      3835 2.03185E+01 1.19487E+00-2.42580E-03 3.20716E-02 1.61336E-14-3.43212E-13
 -1      3836 2.03181E+01 1.19492E+00-2.62196E-03-2.88798E-02 6.80452E-15-3.56335E-13
 -1      3837 2.03735E+01 9.94772E-01 4.41593E-03-3.59146E-02-3.42337E-14-3.01707E-13
 -1      3838 2.03269E+01 1.14226E+00-1.52238E-03 1.34937E-01 2.51811E-14-3.07357E-13
 -1      3839 2.03200E+01 1.18052E+00-1.79644E-03 7.88944E-02 4.50757E-15-3.20830E-13
 -1      3840 2.03737E+01 9.92907E-01 4.21230E-03 4.17831E-02 6.01724E-15-3.39817E-13
 -1      3841 2.03398E+01 1.30254E-01-1.20661E-04 6.85488E-02-3.08185E-14-1.53006E-13
 -1      3842 2.03395E+01 9.93018E-01-2.15876E-04-1.55566E-01-9.44675E-14-2.67191E-13
 -1      3843 2.03343E+01 8.77578E-01-2.57860E-03-2.17668E-01-1.34002E-13-2.60238E-13
 -1      3844 1.43479E+01 9.93123E-03-2.07783E-02-2.03526E+00 1.25346E-13-7.24091E-14
 -1      3845 1.52256E+01-6.89604E-01 4.53943E-02-3.08704E+00 1.07055E-13-1.07442E-13
 -1      3846 2.03813E+01 8.29252E-01 3.82546E-03-9.40838E-02-8.56967E-14-2.41253E-13
 -1      3847 1.64982E+01-8.12171E-01 2.80540E-02-2.93002E+00 7.48099E-15-1.19952E-13
 -1      3848 1.61044E+01-1.35879E+00-5.05614E-03-3.49423E+00 6.36288E-14-1.26558E-13
 -1      3849 1.71164E+01-2.13027E+00 8.92185E-03-3.91564E+00 2.82933E-14-2.37820E-13
 -1      3850 1.62515E+01 2.08630E-01 3.16143E-03 1.91888E+00-2.67705E-13-2.99392E-13
 -1      3851 1.51140E+01 5.20446E-01 5.14452E-02 1.51608E+00-1.45386E-13-4.50979E-13
 -1      3852 1.48980E+01 6.53955E-01-3.06288E-02 7.86983E-01-8.87814E-14-4.16787E-13
 -1      3853 1.64867E+01 4.49800E-01-2.63225E-02 1.61460E+00-2.38079E-13-3.13398E-13
 -1      3854 2.01554E+01-7.30099E-02 3.95486E-04-1.32064E-01 3.35664E-14-1.83122E-13
 -1      3855 2.01988E+01-7.01775E-02-5.65904E-04-1.19166E-01 2.19059E-14-1.88972E-13
 -1      3856 2.01419E+01-7.96509E-02 2.49690E-04-1.27591E-01 6.37484E-14-1.92429E-13
 -1      3857 2.02969E+01-2.76511E-02 5.15990E-04 8.26083E-02 5.99110E-15-1.95335E-13
 -1      3858 2.02749E+01-5.35182E-02-2.91250E-06 8.55860E-02-2.84840E-14-1.64344E-13
 -1      3859 2.02526E+01-7.18953E-02 4.02433E-04 8.46004E-02-4.01626E-14-1.48024E-13
 -1      3860 2.02320E+01-8.46023E-02 1.74145E-04 8.36668E-02-1.55406E-14-1.55397E-13
 -1      3861 2.02835E+01-6.22750E-02-5.08717E-04 6.60427E-02-3.50702E-14-1.69700E-13
 -1      3862 2.02103E+01-9.21558E-02 2.96283E-04 8.07575E-02-6.79907E-15-9.97152E-14
 -1      3863 2.01919E+01-9.56376E-02 2.78194E-04 7.76483E-02-1.56212E-15-1.01513E-13
 -1      3864 2.02387E+01-9.05223E-02-5.41945E-04 6.42741E-02 8.18863E-15-1.30721E-13
 -1      3865 2.01718E+01-9.56745E-02 1.95656E-04 7.39132E-02-1.87085E-14-9.22080E-14
 -1      3866 2.01558E+01-9.27958E-02 3.25442E-04 6.99236E-02-1.72354E-14-4.68171E-14
 -1      3867 2.01970E+01-9.90872E-02-5.27680E-04 5.95262E-02 3.27680E-14-3.78835E-14
 -1      3868 2.01377E+01-8.75675E-02 1.03385E-04 6.60939E-02-5.58944E-14-4.88477E-14
 -1      3869 2.01239E+01-8.01746E-02 3.37151E-04 6.22043E-02-4.70075E-14-6.60227E-14
 -1      3870 2.01593E+01-9.39233E-02-4.75561E-04 5.36952E-02-2.21575E-14-4.50636E-14
 -1      3871 2.01078E+01-7.11767E-02 1.85224E-05 5.89157E-02-2.42473E-14-6.36138E-14
 -1      3872 2.00958E+01-6.04489E-02 3.27368E-04 5.58347E-02-1.63678E-14-3.74395E-14
 -1      3873 2.01259E+01-7.89549E-02-3.96462E-04 4.79899E-02-4.04666E-14-9.18850E-14
 -1      3874 2.00812E+01-4.85800E-02-6.57937E-05 5.35254E-02-5.39019E-14-7.57987E-14
 -1      3875 2.00707E+01-3.51755E-02 3.03282E-04 5.17795E-02-9.26876E-14-9.96872E-14
 -1      3876 2.00961E+01-5.67940E-02-2.90804E-04 4.34872E-02-1.76355E-14-1.07434E-13
 -1      3877 2.00570E+01-2.07770E-02-1.59096E-04 5.07350E-02-1.01625E-13-8.93979E-14
 -1      3878 2.00471E+01-4.82581E-03 2.71362E-04 5.07879E-02-4.76550E-14-1.10230E-13
 -1      3879 2.00690E+01-2.88445E-02-1.72194E-04 4.09209E-02-9.28257E-14-7.73517E-14
 -1      3880 2.00334E+01 1.21073E-02-2.62386E-04 5.13549E-02-2.08911E-15-6.95008E-14
 -1      3881 2.00234E+01 3.07496E-02 2.32876E-04 5.36221E-02 5.01306E-14 2.72766E-15
 -1      3882 2.00430E+01 4.59232E-03-3.79275E-05 4.08593E-02 5.94792E-15-5.13741E-14
 -1      3883 2.00086E+01 5.04903E-02-3.82460E-04 5.60918E-02 5.51278E-14 2.89908E-15
 -1      3884 1.99975E+01 7.22163E-02 1.89948E-04 6.09824E-02 6.42820E-14 5.40329E-14
 -1      3885 2.00161E+01 4.37637E-02 1.19224E-04 4.39392E-02 7.56257E-14 1.73564E-14
 -1      3886 1.99804E+01 9.52389E-02-5.25804E-04 6.56657E-02 1.45119E-14 2.21048E-14
 -1      3887 1.99671E+01 1.20597E-01 1.41419E-04 7.36127E-02 9.98818E-15-2.00434E-14
 -1      3888 1.99860E+01 8.94395E-02 3.00951E-04 5.06975E-02 1.88443E-14-6.55170E-14
 -1      3889 1.99462E+01 1.47480E-01-6.97041E-04 8.08571E-02 6.43636E-15-3.27609E-14
 -1      3890 1.99294E+01 1.77077E-01 8.41965E-05 9.23265E-02 1.29412E-15 1.12855E-14
 -1      3891 1.99502E+01 1.42727E-01 5.14524E-04 6.17234E-02-1.25999E-14-1.74249E-13
 -1      3892 1.99030E+01 2.08402E-01-9.01221E-04 1.02514E-01-9.26501E-14 3.60689E-14
 -1      3893 1.98811E+01 2.42793E-01 1.38469E-05 1.18001E-01-1.27168E-13-1.09438E-13
 -1      3894 1.99055E+01 2.04846E-01 7.68751E-04 7.76479E-02-6.55540E-14-1.12138E-13
 -1      3895 1.98471E+01 2.79030E-01-1.14335E-03 1.31542E-01-7.05118E-14-9.85175E-14
 -1      3896 1.98183E+01 3.18585E-01-7.48922E-05 1.51557E-01-7.17242E-14-1.11350E-13
 -1      3897 1.98480E+01 2.76905E-01 1.07351E-03 9.91328E-02-1.16226E-13-1.52005E-13
 -1      3898 1.97744E+01 3.59937E-01-1.42895E-03 1.68880E-01 3.36025E-15-6.69021E-14
 -1      3899 1.97366E+01 4.04666E-01-1.87139E-04 1.93927E-01 2.28560E-14-4.08639E-14
 -1      3900 1.97737E+01 3.59621E-01 1.43982E-03 1.26849E-01 2.19718E-14-6.61961E-14
 -1      3901 1.96801E+01 4.50871E-01-1.76564E-03 2.15466E-01 1.03824E-14 4.62849E-14
 -1      3902 1.96309E+01 5.00205E-01-3.26016E-04 2.46033E-01 7.40294E-14 1.88431E-14
 -1      3903 1.96775E+01 4.52976E-01 1.88023E-03 1.61449E-01 9.05197E-14-6.82057E-14
 -1      3904 1.95588E+01 5.50279E-01-2.16676E-03 2.72237E-01 2.93350E-14-7.50056E-14
 -1      3905 1.94955E+01 6.02792E-01-4.89308E-04 3.08811E-01-5.93105E-15-9.13661E-14
 -1      3906 1.95537E+01 5.55781E-01 2.41012E-03 2.03557E-01 1.04872E-14-7.39159E-14
 -1      3907 1.94041E+01 6.54712E-01-2.65837E-03 3.40202E-01-1.21484E-13-1.55822E-13
 -1      3908 1.93238E+01 7.07786E-01-6.63678E-04 3.83371E-01-1.55007E-13-2.14233E-13
 -1      3909 1.93959E+01 6.65167E-01 3.05074E-03 2.53822E-01-1.06672E-13-2.11402E-13
 -1      3910 1.92088E+01 7.58102E-01-3.29223E-03 4.20704E-01-8.87574E-14-1.87774E-13
 -1      3911 1.91085E+01 8.07543E-01-8.14717E-04 4.71423E-01-1.67719E-14-2.08301E-13
 -1      3912 1.91964E+01 7.76011E-01 3.83554E-03 3.13109E-01-1.21098E-13-2.26124E-13
 -1      3913 1.89649E+01 8.50927E-01-4.16768E-03 5.16048E-01 9.66312E-14-2.88689E-13
 -1      3914 1.88416E+01 8.90550E-01-8.68572E-04 5.76201E-01 1.11824E-13-2.16687E-13
 -1      3915 1.89464E+01 8.80344E-01 4.82242E-03 3.82982E-01 3.46214E-14-2.77905E-13
 -1      3916 1.86623E+01 9.19273E-01-5.46422E-03 6.30824E-01 5.68508E-14-2.15563E-13
 -1      3917 1.85136E+01 9.40426E-01-6.73840E-04 7.04268E-01 4.72174E-14-2.07678E-13
 -1      3918 1.86346E+01 9.66834E-01 6.11420E-03 4.66737E-01 1.00300E-13-1.99174E-13
 -1      3919 1.82889E+01 9.43638E-01-7.48140E-03 7.74398E-01-3.71180E-14-2.48301E-13
 -1      3920 1.81134E+01 9.34401E-01-1.11829E-04 8.68756E-01 2.25015E-15-2.76962E-13
 -1      3921 1.82461E+01 1.02032E+00 7.87729E-03 5.71481E-01-4.46502E-16-1.29852E-13
 -1      3922 1.78297E+01 8.97045E-01-1.07049E-02 9.64027E-01 4.70919E-14-3.96514E-13
 -1      3923 1.76249E+01 8.41641E-01 3.01735E-04 1.09382E+00-9.27674E-14-3.43491E-13
 -1      3924 1.77609E+01 1.02052E+00 1.06097E-02 7.12018E-01-7.30426E-14-5.44684E-13
 -1      3925 1.72455E+01 7.49635E-01-1.50714E-02 1.21946E+00-1.91075E-13-3.43983E-13
 -1      3926 1.70132E+01 6.25085E-01 2.15699E-03 1.40772E+00-1.99883E-13-3.48795E-13
 -1      3927 1.62852E+01 7.94499E-01 3.06412E-02 1.17979E+00-1.85944E-13-4.92568E-13
 -1      3928 1.71420E+01 9.48872E-01 1.86921E-02 9.03273E-01-1.31839E-13-7.05047E-13
 -1      3929 1.99799E+01 1.03169E-01 2.60131E-04-8.25169E-02 1.26559E-14-3.05641E-13
 -1      3930 1.99900E+01 8.00513E-02-5.24578E-04-7.41611E-02-2.14069E-14-3.19555E-13
 -1      3931 2.00268E+01 2.12095E-02 3.04029E-04-6.15098E-02-8.29767E-14-1.18188E-13
 -1      3932 2.00348E+01 4.09201E-03-2.75307E-04-5.95646E-02 5.26307E-14-1.26975E-13
 -1      3933 2.00473E+01-1.13872E-02 3.26935E-04-5.92993E-02 8.12412E-14-1.48778E-13
 -1      3934 2.00555E+01-2.60603E-02-1.64533E-04-5.98184E-02 1.58789E-14-5.69428E-14
 -1      3935 2.00452E+01-3.11942E-03-7.31564E-05-5.05584E-02 4.50603E-14-4.54298E-14
 -1      3936 1.99491E+01 1.54365E-01 2.40650E-04-1.03258E-01-3.76204E-14-1.41215E-13
 -1      3937 1.99618E+01 1.27505E-01-6.88149E-04-9.08709E-02 2.07512E-14-2.21129E-13
 -1      3938 1.99639E+01 1.24561E-01 4.14248E-04-7.39585E-02-2.83114E-14-2.72148E-13
 -1      3939 1.99099E+01 2.13622E-01 2.22375E-04-1.32335E-01-7.62873E-14-2.44359E-13
 -1      3940 1.99263E+01 1.82574E-01-8.84008E-04-1.15284E-01-4.25936E-14-1.84847E-13
 -1      3941 1.99257E+01 1.81604E-01 6.32846E-04-9.31750E-02-4.02184E-14-1.49986E-13
 -1      3942 1.98593E+01 2.81517E-01 2.05314E-04-1.71063E-01 2.18456E-14-3.27972E-13
 -1      3943 1.98808E+01 2.46044E-01-1.11664E-03-1.48652E-01-1.58832E-14-2.82106E-13
 -1      3944 1.98770E+01 2.47486E-01 8.90739E-04-1.19746E-01-7.67805E-15-2.41478E-13
 -1      3945 1.97940E+01 3.57936E-01 1.91674E-04-2.20904E-01-9.34607E-14-2.15900E-13
 -1      3946 1.98220E+01 3.18195E-01-1.39015E-03-1.92383E-01-6.52407E-14-2.83859E-13
 -1      3947 1.98142E+01 3.22693E-01 1.19401E-03-1.54879E-01-3.05182E-14-2.17790E-13
 -1      3948 1.97102E+01 4.41612E-01 1.88639E-04-2.83480E-01 1.46130E-15-1.78331E-13
 -1      3949 1.97463E+01 3.98396E-01-1.70883E-03-2.48048E-01-4.16669E-14-2.00587E-13
 -1      3950 1.97335E+01 4.06909E-01 1.54735E-03-1.99959E-01-7.94808E-14-2.07737E-13
 -1      3951 1.96043E+01 5.29528E-01 2.13044E-04-3.60625E-01-1.05385E-13-1.23191E-13
 -1      3952 1.96498E+01 4.84583E-01-2.07885E-03-3.17409E-01-2.51108E-14-1.56612E-13
 -1      3953 1.96304E+01 4.98533E-01 1.95321E-03-2.56601E-01 9.29066E-16-3.99345E-14
 -1      3954 1.94726E+01 6.16159E-01 2.99046E-04-4.54553E-01-8.05920E-14-1.13165E-13
 -1      3955 1.95288E+01 5.72577E-01-2.51162E-03-4.02531E-01-1.45446E-13-1.49888E-13
 -1      3956 1.95004E+01 5.94081E-01 2.41118E-03-3.26782E-01-1.18218E-13-1.18166E-13
 -1      3957 1.93124E+01 6.92531E-01 5.10572E-04-5.68237E-01-2.20994E-13 5.25688E-14
 -1      3958 1.93796E+01 6.55233E-01-3.02980E-03-5.06039E-01-1.23284E-13-2.12107E-14
 -1      3959 1.93387E+01 6.87459E-01 2.91749E-03-4.13120E-01-1.68090E-13-2.28502E-14
 -1      3960 1.91222E+01 7.45082E-01 9.62631E-04-7.06158E-01-2.14367E-13-3.45456E-14
 -1      3961 1.91995E+01 7.21389E-01-3.67642E-03-6.31677E-01-2.37055E-13-3.11017E-14
 -1      3962 1.91410E+01 7.69119E-01 3.46487E-03-5.19439E-01-2.48531E-13 1.02954E-13
 -1      3963 1.89033E+01 7.54285E-01 1.86719E-03-8.75660E-01-7.88332E-14-1.31971E-14
 -1      3964 1.89873E+01 7.54609E-01-4.52437E-03-7.85361E-01-1.60316E-13-1.13078E-13
 -1      3965 1.89030E+01 8.25108E-01 4.04274E-03-6.51816E-01-1.53305E-13-4.34292E-14
 -1      3966 1.86619E+01 6.92805E-01 3.64874E-03-1.08917E+00-7.16694E-14 1.28629E-13
 -1      3967 1.87445E+01 7.31618E-01-5.66284E-03-9.77107E-01-2.01312E-14 4.61815E-14
 -1      3968 1.86215E+01 8.35982E-01 4.63502E-03-8.20513E-01-7.22698E-14-1.23204E-13
 -1      3969 1.84128E+01 5.21655E-01 6.57740E-03-1.36737E+00-1.76768E-13 2.52095E-13
 -1      3970 1.84785E+01 6.19663E-01-7.09280E-03-1.22427E+00-1.34274E-13 1.80739E-13
 -1      3971 1.82940E+01 7.75093E-01 5.17155E-03-1.04370E+00-1.36762E-13 7.14056E-14
 -1      3972 1.81894E+01 1.88375E-01 1.18823E-02-1.73660E+00-2.02242E-13 3.34407E-13
 -1      3973 1.82116E+01 3.71435E-01-8.24512E-03-1.55118E+00-2.19969E-13 3.16100E-13
 -1      3974 1.79283E+01 6.02156E-01 6.59926E-03-1.35404E+00-2.19552E-13 1.07016E-13
 -1      3975 1.80313E+01-3.95417E-01 8.83169E-03-2.24941E+00 4.39984E-14 2.45795E-13
 -1      3976 1.79727E+01-4.93184E-02-3.34686E-03-2.00033E+00 6.42195E-15 3.44400E-13
 -1      3977 1.75391E+01 2.78761E-01 1.46667E-02-1.79297E+00-7.31988E-14 1.43749E-13
 -1      3978 1.84659E+01-1.70868E+00 2.93307E-02-3.14699E+00-6.27484E-14 4.21327E-14
 -1      3979 1.81558E+01-1.09167E+00 2.31758E-02-2.80573E+00-2.81554E-14 1.24341E-13
 -1      3980 2.02467E+01 4.14689E-02-5.74672E-04-1.18592E-01 1.38701E-14-1.55204E-13
 -1      3981 2.02681E+01 8.98900E-02 1.30446E-03-1.00749E-01 3.59566E-14-1.52835E-13
 -1      3982 2.02781E+01 3.33475E-02-4.48385E-04-1.06133E-01 2.05530E-14-1.69496E-13
 -1      3983 2.03965E+01 3.62204E-01 1.46118E-04-1.18177E-03-5.18045E-14-1.84829E-13
 -1      3984 2.03850E+01 2.59954E-01-1.08890E-03 3.01632E-02-5.57125E-14-1.92424E-13
 -1      3985 2.03736E+01 5.07769E-01-3.14919E-03 4.20781E-02 3.69312E-14-2.31264E-13
 -1      3986 2.03810E+01 6.59064E-01 2.04110E-03 1.00944E-01 4.96431E-14-2.41785E-13
 -1      3987 2.03759E+01 1.75148E-01 6.62649E-04 4.50032E-02-5.90772E-14-1.91149E-13
 -1      3988 2.03570E+01 1.05579E-01-6.88867E-04 6.33138E-02-3.69934E-14-2.07263E-13
 -1      3989 2.04009E+01 2.38043E-01 2.13367E-04 2.65912E-02-5.07399E-14-2.37821E-13
 -1      3990 2.03398E+01 5.04299E-02 6.27115E-04 7.09728E-02-2.28669E-14-2.04058E-13
 -1      3991 2.03181E+01 6.12393E-03-2.84956E-04 8.01849E-02-7.79711E-15-1.89079E-13
 -1      3992 2.03287E+01-5.95089E-03-3.92816E-04 6.24891E-02-7.08118E-15-1.90460E-13
 -1      3993 2.03295E+01 9.95872E-01-2.55384E-03 1.76944E-01 6.06512E-14-2.88391E-13
 -1      3994 2.03946E+01 6.36454E-01-9.69438E-04-7.02935E-02-7.28649E-14-2.36488E-13
 -1      3995 2.03975E+01 4.93195E-01-9.83233E-04-2.33827E-02-4.12132E-14-1.98009E-13
 -1      3996 2.04145E+01 4.61452E-01 5.87725E-04-1.27056E-02-4.76217E-14-2.27760E-13
 -1      3997 2.03909E+01 7.84240E-01 6.73717E-04-5.80675E-02-5.13334E-14-2.18982E-13
 -1      3998 1.44363E+01 5.43645E-01 6.85765E-02-1.30963E+00 3.99429E-14-1.64950E-13
 -1      3999 1.52266E+01 1.96498E-01-1.94661E-02-1.87012E+00 6.91960E-14-1.11400E-13
 -1      4000 1.46683E+01 6.76773E-01-4.59634E-03-5.68473E-01-7.24785E-14-2.10301E-13
 -1      4001 2.03948E+01 8.04397E-01-1.55758E-03-4.09831E-03-1.87207E-14-3.15642E-13
 -1      4002 2.03916E+01 7.91259E-01-2.65402E-03-3.54146E-02-4.72804E-14-2.51115E-13
 -1      4003 2.04207E+01 6.21220E-01 2.66545E-03-1.93704E-02-4.23738E-14-2.24595E-13
 -1      4004 2.00050E+01 5.91152E-02 2.81336E-04-6.89437E-02-5.11677E-14-2.32918E-13
 -1      4005 2.00136E+01 3.92288E-02-3.88430E-04-6.40502E-02-9.59181E-14-2.32424E-13
 -1      4006 1.99948E+01 7.54403E-02 2.28223E-04-6.10425E-02-1.26072E-14-3.18651E-13
 -1      4007 2.03513E+01 9.55650E-01-1.75224E-04 1.31396E-01 3.70142E-14-2.70655E-13
 -1      4008 1.72700E+01-6.26853E-01-5.60266E-03-2.63869E+00 4.08685E-14-6.36470E-15
 -1      4009 2.02599E+01-4.49675E-02-4.27141E-05-1.02301E-01 2.85564E-14-1.42555E-13
 -1      4010 2.02810E+01-1.77505E-02 6.60286E-04-9.83855E-02 2.32899E-14-1.54204E-13
 -1      4011 2.00682E+01-3.91820E-02 3.39625E-04-6.13805E-02 1.49817E-15-7.05783E-14
 -1      4012 2.00774E+01-5.14874E-02-4.96772E-05-6.37859E-02-9.56897E-16-4.89634E-14
 -1      4013 2.00687E+01-3.41489E-02-2.92709E-04-5.15415E-02 4.10377E-14-9.58895E-14
 -1      4014 2.00211E+01 3.31948E-02 6.81343E-05-5.35089E-02-4.85535E-14-1.33099E-13
 -1      4015 2.02189E+01-7.84428E-02 1.65422E-04-1.01047E-01 3.84689E-14-1.97062E-13
 -1      4016 2.02383E+01-6.44794E-02 4.67501E-04-1.01893E-01 2.51853E-14-1.79077E-13
 -1      4017 2.02741E+01-5.38094E-02-5.38500E-04-8.37205E-02 5.07897E-14-1.60259E-13
 -1      4018 2.01468E+01-9.06653E-02 3.40870E-04-8.47432E-02 4.96800E-14-1.94952E-13
 -1      4019 2.01616E+01-9.26400E-02 2.04030E-04-8.95589E-02 3.91211E-14-1.89780E-13
 -1      4020 2.03913E+01 7.85835E-01-1.33573E-03 4.82128E-02-2.98503E-15-2.96724E-13
 -1      4021 2.03925E+01 7.98153E-01-2.05208E-03 1.76835E-02-1.34022E-15-3.42830E-13
 -1      4022 2.04258E+01 6.31023E-01 3.78211E-03 1.20612E-02-6.01061E-15-3.06657E-13
 -1      4023 1.65305E+01-5.38355E-02 3.56080E-02-2.26767E+00 1.01558E-13 2.24595E-14
 -1      4024 2.03161E+01 1.41453E-01-2.81130E-04-7.44871E-02 3.50315E-14-1.77672E-13
 -1      4025 2.03812E+01 3.84690E-01 1.41697E-03 1.01513E-02 3.75087E-14-2.28536E-13
 -1      4026 2.03973E+01 4.86160E-01 1.34249E-05 2.79206E-02 5.57275E-14-2.24725E-13
 -1      4027 2.03670E+01 2.78339E-01-1.25727E-03-2.82811E-02 2.73050E-14-2.09537E-13
 -1      4028 2.00819E+01-6.41575E-02-3.10547E-04-7.99257E-02 3.70380E-14-2.82979E-14
 -1      4029 2.03700E+01 8.95027E-02-1.51570E-04 5.05083E-02-3.22366E-14-2.19873E-13
 -1      4030 2.01632E+01-8.62695E-02-5.41594E-04-1.12168E-01 2.93749E-14-2.05053E-13
 -1      4031 1.61861E+01 2.93939E-01-1.69236E-02-1.70836E+00 5.54539E-14-6.35811E-14
 -1      4032 2.01171E+01-7.99801E-02 4.12359E-04-7.53198E-02 2.42477E-14-1.81955E-13
 -1      4033 2.01294E+01-8.64257E-02 7.28997E-05-8.01277E-02 1.61293E-14-1.93310E-13
 -1      4034 2.01542E+01-9.29573E-02-4.88547E-04-6.89479E-02 2.69895E-14-1.66570E-13
 -1      4035 2.03099E+01-5.22080E-02 3.09050E-04 4.47151E-02-2.24106E-14-1.80519E-13
 -1      4036 2.02868E+01-7.27562E-02 2.08514E-04 4.63935E-02-2.44992E-14-1.63716E-13
 -1      4037 2.02633E+01-8.71242E-02 3.21349E-04 4.48612E-02-1.02921E-15-1.23215E-13
 -1      4038 2.02412E+01-9.59367E-02 2.51878E-04 4.42615E-02 7.15283E-14-8.89571E-14
 -1      4039 2.02834E+01-8.03905E-02-7.53112E-04 2.56472E-02 1.53077E-14-1.43850E-13
 -1      4040 2.02188E+01-1.00210E-01 2.52752E-04 4.24369E-02 7.94902E-14-8.97781E-14
 -1      4041 2.01991E+01-1.00627E-01 4.05366E-04 4.08310E-02 4.20202E-14-7.76758E-14
 -1      4042 2.02369E+01-9.96220E-02-7.18266E-04 2.43371E-02 5.29163E-14-9.43279E-14
 -1      4043 2.01782E+01-9.81340E-02 1.98071E-04 3.82847E-02-7.23639E-15-6.95085E-14
 -1      4044 2.01603E+01-9.26312E-02 2.93481E-04 3.62671E-02-4.55462E-14-8.86521E-14
 -1      4045 2.01953E+01-1.02036E-01-6.90081E-04 2.19353E-02 2.82113E-14-1.95929E-13
 -1      4046 2.01418E+01-8.49655E-02 1.61335E-04 3.43796E-02-7.58574E-14-8.20026E-14
 -1      4047 2.01259E+01-7.53220E-02 2.64275E-04 3.25098E-02-3.12401E-14-7.72789E-14
 -1      4048 2.01560E+01-9.10013E-02-6.12935E-04 2.00564E-02-3.77732E-14-1.53825E-13
 -1      4049 2.01092E+01-6.40535E-02 6.85979E-05 3.11237E-02-4.04241E-15-1.07688E-13
 -1      4050 2.00953E+01-5.11562E-02 3.17089E-04 2.99325E-02-6.35191E-15-9.91866E-14
 -1      4051 2.01212E+01-7.13191E-02-4.57725E-04 1.80649E-02-5.84639E-14-1.30011E-13
 -1      4052 2.00796E+01-3.71230E-02-2.94713E-05 2.87387E-02-2.18145E-14-1.18185E-13
 -1      4053 2.00666E+01-2.13332E-02 2.28735E-04 2.84512E-02-3.11306E-14-2.41681E-14
 -1      4054 2.00905E+01-4.54101E-02-3.42697E-04 1.64413E-02-2.11884E-14-1.55283E-13
 -1      4055 2.00514E+01-4.43373E-03-1.11382E-04 2.81498E-02-2.34204E-14-1.09667E-14
 -1      4056 2.00385E+01 1.41450E-02 1.68102E-04 2.90668E-02 6.28440E-14-3.10297E-14
 -1      4057 2.00607E+01-1.28239E-02-1.67204E-04 1.61003E-02 1.18689E-15-1.10924E-13
 -1      4058 2.00227E+01 3.38708E-02-2.39364E-04 2.95948E-02 5.42931E-14 3.13363E-14
 -1      4059 2.00088E+01 5.55559E-02 9.57017E-05 3.19511E-02 5.34446E-14-1.01433E-14
 -1      4060 2.00313E+01 2.55665E-02 1.20715E-04 1.68555E-02 5.42171E-14-4.50452E-14
 -1      4061 1.99912E+01 7.85408E-02-3.85896E-04 3.34515E-02 6.22837E-15 1.37751E-14
 -1      4062 1.99752E+01 1.03833E-01 1.26146E-05 3.74928E-02-5.91240E-14-6.27091E-14
 -1      4063 1.99996E+01 7.04160E-02 4.64860E-04 1.88920E-02 2.69419E-14-5.73761E-14
 -1      4064 1.99541E+01 1.30627E-01-5.58173E-04 4.01141E-02-7.67032E-14-1.14625E-13
 -1      4065 1.99346E+01 1.60136E-01-8.64094E-05 4.60903E-02-1.51045E-14-2.01110E-13
 -1      4066 1.99631E+01 1.22711E-01 8.72789E-04 2.24471E-02-8.21977E-14-1.19637E-13
 -1      4067 1.99084E+01 1.91346E-01-7.61641E-04 4.99923E-02-4.19310E-14-1.92575E-13
 -1      4068 1.98835E+01 2.25682E-01-2.08202E-04 5.81504E-02-1.25107E-13-1.62883E-13
 -1      4069 1.99184E+01 1.83664E-01 1.36199E-03 2.77268E-02-2.98257E-14-1.66842E-13
 -1      4070 1.98501E+01 2.61856E-01-1.00165E-03 6.35030E-02-7.71637E-14-1.15442E-13
 -1      4071 1.98179E+01 3.01507E-01-3.61383E-04 7.40748E-02-2.37474E-14-9.39989E-15
 -1      4072 1.98619E+01 2.54490E-01 1.95455E-03 3.49151E-02-6.14396E-14-1.28927E-13
 -1      4073 1.97751E+01 3.42997E-01-1.28397E-03 8.10487E-02 2.23136E-14 3.52802E-14
 -1      4074 1.97332E+01 3.88163E-01-5.56382E-04 9.42331E-02 7.99011E-14 3.28533E-14
 -1      4075 1.97894E+01 3.36146E-01 2.67682E-03 4.41575E-02 3.21169E-14 5.27587E-14
 -1      4076 1.96783E+01 4.34949E-01-1.61601E-03 1.02987E-01 9.59114E-14-1.20054E-13
 -1      4077 1.96240E+01 4.85359E-01-8.05443E-04 1.18932E-01 7.92911E-14-9.27927E-14
 -1      4078 1.96960E+01 4.29016E-01 3.56104E-03 5.55300E-02-3.14032E-14-3.56364E-14
 -1      4079 1.95539E+01 5.36836E-01-2.00958E-03 1.29603E-01 1.57089E-14-1.06884E-13
 -1      4080 1.94842E+01 5.91513E-01-1.12273E-03 1.48397E-01-4.99459E-14-1.53524E-13
 -1      4081 1.95760E+01 5.32534E-01 4.64956E-03 6.90043E-02-2.57986E-14-1.61643E-13
 -1      4082 1.93954E+01 6.46241E-01-2.48671E-03 1.61099E-01-1.12446E-13-2.45354E-13
 -1      4083 1.93065E+01 7.03247E-01-1.52491E-03 1.82809E-01-1.23477E-13-2.86356E-13
 -1      4084 1.94229E+01 6.44762E-01 6.00360E-03 8.44190E-02-1.25289E-13-3.09856E-13
 -1      4085 1.91948E+01 7.58673E-01-3.09094E-03 1.97667E-01-8.86057E-14-2.79506E-13
 -1      4086 1.90827E+01 8.14857E-01-2.03348E-03 2.22455E-01-5.33270E-14-2.52469E-13
 -1      4087 1.92292E+01 7.61943E-01 7.72015E-03 1.01480E-01-6.44252E-14-2.95944E-13
 -1      4088 1.89427E+01 8.67048E-01-3.90809E-03 2.39696E-01-6.85338E-14-2.30650E-13
 -1      4089 1.88022E+01 9.17830E-01-2.68232E-03 2.68101E-01 4.15643E-14-2.55031E-13
 -1      4090 1.89858E+01 8.78115E-01 9.96181E-03 1.19824E-01-5.82090E-14-2.97134E-13
 -1      4091 1.86269E+01 9.61263E-01-5.10401E-03 2.88265E-01 1.58160E-13-3.15606E-13
 -1      4092 1.84514E+01 1.00054E+00-3.53943E-03 3.21796E-01 1.20099E-13-2.20801E-13
 -1      4093 1.86811E+01 9.84910E-01 1.30020E-02 1.39189E-01 1.51048E-14-3.06681E-13
 -1      4094 1.82303E+01 1.02807E+00-6.99143E-03 3.46128E-01-7.48303E-14-2.86047E-13
 -1      4095 1.80106E+01 1.04815E+00-4.77315E-03 3.88515E-01-1.23835E-13-2.73761E-13
 -1      4096 1.82994E+01 1.07165E+00 1.72575E-02 1.59670E-01-5.90316E-14-4.15439E-13
 -1      4097 1.77259E+01 1.05184E+00-1.01058E-02 4.19970E-01-2.20278E-13-3.74940E-13
 -1      4098 1.74472E+01 1.04178E+00-7.39214E-03 4.80509E-01-2.66277E-13-6.17029E-13
 -1      4099 1.78154E+01 1.12570E+00 2.30306E-02 1.81759E-01-2.74728E-13-4.40795E-13
 -1      4100 1.99490E+01 1.42564E-01-1.00277E-05-6.10903E-02-4.73851E-14-2.12398E-13
 -1      4101 1.99659E+01 1.15075E-01-5.14160E-04-5.37120E-02-5.86268E-15-2.33796E-13
 -1      4102 2.03554E+01 1.39992E-02 2.98671E-04 4.04512E-02-1.52274E-14-2.19324E-13
 -1      4103 2.03334E+01-2.33598E-02 2.14640E-04 4.57777E-02-1.78016E-14-2.30929E-13
 -1      4104 2.03310E+01-3.65427E-02-8.92669E-04 2.49140E-02 1.85301E-14-2.34880E-13
 -1      4105 2.00154E+01 4.47166E-02 1.49520E-04-4.27544E-02 2.69947E-14-1.41522E-13
 -1      4106 2.00277E+01 2.43938E-02-2.26703E-04-4.01751E-02 3.19573E-14-5.15343E-14
 -1      4107 1.98465E+01 2.74176E-01-2.04701E-04-1.00037E-01 1.72686E-14-1.75537E-13
 -1      4108 1.98739E+01 2.37431E-01-9.34944E-04-8.61536E-02-1.28937E-14-1.75382E-13
 -1      4109 1.97726E+01 3.54498E-01-3.16910E-04-1.29534E-01-5.18116E-14-1.40251E-13
 -1      4110 1.98080E+01 3.12758E-01-1.21801E-03-1.11630E-01 2.05442E-14-7.92701E-14
 -1      4111 1.98151E+01 3.10126E-01 2.19396E-03-7.53149E-02-4.44756E-14-1.69669E-13
 -1      4112 1.96779E+01 4.44175E-01-4.36065E-04-1.67262E-01-3.16260E-14-1.45655E-13
 -1      4113 1.97232E+01 3.97774E-01-1.56503E-03-1.44735E-01-4.57910E-14-1.07260E-13
 -1      4114 1.97307E+01 3.97628E-01 2.94420E-03-9.78398E-02-6.18922E-14-1.14938E-13
 -1      4115 1.95573E+01 5.41390E-01-5.54265E-04-2.14687E-01-7.75717E-14-2.42583E-15
 -1      4116 1.96148E+01 4.91391E-01-1.99304E-03-1.86828E-01-1.05043E-13-4.43827E-14
 -1      4117 1.96226E+01 4.94951E-01 3.85590E-03-1.26829E-01-1.26443E-13-6.64777E-14
 -1      4118 1.94056E+01 6.42384E-01-6.55454E-04-2.73694E-01-1.05560E-13 1.83412E-14
 -1      4119 1.94775E+01 5.90877E-01-2.52852E-03-2.39603E-01-3.00009E-14 8.68549E-14
 -1      4120 1.94851E+01 6.00031E-01 4.97096E-03-1.63666E-01-1.35615E-13-1.89566E-14
 -1      4121 1.92171E+01 7.40798E-01-7.11031E-04-3.46907E-01-2.52151E-13 1.48239E-14
 -1      4122 1.93055E+01 6.91223E-01-3.21611E-03-3.05306E-01-1.86232E-13-2.06562E-14
 -1      4123 1.93121E+01 7.08853E-01 6.35225E-03-2.10240E-01-1.07104E-13 5.92272E-14
 -1      4124 1.89857E+01 8.26957E-01-6.74695E-04-4.38292E-01-1.34068E-13-1.37009E-13
 -1      4125 1.90925E+01 7.84443E-01-4.13422E-03-3.87176E-01-1.50646E-13-2.61461E-14
 -1      4126 1.90965E+01 8.14916E-01 8.10182E-03-2.69300E-01-1.55126E-13-1.16974E-13
 -1      4127 1.87049E+01 8.87161E-01-4.79701E-04-5.54245E-01-1.23123E-13-1.75097E-13
 -1      4128 1.88316E+01 8.58838E-01-5.42342E-03-4.90231E-01-1.49701E-13-1.39938E-13
 -1      4129 1.88303E+01 9.08751E-01 1.03899E-02-3.45081E-01-1.29191E-13-3.10160E-13
 -1      4130 1.83669E+01 9.03019E-01-4.89924E-05-7.05508E-01-3.36124E-15-3.48556E-14
 -1      4131 1.85143E+01 8.98298E-01-7.33882E-03-6.22650E-01-8.31397E-14-1.09800E-13
 -1      4132 1.85031E+01 9.77601E-01 1.34898E-02-4.44349E-01-9.11388E-14-2.30496E-13
 -1      4133 1.79615E+01 8.50589E-01 6.81488E-04-9.10943E-01-1.43585E-13-2.80697E-14
 -1      4134 1.81295E+01 8.81820E-01-1.03422E-02-7.98140E-01-5.53470E-14 5.78081E-14
 -1      4135 1.81009E+01 1.00529E+00 1.77602E-02-5.77926E-01-5.19746E-14-1.96785E-14
 -1      4136 1.74612E+01 6.91049E-01-3.60899E-03-1.21053E+00-1.99905E-13 2.56498E-14
 -1      4137 1.76569E+01 7.84028E-01-1.54737E-02-1.04162E+00-2.04426E-13 8.74534E-15
 -1      4138 1.75990E+01 9.72515E-01 2.29590E-02-7.62595E-01-1.64730E-13-6.08472E-14
 -1      4139 1.67814E+01 4.16079E-01-8.62733E-03-1.56589E+00-2.50896E-14-5.82281E-14
 -1      4140 1.70068E+01 6.01537E-01-2.05589E-02-1.31833E+00-1.22784E-13-1.00205E-13
 -1      4141 1.68961E+01 8.89978E-01 2.93558E-02-9.46615E-01-1.21685E-13-1.18609E-13
 -1      4142 1.58701E+01 7.55249E-01 3.89050E-02-1.11244E+00 1.64272E-14-2.36264E-13
 -1      4143 2.01904E+01-9.62439E-02-6.28963E-04-7.65952E-02 2.88591E-14-1.86368E-13
 -1      4144 2.01807E+01-9.15877E-02 2.57702E-04-9.40356E-02 2.23654E-14-1.92135E-13
 -1      4145 2.01981E+01-8.70081E-02 3.71936E-04-9.75787E-02 2.58247E-14-1.98461E-13
 -1      4146 2.03181E+01 6.02698E-03-4.02401E-04-7.81064E-02 1.45489E-14-1.26700E-13
 -1      4147 2.03013E+01 1.73075E-02-3.85525E-04-9.43016E-02 4.57141E-15-1.65865E-13
 -1      4148 2.03228E+01 6.32134E-02 8.15629E-04-8.26973E-02 3.76446E-15-1.71740E-13
 -1      4149 2.04194E+01 2.90202E-01-2.01098E-04 9.65386E-03-4.05472E-14-2.18381E-13
 -1      4150 2.04087E+01 1.98586E-01-2.55978E-04 2.60874E-02-1.00439E-14-2.05156E-13
 -1      4151 2.00913E+01-6.23831E-02 4.03150E-04-6.71422E-02-4.15929E-14-5.75780E-14
 -1      4152 2.01016E+01-7.21277E-02-3.19345E-05-7.11177E-02 1.97218E-14-1.02838E-13
 -1      4153 2.01223E+01-8.02113E-02-4.88389E-04-6.16254E-02-3.49431E-14-1.36875E-13
 -1      4154 1.50730E+01 9.12967E-01 4.39237E-02-1.03338E-02-3.40246E-14-2.09808E-13
 -1      4155 1.53231E+01 7.64092E-01-2.89801E-02-6.53963E-01-3.78723E-14-1.43214E-13
 -1      4156 1.59526E+01 8.57256E-01-2.52949E-02-6.10295E-01 5.44909E-14-2.47345E-13
 -1      4157 2.03391E+01 1.20239E-01-7.58702E-04-7.17431E-02 9.39198E-15-1.88439E-13
 -1      4158 2.03584E+01 1.91595E-01 8.78745E-04-4.87341E-02 2.36631E-14-2.03532E-13
 -1      4159 2.03875E+01 2.60635E-01-6.80686E-05-2.74972E-02 2.66710E-14-1.98464E-13
 -1      4160 2.03581E+01 1.05806E-01-2.64177E-04-6.10574E-02-1.90872E-16-1.54129E-13
 -1      4161 2.03945E+01 1.23106E-01 2.09872E-04 2.94111E-02-1.05872E-14-2.42333E-13
 -1      4162 2.03760E+01 6.26067E-02 2.40078E-05 3.98017E-02-2.28117E-14-2.31130E-13
 -1      4163 2.04111E+01 1.70892E-01-3.90572E-04 1.41806E-02-2.92730E-14-2.56054E-13
 -1      4164 2.00426E+01 5.84099E-03 2.19961E-04-3.94785E-02-5.20557E-14-3.61158E-14
 -1      4165 2.00544E+01-1.15851E-02-1.02937E-04-3.87807E-02 3.79080E-14-9.38210E-14
 -1      4166 2.00365E+01 1.63845E-02-4.77283E-05-2.84090E-02 2.18158E-14-7.08308E-14
 -1      4167 2.03826E+01 7.87324E-01-9.23183E-04 7.44883E-02 9.65267E-15-2.68994E-13
 -1      4168 1.56109E+01 8.02305E-01-6.94424E-03 5.82891E-01-5.38666E-14-3.30867E-13
 -1      4169 2.04233E+01 5.03693E-01-1.04694E-03-1.57333E-02-5.08109E-14-1.97997E-13
 -1      4170 2.04242E+01 3.74659E-01 3.94903E-04 4.51740E-03-5.68585E-14-2.18874E-13
 -1      4171 2.04283E+01 3.33530E-01 4.07134E-05 2.91428E-03-4.03857E-14-2.04760E-13
 -1      4172 2.04269E+01 5.19244E-01-7.22187E-04-4.80102E-03-3.84981E-14-2.37591E-13
 -1      4173 1.99039E+01 2.03671E-01-1.02361E-04-7.75633E-02-2.64051E-14-1.98675E-13
 -1      4174 1.99252E+01 1.71770E-01-7.03611E-04-6.71701E-02-6.08753E-14-2.13358E-13
 -1      4175 1.99321E+01 1.66171E-01 1.05948E-03-4.55845E-02-2.72822E-14-1.99930E-13
 -1      4176 1.98807E+01 2.33081E-01 1.57413E-03-5.81838E-02-2.87287E-14-2.03347E-13
 -1      4177 2.04115E+01 6.26371E-01 2.76465E-03 4.76838E-02 2.46411E-14-2.39531E-13
 -1      4178 1.99851E+01 8.99447E-02 7.34569E-05-4.97395E-02 2.09093E-14-2.66950E-13
 -1      4179 1.99990E+01 6.63124E-02-3.57899E-04-4.49510E-02 1.03763E-16-1.81662E-13
 -1      4180 1.99730E+01 1.08505E-01 6.28479E-04-3.68065E-02-2.36616E-15-1.29262E-13
 -1      4181 1.71754E+01 1.13132E+00 2.81131E-02 1.91414E-01-1.58160E-13-4.42969E-13
 -1      4182 1.70647E+01 1.01468E+00-1.48042E-02 5.12407E-01-8.84687E-14-6.45656E-13
 -1      4183 1.66736E+01 9.62119E-01-1.54996E-02 5.98572E-01-7.18364E-14-6.41845E-13
 -1      4184 2.00946E+01-6.03154E-02-4.04263E-04-5.56609E-02-2.98098E-14-1.11083E-13
 -1      4185 2.00068E+01 5.89479E-02 2.63077E-04-3.12534E-02 5.67109E-14-9.07856E-14
 -1      4186 2.00691E+01-2.75066E-02 3.00056E-04-3.93103E-02 5.26016E-14-1.06775E-13
 -1      4187 2.00817E+01-4.22521E-02 1.55654E-04-4.04055E-02-1.20460E-16-1.37268E-13
 -1      4188 2.00648E+01-2.00256E-02-2.83324E-04-2.77515E-02 1.33092E-15-8.27562E-14
 -1      4189 1.61232E+01 9.02437E-01-1.51916E-02 4.77722E-01-6.59047E-14-4.60981E-13
 -1      4190 2.02312E+01-8.53956E-02-6.55115E-04-8.24291E-02 1.82990E-14-1.80177E-13
 -1      4191 2.04239E+01 5.09686E-01-1.27474E-03 1.15689E-02 3.96514E-14-2.95727E-13
 -1      4192 2.04259E+01 5.16460E-01-1.35023E-03 5.03234E-04 1.46196E-14-3.05983E-13
 -1      4193 2.04344E+01 4.18901E-01 1.52262E-03 2.05000E-03-2.81041E-15-2.52161E-13
 -1      4194 2.04098E+01 4.80248E-01-1.57016E-03 1.38820E-02 4.48111E-14-2.11833E-13
 -1      4195 2.01970E+01-9.92475E-02 2.08942E-04-5.75818E-02 6.27980E-14-2.06005E-13
 -1      4196 2.02167E+01-9.75738E-02 2.73819E-04-6.01611E-02 1.01834E-14-1.97338E-13
 -1      4197 2.03280E+01-1.15789E-02-1.22101E-04-6.27674E-02 4.72488E-14-1.34672E-13
 -1      4198 2.03509E+01 2.91450E-02 7.74646E-04-5.56979E-02 1.98901E-14-1.10129E-13
 -1      4199 2.03752E+01 4.29271E-02-8.56787E-04 2.15044E-02-1.75875E-14-2.56634E-13
 -1      4200 2.02840E+01-6.48304E-02 3.56814E-04-6.46015E-02 5.82233E-14-1.50965E-13
 -1      4201 2.03065E+01-4.22840E-02 6.42793E-04-6.26424E-02 6.41484E-14-1.44095E-13
 -1      4202 2.03315E+01-2.48470E-02-1.09054E-03-4.39280E-02 6.54452E-14-1.06807E-13
 -1      4203 2.01601E+01-9.28954E-02 5.18894E-04-5.13866E-02-2.78900E-14-1.77852E-13
 -1      4204 2.01770E+01-9.74336E-02 3.42564E-04-5.44129E-02 4.60838E-14-2.09172E-13
 -1      4205 2.01973E+01-1.01564E-01-4.42472E-04-3.96447E-02 3.27938E-14-1.66464E-13
 -1      4206 2.02537E+01-9.74770E-02 4.12651E-04 4.88696E-03 3.34927E-14-1.33498E-13
 -1      4207 2.02313E+01-1.02485E-01 4.38380E-04 4.35840E-03 3.95888E-15-1.64651E-13
 -1      4208 2.02009E+01-1.01551E-01 3.37698E-04-7.98238E-03 8.31607E-15-1.47735E-13
 -1      4209 2.01805E+01-9.81730E-02 3.15967E-04-7.67307E-03 2.64328E-14-1.58433E-13
 -1      4210 2.01329E+01-7.69760E-02 3.61403E-04 3.93219E-03-8.69010E-14-1.30310E-13
 -1      4211 2.01164E+01-6.56600E-02 3.80355E-04 3.25217E-03-6.36097E-14-1.20778E-13
 -1      4212 2.00941E+01-4.79121E-02 9.56685E-05-5.89585E-03-3.37500E-14-1.28758E-13
 -1      4213 2.00791E+01-3.27750E-02 2.09806E-04-5.69418E-03-3.45866E-14-1.57093E-13
 -1      4214 2.00646E+01-1.64448E-02 1.28442E-04-5.80066E-03-2.77682E-14-9.03883E-14
 -1      4215 2.00495E+01 1.30077E-03 7.09970E-05-5.51911E-03 2.15779E-14-1.18398E-13
 -1      4216 2.00345E+01 2.05214E-02-4.84097E-05-6.32254E-03 5.49419E-14-1.19520E-13
 -1      4217 2.00187E+01 4.13373E-02-1.03141E-04-5.78750E-03 7.67269E-14-7.52535E-14
 -1      4218 2.00023E+01 6.36380E-02-2.92048E-04-7.48266E-03 3.69287E-14-4.70513E-14
 -1      4219 1.99845E+01 8.79971E-02-3.14425E-04-6.59020E-03-2.98147E-14-9.06448E-14
 -1      4220 1.99652E+01 1.13862E-01-5.81410E-04-9.38100E-03-2.32980E-14-1.10148E-13
 -1      4221 1.99441E+01 1.42346E-01-5.67880E-04-8.08696E-03-1.20467E-14-1.24819E-13
 -1      4222 1.99202E+01 1.72340E-01-9.23560E-04-1.21896E-02-2.86050E-15-1.31200E-13
 -1      4223 1.98939E+01 2.05570E-01-8.77044E-04-1.04744E-02 8.13492E-15-1.15042E-13
 -1      4224 1.98636E+01 2.40220E-01-1.33060E-03-1.61406E-02-5.59524E-14-9.14045E-14
 -1      4225 1.98302E+01 2.78734E-01-1.25953E-03-1.40154E-02-5.30412E-14-9.66252E-14
 -1      4226 1.97913E+01 3.18392E-01-1.81728E-03-2.15485E-02-2.77529E-14-6.74193E-14
 -1      4227 1.97483E+01 3.62497E-01-1.73732E-03-1.90698E-02-2.85257E-14-1.48933E-13
 -1      4228 1.96984E+01 4.07171E-01-2.40143E-03-2.88459E-02-7.88237E-14-9.27933E-14
 -1      4229 1.96430E+01 4.56758E-01-2.33875E-03-2.61361E-02-1.23302E-13-1.53457E-13
 -1      4230 1.95794E+01 5.05897E-01-3.10641E-03-3.86388E-02-1.13168E-13-9.47737E-14
 -1      4231 1.95085E+01 5.60228E-01-3.10280E-03-3.59089E-02-1.51594E-13-1.81688E-13
 -1      4232 1.94279E+01 6.12483E-01-3.96664E-03-5.17921E-02-1.43115E-13-1.49717E-13
 -1      4233 1.93379E+01 6.69948E-01-4.08703E-03-4.93635E-02-1.14745E-13-1.48529E-13
 -1      4234 1.92369E+01 7.22894E-01-5.03851E-03-6.95638E-02-8.57992E-14-1.89231E-13
 -1      4235 1.91233E+01 7.80770E-01-5.38230E-03-6.78837E-02-6.03966E-14-1.78057E-13
 -1      4236 1.89975E+01 8.30641E-01-6.41972E-03-9.38185E-02-5.87146E-14-2.23086E-13
 -1      4237 1.88547E+01 8.84893E-01-7.13781E-03-9.34617E-02-7.48571E-14-2.04063E-13
 -1      4238 1.86990E+01 9.26348E-01-8.27800E-03-1.27362E-01-7.15068E-14-1.77852E-13
 -1      4239 1.85196E+01 9.71535E-01-9.59557E-03-1.29037E-01-4.88328E-14-3.66146E-13
 -1      4240 1.83270E+01 9.97553E-01-1.08648E-02-1.74452E-01-4.64166E-14-3.45636E-13
 -1      4241 1.81003E+01 1.02692E+00-1.30796E-02-1.79131E-01-1.21657E-13-3.03055E-13
 -1      4242 1.78614E+01 1.02909E+00-1.42813E-02-2.41380E-01-2.01155E-13-2.29239E-13
 -1      4243 1.75721E+01 1.03488E+00-1.74774E-02-2.51229E-01-1.93418E-13-1.60801E-13
 -1      4244 2.01039E+01-5.99801E-02 1.51961E-04-3.29768E-02-3.38089E-14-1.70069E-13
 -1      4245 2.01179E+01-7.15491E-02 7.90141E-05-3.47198E-02-4.09989E-14-1.86675E-13
 -1      4246 2.03394E+01-3.04797E-02 4.25717E-04-9.87250E-03 4.88479E-14-1.82304E-13
 -1      4247 2.03151E+01-5.80914E-02 6.22637E-04-8.49988E-03 5.76771E-14-1.54452E-13
 -1      4248 1.72771E+01 1.00612E+00-1.62208E-02-3.35876E-01-1.82777E-13-2.24718E-13
 -1      4249 1.64827E+01 9.40200E-01-1.48959E-02-3.96994E-01 4.71906E-14-3.13141E-13
 -1      4250 1.69066E+01 9.78223E-01-1.91343E-02-3.71739E-01-7.13743E-14-1.70703E-13
 -1      4251 2.03746E+01 6.17903E-02-8.66203E-04-3.72258E-02 2.31813E-15-1.23159E-13
 -1      4252 2.03688E+01 8.02358E-02-4.18681E-04-5.25505E-02-1.31275E-14-1.35705E-13
 -1      4253 2.03890E+01 1.44613E-01 5.60621E-04-3.87245E-02-1.00740E-14-1.61344E-13
 -1      4254 2.03832E+01 5.19714E-02 2.56954E-04-9.42956E-03 3.89857E-15-2.12314E-13
 -1      4255 2.03624E+01 4.95951E-03 9.18984E-04-6.95586E-03 3.76577E-14-1.94809E-13
 -1      4256 2.04165E+01 1.83720E-01 1.57564E-04-7.87167E-03-5.57536E-14-2.15001E-13
 -1      4257 2.04027E+01 1.09865E-01 8.58126E-04-4.00532E-03-5.15613E-14-2.36251E-13
 -1      4258 2.01315E+01-7.95600E-02 4.21749E-04-4.12123E-02-1.38703E-14-1.63674E-13
 -1      4259 2.01461E+01-8.82893E-02 7.47780E-05-4.37789E-02-2.56431E-14-1.86801E-13
 -1      4260 2.01638E+01-9.49948E-02-7.35254E-04-3.04955E-02-1.46492E-15-1.72451E-13
 -1      4261 2.01366E+01-8.12650E-02-5.19548E-04-1.72922E-02-4.68489E-14-1.92245E-13
 -1      4262 2.02972E+01-7.50870E-02 5.06754E-04-2.16585E-03 3.94687E-14-1.63409E-13
 -1      4263 2.02724E+01-8.95744E-02 4.54170E-04-1.73555E-03 4.59679E-14-1.32503E-13
 -1      4264 2.02582E+01-9.51765E-02-4.64043E-04-2.27401E-02 4.45609E-14-1.43786E-13
 -1      4265 2.02924E+01-7.22601E-02-1.05057E-03-3.84090E-02 5.29400E-14-1.14408E-13
 -1      4266 2.04187E+01 3.89769E-01 1.57164E-03 4.89499E-04 5.44446E-14-2.22012E-13
 -1      4267 1.62985E+01 1.06070E+00 3.65125E-02 3.53602E-02 3.43254E-14-4.05107E-13
 -1      4268 2.01003E+01-5.48645E-02-4.42419E-04-1.96780E-02-4.07446E-14-1.63051E-13
 -1      4269 2.01467E+01-8.54140E-02 2.02720E-04-1.60597E-03-3.80591E-14-1.55807E-13
 -1      4270 2.01661E+01-9.30737E-02 4.75810E-04-1.30902E-03 2.33564E-14-2.00479E-13
 -1      4271 2.03997E+01 2.06343E-01-4.57619E-04-3.26041E-02-2.56701E-14-1.84847E-13
 -1      4272 2.04115E+01 2.99340E-01-2.71197E-04-1.16155E-02 4.52859E-15-1.98930E-13
 -1      4273 2.04252E+01 3.27060E-01 1.19518E-04-5.09316E-03 2.76485E-15-2.30596E-13
 -1      4274 2.04060E+01 1.76841E-01-1.15269E-03-2.32548E-02-4.55168E-14-1.76086E-13
 -1      4275 2.04326E+01 3.50735E-01-4.20978E-04-1.51934E-03-4.53472E-14-2.29609E-13
 -1      4276 2.04306E+01 2.71269E-01 6.30287E-04 3.58034E-03-4.52902E-14-2.28322E-13
 -1      4277 2.02678E+01-7.91887E-02 3.84876E-04-5.64320E-02 3.48204E-14-1.54041E-13
 -1      4278 2.02461E+01-9.52623E-02-3.88766E-04-3.56716E-02 2.84649E-14-1.69410E-13
 -1      4279 2.02463E+01-9.04139E-02 2.73419E-04-5.58659E-02-7.41307E-15-1.48451E-13
 -1      4280 2.02287E+01-1.00292E-01 1.83434E-04-2.80716E-02 5.02525E-14-1.96933E-13
 -1      4281 2.02084E+01-1.01635E-01-4.26278E-04-2.64975E-02 8.08788E-15-1.48126E-13
 -1      4282 2.04282E+01 3.46927E-01-1.33827E-03-2.31704E-03 3.68408E-15-2.51977E-13
 -1      4283 2.04266E+01 2.68954E-01 1.84337E-03-8.68650E-03-6.55332E-14-1.96105E-13
 -1      4284 2.04127E+01 2.00443E-01-3.67896E-04-1.65540E-02-5.77936E-14-1.96054E-13
 -3
    1PSTEP                         3           1           1          
  100CL  101 1.000000000        4284                     0    1           1
 -4  TOSTRAIN    6    1
 -5  EXX         1    4    1    1
 -5  EYY         1    4    2    2
 -5  EZZ         1    4    3    3
 -5  EXY         1    4    1    2
 -5  EYZ         1    4    2    3
 -5  EZX         1    4    3    1
 -1         1 8.46382E-05 1.99450E-05-4.22334E-05 9.25007E-05-5.00258E-18-6.23120E-18
 -1         2 4.39095E-05-1.33769E-04 2.40185E-05 1.00859E-06 2.36838E-19 1.31327E-18
 -1         3 9.52089E-05-2.85862E-05-2.83746E-05 8.81002E-08-1.38046E-18-1.36541E-18
 -1         4 9.51341E-05-2.86667E-05-2.82683E-05 2.64666E-08 1.79014E-18-3.70343E-19
 -1         5 1.43349E-04-2.14784E-05-4.25291E-05 3.85312E-05-2.11864E-19 1.62589E-17
 -1         6 1.45410E-04 2.57580E-10-4.41882E-05-5.35267E-05-9.68159E-19 1.76869E-17
 -1         7 9.06116E-05-5.11331E-07-3.90693E-05-2.92516E-05-1.30443E-19 4.05956E-18
 -1         8 8.51279E-05 8.61977E-08-3.63399E-05-2.02694E-05-2.03764E-19-3.02525E-19
 -1         9 8.28148E-05 7.64698E-08-3.53511E-05-1.56372E-05-2.18826E-19-2.80025E-18
 -1        10 8.17735E-05 3.91433E-08-3.48819E-05-1.20766E-05-1.28114E-19-4.08067E-18
 -1        11 8.12530E-05 1.91731E-08-3.46532E-05-9.01115E-06-1.14588E-19-4.72134E-18
 -1        12 8.09817E-05 9.21442E-09-3.45380E-05-6.28226E-06-6.72514E-20-5.02061E-18
 -1        13 8.08393E-05 4.66695E-09-3.44798E-05-3.68442E-06-5.89325E-20-5.11439E-18
 -1        14 8.07798E-05 2.78641E-09-3.44560E-05-1.18334E-06-9.40732E-21-5.18049E-18
 -1        15 8.07820E-05 2.76807E-09-3.44567E-05 1.28843E-06 8.14277E-21-5.23515E-18
 -1        16 8.08459E-05 4.55458E-09-3.44820E-05 3.79470E-06 3.59327E-20-5.24355E-18
 -1        17 8.09935E-05 8.43146E-09-3.45416E-05 6.40497E-06 5.34623E-20-5.15139E-18
 -1        18 8.12695E-05 1.81843E-08-3.46578E-05 9.15355E-06 7.67756E-20-4.90412E-18
 -1        19 8.17974E-05 3.81916E-08-3.48901E-05 1.22555E-05 1.35658E-19-4.36222E-18
 -1        20 8.28374E-05 8.14977E-08-3.53641E-05 1.58682E-05 1.82258E-19-3.27341E-18
 -1        21 8.50927E-05 1.69387E-07-3.63783E-05 2.04804E-05 2.24649E-19-8.98320E-19
 -1        22 9.16483E-05-9.98258E-08-3.87407E-05 2.79982E-05 5.46336E-20 4.16290E-18
 -1        23 1.12981E-04-3.81286E-05-3.53992E-05-4.40193E-06-6.50362E-19 1.42133E-17
 -1        24 9.28166E-05-2.77007E-05-2.90028E-05 3.91507E-07-1.76749E-19 1.10688E-17
 -1        25 8.91347E-05-2.68568E-05-2.69338E-05 3.75962E-07-8.49581E-20 7.87427E-18
 -1        26 8.80341E-05-2.64939E-05-2.63973E-05 2.04141E-07-1.65850E-20 5.68239E-18
 -1        27 8.80634E-05-2.64731E-05-2.63902E-05 1.40027E-07-3.99727E-20 4.02188E-18
 -1        28 8.86003E-05-2.66104E-05-2.65607E-05 1.01047E-07 1.84865E-20 3.08628E-18
 -1        29 8.93582E-05-2.68240E-05-2.67942E-05 7.53621E-08-2.22195E-20 2.02413E-18
 -1        30 9.01856E-05-2.70645E-05-2.70451E-05 5.70677E-08 3.31228E-20 1.40618E-18
 -1        31 9.09973E-05-2.73036E-05-2.72899E-05 4.33136E-08-5.12058E-20 2.35594E-19
 -1        32 9.17463E-05-2.75256E-05-2.75156E-05 3.26508E-08-1.35594E-19-1.00708E-18
 -1        33 9.24088E-05-2.77228E-05-2.77153E-05 2.42683E-08 3.24338E-19-1.58337E-18
 -1        34 9.29760E-05-2.78921E-05-2.78865E-05 1.76502E-08-9.46965E-20-1.67248E-18
 -1        35 9.34489E-05-2.80335E-05-2.80293E-05 1.24292E-08 1.35045E-19-1.98057E-18
 -1        36 9.38343E-05-2.81490E-05-2.81458E-05 8.32364E-09-5.04784E-20-1.40775E-18
 -1        37 9.41428E-05-2.82416E-05-2.82392E-05 5.10904E-09-3.56470E-19-2.24956E-18
 -1        38 9.43871E-05-2.83152E-05-2.83134E-05 2.60599E-09 3.38594E-20-2.47431E-18
 -1        39 9.45816E-05-2.83739E-05-2.83724E-05 6.75291E-10-3.65672E-20-1.86569E-18
 -1        40 9.47414E-05-2.84223E-05-2.84211E-05-7.82962E-10 7.98480E-20-2.51136E-18
 -1        41 9.48832E-05-2.84655E-05-2.84644E-05-1.82773E-09 1.55412E-19-3.79625E-18
 -1        42 9.50251E-05-2.85087E-05-2.85079E-05-2.47326E-09-2.80857E-19-4.66279E-18
 -1        43 9.51881E-05-2.85584E-05-2.85578E-05-2.68293E-09-9.59626E-20-4.17535E-18
 -1        44 9.53963E-05-2.86218E-05-2.86215E-05-2.36011E-09 4.68327E-19-3.19617E-18
 -1        45 9.56784E-05-2.87075E-05-2.87076E-05-1.33525E-09-4.50756E-19-2.84006E-18
 -1        46 9.60690E-05-2.88259E-05-2.88267E-05 6.51574E-10-2.52053E-20-3.74006E-18
 -1        47 9.66096E-05-2.89893E-05-2.89913E-05 3.97304E-09 1.22966E-20-2.78127E-18
 -1        48 9.73496E-05-2.92127E-05-2.92163E-05 9.14057E-09-1.92270E-20-2.73724E-18
 -1        49 9.83469E-05-2.95131E-05-2.95191E-05 1.68284E-08 5.02563E-19-3.48791E-18
 -1        50 9.96659E-05-2.99096E-05-2.99192E-05 2.78801E-08-1.53904E-19-4.27305E-18
 -1        51 1.01375E-04-3.04224E-05-3.04364E-05 4.32592E-08-1.03271E-19-2.52047E-18
 -1        52 1.03534E-04-3.10691E-05-3.10887E-05 6.38617E-08-1.07922E-19-2.38324E-18
 -1        53 1.06183E-04-3.18605E-05-3.18855E-05 9.00265E-08 6.27979E-20-2.59790E-18
 -1        54 1.09301E-04-3.27902E-05-3.28180E-05 1.20455E-07-1.92474E-19-2.36844E-18
 -1        55 1.12762E-04-3.38194E-05-3.38418E-05 1.50144E-07-3.69585E-19-3.55779E-18
 -1        56 1.16249E-04-3.48544E-05-3.48546E-05 1.67052E-07-5.99631E-20-4.86278E-18
 -1        57 1.19168E-04-3.57194E-05-3.56697E-05 1.48179E-07 7.72184E-19-3.14816E-18
 -1        58 1.20580E-04-3.61368E-05-3.60046E-05 5.86275E-08-9.85834E-20-1.51748E-18
 -1        59 1.19258E-04-3.57445E-05-3.55140E-05-1.37564E-07 9.68447E-20-1.39116E-18
 -1        60 1.14046E-04-3.41958E-05-3.39069E-05-4.43243E-07-5.56219E-19 1.58946E-18
 -1        61 1.04595E-04-3.13779E-05-3.11567E-05-7.74508E-07 2.48866E-19 7.94887E-19
 -1        62 9.22649E-05-2.76858E-05-2.77039E-05-9.41826E-07-3.79160E-19-1.16255E-19
 -1        63 8.03809E-05-2.41136E-05-2.44522E-05-7.51210E-07-1.88698E-19-1.76612E-18
 -1        64 7.29659E-05-2.18830E-05-2.24074E-05-2.10768E-07-3.01186E-19-1.72600E-18
 -1        65 7.23008E-05-2.16927E-05-2.21176E-05 3.92885E-07-1.58928E-19 6.55167E-19
 -1        66 7.73299E-05-2.32185E-05-2.33410E-05 7.16491E-07-1.67884E-19 1.64057E-18
 -1        67 8.45346E-05-2.53867E-05-2.52312E-05 6.52856E-07 7.20863E-19 1.73449E-18
 -1        68 9.04405E-05-2.71497E-05-2.68972E-05 3.64603E-07-2.27624E-20 5.35384E-18
 -1        69 9.35179E-05-2.80581E-05-2.78823E-05 9.21045E-08-3.21665E-19 1.84060E-18
 -1        70 9.43957E-05-2.83047E-05-2.82625E-05 1.92870E-08 2.85386E-19 1.49444E-18
 -1        71 9.47424E-05-2.83982E-05-2.83546E-05 1.11463E-07-6.32610E-19-4.69230E-19
 -1        72 1.02186E-04-3.05895E-05-3.41523E-05-1.92925E-06 2.33966E-19 1.43712E-17
 -1        73 9.25728E-05-2.75167E-05-2.89110E-05-3.33296E-07 1.93140E-19 1.00527E-17
 -1        74 8.91219E-05-2.67061E-05-2.69770E-05-1.25973E-07 1.64576E-19 6.91048E-18
 -1        75 8.80641E-05-2.64447E-05-2.64412E-05-9.56448E-08-4.79384E-20 4.82368E-18
 -1        76 8.80983E-05-2.64531E-05-2.64170E-05-7.66719E-08 1.05478E-19 3.47917E-18
 -1        77 8.86344E-05-2.66049E-05-2.65779E-05-6.26284E-08 1.46010E-19 2.05691E-18
 -1        78 8.93896E-05-2.68253E-05-2.68066E-05-5.18706E-08-1.00952E-19 1.53102E-18
 -1        79 9.02135E-05-2.70691E-05-2.70545E-05-4.30201E-08-7.67213E-20 9.47026E-19
 -1        80 9.10216E-05-2.73096E-05-2.72973E-05-3.54106E-08 4.63922E-20 3.49242E-19
 -1        81 9.17670E-05-2.75321E-05-2.75213E-05-2.87773E-08 1.28259E-19-5.01258E-19
 -1        82 9.24260E-05-2.77291E-05-2.77197E-05-2.30033E-08 2.93175E-20-1.48635E-18
 -1        83 9.29901E-05-2.78978E-05-2.78898E-05-1.80118E-08 3.39611E-20-1.75151E-18
 -1        84 9.34603E-05-2.80386E-05-2.80318E-05-1.37281E-08 1.33815E-19-2.85020E-18
 -1        85 9.38433E-05-2.81533E-05-2.81477E-05-1.00704E-08-3.37986E-20-3.55205E-18
 -1        86 9.41498E-05-2.82452E-05-2.82406E-05-6.94958E-09 7.80533E-20-3.40815E-18
 -1        87 9.43925E-05-2.83181E-05-2.83143E-05-4.27372E-09-1.18928E-19-3.55518E-18
 -1        88 9.45857E-05-2.83762E-05-2.83732E-05-1.95302E-09-3.45743E-19-2.49197E-18
 -1        89 9.47446E-05-2.84240E-05-2.84218E-05 9.38745E-11 3.60686E-19-2.20666E-18
 -1        90 9.48858E-05-2.84666E-05-2.84652E-05 1.93314E-09-1.65185E-19-3.41220E-18
 -1        91 9.50276E-05-2.85094E-05-2.85088E-05 3.60832E-09-2.96021E-20-2.50411E-18
 -1        92 9.51905E-05-2.85586E-05-2.85589E-05 5.13107E-09-6.88664E-21-1.50602E-18
 -1        93 9.53986E-05-2.86215E-05-2.86228E-05 6.46891E-09-1.01007E-19-2.00211E-18
 -1        94 9.56800E-05-2.87063E-05-2.87090E-05 7.52820E-09 3.08039E-20-4.28683E-18
 -1        95 9.60680E-05-2.88231E-05-2.88276E-05 8.13059E-09 1.76618E-20-5.18110E-18
 -1        96 9.66021E-05-2.89837E-05-2.89905E-05 7.98045E-09 8.00382E-20-3.22912E-18
 -1        97 9.73280E-05-2.92016E-05-2.92115E-05 6.62152E-09-6.74851E-20-7.13186E-19
 -1        98 9.82967E-05-2.94921E-05-2.95058E-05 3.38291E-09-5.73898E-21 1.28257E-18
 -1        99 9.95626E-05-2.98711E-05-2.98896E-05-2.67820E-09-4.31375E-21-6.08176E-19
 -1       100 1.01177E-04-3.03538E-05-3.03776E-05-1.28120E-08-2.81394E-20-3.42708E-19
 -1       101 1.03176E-04-3.09508E-05-3.09799E-05-2.85254E-08 1.99909E-19 1.09151E-19
 -1       102 1.05563E-04-3.16628E-05-3.16952E-05-5.13036E-08 4.64136E-19-1.72068E-18
 -1       103 1.08275E-04-3.24710E-05-3.25013E-05-8.18361E-08-2.16186E-19-7.97448E-19
 -1       104 1.11137E-04-3.33234E-05-3.33402E-05-1.18332E-07 2.07903E-19 2.69667E-18
 -1       105 1.13798E-04-3.41177E-05-3.41010E-05-1.53523E-07-3.44811E-19 9.51648E-19
 -1       106 1.15680E-04-3.46842E-05-3.46059E-05-1.70622E-07-1.60923E-19-1.23692E-18
 -1       107 1.15962E-04-3.47817E-05-3.46138E-05-1.40815E-07 2.39524E-19-4.01768E-18
 -1       108 1.13697E-04-3.41282E-05-3.38650E-05-2.90793E-08 3.65587E-19-4.75209E-18
 -1       109 1.08150E-04-3.24960E-05-3.21864E-05 1.82410E-07 1.51176E-20-1.17941E-18
 -1       110 9.93646E-05-2.98778E-05-2.96443E-05 4.53747E-07 2.35464E-19-1.87305E-18
 -1       111 8.87189E-05-2.66641E-05-2.66610E-05 6.61938E-07 2.46103E-19-1.19506E-18
 -1       112 7.89105E-05-2.36635E-05-2.39656E-05 6.55232E-07-4.38715E-19 1.45563E-18
 -1       113 7.29112E-05-2.18028E-05-2.23060E-05 3.79873E-07 2.90971E-19 3.32607E-18
 -1       114 7.23078E-05-2.16033E-05-2.20650E-05-3.60037E-08-2.31361E-19-1.46662E-18
 -1       115 7.63027E-05-2.28350E-05-2.30525E-05-3.63677E-07 2.69718E-19-4.08032E-19
 -1       116 8.23408E-05-2.47001E-05-2.46463E-05-4.60191E-07-4.06731E-20 9.12678E-20
 -1       117 8.78215E-05-2.63799E-05-2.61845E-05-3.55989E-07 1.58500E-19-2.23054E-18
 -1       118 9.14620E-05-2.74727E-05-2.72964E-05-1.91540E-07-9.84510E-21-4.04734E-18
 -1       119 9.34788E-05-2.80543E-05-2.79644E-05-1.02726E-07 3.63580E-19-3.74867E-18
 -1       120 9.47178E-05-2.84311E-05-2.83111E-05-1.54697E-07 3.97734E-19-4.23721E-18
 -1       121 9.53682E-05-2.90943E-05-2.83735E-05-2.55116E-07-3.15225E-18-6.71097E-19
 -1       122 9.56158E-05-2.99591E-05-2.82668E-05-2.48625E-07 5.39256E-19-2.57569E-19
 -1       123 9.52948E-05-2.88840E-05-2.87583E-05-7.39959E-08 5.20721E-18 2.04032E-18
 -1       124 9.37788E-05-2.37844E-05-3.04074E-05 2.77562E-07 2.28498E-18-6.14761E-21
 -1       125 9.06900E-05-1.33840E-05-3.35081E-05 7.51834E-07 4.98746E-18-1.51820E-18
 -1       126 8.62723E-05 1.45117E-06-3.77318E-05 1.13200E-06 6.06338E-18 6.10246E-19
 -1       127 8.13564E-05 1.78922E-05-4.22441E-05 1.17283E-06 9.54728E-18 1.81322E-18
 -1       128 7.76625E-05 3.01995E-05-4.55345E-05 6.66909E-07 9.30172E-18-8.80133E-19
 -1       129 7.67389E-05 3.32711E-05-4.63492E-05-2.04701E-07 8.47969E-18 1.29605E-18
 -1       130 7.89904E-05 2.57849E-05-4.43736E-05-9.51336E-07 2.84616E-18-1.81395E-18
 -1       131 8.33810E-05 1.11390E-05-4.04251E-05-1.20369E-06-9.74321E-18-1.30200E-19
 -1       132 8.81162E-05-4.74394E-06-3.60013E-05-9.70071E-07-1.33023E-17 9.07811E-19
 -1       133 9.19793E-05-1.77183E-05-3.22339E-05-5.09691E-07-1.03741E-17-2.88656E-19
 -1       134 9.42899E-05-2.55331E-05-2.98247E-05-9.97263E-08-7.04818E-18 7.83208E-20
 -1       135 9.52406E-05-2.86345E-05-2.87274E-05 1.01093E-07-2.12614E-18 4.54761E-19
 -1       136 9.52333E-05-2.88514E-05-2.84626E-05 3.44570E-07-1.26091E-18 4.34388E-19
 -1       137 3.25619E-05-1.08679E-04 1.94457E-05-2.77694E-05-1.80185E-18-1.00778E-18
 -1       138 1.01908E-05-4.42235E-05 5.28685E-06-2.27027E-05-9.30635E-18-5.20798E-18
 -1       139 1.24555E-05 1.57264E-05-1.57640E-05 2.51538E-05-9.51557E-18-7.48608E-18
 -1       140 6.41589E-05 3.10345E-05-3.84757E-05 8.74882E-05-2.50722E-18-5.98005E-19
 -1       141 1.61837E-04-2.52596E-06-6.04348E-05 1.26233E-04-3.46225E-19-1.65383E-18
 -1       142 2.65831E-04-6.01019E-05-7.63486E-05 1.08457E-04-1.12031E-18-2.03373E-18
 -1       143 3.27653E-04-9.94890E-05-8.41714E-05 3.11122E-05-2.78277E-19-7.46130E-18
 -1       144 3.07265E-04-8.87182E-05-8.11245E-05-5.73034E-05 1.83509E-18-1.23745E-17
 -1       145 2.23921E-04-4.10424E-05-6.90404E-05-1.10963E-04 4.35682E-18-1.10246E-17
 -1       146 1.19138E-04 9.30438E-06-5.03901E-05-1.07528E-04 6.26423E-18-9.78323E-18
 -1       147 3.87810E-05 2.55744E-05-2.82382E-05-5.96065E-05 9.41392E-18-9.00396E-18
 -1       148 6.57183E-06-3.26989E-06-6.96834E-06-2.97491E-06 8.19420E-18-6.23395E-18
 -1       149 1.44229E-05-6.14343E-05 1.06039E-05 2.83525E-05 6.79744E-18-2.34882E-18
 -1       150 3.41701E-05-1.10496E-04 2.09181E-05 2.08033E-05 6.38748E-18 5.18612E-19
 -1       151 3.90296E-05-1.21513E-04 2.30127E-05-9.66032E-06 3.83012E-18-9.75914E-19
 -1       152 2.18876E-05-8.24109E-05 1.52392E-05-3.02679E-05-4.43972E-18-9.94523E-19
 -1       153 5.05061E-06-2.18063E-05-6.94506E-08-1.34494E-05-4.46217E-18-4.25825E-18
 -1       154 2.31087E-05 2.03466E-05-2.11129E-05 3.95483E-05-7.81346E-18-5.97497E-18
 -1       155 1.77843E-04-1.75642E-05-6.13066E-05 1.15862E-04-4.10282E-18-9.59773E-18
 -1       156 2.70758E-04-6.77724E-05-7.57326E-05 9.18392E-05-3.11830E-18-1.12215E-17
 -1       157 3.27388E-04-1.00543E-04-8.36094E-05 2.40217E-05-7.38904E-19-9.16627E-18
 -1       158 3.17454E-04-9.22395E-05-8.29397E-05-6.16090E-05 1.28144E-18-7.58687E-18
 -1       159 2.43449E-04-4.60368E-05-7.34210E-05-1.18823E-04 2.11324E-18-6.29091E-18
 -1       160 1.39850E-04 7.53058E-06-5.62993E-05-1.22345E-04 4.03632E-18-6.63904E-18
 -1       161 5.30861E-05 3.23410E-05-3.51741E-05-7.89463E-05 4.89966E-18-6.30997E-18
 -1       162 9.50200E-06 1.05538E-05-1.30108E-05-1.76045E-05 2.07523E-18-2.64274E-18
 -1       163 1.10097E-05-4.64779E-05 5.72744E-06 2.33804E-05 6.39002E-18-1.56659E-18
 -1       164 3.15672E-05-1.06277E-04 1.89202E-05 2.71875E-05 6.56451E-21-1.57360E-18
 -1       165 9.48739E-05-1.23482E-05-3.55711E-05-2.23481E-05-2.43179E-18 1.66924E-18
 -1       166 8.92536E-05-8.45890E-06-3.47883E-05-1.73877E-05-2.36621E-18-1.07432E-18
 -1       167 8.65391E-05-6.49800E-06-3.44155E-05-1.35861E-05-1.97666E-18-2.69755E-18
 -1       168 8.51942E-05-5.51760E-06-3.42314E-05-1.03652E-05-1.57873E-18-3.56701E-18
 -1       169 8.44442E-05-4.94239E-06-3.41415E-05-7.54454E-06-1.19538E-18-4.01801E-18
 -1       170 8.40165E-05-4.59818E-06-3.40981E-05-4.90253E-06-7.97360E-19-4.24873E-18
 -1       171 8.37977E-05-4.41397E-06-3.40797E-05-2.39459E-06-4.03838E-19-4.26701E-18
 -1       172 8.37332E-05-4.35821E-06-3.40749E-05 5.11288E-08 2.67443E-20-4.39368E-18
 -1       173 8.38078E-05-4.42242E-06-3.40805E-05 2.49890E-06 3.29393E-19-4.45580E-18
 -1       174 8.40387E-05-4.61768E-06-3.40996E-05 5.01326E-06 6.59363E-19-4.39433E-18
 -1       175 8.44728E-05-4.97101E-06-3.41418E-05 7.62203E-06 1.03285E-18-4.23567E-18
 -1       176 8.52503E-05-5.57382E-06-3.42320E-05 1.05108E-05 1.52637E-18-3.84843E-18
 -1       177 8.66483E-05-6.60851E-06-3.44190E-05 1.37815E-05 2.01380E-18-3.13116E-18
 -1       178 8.93953E-05-8.60078E-06-3.47932E-05 1.76211E-05 2.39479E-18-1.66744E-18
 -1       179 9.57852E-05-1.36153E-05-3.54271E-05 2.18923E-05 2.47814E-18 1.33074E-18
 -1       180 1.05612E-04-2.61043E-05-3.52649E-05 1.86620E-05 1.94901E-18 5.41397E-18
 -1       181 1.03405E-04-2.73035E-05-3.26129E-05-1.21249E-05-2.10747E-18 4.81671E-18
 -1       182 9.71180E-05-2.82933E-05-2.95316E-05-4.72895E-06-1.84825E-18 3.68021E-18
 -1       183 9.35180E-05-2.76400E-05-2.81854E-05-1.76755E-06-1.47381E-18 2.65598E-18
 -1       184 9.19838E-05-2.74091E-05-2.76395E-05-4.19420E-07-1.05610E-18 1.62389E-18
 -1       185 9.14094E-05-2.73346E-05-2.74423E-05 2.44911E-07-7.78594E-19 9.01154E-19
 -1       186 9.13687E-05-2.73739E-05-2.74177E-05 5.70469E-07-5.64674E-19 6.33127E-19
 -1       187 9.16132E-05-2.74769E-05-2.74830E-05 7.08742E-07-4.67850E-19 3.54959E-19
 -1       188 9.19972E-05-2.76093E-05-2.75931E-05 7.38829E-07-6.22548E-19 1.20932E-19
 -1       189 9.24337E-05-2.77497E-05-2.77212E-05 7.06558E-07-7.96572E-19-1.98772E-19
 -1       190 9.28706E-05-2.78852E-05-2.78510E-05 6.40383E-07-2.58420E-19-3.35485E-19
 -1       191 9.32783E-05-2.80086E-05-2.79732E-05 5.58576E-07-1.91280E-19-1.16215E-18
 -1       192 9.36417E-05-2.81166E-05-2.80828E-05 4.72951E-07-1.87218E-19-1.09010E-18
 -1       193 9.39552E-05-2.82083E-05-2.81779E-05 3.91086E-07 1.26785E-19-1.07989E-18
 -1       194 9.42195E-05-2.82846E-05-2.82585E-05 3.17776E-07-3.64208E-19-1.00958E-18
 -1       195 9.44397E-05-2.83470E-05-2.83260E-05 2.56053E-07-1.24143E-19-6.16932E-19
 -1       196 9.46235E-05-2.83983E-05-2.83826E-05 2.07942E-07 1.34622E-19-8.54187E-19
 -1       197 9.47808E-05-2.84412E-05-2.84314E-05 1.75038E-07-1.70897E-19-1.00475E-18
 -1       198 9.49231E-05-2.84793E-05-2.84759E-05 1.58956E-07-7.75596E-19-1.68305E-18
 -1       199 9.50637E-05-2.85163E-05-2.85200E-05 1.61695E-07-7.18370E-19-2.15078E-18
 -1       200 9.52180E-05-2.85566E-05-2.85686E-05 1.85916E-07-6.42102E-20-2.26206E-18
 -1       201 9.54037E-05-2.86054E-05-2.86269E-05 2.35175E-07 3.74270E-19-2.24909E-18
 -1       202 9.56416E-05-2.86683E-05-2.87015E-05 3.14072E-07 2.18515E-19-2.67565E-18
 -1       203 9.59562E-05-2.87526E-05-2.87997E-05 4.28324E-07 5.39360E-19-1.35926E-18
 -1       204 9.63762E-05-2.88666E-05-2.89304E-05 5.84681E-07 4.37641E-21-4.22759E-19
 -1       205 9.69349E-05-2.90199E-05-2.91035E-05 7.90600E-07-2.13581E-19-7.14516E-19
 -1       206 9.76701E-05-2.92241E-05-2.93305E-05 1.05348E-06-3.99678E-19-1.27255E-18
 -1       207 9.86232E-05-2.94921E-05-2.96236E-05 1.37913E-06-5.48070E-19-2.24521E-18
 -1       208 9.98361E-05-2.98381E-05-2.99949E-05 1.76892E-06 7.82682E-19-1.88970E-18
 -1       209 1.01347E-04-3.02767E-05-3.04545E-05 2.21484E-06 1.88999E-19-1.57617E-18
 -1       210 1.03179E-04-3.08212E-05-3.10074E-05 2.69110E-06-2.39237E-19-9.69969E-19
 -1       211 1.05328E-04-3.14809E-05-3.16478E-05 3.14125E-06-2.87379E-19-9.66895E-19
 -1       212 1.07736E-04-3.22553E-05-3.23516E-05 3.45991E-06-6.25628E-19-1.23042E-18
 -1       213 1.10259E-04-3.31249E-05-3.30655E-05 3.47223E-06-7.00707E-19-1.35847E-18
 -1       214 1.12627E-04-3.40340E-05-3.36969E-05 2.92228E-06 1.34269E-18-8.83806E-19
 -1       215 1.14405E-04-3.48625E-05-3.41090E-05 1.49921E-06 3.99191E-19-1.23303E-18
 -1       216 1.14990E-04-3.53886E-05-3.41353E-05-1.04871E-06 6.55845E-19-1.23527E-18
 -1       217 1.13690E-04-3.52644E-05-3.36263E-05-4.66125E-06 1.30241E-18-1.30730E-18
 -1       218 1.09976E-04-3.40812E-05-3.25313E-05-8.61539E-06-6.35377E-19 5.48599E-19
 -1       219 1.03944E-04-3.16366E-05-3.09851E-05-1.13623E-05-4.86074E-19-1.49051E-19
 -1       220 9.67949E-05-2.83723E-05-2.93215E-05-1.10714E-05-7.75129E-19 7.82903E-19
 -1       221 9.07725E-05-2.55458E-05-2.79589E-05-7.03733E-06-5.41234E-19 2.58573E-19
 -1       222 8.80012E-05-2.45162E-05-2.72129E-05-8.52556E-07 2.17502E-18 1.10586E-18
 -1       223 8.89245E-05-2.55551E-05-2.71541E-05 4.35294E-06 7.68120E-19 2.90797E-18
 -1       224 9.19917E-05-2.75880E-05-2.75896E-05 6.28894E-06 9.08065E-19 2.90262E-18
 -1       225 9.49871E-05-2.92143E-05-2.81781E-05 5.04473E-06 1.15681E-18 2.74249E-18
 -1       226 9.65400E-05-2.97511E-05-2.86223E-05 2.43854E-06-1.26999E-18 4.47839E-19
 -1       227 9.65257E-05-2.93253E-05-2.88028E-05 4.11941E-07 2.41570E-20 4.57243E-19
 -1       228 9.57059E-05-2.85967E-05-2.87583E-05-9.68725E-08-1.05613E-18 1.66085E-18
 -1       229 9.95097E-05-2.85572E-05-3.05898E-05 7.20987E-06 2.06399E-18 4.45364E-18
 -1       230 9.44270E-05-2.77939E-05-2.85276E-05 2.74226E-06 1.60635E-18 3.07321E-18
 -1       231 9.21087E-05-2.74046E-05-2.76853E-05 9.28156E-07 1.01694E-18 1.93342E-18
 -1       232 9.11619E-05-2.72426E-05-2.73670E-05 6.59207E-08 8.32769E-19 1.15089E-18
 -1       233 9.09521E-05-2.72361E-05-2.72934E-05-3.62010E-07 6.66660E-19 7.46368E-19
 -1       234 9.11374E-05-2.73226E-05-2.73425E-05-5.62649E-07 2.68154E-19 2.21929E-19
 -1       235 9.15223E-05-2.74561E-05-2.74534E-05-6.35310E-07 3.46758E-19-1.32825E-19
 -1       236 9.19918E-05-2.76073E-05-2.75914E-05-6.33888E-07 3.51693E-19-4.11711E-19
 -1       237 9.24774E-05-2.77585E-05-2.77357E-05-5.90574E-07 4.49618E-19-6.07844E-19
 -1       238 9.29396E-05-2.78994E-05-2.78739E-05-5.25649E-07 3.04913E-19-6.85697E-19
 -1       239 9.33569E-05-2.80249E-05-2.79994E-05-4.52179E-07 2.81243E-19-9.99103E-19
 -1       240 9.37201E-05-2.81328E-05-2.81090E-05-3.78577E-07 6.18029E-19-1.11587E-18
 -1       241 9.40278E-05-2.82233E-05-2.82021E-05-3.10198E-07 4.43699E-19-1.79815E-18
 -1       242 9.42837E-05-2.82977E-05-2.82799E-05-2.50404E-07-4.61836E-20-2.03418E-18
 -1       243 9.44949E-05-2.83585E-05-2.83444E-05-2.01331E-07-4.82431E-20-1.70650E-18
 -1       244 9.46710E-05-2.84085E-05-2.83984E-05-1.64462E-07-5.93021E-19-1.93545E-18
 -1       245 9.48232E-05-2.84510E-05-2.84452E-05-1.41065E-07 3.85196E-19-1.77434E-18
 -1       246 9.49645E-05-2.84900E-05-2.84890E-05-1.32544E-07 1.58196E-19-1.41468E-18
 -1       247 9.51094E-05-2.85296E-05-2.85339E-05-1.40696E-07-4.13023E-19-1.04913E-18
 -1       248 9.52749E-05-2.85748E-05-2.85853E-05-1.67920E-07-4.51797E-19 5.77292E-20
 -1       249 9.54804E-05-2.86312E-05-2.86490E-05-2.17343E-07 5.48523E-19 2.22275E-19
 -1       250 9.57485E-05-2.87054E-05-2.87319E-05-2.92863E-07 1.45389E-18-1.06871E-18
 -1       251 9.61055E-05-2.88051E-05-2.88420E-05-3.99078E-07 3.65849E-19-2.47956E-18
 -1       252 9.65817E-05-2.89394E-05-2.89883E-05-5.41004E-07-1.21137E-18-2.76525E-18
 -1       253 9.72114E-05-2.91184E-05-2.91813E-05-7.23479E-07-1.21860E-18-1.17160E-18
 -1       254 9.80314E-05-2.93538E-05-2.94318E-05-9.50049E-07-7.43362E-19-2.87063E-19
 -1       255 9.90789E-05-2.96575E-05-2.97507E-05-1.22101E-06 8.45094E-19 2.40865E-19
 -1       256 1.00387E-04-3.00412E-05-3.01471E-05-1.53013E-06-4.81223E-19-1.53209E-19
 -1       257 1.01974E-04-3.05140E-05-3.06256E-05-1.85951E-06 1.32066E-19-4.64415E-19
 -1       258 1.03835E-04-3.10796E-05-3.11819E-05-2.17186E-06 5.13390E-19-8.98624E-20
 -1       259 1.05915E-04-3.17303E-05-3.17962E-05-2.40016E-06-5.68215E-19 1.17856E-18
 -1       260 1.08087E-04-3.24396E-05-3.24250E-05-2.43617E-06-5.80952E-19 2.04509E-19
 -1       261 1.10117E-04-3.31499E-05-3.29913E-05-2.12371E-06 1.14232E-18 1.87674E-19
 -1       262 1.11635E-04-3.37579E-05-3.33799E-05-1.27041E-06 1.18336E-18-5.12245E-19
 -1       263 1.12134E-04-3.40991E-05-3.34431E-05 2.97641E-07 1.18641E-18-1.32199E-18
 -1       264 1.11039E-04-3.39461E-05-3.30318E-05 2.61086E-06-6.65536E-19-5.59129E-19
 -1       265 1.07881E-04-3.30498E-05-3.20571E-05 5.36567E-06-1.60715E-18 3.98264E-19
 -1       266 1.02620E-04-3.12656E-05-3.05694E-05 7.77270E-06-3.94517E-19 1.52855E-18
 -1       267 9.59844E-05-2.87667E-05-2.88109E-05 8.68049E-06-5.76800E-19 3.68338E-18
 -1       268 8.95602E-05-2.62018E-05-2.71773E-05 7.20092E-06-8.50818E-19 5.02164E-18
 -1       269 8.52387E-05-2.44914E-05-2.60685E-05 3.54026E-06 6.14681E-19 2.13120E-18
 -1       270 8.41731E-05-2.42537E-05-2.57021E-05-7.82895E-07 9.80229E-19 2.88295E-18
 -1       271 8.60148E-05-2.53076E-05-2.60154E-05-3.85175E-06 1.08003E-19 3.32891E-18
 -1       272 8.92252E-05-2.68336E-05-2.67189E-05-4.68983E-06 9.36532E-19 1.46580E-18
 -1       273 9.21670E-05-2.80239E-05-2.74676E-05-3.73262E-06 8.16110E-19 1.15015E-18
 -1       274 9.39865E-05-2.85513E-05-2.80317E-05-2.20221E-06 4.86799E-19 1.76606E-18
 -1       275 9.47233E-05-2.85694E-05-2.83479E-05-1.15387E-06 5.93184E-19 7.54973E-19
 -1       276 9.50063E-05-2.85821E-05-2.84486E-05-7.68278E-07-3.42805E-19-1.40394E-19
 -1       277 9.55017E-05-2.88156E-05-2.85628E-05-5.77627E-07 1.32340E-18 2.42131E-18
 -1       278 9.60188E-05-2.84072E-05-2.89535E-05 1.30337E-06 3.22514E-18 3.15381E-18
 -1       279 9.58997E-05-2.62440E-05-2.98369E-05 5.11842E-06 3.48863E-18-6.83192E-19
 -1       280 9.46078E-05-2.13439E-05-3.13918E-05 1.01203E-05 2.65230E-18 1.36157E-18
 -1       281 9.17923E-05-1.35791E-05-3.35287E-05 1.44814E-05 3.01682E-18-3.60753E-19
 -1       282 8.74939E-05-3.65856E-06-3.59461E-05 1.57970E-05 3.75515E-18 1.50422E-18
 -1       283 8.29818E-05 5.63070E-06-3.79919E-05 1.18379E-05 2.51428E-18 9.58749E-19
 -1       284 8.03662E-05 1.07073E-05-3.90420E-05 2.96219E-06 3.62383E-18-9.89255E-19
 -1       285 8.11688E-05 9.23599E-06-3.87560E-05-7.19895E-06 2.91320E-19-3.09166E-18
 -1       286 8.48535E-05 1.99963E-06-3.72403E-05-1.40750E-05-5.31354E-19-5.37254E-18
 -1       287 8.93608E-05-7.65065E-06-3.50329E-05-1.55050E-05-2.36308E-18-3.28125E-18
 -1       288 9.30436E-05-1.67475E-05-3.27011E-05-1.25270E-05-3.45215E-18 1.39971E-18
 -1       289 9.51010E-05-2.32036E-05-3.08016E-05-7.68249E-06-3.01091E-18 1.96193E-18
 -1       290 9.56946E-05-2.67185E-05-2.95539E-05-3.24761E-06-3.26734E-18 2.71106E-18
 -1       291 9.61163E-05-2.81579E-05-2.91053E-05-1.26583E-06-1.39344E-18 1.44824E-18
 -1       292 1.55067E-05-5.88621E-05 1.43554E-05 7.98599E-06-2.80241E-18-1.84156E-18
 -1       293 3.04547E-05-5.18517E-05 5.96214E-06 2.60527E-05-2.10890E-18-4.04490E-18
 -1       294 6.11577E-05-4.43897E-05-9.05409E-06 4.06801E-05-4.08143E-18-2.83015E-18
 -1       295 9.92930E-05-3.49279E-05-2.77880E-05 5.06191E-05-5.42736E-18-5.08220E-21
 -1       296 1.47642E-04-3.55872E-05-4.67355E-05 4.90693E-05-2.91093E-18-2.70712E-18
 -1       297 1.88793E-04-3.34512E-05-6.35438E-05 4.61495E-05-9.22207E-19-2.50129E-18
 -1       298 2.18742E-04-3.70159E-05-7.39469E-05 2.71245E-05 1.57178E-18-7.31360E-18
 -1       299 2.07468E-04-2.95785E-05-7.36546E-05 2.22148E-06 1.87946E-18-7.76888E-18
 -1       300 2.03905E-04-3.66869E-05-6.86989E-05-2.29161E-05 9.13843E-19-8.46800E-18
 -1       301 1.69741E-04-3.57955E-05-5.54945E-05-3.84404E-05 2.94566E-18-5.80323E-18
 -1       302 1.25491E-04-3.59008E-05-3.78888E-05-4.42485E-05 4.15830E-18-4.63645E-18
 -1       303 8.78139E-05-4.41361E-05-1.93919E-05-4.11002E-05 3.55330E-18-4.56826E-18
 -1       304 4.53688E-05-4.50201E-05-2.25344E-06-3.03684E-05 4.31796E-18-3.90646E-18
 -1       305 2.18484E-05-5.14106E-05 9.73402E-06-1.70390E-05 4.30145E-18-1.49734E-18
 -1       306 1.20485E-05-5.51746E-05 1.51725E-05-3.71148E-06 2.59510E-18-2.15146E-18
 -1       307 1.60239E-05-5.22188E-05 1.25211E-05 1.17272E-05 1.27256E-18-3.51116E-18
 -1       308 3.44378E-05-4.80697E-05 3.08273E-06 2.26872E-05-8.88114E-19-9.82704E-19
 -1       309 7.09282E-05-4.30868E-05-1.32049E-05 3.73375E-05 3.71636E-19-3.18537E-18
 -1       310 1.10706E-04-3.78480E-05-3.12681E-05 4.25026E-05-1.86813E-18-6.77415E-19
 -1       311 1.52496E-04-3.52298E-05-4.87776E-05 4.31683E-05-1.16096E-18-4.87256E-18
 -1       312 1.91450E-04-3.74007E-05-6.32645E-05 3.29941E-05-1.43931E-18-6.53549E-18
 -1       313 2.18441E-04-3.91443E-05-7.30442E-05 1.41720E-05-2.02864E-18-6.15571E-18
 -1       314 2.22304E-04-3.65088E-05-7.57947E-05-1.01818E-05-1.77877E-20-7.09586E-18
 -1       315 2.12756E-04-3.64249E-05-7.18380E-05-3.32911E-05 1.25848E-18-5.30221E-18
 -1       316 1.79541E-04-3.35769E-05-6.00139E-05-4.53885E-05 3.43594E-18-4.81136E-18
 -1       317 1.39269E-04-3.46277E-05-4.36780E-05-5.18591E-05 3.50449E-18-5.40534E-18
 -1       318 9.34681E-05-3.58886E-05-2.51347E-05-4.94208E-05 2.69949E-18-4.86853E-18
 -1       319 5.67753E-05-4.42738E-05-7.51080E-06-3.82002E-05 5.13662E-18-1.84907E-18
 -1       320 3.10708E-05-5.17877E-05 5.74480E-06-2.65024E-05 2.65502E-18-3.47331E-18
 -1       321 1.45221E-05-5.32074E-05 1.30513E-05-1.01743E-05 1.58469E-18-2.09831E-18
 -1       322 9.16536E-05-1.43980E-05-3.31725E-05-1.30611E-05-2.49201E-18-1.22380E-18
 -1       323 9.57057E-05-1.91023E-05-3.28932E-05-1.46286E-05-2.60717E-18 5.35543E-19
 -1       324 8.79968E-05-1.03705E-05-3.33236E-05-8.16066E-06-1.68995E-18-2.81719E-18
 -1       325 8.71875E-05-9.45437E-06-3.33626E-05-5.71764E-06-1.22441E-18-3.17601E-18
 -1       326 8.67261E-05-8.92313E-06-3.33891E-05-3.36611E-06-7.06113E-19-3.26757E-18
 -1       327 8.65207E-05-8.68308E-06-3.34024E-05-1.07228E-06-1.98959E-19-3.30064E-18
 -1       328 8.65293E-05-8.69255E-06-3.34021E-05 1.20315E-06 2.51685E-19-3.41778E-18
 -1       329 8.67535E-05-8.95348E-06-3.33880E-05 3.49909E-06 6.48902E-19-3.43682E-18
 -1       330 8.72263E-05-9.49772E-06-3.33610E-05 5.81337E-06 1.16013E-18-3.32824E-18
 -1       331 8.80667E-05-1.04496E-05-3.33199E-05 8.25222E-06 1.62486E-18-3.07924E-18
 -1       332 8.94830E-05-1.20330E-05-3.32595E-05 1.07610E-05 2.15038E-18-2.50838E-18
 -1       333 9.19049E-05-1.47227E-05-3.31592E-05 1.31661E-05 2.61685E-18-1.68095E-18
 -1       334 9.58103E-05-1.94590E-05-3.28298E-05 1.43732E-05 2.86799E-18 1.48409E-19
 -1       335 9.87987E-05-2.44466E-05-3.19534E-05 1.18958E-05 2.60776E-18 1.82671E-18
 -1       336 9.63987E-05-2.68149E-05-2.97921E-05 5.73888E-06 2.12706E-18 1.22659E-18
 -1       337 9.64447E-05-2.60312E-05-3.01328E-05-6.34805E-06-2.18100E-18 8.80742E-19
 -1       338 9.49254E-05-2.70295E-05-2.90728E-05-2.83285E-06-1.91847E-18 5.82095E-19
 -1       339 9.39504E-05-2.74279E-05-2.84949E-05-9.18886E-07-1.25695E-18 3.51453E-19
 -1       340 9.34320E-05-2.76413E-05-2.81892E-05 1.40263E-07-8.61147E-19-2.88469E-20
 -1       341 9.32399E-05-2.77946E-05-2.80452E-05 7.04086E-07-7.29000E-19-3.14399E-19
 -1       342 9.32566E-05-2.79243E-05-2.79986E-05 9.70743E-07-6.79380E-19-4.61545E-19
 -1       343 9.33950E-05-2.80391E-05-2.80096E-05 1.05702E-06-7.02213E-19-3.04847E-19
 -1       344 9.35954E-05-2.81402E-05-2.80527E-05 1.03565E-06-7.18165E-19-9.19696E-20
 -1       345 9.38189E-05-2.82272E-05-2.81114E-05 9.53594E-07-4.65821E-19-3.33232E-19
 -1       346 9.40413E-05-2.83002E-05-2.81755E-05 8.41751E-07-2.60584E-19-4.14341E-19
 -1       347 9.42487E-05-2.83598E-05-2.82388E-05 7.20496E-07-1.82776E-19-7.67756E-19
 -1       348 9.44346E-05-2.84074E-05-2.82981E-05 6.03229E-07 1.68243E-19-3.21142E-19
 -1       349 9.45975E-05-2.84444E-05-2.83519E-05 4.98751E-07-2.27923E-19-8.19533E-20
 -1       350 9.47393E-05-2.84726E-05-2.84005E-05 4.12974E-07 1.22899E-19-1.11804E-18
 -1       351 9.48646E-05-2.84939E-05-2.84449E-05 3.50189E-07-3.09259E-19-1.45405E-18
 -1       352 9.49797E-05-2.85103E-05-2.84870E-05 3.14031E-07-8.84722E-19-1.64593E-18
 -1       353 9.50927E-05-2.85237E-05-2.85295E-05 3.08231E-07-7.50681E-19-1.34373E-18
 -1       354 9.52130E-05-2.85365E-05-2.85754E-05 3.37194E-07-3.15366E-19-1.45010E-18
 -1       355 9.53521E-05-2.85509E-05-2.86285E-05 4.06440E-07-5.67740E-20-1.59294E-18
 -1       356 9.55229E-05-2.85700E-05-2.86932E-05 5.22906E-07 1.76927E-19-1.88939E-18
 -1       357 9.57407E-05-2.85970E-05-2.87746E-05 6.95085E-07 1.06479E-18-5.98364E-19
 -1       358 9.60232E-05-2.86363E-05-2.88785E-05 9.32953E-07 7.90279E-19-1.14780E-18
 -1       359 9.63906E-05-2.86932E-05-2.90110E-05 1.24753E-06-1.94064E-19-1.05200E-19
 -1       360 9.68655E-05-2.87747E-05-2.91791E-05 1.64991E-06-5.29877E-19-6.29192E-19
 -1       361 9.74728E-05-2.88900E-05-2.93894E-05 2.14932E-06-5.68374E-19-2.92196E-19
 -1       362 9.82386E-05-2.90515E-05-2.96478E-05 2.74972E-06 1.86216E-19 6.81203E-19
 -1       363 9.91895E-05-2.92772E-05-2.99583E-05 3.44400E-06 6.45043E-19-3.67538E-19
 -1       364 1.00351E-04-2.95928E-05-3.03208E-05 4.20455E-06-1.08717E-19-1.74189E-19
 -1       365 1.01744E-04-3.00359E-05-3.07287E-05 4.96884E-06-1.06074E-19-4.88826E-19
 -1       366 1.03383E-04-3.06606E-05-3.11657E-05 5.61866E-06-4.54055E-19-3.65713E-19
 -1       367 1.05273E-04-3.15391E-05-3.16030E-05 5.95427E-06-8.51839E-19 3.38821E-19
 -1       368 1.07393E-04-3.27504E-05-3.19986E-05 5.67028E-06 5.13709E-19-3.85400E-20
 -1       369 1.09673E-04-3.43374E-05-3.23033E-05 4.35480E-06 8.58458E-19-2.23239E-19
 -1       370 1.11921E-04-3.62017E-05-3.24763E-05 1.55809E-06 6.29385E-19 6.73683E-19
 -1       371 1.13715E-04-3.79216E-05-3.25121E-05-2.99185E-06 1.30711E-18 6.05587E-19
 -1       372 1.14285E-04-3.85825E-05-3.24699E-05-8.94847E-06 1.25793E-18 1.25264E-18
 -1       373 1.12661E-04-3.69513E-05-3.24619E-05-1.47773E-05-4.86635E-19 8.31326E-19
 -1       374 1.08421E-04-3.24356E-05-3.25742E-05-1.76595E-05 3.96349E-19 6.57858E-19
 -1       375 1.02850E-04-2.65421E-05-3.27198E-05-1.48544E-05 1.38516E-19 1.80558E-18
 -1       376 9.89493E-05-2.28801E-05-3.26245E-05-6.58112E-06 1.02340E-18 3.14690E-18
 -1       377 9.88527E-05-2.39974E-05-3.21000E-05 2.81430E-06 2.03197E-18 2.46726E-18
 -1       378 1.01503E-04-2.85459E-05-3.12757E-05 8.15701E-06 1.72836E-18 2.24412E-18
 -1       379 1.03865E-04-3.27525E-05-3.04819E-05 7.78799E-06 1.49272E-18 2.75967E-18
 -1       380 1.03943E-04-3.41267E-05-2.99305E-05 3.97193E-06-2.40026E-18 3.36597E-18
 -1       381 1.01755E-04-3.26953E-05-2.96148E-05 4.01636E-08-1.95576E-18 2.09832E-18
 -1       382 9.88015E-05-3.02449E-05-2.93746E-05-1.59427E-06-8.57017E-19 1.87333E-18
 -1       383 9.43797E-05-2.73439E-05-2.86914E-05 2.46633E-06 1.62612E-18 8.18781E-19
 -1       384 9.31742E-05-2.74639E-05-2.81397E-05 7.41172E-07 1.32724E-18 2.33796E-19
 -1       385 9.26210E-05-2.75419E-05-2.78812E-05-1.79874E-07 7.95529E-19-2.07103E-19
 -1       386 9.24796E-05-2.76347E-05-2.77865E-05-6.55168E-07 6.25929E-19-5.30066E-19
 -1       387 9.25821E-05-2.77441E-05-2.77861E-05-8.72383E-07 4.55400E-19-8.31601E-19
 -1       388 9.28168E-05-2.78604E-05-2.78381E-05-9.36228E-07 5.52838E-19-7.80370E-19
 -1       389 9.31118E-05-2.79744E-05-2.79163E-05-9.09877E-07 6.65641E-19-9.25650E-19
 -1       390 9.34219E-05-2.80797E-05-2.80044E-05-8.33333E-07 3.27591E-19-9.02235E-19
 -1       391 9.37202E-05-2.81730E-05-2.80924E-05-7.32571E-07 5.53517E-19-7.75813E-19
 -1       392 9.39919E-05-2.82528E-05-2.81747E-05-6.24572E-07 8.48748E-19-7.73279E-19
 -1       393 9.42308E-05-2.83193E-05-2.82485E-05-5.20388E-07 9.30868E-19-8.38994E-19
 -1       394 9.44362E-05-2.83736E-05-2.83132E-05-4.27180E-07-2.51011E-20-8.79667E-19
 -1       395 9.46113E-05-2.84173E-05-2.83694E-05-3.49646E-07-5.18011E-19-7.80162E-19
 -1       396 9.47619E-05-2.84527E-05-2.84186E-05-2.91084E-07-1.36040E-19-6.17331E-19
 -1       397 9.48960E-05-2.84820E-05-2.84633E-05-2.54193E-07 3.08800E-19-1.50788E-18
 -1       398 9.50232E-05-2.85081E-05-2.85065E-05-2.41690E-07 2.53487E-19-9.95401E-19
 -1       399 9.51549E-05-2.85339E-05-2.85516E-05-2.56786E-07-3.11288E-19-9.68096E-19
 -1       400 9.53041E-05-2.85629E-05-2.86028E-05-3.03518E-07-8.52081E-19-5.68999E-19
 -1       401 9.54861E-05-2.85991E-05-2.86650E-05-3.86971E-07 3.71352E-19-2.36070E-19
 -1       402 9.57183E-05-2.86471E-05-2.87436E-05-5.13328E-07 1.95674E-18-1.38098E-20
 -1       403 9.60212E-05-2.87125E-05-2.88450E-05-6.89720E-07 9.41396E-19 2.82927E-19
 -1       404 9.64177E-05-2.88022E-05-2.89760E-05-9.23734E-07-8.81403E-19 6.31007E-20
 -1       405 9.69335E-05-2.89242E-05-2.91443E-05-1.22241E-06-1.66704E-18-6.33849E-19
 -1       406 9.75959E-05-2.90883E-05-2.93574E-05-1.59046E-06-7.23592E-19-1.43084E-18
 -1       407 9.84328E-05-2.93062E-05-2.96224E-05-2.02719E-06 7.33968E-19-5.55362E-19
 -1       408 9.94691E-05-2.95917E-05-2.99440E-05-2.52158E-06-1.13415E-19 1.19774E-19
 -1       409 1.00723E-04-2.99613E-05-3.03233E-05-3.04476E-06 1.60238E-19 6.56241E-19
 -1       410 1.02197E-04-3.04338E-05-3.07538E-05-3.53905E-06 3.68085E-19 2.30929E-18
 -1       411 1.03871E-04-3.10291E-05-3.12184E-05-3.90375E-06-9.33503E-20 1.66050E-18
 -1       412 1.05685E-04-3.17638E-05-3.16844E-05-3.97976E-06 4.44104E-19-9.82382E-19
 -1       413 1.07519E-04-3.26387E-05-3.21006E-05-3.54087E-06 4.95981E-19-1.67648E-18
 -1       414 1.09173E-04-3.36119E-05-3.23981E-05-2.30929E-06 6.45556E-19 9.87530E-20
 -1       415 1.10335E-04-3.45484E-05-3.24991E-05-2.68095E-08 9.88019E-19 1.82851E-18
 -1       416 1.10567E-04-3.51565E-05-3.23395E-05 3.37929E-06-4.31550E-19 3.06726E-18
 -1       417 1.09361E-04-3.49647E-05-3.19010E-05 7.52973E-06-1.64304E-18 2.25519E-18
 -1       418 1.06334E-04-3.34647E-05-3.12396E-05 1.13420E-05-9.88206E-19 1.98223E-18
 -1       419 1.01646E-04-3.05343E-05-3.04758E-05 1.31167E-05-1.85098E-18 2.81840E-18
 -1       420 9.64283E-05-2.69880E-05-2.97523E-05 1.13622E-05-7.12064E-19 3.50486E-18
 -1       421 9.25338E-05-2.44418E-05-2.91702E-05 6.13220E-06 9.12473E-19 4.21875E-18
 -1       422 9.13980E-05-2.42305E-05-2.87701E-05-4.00699E-07 8.61628E-19 5.38531E-18
 -1       423 9.28344E-05-2.61554E-05-2.85591E-05-5.21354E-06 5.26431E-19 4.11772E-18
 -1       424 9.52319E-05-2.86533E-05-2.85224E-05-6.64362E-06 7.64884E-19 3.46300E-18
 -1       425 9.69426E-05-3.02120E-05-2.85991E-05-5.25798E-06 7.64444E-19 3.21155E-18
 -1       426 9.72668E-05-3.03282E-05-2.86913E-05-2.89680E-06 3.69376E-19 3.51355E-18
 -1       427 9.65509E-05-2.95438E-05-2.87210E-05-1.18429E-06 1.38838E-18 4.83900E-18
 -1       428 9.60457E-05-2.90721E-05-2.86971E-05-6.44076E-07 1.33330E-18 4.53964E-18
 -1       429 1.01073E-04-2.97128E-05-3.05439E-05 1.15654E-05 2.17442E-18-2.29193E-18
 -1       430 9.98374E-05-3.03848E-05-2.97488E-05 4.73393E-06 2.02953E-18 1.02866E-18
 -1       431 9.77623E-05-2.97092E-05-2.91521E-05 1.05803E-06 2.38589E-18 3.70652E-18
 -1       432 9.96725E-05-2.65607E-05-3.13082E-05 1.92504E-05 1.28148E-18 2.19898E-19
 -1       433 9.44152E-05-2.00478E-05-3.18561E-05 2.47592E-05 9.18821E-19 2.14564E-18
 -1       434 8.57307E-05-1.09425E-05-3.20387E-05 2.35022E-05 7.68785E-19 3.23398E-19
 -1       435 7.75632E-05-2.90902E-06-3.19788E-05 1.29361E-05-3.02368E-19 7.86007E-19
 -1       436 7.53732E-05-7.75220E-07-3.19562E-05-3.77720E-06-7.89698E-19-1.70776E-18
 -1       437 8.08657E-05-6.02207E-06-3.20578E-05-1.84020E-05-1.70295E-18-6.28259E-18
 -1       438 8.97505E-05-1.49025E-05-3.20629E-05-2.47183E-05-6.67086E-19-4.61703E-18
 -1       439 9.70885E-05-2.29944E-05-3.17382E-05-2.25031E-05 4.29307E-19 2.57655E-19
 -1       440 1.00461E-04-2.78747E-05-3.10745E-05-1.55658E-05-9.34596E-19 1.43544E-18
 -1       441 1.00254E-04-2.95940E-05-3.02457E-05-8.05176E-06-2.43086E-18 2.14362E-18
 -1       442 6.54882E-05-4.75683E-05-7.83432E-06 5.10522E-05-3.93659E-19-2.54338E-18
 -1       443 1.54283E-05-2.53633E-05 4.03544E-06 1.92037E-06-1.70697E-19-3.69010E-18
 -1       444 2.75645E-05-3.29948E-05 1.96008E-06 3.08327E-05-1.77093E-18-1.71895E-18
 -1       445 1.09429E-04-5.96978E-05-2.13690E-05 4.91943E-05-2.64867E-18-5.18861E-19
 -1       446 1.43702E-04-6.15840E-05-3.51925E-05 3.28754E-05-4.33956E-18 9.05055E-19
 -1       447 8.94240E-05-1.19257E-05-3.32761E-05-1.07576E-05-2.16187E-18-2.31187E-18
 -1       448 1.67354E-04-2.52873E-05-6.07121E-05 3.93151E-06 2.33993E-18-6.58145E-18
 -1       449 1.63262E-04-1.27746E-05-6.45659E-05 3.15766E-06 1.78597E-18-5.21052E-18
 -1       450 1.67308E-04-1.89173E-05-6.34694E-05 7.66187E-06-7.32578E-19-5.33281E-18
 -1       451 1.64548E-04-3.44621E-05-5.56502E-05 3.04427E-06 4.03717E-19-3.66776E-18
 -1       452 1.53475E-04-5.23908E-05-4.33019E-05-1.17119E-05 1.64496E-18-2.58112E-18
 -1       453 1.28446E-04-5.96218E-05-2.95549E-05-2.91929E-05 1.08643E-18-1.35726E-18
 -1       454 8.40097E-05-5.37658E-05-1.31279E-05-4.29430E-05 1.57453E-18-2.85449E-18
 -1       455 4.95690E-05-4.18463E-05-3.21740E-06-4.08810E-05 2.77213E-18-2.39604E-18
 -1       456 1.81833E-05-3.17083E-05 5.51881E-06-2.01837E-05 2.43363E-18-1.25064E-18
 -1       457 1.47846E-05-2.44407E-05 4.39387E-06 7.69627E-06 1.82585E-18-3.82891E-18
 -1       458 3.51829E-05-3.91016E-05 1.41820E-06 3.33995E-05 2.03034E-18-2.24591E-18
 -1       459 7.19534E-05-5.16247E-05-8.89731E-06 4.28602E-05 2.12658E-18-1.06403E-18
 -1       460 1.16358E-04-6.09597E-05-2.38038E-05 3.46792E-05 1.49364E-18-1.80100E-19
 -1       461 1.46620E-04-5.67926E-05-3.84623E-05 1.81527E-05 9.11090E-20-4.50537E-18
 -1       462 1.61463E-04-4.36939E-05-5.03918E-05 2.56287E-07 6.76753E-19-4.45529E-18
 -1       463 1.68849E-04-2.91572E-05-5.96865E-05-5.21702E-06-7.78529E-19-3.53308E-18
 -1       464 1.67710E-04-1.45925E-05-6.54092E-05-7.75199E-06-2.30287E-19-3.12801E-18
 -1       465 1.66048E-04-1.56304E-05-6.43684E-05-3.69789E-06-6.67144E-19-2.01435E-18
 -1       466 1.69035E-04-2.87539E-05-5.98430E-05-5.63253E-06 2.17571E-18-3.46352E-18
 -1       467 1.60740E-04-4.93642E-05-4.76133E-05-1.73463E-05 1.68588E-18-2.48901E-18
 -1       468 1.37714E-04-5.95407E-05-3.34630E-05-3.77335E-05 8.46186E-19-4.97314E-18
 -1       469 1.02786E-04-5.83778E-05-1.91820E-05-4.98182E-05 2.86625E-18-2.07714E-18
 -1       470 6.58080E-05-4.79548E-05-7.78164E-06-5.06666E-05 3.17246E-18-2.60923E-18
 -1       471 3.22196E-05-3.07811E-05-5.50210E-07-3.44288E-05 1.51407E-19-3.73796E-18
 -1       472 1.63936E-04-4.38194E-05-5.12252E-05 1.48956E-05-1.15509E-18-1.95495E-18
 -1       473 1.17963E-04-6.48643E-05-2.26447E-05-3.42044E-05 2.04558E-19-4.85906E-19
 -1       474 1.44844E-04-8.09488E-06-5.91418E-05 7.99466E-06 5.47183E-19-4.59284E-18
 -1       475 9.58250E-05-2.51498E-05-3.02751E-05 6.01468E-06 2.13870E-18-6.17829E-19
 -1       476 8.95350E-05-1.33992E-05-3.26485E-05-3.92206E-06-9.44976E-19-2.83875E-18
 -1       477 9.02469E-05-1.43656E-05-3.25408E-05-5.87686E-06-1.37649E-18-2.64224E-18
 -1       478 8.90372E-05-1.27193E-05-3.27254E-05 5.46338E-08-6.93684E-20-2.95230E-18
 -1       479 8.91725E-05-1.29027E-05-3.27051E-05 2.04521E-06 3.92269E-19-3.15009E-18
 -1       480 8.95677E-05-1.34401E-05-3.26453E-05 3.99701E-06 8.44353E-19-3.06780E-18
 -1       481 9.02933E-05-1.44276E-05-3.25350E-05 5.95019E-06 1.43139E-18-2.82690E-18
 -1       482 9.14432E-05-1.60070E-05-3.23529E-05 7.77790E-06 1.91457E-18-2.49788E-18
 -1       483 9.32332E-05-1.84784E-05-3.20579E-05 9.29258E-06 2.32840E-18-1.88939E-18
 -1       484 9.51177E-05-2.65790E-05-2.93558E-05 2.87104E-06 1.76865E-18-8.41717E-19
 -1       485 9.54849E-05-2.44347E-05-3.04403E-05-5.81696E-06-2.06745E-18-4.73497E-19
 -1       486 1.51467E-04-5.75342E-05-4.05902E-05 8.97439E-06-3.27673E-18-2.93815E-18
 -1       487 9.52766E-05-2.62237E-05-2.95858E-05-2.89316E-06-1.69417E-18-2.84881E-19
 -1       488 9.49215E-05-2.71631E-05-2.90354E-05-1.02856E-06-1.30239E-18-3.35218E-19
 -1       489 9.46453E-05-2.76946E-05-2.86915E-05 9.40595E-08-9.65819E-19-5.51447E-19
 -1       490 9.44885E-05-2.80209E-05-2.84855E-05 7.28634E-07-9.40800E-19-6.94152E-19
 -1       491 9.44332E-05-2.82329E-05-2.83715E-05 1.04558E-06-5.36637E-19-7.13418E-19
 -1       492 9.44484E-05-2.83741E-05-2.83177E-05 1.15980E-06-4.43472E-19-6.06622E-19
 -1       493 9.45070E-05-2.84684E-05-2.83025E-05 1.14922E-06-8.17977E-19-4.04065E-19
 -1       494 9.45885E-05-2.85299E-05-2.83111E-05 1.06674E-06-4.49221E-19-3.07053E-19
 -1       495 9.46786E-05-2.85678E-05-2.83336E-05 9.48309E-07-3.23440E-19-2.67660E-19
 -1       496 9.47688E-05-2.85885E-05-2.83633E-05 8.18268E-07-1.14164E-19-3.63516E-20
 -1       497 9.48541E-05-2.85964E-05-2.83965E-05 6.93012E-07 8.11141E-20-6.69396E-19
 -1       498 9.49329E-05-2.85948E-05-2.84309E-05 5.83676E-07-6.72704E-19-5.92246E-19
 -1       499 9.50056E-05-2.85859E-05-2.84657E-05 4.98106E-07-4.96332E-19-6.84531E-19
 -1       500 9.50741E-05-2.85711E-05-2.85014E-05 4.42358E-07-8.23948E-19-9.67117E-19
 -1       501 9.51416E-05-2.85512E-05-2.85388E-05 4.21844E-07-7.52851E-19-1.20031E-18
 -1       502 9.52126E-05-2.85266E-05-2.85797E-05 4.42212E-07-9.38372E-19-1.36434E-18
 -1       503 9.52922E-05-2.84973E-05-2.86262E-05 5.10000E-07-1.80522E-19-1.18636E-18
 -1       504 9.53866E-05-2.84632E-05-2.86812E-05 6.33100E-07 1.23596E-19-1.11455E-18
 -1       505 9.55032E-05-2.84245E-05-2.87476E-05 8.21010E-07 8.36504E-19-7.41518E-19
 -1       506 9.56502E-05-2.83816E-05-2.88288E-05 1.08484E-06 1.22507E-18-6.62384E-19
 -1       507 9.58369E-05-2.83357E-05-2.89283E-05 1.43699E-06 4.32149E-19-1.38292E-18
 -1       508 9.60738E-05-2.82897E-05-2.90493E-05 1.89026E-06-4.00192E-19-8.99161E-19
 -1       509 9.63731E-05-2.82493E-05-2.91946E-05 2.45629E-06-7.02656E-19-2.73421E-19
 -1       510 9.67486E-05-2.82252E-05-2.93656E-05 3.14276E-06 4.11170E-19 4.20047E-19
 -1       511 9.72176E-05-2.82364E-05-2.95616E-05 3.94887E-06 1.21558E-19 9.72990E-19
 -1       512 9.78034E-05-2.83162E-05-2.97784E-05 4.85820E-06-4.55622E-19 1.18427E-18
 -1       513 9.85411E-05-2.85202E-05-3.00072E-05 5.82805E-06-2.99531E-19 6.98001E-19
 -1       514 9.94867E-05-2.89384E-05-3.02337E-05 6.77380E-06-2.51115E-19 6.60858E-19
 -1       515 1.00731E-04-2.97075E-05-3.04386E-05 7.54728E-06-6.90114E-19 4.57101E-19
 -1       516 1.02414E-04-3.10156E-05-3.06017E-05 7.90890E-06-2.63470E-19 4.94067E-19
 -1       517 1.04727E-04-3.30758E-05-3.07133E-05 7.49673E-06 4.99184E-19 5.77954E-19
 -1       518 1.07856E-04-3.60218E-05-3.07971E-05 5.80959E-06 1.33454E-18 2.59032E-19
 -1       519 1.11822E-04-3.96594E-05-3.09428E-05 2.25427E-06 1.14318E-18 1.44119E-18
 -1       520 1.16124E-04-4.30405E-05-3.13395E-05-3.61627E-06 5.25712E-19 2.40338E-19
 -1       521 1.19307E-04-4.40657E-05-3.22707E-05-1.14238E-05-2.00330E-19-1.20494E-18
 -1       522 1.19243E-04-4.01589E-05-3.39379E-05-1.87999E-05-2.53254E-19 3.55272E-19
 -1       523 1.14789E-04-3.06844E-05-3.61459E-05-2.11050E-05 7.39049E-19 7.55730E-19
 -1       524 1.08926E-04-2.07972E-05-3.79268E-05-1.44389E-05 8.89861E-19 1.15821E-18
 -1       525 1.07110E-04-1.85827E-05-3.81091E-05-1.74220E-06 1.34533E-19 1.20308E-18
 -1       526 1.10566E-04-2.57441E-05-3.64807E-05 8.10115E-06 1.36483E-18 1.32448E-18
 -1       527 1.14555E-04-3.53121E-05-3.40234E-05 9.36669E-06 1.61342E-18 1.47412E-18
 -1       528 1.14578E-04-4.01002E-05-3.19400E-05 4.22680E-06 5.97203E-19 1.80808E-18
 -1       529 1.10286E-04-3.86443E-05-3.07132E-05-1.90947E-06-1.89038E-18 5.23410E-18
 -1       530 9.41486E-05-2.76881E-05-2.84795E-05-1.23058E-07 9.45098E-19-8.73835E-19
 -1       531 9.39724E-05-2.79349E-05-2.83005E-05-7.32355E-07 6.97741E-19-8.58617E-19
 -1       532 9.39423E-05-2.81065E-05-2.82151E-05-1.02961E-06 5.14195E-19-1.04727E-18
 -1       533 9.40057E-05-2.82326E-05-2.81886E-05-1.13180E-06 5.50874E-19-1.02139E-18
 -1       534 9.41215E-05-2.83273E-05-2.81980E-05-1.11543E-06 5.88388E-19-6.62370E-19
 -1       535 9.42614E-05-2.83983E-05-2.82276E-05-1.03138E-06 3.93898E-19-9.60959E-19
 -1       536 9.44065E-05-2.84507E-05-2.82674E-05-9.13790E-07 7.41174E-19-1.06275E-18
 -1       537 9.45460E-05-2.84880E-05-2.83111E-05-7.85485E-07 7.61679E-19-4.74345E-19
 -1       538 9.46741E-05-2.85133E-05-2.83551E-05-6.61707E-07 2.94784E-19-2.87762E-19
 -1       539 9.47891E-05-2.85291E-05-2.83975E-05-5.52661E-07-1.61521E-19-2.90769E-19
 -1       540 9.48920E-05-2.85373E-05-2.84381E-05-4.65392E-07-2.49294E-19-5.91364E-19
 -1       541 9.49861E-05-2.85395E-05-2.84773E-05-4.05189E-07 5.41545E-19-1.21020E-18
 -1       542 9.50759E-05-2.85372E-05-2.85167E-05-3.76654E-07 1.93013E-20-8.64431E-19
 -1       543 9.51676E-05-2.85316E-05-2.85582E-05-3.84512E-07-9.33309E-20-6.79076E-19
 -1       544 9.52683E-05-2.85239E-05-2.86045E-05-4.34199E-07-9.11707E-19-4.54941E-19
 -1       545 9.53867E-05-2.85153E-05-2.86587E-05-5.32253E-07-4.69916E-19-9.17270E-19
 -1       546 9.55328E-05-2.85077E-05-2.87244E-05-6.86490E-07 6.96235E-19-8.40683E-19
 -1       547 9.57181E-05-2.85032E-05-2.88055E-05-9.05913E-07 1.07604E-18 2.22984E-19
 -1       548 9.59556E-05-2.85053E-05-2.89061E-05-1.20025E-06 1.74004E-19 1.22093E-18
 -1       549 9.62603E-05-2.85190E-05-2.90305E-05-1.57893E-06-2.42912E-19 4.00758E-19
 -1       550 9.66486E-05-2.85520E-05-2.91825E-05-2.04932E-06-1.65550E-19-8.77052E-19
 -1       551 9.71389E-05-2.86159E-05-2.93650E-05-2.61364E-06-1.45436E-19-1.59146E-18
 -1       552 9.77513E-05-2.87288E-05-2.95789E-05-3.26425E-06-5.41657E-19-5.64568E-19
 -1       553 9.85082E-05-2.89181E-05-2.98222E-05-3.97646E-06-9.28498E-19 8.95396E-19
 -1       554 9.94355E-05-2.92251E-05-3.00884E-05-4.69814E-06-4.66298E-19 1.33532E-18
 -1       555 1.00564E-04-2.97096E-05-3.03654E-05-5.33558E-06 1.03320E-18 9.02303E-19
 -1       556 1.01931E-04-3.04524E-05-3.06349E-05-5.73632E-06 1.43838E-18-1.10608E-19
 -1       557 1.03578E-04-3.15482E-05-3.08740E-05-5.67212E-06 4.88100E-19 3.30485E-19
 -1       558 1.05533E-04-3.30748E-05-3.10615E-05-4.83193E-06-2.46350E-19 8.69388E-19
 -1       559 1.07763E-04-3.50151E-05-3.11897E-05-2.84760E-06-2.13697E-19 1.61300E-18
 -1       560 1.10068E-04-3.71105E-05-3.12827E-05 6.03943E-07-1.28200E-18 2.29740E-18
 -1       561 1.11935E-04-3.86755E-05-3.14123E-05 5.55287E-06-9.41053E-19 3.22681E-18
 -1       562 1.12474E-04-3.85574E-05-3.16907E-05 1.13126E-05-9.29326E-19 3.34678E-18
 -1       563 1.10707E-04-3.55891E-05-3.22083E-05 1.60670E-05-6.71022E-19 3.11974E-18
 -1       564 1.06590E-04-2.98919E-05-3.28821E-05 1.70453E-05-2.28421E-18 2.16706E-18
 -1       565 1.01896E-04-2.39433E-05-3.34246E-05 1.24885E-05-6.29802E-19 2.53302E-18
 -1       566 9.95554E-05-2.15852E-05-3.34374E-05 3.81778E-06 1.36217E-19 4.14080E-18
 -1       567 1.00755E-04-2.43233E-05-3.27819E-05-4.36655E-06 1.81935E-18 4.36658E-18
 -1       568 1.03574E-04-2.95993E-05-3.17113E-05-8.00261E-06 1.19206E-18 4.85535E-18
 -1       569 1.05118E-04-3.35382E-05-3.06926E-05-6.77798E-06 1.12078E-18 4.09882E-18
 -1       570 1.04175E-04-3.43057E-05-2.99583E-05-3.19856E-06-2.18876E-20 4.68450E-18
 -1       571 1.01361E-04-3.24924E-05-2.95178E-05-3.23810E-08 3.53100E-19 4.19977E-18
 -1       572 1.05707E-04-3.55852E-05-3.00065E-05 2.73547E-05 2.39981E-18-3.48768E-19
 -1       573 9.37909E-05-2.75747E-05-2.82643E-05 3.32134E-05 2.01178E-18 2.67492E-18
 -1       574 1.06973E-04-3.58998E-05-3.04342E-05 7.55221E-06 1.59615E-18 2.51582E-19
 -1       575 1.09362E-04-3.77587E-05-3.06741E-05 1.71051E-05 3.22046E-18-9.82502E-19
 -1       576 7.62876E-05-1.53010E-05-2.59531E-05 2.71395E-05 6.55474E-19-2.01735E-18
 -1       577 6.43311E-05-6.78171E-06-2.44675E-05 7.10146E-06-2.00649E-18-7.40955E-19
 -1       578 6.84066E-05-9.48514E-06-2.50449E-05-1.72318E-05-3.36278E-18-3.41239E-18
 -1       579 8.42573E-05-2.08686E-05-2.70429E-05-3.11680E-05-1.16357E-18-5.05751E-18
 -1       580 1.00042E-04-3.18186E-05-2.91664E-05-3.10787E-05 9.89182E-19-1.25114E-18
 -1       581 1.08215E-04-3.70514E-05-3.04651E-05-2.24637E-05 1.91782E-18-1.72527E-18
 -1       582 1.08002E-04-3.65900E-05-3.06227E-05-1.21712E-05-2.52122E-18 1.08523E-18
 -1       583 3.14663E-05-1.74799E-05-5.41858E-06 1.96763E-05 6.63703E-19-1.88772E-18
 -1       584 1.02385E-04-5.61065E-05-1.94284E-05 5.07717E-05-1.03714E-18-1.56718E-18
 -1       585 9.45258E-05-2.72952E-05-2.88045E-05 9.80403E-07 1.29578E-18-8.62146E-19
 -1       586 3.39275E-05-1.52569E-05-7.22980E-06-1.60276E-05-9.84093E-19-3.11465E-18
 -1       587 5.71590E-05-3.21969E-05-1.01379E-05 4.49146E-05-1.12608E-18-2.38593E-18
 -1       588 9.46323E-05-2.07704E-05-3.16762E-05-9.51261E-06-2.38317E-18-8.36700E-19
 -1       589 6.42257E-05-3.48127E-05-1.20962E-05-4.71156E-05 7.17490E-19-4.04628E-18
 -1       590 1.41671E-04-1.64852E-05-5.42633E-05-1.74258E-05-7.93776E-19-2.06703E-18
 -1       591 1.50208E-04-5.59859E-05-4.06926E-05-4.86666E-06 1.06084E-18-2.45661E-18
 -1       592 8.91525E-05-1.28777E-05-3.27072E-05-1.93653E-06-4.63909E-19-2.95789E-18
 -1       593 1.46160E-04-2.33529E-05-5.32010E-05 1.68415E-05-1.21475E-18-3.13360E-18
 -1       594 1.37299E-04-1.59891E-05-5.27508E-05-5.96627E-06 1.59120E-18-3.88034E-18
 -1       595 1.39687E-04-8.46248E-06-5.69107E-05-4.62793E-06-9.22207E-19-1.76480E-18
 -1       596 1.49871E-04-4.62631E-05-4.48095E-05 1.13151E-05 9.22472E-20-2.94720E-18
 -1       597 1.44124E-04-6.34786E-05-3.46890E-05-7.96681E-06-2.08291E-19-1.49459E-18
 -1       598 8.14788E-05-5.03463E-05-1.29692E-05-4.27992E-05 1.08224E-18-4.43819E-19
 -1       599 3.99256E-05-2.70565E-05-4.92934E-06-3.09163E-05 1.38718E-18-1.65669E-18
 -1       600 2.63628E-05-1.68026E-05-3.37167E-06-8.37773E-06 1.13592E-18-2.73909E-18
 -1       601 3.82704E-05-2.42039E-05-5.33377E-06 2.68768E-05 2.62834E-18-2.34279E-18
 -1       602 6.30578E-05-3.95071E-05-9.61616E-06 3.96280E-05 2.34003E-18 1.76130E-19
 -1       603 1.06200E-04-6.13755E-05-1.90022E-05 3.69865E-05 2.40139E-18-2.18841E-18
 -1       604 1.39126E-04-6.62965E-05-3.12433E-05 1.55882E-05 1.47286E-18-3.75707E-18
 -1       605 1.47837E-04-3.17910E-05-5.01993E-05-1.88312E-05 5.70159E-19-2.85535E-18
 -1       606 1.50519E-04-6.31858E-05-3.76369E-05-1.63583E-05-1.32349E-22-6.42527E-19
 -1       607 1.45076E-04-1.98491E-05-5.42725E-05 5.72837E-06 1.40777E-18-2.46624E-18
 -1       608 1.53063E-04-4.06634E-05-4.85658E-05 3.70101E-06-1.96565E-19-1.56886E-18
 -1       609 1.31062E-04-6.65452E-05-2.75854E-05-3.82127E-05 6.68097E-19-2.32407E-18
 -1       610 1.02708E-04-5.69535E-05-1.92623E-05-5.05148E-05 2.01869E-18 1.19630E-19
 -1       611 1.51448E-04-3.59885E-05-4.99541E-05-4.68582E-06 6.07905E-19-5.25092E-18
 -1       612 9.61650E-05-2.31916E-05-3.12778E-05 9.57991E-06 2.50273E-18-2.75909E-19
 -1       613 1.29787E-04-6.53560E-05-2.75394E-05 3.83249E-05-1.86908E-18 1.49114E-18
 -1       614 1.31704E-04-1.21692E-05-5.18905E-05 1.50476E-05-5.80271E-19-2.34465E-18
 -1       615 9.13372E-05-1.59026E-05-3.23638E-05-7.66905E-06-1.79765E-18-2.30254E-18
 -1       616 1.42490E-04-6.43441E-05-3.35287E-05 1.89605E-05-1.92591E-18-1.71699E-18
 -1       617 3.80949E-05-1.61625E-05-8.82354E-06 1.16469E-05 1.89164E-18-2.05961E-18
 -1       618 6.48917E-05-3.60552E-05-1.18692E-05-3.75061E-05-2.67874E-20-8.34433E-19
 -1       619 1.26245E-04-9.54528E-06-5.06560E-05-7.73857E-08 1.73409E-18-2.25161E-18
 -1       620 1.06125E-04-3.54649E-05-3.02786E-05-4.70664E-06-2.72069E-18 5.51469E-18
 -1       621 9.15479E-05-1.68476E-05-3.20200E-05 2.44009E-06 5.43524E-19-2.63203E-18
 -1       622 9.12896E-05-1.64460E-05-3.20812E-05 8.40422E-07 1.06106E-19-2.72698E-18
 -1       623 9.28896E-05-1.89980E-05-3.16734E-05 5.26160E-06 1.55601E-18-2.29771E-18
 -1       624 9.39835E-05-2.09283E-05-3.13173E-05 6.13972E-06 1.86396E-18-1.82401E-18
 -1       625 9.52747E-05-2.40958E-05-3.04950E-05 5.14474E-06 1.86672E-18-1.40092E-18
 -1       626 9.42628E-05-5.00366E-05-1.86363E-05 3.45234E-05 1.35922E-18-2.17469E-18
 -1       627 5.87119E-05-1.95661E-05-1.63112E-05-3.22097E-05-2.43855E-18-3.42254E-18
 -1       628 9.36494E-05-4.48692E-05-2.04277E-05-4.71010E-05-2.31664E-19 7.51609E-20
 -1       629 9.54134E-05-2.57007E-05-2.98747E-05-2.44010E-06-1.51680E-18-9.64838E-19
 -1       630 9.54753E-05-2.69468E-05-2.93687E-05-8.65932E-07-1.21571E-18-8.88167E-19
 -1       631 9.54192E-05-2.77065E-05-2.90195E-05 1.35995E-07-8.58931E-19-6.62867E-19
 -1       632 9.53433E-05-2.81795E-05-2.87845E-05 7.23316E-07-7.12748E-19-6.82447E-19
 -1       633 9.52787E-05-2.84711E-05-2.86319E-05 1.02364E-06-3.89435E-19-6.60281E-19
 -1       634 9.52331E-05-2.86452E-05-2.85378E-05 1.13419E-06-2.83068E-19-5.12274E-19
 -1       635 9.52054E-05-2.87416E-05-2.84846E-05 1.12526E-06-4.69865E-19 9.82001E-21
 -1       636 9.51912E-05-2.87861E-05-2.84595E-05 1.04689E-06-3.39708E-19 2.80610E-19
 -1       637 9.51868E-05-2.87958E-05-2.84534E-05 9.34198E-07-1.78834E-19 2.20923E-19
 -1       638 9.51887E-05-2.87824E-05-2.84599E-05 8.11529E-07-5.32476E-19 3.24207E-19
 -1       639 9.51948E-05-2.87535E-05-2.84749E-05 6.95676E-07-3.65980E-19-5.12866E-19
 -1       640 9.52037E-05-2.87136E-05-2.84958E-05 5.98402E-07-7.15391E-19-9.73305E-19
 -1       641 9.52145E-05-2.86652E-05-2.85212E-05 5.28376E-07-9.00181E-19-1.01238E-18
 -1       642 9.52271E-05-2.86090E-05-2.85506E-05 4.92648E-07-9.65273E-19-8.80693E-19
 -1       643 9.52414E-05-2.85443E-05-2.85845E-05 4.97798E-07-6.05237E-19-4.55681E-19
 -1       644 9.52577E-05-2.84696E-05-2.86235E-05 5.50795E-07-3.71798E-19 3.74625E-19
 -1       645 9.52766E-05-2.83824E-05-2.86689E-05 6.59607E-07-2.39962E-19 2.01400E-19
 -1       646 9.52986E-05-2.82799E-05-2.87222E-05 8.33580E-07 2.79997E-19-3.10108E-19
 -1       647 9.53241E-05-2.81591E-05-2.87848E-05 1.08357E-06 8.90271E-19-9.22791E-19
 -1       648 9.53539E-05-2.80178E-05-2.88581E-05 1.42178E-06 8.61850E-19-1.05183E-18
 -1       649 9.53887E-05-2.78547E-05-2.89429E-05 1.86117E-06-7.37101E-20-7.55380E-19
 -1       650 9.54298E-05-2.76718E-05-2.90388E-05 2.41442E-06-1.66852E-19-8.78837E-19
 -1       651 9.54800E-05-2.74761E-05-2.91441E-05 3.09213E-06 1.82991E-19-2.48009E-19
 -1       652 9.55459E-05-2.72838E-05-2.92546E-05 3.90008E-06 8.64623E-19-1.04598E-20
 -1       653 9.56423E-05-2.71271E-05-2.93630E-05 4.83538E-06 2.74341E-19 1.83365E-19
 -1       654 9.57996E-05-2.70631E-05-2.94578E-05 5.88096E-06-8.41142E-19 1.01968E-18
 -1       655 9.60778E-05-2.71893E-05-2.95230E-05 6.99802E-06-1.28130E-19 8.28776E-19
 -1       656 9.65884E-05-2.76613E-05-2.95397E-05 8.11516E-06-3.15695E-19 1.65170E-19
 -1       657 9.75248E-05-2.87137E-05-2.94904E-05 9.11132E-06-4.11460E-19 1.33207E-18
 -1       658 9.91977E-05-3.06674E-05-2.93709E-05 9.78488E-06-7.65376E-19 9.09076E-19
 -1       659 1.02053E-04-3.38907E-05-2.92145E-05 9.79306E-06 8.40870E-19 2.90722E-19
 -1       660 1.06597E-04-3.86245E-05-2.91364E-05 8.55636E-06 4.55419E-19-5.34386E-19
 -1       661 1.13123E-04-4.45586E-05-2.93928E-05 5.15850E-06-3.56582E-19-2.15276E-18
 -1       662 1.21029E-04-5.00347E-05-3.04473E-05-1.51097E-06-2.52836E-20-2.08191E-18
 -1       663 1.27736E-04-5.07702E-05-3.30400E-05-1.16821E-05 9.70074E-19-1.16462E-18
 -1       664 1.28756E-04-4.18721E-05-3.74980E-05-2.14250E-05 4.32847E-19 2.41297E-18
 -1       665 1.23472E-04-2.47922E-05-4.26787E-05-2.22015E-05 7.25272E-19 1.89502E-18
 -1       666 1.17636E-04-1.19143E-05-4.57601E-05-9.78195E-06 1.24408E-19-3.35231E-20
 -1       667 1.20618E-04-1.84673E-05-4.42002E-05 6.14599E-06 1.31817E-18-9.25582E-19
 -1       668 1.26428E-04-3.50559E-05-3.95026E-05 1.07708E-05 4.04299E-19-9.60469E-19
 -1       669 1.27544E-04-4.68203E-05-3.47062E-05 3.67788E-06 8.37102E-19-9.67100E-19
 -1       670 1.21683E-04-4.72842E-05-3.19067E-05-5.64251E-06 1.21891E-18-2.87493E-18
 -1       671 9.49844E-05-2.81160E-05-2.86577E-05-7.38489E-07 7.08451E-19-1.08810E-18
 -1       672 1.14753E-04-4.16994E-05-3.13284E-05 3.42859E-06 1.24380E-19 2.81265E-18
 -1       673 9.50953E-05-2.77095E-05-2.88791E-05-1.29888E-07 9.13982E-19-1.02068E-18
 -1       674 9.49013E-05-2.85291E-05-2.84453E-05-1.15834E-06 3.26277E-19-9.97462E-19
 -1       675 9.49092E-05-2.86236E-05-2.84083E-05-1.14773E-06 4.71473E-19-8.01085E-19
 -1       676 9.49350E-05-2.86748E-05-2.83974E-05-1.06622E-06 6.20243E-19-5.73406E-19
 -1       677 9.49704E-05-2.86966E-05-2.84032E-05-9.49508E-07 4.18478E-19-2.97146E-19
 -1       678 9.50098E-05-2.86981E-05-2.84195E-05-8.22107E-07 3.81793E-19 1.79184E-19
 -1       679 9.50499E-05-2.86856E-05-2.84420E-05-7.00770E-07 8.32614E-20-1.95471E-19
 -1       680 9.50892E-05-2.86630E-05-2.84685E-05-5.97070E-07-3.33894E-20-3.33517E-19
 -1       681 9.51274E-05-2.86328E-05-2.84978E-05-5.19365E-07 2.76796E-19-5.13162E-20
 -1       682 9.51653E-05-2.85960E-05-2.85297E-05-4.74283E-07-2.95274E-19 4.50108E-19
 -1       683 9.52045E-05-2.85528E-05-2.85650E-05-4.67870E-07 7.20100E-20 3.38627E-19
 -1       684 9.52472E-05-2.85027E-05-2.86047E-05-5.06428E-07-6.85193E-20 1.81583E-19
 -1       685 9.52963E-05-2.84447E-05-2.86506E-05-5.97099E-07 7.97884E-20-3.92118E-19
 -1       686 9.53551E-05-2.83776E-05-2.87045E-05-7.48209E-07 1.01796E-20-2.71578E-19
 -1       687 9.54278E-05-2.83009E-05-2.87684E-05-9.69332E-07 6.75708E-19 9.53685E-20
 -1       688 9.55192E-05-2.82145E-05-2.88445E-05-1.27101E-06 4.22847E-19 6.35313E-19
 -1       689 9.56350E-05-2.81203E-05-2.89345E-05-1.66403E-06 1.17677E-20 8.38756E-19
 -1       690 9.57828E-05-2.80233E-05-2.90393E-05-2.15803E-06 5.24157E-19 2.15674E-19
 -1       691 9.59724E-05-2.79338E-05-2.91587E-05-2.75929E-06-3.14172E-19 5.56264E-19
 -1       692 9.62178E-05-2.78706E-05-2.92909E-05-3.46730E-06-7.93421E-19 5.66378E-19
 -1       693 9.65405E-05-2.78660E-05-2.94311E-05-4.26965E-06-8.56487E-19 1.04225E-18
 -1       694 9.69749E-05-2.79726E-05-2.95716E-05-5.13490E-06-6.34981E-19 1.68849E-19
 -1       695 9.75767E-05-2.82725E-05-2.97012E-05-6.00247E-06 3.33420E-19 9.30062E-19
 -1       696 9.84345E-05-2.88862E-05-2.98062E-05-6.76913E-06 1.75135E-18 1.77980E-18
 -1       697 9.96832E-05-2.99774E-05-2.98745E-05-7.27103E-06 9.74235E-19 9.62129E-19
 -1       698 1.01509E-04-3.17381E-05-2.99037E-05-7.26079E-06-3.59698E-20-5.77596E-19
 -1       699 1.04123E-04-3.43273E-05-2.99167E-05-6.38299E-06-7.63186E-19 5.55452E-19
 -1       700 1.07670E-04-3.77180E-05-2.99858E-05-4.16683E-06-1.08090E-18 1.40902E-18
 -1       701 1.11986E-04-4.13980E-05-3.02593E-05-9.74943E-08-1.04660E-18 1.68899E-18
 -1       702 1.16234E-04-4.39809E-05-3.09728E-05 6.05476E-06-1.19216E-18 1.63125E-18
 -1       703 1.18656E-04-4.31479E-05-3.23832E-05 1.34708E-05-1.79411E-18 2.86751E-18
 -1       704 1.17374E-04-3.67815E-05-3.45965E-05 1.93860E-05-3.48372E-19 3.65237E-18
 -1       705 1.12263E-04-2.62231E-05-3.70010E-05 1.90725E-05-1.53406E-18 2.16991E-18
 -1       706 1.07352E-04-1.79691E-05-3.84999E-05 1.03682E-05-4.51402E-19 1.96874E-18
 -1       707 1.07610E-04-1.88899E-05-3.81648E-05-1.69627E-06 2.30155E-20 2.26639E-18
 -1       708 1.11940E-04-2.78211E-05-3.61403E-05-8.59969E-06 1.31890E-18 3.81423E-18
 -1       709 1.15159E-04-3.66077E-05-3.36957E-05-7.69317E-06 1.42515E-18 4.77786E-18
 -1       710 1.16611E-04-4.10719E-05-3.24030E-05-2.79417E-06 1.83808E-18 4.42855E-18
 -1       711 5.90536E-05-1.46418E-05-1.85567E-05 2.45257E-05-1.33477E-18-3.29491E-18
 -1       712 1.14907E-04-4.26305E-05-3.10096E-05-1.00708E-05 7.16441E-19-2.56074E-18
 -1       713 1.10945E-04-4.63667E-05-2.75450E-05 3.56969E-05 7.86424E-19 1.71559E-18
 -1       714 4.78190E-05-9.50792E-06-1.58716E-05-7.65005E-06-2.33512E-18-2.92639E-18
 -1       715 8.54638E-05-3.19066E-05-2.26670E-05 4.10311E-05 1.54892E-18-1.31258E-18
 -1       716 9.79406E-05-3.92065E-05-2.49204E-05-4.02338E-05 8.19518E-19-1.00798E-18
 -1       717 1.16058E-04-4.78149E-05-2.91570E-05-2.88630E-05 1.70570E-18-1.07666E-18
 -1       718 1.40157E-04-6.14885E-05-3.38343E-05-2.64315E-06 2.14526E-18-1.80066E-18
 -1       719 1.33947E-04-3.08769E-05-4.46415E-05 1.05408E-05 6.72915E-19-3.25102E-18
 -1       720 8.78819E-05-3.99998E-05-2.00760E-05 4.65485E-05-1.51359E-18-1.02510E-18
 -1       721 9.41763E-05-2.09773E-05-3.13707E-05-7.05870E-06-1.90702E-18-1.34055E-18
 -1       722 1.40970E-04-5.49925E-05-3.70734E-05 9.88760E-06-4.75708E-19-3.86273E-18
 -1       723 9.52353E-05-2.70436E-05-2.92231E-05 9.22869E-07 1.14205E-18-9.58525E-19
 -1       724 9.49223E-05-2.83709E-05-2.85220E-05-1.04652E-06 4.80034E-19-1.08714E-18
 -1       725 9.50859E-05-2.38612E-05-3.05254E-05-4.47490E-06-1.72726E-18-1.17267E-18
 -1       726 1.44633E-04-5.21352E-05-3.98899E-05 1.90126E-06 3.43498E-19-2.95125E-18
 -1       727 9.53378E-05-2.59396E-05-2.97381E-05 2.60135E-06 1.42203E-18-1.13419E-18
 -1       728 1.41575E-04-4.57954E-05-4.14077E-05-5.10032E-06-1.89566E-18-6.25359E-18
 -1       729 1.08434E-04-5.88566E-05-2.10309E-05-3.30442E-05 7.88641E-19-7.99976E-19
 -1       730 9.20753E-05-1.76764E-05-3.18910E-05 3.94761E-06 1.07380E-18-2.43247E-18
 -1       731 9.20344E-05-1.76188E-05-3.18978E-05-3.89270E-06-1.00158E-18-2.38940E-18
 -1       732 1.30976E-04-2.77576E-05-4.47043E-05-9.96615E-06-6.92026E-19-5.70069E-18
 -1       733 1.39056E-04-4.45110E-05-4.07932E-05-1.98830E-05 1.09024E-18 2.21102E-19
 -1       734 1.33016E-04-6.48406E-05-2.92590E-05-1.33939E-05-2.78303E-19-2.45180E-18
 -1       735 4.26389E-05-1.93365E-05-9.40738E-06-2.05388E-05 3.75434E-19-1.83875E-18
 -1       736 5.94576E-05-2.90624E-05-1.25518E-05 3.10073E-05 2.55327E-18-8.42321E-19
 -1       737 1.39444E-04-6.45828E-05-3.21670E-05-2.15708E-05-1.10877E-18 8.66621E-20
 -1       738 1.31016E-04-2.47714E-05-4.61227E-05-2.19373E-05 6.23363E-20 3.13190E-19
 -1       739 1.25531E-04-6.42375E-05-2.61716E-05 1.98653E-05 2.55646E-18-2.74799E-18
 -1       740 1.20008E-04-5.76172E-05-2.65561E-05 3.83809E-05 3.69518E-20 2.01551E-18
 -1       741 1.20632E-04-6.02377E-05-2.56684E-05-3.99848E-05-6.01870E-19 4.34213E-19
 -1       742 1.36278E-04-3.37161E-05-4.43914E-05 2.03859E-05-1.24726E-19-2.02203E-18
 -1       743 9.28572E-05-1.89138E-05-3.16941E-05-5.28835E-06-1.38333E-18-2.09547E-18
 -1       744 9.12829E-05-1.64368E-05-3.20822E-05-7.83355E-07-2.75100E-19-2.53132E-18
 -1       745 1.39059E-04-5.48845E-05-3.61751E-05 3.09736E-06-1.39686E-18-5.75121E-18
 -1       746 1.19451E-04-4.82473E-05-3.05105E-05 2.12656E-05 3.47224E-18-1.32065E-18
 -1       747 5.41813E-05-1.82529E-05-1.48431E-05 3.09845E-05 7.44185E-19-4.28710E-18
 -1       748 9.03790E-05-4.71341E-05-1.82558E-05-3.51925E-05 9.78164E-19-2.09442E-19
 -1       749 9.15255E-05-1.68167E-05-3.20235E-05-2.38076E-06-6.51776E-19-2.48370E-18
 -1       750 1.22103E-04-1.95199E-05-4.43652E-05-7.61497E-06-3.22508E-19-3.35303E-18
 -1       751 4.33775E-05-1.44894E-05-1.19713E-05-2.36482E-06 5.07541E-19-1.04135E-18
 -1       752 1.26627E-04-1.35789E-05-4.90972E-05 3.22908E-06 1.05133E-18-1.51569E-18
 -1       753 1.25290E-04-2.19858E-05-4.46408E-05 2.07578E-05-1.54377E-18-3.86326E-19
 -1       754 9.46280E-05-2.27206E-05-3.08170E-05 3.90793E-06 1.24188E-18-1.85026E-18
 -1       755 9.58640E-05-2.68833E-05-2.95631E-05-5.82211E-07-9.15824E-19-1.06022E-18
 -1       756 9.59595E-05-2.77753E-05-2.92218E-05 2.20534E-07-8.80316E-19-1.12759E-18
 -1       757 9.59485E-05-2.83379E-05-2.89760E-05 6.96185E-07-4.78147E-19-8.78944E-19
 -1       758 9.58881E-05-2.86798E-05-2.88036E-05 9.39737E-07-1.33811E-19-8.58525E-19
 -1       759 9.58080E-05-2.88730E-05-2.86864E-05 1.02547E-06-1.18640E-19-7.47344E-19
 -1       760 9.57236E-05-2.89663E-05-2.86103E-05 1.01087E-06-2.84110E-19-4.14461E-19
 -1       761 9.56427E-05-2.89930E-05-2.85642E-05 9.38412E-07-1.24169E-19-1.82419E-19
 -1       762 9.55692E-05-2.89759E-05-2.85400E-05 8.38642E-07-2.72308E-19-3.41571E-19
 -1       763 9.55043E-05-2.89303E-05-2.85317E-05 7.33121E-07-7.47596E-19-5.98734E-19
 -1       764 9.54476E-05-2.88658E-05-2.85351E-05 6.37051E-07-1.11761E-18-7.79627E-19
 -1       765 9.53978E-05-2.87875E-05-2.85473E-05 5.61428E-07-9.15043E-19-8.76422E-19
 -1       766 9.53528E-05-2.86978E-05-2.85665E-05 5.14696E-07-5.82068E-19-6.67206E-19
 -1       767 9.53099E-05-2.85960E-05-2.85917E-05 5.04056E-07-1.71661E-19 3.60894E-19
 -1       768 9.52657E-05-2.84799E-05-2.86225E-05 5.36486E-07-2.33133E-19 3.19268E-19
 -1       769 9.52163E-05-2.83455E-05-2.86589E-05 6.19461E-07-1.57545E-19 4.59372E-19
 -1       770 9.51571E-05-2.81878E-05-2.87011E-05 7.61430E-07-2.10112E-19 5.84927E-19
 -1       771 9.50826E-05-2.80012E-05-2.87491E-05 9.72065E-07 2.75546E-19 5.60928E-19
 -1       772 9.49867E-05-2.77803E-05-2.88027E-05 1.26226E-06 6.47597E-19 4.12081E-19
 -1       773 9.48622E-05-2.75204E-05-2.88607E-05 1.64382E-06 4.35090E-19-2.91891E-19
 -1       774 9.47019E-05-2.72193E-05-2.89210E-05 2.12888E-06-6.25723E-19-6.01355E-19
 -1       775 9.44986E-05-2.68793E-05-2.89796E-05 2.72894E-06 2.39000E-19-7.23440E-19
 -1       776 9.42479E-05-2.65111E-05-2.90299E-05 3.45364E-06 5.03967E-19-1.30354E-18
 -1       777 9.39512E-05-2.61392E-05-2.90621E-05 4.30941E-06 8.29149E-19-1.87561E-18
 -1       778 9.36226E-05-2.58102E-05-2.90622E-05 5.29824E-06 2.20475E-19-1.79311E-18
 -1       779 9.33006E-05-2.56064E-05-2.90115E-05 6.41707E-06-2.33887E-19-5.79662E-19
 -1       780 9.30676E-05-2.56630E-05-2.88873E-05 7.65791E-06 1.98390E-20-1.86356E-19
 -1       781 9.30801E-05-2.61929E-05-2.86655E-05 9.00764E-06-2.78121E-19-4.17228E-19
 -1       782 9.36159E-05-2.75152E-05-2.83282E-05 1.04414E-05-2.36198E-19-1.17919E-18
 -1       783 9.51375E-05-3.00786E-05-2.78809E-05 1.18930E-05-7.63219E-19-9.44698E-19
 -1       784 9.83823E-05-3.44575E-05-2.73913E-05 1.31423E-05-3.71685E-19-2.29746E-18
 -1       785 1.04258E-04-4.10823E-05-2.70635E-05 1.35697E-05-6.69716E-19-3.35791E-18
 -1       786 1.13726E-04-4.98278E-05-2.73355E-05 1.17523E-05-7.22688E-19-2.30181E-18
 -1       787 1.33364E-04-5.73790E-05-3.25424E-05-1.24571E-05 1.83363E-19-3.71558E-18
 -1       788 9.57293E-05-2.77499E-05-2.91340E-05-1.98559E-07 8.45411E-19-1.13838E-18
 -1       789 9.55042E-05-2.88696E-05-2.85577E-05-1.07078E-06 1.40876E-19-4.80480E-19
 -1       790 9.55646E-05-2.87753E-05-2.86240E-05-1.08420E-06 3.51629E-19-5.71900E-19
 -1       791 9.54076E-05-2.88986E-05-2.85039E-05-8.87674E-07 2.03372E-19-6.58476E-19
 -1       792 9.53713E-05-2.88672E-05-2.85018E-05-7.73503E-07 3.17663E-19-7.89626E-19
 -1       793 9.53417E-05-2.88185E-05-2.85100E-05-6.67888E-07 2.49183E-20-4.68543E-19
 -1       794 9.53175E-05-2.87575E-05-2.85257E-05-5.82211E-07 2.97652E-19-7.39260E-19
 -1       795 9.52973E-05-2.86867E-05-2.85474E-05-5.25067E-07-2.45131E-19-9.22677E-19
 -1       796 9.52795E-05-2.86062E-05-2.85743E-05-5.03611E-07-1.72208E-19-1.26361E-18
 -1       797 9.52625E-05-2.85145E-05-2.86063E-05-5.24650E-07-7.36442E-20-4.37731E-19
 -1       798 9.52445E-05-2.84092E-05-2.86437E-05-5.95378E-07 6.12634E-20-4.52684E-19
 -1       799 9.52236E-05-2.82870E-05-2.86871E-05-7.23885E-07 6.31605E-20-5.66175E-20
 -1       800 9.51977E-05-2.81444E-05-2.87371E-05-9.19401E-07-2.20834E-19 2.35267E-19
 -1       801 9.51648E-05-2.79786E-05-2.87940E-05-1.19225E-06 1.59319E-19 7.78255E-19
 -1       802 9.51231E-05-2.77879E-05-2.88578E-05-1.55345E-06 2.49372E-19 9.94223E-19
 -1       803 9.50718E-05-2.75741E-05-2.89275E-05-2.01392E-06 2.62196E-19 6.17566E-19
 -1       804 9.50123E-05-2.73439E-05-2.90006E-05-2.58314E-06 4.01611E-19 5.24943E-19
 -1       805 9.49502E-05-2.71133E-05-2.90728E-05-3.26723E-06-7.63567E-19-2.09236E-19
 -1       806 9.48995E-05-2.69119E-05-2.91373E-05-4.06626E-06-8.76156E-19-9.45270E-19
 -1       807 9.48886E-05-2.67910E-05-2.91844E-05-4.97080E-06-7.58222E-19 1.11837E-19
 -1       808 9.49713E-05-2.68341E-05-2.92014E-05-5.95734E-06 3.06564E-19-3.82736E-19
 -1       809 9.52418E-05-2.71692E-05-2.91737E-05-6.98188E-06 1.12059E-19-1.08418E-18
 -1       810 9.58570E-05-2.79831E-05-2.90885E-05-7.96972E-06 8.93823E-19 1.06573E-19
 -1       811 9.70614E-05-2.95286E-05-2.89427E-05-8.79672E-06 1.36059E-18 1.10422E-18
 -1       812 9.92081E-05-3.21085E-05-2.87580E-05-9.25015E-06-1.16232E-18 1.18248E-18
 -1       813 1.02738E-04-3.59895E-05-2.86077E-05-8.95627E-06-1.07254E-18 4.46700E-19
 -1       814 1.08050E-04-4.11778E-05-2.86615E-05-7.26083E-06-1.51536E-18 4.69751E-19
 -1       815 1.15101E-04-4.68900E-05-2.92360E-05-3.19091E-06-1.09062E-18 7.06081E-19
 -1       816 1.22647E-04-5.07418E-05-3.08372E-05 4.16581E-06-2.88606E-18 6.90965E-19
 -1       817 1.27425E-04-4.80727E-05-3.40735E-05 1.41025E-05-1.24452E-18-7.29888E-20
 -1       818 9.31996E-05-1.97758E-05-3.14684E-05 1.23261E-06 2.80153E-19-2.28628E-18
 -1       819 1.28289E-04-5.89963E-05-2.96973E-05 4.41741E-06 2.07657E-18-1.82195E-18
 -1       820 8.16171E-05-3.63952E-05-1.91984E-05 2.87006E-05 9.35912E-19-2.29437E-18
 -1       821 9.56976E-05-2.69183E-05-2.94770E-05 6.88877E-07 9.48740E-19-1.03454E-18
 -1       822 5.63563E-05-1.94475E-05-1.55149E-05 1.75008E-05 9.37368E-19-1.29900E-18
 -1       823 9.52130E-05-2.44769E-05-3.03152E-05 3.42376E-06 1.32097E-18-1.42855E-18
 -1       824 6.38255E-05-2.74429E-05-1.52562E-05-2.78456E-05-3.58176E-19-6.78103E-19
 -1       825 1.32140E-04-5.80648E-05-3.17760E-05 1.45049E-06-7.86086E-19-3.29924E-18
 -1       826 9.54517E-05-2.89039E-05-2.85205E-05-9.94397E-07 2.74950E-19-3.95531E-19
 -1       827 1.18486E-04-5.84926E-05-2.56105E-05-2.00289E-05 1.27108E-19-1.94770E-18
 -1       828 1.16096E-04-1.24184E-05-4.48867E-05 9.40800E-06 2.59113E-19-6.94005E-20
 -1       829 9.55729E-05-2.55114E-05-3.00271E-05-1.80092E-06-1.06534E-18-1.20964E-18
 -1       830 1.27762E-04-3.81867E-05-3.86713E-05-9.26815E-06-6.79228E-19-1.51072E-18
 -1       831 1.12053E-04-5.45239E-05-2.45206E-05 2.16126E-05 5.80204E-19-1.74167E-18
 -1       832 1.30449E-04-5.76862E-05-3.11652E-05 2.08499E-05-2.56538E-19-4.18843E-18
 -1       833 1.29452E-04-4.18945E-05-3.77984E-05 1.96146E-05 2.37434E-20 3.25400E-19
 -1       834 9.30873E-05-1.95750E-05-3.15063E-05 2.02788E-08-1.16035E-19-2.33206E-18
 -1       835 9.50026E-05-2.36310E-05-3.05871E-05-3.31560E-06-1.32920E-18-1.56972E-18
 -1       836 9.56299E-05-2.85909E-05-2.87310E-05-9.88828E-07 6.43096E-20-8.47941E-19
 -1       837 9.56917E-05-2.82718E-05-2.88942E-05-7.21630E-07 4.57778E-19-9.31636E-19
 -1       838 1.20472E-04-5.73432E-05-2.69265E-05-3.65324E-05 7.72441E-19-1.01101E-19
 -1       839 9.40335E-05-2.13583E-05-3.11467E-05 3.32445E-06 9.25134E-19-2.02494E-18
 -1       840 1.27339E-04-4.74400E-05-3.43294E-05-8.98868E-07 1.20663E-18 2.00415E-18
 -1       841 5.50493E-05-1.82255E-05-1.55371E-05-1.51437E-05-2.87693E-19-9.34569E-19
 -1       842 9.34988E-05-2.03277E-05-3.13605E-05-2.33611E-06-7.42846E-19-2.13322E-18
 -1       843 9.55159E-05-2.58935E-05-2.98376E-05 1.82921E-06 1.06398E-18-1.14033E-18
 -1       844 9.35162E-05-2.03583E-05-3.13539E-05 2.36482E-06 7.07587E-19-2.18670E-18
 -1       845 9.39840E-05-2.12832E-05-3.11571E-05-3.29390E-06-1.00930E-18-1.87814E-18
 -1       846 9.89719E-05-4.21633E-05-2.42614E-05 2.08527E-05 2.65474E-19-3.14458E-18
 -1       847 5.63651E-05-1.53498E-05-1.73962E-05 2.57362E-06 5.55261E-19-4.96791E-19
 -1       848 9.63625E-05-2.79269E-05-2.93296E-05 2.90529E-07-4.71049E-19-1.30998E-18
 -1       849 9.63833E-05-2.85197E-05-2.90845E-05 6.34762E-07-1.38372E-19-1.07970E-18
 -1       850 9.63202E-05-2.88750E-05-2.89051E-05 8.05568E-07-9.63264E-20-7.71697E-19
 -1       851 9.62130E-05-2.90657E-05-2.87774E-05 8.58097E-07 7.43451E-21-9.20156E-19
 -1       852 9.60870E-05-2.91444E-05-2.86897E-05 8.35921E-07-7.08518E-21-9.94141E-19
 -1       853 9.59574E-05-2.91483E-05-2.86325E-05 7.71890E-07-3.66683E-19-1.02946E-18
 -1       854 9.58330E-05-2.91032E-05-2.85985E-05 6.89950E-07-6.85297E-19-1.33835E-18
 -1       855 9.57174E-05-2.90261E-05-2.85820E-05 6.07194E-07-6.00800E-19-8.84409E-19
 -1       856 9.56111E-05-2.89269E-05-2.85789E-05 5.35995E-07-8.03668E-19-3.48022E-19
 -1       857 9.55122E-05-2.88110E-05-2.85862E-05 4.85589E-07-3.11057E-19 3.07307E-19
 -1       858 9.54167E-05-2.86792E-05-2.86018E-05 4.63308E-07 8.39800E-20 6.68186E-20
 -1       859 9.53193E-05-2.85297E-05-2.86241E-05 4.75737E-07-3.95520E-19-1.52391E-19
 -1       860 9.52132E-05-2.83579E-05-2.86523E-05 5.29449E-07 2.89746E-20 1.32139E-19
 -1       861 9.50901E-05-2.81577E-05-2.86853E-05 6.31518E-07-3.51779E-19 4.55461E-19
 -1       862 9.49403E-05-2.79218E-05-2.87222E-05 7.89847E-07 2.77966E-19 1.18009E-19
 -1       863 9.47527E-05-2.76422E-05-2.87617E-05 1.01328E-06 1.35192E-19-2.35996E-19
 -1       864 9.45146E-05-2.73113E-05-2.88014E-05 1.31149E-06 1.53563E-19-2.44524E-19
 -1       865 9.42119E-05-2.69234E-05-2.88379E-05 1.69467E-06-7.12375E-19-1.05305E-18
 -1       866 9.38299E-05-2.64760E-05-2.88659E-05 2.17313E-06 2.30439E-20-6.02721E-19
 -1       867 9.33542E-05-2.59735E-05-2.88774E-05 2.75684E-06 3.32296E-19-9.98517E-19
 -1       868 9.27731E-05-2.54304E-05-2.88611E-05 3.45542E-06 2.74477E-19-1.07037E-18
 -1       869 9.20816E-05-2.48785E-05-2.88013E-05 4.27915E-06 3.07930E-19-2.19193E-18
 -1       870 9.12879E-05-2.43747E-05-2.86770E-05 5.24203E-06 3.46888E-19-2.14435E-18
 -1       871 9.04253E-05-2.40148E-05-2.84615E-05 6.36818E-06 2.97764E-19-1.63843E-18
 -1       872 8.95706E-05-2.39504E-05-2.81227E-05 7.70298E-06 5.62690E-19-1.18518E-18
 -1       873 8.88748E-05-2.44148E-05-2.76253E-05 9.33018E-06-1.05807E-18-1.16139E-18
 -1       874 8.86226E-05-2.57648E-05-2.69374E-05 1.13837E-05-9.42117E-19-1.94252E-18
 -1       875 8.92941E-05-2.85082E-05-2.60448E-05 1.40457E-05-6.66717E-19-3.06362E-18
 -1       876 9.18752E-05-3.35334E-05-2.50029E-05 1.75156E-05-8.01012E-19-2.87422E-18
 -1       877 9.60426E-05-2.89837E-05-2.87395E-05-9.41499E-07 1.03396E-19-1.28435E-18
 -1       878 9.56292E-05-2.89864E-05-2.85612E-05-6.67317E-07 1.52656E-19-5.80482E-19
 -1       879 9.57232E-05-2.90498E-05-2.85743E-05-7.60868E-07 2.53167E-19-3.76675E-19
 -1       880 9.54668E-05-2.88034E-05-2.85700E-05-5.23219E-07-1.34918E-20-1.15369E-18
 -1       881 9.53937E-05-2.86907E-05-2.85870E-05-4.90663E-07-3.17178E-19-6.58193E-19
 -1       882 9.53209E-05-2.85632E-05-2.86104E-05-4.93960E-07-2.68866E-19-9.41819E-19
 -1       883 9.52434E-05-2.84178E-05-2.86395E-05-5.39930E-07-4.51631E-19-1.39606E-18
 -1       884 9.51553E-05-2.82497E-05-2.86738E-05-6.35873E-07 2.46030E-19-2.56815E-19
 -1       885 9.50499E-05-2.80535E-05-2.87127E-05-7.89999E-07-2.15668E-19 1.44995E-20
 -1       886 9.49196E-05-2.78235E-05-2.87554E-05-1.01155E-06-7.24841E-20-5.58810E-19
 -1       887 9.47565E-05-2.75552E-05-2.88005E-05-1.31073E-06-3.67260E-19-7.19346E-19
 -1       888 9.45527E-05-2.72463E-05-2.88456E-05-1.69832E-06-1.20300E-19-7.37021E-19
 -1       889 9.43015E-05-2.68993E-05-2.88866E-05-2.18518E-06-1.04854E-19-3.82591E-19
 -1       890 9.39992E-05-2.65242E-05-2.89178E-05-2.78138E-06 7.09157E-19 1.33713E-19
 -1       891 9.36483E-05-2.61436E-05-2.89306E-05-3.49544E-06-8.11202E-19-4.44614E-19
 -1       892 9.32630E-05-2.57985E-05-2.89133E-05-4.33367E-06-1.51115E-18-3.17607E-19
 -1       893 9.28774E-05-2.55581E-05-2.88510E-05-5.30015E-06 2.10814E-20-9.11661E-19
 -1       894 9.25593E-05-2.55319E-05-2.87258E-05-6.39738E-06 7.01757E-19 2.06993E-19
 -1       895 9.24309E-05-2.58858E-05-2.85191E-05-7.62673E-06-2.22880E-19-4.38751E-19
 -1       896 9.26991E-05-2.68603E-05-2.82162E-05-8.98486E-06 3.25788E-19 3.83517E-19
 -1       897 9.36977E-05-2.87886E-05-2.78176E-05-1.04492E-05 2.00185E-20 1.63219E-18
 -1       898 9.59415E-05-3.20999E-05-2.73621E-05-1.19087E-05-1.89134E-18 1.31305E-18
 -1       899 1.00170E-04-3.72593E-05-2.69597E-05-1.30837E-05-3.06652E-19 7.50729E-19
 -1       900 1.07287E-04-4.45093E-05-2.68827E-05-1.30108E-05-8.54300E-19 5.05085E-20
 -1       901 7.36770E-05-2.57423E-05-2.04812E-05 1.99048E-05-6.47270E-19-1.94182E-18
 -1       902 1.25455E-04-4.91375E-05-3.27001E-05 6.26604E-06 2.98625E-18 2.24724E-18
 -1       903 9.60556E-05-2.69565E-05-2.96136E-05 3.94686E-07 7.11161E-19-1.24032E-18
 -1       904 9.62009E-05-2.69997E-05-2.96572E-05-2.85640E-07-7.74399E-19-1.42460E-18
 -1       905 8.43381E-05-3.78437E-05-1.98024E-05-2.86353E-05 3.23275E-19-1.58823E-18
 -1       906 9.31894E-05-1.97593E-05-3.14708E-05-1.19084E-06-2.82595E-19-2.31232E-18
 -1       907 1.07151E-04-4.96053E-05-2.45994E-05-2.11630E-05 2.18640E-19-1.57495E-19
 -1       908 1.19552E-04-5.37085E-05-2.81723E-05-8.51539E-06-1.85173E-18-6.08529E-19
 -1       909 9.61903E-05-2.78650E-05-2.92822E-05-2.77188E-07 3.89230E-19-9.63881E-19
 -1       910 9.55443E-05-2.89026E-05-2.85608E-05-5.84744E-07 2.74801E-19-1.08504E-18
 -1       911 9.57743E-05-2.55719E-05-3.00836E-05-1.18004E-06-9.61069E-19-1.57773E-18
 -1       912 9.51045E-05-2.37551E-05-3.05813E-05-2.23237E-06-9.94272E-19-1.70287E-18
 -1       913 9.53684E-05-2.47048E-05-3.02853E-05 2.32392E-06 9.00637E-19-1.50631E-18
 -1       914 6.75645E-05-1.89170E-05-2.08021E-05 1.05049E-05-6.60537E-19-2.22907E-18
 -1       915 9.59345E-05-2.90687E-05-2.86568E-05-9.21002E-07 3.98393E-20-7.88978E-19
 -1       916 9.61377E-05-2.87922E-05-2.88624E-05-8.76361E-07 6.76152E-20-1.14277E-18
 -1       917 9.58259E-05-2.90826E-05-2.86043E-05-8.51826E-07 5.20515E-19-8.29623E-19
 -1       918 9.61988E-05-2.84433E-05-2.90381E-05-6.76078E-07 2.21680E-19-9.90734E-19
 -1       919 7.22877E-05-2.70547E-05-1.92421E-05-2.28423E-05 6.76826E-19-8.32620E-19
 -1       920 9.56996E-05-2.55758E-05-3.00542E-05 1.42767E-06 8.03561E-19-1.49366E-18
 -1       921 9.46779E-05-2.25893E-05-3.08956E-05-1.21838E-06-4.94603E-19-1.87885E-18
 -1       922 9.45356E-05-2.22668E-05-3.09722E-05 4.29280E-07 2.00798E-20-2.13752E-18
 -1       923 9.47163E-05-2.26460E-05-3.08867E-05 1.23384E-06 3.17519E-19-1.94568E-18
 -1       924 9.66870E-05-2.87219E-05-2.91279E-05 5.25948E-07-1.11475E-19-1.12963E-18
 -1       925 9.66074E-05-2.90553E-05-2.89509E-05 6.25793E-07 1.02359E-21-1.01391E-18
 -1       926 9.64733E-05-2.92216E-05-2.88221E-05 6.47746E-07-8.60972E-20-8.67382E-19
 -1       927 9.63142E-05-2.92739E-05-2.87316E-05 6.21584E-07-1.46571E-19-9.01267E-19
 -1       928 9.61488E-05-2.92498E-05-2.86710E-05 5.69968E-07-2.26638E-19-7.56255E-19
 -1       929 9.59875E-05-2.91757E-05-2.86336E-05 5.09370E-07-3.88562E-19-3.73604E-19
 -1       930 9.58346E-05-2.90681E-05-2.86142E-05 4.51812E-07-1.22206E-19-3.56588E-19
 -1       931 9.56901E-05-2.89363E-05-2.86088E-05 4.06317E-07-4.52319E-19 1.70942E-20
 -1       932 9.55510E-05-2.87846E-05-2.86142E-05 3.79584E-07-5.56891E-19-5.33473E-19
 -1       933 9.54110E-05-2.86122E-05-2.86281E-05 3.77262E-07-3.37373E-19-8.21678E-19
 -1       934 9.52620E-05-2.84153E-05-2.86486E-05 4.04708E-07 1.83477E-19-2.25386E-19
 -1       935 9.50938E-05-2.81875E-05-2.86742E-05 4.67296E-07 3.63815E-19 6.24257E-19
 -1       936 9.48941E-05-2.79204E-05-2.87030E-05 5.70815E-07 3.21156E-20 7.47055E-19
 -1       937 9.46485E-05-2.76048E-05-2.87331E-05 7.21649E-07-2.41618E-19 7.87088E-19
 -1       938 9.43409E-05-2.72310E-05-2.87614E-05 9.26750E-07-2.00494E-19-5.37401E-19
 -1       939 9.39527E-05-2.67904E-05-2.87839E-05 1.19349E-06-2.43772E-19-9.16643E-19
 -1       940 9.34641E-05-2.62769E-05-2.87946E-05 1.52942E-06-1.58106E-19-5.72124E-20
 -1       941 9.28538E-05-2.56892E-05-2.87849E-05 1.94217E-06 5.06151E-19 1.22622E-19
 -1       942 9.21003E-05-2.50333E-05-2.87431E-05 2.43968E-06-2.26709E-19 3.03501E-19
 -1       943 9.11836E-05-2.43272E-05-2.86529E-05 3.03154E-06-6.92891E-19-1.25054E-18
 -1       944 9.00868E-05-2.36049E-05-2.84925E-05 3.73238E-06 2.81860E-19-1.51672E-18
 -1       945 8.87999E-05-2.29233E-05-2.82332E-05 4.56921E-06 5.88604E-19-1.13095E-18
 -1       946 8.73246E-05-2.23706E-05-2.78379E-05 5.59474E-06 4.19496E-19-9.05264E-19
 -1       947 8.56819E-05-2.20774E-05-2.72596E-05 6.90881E-06 2.57686E-19-9.11645E-19
 -1       948 8.39150E-05-2.22255E-05-2.64389E-05 8.70404E-06-1.25365E-18-3.36197E-19
 -1       949 8.21748E-05-2.31420E-05-2.53008E-05 1.13128E-05-1.66050E-18-9.38426E-19
 -1       950 8.08754E-05-2.53367E-05-2.37729E-05 1.52802E-05-1.59611E-18-1.51488E-18
 -1       951 9.52917E-05-2.84691E-05-2.86383E-05-4.43234E-07-7.22101E-19-1.28701E-18
 -1       952 9.59252E-05-2.91466E-05-2.86194E-05-5.93124E-07 3.65161E-19-1.25113E-18
 -1       953 9.54176E-05-2.86443E-05-2.86171E-05-4.20493E-07 2.83780E-19-1.53138E-18
 -1       954 9.55382E-05-2.87987E-05-2.86026E-05-4.30488E-07-1.71841E-19-4.58124E-19
 -1       955 9.51520E-05-2.82676E-05-2.86647E-05-5.04734E-07-4.80115E-19-1.13951E-18
 -1       956 9.49884E-05-2.80331E-05-2.86951E-05-6.11697E-07 4.16874E-19-1.46547E-18
 -1       957 9.47896E-05-2.77581E-05-2.87278E-05-7.71627E-07-2.46998E-20-1.08810E-18
 -1       958 9.45430E-05-2.74353E-05-2.87604E-05-9.92981E-07-3.67548E-19-1.11917E-18
 -1       959 9.42352E-05-2.70591E-05-2.87898E-05-1.28514E-06 2.08506E-20-1.86751E-18
 -1       960 9.38527E-05-2.66271E-05-2.88110E-05-1.65829E-06-1.85921E-19-1.18429E-18
 -1       961 9.33832E-05-2.61431E-05-2.88172E-05-2.12335E-06 6.46967E-20-1.70902E-18
 -1       962 9.28177E-05-2.56203E-05-2.87989E-05-2.69212E-06-4.36468E-19-7.07404E-19
 -1       963 9.21539E-05-2.50866E-05-2.87432E-05-3.37815E-06-6.90368E-19-9.83227E-19
 -1       964 9.14012E-05-2.45906E-05-2.86332E-05-4.19891E-06-9.64120E-19-1.24115E-18
 -1       965 9.05888E-05-2.42105E-05-2.84479E-05-5.18038E-06-1.01990E-18-2.58758E-19
 -1       966 8.97777E-05-2.40660E-05-2.81622E-05-6.36513E-06 1.87961E-19 1.11767E-18
 -1       967 8.90830E-05-2.43361E-05-2.77486E-05-7.82314E-06-2.09083E-19 1.15252E-18
 -1       968 8.87067E-05-2.52805E-05-2.71817E-05-9.65659E-06-1.07207E-18 2.68030E-18
 -1       969 8.89680E-05-2.72592E-05-2.64468E-05-1.20359E-05-4.85194E-19 3.41013E-18
 -1       970 9.05803E-05-3.08595E-05-2.55898E-05-1.49093E-05-1.11698E-19 1.78744E-18
 -1       971 9.45176E-05-3.68355E-05-2.46901E-05-1.84507E-05-6.87924E-19 1.24252E-18
 -1       972 9.63644E-05-2.71475E-05-2.96644E-05 1.38269E-07 2.43165E-19-1.16962E-18
 -1       973 9.64851E-05-2.72452E-05-2.96743E-05-6.28699E-08-3.58297E-19-8.58809E-19
 -1       974 9.59714E-05-2.58125E-05-3.00681E-05 8.49287E-07 5.01296E-19-1.42003E-18
 -1       975 6.31168E-05-1.73985E-05-1.94900E-05-8.91847E-06 7.65245E-19-6.52053E-19
 -1       976 9.49155E-05-2.32525E-05-3.07121E-05 2.17072E-06 5.81333E-19-1.80501E-18
 -1       977 9.45317E-05-2.22611E-05-3.09731E-05-4.06130E-07-1.62647E-20-2.20708E-18
 -1       978 9.60838E-05-2.59208E-05-3.00677E-05-6.30327E-07-6.78034E-19-1.45544E-18
 -1       979 9.66672E-05-2.81499E-05-2.93646E-05 3.11025E-07-3.12187E-19-8.50140E-19
 -1       980 9.56600E-05-2.89347E-05-2.85966E-05-4.66989E-07 3.74140E-20-1.31051E-19
 -1       981 9.63663E-05-2.91569E-05-2.88040E-05-7.48994E-07 7.16648E-20-1.03247E-18
 -1       982 9.64886E-05-2.89802E-05-2.89321E-05-7.16009E-07 1.42609E-19-9.30584E-19
 -1       983 9.60713E-05-2.92086E-05-2.86554E-05-6.64137E-07 5.89527E-20-1.22220E-18
 -1       984 9.56035E-05-2.44869E-05-3.04815E-05-4.67326E-07-3.65582E-19-1.53131E-18
 -1       985 9.65401E-05-2.80590E-05-2.93491E-05-3.20716E-07 2.45240E-19-9.98531E-19
 -1       986 9.57884E-05-2.90523E-05-2.86011E-05-5.24123E-07 4.34153E-19-7.21512E-19
 -1       987 6.68613E-05-1.67603E-05-2.14526E-05 9.25918E-07-3.75833E-19-1.78160E-18
 -1       988 9.55729E-05-2.43564E-05-3.05211E-05 1.47736E-08 4.64752E-21-2.22602E-18
 -1       989 9.56084E-05-2.45058E-05-3.04764E-05 4.89389E-07-1.34030E-20-1.91602E-18
 -1       990 7.43198E-05-2.33340E-05-2.18090E-05-1.56226E-05 6.19833E-19-2.77508E-19
 -1       991 8.49614E-05-3.15931E-05-2.28299E-05-2.04323E-05-1.24181E-19-6.91131E-19
 -1       992 7.38816E-05-1.94162E-05-2.33291E-05 8.39913E-06-1.23534E-18-2.89239E-18
 -1       993 9.62214E-05-2.92205E-05-2.87147E-05-7.22685E-07 2.97374E-19-1.36234E-18
 -1       994 9.67662E-05-2.92097E-05-2.89528E-05 4.06786E-07-1.36158E-19-1.18101E-18
 -1       995 9.66049E-05-2.93341E-05-2.88303E-05 4.08525E-07-1.77734E-19-9.89075E-19
 -1       996 9.64204E-05-2.93514E-05-2.87439E-05 3.85644E-07 3.27504E-19-4.66893E-19
 -1       997 9.62302E-05-2.92965E-05-2.86859E-05 3.51162E-07 5.74451E-20-1.79508E-19
 -1       998 9.60447E-05-2.91944E-05-2.86501E-05 3.13685E-07-4.13900E-19-3.39143E-19
 -1       999 9.58668E-05-2.90590E-05-2.86319E-05 2.81047E-07-7.92502E-21-4.85406E-19
 -1      1000 9.56955E-05-2.88987E-05-2.86272E-05 2.58520E-07-3.47448E-19-6.58406E-19
 -1      1001 9.55256E-05-2.87154E-05-2.86329E-05 2.49450E-07-4.64314E-19-2.01722E-19
 -1      1002 9.53485E-05-2.85063E-05-2.86467E-05 2.58138E-07 4.57106E-19 9.44765E-20
 -1      1003 9.51538E-05-2.82659E-05-2.86663E-05 2.87872E-07 4.57052E-19-1.28678E-20
 -1      1004 9.49281E-05-2.79860E-05-2.86895E-05 3.42147E-07-2.09676E-19-6.82330E-19
 -1      1005 9.46555E-05-2.76566E-05-2.87139E-05 4.24747E-07 1.05750E-19-1.03041E-18
 -1      1006 9.43181E-05-2.72671E-05-2.87363E-05 5.39696E-07-9.62441E-19-9.35750E-19
 -1      1007 9.38954E-05-2.68070E-05-2.87523E-05 6.91150E-07-3.54379E-19-4.09278E-19
 -1      1008 9.33647E-05-2.62678E-05-2.87561E-05 8.83238E-07 5.88752E-19-5.17231E-19
 -1      1009 9.27014E-05-2.56441E-05-2.87391E-05 1.11990E-06 4.11355E-19-7.47209E-20
 -1      1010 9.18788E-05-2.49364E-05-2.86900E-05 1.40494E-06-3.02526E-19-1.00892E-18
 -1      1011 9.08688E-05-2.41529E-05-2.85930E-05 1.74266E-06-1.04695E-18-1.69114E-18
 -1      1012 8.96413E-05-2.33126E-05-2.84272E-05 2.13970E-06-4.66949E-19-1.09814E-18
 -1      1013 8.81620E-05-2.24468E-05-2.81644E-05 2.60928E-06 9.50126E-19-1.89518E-18
 -1      1014 8.63880E-05-2.16002E-05-2.77673E-05 3.18001E-06 3.55432E-19-9.59467E-19
 -1      1015 8.42583E-05-2.08307E-05-2.71851E-05 3.91389E-06-4.23928E-19-1.71085E-18
 -1      1016 8.16931E-05-2.02180E-05-2.63488E-05 4.93218E-06-5.03449E-19-4.50635E-18
 -1      1017 7.83067E-05-1.96965E-05-2.51141E-05 6.30737E-06-1.05992E-18-3.90645E-18
 -1      1018 9.50037E-05-2.80771E-05-2.86829E-05-4.10371E-07-4.38319E-20-2.20287E-18
 -1      1019 9.53785E-05-2.85541E-05-2.86390E-05-3.16692E-07-1.40327E-19-9.12722E-20
 -1      1020 9.55397E-05-2.87471E-05-2.86253E-05-3.11281E-07 4.96211E-19-5.05857E-19
 -1      1021 9.47647E-05-2.77774E-05-2.87089E-05-5.08561E-07-3.04191E-19-1.06865E-18
 -1      1022 9.44713E-05-2.74251E-05-2.87342E-05-6.48834E-07-2.36546E-19-1.32997E-18
 -1      1023 9.41063E-05-2.70114E-05-2.87551E-05-8.38170E-07 2.70003E-19-1.38095E-18
 -1      1024 9.36514E-05-2.65303E-05-2.87663E-05-1.08455E-06-6.36000E-19-1.26276E-18
 -1      1025 9.30878E-05-2.59796E-05-2.87608E-05-1.39716E-06-1.49564E-19-1.02544E-18
 -1      1026 9.23973E-05-2.53643E-05-2.87287E-05-1.78689E-06-1.71527E-19-1.91869E-19
 -1      1027 9.15643E-05-2.46995E-05-2.86566E-05-2.26746E-06-9.67133E-19-8.37580E-19
 -1      1028 9.05773E-05-2.40147E-05-2.85271E-05-2.85786E-06-1.45181E-18 8.37723E-19
 -1      1029 8.94317E-05-2.33584E-05-2.83175E-05-3.58697E-06-1.30619E-18-2.15450E-21
 -1      1030 8.81328E-05-2.28033E-05-2.79989E-05-4.50215E-06-8.51469E-19-8.34674E-19
 -1      1031 8.66986E-05-2.24521E-05-2.75349E-05-5.68498E-06-2.82710E-19 3.82287E-20
 -1      1032 8.51697E-05-2.24542E-05-2.68796E-05-7.28437E-06-1.19105E-18 4.32332E-19
 -1      1033 8.36603E-05-2.30485E-05-2.59755E-05-9.55374E-06-1.41128E-18 8.32097E-19
 -1      1034 8.22436E-05-2.44102E-05-2.47797E-05-1.27954E-05 5.82092E-19 7.60866E-19
 -1      1035 9.65603E-05-2.86379E-05-2.91096E-05-5.88164E-07 1.32452E-19-1.08225E-18
 -1      1036 9.67340E-05-2.75949E-05-2.96309E-05 6.03128E-08-3.56672E-19-1.49624E-18
 -1      1037 9.62519E-05-2.61968E-05-3.00215E-05 4.02543E-07 2.39002E-19-1.44632E-18
 -1      1038 9.68837E-05-2.84192E-05-2.93421E-05 2.56027E-07-2.22899E-19-1.37953E-18
 -1      1039 9.68738E-05-2.89271E-05-2.91201E-05 3.63089E-07-1.30628E-19-1.23005E-18
 -1      1040 9.63606E-05-2.63158E-05-3.00175E-05-2.20601E-07-2.66752E-19-1.29124E-18
 -1      1041 7.11962E-05-1.86457E-05-2.25051E-05-7.53378E-06-1.00232E-19-1.24242E-18
 -1      1042 9.63557E-05-2.61885E-05-3.00713E-05-2.88958E-08-1.71618E-19-1.70776E-18
 -1      1043 9.52037E-05-2.83331E-05-2.86589E-05-3.48180E-07-3.39860E-19-1.54574E-18
 -1      1044 9.67054E-05-2.91483E-05-2.89530E-05-5.12748E-07 2.68615E-19-9.17260E-19
 -1      1045 9.56978E-05-2.89180E-05-2.86201E-05-3.28389E-07 4.11193E-20-6.96846E-19
 -1      1046 9.65558E-05-2.92892E-05-2.88284E-05-5.20784E-07 2.64656E-19-1.16899E-18
 -1      1047 9.62008E-05-2.92798E-05-2.86804E-05-4.50917E-07 3.92504E-19-1.15313E-18
 -1      1048 9.63608E-05-2.62466E-05-3.00486E-05 1.62791E-07 7.21341E-20-1.76237E-18
 -1      1049 9.66416E-05-2.74578E-05-2.96502E-05-2.60965E-08 3.10633E-19-1.30343E-18
 -1      1050 9.60254E-05-2.91889E-05-2.86441E-05-4.02889E-07-1.98826E-19-1.08571E-18
 -1      1051 9.68066E-05-2.93196E-05-2.89229E-05 1.60481E-07 1.02617E-19-1.16368E-18
 -1      1052 9.66202E-05-2.93933E-05-2.88115E-05 1.57255E-07 3.06911E-19-6.05863E-19
 -1      1053 9.64223E-05-2.93762E-05-2.87341E-05 1.43441E-07 2.83718E-19-9.96392E-19
 -1      1054 9.62190E-05-2.92906E-05-2.86836E-05 1.30365E-07 1.04142E-20-1.08904E-18
 -1      1055 9.60194E-05-2.91626E-05-2.86529E-05 1.18147E-07-4.67024E-19-6.78130E-19
 -1      1056 9.58308E-05-2.90071E-05-2.86386E-05 1.05902E-07-1.37447E-19-7.77334E-19
 -1      1057 9.56440E-05-2.88237E-05-2.86372E-05 9.98325E-08-1.47209E-19-9.18152E-19
 -1      1058 9.54527E-05-2.86141E-05-2.86450E-05 1.01074E-07 2.51072E-19-6.49592E-19
 -1      1059 9.52476E-05-2.83747E-05-2.86598E-05 1.09278E-07 3.87948E-19-2.24839E-19
 -1      1060 9.50155E-05-2.80975E-05-2.86791E-05 1.26195E-07-3.16352E-19-4.42784E-19
 -1      1061 9.47407E-05-2.77731E-05-2.87003E-05 1.53114E-07-3.40916E-19-8.92002E-19
 -1      1062 9.44049E-05-2.73906E-05-2.87203E-05 1.91210E-07-3.83061E-19-9.13010E-19
 -1      1063 9.39874E-05-2.69389E-05-2.87349E-05 2.41482E-07-6.73107E-20-2.87074E-20
 -1      1064 9.34650E-05-2.64079E-05-2.87386E-05 3.04590E-07 1.74276E-19 3.38690E-19
 -1      1065 9.28122E-05-2.57901E-05-2.87236E-05 3.80644E-07-3.97148E-20-8.55636E-19
 -1      1066 9.20013E-05-2.50824E-05-2.86793E-05 4.68973E-07-5.58891E-19-1.49130E-18
 -1      1067 9.10024E-05-2.42881E-05-2.85915E-05 5.68004E-07-7.32680E-19-2.03259E-18
 -1      1068 8.97818E-05-2.34184E-05-2.84411E-05 6.75387E-07-1.76724E-19-1.74385E-18
 -1      1069 8.83000E-05-2.24934E-05-2.82024E-05 7.88646E-07-3.11107E-19-1.24034E-18
 -1      1070 8.65042E-05-2.15404E-05-2.78411E-05 9.06513E-07 4.87798E-19-2.63544E-18
 -1      1071 8.43149E-05-2.05886E-05-2.73108E-05 1.03061E-06-1.31540E-18-2.76813E-18
 -1      1072 8.15920E-05-1.96528E-05-2.65462E-05 1.16720E-06-1.90578E-18-2.72012E-18
 -1      1073 9.48201E-05-2.78636E-05-2.86957E-05-2.50301E-07-2.66097E-20-8.52515E-19
 -1      1074 9.69492E-05-2.91065E-05-2.90752E-05 1.51385E-07 2.06811E-20-1.61092E-18
 -1      1075 9.52923E-05-2.84314E-05-2.86547E-05-1.81033E-07 5.52427E-19-6.16542E-19
 -1      1076 9.41283E-05-2.70811E-05-2.87346E-05-4.07090E-07-3.05389E-19-1.10818E-18
 -1      1077 9.36513E-05-2.65848E-05-2.87429E-05-5.29004E-07-2.60161E-19-8.46057E-19
 -1      1078 9.30572E-05-2.60091E-05-2.87351E-05-6.87503E-07-4.49480E-19-5.86363E-19
 -1      1079 9.23222E-05-2.53521E-05-2.87016E-05-8.90091E-07-1.07731E-18-3.42418E-19
 -1      1080 9.14217E-05-2.46196E-05-2.86297E-05-1.14668E-06-5.56116E-19 5.18228E-19
 -1      1081 9.03309E-05-2.38267E-05-2.85022E-05-1.47116E-06-1.09278E-18-1.78568E-19
 -1      1082 8.90241E-05-2.30003E-05-2.82964E-05-1.88434E-06-5.23984E-19-1.33044E-18
 -1      1083 8.74721E-05-2.21809E-05-2.79826E-05-2.41889E-06-7.05521E-19-1.68969E-18
 -1      1084 8.56366E-05-2.14211E-05-2.75220E-05-3.12740E-06-2.68833E-19-8.52295E-19
 -1      1085 8.34567E-05-2.07811E-05-2.68626E-05-4.09322E-06-7.49460E-19 2.75038E-23
 -1      1086 8.08128E-05-2.03094E-05-2.59331E-05-5.45957E-06-1.20346E-18-2.17344E-19
 -1      1087 7.68441E-05-1.95782E-05-2.45429E-05-6.37488E-06-1.19402E-19-1.61733E-18
 -1      1088 9.63822E-05-2.93230E-05-2.87398E-05-4.96054E-07-3.06155E-20-1.12241E-18
 -1      1089 9.68006E-05-2.88445E-05-2.91241E-05-4.47803E-07-8.83224E-21-8.10379E-19
 -1      1090 9.69140E-05-2.79909E-05-2.95386E-05 6.06706E-08-2.02316E-19-1.31477E-18
 -1      1091 9.58587E-05-2.90662E-05-2.86255E-05-3.60858E-07-2.64074E-19-7.24758E-19
 -1      1092 7.31488E-05-1.77671E-05-2.37377E-05-9.12954E-07 1.20160E-19-1.26387E-18
 -1      1093 9.67965E-05-2.83062E-05-2.93528E-05-2.98271E-07 3.61600E-20-1.14655E-18
 -1      1094 9.70035E-05-2.86887E-05-2.92774E-05 1.21838E-07-1.83407E-19-1.73897E-18
 -1      1095 9.54869E-05-2.86589E-05-2.86406E-05-1.70826E-07-1.51367E-19-3.23737E-19
 -1      1096 9.67102E-05-2.72122E-05-2.97850E-05-3.50921E-09-3.22270E-19-1.28507E-18
 -1      1097 9.45109E-05-2.75043E-05-2.87171E-05-3.15810E-07-1.42497E-19-1.35451E-18
 -1      1098 9.50749E-05-2.81692E-05-2.86739E-05-2.06519E-07 5.10839E-20-7.08181E-19
 -1      1099 7.81146E-05-1.87500E-05-2.54406E-05 1.17850E-06 6.25639E-20-2.81087E-18
 -1      1100 9.56703E-05-2.88580E-05-2.86337E-05-1.72944E-07-3.37689E-20-8.50483E-19
 -1      1101 9.66996E-05-2.72262E-05-2.97758E-05 1.46163E-08 3.44911E-19-1.79006E-18
 -1      1102 9.64223E-05-2.93661E-05-2.87384E-05-2.55232E-07 2.78837E-19-1.25455E-18
 -1      1103 9.69307E-05-2.90378E-05-2.90970E-05-2.53032E-07 3.01985E-19-7.12827E-19
 -1      1104 9.68071E-05-2.92835E-05-2.89387E-05-2.76869E-07 4.54530E-19-7.03778E-19
 -1      1105 9.62353E-05-2.93026E-05-2.86856E-05-2.32147E-07 5.84448E-21-8.93673E-19
 -1      1106 9.65326E-05-2.93988E-05-2.87709E-05-9.25711E-08 1.68366E-19-1.10068E-18
 -1      1107 9.59335E-05-2.90932E-05-2.86458E-05-6.97695E-08-4.28255E-19-1.10258E-18
 -1      1108 9.69649E-05-2.85859E-05-2.93071E-05-1.87585E-07-2.61867E-19-9.74528E-19
 -1      1109 9.60888E-05-2.92124E-05-2.86614E-05-1.44578E-07-2.99291E-20-1.27618E-18
 -1      1110 9.66872E-05-2.93833E-05-2.88449E-05-1.87958E-07 1.80989E-19-7.46899E-19
 -1      1111 9.68937E-05-2.80116E-05-2.95197E-05-9.39082E-08-3.39111E-19-1.19913E-18
 -1      1112 9.68783E-05-2.78133E-05-2.95976E-05-2.26522E-08-3.50613E-19-1.37990E-18
 -1      1113 1.16859E-04 2.57580E-10-4.18570E-05-4.14654E-05-2.54110E-19 1.06963E-17
 -1      1114 8.86541E-05 7.19276E-11-3.72525E-05-2.41663E-05-1.62313E-19 2.32553E-18
 -1      1115 8.40785E-05 4.14609E-11-3.57672E-05-1.78754E-05-1.26102E-19-1.48038E-18
 -1      1116 8.23351E-05 3.20117E-11-3.50728E-05-1.38343E-05-8.30886E-20-3.31852E-18
 -1      1117 8.15314E-05 2.73404E-11-3.47385E-05-1.05312E-05-5.57057E-20-4.31862E-18
 -1      1118 8.11283E-05 2.45997E-11-3.45729E-05-7.63811E-06-3.72364E-20-4.77680E-18
 -1      1119 8.09179E-05 2.29446E-11-3.44891E-05-4.97815E-06-3.31666E-20-4.98710E-18
 -1      1120 8.08155E-05 2.20515E-11-3.44495E-05-2.43144E-06-9.22968E-21-5.04993E-18
 -1      1121 8.07864E-05 2.17813E-11-3.44384E-05 5.24169E-08-1.01164E-21-5.12075E-18
 -1      1122 8.08200E-05 2.20959E-11-3.44510E-05 2.53883E-06 7.90950E-21-5.14379E-18
 -1      1123 8.09269E-05 2.30465E-11-3.44919E-05 5.09403E-06 2.04611E-20-5.12368E-18
 -1      1124 8.11434E-05 2.47641E-11-3.45769E-05 7.77053E-06 3.23328E-20-4.93597E-18
 -1      1125 8.15531E-05 2.76389E-11-3.47446E-05 1.06909E-05 6.01923E-20-4.52581E-18
 -1      1126 8.23588E-05 3.25000E-11-3.50830E-05 1.40402E-05 8.55239E-20-3.71916E-18
 -1      1127 8.40757E-05 4.19277E-11-3.57875E-05 1.81271E-05 1.22079E-19-1.96586E-18
 -1      1128 8.83516E-05 6.67510E-11-3.73226E-05 2.40088E-05 1.49078E-19 1.65111E-18
 -1      1129 1.06623E-04 1.63935E-10-4.06357E-05 3.61917E-05 3.57236E-19 9.67280E-18
 -1      1130 1.30226E-04-2.57578E-05-4.02756E-05-2.61057E-05-1.12073E-18 1.60572E-17
 -1      1131 9.74641E-05-2.88649E-05-3.15800E-05-6.80008E-07-3.66501E-19 1.34153E-17
 -1      1132 9.01685E-05-2.70292E-05-2.78958E-05 3.87164E-07-1.23257E-19 9.47929E-18
 -1      1133 8.82583E-05-2.65751E-05-2.66464E-05 2.50808E-07-9.60952E-20 6.78754E-18
 -1      1134 8.79004E-05-2.64486E-05-2.63903E-05 1.65933E-07-9.48627E-20 4.80670E-18
 -1      1135 8.82603E-05-2.65254E-05-2.64754E-05 1.18152E-07-1.44922E-20 3.79683E-18
 -1      1136 8.89472E-05-2.67101E-05-2.66782E-05 8.75523E-08-3.35873E-20 2.46598E-18
 -1      1137 8.97619E-05-2.69419E-05-2.69208E-05 6.63284E-08-4.19300E-20 1.85108E-18
 -1      1138 9.05940E-05-2.71843E-05-2.71689E-05 5.06342E-08-1.67808E-20 8.86797E-19
 -1      1139 9.13814E-05-2.74163E-05-2.74042E-05 3.85449E-08-6.46700E-20-3.71047E-19
 -1      1140 9.20906E-05-2.76266E-05-2.76169E-05 2.90374E-08 5.92641E-20-1.48735E-18
 -1      1141 9.27066E-05-2.78100E-05-2.78022E-05 2.15017E-08 9.50590E-20-1.55172E-18
 -1      1142 9.32264E-05-2.79653E-05-2.79591E-05 1.55240E-08 1.43531E-20-2.01025E-18
 -1      1143 9.36544E-05-2.80936E-05-2.80886E-05 1.07958E-08-3.59569E-20-1.61536E-18
 -1      1144 9.39996E-05-2.81974E-05-2.81934E-05 7.07308E-09-1.41700E-19-1.83117E-18
 -1      1145 9.42740E-05-2.82801E-05-2.82770E-05 4.15993E-09-7.96040E-20-2.58578E-18
 -1      1146 9.44910E-05-2.83458E-05-2.83434E-05 1.90099E-09 6.98905E-20-2.11470E-18
 -1      1147 9.46656E-05-2.83989E-05-2.83971E-05 1.79797E-10-6.95636E-20-2.03208E-18
 -1      1148 9.48135E-05-2.84441E-05-2.84429E-05-1.08029E-09 2.02517E-19-3.27428E-18
 -1      1149 9.49522E-05-2.84867E-05-2.84861E-05-1.91292E-09-1.16897E-19-4.49855E-18
 -1      1150 9.51009E-05-2.85325E-05-2.85326E-05-2.30353E-09-8.04206E-20-4.38445E-18
 -1      1151 9.52822E-05-2.85882E-05-2.85891E-05-2.18150E-09 1.14051E-19-3.49525E-18
 -1      1152 9.55221E-05-2.86618E-05-2.86636E-05-1.40927E-09 1.01588E-19-2.46162E-18
 -1      1153 9.58522E-05-2.87626E-05-2.87658E-05 2.32539E-10-3.77891E-19-3.27978E-18
 -1      1154 9.63104E-05-2.89022E-05-2.89072E-05 3.06407E-09 1.18213E-19-3.52706E-18
 -1      1155 9.69421E-05-2.90940E-05-2.91013E-05 7.52852E-09 4.24666E-20-2.55411E-18
 -1      1156 9.78010E-05-2.93541E-05-2.93645E-05 1.42137E-08 2.64332E-19-3.13001E-18
 -1      1157 9.89487E-05-2.97008E-05-2.97152E-05 2.38612E-08 1.45648E-19-4.23238E-18
 -1      1158 1.00453E-04-3.01538E-05-3.01729E-05 3.73358E-08-8.52137E-20-3.44515E-18
 -1      1159 1.02379E-04-3.07326E-05-3.07569E-05 5.54936E-08-4.21928E-20-2.20289E-18
 -1      1160 1.04783E-04-3.14523E-05-3.14810E-05 7.88291E-08-2.41098E-20-2.88763E-18
 -1      1161 1.07678E-04-3.23164E-05-3.23461E-05 1.06683E-07-6.87064E-20-2.27476E-18
 -1      1162 1.11003E-04-3.33043E-05-3.33266E-05 1.35690E-07-1.02557E-19-2.91324E-18
 -1      1163 1.14548E-04-3.43518E-05-3.43502E-05 1.57170E-07-1.13667E-19-4.47313E-18
 -1      1164 1.17871E-04-3.53251E-05-3.52738E-05 1.53696E-07 2.70882E-19-4.09368E-18
 -1      1165 1.20204E-04-3.59951E-05-3.58635E-05 9.68904E-08 3.29813E-19-1.85102E-18
 -1      1166 1.20432E-04-3.60325E-05-3.58028E-05-4.76280E-08-1.29311E-19-1.64987E-18
 -1      1167 1.17284E-04-3.50667E-05-3.47662E-05-2.98525E-07 3.45563E-20 1.31396E-19
 -1      1168 1.09878E-04-3.28524E-05-3.25822E-05-6.15895E-07-3.07910E-19 1.19199E-18
 -1      1169 9.86289E-05-2.95339E-05-2.94482E-05-8.64769E-07 5.32043E-21 1.24651E-18
 -1      1170 8.59526E-05-2.58335E-05-2.60430E-05-8.53343E-07-4.32695E-19-1.86093E-18
 -1      1171 7.58116E-05-2.28889E-05-2.33486E-05-4.85961E-07-7.40823E-20-1.52249E-18
 -1      1172 7.16749E-05-2.16698E-05-2.21727E-05 9.02973E-08 3.21277E-20-4.65405E-19
 -1      1173 7.42123E-05-2.23628E-05-2.26739E-05 5.57351E-07-1.21682E-19 1.61524E-18
 -1      1174 8.08710E-05-2.42623E-05-2.42826E-05 6.88512E-07-2.11332E-19 1.28813E-18
 -1      1175 8.78107E-05-2.62830E-05-2.60970E-05 5.14039E-07 4.22931E-19 3.65352E-18
 -1      1176 9.23694E-05-2.76449E-05-2.74277E-05 2.35509E-07-3.61160E-19 4.28906E-18
 -1      1177 9.41668E-05-2.82193E-05-2.80919E-05 5.66644E-08 1.09856E-19 1.35046E-18
 -1      1178 9.46076E-05-2.84194E-05-2.83042E-05 7.96348E-08-1.34665E-19-4.16145E-19
 -1      1179 9.49408E-05-2.84827E-05-2.83225E-05 8.21479E-08 3.82374E-19-2.26118E-19
 -1      1180 1.31060E-04-3.77399E-05-3.86610E-05 1.21746E-05-1.98920E-19 1.64447E-17
 -1      1181 9.65658E-05-2.81915E-05-3.13325E-05 8.01376E-07 1.30761E-19 1.23907E-17
 -1      1182 9.03823E-05-2.69318E-05-2.78766E-05 1.20137E-07 1.25348E-19 8.48715E-18
 -1      1183 8.83448E-05-2.65024E-05-2.66828E-05 8.99590E-09 1.21771E-19 5.88775E-18
 -1      1184 8.79409E-05-2.64112E-05-2.64174E-05-2.52980E-08 2.34307E-20 4.29700E-18
 -1      1185 8.82822E-05-2.65081E-05-2.64912E-05-3.43411E-08 8.95572E-20 2.70317E-18
 -1      1186 8.89602E-05-2.67032E-05-2.66885E-05-3.55413E-08-1.84461E-21 1.83543E-18
 -1      1187 8.97700E-05-2.69406E-05-2.69282E-05-3.38460E-08-3.25982E-20 1.40733E-18
 -1      1188 9.05993E-05-2.71859E-05-2.71745E-05-3.08174E-08-1.58956E-20 6.49304E-19
 -1      1189 9.13848E-05-2.74193E-05-2.74085E-05-2.71582E-08 5.71413E-20 5.10867E-21
 -1      1190 9.20929E-05-2.76303E-05-2.76202E-05-2.32817E-08 1.15252E-19-9.90923E-19
 -1      1191 9.27082E-05-2.78139E-05-2.78047E-05-1.94488E-08 4.44165E-20-1.69495E-18
 -1      1192 9.32275E-05-2.79691E-05-2.79610E-05-1.58153E-08 1.20115E-19-2.32435E-18
 -1      1193 9.36553E-05-2.80971E-05-2.80900E-05-1.24603E-08 1.04741E-20-3.03884E-18
 -1      1194 9.40005E-05-2.82005E-05-2.81945E-05-9.40808E-09 6.03838E-20-3.66666E-18
 -1      1195 9.42750E-05-2.82828E-05-2.82778E-05-6.64348E-09 1.50273E-21-3.54778E-18
 -1      1196 9.44923E-05-2.83481E-05-2.83441E-05-4.12477E-09-7.31221E-20-3.47837E-18
 -1      1197 9.46674E-05-2.84009E-05-2.83978E-05-1.79428E-09-1.14068E-19-1.91101E-18
 -1      1198 9.48161E-05-2.84459E-05-2.84437E-05 4.12085E-10 2.29984E-19-2.98503E-18
 -1      1199 9.49557E-05-2.84884E-05-2.84871E-05 2.55579E-09-8.13947E-20-2.72943E-18
 -1      1200 9.51056E-05-2.85341E-05-2.85338E-05 4.68600E-09 3.19540E-20-2.11145E-18
 -1      1201 9.52880E-05-2.85897E-05-2.85906E-05 6.82794E-09-5.42775E-21-1.40537E-18
 -1      1202 9.55287E-05-2.86631E-05-2.86653E-05 8.96747E-09 4.96991E-20-2.79635E-18
 -1      1203 9.58582E-05-2.87633E-05-2.87673E-05 1.10291E-08-4.09341E-20-5.17650E-18
 -1      1204 9.63128E-05-2.89012E-05-2.89076E-05 1.28447E-08 1.01074E-19-4.65812E-18
 -1      1205 9.69348E-05-2.90894E-05-2.90988E-05 1.41078E-08-9.01739E-20-2.11259E-18
 -1      1206 9.77727E-05-2.93424E-05-2.93556E-05 1.43100E-08 3.97981E-20 1.07472E-19
 -1      1207 9.88794E-05-2.96757E-05-2.96936E-05 1.26564E-08 6.21341E-20 1.74701E-19
 -1      1208 1.00308E-04-3.01048E-05-3.01282E-05 7.96525E-09-3.33114E-20-3.09776E-19
 -1      1209 1.02105E-04-3.06428E-05-3.06720E-05-1.41775E-09-5.56999E-20-2.96058E-19
 -1      1210 1.04294E-04-3.12954E-05-3.13297E-05-1.76081E-08 3.50738E-19-8.76811E-19
 -1      1211 1.06849E-04-3.20542E-05-3.20900E-05-4.28824E-08 2.84220E-19-1.89782E-18
 -1      1212 1.09660E-04-3.28844E-05-3.29137E-05-7.87228E-08-2.96685E-19 7.34431E-19
 -1      1213 1.12476E-04-3.37105E-05-3.37177E-05-1.23664E-07-1.23520E-19 2.14962E-18
 -1      1214 1.14843E-04-3.43987E-05-3.43592E-05-1.69508E-07-2.64066E-19 1.44512E-19
 -1      1215 1.16063E-04-3.47461E-05-3.46298E-05-1.96610E-07 1.80742E-19-2.82150E-18
 -1      1216 1.15232E-04-3.44935E-05-3.42773E-05-1.72130E-07 5.20379E-19-4.72378E-18
 -1      1217 1.11454E-04-3.33842E-05-3.30796E-05-5.96128E-08-1.03914E-19-2.89675E-18
 -1      1218 1.04294E-04-3.12899E-05-3.09729E-05 1.52163E-07 2.44892E-19-9.30995E-19
 -1      1219 9.43888E-05-2.83796E-05-2.81922E-05 4.09869E-07 1.53326E-20-2.19572E-18
 -1      1220 8.37977E-05-2.52291E-05-2.53152E-05 5.88927E-07 1.38136E-19-3.53107E-19
 -1      1221 7.55087E-05-2.27096E-05-2.30968E-05 5.63466E-07-4.76780E-19 3.42948E-18
 -1      1222 7.20048E-05-2.15905E-05-2.21241E-05 3.15136E-07 2.42688E-19 1.20690E-18
 -1      1223 7.37746E-05-2.20756E-05-2.25034E-05-2.79207E-08 2.12420E-21-1.77940E-18
 -1      1224 7.90456E-05-2.36648E-05-2.38193E-05-2.83407E-07-2.76682E-19 1.25414E-19
 -1      1225 8.50506E-05-2.55101E-05-2.54107E-05-3.53855E-07 1.85653E-19-7.82076E-19
 -1      1226 8.97184E-05-2.69519E-05-2.67470E-05-2.74298E-07 2.67231E-19-3.27182E-18
 -1      1227 9.25211E-05-2.78027E-05-2.76343E-05-1.63239E-07 2.08623E-20-4.20515E-18
 -1      1228 9.41084E-05-2.82450E-05-2.81376E-05-1.39457E-07 6.16542E-19-4.31999E-18
 -1      1229 9.50251E-05-2.85279E-05-2.83525E-05-5.64973E-08-3.56052E-20-2.74810E-18
 -1      1230 9.52754E-05-2.87837E-05-2.83961E-05-8.72955E-08-2.58855E-18-3.91601E-19
 -1      1231 9.55344E-05-2.96994E-05-2.83019E-05-2.27798E-07-2.74222E-18-5.14591E-19
 -1      1232 9.55405E-05-2.98982E-05-2.84737E-05-1.52631E-07 4.36188E-18 8.99774E-19
 -1      1233 9.46511E-05-2.70748E-05-2.95190E-05 1.09512E-07 4.41953E-18 3.45331E-19
 -1      1234 9.23378E-05-1.93761E-05-3.18870E-05 5.15404E-07 3.35531E-18-6.79797E-19
 -1      1235 8.85014E-05-6.43389E-06-3.55738E-05 9.41075E-07 5.33610E-18 2.69264E-20
 -1      1236 8.37463E-05 9.88899E-06-4.00013E-05 1.15437E-06 8.13713E-18 1.17306E-19
 -1      1237 7.93554E-05 2.51182E-05-4.39792E-05 9.21681E-07 1.03971E-17-2.45282E-19
 -1      1238 7.70089E-05 3.33222E-05-4.60782E-05 2.31832E-07 8.03204E-18 2.28342E-19
 -1      1239 7.76824E-05 3.09493E-05-4.54825E-05-5.79880E-07 8.59029E-18 1.01697E-19
 -1      1240 8.10621E-05 1.91525E-05-4.24533E-05-1.07764E-06-5.42461E-18-1.96663E-18
 -1      1241 8.57319E-05 3.06069E-06-3.81967E-05-1.08197E-06-1.30792E-17-2.34270E-19
 -1      1242 9.01121E-05-1.18881E-05-3.40555E-05-7.43148E-07-1.14388E-17 6.28657E-21
 -1      1243 9.32460E-05-2.24019E-05-3.09604E-05-3.04567E-07-9.58698E-18-4.80956E-20
 -1      1244 9.49324E-05-2.77970E-05-2.92223E-05-2.24239E-08-3.57077E-18 3.04892E-19
 -1      1245 9.51970E-05-2.90125E-05-2.85614E-05 2.64742E-07-1.93367E-18 6.97810E-21
 -1      1246 9.53206E-05-2.88629E-05-2.83863E-05 1.23779E-07 2.24133E-19 5.62153E-19
 -1      1247 4.21981E-05-1.31010E-04 2.20009E-05-1.54305E-05 6.01393E-19 2.61601E-19
 -1      1248 2.23204E-05-8.17820E-05 1.26597E-05-3.00185E-05-5.54637E-18-2.54406E-18
 -1      1249 8.80388E-06-1.39590E-05-5.10333E-06-2.73052E-06-1.09233E-17-7.35055E-18
 -1      1250 3.51266E-05 2.72447E-05-2.71005E-05 5.65067E-05-6.46625E-18-4.34358E-18
 -1      1251 1.12483E-04 1.79246E-05-4.95824E-05 1.10753E-04-7.55553E-19-9.23266E-19
 -1      1252 2.18721E-04-3.10834E-05-6.86129E-05 1.23429E-04-9.14796E-19-2.17857E-18
 -1      1253 3.08481E-04-8.44855E-05-8.05733E-05 7.43192E-05-8.27657E-19-4.18180E-18
 -1      1254 3.28127E-04-9.73321E-05-8.30477E-05-1.43733E-05 7.85941E-19-9.64919E-18
 -1      1255 2.74827E-04-6.72143E-05-7.52960E-05-8.96013E-05 3.00379E-18-1.23048E-17
 -1      1256 1.74041E-04-1.41591E-05-5.98737E-05-1.14557E-04 5.60312E-18-1.07573E-17
 -1      1257 7.66532E-05 2.12875E-05-3.93724E-05-8.59326E-05 7.84014E-18-8.92603E-18
 -1      1258 1.94648E-05 1.36261E-05-1.75289E-05-2.95852E-05 9.61382E-18-7.88757E-18
 -1      1259 8.99616E-06-3.37371E-05 2.02172E-06 1.72265E-05 7.59450E-18-4.23347E-18
 -1      1260 2.58454E-05-9.18808E-05 1.59894E-05 2.84225E-05 6.27567E-18-1.17865E-18
 -1      1261 4.01731E-05-1.24763E-04 2.22222E-05 6.57123E-06 6.09525E-18 3.24519E-19
 -1      1262 3.31124E-05-1.09458E-04 1.94788E-05-2.29875E-05-1.05583E-18-1.35732E-18
 -1      1263 1.32959E-05-5.53845E-05 7.76727E-06-2.69082E-05-4.40034E-18-2.13918E-18
 -1      1264 1.10023E-05 9.33834E-07-1.04689E-05 1.04141E-05-6.08339E-18-4.98309E-18
 -1      1265 5.11627E-05 2.35580E-05-3.17153E-05 6.69565E-05-6.67462E-18-6.95922E-18
 -1      1266 1.31641E-04 3.73584E-06-5.18756E-05 1.08170E-04-4.66461E-18-7.43356E-18
 -1      1267 2.29063E-04-4.26437E-05-6.86887E-05 1.08745E-04-3.44319E-18-1.09471E-17
 -1      1268 3.08471E-04-8.70954E-05-7.98850E-05 6.13291E-05-1.46833E-18-9.94332E-18
 -1      1269 3.33264E-04-1.00269E-04-8.36003E-05-1.95333E-05-1.53154E-19-7.60021E-18
 -1      1270 2.89438E-04-7.16496E-05-7.84253E-05-9.50687E-05 2.13071E-18-8.62872E-18
 -1      1271 1.95212E-04-1.79038E-05-6.50689E-05-1.26199E-04 2.89262E-18-5.04493E-18
 -1      1272 9.55667E-05 2.36984E-05-4.58077E-05-1.04002E-04 4.71459E-18-6.47811E-18
 -1      1273 2.81716E-05 2.47870E-05-2.40478E-05-4.77902E-05 3.55754E-18-4.46217E-18
 -1      1274 8.19506E-06-1.84016E-05-3.51846E-06 6.85114E-06 3.88958E-18-1.23582E-18
 -1      1275 2.19334E-05-8.17440E-05 1.25183E-05 2.99346E-05 3.35594E-18-1.63435E-18
 -1      1276 4.07189E-05-1.28791E-04 2.18027E-05 1.62311E-05 2.62580E-20 1.75601E-19
 -1      1277 1.04449E-04-2.20207E-05-3.78940E-05-1.72748E-05-4.03823E-19 8.97749E-18
 -1      1278 9.03232E-05-6.68199E-06-3.60183E-05-2.04707E-05-1.26690E-18 5.60259E-19
 -1      1279 9.26603E-05-6.74075E-06-3.72236E-05-2.57591E-05-1.58649E-18 2.53305E-18
 -1      1280 8.59044E-05-4.09725E-06-3.51299E-05-1.64304E-05-1.31793E-18-2.25237E-18
 -1      1281 8.71591E-05-4.09050E-06-3.55999E-05-1.88516E-05-1.47310E-18-1.01125E-18
 -1      1282 9.21379E-05-1.04646E-05-3.50944E-05-1.90345E-05-2.26708E-18 4.93132E-19
 -1      1283 8.40948E-05-3.18932E-06-3.46864E-05-1.28172E-05-1.09263E-18-3.74375E-18
 -1      1284 8.47044E-05-3.15896E-06-3.49107E-05-1.46299E-05-1.25350E-18-3.06967E-18
 -1      1285 8.78631E-05-7.39449E-06-3.45733E-05-1.54082E-05-2.05582E-18-1.81056E-18
 -1      1286 8.31850E-05-2.72813E-06-3.44699E-05-9.68392E-06-8.72629E-19-4.51038E-18
 -1      1287 8.35000E-05-2.71152E-06-3.45793E-05-1.12318E-05-9.63235E-19-4.15816E-18
 -1      1288 8.58630E-05-5.98384E-06-3.43048E-05-1.19582E-05-1.69852E-18-3.09898E-18
 -1      1289 8.26900E-05-2.45620E-06-3.43629E-05-6.91342E-06-6.32436E-19-4.88084E-18
 -1      1290 8.28605E-05-2.44793E-06-3.44177E-05-8.28397E-06-7.36264E-19-4.69853E-18
 -1      1291 8.48187E-05-5.21558E-06-3.41727E-05-8.94050E-06-1.32729E-18-3.74150E-18
 -1      1292 8.24137E-05-2.29104E-06-3.43094E-05-4.29433E-06-4.34779E-19-5.04125E-18
 -1      1293 8.25051E-05-2.28712E-06-3.43369E-05-5.59535E-06-5.02496E-19-4.98092E-18
 -1      1294 8.42302E-05-4.75981E-06-3.41084E-05-6.21594E-06-9.45871E-19-4.11769E-18
 -1      1295 8.22808E-05-2.20176E-06-3.42868E-05-1.78977E-06-1.86303E-19-5.10046E-18
 -1      1296 8.23199E-05-2.20016E-06-3.42979E-05-3.04062E-06-2.85255E-19-5.04476E-18
 -1      1297 8.39073E-05-4.49676E-06-3.40789E-05-3.64436E-06-5.83641E-19-4.20163E-18
 -1      1298 8.22547E-05-2.17426E-06-3.42841E-05 6.69676E-07 2.89422E-20-5.19348E-18
 -1      1299 8.22533E-05-2.17430E-06-3.42837E-05-5.66030E-07-2.36615E-20-5.16132E-18
 -1      1300 8.37657E-05-4.37714E-06-3.40678E-05-1.17047E-06-1.54519E-19-4.30111E-18
 -1      1301 8.23287E-05-2.20452E-06-3.42995E-05 3.14790E-06 2.27395E-19-5.21606E-18
 -1      1302 8.22866E-05-2.20615E-06-3.42876E-05 1.89444E-06 1.53044E-19-5.21504E-18
 -1      1303 8.37707E-05-4.38135E-06-3.40682E-05 1.27353E-06 1.51023E-19-4.40783E-18
 -1      1304 8.25227E-05-2.29759E-06-3.43394E-05 5.71184E-06 4.07377E-19-5.15115E-18
 -1      1305 8.24277E-05-2.30095E-06-3.43113E-05 4.40483E-06 3.48571E-19-5.18890E-18
 -1      1306 8.39231E-05-4.51032E-06-3.40800E-05 3.75161E-06 4.86007E-19-4.37773E-18
 -1      1307 8.28834E-05-2.46342E-06-3.44201E-05 8.39325E-06 6.42276E-19-4.91638E-18
 -1      1308 8.27100E-05-2.47209E-06-3.43649E-05 7.01362E-06 5.56868E-19-5.05533E-18
 -1      1309 8.42565E-05-4.78356E-06-3.41094E-05 6.30977E-06 7.93746E-19-4.30322E-18
 -1      1310 8.35429E-05-2.74090E-06-3.45841E-05 1.13933E-05 9.33735E-19-4.46179E-18
 -1      1311 8.32209E-05-2.75798E-06-3.44730E-05 9.82841E-06 8.27611E-19-4.74217E-18
 -1      1312 8.48607E-05-5.25701E-06-3.41730E-05 9.05254E-06 1.24561E-18-3.99564E-18
 -1      1313 8.47657E-05-3.20331E-06-3.49193E-05 1.48420E-05 1.26573E-18-3.52199E-18
 -1      1314 8.41525E-05-3.24002E-06-3.46923E-05 1.30017E-05 1.10919E-18-4.09906E-18
 -1      1315 8.59455E-05-6.06248E-06-3.43063E-05 1.21209E-05 1.66016E-18-3.46241E-18
 -1      1316 8.72579E-05-4.09074E-06-3.56216E-05 1.90896E-05 1.50242E-18-1.62652E-18
 -1      1317 8.59737E-05-4.15456E-06-3.51380E-05 1.66913E-05 1.32754E-18-2.80513E-18
 -1      1318 8.79924E-05-7.51739E-06-3.45762E-05 1.56486E-05 2.13473E-18-2.32452E-18
 -1      1319 9.34729E-05-6.79335E-06-3.71189E-05 2.50952E-05 1.42005E-18 2.35094E-18
 -1      1320 9.01382E-05-6.43876E-06-3.60409E-05 2.11475E-05 1.33429E-18-7.33213E-20
 -1      1321 9.23667E-05-1.06992E-05-3.50796E-05 1.96748E-05 2.31293E-18-1.05085E-19
 -1      1322 1.23634E-04-2.49255E-05-3.90175E-05 2.83664E-05 7.58200E-19 1.02766E-17
 -1      1323 1.00089E-04-1.44257E-05-3.73567E-05 2.40495E-05 7.53859E-19 4.69680E-18
 -1      1324 1.01687E-04-1.93446E-05-3.54048E-05 2.13972E-05 2.35852E-18 3.50905E-18
 -1      1325 1.02614E-04-2.78080E-05-3.47606E-05 7.32819E-06 1.29030E-18 9.71123E-18
 -1      1326 1.05157E-04-3.02331E-05-3.35284E-05-7.95835E-06-1.27478E-18 9.36691E-18
 -1      1327 9.82715E-05-2.78463E-05-3.07653E-05-4.98725E-06-1.20554E-18 7.85718E-18
 -1      1328 9.55145E-05-2.78527E-05-2.92580E-05-2.48880E-06-9.70514E-19 7.13485E-18
 -1      1329 9.32829E-05-2.75621E-05-2.82189E-05-2.04217E-06-9.39651E-19 5.73616E-18
 -1      1330 9.94950E-05-2.80557E-05-3.09858E-05-7.88459E-06-2.12468E-18 4.33395E-18
 -1      1331 9.15938E-05-2.72043E-05-2.75848E-05-8.37533E-07-7.96701E-19 5.14422E-18
 -1      1332 9.08779E-05-2.71091E-05-2.72827E-05-7.27341E-07-6.91377E-19 4.13267E-18
 -1      1333 9.47293E-05-2.77733E-05-2.88197E-05-3.11906E-06-1.69706E-18 3.27152E-18
 -1      1334 9.01283E-05-2.69264E-05-2.70397E-05-1.73055E-07-5.76571E-19 3.57384E-18
 -1      1335 9.00566E-05-2.69535E-05-2.70051E-05-1.14929E-07-5.45291E-19 2.71641E-18
 -1      1336 9.25310E-05-2.75031E-05-2.78992E-05-1.05177E-06-1.29240E-18 2.19916E-18
 -1      1337 8.97980E-05-2.68863E-05-2.69311E-05 1.55314E-07-3.51666E-19 2.40702E-18
 -1      1338 9.00135E-05-2.69767E-05-2.69930E-05 1.83963E-07-3.42052E-19 1.99928E-18
 -1      1339 9.15738E-05-2.73598E-05-2.75327E-05-6.82379E-08-8.77030E-19 1.23060E-18
 -1      1340 9.00179E-05-2.69800E-05-2.69997E-05 3.14863E-07-3.27278E-19 1.66735E-18
 -1      1341 9.03609E-05-2.70999E-05-2.70990E-05 3.26532E-07-3.12935E-19 1.21390E-18
 -1      1342 9.13221E-05-2.73484E-05-2.74251E-05 4.18723E-07-7.28326E-19 8.30489E-19
 -1      1343 9.05033E-05-2.71418E-05-2.71463E-05 3.80819E-07-1.91832E-19 1.10064E-18
 -1      1344 9.08913E-05-2.72701E-05-2.72584E-05 3.82437E-07-2.10393E-19 7.93061E-19
 -1      1345 9.14559E-05-2.74224E-05-2.74476E-05 6.46385E-07-4.73194E-19 5.34135E-19
 -1      1346 9.10995E-05-2.73305E-05-2.73249E-05 3.92641E-07-2.81894E-19 7.57592E-19
 -1      1347 9.14867E-05-2.74551E-05-2.74370E-05 3.88358E-07-3.53495E-19 1.95582E-19
 -1      1348 9.17890E-05-2.75414E-05-2.75366E-05 7.28071E-07-5.72490E-19 3.19919E-19
 -1      1349 9.17178E-05-2.75218E-05-2.75099E-05 3.73285E-07-4.24847E-19-3.15255E-20
 -1      1350 9.20787E-05-2.76360E-05-2.76149E-05 3.65770E-07-4.59008E-19-5.48881E-19
 -1      1351 9.22106E-05-2.76785E-05-2.76566E-05 7.25376E-07-7.12798E-19-1.54926E-19
 -1      1352 9.23073E-05-2.77017E-05-2.76866E-05 3.37074E-07-2.49991E-19-6.71214E-19
 -1      1353 9.26287E-05-2.78021E-05-2.77805E-05 3.28085E-07 2.77110E-20-9.12698E-19
 -1      1354 9.26540E-05-2.78169E-05-2.77861E-05 6.75072E-07-5.70868E-19-2.87607E-19
 -1      1355 9.28403E-05-2.78629E-05-2.78468E-05 2.93233E-07 1.36009E-19-1.39082E-18
 -1      1356 9.31170E-05-2.79485E-05-2.79278E-05 2.83920E-07-1.07895E-19-1.42798E-18
 -1      1357 9.30800E-05-2.79465E-05-2.79124E-05 6.00340E-07-1.53650E-19-7.78616E-19
 -1      1358 9.33046E-05-2.80022E-05-2.79865E-05 2.47728E-07-2.43412E-19-1.40825E-18
 -1      1359 9.35363E-05-2.80733E-05-2.80545E-05 2.38829E-07-6.08654E-20-1.51855E-18
 -1      1360 9.34673E-05-2.80624E-05-2.80284E-05 5.16114E-07-2.37384E-19-1.23795E-18
 -1      1361 9.36975E-05-2.81194E-05-2.81049E-05 2.04376E-07 1.60848E-19-1.50690E-18
 -1      1362 9.38872E-05-2.81771E-05-2.81608E-05 1.96349E-07 5.20363E-20-1.29242E-18
 -1      1363 9.38061E-05-2.81624E-05-2.81308E-05 4.32020E-07 2.11682E-20-1.00563E-18
 -1      1364 9.40226E-05-2.82157E-05-2.82030E-05 1.65574E-07-2.04054E-19-1.14742E-18
 -1      1365 9.41751E-05-2.82617E-05-2.82481E-05 1.58694E-07-4.28181E-19-1.62611E-18
 -1      1366 9.40947E-05-2.82464E-05-2.82186E-05 3.54194E-07-1.55521E-19-1.04659E-18
 -1      1367 9.42874E-05-2.82936E-05-2.82831E-05 1.32818E-07-3.57718E-19-1.38983E-18
 -1      1368 9.44088E-05-2.83299E-05-2.83192E-05 1.27254E-07-1.06356E-19-1.64813E-18
 -1      1369 9.43359E-05-2.83158E-05-2.82926E-05 2.86512E-07-2.72856E-19-8.14163E-19
 -1      1370 9.45022E-05-2.83563E-05-2.83483E-05 1.07087E-07 3.41121E-20-1.61363E-18
 -1      1371 9.45994E-05-2.83850E-05-2.83773E-05 1.02956E-07 3.67127E-20-1.42941E-18
 -1      1372 9.45366E-05-2.83726E-05-2.83546E-05 2.31471E-07-4.00397E-20-8.20194E-19
 -1      1373 9.46789E-05-2.84075E-05-2.84021E-05 8.91390E-08-6.71819E-20-1.38216E-18
 -1      1374 9.47595E-05-2.84308E-05-2.84262E-05 8.65513E-08-8.84234E-20-1.68620E-18
 -1      1375 9.47054E-05-2.84197E-05-2.84072E-05 1.90860E-07 9.60215E-20-9.24731E-19
 -1      1376 9.48311E-05-2.84510E-05-2.84485E-05 7.97381E-08-3.55246E-19-2.01841E-18
 -1      1377 9.49031E-05-2.84715E-05-2.84702E-05 7.88338E-08-3.52317E-19-2.54063E-18
 -1      1378 9.48532E-05-2.84602E-05-2.84537E-05 1.66265E-07-5.71768E-19-1.38518E-18
 -1      1379 9.49736E-05-2.84914E-05-2.84922E-05 7.98430E-08-2.65381E-19-2.99447E-18
 -1      1380 9.50461E-05-2.85118E-05-2.85141E-05 8.08213E-08-4.64645E-19-3.48962E-18
 -1      1381 9.49924E-05-2.84977E-05-2.84979E-05 1.59478E-07-7.70693E-19-2.13624E-18
 -1      1382 9.51234E-05-2.85335E-05-2.85382E-05 9.07534E-08-2.05000E-19-3.40836E-18
 -1      1383 9.52066E-05-2.85570E-05-2.85634E-05 9.38971E-08-1.47784E-19-3.52261E-18
 -1      1384 9.51372E-05-2.85364E-05-2.85440E-05 1.72820E-07-3.95462E-19-2.10512E-18
 -1      1385 9.52997E-05-2.85831E-05-2.85923E-05 1.14228E-07 1.80643E-19-3.24533E-18
 -1      1386 9.54057E-05-2.86132E-05-2.86244E-05 1.19923E-07 3.48758E-19-2.90013E-18
 -1      1387 9.53041E-05-2.85808E-05-2.85973E-05 2.09391E-07 1.81919E-19-2.38049E-18
 -1      1388 9.55252E-05-2.86468E-05-2.86616E-05 1.52570E-07 5.44037E-19-2.96167E-18
 -1      1389 9.56682E-05-2.86878E-05-2.87046E-05 1.61319E-07 2.87284E-20-2.91893E-18
 -1      1390 9.55123E-05-2.86366E-05-2.86635E-05 2.73267E-07 2.08504E-19-2.43258E-18
 -1      1391 9.58266E-05-2.87324E-05-2.87540E-05 2.08670E-07-4.48121E-20-2.57063E-18
 -1      1392 9.60235E-05-2.87894E-05-2.88131E-05 2.21100E-07 9.53772E-20-2.56245E-18
 -1      1393 9.57843E-05-2.87102E-05-2.87496E-05 3.69609E-07 3.62561E-19-2.02390E-18
 -1      1394 9.62356E-05-2.88493E-05-2.88792E-05 2.85981E-07 2.33228E-19-2.00457E-18
 -1      1395 9.65070E-05-2.89286E-05-2.89604E-05 3.02832E-07 2.61775E-19-1.69397E-18
 -1      1396 9.61467E-05-2.88093E-05-2.88637E-05 5.04662E-07 2.98659E-19-5.02787E-19
 -1      1397 9.67899E-05-2.90086E-05-2.90485E-05 3.88376E-07-1.72702E-19-1.76119E-18
 -1      1398 9.71599E-05-2.91176E-05-2.91590E-05 4.10466E-07-1.61911E-19-1.86398E-18
 -1      1399 9.66304E-05-2.89429E-05-2.90153E-05 6.85558E-07-9.96571E-20-7.59844E-19
 -1      1400 9.75330E-05-2.92234E-05-2.92752E-05 5.19793E-07-1.16642E-19-2.04105E-18
 -1      1401 9.80298E-05-2.93709E-05-2.94232E-05 5.47936E-07 9.54575E-20-2.30010E-18
 -1      1402 9.72711E-05-2.91217E-05-2.92150E-05 9.19776E-07-3.28606E-19-9.47852E-19
 -1      1403 9.85145E-05-2.95087E-05-2.95742E-05 6.83513E-07-1.15807E-19-2.79610E-18
 -1      1404 9.91692E-05-2.97045E-05-2.97686E-05 7.18343E-07-3.81047E-19-3.04997E-18
 -1      1405 9.81088E-05-2.93579E-05-2.94746E-05 1.21402E-06-4.89324E-19-1.80565E-18
 -1      1406 9.97874E-05-2.98809E-05-2.99611E-05 8.80795E-07 5.23633E-19-2.97015E-18
 -1      1407 1.00632E-04-3.01358E-05-3.02114E-05 9.22434E-07 4.56565E-19-2.41245E-18
 -1      1408 9.91856E-05-2.96651E-05-2.98064E-05 1.57204E-06 2.37518E-19-2.16192E-18
 -1      1409 1.01404E-04-3.03570E-05-3.04512E-05 1.10845E-06-1.62693E-19-2.06463E-18
 -1      1410 1.02467E-04-3.06809E-05-3.07653E-05 1.15591E-06-5.61292E-20-2.11164E-18
 -1      1411 1.00543E-04-3.00579E-05-3.02216E-05 1.99081E-06 3.02637E-19-1.61906E-18
 -1      1412 1.03405E-04-3.09520E-05-3.10558E-05 1.35470E-06-1.56443E-19-1.58661E-18
 -1      1413 1.04703E-04-3.13520E-05-3.14376E-05 1.40485E-06-4.89691E-20-1.73406E-18
 -1      1414 1.02213E-04-3.05503E-05-3.07278E-05 2.45389E-06 5.62896E-20-1.61811E-18
 -1      1415 1.05804E-04-3.16745E-05-3.17766E-05 1.59269E-06-6.22784E-21-1.65562E-18
 -1      1416 1.07324E-04-3.21500E-05-3.22212E-05 1.63859E-06-2.48320E-19-1.59594E-18
 -1      1417 1.04210E-04-3.11537E-05-3.13249E-05 2.92087E-06-1.74512E-19-9.87925E-19
 -1      1418 1.08557E-04-3.25194E-05-3.25968E-05 1.77107E-06-1.93928E-19-1.84772E-18
 -1      1419 1.10233E-04-3.30547E-05-3.30825E-05 1.79955E-06-2.13377E-19-2.49700E-18
 -1      1420 1.06506E-04-3.18726E-05-3.19982E-05 3.31177E-06-7.10604E-19-9.08463E-19
 -1      1421 1.11523E-04-3.34551E-05-3.34669E-05 1.80280E-06-6.99965E-19-2.30684E-18
 -1      1422 1.13195E-04-3.40071E-05-3.39447E-05 1.79171E-06-2.75945E-19-3.02722E-18
 -1      1423 1.09006E-04-3.26969E-05-3.27093E-05 3.48739E-06-6.37865E-19-1.62774E-18
 -1      1424 1.14398E-04-3.44051E-05-3.42879E-05 1.55764E-06 4.22904E-19-2.65247E-18
 -1      1425 1.15778E-04-3.48877E-05-3.46704E-05 1.47433E-06 1.01252E-18-2.19240E-18
 -1      1426 1.11509E-04-3.35879E-05-3.33854E-05 3.23245E-06 3.12972E-19-1.13537E-18
 -1      1427 1.16665E-04-3.52227E-05-3.48963E-05 8.71971E-07 5.54026E-19-2.02368E-18
 -1      1428 1.17300E-04-3.54920E-05-3.50531E-05 6.77692E-07 1.26003E-19-1.53275E-18
 -1      1429 1.13663E-04-3.44561E-05-3.39120E-05 2.26092E-06 1.05739E-18-7.54984E-19
 -1      1430 1.17555E-04-3.56672E-05-3.50651E-05-3.97704E-07 1.17049E-19-1.71917E-18
 -1      1431 1.16874E-04-3.55226E-05-3.48395E-05-7.29570E-07 2.25225E-19-1.38073E-18
 -1      1432 1.14939E-04-3.51276E-05-3.41367E-05 2.82985E-07 4.25786E-19-1.84455E-18
 -1      1433 1.16142E-04-3.54043E-05-3.45457E-05-2.24878E-06 8.82330E-19-1.16507E-18
 -1      1434 1.13622E-04-3.46351E-05-3.38087E-05-2.69355E-06 3.55105E-19-8.03887E-20
 -1      1435 1.14661E-04-3.53147E-05-3.38997E-05-2.81385E-06 1.09920E-18-7.70039E-19
 -1      1436 1.11644E-04-3.40836E-05-3.31695E-05-4.34653E-06-5.58790E-19 1.50121E-18
 -1      1437 1.07155E-04-3.25900E-05-3.19143E-05-4.77938E-06-1.24752E-19 7.58412E-19
 -1      1438 1.12167E-04-3.46420E-05-3.30983E-05-6.65731E-06 2.27230E-19-4.81340E-19
 -1      1439 1.04002E-04-3.15570E-05-3.09986E-05-5.91349E-06-1.63252E-20 1.85924E-19
 -1      1440 9.82070E-05-2.95263E-05-2.94285E-05-6.10833E-06-4.65630E-19-5.36278E-20
 -1      1441 1.07184E-04-3.28168E-05-3.17714E-05-1.01097E-05-3.99641E-19 2.87197E-20
 -1      1442 9.45113E-05-2.82010E-05-2.84334E-05-5.96604E-06-5.60326E-19-9.71970E-20
 -1      1443 8.89522E-05-2.61974E-05-2.69553E-05-5.71741E-06-6.19935E-19-7.08649E-19
 -1      1444 1.00351E-04-2.99819E-05-3.01533E-05-1.14270E-05-5.97003E-19 5.02343E-19
 -1      1445 8.58583E-05-2.50550E-05-2.61467E-05-4.02131E-06-3.61286E-19-6.86944E-19
 -1      1446 8.23676E-05-2.38155E-05-2.52084E-05-3.35959E-06-3.12754E-19-8.68129E-19
 -1      1447 9.34825E-05-2.69897E-05-2.86247E-05-9.24704E-06-8.06614E-19 6.76197E-19
 -1      1448 8.09448E-05-2.33554E-05-2.47966E-05-7.76759E-07 8.60069E-19-2.22478E-19
 -1      1449 8.05557E-05-2.33118E-05-2.46413E-05-3.50614E-08 1.08208E-18 8.06614E-19
 -1      1450 8.89241E-05-2.50998E-05-2.75613E-05-3.98435E-06 7.45495E-19 5.65954E-19
 -1      1451 8.10264E-05-2.36359E-05-2.46711E-05 2.14454E-06-1.70598E-20 1.93314E-18
 -1      1452 8.32684E-05-2.45812E-05-2.51936E-05 2.57380E-06 3.87465E-19 2.58488E-18
 -1      1453 8.80651E-05-2.50837E-05-2.71623E-05 1.89056E-06 1.57040E-18 2.53871E-18
 -1      1454 8.48565E-05-2.53037E-05-2.55274E-05 3.40107E-06 7.55778E-20 1.93372E-18
 -1      1455 8.81437E-05-2.65722E-05-2.63549E-05 3.38133E-06 5.16593E-19 2.23071E-18
 -1      1456 9.02939E-05-2.65624E-05-2.73632E-05 5.52659E-06 8.32567E-19 2.53463E-18
 -1      1457 8.97286E-05-2.71807E-05-2.67633E-05 2.88003E-06 1.22090E-18 2.52458E-18
 -1      1458 9.24739E-05-2.81505E-05-2.74993E-05 2.57763E-06 5.02661E-19 3.89201E-18
 -1      1459 9.35619E-05-2.83565E-05-2.78879E-05 5.80202E-06 1.18958E-18 3.10467E-18
 -1      1460 9.33473E-05-2.83822E-05-2.77963E-05 1.49525E-06-6.58158E-19 2.81006E-18
 -1      1461 9.48263E-05-2.88160E-05-2.82335E-05 1.17785E-06-1.10814E-18 1.69363E-18
 -1      1462 9.59477E-05-2.94424E-05-2.84100E-05 3.76013E-06-2.97785E-19 1.13923E-18
 -1      1463 9.49160E-05-2.87044E-05-2.83578E-05 3.29510E-07 2.70472E-19 9.15060E-19
 -1      1464 9.53744E-05-2.87494E-05-2.85242E-05 1.88793E-07 6.38458E-19 1.34044E-18
 -1      1465 9.66987E-05-2.95297E-05-2.87216E-05 1.35849E-06-9.84391E-19 3.59466E-19
 -1      1466 9.50455E-05-2.85111E-05-2.85169E-05-7.22092E-09-6.05880E-19 1.59063E-18
 -1      1467 9.52359E-05-2.85416E-05-2.85491E-05 2.09294E-08-9.31869E-19 9.30274E-19
 -1      1468 9.61993E-05-2.89516E-05-2.87846E-05 7.33640E-08-2.53309E-19 1.39089E-18
 -1      1469 9.50429E-05-2.85911E-05-2.84386E-05 1.82657E-07-8.52777E-19 7.26931E-19
 -1      1470 9.54407E-05-2.86091E-05-2.86230E-05 1.18603E-07-1.03474E-18 1.17709E-18
 -1      1471 9.65885E-05-2.83670E-05-2.97758E-05 2.99499E-06 1.21740E-18 7.15454E-18
 -1      1472 1.02546E-04-2.94015E-05-3.21589E-05 4.46206E-06 1.01300E-18 9.05605E-18
 -1      1473 1.02336E-04-2.67210E-05-3.27086E-05 1.27817E-05 1.99900E-18 5.47586E-18
 -1      1474 9.20434E-05-2.74331E-05-2.77656E-05 1.15125E-06 9.12466E-19 4.89929E-18
 -1      1475 9.39892E-05-2.75880E-05-2.86795E-05 1.47322E-06 8.66753E-19 6.29070E-18
 -1      1476 9.64975E-05-2.80335E-05-2.95370E-05 4.86629E-06 1.82538E-18 3.86297E-18
 -1      1477 9.02121E-05-2.70087E-05-2.70671E-05 3.30990E-07 4.59912E-19 3.28821E-18
 -1      1478 9.08262E-05-2.70259E-05-2.73395E-05 4.93902E-07 6.00507E-19 4.31039E-18
 -1      1479 9.30540E-05-2.75823E-05-2.81023E-05 1.85038E-06 1.35865E-18 2.61351E-18
 -1      1480 8.96961E-05-2.68909E-05-2.68918E-05-5.59161E-08 5.29832E-19 2.31596E-18
 -1      1481 8.97326E-05-2.68283E-05-2.69198E-05 3.32517E-08 3.57795E-19 2.94249E-18
 -1      1482 9.15018E-05-2.73115E-05-2.75189E-05 5.16349E-07 8.64199E-19 1.57356E-18
 -1      1483 8.98292E-05-2.69437E-05-2.69340E-05-2.43153E-07 4.26301E-19 1.32406E-18
 -1      1484 8.95999E-05-2.68360E-05-2.68687E-05-1.92881E-07 3.80872E-19 2.00376E-18
 -1      1485 9.09711E-05-2.72309E-05-2.73230E-05-1.33507E-07 7.81648E-19 1.03265E-18
 -1      1486 9.02826E-05-2.70864E-05-2.70725E-05-3.26172E-07 8.37669E-20 8.30562E-19
 -1      1487 8.99351E-05-2.69590E-05-2.69708E-05-2.98487E-07 1.88635E-19 1.19522E-18
 -1      1488 9.09893E-05-2.72741E-05-2.73123E-05-4.52070E-07 4.51080E-19 5.55657E-19
 -1      1489 9.08771E-05-2.72687E-05-2.72519E-05-3.50448E-07 1.44878E-19 4.06966E-19
 -1      1490 9.04892E-05-2.71382E-05-2.71383E-05-3.36752E-07 1.58648E-19 6.55690E-19
 -1      1491 9.12940E-05-2.73862E-05-2.73940E-05-5.91914E-07 3.43131E-19 5.35881E-20
 -1      1492 9.15099E-05-2.74607E-05-2.74424E-05-3.40917E-07 2.19232E-19-7.65010E-20
 -1      1493 9.11252E-05-2.73371E-05-2.73295E-05-3.36027E-07 6.99095E-20 1.24044E-19
 -1      1494 9.17342E-05-2.75299E-05-2.75197E-05-6.29805E-07 2.63446E-19-3.44473E-19
 -1      1495 9.21218E-05-2.76452E-05-2.76268E-05-3.12640E-07 2.77044E-19-5.93227E-19
 -1      1496 9.17647E-05-2.75338E-05-2.75217E-05-3.13203E-07 2.24921E-19-1.99542E-19
 -1      1497 9.22205E-05-2.76819E-05-2.76617E-05-6.09043E-07 3.93459E-19-3.65669E-19
 -1      1498 9.26803E-05-2.78128E-05-2.77953E-05-2.75159E-07 1.76628E-19-9.80232E-19
 -1      1499 9.23631E-05-2.77160E-05-2.77017E-05-2.78935E-07 2.55548E-19-6.33587E-19
 -1      1500 9.27003E-05-2.78285E-05-2.78036E-05-5.56055E-07 4.30659E-19-6.69264E-19
 -1      1501 9.31699E-05-2.79592E-05-2.79433E-05-2.34616E-07 1.94855E-19-1.56314E-18
 -1      1502 9.28975E-05-2.78775E-05-2.78627E-05-2.40092E-07 1.82635E-19-1.29744E-18
 -1      1503 9.31441E-05-2.79621E-05-2.79359E-05-4.87647E-07 3.02879E-19-7.37586E-19
 -1      1504 9.35862E-05-2.80832E-05-2.80694E-05-1.94943E-07 3.29382E-19-2.03270E-18
 -1      1505 9.33585E-05-2.80159E-05-2.80018E-05-2.01092E-07 2.89225E-19-1.55749E-18
 -1      1506 9.35370E-05-2.80790E-05-2.80537E-05-4.14649E-07 4.58943E-19-1.15899E-18
 -1      1507 9.39316E-05-2.81858E-05-2.81741E-05-1.58611E-07 1.28302E-19-2.56077E-18
 -1      1508 9.37455E-05-2.81315E-05-2.81187E-05-1.64741E-07 2.60090E-19-2.18587E-18
 -1      1509 9.38740E-05-2.81783E-05-2.81553E-05-3.44006E-07 5.89731E-19-1.34888E-18
 -1      1510 9.42132E-05-2.82691E-05-2.82597E-05-1.27149E-07-1.82963E-20-2.65458E-18
 -1      1511 9.40638E-05-2.82261E-05-2.82151E-05-1.32788E-07 1.13820E-21-2.63054E-18
 -1      1512 9.41567E-05-2.82608E-05-2.82409E-05-2.80121E-07 1.70616E-19-1.83747E-18
 -1      1513 9.44408E-05-2.83362E-05-2.83290E-05-1.01511E-07-1.66959E-19-2.60179E-18
 -1      1514 9.43219E-05-2.83023E-05-2.82933E-05-1.06325E-07 2.87989E-20-2.55978E-18
 -1      1515 9.43906E-05-2.83285E-05-2.83121E-05-2.25768E-07-5.49837E-20-2.09650E-18
 -1      1516 9.46262E-05-2.83906E-05-2.83856E-05-8.23567E-08-5.50830E-19-2.32281E-18
 -1      1517 9.45309E-05-2.83636E-05-2.83569E-05-8.60872E-08-2.66770E-19-2.63881E-18
 -1      1518 9.45842E-05-2.83838E-05-2.83714E-05-1.82774E-07-1.41171E-19-1.82588E-18
 -1      1519 9.47827E-05-2.84362E-05-2.84335E-05-7.02735E-08 3.85294E-19-1.94451E-18
 -1      1520 9.47036E-05-2.84138E-05-2.84095E-05-7.26810E-08-2.46633E-20-1.92916E-18
 -1      1521 9.47478E-05-2.84300E-05-2.84218E-05-1.52519E-07-2.97989E-19-1.96473E-18
 -1      1522 9.49250E-05-2.84774E-05-2.84772E-05-6.59442E-08-1.62185E-19-2.64284E-18
 -1      1523 9.48539E-05-2.84570E-05-2.84554E-05-6.67645E-08 3.19319E-19-2.04787E-18
 -1      1524 9.48937E-05-2.84707E-05-2.84671E-05-1.36337E-07 5.02863E-19-1.65220E-18
 -1      1525 9.50697E-05-2.85192E-05-2.85216E-05-7.02822E-08-2.63612E-19-1.67463E-18
 -1      1526 9.49975E-05-2.84979E-05-2.84995E-05-6.91878E-08-3.37848E-19-2.17088E-18
 -1      1527 9.50355E-05-2.85100E-05-2.85114E-05-1.35817E-07-2.52720E-19-1.33743E-18
 -1      1528 9.52355E-05-2.85671E-05-2.85725E-05-8.45317E-08-3.53255E-19-6.78520E-19
 -1      1529 9.51520E-05-2.85417E-05-2.85468E-05-8.10989E-08-2.64912E-19-1.24039E-18
 -1      1530 9.51890E-05-2.85523E-05-2.85594E-05-1.53042E-07-3.42104E-19-3.33381E-19
 -1      1531 9.54441E-05-2.86275E-05-2.86364E-05-1.10336E-07 2.53402E-19-9.79823E-19
 -1      1532 9.53374E-05-2.85943E-05-2.86037E-05-1.04017E-07 1.84433E-19-6.26534E-19
 -1      1533 9.53723E-05-2.86030E-05-2.86168E-05-1.90750E-07-1.53277E-19 1.63978E-19
 -1      1534 9.57211E-05-2.87080E-05-2.87210E-05-1.49759E-07 6.98904E-19-2.43311E-18
 -1      1535 9.55773E-05-2.86626E-05-2.86771E-05-1.39864E-07 6.08484E-19-1.59362E-18
 -1      1536 9.56062E-05-2.86681E-05-2.86899E-05-2.52431E-07 1.16872E-18-3.65822E-19
 -1      1537 9.60964E-05-2.88176E-05-2.88354E-05-2.05251E-07 1.80758E-19-3.76995E-18
 -1      1538 9.58989E-05-2.87546E-05-2.87753E-05-1.90939E-07 2.26549E-19-3.42078E-18
 -1      1539 9.59151E-05-2.87548E-05-2.87860E-05-3.42307E-07 8.56978E-19-1.67140E-18
 -1      1540 9.66048E-05-2.89666E-05-2.89901E-05-2.79503E-07-5.79060E-19-3.03645E-18
 -1      1541 9.63342E-05-2.88798E-05-2.89081E-05-2.59801E-07-5.38712E-19-3.87128E-18
 -1      1542 9.63272E-05-2.88716E-05-2.89139E-05-4.65171E-07-3.33485E-19-2.79787E-18
 -1      1543 9.72863E-05-2.91671E-05-2.91969E-05-3.75136E-07-6.27778E-19-9.89319E-19
 -1      1544 9.69202E-05-2.90494E-05-2.90864E-05-3.48999E-07-5.22593E-19-2.07424E-18
 -1      1545 9.68748E-05-2.90279E-05-2.90831E-05-6.25953E-07-1.22327E-18-1.96844E-18
 -1      1546 9.81848E-05-2.94325E-05-2.94691E-05-4.94113E-07-4.32394E-19 6.79193E-19
 -1      1547 9.76983E-05-2.92758E-05-2.93227E-05-4.60558E-07-5.05930E-19-3.49901E-19
 -1      1548 9.75935E-05-2.92347E-05-2.93043E-05-8.28893E-07-1.01697E-18-7.70330E-19
 -1      1549 9.93457E-05-2.97767E-05-2.98200E-05-6.36694E-07 5.07129E-19-3.46794E-19
 -1      1550 9.87127E-05-2.95728E-05-2.96301E-05-5.95066E-07 5.78894E-19 7.01297E-19
 -1      1551 9.85204E-05-2.95037E-05-2.95884E-05-1.07603E-06 2.49547E-19 5.96319E-20
 -1      1552 1.00810E-04-3.02131E-05-3.02614E-05-7.99685E-07-2.03806E-19-1.29014E-19
 -1      1553 1.00007E-04-2.99542E-05-3.00214E-05-7.50138E-07-3.85650E-19-3.70577E-19
 -1      1554 9.96912E-05-2.98468E-05-2.99453E-05-1.36466E-06-1.58293E-19 1.60473E-22
 -1      1555 1.02605E-04-3.07513E-05-3.08006E-05-9.73624E-07 1.28703E-19 5.68306E-20
 -1      1556 1.01615E-04-3.04323E-05-3.05062E-05-9.17947E-07-2.74475E-20-1.61883E-19
 -1      1557 1.01133E-04-3.02743E-05-3.03821E-05-1.68318E-06-1.35057E-19-1.58503E-19
 -1      1558 1.04727E-04-3.13926E-05-3.14349E-05-1.13856E-06 5.06038E-19-8.14502E-19
 -1      1559 1.03552E-04-3.10143E-05-3.10875E-05-1.08150E-06 5.82045E-19 1.62399E-19
 -1      1560 1.02855E-04-3.07927E-05-3.08991E-05-2.00476E-06 5.90650E-19-3.74739E-19
 -1      1561 1.07115E-04-3.21224E-05-3.21430E-05-1.25833E-06-4.15988E-19 1.89100E-19
 -1      1562 1.05790E-04-3.16968E-05-3.17547E-05-1.20949E-06 4.39895E-21-3.25274E-19
 -1      1563 1.04830E-04-3.14000E-05-3.14844E-05-2.27842E-06-1.17782E-20 1.34923E-19
 -1      1564 1.09612E-04-3.28989E-05-3.28746E-05-1.27409E-06-2.87534E-19 1.54409E-18
 -1      1565 1.08229E-04-3.24570E-05-3.24745E-05-1.25036E-06-6.36849E-19 2.66868E-19
 -1      1566 1.06972E-04-3.20793E-05-3.21070E-05-2.41807E-06-6.83011E-19 7.97343E-19
 -1      1567 1.11923E-04-3.36385E-05-3.35364E-05-1.10054E-06 4.31626E-19 8.59566E-19
 -1      1568 1.10658E-04-3.32398E-05-3.31790E-05-1.12799E-06 8.18166E-19 1.68893E-18
 -1      1569 1.09107E-04-3.27890E-05-3.27071E-05-2.29307E-06 2.54902E-19-8.84488E-20
 -1      1570 1.13571E-04-3.42000E-05-3.39831E-05-6.32328E-07 4.86647E-19-6.49032E-19
 -1      1571 1.12709E-04-3.39417E-05-3.37538E-05-7.45390E-07 3.07407E-19-1.22714E-19
 -1      1572 1.10936E-04-3.34493E-05-3.31891E-05-1.72970E-06 9.21790E-19-2.28348E-19
 -1      1573 1.13897E-04-3.43774E-05-3.40222E-05 2.25185E-07 7.18535E-19-2.75613E-18
 -1      1574 1.13835E-04-3.43952E-05-3.40343E-05-7.93397E-09 5.33366E-19-1.53774E-18
 -1      1575 1.12024E-04-3.39278E-05-3.34220E-05-5.42394E-07 1.36720E-18-5.26987E-19
 -1      1576 1.12159E-04-3.39196E-05-3.34509E-05 1.48566E-06 2.78151E-19-2.88322E-18
 -1      1577 1.13336E-04-3.43664E-05-3.38231E-05 1.11941E-06 1.44088E-19-2.59475E-18
 -1      1578 1.11817E-04-3.40308E-05-3.32564E-05 1.37889E-06 3.30435E-19-8.28399E-19
 -1      1579 1.07786E-04-3.26063E-05-3.21379E-05 2.97566E-06-8.45663E-19-3.45272E-19
 -1      1580 1.10527E-04-3.35922E-05-3.29437E-05 2.51879E-06-1.04799E-18-1.76583E-18
 -1      1581 1.09766E-04-3.35217E-05-3.25705E-05 3.91137E-06-1.22509E-18 1.13033E-19
 -1      1582 1.00817E-04-3.03968E-05-3.01377E-05 4.25349E-06 1.02438E-20-8.47033E-20
 -1      1583 1.05059E-04-3.18902E-05-3.13361E-05 3.83206E-06-8.00711E-20-1.04662E-19
 -1      1584 1.05572E-04-3.22016E-05-3.13412E-05 6.52146E-06-7.41180E-19 1.07398E-18
 -1      1585 9.23184E-05-2.76097E-05-2.77748E-05 4.68735E-06-1.43131E-20 1.03454E-18
 -1      1586 9.73698E-05-2.93429E-05-2.91613E-05 4.48949E-06-2.34299E-20 3.46066E-19
 -1      1587 9.95407E-05-3.00720E-05-2.97117E-05 8.23671E-06-4.31087E-19 2.40653E-18
 -1      1588 8.43860E-05-2.49687E-05-2.56053E-05 3.80867E-06-4.40226E-19 2.93312E-18
 -1      1589 8.89644E-05-2.64592E-05-2.68413E-05 3.97727E-06-3.53841E-19 2.17481E-18
 -1      1590 9.28346E-05-2.75266E-05-2.80024E-05 8.00521E-06-9.24755E-19 4.69820E-18
 -1      1591 7.93590E-05-2.33295E-05-2.42036E-05 1.76289E-06 5.04097E-19 2.67928E-18
 -1      1592 8.20982E-05-2.40910E-05-2.49522E-05 2.26602E-06-3.28596E-19 2.40624E-18
 -1      1593 8.72616E-05-2.53451E-05-2.66169E-05 5.44777E-06-5.08643E-19 3.44353E-18
 -1      1594 7.85312E-05-2.31699E-05-2.38788E-05-5.94670E-07 5.74639E-19 7.81706E-19
 -1      1595 7.87432E-05-2.30127E-05-2.39764E-05 1.40281E-08 8.64437E-19 2.60130E-18
 -1      1596 8.44413E-05-2.43218E-05-2.58702E-05 1.41817E-06 1.16983E-18 2.19125E-18
 -1      1597 8.13383E-05-2.42532E-05-2.45146E-05-2.21897E-06 1.04390E-19 1.31862E-18
 -1      1598 7.94397E-05-2.34170E-05-2.40574E-05-1.78132E-06-8.10505E-20 1.20263E-18
 -1      1599 8.48263E-05-2.47120E-05-2.58419E-05-2.32741E-06 5.92963E-19 3.55738E-18
 -1      1600 8.58169E-05-2.58274E-05-2.56592E-05-2.60671E-06 2.76919E-19 6.01393E-19
 -1      1601 8.30055E-05-2.47973E-05-2.49340E-05-2.47004E-06 4.66306E-19 9.84252E-19
 -1      1602 8.74395E-05-2.60247E-05-2.63535E-05-4.30058E-06 3.67301E-19 2.48493E-18
 -1      1603 8.99334E-05-2.71633E-05-2.68066E-05-2.03388E-06 7.92181E-19-3.58348E-19
 -1      1604 8.73979E-05-2.63458E-05-2.61125E-05-2.12898E-06 5.93777E-19 5.07743E-19
 -1      1605 9.06171E-05-2.74201E-05-2.70841E-05-4.22530E-06 6.14099E-19 7.80117E-19
 -1      1606 9.26505E-05-2.79432E-05-2.76505E-05-1.18623E-06 4.69051E-19-9.25066E-19
 -1      1607 9.09616E-05-2.74720E-05-2.71519E-05-1.34261E-06 5.48980E-19-4.05729E-19
 -1      1608 9.30546E-05-2.83024E-05-2.77429E-05-2.95108E-06 8.58792E-19 1.58269E-18
 -1      1609 9.40752E-05-2.82891E-05-2.81477E-05-6.20959E-07 8.41143E-20-1.49656E-18
 -1      1610 9.31273E-05-2.80490E-05-2.78519E-05-7.09937E-07-3.44670E-20-1.58051E-18
 -1      1611 9.43458E-05-2.85761E-05-2.81860E-05-1.63695E-06 5.19820E-19 1.05824E-18
 -1      1612 9.48522E-05-2.85158E-05-2.83780E-05-4.38769E-07-2.05174E-19-2.28590E-18
 -1      1613 9.42704E-05-2.83268E-05-2.82304E-05-4.30045E-07 4.53202E-19-1.64966E-18
 -1      1614 9.48545E-05-2.85612E-05-2.83965E-05-9.31014E-07 6.80459E-19 1.16932E-19
 -1      1615 9.50666E-05-2.87107E-05-2.83720E-05-2.27361E-07-1.40671E-18-1.97354E-18
 -1      1616 9.56129E-05-2.92597E-05-2.84351E-05-3.19152E-07 4.58615E-19 1.01594E-18
 -1      1617 9.54009E-05-2.89658E-05-2.84468E-05-3.63676E-07-6.07759E-19 3.15096E-19
 -1      1618 9.56497E-05-2.83759E-05-2.88594E-05 7.74582E-07 3.79477E-18 2.27446E-18
 -1      1619 9.57072E-05-2.90180E-05-2.85997E-05 4.73496E-07 2.43118E-18 1.00847E-18
 -1      1620 9.57693E-05-2.88319E-05-2.87472E-05 2.52649E-07 2.38236E-18 2.54597E-18
 -1      1621 9.47560E-05-2.46707E-05-3.00950E-05 2.88847E-06 2.80413E-18-8.32753E-19
 -1      1622 9.54557E-05-2.72206E-05-2.93051E-05 2.38024E-06 4.14291E-18 9.83908E-19
 -1      1623 9.59705E-05-2.76801E-05-2.93771E-05 3.12752E-06 3.62745E-18 1.63950E-18
 -1      1624 9.24949E-05-1.71011E-05-3.23855E-05 5.58134E-06 4.00535E-18 5.60617E-19
 -1      1625 9.40772E-05-2.21122E-05-3.09371E-05 4.98555E-06 2.08651E-18 1.26494E-18
 -1      1626 9.52184E-05-2.42183E-05-3.05908E-05 7.59371E-06 2.64359E-18-4.56379E-19
 -1      1627 8.88386E-05-6.06169E-06-3.55328E-05 7.82070E-06 4.66080E-18 9.32252E-19
 -1      1628 9.12246E-05-1.30727E-05-3.35875E-05 7.40420E-06 3.91986E-18-1.12141E-18
 -1      1629 9.31317E-05-1.77923E-05-3.24428E-05 1.23884E-05 2.72962E-18-4.87441E-20
 -1      1630 8.42779E-05 6.73736E-06-3.89950E-05 8.27893E-06 6.86563E-18 1.21548E-18
 -1      1631 8.70342E-05-9.50236E-07-3.69317E-05 8.35168E-06 5.05477E-18 7.48102E-19
 -1      1632 8.95897E-05-8.67552E-06-3.47352E-05 1.53791E-05 3.63727E-18 1.29888E-18
 -1      1633 8.03437E-05 1.72015E-05-4.17018E-05 5.85493E-06 5.73505E-18-3.16314E-19
 -1      1634 8.24630E-05 1.14904E-05-4.02050E-05 6.60854E-06 5.26156E-18 1.25889E-18
 -1      1635 8.52395E-05 1.37178E-06-3.69908E-05 1.41334E-05 3.09154E-18 7.43563E-19
 -1      1636 7.87774E-05 2.12130E-05-4.27012E-05 9.61354E-07 5.44746E-18-1.95744E-19
 -1      1637 7.93099E-05 1.97893E-05-4.23307E-05 2.15360E-06 5.91203E-18-1.14921E-18
 -1      1638 8.17601E-05 8.94659E-06-3.85602E-05 7.60187E-06 3.57623E-18-1.90688E-19
 -1      1639 8.03940E-05 1.70045E-05-4.16309E-05-4.31295E-06 1.81366E-18-2.01154E-18
 -1      1640 7.90889E-05 2.04655E-05-4.25270E-05-3.26763E-06 4.06015E-18-8.45180E-20
 -1      1641 8.08804E-05 1.08507E-05-3.89481E-05-2.18574E-06 1.82139E-18-1.17282E-18
 -1      1642 8.43509E-05 6.50057E-06-3.89244E-05-7.63407E-06-4.19355E-18-2.60790E-18
 -1      1643 8.18569E-05 1.33117E-05-4.07236E-05-7.19353E-06 2.63374E-19-3.98881E-18
 -1      1644 8.30551E-05 6.24128E-06-3.80320E-05-1.09159E-05-2.78356E-19-5.11666E-18
 -1      1645 8.88065E-05-5.89951E-06-3.56019E-05-8.06610E-06-7.52133E-18-1.14026E-18
 -1      1646 8.61903E-05 1.55388E-06-3.76292E-05-8.25078E-06-5.40555E-18-2.23284E-18
 -1      1647 8.70856E-05-2.65293E-06-3.61472E-05-1.50789E-05-1.89966E-18-4.72421E-18
 -1      1648 9.24412E-05-1.67898E-05-3.25219E-05-6.29771E-06-7.05488E-18 1.86135E-19
 -1      1649 9.03956E-05-1.06051E-05-3.42676E-05-6.83579E-06-7.72272E-18 1.67165E-18
 -1      1650 9.11361E-05-1.24006E-05-3.38564E-05-1.41914E-05-3.01139E-18 3.23348E-19
 -1      1651 9.45713E-05-2.39697E-05-3.03356E-05-3.71462E-06-5.59128E-18 9.75253E-19
 -1      1652 9.34209E-05-2.01515E-05-3.14714E-05-4.26890E-06-6.82428E-18 7.37580E-19
 -1      1653 9.40197E-05-2.03653E-05-3.17302E-05-1.01268E-05-3.63450E-18 7.00615E-19
 -1      1654 9.53863E-05-2.73840E-05-2.91435E-05-1.56556E-06-2.44925E-18 1.65586E-18
 -1      1655 9.49218E-05-2.57941E-05-2.96782E-05-1.85393E-06-4.62460E-18 1.63586E-18
 -1      1656 9.54271E-05-2.53664E-05-3.01560E-05-5.39388E-06-3.54716E-18 2.67358E-18
 -1      1657 9.55849E-05-2.83983E-05-2.87564E-05-4.16183E-07-1.46616E-18 3.41718E-19
 -1      1658 9.56272E-05-2.81571E-05-2.89328E-05-6.70745E-07-1.89150E-18 1.03958E-18
 -1      1659 9.59916E-05-2.76472E-05-2.93363E-05-2.16765E-06-2.07673E-18 2.38338E-18
 -1      1660 9.58636E-05-2.84930E-05-2.89284E-05-6.72637E-07-1.18424E-18 9.01064E-19
 -1      1661 2.51322E-05-8.20189E-05 1.69963E-05-7.59776E-06-2.38355E-18-1.55473E-18
 -1      1662 2.88243E-05-9.23891E-05 1.91734E-05 2.40781E-06-1.23190E-18-2.31240E-19
 -1      1663 2.31801E-05-4.86577E-05 5.85899E-06 2.75925E-06-5.40068E-18-4.25316E-18
 -1      1664 2.91712E-05-7.55709E-05 1.25743E-05-8.25739E-07-2.37593E-18-2.43691E-18
 -1      1665 3.91455E-05-1.55097E-05-1.21261E-05 3.14329E-05-6.96939E-18-4.82301E-18
 -1      1666 3.36636E-05-4.08942E-05-2.13930E-06 1.11687E-05-6.77288E-18-4.48843E-18
 -1      1667 8.05304E-05-1.16912E-06-3.28613E-05 6.61748E-05-4.75270E-18 2.51569E-19
 -1      1668 5.46990E-05-8.83742E-06-2.20262E-05 4.04466E-05-6.80591E-18-3.52874E-18
 -1      1669 1.51485E-04-1.76237E-05-5.32997E-05 8.43250E-05-1.38066E-18-2.59954E-18
 -1      1670 1.07784E-04-5.67280E-06-4.29392E-05 6.97224E-05-2.24887E-18-2.17264E-18
 -1      1671 2.21895E-04-4.37651E-05-6.97863E-05 7.73575E-05-8.88432E-19-2.41320E-18
 -1      1672 1.75707E-04-2.12003E-05-6.21962E-05 8.57513E-05-5.50995E-19-2.02271E-18
 -1      1673 2.68009E-04-6.70224E-05-7.90227E-05 3.13589E-05 5.40831E-19-7.07823E-18
 -1      1674 2.41298E-04-5.08155E-05-7.52946E-05 6.50715E-05 2.19170E-19-4.41219E-18
 -1      1675 2.54230E-04-5.99246E-05-7.75668E-05-2.38387E-05 2.22134E-18-1.01809E-17
 -1      1676 2.62861E-04-6.36648E-05-7.89999E-05 1.30558E-05 1.37452E-18-8.08718E-18
 -1      1677 2.13155E-04-4.15087E-05-6.90442E-05-6.46805E-05 2.22373E-18-9.94925E-18
 -1      1678 2.49305E-04-6.04044E-05-7.47847E-05-4.10743E-05 1.05847E-18-1.09504E-17
 -1      1679 1.45454E-04-1.65339E-05-5.31980E-05-7.31874E-05 4.67562E-18-8.20436E-18
 -1      1680 1.91960E-04-3.58961E-05-6.20579E-05-7.32850E-05 4.00668E-18-8.31617E-18
 -1      1681 8.23012E-05-6.15264E-06-3.33303E-05-5.41719E-05 6.49928E-18-6.65006E-18
 -1      1682 1.19971E-04-1.17232E-05-4.38839E-05-7.31480E-05 5.31683E-18-7.06341E-18
 -1      1683 4.65528E-05-2.23215E-05-1.34625E-05-2.54596E-05 5.75305E-18-5.74119E-18
 -1      1684 6.42656E-05-1.01396E-05-2.34693E-05-4.75533E-05 6.45100E-18-6.82370E-18
 -1      1685 2.74844E-05-4.95012E-05 4.00217E-06-2.17798E-06 5.74204E-18-2.91718E-18
 -1      1686 2.80247E-05-2.47996E-05-4.37718E-06-1.58829E-05 6.18249E-18-4.96234E-18
 -1      1687 2.61731E-05-7.67757E-05 1.52374E-05 2.32396E-06 5.32530E-18-8.30516E-19
 -1      1688 2.04444E-05-5.62505E-05 1.03334E-05 4.08377E-06 5.36172E-18-2.06178E-18
 -1      1689 2.52281E-05-8.51360E-05 1.90987E-05-4.24934E-06 3.01358E-18-1.57485E-18
 -1      1690 2.37366E-05-8.07136E-05 1.81059E-05 6.51578E-06 4.37323E-18-2.68298E-19
 -1      1691 2.09499E-05-6.67238E-05 1.40332E-05-7.22572E-06-1.40438E-18-2.19657E-18
 -1      1692 2.60537E-05-8.26876E-05 1.77156E-05-5.83049E-07 1.88571E-18-2.32151E-18
 -1      1693 2.19228E-05-3.52280E-05 1.69339E-06 4.56566E-06-2.94090E-18-2.43945E-18
 -1      1694 2.56450E-05-6.10407E-05 9.01810E-06-3.47543E-06-2.66815E-18-9.58100E-19
 -1      1695 4.89900E-05-1.26428E-05-1.68650E-05 3.65257E-05-3.49655E-18-4.07338E-18
 -1      1696 3.69528E-05-3.05850E-05-6.90463E-06 1.49321E-05-2.14638E-18-4.02256E-18
 -1      1697 9.69860E-05-8.50349E-06-3.64997E-05 6.46833E-05-3.36441E-18-3.58126E-18
 -1      1698 6.72287E-05-9.38579E-06-2.64703E-05 4.36393E-05-4.78828E-18-3.78454E-18
 -1      1699 1.61599E-04-2.42357E-05-5.48358E-05 7.77052E-05-2.77657E-18-6.88807E-18
 -1      1700 1.19227E-04-9.97174E-06-4.57412E-05 6.90336E-05-3.26192E-18-5.47522E-18
 -1      1701 2.26252E-04-5.01528E-05-6.93798E-05 6.22039E-05-2.48392E-18-8.80745E-18
 -1      1702 1.85122E-04-3.05799E-05-6.25069E-05 7.33031E-05-2.78568E-18-8.32464E-18
 -1      1703 2.67839E-04-6.84459E-05-7.82576E-05 2.12644E-05-1.38765E-18-7.88079E-18
 -1      1704 2.43342E-04-5.56400E-05-7.45057E-05 5.04623E-05-2.44655E-18-9.05139E-18
 -1      1705 2.66836E-04-6.50979E-05-7.94308E-05-3.24277E-05 1.88041E-19-6.93466E-18
 -1      1706 2.71153E-04-6.85012E-05-7.97515E-05 3.87847E-06-6.53909E-19-8.22014E-18
 -1      1707 2.27182E-04-4.37209E-05-7.27759E-05-7.39277E-05 1.60539E-18-5.85723E-18
 -1      1708 2.59571E-04-6.21199E-05-7.73147E-05-4.90244E-05 1.69036E-18-6.76906E-18
 -1      1709 1.60662E-04-1.66649E-05-5.83962E-05-8.33542E-05 3.54907E-18-5.53705E-18
 -1      1710 2.06331E-04-3.72731E-05-6.65167E-05-8.07729E-05 2.60314E-18-5.07966E-18
 -1      1711 9.72010E-05-3.61642E-06-3.97032E-05-6.71797E-05 4.17079E-18-5.60482E-18
 -1      1712 1.36574E-04-1.22592E-05-4.97114E-05-8.40569E-05 3.87856E-18-6.41627E-18
 -1      1713 5.06881E-05-1.20032E-05-1.93210E-05-3.61033E-05 2.58938E-18-4.22754E-18
 -1      1714 7.30448E-05-1.76509E-06-2.98861E-05-6.13977E-05 4.00985E-18-6.17487E-18
 -1      1715 3.18328E-05-4.19226E-05-1.10178E-06-9.15535E-06 5.44473E-18-1.22904E-18
 -1      1716 3.52523E-05-1.76422E-05-1.00202E-05-2.66942E-05 4.05221E-18-2.50214E-18
 -1      1717 2.90428E-05-7.40112E-05 1.21900E-05 4.45842E-07 1.13502E-18-3.50298E-18
 -1      1718 2.37094E-05-4.93455E-05 5.94061E-06-2.60170E-06 4.48250E-18-3.00654E-18
 -1      1719 2.80845E-05-8.92069E-05 1.85283E-05-2.73508E-06 5.17855E-19-1.65171E-19
 -1      1720 2.43580E-05-7.78778E-05 1.61211E-05 5.72534E-06 9.72394E-19-1.38977E-18
 -1      1721 1.25226E-04-3.47451E-05-3.74239E-05 5.14143E-05-4.64471E-18-1.14688E-18
 -1      1722 7.99692E-05-4.02759E-05-1.82886E-05 4.50972E-05-4.73746E-18-1.29681E-18
 -1      1723 9.52398E-05-2.88335E-05-2.84153E-05-5.24092E-07-1.84505E-18-8.46527E-19
 -1      1724 9.52296E-05-2.87355E-05-2.85030E-05-7.07406E-07-3.84407E-20 1.48011E-18
 -1      1725 2.21585E-05-5.84506E-05 1.03772E-05 1.65623E-05-2.39837E-18-2.95191E-18
 -1      1726 4.52695E-05-5.01543E-05-1.37045E-06 3.29377E-05-3.31698E-18-4.48178E-18
 -1      1727 1.43084E-05-5.98205E-05 1.39540E-05-9.94189E-07-4.75980E-19-1.85161E-18
 -1      1728 1.69879E-04-3.33022E-05-5.51807E-05 4.82121E-05-2.01679E-18-2.26835E-18
 -1      1729 2.08317E-04-3.45570E-05-6.89929E-05 3.79410E-05 3.41143E-19-4.64936E-18
 -1      1730 2.18621E-04-3.30346E-05-7.41911E-05 1.45130E-05 1.76945E-18-7.61726E-18
 -1      1731 2.11534E-04-3.33089E-05-7.15455E-05-1.07782E-05 1.35695E-18-8.60501E-18
 -1      1732 1.90326E-04-3.53883E-05-6.22597E-05-3.18211E-05 2.13357E-18-7.30227E-18
 -1      1733 1.49416E-04-3.51246E-05-4.67939E-05-4.24449E-05 3.48596E-18-5.32276E-18
 -1      1734 1.06065E-04-4.01766E-05-2.84973E-05-4.18618E-05 3.99418E-18-4.44353E-18
 -1      1735 6.57656E-05-4.42867E-05-1.08050E-05-3.64562E-05 4.02764E-18-4.72242E-18
 -1      1736 3.28352E-05-5.03072E-05 3.92207E-06-2.30667E-05 4.14961E-18-2.71040E-18
 -1      1737 1.65645E-05-5.67428E-05 1.26718E-05-9.90746E-06 3.98063E-18-1.22227E-18
 -1      1738 1.31524E-05-5.66973E-05 1.40740E-05 3.81912E-06 1.36457E-18-3.44997E-18
 -1      1739 2.48862E-05-5.34292E-05 8.10048E-06 1.62727E-05 3.58295E-19-1.85204E-18
 -1      1740 5.19093E-05-4.61316E-05-5.03096E-06 3.03107E-05-2.46487E-19-2.35983E-18
 -1      1741 9.08142E-05-4.08341E-05-2.21563E-05 3.95671E-05-1.08251E-18-1.88380E-18
 -1      1742 1.32317E-04-3.58960E-05-4.00337E-05 4.32970E-05-1.65341E-18-2.84688E-18
 -1      1743 1.74554E-04-3.54421E-05-5.61608E-05 3.91425E-05-1.10030E-18-5.82081E-18
 -1      1744 2.09215E-04-3.77107E-05-6.83284E-05 2.50227E-05-1.84738E-18-6.30489E-18
 -1      1745 2.25634E-04-3.74015E-05-7.46595E-05 1.94176E-06-8.68632E-19-6.69622E-18
 -1      1746 2.22710E-04-3.58837E-05-7.40711E-05-2.22642E-05 7.40307E-19-6.37413E-18
 -1      1747 1.99726E-04-3.40361E-05-6.60875E-05-4.03978E-05 2.02663E-18-4.94244E-18
 -1      1748 1.61646E-04-3.32665E-05-5.19347E-05-4.95840E-05 3.44679E-18-5.26177E-18
 -1      1749 1.17331E-04-3.46418E-05-3.44702E-05-5.17369E-05 3.29326E-18-5.30412E-18
 -1      1750 7.46957E-05-4.05861E-05-1.62484E-05-4.35636E-05 4.05813E-18-3.63123E-18
 -1      1751 4.33503E-05-5.05264E-05-7.12113E-07-3.14473E-05 3.62361E-18-1.63517E-18
 -1      1752 2.21994E-05-5.60388E-05 9.62571E-06-1.78894E-05 2.12944E-18-3.18993E-18
 -1      1753 1.06059E-04-2.31723E-05-3.56063E-05-1.68523E-05-1.55284E-18 7.42170E-18
 -1      1754 8.91431E-05-1.05810E-05-3.37953E-05-1.33204E-05-2.18520E-18-1.68218E-18
 -1      1755 9.04881E-05-1.16354E-05-3.39364E-05-1.51342E-05-2.46267E-18-9.24219E-19
 -1      1756 9.24945E-05-1.38755E-05-3.38556E-05-1.60005E-05-2.43914E-18 6.10128E-20
 -1      1757 9.42122E-05-1.58220E-05-3.40999E-05-1.76622E-05-2.52315E-18 1.37177E-18
 -1      1758 9.34180E-05-1.63455E-05-3.30468E-05-1.37782E-05-2.52429E-18-3.15573E-19
 -1      1759 8.62052E-05-7.66925E-06-3.37298E-05-7.86507E-06-1.44957E-18-3.08001E-18
 -1      1760 8.66088E-05-7.97005E-06-3.37642E-05-9.25320E-06-1.66798E-18-2.85252E-18
 -1      1761 8.55909E-05-7.03563E-06-3.37260E-05-5.32100E-06-1.00054E-18-3.36926E-18
 -1      1762 8.58252E-05-7.21334E-06-3.37415E-05-6.62534E-06-1.23402E-18-3.25637E-18
 -1      1763 8.75905E-05-9.86736E-06-3.33425E-05-6.93324E-06-1.45329E-18-2.99735E-18
 -1      1764 8.52556E-05-6.67691E-06-3.37290E-05-2.88891E-06-5.69923E-19-3.40432E-18
 -1      1765 8.53766E-05-6.77142E-06-3.37350E-05-4.12858E-06-7.69567E-19-3.39520E-18
 -1      1766 8.69553E-05-9.15533E-06-3.33754E-05-4.53805E-06-9.43560E-19-3.22666E-18
 -1      1767 8.51248E-05-6.52875E-06-3.37324E-05-5.17560E-07-6.29538E-20-3.46172E-18
 -1      1768 8.51604E-05-6.55726E-06-3.37338E-05-1.72718E-06-2.98735E-19-3.43097E-18
 -1      1769 8.66225E-05-8.77577E-06-3.33953E-05-2.21744E-06-4.38080E-19-3.31464E-18
 -1      1770 8.51702E-05-6.56621E-06-3.37340E-05 1.84505E-06 2.97038E-19-3.57924E-18
 -1      1771 8.51284E-05-6.53328E-06-3.37323E-05 6.34451E-07 1.44525E-19-3.53937E-18
 -1      1772 8.65242E-05-8.66216E-06-3.34018E-05 6.53622E-08 2.69064E-20-3.36467E-18
 -1      1773 8.54018E-05-6.79645E-06-3.37352E-05 4.25084E-06 6.71374E-19-3.53059E-18
 -1      1774 8.52735E-05-6.69574E-06-3.37290E-05 3.00808E-06 4.91230E-19-3.56868E-18
 -1      1775 8.66401E-05-8.79519E-06-3.33946E-05 2.34930E-06 4.39404E-19-3.45179E-18
 -1      1776 8.58597E-05-7.24984E-06-3.37409E-05 6.71190E-06 1.09756E-18-3.41284E-18
 -1      1777 8.56211E-05-7.06754E-06-3.37259E-05 5.42474E-06 8.88902E-19-3.48673E-18
 -1      1778 8.69888E-05-9.19224E-06-3.33739E-05 4.65246E-06 8.80154E-19-3.39083E-18
 -1      1779 8.66744E-05-8.03990E-06-3.37620E-05 9.37340E-06 1.61734E-18-3.09923E-18
 -1      1780 8.62528E-05-7.72320E-06-3.37281E-05 7.95264E-06 1.31800E-18-3.31238E-18
 -1      1781 8.76421E-05-9.92507E-06-3.33400E-05 7.02745E-06 1.36463E-18-3.21970E-18
 -1      1782 8.80885E-05-9.38801E-06-3.38179E-05 1.22521E-05 2.09681E-18-2.51683E-18
 -1      1783 8.73476E-05-8.82994E-06-3.37456E-05 1.06592E-05 1.80173E-18-2.84161E-18
 -1      1784 8.87648E-05-1.11603E-05-3.32899E-05 9.50149E-06 1.85141E-18-2.79790E-18
 -1      1785 9.06346E-05-1.18409E-05-3.39286E-05 1.53004E-05 2.54737E-18-1.39713E-18
 -1      1786 8.92531E-05-1.07412E-05-3.37885E-05 1.35107E-05 2.28904E-18-2.09254E-18
 -1      1787 9.06641E-05-1.32233E-05-3.32075E-05 1.19732E-05 2.36348E-18-2.08501E-18
 -1      1788 9.58816E-05-1.70362E-05-3.39948E-05 1.76884E-05 2.66093E-18 9.43806E-19
 -1      1789 9.28610E-05-1.43445E-05-3.38283E-05 1.61914E-05 2.55317E-18-4.49139E-19
 -1      1790 9.39738E-05-1.68882E-05-3.30254E-05 1.38920E-05 2.70312E-18-7.48010E-19
 -1      1791 1.01932E-04-2.50967E-05-3.33613E-05 1.44208E-05 2.31023E-18 3.90069E-18
 -1      1792 9.80828E-05-1.96185E-05-3.36271E-05 1.69623E-05 2.49364E-18 1.94680E-18
 -1      1793 9.73354E-05-2.18562E-05-3.24294E-05 1.32462E-05 2.73476E-18 9.82717E-19
 -1      1794 9.87598E-05-2.61377E-05-3.13446E-05 9.43317E-06 2.38400E-18 3.16391E-18
 -1      1795 1.00162E-04-1.95647E-05-3.42202E-05-1.88677E-05-2.14276E-18 3.58168E-18
 -1      1796 9.53196E-05-2.72882E-05-2.91878E-05 4.06512E-06 1.88978E-18 2.18864E-18
 -1      1797 9.77495E-05-2.73933E-05-3.01968E-05 6.39917E-06 2.02875E-18 2.80762E-18
 -1      1798 9.75836E-05-2.56171E-05-3.08349E-05 8.75781E-06 2.37397E-18 1.55605E-18
 -1      1799 9.98203E-05-2.25416E-05-3.28384E-05-1.44656E-05-2.32712E-18 2.65990E-18
 -1      1800 9.69690E-05-2.69824E-05-2.98791E-05-5.70287E-06-1.95051E-18 2.33222E-18
 -1      1801 9.51602E-05-2.70374E-05-2.91687E-05-3.89659E-06-1.80691E-18 1.76487E-18
 -1      1802 9.43404E-05-2.72377E-05-2.86613E-05-2.42084E-06-1.68687E-18 1.59789E-18
 -1      1803 9.35688E-05-2.73180E-05-2.83564E-05-1.56732E-06-1.44261E-18 1.14994E-18
 -1      1804 9.55128E-05-2.65466E-05-2.95772E-05-4.47318E-06-2.06722E-18 7.08255E-19
 -1      1805 9.30443E-05-2.73690E-05-2.80875E-05-7.40374E-07-1.16217E-18 9.78561E-19
 -1      1806 9.27432E-05-2.74329E-05-2.79655E-05-3.02362E-07-1.01826E-18 5.68266E-19
 -1      1807 9.43023E-05-2.72222E-05-2.87688E-05-1.82799E-06-1.64130E-18 5.22623E-19
 -1      1808 9.24672E-05-2.74603E-05-2.78293E-05 1.52207E-07-8.41780E-19 5.10600E-19
 -1      1809 9.24357E-05-2.75365E-05-2.77994E-05 3.75668E-07-6.24642E-19 3.63577E-19
 -1      1810 9.36014E-05-2.75297E-05-2.83327E-05-3.62653E-07-1.06259E-18 1.52396E-19
 -1      1811 9.23316E-05-2.75677E-05-2.77410E-05 6.14515E-07-6.27847E-19 2.37954E-19
 -1      1812 9.24458E-05-2.76526E-05-2.77599E-05 7.17669E-07-5.99463E-19 4.23401E-20
 -1      1813 9.32793E-05-2.77144E-05-2.81115E-05 4.37959E-07-8.39669E-19-1.68617E-19
 -1      1814 9.24501E-05-2.76904E-05-2.77476E-05 8.27600E-07-6.23886E-19-2.71563E-21
 -1      1815 9.26365E-05-2.77768E-05-2.77919E-05 8.60300E-07-6.00262E-19-1.15797E-19
 -1      1816 9.32141E-05-2.78570E-05-2.80184E-05 8.47038E-07-7.49108E-19-4.62498E-19
 -1      1817 9.27038E-05-2.78180E-05-2.78063E-05 8.92350E-07-7.29128E-19-5.43999E-20
 -1      1818 9.29181E-05-2.79002E-05-2.78619E-05 8.83699E-07-7.31823E-19-2.31989E-19
 -1      1819 9.33065E-05-2.79801E-05-2.80021E-05 1.01976E-06-7.00178E-19-3.52469E-19
 -1      1820 9.30175E-05-2.79413E-05-2.78905E-05 8.69571E-07-7.26897E-19-1.17337E-19
 -1      1821 9.32333E-05-2.80158E-05-2.79489E-05 8.37737E-07-4.52277E-19-1.64970E-19
 -1      1822 9.34856E-05-2.80886E-05-2.80301E-05 1.04979E-06-7.02912E-19-3.01949E-19
 -1      1823 9.33449E-05-2.80542E-05-2.79837E-05 7.97870E-07-3.03371E-19-3.25666E-19
 -1      1824 9.35469E-05-2.81192E-05-2.80399E-05 7.54574E-07-2.54939E-19-6.10740E-19
 -1      1825 9.37037E-05-2.81830E-05-2.80816E-05 9.96487E-07-6.64334E-19-2.16738E-19
 -1      1826 9.36583E-05-2.81536E-05-2.80761E-05 7.02374E-07-2.72188E-19-7.23819E-19
 -1      1827 9.38388E-05-2.82086E-05-2.81272E-05 6.55254E-07-5.44229E-20-8.41533E-19
 -1      1828 9.39303E-05-2.82632E-05-2.81433E-05 8.98479E-07-3.18625E-19-3.54306E-19
 -1      1829 9.39429E-05-2.82382E-05-2.81620E-05 5.99539E-07-5.78356E-20-8.96762E-19
 -1      1830 9.40988E-05-2.82836E-05-2.82068E-05 5.53550E-07 6.45887E-20-7.68520E-19
 -1      1831 9.41473E-05-2.83297E-05-2.82072E-05 7.81224E-07-2.22647E-19-7.43838E-19
 -1      1832 9.41923E-05-2.83084E-05-2.82387E-05 5.00093E-07 1.70246E-20-8.55597E-19
 -1      1833 9.43241E-05-2.83450E-05-2.82771E-05 4.58422E-07-7.20867E-20-7.23247E-19
 -1      1834 9.43448E-05-2.83834E-05-2.82686E-05 6.61496E-07-5.92882E-21-5.99022E-19
 -1      1835 9.44061E-05-2.83654E-05-2.83056E-05 4.10996E-07-2.90383E-19-6.16922E-19
 -1      1836 9.45160E-05-2.83944E-05-2.83381E-05 3.75698E-07-7.23361E-20-3.96627E-19
 -1      1837 9.45194E-05-2.84257E-05-2.83252E-05 5.50313E-07-3.29897E-20-1.42446E-20
 -1      1838 9.45876E-05-2.84110E-05-2.83634E-05 3.36825E-07 3.44304E-21-8.47276E-19
 -1      1839 9.46795E-05-2.84339E-05-2.83910E-05 3.09296E-07 1.84886E-19-8.92384E-19
 -1      1840 9.46713E-05-2.84584E-05-2.83764E-05 4.54970E-07-2.02562E-19-7.40221E-19
 -1      1841 9.47428E-05-2.84475E-05-2.84138E-05 2.80801E-07 3.95047E-20-1.01678E-18
 -1      1842 9.48216E-05-2.84659E-05-2.84379E-05 2.62135E-07-1.62756E-19-1.11197E-18
 -1      1843 9.48040E-05-2.84832E-05-2.84228E-05 3.80521E-07 3.64411E-20-1.31573E-18
 -1      1844 9.48798E-05-2.84775E-05-2.84593E-05 2.45574E-07-6.19287E-19-1.38032E-18
 -1      1845 9.49512E-05-2.84930E-05-2.84814E-05 2.36838E-07-7.34013E-19-1.62482E-18
 -1      1846 9.49230E-05-2.85020E-05-2.84660E-05 3.30892E-07-6.43744E-19-1.49409E-18
 -1      1847 9.50084E-05-2.85035E-05-2.85027E-05 2.33828E-07-7.31012E-19-1.71471E-18
 -1      1848 9.50791E-05-2.85180E-05-2.85249E-05 2.36285E-07-7.24393E-19-1.81104E-18
 -1      1849 9.50355E-05-2.85169E-05-2.85082E-05 3.09740E-07-8.60388E-19-1.41284E-18
 -1      1850 9.51401E-05-2.85288E-05-2.85478E-05 2.48758E-07-5.25830E-19-1.63664E-18
 -1      1851 9.52177E-05-2.85443E-05-2.85723E-05 2.64034E-07-7.48187E-20-1.43881E-18
 -1      1852 9.51504E-05-2.85300E-05-2.85522E-05 3.21110E-07-5.38417E-19-1.58615E-18
 -1      1853 9.52882E-05-2.85566E-05-2.85988E-05 2.94437E-07 2.19112E-20-1.80543E-18
 -1      1854 9.53815E-05-2.85755E-05-2.86282E-05 3.24655E-07 2.53199E-19-1.64746E-18
 -1      1855 9.52779E-05-2.85436E-05-2.86015E-05 3.69949E-07-2.92754E-19-1.56471E-18
 -1      1856 9.54681E-05-2.85911E-05-2.86606E-05 3.76086E-07 2.69557E-19-1.93820E-18
 -1      1857 9.55876E-05-2.86161E-05-2.86979E-05 4.23954E-07 2.81742E-20-2.15217E-18
 -1      1858 9.54304E-05-2.85603E-05-2.86603E-05 4.62474E-07 1.98470E-19-1.78023E-18
 -1      1859 9.56979E-05-2.86368E-05-2.87389E-05 5.00226E-07 4.78218E-19-1.43327E-18
 -1      1860 9.58558E-05-2.86713E-05-2.87878E-05 5.69063E-07 9.71405E-19-1.06867E-18
 -1      1861 9.56218E-05-2.85834E-05-2.87331E-05 6.06399E-07 4.65379E-19-1.10336E-18
 -1      1862 9.59987E-05-2.86993E-05-2.88404E-05 6.74679E-07 7.08569E-19-1.06583E-18
 -1      1863 9.62092E-05-2.87473E-05-2.89050E-05 7.68357E-07 8.83652E-20-8.16915E-19
 -1      1864 9.58688E-05-2.86165E-05-2.88254E-05 8.10970E-07 1.02027E-18-9.68186E-19
 -1      1865 9.63950E-05-2.87855E-05-2.89726E-05 9.08324E-07-4.15664E-19-5.16985E-19
 -1      1866 9.66747E-05-2.88520E-05-2.90577E-05 1.03105E-06-1.26105E-19-3.03981E-19
 -1      1867 9.61902E-05-2.86647E-05-2.89434E-05 1.08671E-06 1.99842E-19-9.03867E-19
 -1      1868 9.69145E-05-2.89036E-05-2.91441E-05 1.21045E-06-2.49510E-19-6.04377E-19
 -1      1869 9.72823E-05-2.89944E-05-2.92548E-05 1.36630E-06-5.53208E-19-1.03878E-18
 -1      1870 9.66075E-05-2.87339E-05-2.90934E-05 1.44474E-06-2.70617E-19-2.60306E-19
 -1      1871 9.75886E-05-2.90638E-05-2.93638E-05 1.58943E-06-6.60922E-19-9.93575E-19
 -1      1872 9.80649E-05-2.91861E-05-2.95059E-05 1.78143E-06-5.78954E-19-1.30868E-18
 -1      1873 9.71447E-05-2.88324E-05-2.92823E-05 1.89532E-06-7.22475E-19-4.89105E-19
 -1      1874 9.84506E-05-2.92783E-05-2.96409E-05 2.05029E-06-1.26095E-19-9.42929E-19
 -1      1875 9.90563E-05-2.94407E-05-2.98198E-05 2.27874E-06 3.72651E-19-6.76103E-19
 -1      1876 9.78276E-05-2.89710E-05-2.95164E-05 2.44524E-06-5.46179E-20 2.43722E-19
 -1      1877 9.95344E-05-2.95626E-05-2.99833E-05 2.59039E-06 5.75237E-19-8.93322E-19
 -1      1878 1.00288E-04-2.97750E-05-3.02034E-05 2.85003E-06 5.98892E-19-5.94029E-19
 -1      1879 9.86832E-05-2.91649E-05-2.98008E-05 3.09325E-06 3.61686E-19-2.03591E-19
 -1      1880 1.00870E-04-2.99360E-05-3.03962E-05 3.19231E-06 6.04570E-20-6.21633E-19
 -1      1881 1.01784E-04-3.02096E-05-3.06590E-05 3.46766E-06-1.36407E-19-6.38834E-19
 -1      1882 9.97382E-05-2.94359E-05-3.01375E-05 3.82250E-06 8.87962E-20-3.01946E-19
 -1      1883 1.02480E-04-3.04225E-05-3.08784E-05 3.81245E-06-2.35905E-19-6.10596E-19
 -1      1884 1.03552E-04-3.07695E-05-3.11803E-05 4.07065E-06-2.88393E-19-7.35231E-19
 -1      1885 1.01017E-04-2.98156E-05-3.05232E-05 4.58873E-06 1.79652E-19-3.30423E-19
 -1      1886 1.04367E-04-3.10520E-05-3.14185E-05 4.36428E-06-5.28999E-19-6.60672E-19
 -1      1887 1.05568E-04-3.14832E-05-3.17473E-05 4.54535E-06-7.52059E-19-2.88347E-19
 -1      1888 1.02538E-04-3.03499E-05-3.09466E-05 5.30265E-06-4.79247E-19-4.08339E-19
 -1      1889 1.06502E-04-3.18587E-05-3.19894E-05 4.69625E-06-1.00954E-18-2.34342E-19
 -1      1890 1.07762E-04-3.23783E-05-3.23192E-05 4.70236E-06-6.15433E-19-6.69133E-19
 -1      1891 1.04314E-04-3.11018E-05-3.13851E-05 5.80663E-06-8.40521E-19 1.71786E-19
 -1      1892 1.08801E-04-3.28721E-05-3.25424E-05 4.56948E-06-1.37471E-19-3.44868E-19
 -1      1893 1.09987E-04-3.34657E-05-3.28302E-05 4.25950E-06 1.06912E-18-3.03661E-19
 -1      1894 1.06335E-04-3.21466E-05-3.18032E-05 5.84916E-06-1.24716E-19 7.55034E-20
 -1      1895 1.11094E-04-3.40899E-05-3.30049E-05 3.65167E-06 1.15803E-18-1.09654E-19
 -1      1896 1.11990E-04-3.46994E-05-3.31898E-05 2.85600E-06 6.65229E-19-3.38333E-19
 -1      1897 1.08559E-04-3.35455E-05-3.21550E-05 5.07104E-06 8.55761E-19-2.50632E-19
 -1      1898 1.13072E-04-3.54163E-05-3.32862E-05 1.56474E-06 4.34846E-19-6.74265E-19
 -1      1899 1.13376E-04-3.59001E-05-3.32976E-05 1.46217E-07 9.55308E-19 1.13788E-19
 -1      1900 1.10855E-04-3.52709E-05-3.23944E-05 3.03634E-06 6.28181E-19-2.62261E-19
 -1      1901 1.14232E-04-3.65564E-05-3.32992E-05-1.95049E-06 1.09490E-18-5.78216E-20
 -1      1902 1.13592E-04-3.66496E-05-3.30801E-05-3.96286E-06 1.10058E-18-4.15412E-19
 -1      1903 1.12918E-04-3.70629E-05-3.24977E-05-6.30233E-07 1.16777E-18 9.59954E-19
 -1      1904 1.13860E-04-3.69130E-05-3.29997E-05-6.69112E-06 1.38489E-18-4.33170E-19
 -1      1905 1.12003E-04-3.62570E-05-3.25416E-05-8.91281E-06 1.82013E-19 5.56726E-19
 -1      1906 1.14148E-04-3.82495E-05-3.24919E-05-5.91965E-06 1.32986E-18 8.72887E-19
 -1      1907 1.11229E-04-3.56740E-05-3.24244E-05-1.15468E-05-5.43789E-19 3.93784E-19
 -1      1908 1.08195E-04-3.40276E-05-3.17972E-05-1.31322E-05-3.79226E-19 3.85268E-19
 -1      1909 1.13652E-04-3.77550E-05-3.24651E-05-1.19229E-05 1.51288E-19 1.09857E-18
 -1      1910 1.06182E-04-3.23748E-05-3.16951E-05-1.43783E-05 2.46837E-19 7.68603E-19
 -1      1911 1.02578E-04-3.00121E-05-3.10374E-05-1.42898E-05 2.79683E-19 1.13725E-18
 -1      1912 1.10686E-04-3.46662E-05-3.25195E-05-1.64499E-05 1.13274E-19 6.09999E-19
 -1      1913 9.99318E-05-2.78351E-05-3.09503E-05-1.29505E-05-6.15184E-19 1.38228E-18
 -1      1914 9.68962E-05-2.57570E-05-3.04080E-05-1.07394E-05-3.98608E-19 1.01357E-18
 -1      1915 1.05651E-04-2.94765E-05-3.26552E-05-1.65987E-05 1.10227E-19 1.53844E-18
 -1      1916 9.50266E-05-2.43782E-05-3.02675E-05-6.96745E-06-4.06841E-20 1.62981E-18
 -1      1917 9.36403E-05-2.37279E-05-2.99351E-05-3.51480E-06 1.52786E-18 1.98144E-18
 -1      1918 1.00761E-04-2.47425E-05-3.26856E-05-1.09317E-05 6.08805E-19 2.35533E-18
 -1      1919 9.35530E-05-2.40858E-05-2.96899E-05 7.51893E-07 2.09281E-18 1.94844E-18
 -1      1920 9.40404E-05-2.50880E-05-2.95909E-05 3.64303E-06 1.71507E-18 2.42690E-18
 -1      1921 9.87251E-05-2.34808E-05-3.23759E-05-1.78394E-06 1.54006E-18 3.07092E-18
 -1      1922 9.52409E-05-2.66896E-05-2.92839E-05 6.11381E-06 1.23693E-18 2.38339E-18
 -1      1923 9.68102E-05-2.84161E-05-2.93723E-05 7.14231E-06 1.90803E-18 3.35285E-18
 -1      1924 1.00112E-04-2.62754E-05-3.16960E-05 5.80021E-06 1.77978E-18 1.88229E-18
 -1      1925 9.78746E-05-2.98821E-05-2.91022E-05 7.03996E-06 1.32235E-18 3.45605E-18
 -1      1926 9.93982E-05-3.11646E-05-2.92758E-05 6.30018E-06 1.13034E-18 2.96964E-18
 -1      1927 1.02754E-04-3.06223E-05-3.08778E-05 8.23945E-06 1.92468E-18 2.74519E-18
 -1      1928 9.93929E-05-3.15910E-05-2.90949E-05 4.59545E-06-8.15858E-19 2.56693E-18
 -1      1929 1.00171E-04-3.19207E-05-2.92430E-05 3.13744E-06-1.63559E-18 1.72237E-18
 -1      1930 1.04027E-04-3.34219E-05-3.01998E-05 5.95845E-06-3.63093E-19 2.76378E-18
 -1      1931 9.91370E-05-3.13414E-05-2.91331E-05 1.32978E-06-1.36086E-18 5.82388E-19
 -1      1932 9.90836E-05-3.08785E-05-2.91949E-05 2.00844E-07-1.15017E-18 7.06384E-19
 -1      1933 1.02978E-04-3.34518E-05-2.97661E-05 1.93416E-06-2.43622E-18 2.61914E-18
 -1      1934 9.76299E-05-2.99296E-05-2.90899E-05-5.30733E-07-6.23046E-19 6.62605E-19
 -1      1935 9.72194E-05-2.92878E-05-2.90566E-05-8.81132E-07-6.67882E-19 8.28335E-19
 -1      1936 9.75301E-05-2.92358E-05-2.92478E-05-1.55772E-06-1.15322E-18 1.60594E-18
 -1      1937 1.00308E-04-3.13634E-05-2.94968E-05-8.88122E-07-1.16601E-18 2.13480E-18
 -1      1938 9.32208E-05-2.73654E-05-2.81959E-05 1.60358E-06 1.35236E-18 1.39644E-18
 -1      1939 9.44149E-05-2.74705E-05-2.86323E-05 2.67459E-06 1.58260E-18 1.94974E-18
 -1      1940 9.52378E-05-2.70494E-05-2.92290E-05 4.05193E-06 1.91490E-18 1.07802E-18
 -1      1941 9.21695E-05-2.73521E-05-2.77543E-05 3.46949E-07 1.07183E-18 6.46452E-19
 -1      1942 9.26634E-05-2.73842E-05-2.79266E-05 8.95012E-07 1.12464E-18 1.11350E-18
 -1      1943 9.36339E-05-2.73707E-05-2.84054E-05 1.58335E-06 1.47646E-18 5.99547E-19
 -1      1944 9.17945E-05-2.73900E-05-2.75863E-05-3.05901E-07 7.35283E-19 2.86936E-19
 -1      1945 9.19092E-05-2.73631E-05-2.76332E-05-1.36334E-08 8.11266E-19 4.64922E-19
 -1      1946 9.28032E-05-2.74861E-05-2.80031E-05 2.70956E-07 1.09410E-18 6.05033E-20
 -1      1947 9.18180E-05-2.74805E-05-2.75631E-05-6.30744E-07 4.62600E-19-1.72080E-19
 -1      1948 9.17301E-05-2.74185E-05-2.75467E-05-4.78311E-07 6.09399E-19 1.97903E-19
 -1      1949 9.24893E-05-2.75792E-05-2.78287E-05-4.21641E-07 6.96824E-19-3.13453E-19
 -1      1950 9.20613E-05-2.76023E-05-2.76183E-05-7.67324E-07 3.54079E-19-3.83971E-19
 -1      1951 9.18709E-05-2.75237E-05-2.75698E-05-6.96601E-07 3.08921E-19-2.98364E-19
 -1      1952 9.24920E-05-2.76843E-05-2.77829E-05-7.65325E-07 5.65627E-19-7.64417E-19
 -1      1953 9.24124E-05-2.77362E-05-2.77133E-05-7.93068E-07 4.13153E-19-6.02184E-19
 -1      1954 9.21781E-05-2.76530E-05-2.76503E-05-7.71498E-07 3.73968E-19-4.75999E-19
 -1      1955 9.26753E-05-2.77993E-05-2.78100E-05-9.04556E-07 4.86684E-19-7.85207E-19
 -1      1956 9.28016E-05-2.78686E-05-2.78247E-05-7.54618E-07 4.85398E-19-8.49833E-19
 -1      1957 9.25582E-05-2.77883E-05-2.77575E-05-7.62344E-07 4.94883E-19-5.92905E-19
 -1      1958 9.29499E-05-2.79157E-05-2.78759E-05-9.22637E-07 6.08349E-19-7.87449E-19
 -1      1959 9.31865E-05-2.79915E-05-2.79380E-05-6.81508E-07 2.16605E-19-8.66797E-19
 -1      1960 9.29544E-05-2.79184E-05-2.78730E-05-7.05778E-07 4.31660E-19-7.86449E-19
 -1      1961 9.32590E-05-2.80261E-05-2.79597E-05-8.70857E-07 5.63604E-19-8.69698E-19
 -1      1962 9.35432E-05-2.81006E-05-2.80449E-05-5.92876E-07 3.69597E-19-7.39844E-19
 -1      1963 9.33333E-05-2.80365E-05-2.79855E-05-6.25305E-07 4.25577E-19-7.20543E-19
 -1      1964 9.35674E-05-2.81259E-05-2.80481E-05-7.82056E-07 4.62942E-19-8.57393E-19
 -1      1965 9.38598E-05-2.81941E-05-2.81410E-05-5.01167E-07 6.64575E-19-7.87704E-19
 -1      1966 9.36768E-05-2.81398E-05-2.80888E-05-5.36205E-07 4.08773E-19-8.47987E-19
 -1      1967 9.38551E-05-2.82128E-05-2.81335E-05-6.77629E-07 6.65734E-19-8.96416E-19
 -1      1968 9.41322E-05-2.82723E-05-2.82247E-05-4.14414E-07 7.21865E-19-1.43511E-18
 -1      1969 9.39771E-05-2.82273E-05-2.81800E-05-4.48399E-07 9.14923E-19-9.70364E-19
 -1      1970 9.41119E-05-2.82861E-05-2.82117E-05-5.71544E-07 9.89324E-19-6.90055E-19
 -1      1971 9.43622E-05-2.83364E-05-2.82960E-05-3.37759E-07-3.51568E-20-1.56928E-18
 -1      1972 9.42331E-05-2.82998E-05-2.82586E-05-3.68274E-07 1.53593E-19-1.43064E-18
 -1      1973 9.43348E-05-2.83466E-05-2.82810E-05-4.72872E-07 3.55362E-19-8.40962E-19
 -1      1974 9.45549E-05-2.83883E-05-2.83565E-05-2.74544E-07-3.52386E-19-1.23899E-18
 -1      1975 9.44481E-05-2.83589E-05-2.83252E-05-2.99954E-07-2.71039E-19-1.61485E-18
 -1      1976 9.45252E-05-2.83956E-05-2.83414E-05-3.87515E-07-1.95173E-19-9.63952E-19
 -1      1977 9.47179E-05-2.84307E-05-2.84083E-05-2.27115E-07-3.40708E-19-1.24853E-18
 -1      1978 9.46288E-05-2.84068E-05-2.83818E-05-2.46213E-07-6.10942E-20-1.06048E-18
 -1      1979 9.46877E-05-2.84351E-05-2.83941E-05-3.19450E-07-3.63621E-19-7.49335E-19
 -1      1980 9.48610E-05-2.84664E-05-2.84542E-05-1.97436E-07 1.38399E-19-1.75223E-18
 -1      1981 9.47838E-05-2.84463E-05-2.84310E-05-2.09176E-07-2.52971E-19-1.70834E-18
 -1      1982 9.48294E-05-2.84674E-05-2.84410E-05-2.71656E-07 1.46618E-19-1.05761E-18
 -1      1983 9.49953E-05-2.84987E-05-2.84977E-05-1.87568E-07 3.10137E-19-1.21204E-18
 -1      1984 9.49236E-05-2.84805E-05-2.84758E-05-1.90849E-07 4.40406E-19-1.42974E-18
 -1      1985 9.49591E-05-2.84951E-05-2.84848E-05-2.46826E-07 2.66088E-19-1.27381E-18
 -1      1986 9.51338E-05-2.85312E-05-2.85429E-05-2.00033E-07-5.92867E-19-1.21992E-18
 -1      1987 9.50602E-05-2.85127E-05-2.85201E-05-1.93527E-07-2.04609E-19-1.08483E-18
 -1      1988 9.50872E-05-2.85210E-05-2.85288E-05-2.47905E-07 5.30815E-20-9.99691E-19
 -1      1989 9.52917E-05-2.85681E-05-2.85944E-05-2.38082E-07-4.08084E-19-2.10227E-19
 -1      1990 9.52077E-05-2.85469E-05-2.85682E-05-2.20106E-07-4.25644E-19-7.07756E-19
 -1      1991 9.52260E-05-2.85483E-05-2.85769E-05-2.78501E-07-6.32082E-19-7.93845E-19
 -1      1992 9.54862E-05-2.86142E-05-2.86574E-05-3.05861E-07 4.27219E-19-3.38796E-20
 -1      1993 9.53820E-05-2.85874E-05-2.86249E-05-2.74285E-07-3.83926E-20-3.42318E-21
 -1      1994 9.53895E-05-2.85808E-05-2.86334E-05-3.43160E-07-2.42505E-19-3.08532E-19
 -1      1995 9.57375E-05-2.86752E-05-2.87383E-05-4.08459E-07 1.80144E-18-6.33261E-19
 -1      1996 9.56017E-05-2.86394E-05-2.86962E-05-3.60672E-07 1.32921E-18-1.65742E-20
 -1      1997 9.55942E-05-2.86228E-05-2.87035E-05-4.47503E-07 1.19059E-18-3.10111E-19
 -1      1998 9.60690E-05-2.87577E-05-2.88441E-05-5.51780E-07 5.49560E-19-1.14608E-18
 -1      1999 9.58883E-05-2.87090E-05-2.87884E-05-4.84727E-07 1.24592E-18-6.13432E-19
 -1      2000 9.58589E-05-2.86794E-05-2.87932E-05-5.98184E-07 1.50179E-18 2.79977E-20
 -1      2001 9.65073E-05-2.88698E-05-2.89829E-05-7.42152E-07-1.28432E-18-1.53621E-18
 -1      2002 9.62666E-05-2.88035E-05-2.89093E-05-6.52494E-07-3.69624E-19-1.51488E-18
 -1      2003 9.62052E-05-2.87569E-05-2.89091E-05-8.02569E-07 5.22803E-20-1.33184E-20
 -1      2004 9.70824E-05-2.90207E-05-2.91636E-05-9.85502E-07-1.46799E-18-1.02043E-18
 -1      2005 9.67645E-05-2.89313E-05-2.90670E-05-8.69979E-07-1.52661E-18-1.76126E-18
 -1      2006 9.66576E-05-2.88627E-05-2.90584E-05-1.06801E-06-1.42859E-18-2.25619E-19
 -1      2007 9.78263E-05-2.92210E-05-2.93954E-05-1.28587E-06-6.97150E-19-8.93919E-19
 -1      2008 9.74129E-05-2.91024E-05-2.92708E-05-1.14198E-06-1.00232E-18-1.15276E-18
 -1      2009 9.72428E-05-2.90058E-05-2.92487E-05-1.40047E-06-1.13469E-18-1.10774E-18
 -1      2010 9.87713E-05-2.94829E-05-2.96872E-05-1.64282E-06 7.84990E-19 3.91182E-19
 -1      2011 9.82440E-05-2.93283E-05-2.95295E-05-1.47004E-06 6.63812E-21-4.61044E-19
 -1      2012 9.79886E-05-2.91969E-05-2.94874E-05-1.80212E-06-1.56254E-20-1.40789E-18
 -1      2013 9.99458E-05-2.98192E-05-3.00460E-05-2.04731E-06-2.46222E-19-1.42460E-19
 -1      2014 9.92888E-05-2.96218E-05-2.98511E-05-1.84909E-06 1.59588E-19 1.63053E-19
 -1      2015 9.89219E-05-2.94489E-05-2.97804E-05-2.26741E-06 3.23175E-19 1.64886E-19
 -1      2016 1.01368E-04-3.02429E-05-3.04743E-05-2.47517E-06 9.75411E-21-2.67930E-19
 -1      2017 1.00572E-04-2.99966E-05-3.02406E-05-2.26215E-06-1.94973E-19 1.03770E-19
 -1      2018 1.00065E-04-2.97769E-05-3.01307E-05-2.77687E-06-1.38725E-19 2.42886E-19
 -1      2019 1.03034E-04-3.07652E-05-3.09668E-05-2.87767E-06 4.39081E-19 9.83653E-19
 -1      2020 1.02104E-04-3.04664E-05-3.06971E-05-2.67244E-06 4.76788E-19 5.46851E-19
 -1      2021 1.01430E-04-3.01987E-05-3.05358E-05-3.28800E-06 4.17104E-19 1.54016E-18
 -1      2022 1.04906E-04-3.13922E-05-3.15048E-05-3.16902E-06-4.83099E-19 1.38435E-18
 -1      2023 1.03870E-04-3.10423E-05-3.12097E-05-3.01254E-06-1.58371E-19 8.99135E-19
 -1      2024 1.03010E-04-3.07337E-05-3.09840E-05-3.72267E-06 7.50526E-20 2.03311E-18
 -1      2025 1.06886E-04-3.21183E-05-3.20501E-05-3.21305E-06-1.70138E-19-7.10978E-19
 -1      2026 1.05811E-04-3.17286E-05-3.17518E-05-3.17181E-06-1.62737E-19 3.45345E-19
 -1      2027 1.04767E-04-3.13998E-05-3.14507E-05-3.95227E-06 3.03680E-19 4.53669E-19
 -1      2028 1.08796E-04-3.29135E-05-3.25390E-05-2.81574E-06 8.43092E-19-9.29658E-19
 -1      2029 1.07802E-04-3.25130E-05-3.22750E-05-2.98617E-06 2.66519E-19-1.05535E-18
 -1      2030 1.06612E-04-3.22056E-05-3.18943E-05-3.78516E-06 5.28697E-19-1.58077E-18
 -1      2031 1.10351E-04-3.37021E-05-3.28798E-05-1.74015E-06 9.75911E-19-2.56823E-19
 -1      2032 1.09621E-04-3.33482E-05-3.27048E-05-2.24199E-06 7.75429E-19 1.53988E-20
 -1      2033 1.08388E-04-3.31297E-05-3.22545E-05-2.96892E-06 4.11936E-19-3.71546E-19
 -1      2034 1.11146E-04-3.43300E-05-3.29610E-05 2.27994E-07 1.01601E-18 4.03619E-19
 -1      2035 1.10929E-04-3.41211E-05-3.29427E-05-7.15800E-07 1.30250E-18 6.07022E-19
 -1      2036 1.09838E-04-3.40825E-05-3.24578E-05-1.23140E-06 9.10779E-19 7.05995E-19
 -1      2037 1.10689E-04-3.45335E-05-3.26779E-05 3.13072E-06-1.04631E-18 1.38820E-18
 -1      2038 1.11262E-04-3.46139E-05-3.28809E-05 1.71932E-06 2.49239E-19 8.70672E-19
 -1      2039 1.10580E-04-3.48495E-05-3.24324E-05 1.60361E-06 2.61687E-19 2.58222E-18
 -1      2040 1.08509E-04-3.39534E-05-3.19784E-05 6.60628E-06-1.71299E-18 7.26258E-19
 -1      2041 1.10088E-04-3.44864E-05-3.24356E-05 4.90365E-06-1.63323E-18 6.03855E-19
 -1      2042 1.10129E-04-3.50487E-05-3.21357E-05 5.40052E-06-8.88478E-19 2.87533E-18
 -1      2043 1.04405E-04-3.22764E-05-3.09154E-05 9.69239E-06-5.65586E-19 2.34599E-18
 -1      2044 1.07002E-04-3.33552E-05-3.15940E-05 8.17251E-06-1.19356E-18 1.34820E-18
 -1      2045 1.08018E-04-3.41931E-05-3.15850E-05 9.44371E-06-1.65565E-18 1.92147E-18
 -1      2046 9.88046E-05-2.95528E-05-2.96665E-05 1.09512E-05-1.35756E-18 3.35774E-18
 -1      2047 1.02067E-04-3.10533E-05-3.04521E-05 1.03137E-05-1.08808E-18 2.10238E-18
 -1      2048 1.04116E-04-3.19809E-05-3.08684E-05 1.23313E-05-9.28573E-19 2.26896E-18
 -1      2049 9.30276E-05-2.65330E-05-2.84944E-05 9.22452E-06-6.76614E-19 4.22595E-18
 -1      2050 9.61983E-05-2.80187E-05-2.92143E-05 1.00014E-05-1.19101E-18 3.79525E-18
 -1      2051 9.90676E-05-2.87656E-05-3.01170E-05 1.24031E-05-1.74543E-18 3.38472E-18
 -1      2052 8.89182E-05-2.44739E-05-2.76448E-05 4.70588E-06 5.11184E-19 2.95133E-18
 -1      2053 9.10868E-05-2.53632E-05-2.81348E-05 6.76234E-06 1.59838E-19 4.08644E-18
 -1      2054 9.44119E-05-2.57580E-05-2.94566E-05 8.87262E-06 4.59886E-19 3.59804E-18
 -1      2055 8.77889E-05-2.43090E-05-2.72488E-05-7.22490E-07 7.71197E-19 4.29988E-18
 -1      2056 8.83757E-05-2.42687E-05-2.74237E-05 1.70652E-06 9.16331E-19 3.49847E-18
 -1      2057 9.18471E-05-2.43880E-05-2.89608E-05 2.85684E-06 8.48621E-19 4.49441E-18
 -1      2058 8.94143E-05-2.58129E-05-2.72850E-05-4.61447E-06 2.94946E-19 3.39728E-18
 -1      2059 8.85559E-05-2.50418E-05-2.71724E-05-2.90587E-06 5.30137E-19 3.77438E-18
 -1      2060 9.20167E-05-2.52091E-05-2.86557E-05-2.93606E-06 6.98207E-19 5.19268E-18
 -1      2061 9.22415E-05-2.78005E-05-2.76082E-05-5.69627E-06 1.36482E-18 2.53749E-18
 -1      2062 9.06644E-05-2.68515E-05-2.73244E-05-5.21816E-06 8.31138E-19 3.36794E-18
 -1      2063 9.39823E-05-2.73735E-05-2.85337E-05-6.06764E-06 6.74665E-19 3.69889E-18
 -1      2064 9.46080E-05-2.91392E-05-2.80177E-05-4.49466E-06 3.46365E-19 2.22343E-18
 -1      2065 9.31205E-05-2.84832E-05-2.77062E-05-4.97317E-06 7.95086E-19 2.35595E-18
 -1      2066 9.60758E-05-2.93901E-05-2.85573E-05-6.01331E-06 7.17118E-19 3.47029E-18
 -1      2067 9.57075E-05-2.94396E-05-2.83486E-05-2.55098E-06 1.03944E-19 3.12678E-18
 -1      2068 9.47564E-05-2.92146E-05-2.81098E-05-3.30195E-06 5.64653E-19 2.52385E-18
 -1      2069 9.71029E-05-3.02393E-05-2.86441E-05-4.04608E-06 5.58138E-19 2.91358E-18
 -1      2070 9.56935E-05-2.90398E-05-2.85239E-05-1.17678E-06 1.32433E-18 2.74557E-18
 -1      2071 9.53096E-05-2.91057E-05-2.83937E-05-1.64691E-06 9.98149E-19 3.11816E-18
 -1      2072 9.68996E-05-2.99298E-05-2.87062E-05-1.95991E-06 8.71345E-19 4.28588E-18
 -1      2073 9.54679E-05-2.87724E-05-2.85547E-05-6.86442E-07 9.87985E-20 2.37373E-18
 -1      2074 9.53659E-05-2.88468E-05-2.85248E-05-8.88710E-07 9.73929E-19 2.56577E-18
 -1      2075 9.63318E-05-2.93813E-05-2.87103E-05-9.09986E-07 1.68008E-18 4.26586E-18
 -1      2076 9.58100E-05-2.88912E-05-2.86342E-05-5.91800E-07 1.06990E-18 4.07069E-18
 -1      2077 9.78414E-05-2.53832E-05-3.09433E-05 1.10188E-05 2.85414E-18-1.03088E-18
 -1      2078 9.83969E-05-2.78296E-05-3.02249E-05 8.21400E-06 2.83675E-18-1.24506E-18
 -1      2079 9.79842E-05-2.81888E-05-2.97991E-05 5.07557E-06 3.03832E-18 2.64962E-20
 -1      2080 9.77619E-05-2.92449E-05-2.93585E-05 3.00341E-06 2.60588E-18 2.82374E-18
 -1      2081 1.00450E-04-3.02096E-05-3.01423E-05 7.98879E-06 1.90160E-18-6.51838E-19
 -1      2082 9.70070E-05-2.89745E-05-2.90704E-05 1.24171E-06 3.03330E-18 3.60830E-18
 -1      2083 9.64692E-05-2.91435E-05-2.88378E-05 1.90047E-07 1.90561E-18 2.85440E-18
 -1      2084 9.68450E-05-2.93835E-05-2.89147E-05 1.21456E-07 2.30531E-18 4.24453E-18
 -1      2085 9.88962E-05-3.01601E-05-2.94548E-05 2.80743E-06 2.01520E-18 2.60500E-18
 -1      2086 9.54938E-05-1.99402E-05-3.23508E-05 1.69736E-05 1.77297E-18-5.37522E-19
 -1      2087 9.72386E-05-2.38226E-05-3.14137E-05 1.45227E-05 1.89596E-18 4.17389E-19
 -1      2088 1.00341E-04-2.83335E-05-3.09299E-05 1.54115E-05 1.75807E-18-1.45492E-18
 -1      2089 9.04553E-05-1.18204E-05-3.37937E-05 2.02108E-05 2.52958E-18 2.39689E-18
 -1      2090 9.34760E-05-1.67922E-05-3.27824E-05 1.94355E-05 1.93429E-18 1.47465E-18
 -1      2091 9.70044E-05-2.34752E-05-3.15909E-05 2.22185E-05 6.89809E-19 1.32078E-18
 -1      2092 8.37969E-05-2.79090E-06-3.49033E-05 1.73597E-05 1.77754E-18 4.58629E-19
 -1      2093 8.71819E-05-7.45709E-06-3.40822E-05 1.95749E-05 1.56808E-18 1.12008E-18
 -1      2094 9.00365E-05-1.54794E-05-3.19548E-05 2.45818E-05 9.97292E-19 1.17276E-18
 -1      2095 7.87058E-05 3.60213E-06-3.54442E-05 7.50338E-06 1.67173E-18-4.75477E-19
 -1      2096 8.07294E-05 1.04938E-06-3.50342E-05 1.25631E-05 1.59615E-18 1.05548E-18
 -1      2097 8.16689E-05-6.59436E-06-3.20116E-05 1.86910E-05 1.02517E-18 3.14779E-19
 -1      2098 7.85223E-05 3.87845E-06-3.53666E-05-5.81367E-06 1.33719E-19-2.50775E-18
 -1      2099 7.78834E-05 4.62459E-06-3.54740E-05 8.45976E-09 1.73542E-18-8.16752E-19
 -1      2100 7.65454E-05-1.27410E-06-3.19677E-05 4.71830E-06-5.90739E-19-4.36381E-19
 -1      2101 8.34005E-05-2.26212E-06-3.47195E-05-1.62931E-05-1.55438E-18-5.32268E-18
 -1      2102 8.05857E-05 1.37104E-06-3.53146E-05-1.24045E-05-4.01818E-19-5.12206E-18
 -1      2103 7.81865E-05-2.92140E-06-3.20092E-05-1.14259E-05-1.57986E-18-4.51815E-18
 -1      2104 9.00432E-05-1.13449E-05-3.36399E-05-1.99612E-05-1.90803E-18-4.13763E-18
 -1      2105 8.67313E-05-6.49681E-06-3.45397E-05-1.91854E-05-8.77182E-19-4.62145E-18
 -1      2106 8.53207E-05-1.02763E-05-3.20652E-05-2.20580E-05-1.21629E-18-5.50467E-18
 -1      2107 9.53137E-05-1.97942E-05-3.22991E-05-1.73330E-05-1.17760E-18 1.19921E-18
 -1      2108 9.28395E-05-1.52437E-05-3.32934E-05-1.90309E-05-8.26810E-19-8.95830E-19
 -1      2109 9.33619E-05-1.90241E-05-3.19088E-05-2.39589E-05-1.69195E-19-2.19693E-18
 -1      2110 9.77741E-05-2.53960E-05-3.09869E-05-1.14739E-05-1.80791E-18 1.86744E-18
 -1      2111 9.66345E-05-2.21722E-05-3.18401E-05-1.42024E-05-1.70271E-18 6.45757E-19
 -1      2112 9.87367E-05-2.56321E-05-3.14139E-05-1.91456E-05 1.84058E-19 2.66379E-19
 -1      2113 9.78336E-05-2.80040E-05-2.99154E-05-5.57397E-06-2.99408E-18 2.12325E-18
 -1      2114 9.77614E-05-2.62970E-05-3.05177E-05-8.08882E-06-2.44534E-18 2.05247E-18
 -1      2115 1.00388E-04-2.89557E-05-3.06655E-05-1.17841E-05-2.35014E-18 2.15104E-18
 -1      2116 6.40772E-05-4.62448E-05-8.26002E-06 4.69189E-05-1.99984E-18-3.23741E-18
 -1      2117 4.76880E-05-4.84211E-05-1.26832E-06 3.82134E-05-1.22312E-18-3.95829E-18
 -1      2118 1.56700E-05-4.10179E-05 9.05649E-06 6.70969E-06-1.54372E-18-2.19636E-18
 -1      2119 1.46813E-05-3.77976E-05 8.48076E-06-5.30905E-06 6.24475E-19-3.51053E-18
 -1      2120 2.92298E-05-4.17326E-05 4.03194E-06 2.98259E-05-1.68051E-18-2.51908E-18
 -1      2121 2.10946E-05-4.43036E-05 7.94443E-06 1.83477E-05-2.17285E-18-1.99773E-18
 -1      2122 1.04671E-04-4.77393E-05-2.43330E-05 4.98421E-05-3.93616E-18-3.44319E-19
 -1      2123 8.49577E-05-5.14442E-05-1.55396E-05 4.47810E-05-2.98240E-18-9.93993E-19
 -1      2124 1.43907E-04-4.79233E-05-4.06014E-05 4.10123E-05-3.47199E-18-3.87518E-19
 -1      2125 1.22662E-04-4.95712E-05-3.18201E-05 4.15579E-05-4.14496E-18-5.11184E-19
 -1      2126 8.72674E-05-8.72395E-06-3.37499E-05-1.05208E-05-1.85349E-18-2.60835E-18
 -1      2127 8.79640E-05-9.25307E-06-3.38205E-05-1.21076E-05-2.12072E-18-2.16030E-18
 -1      2128 9.04700E-05-1.30771E-05-3.32347E-05-1.19188E-05-2.28781E-18-1.78093E-18
 -1      2129 8.86676E-05-1.10331E-05-3.32955E-05-9.40855E-06-1.86967E-18-2.58099E-18
 -1      2130 1.89683E-04-3.00870E-05-6.70410E-05 1.67896E-05 2.15443E-18-7.35987E-18
 -1      2131 1.77927E-04-3.08003E-05-6.22650E-05 2.26522E-05 5.55654E-19-5.24483E-18
 -1      2132 1.83608E-04-2.09237E-05-6.91132E-05 4.23831E-06 1.37770E-18-6.52317E-18
 -1      2133 1.90795E-04-2.51938E-05-6.92947E-05 1.22301E-05 2.02991E-18-6.45799E-18
 -1      2134 1.67961E-04-1.82103E-05-6.29223E-05 3.70884E-06 2.14045E-18-4.97166E-18
 -1      2135 1.86008E-04-2.85203E-05-6.61755E-05-5.46425E-06 4.26481E-19-6.46456E-18
 -1      2136 1.85513E-04-2.39196E-05-6.84289E-05 3.36929E-06 4.42575E-19-6.37604E-18
 -1      2137 1.67179E-04-3.64263E-05-5.57213E-05-1.57792E-05 1.47627E-18-4.81708E-18
 -1      2138 1.81975E-04-3.49469E-05-6.18588E-05-1.07827E-05 8.33480E-19-5.62303E-18
 -1      2139 1.40213E-04-4.55205E-05-4.08608E-05-2.72668E-05 2.72003E-18-3.72949E-18
 -1      2140 1.59986E-04-4.35030E-05-4.90764E-05-2.50457E-05 2.16893E-18-3.98995E-18
 -1      2141 1.08304E-04-5.14529E-05-2.47618E-05-3.59385E-05 2.51484E-18-2.58514E-18
 -1      2142 1.27095E-04-4.78315E-05-3.34198E-05-3.71866E-05 2.74777E-18-2.75201E-18
 -1      2143 6.47682E-05-4.94161E-05-7.95701E-06-3.62364E-05 2.72999E-18-3.55960E-18
 -1      2144 8.54327E-05-4.90398E-05-1.60613E-05-4.14213E-05 2.72872E-18-3.83113E-18
 -1      2145 3.51573E-05-4.51000E-05 2.98162E-06-2.87542E-05 3.21025E-18-1.62715E-18
 -1      2146 4.85413E-05-4.39359E-05-2.54775E-06-3.67845E-05 3.48300E-18-2.87388E-18
 -1      2147 1.46647E-05-4.20103E-05 1.02088E-05-1.08508E-05 2.58186E-18-1.82154E-18
 -1      2148 2.03015E-05-4.09593E-05 7.63358E-06-1.97464E-05 3.41270E-18-1.01263E-18
 -1      2149 1.54590E-05-3.72338E-05 8.47235E-06 1.14509E-05 1.53927E-18-3.76379E-18
 -1      2150 1.31556E-05-3.84344E-05 9.67717E-06 3.36282E-07 2.28257E-18-3.14503E-18
 -1      2151 3.58818E-05-4.39172E-05 2.31986E-06 2.92874E-05 5.60312E-19-2.05363E-18
 -1      2152 2.46892E-05-4.40581E-05 6.83222E-06 2.17089E-05 2.50171E-18-3.04212E-18
 -1      2153 7.16101E-05-4.73527E-05-1.08335E-05 4.04545E-05 1.51449E-18-2.66418E-18
 -1      2154 5.31936E-05-4.92181E-05-3.25790E-06 3.28637E-05 1.20067E-18-9.79514E-19
 -1      2155 1.13612E-04-4.94778E-05-2.73102E-05 3.86493E-05-2.92650E-19 1.43996E-19
 -1      2156 9.35626E-05-5.18990E-05-1.87893E-05 3.57548E-05 1.39040E-18-1.30867E-18
 -1      2157 1.48649E-04-4.57424E-05-4.33499E-05 3.02854E-05-4.33469E-19-4.70569E-18
 -1      2158 1.28723E-04-4.79924E-05-3.51182E-05 2.99748E-05-2.52416E-19-2.08455E-18
 -1      2159 1.74221E-04-3.99142E-05-5.64728E-05 1.63675E-05-1.02915E-19-5.61837E-18
 -1      2160 1.57715E-04-4.13650E-05-4.97893E-05 2.01674E-05-4.42045E-20-4.82301E-18
 -1      2161 1.90786E-04-3.30645E-05-6.61635E-05 5.71814E-06-1.73896E-18-4.42532E-18
 -1      2162 1.78764E-04-3.39662E-05-6.14161E-05 1.20920E-05-9.83405E-19-4.89966E-18
 -1      2163 1.66555E-04-3.57015E-05-5.50101E-05-2.58208E-06 1.84865E-19-3.85824E-18
 -1      2164 1.92464E-04-2.53179E-05-7.04361E-05-7.00223E-06 4.35798E-19-5.00348E-18
 -1      2165 1.91592E-04-2.69899E-05-6.91756E-05 4.83177E-07-4.45963E-19-4.47000E-18
 -1      2166 1.88100E-04-2.67342E-05-6.80422E-05-1.58126E-05 1.35525E-19-4.07465E-18
 -1      2167 1.91220E-04-2.51822E-05-6.99197E-05-8.64321E-06-1.27902E-19-4.20647E-18
 -1      2168 1.74170E-04-3.22359E-05-6.01521E-05-2.37180E-05 3.19458E-18-3.94124E-18
 -1      2169 1.88360E-04-3.17651E-05-6.55695E-05-1.99391E-05 2.01255E-18-4.34909E-18
 -1      2170 1.69468E-04-2.15944E-05-6.21718E-05-4.68656E-06 7.52165E-19-3.13762E-18
 -1      2171 1.50650E-04-4.35018E-05-4.58501E-05-3.33901E-05 2.41404E-18-3.90652E-18
 -1      2172 1.68311E-04-4.09090E-05-5.34819E-05-3.14368E-05 2.80558E-18-3.63843E-18
 -1      2173 1.15936E-04-4.85251E-05-2.95518E-05-4.32424E-05 1.63308E-18-4.89754E-18
 -1      2174 1.37219E-04-4.65527E-05-3.82905E-05-4.46840E-05 2.37974E-18-4.97717E-18
 -1      2175 7.93674E-05-5.07158E-05-1.36176E-05-4.40877E-05 4.13691E-18-2.83502E-18
 -1      2176 9.83220E-05-4.71537E-05-2.19022E-05-4.97839E-05 2.57498E-18-2.97647E-18
 -1      2177 4.79511E-05-4.82660E-05-1.32398E-06-3.85229E-05 2.82994E-18-1.89778E-18
 -1      2178 6.24990E-05-4.64381E-05-7.49475E-06-4.56275E-05 3.61852E-18-2.34406E-18
 -1      2179 2.30507E-05-4.01493E-05 5.97598E-06-2.14619E-05 1.17018E-18-3.51519E-18
 -1      2180 3.23951E-05-4.08345E-05 2.59073E-06-3.23202E-05 1.59666E-18-3.09082E-18
 -1      2181 1.74376E-04-3.78006E-05-5.70947E-05 3.05321E-05-1.03767E-18-2.14215E-18
 -1      2182 1.55285E-04-4.02442E-05-4.91852E-05 3.09444E-05-2.09747E-18-1.31544E-18
 -1      2183 1.27490E-04-6.04968E-05-2.83785E-05 4.20100E-05-3.48131E-18-3.26319E-19
 -1      2184 9.71933E-05-2.43158E-05-3.13072E-05-9.99968E-06-2.22362E-18 2.10567E-18
 -1      2185 1.55159E-04-5.32445E-05-4.32674E-05 2.39019E-05-2.93455E-18 2.28699E-19
 -1      2186 1.67978E-04-3.42928E-05-5.62060E-05 9.75517E-06 5.96311E-19-4.95175E-18
 -1      2187 9.63519E-05-2.30995E-05-3.14571E-05-1.03813E-05-2.42102E-18 8.82410E-19
 -1      2188 4.61345E-05-4.12350E-05-2.72175E-06 4.16255E-05-9.50794E-19-2.55211E-18
 -1      2189 2.10152E-05-3.04117E-05 3.15745E-06 1.63381E-05-1.20649E-18-2.29631E-18
 -1      2190 9.80547E-05-2.87379E-05-2.96743E-05-4.31912E-06-1.75131E-18 2.57409E-18
 -1      2191 8.79429E-05-5.49158E-05-1.44113E-05 5.02110E-05-1.18373E-18-1.87478E-18
 -1      2192 2.30450E-05-2.91702E-05 2.04853E-06-1.66777E-05 2.60251E-19-4.22881E-18
 -1      2193 4.90078E-05-4.09288E-05-3.95866E-06-4.24703E-05 1.36076E-18-2.53856E-18
 -1      2194 8.42999E-05-5.43010E-05-1.33024E-05-5.00283E-05 3.33985E-18-2.96004E-18
 -1      2195 1.20981E-04-5.93626E-05-2.62871E-05-4.42240E-05 1.43953E-18-3.35637E-18
 -1      2196 1.66919E-04-3.89814E-05-5.39623E-05-1.13714E-05 2.01107E-18-3.13572E-18
 -1      2197 1.71145E-04-2.14872E-05-6.28897E-05-6.32026E-06-8.16540E-19-3.83155E-18
 -1      2198 1.55929E-04-5.04761E-05-4.45715E-05 9.68075E-06-1.75336E-19-4.80564E-18
 -1      2199 1.32386E-04-5.92557E-05-3.11374E-05 2.64090E-05 5.98005E-19-2.24294E-18
 -1      2200 9.47852E-05-5.72779E-05-1.62014E-05 3.91780E-05 2.24379E-18-1.13365E-18
 -1      2201 5.35535E-05-4.61117E-05-3.71308E-06 3.87571E-05 1.30316E-18-1.17949E-18
 -1      2202 2.37500E-05-3.31275E-05 3.43049E-06 2.04877E-05 2.57413E-18-2.78377E-18
 -1      2203 1.56627E-05-2.92368E-05 5.24896E-06-6.22477E-06 1.81064E-18-2.98749E-18
 -1      2204 3.31755E-05-3.73602E-05 1.31850E-06-3.11135E-05 2.80071E-18-1.58692E-18
 -1      2205 6.70133E-05-4.93606E-05-7.91903E-06-4.17408E-05 2.08243E-18-2.34543E-18
 -1      2206 1.04825E-04-5.58769E-05-2.11105E-05-3.74799E-05 1.91895E-18-2.07925E-18
 -1      2207 1.22088E-04-6.31749E-05-2.59580E-05-3.15752E-05 7.13625E-19-6.97743E-19
 -1      2208 1.01921E-04-5.87043E-05-1.80379E-05-3.91356E-05 1.19410E-18-1.76508E-18
 -1      2209 1.42478E-04-5.66691E-05-3.64374E-05-2.07731E-05 1.39845E-18-2.22177E-18
 -1      2210 1.60939E-04-4.34329E-05-4.96264E-05-4.45562E-06 1.25943E-18-3.35764E-18
 -1      2211 1.56535E-04-1.33084E-05-6.13703E-05 7.73586E-06-1.82536E-19-4.98288E-18
 -1      2212 1.73936E-04-1.77772E-05-6.59372E-05 5.49145E-06 5.51842E-19-5.62176E-18
 -1      2213 1.54393E-04-1.03938E-05-6.18356E-05 5.99820E-06 9.01243E-19-5.48475E-18
 -1      2214 1.68128E-04-2.61614E-05-5.98050E-05 5.18591E-06-2.83756E-19-4.69002E-18
 -1      2215 1.69547E-04-1.46683E-05-6.51922E-05-5.82093E-06-5.14996E-19-2.25001E-18
 -1      2216 1.51124E-04-5.47698E-05-4.06880E-05-2.83221E-05 1.72583E-18-3.11539E-18
 -1      2217 9.52193E-05-2.63781E-05-2.94902E-05 4.19453E-06 1.86389E-18 7.01284E-20
 -1      2218 9.61938E-05-2.58635E-05-3.00680E-05 5.99975E-06 2.09561E-18 3.14123E-19
 -1      2219 8.81312E-05-1.11821E-05-3.30175E-05-3.66048E-06-8.12932E-19-3.06547E-18
 -1      2220 8.83660E-05-1.14532E-05-3.29998E-05-4.80194E-06-1.10484E-18-3.03188E-18
 -1      2221 8.87202E-05-1.19392E-05-3.29514E-05-5.81856E-06-1.28076E-18-2.93794E-18
 -1      2222 8.91262E-05-1.24104E-05-3.29234E-05-6.99418E-06-1.56023E-18-2.74552E-18
 -1      2223 8.98862E-05-1.38219E-05-3.25979E-05-4.90039E-06-1.14294E-18-2.74981E-18
 -1      2224 8.77855E-05-1.07234E-05-3.30606E-05 6.15630E-07 9.87823E-20-3.20959E-18
 -1      2225 8.77810E-05-1.07185E-05-3.30608E-05-4.95485E-07-1.66392E-19-3.14564E-18
 -1      2226 8.79665E-05-1.09482E-05-3.30422E-05 2.75784E-06 5.42690E-19-3.33073E-18
 -1      2227 8.78516E-05-1.08152E-05-3.30515E-05 1.63842E-06 3.16541E-19-3.31526E-18
 -1      2228 8.91031E-05-1.27697E-05-3.27175E-05 1.04987E-06 1.86835E-19-3.07765E-18
 -1      2229 8.84012E-05-1.14952E-05-3.29972E-05 4.88702E-06 1.04072E-18-3.24549E-18
 -1      2230 8.81614E-05-1.12185E-05-3.30152E-05 3.76389E-06 7.38930E-19-3.30020E-18
 -1      2231 8.93690E-05-1.31254E-05-3.26776E-05 3.02109E-06 5.99111E-19-3.10696E-18
 -1      2232 8.91815E-05-1.24779E-05-3.29188E-05 7.07431E-06 1.54516E-18-3.00484E-18
 -1      2233 8.87631E-05-1.19914E-05-3.29477E-05 5.90265E-06 1.29267E-18-3.12572E-18
 -1      2234 8.99267E-05-1.38734E-05-3.25934E-05 4.97504E-06 1.13746E-18-2.95729E-18
 -1      2235 9.04523E-05-1.40870E-05-3.27923E-05 9.22285E-06 2.05688E-18-2.52442E-18
 -1      2236 8.97713E-05-1.32760E-05-3.28374E-05 8.04407E-06 1.73322E-18-2.81357E-18
 -1      2237 9.08632E-05-1.51331E-05-3.24489E-05 6.87089E-06 1.63198E-18-2.67147E-18
 -1      2238 9.24512E-05-1.66590E-05-3.25829E-05 1.11067E-05 2.49191E-18-1.80049E-18
 -1      2239 9.13719E-05-1.53189E-05-3.26546E-05 1.00267E-05 2.19269E-18-2.16598E-18
 -1      2240 9.22877E-05-1.70870E-05-3.22082E-05 8.51617E-06 2.10303E-18-2.17066E-18
 -1      2241 9.42389E-05-2.71180E-05-2.87494E-05 1.76450E-06 1.54293E-18-3.13794E-19
 -1      2242 9.48394E-05-2.68946E-05-2.90479E-05 2.73741E-06 1.67850E-18 2.13743E-21
 -1      2243 9.53418E-05-2.58483E-05-2.97908E-05 4.36086E-06 2.00595E-18-7.14419E-19
 -1      2244 9.59142E-05-2.50916E-05-3.03047E-05-6.18552E-06-2.10155E-18 1.27224E-19
 -1      2245 9.52550E-05-2.58509E-05-2.97612E-05-4.27982E-06-2.00004E-18 1.00792E-20
 -1      2246 1.57009E-04-5.10467E-05-4.55911E-05 1.27032E-05-2.31964E-18-2.49875E-18
 -1      2247 1.48300E-04-5.91153E-05-3.82369E-05 2.08290E-05-3.88110E-18-3.79471E-19
 -1      2248 9.51396E-05-2.65360E-05-2.93442E-05-2.93705E-06-1.83368E-18 1.71880E-19
 -1      2249 9.46717E-05-2.69092E-05-2.90408E-05-1.87602E-06-1.45636E-18 1.04991E-19
 -1      2250 9.53384E-05-2.53530E-05-2.99961E-05-4.29321E-06-1.90952E-18-3.84835E-19
 -1      2251 9.44752E-05-2.72388E-05-2.87771E-05-1.02640E-06-1.26139E-18 9.37229E-20
 -1      2252 9.42171E-05-2.74524E-05-2.86109E-05-4.25071E-07-1.08733E-18-1.99729E-19
 -1      2253 9.50353E-05-2.67011E-05-2.92989E-05-1.92021E-06-1.51828E-18-2.52678E-19
 -1      2254 9.40681E-05-2.76328E-05-2.84496E-05 8.23158E-08-8.84185E-19-2.80883E-19
 -1      2255 9.39694E-05-2.77762E-05-2.83660E-05 4.11670E-07-7.56319E-19-3.55264E-19
 -1      2256 9.47288E-05-2.74283E-05-2.88558E-05-4.41622E-07-1.11627E-18-5.19005E-19
 -1      2257 9.38844E-05-2.78857E-05-2.82725E-05 6.93871E-07-8.41604E-19-5.32647E-19
 -1      2258 9.38896E-05-2.79927E-05-2.82394E-05 8.57496E-07-7.61123E-19-6.37762E-19
 -1      2259 9.45270E-05-2.78565E-05-2.85834E-05 4.27841E-07-1.02022E-18-6.14751E-19
 -1      2260 9.38578E-05-2.80648E-05-2.81905E-05 9.94171E-07-6.03205E-19-6.21217E-19
 -1      2261 9.39244E-05-2.81486E-05-2.81879E-05 1.05578E-06-5.45825E-19-6.36806E-19
 -1      2262 9.44336E-05-2.81257E-05-2.84251E-05 8.97733E-07-7.11918E-19-6.56469E-19
 -1      2263 9.39295E-05-2.81982E-05-2.81678E-05 1.10015E-06-5.30136E-19-4.66156E-19
 -1      2264 9.40278E-05-2.82648E-05-2.81828E-05 1.09998E-06-5.37896E-19-3.67540E-19
 -1      2265 9.44231E-05-2.83026E-05-2.83424E-05 1.10936E-06-5.16790E-19-7.63862E-19
 -1      2266 9.40556E-05-2.82995E-05-2.81807E-05 1.08800E-06-8.23258E-19-1.48625E-19
 -1      2267 9.41658E-05-2.83521E-05-2.82049E-05 1.05223E-06-7.47341E-19-3.07143E-19
 -1      2268 9.44668E-05-2.84206E-05-2.83088E-05 1.15850E-06-6.13992E-19-5.09008E-19
 -1      2269 9.42058E-05-2.83761E-05-2.82135E-05 1.00824E-06-5.17386E-19-3.12363E-19
 -1      2270 9.43158E-05-2.84171E-05-2.82416E-05 9.54224E-07-2.80181E-19-4.55349E-19
 -1      2271 9.45416E-05-2.84986E-05-2.83060E-05 1.11015E-06-6.87887E-19-3.03770E-19
 -1      2272 9.43606E-05-2.84332E-05-2.82562E-05 8.94672E-07-3.36570E-19-3.29780E-19
 -1      2273 9.44635E-05-2.84644E-05-2.82848E-05 8.33949E-07-2.87816E-19-5.19418E-19
 -1      2274 9.46305E-05-2.85485E-05-2.83219E-05 1.00846E-06-3.25199E-19-4.76212E-19
 -1      2275 9.45085E-05-2.84745E-05-2.83022E-05 7.69938E-07-1.90222E-19-3.08175E-19
 -1      2276 9.46010E-05-2.84975E-05-2.83296E-05 7.10157E-07 1.87692E-19-5.15882E-20
 -1      2277 9.47226E-05-2.85779E-05-2.83482E-05 8.83386E-07-2.47936E-19-8.88512E-20
 -1      2278 9.46438E-05-2.85029E-05-2.83480E-05 6.49133E-07 9.01679E-20-2.47074E-19
 -1      2279 9.47249E-05-2.85193E-05-2.83734E-05 5.95372E-07-9.93599E-20-1.65243E-19
 -1      2280 9.48114E-05-2.85922E-05-2.83798E-05 7.55172E-07 5.00295E-20-3.34485E-19
 -1      2281 9.47646E-05-2.85212E-05-2.83919E-05 5.42361E-07-5.37844E-19-2.88182E-19
 -1      2282 9.48354E-05-2.85321E-05-2.84151E-05 4.98064E-07-3.37630E-19-7.01370E-19
 -1      2283 9.48939E-05-2.85955E-05-2.84136E-05 6.37487E-07-3.74294E-19-8.33102E-19
 -1      2284 9.48721E-05-2.85312E-05-2.84334E-05 4.56596E-07-1.29333E-19-9.90621E-19
 -1      2285 9.49346E-05-2.85379E-05-2.84550E-05 4.24274E-07-4.17231E-19-1.23412E-18
 -1      2286 9.49696E-05-2.85903E-05-2.84483E-05 5.39749E-07-5.18513E-19-6.69384E-19
 -1      2287 9.49693E-05-2.85348E-05-2.84734E-05 3.97075E-07-6.16093E-19-1.43941E-18
 -1      2288 9.50269E-05-2.85383E-05-2.84940E-05 3.78833E-07-7.97223E-19-1.47006E-18
 -1      2289 9.50398E-05-2.85784E-05-2.84835E-05 4.68853E-07-6.86958E-19-8.97759E-19
 -1      2290 9.50612E-05-2.85334E-05-2.85131E-05 3.68363E-07-8.00119E-19-1.45759E-18
 -1      2291 9.51178E-05-2.85347E-05-2.85341E-05 3.66310E-07-5.99943E-19-1.05007E-18
 -1      2292 9.51071E-05-2.85611E-05-2.85200E-05 4.30494E-07-8.96963E-19-1.05772E-18
 -1      2293 9.51538E-05-2.85282E-05-2.85547E-05 3.75169E-07-9.24220E-19-1.08321E-18
 -1      2294 9.52141E-05-2.85283E-05-2.85776E-05 3.91738E-07-7.18126E-19-1.31813E-18
 -1      2295 9.51754E-05-2.85388E-05-2.85590E-05 4.30167E-07-7.86920E-19-1.30501E-18
 -1      2296 9.52546E-05-2.85204E-05-2.86011E-05 4.22978E-07-2.00303E-19-1.62408E-18
 -1      2297 9.53243E-05-2.85204E-05-2.86275E-05 4.61154E-07-1.49633E-19-1.66303E-18
 -1      2298 9.52495E-05-2.85119E-05-2.86026E-05 4.73941E-07-6.15527E-19-1.48579E-18
 -1      2299 9.53724E-05-2.85113E-05-2.86552E-05 5.18495E-07-1.54379E-19-1.31175E-18
 -1      2300 9.54579E-05-2.85122E-05-2.86874E-05 5.81978E-07 7.90285E-20-1.73327E-18
 -1      2301 9.53352E-05-2.84802E-05-2.86533E-05 5.69018E-07-3.23985E-20-8.77566E-19
 -1      2302 9.55171E-05-2.85021E-05-2.87210E-05 6.69939E-07 4.87759E-19-1.10653E-18
 -1      2303 9.56262E-05-2.85056E-05-2.87613E-05 7.63205E-07 9.23223E-19-6.24555E-19
 -1      2304 9.54392E-05-2.84438E-05-2.87138E-05 7.24085E-07 5.65102E-19-1.03002E-18
 -1      2305 9.57008E-05-2.84950E-05-2.88027E-05 8.87112E-07 1.11324E-18-5.20732E-19
 -1      2306 9.58421E-05-2.85029E-05-2.88537E-05 1.01536E-06 1.13341E-18-6.65811E-19
 -1      2307 9.55693E-05-2.84030E-05-2.87874E-05 9.49455E-07 9.89811E-19-6.45207E-19
 -1      2308 9.59367E-05-2.84925E-05-2.89048E-05 1.18120E-06 8.47961E-19-1.14870E-18
 -1      2309 9.61204E-05-2.85076E-05-2.89694E-05 1.35011E-06 3.48483E-19-7.48583E-19
 -1      2310 9.57343E-05-2.83586E-05-2.88776E-05 1.25690E-06 7.71075E-19-1.10178E-18
 -1      2311 9.62403E-05-2.84987E-05-2.90322E-05 1.56413E-06-1.95792E-19-3.49516E-19
 -1      2312 9.64776E-05-2.85246E-05-2.91136E-05 1.77932E-06-3.66980E-19-4.94951E-19
 -1      2313 9.59444E-05-2.83127E-05-2.89878E-05 1.65907E-06 8.85620E-20-1.26565E-18
 -1      2314 9.66287E-05-2.85197E-05-2.91896E-05 2.04728E-06-5.15585E-19-4.08427E-19
 -1      2315 9.69320E-05-2.85616E-05-2.92908E-05 2.31327E-06-3.93813E-19-2.32075E-19
 -1      2316 9.62108E-05-2.82696E-05-2.91208E-05 2.16829E-06-5.51615E-19-5.25721E-19
 -1      2317 9.71213E-05-2.85652E-05-2.93812E-05 2.63914E-06 1.12320E-19 2.17280E-19
 -1      2318 9.75036E-05-2.86307E-05-2.95046E-05 2.95758E-06 3.76494E-19 7.91212E-19
 -1      2319 9.65468E-05-2.82374E-05-2.92790E-05 2.79436E-06-1.73962E-19 2.25946E-19
 -1      2320 9.77395E-05-2.86505E-05-2.96095E-05 3.34130E-06-1.35775E-19 1.01138E-18
 -1      2321 9.82143E-05-2.87509E-05-2.97565E-05 3.70798E-06 2.57834E-19 3.53416E-19
 -1      2322 9.69680E-05-2.82310E-05-2.94625E-05 3.54095E-06 1.50640E-19 7.31872E-19
 -1      2323 9.85081E-05-2.88001E-05-2.98745E-05 4.14197E-06 2.21830E-19 2.77502E-19
 -1      2324 9.90882E-05-2.89526E-05-3.00445E-05 4.54211E-06-1.37211E-19 2.53338E-19
 -1      2325 9.74947E-05-2.82765E-05-2.96692E-05 4.39984E-06-3.96302E-20 8.64837E-19
 -1      2326 9.94570E-05-2.90539E-05-3.01716E-05 5.00586E-06-1.78404E-19-4.13079E-20
 -1      2327 1.00154E-04-2.92841E-05-3.03608E-05 5.40693E-06 1.32655E-20-2.55978E-19
 -1      2328 9.81559E-05-2.84182E-05-2.98925E-05 5.34204E-06-4.46778E-19 1.01640E-18
 -1      2329 1.00625E-04-2.94741E-05-3.04903E-05 5.85900E-06-1.49232E-19-1.89051E-19
 -1      2330 1.01447E-04-2.98192E-05-3.06902E-05 6.20076E-06-3.26941E-19 8.96616E-20
 -1      2331 9.89963E-05-2.87289E-05-3.01209E-05 6.30469E-06-1.36758E-19 5.18842E-19
 -1      2332 1.02065E-04-3.01543E-05-3.08123E-05 6.56744E-06-5.60312E-19-6.26079E-19
 -1      2333 1.03015E-04-3.06648E-05-3.10089E-05 6.74968E-06-5.94173E-19 3.27738E-19
 -1      2334 1.00087E-04-2.93216E-05-3.03374E-05 7.17249E-06-7.34651E-19 6.58047E-19
 -1      2335 1.03849E-04-3.12230E-05-3.11128E-05 6.91031E-06-4.76387E-19 1.93253E-19
 -1      2336 1.04920E-04-3.19557E-05-3.12870E-05 6.78175E-06 2.23763E-19 2.19093E-19
 -1      2337 1.01542E-04-3.03588E-05-3.05219E-05 7.75298E-06-4.58234E-19 3.71473E-19
 -1      2338 1.06063E-04-3.28262E-05-3.13653E-05 6.55292E-06 4.69581E-19 1.92150E-19
 -1      2339 1.07221E-04-3.38182E-05-3.14966E-05 5.91092E-06 8.22590E-19 2.34042E-20
 -1      2340 1.03524E-04-3.20418E-05-3.06587E-05 7.74695E-06 1.70282E-19 4.58505E-19
 -1      2341 1.08764E-04-3.50570E-05-3.15558E-05 5.03999E-06 9.36335E-19-2.64794E-19
 -1      2342 1.09910E-04-3.62584E-05-3.16314E-05 3.66197E-06 8.87062E-19 1.71636E-19
 -1      2343 1.06221E-04-3.45456E-05-3.07536E-05 6.72345E-06 7.64399E-19 5.02434E-19
 -1      2344 1.11861E-04-3.77851E-05-3.17069E-05 1.85839E-06 6.69053E-19 8.43991E-19
 -1      2345 1.12775E-04-3.89383E-05-3.17365E-05-4.00205E-07 1.13436E-18 1.18156E-18
 -1      2346 1.09749E-04-3.78438E-05-3.08621E-05 4.13228E-06 1.44861E-18 4.29713E-19
 -1      2347 1.14888E-04-4.03617E-05-3.19086E-05-3.32967E-06 1.15003E-18 6.24487E-19
 -1      2348 1.15167E-04-4.08688E-05-3.19388E-05-6.33081E-06 9.13757E-19 8.99585E-19
 -1      2349 1.13896E-04-4.13679E-05-3.11236E-05-5.61838E-07 8.76056E-19 1.27278E-18
 -1      2350 1.16736E-04-4.13380E-05-3.23284E-05-1.01282E-05 4.48186E-19 3.04589E-19
 -1      2351 1.15882E-04-4.03350E-05-3.24330E-05-1.31564E-05-4.31031E-19 2.49693E-20
 -1      2352 1.17716E-04-4.35763E-05-3.17788E-05-7.44597E-06 7.46928E-20-7.64681E-19
 -1      2353 1.15881E-04-3.88202E-05-3.31262E-05-1.66034E-05-3.21373E-19 4.02125E-19
 -1      2354 1.13683E-04-3.58062E-05-3.33501E-05-1.82548E-05-1.68510E-19 2.85483E-19
 -1      2355 1.19406E-04-4.21326E-05-3.30831E-05-1.52054E-05-2.30737E-19-1.26327E-19
 -1      2356 1.11597E-04-3.21035E-05-3.42570E-05-1.91443E-05-4.77250E-20 5.35758E-19
 -1      2357 1.08721E-04-2.80300E-05-3.45155E-05-1.78894E-05 6.07164E-19 9.29966E-19
 -1      2358 1.17244E-04-3.54067E-05-3.50484E-05-2.03596E-05-5.83129E-20 9.89520E-19
 -1      2359 1.05946E-04-2.41580E-05-3.52320E-05-1.45569E-05 9.56327E-19 8.71584E-19
 -1      2360 1.03950E-04-2.16190E-05-3.52963E-05-1.03547E-05 1.41470E-18 2.01001E-18
 -1      2361 1.12022E-04-2.56944E-05-3.70819E-05-1.82792E-05 9.58259E-19 4.59443E-19
 -1      2362 1.03077E-04-2.07406E-05-3.53412E-05-4.27828E-06 7.72812E-19 2.16641E-18
 -1      2363 1.03055E-04-2.16227E-05-3.50509E-05 5.39687E-07 9.97514E-19 2.04881E-18
 -1      2364 1.08097E-04-1.96939E-05-3.80824E-05-8.20439E-06 9.08522E-19 1.24553E-18
 -1      2365 1.04658E-04-2.43928E-05-3.43385E-05 5.32337E-06 1.77292E-18 1.64937E-18
 -1      2366 1.06065E-04-2.76966E-05-3.37925E-05 7.93661E-06 1.51153E-18 1.14574E-18
 -1      2367 1.08964E-04-2.21495E-05-3.73499E-05 3.58341E-06 4.78891E-19 1.19234E-18
 -1      2368 1.07907E-04-3.14004E-05-3.27296E-05 8.74592E-06 1.32067E-18 1.16518E-18
 -1      2369 1.09164E-04-3.43690E-05-3.21871E-05 8.37779E-06 1.91652E-18 1.57801E-18
 -1      2370 1.12777E-04-3.05115E-05-3.52692E-05 9.21163E-06 1.20054E-18 1.39545E-18
 -1      2371 1.09107E-04-3.61840E-05-3.12743E-05 6.06717E-06 1.27082E-18 1.93236E-18
 -1      2372 1.09192E-04-3.71257E-05-3.09035E-05 4.03107E-06-6.90034E-19 2.65865E-18
 -1      2373 1.14717E-04-3.76917E-05-3.29623E-05 6.98307E-06 1.36712E-18 8.85004E-19
 -1      2374 1.07120E-04-3.64831E-05-3.03484E-05 1.05593E-06-2.54210E-18 4.39162E-18
 -1      2375 1.05970E-04-3.55622E-05-3.01535E-05-9.07544E-07-2.55908E-18 4.04001E-18
 -1      2376 1.12522E-04-3.94777E-05-3.12908E-05 1.03195E-06-6.47069E-19 3.84304E-18
 -1      2377 9.33444E-05-2.76929E-05-2.81290E-05-4.10755E-07 7.19321E-19-7.14512E-19
 -1      2378 9.34224E-05-2.75878E-05-2.81904E-05-1.25236E-07 8.61503E-19-5.65959E-19
 -1      2379 9.32929E-05-2.78576E-05-2.80390E-05-8.16936E-07 5.86371E-19-1.01821E-18
 -1      2380 9.32479E-05-2.77664E-05-2.80505E-05-6.77799E-07 6.72802E-19-8.06175E-19
 -1      2381 9.40141E-05-2.78094E-05-2.83847E-05-4.43881E-07 8.12912E-19-8.70123E-19
 -1      2382 9.33864E-05-2.79934E-05-2.80225E-05-9.92398E-07 5.32281E-19-9.91547E-19
 -1      2383 9.32737E-05-2.79125E-05-2.80055E-05-9.41698E-07 5.72238E-19-9.46760E-19
 -1      2384 9.39270E-05-2.80189E-05-2.82544E-05-8.91152E-07 6.43466E-19-9.01326E-19
 -1      2385 9.35601E-05-2.81084E-05-2.80488E-05-1.02673E-06 6.46394E-19-9.68310E-19
 -1      2386 9.34160E-05-2.80375E-05-2.80168E-05-1.02904E-06 6.40438E-19-8.21081E-19
 -1      2387 9.39553E-05-2.81683E-05-2.81998E-05-1.08706E-06 5.10903E-19-1.09970E-18
 -1      2388 9.37700E-05-2.82053E-05-2.80980E-05-9.77793E-07 4.59825E-19-8.02074E-19
 -1      2389 9.36173E-05-2.81446E-05-2.80595E-05-1.01045E-06 6.92885E-19-7.83209E-19
 -1      2390 9.40528E-05-2.82791E-05-2.81921E-05-1.12743E-06 5.58809E-19-8.99461E-19
 -1      2391 9.39874E-05-2.82855E-05-2.81573E-05-8.83746E-07 4.55693E-19-8.96860E-19
 -1      2392 9.38399E-05-2.82347E-05-2.81176E-05-9.31885E-07 3.99526E-19-9.32985E-19
 -1      2393 9.41860E-05-2.83622E-05-2.82121E-05-1.07550E-06 5.21517E-19-7.93476E-19
 -1      2394 9.41952E-05-2.83504E-05-2.82189E-05-7.69915E-07 8.49466E-19-9.95470E-19
 -1      2395 9.40603E-05-2.83090E-05-2.81809E-05-8.23728E-07 6.90668E-19-9.26817E-19
 -1      2396 9.43319E-05-2.84241E-05-2.82472E-05-9.73524E-07 6.48022E-19-1.04253E-18
 -1      2397 9.43843E-05-2.84017E-05-2.82782E-05-6.53091E-07 7.94972E-19-5.36696E-19
 -1      2398 9.42655E-05-2.83687E-05-2.82435E-05-7.06115E-07 9.57711E-19-6.84004E-19
 -1      2399 9.44763E-05-2.84690E-05-2.82892E-05-8.49792E-07 7.21842E-19-9.02354E-19
 -1      2400 9.45514E-05-2.84411E-05-2.83329E-05-5.44364E-07 9.10258E-20-5.37419E-19
 -1      2401 9.44491E-05-2.84155E-05-2.83022E-05-5.92344E-07 5.94391E-19-5.35999E-19
 -1      2402 9.46111E-05-2.85004E-05-2.83331E-05-7.23223E-07 5.44367E-19-3.18628E-19
 -1      2403 9.46971E-05-2.84707E-05-2.83826E-05-4.51112E-07-3.18704E-19-2.77528E-19
 -1      2404 9.46098E-05-2.84513E-05-2.83556E-05-4.91206E-07-4.74314E-20-4.00699E-19
 -1      2405 9.47330E-05-2.85211E-05-2.83764E-05-6.06452E-07 8.22849E-20-4.41694E-19
 -1      2406 9.48248E-05-2.84925E-05-2.84278E-05-3.78465E-07-3.88230E-19-5.67862E-19
 -1      2407 9.47495E-05-2.84778E-05-2.84038E-05-4.08645E-07-4.15504E-19-5.72896E-19
 -1      2408 9.48418E-05-2.85331E-05-2.84179E-05-5.08035E-07-1.80040E-19-4.97520E-19
 -1      2409 9.49399E-05-2.85083E-05-2.84700E-05-3.30395E-07 5.77727E-19-1.23362E-18
 -1      2410 9.48727E-05-2.84972E-05-2.84480E-05-3.49001E-07 2.57413E-19-8.52675E-19
 -1      2411 9.49397E-05-2.85383E-05-2.84577E-05-4.34090E-07 4.38200E-20-8.60761E-19
 -1      2412 9.50496E-05-2.85201E-05-2.85115E-05-3.10563E-07 5.16722E-20-1.15130E-18
 -1      2413 9.49858E-05-2.85113E-05-2.84900E-05-3.15959E-07 3.69253E-19-1.13207E-18
 -1      2414 9.50308E-05-2.85383E-05-2.84969E-05-3.89523E-07 3.45275E-19-1.05326E-18
 -1      2415 9.51624E-05-2.85302E-05-2.85551E-05-3.22947E-07 4.96793E-21-9.65199E-19
 -1      2416 9.50965E-05-2.85222E-05-2.85325E-05-3.13256E-07 2.75693E-20-8.23186E-19
 -1      2417 9.51203E-05-2.85343E-05-2.85373E-05-3.78970E-07-6.62612E-20-7.08407E-19
 -1      2418 9.52887E-05-2.85407E-05-2.86040E-05-3.72308E-07-1.20886E-18-5.08799E-19
 -1      2419 9.52140E-05-2.85319E-05-2.85783E-05-3.45227E-07-5.26221E-19-6.77622E-19
 -1      2420 9.52151E-05-2.85277E-05-2.85811E-05-4.07491E-07-4.60477E-19-7.60169E-19
 -1      2421 9.54404E-05-2.85543E-05-2.86623E-05-4.64483E-07-7.50141E-20-5.65472E-19
 -1      2422 9.53494E-05-2.85429E-05-2.86312E-05-4.17165E-07-8.38561E-19-5.51334E-19
 -1      2423 9.53230E-05-2.85195E-05-2.86312E-05-4.81060E-07-8.21492E-19-5.89083E-19
 -1      2424 9.56311E-05-2.85742E-05-2.87345E-05-6.06495E-07 1.32946E-18-3.40326E-19
 -1      2425 9.55152E-05-2.85580E-05-2.86954E-05-5.35524E-07 6.73205E-19-6.28141E-19
 -1      2426 9.54534E-05-2.85114E-05-2.86910E-05-6.06852E-07 2.31245E-19-8.56882E-19
 -1      2427 9.58769E-05-2.86044E-05-2.88256E-05-8.06421E-07 1.01032E-18 4.30745E-19
 -1      2428 9.57260E-05-2.85808E-05-2.87756E-05-7.07904E-07 1.47506E-18 1.96988E-19
 -1      2429 9.56169E-05-2.85054E-05-2.87642E-05-7.93287E-07 8.82754E-19-4.98964E-19
 -1      2430 9.61956E-05-2.86500E-05-2.89412E-05-1.07290E-06-1.42403E-19 7.45285E-19
 -1      2431 9.59983E-05-2.86155E-05-2.88770E-05-9.42744E-07 5.55902E-19 9.31867E-19
 -1      2432 9.58260E-05-2.85042E-05-2.88548E-05-1.04976E-06 5.80016E-19 8.36842E-19
 -1      2433 9.66074E-05-2.87178E-05-2.90872E-05-1.41410E-06-1.06669E-18 2.17231E-19
 -1      2434 9.63511E-05-2.86680E-05-2.90053E-05-1.24858E-06-7.16596E-19 8.98467E-19
 -1      2435 9.60947E-05-2.85122E-05-2.89672E-05-1.38591E-06-2.15037E-19 7.66400E-19
 -1      2436 9.71341E-05-2.88166E-05-2.92691E-05-1.83589E-06-6.24196E-19-1.09709E-18
 -1      2437 9.68052E-05-2.87459E-05-2.91661E-05-1.63262E-06-7.81345E-19-5.08414E-19
 -1      2438 9.64388E-05-2.85356E-05-2.91052E-05-1.81023E-06 7.52250E-20-3.72054E-19
 -1      2439 9.77985E-05-2.89584E-05-2.94918E-05-2.33875E-06 2.13585E-19-1.45051E-18
 -1      2440 9.73832E-05-2.88598E-05-2.93647E-05-2.09838E-06-4.02377E-19-1.71395E-18
 -1      2441 9.68760E-05-2.85841E-05-2.92724E-05-2.32767E-06-1.75981E-19-1.56954E-18
 -1      2442 9.86228E-05-2.91598E-05-2.97581E-05-2.91288E-06-3.97268E-19-3.14805E-20
 -1      2443 9.81087E-05-2.90238E-05-2.96050E-05-2.64170E-06 1.17537E-19-7.26567E-19
 -1      2444 9.74256E-05-2.86726E-05-2.94706E-05-2.93577E-06-2.88327E-19-8.72791E-19
 -1      2445 9.96268E-05-2.94433E-05-3.00674E-05-3.53075E-06-4.93610E-19 6.60910E-19
 -1      2446 9.90048E-05-2.92579E-05-2.98883E-05-3.24473E-06-6.58278E-19 5.28287E-19
 -1      2447 9.81093E-05-2.88238E-05-2.96993E-05-3.61876E-06-7.84181E-19 1.24034E-19
 -1      2448 1.00825E-04-2.98400E-05-3.04134E-05-4.13638E-06-2.71542E-19 2.08436E-18
 -1      2449 1.00093E-04-2.95899E-05-3.02118E-05-3.86686E-06-1.30725E-19 1.22070E-18
 -1      2450 9.89516E-05-2.90721E-05-2.99545E-05-4.33873E-06-7.81268E-19 1.00173E-18
 -1      2451 1.02221E-04-3.03909E-05-3.07814E-05-4.63118E-06 4.81487E-19 1.13631E-18
 -1      2452 1.01388E-04-3.00578E-05-3.05661E-05-4.43219E-06 4.87405E-19 1.68934E-18
 -1      2453 9.99809E-05-2.94680E-05-3.02268E-05-5.02349E-06 3.45946E-19 1.14478E-18
 -1      2454 1.03805E-04-3.11456E-05-3.11466E-05-4.85775E-06 1.22069E-18-3.07507E-19
 -1      2455 1.02898E-04-3.07107E-05-3.09329E-05-4.81366E-06 1.03734E-18 7.95352E-19
 -1      2456 1.01231E-04-3.00816E-05-3.05008E-05-5.55078E-06 9.89273E-19 4.23564E-19
 -1      2457 1.05537E-04-3.21513E-05-3.14729E-05-4.58737E-06 4.09233E-19-8.53182E-19
 -1      2458 1.04614E-04-3.16037E-05-3.12842E-05-4.81702E-06 8.69170E-19-3.83971E-19
 -1      2459 1.02742E-04-3.10007E-05-3.07560E-05-5.73097E-06 1.20316E-18 1.04447E-19
 -1      2460 1.07331E-04-3.34217E-05-3.17169E-05-3.52507E-06 9.46659E-20 5.09525E-19
 -1      2461 1.06488E-04-3.27779E-05-3.15832E-05-4.17327E-06-1.61265E-19-5.11811E-19
 -1      2462 1.04548E-04-3.23120E-05-3.09698E-05-5.29447E-06-1.68256E-19 4.07844E-19
 -1      2463 1.09012E-04-3.48690E-05-3.18385E-05-1.35928E-06 2.68609E-19 1.48728E-18
 -1      2464 1.08406E-04-3.42103E-05-3.17908E-05-2.56052E-06 1.07805E-19 8.11807E-19
 -1      2465 1.06647E-04-3.40463E-05-3.11272E-05-3.89972E-06-1.79854E-19 1.43898E-18
 -1      2466 1.10262E-04-3.61966E-05-3.18199E-05 2.10184E-06-9.93490E-19 2.61885E-18
 -1      2467 1.10116E-04-3.57192E-05-3.18797E-05 3.07146E-07-2.94020E-19 2.47307E-18
 -1      2468 1.08930E-04-3.60662E-05-3.12358E-05-1.19452E-06-5.45122E-19 1.73425E-18
 -1      2469 1.10573E-04-3.68001E-05-3.16888E-05 6.66986E-06-1.16280E-18 3.52344E-18
 -1      2470 1.11153E-04-3.68408E-05-3.18536E-05 4.47147E-06-6.50693E-19 3.47495E-18
 -1      2471 1.11048E-04-3.78982E-05-3.13436E-05 3.01331E-06-1.38627E-18 2.54151E-18
 -1      2472 1.09319E-04-3.58432E-05-3.15251E-05 1.14366E-05-1.34073E-18 2.49330E-18
 -1      2473 1.10828E-04-3.67863E-05-3.17605E-05 9.39000E-06-1.32349E-18 3.26614E-18
 -1      2474 1.12298E-04-3.86179E-05-3.15446E-05 8.42040E-06-7.26354E-19 3.33720E-18
 -1      2475 1.06122E-04-3.27444E-05-3.14219E-05 1.46225E-05-1.32935E-18 2.57551E-18
 -1      2476 1.08486E-04-3.47178E-05-3.16759E-05 1.36198E-05-5.74047E-19 2.13489E-18
 -1      2477 1.11729E-04-3.70657E-05-3.19439E-05 1.37953E-05-6.31463E-19 3.01697E-18
 -1      2478 1.01534E-04-2.81087E-05-3.13940E-05 1.41173E-05-1.28443E-18 3.27909E-18
 -1      2479 1.04172E-04-3.05432E-05-3.16286E-05 1.49854E-05-2.46335E-18 2.95648E-18
 -1      2480 1.08763E-04-3.27188E-05-3.25502E-05 1.68056E-05-2.09094E-18 2.72362E-18
 -1      2481 9.73438E-05-2.40795E-05-3.13394E-05 9.14250E-06 5.46601E-21 3.83214E-18
 -1      2482 9.93145E-05-2.58031E-05-3.15507E-05 1.18878E-05-5.70238E-19 3.23900E-18
 -1      2483 1.04265E-04-2.68960E-05-3.31688E-05 1.50692E-05-1.12927E-18 1.96405E-18
 -1      2484 9.56437E-05-2.31047E-05-3.10960E-05 1.59981E-06 6.86361E-19 4.83812E-18
 -1      2485 9.62242E-05-2.31425E-05-3.12977E-05 5.02593E-06 7.94199E-19 4.66771E-18
 -1      2486 1.00666E-04-2.27838E-05-3.34536E-05 8.27071E-06-2.76331E-19 3.51766E-18
 -1      2487 9.69023E-05-2.55993E-05-3.06237E-05-4.74877E-06 1.30960E-18 4.78357E-18
 -1      2488 9.61850E-05-2.41274E-05-3.08045E-05-2.29829E-06 1.31896E-18 5.51609E-18
 -1      2489 1.00111E-04-2.29928E-05-3.31314E-05-4.42930E-07 7.84293E-19 4.25201E-18
 -1      2490 9.94035E-05-2.94111E-05-3.00610E-05-7.21077E-06 6.92665E-19 4.23286E-18
 -1      2491 9.81947E-05-2.75973E-05-3.01820E-05-6.55990E-06 8.06574E-19 4.73748E-18
 -1      2492 1.02207E-04-2.69569E-05-3.22567E-05-6.46708E-06 1.61099E-18 4.50549E-18
 -1      2493 1.00975E-04-3.19776E-05-2.95994E-05-5.92932E-06 1.09348E-18 3.57583E-18
 -1      2494 1.00119E-04-3.08988E-05-2.96478E-05-6.70014E-06 5.25111E-19 4.09094E-18
 -1      2495 1.04493E-04-3.15769E-05-3.11981E-05-7.57130E-06 1.30659E-18 5.04870E-18
 -1      2496 1.00667E-04-3.22522E-05-2.92981E-05-2.99904E-06 9.34962E-20 3.97228E-18
 -1      2497 1.00517E-04-3.22262E-05-2.93054E-05-4.22804E-06 4.56157E-19 4.15084E-18
 -1      2498 1.04837E-04-3.39819E-05-3.03108E-05-5.03217E-06 3.84321E-19 4.62949E-18
 -1      2499 9.88522E-05-3.08738E-05-2.91000E-05-6.60131E-07 5.64673E-19 4.64831E-18
 -1      2500 9.92444E-05-3.14540E-05-2.91119E-05-1.51077E-06 6.66241E-19 4.20727E-18
 -1      2501 1.02846E-04-3.33341E-05-2.97332E-05-1.57890E-06 4.14609E-19 4.28324E-18
 -1      2502 9.71862E-05-2.97067E-05-2.89407E-05-5.71292E-08 1.63801E-18 4.47493E-18
 -1      2503 9.95549E-05-2.76768E-05-3.08343E-05 2.60766E-05 1.21091E-18 6.57787E-19
 -1      2504 1.02912E-04-3.10058E-05-3.07138E-05 2.31111E-05 2.14884E-18-1.35401E-19
 -1      2505 8.88792E-05-1.91687E-05-3.00357E-05 2.82107E-05 1.33387E-18 1.34312E-18
 -1      2506 9.47524E-05-2.38092E-05-3.01608E-05 2.86637E-05 1.42524E-18 2.00784E-18
 -1      2507 9.97285E-05-3.17809E-05-2.91665E-05 3.06527E-05 1.79579E-18 1.56466E-18
 -1      2508 1.04294E-04-3.28320E-05-3.04763E-05 9.56365E-06 1.91062E-18-7.95913E-19
 -1      2509 1.03249E-04-3.31690E-05-3.00914E-05 6.09283E-06 1.83683E-18 8.63438E-19
 -1      2510 1.04306E-04-3.19516E-05-3.09312E-05 1.82379E-05 2.15055E-18-1.78261E-19
 -1      2511 1.05069E-04-3.36489E-05-3.06293E-05 1.43812E-05 2.33967E-18-1.93665E-18
 -1      2512 1.08515E-04-3.69554E-05-3.05961E-05 1.21792E-05 2.72636E-18-1.26406E-18
 -1      2513 1.07399E-04-3.66667E-05-3.03677E-05 2.21885E-05 2.86966E-18-2.10549E-19
 -1      2514 7.61748E-05-9.15038E-06-2.88978E-05 1.96760E-05 1.81078E-19 5.61424E-20
 -1      2515 8.18892E-05-1.32809E-05-2.91206E-05 2.51388E-05 1.02217E-18-1.96829E-19
 -1      2516 8.50898E-05-2.15356E-05-2.71108E-05 3.09126E-05 1.34590E-18-1.03391E-19
 -1      2517 6.98391E-05-3.98695E-06-2.82391E-05 1.30593E-06-1.39553E-18-1.21576E-18
 -1      2518 7.14187E-05-5.06459E-06-2.83045E-05 1.02012E-05-1.19653E-18 3.27643E-19
 -1      2519 7.02100E-05-1.06992E-05-2.51517E-05 1.76922E-05-3.85360E-19-1.25064E-18
 -1      2520 7.53871E-05-8.05428E-06-2.86300E-05-1.78504E-05-2.46120E-18-4.85130E-18
 -1      2521 7.14519E-05-5.26322E-06-2.84481E-05-1.01264E-05-2.34981E-18-3.26881E-18
 -1      2522 6.61216E-05-7.59910E-06-2.46594E-05-5.22112E-06-2.66443E-18-3.01845E-18
 -1      2523 8.76811E-05-1.78816E-05-2.96308E-05-2.76493E-05-9.20473E-19-4.53464E-18
 -1      2524 8.15720E-05-1.34223E-05-2.94175E-05-2.43780E-05-1.14946E-18-5.75988E-18
 -1      2525 7.68747E-05-1.52412E-05-2.60455E-05-2.48447E-05-2.39648E-18-4.10729E-18
 -1      2526 9.90093E-05-2.73598E-05-3.05271E-05-2.65331E-05 4.67784E-19-9.26988E-19
 -1      2527 9.41671E-05-2.32611E-05-3.04984E-05-2.78737E-05 4.57426E-19-3.02757E-18
 -1      2528 9.19653E-05-2.64161E-05-2.80789E-05-3.18255E-05-1.02306E-19-3.03698E-18
 -1      2529 1.04322E-04-3.23721E-05-3.07980E-05-1.89698E-05 6.35189E-19-4.28748E-19
 -1      2530 1.02219E-04-2.98137E-05-3.10073E-05-2.25625E-05 9.53102E-19-7.52370E-19
 -1      2531 1.03932E-04-3.45230E-05-2.98333E-05-2.69369E-05 1.26105E-18-1.13238E-18
 -1      2532 1.04071E-04-3.30159E-05-3.04429E-05-1.02179E-05-2.71285E-18 1.40920E-18
 -1      2533 1.04376E-04-3.21953E-05-3.08169E-05-1.38153E-05-1.90300E-18 1.85011E-18
 -1      2534 1.08484E-04-3.69920E-05-3.05967E-05-1.70799E-05 1.02503E-19-1.12935E-18
 -1      2535 2.96731E-05-2.52157E-05-1.81802E-06 2.58088E-05-1.00712E-18-1.41370E-18
 -1      2536 2.33621E-05-2.08562E-05-8.43825E-07 1.04714E-05 2.29017E-19-3.39576E-18
 -1      2537 1.05216E-04-5.82298E-05-2.01715E-05 5.03637E-05-1.68898E-18-1.14299E-18
 -1      2538 8.47438E-05-5.14834E-05-1.39424E-05 5.05150E-05-8.34327E-19-1.58856E-18
 -1      2539 9.36273E-05-2.74733E-05-2.83402E-05 3.69389E-07 1.01806E-18-5.51806E-19
 -1      2540 9.39097E-05-2.73372E-05-2.84873E-05 9.03015E-07 1.30744E-18-2.99623E-19
 -1      2541 9.42705E-05-2.74901E-05-2.86338E-05 4.02987E-07 1.16527E-18-9.07200E-19
 -1      2542 9.96709E-05-3.02615E-05-2.97980E-05-4.57764E-06-1.41533E-18 3.09028E-18
 -1      2543 2.52085E-05-2.02479E-05-1.77194E-06-6.33442E-06-4.81909E-19-3.68968E-18
 -1      2544 3.22875E-05-2.26057E-05-3.83665E-06-2.54345E-05-6.77520E-19-3.54399E-18
 -1      2545 6.03049E-05-3.96777E-05-8.85551E-06 4.85702E-05-7.74400E-19-1.21041E-18
 -1      2546 4.29469E-05-3.21207E-05-4.35007E-06 3.74165E-05-1.51725E-18-1.90117E-18
 -1      2547 9.50746E-05-2.00246E-05-3.22128E-05-1.17330E-05-2.43112E-18-2.24848E-19
 -1      2548 9.54767E-05-2.33875E-05-3.09265E-05-7.97948E-06-2.29975E-18-3.16694E-20
 -1      2549 9.50689E-05-2.25360E-05-3.10530E-05-7.66286E-06-2.20961E-18-5.86332E-19
 -1      2550 9.32192E-05-1.75775E-05-3.24154E-05-1.13630E-05-2.44445E-18-9.52740E-19
 -1      2551 4.87613E-05-3.24210E-05-6.58381E-06-4.04641E-05-1.30020E-19-3.60561E-18
 -1      2552 6.50458E-05-4.15168E-05-9.95038E-06-4.94428E-05 2.08264E-18-3.13847E-18
 -1      2553 1.53456E-04-1.55293E-05-5.96601E-05-1.16041E-05-8.96161E-19-2.58006E-18
 -1      2554 1.55278E-04-2.32484E-05-5.70232E-05-1.23407E-05-6.38663E-19-2.87864E-18
 -1      2555 1.54755E-04-5.00619E-05-4.53384E-05-1.57669E-06 1.02401E-18-3.56008E-18
 -1      2556 1.48649E-04-5.63444E-05-3.97123E-05 5.76217E-06 6.83873E-19-3.55563E-18
 -1      2557 8.78375E-05-1.07980E-05-3.30526E-05-1.51829E-06-3.21630E-19-3.15908E-18
 -1      2558 8.79429E-05-1.09201E-05-3.30440E-05-2.63707E-06-5.90696E-19-3.12065E-18
 -1      2559 8.93417E-05-1.30922E-05-3.26804E-05-2.92955E-06-6.82551E-19-2.87612E-18
 -1      2560 8.90933E-05-1.27576E-05-3.27185E-05-9.40904E-07-2.64518E-19-2.99817E-18
 -1      2561 1.55047E-04-2.84509E-05-5.45566E-05 1.07977E-05-2.89685E-19-3.20750E-18
 -1      2562 1.55430E-04-2.10470E-05-5.81964E-05 1.12752E-05-9.66676E-19-3.91986E-18
 -1      2563 1.48566E-04-1.40884E-05-5.84521E-05-5.08533E-07 1.53779E-18-4.03135E-18
 -1      2564 1.51756E-04-2.04346E-05-5.67262E-05-2.38440E-06 1.95495E-18-4.70315E-18
 -1      2565 1.52496E-04-1.21683E-05-6.06393E-05-3.38890E-06-8.51268E-19-1.64261E-18
 -1      2566 1.52967E-04-1.13113E-05-6.10804E-05-7.42578E-06-9.29195E-19-2.22341E-18
 -1      2567 1.51823E-04-4.91214E-05-4.42213E-05 7.87451E-07 4.57080E-19-2.44623E-18
 -1      2568 1.56101E-04-4.06330E-05-4.99662E-05 6.46798E-06 5.05573E-19-2.97203E-18
 -1      2569 1.37546E-04-6.20234E-05-3.23286E-05-1.77028E-05 1.20067E-19-2.08667E-18
 -1      2570 1.47581E-04-5.83086E-05-3.86637E-05-1.03982E-05 5.77253E-19-1.59157E-18
 -1      2571 6.55671E-05-4.54190E-05-8.30828E-06-4.18151E-05 1.83933E-18-1.67977E-18
 -1      2572 8.28770E-05-5.23213E-05-1.28936E-05-4.38278E-05 1.28580E-18-1.83870E-18
 -1      2573 2.95148E-05-2.92356E-05 7.19977E-08-2.53380E-05 1.97115E-18-1.07192E-18
 -1      2574 4.40314E-05-3.40720E-05-3.98775E-06-3.57000E-05 1.85437E-18-2.30732E-18
 -1      2575 2.02453E-05-2.00456E-05 3.85381E-07-5.50573E-07 1.63252E-18-3.44742E-18
 -1      2576 2.22401E-05-2.39588E-05 1.03054E-06-1.48285E-05 1.83467E-18-1.93801E-18
 -1      2577 3.30184E-05-2.24596E-05-3.92780E-06-1.98852E-05 1.21761E-18-1.75717E-18
 -1      2578 3.67827E-05-3.14751E-05-1.96173E-06 3.07115E-05 2.36089E-18-2.58472E-18
 -1      2579 2.62459E-05-2.36877E-05-5.69425E-07 1.79020E-05 2.12256E-18-3.01247E-18
 -1      2580 6.66395E-05-4.52866E-05-9.08939E-06 4.19352E-05 1.81710E-18-1.23667E-19
 -1      2581 4.97358E-05-3.86849E-05-4.48293E-06 3.62067E-05 1.64451E-18-6.15369E-19
 -1      2582 5.11132E-05-3.23994E-05-7.42848E-06 3.31842E-05 2.69833E-18-1.28389E-18
 -1      2583 1.10488E-04-6.14441E-05-2.12070E-05 3.64344E-05 1.90794E-18-1.22407E-18
 -1      2584 8.94904E-05-5.60051E-05-1.41850E-05 3.94599E-05 2.34670E-18-1.24196E-18
 -1      2585 1.41915E-04-6.16484E-05-3.46510E-05 1.73416E-05 7.84776E-19-4.24639E-18
 -1      2586 1.28142E-04-6.32658E-05-2.77833E-05 2.44281E-05 1.28029E-18-2.33125E-18
 -1      2587 1.45690E-04-6.14245E-05-3.60233E-05 5.47637E-06 1.13058E-18-3.03111E-18
 -1      2588 1.57592E-04-3.09591E-05-5.46937E-05-1.14897E-05 1.28325E-19-3.17044E-18
 -1      2589 1.54569E-04-3.73479E-05-5.05155E-05-1.02066E-05 7.82447E-19-3.49147E-18
 -1      2590 1.45911E-04-2.43680E-05-5.22239E-05-1.81431E-05-2.19382E-19-2.35814E-18
 -1      2591 1.44834E-04-6.14579E-05-3.57452E-05-2.61991E-05 7.77259E-19-2.97901E-18
 -1      2592 1.54237E-04-5.65698E-05-4.23155E-05-1.74654E-05 1.18368E-18-1.30358E-18
 -1      2593 1.56589E-04-2.42853E-05-5.69766E-05 1.05997E-06 1.32222E-18-2.98325E-18
 -1      2594 1.54559E-04-1.79218E-05-5.91254E-05 3.02714E-07 7.94093E-19-2.09037E-18
 -1      2595 1.57097E-04-4.46440E-05-4.82748E-05-5.71084E-06 6.25322E-19-2.07820E-18
 -1      2596 1.59749E-04-3.48253E-05-5.39504E-05-1.83534E-06 9.37454E-19-2.66815E-18
 -1      2597 1.17615E-04-6.23985E-05-2.36882E-05-4.36373E-05 1.80249E-18-2.05289E-18
 -1      2598 1.33558E-04-6.33906E-05-3.02185E-05-3.83426E-05 4.75609E-19-4.07804E-18
 -1      2599 8.45648E-05-5.19131E-05-1.38201E-05-5.03892E-05 2.68319E-18-1.32381E-18
 -1      2600 1.02756E-04-5.79443E-05-1.91307E-05-5.06751E-05 2.09979E-18-8.74429E-19
 -1      2601 1.17414E-04-6.21741E-05-2.34160E-05-4.44446E-05 1.49459E-18-6.28843E-19
 -1      2602 1.58046E-04-3.06177E-05-5.51328E-05 2.34333E-07 1.61572E-18-5.67321E-18
 -1      2603 1.57615E-04-3.97760E-05-5.06913E-05 3.97907E-06-4.97208E-19-4.42448E-18
 -1      2604 9.63386E-05-2.50966E-05-3.05582E-05 7.59217E-06 2.28446E-18 4.28647E-19
 -1      2605 9.74600E-05-2.37801E-05-3.15985E-05 1.06918E-05 2.46812E-18 7.09258E-19
 -1      2606 9.58937E-05-2.13044E-05-3.20227E-05 1.18935E-05 2.69746E-18-3.72033E-20
 -1      2607 9.58822E-05-2.41625E-05-3.07702E-05 7.68328E-06 2.36496E-18-4.21317E-19
 -1      2608 1.35354E-04-6.34122E-05-3.10266E-05 3.53296E-05-3.36717E-18 6.04993E-19
 -1      2609 1.20453E-04-6.29000E-05-2.46858E-05 4.26756E-05-2.18662E-18-6.89273E-20
 -1      2610 1.17241E-04-6.15884E-05-2.34880E-05 4.44237E-05-1.27690E-18 4.85747E-19
 -1      2611 1.39478E-04-1.75391E-05-5.25747E-05 1.57404E-05-9.62441E-19-3.02179E-18
 -1      2612 1.48973E-04-1.55933E-05-5.73737E-05 1.17068E-05-7.84988E-19-3.60307E-18
 -1      2613 1.37605E-04-1.01476E-05-5.55186E-05 1.13602E-05-7.66565E-20-3.30290E-18
 -1      2614 9.08068E-05-1.50650E-05-3.24567E-05-6.79208E-06-1.58262E-18-2.44297E-18
 -1      2615 8.97044E-05-1.32037E-05-3.28432E-05-7.96634E-06-1.72715E-18-2.57261E-18
 -1      2616 9.04034E-05-1.40305E-05-3.27968E-05-9.14198E-06-1.96630E-18-2.35187E-18
 -1      2617 9.47359E-05-2.69400E-05-2.90680E-05 1.88332E-06 1.55963E-18-8.16273E-19
 -1      2618 9.42484E-05-1.90823E-05-3.22592E-05 1.16025E-05 2.55221E-18-9.57094E-19
 -1      2619 1.43845E-04-6.38941E-05-3.43404E-05 2.51691E-05-3.77025E-18 9.71970E-20
 -1      2620 1.37056E-04-6.46077E-05-3.07257E-05 2.87685E-05-2.27026E-18 1.67818E-19
 -1      2621 1.46217E-04-6.10158E-05-3.69042E-05 1.34886E-05-2.82354E-18-2.23828E-18
 -1      2622 4.79980E-05-2.48669E-05-9.33020E-06-3.25195E-05-5.54807E-19-3.49740E-18
 -1      2623 8.38046E-05-4.66505E-05-1.55154E-05-4.88890E-05 1.80926E-18-2.16216E-18
 -1      2624 1.52868E-04-4.74189E-05-4.53475E-05 1.94869E-06-1.71402E-18-4.48017E-18
 -1      2625 9.95717E-05-3.11627E-05-2.93369E-05 6.63747E-07 1.14054E-18 3.93455E-18
 -1      2626 1.00919E-04-3.15822E-05-2.96544E-05 2.44735E-06 1.30828E-18 2.73724E-18
 -1      2627 1.53417E-04-5.25105E-05-4.32652E-05-5.99958E-06-2.48181E-19-5.53324E-19
 -1      2628 3.22704E-05-1.65121E-05-6.16456E-06 2.11850E-06-8.63709E-20-3.33223E-18
 -1      2629 4.47181E-05-2.52830E-05-7.67979E-06 3.26327E-05-6.47557E-19-2.02314E-18
 -1      2630 8.00680E-05-4.48121E-05-1.45743E-05 4.90510E-05-1.06218E-18-2.15591E-18
 -1      2631 1.49925E-04-3.01527E-05-5.15167E-05 4.80451E-06 3.60201E-19-2.72173E-18
 -1      2632 9.47179E-05-2.06036E-05-3.17189E-05 9.66936E-06 2.41337E-18-1.11213E-18
 -1      2633 8.46989E-05-5.09828E-05-1.40052E-05 3.90451E-05 2.39774E-18-8.63974E-19
 -1      2634 1.41682E-04-1.18498E-05-5.58334E-05-1.15474E-05-8.73503E-19-2.10488E-18
 -1      2635 2.78816E-05-1.98771E-05-2.78153E-06 9.67592E-06 1.96427E-18-2.93899E-18
 -1      2636 3.22266E-05-1.63884E-05-6.14345E-06 2.46356E-06 1.47966E-18-2.74312E-18
 -1      2637 3.74997E-05-2.01769E-05-7.07563E-06 1.87665E-05 2.38228E-18-1.75611E-18
 -1      2638 5.84828E-05-3.91484E-05-7.87425E-06-3.90507E-05 1.33281E-18-2.03860E-18
 -1      2639 7.25726E-05-4.30507E-05-1.23704E-05-3.96305E-05 4.87362E-19-3.57236E-19
 -1      2640 5.25627E-05-3.15788E-05-8.48333E-06-3.47283E-05 6.08381E-19-1.78639E-18
 -1      2641 1.32413E-04-6.43599E-05-2.89020E-05-2.19381E-05 1.66230E-20-1.44080E-18
 -1      2642 1.50523E-04-4.41515E-05-4.57077E-05-1.22641E-05 9.74935E-19-2.89283E-18
 -1      2643 1.48058E-04-5.53895E-05-3.97624E-05 1.99385E-06-1.66468E-19-2.21859E-18
 -1      2644 1.43426E-04-1.37445E-05-5.58694E-05 8.63336E-07 5.88264E-19-1.78427E-18
 -1      2645 9.20870E-05-1.62844E-05-3.25222E-05-1.03745E-05-2.29188E-18-1.56696E-18
 -1      2646 9.92180E-05-5.81712E-05-1.74763E-05-3.87377E-05 7.40519E-19-9.70329E-19
 -1      2647 1.43560E-04-1.13121E-05-5.71244E-05 1.59585E-06 1.94648E-18-4.08540E-18
 -1      2648 1.32242E-04-1.27078E-05-5.16301E-05-2.52507E-06 1.67945E-18-3.36251E-18
 -1      2649 1.34890E-04-8.76742E-06-5.48528E-05 3.83527E-06 1.49925E-18-3.35283E-18
 -1      2650 1.45553E-04-2.54067E-05-5.16870E-05-5.39741E-06 1.53885E-18-4.60511E-18
 -1      2651 1.49095E-04-3.46356E-05-4.92058E-05 1.44823E-05-3.24837E-19-3.18802E-18
 -1      2652 1.23719E-04-6.47176E-05-2.50712E-05 2.66140E-05 1.81117E-18-2.85185E-18
 -1      2653 1.41809E-04-6.54474E-05-3.25728E-05-2.76853E-05 2.33887E-19-1.87840E-18
 -1      2654 1.02308E-04-3.26523E-05-2.98145E-05-3.15493E-06-1.60188E-18 3.71971E-18
 -1      2655 1.03397E-04-3.26601E-05-3.02462E-05-6.61369E-06-2.13709E-18 3.41195E-18
 -1      2656 1.07109E-04-3.61974E-05-3.04641E-05-8.43818E-06-2.74581E-18 3.55191E-18
 -1      2657 1.03804E-04-3.41604E-05-2.99507E-05-2.30916E-06-2.31925E-18 4.22307E-18
 -1      2658 1.04098E-04-3.42327E-05-2.99881E-05 3.62805E-06 8.09842E-19 2.10065E-18
 -1      2659 1.08206E-04-3.69625E-05-3.04872E-05-3.35684E-06-2.42532E-18 5.58683E-18
 -1      2660 9.05554E-05-1.51729E-05-3.23291E-05 3.19538E-06 6.86828E-19-2.82118E-18
 -1      2661 9.03651E-05-1.49015E-05-3.23617E-05 2.26172E-06 4.35308E-19-2.86607E-18
 -1      2662 9.02309E-05-1.46989E-05-3.23907E-05 1.42294E-06 2.54909E-19-2.93851E-18
 -1      2663 9.01658E-05-1.46066E-05-3.24018E-05 4.65826E-07 2.76291E-20-2.77610E-18
 -1      2664 9.14170E-05-1.65943E-05-3.20540E-05 1.64204E-06 3.21374E-19-2.74059E-18
 -1      2665 9.21412E-05-1.75521E-05-3.20047E-05 6.47379E-06 1.76274E-18-2.42343E-18
 -1      2666 9.16151E-05-1.67568E-05-3.21045E-05 5.63425E-06 1.48570E-18-2.53189E-18
 -1      2667 9.35612E-05-1.97754E-05-3.16647E-05 7.59636E-06 2.13010E-18-1.91295E-18
 -1      2668 9.27707E-05-1.85214E-05-3.18382E-05 7.01908E-06 1.91262E-18-2.13109E-18
 -1      2669 9.34357E-05-1.98676E-05-3.15064E-05 5.73460E-06 1.71058E-18-2.04276E-18
 -1      2670 9.52203E-05-2.54101E-05-2.99310E-05 3.97749E-06 1.82838E-18-1.15203E-18
 -1      2671 9.55572E-05-2.45603E-05-3.03948E-05 5.60992E-06 1.97754E-18-1.05709E-18
 -1      2672 9.93428E-05-5.58435E-05-1.86953E-05 3.62569E-05 1.82165E-18-2.33093E-18
 -1      2673 7.92015E-05-4.45493E-05-1.43229E-05 3.69966E-05 1.90667E-18-9.13419E-19
 -1      2674 4.63842E-05-1.71050E-05-1.18518E-05-2.36776E-05-1.25753E-18-2.36661E-18
 -1      2675 6.01801E-05-2.67628E-05-1.40123E-05-3.96892E-05-7.30142E-19-4.09456E-18
 -1      2676 9.47090E-05-2.19079E-05-3.12072E-05 7.84156E-06 2.23591E-18-1.27388E-18
 -1      2677 7.93008E-05-3.97259E-05-1.64282E-05-4.61282E-05 3.15943E-19-2.08889E-18
 -1      2678 9.75409E-05-5.09167E-05-1.97304E-05-4.90263E-05 1.40502E-18-4.42998E-19
 -1      2679 9.53582E-05-2.59046E-05-2.97382E-05-2.70574E-06-1.57644E-18-6.57843E-19
 -1      2680 9.51945E-05-2.64907E-05-2.94555E-05-1.72087E-06-1.38904E-18-6.78474E-19
 -1      2681 9.52183E-05-2.70079E-05-2.92096E-05-9.81294E-07-1.23840E-18-5.55184E-19
 -1      2682 9.50836E-05-2.73622E-05-2.90296E-05-3.76927E-07-1.12235E-18-7.76213E-19
 -1      2683 9.54172E-05-2.63319E-05-2.96132E-05-1.62093E-06-1.37109E-18-8.36002E-19
 -1      2684 9.50500E-05-2.76679E-05-2.88620E-05 8.91504E-08-9.69197E-19-5.59808E-19
 -1      2685 9.49718E-05-2.78925E-05-2.87512E-05 4.39299E-07-9.01366E-19-6.03088E-19
 -1      2686 9.54163E-05-2.73277E-05-2.91882E-05-3.43778E-07-1.03697E-18-8.30689E-19
 -1      2687 9.49298E-05-2.80783E-05-2.86404E-05 7.07697E-07-8.03632E-19-5.51493E-19
 -1      2688 9.49012E-05-2.82254E-05-2.85764E-05 8.89593E-07-5.81964E-19-5.00386E-19
 -1      2689 9.53552E-05-2.79428E-05-2.88977E-05 4.44436E-07-8.48401E-19-7.38255E-19
 -1      2690 9.48660E-05-2.83377E-05-2.85060E-05 1.02212E-06-5.14070E-19-5.45581E-19
 -1      2691 9.48724E-05-2.84351E-05-2.84731E-05 1.09536E-06-4.47000E-19-5.98678E-19
 -1      2692 9.52909E-05-2.83249E-05-2.87051E-05 8.83321E-07-5.96690E-19-6.42343E-19
 -1      2693 9.48478E-05-2.85008E-05-2.84311E-05 1.13879E-06-4.39609E-19-5.45143E-19
 -1      2694 9.48759E-05-2.85645E-05-2.84186E-05 1.14419E-06-5.25913E-19-5.20771E-19
 -1      2695 9.52412E-05-2.85577E-05-2.85826E-05 1.08526E-06-3.09102E-19-6.70776E-19
 -1      2696 9.48608E-05-2.85999E-05-2.83962E-05 1.13210E-06-6.27070E-19-2.90625E-19
 -1      2697 9.49006E-05-2.86401E-05-2.83965E-05 1.09766E-06-4.83756E-19-1.60856E-19
 -1      2698 9.52088E-05-2.86930E-05-2.85097E-05 1.13357E-06-3.84600E-19-1.44632E-19
 -1      2699 9.48928E-05-2.86554E-05-2.83873E-05 1.05382E-06-4.75561E-19-1.44646E-20
 -1      2700 9.49371E-05-2.86790E-05-2.83954E-05 9.98720E-07-4.05899E-19-9.12836E-20
 -1      2701 9.51911E-05-2.87635E-05-2.84710E-05 1.08816E-06-3.85867E-19 8.62434E-20
 -1      2702 9.49345E-05-2.86810E-05-2.83949E-05 9.39704E-07-3.00565E-19 6.63313E-20
 -1      2703 9.49790E-05-2.86926E-05-2.84074E-05 8.77032E-07-2.00223E-19 6.27984E-20
 -1      2704 9.51842E-05-2.87907E-05-2.84557E-05 9.91404E-07-3.07284E-19 2.18114E-19
 -1      2705 9.49798E-05-2.86859E-05-2.84127E-05 8.14284E-07-4.70682E-19 2.22070E-20
 -1      2706 9.50221E-05-2.86888E-05-2.84275E-05 7.52923E-07-1.60375E-19-2.21926E-19
 -1      2707 9.51845E-05-2.87889E-05-2.84562E-05 8.72880E-07-4.07972E-19 2.71866E-19
 -1      2708 9.50251E-05-2.86762E-05-2.84365E-05 6.94295E-07-1.71115E-20-7.21227E-19
 -1      2709 9.50642E-05-2.86727E-05-2.84524E-05 6.40324E-07-3.64453E-19-7.88090E-19
 -1      2710 9.51896E-05-2.87678E-05-2.84671E-05 7.53036E-07-3.92097E-19 1.97564E-21
 -1      2711 9.50688E-05-2.86561E-05-2.84639E-05 5.91290E-07-6.94673E-19-6.84845E-19
 -1      2712 9.51049E-05-2.86478E-05-2.84804E-05 5.49018E-07-5.89502E-19-6.13198E-19
 -1      2713 9.51977E-05-2.87334E-05-2.84852E-05 6.46056E-07-5.46089E-19-9.47414E-19
 -1      2714 9.51106E-05-2.86279E-05-2.84939E-05 5.13604E-07-7.10414E-19-8.10778E-19
 -1      2715 9.51446E-05-2.86157E-05-2.85111E-05 4.86353E-07-7.88429E-19-8.29820E-19
 -1      2716 9.52078E-05-2.86893E-05-2.85083E-05 5.62085E-07-8.32670E-19-1.13819E-18
 -1      2717 9.51512E-05-2.85928E-05-2.85263E-05 4.67848E-07-9.78197E-19-9.22275E-19
 -1      2718 9.51849E-05-2.85771E-05-2.85446E-05 4.58553E-07-9.94231E-19-1.18212E-18
 -1      2719 9.52195E-05-2.86370E-05-2.85357E-05 5.08929E-07-9.14050E-19-8.89027E-19
 -1      2720 9.51924E-05-2.85510E-05-2.85619E-05 4.60059E-07-7.80395E-19-9.11705E-19
 -1      2721 9.52278E-05-2.85320E-05-2.85820E-05 4.71726E-07-6.80494E-19-1.13652E-18
 -1      2722 9.52328E-05-2.85766E-05-2.85673E-05 4.93360E-07-7.85993E-19-5.52856E-19
 -1      2723 9.52364E-05-2.85019E-05-2.86018E-05 4.96574E-07-5.32850E-19-7.07554E-19
 -1      2724 9.52762E-05-2.84794E-05-2.86249E-05 5.32620E-07-3.33121E-19-3.57459E-19
 -1      2725 9.52478E-05-2.85069E-05-2.86037E-05 5.22123E-07-4.86479E-19-1.84312E-19
 -1      2726 9.52861E-05-2.84443E-05-2.86479E-05 5.84671E-07-1.57105E-19-3.76264E-19
 -1      2727 9.53332E-05-2.84181E-05-2.86750E-05 6.49158E-07 1.62244E-19-5.61479E-19
 -1      2728 9.52650E-05-2.84260E-05-2.86459E-05 6.02665E-07-3.71423E-19 2.93772E-19
 -1      2729 9.53448E-05-2.83767E-05-2.87022E-05 7.32986E-07 3.36169E-19-6.60321E-19
 -1      2730 9.54030E-05-2.83467E-05-2.87348E-05 8.30744E-07 5.47886E-19-6.07422E-19
 -1      2731 9.52850E-05-2.83311E-05-2.86952E-05 7.43633E-07 8.89812E-20-3.49793E-20
 -1      2732 9.54164E-05-2.82978E-05-2.87669E-05 9.51715E-07 9.17892E-19-8.90959E-19
 -1      2733 9.54897E-05-2.82639E-05-2.88066E-05 1.08833E-06 1.17675E-18-9.02076E-19
 -1      2734 9.53083E-05-2.82195E-05-2.87531E-05 9.55128E-07 5.29706E-19-7.56688E-19
 -1      2735 9.55053E-05-2.82065E-05-2.88445E-05 1.25253E-06 1.16484E-18-1.16648E-18
 -1      2736 9.55983E-05-2.81694E-05-2.88927E-05 1.43417E-06 5.39673E-19-1.15343E-18
 -1      2737 9.53356E-05-2.80885E-05-2.88210E-05 1.24869E-06 9.22186E-19-1.11321E-18
 -1      2738 9.56165E-05-2.81029E-05-2.89370E-05 1.64813E-06 3.36864E-20-1.21985E-18
 -1      2739 9.57345E-05-2.80640E-05-2.89952E-05 1.88109E-06-3.30236E-19-1.12493E-18
 -1      2740 9.53677E-05-2.79363E-05-2.89000E-05 1.63694E-06 3.75696E-19-5.58062E-19
 -1      2741 9.57559E-05-2.79892E-05-2.90460E-05 2.15127E-06-5.16338E-19-1.08752E-18
 -1      2742 9.59049E-05-2.79517E-05-2.91152E-05 2.44114E-06-6.77049E-19-6.37164E-19
 -1      2743 9.54057E-05-2.77634E-05-2.89903E-05 2.13277E-06-2.71065E-19-8.29911E-19
 -1      2744 9.59309E-05-2.78714E-05-2.91720E-05 2.77305E-06-6.03830E-19-2.75756E-19
 -1      2745 9.61178E-05-2.78416E-05-2.92526E-05 3.12335E-06 1.34742E-19 1.80633E-19
 -1      2746 9.54517E-05-2.75741E-05-2.90911E-05 2.74789E-06-4.22275E-20-6.75142E-19
 -1      2747 9.61517E-05-2.77629E-05-2.93135E-05 3.52017E-06 6.19644E-19-6.30573E-20
 -1      2748 9.63854E-05-2.77519E-05-2.94047E-05 3.93009E-06 6.06894E-19 3.17901E-19
 -1      2749 9.55105E-05-2.73801E-05-2.91993E-05 3.49064E-06 5.41744E-19-1.09357E-20
 -1      2750 9.64343E-05-2.76886E-05-2.94667E-05 4.39061E-06 4.90549E-19 2.65633E-19
 -1      2751 9.67267E-05-2.77158E-05-2.95659E-05 4.85169E-06-1.12729E-19 7.70265E-19
 -1      2752 9.55923E-05-2.72055E-05-2.93091E-05 4.36266E-06 5.45998E-19-2.48193E-19
 -1      2753 9.68061E-05-2.76932E-05-2.96236E-05 5.36725E-06-8.32236E-19 1.25218E-18
 -1      2754 9.71753E-05-2.77907E-05-2.97259E-05 5.85837E-06-5.13769E-19 1.14292E-18
 -1      2755 9.57192E-05-2.70948E-05-2.94113E-05 5.35426E-06-3.32192E-19 5.29558E-19
 -1      2756 9.73152E-05-2.78522E-05-2.97718E-05 6.40858E-06-1.42520E-19 1.06220E-18
 -1      2757 9.77904E-05-2.80716E-05-2.98699E-05 6.88890E-06-1.06928E-19 8.56517E-19
 -1      2758 9.59348E-05-2.71251E-05-2.94920E-05 6.43787E-06-4.12965E-19 9.59731E-19
 -1      2759 9.80466E-05-2.82873E-05-2.98948E-05 7.43513E-06-4.43847E-19 6.24494E-19
 -1      2760 9.86750E-05-2.87068E-05-2.99788E-05 7.83460E-06-6.24579E-19 5.32216E-19
 -1      2761 9.63221E-05-2.74227E-05-2.95337E-05 7.55890E-06-3.60948E-19 6.12838E-19
 -1      2762 9.91445E-05-2.91821E-05-2.99740E-05 8.30980E-06-6.67167E-19 9.83984E-19
 -1      2763 9.99986E-05-2.99103E-05-3.00343E-05 8.51703E-06-5.41187E-19 8.44248E-19
 -1      2764 9.70287E-05-2.81826E-05-2.95177E-05 8.62199E-06-2.20116E-19 4.25297E-19
 -1      2765 1.00837E-04-3.07886E-05-2.99972E-05 8.80826E-06-2.76501E-19 8.62531E-19
 -1      2766 1.02014E-04-3.19528E-05-3.00307E-05 8.65695E-06 3.22452E-19 5.73126E-19
 -1      2767 9.82996E-05-2.96823E-05-2.94325E-05 9.46749E-06-7.58627E-19 1.13864E-18
 -1      2768 1.03441E-04-3.33934E-05-2.99762E-05 8.57437E-06 5.96769E-19 3.50883E-19
 -1      2769 1.05038E-04-3.50869E-05-2.99981E-05 7.83349E-06 1.05626E-18 5.62713E-19
 -1      2770 1.00506E-04-3.22681E-05-2.92909E-05 9.82711E-06 1.57089E-19 3.94704E-19
 -1      2771 1.07300E-04-3.71824E-05-2.99797E-05 7.06832E-06 1.15644E-18 2.98624E-19
 -1      2772 1.09321E-04-3.93296E-05-3.00414E-05 5.45708E-06 1.09657E-18 5.09343E-19
 -1      2773 1.04123E-04-3.62473E-05-2.91648E-05 9.24506E-06 7.16015E-19 2.25800E-19
 -1      2774 1.12548E-04-4.19120E-05-3.01785E-05 3.55306E-06 4.52228E-19-2.90691E-19
 -1      2775 1.14729E-04-4.40087E-05-3.03869E-05 8.31479E-07-1.26823E-20-9.64951E-19
 -1      2776 1.09571E-04-4.15967E-05-2.92373E-05 6.98476E-06-2.38538E-20-1.55925E-18
 -1      2777 1.18602E-04-4.63165E-05-3.08959E-05-2.68755E-06 6.63539E-20-1.17431E-18
 -1      2778 1.20203E-04-4.71221E-05-3.14190E-05-6.44059E-06-2.51168E-19-2.00217E-18
 -1      2779 1.16740E-04-4.73130E-05-2.98720E-05 2.02511E-06 6.93012E-21-2.18344E-18
 -1      2780 1.23394E-04-4.73700E-05-3.25977E-05-1.14409E-05 1.63974E-19-1.45334E-18
 -1      2781 1.23295E-04-4.51665E-05-3.35688E-05-1.51414E-05 2.16344E-19-4.44931E-19
 -1      2782 1.24140E-04-5.04493E-05-3.16640E-05-6.50847E-06 4.56829E-19-1.62671E-18
 -1      2783 1.23968E-04-4.15685E-05-3.55306E-05-1.97501E-05 4.15245E-20 1.08248E-18
 -1      2784 1.21453E-04-3.55413E-05-3.68906E-05-2.12151E-05 4.95461E-19 1.84208E-18
 -1      2785 1.28421E-04-4.65532E-05-3.51863E-05-1.67259E-05 8.63868E-19 4.39054E-19
 -1      2786 1.18986E-04-2.85674E-05-3.91630E-05-2.12569E-05 1.28487E-18 1.39553E-18
 -1      2787 1.15731E-04-2.19564E-05-4.03170E-05-1.82869E-05 5.65659E-19 1.28193E-18
 -1      2788 1.26466E-04-3.33936E-05-4.00403E-05-2.23601E-05 7.88482E-19 2.40351E-18
 -1      2789 1.13172E-04-1.70259E-05-4.16310E-05-1.18209E-05 5.96099E-19 7.76359E-19
 -1      2790 1.12278E-04-1.55863E-05-4.17821E-05-5.60367E-06 8.05846E-19 2.91406E-19
 -1      2791 1.20687E-04-1.79011E-05-4.44057E-05-1.66238E-05 3.79365E-19 9.28269E-19
 -1      2792 1.13425E-04-1.79162E-05-4.11249E-05 2.15144E-06 2.72480E-19 4.79791E-19
 -1      2793 1.15384E-04-2.28014E-05-4.01335E-05 6.84122E-06 1.17674E-18 4.38717E-19
 -1      2794 1.19355E-04-1.49736E-05-4.51597E-05-1.30415E-06 8.16540E-19-3.35769E-19
 -1      2795 1.18256E-04-2.95831E-05-3.80704E-05 9.40420E-06 1.21078E-18 8.39813E-19
 -1      2796 1.20458E-04-3.58611E-05-3.65999E-05 9.65272E-06 1.11165E-18 1.04957E-18
 -1      2797 1.23907E-04-2.67054E-05-4.18863E-05 9.08877E-06 1.22544E-18-1.14524E-18
 -1      2798 1.20880E-04-4.05642E-05-3.44811E-05 6.59297E-06 1.52695E-18 8.78823E-19
 -1      2799 1.20973E-04-4.34777E-05-3.32943E-05 3.83353E-06 8.27922E-19 5.80601E-19
 -1      2800 1.27339E-04-4.11102E-05-3.70259E-05 7.63419E-06 4.27434E-19-8.50315E-19
 -1      2801 1.17852E-04-4.35278E-05-3.19492E-05-6.80625E-07 8.78391E-19 4.79550E-19
 -1      2802 1.15890E-04-4.26713E-05-3.12905E-05-3.57045E-06-5.72012E-20 1.51153E-18
 -1      2803 1.24166E-04-4.68567E-05-3.32226E-05-1.18935E-06 9.68562E-19-1.62726E-18
 -1      2804 9.44779E-05-2.81307E-05-2.84343E-05-8.90150E-07 6.02889E-19-9.73853E-19
 -1      2805 9.44946E-05-2.80033E-05-2.84851E-05-7.15280E-07 7.63008E-19-8.59621E-19
 -1      2806 1.10725E-04-3.89133E-05-3.08058E-05 5.79718E-06 7.13324E-19 1.51774E-18
 -1      2807 1.07624E-04-3.67865E-05-3.03653E-05 1.62506E-06-6.57807E-20 2.95580E-18
 -1      2808 1.09082E-04-3.76703E-05-3.06616E-05-2.64223E-08-8.34658E-20 2.95366E-18
 -1      2809 9.45552E-05-2.78520E-05-2.85880E-05-4.40077E-07 7.64336E-19-9.29361E-19
 -1      2810 9.46438E-05-2.76650E-05-2.86868E-05-9.67599E-08 9.31452E-19-8.44753E-19
 -1      2811 9.50082E-05-2.79120E-05-2.87638E-05-4.49672E-07 8.40842E-19-1.17295E-18
 -1      2812 9.45171E-05-2.84357E-05-2.83198E-05-1.13921E-06 4.52307E-19-8.00439E-19
 -1      2813 9.44607E-05-2.83719E-05-2.83207E-05-1.13684E-06 4.76869E-19-9.62839E-19
 -1      2814 9.45885E-05-2.85151E-05-2.83163E-05-1.09082E-06 4.06987E-19-7.70478E-19
 -1      2815 9.45197E-05-2.84702E-05-2.83059E-05-1.12676E-06 5.18530E-19-6.28281E-19
 -1      2816 9.48947E-05-2.85758E-05-2.84254E-05-1.15696E-06 3.81357E-19-1.08077E-18
 -1      2817 9.46723E-05-2.85646E-05-2.83310E-05-9.90615E-07 6.68282E-19-8.10960E-19
 -1      2818 9.46006E-05-2.85338E-05-2.83146E-05-1.04629E-06 5.93605E-19-8.15170E-19
 -1      2819 9.49153E-05-2.86488E-05-2.84019E-05-1.10911E-06 5.78013E-19-6.83558E-19
 -1      2820 9.47587E-05-2.85926E-05-2.83561E-05-8.67750E-07 5.37172E-19-3.25787E-19
 -1      2821 9.46897E-05-2.85726E-05-2.83369E-05-9.30645E-07 5.10206E-19-5.88681E-19
 -1      2822 9.49486E-05-2.86854E-05-2.83997E-05-1.00876E-06 5.23695E-19-5.41606E-19
 -1      2823 9.48419E-05-2.86050E-05-2.83864E-05-7.42029E-07 2.77033E-19 2.80555E-20
 -1      2824 9.47784E-05-2.85933E-05-2.83664E-05-8.03718E-07 5.68752E-19-5.66414E-20
 -1      2825 9.49878E-05-2.86971E-05-2.84110E-05-8.85858E-07 4.24039E-19-1.40009E-19
 -1      2826 9.49192E-05-2.86059E-05-2.84191E-05-6.26879E-07-1.66024E-19-3.91254E-19
 -1      2827 9.48621E-05-2.86005E-05-2.83993E-05-6.81673E-07 1.06536E-19-1.96543E-19
 -1      2828 9.50286E-05-2.86917E-05-2.84305E-05-7.60908E-07 2.68004E-19 1.03367E-20
 -1      2829 9.49904E-05-2.85982E-05-2.84528E-05-5.31577E-07-3.28055E-21-5.77335E-19
 -1      2830 9.49391E-05-2.85977E-05-2.84335E-05-5.75522E-07-6.08929E-21-3.24092E-19
 -1      2831 9.50688E-05-2.86742E-05-2.84551E-05-6.47982E-07 7.87046E-20-3.35996E-19
 -1      2832 9.50567E-05-2.85838E-05-2.84873E-05-4.62924E-07 3.69158E-19-7.39208E-19
 -1      2833 9.50098E-05-2.85872E-05-2.84683E-05-4.93050E-07 2.05282E-19-3.04616E-19
 -1      2834 9.51076E-05-2.86478E-05-2.84830E-05-5.56973E-07 1.09003E-19-1.77687E-19
 -1      2835 9.51209E-05-2.85639E-05-2.85231E-05-4.26526E-07-1.95442E-19-3.24025E-19
 -1      2836 9.50760E-05-2.85703E-05-2.85038E-05-4.40277E-07 1.34368E-19-5.54023E-19
 -1      2837 9.51455E-05-2.86143E-05-2.85136E-05-4.95319E-07-5.81884E-20 4.15112E-20
 -1      2838 9.51868E-05-2.85391E-05-2.85616E-05-4.27763E-07-2.52494E-20-5.24146E-20
 -1      2839 9.51410E-05-2.85480E-05-2.85410E-05-4.22567E-07-8.16247E-20-1.34559E-19
 -1      2840 9.51836E-05-2.85744E-05-2.85472E-05-4.69316E-07-1.37935E-19 5.13570E-19
 -1      2841 9.52590E-05-2.85096E-05-2.86047E-05-4.72503E-07-3.68681E-19-1.85774E-19
 -1      2842 9.52087E-05-2.85206E-05-2.85817E-05-4.45460E-07-1.34593E-19-2.94462E-19
 -1      2843 9.52240E-05-2.85277E-05-2.85846E-05-4.85108E-07-1.62341E-22 1.13661E-19
 -1      2844 9.53434E-05-2.84758E-05-2.86547E-05-5.67581E-07-3.30522E-19-9.22013E-19
 -1      2845 9.52842E-05-2.84883E-05-2.86279E-05-5.15263E-07-4.23755E-19-4.78364E-19
 -1      2846 9.52692E-05-2.84736E-05-2.86273E-05-5.49398E-07 3.47795E-20-5.95508E-20
 -1      2847 9.54465E-05-2.84378E-05-2.87145E-05-7.21057E-07 2.17496E-19-4.26569E-19
 -1      2848 9.53736E-05-2.84512E-05-2.86821E-05-6.39418E-07-1.45112E-19-7.27175E-19
 -1      2849 9.53223E-05-2.84111E-05-2.86771E-05-6.69910E-07 6.10193E-20-4.63248E-19
 -1      2850 9.55762E-05-2.83964E-05-2.87869E-05-9.42198E-07 8.45674E-19-2.38513E-19
 -1      2851 9.54837E-05-2.84097E-05-2.87471E-05-8.26626E-07 7.02741E-19-4.69399E-19
 -1      2852 9.53871E-05-2.83392E-05-2.87360E-05-8.55599E-07 4.31776E-19 6.41359E-20
 -1      2853 9.57414E-05-2.83536E-05-2.88751E-05-1.24110E-06 2.70001E-19 7.76014E-19
 -1      2854 9.56229E-05-2.83649E-05-2.88260E-05-1.08667E-06 7.05474E-19 2.05356E-19
 -1      2855 9.54681E-05-2.82577E-05-2.88059E-05-1.11654E-06 4.93314E-19 1.89435E-19
 -1      2856 9.59524E-05-2.83127E-05-2.89819E-05-1.62780E-06 6.73214E-20 5.77922E-19
 -1      2857 9.58004E-05-2.83195E-05-2.89217E-05-1.42980E-06 1.55887E-19 1.18520E-18
 -1      2858 9.55708E-05-2.81674E-05-2.88888E-05-1.46345E-06 7.53525E-20 7.60984E-19
 -1      2859 9.62212E-05-2.82804E-05-2.91098E-05-2.11070E-06 1.80382E-19-3.19716E-19
 -1      2860 9.60275E-05-2.82783E-05-2.90368E-05-1.86557E-06 4.17502E-19 7.64573E-20
 -1      2861 9.57018E-05-2.80719E-05-2.89862E-05-1.90660E-06 3.07601E-19 3.51818E-19
 -1      2862 9.65617E-05-2.82680E-05-2.92600E-05-2.69393E-06-3.36654E-19-5.88007E-19
 -1      2863 9.63171E-05-2.82499E-05-2.91732E-05-2.40078E-06-1.48504E-19-3.37364E-19
 -1      2864 9.58698E-05-2.79787E-05-2.90984E-05-2.45409E-06 1.91055E-19 4.10598E-19
 -1      2865 9.69911E-05-2.82943E-05-2.94321E-05-3.37325E-06-2.57339E-19 1.10115E-19
 -1      2866 9.66854E-05-2.82493E-05-2.93313E-05-3.03624E-06-2.79826E-19-5.68255E-20
 -1      2867 9.60866E-05-2.79023E-05-2.92243E-05-3.10896E-06-6.65693E-19 9.42803E-19
 -1      2868 9.75315E-05-2.83898E-05-2.96226E-05-4.12996E-06-9.36754E-19 1.07403E-18
 -1      2869 9.71532E-05-2.83010E-05-2.95093E-05-3.76183E-06-8.07591E-19 4.68392E-19
 -1      2870 9.63701E-05-2.78683E-05-2.93607E-05-3.86503E-06-8.40244E-19 8.29257E-19
 -1      2871 9.82132E-05-2.86026E-05-2.98245E-05-4.92215E-06-5.54146E-19 5.30391E-19
 -1      2872 9.77490E-05-2.84445E-05-2.97022E-05-4.54923E-06-7.41185E-19 8.04641E-19
 -1      2873 9.67476E-05-2.79191E-05-2.95015E-05-4.70072E-06-6.38279E-19 6.60808E-19
 -1      2874 9.90802E-05-2.90048E-05-3.00262E-05-5.67277E-06 9.10292E-19 7.65321E-19
 -1      2875 9.85136E-05-2.87403E-05-2.99011E-05-5.34163E-06 2.22720E-19 1.06794E-18
 -1      2876 9.72632E-05-2.81219E-05-2.96371E-05-5.57054E-06-1.27279E-19 4.43238E-19
 -1      2877 1.00196E-04-2.96985E-05-3.02120E-05-6.25429E-06 1.23185E-18 5.17156E-19
 -1      2878 9.95075E-05-2.92775E-05-3.00930E-05-6.03976E-06 1.52474E-18 1.41669E-18
 -1      2879 9.79876E-05-2.85779E-05-2.97549E-05-6.39324E-06 1.17888E-18 1.41904E-18
 -1      2880 1.01650E-04-3.08143E-05-3.03650E-05-6.47133E-06 7.76468E-19 2.55495E-19
 -1      2881 1.00817E-04-3.01771E-05-3.02624E-05-6.48430E-06 1.36317E-18 2.26834E-19
 -1      2882 9.90301E-05-2.94292E-05-2.98417E-05-7.03616E-06 1.31030E-18 1.45632E-18
 -1      2883 1.03549E-04-3.24871E-05-3.04743E-05-6.04531E-06-1.84080E-19 8.85741E-20
 -1      2884 1.02557E-04-3.15816E-05-3.03966E-05-6.43619E-06 4.22207E-20 3.10289E-19
 -1      2885 1.00549E-04-3.08540E-05-2.98899E-05-7.29489E-06 4.58388E-19 2.38562E-19
 -1      2886 1.05978E-04-3.47836E-05-3.05489E-05-4.61455E-06-3.55373E-19 1.18605E-18
 -1      2887 1.04845E-04-3.36104E-05-3.04956E-05-5.56218E-06-3.25438E-19 1.05671E-18
 -1      2888 1.02742E-04-3.30291E-05-2.99087E-05-6.86924E-06-6.44423E-19-1.61799E-19
 -1      2889 1.08903E-04-3.75470E-05-3.06387E-05-1.77882E-06-1.01130E-18 1.54394E-18
 -1      2890 1.07734E-04-3.62476E-05-3.05910E-05-3.44697E-06-6.34810E-19 1.66488E-18
 -1      2891 1.05792E-04-3.60227E-05-2.99447E-05-5.34678E-06-8.74869E-19 9.99232E-19
 -1      2892 1.11972E-04-4.01446E-05-3.08558E-05 2.74114E-06-1.16555E-18 1.99587E-18
 -1      2893 1.11033E-04-3.91266E-05-3.07674E-05 3.14520E-07-9.77046E-19 2.11580E-18
 -1      2894 1.09711E-04-3.95686E-05-3.01079E-05-2.22968E-06-8.70357E-19 1.63917E-18
 -1      2895 1.14314E-04-4.12572E-05-3.13744E-05 8.71820E-06-6.53493E-19 2.25389E-18
 -1      2896 1.14061E-04-4.12504E-05-3.11754E-05 5.82624E-06-7.09360E-19 2.32298E-18
 -1      2897 1.14029E-04-4.27096E-05-3.05915E-05 2.87879E-06-1.35909E-18 1.44157E-18
 -1      2898 1.14573E-04-3.91275E-05-3.23647E-05 1.47983E-05-8.17991E-19 3.23093E-18
 -1      2899 1.15513E-04-4.09332E-05-3.19969E-05 1.23096E-05-9.78687E-19 3.03673E-18
 -1      2900 1.17475E-04-4.35830E-05-3.16497E-05 9.74487E-06-1.37571E-18 1.86362E-18
 -1      2901 1.11758E-04-3.28016E-05-3.38030E-05 1.81781E-05-1.64695E-18 2.73725E-18
 -1      2902 1.13961E-04-3.65215E-05-3.33134E-05 1.75109E-05-8.79164E-19 4.04809E-18
 -1      2903 1.18218E-04-4.00938E-05-3.34540E-05 1.65690E-05-1.13367E-18 3.71896E-18
 -1      2904 1.06994E-04-2.46425E-05-3.52434E-05 1.56820E-05-9.40365E-19 2.01193E-18
 -1      2905 1.09434E-04-2.86569E-05-3.48221E-05 1.77427E-05-1.71596E-18 1.65875E-18
 -1      2906 1.14946E-04-3.12961E-05-3.58483E-05 1.95926E-05-9.17257E-19 2.26002E-18
 -1      2907 1.03630E-04-1.98568E-05-3.59379E-05 6.98615E-06-3.42188E-19 2.44180E-18
 -1      2908 1.04676E-04-2.13855E-05-3.58750E-05 1.12402E-05-4.25184E-19 2.22280E-18
 -1      2909 1.09875E-04-2.17785E-05-3.77913E-05 1.52231E-05-9.38671E-19 2.65755E-18
 -1      2910 1.04291E-04-2.20911E-05-3.54024E-05-2.95356E-06 1.10236E-18 2.49944E-18
 -1      2911 1.03542E-04-2.01221E-05-3.57911E-05 1.16195E-06 3.09061E-19 2.81523E-18
 -1      2912 1.07697E-04-1.82825E-05-3.84100E-05 4.54185E-06-3.24784E-19 2.10516E-18
 -1      2913 1.07745E-04-2.91585E-05-3.38696E-05-8.08320E-06 1.30332E-18 3.53259E-18
 -1      2914 1.06272E-04-2.55768E-05-3.45283E-05-6.37963E-06 1.55065E-18 3.58481E-18
 -1      2915 1.10088E-04-2.36322E-05-3.71612E-05-5.49742E-06 5.12706E-19 2.64245E-18
 -1      2916 1.09983E-04-3.52803E-05-3.21524E-05-7.01895E-06 1.18606E-18 3.34468E-18
 -1      2917 1.09238E-04-3.27008E-05-3.27641E-05-7.84952E-06 1.16829E-18 3.90936E-18
 -1      2918 1.13811E-04-3.22363E-05-3.49291E-05-8.54587E-06 1.72564E-18 4.35093E-18
 -1      2919 1.10182E-04-3.77438E-05-3.11192E-05-2.86140E-06 8.57488E-19 3.63505E-18
 -1      2920 1.10667E-04-3.70400E-05-3.15882E-05-4.81050E-06 1.31325E-18 3.49352E-18
 -1      2921 1.16136E-04-3.87697E-05-3.30673E-05-5.35417E-06 1.32538E-18 4.67388E-18
 -1      2922 1.15835E-04-4.13328E-05-3.18280E-05 3.10310E-07 9.80330E-19 3.15220E-18
 -1      2923 6.06578E-05-1.05030E-05-2.14807E-05 1.57387E-05-1.94585E-18-1.00172E-18
 -1      2924 6.87088E-05-1.51411E-05-2.24116E-05 2.57593E-05 7.39566E-20-2.99384E-18
 -1      2925 1.12493E-04-4.06651E-05-3.08547E-05-6.05829E-06-4.52051E-19 2.22184E-18
 -1      2926 1.10396E-04-3.88337E-05-3.06293E-05-7.20743E-06-1.38727E-18 2.73383E-18
 -1      2927 1.18242E-04-4.51900E-05-3.14425E-05-8.11396E-06 6.88800E-19-3.01402E-18
 -1      2928 1.01200E-04-3.65979E-05-2.77113E-05 3.43951E-05 1.72939E-18 2.79923E-18
 -1      2929 1.08452E-04-4.08388E-05-2.88070E-05 3.12867E-05 1.85659E-18 7.27108E-19
 -1      2930 5.88837E-05-1.00048E-05-2.06752E-05-1.24684E-05-2.58354E-18-3.14567E-18
 -1      2931 5.66446E-05-8.35559E-06-2.03006E-05-1.94644E-07-2.46864E-18-1.59962E-18
 -1      2932 7.93634E-05-2.31491E-05-2.41518E-05 3.37829E-05 1.38117E-18-2.81098E-18
 -1      2933 9.07487E-05-2.98484E-05-2.56061E-05 3.67252E-05 2.11700E-18 1.01766E-18
 -1      2934 9.90626E-05-3.96138E-05-2.52211E-05 3.87614E-05 1.21973E-18 1.57347E-18
 -1      2935 7.20939E-05-2.31112E-05-2.05281E-05 3.34944E-05 7.89170E-19-3.16176E-18
 -1      2936 7.34573E-05-2.05911E-05-2.21152E-05-3.16866E-05-2.15252E-18-3.94569E-18
 -1      2937 6.31314E-05-1.44055E-05-2.07996E-05-2.40400E-05-3.24832E-18-2.50775E-18
 -1      2938 1.00056E-04-3.56161E-05-2.71584E-05-3.51129E-05 8.03662E-19-7.79614E-19
 -1      2939 8.99274E-05-2.98591E-05-2.58565E-05-3.58596E-05-4.56935E-19-3.34065E-18
 -1      2940 1.11903E-04-4.22519E-05-2.98310E-05-2.55606E-05 1.75454E-18-7.52529E-19
 -1      2941 1.07190E-04-3.94106E-05-2.90090E-05-3.00639E-05 1.33929E-18-3.57871E-19
 -1      2942 1.06895E-04-4.37178E-05-2.70947E-05-3.47112E-05 1.53702E-18-2.23140E-19
 -1      2943 1.43876E-04-5.90627E-05-3.69492E-05-2.84716E-06 1.05845E-18-2.52966E-18
 -1      2944 1.39772E-04-6.34795E-05-3.26340E-05 5.78864E-06 1.89913E-18-3.03884E-18
 -1      2945 1.43288E-04-3.52964E-05-4.65809E-05 7.95029E-06-2.50404E-19-2.62188E-18
 -1      2946 1.38782E-04-2.58889E-05-4.91808E-05 7.63253E-06 7.90811E-19-2.64020E-18
 -1      2947 9.34274E-05-4.78002E-05-1.95326E-05 4.89759E-05-1.15631E-18-1.67035E-18
 -1      2948 7.33549E-05-3.60607E-05-1.52884E-05 4.53284E-05-1.22142E-18-2.25830E-18
 -1      2949 9.43344E-05-2.08730E-05-3.15182E-05-8.24234E-06-2.10028E-18-1.09174E-18
 -1      2950 9.47205E-05-2.26477E-05-3.09133E-05-6.40293E-06-1.97989E-18-9.07999E-19
 -1      2951 1.42694E-04-5.84193E-05-3.60298E-05 1.89372E-06-3.85201E-20-2.60452E-18
 -1      2952 1.44684E-04-5.13297E-05-4.07087E-05 9.80749E-06-5.76776E-20-3.55023E-18
 -1      2953 9.47261E-05-2.74155E-05-2.88503E-05 3.86813E-07 1.02442E-18-9.05612E-19
 -1      2954 9.49069E-05-2.71222E-05-2.90229E-05 9.91131E-07 1.20958E-18-8.91422E-19
 -1      2955 9.51306E-05-2.73827E-05-2.90445E-05 3.74235E-07 1.00759E-18-8.86546E-19
 -1      2956 9.44734E-05-2.83141E-05-2.83533E-05-1.09305E-06 4.94223E-19-1.03957E-18
 -1      2957 9.44435E-05-2.82243E-05-2.83733E-05-1.02490E-06 5.73975E-19-1.01269E-18
 -1      2958 9.49304E-05-2.82427E-05-2.85867E-05-9.02726E-07 6.29604E-19-1.10074E-18
 -1      2959 9.48959E-05-2.84494E-05-2.84815E-05-1.10895E-06 3.57471E-19-9.94038E-19
 -1      2960 9.52703E-05-2.41014E-05-3.04831E-05-5.15818E-06-1.84735E-18-8.07154E-19
 -1      2961 9.51772E-05-2.50819E-05-3.00591E-05-3.67040E-06-1.66532E-18-7.84073E-19
 -1      2962 9.52260E-05-2.47644E-05-3.01901E-05-3.42823E-06-1.65223E-18-1.04825E-18
 -1      2963 9.45867E-05-2.23730E-05-3.09419E-05-5.69208E-06-1.83315E-18-1.18710E-18
 -1      2964 1.47992E-04-5.68330E-05-3.90222E-05-6.38888E-06-1.27373E-19-1.20014E-18
 -1      2965 1.47884E-04-4.68620E-05-4.40140E-05 2.19071E-06 4.00223E-20-1.64197E-18
 -1      2966 1.40149E-04-4.15945E-05-4.24504E-05 6.74277E-06 3.95459E-20-3.68163E-18
 -1      2967 9.49810E-05-2.66905E-05-2.92731E-05 1.77996E-06 1.37813E-18-1.04484E-18
 -1      2968 9.52487E-05-2.61933E-05-2.95581E-05 2.78839E-06 1.58936E-18-9.97412E-19
 -1      2969 9.52729E-05-2.50218E-05-3.01046E-05 3.82030E-06 1.67020E-18-1.22959E-18
 -1      2970 9.52548E-05-2.65028E-05-2.94718E-05 1.73403E-06 1.33689E-18-1.07325E-18
 -1      2971 1.46069E-04-4.14475E-05-4.54315E-05-4.37152E-06-7.96317E-19-6.11770E-18
 -1      2972 1.46669E-04-5.12376E-05-4.11682E-05 1.61872E-06-2.48509E-18-4.71861E-18
 -1      2973 9.49051E-05-5.42228E-05-1.71174E-05-3.80224E-05 1.13693E-18-4.26269E-19
 -1      2974 1.11876E-04-6.15932E-05-2.16534E-05-3.39148E-05 5.07161E-19-5.71085E-19
 -1      2975 9.11745E-05-1.60888E-05-3.22076E-05 4.91734E-06 1.28290E-18-2.61667E-18
 -1      2976 9.08311E-05-1.55897E-05-3.22680E-05 3.99484E-06 9.40830E-19-2.74153E-18
 -1      2977 9.18095E-05-1.72009E-05-3.19596E-05 3.19800E-06 7.93613E-19-2.57057E-18
 -1      2978 9.24794E-05-1.82615E-05-3.17877E-05 4.61560E-06 1.31726E-18-2.33064E-18
 -1      2979 9.07942E-05-1.55401E-05-3.22730E-05-3.93013E-06-9.57795E-19-2.63918E-18
 -1      2980 9.11309E-05-1.60271E-05-3.22141E-05-4.85326E-06-1.21861E-18-2.51096E-18
 -1      2981 1.33662E-04-2.18940E-05-4.86257E-05-7.91894E-06 6.79109E-19-4.87573E-18
 -1      2982 1.41160E-04-3.15356E-05-4.73499E-05-7.95639E-06 3.82541E-19-5.51238E-18
 -1      2983 1.37266E-04-3.73688E-05-4.31786E-05-7.68473E-06-1.54742E-18-6.09895E-18
 -1      2984 1.42511E-04-3.86783E-05-4.51738E-05-1.88040E-05 9.95581E-19-1.87544E-18
 -1      2985 1.44705E-04-4.98245E-05-4.08411E-05-1.33414E-05 1.21957E-18-1.60227E-18
 -1      2986 1.26233E-04-6.41262E-05-2.62971E-05-2.30738E-05-5.45277E-20-1.45515E-18
 -1      2987 1.37375E-04-6.44670E-05-3.18169E-05-1.11483E-05-6.59627E-20-1.49999E-18
 -1      2988 1.21975E-04-6.26291E-05-2.51848E-05-2.37578E-05 3.10120E-19-1.79973E-18
 -1      2989 3.42660E-05-1.80498E-05-6.42462E-06-1.45287E-05 4.90035E-19-2.04050E-18
 -1      2990 4.14199E-05-2.32642E-05-7.13405E-06-2.59521E-05 1.17123E-18-1.71058E-18
 -1      2991 1.27716E-04-1.06881E-05-5.09803E-05-6.63163E-06-8.71597E-19-1.18127E-18
 -1      2992 1.28758E-04-1.34800E-05-5.00192E-05-1.41248E-05-6.98167E-19-8.03675E-19
 -1      2993 6.07250E-05-3.43246E-05-1.11326E-05 3.53280E-05 2.67959E-18-6.41098E-19
 -1      2994 4.94841E-05-2.66931E-05-9.04700E-06 2.84043E-05 2.74322E-18-1.45097E-18
 -1      2995 1.35502E-04-6.48194E-05-3.00807E-05-2.90550E-05-4.09858E-19-1.17653E-18
 -1      2996 1.44214E-04-6.42978E-05-3.47103E-05-1.97559E-05-6.39669E-19-7.69741E-20
 -1      2997 1.35807E-04-2.10017E-05-4.99822E-05-1.90884E-05-4.10811E-19-1.15451E-18
 -1      2998 1.38753E-04-2.77488E-05-4.80335E-05-2.09440E-05 1.23032E-19-1.25520E-18
 -1      2999 1.31305E-04-6.56328E-05-2.84679E-05 1.81919E-05 1.93176E-18-3.24668E-18
 -1      3000 1.16529E-04-6.24231E-05-2.28520E-05 2.76921E-05 2.28593E-18-2.86617E-18
 -1      3001 1.33743E-04-6.34802E-05-2.99831E-05 9.02810E-06 2.69409E-18-2.32558E-18
 -1      3002 9.20384E-05-1.66581E-05-3.23133E-05-9.02127E-06-2.05932E-18-1.79080E-18
 -1      3003 1.24293E-04-6.17247E-05-2.69086E-05 3.90894E-05-8.18234E-19 1.95209E-18
 -1      3004 1.12150E-04-5.65977E-05-2.32931E-05 4.36166E-05-2.66709E-19 5.26941E-19
 -1      3005 1.11169E-04-3.96455E-05-3.07564E-05-1.12588E-05-6.07432E-19-8.28147E-19
 -1      3006 1.11783E-04-5.81870E-05-2.26470E-05-4.43284E-05 6.61427E-19 2.59192E-19
 -1      3007 1.25048E-04-6.33754E-05-2.65249E-05-3.96135E-05 7.22096E-20-1.39935E-18
 -1      3008 1.30076E-04-6.26314E-05-2.89221E-05-3.13220E-05-9.61277E-19-2.42251E-19
 -1      3009 1.06970E-04-5.26527E-05-2.29727E-05-4.38336E-05-2.41616E-19 9.88514E-19
 -1      3010 1.42874E-04-3.90576E-05-4.47451E-05 1.65642E-05-9.58206E-20-2.64380E-18
 -1      3011 1.40446E-04-2.86752E-05-4.86172E-05 1.82861E-05-8.02564E-19-2.70796E-18
 -1      3012 9.15562E-05-1.66686E-05-3.21139E-05-5.58163E-06-1.38275E-18-2.34369E-18
 -1      3013 9.20333E-05-1.73703E-05-3.20222E-05-6.41292E-06-1.61064E-18-2.21863E-18
 -1      3014 9.24270E-05-1.81847E-05-3.17970E-05-4.57682E-06-1.20214E-18-2.17348E-18
 -1      3015 9.12846E-05-1.63915E-05-3.20849E-05 2.85968E-08-8.54385E-20-2.54130E-18
 -1      3016 9.01617E-05-1.46016E-05-3.24023E-05-3.83089E-07-1.68255E-19-2.72028E-18
 -1      3017 9.02183E-05-1.46819E-05-3.23923E-05-1.34074E-06-3.83788E-19-2.78980E-18
 -1      3018 1.40708E-04-5.32764E-05-3.74161E-05-1.18584E-05 1.32669E-18-1.07859E-18
 -1      3019 7.72070E-05-3.97539E-05-1.55016E-05 3.33480E-05 1.93632E-18-1.36118E-18
 -1      3020 1.45362E-04-5.68322E-05-3.81981E-05 5.94052E-06-2.03008E-18-4.48631E-18
 -1      3021 1.40215E-04-5.85117E-05-3.49570E-05 1.11696E-05-1.05777E-18-3.60529E-18
 -1      3022 1.40174E-04-5.04723E-05-3.87105E-05-1.02085E-06-1.66897E-18-5.76199E-18
 -1      3023 9.43556E-05-2.14245E-05-3.12605E-05 7.21518E-06 2.14777E-18-1.61957E-18
 -1      3024 1.15373E-04-4.74330E-05-2.90855E-05 2.84619E-05 1.53170E-18-6.98299E-19
 -1      3025 1.12484E-04-4.18187E-05-3.01467E-05 2.43176E-05 2.90835E-18-1.23402E-18
 -1      3026 1.14295E-04-4.30678E-05-3.05847E-05 1.91776E-05 3.74423E-18-3.12105E-19
 -1      3027 5.19724E-05-1.12631E-05-1.69322E-05 8.99147E-06-2.22394E-18-2.00630E-18
 -1      3028 7.89800E-05-2.97838E-05-2.07176E-05-3.81791E-05-1.30972E-18-2.77573E-18
 -1      3029 1.12785E-04-4.02773E-05-3.10023E-05 1.02930E-05 2.09349E-18 6.21696E-19
 -1      3030 9.28200E-05-1.84297E-05-3.18797E-05-7.46892E-06-1.84183E-18-1.85298E-18
 -1      3031 1.30047E-04-1.07194E-05-5.16563E-05 7.34966E-06 5.21349E-19-1.82983E-18
 -1      3032 1.12194E-04-4.01824E-05-3.07521E-05-1.60763E-05 1.69135E-18-3.11454E-18
 -1      3033 1.39471E-04-4.48915E-05-4.08290E-05 1.57824E-05-3.80053E-19-3.01216E-18
 -1      3034 9.46138E-05-2.24669E-05-3.09130E-05 5.69069E-06 1.86990E-18-1.61388E-18
 -1      3035 1.38094E-04-6.04713E-05-3.32425E-05-1.80082E-06-1.94182E-19-3.15922E-18
 -1      3036 1.04684E-04-4.91934E-05-2.33191E-05 4.30695E-05-4.54010E-19 9.77741E-19
 -1      3037 5.47736E-05-2.49626E-05-1.25166E-05 3.79221E-05-3.14779E-19-3.68756E-18
 -1      3038 4.34996E-05-1.79870E-05-1.02895E-05 2.47630E-05 1.20358E-18-2.21181E-18
 -1      3039 4.84655E-05-2.25695E-05-1.04712E-05 2.18117E-05 2.14511E-18-1.09024E-18
 -1      3040 3.87728E-05-1.27190E-05-1.06635E-05 5.29412E-06-9.44759E-19-2.06147E-18
 -1      3041 4.17231E-05-1.25378E-05-1.18050E-05-1.22576E-05-1.56754E-18-3.55796E-18
 -1      3042 5.32252E-05-2.77173E-05-1.03809E-05-2.92091E-05 4.01441E-19-1.67427E-18
 -1      3043 7.72377E-05-4.12285E-05-1.50763E-05-3.66476E-05 4.59939E-19-1.44313E-19
 -1      3044 8.66659E-05-4.89170E-05-1.57597E-05-3.86365E-05 1.25011E-18 2.23458E-19
 -1      3045 9.84454E-05-5.29524E-05-1.95541E-05-3.40333E-05 8.05105E-19-5.57348E-19
 -1      3046 1.16443E-04-4.53141E-05-3.03625E-05-1.87844E-05 1.23632E-18-2.78659E-18
 -1      3047 9.03432E-05-1.48728E-05-3.23646E-05-2.17763E-06-5.61990E-19-2.68825E-18
 -1      3048 9.05272E-05-1.51358E-05-3.23324E-05-3.12816E-06-8.07875E-19-2.61405E-18
 -1      3049 9.17783E-05-1.71576E-05-3.19646E-05-3.14154E-06-8.14566E-19-2.45350E-18
 -1      3050 9.14028E-05-1.65748E-05-3.20562E-05-1.58348E-06-4.49215E-19-2.58770E-18
 -1      3051 1.30068E-04-1.87528E-05-4.83344E-05-6.72010E-06 9.64876E-19-3.81297E-18
 -1      3052 1.26868E-04-2.33257E-05-4.45315E-05-8.71685E-06-5.05467E-19-4.22309E-18
 -1      3053 1.23966E-04-1.45030E-05-4.75376E-05-3.68933E-06 7.16272E-19-3.20851E-18
 -1      3054 3.99583E-05-1.53521E-05-1.03553E-05 4.35404E-06 1.13566E-18-1.97803E-18
 -1      3055 3.61538E-05-1.59343E-05-7.90957E-06-5.20236E-06 7.91479E-19-2.09196E-18
 -1      3056 4.28062E-05-1.67756E-05-1.06661E-05-1.09791E-05 1.46494E-19-1.43456E-18
 -1      3057 1.43375E-04-5.94519E-05-3.61008E-05-9.96898E-06-6.19922E-20-1.40586E-18
 -1      3058 1.35544E-04-3.44662E-05-4.34734E-05-2.12275E-05 6.29240E-19 5.43901E-19
 -1      3059 1.35590E-04-1.62396E-05-5.16897E-05 4.96887E-06 1.27182E-18-1.65118E-18
 -1      3060 1.32453E-04-1.09380E-05-5.28509E-05-8.33953E-07 1.90371E-19-1.34689E-18
 -1      3061 5.39387E-05-1.47912E-05-1.60842E-05-1.92508E-05-1.93555E-18-3.15054E-18
 -1      3062 1.10746E-04-5.78016E-05-2.23024E-05 2.74208E-05 1.98873E-18-2.58243E-18
 -1      3063 1.31447E-04-6.16743E-05-2.98265E-05 2.87325E-05-7.02402E-19-3.69306E-19
 -1      3064 1.31029E-04-2.74622E-05-4.45310E-05 2.06455E-05-9.67735E-19-1.43450E-18
 -1      3065 1.35631E-04-2.31673E-05-4.87000E-05 1.90563E-05-1.61254E-18-2.14045E-18
 -1      3066 1.27675E-04-1.71408E-05-4.81598E-05 1.76021E-05-1.15122E-18-1.88947E-18
 -1      3067 7.11847E-05-2.91055E-05-1.73373E-05 3.95315E-05-8.62915E-19-3.19575E-18
 -1      3068 1.30649E-04-2.19757E-05-4.69687E-05 7.42463E-06 1.05074E-18-2.15438E-18
 -1      3069 9.42731E-05-2.18508E-05-3.10596E-05 4.96987E-06 1.50542E-18-1.86984E-18
 -1      3070 9.38102E-05-2.09081E-05-3.12451E-05 4.62295E-06 1.37850E-18-2.05863E-18
 -1      3071 7.49014E-05-3.19737E-05-1.80540E-05-4.04373E-05-1.80164E-18-2.26295E-18
 -1      3072 9.56788E-05-2.68798E-05-2.94710E-05-7.46170E-07-1.08671E-18-9.93027E-19
 -1      3073 9.56544E-05-2.73269E-05-2.92913E-05-2.20336E-07-8.81015E-19-8.81863E-19
 -1      3074 9.56996E-05-2.77137E-05-2.91255E-05 1.60612E-07-8.98304E-19-8.87736E-19
 -1      3075 9.56627E-05-2.80009E-05-2.90026E-05 4.75125E-07-8.57568E-19-1.00729E-18
 -1      3076 9.58948E-05-2.73296E-05-2.93879E-05-1.63689E-07-8.54940E-19-1.07438E-18
 -1      3077 9.56550E-05-2.82398E-05-2.88844E-05 6.95915E-07-5.90668E-19-8.30594E-19
 -1      3078 9.56228E-05-2.84209E-05-2.88031E-05 8.63155E-07-3.97778E-19-7.80410E-19
 -1      3079 9.59376E-05-2.80570E-05-2.90953E-05 4.70036E-07-7.28875E-19-1.05547E-18
 -1      3080 9.55909E-05-2.85628E-05-2.87211E-05 9.71453E-07-2.02660E-19-8.15839E-19
 -1      3081 9.55678E-05-2.86734E-05-2.86697E-05 1.03987E-06-1.56183E-19-6.66875E-19
 -1      3082 9.59039E-05-2.85088E-05-2.88870E-05 8.26106E-07-3.41644E-19-8.81159E-19
 -1      3083 9.55264E-05-2.87511E-05-2.86149E-05 1.07253E-06-1.65551E-19-5.55511E-19
 -1      3084 9.55120E-05-2.88141E-05-2.85846E-05 1.07788E-06-2.69497E-19-2.46225E-19
 -1      3085 9.58362E-05-2.87763E-05-2.87430E-05 9.87933E-07-1.18851E-19-7.67303E-19
 -1      3086 9.54689E-05-2.88493E-05-2.85496E-05 1.06301E-06-3.94182E-19-1.81151E-19
 -1      3087 9.54613E-05-2.88800E-05-2.85340E-05 1.03103E-06-2.00952E-19 5.80644E-20
 -1      3088 9.57563E-05-2.89195E-05-2.86468E-05 1.02140E-06-2.37381E-19-6.04461E-19
 -1      3089 9.54203E-05-2.88873E-05-2.85135E-05 9.89279E-07-2.34317E-19 6.73709E-20
 -1      3090 9.54175E-05-2.88961E-05-2.85081E-05 9.38152E-07-1.18642E-19-3.75834E-20
 -1      3091 9.56758E-05-2.89795E-05-2.85861E-05 9.76348E-07-2.49073E-19-3.39072E-19
 -1      3092 9.53804E-05-2.88853E-05-2.84980E-05 8.84267E-07-2.36952E-19-1.89345E-19
 -1      3093 9.53810E-05-2.88794E-05-2.84994E-05 8.26698E-07-3.66650E-19-5.15524E-20
 -1      3094 9.56003E-05-2.89843E-05-2.85513E-05 8.89159E-07-1.25485E-19-2.66588E-19
 -1      3095 9.53483E-05-2.88570E-05-2.84968E-05 7.71038E-07-5.91557E-19-7.44714E-20
 -1      3096 9.53510E-05-2.88411E-05-2.85029E-05 7.15851E-07-6.10599E-19-3.67708E-19
 -1      3097 9.55324E-05-2.89530E-05-2.85353E-05 7.85761E-07-5.48448E-19-3.61499E-19
 -1      3098 9.53226E-05-2.88111E-05-2.85057E-05 6.65678E-07-8.64481E-19-6.04803E-19
 -1      3099 9.53267E-05-2.87880E-05-2.85151E-05 6.19094E-07-8.21596E-19-8.96748E-19
 -1      3100 9.54726E-05-2.88979E-05-2.85330E-05 6.84431E-07-9.59912E-19-9.11230E-19
 -1      3101 9.53019E-05-2.87526E-05-2.85221E-05 5.79640E-07-7.54382E-19-9.11742E-19
 -1      3102 9.53070E-05-2.87241E-05-2.85340E-05 5.46255E-07-8.42367E-19-9.08769E-19
 -1      3103 9.54201E-05-2.88266E-05-2.85408E-05 5.98188E-07-9.66436E-19-7.14512E-19
 -1      3104 9.52846E-05-2.86841E-05-2.85442E-05 5.21540E-07-8.34601E-19-7.35701E-19
 -1      3105 9.52907E-05-2.86506E-05-2.85584E-05 5.05077E-07-7.67566E-19-5.37027E-19
 -1      3106 9.53733E-05-2.87426E-05-2.85566E-05 5.36692E-07-7.07075E-19-1.04025E-18
 -1      3107 9.52694E-05-2.86056E-05-2.85715E-05 4.98554E-07-5.57829E-19-1.82649E-19
 -1      3108 9.52763E-05-2.85669E-05-2.85880E-05 5.02443E-07-3.85305E-19-5.67117E-20
 -1      3109 9.53298E-05-2.86469E-05-2.85788E-05 5.07715E-07-3.48907E-19 6.59462E-20
 -1      3110 9.52544E-05-2.85157E-05-2.86038E-05 5.17501E-07-4.57014E-19 2.46011E-20
 -1      3111 9.52623E-05-2.84709E-05-2.86229E-05 5.45317E-07-3.57243E-19 3.36228E-19
 -1      3112 9.52866E-05-2.85379E-05-2.86068E-05 5.18312E-07-2.85220E-19 3.28877E-19
 -1      3113 9.52379E-05-2.84117E-05-2.86415E-05 5.85638E-07-2.81277E-19 6.92268E-19
 -1      3114 9.52470E-05-2.83594E-05-2.86638E-05 6.41401E-07-2.74635E-19 8.22069E-19
 -1      3115 9.52401E-05-2.84127E-05-2.86405E-05 5.75683E-07-1.75374E-19 6.38617E-20
 -1      3116 9.52177E-05-2.82899E-05-2.86854E-05 7.11205E-07-3.37403E-19 6.28869E-19
 -1      3117 9.52283E-05-2.82285E-05-2.87115E-05 7.99571E-07 2.37777E-20 2.50775E-19
 -1      3118 9.51862E-05-2.82666E-05-2.86798E-05 6.87777E-07-1.82896E-19 6.76141E-19
 -1      3119 9.51914E-05-2.81462E-05-2.87362E-05 9.03743E-07 2.55440E-19 1.59237E-19
 -1      3120 9.52038E-05-2.80740E-05-2.87667E-05 1.03005E-06 5.47817E-19-1.18278E-19
 -1      3121 9.51198E-05-2.80946E-05-2.87249E-05 8.63647E-07-6.80457E-21 4.34413E-19
 -1      3122 9.51561E-05-2.79762E-05-2.87945E-05 1.17416E-06 6.20563E-19-9.49367E-20
 -1      3123 9.51705E-05-2.78920E-05-2.88299E-05 1.34435E-06 7.27296E-19-4.81009E-19
 -1      3124 9.50353E-05-2.78909E-05-2.87757E-05 1.11358E-06 3.98301E-19 5.98110E-19
 -1      3125 9.51086E-05-2.77764E-05-2.88604E-05 1.53447E-06 5.38787E-19-4.56538E-19
 -1      3126 9.51252E-05-2.76796E-05-2.89009E-05 1.75478E-06 1.85028E-19-1.26203E-19
 -1      3127 9.49261E-05-2.76505E-05-2.88316E-05 1.44895E-06 6.66531E-19-6.95561E-20
 -1      3128 9.50454E-05-2.75451E-05-2.89333E-05 1.99728E-06-2.54588E-19-4.03129E-19
 -1      3129 9.50650E-05-2.74368E-05-2.89785E-05 2.27369E-06-2.67429E-19-3.61468E-19
 -1      3130 9.47851E-05-2.73700E-05-2.88909E-05 1.88177E-06-8.17751E-20-4.68834E-19
 -1      3131 9.49637E-05-2.72842E-05-2.90110E-05 2.57465E-06-2.93918E-20-7.35305E-19
 -1      3132 9.49877E-05-2.71684E-05-2.90597E-05 2.91205E-06 3.26452E-19-3.81754E-19
 -1      3133 9.46052E-05-2.70495E-05-2.89506E-05 2.42389E-06-4.39591E-19-6.69844E-19
 -1      3134 9.48627E-05-2.70025E-05-2.90893E-05 3.27668E-06 5.11081E-19-1.01884E-18
 -1      3135 9.48945E-05-2.68881E-05-2.91392E-05 3.67756E-06 7.03946E-19-6.25125E-19
 -1      3136 9.43806E-05-2.66954E-05-2.90054E-05 3.08595E-06 5.06809E-19-1.07912E-18
 -1      3137 9.47466E-05-2.67202E-05-2.91613E-05 4.10935E-06 8.64863E-19-8.07479E-19
 -1      3138 9.47937E-05-2.66243E-05-2.92083E-05 4.57204E-06 5.08070E-19-8.56912E-19
 -1      3139 9.41095E-05-2.63252E-05-2.90472E-05 3.87605E-06 6.37593E-19-1.62109E-18
 -1      3140 9.46300E-05-2.64764E-05-2.92163E-05 5.07190E-06-4.87917E-20-6.58720E-19
 -1      3141 9.47081E-05-2.64296E-05-2.92542E-05 5.58827E-06-3.85782E-19-1.46829E-19
 -1      3142 9.37991E-05-2.59745E-05-2.90640E-05 4.79843E-06 5.66980E-19-2.20787E-18
 -1      3143 9.45485E-05-2.63406E-05-2.92393E-05 6.15365E-06-6.39219E-19 2.52467E-19
 -1      3144 9.46883E-05-2.63940E-05-2.92597E-05 6.70601E-06-8.68473E-20 9.20958E-20
 -1      3145 9.34746E-05-2.57075E-05-2.90396E-05 5.85257E-06-1.39891E-19-1.03280E-18
 -1      3146 9.45747E-05-2.64289E-05-2.92109E-05 7.32995E-06-4.37142E-19 1.75264E-19
 -1      3147 9.48332E-05-2.66641E-05-2.92040E-05 7.88693E-06-4.51724E-19 1.71755E-19
 -1      3148 9.31939E-05-2.56327E-05-2.89531E-05 7.03289E-06 1.86920E-19-1.94082E-19
 -1      3149 9.48453E-05-2.69250E-05-2.91099E-05 8.55625E-06-2.26068E-21-6.70058E-20
 -1      3150 9.53214E-05-2.74652E-05-2.90666E-05 9.06638E-06-5.33511E-21 4.32644E-19
 -1      3151 9.30722E-05-2.59237E-05-2.87809E-05 8.32876E-06-1.50282E-19-2.56638E-19
 -1      3152 9.56000E-05-2.81039E-05-2.89189E-05 9.75548E-06-1.55343E-19 4.12484E-19
 -1      3153 9.64530E-05-2.91216E-05-2.88370E-05 1.01348E-05-9.47055E-19-4.65991E-20
 -1      3154 9.33188E-05-2.68460E-05-2.85014E-05 9.72157E-06-1.70506E-19-9.91969E-19
 -1      3155 9.72310E-05-3.03453E-05-2.86394E-05 1.07864E-05-1.22616E-18-5.87515E-21
 -1      3156 9.86897E-05-3.20526E-05-2.85353E-05 1.08932E-05 3.29838E-20-5.22978E-19
 -1      3157 9.42912E-05-2.87820E-05-2.81072E-05 1.11671E-05-7.10688E-19-1.00999E-18
 -1      3158 1.00328E-04-3.41050E-05-2.83232E-05 1.13567E-05 1.80358E-19-9.83039E-19
 -1      3159 1.02654E-04-3.66768E-05-2.82552E-05 1.09431E-05-2.17183E-19-1.85591E-18
 -1      3160 9.65675E-05-3.22425E-05-2.76319E-05 1.25322E-05-2.99630E-19-1.15240E-18
 -1      3161 1.05619E-04-3.97227E-05-2.81320E-05 1.08522E-05-4.92510E-19-2.14783E-18
 -1      3162 1.08956E-04-4.30879E-05-2.82306E-05 9.51009E-06-6.81087E-19-2.28701E-18
 -1      3163 1.00986E-04-3.77504E-05-2.72097E-05 1.33977E-05-7.79561E-19-3.58613E-18
 -1      3164 1.13681E-04-4.69325E-05-2.84273E-05 8.11658E-06-4.02854E-19-2.25095E-18
 -1      3165 1.17712E-04-5.03164E-05-2.89198E-05 5.32341E-06-2.78039E-19-2.27589E-18
 -1      3166 1.08473E-04-4.54488E-05-2.71639E-05 1.28064E-05-3.76107E-19-2.36607E-18
 -1      3167 1.27165E-04-2.35965E-05-4.45634E-05 8.33949E-06 1.62217E-18-2.01694E-18
 -1      3168 1.30024E-04-3.37579E-05-4.20311E-05 1.03248E-05 6.40939E-19-2.67715E-18
 -1      3169 1.30492E-04-5.22076E-05-3.37132E-05-4.56289E-06 1.73893E-19-2.24292E-18
 -1      3170 1.27855E-04-5.22002E-05-3.22739E-05-9.00617E-06 3.52048E-19-3.13925E-18
 -1      3171 9.53708E-05-2.79587E-05-2.88950E-05-4.73294E-07 7.16148E-19-1.09795E-18
 -1      3172 9.54258E-05-2.77005E-05-2.90120E-05-1.43151E-07 9.13650E-19-1.04836E-18
 -1      3173 9.52234E-05-2.87763E-05-2.84765E-05-1.07044E-06 2.85960E-19-4.90164E-19
 -1      3174 9.52112E-05-2.87417E-05-2.84854E-05-1.10417E-06 3.18771E-19-6.72374E-19
 -1      3175 9.52424E-05-2.87066E-05-2.85150E-05-1.11845E-06 3.94465E-19-8.40172E-19
 -1      3176 9.52392E-05-2.86438E-05-2.85377E-05-1.11359E-06 3.41517E-19-7.99269E-19
 -1      3177 9.55245E-05-2.88222E-05-2.85894E-05-1.08099E-06 2.85610E-19-6.09284E-19
 -1      3178 9.52104E-05-2.87987E-05-2.84610E-05-8.56168E-07 1.80957E-19-2.53681E-19
 -1      3179 9.51912E-05-2.87969E-05-2.84549E-05-9.16690E-07 3.33298E-19-4.16560E-19
 -1      3180 9.52117E-05-2.87756E-05-2.84713E-05-7.38265E-07 3.43732E-19-2.54047E-19
 -1      3181 9.51921E-05-2.87832E-05-2.84616E-05-7.96797E-07 3.67202E-19-8.45458E-20
 -1      3182 9.53855E-05-2.88827E-05-2.85023E-05-8.30519E-07 1.72970E-19-6.50025E-19
 -1      3183 9.52162E-05-2.87392E-05-2.84888E-05-6.33560E-07-7.61648E-20-3.73383E-19
 -1      3184 9.51969E-05-2.87534E-05-2.84767E-05-6.83904E-07 2.94994E-19-3.71655E-19
 -1      3185 9.53536E-05-2.88427E-05-2.85055E-05-7.20067E-07 3.05741E-19-7.45366E-19
 -1      3186 9.52230E-05-2.86930E-05-2.85115E-05-5.51916E-07 2.09393E-19-2.31326E-19
 -1      3187 9.52042E-05-2.87123E-05-2.84976E-05-5.89577E-07-2.92374E-20-5.11277E-19
 -1      3188 9.53274E-05-2.87879E-05-2.85175E-05-6.24014E-07 1.98389E-20-5.13583E-19
 -1      3189 9.52318E-05-2.86387E-05-2.85384E-05-5.00932E-07-4.24783E-19-1.27147E-19
 -1      3190 9.52131E-05-2.86623E-05-2.85230E-05-5.22356E-07-1.49299E-19-2.38190E-19
 -1      3191 9.53056E-05-2.87220E-05-2.85363E-05-5.52282E-07 7.91759E-20-7.45673E-19
 -1      3192 9.52426E-05-2.85763E-05-2.85696E-05-4.87203E-07 6.25866E-20-5.07555E-19
 -1      3193 9.52232E-05-2.86041E-05-2.85523E-05-4.89188E-07-1.05840E-19-1.58306E-19
 -1      3194 9.52869E-05-2.86464E-05-2.85606E-05-5.12696E-07-2.11266E-19-1.22587E-18
 -1      3195 9.52556E-05-2.85049E-05-2.86055E-05-5.17275E-07 3.34560E-20-1.50380E-19
 -1      3196 9.52344E-05-2.85372E-05-2.85859E-05-4.96537E-07 1.71901E-19-1.11510E-19
 -1      3197 9.52696E-05-2.85603E-05-2.85901E-05-5.12198E-07-1.57498E-19-8.82520E-19
 -1      3198 9.52713E-05-2.84226E-05-2.86471E-05-5.98305E-07 1.18978E-19-2.78849E-19
 -1      3199 9.52470E-05-2.84600E-05-2.86245E-05-5.51182E-07-2.67980E-20 1.11263E-19
 -1      3200 9.52522E-05-2.84618E-05-2.86247E-05-5.57764E-07-7.29775E-20-3.23915E-19
 -1      3201 9.52905E-05-2.83273E-05-2.86957E-05-7.38483E-07-1.08015E-19-1.63652E-20
 -1      3202 9.52613E-05-2.83705E-05-2.86692E-05-6.60766E-07 1.36962E-19-3.02934E-20
 -1      3203 9.52327E-05-2.83481E-05-2.86651E-05-6.57019E-07 2.33851E-19-5.15106E-19
 -1      3204 9.53140E-05-2.82169E-05-2.87526E-05-9.47185E-07 1.93776E-19 4.67495E-19
 -1      3205 9.52780E-05-2.82664E-05-2.87213E-05-8.34086E-07-4.73400E-20 2.43988E-20
 -1      3206 9.52093E-05-2.82158E-05-2.87118E-05-8.18618E-07-1.63020E-19 5.89743E-20
 -1      3207 9.53433E-05-2.80900E-05-2.88189E-05-1.23481E-06 4.17582E-19 9.74777E-19
 -1      3208 9.52980E-05-2.81458E-05-2.87820E-05-1.08111E-06 4.62630E-19 5.68893E-19
 -1      3209 9.51800E-05-2.80616E-05-2.87653E-05-1.05235E-06-3.56234E-20 5.53043E-19
 -1      3210 9.53805E-05-2.79468E-05-2.88954E-05-1.61221E-06-7.43074E-20 9.63468E-19
 -1      3211 9.53230E-05-2.80080E-05-2.88522E-05-1.41262E-06 2.18062E-19 1.17018E-18
 -1      3212 9.51430E-05-2.78833E-05-2.88257E-05-1.36891E-06 2.55841E-19 9.53900E-19
 -1      3213 9.54288E-05-2.77908E-05-2.89822E-05-2.08961E-06 3.50351E-19 3.26377E-19
 -1      3214 9.53554E-05-2.78546E-05-2.89323E-05-1.83947E-06 2.03887E-19 4.84102E-19
 -1      3215 9.50969E-05-2.76811E-05-2.88925E-05-1.77931E-06 2.44470E-19 5.95574E-19
 -1      3216 9.54937E-05-2.76309E-05-2.90778E-05-2.67483E-06-1.51342E-20 2.94686E-19
 -1      3217 9.53996E-05-2.76914E-05-2.90217E-05-2.37120E-06 5.02944E-19 4.60099E-19
 -1      3218 9.50421E-05-2.74591E-05-2.89640E-05-2.29382E-06 3.81163E-19 1.05547E-18
 -1      3219 9.55854E-05-2.74845E-05-2.91792E-05-3.37064E-06-9.22692E-19 1.81247E-20
 -1      3220 9.54633E-05-2.75311E-05-2.91181E-05-3.01393E-06-4.40232E-19 2.30454E-19
 -1      3221 9.49819E-05-2.72287E-05-2.90368E-05-2.92034E-06-2.10324E-19-5.09632E-20
 -1      3222 9.57218E-05-2.73831E-05-2.92805E-05-4.17092E-06-8.75614E-19-3.72687E-19
 -1      3223 9.55607E-05-2.73978E-05-2.92171E-05-3.76727E-06-1.11685E-18-4.43458E-19
 -1      3224 9.49260E-05-2.70125E-05-2.91056E-05-3.66209E-06-8.66660E-19-3.04938E-19
 -1      3225 9.59347E-05-2.73793E-05-2.93731E-05-5.05540E-06-6.46780E-19 2.15386E-19
 -1      3226 9.57171E-05-2.73328E-05-2.93115E-05-4.61998E-06-6.66274E-19 1.24483E-19
 -1      3227 9.48950E-05-2.68511E-05-2.91618E-05-4.51457E-06-8.65225E-19-9.84829E-19
 -1      3228 9.62799E-05-2.75566E-05-2.94449E-05-5.98251E-06 5.95181E-20 3.05561E-19
 -1      3229 9.59771E-05-2.74036E-05-2.93911E-05-5.54394E-06-9.68554E-20-2.62556E-19
 -1      3230 9.49286E-05-2.68116E-05-2.91944E-05-5.46151E-06-1.14757E-19 2.26870E-20
 -1      3231 9.68501E-05-2.80407E-05-2.94822E-05-6.87949E-06 9.79428E-19 4.28263E-19
 -1      3232 9.64167E-05-2.77146E-05-2.94431E-05-6.48580E-06 1.80866E-19 8.82455E-20
 -1      3233 9.50988E-05-2.69997E-05-2.91896E-05-6.46947E-06 5.17484E-20-6.81460E-19
 -1      3234 9.77934E-05-2.90085E-05-2.94728E-05-7.62843E-06 1.07239E-18 1.06571E-18
 -1      3235 9.71603E-05-2.84182E-05-2.94542E-05-7.35483E-06 1.51069E-18 1.20877E-18
 -1      3236 9.55279E-05-2.75726E-05-2.91334E-05-7.47961E-06 5.41475E-19-5.78644E-19
 -1      3237 9.93270E-05-3.06852E-05-2.94145E-05-8.04546E-06 8.21141E-19 2.31873E-19
 -1      3238 9.83993E-05-2.97205E-05-2.94167E-05-8.00438E-06 1.19607E-18 1.06025E-18
 -1      3239 9.64115E-05-2.87500E-05-2.90174E-05-8.39344E-06 1.38149E-18 2.95629E-19
 -1      3240 1.01735E-04-3.33053E-05-2.93305E-05-7.84737E-06-1.04830E-18 4.40616E-19
 -1      3241 1.00404E-04-3.18660E-05-2.93407E-05-8.20120E-06-4.64750E-19-4.56389E-20
 -1      3242 9.80426E-05-3.08101E-05-2.88497E-05-9.04508E-06 3.35480E-20 1.56342E-18
 -1      3243 1.05303E-04-3.69899E-05-2.92951E-05-6.61195E-06-1.02782E-18 7.60464E-19
 -1      3244 1.03499E-04-3.50627E-05-2.92740E-05-7.57844E-06-8.35385E-19 5.63643E-19
 -1      3245 1.00814E-04-3.40394E-05-2.86766E-05-9.14519E-06-1.26002E-18 9.99819E-19
 -1      3246 1.10134E-04-4.14723E-05-2.94698E-05-3.74317E-06-1.21584E-18 1.34217E-18
 -1      3247 1.07947E-04-3.93017E-05-2.93368E-05-5.58047E-06-1.17007E-18 1.18972E-18
 -1      3248 1.05155E-04-3.85827E-05-2.86169E-05-8.19006E-06-1.22679E-18 9.53243E-20
 -1      3249 1.15770E-04-4.56026E-05-3.01390E-05 1.40632E-06-1.55932E-18 1.21813E-18
 -1      3250 1.13628E-04-4.39573E-05-2.97612E-05-1.48348E-06-1.07136E-18 1.14660E-18
 -1      3251 1.11284E-04-4.40515E-05-2.89156E-05-5.37799E-06-1.17487E-18 5.58739E-19
 -1      3252 1.20714E-04-4.69555E-05-3.16869E-05 8.87127E-06-2.25614E-18 1.70410E-18
 -1      3253 1.19463E-04-4.72118E-05-3.09119E-05 5.18607E-06-1.84855E-18 1.48143E-18
 -1      3254 1.18602E-04-4.87498E-05-2.99942E-05 3.38786E-07-2.09018E-18 7.77134E-19
 -1      3255 1.22332E-04-4.22116E-05-3.44380E-05 1.66135E-05-5.37873E-19 1.98514E-18
 -1      3256 1.22938E-04-4.56545E-05-3.31810E-05 1.36504E-05-2.00329E-18 1.62963E-18
 -1      3257 1.25045E-04-4.95540E-05-3.23864E-05 9.20110E-06-2.13619E-18 1.78095E-19
 -1      3258 1.15620E-04-1.89603E-05-4.16963E-05 1.51523E-05-9.26654E-19 1.39033E-18
 -1      3259 1.18455E-04-2.46965E-05-4.06303E-05 1.96099E-05-1.46754E-18 1.39326E-18
 -1      3260 1.16801E-04-2.43252E-05-4.00004E-05-7.86059E-06 3.16843E-20 6.03650E-19
 -1      3261 1.14352E-04-1.86307E-05-4.12464E-05-4.55123E-06-3.21714E-19-1.20835E-19
 -1      3262 9.23689E-05-1.83403E-05-3.17415E-05 1.81124E-06 4.46313E-19-2.43985E-18
 -1      3263 9.22491E-05-1.81385E-05-3.17735E-05 1.05769E-06 1.61489E-19-2.49688E-18
 -1      3264 1.33304E-04-6.02737E-05-3.15522E-05 1.24218E-06 2.56607E-18-1.74379E-18
 -1      3265 1.27342E-04-6.11284E-05-2.81089E-05 1.13244E-05 2.46285E-18-1.70121E-18
 -1      3266 1.24725E-04-1.75094E-05-4.62767E-05-1.62539E-05 4.12929E-21 1.07150E-19
 -1      3267 1.17811E-04-4.51541E-05-3.11155E-05 1.19135E-05 2.70875E-18 1.57433E-18
 -1      3268 8.67062E-05-4.31106E-05-1.88588E-05 3.17612E-05 9.32848E-19-2.19742E-18
 -1      3269 7.13308E-05-3.27485E-05-1.60317E-05 2.95269E-05 1.78216E-18-1.31174E-18
 -1      3270 1.22249E-04-1.22156E-05-4.74431E-05-3.44348E-06 2.43628E-19-9.43826E-19
 -1      3271 9.54119E-05-2.73481E-05-2.91774E-05 2.73769E-07 9.21238E-19-1.00836E-18
 -1      3272 9.54767E-05-2.69414E-05-2.93562E-05 8.34414E-07 1.00446E-18-9.67474E-19
 -1      3273 9.56899E-05-2.73353E-05-2.92999E-05 2.24574E-07 9.40599E-19-1.05765E-18
 -1      3274 1.23774E-04-1.67562E-05-4.66499E-05 4.43059E-06 1.21634E-18-1.53329E-18
 -1      3275 5.68150E-05-2.40575E-05-1.39868E-05 2.41879E-05 1.41341E-18-1.02957E-18
 -1      3276 4.79388E-05-1.78555E-05-1.22274E-05 1.44875E-05 1.51693E-18-1.92520E-18
 -1      3277 1.35393E-04-4.25781E-05-3.99687E-05 6.66740E-06-9.52912E-20-2.81612E-18
 -1      3278 9.52130E-05-2.42771E-05-3.04026E-05 4.27115E-06 1.55911E-18-1.41107E-18
 -1      3279 9.46394E-05-2.27345E-05-3.08061E-05 4.77299E-06 1.57787E-18-1.61812E-18
 -1      3280 9.49166E-05-2.35896E-05-3.05684E-05 3.67522E-06 1.28931E-18-1.65869E-18
 -1      3281 9.52394E-05-2.52026E-05-3.00296E-05 2.99997E-06 1.33325E-18-1.29649E-18
 -1      3282 4.94548E-05-1.31422E-05-1.49795E-05 1.14448E-05-6.36281E-19-2.11441E-18
 -1      3283 5.30666E-05-2.34082E-05-1.24056E-05-2.45544E-05-1.69857E-19-1.27097E-18
 -1      3284 6.41912E-05-3.14964E-05-1.35303E-05-3.25869E-05-3.34049E-19-8.08175E-19
 -1      3285 1.33133E-04-6.09895E-05-3.06389E-05-5.22370E-06-7.09020E-19-3.41683E-18
 -1      3286 1.35699E-04-5.66085E-05-3.42591E-05 5.25633E-06-3.78068E-19-3.44221E-18
 -1      3287 9.52136E-05-2.88021E-05-2.84610E-05-9.73495E-07 3.40650E-19-3.66878E-19
 -1      3288 9.51965E-05-2.87870E-05-2.84608E-05-1.02709E-06 4.68125E-19-4.12394E-19
 -1      3289 9.54707E-05-2.88865E-05-2.85380E-05-1.03446E-06 2.49467E-19-5.37631E-19
 -1      3290 9.54243E-05-2.89011E-05-2.85115E-05-9.41764E-07 2.56968E-19-5.10869E-19
 -1      3291 1.14672E-04-5.86643E-05-2.34518E-05-2.60730E-05 3.44689E-19-1.58125E-18
 -1      3292 1.24225E-04-6.16709E-05-2.72204E-05-1.72992E-05-1.70492E-19-2.22935E-18
 -1      3293 1.24088E-04-1.25201E-05-4.83289E-05 1.26946E-05-7.82447E-20-8.78214E-19
 -1      3294 1.21133E-04-1.07485E-05-4.78626E-05 4.64804E-06 6.23204E-19-1.48495E-18
 -1      3295 9.34709E-05-1.98474E-05-3.15490E-05-6.23199E-06-1.60041E-18-1.82119E-18
 -1      3296 9.54922E-05-2.55669E-05-2.99553E-05-2.14031E-06-1.28996E-18-1.11232E-18
 -1      3297 9.55351E-05-2.62679E-05-2.96985E-05-1.33150E-06-1.11819E-18-1.09061E-18
 -1      3298 9.57081E-05-2.62058E-05-2.97887E-05-1.17133E-06-9.96562E-19-1.04414E-18
 -1      3299 1.29203E-04-3.36632E-05-4.15953E-05-9.33698E-06-1.11565E-18-3.98577E-18
 -1      3300 1.34919E-04-4.17330E-05-4.01008E-05-7.51611E-06-1.19283E-18-4.26163E-18
 -1      3301 1.36971E-04-6.08119E-05-3.24066E-05-1.65407E-05-2.82618E-19-2.61569E-18
 -1      3302 1.38569E-04-5.55062E-05-3.58012E-05-5.53216E-06 4.76350E-19-3.11570E-18
 -1      3303 1.17861E-04-5.95616E-05-2.52341E-05 2.11404E-05 1.75918E-18-1.76668E-18
 -1      3304 1.03931E-04-5.21854E-05-2.17394E-05 2.74358E-05 1.17227E-18-2.34453E-18
 -1      3305 1.20838E-04-5.73957E-05-2.71114E-05 1.31477E-05 1.13767E-18-1.22241E-18
 -1      3306 1.35647E-04-6.11275E-05-3.21615E-05 2.07075E-05-5.47183E-19-2.82920E-18
 -1      3307 1.25087E-04-5.71143E-05-2.89365E-05 2.93585E-05-2.42463E-19-7.12332E-19
 -1      3308 1.35145E-04-4.77330E-05-3.75517E-05 1.48407E-05-6.34057E-19-1.69449E-18
 -1      3309 1.33026E-04-3.89487E-05-4.09135E-05 1.95409E-05 1.14932E-19-8.35810E-19
 -1      3310 1.35904E-04-4.98989E-05-3.70913E-05 2.68880E-06 4.28930E-19-2.62511E-18
 -1      3311 9.21886E-05-1.80378E-05-3.17919E-05 4.08446E-07 5.66360E-21-2.50648E-18
 -1      3312 9.21856E-05-1.80332E-05-3.17924E-05-3.59455E-07-2.31749E-19-2.39420E-18
 -1      3313 9.31420E-05-1.96215E-05-3.14911E-05 6.27819E-07 7.30752E-20-2.26411E-18
 -1      3314 6.87242E-05-2.77380E-05-1.72079E-05 2.37499E-05 6.38716E-19-1.36272E-18
 -1      3315 9.62986E-05-4.16423E-05-2.27451E-05-4.36165E-05 1.50613E-19-2.30446E-19
 -1      3316 1.33727E-04-4.63413E-05-3.76334E-05-3.06667E-06-1.34811E-18-4.12262E-18
 -1      3317 1.20953E-04-5.24126E-05-2.91753E-05 2.86971E-05-3.38548E-19-1.55307E-18
 -1      3318 1.24127E-04-5.29196E-05-3.07351E-05 2.15827E-05 1.00875E-18-2.64085E-18
 -1      3319 9.50248E-05-2.37235E-05-3.05586E-05-3.90947E-06-1.59358E-18-1.39035E-18
 -1      3320 9.51859E-05-2.46789E-05-3.02340E-05-2.86757E-06-1.47790E-18-1.29732E-18
 -1      3321 9.52738E-05-2.45597E-05-3.03012E-05-2.52878E-06-1.22244E-18-1.40129E-18
 -1      3322 1.20265E-04-5.44834E-05-2.83334E-05 8.47197E-06 4.86481E-19-2.31155E-18
 -1      3323 1.24839E-04-5.42891E-05-3.00911E-05 1.16228E-06 8.62895E-19-1.99978E-18
 -1      3324 4.94700E-05-1.68064E-05-1.36168E-05 8.12977E-06 1.11435E-18-1.59115E-18
 -1      3325 1.28478E-04-5.51142E-05-3.15080E-05-3.59679E-06 1.58179E-18-1.64788E-18
 -1      3326 1.33929E-04-5.59155E-05-3.34800E-05-7.79556E-06 1.62662E-18-7.47136E-19
 -1      3327 1.35298E-04-5.13730E-05-3.61141E-05-1.28327E-05 1.29416E-18 4.99008E-19
 -1      3328 1.33628E-04-4.34775E-05-3.91540E-05-2.04252E-05 5.42922E-19 1.81360E-18
 -1      3329 1.31226E-04-3.39792E-05-4.19897E-05-2.10233E-05 5.68889E-19 1.44107E-18
 -1      3330 9.40337E-05-2.14110E-05-3.11316E-05-4.99840E-06-1.54234E-18-1.71412E-18
 -1      3331 1.05499E-04-5.32751E-05-2.20540E-05-2.80286E-05 4.92920E-19-1.32287E-18
 -1      3332 1.26142E-04-5.90560E-05-2.87253E-05-9.31759E-06-5.65262E-19-3.09933E-18
 -1      3333 9.55842E-05-2.86828E-05-2.86754E-05-1.04229E-06 1.76750E-19-6.24500E-19
 -1      3334 9.52734E-05-2.85716E-05-2.85869E-05-1.07676E-06 9.22898E-20-9.34855E-19
 -1      3335 9.52847E-05-2.84675E-05-2.86303E-05-1.00652E-06 2.35032E-19-1.05468E-18
 -1      3336 1.23299E-04-3.94189E-05-3.61844E-05 1.95150E-05 3.48872E-20 1.66204E-18
 -1      3337 1.28258E-04-4.47770E-05-3.58537E-05 1.68161E-05-6.33925E-19 3.22574E-19
 -1      3338 1.20785E-04-3.32644E-05-3.76593E-05 1.97250E-05-8.76335E-19 1.17062E-18
 -1      3339 1.11331E-04-1.52124E-05-4.15079E-05 3.51309E-06-8.61327E-20 1.48351E-18
 -1      3340 1.11490E-04-1.56248E-05-4.15545E-05 9.56853E-06 6.45863E-20 1.10730E-18
 -1      3341 1.21361E-04-3.78640E-05-3.60311E-05-8.05496E-06 7.75088E-19 3.27010E-18
 -1      3342 1.19456E-04-3.21489E-05-3.74791E-05-8.93793E-06 3.80159E-19 2.18560E-18
 -1      3343 1.20113E-04-4.85353E-05-3.06857E-05-1.71391E-05 1.30746E-18-2.72399E-18
 -1      3344 9.53177E-05-2.83390E-05-2.87070E-05-8.88041E-07 4.44673E-19-1.07186E-18
 -1      3345 9.53491E-05-2.81737E-05-2.87806E-05-7.14432E-07 5.97404E-19-1.00398E-18
 -1      3346 9.56441E-05-2.84312E-05-2.88098E-05-8.64120E-07 2.81175E-19-9.61221E-19
 -1      3347 1.14804E-04-5.21173E-05-2.70248E-05 3.72118E-05 6.67038E-20 1.72893E-18
 -1      3348 9.73571E-05-4.57748E-05-2.17676E-05 2.57095E-05 6.50971E-19-2.40528E-18
 -1      3349 1.18645E-04-5.24440E-05-2.80486E-05-3.26193E-05 1.49043E-18-8.76811E-19
 -1      3350 1.08214E-04-4.79982E-05-2.57230E-05-3.80787E-05 1.13677E-18-6.17275E-20
 -1      3351 1.34987E-04-5.67111E-05-3.35806E-05 1.18722E-05-4.79487E-19-4.70617E-18
 -1      3352 9.43494E-05-2.19858E-05-3.09892E-05 3.64235E-06 1.07537E-18-1.90697E-18
 -1      3353 9.34288E-05-2.02124E-05-3.14038E-05 4.23978E-06 1.24846E-18-2.18148E-18
 -1      3354 9.30694E-05-1.95517E-05-3.15172E-05 3.65312E-06 1.00521E-18-2.23241E-18
 -1      3355 1.24531E-04-5.30735E-05-3.06649E-05-2.11180E-05 8.84961E-19-3.10978E-18
 -1      3356 1.20907E-04-4.15973E-05-3.40590E-05-4.34154E-06 1.37661E-18 4.88434E-18
 -1      3357 1.27742E-04-4.30440E-05-3.63814E-05-5.10402E-06 3.26902E-19 5.09437E-19
 -1      3358 1.33202E-04-5.11030E-05-3.52713E-05 1.09312E-06-8.14816E-19-2.62980E-18
 -1      3359 1.21771E-04-4.41954E-05-3.33324E-05-1.78376E-06 1.91874E-18 4.66478E-18
 -1      3360 1.27610E-04-5.79596E-05-2.99737E-05-2.46972E-05 8.08361E-19-2.43969E-18
 -1      3361 1.06916E-04-5.11854E-05-2.37583E-05-4.23051E-05 3.01014E-19 8.29563E-19
 -1      3362 4.99212E-05-1.89884E-05-1.26550E-05-1.77231E-05-1.28220E-19-1.53429E-18
 -1      3363 5.90794E-05-2.26636E-05-1.53734E-05-2.12279E-05-4.08336E-19-4.96520E-19
 -1      3364 4.85915E-05-1.63676E-05-1.37313E-05-9.25759E-06 1.44538E-19-1.04725E-18
 -1      3365 1.29786E-04-5.29444E-05-3.30186E-05 7.76276E-06-5.96913E-19-1.61132E-18
 -1      3366 1.33969E-04-5.14445E-05-3.54773E-05 1.21662E-05-9.07252E-19-1.81935E-18
 -1      3367 7.62990E-05-3.70601E-05-1.64723E-05-3.20176E-05 2.86456E-19-6.80326E-19
 -1      3368 1.21260E-04-1.69187E-05-4.49336E-05 1.53126E-05-5.88476E-19 3.87623E-19
 -1      3369 9.25147E-05-1.86014E-05-3.16896E-05-2.37754E-06-6.42634E-19-2.31422E-18
 -1      3370 9.27474E-05-1.90053E-05-3.16239E-05-3.07460E-06-9.08102E-19-2.23528E-18
 -1      3371 9.53842E-05-2.65027E-05-2.95309E-05 1.36622E-06 1.15978E-18-1.15969E-18
 -1      3372 9.54270E-05-2.58822E-05-2.97908E-05 2.23164E-06 1.26283E-18-1.13077E-18
 -1      3373 9.53407E-05-2.51622E-05-3.00723E-05 2.61083E-06 1.19194E-18-1.23854E-18
 -1      3374 9.55865E-05-2.64077E-05-2.96534E-05 1.23780E-06 1.00586E-18-1.08245E-18
 -1      3375 9.56903E-05-2.80111E-05-2.90102E-05-4.73229E-07 6.26826E-19-1.08643E-18
 -1      3376 9.27814E-05-1.90504E-05-3.16180E-05 3.12151E-06 9.24283E-19-2.31641E-18
 -1      3377 9.25408E-05-1.86360E-05-3.16854E-05 2.42419E-06 6.01648E-19-2.36373E-18
 -1      3378 9.33593E-05-2.00133E-05-3.14146E-05 1.80401E-06 4.76854E-19-2.25705E-18
 -1      3379 9.37759E-05-2.07917E-05-3.12549E-05 2.86052E-06 8.83093E-19-2.14442E-18
 -1      3380 1.00395E-04-4.31385E-05-2.41537E-05 4.08287E-05 2.71580E-20 1.22198E-18
 -1      3381 8.65212E-05-3.63371E-05-2.14133E-05 4.35722E-05-4.50304E-19-7.80964E-19
 -1      3382 9.30453E-05-1.95044E-05-3.15257E-05-3.61665E-06-9.70597E-19-2.11826E-18
 -1      3383 9.34073E-05-2.01603E-05-3.14140E-05-4.23038E-06-1.19978E-18-1.94161E-18
 -1      3384 9.37500E-05-2.07613E-05-3.12636E-05-2.83017E-06-9.34774E-19-2.01037E-18
 -1      3385 7.01659E-05-2.51446E-05-1.88767E-05 3.67557E-05 7.35436E-19-3.47961E-18
 -1      3386 1.04471E-04-4.81809E-05-2.43071E-05 2.14592E-05 2.79455E-19-3.05279E-18
 -1      3387 9.11354E-05-3.94283E-05-2.18443E-05 2.45268E-05 6.24277E-19-3.20583E-18
 -1      3388 1.13178E-04-5.17814E-05-2.60080E-05 1.60252E-05-3.52902E-19-2.04783E-18
 -1      3389 5.56786E-05-1.72220E-05-1.64029E-05 9.42137E-06 1.20616E-18-1.45012E-18
 -1      3390 5.04955E-05-1.47501E-05-1.47565E-05 3.13779E-07 5.79490E-19-3.84129E-19
 -1      3391 9.61668E-05-2.78309E-05-2.92793E-05 2.43392E-07-6.54212E-19-1.27472E-18
 -1      3392 9.61626E-05-2.81503E-05-2.91527E-05 4.94797E-07-4.26177E-19-1.08384E-18
 -1      3393 9.61720E-05-2.84140E-05-2.90334E-05 6.55405E-07-3.33624E-19-1.05664E-18
 -1      3394 9.61423E-05-2.86124E-05-2.89437E-05 7.89413E-07-1.50919E-19-9.79547E-19
 -1      3395 9.63624E-05-2.82236E-05-2.92039E-05 4.71487E-07-3.43101E-19-1.20302E-18
 -1      3396 9.61098E-05-2.87673E-05-2.88571E-05 8.64628E-07-9.83811E-20-7.87026E-19
 -1      3397 9.60698E-05-2.88825E-05-2.87953E-05 9.18031E-07-1.21892E-19-8.17522E-19
 -1      3398 9.63413E-05-2.86974E-05-2.89923E-05 7.26275E-07-5.76496E-20-7.91365E-19
 -1      3399 9.60154E-05-2.89630E-05-2.87342E-05 9.35600E-07-1.12323E-19-9.01832E-19
 -1      3400 9.59730E-05-2.90213E-05-2.86934E-05 9.37056E-07-1.44991E-19-7.21880E-19
 -1      3401 9.62569E-05-2.89703E-05-2.88393E-05 8.35820E-07-1.21138E-19-8.70905E-19
 -1      3402 9.59094E-05-2.90517E-05-2.86518E-05 9.18759E-07-1.58585E-19-6.39323E-19
 -1      3403 9.58687E-05-2.90716E-05-2.86265E-05 8.89644E-07-3.90833E-20-5.67189E-19
 -1      3404 9.61414E-05-2.91050E-05-2.87320E-05 8.49385E-07 1.94071E-20-8.42573E-19
 -1      3405 9.58035E-05-2.90690E-05-2.85997E-05 8.51763E-07-1.76926E-19-4.73023E-19
 -1      3406 9.57664E-05-2.90633E-05-2.85859E-05 8.07570E-07-2.68430E-19-5.86941E-19
 -1      3407 9.60149E-05-2.91463E-05-2.86599E-05 8.05095E-07-1.92030E-19-1.00601E-18
 -1      3408 9.57039E-05-2.90394E-05-2.85703E-05 7.61895E-07-6.28942E-19-8.51664E-19
 -1      3409 9.56710E-05-2.90167E-05-2.85648E-05 7.13632E-07-7.77097E-19-9.61246E-19
 -1      3410 9.58892E-05-2.91257E-05-2.86146E-05 7.31265E-07-5.33764E-19-1.11927E-18
 -1      3411 9.56131E-05-2.89790E-05-2.85577E-05 6.68534E-07-7.12777E-19-8.91949E-19
 -1      3412 9.55844E-05-2.89449E-05-2.85583E-05 6.24018E-07-8.39304E-19-8.84104E-19
 -1      3413 9.57703E-05-2.90646E-05-2.85896E-05 6.48315E-07-6.47573E-19-1.28366E-18
 -1      3414 9.55311E-05-2.88979E-05-2.85576E-05 5.85510E-07-9.98894E-19-4.74606E-19
 -1      3415 9.55059E-05-2.88555E-05-2.85630E-05 5.50427E-07-1.07330E-18-5.59989E-19
 -1      3416 9.56604E-05-2.89764E-05-2.85800E-05 5.70894E-07-5.58506E-19-5.11367E-19
 -1      3417 9.54563E-05-2.88014E-05-2.85672E-05 5.22991E-07-8.66532E-19-3.09787E-19
 -1      3418 9.54335E-05-2.87521E-05-2.85762E-05 5.01701E-07-3.75583E-19-4.22744E-19
 -1      3419 9.55587E-05-2.88689E-05-2.85822E-05 5.09755E-07-7.86810E-19-8.91743E-20
 -1      3420 9.53858E-05-2.86911E-05-2.85845E-05 4.88913E-07-2.36906E-19-9.36648E-20
 -1      3421 9.53640E-05-2.86348E-05-2.85967E-05 4.85110E-07-9.01913E-20 3.66365E-19
 -1      3422 9.54623E-05-2.87451E-05-2.85937E-05 4.73129E-07 9.78101E-20 1.99501E-19
 -1      3423 9.53153E-05-2.85659E-05-2.86082E-05 4.90206E-07-2.85752E-19 1.10981E-19
 -1      3424 9.52929E-05-2.85015E-05-2.86232E-05 5.07423E-07-2.85945E-19 1.66095E-19
 -1      3425 9.53668E-05-2.86044E-05-2.86127E-05 4.67932E-07-2.23490E-19-1.52252E-19
 -1      3426 9.52398E-05-2.84225E-05-2.86377E-05 5.33688E-07-1.73091E-20 1.46023E-19
 -1      3427 9.52147E-05-2.83478E-05-2.86555E-05 5.75644E-07 1.97787E-20 4.99237E-20
 -1      3428 9.52659E-05-2.84438E-05-2.86380E-05 5.00720E-07-2.40320E-19-1.16780E-19
 -1      3429 9.51532E-05-2.82558E-05-2.86724E-05 6.26672E-07-3.86785E-19 3.25575E-19
 -1      3430 9.51231E-05-2.81682E-05-2.86930E-05 6.97507E-07-2.48427E-19 3.29795E-19
 -1      3431 9.51522E-05-2.82579E-05-2.86686E-05 5.78299E-07-5.15357E-20 4.18087E-19
 -1      3432 9.50483E-05-2.80596E-05-2.87121E-05 7.77372E-07 7.25219E-20 1.37191E-19
 -1      3433 9.50105E-05-2.79562E-05-2.87354E-05 8.81762E-07 2.61257E-19 1.27832E-19
 -1      3434 9.50170E-05-2.80399E-05-2.87036E-05 7.08148E-07-1.98769E-20 3.65039E-19
 -1      3435 9.49167E-05-2.78272E-05-2.87559E-05 9.95085E-07 1.48340E-19 1.11968E-19
 -1      3436 9.48680E-05-2.77052E-05-2.87817E-05 1.13823E-06 3.96812E-19 6.20125E-20
 -1      3437 9.48497E-05-2.77821E-05-2.87419E-05 8.98641E-07 1.42061E-19-2.39226E-19
 -1      3438 9.47489E-05-2.75521E-05-2.88027E-05 1.29013E-06 4.64220E-19-6.60682E-20
 -1      3439 9.46858E-05-2.74089E-05-2.88302E-05 1.47759E-06 3.89130E-19-5.62192E-19
 -1      3440 9.46387E-05-2.74769E-05-2.87816E-05 1.15904E-06 2.97255E-19 4.31387E-20
 -1      3441 9.45343E-05-2.72289E-05-2.88502E-05 1.67356E-06-2.09223E-19-8.95756E-19
 -1      3442 9.44531E-05-2.70636E-05-2.88782E-05 1.91094E-06-7.57888E-19-1.09428E-18
 -1      3443 9.43707E-05-2.71176E-05-2.88200E-05 1.49932E-06-3.38194E-19-7.34504E-19
 -1      3444 9.42619E-05-2.68553E-05-2.88946E-05 2.15661E-06-4.31200E-19-8.89771E-19
 -1      3445 9.41590E-05-2.66692E-05-2.89209E-05 2.44914E-06 2.78687E-19-8.63790E-19
 -1      3446 9.40313E-05-2.67000E-05-2.88525E-05 1.92973E-06-3.67649E-19-8.90834E-19
 -1      3447 9.39209E-05-2.64346E-05-2.89299E-05 2.75003E-06 3.01224E-19-1.23259E-18
 -1      3448 9.37940E-05-2.62332E-05-2.89510E-05 3.10195E-06 2.64139E-19-1.10109E-18
 -1      3449 9.36061E-05-2.62251E-05-2.88727E-05 2.46043E-06 1.56303E-19-6.32270E-19
 -1      3450 9.35034E-05-2.59794E-05-2.89473E-05 3.46342E-06 3.60185E-19-1.10855E-18
 -1      3451 9.33533E-05-2.57753E-05-2.89579E-05 3.87748E-06 4.63218E-19-1.59629E-18
 -1      3452 9.30821E-05-2.57023E-05-2.88709E-05 3.10121E-06 3.43510E-19-1.31316E-18
 -1      3453 9.30076E-05-2.55179E-05-2.89339E-05 4.30503E-06 6.01502E-19-2.22561E-18
 -1      3454 9.28415E-05-2.53344E-05-2.89267E-05 4.78208E-06 5.53421E-19-2.16886E-18
 -1      3455 9.24506E-05-2.51547E-05-2.88336E-05 3.86196E-06 2.53025E-19-1.89661E-18
 -1      3456 9.24453E-05-2.51022E-05-2.88724E-05 5.28255E-06 3.94167E-19-2.06566E-18
 -1      3457 9.22829E-05-2.49801E-05-2.88376E-05 5.82175E-06 1.19224E-19-1.46692E-18
 -1      3458 9.17128E-05-2.46265E-05-2.87426E-05 4.75463E-06 2.95154E-19-2.14308E-18
 -1      3459 9.18537E-05-2.48217E-05-2.87400E-05 6.40591E-06-9.29943E-20-1.32465E-18
 -1      3460 9.17365E-05-2.48275E-05-2.86659E-05 7.00563E-06 5.63882E-19-1.12762E-18
 -1      3461 9.08882E-05-2.41941E-05-2.85740E-05 5.79788E-06 2.55801E-19-1.72402E-18
 -1      3462 9.13144E-05-2.48207E-05-2.85096E-05 7.69260E-06 4.07806E-19-8.00658E-19
 -1      3463 9.13217E-05-2.50586E-05-2.83833E-05 8.35173E-06-1.22787E-19-6.06678E-19
 -1      3464 9.00296E-05-2.39808E-05-2.82982E-05 7.02586E-06 5.83130E-19-1.41474E-18
 -1      3465 9.09850E-05-2.53231E-05-2.81518E-05 9.17529E-06-8.36595E-19-4.01177E-19
 -1      3466 9.12578E-05-2.59510E-05-2.79634E-05 9.89293E-06-6.48331E-19-1.37679E-18
 -1      3467 8.92464E-05-2.41784E-05-2.78815E-05 8.50184E-06-3.28904E-19-1.06963E-18
 -1      3468 9.11525E-05-2.66654E-05-2.76427E-05 1.09035E-05-5.00934E-19-1.63606E-18
 -1      3469 9.19270E-05-2.79112E-05-2.73931E-05 1.16674E-05-7.35788E-19-1.63988E-18
 -1      3470 8.87469E-05-2.50805E-05-2.72895E-05 1.03350E-05-8.77162E-19-1.65398E-18
 -1      3471 9.23087E-05-2.93280E-05-2.69800E-05 1.29246E-05-8.78011E-19-1.82527E-18
 -1      3472 9.39665E-05-3.15055E-05-2.66987E-05 1.36686E-05-6.10883E-19-2.38722E-18
 -1      3473 8.89043E-05-2.71220E-05-2.64987E-05 1.26782E-05-8.58779E-19-2.31568E-18
 -1      3474 9.53109E-05-3.39978E-05-2.62258E-05 1.51835E-05-5.03311E-19-2.48450E-18
 -1      3475 9.83341E-05-3.74444E-05-2.60076E-05 1.56790E-05-6.62869E-19-3.12206E-18
 -1      3476 9.03638E-05-3.09359E-05-2.55193E-05 1.57263E-05-6.18572E-19-3.31840E-18
 -1      3477 1.01836E-04-4.14266E-05-2.57303E-05 1.67453E-05-5.04150E-20-2.78554E-18
 -1      3478 1.06641E-04-4.62879E-05-2.57962E-05 1.64137E-05-4.31643E-19-2.58000E-18
 -1      3479 1.27284E-04-2.50797E-05-4.44649E-05-2.18519E-05 1.46696E-19 1.23836E-18
 -1      3480 9.57783E-05-2.89326E-05-2.86479E-05-1.00866E-06 1.96360E-19-8.17452E-19
 -1      3481 9.58088E-05-2.88724E-05-2.86842E-05-1.00622E-06 2.73635E-19-8.29508E-19
 -1      3482 9.54871E-05-2.89015E-05-2.85353E-05-6.69322E-07 4.13114E-20-6.86370E-19
 -1      3483 9.55023E-05-2.89275E-05-2.85324E-05-7.18925E-07 2.56888E-19-8.64115E-19
 -1      3484 9.55495E-05-2.89585E-05-2.85376E-05-7.69088E-07 1.79321E-19-7.53714E-19
 -1      3485 9.55680E-05-2.89738E-05-2.85403E-05-8.21985E-07 2.31032E-19-6.02803E-19
 -1      3486 9.56715E-05-2.90180E-05-2.85671E-05-7.13874E-07 2.05042E-19-2.90623E-19
 -1      3487 9.53830E-05-2.87428E-05-2.85585E-05-5.25644E-07 1.83683E-20-1.05286E-18
 -1      3488 9.53934E-05-2.87826E-05-2.85484E-05-5.52295E-07 2.58324E-19-8.79917E-19
 -1      3489 9.53373E-05-2.86456E-05-2.85805E-05-4.98588E-07-2.96343E-19-9.13963E-19
 -1      3490 9.53465E-05-2.86913E-05-2.85676E-05-5.07806E-07-9.23353E-20-8.58918E-19
 -1      3491 9.54281E-05-2.87470E-05-2.85782E-05-5.05585E-07-1.64971E-19-9.35576E-19
 -1      3492 9.52922E-05-2.85355E-05-2.86083E-05-5.10745E-07-4.49417E-19-7.35379E-19
 -1      3493 9.53010E-05-2.85878E-05-2.85927E-05-4.99032E-07-4.47680E-19-1.05704E-18
 -1      3494 9.53558E-05-2.86270E-05-2.85984E-05-4.90663E-07-2.83727E-19-8.10732E-19
 -1      3495 9.52443E-05-2.84096E-05-2.86415E-05-5.69104E-07-1.10492E-19-1.03139E-18
 -1      3496 9.52536E-05-2.84698E-05-2.86232E-05-5.32830E-07-2.31301E-19-8.65970E-19
 -1      3497 9.52813E-05-2.84905E-05-2.86248E-05-5.15009E-07-2.95648E-19-1.08649E-18
 -1      3498 9.51896E-05-2.82638E-05-2.86803E-05-6.81341E-07 2.69202E-19-3.42475E-19
 -1      3499 9.52004E-05-2.83337E-05-2.86591E-05-6.16478E-07 3.20255E-19-4.93656E-19
 -1      3500 9.51992E-05-2.83338E-05-2.86565E-05-5.85643E-07-8.50146E-20-9.95211E-19
 -1      3501 9.51236E-05-2.80937E-05-2.87247E-05-8.56148E-07-3.07548E-19 1.77503E-20
 -1      3502 9.51370E-05-2.81751E-05-2.87003E-05-7.58155E-07-1.01910E-19 1.67173E-19
 -1      3503 9.51032E-05-2.81517E-05-2.86931E-05-7.10313E-07-1.24442E-19 4.54976E-20
 -1      3504 9.50416E-05-2.78950E-05-2.87743E-05-1.10327E-06-5.78959E-20-6.21068E-20
 -1      3505 9.50586E-05-2.79895E-05-2.87468E-05-9.67128E-07-9.43174E-20-2.27001E-20
 -1      3506 9.49863E-05-2.79386E-05-2.87340E-05-8.97745E-07-4.43847E-20-2.99686E-19
 -1      3507 9.49387E-05-2.76647E-05-2.88285E-05-1.43329E-06 6.96507E-20 1.15651E-19
 -1      3508 9.49602E-05-2.77732E-05-2.87980E-05-1.25367E-06-1.01611E-19-2.41889E-20
 -1      3509 9.48407E-05-2.76895E-05-2.87780E-05-1.15767E-06-2.29626E-19-7.69286E-19
 -1      3510 9.48106E-05-2.74026E-05-2.88854E-05-1.85702E-06-9.93184E-20-8.75513E-20
 -1      3511 9.48370E-05-2.75241E-05-2.88526E-05-1.62871E-06 1.61585E-19 4.54464E-20
 -1      3512 9.46587E-05-2.74009E-05-2.88232E-05-1.50060E-06-4.35242E-20-6.52973E-19
 -1      3513 9.46546E-05-2.71134E-05-2.89419E-05-2.38459E-06 2.40746E-19 3.19527E-19
 -1      3514 9.46852E-05-2.72443E-05-2.89082E-05-2.10311E-06 7.97241E-20 1.80547E-19
 -1      3515 9.44330E-05-2.70730E-05-2.88664E-05-1.93740E-06-3.49931E-19-6.59026E-19
 -1      3516 9.44717E-05-2.68103E-05-2.89929E-05-3.02411E-06-1.51499E-19-6.54006E-20
 -1      3517 9.45036E-05-2.69421E-05-2.89607E-05-2.68660E-06 6.07374E-19 5.01738E-19
 -1      3518 9.41582E-05-2.67119E-05-2.89029E-05-2.47855E-06 5.32241E-19 2.37868E-19
 -1      3519 9.42704E-05-2.65194E-05-2.90307E-05-3.77997E-06-7.84566E-19-5.28770E-19
 -1      3520 9.42966E-05-2.66365E-05-2.90036E-05-3.38638E-06-8.97690E-19-5.03481E-19
 -1      3521 9.38337E-05-2.63339E-05-2.89253E-05-3.13340E-06-1.70414E-19-4.39209E-19
 -1      3522 9.40725E-05-2.62873E-05-2.90444E-05-4.65089E-06-1.28087E-18-1.22768E-19
 -1      3523 9.40783E-05-2.63629E-05-2.90278E-05-4.20539E-06-1.02688E-18-4.33803E-19
 -1      3524 9.34672E-05-2.59708E-05-2.89236E-05-3.90937E-06-9.04199E-19-1.65226E-19
 -1      3525 9.39227E-05-2.61904E-05-2.90205E-05-5.62766E-06 2.52219E-19-3.23201E-19
 -1      3526 9.38809E-05-2.61815E-05-2.90208E-05-5.14048E-06-2.77991E-19 5.44647E-20
 -1      3527 9.30821E-05-2.56777E-05-2.88845E-05-4.81165E-06-9.09059E-19-7.63107E-19
 -1      3528 9.39036E-05-2.63480E-05-2.89426E-05-6.69054E-06 4.24916E-19-3.43038E-19
 -1      3529 9.37662E-05-2.61884E-05-2.89675E-05-6.18029E-06 5.70619E-19 1.38955E-19
 -1      3530 9.27276E-05-2.55436E-05-2.87915E-05-5.84345E-06 1.64526E-19-2.85013E-19
 -1      3531 9.41570E-05-2.69376E-05-2.87953E-05-7.80445E-06 3.20860E-20-5.02220E-19
 -1      3532 9.38442E-05-2.65303E-05-2.88515E-05-7.30194E-06 4.14257E-20-9.54395E-19
 -1      3533 9.24957E-05-2.57059E-05-2.86262E-05-7.00667E-06 3.27330E-19-1.85829E-19
 -1      3534 9.49124E-05-2.82083E-05-2.85697E-05-8.90797E-06 8.16022E-19 1.11322E-18
 -1      3535 9.42995E-05-2.74200E-05-2.86592E-05-8.46382E-06 3.00724E-19 3.40470E-19
 -1      3536 9.25462E-05-2.63678E-05-2.83715E-05-8.30050E-06-6.46280E-20-2.54035E-19
 -1      3537 9.65178E-05-3.04843E-05-2.82777E-05-9.88791E-06-5.14202E-19 1.50784E-18
 -1      3538 9.54249E-05-2.91469E-05-2.83898E-05-9.58794E-06 6.77186E-19 1.34849E-18
 -1      3539 9.31405E-05-2.78145E-05-2.80197E-05-9.71247E-06 3.78646E-19 1.14412E-18
 -1      3540 9.94579E-05-3.41231E-05-2.79760E-05-1.05035E-05-1.36054E-18 9.35097E-19
 -1      3541 9.76608E-05-3.20715E-05-2.80743E-05-1.05078E-05-1.33567E-18 1.40531E-18
 -1      3542 9.46945E-05-3.04330E-05-2.75886E-05-1.11822E-05-1.16659E-18 1.74025E-18
 -1      3543 1.04298E-04-3.93882E-05-2.78062E-05-1.02921E-05-9.19795E-19 6.15561E-19
 -1      3544 1.01593E-04-3.65382E-05-2.78066E-05-1.08766E-05-5.73637E-19 5.88795E-19
 -1      3545 9.78075E-05-3.46587E-05-2.71512E-05-1.25168E-05-1.04468E-18 7.13170E-19
 -1      3546 1.11386E-04-4.59715E-05-2.80662E-05-8.29399E-06-1.05335E-18 7.25603E-20
 -1      3547 1.07872E-04-4.26514E-05-2.78141E-05-9.87649E-06-1.26879E-18-5.25938E-20
 -1      3548 1.03360E-04-4.09120E-05-2.68966E-05-1.31401E-05-4.96166E-19 6.25329E-19
 -1      3549 1.27382E-04-5.42776E-05-3.12498E-05 2.92462E-06-1.92306E-18-9.91187E-19
 -1      3550 1.28042E-04-3.24490E-05-4.11942E-05 2.10018E-05-5.56183E-19-1.61413E-19
 -1      3551 1.18775E-04-1.47150E-05-4.49897E-05 7.87466E-07 1.30231E-20-2.47643E-18
 -1      3552 1.25306E-04-2.90999E-05-4.15284E-05-8.99455E-06-1.25742E-18-2.52749E-18
 -1      3553 7.66465E-05-3.08905E-05-1.97708E-05 2.43898E-05 2.08794E-19-2.13950E-18
 -1      3554 6.54174E-05-2.26979E-05-1.80914E-05 1.85590E-05-2.69965E-19-1.05937E-18
 -1      3555 1.19781E-04-4.55196E-05-3.19999E-05 4.90355E-06 1.70251E-18 3.52456E-18
 -1      3556 1.20635E-04-4.49263E-05-3.25827E-05 1.84980E-06 2.71909E-18 4.64577E-18
 -1      3557 1.29805E-04-5.28029E-05-3.30100E-05 9.30702E-06 2.88545E-19-2.48662E-18
 -1      3558 9.59011E-05-2.73797E-05-2.93739E-05 9.72316E-08 8.09062E-19-1.28368E-18
 -1      3559 9.58852E-05-2.69095E-05-2.95493E-05 5.54940E-07 8.83033E-19-1.18095E-18
 -1      3560 1.29347E-04-6.09139E-05-2.93979E-05-2.93914E-05-4.71533E-19-4.59992E-19
 -1      3561 9.60357E-05-2.69127E-05-2.96142E-05-4.45157E-07-8.33269E-19-1.28356E-18
 -1      3562 9.60852E-05-2.74098E-05-2.94399E-05-3.32577E-08-8.01076E-19-1.32282E-18
 -1      3563 9.62718E-05-2.74638E-05-2.94895E-05 1.24428E-08-6.49894E-19-1.44805E-18
 -1      3564 7.39017E-05-3.27559E-05-1.74838E-05-2.85630E-05-1.38225E-19-1.00718E-18
 -1      3565 8.66326E-05-4.22815E-05-1.89436E-05-3.19376E-05 7.51318E-19-7.21143E-19
 -1      3566 5.66567E-05-1.64962E-05-1.66892E-05 2.74607E-05-4.58033E-19-4.05919E-18
 -1      3567 9.22400E-05-1.81256E-05-3.17752E-05-1.00824E-06-2.42024E-19-2.42259E-18
 -1      3568 9.23534E-05-1.83169E-05-3.17445E-05-1.76038E-06-4.94248E-19-2.41292E-18
 -1      3569 9.33437E-05-1.99856E-05-3.14183E-05-1.76923E-06-5.04445E-19-2.25190E-18
 -1      3570 9.40133E-05-2.13546E-05-3.11349E-05-4.32796E-06-1.37337E-18-1.76520E-18
 -1      3571 9.99161E-05-4.84043E-05-2.17129E-05-2.77357E-05 7.90599E-19-5.80079E-19
 -1      3572 1.11915E-04-5.40622E-05-2.50491E-05-2.07501E-05 6.74185E-20-9.14544E-19
 -1      3573 9.65980E-05-4.42193E-05-2.22366E-05-2.54403E-05 7.22863E-19-9.03308E-19
 -1      3574 1.19483E-04-5.58202E-05-2.69683E-05-1.36694E-05-7.68497E-19-1.11531E-18
 -1      3575 1.25396E-04-5.62131E-05-2.98056E-05-3.84148E-06-1.63915E-18-1.81596E-18
 -1      3576 1.21181E-04-5.24528E-05-2.95416E-05-2.36022E-06-2.78397E-18-5.07211E-19
 -1      3577 1.13801E-04-5.21449E-05-2.63938E-05-1.50426E-05-7.19515E-19-1.37934E-19
 -1      3578 1.23233E-04-4.90533E-05-3.16012E-05 1.34791E-05 3.24411E-18-7.80858E-22
 -1      3579 9.59497E-05-2.80887E-05-2.90879E-05-5.01510E-07 4.11291E-19-9.68152E-19
 -1      3580 9.59675E-05-2.77844E-05-2.92122E-05-2.23778E-07 6.36142E-19-1.04225E-18
 -1      3581 9.61105E-05-2.74113E-05-2.94437E-05 4.53266E-08 5.34680E-19-1.08663E-18
 -1      3582 9.54322E-05-2.88284E-05-2.85430E-05-5.85061E-07 3.46634E-19-9.96801E-19
 -1      3583 9.54446E-05-2.88620E-05-2.85360E-05-6.25441E-07 1.44459E-19-7.84938E-19
 -1      3584 9.55831E-05-2.89444E-05-2.85605E-05-6.25336E-07 2.47760E-19-9.78551E-19
 -1      3585 9.55028E-05-2.88529E-05-2.85650E-05-5.52913E-07 1.18990E-19-1.04785E-18
 -1      3586 9.56752E-05-2.55283E-05-3.00590E-05-1.51058E-06-9.70461E-19-1.42327E-18
 -1      3587 9.58245E-05-2.62567E-05-2.98248E-05-8.81929E-07-9.27481E-19-1.33809E-18
 -1      3588 9.59838E-05-2.62869E-05-2.98664E-05-7.07401E-07-8.81589E-19-1.39230E-18
 -1      3589 1.26425E-04-4.83969E-05-3.35124E-05 2.93851E-06 2.38625E-18 2.00172E-18
 -1      3590 1.28258E-04-5.30708E-05-3.21190E-05 1.28259E-05 9.85735E-19-2.14376E-18
 -1      3591 9.50366E-05-2.36722E-05-3.05853E-05-2.77434E-06-1.11426E-18-1.66763E-18
 -1      3592 9.53371E-05-2.46419E-05-3.03060E-05-2.00875E-06-1.02714E-18-1.50198E-18
 -1      3593 9.54528E-05-2.47111E-05-3.03246E-05-1.66903E-06-9.54951E-19-1.64516E-18
 -1      3594 9.52812E-05-2.45665E-05-3.03026E-05 2.86995E-06 1.08969E-18-1.47424E-18
 -1      3595 9.49840E-05-2.37227E-05-3.05465E-05 3.08937E-06 1.11423E-18-1.66388E-18
 -1      3596 9.54326E-05-2.52985E-05-3.00631E-05 2.07463E-06 8.86224E-19-1.29652E-18
 -1      3597 6.27184E-05-1.93609E-05-1.83481E-05 1.37669E-05 1.52645E-19-1.44745E-18
 -1      3598 6.17658E-05-1.71899E-05-1.91358E-05 6.75932E-06-2.07338E-19-1.81673E-18
 -1      3599 7.03910E-05-2.20982E-05-2.06244E-05 1.46682E-05-5.70331E-19-1.52933E-18
 -1      3600 9.49700E-05-3.78265E-05-2.46061E-05 1.91984E-05-3.27372E-19-2.55399E-18
 -1      3601 9.57236E-05-2.89651E-05-2.86092E-05-9.91093E-07 1.07697E-19-5.90456E-19
 -1      3602 9.59797E-05-2.90261E-05-2.86966E-05-9.33987E-07 1.42879E-19-1.19231E-18
 -1      3603 9.56969E-05-2.89896E-05-2.85880E-05-9.60024E-07 8.93140E-20-5.67196E-19
 -1      3604 9.58574E-05-2.87932E-05-2.87425E-05-9.82912E-07 1.32776E-19-8.96843E-19
 -1      3605 9.58902E-05-2.86803E-05-2.87997E-05-9.23680E-07 8.56542E-20-9.12061E-19
 -1      3606 9.60796E-05-2.88879E-05-2.87990E-05-9.13490E-07 7.40803E-20-1.27984E-18
 -1      3607 9.57687E-05-2.90661E-05-2.85884E-05-8.06811E-07 3.41604E-19-7.60937E-19
 -1      3608 9.56197E-05-2.89920E-05-2.85536E-05-8.71859E-07 4.39439E-19-7.98067E-19
 -1      3609 9.56421E-05-2.89914E-05-2.85639E-05-9.19741E-07 4.42939E-19-5.57206E-19
 -1      3610 1.17446E-04-5.00445E-05-2.87297E-05-5.61344E-06-1.34576E-18 7.82769E-20
 -1      3611 1.12835E-04-4.90350E-05-2.74466E-05-1.09415E-05-1.34365E-18-2.83094E-20
 -1      3612 8.63758E-05-3.39885E-05-2.22567E-05 2.13007E-05-7.23551E-20-2.76569E-18
 -1      3613 9.59219E-05-2.85314E-05-2.88840E-05-8.34996E-07 1.20257E-19-8.77168E-19
 -1      3614 9.59526E-05-2.83410E-05-2.89697E-05-6.87296E-07 2.84609E-19-8.83342E-19
 -1      3615 9.61817E-05-2.81544E-05-2.91569E-05-4.86706E-07 3.21521E-19-1.08756E-18
 -1      3616 9.61563E-05-2.86178E-05-2.89477E-05-7.83190E-07 1.42432E-19-1.00820E-18
 -1      3617 1.20809E-04-5.85893E-05-2.62832E-05-3.81836E-05-5.14573E-20 2.75160E-19
 -1      3618 5.52139E-05-1.65267E-05-1.63570E-05-5.71835E-06 3.21042E-19-1.79995E-19
 -1      3619 9.47377E-05-2.30686E-05-3.07176E-05 2.86964E-06 9.08326E-19-1.72473E-18
 -1      3620 6.89052E-05-2.73957E-05-1.73641E-05-2.51194E-05 2.73300E-19-5.58592E-19
 -1      3621 7.80635E-05-3.22706E-05-1.94532E-05-2.55737E-05 8.85282E-20-1.34530E-18
 -1      3622 9.31367E-05-1.96129E-05-3.14923E-05-5.86568E-07-1.90800E-19-2.35680E-18
 -1      3623 6.32650E-05-2.27938E-05-1.73581E-05-1.96236E-05 2.35025E-19-6.23416E-19
 -1      3624 9.58607E-05-2.62608E-05-2.98282E-05 8.87409E-07 7.60632E-19-1.32752E-18
 -1      3625 9.57054E-05-2.62694E-05-2.97667E-05 1.06541E-06 8.57136E-19-1.34122E-18
 -1      3626 9.39359E-05-2.11991E-05-3.11804E-05-1.21071E-06-3.69415E-19-2.12939E-18
 -1      3627 9.40755E-05-2.14802E-05-3.11273E-05-1.73255E-06-6.12916E-19-2.07219E-18
 -1      3628 9.38650E-05-2.10499E-05-3.12181E-05 8.07189E-07 1.36336E-19-2.24836E-18
 -1      3629 9.38146E-05-2.09488E-05-3.12375E-05 2.46712E-07-5.20142E-20-2.24813E-18
 -1      3630 9.40855E-05-2.15048E-05-3.11200E-05 1.75889E-06 5.19453E-19-2.08650E-18
 -1      3631 9.39456E-05-2.12180E-05-3.11773E-05 1.24631E-06 3.02527E-19-2.12734E-18
 -1      3632 9.46083E-05-2.23827E-05-3.09349E-05 8.29856E-07 1.58985E-19-2.02344E-18
 -1      3633 9.56050E-05-2.56927E-05-2.99528E-05 1.65337E-06 8.46674E-19-1.31103E-18
 -1      3634 9.48785E-05-2.30815E-05-3.07530E-05-1.76122E-06-7.55201E-19-1.77356E-18
 -1      3635 9.43295E-05-2.20508E-05-3.09786E-05-2.37281E-06-8.63982E-19-1.92398E-18
 -1      3636 9.65394E-05-2.86102E-05-2.91087E-05 5.73179E-07-4.58942E-20-9.29910E-19
 -1      3637 9.65084E-05-2.88074E-05-2.90166E-05 6.67612E-07-9.16122E-20-8.65894E-19
 -1      3638 9.64683E-05-2.89580E-05-2.89302E-05 7.09466E-07-1.03241E-19-8.53284E-19
 -1      3639 9.64149E-05-2.90664E-05-2.88641E-05 7.44430E-07-2.10885E-20-8.63861E-19
 -1      3640 9.66391E-05-2.88888E-05-2.90371E-05 5.79897E-07-1.10567E-19-1.14375E-18
 -1      3641 9.63474E-05-2.91392E-05-2.88015E-05 7.47771E-07 1.15297E-19-9.88247E-19
 -1      3642 9.62844E-05-2.91866E-05-2.87558E-05 7.44566E-07 9.97878E-20-1.06307E-18
 -1      3643 9.65320E-05-2.91386E-05-2.88847E-05 6.39379E-07-4.41185E-20-8.84250E-19
 -1      3644 9.62045E-05-2.92067E-05-2.87121E-05 7.24604E-07-1.05797E-19-1.12739E-18
 -1      3645 9.61395E-05-2.92129E-05-2.86819E-05 6.99457E-07-2.41624E-19-1.09041E-18
 -1      3646 9.63859E-05-2.92478E-05-2.87754E-05 6.36167E-07-1.32786E-19-8.77496E-19
 -1      3647 9.60565E-05-2.91981E-05-2.86529E-05 6.67683E-07-3.05735E-19-1.02037E-18
 -1      3648 9.59940E-05-2.91771E-05-2.86346E-05 6.32524E-07-3.56078E-19-8.68878E-19
 -1      3649 9.62244E-05-2.92618E-05-2.87001E-05 5.96438E-07-1.65188E-19-8.14854E-19
 -1      3650 9.59131E-05-2.91396E-05-2.86169E-05 5.97227E-07-5.06255E-19-9.01324E-19
 -1      3651 9.58550E-05-2.91005E-05-2.86077E-05 5.60607E-07-5.25244E-19-6.74431E-19
 -1      3652 9.60621E-05-2.92127E-05-2.86514E-05 5.39769E-07-3.46736E-19-4.64879E-19
 -1      3653 9.57783E-05-2.90480E-05-2.85988E-05 5.27764E-07-3.26106E-19-4.94188E-19
 -1      3654 9.57248E-05-2.89964E-05-2.85965E-05 4.95951E-07-2.98450E-19-1.54071E-19
 -1      3655 9.59060E-05-2.91218E-05-2.86232E-05 4.80258E-07-2.40651E-19-5.71334E-19
 -1      3656 9.56524E-05-2.89331E-05-2.85944E-05 4.70025E-07-6.84965E-19-2.12967E-19
 -1      3657 9.56026E-05-2.88720E-05-2.85975E-05 4.47703E-07-4.40747E-19 2.43634E-19
 -1      3658 9.57585E-05-2.90022E-05-2.86110E-05 4.28392E-07-3.28262E-19-6.72167E-20
 -1      3659 9.55329E-05-2.87997E-05-2.86006E-05 4.32038E-07-2.67895E-19-4.90841E-20
 -1      3660 9.54848E-05-2.87298E-05-2.86079E-05 4.22884E-07-1.17675E-19-3.52081E-19
 -1      3661 9.56178E-05-2.88605E-05-2.86111E-05 3.92045E-07-5.03390E-19-2.20607E-19
 -1      3662 9.54146E-05-2.86481E-05-2.86152E-05 4.20293E-07-1.40545E-19-4.77475E-19
 -1      3663 9.53655E-05-2.85684E-05-2.86261E-05 4.27615E-07-3.31675E-19-4.56874E-19
 -1      3664 9.54794E-05-2.86984E-05-2.86208E-05 3.77285E-07-4.21451E-19-7.85845E-19
 -1      3665 9.52909E-05-2.84753E-05-2.86367E-05 4.40809E-07-1.13216E-19-3.10443E-19
 -1      3666 9.52374E-05-2.83836E-05-2.86504E-05 4.67837E-07-1.95950E-20-2.39166E-19
 -1      3667 9.53361E-05-2.85138E-05-2.86381E-05 3.89625E-07-1.06988E-19-5.84953E-19
 -1      3668 9.51531E-05-2.82759E-05-2.86635E-05 4.99603E-07 1.17290E-19 3.22445E-19
 -1      3669 9.50910E-05-2.81691E-05-2.86796E-05 5.49745E-07 1.38931E-19 4.70215E-19
 -1      3670 9.51789E-05-2.83015E-05-2.86612E-05 4.34411E-07 2.47681E-19 7.84217E-20
 -1      3671 9.49910E-05-2.80428E-05-2.86944E-05 6.03146E-07-2.08423E-19 6.11049E-19
 -1      3672 9.49154E-05-2.79170E-05-2.87124E-05 6.80151E-07 1.46445E-19 6.65757E-19
 -1      3673 9.49965E-05-2.80541E-05-2.86885E-05 5.17210E-07 2.76912E-19 6.79803E-19
 -1      3674 9.47924E-05-2.77676E-05-2.87279E-05 7.58624E-07-2.89189E-20 4.64776E-19
 -1      3675 9.46979E-05-2.76187E-05-2.87469E-05 8.66617E-07-8.45686E-20-4.63419E-20
 -1      3676 9.47758E-05-2.77628E-05-2.87181E-05 6.44108E-07-1.80579E-19 8.82560E-19
 -1      3677 9.45437E-05-2.74414E-05-2.87619E-05 9.73981E-07 1.81283E-19-2.04983E-19
 -1      3678 9.44237E-05-2.72657E-05-2.87807E-05 1.11740E-06 1.06692E-19-3.49784E-19
 -1      3679 9.45016E-05-2.74181E-05-2.87474E-05 8.21776E-07-1.56010E-19 2.33206E-19
 -1      3680 9.42292E-05-2.70563E-05-2.87931E-05 1.25779E-06-1.40555E-19-6.66319E-19
 -1      3681 9.40767E-05-2.68508E-05-2.88099E-05 1.44122E-06-2.21507E-19-5.67775E-19
 -1      3682 9.41566E-05-2.70110E-05-2.87731E-05 1.05739E-06-2.45875E-19-1.20962E-18
 -1      3683 9.38318E-05-2.66061E-05-2.88168E-05 1.61898E-06-2.09430E-19-4.70594E-19
 -1      3684 9.36394E-05-2.63697E-05-2.88287E-05 1.84694E-06-1.78660E-20-2.50289E-19
 -1      3685 9.37219E-05-2.65340E-05-2.87900E-05 1.35842E-06-3.20825E-20-4.20003E-19
 -1      3686 9.33336E-05-2.60891E-05-2.88261E-05 2.06655E-06 1.51263E-19-2.24199E-19
 -1      3687 9.30940E-05-2.58238E-05-2.88290E-05 2.34331E-06 5.39363E-19 1.73348E-19
 -1      3688 9.31769E-05-2.59834E-05-2.87910E-05 1.73246E-06 1.32616E-19-1.35294E-19
 -1      3689 9.27165E-05-2.55104E-05-2.88111E-05 2.60952E-06 2.50954E-19 6.47641E-20
 -1      3690 9.24239E-05-2.52236E-05-2.87991E-05 2.93909E-06-7.24379E-20 1.01472E-19
 -1      3691 9.25005E-05-2.53617E-05-2.87659E-05 2.18727E-06 2.90911E-19 2.87313E-19
 -1      3692 9.19647E-05-2.48866E-05-2.87580E-05 3.25755E-06-2.91118E-19-9.32261E-19
 -1      3693 9.16164E-05-2.45935E-05-2.87229E-05 3.64430E-06-3.01092E-19-1.85936E-18
 -1      3694 9.16720E-05-2.46808E-05-2.87007E-05 2.73154E-06-6.75253E-19-5.13411E-19
 -1      3695 9.10675E-05-2.42508E-05-2.86480E-05 4.02312E-06 1.24660E-19-1.85403E-18
 -1      3696 9.06676E-05-2.39784E-05-2.85792E-05 4.47347E-06 4.12869E-19-1.86185E-18
 -1      3697 9.06731E-05-2.39666E-05-2.85765E-05 3.37719E-06-1.61376E-19-1.67285E-18
 -1      3698 9.00243E-05-2.36609E-05-2.84565E-05 4.92673E-06 4.04725E-19-1.62911E-18
 -1      3699 8.95893E-05-2.34539E-05-2.83400E-05 5.45264E-06 6.20702E-19-1.31453E-18
 -1      3700 8.94905E-05-2.32647E-05-2.83680E-05 4.14459E-06 4.11991E-19-1.11711E-18
 -1      3701 8.88535E-05-2.32100E-05-2.81515E-05 6.00666E-06 5.54337E-19-1.20682E-18
 -1      3702 8.84214E-05-2.31383E-05-2.79707E-05 6.63183E-06 7.88783E-19-7.10568E-19
 -1      3703 8.81198E-05-2.26474E-05-2.80426E-05 5.07287E-06 6.38692E-19-1.34407E-18
 -1      3704 8.76058E-05-2.30417E-05-2.76938E-05 7.33516E-06 2.37568E-19-1.07251E-18
 -1      3705 8.72518E-05-2.32115E-05-2.74299E-05 8.10375E-06-5.19891E-19-1.20297E-18
 -1      3706 8.65720E-05-2.22245E-05-2.75580E-05 6.23724E-06 2.58341E-19-7.14701E-19
 -1      3707 8.63868E-05-2.33705E-05-2.70366E-05 9.04581E-06-1.08411E-18-9.07646E-19
 -1      3708 8.62533E-05-2.39460E-05-2.66716E-05 1.00321E-05-1.31629E-18-1.07044E-18
 -1      3709 8.48831E-05-2.21533E-05-2.68615E-05 7.77900E-06-3.66550E-19-4.64581E-19
 -1      3710 8.54135E-05-2.45313E-05-2.61286E-05 1.13645E-05-1.71038E-18-1.42237E-18
 -1      3711 8.57407E-05-2.57583E-05-2.56515E-05 1.26732E-05-9.17480E-19-1.84090E-18
 -1      3712 8.31301E-05-2.26693E-05-2.58851E-05 9.96336E-06-1.68970E-18-6.76496E-19
 -1      3713 8.50980E-05-2.70168E-05-2.49223E-05 1.45548E-05-7.71907E-19-2.53839E-18
 -1      3714 8.63618E-05-2.93247E-05-2.43687E-05 1.63218E-05-1.15889E-18-2.78244E-18
 -1      3715 8.16097E-05-2.42191E-05-2.45484E-05 1.31916E-05-1.34735E-18-1.01118E-18
 -1      3716 9.52676E-05-2.84402E-05-2.86388E-05-4.92625E-07-6.91299E-19-1.22064E-18
 -1      3717 9.53068E-05-2.85191E-05-2.86246E-05-4.69058E-07-2.38205E-19-1.18929E-18
 -1      3718 9.57797E-05-2.90662E-05-2.85901E-05-6.32474E-07 2.57957E-19-7.32605E-19
 -1      3719 9.58270E-05-2.90982E-05-2.85978E-05-6.74571E-07 3.73948E-19-6.19547E-19
 -1      3720 8.33723E-05-2.99556E-05-2.28158E-05 1.91278E-05-8.04332E-19-2.95873E-18
 -1      3721 9.53698E-05-2.86011E-05-2.86137E-05-4.58512E-07-6.32766E-20-1.29938E-18
 -1      3722 9.54065E-05-2.86700E-05-2.86024E-05-4.55533E-07-1.95754E-19-1.15614E-18
 -1      3723 9.53538E-05-2.85567E-05-2.86274E-05-4.30378E-07-2.36453E-19-1.59020E-18
 -1      3724 9.54669E-05-2.87424E-05-2.85947E-05-4.62065E-07-3.43084E-19-7.95554E-19
 -1      3725 9.55038E-05-2.88031E-05-2.85868E-05-4.76294E-07-1.63363E-19-8.83754E-19
 -1      3726 9.54760E-05-2.87215E-05-2.86095E-05-4.24189E-07 6.92015E-20-1.03412E-18
 -1      3727 9.51532E-05-2.82549E-05-2.86692E-05-5.71078E-07-2.52340E-19-7.17786E-19
 -1      3728 9.51977E-05-2.83461E-05-2.86524E-05-5.23326E-07-6.26633E-19-1.12623E-18
 -1      3729 9.52221E-05-2.83683E-05-2.86513E-05-4.72226E-07-6.23730E-19-9.91767E-19
 -1      3730 9.50181E-05-2.80389E-05-2.87037E-05-7.01296E-07 1.08245E-19-7.03407E-19
 -1      3731 9.50713E-05-2.81454E-05-2.86848E-05-6.25386E-07 3.00890E-19-6.41457E-19
 -1      3732 9.50718E-05-2.81504E-05-2.86798E-05-5.56165E-07-9.52681E-20-1.37342E-18
 -1      3733 9.48528E-05-2.77857E-05-2.87412E-05-8.91623E-07-6.20263E-20-7.38202E-19
 -1      3734 9.49186E-05-2.79104E-05-2.87206E-05-7.83128E-07 1.20188E-19-8.40312E-19
 -1      3735 9.48921E-05-2.78957E-05-2.87114E-05-6.89280E-07 2.82706E-19-1.52057E-18
 -1      3736 9.46470E-05-2.74894E-05-2.87799E-05-1.15135E-06-4.01716E-19-8.83125E-19
 -1      3737 9.47294E-05-2.76347E-05-2.87584E-05-1.00544E-06-1.41800E-19-6.74948E-19
 -1      3738 9.46712E-05-2.75969E-05-2.87442E-05-8.79552E-07-2.72709E-19-6.93598E-19
 -1      3739 9.43902E-05-2.71461E-05-2.88167E-05-1.49052E-06 4.74136E-20-1.28043E-18
 -1      3740 9.44930E-05-2.73131E-05-2.87957E-05-1.30212E-06-1.73942E-19-1.26089E-18
 -1      3741 9.43962E-05-2.72474E-05-2.87754E-05-1.13590E-06-1.01655E-19-1.47839E-18
 -1      3742 9.40721E-05-2.67558E-05-2.88474E-05-1.91964E-06-1.22077E-19-8.37557E-19
 -1      3743 9.41987E-05-2.69434E-05-2.88290E-05-1.68369E-06-1.59140E-19-1.02203E-18
 -1      3744 9.40537E-05-2.68433E-05-2.88010E-05-1.46813E-06-1.86850E-19-1.47224E-18
 -1      3745 9.36847E-05-2.63255E-05-2.88655E-05-2.44920E-06 4.15818E-19-1.06624E-18
 -1      3746 9.38371E-05-2.65286E-05-2.88528E-05-2.16102E-06 8.45356E-20-1.09170E-18
 -1      3747 9.36308E-05-2.63853E-05-2.88150E-05-1.88678E-06 4.90364E-20-1.23238E-18
 -1      3748 9.32251E-05-2.58730E-05-2.88620E-05-3.08944E-06-4.43854E-19-4.28517E-19
 -1      3749 9.34019E-05-2.60803E-05-2.88595E-05-2.74499E-06 3.75544E-19-4.49774E-19
 -1      3750 9.31168E-05-2.58819E-05-2.88095E-05-2.40321E-06-1.90228E-19-1.28554E-18
 -1      3751 9.26993E-05-2.54329E-05-2.88245E-05-3.85048E-06-1.19842E-18-7.07826E-19
 -1      3752 9.28933E-05-2.56239E-05-2.88382E-05-3.44655E-06-8.87988E-19-4.14302E-19
 -1      3753 9.25059E-05-2.53536E-05-2.87731E-05-3.03002E-06-5.83964E-19-7.80902E-19
 -1      3754 9.21295E-05-2.50637E-05-2.87371E-05-4.74348E-06-2.62556E-19-1.63331E-18
 -1      3755 9.23235E-05-2.52044E-05-2.87750E-05-4.27737E-06-1.02412E-18-1.23744E-18
 -1      3756 9.18012E-05-2.48386E-05-2.86910E-05-3.78261E-06-8.56099E-19-1.40864E-18
 -1      3757 9.15653E-05-2.48590E-05-2.85805E-05-5.78341E-06-2.15722E-19-8.05115E-20
 -1      3758 9.17250E-05-2.48958E-05-2.86517E-05-5.25208E-06-4.72891E-19-7.69320E-19
 -1      3759 9.10212E-05-2.44001E-05-2.85444E-05-4.68244E-06-1.10238E-18-5.88409E-19
 -1      3760 9.11000E-05-2.49616E-05-2.83326E-05-6.99356E-06 1.38212E-21 6.52212E-19
 -1      3761 9.11637E-05-2.48132E-05-2.84470E-05-6.39236E-06 4.60346E-19 5.89887E-19
 -1      3762 9.02095E-05-2.41370E-05-2.83100E-05-5.76326E-06-3.62300E-19 4.26292E-19
 -1      3763 9.08972E-05-2.55818E-05-2.79723E-05-8.40944E-06 1.60909E-19 2.79955E-19
 -1      3764 9.07603E-05-2.51295E-05-2.81382E-05-7.73218E-06-9.23526E-20 6.81585E-19
 -1      3765 8.94509E-05-2.41980E-05-2.79614E-05-7.08082E-06 6.27659E-20 1.13451E-18
 -1      3766 9.12319E-05-2.70176E-05-2.74875E-05-1.00726E-05-6.63896E-19 2.29045E-18
 -1      3767 9.07239E-05-2.60952E-05-2.77057E-05-9.31827E-06-3.48845E-19 1.23723E-18
 -1      3768 8.88999E-05-2.48041E-05-2.74718E-05-8.72130E-06-6.27369E-19 1.66465E-18
 -1      3769 9.25337E-05-2.96941E-05-2.68896E-05-1.20322E-05-1.42444E-18 2.56192E-18
 -1      3770 9.13964E-05-2.80566E-05-2.71441E-05-1.12136E-05-4.41905E-19 2.55887E-18
 -1      3771 8.88071E-05-2.62566E-05-2.68210E-05-1.08071E-05-8.60953E-19 3.13998E-18
 -1      3772 9.54707E-05-3.40820E-05-2.62510E-05-1.41606E-05-3.41587E-19 7.50996E-19
 -1      3773 9.33738E-05-3.14855E-05-2.64891E-05-1.33620E-05-1.12156E-18 1.21660E-18
 -1      3774 8.96891E-05-2.91226E-05-2.60105E-05-1.34920E-05-1.92065E-19 2.91846E-18
 -1      3775 1.01020E-04-4.08930E-05-2.57308E-05-1.61485E-05-7.94735E-19 8.11549E-19
 -1      3776 9.75011E-05-3.69540E-05-2.58414E-05-1.56770E-05-5.73274E-19 7.69390E-19
 -1      3777 9.21645E-05-3.38238E-05-2.51315E-05-1.65923E-05-4.65719E-19 1.33751E-18
 -1      3778 9.02230E-05-3.73448E-05-2.24418E-05-2.31619E-05 2.51178E-19-4.77078E-19
 -1      3779 9.97552E-05-4.28470E-05-2.45236E-05-1.98691E-05-1.86132E-19 6.53208E-19
 -1      3780 9.62815E-05-2.75253E-05-2.94738E-05-6.81596E-08 2.75676E-19-9.81726E-19
 -1      3781 9.62132E-05-2.70292E-05-2.96423E-05 2.75364E-07 4.27054E-19-1.12818E-18
 -1      3782 9.55095E-05-2.51402E-05-3.01695E-05 1.85034E-06 8.70151E-19-1.46813E-18
 -1      3783 9.63453E-05-2.71049E-05-2.96683E-05-1.84150E-07-5.85376E-19-1.19318E-18
 -1      3784 9.64270E-05-2.76022E-05-2.95022E-05 1.12694E-07-4.24035E-19-1.10472E-18
 -1      3785 9.44932E-05-2.24298E-05-3.08781E-05-3.33222E-06-1.11780E-18-1.73138E-18
 -1      3786 9.60030E-05-2.63936E-05-2.98431E-05 6.25369E-07 5.65800E-19-1.24305E-18
 -1      3787 9.58486E-05-2.56656E-05-3.00632E-05 1.13776E-06 6.75330E-19-1.37256E-18
 -1      3788 9.61460E-05-2.64562E-05-2.98634E-05 4.78783E-07 3.65979E-19-1.30618E-18
 -1      3789 5.93130E-05-1.64479E-05-1.84060E-05-3.56790E-06 5.86339E-19-2.99585E-19
 -1      3790 5.95631E-05-1.75861E-05-1.75677E-05-1.18146E-05 3.08770E-19-5.99832E-19
 -1      3791 9.51504E-05-2.39230E-05-3.05065E-05 2.28253E-06 7.59832E-19-1.62421E-18
 -1      3792 9.44600E-05-2.23364E-05-3.09267E-05 2.72850E-06 7.85248E-19-1.91239E-18
 -1      3793 9.42320E-05-2.18378E-05-3.10350E-05 2.29764E-06 6.39535E-19-2.05265E-18
 -1      3794 9.53269E-05-2.44555E-05-3.03814E-05 1.80383E-06 7.47011E-19-1.59964E-18
 -1      3795 9.38117E-05-2.09450E-05-3.12380E-05-2.14206E-07-8.55795E-20-2.31707E-18
 -1      3796 9.38572E-05-2.10381E-05-3.12199E-05-7.74594E-07-1.83840E-19-2.23544E-18
 -1      3797 9.45995E-05-2.23628E-05-3.09371E-05-8.11758E-07-2.51989E-19-1.97368E-18
 -1      3798 9.45344E-05-2.22148E-05-3.09764E-05 1.23366E-08 2.51821E-20-2.22419E-18
 -1      3799 1.07344E-04-4.67439E-05-2.57574E-05-1.67034E-05-2.47209E-19 2.56211E-19
 -1      3800 9.59133E-05-2.56989E-05-3.00764E-05-8.90895E-07-8.09238E-19-1.47109E-18
 -1      3801 9.61326E-05-2.64732E-05-2.98638E-05-4.67000E-07-6.91081E-19-1.32774E-18
 -1      3802 9.62611E-05-2.65688E-05-2.98681E-05-3.38584E-07-5.68174E-19-1.16159E-18
 -1      3803 9.65182E-05-2.80240E-05-2.93499E-05 2.92965E-07-4.01427E-19-1.06219E-18
 -1      3804 9.65299E-05-2.83474E-05-2.92248E-05 4.73525E-07-2.33215E-19-9.63592E-19
 -1      3805 9.65720E-05-2.76995E-05-2.95158E-05 1.31992E-07-3.30871E-19-7.47900E-19
 -1      3806 9.45363E-05-2.25103E-05-3.08676E-05-2.77925E-06-1.02730E-18-1.77692E-18
 -1      3807 6.70172E-05-2.18953E-05-1.92291E-05-1.59141E-05 7.65299E-19-6.84059E-19
 -1      3808 7.77559E-05-2.56686E-05-2.22266E-05 1.74195E-05-1.17989E-18-1.87277E-18
 -1      3809 7.40688E-05-2.22767E-05-2.22599E-05 1.33024E-05-1.14236E-18-1.73660E-18
 -1      3810 9.58729E-05-2.90755E-05-2.86294E-05-8.87823E-07 2.84392E-19-6.80567E-19
 -1      3811 9.55962E-05-2.88668E-05-2.85992E-05-4.47830E-07-1.00733E-19-2.58631E-19
 -1      3812 9.55649E-05-2.88674E-05-2.85832E-05-4.96873E-07 1.93372E-20-7.61516E-19
 -1      3813 9.56040E-05-2.89202E-05-2.85792E-05-5.24827E-07 1.88821E-19-5.30581E-19
 -1      3814 9.61548E-05-2.91171E-05-2.87301E-05-8.37665E-07 3.92372E-20-1.07772E-18
 -1      3815 9.62089E-05-2.90650E-05-2.87737E-05-8.39702E-07 7.94783E-20-1.19011E-18
 -1      3816 9.62706E-05-2.89890E-05-2.88356E-05-8.31203E-07 7.02873E-20-1.03745E-18
 -1      3817 9.63181E-05-2.88778E-05-2.88996E-05-7.89242E-07 1.20511E-19-9.39930E-19
 -1      3818 9.64185E-05-2.90685E-05-2.88662E-05-7.35714E-07 1.69865E-19-8.88913E-19
 -1      3819 9.59922E-05-2.91775E-05-2.86365E-05-6.28738E-07 1.74757E-19-1.33421E-18
 -1      3820 9.59003E-05-2.91299E-05-2.86147E-05-7.14916E-07 8.80237E-20-7.86193E-19
 -1      3821 9.59519E-05-2.91443E-05-2.86311E-05-7.54682E-07 1.66538E-19-1.02522E-18
 -1      3822 9.50781E-05-2.34040E-05-3.07250E-05-4.62546E-07-1.53816E-19-1.86957E-18
 -1      3823 9.51368E-05-2.35834E-05-3.06839E-05-8.38768E-07-4.32988E-19-1.67352E-18
 -1      3824 9.63691E-05-2.79446E-05-2.93188E-05-2.89513E-07 3.22605E-19-9.05285E-19
 -1      3825 9.64455E-05-2.76033E-05-2.95033E-05-1.00054E-07 2.91485E-19-9.70525E-19
 -1      3826 9.63748E-05-2.82657E-05-2.91937E-05-4.99118E-07 2.62556E-19-9.74734E-19
 -1      3827 9.57110E-05-2.90202E-05-2.85819E-05-5.94035E-07 2.92379E-19-7.13403E-19
 -1      3828 9.58518E-05-2.90994E-05-2.86096E-05-5.58311E-07 4.37557E-19-1.03109E-18
 -1      3829 9.56683E-05-2.89764E-05-2.85808E-05-5.56415E-07 2.04050E-19-7.78176E-19
 -1      3830 6.24029E-05-1.62384E-05-1.95369E-05 1.77242E-06-2.56045E-20-1.23673E-18
 -1      3831 6.47337E-05-1.70850E-05-2.04770E-05-3.74719E-06 2.37986E-19-1.09434E-18
 -1      3832 6.68857E-05-1.77194E-05-2.10779E-05 5.44197E-06-7.02931E-19-2.12478E-18
 -1      3833 9.48076E-05-2.28781E-05-3.08088E-05 1.72466E-06 4.37283E-19-1.93052E-18
 -1      3834 9.54521E-05-2.45747E-05-3.03812E-05 1.46979E-06 5.78654E-19-1.58998E-18
 -1      3835 9.50513E-05-2.33331E-05-3.07449E-05 1.98539E-07 9.98750E-20-2.12465E-18
 -1      3836 9.50496E-05-2.33320E-05-3.07454E-05-1.78780E-07 4.21235E-20-2.20588E-18
 -1      3837 9.55891E-05-2.43742E-05-3.05050E-05-2.22328E-07-2.11922E-19-1.86771E-18
 -1      3838 9.51650E-05-2.35969E-05-3.06774E-05 8.35325E-07 1.55883E-19-1.90269E-18
 -1      3839 9.50780E-05-2.34045E-05-3.07236E-05 4.88394E-07 2.79040E-20-1.98609E-18
 -1      3840 9.55931E-05-2.43832E-05-3.05036E-05 2.58657E-07 3.72495E-20-2.10363E-18
 -1      3841 9.66702E-05-2.84364E-05-2.92435E-05 4.24349E-07-1.90781E-19-9.47179E-19
 -1      3842 9.54363E-05-2.43274E-05-3.04760E-05-9.63027E-07-5.84799E-19-1.65404E-18
 -1      3843 9.55798E-05-2.48663E-05-3.03149E-05-1.34747E-06-8.29537E-19-1.61100E-18
 -1      3844 6.83391E-05-2.04201E-05-2.06102E-05-1.25993E-05 7.75962E-19-4.48239E-19
 -1      3845 7.34231E-05-2.50995E-05-2.05495E-05-1.91102E-05 6.62717E-19-6.65133E-19
 -1      3846 9.58635E-05-2.51727E-05-3.02825E-05-5.82423E-07-5.30503E-19-1.49347E-18
 -1      3847 7.96830E-05-2.74764E-05-2.22750E-05-1.81382E-05 4.63089E-20-7.42560E-19
 -1      3848 7.86358E-05-2.94694E-05-2.10892E-05-2.16309E-05 3.93890E-19-7.83453E-19
 -1      3849 8.45372E-05-3.46089E-05-2.13663E-05-2.42397E-05 1.75151E-19-1.47224E-18
 -1      3850 7.70855E-05-2.22274E-05-2.34994E-05 1.18788E-05-1.65722E-18-1.85338E-18
 -1      3851 7.11543E-05-1.91866E-05-2.20899E-05 9.38525E-06-9.00016E-19-2.79177E-18
 -1      3852 7.00524E-05-1.81250E-05-2.23629E-05 4.87180E-06-5.49602E-19-2.58011E-18
 -1      3853 7.79033E-05-2.13730E-05-2.43204E-05 9.99516E-06-1.47382E-18-1.94008E-18
 -1      3854 9.60820E-05-2.91417E-05-2.86873E-05-8.17536E-07 2.07792E-19-1.13361E-18
 -1      3855 9.62858E-05-2.91888E-05-2.87578E-05-7.37694E-07 1.35608E-19-1.16983E-18
 -1      3856 9.60274E-05-2.91538E-05-2.86592E-05-7.89851E-07 3.94633E-19-1.19122E-18
 -1      3857 9.66904E-05-2.91279E-05-2.89535E-05 5.11385E-07 3.70878E-20-1.20921E-18
 -1      3858 9.66238E-05-2.92190E-05-2.88877E-05 5.29818E-07-1.76330E-19-1.01737E-18
 -1      3859 9.65429E-05-2.92752E-05-2.88276E-05 5.23717E-07-2.48626E-19-9.16339E-19
 -1      3860 9.64634E-05-2.93060E-05-2.87812E-05 5.17938E-07-9.62034E-20-9.61979E-19
 -1      3861 9.66777E-05-2.92722E-05-2.88899E-05 4.08836E-07-2.17101E-19-1.05052E-18
 -1      3862 9.63709E-05-2.93112E-05-2.87388E-05 4.99928E-07-4.20895E-20-6.17284E-19
 -1      3863 9.62880E-05-2.93013E-05-2.87076E-05 4.80680E-07-9.67026E-21-6.28417E-19
 -1      3864 9.65049E-05-2.93427E-05-2.87857E-05 3.97887E-07 5.06915E-20-8.09227E-19
 -1      3865 9.61928E-05-2.92728E-05-2.86793E-05 4.57558E-07-1.15814E-19-5.70811E-19
 -1      3866 9.61120E-05-2.92363E-05-2.86598E-05 4.32861E-07-1.06695E-19-2.89820E-19
 -1      3867 9.63184E-05-2.93239E-05-2.87138E-05 3.68496E-07 2.02850E-19-2.34517E-19
 -1      3868 9.60188E-05-2.91853E-05-2.86426E-05 4.09152E-07-3.46013E-19-3.02391E-19
 -1      3869 9.59421E-05-2.91307E-05-2.86323E-05 3.85074E-07-2.90999E-19-4.08712E-19
 -1      3870 9.61317E-05-2.92456E-05-2.86671E-05 3.32399E-07-1.37165E-19-2.78965E-19
 -1      3871 9.58529E-05-2.90643E-05-2.86236E-05 3.64716E-07-1.50102E-19-3.93800E-19
 -1      3872 9.57803E-05-2.89966E-05-2.86204E-05 3.45644E-07-1.01324E-19-2.31768E-19
 -1      3873 9.59508E-05-2.91266E-05-2.86403E-05 2.97080E-07-2.50507E-19-5.68812E-19
 -1      3874 9.56944E-05-2.89187E-05-2.86184E-05 3.31348E-07-3.33679E-19-4.69230E-19
 -1      3875 9.56245E-05-2.88403E-05-2.86207E-05 3.20540E-07-5.73780E-19-6.17111E-19
 -1      3876 9.57774E-05-2.89788E-05-2.86290E-05 2.69206E-07-1.09172E-19-6.65068E-19
 -1      3877 9.55393E-05-2.87515E-05-2.86239E-05 3.14074E-07-6.29106E-19-5.53415E-19
 -1      3878 9.54689E-05-2.86621E-05-2.86305E-05 3.14401E-07-2.95007E-19-6.82374E-19
 -1      3879 9.56083E-05-2.88072E-05-2.86297E-05 2.53320E-07-5.74635E-19-4.78844E-19
 -1      3880 9.53801E-05-2.85611E-05-2.86376E-05 3.17911E-07-1.29326E-20-4.30243E-19
 -1      3881 9.53051E-05-2.84587E-05-2.86476E-05 3.31946E-07 3.10332E-19 1.68855E-20
 -1      3882 9.54361E-05-2.86109E-05-2.86395E-05 2.52938E-07 3.68205E-20-3.18030E-19
 -1      3883 9.52074E-05-2.83427E-05-2.86577E-05 3.47235E-07 3.41267E-19 1.79467E-20
 -1      3884 9.51228E-05-2.82243E-05-2.86701E-05 3.77510E-07 3.97936E-19 3.34490E-19
 -1      3885 9.52519E-05-2.83861E-05-2.86563E-05 2.72005E-07 4.68159E-19 1.07445E-19
 -1      3886 9.50096E-05-2.80892E-05-2.86820E-05 4.06502E-07 8.98354E-20 1.36839E-19
 -1      3887 9.49091E-05-2.79504E-05-2.86961E-05 4.55698E-07 6.18316E-20-1.24078E-19
 -1      3888 9.50434E-05-2.81260E-05-2.86778E-05 3.13841E-07 1.16655E-19-4.05581E-19
 -1      3889 9.47724E-05-2.77913E-05-2.87086E-05 5.00544E-07 3.98442E-20-2.02806E-19
 -1      3890 9.46489E-05-2.76275E-05-2.87232E-05 5.71545E-07 8.01124E-21 6.98625E-20
 -1      3891 9.47965E-05-2.78214E-05-2.87018E-05 3.82097E-07-7.79993E-20-1.07868E-18
 -1      3892 9.44796E-05-2.74391E-05-2.87348E-05 6.34611E-07-5.73548E-19 2.23284E-19
 -1      3893 9.43250E-05-2.72454E-05-2.87483E-05 7.30483E-07-7.87231E-19-6.77476E-19
 -1      3894 9.44941E-05-2.74620E-05-2.87253E-05 4.80677E-07-4.05811E-19-6.94189E-19
 -1      3895 9.41129E-05-2.70226E-05-2.87570E-05 8.14310E-07-4.36502E-19-6.09871E-19
 -1      3896 9.39178E-05-2.67947E-05-2.87673E-05 9.38211E-07-4.44007E-19-6.89309E-19
 -1      3897 9.41173E-05-2.70373E-05-2.87448E-05 6.13679E-07-7.19493E-19-9.40984E-19
 -1      3898 9.36516E-05-2.65331E-05-2.87701E-05 1.04545E-06 2.08014E-20-4.14156E-19
 -1      3899 9.34060E-05-2.62679E-05-2.87741E-05 1.20050E-06 1.41490E-19-2.52967E-19
 -1      3900 9.36446E-05-2.65377E-05-2.87550E-05 7.85255E-07 1.36016E-19-4.09785E-19
 -1      3901 9.30733E-05-2.59649E-05-2.87670E-05 1.33384E-06 6.42720E-20 2.86525E-19
 -1      3902 9.27665E-05-2.56618E-05-2.87603E-05 1.52306E-06 4.58277E-19 1.16648E-19
 -1      3903 9.30524E-05-2.59563E-05-2.87488E-05 9.99445E-07 5.60360E-19-4.22226E-19
 -1      3904 9.23540E-05-2.53176E-05-2.87375E-05 1.68528E-06 1.81598E-19-4.64320E-19
 -1      3905 9.19753E-05-2.49796E-05-2.87142E-05 1.91169E-06-3.67158E-20-5.65600E-19
 -1      3906 9.23155E-05-2.52908E-05-2.87164E-05 1.26012E-06 6.49205E-20-4.57575E-19
 -1      3907 9.14688E-05-2.45986E-05-2.86680E-05 2.10601E-06-7.52042E-19-9.64614E-19
 -1      3908 9.10079E-05-2.42341E-05-2.86197E-05 2.37325E-06-9.59569E-19-1.32621E-18
 -1      3909 9.14068E-05-2.45453E-05-2.86441E-05 1.57128E-06-6.60353E-19-1.30868E-18
 -1      3910 9.03924E-05-2.38265E-05-2.85399E-05 2.60436E-06-5.49450E-19-1.16241E-18
 -1      3911 8.98406E-05-2.34513E-05-2.84554E-05 2.91833E-06-1.03826E-19-1.28948E-18
 -1      3912 9.02976E-05-2.37337E-05-2.85138E-05 1.93830E-06-7.49652E-19-1.39982E-18
 -1      3913 8.90992E-05-2.30347E-05-2.83281E-05 3.19459E-06 5.98193E-19-1.78712E-18
 -1      3914 8.84510E-05-2.26746E-05-2.81929E-05 3.56696E-06 6.92246E-19-1.34140E-18
 -1      3915 8.89564E-05-2.28811E-05-2.83010E-05 2.37084E-06 2.14322E-19-1.72036E-18
 -1      3916 8.75624E-05-2.22751E-05-2.79996E-05 3.90510E-06 3.51934E-19-1.33444E-18
 -1      3917 8.68177E-05-2.19689E-05-2.77947E-05 4.35976E-06 2.92299E-19-1.28563E-18
 -1      3918 8.73463E-05-2.20256E-05-2.79729E-05 2.88932E-06 6.20908E-19-1.23298E-18
 -1      3919 8.57527E-05-2.16228E-05-2.75107E-05 4.79389E-06-2.29779E-19-1.53710E-18
 -1      3920 8.49198E-05-2.14266E-05-2.72117E-05 5.37802E-06 1.39297E-20-1.71453E-18
 -1      3921 8.54173E-05-2.12184E-05-2.74859E-05 3.53774E-06-2.76423E-21-8.03842E-19
 -1      3922 8.36369E-05-2.11840E-05-2.68034E-05 5.96779E-06 2.91522E-19-2.45461E-18
 -1      3923 8.27253E-05-2.11710E-05-2.63793E-05 6.77126E-06-5.74274E-19-2.12638E-18
 -1      3924 8.31028E-05-2.05283E-05-2.67801E-05 4.40773E-06-4.52168E-19-3.37185E-18
 -1      3925 8.10721E-05-2.10452E-05-2.57791E-05 7.54902E-06-1.18284E-18-2.12942E-18
 -1      3926 8.01190E-05-2.13310E-05-2.51872E-05 8.71447E-06-1.23737E-18-2.15920E-18
 -1      3927 7.63697E-05-1.95250E-05-2.42536E-05 7.30344E-06-1.15108E-18-3.04923E-18
 -1      3928 8.02464E-05-1.99969E-05-2.57551E-05 5.59169E-06-8.16148E-19-4.36458E-18
 -1      3929 9.49946E-05-2.80518E-05-2.86888E-05-5.10819E-07 7.83458E-20-1.89206E-18
 -1      3930 9.50769E-05-2.81752E-05-2.86740E-05-4.59092E-07-1.32519E-19-1.97820E-18
 -1      3931 9.53352E-05-2.85092E-05-2.86386E-05-3.80775E-07-5.13665E-19-7.31639E-19
 -1      3932 9.53985E-05-2.86013E-05-2.86284E-05-3.68733E-07 3.25809E-19-7.86039E-19
 -1      3933 9.54793E-05-2.86937E-05-2.86212E-05-3.67091E-07 5.02922E-19-9.21004E-19
 -1      3934 9.55401E-05-2.87746E-05-2.86143E-05-3.70305E-07 9.82979E-20-3.52503E-19
 -1      3935 9.54579E-05-2.86507E-05-2.86319E-05-3.12980E-07 2.78945E-19-2.81232E-19
 -1      3936 9.47747E-05-2.77640E-05-2.87181E-05-6.39215E-07-2.32888E-19-8.74188E-19
 -1      3937 9.48748E-05-2.79086E-05-2.87022E-05-5.62534E-07 1.28460E-19-1.36889E-18
 -1      3938 9.48879E-05-2.79274E-05-2.86959E-05-4.57839E-07-1.75261E-19-1.68472E-18
 -1      3939 9.45036E-05-2.74258E-05-2.87468E-05-8.19215E-07-4.72254E-19-1.51270E-18
 -1      3940 9.46277E-05-2.75955E-05-2.87312E-05-7.13660E-07-2.63675E-19-1.14429E-18
 -1      3941 9.46239E-05-2.76014E-05-2.87217E-05-5.76798E-07-2.48971E-19-9.28486E-19
 -1      3942 9.41658E-05-2.70302E-05-2.87717E-05-1.05896E-06 1.35234E-19-2.03030E-18
 -1      3943 9.43207E-05-2.72279E-05-2.87580E-05-9.20225E-07-9.83243E-20-1.74637E-18
 -1      3944 9.42974E-05-2.72184E-05-2.87450E-05-7.41286E-07-4.75307E-20-1.49486E-18
 -1      3945 9.37455E-05-2.65729E-05-2.87875E-05-1.36750E-06-5.78566E-19-1.33652E-18
 -1      3946 9.39379E-05-2.67999E-05-2.87783E-05-1.19094E-06-4.03871E-19-1.75722E-18
 -1      3947 9.38907E-05-2.67711E-05-2.87613E-05-9.58777E-07-1.88922E-19-1.34822E-18
 -1      3948 9.32270E-05-2.60548E-05-2.87874E-05-1.75488E-06 9.04600E-21-1.10396E-18
 -1      3949 9.34631E-05-2.63094E-05-2.87862E-05-1.53553E-06-2.57938E-19-1.24173E-18
 -1      3950 9.33853E-05-2.62552E-05-2.87646E-05-1.23784E-06-4.92024E-19-1.28599E-18
 -1      3951 9.25969E-05-2.54848E-05-2.87615E-05-2.23244E-06-6.52384E-19-7.62613E-19
 -1      3952 9.28812E-05-2.57606E-05-2.87733E-05-1.96491E-06-1.55448E-19-9.69501E-19
 -1      3953 9.27630E-05-2.56722E-05-2.87463E-05-1.58848E-06 5.75128E-21-2.47213E-19
 -1      3954 9.18461E-05-2.48844E-05-2.86968E-05-2.81390E-06-4.98903E-19-7.00546E-19
 -1      3955 9.21798E-05-2.51681E-05-2.87282E-05-2.49186E-06-9.00381E-19-9.27877E-19
 -1      3956 9.20067E-05-2.50321E-05-2.86949E-05-2.02293E-06-7.31827E-19-7.31504E-19
 -1      3957 9.09737E-05-2.42921E-05-2.85760E-05-3.51766E-06-1.36806E-18 3.25426E-19
 -1      3958 9.13521E-05-2.45607E-05-2.86356E-05-3.13262E-06-7.63185E-19-1.31304E-19
 -1      3959 9.11030E-05-2.43573E-05-2.85950E-05-2.55741E-06-1.04056E-18-1.41454E-19
 -1      3960 8.99922E-05-2.37708E-05-2.83772E-05-4.37146E-06-1.32703E-18-2.13853E-19
 -1      3961 9.04010E-05-2.39874E-05-2.84759E-05-3.91038E-06-1.46748E-18-1.92535E-19
 -1      3962 9.00439E-05-2.36868E-05-2.84265E-05-3.21557E-06-1.53853E-18 6.37334E-19
 -1      3963 8.89354E-05-2.34155E-05-2.80733E-05-5.42075E-06-4.88015E-19-8.16968E-20
 -1      3964 8.93440E-05-2.35248E-05-2.82242E-05-4.86176E-06-9.92432E-19-7.00006E-19
 -1      3965 8.88299E-05-2.30810E-05-2.81638E-05-4.03505E-06-9.49028E-19-2.68847E-19
 -1      3966 8.78715E-05-2.33661E-05-2.76323E-05-6.74251E-06-4.43667E-19 7.96273E-19
 -1      3967 8.82222E-05-2.32858E-05-2.78499E-05-6.04876E-06-1.24622E-19 2.85885E-19
 -1      3968 8.74728E-05-2.26278E-05-2.77743E-05-5.07937E-06-4.47384E-19-7.62694E-19
 -1      3969 8.69255E-05-2.38294E-05-2.70179E-05-8.46469E-06-1.09428E-18 1.56059E-18
 -1      3970 8.71179E-05-2.34370E-05-2.73169E-05-7.57879E-06-8.31221E-19 1.11886E-18
 -1      3971 8.59998E-05-2.24508E-05-2.72170E-05-6.46098E-06-8.46621E-19 4.42035E-19
 -1      3972 8.63299E-05-2.51047E-05-2.61973E-05-1.07504E-05-1.25198E-18 2.07014E-18
 -1      3973 8.62032E-05-2.42361E-05-2.65865E-05-9.60257E-06-1.36171E-18 1.95681E-18
 -1      3974 8.45032E-05-2.27539E-05-2.64406E-05-8.38216E-06-1.35913E-18 6.62479E-19
 -1      3975 8.64158E-05-2.76546E-05-2.51521E-05-1.39249E-05 2.72372E-19 1.52159E-18
 -1      3976 8.56595E-05-2.59054E-05-2.56208E-05-1.23830E-05 3.97551E-20 2.13200E-18
 -1      3977 8.31005E-05-2.37494E-05-2.53843E-05-1.10993E-05-4.53136E-19 8.89876E-19
 -1      3978 9.03317E-05-3.45583E-05-2.37991E-05-1.94813E-05-3.88444E-19 2.60828E-19
 -1      3979 8.79825E-05-3.11684E-05-2.42669E-05-1.73688E-05-1.74303E-19 7.69730E-19
 -1      3980 9.63546E-05-2.87256E-05-2.89859E-05-7.34140E-07 8.58628E-20-9.60786E-19
 -1      3981 9.63845E-05-2.85282E-05-2.90766E-05-6.23685E-07 2.22589E-19-9.46121E-19
 -1      3982 9.65154E-05-2.88093E-05-2.90185E-05-6.57012E-07 1.27233E-19-1.04926E-18
 -1      3983 9.66084E-05-2.74133E-05-2.96546E-05-7.31574E-09-3.20694E-19-1.14418E-18
 -1      3984 9.67018E-05-2.78820E-05-2.94980E-05 1.86725E-07-3.44887E-19-1.19120E-18
 -1      3985 9.62962E-05-2.66827E-05-2.98455E-05 2.60483E-07 2.28622E-19-1.43164E-18
 -1      3986 9.61078E-05-2.59802E-05-3.00475E-05 6.24889E-07 3.07314E-19-1.49676E-18
 -1      3987 9.67771E-05-2.82754E-05-2.93555E-05 2.78591E-07-3.65716E-19-1.18330E-18
 -1      3988 9.67883E-05-2.85777E-05-2.92356E-05 3.91943E-07-2.29007E-19-1.28305E-18
 -1      3989 9.68065E-05-2.80108E-05-2.94831E-05 1.64612E-07-3.14104E-19-1.47222E-18
 -1      3990 9.67833E-05-2.88176E-05-2.91259E-05 4.39355E-07-1.41557E-19-1.26322E-18
 -1      3991 9.67443E-05-2.89962E-05-2.90359E-05 4.96382E-07-4.82678E-20-1.17049E-18
 -1      3992 9.68124E-05-2.90688E-05-2.90344E-05 3.86838E-07-4.38359E-20-1.17904E-18
 -1      3993 9.53881E-05-2.42962E-05-3.04770E-05 1.09537E-06 3.75459E-19-1.78528E-18
 -1      3994 9.62092E-05-2.61030E-05-3.00490E-05-4.35150E-07-4.51069E-19-1.46397E-18
 -1      3995 9.64278E-05-2.67893E-05-2.98485E-05-1.44750E-07-2.55129E-19-1.22577E-18
 -1      3996 9.65519E-05-2.69670E-05-2.98200E-05-7.86537E-08-2.94801E-19-1.40994E-18
 -1      3997 9.59785E-05-2.53964E-05-3.02471E-05-3.59466E-07-3.17778E-19-1.35560E-18
 -1      3998 6.78699E-05-1.81325E-05-2.10734E-05-8.10724E-06 2.47267E-19-1.02112E-18
 -1      3999 7.22547E-05-2.07888E-05-2.21257E-05-1.15769E-05 4.28360E-19-6.89611E-19
 -1      4000 6.88887E-05-1.77254E-05-2.19434E-05-3.51912E-06-4.48673E-19-1.30187E-18
 -1      4001 9.59713E-05-2.53028E-05-3.02920E-05-2.53705E-08-1.15890E-19-1.95397E-18
 -1      4002 9.59765E-05-2.53592E-05-3.02739E-05-2.19233E-07-2.92688E-19-1.55452E-18
 -1      4003 9.63501E-05-2.62180E-05-3.00472E-05-1.19912E-07-2.62314E-19-1.39035E-18
 -1      4004 9.51772E-05-2.82975E-05-2.86617E-05-4.26795E-07-3.16752E-19-1.44187E-18
 -1      4005 9.52476E-05-2.84036E-05-2.86488E-05-3.96501E-07-5.93779E-19-1.43881E-18
 -1      4006 9.51055E-05-2.82052E-05-2.86708E-05-3.77882E-07-7.80446E-20-1.97260E-18
 -1      4007 9.55461E-05-2.45224E-05-3.04394E-05 8.13406E-07 2.29135E-19-1.67548E-18
 -1      4008 8.31415E-05-2.76484E-05-2.38026E-05-1.63348E-05 2.53000E-19-3.94003E-20
 -1      4009 9.65398E-05-2.91567E-05-2.88786E-05-6.33292E-07 1.76778E-19-8.82486E-19
 -1      4010 9.66008E-05-2.90584E-05-2.89444E-05-6.09053E-07 1.44175E-19-9.54599E-19
 -1      4011 9.56183E-05-2.88559E-05-2.86112E-05-3.79975E-07 9.27443E-21-4.36913E-19
 -1      4012 9.56802E-05-2.89271E-05-2.86087E-05-3.94865E-07-5.92370E-21-3.03107E-19
 -1      4013 9.56145E-05-2.88318E-05-2.86222E-05-3.19066E-07 2.54043E-19-5.93601E-19
 -1      4014 9.52913E-05-2.84437E-05-2.86487E-05-3.31246E-07-3.00569E-19-8.23947E-19
 -1      4015 9.63924E-05-2.92579E-05-2.87713E-05-6.25529E-07 2.38141E-19-1.21991E-18
 -1      4016 9.64642E-05-2.92195E-05-2.88175E-05-6.30765E-07 1.55909E-19-1.10857E-18
 -1      4017 9.66209E-05-2.92185E-05-2.88887E-05-5.18270E-07 3.14412E-19-9.92078E-19
 -1      4018 9.60660E-05-2.92133E-05-2.86499E-05-5.24601E-07 3.07543E-19-1.20685E-18
 -1      4019 9.61395E-05-2.92437E-05-2.86689E-05-5.54412E-07 2.42178E-19-1.17483E-18
 -1      4020 9.59809E-05-2.53865E-05-3.02595E-05 2.98460E-07-1.84786E-20-1.83686E-18
 -1      4021 9.59700E-05-2.53285E-05-3.02822E-05 1.09469E-07-8.29672E-21-2.12228E-18
 -1      4022 9.63589E-05-2.61803E-05-3.00632E-05 7.46643E-08-3.72085E-20-1.89835E-18
 -1      4023 7.87429E-05-2.39223E-05-2.33686E-05-1.40379E-05 6.28694E-19 1.39035E-19
 -1      4024 9.65417E-05-2.83490E-05-2.92264E-05-4.61111E-07 2.16862E-19-1.09987E-18
 -1      4025 9.65018E-05-2.72862E-05-2.96588E-05 6.28416E-08 2.32197E-19-1.41475E-18
 -1      4026 9.64353E-05-2.68239E-05-2.98334E-05 1.72842E-07 3.44980E-19-1.39115E-18
 -1      4027 9.65897E-05-2.77684E-05-2.94993E-05-1.75073E-07 1.69031E-19-1.29713E-18
 -1      4028 9.57204E-05-2.89936E-05-2.85983E-05-4.94778E-07 2.29283E-19-1.75178E-19
 -1      4029 9.68724E-05-2.86736E-05-2.92286E-05 3.12670E-07-1.99560E-19-1.36112E-18
 -1      4030 9.61392E-05-2.92146E-05-2.86839E-05-6.94375E-07 1.81845E-19-1.26938E-18
 -1      4031 7.66809E-05-2.16991E-05-2.36235E-05-1.05756E-05 3.43287E-19-3.93599E-19
 -1      4032 9.59094E-05-2.91202E-05-2.86225E-05-4.66265E-07 1.50105E-19-1.12639E-18
 -1      4033 9.59774E-05-2.91679E-05-2.86324E-05-4.96028E-07 9.98478E-20-1.19668E-18
 -1      4034 9.61061E-05-2.92337E-05-2.86613E-05-4.26820E-07 1.67078E-19-1.03115E-18
 -1      4035 9.67880E-05-2.92632E-05-2.89381E-05 2.76808E-07-1.38732E-19-1.11750E-18
 -1      4036 9.67074E-05-2.93279E-05-2.88762E-05 2.87198E-07-1.51662E-19-1.01348E-18
 -1      4037 9.66160E-05-2.93629E-05-2.88216E-05 2.77712E-07-6.37141E-21-7.62758E-19
 -1      4038 9.65234E-05-2.93732E-05-2.87778E-05 2.74000E-07 4.42794E-19-5.50687E-19
 -1      4039 9.67034E-05-2.93580E-05-2.88650E-05 1.58768E-07 9.47620E-20-8.90503E-19
 -1      4040 9.64226E-05-2.93615E-05-2.87396E-05 2.62704E-07 4.92082E-19-5.55769E-19
 -1      4041 9.63291E-05-2.93355E-05-2.87101E-05 2.52764E-07 2.60125E-19-4.80850E-19
 -1      4042 9.65097E-05-2.93833E-05-2.87710E-05 1.50658E-07 3.27577E-19-5.83934E-19
 -1      4043 9.62268E-05-2.92936E-05-2.86849E-05 2.37000E-07-4.47966E-20-4.30291E-19
 -1      4044 9.61332E-05-2.92419E-05-2.86667E-05 2.24511E-07-2.81953E-19-5.48799E-19
 -1      4045 9.63147E-05-2.93353E-05-2.87079E-05 1.35790E-07 1.74641E-19-1.21289E-18
 -1      4046 9.60345E-05-2.91788E-05-2.86518E-05 2.12826E-07-4.69593E-19-5.07635E-19
 -1      4047 9.59448E-05-2.91103E-05-2.86424E-05 2.01251E-07-1.93391E-19-4.78393E-19
 -1      4048 9.61116E-05-2.92267E-05-2.86671E-05 1.24159E-07-2.33834E-19-9.52252E-19
 -1      4049 9.58494E-05-2.90325E-05-2.86356E-05 1.92671E-07-2.50244E-20-6.66642E-19
 -1      4050 9.57645E-05-2.89516E-05-2.86330E-05 1.85296E-07-3.93214E-20-6.14012E-19
 -1      4051 9.59180E-05-2.90836E-05-2.86449E-05 1.11831E-07-3.61920E-19-8.04832E-19
 -1      4052 9.56702E-05-2.88619E-05-2.86323E-05 1.77906E-07-1.35042E-19-7.31622E-19
 -1      4053 9.55852E-05-2.87684E-05-2.86349E-05 1.76127E-07-1.92713E-19-1.49612E-19
 -1      4054 9.57342E-05-2.89164E-05-2.86374E-05 1.01779E-07-1.31166E-19-9.61276E-19
 -1      4055 9.54893E-05-2.86658E-05-2.86390E-05 1.74261E-07-1.44984E-19-6.78890E-20
 -1      4056 9.54008E-05-2.85592E-05-2.86458E-05 1.79937E-07 3.89035E-19-1.92088E-19
 -1      4057 9.55457E-05-2.87190E-05-2.86406E-05 9.96684E-08 7.34745E-21-6.86670E-19
 -1      4058 9.52980E-05-2.84422E-05-2.86533E-05 1.83206E-07 3.36100E-19 1.93986E-19
 -1      4059 9.52007E-05-2.83197E-05-2.86630E-05 1.97793E-07 3.30848E-19-6.27921E-20
 -1      4060 9.53504E-05-2.84946E-05-2.86521E-05 1.04344E-07 3.35629E-19-2.78852E-19
 -1      4061 9.50844E-05-2.81843E-05-2.86728E-05 2.07081E-07 3.85566E-20 8.52746E-20
 -1      4062 9.49717E-05-2.80416E-05-2.86843E-05 2.32098E-07-3.66006E-19-3.88199E-19
 -1      4063 9.51352E-05-2.82363E-05-2.86693E-05 1.16950E-07 1.66783E-19-3.55185E-19
 -1      4064 9.48338E-05-2.78831E-05-2.86952E-05 2.48325E-07-4.74829E-19-7.09581E-19
 -1      4065 9.46978E-05-2.77153E-05-2.87071E-05 2.85321E-07-9.35043E-20-1.24497E-18
 -1      4066 9.48856E-05-2.79356E-05-2.86898E-05 1.38959E-07-5.08843E-19-7.40612E-19
 -1      4067 9.45294E-05-2.75282E-05-2.87175E-05 3.09476E-07-2.59573E-19-1.19213E-18
 -1      4068 9.43611E-05-2.73300E-05-2.87283E-05 3.59979E-07-7.74471E-19-1.00832E-18
 -1      4069 9.45850E-05-2.75822E-05-2.87107E-05 1.71642E-07-1.84635E-19-1.03283E-18
 -1      4070 9.41517E-05-2.71089E-05-2.87362E-05 3.93114E-07-4.77680E-19-7.14638E-19
 -1      4071 9.39407E-05-2.68750E-05-2.87437E-05 4.58559E-07-1.47008E-19-5.81899E-20
 -1      4072 9.42141E-05-2.71651E-05-2.87284E-05 2.16141E-07-3.80340E-19-7.98122E-19
 -1      4073 9.36790E-05-2.66150E-05-2.87462E-05 5.01730E-07 1.38132E-19 2.18401E-19
 -1      4074 9.34139E-05-2.63411E-05-2.87475E-05 5.83348E-07 4.94625E-19 2.03377E-19
 -1      4075 9.37512E-05-2.66737E-05-2.87380E-05 2.73356E-07 1.98819E-19 3.26601E-19
 -1      4076 9.30871E-05-2.60383E-05-2.87409E-05 6.37541E-07 5.93737E-19-7.43192E-19
 -1      4077 9.27555E-05-2.57219E-05-2.87315E-05 7.36243E-07 4.90850E-19-5.74431E-19
 -1      4078 9.31724E-05-2.60992E-05-2.87330E-05 3.43757E-07-1.94401E-19-2.20606E-19
 -1      4079 9.23499E-05-2.53750E-05-2.87107E-05 8.02301E-07 9.72457E-20-6.61659E-19
 -1      4080 9.19384E-05-2.50162E-05-2.86849E-05 9.18646E-07-3.09189E-19-9.50388E-19
 -1      4081 9.24514E-05-2.54364E-05-2.87043E-05 4.27170E-07-1.59705E-19-1.00065E-18
 -1      4082 9.14393E-05-2.46268E-05-2.86427E-05 9.97277E-07-6.96093E-19-1.51886E-18
 -1      4083 9.09334E-05-2.42298E-05-2.85927E-05 1.13168E-06-7.64382E-19-1.77268E-18
 -1      4084 9.15602E-05-2.46852E-05-2.86395E-05 5.22594E-07-7.75600E-19-1.91815E-18
 -1      4085 9.03243E-05-2.38040E-05-2.85197E-05 1.22365E-06-5.48512E-19-1.73028E-18
 -1      4086 8.97086E-05-2.33778E-05-2.84347E-05 1.37710E-06-3.30119E-19-1.56291E-18
 -1      4087 9.04679E-05-2.38530E-05-2.85220E-05 6.28208E-07-3.98823E-19-1.83204E-18
 -1      4088 8.89703E-05-2.29266E-05-2.83182E-05 1.48383E-06-4.24257E-19-1.42784E-18
 -1      4089 8.82269E-05-2.24858E-05-2.81842E-05 1.65967E-06 2.57304E-19-1.57876E-18
 -1      4090 8.91397E-05-2.29552E-05-2.83295E-05 7.41770E-07-3.60340E-19-1.83940E-18
 -1      4091 8.73336E-05-2.20251E-05-2.80074E-05 1.78450E-06 9.79086E-19-1.95375E-18
 -1      4092 8.64397E-05-2.15897E-05-2.78054E-05 1.99207E-06 7.43469E-19-1.36686E-18
 -1      4093 8.75322E-05-2.20159E-05-2.80324E-05 8.61649E-07 9.35082E-20-1.89850E-18
 -1      4094 8.53521E-05-2.11377E-05-2.75452E-05 2.14269E-06-4.63236E-19-1.77077E-18
 -1      4095 8.42743E-05-2.07314E-05-2.72495E-05 2.40509E-06-7.66597E-19-1.69471E-18
 -1      4096 8.55843E-05-2.10635E-05-2.75907E-05 9.88431E-07-3.65434E-19-2.57176E-18
 -1      4097 8.29208E-05-2.02995E-05-2.68735E-05 2.59982E-06-1.36362E-18-2.32106E-18
 -1      4098 8.16042E-05-1.99532E-05-2.64480E-05 2.97458E-06-1.64838E-18-3.81970E-18
 -1      4099 8.31940E-05-2.01229E-05-2.69490E-05 1.12517E-06-1.70070E-18-2.72873E-18
 -1      4100 9.47914E-05-2.78196E-05-2.87022E-05-3.78178E-07-2.93336E-19-1.31485E-18
 -1      4101 9.49118E-05-2.79739E-05-2.86895E-05-3.32503E-07-3.62928E-20-1.44731E-18
 -1      4102 9.69099E-05-2.90129E-05-2.90977E-05 2.50412E-07-9.42647E-20-1.35772E-18
 -1      4103 9.68586E-05-2.91592E-05-2.90133E-05 2.83386E-07-1.10200E-19-1.42956E-18
 -1      4104 9.68677E-05-2.92170E-05-2.89963E-05 1.54229E-07 1.14710E-19-1.45402E-18
 -1      4105 9.52475E-05-2.83808E-05-2.86566E-05-2.64670E-07 1.67110E-19-8.76089E-19
 -1      4106 9.53355E-05-2.84945E-05-2.86469E-05-2.48703E-07 1.97831E-19-3.19022E-19
 -1      4107 9.41157E-05-2.70462E-05-2.87448E-05-6.19275E-07 1.06901E-19-1.08665E-18
 -1      4108 9.42996E-05-2.72593E-05-2.87349E-05-5.33332E-07-7.98180E-20-1.08570E-18
 -1      4109 9.36494E-05-2.65581E-05-2.87546E-05-8.01878E-07-3.20739E-19-8.68222E-19
 -1      4110 9.38786E-05-2.68060E-05-2.87497E-05-6.91041E-07 1.27178E-19-4.90720E-19
 -1      4111 9.39114E-05-2.68336E-05-2.87398E-05-4.66235E-07-2.75326E-19-1.05033E-18
 -1      4112 9.30704E-05-2.59955E-05-2.87479E-05-1.03543E-06-1.95780E-19-9.01672E-19
 -1      4113 9.33540E-05-2.62796E-05-2.87517E-05-8.95977E-07-2.83468E-19-6.63991E-19
 -1      4114 9.33834E-05-2.62974E-05-2.87407E-05-6.05675E-07-3.83143E-19-7.11523E-19
 -1      4115 9.23576E-05-2.53602E-05-2.87151E-05-1.32901E-06-4.80206E-19-1.50172E-20
 -1      4116 9.27047E-05-2.56783E-05-2.87326E-05-1.15656E-06-6.50267E-19-2.74750E-19
 -1      4117 9.27281E-05-2.56808E-05-2.87209E-05-7.85134E-07-7.82742E-19-4.11529E-19
 -1      4118 9.14910E-05-2.46624E-05-2.86431E-05-1.69429E-06-6.53470E-19 1.13541E-19
 -1      4119 9.19094E-05-2.50077E-05-2.86811E-05-1.48325E-06-1.85720E-19 5.37673E-19
 -1      4120 9.19219E-05-2.49857E-05-2.86694E-05-1.01317E-06-8.39521E-19-1.17350E-19
 -1      4121 9.04527E-05-2.39244E-05-2.85147E-05-2.14752E-06-1.56094E-18 9.17672E-20
 -1      4122 9.09479E-05-2.42831E-05-2.85820E-05-1.88999E-06-1.15287E-18-1.27872E-19
 -1      4123 9.09406E-05-2.42223E-05-2.85711E-05-1.30149E-06-6.63025E-19 3.66644E-19
 -1      4124 8.92277E-05-2.31836E-05-2.83070E-05-2.71324E-06-8.29947E-19-8.48154E-19
 -1      4125 8.98019E-05-2.35337E-05-2.84153E-05-2.39680E-06-9.32571E-19-1.61856E-19
 -1      4126 8.97602E-05-2.34118E-05-2.84064E-05-1.66709E-06-9.60306E-19-7.24127E-19
 -1      4127 8.78042E-05-2.24960E-05-2.79909E-05-3.43104E-06-7.62189E-19-1.08394E-18
 -1      4128 8.84549E-05-2.28048E-05-2.81550E-05-3.03476E-06-9.26721E-19-8.66284E-19
 -1      4129 8.83549E-05-2.25878E-05-2.81491E-05-2.13622E-06-7.99755E-19-1.92004E-18
 -1      4130 8.61716E-05-2.19383E-05-2.75287E-05-4.36743E-06-2.08077E-20-2.15773E-19
 -1      4131 8.68906E-05-2.21609E-05-2.77673E-05-3.85450E-06-5.14674E-19-6.79716E-19
 -1      4132 8.66941E-05-2.17970E-05-2.77653E-05-2.75073E-06-5.64192E-19-1.42688E-18
 -1      4133 8.43147E-05-2.16098E-05-2.68711E-05-5.63917E-06-8.88857E-19-1.73764E-19
 -1      4134 8.50860E-05-2.16854E-05-2.72083E-05-4.94087E-06-3.42623E-19 3.57859E-19
 -1      4135 8.47332E-05-2.10967E-05-2.72100E-05-3.57764E-06-3.21746E-19-1.21820E-19
 -1      4136 8.21663E-05-2.16486E-05-2.59489E-05-7.49376E-06-1.23750E-18 1.58787E-19
 -1      4137 8.29823E-05-2.14685E-05-2.64178E-05-6.44810E-06-1.26549E-18 5.41365E-20
 -1      4138 8.23828E-05-2.05432E-05-2.64214E-05-4.72082E-06-1.01976E-18-3.76672E-19
 -1      4139 7.93294E-05-2.19798E-05-2.46089E-05-9.69360E-06-1.55318E-19-3.60458E-19
 -1      4140 8.01549E-05-2.14016E-05-2.52527E-05-8.16110E-06-7.60089E-19-6.20318E-19
 -1      4141 7.91441E-05-1.99412E-05-2.52688E-05-5.85999E-06-7.53286E-19-7.34242E-19
 -1      4142 7.44373E-05-1.91307E-05-2.35652E-05-6.88654E-06 1.01695E-19-1.46259E-18
 -1      4143 9.62830E-05-2.93008E-05-2.87089E-05-4.74161E-07 1.78652E-19-1.15371E-18
 -1      4144 9.62292E-05-2.92661E-05-2.86976E-05-5.82125E-07 1.38452E-19-1.18941E-18
 -1      4145 9.63053E-05-2.92693E-05-2.87284E-05-6.04059E-07 1.59867E-19-1.22857E-18
 -1      4146 9.67448E-05-2.89966E-05-2.90364E-05-4.83516E-07 9.00648E-20-7.84334E-19
 -1      4147 9.66484E-05-2.89188E-05-2.90283E-05-5.83772E-07 2.82991E-20-1.02678E-18
 -1      4148 9.66839E-05-2.87328E-05-2.91190E-05-5.11936E-07 2.33036E-20-1.06315E-18
 -1      4149 9.68208E-05-2.77883E-05-2.95861E-05 5.97620E-08-2.51007E-19-1.35188E-18
 -1      4150 9.69008E-05-2.82092E-05-2.94402E-05 1.61493E-07-6.21764E-20-1.27002E-18
 -1      4151 9.57612E-05-2.89994E-05-2.86108E-05-4.15642E-07-2.57480E-19-3.56435E-19
 -1      4152 9.58248E-05-2.90599E-05-2.86136E-05-4.40253E-07 1.22088E-19-6.36618E-19
 -1      4153 9.59360E-05-2.91275E-05-2.86339E-05-3.81491E-07-2.16314E-19-8.47324E-19
 -1      4154 7.04092E-05-1.72481E-05-2.26279E-05-6.39714E-08-2.10629E-19-1.29882E-18
 -1      4155 7.19172E-05-1.82103E-05-2.31198E-05-4.04834E-06-2.34446E-19-8.86569E-19
 -1      4156 7.47763E-05-1.86711E-05-2.41345E-05-3.77801E-06 3.37323E-19-1.53118E-18
 -1      4157 9.66821E-05-2.84822E-05-2.92312E-05-4.44124E-07 5.81408E-20-1.16653E-18
 -1      4158 9.66698E-05-2.81723E-05-2.93530E-05-3.01687E-07 1.46486E-19-1.25996E-18
 -1      4159 9.67109E-05-2.78837E-05-2.94976E-05-1.70221E-07 1.65106E-19-1.22859E-18
 -1      4160 9.67927E-05-2.85788E-05-2.92354E-05-3.77974E-07-1.18173E-21-9.54134E-19
 -1      4161 9.69404E-05-2.85490E-05-2.93098E-05 1.82068E-07-6.55398E-20-1.50015E-18
 -1      4162 9.69392E-05-2.88105E-05-2.91979E-05 2.46392E-07-1.41215E-19-1.43081E-18
 -1      4163 9.69520E-05-2.83443E-05-2.94047E-05 8.77847E-08-1.81214E-19-1.58509E-18
 -1      4164 9.54325E-05-2.86048E-05-2.86396E-05-2.44391E-07-3.22249E-19-2.23574E-19
 -1      4165 9.55136E-05-2.87041E-05-2.86330E-05-2.40071E-07 2.34669E-19-5.80797E-19
 -1      4166 9.53888E-05-2.85455E-05-2.86473E-05-1.75865E-07 1.35050E-19-4.38476E-19
 -1      4167 9.59367E-05-2.53676E-05-3.02472E-05 4.61118E-07 5.97546E-20-1.66520E-18
 -1      4168 7.32014E-05-1.84709E-05-2.34805E-05 3.60837E-06-3.33461E-19-2.04823E-18
 -1      4169 9.65357E-05-2.67761E-05-2.99007E-05-9.73965E-08-3.14544E-19-1.22569E-18
 -1      4170 9.67222E-05-2.73939E-05-2.97107E-05 2.79649E-08-3.51981E-19-1.35494E-18
 -1      4171 9.68009E-05-2.75950E-05-2.96595E-05 1.80408E-08-2.50007E-19-1.26756E-18
 -1      4172 9.65303E-05-2.67077E-05-2.99265E-05-2.97206E-08-2.38322E-19-1.47080E-18
 -1      4173 9.44898E-05-2.74642E-05-2.87256E-05-4.80154E-07-1.63460E-19-1.22989E-18
 -1      4174 9.46377E-05-2.76457E-05-2.87134E-05-4.15815E-07-3.76847E-19-1.32079E-18
 -1      4175 9.46757E-05-2.76846E-05-2.87067E-05-2.82190E-07-1.68890E-19-1.23766E-18
 -1      4176 9.43349E-05-2.72934E-05-2.87265E-05-3.60185E-07-1.77844E-19-1.25882E-18
 -1      4177 9.62990E-05-2.61806E-05-3.00410E-05 2.95185E-07 1.52540E-19-1.48281E-18
 -1      4178 9.50385E-05-2.81219E-05-2.86783E-05-3.07911E-07 1.29438E-19-1.65255E-18
 -1      4179 9.51393E-05-2.82538E-05-2.86665E-05-2.78268E-07 6.42370E-22-1.12457E-18
 -1      4180 9.49534E-05-2.80170E-05-2.86848E-05-2.27850E-07-1.46476E-20-8.00192E-19
 -1      4181 8.01311E-05-1.91892E-05-2.60185E-05 1.18495E-06-9.79091E-19-2.74219E-18
 -1      4182 7.98321E-05-1.95252E-05-2.58982E-05 3.17204E-06-5.47663E-19-3.99692E-18
 -1      4183 7.80456E-05-1.92157E-05-2.52676E-05 3.70545E-06-4.44699E-19-3.97333E-18
 -1      4184 9.57751E-05-2.89931E-05-2.86223E-05-3.44568E-07-1.84537E-19-6.87655E-19
 -1      4185 9.51859E-05-2.83008E-05-2.86641E-05-1.93474E-07 3.51068E-19-5.62006E-19
 -1      4186 9.56060E-05-2.88016E-05-2.86294E-05-2.43350E-07 3.25629E-19-6.60990E-19
 -1      4187 9.56873E-05-2.88896E-05-2.86270E-05-2.50129E-07-7.45677E-22-8.49757E-19
 -1      4188 9.55755E-05-2.87589E-05-2.86367E-05-1.71795E-07 8.23903E-21-5.12300E-19
 -1      4189 7.55099E-05-1.87142E-05-2.43947E-05 2.95733E-06-4.07979E-19-2.85370E-18
 -1      4190 9.64619E-05-2.93074E-05-2.87828E-05-5.10275E-07 1.13280E-19-1.11538E-18
 -1      4191 9.65302E-05-2.67480E-05-2.99111E-05 7.16173E-08 2.45461E-19-1.83069E-18
 -1      4192 9.65302E-05-2.67186E-05-2.99240E-05 3.11526E-09 9.05022E-20-1.89418E-18
 -1      4193 9.67061E-05-2.71994E-05-2.97832E-05 1.26905E-08-1.73978E-20-1.56099E-18
 -1      4194 9.65059E-05-2.68678E-05-2.98505E-05 8.59360E-08 2.77402E-19-1.31135E-18
 -1      4195 9.63176E-05-2.93257E-05-2.87101E-05-3.56459E-07 3.88750E-19-1.27527E-18
 -1      4196 9.64092E-05-2.93461E-05-2.87404E-05-3.72426E-07 6.30398E-20-1.22161E-18
 -1      4197 9.68165E-05-2.90949E-05-2.90240E-05-3.88560E-07 2.92493E-19-8.33681E-19
 -1      4198 9.68665E-05-2.89351E-05-2.91107E-05-3.44797E-07 1.23129E-19-6.81750E-19
 -1      4199 9.69645E-05-2.89018E-05-2.91728E-05 1.33122E-07-1.08875E-19-1.58869E-18
 -1      4200 9.66825E-05-2.92864E-05-2.88828E-05-3.99914E-07 3.60430E-19-9.34546E-19
 -1      4201 9.67570E-05-2.92115E-05-2.89458E-05-3.87786E-07 3.97109E-19-8.92015E-19
 -1      4202 9.68537E-05-2.91618E-05-2.90147E-05-2.71935E-07 4.05137E-19-6.61188E-19
 -1      4203 9.61324E-05-2.92432E-05-2.86649E-05-3.18107E-07-1.72652E-19-1.10099E-18
 -1      4204 9.62198E-05-2.92888E-05-2.86835E-05-3.36842E-07 2.85281E-19-1.29487E-18
 -1      4205 9.63232E-05-2.93362E-05-2.87102E-05-2.45419E-07 2.03009E-19-1.03049E-18
 -1      4206 9.65846E-05-2.93986E-05-2.87926E-05 3.02526E-08 2.07336E-19-8.26414E-19
 -1      4207 9.64853E-05-2.93905E-05-2.87533E-05 2.69806E-08 2.45073E-20-1.01927E-18
 -1      4208 9.63395E-05-2.93425E-05-2.87118E-05-4.94148E-08 5.14805E-20-9.14551E-19
 -1      4209 9.62372E-05-2.92972E-05-2.86875E-05-4.75000E-08 1.63631E-19-9.80779E-19
 -1      4210 9.59803E-05-2.91283E-05-2.86496E-05 2.43421E-08-5.37959E-19-8.06680E-19
 -1      4211 9.58858E-05-2.90510E-05-2.86422E-05 2.01325E-08-3.93774E-19-7.47676E-19
 -1      4212 9.57544E-05-2.89341E-05-2.86369E-05-3.64982E-08-2.08929E-19-7.97076E-19
 -1      4213 9.56614E-05-2.88408E-05-2.86366E-05-3.52497E-08-2.14107E-19-9.72479E-19
 -1      4214 9.55690E-05-2.87422E-05-2.86396E-05-3.59088E-08-1.71898E-19-5.59547E-19
 -1      4215 9.54717E-05-2.86360E-05-2.86436E-05-3.41659E-08 1.33578E-19-7.32938E-19
 -1      4216 9.53733E-05-2.85230E-05-2.86503E-05-3.91395E-08 3.40117E-19-7.39884E-19
 -1      4217 9.52683E-05-2.84012E-05-2.86577E-05-3.58274E-08 4.74976E-19-4.65855E-19
 -1      4218 9.51583E-05-2.82712E-05-2.86670E-05-4.63213E-08 2.28606E-19-2.91270E-19
 -1      4219 9.50392E-05-2.81299E-05-2.86765E-05-4.07965E-08-1.84567E-19-5.61135E-19
 -1      4220 9.49105E-05-2.79787E-05-2.86871E-05-5.80729E-08-1.44226E-19-6.81870E-19
 -1      4221 9.47692E-05-2.78129E-05-2.86976E-05-5.00621E-08-7.45749E-20-7.72688E-19
 -1      4222 9.46132E-05-2.76354E-05-2.87080E-05-7.54596E-08-1.77079E-20-8.12187E-19
 -1      4223 9.44405E-05-2.74397E-05-2.87177E-05-6.48415E-08 5.03590E-20-7.12163E-19
 -1      4224 9.42475E-05-2.72308E-05-2.87261E-05-9.99181E-08-3.46372E-19-5.65838E-19
 -1      4225 9.40329E-05-2.69997E-05-2.87330E-05-8.67617E-08-3.28351E-19-5.98156E-19
 -1      4226 9.37921E-05-2.67546E-05-2.87368E-05-1.33395E-07-1.71804E-19-4.17358E-19
 -1      4227 9.35240E-05-2.64831E-05-2.87379E-05-1.18051E-07-1.76587E-19-9.21965E-19
 -1      4228 9.32236E-05-2.61982E-05-2.87337E-05-1.78570E-07-4.87957E-19-5.74435E-19
 -1      4229 9.28891E-05-2.58831E-05-2.87251E-05-1.61795E-07-7.63299E-19-9.49971E-19
 -1      4230 9.25168E-05-2.55571E-05-2.87080E-05-2.39193E-07-7.00565E-19-5.86694E-19
 -1      4231 9.21019E-05-2.51972E-05-2.86844E-05-2.22293E-07-9.38442E-19-1.12473E-18
 -1      4232 9.16447E-05-2.48320E-05-2.86481E-05-3.20618E-07-8.85948E-19-9.26820E-19
 -1      4233 9.11342E-05-2.44296E-05-2.86022E-05-3.05584E-07-7.10324E-19-9.19464E-19
 -1      4234 9.05786E-05-2.40317E-05-2.85379E-05-4.30633E-07-5.31138E-19-1.17143E-18
 -1      4235 8.99554E-05-2.35933E-05-2.84600E-05-4.20233E-07-3.73884E-19-1.10226E-18
 -1      4236 8.92866E-05-2.31746E-05-2.83564E-05-5.80781E-07-3.63472E-19-1.38101E-18
 -1      4237 8.85303E-05-2.27113E-05-2.82334E-05-5.78572E-07-4.63401E-19-1.26325E-18
 -1      4238 8.77312E-05-2.22898E-05-2.80756E-05-7.88434E-07-4.42660E-19-1.10099E-18
 -1      4239 8.68142E-05-2.18164E-05-2.78901E-05-7.98802E-07-3.02297E-19-2.26662E-18
 -1      4240 8.58618E-05-2.14156E-05-2.76582E-05-1.07994E-06-2.87340E-19-2.13965E-18
 -1      4241 8.47434E-05-2.09487E-05-2.73868E-05-1.10891E-06-7.53117E-19-1.87605E-18
 -1      4242 8.36044E-05-2.05954E-05-2.70544E-05-1.49426E-06-1.24525E-18-1.41910E-18
 -1      4243 8.22232E-05-2.01500E-05-2.66646E-05-1.55522E-06-1.19735E-18-9.95435E-19
 -1      4244 9.58183E-05-2.90057E-05-2.86334E-05-2.04142E-07-2.09293E-19-1.05281E-18
 -1      4245 9.59015E-05-2.90807E-05-2.86372E-05-2.14932E-07-2.53803E-19-1.15561E-18
 -1      4246 9.68970E-05-2.92020E-05-2.90107E-05-6.11155E-08 3.02392E-19-1.12855E-18
 -1      4247 9.68207E-05-2.92991E-05-2.89356E-05-5.26183E-08 3.57049E-19-9.56131E-19
 -1      4248 8.08577E-05-1.98673E-05-2.61961E-05-2.07923E-06-1.13148E-18-1.39112E-18
 -1      4249 7.71672E-05-1.90483E-05-2.49608E-05-2.45758E-06 2.92132E-19-1.93850E-18
 -1      4250 7.91373E-05-1.94667E-05-2.56408E-05-2.30124E-06-4.41842E-19-1.05674E-18
 -1      4251 9.69349E-05-2.88111E-05-2.91990E-05-2.30446E-07 1.43504E-20-7.62414E-19
 -1      4252 9.68803E-05-2.87156E-05-2.92149E-05-3.25313E-07-8.12655E-20-8.40081E-19
 -1      4253 9.68831E-05-2.84393E-05-2.93311E-05-2.39723E-07-6.23626E-20-9.98795E-19
 -1      4254 9.69882E-05-2.88717E-05-2.91919E-05-5.83735E-08 2.41340E-20-1.31432E-18
 -1      4255 9.69556E-05-2.90669E-05-2.90919E-05-4.30601E-08 2.33119E-19-1.20596E-18
 -1      4256 9.69589E-05-2.82918E-05-2.94282E-05-4.87294E-08-3.45142E-19-1.33096E-18
 -1      4257 9.69974E-05-2.86247E-05-2.92995E-05-2.47948E-08-3.19189E-19-1.46251E-18
 -1      4258 9.59774E-05-2.91388E-05-2.86436E-05-2.55123E-07-8.58639E-20-1.01322E-18
 -1      4259 9.60599E-05-2.92007E-05-2.86537E-05-2.71012E-07-1.58743E-19-1.15639E-18
 -1      4260 9.61548E-05-2.92567E-05-2.86732E-05-1.88782E-07-9.06843E-21-1.06756E-18
 -1      4261 9.60056E-05-2.91529E-05-2.86530E-05-1.07047E-07-2.90017E-19-1.19009E-18
 -1      4262 9.67597E-05-2.93542E-05-2.88863E-05-1.34077E-08 2.44330E-19-1.01158E-18
 -1      4263 9.66627E-05-2.93878E-05-2.88305E-05-1.07439E-08 2.84563E-19-8.20256E-19
 -1      4264 9.66043E-05-2.93928E-05-2.88065E-05-1.40772E-07 2.75853E-19-8.90103E-19
 -1      4265 9.67351E-05-2.93317E-05-2.88909E-05-2.37770E-07 3.27724E-19-7.08238E-19
 -1      4266 9.66728E-05-2.73158E-05-2.97189E-05 3.03023E-09 3.37038E-19-1.37436E-18
 -1      4267 7.60443E-05-1.82847E-05-2.46249E-05 2.18897E-07 2.12492E-19-2.50781E-18
 -1      4268 9.57946E-05-2.89753E-05-2.86384E-05-1.21816E-07-2.52229E-19-1.00936E-18
 -1      4269 9.60584E-05-2.91880E-05-2.86580E-05-9.94170E-09-2.35604E-19-9.64522E-19
 -1      4270 9.61613E-05-2.92526E-05-2.86735E-05-8.10345E-09 1.44587E-19-1.24106E-18
 -1      4271 9.68472E-05-2.81591E-05-2.94393E-05-2.01835E-07-1.58910E-19-1.14429E-18
 -1      4272 9.67704E-05-2.77335E-05-2.95882E-05-7.19053E-08 2.80342E-20-1.23147E-18
 -1      4273 9.67955E-05-2.76216E-05-2.96455E-05-3.15291E-08 1.71157E-20-1.42750E-18
 -1      4274 9.69206E-05-2.83077E-05-2.94096E-05-1.43959E-07-2.81771E-19-1.09006E-18
 -1      4275 9.67975E-05-2.75186E-05-2.96924E-05-9.40547E-09-2.80721E-19-1.42139E-18
 -1      4276 9.69003E-05-2.78958E-05-2.95711E-05 2.21640E-08-2.80368E-19-1.41342E-18
 -1      4277 9.66260E-05-2.93317E-05-2.88391E-05-3.49341E-07 2.15555E-19-9.53586E-19
 -1      4278 9.65466E-05-2.93761E-05-2.87887E-05-2.20824E-07 1.76211E-19-1.04873E-18
 -1      4279 9.65399E-05-2.93543E-05-2.87929E-05-3.45836E-07-4.58904E-20-9.18984E-19
 -1      4280 9.64700E-05-2.93759E-05-2.87539E-05-1.73777E-07 3.11087E-19-1.21911E-18
 -1      4281 9.63761E-05-2.93525E-05-2.87259E-05-1.64032E-07 5.00679E-20-9.16973E-19
 -1      4282 9.67834E-05-2.75292E-05-2.96851E-05-1.43436E-08 2.28062E-20-1.55986E-18
 -1      4283 9.68827E-05-2.79028E-05-2.95563E-05-5.37736E-08-4.05681E-19-1.21398E-18
 -1      4284 9.69175E-05-2.82060E-05-2.94491E-05-1.02477E-07-3.57770E-19-1.21367E-18
 -3
    1PSTEP                         4           1           1          
  100CL  101 1.000000000        4284                     0    1           1
 -4  ERROR       1    1
 -5  STR(%)      1    1    0    0
 -1         1 1.57409E+01
 -1         2 2.51678E+01
 -1         3 1.21072E-01
 -1         4 1.46428E-01
 -1         5 1.40390E+01
 -1         6 1.31433E+01
 -1         7 1.31433E+01
 -1         8 3.66370E+00
 -1         9 1.82519E+00
 -1        10 1.28930E+00
 -1        11 1.04644E+00
 -1        12 9.00034E-01
 -1        13 8.08905E-01
 -1        14 7.53856E-01
 -1        15 7.55827E-01
 -1        16 8.13179E-01
 -1        17 9.00893E-01
 -1        18 1.05269E+00
 -1        19 1.30787E+00
 -1        20 1.83589E+00
 -1        21 3.50551E+00
 -1        22 8.64119E+00
 -1        23 1.31433E+01
 -1        24 4.31757E+00
 -1        25 3.34049E+00
 -1        26 2.11102E+00
 -1        27 1.36232E+00
 -1        28 1.01388E+00
 -1        29 7.74854E-01
 -1        30 5.95007E-01
 -1        31 4.54755E-01
 -1        32 3.47264E-01
 -1        33 2.68416E-01
 -1        34 2.05083E-01
 -1        35 1.55217E-01
 -1        36 1.16858E-01
 -1        37 8.82230E-02
 -1        38 6.77530E-02
 -1        39 5.41175E-02
 -1        40 4.62048E-02
 -1        41 4.76482E-02
 -1        42 5.69095E-02
 -1        43 6.96498E-02
 -1        44 8.52625E-02
 -1        45 1.06456E-01
 -1        46 1.45200E-01
 -1        47 1.95065E-01
 -1        48 2.57055E-01
 -1        49 3.31308E-01
 -1        50 4.16281E-01
 -1        51 5.07553E-01
 -1        52 6.07335E-01
 -1        53 7.94641E-01
 -1        54 9.95785E-01
 -1        55 1.25702E+00
 -1        56 1.49503E+00
 -1        57 1.61809E+00
 -1        58 1.67339E+00
 -1        59 1.77703E+00
 -1        60 1.99913E+00
 -1        61 2.68119E+00
 -1        62 4.68616E+00
 -1        63 6.08110E+00
 -1        64 6.08110E+00
 -1        65 5.83270E+00
 -1        66 5.50618E+00
 -1        67 3.98714E+00
 -1        68 2.30448E+00
 -1        69 1.16446E+00
 -1        70 6.65697E-01
 -1        71 3.33463E-01
 -1        72 1.40390E+01
 -1        73 3.39461E+00
 -1        74 2.41294E+00
 -1        75 1.66570E+00
 -1        76 1.14457E+00
 -1        77 9.05847E-01
 -1        78 7.31133E-01
 -1        79 5.87635E-01
 -1        80 4.68020E-01
 -1        81 3.68443E-01
 -1        82 2.94160E-01
 -1        83 2.32318E-01
 -1        84 1.81287E-01
 -1        85 1.40293E-01
 -1        86 1.08378E-01
 -1        87 8.45632E-02
 -1        88 6.79465E-02
 -1        89 5.77586E-02
 -1        90 5.76603E-02
 -1        91 6.84346E-02
 -1        92 8.46974E-02
 -1        93 1.06279E-01
 -1        94 1.32824E-01
 -1        95 1.63553E-01
 -1        96 1.96942E-01
 -1        97 2.47614E-01
 -1        98 3.14757E-01
 -1        99 3.88755E-01
 -1       100 4.63892E-01
 -1       101 5.30056E-01
 -1       102 5.71258E-01
 -1       103 6.04610E-01
 -1       104 8.10541E-01
 -1       105 1.00850E+00
 -1       106 1.13626E+00
 -1       107 1.47880E+00
 -1       108 1.74366E+00
 -1       109 1.90783E+00
 -1       110 2.37948E+00
 -1       111 3.08641E+00
 -1       112 4.24221E+00
 -1       113 4.40385E+00
 -1       114 4.57563E+00
 -1       115 4.57563E+00
 -1       116 3.75504E+00
 -1       117 2.49553E+00
 -1       118 1.49351E+00
 -1       119 8.18663E-01
 -1       120 4.05149E-01
 -1       121 2.15553E-01
 -1       122 4.37312E-01
 -1       123 7.17482E-01
 -1       124 9.22058E-01
 -1       125 9.22058E-01
 -1       126 8.89989E-01
 -1       127 7.34366E-01
 -1       128 1.53364E+00
 -1       129 1.53364E+00
 -1       130 1.26958E+00
 -1       131 6.63950E-01
 -1       132 9.36301E-01
 -1       133 9.36301E-01
 -1       134 8.22815E-01
 -1       135 5.05445E-01
 -1       136 4.09980E-01
 -1       137 2.43607E+01
 -1       138 4.77940E+01
 -1       139 4.77940E+01
 -1       140 2.06349E+01
 -1       141 1.19936E+01
 -1       142 1.22817E+01
 -1       143 1.33412E+01
 -1       144 1.33412E+01
 -1       145 1.28607E+01
 -1       146 1.33156E+01
 -1       147 3.08344E+01
 -1       148 3.17879E+01
 -1       149 2.76470E+01
 -1       150 2.42148E+01
 -1       151 2.45390E+01
 -1       152 2.45390E+01
 -1       153 4.30779E+01
 -1       154 4.30779E+01
 -1       155 1.18614E+01
 -1       156 1.21964E+01
 -1       157 1.21964E+01
 -1       158 1.22285E+01
 -1       159 1.22285E+01
 -1       160 1.21281E+01
 -1       161 2.33450E+01
 -1       162 4.88092E+01
 -1       163 4.88092E+01
 -1       164 2.51678E+01
 -1       165 6.07773E+00
 -1       166 2.29896E+00
 -1       167 1.50778E+00
 -1       168 1.15805E+00
 -1       169 9.73632E-01
 -1       170 8.64620E-01
 -1       171 7.96033E-01
 -1       172 7.55827E-01
 -1       173 7.99466E-01
 -1       174 8.67268E-01
 -1       175 9.81080E-01
 -1       176 1.17259E+00
 -1       177 1.52768E+00
 -1       178 2.26092E+00
 -1       179 3.93113E+00
 -1       180 1.40390E+01
 -1       181 4.31757E+00
 -1       182 3.34049E+00
 -1       183 2.11102E+00
 -1       184 1.44691E+00
 -1       185 1.02519E+00
 -1       186 7.74854E-01
 -1       187 5.95007E-01
 -1       188 4.67599E-01
 -1       189 3.67534E-01
 -1       190 2.89622E-01
 -1       191 2.32952E-01
 -1       192 1.84931E-01
 -1       193 1.45397E-01
 -1       194 1.13730E-01
 -1       195 8.90898E-02
 -1       196 7.05549E-02
 -1       197 5.71959E-02
 -1       198 4.81060E-02
 -1       199 4.76482E-02
 -1       200 5.69095E-02
 -1       201 6.96498E-02
 -1       202 8.80787E-02
 -1       203 1.17373E-01
 -1       204 1.54997E-01
 -1       205 2.01652E-01
 -1       206 2.57442E-01
 -1       207 3.40123E-01
 -1       208 4.57728E-01
 -1       209 5.95658E-01
 -1       210 7.46833E-01
 -1       211 8.95718E-01
 -1       212 1.04391E+00
 -1       213 1.25702E+00
 -1       214 1.49503E+00
 -1       215 1.61809E+00
 -1       216 1.67339E+00
 -1       217 1.77703E+00
 -1       218 1.99913E+00
 -1       219 2.95091E+00
 -1       220 4.68616E+00
 -1       221 6.08110E+00
 -1       222 5.83270E+00
 -1       223 5.50618E+00
 -1       224 3.98714E+00
 -1       225 2.80924E+00
 -1       226 1.79058E+00
 -1       227 1.22143E+00
 -1       228 8.07878E-01
 -1       229 3.39461E+00
 -1       230 2.41294E+00
 -1       231 1.66570E+00
 -1       232 1.14457E+00
 -1       233 9.05847E-01
 -1       234 7.31133E-01
 -1       235 5.87635E-01
 -1       236 4.68020E-01
 -1       237 3.68443E-01
 -1       238 2.94160E-01
 -1       239 2.32318E-01
 -1       240 1.84215E-01
 -1       241 1.45171E-01
 -1       242 1.13935E-01
 -1       243 8.98626E-02
 -1       244 7.22521E-02
 -1       245 6.04259E-02
 -1       246 5.55922E-02
 -1       247 6.24128E-02
 -1       248 7.36668E-02
 -1       249 8.89591E-02
 -1       250 1.07705E-01
 -1       251 1.32824E-01
 -1       252 1.71537E-01
 -1       253 2.19704E-01
 -1       254 2.74883E-01
 -1       255 3.34469E-01
 -1       256 3.93998E-01
 -1       257 4.63892E-01
 -1       258 5.30056E-01
 -1       259 5.71258E-01
 -1       260 6.97273E-01
 -1       261 8.22495E-01
 -1       262 1.00850E+00
 -1       263 1.13626E+00
 -1       264 1.47880E+00
 -1       265 1.74366E+00
 -1       266 1.90783E+00
 -1       267 2.37948E+00
 -1       268 3.11359E+00
 -1       269 4.24221E+00
 -1       270 4.40385E+00
 -1       271 4.57563E+00
 -1       272 3.75504E+00
 -1       273 2.49553E+00
 -1       274 1.55795E+00
 -1       275 8.66069E-01
 -1       276 4.31111E-01
 -1       277 6.50693E-01
 -1       278 1.06269E+00
 -1       279 1.56000E+00
 -1       280 1.64791E+00
 -1       281 1.64791E+00
 -1       282 1.49548E+00
 -1       283 2.83850E+00
 -1       284 3.27011E+00
 -1       285 3.27011E+00
 -1       286 2.00222E+00
 -1       287 1.62489E+00
 -1       288 1.62489E+00
 -1       289 1.61867E+00
 -1       290 1.28049E+00
 -1       291 9.96114E-01
 -1       292 3.07660E+01
 -1       293 2.93556E+01
 -1       294 4.77940E+01
 -1       295 2.22914E+01
 -1       296 1.12067E+01
 -1       297 1.19936E+01
 -1       298 1.22817E+01
 -1       299 1.33412E+01
 -1       300 1.28607E+01
 -1       301 1.18216E+01
 -1       302 1.33156E+01
 -1       303 3.17879E+01
 -1       304 3.17879E+01
 -1       305 2.42148E+01
 -1       306 2.93419E+01
 -1       307 2.93419E+01
 -1       308 3.82347E+01
 -1       309 4.30779E+01
 -1       310 1.65055E+01
 -1       311 1.05612E+01
 -1       312 1.18614E+01
 -1       313 1.21964E+01
 -1       314 1.19991E+01
 -1       315 1.22285E+01
 -1       316 1.21281E+01
 -1       317 1.14414E+01
 -1       318 2.53150E+01
 -1       319 4.88092E+01
 -1       320 2.97744E+01
 -1       321 3.07660E+01
 -1       322 1.04838E+00
 -1       323 2.48006E+00
 -1       324 7.95335E-01
 -1       325 6.95068E-01
 -1       326 6.31913E-01
 -1       327 5.87655E-01
 -1       328 5.90864E-01
 -1       329 6.34566E-01
 -1       330 7.01323E-01
 -1       331 7.96530E-01
 -1       332 9.31952E-01
 -1       333 1.16030E+00
 -1       334 1.32925E+00
 -1       335 2.20058E+00
 -1       336 1.91405E+00
 -1       337 1.72905E+00
 -1       338 1.26711E+00
 -1       339 9.06783E-01
 -1       340 6.55680E-01
 -1       341 5.38182E-01
 -1       342 4.41017E-01
 -1       343 3.55422E-01
 -1       344 2.90047E-01
 -1       345 2.34840E-01
 -1       346 1.87477E-01
 -1       347 1.52105E-01
 -1       348 1.22983E-01
 -1       349 9.86486E-02
 -1       350 7.88557E-02
 -1       351 6.31013E-02
 -1       352 5.07237E-02
 -1       353 4.34773E-02
 -1       354 4.44102E-02
 -1       355 5.06266E-02
 -1       356 6.61609E-02
 -1       357 8.80787E-02
 -1       358 1.17383E-01
 -1       359 1.69218E-01
 -1       360 2.36214E-01
 -1       361 3.20552E-01
 -1       362 4.23331E-01
 -1       363 5.43429E-01
 -1       364 6.75788E-01
 -1       365 8.09089E-01
 -1       366 9.23126E-01
 -1       367 1.03736E+00
 -1       368 1.17152E+00
 -1       369 1.21201E+00
 -1       370 1.06547E+00
 -1       371 9.69983E-01
 -1       372 1.09269E+00
 -1       373 2.03996E+00
 -1       374 2.78881E+00
 -1       375 3.64016E+00
 -1       376 3.78420E+00
 -1       377 3.52196E+00
 -1       378 3.32652E+00
 -1       379 2.81497E+00
 -1       380 2.40197E+00
 -1       381 1.95817E+00
 -1       382 1.69015E+00
 -1       383 1.13026E+00
 -1       384 8.90940E-01
 -1       385 7.03400E-01
 -1       386 5.44599E-01
 -1       387 4.37310E-01
 -1       388 3.70741E-01
 -1       389 3.06919E-01
 -1       390 2.51435E-01
 -1       391 2.06121E-01
 -1       392 1.66482E-01
 -1       393 1.33013E-01
 -1       394 1.05591E-01
 -1       395 8.42228E-02
 -1       396 6.83600E-02
 -1       397 5.73074E-02
 -1       398 5.06425E-02
 -1       399 5.02712E-02
 -1       400 5.55877E-02
 -1       401 6.53945E-02
 -1       402 8.53198E-02
 -1       403 1.11011E-01
 -1       404 1.42839E-01
 -1       405 2.01610E-01
 -1       406 2.76127E-01
 -1       407 3.66270E-01
 -1       408 4.70143E-01
 -1       409 5.82030E-01
 -1       410 6.90471E-01
 -1       411 7.83782E-01
 -1       412 8.69347E-01
 -1       413 8.83761E-01
 -1       414 8.83761E-01
 -1       415 7.74742E-01
 -1       416 7.57278E-01
 -1       417 9.18101E-01
 -1       418 1.71432E+00
 -1       419 2.47780E+00
 -1       420 2.81082E+00
 -1       421 2.81082E+00
 -1       422 2.69128E+00
 -1       423 2.66411E+00
 -1       424 2.54798E+00
 -1       425 2.05049E+00
 -1       426 1.67600E+00
 -1       427 1.04884E+00
 -1       428 4.73816E-01
 -1       429 1.92879E+00
 -1       430 1.77088E+00
 -1       431 1.04884E+00
 -1       432 2.37544E+00
 -1       433 2.66024E+00
 -1       434 3.31672E+00
 -1       435 5.66058E+00
 -1       436 5.66058E+00
 -1       437 4.96617E+00
 -1       438 3.13756E+00
 -1       439 2.42110E+00
 -1       440 2.12081E+00
 -1       441 1.82753E+00
 -1       442 2.93556E+01
 -1       443 3.38163E+01
 -1       444 2.97816E+01
 -1       445 1.66276E+01
 -1       446 8.83166E+00
 -1       447 9.11011E-01
 -1       448 1.05120E+01
 -1       449 1.09450E+01
 -1       450 8.97789E+00
 -1       451 8.86929E+00
 -1       452 7.19254E+00
 -1       453 1.17728E+01
 -1       454 2.05357E+01
 -1       455 2.43816E+01
 -1       456 3.30365E+01
 -1       457 3.30365E+01
 -1       458 2.22331E+01
 -1       459 2.54061E+01
 -1       460 1.42432E+01
 -1       461 8.10955E+00
 -1       462 7.73479E+00
 -1       463 1.02037E+01
 -1       464 1.07982E+01
 -1       465 1.10166E+01
 -1       466 9.58589E+00
 -1       467 6.63694E+00
 -1       468 9.97672E+00
 -1       469 1.76611E+01
 -1       470 2.97744E+01
 -1       471 3.38163E+01
 -1       472 7.48715E+00
 -1       473 1.12816E+01
 -1       474 9.42621E+00
 -1       475 1.04754E+00
 -1       476 4.86655E-01
 -1       477 5.14660E-01
 -1       478 4.31640E-01
 -1       479 4.57542E-01
 -1       480 4.87199E-01
 -1       481 5.11351E-01
 -1       482 5.11351E-01
 -1       483 6.09372E-01
 -1       484 8.90940E-01
 -1       485 8.03079E-01
 -1       486 4.01359E+00
 -1       487 7.01860E-01
 -1       488 5.88593E-01
 -1       489 4.76178E-01
 -1       490 3.77480E-01
 -1       491 3.22608E-01
 -1       492 2.72573E-01
 -1       493 2.25270E-01
 -1       494 1.86790E-01
 -1       495 1.53237E-01
 -1       496 1.24058E-01
 -1       497 9.94953E-02
 -1       498 7.98483E-02
 -1       499 6.40635E-02
 -1       500 5.07237E-02
 -1       501 4.15246E-02
 -1       502 3.62298E-02
 -1       503 4.02709E-02
 -1       504 5.04787E-02
 -1       505 7.10275E-02
 -1       506 1.05621E-01
 -1       507 1.50430E-01
 -1       508 2.07722E-01
 -1       509 2.79656E-01
 -1       510 3.67914E-01
 -1       511 4.73087E-01
 -1       512 5.93713E-01
 -1       513 7.24893E-01
 -1       514 8.56499E-01
 -1       515 9.74550E-01
 -1       516 1.07148E+00
 -1       517 1.22284E+00
 -1       518 1.36429E+00
 -1       519 1.43193E+00
 -1       520 1.78787E+00
 -1       521 2.04640E+00
 -1       522 2.56984E+00
 -1       523 3.00762E+00
 -1       524 4.20541E+00
 -1       525 4.32324E+00
 -1       526 3.56664E+00
 -1       527 2.91403E+00
 -1       528 2.79959E+00
 -1       529 2.57937E+00
 -1       530 5.44599E-01
 -1       531 4.37310E-01
 -1       532 3.70741E-01
 -1       533 3.06919E-01
 -1       534 2.51435E-01
 -1       535 2.06823E-01
 -1       536 1.67732E-01
 -1       537 1.34421E-01
 -1       538 1.08973E-01
 -1       539 8.81319E-02
 -1       540 7.07032E-02
 -1       541 5.63040E-02
 -1       542 4.44874E-02
 -1       543 3.98839E-02
 -1       544 4.05333E-02
 -1       545 5.06717E-02
 -1       546 6.53945E-02
 -1       547 9.33654E-02
 -1       548 1.34561E-01
 -1       549 1.87087E-01
 -1       550 2.52485E-01
 -1       551 3.31481E-01
 -1       552 4.23242E-01
 -1       553 5.24315E-01
 -1       554 6.27230E-01
 -1       555 7.18952E-01
 -1       556 8.06558E-01
 -1       557 8.69347E-01
 -1       558 9.10008E-01
 -1       559 9.03385E-01
 -1       560 9.05693E-01
 -1       561 1.09564E+00
 -1       562 1.44215E+00
 -1       563 2.08097E+00
 -1       564 2.50915E+00
 -1       565 2.98987E+00
 -1       566 2.91102E+00
 -1       567 2.97544E+00
 -1       568 2.57216E+00
 -1       569 2.53427E+00
 -1       570 2.88278E+00
 -1       571 2.87591E+00
 -1       572 3.70855E+00
 -1       573 5.66928E+00
 -1       574 2.87591E+00
 -1       575 2.70253E+00
 -1       576 6.58835E+00
 -1       577 8.79726E+00
 -1       578 8.79726E+00
 -1       579 8.33851E+00
 -1       580 4.71735E+00
 -1       581 3.29051E+00
 -1       582 1.82753E+00
 -1       583 2.97816E+01
 -1       584 1.35605E+01
 -1       585 7.03400E-01
 -1       586 3.38163E+01
 -1       587 2.11573E+01
 -1       588 8.72040E-01
 -1       589 1.94486E+01
 -1       590 7.47977E+00
 -1       591 4.42458E+00
 -1       592 4.57418E-01
 -1       593 6.37419E+00
 -1       594 8.20566E+00
 -1       595 8.30965E+00
 -1       596 4.10383E+00
 -1       597 7.78576E+00
 -1       598 1.51396E+01
 -1       599 2.43816E+01
 -1       600 3.30365E+01
 -1       601 2.21677E+01
 -1       602 1.81200E+01
 -1       603 1.23170E+01
 -1       604 8.35735E+00
 -1       605 5.21671E+00
 -1       606 5.41032E+00
 -1       607 6.95496E+00
 -1       608 4.97710E+00
 -1       609 8.26235E+00
 -1       610 1.32511E+01
 -1       611 5.47445E+00
 -1       612 1.32795E+00
 -1       613 7.47465E+00
 -1       614 8.24829E+00
 -1       615 5.31256E-01
 -1       616 4.71515E+00
 -1       617 2.18269E+01
 -1       618 1.39466E+01
 -1       619 8.84364E+00
 -1       620 1.95817E+00
 -1       621 3.58475E-01
 -1       622 3.42773E-01
 -1       623 3.61877E-01
 -1       624 3.38010E-01
 -1       625 5.43932E-01
 -1       626 1.10791E+01
 -1       627 1.55980E+01
 -1       628 1.13157E+01
 -1       629 3.96902E-01
 -1       630 3.84068E-01
 -1       631 3.43010E-01
 -1       632 2.93430E-01
 -1       633 2.43852E-01
 -1       634 2.12636E-01
 -1       635 1.80221E-01
 -1       636 1.49317E-01
 -1       637 1.21447E-01
 -1       638 9.85148E-02
 -1       639 7.98483E-02
 -1       640 6.40635E-02
 -1       641 5.05840E-02
 -1       642 3.98526E-02
 -1       643 3.07849E-02
 -1       644 2.76454E-02
 -1       645 3.35439E-02
 -1       646 5.58637E-02
 -1       647 8.43082E-02
 -1       648 1.20548E-01
 -1       649 1.66567E-01
 -1       650 2.24488E-01
 -1       651 2.96497E-01
 -1       652 3.84712E-01
 -1       653 4.90994E-01
 -1       654 6.17281E-01
 -1       655 7.67491E-01
 -1       656 9.31310E-01
 -1       657 1.10029E+00
 -1       658 1.27195E+00
 -1       659 1.55315E+00
 -1       660 1.93586E+00
 -1       661 2.35728E+00
 -1       662 3.19799E+00
 -1       663 2.97270E+00
 -1       664 2.56984E+00
 -1       665 4.20541E+00
 -1       666 7.23013E+00
 -1       667 4.32324E+00
 -1       668 3.56664E+00
 -1       669 3.63147E+00
 -1       670 3.64224E+00
 -1       671 3.27538E-01
 -1       672 2.88278E+00
 -1       673 3.96118E-01
 -1       674 2.33274E-01
 -1       675 1.96155E-01
 -1       676 1.62118E-01
 -1       677 1.34314E-01
 -1       678 1.09634E-01
 -1       679 8.84373E-02
 -1       680 7.07032E-02
 -1       681 5.63040E-02
 -1       682 4.43490E-02
 -1       683 3.59063E-02
 -1       684 3.08814E-02
 -1       685 3.72431E-02
 -1       686 5.14196E-02
 -1       687 7.88627E-02
 -1       688 1.13814E-01
 -1       689 1.58027E-01
 -1       690 2.13183E-01
 -1       691 2.80669E-01
 -1       692 3.61217E-01
 -1       693 4.54363E-01
 -1       694 5.57676E-01
 -1       695 6.65723E-01
 -1       696 7.72170E-01
 -1       697 8.56607E-01
 -1       698 9.92447E-01
 -1       699 1.14890E+00
 -1       700 1.27059E+00
 -1       701 1.49359E+00
 -1       702 1.90484E+00
 -1       703 2.07511E+00
 -1       704 2.64039E+00
 -1       705 3.35820E+00
 -1       706 5.31082E+00
 -1       707 4.31061E+00
 -1       708 3.15982E+00
 -1       709 3.02956E+00
 -1       710 2.88278E+00
 -1       711 9.91931E+00
 -1       712 2.57937E+00
 -1       713 5.85311E+00
 -1       714 1.29215E+01
 -1       715 1.01219E+01
 -1       716 1.13157E+01
 -1       717 5.10541E+00
 -1       718 4.85688E+00
 -1       719 4.57318E+00
 -1       720 1.12061E+01
 -1       721 5.31256E-01
 -1       722 4.09647E+00
 -1       723 4.63764E-01
 -1       724 2.73017E-01
 -1       725 4.02435E-01
 -1       726 3.63147E+00
 -1       727 5.14966E-01
 -1       728 2.96764E+00
 -1       729 9.14243E+00
 -1       730 3.61877E-01
 -1       731 3.58980E-01
 -1       732 5.09410E+00
 -1       733 2.83066E+00
 -1       734 6.54686E+00
 -1       735 1.54896E+01
 -1       736 1.27103E+01
 -1       737 4.64969E+00
 -1       738 4.53746E+00
 -1       739 7.34269E+00
 -1       740 7.87124E+00
 -1       741 6.33945E+00
 -1       742 3.41368E+00
 -1       743 3.78762E-01
 -1       744 3.42277E-01
 -1       745 3.21725E+00
 -1       746 3.26757E+00
 -1       747 1.47695E+01
 -1       748 9.24099E+00
 -1       749 3.57415E-01
 -1       750 5.03402E+00
 -1       751 1.10653E+01
 -1       752 5.85608E+00
 -1       753 5.54274E+00
 -1       754 2.41889E-01
 -1       755 2.55292E-01
 -1       756 2.48400E-01
 -1       757 2.26716E-01
 -1       758 1.98432E-01
 -1       759 1.71797E-01
 -1       760 1.50650E-01
 -1       761 1.28404E-01
 -1       762 1.06924E-01
 -1       763 8.72060E-02
 -1       764 6.96293E-02
 -1       765 5.41374E-02
 -1       766 4.03742E-02
 -1       767 2.77654E-02
 -1       768 1.77193E-02
 -1       769 2.06012E-02
 -1       770 3.85678E-02
 -1       771 6.21034E-02
 -1       772 9.21730E-02
 -1       773 1.32631E-01
 -1       774 1.84794E-01
 -1       775 2.50690E-01
 -1       776 3.32493E-01
 -1       777 4.31831E-01
 -1       778 5.49037E-01
 -1       779 6.81794E-01
 -1       780 8.34871E-01
 -1       781 1.04648E+00
 -1       782 1.34130E+00
 -1       783 1.74613E+00
 -1       784 2.20070E+00
 -1       785 2.77265E+00
 -1       786 3.70762E+00
 -1       787 4.16394E+00
 -1       788 2.86378E-01
 -1       789 1.63134E-01
 -1       790 1.88768E-01
 -1       791 1.13304E-01
 -1       792 9.17021E-02
 -1       793 7.28152E-02
 -1       794 5.64687E-02
 -1       795 4.31943E-02
 -1       796 3.26012E-02
 -1       797 2.26062E-02
 -1       798 2.22854E-02
 -1       799 3.62069E-02
 -1       800 5.82898E-02
 -1       801 8.59135E-02
 -1       802 1.20651E-01
 -1       803 1.64218E-01
 -1       804 2.18457E-01
 -1       805 2.85304E-01
 -1       806 3.69474E-01
 -1       807 4.72223E-01
 -1       808 5.92728E-01
 -1       809 7.28958E-01
 -1       810 8.73905E-01
 -1       811 1.04030E+00
 -1       812 1.23049E+00
 -1       813 1.57671E+00
 -1       814 1.95021E+00
 -1       815 2.63822E+00
 -1       816 3.20714E+00
 -1       817 2.78245E+00
 -1       818 2.87890E-01
 -1       819 4.45479E+00
 -1       820 8.73805E+00
 -1       821 3.05537E-01
 -1       822 1.07525E+01
 -1       823 2.82709E-01
 -1       824 1.06032E+01
 -1       825 4.65026E+00
 -1       826 1.37396E-01
 -1       827 7.68299E+00
 -1       828 5.33183E+00
 -1       829 2.32423E-01
 -1       830 3.15982E+00
 -1       831 7.25348E+00
 -1       832 4.25727E+00
 -1       833 3.23209E+00
 -1       834 2.81701E-01
 -1       835 2.60288E-01
 -1       836 2.17232E-01
 -1       837 2.53908E-01
 -1       838 6.33945E+00
 -1       839 2.80472E-01
 -1       840 3.02956E+00
 -1       841 7.64871E+00
 -1       842 2.87608E-01
 -1       843 2.70056E-01
 -1       844 2.87890E-01
 -1       845 2.85096E-01
 -1       846 6.55259E+00
 -1       847 7.55395E+00
 -1       848 1.82545E-01
 -1       849 1.75281E-01
 -1       850 1.59604E-01
 -1       851 1.39981E-01
 -1       852 1.23378E-01
 -1       853 1.06950E-01
 -1       854 9.02596E-02
 -1       855 7.43689E-02
 -1       856 5.97676E-02
 -1       857 4.65406E-02
 -1       858 3.44938E-02
 -1       859 2.67293E-02
 -1       860 2.89205E-02
 -1       861 3.71697E-02
 -1       862 5.82552E-02
 -1       863 8.71218E-02
 -1       864 1.24277E-01
 -1       865 1.71848E-01
 -1       866 2.32254E-01
 -1       867 3.08230E-01
 -1       868 4.02869E-01
 -1       869 5.19648E-01
 -1       870 6.62383E-01
 -1       871 8.34871E-01
 -1       872 1.03965E+00
 -1       873 1.28636E+00
 -1       874 1.72451E+00
 -1       875 2.53812E+00
 -1       876 5.16934E+00
 -1       877 1.52173E-01
 -1       878 8.00515E-02
 -1       879 9.75814E-02
 -1       880 4.98870E-02
 -1       881 3.69942E-02
 -1       882 2.49888E-02
 -1       883 2.38406E-02
 -1       884 2.97468E-02
 -1       885 4.95017E-02
 -1       886 7.50368E-02
 -1       887 1.08868E-01
 -1       888 1.51757E-01
 -1       889 2.05457E-01
 -1       890 2.71583E-01
 -1       891 3.51344E-01
 -1       892 4.45085E-01
 -1       893 5.51464E-01
 -1       894 6.65950E-01
 -1       895 8.26304E-01
 -1       896 1.03881E+00
 -1       897 1.37070E+00
 -1       898 1.77312E+00
 -1       899 2.24438E+00
 -1       900 3.21140E+00
 -1       901 6.86183E+00
 -1       902 2.75310E+00
 -1       903 2.07667E-01
 -1       904 1.74608E-01
 -1       905 7.62808E+00
 -1       906 2.87608E-01
 -1       907 5.77746E+00
 -1       908 3.59052E+00
 -1       909 2.09475E-01
 -1       910 6.41396E-02
 -1       911 1.42280E-01
 -1       912 2.06030E-01
 -1       913 1.63943E-01
 -1       914 5.49498E+00
 -1       915 1.35072E-01
 -1       916 1.75873E-01
 -1       917 1.16258E-01
 -1       918 1.96555E-01
 -1       919 7.12398E+00
 -1       920 1.80563E-01
 -1       921 2.18302E-01
 -1       922 2.16708E-01
 -1       923 2.16708E-01
 -1       924 1.35387E-01
 -1       925 1.26609E-01
 -1       926 1.13352E-01
 -1       927 9.81686E-02
 -1       928 8.56753E-02
 -1       929 7.27563E-02
 -1       930 6.02758E-02
 -1       931 4.86727E-02
 -1       932 3.81112E-02
 -1       933 3.29797E-02
 -1       934 3.45806E-02
 -1       935 3.90164E-02
 -1       936 5.01152E-02
 -1       937 7.40939E-02
 -1       938 1.05013E-01
 -1       939 1.44705E-01
 -1       940 1.95357E-01
 -1       941 2.59652E-01
 -1       942 3.41047E-01
 -1       943 4.44294E-01
 -1       944 5.76390E-01
 -1       945 7.48125E-01
 -1       946 9.76198E-01
 -1       947 1.28636E+00
 -1       948 1.73549E+00
 -1       949 2.60007E+00
 -1       950 4.43406E+00
 -1       951 3.12129E-02
 -1       952 8.04603E-02
 -1       953 3.09381E-02
 -1       954 4.17856E-02
 -1       955 3.45463E-02
 -1       956 4.45168E-02
 -1       957 6.77595E-02
 -1       958 9.76553E-02
 -1       959 1.35815E-01
 -1       960 1.84141E-01
 -1       961 2.44760E-01
 -1       962 3.20045E-01
 -1       963 4.12676E-01
 -1       964 5.25712E-01
 -1       965 6.62591E-01
 -1       966 8.26304E-01
 -1       967 1.01530E+00
 -1       968 1.31169E+00
 -1       969 1.83979E+00
 -1       970 2.24438E+00
 -1       971 3.74415E+00
 -1       972 1.44650E-01
 -1       973 1.23035E-01
 -1       974 1.46682E-01
 -1       975 5.53800E+00
 -1       976 1.93802E-01
 -1       977 2.18302E-01
 -1       978 1.87183E-01
 -1       979 1.35986E-01
 -1       980 5.36234E-02
 -1       981 1.24835E-01
 -1       982 1.40704E-01
 -1       983 9.50704E-02
 -1       984 1.87183E-01
 -1       985 1.55508E-01
 -1       986 6.64465E-02
 -1       987 4.42552E+00
 -1       988 1.56200E-01
 -1       989 1.55616E-01
 -1       990 4.31293E+00
 -1       991 3.66683E+00
 -1       992 3.65378E+00
 -1       993 1.09136E-01
 -1       994 9.78847E-02
 -1       995 8.85455E-02
 -1       996 7.72994E-02
 -1       997 6.55704E-02
 -1       998 5.53159E-02
 -1       999 4.59908E-02
 -1      1000 3.92514E-02
 -1      1001 3.67331E-02
 -1      1002 3.74610E-02
 -1      1003 4.10509E-02
 -1      1004 4.79356E-02
 -1      1005 6.11435E-02
 -1      1006 8.01539E-02
 -1      1007 1.09980E-01
 -1      1008 1.48188E-01
 -1      1009 1.96863E-01
 -1      1010 2.58779E-01
 -1      1011 3.37936E-01
 -1      1012 4.40658E-01
 -1      1013 5.77824E-01
 -1      1014 7.69488E-01
 -1      1015 1.04699E+00
 -1      1016 1.48007E+00
 -1      1017 2.32572E+00
 -1      1018 4.33470E-02
 -1      1019 3.53855E-02
 -1      1020 3.55035E-02
 -1      1021 5.52319E-02
 -1      1022 7.91579E-02
 -1      1023 1.10036E-01
 -1      1024 1.49639E-01
 -1      1025 2.00123E-01
 -1      1026 2.64219E-01
 -1      1027 3.45562E-01
 -1      1028 4.49329E-01
 -1      1029 5.83359E-01
 -1      1030 7.60276E-01
 -1      1031 1.00133E+00
 -1      1032 1.31169E+00
 -1      1033 2.13468E+00
 -1      1034 3.99274E+00
 -1      1035 1.52268E-01
 -1      1036 8.96648E-02
 -1      1037 1.55616E-01
 -1      1038 1.01843E-01
 -1      1039 1.03243E-01
 -1      1040 1.06377E-01
 -1      1041 3.99274E+00
 -1      1042 1.07263E-01
 -1      1043 3.78382E-02
 -1      1044 1.10443E-01
 -1      1045 5.71078E-02
 -1      1046 9.94720E-02
 -1      1047 7.34387E-02
 -1      1048 1.07263E-01
 -1      1049 1.04785E-01
 -1      1050 6.28367E-02
 -1      1051 7.21368E-02
 -1      1052 6.51064E-02
 -1      1053 8.05937E-02
 -1      1054 5.48908E-02
 -1      1055 4.70315E-02
 -1      1056 5.76369E-02
 -1      1057 3.92514E-02
 -1      1058 3.74610E-02
 -1      1059 4.10509E-02
 -1      1060 4.79356E-02
 -1      1061 6.09757E-02
 -1      1062 7.90926E-02
 -1      1063 1.03235E-01
 -1      1064 1.34525E-01
 -1      1065 1.74328E-01
 -1      1066 2.24404E-01
 -1      1067 2.87215E-01
 -1      1068 3.66557E-01
 -1      1069 4.68794E-01
 -1      1070 6.05356E-01
 -1      1071 7.98245E-01
 -1      1072 1.11733E+00
 -1      1073 5.40763E-02
 -1      1074 8.44789E-02
 -1      1075 3.78382E-02
 -1      1076 9.14261E-02
 -1      1077 1.19417E-01
 -1      1078 1.55091E-01
 -1      1079 1.99800E-01
 -1      1080 2.55247E-01
 -1      1081 3.35634E-01
 -1      1082 4.43158E-01
 -1      1083 5.90331E-01
 -1      1084 7.99793E-01
 -1      1085 1.11898E+00
 -1      1086 1.69992E+00
 -1      1087 2.81929E+00
 -1      1088 9.36179E-02
 -1      1089 1.17306E-01
 -1      1090 6.57522E-02
 -1      1091 5.92740E-02
 -1      1092 2.58172E+00
 -1      1093 1.16674E-01
 -1      1094 8.13921E-02
 -1      1095 3.59138E-02
 -1      1096 4.98588E-02
 -1      1097 6.99765E-02
 -1      1098 4.33470E-02
 -1      1099 1.87463E+00
 -1      1100 5.76369E-02
 -1      1101 5.56819E-02
 -1      1102 7.78279E-02
 -1      1103 8.85013E-02
 -1      1104 8.46262E-02
 -1      1105 8.05937E-02
 -1      1106 8.05937E-02
 -1      1107 5.76369E-02
 -1      1108 8.74723E-02
 -1      1109 5.92740E-02
 -1      1110 9.36179E-02
 -1      1111 7.83908E-02
 -1      1112 6.68832E-02
 -1      1113 1.31433E+01
 -1      1114 8.40350E+00
 -1      1115 2.74445E+00
 -1      1116 1.55724E+00
 -1      1117 1.16787E+00
 -1      1118 9.73238E-01
 -1      1119 8.54469E-01
 -1      1120 7.81380E-01
 -1      1121 7.54841E-01
 -1      1122 7.84503E-01
 -1      1123 8.57036E-01
 -1      1124 9.76793E-01
 -1      1125 1.18028E+00
 -1      1126 1.57188E+00
 -1      1127 2.67070E+00
 -1      1128 6.07335E+00
 -1      1129 1.13401E+01
 -1      1130 1.31433E+01
 -1      1131 8.73043E+00
 -1      1132 3.82903E+00
 -1      1133 2.72576E+00
 -1      1134 1.73667E+00
 -1      1135 1.18810E+00
 -1      1136 8.94366E-01
 -1      1137 6.84931E-01
 -1      1138 5.24881E-01
 -1      1139 4.01009E-01
 -1      1140 3.07840E-01
 -1      1141 2.36750E-01
 -1      1142 1.80150E-01
 -1      1143 1.36037E-01
 -1      1144 1.02540E-01
 -1      1145 7.79880E-02
 -1      1146 6.09352E-02
 -1      1147 5.01611E-02
 -1      1148 4.69265E-02
 -1      1149 5.22789E-02
 -1      1150 6.32796E-02
 -1      1151 7.74561E-02
 -1      1152 9.58594E-02
 -1      1153 1.25828E-01
 -1      1154 1.70132E-01
 -1      1155 2.26060E-01
 -1      1156 2.94182E-01
 -1      1157 3.73795E-01
 -1      1158 4.61917E-01
 -1      1159 5.57444E-01
 -1      1160 7.00988E-01
 -1      1161 8.95213E-01
 -1      1162 1.12640E+00
 -1      1163 1.37602E+00
 -1      1164 1.55656E+00
 -1      1165 1.64574E+00
 -1      1166 1.72521E+00
 -1      1167 1.88808E+00
 -1      1168 2.34016E+00
 -1      1169 3.68367E+00
 -1      1170 5.38363E+00
 -1      1171 6.08110E+00
 -1      1172 5.95690E+00
 -1      1173 5.66944E+00
 -1      1174 4.74666E+00
 -1      1175 3.14581E+00
 -1      1176 1.73447E+00
 -1      1177 9.15078E-01
 -1      1178 4.99580E-01
 -1      1179 2.39946E-01
 -1      1180 1.40390E+01
 -1      1181 8.71680E+00
 -1      1182 2.90377E+00
 -1      1183 2.03932E+00
 -1      1184 1.40513E+00
 -1      1185 1.02521E+00
 -1      1186 8.18490E-01
 -1      1187 6.59384E-01
 -1      1188 5.27828E-01
 -1      1189 4.18231E-01
 -1      1190 3.31301E-01
 -1      1191 2.63239E-01
 -1      1192 2.06803E-01
 -1      1193 1.60790E-01
 -1      1194 1.24336E-01
 -1      1195 9.64707E-02
 -1      1196 7.62549E-02
 -1      1197 6.28526E-02
 -1      1198 5.77095E-02
 -1      1199 6.30474E-02
 -1      1200 7.65660E-02
 -1      1201 9.54884E-02
 -1      1202 1.19552E-01
 -1      1203 1.48188E-01
 -1      1204 1.80247E-01
 -1      1205 2.22278E-01
 -1      1206 2.81185E-01
 -1      1207 3.51756E-01
 -1      1208 4.26324E-01
 -1      1209 4.96974E-01
 -1      1210 5.50657E-01
 -1      1211 5.87934E-01
 -1      1212 7.07575E-01
 -1      1213 9.09520E-01
 -1      1214 1.07238E+00
 -1      1215 1.30753E+00
 -1      1216 1.61123E+00
 -1      1217 1.82574E+00
 -1      1218 2.14365E+00
 -1      1219 2.73295E+00
 -1      1220 3.66431E+00
 -1      1221 4.32303E+00
 -1      1222 4.48974E+00
 -1      1223 4.57563E+00
 -1      1224 4.16533E+00
 -1      1225 3.12528E+00
 -1      1226 1.99452E+00
 -1      1227 1.15609E+00
 -1      1228 6.11906E-01
 -1      1229 2.63110E-01
 -1      1230 1.68313E-01
 -1      1231 3.26433E-01
 -1      1232 5.77397E-01
 -1      1233 8.19770E-01
 -1      1234 9.22058E-01
 -1      1235 9.06024E-01
 -1      1236 8.12177E-01
 -1      1237 1.13400E+00
 -1      1238 1.53364E+00
 -1      1239 1.40161E+00
 -1      1240 9.66765E-01
 -1      1241 8.00126E-01
 -1      1242 9.36301E-01
 -1      1243 8.79558E-01
 -1      1244 6.64130E-01
 -1      1245 4.57712E-01
 -1      1246 2.78204E-01
 -1      1247 2.47643E+01
 -1      1248 3.60774E+01
 -1      1249 4.77940E+01
 -1      1250 3.42145E+01
 -1      1251 1.63143E+01
 -1      1252 1.21377E+01
 -1      1253 1.28115E+01
 -1      1254 1.33412E+01
 -1      1255 1.31010E+01
 -1      1256 1.30882E+01
 -1      1257 2.20750E+01
 -1      1258 3.13112E+01
 -1      1259 2.97175E+01
 -1      1260 2.59309E+01
 -1      1261 2.43769E+01
 -1      1262 2.45390E+01
 -1      1263 3.38085E+01
 -1      1264 4.30779E+01
 -1      1265 2.94094E+01
 -1      1266 1.38011E+01
 -1      1267 1.20289E+01
 -1      1268 1.21964E+01
 -1      1269 1.22124E+01
 -1      1270 1.22285E+01
 -1      1271 1.21783E+01
 -1      1272 1.77366E+01
 -1      1273 3.60771E+01
 -1      1274 4.88092E+01
 -1      1275 3.69885E+01
 -1      1276 2.51678E+01
 -1      1277 1.31433E+01
 -1      1278 4.87071E+00
 -1      1279 9.61051E+00
 -1      1280 2.06208E+00
 -1      1281 2.98133E+00
 -1      1282 4.18835E+00
 -1      1283 1.39854E+00
 -1      1284 1.66648E+00
 -1      1285 1.90337E+00
 -1      1286 1.10225E+00
 -1      1287 1.22367E+00
 -1      1288 1.33292E+00
 -1      1289 9.36833E-01
 -1      1290 1.01004E+00
 -1      1291 1.06584E+00
 -1      1292 8.36762E-01
 -1      1293 8.82327E-01
 -1      1294 9.19126E-01
 -1      1295 7.74944E-01
 -1      1296 8.02469E-01
 -1      1297 8.30327E-01
 -1      1298 7.55827E-01
 -1      1299 7.54841E-01
 -1      1300 7.75930E-01
 -1      1301 8.06323E-01
 -1      1302 7.77646E-01
 -1      1303 7.77646E-01
 -1      1304 8.84081E-01
 -1      1305 8.40224E-01
 -1      1306 8.33367E-01
 -1      1307 1.01689E+00
 -1      1308 9.40987E-01
 -1      1309 9.24174E-01
 -1      1310 1.24023E+00
 -1      1311 1.11264E+00
 -1      1312 1.07684E+00
 -1      1313 1.68179E+00
 -1      1314 1.41778E+00
 -1      1315 1.35014E+00
 -1      1316 2.88321E+00
 -1      1317 2.04840E+00
 -1      1318 1.89430E+00
 -1      1319 6.28616E+00
 -1      1320 3.71832E+00
 -1      1321 3.09602E+00
 -1      1322 1.40390E+01
 -1      1323 1.13401E+01
 -1      1324 8.98507E+00
 -1      1325 1.40390E+01
 -1      1326 8.73043E+00
 -1      1327 4.31757E+00
 -1      1328 3.82903E+00
 -1      1329 3.34049E+00
 -1      1330 3.82903E+00
 -1      1331 2.72576E+00
 -1      1332 2.11102E+00
 -1      1333 2.72576E+00
 -1      1334 1.77897E+00
 -1      1335 1.40461E+00
 -1      1336 1.77897E+00
 -1      1337 1.19376E+00
 -1      1338 1.01953E+00
 -1      1339 1.23605E+00
 -1      1340 8.94366E-01
 -1      1341 7.74854E-01
 -1      1342 9.00022E-01
 -1      1343 6.84931E-01
 -1      1344 5.95007E-01
 -1      1345 6.84931E-01
 -1      1346 5.31303E-01
 -1      1347 4.61177E-01
 -1      1348 5.31303E-01
 -1      1349 4.11144E-01
 -1      1350 3.57399E-01
 -1      1351 4.17566E-01
 -1      1352 3.18443E-01
 -1      1353 2.79019E-01
 -1      1354 3.28578E-01
 -1      1355 2.50684E-01
 -1      1356 2.19018E-01
 -1      1357 2.61287E-01
 -1      1358 1.95007E-01
 -1      1359 1.70074E-01
 -1      1360 2.08941E-01
 -1      1361 1.50307E-01
 -1      1362 1.31127E-01
 -1      1363 1.65164E-01
 -1      1364 1.15294E-01
 -1      1365 1.00977E-01
 -1      1366 1.29564E-01
 -1      1367 8.86564E-02
 -1      1368 7.84214E-02
 -1      1369 1.01410E-01
 -1      1370 6.91539E-02
 -1      1371 6.23362E-02
 -1      1372 7.98223E-02
 -1      1373 5.56567E-02
 -1      1374 5.17003E-02
 -1      1375 6.38754E-02
 -1      1376 4.71554E-02
 -1      1377 4.78771E-02
 -1      1378 5.26510E-02
 -1      1379 4.76482E-02
 -1      1380 5.22789E-02
 -1      1381 4.78771E-02
 -1      1382 5.69095E-02
 -1      1383 6.32796E-02
 -1      1384 5.22789E-02
 -1      1385 6.96498E-02
 -1      1386 7.74561E-02
 -1      1387 6.32796E-02
 -1      1388 8.66706E-02
 -1      1389 9.72676E-02
 -1      1390 7.88643E-02
 -1      1391 1.11915E-01
 -1      1392 1.31286E-01
 -1      1393 1.02726E-01
 -1      1394 1.50098E-01
 -1      1395 1.75031E-01
 -1      1396 1.36185E-01
 -1      1397 1.98359E-01
 -1      1398 2.29354E-01
 -1      1399 1.78324E-01
 -1      1400 2.57248E-01
 -1      1401 2.94375E-01
 -1      1402 2.29547E-01
 -1      1403 3.35716E-01
 -1      1404 3.78202E-01
 -1      1405 2.98782E-01
 -1      1406 4.37005E-01
 -1      1407 4.82640E-01
 -1      1408 3.98925E-01
 -1      1409 5.51606E-01
 -1      1410 6.01497E-01
 -1      1411 5.26693E-01
 -1      1412 6.77084E-01
 -1      1413 7.70737E-01
 -1      1414 6.71245E-01
 -1      1415 8.45179E-01
 -1      1416 9.45752E-01
 -1      1417 8.21275E-01
 -1      1418 1.01985E+00
 -1      1419 1.15047E+00
 -1      1420 9.69816E-01
 -1      1421 1.25702E+00
 -1      1422 1.37602E+00
 -1      1423 1.15047E+00
 -1      1424 1.49503E+00
 -1      1425 1.55656E+00
 -1      1426 1.37602E+00
 -1      1427 1.61809E+00
 -1      1428 1.64574E+00
 -1      1429 1.55656E+00
 -1      1430 1.67339E+00
 -1      1431 1.72521E+00
 -1      1432 1.64574E+00
 -1      1433 1.77703E+00
 -1      1434 1.88808E+00
 -1      1435 1.72521E+00
 -1      1436 1.99913E+00
 -1      1437 2.34016E+00
 -1      1438 1.88808E+00
 -1      1439 2.81605E+00
 -1      1440 3.81853E+00
 -1      1441 2.47502E+00
 -1      1442 4.68616E+00
 -1      1443 5.38363E+00
 -1      1444 3.81853E+00
 -1      1445 6.08110E+00
 -1      1446 6.08110E+00
 -1      1447 5.38363E+00
 -1      1448 5.95690E+00
 -1      1449 5.83270E+00
 -1      1450 5.95690E+00
 -1      1451 5.66944E+00
 -1      1452 5.50618E+00
 -1      1453 5.66944E+00
 -1      1454 4.74666E+00
 -1      1455 3.98714E+00
 -1      1456 4.74666E+00
 -1      1457 3.39819E+00
 -1      1458 2.55686E+00
 -1      1459 3.39819E+00
 -1      1460 2.04753E+00
 -1      1461 1.47752E+00
 -1      1462 2.29991E+00
 -1      1463 1.19295E+00
 -1      1464 9.43565E-01
 -1      1465 1.50601E+00
 -1      1466 7.36787E-01
 -1      1467 5.70670E-01
 -1      1468 1.01466E+00
 -1      1469 3.71721E-01
 -1      1470 6.08929E-01
 -1      1471 3.39461E+00
 -1      1472 8.71680E+00
 -1      1473 8.71680E+00
 -1      1474 2.41294E+00
 -1      1475 2.90377E+00
 -1      1476 2.90377E+00
 -1      1477 1.66570E+00
 -1      1478 2.03932E+00
 -1      1479 2.03932E+00
 -1      1480 1.14457E+00
 -1      1481 1.40513E+00
 -1      1482 1.40513E+00
 -1      1483 9.05847E-01
 -1      1484 1.02521E+00
 -1      1485 1.02521E+00
 -1      1486 7.31133E-01
 -1      1487 8.18490E-01
 -1      1488 8.18490E-01
 -1      1489 5.87635E-01
 -1      1490 6.59384E-01
 -1      1491 6.59384E-01
 -1      1492 4.68020E-01
 -1      1493 5.27828E-01
 -1      1494 5.27828E-01
 -1      1495 3.68443E-01
 -1      1496 4.18231E-01
 -1      1497 4.18231E-01
 -1      1498 2.94160E-01
 -1      1499 3.31301E-01
 -1      1500 3.31301E-01
 -1      1501 2.32318E-01
 -1      1502 2.63239E-01
 -1      1503 2.63239E-01
 -1      1504 1.82751E-01
 -1      1505 2.08267E-01
 -1      1506 2.08267E-01
 -1      1507 1.42732E-01
 -1      1508 1.63229E-01
 -1      1509 1.64693E-01
 -1      1510 1.11157E-01
 -1      1511 1.27114E-01
 -1      1512 1.29553E-01
 -1      1513 8.72129E-02
 -1      1514 9.91204E-02
 -1      1515 1.01899E-01
 -1      1516 7.00993E-02
 -1      1517 7.84077E-02
 -1      1518 8.10573E-02
 -1      1519 5.90923E-02
 -1      1520 6.41862E-02
 -1      1521 6.63390E-02
 -1      1522 5.66262E-02
 -1      1523 5.66754E-02
 -1      1524 5.80091E-02
 -1      1525 6.54237E-02
 -1      1526 6.00366E-02
 -1      1527 5.90025E-02
 -1      1528 7.91821E-02
 -1      1529 7.10507E-02
 -1      1530 6.80398E-02
 -1      1531 9.76193E-02
 -1      1532 8.68282E-02
 -1      1533 8.13130E-02
 -1      1534 1.20264E-01
 -1      1535 1.06992E-01
 -1      1536 9.83321E-02
 -1      1537 1.48188E-01
 -1      1538 1.32824E-01
 -1      1539 1.20264E-01
 -1      1540 1.84240E-01
 -1      1541 1.67545E-01
 -1      1542 1.52181E-01
 -1      1543 2.33659E-01
 -1      1544 2.08323E-01
 -1      1545 1.95621E-01
 -1      1546 2.94820E-01
 -1      1547 2.61248E-01
 -1      1548 2.47293E-01
 -1      1549 3.61612E-01
 -1      1550 3.24613E-01
 -1      1551 3.04676E-01
 -1      1552 4.28945E-01
 -1      1553 3.91377E-01
 -1      1554 3.64234E-01
 -1      1555 4.96974E-01
 -1      1556 4.63892E-01
 -1      1557 4.28945E-01
 -1      1558 5.50657E-01
 -1      1559 5.30056E-01
 -1      1560 4.96974E-01
 -1      1561 5.87934E-01
 -1      1562 5.71258E-01
 -1      1563 5.50657E-01
 -1      1564 7.53907E-01
 -1      1565 6.50941E-01
 -1      1566 6.34265E-01
 -1      1567 9.15497E-01
 -1      1568 8.16518E-01
 -1      1569 7.59884E-01
 -1      1570 1.07238E+00
 -1      1571 1.00850E+00
 -1      1572 9.15497E-01
 -1      1573 1.30753E+00
 -1      1574 1.13626E+00
 -1      1575 1.07238E+00
 -1      1576 1.61123E+00
 -1      1577 1.47880E+00
 -1      1578 1.30753E+00
 -1      1579 1.82574E+00
 -1      1580 1.74366E+00
 -1      1581 1.61123E+00
 -1      1582 2.14365E+00
 -1      1583 1.90783E+00
 -1      1584 1.82574E+00
 -1      1585 2.73295E+00
 -1      1586 2.37948E+00
 -1      1587 2.14365E+00
 -1      1588 3.67790E+00
 -1      1589 3.10000E+00
 -1      1590 2.74653E+00
 -1      1591 4.32303E+00
 -1      1592 4.24221E+00
 -1      1593 3.67790E+00
 -1      1594 4.48974E+00
 -1      1595 4.40385E+00
 -1      1596 4.32303E+00
 -1      1597 4.57563E+00
 -1      1598 4.57563E+00
 -1      1599 4.48974E+00
 -1      1600 3.75504E+00
 -1      1601 4.16533E+00
 -1      1602 4.16533E+00
 -1      1603 2.49553E+00
 -1      1604 3.12528E+00
 -1      1605 3.12528E+00
 -1      1606 1.52573E+00
 -1      1607 2.02674E+00
 -1      1608 2.02674E+00
 -1      1609 8.42366E-01
 -1      1610 1.17979E+00
 -1      1611 1.21201E+00
 -1      1612 4.18130E-01
 -1      1613 6.24887E-01
 -1      1614 6.48590E-01
 -1      1615 3.10351E-01
 -1      1616 5.44003E-01
 -1      1617 4.33123E-01
 -1      1618 8.90088E-01
 -1      1619 7.50003E-01
 -1      1620 8.56694E-01
 -1      1621 1.24103E+00
 -1      1622 1.13874E+00
 -1      1623 1.31135E+00
 -1      1624 1.28499E+00
 -1      1625 1.28499E+00
 -1      1626 1.60396E+00
 -1      1627 1.26895E+00
 -1      1628 1.28499E+00
 -1      1629 1.64791E+00
 -1      1630 1.11492E+00
 -1      1631 1.19274E+00
 -1      1632 1.57170E+00
 -1      1633 2.18607E+00
 -1      1634 1.78643E+00
 -1      1635 2.16699E+00
 -1      1636 2.40188E+00
 -1      1637 2.40188E+00
 -1      1638 3.05431E+00
 -1      1639 2.26985E+00
 -1      1640 2.40188E+00
 -1      1641 3.27011E+00
 -1      1642 1.33308E+00
 -1      1643 1.63590E+00
 -1      1644 2.63616E+00
 -1      1645 1.28060E+00
 -1      1646 1.14442E+00
 -1      1647 1.81355E+00
 -1      1648 1.28060E+00
 -1      1649 1.28060E+00
 -1      1650 1.62489E+00
 -1      1651 1.22074E+00
 -1      1652 1.27749E+00
 -1      1653 1.62178E+00
 -1      1654 8.92968E-01
 -1      1655 1.05165E+00
 -1      1656 1.44958E+00
 -1      1657 7.03047E-01
 -1      1658 7.50780E-01
 -1      1659 1.13830E+00
 -1      1660 9.01996E-01
 -1      1661 2.75634E+01
 -1      1662 2.79669E+01
 -1      1663 3.85748E+01
 -1      1664 2.68582E+01
 -1      1665 4.77940E+01
 -1      1666 4.77940E+01
 -1      1667 2.14632E+01
 -1      1668 3.50427E+01
 -1      1669 1.16002E+01
 -1      1670 1.59208E+01
 -1      1671 1.21377E+01
 -1      1672 1.19936E+01
 -1      1673 1.28115E+01
 -1      1674 1.22817E+01
 -1      1675 1.33412E+01
 -1      1676 1.33412E+01
 -1      1677 1.28607E+01
 -1      1678 1.31010E+01
 -1      1679 1.25686E+01
 -1      1680 1.23412E+01
 -1      1681 2.20750E+01
 -1      1682 1.33156E+01
 -1      1683 3.17879E+01
 -1      1684 3.13112E+01
 -1      1685 2.97175E+01
 -1      1686 3.17879E+01
 -1      1687 2.42148E+01
 -1      1688 2.59309E+01
 -1      1689 2.69404E+01
 -1      1690 2.67783E+01
 -1      1691 2.69404E+01
 -1      1692 2.69404E+01
 -1      1693 4.06563E+01
 -1      1694 3.13868E+01
 -1      1695 4.30779E+01
 -1      1696 4.30779E+01
 -1      1697 1.61232E+01
 -1      1698 2.97917E+01
 -1      1699 1.12113E+01
 -1      1700 1.31510E+01
 -1      1701 1.20289E+01
 -1      1702 1.18614E+01
 -1      1703 1.21964E+01
 -1      1704 1.21964E+01
 -1      1705 1.21138E+01
 -1      1706 1.20977E+01
 -1      1707 1.22285E+01
 -1      1708 1.22285E+01
 -1      1709 1.21281E+01
 -1      1710 1.21783E+01
 -1      1711 1.73932E+01
 -1      1712 1.17847E+01
 -1      1713 3.70621E+01
 -1      1714 2.43300E+01
 -1      1715 4.88092E+01
 -1      1716 4.88092E+01
 -1      1717 2.74711E+01
 -1      1718 3.92918E+01
 -1      1719 2.79669E+01
 -1      1720 2.79669E+01
 -1      1721 1.67491E+01
 -1      1722 3.50427E+01
 -1      1723 3.23332E-01
 -1      1724 5.40902E-01
 -1      1725 3.00608E+01
 -1      1726 3.85748E+01
 -1      1727 3.07660E+01
 -1      1728 1.16002E+01
 -1      1729 1.21377E+01
 -1      1730 1.28115E+01
 -1      1731 1.31010E+01
 -1      1732 1.23412E+01
 -1      1733 1.25686E+01
 -1      1734 2.25518E+01
 -1      1735 3.17879E+01
 -1      1736 2.80013E+01
 -1      1737 2.67783E+01
 -1      1738 2.93419E+01
 -1      1739 3.37883E+01
 -1      1740 4.06563E+01
 -1      1741 2.97917E+01
 -1      1742 1.35333E+01
 -1      1743 1.12113E+01
 -1      1744 1.20289E+01
 -1      1745 1.20977E+01
 -1      1746 1.21138E+01
 -1      1747 1.21783E+01
 -1      1748 1.17847E+01
 -1      1749 1.83782E+01
 -1      1750 3.70621E+01
 -1      1751 3.92918E+01
 -1      1752 3.02702E+01
 -1      1753 9.61051E+00
 -1      1754 1.27808E+00
 -1      1755 1.67367E+00
 -1      1756 2.38951E+00
 -1      1757 4.27890E+00
 -1      1758 1.76422E+00
 -1      1759 8.84484E-01
 -1      1760 9.76693E-01
 -1      1761 7.79844E-01
 -1      1762 8.34350E-01
 -1      1763 7.45202E-01
 -1      1764 7.13973E-01
 -1      1765 7.48267E-01
 -1      1766 6.63490E-01
 -1      1767 6.71741E-01
 -1      1768 6.91844E-01
 -1      1769 6.09784E-01
 -1      1770 6.95165E-01
 -1      1771 6.73345E-01
 -1      1772 5.89259E-01
 -1      1773 7.50917E-01
 -1      1774 7.17016E-01
 -1      1775 6.12715E-01
 -1      1776 8.41201E-01
 -1      1777 7.84296E-01
 -1      1778 6.67944E-01
 -1      1779 9.84562E-01
 -1      1780 8.88805E-01
 -1      1781 7.48926E-01
 -1      1782 1.22982E+00
 -1      1783 1.05227E+00
 -1      1784 8.64241E-01
 -1      1785 1.71061E+00
 -1      1786 1.34399E+00
 -1      1787 1.04613E+00
 -1      1788 2.63019E+00
 -1      1789 1.79509E+00
 -1      1790 1.24478E+00
 -1      1791 8.11979E+00
 -1      1792 3.06585E+00
 -1      1793 1.76491E+00
 -1      1794 2.79759E+00
 -1      1795 5.19765E+00
 -1      1796 2.16349E+00
 -1      1797 2.65433E+00
 -1      1798 2.05731E+00
 -1      1799 3.39882E+00
 -1      1800 2.53477E+00
 -1      1801 1.92004E+00
 -1      1802 1.68907E+00
 -1      1803 1.35701E+00
 -1      1804 1.49808E+00
 -1      1805 1.17685E+00
 -1      1806 9.65987E-01
 -1      1807 1.08695E+00
 -1      1808 8.40435E-01
 -1      1809 7.15267E-01
 -1      1810 7.81231E-01
 -1      1811 6.56518E-01
 -1      1812 5.66595E-01
 -1      1813 5.96931E-01
 -1      1814 5.18012E-01
 -1      1815 4.54308E-01
 -1      1816 4.89599E-01
 -1      1817 4.11510E-01
 -1      1818 3.61478E-01
 -1      1819 3.98219E-01
 -1      1820 3.28790E-01
 -1      1821 2.89835E-01
 -1      1822 3.22734E-01
 -1      1823 2.62231E-01
 -1      1824 2.33896E-01
 -1      1825 2.62443E-01
 -1      1826 2.10215E-01
 -1      1827 1.86204E-01
 -1      1828 2.11159E-01
 -1      1829 1.68518E-01
 -1      1830 1.48751E-01
 -1      1831 1.69791E-01
 -1      1832 1.34190E-01
 -1      1833 1.18356E-01
 -1      1834 1.37544E-01
 -1      1835 1.06189E-01
 -1      1836 9.38692E-02
 -1      1837 1.10816E-01
 -1      1838 8.39728E-02
 -1      1839 7.47053E-02
 -1      1840 8.87522E-02
 -1      1841 6.68281E-02
 -1      1842 6.01486E-02
 -1      1843 7.09785E-02
 -1      1844 5.39598E-02
 -1      1845 4.94149E-02
 -1      1846 5.69125E-02
 -1      1847 4.57917E-02
 -1      1848 4.55628E-02
 -1      1849 4.71005E-02
 -1      1850 4.60292E-02
 -1      1851 5.06599E-02
 -1      1852 4.39438E-02
 -1      1853 5.37680E-02
 -1      1854 6.01382E-02
 -1      1855 4.75184E-02
 -1      1856 6.79054E-02
 -1      1857 7.71198E-02
 -1      1858 5.83938E-02
 -1      1859 8.80787E-02
 -1      1860 1.02726E-01
 -1      1861 7.71198E-02
 -1      1862 1.17378E-01
 -1      1863 1.36190E-01
 -1      1864 1.02731E-01
 -1      1865 1.62107E-01
 -1      1866 1.85435E-01
 -1      1867 1.43300E-01
 -1      1868 2.18933E-01
 -1      1869 2.46828E-01
 -1      1870 2.02716E-01
 -1      1871 2.88997E-01
 -1      1872 3.30337E-01
 -1      1873 2.78383E-01
 -1      1874 3.81727E-01
 -1      1875 4.40529E-01
 -1      1876 3.71941E-01
 -1      1877 5.00579E-01
 -1      1878 5.69544E-01
 -1      1879 4.83380E-01
 -1      1880 6.35723E-01
 -1      1881 7.11310E-01
 -1      1882 6.09609E-01
 -1      1883 7.77961E-01
 -1      1884 8.52404E-01
 -1      1885 7.42439E-01
 -1      1886 9.09422E-01
 -1      1887 9.83520E-01
 -1      1888 8.66108E-01
 -1      1889 1.04064E+00
 -1      1890 1.14719E+00
 -1      1891 9.80242E-01
 -1      1892 1.21427E+00
 -1      1893 1.33327E+00
 -1      1894 1.10444E+00
 -1      1895 1.35352E+00
 -1      1896 1.41505E+00
 -1      1897 1.19177E+00
 -1      1898 1.34178E+00
 -1      1899 1.36943E+00
 -1      1900 1.13874E+00
 -1      1901 1.32168E+00
 -1      1902 1.37351E+00
 -1      1903 1.01773E+00
 -1      1904 1.43486E+00
 -1      1905 1.54591E+00
 -1      1906 1.03134E+00
 -1      1907 2.01954E+00
 -1      1908 2.49543E+00
 -1      1909 1.56632E+00
 -1      1910 2.86986E+00
 -1      1911 3.73748E+00
 -1      1912 2.41438E+00
 -1      1913 4.16316E+00
 -1      1914 4.86063E+00
 -1      1915 3.21449E+00
 -1      1916 4.93265E+00
 -1      1917 4.80845E+00
 -1      1918 3.71218E+00
 -1      1919 4.67733E+00
 -1      1920 4.51407E+00
 -1      1921 3.65308E+00
 -1      1922 4.41635E+00
 -1      1923 3.65683E+00
 -1      1924 3.42424E+00
 -1      1925 3.40106E+00
 -1      1926 2.81211E+00
 -1      1927 3.07075E+00
 -1      1928 2.60561E+00
 -1      1929 2.09628E+00
 -1      1930 2.60847E+00
 -1      1931 1.87438E+00
 -1      1932 1.58980E+00
 -1      1933 2.18007E+00
 -1      1934 1.45579E+00
 -1      1935 1.24901E+00
 -1      1936 1.34313E+00
 -1      1937 1.82416E+00
 -1      1938 1.39798E+00
 -1      1939 1.77160E+00
 -1      1940 1.52216E+00
 -1      1941 1.01775E+00
 -1      1942 1.27832E+00
 -1      1943 1.01060E+00
 -1      1944 8.04623E-01
 -1      1945 9.23982E-01
 -1      1946 7.97170E-01
 -1      1947 6.37866E-01
 -1      1948 7.25223E-01
 -1      1949 6.23999E-01
 -1      1950 5.12472E-01
 -1      1951 5.84221E-01
 -1      1952 4.90954E-01
 -1      1953 4.19381E-01
 -1      1954 4.79188E-01
 -1      1955 4.04025E-01
 -1      1956 3.37681E-01
 -1      1957 3.87469E-01
 -1      1958 3.38830E-01
 -1      1959 2.72798E-01
 -1      1960 3.09939E-01
 -1      1961 2.79177E-01
 -1      1962 2.19220E-01
 -1      1963 2.50141E-01
 -1      1964 2.28778E-01
 -1      1965 1.75348E-01
 -1      1966 1.99400E-01
 -1      1967 1.86301E-01
 -1      1968 1.39092E-01
 -1      1969 1.58614E-01
 -1      1970 1.49747E-01
 -1      1971 1.09763E-01
 -1      1972 1.25381E-01
 -1      1973 1.19302E-01
 -1      1974 8.70427E-02
 -1      1975 9.90790E-02
 -1      1976 9.49068E-02
 -1      1977 7.03060E-02
 -1      1978 7.91113E-02
 -1      1979 7.62914E-02
 -1      1980 5.88667E-02
 -1      1981 6.47797E-02
 -1      1982 6.28337E-02
 -1      1983 5.31173E-02
 -1      1984 5.55342E-02
 -1      1985 5.39750E-02
 -1      1986 5.63420E-02
 -1      1987 5.29317E-02
 -1      1988 5.04568E-02
 -1      1989 6.46272E-02
 -1      1990 5.90003E-02
 -1      1991 5.29295E-02
 -1      1992 7.71768E-02
 -1      1993 6.95306E-02
 -1      1994 6.04911E-02
 -1      1995 9.65124E-02
 -1      1996 8.71395E-02
 -1      1997 7.53571E-02
 -1      1998 1.21917E-01
 -1      1999 1.09358E-01
 -1      2000 9.81653E-02
 -1      2001 1.57188E-01
 -1      2002 1.37831E-01
 -1      2003 1.26925E-01
 -1      2004 2.10657E-01
 -1      2005 1.86574E-01
 -1      2006 1.72225E-01
 -1      2007 2.75505E-01
 -1      2008 2.47915E-01
 -1      2009 2.38868E-01
 -1      2010 3.50370E-01
 -1      2011 3.20576E-01
 -1      2012 3.21198E-01
 -1      2013 4.32071E-01
 -1      2014 4.02306E-01
 -1      2015 4.18206E-01
 -1      2016 5.22961E-01
 -1      2017 4.88014E-01
 -1      2018 5.26087E-01
 -1      2019 6.10263E-01
 -1      2020 5.77182E-01
 -1      2021 6.36251E-01
 -1      2022 6.77520E-01
 -1      2023 6.56919E-01
 -1      2024 7.37127E-01
 -1      2025 7.83310E-01
 -1      2026 7.20302E-01
 -1      2027 8.26564E-01
 -1      2028 8.53128E-01
 -1      2029 7.90517E-01
 -1      2030 8.76554E-01
 -1      2031 9.46130E-01
 -1      2032 8.53128E-01
 -1      2033 8.83761E-01
 -1      2034 9.55501E-01
 -1      2035 8.91621E-01
 -1      2036 8.29251E-01
 -1      2037 1.11804E+00
 -1      2038 9.46769E-01
 -1      2039 7.66010E-01
 -1      2040 1.33088E+00
 -1      2041 1.19845E+00
 -1      2042 8.37689E-01
 -1      2043 1.81107E+00
 -1      2044 1.72899E+00
 -1      2045 1.31621E+00
 -1      2046 2.42864E+00
 -1      2047 2.19281E+00
 -1      2048 2.09606E+00
 -1      2049 2.96221E+00
 -1      2050 2.59515E+00
 -1      2051 2.64431E+00
 -1      2052 3.52652E+00
 -1      2053 2.96221E+00
 -1      2054 2.81082E+00
 -1      2055 3.54757E+00
 -1      2056 3.46674E+00
 -1      2057 2.75105E+00
 -1      2058 3.61987E+00
 -1      2059 3.53398E+00
 -1      2060 2.67769E+00
 -1      2061 3.15151E+00
 -1      2062 3.56180E+00
 -1      2063 2.60604E+00
 -1      2064 2.27301E+00
 -1      2065 2.90276E+00
 -1      2066 2.29923E+00
 -1      2067 1.61697E+00
 -1      2068 2.08576E+00
 -1      2069 1.86324E+00
 -1      2070 9.57457E-01
 -1      2071 1.30340E+00
 -1      2072 1.36242E+00
 -1      2073 4.52463E-01
 -1      2074 6.69942E-01
 -1      2075 7.61330E-01
 -1      2076 5.62254E-01
 -1      2077 1.78835E+00
 -1      2078 1.74439E+00
 -1      2079 1.66544E+00
 -1      2080 1.41679E+00
 -1      2081 1.84983E+00
 -1      2082 1.05577E+00
 -1      2083 8.49769E-01
 -1      2084 7.61330E-01
 -1      2085 1.40986E+00
 -1      2086 2.01168E+00
 -1      2087 2.01168E+00
 -1      2088 2.15212E+00
 -1      2089 2.07786E+00
 -1      2090 2.15408E+00
 -1      2091 2.51784E+00
 -1      2092 3.07761E+00
 -1      2093 2.40610E+00
 -1      2094 2.98848E+00
 -1      2095 4.46535E+00
 -1      2096 4.24954E+00
 -1      2097 4.48865E+00
 -1      2098 4.46535E+00
 -1      2099 4.46535E+00
 -1      2100 5.66058E+00
 -1      2101 3.48419E+00
 -1      2102 4.11814E+00
 -1      2103 5.31338E+00
 -1      2104 2.38122E+00
 -1      2105 2.56989E+00
 -1      2106 4.05186E+00
 -1      2107 2.02300E+00
 -1      2108 2.02300E+00
 -1      2109 2.77933E+00
 -1      2110 1.86974E+00
 -1      2111 1.87285E+00
 -1      2112 2.27095E+00
 -1      2113 1.55401E+00
 -1      2114 1.72310E+00
 -1      2115 1.97417E+00
 -1      2116 3.85748E+01
 -1      2117 2.93556E+01
 -1      2118 3.22912E+01
 -1      2119 3.22912E+01
 -1      2120 2.95686E+01
 -1      2121 3.02738E+01
 -1      2122 1.94595E+01
 -1      2123 3.22108E+01
 -1      2124 1.00192E+01
 -1      2125 1.55615E+01
 -1      2126 1.03453E+00
 -1      2127 1.20940E+00
 -1      2128 9.79698E-01
 -1      2129 8.53173E-01
 -1      2130 1.13969E+01
 -1      2131 1.12528E+01
 -1      2132 1.21431E+01
 -1      2133 1.16133E+01
 -1      2134 1.07285E+01
 -1      2135 1.09193E+01
 -1      2136 1.11596E+01
 -1      2137 1.03454E+01
 -1      2138 1.08650E+01
 -1      2139 1.02541E+01
 -1      2140 9.50706E+00
 -1      2141 2.17804E+01
 -1      2142 1.25442E+01
 -1      2143 2.61618E+01
 -1      2144 2.61618E+01
 -1      2145 2.42982E+01
 -1      2146 2.80847E+01
 -1      2147 3.11892E+01
 -1      2148 2.86256E+01
 -1      2149 3.11892E+01
 -1      2150 3.11892E+01
 -1      2151 3.02339E+01
 -1      2152 2.57875E+01
 -1      2153 3.42420E+01
 -1      2154 3.18204E+01
 -1      2155 1.53743E+01
 -1      2156 2.86606E+01
 -1      2157 9.33537E+00
 -1      2158 1.23075E+01
 -1      2159 9.79807E+00
 -1      2160 9.14799E+00
 -1      2161 1.12000E+01
 -1      2162 1.10325E+01
 -1      2163 8.96923E+00
 -1      2164 1.13987E+01
 -1      2165 1.14973E+01
 -1      2166 1.16226E+01
 -1      2167 1.15079E+01
 -1      2168 1.08570E+01
 -1      2169 1.09072E+01
 -1      2170 1.03013E+01
 -1      2171 9.03916E+00
 -1      2172 9.38253E+00
 -1      2173 1.76458E+01
 -1      2174 1.07090E+01
 -1      2175 3.32351E+01
 -1      2176 2.14880E+01
 -1      2177 2.97744E+01
 -1      2178 3.92918E+01
 -1      2179 3.22912E+01
 -1      2180 3.17953E+01
 -1      2181 9.74040E+00
 -1      2182 9.34694E+00
 -1      2183 1.27296E+01
 -1      2184 2.91028E+00
 -1      2185 8.15941E+00
 -1      2186 8.99959E+00
 -1      2187 2.10456E+00
 -1      2188 2.95686E+01
 -1      2189 3.17990E+01
 -1      2190 1.41182E+00
 -1      2191 2.29916E+01
 -1      2192 3.38163E+01
 -1      2193 3.17953E+01
 -1      2194 2.37177E+01
 -1      2195 1.38189E+01
 -1      2196 8.11142E+00
 -1      2197 1.05010E+01
 -1      2198 7.92217E+00
 -1      2199 1.11764E+01
 -1      2200 1.98246E+01
 -1      2201 2.38196E+01
 -1      2202 2.76348E+01
 -1      2203 3.30365E+01
 -1      2204 2.87090E+01
 -1      2205 2.24586E+01
 -1      2206 2.15348E+01
 -1      2207 1.15272E+01
 -1      2208 1.59087E+01
 -1      2209 9.48269E+00
 -1      2210 8.03092E+00
 -1      2211 9.20205E+00
 -1      2212 1.13837E+01
 -1      2213 1.01856E+01
 -1      2214 8.92359E+00
 -1      2215 1.09074E+01
 -1      2216 8.30683E+00
 -1      2217 1.08890E+00
 -1      2218 1.48079E+00
 -1      2219 5.59284E-01
 -1      2220 5.90861E-01
 -1      2221 6.04864E-01
 -1      2222 6.54998E-01
 -1      2223 5.00658E-01
 -1      2224 5.11252E-01
 -1      2225 5.09647E-01
 -1      2226 5.46054E-01
 -1      2227 5.24203E-01
 -1      2228 4.44591E-01
 -1      2229 5.94261E-01
 -1      2230 5.60882E-01
 -1      2231 4.72370E-01
 -1      2232 6.53940E-01
 -1      2233 6.06337E-01
 -1      2234 4.99275E-01
 -1      2235 7.21651E-01
 -1      2236 6.53940E-01
 -1      2237 5.11351E-01
 -1      2238 8.84837E-01
 -1      2239 7.70662E-01
 -1      2240 5.60362E-01
 -1      2241 8.90940E-01
 -1      2242 1.01060E+00
 -1      2243 9.69239E-01
 -1      2244 1.26606E+00
 -1      2245 1.03509E+00
 -1      2246 5.75037E+00
 -1      2247 6.42262E+00
 -1      2248 9.84484E-01
 -1      2249 8.04322E-01
 -1      2250 7.52469E-01
 -1      2251 7.47688E-01
 -1      2252 6.22136E-01
 -1      2253 6.45227E-01
 -1      2254 5.65929E-01
 -1      2255 5.07180E-01
 -1      2256 5.32385E-01
 -1      2257 4.57831E-01
 -1      2258 4.09248E-01
 -1      2259 4.26829E-01
 -1      2260 3.81812E-01
 -1      2261 3.39015E-01
 -1      2262 3.50044E-01
 -1      2263 3.13997E-01
 -1      2264 2.81310E-01
 -1      2265 2.97590E-01
 -1      2266 2.57658E-01
 -1      2267 2.30055E-01
 -1      2268 2.48921E-01
 -1      2269 2.10815E-01
 -1      2270 1.87134E-01
 -1      2271 2.06030E-01
 -1      2272 1.70357E-01
 -1      2273 1.52671E-01
 -1      2274 1.70013E-01
 -1      2275 1.38082E-01
 -1      2276 1.23520E-01
 -1      2277 1.38648E-01
 -1      2278 1.11239E-01
 -1      2279 9.90720E-02
 -1      2280 1.11777E-01
 -1      2281 8.92485E-02
 -1      2282 7.93520E-02
 -1      2283 8.96718E-02
 -1      2284 7.14596E-02
 -1      2285 6.35824E-02
 -1      2286 7.19559E-02
 -1      2287 5.69125E-02
 -1      2288 5.07237E-02
 -1      2289 5.73936E-02
 -1      2290 4.61241E-02
 -1      2291 4.25009E-02
 -1      2292 4.61241E-02
 -1      2293 3.98536E-02
 -1      2294 4.03200E-02
 -1      2295 3.88772E-02
 -1      2296 4.23406E-02
 -1      2297 4.54488E-02
 -1      2298 3.82504E-02
 -1      2299 5.05527E-02
 -1      2300 5.83198E-02
 -1      2301 4.53748E-02
 -1      2302 6.85942E-02
 -1      2303 7.95531E-02
 -1      2304 6.07531E-02
 -1      2305 9.68501E-02
 -1      2306 1.11502E-01
 -1      2307 8.83245E-02
 -1      2308 1.33906E-01
 -1      2309 1.59824E-01
 -1      2310 1.28026E-01
 -1      2311 1.88470E-01
 -1      2312 2.21968E-01
 -1      2313 1.79076E-01
 -1      2314 2.57935E-01
 -1      2315 3.00104E-01
 -1      2316 2.43689E-01
 -1      2317 3.44233E-01
 -1      2318 3.95622E-01
 -1      2319 3.23785E-01
 -1      2320 4.48209E-01
 -1      2321 5.08258E-01
 -1      2322 4.20501E-01
 -1      2323 5.68571E-01
 -1      2324 6.34751E-01
 -1      2325 5.33400E-01
 -1      2326 7.00341E-01
 -1      2327 7.66991E-01
 -1      2328 6.59303E-01
 -1      2329 8.32794E-01
 -1      2330 8.89812E-01
 -1      2331 7.90696E-01
 -1      2332 9.48838E-01
 -1      2333 1.00595E+00
 -1      2334 9.15525E-01
 -1      2335 1.05442E+00
 -1      2336 1.12150E+00
 -1      2337 1.02301E+00
 -1      2338 1.19718E+00
 -1      2339 1.21743E+00
 -1      2340 1.14716E+00
 -1      2341 1.28815E+00
 -1      2342 1.21488E+00
 -1      2343 1.29357E+00
 -1      2344 1.24870E+00
 -1      2345 1.20095E+00
 -1      2346 1.39811E+00
 -1      2347 1.37893E+00
 -1      2348 1.44028E+00
 -1      2349 1.60990E+00
 -1      2350 1.56954E+00
 -1      2351 2.04318E+00
 -1      2352 1.91714E+00
 -1      2353 2.30490E+00
 -1      2354 2.67932E+00
 -1      2355 2.30812E+00
 -1      2356 2.89822E+00
 -1      2357 3.32389E+00
 -1      2358 2.78873E+00
 -1      2359 3.92278E+00
 -1      2360 3.99480E+00
 -1      2361 3.60651E+00
 -1      2362 4.05372E+00
 -1      2363 3.92260E+00
 -1      2364 4.26432E+00
 -1      2365 3.54430E+00
 -1      2366 3.44658E+00
 -1      2367 3.94494E+00
 -1      2368 3.12027E+00
 -1      2369 2.86450E+00
 -1      2370 3.24033E+00
 -1      2371 2.80728E+00
 -1      2372 2.60078E+00
 -1      2373 2.85681E+00
 -1      2374 2.49067E+00
 -1      2375 2.26877E+00
 -1      2376 2.68948E+00
 -1      2377 5.44599E-01
 -1      2378 6.23999E-01
 -1      2379 4.37310E-01
 -1      2380 4.90954E-01
 -1      2381 4.90954E-01
 -1      2382 3.70741E-01
 -1      2383 4.04025E-01
 -1      2384 4.04025E-01
 -1      2385 3.06919E-01
 -1      2386 3.38830E-01
 -1      2387 3.38830E-01
 -1      2388 2.51435E-01
 -1      2389 2.79177E-01
 -1      2390 2.79177E-01
 -1      2391 2.06472E-01
 -1      2392 2.29129E-01
 -1      2393 2.29129E-01
 -1      2394 1.67107E-01
 -1      2395 1.86927E-01
 -1      2396 1.87278E-01
 -1      2397 1.33717E-01
 -1      2398 1.50451E-01
 -1      2399 1.51076E-01
 -1      2400 1.07282E-01
 -1      2401 1.20993E-01
 -1      2402 1.21697E-01
 -1      2403 8.61773E-02
 -1      2404 9.68613E-02
 -1      2405 9.85525E-02
 -1      2406 6.95316E-02
 -1      2407 7.74630E-02
 -1      2408 7.94175E-02
 -1      2409 5.68057E-02
 -1      2410 6.23320E-02
 -1      2411 6.35036E-02
 -1      2412 4.75649E-02
 -1      2413 5.08974E-02
 -1      2414 5.03957E-02
 -1      2415 4.50776E-02
 -1      2416 4.52632E-02
 -1      2417 4.21857E-02
 -1      2418 4.80605E-02
 -1      2419 4.54023E-02
 -1      2420 4.02086E-02
 -1      2421 5.80331E-02
 -1      2422 5.31297E-02
 -1      2423 4.56025E-02
 -1      2424 7.53571E-02
 -1      2425 6.53945E-02
 -1      2426 5.80331E-02
 -1      2427 1.02188E-01
 -1      2428 8.93426E-02
 -1      2429 7.93799E-02
 -1      2430 1.38700E-01
 -1      2431 1.22786E-01
 -1      2432 1.13963E-01
 -1      2433 1.94349E-01
 -1      2434 1.64963E-01
 -1      2435 1.60824E-01
 -1      2436 2.64306E-01
 -1      2437 2.27048E-01
 -1      2438 2.19786E-01
 -1      2439 3.48875E-01
 -1      2440 3.03804E-01
 -1      2441 2.91983E-01
 -1      2442 4.46693E-01
 -1      2443 3.94756E-01
 -1      2444 3.77361E-01
 -1      2445 5.53173E-01
 -1      2446 4.97229E-01
 -1      2447 4.73779E-01
 -1      2448 6.58851E-01
 -1      2449 6.04630E-01
 -1      2450 5.75773E-01
 -1      2451 7.51367E-01
 -1      2452 7.04712E-01
 -1      2453 6.73091E-01
 -1      2454 8.37952E-01
 -1      2455 7.95170E-01
 -1      2456 7.62755E-01
 -1      2457 8.76554E-01
 -1      2458 8.69347E-01
 -1      2459 8.37952E-01
 -1      2460 8.96884E-01
 -1      2461 8.96884E-01
 -1      2462 8.89677E-01
 -1      2463 8.39064E-01
 -1      2464 8.93573E-01
 -1      2465 9.06697E-01
 -1      2466 8.31485E-01
 -1      2467 8.40217E-01
 -1      2468 9.04539E-01
 -1      2469 1.00687E+00
 -1      2470 9.26458E-01
 -1      2471 1.00067E+00
 -1      2472 1.57823E+00
 -1      2473 1.18012E+00
 -1      2474 1.26889E+00
 -1      2475 2.27938E+00
 -1      2476 1.89764E+00
 -1      2477 1.76156E+00
 -1      2478 2.65999E+00
 -1      2479 2.49347E+00
 -1      2480 2.29506E+00
 -1      2481 2.90035E+00
 -1      2482 2.90035E+00
 -1      2483 2.74951E+00
 -1      2484 2.80115E+00
 -1      2485 2.86092E+00
 -1      2486 2.95045E+00
 -1      2487 2.81977E+00
 -1      2488 2.83336E+00
 -1      2489 2.94323E+00
 -1      2490 2.56007E+00
 -1      2491 2.61813E+00
 -1      2492 2.77380E+00
 -1      2493 2.29238E+00
 -1      2494 2.54112E+00
 -1      2495 2.55321E+00
 -1      2496 2.27939E+00
 -1      2497 2.46663E+00
 -1      2498 2.70853E+00
 -1      2499 1.96238E+00
 -1      2500 2.27596E+00
 -1      2501 2.87935E+00
 -1      2502 1.04884E+00
 -1      2503 3.18440E+00
 -1      2504 3.04200E+00
 -1      2505 4.49300E+00
 -1      2506 4.16476E+00
 -1      2507 4.68892E+00
 -1      2508 2.40235E+00
 -1      2509 2.32340E+00
 -1      2510 2.53898E+00
 -1      2511 2.31566E+00
 -1      2512 2.78922E+00
 -1      2513 3.20554E+00
 -1      2514 6.12446E+00
 -1      2515 4.95253E+00
 -1      2516 6.12881E+00
 -1      2517 7.22892E+00
 -1      2518 7.22892E+00
 -1      2519 7.69280E+00
 -1      2520 6.88172E+00
 -1      2521 7.22892E+00
 -1      2522 8.79726E+00
 -1      2523 5.73803E+00
 -1      2524 6.65234E+00
 -1      2525 8.56789E+00
 -1      2526 3.56923E+00
 -1      2527 3.92745E+00
 -1      2528 6.52793E+00
 -1      2529 2.70566E+00
 -1      2530 2.85581E+00
 -1      2531 4.00393E+00
 -1      2532 1.82753E+00
 -1      2533 1.97417E+00
 -1      2534 2.55902E+00
 -1      2535 2.97816E+01
 -1      2536 3.17990E+01
 -1      2537 1.50941E+01
 -1      2538 2.14581E+01
 -1      2539 7.03400E-01
 -1      2540 7.97170E-01
 -1      2541 6.23999E-01
 -1      2542 1.75884E+00
 -1      2543 3.38163E+01
 -1      2544 3.38163E+01
 -1      2545 2.52564E+01
 -1      2546 2.54694E+01
 -1      2547 1.67605E+00
 -1      2548 1.30055E+00
 -1      2549 8.37559E-01
 -1      2550 9.60212E-01
 -1      2551 2.66324E+01
 -1      2552 2.46115E+01
 -1      2553 9.13901E+00
 -1      2554 8.84173E+00
 -1      2555 6.07969E+00
 -1      2556 6.26707E+00
 -1      2557 5.22537E-01
 -1      2558 5.44666E-01
 -1      2559 4.72037E-01
 -1      2560 4.44529E-01
 -1      2561 7.62174E+00
 -1      2562 7.67604E+00
 -1      2563 9.57531E+00
 -1      2564 9.35884E+00
 -1      2565 9.66314E+00
 -1      2566 9.55394E+00
 -1      2567 5.64819E+00
 -1      2568 6.48656E+00
 -1      2569 9.77930E+00
 -1      2570 7.48915E+00
 -1      2571 1.97606E+01
 -1      2572 1.78376E+01
 -1      2573 2.87090E+01
 -1      2574 2.43816E+01
 -1      2575 3.30365E+01
 -1      2576 3.30365E+01
 -1      2577 2.87090E+01
 -1      2578 2.22004E+01
 -1      2579 2.76021E+01
 -1      2580 2.17631E+01
 -1      2581 2.01766E+01
 -1      2582 2.01439E+01
 -1      2583 1.32801E+01
 -1      2584 1.88616E+01
 -1      2585 8.23345E+00
 -1      2586 1.13003E+01
 -1      2587 6.39097E+00
 -1      2588 7.71019E+00
 -1      2589 6.47575E+00
 -1      2590 6.34824E+00
 -1      2591 7.69352E+00
 -1      2592 6.02363E+00
 -1      2593 8.27042E+00
 -1      2594 8.98580E+00
 -1      2595 5.80702E+00
 -1      2596 7.28150E+00
 -1      2597 1.29617E+01
 -1      2598 9.11954E+00
 -1      2599 2.15127E+01
 -1      2600 1.54561E+01
 -1      2601 1.07567E+01
 -1      2602 7.99324E+00
 -1      2603 6.48080E+00
 -1      2604 1.62100E+00
 -1      2605 1.76426E+00
 -1      2606 1.32860E+00
 -1      2607 1.18775E+00
 -1      2608 8.15315E+00
 -1      2609 1.20511E+01
 -1      2610 1.05176E+01
 -1      2611 7.31124E+00
 -1      2612 8.61309E+00
 -1      2613 8.83725E+00
 -1      2614 5.22958E-01
 -1      2615 6.63295E-01
 -1      2616 7.21133E-01
 -1      2617 7.97170E-01
 -1      2618 1.24413E+00
 -1      2619 6.77340E+00
 -1      2620 6.09490E+00
 -1      2621 4.36437E+00
 -1      2622 2.66324E+01
 -1      2623 1.63498E+01
 -1      2624 4.74402E+00
 -1      2625 1.96238E+00
 -1      2626 2.32340E+00
 -1      2627 5.19371E+00
 -1      2628 3.17990E+01
 -1      2629 2.54694E+01
 -1      2630 1.73589E+01
 -1      2631 5.96603E+00
 -1      2632 9.68663E-01
 -1      2633 1.52185E+01
 -1      2634 7.89471E+00
 -1      2635 2.74317E+01
 -1      2636 2.74317E+01
 -1      2637 2.19973E+01
 -1      2638 1.91641E+01
 -1      2639 1.45431E+01
 -1      2640 1.91641E+01
 -1      2641 9.53369E+00
 -1      2642 4.82065E+00
 -1      2643 5.94479E+00
 -1      2644 7.63231E+00
 -1      2645 8.91526E-01
 -1      2646 1.32106E+01
 -1      2647 9.89430E+00
 -1      2648 8.52465E+00
 -1      2649 9.13492E+00
 -1      2650 6.84005E+00
 -1      2651 5.23901E+00
 -1      2652 1.03372E+01
 -1      2653 6.83633E+00
 -1      2654 1.82416E+00
 -1      2655 1.89285E+00
 -1      2656 1.89285E+00
 -1      2657 1.95817E+00
 -1      2658 2.87591E+00
 -1      2659 2.26877E+00
 -1      2660 4.22837E-01
 -1      2661 4.08008E-01
 -1      2662 4.00158E-01
 -1      2663 3.87207E-01
 -1      2664 3.50624E-01
 -1      2665 4.36614E-01
 -1      2666 4.36614E-01
 -1      2667 4.73691E-01
 -1      2668 4.24681E-01
 -1      2669 3.49943E-01
 -1      2670 7.17436E-01
 -1      2671 7.95735E-01
 -1      2672 1.16981E+01
 -1      2673 1.45996E+01
 -1      2674 2.47072E+01
 -1      2675 1.75233E+01
 -1      2676 8.28456E-01
 -1      2677 1.53821E+01
 -1      2678 1.22834E+01
 -1      2679 5.49381E-01
 -1      2680 4.92747E-01
 -1      2681 4.86331E-01
 -1      2682 4.30123E-01
 -1      2683 3.90485E-01
 -1      2684 4.09594E-01
 -1      2685 3.60245E-01
 -1      2686 3.63539E-01
 -1      2687 3.35455E-01
 -1      2688 3.08019E-01
 -1      2689 3.18220E-01
 -1      2690 2.83230E-01
 -1      2691 2.58212E-01
 -1      2692 2.68641E-01
 -1      2693 2.42605E-01
 -1      2694 2.18953E-01
 -1      2695 2.28244E-01
 -1      2696 2.02745E-01
 -1      2697 1.83505E-01
 -1      2698 1.96428E-01
 -1      2699 1.68053E-01
 -1      2700 1.51277E-01
 -1      2701 1.64769E-01
 -1      2702 1.37342E-01
 -1      2703 1.22753E-01
 -1      2704 1.35382E-01
 -1      2705 1.11287E-01
 -1      2706 9.90050E-02
 -1      2707 1.09981E-01
 -1      2708 8.96718E-02
 -1      2709 7.98483E-02
 -1      2710 8.91816E-02
 -1      2711 7.19559E-02
 -1      2712 6.40635E-02
 -1      2713 7.19559E-02
 -1      2714 5.73238E-02
 -1      2715 5.06538E-02
 -1      2716 5.73238E-02
 -1      2717 4.52882E-02
 -1      2718 4.06886E-02
 -1      2719 4.52183E-02
 -1      2720 3.61548E-02
 -1      2721 3.35074E-02
 -1      2722 3.53188E-02
 -1      2723 3.19376E-02
 -1      2724 3.39582E-02
 -1      2725 2.92152E-02
 -1      2726 3.69074E-02
 -1      2727 4.20113E-02
 -1      2728 3.05947E-02
 -1      2729 5.31712E-02
 -1      2730 6.34456E-02
 -1      2731 4.47038E-02
 -1      2732 7.76679E-02
 -1      2733 9.49648E-02
 -1      2734 7.00860E-02
 -1      2735 1.13085E-01
 -1      2736 1.35489E-01
 -1      2737 1.02428E-01
 -1      2738 1.58498E-01
 -1      2739 1.87144E-01
 -1      2740 1.43557E-01
 -1      2741 2.16105E-01
 -1      2742 2.52072E-01
 -1      2743 1.95527E-01
 -1      2744 2.88076E-01
 -1      2745 3.32205E-01
 -1      2746 2.60492E-01
 -1      2747 3.76313E-01
 -1      2748 4.28899E-01
 -1      2749 3.40604E-01
 -1      2750 4.82040E-01
 -1      2751 5.42353E-01
 -1      2752 4.37853E-01
 -1      2753 6.05497E-01
 -1      2754 6.71087E-01
 -1      2755 5.54138E-01
 -1      2756 7.46192E-01
 -1      2757 8.11995E-01
 -1      2758 6.92386E-01
 -1      2759 8.93905E-01
 -1      2760 9.52930E-01
 -1      2761 8.49400E-01
 -1      2762 1.03742E+00
 -1      2763 1.08588E+00
 -1      2764 1.01580E+00
 -1      2765 1.17171E+00
 -1      2766 1.24740E+00
 -1      2767 1.18612E+00
 -1      2768 1.38800E+00
 -1      2769 1.45872E+00
 -1      2770 1.41255E+00
 -1      2771 1.65007E+00
 -1      2772 1.68389E+00
 -1      2773 1.74450E+00
 -1      2774 1.89460E+00
 -1      2775 2.07258E+00
 -1      2776 2.14657E+00
 -1      2777 2.49293E+00
 -1      2778 2.62219E+00
 -1      2779 2.77764E+00
 -1      2780 2.50955E+00
 -1      2781 2.77127E+00
 -1      2782 3.08535E+00
 -1      2783 2.56984E+00
 -1      2784 2.78873E+00
 -1      2785 2.77127E+00
 -1      2786 3.60651E+00
 -1      2787 4.20541E+00
 -1      2788 3.38762E+00
 -1      2789 5.71777E+00
 -1      2790 5.77669E+00
 -1      2791 5.71777E+00
 -1      2792 4.32324E+00
 -1      2793 3.94494E+00
 -1      2794 5.77669E+00
 -1      2795 3.56664E+00
 -1      2796 3.24033E+00
 -1      2797 3.94494E+00
 -1      2798 3.27275E+00
 -1      2799 3.21553E+00
 -1      2800 3.59905E+00
 -1      2801 3.22091E+00
 -1      2802 3.11080E+00
 -1      2803 3.63685E+00
 -1      2804 3.49140E-01
 -1      2805 3.82424E-01
 -1      2806 2.87935E+00
 -1      2807 2.87935E+00
 -1      2808 2.88278E+00
 -1      2809 4.16714E-01
 -1      2810 4.70358E-01
 -1      2811 3.61828E-01
 -1      2812 2.42355E-01
 -1      2813 2.70097E-01
 -1      2814 2.01489E-01
 -1      2815 2.23795E-01
 -1      2816 2.14715E-01
 -1      2817 1.64925E-01
 -1      2818 1.84471E-01
 -1      2819 1.79137E-01
 -1      2820 1.34367E-01
 -1      2821 1.51023E-01
 -1      2822 1.48216E-01
 -1      2823 1.09304E-01
 -1      2824 1.22028E-01
 -1      2825 1.21974E-01
 -1      2826 8.82846E-02
 -1      2827 9.87052E-02
 -1      2828 9.90358E-02
 -1      2829 7.07032E-02
 -1      2830 7.94175E-02
 -1      2831 7.95702E-02
 -1      2832 5.63040E-02
 -1      2833 6.35036E-02
 -1      2834 6.35036E-02
 -1      2835 4.44182E-02
 -1      2836 5.03265E-02
 -1      2837 5.03265E-02
 -1      2838 3.78951E-02
 -1      2839 4.01969E-02
 -1      2840 4.01276E-02
 -1      2841 3.57074E-02
 -1      2842 3.53827E-02
 -1      2843 3.33939E-02
 -1      2844 4.39574E-02
 -1      2845 3.88882E-02
 -1      2846 3.40622E-02
 -1      2847 5.84070E-02
 -1      2848 5.10456E-02
 -1      2849 4.43313E-02
 -1      2850 8.61140E-02
 -1      2851 7.21286E-02
 -1      2852 6.51411E-02
 -1      2853 1.24188E-01
 -1      2854 1.03590E-01
 -1      2855 9.63384E-02
 -1      2856 1.72557E-01
 -1      2857 1.46294E-01
 -1      2858 1.35921E-01
 -1      2859 2.32834E-01
 -1      2860 2.00135E-01
 -1      2861 1.85605E-01
 -1      2862 3.06075E-01
 -1      2863 2.66577E-01
 -1      2864 2.46926E-01
 -1      2865 3.92230E-01
 -1      2866 3.46349E-01
 -1      2867 3.20943E-01
 -1      2868 4.89340E-01
 -1      2869 4.38803E-01
 -1      2870 4.07790E-01
 -1      2871 5.92453E-01
 -1      2872 5.40996E-01
 -1      2873 5.06020E-01
 -1      2874 6.92337E-01
 -1      2875 6.46476E-01
 -1      2876 6.11699E-01
 -1      2877 7.89364E-01
 -1      2878 7.45561E-01
 -1      2879 7.18946E-01
 -1      2880 8.62977E-01
 -1      2881 8.31582E-01
 -1      2882 8.14388E-01
 -1      2883 9.51227E-01
 -1      2884 9.30897E-01
 -1      2885 9.24527E-01
 -1      2886 1.02614E+00
 -1      2887 1.02946E+00
 -1      2888 1.07068E+00
 -1      2889 1.08814E+00
 -1      2890 1.08699E+00
 -1      2891 1.20975E+00
 -1      2892 1.29462E+00
 -1      2893 1.19964E+00
 -1      2894 1.38209E+00
 -1      2895 1.67349E+00
 -1      2896 1.50024E+00
 -1      2897 1.69921E+00
 -1      2898 2.07804E+00
 -1      2899 1.75863E+00
 -1      2900 1.98997E+00
 -1      2901 2.57477E+00
 -1      2902 2.36068E+00
 -1      2903 2.35775E+00
 -1      2904 3.17404E+00
 -1      2905 2.93368E+00
 -1      2906 2.99930E+00
 -1      2907 4.11092E+00
 -1      2908 4.15035E+00
 -1      2909 4.33451E+00
 -1      2910 3.64303E+00
 -1      2911 3.61081E+00
 -1      2912 4.81071E+00
 -1      2913 2.86599E+00
 -1      2914 3.06763E+00
 -1      2915 3.73522E+00
 -1      2916 2.78191E+00
 -1      2917 2.80086E+00
 -1      2918 3.09469E+00
 -1      2919 2.88278E+00
 -1      2920 2.70853E+00
 -1      2921 2.95617E+00
 -1      2922 2.88278E+00
 -1      2923 9.35829E+00
 -1      2924 8.25383E+00
 -1      2925 2.57937E+00
 -1      2926 2.26877E+00
 -1      2927 3.11080E+00
 -1      2928 5.76119E+00
 -1      2929 4.78083E+00
 -1      2930 1.08594E+01
 -1      2931 1.08594E+01
 -1      2932 8.35512E+00
 -1      2933 7.89558E+00
 -1      2934 7.98750E+00
 -1      2935 1.00206E+01
 -1      2936 1.19682E+01
 -1      2937 1.21976E+01
 -1      2938 8.01651E+00
 -1      2939 9.82709E+00
 -1      2940 4.19796E+00
 -1      2941 4.91138E+00
 -1      2942 8.21054E+00
 -1      2943 4.64073E+00
 -1      2944 6.60711E+00
 -1      2945 4.77514E+00
 -1      2946 5.76407E+00
 -1      2947 1.23833E+01
 -1      2948 1.61817E+01
 -1      2949 7.01648E-01
 -1      2950 6.67167E-01
 -1      2951 5.94111E+00
 -1      2952 4.10015E+00
 -1      2953 5.04181E-01
 -1      2954 5.83582E-01
 -1      2955 4.29941E-01
 -1      2956 2.89968E-01
 -1      2957 3.21879E-01
 -1      2958 3.00277E-01
 -1      2959 2.53146E-01
 -1      2960 6.02757E-01
 -1      2961 5.52147E-01
 -1      2962 3.99668E-01
 -1      2963 4.66845E-01
 -1      2964 4.52089E+00
 -1      2965 4.30429E+00
 -1      2966 4.10233E+00
 -1      2967 6.09183E-01
 -1      2968 7.02953E-01
 -1      2969 5.29449E-01
 -1      2970 4.89365E-01
 -1      2971 4.22104E+00
 -1      2972 3.49061E+00
 -1      2973 1.21410E+01
 -1      2974 1.02120E+01
 -1      2975 4.36614E-01
 -1      2976 4.24538E-01
 -1      2977 3.60176E-01
 -1      2978 3.61877E-01
 -1      2979 4.22817E-01
 -1      2980 4.36820E-01
 -1      2981 6.64988E+00
 -1      2982 5.28428E+00
 -1      2983 4.03087E+00
 -1      2984 4.02369E+00
 -1      2985 3.62762E+00
 -1      2986 8.91425E+00
 -1      2987 7.16631E+00
 -1      2988 7.84465E+00
 -1      2989 2.42630E+01
 -1      2990 1.99356E+01
 -1      2991 7.76989E+00
 -1      2992 7.35495E+00
 -1      2993 1.54152E+01
 -1      2994 1.74390E+01
 -1      2995 6.45602E+00
 -1      2996 5.03000E+00
 -1      2997 6.00862E+00
 -1      2998 4.87708E+00
 -1      2999 7.85002E+00
 -1      3000 9.82986E+00
 -1      3001 6.09978E+00
 -1      3002 7.21133E-01
 -1      3003 7.67294E+00
 -1      3004 1.07159E+01
 -1      3005 2.20345E+00
 -1      3006 9.79528E+00
 -1      3007 7.30090E+00
 -1      3008 5.49457E+00
 -1      3009 8.82756E+00
 -1      3010 3.75876E+00
 -1      3011 4.89394E+00
 -1      3012 4.46711E-01
 -1      3013 4.55009E-01
 -1      3014 3.68871E-01
 -1      3015 3.42525E-01
 -1      3016 3.86958E-01
 -1      3017 3.99848E-01
 -1      3018 3.84377E+00
 -1      3019 1.18947E+01
 -1      3020 3.61542E+00
 -1      3021 3.96620E+00
 -1      3022 3.09244E+00
 -1      3023 5.76652E-01
 -1      3024 4.56034E+00
 -1      3025 3.48806E+00
 -1      3026 2.98505E+00
 -1      3027 1.14204E+01
 -1      3028 1.34568E+01
 -1      3029 2.79266E+00
 -1      3030 5.31256E-01
 -1      3031 8.54597E+00
 -1      3032 2.93494E+00
 -1      3033 3.75507E+00
 -1      3034 4.40971E-01
 -1      3035 5.32167E+00
 -1      3036 9.53867E+00
 -1      3037 1.79634E+01
 -1      3038 2.22755E+01
 -1      3039 1.72686E+01
 -1      3040 2.13515E+01
 -1      3041 2.33689E+01
 -1      3042 1.47181E+01
 -1      3043 1.15938E+01
 -1      3044 1.21903E+01
 -1      3045 9.19171E+00
 -1      3046 3.84239E+00
 -1      3047 4.07417E-01
 -1      3048 4.22035E-01
 -1      3049 3.58197E-01
 -1      3050 3.49846E-01
 -1      3051 6.61984E+00
 -1      3052 5.06406E+00
 -1      3053 6.93883E+00
 -1      3054 1.64461E+01
 -1      3055 2.20509E+01
 -1      3056 1.32774E+01
 -1      3057 4.14058E+00
 -1      3058 3.68406E+00
 -1      3059 6.40552E+00
 -1      3060 7.08287E+00
 -1      3061 1.42597E+01
 -1      3062 9.21091E+00
 -1      3063 6.29320E+00
 -1      3064 4.47821E+00
 -1      3065 5.95847E+00
 -1      3066 6.89552E+00
 -1      3067 1.29878E+01
 -1      3068 5.21463E+00
 -1      3069 2.89949E-01
 -1      3070 3.01883E-01
 -1      3071 1.34568E+01
 -1      3072 3.19680E-01
 -1      3073 2.99151E-01
 -1      3074 2.95705E-01
 -1      3075 2.70915E-01
 -1      3076 2.51846E-01
 -1      3077 2.60073E-01
 -1      3078 2.35284E-01
 -1      3079 2.37558E-01
 -1      3080 2.21142E-01
 -1      3081 2.05534E-01
 -1      3082 2.12574E-01
 -1      3083 1.92217E-01
 -1      3084 1.76009E-01
 -1      3085 1.85114E-01
 -1      3086 1.65436E-01
 -1      3087 1.49983E-01
 -1      3088 1.61224E-01
 -1      3089 1.38860E-01
 -1      3090 1.24925E-01
 -1      3091 1.39527E-01
 -1      3092 1.14185E-01
 -1      3093 1.02719E-01
 -1      3094 1.17664E-01
 -1      3095 9.28604E-02
 -1      3096 8.35272E-02
 -1      3097 9.70651E-02
 -1      3098 7.47388E-02
 -1      3099 6.68464E-02
 -1      3100 7.84177E-02
 -1      3101 5.91004E-02
 -1      3102 5.23607E-02
 -1      3103 6.18833E-02
 -1      3104 4.54791E-02
 -1      3105 4.01134E-02
 -1      3106 4.72558E-02
 -1      3107 3.38090E-02
 -1      3108 2.92752E-02
 -1      3109 3.40698E-02
 -1      3110 2.42521E-02
 -1      3111 2.26824E-02
 -1      3112 2.27423E-02
 -1      3113 2.41233E-02
 -1      3114 2.70725E-02
 -1      3115 1.91602E-02
 -1      3116 3.60559E-02
 -1      3117 4.72158E-02
 -1      3118 2.95845E-02
 -1      3119 5.89836E-02
 -1      3120 7.32058E-02
 -1      3121 5.03356E-02
 -1      3122 8.82406E-02
 -1      3123 1.06360E-01
 -1      3124 7.71382E-02
 -1      3125 1.26590E-01
 -1      3126 1.49599E-01
 -1      3127 1.12402E-01
 -1      3128 1.75680E-01
 -1      3129 2.04641E-01
 -1      3130 1.58712E-01
 -1      3131 2.37589E-01
 -1      3132 2.73593E-01
 -1      3133 2.17742E-01
 -1      3134 3.14495E-01
 -1      3135 3.58602E-01
 -1      3136 2.91591E-01
 -1      3137 4.08271E-01
 -1      3138 4.61412E-01
 -1      3139 3.82162E-01
 -1      3140 5.20015E-01
 -1      3141 5.83159E-01
 -1      3142 4.90434E-01
 -1      3143 6.49538E-01
 -1      3144 7.24642E-01
 -1      3145 6.15415E-01
 -1      3146 8.01181E-01
 -1      3147 8.83091E-01
 -1      3148 7.58333E-01
 -1      3149 9.88895E-01
 -1      3150 1.07338E+00
 -1      3151 9.40676E-01
 -1      3152 1.22080E+00
 -1      3153 1.30663E+00
 -1      3154 1.19389E+00
 -1      3155 1.50904E+00
 -1      3156 1.64964E+00
 -1      3157 1.54372E+00
 -1      3158 1.87693E+00
 -1      3159 2.06828E+00
 -1      3160 1.97342E+00
 -1      3161 2.35426E+00
 -1      3162 2.56497E+00
 -1      3163 2.48668E+00
 -1      3164 3.03245E+00
 -1      3165 3.45280E+00
 -1      3166 3.24014E+00
 -1      3167 4.44821E+00
 -1      3168 4.06991E+00
 -1      3169 3.89770E+00
 -1      3170 3.90309E+00
 -1      3171 3.06958E-01
 -1      3172 3.41248E-01
 -1      3173 1.62626E-01
 -1      3174 1.79645E-01
 -1      3175 1.92461E-01
 -1      3176 2.11021E-01
 -1      3177 1.75951E-01
 -1      3178 1.11469E-01
 -1      3179 1.23809E-01
 -1      3180 9.00697E-02
 -1      3181 1.00668E-01
 -1      3182 1.02503E-01
 -1      3183 7.17592E-02
 -1      3184 8.06262E-02
 -1      3185 8.22586E-02
 -1      3186 5.63863E-02
 -1      3187 6.35859E-02
 -1      3188 6.46419E-02
 -1      3189 4.37717E-02
 -1      3190 4.97492E-02
 -1      3191 4.98315E-02
 -1      3192 3.42538E-02
 -1      3193 3.84751E-02
 -1      3194 3.78978E-02
 -1      3195 2.67438E-02
 -1      3196 2.92563E-02
 -1      3197 2.76037E-02
 -1      3198 2.97642E-02
 -1      3199 2.65834E-02
 -1      3200 2.24458E-02
 -1      3201 4.38133E-02
 -1      3202 3.67250E-02
 -1      3203 2.92462E-02
 -1      3204 6.85762E-02
 -1      3205 5.48547E-02
 -1      3206 4.72484E-02
 -1      3207 9.98638E-02
 -1      3208 8.23881E-02
 -1      3209 7.21017E-02
 -1      3210 1.39339E-01
 -1      3211 1.17233E-01
 -1      3212 1.03282E-01
 -1      3213 1.88701E-01
 -1      3214 1.61123E-01
 -1      3215 1.42435E-01
 -1      3216 2.49563E-01
 -1      3217 2.15820E-01
 -1      3218 1.91338E-01
 -1      3219 3.23261E-01
 -1      3220 2.82987E-01
 -1      3221 2.51880E-01
 -1      3222 4.11919E-01
 -1      3223 3.65346E-01
 -1      3224 3.27389E-01
 -1      3225 5.14949E-01
 -1      3226 4.63293E-01
 -1      3227 4.20848E-01
 -1      3228 6.29225E-01
 -1      3229 5.75202E-01
 -1      3230 5.32475E-01
 -1      3231 7.50564E-01
 -1      3232 6.97340E-01
 -1      3233 6.60843E-01
 -1      3234 8.65256E-01
 -1      3235 8.23038E-01
 -1      3236 8.01432E-01
 -1      3237 1.01637E+00
 -1      3238 9.48451E-01
 -1      3239 9.57101E-01
 -1      3240 1.18970E+00
 -1      3241 1.11147E+00
 -1      3242 1.13539E+00
 -1      3243 1.42365E+00
 -1      3244 1.36281E+00
 -1      3245 1.40360E+00
 -1      3246 1.72190E+00
 -1      3247 1.61040E+00
 -1      3248 1.76346E+00
 -1      3249 2.27153E+00
 -1      3250 2.06591E+00
 -1      3251 2.29422E+00
 -1      3252 2.64112E+00
 -1      3253 2.55599E+00
 -1      3254 2.92268E+00
 -1      3255 2.71142E+00
 -1      3256 2.42878E+00
 -1      3257 2.99479E+00
 -1      3258 5.42678E+00
 -1      3259 4.45047E+00
 -1      3260 4.09692E+00
 -1      3261 4.67231E+00
 -1      3262 3.23182E-01
 -1      3263 3.15332E-01
 -1      3264 4.65583E+00
 -1      3265 5.89874E+00
 -1      3266 5.88380E+00
 -1      3267 3.07518E+00
 -1      3268 9.90859E+00
 -1      3269 1.07242E+01
 -1      3270 6.54311E+00
 -1      3271 3.50827E-01
 -1      3272 3.84651E-01
 -1      3273 2.95957E-01
 -1      3274 5.08966E+00
 -1      3275 1.17314E+01
 -1      3276 1.62897E+01
 -1      3277 3.59905E+00
 -1      3278 4.13320E-01
 -1      3279 3.10359E-01
 -1      3280 2.62299E-01
 -1      3281 3.98837E-01
 -1      3282 1.38455E+01
 -1      3283 1.30464E+01
 -1      3284 1.22749E+01
 -1      3285 5.59856E+00
 -1      3286 4.37336E+00
 -1      3287 1.35855E-01
 -1      3288 1.49757E-01
 -1      3289 1.50265E-01
 -1      3290 1.25350E-01
 -1      3291 8.41271E+00
 -1      3292 7.11493E+00
 -1      3293 6.79006E+00
 -1      3294 7.08774E+00
 -1      3295 4.55009E-01
 -1      3296 3.14662E-01
 -1      3297 3.08246E-01
 -1      3298 2.43858E-01
 -1      3299 4.12696E+00
 -1      3300 3.06373E+00
 -1      3301 4.40681E+00
 -1      3302 3.89770E+00
 -1      3303 7.29809E+00
 -1      3304 9.16630E+00
 -1      3305 5.85414E+00
 -1      3306 4.48621E+00
 -1      3307 6.06425E+00
 -1      3308 3.66428E+00
 -1      3309 3.32289E+00
 -1      3310 3.63147E+00
 -1      3311 3.12237E-01
 -1      3312 3.11989E-01
 -1      3313 2.84796E-01
 -1      3314 9.74529E+00
 -1      3315 1.13157E+01
 -1      3316 3.18854E+00
 -1      3317 5.05519E+00
 -1      3318 3.76242E+00
 -1      3319 3.31361E-01
 -1      3320 3.28595E-01
 -1      3321 2.46355E-01
 -1      3322 4.08121E+00
 -1      3323 3.82639E+00
 -1      3324 1.09089E+01
 -1      3325 3.71375E+00
 -1      3326 3.91479E+00
 -1      3327 3.71336E+00
 -1      3328 2.70025E+00
 -1      3329 3.51803E+00
 -1      3330 3.90598E-01
 -1      3331 8.46199E+00
 -1      3332 6.16663E+00
 -1      3333 2.03000E-01
 -1      3334 2.25253E-01
 -1      3335 2.45125E-01
 -1      3336 2.93624E+00
 -1      3337 3.00727E+00
 -1      3338 3.29515E+00
 -1      3339 4.82122E+00
 -1      3340 5.32133E+00
 -1      3341 3.09469E+00
 -1      3342 3.15982E+00
 -1      3343 4.37383E+00
 -1      3344 2.63463E-01
 -1      3345 2.90723E-01
 -1      3346 2.35570E-01
 -1      3347 6.86217E+00
 -1      3348 7.99577E+00
 -1      3349 5.72243E+00
 -1      3350 8.82756E+00
 -1      3351 3.73726E+00
 -1      3352 2.61180E-01
 -1      3353 3.21174E-01
 -1      3354 3.21174E-01
 -1      3355 4.63468E+00
 -1      3356 3.02956E+00
 -1      3357 3.09469E+00
 -1      3358 3.12341E+00
 -1      3359 2.95617E+00
 -1      3360 5.25170E+00
 -1      3361 8.82756E+00
 -1      3362 1.15691E+01
 -1      3363 9.12594E+00
 -1      3364 9.35701E+00
 -1      3365 3.71635E+00
 -1      3366 3.43946E+00
 -1      3367 9.92208E+00
 -1      3368 5.43729E+00
 -1      3369 3.22511E-01
 -1      3370 3.23294E-01
 -1      3371 3.66910E-01
 -1      3372 3.92511E-01
 -1      3373 2.76382E-01
 -1      3374 2.87796E-01
 -1      3375 2.70143E-01
 -1      3376 3.24883E-01
 -1      3377 3.23182E-01
 -1      3378 2.87890E-01
 -1      3379 2.84181E-01
 -1      3380 8.52960E+00
 -1      3381 1.06640E+01
 -1      3382 3.22038E-01
 -1      3383 3.31929E-01
 -1      3384 2.86352E-01
 -1      3385 1.24457E+01
 -1      3386 6.90304E+00
 -1      3387 7.64532E+00
 -1      3388 5.48055E+00
 -1      3389 9.15323E+00
 -1      3390 9.30963E+00
 -1      3391 2.15472E-01
 -1      3392 2.04631E-01
 -1      3393 2.00999E-01
 -1      3394 1.86856E-01
 -1      3395 1.78913E-01
 -1      3396 1.79018E-01
 -1      3397 1.65700E-01
 -1      3398 1.67442E-01
 -1      3399 1.55889E-01
 -1      3400 1.45316E-01
 -1      3401 1.49792E-01
 -1      3402 1.37014E-01
 -1      3403 1.25891E-01
 -1      3404 1.31680E-01
 -1      3405 1.17677E-01
 -1      3406 1.06937E-01
 -1      3407 1.15164E-01
 -1      3408 9.85919E-02
 -1      3409 8.87328E-02
 -1      3410 9.86046E-02
 -1      3411 8.07875E-02
 -1      3412 7.19991E-02
 -1      3413 8.23143E-02
 -1      3414 6.46985E-02
 -1      3415 5.69525E-02
 -1      3416 6.70683E-02
 -1      3417 5.03390E-02
 -1      3418 4.34574E-02
 -1      3419 5.31541E-02
 -1      3420 3.74340E-02
 -1      3421 3.11296E-02
 -1      3422 4.05172E-02
 -1      3423 2.72474E-02
 -1      3424 2.22243E-02
 -1      3425 3.06115E-02
 -1      3426 2.33199E-02
 -1      3427 2.47608E-02
 -1      3428 2.78249E-02
 -1      3429 2.88855E-02
 -1      3430 3.78688E-02
 -1      3431 3.30451E-02
 -1      3432 4.84115E-02
 -1      3433 6.01793E-02
 -1      3434 4.77125E-02
 -1      3435 7.46126E-02
 -1      3436 8.96474E-02
 -1      3437 7.26885E-02
 -1      3438 1.08225E-01
 -1      3439 1.28454E-01
 -1      3440 1.05699E-01
 -1      3441 1.52240E-01
 -1      3442 1.78321E-01
 -1      3443 1.48062E-01
 -1      3444 2.08524E-01
 -1      3445 2.41472E-01
 -1      3446 2.02051E-01
 -1      3447 2.79460E-01
 -1      3448 3.20362E-01
 -1      3449 2.70242E-01
 -1      3450 3.67681E-01
 -1      3451 4.17350E-01
 -1      3452 3.55550E-01
 -1      3453 4.75739E-01
 -1      3454 5.34342E-01
 -1      3455 4.61259E-01
 -1      3456 6.05710E-01
 -1      3457 6.72089E-01
 -1      3458 5.91016E-01
 -1      3459 7.58333E-01
 -1      3460 8.34871E-01
 -1      3461 7.48627E-01
 -1      3462 9.37263E-01
 -1      3463 1.04307E+00
 -1      3464 9.37263E-01
 -1      3465 1.16642E+00
 -1      3466 1.31383E+00
 -1      3467 1.16301E+00
 -1      3468 1.53291E+00
 -1      3469 1.73532E+00
 -1      3470 1.50544E+00
 -1      3471 2.14213E+00
 -1      3472 2.36941E+00
 -1      3473 2.13132E+00
 -1      3474 3.68502E+00
 -1      3475 3.97100E+00
 -1      3476 3.85373E+00
 -1      3477 4.66262E+00
 -1      3478 5.13011E+00
 -1      3479 4.37143E+00
 -1      3480 1.57653E-01
 -1      3481 1.70470E-01
 -1      3482 7.64333E-02
 -1      3483 8.58768E-02
 -1      3484 9.46417E-02
 -1      3485 1.05443E-01
 -1      3486 8.88164E-02
 -1      3487 4.65407E-02
 -1      3488 5.31778E-02
 -1      3489 3.47977E-02
 -1      3490 4.00943E-02
 -1      3491 4.34406E-02
 -1      3492 2.37975E-02
 -1      3493 2.87950E-02
 -1      3494 3.09915E-02
 -1      3495 2.30630E-02
 -1      3496 2.32234E-02
 -1      3497 2.44147E-02
 -1      3498 3.29769E-02
 -1      3499 2.60161E-02
 -1      3500 2.67937E-02
 -1      3501 5.38957E-02
 -1      3502 4.28543E-02
 -1      3503 3.96242E-02
 -1      3504 8.04752E-02
 -1      3505 6.66633E-02
 -1      3506 6.22692E-02
 -1      3507 1.14759E-01
 -1      3508 9.73908E-02
 -1      3509 9.19524E-02
 -1      3510 1.57988E-01
 -1      3511 1.36204E-01
 -1      3512 1.30312E-01
 -1      3513 2.11957E-01
 -1      3514 1.84837E-01
 -1      3515 1.78607E-01
 -1      3516 2.78443E-01
 -1      3517 2.45020E-01
 -1      3518 2.38520E-01
 -1      3519 3.60409E-01
 -1      3520 3.18324E-01
 -1      3521 3.11464E-01
 -1      3522 4.58654E-01
 -1      3523 4.07279E-01
 -1      3524 3.98215E-01
 -1      3525 5.72096E-01
 -1      3526 5.11844E-01
 -1      3527 4.98275E-01
 -1      3528 6.97454E-01
 -1      3529 6.29339E-01
 -1      3530 6.08707E-01
 -1      3531 8.50105E-01
 -1      3532 7.77631E-01
 -1      3533 7.46127E-01
 -1      3534 1.03955E+00
 -1      3535 9.56356E-01
 -1      3536 9.32555E-01
 -1      3537 1.30060E+00
 -1      3538 1.20550E+00
 -1      3539 1.20475E+00
 -1      3540 1.67491E+00
 -1      3541 1.50181E+00
 -1      3542 1.57191E+00
 -1      3543 2.09729E+00
 -1      3544 1.91054E+00
 -1      3545 2.00875E+00
 -1      3546 2.92481E+00
 -1      3547 2.58080E+00
 -1      3548 2.72789E+00
 -1      3549 3.92870E+00
 -1      3550 4.38742E+00
 -1      3551 5.18292E+00
 -1      3552 4.09692E+00
 -1      3553 7.79994E+00
 -1      3554 8.80718E+00
 -1      3555 2.81794E+00
 -1      3556 2.81794E+00
 -1      3557 3.64341E+00
 -1      3558 2.47023E-01
 -1      3559 2.56602E-01
 -1      3560 5.49457E+00
 -1      3561 2.14950E-01
 -1      3562 2.11504E-01
 -1      3563 1.78576E-01
 -1      3564 9.11562E+00
 -1      3565 8.43453E+00
 -1      3566 1.23444E+01
 -1      3567 3.14942E-01
 -1      3568 3.22511E-01
 -1      3569 2.87608E-01
 -1      3570 3.19525E-01
 -1      3571 7.50923E+00
 -1      3572 6.73023E+00
 -1      3573 6.70277E+00
 -1      3574 5.63676E+00
 -1      3575 4.12039E+00
 -1      3576 3.39883E+00
 -1      3577 4.68399E+00
 -1      3578 3.01034E+00
 -1      3579 2.31692E-01
 -1      3580 2.47926E-01
 -1      3581 2.08571E-01
 -1      3582 6.03042E-02
 -1      3583 6.84774E-02
 -1      3584 7.20956E-02
 -1      3585 5.70133E-02
 -1      3586 1.87351E-01
 -1      3587 1.98786E-01
 -1      3588 1.58444E-01
 -1      3589 2.89133E+00
 -1      3590 3.50519E+00
 -1      3591 2.33159E-01
 -1      3592 2.19226E-01
 -1      3593 1.74155E-01
 -1      3594 2.23326E-01
 -1      3595 2.02916E-01
 -1      3596 2.17000E-01
 -1      3597 8.12375E+00
 -1      3598 6.52446E+00
 -1      3599 6.17840E+00
 -1      3600 5.86097E+00
 -1      3601 1.49103E-01
 -1      3602 1.43622E-01
 -1      3603 1.36234E-01
 -1      3604 1.82320E-01
 -1      3605 1.96553E-01
 -1      3606 1.64023E-01
 -1      3607 1.06920E-01
 -1      3608 1.14781E-01
 -1      3609 1.26827E-01
 -1      3610 3.11437E+00
 -1      3611 3.40096E+00
 -1      3612 6.70721E+00
 -1      3613 2.06894E-01
 -1      3614 2.25232E-01
 -1      3615 2.03015E-01
 -1      3616 1.86214E-01
 -1      3617 6.33945E+00
 -1      3618 7.60133E+00
 -1      3619 2.22208E-01
 -1      3620 8.86357E+00
 -1      3621 7.37603E+00
 -1      3622 2.84654E-01
 -1      3623 7.38635E+00
 -1      3624 1.94115E-01
 -1      3625 2.43050E-01
 -1      3626 2.52955E-01
 -1      3627 2.52955E-01
 -1      3628 2.52299E-01
 -1      3629 2.49205E-01
 -1      3630 2.52299E-01
 -1      3631 2.52299E-01
 -1      3632 2.16708E-01
 -1      3633 2.25309E-01
 -1      3634 2.12166E-01
 -1      3635 2.46819E-01
 -1      3636 1.55334E-01
 -1      3637 1.47495E-01
 -1      3638 1.43106E-01
 -1      3639 1.33295E-01
 -1      3640 1.30998E-01
 -1      3641 1.26666E-01
 -1      3642 1.18365E-01
 -1      3643 1.19980E-01
 -1      3644 1.10773E-01
 -1      3645 1.02559E-01
 -1      3646 1.05760E-01
 -1      3647 9.63124E-02
 -1      3648 8.79674E-02
 -1      3649 9.19219E-02
 -1      3650 8.15079E-02
 -1      3651 7.35626E-02
 -1      3652 7.92158E-02
 -1      3653 6.73224E-02
 -1      3654 6.00217E-02
 -1      3655 6.65160E-02
 -1      3656 5.42202E-02
 -1      3657 4.76067E-02
 -1      3658 5.44742E-02
 -1      3659 4.23259E-02
 -1      3660 3.63025E-02
 -1      3661 4.33920E-02
 -1      3662 3.37367E-02
 -1      3663 2.98545E-02
 -1      3664 3.55455E-02
 -1      3665 3.06550E-02
 -1      3666 3.17505E-02
 -1      3667 3.37801E-02
 -1      3668 3.39684E-02
 -1      3669 3.80931E-02
 -1      3670 3.67985E-02
 -1      3671 4.36425E-02
 -1      3672 5.41852E-02
 -1      3673 4.45658E-02
 -1      3674 6.61745E-02
 -1      3675 8.06079E-02
 -1      3676 6.21045E-02
 -1      3677 9.60676E-02
 -1      3678 1.14645E-01
 -1      3679 8.95536E-02
 -1      3680 1.34491E-01
 -1      3681 1.58277E-01
 -1      3682 1.24859E-01
 -1      3683 1.83602E-01
 -1      3684 2.13805E-01
 -1      3685 1.70031E-01
 -1      3686 2.45953E-01
 -1      3687 2.83941E-01
 -1      3688 2.27504E-01
 -1      3689 3.24639E-01
 -1      3690 3.71958E-01
 -1      3691 3.00349E-01
 -1      3692 4.23582E-01
 -1      3693 4.81971E-01
 -1      3694 3.92671E-01
 -1      3695 5.48019E-01
 -1      3696 6.19387E-01
 -1      3697 5.10342E-01
 -1      3698 7.05254E-01
 -1      3699 7.91498E-01
 -1      3700 6.62257E-01
 -1      3701 9.05535E-01
 -1      3702 1.00793E+00
 -1      3703 8.62162E-01
 -1      3704 1.16301E+00
 -1      3705 1.28636E+00
 -1      3706 1.13128E+00
 -1      3707 1.51093E+00
 -1      3708 1.73000E+00
 -1      3709 1.51093E+00
 -1      3710 2.16229E+00
 -1      3711 2.56909E+00
 -1      3712 2.16778E+00
 -1      3713 3.48609E+00
 -1      3714 4.80170E+00
 -1      3715 3.51706E+00
 -1      3716 2.75267E-02
 -1      3717 2.81009E-02
 -1      3718 8.02559E-02
 -1      3719 8.90208E-02
 -1      3720 6.01559E+00
 -1      3721 2.79635E-02
 -1      3722 3.39662E-02
 -1      3723 3.10755E-02
 -1      3724 3.93899E-02
 -1      3725 4.58363E-02
 -1      3726 3.63618E-02
 -1      3727 3.21466E-02
 -1      3728 2.91935E-02
 -1      3729 3.28796E-02
 -1      3730 4.70092E-02
 -1      3731 3.71318E-02
 -1      3732 3.95316E-02
 -1      3733 7.13981E-02
 -1      3734 5.86306E-02
 -1      3735 5.61382E-02
 -1      3736 1.03262E-01
 -1      3737 8.63460E-02
 -1      3738 8.27074E-02
 -1      3739 1.43786E-01
 -1      3740 1.22341E-01
 -1      3741 1.16735E-01
 -1      3742 1.94799E-01
 -1      3743 1.67949E-01
 -1      3744 1.59978E-01
 -1      3745 2.58171E-01
 -1      3746 2.25108E-01
 -1      3747 2.14450E-01
 -1      3748 3.35695E-01
 -1      3749 2.95814E-01
 -1      3750 2.82402E-01
 -1      3751 4.28880E-01
 -1      3752 3.82010E-01
 -1      3753 3.66360E-01
 -1      3754 5.38588E-01
 -1      3755 4.85398E-01
 -1      3756 4.69194E-01
 -1      3757 6.64271E-01
 -1      3758 6.07028E-01
 -1      3759 5.94152E-01
 -1      3760 8.26304E-01
 -1      3761 7.46127E-01
 -1      3762 7.44448E-01
 -1      3763 1.02705E+00
 -1      3764 9.20804E-01
 -1      3765 9.20804E-01
 -1      3766 1.34119E+00
 -1      3767 1.17525E+00
 -1      3768 1.16350E+00
 -1      3769 1.80646E+00
 -1      3770 1.60525E+00
 -1      3771 1.57574E+00
 -1      3772 2.24438E+00
 -1      3773 2.00875E+00
 -1      3774 2.04209E+00
 -1      3775 3.47777E+00
 -1      3776 2.99426E+00
 -1      3777 2.99426E+00
 -1      3778 5.68611E+00
 -1      3779 4.76081E+00
 -1      3780 1.77062E-01
 -1      3781 1.76159E-01
 -1      3782 1.72253E-01
 -1      3783 1.48821E-01
 -1      3784 1.52790E-01
 -1      3785 2.72692E-01
 -1      3786 1.77174E-01
 -1      3787 1.63622E-01
 -1      3788 1.45666E-01
 -1      3789 6.54597E+00
 -1      3790 6.59335E+00
 -1      3791 1.78873E-01
 -1      3792 2.37137E-01
 -1      3793 2.40846E-01
 -1      3794 1.87183E-01
 -1      3795 2.50001E-01
 -1      3796 2.52955E-01
 -1      3797 2.18302E-01
 -1      3798 2.17505E-01
 -1      3799 4.49443E+00
 -1      3800 1.64731E-01
 -1      3801 1.80895E-01
 -1      3802 1.55109E-01
 -1      3803 1.59266E-01
 -1      3804 1.55633E-01
 -1      3805 1.29511E-01
 -1      3806 2.45563E-01
 -1      3807 6.33099E+00
 -1      3808 5.64794E+00
 -1      3809 4.96452E+00
 -1      3810 1.25665E-01
 -1      3811 4.77045E-02
 -1      3812 5.17552E-02
 -1      3813 5.88815E-02
 -1      3814 1.29953E-01
 -1      3815 1.38504E-01
 -1      3816 1.46438E-01
 -1      3817 1.58289E-01
 -1      3818 1.32769E-01
 -1      3819 8.77654E-02
 -1      3820 9.63259E-02
 -1      3821 1.05664E-01
 -1      3822 2.02742E-01
 -1      3823 2.02742E-01
 -1      3824 1.82492E-01
 -1      3825 1.50079E-01
 -1      3826 1.76032E-01
 -1      3827 7.32490E-02
 -1      3828 7.34534E-02
 -1      3829 6.52931E-02
 -1      3830 5.98974E+00
 -1      3831 4.98176E+00
 -1      3832 4.96025E+00
 -1      3833 2.05255E-01
 -1      3834 1.70242E-01
 -1      3835 1.86454E-01
 -1      3836 1.87251E-01
 -1      3837 1.71691E-01
 -1      3838 1.86162E-01
 -1      3839 1.86162E-01
 -1      3840 1.55908E-01
 -1      3841 1.35687E-01
 -1      3842 2.02742E-01
 -1      3843 1.96606E-01
 -1      3844 4.92546E+00
 -1      3845 5.71845E+00
 -1      3846 1.87183E-01
 -1      3847 3.98988E+00
 -1      3848 5.39540E+00
 -1      3849 5.64745E+00
 -1      3850 4.04392E+00
 -1      3851 4.57438E+00
 -1      3852 4.03965E+00
 -1      3853 3.12692E+00
 -1      3854 1.22104E-01
 -1      3855 1.16985E-01
 -1      3856 1.12697E-01
 -1      3857 1.12247E-01
 -1      3858 1.05618E-01
 -1      3859 1.00949E-01
 -1      3860 9.33570E-02
 -1      3861 9.32151E-02
 -1      3862 8.77340E-02
 -1      3863 8.14873E-02
 -1      3864 8.29224E-02
 -1      3865 7.56228E-02
 -1      3866 6.91633E-02
 -1      3867 7.14349E-02
 -1      3868 6.40361E-02
 -1      3869 5.77958E-02
 -1      3870 6.04431E-02
 -1      3871 5.31333E-02
 -1      3872 4.73318E-02
 -1      3873 5.06533E-02
 -1      3874 4.39621E-02
 -1      3875 3.86813E-02
 -1      3876 4.26211E-02
 -1      3877 3.74222E-02
 -1      3878 3.48564E-02
 -1      3879 3.79923E-02
 -1      3880 3.52203E-02
 -1      3881 3.60208E-02
 -1      3882 3.70971E-02
 -1      3883 3.78157E-02
 -1      3884 4.00336E-02
 -1      3885 3.92559E-02
 -1      3886 4.34760E-02
 -1      3887 4.90254E-02
 -1      3888 4.44932E-02
 -1      3889 5.56293E-02
 -1      3890 6.76187E-02
 -1      3891 5.45396E-02
 -1      3892 7.71239E-02
 -1      3893 9.25836E-02
 -1      3894 7.06487E-02
 -1      3895 1.07497E-01
 -1      3896 1.27343E-01
 -1      3897 9.50670E-02
 -1      3898 1.46447E-01
 -1      3899 1.71772E-01
 -1      3900 1.29084E-01
 -1      3901 1.96110E-01
 -1      3902 2.28257E-01
 -1      3903 1.72526E-01
 -1      3904 2.59215E-01
 -1      3905 2.99913E-01
 -1      3906 2.27821E-01
 -1      3907 3.39492E-01
 -1      3908 3.91115E-01
 -1      3909 2.98358E-01
 -1      3910 4.42476E-01
 -1      3911 5.08524E-01
 -1      3912 3.89297E-01
 -1      3913 5.77107E-01
 -1      3914 6.62975E-01
 -1      3915 5.09241E-01
 -1      3916 7.58806E-01
 -1      3917 8.72843E-01
 -1      3918 6.73656E-01
 -1      3919 1.01159E+00
 -1      3920 1.16668E+00
 -1      3921 9.08239E-01
 -1      3922 1.38322E+00
 -1      3923 1.60778E+00
 -1      3924 1.26353E+00
 -1      3925 2.03061E+00
 -1      3926 2.46289E+00
 -1      3927 2.98975E+00
 -1      3928 1.90290E+00
 -1      3929 4.39319E-02
 -1      3930 3.89467E-02
 -1      3931 3.32992E-02
 -1      3932 3.31618E-02
 -1      3933 3.32208E-02
 -1      3934 3.86445E-02
 -1      3935 3.54445E-02
 -1      3936 6.14957E-02
 -1      3937 4.98743E-02
 -1      3938 4.92894E-02
 -1      3939 8.84066E-02
 -1      3940 7.34587E-02
 -1      3941 6.71949E-02
 -1      3942 1.22925E-01
 -1      3943 1.03846E-01
 -1      3944 9.45970E-02
 -1      3945 1.66890E-01
 -1      3946 1.42727E-01
 -1      3947 1.29837E-01
 -1      3948 2.22442E-01
 -1      3949 1.92132E-01
 -1      3950 1.74881E-01
 -1      3951 2.92132E-01
 -1      3952 2.54489E-01
 -1      3953 2.32171E-01
 -1      3954 3.79119E-01
 -1      3955 3.32804E-01
 -1      3956 3.04891E-01
 -1      3957 4.87520E-01
 -1      3958 4.31002E-01
 -1      3959 3.97446E-01
 -1      3960 6.22975E-01
 -1      3961 5.54536E-01
 -1      3962 5.16344E-01
 -1      3963 7.93290E-01
 -1      3964 7.11434E-01
 -1      3965 6.71817E-01
 -1      3966 1.00831E+00
 -1      3967 9.13815E-01
 -1      3968 8.80801E-01
 -1      3969 1.31169E+00
 -1      3970 1.16350E+00
 -1      3971 1.15651E+00
 -1      3972 1.98724E+00
 -1      3973 1.72319E+00
 -1      3974 1.72319E+00
 -1      3975 3.11856E+00
 -1      3976 2.91627E+00
 -1      3977 3.06371E+00
 -1      3978 3.70549E+00
 -1      3979 2.95560E+00
 -1      3980 1.64071E-01
 -1      3981 1.74412E-01
 -1      3982 1.46486E-01
 -1      3983 1.06350E-01
 -1      3984 1.12825E-01
 -1      3985 1.50133E-01
 -1      3986 1.51149E-01
 -1      3987 1.18915E-01
 -1      3988 1.18615E-01
 -1      3989 9.57541E-02
 -1      3990 1.19315E-01
 -1      3991 1.14926E-01
 -1      3992 1.00564E-01
 -1      3993 1.81695E-01
 -1      3994 1.46780E-01
 -1      3995 1.14706E-01
 -1      3996 9.80212E-02
 -1      3997 1.46780E-01
 -1      3998 4.76537E+00
 -1      3999 4.15284E+00
 -1      4000 4.20913E+00
 -1      4001 1.31731E-01
 -1      4002 1.47223E-01
 -1      4003 1.06820E-01
 -1      4004 3.61923E-02
 -1      4005 3.45256E-02
 -1      4006 4.05926E-02
 -1      4007 1.86162E-01
 -1      4008 3.82979E+00
 -1      4009 1.17639E-01
 -1      4010 1.25573E-01
 -1      4011 4.94467E-02
 -1      4012 5.53656E-02
 -1      4013 4.63057E-02
 -1      4014 3.66119E-02
 -1      4015 1.04304E-01
 -1      4016 1.12153E-01
 -1      4017 1.04957E-01
 -1      4018 7.69495E-02
 -1      4019 8.42546E-02
 -1      4020 1.31440E-01
 -1      4021 1.31731E-01
 -1      4022 1.07263E-01
 -1      4023 4.15284E+00
 -1      4024 1.53888E-01
 -1      4025 1.24717E-01
 -1      4026 1.30201E-01
 -1      4027 1.30147E-01
 -1      4028 6.00350E-02
 -1      4029 1.02543E-01
 -1      4030 1.02103E-01
 -1      4031 3.99274E+00
 -1      4032 6.46416E-02
 -1      4033 7.16485E-02
 -1      4034 6.81377E-02
 -1      4035 8.50107E-02
 -1      4036 8.03411E-02
 -1      4037 7.68259E-02
 -1      4038 7.12029E-02
 -1      4039 6.86216E-02
 -1      4040 7.89465E-02
 -1      4041 7.30820E-02
 -1      4042 7.28500E-02
 -1      4043 6.02306E-02
 -1      4044 5.51033E-02
 -1      4045 6.77422E-02
 -1      4046 5.11737E-02
 -1      4047 4.65111E-02
 -1      4048 5.09611E-02
 -1      4049 5.18139E-02
 -1      4050 4.84442E-02
 -1      4051 5.23342E-02
 -1      4052 3.92514E-02
 -1      4053 3.79923E-02
 -1      4054 4.84442E-02
 -1      4055 3.70971E-02
 -1      4056 3.74610E-02
 -1      4057 3.83562E-02
 -1      4058 3.92559E-02
 -1      4059 4.10509E-02
 -1      4060 3.92559E-02
 -1      4061 4.44932E-02
 -1      4062 4.79356E-02
 -1      4063 4.44932E-02
 -1      4064 5.44557E-02
 -1      4065 6.10596E-02
 -1      4066 5.44557E-02
 -1      4067 7.01180E-02
 -1      4068 7.96232E-02
 -1      4069 7.00341E-02
 -1      4070 9.16946E-02
 -1      4071 1.06608E-01
 -1      4072 9.11639E-02
 -1      4073 1.22253E-01
 -1      4074 1.41357E-01
 -1      4075 1.18880E-01
 -1      4076 1.61258E-01
 -1      4077 1.85596E-01
 -1      4078 1.54427E-01
 -1      4079 2.10633E-01
 -1      4080 2.41591E-01
 -1      4081 1.99366E-01
 -1      4082 2.72997E-01
 -1      4083 3.12576E-01
 -1      4084 2.55809E-01
 -1      4085 3.52247E-01
 -1      4086 4.03608E-01
 -1      4087 3.26886E-01
 -1      4088 4.54726E-01
 -1      4089 5.23309E-01
 -1      4090 4.17676E-01
 -1      4091 5.91590E-01
 -1      4092 6.87422E-01
 -1      4093 5.37075E-01
 -1      4094 7.83867E-01
 -1      4095 9.22617E-01
 -1      4096 7.01801E-01
 -1      4097 1.08216E+00
 -1      4098 1.29870E+00
 -1      4099 9.57789E-01
 -1      4100 5.46541E-02
 -1      4101 4.87116E-02
 -1      4102 9.38612E-02
 -1      4103 9.11818E-02
 -1      4104 7.83078E-02
 -1      4105 3.78382E-02
 -1      4106 3.66119E-02
 -1      4107 1.00731E-01
 -1      4108 8.52920E-02
 -1      4109 1.34528E-01
 -1      4110 1.14726E-01
 -1      4111 1.05421E-01
 -1      4112 1.77607E-01
 -1      4113 1.52365E-01
 -1      4114 1.37254E-01
 -1      4115 2.32009E-01
 -1      4116 1.99962E-01
 -1      4117 1.77445E-01
 -1      4118 3.00405E-01
 -1      4119 2.59733E-01
 -1      4120 2.27524E-01
 -1      4121 3.92481E-01
 -1      4122 3.40598E-01
 -1      4123 2.95441E-01
 -1      4124 5.13259E-01
 -1      4125 4.46243E-01
 -1      4126 3.89396E-01
 -1      4127 6.75303E-01
 -1      4128 5.86845E-01
 -1      4129 5.16745E-01
 -1      4130 9.00559E-01
 -1      4131 7.80034E-01
 -1      4132 6.95062E-01
 -1      4133 1.21533E+00
 -1      4134 1.06015E+00
 -1      4135 9.59385E-01
 -1      4136 1.91730E+00
 -1      4137 1.50581E+00
 -1      4138 1.40945E+00
 -1      4139 3.40602E+00
 -1      4140 2.47698E+00
 -1      4141 2.25960E+00
 -1      4142 3.40602E+00
 -1      4143 8.35283E-02
 -1      4144 9.43441E-02
 -1      4145 1.01377E-01
 -1      4146 1.13874E-01
 -1      4147 1.29005E-01
 -1      4148 1.34787E-01
 -1      4149 7.77085E-02
 -1      4150 8.37978E-02
 -1      4151 5.64487E-02
 -1      4152 6.28603E-02
 -1      4153 6.10553E-02
 -1      4154 3.50362E+00
 -1      4155 3.28723E+00
 -1      4156 2.70051E+00
 -1      4157 1.34471E-01
 -1      4158 1.36091E-01
 -1      4159 1.10729E-01
 -1      4160 1.16990E-01
 -1      4161 9.16178E-02
 -1      4162 9.23178E-02
 -1      4163 7.35721E-02
 -1      4164 3.56497E-02
 -1      4165 3.57087E-02
 -1      4166 3.68760E-02
 -1      4167 1.55616E-01
 -1      4168 3.11775E+00
 -1      4169 7.81182E-02
 -1      4170 6.97618E-02
 -1      4171 5.78055E-02
 -1      4172 7.85609E-02
 -1      4173 7.45673E-02
 -1      4174 6.26042E-02
 -1      4175 6.20264E-02
 -1      4176 8.07013E-02
 -1      4177 1.31440E-01
 -1      4178 4.33470E-02
 -1      4179 4.05926E-02
 -1      4180 4.87116E-02
 -1      4181 1.49598E+00
 -1      4182 1.67735E+00
 -1      4183 2.10018E+00
 -1      4184 5.81909E-02
 -1      4185 4.05926E-02
 -1      4186 4.65702E-02
 -1      4187 5.73724E-02
 -1      4188 4.67754E-02
 -1      4189 2.45372E+00
 -1      4190 9.65449E-02
 -1      4191 8.14724E-02
 -1      4192 8.14724E-02
 -1      4193 5.27704E-02
 -1      4194 1.06024E-01
 -1      4195 7.56333E-02
 -1      4196 8.57229E-02
 -1      4197 9.94719E-02
 -1      4198 1.02904E-01
 -1      4199 8.29355E-02
 -1      4200 9.20491E-02
 -1      4201 9.75344E-02
 -1      4202 8.65638E-02
 -1      4203 7.17152E-02
 -1      4204 7.70162E-02
 -1      4205 7.92108E-02
 -1      4206 7.28500E-02
 -1      4207 8.05937E-02
 -1      4208 8.05937E-02
 -1      4209 6.77422E-02
 -1      4210 5.23342E-02
 -1      4211 5.76369E-02
 -1      4212 5.76369E-02
 -1      4213 4.84442E-02
 -1      4214 3.75826E-02
 -1      4215 3.66874E-02
 -1      4216 3.76496E-02
 -1      4217 3.94446E-02
 -1      4218 4.21989E-02
 -1      4219 4.56413E-02
 -1      4220 5.10059E-02
 -1      4221 5.75260E-02
 -1      4222 6.54761E-02
 -1      4223 7.45346E-02
 -1      4224 8.52593E-02
 -1      4225 9.73307E-02
 -1      4226 1.11326E-01
 -1      4227 1.26971E-01
 -1      4228 1.44808E-01
 -1      4229 1.64709E-01
 -1      4230 1.87064E-01
 -1      4231 2.12102E-01
 -1      4232 2.39826E-01
 -1      4233 2.71231E-01
 -1      4234 3.11425E-01
 -1      4235 3.51096E-01
 -1      4236 4.04858E-01
 -1      4237 4.55976E-01
 -1      4238 5.29563E-01
 -1      4239 5.97844E-01
 -1      4240 7.02574E-01
 -1      4241 7.99019E-01
 -1      4242 9.58612E-01
 -1      4243 1.11816E+00
 -1      4244 5.73724E-02
 -1      4245 5.84555E-02
 -1      4246 8.45526E-02
 -1      4247 7.83815E-02
 -1      4248 1.40863E+00
 -1      4249 2.34696E+00
 -1      4250 1.78728E+00
 -1      4251 8.79868E-02
 -1      4252 1.02389E-01
 -1      4253 1.02073E-01
 -1      4254 8.49467E-02
 -1      4255 8.64901E-02
 -1      4256 7.66122E-02
 -1      4257 8.44322E-02
 -1      4258 5.92740E-02
 -1      4259 6.10553E-02
 -1      4260 6.99338E-02
 -1      4261 5.84555E-02
 -1      4262 8.28773E-02
 -1      4263 7.93621E-02
 -1      4264 8.71058E-02
 -1      4265 8.91220E-02
 -1      4266 8.02333E-02
 -1      4267 2.22818E+00
 -1      4268 5.76369E-02
 -1      4269 5.31527E-02
 -1      4270 5.70824E-02
 -1      4271 9.75323E-02
 -1      4272 9.15878E-02
 -1      4273 6.70364E-02
 -1      4274 8.29316E-02
 -1      4275 5.83710E-02
 -1      4276 6.63177E-02
 -1      4277 9.65449E-02
 -1      4278 8.57229E-02
 -1      4279 9.36179E-02
 -1      4280 7.92108E-02
 -1      4281 8.05937E-02
 -1      4282 6.12826E-02
 -1      4283 7.26370E-02
 -1      4284 7.71778E-02
 -3
 9999
